# vtk DataFile Version 5.1
vtk output
ASCII

DATASET UNSTRUCTURED_GRID
POINTS 15625 float
0 0 0
0.0416667 0 0
0.0833333 0 0
0.125 0 0
0.166667 0 0
0.208333 0 0
0.25 0 0
0.291667 0 0
0.333333 0 0
0.375 0 0
0.416667 0 0
0.458333 0 0
0.5 0 0
0.541667 0 0
0.583333 0 0
0.625 0 0
0.666667 0 0
0.708333 0 0
0.75 0 0
0.791667 0 0
0.833333 0 0
0.875 0 0
0.916667 0 0
0.958333 0 0
1 0 0
0 0.0416667 0
0.0416667 0.0416667 0
0.0833333 0.0416667 0
0.125 0.0416667 0
0.166667 0.0416667 0
0.208333 0.0416667 0
0.25 0.0416667 0
0.291667 0.0416667 0
0.333333 0.0416667 0
0.375 0.0416667 0
0.416667 0.0416667 0
0.458333 0.0416667 0
0.5 0.0416667 0
0.541667 0.0416667 0
0.583333 0.0416667 0
0.625 0.0416667 0
0.666667 0.0416667 0
0.708333 0.0416667 0
0.75 0.0416667 0
0.791667 0.0416667 0
0.833333 0.0416667 0
0.875 0.0416667 0
0.916667 0.0416667 0
0.958333 0.0416667 0
1 0.0416667 0
0 0.0833333 0
0.0416667 0.0833333 0
0.0833333 0.0833333 0
0.125 0.0833333 0
0.166667 0.0833333 0
0.208333 0.0833333 0
0.25 0.0833333 0
0.291667 0.0833333 0
0.333333 0.0833333 0
0.375 0.0833333 0
0.416667 0.0833333 0
0.458333 0.0833333 0
0.5 0.0833333 0
0.541667 0.0833333 0
0.583333 0.0833333 0
0.625 0.0833333 0
0.666667 0.0833333 0
0.708333 0.0833333 0
0.75 0.0833333 0
0.791667 0.0833333 0
0.833333 0.0833333 0
0.875 0.0833333 0
0.916667 0.0833333 0
0.958333 0.0833333 0
1 0.0833333 0
0 0.125 0
0.0416667 0.125 0
0.0833333 0.125 0
0.125 0.125 0
0.166667 0.125 0
0.208333 0.125 0
0.25 0.125 0
0.291667 0.125 0
0.333333 0.125 0
0.375 0.125 0
0.416667 0.125 0
0.458333 0.125 0
0.5 0.125 0
0.541667 0.125 0
0.583333 0.125 0
0.625 0.125 0
0.666667 0.125 0
0.708333 0.125 0
0.75 0.125 0
0.791667 0.125 0
0.833333 0.125 0
0.875 0.125 0
0.916667 0.125 0
0.958333 0.125 0
1 0.125 0
0 0.166667 0
0.0416667 0.166667 0
0.0833333 0.166667 0
0.125 0.166667 0
0.166667 0.166667 0
0.208333 0.166667 0
0.25 0.166667 0
0.291667 0.166667 0
0.333333 0.166667 0
0.375 0.166667 0
0.416667 0.166667 0
0.458333 0.166667 0
0.5 0.166667 0
0.541667 0.166667 0
0.583333 0.166667 0
0.625 0.166667 0
0.666667 0.166667 0
0.708333 0.166667 0
0.75 0.166667 0
0.791667 0.166667 0
0.833333 0.166667 0
0.875 0.166667 0
0.916667 0.166667 0
0.958333 0.166667 0
1 0.166667 0
0 0.208333 0
0.0416667 0.208333 0
0.0833333 0.208333 0
0.125 0.208333 0
0.166667 0.208333 0
0.208333 0.208333 0
0.25 0.208333 0
0.291667 0.208333 0
0.333333 0.208333 0
0.375 0.208333 0
0.416667 0.208333 0
0.458333 0.208333 0
0.5 0.208333 0
0.541667 0.208333 0
0.583333 0.208333 0
0.625 0.208333 0
0.666667 0.208333 0
0.708333 0.208333 0
0.75 0.208333 0
0.791667 0.208333 0
0.833333 0.208333 0
0.875 0.208333 0
0.916667 0.208333 0
0.958333 0.208333 0
1 0.208333 0
0 0.25 0
0.0416667 0.25 0
0.0833333 0.25 0
0.125 0.25 0
0.166667 0.25 0
0.208333 0.25 0
0.25 0.25 0
0.291667 0.25 0
0.333333 0.25 0
0.375 0.25 0
0.416667 0.25 0
0.458333 0.25 0
0.5 0.25 0
0.541667 0.25 0
0.583333 0.25 0
0.625 0.25 0
0.666667 0.25 0
0.708333 0.25 0
0.75 0.25 0
0.791667 0.25 0
0.833333 0.25 0
0.875 0.25 0
0.916667 0.25 0
0.958333 0.25 0
1 0.25 0
0 0.291667 0
0.0416667 0.291667 0
0.0833333 0.291667 0
0.125 0.291667 0
0.166667 0.291667 0
0.208333 0.291667 0
0.25 0.291667 0
0.291667 0.291667 0
0.333333 0.291667 0
0.375 0.291667 0
0.416667 0.291667 0
0.458333 0.291667 0
0.5 0.291667 0
0.541667 0.291667 0
0.583333 0.291667 0
0.625 0.291667 0
0.666667 0.291667 0
0.708333 0.291667 0
0.75 0.291667 0
0.791667 0.291667 0
0.833333 0.291667 0
0.875 0.291667 0
0.916667 0.291667 0
0.958333 0.291667 0
1 0.291667 0
0 0.333333 0
0.0416667 0.333333 0
0.0833333 0.333333 0
0.125 0.333333 0
0.166667 0.333333 0
0.208333 0.333333 0
0.25 0.333333 0
0.291667 0.333333 0
0.333333 0.333333 0
0.375 0.333333 0
0.416667 0.333333 0
0.458333 0.333333 0
0.5 0.333333 0
0.541667 0.333333 0
0.583333 0.333333 0
0.625 0.333333 0
0.666667 0.333333 0
0.708333 0.333333 0
0.75 0.333333 0
0.791667 0.333333 0
0.833333 0.333333 0
0.875 0.333333 0
0.916667 0.333333 0
0.958333 0.333333 0
1 0.333333 0
0 0.375 0
0.0416667 0.375 0
0.0833333 0.375 0
0.125 0.375 0
0.166667 0.375 0
0.208333 0.375 0
0.25 0.375 0
0.291667 0.375 0
0.333333 0.375 0
0.375 0.375 0
0.416667 0.375 0
0.458333 0.375 0
0.5 0.375 0
0.541667 0.375 0
0.583333 0.375 0
0.625 0.375 0
0.666667 0.375 0
0.708333 0.375 0
0.75 0.375 0
0.791667 0.375 0
0.833333 0.375 0
0.875 0.375 0
0.916667 0.375 0
0.958333 0.375 0
1 0.375 0
0 0.416667 0
0.0416667 0.416667 0
0.0833333 0.416667 0
0.125 0.416667 0
0.166667 0.416667 0
0.208333 0.416667 0
0.25 0.416667 0
0.291667 0.416667 0
0.333333 0.416667 0
0.375 0.416667 0
0.416667 0.416667 0
0.458333 0.416667 0
0.5 0.416667 0
0.541667 0.416667 0
0.583333 0.416667 0
0.625 0.416667 0
0.666667 0.416667 0
0.708333 0.416667 0
0.75 0.416667 0
0.791667 0.416667 0
0.833333 0.416667 0
0.875 0.416667 0
0.916667 0.416667 0
0.958333 0.416667 0
1 0.416667 0
0 0.458333 0
0.0416667 0.458333 0
0.0833333 0.458333 0
0.125 0.458333 0
0.166667 0.458333 0
0.208333 0.458333 0
0.25 0.458333 0
0.291667 0.458333 0
0.333333 0.458333 0
0.375 0.458333 0
0.416667 0.458333 0
0.458333 0.458333 0
0.5 0.458333 0
0.541667 0.458333 0
0.583333 0.458333 0
0.625 0.458333 0
0.666667 0.458333 0
0.708333 0.458333 0
0.75 0.458333 0
0.791667 0.458333 0
0.833333 0.458333 0
0.875 0.458333 0
0.916667 0.458333 0
0.958333 0.458333 0
1 0.458333 0
0 0.5 0
0.0416667 0.5 0
0.0833333 0.5 0
0.125 0.5 0
0.166667 0.5 0
0.208333 0.5 0
0.25 0.5 0
0.291667 0.5 0
0.333333 0.5 0
0.375 0.5 0
0.416667 0.5 0
0.458333 0.5 0
0.5 0.5 0
0.541667 0.5 0
0.583333 0.5 0
0.625 0.5 0
0.666667 0.5 0
0.708333 0.5 0
0.75 0.5 0
0.791667 0.5 0
0.833333 0.5 0
0.875 0.5 0
0.916667 0.5 0
0.958333 0.5 0
1 0.5 0
0 0.541667 0
0.0416667 0.541667 0
0.0833333 0.541667 0
0.125 0.541667 0
0.166667 0.541667 0
0.208333 0.541667 0
0.25 0.541667 0
0.291667 0.541667 0
0.333333 0.541667 0
0.375 0.541667 0
0.416667 0.541667 0
0.458333 0.541667 0
0.5 0.541667 0
0.541667 0.541667 0
0.583333 0.541667 0
0.625 0.541667 0
0.666667 0.541667 0
0.708333 0.541667 0
0.75 0.541667 0
0.791667 0.541667 0
0.833333 0.541667 0
0.875 0.541667 0
0.916667 0.541667 0
0.958333 0.541667 0
1 0.541667 0
0 0.583333 0
0.0416667 0.583333 0
0.0833333 0.583333 0
0.125 0.583333 0
0.166667 0.583333 0
0.208333 0.583333 0
0.25 0.583333 0
0.291667 0.583333 0
0.333333 0.583333 0
0.375 0.583333 0
0.416667 0.583333 0
0.458333 0.583333 0
0.5 0.583333 0
0.541667 0.583333 0
0.583333 0.583333 0
0.625 0.583333 0
0.666667 0.583333 0
0.708333 0.583333 0
0.75 0.583333 0
0.791667 0.583333 0
0.833333 0.583333 0
0.875 0.583333 0
0.916667 0.583333 0
0.958333 0.583333 0
1 0.583333 0
0 0.625 0
0.0416667 0.625 0
0.0833333 0.625 0
0.125 0.625 0
0.166667 0.625 0
0.208333 0.625 0
0.25 0.625 0
0.291667 0.625 0
0.333333 0.625 0
0.375 0.625 0
0.416667 0.625 0
0.458333 0.625 0
0.5 0.625 0
0.541667 0.625 0
0.583333 0.625 0
0.625 0.625 0
0.666667 0.625 0
0.708333 0.625 0
0.75 0.625 0
0.791667 0.625 0
0.833333 0.625 0
0.875 0.625 0
0.916667 0.625 0
0.958333 0.625 0
1 0.625 0
0 0.666667 0
0.0416667 0.666667 0
0.0833333 0.666667 0
0.125 0.666667 0
0.166667 0.666667 0
0.208333 0.666667 0
0.25 0.666667 0
0.291667 0.666667 0
0.333333 0.666667 0
0.375 0.666667 0
0.416667 0.666667 0
0.458333 0.666667 0
0.5 0.666667 0
0.541667 0.666667 0
0.583333 0.666667 0
0.625 0.666667 0
0.666667 0.666667 0
0.708333 0.666667 0
0.75 0.666667 0
0.791667 0.666667 0
0.833333 0.666667 0
0.875 0.666667 0
0.916667 0.666667 0
0.958333 0.666667 0
1 0.666667 0
0 0.708333 0
0.0416667 0.708333 0
0.0833333 0.708333 0
0.125 0.708333 0
0.166667 0.708333 0
0.208333 0.708333 0
0.25 0.708333 0
0.291667 0.708333 0
0.333333 0.708333 0
0.375 0.708333 0
0.416667 0.708333 0
0.458333 0.708333 0
0.5 0.708333 0
0.541667 0.708333 0
0.583333 0.708333 0
0.625 0.708333 0
0.666667 0.708333 0
0.708333 0.708333 0
0.75 0.708333 0
0.791667 0.708333 0
0.833333 0.708333 0
0.875 0.708333 0
0.916667 0.708333 0
0.958333 0.708333 0
1 0.708333 0
0 0.75 0
0.0416667 0.75 0
0.0833333 0.75 0
0.125 0.75 0
0.166667 0.75 0
0.208333 0.75 0
0.25 0.75 0
0.291667 0.75 0
0.333333 0.75 0
0.375 0.75 0
0.416667 0.75 0
0.458333 0.75 0
0.5 0.75 0
0.541667 0.75 0
0.583333 0.75 0
0.625 0.75 0
0.666667 0.75 0
0.708333 0.75 0
0.75 0.75 0
0.791667 0.75 0
0.833333 0.75 0
0.875 0.75 0
0.916667 0.75 0
0.958333 0.75 0
1 0.75 0
0 0.791667 0
0.0416667 0.791667 0
0.0833333 0.791667 0
0.125 0.791667 0
0.166667 0.791667 0
0.208333 0.791667 0
0.25 0.791667 0
0.291667 0.791667 0
0.333333 0.791667 0
0.375 0.791667 0
0.416667 0.791667 0
0.458333 0.791667 0
0.5 0.791667 0
0.541667 0.791667 0
0.583333 0.791667 0
0.625 0.791667 0
0.666667 0.791667 0
0.708333 0.791667 0
0.75 0.791667 0
0.791667 0.791667 0
0.833333 0.791667 0
0.875 0.791667 0
0.916667 0.791667 0
0.958333 0.791667 0
1 0.791667 0
0 0.833333 0
0.0416667 0.833333 0
0.0833333 0.833333 0
0.125 0.833333 0
0.166667 0.833333 0
0.208333 0.833333 0
0.25 0.833333 0
0.291667 0.833333 0
0.333333 0.833333 0
0.375 0.833333 0
0.416667 0.833333 0
0.458333 0.833333 0
0.5 0.833333 0
0.541667 0.833333 0
0.583333 0.833333 0
0.625 0.833333 0
0.666667 0.833333 0
0.708333 0.833333 0
0.75 0.833333 0
0.791667 0.833333 0
0.833333 0.833333 0
0.875 0.833333 0
0.916667 0.833333 0
0.958333 0.833333 0
1 0.833333 0
0 0.875 0
0.0416667 0.875 0
0.0833333 0.875 0
0.125 0.875 0
0.166667 0.875 0
0.208333 0.875 0
0.25 0.875 0
0.291667 0.875 0
0.333333 0.875 0
0.375 0.875 0
0.416667 0.875 0
0.458333 0.875 0
0.5 0.875 0
0.541667 0.875 0
0.583333 0.875 0
0.625 0.875 0
0.666667 0.875 0
0.708333 0.875 0
0.75 0.875 0
0.791667 0.875 0
0.833333 0.875 0
0.875 0.875 0
0.916667 0.875 0
0.958333 0.875 0
1 0.875 0
0 0.916667 0
0.0416667 0.916667 0
0.0833333 0.916667 0
0.125 0.916667 0
0.166667 0.916667 0
0.208333 0.916667 0
0.25 0.916667 0
0.291667 0.916667 0
0.333333 0.916667 0
0.375 0.916667 0
0.416667 0.916667 0
0.458333 0.916667 0
0.5 0.916667 0
0.541667 0.916667 0
0.583333 0.916667 0
0.625 0.916667 0
0.666667 0.916667 0
0.708333 0.916667 0
0.75 0.916667 0
0.791667 0.916667 0
0.833333 0.916667 0
0.875 0.916667 0
0.916667 0.916667 0
0.958333 0.916667 0
1 0.916667 0
0 0.958333 0
0.0416667 0.958333 0
0.0833333 0.958333 0
0.125 0.958333 0
0.166667 0.958333 0
0.208333 0.958333 0
0.25 0.958333 0
0.291667 0.958333 0
0.333333 0.958333 0
0.375 0.958333 0
0.416667 0.958333 0
0.458333 0.958333 0
0.5 0.958333 0
0.541667 0.958333 0
0.583333 0.958333 0
0.625 0.958333 0
0.666667 0.958333 0
0.708333 0.958333 0
0.75 0.958333 0
0.791667 0.958333 0
0.833333 0.958333 0
0.875 0.958333 0
0.916667 0.958333 0
0.958333 0.958333 0
1 0.958333 0
0 1 0
0.0416667 1 0
0.0833333 1 0
0.125 1 0
0.166667 1 0
0.208333 1 0
0.25 1 0
0.291667 1 0
0.333333 1 0
0.375 1 0
0.416667 1 0
0.458333 1 0
0.5 1 0
0.541667 1 0
0.583333 1 0
0.625 1 0
0.666667 1 0
0.708333 1 0
0.75 1 0
0.791667 1 0
0.833333 1 0
0.875 1 0
0.916667 1 0
0.958333 1 0
1 1 0
0 0 0.0416667
0.0416667 0 0.0416667
0.0833333 0 0.0416667
0.125 0 0.0416667
0.166667 0 0.0416667
0.208333 0 0.0416667
0.25 0 0.0416667
0.291667 0 0.0416667
0.333333 0 0.0416667
0.375 0 0.0416667
0.416667 0 0.0416667
0.458333 0 0.0416667
0.5 0 0.0416667
0.541667 0 0.0416667
0.583333 0 0.0416667
0.625 0 0.0416667
0.666667 0 0.0416667
0.708333 0 0.0416667
0.75 0 0.0416667
0.791667 0 0.0416667
0.833333 0 0.0416667
0.875 0 0.0416667
0.916667 0 0.0416667
0.958333 0 0.0416667
1 0 0.0416667
0 0.0416667 0.0416667
0.0416667 0.0416667 0.0416667
0.0833333 0.0416667 0.0416667
0.125 0.0416667 0.0416667
0.166667 0.0416667 0.0416667
0.208333 0.0416667 0.0416667
0.25 0.0416667 0.0416667
0.291667 0.0416667 0.0416667
0.333333 0.0416667 0.0416667
0.375 0.0416667 0.0416667
0.416667 0.0416667 0.0416667
0.458333 0.0416667 0.0416667
0.5 0.0416667 0.0416667
0.541667 0.0416667 0.0416667
0.583333 0.0416667 0.0416667
0.625 0.0416667 0.0416667
0.666667 0.0416667 0.0416667
0.708333 0.0416667 0.0416667
0.75 0.0416667 0.0416667
0.791667 0.0416667 0.0416667
0.833333 0.0416667 0.0416667
0.875 0.0416667 0.0416667
0.916667 0.0416667 0.0416667
0.958333 0.0416667 0.0416667
1 0.0416667 0.0416667
0 0.0833333 0.0416667
0.0416667 0.0833333 0.0416667
0.0833333 0.0833333 0.0416667
0.125 0.0833333 0.0416667
0.166667 0.0833333 0.0416667
0.208333 0.0833333 0.0416667
0.25 0.0833333 0.0416667
0.291667 0.0833333 0.0416667
0.333333 0.0833333 0.0416667
0.375 0.0833333 0.0416667
0.416667 0.0833333 0.0416667
0.458333 0.0833333 0.0416667
0.5 0.0833333 0.0416667
0.541667 0.0833333 0.0416667
0.583333 0.0833333 0.0416667
0.625 0.0833333 0.0416667
0.666667 0.0833333 0.0416667
0.708333 0.0833333 0.0416667
0.75 0.0833333 0.0416667
0.791667 0.0833333 0.0416667
0.833333 0.0833333 0.0416667
0.875 0.0833333 0.0416667
0.916667 0.0833333 0.0416667
0.958333 0.0833333 0.0416667
1 0.0833333 0.0416667
0 0.125 0.0416667
0.0416667 0.125 0.0416667
0.0833333 0.125 0.0416667
0.125 0.125 0.0416667
0.166667 0.125 0.0416667
0.208333 0.125 0.0416667
0.25 0.125 0.0416667
0.291667 0.125 0.0416667
0.333333 0.125 0.0416667
0.375 0.125 0.0416667
0.416667 0.125 0.0416667
0.458333 0.125 0.0416667
0.5 0.125 0.0416667
0.541667 0.125 0.0416667
0.583333 0.125 0.0416667
0.625 0.125 0.0416667
0.666667 0.125 0.0416667
0.708333 0.125 0.0416667
0.75 0.125 0.0416667
0.791667 0.125 0.0416667
0.833333 0.125 0.0416667
0.875 0.125 0.0416667
0.916667 0.125 0.0416667
0.958333 0.125 0.0416667
1 0.125 0.0416667
0 0.166667 0.0416667
0.0416667 0.166667 0.0416667
0.0833333 0.166667 0.0416667
0.125 0.166667 0.0416667
0.166667 0.166667 0.0416667
0.208333 0.166667 0.0416667
0.25 0.166667 0.0416667
0.291667 0.166667 0.0416667
0.333333 0.166667 0.0416667
0.375 0.166667 0.0416667
0.416667 0.166667 0.0416667
0.458333 0.166667 0.0416667
0.5 0.166667 0.0416667
0.541667 0.166667 0.0416667
0.583333 0.166667 0.0416667
0.625 0.166667 0.0416667
0.666667 0.166667 0.0416667
0.708333 0.166667 0.0416667
0.75 0.166667 0.0416667
0.791667 0.166667 0.0416667
0.833333 0.166667 0.0416667
0.875 0.166667 0.0416667
0.916667 0.166667 0.0416667
0.958333 0.166667 0.0416667
1 0.166667 0.0416667
0 0.208333 0.0416667
0.0416667 0.208333 0.0416667
0.0833333 0.208333 0.0416667
0.125 0.208333 0.0416667
0.166667 0.208333 0.0416667
0.208333 0.208333 0.0416667
0.25 0.208333 0.0416667
0.291667 0.208333 0.0416667
0.333333 0.208333 0.0416667
0.375 0.208333 0.0416667
0.416667 0.208333 0.0416667
0.458333 0.208333 0.0416667
0.5 0.208333 0.0416667
0.541667 0.208333 0.0416667
0.583333 0.208333 0.0416667
0.625 0.208333 0.0416667
0.666667 0.208333 0.0416667
0.708333 0.208333 0.0416667
0.75 0.208333 0.0416667
0.791667 0.208333 0.0416667
0.833333 0.208333 0.0416667
0.875 0.208333 0.0416667
0.916667 0.208333 0.0416667
0.958333 0.208333 0.0416667
1 0.208333 0.0416667
0 0.25 0.0416667
0.0416667 0.25 0.0416667
0.0833333 0.25 0.0416667
0.125 0.25 0.0416667
0.166667 0.25 0.0416667
0.208333 0.25 0.0416667
0.25 0.25 0.0416667
0.291667 0.25 0.0416667
0.333333 0.25 0.0416667
0.375 0.25 0.0416667
0.416667 0.25 0.0416667
0.458333 0.25 0.0416667
0.5 0.25 0.0416667
0.541667 0.25 0.0416667
0.583333 0.25 0.0416667
0.625 0.25 0.0416667
0.666667 0.25 0.0416667
0.708333 0.25 0.0416667
0.75 0.25 0.0416667
0.791667 0.25 0.0416667
0.833333 0.25 0.0416667
0.875 0.25 0.0416667
0.916667 0.25 0.0416667
0.958333 0.25 0.0416667
1 0.25 0.0416667
0 0.291667 0.0416667
0.0416667 0.291667 0.0416667
0.0833333 0.291667 0.0416667
0.125 0.291667 0.0416667
0.166667 0.291667 0.0416667
0.208333 0.291667 0.0416667
0.25 0.291667 0.0416667
0.291667 0.291667 0.0416667
0.333333 0.291667 0.0416667
0.375 0.291667 0.0416667
0.416667 0.291667 0.0416667
0.458333 0.291667 0.0416667
0.5 0.291667 0.0416667
0.541667 0.291667 0.0416667
0.583333 0.291667 0.0416667
0.625 0.291667 0.0416667
0.666667 0.291667 0.0416667
0.708333 0.291667 0.0416667
0.75 0.291667 0.0416667
0.791667 0.291667 0.0416667
0.833333 0.291667 0.0416667
0.875 0.291667 0.0416667
0.916667 0.291667 0.0416667
0.958333 0.291667 0.0416667
1 0.291667 0.0416667
0 0.333333 0.0416667
0.0416667 0.333333 0.0416667
0.0833333 0.333333 0.0416667
0.125 0.333333 0.0416667
0.166667 0.333333 0.0416667
0.208333 0.333333 0.0416667
0.25 0.333333 0.0416667
0.291667 0.333333 0.0416667
0.333333 0.333333 0.0416667
0.375 0.333333 0.0416667
0.416667 0.333333 0.0416667
0.458333 0.333333 0.0416667
0.5 0.333333 0.0416667
0.541667 0.333333 0.0416667
0.583333 0.333333 0.0416667
0.625 0.333333 0.0416667
0.666667 0.333333 0.0416667
0.708333 0.333333 0.0416667
0.75 0.333333 0.0416667
0.791667 0.333333 0.0416667
0.833333 0.333333 0.0416667
0.875 0.333333 0.0416667
0.916667 0.333333 0.0416667
0.958333 0.333333 0.0416667
1 0.333333 0.0416667
0 0.375 0.0416667
0.0416667 0.375 0.0416667
0.0833333 0.375 0.0416667
0.125 0.375 0.0416667
0.166667 0.375 0.0416667
0.208333 0.375 0.0416667
0.25 0.375 0.0416667
0.291667 0.375 0.0416667
0.333333 0.375 0.0416667
0.375 0.375 0.0416667
0.416667 0.375 0.0416667
0.458333 0.375 0.0416667
0.5 0.375 0.0416667
0.541667 0.375 0.0416667
0.583333 0.375 0.0416667
0.625 0.375 0.0416667
0.666667 0.375 0.0416667
0.708333 0.375 0.0416667
0.75 0.375 0.0416667
0.791667 0.375 0.0416667
0.833333 0.375 0.0416667
0.875 0.375 0.0416667
0.916667 0.375 0.0416667
0.958333 0.375 0.0416667
1 0.375 0.0416667
0 0.416667 0.0416667
0.0416667 0.416667 0.0416667
0.0833333 0.416667 0.0416667
0.125 0.416667 0.0416667
0.166667 0.416667 0.0416667
0.208333 0.416667 0.0416667
0.25 0.416667 0.0416667
0.291667 0.416667 0.0416667
0.333333 0.416667 0.0416667
0.375 0.416667 0.0416667
0.416667 0.416667 0.0416667
0.458333 0.416667 0.0416667
0.5 0.416667 0.0416667
0.541667 0.416667 0.0416667
0.583333 0.416667 0.0416667
0.625 0.416667 0.0416667
0.666667 0.416667 0.0416667
0.708333 0.416667 0.0416667
0.75 0.416667 0.0416667
0.791667 0.416667 0.0416667
0.833333 0.416667 0.0416667
0.875 0.416667 0.0416667
0.916667 0.416667 0.0416667
0.958333 0.416667 0.0416667
1 0.416667 0.0416667
0 0.458333 0.0416667
0.0416667 0.458333 0.0416667
0.0833333 0.458333 0.0416667
0.125 0.458333 0.0416667
0.166667 0.458333 0.0416667
0.208333 0.458333 0.0416667
0.25 0.458333 0.0416667
0.291667 0.458333 0.0416667
0.333333 0.458333 0.0416667
0.375 0.458333 0.0416667
0.416667 0.458333 0.0416667
0.458333 0.458333 0.0416667
0.5 0.458333 0.0416667
0.541667 0.458333 0.0416667
0.583333 0.458333 0.0416667
0.625 0.458333 0.0416667
0.666667 0.458333 0.0416667
0.708333 0.458333 0.0416667
0.75 0.458333 0.0416667
0.791667 0.458333 0.0416667
0.833333 0.458333 0.0416667
0.875 0.458333 0.0416667
0.916667 0.458333 0.0416667
0.958333 0.458333 0.0416667
1 0.458333 0.0416667
0 0.5 0.0416667
0.0416667 0.5 0.0416667
0.0833333 0.5 0.0416667
0.125 0.5 0.0416667
0.166667 0.5 0.0416667
0.208333 0.5 0.0416667
0.25 0.5 0.0416667
0.291667 0.5 0.0416667
0.333333 0.5 0.0416667
0.375 0.5 0.0416667
0.416667 0.5 0.0416667
0.458333 0.5 0.0416667
0.5 0.5 0.0416667
0.541667 0.5 0.0416667
0.583333 0.5 0.0416667
0.625 0.5 0.0416667
0.666667 0.5 0.0416667
0.708333 0.5 0.0416667
0.75 0.5 0.0416667
0.791667 0.5 0.0416667
0.833333 0.5 0.0416667
0.875 0.5 0.0416667
0.916667 0.5 0.0416667
0.958333 0.5 0.0416667
1 0.5 0.0416667
0 0.541667 0.0416667
0.0416667 0.541667 0.0416667
0.0833333 0.541667 0.0416667
0.125 0.541667 0.0416667
0.166667 0.541667 0.0416667
0.208333 0.541667 0.0416667
0.25 0.541667 0.0416667
0.291667 0.541667 0.0416667
0.333333 0.541667 0.0416667
0.375 0.541667 0.0416667
0.416667 0.541667 0.0416667
0.458333 0.541667 0.0416667
0.5 0.541667 0.0416667
0.541667 0.541667 0.0416667
0.583333 0.541667 0.0416667
0.625 0.541667 0.0416667
0.666667 0.541667 0.0416667
0.708333 0.541667 0.0416667
0.75 0.541667 0.0416667
0.791667 0.541667 0.0416667
0.833333 0.541667 0.0416667
0.875 0.541667 0.0416667
0.916667 0.541667 0.0416667
0.958333 0.541667 0.0416667
1 0.541667 0.0416667
0 0.583333 0.0416667
0.0416667 0.583333 0.0416667
0.0833333 0.583333 0.0416667
0.125 0.583333 0.0416667
0.166667 0.583333 0.0416667
0.208333 0.583333 0.0416667
0.25 0.583333 0.0416667
0.291667 0.583333 0.0416667
0.333333 0.583333 0.0416667
0.375 0.583333 0.0416667
0.416667 0.583333 0.0416667
0.458333 0.583333 0.0416667
0.5 0.583333 0.0416667
0.541667 0.583333 0.0416667
0.583333 0.583333 0.0416667
0.625 0.583333 0.0416667
0.666667 0.583333 0.0416667
0.708333 0.583333 0.0416667
0.75 0.583333 0.0416667
0.791667 0.583333 0.0416667
0.833333 0.583333 0.0416667
0.875 0.583333 0.0416667
0.916667 0.583333 0.0416667
0.958333 0.583333 0.0416667
1 0.583333 0.0416667
0 0.625 0.0416667
0.0416667 0.625 0.0416667
0.0833333 0.625 0.0416667
0.125 0.625 0.0416667
0.166667 0.625 0.0416667
0.208333 0.625 0.0416667
0.25 0.625 0.0416667
0.291667 0.625 0.0416667
0.333333 0.625 0.0416667
0.375 0.625 0.0416667
0.416667 0.625 0.0416667
0.458333 0.625 0.0416667
0.5 0.625 0.0416667
0.541667 0.625 0.0416667
0.583333 0.625 0.0416667
0.625 0.625 0.0416667
0.666667 0.625 0.0416667
0.708333 0.625 0.0416667
0.75 0.625 0.0416667
0.791667 0.625 0.0416667
0.833333 0.625 0.0416667
0.875 0.625 0.0416667
0.916667 0.625 0.0416667
0.958333 0.625 0.0416667
1 0.625 0.0416667
0 0.666667 0.0416667
0.0416667 0.666667 0.0416667
0.0833333 0.666667 0.0416667
0.125 0.666667 0.0416667
0.166667 0.666667 0.0416667
0.208333 0.666667 0.0416667
0.25 0.666667 0.0416667
0.291667 0.666667 0.0416667
0.333333 0.666667 0.0416667
0.375 0.666667 0.0416667
0.416667 0.666667 0.0416667
0.458333 0.666667 0.0416667
0.5 0.666667 0.0416667
0.541667 0.666667 0.0416667
0.583333 0.666667 0.0416667
0.625 0.666667 0.0416667
0.666667 0.666667 0.0416667
0.708333 0.666667 0.0416667
0.75 0.666667 0.0416667
0.791667 0.666667 0.0416667
0.833333 0.666667 0.0416667
0.875 0.666667 0.0416667
0.916667 0.666667 0.0416667
0.958333 0.666667 0.0416667
1 0.666667 0.0416667
0 0.708333 0.0416667
0.0416667 0.708333 0.0416667
0.0833333 0.708333 0.0416667
0.125 0.708333 0.0416667
0.166667 0.708333 0.0416667
0.208333 0.708333 0.0416667
0.25 0.708333 0.0416667
0.291667 0.708333 0.0416667
0.333333 0.708333 0.0416667
0.375 0.708333 0.0416667
0.416667 0.708333 0.0416667
0.458333 0.708333 0.0416667
0.5 0.708333 0.0416667
0.541667 0.708333 0.0416667
0.583333 0.708333 0.0416667
0.625 0.708333 0.0416667
0.666667 0.708333 0.0416667
0.708333 0.708333 0.0416667
0.75 0.708333 0.0416667
0.791667 0.708333 0.0416667
0.833333 0.708333 0.0416667
0.875 0.708333 0.0416667
0.916667 0.708333 0.0416667
0.958333 0.708333 0.0416667
1 0.708333 0.0416667
0 0.75 0.0416667
0.0416667 0.75 0.0416667
0.0833333 0.75 0.0416667
0.125 0.75 0.0416667
0.166667 0.75 0.0416667
0.208333 0.75 0.0416667
0.25 0.75 0.0416667
0.291667 0.75 0.0416667
0.333333 0.75 0.0416667
0.375 0.75 0.0416667
0.416667 0.75 0.0416667
0.458333 0.75 0.0416667
0.5 0.75 0.0416667
0.541667 0.75 0.0416667
0.583333 0.75 0.0416667
0.625 0.75 0.0416667
0.666667 0.75 0.0416667
0.708333 0.75 0.0416667
0.75 0.75 0.0416667
0.791667 0.75 0.0416667
0.833333 0.75 0.0416667
0.875 0.75 0.0416667
0.916667 0.75 0.0416667
0.958333 0.75 0.0416667
1 0.75 0.0416667
0 0.791667 0.0416667
0.0416667 0.791667 0.0416667
0.0833333 0.791667 0.0416667
0.125 0.791667 0.0416667
0.166667 0.791667 0.0416667
0.208333 0.791667 0.0416667
0.25 0.791667 0.0416667
0.291667 0.791667 0.0416667
0.333333 0.791667 0.0416667
0.375 0.791667 0.0416667
0.416667 0.791667 0.0416667
0.458333 0.791667 0.0416667
0.5 0.791667 0.0416667
0.541667 0.791667 0.0416667
0.583333 0.791667 0.0416667
0.625 0.791667 0.0416667
0.666667 0.791667 0.0416667
0.708333 0.791667 0.0416667
0.75 0.791667 0.0416667
0.791667 0.791667 0.0416667
0.833333 0.791667 0.0416667
0.875 0.791667 0.0416667
0.916667 0.791667 0.0416667
0.958333 0.791667 0.0416667
1 0.791667 0.0416667
0 0.833333 0.0416667
0.0416667 0.833333 0.0416667
0.0833333 0.833333 0.0416667
0.125 0.833333 0.0416667
0.166667 0.833333 0.0416667
0.208333 0.833333 0.0416667
0.25 0.833333 0.0416667
0.291667 0.833333 0.0416667
0.333333 0.833333 0.0416667
0.375 0.833333 0.0416667
0.416667 0.833333 0.0416667
0.458333 0.833333 0.0416667
0.5 0.833333 0.0416667
0.541667 0.833333 0.0416667
0.583333 0.833333 0.0416667
0.625 0.833333 0.0416667
0.666667 0.833333 0.0416667
0.708333 0.833333 0.0416667
0.75 0.833333 0.0416667
0.791667 0.833333 0.0416667
0.833333 0.833333 0.0416667
0.875 0.833333 0.0416667
0.916667 0.833333 0.0416667
0.958333 0.833333 0.0416667
1 0.833333 0.0416667
0 0.875 0.0416667
0.0416667 0.875 0.0416667
0.0833333 0.875 0.0416667
0.125 0.875 0.0416667
0.166667 0.875 0.0416667
0.208333 0.875 0.0416667
0.25 0.875 0.0416667
0.291667 0.875 0.0416667
0.333333 0.875 0.0416667
0.375 0.875 0.0416667
0.416667 0.875 0.0416667
0.458333 0.875 0.0416667
0.5 0.875 0.0416667
0.541667 0.875 0.0416667
0.583333 0.875 0.0416667
0.625 0.875 0.0416667
0.666667 0.875 0.0416667
0.708333 0.875 0.0416667
0.75 0.875 0.0416667
0.791667 0.875 0.0416667
0.833333 0.875 0.0416667
0.875 0.875 0.0416667
0.916667 0.875 0.0416667
0.958333 0.875 0.0416667
1 0.875 0.0416667
0 0.916667 0.0416667
0.0416667 0.916667 0.0416667
0.0833333 0.916667 0.0416667
0.125 0.916667 0.0416667
0.166667 0.916667 0.0416667
0.208333 0.916667 0.0416667
0.25 0.916667 0.0416667
0.291667 0.916667 0.0416667
0.333333 0.916667 0.0416667
0.375 0.916667 0.0416667
0.416667 0.916667 0.0416667
0.458333 0.916667 0.0416667
0.5 0.916667 0.0416667
0.541667 0.916667 0.0416667
0.583333 0.916667 0.0416667
0.625 0.916667 0.0416667
0.666667 0.916667 0.0416667
0.708333 0.916667 0.0416667
0.75 0.916667 0.0416667
0.791667 0.916667 0.0416667
0.833333 0.916667 0.0416667
0.875 0.916667 0.0416667
0.916667 0.916667 0.0416667
0.958333 0.916667 0.0416667
1 0.916667 0.0416667
0 0.958333 0.0416667
0.0416667 0.958333 0.0416667
0.0833333 0.958333 0.0416667
0.125 0.958333 0.0416667
0.166667 0.958333 0.0416667
0.208333 0.958333 0.0416667
0.25 0.958333 0.0416667
0.291667 0.958333 0.0416667
0.333333 0.958333 0.0416667
0.375 0.958333 0.0416667
0.416667 0.958333 0.0416667
0.458333 0.958333 0.0416667
0.5 0.958333 0.0416667
0.541667 0.958333 0.0416667
0.583333 0.958333 0.0416667
0.625 0.958333 0.0416667
0.666667 0.958333 0.0416667
0.708333 0.958333 0.0416667
0.75 0.958333 0.0416667
0.791667 0.958333 0.0416667
0.833333 0.958333 0.0416667
0.875 0.958333 0.0416667
0.916667 0.958333 0.0416667
0.958333 0.958333 0.0416667
1 0.958333 0.0416667
0 1 0.0416667
0.0416667 1 0.0416667
0.0833333 1 0.0416667
0.125 1 0.0416667
0.166667 1 0.0416667
0.208333 1 0.0416667
0.25 1 0.0416667
0.291667 1 0.0416667
0.333333 1 0.0416667
0.375 1 0.0416667
0.416667 1 0.0416667
0.458333 1 0.0416667
0.5 1 0.0416667
0.541667 1 0.0416667
0.583333 1 0.0416667
0.625 1 0.0416667
0.666667 1 0.0416667
0.708333 1 0.0416667
0.75 1 0.0416667
0.791667 1 0.0416667
0.833333 1 0.0416667
0.875 1 0.0416667
0.916667 1 0.0416667
0.958333 1 0.0416667
1 1 0.0416667
0 0 0.0833333
0.0416667 0 0.0833333
0.0833333 0 0.0833333
0.125 0 0.0833333
0.166667 0 0.0833333
0.208333 0 0.0833333
0.25 0 0.0833333
0.291667 0 0.0833333
0.333333 0 0.0833333
0.375 0 0.0833333
0.416667 0 0.0833333
0.458333 0 0.0833333
0.5 0 0.0833333
0.541667 0 0.0833333
0.583333 0 0.0833333
0.625 0 0.0833333
0.666667 0 0.0833333
0.708333 0 0.0833333
0.75 0 0.0833333
0.791667 0 0.0833333
0.833333 0 0.0833333
0.875 0 0.0833333
0.916667 0 0.0833333
0.958333 0 0.0833333
1 0 0.0833333
0 0.0416667 0.0833333
0.0416667 0.0416667 0.0833333
0.0833333 0.0416667 0.0833333
0.125 0.0416667 0.0833333
0.166667 0.0416667 0.0833333
0.208333 0.0416667 0.0833333
0.25 0.0416667 0.0833333
0.291667 0.0416667 0.0833333
0.333333 0.0416667 0.0833333
0.375 0.0416667 0.0833333
0.416667 0.0416667 0.0833333
0.458333 0.0416667 0.0833333
0.5 0.0416667 0.0833333
0.541667 0.0416667 0.0833333
0.583333 0.0416667 0.0833333
0.625 0.0416667 0.0833333
0.666667 0.0416667 0.0833333
0.708333 0.0416667 0.0833333
0.75 0.0416667 0.0833333
0.791667 0.0416667 0.0833333
0.833333 0.0416667 0.0833333
0.875 0.0416667 0.0833333
0.916667 0.0416667 0.0833333
0.958333 0.0416667 0.0833333
1 0.0416667 0.0833333
0 0.0833333 0.0833333
0.0416667 0.0833333 0.0833333
0.0833333 0.0833333 0.0833333
0.125 0.0833333 0.0833333
0.166667 0.0833333 0.0833333
0.208333 0.0833333 0.0833333
0.25 0.0833333 0.0833333
0.291667 0.0833333 0.0833333
0.333333 0.0833333 0.0833333
0.375 0.0833333 0.0833333
0.416667 0.0833333 0.0833333
0.458333 0.0833333 0.0833333
0.5 0.0833333 0.0833333
0.541667 0.0833333 0.0833333
0.583333 0.0833333 0.0833333
0.625 0.0833333 0.0833333
0.666667 0.0833333 0.0833333
0.708333 0.0833333 0.0833333
0.75 0.0833333 0.0833333
0.791667 0.0833333 0.0833333
0.833333 0.0833333 0.0833333
0.875 0.0833333 0.0833333
0.916667 0.0833333 0.0833333
0.958333 0.0833333 0.0833333
1 0.0833333 0.0833333
0 0.125 0.0833333
0.0416667 0.125 0.0833333
0.0833333 0.125 0.0833333
0.125 0.125 0.0833333
0.166667 0.125 0.0833333
0.208333 0.125 0.0833333
0.25 0.125 0.0833333
0.291667 0.125 0.0833333
0.333333 0.125 0.0833333
0.375 0.125 0.0833333
0.416667 0.125 0.0833333
0.458333 0.125 0.0833333
0.5 0.125 0.0833333
0.541667 0.125 0.0833333
0.583333 0.125 0.0833333
0.625 0.125 0.0833333
0.666667 0.125 0.0833333
0.708333 0.125 0.0833333
0.75 0.125 0.0833333
0.791667 0.125 0.0833333
0.833333 0.125 0.0833333
0.875 0.125 0.0833333
0.916667 0.125 0.0833333
0.958333 0.125 0.0833333
1 0.125 0.0833333
0 0.166667 0.0833333
0.0416667 0.166667 0.0833333
0.0833333 0.166667 0.0833333
0.125 0.166667 0.0833333
0.166667 0.166667 0.0833333
0.208333 0.166667 0.0833333
0.25 0.166667 0.0833333
0.291667 0.166667 0.0833333
0.333333 0.166667 0.0833333
0.375 0.166667 0.0833333
0.416667 0.166667 0.0833333
0.458333 0.166667 0.0833333
0.5 0.166667 0.0833333
0.541667 0.166667 0.0833333
0.583333 0.166667 0.0833333
0.625 0.166667 0.0833333
0.666667 0.166667 0.0833333
0.708333 0.166667 0.0833333
0.75 0.166667 0.0833333
0.791667 0.166667 0.0833333
0.833333 0.166667 0.0833333
0.875 0.166667 0.0833333
0.916667 0.166667 0.0833333
0.958333 0.166667 0.0833333
1 0.166667 0.0833333
0 0.208333 0.0833333
0.0416667 0.208333 0.0833333
0.0833333 0.208333 0.0833333
0.125 0.208333 0.0833333
0.166667 0.208333 0.0833333
0.208333 0.208333 0.0833333
0.25 0.208333 0.0833333
0.291667 0.208333 0.0833333
0.333333 0.208333 0.0833333
0.375 0.208333 0.0833333
0.416667 0.208333 0.0833333
0.458333 0.208333 0.0833333
0.5 0.208333 0.0833333
0.541667 0.208333 0.0833333
0.583333 0.208333 0.0833333
0.625 0.208333 0.0833333
0.666667 0.208333 0.0833333
0.708333 0.208333 0.0833333
0.75 0.208333 0.0833333
0.791667 0.208333 0.0833333
0.833333 0.208333 0.0833333
0.875 0.208333 0.0833333
0.916667 0.208333 0.0833333
0.958333 0.208333 0.0833333
1 0.208333 0.0833333
0 0.25 0.0833333
0.0416667 0.25 0.0833333
0.0833333 0.25 0.0833333
0.125 0.25 0.0833333
0.166667 0.25 0.0833333
0.208333 0.25 0.0833333
0.25 0.25 0.0833333
0.291667 0.25 0.0833333
0.333333 0.25 0.0833333
0.375 0.25 0.0833333
0.416667 0.25 0.0833333
0.458333 0.25 0.0833333
0.5 0.25 0.0833333
0.541667 0.25 0.0833333
0.583333 0.25 0.0833333
0.625 0.25 0.0833333
0.666667 0.25 0.0833333
0.708333 0.25 0.0833333
0.75 0.25 0.0833333
0.791667 0.25 0.0833333
0.833333 0.25 0.0833333
0.875 0.25 0.0833333
0.916667 0.25 0.0833333
0.958333 0.25 0.0833333
1 0.25 0.0833333
0 0.291667 0.0833333
0.0416667 0.291667 0.0833333
0.0833333 0.291667 0.0833333
0.125 0.291667 0.0833333
0.166667 0.291667 0.0833333
0.208333 0.291667 0.0833333
0.25 0.291667 0.0833333
0.291667 0.291667 0.0833333
0.333333 0.291667 0.0833333
0.375 0.291667 0.0833333
0.416667 0.291667 0.0833333
0.458333 0.291667 0.0833333
0.5 0.291667 0.0833333
0.541667 0.291667 0.0833333
0.583333 0.291667 0.0833333
0.625 0.291667 0.0833333
0.666667 0.291667 0.0833333
0.708333 0.291667 0.0833333
0.75 0.291667 0.0833333
0.791667 0.291667 0.0833333
0.833333 0.291667 0.0833333
0.875 0.291667 0.0833333
0.916667 0.291667 0.0833333
0.958333 0.291667 0.0833333
1 0.291667 0.0833333
0 0.333333 0.0833333
0.0416667 0.333333 0.0833333
0.0833333 0.333333 0.0833333
0.125 0.333333 0.0833333
0.166667 0.333333 0.0833333
0.208333 0.333333 0.0833333
0.25 0.333333 0.0833333
0.291667 0.333333 0.0833333
0.333333 0.333333 0.0833333
0.375 0.333333 0.0833333
0.416667 0.333333 0.0833333
0.458333 0.333333 0.0833333
0.5 0.333333 0.0833333
0.541667 0.333333 0.0833333
0.583333 0.333333 0.0833333
0.625 0.333333 0.0833333
0.666667 0.333333 0.0833333
0.708333 0.333333 0.0833333
0.75 0.333333 0.0833333
0.791667 0.333333 0.0833333
0.833333 0.333333 0.0833333
0.875 0.333333 0.0833333
0.916667 0.333333 0.0833333
0.958333 0.333333 0.0833333
1 0.333333 0.0833333
0 0.375 0.0833333
0.0416667 0.375 0.0833333
0.0833333 0.375 0.0833333
0.125 0.375 0.0833333
0.166667 0.375 0.0833333
0.208333 0.375 0.0833333
0.25 0.375 0.0833333
0.291667 0.375 0.0833333
0.333333 0.375 0.0833333
0.375 0.375 0.0833333
0.416667 0.375 0.0833333
0.458333 0.375 0.0833333
0.5 0.375 0.0833333
0.541667 0.375 0.0833333
0.583333 0.375 0.0833333
0.625 0.375 0.0833333
0.666667 0.375 0.0833333
0.708333 0.375 0.0833333
0.75 0.375 0.0833333
0.791667 0.375 0.0833333
0.833333 0.375 0.0833333
0.875 0.375 0.0833333
0.916667 0.375 0.0833333
0.958333 0.375 0.0833333
1 0.375 0.0833333
0 0.416667 0.0833333
0.0416667 0.416667 0.0833333
0.0833333 0.416667 0.0833333
0.125 0.416667 0.0833333
0.166667 0.416667 0.0833333
0.208333 0.416667 0.0833333
0.25 0.416667 0.0833333
0.291667 0.416667 0.0833333
0.333333 0.416667 0.0833333
0.375 0.416667 0.0833333
0.416667 0.416667 0.0833333
0.458333 0.416667 0.0833333
0.5 0.416667 0.0833333
0.541667 0.416667 0.0833333
0.583333 0.416667 0.0833333
0.625 0.416667 0.0833333
0.666667 0.416667 0.0833333
0.708333 0.416667 0.0833333
0.75 0.416667 0.0833333
0.791667 0.416667 0.0833333
0.833333 0.416667 0.0833333
0.875 0.416667 0.0833333
0.916667 0.416667 0.0833333
0.958333 0.416667 0.0833333
1 0.416667 0.0833333
0 0.458333 0.0833333
0.0416667 0.458333 0.0833333
0.0833333 0.458333 0.0833333
0.125 0.458333 0.0833333
0.166667 0.458333 0.0833333
0.208333 0.458333 0.0833333
0.25 0.458333 0.0833333
0.291667 0.458333 0.0833333
0.333333 0.458333 0.0833333
0.375 0.458333 0.0833333
0.416667 0.458333 0.0833333
0.458333 0.458333 0.0833333
0.5 0.458333 0.0833333
0.541667 0.458333 0.0833333
0.583333 0.458333 0.0833333
0.625 0.458333 0.0833333
0.666667 0.458333 0.0833333
0.708333 0.458333 0.0833333
0.75 0.458333 0.0833333
0.791667 0.458333 0.0833333
0.833333 0.458333 0.0833333
0.875 0.458333 0.0833333
0.916667 0.458333 0.0833333
0.958333 0.458333 0.0833333
1 0.458333 0.0833333
0 0.5 0.0833333
0.0416667 0.5 0.0833333
0.0833333 0.5 0.0833333
0.125 0.5 0.0833333
0.166667 0.5 0.0833333
0.208333 0.5 0.0833333
0.25 0.5 0.0833333
0.291667 0.5 0.0833333
0.333333 0.5 0.0833333
0.375 0.5 0.0833333
0.416667 0.5 0.0833333
0.458333 0.5 0.0833333
0.5 0.5 0.0833333
0.541667 0.5 0.0833333
0.583333 0.5 0.0833333
0.625 0.5 0.0833333
0.666667 0.5 0.0833333
0.708333 0.5 0.0833333
0.75 0.5 0.0833333
0.791667 0.5 0.0833333
0.833333 0.5 0.0833333
0.875 0.5 0.0833333
0.916667 0.5 0.0833333
0.958333 0.5 0.0833333
1 0.5 0.0833333
0 0.541667 0.0833333
0.0416667 0.541667 0.0833333
0.0833333 0.541667 0.0833333
0.125 0.541667 0.0833333
0.166667 0.541667 0.0833333
0.208333 0.541667 0.0833333
0.25 0.541667 0.0833333
0.291667 0.541667 0.0833333
0.333333 0.541667 0.0833333
0.375 0.541667 0.0833333
0.416667 0.541667 0.0833333
0.458333 0.541667 0.0833333
0.5 0.541667 0.0833333
0.541667 0.541667 0.0833333
0.583333 0.541667 0.0833333
0.625 0.541667 0.0833333
0.666667 0.541667 0.0833333
0.708333 0.541667 0.0833333
0.75 0.541667 0.0833333
0.791667 0.541667 0.0833333
0.833333 0.541667 0.0833333
0.875 0.541667 0.0833333
0.916667 0.541667 0.0833333
0.958333 0.541667 0.0833333
1 0.541667 0.0833333
0 0.583333 0.0833333
0.0416667 0.583333 0.0833333
0.0833333 0.583333 0.0833333
0.125 0.583333 0.0833333
0.166667 0.583333 0.0833333
0.208333 0.583333 0.0833333
0.25 0.583333 0.0833333
0.291667 0.583333 0.0833333
0.333333 0.583333 0.0833333
0.375 0.583333 0.0833333
0.416667 0.583333 0.0833333
0.458333 0.583333 0.0833333
0.5 0.583333 0.0833333
0.541667 0.583333 0.0833333
0.583333 0.583333 0.0833333
0.625 0.583333 0.0833333
0.666667 0.583333 0.0833333
0.708333 0.583333 0.0833333
0.75 0.583333 0.0833333
0.791667 0.583333 0.0833333
0.833333 0.583333 0.0833333
0.875 0.583333 0.0833333
0.916667 0.583333 0.0833333
0.958333 0.583333 0.0833333
1 0.583333 0.0833333
0 0.625 0.0833333
0.0416667 0.625 0.0833333
0.0833333 0.625 0.0833333
0.125 0.625 0.0833333
0.166667 0.625 0.0833333
0.208333 0.625 0.0833333
0.25 0.625 0.0833333
0.291667 0.625 0.0833333
0.333333 0.625 0.0833333
0.375 0.625 0.0833333
0.416667 0.625 0.0833333
0.458333 0.625 0.0833333
0.5 0.625 0.0833333
0.541667 0.625 0.0833333
0.583333 0.625 0.0833333
0.625 0.625 0.0833333
0.666667 0.625 0.0833333
0.708333 0.625 0.0833333
0.75 0.625 0.0833333
0.791667 0.625 0.0833333
0.833333 0.625 0.0833333
0.875 0.625 0.0833333
0.916667 0.625 0.0833333
0.958333 0.625 0.0833333
1 0.625 0.0833333
0 0.666667 0.0833333
0.0416667 0.666667 0.0833333
0.0833333 0.666667 0.0833333
0.125 0.666667 0.0833333
0.166667 0.666667 0.0833333
0.208333 0.666667 0.0833333
0.25 0.666667 0.0833333
0.291667 0.666667 0.0833333
0.333333 0.666667 0.0833333
0.375 0.666667 0.0833333
0.416667 0.666667 0.0833333
0.458333 0.666667 0.0833333
0.5 0.666667 0.0833333
0.541667 0.666667 0.0833333
0.583333 0.666667 0.0833333
0.625 0.666667 0.0833333
0.666667 0.666667 0.0833333
0.708333 0.666667 0.0833333
0.75 0.666667 0.0833333
0.791667 0.666667 0.0833333
0.833333 0.666667 0.0833333
0.875 0.666667 0.0833333
0.916667 0.666667 0.0833333
0.958333 0.666667 0.0833333
1 0.666667 0.0833333
0 0.708333 0.0833333
0.0416667 0.708333 0.0833333
0.0833333 0.708333 0.0833333
0.125 0.708333 0.0833333
0.166667 0.708333 0.0833333
0.208333 0.708333 0.0833333
0.25 0.708333 0.0833333
0.291667 0.708333 0.0833333
0.333333 0.708333 0.0833333
0.375 0.708333 0.0833333
0.416667 0.708333 0.0833333
0.458333 0.708333 0.0833333
0.5 0.708333 0.0833333
0.541667 0.708333 0.0833333
0.583333 0.708333 0.0833333
0.625 0.708333 0.0833333
0.666667 0.708333 0.0833333
0.708333 0.708333 0.0833333
0.75 0.708333 0.0833333
0.791667 0.708333 0.0833333
0.833333 0.708333 0.0833333
0.875 0.708333 0.0833333
0.916667 0.708333 0.0833333
0.958333 0.708333 0.0833333
1 0.708333 0.0833333
0 0.75 0.0833333
0.0416667 0.75 0.0833333
0.0833333 0.75 0.0833333
0.125 0.75 0.0833333
0.166667 0.75 0.0833333
0.208333 0.75 0.0833333
0.25 0.75 0.0833333
0.291667 0.75 0.0833333
0.333333 0.75 0.0833333
0.375 0.75 0.0833333
0.416667 0.75 0.0833333
0.458333 0.75 0.0833333
0.5 0.75 0.0833333
0.541667 0.75 0.0833333
0.583333 0.75 0.0833333
0.625 0.75 0.0833333
0.666667 0.75 0.0833333
0.708333 0.75 0.0833333
0.75 0.75 0.0833333
0.791667 0.75 0.0833333
0.833333 0.75 0.0833333
0.875 0.75 0.0833333
0.916667 0.75 0.0833333
0.958333 0.75 0.0833333
1 0.75 0.0833333
0 0.791667 0.0833333
0.0416667 0.791667 0.0833333
0.0833333 0.791667 0.0833333
0.125 0.791667 0.0833333
0.166667 0.791667 0.0833333
0.208333 0.791667 0.0833333
0.25 0.791667 0.0833333
0.291667 0.791667 0.0833333
0.333333 0.791667 0.0833333
0.375 0.791667 0.0833333
0.416667 0.791667 0.0833333
0.458333 0.791667 0.0833333
0.5 0.791667 0.0833333
0.541667 0.791667 0.0833333
0.583333 0.791667 0.0833333
0.625 0.791667 0.0833333
0.666667 0.791667 0.0833333
0.708333 0.791667 0.0833333
0.75 0.791667 0.0833333
0.791667 0.791667 0.0833333
0.833333 0.791667 0.0833333
0.875 0.791667 0.0833333
0.916667 0.791667 0.0833333
0.958333 0.791667 0.0833333
1 0.791667 0.0833333
0 0.833333 0.0833333
0.0416667 0.833333 0.0833333
0.0833333 0.833333 0.0833333
0.125 0.833333 0.0833333
0.166667 0.833333 0.0833333
0.208333 0.833333 0.0833333
0.25 0.833333 0.0833333
0.291667 0.833333 0.0833333
0.333333 0.833333 0.0833333
0.375 0.833333 0.0833333
0.416667 0.833333 0.0833333
0.458333 0.833333 0.0833333
0.5 0.833333 0.0833333
0.541667 0.833333 0.0833333
0.583333 0.833333 0.0833333
0.625 0.833333 0.0833333
0.666667 0.833333 0.0833333
0.708333 0.833333 0.0833333
0.75 0.833333 0.0833333
0.791667 0.833333 0.0833333
0.833333 0.833333 0.0833333
0.875 0.833333 0.0833333
0.916667 0.833333 0.0833333
0.958333 0.833333 0.0833333
1 0.833333 0.0833333
0 0.875 0.0833333
0.0416667 0.875 0.0833333
0.0833333 0.875 0.0833333
0.125 0.875 0.0833333
0.166667 0.875 0.0833333
0.208333 0.875 0.0833333
0.25 0.875 0.0833333
0.291667 0.875 0.0833333
0.333333 0.875 0.0833333
0.375 0.875 0.0833333
0.416667 0.875 0.0833333
0.458333 0.875 0.0833333
0.5 0.875 0.0833333
0.541667 0.875 0.0833333
0.583333 0.875 0.0833333
0.625 0.875 0.0833333
0.666667 0.875 0.0833333
0.708333 0.875 0.0833333
0.75 0.875 0.0833333
0.791667 0.875 0.0833333
0.833333 0.875 0.0833333
0.875 0.875 0.0833333
0.916667 0.875 0.0833333
0.958333 0.875 0.0833333
1 0.875 0.0833333
0 0.916667 0.0833333
0.0416667 0.916667 0.0833333
0.0833333 0.916667 0.0833333
0.125 0.916667 0.0833333
0.166667 0.916667 0.0833333
0.208333 0.916667 0.0833333
0.25 0.916667 0.0833333
0.291667 0.916667 0.0833333
0.333333 0.916667 0.0833333
0.375 0.916667 0.0833333
0.416667 0.916667 0.0833333
0.458333 0.916667 0.0833333
0.5 0.916667 0.0833333
0.541667 0.916667 0.0833333
0.583333 0.916667 0.0833333
0.625 0.916667 0.0833333
0.666667 0.916667 0.0833333
0.708333 0.916667 0.0833333
0.75 0.916667 0.0833333
0.791667 0.916667 0.0833333
0.833333 0.916667 0.0833333
0.875 0.916667 0.0833333
0.916667 0.916667 0.0833333
0.958333 0.916667 0.0833333
1 0.916667 0.0833333
0 0.958333 0.0833333
0.0416667 0.958333 0.0833333
0.0833333 0.958333 0.0833333
0.125 0.958333 0.0833333
0.166667 0.958333 0.0833333
0.208333 0.958333 0.0833333
0.25 0.958333 0.0833333
0.291667 0.958333 0.0833333
0.333333 0.958333 0.0833333
0.375 0.958333 0.0833333
0.416667 0.958333 0.0833333
0.458333 0.958333 0.0833333
0.5 0.958333 0.0833333
0.541667 0.958333 0.0833333
0.583333 0.958333 0.0833333
0.625 0.958333 0.0833333
0.666667 0.958333 0.0833333
0.708333 0.958333 0.0833333
0.75 0.958333 0.0833333
0.791667 0.958333 0.0833333
0.833333 0.958333 0.0833333
0.875 0.958333 0.0833333
0.916667 0.958333 0.0833333
0.958333 0.958333 0.0833333
1 0.958333 0.0833333
0 1 0.0833333
0.0416667 1 0.0833333
0.0833333 1 0.0833333
0.125 1 0.0833333
0.166667 1 0.0833333
0.208333 1 0.0833333
0.25 1 0.0833333
0.291667 1 0.0833333
0.333333 1 0.0833333
0.375 1 0.0833333
0.416667 1 0.0833333
0.458333 1 0.0833333
0.5 1 0.0833333
0.541667 1 0.0833333
0.583333 1 0.0833333
0.625 1 0.0833333
0.666667 1 0.0833333
0.708333 1 0.0833333
0.75 1 0.0833333
0.791667 1 0.0833333
0.833333 1 0.0833333
0.875 1 0.0833333
0.916667 1 0.0833333
0.958333 1 0.0833333
1 1 0.0833333
0 0 0.125
0.0416667 0 0.125
0.0833333 0 0.125
0.125 0 0.125
0.166667 0 0.125
0.208333 0 0.125
0.25 0 0.125
0.291667 0 0.125
0.333333 0 0.125
0.375 0 0.125
0.416667 0 0.125
0.458333 0 0.125
0.5 0 0.125
0.541667 0 0.125
0.583333 0 0.125
0.625 0 0.125
0.666667 0 0.125
0.708333 0 0.125
0.75 0 0.125
0.791667 0 0.125
0.833333 0 0.125
0.875 0 0.125
0.916667 0 0.125
0.958333 0 0.125
1 0 0.125
0 0.0416667 0.125
0.0416667 0.0416667 0.125
0.0833333 0.0416667 0.125
0.125 0.0416667 0.125
0.166667 0.0416667 0.125
0.208333 0.0416667 0.125
0.25 0.0416667 0.125
0.291667 0.0416667 0.125
0.333333 0.0416667 0.125
0.375 0.0416667 0.125
0.416667 0.0416667 0.125
0.458333 0.0416667 0.125
0.5 0.0416667 0.125
0.541667 0.0416667 0.125
0.583333 0.0416667 0.125
0.625 0.0416667 0.125
0.666667 0.0416667 0.125
0.708333 0.0416667 0.125
0.75 0.0416667 0.125
0.791667 0.0416667 0.125
0.833333 0.0416667 0.125
0.875 0.0416667 0.125
0.916667 0.0416667 0.125
0.958333 0.0416667 0.125
1 0.0416667 0.125
0 0.0833333 0.125
0.0416667 0.0833333 0.125
0.0833333 0.0833333 0.125
0.125 0.0833333 0.125
0.166667 0.0833333 0.125
0.208333 0.0833333 0.125
0.25 0.0833333 0.125
0.291667 0.0833333 0.125
0.333333 0.0833333 0.125
0.375 0.0833333 0.125
0.416667 0.0833333 0.125
0.458333 0.0833333 0.125
0.5 0.0833333 0.125
0.541667 0.0833333 0.125
0.583333 0.0833333 0.125
0.625 0.0833333 0.125
0.666667 0.0833333 0.125
0.708333 0.0833333 0.125
0.75 0.0833333 0.125
0.791667 0.0833333 0.125
0.833333 0.0833333 0.125
0.875 0.0833333 0.125
0.916667 0.0833333 0.125
0.958333 0.0833333 0.125
1 0.0833333 0.125
0 0.125 0.125
0.0416667 0.125 0.125
0.0833333 0.125 0.125
0.125 0.125 0.125
0.166667 0.125 0.125
0.208333 0.125 0.125
0.25 0.125 0.125
0.291667 0.125 0.125
0.333333 0.125 0.125
0.375 0.125 0.125
0.416667 0.125 0.125
0.458333 0.125 0.125
0.5 0.125 0.125
0.541667 0.125 0.125
0.583333 0.125 0.125
0.625 0.125 0.125
0.666667 0.125 0.125
0.708333 0.125 0.125
0.75 0.125 0.125
0.791667 0.125 0.125
0.833333 0.125 0.125
0.875 0.125 0.125
0.916667 0.125 0.125
0.958333 0.125 0.125
1 0.125 0.125
0 0.166667 0.125
0.0416667 0.166667 0.125
0.0833333 0.166667 0.125
0.125 0.166667 0.125
0.166667 0.166667 0.125
0.208333 0.166667 0.125
0.25 0.166667 0.125
0.291667 0.166667 0.125
0.333333 0.166667 0.125
0.375 0.166667 0.125
0.416667 0.166667 0.125
0.458333 0.166667 0.125
0.5 0.166667 0.125
0.541667 0.166667 0.125
0.583333 0.166667 0.125
0.625 0.166667 0.125
0.666667 0.166667 0.125
0.708333 0.166667 0.125
0.75 0.166667 0.125
0.791667 0.166667 0.125
0.833333 0.166667 0.125
0.875 0.166667 0.125
0.916667 0.166667 0.125
0.958333 0.166667 0.125
1 0.166667 0.125
0 0.208333 0.125
0.0416667 0.208333 0.125
0.0833333 0.208333 0.125
0.125 0.208333 0.125
0.166667 0.208333 0.125
0.208333 0.208333 0.125
0.25 0.208333 0.125
0.291667 0.208333 0.125
0.333333 0.208333 0.125
0.375 0.208333 0.125
0.416667 0.208333 0.125
0.458333 0.208333 0.125
0.5 0.208333 0.125
0.541667 0.208333 0.125
0.583333 0.208333 0.125
0.625 0.208333 0.125
0.666667 0.208333 0.125
0.708333 0.208333 0.125
0.75 0.208333 0.125
0.791667 0.208333 0.125
0.833333 0.208333 0.125
0.875 0.208333 0.125
0.916667 0.208333 0.125
0.958333 0.208333 0.125
1 0.208333 0.125
0 0.25 0.125
0.0416667 0.25 0.125
0.0833333 0.25 0.125
0.125 0.25 0.125
0.166667 0.25 0.125
0.208333 0.25 0.125
0.25 0.25 0.125
0.291667 0.25 0.125
0.333333 0.25 0.125
0.375 0.25 0.125
0.416667 0.25 0.125
0.458333 0.25 0.125
0.5 0.25 0.125
0.541667 0.25 0.125
0.583333 0.25 0.125
0.625 0.25 0.125
0.666667 0.25 0.125
0.708333 0.25 0.125
0.75 0.25 0.125
0.791667 0.25 0.125
0.833333 0.25 0.125
0.875 0.25 0.125
0.916667 0.25 0.125
0.958333 0.25 0.125
1 0.25 0.125
0 0.291667 0.125
0.0416667 0.291667 0.125
0.0833333 0.291667 0.125
0.125 0.291667 0.125
0.166667 0.291667 0.125
0.208333 0.291667 0.125
0.25 0.291667 0.125
0.291667 0.291667 0.125
0.333333 0.291667 0.125
0.375 0.291667 0.125
0.416667 0.291667 0.125
0.458333 0.291667 0.125
0.5 0.291667 0.125
0.541667 0.291667 0.125
0.583333 0.291667 0.125
0.625 0.291667 0.125
0.666667 0.291667 0.125
0.708333 0.291667 0.125
0.75 0.291667 0.125
0.791667 0.291667 0.125
0.833333 0.291667 0.125
0.875 0.291667 0.125
0.916667 0.291667 0.125
0.958333 0.291667 0.125
1 0.291667 0.125
0 0.333333 0.125
0.0416667 0.333333 0.125
0.0833333 0.333333 0.125
0.125 0.333333 0.125
0.166667 0.333333 0.125
0.208333 0.333333 0.125
0.25 0.333333 0.125
0.291667 0.333333 0.125
0.333333 0.333333 0.125
0.375 0.333333 0.125
0.416667 0.333333 0.125
0.458333 0.333333 0.125
0.5 0.333333 0.125
0.541667 0.333333 0.125
0.583333 0.333333 0.125
0.625 0.333333 0.125
0.666667 0.333333 0.125
0.708333 0.333333 0.125
0.75 0.333333 0.125
0.791667 0.333333 0.125
0.833333 0.333333 0.125
0.875 0.333333 0.125
0.916667 0.333333 0.125
0.958333 0.333333 0.125
1 0.333333 0.125
0 0.375 0.125
0.0416667 0.375 0.125
0.0833333 0.375 0.125
0.125 0.375 0.125
0.166667 0.375 0.125
0.208333 0.375 0.125
0.25 0.375 0.125
0.291667 0.375 0.125
0.333333 0.375 0.125
0.375 0.375 0.125
0.416667 0.375 0.125
0.458333 0.375 0.125
0.5 0.375 0.125
0.541667 0.375 0.125
0.583333 0.375 0.125
0.625 0.375 0.125
0.666667 0.375 0.125
0.708333 0.375 0.125
0.75 0.375 0.125
0.791667 0.375 0.125
0.833333 0.375 0.125
0.875 0.375 0.125
0.916667 0.375 0.125
0.958333 0.375 0.125
1 0.375 0.125
0 0.416667 0.125
0.0416667 0.416667 0.125
0.0833333 0.416667 0.125
0.125 0.416667 0.125
0.166667 0.416667 0.125
0.208333 0.416667 0.125
0.25 0.416667 0.125
0.291667 0.416667 0.125
0.333333 0.416667 0.125
0.375 0.416667 0.125
0.416667 0.416667 0.125
0.458333 0.416667 0.125
0.5 0.416667 0.125
0.541667 0.416667 0.125
0.583333 0.416667 0.125
0.625 0.416667 0.125
0.666667 0.416667 0.125
0.708333 0.416667 0.125
0.75 0.416667 0.125
0.791667 0.416667 0.125
0.833333 0.416667 0.125
0.875 0.416667 0.125
0.916667 0.416667 0.125
0.958333 0.416667 0.125
1 0.416667 0.125
0 0.458333 0.125
0.0416667 0.458333 0.125
0.0833333 0.458333 0.125
0.125 0.458333 0.125
0.166667 0.458333 0.125
0.208333 0.458333 0.125
0.25 0.458333 0.125
0.291667 0.458333 0.125
0.333333 0.458333 0.125
0.375 0.458333 0.125
0.416667 0.458333 0.125
0.458333 0.458333 0.125
0.5 0.458333 0.125
0.541667 0.458333 0.125
0.583333 0.458333 0.125
0.625 0.458333 0.125
0.666667 0.458333 0.125
0.708333 0.458333 0.125
0.75 0.458333 0.125
0.791667 0.458333 0.125
0.833333 0.458333 0.125
0.875 0.458333 0.125
0.916667 0.458333 0.125
0.958333 0.458333 0.125
1 0.458333 0.125
0 0.5 0.125
0.0416667 0.5 0.125
0.0833333 0.5 0.125
0.125 0.5 0.125
0.166667 0.5 0.125
0.208333 0.5 0.125
0.25 0.5 0.125
0.291667 0.5 0.125
0.333333 0.5 0.125
0.375 0.5 0.125
0.416667 0.5 0.125
0.458333 0.5 0.125
0.5 0.5 0.125
0.541667 0.5 0.125
0.583333 0.5 0.125
0.625 0.5 0.125
0.666667 0.5 0.125
0.708333 0.5 0.125
0.75 0.5 0.125
0.791667 0.5 0.125
0.833333 0.5 0.125
0.875 0.5 0.125
0.916667 0.5 0.125
0.958333 0.5 0.125
1 0.5 0.125
0 0.541667 0.125
0.0416667 0.541667 0.125
0.0833333 0.541667 0.125
0.125 0.541667 0.125
0.166667 0.541667 0.125
0.208333 0.541667 0.125
0.25 0.541667 0.125
0.291667 0.541667 0.125
0.333333 0.541667 0.125
0.375 0.541667 0.125
0.416667 0.541667 0.125
0.458333 0.541667 0.125
0.5 0.541667 0.125
0.541667 0.541667 0.125
0.583333 0.541667 0.125
0.625 0.541667 0.125
0.666667 0.541667 0.125
0.708333 0.541667 0.125
0.75 0.541667 0.125
0.791667 0.541667 0.125
0.833333 0.541667 0.125
0.875 0.541667 0.125
0.916667 0.541667 0.125
0.958333 0.541667 0.125
1 0.541667 0.125
0 0.583333 0.125
0.0416667 0.583333 0.125
0.0833333 0.583333 0.125
0.125 0.583333 0.125
0.166667 0.583333 0.125
0.208333 0.583333 0.125
0.25 0.583333 0.125
0.291667 0.583333 0.125
0.333333 0.583333 0.125
0.375 0.583333 0.125
0.416667 0.583333 0.125
0.458333 0.583333 0.125
0.5 0.583333 0.125
0.541667 0.583333 0.125
0.583333 0.583333 0.125
0.625 0.583333 0.125
0.666667 0.583333 0.125
0.708333 0.583333 0.125
0.75 0.583333 0.125
0.791667 0.583333 0.125
0.833333 0.583333 0.125
0.875 0.583333 0.125
0.916667 0.583333 0.125
0.958333 0.583333 0.125
1 0.583333 0.125
0 0.625 0.125
0.0416667 0.625 0.125
0.0833333 0.625 0.125
0.125 0.625 0.125
0.166667 0.625 0.125
0.208333 0.625 0.125
0.25 0.625 0.125
0.291667 0.625 0.125
0.333333 0.625 0.125
0.375 0.625 0.125
0.416667 0.625 0.125
0.458333 0.625 0.125
0.5 0.625 0.125
0.541667 0.625 0.125
0.583333 0.625 0.125
0.625 0.625 0.125
0.666667 0.625 0.125
0.708333 0.625 0.125
0.75 0.625 0.125
0.791667 0.625 0.125
0.833333 0.625 0.125
0.875 0.625 0.125
0.916667 0.625 0.125
0.958333 0.625 0.125
1 0.625 0.125
0 0.666667 0.125
0.0416667 0.666667 0.125
0.0833333 0.666667 0.125
0.125 0.666667 0.125
0.166667 0.666667 0.125
0.208333 0.666667 0.125
0.25 0.666667 0.125
0.291667 0.666667 0.125
0.333333 0.666667 0.125
0.375 0.666667 0.125
0.416667 0.666667 0.125
0.458333 0.666667 0.125
0.5 0.666667 0.125
0.541667 0.666667 0.125
0.583333 0.666667 0.125
0.625 0.666667 0.125
0.666667 0.666667 0.125
0.708333 0.666667 0.125
0.75 0.666667 0.125
0.791667 0.666667 0.125
0.833333 0.666667 0.125
0.875 0.666667 0.125
0.916667 0.666667 0.125
0.958333 0.666667 0.125
1 0.666667 0.125
0 0.708333 0.125
0.0416667 0.708333 0.125
0.0833333 0.708333 0.125
0.125 0.708333 0.125
0.166667 0.708333 0.125
0.208333 0.708333 0.125
0.25 0.708333 0.125
0.291667 0.708333 0.125
0.333333 0.708333 0.125
0.375 0.708333 0.125
0.416667 0.708333 0.125
0.458333 0.708333 0.125
0.5 0.708333 0.125
0.541667 0.708333 0.125
0.583333 0.708333 0.125
0.625 0.708333 0.125
0.666667 0.708333 0.125
0.708333 0.708333 0.125
0.75 0.708333 0.125
0.791667 0.708333 0.125
0.833333 0.708333 0.125
0.875 0.708333 0.125
0.916667 0.708333 0.125
0.958333 0.708333 0.125
1 0.708333 0.125
0 0.75 0.125
0.0416667 0.75 0.125
0.0833333 0.75 0.125
0.125 0.75 0.125
0.166667 0.75 0.125
0.208333 0.75 0.125
0.25 0.75 0.125
0.291667 0.75 0.125
0.333333 0.75 0.125
0.375 0.75 0.125
0.416667 0.75 0.125
0.458333 0.75 0.125
0.5 0.75 0.125
0.541667 0.75 0.125
0.583333 0.75 0.125
0.625 0.75 0.125
0.666667 0.75 0.125
0.708333 0.75 0.125
0.75 0.75 0.125
0.791667 0.75 0.125
0.833333 0.75 0.125
0.875 0.75 0.125
0.916667 0.75 0.125
0.958333 0.75 0.125
1 0.75 0.125
0 0.791667 0.125
0.0416667 0.791667 0.125
0.0833333 0.791667 0.125
0.125 0.791667 0.125
0.166667 0.791667 0.125
0.208333 0.791667 0.125
0.25 0.791667 0.125
0.291667 0.791667 0.125
0.333333 0.791667 0.125
0.375 0.791667 0.125
0.416667 0.791667 0.125
0.458333 0.791667 0.125
0.5 0.791667 0.125
0.541667 0.791667 0.125
0.583333 0.791667 0.125
0.625 0.791667 0.125
0.666667 0.791667 0.125
0.708333 0.791667 0.125
0.75 0.791667 0.125
0.791667 0.791667 0.125
0.833333 0.791667 0.125
0.875 0.791667 0.125
0.916667 0.791667 0.125
0.958333 0.791667 0.125
1 0.791667 0.125
0 0.833333 0.125
0.0416667 0.833333 0.125
0.0833333 0.833333 0.125
0.125 0.833333 0.125
0.166667 0.833333 0.125
0.208333 0.833333 0.125
0.25 0.833333 0.125
0.291667 0.833333 0.125
0.333333 0.833333 0.125
0.375 0.833333 0.125
0.416667 0.833333 0.125
0.458333 0.833333 0.125
0.5 0.833333 0.125
0.541667 0.833333 0.125
0.583333 0.833333 0.125
0.625 0.833333 0.125
0.666667 0.833333 0.125
0.708333 0.833333 0.125
0.75 0.833333 0.125
0.791667 0.833333 0.125
0.833333 0.833333 0.125
0.875 0.833333 0.125
0.916667 0.833333 0.125
0.958333 0.833333 0.125
1 0.833333 0.125
0 0.875 0.125
0.0416667 0.875 0.125
0.0833333 0.875 0.125
0.125 0.875 0.125
0.166667 0.875 0.125
0.208333 0.875 0.125
0.25 0.875 0.125
0.291667 0.875 0.125
0.333333 0.875 0.125
0.375 0.875 0.125
0.416667 0.875 0.125
0.458333 0.875 0.125
0.5 0.875 0.125
0.541667 0.875 0.125
0.583333 0.875 0.125
0.625 0.875 0.125
0.666667 0.875 0.125
0.708333 0.875 0.125
0.75 0.875 0.125
0.791667 0.875 0.125
0.833333 0.875 0.125
0.875 0.875 0.125
0.916667 0.875 0.125
0.958333 0.875 0.125
1 0.875 0.125
0 0.916667 0.125
0.0416667 0.916667 0.125
0.0833333 0.916667 0.125
0.125 0.916667 0.125
0.166667 0.916667 0.125
0.208333 0.916667 0.125
0.25 0.916667 0.125
0.291667 0.916667 0.125
0.333333 0.916667 0.125
0.375 0.916667 0.125
0.416667 0.916667 0.125
0.458333 0.916667 0.125
0.5 0.916667 0.125
0.541667 0.916667 0.125
0.583333 0.916667 0.125
0.625 0.916667 0.125
0.666667 0.916667 0.125
0.708333 0.916667 0.125
0.75 0.916667 0.125
0.791667 0.916667 0.125
0.833333 0.916667 0.125
0.875 0.916667 0.125
0.916667 0.916667 0.125
0.958333 0.916667 0.125
1 0.916667 0.125
0 0.958333 0.125
0.0416667 0.958333 0.125
0.0833333 0.958333 0.125
0.125 0.958333 0.125
0.166667 0.958333 0.125
0.208333 0.958333 0.125
0.25 0.958333 0.125
0.291667 0.958333 0.125
0.333333 0.958333 0.125
0.375 0.958333 0.125
0.416667 0.958333 0.125
0.458333 0.958333 0.125
0.5 0.958333 0.125
0.541667 0.958333 0.125
0.583333 0.958333 0.125
0.625 0.958333 0.125
0.666667 0.958333 0.125
0.708333 0.958333 0.125
0.75 0.958333 0.125
0.791667 0.958333 0.125
0.833333 0.958333 0.125
0.875 0.958333 0.125
0.916667 0.958333 0.125
0.958333 0.958333 0.125
1 0.958333 0.125
0 1 0.125
0.0416667 1 0.125
0.0833333 1 0.125
0.125 1 0.125
0.166667 1 0.125
0.208333 1 0.125
0.25 1 0.125
0.291667 1 0.125
0.333333 1 0.125
0.375 1 0.125
0.416667 1 0.125
0.458333 1 0.125
0.5 1 0.125
0.541667 1 0.125
0.583333 1 0.125
0.625 1 0.125
0.666667 1 0.125
0.708333 1 0.125
0.75 1 0.125
0.791667 1 0.125
0.833333 1 0.125
0.875 1 0.125
0.916667 1 0.125
0.958333 1 0.125
1 1 0.125
0 0 0.166667
0.0416667 0 0.166667
0.0833333 0 0.166667
0.125 0 0.166667
0.166667 0 0.166667
0.208333 0 0.166667
0.25 0 0.166667
0.291667 0 0.166667
0.333333 0 0.166667
0.375 0 0.166667
0.416667 0 0.166667
0.458333 0 0.166667
0.5 0 0.166667
0.541667 0 0.166667
0.583333 0 0.166667
0.625 0 0.166667
0.666667 0 0.166667
0.708333 0 0.166667
0.75 0 0.166667
0.791667 0 0.166667
0.833333 0 0.166667
0.875 0 0.166667
0.916667 0 0.166667
0.958333 0 0.166667
1 0 0.166667
0 0.0416667 0.166667
0.0416667 0.0416667 0.166667
0.0833333 0.0416667 0.166667
0.125 0.0416667 0.166667
0.166667 0.0416667 0.166667
0.208333 0.0416667 0.166667
0.25 0.0416667 0.166667
0.291667 0.0416667 0.166667
0.333333 0.0416667 0.166667
0.375 0.0416667 0.166667
0.416667 0.0416667 0.166667
0.458333 0.0416667 0.166667
0.5 0.0416667 0.166667
0.541667 0.0416667 0.166667
0.583333 0.0416667 0.166667
0.625 0.0416667 0.166667
0.666667 0.0416667 0.166667
0.708333 0.0416667 0.166667
0.75 0.0416667 0.166667
0.791667 0.0416667 0.166667
0.833333 0.0416667 0.166667
0.875 0.0416667 0.166667
0.916667 0.0416667 0.166667
0.958333 0.0416667 0.166667
1 0.0416667 0.166667
0 0.0833333 0.166667
0.0416667 0.0833333 0.166667
0.0833333 0.0833333 0.166667
0.125 0.0833333 0.166667
0.166667 0.0833333 0.166667
0.208333 0.0833333 0.166667
0.25 0.0833333 0.166667
0.291667 0.0833333 0.166667
0.333333 0.0833333 0.166667
0.375 0.0833333 0.166667
0.416667 0.0833333 0.166667
0.458333 0.0833333 0.166667
0.5 0.0833333 0.166667
0.541667 0.0833333 0.166667
0.583333 0.0833333 0.166667
0.625 0.0833333 0.166667
0.666667 0.0833333 0.166667
0.708333 0.0833333 0.166667
0.75 0.0833333 0.166667
0.791667 0.0833333 0.166667
0.833333 0.0833333 0.166667
0.875 0.0833333 0.166667
0.916667 0.0833333 0.166667
0.958333 0.0833333 0.166667
1 0.0833333 0.166667
0 0.125 0.166667
0.0416667 0.125 0.166667
0.0833333 0.125 0.166667
0.125 0.125 0.166667
0.166667 0.125 0.166667
0.208333 0.125 0.166667
0.25 0.125 0.166667
0.291667 0.125 0.166667
0.333333 0.125 0.166667
0.375 0.125 0.166667
0.416667 0.125 0.166667
0.458333 0.125 0.166667
0.5 0.125 0.166667
0.541667 0.125 0.166667
0.583333 0.125 0.166667
0.625 0.125 0.166667
0.666667 0.125 0.166667
0.708333 0.125 0.166667
0.75 0.125 0.166667
0.791667 0.125 0.166667
0.833333 0.125 0.166667
0.875 0.125 0.166667
0.916667 0.125 0.166667
0.958333 0.125 0.166667
1 0.125 0.166667
0 0.166667 0.166667
0.0416667 0.166667 0.166667
0.0833333 0.166667 0.166667
0.125 0.166667 0.166667
0.166667 0.166667 0.166667
0.208333 0.166667 0.166667
0.25 0.166667 0.166667
0.291667 0.166667 0.166667
0.333333 0.166667 0.166667
0.375 0.166667 0.166667
0.416667 0.166667 0.166667
0.458333 0.166667 0.166667
0.5 0.166667 0.166667
0.541667 0.166667 0.166667
0.583333 0.166667 0.166667
0.625 0.166667 0.166667
0.666667 0.166667 0.166667
0.708333 0.166667 0.166667
0.75 0.166667 0.166667
0.791667 0.166667 0.166667
0.833333 0.166667 0.166667
0.875 0.166667 0.166667
0.916667 0.166667 0.166667
0.958333 0.166667 0.166667
1 0.166667 0.166667
0 0.208333 0.166667
0.0416667 0.208333 0.166667
0.0833333 0.208333 0.166667
0.125 0.208333 0.166667
0.166667 0.208333 0.166667
0.208333 0.208333 0.166667
0.25 0.208333 0.166667
0.291667 0.208333 0.166667
0.333333 0.208333 0.166667
0.375 0.208333 0.166667
0.416667 0.208333 0.166667
0.458333 0.208333 0.166667
0.5 0.208333 0.166667
0.541667 0.208333 0.166667
0.583333 0.208333 0.166667
0.625 0.208333 0.166667
0.666667 0.208333 0.166667
0.708333 0.208333 0.166667
0.75 0.208333 0.166667
0.791667 0.208333 0.166667
0.833333 0.208333 0.166667
0.875 0.208333 0.166667
0.916667 0.208333 0.166667
0.958333 0.208333 0.166667
1 0.208333 0.166667
0 0.25 0.166667
0.0416667 0.25 0.166667
0.0833333 0.25 0.166667
0.125 0.25 0.166667
0.166667 0.25 0.166667
0.208333 0.25 0.166667
0.25 0.25 0.166667
0.291667 0.25 0.166667
0.333333 0.25 0.166667
0.375 0.25 0.166667
0.416667 0.25 0.166667
0.458333 0.25 0.166667
0.5 0.25 0.166667
0.541667 0.25 0.166667
0.583333 0.25 0.166667
0.625 0.25 0.166667
0.666667 0.25 0.166667
0.708333 0.25 0.166667
0.75 0.25 0.166667
0.791667 0.25 0.166667
0.833333 0.25 0.166667
0.875 0.25 0.166667
0.916667 0.25 0.166667
0.958333 0.25 0.166667
1 0.25 0.166667
0 0.291667 0.166667
0.0416667 0.291667 0.166667
0.0833333 0.291667 0.166667
0.125 0.291667 0.166667
0.166667 0.291667 0.166667
0.208333 0.291667 0.166667
0.25 0.291667 0.166667
0.291667 0.291667 0.166667
0.333333 0.291667 0.166667
0.375 0.291667 0.166667
0.416667 0.291667 0.166667
0.458333 0.291667 0.166667
0.5 0.291667 0.166667
0.541667 0.291667 0.166667
0.583333 0.291667 0.166667
0.625 0.291667 0.166667
0.666667 0.291667 0.166667
0.708333 0.291667 0.166667
0.75 0.291667 0.166667
0.791667 0.291667 0.166667
0.833333 0.291667 0.166667
0.875 0.291667 0.166667
0.916667 0.291667 0.166667
0.958333 0.291667 0.166667
1 0.291667 0.166667
0 0.333333 0.166667
0.0416667 0.333333 0.166667
0.0833333 0.333333 0.166667
0.125 0.333333 0.166667
0.166667 0.333333 0.166667
0.208333 0.333333 0.166667
0.25 0.333333 0.166667
0.291667 0.333333 0.166667
0.333333 0.333333 0.166667
0.375 0.333333 0.166667
0.416667 0.333333 0.166667
0.458333 0.333333 0.166667
0.5 0.333333 0.166667
0.541667 0.333333 0.166667
0.583333 0.333333 0.166667
0.625 0.333333 0.166667
0.666667 0.333333 0.166667
0.708333 0.333333 0.166667
0.75 0.333333 0.166667
0.791667 0.333333 0.166667
0.833333 0.333333 0.166667
0.875 0.333333 0.166667
0.916667 0.333333 0.166667
0.958333 0.333333 0.166667
1 0.333333 0.166667
0 0.375 0.166667
0.0416667 0.375 0.166667
0.0833333 0.375 0.166667
0.125 0.375 0.166667
0.166667 0.375 0.166667
0.208333 0.375 0.166667
0.25 0.375 0.166667
0.291667 0.375 0.166667
0.333333 0.375 0.166667
0.375 0.375 0.166667
0.416667 0.375 0.166667
0.458333 0.375 0.166667
0.5 0.375 0.166667
0.541667 0.375 0.166667
0.583333 0.375 0.166667
0.625 0.375 0.166667
0.666667 0.375 0.166667
0.708333 0.375 0.166667
0.75 0.375 0.166667
0.791667 0.375 0.166667
0.833333 0.375 0.166667
0.875 0.375 0.166667
0.916667 0.375 0.166667
0.958333 0.375 0.166667
1 0.375 0.166667
0 0.416667 0.166667
0.0416667 0.416667 0.166667
0.0833333 0.416667 0.166667
0.125 0.416667 0.166667
0.166667 0.416667 0.166667
0.208333 0.416667 0.166667
0.25 0.416667 0.166667
0.291667 0.416667 0.166667
0.333333 0.416667 0.166667
0.375 0.416667 0.166667
0.416667 0.416667 0.166667
0.458333 0.416667 0.166667
0.5 0.416667 0.166667
0.541667 0.416667 0.166667
0.583333 0.416667 0.166667
0.625 0.416667 0.166667
0.666667 0.416667 0.166667
0.708333 0.416667 0.166667
0.75 0.416667 0.166667
0.791667 0.416667 0.166667
0.833333 0.416667 0.166667
0.875 0.416667 0.166667
0.916667 0.416667 0.166667
0.958333 0.416667 0.166667
1 0.416667 0.166667
0 0.458333 0.166667
0.0416667 0.458333 0.166667
0.0833333 0.458333 0.166667
0.125 0.458333 0.166667
0.166667 0.458333 0.166667
0.208333 0.458333 0.166667
0.25 0.458333 0.166667
0.291667 0.458333 0.166667
0.333333 0.458333 0.166667
0.375 0.458333 0.166667
0.416667 0.458333 0.166667
0.458333 0.458333 0.166667
0.5 0.458333 0.166667
0.541667 0.458333 0.166667
0.583333 0.458333 0.166667
0.625 0.458333 0.166667
0.666667 0.458333 0.166667
0.708333 0.458333 0.166667
0.75 0.458333 0.166667
0.791667 0.458333 0.166667
0.833333 0.458333 0.166667
0.875 0.458333 0.166667
0.916667 0.458333 0.166667
0.958333 0.458333 0.166667
1 0.458333 0.166667
0 0.5 0.166667
0.0416667 0.5 0.166667
0.0833333 0.5 0.166667
0.125 0.5 0.166667
0.166667 0.5 0.166667
0.208333 0.5 0.166667
0.25 0.5 0.166667
0.291667 0.5 0.166667
0.333333 0.5 0.166667
0.375 0.5 0.166667
0.416667 0.5 0.166667
0.458333 0.5 0.166667
0.5 0.5 0.166667
0.541667 0.5 0.166667
0.583333 0.5 0.166667
0.625 0.5 0.166667
0.666667 0.5 0.166667
0.708333 0.5 0.166667
0.75 0.5 0.166667
0.791667 0.5 0.166667
0.833333 0.5 0.166667
0.875 0.5 0.166667
0.916667 0.5 0.166667
0.958333 0.5 0.166667
1 0.5 0.166667
0 0.541667 0.166667
0.0416667 0.541667 0.166667
0.0833333 0.541667 0.166667
0.125 0.541667 0.166667
0.166667 0.541667 0.166667
0.208333 0.541667 0.166667
0.25 0.541667 0.166667
0.291667 0.541667 0.166667
0.333333 0.541667 0.166667
0.375 0.541667 0.166667
0.416667 0.541667 0.166667
0.458333 0.541667 0.166667
0.5 0.541667 0.166667
0.541667 0.541667 0.166667
0.583333 0.541667 0.166667
0.625 0.541667 0.166667
0.666667 0.541667 0.166667
0.708333 0.541667 0.166667
0.75 0.541667 0.166667
0.791667 0.541667 0.166667
0.833333 0.541667 0.166667
0.875 0.541667 0.166667
0.916667 0.541667 0.166667
0.958333 0.541667 0.166667
1 0.541667 0.166667
0 0.583333 0.166667
0.0416667 0.583333 0.166667
0.0833333 0.583333 0.166667
0.125 0.583333 0.166667
0.166667 0.583333 0.166667
0.208333 0.583333 0.166667
0.25 0.583333 0.166667
0.291667 0.583333 0.166667
0.333333 0.583333 0.166667
0.375 0.583333 0.166667
0.416667 0.583333 0.166667
0.458333 0.583333 0.166667
0.5 0.583333 0.166667
0.541667 0.583333 0.166667
0.583333 0.583333 0.166667
0.625 0.583333 0.166667
0.666667 0.583333 0.166667
0.708333 0.583333 0.166667
0.75 0.583333 0.166667
0.791667 0.583333 0.166667
0.833333 0.583333 0.166667
0.875 0.583333 0.166667
0.916667 0.583333 0.166667
0.958333 0.583333 0.166667
1 0.583333 0.166667
0 0.625 0.166667
0.0416667 0.625 0.166667
0.0833333 0.625 0.166667
0.125 0.625 0.166667
0.166667 0.625 0.166667
0.208333 0.625 0.166667
0.25 0.625 0.166667
0.291667 0.625 0.166667
0.333333 0.625 0.166667
0.375 0.625 0.166667
0.416667 0.625 0.166667
0.458333 0.625 0.166667
0.5 0.625 0.166667
0.541667 0.625 0.166667
0.583333 0.625 0.166667
0.625 0.625 0.166667
0.666667 0.625 0.166667
0.708333 0.625 0.166667
0.75 0.625 0.166667
0.791667 0.625 0.166667
0.833333 0.625 0.166667
0.875 0.625 0.166667
0.916667 0.625 0.166667
0.958333 0.625 0.166667
1 0.625 0.166667
0 0.666667 0.166667
0.0416667 0.666667 0.166667
0.0833333 0.666667 0.166667
0.125 0.666667 0.166667
0.166667 0.666667 0.166667
0.208333 0.666667 0.166667
0.25 0.666667 0.166667
0.291667 0.666667 0.166667
0.333333 0.666667 0.166667
0.375 0.666667 0.166667
0.416667 0.666667 0.166667
0.458333 0.666667 0.166667
0.5 0.666667 0.166667
0.541667 0.666667 0.166667
0.583333 0.666667 0.166667
0.625 0.666667 0.166667
0.666667 0.666667 0.166667
0.708333 0.666667 0.166667
0.75 0.666667 0.166667
0.791667 0.666667 0.166667
0.833333 0.666667 0.166667
0.875 0.666667 0.166667
0.916667 0.666667 0.166667
0.958333 0.666667 0.166667
1 0.666667 0.166667
0 0.708333 0.166667
0.0416667 0.708333 0.166667
0.0833333 0.708333 0.166667
0.125 0.708333 0.166667
0.166667 0.708333 0.166667
0.208333 0.708333 0.166667
0.25 0.708333 0.166667
0.291667 0.708333 0.166667
0.333333 0.708333 0.166667
0.375 0.708333 0.166667
0.416667 0.708333 0.166667
0.458333 0.708333 0.166667
0.5 0.708333 0.166667
0.541667 0.708333 0.166667
0.583333 0.708333 0.166667
0.625 0.708333 0.166667
0.666667 0.708333 0.166667
0.708333 0.708333 0.166667
0.75 0.708333 0.166667
0.791667 0.708333 0.166667
0.833333 0.708333 0.166667
0.875 0.708333 0.166667
0.916667 0.708333 0.166667
0.958333 0.708333 0.166667
1 0.708333 0.166667
0 0.75 0.166667
0.0416667 0.75 0.166667
0.0833333 0.75 0.166667
0.125 0.75 0.166667
0.166667 0.75 0.166667
0.208333 0.75 0.166667
0.25 0.75 0.166667
0.291667 0.75 0.166667
0.333333 0.75 0.166667
0.375 0.75 0.166667
0.416667 0.75 0.166667
0.458333 0.75 0.166667
0.5 0.75 0.166667
0.541667 0.75 0.166667
0.583333 0.75 0.166667
0.625 0.75 0.166667
0.666667 0.75 0.166667
0.708333 0.75 0.166667
0.75 0.75 0.166667
0.791667 0.75 0.166667
0.833333 0.75 0.166667
0.875 0.75 0.166667
0.916667 0.75 0.166667
0.958333 0.75 0.166667
1 0.75 0.166667
0 0.791667 0.166667
0.0416667 0.791667 0.166667
0.0833333 0.791667 0.166667
0.125 0.791667 0.166667
0.166667 0.791667 0.166667
0.208333 0.791667 0.166667
0.25 0.791667 0.166667
0.291667 0.791667 0.166667
0.333333 0.791667 0.166667
0.375 0.791667 0.166667
0.416667 0.791667 0.166667
0.458333 0.791667 0.166667
0.5 0.791667 0.166667
0.541667 0.791667 0.166667
0.583333 0.791667 0.166667
0.625 0.791667 0.166667
0.666667 0.791667 0.166667
0.708333 0.791667 0.166667
0.75 0.791667 0.166667
0.791667 0.791667 0.166667
0.833333 0.791667 0.166667
0.875 0.791667 0.166667
0.916667 0.791667 0.166667
0.958333 0.791667 0.166667
1 0.791667 0.166667
0 0.833333 0.166667
0.0416667 0.833333 0.166667
0.0833333 0.833333 0.166667
0.125 0.833333 0.166667
0.166667 0.833333 0.166667
0.208333 0.833333 0.166667
0.25 0.833333 0.166667
0.291667 0.833333 0.166667
0.333333 0.833333 0.166667
0.375 0.833333 0.166667
0.416667 0.833333 0.166667
0.458333 0.833333 0.166667
0.5 0.833333 0.166667
0.541667 0.833333 0.166667
0.583333 0.833333 0.166667
0.625 0.833333 0.166667
0.666667 0.833333 0.166667
0.708333 0.833333 0.166667
0.75 0.833333 0.166667
0.791667 0.833333 0.166667
0.833333 0.833333 0.166667
0.875 0.833333 0.166667
0.916667 0.833333 0.166667
0.958333 0.833333 0.166667
1 0.833333 0.166667
0 0.875 0.166667
0.0416667 0.875 0.166667
0.0833333 0.875 0.166667
0.125 0.875 0.166667
0.166667 0.875 0.166667
0.208333 0.875 0.166667
0.25 0.875 0.166667
0.291667 0.875 0.166667
0.333333 0.875 0.166667
0.375 0.875 0.166667
0.416667 0.875 0.166667
0.458333 0.875 0.166667
0.5 0.875 0.166667
0.541667 0.875 0.166667
0.583333 0.875 0.166667
0.625 0.875 0.166667
0.666667 0.875 0.166667
0.708333 0.875 0.166667
0.75 0.875 0.166667
0.791667 0.875 0.166667
0.833333 0.875 0.166667
0.875 0.875 0.166667
0.916667 0.875 0.166667
0.958333 0.875 0.166667
1 0.875 0.166667
0 0.916667 0.166667
0.0416667 0.916667 0.166667
0.0833333 0.916667 0.166667
0.125 0.916667 0.166667
0.166667 0.916667 0.166667
0.208333 0.916667 0.166667
0.25 0.916667 0.166667
0.291667 0.916667 0.166667
0.333333 0.916667 0.166667
0.375 0.916667 0.166667
0.416667 0.916667 0.166667
0.458333 0.916667 0.166667
0.5 0.916667 0.166667
0.541667 0.916667 0.166667
0.583333 0.916667 0.166667
0.625 0.916667 0.166667
0.666667 0.916667 0.166667
0.708333 0.916667 0.166667
0.75 0.916667 0.166667
0.791667 0.916667 0.166667
0.833333 0.916667 0.166667
0.875 0.916667 0.166667
0.916667 0.916667 0.166667
0.958333 0.916667 0.166667
1 0.916667 0.166667
0 0.958333 0.166667
0.0416667 0.958333 0.166667
0.0833333 0.958333 0.166667
0.125 0.958333 0.166667
0.166667 0.958333 0.166667
0.208333 0.958333 0.166667
0.25 0.958333 0.166667
0.291667 0.958333 0.166667
0.333333 0.958333 0.166667
0.375 0.958333 0.166667
0.416667 0.958333 0.166667
0.458333 0.958333 0.166667
0.5 0.958333 0.166667
0.541667 0.958333 0.166667
0.583333 0.958333 0.166667
0.625 0.958333 0.166667
0.666667 0.958333 0.166667
0.708333 0.958333 0.166667
0.75 0.958333 0.166667
0.791667 0.958333 0.166667
0.833333 0.958333 0.166667
0.875 0.958333 0.166667
0.916667 0.958333 0.166667
0.958333 0.958333 0.166667
1 0.958333 0.166667
0 1 0.166667
0.0416667 1 0.166667
0.0833333 1 0.166667
0.125 1 0.166667
0.166667 1 0.166667
0.208333 1 0.166667
0.25 1 0.166667
0.291667 1 0.166667
0.333333 1 0.166667
0.375 1 0.166667
0.416667 1 0.166667
0.458333 1 0.166667
0.5 1 0.166667
0.541667 1 0.166667
0.583333 1 0.166667
0.625 1 0.166667
0.666667 1 0.166667
0.708333 1 0.166667
0.75 1 0.166667
0.791667 1 0.166667
0.833333 1 0.166667
0.875 1 0.166667
0.916667 1 0.166667
0.958333 1 0.166667
1 1 0.166667
0 0 0.208333
0.0416667 0 0.208333
0.0833333 0 0.208333
0.125 0 0.208333
0.166667 0 0.208333
0.208333 0 0.208333
0.25 0 0.208333
0.291667 0 0.208333
0.333333 0 0.208333
0.375 0 0.208333
0.416667 0 0.208333
0.458333 0 0.208333
0.5 0 0.208333
0.541667 0 0.208333
0.583333 0 0.208333
0.625 0 0.208333
0.666667 0 0.208333
0.708333 0 0.208333
0.75 0 0.208333
0.791667 0 0.208333
0.833333 0 0.208333
0.875 0 0.208333
0.916667 0 0.208333
0.958333 0 0.208333
1 0 0.208333
0 0.0416667 0.208333
0.0416667 0.0416667 0.208333
0.0833333 0.0416667 0.208333
0.125 0.0416667 0.208333
0.166667 0.0416667 0.208333
0.208333 0.0416667 0.208333
0.25 0.0416667 0.208333
0.291667 0.0416667 0.208333
0.333333 0.0416667 0.208333
0.375 0.0416667 0.208333
0.416667 0.0416667 0.208333
0.458333 0.0416667 0.208333
0.5 0.0416667 0.208333
0.541667 0.0416667 0.208333
0.583333 0.0416667 0.208333
0.625 0.0416667 0.208333
0.666667 0.0416667 0.208333
0.708333 0.0416667 0.208333
0.75 0.0416667 0.208333
0.791667 0.0416667 0.208333
0.833333 0.0416667 0.208333
0.875 0.0416667 0.208333
0.916667 0.0416667 0.208333
0.958333 0.0416667 0.208333
1 0.0416667 0.208333
0 0.0833333 0.208333
0.0416667 0.0833333 0.208333
0.0833333 0.0833333 0.208333
0.125 0.0833333 0.208333
0.166667 0.0833333 0.208333
0.208333 0.0833333 0.208333
0.25 0.0833333 0.208333
0.291667 0.0833333 0.208333
0.333333 0.0833333 0.208333
0.375 0.0833333 0.208333
0.416667 0.0833333 0.208333
0.458333 0.0833333 0.208333
0.5 0.0833333 0.208333
0.541667 0.0833333 0.208333
0.583333 0.0833333 0.208333
0.625 0.0833333 0.208333
0.666667 0.0833333 0.208333
0.708333 0.0833333 0.208333
0.75 0.0833333 0.208333
0.791667 0.0833333 0.208333
0.833333 0.0833333 0.208333
0.875 0.0833333 0.208333
0.916667 0.0833333 0.208333
0.958333 0.0833333 0.208333
1 0.0833333 0.208333
0 0.125 0.208333
0.0416667 0.125 0.208333
0.0833333 0.125 0.208333
0.125 0.125 0.208333
0.166667 0.125 0.208333
0.208333 0.125 0.208333
0.25 0.125 0.208333
0.291667 0.125 0.208333
0.333333 0.125 0.208333
0.375 0.125 0.208333
0.416667 0.125 0.208333
0.458333 0.125 0.208333
0.5 0.125 0.208333
0.541667 0.125 0.208333
0.583333 0.125 0.208333
0.625 0.125 0.208333
0.666667 0.125 0.208333
0.708333 0.125 0.208333
0.75 0.125 0.208333
0.791667 0.125 0.208333
0.833333 0.125 0.208333
0.875 0.125 0.208333
0.916667 0.125 0.208333
0.958333 0.125 0.208333
1 0.125 0.208333
0 0.166667 0.208333
0.0416667 0.166667 0.208333
0.0833333 0.166667 0.208333
0.125 0.166667 0.208333
0.166667 0.166667 0.208333
0.208333 0.166667 0.208333
0.25 0.166667 0.208333
0.291667 0.166667 0.208333
0.333333 0.166667 0.208333
0.375 0.166667 0.208333
0.416667 0.166667 0.208333
0.458333 0.166667 0.208333
0.5 0.166667 0.208333
0.541667 0.166667 0.208333
0.583333 0.166667 0.208333
0.625 0.166667 0.208333
0.666667 0.166667 0.208333
0.708333 0.166667 0.208333
0.75 0.166667 0.208333
0.791667 0.166667 0.208333
0.833333 0.166667 0.208333
0.875 0.166667 0.208333
0.916667 0.166667 0.208333
0.958333 0.166667 0.208333
1 0.166667 0.208333
0 0.208333 0.208333
0.0416667 0.208333 0.208333
0.0833333 0.208333 0.208333
0.125 0.208333 0.208333
0.166667 0.208333 0.208333
0.208333 0.208333 0.208333
0.25 0.208333 0.208333
0.291667 0.208333 0.208333
0.333333 0.208333 0.208333
0.375 0.208333 0.208333
0.416667 0.208333 0.208333
0.458333 0.208333 0.208333
0.5 0.208333 0.208333
0.541667 0.208333 0.208333
0.583333 0.208333 0.208333
0.625 0.208333 0.208333
0.666667 0.208333 0.208333
0.708333 0.208333 0.208333
0.75 0.208333 0.208333
0.791667 0.208333 0.208333
0.833333 0.208333 0.208333
0.875 0.208333 0.208333
0.916667 0.208333 0.208333
0.958333 0.208333 0.208333
1 0.208333 0.208333
0 0.25 0.208333
0.0416667 0.25 0.208333
0.0833333 0.25 0.208333
0.125 0.25 0.208333
0.166667 0.25 0.208333
0.208333 0.25 0.208333
0.25 0.25 0.208333
0.291667 0.25 0.208333
0.333333 0.25 0.208333
0.375 0.25 0.208333
0.416667 0.25 0.208333
0.458333 0.25 0.208333
0.5 0.25 0.208333
0.541667 0.25 0.208333
0.583333 0.25 0.208333
0.625 0.25 0.208333
0.666667 0.25 0.208333
0.708333 0.25 0.208333
0.75 0.25 0.208333
0.791667 0.25 0.208333
0.833333 0.25 0.208333
0.875 0.25 0.208333
0.916667 0.25 0.208333
0.958333 0.25 0.208333
1 0.25 0.208333
0 0.291667 0.208333
0.0416667 0.291667 0.208333
0.0833333 0.291667 0.208333
0.125 0.291667 0.208333
0.166667 0.291667 0.208333
0.208333 0.291667 0.208333
0.25 0.291667 0.208333
0.291667 0.291667 0.208333
0.333333 0.291667 0.208333
0.375 0.291667 0.208333
0.416667 0.291667 0.208333
0.458333 0.291667 0.208333
0.5 0.291667 0.208333
0.541667 0.291667 0.208333
0.583333 0.291667 0.208333
0.625 0.291667 0.208333
0.666667 0.291667 0.208333
0.708333 0.291667 0.208333
0.75 0.291667 0.208333
0.791667 0.291667 0.208333
0.833333 0.291667 0.208333
0.875 0.291667 0.208333
0.916667 0.291667 0.208333
0.958333 0.291667 0.208333
1 0.291667 0.208333
0 0.333333 0.208333
0.0416667 0.333333 0.208333
0.0833333 0.333333 0.208333
0.125 0.333333 0.208333
0.166667 0.333333 0.208333
0.208333 0.333333 0.208333
0.25 0.333333 0.208333
0.291667 0.333333 0.208333
0.333333 0.333333 0.208333
0.375 0.333333 0.208333
0.416667 0.333333 0.208333
0.458333 0.333333 0.208333
0.5 0.333333 0.208333
0.541667 0.333333 0.208333
0.583333 0.333333 0.208333
0.625 0.333333 0.208333
0.666667 0.333333 0.208333
0.708333 0.333333 0.208333
0.75 0.333333 0.208333
0.791667 0.333333 0.208333
0.833333 0.333333 0.208333
0.875 0.333333 0.208333
0.916667 0.333333 0.208333
0.958333 0.333333 0.208333
1 0.333333 0.208333
0 0.375 0.208333
0.0416667 0.375 0.208333
0.0833333 0.375 0.208333
0.125 0.375 0.208333
0.166667 0.375 0.208333
0.208333 0.375 0.208333
0.25 0.375 0.208333
0.291667 0.375 0.208333
0.333333 0.375 0.208333
0.375 0.375 0.208333
0.416667 0.375 0.208333
0.458333 0.375 0.208333
0.5 0.375 0.208333
0.541667 0.375 0.208333
0.583333 0.375 0.208333
0.625 0.375 0.208333
0.666667 0.375 0.208333
0.708333 0.375 0.208333
0.75 0.375 0.208333
0.791667 0.375 0.208333
0.833333 0.375 0.208333
0.875 0.375 0.208333
0.916667 0.375 0.208333
0.958333 0.375 0.208333
1 0.375 0.208333
0 0.416667 0.208333
0.0416667 0.416667 0.208333
0.0833333 0.416667 0.208333
0.125 0.416667 0.208333
0.166667 0.416667 0.208333
0.208333 0.416667 0.208333
0.25 0.416667 0.208333
0.291667 0.416667 0.208333
0.333333 0.416667 0.208333
0.375 0.416667 0.208333
0.416667 0.416667 0.208333
0.458333 0.416667 0.208333
0.5 0.416667 0.208333
0.541667 0.416667 0.208333
0.583333 0.416667 0.208333
0.625 0.416667 0.208333
0.666667 0.416667 0.208333
0.708333 0.416667 0.208333
0.75 0.416667 0.208333
0.791667 0.416667 0.208333
0.833333 0.416667 0.208333
0.875 0.416667 0.208333
0.916667 0.416667 0.208333
0.958333 0.416667 0.208333
1 0.416667 0.208333
0 0.458333 0.208333
0.0416667 0.458333 0.208333
0.0833333 0.458333 0.208333
0.125 0.458333 0.208333
0.166667 0.458333 0.208333
0.208333 0.458333 0.208333
0.25 0.458333 0.208333
0.291667 0.458333 0.208333
0.333333 0.458333 0.208333
0.375 0.458333 0.208333
0.416667 0.458333 0.208333
0.458333 0.458333 0.208333
0.5 0.458333 0.208333
0.541667 0.458333 0.208333
0.583333 0.458333 0.208333
0.625 0.458333 0.208333
0.666667 0.458333 0.208333
0.708333 0.458333 0.208333
0.75 0.458333 0.208333
0.791667 0.458333 0.208333
0.833333 0.458333 0.208333
0.875 0.458333 0.208333
0.916667 0.458333 0.208333
0.958333 0.458333 0.208333
1 0.458333 0.208333
0 0.5 0.208333
0.0416667 0.5 0.208333
0.0833333 0.5 0.208333
0.125 0.5 0.208333
0.166667 0.5 0.208333
0.208333 0.5 0.208333
0.25 0.5 0.208333
0.291667 0.5 0.208333
0.333333 0.5 0.208333
0.375 0.5 0.208333
0.416667 0.5 0.208333
0.458333 0.5 0.208333
0.5 0.5 0.208333
0.541667 0.5 0.208333
0.583333 0.5 0.208333
0.625 0.5 0.208333
0.666667 0.5 0.208333
0.708333 0.5 0.208333
0.75 0.5 0.208333
0.791667 0.5 0.208333
0.833333 0.5 0.208333
0.875 0.5 0.208333
0.916667 0.5 0.208333
0.958333 0.5 0.208333
1 0.5 0.208333
0 0.541667 0.208333
0.0416667 0.541667 0.208333
0.0833333 0.541667 0.208333
0.125 0.541667 0.208333
0.166667 0.541667 0.208333
0.208333 0.541667 0.208333
0.25 0.541667 0.208333
0.291667 0.541667 0.208333
0.333333 0.541667 0.208333
0.375 0.541667 0.208333
0.416667 0.541667 0.208333
0.458333 0.541667 0.208333
0.5 0.541667 0.208333
0.541667 0.541667 0.208333
0.583333 0.541667 0.208333
0.625 0.541667 0.208333
0.666667 0.541667 0.208333
0.708333 0.541667 0.208333
0.75 0.541667 0.208333
0.791667 0.541667 0.208333
0.833333 0.541667 0.208333
0.875 0.541667 0.208333
0.916667 0.541667 0.208333
0.958333 0.541667 0.208333
1 0.541667 0.208333
0 0.583333 0.208333
0.0416667 0.583333 0.208333
0.0833333 0.583333 0.208333
0.125 0.583333 0.208333
0.166667 0.583333 0.208333
0.208333 0.583333 0.208333
0.25 0.583333 0.208333
0.291667 0.583333 0.208333
0.333333 0.583333 0.208333
0.375 0.583333 0.208333
0.416667 0.583333 0.208333
0.458333 0.583333 0.208333
0.5 0.583333 0.208333
0.541667 0.583333 0.208333
0.583333 0.583333 0.208333
0.625 0.583333 0.208333
0.666667 0.583333 0.208333
0.708333 0.583333 0.208333
0.75 0.583333 0.208333
0.791667 0.583333 0.208333
0.833333 0.583333 0.208333
0.875 0.583333 0.208333
0.916667 0.583333 0.208333
0.958333 0.583333 0.208333
1 0.583333 0.208333
0 0.625 0.208333
0.0416667 0.625 0.208333
0.0833333 0.625 0.208333
0.125 0.625 0.208333
0.166667 0.625 0.208333
0.208333 0.625 0.208333
0.25 0.625 0.208333
0.291667 0.625 0.208333
0.333333 0.625 0.208333
0.375 0.625 0.208333
0.416667 0.625 0.208333
0.458333 0.625 0.208333
0.5 0.625 0.208333
0.541667 0.625 0.208333
0.583333 0.625 0.208333
0.625 0.625 0.208333
0.666667 0.625 0.208333
0.708333 0.625 0.208333
0.75 0.625 0.208333
0.791667 0.625 0.208333
0.833333 0.625 0.208333
0.875 0.625 0.208333
0.916667 0.625 0.208333
0.958333 0.625 0.208333
1 0.625 0.208333
0 0.666667 0.208333
0.0416667 0.666667 0.208333
0.0833333 0.666667 0.208333
0.125 0.666667 0.208333
0.166667 0.666667 0.208333
0.208333 0.666667 0.208333
0.25 0.666667 0.208333
0.291667 0.666667 0.208333
0.333333 0.666667 0.208333
0.375 0.666667 0.208333
0.416667 0.666667 0.208333
0.458333 0.666667 0.208333
0.5 0.666667 0.208333
0.541667 0.666667 0.208333
0.583333 0.666667 0.208333
0.625 0.666667 0.208333
0.666667 0.666667 0.208333
0.708333 0.666667 0.208333
0.75 0.666667 0.208333
0.791667 0.666667 0.208333
0.833333 0.666667 0.208333
0.875 0.666667 0.208333
0.916667 0.666667 0.208333
0.958333 0.666667 0.208333
1 0.666667 0.208333
0 0.708333 0.208333
0.0416667 0.708333 0.208333
0.0833333 0.708333 0.208333
0.125 0.708333 0.208333
0.166667 0.708333 0.208333
0.208333 0.708333 0.208333
0.25 0.708333 0.208333
0.291667 0.708333 0.208333
0.333333 0.708333 0.208333
0.375 0.708333 0.208333
0.416667 0.708333 0.208333
0.458333 0.708333 0.208333
0.5 0.708333 0.208333
0.541667 0.708333 0.208333
0.583333 0.708333 0.208333
0.625 0.708333 0.208333
0.666667 0.708333 0.208333
0.708333 0.708333 0.208333
0.75 0.708333 0.208333
0.791667 0.708333 0.208333
0.833333 0.708333 0.208333
0.875 0.708333 0.208333
0.916667 0.708333 0.208333
0.958333 0.708333 0.208333
1 0.708333 0.208333
0 0.75 0.208333
0.0416667 0.75 0.208333
0.0833333 0.75 0.208333
0.125 0.75 0.208333
0.166667 0.75 0.208333
0.208333 0.75 0.208333
0.25 0.75 0.208333
0.291667 0.75 0.208333
0.333333 0.75 0.208333
0.375 0.75 0.208333
0.416667 0.75 0.208333
0.458333 0.75 0.208333
0.5 0.75 0.208333
0.541667 0.75 0.208333
0.583333 0.75 0.208333
0.625 0.75 0.208333
0.666667 0.75 0.208333
0.708333 0.75 0.208333
0.75 0.75 0.208333
0.791667 0.75 0.208333
0.833333 0.75 0.208333
0.875 0.75 0.208333
0.916667 0.75 0.208333
0.958333 0.75 0.208333
1 0.75 0.208333
0 0.791667 0.208333
0.0416667 0.791667 0.208333
0.0833333 0.791667 0.208333
0.125 0.791667 0.208333
0.166667 0.791667 0.208333
0.208333 0.791667 0.208333
0.25 0.791667 0.208333
0.291667 0.791667 0.208333
0.333333 0.791667 0.208333
0.375 0.791667 0.208333
0.416667 0.791667 0.208333
0.458333 0.791667 0.208333
0.5 0.791667 0.208333
0.541667 0.791667 0.208333
0.583333 0.791667 0.208333
0.625 0.791667 0.208333
0.666667 0.791667 0.208333
0.708333 0.791667 0.208333
0.75 0.791667 0.208333
0.791667 0.791667 0.208333
0.833333 0.791667 0.208333
0.875 0.791667 0.208333
0.916667 0.791667 0.208333
0.958333 0.791667 0.208333
1 0.791667 0.208333
0 0.833333 0.208333
0.0416667 0.833333 0.208333
0.0833333 0.833333 0.208333
0.125 0.833333 0.208333
0.166667 0.833333 0.208333
0.208333 0.833333 0.208333
0.25 0.833333 0.208333
0.291667 0.833333 0.208333
0.333333 0.833333 0.208333
0.375 0.833333 0.208333
0.416667 0.833333 0.208333
0.458333 0.833333 0.208333
0.5 0.833333 0.208333
0.541667 0.833333 0.208333
0.583333 0.833333 0.208333
0.625 0.833333 0.208333
0.666667 0.833333 0.208333
0.708333 0.833333 0.208333
0.75 0.833333 0.208333
0.791667 0.833333 0.208333
0.833333 0.833333 0.208333
0.875 0.833333 0.208333
0.916667 0.833333 0.208333
0.958333 0.833333 0.208333
1 0.833333 0.208333
0 0.875 0.208333
0.0416667 0.875 0.208333
0.0833333 0.875 0.208333
0.125 0.875 0.208333
0.166667 0.875 0.208333
0.208333 0.875 0.208333
0.25 0.875 0.208333
0.291667 0.875 0.208333
0.333333 0.875 0.208333
0.375 0.875 0.208333
0.416667 0.875 0.208333
0.458333 0.875 0.208333
0.5 0.875 0.208333
0.541667 0.875 0.208333
0.583333 0.875 0.208333
0.625 0.875 0.208333
0.666667 0.875 0.208333
0.708333 0.875 0.208333
0.75 0.875 0.208333
0.791667 0.875 0.208333
0.833333 0.875 0.208333
0.875 0.875 0.208333
0.916667 0.875 0.208333
0.958333 0.875 0.208333
1 0.875 0.208333
0 0.916667 0.208333
0.0416667 0.916667 0.208333
0.0833333 0.916667 0.208333
0.125 0.916667 0.208333
0.166667 0.916667 0.208333
0.208333 0.916667 0.208333
0.25 0.916667 0.208333
0.291667 0.916667 0.208333
0.333333 0.916667 0.208333
0.375 0.916667 0.208333
0.416667 0.916667 0.208333
0.458333 0.916667 0.208333
0.5 0.916667 0.208333
0.541667 0.916667 0.208333
0.583333 0.916667 0.208333
0.625 0.916667 0.208333
0.666667 0.916667 0.208333
0.708333 0.916667 0.208333
0.75 0.916667 0.208333
0.791667 0.916667 0.208333
0.833333 0.916667 0.208333
0.875 0.916667 0.208333
0.916667 0.916667 0.208333
0.958333 0.916667 0.208333
1 0.916667 0.208333
0 0.958333 0.208333
0.0416667 0.958333 0.208333
0.0833333 0.958333 0.208333
0.125 0.958333 0.208333
0.166667 0.958333 0.208333
0.208333 0.958333 0.208333
0.25 0.958333 0.208333
0.291667 0.958333 0.208333
0.333333 0.958333 0.208333
0.375 0.958333 0.208333
0.416667 0.958333 0.208333
0.458333 0.958333 0.208333
0.5 0.958333 0.208333
0.541667 0.958333 0.208333
0.583333 0.958333 0.208333
0.625 0.958333 0.208333
0.666667 0.958333 0.208333
0.708333 0.958333 0.208333
0.75 0.958333 0.208333
0.791667 0.958333 0.208333
0.833333 0.958333 0.208333
0.875 0.958333 0.208333
0.916667 0.958333 0.208333
0.958333 0.958333 0.208333
1 0.958333 0.208333
0 1 0.208333
0.0416667 1 0.208333
0.0833333 1 0.208333
0.125 1 0.208333
0.166667 1 0.208333
0.208333 1 0.208333
0.25 1 0.208333
0.291667 1 0.208333
0.333333 1 0.208333
0.375 1 0.208333
0.416667 1 0.208333
0.458333 1 0.208333
0.5 1 0.208333
0.541667 1 0.208333
0.583333 1 0.208333
0.625 1 0.208333
0.666667 1 0.208333
0.708333 1 0.208333
0.75 1 0.208333
0.791667 1 0.208333
0.833333 1 0.208333
0.875 1 0.208333
0.916667 1 0.208333
0.958333 1 0.208333
1 1 0.208333
0 0 0.25
0.0416667 0 0.25
0.0833333 0 0.25
0.125 0 0.25
0.166667 0 0.25
0.208333 0 0.25
0.25 0 0.25
0.291667 0 0.25
0.333333 0 0.25
0.375 0 0.25
0.416667 0 0.25
0.458333 0 0.25
0.5 0 0.25
0.541667 0 0.25
0.583333 0 0.25
0.625 0 0.25
0.666667 0 0.25
0.708333 0 0.25
0.75 0 0.25
0.791667 0 0.25
0.833333 0 0.25
0.875 0 0.25
0.916667 0 0.25
0.958333 0 0.25
1 0 0.25
0 0.0416667 0.25
0.0416667 0.0416667 0.25
0.0833333 0.0416667 0.25
0.125 0.0416667 0.25
0.166667 0.0416667 0.25
0.208333 0.0416667 0.25
0.25 0.0416667 0.25
0.291667 0.0416667 0.25
0.333333 0.0416667 0.25
0.375 0.0416667 0.25
0.416667 0.0416667 0.25
0.458333 0.0416667 0.25
0.5 0.0416667 0.25
0.541667 0.0416667 0.25
0.583333 0.0416667 0.25
0.625 0.0416667 0.25
0.666667 0.0416667 0.25
0.708333 0.0416667 0.25
0.75 0.0416667 0.25
0.791667 0.0416667 0.25
0.833333 0.0416667 0.25
0.875 0.0416667 0.25
0.916667 0.0416667 0.25
0.958333 0.0416667 0.25
1 0.0416667 0.25
0 0.0833333 0.25
0.0416667 0.0833333 0.25
0.0833333 0.0833333 0.25
0.125 0.0833333 0.25
0.166667 0.0833333 0.25
0.208333 0.0833333 0.25
0.25 0.0833333 0.25
0.291667 0.0833333 0.25
0.333333 0.0833333 0.25
0.375 0.0833333 0.25
0.416667 0.0833333 0.25
0.458333 0.0833333 0.25
0.5 0.0833333 0.25
0.541667 0.0833333 0.25
0.583333 0.0833333 0.25
0.625 0.0833333 0.25
0.666667 0.0833333 0.25
0.708333 0.0833333 0.25
0.75 0.0833333 0.25
0.791667 0.0833333 0.25
0.833333 0.0833333 0.25
0.875 0.0833333 0.25
0.916667 0.0833333 0.25
0.958333 0.0833333 0.25
1 0.0833333 0.25
0 0.125 0.25
0.0416667 0.125 0.25
0.0833333 0.125 0.25
0.125 0.125 0.25
0.166667 0.125 0.25
0.208333 0.125 0.25
0.25 0.125 0.25
0.291667 0.125 0.25
0.333333 0.125 0.25
0.375 0.125 0.25
0.416667 0.125 0.25
0.458333 0.125 0.25
0.5 0.125 0.25
0.541667 0.125 0.25
0.583333 0.125 0.25
0.625 0.125 0.25
0.666667 0.125 0.25
0.708333 0.125 0.25
0.75 0.125 0.25
0.791667 0.125 0.25
0.833333 0.125 0.25
0.875 0.125 0.25
0.916667 0.125 0.25
0.958333 0.125 0.25
1 0.125 0.25
0 0.166667 0.25
0.0416667 0.166667 0.25
0.0833333 0.166667 0.25
0.125 0.166667 0.25
0.166667 0.166667 0.25
0.208333 0.166667 0.25
0.25 0.166667 0.25
0.291667 0.166667 0.25
0.333333 0.166667 0.25
0.375 0.166667 0.25
0.416667 0.166667 0.25
0.458333 0.166667 0.25
0.5 0.166667 0.25
0.541667 0.166667 0.25
0.583333 0.166667 0.25
0.625 0.166667 0.25
0.666667 0.166667 0.25
0.708333 0.166667 0.25
0.75 0.166667 0.25
0.791667 0.166667 0.25
0.833333 0.166667 0.25
0.875 0.166667 0.25
0.916667 0.166667 0.25
0.958333 0.166667 0.25
1 0.166667 0.25
0 0.208333 0.25
0.0416667 0.208333 0.25
0.0833333 0.208333 0.25
0.125 0.208333 0.25
0.166667 0.208333 0.25
0.208333 0.208333 0.25
0.25 0.208333 0.25
0.291667 0.208333 0.25
0.333333 0.208333 0.25
0.375 0.208333 0.25
0.416667 0.208333 0.25
0.458333 0.208333 0.25
0.5 0.208333 0.25
0.541667 0.208333 0.25
0.583333 0.208333 0.25
0.625 0.208333 0.25
0.666667 0.208333 0.25
0.708333 0.208333 0.25
0.75 0.208333 0.25
0.791667 0.208333 0.25
0.833333 0.208333 0.25
0.875 0.208333 0.25
0.916667 0.208333 0.25
0.958333 0.208333 0.25
1 0.208333 0.25
0 0.25 0.25
0.0416667 0.25 0.25
0.0833333 0.25 0.25
0.125 0.25 0.25
0.166667 0.25 0.25
0.208333 0.25 0.25
0.25 0.25 0.25
0.291667 0.25 0.25
0.333333 0.25 0.25
0.375 0.25 0.25
0.416667 0.25 0.25
0.458333 0.25 0.25
0.5 0.25 0.25
0.541667 0.25 0.25
0.583333 0.25 0.25
0.625 0.25 0.25
0.666667 0.25 0.25
0.708333 0.25 0.25
0.75 0.25 0.25
0.791667 0.25 0.25
0.833333 0.25 0.25
0.875 0.25 0.25
0.916667 0.25 0.25
0.958333 0.25 0.25
1 0.25 0.25
0 0.291667 0.25
0.0416667 0.291667 0.25
0.0833333 0.291667 0.25
0.125 0.291667 0.25
0.166667 0.291667 0.25
0.208333 0.291667 0.25
0.25 0.291667 0.25
0.291667 0.291667 0.25
0.333333 0.291667 0.25
0.375 0.291667 0.25
0.416667 0.291667 0.25
0.458333 0.291667 0.25
0.5 0.291667 0.25
0.541667 0.291667 0.25
0.583333 0.291667 0.25
0.625 0.291667 0.25
0.666667 0.291667 0.25
0.708333 0.291667 0.25
0.75 0.291667 0.25
0.791667 0.291667 0.25
0.833333 0.291667 0.25
0.875 0.291667 0.25
0.916667 0.291667 0.25
0.958333 0.291667 0.25
1 0.291667 0.25
0 0.333333 0.25
0.0416667 0.333333 0.25
0.0833333 0.333333 0.25
0.125 0.333333 0.25
0.166667 0.333333 0.25
0.208333 0.333333 0.25
0.25 0.333333 0.25
0.291667 0.333333 0.25
0.333333 0.333333 0.25
0.375 0.333333 0.25
0.416667 0.333333 0.25
0.458333 0.333333 0.25
0.5 0.333333 0.25
0.541667 0.333333 0.25
0.583333 0.333333 0.25
0.625 0.333333 0.25
0.666667 0.333333 0.25
0.708333 0.333333 0.25
0.75 0.333333 0.25
0.791667 0.333333 0.25
0.833333 0.333333 0.25
0.875 0.333333 0.25
0.916667 0.333333 0.25
0.958333 0.333333 0.25
1 0.333333 0.25
0 0.375 0.25
0.0416667 0.375 0.25
0.0833333 0.375 0.25
0.125 0.375 0.25
0.166667 0.375 0.25
0.208333 0.375 0.25
0.25 0.375 0.25
0.291667 0.375 0.25
0.333333 0.375 0.25
0.375 0.375 0.25
0.416667 0.375 0.25
0.458333 0.375 0.25
0.5 0.375 0.25
0.541667 0.375 0.25
0.583333 0.375 0.25
0.625 0.375 0.25
0.666667 0.375 0.25
0.708333 0.375 0.25
0.75 0.375 0.25
0.791667 0.375 0.25
0.833333 0.375 0.25
0.875 0.375 0.25
0.916667 0.375 0.25
0.958333 0.375 0.25
1 0.375 0.25
0 0.416667 0.25
0.0416667 0.416667 0.25
0.0833333 0.416667 0.25
0.125 0.416667 0.25
0.166667 0.416667 0.25
0.208333 0.416667 0.25
0.25 0.416667 0.25
0.291667 0.416667 0.25
0.333333 0.416667 0.25
0.375 0.416667 0.25
0.416667 0.416667 0.25
0.458333 0.416667 0.25
0.5 0.416667 0.25
0.541667 0.416667 0.25
0.583333 0.416667 0.25
0.625 0.416667 0.25
0.666667 0.416667 0.25
0.708333 0.416667 0.25
0.75 0.416667 0.25
0.791667 0.416667 0.25
0.833333 0.416667 0.25
0.875 0.416667 0.25
0.916667 0.416667 0.25
0.958333 0.416667 0.25
1 0.416667 0.25
0 0.458333 0.25
0.0416667 0.458333 0.25
0.0833333 0.458333 0.25
0.125 0.458333 0.25
0.166667 0.458333 0.25
0.208333 0.458333 0.25
0.25 0.458333 0.25
0.291667 0.458333 0.25
0.333333 0.458333 0.25
0.375 0.458333 0.25
0.416667 0.458333 0.25
0.458333 0.458333 0.25
0.5 0.458333 0.25
0.541667 0.458333 0.25
0.583333 0.458333 0.25
0.625 0.458333 0.25
0.666667 0.458333 0.25
0.708333 0.458333 0.25
0.75 0.458333 0.25
0.791667 0.458333 0.25
0.833333 0.458333 0.25
0.875 0.458333 0.25
0.916667 0.458333 0.25
0.958333 0.458333 0.25
1 0.458333 0.25
0 0.5 0.25
0.0416667 0.5 0.25
0.0833333 0.5 0.25
0.125 0.5 0.25
0.166667 0.5 0.25
0.208333 0.5 0.25
0.25 0.5 0.25
0.291667 0.5 0.25
0.333333 0.5 0.25
0.375 0.5 0.25
0.416667 0.5 0.25
0.458333 0.5 0.25
0.5 0.5 0.25
0.541667 0.5 0.25
0.583333 0.5 0.25
0.625 0.5 0.25
0.666667 0.5 0.25
0.708333 0.5 0.25
0.75 0.5 0.25
0.791667 0.5 0.25
0.833333 0.5 0.25
0.875 0.5 0.25
0.916667 0.5 0.25
0.958333 0.5 0.25
1 0.5 0.25
0 0.541667 0.25
0.0416667 0.541667 0.25
0.0833333 0.541667 0.25
0.125 0.541667 0.25
0.166667 0.541667 0.25
0.208333 0.541667 0.25
0.25 0.541667 0.25
0.291667 0.541667 0.25
0.333333 0.541667 0.25
0.375 0.541667 0.25
0.416667 0.541667 0.25
0.458333 0.541667 0.25
0.5 0.541667 0.25
0.541667 0.541667 0.25
0.583333 0.541667 0.25
0.625 0.541667 0.25
0.666667 0.541667 0.25
0.708333 0.541667 0.25
0.75 0.541667 0.25
0.791667 0.541667 0.25
0.833333 0.541667 0.25
0.875 0.541667 0.25
0.916667 0.541667 0.25
0.958333 0.541667 0.25
1 0.541667 0.25
0 0.583333 0.25
0.0416667 0.583333 0.25
0.0833333 0.583333 0.25
0.125 0.583333 0.25
0.166667 0.583333 0.25
0.208333 0.583333 0.25
0.25 0.583333 0.25
0.291667 0.583333 0.25
0.333333 0.583333 0.25
0.375 0.583333 0.25
0.416667 0.583333 0.25
0.458333 0.583333 0.25
0.5 0.583333 0.25
0.541667 0.583333 0.25
0.583333 0.583333 0.25
0.625 0.583333 0.25
0.666667 0.583333 0.25
0.708333 0.583333 0.25
0.75 0.583333 0.25
0.791667 0.583333 0.25
0.833333 0.583333 0.25
0.875 0.583333 0.25
0.916667 0.583333 0.25
0.958333 0.583333 0.25
1 0.583333 0.25
0 0.625 0.25
0.0416667 0.625 0.25
0.0833333 0.625 0.25
0.125 0.625 0.25
0.166667 0.625 0.25
0.208333 0.625 0.25
0.25 0.625 0.25
0.291667 0.625 0.25
0.333333 0.625 0.25
0.375 0.625 0.25
0.416667 0.625 0.25
0.458333 0.625 0.25
0.5 0.625 0.25
0.541667 0.625 0.25
0.583333 0.625 0.25
0.625 0.625 0.25
0.666667 0.625 0.25
0.708333 0.625 0.25
0.75 0.625 0.25
0.791667 0.625 0.25
0.833333 0.625 0.25
0.875 0.625 0.25
0.916667 0.625 0.25
0.958333 0.625 0.25
1 0.625 0.25
0 0.666667 0.25
0.0416667 0.666667 0.25
0.0833333 0.666667 0.25
0.125 0.666667 0.25
0.166667 0.666667 0.25
0.208333 0.666667 0.25
0.25 0.666667 0.25
0.291667 0.666667 0.25
0.333333 0.666667 0.25
0.375 0.666667 0.25
0.416667 0.666667 0.25
0.458333 0.666667 0.25
0.5 0.666667 0.25
0.541667 0.666667 0.25
0.583333 0.666667 0.25
0.625 0.666667 0.25
0.666667 0.666667 0.25
0.708333 0.666667 0.25
0.75 0.666667 0.25
0.791667 0.666667 0.25
0.833333 0.666667 0.25
0.875 0.666667 0.25
0.916667 0.666667 0.25
0.958333 0.666667 0.25
1 0.666667 0.25
0 0.708333 0.25
0.0416667 0.708333 0.25
0.0833333 0.708333 0.25
0.125 0.708333 0.25
0.166667 0.708333 0.25
0.208333 0.708333 0.25
0.25 0.708333 0.25
0.291667 0.708333 0.25
0.333333 0.708333 0.25
0.375 0.708333 0.25
0.416667 0.708333 0.25
0.458333 0.708333 0.25
0.5 0.708333 0.25
0.541667 0.708333 0.25
0.583333 0.708333 0.25
0.625 0.708333 0.25
0.666667 0.708333 0.25
0.708333 0.708333 0.25
0.75 0.708333 0.25
0.791667 0.708333 0.25
0.833333 0.708333 0.25
0.875 0.708333 0.25
0.916667 0.708333 0.25
0.958333 0.708333 0.25
1 0.708333 0.25
0 0.75 0.25
0.0416667 0.75 0.25
0.0833333 0.75 0.25
0.125 0.75 0.25
0.166667 0.75 0.25
0.208333 0.75 0.25
0.25 0.75 0.25
0.291667 0.75 0.25
0.333333 0.75 0.25
0.375 0.75 0.25
0.416667 0.75 0.25
0.458333 0.75 0.25
0.5 0.75 0.25
0.541667 0.75 0.25
0.583333 0.75 0.25
0.625 0.75 0.25
0.666667 0.75 0.25
0.708333 0.75 0.25
0.75 0.75 0.25
0.791667 0.75 0.25
0.833333 0.75 0.25
0.875 0.75 0.25
0.916667 0.75 0.25
0.958333 0.75 0.25
1 0.75 0.25
0 0.791667 0.25
0.0416667 0.791667 0.25
0.0833333 0.791667 0.25
0.125 0.791667 0.25
0.166667 0.791667 0.25
0.208333 0.791667 0.25
0.25 0.791667 0.25
0.291667 0.791667 0.25
0.333333 0.791667 0.25
0.375 0.791667 0.25
0.416667 0.791667 0.25
0.458333 0.791667 0.25
0.5 0.791667 0.25
0.541667 0.791667 0.25
0.583333 0.791667 0.25
0.625 0.791667 0.25
0.666667 0.791667 0.25
0.708333 0.791667 0.25
0.75 0.791667 0.25
0.791667 0.791667 0.25
0.833333 0.791667 0.25
0.875 0.791667 0.25
0.916667 0.791667 0.25
0.958333 0.791667 0.25
1 0.791667 0.25
0 0.833333 0.25
0.0416667 0.833333 0.25
0.0833333 0.833333 0.25
0.125 0.833333 0.25
0.166667 0.833333 0.25
0.208333 0.833333 0.25
0.25 0.833333 0.25
0.291667 0.833333 0.25
0.333333 0.833333 0.25
0.375 0.833333 0.25
0.416667 0.833333 0.25
0.458333 0.833333 0.25
0.5 0.833333 0.25
0.541667 0.833333 0.25
0.583333 0.833333 0.25
0.625 0.833333 0.25
0.666667 0.833333 0.25
0.708333 0.833333 0.25
0.75 0.833333 0.25
0.791667 0.833333 0.25
0.833333 0.833333 0.25
0.875 0.833333 0.25
0.916667 0.833333 0.25
0.958333 0.833333 0.25
1 0.833333 0.25
0 0.875 0.25
0.0416667 0.875 0.25
0.0833333 0.875 0.25
0.125 0.875 0.25
0.166667 0.875 0.25
0.208333 0.875 0.25
0.25 0.875 0.25
0.291667 0.875 0.25
0.333333 0.875 0.25
0.375 0.875 0.25
0.416667 0.875 0.25
0.458333 0.875 0.25
0.5 0.875 0.25
0.541667 0.875 0.25
0.583333 0.875 0.25
0.625 0.875 0.25
0.666667 0.875 0.25
0.708333 0.875 0.25
0.75 0.875 0.25
0.791667 0.875 0.25
0.833333 0.875 0.25
0.875 0.875 0.25
0.916667 0.875 0.25
0.958333 0.875 0.25
1 0.875 0.25
0 0.916667 0.25
0.0416667 0.916667 0.25
0.0833333 0.916667 0.25
0.125 0.916667 0.25
0.166667 0.916667 0.25
0.208333 0.916667 0.25
0.25 0.916667 0.25
0.291667 0.916667 0.25
0.333333 0.916667 0.25
0.375 0.916667 0.25
0.416667 0.916667 0.25
0.458333 0.916667 0.25
0.5 0.916667 0.25
0.541667 0.916667 0.25
0.583333 0.916667 0.25
0.625 0.916667 0.25
0.666667 0.916667 0.25
0.708333 0.916667 0.25
0.75 0.916667 0.25
0.791667 0.916667 0.25
0.833333 0.916667 0.25
0.875 0.916667 0.25
0.916667 0.916667 0.25
0.958333 0.916667 0.25
1 0.916667 0.25
0 0.958333 0.25
0.0416667 0.958333 0.25
0.0833333 0.958333 0.25
0.125 0.958333 0.25
0.166667 0.958333 0.25
0.208333 0.958333 0.25
0.25 0.958333 0.25
0.291667 0.958333 0.25
0.333333 0.958333 0.25
0.375 0.958333 0.25
0.416667 0.958333 0.25
0.458333 0.958333 0.25
0.5 0.958333 0.25
0.541667 0.958333 0.25
0.583333 0.958333 0.25
0.625 0.958333 0.25
0.666667 0.958333 0.25
0.708333 0.958333 0.25
0.75 0.958333 0.25
0.791667 0.958333 0.25
0.833333 0.958333 0.25
0.875 0.958333 0.25
0.916667 0.958333 0.25
0.958333 0.958333 0.25
1 0.958333 0.25
0 1 0.25
0.0416667 1 0.25
0.0833333 1 0.25
0.125 1 0.25
0.166667 1 0.25
0.208333 1 0.25
0.25 1 0.25
0.291667 1 0.25
0.333333 1 0.25
0.375 1 0.25
0.416667 1 0.25
0.458333 1 0.25
0.5 1 0.25
0.541667 1 0.25
0.583333 1 0.25
0.625 1 0.25
0.666667 1 0.25
0.708333 1 0.25
0.75 1 0.25
0.791667 1 0.25
0.833333 1 0.25
0.875 1 0.25
0.916667 1 0.25
0.958333 1 0.25
1 1 0.25
0 0 0.291667
0.0416667 0 0.291667
0.0833333 0 0.291667
0.125 0 0.291667
0.166667 0 0.291667
0.208333 0 0.291667
0.25 0 0.291667
0.291667 0 0.291667
0.333333 0 0.291667
0.375 0 0.291667
0.416667 0 0.291667
0.458333 0 0.291667
0.5 0 0.291667
0.541667 0 0.291667
0.583333 0 0.291667
0.625 0 0.291667
0.666667 0 0.291667
0.708333 0 0.291667
0.75 0 0.291667
0.791667 0 0.291667
0.833333 0 0.291667
0.875 0 0.291667
0.916667 0 0.291667
0.958333 0 0.291667
1 0 0.291667
0 0.0416667 0.291667
0.0416667 0.0416667 0.291667
0.0833333 0.0416667 0.291667
0.125 0.0416667 0.291667
0.166667 0.0416667 0.291667
0.208333 0.0416667 0.291667
0.25 0.0416667 0.291667
0.291667 0.0416667 0.291667
0.333333 0.0416667 0.291667
0.375 0.0416667 0.291667
0.416667 0.0416667 0.291667
0.458333 0.0416667 0.291667
0.5 0.0416667 0.291667
0.541667 0.0416667 0.291667
0.583333 0.0416667 0.291667
0.625 0.0416667 0.291667
0.666667 0.0416667 0.291667
0.708333 0.0416667 0.291667
0.75 0.0416667 0.291667
0.791667 0.0416667 0.291667
0.833333 0.0416667 0.291667
0.875 0.0416667 0.291667
0.916667 0.0416667 0.291667
0.958333 0.0416667 0.291667
1 0.0416667 0.291667
0 0.0833333 0.291667
0.0416667 0.0833333 0.291667
0.0833333 0.0833333 0.291667
0.125 0.0833333 0.291667
0.166667 0.0833333 0.291667
0.208333 0.0833333 0.291667
0.25 0.0833333 0.291667
0.291667 0.0833333 0.291667
0.333333 0.0833333 0.291667
0.375 0.0833333 0.291667
0.416667 0.0833333 0.291667
0.458333 0.0833333 0.291667
0.5 0.0833333 0.291667
0.541667 0.0833333 0.291667
0.583333 0.0833333 0.291667
0.625 0.0833333 0.291667
0.666667 0.0833333 0.291667
0.708333 0.0833333 0.291667
0.75 0.0833333 0.291667
0.791667 0.0833333 0.291667
0.833333 0.0833333 0.291667
0.875 0.0833333 0.291667
0.916667 0.0833333 0.291667
0.958333 0.0833333 0.291667
1 0.0833333 0.291667
0 0.125 0.291667
0.0416667 0.125 0.291667
0.0833333 0.125 0.291667
0.125 0.125 0.291667
0.166667 0.125 0.291667
0.208333 0.125 0.291667
0.25 0.125 0.291667
0.291667 0.125 0.291667
0.333333 0.125 0.291667
0.375 0.125 0.291667
0.416667 0.125 0.291667
0.458333 0.125 0.291667
0.5 0.125 0.291667
0.541667 0.125 0.291667
0.583333 0.125 0.291667
0.625 0.125 0.291667
0.666667 0.125 0.291667
0.708333 0.125 0.291667
0.75 0.125 0.291667
0.791667 0.125 0.291667
0.833333 0.125 0.291667
0.875 0.125 0.291667
0.916667 0.125 0.291667
0.958333 0.125 0.291667
1 0.125 0.291667
0 0.166667 0.291667
0.0416667 0.166667 0.291667
0.0833333 0.166667 0.291667
0.125 0.166667 0.291667
0.166667 0.166667 0.291667
0.208333 0.166667 0.291667
0.25 0.166667 0.291667
0.291667 0.166667 0.291667
0.333333 0.166667 0.291667
0.375 0.166667 0.291667
0.416667 0.166667 0.291667
0.458333 0.166667 0.291667
0.5 0.166667 0.291667
0.541667 0.166667 0.291667
0.583333 0.166667 0.291667
0.625 0.166667 0.291667
0.666667 0.166667 0.291667
0.708333 0.166667 0.291667
0.75 0.166667 0.291667
0.791667 0.166667 0.291667
0.833333 0.166667 0.291667
0.875 0.166667 0.291667
0.916667 0.166667 0.291667
0.958333 0.166667 0.291667
1 0.166667 0.291667
0 0.208333 0.291667
0.0416667 0.208333 0.291667
0.0833333 0.208333 0.291667
0.125 0.208333 0.291667
0.166667 0.208333 0.291667
0.208333 0.208333 0.291667
0.25 0.208333 0.291667
0.291667 0.208333 0.291667
0.333333 0.208333 0.291667
0.375 0.208333 0.291667
0.416667 0.208333 0.291667
0.458333 0.208333 0.291667
0.5 0.208333 0.291667
0.541667 0.208333 0.291667
0.583333 0.208333 0.291667
0.625 0.208333 0.291667
0.666667 0.208333 0.291667
0.708333 0.208333 0.291667
0.75 0.208333 0.291667
0.791667 0.208333 0.291667
0.833333 0.208333 0.291667
0.875 0.208333 0.291667
0.916667 0.208333 0.291667
0.958333 0.208333 0.291667
1 0.208333 0.291667
0 0.25 0.291667
0.0416667 0.25 0.291667
0.0833333 0.25 0.291667
0.125 0.25 0.291667
0.166667 0.25 0.291667
0.208333 0.25 0.291667
0.25 0.25 0.291667
0.291667 0.25 0.291667
0.333333 0.25 0.291667
0.375 0.25 0.291667
0.416667 0.25 0.291667
0.458333 0.25 0.291667
0.5 0.25 0.291667
0.541667 0.25 0.291667
0.583333 0.25 0.291667
0.625 0.25 0.291667
0.666667 0.25 0.291667
0.708333 0.25 0.291667
0.75 0.25 0.291667
0.791667 0.25 0.291667
0.833333 0.25 0.291667
0.875 0.25 0.291667
0.916667 0.25 0.291667
0.958333 0.25 0.291667
1 0.25 0.291667
0 0.291667 0.291667
0.0416667 0.291667 0.291667
0.0833333 0.291667 0.291667
0.125 0.291667 0.291667
0.166667 0.291667 0.291667
0.208333 0.291667 0.291667
0.25 0.291667 0.291667
0.291667 0.291667 0.291667
0.333333 0.291667 0.291667
0.375 0.291667 0.291667
0.416667 0.291667 0.291667
0.458333 0.291667 0.291667
0.5 0.291667 0.291667
0.541667 0.291667 0.291667
0.583333 0.291667 0.291667
0.625 0.291667 0.291667
0.666667 0.291667 0.291667
0.708333 0.291667 0.291667
0.75 0.291667 0.291667
0.791667 0.291667 0.291667
0.833333 0.291667 0.291667
0.875 0.291667 0.291667
0.916667 0.291667 0.291667
0.958333 0.291667 0.291667
1 0.291667 0.291667
0 0.333333 0.291667
0.0416667 0.333333 0.291667
0.0833333 0.333333 0.291667
0.125 0.333333 0.291667
0.166667 0.333333 0.291667
0.208333 0.333333 0.291667
0.25 0.333333 0.291667
0.291667 0.333333 0.291667
0.333333 0.333333 0.291667
0.375 0.333333 0.291667
0.416667 0.333333 0.291667
0.458333 0.333333 0.291667
0.5 0.333333 0.291667
0.541667 0.333333 0.291667
0.583333 0.333333 0.291667
0.625 0.333333 0.291667
0.666667 0.333333 0.291667
0.708333 0.333333 0.291667
0.75 0.333333 0.291667
0.791667 0.333333 0.291667
0.833333 0.333333 0.291667
0.875 0.333333 0.291667
0.916667 0.333333 0.291667
0.958333 0.333333 0.291667
1 0.333333 0.291667
0 0.375 0.291667
0.0416667 0.375 0.291667
0.0833333 0.375 0.291667
0.125 0.375 0.291667
0.166667 0.375 0.291667
0.208333 0.375 0.291667
0.25 0.375 0.291667
0.291667 0.375 0.291667
0.333333 0.375 0.291667
0.375 0.375 0.291667
0.416667 0.375 0.291667
0.458333 0.375 0.291667
0.5 0.375 0.291667
0.541667 0.375 0.291667
0.583333 0.375 0.291667
0.625 0.375 0.291667
0.666667 0.375 0.291667
0.708333 0.375 0.291667
0.75 0.375 0.291667
0.791667 0.375 0.291667
0.833333 0.375 0.291667
0.875 0.375 0.291667
0.916667 0.375 0.291667
0.958333 0.375 0.291667
1 0.375 0.291667
0 0.416667 0.291667
0.0416667 0.416667 0.291667
0.0833333 0.416667 0.291667
0.125 0.416667 0.291667
0.166667 0.416667 0.291667
0.208333 0.416667 0.291667
0.25 0.416667 0.291667
0.291667 0.416667 0.291667
0.333333 0.416667 0.291667
0.375 0.416667 0.291667
0.416667 0.416667 0.291667
0.458333 0.416667 0.291667
0.5 0.416667 0.291667
0.541667 0.416667 0.291667
0.583333 0.416667 0.291667
0.625 0.416667 0.291667
0.666667 0.416667 0.291667
0.708333 0.416667 0.291667
0.75 0.416667 0.291667
0.791667 0.416667 0.291667
0.833333 0.416667 0.291667
0.875 0.416667 0.291667
0.916667 0.416667 0.291667
0.958333 0.416667 0.291667
1 0.416667 0.291667
0 0.458333 0.291667
0.0416667 0.458333 0.291667
0.0833333 0.458333 0.291667
0.125 0.458333 0.291667
0.166667 0.458333 0.291667
0.208333 0.458333 0.291667
0.25 0.458333 0.291667
0.291667 0.458333 0.291667
0.333333 0.458333 0.291667
0.375 0.458333 0.291667
0.416667 0.458333 0.291667
0.458333 0.458333 0.291667
0.5 0.458333 0.291667
0.541667 0.458333 0.291667
0.583333 0.458333 0.291667
0.625 0.458333 0.291667
0.666667 0.458333 0.291667
0.708333 0.458333 0.291667
0.75 0.458333 0.291667
0.791667 0.458333 0.291667
0.833333 0.458333 0.291667
0.875 0.458333 0.291667
0.916667 0.458333 0.291667
0.958333 0.458333 0.291667
1 0.458333 0.291667
0 0.5 0.291667
0.0416667 0.5 0.291667
0.0833333 0.5 0.291667
0.125 0.5 0.291667
0.166667 0.5 0.291667
0.208333 0.5 0.291667
0.25 0.5 0.291667
0.291667 0.5 0.291667
0.333333 0.5 0.291667
0.375 0.5 0.291667
0.416667 0.5 0.291667
0.458333 0.5 0.291667
0.5 0.5 0.291667
0.541667 0.5 0.291667
0.583333 0.5 0.291667
0.625 0.5 0.291667
0.666667 0.5 0.291667
0.708333 0.5 0.291667
0.75 0.5 0.291667
0.791667 0.5 0.291667
0.833333 0.5 0.291667
0.875 0.5 0.291667
0.916667 0.5 0.291667
0.958333 0.5 0.291667
1 0.5 0.291667
0 0.541667 0.291667
0.0416667 0.541667 0.291667
0.0833333 0.541667 0.291667
0.125 0.541667 0.291667
0.166667 0.541667 0.291667
0.208333 0.541667 0.291667
0.25 0.541667 0.291667
0.291667 0.541667 0.291667
0.333333 0.541667 0.291667
0.375 0.541667 0.291667
0.416667 0.541667 0.291667
0.458333 0.541667 0.291667
0.5 0.541667 0.291667
0.541667 0.541667 0.291667
0.583333 0.541667 0.291667
0.625 0.541667 0.291667
0.666667 0.541667 0.291667
0.708333 0.541667 0.291667
0.75 0.541667 0.291667
0.791667 0.541667 0.291667
0.833333 0.541667 0.291667
0.875 0.541667 0.291667
0.916667 0.541667 0.291667
0.958333 0.541667 0.291667
1 0.541667 0.291667
0 0.583333 0.291667
0.0416667 0.583333 0.291667
0.0833333 0.583333 0.291667
0.125 0.583333 0.291667
0.166667 0.583333 0.291667
0.208333 0.583333 0.291667
0.25 0.583333 0.291667
0.291667 0.583333 0.291667
0.333333 0.583333 0.291667
0.375 0.583333 0.291667
0.416667 0.583333 0.291667
0.458333 0.583333 0.291667
0.5 0.583333 0.291667
0.541667 0.583333 0.291667
0.583333 0.583333 0.291667
0.625 0.583333 0.291667
0.666667 0.583333 0.291667
0.708333 0.583333 0.291667
0.75 0.583333 0.291667
0.791667 0.583333 0.291667
0.833333 0.583333 0.291667
0.875 0.583333 0.291667
0.916667 0.583333 0.291667
0.958333 0.583333 0.291667
1 0.583333 0.291667
0 0.625 0.291667
0.0416667 0.625 0.291667
0.0833333 0.625 0.291667
0.125 0.625 0.291667
0.166667 0.625 0.291667
0.208333 0.625 0.291667
0.25 0.625 0.291667
0.291667 0.625 0.291667
0.333333 0.625 0.291667
0.375 0.625 0.291667
0.416667 0.625 0.291667
0.458333 0.625 0.291667
0.5 0.625 0.291667
0.541667 0.625 0.291667
0.583333 0.625 0.291667
0.625 0.625 0.291667
0.666667 0.625 0.291667
0.708333 0.625 0.291667
0.75 0.625 0.291667
0.791667 0.625 0.291667
0.833333 0.625 0.291667
0.875 0.625 0.291667
0.916667 0.625 0.291667
0.958333 0.625 0.291667
1 0.625 0.291667
0 0.666667 0.291667
0.0416667 0.666667 0.291667
0.0833333 0.666667 0.291667
0.125 0.666667 0.291667
0.166667 0.666667 0.291667
0.208333 0.666667 0.291667
0.25 0.666667 0.291667
0.291667 0.666667 0.291667
0.333333 0.666667 0.291667
0.375 0.666667 0.291667
0.416667 0.666667 0.291667
0.458333 0.666667 0.291667
0.5 0.666667 0.291667
0.541667 0.666667 0.291667
0.583333 0.666667 0.291667
0.625 0.666667 0.291667
0.666667 0.666667 0.291667
0.708333 0.666667 0.291667
0.75 0.666667 0.291667
0.791667 0.666667 0.291667
0.833333 0.666667 0.291667
0.875 0.666667 0.291667
0.916667 0.666667 0.291667
0.958333 0.666667 0.291667
1 0.666667 0.291667
0 0.708333 0.291667
0.0416667 0.708333 0.291667
0.0833333 0.708333 0.291667
0.125 0.708333 0.291667
0.166667 0.708333 0.291667
0.208333 0.708333 0.291667
0.25 0.708333 0.291667
0.291667 0.708333 0.291667
0.333333 0.708333 0.291667
0.375 0.708333 0.291667
0.416667 0.708333 0.291667
0.458333 0.708333 0.291667
0.5 0.708333 0.291667
0.541667 0.708333 0.291667
0.583333 0.708333 0.291667
0.625 0.708333 0.291667
0.666667 0.708333 0.291667
0.708333 0.708333 0.291667
0.75 0.708333 0.291667
0.791667 0.708333 0.291667
0.833333 0.708333 0.291667
0.875 0.708333 0.291667
0.916667 0.708333 0.291667
0.958333 0.708333 0.291667
1 0.708333 0.291667
0 0.75 0.291667
0.0416667 0.75 0.291667
0.0833333 0.75 0.291667
0.125 0.75 0.291667
0.166667 0.75 0.291667
0.208333 0.75 0.291667
0.25 0.75 0.291667
0.291667 0.75 0.291667
0.333333 0.75 0.291667
0.375 0.75 0.291667
0.416667 0.75 0.291667
0.458333 0.75 0.291667
0.5 0.75 0.291667
0.541667 0.75 0.291667
0.583333 0.75 0.291667
0.625 0.75 0.291667
0.666667 0.75 0.291667
0.708333 0.75 0.291667
0.75 0.75 0.291667
0.791667 0.75 0.291667
0.833333 0.75 0.291667
0.875 0.75 0.291667
0.916667 0.75 0.291667
0.958333 0.75 0.291667
1 0.75 0.291667
0 0.791667 0.291667
0.0416667 0.791667 0.291667
0.0833333 0.791667 0.291667
0.125 0.791667 0.291667
0.166667 0.791667 0.291667
0.208333 0.791667 0.291667
0.25 0.791667 0.291667
0.291667 0.791667 0.291667
0.333333 0.791667 0.291667
0.375 0.791667 0.291667
0.416667 0.791667 0.291667
0.458333 0.791667 0.291667
0.5 0.791667 0.291667
0.541667 0.791667 0.291667
0.583333 0.791667 0.291667
0.625 0.791667 0.291667
0.666667 0.791667 0.291667
0.708333 0.791667 0.291667
0.75 0.791667 0.291667
0.791667 0.791667 0.291667
0.833333 0.791667 0.291667
0.875 0.791667 0.291667
0.916667 0.791667 0.291667
0.958333 0.791667 0.291667
1 0.791667 0.291667
0 0.833333 0.291667
0.0416667 0.833333 0.291667
0.0833333 0.833333 0.291667
0.125 0.833333 0.291667
0.166667 0.833333 0.291667
0.208333 0.833333 0.291667
0.25 0.833333 0.291667
0.291667 0.833333 0.291667
0.333333 0.833333 0.291667
0.375 0.833333 0.291667
0.416667 0.833333 0.291667
0.458333 0.833333 0.291667
0.5 0.833333 0.291667
0.541667 0.833333 0.291667
0.583333 0.833333 0.291667
0.625 0.833333 0.291667
0.666667 0.833333 0.291667
0.708333 0.833333 0.291667
0.75 0.833333 0.291667
0.791667 0.833333 0.291667
0.833333 0.833333 0.291667
0.875 0.833333 0.291667
0.916667 0.833333 0.291667
0.958333 0.833333 0.291667
1 0.833333 0.291667
0 0.875 0.291667
0.0416667 0.875 0.291667
0.0833333 0.875 0.291667
0.125 0.875 0.291667
0.166667 0.875 0.291667
0.208333 0.875 0.291667
0.25 0.875 0.291667
0.291667 0.875 0.291667
0.333333 0.875 0.291667
0.375 0.875 0.291667
0.416667 0.875 0.291667
0.458333 0.875 0.291667
0.5 0.875 0.291667
0.541667 0.875 0.291667
0.583333 0.875 0.291667
0.625 0.875 0.291667
0.666667 0.875 0.291667
0.708333 0.875 0.291667
0.75 0.875 0.291667
0.791667 0.875 0.291667
0.833333 0.875 0.291667
0.875 0.875 0.291667
0.916667 0.875 0.291667
0.958333 0.875 0.291667
1 0.875 0.291667
0 0.916667 0.291667
0.0416667 0.916667 0.291667
0.0833333 0.916667 0.291667
0.125 0.916667 0.291667
0.166667 0.916667 0.291667
0.208333 0.916667 0.291667
0.25 0.916667 0.291667
0.291667 0.916667 0.291667
0.333333 0.916667 0.291667
0.375 0.916667 0.291667
0.416667 0.916667 0.291667
0.458333 0.916667 0.291667
0.5 0.916667 0.291667
0.541667 0.916667 0.291667
0.583333 0.916667 0.291667
0.625 0.916667 0.291667
0.666667 0.916667 0.291667
0.708333 0.916667 0.291667
0.75 0.916667 0.291667
0.791667 0.916667 0.291667
0.833333 0.916667 0.291667
0.875 0.916667 0.291667
0.916667 0.916667 0.291667
0.958333 0.916667 0.291667
1 0.916667 0.291667
0 0.958333 0.291667
0.0416667 0.958333 0.291667
0.0833333 0.958333 0.291667
0.125 0.958333 0.291667
0.166667 0.958333 0.291667
0.208333 0.958333 0.291667
0.25 0.958333 0.291667
0.291667 0.958333 0.291667
0.333333 0.958333 0.291667
0.375 0.958333 0.291667
0.416667 0.958333 0.291667
0.458333 0.958333 0.291667
0.5 0.958333 0.291667
0.541667 0.958333 0.291667
0.583333 0.958333 0.291667
0.625 0.958333 0.291667
0.666667 0.958333 0.291667
0.708333 0.958333 0.291667
0.75 0.958333 0.291667
0.791667 0.958333 0.291667
0.833333 0.958333 0.291667
0.875 0.958333 0.291667
0.916667 0.958333 0.291667
0.958333 0.958333 0.291667
1 0.958333 0.291667
0 1 0.291667
0.0416667 1 0.291667
0.0833333 1 0.291667
0.125 1 0.291667
0.166667 1 0.291667
0.208333 1 0.291667
0.25 1 0.291667
0.291667 1 0.291667
0.333333 1 0.291667
0.375 1 0.291667
0.416667 1 0.291667
0.458333 1 0.291667
0.5 1 0.291667
0.541667 1 0.291667
0.583333 1 0.291667
0.625 1 0.291667
0.666667 1 0.291667
0.708333 1 0.291667
0.75 1 0.291667
0.791667 1 0.291667
0.833333 1 0.291667
0.875 1 0.291667
0.916667 1 0.291667
0.958333 1 0.291667
1 1 0.291667
0 0 0.333333
0.0416667 0 0.333333
0.0833333 0 0.333333
0.125 0 0.333333
0.166667 0 0.333333
0.208333 0 0.333333
0.25 0 0.333333
0.291667 0 0.333333
0.333333 0 0.333333
0.375 0 0.333333
0.416667 0 0.333333
0.458333 0 0.333333
0.5 0 0.333333
0.541667 0 0.333333
0.583333 0 0.333333
0.625 0 0.333333
0.666667 0 0.333333
0.708333 0 0.333333
0.75 0 0.333333
0.791667 0 0.333333
0.833333 0 0.333333
0.875 0 0.333333
0.916667 0 0.333333
0.958333 0 0.333333
1 0 0.333333
0 0.0416667 0.333333
0.0416667 0.0416667 0.333333
0.0833333 0.0416667 0.333333
0.125 0.0416667 0.333333
0.166667 0.0416667 0.333333
0.208333 0.0416667 0.333333
0.25 0.0416667 0.333333
0.291667 0.0416667 0.333333
0.333333 0.0416667 0.333333
0.375 0.0416667 0.333333
0.416667 0.0416667 0.333333
0.458333 0.0416667 0.333333
0.5 0.0416667 0.333333
0.541667 0.0416667 0.333333
0.583333 0.0416667 0.333333
0.625 0.0416667 0.333333
0.666667 0.0416667 0.333333
0.708333 0.0416667 0.333333
0.75 0.0416667 0.333333
0.791667 0.0416667 0.333333
0.833333 0.0416667 0.333333
0.875 0.0416667 0.333333
0.916667 0.0416667 0.333333
0.958333 0.0416667 0.333333
1 0.0416667 0.333333
0 0.0833333 0.333333
0.0416667 0.0833333 0.333333
0.0833333 0.0833333 0.333333
0.125 0.0833333 0.333333
0.166667 0.0833333 0.333333
0.208333 0.0833333 0.333333
0.25 0.0833333 0.333333
0.291667 0.0833333 0.333333
0.333333 0.0833333 0.333333
0.375 0.0833333 0.333333
0.416667 0.0833333 0.333333
0.458333 0.0833333 0.333333
0.5 0.0833333 0.333333
0.541667 0.0833333 0.333333
0.583333 0.0833333 0.333333
0.625 0.0833333 0.333333
0.666667 0.0833333 0.333333
0.708333 0.0833333 0.333333
0.75 0.0833333 0.333333
0.791667 0.0833333 0.333333
0.833333 0.0833333 0.333333
0.875 0.0833333 0.333333
0.916667 0.0833333 0.333333
0.958333 0.0833333 0.333333
1 0.0833333 0.333333
0 0.125 0.333333
0.0416667 0.125 0.333333
0.0833333 0.125 0.333333
0.125 0.125 0.333333
0.166667 0.125 0.333333
0.208333 0.125 0.333333
0.25 0.125 0.333333
0.291667 0.125 0.333333
0.333333 0.125 0.333333
0.375 0.125 0.333333
0.416667 0.125 0.333333
0.458333 0.125 0.333333
0.5 0.125 0.333333
0.541667 0.125 0.333333
0.583333 0.125 0.333333
0.625 0.125 0.333333
0.666667 0.125 0.333333
0.708333 0.125 0.333333
0.75 0.125 0.333333
0.791667 0.125 0.333333
0.833333 0.125 0.333333
0.875 0.125 0.333333
0.916667 0.125 0.333333
0.958333 0.125 0.333333
1 0.125 0.333333
0 0.166667 0.333333
0.0416667 0.166667 0.333333
0.0833333 0.166667 0.333333
0.125 0.166667 0.333333
0.166667 0.166667 0.333333
0.208333 0.166667 0.333333
0.25 0.166667 0.333333
0.291667 0.166667 0.333333
0.333333 0.166667 0.333333
0.375 0.166667 0.333333
0.416667 0.166667 0.333333
0.458333 0.166667 0.333333
0.5 0.166667 0.333333
0.541667 0.166667 0.333333
0.583333 0.166667 0.333333
0.625 0.166667 0.333333
0.666667 0.166667 0.333333
0.708333 0.166667 0.333333
0.75 0.166667 0.333333
0.791667 0.166667 0.333333
0.833333 0.166667 0.333333
0.875 0.166667 0.333333
0.916667 0.166667 0.333333
0.958333 0.166667 0.333333
1 0.166667 0.333333
0 0.208333 0.333333
0.0416667 0.208333 0.333333
0.0833333 0.208333 0.333333
0.125 0.208333 0.333333
0.166667 0.208333 0.333333
0.208333 0.208333 0.333333
0.25 0.208333 0.333333
0.291667 0.208333 0.333333
0.333333 0.208333 0.333333
0.375 0.208333 0.333333
0.416667 0.208333 0.333333
0.458333 0.208333 0.333333
0.5 0.208333 0.333333
0.541667 0.208333 0.333333
0.583333 0.208333 0.333333
0.625 0.208333 0.333333
0.666667 0.208333 0.333333
0.708333 0.208333 0.333333
0.75 0.208333 0.333333
0.791667 0.208333 0.333333
0.833333 0.208333 0.333333
0.875 0.208333 0.333333
0.916667 0.208333 0.333333
0.958333 0.208333 0.333333
1 0.208333 0.333333
0 0.25 0.333333
0.0416667 0.25 0.333333
0.0833333 0.25 0.333333
0.125 0.25 0.333333
0.166667 0.25 0.333333
0.208333 0.25 0.333333
0.25 0.25 0.333333
0.291667 0.25 0.333333
0.333333 0.25 0.333333
0.375 0.25 0.333333
0.416667 0.25 0.333333
0.458333 0.25 0.333333
0.5 0.25 0.333333
0.541667 0.25 0.333333
0.583333 0.25 0.333333
0.625 0.25 0.333333
0.666667 0.25 0.333333
0.708333 0.25 0.333333
0.75 0.25 0.333333
0.791667 0.25 0.333333
0.833333 0.25 0.333333
0.875 0.25 0.333333
0.916667 0.25 0.333333
0.958333 0.25 0.333333
1 0.25 0.333333
0 0.291667 0.333333
0.0416667 0.291667 0.333333
0.0833333 0.291667 0.333333
0.125 0.291667 0.333333
0.166667 0.291667 0.333333
0.208333 0.291667 0.333333
0.25 0.291667 0.333333
0.291667 0.291667 0.333333
0.333333 0.291667 0.333333
0.375 0.291667 0.333333
0.416667 0.291667 0.333333
0.458333 0.291667 0.333333
0.5 0.291667 0.333333
0.541667 0.291667 0.333333
0.583333 0.291667 0.333333
0.625 0.291667 0.333333
0.666667 0.291667 0.333333
0.708333 0.291667 0.333333
0.75 0.291667 0.333333
0.791667 0.291667 0.333333
0.833333 0.291667 0.333333
0.875 0.291667 0.333333
0.916667 0.291667 0.333333
0.958333 0.291667 0.333333
1 0.291667 0.333333
0 0.333333 0.333333
0.0416667 0.333333 0.333333
0.0833333 0.333333 0.333333
0.125 0.333333 0.333333
0.166667 0.333333 0.333333
0.208333 0.333333 0.333333
0.25 0.333333 0.333333
0.291667 0.333333 0.333333
0.333333 0.333333 0.333333
0.375 0.333333 0.333333
0.416667 0.333333 0.333333
0.458333 0.333333 0.333333
0.5 0.333333 0.333333
0.541667 0.333333 0.333333
0.583333 0.333333 0.333333
0.625 0.333333 0.333333
0.666667 0.333333 0.333333
0.708333 0.333333 0.333333
0.75 0.333333 0.333333
0.791667 0.333333 0.333333
0.833333 0.333333 0.333333
0.875 0.333333 0.333333
0.916667 0.333333 0.333333
0.958333 0.333333 0.333333
1 0.333333 0.333333
0 0.375 0.333333
0.0416667 0.375 0.333333
0.0833333 0.375 0.333333
0.125 0.375 0.333333
0.166667 0.375 0.333333
0.208333 0.375 0.333333
0.25 0.375 0.333333
0.291667 0.375 0.333333
0.333333 0.375 0.333333
0.375 0.375 0.333333
0.416667 0.375 0.333333
0.458333 0.375 0.333333
0.5 0.375 0.333333
0.541667 0.375 0.333333
0.583333 0.375 0.333333
0.625 0.375 0.333333
0.666667 0.375 0.333333
0.708333 0.375 0.333333
0.75 0.375 0.333333
0.791667 0.375 0.333333
0.833333 0.375 0.333333
0.875 0.375 0.333333
0.916667 0.375 0.333333
0.958333 0.375 0.333333
1 0.375 0.333333
0 0.416667 0.333333
0.0416667 0.416667 0.333333
0.0833333 0.416667 0.333333
0.125 0.416667 0.333333
0.166667 0.416667 0.333333
0.208333 0.416667 0.333333
0.25 0.416667 0.333333
0.291667 0.416667 0.333333
0.333333 0.416667 0.333333
0.375 0.416667 0.333333
0.416667 0.416667 0.333333
0.458333 0.416667 0.333333
0.5 0.416667 0.333333
0.541667 0.416667 0.333333
0.583333 0.416667 0.333333
0.625 0.416667 0.333333
0.666667 0.416667 0.333333
0.708333 0.416667 0.333333
0.75 0.416667 0.333333
0.791667 0.416667 0.333333
0.833333 0.416667 0.333333
0.875 0.416667 0.333333
0.916667 0.416667 0.333333
0.958333 0.416667 0.333333
1 0.416667 0.333333
0 0.458333 0.333333
0.0416667 0.458333 0.333333
0.0833333 0.458333 0.333333
0.125 0.458333 0.333333
0.166667 0.458333 0.333333
0.208333 0.458333 0.333333
0.25 0.458333 0.333333
0.291667 0.458333 0.333333
0.333333 0.458333 0.333333
0.375 0.458333 0.333333
0.416667 0.458333 0.333333
0.458333 0.458333 0.333333
0.5 0.458333 0.333333
0.541667 0.458333 0.333333
0.583333 0.458333 0.333333
0.625 0.458333 0.333333
0.666667 0.458333 0.333333
0.708333 0.458333 0.333333
0.75 0.458333 0.333333
0.791667 0.458333 0.333333
0.833333 0.458333 0.333333
0.875 0.458333 0.333333
0.916667 0.458333 0.333333
0.958333 0.458333 0.333333
1 0.458333 0.333333
0 0.5 0.333333
0.0416667 0.5 0.333333
0.0833333 0.5 0.333333
0.125 0.5 0.333333
0.166667 0.5 0.333333
0.208333 0.5 0.333333
0.25 0.5 0.333333
0.291667 0.5 0.333333
0.333333 0.5 0.333333
0.375 0.5 0.333333
0.416667 0.5 0.333333
0.458333 0.5 0.333333
0.5 0.5 0.333333
0.541667 0.5 0.333333
0.583333 0.5 0.333333
0.625 0.5 0.333333
0.666667 0.5 0.333333
0.708333 0.5 0.333333
0.75 0.5 0.333333
0.791667 0.5 0.333333
0.833333 0.5 0.333333
0.875 0.5 0.333333
0.916667 0.5 0.333333
0.958333 0.5 0.333333
1 0.5 0.333333
0 0.541667 0.333333
0.0416667 0.541667 0.333333
0.0833333 0.541667 0.333333
0.125 0.541667 0.333333
0.166667 0.541667 0.333333
0.208333 0.541667 0.333333
0.25 0.541667 0.333333
0.291667 0.541667 0.333333
0.333333 0.541667 0.333333
0.375 0.541667 0.333333
0.416667 0.541667 0.333333
0.458333 0.541667 0.333333
0.5 0.541667 0.333333
0.541667 0.541667 0.333333
0.583333 0.541667 0.333333
0.625 0.541667 0.333333
0.666667 0.541667 0.333333
0.708333 0.541667 0.333333
0.75 0.541667 0.333333
0.791667 0.541667 0.333333
0.833333 0.541667 0.333333
0.875 0.541667 0.333333
0.916667 0.541667 0.333333
0.958333 0.541667 0.333333
1 0.541667 0.333333
0 0.583333 0.333333
0.0416667 0.583333 0.333333
0.0833333 0.583333 0.333333
0.125 0.583333 0.333333
0.166667 0.583333 0.333333
0.208333 0.583333 0.333333
0.25 0.583333 0.333333
0.291667 0.583333 0.333333
0.333333 0.583333 0.333333
0.375 0.583333 0.333333
0.416667 0.583333 0.333333
0.458333 0.583333 0.333333
0.5 0.583333 0.333333
0.541667 0.583333 0.333333
0.583333 0.583333 0.333333
0.625 0.583333 0.333333
0.666667 0.583333 0.333333
0.708333 0.583333 0.333333
0.75 0.583333 0.333333
0.791667 0.583333 0.333333
0.833333 0.583333 0.333333
0.875 0.583333 0.333333
0.916667 0.583333 0.333333
0.958333 0.583333 0.333333
1 0.583333 0.333333
0 0.625 0.333333
0.0416667 0.625 0.333333
0.0833333 0.625 0.333333
0.125 0.625 0.333333
0.166667 0.625 0.333333
0.208333 0.625 0.333333
0.25 0.625 0.333333
0.291667 0.625 0.333333
0.333333 0.625 0.333333
0.375 0.625 0.333333
0.416667 0.625 0.333333
0.458333 0.625 0.333333
0.5 0.625 0.333333
0.541667 0.625 0.333333
0.583333 0.625 0.333333
0.625 0.625 0.333333
0.666667 0.625 0.333333
0.708333 0.625 0.333333
0.75 0.625 0.333333
0.791667 0.625 0.333333
0.833333 0.625 0.333333
0.875 0.625 0.333333
0.916667 0.625 0.333333
0.958333 0.625 0.333333
1 0.625 0.333333
0 0.666667 0.333333
0.0416667 0.666667 0.333333
0.0833333 0.666667 0.333333
0.125 0.666667 0.333333
0.166667 0.666667 0.333333
0.208333 0.666667 0.333333
0.25 0.666667 0.333333
0.291667 0.666667 0.333333
0.333333 0.666667 0.333333
0.375 0.666667 0.333333
0.416667 0.666667 0.333333
0.458333 0.666667 0.333333
0.5 0.666667 0.333333
0.541667 0.666667 0.333333
0.583333 0.666667 0.333333
0.625 0.666667 0.333333
0.666667 0.666667 0.333333
0.708333 0.666667 0.333333
0.75 0.666667 0.333333
0.791667 0.666667 0.333333
0.833333 0.666667 0.333333
0.875 0.666667 0.333333
0.916667 0.666667 0.333333
0.958333 0.666667 0.333333
1 0.666667 0.333333
0 0.708333 0.333333
0.0416667 0.708333 0.333333
0.0833333 0.708333 0.333333
0.125 0.708333 0.333333
0.166667 0.708333 0.333333
0.208333 0.708333 0.333333
0.25 0.708333 0.333333
0.291667 0.708333 0.333333
0.333333 0.708333 0.333333
0.375 0.708333 0.333333
0.416667 0.708333 0.333333
0.458333 0.708333 0.333333
0.5 0.708333 0.333333
0.541667 0.708333 0.333333
0.583333 0.708333 0.333333
0.625 0.708333 0.333333
0.666667 0.708333 0.333333
0.708333 0.708333 0.333333
0.75 0.708333 0.333333
0.791667 0.708333 0.333333
0.833333 0.708333 0.333333
0.875 0.708333 0.333333
0.916667 0.708333 0.333333
0.958333 0.708333 0.333333
1 0.708333 0.333333
0 0.75 0.333333
0.0416667 0.75 0.333333
0.0833333 0.75 0.333333
0.125 0.75 0.333333
0.166667 0.75 0.333333
0.208333 0.75 0.333333
0.25 0.75 0.333333
0.291667 0.75 0.333333
0.333333 0.75 0.333333
0.375 0.75 0.333333
0.416667 0.75 0.333333
0.458333 0.75 0.333333
0.5 0.75 0.333333
0.541667 0.75 0.333333
0.583333 0.75 0.333333
0.625 0.75 0.333333
0.666667 0.75 0.333333
0.708333 0.75 0.333333
0.75 0.75 0.333333
0.791667 0.75 0.333333
0.833333 0.75 0.333333
0.875 0.75 0.333333
0.916667 0.75 0.333333
0.958333 0.75 0.333333
1 0.75 0.333333
0 0.791667 0.333333
0.0416667 0.791667 0.333333
0.0833333 0.791667 0.333333
0.125 0.791667 0.333333
0.166667 0.791667 0.333333
0.208333 0.791667 0.333333
0.25 0.791667 0.333333
0.291667 0.791667 0.333333
0.333333 0.791667 0.333333
0.375 0.791667 0.333333
0.416667 0.791667 0.333333
0.458333 0.791667 0.333333
0.5 0.791667 0.333333
0.541667 0.791667 0.333333
0.583333 0.791667 0.333333
0.625 0.791667 0.333333
0.666667 0.791667 0.333333
0.708333 0.791667 0.333333
0.75 0.791667 0.333333
0.791667 0.791667 0.333333
0.833333 0.791667 0.333333
0.875 0.791667 0.333333
0.916667 0.791667 0.333333
0.958333 0.791667 0.333333
1 0.791667 0.333333
0 0.833333 0.333333
0.0416667 0.833333 0.333333
0.0833333 0.833333 0.333333
0.125 0.833333 0.333333
0.166667 0.833333 0.333333
0.208333 0.833333 0.333333
0.25 0.833333 0.333333
0.291667 0.833333 0.333333
0.333333 0.833333 0.333333
0.375 0.833333 0.333333
0.416667 0.833333 0.333333
0.458333 0.833333 0.333333
0.5 0.833333 0.333333
0.541667 0.833333 0.333333
0.583333 0.833333 0.333333
0.625 0.833333 0.333333
0.666667 0.833333 0.333333
0.708333 0.833333 0.333333
0.75 0.833333 0.333333
0.791667 0.833333 0.333333
0.833333 0.833333 0.333333
0.875 0.833333 0.333333
0.916667 0.833333 0.333333
0.958333 0.833333 0.333333
1 0.833333 0.333333
0 0.875 0.333333
0.0416667 0.875 0.333333
0.0833333 0.875 0.333333
0.125 0.875 0.333333
0.166667 0.875 0.333333
0.208333 0.875 0.333333
0.25 0.875 0.333333
0.291667 0.875 0.333333
0.333333 0.875 0.333333
0.375 0.875 0.333333
0.416667 0.875 0.333333
0.458333 0.875 0.333333
0.5 0.875 0.333333
0.541667 0.875 0.333333
0.583333 0.875 0.333333
0.625 0.875 0.333333
0.666667 0.875 0.333333
0.708333 0.875 0.333333
0.75 0.875 0.333333
0.791667 0.875 0.333333
0.833333 0.875 0.333333
0.875 0.875 0.333333
0.916667 0.875 0.333333
0.958333 0.875 0.333333
1 0.875 0.333333
0 0.916667 0.333333
0.0416667 0.916667 0.333333
0.0833333 0.916667 0.333333
0.125 0.916667 0.333333
0.166667 0.916667 0.333333
0.208333 0.916667 0.333333
0.25 0.916667 0.333333
0.291667 0.916667 0.333333
0.333333 0.916667 0.333333
0.375 0.916667 0.333333
0.416667 0.916667 0.333333
0.458333 0.916667 0.333333
0.5 0.916667 0.333333
0.541667 0.916667 0.333333
0.583333 0.916667 0.333333
0.625 0.916667 0.333333
0.666667 0.916667 0.333333
0.708333 0.916667 0.333333
0.75 0.916667 0.333333
0.791667 0.916667 0.333333
0.833333 0.916667 0.333333
0.875 0.916667 0.333333
0.916667 0.916667 0.333333
0.958333 0.916667 0.333333
1 0.916667 0.333333
0 0.958333 0.333333
0.0416667 0.958333 0.333333
0.0833333 0.958333 0.333333
0.125 0.958333 0.333333
0.166667 0.958333 0.333333
0.208333 0.958333 0.333333
0.25 0.958333 0.333333
0.291667 0.958333 0.333333
0.333333 0.958333 0.333333
0.375 0.958333 0.333333
0.416667 0.958333 0.333333
0.458333 0.958333 0.333333
0.5 0.958333 0.333333
0.541667 0.958333 0.333333
0.583333 0.958333 0.333333
0.625 0.958333 0.333333
0.666667 0.958333 0.333333
0.708333 0.958333 0.333333
0.75 0.958333 0.333333
0.791667 0.958333 0.333333
0.833333 0.958333 0.333333
0.875 0.958333 0.333333
0.916667 0.958333 0.333333
0.958333 0.958333 0.333333
1 0.958333 0.333333
0 1 0.333333
0.0416667 1 0.333333
0.0833333 1 0.333333
0.125 1 0.333333
0.166667 1 0.333333
0.208333 1 0.333333
0.25 1 0.333333
0.291667 1 0.333333
0.333333 1 0.333333
0.375 1 0.333333
0.416667 1 0.333333
0.458333 1 0.333333
0.5 1 0.333333
0.541667 1 0.333333
0.583333 1 0.333333
0.625 1 0.333333
0.666667 1 0.333333
0.708333 1 0.333333
0.75 1 0.333333
0.791667 1 0.333333
0.833333 1 0.333333
0.875 1 0.333333
0.916667 1 0.333333
0.958333 1 0.333333
1 1 0.333333
0 0 0.375
0.0416667 0 0.375
0.0833333 0 0.375
0.125 0 0.375
0.166667 0 0.375
0.208333 0 0.375
0.25 0 0.375
0.291667 0 0.375
0.333333 0 0.375
0.375 0 0.375
0.416667 0 0.375
0.458333 0 0.375
0.5 0 0.375
0.541667 0 0.375
0.583333 0 0.375
0.625 0 0.375
0.666667 0 0.375
0.708333 0 0.375
0.75 0 0.375
0.791667 0 0.375
0.833333 0 0.375
0.875 0 0.375
0.916667 0 0.375
0.958333 0 0.375
1 0 0.375
0 0.0416667 0.375
0.0416667 0.0416667 0.375
0.0833333 0.0416667 0.375
0.125 0.0416667 0.375
0.166667 0.0416667 0.375
0.208333 0.0416667 0.375
0.25 0.0416667 0.375
0.291667 0.0416667 0.375
0.333333 0.0416667 0.375
0.375 0.0416667 0.375
0.416667 0.0416667 0.375
0.458333 0.0416667 0.375
0.5 0.0416667 0.375
0.541667 0.0416667 0.375
0.583333 0.0416667 0.375
0.625 0.0416667 0.375
0.666667 0.0416667 0.375
0.708333 0.0416667 0.375
0.75 0.0416667 0.375
0.791667 0.0416667 0.375
0.833333 0.0416667 0.375
0.875 0.0416667 0.375
0.916667 0.0416667 0.375
0.958333 0.0416667 0.375
1 0.0416667 0.375
0 0.0833333 0.375
0.0416667 0.0833333 0.375
0.0833333 0.0833333 0.375
0.125 0.0833333 0.375
0.166667 0.0833333 0.375
0.208333 0.0833333 0.375
0.25 0.0833333 0.375
0.291667 0.0833333 0.375
0.333333 0.0833333 0.375
0.375 0.0833333 0.375
0.416667 0.0833333 0.375
0.458333 0.0833333 0.375
0.5 0.0833333 0.375
0.541667 0.0833333 0.375
0.583333 0.0833333 0.375
0.625 0.0833333 0.375
0.666667 0.0833333 0.375
0.708333 0.0833333 0.375
0.75 0.0833333 0.375
0.791667 0.0833333 0.375
0.833333 0.0833333 0.375
0.875 0.0833333 0.375
0.916667 0.0833333 0.375
0.958333 0.0833333 0.375
1 0.0833333 0.375
0 0.125 0.375
0.0416667 0.125 0.375
0.0833333 0.125 0.375
0.125 0.125 0.375
0.166667 0.125 0.375
0.208333 0.125 0.375
0.25 0.125 0.375
0.291667 0.125 0.375
0.333333 0.125 0.375
0.375 0.125 0.375
0.416667 0.125 0.375
0.458333 0.125 0.375
0.5 0.125 0.375
0.541667 0.125 0.375
0.583333 0.125 0.375
0.625 0.125 0.375
0.666667 0.125 0.375
0.708333 0.125 0.375
0.75 0.125 0.375
0.791667 0.125 0.375
0.833333 0.125 0.375
0.875 0.125 0.375
0.916667 0.125 0.375
0.958333 0.125 0.375
1 0.125 0.375
0 0.166667 0.375
0.0416667 0.166667 0.375
0.0833333 0.166667 0.375
0.125 0.166667 0.375
0.166667 0.166667 0.375
0.208333 0.166667 0.375
0.25 0.166667 0.375
0.291667 0.166667 0.375
0.333333 0.166667 0.375
0.375 0.166667 0.375
0.416667 0.166667 0.375
0.458333 0.166667 0.375
0.5 0.166667 0.375
0.541667 0.166667 0.375
0.583333 0.166667 0.375
0.625 0.166667 0.375
0.666667 0.166667 0.375
0.708333 0.166667 0.375
0.75 0.166667 0.375
0.791667 0.166667 0.375
0.833333 0.166667 0.375
0.875 0.166667 0.375
0.916667 0.166667 0.375
0.958333 0.166667 0.375
1 0.166667 0.375
0 0.208333 0.375
0.0416667 0.208333 0.375
0.0833333 0.208333 0.375
0.125 0.208333 0.375
0.166667 0.208333 0.375
0.208333 0.208333 0.375
0.25 0.208333 0.375
0.291667 0.208333 0.375
0.333333 0.208333 0.375
0.375 0.208333 0.375
0.416667 0.208333 0.375
0.458333 0.208333 0.375
0.5 0.208333 0.375
0.541667 0.208333 0.375
0.583333 0.208333 0.375
0.625 0.208333 0.375
0.666667 0.208333 0.375
0.708333 0.208333 0.375
0.75 0.208333 0.375
0.791667 0.208333 0.375
0.833333 0.208333 0.375
0.875 0.208333 0.375
0.916667 0.208333 0.375
0.958333 0.208333 0.375
1 0.208333 0.375
0 0.25 0.375
0.0416667 0.25 0.375
0.0833333 0.25 0.375
0.125 0.25 0.375
0.166667 0.25 0.375
0.208333 0.25 0.375
0.25 0.25 0.375
0.291667 0.25 0.375
0.333333 0.25 0.375
0.375 0.25 0.375
0.416667 0.25 0.375
0.458333 0.25 0.375
0.5 0.25 0.375
0.541667 0.25 0.375
0.583333 0.25 0.375
0.625 0.25 0.375
0.666667 0.25 0.375
0.708333 0.25 0.375
0.75 0.25 0.375
0.791667 0.25 0.375
0.833333 0.25 0.375
0.875 0.25 0.375
0.916667 0.25 0.375
0.958333 0.25 0.375
1 0.25 0.375
0 0.291667 0.375
0.0416667 0.291667 0.375
0.0833333 0.291667 0.375
0.125 0.291667 0.375
0.166667 0.291667 0.375
0.208333 0.291667 0.375
0.25 0.291667 0.375
0.291667 0.291667 0.375
0.333333 0.291667 0.375
0.375 0.291667 0.375
0.416667 0.291667 0.375
0.458333 0.291667 0.375
0.5 0.291667 0.375
0.541667 0.291667 0.375
0.583333 0.291667 0.375
0.625 0.291667 0.375
0.666667 0.291667 0.375
0.708333 0.291667 0.375
0.75 0.291667 0.375
0.791667 0.291667 0.375
0.833333 0.291667 0.375
0.875 0.291667 0.375
0.916667 0.291667 0.375
0.958333 0.291667 0.375
1 0.291667 0.375
0 0.333333 0.375
0.0416667 0.333333 0.375
0.0833333 0.333333 0.375
0.125 0.333333 0.375
0.166667 0.333333 0.375
0.208333 0.333333 0.375
0.25 0.333333 0.375
0.291667 0.333333 0.375
0.333333 0.333333 0.375
0.375 0.333333 0.375
0.416667 0.333333 0.375
0.458333 0.333333 0.375
0.5 0.333333 0.375
0.541667 0.333333 0.375
0.583333 0.333333 0.375
0.625 0.333333 0.375
0.666667 0.333333 0.375
0.708333 0.333333 0.375
0.75 0.333333 0.375
0.791667 0.333333 0.375
0.833333 0.333333 0.375
0.875 0.333333 0.375
0.916667 0.333333 0.375
0.958333 0.333333 0.375
1 0.333333 0.375
0 0.375 0.375
0.0416667 0.375 0.375
0.0833333 0.375 0.375
0.125 0.375 0.375
0.166667 0.375 0.375
0.208333 0.375 0.375
0.25 0.375 0.375
0.291667 0.375 0.375
0.333333 0.375 0.375
0.375 0.375 0.375
0.416667 0.375 0.375
0.458333 0.375 0.375
0.5 0.375 0.375
0.541667 0.375 0.375
0.583333 0.375 0.375
0.625 0.375 0.375
0.666667 0.375 0.375
0.708333 0.375 0.375
0.75 0.375 0.375
0.791667 0.375 0.375
0.833333 0.375 0.375
0.875 0.375 0.375
0.916667 0.375 0.375
0.958333 0.375 0.375
1 0.375 0.375
0 0.416667 0.375
0.0416667 0.416667 0.375
0.0833333 0.416667 0.375
0.125 0.416667 0.375
0.166667 0.416667 0.375
0.208333 0.416667 0.375
0.25 0.416667 0.375
0.291667 0.416667 0.375
0.333333 0.416667 0.375
0.375 0.416667 0.375
0.416667 0.416667 0.375
0.458333 0.416667 0.375
0.5 0.416667 0.375
0.541667 0.416667 0.375
0.583333 0.416667 0.375
0.625 0.416667 0.375
0.666667 0.416667 0.375
0.708333 0.416667 0.375
0.75 0.416667 0.375
0.791667 0.416667 0.375
0.833333 0.416667 0.375
0.875 0.416667 0.375
0.916667 0.416667 0.375
0.958333 0.416667 0.375
1 0.416667 0.375
0 0.458333 0.375
0.0416667 0.458333 0.375
0.0833333 0.458333 0.375
0.125 0.458333 0.375
0.166667 0.458333 0.375
0.208333 0.458333 0.375
0.25 0.458333 0.375
0.291667 0.458333 0.375
0.333333 0.458333 0.375
0.375 0.458333 0.375
0.416667 0.458333 0.375
0.458333 0.458333 0.375
0.5 0.458333 0.375
0.541667 0.458333 0.375
0.583333 0.458333 0.375
0.625 0.458333 0.375
0.666667 0.458333 0.375
0.708333 0.458333 0.375
0.75 0.458333 0.375
0.791667 0.458333 0.375
0.833333 0.458333 0.375
0.875 0.458333 0.375
0.916667 0.458333 0.375
0.958333 0.458333 0.375
1 0.458333 0.375
0 0.5 0.375
0.0416667 0.5 0.375
0.0833333 0.5 0.375
0.125 0.5 0.375
0.166667 0.5 0.375
0.208333 0.5 0.375
0.25 0.5 0.375
0.291667 0.5 0.375
0.333333 0.5 0.375
0.375 0.5 0.375
0.416667 0.5 0.375
0.458333 0.5 0.375
0.5 0.5 0.375
0.541667 0.5 0.375
0.583333 0.5 0.375
0.625 0.5 0.375
0.666667 0.5 0.375
0.708333 0.5 0.375
0.75 0.5 0.375
0.791667 0.5 0.375
0.833333 0.5 0.375
0.875 0.5 0.375
0.916667 0.5 0.375
0.958333 0.5 0.375
1 0.5 0.375
0 0.541667 0.375
0.0416667 0.541667 0.375
0.0833333 0.541667 0.375
0.125 0.541667 0.375
0.166667 0.541667 0.375
0.208333 0.541667 0.375
0.25 0.541667 0.375
0.291667 0.541667 0.375
0.333333 0.541667 0.375
0.375 0.541667 0.375
0.416667 0.541667 0.375
0.458333 0.541667 0.375
0.5 0.541667 0.375
0.541667 0.541667 0.375
0.583333 0.541667 0.375
0.625 0.541667 0.375
0.666667 0.541667 0.375
0.708333 0.541667 0.375
0.75 0.541667 0.375
0.791667 0.541667 0.375
0.833333 0.541667 0.375
0.875 0.541667 0.375
0.916667 0.541667 0.375
0.958333 0.541667 0.375
1 0.541667 0.375
0 0.583333 0.375
0.0416667 0.583333 0.375
0.0833333 0.583333 0.375
0.125 0.583333 0.375
0.166667 0.583333 0.375
0.208333 0.583333 0.375
0.25 0.583333 0.375
0.291667 0.583333 0.375
0.333333 0.583333 0.375
0.375 0.583333 0.375
0.416667 0.583333 0.375
0.458333 0.583333 0.375
0.5 0.583333 0.375
0.541667 0.583333 0.375
0.583333 0.583333 0.375
0.625 0.583333 0.375
0.666667 0.583333 0.375
0.708333 0.583333 0.375
0.75 0.583333 0.375
0.791667 0.583333 0.375
0.833333 0.583333 0.375
0.875 0.583333 0.375
0.916667 0.583333 0.375
0.958333 0.583333 0.375
1 0.583333 0.375
0 0.625 0.375
0.0416667 0.625 0.375
0.0833333 0.625 0.375
0.125 0.625 0.375
0.166667 0.625 0.375
0.208333 0.625 0.375
0.25 0.625 0.375
0.291667 0.625 0.375
0.333333 0.625 0.375
0.375 0.625 0.375
0.416667 0.625 0.375
0.458333 0.625 0.375
0.5 0.625 0.375
0.541667 0.625 0.375
0.583333 0.625 0.375
0.625 0.625 0.375
0.666667 0.625 0.375
0.708333 0.625 0.375
0.75 0.625 0.375
0.791667 0.625 0.375
0.833333 0.625 0.375
0.875 0.625 0.375
0.916667 0.625 0.375
0.958333 0.625 0.375
1 0.625 0.375
0 0.666667 0.375
0.0416667 0.666667 0.375
0.0833333 0.666667 0.375
0.125 0.666667 0.375
0.166667 0.666667 0.375
0.208333 0.666667 0.375
0.25 0.666667 0.375
0.291667 0.666667 0.375
0.333333 0.666667 0.375
0.375 0.666667 0.375
0.416667 0.666667 0.375
0.458333 0.666667 0.375
0.5 0.666667 0.375
0.541667 0.666667 0.375
0.583333 0.666667 0.375
0.625 0.666667 0.375
0.666667 0.666667 0.375
0.708333 0.666667 0.375
0.75 0.666667 0.375
0.791667 0.666667 0.375
0.833333 0.666667 0.375
0.875 0.666667 0.375
0.916667 0.666667 0.375
0.958333 0.666667 0.375
1 0.666667 0.375
0 0.708333 0.375
0.0416667 0.708333 0.375
0.0833333 0.708333 0.375
0.125 0.708333 0.375
0.166667 0.708333 0.375
0.208333 0.708333 0.375
0.25 0.708333 0.375
0.291667 0.708333 0.375
0.333333 0.708333 0.375
0.375 0.708333 0.375
0.416667 0.708333 0.375
0.458333 0.708333 0.375
0.5 0.708333 0.375
0.541667 0.708333 0.375
0.583333 0.708333 0.375
0.625 0.708333 0.375
0.666667 0.708333 0.375
0.708333 0.708333 0.375
0.75 0.708333 0.375
0.791667 0.708333 0.375
0.833333 0.708333 0.375
0.875 0.708333 0.375
0.916667 0.708333 0.375
0.958333 0.708333 0.375
1 0.708333 0.375
0 0.75 0.375
0.0416667 0.75 0.375
0.0833333 0.75 0.375
0.125 0.75 0.375
0.166667 0.75 0.375
0.208333 0.75 0.375
0.25 0.75 0.375
0.291667 0.75 0.375
0.333333 0.75 0.375
0.375 0.75 0.375
0.416667 0.75 0.375
0.458333 0.75 0.375
0.5 0.75 0.375
0.541667 0.75 0.375
0.583333 0.75 0.375
0.625 0.75 0.375
0.666667 0.75 0.375
0.708333 0.75 0.375
0.75 0.75 0.375
0.791667 0.75 0.375
0.833333 0.75 0.375
0.875 0.75 0.375
0.916667 0.75 0.375
0.958333 0.75 0.375
1 0.75 0.375
0 0.791667 0.375
0.0416667 0.791667 0.375
0.0833333 0.791667 0.375
0.125 0.791667 0.375
0.166667 0.791667 0.375
0.208333 0.791667 0.375
0.25 0.791667 0.375
0.291667 0.791667 0.375
0.333333 0.791667 0.375
0.375 0.791667 0.375
0.416667 0.791667 0.375
0.458333 0.791667 0.375
0.5 0.791667 0.375
0.541667 0.791667 0.375
0.583333 0.791667 0.375
0.625 0.791667 0.375
0.666667 0.791667 0.375
0.708333 0.791667 0.375
0.75 0.791667 0.375
0.791667 0.791667 0.375
0.833333 0.791667 0.375
0.875 0.791667 0.375
0.916667 0.791667 0.375
0.958333 0.791667 0.375
1 0.791667 0.375
0 0.833333 0.375
0.0416667 0.833333 0.375
0.0833333 0.833333 0.375
0.125 0.833333 0.375
0.166667 0.833333 0.375
0.208333 0.833333 0.375
0.25 0.833333 0.375
0.291667 0.833333 0.375
0.333333 0.833333 0.375
0.375 0.833333 0.375
0.416667 0.833333 0.375
0.458333 0.833333 0.375
0.5 0.833333 0.375
0.541667 0.833333 0.375
0.583333 0.833333 0.375
0.625 0.833333 0.375
0.666667 0.833333 0.375
0.708333 0.833333 0.375
0.75 0.833333 0.375
0.791667 0.833333 0.375
0.833333 0.833333 0.375
0.875 0.833333 0.375
0.916667 0.833333 0.375
0.958333 0.833333 0.375
1 0.833333 0.375
0 0.875 0.375
0.0416667 0.875 0.375
0.0833333 0.875 0.375
0.125 0.875 0.375
0.166667 0.875 0.375
0.208333 0.875 0.375
0.25 0.875 0.375
0.291667 0.875 0.375
0.333333 0.875 0.375
0.375 0.875 0.375
0.416667 0.875 0.375
0.458333 0.875 0.375
0.5 0.875 0.375
0.541667 0.875 0.375
0.583333 0.875 0.375
0.625 0.875 0.375
0.666667 0.875 0.375
0.708333 0.875 0.375
0.75 0.875 0.375
0.791667 0.875 0.375
0.833333 0.875 0.375
0.875 0.875 0.375
0.916667 0.875 0.375
0.958333 0.875 0.375
1 0.875 0.375
0 0.916667 0.375
0.0416667 0.916667 0.375
0.0833333 0.916667 0.375
0.125 0.916667 0.375
0.166667 0.916667 0.375
0.208333 0.916667 0.375
0.25 0.916667 0.375
0.291667 0.916667 0.375
0.333333 0.916667 0.375
0.375 0.916667 0.375
0.416667 0.916667 0.375
0.458333 0.916667 0.375
0.5 0.916667 0.375
0.541667 0.916667 0.375
0.583333 0.916667 0.375
0.625 0.916667 0.375
0.666667 0.916667 0.375
0.708333 0.916667 0.375
0.75 0.916667 0.375
0.791667 0.916667 0.375
0.833333 0.916667 0.375
0.875 0.916667 0.375
0.916667 0.916667 0.375
0.958333 0.916667 0.375
1 0.916667 0.375
0 0.958333 0.375
0.0416667 0.958333 0.375
0.0833333 0.958333 0.375
0.125 0.958333 0.375
0.166667 0.958333 0.375
0.208333 0.958333 0.375
0.25 0.958333 0.375
0.291667 0.958333 0.375
0.333333 0.958333 0.375
0.375 0.958333 0.375
0.416667 0.958333 0.375
0.458333 0.958333 0.375
0.5 0.958333 0.375
0.541667 0.958333 0.375
0.583333 0.958333 0.375
0.625 0.958333 0.375
0.666667 0.958333 0.375
0.708333 0.958333 0.375
0.75 0.958333 0.375
0.791667 0.958333 0.375
0.833333 0.958333 0.375
0.875 0.958333 0.375
0.916667 0.958333 0.375
0.958333 0.958333 0.375
1 0.958333 0.375
0 1 0.375
0.0416667 1 0.375
0.0833333 1 0.375
0.125 1 0.375
0.166667 1 0.375
0.208333 1 0.375
0.25 1 0.375
0.291667 1 0.375
0.333333 1 0.375
0.375 1 0.375
0.416667 1 0.375
0.458333 1 0.375
0.5 1 0.375
0.541667 1 0.375
0.583333 1 0.375
0.625 1 0.375
0.666667 1 0.375
0.708333 1 0.375
0.75 1 0.375
0.791667 1 0.375
0.833333 1 0.375
0.875 1 0.375
0.916667 1 0.375
0.958333 1 0.375
1 1 0.375
0 0 0.416667
0.0416667 0 0.416667
0.0833333 0 0.416667
0.125 0 0.416667
0.166667 0 0.416667
0.208333 0 0.416667
0.25 0 0.416667
0.291667 0 0.416667
0.333333 0 0.416667
0.375 0 0.416667
0.416667 0 0.416667
0.458333 0 0.416667
0.5 0 0.416667
0.541667 0 0.416667
0.583333 0 0.416667
0.625 0 0.416667
0.666667 0 0.416667
0.708333 0 0.416667
0.75 0 0.416667
0.791667 0 0.416667
0.833333 0 0.416667
0.875 0 0.416667
0.916667 0 0.416667
0.958333 0 0.416667
1 0 0.416667
0 0.0416667 0.416667
0.0416667 0.0416667 0.416667
0.0833333 0.0416667 0.416667
0.125 0.0416667 0.416667
0.166667 0.0416667 0.416667
0.208333 0.0416667 0.416667
0.25 0.0416667 0.416667
0.291667 0.0416667 0.416667
0.333333 0.0416667 0.416667
0.375 0.0416667 0.416667
0.416667 0.0416667 0.416667
0.458333 0.0416667 0.416667
0.5 0.0416667 0.416667
0.541667 0.0416667 0.416667
0.583333 0.0416667 0.416667
0.625 0.0416667 0.416667
0.666667 0.0416667 0.416667
0.708333 0.0416667 0.416667
0.75 0.0416667 0.416667
0.791667 0.0416667 0.416667
0.833333 0.0416667 0.416667
0.875 0.0416667 0.416667
0.916667 0.0416667 0.416667
0.958333 0.0416667 0.416667
1 0.0416667 0.416667
0 0.0833333 0.416667
0.0416667 0.0833333 0.416667
0.0833333 0.0833333 0.416667
0.125 0.0833333 0.416667
0.166667 0.0833333 0.416667
0.208333 0.0833333 0.416667
0.25 0.0833333 0.416667
0.291667 0.0833333 0.416667
0.333333 0.0833333 0.416667
0.375 0.0833333 0.416667
0.416667 0.0833333 0.416667
0.458333 0.0833333 0.416667
0.5 0.0833333 0.416667
0.541667 0.0833333 0.416667
0.583333 0.0833333 0.416667
0.625 0.0833333 0.416667
0.666667 0.0833333 0.416667
0.708333 0.0833333 0.416667
0.75 0.0833333 0.416667
0.791667 0.0833333 0.416667
0.833333 0.0833333 0.416667
0.875 0.0833333 0.416667
0.916667 0.0833333 0.416667
0.958333 0.0833333 0.416667
1 0.0833333 0.416667
0 0.125 0.416667
0.0416667 0.125 0.416667
0.0833333 0.125 0.416667
0.125 0.125 0.416667
0.166667 0.125 0.416667
0.208333 0.125 0.416667
0.25 0.125 0.416667
0.291667 0.125 0.416667
0.333333 0.125 0.416667
0.375 0.125 0.416667
0.416667 0.125 0.416667
0.458333 0.125 0.416667
0.5 0.125 0.416667
0.541667 0.125 0.416667
0.583333 0.125 0.416667
0.625 0.125 0.416667
0.666667 0.125 0.416667
0.708333 0.125 0.416667
0.75 0.125 0.416667
0.791667 0.125 0.416667
0.833333 0.125 0.416667
0.875 0.125 0.416667
0.916667 0.125 0.416667
0.958333 0.125 0.416667
1 0.125 0.416667
0 0.166667 0.416667
0.0416667 0.166667 0.416667
0.0833333 0.166667 0.416667
0.125 0.166667 0.416667
0.166667 0.166667 0.416667
0.208333 0.166667 0.416667
0.25 0.166667 0.416667
0.291667 0.166667 0.416667
0.333333 0.166667 0.416667
0.375 0.166667 0.416667
0.416667 0.166667 0.416667
0.458333 0.166667 0.416667
0.5 0.166667 0.416667
0.541667 0.166667 0.416667
0.583333 0.166667 0.416667
0.625 0.166667 0.416667
0.666667 0.166667 0.416667
0.708333 0.166667 0.416667
0.75 0.166667 0.416667
0.791667 0.166667 0.416667
0.833333 0.166667 0.416667
0.875 0.166667 0.416667
0.916667 0.166667 0.416667
0.958333 0.166667 0.416667
1 0.166667 0.416667
0 0.208333 0.416667
0.0416667 0.208333 0.416667
0.0833333 0.208333 0.416667
0.125 0.208333 0.416667
0.166667 0.208333 0.416667
0.208333 0.208333 0.416667
0.25 0.208333 0.416667
0.291667 0.208333 0.416667
0.333333 0.208333 0.416667
0.375 0.208333 0.416667
0.416667 0.208333 0.416667
0.458333 0.208333 0.416667
0.5 0.208333 0.416667
0.541667 0.208333 0.416667
0.583333 0.208333 0.416667
0.625 0.208333 0.416667
0.666667 0.208333 0.416667
0.708333 0.208333 0.416667
0.75 0.208333 0.416667
0.791667 0.208333 0.416667
0.833333 0.208333 0.416667
0.875 0.208333 0.416667
0.916667 0.208333 0.416667
0.958333 0.208333 0.416667
1 0.208333 0.416667
0 0.25 0.416667
0.0416667 0.25 0.416667
0.0833333 0.25 0.416667
0.125 0.25 0.416667
0.166667 0.25 0.416667
0.208333 0.25 0.416667
0.25 0.25 0.416667
0.291667 0.25 0.416667
0.333333 0.25 0.416667
0.375 0.25 0.416667
0.416667 0.25 0.416667
0.458333 0.25 0.416667
0.5 0.25 0.416667
0.541667 0.25 0.416667
0.583333 0.25 0.416667
0.625 0.25 0.416667
0.666667 0.25 0.416667
0.708333 0.25 0.416667
0.75 0.25 0.416667
0.791667 0.25 0.416667
0.833333 0.25 0.416667
0.875 0.25 0.416667
0.916667 0.25 0.416667
0.958333 0.25 0.416667
1 0.25 0.416667
0 0.291667 0.416667
0.0416667 0.291667 0.416667
0.0833333 0.291667 0.416667
0.125 0.291667 0.416667
0.166667 0.291667 0.416667
0.208333 0.291667 0.416667
0.25 0.291667 0.416667
0.291667 0.291667 0.416667
0.333333 0.291667 0.416667
0.375 0.291667 0.416667
0.416667 0.291667 0.416667
0.458333 0.291667 0.416667
0.5 0.291667 0.416667
0.541667 0.291667 0.416667
0.583333 0.291667 0.416667
0.625 0.291667 0.416667
0.666667 0.291667 0.416667
0.708333 0.291667 0.416667
0.75 0.291667 0.416667
0.791667 0.291667 0.416667
0.833333 0.291667 0.416667
0.875 0.291667 0.416667
0.916667 0.291667 0.416667
0.958333 0.291667 0.416667
1 0.291667 0.416667
0 0.333333 0.416667
0.0416667 0.333333 0.416667
0.0833333 0.333333 0.416667
0.125 0.333333 0.416667
0.166667 0.333333 0.416667
0.208333 0.333333 0.416667
0.25 0.333333 0.416667
0.291667 0.333333 0.416667
0.333333 0.333333 0.416667
0.375 0.333333 0.416667
0.416667 0.333333 0.416667
0.458333 0.333333 0.416667
0.5 0.333333 0.416667
0.541667 0.333333 0.416667
0.583333 0.333333 0.416667
0.625 0.333333 0.416667
0.666667 0.333333 0.416667
0.708333 0.333333 0.416667
0.75 0.333333 0.416667
0.791667 0.333333 0.416667
0.833333 0.333333 0.416667
0.875 0.333333 0.416667
0.916667 0.333333 0.416667
0.958333 0.333333 0.416667
1 0.333333 0.416667
0 0.375 0.416667
0.0416667 0.375 0.416667
0.0833333 0.375 0.416667
0.125 0.375 0.416667
0.166667 0.375 0.416667
0.208333 0.375 0.416667
0.25 0.375 0.416667
0.291667 0.375 0.416667
0.333333 0.375 0.416667
0.375 0.375 0.416667
0.416667 0.375 0.416667
0.458333 0.375 0.416667
0.5 0.375 0.416667
0.541667 0.375 0.416667
0.583333 0.375 0.416667
0.625 0.375 0.416667
0.666667 0.375 0.416667
0.708333 0.375 0.416667
0.75 0.375 0.416667
0.791667 0.375 0.416667
0.833333 0.375 0.416667
0.875 0.375 0.416667
0.916667 0.375 0.416667
0.958333 0.375 0.416667
1 0.375 0.416667
0 0.416667 0.416667
0.0416667 0.416667 0.416667
0.0833333 0.416667 0.416667
0.125 0.416667 0.416667
0.166667 0.416667 0.416667
0.208333 0.416667 0.416667
0.25 0.416667 0.416667
0.291667 0.416667 0.416667
0.333333 0.416667 0.416667
0.375 0.416667 0.416667
0.416667 0.416667 0.416667
0.458333 0.416667 0.416667
0.5 0.416667 0.416667
0.541667 0.416667 0.416667
0.583333 0.416667 0.416667
0.625 0.416667 0.416667
0.666667 0.416667 0.416667
0.708333 0.416667 0.416667
0.75 0.416667 0.416667
0.791667 0.416667 0.416667
0.833333 0.416667 0.416667
0.875 0.416667 0.416667
0.916667 0.416667 0.416667
0.958333 0.416667 0.416667
1 0.416667 0.416667
0 0.458333 0.416667
0.0416667 0.458333 0.416667
0.0833333 0.458333 0.416667
0.125 0.458333 0.416667
0.166667 0.458333 0.416667
0.208333 0.458333 0.416667
0.25 0.458333 0.416667
0.291667 0.458333 0.416667
0.333333 0.458333 0.416667
0.375 0.458333 0.416667
0.416667 0.458333 0.416667
0.458333 0.458333 0.416667
0.5 0.458333 0.416667
0.541667 0.458333 0.416667
0.583333 0.458333 0.416667
0.625 0.458333 0.416667
0.666667 0.458333 0.416667
0.708333 0.458333 0.416667
0.75 0.458333 0.416667
0.791667 0.458333 0.416667
0.833333 0.458333 0.416667
0.875 0.458333 0.416667
0.916667 0.458333 0.416667
0.958333 0.458333 0.416667
1 0.458333 0.416667
0 0.5 0.416667
0.0416667 0.5 0.416667
0.0833333 0.5 0.416667
0.125 0.5 0.416667
0.166667 0.5 0.416667
0.208333 0.5 0.416667
0.25 0.5 0.416667
0.291667 0.5 0.416667
0.333333 0.5 0.416667
0.375 0.5 0.416667
0.416667 0.5 0.416667
0.458333 0.5 0.416667
0.5 0.5 0.416667
0.541667 0.5 0.416667
0.583333 0.5 0.416667
0.625 0.5 0.416667
0.666667 0.5 0.416667
0.708333 0.5 0.416667
0.75 0.5 0.416667
0.791667 0.5 0.416667
0.833333 0.5 0.416667
0.875 0.5 0.416667
0.916667 0.5 0.416667
0.958333 0.5 0.416667
1 0.5 0.416667
0 0.541667 0.416667
0.0416667 0.541667 0.416667
0.0833333 0.541667 0.416667
0.125 0.541667 0.416667
0.166667 0.541667 0.416667
0.208333 0.541667 0.416667
0.25 0.541667 0.416667
0.291667 0.541667 0.416667
0.333333 0.541667 0.416667
0.375 0.541667 0.416667
0.416667 0.541667 0.416667
0.458333 0.541667 0.416667
0.5 0.541667 0.416667
0.541667 0.541667 0.416667
0.583333 0.541667 0.416667
0.625 0.541667 0.416667
0.666667 0.541667 0.416667
0.708333 0.541667 0.416667
0.75 0.541667 0.416667
0.791667 0.541667 0.416667
0.833333 0.541667 0.416667
0.875 0.541667 0.416667
0.916667 0.541667 0.416667
0.958333 0.541667 0.416667
1 0.541667 0.416667
0 0.583333 0.416667
0.0416667 0.583333 0.416667
0.0833333 0.583333 0.416667
0.125 0.583333 0.416667
0.166667 0.583333 0.416667
0.208333 0.583333 0.416667
0.25 0.583333 0.416667
0.291667 0.583333 0.416667
0.333333 0.583333 0.416667
0.375 0.583333 0.416667
0.416667 0.583333 0.416667
0.458333 0.583333 0.416667
0.5 0.583333 0.416667
0.541667 0.583333 0.416667
0.583333 0.583333 0.416667
0.625 0.583333 0.416667
0.666667 0.583333 0.416667
0.708333 0.583333 0.416667
0.75 0.583333 0.416667
0.791667 0.583333 0.416667
0.833333 0.583333 0.416667
0.875 0.583333 0.416667
0.916667 0.583333 0.416667
0.958333 0.583333 0.416667
1 0.583333 0.416667
0 0.625 0.416667
0.0416667 0.625 0.416667
0.0833333 0.625 0.416667
0.125 0.625 0.416667
0.166667 0.625 0.416667
0.208333 0.625 0.416667
0.25 0.625 0.416667
0.291667 0.625 0.416667
0.333333 0.625 0.416667
0.375 0.625 0.416667
0.416667 0.625 0.416667
0.458333 0.625 0.416667
0.5 0.625 0.416667
0.541667 0.625 0.416667
0.583333 0.625 0.416667
0.625 0.625 0.416667
0.666667 0.625 0.416667
0.708333 0.625 0.416667
0.75 0.625 0.416667
0.791667 0.625 0.416667
0.833333 0.625 0.416667
0.875 0.625 0.416667
0.916667 0.625 0.416667
0.958333 0.625 0.416667
1 0.625 0.416667
0 0.666667 0.416667
0.0416667 0.666667 0.416667
0.0833333 0.666667 0.416667
0.125 0.666667 0.416667
0.166667 0.666667 0.416667
0.208333 0.666667 0.416667
0.25 0.666667 0.416667
0.291667 0.666667 0.416667
0.333333 0.666667 0.416667
0.375 0.666667 0.416667
0.416667 0.666667 0.416667
0.458333 0.666667 0.416667
0.5 0.666667 0.416667
0.541667 0.666667 0.416667
0.583333 0.666667 0.416667
0.625 0.666667 0.416667
0.666667 0.666667 0.416667
0.708333 0.666667 0.416667
0.75 0.666667 0.416667
0.791667 0.666667 0.416667
0.833333 0.666667 0.416667
0.875 0.666667 0.416667
0.916667 0.666667 0.416667
0.958333 0.666667 0.416667
1 0.666667 0.416667
0 0.708333 0.416667
0.0416667 0.708333 0.416667
0.0833333 0.708333 0.416667
0.125 0.708333 0.416667
0.166667 0.708333 0.416667
0.208333 0.708333 0.416667
0.25 0.708333 0.416667
0.291667 0.708333 0.416667
0.333333 0.708333 0.416667
0.375 0.708333 0.416667
0.416667 0.708333 0.416667
0.458333 0.708333 0.416667
0.5 0.708333 0.416667
0.541667 0.708333 0.416667
0.583333 0.708333 0.416667
0.625 0.708333 0.416667
0.666667 0.708333 0.416667
0.708333 0.708333 0.416667
0.75 0.708333 0.416667
0.791667 0.708333 0.416667
0.833333 0.708333 0.416667
0.875 0.708333 0.416667
0.916667 0.708333 0.416667
0.958333 0.708333 0.416667
1 0.708333 0.416667
0 0.75 0.416667
0.0416667 0.75 0.416667
0.0833333 0.75 0.416667
0.125 0.75 0.416667
0.166667 0.75 0.416667
0.208333 0.75 0.416667
0.25 0.75 0.416667
0.291667 0.75 0.416667
0.333333 0.75 0.416667
0.375 0.75 0.416667
0.416667 0.75 0.416667
0.458333 0.75 0.416667
0.5 0.75 0.416667
0.541667 0.75 0.416667
0.583333 0.75 0.416667
0.625 0.75 0.416667
0.666667 0.75 0.416667
0.708333 0.75 0.416667
0.75 0.75 0.416667
0.791667 0.75 0.416667
0.833333 0.75 0.416667
0.875 0.75 0.416667
0.916667 0.75 0.416667
0.958333 0.75 0.416667
1 0.75 0.416667
0 0.791667 0.416667
0.0416667 0.791667 0.416667
0.0833333 0.791667 0.416667
0.125 0.791667 0.416667
0.166667 0.791667 0.416667
0.208333 0.791667 0.416667
0.25 0.791667 0.416667
0.291667 0.791667 0.416667
0.333333 0.791667 0.416667
0.375 0.791667 0.416667
0.416667 0.791667 0.416667
0.458333 0.791667 0.416667
0.5 0.791667 0.416667
0.541667 0.791667 0.416667
0.583333 0.791667 0.416667
0.625 0.791667 0.416667
0.666667 0.791667 0.416667
0.708333 0.791667 0.416667
0.75 0.791667 0.416667
0.791667 0.791667 0.416667
0.833333 0.791667 0.416667
0.875 0.791667 0.416667
0.916667 0.791667 0.416667
0.958333 0.791667 0.416667
1 0.791667 0.416667
0 0.833333 0.416667
0.0416667 0.833333 0.416667
0.0833333 0.833333 0.416667
0.125 0.833333 0.416667
0.166667 0.833333 0.416667
0.208333 0.833333 0.416667
0.25 0.833333 0.416667
0.291667 0.833333 0.416667
0.333333 0.833333 0.416667
0.375 0.833333 0.416667
0.416667 0.833333 0.416667
0.458333 0.833333 0.416667
0.5 0.833333 0.416667
0.541667 0.833333 0.416667
0.583333 0.833333 0.416667
0.625 0.833333 0.416667
0.666667 0.833333 0.416667
0.708333 0.833333 0.416667
0.75 0.833333 0.416667
0.791667 0.833333 0.416667
0.833333 0.833333 0.416667
0.875 0.833333 0.416667
0.916667 0.833333 0.416667
0.958333 0.833333 0.416667
1 0.833333 0.416667
0 0.875 0.416667
0.0416667 0.875 0.416667
0.0833333 0.875 0.416667
0.125 0.875 0.416667
0.166667 0.875 0.416667
0.208333 0.875 0.416667
0.25 0.875 0.416667
0.291667 0.875 0.416667
0.333333 0.875 0.416667
0.375 0.875 0.416667
0.416667 0.875 0.416667
0.458333 0.875 0.416667
0.5 0.875 0.416667
0.541667 0.875 0.416667
0.583333 0.875 0.416667
0.625 0.875 0.416667
0.666667 0.875 0.416667
0.708333 0.875 0.416667
0.75 0.875 0.416667
0.791667 0.875 0.416667
0.833333 0.875 0.416667
0.875 0.875 0.416667
0.916667 0.875 0.416667
0.958333 0.875 0.416667
1 0.875 0.416667
0 0.916667 0.416667
0.0416667 0.916667 0.416667
0.0833333 0.916667 0.416667
0.125 0.916667 0.416667
0.166667 0.916667 0.416667
0.208333 0.916667 0.416667
0.25 0.916667 0.416667
0.291667 0.916667 0.416667
0.333333 0.916667 0.416667
0.375 0.916667 0.416667
0.416667 0.916667 0.416667
0.458333 0.916667 0.416667
0.5 0.916667 0.416667
0.541667 0.916667 0.416667
0.583333 0.916667 0.416667
0.625 0.916667 0.416667
0.666667 0.916667 0.416667
0.708333 0.916667 0.416667
0.75 0.916667 0.416667
0.791667 0.916667 0.416667
0.833333 0.916667 0.416667
0.875 0.916667 0.416667
0.916667 0.916667 0.416667
0.958333 0.916667 0.416667
1 0.916667 0.416667
0 0.958333 0.416667
0.0416667 0.958333 0.416667
0.0833333 0.958333 0.416667
0.125 0.958333 0.416667
0.166667 0.958333 0.416667
0.208333 0.958333 0.416667
0.25 0.958333 0.416667
0.291667 0.958333 0.416667
0.333333 0.958333 0.416667
0.375 0.958333 0.416667
0.416667 0.958333 0.416667
0.458333 0.958333 0.416667
0.5 0.958333 0.416667
0.541667 0.958333 0.416667
0.583333 0.958333 0.416667
0.625 0.958333 0.416667
0.666667 0.958333 0.416667
0.708333 0.958333 0.416667
0.75 0.958333 0.416667
0.791667 0.958333 0.416667
0.833333 0.958333 0.416667
0.875 0.958333 0.416667
0.916667 0.958333 0.416667
0.958333 0.958333 0.416667
1 0.958333 0.416667
0 1 0.416667
0.0416667 1 0.416667
0.0833333 1 0.416667
0.125 1 0.416667
0.166667 1 0.416667
0.208333 1 0.416667
0.25 1 0.416667
0.291667 1 0.416667
0.333333 1 0.416667
0.375 1 0.416667
0.416667 1 0.416667
0.458333 1 0.416667
0.5 1 0.416667
0.541667 1 0.416667
0.583333 1 0.416667
0.625 1 0.416667
0.666667 1 0.416667
0.708333 1 0.416667
0.75 1 0.416667
0.791667 1 0.416667
0.833333 1 0.416667
0.875 1 0.416667
0.916667 1 0.416667
0.958333 1 0.416667
1 1 0.416667
0 0 0.458333
0.0416667 0 0.458333
0.0833333 0 0.458333
0.125 0 0.458333
0.166667 0 0.458333
0.208333 0 0.458333
0.25 0 0.458333
0.291667 0 0.458333
0.333333 0 0.458333
0.375 0 0.458333
0.416667 0 0.458333
0.458333 0 0.458333
0.5 0 0.458333
0.541667 0 0.458333
0.583333 0 0.458333
0.625 0 0.458333
0.666667 0 0.458333
0.708333 0 0.458333
0.75 0 0.458333
0.791667 0 0.458333
0.833333 0 0.458333
0.875 0 0.458333
0.916667 0 0.458333
0.958333 0 0.458333
1 0 0.458333
0 0.0416667 0.458333
0.0416667 0.0416667 0.458333
0.0833333 0.0416667 0.458333
0.125 0.0416667 0.458333
0.166667 0.0416667 0.458333
0.208333 0.0416667 0.458333
0.25 0.0416667 0.458333
0.291667 0.0416667 0.458333
0.333333 0.0416667 0.458333
0.375 0.0416667 0.458333
0.416667 0.0416667 0.458333
0.458333 0.0416667 0.458333
0.5 0.0416667 0.458333
0.541667 0.0416667 0.458333
0.583333 0.0416667 0.458333
0.625 0.0416667 0.458333
0.666667 0.0416667 0.458333
0.708333 0.0416667 0.458333
0.75 0.0416667 0.458333
0.791667 0.0416667 0.458333
0.833333 0.0416667 0.458333
0.875 0.0416667 0.458333
0.916667 0.0416667 0.458333
0.958333 0.0416667 0.458333
1 0.0416667 0.458333
0 0.0833333 0.458333
0.0416667 0.0833333 0.458333
0.0833333 0.0833333 0.458333
0.125 0.0833333 0.458333
0.166667 0.0833333 0.458333
0.208333 0.0833333 0.458333
0.25 0.0833333 0.458333
0.291667 0.0833333 0.458333
0.333333 0.0833333 0.458333
0.375 0.0833333 0.458333
0.416667 0.0833333 0.458333
0.458333 0.0833333 0.458333
0.5 0.0833333 0.458333
0.541667 0.0833333 0.458333
0.583333 0.0833333 0.458333
0.625 0.0833333 0.458333
0.666667 0.0833333 0.458333
0.708333 0.0833333 0.458333
0.75 0.0833333 0.458333
0.791667 0.0833333 0.458333
0.833333 0.0833333 0.458333
0.875 0.0833333 0.458333
0.916667 0.0833333 0.458333
0.958333 0.0833333 0.458333
1 0.0833333 0.458333
0 0.125 0.458333
0.0416667 0.125 0.458333
0.0833333 0.125 0.458333
0.125 0.125 0.458333
0.166667 0.125 0.458333
0.208333 0.125 0.458333
0.25 0.125 0.458333
0.291667 0.125 0.458333
0.333333 0.125 0.458333
0.375 0.125 0.458333
0.416667 0.125 0.458333
0.458333 0.125 0.458333
0.5 0.125 0.458333
0.541667 0.125 0.458333
0.583333 0.125 0.458333
0.625 0.125 0.458333
0.666667 0.125 0.458333
0.708333 0.125 0.458333
0.75 0.125 0.458333
0.791667 0.125 0.458333
0.833333 0.125 0.458333
0.875 0.125 0.458333
0.916667 0.125 0.458333
0.958333 0.125 0.458333
1 0.125 0.458333
0 0.166667 0.458333
0.0416667 0.166667 0.458333
0.0833333 0.166667 0.458333
0.125 0.166667 0.458333
0.166667 0.166667 0.458333
0.208333 0.166667 0.458333
0.25 0.166667 0.458333
0.291667 0.166667 0.458333
0.333333 0.166667 0.458333
0.375 0.166667 0.458333
0.416667 0.166667 0.458333
0.458333 0.166667 0.458333
0.5 0.166667 0.458333
0.541667 0.166667 0.458333
0.583333 0.166667 0.458333
0.625 0.166667 0.458333
0.666667 0.166667 0.458333
0.708333 0.166667 0.458333
0.75 0.166667 0.458333
0.791667 0.166667 0.458333
0.833333 0.166667 0.458333
0.875 0.166667 0.458333
0.916667 0.166667 0.458333
0.958333 0.166667 0.458333
1 0.166667 0.458333
0 0.208333 0.458333
0.0416667 0.208333 0.458333
0.0833333 0.208333 0.458333
0.125 0.208333 0.458333
0.166667 0.208333 0.458333
0.208333 0.208333 0.458333
0.25 0.208333 0.458333
0.291667 0.208333 0.458333
0.333333 0.208333 0.458333
0.375 0.208333 0.458333
0.416667 0.208333 0.458333
0.458333 0.208333 0.458333
0.5 0.208333 0.458333
0.541667 0.208333 0.458333
0.583333 0.208333 0.458333
0.625 0.208333 0.458333
0.666667 0.208333 0.458333
0.708333 0.208333 0.458333
0.75 0.208333 0.458333
0.791667 0.208333 0.458333
0.833333 0.208333 0.458333
0.875 0.208333 0.458333
0.916667 0.208333 0.458333
0.958333 0.208333 0.458333
1 0.208333 0.458333
0 0.25 0.458333
0.0416667 0.25 0.458333
0.0833333 0.25 0.458333
0.125 0.25 0.458333
0.166667 0.25 0.458333
0.208333 0.25 0.458333
0.25 0.25 0.458333
0.291667 0.25 0.458333
0.333333 0.25 0.458333
0.375 0.25 0.458333
0.416667 0.25 0.458333
0.458333 0.25 0.458333
0.5 0.25 0.458333
0.541667 0.25 0.458333
0.583333 0.25 0.458333
0.625 0.25 0.458333
0.666667 0.25 0.458333
0.708333 0.25 0.458333
0.75 0.25 0.458333
0.791667 0.25 0.458333
0.833333 0.25 0.458333
0.875 0.25 0.458333
0.916667 0.25 0.458333
0.958333 0.25 0.458333
1 0.25 0.458333
0 0.291667 0.458333
0.0416667 0.291667 0.458333
0.0833333 0.291667 0.458333
0.125 0.291667 0.458333
0.166667 0.291667 0.458333
0.208333 0.291667 0.458333
0.25 0.291667 0.458333
0.291667 0.291667 0.458333
0.333333 0.291667 0.458333
0.375 0.291667 0.458333
0.416667 0.291667 0.458333
0.458333 0.291667 0.458333
0.5 0.291667 0.458333
0.541667 0.291667 0.458333
0.583333 0.291667 0.458333
0.625 0.291667 0.458333
0.666667 0.291667 0.458333
0.708333 0.291667 0.458333
0.75 0.291667 0.458333
0.791667 0.291667 0.458333
0.833333 0.291667 0.458333
0.875 0.291667 0.458333
0.916667 0.291667 0.458333
0.958333 0.291667 0.458333
1 0.291667 0.458333
0 0.333333 0.458333
0.0416667 0.333333 0.458333
0.0833333 0.333333 0.458333
0.125 0.333333 0.458333
0.166667 0.333333 0.458333
0.208333 0.333333 0.458333
0.25 0.333333 0.458333
0.291667 0.333333 0.458333
0.333333 0.333333 0.458333
0.375 0.333333 0.458333
0.416667 0.333333 0.458333
0.458333 0.333333 0.458333
0.5 0.333333 0.458333
0.541667 0.333333 0.458333
0.583333 0.333333 0.458333
0.625 0.333333 0.458333
0.666667 0.333333 0.458333
0.708333 0.333333 0.458333
0.75 0.333333 0.458333
0.791667 0.333333 0.458333
0.833333 0.333333 0.458333
0.875 0.333333 0.458333
0.916667 0.333333 0.458333
0.958333 0.333333 0.458333
1 0.333333 0.458333
0 0.375 0.458333
0.0416667 0.375 0.458333
0.0833333 0.375 0.458333
0.125 0.375 0.458333
0.166667 0.375 0.458333
0.208333 0.375 0.458333
0.25 0.375 0.458333
0.291667 0.375 0.458333
0.333333 0.375 0.458333
0.375 0.375 0.458333
0.416667 0.375 0.458333
0.458333 0.375 0.458333
0.5 0.375 0.458333
0.541667 0.375 0.458333
0.583333 0.375 0.458333
0.625 0.375 0.458333
0.666667 0.375 0.458333
0.708333 0.375 0.458333
0.75 0.375 0.458333
0.791667 0.375 0.458333
0.833333 0.375 0.458333
0.875 0.375 0.458333
0.916667 0.375 0.458333
0.958333 0.375 0.458333
1 0.375 0.458333
0 0.416667 0.458333
0.0416667 0.416667 0.458333
0.0833333 0.416667 0.458333
0.125 0.416667 0.458333
0.166667 0.416667 0.458333
0.208333 0.416667 0.458333
0.25 0.416667 0.458333
0.291667 0.416667 0.458333
0.333333 0.416667 0.458333
0.375 0.416667 0.458333
0.416667 0.416667 0.458333
0.458333 0.416667 0.458333
0.5 0.416667 0.458333
0.541667 0.416667 0.458333
0.583333 0.416667 0.458333
0.625 0.416667 0.458333
0.666667 0.416667 0.458333
0.708333 0.416667 0.458333
0.75 0.416667 0.458333
0.791667 0.416667 0.458333
0.833333 0.416667 0.458333
0.875 0.416667 0.458333
0.916667 0.416667 0.458333
0.958333 0.416667 0.458333
1 0.416667 0.458333
0 0.458333 0.458333
0.0416667 0.458333 0.458333
0.0833333 0.458333 0.458333
0.125 0.458333 0.458333
0.166667 0.458333 0.458333
0.208333 0.458333 0.458333
0.25 0.458333 0.458333
0.291667 0.458333 0.458333
0.333333 0.458333 0.458333
0.375 0.458333 0.458333
0.416667 0.458333 0.458333
0.458333 0.458333 0.458333
0.5 0.458333 0.458333
0.541667 0.458333 0.458333
0.583333 0.458333 0.458333
0.625 0.458333 0.458333
0.666667 0.458333 0.458333
0.708333 0.458333 0.458333
0.75 0.458333 0.458333
0.791667 0.458333 0.458333
0.833333 0.458333 0.458333
0.875 0.458333 0.458333
0.916667 0.458333 0.458333
0.958333 0.458333 0.458333
1 0.458333 0.458333
0 0.5 0.458333
0.0416667 0.5 0.458333
0.0833333 0.5 0.458333
0.125 0.5 0.458333
0.166667 0.5 0.458333
0.208333 0.5 0.458333
0.25 0.5 0.458333
0.291667 0.5 0.458333
0.333333 0.5 0.458333
0.375 0.5 0.458333
0.416667 0.5 0.458333
0.458333 0.5 0.458333
0.5 0.5 0.458333
0.541667 0.5 0.458333
0.583333 0.5 0.458333
0.625 0.5 0.458333
0.666667 0.5 0.458333
0.708333 0.5 0.458333
0.75 0.5 0.458333
0.791667 0.5 0.458333
0.833333 0.5 0.458333
0.875 0.5 0.458333
0.916667 0.5 0.458333
0.958333 0.5 0.458333
1 0.5 0.458333
0 0.541667 0.458333
0.0416667 0.541667 0.458333
0.0833333 0.541667 0.458333
0.125 0.541667 0.458333
0.166667 0.541667 0.458333
0.208333 0.541667 0.458333
0.25 0.541667 0.458333
0.291667 0.541667 0.458333
0.333333 0.541667 0.458333
0.375 0.541667 0.458333
0.416667 0.541667 0.458333
0.458333 0.541667 0.458333
0.5 0.541667 0.458333
0.541667 0.541667 0.458333
0.583333 0.541667 0.458333
0.625 0.541667 0.458333
0.666667 0.541667 0.458333
0.708333 0.541667 0.458333
0.75 0.541667 0.458333
0.791667 0.541667 0.458333
0.833333 0.541667 0.458333
0.875 0.541667 0.458333
0.916667 0.541667 0.458333
0.958333 0.541667 0.458333
1 0.541667 0.458333
0 0.583333 0.458333
0.0416667 0.583333 0.458333
0.0833333 0.583333 0.458333
0.125 0.583333 0.458333
0.166667 0.583333 0.458333
0.208333 0.583333 0.458333
0.25 0.583333 0.458333
0.291667 0.583333 0.458333
0.333333 0.583333 0.458333
0.375 0.583333 0.458333
0.416667 0.583333 0.458333
0.458333 0.583333 0.458333
0.5 0.583333 0.458333
0.541667 0.583333 0.458333
0.583333 0.583333 0.458333
0.625 0.583333 0.458333
0.666667 0.583333 0.458333
0.708333 0.583333 0.458333
0.75 0.583333 0.458333
0.791667 0.583333 0.458333
0.833333 0.583333 0.458333
0.875 0.583333 0.458333
0.916667 0.583333 0.458333
0.958333 0.583333 0.458333
1 0.583333 0.458333
0 0.625 0.458333
0.0416667 0.625 0.458333
0.0833333 0.625 0.458333
0.125 0.625 0.458333
0.166667 0.625 0.458333
0.208333 0.625 0.458333
0.25 0.625 0.458333
0.291667 0.625 0.458333
0.333333 0.625 0.458333
0.375 0.625 0.458333
0.416667 0.625 0.458333
0.458333 0.625 0.458333
0.5 0.625 0.458333
0.541667 0.625 0.458333
0.583333 0.625 0.458333
0.625 0.625 0.458333
0.666667 0.625 0.458333
0.708333 0.625 0.458333
0.75 0.625 0.458333
0.791667 0.625 0.458333
0.833333 0.625 0.458333
0.875 0.625 0.458333
0.916667 0.625 0.458333
0.958333 0.625 0.458333
1 0.625 0.458333
0 0.666667 0.458333
0.0416667 0.666667 0.458333
0.0833333 0.666667 0.458333
0.125 0.666667 0.458333
0.166667 0.666667 0.458333
0.208333 0.666667 0.458333
0.25 0.666667 0.458333
0.291667 0.666667 0.458333
0.333333 0.666667 0.458333
0.375 0.666667 0.458333
0.416667 0.666667 0.458333
0.458333 0.666667 0.458333
0.5 0.666667 0.458333
0.541667 0.666667 0.458333
0.583333 0.666667 0.458333
0.625 0.666667 0.458333
0.666667 0.666667 0.458333
0.708333 0.666667 0.458333
0.75 0.666667 0.458333
0.791667 0.666667 0.458333
0.833333 0.666667 0.458333
0.875 0.666667 0.458333
0.916667 0.666667 0.458333
0.958333 0.666667 0.458333
1 0.666667 0.458333
0 0.708333 0.458333
0.0416667 0.708333 0.458333
0.0833333 0.708333 0.458333
0.125 0.708333 0.458333
0.166667 0.708333 0.458333
0.208333 0.708333 0.458333
0.25 0.708333 0.458333
0.291667 0.708333 0.458333
0.333333 0.708333 0.458333
0.375 0.708333 0.458333
0.416667 0.708333 0.458333
0.458333 0.708333 0.458333
0.5 0.708333 0.458333
0.541667 0.708333 0.458333
0.583333 0.708333 0.458333
0.625 0.708333 0.458333
0.666667 0.708333 0.458333
0.708333 0.708333 0.458333
0.75 0.708333 0.458333
0.791667 0.708333 0.458333
0.833333 0.708333 0.458333
0.875 0.708333 0.458333
0.916667 0.708333 0.458333
0.958333 0.708333 0.458333
1 0.708333 0.458333
0 0.75 0.458333
0.0416667 0.75 0.458333
0.0833333 0.75 0.458333
0.125 0.75 0.458333
0.166667 0.75 0.458333
0.208333 0.75 0.458333
0.25 0.75 0.458333
0.291667 0.75 0.458333
0.333333 0.75 0.458333
0.375 0.75 0.458333
0.416667 0.75 0.458333
0.458333 0.75 0.458333
0.5 0.75 0.458333
0.541667 0.75 0.458333
0.583333 0.75 0.458333
0.625 0.75 0.458333
0.666667 0.75 0.458333
0.708333 0.75 0.458333
0.75 0.75 0.458333
0.791667 0.75 0.458333
0.833333 0.75 0.458333
0.875 0.75 0.458333
0.916667 0.75 0.458333
0.958333 0.75 0.458333
1 0.75 0.458333
0 0.791667 0.458333
0.0416667 0.791667 0.458333
0.0833333 0.791667 0.458333
0.125 0.791667 0.458333
0.166667 0.791667 0.458333
0.208333 0.791667 0.458333
0.25 0.791667 0.458333
0.291667 0.791667 0.458333
0.333333 0.791667 0.458333
0.375 0.791667 0.458333
0.416667 0.791667 0.458333
0.458333 0.791667 0.458333
0.5 0.791667 0.458333
0.541667 0.791667 0.458333
0.583333 0.791667 0.458333
0.625 0.791667 0.458333
0.666667 0.791667 0.458333
0.708333 0.791667 0.458333
0.75 0.791667 0.458333
0.791667 0.791667 0.458333
0.833333 0.791667 0.458333
0.875 0.791667 0.458333
0.916667 0.791667 0.458333
0.958333 0.791667 0.458333
1 0.791667 0.458333
0 0.833333 0.458333
0.0416667 0.833333 0.458333
0.0833333 0.833333 0.458333
0.125 0.833333 0.458333
0.166667 0.833333 0.458333
0.208333 0.833333 0.458333
0.25 0.833333 0.458333
0.291667 0.833333 0.458333
0.333333 0.833333 0.458333
0.375 0.833333 0.458333
0.416667 0.833333 0.458333
0.458333 0.833333 0.458333
0.5 0.833333 0.458333
0.541667 0.833333 0.458333
0.583333 0.833333 0.458333
0.625 0.833333 0.458333
0.666667 0.833333 0.458333
0.708333 0.833333 0.458333
0.75 0.833333 0.458333
0.791667 0.833333 0.458333
0.833333 0.833333 0.458333
0.875 0.833333 0.458333
0.916667 0.833333 0.458333
0.958333 0.833333 0.458333
1 0.833333 0.458333
0 0.875 0.458333
0.0416667 0.875 0.458333
0.0833333 0.875 0.458333
0.125 0.875 0.458333
0.166667 0.875 0.458333
0.208333 0.875 0.458333
0.25 0.875 0.458333
0.291667 0.875 0.458333
0.333333 0.875 0.458333
0.375 0.875 0.458333
0.416667 0.875 0.458333
0.458333 0.875 0.458333
0.5 0.875 0.458333
0.541667 0.875 0.458333
0.583333 0.875 0.458333
0.625 0.875 0.458333
0.666667 0.875 0.458333
0.708333 0.875 0.458333
0.75 0.875 0.458333
0.791667 0.875 0.458333
0.833333 0.875 0.458333
0.875 0.875 0.458333
0.916667 0.875 0.458333
0.958333 0.875 0.458333
1 0.875 0.458333
0 0.916667 0.458333
0.0416667 0.916667 0.458333
0.0833333 0.916667 0.458333
0.125 0.916667 0.458333
0.166667 0.916667 0.458333
0.208333 0.916667 0.458333
0.25 0.916667 0.458333
0.291667 0.916667 0.458333
0.333333 0.916667 0.458333
0.375 0.916667 0.458333
0.416667 0.916667 0.458333
0.458333 0.916667 0.458333
0.5 0.916667 0.458333
0.541667 0.916667 0.458333
0.583333 0.916667 0.458333
0.625 0.916667 0.458333
0.666667 0.916667 0.458333
0.708333 0.916667 0.458333
0.75 0.916667 0.458333
0.791667 0.916667 0.458333
0.833333 0.916667 0.458333
0.875 0.916667 0.458333
0.916667 0.916667 0.458333
0.958333 0.916667 0.458333
1 0.916667 0.458333
0 0.958333 0.458333
0.0416667 0.958333 0.458333
0.0833333 0.958333 0.458333
0.125 0.958333 0.458333
0.166667 0.958333 0.458333
0.208333 0.958333 0.458333
0.25 0.958333 0.458333
0.291667 0.958333 0.458333
0.333333 0.958333 0.458333
0.375 0.958333 0.458333
0.416667 0.958333 0.458333
0.458333 0.958333 0.458333
0.5 0.958333 0.458333
0.541667 0.958333 0.458333
0.583333 0.958333 0.458333
0.625 0.958333 0.458333
0.666667 0.958333 0.458333
0.708333 0.958333 0.458333
0.75 0.958333 0.458333
0.791667 0.958333 0.458333
0.833333 0.958333 0.458333
0.875 0.958333 0.458333
0.916667 0.958333 0.458333
0.958333 0.958333 0.458333
1 0.958333 0.458333
0 1 0.458333
0.0416667 1 0.458333
0.0833333 1 0.458333
0.125 1 0.458333
0.166667 1 0.458333
0.208333 1 0.458333
0.25 1 0.458333
0.291667 1 0.458333
0.333333 1 0.458333
0.375 1 0.458333
0.416667 1 0.458333
0.458333 1 0.458333
0.5 1 0.458333
0.541667 1 0.458333
0.583333 1 0.458333
0.625 1 0.458333
0.666667 1 0.458333
0.708333 1 0.458333
0.75 1 0.458333
0.791667 1 0.458333
0.833333 1 0.458333
0.875 1 0.458333
0.916667 1 0.458333
0.958333 1 0.458333
1 1 0.458333
0 0 0.5
0.0416667 0 0.5
0.0833333 0 0.5
0.125 0 0.5
0.166667 0 0.5
0.208333 0 0.5
0.25 0 0.5
0.291667 0 0.5
0.333333 0 0.5
0.375 0 0.5
0.416667 0 0.5
0.458333 0 0.5
0.5 0 0.5
0.541667 0 0.5
0.583333 0 0.5
0.625 0 0.5
0.666667 0 0.5
0.708333 0 0.5
0.75 0 0.5
0.791667 0 0.5
0.833333 0 0.5
0.875 0 0.5
0.916667 0 0.5
0.958333 0 0.5
1 0 0.5
0 0.0416667 0.5
0.0416667 0.0416667 0.5
0.0833333 0.0416667 0.5
0.125 0.0416667 0.5
0.166667 0.0416667 0.5
0.208333 0.0416667 0.5
0.25 0.0416667 0.5
0.291667 0.0416667 0.5
0.333333 0.0416667 0.5
0.375 0.0416667 0.5
0.416667 0.0416667 0.5
0.458333 0.0416667 0.5
0.5 0.0416667 0.5
0.541667 0.0416667 0.5
0.583333 0.0416667 0.5
0.625 0.0416667 0.5
0.666667 0.0416667 0.5
0.708333 0.0416667 0.5
0.75 0.0416667 0.5
0.791667 0.0416667 0.5
0.833333 0.0416667 0.5
0.875 0.0416667 0.5
0.916667 0.0416667 0.5
0.958333 0.0416667 0.5
1 0.0416667 0.5
0 0.0833333 0.5
0.0416667 0.0833333 0.5
0.0833333 0.0833333 0.5
0.125 0.0833333 0.5
0.166667 0.0833333 0.5
0.208333 0.0833333 0.5
0.25 0.0833333 0.5
0.291667 0.0833333 0.5
0.333333 0.0833333 0.5
0.375 0.0833333 0.5
0.416667 0.0833333 0.5
0.458333 0.0833333 0.5
0.5 0.0833333 0.5
0.541667 0.0833333 0.5
0.583333 0.0833333 0.5
0.625 0.0833333 0.5
0.666667 0.0833333 0.5
0.708333 0.0833333 0.5
0.75 0.0833333 0.5
0.791667 0.0833333 0.5
0.833333 0.0833333 0.5
0.875 0.0833333 0.5
0.916667 0.0833333 0.5
0.958333 0.0833333 0.5
1 0.0833333 0.5
0 0.125 0.5
0.0416667 0.125 0.5
0.0833333 0.125 0.5
0.125 0.125 0.5
0.166667 0.125 0.5
0.208333 0.125 0.5
0.25 0.125 0.5
0.291667 0.125 0.5
0.333333 0.125 0.5
0.375 0.125 0.5
0.416667 0.125 0.5
0.458333 0.125 0.5
0.5 0.125 0.5
0.541667 0.125 0.5
0.583333 0.125 0.5
0.625 0.125 0.5
0.666667 0.125 0.5
0.708333 0.125 0.5
0.75 0.125 0.5
0.791667 0.125 0.5
0.833333 0.125 0.5
0.875 0.125 0.5
0.916667 0.125 0.5
0.958333 0.125 0.5
1 0.125 0.5
0 0.166667 0.5
0.0416667 0.166667 0.5
0.0833333 0.166667 0.5
0.125 0.166667 0.5
0.166667 0.166667 0.5
0.208333 0.166667 0.5
0.25 0.166667 0.5
0.291667 0.166667 0.5
0.333333 0.166667 0.5
0.375 0.166667 0.5
0.416667 0.166667 0.5
0.458333 0.166667 0.5
0.5 0.166667 0.5
0.541667 0.166667 0.5
0.583333 0.166667 0.5
0.625 0.166667 0.5
0.666667 0.166667 0.5
0.708333 0.166667 0.5
0.75 0.166667 0.5
0.791667 0.166667 0.5
0.833333 0.166667 0.5
0.875 0.166667 0.5
0.916667 0.166667 0.5
0.958333 0.166667 0.5
1 0.166667 0.5
0 0.208333 0.5
0.0416667 0.208333 0.5
0.0833333 0.208333 0.5
0.125 0.208333 0.5
0.166667 0.208333 0.5
0.208333 0.208333 0.5
0.25 0.208333 0.5
0.291667 0.208333 0.5
0.333333 0.208333 0.5
0.375 0.208333 0.5
0.416667 0.208333 0.5
0.458333 0.208333 0.5
0.5 0.208333 0.5
0.541667 0.208333 0.5
0.583333 0.208333 0.5
0.625 0.208333 0.5
0.666667 0.208333 0.5
0.708333 0.208333 0.5
0.75 0.208333 0.5
0.791667 0.208333 0.5
0.833333 0.208333 0.5
0.875 0.208333 0.5
0.916667 0.208333 0.5
0.958333 0.208333 0.5
1 0.208333 0.5
0 0.25 0.5
0.0416667 0.25 0.5
0.0833333 0.25 0.5
0.125 0.25 0.5
0.166667 0.25 0.5
0.208333 0.25 0.5
0.25 0.25 0.5
0.291667 0.25 0.5
0.333333 0.25 0.5
0.375 0.25 0.5
0.416667 0.25 0.5
0.458333 0.25 0.5
0.5 0.25 0.5
0.541667 0.25 0.5
0.583333 0.25 0.5
0.625 0.25 0.5
0.666667 0.25 0.5
0.708333 0.25 0.5
0.75 0.25 0.5
0.791667 0.25 0.5
0.833333 0.25 0.5
0.875 0.25 0.5
0.916667 0.25 0.5
0.958333 0.25 0.5
1 0.25 0.5
0 0.291667 0.5
0.0416667 0.291667 0.5
0.0833333 0.291667 0.5
0.125 0.291667 0.5
0.166667 0.291667 0.5
0.208333 0.291667 0.5
0.25 0.291667 0.5
0.291667 0.291667 0.5
0.333333 0.291667 0.5
0.375 0.291667 0.5
0.416667 0.291667 0.5
0.458333 0.291667 0.5
0.5 0.291667 0.5
0.541667 0.291667 0.5
0.583333 0.291667 0.5
0.625 0.291667 0.5
0.666667 0.291667 0.5
0.708333 0.291667 0.5
0.75 0.291667 0.5
0.791667 0.291667 0.5
0.833333 0.291667 0.5
0.875 0.291667 0.5
0.916667 0.291667 0.5
0.958333 0.291667 0.5
1 0.291667 0.5
0 0.333333 0.5
0.0416667 0.333333 0.5
0.0833333 0.333333 0.5
0.125 0.333333 0.5
0.166667 0.333333 0.5
0.208333 0.333333 0.5
0.25 0.333333 0.5
0.291667 0.333333 0.5
0.333333 0.333333 0.5
0.375 0.333333 0.5
0.416667 0.333333 0.5
0.458333 0.333333 0.5
0.5 0.333333 0.5
0.541667 0.333333 0.5
0.583333 0.333333 0.5
0.625 0.333333 0.5
0.666667 0.333333 0.5
0.708333 0.333333 0.5
0.75 0.333333 0.5
0.791667 0.333333 0.5
0.833333 0.333333 0.5
0.875 0.333333 0.5
0.916667 0.333333 0.5
0.958333 0.333333 0.5
1 0.333333 0.5
0 0.375 0.5
0.0416667 0.375 0.5
0.0833333 0.375 0.5
0.125 0.375 0.5
0.166667 0.375 0.5
0.208333 0.375 0.5
0.25 0.375 0.5
0.291667 0.375 0.5
0.333333 0.375 0.5
0.375 0.375 0.5
0.416667 0.375 0.5
0.458333 0.375 0.5
0.5 0.375 0.5
0.541667 0.375 0.5
0.583333 0.375 0.5
0.625 0.375 0.5
0.666667 0.375 0.5
0.708333 0.375 0.5
0.75 0.375 0.5
0.791667 0.375 0.5
0.833333 0.375 0.5
0.875 0.375 0.5
0.916667 0.375 0.5
0.958333 0.375 0.5
1 0.375 0.5
0 0.416667 0.5
0.0416667 0.416667 0.5
0.0833333 0.416667 0.5
0.125 0.416667 0.5
0.166667 0.416667 0.5
0.208333 0.416667 0.5
0.25 0.416667 0.5
0.291667 0.416667 0.5
0.333333 0.416667 0.5
0.375 0.416667 0.5
0.416667 0.416667 0.5
0.458333 0.416667 0.5
0.5 0.416667 0.5
0.541667 0.416667 0.5
0.583333 0.416667 0.5
0.625 0.416667 0.5
0.666667 0.416667 0.5
0.708333 0.416667 0.5
0.75 0.416667 0.5
0.791667 0.416667 0.5
0.833333 0.416667 0.5
0.875 0.416667 0.5
0.916667 0.416667 0.5
0.958333 0.416667 0.5
1 0.416667 0.5
0 0.458333 0.5
0.0416667 0.458333 0.5
0.0833333 0.458333 0.5
0.125 0.458333 0.5
0.166667 0.458333 0.5
0.208333 0.458333 0.5
0.25 0.458333 0.5
0.291667 0.458333 0.5
0.333333 0.458333 0.5
0.375 0.458333 0.5
0.416667 0.458333 0.5
0.458333 0.458333 0.5
0.5 0.458333 0.5
0.541667 0.458333 0.5
0.583333 0.458333 0.5
0.625 0.458333 0.5
0.666667 0.458333 0.5
0.708333 0.458333 0.5
0.75 0.458333 0.5
0.791667 0.458333 0.5
0.833333 0.458333 0.5
0.875 0.458333 0.5
0.916667 0.458333 0.5
0.958333 0.458333 0.5
1 0.458333 0.5
0 0.5 0.5
0.0416667 0.5 0.5
0.0833333 0.5 0.5
0.125 0.5 0.5
0.166667 0.5 0.5
0.208333 0.5 0.5
0.25 0.5 0.5
0.291667 0.5 0.5
0.333333 0.5 0.5
0.375 0.5 0.5
0.416667 0.5 0.5
0.458333 0.5 0.5
0.5 0.5 0.5
0.541667 0.5 0.5
0.583333 0.5 0.5
0.625 0.5 0.5
0.666667 0.5 0.5
0.708333 0.5 0.5
0.75 0.5 0.5
0.791667 0.5 0.5
0.833333 0.5 0.5
0.875 0.5 0.5
0.916667 0.5 0.5
0.958333 0.5 0.5
1 0.5 0.5
0 0.541667 0.5
0.0416667 0.541667 0.5
0.0833333 0.541667 0.5
0.125 0.541667 0.5
0.166667 0.541667 0.5
0.208333 0.541667 0.5
0.25 0.541667 0.5
0.291667 0.541667 0.5
0.333333 0.541667 0.5
0.375 0.541667 0.5
0.416667 0.541667 0.5
0.458333 0.541667 0.5
0.5 0.541667 0.5
0.541667 0.541667 0.5
0.583333 0.541667 0.5
0.625 0.541667 0.5
0.666667 0.541667 0.5
0.708333 0.541667 0.5
0.75 0.541667 0.5
0.791667 0.541667 0.5
0.833333 0.541667 0.5
0.875 0.541667 0.5
0.916667 0.541667 0.5
0.958333 0.541667 0.5
1 0.541667 0.5
0 0.583333 0.5
0.0416667 0.583333 0.5
0.0833333 0.583333 0.5
0.125 0.583333 0.5
0.166667 0.583333 0.5
0.208333 0.583333 0.5
0.25 0.583333 0.5
0.291667 0.583333 0.5
0.333333 0.583333 0.5
0.375 0.583333 0.5
0.416667 0.583333 0.5
0.458333 0.583333 0.5
0.5 0.583333 0.5
0.541667 0.583333 0.5
0.583333 0.583333 0.5
0.625 0.583333 0.5
0.666667 0.583333 0.5
0.708333 0.583333 0.5
0.75 0.583333 0.5
0.791667 0.583333 0.5
0.833333 0.583333 0.5
0.875 0.583333 0.5
0.916667 0.583333 0.5
0.958333 0.583333 0.5
1 0.583333 0.5
0 0.625 0.5
0.0416667 0.625 0.5
0.0833333 0.625 0.5
0.125 0.625 0.5
0.166667 0.625 0.5
0.208333 0.625 0.5
0.25 0.625 0.5
0.291667 0.625 0.5
0.333333 0.625 0.5
0.375 0.625 0.5
0.416667 0.625 0.5
0.458333 0.625 0.5
0.5 0.625 0.5
0.541667 0.625 0.5
0.583333 0.625 0.5
0.625 0.625 0.5
0.666667 0.625 0.5
0.708333 0.625 0.5
0.75 0.625 0.5
0.791667 0.625 0.5
0.833333 0.625 0.5
0.875 0.625 0.5
0.916667 0.625 0.5
0.958333 0.625 0.5
1 0.625 0.5
0 0.666667 0.5
0.0416667 0.666667 0.5
0.0833333 0.666667 0.5
0.125 0.666667 0.5
0.166667 0.666667 0.5
0.208333 0.666667 0.5
0.25 0.666667 0.5
0.291667 0.666667 0.5
0.333333 0.666667 0.5
0.375 0.666667 0.5
0.416667 0.666667 0.5
0.458333 0.666667 0.5
0.5 0.666667 0.5
0.541667 0.666667 0.5
0.583333 0.666667 0.5
0.625 0.666667 0.5
0.666667 0.666667 0.5
0.708333 0.666667 0.5
0.75 0.666667 0.5
0.791667 0.666667 0.5
0.833333 0.666667 0.5
0.875 0.666667 0.5
0.916667 0.666667 0.5
0.958333 0.666667 0.5
1 0.666667 0.5
0 0.708333 0.5
0.0416667 0.708333 0.5
0.0833333 0.708333 0.5
0.125 0.708333 0.5
0.166667 0.708333 0.5
0.208333 0.708333 0.5
0.25 0.708333 0.5
0.291667 0.708333 0.5
0.333333 0.708333 0.5
0.375 0.708333 0.5
0.416667 0.708333 0.5
0.458333 0.708333 0.5
0.5 0.708333 0.5
0.541667 0.708333 0.5
0.583333 0.708333 0.5
0.625 0.708333 0.5
0.666667 0.708333 0.5
0.708333 0.708333 0.5
0.75 0.708333 0.5
0.791667 0.708333 0.5
0.833333 0.708333 0.5
0.875 0.708333 0.5
0.916667 0.708333 0.5
0.958333 0.708333 0.5
1 0.708333 0.5
0 0.75 0.5
0.0416667 0.75 0.5
0.0833333 0.75 0.5
0.125 0.75 0.5
0.166667 0.75 0.5
0.208333 0.75 0.5
0.25 0.75 0.5
0.291667 0.75 0.5
0.333333 0.75 0.5
0.375 0.75 0.5
0.416667 0.75 0.5
0.458333 0.75 0.5
0.5 0.75 0.5
0.541667 0.75 0.5
0.583333 0.75 0.5
0.625 0.75 0.5
0.666667 0.75 0.5
0.708333 0.75 0.5
0.75 0.75 0.5
0.791667 0.75 0.5
0.833333 0.75 0.5
0.875 0.75 0.5
0.916667 0.75 0.5
0.958333 0.75 0.5
1 0.75 0.5
0 0.791667 0.5
0.0416667 0.791667 0.5
0.0833333 0.791667 0.5
0.125 0.791667 0.5
0.166667 0.791667 0.5
0.208333 0.791667 0.5
0.25 0.791667 0.5
0.291667 0.791667 0.5
0.333333 0.791667 0.5
0.375 0.791667 0.5
0.416667 0.791667 0.5
0.458333 0.791667 0.5
0.5 0.791667 0.5
0.541667 0.791667 0.5
0.583333 0.791667 0.5
0.625 0.791667 0.5
0.666667 0.791667 0.5
0.708333 0.791667 0.5
0.75 0.791667 0.5
0.791667 0.791667 0.5
0.833333 0.791667 0.5
0.875 0.791667 0.5
0.916667 0.791667 0.5
0.958333 0.791667 0.5
1 0.791667 0.5
0 0.833333 0.5
0.0416667 0.833333 0.5
0.0833333 0.833333 0.5
0.125 0.833333 0.5
0.166667 0.833333 0.5
0.208333 0.833333 0.5
0.25 0.833333 0.5
0.291667 0.833333 0.5
0.333333 0.833333 0.5
0.375 0.833333 0.5
0.416667 0.833333 0.5
0.458333 0.833333 0.5
0.5 0.833333 0.5
0.541667 0.833333 0.5
0.583333 0.833333 0.5
0.625 0.833333 0.5
0.666667 0.833333 0.5
0.708333 0.833333 0.5
0.75 0.833333 0.5
0.791667 0.833333 0.5
0.833333 0.833333 0.5
0.875 0.833333 0.5
0.916667 0.833333 0.5
0.958333 0.833333 0.5
1 0.833333 0.5
0 0.875 0.5
0.0416667 0.875 0.5
0.0833333 0.875 0.5
0.125 0.875 0.5
0.166667 0.875 0.5
0.208333 0.875 0.5
0.25 0.875 0.5
0.291667 0.875 0.5
0.333333 0.875 0.5
0.375 0.875 0.5
0.416667 0.875 0.5
0.458333 0.875 0.5
0.5 0.875 0.5
0.541667 0.875 0.5
0.583333 0.875 0.5
0.625 0.875 0.5
0.666667 0.875 0.5
0.708333 0.875 0.5
0.75 0.875 0.5
0.791667 0.875 0.5
0.833333 0.875 0.5
0.875 0.875 0.5
0.916667 0.875 0.5
0.958333 0.875 0.5
1 0.875 0.5
0 0.916667 0.5
0.0416667 0.916667 0.5
0.0833333 0.916667 0.5
0.125 0.916667 0.5
0.166667 0.916667 0.5
0.208333 0.916667 0.5
0.25 0.916667 0.5
0.291667 0.916667 0.5
0.333333 0.916667 0.5
0.375 0.916667 0.5
0.416667 0.916667 0.5
0.458333 0.916667 0.5
0.5 0.916667 0.5
0.541667 0.916667 0.5
0.583333 0.916667 0.5
0.625 0.916667 0.5
0.666667 0.916667 0.5
0.708333 0.916667 0.5
0.75 0.916667 0.5
0.791667 0.916667 0.5
0.833333 0.916667 0.5
0.875 0.916667 0.5
0.916667 0.916667 0.5
0.958333 0.916667 0.5
1 0.916667 0.5
0 0.958333 0.5
0.0416667 0.958333 0.5
0.0833333 0.958333 0.5
0.125 0.958333 0.5
0.166667 0.958333 0.5
0.208333 0.958333 0.5
0.25 0.958333 0.5
0.291667 0.958333 0.5
0.333333 0.958333 0.5
0.375 0.958333 0.5
0.416667 0.958333 0.5
0.458333 0.958333 0.5
0.5 0.958333 0.5
0.541667 0.958333 0.5
0.583333 0.958333 0.5
0.625 0.958333 0.5
0.666667 0.958333 0.5
0.708333 0.958333 0.5
0.75 0.958333 0.5
0.791667 0.958333 0.5
0.833333 0.958333 0.5
0.875 0.958333 0.5
0.916667 0.958333 0.5
0.958333 0.958333 0.5
1 0.958333 0.5
0 1 0.5
0.0416667 1 0.5
0.0833333 1 0.5
0.125 1 0.5
0.166667 1 0.5
0.208333 1 0.5
0.25 1 0.5
0.291667 1 0.5
0.333333 1 0.5
0.375 1 0.5
0.416667 1 0.5
0.458333 1 0.5
0.5 1 0.5
0.541667 1 0.5
0.583333 1 0.5
0.625 1 0.5
0.666667 1 0.5
0.708333 1 0.5
0.75 1 0.5
0.791667 1 0.5
0.833333 1 0.5
0.875 1 0.5
0.916667 1 0.5
0.958333 1 0.5
1 1 0.5
0 0 0.541667
0.0416667 0 0.541667
0.0833333 0 0.541667
0.125 0 0.541667
0.166667 0 0.541667
0.208333 0 0.541667
0.25 0 0.541667
0.291667 0 0.541667
0.333333 0 0.541667
0.375 0 0.541667
0.416667 0 0.541667
0.458333 0 0.541667
0.5 0 0.541667
0.541667 0 0.541667
0.583333 0 0.541667
0.625 0 0.541667
0.666667 0 0.541667
0.708333 0 0.541667
0.75 0 0.541667
0.791667 0 0.541667
0.833333 0 0.541667
0.875 0 0.541667
0.916667 0 0.541667
0.958333 0 0.541667
1 0 0.541667
0 0.0416667 0.541667
0.0416667 0.0416667 0.541667
0.0833333 0.0416667 0.541667
0.125 0.0416667 0.541667
0.166667 0.0416667 0.541667
0.208333 0.0416667 0.541667
0.25 0.0416667 0.541667
0.291667 0.0416667 0.541667
0.333333 0.0416667 0.541667
0.375 0.0416667 0.541667
0.416667 0.0416667 0.541667
0.458333 0.0416667 0.541667
0.5 0.0416667 0.541667
0.541667 0.0416667 0.541667
0.583333 0.0416667 0.541667
0.625 0.0416667 0.541667
0.666667 0.0416667 0.541667
0.708333 0.0416667 0.541667
0.75 0.0416667 0.541667
0.791667 0.0416667 0.541667
0.833333 0.0416667 0.541667
0.875 0.0416667 0.541667
0.916667 0.0416667 0.541667
0.958333 0.0416667 0.541667
1 0.0416667 0.541667
0 0.0833333 0.541667
0.0416667 0.0833333 0.541667
0.0833333 0.0833333 0.541667
0.125 0.0833333 0.541667
0.166667 0.0833333 0.541667
0.208333 0.0833333 0.541667
0.25 0.0833333 0.541667
0.291667 0.0833333 0.541667
0.333333 0.0833333 0.541667
0.375 0.0833333 0.541667
0.416667 0.0833333 0.541667
0.458333 0.0833333 0.541667
0.5 0.0833333 0.541667
0.541667 0.0833333 0.541667
0.583333 0.0833333 0.541667
0.625 0.0833333 0.541667
0.666667 0.0833333 0.541667
0.708333 0.0833333 0.541667
0.75 0.0833333 0.541667
0.791667 0.0833333 0.541667
0.833333 0.0833333 0.541667
0.875 0.0833333 0.541667
0.916667 0.0833333 0.541667
0.958333 0.0833333 0.541667
1 0.0833333 0.541667
0 0.125 0.541667
0.0416667 0.125 0.541667
0.0833333 0.125 0.541667
0.125 0.125 0.541667
0.166667 0.125 0.541667
0.208333 0.125 0.541667
0.25 0.125 0.541667
0.291667 0.125 0.541667
0.333333 0.125 0.541667
0.375 0.125 0.541667
0.416667 0.125 0.541667
0.458333 0.125 0.541667
0.5 0.125 0.541667
0.541667 0.125 0.541667
0.583333 0.125 0.541667
0.625 0.125 0.541667
0.666667 0.125 0.541667
0.708333 0.125 0.541667
0.75 0.125 0.541667
0.791667 0.125 0.541667
0.833333 0.125 0.541667
0.875 0.125 0.541667
0.916667 0.125 0.541667
0.958333 0.125 0.541667
1 0.125 0.541667
0 0.166667 0.541667
0.0416667 0.166667 0.541667
0.0833333 0.166667 0.541667
0.125 0.166667 0.541667
0.166667 0.166667 0.541667
0.208333 0.166667 0.541667
0.25 0.166667 0.541667
0.291667 0.166667 0.541667
0.333333 0.166667 0.541667
0.375 0.166667 0.541667
0.416667 0.166667 0.541667
0.458333 0.166667 0.541667
0.5 0.166667 0.541667
0.541667 0.166667 0.541667
0.583333 0.166667 0.541667
0.625 0.166667 0.541667
0.666667 0.166667 0.541667
0.708333 0.166667 0.541667
0.75 0.166667 0.541667
0.791667 0.166667 0.541667
0.833333 0.166667 0.541667
0.875 0.166667 0.541667
0.916667 0.166667 0.541667
0.958333 0.166667 0.541667
1 0.166667 0.541667
0 0.208333 0.541667
0.0416667 0.208333 0.541667
0.0833333 0.208333 0.541667
0.125 0.208333 0.541667
0.166667 0.208333 0.541667
0.208333 0.208333 0.541667
0.25 0.208333 0.541667
0.291667 0.208333 0.541667
0.333333 0.208333 0.541667
0.375 0.208333 0.541667
0.416667 0.208333 0.541667
0.458333 0.208333 0.541667
0.5 0.208333 0.541667
0.541667 0.208333 0.541667
0.583333 0.208333 0.541667
0.625 0.208333 0.541667
0.666667 0.208333 0.541667
0.708333 0.208333 0.541667
0.75 0.208333 0.541667
0.791667 0.208333 0.541667
0.833333 0.208333 0.541667
0.875 0.208333 0.541667
0.916667 0.208333 0.541667
0.958333 0.208333 0.541667
1 0.208333 0.541667
0 0.25 0.541667
0.0416667 0.25 0.541667
0.0833333 0.25 0.541667
0.125 0.25 0.541667
0.166667 0.25 0.541667
0.208333 0.25 0.541667
0.25 0.25 0.541667
0.291667 0.25 0.541667
0.333333 0.25 0.541667
0.375 0.25 0.541667
0.416667 0.25 0.541667
0.458333 0.25 0.541667
0.5 0.25 0.541667
0.541667 0.25 0.541667
0.583333 0.25 0.541667
0.625 0.25 0.541667
0.666667 0.25 0.541667
0.708333 0.25 0.541667
0.75 0.25 0.541667
0.791667 0.25 0.541667
0.833333 0.25 0.541667
0.875 0.25 0.541667
0.916667 0.25 0.541667
0.958333 0.25 0.541667
1 0.25 0.541667
0 0.291667 0.541667
0.0416667 0.291667 0.541667
0.0833333 0.291667 0.541667
0.125 0.291667 0.541667
0.166667 0.291667 0.541667
0.208333 0.291667 0.541667
0.25 0.291667 0.541667
0.291667 0.291667 0.541667
0.333333 0.291667 0.541667
0.375 0.291667 0.541667
0.416667 0.291667 0.541667
0.458333 0.291667 0.541667
0.5 0.291667 0.541667
0.541667 0.291667 0.541667
0.583333 0.291667 0.541667
0.625 0.291667 0.541667
0.666667 0.291667 0.541667
0.708333 0.291667 0.541667
0.75 0.291667 0.541667
0.791667 0.291667 0.541667
0.833333 0.291667 0.541667
0.875 0.291667 0.541667
0.916667 0.291667 0.541667
0.958333 0.291667 0.541667
1 0.291667 0.541667
0 0.333333 0.541667
0.0416667 0.333333 0.541667
0.0833333 0.333333 0.541667
0.125 0.333333 0.541667
0.166667 0.333333 0.541667
0.208333 0.333333 0.541667
0.25 0.333333 0.541667
0.291667 0.333333 0.541667
0.333333 0.333333 0.541667
0.375 0.333333 0.541667
0.416667 0.333333 0.541667
0.458333 0.333333 0.541667
0.5 0.333333 0.541667
0.541667 0.333333 0.541667
0.583333 0.333333 0.541667
0.625 0.333333 0.541667
0.666667 0.333333 0.541667
0.708333 0.333333 0.541667
0.75 0.333333 0.541667
0.791667 0.333333 0.541667
0.833333 0.333333 0.541667
0.875 0.333333 0.541667
0.916667 0.333333 0.541667
0.958333 0.333333 0.541667
1 0.333333 0.541667
0 0.375 0.541667
0.0416667 0.375 0.541667
0.0833333 0.375 0.541667
0.125 0.375 0.541667
0.166667 0.375 0.541667
0.208333 0.375 0.541667
0.25 0.375 0.541667
0.291667 0.375 0.541667
0.333333 0.375 0.541667
0.375 0.375 0.541667
0.416667 0.375 0.541667
0.458333 0.375 0.541667
0.5 0.375 0.541667
0.541667 0.375 0.541667
0.583333 0.375 0.541667
0.625 0.375 0.541667
0.666667 0.375 0.541667
0.708333 0.375 0.541667
0.75 0.375 0.541667
0.791667 0.375 0.541667
0.833333 0.375 0.541667
0.875 0.375 0.541667
0.916667 0.375 0.541667
0.958333 0.375 0.541667
1 0.375 0.541667
0 0.416667 0.541667
0.0416667 0.416667 0.541667
0.0833333 0.416667 0.541667
0.125 0.416667 0.541667
0.166667 0.416667 0.541667
0.208333 0.416667 0.541667
0.25 0.416667 0.541667
0.291667 0.416667 0.541667
0.333333 0.416667 0.541667
0.375 0.416667 0.541667
0.416667 0.416667 0.541667
0.458333 0.416667 0.541667
0.5 0.416667 0.541667
0.541667 0.416667 0.541667
0.583333 0.416667 0.541667
0.625 0.416667 0.541667
0.666667 0.416667 0.541667
0.708333 0.416667 0.541667
0.75 0.416667 0.541667
0.791667 0.416667 0.541667
0.833333 0.416667 0.541667
0.875 0.416667 0.541667
0.916667 0.416667 0.541667
0.958333 0.416667 0.541667
1 0.416667 0.541667
0 0.458333 0.541667
0.0416667 0.458333 0.541667
0.0833333 0.458333 0.541667
0.125 0.458333 0.541667
0.166667 0.458333 0.541667
0.208333 0.458333 0.541667
0.25 0.458333 0.541667
0.291667 0.458333 0.541667
0.333333 0.458333 0.541667
0.375 0.458333 0.541667
0.416667 0.458333 0.541667
0.458333 0.458333 0.541667
0.5 0.458333 0.541667
0.541667 0.458333 0.541667
0.583333 0.458333 0.541667
0.625 0.458333 0.541667
0.666667 0.458333 0.541667
0.708333 0.458333 0.541667
0.75 0.458333 0.541667
0.791667 0.458333 0.541667
0.833333 0.458333 0.541667
0.875 0.458333 0.541667
0.916667 0.458333 0.541667
0.958333 0.458333 0.541667
1 0.458333 0.541667
0 0.5 0.541667
0.0416667 0.5 0.541667
0.0833333 0.5 0.541667
0.125 0.5 0.541667
0.166667 0.5 0.541667
0.208333 0.5 0.541667
0.25 0.5 0.541667
0.291667 0.5 0.541667
0.333333 0.5 0.541667
0.375 0.5 0.541667
0.416667 0.5 0.541667
0.458333 0.5 0.541667
0.5 0.5 0.541667
0.541667 0.5 0.541667
0.583333 0.5 0.541667
0.625 0.5 0.541667
0.666667 0.5 0.541667
0.708333 0.5 0.541667
0.75 0.5 0.541667
0.791667 0.5 0.541667
0.833333 0.5 0.541667
0.875 0.5 0.541667
0.916667 0.5 0.541667
0.958333 0.5 0.541667
1 0.5 0.541667
0 0.541667 0.541667
0.0416667 0.541667 0.541667
0.0833333 0.541667 0.541667
0.125 0.541667 0.541667
0.166667 0.541667 0.541667
0.208333 0.541667 0.541667
0.25 0.541667 0.541667
0.291667 0.541667 0.541667
0.333333 0.541667 0.541667
0.375 0.541667 0.541667
0.416667 0.541667 0.541667
0.458333 0.541667 0.541667
0.5 0.541667 0.541667
0.541667 0.541667 0.541667
0.583333 0.541667 0.541667
0.625 0.541667 0.541667
0.666667 0.541667 0.541667
0.708333 0.541667 0.541667
0.75 0.541667 0.541667
0.791667 0.541667 0.541667
0.833333 0.541667 0.541667
0.875 0.541667 0.541667
0.916667 0.541667 0.541667
0.958333 0.541667 0.541667
1 0.541667 0.541667
0 0.583333 0.541667
0.0416667 0.583333 0.541667
0.0833333 0.583333 0.541667
0.125 0.583333 0.541667
0.166667 0.583333 0.541667
0.208333 0.583333 0.541667
0.25 0.583333 0.541667
0.291667 0.583333 0.541667
0.333333 0.583333 0.541667
0.375 0.583333 0.541667
0.416667 0.583333 0.541667
0.458333 0.583333 0.541667
0.5 0.583333 0.541667
0.541667 0.583333 0.541667
0.583333 0.583333 0.541667
0.625 0.583333 0.541667
0.666667 0.583333 0.541667
0.708333 0.583333 0.541667
0.75 0.583333 0.541667
0.791667 0.583333 0.541667
0.833333 0.583333 0.541667
0.875 0.583333 0.541667
0.916667 0.583333 0.541667
0.958333 0.583333 0.541667
1 0.583333 0.541667
0 0.625 0.541667
0.0416667 0.625 0.541667
0.0833333 0.625 0.541667
0.125 0.625 0.541667
0.166667 0.625 0.541667
0.208333 0.625 0.541667
0.25 0.625 0.541667
0.291667 0.625 0.541667
0.333333 0.625 0.541667
0.375 0.625 0.541667
0.416667 0.625 0.541667
0.458333 0.625 0.541667
0.5 0.625 0.541667
0.541667 0.625 0.541667
0.583333 0.625 0.541667
0.625 0.625 0.541667
0.666667 0.625 0.541667
0.708333 0.625 0.541667
0.75 0.625 0.541667
0.791667 0.625 0.541667
0.833333 0.625 0.541667
0.875 0.625 0.541667
0.916667 0.625 0.541667
0.958333 0.625 0.541667
1 0.625 0.541667
0 0.666667 0.541667
0.0416667 0.666667 0.541667
0.0833333 0.666667 0.541667
0.125 0.666667 0.541667
0.166667 0.666667 0.541667
0.208333 0.666667 0.541667
0.25 0.666667 0.541667
0.291667 0.666667 0.541667
0.333333 0.666667 0.541667
0.375 0.666667 0.541667
0.416667 0.666667 0.541667
0.458333 0.666667 0.541667
0.5 0.666667 0.541667
0.541667 0.666667 0.541667
0.583333 0.666667 0.541667
0.625 0.666667 0.541667
0.666667 0.666667 0.541667
0.708333 0.666667 0.541667
0.75 0.666667 0.541667
0.791667 0.666667 0.541667
0.833333 0.666667 0.541667
0.875 0.666667 0.541667
0.916667 0.666667 0.541667
0.958333 0.666667 0.541667
1 0.666667 0.541667
0 0.708333 0.541667
0.0416667 0.708333 0.541667
0.0833333 0.708333 0.541667
0.125 0.708333 0.541667
0.166667 0.708333 0.541667
0.208333 0.708333 0.541667
0.25 0.708333 0.541667
0.291667 0.708333 0.541667
0.333333 0.708333 0.541667
0.375 0.708333 0.541667
0.416667 0.708333 0.541667
0.458333 0.708333 0.541667
0.5 0.708333 0.541667
0.541667 0.708333 0.541667
0.583333 0.708333 0.541667
0.625 0.708333 0.541667
0.666667 0.708333 0.541667
0.708333 0.708333 0.541667
0.75 0.708333 0.541667
0.791667 0.708333 0.541667
0.833333 0.708333 0.541667
0.875 0.708333 0.541667
0.916667 0.708333 0.541667
0.958333 0.708333 0.541667
1 0.708333 0.541667
0 0.75 0.541667
0.0416667 0.75 0.541667
0.0833333 0.75 0.541667
0.125 0.75 0.541667
0.166667 0.75 0.541667
0.208333 0.75 0.541667
0.25 0.75 0.541667
0.291667 0.75 0.541667
0.333333 0.75 0.541667
0.375 0.75 0.541667
0.416667 0.75 0.541667
0.458333 0.75 0.541667
0.5 0.75 0.541667
0.541667 0.75 0.541667
0.583333 0.75 0.541667
0.625 0.75 0.541667
0.666667 0.75 0.541667
0.708333 0.75 0.541667
0.75 0.75 0.541667
0.791667 0.75 0.541667
0.833333 0.75 0.541667
0.875 0.75 0.541667
0.916667 0.75 0.541667
0.958333 0.75 0.541667
1 0.75 0.541667
0 0.791667 0.541667
0.0416667 0.791667 0.541667
0.0833333 0.791667 0.541667
0.125 0.791667 0.541667
0.166667 0.791667 0.541667
0.208333 0.791667 0.541667
0.25 0.791667 0.541667
0.291667 0.791667 0.541667
0.333333 0.791667 0.541667
0.375 0.791667 0.541667
0.416667 0.791667 0.541667
0.458333 0.791667 0.541667
0.5 0.791667 0.541667
0.541667 0.791667 0.541667
0.583333 0.791667 0.541667
0.625 0.791667 0.541667
0.666667 0.791667 0.541667
0.708333 0.791667 0.541667
0.75 0.791667 0.541667
0.791667 0.791667 0.541667
0.833333 0.791667 0.541667
0.875 0.791667 0.541667
0.916667 0.791667 0.541667
0.958333 0.791667 0.541667
1 0.791667 0.541667
0 0.833333 0.541667
0.0416667 0.833333 0.541667
0.0833333 0.833333 0.541667
0.125 0.833333 0.541667
0.166667 0.833333 0.541667
0.208333 0.833333 0.541667
0.25 0.833333 0.541667
0.291667 0.833333 0.541667
0.333333 0.833333 0.541667
0.375 0.833333 0.541667
0.416667 0.833333 0.541667
0.458333 0.833333 0.541667
0.5 0.833333 0.541667
0.541667 0.833333 0.541667
0.583333 0.833333 0.541667
0.625 0.833333 0.541667
0.666667 0.833333 0.541667
0.708333 0.833333 0.541667
0.75 0.833333 0.541667
0.791667 0.833333 0.541667
0.833333 0.833333 0.541667
0.875 0.833333 0.541667
0.916667 0.833333 0.541667
0.958333 0.833333 0.541667
1 0.833333 0.541667
0 0.875 0.541667
0.0416667 0.875 0.541667
0.0833333 0.875 0.541667
0.125 0.875 0.541667
0.166667 0.875 0.541667
0.208333 0.875 0.541667
0.25 0.875 0.541667
0.291667 0.875 0.541667
0.333333 0.875 0.541667
0.375 0.875 0.541667
0.416667 0.875 0.541667
0.458333 0.875 0.541667
0.5 0.875 0.541667
0.541667 0.875 0.541667
0.583333 0.875 0.541667
0.625 0.875 0.541667
0.666667 0.875 0.541667
0.708333 0.875 0.541667
0.75 0.875 0.541667
0.791667 0.875 0.541667
0.833333 0.875 0.541667
0.875 0.875 0.541667
0.916667 0.875 0.541667
0.958333 0.875 0.541667
1 0.875 0.541667
0 0.916667 0.541667
0.0416667 0.916667 0.541667
0.0833333 0.916667 0.541667
0.125 0.916667 0.541667
0.166667 0.916667 0.541667
0.208333 0.916667 0.541667
0.25 0.916667 0.541667
0.291667 0.916667 0.541667
0.333333 0.916667 0.541667
0.375 0.916667 0.541667
0.416667 0.916667 0.541667
0.458333 0.916667 0.541667
0.5 0.916667 0.541667
0.541667 0.916667 0.541667
0.583333 0.916667 0.541667
0.625 0.916667 0.541667
0.666667 0.916667 0.541667
0.708333 0.916667 0.541667
0.75 0.916667 0.541667
0.791667 0.916667 0.541667
0.833333 0.916667 0.541667
0.875 0.916667 0.541667
0.916667 0.916667 0.541667
0.958333 0.916667 0.541667
1 0.916667 0.541667
0 0.958333 0.541667
0.0416667 0.958333 0.541667
0.0833333 0.958333 0.541667
0.125 0.958333 0.541667
0.166667 0.958333 0.541667
0.208333 0.958333 0.541667
0.25 0.958333 0.541667
0.291667 0.958333 0.541667
0.333333 0.958333 0.541667
0.375 0.958333 0.541667
0.416667 0.958333 0.541667
0.458333 0.958333 0.541667
0.5 0.958333 0.541667
0.541667 0.958333 0.541667
0.583333 0.958333 0.541667
0.625 0.958333 0.541667
0.666667 0.958333 0.541667
0.708333 0.958333 0.541667
0.75 0.958333 0.541667
0.791667 0.958333 0.541667
0.833333 0.958333 0.541667
0.875 0.958333 0.541667
0.916667 0.958333 0.541667
0.958333 0.958333 0.541667
1 0.958333 0.541667
0 1 0.541667
0.0416667 1 0.541667
0.0833333 1 0.541667
0.125 1 0.541667
0.166667 1 0.541667
0.208333 1 0.541667
0.25 1 0.541667
0.291667 1 0.541667
0.333333 1 0.541667
0.375 1 0.541667
0.416667 1 0.541667
0.458333 1 0.541667
0.5 1 0.541667
0.541667 1 0.541667
0.583333 1 0.541667
0.625 1 0.541667
0.666667 1 0.541667
0.708333 1 0.541667
0.75 1 0.541667
0.791667 1 0.541667
0.833333 1 0.541667
0.875 1 0.541667
0.916667 1 0.541667
0.958333 1 0.541667
1 1 0.541667
0 0 0.583333
0.0416667 0 0.583333
0.0833333 0 0.583333
0.125 0 0.583333
0.166667 0 0.583333
0.208333 0 0.583333
0.25 0 0.583333
0.291667 0 0.583333
0.333333 0 0.583333
0.375 0 0.583333
0.416667 0 0.583333
0.458333 0 0.583333
0.5 0 0.583333
0.541667 0 0.583333
0.583333 0 0.583333
0.625 0 0.583333
0.666667 0 0.583333
0.708333 0 0.583333
0.75 0 0.583333
0.791667 0 0.583333
0.833333 0 0.583333
0.875 0 0.583333
0.916667 0 0.583333
0.958333 0 0.583333
1 0 0.583333
0 0.0416667 0.583333
0.0416667 0.0416667 0.583333
0.0833333 0.0416667 0.583333
0.125 0.0416667 0.583333
0.166667 0.0416667 0.583333
0.208333 0.0416667 0.583333
0.25 0.0416667 0.583333
0.291667 0.0416667 0.583333
0.333333 0.0416667 0.583333
0.375 0.0416667 0.583333
0.416667 0.0416667 0.583333
0.458333 0.0416667 0.583333
0.5 0.0416667 0.583333
0.541667 0.0416667 0.583333
0.583333 0.0416667 0.583333
0.625 0.0416667 0.583333
0.666667 0.0416667 0.583333
0.708333 0.0416667 0.583333
0.75 0.0416667 0.583333
0.791667 0.0416667 0.583333
0.833333 0.0416667 0.583333
0.875 0.0416667 0.583333
0.916667 0.0416667 0.583333
0.958333 0.0416667 0.583333
1 0.0416667 0.583333
0 0.0833333 0.583333
0.0416667 0.0833333 0.583333
0.0833333 0.0833333 0.583333
0.125 0.0833333 0.583333
0.166667 0.0833333 0.583333
0.208333 0.0833333 0.583333
0.25 0.0833333 0.583333
0.291667 0.0833333 0.583333
0.333333 0.0833333 0.583333
0.375 0.0833333 0.583333
0.416667 0.0833333 0.583333
0.458333 0.0833333 0.583333
0.5 0.0833333 0.583333
0.541667 0.0833333 0.583333
0.583333 0.0833333 0.583333
0.625 0.0833333 0.583333
0.666667 0.0833333 0.583333
0.708333 0.0833333 0.583333
0.75 0.0833333 0.583333
0.791667 0.0833333 0.583333
0.833333 0.0833333 0.583333
0.875 0.0833333 0.583333
0.916667 0.0833333 0.583333
0.958333 0.0833333 0.583333
1 0.0833333 0.583333
0 0.125 0.583333
0.0416667 0.125 0.583333
0.0833333 0.125 0.583333
0.125 0.125 0.583333
0.166667 0.125 0.583333
0.208333 0.125 0.583333
0.25 0.125 0.583333
0.291667 0.125 0.583333
0.333333 0.125 0.583333
0.375 0.125 0.583333
0.416667 0.125 0.583333
0.458333 0.125 0.583333
0.5 0.125 0.583333
0.541667 0.125 0.583333
0.583333 0.125 0.583333
0.625 0.125 0.583333
0.666667 0.125 0.583333
0.708333 0.125 0.583333
0.75 0.125 0.583333
0.791667 0.125 0.583333
0.833333 0.125 0.583333
0.875 0.125 0.583333
0.916667 0.125 0.583333
0.958333 0.125 0.583333
1 0.125 0.583333
0 0.166667 0.583333
0.0416667 0.166667 0.583333
0.0833333 0.166667 0.583333
0.125 0.166667 0.583333
0.166667 0.166667 0.583333
0.208333 0.166667 0.583333
0.25 0.166667 0.583333
0.291667 0.166667 0.583333
0.333333 0.166667 0.583333
0.375 0.166667 0.583333
0.416667 0.166667 0.583333
0.458333 0.166667 0.583333
0.5 0.166667 0.583333
0.541667 0.166667 0.583333
0.583333 0.166667 0.583333
0.625 0.166667 0.583333
0.666667 0.166667 0.583333
0.708333 0.166667 0.583333
0.75 0.166667 0.583333
0.791667 0.166667 0.583333
0.833333 0.166667 0.583333
0.875 0.166667 0.583333
0.916667 0.166667 0.583333
0.958333 0.166667 0.583333
1 0.166667 0.583333
0 0.208333 0.583333
0.0416667 0.208333 0.583333
0.0833333 0.208333 0.583333
0.125 0.208333 0.583333
0.166667 0.208333 0.583333
0.208333 0.208333 0.583333
0.25 0.208333 0.583333
0.291667 0.208333 0.583333
0.333333 0.208333 0.583333
0.375 0.208333 0.583333
0.416667 0.208333 0.583333
0.458333 0.208333 0.583333
0.5 0.208333 0.583333
0.541667 0.208333 0.583333
0.583333 0.208333 0.583333
0.625 0.208333 0.583333
0.666667 0.208333 0.583333
0.708333 0.208333 0.583333
0.75 0.208333 0.583333
0.791667 0.208333 0.583333
0.833333 0.208333 0.583333
0.875 0.208333 0.583333
0.916667 0.208333 0.583333
0.958333 0.208333 0.583333
1 0.208333 0.583333
0 0.25 0.583333
0.0416667 0.25 0.583333
0.0833333 0.25 0.583333
0.125 0.25 0.583333
0.166667 0.25 0.583333
0.208333 0.25 0.583333
0.25 0.25 0.583333
0.291667 0.25 0.583333
0.333333 0.25 0.583333
0.375 0.25 0.583333
0.416667 0.25 0.583333
0.458333 0.25 0.583333
0.5 0.25 0.583333
0.541667 0.25 0.583333
0.583333 0.25 0.583333
0.625 0.25 0.583333
0.666667 0.25 0.583333
0.708333 0.25 0.583333
0.75 0.25 0.583333
0.791667 0.25 0.583333
0.833333 0.25 0.583333
0.875 0.25 0.583333
0.916667 0.25 0.583333
0.958333 0.25 0.583333
1 0.25 0.583333
0 0.291667 0.583333
0.0416667 0.291667 0.583333
0.0833333 0.291667 0.583333
0.125 0.291667 0.583333
0.166667 0.291667 0.583333
0.208333 0.291667 0.583333
0.25 0.291667 0.583333
0.291667 0.291667 0.583333
0.333333 0.291667 0.583333
0.375 0.291667 0.583333
0.416667 0.291667 0.583333
0.458333 0.291667 0.583333
0.5 0.291667 0.583333
0.541667 0.291667 0.583333
0.583333 0.291667 0.583333
0.625 0.291667 0.583333
0.666667 0.291667 0.583333
0.708333 0.291667 0.583333
0.75 0.291667 0.583333
0.791667 0.291667 0.583333
0.833333 0.291667 0.583333
0.875 0.291667 0.583333
0.916667 0.291667 0.583333
0.958333 0.291667 0.583333
1 0.291667 0.583333
0 0.333333 0.583333
0.0416667 0.333333 0.583333
0.0833333 0.333333 0.583333
0.125 0.333333 0.583333
0.166667 0.333333 0.583333
0.208333 0.333333 0.583333
0.25 0.333333 0.583333
0.291667 0.333333 0.583333
0.333333 0.333333 0.583333
0.375 0.333333 0.583333
0.416667 0.333333 0.583333
0.458333 0.333333 0.583333
0.5 0.333333 0.583333
0.541667 0.333333 0.583333
0.583333 0.333333 0.583333
0.625 0.333333 0.583333
0.666667 0.333333 0.583333
0.708333 0.333333 0.583333
0.75 0.333333 0.583333
0.791667 0.333333 0.583333
0.833333 0.333333 0.583333
0.875 0.333333 0.583333
0.916667 0.333333 0.583333
0.958333 0.333333 0.583333
1 0.333333 0.583333
0 0.375 0.583333
0.0416667 0.375 0.583333
0.0833333 0.375 0.583333
0.125 0.375 0.583333
0.166667 0.375 0.583333
0.208333 0.375 0.583333
0.25 0.375 0.583333
0.291667 0.375 0.583333
0.333333 0.375 0.583333
0.375 0.375 0.583333
0.416667 0.375 0.583333
0.458333 0.375 0.583333
0.5 0.375 0.583333
0.541667 0.375 0.583333
0.583333 0.375 0.583333
0.625 0.375 0.583333
0.666667 0.375 0.583333
0.708333 0.375 0.583333
0.75 0.375 0.583333
0.791667 0.375 0.583333
0.833333 0.375 0.583333
0.875 0.375 0.583333
0.916667 0.375 0.583333
0.958333 0.375 0.583333
1 0.375 0.583333
0 0.416667 0.583333
0.0416667 0.416667 0.583333
0.0833333 0.416667 0.583333
0.125 0.416667 0.583333
0.166667 0.416667 0.583333
0.208333 0.416667 0.583333
0.25 0.416667 0.583333
0.291667 0.416667 0.583333
0.333333 0.416667 0.583333
0.375 0.416667 0.583333
0.416667 0.416667 0.583333
0.458333 0.416667 0.583333
0.5 0.416667 0.583333
0.541667 0.416667 0.583333
0.583333 0.416667 0.583333
0.625 0.416667 0.583333
0.666667 0.416667 0.583333
0.708333 0.416667 0.583333
0.75 0.416667 0.583333
0.791667 0.416667 0.583333
0.833333 0.416667 0.583333
0.875 0.416667 0.583333
0.916667 0.416667 0.583333
0.958333 0.416667 0.583333
1 0.416667 0.583333
0 0.458333 0.583333
0.0416667 0.458333 0.583333
0.0833333 0.458333 0.583333
0.125 0.458333 0.583333
0.166667 0.458333 0.583333
0.208333 0.458333 0.583333
0.25 0.458333 0.583333
0.291667 0.458333 0.583333
0.333333 0.458333 0.583333
0.375 0.458333 0.583333
0.416667 0.458333 0.583333
0.458333 0.458333 0.583333
0.5 0.458333 0.583333
0.541667 0.458333 0.583333
0.583333 0.458333 0.583333
0.625 0.458333 0.583333
0.666667 0.458333 0.583333
0.708333 0.458333 0.583333
0.75 0.458333 0.583333
0.791667 0.458333 0.583333
0.833333 0.458333 0.583333
0.875 0.458333 0.583333
0.916667 0.458333 0.583333
0.958333 0.458333 0.583333
1 0.458333 0.583333
0 0.5 0.583333
0.0416667 0.5 0.583333
0.0833333 0.5 0.583333
0.125 0.5 0.583333
0.166667 0.5 0.583333
0.208333 0.5 0.583333
0.25 0.5 0.583333
0.291667 0.5 0.583333
0.333333 0.5 0.583333
0.375 0.5 0.583333
0.416667 0.5 0.583333
0.458333 0.5 0.583333
0.5 0.5 0.583333
0.541667 0.5 0.583333
0.583333 0.5 0.583333
0.625 0.5 0.583333
0.666667 0.5 0.583333
0.708333 0.5 0.583333
0.75 0.5 0.583333
0.791667 0.5 0.583333
0.833333 0.5 0.583333
0.875 0.5 0.583333
0.916667 0.5 0.583333
0.958333 0.5 0.583333
1 0.5 0.583333
0 0.541667 0.583333
0.0416667 0.541667 0.583333
0.0833333 0.541667 0.583333
0.125 0.541667 0.583333
0.166667 0.541667 0.583333
0.208333 0.541667 0.583333
0.25 0.541667 0.583333
0.291667 0.541667 0.583333
0.333333 0.541667 0.583333
0.375 0.541667 0.583333
0.416667 0.541667 0.583333
0.458333 0.541667 0.583333
0.5 0.541667 0.583333
0.541667 0.541667 0.583333
0.583333 0.541667 0.583333
0.625 0.541667 0.583333
0.666667 0.541667 0.583333
0.708333 0.541667 0.583333
0.75 0.541667 0.583333
0.791667 0.541667 0.583333
0.833333 0.541667 0.583333
0.875 0.541667 0.583333
0.916667 0.541667 0.583333
0.958333 0.541667 0.583333
1 0.541667 0.583333
0 0.583333 0.583333
0.0416667 0.583333 0.583333
0.0833333 0.583333 0.583333
0.125 0.583333 0.583333
0.166667 0.583333 0.583333
0.208333 0.583333 0.583333
0.25 0.583333 0.583333
0.291667 0.583333 0.583333
0.333333 0.583333 0.583333
0.375 0.583333 0.583333
0.416667 0.583333 0.583333
0.458333 0.583333 0.583333
0.5 0.583333 0.583333
0.541667 0.583333 0.583333
0.583333 0.583333 0.583333
0.625 0.583333 0.583333
0.666667 0.583333 0.583333
0.708333 0.583333 0.583333
0.75 0.583333 0.583333
0.791667 0.583333 0.583333
0.833333 0.583333 0.583333
0.875 0.583333 0.583333
0.916667 0.583333 0.583333
0.958333 0.583333 0.583333
1 0.583333 0.583333
0 0.625 0.583333
0.0416667 0.625 0.583333
0.0833333 0.625 0.583333
0.125 0.625 0.583333
0.166667 0.625 0.583333
0.208333 0.625 0.583333
0.25 0.625 0.583333
0.291667 0.625 0.583333
0.333333 0.625 0.583333
0.375 0.625 0.583333
0.416667 0.625 0.583333
0.458333 0.625 0.583333
0.5 0.625 0.583333
0.541667 0.625 0.583333
0.583333 0.625 0.583333
0.625 0.625 0.583333
0.666667 0.625 0.583333
0.708333 0.625 0.583333
0.75 0.625 0.583333
0.791667 0.625 0.583333
0.833333 0.625 0.583333
0.875 0.625 0.583333
0.916667 0.625 0.583333
0.958333 0.625 0.583333
1 0.625 0.583333
0 0.666667 0.583333
0.0416667 0.666667 0.583333
0.0833333 0.666667 0.583333
0.125 0.666667 0.583333
0.166667 0.666667 0.583333
0.208333 0.666667 0.583333
0.25 0.666667 0.583333
0.291667 0.666667 0.583333
0.333333 0.666667 0.583333
0.375 0.666667 0.583333
0.416667 0.666667 0.583333
0.458333 0.666667 0.583333
0.5 0.666667 0.583333
0.541667 0.666667 0.583333
0.583333 0.666667 0.583333
0.625 0.666667 0.583333
0.666667 0.666667 0.583333
0.708333 0.666667 0.583333
0.75 0.666667 0.583333
0.791667 0.666667 0.583333
0.833333 0.666667 0.583333
0.875 0.666667 0.583333
0.916667 0.666667 0.583333
0.958333 0.666667 0.583333
1 0.666667 0.583333
0 0.708333 0.583333
0.0416667 0.708333 0.583333
0.0833333 0.708333 0.583333
0.125 0.708333 0.583333
0.166667 0.708333 0.583333
0.208333 0.708333 0.583333
0.25 0.708333 0.583333
0.291667 0.708333 0.583333
0.333333 0.708333 0.583333
0.375 0.708333 0.583333
0.416667 0.708333 0.583333
0.458333 0.708333 0.583333
0.5 0.708333 0.583333
0.541667 0.708333 0.583333
0.583333 0.708333 0.583333
0.625 0.708333 0.583333
0.666667 0.708333 0.583333
0.708333 0.708333 0.583333
0.75 0.708333 0.583333
0.791667 0.708333 0.583333
0.833333 0.708333 0.583333
0.875 0.708333 0.583333
0.916667 0.708333 0.583333
0.958333 0.708333 0.583333
1 0.708333 0.583333
0 0.75 0.583333
0.0416667 0.75 0.583333
0.0833333 0.75 0.583333
0.125 0.75 0.583333
0.166667 0.75 0.583333
0.208333 0.75 0.583333
0.25 0.75 0.583333
0.291667 0.75 0.583333
0.333333 0.75 0.583333
0.375 0.75 0.583333
0.416667 0.75 0.583333
0.458333 0.75 0.583333
0.5 0.75 0.583333
0.541667 0.75 0.583333
0.583333 0.75 0.583333
0.625 0.75 0.583333
0.666667 0.75 0.583333
0.708333 0.75 0.583333
0.75 0.75 0.583333
0.791667 0.75 0.583333
0.833333 0.75 0.583333
0.875 0.75 0.583333
0.916667 0.75 0.583333
0.958333 0.75 0.583333
1 0.75 0.583333
0 0.791667 0.583333
0.0416667 0.791667 0.583333
0.0833333 0.791667 0.583333
0.125 0.791667 0.583333
0.166667 0.791667 0.583333
0.208333 0.791667 0.583333
0.25 0.791667 0.583333
0.291667 0.791667 0.583333
0.333333 0.791667 0.583333
0.375 0.791667 0.583333
0.416667 0.791667 0.583333
0.458333 0.791667 0.583333
0.5 0.791667 0.583333
0.541667 0.791667 0.583333
0.583333 0.791667 0.583333
0.625 0.791667 0.583333
0.666667 0.791667 0.583333
0.708333 0.791667 0.583333
0.75 0.791667 0.583333
0.791667 0.791667 0.583333
0.833333 0.791667 0.583333
0.875 0.791667 0.583333
0.916667 0.791667 0.583333
0.958333 0.791667 0.583333
1 0.791667 0.583333
0 0.833333 0.583333
0.0416667 0.833333 0.583333
0.0833333 0.833333 0.583333
0.125 0.833333 0.583333
0.166667 0.833333 0.583333
0.208333 0.833333 0.583333
0.25 0.833333 0.583333
0.291667 0.833333 0.583333
0.333333 0.833333 0.583333
0.375 0.833333 0.583333
0.416667 0.833333 0.583333
0.458333 0.833333 0.583333
0.5 0.833333 0.583333
0.541667 0.833333 0.583333
0.583333 0.833333 0.583333
0.625 0.833333 0.583333
0.666667 0.833333 0.583333
0.708333 0.833333 0.583333
0.75 0.833333 0.583333
0.791667 0.833333 0.583333
0.833333 0.833333 0.583333
0.875 0.833333 0.583333
0.916667 0.833333 0.583333
0.958333 0.833333 0.583333
1 0.833333 0.583333
0 0.875 0.583333
0.0416667 0.875 0.583333
0.0833333 0.875 0.583333
0.125 0.875 0.583333
0.166667 0.875 0.583333
0.208333 0.875 0.583333
0.25 0.875 0.583333
0.291667 0.875 0.583333
0.333333 0.875 0.583333
0.375 0.875 0.583333
0.416667 0.875 0.583333
0.458333 0.875 0.583333
0.5 0.875 0.583333
0.541667 0.875 0.583333
0.583333 0.875 0.583333
0.625 0.875 0.583333
0.666667 0.875 0.583333
0.708333 0.875 0.583333
0.75 0.875 0.583333
0.791667 0.875 0.583333
0.833333 0.875 0.583333
0.875 0.875 0.583333
0.916667 0.875 0.583333
0.958333 0.875 0.583333
1 0.875 0.583333
0 0.916667 0.583333
0.0416667 0.916667 0.583333
0.0833333 0.916667 0.583333
0.125 0.916667 0.583333
0.166667 0.916667 0.583333
0.208333 0.916667 0.583333
0.25 0.916667 0.583333
0.291667 0.916667 0.583333
0.333333 0.916667 0.583333
0.375 0.916667 0.583333
0.416667 0.916667 0.583333
0.458333 0.916667 0.583333
0.5 0.916667 0.583333
0.541667 0.916667 0.583333
0.583333 0.916667 0.583333
0.625 0.916667 0.583333
0.666667 0.916667 0.583333
0.708333 0.916667 0.583333
0.75 0.916667 0.583333
0.791667 0.916667 0.583333
0.833333 0.916667 0.583333
0.875 0.916667 0.583333
0.916667 0.916667 0.583333
0.958333 0.916667 0.583333
1 0.916667 0.583333
0 0.958333 0.583333
0.0416667 0.958333 0.583333
0.0833333 0.958333 0.583333
0.125 0.958333 0.583333
0.166667 0.958333 0.583333
0.208333 0.958333 0.583333
0.25 0.958333 0.583333
0.291667 0.958333 0.583333
0.333333 0.958333 0.583333
0.375 0.958333 0.583333
0.416667 0.958333 0.583333
0.458333 0.958333 0.583333
0.5 0.958333 0.583333
0.541667 0.958333 0.583333
0.583333 0.958333 0.583333
0.625 0.958333 0.583333
0.666667 0.958333 0.583333
0.708333 0.958333 0.583333
0.75 0.958333 0.583333
0.791667 0.958333 0.583333
0.833333 0.958333 0.583333
0.875 0.958333 0.583333
0.916667 0.958333 0.583333
0.958333 0.958333 0.583333
1 0.958333 0.583333
0 1 0.583333
0.0416667 1 0.583333
0.0833333 1 0.583333
0.125 1 0.583333
0.166667 1 0.583333
0.208333 1 0.583333
0.25 1 0.583333
0.291667 1 0.583333
0.333333 1 0.583333
0.375 1 0.583333
0.416667 1 0.583333
0.458333 1 0.583333
0.5 1 0.583333
0.541667 1 0.583333
0.583333 1 0.583333
0.625 1 0.583333
0.666667 1 0.583333
0.708333 1 0.583333
0.75 1 0.583333
0.791667 1 0.583333
0.833333 1 0.583333
0.875 1 0.583333
0.916667 1 0.583333
0.958333 1 0.583333
1 1 0.583333
0 0 0.625
0.0416667 0 0.625
0.0833333 0 0.625
0.125 0 0.625
0.166667 0 0.625
0.208333 0 0.625
0.25 0 0.625
0.291667 0 0.625
0.333333 0 0.625
0.375 0 0.625
0.416667 0 0.625
0.458333 0 0.625
0.5 0 0.625
0.541667 0 0.625
0.583333 0 0.625
0.625 0 0.625
0.666667 0 0.625
0.708333 0 0.625
0.75 0 0.625
0.791667 0 0.625
0.833333 0 0.625
0.875 0 0.625
0.916667 0 0.625
0.958333 0 0.625
1 0 0.625
0 0.0416667 0.625
0.0416667 0.0416667 0.625
0.0833333 0.0416667 0.625
0.125 0.0416667 0.625
0.166667 0.0416667 0.625
0.208333 0.0416667 0.625
0.25 0.0416667 0.625
0.291667 0.0416667 0.625
0.333333 0.0416667 0.625
0.375 0.0416667 0.625
0.416667 0.0416667 0.625
0.458333 0.0416667 0.625
0.5 0.0416667 0.625
0.541667 0.0416667 0.625
0.583333 0.0416667 0.625
0.625 0.0416667 0.625
0.666667 0.0416667 0.625
0.708333 0.0416667 0.625
0.75 0.0416667 0.625
0.791667 0.0416667 0.625
0.833333 0.0416667 0.625
0.875 0.0416667 0.625
0.916667 0.0416667 0.625
0.958333 0.0416667 0.625
1 0.0416667 0.625
0 0.0833333 0.625
0.0416667 0.0833333 0.625
0.0833333 0.0833333 0.625
0.125 0.0833333 0.625
0.166667 0.0833333 0.625
0.208333 0.0833333 0.625
0.25 0.0833333 0.625
0.291667 0.0833333 0.625
0.333333 0.0833333 0.625
0.375 0.0833333 0.625
0.416667 0.0833333 0.625
0.458333 0.0833333 0.625
0.5 0.0833333 0.625
0.541667 0.0833333 0.625
0.583333 0.0833333 0.625
0.625 0.0833333 0.625
0.666667 0.0833333 0.625
0.708333 0.0833333 0.625
0.75 0.0833333 0.625
0.791667 0.0833333 0.625
0.833333 0.0833333 0.625
0.875 0.0833333 0.625
0.916667 0.0833333 0.625
0.958333 0.0833333 0.625
1 0.0833333 0.625
0 0.125 0.625
0.0416667 0.125 0.625
0.0833333 0.125 0.625
0.125 0.125 0.625
0.166667 0.125 0.625
0.208333 0.125 0.625
0.25 0.125 0.625
0.291667 0.125 0.625
0.333333 0.125 0.625
0.375 0.125 0.625
0.416667 0.125 0.625
0.458333 0.125 0.625
0.5 0.125 0.625
0.541667 0.125 0.625
0.583333 0.125 0.625
0.625 0.125 0.625
0.666667 0.125 0.625
0.708333 0.125 0.625
0.75 0.125 0.625
0.791667 0.125 0.625
0.833333 0.125 0.625
0.875 0.125 0.625
0.916667 0.125 0.625
0.958333 0.125 0.625
1 0.125 0.625
0 0.166667 0.625
0.0416667 0.166667 0.625
0.0833333 0.166667 0.625
0.125 0.166667 0.625
0.166667 0.166667 0.625
0.208333 0.166667 0.625
0.25 0.166667 0.625
0.291667 0.166667 0.625
0.333333 0.166667 0.625
0.375 0.166667 0.625
0.416667 0.166667 0.625
0.458333 0.166667 0.625
0.5 0.166667 0.625
0.541667 0.166667 0.625
0.583333 0.166667 0.625
0.625 0.166667 0.625
0.666667 0.166667 0.625
0.708333 0.166667 0.625
0.75 0.166667 0.625
0.791667 0.166667 0.625
0.833333 0.166667 0.625
0.875 0.166667 0.625
0.916667 0.166667 0.625
0.958333 0.166667 0.625
1 0.166667 0.625
0 0.208333 0.625
0.0416667 0.208333 0.625
0.0833333 0.208333 0.625
0.125 0.208333 0.625
0.166667 0.208333 0.625
0.208333 0.208333 0.625
0.25 0.208333 0.625
0.291667 0.208333 0.625
0.333333 0.208333 0.625
0.375 0.208333 0.625
0.416667 0.208333 0.625
0.458333 0.208333 0.625
0.5 0.208333 0.625
0.541667 0.208333 0.625
0.583333 0.208333 0.625
0.625 0.208333 0.625
0.666667 0.208333 0.625
0.708333 0.208333 0.625
0.75 0.208333 0.625
0.791667 0.208333 0.625
0.833333 0.208333 0.625
0.875 0.208333 0.625
0.916667 0.208333 0.625
0.958333 0.208333 0.625
1 0.208333 0.625
0 0.25 0.625
0.0416667 0.25 0.625
0.0833333 0.25 0.625
0.125 0.25 0.625
0.166667 0.25 0.625
0.208333 0.25 0.625
0.25 0.25 0.625
0.291667 0.25 0.625
0.333333 0.25 0.625
0.375 0.25 0.625
0.416667 0.25 0.625
0.458333 0.25 0.625
0.5 0.25 0.625
0.541667 0.25 0.625
0.583333 0.25 0.625
0.625 0.25 0.625
0.666667 0.25 0.625
0.708333 0.25 0.625
0.75 0.25 0.625
0.791667 0.25 0.625
0.833333 0.25 0.625
0.875 0.25 0.625
0.916667 0.25 0.625
0.958333 0.25 0.625
1 0.25 0.625
0 0.291667 0.625
0.0416667 0.291667 0.625
0.0833333 0.291667 0.625
0.125 0.291667 0.625
0.166667 0.291667 0.625
0.208333 0.291667 0.625
0.25 0.291667 0.625
0.291667 0.291667 0.625
0.333333 0.291667 0.625
0.375 0.291667 0.625
0.416667 0.291667 0.625
0.458333 0.291667 0.625
0.5 0.291667 0.625
0.541667 0.291667 0.625
0.583333 0.291667 0.625
0.625 0.291667 0.625
0.666667 0.291667 0.625
0.708333 0.291667 0.625
0.75 0.291667 0.625
0.791667 0.291667 0.625
0.833333 0.291667 0.625
0.875 0.291667 0.625
0.916667 0.291667 0.625
0.958333 0.291667 0.625
1 0.291667 0.625
0 0.333333 0.625
0.0416667 0.333333 0.625
0.0833333 0.333333 0.625
0.125 0.333333 0.625
0.166667 0.333333 0.625
0.208333 0.333333 0.625
0.25 0.333333 0.625
0.291667 0.333333 0.625
0.333333 0.333333 0.625
0.375 0.333333 0.625
0.416667 0.333333 0.625
0.458333 0.333333 0.625
0.5 0.333333 0.625
0.541667 0.333333 0.625
0.583333 0.333333 0.625
0.625 0.333333 0.625
0.666667 0.333333 0.625
0.708333 0.333333 0.625
0.75 0.333333 0.625
0.791667 0.333333 0.625
0.833333 0.333333 0.625
0.875 0.333333 0.625
0.916667 0.333333 0.625
0.958333 0.333333 0.625
1 0.333333 0.625
0 0.375 0.625
0.0416667 0.375 0.625
0.0833333 0.375 0.625
0.125 0.375 0.625
0.166667 0.375 0.625
0.208333 0.375 0.625
0.25 0.375 0.625
0.291667 0.375 0.625
0.333333 0.375 0.625
0.375 0.375 0.625
0.416667 0.375 0.625
0.458333 0.375 0.625
0.5 0.375 0.625
0.541667 0.375 0.625
0.583333 0.375 0.625
0.625 0.375 0.625
0.666667 0.375 0.625
0.708333 0.375 0.625
0.75 0.375 0.625
0.791667 0.375 0.625
0.833333 0.375 0.625
0.875 0.375 0.625
0.916667 0.375 0.625
0.958333 0.375 0.625
1 0.375 0.625
0 0.416667 0.625
0.0416667 0.416667 0.625
0.0833333 0.416667 0.625
0.125 0.416667 0.625
0.166667 0.416667 0.625
0.208333 0.416667 0.625
0.25 0.416667 0.625
0.291667 0.416667 0.625
0.333333 0.416667 0.625
0.375 0.416667 0.625
0.416667 0.416667 0.625
0.458333 0.416667 0.625
0.5 0.416667 0.625
0.541667 0.416667 0.625
0.583333 0.416667 0.625
0.625 0.416667 0.625
0.666667 0.416667 0.625
0.708333 0.416667 0.625
0.75 0.416667 0.625
0.791667 0.416667 0.625
0.833333 0.416667 0.625
0.875 0.416667 0.625
0.916667 0.416667 0.625
0.958333 0.416667 0.625
1 0.416667 0.625
0 0.458333 0.625
0.0416667 0.458333 0.625
0.0833333 0.458333 0.625
0.125 0.458333 0.625
0.166667 0.458333 0.625
0.208333 0.458333 0.625
0.25 0.458333 0.625
0.291667 0.458333 0.625
0.333333 0.458333 0.625
0.375 0.458333 0.625
0.416667 0.458333 0.625
0.458333 0.458333 0.625
0.5 0.458333 0.625
0.541667 0.458333 0.625
0.583333 0.458333 0.625
0.625 0.458333 0.625
0.666667 0.458333 0.625
0.708333 0.458333 0.625
0.75 0.458333 0.625
0.791667 0.458333 0.625
0.833333 0.458333 0.625
0.875 0.458333 0.625
0.916667 0.458333 0.625
0.958333 0.458333 0.625
1 0.458333 0.625
0 0.5 0.625
0.0416667 0.5 0.625
0.0833333 0.5 0.625
0.125 0.5 0.625
0.166667 0.5 0.625
0.208333 0.5 0.625
0.25 0.5 0.625
0.291667 0.5 0.625
0.333333 0.5 0.625
0.375 0.5 0.625
0.416667 0.5 0.625
0.458333 0.5 0.625
0.5 0.5 0.625
0.541667 0.5 0.625
0.583333 0.5 0.625
0.625 0.5 0.625
0.666667 0.5 0.625
0.708333 0.5 0.625
0.75 0.5 0.625
0.791667 0.5 0.625
0.833333 0.5 0.625
0.875 0.5 0.625
0.916667 0.5 0.625
0.958333 0.5 0.625
1 0.5 0.625
0 0.541667 0.625
0.0416667 0.541667 0.625
0.0833333 0.541667 0.625
0.125 0.541667 0.625
0.166667 0.541667 0.625
0.208333 0.541667 0.625
0.25 0.541667 0.625
0.291667 0.541667 0.625
0.333333 0.541667 0.625
0.375 0.541667 0.625
0.416667 0.541667 0.625
0.458333 0.541667 0.625
0.5 0.541667 0.625
0.541667 0.541667 0.625
0.583333 0.541667 0.625
0.625 0.541667 0.625
0.666667 0.541667 0.625
0.708333 0.541667 0.625
0.75 0.541667 0.625
0.791667 0.541667 0.625
0.833333 0.541667 0.625
0.875 0.541667 0.625
0.916667 0.541667 0.625
0.958333 0.541667 0.625
1 0.541667 0.625
0 0.583333 0.625
0.0416667 0.583333 0.625
0.0833333 0.583333 0.625
0.125 0.583333 0.625
0.166667 0.583333 0.625
0.208333 0.583333 0.625
0.25 0.583333 0.625
0.291667 0.583333 0.625
0.333333 0.583333 0.625
0.375 0.583333 0.625
0.416667 0.583333 0.625
0.458333 0.583333 0.625
0.5 0.583333 0.625
0.541667 0.583333 0.625
0.583333 0.583333 0.625
0.625 0.583333 0.625
0.666667 0.583333 0.625
0.708333 0.583333 0.625
0.75 0.583333 0.625
0.791667 0.583333 0.625
0.833333 0.583333 0.625
0.875 0.583333 0.625
0.916667 0.583333 0.625
0.958333 0.583333 0.625
1 0.583333 0.625
0 0.625 0.625
0.0416667 0.625 0.625
0.0833333 0.625 0.625
0.125 0.625 0.625
0.166667 0.625 0.625
0.208333 0.625 0.625
0.25 0.625 0.625
0.291667 0.625 0.625
0.333333 0.625 0.625
0.375 0.625 0.625
0.416667 0.625 0.625
0.458333 0.625 0.625
0.5 0.625 0.625
0.541667 0.625 0.625
0.583333 0.625 0.625
0.625 0.625 0.625
0.666667 0.625 0.625
0.708333 0.625 0.625
0.75 0.625 0.625
0.791667 0.625 0.625
0.833333 0.625 0.625
0.875 0.625 0.625
0.916667 0.625 0.625
0.958333 0.625 0.625
1 0.625 0.625
0 0.666667 0.625
0.0416667 0.666667 0.625
0.0833333 0.666667 0.625
0.125 0.666667 0.625
0.166667 0.666667 0.625
0.208333 0.666667 0.625
0.25 0.666667 0.625
0.291667 0.666667 0.625
0.333333 0.666667 0.625
0.375 0.666667 0.625
0.416667 0.666667 0.625
0.458333 0.666667 0.625
0.5 0.666667 0.625
0.541667 0.666667 0.625
0.583333 0.666667 0.625
0.625 0.666667 0.625
0.666667 0.666667 0.625
0.708333 0.666667 0.625
0.75 0.666667 0.625
0.791667 0.666667 0.625
0.833333 0.666667 0.625
0.875 0.666667 0.625
0.916667 0.666667 0.625
0.958333 0.666667 0.625
1 0.666667 0.625
0 0.708333 0.625
0.0416667 0.708333 0.625
0.0833333 0.708333 0.625
0.125 0.708333 0.625
0.166667 0.708333 0.625
0.208333 0.708333 0.625
0.25 0.708333 0.625
0.291667 0.708333 0.625
0.333333 0.708333 0.625
0.375 0.708333 0.625
0.416667 0.708333 0.625
0.458333 0.708333 0.625
0.5 0.708333 0.625
0.541667 0.708333 0.625
0.583333 0.708333 0.625
0.625 0.708333 0.625
0.666667 0.708333 0.625
0.708333 0.708333 0.625
0.75 0.708333 0.625
0.791667 0.708333 0.625
0.833333 0.708333 0.625
0.875 0.708333 0.625
0.916667 0.708333 0.625
0.958333 0.708333 0.625
1 0.708333 0.625
0 0.75 0.625
0.0416667 0.75 0.625
0.0833333 0.75 0.625
0.125 0.75 0.625
0.166667 0.75 0.625
0.208333 0.75 0.625
0.25 0.75 0.625
0.291667 0.75 0.625
0.333333 0.75 0.625
0.375 0.75 0.625
0.416667 0.75 0.625
0.458333 0.75 0.625
0.5 0.75 0.625
0.541667 0.75 0.625
0.583333 0.75 0.625
0.625 0.75 0.625
0.666667 0.75 0.625
0.708333 0.75 0.625
0.75 0.75 0.625
0.791667 0.75 0.625
0.833333 0.75 0.625
0.875 0.75 0.625
0.916667 0.75 0.625
0.958333 0.75 0.625
1 0.75 0.625
0 0.791667 0.625
0.0416667 0.791667 0.625
0.0833333 0.791667 0.625
0.125 0.791667 0.625
0.166667 0.791667 0.625
0.208333 0.791667 0.625
0.25 0.791667 0.625
0.291667 0.791667 0.625
0.333333 0.791667 0.625
0.375 0.791667 0.625
0.416667 0.791667 0.625
0.458333 0.791667 0.625
0.5 0.791667 0.625
0.541667 0.791667 0.625
0.583333 0.791667 0.625
0.625 0.791667 0.625
0.666667 0.791667 0.625
0.708333 0.791667 0.625
0.75 0.791667 0.625
0.791667 0.791667 0.625
0.833333 0.791667 0.625
0.875 0.791667 0.625
0.916667 0.791667 0.625
0.958333 0.791667 0.625
1 0.791667 0.625
0 0.833333 0.625
0.0416667 0.833333 0.625
0.0833333 0.833333 0.625
0.125 0.833333 0.625
0.166667 0.833333 0.625
0.208333 0.833333 0.625
0.25 0.833333 0.625
0.291667 0.833333 0.625
0.333333 0.833333 0.625
0.375 0.833333 0.625
0.416667 0.833333 0.625
0.458333 0.833333 0.625
0.5 0.833333 0.625
0.541667 0.833333 0.625
0.583333 0.833333 0.625
0.625 0.833333 0.625
0.666667 0.833333 0.625
0.708333 0.833333 0.625
0.75 0.833333 0.625
0.791667 0.833333 0.625
0.833333 0.833333 0.625
0.875 0.833333 0.625
0.916667 0.833333 0.625
0.958333 0.833333 0.625
1 0.833333 0.625
0 0.875 0.625
0.0416667 0.875 0.625
0.0833333 0.875 0.625
0.125 0.875 0.625
0.166667 0.875 0.625
0.208333 0.875 0.625
0.25 0.875 0.625
0.291667 0.875 0.625
0.333333 0.875 0.625
0.375 0.875 0.625
0.416667 0.875 0.625
0.458333 0.875 0.625
0.5 0.875 0.625
0.541667 0.875 0.625
0.583333 0.875 0.625
0.625 0.875 0.625
0.666667 0.875 0.625
0.708333 0.875 0.625
0.75 0.875 0.625
0.791667 0.875 0.625
0.833333 0.875 0.625
0.875 0.875 0.625
0.916667 0.875 0.625
0.958333 0.875 0.625
1 0.875 0.625
0 0.916667 0.625
0.0416667 0.916667 0.625
0.0833333 0.916667 0.625
0.125 0.916667 0.625
0.166667 0.916667 0.625
0.208333 0.916667 0.625
0.25 0.916667 0.625
0.291667 0.916667 0.625
0.333333 0.916667 0.625
0.375 0.916667 0.625
0.416667 0.916667 0.625
0.458333 0.916667 0.625
0.5 0.916667 0.625
0.541667 0.916667 0.625
0.583333 0.916667 0.625
0.625 0.916667 0.625
0.666667 0.916667 0.625
0.708333 0.916667 0.625
0.75 0.916667 0.625
0.791667 0.916667 0.625
0.833333 0.916667 0.625
0.875 0.916667 0.625
0.916667 0.916667 0.625
0.958333 0.916667 0.625
1 0.916667 0.625
0 0.958333 0.625
0.0416667 0.958333 0.625
0.0833333 0.958333 0.625
0.125 0.958333 0.625
0.166667 0.958333 0.625
0.208333 0.958333 0.625
0.25 0.958333 0.625
0.291667 0.958333 0.625
0.333333 0.958333 0.625
0.375 0.958333 0.625
0.416667 0.958333 0.625
0.458333 0.958333 0.625
0.5 0.958333 0.625
0.541667 0.958333 0.625
0.583333 0.958333 0.625
0.625 0.958333 0.625
0.666667 0.958333 0.625
0.708333 0.958333 0.625
0.75 0.958333 0.625
0.791667 0.958333 0.625
0.833333 0.958333 0.625
0.875 0.958333 0.625
0.916667 0.958333 0.625
0.958333 0.958333 0.625
1 0.958333 0.625
0 1 0.625
0.0416667 1 0.625
0.0833333 1 0.625
0.125 1 0.625
0.166667 1 0.625
0.208333 1 0.625
0.25 1 0.625
0.291667 1 0.625
0.333333 1 0.625
0.375 1 0.625
0.416667 1 0.625
0.458333 1 0.625
0.5 1 0.625
0.541667 1 0.625
0.583333 1 0.625
0.625 1 0.625
0.666667 1 0.625
0.708333 1 0.625
0.75 1 0.625
0.791667 1 0.625
0.833333 1 0.625
0.875 1 0.625
0.916667 1 0.625
0.958333 1 0.625
1 1 0.625
0 0 0.666667
0.0416667 0 0.666667
0.0833333 0 0.666667
0.125 0 0.666667
0.166667 0 0.666667
0.208333 0 0.666667
0.25 0 0.666667
0.291667 0 0.666667
0.333333 0 0.666667
0.375 0 0.666667
0.416667 0 0.666667
0.458333 0 0.666667
0.5 0 0.666667
0.541667 0 0.666667
0.583333 0 0.666667
0.625 0 0.666667
0.666667 0 0.666667
0.708333 0 0.666667
0.75 0 0.666667
0.791667 0 0.666667
0.833333 0 0.666667
0.875 0 0.666667
0.916667 0 0.666667
0.958333 0 0.666667
1 0 0.666667
0 0.0416667 0.666667
0.0416667 0.0416667 0.666667
0.0833333 0.0416667 0.666667
0.125 0.0416667 0.666667
0.166667 0.0416667 0.666667
0.208333 0.0416667 0.666667
0.25 0.0416667 0.666667
0.291667 0.0416667 0.666667
0.333333 0.0416667 0.666667
0.375 0.0416667 0.666667
0.416667 0.0416667 0.666667
0.458333 0.0416667 0.666667
0.5 0.0416667 0.666667
0.541667 0.0416667 0.666667
0.583333 0.0416667 0.666667
0.625 0.0416667 0.666667
0.666667 0.0416667 0.666667
0.708333 0.0416667 0.666667
0.75 0.0416667 0.666667
0.791667 0.0416667 0.666667
0.833333 0.0416667 0.666667
0.875 0.0416667 0.666667
0.916667 0.0416667 0.666667
0.958333 0.0416667 0.666667
1 0.0416667 0.666667
0 0.0833333 0.666667
0.0416667 0.0833333 0.666667
0.0833333 0.0833333 0.666667
0.125 0.0833333 0.666667
0.166667 0.0833333 0.666667
0.208333 0.0833333 0.666667
0.25 0.0833333 0.666667
0.291667 0.0833333 0.666667
0.333333 0.0833333 0.666667
0.375 0.0833333 0.666667
0.416667 0.0833333 0.666667
0.458333 0.0833333 0.666667
0.5 0.0833333 0.666667
0.541667 0.0833333 0.666667
0.583333 0.0833333 0.666667
0.625 0.0833333 0.666667
0.666667 0.0833333 0.666667
0.708333 0.0833333 0.666667
0.75 0.0833333 0.666667
0.791667 0.0833333 0.666667
0.833333 0.0833333 0.666667
0.875 0.0833333 0.666667
0.916667 0.0833333 0.666667
0.958333 0.0833333 0.666667
1 0.0833333 0.666667
0 0.125 0.666667
0.0416667 0.125 0.666667
0.0833333 0.125 0.666667
0.125 0.125 0.666667
0.166667 0.125 0.666667
0.208333 0.125 0.666667
0.25 0.125 0.666667
0.291667 0.125 0.666667
0.333333 0.125 0.666667
0.375 0.125 0.666667
0.416667 0.125 0.666667
0.458333 0.125 0.666667
0.5 0.125 0.666667
0.541667 0.125 0.666667
0.583333 0.125 0.666667
0.625 0.125 0.666667
0.666667 0.125 0.666667
0.708333 0.125 0.666667
0.75 0.125 0.666667
0.791667 0.125 0.666667
0.833333 0.125 0.666667
0.875 0.125 0.666667
0.916667 0.125 0.666667
0.958333 0.125 0.666667
1 0.125 0.666667
0 0.166667 0.666667
0.0416667 0.166667 0.666667
0.0833333 0.166667 0.666667
0.125 0.166667 0.666667
0.166667 0.166667 0.666667
0.208333 0.166667 0.666667
0.25 0.166667 0.666667
0.291667 0.166667 0.666667
0.333333 0.166667 0.666667
0.375 0.166667 0.666667
0.416667 0.166667 0.666667
0.458333 0.166667 0.666667
0.5 0.166667 0.666667
0.541667 0.166667 0.666667
0.583333 0.166667 0.666667
0.625 0.166667 0.666667
0.666667 0.166667 0.666667
0.708333 0.166667 0.666667
0.75 0.166667 0.666667
0.791667 0.166667 0.666667
0.833333 0.166667 0.666667
0.875 0.166667 0.666667
0.916667 0.166667 0.666667
0.958333 0.166667 0.666667
1 0.166667 0.666667
0 0.208333 0.666667
0.0416667 0.208333 0.666667
0.0833333 0.208333 0.666667
0.125 0.208333 0.666667
0.166667 0.208333 0.666667
0.208333 0.208333 0.666667
0.25 0.208333 0.666667
0.291667 0.208333 0.666667
0.333333 0.208333 0.666667
0.375 0.208333 0.666667
0.416667 0.208333 0.666667
0.458333 0.208333 0.666667
0.5 0.208333 0.666667
0.541667 0.208333 0.666667
0.583333 0.208333 0.666667
0.625 0.208333 0.666667
0.666667 0.208333 0.666667
0.708333 0.208333 0.666667
0.75 0.208333 0.666667
0.791667 0.208333 0.666667
0.833333 0.208333 0.666667
0.875 0.208333 0.666667
0.916667 0.208333 0.666667
0.958333 0.208333 0.666667
1 0.208333 0.666667
0 0.25 0.666667
0.0416667 0.25 0.666667
0.0833333 0.25 0.666667
0.125 0.25 0.666667
0.166667 0.25 0.666667
0.208333 0.25 0.666667
0.25 0.25 0.666667
0.291667 0.25 0.666667
0.333333 0.25 0.666667
0.375 0.25 0.666667
0.416667 0.25 0.666667
0.458333 0.25 0.666667
0.5 0.25 0.666667
0.541667 0.25 0.666667
0.583333 0.25 0.666667
0.625 0.25 0.666667
0.666667 0.25 0.666667
0.708333 0.25 0.666667
0.75 0.25 0.666667
0.791667 0.25 0.666667
0.833333 0.25 0.666667
0.875 0.25 0.666667
0.916667 0.25 0.666667
0.958333 0.25 0.666667
1 0.25 0.666667
0 0.291667 0.666667
0.0416667 0.291667 0.666667
0.0833333 0.291667 0.666667
0.125 0.291667 0.666667
0.166667 0.291667 0.666667
0.208333 0.291667 0.666667
0.25 0.291667 0.666667
0.291667 0.291667 0.666667
0.333333 0.291667 0.666667
0.375 0.291667 0.666667
0.416667 0.291667 0.666667
0.458333 0.291667 0.666667
0.5 0.291667 0.666667
0.541667 0.291667 0.666667
0.583333 0.291667 0.666667
0.625 0.291667 0.666667
0.666667 0.291667 0.666667
0.708333 0.291667 0.666667
0.75 0.291667 0.666667
0.791667 0.291667 0.666667
0.833333 0.291667 0.666667
0.875 0.291667 0.666667
0.916667 0.291667 0.666667
0.958333 0.291667 0.666667
1 0.291667 0.666667
0 0.333333 0.666667
0.0416667 0.333333 0.666667
0.0833333 0.333333 0.666667
0.125 0.333333 0.666667
0.166667 0.333333 0.666667
0.208333 0.333333 0.666667
0.25 0.333333 0.666667
0.291667 0.333333 0.666667
0.333333 0.333333 0.666667
0.375 0.333333 0.666667
0.416667 0.333333 0.666667
0.458333 0.333333 0.666667
0.5 0.333333 0.666667
0.541667 0.333333 0.666667
0.583333 0.333333 0.666667
0.625 0.333333 0.666667
0.666667 0.333333 0.666667
0.708333 0.333333 0.666667
0.75 0.333333 0.666667
0.791667 0.333333 0.666667
0.833333 0.333333 0.666667
0.875 0.333333 0.666667
0.916667 0.333333 0.666667
0.958333 0.333333 0.666667
1 0.333333 0.666667
0 0.375 0.666667
0.0416667 0.375 0.666667
0.0833333 0.375 0.666667
0.125 0.375 0.666667
0.166667 0.375 0.666667
0.208333 0.375 0.666667
0.25 0.375 0.666667
0.291667 0.375 0.666667
0.333333 0.375 0.666667
0.375 0.375 0.666667
0.416667 0.375 0.666667
0.458333 0.375 0.666667
0.5 0.375 0.666667
0.541667 0.375 0.666667
0.583333 0.375 0.666667
0.625 0.375 0.666667
0.666667 0.375 0.666667
0.708333 0.375 0.666667
0.75 0.375 0.666667
0.791667 0.375 0.666667
0.833333 0.375 0.666667
0.875 0.375 0.666667
0.916667 0.375 0.666667
0.958333 0.375 0.666667
1 0.375 0.666667
0 0.416667 0.666667
0.0416667 0.416667 0.666667
0.0833333 0.416667 0.666667
0.125 0.416667 0.666667
0.166667 0.416667 0.666667
0.208333 0.416667 0.666667
0.25 0.416667 0.666667
0.291667 0.416667 0.666667
0.333333 0.416667 0.666667
0.375 0.416667 0.666667
0.416667 0.416667 0.666667
0.458333 0.416667 0.666667
0.5 0.416667 0.666667
0.541667 0.416667 0.666667
0.583333 0.416667 0.666667
0.625 0.416667 0.666667
0.666667 0.416667 0.666667
0.708333 0.416667 0.666667
0.75 0.416667 0.666667
0.791667 0.416667 0.666667
0.833333 0.416667 0.666667
0.875 0.416667 0.666667
0.916667 0.416667 0.666667
0.958333 0.416667 0.666667
1 0.416667 0.666667
0 0.458333 0.666667
0.0416667 0.458333 0.666667
0.0833333 0.458333 0.666667
0.125 0.458333 0.666667
0.166667 0.458333 0.666667
0.208333 0.458333 0.666667
0.25 0.458333 0.666667
0.291667 0.458333 0.666667
0.333333 0.458333 0.666667
0.375 0.458333 0.666667
0.416667 0.458333 0.666667
0.458333 0.458333 0.666667
0.5 0.458333 0.666667
0.541667 0.458333 0.666667
0.583333 0.458333 0.666667
0.625 0.458333 0.666667
0.666667 0.458333 0.666667
0.708333 0.458333 0.666667
0.75 0.458333 0.666667
0.791667 0.458333 0.666667
0.833333 0.458333 0.666667
0.875 0.458333 0.666667
0.916667 0.458333 0.666667
0.958333 0.458333 0.666667
1 0.458333 0.666667
0 0.5 0.666667
0.0416667 0.5 0.666667
0.0833333 0.5 0.666667
0.125 0.5 0.666667
0.166667 0.5 0.666667
0.208333 0.5 0.666667
0.25 0.5 0.666667
0.291667 0.5 0.666667
0.333333 0.5 0.666667
0.375 0.5 0.666667
0.416667 0.5 0.666667
0.458333 0.5 0.666667
0.5 0.5 0.666667
0.541667 0.5 0.666667
0.583333 0.5 0.666667
0.625 0.5 0.666667
0.666667 0.5 0.666667
0.708333 0.5 0.666667
0.75 0.5 0.666667
0.791667 0.5 0.666667
0.833333 0.5 0.666667
0.875 0.5 0.666667
0.916667 0.5 0.666667
0.958333 0.5 0.666667
1 0.5 0.666667
0 0.541667 0.666667
0.0416667 0.541667 0.666667
0.0833333 0.541667 0.666667
0.125 0.541667 0.666667
0.166667 0.541667 0.666667
0.208333 0.541667 0.666667
0.25 0.541667 0.666667
0.291667 0.541667 0.666667
0.333333 0.541667 0.666667
0.375 0.541667 0.666667
0.416667 0.541667 0.666667
0.458333 0.541667 0.666667
0.5 0.541667 0.666667
0.541667 0.541667 0.666667
0.583333 0.541667 0.666667
0.625 0.541667 0.666667
0.666667 0.541667 0.666667
0.708333 0.541667 0.666667
0.75 0.541667 0.666667
0.791667 0.541667 0.666667
0.833333 0.541667 0.666667
0.875 0.541667 0.666667
0.916667 0.541667 0.666667
0.958333 0.541667 0.666667
1 0.541667 0.666667
0 0.583333 0.666667
0.0416667 0.583333 0.666667
0.0833333 0.583333 0.666667
0.125 0.583333 0.666667
0.166667 0.583333 0.666667
0.208333 0.583333 0.666667
0.25 0.583333 0.666667
0.291667 0.583333 0.666667
0.333333 0.583333 0.666667
0.375 0.583333 0.666667
0.416667 0.583333 0.666667
0.458333 0.583333 0.666667
0.5 0.583333 0.666667
0.541667 0.583333 0.666667
0.583333 0.583333 0.666667
0.625 0.583333 0.666667
0.666667 0.583333 0.666667
0.708333 0.583333 0.666667
0.75 0.583333 0.666667
0.791667 0.583333 0.666667
0.833333 0.583333 0.666667
0.875 0.583333 0.666667
0.916667 0.583333 0.666667
0.958333 0.583333 0.666667
1 0.583333 0.666667
0 0.625 0.666667
0.0416667 0.625 0.666667
0.0833333 0.625 0.666667
0.125 0.625 0.666667
0.166667 0.625 0.666667
0.208333 0.625 0.666667
0.25 0.625 0.666667
0.291667 0.625 0.666667
0.333333 0.625 0.666667
0.375 0.625 0.666667
0.416667 0.625 0.666667
0.458333 0.625 0.666667
0.5 0.625 0.666667
0.541667 0.625 0.666667
0.583333 0.625 0.666667
0.625 0.625 0.666667
0.666667 0.625 0.666667
0.708333 0.625 0.666667
0.75 0.625 0.666667
0.791667 0.625 0.666667
0.833333 0.625 0.666667
0.875 0.625 0.666667
0.916667 0.625 0.666667
0.958333 0.625 0.666667
1 0.625 0.666667
0 0.666667 0.666667
0.0416667 0.666667 0.666667
0.0833333 0.666667 0.666667
0.125 0.666667 0.666667
0.166667 0.666667 0.666667
0.208333 0.666667 0.666667
0.25 0.666667 0.666667
0.291667 0.666667 0.666667
0.333333 0.666667 0.666667
0.375 0.666667 0.666667
0.416667 0.666667 0.666667
0.458333 0.666667 0.666667
0.5 0.666667 0.666667
0.541667 0.666667 0.666667
0.583333 0.666667 0.666667
0.625 0.666667 0.666667
0.666667 0.666667 0.666667
0.708333 0.666667 0.666667
0.75 0.666667 0.666667
0.791667 0.666667 0.666667
0.833333 0.666667 0.666667
0.875 0.666667 0.666667
0.916667 0.666667 0.666667
0.958333 0.666667 0.666667
1 0.666667 0.666667
0 0.708333 0.666667
0.0416667 0.708333 0.666667
0.0833333 0.708333 0.666667
0.125 0.708333 0.666667
0.166667 0.708333 0.666667
0.208333 0.708333 0.666667
0.25 0.708333 0.666667
0.291667 0.708333 0.666667
0.333333 0.708333 0.666667
0.375 0.708333 0.666667
0.416667 0.708333 0.666667
0.458333 0.708333 0.666667
0.5 0.708333 0.666667
0.541667 0.708333 0.666667
0.583333 0.708333 0.666667
0.625 0.708333 0.666667
0.666667 0.708333 0.666667
0.708333 0.708333 0.666667
0.75 0.708333 0.666667
0.791667 0.708333 0.666667
0.833333 0.708333 0.666667
0.875 0.708333 0.666667
0.916667 0.708333 0.666667
0.958333 0.708333 0.666667
1 0.708333 0.666667
0 0.75 0.666667
0.0416667 0.75 0.666667
0.0833333 0.75 0.666667
0.125 0.75 0.666667
0.166667 0.75 0.666667
0.208333 0.75 0.666667
0.25 0.75 0.666667
0.291667 0.75 0.666667
0.333333 0.75 0.666667
0.375 0.75 0.666667
0.416667 0.75 0.666667
0.458333 0.75 0.666667
0.5 0.75 0.666667
0.541667 0.75 0.666667
0.583333 0.75 0.666667
0.625 0.75 0.666667
0.666667 0.75 0.666667
0.708333 0.75 0.666667
0.75 0.75 0.666667
0.791667 0.75 0.666667
0.833333 0.75 0.666667
0.875 0.75 0.666667
0.916667 0.75 0.666667
0.958333 0.75 0.666667
1 0.75 0.666667
0 0.791667 0.666667
0.0416667 0.791667 0.666667
0.0833333 0.791667 0.666667
0.125 0.791667 0.666667
0.166667 0.791667 0.666667
0.208333 0.791667 0.666667
0.25 0.791667 0.666667
0.291667 0.791667 0.666667
0.333333 0.791667 0.666667
0.375 0.791667 0.666667
0.416667 0.791667 0.666667
0.458333 0.791667 0.666667
0.5 0.791667 0.666667
0.541667 0.791667 0.666667
0.583333 0.791667 0.666667
0.625 0.791667 0.666667
0.666667 0.791667 0.666667
0.708333 0.791667 0.666667
0.75 0.791667 0.666667
0.791667 0.791667 0.666667
0.833333 0.791667 0.666667
0.875 0.791667 0.666667
0.916667 0.791667 0.666667
0.958333 0.791667 0.666667
1 0.791667 0.666667
0 0.833333 0.666667
0.0416667 0.833333 0.666667
0.0833333 0.833333 0.666667
0.125 0.833333 0.666667
0.166667 0.833333 0.666667
0.208333 0.833333 0.666667
0.25 0.833333 0.666667
0.291667 0.833333 0.666667
0.333333 0.833333 0.666667
0.375 0.833333 0.666667
0.416667 0.833333 0.666667
0.458333 0.833333 0.666667
0.5 0.833333 0.666667
0.541667 0.833333 0.666667
0.583333 0.833333 0.666667
0.625 0.833333 0.666667
0.666667 0.833333 0.666667
0.708333 0.833333 0.666667
0.75 0.833333 0.666667
0.791667 0.833333 0.666667
0.833333 0.833333 0.666667
0.875 0.833333 0.666667
0.916667 0.833333 0.666667
0.958333 0.833333 0.666667
1 0.833333 0.666667
0 0.875 0.666667
0.0416667 0.875 0.666667
0.0833333 0.875 0.666667
0.125 0.875 0.666667
0.166667 0.875 0.666667
0.208333 0.875 0.666667
0.25 0.875 0.666667
0.291667 0.875 0.666667
0.333333 0.875 0.666667
0.375 0.875 0.666667
0.416667 0.875 0.666667
0.458333 0.875 0.666667
0.5 0.875 0.666667
0.541667 0.875 0.666667
0.583333 0.875 0.666667
0.625 0.875 0.666667
0.666667 0.875 0.666667
0.708333 0.875 0.666667
0.75 0.875 0.666667
0.791667 0.875 0.666667
0.833333 0.875 0.666667
0.875 0.875 0.666667
0.916667 0.875 0.666667
0.958333 0.875 0.666667
1 0.875 0.666667
0 0.916667 0.666667
0.0416667 0.916667 0.666667
0.0833333 0.916667 0.666667
0.125 0.916667 0.666667
0.166667 0.916667 0.666667
0.208333 0.916667 0.666667
0.25 0.916667 0.666667
0.291667 0.916667 0.666667
0.333333 0.916667 0.666667
0.375 0.916667 0.666667
0.416667 0.916667 0.666667
0.458333 0.916667 0.666667
0.5 0.916667 0.666667
0.541667 0.916667 0.666667
0.583333 0.916667 0.666667
0.625 0.916667 0.666667
0.666667 0.916667 0.666667
0.708333 0.916667 0.666667
0.75 0.916667 0.666667
0.791667 0.916667 0.666667
0.833333 0.916667 0.666667
0.875 0.916667 0.666667
0.916667 0.916667 0.666667
0.958333 0.916667 0.666667
1 0.916667 0.666667
0 0.958333 0.666667
0.0416667 0.958333 0.666667
0.0833333 0.958333 0.666667
0.125 0.958333 0.666667
0.166667 0.958333 0.666667
0.208333 0.958333 0.666667
0.25 0.958333 0.666667
0.291667 0.958333 0.666667
0.333333 0.958333 0.666667
0.375 0.958333 0.666667
0.416667 0.958333 0.666667
0.458333 0.958333 0.666667
0.5 0.958333 0.666667
0.541667 0.958333 0.666667
0.583333 0.958333 0.666667
0.625 0.958333 0.666667
0.666667 0.958333 0.666667
0.708333 0.958333 0.666667
0.75 0.958333 0.666667
0.791667 0.958333 0.666667
0.833333 0.958333 0.666667
0.875 0.958333 0.666667
0.916667 0.958333 0.666667
0.958333 0.958333 0.666667
1 0.958333 0.666667
0 1 0.666667
0.0416667 1 0.666667
0.0833333 1 0.666667
0.125 1 0.666667
0.166667 1 0.666667
0.208333 1 0.666667
0.25 1 0.666667
0.291667 1 0.666667
0.333333 1 0.666667
0.375 1 0.666667
0.416667 1 0.666667
0.458333 1 0.666667
0.5 1 0.666667
0.541667 1 0.666667
0.583333 1 0.666667
0.625 1 0.666667
0.666667 1 0.666667
0.708333 1 0.666667
0.75 1 0.666667
0.791667 1 0.666667
0.833333 1 0.666667
0.875 1 0.666667
0.916667 1 0.666667
0.958333 1 0.666667
1 1 0.666667
0 0 0.708333
0.0416667 0 0.708333
0.0833333 0 0.708333
0.125 0 0.708333
0.166667 0 0.708333
0.208333 0 0.708333
0.25 0 0.708333
0.291667 0 0.708333
0.333333 0 0.708333
0.375 0 0.708333
0.416667 0 0.708333
0.458333 0 0.708333
0.5 0 0.708333
0.541667 0 0.708333
0.583333 0 0.708333
0.625 0 0.708333
0.666667 0 0.708333
0.708333 0 0.708333
0.75 0 0.708333
0.791667 0 0.708333
0.833333 0 0.708333
0.875 0 0.708333
0.916667 0 0.708333
0.958333 0 0.708333
1 0 0.708333
0 0.0416667 0.708333
0.0416667 0.0416667 0.708333
0.0833333 0.0416667 0.708333
0.125 0.0416667 0.708333
0.166667 0.0416667 0.708333
0.208333 0.0416667 0.708333
0.25 0.0416667 0.708333
0.291667 0.0416667 0.708333
0.333333 0.0416667 0.708333
0.375 0.0416667 0.708333
0.416667 0.0416667 0.708333
0.458333 0.0416667 0.708333
0.5 0.0416667 0.708333
0.541667 0.0416667 0.708333
0.583333 0.0416667 0.708333
0.625 0.0416667 0.708333
0.666667 0.0416667 0.708333
0.708333 0.0416667 0.708333
0.75 0.0416667 0.708333
0.791667 0.0416667 0.708333
0.833333 0.0416667 0.708333
0.875 0.0416667 0.708333
0.916667 0.0416667 0.708333
0.958333 0.0416667 0.708333
1 0.0416667 0.708333
0 0.0833333 0.708333
0.0416667 0.0833333 0.708333
0.0833333 0.0833333 0.708333
0.125 0.0833333 0.708333
0.166667 0.0833333 0.708333
0.208333 0.0833333 0.708333
0.25 0.0833333 0.708333
0.291667 0.0833333 0.708333
0.333333 0.0833333 0.708333
0.375 0.0833333 0.708333
0.416667 0.0833333 0.708333
0.458333 0.0833333 0.708333
0.5 0.0833333 0.708333
0.541667 0.0833333 0.708333
0.583333 0.0833333 0.708333
0.625 0.0833333 0.708333
0.666667 0.0833333 0.708333
0.708333 0.0833333 0.708333
0.75 0.0833333 0.708333
0.791667 0.0833333 0.708333
0.833333 0.0833333 0.708333
0.875 0.0833333 0.708333
0.916667 0.0833333 0.708333
0.958333 0.0833333 0.708333
1 0.0833333 0.708333
0 0.125 0.708333
0.0416667 0.125 0.708333
0.0833333 0.125 0.708333
0.125 0.125 0.708333
0.166667 0.125 0.708333
0.208333 0.125 0.708333
0.25 0.125 0.708333
0.291667 0.125 0.708333
0.333333 0.125 0.708333
0.375 0.125 0.708333
0.416667 0.125 0.708333
0.458333 0.125 0.708333
0.5 0.125 0.708333
0.541667 0.125 0.708333
0.583333 0.125 0.708333
0.625 0.125 0.708333
0.666667 0.125 0.708333
0.708333 0.125 0.708333
0.75 0.125 0.708333
0.791667 0.125 0.708333
0.833333 0.125 0.708333
0.875 0.125 0.708333
0.916667 0.125 0.708333
0.958333 0.125 0.708333
1 0.125 0.708333
0 0.166667 0.708333
0.0416667 0.166667 0.708333
0.0833333 0.166667 0.708333
0.125 0.166667 0.708333
0.166667 0.166667 0.708333
0.208333 0.166667 0.708333
0.25 0.166667 0.708333
0.291667 0.166667 0.708333
0.333333 0.166667 0.708333
0.375 0.166667 0.708333
0.416667 0.166667 0.708333
0.458333 0.166667 0.708333
0.5 0.166667 0.708333
0.541667 0.166667 0.708333
0.583333 0.166667 0.708333
0.625 0.166667 0.708333
0.666667 0.166667 0.708333
0.708333 0.166667 0.708333
0.75 0.166667 0.708333
0.791667 0.166667 0.708333
0.833333 0.166667 0.708333
0.875 0.166667 0.708333
0.916667 0.166667 0.708333
0.958333 0.166667 0.708333
1 0.166667 0.708333
0 0.208333 0.708333
0.0416667 0.208333 0.708333
0.0833333 0.208333 0.708333
0.125 0.208333 0.708333
0.166667 0.208333 0.708333
0.208333 0.208333 0.708333
0.25 0.208333 0.708333
0.291667 0.208333 0.708333
0.333333 0.208333 0.708333
0.375 0.208333 0.708333
0.416667 0.208333 0.708333
0.458333 0.208333 0.708333
0.5 0.208333 0.708333
0.541667 0.208333 0.708333
0.583333 0.208333 0.708333
0.625 0.208333 0.708333
0.666667 0.208333 0.708333
0.708333 0.208333 0.708333
0.75 0.208333 0.708333
0.791667 0.208333 0.708333
0.833333 0.208333 0.708333
0.875 0.208333 0.708333
0.916667 0.208333 0.708333
0.958333 0.208333 0.708333
1 0.208333 0.708333
0 0.25 0.708333
0.0416667 0.25 0.708333
0.0833333 0.25 0.708333
0.125 0.25 0.708333
0.166667 0.25 0.708333
0.208333 0.25 0.708333
0.25 0.25 0.708333
0.291667 0.25 0.708333
0.333333 0.25 0.708333
0.375 0.25 0.708333
0.416667 0.25 0.708333
0.458333 0.25 0.708333
0.5 0.25 0.708333
0.541667 0.25 0.708333
0.583333 0.25 0.708333
0.625 0.25 0.708333
0.666667 0.25 0.708333
0.708333 0.25 0.708333
0.75 0.25 0.708333
0.791667 0.25 0.708333
0.833333 0.25 0.708333
0.875 0.25 0.708333
0.916667 0.25 0.708333
0.958333 0.25 0.708333
1 0.25 0.708333
0 0.291667 0.708333
0.0416667 0.291667 0.708333
0.0833333 0.291667 0.708333
0.125 0.291667 0.708333
0.166667 0.291667 0.708333
0.208333 0.291667 0.708333
0.25 0.291667 0.708333
0.291667 0.291667 0.708333
0.333333 0.291667 0.708333
0.375 0.291667 0.708333
0.416667 0.291667 0.708333
0.458333 0.291667 0.708333
0.5 0.291667 0.708333
0.541667 0.291667 0.708333
0.583333 0.291667 0.708333
0.625 0.291667 0.708333
0.666667 0.291667 0.708333
0.708333 0.291667 0.708333
0.75 0.291667 0.708333
0.791667 0.291667 0.708333
0.833333 0.291667 0.708333
0.875 0.291667 0.708333
0.916667 0.291667 0.708333
0.958333 0.291667 0.708333
1 0.291667 0.708333
0 0.333333 0.708333
0.0416667 0.333333 0.708333
0.0833333 0.333333 0.708333
0.125 0.333333 0.708333
0.166667 0.333333 0.708333
0.208333 0.333333 0.708333
0.25 0.333333 0.708333
0.291667 0.333333 0.708333
0.333333 0.333333 0.708333
0.375 0.333333 0.708333
0.416667 0.333333 0.708333
0.458333 0.333333 0.708333
0.5 0.333333 0.708333
0.541667 0.333333 0.708333
0.583333 0.333333 0.708333
0.625 0.333333 0.708333
0.666667 0.333333 0.708333
0.708333 0.333333 0.708333
0.75 0.333333 0.708333
0.791667 0.333333 0.708333
0.833333 0.333333 0.708333
0.875 0.333333 0.708333
0.916667 0.333333 0.708333
0.958333 0.333333 0.708333
1 0.333333 0.708333
0 0.375 0.708333
0.0416667 0.375 0.708333
0.0833333 0.375 0.708333
0.125 0.375 0.708333
0.166667 0.375 0.708333
0.208333 0.375 0.708333
0.25 0.375 0.708333
0.291667 0.375 0.708333
0.333333 0.375 0.708333
0.375 0.375 0.708333
0.416667 0.375 0.708333
0.458333 0.375 0.708333
0.5 0.375 0.708333
0.541667 0.375 0.708333
0.583333 0.375 0.708333
0.625 0.375 0.708333
0.666667 0.375 0.708333
0.708333 0.375 0.708333
0.75 0.375 0.708333
0.791667 0.375 0.708333
0.833333 0.375 0.708333
0.875 0.375 0.708333
0.916667 0.375 0.708333
0.958333 0.375 0.708333
1 0.375 0.708333
0 0.416667 0.708333
0.0416667 0.416667 0.708333
0.0833333 0.416667 0.708333
0.125 0.416667 0.708333
0.166667 0.416667 0.708333
0.208333 0.416667 0.708333
0.25 0.416667 0.708333
0.291667 0.416667 0.708333
0.333333 0.416667 0.708333
0.375 0.416667 0.708333
0.416667 0.416667 0.708333
0.458333 0.416667 0.708333
0.5 0.416667 0.708333
0.541667 0.416667 0.708333
0.583333 0.416667 0.708333
0.625 0.416667 0.708333
0.666667 0.416667 0.708333
0.708333 0.416667 0.708333
0.75 0.416667 0.708333
0.791667 0.416667 0.708333
0.833333 0.416667 0.708333
0.875 0.416667 0.708333
0.916667 0.416667 0.708333
0.958333 0.416667 0.708333
1 0.416667 0.708333
0 0.458333 0.708333
0.0416667 0.458333 0.708333
0.0833333 0.458333 0.708333
0.125 0.458333 0.708333
0.166667 0.458333 0.708333
0.208333 0.458333 0.708333
0.25 0.458333 0.708333
0.291667 0.458333 0.708333
0.333333 0.458333 0.708333
0.375 0.458333 0.708333
0.416667 0.458333 0.708333
0.458333 0.458333 0.708333
0.5 0.458333 0.708333
0.541667 0.458333 0.708333
0.583333 0.458333 0.708333
0.625 0.458333 0.708333
0.666667 0.458333 0.708333
0.708333 0.458333 0.708333
0.75 0.458333 0.708333
0.791667 0.458333 0.708333
0.833333 0.458333 0.708333
0.875 0.458333 0.708333
0.916667 0.458333 0.708333
0.958333 0.458333 0.708333
1 0.458333 0.708333
0 0.5 0.708333
0.0416667 0.5 0.708333
0.0833333 0.5 0.708333
0.125 0.5 0.708333
0.166667 0.5 0.708333
0.208333 0.5 0.708333
0.25 0.5 0.708333
0.291667 0.5 0.708333
0.333333 0.5 0.708333
0.375 0.5 0.708333
0.416667 0.5 0.708333
0.458333 0.5 0.708333
0.5 0.5 0.708333
0.541667 0.5 0.708333
0.583333 0.5 0.708333
0.625 0.5 0.708333
0.666667 0.5 0.708333
0.708333 0.5 0.708333
0.75 0.5 0.708333
0.791667 0.5 0.708333
0.833333 0.5 0.708333
0.875 0.5 0.708333
0.916667 0.5 0.708333
0.958333 0.5 0.708333
1 0.5 0.708333
0 0.541667 0.708333
0.0416667 0.541667 0.708333
0.0833333 0.541667 0.708333
0.125 0.541667 0.708333
0.166667 0.541667 0.708333
0.208333 0.541667 0.708333
0.25 0.541667 0.708333
0.291667 0.541667 0.708333
0.333333 0.541667 0.708333
0.375 0.541667 0.708333
0.416667 0.541667 0.708333
0.458333 0.541667 0.708333
0.5 0.541667 0.708333
0.541667 0.541667 0.708333
0.583333 0.541667 0.708333
0.625 0.541667 0.708333
0.666667 0.541667 0.708333
0.708333 0.541667 0.708333
0.75 0.541667 0.708333
0.791667 0.541667 0.708333
0.833333 0.541667 0.708333
0.875 0.541667 0.708333
0.916667 0.541667 0.708333
0.958333 0.541667 0.708333
1 0.541667 0.708333
0 0.583333 0.708333
0.0416667 0.583333 0.708333
0.0833333 0.583333 0.708333
0.125 0.583333 0.708333
0.166667 0.583333 0.708333
0.208333 0.583333 0.708333
0.25 0.583333 0.708333
0.291667 0.583333 0.708333
0.333333 0.583333 0.708333
0.375 0.583333 0.708333
0.416667 0.583333 0.708333
0.458333 0.583333 0.708333
0.5 0.583333 0.708333
0.541667 0.583333 0.708333
0.583333 0.583333 0.708333
0.625 0.583333 0.708333
0.666667 0.583333 0.708333
0.708333 0.583333 0.708333
0.75 0.583333 0.708333
0.791667 0.583333 0.708333
0.833333 0.583333 0.708333
0.875 0.583333 0.708333
0.916667 0.583333 0.708333
0.958333 0.583333 0.708333
1 0.583333 0.708333
0 0.625 0.708333
0.0416667 0.625 0.708333
0.0833333 0.625 0.708333
0.125 0.625 0.708333
0.166667 0.625 0.708333
0.208333 0.625 0.708333
0.25 0.625 0.708333
0.291667 0.625 0.708333
0.333333 0.625 0.708333
0.375 0.625 0.708333
0.416667 0.625 0.708333
0.458333 0.625 0.708333
0.5 0.625 0.708333
0.541667 0.625 0.708333
0.583333 0.625 0.708333
0.625 0.625 0.708333
0.666667 0.625 0.708333
0.708333 0.625 0.708333
0.75 0.625 0.708333
0.791667 0.625 0.708333
0.833333 0.625 0.708333
0.875 0.625 0.708333
0.916667 0.625 0.708333
0.958333 0.625 0.708333
1 0.625 0.708333
0 0.666667 0.708333
0.0416667 0.666667 0.708333
0.0833333 0.666667 0.708333
0.125 0.666667 0.708333
0.166667 0.666667 0.708333
0.208333 0.666667 0.708333
0.25 0.666667 0.708333
0.291667 0.666667 0.708333
0.333333 0.666667 0.708333
0.375 0.666667 0.708333
0.416667 0.666667 0.708333
0.458333 0.666667 0.708333
0.5 0.666667 0.708333
0.541667 0.666667 0.708333
0.583333 0.666667 0.708333
0.625 0.666667 0.708333
0.666667 0.666667 0.708333
0.708333 0.666667 0.708333
0.75 0.666667 0.708333
0.791667 0.666667 0.708333
0.833333 0.666667 0.708333
0.875 0.666667 0.708333
0.916667 0.666667 0.708333
0.958333 0.666667 0.708333
1 0.666667 0.708333
0 0.708333 0.708333
0.0416667 0.708333 0.708333
0.0833333 0.708333 0.708333
0.125 0.708333 0.708333
0.166667 0.708333 0.708333
0.208333 0.708333 0.708333
0.25 0.708333 0.708333
0.291667 0.708333 0.708333
0.333333 0.708333 0.708333
0.375 0.708333 0.708333
0.416667 0.708333 0.708333
0.458333 0.708333 0.708333
0.5 0.708333 0.708333
0.541667 0.708333 0.708333
0.583333 0.708333 0.708333
0.625 0.708333 0.708333
0.666667 0.708333 0.708333
0.708333 0.708333 0.708333
0.75 0.708333 0.708333
0.791667 0.708333 0.708333
0.833333 0.708333 0.708333
0.875 0.708333 0.708333
0.916667 0.708333 0.708333
0.958333 0.708333 0.708333
1 0.708333 0.708333
0 0.75 0.708333
0.0416667 0.75 0.708333
0.0833333 0.75 0.708333
0.125 0.75 0.708333
0.166667 0.75 0.708333
0.208333 0.75 0.708333
0.25 0.75 0.708333
0.291667 0.75 0.708333
0.333333 0.75 0.708333
0.375 0.75 0.708333
0.416667 0.75 0.708333
0.458333 0.75 0.708333
0.5 0.75 0.708333
0.541667 0.75 0.708333
0.583333 0.75 0.708333
0.625 0.75 0.708333
0.666667 0.75 0.708333
0.708333 0.75 0.708333
0.75 0.75 0.708333
0.791667 0.75 0.708333
0.833333 0.75 0.708333
0.875 0.75 0.708333
0.916667 0.75 0.708333
0.958333 0.75 0.708333
1 0.75 0.708333
0 0.791667 0.708333
0.0416667 0.791667 0.708333
0.0833333 0.791667 0.708333
0.125 0.791667 0.708333
0.166667 0.791667 0.708333
0.208333 0.791667 0.708333
0.25 0.791667 0.708333
0.291667 0.791667 0.708333
0.333333 0.791667 0.708333
0.375 0.791667 0.708333
0.416667 0.791667 0.708333
0.458333 0.791667 0.708333
0.5 0.791667 0.708333
0.541667 0.791667 0.708333
0.583333 0.791667 0.708333
0.625 0.791667 0.708333
0.666667 0.791667 0.708333
0.708333 0.791667 0.708333
0.75 0.791667 0.708333
0.791667 0.791667 0.708333
0.833333 0.791667 0.708333
0.875 0.791667 0.708333
0.916667 0.791667 0.708333
0.958333 0.791667 0.708333
1 0.791667 0.708333
0 0.833333 0.708333
0.0416667 0.833333 0.708333
0.0833333 0.833333 0.708333
0.125 0.833333 0.708333
0.166667 0.833333 0.708333
0.208333 0.833333 0.708333
0.25 0.833333 0.708333
0.291667 0.833333 0.708333
0.333333 0.833333 0.708333
0.375 0.833333 0.708333
0.416667 0.833333 0.708333
0.458333 0.833333 0.708333
0.5 0.833333 0.708333
0.541667 0.833333 0.708333
0.583333 0.833333 0.708333
0.625 0.833333 0.708333
0.666667 0.833333 0.708333
0.708333 0.833333 0.708333
0.75 0.833333 0.708333
0.791667 0.833333 0.708333
0.833333 0.833333 0.708333
0.875 0.833333 0.708333
0.916667 0.833333 0.708333
0.958333 0.833333 0.708333
1 0.833333 0.708333
0 0.875 0.708333
0.0416667 0.875 0.708333
0.0833333 0.875 0.708333
0.125 0.875 0.708333
0.166667 0.875 0.708333
0.208333 0.875 0.708333
0.25 0.875 0.708333
0.291667 0.875 0.708333
0.333333 0.875 0.708333
0.375 0.875 0.708333
0.416667 0.875 0.708333
0.458333 0.875 0.708333
0.5 0.875 0.708333
0.541667 0.875 0.708333
0.583333 0.875 0.708333
0.625 0.875 0.708333
0.666667 0.875 0.708333
0.708333 0.875 0.708333
0.75 0.875 0.708333
0.791667 0.875 0.708333
0.833333 0.875 0.708333
0.875 0.875 0.708333
0.916667 0.875 0.708333
0.958333 0.875 0.708333
1 0.875 0.708333
0 0.916667 0.708333
0.0416667 0.916667 0.708333
0.0833333 0.916667 0.708333
0.125 0.916667 0.708333
0.166667 0.916667 0.708333
0.208333 0.916667 0.708333
0.25 0.916667 0.708333
0.291667 0.916667 0.708333
0.333333 0.916667 0.708333
0.375 0.916667 0.708333
0.416667 0.916667 0.708333
0.458333 0.916667 0.708333
0.5 0.916667 0.708333
0.541667 0.916667 0.708333
0.583333 0.916667 0.708333
0.625 0.916667 0.708333
0.666667 0.916667 0.708333
0.708333 0.916667 0.708333
0.75 0.916667 0.708333
0.791667 0.916667 0.708333
0.833333 0.916667 0.708333
0.875 0.916667 0.708333
0.916667 0.916667 0.708333
0.958333 0.916667 0.708333
1 0.916667 0.708333
0 0.958333 0.708333
0.0416667 0.958333 0.708333
0.0833333 0.958333 0.708333
0.125 0.958333 0.708333
0.166667 0.958333 0.708333
0.208333 0.958333 0.708333
0.25 0.958333 0.708333
0.291667 0.958333 0.708333
0.333333 0.958333 0.708333
0.375 0.958333 0.708333
0.416667 0.958333 0.708333
0.458333 0.958333 0.708333
0.5 0.958333 0.708333
0.541667 0.958333 0.708333
0.583333 0.958333 0.708333
0.625 0.958333 0.708333
0.666667 0.958333 0.708333
0.708333 0.958333 0.708333
0.75 0.958333 0.708333
0.791667 0.958333 0.708333
0.833333 0.958333 0.708333
0.875 0.958333 0.708333
0.916667 0.958333 0.708333
0.958333 0.958333 0.708333
1 0.958333 0.708333
0 1 0.708333
0.0416667 1 0.708333
0.0833333 1 0.708333
0.125 1 0.708333
0.166667 1 0.708333
0.208333 1 0.708333
0.25 1 0.708333
0.291667 1 0.708333
0.333333 1 0.708333
0.375 1 0.708333
0.416667 1 0.708333
0.458333 1 0.708333
0.5 1 0.708333
0.541667 1 0.708333
0.583333 1 0.708333
0.625 1 0.708333
0.666667 1 0.708333
0.708333 1 0.708333
0.75 1 0.708333
0.791667 1 0.708333
0.833333 1 0.708333
0.875 1 0.708333
0.916667 1 0.708333
0.958333 1 0.708333
1 1 0.708333
0 0 0.75
0.0416667 0 0.75
0.0833333 0 0.75
0.125 0 0.75
0.166667 0 0.75
0.208333 0 0.75
0.25 0 0.75
0.291667 0 0.75
0.333333 0 0.75
0.375 0 0.75
0.416667 0 0.75
0.458333 0 0.75
0.5 0 0.75
0.541667 0 0.75
0.583333 0 0.75
0.625 0 0.75
0.666667 0 0.75
0.708333 0 0.75
0.75 0 0.75
0.791667 0 0.75
0.833333 0 0.75
0.875 0 0.75
0.916667 0 0.75
0.958333 0 0.75
1 0 0.75
0 0.0416667 0.75
0.0416667 0.0416667 0.75
0.0833333 0.0416667 0.75
0.125 0.0416667 0.75
0.166667 0.0416667 0.75
0.208333 0.0416667 0.75
0.25 0.0416667 0.75
0.291667 0.0416667 0.75
0.333333 0.0416667 0.75
0.375 0.0416667 0.75
0.416667 0.0416667 0.75
0.458333 0.0416667 0.75
0.5 0.0416667 0.75
0.541667 0.0416667 0.75
0.583333 0.0416667 0.75
0.625 0.0416667 0.75
0.666667 0.0416667 0.75
0.708333 0.0416667 0.75
0.75 0.0416667 0.75
0.791667 0.0416667 0.75
0.833333 0.0416667 0.75
0.875 0.0416667 0.75
0.916667 0.0416667 0.75
0.958333 0.0416667 0.75
1 0.0416667 0.75
0 0.0833333 0.75
0.0416667 0.0833333 0.75
0.0833333 0.0833333 0.75
0.125 0.0833333 0.75
0.166667 0.0833333 0.75
0.208333 0.0833333 0.75
0.25 0.0833333 0.75
0.291667 0.0833333 0.75
0.333333 0.0833333 0.75
0.375 0.0833333 0.75
0.416667 0.0833333 0.75
0.458333 0.0833333 0.75
0.5 0.0833333 0.75
0.541667 0.0833333 0.75
0.583333 0.0833333 0.75
0.625 0.0833333 0.75
0.666667 0.0833333 0.75
0.708333 0.0833333 0.75
0.75 0.0833333 0.75
0.791667 0.0833333 0.75
0.833333 0.0833333 0.75
0.875 0.0833333 0.75
0.916667 0.0833333 0.75
0.958333 0.0833333 0.75
1 0.0833333 0.75
0 0.125 0.75
0.0416667 0.125 0.75
0.0833333 0.125 0.75
0.125 0.125 0.75
0.166667 0.125 0.75
0.208333 0.125 0.75
0.25 0.125 0.75
0.291667 0.125 0.75
0.333333 0.125 0.75
0.375 0.125 0.75
0.416667 0.125 0.75
0.458333 0.125 0.75
0.5 0.125 0.75
0.541667 0.125 0.75
0.583333 0.125 0.75
0.625 0.125 0.75
0.666667 0.125 0.75
0.708333 0.125 0.75
0.75 0.125 0.75
0.791667 0.125 0.75
0.833333 0.125 0.75
0.875 0.125 0.75
0.916667 0.125 0.75
0.958333 0.125 0.75
1 0.125 0.75
0 0.166667 0.75
0.0416667 0.166667 0.75
0.0833333 0.166667 0.75
0.125 0.166667 0.75
0.166667 0.166667 0.75
0.208333 0.166667 0.75
0.25 0.166667 0.75
0.291667 0.166667 0.75
0.333333 0.166667 0.75
0.375 0.166667 0.75
0.416667 0.166667 0.75
0.458333 0.166667 0.75
0.5 0.166667 0.75
0.541667 0.166667 0.75
0.583333 0.166667 0.75
0.625 0.166667 0.75
0.666667 0.166667 0.75
0.708333 0.166667 0.75
0.75 0.166667 0.75
0.791667 0.166667 0.75
0.833333 0.166667 0.75
0.875 0.166667 0.75
0.916667 0.166667 0.75
0.958333 0.166667 0.75
1 0.166667 0.75
0 0.208333 0.75
0.0416667 0.208333 0.75
0.0833333 0.208333 0.75
0.125 0.208333 0.75
0.166667 0.208333 0.75
0.208333 0.208333 0.75
0.25 0.208333 0.75
0.291667 0.208333 0.75
0.333333 0.208333 0.75
0.375 0.208333 0.75
0.416667 0.208333 0.75
0.458333 0.208333 0.75
0.5 0.208333 0.75
0.541667 0.208333 0.75
0.583333 0.208333 0.75
0.625 0.208333 0.75
0.666667 0.208333 0.75
0.708333 0.208333 0.75
0.75 0.208333 0.75
0.791667 0.208333 0.75
0.833333 0.208333 0.75
0.875 0.208333 0.75
0.916667 0.208333 0.75
0.958333 0.208333 0.75
1 0.208333 0.75
0 0.25 0.75
0.0416667 0.25 0.75
0.0833333 0.25 0.75
0.125 0.25 0.75
0.166667 0.25 0.75
0.208333 0.25 0.75
0.25 0.25 0.75
0.291667 0.25 0.75
0.333333 0.25 0.75
0.375 0.25 0.75
0.416667 0.25 0.75
0.458333 0.25 0.75
0.5 0.25 0.75
0.541667 0.25 0.75
0.583333 0.25 0.75
0.625 0.25 0.75
0.666667 0.25 0.75
0.708333 0.25 0.75
0.75 0.25 0.75
0.791667 0.25 0.75
0.833333 0.25 0.75
0.875 0.25 0.75
0.916667 0.25 0.75
0.958333 0.25 0.75
1 0.25 0.75
0 0.291667 0.75
0.0416667 0.291667 0.75
0.0833333 0.291667 0.75
0.125 0.291667 0.75
0.166667 0.291667 0.75
0.208333 0.291667 0.75
0.25 0.291667 0.75
0.291667 0.291667 0.75
0.333333 0.291667 0.75
0.375 0.291667 0.75
0.416667 0.291667 0.75
0.458333 0.291667 0.75
0.5 0.291667 0.75
0.541667 0.291667 0.75
0.583333 0.291667 0.75
0.625 0.291667 0.75
0.666667 0.291667 0.75
0.708333 0.291667 0.75
0.75 0.291667 0.75
0.791667 0.291667 0.75
0.833333 0.291667 0.75
0.875 0.291667 0.75
0.916667 0.291667 0.75
0.958333 0.291667 0.75
1 0.291667 0.75
0 0.333333 0.75
0.0416667 0.333333 0.75
0.0833333 0.333333 0.75
0.125 0.333333 0.75
0.166667 0.333333 0.75
0.208333 0.333333 0.75
0.25 0.333333 0.75
0.291667 0.333333 0.75
0.333333 0.333333 0.75
0.375 0.333333 0.75
0.416667 0.333333 0.75
0.458333 0.333333 0.75
0.5 0.333333 0.75
0.541667 0.333333 0.75
0.583333 0.333333 0.75
0.625 0.333333 0.75
0.666667 0.333333 0.75
0.708333 0.333333 0.75
0.75 0.333333 0.75
0.791667 0.333333 0.75
0.833333 0.333333 0.75
0.875 0.333333 0.75
0.916667 0.333333 0.75
0.958333 0.333333 0.75
1 0.333333 0.75
0 0.375 0.75
0.0416667 0.375 0.75
0.0833333 0.375 0.75
0.125 0.375 0.75
0.166667 0.375 0.75
0.208333 0.375 0.75
0.25 0.375 0.75
0.291667 0.375 0.75
0.333333 0.375 0.75
0.375 0.375 0.75
0.416667 0.375 0.75
0.458333 0.375 0.75
0.5 0.375 0.75
0.541667 0.375 0.75
0.583333 0.375 0.75
0.625 0.375 0.75
0.666667 0.375 0.75
0.708333 0.375 0.75
0.75 0.375 0.75
0.791667 0.375 0.75
0.833333 0.375 0.75
0.875 0.375 0.75
0.916667 0.375 0.75
0.958333 0.375 0.75
1 0.375 0.75
0 0.416667 0.75
0.0416667 0.416667 0.75
0.0833333 0.416667 0.75
0.125 0.416667 0.75
0.166667 0.416667 0.75
0.208333 0.416667 0.75
0.25 0.416667 0.75
0.291667 0.416667 0.75
0.333333 0.416667 0.75
0.375 0.416667 0.75
0.416667 0.416667 0.75
0.458333 0.416667 0.75
0.5 0.416667 0.75
0.541667 0.416667 0.75
0.583333 0.416667 0.75
0.625 0.416667 0.75
0.666667 0.416667 0.75
0.708333 0.416667 0.75
0.75 0.416667 0.75
0.791667 0.416667 0.75
0.833333 0.416667 0.75
0.875 0.416667 0.75
0.916667 0.416667 0.75
0.958333 0.416667 0.75
1 0.416667 0.75
0 0.458333 0.75
0.0416667 0.458333 0.75
0.0833333 0.458333 0.75
0.125 0.458333 0.75
0.166667 0.458333 0.75
0.208333 0.458333 0.75
0.25 0.458333 0.75
0.291667 0.458333 0.75
0.333333 0.458333 0.75
0.375 0.458333 0.75
0.416667 0.458333 0.75
0.458333 0.458333 0.75
0.5 0.458333 0.75
0.541667 0.458333 0.75
0.583333 0.458333 0.75
0.625 0.458333 0.75
0.666667 0.458333 0.75
0.708333 0.458333 0.75
0.75 0.458333 0.75
0.791667 0.458333 0.75
0.833333 0.458333 0.75
0.875 0.458333 0.75
0.916667 0.458333 0.75
0.958333 0.458333 0.75
1 0.458333 0.75
0 0.5 0.75
0.0416667 0.5 0.75
0.0833333 0.5 0.75
0.125 0.5 0.75
0.166667 0.5 0.75
0.208333 0.5 0.75
0.25 0.5 0.75
0.291667 0.5 0.75
0.333333 0.5 0.75
0.375 0.5 0.75
0.416667 0.5 0.75
0.458333 0.5 0.75
0.5 0.5 0.75
0.541667 0.5 0.75
0.583333 0.5 0.75
0.625 0.5 0.75
0.666667 0.5 0.75
0.708333 0.5 0.75
0.75 0.5 0.75
0.791667 0.5 0.75
0.833333 0.5 0.75
0.875 0.5 0.75
0.916667 0.5 0.75
0.958333 0.5 0.75
1 0.5 0.75
0 0.541667 0.75
0.0416667 0.541667 0.75
0.0833333 0.541667 0.75
0.125 0.541667 0.75
0.166667 0.541667 0.75
0.208333 0.541667 0.75
0.25 0.541667 0.75
0.291667 0.541667 0.75
0.333333 0.541667 0.75
0.375 0.541667 0.75
0.416667 0.541667 0.75
0.458333 0.541667 0.75
0.5 0.541667 0.75
0.541667 0.541667 0.75
0.583333 0.541667 0.75
0.625 0.541667 0.75
0.666667 0.541667 0.75
0.708333 0.541667 0.75
0.75 0.541667 0.75
0.791667 0.541667 0.75
0.833333 0.541667 0.75
0.875 0.541667 0.75
0.916667 0.541667 0.75
0.958333 0.541667 0.75
1 0.541667 0.75
0 0.583333 0.75
0.0416667 0.583333 0.75
0.0833333 0.583333 0.75
0.125 0.583333 0.75
0.166667 0.583333 0.75
0.208333 0.583333 0.75
0.25 0.583333 0.75
0.291667 0.583333 0.75
0.333333 0.583333 0.75
0.375 0.583333 0.75
0.416667 0.583333 0.75
0.458333 0.583333 0.75
0.5 0.583333 0.75
0.541667 0.583333 0.75
0.583333 0.583333 0.75
0.625 0.583333 0.75
0.666667 0.583333 0.75
0.708333 0.583333 0.75
0.75 0.583333 0.75
0.791667 0.583333 0.75
0.833333 0.583333 0.75
0.875 0.583333 0.75
0.916667 0.583333 0.75
0.958333 0.583333 0.75
1 0.583333 0.75
0 0.625 0.75
0.0416667 0.625 0.75
0.0833333 0.625 0.75
0.125 0.625 0.75
0.166667 0.625 0.75
0.208333 0.625 0.75
0.25 0.625 0.75
0.291667 0.625 0.75
0.333333 0.625 0.75
0.375 0.625 0.75
0.416667 0.625 0.75
0.458333 0.625 0.75
0.5 0.625 0.75
0.541667 0.625 0.75
0.583333 0.625 0.75
0.625 0.625 0.75
0.666667 0.625 0.75
0.708333 0.625 0.75
0.75 0.625 0.75
0.791667 0.625 0.75
0.833333 0.625 0.75
0.875 0.625 0.75
0.916667 0.625 0.75
0.958333 0.625 0.75
1 0.625 0.75
0 0.666667 0.75
0.0416667 0.666667 0.75
0.0833333 0.666667 0.75
0.125 0.666667 0.75
0.166667 0.666667 0.75
0.208333 0.666667 0.75
0.25 0.666667 0.75
0.291667 0.666667 0.75
0.333333 0.666667 0.75
0.375 0.666667 0.75
0.416667 0.666667 0.75
0.458333 0.666667 0.75
0.5 0.666667 0.75
0.541667 0.666667 0.75
0.583333 0.666667 0.75
0.625 0.666667 0.75
0.666667 0.666667 0.75
0.708333 0.666667 0.75
0.75 0.666667 0.75
0.791667 0.666667 0.75
0.833333 0.666667 0.75
0.875 0.666667 0.75
0.916667 0.666667 0.75
0.958333 0.666667 0.75
1 0.666667 0.75
0 0.708333 0.75
0.0416667 0.708333 0.75
0.0833333 0.708333 0.75
0.125 0.708333 0.75
0.166667 0.708333 0.75
0.208333 0.708333 0.75
0.25 0.708333 0.75
0.291667 0.708333 0.75
0.333333 0.708333 0.75
0.375 0.708333 0.75
0.416667 0.708333 0.75
0.458333 0.708333 0.75
0.5 0.708333 0.75
0.541667 0.708333 0.75
0.583333 0.708333 0.75
0.625 0.708333 0.75
0.666667 0.708333 0.75
0.708333 0.708333 0.75
0.75 0.708333 0.75
0.791667 0.708333 0.75
0.833333 0.708333 0.75
0.875 0.708333 0.75
0.916667 0.708333 0.75
0.958333 0.708333 0.75
1 0.708333 0.75
0 0.75 0.75
0.0416667 0.75 0.75
0.0833333 0.75 0.75
0.125 0.75 0.75
0.166667 0.75 0.75
0.208333 0.75 0.75
0.25 0.75 0.75
0.291667 0.75 0.75
0.333333 0.75 0.75
0.375 0.75 0.75
0.416667 0.75 0.75
0.458333 0.75 0.75
0.5 0.75 0.75
0.541667 0.75 0.75
0.583333 0.75 0.75
0.625 0.75 0.75
0.666667 0.75 0.75
0.708333 0.75 0.75
0.75 0.75 0.75
0.791667 0.75 0.75
0.833333 0.75 0.75
0.875 0.75 0.75
0.916667 0.75 0.75
0.958333 0.75 0.75
1 0.75 0.75
0 0.791667 0.75
0.0416667 0.791667 0.75
0.0833333 0.791667 0.75
0.125 0.791667 0.75
0.166667 0.791667 0.75
0.208333 0.791667 0.75
0.25 0.791667 0.75
0.291667 0.791667 0.75
0.333333 0.791667 0.75
0.375 0.791667 0.75
0.416667 0.791667 0.75
0.458333 0.791667 0.75
0.5 0.791667 0.75
0.541667 0.791667 0.75
0.583333 0.791667 0.75
0.625 0.791667 0.75
0.666667 0.791667 0.75
0.708333 0.791667 0.75
0.75 0.791667 0.75
0.791667 0.791667 0.75
0.833333 0.791667 0.75
0.875 0.791667 0.75
0.916667 0.791667 0.75
0.958333 0.791667 0.75
1 0.791667 0.75
0 0.833333 0.75
0.0416667 0.833333 0.75
0.0833333 0.833333 0.75
0.125 0.833333 0.75
0.166667 0.833333 0.75
0.208333 0.833333 0.75
0.25 0.833333 0.75
0.291667 0.833333 0.75
0.333333 0.833333 0.75
0.375 0.833333 0.75
0.416667 0.833333 0.75
0.458333 0.833333 0.75
0.5 0.833333 0.75
0.541667 0.833333 0.75
0.583333 0.833333 0.75
0.625 0.833333 0.75
0.666667 0.833333 0.75
0.708333 0.833333 0.75
0.75 0.833333 0.75
0.791667 0.833333 0.75
0.833333 0.833333 0.75
0.875 0.833333 0.75
0.916667 0.833333 0.75
0.958333 0.833333 0.75
1 0.833333 0.75
0 0.875 0.75
0.0416667 0.875 0.75
0.0833333 0.875 0.75
0.125 0.875 0.75
0.166667 0.875 0.75
0.208333 0.875 0.75
0.25 0.875 0.75
0.291667 0.875 0.75
0.333333 0.875 0.75
0.375 0.875 0.75
0.416667 0.875 0.75
0.458333 0.875 0.75
0.5 0.875 0.75
0.541667 0.875 0.75
0.583333 0.875 0.75
0.625 0.875 0.75
0.666667 0.875 0.75
0.708333 0.875 0.75
0.75 0.875 0.75
0.791667 0.875 0.75
0.833333 0.875 0.75
0.875 0.875 0.75
0.916667 0.875 0.75
0.958333 0.875 0.75
1 0.875 0.75
0 0.916667 0.75
0.0416667 0.916667 0.75
0.0833333 0.916667 0.75
0.125 0.916667 0.75
0.166667 0.916667 0.75
0.208333 0.916667 0.75
0.25 0.916667 0.75
0.291667 0.916667 0.75
0.333333 0.916667 0.75
0.375 0.916667 0.75
0.416667 0.916667 0.75
0.458333 0.916667 0.75
0.5 0.916667 0.75
0.541667 0.916667 0.75
0.583333 0.916667 0.75
0.625 0.916667 0.75
0.666667 0.916667 0.75
0.708333 0.916667 0.75
0.75 0.916667 0.75
0.791667 0.916667 0.75
0.833333 0.916667 0.75
0.875 0.916667 0.75
0.916667 0.916667 0.75
0.958333 0.916667 0.75
1 0.916667 0.75
0 0.958333 0.75
0.0416667 0.958333 0.75
0.0833333 0.958333 0.75
0.125 0.958333 0.75
0.166667 0.958333 0.75
0.208333 0.958333 0.75
0.25 0.958333 0.75
0.291667 0.958333 0.75
0.333333 0.958333 0.75
0.375 0.958333 0.75
0.416667 0.958333 0.75
0.458333 0.958333 0.75
0.5 0.958333 0.75
0.541667 0.958333 0.75
0.583333 0.958333 0.75
0.625 0.958333 0.75
0.666667 0.958333 0.75
0.708333 0.958333 0.75
0.75 0.958333 0.75
0.791667 0.958333 0.75
0.833333 0.958333 0.75
0.875 0.958333 0.75
0.916667 0.958333 0.75
0.958333 0.958333 0.75
1 0.958333 0.75
0 1 0.75
0.0416667 1 0.75
0.0833333 1 0.75
0.125 1 0.75
0.166667 1 0.75
0.208333 1 0.75
0.25 1 0.75
0.291667 1 0.75
0.333333 1 0.75
0.375 1 0.75
0.416667 1 0.75
0.458333 1 0.75
0.5 1 0.75
0.541667 1 0.75
0.583333 1 0.75
0.625 1 0.75
0.666667 1 0.75
0.708333 1 0.75
0.75 1 0.75
0.791667 1 0.75
0.833333 1 0.75
0.875 1 0.75
0.916667 1 0.75
0.958333 1 0.75
1 1 0.75
0 0 0.791667
0.0416667 0 0.791667
0.0833333 0 0.791667
0.125 0 0.791667
0.166667 0 0.791667
0.208333 0 0.791667
0.25 0 0.791667
0.291667 0 0.791667
0.333333 0 0.791667
0.375 0 0.791667
0.416667 0 0.791667
0.458333 0 0.791667
0.5 0 0.791667
0.541667 0 0.791667
0.583333 0 0.791667
0.625 0 0.791667
0.666667 0 0.791667
0.708333 0 0.791667
0.75 0 0.791667
0.791667 0 0.791667
0.833333 0 0.791667
0.875 0 0.791667
0.916667 0 0.791667
0.958333 0 0.791667
1 0 0.791667
0 0.0416667 0.791667
0.0416667 0.0416667 0.791667
0.0833333 0.0416667 0.791667
0.125 0.0416667 0.791667
0.166667 0.0416667 0.791667
0.208333 0.0416667 0.791667
0.25 0.0416667 0.791667
0.291667 0.0416667 0.791667
0.333333 0.0416667 0.791667
0.375 0.0416667 0.791667
0.416667 0.0416667 0.791667
0.458333 0.0416667 0.791667
0.5 0.0416667 0.791667
0.541667 0.0416667 0.791667
0.583333 0.0416667 0.791667
0.625 0.0416667 0.791667
0.666667 0.0416667 0.791667
0.708333 0.0416667 0.791667
0.75 0.0416667 0.791667
0.791667 0.0416667 0.791667
0.833333 0.0416667 0.791667
0.875 0.0416667 0.791667
0.916667 0.0416667 0.791667
0.958333 0.0416667 0.791667
1 0.0416667 0.791667
0 0.0833333 0.791667
0.0416667 0.0833333 0.791667
0.0833333 0.0833333 0.791667
0.125 0.0833333 0.791667
0.166667 0.0833333 0.791667
0.208333 0.0833333 0.791667
0.25 0.0833333 0.791667
0.291667 0.0833333 0.791667
0.333333 0.0833333 0.791667
0.375 0.0833333 0.791667
0.416667 0.0833333 0.791667
0.458333 0.0833333 0.791667
0.5 0.0833333 0.791667
0.541667 0.0833333 0.791667
0.583333 0.0833333 0.791667
0.625 0.0833333 0.791667
0.666667 0.0833333 0.791667
0.708333 0.0833333 0.791667
0.75 0.0833333 0.791667
0.791667 0.0833333 0.791667
0.833333 0.0833333 0.791667
0.875 0.0833333 0.791667
0.916667 0.0833333 0.791667
0.958333 0.0833333 0.791667
1 0.0833333 0.791667
0 0.125 0.791667
0.0416667 0.125 0.791667
0.0833333 0.125 0.791667
0.125 0.125 0.791667
0.166667 0.125 0.791667
0.208333 0.125 0.791667
0.25 0.125 0.791667
0.291667 0.125 0.791667
0.333333 0.125 0.791667
0.375 0.125 0.791667
0.416667 0.125 0.791667
0.458333 0.125 0.791667
0.5 0.125 0.791667
0.541667 0.125 0.791667
0.583333 0.125 0.791667
0.625 0.125 0.791667
0.666667 0.125 0.791667
0.708333 0.125 0.791667
0.75 0.125 0.791667
0.791667 0.125 0.791667
0.833333 0.125 0.791667
0.875 0.125 0.791667
0.916667 0.125 0.791667
0.958333 0.125 0.791667
1 0.125 0.791667
0 0.166667 0.791667
0.0416667 0.166667 0.791667
0.0833333 0.166667 0.791667
0.125 0.166667 0.791667
0.166667 0.166667 0.791667
0.208333 0.166667 0.791667
0.25 0.166667 0.791667
0.291667 0.166667 0.791667
0.333333 0.166667 0.791667
0.375 0.166667 0.791667
0.416667 0.166667 0.791667
0.458333 0.166667 0.791667
0.5 0.166667 0.791667
0.541667 0.166667 0.791667
0.583333 0.166667 0.791667
0.625 0.166667 0.791667
0.666667 0.166667 0.791667
0.708333 0.166667 0.791667
0.75 0.166667 0.791667
0.791667 0.166667 0.791667
0.833333 0.166667 0.791667
0.875 0.166667 0.791667
0.916667 0.166667 0.791667
0.958333 0.166667 0.791667
1 0.166667 0.791667
0 0.208333 0.791667
0.0416667 0.208333 0.791667
0.0833333 0.208333 0.791667
0.125 0.208333 0.791667
0.166667 0.208333 0.791667
0.208333 0.208333 0.791667
0.25 0.208333 0.791667
0.291667 0.208333 0.791667
0.333333 0.208333 0.791667
0.375 0.208333 0.791667
0.416667 0.208333 0.791667
0.458333 0.208333 0.791667
0.5 0.208333 0.791667
0.541667 0.208333 0.791667
0.583333 0.208333 0.791667
0.625 0.208333 0.791667
0.666667 0.208333 0.791667
0.708333 0.208333 0.791667
0.75 0.208333 0.791667
0.791667 0.208333 0.791667
0.833333 0.208333 0.791667
0.875 0.208333 0.791667
0.916667 0.208333 0.791667
0.958333 0.208333 0.791667
1 0.208333 0.791667
0 0.25 0.791667
0.0416667 0.25 0.791667
0.0833333 0.25 0.791667
0.125 0.25 0.791667
0.166667 0.25 0.791667
0.208333 0.25 0.791667
0.25 0.25 0.791667
0.291667 0.25 0.791667
0.333333 0.25 0.791667
0.375 0.25 0.791667
0.416667 0.25 0.791667
0.458333 0.25 0.791667
0.5 0.25 0.791667
0.541667 0.25 0.791667
0.583333 0.25 0.791667
0.625 0.25 0.791667
0.666667 0.25 0.791667
0.708333 0.25 0.791667
0.75 0.25 0.791667
0.791667 0.25 0.791667
0.833333 0.25 0.791667
0.875 0.25 0.791667
0.916667 0.25 0.791667
0.958333 0.25 0.791667
1 0.25 0.791667
0 0.291667 0.791667
0.0416667 0.291667 0.791667
0.0833333 0.291667 0.791667
0.125 0.291667 0.791667
0.166667 0.291667 0.791667
0.208333 0.291667 0.791667
0.25 0.291667 0.791667
0.291667 0.291667 0.791667
0.333333 0.291667 0.791667
0.375 0.291667 0.791667
0.416667 0.291667 0.791667
0.458333 0.291667 0.791667
0.5 0.291667 0.791667
0.541667 0.291667 0.791667
0.583333 0.291667 0.791667
0.625 0.291667 0.791667
0.666667 0.291667 0.791667
0.708333 0.291667 0.791667
0.75 0.291667 0.791667
0.791667 0.291667 0.791667
0.833333 0.291667 0.791667
0.875 0.291667 0.791667
0.916667 0.291667 0.791667
0.958333 0.291667 0.791667
1 0.291667 0.791667
0 0.333333 0.791667
0.0416667 0.333333 0.791667
0.0833333 0.333333 0.791667
0.125 0.333333 0.791667
0.166667 0.333333 0.791667
0.208333 0.333333 0.791667
0.25 0.333333 0.791667
0.291667 0.333333 0.791667
0.333333 0.333333 0.791667
0.375 0.333333 0.791667
0.416667 0.333333 0.791667
0.458333 0.333333 0.791667
0.5 0.333333 0.791667
0.541667 0.333333 0.791667
0.583333 0.333333 0.791667
0.625 0.333333 0.791667
0.666667 0.333333 0.791667
0.708333 0.333333 0.791667
0.75 0.333333 0.791667
0.791667 0.333333 0.791667
0.833333 0.333333 0.791667
0.875 0.333333 0.791667
0.916667 0.333333 0.791667
0.958333 0.333333 0.791667
1 0.333333 0.791667
0 0.375 0.791667
0.0416667 0.375 0.791667
0.0833333 0.375 0.791667
0.125 0.375 0.791667
0.166667 0.375 0.791667
0.208333 0.375 0.791667
0.25 0.375 0.791667
0.291667 0.375 0.791667
0.333333 0.375 0.791667
0.375 0.375 0.791667
0.416667 0.375 0.791667
0.458333 0.375 0.791667
0.5 0.375 0.791667
0.541667 0.375 0.791667
0.583333 0.375 0.791667
0.625 0.375 0.791667
0.666667 0.375 0.791667
0.708333 0.375 0.791667
0.75 0.375 0.791667
0.791667 0.375 0.791667
0.833333 0.375 0.791667
0.875 0.375 0.791667
0.916667 0.375 0.791667
0.958333 0.375 0.791667
1 0.375 0.791667
0 0.416667 0.791667
0.0416667 0.416667 0.791667
0.0833333 0.416667 0.791667
0.125 0.416667 0.791667
0.166667 0.416667 0.791667
0.208333 0.416667 0.791667
0.25 0.416667 0.791667
0.291667 0.416667 0.791667
0.333333 0.416667 0.791667
0.375 0.416667 0.791667
0.416667 0.416667 0.791667
0.458333 0.416667 0.791667
0.5 0.416667 0.791667
0.541667 0.416667 0.791667
0.583333 0.416667 0.791667
0.625 0.416667 0.791667
0.666667 0.416667 0.791667
0.708333 0.416667 0.791667
0.75 0.416667 0.791667
0.791667 0.416667 0.791667
0.833333 0.416667 0.791667
0.875 0.416667 0.791667
0.916667 0.416667 0.791667
0.958333 0.416667 0.791667
1 0.416667 0.791667
0 0.458333 0.791667
0.0416667 0.458333 0.791667
0.0833333 0.458333 0.791667
0.125 0.458333 0.791667
0.166667 0.458333 0.791667
0.208333 0.458333 0.791667
0.25 0.458333 0.791667
0.291667 0.458333 0.791667
0.333333 0.458333 0.791667
0.375 0.458333 0.791667
0.416667 0.458333 0.791667
0.458333 0.458333 0.791667
0.5 0.458333 0.791667
0.541667 0.458333 0.791667
0.583333 0.458333 0.791667
0.625 0.458333 0.791667
0.666667 0.458333 0.791667
0.708333 0.458333 0.791667
0.75 0.458333 0.791667
0.791667 0.458333 0.791667
0.833333 0.458333 0.791667
0.875 0.458333 0.791667
0.916667 0.458333 0.791667
0.958333 0.458333 0.791667
1 0.458333 0.791667
0 0.5 0.791667
0.0416667 0.5 0.791667
0.0833333 0.5 0.791667
0.125 0.5 0.791667
0.166667 0.5 0.791667
0.208333 0.5 0.791667
0.25 0.5 0.791667
0.291667 0.5 0.791667
0.333333 0.5 0.791667
0.375 0.5 0.791667
0.416667 0.5 0.791667
0.458333 0.5 0.791667
0.5 0.5 0.791667
0.541667 0.5 0.791667
0.583333 0.5 0.791667
0.625 0.5 0.791667
0.666667 0.5 0.791667
0.708333 0.5 0.791667
0.75 0.5 0.791667
0.791667 0.5 0.791667
0.833333 0.5 0.791667
0.875 0.5 0.791667
0.916667 0.5 0.791667
0.958333 0.5 0.791667
1 0.5 0.791667
0 0.541667 0.791667
0.0416667 0.541667 0.791667
0.0833333 0.541667 0.791667
0.125 0.541667 0.791667
0.166667 0.541667 0.791667
0.208333 0.541667 0.791667
0.25 0.541667 0.791667
0.291667 0.541667 0.791667
0.333333 0.541667 0.791667
0.375 0.541667 0.791667
0.416667 0.541667 0.791667
0.458333 0.541667 0.791667
0.5 0.541667 0.791667
0.541667 0.541667 0.791667
0.583333 0.541667 0.791667
0.625 0.541667 0.791667
0.666667 0.541667 0.791667
0.708333 0.541667 0.791667
0.75 0.541667 0.791667
0.791667 0.541667 0.791667
0.833333 0.541667 0.791667
0.875 0.541667 0.791667
0.916667 0.541667 0.791667
0.958333 0.541667 0.791667
1 0.541667 0.791667
0 0.583333 0.791667
0.0416667 0.583333 0.791667
0.0833333 0.583333 0.791667
0.125 0.583333 0.791667
0.166667 0.583333 0.791667
0.208333 0.583333 0.791667
0.25 0.583333 0.791667
0.291667 0.583333 0.791667
0.333333 0.583333 0.791667
0.375 0.583333 0.791667
0.416667 0.583333 0.791667
0.458333 0.583333 0.791667
0.5 0.583333 0.791667
0.541667 0.583333 0.791667
0.583333 0.583333 0.791667
0.625 0.583333 0.791667
0.666667 0.583333 0.791667
0.708333 0.583333 0.791667
0.75 0.583333 0.791667
0.791667 0.583333 0.791667
0.833333 0.583333 0.791667
0.875 0.583333 0.791667
0.916667 0.583333 0.791667
0.958333 0.583333 0.791667
1 0.583333 0.791667
0 0.625 0.791667
0.0416667 0.625 0.791667
0.0833333 0.625 0.791667
0.125 0.625 0.791667
0.166667 0.625 0.791667
0.208333 0.625 0.791667
0.25 0.625 0.791667
0.291667 0.625 0.791667
0.333333 0.625 0.791667
0.375 0.625 0.791667
0.416667 0.625 0.791667
0.458333 0.625 0.791667
0.5 0.625 0.791667
0.541667 0.625 0.791667
0.583333 0.625 0.791667
0.625 0.625 0.791667
0.666667 0.625 0.791667
0.708333 0.625 0.791667
0.75 0.625 0.791667
0.791667 0.625 0.791667
0.833333 0.625 0.791667
0.875 0.625 0.791667
0.916667 0.625 0.791667
0.958333 0.625 0.791667
1 0.625 0.791667
0 0.666667 0.791667
0.0416667 0.666667 0.791667
0.0833333 0.666667 0.791667
0.125 0.666667 0.791667
0.166667 0.666667 0.791667
0.208333 0.666667 0.791667
0.25 0.666667 0.791667
0.291667 0.666667 0.791667
0.333333 0.666667 0.791667
0.375 0.666667 0.791667
0.416667 0.666667 0.791667
0.458333 0.666667 0.791667
0.5 0.666667 0.791667
0.541667 0.666667 0.791667
0.583333 0.666667 0.791667
0.625 0.666667 0.791667
0.666667 0.666667 0.791667
0.708333 0.666667 0.791667
0.75 0.666667 0.791667
0.791667 0.666667 0.791667
0.833333 0.666667 0.791667
0.875 0.666667 0.791667
0.916667 0.666667 0.791667
0.958333 0.666667 0.791667
1 0.666667 0.791667
0 0.708333 0.791667
0.0416667 0.708333 0.791667
0.0833333 0.708333 0.791667
0.125 0.708333 0.791667
0.166667 0.708333 0.791667
0.208333 0.708333 0.791667
0.25 0.708333 0.791667
0.291667 0.708333 0.791667
0.333333 0.708333 0.791667
0.375 0.708333 0.791667
0.416667 0.708333 0.791667
0.458333 0.708333 0.791667
0.5 0.708333 0.791667
0.541667 0.708333 0.791667
0.583333 0.708333 0.791667
0.625 0.708333 0.791667
0.666667 0.708333 0.791667
0.708333 0.708333 0.791667
0.75 0.708333 0.791667
0.791667 0.708333 0.791667
0.833333 0.708333 0.791667
0.875 0.708333 0.791667
0.916667 0.708333 0.791667
0.958333 0.708333 0.791667
1 0.708333 0.791667
0 0.75 0.791667
0.0416667 0.75 0.791667
0.0833333 0.75 0.791667
0.125 0.75 0.791667
0.166667 0.75 0.791667
0.208333 0.75 0.791667
0.25 0.75 0.791667
0.291667 0.75 0.791667
0.333333 0.75 0.791667
0.375 0.75 0.791667
0.416667 0.75 0.791667
0.458333 0.75 0.791667
0.5 0.75 0.791667
0.541667 0.75 0.791667
0.583333 0.75 0.791667
0.625 0.75 0.791667
0.666667 0.75 0.791667
0.708333 0.75 0.791667
0.75 0.75 0.791667
0.791667 0.75 0.791667
0.833333 0.75 0.791667
0.875 0.75 0.791667
0.916667 0.75 0.791667
0.958333 0.75 0.791667
1 0.75 0.791667
0 0.791667 0.791667
0.0416667 0.791667 0.791667
0.0833333 0.791667 0.791667
0.125 0.791667 0.791667
0.166667 0.791667 0.791667
0.208333 0.791667 0.791667
0.25 0.791667 0.791667
0.291667 0.791667 0.791667
0.333333 0.791667 0.791667
0.375 0.791667 0.791667
0.416667 0.791667 0.791667
0.458333 0.791667 0.791667
0.5 0.791667 0.791667
0.541667 0.791667 0.791667
0.583333 0.791667 0.791667
0.625 0.791667 0.791667
0.666667 0.791667 0.791667
0.708333 0.791667 0.791667
0.75 0.791667 0.791667
0.791667 0.791667 0.791667
0.833333 0.791667 0.791667
0.875 0.791667 0.791667
0.916667 0.791667 0.791667
0.958333 0.791667 0.791667
1 0.791667 0.791667
0 0.833333 0.791667
0.0416667 0.833333 0.791667
0.0833333 0.833333 0.791667
0.125 0.833333 0.791667
0.166667 0.833333 0.791667
0.208333 0.833333 0.791667
0.25 0.833333 0.791667
0.291667 0.833333 0.791667
0.333333 0.833333 0.791667
0.375 0.833333 0.791667
0.416667 0.833333 0.791667
0.458333 0.833333 0.791667
0.5 0.833333 0.791667
0.541667 0.833333 0.791667
0.583333 0.833333 0.791667
0.625 0.833333 0.791667
0.666667 0.833333 0.791667
0.708333 0.833333 0.791667
0.75 0.833333 0.791667
0.791667 0.833333 0.791667
0.833333 0.833333 0.791667
0.875 0.833333 0.791667
0.916667 0.833333 0.791667
0.958333 0.833333 0.791667
1 0.833333 0.791667
0 0.875 0.791667
0.0416667 0.875 0.791667
0.0833333 0.875 0.791667
0.125 0.875 0.791667
0.166667 0.875 0.791667
0.208333 0.875 0.791667
0.25 0.875 0.791667
0.291667 0.875 0.791667
0.333333 0.875 0.791667
0.375 0.875 0.791667
0.416667 0.875 0.791667
0.458333 0.875 0.791667
0.5 0.875 0.791667
0.541667 0.875 0.791667
0.583333 0.875 0.791667
0.625 0.875 0.791667
0.666667 0.875 0.791667
0.708333 0.875 0.791667
0.75 0.875 0.791667
0.791667 0.875 0.791667
0.833333 0.875 0.791667
0.875 0.875 0.791667
0.916667 0.875 0.791667
0.958333 0.875 0.791667
1 0.875 0.791667
0 0.916667 0.791667
0.0416667 0.916667 0.791667
0.0833333 0.916667 0.791667
0.125 0.916667 0.791667
0.166667 0.916667 0.791667
0.208333 0.916667 0.791667
0.25 0.916667 0.791667
0.291667 0.916667 0.791667
0.333333 0.916667 0.791667
0.375 0.916667 0.791667
0.416667 0.916667 0.791667
0.458333 0.916667 0.791667
0.5 0.916667 0.791667
0.541667 0.916667 0.791667
0.583333 0.916667 0.791667
0.625 0.916667 0.791667
0.666667 0.916667 0.791667
0.708333 0.916667 0.791667
0.75 0.916667 0.791667
0.791667 0.916667 0.791667
0.833333 0.916667 0.791667
0.875 0.916667 0.791667
0.916667 0.916667 0.791667
0.958333 0.916667 0.791667
1 0.916667 0.791667
0 0.958333 0.791667
0.0416667 0.958333 0.791667
0.0833333 0.958333 0.791667
0.125 0.958333 0.791667
0.166667 0.958333 0.791667
0.208333 0.958333 0.791667
0.25 0.958333 0.791667
0.291667 0.958333 0.791667
0.333333 0.958333 0.791667
0.375 0.958333 0.791667
0.416667 0.958333 0.791667
0.458333 0.958333 0.791667
0.5 0.958333 0.791667
0.541667 0.958333 0.791667
0.583333 0.958333 0.791667
0.625 0.958333 0.791667
0.666667 0.958333 0.791667
0.708333 0.958333 0.791667
0.75 0.958333 0.791667
0.791667 0.958333 0.791667
0.833333 0.958333 0.791667
0.875 0.958333 0.791667
0.916667 0.958333 0.791667
0.958333 0.958333 0.791667
1 0.958333 0.791667
0 1 0.791667
0.0416667 1 0.791667
0.0833333 1 0.791667
0.125 1 0.791667
0.166667 1 0.791667
0.208333 1 0.791667
0.25 1 0.791667
0.291667 1 0.791667
0.333333 1 0.791667
0.375 1 0.791667
0.416667 1 0.791667
0.458333 1 0.791667
0.5 1 0.791667
0.541667 1 0.791667
0.583333 1 0.791667
0.625 1 0.791667
0.666667 1 0.791667
0.708333 1 0.791667
0.75 1 0.791667
0.791667 1 0.791667
0.833333 1 0.791667
0.875 1 0.791667
0.916667 1 0.791667
0.958333 1 0.791667
1 1 0.791667
0 0 0.833333
0.0416667 0 0.833333
0.0833333 0 0.833333
0.125 0 0.833333
0.166667 0 0.833333
0.208333 0 0.833333
0.25 0 0.833333
0.291667 0 0.833333
0.333333 0 0.833333
0.375 0 0.833333
0.416667 0 0.833333
0.458333 0 0.833333
0.5 0 0.833333
0.541667 0 0.833333
0.583333 0 0.833333
0.625 0 0.833333
0.666667 0 0.833333
0.708333 0 0.833333
0.75 0 0.833333
0.791667 0 0.833333
0.833333 0 0.833333
0.875 0 0.833333
0.916667 0 0.833333
0.958333 0 0.833333
1 0 0.833333
0 0.0416667 0.833333
0.0416667 0.0416667 0.833333
0.0833333 0.0416667 0.833333
0.125 0.0416667 0.833333
0.166667 0.0416667 0.833333
0.208333 0.0416667 0.833333
0.25 0.0416667 0.833333
0.291667 0.0416667 0.833333
0.333333 0.0416667 0.833333
0.375 0.0416667 0.833333
0.416667 0.0416667 0.833333
0.458333 0.0416667 0.833333
0.5 0.0416667 0.833333
0.541667 0.0416667 0.833333
0.583333 0.0416667 0.833333
0.625 0.0416667 0.833333
0.666667 0.0416667 0.833333
0.708333 0.0416667 0.833333
0.75 0.0416667 0.833333
0.791667 0.0416667 0.833333
0.833333 0.0416667 0.833333
0.875 0.0416667 0.833333
0.916667 0.0416667 0.833333
0.958333 0.0416667 0.833333
1 0.0416667 0.833333
0 0.0833333 0.833333
0.0416667 0.0833333 0.833333
0.0833333 0.0833333 0.833333
0.125 0.0833333 0.833333
0.166667 0.0833333 0.833333
0.208333 0.0833333 0.833333
0.25 0.0833333 0.833333
0.291667 0.0833333 0.833333
0.333333 0.0833333 0.833333
0.375 0.0833333 0.833333
0.416667 0.0833333 0.833333
0.458333 0.0833333 0.833333
0.5 0.0833333 0.833333
0.541667 0.0833333 0.833333
0.583333 0.0833333 0.833333
0.625 0.0833333 0.833333
0.666667 0.0833333 0.833333
0.708333 0.0833333 0.833333
0.75 0.0833333 0.833333
0.791667 0.0833333 0.833333
0.833333 0.0833333 0.833333
0.875 0.0833333 0.833333
0.916667 0.0833333 0.833333
0.958333 0.0833333 0.833333
1 0.0833333 0.833333
0 0.125 0.833333
0.0416667 0.125 0.833333
0.0833333 0.125 0.833333
0.125 0.125 0.833333
0.166667 0.125 0.833333
0.208333 0.125 0.833333
0.25 0.125 0.833333
0.291667 0.125 0.833333
0.333333 0.125 0.833333
0.375 0.125 0.833333
0.416667 0.125 0.833333
0.458333 0.125 0.833333
0.5 0.125 0.833333
0.541667 0.125 0.833333
0.583333 0.125 0.833333
0.625 0.125 0.833333
0.666667 0.125 0.833333
0.708333 0.125 0.833333
0.75 0.125 0.833333
0.791667 0.125 0.833333
0.833333 0.125 0.833333
0.875 0.125 0.833333
0.916667 0.125 0.833333
0.958333 0.125 0.833333
1 0.125 0.833333
0 0.166667 0.833333
0.0416667 0.166667 0.833333
0.0833333 0.166667 0.833333
0.125 0.166667 0.833333
0.166667 0.166667 0.833333
0.208333 0.166667 0.833333
0.25 0.166667 0.833333
0.291667 0.166667 0.833333
0.333333 0.166667 0.833333
0.375 0.166667 0.833333
0.416667 0.166667 0.833333
0.458333 0.166667 0.833333
0.5 0.166667 0.833333
0.541667 0.166667 0.833333
0.583333 0.166667 0.833333
0.625 0.166667 0.833333
0.666667 0.166667 0.833333
0.708333 0.166667 0.833333
0.75 0.166667 0.833333
0.791667 0.166667 0.833333
0.833333 0.166667 0.833333
0.875 0.166667 0.833333
0.916667 0.166667 0.833333
0.958333 0.166667 0.833333
1 0.166667 0.833333
0 0.208333 0.833333
0.0416667 0.208333 0.833333
0.0833333 0.208333 0.833333
0.125 0.208333 0.833333
0.166667 0.208333 0.833333
0.208333 0.208333 0.833333
0.25 0.208333 0.833333
0.291667 0.208333 0.833333
0.333333 0.208333 0.833333
0.375 0.208333 0.833333
0.416667 0.208333 0.833333
0.458333 0.208333 0.833333
0.5 0.208333 0.833333
0.541667 0.208333 0.833333
0.583333 0.208333 0.833333
0.625 0.208333 0.833333
0.666667 0.208333 0.833333
0.708333 0.208333 0.833333
0.75 0.208333 0.833333
0.791667 0.208333 0.833333
0.833333 0.208333 0.833333
0.875 0.208333 0.833333
0.916667 0.208333 0.833333
0.958333 0.208333 0.833333
1 0.208333 0.833333
0 0.25 0.833333
0.0416667 0.25 0.833333
0.0833333 0.25 0.833333
0.125 0.25 0.833333
0.166667 0.25 0.833333
0.208333 0.25 0.833333
0.25 0.25 0.833333
0.291667 0.25 0.833333
0.333333 0.25 0.833333
0.375 0.25 0.833333
0.416667 0.25 0.833333
0.458333 0.25 0.833333
0.5 0.25 0.833333
0.541667 0.25 0.833333
0.583333 0.25 0.833333
0.625 0.25 0.833333
0.666667 0.25 0.833333
0.708333 0.25 0.833333
0.75 0.25 0.833333
0.791667 0.25 0.833333
0.833333 0.25 0.833333
0.875 0.25 0.833333
0.916667 0.25 0.833333
0.958333 0.25 0.833333
1 0.25 0.833333
0 0.291667 0.833333
0.0416667 0.291667 0.833333
0.0833333 0.291667 0.833333
0.125 0.291667 0.833333
0.166667 0.291667 0.833333
0.208333 0.291667 0.833333
0.25 0.291667 0.833333
0.291667 0.291667 0.833333
0.333333 0.291667 0.833333
0.375 0.291667 0.833333
0.416667 0.291667 0.833333
0.458333 0.291667 0.833333
0.5 0.291667 0.833333
0.541667 0.291667 0.833333
0.583333 0.291667 0.833333
0.625 0.291667 0.833333
0.666667 0.291667 0.833333
0.708333 0.291667 0.833333
0.75 0.291667 0.833333
0.791667 0.291667 0.833333
0.833333 0.291667 0.833333
0.875 0.291667 0.833333
0.916667 0.291667 0.833333
0.958333 0.291667 0.833333
1 0.291667 0.833333
0 0.333333 0.833333
0.0416667 0.333333 0.833333
0.0833333 0.333333 0.833333
0.125 0.333333 0.833333
0.166667 0.333333 0.833333
0.208333 0.333333 0.833333
0.25 0.333333 0.833333
0.291667 0.333333 0.833333
0.333333 0.333333 0.833333
0.375 0.333333 0.833333
0.416667 0.333333 0.833333
0.458333 0.333333 0.833333
0.5 0.333333 0.833333
0.541667 0.333333 0.833333
0.583333 0.333333 0.833333
0.625 0.333333 0.833333
0.666667 0.333333 0.833333
0.708333 0.333333 0.833333
0.75 0.333333 0.833333
0.791667 0.333333 0.833333
0.833333 0.333333 0.833333
0.875 0.333333 0.833333
0.916667 0.333333 0.833333
0.958333 0.333333 0.833333
1 0.333333 0.833333
0 0.375 0.833333
0.0416667 0.375 0.833333
0.0833333 0.375 0.833333
0.125 0.375 0.833333
0.166667 0.375 0.833333
0.208333 0.375 0.833333
0.25 0.375 0.833333
0.291667 0.375 0.833333
0.333333 0.375 0.833333
0.375 0.375 0.833333
0.416667 0.375 0.833333
0.458333 0.375 0.833333
0.5 0.375 0.833333
0.541667 0.375 0.833333
0.583333 0.375 0.833333
0.625 0.375 0.833333
0.666667 0.375 0.833333
0.708333 0.375 0.833333
0.75 0.375 0.833333
0.791667 0.375 0.833333
0.833333 0.375 0.833333
0.875 0.375 0.833333
0.916667 0.375 0.833333
0.958333 0.375 0.833333
1 0.375 0.833333
0 0.416667 0.833333
0.0416667 0.416667 0.833333
0.0833333 0.416667 0.833333
0.125 0.416667 0.833333
0.166667 0.416667 0.833333
0.208333 0.416667 0.833333
0.25 0.416667 0.833333
0.291667 0.416667 0.833333
0.333333 0.416667 0.833333
0.375 0.416667 0.833333
0.416667 0.416667 0.833333
0.458333 0.416667 0.833333
0.5 0.416667 0.833333
0.541667 0.416667 0.833333
0.583333 0.416667 0.833333
0.625 0.416667 0.833333
0.666667 0.416667 0.833333
0.708333 0.416667 0.833333
0.75 0.416667 0.833333
0.791667 0.416667 0.833333
0.833333 0.416667 0.833333
0.875 0.416667 0.833333
0.916667 0.416667 0.833333
0.958333 0.416667 0.833333
1 0.416667 0.833333
0 0.458333 0.833333
0.0416667 0.458333 0.833333
0.0833333 0.458333 0.833333
0.125 0.458333 0.833333
0.166667 0.458333 0.833333
0.208333 0.458333 0.833333
0.25 0.458333 0.833333
0.291667 0.458333 0.833333
0.333333 0.458333 0.833333
0.375 0.458333 0.833333
0.416667 0.458333 0.833333
0.458333 0.458333 0.833333
0.5 0.458333 0.833333
0.541667 0.458333 0.833333
0.583333 0.458333 0.833333
0.625 0.458333 0.833333
0.666667 0.458333 0.833333
0.708333 0.458333 0.833333
0.75 0.458333 0.833333
0.791667 0.458333 0.833333
0.833333 0.458333 0.833333
0.875 0.458333 0.833333
0.916667 0.458333 0.833333
0.958333 0.458333 0.833333
1 0.458333 0.833333
0 0.5 0.833333
0.0416667 0.5 0.833333
0.0833333 0.5 0.833333
0.125 0.5 0.833333
0.166667 0.5 0.833333
0.208333 0.5 0.833333
0.25 0.5 0.833333
0.291667 0.5 0.833333
0.333333 0.5 0.833333
0.375 0.5 0.833333
0.416667 0.5 0.833333
0.458333 0.5 0.833333
0.5 0.5 0.833333
0.541667 0.5 0.833333
0.583333 0.5 0.833333
0.625 0.5 0.833333
0.666667 0.5 0.833333
0.708333 0.5 0.833333
0.75 0.5 0.833333
0.791667 0.5 0.833333
0.833333 0.5 0.833333
0.875 0.5 0.833333
0.916667 0.5 0.833333
0.958333 0.5 0.833333
1 0.5 0.833333
0 0.541667 0.833333
0.0416667 0.541667 0.833333
0.0833333 0.541667 0.833333
0.125 0.541667 0.833333
0.166667 0.541667 0.833333
0.208333 0.541667 0.833333
0.25 0.541667 0.833333
0.291667 0.541667 0.833333
0.333333 0.541667 0.833333
0.375 0.541667 0.833333
0.416667 0.541667 0.833333
0.458333 0.541667 0.833333
0.5 0.541667 0.833333
0.541667 0.541667 0.833333
0.583333 0.541667 0.833333
0.625 0.541667 0.833333
0.666667 0.541667 0.833333
0.708333 0.541667 0.833333
0.75 0.541667 0.833333
0.791667 0.541667 0.833333
0.833333 0.541667 0.833333
0.875 0.541667 0.833333
0.916667 0.541667 0.833333
0.958333 0.541667 0.833333
1 0.541667 0.833333
0 0.583333 0.833333
0.0416667 0.583333 0.833333
0.0833333 0.583333 0.833333
0.125 0.583333 0.833333
0.166667 0.583333 0.833333
0.208333 0.583333 0.833333
0.25 0.583333 0.833333
0.291667 0.583333 0.833333
0.333333 0.583333 0.833333
0.375 0.583333 0.833333
0.416667 0.583333 0.833333
0.458333 0.583333 0.833333
0.5 0.583333 0.833333
0.541667 0.583333 0.833333
0.583333 0.583333 0.833333
0.625 0.583333 0.833333
0.666667 0.583333 0.833333
0.708333 0.583333 0.833333
0.75 0.583333 0.833333
0.791667 0.583333 0.833333
0.833333 0.583333 0.833333
0.875 0.583333 0.833333
0.916667 0.583333 0.833333
0.958333 0.583333 0.833333
1 0.583333 0.833333
0 0.625 0.833333
0.0416667 0.625 0.833333
0.0833333 0.625 0.833333
0.125 0.625 0.833333
0.166667 0.625 0.833333
0.208333 0.625 0.833333
0.25 0.625 0.833333
0.291667 0.625 0.833333
0.333333 0.625 0.833333
0.375 0.625 0.833333
0.416667 0.625 0.833333
0.458333 0.625 0.833333
0.5 0.625 0.833333
0.541667 0.625 0.833333
0.583333 0.625 0.833333
0.625 0.625 0.833333
0.666667 0.625 0.833333
0.708333 0.625 0.833333
0.75 0.625 0.833333
0.791667 0.625 0.833333
0.833333 0.625 0.833333
0.875 0.625 0.833333
0.916667 0.625 0.833333
0.958333 0.625 0.833333
1 0.625 0.833333
0 0.666667 0.833333
0.0416667 0.666667 0.833333
0.0833333 0.666667 0.833333
0.125 0.666667 0.833333
0.166667 0.666667 0.833333
0.208333 0.666667 0.833333
0.25 0.666667 0.833333
0.291667 0.666667 0.833333
0.333333 0.666667 0.833333
0.375 0.666667 0.833333
0.416667 0.666667 0.833333
0.458333 0.666667 0.833333
0.5 0.666667 0.833333
0.541667 0.666667 0.833333
0.583333 0.666667 0.833333
0.625 0.666667 0.833333
0.666667 0.666667 0.833333
0.708333 0.666667 0.833333
0.75 0.666667 0.833333
0.791667 0.666667 0.833333
0.833333 0.666667 0.833333
0.875 0.666667 0.833333
0.916667 0.666667 0.833333
0.958333 0.666667 0.833333
1 0.666667 0.833333
0 0.708333 0.833333
0.0416667 0.708333 0.833333
0.0833333 0.708333 0.833333
0.125 0.708333 0.833333
0.166667 0.708333 0.833333
0.208333 0.708333 0.833333
0.25 0.708333 0.833333
0.291667 0.708333 0.833333
0.333333 0.708333 0.833333
0.375 0.708333 0.833333
0.416667 0.708333 0.833333
0.458333 0.708333 0.833333
0.5 0.708333 0.833333
0.541667 0.708333 0.833333
0.583333 0.708333 0.833333
0.625 0.708333 0.833333
0.666667 0.708333 0.833333
0.708333 0.708333 0.833333
0.75 0.708333 0.833333
0.791667 0.708333 0.833333
0.833333 0.708333 0.833333
0.875 0.708333 0.833333
0.916667 0.708333 0.833333
0.958333 0.708333 0.833333
1 0.708333 0.833333
0 0.75 0.833333
0.0416667 0.75 0.833333
0.0833333 0.75 0.833333
0.125 0.75 0.833333
0.166667 0.75 0.833333
0.208333 0.75 0.833333
0.25 0.75 0.833333
0.291667 0.75 0.833333
0.333333 0.75 0.833333
0.375 0.75 0.833333
0.416667 0.75 0.833333
0.458333 0.75 0.833333
0.5 0.75 0.833333
0.541667 0.75 0.833333
0.583333 0.75 0.833333
0.625 0.75 0.833333
0.666667 0.75 0.833333
0.708333 0.75 0.833333
0.75 0.75 0.833333
0.791667 0.75 0.833333
0.833333 0.75 0.833333
0.875 0.75 0.833333
0.916667 0.75 0.833333
0.958333 0.75 0.833333
1 0.75 0.833333
0 0.791667 0.833333
0.0416667 0.791667 0.833333
0.0833333 0.791667 0.833333
0.125 0.791667 0.833333
0.166667 0.791667 0.833333
0.208333 0.791667 0.833333
0.25 0.791667 0.833333
0.291667 0.791667 0.833333
0.333333 0.791667 0.833333
0.375 0.791667 0.833333
0.416667 0.791667 0.833333
0.458333 0.791667 0.833333
0.5 0.791667 0.833333
0.541667 0.791667 0.833333
0.583333 0.791667 0.833333
0.625 0.791667 0.833333
0.666667 0.791667 0.833333
0.708333 0.791667 0.833333
0.75 0.791667 0.833333
0.791667 0.791667 0.833333
0.833333 0.791667 0.833333
0.875 0.791667 0.833333
0.916667 0.791667 0.833333
0.958333 0.791667 0.833333
1 0.791667 0.833333
0 0.833333 0.833333
0.0416667 0.833333 0.833333
0.0833333 0.833333 0.833333
0.125 0.833333 0.833333
0.166667 0.833333 0.833333
0.208333 0.833333 0.833333
0.25 0.833333 0.833333
0.291667 0.833333 0.833333
0.333333 0.833333 0.833333
0.375 0.833333 0.833333
0.416667 0.833333 0.833333
0.458333 0.833333 0.833333
0.5 0.833333 0.833333
0.541667 0.833333 0.833333
0.583333 0.833333 0.833333
0.625 0.833333 0.833333
0.666667 0.833333 0.833333
0.708333 0.833333 0.833333
0.75 0.833333 0.833333
0.791667 0.833333 0.833333
0.833333 0.833333 0.833333
0.875 0.833333 0.833333
0.916667 0.833333 0.833333
0.958333 0.833333 0.833333
1 0.833333 0.833333
0 0.875 0.833333
0.0416667 0.875 0.833333
0.0833333 0.875 0.833333
0.125 0.875 0.833333
0.166667 0.875 0.833333
0.208333 0.875 0.833333
0.25 0.875 0.833333
0.291667 0.875 0.833333
0.333333 0.875 0.833333
0.375 0.875 0.833333
0.416667 0.875 0.833333
0.458333 0.875 0.833333
0.5 0.875 0.833333
0.541667 0.875 0.833333
0.583333 0.875 0.833333
0.625 0.875 0.833333
0.666667 0.875 0.833333
0.708333 0.875 0.833333
0.75 0.875 0.833333
0.791667 0.875 0.833333
0.833333 0.875 0.833333
0.875 0.875 0.833333
0.916667 0.875 0.833333
0.958333 0.875 0.833333
1 0.875 0.833333
0 0.916667 0.833333
0.0416667 0.916667 0.833333
0.0833333 0.916667 0.833333
0.125 0.916667 0.833333
0.166667 0.916667 0.833333
0.208333 0.916667 0.833333
0.25 0.916667 0.833333
0.291667 0.916667 0.833333
0.333333 0.916667 0.833333
0.375 0.916667 0.833333
0.416667 0.916667 0.833333
0.458333 0.916667 0.833333
0.5 0.916667 0.833333
0.541667 0.916667 0.833333
0.583333 0.916667 0.833333
0.625 0.916667 0.833333
0.666667 0.916667 0.833333
0.708333 0.916667 0.833333
0.75 0.916667 0.833333
0.791667 0.916667 0.833333
0.833333 0.916667 0.833333
0.875 0.916667 0.833333
0.916667 0.916667 0.833333
0.958333 0.916667 0.833333
1 0.916667 0.833333
0 0.958333 0.833333
0.0416667 0.958333 0.833333
0.0833333 0.958333 0.833333
0.125 0.958333 0.833333
0.166667 0.958333 0.833333
0.208333 0.958333 0.833333
0.25 0.958333 0.833333
0.291667 0.958333 0.833333
0.333333 0.958333 0.833333
0.375 0.958333 0.833333
0.416667 0.958333 0.833333
0.458333 0.958333 0.833333
0.5 0.958333 0.833333
0.541667 0.958333 0.833333
0.583333 0.958333 0.833333
0.625 0.958333 0.833333
0.666667 0.958333 0.833333
0.708333 0.958333 0.833333
0.75 0.958333 0.833333
0.791667 0.958333 0.833333
0.833333 0.958333 0.833333
0.875 0.958333 0.833333
0.916667 0.958333 0.833333
0.958333 0.958333 0.833333
1 0.958333 0.833333
0 1 0.833333
0.0416667 1 0.833333
0.0833333 1 0.833333
0.125 1 0.833333
0.166667 1 0.833333
0.208333 1 0.833333
0.25 1 0.833333
0.291667 1 0.833333
0.333333 1 0.833333
0.375 1 0.833333
0.416667 1 0.833333
0.458333 1 0.833333
0.5 1 0.833333
0.541667 1 0.833333
0.583333 1 0.833333
0.625 1 0.833333
0.666667 1 0.833333
0.708333 1 0.833333
0.75 1 0.833333
0.791667 1 0.833333
0.833333 1 0.833333
0.875 1 0.833333
0.916667 1 0.833333
0.958333 1 0.833333
1 1 0.833333
0 0 0.875
0.0416667 0 0.875
0.0833333 0 0.875
0.125 0 0.875
0.166667 0 0.875
0.208333 0 0.875
0.25 0 0.875
0.291667 0 0.875
0.333333 0 0.875
0.375 0 0.875
0.416667 0 0.875
0.458333 0 0.875
0.5 0 0.875
0.541667 0 0.875
0.583333 0 0.875
0.625 0 0.875
0.666667 0 0.875
0.708333 0 0.875
0.75 0 0.875
0.791667 0 0.875
0.833333 0 0.875
0.875 0 0.875
0.916667 0 0.875
0.958333 0 0.875
1 0 0.875
0 0.0416667 0.875
0.0416667 0.0416667 0.875
0.0833333 0.0416667 0.875
0.125 0.0416667 0.875
0.166667 0.0416667 0.875
0.208333 0.0416667 0.875
0.25 0.0416667 0.875
0.291667 0.0416667 0.875
0.333333 0.0416667 0.875
0.375 0.0416667 0.875
0.416667 0.0416667 0.875
0.458333 0.0416667 0.875
0.5 0.0416667 0.875
0.541667 0.0416667 0.875
0.583333 0.0416667 0.875
0.625 0.0416667 0.875
0.666667 0.0416667 0.875
0.708333 0.0416667 0.875
0.75 0.0416667 0.875
0.791667 0.0416667 0.875
0.833333 0.0416667 0.875
0.875 0.0416667 0.875
0.916667 0.0416667 0.875
0.958333 0.0416667 0.875
1 0.0416667 0.875
0 0.0833333 0.875
0.0416667 0.0833333 0.875
0.0833333 0.0833333 0.875
0.125 0.0833333 0.875
0.166667 0.0833333 0.875
0.208333 0.0833333 0.875
0.25 0.0833333 0.875
0.291667 0.0833333 0.875
0.333333 0.0833333 0.875
0.375 0.0833333 0.875
0.416667 0.0833333 0.875
0.458333 0.0833333 0.875
0.5 0.0833333 0.875
0.541667 0.0833333 0.875
0.583333 0.0833333 0.875
0.625 0.0833333 0.875
0.666667 0.0833333 0.875
0.708333 0.0833333 0.875
0.75 0.0833333 0.875
0.791667 0.0833333 0.875
0.833333 0.0833333 0.875
0.875 0.0833333 0.875
0.916667 0.0833333 0.875
0.958333 0.0833333 0.875
1 0.0833333 0.875
0 0.125 0.875
0.0416667 0.125 0.875
0.0833333 0.125 0.875
0.125 0.125 0.875
0.166667 0.125 0.875
0.208333 0.125 0.875
0.25 0.125 0.875
0.291667 0.125 0.875
0.333333 0.125 0.875
0.375 0.125 0.875
0.416667 0.125 0.875
0.458333 0.125 0.875
0.5 0.125 0.875
0.541667 0.125 0.875
0.583333 0.125 0.875
0.625 0.125 0.875
0.666667 0.125 0.875
0.708333 0.125 0.875
0.75 0.125 0.875
0.791667 0.125 0.875
0.833333 0.125 0.875
0.875 0.125 0.875
0.916667 0.125 0.875
0.958333 0.125 0.875
1 0.125 0.875
0 0.166667 0.875
0.0416667 0.166667 0.875
0.0833333 0.166667 0.875
0.125 0.166667 0.875
0.166667 0.166667 0.875
0.208333 0.166667 0.875
0.25 0.166667 0.875
0.291667 0.166667 0.875
0.333333 0.166667 0.875
0.375 0.166667 0.875
0.416667 0.166667 0.875
0.458333 0.166667 0.875
0.5 0.166667 0.875
0.541667 0.166667 0.875
0.583333 0.166667 0.875
0.625 0.166667 0.875
0.666667 0.166667 0.875
0.708333 0.166667 0.875
0.75 0.166667 0.875
0.791667 0.166667 0.875
0.833333 0.166667 0.875
0.875 0.166667 0.875
0.916667 0.166667 0.875
0.958333 0.166667 0.875
1 0.166667 0.875
0 0.208333 0.875
0.0416667 0.208333 0.875
0.0833333 0.208333 0.875
0.125 0.208333 0.875
0.166667 0.208333 0.875
0.208333 0.208333 0.875
0.25 0.208333 0.875
0.291667 0.208333 0.875
0.333333 0.208333 0.875
0.375 0.208333 0.875
0.416667 0.208333 0.875
0.458333 0.208333 0.875
0.5 0.208333 0.875
0.541667 0.208333 0.875
0.583333 0.208333 0.875
0.625 0.208333 0.875
0.666667 0.208333 0.875
0.708333 0.208333 0.875
0.75 0.208333 0.875
0.791667 0.208333 0.875
0.833333 0.208333 0.875
0.875 0.208333 0.875
0.916667 0.208333 0.875
0.958333 0.208333 0.875
1 0.208333 0.875
0 0.25 0.875
0.0416667 0.25 0.875
0.0833333 0.25 0.875
0.125 0.25 0.875
0.166667 0.25 0.875
0.208333 0.25 0.875
0.25 0.25 0.875
0.291667 0.25 0.875
0.333333 0.25 0.875
0.375 0.25 0.875
0.416667 0.25 0.875
0.458333 0.25 0.875
0.5 0.25 0.875
0.541667 0.25 0.875
0.583333 0.25 0.875
0.625 0.25 0.875
0.666667 0.25 0.875
0.708333 0.25 0.875
0.75 0.25 0.875
0.791667 0.25 0.875
0.833333 0.25 0.875
0.875 0.25 0.875
0.916667 0.25 0.875
0.958333 0.25 0.875
1 0.25 0.875
0 0.291667 0.875
0.0416667 0.291667 0.875
0.0833333 0.291667 0.875
0.125 0.291667 0.875
0.166667 0.291667 0.875
0.208333 0.291667 0.875
0.25 0.291667 0.875
0.291667 0.291667 0.875
0.333333 0.291667 0.875
0.375 0.291667 0.875
0.416667 0.291667 0.875
0.458333 0.291667 0.875
0.5 0.291667 0.875
0.541667 0.291667 0.875
0.583333 0.291667 0.875
0.625 0.291667 0.875
0.666667 0.291667 0.875
0.708333 0.291667 0.875
0.75 0.291667 0.875
0.791667 0.291667 0.875
0.833333 0.291667 0.875
0.875 0.291667 0.875
0.916667 0.291667 0.875
0.958333 0.291667 0.875
1 0.291667 0.875
0 0.333333 0.875
0.0416667 0.333333 0.875
0.0833333 0.333333 0.875
0.125 0.333333 0.875
0.166667 0.333333 0.875
0.208333 0.333333 0.875
0.25 0.333333 0.875
0.291667 0.333333 0.875
0.333333 0.333333 0.875
0.375 0.333333 0.875
0.416667 0.333333 0.875
0.458333 0.333333 0.875
0.5 0.333333 0.875
0.541667 0.333333 0.875
0.583333 0.333333 0.875
0.625 0.333333 0.875
0.666667 0.333333 0.875
0.708333 0.333333 0.875
0.75 0.333333 0.875
0.791667 0.333333 0.875
0.833333 0.333333 0.875
0.875 0.333333 0.875
0.916667 0.333333 0.875
0.958333 0.333333 0.875
1 0.333333 0.875
0 0.375 0.875
0.0416667 0.375 0.875
0.0833333 0.375 0.875
0.125 0.375 0.875
0.166667 0.375 0.875
0.208333 0.375 0.875
0.25 0.375 0.875
0.291667 0.375 0.875
0.333333 0.375 0.875
0.375 0.375 0.875
0.416667 0.375 0.875
0.458333 0.375 0.875
0.5 0.375 0.875
0.541667 0.375 0.875
0.583333 0.375 0.875
0.625 0.375 0.875
0.666667 0.375 0.875
0.708333 0.375 0.875
0.75 0.375 0.875
0.791667 0.375 0.875
0.833333 0.375 0.875
0.875 0.375 0.875
0.916667 0.375 0.875
0.958333 0.375 0.875
1 0.375 0.875
0 0.416667 0.875
0.0416667 0.416667 0.875
0.0833333 0.416667 0.875
0.125 0.416667 0.875
0.166667 0.416667 0.875
0.208333 0.416667 0.875
0.25 0.416667 0.875
0.291667 0.416667 0.875
0.333333 0.416667 0.875
0.375 0.416667 0.875
0.416667 0.416667 0.875
0.458333 0.416667 0.875
0.5 0.416667 0.875
0.541667 0.416667 0.875
0.583333 0.416667 0.875
0.625 0.416667 0.875
0.666667 0.416667 0.875
0.708333 0.416667 0.875
0.75 0.416667 0.875
0.791667 0.416667 0.875
0.833333 0.416667 0.875
0.875 0.416667 0.875
0.916667 0.416667 0.875
0.958333 0.416667 0.875
1 0.416667 0.875
0 0.458333 0.875
0.0416667 0.458333 0.875
0.0833333 0.458333 0.875
0.125 0.458333 0.875
0.166667 0.458333 0.875
0.208333 0.458333 0.875
0.25 0.458333 0.875
0.291667 0.458333 0.875
0.333333 0.458333 0.875
0.375 0.458333 0.875
0.416667 0.458333 0.875
0.458333 0.458333 0.875
0.5 0.458333 0.875
0.541667 0.458333 0.875
0.583333 0.458333 0.875
0.625 0.458333 0.875
0.666667 0.458333 0.875
0.708333 0.458333 0.875
0.75 0.458333 0.875
0.791667 0.458333 0.875
0.833333 0.458333 0.875
0.875 0.458333 0.875
0.916667 0.458333 0.875
0.958333 0.458333 0.875
1 0.458333 0.875
0 0.5 0.875
0.0416667 0.5 0.875
0.0833333 0.5 0.875
0.125 0.5 0.875
0.166667 0.5 0.875
0.208333 0.5 0.875
0.25 0.5 0.875
0.291667 0.5 0.875
0.333333 0.5 0.875
0.375 0.5 0.875
0.416667 0.5 0.875
0.458333 0.5 0.875
0.5 0.5 0.875
0.541667 0.5 0.875
0.583333 0.5 0.875
0.625 0.5 0.875
0.666667 0.5 0.875
0.708333 0.5 0.875
0.75 0.5 0.875
0.791667 0.5 0.875
0.833333 0.5 0.875
0.875 0.5 0.875
0.916667 0.5 0.875
0.958333 0.5 0.875
1 0.5 0.875
0 0.541667 0.875
0.0416667 0.541667 0.875
0.0833333 0.541667 0.875
0.125 0.541667 0.875
0.166667 0.541667 0.875
0.208333 0.541667 0.875
0.25 0.541667 0.875
0.291667 0.541667 0.875
0.333333 0.541667 0.875
0.375 0.541667 0.875
0.416667 0.541667 0.875
0.458333 0.541667 0.875
0.5 0.541667 0.875
0.541667 0.541667 0.875
0.583333 0.541667 0.875
0.625 0.541667 0.875
0.666667 0.541667 0.875
0.708333 0.541667 0.875
0.75 0.541667 0.875
0.791667 0.541667 0.875
0.833333 0.541667 0.875
0.875 0.541667 0.875
0.916667 0.541667 0.875
0.958333 0.541667 0.875
1 0.541667 0.875
0 0.583333 0.875
0.0416667 0.583333 0.875
0.0833333 0.583333 0.875
0.125 0.583333 0.875
0.166667 0.583333 0.875
0.208333 0.583333 0.875
0.25 0.583333 0.875
0.291667 0.583333 0.875
0.333333 0.583333 0.875
0.375 0.583333 0.875
0.416667 0.583333 0.875
0.458333 0.583333 0.875
0.5 0.583333 0.875
0.541667 0.583333 0.875
0.583333 0.583333 0.875
0.625 0.583333 0.875
0.666667 0.583333 0.875
0.708333 0.583333 0.875
0.75 0.583333 0.875
0.791667 0.583333 0.875
0.833333 0.583333 0.875
0.875 0.583333 0.875
0.916667 0.583333 0.875
0.958333 0.583333 0.875
1 0.583333 0.875
0 0.625 0.875
0.0416667 0.625 0.875
0.0833333 0.625 0.875
0.125 0.625 0.875
0.166667 0.625 0.875
0.208333 0.625 0.875
0.25 0.625 0.875
0.291667 0.625 0.875
0.333333 0.625 0.875
0.375 0.625 0.875
0.416667 0.625 0.875
0.458333 0.625 0.875
0.5 0.625 0.875
0.541667 0.625 0.875
0.583333 0.625 0.875
0.625 0.625 0.875
0.666667 0.625 0.875
0.708333 0.625 0.875
0.75 0.625 0.875
0.791667 0.625 0.875
0.833333 0.625 0.875
0.875 0.625 0.875
0.916667 0.625 0.875
0.958333 0.625 0.875
1 0.625 0.875
0 0.666667 0.875
0.0416667 0.666667 0.875
0.0833333 0.666667 0.875
0.125 0.666667 0.875
0.166667 0.666667 0.875
0.208333 0.666667 0.875
0.25 0.666667 0.875
0.291667 0.666667 0.875
0.333333 0.666667 0.875
0.375 0.666667 0.875
0.416667 0.666667 0.875
0.458333 0.666667 0.875
0.5 0.666667 0.875
0.541667 0.666667 0.875
0.583333 0.666667 0.875
0.625 0.666667 0.875
0.666667 0.666667 0.875
0.708333 0.666667 0.875
0.75 0.666667 0.875
0.791667 0.666667 0.875
0.833333 0.666667 0.875
0.875 0.666667 0.875
0.916667 0.666667 0.875
0.958333 0.666667 0.875
1 0.666667 0.875
0 0.708333 0.875
0.0416667 0.708333 0.875
0.0833333 0.708333 0.875
0.125 0.708333 0.875
0.166667 0.708333 0.875
0.208333 0.708333 0.875
0.25 0.708333 0.875
0.291667 0.708333 0.875
0.333333 0.708333 0.875
0.375 0.708333 0.875
0.416667 0.708333 0.875
0.458333 0.708333 0.875
0.5 0.708333 0.875
0.541667 0.708333 0.875
0.583333 0.708333 0.875
0.625 0.708333 0.875
0.666667 0.708333 0.875
0.708333 0.708333 0.875
0.75 0.708333 0.875
0.791667 0.708333 0.875
0.833333 0.708333 0.875
0.875 0.708333 0.875
0.916667 0.708333 0.875
0.958333 0.708333 0.875
1 0.708333 0.875
0 0.75 0.875
0.0416667 0.75 0.875
0.0833333 0.75 0.875
0.125 0.75 0.875
0.166667 0.75 0.875
0.208333 0.75 0.875
0.25 0.75 0.875
0.291667 0.75 0.875
0.333333 0.75 0.875
0.375 0.75 0.875
0.416667 0.75 0.875
0.458333 0.75 0.875
0.5 0.75 0.875
0.541667 0.75 0.875
0.583333 0.75 0.875
0.625 0.75 0.875
0.666667 0.75 0.875
0.708333 0.75 0.875
0.75 0.75 0.875
0.791667 0.75 0.875
0.833333 0.75 0.875
0.875 0.75 0.875
0.916667 0.75 0.875
0.958333 0.75 0.875
1 0.75 0.875
0 0.791667 0.875
0.0416667 0.791667 0.875
0.0833333 0.791667 0.875
0.125 0.791667 0.875
0.166667 0.791667 0.875
0.208333 0.791667 0.875
0.25 0.791667 0.875
0.291667 0.791667 0.875
0.333333 0.791667 0.875
0.375 0.791667 0.875
0.416667 0.791667 0.875
0.458333 0.791667 0.875
0.5 0.791667 0.875
0.541667 0.791667 0.875
0.583333 0.791667 0.875
0.625 0.791667 0.875
0.666667 0.791667 0.875
0.708333 0.791667 0.875
0.75 0.791667 0.875
0.791667 0.791667 0.875
0.833333 0.791667 0.875
0.875 0.791667 0.875
0.916667 0.791667 0.875
0.958333 0.791667 0.875
1 0.791667 0.875
0 0.833333 0.875
0.0416667 0.833333 0.875
0.0833333 0.833333 0.875
0.125 0.833333 0.875
0.166667 0.833333 0.875
0.208333 0.833333 0.875
0.25 0.833333 0.875
0.291667 0.833333 0.875
0.333333 0.833333 0.875
0.375 0.833333 0.875
0.416667 0.833333 0.875
0.458333 0.833333 0.875
0.5 0.833333 0.875
0.541667 0.833333 0.875
0.583333 0.833333 0.875
0.625 0.833333 0.875
0.666667 0.833333 0.875
0.708333 0.833333 0.875
0.75 0.833333 0.875
0.791667 0.833333 0.875
0.833333 0.833333 0.875
0.875 0.833333 0.875
0.916667 0.833333 0.875
0.958333 0.833333 0.875
1 0.833333 0.875
0 0.875 0.875
0.0416667 0.875 0.875
0.0833333 0.875 0.875
0.125 0.875 0.875
0.166667 0.875 0.875
0.208333 0.875 0.875
0.25 0.875 0.875
0.291667 0.875 0.875
0.333333 0.875 0.875
0.375 0.875 0.875
0.416667 0.875 0.875
0.458333 0.875 0.875
0.5 0.875 0.875
0.541667 0.875 0.875
0.583333 0.875 0.875
0.625 0.875 0.875
0.666667 0.875 0.875
0.708333 0.875 0.875
0.75 0.875 0.875
0.791667 0.875 0.875
0.833333 0.875 0.875
0.875 0.875 0.875
0.916667 0.875 0.875
0.958333 0.875 0.875
1 0.875 0.875
0 0.916667 0.875
0.0416667 0.916667 0.875
0.0833333 0.916667 0.875
0.125 0.916667 0.875
0.166667 0.916667 0.875
0.208333 0.916667 0.875
0.25 0.916667 0.875
0.291667 0.916667 0.875
0.333333 0.916667 0.875
0.375 0.916667 0.875
0.416667 0.916667 0.875
0.458333 0.916667 0.875
0.5 0.916667 0.875
0.541667 0.916667 0.875
0.583333 0.916667 0.875
0.625 0.916667 0.875
0.666667 0.916667 0.875
0.708333 0.916667 0.875
0.75 0.916667 0.875
0.791667 0.916667 0.875
0.833333 0.916667 0.875
0.875 0.916667 0.875
0.916667 0.916667 0.875
0.958333 0.916667 0.875
1 0.916667 0.875
0 0.958333 0.875
0.0416667 0.958333 0.875
0.0833333 0.958333 0.875
0.125 0.958333 0.875
0.166667 0.958333 0.875
0.208333 0.958333 0.875
0.25 0.958333 0.875
0.291667 0.958333 0.875
0.333333 0.958333 0.875
0.375 0.958333 0.875
0.416667 0.958333 0.875
0.458333 0.958333 0.875
0.5 0.958333 0.875
0.541667 0.958333 0.875
0.583333 0.958333 0.875
0.625 0.958333 0.875
0.666667 0.958333 0.875
0.708333 0.958333 0.875
0.75 0.958333 0.875
0.791667 0.958333 0.875
0.833333 0.958333 0.875
0.875 0.958333 0.875
0.916667 0.958333 0.875
0.958333 0.958333 0.875
1 0.958333 0.875
0 1 0.875
0.0416667 1 0.875
0.0833333 1 0.875
0.125 1 0.875
0.166667 1 0.875
0.208333 1 0.875
0.25 1 0.875
0.291667 1 0.875
0.333333 1 0.875
0.375 1 0.875
0.416667 1 0.875
0.458333 1 0.875
0.5 1 0.875
0.541667 1 0.875
0.583333 1 0.875
0.625 1 0.875
0.666667 1 0.875
0.708333 1 0.875
0.75 1 0.875
0.791667 1 0.875
0.833333 1 0.875
0.875 1 0.875
0.916667 1 0.875
0.958333 1 0.875
1 1 0.875
0 0 0.916667
0.0416667 0 0.916667
0.0833333 0 0.916667
0.125 0 0.916667
0.166667 0 0.916667
0.208333 0 0.916667
0.25 0 0.916667
0.291667 0 0.916667
0.333333 0 0.916667
0.375 0 0.916667
0.416667 0 0.916667
0.458333 0 0.916667
0.5 0 0.916667
0.541667 0 0.916667
0.583333 0 0.916667
0.625 0 0.916667
0.666667 0 0.916667
0.708333 0 0.916667
0.75 0 0.916667
0.791667 0 0.916667
0.833333 0 0.916667
0.875 0 0.916667
0.916667 0 0.916667
0.958333 0 0.916667
1 0 0.916667
0 0.0416667 0.916667
0.0416667 0.0416667 0.916667
0.0833333 0.0416667 0.916667
0.125 0.0416667 0.916667
0.166667 0.0416667 0.916667
0.208333 0.0416667 0.916667
0.25 0.0416667 0.916667
0.291667 0.0416667 0.916667
0.333333 0.0416667 0.916667
0.375 0.0416667 0.916667
0.416667 0.0416667 0.916667
0.458333 0.0416667 0.916667
0.5 0.0416667 0.916667
0.541667 0.0416667 0.916667
0.583333 0.0416667 0.916667
0.625 0.0416667 0.916667
0.666667 0.0416667 0.916667
0.708333 0.0416667 0.916667
0.75 0.0416667 0.916667
0.791667 0.0416667 0.916667
0.833333 0.0416667 0.916667
0.875 0.0416667 0.916667
0.916667 0.0416667 0.916667
0.958333 0.0416667 0.916667
1 0.0416667 0.916667
0 0.0833333 0.916667
0.0416667 0.0833333 0.916667
0.0833333 0.0833333 0.916667
0.125 0.0833333 0.916667
0.166667 0.0833333 0.916667
0.208333 0.0833333 0.916667
0.25 0.0833333 0.916667
0.291667 0.0833333 0.916667
0.333333 0.0833333 0.916667
0.375 0.0833333 0.916667
0.416667 0.0833333 0.916667
0.458333 0.0833333 0.916667
0.5 0.0833333 0.916667
0.541667 0.0833333 0.916667
0.583333 0.0833333 0.916667
0.625 0.0833333 0.916667
0.666667 0.0833333 0.916667
0.708333 0.0833333 0.916667
0.75 0.0833333 0.916667
0.791667 0.0833333 0.916667
0.833333 0.0833333 0.916667
0.875 0.0833333 0.916667
0.916667 0.0833333 0.916667
0.958333 0.0833333 0.916667
1 0.0833333 0.916667
0 0.125 0.916667
0.0416667 0.125 0.916667
0.0833333 0.125 0.916667
0.125 0.125 0.916667
0.166667 0.125 0.916667
0.208333 0.125 0.916667
0.25 0.125 0.916667
0.291667 0.125 0.916667
0.333333 0.125 0.916667
0.375 0.125 0.916667
0.416667 0.125 0.916667
0.458333 0.125 0.916667
0.5 0.125 0.916667
0.541667 0.125 0.916667
0.583333 0.125 0.916667
0.625 0.125 0.916667
0.666667 0.125 0.916667
0.708333 0.125 0.916667
0.75 0.125 0.916667
0.791667 0.125 0.916667
0.833333 0.125 0.916667
0.875 0.125 0.916667
0.916667 0.125 0.916667
0.958333 0.125 0.916667
1 0.125 0.916667
0 0.166667 0.916667
0.0416667 0.166667 0.916667
0.0833333 0.166667 0.916667
0.125 0.166667 0.916667
0.166667 0.166667 0.916667
0.208333 0.166667 0.916667
0.25 0.166667 0.916667
0.291667 0.166667 0.916667
0.333333 0.166667 0.916667
0.375 0.166667 0.916667
0.416667 0.166667 0.916667
0.458333 0.166667 0.916667
0.5 0.166667 0.916667
0.541667 0.166667 0.916667
0.583333 0.166667 0.916667
0.625 0.166667 0.916667
0.666667 0.166667 0.916667
0.708333 0.166667 0.916667
0.75 0.166667 0.916667
0.791667 0.166667 0.916667
0.833333 0.166667 0.916667
0.875 0.166667 0.916667
0.916667 0.166667 0.916667
0.958333 0.166667 0.916667
1 0.166667 0.916667
0 0.208333 0.916667
0.0416667 0.208333 0.916667
0.0833333 0.208333 0.916667
0.125 0.208333 0.916667
0.166667 0.208333 0.916667
0.208333 0.208333 0.916667
0.25 0.208333 0.916667
0.291667 0.208333 0.916667
0.333333 0.208333 0.916667
0.375 0.208333 0.916667
0.416667 0.208333 0.916667
0.458333 0.208333 0.916667
0.5 0.208333 0.916667
0.541667 0.208333 0.916667
0.583333 0.208333 0.916667
0.625 0.208333 0.916667
0.666667 0.208333 0.916667
0.708333 0.208333 0.916667
0.75 0.208333 0.916667
0.791667 0.208333 0.916667
0.833333 0.208333 0.916667
0.875 0.208333 0.916667
0.916667 0.208333 0.916667
0.958333 0.208333 0.916667
1 0.208333 0.916667
0 0.25 0.916667
0.0416667 0.25 0.916667
0.0833333 0.25 0.916667
0.125 0.25 0.916667
0.166667 0.25 0.916667
0.208333 0.25 0.916667
0.25 0.25 0.916667
0.291667 0.25 0.916667
0.333333 0.25 0.916667
0.375 0.25 0.916667
0.416667 0.25 0.916667
0.458333 0.25 0.916667
0.5 0.25 0.916667
0.541667 0.25 0.916667
0.583333 0.25 0.916667
0.625 0.25 0.916667
0.666667 0.25 0.916667
0.708333 0.25 0.916667
0.75 0.25 0.916667
0.791667 0.25 0.916667
0.833333 0.25 0.916667
0.875 0.25 0.916667
0.916667 0.25 0.916667
0.958333 0.25 0.916667
1 0.25 0.916667
0 0.291667 0.916667
0.0416667 0.291667 0.916667
0.0833333 0.291667 0.916667
0.125 0.291667 0.916667
0.166667 0.291667 0.916667
0.208333 0.291667 0.916667
0.25 0.291667 0.916667
0.291667 0.291667 0.916667
0.333333 0.291667 0.916667
0.375 0.291667 0.916667
0.416667 0.291667 0.916667
0.458333 0.291667 0.916667
0.5 0.291667 0.916667
0.541667 0.291667 0.916667
0.583333 0.291667 0.916667
0.625 0.291667 0.916667
0.666667 0.291667 0.916667
0.708333 0.291667 0.916667
0.75 0.291667 0.916667
0.791667 0.291667 0.916667
0.833333 0.291667 0.916667
0.875 0.291667 0.916667
0.916667 0.291667 0.916667
0.958333 0.291667 0.916667
1 0.291667 0.916667
0 0.333333 0.916667
0.0416667 0.333333 0.916667
0.0833333 0.333333 0.916667
0.125 0.333333 0.916667
0.166667 0.333333 0.916667
0.208333 0.333333 0.916667
0.25 0.333333 0.916667
0.291667 0.333333 0.916667
0.333333 0.333333 0.916667
0.375 0.333333 0.916667
0.416667 0.333333 0.916667
0.458333 0.333333 0.916667
0.5 0.333333 0.916667
0.541667 0.333333 0.916667
0.583333 0.333333 0.916667
0.625 0.333333 0.916667
0.666667 0.333333 0.916667
0.708333 0.333333 0.916667
0.75 0.333333 0.916667
0.791667 0.333333 0.916667
0.833333 0.333333 0.916667
0.875 0.333333 0.916667
0.916667 0.333333 0.916667
0.958333 0.333333 0.916667
1 0.333333 0.916667
0 0.375 0.916667
0.0416667 0.375 0.916667
0.0833333 0.375 0.916667
0.125 0.375 0.916667
0.166667 0.375 0.916667
0.208333 0.375 0.916667
0.25 0.375 0.916667
0.291667 0.375 0.916667
0.333333 0.375 0.916667
0.375 0.375 0.916667
0.416667 0.375 0.916667
0.458333 0.375 0.916667
0.5 0.375 0.916667
0.541667 0.375 0.916667
0.583333 0.375 0.916667
0.625 0.375 0.916667
0.666667 0.375 0.916667
0.708333 0.375 0.916667
0.75 0.375 0.916667
0.791667 0.375 0.916667
0.833333 0.375 0.916667
0.875 0.375 0.916667
0.916667 0.375 0.916667
0.958333 0.375 0.916667
1 0.375 0.916667
0 0.416667 0.916667
0.0416667 0.416667 0.916667
0.0833333 0.416667 0.916667
0.125 0.416667 0.916667
0.166667 0.416667 0.916667
0.208333 0.416667 0.916667
0.25 0.416667 0.916667
0.291667 0.416667 0.916667
0.333333 0.416667 0.916667
0.375 0.416667 0.916667
0.416667 0.416667 0.916667
0.458333 0.416667 0.916667
0.5 0.416667 0.916667
0.541667 0.416667 0.916667
0.583333 0.416667 0.916667
0.625 0.416667 0.916667
0.666667 0.416667 0.916667
0.708333 0.416667 0.916667
0.75 0.416667 0.916667
0.791667 0.416667 0.916667
0.833333 0.416667 0.916667
0.875 0.416667 0.916667
0.916667 0.416667 0.916667
0.958333 0.416667 0.916667
1 0.416667 0.916667
0 0.458333 0.916667
0.0416667 0.458333 0.916667
0.0833333 0.458333 0.916667
0.125 0.458333 0.916667
0.166667 0.458333 0.916667
0.208333 0.458333 0.916667
0.25 0.458333 0.916667
0.291667 0.458333 0.916667
0.333333 0.458333 0.916667
0.375 0.458333 0.916667
0.416667 0.458333 0.916667
0.458333 0.458333 0.916667
0.5 0.458333 0.916667
0.541667 0.458333 0.916667
0.583333 0.458333 0.916667
0.625 0.458333 0.916667
0.666667 0.458333 0.916667
0.708333 0.458333 0.916667
0.75 0.458333 0.916667
0.791667 0.458333 0.916667
0.833333 0.458333 0.916667
0.875 0.458333 0.916667
0.916667 0.458333 0.916667
0.958333 0.458333 0.916667
1 0.458333 0.916667
0 0.5 0.916667
0.0416667 0.5 0.916667
0.0833333 0.5 0.916667
0.125 0.5 0.916667
0.166667 0.5 0.916667
0.208333 0.5 0.916667
0.25 0.5 0.916667
0.291667 0.5 0.916667
0.333333 0.5 0.916667
0.375 0.5 0.916667
0.416667 0.5 0.916667
0.458333 0.5 0.916667
0.5 0.5 0.916667
0.541667 0.5 0.916667
0.583333 0.5 0.916667
0.625 0.5 0.916667
0.666667 0.5 0.916667
0.708333 0.5 0.916667
0.75 0.5 0.916667
0.791667 0.5 0.916667
0.833333 0.5 0.916667
0.875 0.5 0.916667
0.916667 0.5 0.916667
0.958333 0.5 0.916667
1 0.5 0.916667
0 0.541667 0.916667
0.0416667 0.541667 0.916667
0.0833333 0.541667 0.916667
0.125 0.541667 0.916667
0.166667 0.541667 0.916667
0.208333 0.541667 0.916667
0.25 0.541667 0.916667
0.291667 0.541667 0.916667
0.333333 0.541667 0.916667
0.375 0.541667 0.916667
0.416667 0.541667 0.916667
0.458333 0.541667 0.916667
0.5 0.541667 0.916667
0.541667 0.541667 0.916667
0.583333 0.541667 0.916667
0.625 0.541667 0.916667
0.666667 0.541667 0.916667
0.708333 0.541667 0.916667
0.75 0.541667 0.916667
0.791667 0.541667 0.916667
0.833333 0.541667 0.916667
0.875 0.541667 0.916667
0.916667 0.541667 0.916667
0.958333 0.541667 0.916667
1 0.541667 0.916667
0 0.583333 0.916667
0.0416667 0.583333 0.916667
0.0833333 0.583333 0.916667
0.125 0.583333 0.916667
0.166667 0.583333 0.916667
0.208333 0.583333 0.916667
0.25 0.583333 0.916667
0.291667 0.583333 0.916667
0.333333 0.583333 0.916667
0.375 0.583333 0.916667
0.416667 0.583333 0.916667
0.458333 0.583333 0.916667
0.5 0.583333 0.916667
0.541667 0.583333 0.916667
0.583333 0.583333 0.916667
0.625 0.583333 0.916667
0.666667 0.583333 0.916667
0.708333 0.583333 0.916667
0.75 0.583333 0.916667
0.791667 0.583333 0.916667
0.833333 0.583333 0.916667
0.875 0.583333 0.916667
0.916667 0.583333 0.916667
0.958333 0.583333 0.916667
1 0.583333 0.916667
0 0.625 0.916667
0.0416667 0.625 0.916667
0.0833333 0.625 0.916667
0.125 0.625 0.916667
0.166667 0.625 0.916667
0.208333 0.625 0.916667
0.25 0.625 0.916667
0.291667 0.625 0.916667
0.333333 0.625 0.916667
0.375 0.625 0.916667
0.416667 0.625 0.916667
0.458333 0.625 0.916667
0.5 0.625 0.916667
0.541667 0.625 0.916667
0.583333 0.625 0.916667
0.625 0.625 0.916667
0.666667 0.625 0.916667
0.708333 0.625 0.916667
0.75 0.625 0.916667
0.791667 0.625 0.916667
0.833333 0.625 0.916667
0.875 0.625 0.916667
0.916667 0.625 0.916667
0.958333 0.625 0.916667
1 0.625 0.916667
0 0.666667 0.916667
0.0416667 0.666667 0.916667
0.0833333 0.666667 0.916667
0.125 0.666667 0.916667
0.166667 0.666667 0.916667
0.208333 0.666667 0.916667
0.25 0.666667 0.916667
0.291667 0.666667 0.916667
0.333333 0.666667 0.916667
0.375 0.666667 0.916667
0.416667 0.666667 0.916667
0.458333 0.666667 0.916667
0.5 0.666667 0.916667
0.541667 0.666667 0.916667
0.583333 0.666667 0.916667
0.625 0.666667 0.916667
0.666667 0.666667 0.916667
0.708333 0.666667 0.916667
0.75 0.666667 0.916667
0.791667 0.666667 0.916667
0.833333 0.666667 0.916667
0.875 0.666667 0.916667
0.916667 0.666667 0.916667
0.958333 0.666667 0.916667
1 0.666667 0.916667
0 0.708333 0.916667
0.0416667 0.708333 0.916667
0.0833333 0.708333 0.916667
0.125 0.708333 0.916667
0.166667 0.708333 0.916667
0.208333 0.708333 0.916667
0.25 0.708333 0.916667
0.291667 0.708333 0.916667
0.333333 0.708333 0.916667
0.375 0.708333 0.916667
0.416667 0.708333 0.916667
0.458333 0.708333 0.916667
0.5 0.708333 0.916667
0.541667 0.708333 0.916667
0.583333 0.708333 0.916667
0.625 0.708333 0.916667
0.666667 0.708333 0.916667
0.708333 0.708333 0.916667
0.75 0.708333 0.916667
0.791667 0.708333 0.916667
0.833333 0.708333 0.916667
0.875 0.708333 0.916667
0.916667 0.708333 0.916667
0.958333 0.708333 0.916667
1 0.708333 0.916667
0 0.75 0.916667
0.0416667 0.75 0.916667
0.0833333 0.75 0.916667
0.125 0.75 0.916667
0.166667 0.75 0.916667
0.208333 0.75 0.916667
0.25 0.75 0.916667
0.291667 0.75 0.916667
0.333333 0.75 0.916667
0.375 0.75 0.916667
0.416667 0.75 0.916667
0.458333 0.75 0.916667
0.5 0.75 0.916667
0.541667 0.75 0.916667
0.583333 0.75 0.916667
0.625 0.75 0.916667
0.666667 0.75 0.916667
0.708333 0.75 0.916667
0.75 0.75 0.916667
0.791667 0.75 0.916667
0.833333 0.75 0.916667
0.875 0.75 0.916667
0.916667 0.75 0.916667
0.958333 0.75 0.916667
1 0.75 0.916667
0 0.791667 0.916667
0.0416667 0.791667 0.916667
0.0833333 0.791667 0.916667
0.125 0.791667 0.916667
0.166667 0.791667 0.916667
0.208333 0.791667 0.916667
0.25 0.791667 0.916667
0.291667 0.791667 0.916667
0.333333 0.791667 0.916667
0.375 0.791667 0.916667
0.416667 0.791667 0.916667
0.458333 0.791667 0.916667
0.5 0.791667 0.916667
0.541667 0.791667 0.916667
0.583333 0.791667 0.916667
0.625 0.791667 0.916667
0.666667 0.791667 0.916667
0.708333 0.791667 0.916667
0.75 0.791667 0.916667
0.791667 0.791667 0.916667
0.833333 0.791667 0.916667
0.875 0.791667 0.916667
0.916667 0.791667 0.916667
0.958333 0.791667 0.916667
1 0.791667 0.916667
0 0.833333 0.916667
0.0416667 0.833333 0.916667
0.0833333 0.833333 0.916667
0.125 0.833333 0.916667
0.166667 0.833333 0.916667
0.208333 0.833333 0.916667
0.25 0.833333 0.916667
0.291667 0.833333 0.916667
0.333333 0.833333 0.916667
0.375 0.833333 0.916667
0.416667 0.833333 0.916667
0.458333 0.833333 0.916667
0.5 0.833333 0.916667
0.541667 0.833333 0.916667
0.583333 0.833333 0.916667
0.625 0.833333 0.916667
0.666667 0.833333 0.916667
0.708333 0.833333 0.916667
0.75 0.833333 0.916667
0.791667 0.833333 0.916667
0.833333 0.833333 0.916667
0.875 0.833333 0.916667
0.916667 0.833333 0.916667
0.958333 0.833333 0.916667
1 0.833333 0.916667
0 0.875 0.916667
0.0416667 0.875 0.916667
0.0833333 0.875 0.916667
0.125 0.875 0.916667
0.166667 0.875 0.916667
0.208333 0.875 0.916667
0.25 0.875 0.916667
0.291667 0.875 0.916667
0.333333 0.875 0.916667
0.375 0.875 0.916667
0.416667 0.875 0.916667
0.458333 0.875 0.916667
0.5 0.875 0.916667
0.541667 0.875 0.916667
0.583333 0.875 0.916667
0.625 0.875 0.916667
0.666667 0.875 0.916667
0.708333 0.875 0.916667
0.75 0.875 0.916667
0.791667 0.875 0.916667
0.833333 0.875 0.916667
0.875 0.875 0.916667
0.916667 0.875 0.916667
0.958333 0.875 0.916667
1 0.875 0.916667
0 0.916667 0.916667
0.0416667 0.916667 0.916667
0.0833333 0.916667 0.916667
0.125 0.916667 0.916667
0.166667 0.916667 0.916667
0.208333 0.916667 0.916667
0.25 0.916667 0.916667
0.291667 0.916667 0.916667
0.333333 0.916667 0.916667
0.375 0.916667 0.916667
0.416667 0.916667 0.916667
0.458333 0.916667 0.916667
0.5 0.916667 0.916667
0.541667 0.916667 0.916667
0.583333 0.916667 0.916667
0.625 0.916667 0.916667
0.666667 0.916667 0.916667
0.708333 0.916667 0.916667
0.75 0.916667 0.916667
0.791667 0.916667 0.916667
0.833333 0.916667 0.916667
0.875 0.916667 0.916667
0.916667 0.916667 0.916667
0.958333 0.916667 0.916667
1 0.916667 0.916667
0 0.958333 0.916667
0.0416667 0.958333 0.916667
0.0833333 0.958333 0.916667
0.125 0.958333 0.916667
0.166667 0.958333 0.916667
0.208333 0.958333 0.916667
0.25 0.958333 0.916667
0.291667 0.958333 0.916667
0.333333 0.958333 0.916667
0.375 0.958333 0.916667
0.416667 0.958333 0.916667
0.458333 0.958333 0.916667
0.5 0.958333 0.916667
0.541667 0.958333 0.916667
0.583333 0.958333 0.916667
0.625 0.958333 0.916667
0.666667 0.958333 0.916667
0.708333 0.958333 0.916667
0.75 0.958333 0.916667
0.791667 0.958333 0.916667
0.833333 0.958333 0.916667
0.875 0.958333 0.916667
0.916667 0.958333 0.916667
0.958333 0.958333 0.916667
1 0.958333 0.916667
0 1 0.916667
0.0416667 1 0.916667
0.0833333 1 0.916667
0.125 1 0.916667
0.166667 1 0.916667
0.208333 1 0.916667
0.25 1 0.916667
0.291667 1 0.916667
0.333333 1 0.916667
0.375 1 0.916667
0.416667 1 0.916667
0.458333 1 0.916667
0.5 1 0.916667
0.541667 1 0.916667
0.583333 1 0.916667
0.625 1 0.916667
0.666667 1 0.916667
0.708333 1 0.916667
0.75 1 0.916667
0.791667 1 0.916667
0.833333 1 0.916667
0.875 1 0.916667
0.916667 1 0.916667
0.958333 1 0.916667
1 1 0.916667
0 0 0.958333
0.0416667 0 0.958333
0.0833333 0 0.958333
0.125 0 0.958333
0.166667 0 0.958333
0.208333 0 0.958333
0.25 0 0.958333
0.291667 0 0.958333
0.333333 0 0.958333
0.375 0 0.958333
0.416667 0 0.958333
0.458333 0 0.958333
0.5 0 0.958333
0.541667 0 0.958333
0.583333 0 0.958333
0.625 0 0.958333
0.666667 0 0.958333
0.708333 0 0.958333
0.75 0 0.958333
0.791667 0 0.958333
0.833333 0 0.958333
0.875 0 0.958333
0.916667 0 0.958333
0.958333 0 0.958333
1 0 0.958333
0 0.0416667 0.958333
0.0416667 0.0416667 0.958333
0.0833333 0.0416667 0.958333
0.125 0.0416667 0.958333
0.166667 0.0416667 0.958333
0.208333 0.0416667 0.958333
0.25 0.0416667 0.958333
0.291667 0.0416667 0.958333
0.333333 0.0416667 0.958333
0.375 0.0416667 0.958333
0.416667 0.0416667 0.958333
0.458333 0.0416667 0.958333
0.5 0.0416667 0.958333
0.541667 0.0416667 0.958333
0.583333 0.0416667 0.958333
0.625 0.0416667 0.958333
0.666667 0.0416667 0.958333
0.708333 0.0416667 0.958333
0.75 0.0416667 0.958333
0.791667 0.0416667 0.958333
0.833333 0.0416667 0.958333
0.875 0.0416667 0.958333
0.916667 0.0416667 0.958333
0.958333 0.0416667 0.958333
1 0.0416667 0.958333
0 0.0833333 0.958333
0.0416667 0.0833333 0.958333
0.0833333 0.0833333 0.958333
0.125 0.0833333 0.958333
0.166667 0.0833333 0.958333
0.208333 0.0833333 0.958333
0.25 0.0833333 0.958333
0.291667 0.0833333 0.958333
0.333333 0.0833333 0.958333
0.375 0.0833333 0.958333
0.416667 0.0833333 0.958333
0.458333 0.0833333 0.958333
0.5 0.0833333 0.958333
0.541667 0.0833333 0.958333
0.583333 0.0833333 0.958333
0.625 0.0833333 0.958333
0.666667 0.0833333 0.958333
0.708333 0.0833333 0.958333
0.75 0.0833333 0.958333
0.791667 0.0833333 0.958333
0.833333 0.0833333 0.958333
0.875 0.0833333 0.958333
0.916667 0.0833333 0.958333
0.958333 0.0833333 0.958333
1 0.0833333 0.958333
0 0.125 0.958333
0.0416667 0.125 0.958333
0.0833333 0.125 0.958333
0.125 0.125 0.958333
0.166667 0.125 0.958333
0.208333 0.125 0.958333
0.25 0.125 0.958333
0.291667 0.125 0.958333
0.333333 0.125 0.958333
0.375 0.125 0.958333
0.416667 0.125 0.958333
0.458333 0.125 0.958333
0.5 0.125 0.958333
0.541667 0.125 0.958333
0.583333 0.125 0.958333
0.625 0.125 0.958333
0.666667 0.125 0.958333
0.708333 0.125 0.958333
0.75 0.125 0.958333
0.791667 0.125 0.958333
0.833333 0.125 0.958333
0.875 0.125 0.958333
0.916667 0.125 0.958333
0.958333 0.125 0.958333
1 0.125 0.958333
0 0.166667 0.958333
0.0416667 0.166667 0.958333
0.0833333 0.166667 0.958333
0.125 0.166667 0.958333
0.166667 0.166667 0.958333
0.208333 0.166667 0.958333
0.25 0.166667 0.958333
0.291667 0.166667 0.958333
0.333333 0.166667 0.958333
0.375 0.166667 0.958333
0.416667 0.166667 0.958333
0.458333 0.166667 0.958333
0.5 0.166667 0.958333
0.541667 0.166667 0.958333
0.583333 0.166667 0.958333
0.625 0.166667 0.958333
0.666667 0.166667 0.958333
0.708333 0.166667 0.958333
0.75 0.166667 0.958333
0.791667 0.166667 0.958333
0.833333 0.166667 0.958333
0.875 0.166667 0.958333
0.916667 0.166667 0.958333
0.958333 0.166667 0.958333
1 0.166667 0.958333
0 0.208333 0.958333
0.0416667 0.208333 0.958333
0.0833333 0.208333 0.958333
0.125 0.208333 0.958333
0.166667 0.208333 0.958333
0.208333 0.208333 0.958333
0.25 0.208333 0.958333
0.291667 0.208333 0.958333
0.333333 0.208333 0.958333
0.375 0.208333 0.958333
0.416667 0.208333 0.958333
0.458333 0.208333 0.958333
0.5 0.208333 0.958333
0.541667 0.208333 0.958333
0.583333 0.208333 0.958333
0.625 0.208333 0.958333
0.666667 0.208333 0.958333
0.708333 0.208333 0.958333
0.75 0.208333 0.958333
0.791667 0.208333 0.958333
0.833333 0.208333 0.958333
0.875 0.208333 0.958333
0.916667 0.208333 0.958333
0.958333 0.208333 0.958333
1 0.208333 0.958333
0 0.25 0.958333
0.0416667 0.25 0.958333
0.0833333 0.25 0.958333
0.125 0.25 0.958333
0.166667 0.25 0.958333
0.208333 0.25 0.958333
0.25 0.25 0.958333
0.291667 0.25 0.958333
0.333333 0.25 0.958333
0.375 0.25 0.958333
0.416667 0.25 0.958333
0.458333 0.25 0.958333
0.5 0.25 0.958333
0.541667 0.25 0.958333
0.583333 0.25 0.958333
0.625 0.25 0.958333
0.666667 0.25 0.958333
0.708333 0.25 0.958333
0.75 0.25 0.958333
0.791667 0.25 0.958333
0.833333 0.25 0.958333
0.875 0.25 0.958333
0.916667 0.25 0.958333
0.958333 0.25 0.958333
1 0.25 0.958333
0 0.291667 0.958333
0.0416667 0.291667 0.958333
0.0833333 0.291667 0.958333
0.125 0.291667 0.958333
0.166667 0.291667 0.958333
0.208333 0.291667 0.958333
0.25 0.291667 0.958333
0.291667 0.291667 0.958333
0.333333 0.291667 0.958333
0.375 0.291667 0.958333
0.416667 0.291667 0.958333
0.458333 0.291667 0.958333
0.5 0.291667 0.958333
0.541667 0.291667 0.958333
0.583333 0.291667 0.958333
0.625 0.291667 0.958333
0.666667 0.291667 0.958333
0.708333 0.291667 0.958333
0.75 0.291667 0.958333
0.791667 0.291667 0.958333
0.833333 0.291667 0.958333
0.875 0.291667 0.958333
0.916667 0.291667 0.958333
0.958333 0.291667 0.958333
1 0.291667 0.958333
0 0.333333 0.958333
0.0416667 0.333333 0.958333
0.0833333 0.333333 0.958333
0.125 0.333333 0.958333
0.166667 0.333333 0.958333
0.208333 0.333333 0.958333
0.25 0.333333 0.958333
0.291667 0.333333 0.958333
0.333333 0.333333 0.958333
0.375 0.333333 0.958333
0.416667 0.333333 0.958333
0.458333 0.333333 0.958333
0.5 0.333333 0.958333
0.541667 0.333333 0.958333
0.583333 0.333333 0.958333
0.625 0.333333 0.958333
0.666667 0.333333 0.958333
0.708333 0.333333 0.958333
0.75 0.333333 0.958333
0.791667 0.333333 0.958333
0.833333 0.333333 0.958333
0.875 0.333333 0.958333
0.916667 0.333333 0.958333
0.958333 0.333333 0.958333
1 0.333333 0.958333
0 0.375 0.958333
0.0416667 0.375 0.958333
0.0833333 0.375 0.958333
0.125 0.375 0.958333
0.166667 0.375 0.958333
0.208333 0.375 0.958333
0.25 0.375 0.958333
0.291667 0.375 0.958333
0.333333 0.375 0.958333
0.375 0.375 0.958333
0.416667 0.375 0.958333
0.458333 0.375 0.958333
0.5 0.375 0.958333
0.541667 0.375 0.958333
0.583333 0.375 0.958333
0.625 0.375 0.958333
0.666667 0.375 0.958333
0.708333 0.375 0.958333
0.75 0.375 0.958333
0.791667 0.375 0.958333
0.833333 0.375 0.958333
0.875 0.375 0.958333
0.916667 0.375 0.958333
0.958333 0.375 0.958333
1 0.375 0.958333
0 0.416667 0.958333
0.0416667 0.416667 0.958333
0.0833333 0.416667 0.958333
0.125 0.416667 0.958333
0.166667 0.416667 0.958333
0.208333 0.416667 0.958333
0.25 0.416667 0.958333
0.291667 0.416667 0.958333
0.333333 0.416667 0.958333
0.375 0.416667 0.958333
0.416667 0.416667 0.958333
0.458333 0.416667 0.958333
0.5 0.416667 0.958333
0.541667 0.416667 0.958333
0.583333 0.416667 0.958333
0.625 0.416667 0.958333
0.666667 0.416667 0.958333
0.708333 0.416667 0.958333
0.75 0.416667 0.958333
0.791667 0.416667 0.958333
0.833333 0.416667 0.958333
0.875 0.416667 0.958333
0.916667 0.416667 0.958333
0.958333 0.416667 0.958333
1 0.416667 0.958333
0 0.458333 0.958333
0.0416667 0.458333 0.958333
0.0833333 0.458333 0.958333
0.125 0.458333 0.958333
0.166667 0.458333 0.958333
0.208333 0.458333 0.958333
0.25 0.458333 0.958333
0.291667 0.458333 0.958333
0.333333 0.458333 0.958333
0.375 0.458333 0.958333
0.416667 0.458333 0.958333
0.458333 0.458333 0.958333
0.5 0.458333 0.958333
0.541667 0.458333 0.958333
0.583333 0.458333 0.958333
0.625 0.458333 0.958333
0.666667 0.458333 0.958333
0.708333 0.458333 0.958333
0.75 0.458333 0.958333
0.791667 0.458333 0.958333
0.833333 0.458333 0.958333
0.875 0.458333 0.958333
0.916667 0.458333 0.958333
0.958333 0.458333 0.958333
1 0.458333 0.958333
0 0.5 0.958333
0.0416667 0.5 0.958333
0.0833333 0.5 0.958333
0.125 0.5 0.958333
0.166667 0.5 0.958333
0.208333 0.5 0.958333
0.25 0.5 0.958333
0.291667 0.5 0.958333
0.333333 0.5 0.958333
0.375 0.5 0.958333
0.416667 0.5 0.958333
0.458333 0.5 0.958333
0.5 0.5 0.958333
0.541667 0.5 0.958333
0.583333 0.5 0.958333
0.625 0.5 0.958333
0.666667 0.5 0.958333
0.708333 0.5 0.958333
0.75 0.5 0.958333
0.791667 0.5 0.958333
0.833333 0.5 0.958333
0.875 0.5 0.958333
0.916667 0.5 0.958333
0.958333 0.5 0.958333
1 0.5 0.958333
0 0.541667 0.958333
0.0416667 0.541667 0.958333
0.0833333 0.541667 0.958333
0.125 0.541667 0.958333
0.166667 0.541667 0.958333
0.208333 0.541667 0.958333
0.25 0.541667 0.958333
0.291667 0.541667 0.958333
0.333333 0.541667 0.958333
0.375 0.541667 0.958333
0.416667 0.541667 0.958333
0.458333 0.541667 0.958333
0.5 0.541667 0.958333
0.541667 0.541667 0.958333
0.583333 0.541667 0.958333
0.625 0.541667 0.958333
0.666667 0.541667 0.958333
0.708333 0.541667 0.958333
0.75 0.541667 0.958333
0.791667 0.541667 0.958333
0.833333 0.541667 0.958333
0.875 0.541667 0.958333
0.916667 0.541667 0.958333
0.958333 0.541667 0.958333
1 0.541667 0.958333
0 0.583333 0.958333
0.0416667 0.583333 0.958333
0.0833333 0.583333 0.958333
0.125 0.583333 0.958333
0.166667 0.583333 0.958333
0.208333 0.583333 0.958333
0.25 0.583333 0.958333
0.291667 0.583333 0.958333
0.333333 0.583333 0.958333
0.375 0.583333 0.958333
0.416667 0.583333 0.958333
0.458333 0.583333 0.958333
0.5 0.583333 0.958333
0.541667 0.583333 0.958333
0.583333 0.583333 0.958333
0.625 0.583333 0.958333
0.666667 0.583333 0.958333
0.708333 0.583333 0.958333
0.75 0.583333 0.958333
0.791667 0.583333 0.958333
0.833333 0.583333 0.958333
0.875 0.583333 0.958333
0.916667 0.583333 0.958333
0.958333 0.583333 0.958333
1 0.583333 0.958333
0 0.625 0.958333
0.0416667 0.625 0.958333
0.0833333 0.625 0.958333
0.125 0.625 0.958333
0.166667 0.625 0.958333
0.208333 0.625 0.958333
0.25 0.625 0.958333
0.291667 0.625 0.958333
0.333333 0.625 0.958333
0.375 0.625 0.958333
0.416667 0.625 0.958333
0.458333 0.625 0.958333
0.5 0.625 0.958333
0.541667 0.625 0.958333
0.583333 0.625 0.958333
0.625 0.625 0.958333
0.666667 0.625 0.958333
0.708333 0.625 0.958333
0.75 0.625 0.958333
0.791667 0.625 0.958333
0.833333 0.625 0.958333
0.875 0.625 0.958333
0.916667 0.625 0.958333
0.958333 0.625 0.958333
1 0.625 0.958333
0 0.666667 0.958333
0.0416667 0.666667 0.958333
0.0833333 0.666667 0.958333
0.125 0.666667 0.958333
0.166667 0.666667 0.958333
0.208333 0.666667 0.958333
0.25 0.666667 0.958333
0.291667 0.666667 0.958333
0.333333 0.666667 0.958333
0.375 0.666667 0.958333
0.416667 0.666667 0.958333
0.458333 0.666667 0.958333
0.5 0.666667 0.958333
0.541667 0.666667 0.958333
0.583333 0.666667 0.958333
0.625 0.666667 0.958333
0.666667 0.666667 0.958333
0.708333 0.666667 0.958333
0.75 0.666667 0.958333
0.791667 0.666667 0.958333
0.833333 0.666667 0.958333
0.875 0.666667 0.958333
0.916667 0.666667 0.958333
0.958333 0.666667 0.958333
1 0.666667 0.958333
0 0.708333 0.958333
0.0416667 0.708333 0.958333
0.0833333 0.708333 0.958333
0.125 0.708333 0.958333
0.166667 0.708333 0.958333
0.208333 0.708333 0.958333
0.25 0.708333 0.958333
0.291667 0.708333 0.958333
0.333333 0.708333 0.958333
0.375 0.708333 0.958333
0.416667 0.708333 0.958333
0.458333 0.708333 0.958333
0.5 0.708333 0.958333
0.541667 0.708333 0.958333
0.583333 0.708333 0.958333
0.625 0.708333 0.958333
0.666667 0.708333 0.958333
0.708333 0.708333 0.958333
0.75 0.708333 0.958333
0.791667 0.708333 0.958333
0.833333 0.708333 0.958333
0.875 0.708333 0.958333
0.916667 0.708333 0.958333
0.958333 0.708333 0.958333
1 0.708333 0.958333
0 0.75 0.958333
0.0416667 0.75 0.958333
0.0833333 0.75 0.958333
0.125 0.75 0.958333
0.166667 0.75 0.958333
0.208333 0.75 0.958333
0.25 0.75 0.958333
0.291667 0.75 0.958333
0.333333 0.75 0.958333
0.375 0.75 0.958333
0.416667 0.75 0.958333
0.458333 0.75 0.958333
0.5 0.75 0.958333
0.541667 0.75 0.958333
0.583333 0.75 0.958333
0.625 0.75 0.958333
0.666667 0.75 0.958333
0.708333 0.75 0.958333
0.75 0.75 0.958333
0.791667 0.75 0.958333
0.833333 0.75 0.958333
0.875 0.75 0.958333
0.916667 0.75 0.958333
0.958333 0.75 0.958333
1 0.75 0.958333
0 0.791667 0.958333
0.0416667 0.791667 0.958333
0.0833333 0.791667 0.958333
0.125 0.791667 0.958333
0.166667 0.791667 0.958333
0.208333 0.791667 0.958333
0.25 0.791667 0.958333
0.291667 0.791667 0.958333
0.333333 0.791667 0.958333
0.375 0.791667 0.958333
0.416667 0.791667 0.958333
0.458333 0.791667 0.958333
0.5 0.791667 0.958333
0.541667 0.791667 0.958333
0.583333 0.791667 0.958333
0.625 0.791667 0.958333
0.666667 0.791667 0.958333
0.708333 0.791667 0.958333
0.75 0.791667 0.958333
0.791667 0.791667 0.958333
0.833333 0.791667 0.958333
0.875 0.791667 0.958333
0.916667 0.791667 0.958333
0.958333 0.791667 0.958333
1 0.791667 0.958333
0 0.833333 0.958333
0.0416667 0.833333 0.958333
0.0833333 0.833333 0.958333
0.125 0.833333 0.958333
0.166667 0.833333 0.958333
0.208333 0.833333 0.958333
0.25 0.833333 0.958333
0.291667 0.833333 0.958333
0.333333 0.833333 0.958333
0.375 0.833333 0.958333
0.416667 0.833333 0.958333
0.458333 0.833333 0.958333
0.5 0.833333 0.958333
0.541667 0.833333 0.958333
0.583333 0.833333 0.958333
0.625 0.833333 0.958333
0.666667 0.833333 0.958333
0.708333 0.833333 0.958333
0.75 0.833333 0.958333
0.791667 0.833333 0.958333
0.833333 0.833333 0.958333
0.875 0.833333 0.958333
0.916667 0.833333 0.958333
0.958333 0.833333 0.958333
1 0.833333 0.958333
0 0.875 0.958333
0.0416667 0.875 0.958333
0.0833333 0.875 0.958333
0.125 0.875 0.958333
0.166667 0.875 0.958333
0.208333 0.875 0.958333
0.25 0.875 0.958333
0.291667 0.875 0.958333
0.333333 0.875 0.958333
0.375 0.875 0.958333
0.416667 0.875 0.958333
0.458333 0.875 0.958333
0.5 0.875 0.958333
0.541667 0.875 0.958333
0.583333 0.875 0.958333
0.625 0.875 0.958333
0.666667 0.875 0.958333
0.708333 0.875 0.958333
0.75 0.875 0.958333
0.791667 0.875 0.958333
0.833333 0.875 0.958333
0.875 0.875 0.958333
0.916667 0.875 0.958333
0.958333 0.875 0.958333
1 0.875 0.958333
0 0.916667 0.958333
0.0416667 0.916667 0.958333
0.0833333 0.916667 0.958333
0.125 0.916667 0.958333
0.166667 0.916667 0.958333
0.208333 0.916667 0.958333
0.25 0.916667 0.958333
0.291667 0.916667 0.958333
0.333333 0.916667 0.958333
0.375 0.916667 0.958333
0.416667 0.916667 0.958333
0.458333 0.916667 0.958333
0.5 0.916667 0.958333
0.541667 0.916667 0.958333
0.583333 0.916667 0.958333
0.625 0.916667 0.958333
0.666667 0.916667 0.958333
0.708333 0.916667 0.958333
0.75 0.916667 0.958333
0.791667 0.916667 0.958333
0.833333 0.916667 0.958333
0.875 0.916667 0.958333
0.916667 0.916667 0.958333
0.958333 0.916667 0.958333
1 0.916667 0.958333
0 0.958333 0.958333
0.0416667 0.958333 0.958333
0.0833333 0.958333 0.958333
0.125 0.958333 0.958333
0.166667 0.958333 0.958333
0.208333 0.958333 0.958333
0.25 0.958333 0.958333
0.291667 0.958333 0.958333
0.333333 0.958333 0.958333
0.375 0.958333 0.958333
0.416667 0.958333 0.958333
0.458333 0.958333 0.958333
0.5 0.958333 0.958333
0.541667 0.958333 0.958333
0.583333 0.958333 0.958333
0.625 0.958333 0.958333
0.666667 0.958333 0.958333
0.708333 0.958333 0.958333
0.75 0.958333 0.958333
0.791667 0.958333 0.958333
0.833333 0.958333 0.958333
0.875 0.958333 0.958333
0.916667 0.958333 0.958333
0.958333 0.958333 0.958333
1 0.958333 0.958333
0 1 0.958333
0.0416667 1 0.958333
0.0833333 1 0.958333
0.125 1 0.958333
0.166667 1 0.958333
0.208333 1 0.958333
0.25 1 0.958333
0.291667 1 0.958333
0.333333 1 0.958333
0.375 1 0.958333
0.416667 1 0.958333
0.458333 1 0.958333
0.5 1 0.958333
0.541667 1 0.958333
0.583333 1 0.958333
0.625 1 0.958333
0.666667 1 0.958333
0.708333 1 0.958333
0.75 1 0.958333
0.791667 1 0.958333
0.833333 1 0.958333
0.875 1 0.958333
0.916667 1 0.958333
0.958333 1 0.958333
1 1 0.958333
0 0 1
0.0416667 0 1
0.0833333 0 1
0.125 0 1
0.166667 0 1
0.208333 0 1
0.25 0 1
0.291667 0 1
0.333333 0 1
0.375 0 1
0.416667 0 1
0.458333 0 1
0.5 0 1
0.541667 0 1
0.583333 0 1
0.625 0 1
0.666667 0 1
0.708333 0 1
0.75 0 1
0.791667 0 1
0.833333 0 1
0.875 0 1
0.916667 0 1
0.958333 0 1
1 0 1
0 0.0416667 1
0.0416667 0.0416667 1
0.0833333 0.0416667 1
0.125 0.0416667 1
0.166667 0.0416667 1
0.208333 0.0416667 1
0.25 0.0416667 1
0.291667 0.0416667 1
0.333333 0.0416667 1
0.375 0.0416667 1
0.416667 0.0416667 1
0.458333 0.0416667 1
0.5 0.0416667 1
0.541667 0.0416667 1
0.583333 0.0416667 1
0.625 0.0416667 1
0.666667 0.0416667 1
0.708333 0.0416667 1
0.75 0.0416667 1
0.791667 0.0416667 1
0.833333 0.0416667 1
0.875 0.0416667 1
0.916667 0.0416667 1
0.958333 0.0416667 1
1 0.0416667 1
0 0.0833333 1
0.0416667 0.0833333 1
0.0833333 0.0833333 1
0.125 0.0833333 1
0.166667 0.0833333 1
0.208333 0.0833333 1
0.25 0.0833333 1
0.291667 0.0833333 1
0.333333 0.0833333 1
0.375 0.0833333 1
0.416667 0.0833333 1
0.458333 0.0833333 1
0.5 0.0833333 1
0.541667 0.0833333 1
0.583333 0.0833333 1
0.625 0.0833333 1
0.666667 0.0833333 1
0.708333 0.0833333 1
0.75 0.0833333 1
0.791667 0.0833333 1
0.833333 0.0833333 1
0.875 0.0833333 1
0.916667 0.0833333 1
0.958333 0.0833333 1
1 0.0833333 1
0 0.125 1
0.0416667 0.125 1
0.0833333 0.125 1
0.125 0.125 1
0.166667 0.125 1
0.208333 0.125 1
0.25 0.125 1
0.291667 0.125 1
0.333333 0.125 1
0.375 0.125 1
0.416667 0.125 1
0.458333 0.125 1
0.5 0.125 1
0.541667 0.125 1
0.583333 0.125 1
0.625 0.125 1
0.666667 0.125 1
0.708333 0.125 1
0.75 0.125 1
0.791667 0.125 1
0.833333 0.125 1
0.875 0.125 1
0.916667 0.125 1
0.958333 0.125 1
1 0.125 1
0 0.166667 1
0.0416667 0.166667 1
0.0833333 0.166667 1
0.125 0.166667 1
0.166667 0.166667 1
0.208333 0.166667 1
0.25 0.166667 1
0.291667 0.166667 1
0.333333 0.166667 1
0.375 0.166667 1
0.416667 0.166667 1
0.458333 0.166667 1
0.5 0.166667 1
0.541667 0.166667 1
0.583333 0.166667 1
0.625 0.166667 1
0.666667 0.166667 1
0.708333 0.166667 1
0.75 0.166667 1
0.791667 0.166667 1
0.833333 0.166667 1
0.875 0.166667 1
0.916667 0.166667 1
0.958333 0.166667 1
1 0.166667 1
0 0.208333 1
0.0416667 0.208333 1
0.0833333 0.208333 1
0.125 0.208333 1
0.166667 0.208333 1
0.208333 0.208333 1
0.25 0.208333 1
0.291667 0.208333 1
0.333333 0.208333 1
0.375 0.208333 1
0.416667 0.208333 1
0.458333 0.208333 1
0.5 0.208333 1
0.541667 0.208333 1
0.583333 0.208333 1
0.625 0.208333 1
0.666667 0.208333 1
0.708333 0.208333 1
0.75 0.208333 1
0.791667 0.208333 1
0.833333 0.208333 1
0.875 0.208333 1
0.916667 0.208333 1
0.958333 0.208333 1
1 0.208333 1
0 0.25 1
0.0416667 0.25 1
0.0833333 0.25 1
0.125 0.25 1
0.166667 0.25 1
0.208333 0.25 1
0.25 0.25 1
0.291667 0.25 1
0.333333 0.25 1
0.375 0.25 1
0.416667 0.25 1
0.458333 0.25 1
0.5 0.25 1
0.541667 0.25 1
0.583333 0.25 1
0.625 0.25 1
0.666667 0.25 1
0.708333 0.25 1
0.75 0.25 1
0.791667 0.25 1
0.833333 0.25 1
0.875 0.25 1
0.916667 0.25 1
0.958333 0.25 1
1 0.25 1
0 0.291667 1
0.0416667 0.291667 1
0.0833333 0.291667 1
0.125 0.291667 1
0.166667 0.291667 1
0.208333 0.291667 1
0.25 0.291667 1
0.291667 0.291667 1
0.333333 0.291667 1
0.375 0.291667 1
0.416667 0.291667 1
0.458333 0.291667 1
0.5 0.291667 1
0.541667 0.291667 1
0.583333 0.291667 1
0.625 0.291667 1
0.666667 0.291667 1
0.708333 0.291667 1
0.75 0.291667 1
0.791667 0.291667 1
0.833333 0.291667 1
0.875 0.291667 1
0.916667 0.291667 1
0.958333 0.291667 1
1 0.291667 1
0 0.333333 1
0.0416667 0.333333 1
0.0833333 0.333333 1
0.125 0.333333 1
0.166667 0.333333 1
0.208333 0.333333 1
0.25 0.333333 1
0.291667 0.333333 1
0.333333 0.333333 1
0.375 0.333333 1
0.416667 0.333333 1
0.458333 0.333333 1
0.5 0.333333 1
0.541667 0.333333 1
0.583333 0.333333 1
0.625 0.333333 1
0.666667 0.333333 1
0.708333 0.333333 1
0.75 0.333333 1
0.791667 0.333333 1
0.833333 0.333333 1
0.875 0.333333 1
0.916667 0.333333 1
0.958333 0.333333 1
1 0.333333 1
0 0.375 1
0.0416667 0.375 1
0.0833333 0.375 1
0.125 0.375 1
0.166667 0.375 1
0.208333 0.375 1
0.25 0.375 1
0.291667 0.375 1
0.333333 0.375 1
0.375 0.375 1
0.416667 0.375 1
0.458333 0.375 1
0.5 0.375 1
0.541667 0.375 1
0.583333 0.375 1
0.625 0.375 1
0.666667 0.375 1
0.708333 0.375 1
0.75 0.375 1
0.791667 0.375 1
0.833333 0.375 1
0.875 0.375 1
0.916667 0.375 1
0.958333 0.375 1
1 0.375 1
0 0.416667 1
0.0416667 0.416667 1
0.0833333 0.416667 1
0.125 0.416667 1
0.166667 0.416667 1
0.208333 0.416667 1
0.25 0.416667 1
0.291667 0.416667 1
0.333333 0.416667 1
0.375 0.416667 1
0.416667 0.416667 1
0.458333 0.416667 1
0.5 0.416667 1
0.541667 0.416667 1
0.583333 0.416667 1
0.625 0.416667 1
0.666667 0.416667 1
0.708333 0.416667 1
0.75 0.416667 1
0.791667 0.416667 1
0.833333 0.416667 1
0.875 0.416667 1
0.916667 0.416667 1
0.958333 0.416667 1
1 0.416667 1
0 0.458333 1
0.0416667 0.458333 1
0.0833333 0.458333 1
0.125 0.458333 1
0.166667 0.458333 1
0.208333 0.458333 1
0.25 0.458333 1
0.291667 0.458333 1
0.333333 0.458333 1
0.375 0.458333 1
0.416667 0.458333 1
0.458333 0.458333 1
0.5 0.458333 1
0.541667 0.458333 1
0.583333 0.458333 1
0.625 0.458333 1
0.666667 0.458333 1
0.708333 0.458333 1
0.75 0.458333 1
0.791667 0.458333 1
0.833333 0.458333 1
0.875 0.458333 1
0.916667 0.458333 1
0.958333 0.458333 1
1 0.458333 1
0 0.5 1
0.0416667 0.5 1
0.0833333 0.5 1
0.125 0.5 1
0.166667 0.5 1
0.208333 0.5 1
0.25 0.5 1
0.291667 0.5 1
0.333333 0.5 1
0.375 0.5 1
0.416667 0.5 1
0.458333 0.5 1
0.5 0.5 1
0.541667 0.5 1
0.583333 0.5 1
0.625 0.5 1
0.666667 0.5 1
0.708333 0.5 1
0.75 0.5 1
0.791667 0.5 1
0.833333 0.5 1
0.875 0.5 1
0.916667 0.5 1
0.958333 0.5 1
1 0.5 1
0 0.541667 1
0.0416667 0.541667 1
0.0833333 0.541667 1
0.125 0.541667 1
0.166667 0.541667 1
0.208333 0.541667 1
0.25 0.541667 1
0.291667 0.541667 1
0.333333 0.541667 1
0.375 0.541667 1
0.416667 0.541667 1
0.458333 0.541667 1
0.5 0.541667 1
0.541667 0.541667 1
0.583333 0.541667 1
0.625 0.541667 1
0.666667 0.541667 1
0.708333 0.541667 1
0.75 0.541667 1
0.791667 0.541667 1
0.833333 0.541667 1
0.875 0.541667 1
0.916667 0.541667 1
0.958333 0.541667 1
1 0.541667 1
0 0.583333 1
0.0416667 0.583333 1
0.0833333 0.583333 1
0.125 0.583333 1
0.166667 0.583333 1
0.208333 0.583333 1
0.25 0.583333 1
0.291667 0.583333 1
0.333333 0.583333 1
0.375 0.583333 1
0.416667 0.583333 1
0.458333 0.583333 1
0.5 0.583333 1
0.541667 0.583333 1
0.583333 0.583333 1
0.625 0.583333 1
0.666667 0.583333 1
0.708333 0.583333 1
0.75 0.583333 1
0.791667 0.583333 1
0.833333 0.583333 1
0.875 0.583333 1
0.916667 0.583333 1
0.958333 0.583333 1
1 0.583333 1
0 0.625 1
0.0416667 0.625 1
0.0833333 0.625 1
0.125 0.625 1
0.166667 0.625 1
0.208333 0.625 1
0.25 0.625 1
0.291667 0.625 1
0.333333 0.625 1
0.375 0.625 1
0.416667 0.625 1
0.458333 0.625 1
0.5 0.625 1
0.541667 0.625 1
0.583333 0.625 1
0.625 0.625 1
0.666667 0.625 1
0.708333 0.625 1
0.75 0.625 1
0.791667 0.625 1
0.833333 0.625 1
0.875 0.625 1
0.916667 0.625 1
0.958333 0.625 1
1 0.625 1
0 0.666667 1
0.0416667 0.666667 1
0.0833333 0.666667 1
0.125 0.666667 1
0.166667 0.666667 1
0.208333 0.666667 1
0.25 0.666667 1
0.291667 0.666667 1
0.333333 0.666667 1
0.375 0.666667 1
0.416667 0.666667 1
0.458333 0.666667 1
0.5 0.666667 1
0.541667 0.666667 1
0.583333 0.666667 1
0.625 0.666667 1
0.666667 0.666667 1
0.708333 0.666667 1
0.75 0.666667 1
0.791667 0.666667 1
0.833333 0.666667 1
0.875 0.666667 1
0.916667 0.666667 1
0.958333 0.666667 1
1 0.666667 1
0 0.708333 1
0.0416667 0.708333 1
0.0833333 0.708333 1
0.125 0.708333 1
0.166667 0.708333 1
0.208333 0.708333 1
0.25 0.708333 1
0.291667 0.708333 1
0.333333 0.708333 1
0.375 0.708333 1
0.416667 0.708333 1
0.458333 0.708333 1
0.5 0.708333 1
0.541667 0.708333 1
0.583333 0.708333 1
0.625 0.708333 1
0.666667 0.708333 1
0.708333 0.708333 1
0.75 0.708333 1
0.791667 0.708333 1
0.833333 0.708333 1
0.875 0.708333 1
0.916667 0.708333 1
0.958333 0.708333 1
1 0.708333 1
0 0.75 1
0.0416667 0.75 1
0.0833333 0.75 1
0.125 0.75 1
0.166667 0.75 1
0.208333 0.75 1
0.25 0.75 1
0.291667 0.75 1
0.333333 0.75 1
0.375 0.75 1
0.416667 0.75 1
0.458333 0.75 1
0.5 0.75 1
0.541667 0.75 1
0.583333 0.75 1
0.625 0.75 1
0.666667 0.75 1
0.708333 0.75 1
0.75 0.75 1
0.791667 0.75 1
0.833333 0.75 1
0.875 0.75 1
0.916667 0.75 1
0.958333 0.75 1
1 0.75 1
0 0.791667 1
0.0416667 0.791667 1
0.0833333 0.791667 1
0.125 0.791667 1
0.166667 0.791667 1
0.208333 0.791667 1
0.25 0.791667 1
0.291667 0.791667 1
0.333333 0.791667 1
0.375 0.791667 1
0.416667 0.791667 1
0.458333 0.791667 1
0.5 0.791667 1
0.541667 0.791667 1
0.583333 0.791667 1
0.625 0.791667 1
0.666667 0.791667 1
0.708333 0.791667 1
0.75 0.791667 1
0.791667 0.791667 1
0.833333 0.791667 1
0.875 0.791667 1
0.916667 0.791667 1
0.958333 0.791667 1
1 0.791667 1
0 0.833333 1
0.0416667 0.833333 1
0.0833333 0.833333 1
0.125 0.833333 1
0.166667 0.833333 1
0.208333 0.833333 1
0.25 0.833333 1
0.291667 0.833333 1
0.333333 0.833333 1
0.375 0.833333 1
0.416667 0.833333 1
0.458333 0.833333 1
0.5 0.833333 1
0.541667 0.833333 1
0.583333 0.833333 1
0.625 0.833333 1
0.666667 0.833333 1
0.708333 0.833333 1
0.75 0.833333 1
0.791667 0.833333 1
0.833333 0.833333 1
0.875 0.833333 1
0.916667 0.833333 1
0.958333 0.833333 1
1 0.833333 1
0 0.875 1
0.0416667 0.875 1
0.0833333 0.875 1
0.125 0.875 1
0.166667 0.875 1
0.208333 0.875 1
0.25 0.875 1
0.291667 0.875 1
0.333333 0.875 1
0.375 0.875 1
0.416667 0.875 1
0.458333 0.875 1
0.5 0.875 1
0.541667 0.875 1
0.583333 0.875 1
0.625 0.875 1
0.666667 0.875 1
0.708333 0.875 1
0.75 0.875 1
0.791667 0.875 1
0.833333 0.875 1
0.875 0.875 1
0.916667 0.875 1
0.958333 0.875 1
1 0.875 1
0 0.916667 1
0.0416667 0.916667 1
0.0833333 0.916667 1
0.125 0.916667 1
0.166667 0.916667 1
0.208333 0.916667 1
0.25 0.916667 1
0.291667 0.916667 1
0.333333 0.916667 1
0.375 0.916667 1
0.416667 0.916667 1
0.458333 0.916667 1
0.5 0.916667 1
0.541667 0.916667 1
0.583333 0.916667 1
0.625 0.916667 1
0.666667 0.916667 1
0.708333 0.916667 1
0.75 0.916667 1
0.791667 0.916667 1
0.833333 0.916667 1
0.875 0.916667 1
0.916667 0.916667 1
0.958333 0.916667 1
1 0.916667 1
0 0.958333 1
0.0416667 0.958333 1
0.0833333 0.958333 1
0.125 0.958333 1
0.166667 0.958333 1
0.208333 0.958333 1
0.25 0.958333 1
0.291667 0.958333 1
0.333333 0.958333 1
0.375 0.958333 1
0.416667 0.958333 1
0.458333 0.958333 1
0.5 0.958333 1
0.541667 0.958333 1
0.583333 0.958333 1
0.625 0.958333 1
0.666667 0.958333 1
0.708333 0.958333 1
0.75 0.958333 1
0.791667 0.958333 1
0.833333 0.958333 1
0.875 0.958333 1
0.916667 0.958333 1
0.958333 0.958333 1
1 0.958333 1
0 1 1
0.0416667 1 1
0.0833333 1 1
0.125 1 1
0.166667 1 1
0.208333 1 1
0.25 1 1
0.291667 1 1
0.333333 1 1
0.375 1 1
0.416667 1 1
0.458333 1 1
0.5 1 1
0.541667 1 1
0.583333 1 1
0.625 1 1
0.666667 1 1
0.708333 1 1
0.75 1 1
0.791667 1 1
0.833333 1 1
0.875 1 1
0.916667 1 1
0.958333 1 1
1 1 1

CELLS 13825 110592
OFFSETS vtktypeint64
0 8 16 24 32 40 48 56 64 72 80 88 96 104 112 120 128 136 144 152 160 168 176 184 192 200 208 216 224 232 240 248 256 264 272 280 288 296 304 312 320 328 336 344 352 360 368 376 384 392 400 408 416 424 432 440 448 456 464 472 480 488 496 504 512 520 528 536 544 552 560 568 576 584 592 600 608 616 624 632 640 648 656 664 672 680 688 696 704 712 720 728 736 744 752 760 768 776 784 792 800 808 816 824 832 840 848 856 864 872 880 888 896 904 912 920 928 936 944 952 960 968 976 984 992 1000 1008 1016 1024 1032 1040 1048 1056 1064 1072 1080 1088 1096 1104 1112 1120 1128 1136 1144 1152 1160 1168 1176 1184 1192 1200 1208 1216 1224 1232 1240 1248 1256 1264 1272 1280 1288 1296 1304 1312 1320 1328 1336 1344 1352 1360 1368 1376 1384 1392 1400 1408 1416 1424 1432 1440 1448 1456 1464 1472 1480 1488 1496 1504 1512 1520 1528 1536 1544 1552 1560 1568 1576 1584 1592 1600 1608 1616 1624 1632 1640 1648 1656 1664 1672 1680 1688 1696 1704 1712 1720 1728 1736 1744 1752 1760 1768 1776 1784 1792 1800 1808 1816 1824 1832 1840 1848 1856 1864 1872 1880 1888 1896 1904 1912 1920 1928 1936 1944 1952 1960 1968 1976 1984 1992 2000 2008 2016 2024 2032 2040 2048 2056 2064 2072 2080 2088 2096 2104 2112 2120 2128 2136 2144 2152 2160 2168 2176 2184 2192 2200 2208 2216 2224 2232 2240 2248 2256 2264 2272 2280 2288 2296 2304 2312 2320 2328 2336 2344 2352 2360 2368 2376 2384 2392 2400 2408 2416 2424 2432 2440 2448 2456 2464 2472 2480 2488 2496 2504 2512 2520 2528 2536 2544 2552 2560 2568 2576 2584 2592 2600 2608 2616 2624 2632 2640 2648 2656 2664 2672 2680 2688 2696 2704 2712 2720 2728 2736 2744 2752 2760 2768 2776 2784 2792 2800 2808 2816 2824 2832 2840 2848 2856 2864 2872 2880 2888 2896 2904 2912 2920 2928 2936 2944 2952 2960 2968 2976 2984 2992 3000 3008 3016 3024 3032 3040 3048 3056 3064 3072 3080 3088 3096 3104 3112 3120 3128 3136 3144 3152 3160 3168 3176 3184 3192 3200 3208 3216 3224 3232 3240 3248 3256 3264 3272 3280 3288 3296 3304 3312 3320 3328 3336 3344 3352 3360 3368 3376 3384 3392 3400 3408 3416 3424 3432 3440 3448 3456 3464 3472 3480 3488 3496 3504 3512 3520 3528 3536 3544 3552 3560 3568 3576 3584 3592 3600 3608 3616 3624 3632 3640 3648 3656 3664 3672 3680 3688 3696 3704 3712 3720 3728 3736 3744 3752 3760 3768 3776 3784 3792 3800 3808 3816 3824 3832 3840 3848 3856 3864 3872 3880 3888 3896 3904 3912 3920 3928 3936 3944 3952 3960 3968 3976 3984 3992 4000 4008 4016 4024 4032 4040 4048 4056 4064 4072 4080 4088 4096 4104 4112 4120 4128 4136 4144 4152 4160 4168 4176 4184 4192 4200 4208 4216 4224 4232 4240 4248 4256 4264 4272 4280 4288 4296 4304 4312 4320 4328 4336 4344 4352 4360 4368 4376 4384 4392 4400 4408 4416 4424 4432 4440 4448 4456 4464 4472 4480 4488 4496 4504 4512 4520 4528 4536 4544 4552 4560 4568 4576 4584 4592 4600 4608 4616 4624 4632 4640 4648 4656 4664 4672 4680 4688 4696 4704 4712 4720 4728 4736 4744 4752 4760 4768 4776 4784 4792 4800 4808 4816 4824 4832 4840 4848 4856 4864 4872 4880 4888 4896 4904 4912 4920 4928 4936 4944 4952 4960 4968 4976 4984 4992 5000 5008 5016 5024 5032 5040 5048 5056 5064 5072 5080 5088 5096 5104 5112 5120 5128 5136 5144 5152 5160 5168 5176 5184 5192 5200 5208 5216 5224 5232 5240 5248 5256 5264 5272 5280 5288 5296 5304 5312 5320 5328 5336 5344 5352 5360 5368 5376 5384 5392 5400 5408 5416 5424 5432 5440 5448 5456 5464 5472 5480 5488 5496 5504 5512 5520 5528 5536 5544 5552 5560 5568 5576 5584 5592 5600 5608 5616 5624 5632 5640 5648 5656 5664 5672 5680 5688 5696 5704 5712 5720 5728 5736 5744 5752 5760 5768 5776 5784 5792 5800 5808 5816 5824 5832 5840 5848 5856 5864 5872 5880 5888 5896 5904 5912 5920 5928 5936 5944 5952 5960 5968 5976 5984 5992 6000 6008 6016 6024 6032 6040 6048 6056 6064 6072 6080 6088 6096 6104 6112 6120 6128 6136 6144 6152 6160 6168 6176 6184 6192 6200 6208 6216 6224 6232 6240 6248 6256 6264 6272 6280 6288 6296 6304 6312 6320 6328 6336 6344 6352 6360 6368 6376 6384 6392 6400 6408 6416 6424 6432 6440 6448 6456 6464 6472 6480 6488 6496 6504 6512 6520 6528 6536 6544 6552 6560 6568 6576 6584 6592 6600 6608 6616 6624 6632 6640 6648 6656 6664 6672 6680 6688 6696 6704 6712 6720 6728 6736 6744 6752 6760 6768 6776 6784 6792 6800 6808 6816 6824 6832 6840 6848 6856 6864 6872 6880 6888 6896 6904 6912 6920 6928 6936 6944 6952 6960 6968 6976 6984 6992 7000 7008 7016 7024 7032 7040 7048 7056 7064 7072 7080 7088 7096 7104 7112 7120 7128 7136 7144 7152 7160 7168 7176 7184 7192 7200 7208 7216 7224 7232 7240 7248 7256 7264 7272 7280 7288 7296 7304 7312 7320 7328 7336 7344 7352 7360 7368 7376 7384 7392 7400 7408 7416 7424 7432 7440 7448 7456 7464 7472 7480 7488 7496 7504 7512 7520 7528 7536 7544 7552 7560 7568 7576 7584 7592 7600 7608 7616 7624 7632 7640 7648 7656 7664 7672 7680 7688 7696 7704 7712 7720 7728 7736 7744 7752 7760 7768 7776 7784 7792 7800 7808 7816 7824 7832 7840 7848 7856 7864 7872 7880 7888 7896 7904 7912 7920 7928 7936 7944 7952 7960 7968 7976 7984 7992 8000 8008 8016 8024 8032 8040 8048 8056 8064 8072 8080 8088 8096 8104 8112 8120 8128 8136 8144 8152 8160 8168 8176 8184 8192 8200 8208 8216 8224 8232 8240 8248 8256 8264 8272 8280 8288 8296 8304 8312 8320 8328 8336 8344 8352 8360 8368 8376 8384 8392 8400 8408 8416 8424 8432 8440 8448 8456 8464 8472 8480 8488 8496 8504 8512 8520 8528 8536 8544 8552 8560 8568 8576 8584 8592 8600 8608 8616 8624 8632 8640 8648 8656 8664 8672 8680 8688 8696 8704 8712 8720 8728 8736 8744 8752 8760 8768 8776 8784 8792 8800 8808 8816 8824 8832 8840 8848 8856 8864 8872 8880 8888 8896 8904 8912 8920 8928 8936 8944 8952 8960 8968 8976 8984 8992 9000 9008 9016 9024 9032 9040 9048 9056 9064 9072 9080 9088 9096 9104 9112 9120 9128 9136 9144 9152 9160 9168 9176 9184 9192 9200 9208 9216 9224 9232 9240 9248 9256 9264 9272 9280 9288 9296 9304 9312 9320 9328 9336 9344 9352 9360 9368 9376 9384 9392 9400 9408 9416 9424 9432 9440 9448 9456 9464 9472 9480 9488 9496 9504 9512 9520 9528 9536 9544 9552 9560 9568 9576 9584 9592 9600 9608 9616 9624 9632 9640 9648 9656 9664 9672 9680 9688 9696 9704 9712 9720 9728 9736 9744 9752 9760 9768 9776 9784 9792 9800 9808 9816 9824 9832 9840 9848 9856 9864 9872 9880 9888 9896 9904 9912 9920 9928 9936 9944 9952 9960 9968 9976 9984 9992 10000 10008 10016 10024 10032 10040 10048 10056 10064 10072 10080 10088 10096 10104 10112 10120 10128 10136 10144 10152 10160 10168 10176 10184 10192 10200 10208 10216 10224 10232 10240 10248 10256 10264 10272 10280 10288 10296 10304 10312 10320 10328 10336 10344 10352 10360 10368 10376 10384 10392 10400 10408 10416 10424 10432 10440 10448 10456 10464 10472 10480 10488 10496 10504 10512 10520 10528 10536 10544 10552 10560 10568 10576 10584 10592 10600 10608 10616 10624 10632 10640 10648 10656 10664 10672 10680 10688 10696 10704 10712 10720 10728 10736 10744 10752 10760 10768 10776 10784 10792 10800 10808 10816 10824 10832 10840 10848 10856 10864 10872 10880 10888 10896 10904 10912 10920 10928 10936 10944 10952 10960 10968 10976 10984 10992 11000 11008 11016 11024 11032 11040 11048 11056 11064 11072 11080 11088 11096 11104 11112 11120 11128 11136 11144 11152 11160 11168 11176 11184 11192 11200 11208 11216 11224 11232 11240 11248 11256 11264 11272 11280 11288 11296 11304 11312 11320 11328 11336 11344 11352 11360 11368 11376 11384 11392 11400 11408 11416 11424 11432 11440 11448 11456 11464 11472 11480 11488 11496 11504 11512 11520 11528 11536 11544 11552 11560 11568 11576 11584 11592 11600 11608 11616 11624 11632 11640 11648 11656 11664 11672 11680 11688 11696 11704 11712 11720 11728 11736 11744 11752 11760 11768 11776 11784 11792 11800 11808 11816 11824 11832 11840 11848 11856 11864 11872 11880 11888 11896 11904 11912 11920 11928 11936 11944 11952 11960 11968 11976 11984 11992 12000 12008 12016 12024 12032 12040 12048 12056 12064 12072 12080 12088 12096 12104 12112 12120 12128 12136 12144 12152 12160 12168 12176 12184 12192 12200 12208 12216 12224 12232 12240 12248 12256 12264 12272 12280 12288 12296 12304 12312 12320 12328 12336 12344 12352 12360 12368 12376 12384 12392 12400 12408 12416 12424 12432 12440 12448 12456 12464 12472 12480 12488 12496 12504 12512 12520 12528 12536 12544 12552 12560 12568 12576 12584 12592 12600 12608 12616 12624 12632 12640 12648 12656 12664 12672 12680 12688 12696 12704 12712 12720 12728 12736 12744 12752 12760 12768 12776 12784 12792 12800 12808 12816 12824 12832 12840 12848 12856 12864 12872 12880 12888 12896 12904 12912 12920 12928 12936 12944 12952 12960 12968 12976 12984 12992 13000 13008 13016 13024 13032 13040 13048 13056 13064 13072 13080 13088 13096 13104 13112 13120 13128 13136 13144 13152 13160 13168 13176 13184 13192 13200 13208 13216 13224 13232 13240 13248 13256 13264 13272 13280 13288 13296 13304 13312 13320 13328 13336 13344 13352 13360 13368 13376 13384 13392 13400 13408 13416 13424 13432 13440 13448 13456 13464 13472 13480 13488 13496 13504 13512 13520 13528 13536 13544 13552 13560 13568 13576 13584 13592 13600 13608 13616 13624 13632 13640 13648 13656 13664 13672 13680 13688 13696 13704 13712 13720 13728 13736 13744 13752 13760 13768 13776 13784 13792 13800 13808 13816 13824 13832 13840 13848 13856 13864 13872 13880 13888 13896 13904 13912 13920 13928 13936 13944 13952 13960 13968 13976 13984 13992 14000 14008 14016 14024 14032 14040 14048 14056 14064 14072 14080 14088 14096 14104 14112 14120 14128 14136 14144 14152 14160 14168 14176 14184 14192 14200 14208 14216 14224 14232 14240 14248 14256 14264 14272 14280 14288 14296 14304 14312 14320 14328 14336 14344 14352 14360 14368 14376 14384 14392 14400 14408 14416 14424 14432 14440 14448 14456 14464 14472 14480 14488 14496 14504 14512 14520 14528 14536 14544 14552 14560 14568 14576 14584 14592 14600 14608 14616 14624 14632 14640 14648 14656 14664 14672 14680 14688 14696 14704 14712 14720 14728 14736 14744 14752 14760 14768 14776 14784 14792 14800 14808 14816 14824 14832 14840 14848 14856 14864 14872 14880 14888 14896 14904 14912 14920 14928 14936 14944 14952 14960 14968 14976 14984 14992 15000 15008 15016 15024 15032 15040 15048 15056 15064 15072 15080 15088 15096 15104 15112 15120 15128 15136 15144 15152 15160 15168 15176 15184 15192 15200 15208 15216 15224 15232 15240 15248 15256 15264 15272 15280 15288 15296 15304 15312 15320 15328 15336 15344 15352 15360 15368 15376 15384 15392 15400 15408 15416 15424 15432 15440 15448 15456 15464 15472 15480 15488 15496 15504 15512 15520 15528 15536 15544 15552 15560 15568 15576 15584 15592 15600 15608 15616 15624 15632 15640 15648 15656 15664 15672 15680 15688 15696 15704 15712 15720 15728 15736 15744 15752 15760 15768 15776 15784 15792 15800 15808 15816 15824 15832 15840 15848 15856 15864 15872 15880 15888 15896 15904 15912 15920 15928 15936 15944 15952 15960 15968 15976 15984 15992 16000 16008 16016 16024 16032 16040 16048 16056 16064 16072 16080 16088 16096 16104 16112 16120 16128 16136 16144 16152 16160 16168 16176 16184 16192 16200 16208 16216 16224 16232 16240 16248 16256 16264 16272 16280 16288 16296 16304 16312 16320 16328 16336 16344 16352 16360 16368 16376 16384 16392 16400 16408 16416 16424 16432 16440 16448 16456 16464 16472 16480 16488 16496 16504 16512 16520 16528 16536 16544 16552 16560 16568 16576 16584 16592 16600 16608 16616 16624 16632 16640 16648 16656 16664 16672 16680 16688 16696 16704 16712 16720 16728 16736 16744 16752 16760 16768 16776 16784 16792 16800 16808 16816 16824 16832 16840 16848 16856 16864 16872 16880 16888 16896 16904 16912 16920 16928 16936 16944 16952 16960 16968 16976 16984 16992 17000 17008 17016 17024 17032 17040 17048 17056 17064 17072 17080 17088 17096 17104 17112 17120 17128 17136 17144 17152 17160 17168 17176 17184 17192 17200 17208 17216 17224 17232 17240 17248 17256 17264 17272 17280 17288 17296 17304 17312 17320 17328 17336 17344 17352 17360 17368 17376 17384 17392 17400 17408 17416 17424 17432 17440 17448 17456 17464 17472 17480 17488 17496 17504 17512 17520 17528 17536 17544 17552 17560 17568 17576 17584 17592 17600 17608 17616 17624 17632 17640 17648 17656 17664 17672 17680 17688 17696 17704 17712 17720 17728 17736 17744 17752 17760 17768 17776 17784 17792 17800 17808 17816 17824 17832 17840 17848 17856 17864 17872 17880 17888 17896 17904 17912 17920 17928 17936 17944 17952 17960 17968 17976 17984 17992 18000 18008 18016 18024 18032 18040 18048 18056 18064 18072 18080 18088 18096 18104 18112 18120 18128 18136 18144 18152 18160 18168 18176 18184 18192 18200 18208 18216 18224 18232 18240 18248 18256 18264 18272 18280 18288 18296 18304 18312 18320 18328 18336 18344 18352 18360 18368 18376 18384 18392 18400 18408 18416 18424 18432 18440 18448 18456 18464 18472 18480 18488 18496 18504 18512 18520 18528 18536 18544 18552 18560 18568 18576 18584 18592 18600 18608 18616 18624 18632 18640 18648 18656 18664 18672 18680 18688 18696 18704 18712 18720 18728 18736 18744 18752 18760 18768 18776 18784 18792 18800 18808 18816 18824 18832 18840 18848 18856 18864 18872 18880 18888 18896 18904 18912 18920 18928 18936 18944 18952 18960 18968 18976 18984 18992 19000 19008 19016 19024 19032 19040 19048 19056 19064 19072 19080 19088 19096 19104 19112 19120 19128 19136 19144 19152 19160 19168 19176 19184 19192 19200 19208 19216 19224 19232 19240 19248 19256 19264 19272 19280 19288 19296 19304 19312 19320 19328 19336 19344 19352 19360 19368 19376 19384 19392 19400 19408 19416 19424 19432 19440 19448 19456 19464 19472 19480 19488 19496 19504 19512 19520 19528 19536 19544 19552 19560 19568 19576 19584 19592 19600 19608 19616 19624 19632 19640 19648 19656 19664 19672 19680 19688 19696 19704 19712 19720 19728 19736 19744 19752 19760 19768 19776 19784 19792 19800 19808 19816 19824 19832 19840 19848 19856 19864 19872 19880 19888 19896 19904 19912 19920 19928 19936 19944 19952 19960 19968 19976 19984 19992 20000 20008 20016 20024 20032 20040 20048 20056 20064 20072 20080 20088 20096 20104 20112 20120 20128 20136 20144 20152 20160 20168 20176 20184 20192 20200 20208 20216 20224 20232 20240 20248 20256 20264 20272 20280 20288 20296 20304 20312 20320 20328 20336 20344 20352 20360 20368 20376 20384 20392 20400 20408 20416 20424 20432 20440 20448 20456 20464 20472 20480 20488 20496 20504 20512 20520 20528 20536 20544 20552 20560 20568 20576 20584 20592 20600 20608 20616 20624 20632 20640 20648 20656 20664 20672 20680 20688 20696 20704 20712 20720 20728 20736 20744 20752 20760 20768 20776 20784 20792 20800 20808 20816 20824 20832 20840 20848 20856 20864 20872 20880 20888 20896 20904 20912 20920 20928 20936 20944 20952 20960 20968 20976 20984 20992 21000 21008 21016 21024 21032 21040 21048 21056 21064 21072 21080 21088 21096 21104 21112 21120 21128 21136 21144 21152 21160 21168 21176 21184 21192 21200 21208 21216 21224 21232 21240 21248 21256 21264 21272 21280 21288 21296 21304 21312 21320 21328 21336 21344 21352 21360 21368 21376 21384 21392 21400 21408 21416 21424 21432 21440 21448 21456 21464 21472 21480 21488 21496 21504 21512 21520 21528 21536 21544 21552 21560 21568 21576 21584 21592 21600 21608 21616 21624 21632 21640 21648 21656 21664 21672 21680 21688 21696 21704 21712 21720 21728 21736 21744 21752 21760 21768 21776 21784 21792 21800 21808 21816 21824 21832 21840 21848 21856 21864 21872 21880 21888 21896 21904 21912 21920 21928 21936 21944 21952 21960 21968 21976 21984 21992 22000 22008 22016 22024 22032 22040 22048 22056 22064 22072 22080 22088 22096 22104 22112 22120 22128 22136 22144 22152 22160 22168 22176 22184 22192 22200 22208 22216 22224 22232 22240 22248 22256 22264 22272 22280 22288 22296 22304 22312 22320 22328 22336 22344 22352 22360 22368 22376 22384 22392 22400 22408 22416 22424 22432 22440 22448 22456 22464 22472 22480 22488 22496 22504 22512 22520 22528 22536 22544 22552 22560 22568 22576 22584 22592 22600 22608 22616 22624 22632 22640 22648 22656 22664 22672 22680 22688 22696 22704 22712 22720 22728 22736 22744 22752 22760 22768 22776 22784 22792 22800 22808 22816 22824 22832 22840 22848 22856 22864 22872 22880 22888 22896 22904 22912 22920 22928 22936 22944 22952 22960 22968 22976 22984 22992 23000 23008 23016 23024 23032 23040 23048 23056 23064 23072 23080 23088 23096 23104 23112 23120 23128 23136 23144 23152 23160 23168 23176 23184 23192 23200 23208 23216 23224 23232 23240 23248 23256 23264 23272 23280 23288 23296 23304 23312 23320 23328 23336 23344 23352 23360 23368 23376 23384 23392 23400 23408 23416 23424 23432 23440 23448 23456 23464 23472 23480 23488 23496 23504 23512 23520 23528 23536 23544 23552 23560 23568 23576 23584 23592 23600 23608 23616 23624 23632 23640 23648 23656 23664 23672 23680 23688 23696 23704 23712 23720 23728 23736 23744 23752 23760 23768 23776 23784 23792 23800 23808 23816 23824 23832 23840 23848 23856 23864 23872 23880 23888 23896 23904 23912 23920 23928 23936 23944 23952 23960 23968 23976 23984 23992 24000 24008 24016 24024 24032 24040 24048 24056 24064 24072 24080 24088 24096 24104 24112 24120 24128 24136 24144 24152 24160 24168 24176 24184 24192 24200 24208 24216 24224 24232 24240 24248 24256 24264 24272 24280 24288 24296 24304 24312 24320 24328 24336 24344 24352 24360 24368 24376 24384 24392 24400 24408 24416 24424 24432 24440 24448 24456 24464 24472 24480 24488 24496 24504 24512 24520 24528 24536 24544 24552 24560 24568 24576 24584 24592 24600 24608 24616 24624 24632 24640 24648 24656 24664 24672 24680 24688 24696 24704 24712 24720 24728 24736 24744 24752 24760 24768 24776 24784 24792 24800 24808 24816 24824 24832 24840 24848 24856 24864 24872 24880 24888 24896 24904 24912 24920 24928 24936 24944 24952 24960 24968 24976 24984 24992 25000 25008 25016 25024 25032 25040 25048 25056 25064 25072 25080 25088 25096 25104 25112 25120 25128 25136 25144 25152 25160 25168 25176 25184 25192 25200 25208 25216 25224 25232 25240 25248 25256 25264 25272 25280 25288 25296 25304 25312 25320 25328 25336 25344 25352 25360 25368 25376 25384 25392 25400 25408 25416 25424 25432 25440 25448 25456 25464 25472 25480 25488 25496 25504 25512 25520 25528 25536 25544 25552 25560 25568 25576 25584 25592 25600 25608 25616 25624 25632 25640 25648 25656 25664 25672 25680 25688 25696 25704 25712 25720 25728 25736 25744 25752 25760 25768 25776 25784 25792 25800 25808 25816 25824 25832 25840 25848 25856 25864 25872 25880 25888 25896 25904 25912 25920 25928 25936 25944 25952 25960 25968 25976 25984 25992 26000 26008 26016 26024 26032 26040 26048 26056 26064 26072 26080 26088 26096 26104 26112 26120 26128 26136 26144 26152 26160 26168 26176 26184 26192 26200 26208 26216 26224 26232 26240 26248 26256 26264 26272 26280 26288 26296 26304 26312 26320 26328 26336 26344 26352 26360 26368 26376 26384 26392 26400 26408 26416 26424 26432 26440 26448 26456 26464 26472 26480 26488 26496 26504 26512 26520 26528 26536 26544 26552 26560 26568 26576 26584 26592 26600 26608 26616 26624 26632 26640 26648 26656 26664 26672 26680 26688 26696 26704 26712 26720 26728 26736 26744 26752 26760 26768 26776 26784 26792 26800 26808 26816 26824 26832 26840 26848 26856 26864 26872 26880 26888 26896 26904 26912 26920 26928 26936 26944 26952 26960 26968 26976 26984 26992 27000 27008 27016 27024 27032 27040 27048 27056 27064 27072 27080 27088 27096 27104 27112 27120 27128 27136 27144 27152 27160 27168 27176 27184 27192 27200 27208 27216 27224 27232 27240 27248 27256 27264 27272 27280 27288 27296 27304 27312 27320 27328 27336 27344 27352 27360 27368 27376 27384 27392 27400 27408 27416 27424 27432 27440 27448 27456 27464 27472 27480 27488 27496 27504 27512 27520 27528 27536 27544 27552 27560 27568 27576 27584 27592 27600 27608 27616 27624 27632 27640 27648 27656 27664 27672 27680 27688 27696 27704 27712 27720 27728 27736 27744 27752 27760 27768 27776 27784 27792 27800 27808 27816 27824 27832 27840 27848 27856 27864 27872 27880 27888 27896 27904 27912 27920 27928 27936 27944 27952 27960 27968 27976 27984 27992 28000 28008 28016 28024 28032 28040 28048 28056 28064 28072 28080 28088 28096 28104 28112 28120 28128 28136 28144 28152 28160 28168 28176 28184 28192 28200 28208 28216 28224 28232 28240 28248 28256 28264 28272 28280 28288 28296 28304 28312 28320 28328 28336 28344 28352 28360 28368 28376 28384 28392 28400 28408 28416 28424 28432 28440 28448 28456 28464 28472 28480 28488 28496 28504 28512 28520 28528 28536 28544 28552 28560 28568 28576 28584 28592 28600 28608 28616 28624 28632 28640 28648 28656 28664 28672 28680 28688 28696 28704 28712 28720 28728 28736 28744 28752 28760 28768 28776 28784 28792 28800 28808 28816 28824 28832 28840 28848 28856 28864 28872 28880 28888 28896 28904 28912 28920 28928 28936 28944 28952 28960 28968 28976 28984 28992 29000 29008 29016 29024 29032 29040 29048 29056 29064 29072 29080 29088 29096 29104 29112 29120 29128 29136 29144 29152 29160 29168 29176 29184 29192 29200 29208 29216 29224 29232 29240 29248 29256 29264 29272 29280 29288 29296 29304 29312 29320 29328 29336 29344 29352 29360 29368 29376 29384 29392 29400 29408 29416 29424 29432 29440 29448 29456 29464 29472 29480 29488 29496 29504 29512 29520 29528 29536 29544 29552 29560 29568 29576 29584 29592 29600 29608 29616 29624 29632 29640 29648 29656 29664 29672 29680 29688 29696 29704 29712 29720 29728 29736 29744 29752 29760 29768 29776 29784 29792 29800 29808 29816 29824 29832 29840 29848 29856 29864 29872 29880 29888 29896 29904 29912 29920 29928 29936 29944 29952 29960 29968 29976 29984 29992 30000 30008 30016 30024 30032 30040 30048 30056 30064 30072 30080 30088 30096 30104 30112 30120 30128 30136 30144 30152 30160 30168 30176 30184 30192 30200 30208 30216 30224 30232 30240 30248 30256 30264 30272 30280 30288 30296 30304 30312 30320 30328 30336 30344 30352 30360 30368 30376 30384 30392 30400 30408 30416 30424 30432 30440 30448 30456 30464 30472 30480 30488 30496 30504 30512 30520 30528 30536 30544 30552 30560 30568 30576 30584 30592 30600 30608 30616 30624 30632 30640 30648 30656 30664 30672 30680 30688 30696 30704 30712 30720 30728 30736 30744 30752 30760 30768 30776 30784 30792 30800 30808 30816 30824 30832 30840 30848 30856 30864 30872 30880 30888 30896 30904 30912 30920 30928 30936 30944 30952 30960 30968 30976 30984 30992 31000 31008 31016 31024 31032 31040 31048 31056 31064 31072 31080 31088 31096 31104 31112 31120 31128 31136 31144 31152 31160 31168 31176 31184 31192 31200 31208 31216 31224 31232 31240 31248 31256 31264 31272 31280 31288 31296 31304 31312 31320 31328 31336 31344 31352 31360 31368 31376 31384 31392 31400 31408 31416 31424 31432 31440 31448 31456 31464 31472 31480 31488 31496 31504 31512 31520 31528 31536 31544 31552 31560 31568 31576 31584 31592 31600 31608 31616 31624 31632 31640 31648 31656 31664 31672 31680 31688 31696 31704 31712 31720 31728 31736 31744 31752 31760 31768 31776 31784 31792 31800 31808 31816 31824 31832 31840 31848 31856 31864 31872 31880 31888 31896 31904 31912 31920 31928 31936 31944 31952 31960 31968 31976 31984 31992 32000 32008 32016 32024 32032 32040 32048 32056 32064 32072 32080 32088 32096 32104 32112 32120 32128 32136 32144 32152 32160 32168 32176 32184 32192 32200 32208 32216 32224 32232 32240 32248 32256 32264 32272 32280 32288 32296 32304 32312 32320 32328 32336 32344 32352 32360 32368 32376 32384 32392 32400 32408 32416 32424 32432 32440 32448 32456 32464 32472 32480 32488 32496 32504 32512 32520 32528 32536 32544 32552 32560 32568 32576 32584 32592 32600 32608 32616 32624 32632 32640 32648 32656 32664 32672 32680 32688 32696 32704 32712 32720 32728 32736 32744 32752 32760 32768 32776 32784 32792 32800 32808 32816 32824 32832 32840 32848 32856 32864 32872 32880 32888 32896 32904 32912 32920 32928 32936 32944 32952 32960 32968 32976 32984 32992 33000 33008 33016 33024 33032 33040 33048 33056 33064 33072 33080 33088 33096 33104 33112 33120 33128 33136 33144 33152 33160 33168 33176 33184 33192 33200 33208 33216 33224 33232 33240 33248 33256 33264 33272 33280 33288 33296 33304 33312 33320 33328 33336 33344 33352 33360 33368 33376 33384 33392 33400 33408 33416 33424 33432 33440 33448 33456 33464 33472 33480 33488 33496 33504 33512 33520 33528 33536 33544 33552 33560 33568 33576 33584 33592 33600 33608 33616 33624 33632 33640 33648 33656 33664 33672 33680 33688 33696 33704 33712 33720 33728 33736 33744 33752 33760 33768 33776 33784 33792 33800 33808 33816 33824 33832 33840 33848 33856 33864 33872 33880 33888 33896 33904 33912 33920 33928 33936 33944 33952 33960 33968 33976 33984 33992 34000 34008 34016 34024 34032 34040 34048 34056 34064 34072 34080 34088 34096 34104 34112 34120 34128 34136 34144 34152 34160 34168 34176 34184 34192 34200 34208 34216 34224 34232 34240 34248 34256 34264 34272 34280 34288 34296 34304 34312 34320 34328 34336 34344 34352 34360 34368 34376 34384 34392 34400 34408 34416 34424 34432 34440 34448 34456 34464 34472 34480 34488 34496 34504 34512 34520 34528 34536 34544 34552 34560 34568 34576 34584 34592 34600 34608 34616 34624 34632 34640 34648 34656 34664 34672 34680 34688 34696 34704 34712 34720 34728 34736 34744 34752 34760 34768 34776 34784 34792 34800 34808 34816 34824 34832 34840 34848 34856 34864 34872 34880 34888 34896 34904 34912 34920 34928 34936 34944 34952 34960 34968 34976 34984 34992 35000 35008 35016 35024 35032 35040 35048 35056 35064 35072 35080 35088 35096 35104 35112 35120 35128 35136 35144 35152 35160 35168 35176 35184 35192 35200 35208 35216 35224 35232 35240 35248 35256 35264 35272 35280 35288 35296 35304 35312 35320 35328 35336 35344 35352 35360 35368 35376 35384 35392 35400 35408 35416 35424 35432 35440 35448 35456 35464 35472 35480 35488 35496 35504 35512 35520 35528 35536 35544 35552 35560 35568 35576 35584 35592 35600 35608 35616 35624 35632 35640 35648 35656 35664 35672 35680 35688 35696 35704 35712 35720 35728 35736 35744 35752 35760 35768 35776 35784 35792 35800 35808 35816 35824 35832 35840 35848 35856 35864 35872 35880 35888 35896 35904 35912 35920 35928 35936 35944 35952 35960 35968 35976 35984 35992 36000 36008 36016 36024 36032 36040 36048 36056 36064 36072 36080 36088 36096 36104 36112 36120 36128 36136 36144 36152 36160 36168 36176 36184 36192 36200 36208 36216 36224 36232 36240 36248 36256 36264 36272 36280 36288 36296 36304 36312 36320 36328 36336 36344 36352 36360 36368 36376 36384 36392 36400 36408 36416 36424 36432 36440 36448 36456 36464 36472 36480 36488 36496 36504 36512 36520 36528 36536 36544 36552 36560 36568 36576 36584 36592 36600 36608 36616 36624 36632 36640 36648 36656 36664 36672 36680 36688 36696 36704 36712 36720 36728 36736 36744 36752 36760 36768 36776 36784 36792 36800 36808 36816 36824 36832 36840 36848 36856 36864 36872 36880 36888 36896 36904 36912 36920 36928 36936 36944 36952 36960 36968 36976 36984 36992 37000 37008 37016 37024 37032 37040 37048 37056 37064 37072 37080 37088 37096 37104 37112 37120 37128 37136 37144 37152 37160 37168 37176 37184 37192 37200 37208 37216 37224 37232 37240 37248 37256 37264 37272 37280 37288 37296 37304 37312 37320 37328 37336 37344 37352 37360 37368 37376 37384 37392 37400 37408 37416 37424 37432 37440 37448 37456 37464 37472 37480 37488 37496 37504 37512 37520 37528 37536 37544 37552 37560 37568 37576 37584 37592 37600 37608 37616 37624 37632 37640 37648 37656 37664 37672 37680 37688 37696 37704 37712 37720 37728 37736 37744 37752 37760 37768 37776 37784 37792 37800 37808 37816 37824 37832 37840 37848 37856 37864 37872 37880 37888 37896 37904 37912 37920 37928 37936 37944 37952 37960 37968 37976 37984 37992 38000 38008 38016 38024 38032 38040 38048 38056 38064 38072 38080 38088 38096 38104 38112 38120 38128 38136 38144 38152 38160 38168 38176 38184 38192 38200 38208 38216 38224 38232 38240 38248 38256 38264 38272 38280 38288 38296 38304 38312 38320 38328 38336 38344 38352 38360 38368 38376 38384 38392 38400 38408 38416 38424 38432 38440 38448 38456 38464 38472 38480 38488 38496 38504 38512 38520 38528 38536 38544 38552 38560 38568 38576 38584 38592 38600 38608 38616 38624 38632 38640 38648 38656 38664 38672 38680 38688 38696 38704 38712 38720 38728 38736 38744 38752 38760 38768 38776 38784 38792 38800 38808 38816 38824 38832 38840 38848 38856 38864 38872 38880 38888 38896 38904 38912 38920 38928 38936 38944 38952 38960 38968 38976 38984 38992 39000 39008 39016 39024 39032 39040 39048 39056 39064 39072 39080 39088 39096 39104 39112 39120 39128 39136 39144 39152 39160 39168 39176 39184 39192 39200 39208 39216 39224 39232 39240 39248 39256 39264 39272 39280 39288 39296 39304 39312 39320 39328 39336 39344 39352 39360 39368 39376 39384 39392 39400 39408 39416 39424 39432 39440 39448 39456 39464 39472 39480 39488 39496 39504 39512 39520 39528 39536 39544 39552 39560 39568 39576 39584 39592 39600 39608 39616 39624 39632 39640 39648 39656 39664 39672 39680 39688 39696 39704 39712 39720 39728 39736 39744 39752 39760 39768 39776 39784 39792 39800 39808 39816 39824 39832 39840 39848 39856 39864 39872 39880 39888 39896 39904 39912 39920 39928 39936 39944 39952 39960 39968 39976 39984 39992 40000 40008 40016 40024 40032 40040 40048 40056 40064 40072 40080 40088 40096 40104 40112 40120 40128 40136 40144 40152 40160 40168 40176 40184 40192 40200 40208 40216 40224 40232 40240 40248 40256 40264 40272 40280 40288 40296 40304 40312 40320 40328 40336 40344 40352 40360 40368 40376 40384 40392 40400 40408 40416 40424 40432 40440 40448 40456 40464 40472 40480 40488 40496 40504 40512 40520 40528 40536 40544 40552 40560 40568 40576 40584 40592 40600 40608 40616 40624 40632 40640 40648 40656 40664 40672 40680 40688 40696 40704 40712 40720 40728 40736 40744 40752 40760 40768 40776 40784 40792 40800 40808 40816 40824 40832 40840 40848 40856 40864 40872 40880 40888 40896 40904 40912 40920 40928 40936 40944 40952 40960 40968 40976 40984 40992 41000 41008 41016 41024 41032 41040 41048 41056 41064 41072 41080 41088 41096 41104 41112 41120 41128 41136 41144 41152 41160 41168 41176 41184 41192 41200 41208 41216 41224 41232 41240 41248 41256 41264 41272 41280 41288 41296 41304 41312 41320 41328 41336 41344 41352 41360 41368 41376 41384 41392 41400 41408 41416 41424 41432 41440 41448 41456 41464 41472 41480 41488 41496 41504 41512 41520 41528 41536 41544 41552 41560 41568 41576 41584 41592 41600 41608 41616 41624 41632 41640 41648 41656 41664 41672 41680 41688 41696 41704 41712 41720 41728 41736 41744 41752 41760 41768 41776 41784 41792 41800 41808 41816 41824 41832 41840 41848 41856 41864 41872 41880 41888 41896 41904 41912 41920 41928 41936 41944 41952 41960 41968 41976 41984 41992 42000 42008 42016 42024 42032 42040 42048 42056 42064 42072 42080 42088 42096 42104 42112 42120 42128 42136 42144 42152 42160 42168 42176 42184 42192 42200 42208 42216 42224 42232 42240 42248 42256 42264 42272 42280 42288 42296 42304 42312 42320 42328 42336 42344 42352 42360 42368 42376 42384 42392 42400 42408 42416 42424 42432 42440 42448 42456 42464 42472 42480 42488 42496 42504 42512 42520 42528 42536 42544 42552 42560 42568 42576 42584 42592 42600 42608 42616 42624 42632 42640 42648 42656 42664 42672 42680 42688 42696 42704 42712 42720 42728 42736 42744 42752 42760 42768 42776 42784 42792 42800 42808 42816 42824 42832 42840 42848 42856 42864 42872 42880 42888 42896 42904 42912 42920 42928 42936 42944 42952 42960 42968 42976 42984 42992 43000 43008 43016 43024 43032 43040 43048 43056 43064 43072 43080 43088 43096 43104 43112 43120 43128 43136 43144 43152 43160 43168 43176 43184 43192 43200 43208 43216 43224 43232 43240 43248 43256 43264 43272 43280 43288 43296 43304 43312 43320 43328 43336 43344 43352 43360 43368 43376 43384 43392 43400 43408 43416 43424 43432 43440 43448 43456 43464 43472 43480 43488 43496 43504 43512 43520 43528 43536 43544 43552 43560 43568 43576 43584 43592 43600 43608 43616 43624 43632 43640 43648 43656 43664 43672 43680 43688 43696 43704 43712 43720 43728 43736 43744 43752 43760 43768 43776 43784 43792 43800 43808 43816 43824 43832 43840 43848 43856 43864 43872 43880 43888 43896 43904 43912 43920 43928 43936 43944 43952 43960 43968 43976 43984 43992 44000 44008 44016 44024 44032 44040 44048 44056 44064 44072 44080 44088 44096 44104 44112 44120 44128 44136 44144 44152 44160 44168 44176 44184 44192 44200 44208 44216 44224 44232 44240 44248 44256 44264 44272 44280 44288 44296 44304 44312 44320 44328 44336 44344 44352 44360 44368 44376 44384 44392 44400 44408 44416 44424 44432 44440 44448 44456 44464 44472 44480 44488 44496 44504 44512 44520 44528 44536 44544 44552 44560 44568 44576 44584 44592 44600 44608 44616 44624 44632 44640 44648 44656 44664 44672 44680 44688 44696 44704 44712 44720 44728 44736 44744 44752 44760 44768 44776 44784 44792 44800 44808 44816 44824 44832 44840 44848 44856 44864 44872 44880 44888 44896 44904 44912 44920 44928 44936 44944 44952 44960 44968 44976 44984 44992 45000 45008 45016 45024 45032 45040 45048 45056 45064 45072 45080 45088 45096 45104 45112 45120 45128 45136 45144 45152 45160 45168 45176 45184 45192 45200 45208 45216 45224 45232 45240 45248 45256 45264 45272 45280 45288 45296 45304 45312 45320 45328 45336 45344 45352 45360 45368 45376 45384 45392 45400 45408 45416 45424 45432 45440 45448 45456 45464 45472 45480 45488 45496 45504 45512 45520 45528 45536 45544 45552 45560 45568 45576 45584 45592 45600 45608 45616 45624 45632 45640 45648 45656 45664 45672 45680 45688 45696 45704 45712 45720 45728 45736 45744 45752 45760 45768 45776 45784 45792 45800 45808 45816 45824 45832 45840 45848 45856 45864 45872 45880 45888 45896 45904 45912 45920 45928 45936 45944 45952 45960 45968 45976 45984 45992 46000 46008 46016 46024 46032 46040 46048 46056 46064 46072 46080 46088 46096 46104 46112 46120 46128 46136 46144 46152 46160 46168 46176 46184 46192 46200 46208 46216 46224 46232 46240 46248 46256 46264 46272 46280 46288 46296 46304 46312 46320 46328 46336 46344 46352 46360 46368 46376 46384 46392 46400 46408 46416 46424 46432 46440 46448 46456 46464 46472 46480 46488 46496 46504 46512 46520 46528 46536 46544 46552 46560 46568 46576 46584 46592 46600 46608 46616 46624 46632 46640 46648 46656 46664 46672 46680 46688 46696 46704 46712 46720 46728 46736 46744 46752 46760 46768 46776 46784 46792 46800 46808 46816 46824 46832 46840 46848 46856 46864 46872 46880 46888 46896 46904 46912 46920 46928 46936 46944 46952 46960 46968 46976 46984 46992 47000 47008 47016 47024 47032 47040 47048 47056 47064 47072 47080 47088 47096 47104 47112 47120 47128 47136 47144 47152 47160 47168 47176 47184 47192 47200 47208 47216 47224 47232 47240 47248 47256 47264 47272 47280 47288 47296 47304 47312 47320 47328 47336 47344 47352 47360 47368 47376 47384 47392 47400 47408 47416 47424 47432 47440 47448 47456 47464 47472 47480 47488 47496 47504 47512 47520 47528 47536 47544 47552 47560 47568 47576 47584 47592 47600 47608 47616 47624 47632 47640 47648 47656 47664 47672 47680 47688 47696 47704 47712 47720 47728 47736 47744 47752 47760 47768 47776 47784 47792 47800 47808 47816 47824 47832 47840 47848 47856 47864 47872 47880 47888 47896 47904 47912 47920 47928 47936 47944 47952 47960 47968 47976 47984 47992 48000 48008 48016 48024 48032 48040 48048 48056 48064 48072 48080 48088 48096 48104 48112 48120 48128 48136 48144 48152 48160 48168 48176 48184 48192 48200 48208 48216 48224 48232 48240 48248 48256 48264 48272 48280 48288 48296 48304 48312 48320 48328 48336 48344 48352 48360 48368 48376 48384 48392 48400 48408 48416 48424 48432 48440 48448 48456 48464 48472 48480 48488 48496 48504 48512 48520 48528 48536 48544 48552 48560 48568 48576 48584 48592 48600 48608 48616 48624 48632 48640 48648 48656 48664 48672 48680 48688 48696 48704 48712 48720 48728 48736 48744 48752 48760 48768 48776 48784 48792 48800 48808 48816 48824 48832 48840 48848 48856 48864 48872 48880 48888 48896 48904 48912 48920 48928 48936 48944 48952 48960 48968 48976 48984 48992 49000 49008 49016 49024 49032 49040 49048 49056 49064 49072 49080 49088 49096 49104 49112 49120 49128 49136 49144 49152 49160 49168 49176 49184 49192 49200 49208 49216 49224 49232 49240 49248 49256 49264 49272 49280 49288 49296 49304 49312 49320 49328 49336 49344 49352 49360 49368 49376 49384 49392 49400 49408 49416 49424 49432 49440 49448 49456 49464 49472 49480 49488 49496 49504 49512 49520 49528 49536 49544 49552 49560 49568 49576 49584 49592 49600 49608 49616 49624 49632 49640 49648 49656 49664 49672 49680 49688 49696 49704 49712 49720 49728 49736 49744 49752 49760 49768 49776 49784 49792 49800 49808 49816 49824 49832 49840 49848 49856 49864 49872 49880 49888 49896 49904 49912 49920 49928 49936 49944 49952 49960 49968 49976 49984 49992 50000 50008 50016 50024 50032 50040 50048 50056 50064 50072 50080 50088 50096 50104 50112 50120 50128 50136 50144 50152 50160 50168 50176 50184 50192 50200 50208 50216 50224 50232 50240 50248 50256 50264 50272 50280 50288 50296 50304 50312 50320 50328 50336 50344 50352 50360 50368 50376 50384 50392 50400 50408 50416 50424 50432 50440 50448 50456 50464 50472 50480 50488 50496 50504 50512 50520 50528 50536 50544 50552 50560 50568 50576 50584 50592 50600 50608 50616 50624 50632 50640 50648 50656 50664 50672 50680 50688 50696 50704 50712 50720 50728 50736 50744 50752 50760 50768 50776 50784 50792 50800 50808 50816 50824 50832 50840 50848 50856 50864 50872 50880 50888 50896 50904 50912 50920 50928 50936 50944 50952 50960 50968 50976 50984 50992 51000 51008 51016 51024 51032 51040 51048 51056 51064 51072 51080 51088 51096 51104 51112 51120 51128 51136 51144 51152 51160 51168 51176 51184 51192 51200 51208 51216 51224 51232 51240 51248 51256 51264 51272 51280 51288 51296 51304 51312 51320 51328 51336 51344 51352 51360 51368 51376 51384 51392 51400 51408 51416 51424 51432 51440 51448 51456 51464 51472 51480 51488 51496 51504 51512 51520 51528 51536 51544 51552 51560 51568 51576 51584 51592 51600 51608 51616 51624 51632 51640 51648 51656 51664 51672 51680 51688 51696 51704 51712 51720 51728 51736 51744 51752 51760 51768 51776 51784 51792 51800 51808 51816 51824 51832 51840 51848 51856 51864 51872 51880 51888 51896 51904 51912 51920 51928 51936 51944 51952 51960 51968 51976 51984 51992 52000 52008 52016 52024 52032 52040 52048 52056 52064 52072 52080 52088 52096 52104 52112 52120 52128 52136 52144 52152 52160 52168 52176 52184 52192 52200 52208 52216 52224 52232 52240 52248 52256 52264 52272 52280 52288 52296 52304 52312 52320 52328 52336 52344 52352 52360 52368 52376 52384 52392 52400 52408 52416 52424 52432 52440 52448 52456 52464 52472 52480 52488 52496 52504 52512 52520 52528 52536 52544 52552 52560 52568 52576 52584 52592 52600 52608 52616 52624 52632 52640 52648 52656 52664 52672 52680 52688 52696 52704 52712 52720 52728 52736 52744 52752 52760 52768 52776 52784 52792 52800 52808 52816 52824 52832 52840 52848 52856 52864 52872 52880 52888 52896 52904 52912 52920 52928 52936 52944 52952 52960 52968 52976 52984 52992 53000 53008 53016 53024 53032 53040 53048 53056 53064 53072 53080 53088 53096 53104 53112 53120 53128 53136 53144 53152 53160 53168 53176 53184 53192 53200 53208 53216 53224 53232 53240 53248 53256 53264 53272 53280 53288 53296 53304 53312 53320 53328 53336 53344 53352 53360 53368 53376 53384 53392 53400 53408 53416 53424 53432 53440 53448 53456 53464 53472 53480 53488 53496 53504 53512 53520 53528 53536 53544 53552 53560 53568 53576 53584 53592 53600 53608 53616 53624 53632 53640 53648 53656 53664 53672 53680 53688 53696 53704 53712 53720 53728 53736 53744 53752 53760 53768 53776 53784 53792 53800 53808 53816 53824 53832 53840 53848 53856 53864 53872 53880 53888 53896 53904 53912 53920 53928 53936 53944 53952 53960 53968 53976 53984 53992 54000 54008 54016 54024 54032 54040 54048 54056 54064 54072 54080 54088 54096 54104 54112 54120 54128 54136 54144 54152 54160 54168 54176 54184 54192 54200 54208 54216 54224 54232 54240 54248 54256 54264 54272 54280 54288 54296 54304 54312 54320 54328 54336 54344 54352 54360 54368 54376 54384 54392 54400 54408 54416 54424 54432 54440 54448 54456 54464 54472 54480 54488 54496 54504 54512 54520 54528 54536 54544 54552 54560 54568 54576 54584 54592 54600 54608 54616 54624 54632 54640 54648 54656 54664 54672 54680 54688 54696 54704 54712 54720 54728 54736 54744 54752 54760 54768 54776 54784 54792 54800 54808 54816 54824 54832 54840 54848 54856 54864 54872 54880 54888 54896 54904 54912 54920 54928 54936 54944 54952 54960 54968 54976 54984 54992 55000 55008 55016 55024 55032 55040 55048 55056 55064 55072 55080 55088 55096 55104 55112 55120 55128 55136 55144 55152 55160 55168 55176 55184 55192 55200 55208 55216 55224 55232 55240 55248 55256 55264 55272 55280 55288 55296 55304 55312 55320 55328 55336 55344 55352 55360 55368 55376 55384 55392 55400 55408 55416 55424 55432 55440 55448 55456 55464 55472 55480 55488 55496 55504 55512 55520 55528 55536 55544 55552 55560 55568 55576 55584 55592 55600 55608 55616 55624 55632 55640 55648 55656 55664 55672 55680 55688 55696 55704 55712 55720 55728 55736 55744 55752 55760 55768 55776 55784 55792 55800 55808 55816 55824 55832 55840 55848 55856 55864 55872 55880 55888 55896 55904 55912 55920 55928 55936 55944 55952 55960 55968 55976 55984 55992 56000 56008 56016 56024 56032 56040 56048 56056 56064 56072 56080 56088 56096 56104 56112 56120 56128 56136 56144 56152 56160 56168 56176 56184 56192 56200 56208 56216 56224 56232 56240 56248 56256 56264 56272 56280 56288 56296 56304 56312 56320 56328 56336 56344 56352 56360 56368 56376 56384 56392 56400 56408 56416 56424 56432 56440 56448 56456 56464 56472 56480 56488 56496 56504 56512 56520 56528 56536 56544 56552 56560 56568 56576 56584 56592 56600 56608 56616 56624 56632 56640 56648 56656 56664 56672 56680 56688 56696 56704 56712 56720 56728 56736 56744 56752 56760 56768 56776 56784 56792 56800 56808 56816 56824 56832 56840 56848 56856 56864 56872 56880 56888 56896 56904 56912 56920 56928 56936 56944 56952 56960 56968 56976 56984 56992 57000 57008 57016 57024 57032 57040 57048 57056 57064 57072 57080 57088 57096 57104 57112 57120 57128 57136 57144 57152 57160 57168 57176 57184 57192 57200 57208 57216 57224 57232 57240 57248 57256 57264 57272 57280 57288 57296 57304 57312 57320 57328 57336 57344 57352 57360 57368 57376 57384 57392 57400 57408 57416 57424 57432 57440 57448 57456 57464 57472 57480 57488 57496 57504 57512 57520 57528 57536 57544 57552 57560 57568 57576 57584 57592 57600 57608 57616 57624 57632 57640 57648 57656 57664 57672 57680 57688 57696 57704 57712 57720 57728 57736 57744 57752 57760 57768 57776 57784 57792 57800 57808 57816 57824 57832 57840 57848 57856 57864 57872 57880 57888 57896 57904 57912 57920 57928 57936 57944 57952 57960 57968 57976 57984 57992 58000 58008 58016 58024 58032 58040 58048 58056 58064 58072 58080 58088 58096 58104 58112 58120 58128 58136 58144 58152 58160 58168 58176 58184 58192 58200 58208 58216 58224 58232 58240 58248 58256 58264 58272 58280 58288 58296 58304 58312 58320 58328 58336 58344 58352 58360 58368 58376 58384 58392 58400 58408 58416 58424 58432 58440 58448 58456 58464 58472 58480 58488 58496 58504 58512 58520 58528 58536 58544 58552 58560 58568 58576 58584 58592 58600 58608 58616 58624 58632 58640 58648 58656 58664 58672 58680 58688 58696 58704 58712 58720 58728 58736 58744 58752 58760 58768 58776 58784 58792 58800 58808 58816 58824 58832 58840 58848 58856 58864 58872 58880 58888 58896 58904 58912 58920 58928 58936 58944 58952 58960 58968 58976 58984 58992 59000 59008 59016 59024 59032 59040 59048 59056 59064 59072 59080 59088 59096 59104 59112 59120 59128 59136 59144 59152 59160 59168 59176 59184 59192 59200 59208 59216 59224 59232 59240 59248 59256 59264 59272 59280 59288 59296 59304 59312 59320 59328 59336 59344 59352 59360 59368 59376 59384 59392 59400 59408 59416 59424 59432 59440 59448 59456 59464 59472 59480 59488 59496 59504 59512 59520 59528 59536 59544 59552 59560 59568 59576 59584 59592 59600 59608 59616 59624 59632 59640 59648 59656 59664 59672 59680 59688 59696 59704 59712 59720 59728 59736 59744 59752 59760 59768 59776 59784 59792 59800 59808 59816 59824 59832 59840 59848 59856 59864 59872 59880 59888 59896 59904 59912 59920 59928 59936 59944 59952 59960 59968 59976 59984 59992 60000 60008 60016 60024 60032 60040 60048 60056 60064 60072 60080 60088 60096 60104 60112 60120 60128 60136 60144 60152 60160 60168 60176 60184 60192 60200 60208 60216 60224 60232 60240 60248 60256 60264 60272 60280 60288 60296 60304 60312 60320 60328 60336 60344 60352 60360 60368 60376 60384 60392 60400 60408 60416 60424 60432 60440 60448 60456 60464 60472 60480 60488 60496 60504 60512 60520 60528 60536 60544 60552 60560 60568 60576 60584 60592 60600 60608 60616 60624 60632 60640 60648 60656 60664 60672 60680 60688 60696 60704 60712 60720 60728 60736 60744 60752 60760 60768 60776 60784 60792 60800 60808 60816 60824 60832 60840 60848 60856 60864 60872 60880 60888 60896 60904 60912 60920 60928 60936 60944 60952 60960 60968 60976 60984 60992 61000 61008 61016 61024 61032 61040 61048 61056 61064 61072 61080 61088 61096 61104 61112 61120 61128 61136 61144 61152 61160 61168 61176 61184 61192 61200 61208 61216 61224 61232 61240 61248 61256 61264 61272 61280 61288 61296 61304 61312 61320 61328 61336 61344 61352 61360 61368 61376 61384 61392 61400 61408 61416 61424 61432 61440 61448 61456 61464 61472 61480 61488 61496 61504 61512 61520 61528 61536 61544 61552 61560 61568 61576 61584 61592 61600 61608 61616 61624 61632 61640 61648 61656 61664 61672 61680 61688 61696 61704 61712 61720 61728 61736 61744 61752 61760 61768 61776 61784 61792 61800 61808 61816 61824 61832 61840 61848 61856 61864 61872 61880 61888 61896 61904 61912 61920 61928 61936 61944 61952 61960 61968 61976 61984 61992 62000 62008 62016 62024 62032 62040 62048 62056 62064 62072 62080 62088 62096 62104 62112 62120 62128 62136 62144 62152 62160 62168 62176 62184 62192 62200 62208 62216 62224 62232 62240 62248 62256 62264 62272 62280 62288 62296 62304 62312 62320 62328 62336 62344 62352 62360 62368 62376 62384 62392 62400 62408 62416 62424 62432 62440 62448 62456 62464 62472 62480 62488 62496 62504 62512 62520 62528 62536 62544 62552 62560 62568 62576 62584 62592 62600 62608 62616 62624 62632 62640 62648 62656 62664 62672 62680 62688 62696 62704 62712 62720 62728 62736 62744 62752 62760 62768 62776 62784 62792 62800 62808 62816 62824 62832 62840 62848 62856 62864 62872 62880 62888 62896 62904 62912 62920 62928 62936 62944 62952 62960 62968 62976 62984 62992 63000 63008 63016 63024 63032 63040 63048 63056 63064 63072 63080 63088 63096 63104 63112 63120 63128 63136 63144 63152 63160 63168 63176 63184 63192 63200 63208 63216 63224 63232 63240 63248 63256 63264 63272 63280 63288 63296 63304 63312 63320 63328 63336 63344 63352 63360 63368 63376 63384 63392 63400 63408 63416 63424 63432 63440 63448 63456 63464 63472 63480 63488 63496 63504 63512 63520 63528 63536 63544 63552 63560 63568 63576 63584 63592 63600 63608 63616 63624 63632 63640 63648 63656 63664 63672 63680 63688 63696 63704 63712 63720 63728 63736 63744 63752 63760 63768 63776 63784 63792 63800 63808 63816 63824 63832 63840 63848 63856 63864 63872 63880 63888 63896 63904 63912 63920 63928 63936 63944 63952 63960 63968 63976 63984 63992 64000 64008 64016 64024 64032 64040 64048 64056 64064 64072 64080 64088 64096 64104 64112 64120 64128 64136 64144 64152 64160 64168 64176 64184 64192 64200 64208 64216 64224 64232 64240 64248 64256 64264 64272 64280 64288 64296 64304 64312 64320 64328 64336 64344 64352 64360 64368 64376 64384 64392 64400 64408 64416 64424 64432 64440 64448 64456 64464 64472 64480 64488 64496 64504 64512 64520 64528 64536 64544 64552 64560 64568 64576 64584 64592 64600 64608 64616 64624 64632 64640 64648 64656 64664 64672 64680 64688 64696 64704 64712 64720 64728 64736 64744 64752 64760 64768 64776 64784 64792 64800 64808 64816 64824 64832 64840 64848 64856 64864 64872 64880 64888 64896 64904 64912 64920 64928 64936 64944 64952 64960 64968 64976 64984 64992 65000 65008 65016 65024 65032 65040 65048 65056 65064 65072 65080 65088 65096 65104 65112 65120 65128 65136 65144 65152 65160 65168 65176 65184 65192 65200 65208 65216 65224 65232 65240 65248 65256 65264 65272 65280 65288 65296 65304 65312 65320 65328 65336 65344 65352 65360 65368 65376 65384 65392 65400 65408 65416 65424 65432 65440 65448 65456 65464 65472 65480 65488 65496 65504 65512 65520 65528 65536 65544 65552 65560 65568 65576 65584 65592 65600 65608 65616 65624 65632 65640 65648 65656 65664 65672 65680 65688 65696 65704 65712 65720 65728 65736 65744 65752 65760 65768 65776 65784 65792 65800 65808 65816 65824 65832 65840 65848 65856 65864 65872 65880 65888 65896 65904 65912 65920 65928 65936 65944 65952 65960 65968 65976 65984 65992 66000 66008 66016 66024 66032 66040 66048 66056 66064 66072 66080 66088 66096 66104 66112 66120 66128 66136 66144 66152 66160 66168 66176 66184 66192 66200 66208 66216 66224 66232 66240 66248 66256 66264 66272 66280 66288 66296 66304 66312 66320 66328 66336 66344 66352 66360 66368 66376 66384 66392 66400 66408 66416 66424 66432 66440 66448 66456 66464 66472 66480 66488 66496 66504 66512 66520 66528 66536 66544 66552 66560 66568 66576 66584 66592 66600 66608 66616 66624 66632 66640 66648 66656 66664 66672 66680 66688 66696 66704 66712 66720 66728 66736 66744 66752 66760 66768 66776 66784 66792 66800 66808 66816 66824 66832 66840 66848 66856 66864 66872 66880 66888 66896 66904 66912 66920 66928 66936 66944 66952 66960 66968 66976 66984 66992 67000 67008 67016 67024 67032 67040 67048 67056 67064 67072 67080 67088 67096 67104 67112 67120 67128 67136 67144 67152 67160 67168 67176 67184 67192 67200 67208 67216 67224 67232 67240 67248 67256 67264 67272 67280 67288 67296 67304 67312 67320 67328 67336 67344 67352 67360 67368 67376 67384 67392 67400 67408 67416 67424 67432 67440 67448 67456 67464 67472 67480 67488 67496 67504 67512 67520 67528 67536 67544 67552 67560 67568 67576 67584 67592 67600 67608 67616 67624 67632 67640 67648 67656 67664 67672 67680 67688 67696 67704 67712 67720 67728 67736 67744 67752 67760 67768 67776 67784 67792 67800 67808 67816 67824 67832 67840 67848 67856 67864 67872 67880 67888 67896 67904 67912 67920 67928 67936 67944 67952 67960 67968 67976 67984 67992 68000 68008 68016 68024 68032 68040 68048 68056 68064 68072 68080 68088 68096 68104 68112 68120 68128 68136 68144 68152 68160 68168 68176 68184 68192 68200 68208 68216 68224 68232 68240 68248 68256 68264 68272 68280 68288 68296 68304 68312 68320 68328 68336 68344 68352 68360 68368 68376 68384 68392 68400 68408 68416 68424 68432 68440 68448 68456 68464 68472 68480 68488 68496 68504 68512 68520 68528 68536 68544 68552 68560 68568 68576 68584 68592 68600 68608 68616 68624 68632 68640 68648 68656 68664 68672 68680 68688 68696 68704 68712 68720 68728 68736 68744 68752 68760 68768 68776 68784 68792 68800 68808 68816 68824 68832 68840 68848 68856 68864 68872 68880 68888 68896 68904 68912 68920 68928 68936 68944 68952 68960 68968 68976 68984 68992 69000 69008 69016 69024 69032 69040 69048 69056 69064 69072 69080 69088 69096 69104 69112 69120 69128 69136 69144 69152 69160 69168 69176 69184 69192 69200 69208 69216 69224 69232 69240 69248 69256 69264 69272 69280 69288 69296 69304 69312 69320 69328 69336 69344 69352 69360 69368 69376 69384 69392 69400 69408 69416 69424 69432 69440 69448 69456 69464 69472 69480 69488 69496 69504 69512 69520 69528 69536 69544 69552 69560 69568 69576 69584 69592 69600 69608 69616 69624 69632 69640 69648 69656 69664 69672 69680 69688 69696 69704 69712 69720 69728 69736 69744 69752 69760 69768 69776 69784 69792 69800 69808 69816 69824 69832 69840 69848 69856 69864 69872 69880 69888 69896 69904 69912 69920 69928 69936 69944 69952 69960 69968 69976 69984 69992 70000 70008 70016 70024 70032 70040 70048 70056 70064 70072 70080 70088 70096 70104 70112 70120 70128 70136 70144 70152 70160 70168 70176 70184 70192 70200 70208 70216 70224 70232 70240 70248 70256 70264 70272 70280 70288 70296 70304 70312 70320 70328 70336 70344 70352 70360 70368 70376 70384 70392 70400 70408 70416 70424 70432 70440 70448 70456 70464 70472 70480 70488 70496 70504 70512 70520 70528 70536 70544 70552 70560 70568 70576 70584 70592 70600 70608 70616 70624 70632 70640 70648 70656 70664 70672 70680 70688 70696 70704 70712 70720 70728 70736 70744 70752 70760 70768 70776 70784 70792 70800 70808 70816 70824 70832 70840 70848 70856 70864 70872 70880 70888 70896 70904 70912 70920 70928 70936 70944 70952 70960 70968 70976 70984 70992 71000 71008 71016 71024 71032 71040 71048 71056 71064 71072 71080 71088 71096 71104 71112 71120 71128 71136 71144 71152 71160 71168 71176 71184 71192 71200 71208 71216 71224 71232 71240 71248 71256 71264 71272 71280 71288 71296 71304 71312 71320 71328 71336 71344 71352 71360 71368 71376 71384 71392 71400 71408 71416 71424 71432 71440 71448 71456 71464 71472 71480 71488 71496 71504 71512 71520 71528 71536 71544 71552 71560 71568 71576 71584 71592 71600 71608 71616 71624 71632 71640 71648 71656 71664 71672 71680 71688 71696 71704 71712 71720 71728 71736 71744 71752 71760 71768 71776 71784 71792 71800 71808 71816 71824 71832 71840 71848 71856 71864 71872 71880 71888 71896 71904 71912 71920 71928 71936 71944 71952 71960 71968 71976 71984 71992 72000 72008 72016 72024 72032 72040 72048 72056 72064 72072 72080 72088 72096 72104 72112 72120 72128 72136 72144 72152 72160 72168 72176 72184 72192 72200 72208 72216 72224 72232 72240 72248 72256 72264 72272 72280 72288 72296 72304 72312 72320 72328 72336 72344 72352 72360 72368 72376 72384 72392 72400 72408 72416 72424 72432 72440 72448 72456 72464 72472 72480 72488 72496 72504 72512 72520 72528 72536 72544 72552 72560 72568 72576 72584 72592 72600 72608 72616 72624 72632 72640 72648 72656 72664 72672 72680 72688 72696 72704 72712 72720 72728 72736 72744 72752 72760 72768 72776 72784 72792 72800 72808 72816 72824 72832 72840 72848 72856 72864 72872 72880 72888 72896 72904 72912 72920 72928 72936 72944 72952 72960 72968 72976 72984 72992 73000 73008 73016 73024 73032 73040 73048 73056 73064 73072 73080 73088 73096 73104 73112 73120 73128 73136 73144 73152 73160 73168 73176 73184 73192 73200 73208 73216 73224 73232 73240 73248 73256 73264 73272 73280 73288 73296 73304 73312 73320 73328 73336 73344 73352 73360 73368 73376 73384 73392 73400 73408 73416 73424 73432 73440 73448 73456 73464 73472 73480 73488 73496 73504 73512 73520 73528 73536 73544 73552 73560 73568 73576 73584 73592 73600 73608 73616 73624 73632 73640 73648 73656 73664 73672 73680 73688 73696 73704 73712 73720 73728 73736 73744 73752 73760 73768 73776 73784 73792 73800 73808 73816 73824 73832 73840 73848 73856 73864 73872 73880 73888 73896 73904 73912 73920 73928 73936 73944 73952 73960 73968 73976 73984 73992 74000 74008 74016 74024 74032 74040 74048 74056 74064 74072 74080 74088 74096 74104 74112 74120 74128 74136 74144 74152 74160 74168 74176 74184 74192 74200 74208 74216 74224 74232 74240 74248 74256 74264 74272 74280 74288 74296 74304 74312 74320 74328 74336 74344 74352 74360 74368 74376 74384 74392 74400 74408 74416 74424 74432 74440 74448 74456 74464 74472 74480 74488 74496 74504 74512 74520 74528 74536 74544 74552 74560 74568 74576 74584 74592 74600 74608 74616 74624 74632 74640 74648 74656 74664 74672 74680 74688 74696 74704 74712 74720 74728 74736 74744 74752 74760 74768 74776 74784 74792 74800 74808 74816 74824 74832 74840 74848 74856 74864 74872 74880 74888 74896 74904 74912 74920 74928 74936 74944 74952 74960 74968 74976 74984 74992 75000 75008 75016 75024 75032 75040 75048 75056 75064 75072 75080 75088 75096 75104 75112 75120 75128 75136 75144 75152 75160 75168 75176 75184 75192 75200 75208 75216 75224 75232 75240 75248 75256 75264 75272 75280 75288 75296 75304 75312 75320 75328 75336 75344 75352 75360 75368 75376 75384 75392 75400 75408 75416 75424 75432 75440 75448 75456 75464 75472 75480 75488 75496 75504 75512 75520 75528 75536 75544 75552 75560 75568 75576 75584 75592 75600 75608 75616 75624 75632 75640 75648 75656 75664 75672 75680 75688 75696 75704 75712 75720 75728 75736 75744 75752 75760 75768 75776 75784 75792 75800 75808 75816 75824 75832 75840 75848 75856 75864 75872 75880 75888 75896 75904 75912 75920 75928 75936 75944 75952 75960 75968 75976 75984 75992 76000 76008 76016 76024 76032 76040 76048 76056 76064 76072 76080 76088 76096 76104 76112 76120 76128 76136 76144 76152 76160 76168 76176 76184 76192 76200 76208 76216 76224 76232 76240 76248 76256 76264 76272 76280 76288 76296 76304 76312 76320 76328 76336 76344 76352 76360 76368 76376 76384 76392 76400 76408 76416 76424 76432 76440 76448 76456 76464 76472 76480 76488 76496 76504 76512 76520 76528 76536 76544 76552 76560 76568 76576 76584 76592 76600 76608 76616 76624 76632 76640 76648 76656 76664 76672 76680 76688 76696 76704 76712 76720 76728 76736 76744 76752 76760 76768 76776 76784 76792 76800 76808 76816 76824 76832 76840 76848 76856 76864 76872 76880 76888 76896 76904 76912 76920 76928 76936 76944 76952 76960 76968 76976 76984 76992 77000 77008 77016 77024 77032 77040 77048 77056 77064 77072 77080 77088 77096 77104 77112 77120 77128 77136 77144 77152 77160 77168 77176 77184 77192 77200 77208 77216 77224 77232 77240 77248 77256 77264 77272 77280 77288 77296 77304 77312 77320 77328 77336 77344 77352 77360 77368 77376 77384 77392 77400 77408 77416 77424 77432 77440 77448 77456 77464 77472 77480 77488 77496 77504 77512 77520 77528 77536 77544 77552 77560 77568 77576 77584 77592 77600 77608 77616 77624 77632 77640 77648 77656 77664 77672 77680 77688 77696 77704 77712 77720 77728 77736 77744 77752 77760 77768 77776 77784 77792 77800 77808 77816 77824 77832 77840 77848 77856 77864 77872 77880 77888 77896 77904 77912 77920 77928 77936 77944 77952 77960 77968 77976 77984 77992 78000 78008 78016 78024 78032 78040 78048 78056 78064 78072 78080 78088 78096 78104 78112 78120 78128 78136 78144 78152 78160 78168 78176 78184 78192 78200 78208 78216 78224 78232 78240 78248 78256 78264 78272 78280 78288 78296 78304 78312 78320 78328 78336 78344 78352 78360 78368 78376 78384 78392 78400 78408 78416 78424 78432 78440 78448 78456 78464 78472 78480 78488 78496 78504 78512 78520 78528 78536 78544 78552 78560 78568 78576 78584 78592 78600 78608 78616 78624 78632 78640 78648 78656 78664 78672 78680 78688 78696 78704 78712 78720 78728 78736 78744 78752 78760 78768 78776 78784 78792 78800 78808 78816 78824 78832 78840 78848 78856 78864 78872 78880 78888 78896 78904 78912 78920 78928 78936 78944 78952 78960 78968 78976 78984 78992 79000 79008 79016 79024 79032 79040 79048 79056 79064 79072 79080 79088 79096 79104 79112 79120 79128 79136 79144 79152 79160 79168 79176 79184 79192 79200 79208 79216 79224 79232 79240 79248 79256 79264 79272 79280 79288 79296 79304 79312 79320 79328 79336 79344 79352 79360 79368 79376 79384 79392 79400 79408 79416 79424 79432 79440 79448 79456 79464 79472 79480 79488 79496 79504 79512 79520 79528 79536 79544 79552 79560 79568 79576 79584 79592 79600 79608 79616 79624 79632 79640 79648 79656 79664 79672 79680 79688 79696 79704 79712 79720 79728 79736 79744 79752 79760 79768 79776 79784 79792 79800 79808 79816 79824 79832 79840 79848 79856 79864 79872 79880 79888 79896 79904 79912 79920 79928 79936 79944 79952 79960 79968 79976 79984 79992 80000 80008 80016 80024 80032 80040 80048 80056 80064 80072 80080 80088 80096 80104 80112 80120 80128 80136 80144 80152 80160 80168 80176 80184 80192 80200 80208 80216 80224 80232 80240 80248 80256 80264 80272 80280 80288 80296 80304 80312 80320 80328 80336 80344 80352 80360 80368 80376 80384 80392 80400 80408 80416 80424 80432 80440 80448 80456 80464 80472 80480 80488 80496 80504 80512 80520 80528 80536 80544 80552 80560 80568 80576 80584 80592 80600 80608 80616 80624 80632 80640 80648 80656 80664 80672 80680 80688 80696 80704 80712 80720 80728 80736 80744 80752 80760 80768 80776 80784 80792 80800 80808 80816 80824 80832 80840 80848 80856 80864 80872 80880 80888 80896 80904 80912 80920 80928 80936 80944 80952 80960 80968 80976 80984 80992 81000 81008 81016 81024 81032 81040 81048 81056 81064 81072 81080 81088 81096 81104 81112 81120 81128 81136 81144 81152 81160 81168 81176 81184 81192 81200 81208 81216 81224 81232 81240 81248 81256 81264 81272 81280 81288 81296 81304 81312 81320 81328 81336 81344 81352 81360 81368 81376 81384 81392 81400 81408 81416 81424 81432 81440 81448 81456 81464 81472 81480 81488 81496 81504 81512 81520 81528 81536 81544 81552 81560 81568 81576 81584 81592 81600 81608 81616 81624 81632 81640 81648 81656 81664 81672 81680 81688 81696 81704 81712 81720 81728 81736 81744 81752 81760 81768 81776 81784 81792 81800 81808 81816 81824 81832 81840 81848 81856 81864 81872 81880 81888 81896 81904 81912 81920 81928 81936 81944 81952 81960 81968 81976 81984 81992 82000 82008 82016 82024 82032 82040 82048 82056 82064 82072 82080 82088 82096 82104 82112 82120 82128 82136 82144 82152 82160 82168 82176 82184 82192 82200 82208 82216 82224 82232 82240 82248 82256 82264 82272 82280 82288 82296 82304 82312 82320 82328 82336 82344 82352 82360 82368 82376 82384 82392 82400 82408 82416 82424 82432 82440 82448 82456 82464 82472 82480 82488 82496 82504 82512 82520 82528 82536 82544 82552 82560 82568 82576 82584 82592 82600 82608 82616 82624 82632 82640 82648 82656 82664 82672 82680 82688 82696 82704 82712 82720 82728 82736 82744 82752 82760 82768 82776 82784 82792 82800 82808 82816 82824 82832 82840 82848 82856 82864 82872 82880 82888 82896 82904 82912 82920 82928 82936 82944 82952 82960 82968 82976 82984 82992 83000 83008 83016 83024 83032 83040 83048 83056 83064 83072 83080 83088 83096 83104 83112 83120 83128 83136 83144 83152 83160 83168 83176 83184 83192 83200 83208 83216 83224 83232 83240 83248 83256 83264 83272 83280 83288 83296 83304 83312 83320 83328 83336 83344 83352 83360 83368 83376 83384 83392 83400 83408 83416 83424 83432 83440 83448 83456 83464 83472 83480 83488 83496 83504 83512 83520 83528 83536 83544 83552 83560 83568 83576 83584 83592 83600 83608 83616 83624 83632 83640 83648 83656 83664 83672 83680 83688 83696 83704 83712 83720 83728 83736 83744 83752 83760 83768 83776 83784 83792 83800 83808 83816 83824 83832 83840 83848 83856 83864 83872 83880 83888 83896 83904 83912 83920 83928 83936 83944 83952 83960 83968 83976 83984 83992 84000 84008 84016 84024 84032 84040 84048 84056 84064 84072 84080 84088 84096 84104 84112 84120 84128 84136 84144 84152 84160 84168 84176 84184 84192 84200 84208 84216 84224 84232 84240 84248 84256 84264 84272 84280 84288 84296 84304 84312 84320 84328 84336 84344 84352 84360 84368 84376 84384 84392 84400 84408 84416 84424 84432 84440 84448 84456 84464 84472 84480 84488 84496 84504 84512 84520 84528 84536 84544 84552 84560 84568 84576 84584 84592 84600 84608 84616 84624 84632 84640 84648 84656 84664 84672 84680 84688 84696 84704 84712 84720 84728 84736 84744 84752 84760 84768 84776 84784 84792 84800 84808 84816 84824 84832 84840 84848 84856 84864 84872 84880 84888 84896 84904 84912 84920 84928 84936 84944 84952 84960 84968 84976 84984 84992 85000 85008 85016 85024 85032 85040 85048 85056 85064 85072 85080 85088 85096 85104 85112 85120 85128 85136 85144 85152 85160 85168 85176 85184 85192 85200 85208 85216 85224 85232 85240 85248 85256 85264 85272 85280 85288 85296 85304 85312 85320 85328 85336 85344 85352 85360 85368 85376 85384 85392 85400 85408 85416 85424 85432 85440 85448 85456 85464 85472 85480 85488 85496 85504 85512 85520 85528 85536 85544 85552 85560 85568 85576 85584 85592 85600 85608 85616 85624 85632 85640 85648 85656 85664 85672 85680 85688 85696 85704 85712 85720 85728 85736 85744 85752 85760 85768 85776 85784 85792 85800 85808 85816 85824 85832 85840 85848 85856 85864 85872 85880 85888 85896 85904 85912 85920 85928 85936 85944 85952 85960 85968 85976 85984 85992 86000 86008 86016 86024 86032 86040 86048 86056 86064 86072 86080 86088 86096 86104 86112 86120 86128 86136 86144 86152 86160 86168 86176 86184 86192 86200 86208 86216 86224 86232 86240 86248 86256 86264 86272 86280 86288 86296 86304 86312 86320 86328 86336 86344 86352 86360 86368 86376 86384 86392 86400 86408 86416 86424 86432 86440 86448 86456 86464 86472 86480 86488 86496 86504 86512 86520 86528 86536 86544 86552 86560 86568 86576 86584 86592 86600 86608 86616 86624 86632 86640 86648 86656 86664 86672 86680 86688 86696 86704 86712 86720 86728 86736 86744 86752 86760 86768 86776 86784 86792 86800 86808 86816 86824 86832 86840 86848 86856 86864 86872 86880 86888 86896 86904 86912 86920 86928 86936 86944 86952 86960 86968 86976 86984 86992 87000 87008 87016 87024 87032 87040 87048 87056 87064 87072 87080 87088 87096 87104 87112 87120 87128 87136 87144 87152 87160 87168 87176 87184 87192 87200 87208 87216 87224 87232 87240 87248 87256 87264 87272 87280 87288 87296 87304 87312 87320 87328 87336 87344 87352 87360 87368 87376 87384 87392 87400 87408 87416 87424 87432 87440 87448 87456 87464 87472 87480 87488 87496 87504 87512 87520 87528 87536 87544 87552 87560 87568 87576 87584 87592 87600 87608 87616 87624 87632 87640 87648 87656 87664 87672 87680 87688 87696 87704 87712 87720 87728 87736 87744 87752 87760 87768 87776 87784 87792 87800 87808 87816 87824 87832 87840 87848 87856 87864 87872 87880 87888 87896 87904 87912 87920 87928 87936 87944 87952 87960 87968 87976 87984 87992 88000 88008 88016 88024 88032 88040 88048 88056 88064 88072 88080 88088 88096 88104 88112 88120 88128 88136 88144 88152 88160 88168 88176 88184 88192 88200 88208 88216 88224 88232 88240 88248 88256 88264 88272 88280 88288 88296 88304 88312 88320 88328 88336 88344 88352 88360 88368 88376 88384 88392 88400 88408 88416 88424 88432 88440 88448 88456 88464 88472 88480 88488 88496 88504 88512 88520 88528 88536 88544 88552 88560 88568 88576 88584 88592 88600 88608 88616 88624 88632 88640 88648 88656 88664 88672 88680 88688 88696 88704 88712 88720 88728 88736 88744 88752 88760 88768 88776 88784 88792 88800 88808 88816 88824 88832 88840 88848 88856 88864 88872 88880 88888 88896 88904 88912 88920 88928 88936 88944 88952 88960 88968 88976 88984 88992 89000 89008 89016 89024 89032 89040 89048 89056 89064 89072 89080 89088 89096 89104 89112 89120 89128 89136 89144 89152 89160 89168 89176 89184 89192 89200 89208 89216 89224 89232 89240 89248 89256 89264 89272 89280 89288 89296 89304 89312 89320 89328 89336 89344 89352 89360 89368 89376 89384 89392 89400 89408 89416 89424 89432 89440 89448 89456 89464 89472 89480 89488 89496 89504 89512 89520 89528 89536 89544 89552 89560 89568 89576 89584 89592 89600 89608 89616 89624 89632 89640 89648 89656 89664 89672 89680 89688 89696 89704 89712 89720 89728 89736 89744 89752 89760 89768 89776 89784 89792 89800 89808 89816 89824 89832 89840 89848 89856 89864 89872 89880 89888 89896 89904 89912 89920 89928 89936 89944 89952 89960 89968 89976 89984 89992 90000 90008 90016 90024 90032 90040 90048 90056 90064 90072 90080 90088 90096 90104 90112 90120 90128 90136 90144 90152 90160 90168 90176 90184 90192 90200 90208 90216 90224 90232 90240 90248 90256 90264 90272 90280 90288 90296 90304 90312 90320 90328 90336 90344 90352 90360 90368 90376 90384 90392 90400 90408 90416 90424 90432 90440 90448 90456 90464 90472 90480 90488 90496 90504 90512 90520 90528 90536 90544 90552 90560 90568 90576 90584 90592 90600 90608 90616 90624 90632 90640 90648 90656 90664 90672 90680 90688 90696 90704 90712 90720 90728 90736 90744 90752 90760 90768 90776 90784 90792 90800 90808 90816 90824 90832 90840 90848 90856 90864 90872 90880 90888 90896 90904 90912 90920 90928 90936 90944 90952 90960 90968 90976 90984 90992 91000 91008 91016 91024 91032 91040 91048 91056 91064 91072 91080 91088 91096 91104 91112 91120 91128 91136 91144 91152 91160 91168 91176 91184 91192 91200 91208 91216 91224 91232 91240 91248 91256 91264 91272 91280 91288 91296 91304 91312 91320 91328 91336 91344 91352 91360 91368 91376 91384 91392 91400 91408 91416 91424 91432 91440 91448 91456 91464 91472 91480 91488 91496 91504 91512 91520 91528 91536 91544 91552 91560 91568 91576 91584 91592 91600 91608 91616 91624 91632 91640 91648 91656 91664 91672 91680 91688 91696 91704 91712 91720 91728 91736 91744 91752 91760 91768 91776 91784 91792 91800 91808 91816 91824 91832 91840 91848 91856 91864 91872 91880 91888 91896 91904 91912 91920 91928 91936 91944 91952 91960 91968 91976 91984 91992 92000 92008 92016 92024 92032 92040 92048 92056 92064 92072 92080 92088 92096 92104 92112 92120 92128 92136 92144 92152 92160 92168 92176 92184 92192 92200 92208 92216 92224 92232 92240 92248 92256 92264 92272 92280 92288 92296 92304 92312 92320 92328 92336 92344 92352 92360 92368 92376 92384 92392 92400 92408 92416 92424 92432 92440 92448 92456 92464 92472 92480 92488 92496 92504 92512 92520 92528 92536 92544 92552 92560 92568 92576 92584 92592 92600 92608 92616 92624 92632 92640 92648 92656 92664 92672 92680 92688 92696 92704 92712 92720 92728 92736 92744 92752 92760 92768 92776 92784 92792 92800 92808 92816 92824 92832 92840 92848 92856 92864 92872 92880 92888 92896 92904 92912 92920 92928 92936 92944 92952 92960 92968 92976 92984 92992 93000 93008 93016 93024 93032 93040 93048 93056 93064 93072 93080 93088 93096 93104 93112 93120 93128 93136 93144 93152 93160 93168 93176 93184 93192 93200 93208 93216 93224 93232 93240 93248 93256 93264 93272 93280 93288 93296 93304 93312 93320 93328 93336 93344 93352 93360 93368 93376 93384 93392 93400 93408 93416 93424 93432 93440 93448 93456 93464 93472 93480 93488 93496 93504 93512 93520 93528 93536 93544 93552 93560 93568 93576 93584 93592 93600 93608 93616 93624 93632 93640 93648 93656 93664 93672 93680 93688 93696 93704 93712 93720 93728 93736 93744 93752 93760 93768 93776 93784 93792 93800 93808 93816 93824 93832 93840 93848 93856 93864 93872 93880 93888 93896 93904 93912 93920 93928 93936 93944 93952 93960 93968 93976 93984 93992 94000 94008 94016 94024 94032 94040 94048 94056 94064 94072 94080 94088 94096 94104 94112 94120 94128 94136 94144 94152 94160 94168 94176 94184 94192 94200 94208 94216 94224 94232 94240 94248 94256 94264 94272 94280 94288 94296 94304 94312 94320 94328 94336 94344 94352 94360 94368 94376 94384 94392 94400 94408 94416 94424 94432 94440 94448 94456 94464 94472 94480 94488 94496 94504 94512 94520 94528 94536 94544 94552 94560 94568 94576 94584 94592 94600 94608 94616 94624 94632 94640 94648 94656 94664 94672 94680 94688 94696 94704 94712 94720 94728 94736 94744 94752 94760 94768 94776 94784 94792 94800 94808 94816 94824 94832 94840 94848 94856 94864 94872 94880 94888 94896 94904 94912 94920 94928 94936 94944 94952 94960 94968 94976 94984 94992 95000 95008 95016 95024 95032 95040 95048 95056 95064 95072 95080 95088 95096 95104 95112 95120 95128 95136 95144 95152 95160 95168 95176 95184 95192 95200 95208 95216 95224 95232 95240 95248 95256 95264 95272 95280 95288 95296 95304 95312 95320 95328 95336 95344 95352 95360 95368 95376 95384 95392 95400 95408 95416 95424 95432 95440 95448 95456 95464 95472 95480 95488 95496 95504 95512 95520 95528 95536 95544 95552 95560 95568 95576 95584 95592 95600 95608 95616 95624 95632 95640 95648 95656 95664 95672 95680 95688 95696 95704 95712 95720 95728 95736 95744 95752 95760 95768 95776 95784 95792 95800 95808 95816 95824 95832 95840 95848 95856 95864 95872 95880 95888 95896 95904 95912 95920 95928 95936 95944 95952 95960 95968 95976 95984 95992 96000 96008 96016 96024 96032 96040 96048 96056 96064 96072 96080 96088 96096 96104 96112 96120 96128 96136 96144 96152 96160 96168 96176 96184 96192 96200 96208 96216 96224 96232 96240 96248 96256 96264 96272 96280 96288 96296 96304 96312 96320 96328 96336 96344 96352 96360 96368 96376 96384 96392 96400 96408 96416 96424 96432 96440 96448 96456 96464 96472 96480 96488 96496 96504 96512 96520 96528 96536 96544 96552 96560 96568 96576 96584 96592 96600 96608 96616 96624 96632 96640 96648 96656 96664 96672 96680 96688 96696 96704 96712 96720 96728 96736 96744 96752 96760 96768 96776 96784 96792 96800 96808 96816 96824 96832 96840 96848 96856 96864 96872 96880 96888 96896 96904 96912 96920 96928 96936 96944 96952 96960 96968 96976 96984 96992 97000 97008 97016 97024 97032 97040 97048 97056 97064 97072 97080 97088 97096 97104 97112 97120 97128 97136 97144 97152 97160 97168 97176 97184 97192 97200 97208 97216 97224 97232 97240 97248 97256 97264 97272 97280 97288 97296 97304 97312 97320 97328 97336 97344 97352 97360 97368 97376 97384 97392 97400 97408 97416 97424 97432 97440 97448 97456 97464 97472 97480 97488 97496 97504 97512 97520 97528 97536 97544 97552 97560 97568 97576 97584 97592 97600 97608 97616 97624 97632 97640 97648 97656 97664 97672 97680 97688 97696 97704 97712 97720 97728 97736 97744 97752 97760 97768 97776 97784 97792 97800 97808 97816 97824 97832 97840 97848 97856 97864 97872 97880 97888 97896 97904 97912 97920 97928 97936 97944 97952 97960 97968 97976 97984 97992 98000 98008 98016 98024 98032 98040 98048 98056 98064 98072 98080 98088 98096 98104 98112 98120 98128 98136 98144 98152 98160 98168 98176 98184 98192 98200 98208 98216 98224 98232 98240 98248 98256 98264 98272 98280 98288 98296 98304 98312 98320 98328 98336 98344 98352 98360 98368 98376 98384 98392 98400 98408 98416 98424 98432 98440 98448 98456 98464 98472 98480 98488 98496 98504 98512 98520 98528 98536 98544 98552 98560 98568 98576 98584 98592 98600 98608 98616 98624 98632 98640 98648 98656 98664 98672 98680 98688 98696 98704 98712 98720 98728 98736 98744 98752 98760 98768 98776 98784 98792 98800 98808 98816 98824 98832 98840 98848 98856 98864 98872 98880 98888 98896 98904 98912 98920 98928 98936 98944 98952 98960 98968 98976 98984 98992 99000 99008 99016 99024 99032 99040 99048 99056 99064 99072 99080 99088 99096 99104 99112 99120 99128 99136 99144 99152 99160 99168 99176 99184 99192 99200 99208 99216 99224 99232 99240 99248 99256 99264 99272 99280 99288 99296 99304 99312 99320 99328 99336 99344 99352 99360 99368 99376 99384 99392 99400 99408 99416 99424 99432 99440 99448 99456 99464 99472 99480 99488 99496 99504 99512 99520 99528 99536 99544 99552 99560 99568 99576 99584 99592 99600 99608 99616 99624 99632 99640 99648 99656 99664 99672 99680 99688 99696 99704 99712 99720 99728 99736 99744 99752 99760 99768 99776 99784 99792 99800 99808 99816 99824 99832 99840 99848 99856 99864 99872 99880 99888 99896 99904 99912 99920 99928 99936 99944 99952 99960 99968 99976 99984 99992 100000 100008 100016 100024 100032 100040 100048 100056 100064 100072 100080 100088 100096 100104 100112 100120 100128 100136 100144 100152 100160 100168 100176 100184 100192 100200 100208 100216 100224 100232 100240 100248 100256 100264 100272 100280 100288 100296 100304 100312 100320 100328 100336 100344 100352 100360 100368 100376 100384 100392 100400 100408 100416 100424 100432 100440 100448 100456 100464 100472 100480 100488 100496 100504 100512 100520 100528 100536 100544 100552 100560 100568 100576 100584 100592 100600 100608 100616 100624 100632 100640 100648 100656 100664 100672 100680 100688 100696 100704 100712 100720 100728 100736 100744 100752 100760 100768 100776 100784 100792 100800 100808 100816 100824 100832 100840 100848 100856 100864 100872 100880 100888 100896 100904 100912 100920 100928 100936 100944 100952 100960 100968 100976 100984 100992 101000 101008 101016 101024 101032 101040 101048 101056 101064 101072 101080 101088 101096 101104 101112 101120 101128 101136 101144 101152 101160 101168 101176 101184 101192 101200 101208 101216 101224 101232 101240 101248 101256 101264 101272 101280 101288 101296 101304 101312 101320 101328 101336 101344 101352 101360 101368 101376 101384 101392 101400 101408 101416 101424 101432 101440 101448 101456 101464 101472 101480 101488 101496 101504 101512 101520 101528 101536 101544 101552 101560 101568 101576 101584 101592 101600 101608 101616 101624 101632 101640 101648 101656 101664 101672 101680 101688 101696 101704 101712 101720 101728 101736 101744 101752 101760 101768 101776 101784 101792 101800 101808 101816 101824 101832 101840 101848 101856 101864 101872 101880 101888 101896 101904 101912 101920 101928 101936 101944 101952 101960 101968 101976 101984 101992 102000 102008 102016 102024 102032 102040 102048 102056 102064 102072 102080 102088 102096 102104 102112 102120 102128 102136 102144 102152 102160 102168 102176 102184 102192 102200 102208 102216 102224 102232 102240 102248 102256 102264 102272 102280 102288 102296 102304 102312 102320 102328 102336 102344 102352 102360 102368 102376 102384 102392 102400 102408 102416 102424 102432 102440 102448 102456 102464 102472 102480 102488 102496 102504 102512 102520 102528 102536 102544 102552 102560 102568 102576 102584 102592 102600 102608 102616 102624 102632 102640 102648 102656 102664 102672 102680 102688 102696 102704 102712 102720 102728 102736 102744 102752 102760 102768 102776 102784 102792 102800 102808 102816 102824 102832 102840 102848 102856 102864 102872 102880 102888 102896 102904 102912 102920 102928 102936 102944 102952 102960 102968 102976 102984 102992 103000 103008 103016 103024 103032 103040 103048 103056 103064 103072 103080 103088 103096 103104 103112 103120 103128 103136 103144 103152 103160 103168 103176 103184 103192 103200 103208 103216 103224 103232 103240 103248 103256 103264 103272 103280 103288 103296 103304 103312 103320 103328 103336 103344 103352 103360 103368 103376 103384 103392 103400 103408 103416 103424 103432 103440 103448 103456 103464 103472 103480 103488 103496 103504 103512 103520 103528 103536 103544 103552 103560 103568 103576 103584 103592 103600 103608 103616 103624 103632 103640 103648 103656 103664 103672 103680 103688 103696 103704 103712 103720 103728 103736 103744 103752 103760 103768 103776 103784 103792 103800 103808 103816 103824 103832 103840 103848 103856 103864 103872 103880 103888 103896 103904 103912 103920 103928 103936 103944 103952 103960 103968 103976 103984 103992 104000 104008 104016 104024 104032 104040 104048 104056 104064 104072 104080 104088 104096 104104 104112 104120 104128 104136 104144 104152 104160 104168 104176 104184 104192 104200 104208 104216 104224 104232 104240 104248 104256 104264 104272 104280 104288 104296 104304 104312 104320 104328 104336 104344 104352 104360 104368 104376 104384 104392 104400 104408 104416 104424 104432 104440 104448 104456 104464 104472 104480 104488 104496 104504 104512 104520 104528 104536 104544 104552 104560 104568 104576 104584 104592 104600 104608 104616 104624 104632 104640 104648 104656 104664 104672 104680 104688 104696 104704 104712 104720 104728 104736 104744 104752 104760 104768 104776 104784 104792 104800 104808 104816 104824 104832 104840 104848 104856 104864 104872 104880 104888 104896 104904 104912 104920 104928 104936 104944 104952 104960 104968 104976 104984 104992 105000 105008 105016 105024 105032 105040 105048 105056 105064 105072 105080 105088 105096 105104 105112 105120 105128 105136 105144 105152 105160 105168 105176 105184 105192 105200 105208 105216 105224 105232 105240 105248 105256 105264 105272 105280 105288 105296 105304 105312 105320 105328 105336 105344 105352 105360 105368 105376 105384 105392 105400 105408 105416 105424 105432 105440 105448 105456 105464 105472 105480 105488 105496 105504 105512 105520 105528 105536 105544 105552 105560 105568 105576 105584 105592 105600 105608 105616 105624 105632 105640 105648 105656 105664 105672 105680 105688 105696 105704 105712 105720 105728 105736 105744 105752 105760 105768 105776 105784 105792 105800 105808 105816 105824 105832 105840 105848 105856 105864 105872 105880 105888 105896 105904 105912 105920 105928 105936 105944 105952 105960 105968 105976 105984 105992 106000 106008 106016 106024 106032 106040 106048 106056 106064 106072 106080 106088 106096 106104 106112 106120 106128 106136 106144 106152 106160 106168 106176 106184 106192 106200 106208 106216 106224 106232 106240 106248 106256 106264 106272 106280 106288 106296 106304 106312 106320 106328 106336 106344 106352 106360 106368 106376 106384 106392 106400 106408 106416 106424 106432 106440 106448 106456 106464 106472 106480 106488 106496 106504 106512 106520 106528 106536 106544 106552 106560 106568 106576 106584 106592 106600 106608 106616 106624 106632 106640 106648 106656 106664 106672 106680 106688 106696 106704 106712 106720 106728 106736 106744 106752 106760 106768 106776 106784 106792 106800 106808 106816 106824 106832 106840 106848 106856 106864 106872 106880 106888 106896 106904 106912 106920 106928 106936 106944 106952 106960 106968 106976 106984 106992 107000 107008 107016 107024 107032 107040 107048 107056 107064 107072 107080 107088 107096 107104 107112 107120 107128 107136 107144 107152 107160 107168 107176 107184 107192 107200 107208 107216 107224 107232 107240 107248 107256 107264 107272 107280 107288 107296 107304 107312 107320 107328 107336 107344 107352 107360 107368 107376 107384 107392 107400 107408 107416 107424 107432 107440 107448 107456 107464 107472 107480 107488 107496 107504 107512 107520 107528 107536 107544 107552 107560 107568 107576 107584 107592 107600 107608 107616 107624 107632 107640 107648 107656 107664 107672 107680 107688 107696 107704 107712 107720 107728 107736 107744 107752 107760 107768 107776 107784 107792 107800 107808 107816 107824 107832 107840 107848 107856 107864 107872 107880 107888 107896 107904 107912 107920 107928 107936 107944 107952 107960 107968 107976 107984 107992 108000 108008 108016 108024 108032 108040 108048 108056 108064 108072 108080 108088 108096 108104 108112 108120 108128 108136 108144 108152 108160 108168 108176 108184 108192 108200 108208 108216 108224 108232 108240 108248 108256 108264 108272 108280 108288 108296 108304 108312 108320 108328 108336 108344 108352 108360 108368 108376 108384 108392 108400 108408 108416 108424 108432 108440 108448 108456 108464 108472 108480 108488 108496 108504 108512 108520 108528 108536 108544 108552 108560 108568 108576 108584 108592 108600 108608 108616 108624 108632 108640 108648 108656 108664 108672 108680 108688 108696 108704 108712 108720 108728 108736 108744 108752 108760 108768 108776 108784 108792 108800 108808 108816 108824 108832 108840 108848 108856 108864 108872 108880 108888 108896 108904 108912 108920 108928 108936 108944 108952 108960 108968 108976 108984 108992 109000 109008 109016 109024 109032 109040 109048 109056 109064 109072 109080 109088 109096 109104 109112 109120 109128 109136 109144 109152 109160 109168 109176 109184 109192 109200 109208 109216 109224 109232 109240 109248 109256 109264 109272 109280 109288 109296 109304 109312 109320 109328 109336 109344 109352 109360 109368 109376 109384 109392 109400 109408 109416 109424 109432 109440 109448 109456 109464 109472 109480 109488 109496 109504 109512 109520 109528 109536 109544 109552 109560 109568 109576 109584 109592 109600 109608 109616 109624 109632 109640 109648 109656 109664 109672 109680 109688 109696 109704 109712 109720 109728 109736 109744 109752 109760 109768 109776 109784 109792 109800 109808 109816 109824 109832 109840 109848 109856 109864 109872 109880 109888 109896 109904 109912 109920 109928 109936 109944 109952 109960 109968 109976 109984 109992 110000 110008 110016 110024 110032 110040 110048 110056 110064 110072 110080 110088 110096 110104 110112 110120 110128 110136 110144 110152 110160 110168 110176 110184 110192 110200 110208 110216 110224 110232 110240 110248 110256 110264 110272 110280 110288 110296 110304 110312 110320 110328 110336 110344 110352 110360 110368 110376 110384 110392 110400 110408 110416 110424 110432 110440 110448 110456 110464 110472 110480 110488 110496 110504 110512 110520 110528 110536 110544 110552 110560 110568 110576 110584 110592 
CONNECTIVITY vtktypeint64
0 1 626 625 25 26 651 650 
1 2 627 626 26 27 652 651 
2 3 628 627 27 28 653 652 
3 4 629 628 28 29 654 653 
4 5 630 629 29 30 655 654 
5 6 631 630 30 31 656 655 
6 7 632 631 31 32 657 656 
7 8 633 632 32 33 658 657 
8 9 634 633 33 34 659 658 
9 10 635 634 34 35 660 659 
10 11 636 635 35 36 661 660 
11 12 637 636 36 37 662 661 
12 13 638 637 37 38 663 662 
13 14 639 638 38 39 664 663 
14 15 640 639 39 40 665 664 
15 16 641 640 40 41 666 665 
16 17 642 641 41 42 667 666 
17 18 643 642 42 43 668 667 
18 19 644 643 43 44 669 668 
19 20 645 644 44 45 670 669 
20 21 646 645 45 46 671 670 
21 22 647 646 46 47 672 671 
22 23 648 647 47 48 673 672 
23 24 649 648 48 49 674 673 
25 26 651 650 50 51 676 675 
26 27 652 651 51 52 677 676 
27 28 653 652 52 53 678 677 
28 29 654 653 53 54 679 678 
29 30 655 654 54 55 680 679 
30 31 656 655 55 56 681 680 
31 32 657 656 56 57 682 681 
32 33 658 657 57 58 683 682 
33 34 659 658 58 59 684 683 
34 35 660 659 59 60 685 684 
35 36 661 660 60 61 686 685 
36 37 662 661 61 62 687 686 
37 38 663 662 62 63 688 687 
38 39 664 663 63 64 689 688 
39 40 665 664 64 65 690 689 
40 41 666 665 65 66 691 690 
41 42 667 666 66 67 692 691 
42 43 668 667 67 68 693 692 
43 44 669 668 68 69 694 693 
44 45 670 669 69 70 695 694 
45 46 671 670 70 71 696 695 
46 47 672 671 71 72 697 696 
47 48 673 672 72 73 698 697 
48 49 674 673 73 74 699 698 
50 51 676 675 75 76 701 700 
51 52 677 676 76 77 702 701 
52 53 678 677 77 78 703 702 
53 54 679 678 78 79 704 703 
54 55 680 679 79 80 705 704 
55 56 681 680 80 81 706 705 
56 57 682 681 81 82 707 706 
57 58 683 682 82 83 708 707 
58 59 684 683 83 84 709 708 
59 60 685 684 84 85 710 709 
60 61 686 685 85 86 711 710 
61 62 687 686 86 87 712 711 
62 63 688 687 87 88 713 712 
63 64 689 688 88 89 714 713 
64 65 690 689 89 90 715 714 
65 66 691 690 90 91 716 715 
66 67 692 691 91 92 717 716 
67 68 693 692 92 93 718 717 
68 69 694 693 93 94 719 718 
69 70 695 694 94 95 720 719 
70 71 696 695 95 96 721 720 
71 72 697 696 96 97 722 721 
72 73 698 697 97 98 723 722 
73 74 699 698 98 99 724 723 
75 76 701 700 100 101 726 725 
76 77 702 701 101 102 727 726 
77 78 703 702 102 103 728 727 
78 79 704 703 103 104 729 728 
79 80 705 704 104 105 730 729 
80 81 706 705 105 106 731 730 
81 82 707 706 106 107 732 731 
82 83 708 707 107 108 733 732 
83 84 709 708 108 109 734 733 
84 85 710 709 109 110 735 734 
85 86 711 710 110 111 736 735 
86 87 712 711 111 112 737 736 
87 88 713 712 112 113 738 737 
88 89 714 713 113 114 739 738 
89 90 715 714 114 115 740 739 
90 91 716 715 115 116 741 740 
91 92 717 716 116 117 742 741 
92 93 718 717 117 118 743 742 
93 94 719 718 118 119 744 743 
94 95 720 719 119 120 745 744 
95 96 721 720 120 121 746 745 
96 97 722 721 121 122 747 746 
97 98 723 722 122 123 748 747 
98 99 724 723 123 124 749 748 
100 101 726 725 125 126 751 750 
101 102 727 726 126 127 752 751 
102 103 728 727 127 128 753 752 
103 104 729 728 128 129 754 753 
104 105 730 729 129 130 755 754 
105 106 731 730 130 131 756 755 
106 107 732 731 131 132 757 756 
107 108 733 732 132 133 758 757 
108 109 734 733 133 134 759 758 
109 110 735 734 134 135 760 759 
110 111 736 735 135 136 761 760 
111 112 737 736 136 137 762 761 
112 113 738 737 137 138 763 762 
113 114 739 738 138 139 764 763 
114 115 740 739 139 140 765 764 
115 116 741 740 140 141 766 765 
116 117 742 741 141 142 767 766 
117 118 743 742 142 143 768 767 
118 119 744 743 143 144 769 768 
119 120 745 744 144 145 770 769 
120 121 746 745 145 146 771 770 
121 122 747 746 146 147 772 771 
122 123 748 747 147 148 773 772 
123 124 749 748 148 149 774 773 
125 126 751 750 150 151 776 775 
126 127 752 751 151 152 777 776 
127 128 753 752 152 153 778 777 
128 129 754 753 153 154 779 778 
129 130 755 754 154 155 780 779 
130 131 756 755 155 156 781 780 
131 132 757 756 156 157 782 781 
132 133 758 757 157 158 783 782 
133 134 759 758 158 159 784 783 
134 135 760 759 159 160 785 784 
135 136 761 760 160 161 786 785 
136 137 762 761 161 162 787 786 
137 138 763 762 162 163 788 787 
138 139 764 763 163 164 789 788 
139 140 765 764 164 165 790 789 
140 141 766 765 165 166 791 790 
141 142 767 766 166 167 792 791 
142 143 768 767 167 168 793 792 
143 144 769 768 168 169 794 793 
144 145 770 769 169 170 795 794 
145 146 771 770 170 171 796 795 
146 147 772 771 171 172 797 796 
147 148 773 772 172 173 798 797 
148 149 774 773 173 174 799 798 
150 151 776 775 175 176 801 800 
151 152 777 776 176 177 802 801 
152 153 778 777 177 178 803 802 
153 154 779 778 178 179 804 803 
154 155 780 779 179 180 805 804 
155 156 781 780 180 181 806 805 
156 157 782 781 181 182 807 806 
157 158 783 782 182 183 808 807 
158 159 784 783 183 184 809 808 
159 160 785 784 184 185 810 809 
160 161 786 785 185 186 811 810 
161 162 787 786 186 187 812 811 
162 163 788 787 187 188 813 812 
163 164 789 788 188 189 814 813 
164 165 790 789 189 190 815 814 
165 166 791 790 190 191 816 815 
166 167 792 791 191 192 817 816 
167 168 793 792 192 193 818 817 
168 169 794 793 193 194 819 818 
169 170 795 794 194 195 820 819 
170 171 796 795 195 196 821 820 
171 172 797 796 196 197 822 821 
172 173 798 797 197 198 823 822 
173 174 799 798 198 199 824 823 
175 176 801 800 200 201 826 825 
176 177 802 801 201 202 827 826 
177 178 803 802 202 203 828 827 
178 179 804 803 203 204 829 828 
179 180 805 804 204 205 830 829 
180 181 806 805 205 206 831 830 
181 182 807 806 206 207 832 831 
182 183 808 807 207 208 833 832 
183 184 809 808 208 209 834 833 
184 185 810 809 209 210 835 834 
185 186 811 810 210 211 836 835 
186 187 812 811 211 212 837 836 
187 188 813 812 212 213 838 837 
188 189 814 813 213 214 839 838 
189 190 815 814 214 215 840 839 
190 191 816 815 215 216 841 840 
191 192 817 816 216 217 842 841 
192 193 818 817 217 218 843 842 
193 194 819 818 218 219 844 843 
194 195 820 819 219 220 845 844 
195 196 821 820 220 221 846 845 
196 197 822 821 221 222 847 846 
197 198 823 822 222 223 848 847 
198 199 824 823 223 224 849 848 
200 201 826 825 225 226 851 850 
201 202 827 826 226 227 852 851 
202 203 828 827 227 228 853 852 
203 204 829 828 228 229 854 853 
204 205 830 829 229 230 855 854 
205 206 831 830 230 231 856 855 
206 207 832 831 231 232 857 856 
207 208 833 832 232 233 858 857 
208 209 834 833 233 234 859 858 
209 210 835 834 234 235 860 859 
210 211 836 835 235 236 861 860 
211 212 837 836 236 237 862 861 
212 213 838 837 237 238 863 862 
213 214 839 838 238 239 864 863 
214 215 840 839 239 240 865 864 
215 216 841 840 240 241 866 865 
216 217 842 841 241 242 867 866 
217 218 843 842 242 243 868 867 
218 219 844 843 243 244 869 868 
219 220 845 844 244 245 870 869 
220 221 846 845 245 246 871 870 
221 222 847 846 246 247 872 871 
222 223 848 847 247 248 873 872 
223 224 849 848 248 249 874 873 
225 226 851 850 250 251 876 875 
226 227 852 851 251 252 877 876 
227 228 853 852 252 253 878 877 
228 229 854 853 253 254 879 878 
229 230 855 854 254 255 880 879 
230 231 856 855 255 256 881 880 
231 232 857 856 256 257 882 881 
232 233 858 857 257 258 883 882 
233 234 859 858 258 259 884 883 
234 235 860 859 259 260 885 884 
235 236 861 860 260 261 886 885 
236 237 862 861 261 262 887 886 
237 238 863 862 262 263 888 887 
238 239 864 863 263 264 889 888 
239 240 865 864 264 265 890 889 
240 241 866 865 265 266 891 890 
241 242 867 866 266 267 892 891 
242 243 868 867 267 268 893 892 
243 244 869 868 268 269 894 893 
244 245 870 869 269 270 895 894 
245 246 871 870 270 271 896 895 
246 247 872 871 271 272 897 896 
247 248 873 872 272 273 898 897 
248 249 874 873 273 274 899 898 
250 251 876 875 275 276 901 900 
251 252 877 876 276 277 902 901 
252 253 878 877 277 278 903 902 
253 254 879 878 278 279 904 903 
254 255 880 879 279 280 905 904 
255 256 881 880 280 281 906 905 
256 257 882 881 281 282 907 906 
257 258 883 882 282 283 908 907 
258 259 884 883 283 284 909 908 
259 260 885 884 284 285 910 909 
260 261 886 885 285 286 911 910 
261 262 887 886 286 287 912 911 
262 263 888 887 287 288 913 912 
263 264 889 888 288 289 914 913 
264 265 890 889 289 290 915 914 
265 266 891 890 290 291 916 915 
266 267 892 891 291 292 917 916 
267 268 893 892 292 293 918 917 
268 269 894 893 293 294 919 918 
269 270 895 894 294 295 920 919 
270 271 896 895 295 296 921 920 
271 272 897 896 296 297 922 921 
272 273 898 897 297 298 923 922 
273 274 899 898 298 299 924 923 
275 276 901 900 300 301 926 925 
276 277 902 901 301 302 927 926 
277 278 903 902 302 303 928 927 
278 279 904 903 303 304 929 928 
279 280 905 904 304 305 930 929 
280 281 906 905 305 306 931 930 
281 282 907 906 306 307 932 931 
282 283 908 907 307 308 933 932 
283 284 909 908 308 309 934 933 
284 285 910 909 309 310 935 934 
285 286 911 910 310 311 936 935 
286 287 912 911 311 312 937 936 
287 288 913 912 312 313 938 937 
288 289 914 913 313 314 939 938 
289 290 915 914 314 315 940 939 
290 291 916 915 315 316 941 940 
291 292 917 916 316 317 942 941 
292 293 918 917 317 318 943 942 
293 294 919 918 318 319 944 943 
294 295 920 919 319 320 945 944 
295 296 921 920 320 321 946 945 
296 297 922 921 321 322 947 946 
297 298 923 922 322 323 948 947 
298 299 924 923 323 324 949 948 
300 301 926 925 325 326 951 950 
301 302 927 926 326 327 952 951 
302 303 928 927 327 328 953 952 
303 304 929 928 328 329 954 953 
304 305 930 929 329 330 955 954 
305 306 931 930 330 331 956 955 
306 307 932 931 331 332 957 956 
307 308 933 932 332 333 958 957 
308 309 934 933 333 334 959 958 
309 310 935 934 334 335 960 959 
310 311 936 935 335 336 961 960 
311 312 937 936 336 337 962 961 
312 313 938 937 337 338 963 962 
313 314 939 938 338 339 964 963 
314 315 940 939 339 340 965 964 
315 316 941 940 340 341 966 965 
316 317 942 941 341 342 967 966 
317 318 943 942 342 343 968 967 
318 319 944 943 343 344 969 968 
319 320 945 944 344 345 970 969 
320 321 946 945 345 346 971 970 
321 322 947 946 346 347 972 971 
322 323 948 947 347 348 973 972 
323 324 949 948 348 349 974 973 
325 326 951 950 350 351 976 975 
326 327 952 951 351 352 977 976 
327 328 953 952 352 353 978 977 
328 329 954 953 353 354 979 978 
329 330 955 954 354 355 980 979 
330 331 956 955 355 356 981 980 
331 332 957 956 356 357 982 981 
332 333 958 957 357 358 983 982 
333 334 959 958 358 359 984 983 
334 335 960 959 359 360 985 984 
335 336 961 960 360 361 986 985 
336 337 962 961 361 362 987 986 
337 338 963 962 362 363 988 987 
338 339 964 963 363 364 989 988 
339 340 965 964 364 365 990 989 
340 341 966 965 365 366 991 990 
341 342 967 966 366 367 992 991 
342 343 968 967 367 368 993 992 
343 344 969 968 368 369 994 993 
344 345 970 969 369 370 995 994 
345 346 971 970 370 371 996 995 
346 347 972 971 371 372 997 996 
347 348 973 972 372 373 998 997 
348 349 974 973 373 374 999 998 
350 351 976 975 375 376 1001 1000 
351 352 977 976 376 377 1002 1001 
352 353 978 977 377 378 1003 1002 
353 354 979 978 378 379 1004 1003 
354 355 980 979 379 380 1005 1004 
355 356 981 980 380 381 1006 1005 
356 357 982 981 381 382 1007 1006 
357 358 983 982 382 383 1008 1007 
358 359 984 983 383 384 1009 1008 
359 360 985 984 384 385 1010 1009 
360 361 986 985 385 386 1011 1010 
361 362 987 986 386 387 1012 1011 
362 363 988 987 387 388 1013 1012 
363 364 989 988 388 389 1014 1013 
364 365 990 989 389 390 1015 1014 
365 366 991 990 390 391 1016 1015 
366 367 992 991 391 392 1017 1016 
367 368 993 992 392 393 1018 1017 
368 369 994 993 393 394 1019 1018 
369 370 995 994 394 395 1020 1019 
370 371 996 995 395 396 1021 1020 
371 372 997 996 396 397 1022 1021 
372 373 998 997 397 398 1023 1022 
373 374 999 998 398 399 1024 1023 
375 376 1001 1000 400 401 1026 1025 
376 377 1002 1001 401 402 1027 1026 
377 378 1003 1002 402 403 1028 1027 
378 379 1004 1003 403 404 1029 1028 
379 380 1005 1004 404 405 1030 1029 
380 381 1006 1005 405 406 1031 1030 
381 382 1007 1006 406 407 1032 1031 
382 383 1008 1007 407 408 1033 1032 
383 384 1009 1008 408 409 1034 1033 
384 385 1010 1009 409 410 1035 1034 
385 386 1011 1010 410 411 1036 1035 
386 387 1012 1011 411 412 1037 1036 
387 388 1013 1012 412 413 1038 1037 
388 389 1014 1013 413 414 1039 1038 
389 390 1015 1014 414 415 1040 1039 
390 391 1016 1015 415 416 1041 1040 
391 392 1017 1016 416 417 1042 1041 
392 393 1018 1017 417 418 1043 1042 
393 394 1019 1018 418 419 1044 1043 
394 395 1020 1019 419 420 1045 1044 
395 396 1021 1020 420 421 1046 1045 
396 397 1022 1021 421 422 1047 1046 
397 398 1023 1022 422 423 1048 1047 
398 399 1024 1023 423 424 1049 1048 
400 401 1026 1025 425 426 1051 1050 
401 402 1027 1026 426 427 1052 1051 
402 403 1028 1027 427 428 1053 1052 
403 404 1029 1028 428 429 1054 1053 
404 405 1030 1029 429 430 1055 1054 
405 406 1031 1030 430 431 1056 1055 
406 407 1032 1031 431 432 1057 1056 
407 408 1033 1032 432 433 1058 1057 
408 409 1034 1033 433 434 1059 1058 
409 410 1035 1034 434 435 1060 1059 
410 411 1036 1035 435 436 1061 1060 
411 412 1037 1036 436 437 1062 1061 
412 413 1038 1037 437 438 1063 1062 
413 414 1039 1038 438 439 1064 1063 
414 415 1040 1039 439 440 1065 1064 
415 416 1041 1040 440 441 1066 1065 
416 417 1042 1041 441 442 1067 1066 
417 418 1043 1042 442 443 1068 1067 
418 419 1044 1043 443 444 1069 1068 
419 420 1045 1044 444 445 1070 1069 
420 421 1046 1045 445 446 1071 1070 
421 422 1047 1046 446 447 1072 1071 
422 423 1048 1047 447 448 1073 1072 
423 424 1049 1048 448 449 1074 1073 
425 426 1051 1050 450 451 1076 1075 
426 427 1052 1051 451 452 1077 1076 
427 428 1053 1052 452 453 1078 1077 
428 429 1054 1053 453 454 1079 1078 
429 430 1055 1054 454 455 1080 1079 
430 431 1056 1055 455 456 1081 1080 
431 432 1057 1056 456 457 1082 1081 
432 433 1058 1057 457 458 1083 1082 
433 434 1059 1058 458 459 1084 1083 
434 435 1060 1059 459 460 1085 1084 
435 436 1061 1060 460 461 1086 1085 
436 437 1062 1061 461 462 1087 1086 
437 438 1063 1062 462 463 1088 1087 
438 439 1064 1063 463 464 1089 1088 
439 440 1065 1064 464 465 1090 1089 
440 441 1066 1065 465 466 1091 1090 
441 442 1067 1066 466 467 1092 1091 
442 443 1068 1067 467 468 1093 1092 
443 444 1069 1068 468 469 1094 1093 
444 445 1070 1069 469 470 1095 1094 
445 446 1071 1070 470 471 1096 1095 
446 447 1072 1071 471 472 1097 1096 
447 448 1073 1072 472 473 1098 1097 
448 449 1074 1073 473 474 1099 1098 
450 451 1076 1075 475 476 1101 1100 
451 452 1077 1076 476 477 1102 1101 
452 453 1078 1077 477 478 1103 1102 
453 454 1079 1078 478 479 1104 1103 
454 455 1080 1079 479 480 1105 1104 
455 456 1081 1080 480 481 1106 1105 
456 457 1082 1081 481 482 1107 1106 
457 458 1083 1082 482 483 1108 1107 
458 459 1084 1083 483 484 1109 1108 
459 460 1085 1084 484 485 1110 1109 
460 461 1086 1085 485 486 1111 1110 
461 462 1087 1086 486 487 1112 1111 
462 463 1088 1087 487 488 1113 1112 
463 464 1089 1088 488 489 1114 1113 
464 465 1090 1089 489 490 1115 1114 
465 466 1091 1090 490 491 1116 1115 
466 467 1092 1091 491 492 1117 1116 
467 468 1093 1092 492 493 1118 1117 
468 469 1094 1093 493 494 1119 1118 
469 470 1095 1094 494 495 1120 1119 
470 471 1096 1095 495 496 1121 1120 
471 472 1097 1096 496 497 1122 1121 
472 473 1098 1097 497 498 1123 1122 
473 474 1099 1098 498 499 1124 1123 
475 476 1101 1100 500 501 1126 1125 
476 477 1102 1101 501 502 1127 1126 
477 478 1103 1102 502 503 1128 1127 
478 479 1104 1103 503 504 1129 1128 
479 480 1105 1104 504 505 1130 1129 
480 481 1106 1105 505 506 1131 1130 
481 482 1107 1106 506 507 1132 1131 
482 483 1108 1107 507 508 1133 1132 
483 484 1109 1108 508 509 1134 1133 
484 485 1110 1109 509 510 1135 1134 
485 486 1111 1110 510 511 1136 1135 
486 487 1112 1111 511 512 1137 1136 
487 488 1113 1112 512 513 1138 1137 
488 489 1114 1113 513 514 1139 1138 
489 490 1115 1114 514 515 1140 1139 
490 491 1116 1115 515 516 1141 1140 
491 492 1117 1116 516 517 1142 1141 
492 493 1118 1117 517 518 1143 1142 
493 494 1119 1118 518 519 1144 1143 
494 495 1120 1119 519 520 1145 1144 
495 496 1121 1120 520 521 1146 1145 
496 497 1122 1121 521 522 1147 1146 
497 498 1123 1122 522 523 1148 1147 
498 499 1124 1123 523 524 1149 1148 
500 501 1126 1125 525 526 1151 1150 
501 502 1127 1126 526 527 1152 1151 
502 503 1128 1127 527 528 1153 1152 
503 504 1129 1128 528 529 1154 1153 
504 505 1130 1129 529 530 1155 1154 
505 506 1131 1130 530 531 1156 1155 
506 507 1132 1131 531 532 1157 1156 
507 508 1133 1132 532 533 1158 1157 
508 509 1134 1133 533 534 1159 1158 
509 510 1135 1134 534 535 1160 1159 
510 511 1136 1135 535 536 1161 1160 
511 512 1137 1136 536 537 1162 1161 
512 513 1138 1137 537 538 1163 1162 
513 514 1139 1138 538 539 1164 1163 
514 515 1140 1139 539 540 1165 1164 
515 516 1141 1140 540 541 1166 1165 
516 517 1142 1141 541 542 1167 1166 
517 518 1143 1142 542 543 1168 1167 
518 519 1144 1143 543 544 1169 1168 
519 520 1145 1144 544 545 1170 1169 
520 521 1146 1145 545 546 1171 1170 
521 522 1147 1146 546 547 1172 1171 
522 523 1148 1147 547 548 1173 1172 
523 524 1149 1148 548 549 1174 1173 
525 526 1151 1150 550 551 1176 1175 
526 527 1152 1151 551 552 1177 1176 
527 528 1153 1152 552 553 1178 1177 
528 529 1154 1153 553 554 1179 1178 
529 530 1155 1154 554 555 1180 1179 
530 531 1156 1155 555 556 1181 1180 
531 532 1157 1156 556 557 1182 1181 
532 533 1158 1157 557 558 1183 1182 
533 534 1159 1158 558 559 1184 1183 
534 535 1160 1159 559 560 1185 1184 
535 536 1161 1160 560 561 1186 1185 
536 537 1162 1161 561 562 1187 1186 
537 538 1163 1162 562 563 1188 1187 
538 539 1164 1163 563 564 1189 1188 
539 540 1165 1164 564 565 1190 1189 
540 541 1166 1165 565 566 1191 1190 
541 542 1167 1166 566 567 1192 1191 
542 543 1168 1167 567 568 1193 1192 
543 544 1169 1168 568 569 1194 1193 
544 545 1170 1169 569 570 1195 1194 
545 546 1171 1170 570 571 1196 1195 
546 547 1172 1171 571 572 1197 1196 
547 548 1173 1172 572 573 1198 1197 
548 549 1174 1173 573 574 1199 1198 
550 551 1176 1175 575 576 1201 1200 
551 552 1177 1176 576 577 1202 1201 
552 553 1178 1177 577 578 1203 1202 
553 554 1179 1178 578 579 1204 1203 
554 555 1180 1179 579 580 1205 1204 
555 556 1181 1180 580 581 1206 1205 
556 557 1182 1181 581 582 1207 1206 
557 558 1183 1182 582 583 1208 1207 
558 559 1184 1183 583 584 1209 1208 
559 560 1185 1184 584 585 1210 1209 
560 561 1186 1185 585 586 1211 1210 
561 562 1187 1186 586 587 1212 1211 
562 563 1188 1187 587 588 1213 1212 
563 564 1189 1188 588 589 1214 1213 
564 565 1190 1189 589 590 1215 1214 
565 566 1191 1190 590 591 1216 1215 
566 567 1192 1191 591 592 1217 1216 
567 568 1193 1192 592 593 1218 1217 
568 569 1194 1193 593 594 1219 1218 
569 570 1195 1194 594 595 1220 1219 
570 571 1196 1195 595 596 1221 1220 
571 572 1197 1196 596 597 1222 1221 
572 573 1198 1197 597 598 1223 1222 
573 574 1199 1198 598 599 1224 1223 
575 576 1201 1200 600 601 1226 1225 
576 577 1202 1201 601 602 1227 1226 
577 578 1203 1202 602 603 1228 1227 
578 579 1204 1203 603 604 1229 1228 
579 580 1205 1204 604 605 1230 1229 
580 581 1206 1205 605 606 1231 1230 
581 582 1207 1206 606 607 1232 1231 
582 583 1208 1207 607 608 1233 1232 
583 584 1209 1208 608 609 1234 1233 
584 585 1210 1209 609 610 1235 1234 
585 586 1211 1210 610 611 1236 1235 
586 587 1212 1211 611 612 1237 1236 
587 588 1213 1212 612 613 1238 1237 
588 589 1214 1213 613 614 1239 1238 
589 590 1215 1214 614 615 1240 1239 
590 591 1216 1215 615 616 1241 1240 
591 592 1217 1216 616 617 1242 1241 
592 593 1218 1217 617 618 1243 1242 
593 594 1219 1218 618 619 1244 1243 
594 595 1220 1219 619 620 1245 1244 
595 596 1221 1220 620 621 1246 1245 
596 597 1222 1221 621 622 1247 1246 
597 598 1223 1222 622 623 1248 1247 
598 599 1224 1223 623 624 1249 1248 
625 626 1251 1250 650 651 1276 1275 
626 627 1252 1251 651 652 1277 1276 
627 628 1253 1252 652 653 1278 1277 
628 629 1254 1253 653 654 1279 1278 
629 630 1255 1254 654 655 1280 1279 
630 631 1256 1255 655 656 1281 1280 
631 632 1257 1256 656 657 1282 1281 
632 633 1258 1257 657 658 1283 1282 
633 634 1259 1258 658 659 1284 1283 
634 635 1260 1259 659 660 1285 1284 
635 636 1261 1260 660 661 1286 1285 
636 637 1262 1261 661 662 1287 1286 
637 638 1263 1262 662 663 1288 1287 
638 639 1264 1263 663 664 1289 1288 
639 640 1265 1264 664 665 1290 1289 
640 641 1266 1265 665 666 1291 1290 
641 642 1267 1266 666 667 1292 1291 
642 643 1268 1267 667 668 1293 1292 
643 644 1269 1268 668 669 1294 1293 
644 645 1270 1269 669 670 1295 1294 
645 646 1271 1270 670 671 1296 1295 
646 647 1272 1271 671 672 1297 1296 
647 648 1273 1272 672 673 1298 1297 
648 649 1274 1273 673 674 1299 1298 
650 651 1276 1275 675 676 1301 1300 
651 652 1277 1276 676 677 1302 1301 
652 653 1278 1277 677 678 1303 1302 
653 654 1279 1278 678 679 1304 1303 
654 655 1280 1279 679 680 1305 1304 
655 656 1281 1280 680 681 1306 1305 
656 657 1282 1281 681 682 1307 1306 
657 658 1283 1282 682 683 1308 1307 
658 659 1284 1283 683 684 1309 1308 
659 660 1285 1284 684 685 1310 1309 
660 661 1286 1285 685 686 1311 1310 
661 662 1287 1286 686 687 1312 1311 
662 663 1288 1287 687 688 1313 1312 
663 664 1289 1288 688 689 1314 1313 
664 665 1290 1289 689 690 1315 1314 
665 666 1291 1290 690 691 1316 1315 
666 667 1292 1291 691 692 1317 1316 
667 668 1293 1292 692 693 1318 1317 
668 669 1294 1293 693 694 1319 1318 
669 670 1295 1294 694 695 1320 1319 
670 671 1296 1295 695 696 1321 1320 
671 672 1297 1296 696 697 1322 1321 
672 673 1298 1297 697 698 1323 1322 
673 674 1299 1298 698 699 1324 1323 
675 676 1301 1300 700 701 1326 1325 
676 677 1302 1301 701 702 1327 1326 
677 678 1303 1302 702 703 1328 1327 
678 679 1304 1303 703 704 1329 1328 
679 680 1305 1304 704 705 1330 1329 
680 681 1306 1305 705 706 1331 1330 
681 682 1307 1306 706 707 1332 1331 
682 683 1308 1307 707 708 1333 1332 
683 684 1309 1308 708 709 1334 1333 
684 685 1310 1309 709 710 1335 1334 
685 686 1311 1310 710 711 1336 1335 
686 687 1312 1311 711 712 1337 1336 
687 688 1313 1312 712 713 1338 1337 
688 689 1314 1313 713 714 1339 1338 
689 690 1315 1314 714 715 1340 1339 
690 691 1316 1315 715 716 1341 1340 
691 692 1317 1316 716 717 1342 1341 
692 693 1318 1317 717 718 1343 1342 
693 694 1319 1318 718 719 1344 1343 
694 695 1320 1319 719 720 1345 1344 
695 696 1321 1320 720 721 1346 1345 
696 697 1322 1321 721 722 1347 1346 
697 698 1323 1322 722 723 1348 1347 
698 699 1324 1323 723 724 1349 1348 
700 701 1326 1325 725 726 1351 1350 
701 702 1327 1326 726 727 1352 1351 
702 703 1328 1327 727 728 1353 1352 
703 704 1329 1328 728 729 1354 1353 
704 705 1330 1329 729 730 1355 1354 
705 706 1331 1330 730 731 1356 1355 
706 707 1332 1331 731 732 1357 1356 
707 708 1333 1332 732 733 1358 1357 
708 709 1334 1333 733 734 1359 1358 
709 710 1335 1334 734 735 1360 1359 
710 711 1336 1335 735 736 1361 1360 
711 712 1337 1336 736 737 1362 1361 
712 713 1338 1337 737 738 1363 1362 
713 714 1339 1338 738 739 1364 1363 
714 715 1340 1339 739 740 1365 1364 
715 716 1341 1340 740 741 1366 1365 
716 717 1342 1341 741 742 1367 1366 
717 718 1343 1342 742 743 1368 1367 
718 719 1344 1343 743 744 1369 1368 
719 720 1345 1344 744 745 1370 1369 
720 721 1346 1345 745 746 1371 1370 
721 722 1347 1346 746 747 1372 1371 
722 723 1348 1347 747 748 1373 1372 
723 724 1349 1348 748 749 1374 1373 
725 726 1351 1350 750 751 1376 1375 
726 727 1352 1351 751 752 1377 1376 
727 728 1353 1352 752 753 1378 1377 
728 729 1354 1353 753 754 1379 1378 
729 730 1355 1354 754 755 1380 1379 
730 731 1356 1355 755 756 1381 1380 
731 732 1357 1356 756 757 1382 1381 
732 733 1358 1357 757 758 1383 1382 
733 734 1359 1358 758 759 1384 1383 
734 735 1360 1359 759 760 1385 1384 
735 736 1361 1360 760 761 1386 1385 
736 737 1362 1361 761 762 1387 1386 
737 738 1363 1362 762 763 1388 1387 
738 739 1364 1363 763 764 1389 1388 
739 740 1365 1364 764 765 1390 1389 
740 741 1366 1365 765 766 1391 1390 
741 742 1367 1366 766 767 1392 1391 
742 743 1368 1367 767 768 1393 1392 
743 744 1369 1368 768 769 1394 1393 
744 745 1370 1369 769 770 1395 1394 
745 746 1371 1370 770 771 1396 1395 
746 747 1372 1371 771 772 1397 1396 
747 748 1373 1372 772 773 1398 1397 
748 749 1374 1373 773 774 1399 1398 
750 751 1376 1375 775 776 1401 1400 
751 752 1377 1376 776 777 1402 1401 
752 753 1378 1377 777 778 1403 1402 
753 754 1379 1378 778 779 1404 1403 
754 755 1380 1379 779 780 1405 1404 
755 756 1381 1380 780 781 1406 1405 
756 757 1382 1381 781 782 1407 1406 
757 758 1383 1382 782 783 1408 1407 
758 759 1384 1383 783 784 1409 1408 
759 760 1385 1384 784 785 1410 1409 
760 761 1386 1385 785 786 1411 1410 
761 762 1387 1386 786 787 1412 1411 
762 763 1388 1387 787 788 1413 1412 
763 764 1389 1388 788 789 1414 1413 
764 765 1390 1389 789 790 1415 1414 
765 766 1391 1390 790 791 1416 1415 
766 767 1392 1391 791 792 1417 1416 
767 768 1393 1392 792 793 1418 1417 
768 769 1394 1393 793 794 1419 1418 
769 770 1395 1394 794 795 1420 1419 
770 771 1396 1395 795 796 1421 1420 
771 772 1397 1396 796 797 1422 1421 
772 773 1398 1397 797 798 1423 1422 
773 774 1399 1398 798 799 1424 1423 
775 776 1401 1400 800 801 1426 1425 
776 777 1402 1401 801 802 1427 1426 
777 778 1403 1402 802 803 1428 1427 
778 779 1404 1403 803 804 1429 1428 
779 780 1405 1404 804 805 1430 1429 
780 781 1406 1405 805 806 1431 1430 
781 782 1407 1406 806 807 1432 1431 
782 783 1408 1407 807 808 1433 1432 
783 784 1409 1408 808 809 1434 1433 
784 785 1410 1409 809 810 1435 1434 
785 786 1411 1410 810 811 1436 1435 
786 787 1412 1411 811 812 1437 1436 
787 788 1413 1412 812 813 1438 1437 
788 789 1414 1413 813 814 1439 1438 
789 790 1415 1414 814 815 1440 1439 
790 791 1416 1415 815 816 1441 1440 
791 792 1417 1416 816 817 1442 1441 
792 793 1418 1417 817 818 1443 1442 
793 794 1419 1418 818 819 1444 1443 
794 795 1420 1419 819 820 1445 1444 
795 796 1421 1420 820 821 1446 1445 
796 797 1422 1421 821 822 1447 1446 
797 798 1423 1422 822 823 1448 1447 
798 799 1424 1423 823 824 1449 1448 
800 801 1426 1425 825 826 1451 1450 
801 802 1427 1426 826 827 1452 1451 
802 803 1428 1427 827 828 1453 1452 
803 804 1429 1428 828 829 1454 1453 
804 805 1430 1429 829 830 1455 1454 
805 806 1431 1430 830 831 1456 1455 
806 807 1432 1431 831 832 1457 1456 
807 808 1433 1432 832 833 1458 1457 
808 809 1434 1433 833 834 1459 1458 
809 810 1435 1434 834 835 1460 1459 
810 811 1436 1435 835 836 1461 1460 
811 812 1437 1436 836 837 1462 1461 
812 813 1438 1437 837 838 1463 1462 
813 814 1439 1438 838 839 1464 1463 
814 815 1440 1439 839 840 1465 1464 
815 816 1441 1440 840 841 1466 1465 
816 817 1442 1441 841 842 1467 1466 
817 818 1443 1442 842 843 1468 1467 
818 819 1444 1443 843 844 1469 1468 
819 820 1445 1444 844 845 1470 1469 
820 821 1446 1445 845 846 1471 1470 
821 822 1447 1446 846 847 1472 1471 
822 823 1448 1447 847 848 1473 1472 
823 824 1449 1448 848 849 1474 1473 
825 826 1451 1450 850 851 1476 1475 
826 827 1452 1451 851 852 1477 1476 
827 828 1453 1452 852 853 1478 1477 
828 829 1454 1453 853 854 1479 1478 
829 830 1455 1454 854 855 1480 1479 
830 831 1456 1455 855 856 1481 1480 
831 832 1457 1456 856 857 1482 1481 
832 833 1458 1457 857 858 1483 1482 
833 834 1459 1458 858 859 1484 1483 
834 835 1460 1459 859 860 1485 1484 
835 836 1461 1460 860 861 1486 1485 
836 837 1462 1461 861 862 1487 1486 
837 838 1463 1462 862 863 1488 1487 
838 839 1464 1463 863 864 1489 1488 
839 840 1465 1464 864 865 1490 1489 
840 841 1466 1465 865 866 1491 1490 
841 842 1467 1466 866 867 1492 1491 
842 843 1468 1467 867 868 1493 1492 
843 844 1469 1468 868 869 1494 1493 
844 845 1470 1469 869 870 1495 1494 
845 846 1471 1470 870 871 1496 1495 
846 847 1472 1471 871 872 1497 1496 
847 848 1473 1472 872 873 1498 1497 
848 849 1474 1473 873 874 1499 1498 
850 851 1476 1475 875 876 1501 1500 
851 852 1477 1476 876 877 1502 1501 
852 853 1478 1477 877 878 1503 1502 
853 854 1479 1478 878 879 1504 1503 
854 855 1480 1479 879 880 1505 1504 
855 856 1481 1480 880 881 1506 1505 
856 857 1482 1481 881 882 1507 1506 
857 858 1483 1482 882 883 1508 1507 
858 859 1484 1483 883 884 1509 1508 
859 860 1485 1484 884 885 1510 1509 
860 861 1486 1485 885 886 1511 1510 
861 862 1487 1486 886 887 1512 1511 
862 863 1488 1487 887 888 1513 1512 
863 864 1489 1488 888 889 1514 1513 
864 865 1490 1489 889 890 1515 1514 
865 866 1491 1490 890 891 1516 1515 
866 867 1492 1491 891 892 1517 1516 
867 868 1493 1492 892 893 1518 1517 
868 869 1494 1493 893 894 1519 1518 
869 870 1495 1494 894 895 1520 1519 
870 871 1496 1495 895 896 1521 1520 
871 872 1497 1496 896 897 1522 1521 
872 873 1498 1497 897 898 1523 1522 
873 874 1499 1498 898 899 1524 1523 
875 876 1501 1500 900 901 1526 1525 
876 877 1502 1501 901 902 1527 1526 
877 878 1503 1502 902 903 1528 1527 
878 879 1504 1503 903 904 1529 1528 
879 880 1505 1504 904 905 1530 1529 
880 881 1506 1505 905 906 1531 1530 
881 882 1507 1506 906 907 1532 1531 
882 883 1508 1507 907 908 1533 1532 
883 884 1509 1508 908 909 1534 1533 
884 885 1510 1509 909 910 1535 1534 
885 886 1511 1510 910 911 1536 1535 
886 887 1512 1511 911 912 1537 1536 
887 888 1513 1512 912 913 1538 1537 
888 889 1514 1513 913 914 1539 1538 
889 890 1515 1514 914 915 1540 1539 
890 891 1516 1515 915 916 1541 1540 
891 892 1517 1516 916 917 1542 1541 
892 893 1518 1517 917 918 1543 1542 
893 894 1519 1518 918 919 1544 1543 
894 895 1520 1519 919 920 1545 1544 
895 896 1521 1520 920 921 1546 1545 
896 897 1522 1521 921 922 1547 1546 
897 898 1523 1522 922 923 1548 1547 
898 899 1524 1523 923 924 1549 1548 
900 901 1526 1525 925 926 1551 1550 
901 902 1527 1526 926 927 1552 1551 
902 903 1528 1527 927 928 1553 1552 
903 904 1529 1528 928 929 1554 1553 
904 905 1530 1529 929 930 1555 1554 
905 906 1531 1530 930 931 1556 1555 
906 907 1532 1531 931 932 1557 1556 
907 908 1533 1532 932 933 1558 1557 
908 909 1534 1533 933 934 1559 1558 
909 910 1535 1534 934 935 1560 1559 
910 911 1536 1535 935 936 1561 1560 
911 912 1537 1536 936 937 1562 1561 
912 913 1538 1537 937 938 1563 1562 
913 914 1539 1538 938 939 1564 1563 
914 915 1540 1539 939 940 1565 1564 
915 916 1541 1540 940 941 1566 1565 
916 917 1542 1541 941 942 1567 1566 
917 918 1543 1542 942 943 1568 1567 
918 919 1544 1543 943 944 1569 1568 
919 920 1545 1544 944 945 1570 1569 
920 921 1546 1545 945 946 1571 1570 
921 922 1547 1546 946 947 1572 1571 
922 923 1548 1547 947 948 1573 1572 
923 924 1549 1548 948 949 1574 1573 
925 926 1551 1550 950 951 1576 1575 
926 927 1552 1551 951 952 1577 1576 
927 928 1553 1552 952 953 1578 1577 
928 929 1554 1553 953 954 1579 1578 
929 930 1555 1554 954 955 1580 1579 
930 931 1556 1555 955 956 1581 1580 
931 932 1557 1556 956 957 1582 1581 
932 933 1558 1557 957 958 1583 1582 
933 934 1559 1558 958 959 1584 1583 
934 935 1560 1559 959 960 1585 1584 
935 936 1561 1560 960 961 1586 1585 
936 937 1562 1561 961 962 1587 1586 
937 938 1563 1562 962 963 1588 1587 
938 939 1564 1563 963 964 1589 1588 
939 940 1565 1564 964 965 1590 1589 
940 941 1566 1565 965 966 1591 1590 
941 942 1567 1566 966 967 1592 1591 
942 943 1568 1567 967 968 1593 1592 
943 944 1569 1568 968 969 1594 1593 
944 945 1570 1569 969 970 1595 1594 
945 946 1571 1570 970 971 1596 1595 
946 947 1572 1571 971 972 1597 1596 
947 948 1573 1572 972 973 1598 1597 
948 949 1574 1573 973 974 1599 1598 
950 951 1576 1575 975 976 1601 1600 
951 952 1577 1576 976 977 1602 1601 
952 953 1578 1577 977 978 1603 1602 
953 954 1579 1578 978 979 1604 1603 
954 955 1580 1579 979 980 1605 1604 
955 956 1581 1580 980 981 1606 1605 
956 957 1582 1581 981 982 1607 1606 
957 958 1583 1582 982 983 1608 1607 
958 959 1584 1583 983 984 1609 1608 
959 960 1585 1584 984 985 1610 1609 
960 961 1586 1585 985 986 1611 1610 
961 962 1587 1586 986 987 1612 1611 
962 963 1588 1587 987 988 1613 1612 
963 964 1589 1588 988 989 1614 1613 
964 965 1590 1589 989 990 1615 1614 
965 966 1591 1590 990 991 1616 1615 
966 967 1592 1591 991 992 1617 1616 
967 968 1593 1592 992 993 1618 1617 
968 969 1594 1593 993 994 1619 1618 
969 970 1595 1594 994 995 1620 1619 
970 971 1596 1595 995 996 1621 1620 
971 972 1597 1596 996 997 1622 1621 
972 973 1598 1597 997 998 1623 1622 
973 974 1599 1598 998 999 1624 1623 
975 976 1601 1600 1000 1001 1626 1625 
976 977 1602 1601 1001 1002 1627 1626 
977 978 1603 1602 1002 1003 1628 1627 
978 979 1604 1603 1003 1004 1629 1628 
979 980 1605 1604 1004 1005 1630 1629 
980 981 1606 1605 1005 1006 1631 1630 
981 982 1607 1606 1006 1007 1632 1631 
982 983 1608 1607 1007 1008 1633 1632 
983 984 1609 1608 1008 1009 1634 1633 
984 985 1610 1609 1009 1010 1635 1634 
985 986 1611 1610 1010 1011 1636 1635 
986 987 1612 1611 1011 1012 1637 1636 
987 988 1613 1612 1012 1013 1638 1637 
988 989 1614 1613 1013 1014 1639 1638 
989 990 1615 1614 1014 1015 1640 1639 
990 991 1616 1615 1015 1016 1641 1640 
991 992 1617 1616 1016 1017 1642 1641 
992 993 1618 1617 1017 1018 1643 1642 
993 994 1619 1618 1018 1019 1644 1643 
994 995 1620 1619 1019 1020 1645 1644 
995 996 1621 1620 1020 1021 1646 1645 
996 997 1622 1621 1021 1022 1647 1646 
997 998 1623 1622 1022 1023 1648 1647 
998 999 1624 1623 1023 1024 1649 1648 
1000 1001 1626 1625 1025 1026 1651 1650 
1001 1002 1627 1626 1026 1027 1652 1651 
1002 1003 1628 1627 1027 1028 1653 1652 
1003 1004 1629 1628 1028 1029 1654 1653 
1004 1005 1630 1629 1029 1030 1655 1654 
1005 1006 1631 1630 1030 1031 1656 1655 
1006 1007 1632 1631 1031 1032 1657 1656 
1007 1008 1633 1632 1032 1033 1658 1657 
1008 1009 1634 1633 1033 1034 1659 1658 
1009 1010 1635 1634 1034 1035 1660 1659 
1010 1011 1636 1635 1035 1036 1661 1660 
1011 1012 1637 1636 1036 1037 1662 1661 
1012 1013 1638 1637 1037 1038 1663 1662 
1013 1014 1639 1638 1038 1039 1664 1663 
1014 1015 1640 1639 1039 1040 1665 1664 
1015 1016 1641 1640 1040 1041 1666 1665 
1016 1017 1642 1641 1041 1042 1667 1666 
1017 1018 1643 1642 1042 1043 1668 1667 
1018 1019 1644 1643 1043 1044 1669 1668 
1019 1020 1645 1644 1044 1045 1670 1669 
1020 1021 1646 1645 1045 1046 1671 1670 
1021 1022 1647 1646 1046 1047 1672 1671 
1022 1023 1648 1647 1047 1048 1673 1672 
1023 1024 1649 1648 1048 1049 1674 1673 
1025 1026 1651 1650 1050 1051 1676 1675 
1026 1027 1652 1651 1051 1052 1677 1676 
1027 1028 1653 1652 1052 1053 1678 1677 
1028 1029 1654 1653 1053 1054 1679 1678 
1029 1030 1655 1654 1054 1055 1680 1679 
1030 1031 1656 1655 1055 1056 1681 1680 
1031 1032 1657 1656 1056 1057 1682 1681 
1032 1033 1658 1657 1057 1058 1683 1682 
1033 1034 1659 1658 1058 1059 1684 1683 
1034 1035 1660 1659 1059 1060 1685 1684 
1035 1036 1661 1660 1060 1061 1686 1685 
1036 1037 1662 1661 1061 1062 1687 1686 
1037 1038 1663 1662 1062 1063 1688 1687 
1038 1039 1664 1663 1063 1064 1689 1688 
1039 1040 1665 1664 1064 1065 1690 1689 
1040 1041 1666 1665 1065 1066 1691 1690 
1041 1042 1667 1666 1066 1067 1692 1691 
1042 1043 1668 1667 1067 1068 1693 1692 
1043 1044 1669 1668 1068 1069 1694 1693 
1044 1045 1670 1669 1069 1070 1695 1694 
1045 1046 1671 1670 1070 1071 1696 1695 
1046 1047 1672 1671 1071 1072 1697 1696 
1047 1048 1673 1672 1072 1073 1698 1697 
1048 1049 1674 1673 1073 1074 1699 1698 
1050 1051 1676 1675 1075 1076 1701 1700 
1051 1052 1677 1676 1076 1077 1702 1701 
1052 1053 1678 1677 1077 1078 1703 1702 
1053 1054 1679 1678 1078 1079 1704 1703 
1054 1055 1680 1679 1079 1080 1705 1704 
1055 1056 1681 1680 1080 1081 1706 1705 
1056 1057 1682 1681 1081 1082 1707 1706 
1057 1058 1683 1682 1082 1083 1708 1707 
1058 1059 1684 1683 1083 1084 1709 1708 
1059 1060 1685 1684 1084 1085 1710 1709 
1060 1061 1686 1685 1085 1086 1711 1710 
1061 1062 1687 1686 1086 1087 1712 1711 
1062 1063 1688 1687 1087 1088 1713 1712 
1063 1064 1689 1688 1088 1089 1714 1713 
1064 1065 1690 1689 1089 1090 1715 1714 
1065 1066 1691 1690 1090 1091 1716 1715 
1066 1067 1692 1691 1091 1092 1717 1716 
1067 1068 1693 1692 1092 1093 1718 1717 
1068 1069 1694 1693 1093 1094 1719 1718 
1069 1070 1695 1694 1094 1095 1720 1719 
1070 1071 1696 1695 1095 1096 1721 1720 
1071 1072 1697 1696 1096 1097 1722 1721 
1072 1073 1698 1697 1097 1098 1723 1722 
1073 1074 1699 1698 1098 1099 1724 1723 
1075 1076 1701 1700 1100 1101 1726 1725 
1076 1077 1702 1701 1101 1102 1727 1726 
1077 1078 1703 1702 1102 1103 1728 1727 
1078 1079 1704 1703 1103 1104 1729 1728 
1079 1080 1705 1704 1104 1105 1730 1729 
1080 1081 1706 1705 1105 1106 1731 1730 
1081 1082 1707 1706 1106 1107 1732 1731 
1082 1083 1708 1707 1107 1108 1733 1732 
1083 1084 1709 1708 1108 1109 1734 1733 
1084 1085 1710 1709 1109 1110 1735 1734 
1085 1086 1711 1710 1110 1111 1736 1735 
1086 1087 1712 1711 1111 1112 1737 1736 
1087 1088 1713 1712 1112 1113 1738 1737 
1088 1089 1714 1713 1113 1114 1739 1738 
1089 1090 1715 1714 1114 1115 1740 1739 
1090 1091 1716 1715 1115 1116 1741 1740 
1091 1092 1717 1716 1116 1117 1742 1741 
1092 1093 1718 1717 1117 1118 1743 1742 
1093 1094 1719 1718 1118 1119 1744 1743 
1094 1095 1720 1719 1119 1120 1745 1744 
1095 1096 1721 1720 1120 1121 1746 1745 
1096 1097 1722 1721 1121 1122 1747 1746 
1097 1098 1723 1722 1122 1123 1748 1747 
1098 1099 1724 1723 1123 1124 1749 1748 
1100 1101 1726 1725 1125 1126 1751 1750 
1101 1102 1727 1726 1126 1127 1752 1751 
1102 1103 1728 1727 1127 1128 1753 1752 
1103 1104 1729 1728 1128 1129 1754 1753 
1104 1105 1730 1729 1129 1130 1755 1754 
1105 1106 1731 1730 1130 1131 1756 1755 
1106 1107 1732 1731 1131 1132 1757 1756 
1107 1108 1733 1732 1132 1133 1758 1757 
1108 1109 1734 1733 1133 1134 1759 1758 
1109 1110 1735 1734 1134 1135 1760 1759 
1110 1111 1736 1735 1135 1136 1761 1760 
1111 1112 1737 1736 1136 1137 1762 1761 
1112 1113 1738 1737 1137 1138 1763 1762 
1113 1114 1739 1738 1138 1139 1764 1763 
1114 1115 1740 1739 1139 1140 1765 1764 
1115 1116 1741 1740 1140 1141 1766 1765 
1116 1117 1742 1741 1141 1142 1767 1766 
1117 1118 1743 1742 1142 1143 1768 1767 
1118 1119 1744 1743 1143 1144 1769 1768 
1119 1120 1745 1744 1144 1145 1770 1769 
1120 1121 1746 1745 1145 1146 1771 1770 
1121 1122 1747 1746 1146 1147 1772 1771 
1122 1123 1748 1747 1147 1148 1773 1772 
1123 1124 1749 1748 1148 1149 1774 1773 
1125 1126 1751 1750 1150 1151 1776 1775 
1126 1127 1752 1751 1151 1152 1777 1776 
1127 1128 1753 1752 1152 1153 1778 1777 
1128 1129 1754 1753 1153 1154 1779 1778 
1129 1130 1755 1754 1154 1155 1780 1779 
1130 1131 1756 1755 1155 1156 1781 1780 
1131 1132 1757 1756 1156 1157 1782 1781 
1132 1133 1758 1757 1157 1158 1783 1782 
1133 1134 1759 1758 1158 1159 1784 1783 
1134 1135 1760 1759 1159 1160 1785 1784 
1135 1136 1761 1760 1160 1161 1786 1785 
1136 1137 1762 1761 1161 1162 1787 1786 
1137 1138 1763 1762 1162 1163 1788 1787 
1138 1139 1764 1763 1163 1164 1789 1788 
1139 1140 1765 1764 1164 1165 1790 1789 
1140 1141 1766 1765 1165 1166 1791 1790 
1141 1142 1767 1766 1166 1167 1792 1791 
1142 1143 1768 1767 1167 1168 1793 1792 
1143 1144 1769 1768 1168 1169 1794 1793 
1144 1145 1770 1769 1169 1170 1795 1794 
1145 1146 1771 1770 1170 1171 1796 1795 
1146 1147 1772 1771 1171 1172 1797 1796 
1147 1148 1773 1772 1172 1173 1798 1797 
1148 1149 1774 1773 1173 1174 1799 1798 
1150 1151 1776 1775 1175 1176 1801 1800 
1151 1152 1777 1776 1176 1177 1802 1801 
1152 1153 1778 1777 1177 1178 1803 1802 
1153 1154 1779 1778 1178 1179 1804 1803 
1154 1155 1780 1779 1179 1180 1805 1804 
1155 1156 1781 1780 1180 1181 1806 1805 
1156 1157 1782 1781 1181 1182 1807 1806 
1157 1158 1783 1782 1182 1183 1808 1807 
1158 1159 1784 1783 1183 1184 1809 1808 
1159 1160 1785 1784 1184 1185 1810 1809 
1160 1161 1786 1785 1185 1186 1811 1810 
1161 1162 1787 1786 1186 1187 1812 1811 
1162 1163 1788 1787 1187 1188 1813 1812 
1163 1164 1789 1788 1188 1189 1814 1813 
1164 1165 1790 1789 1189 1190 1815 1814 
1165 1166 1791 1790 1190 1191 1816 1815 
1166 1167 1792 1791 1191 1192 1817 1816 
1167 1168 1793 1792 1192 1193 1818 1817 
1168 1169 1794 1793 1193 1194 1819 1818 
1169 1170 1795 1794 1194 1195 1820 1819 
1170 1171 1796 1795 1195 1196 1821 1820 
1171 1172 1797 1796 1196 1197 1822 1821 
1172 1173 1798 1797 1197 1198 1823 1822 
1173 1174 1799 1798 1198 1199 1824 1823 
1175 1176 1801 1800 1200 1201 1826 1825 
1176 1177 1802 1801 1201 1202 1827 1826 
1177 1178 1803 1802 1202 1203 1828 1827 
1178 1179 1804 1803 1203 1204 1829 1828 
1179 1180 1805 1804 1204 1205 1830 1829 
1180 1181 1806 1805 1205 1206 1831 1830 
1181 1182 1807 1806 1206 1207 1832 1831 
1182 1183 1808 1807 1207 1208 1833 1832 
1183 1184 1809 1808 1208 1209 1834 1833 
1184 1185 1810 1809 1209 1210 1835 1834 
1185 1186 1811 1810 1210 1211 1836 1835 
1186 1187 1812 1811 1211 1212 1837 1836 
1187 1188 1813 1812 1212 1213 1838 1837 
1188 1189 1814 1813 1213 1214 1839 1838 
1189 1190 1815 1814 1214 1215 1840 1839 
1190 1191 1816 1815 1215 1216 1841 1840 
1191 1192 1817 1816 1216 1217 1842 1841 
1192 1193 1818 1817 1217 1218 1843 1842 
1193 1194 1819 1818 1218 1219 1844 1843 
1194 1195 1820 1819 1219 1220 1845 1844 
1195 1196 1821 1820 1220 1221 1846 1845 
1196 1197 1822 1821 1221 1222 1847 1846 
1197 1198 1823 1822 1222 1223 1848 1847 
1198 1199 1824 1823 1223 1224 1849 1848 
1200 1201 1826 1825 1225 1226 1851 1850 
1201 1202 1827 1826 1226 1227 1852 1851 
1202 1203 1828 1827 1227 1228 1853 1852 
1203 1204 1829 1828 1228 1229 1854 1853 
1204 1205 1830 1829 1229 1230 1855 1854 
1205 1206 1831 1830 1230 1231 1856 1855 
1206 1207 1832 1831 1231 1232 1857 1856 
1207 1208 1833 1832 1232 1233 1858 1857 
1208 1209 1834 1833 1233 1234 1859 1858 
1209 1210 1835 1834 1234 1235 1860 1859 
1210 1211 1836 1835 1235 1236 1861 1860 
1211 1212 1837 1836 1236 1237 1862 1861 
1212 1213 1838 1837 1237 1238 1863 1862 
1213 1214 1839 1838 1238 1239 1864 1863 
1214 1215 1840 1839 1239 1240 1865 1864 
1215 1216 1841 1840 1240 1241 1866 1865 
1216 1217 1842 1841 1241 1242 1867 1866 
1217 1218 1843 1842 1242 1243 1868 1867 
1218 1219 1844 1843 1243 1244 1869 1868 
1219 1220 1845 1844 1244 1245 1870 1869 
1220 1221 1846 1845 1245 1246 1871 1870 
1221 1222 1847 1846 1246 1247 1872 1871 
1222 1223 1848 1847 1247 1248 1873 1872 
1223 1224 1849 1848 1248 1249 1874 1873 
1250 1251 1876 1875 1275 1276 1901 1900 
1251 1252 1877 1876 1276 1277 1902 1901 
1252 1253 1878 1877 1277 1278 1903 1902 
1253 1254 1879 1878 1278 1279 1904 1903 
1254 1255 1880 1879 1279 1280 1905 1904 
1255 1256 1881 1880 1280 1281 1906 1905 
1256 1257 1882 1881 1281 1282 1907 1906 
1257 1258 1883 1882 1282 1283 1908 1907 
1258 1259 1884 1883 1283 1284 1909 1908 
1259 1260 1885 1884 1284 1285 1910 1909 
1260 1261 1886 1885 1285 1286 1911 1910 
1261 1262 1887 1886 1286 1287 1912 1911 
1262 1263 1888 1887 1287 1288 1913 1912 
1263 1264 1889 1888 1288 1289 1914 1913 
1264 1265 1890 1889 1289 1290 1915 1914 
1265 1266 1891 1890 1290 1291 1916 1915 
1266 1267 1892 1891 1291 1292 1917 1916 
1267 1268 1893 1892 1292 1293 1918 1917 
1268 1269 1894 1893 1293 1294 1919 1918 
1269 1270 1895 1894 1294 1295 1920 1919 
1270 1271 1896 1895 1295 1296 1921 1920 
1271 1272 1897 1896 1296 1297 1922 1921 
1272 1273 1898 1897 1297 1298 1923 1922 
1273 1274 1899 1898 1298 1299 1924 1923 
1275 1276 1901 1900 1300 1301 1926 1925 
1276 1277 1902 1901 1301 1302 1927 1926 
1277 1278 1903 1902 1302 1303 1928 1927 
1278 1279 1904 1903 1303 1304 1929 1928 
1279 1280 1905 1904 1304 1305 1930 1929 
1280 1281 1906 1905 1305 1306 1931 1930 
1281 1282 1907 1906 1306 1307 1932 1931 
1282 1283 1908 1907 1307 1308 1933 1932 
1283 1284 1909 1908 1308 1309 1934 1933 
1284 1285 1910 1909 1309 1310 1935 1934 
1285 1286 1911 1910 1310 1311 1936 1935 
1286 1287 1912 1911 1311 1312 1937 1936 
1287 1288 1913 1912 1312 1313 1938 1937 
1288 1289 1914 1913 1313 1314 1939 1938 
1289 1290 1915 1914 1314 1315 1940 1939 
1290 1291 1916 1915 1315 1316 1941 1940 
1291 1292 1917 1916 1316 1317 1942 1941 
1292 1293 1918 1917 1317 1318 1943 1942 
1293 1294 1919 1918 1318 1319 1944 1943 
1294 1295 1920 1919 1319 1320 1945 1944 
1295 1296 1921 1920 1320 1321 1946 1945 
1296 1297 1922 1921 1321 1322 1947 1946 
1297 1298 1923 1922 1322 1323 1948 1947 
1298 1299 1924 1923 1323 1324 1949 1948 
1300 1301 1926 1925 1325 1326 1951 1950 
1301 1302 1927 1926 1326 1327 1952 1951 
1302 1303 1928 1927 1327 1328 1953 1952 
1303 1304 1929 1928 1328 1329 1954 1953 
1304 1305 1930 1929 1329 1330 1955 1954 
1305 1306 1931 1930 1330 1331 1956 1955 
1306 1307 1932 1931 1331 1332 1957 1956 
1307 1308 1933 1932 1332 1333 1958 1957 
1308 1309 1934 1933 1333 1334 1959 1958 
1309 1310 1935 1934 1334 1335 1960 1959 
1310 1311 1936 1935 1335 1336 1961 1960 
1311 1312 1937 1936 1336 1337 1962 1961 
1312 1313 1938 1937 1337 1338 1963 1962 
1313 1314 1939 1938 1338 1339 1964 1963 
1314 1315 1940 1939 1339 1340 1965 1964 
1315 1316 1941 1940 1340 1341 1966 1965 
1316 1317 1942 1941 1341 1342 1967 1966 
1317 1318 1943 1942 1342 1343 1968 1967 
1318 1319 1944 1943 1343 1344 1969 1968 
1319 1320 1945 1944 1344 1345 1970 1969 
1320 1321 1946 1945 1345 1346 1971 1970 
1321 1322 1947 1946 1346 1347 1972 1971 
1322 1323 1948 1947 1347 1348 1973 1972 
1323 1324 1949 1948 1348 1349 1974 1973 
1325 1326 1951 1950 1350 1351 1976 1975 
1326 1327 1952 1951 1351 1352 1977 1976 
1327 1328 1953 1952 1352 1353 1978 1977 
1328 1329 1954 1953 1353 1354 1979 1978 
1329 1330 1955 1954 1354 1355 1980 1979 
1330 1331 1956 1955 1355 1356 1981 1980 
1331 1332 1957 1956 1356 1357 1982 1981 
1332 1333 1958 1957 1357 1358 1983 1982 
1333 1334 1959 1958 1358 1359 1984 1983 
1334 1335 1960 1959 1359 1360 1985 1984 
1335 1336 1961 1960 1360 1361 1986 1985 
1336 1337 1962 1961 1361 1362 1987 1986 
1337 1338 1963 1962 1362 1363 1988 1987 
1338 1339 1964 1963 1363 1364 1989 1988 
1339 1340 1965 1964 1364 1365 1990 1989 
1340 1341 1966 1965 1365 1366 1991 1990 
1341 1342 1967 1966 1366 1367 1992 1991 
1342 1343 1968 1967 1367 1368 1993 1992 
1343 1344 1969 1968 1368 1369 1994 1993 
1344 1345 1970 1969 1369 1370 1995 1994 
1345 1346 1971 1970 1370 1371 1996 1995 
1346 1347 1972 1971 1371 1372 1997 1996 
1347 1348 1973 1972 1372 1373 1998 1997 
1348 1349 1974 1973 1373 1374 1999 1998 
1350 1351 1976 1975 1375 1376 2001 2000 
1351 1352 1977 1976 1376 1377 2002 2001 
1352 1353 1978 1977 1377 1378 2003 2002 
1353 1354 1979 1978 1378 1379 2004 2003 
1354 1355 1980 1979 1379 1380 2005 2004 
1355 1356 1981 1980 1380 1381 2006 2005 
1356 1357 1982 1981 1381 1382 2007 2006 
1357 1358 1983 1982 1382 1383 2008 2007 
1358 1359 1984 1983 1383 1384 2009 2008 
1359 1360 1985 1984 1384 1385 2010 2009 
1360 1361 1986 1985 1385 1386 2011 2010 
1361 1362 1987 1986 1386 1387 2012 2011 
1362 1363 1988 1987 1387 1388 2013 2012 
1363 1364 1989 1988 1388 1389 2014 2013 
1364 1365 1990 1989 1389 1390 2015 2014 
1365 1366 1991 1990 1390 1391 2016 2015 
1366 1367 1992 1991 1391 1392 2017 2016 
1367 1368 1993 1992 1392 1393 2018 2017 
1368 1369 1994 1993 1393 1394 2019 2018 
1369 1370 1995 1994 1394 1395 2020 2019 
1370 1371 1996 1995 1395 1396 2021 2020 
1371 1372 1997 1996 1396 1397 2022 2021 
1372 1373 1998 1997 1397 1398 2023 2022 
1373 1374 1999 1998 1398 1399 2024 2023 
1375 1376 2001 2000 1400 1401 2026 2025 
1376 1377 2002 2001 1401 1402 2027 2026 
1377 1378 2003 2002 1402 1403 2028 2027 
1378 1379 2004 2003 1403 1404 2029 2028 
1379 1380 2005 2004 1404 1405 2030 2029 
1380 1381 2006 2005 1405 1406 2031 2030 
1381 1382 2007 2006 1406 1407 2032 2031 
1382 1383 2008 2007 1407 1408 2033 2032 
1383 1384 2009 2008 1408 1409 2034 2033 
1384 1385 2010 2009 1409 1410 2035 2034 
1385 1386 2011 2010 1410 1411 2036 2035 
1386 1387 2012 2011 1411 1412 2037 2036 
1387 1388 2013 2012 1412 1413 2038 2037 
1388 1389 2014 2013 1413 1414 2039 2038 
1389 1390 2015 2014 1414 1415 2040 2039 
1390 1391 2016 2015 1415 1416 2041 2040 
1391 1392 2017 2016 1416 1417 2042 2041 
1392 1393 2018 2017 1417 1418 2043 2042 
1393 1394 2019 2018 1418 1419 2044 2043 
1394 1395 2020 2019 1419 1420 2045 2044 
1395 1396 2021 2020 1420 1421 2046 2045 
1396 1397 2022 2021 1421 1422 2047 2046 
1397 1398 2023 2022 1422 1423 2048 2047 
1398 1399 2024 2023 1423 1424 2049 2048 
1400 1401 2026 2025 1425 1426 2051 2050 
1401 1402 2027 2026 1426 1427 2052 2051 
1402 1403 2028 2027 1427 1428 2053 2052 
1403 1404 2029 2028 1428 1429 2054 2053 
1404 1405 2030 2029 1429 1430 2055 2054 
1405 1406 2031 2030 1430 1431 2056 2055 
1406 1407 2032 2031 1431 1432 2057 2056 
1407 1408 2033 2032 1432 1433 2058 2057 
1408 1409 2034 2033 1433 1434 2059 2058 
1409 1410 2035 2034 1434 1435 2060 2059 
1410 1411 2036 2035 1435 1436 2061 2060 
1411 1412 2037 2036 1436 1437 2062 2061 
1412 1413 2038 2037 1437 1438 2063 2062 
1413 1414 2039 2038 1438 1439 2064 2063 
1414 1415 2040 2039 1439 1440 2065 2064 
1415 1416 2041 2040 1440 1441 2066 2065 
1416 1417 2042 2041 1441 1442 2067 2066 
1417 1418 2043 2042 1442 1443 2068 2067 
1418 1419 2044 2043 1443 1444 2069 2068 
1419 1420 2045 2044 1444 1445 2070 2069 
1420 1421 2046 2045 1445 1446 2071 2070 
1421 1422 2047 2046 1446 1447 2072 2071 
1422 1423 2048 2047 1447 1448 2073 2072 
1423 1424 2049 2048 1448 1449 2074 2073 
1425 1426 2051 2050 1450 1451 2076 2075 
1426 1427 2052 2051 1451 1452 2077 2076 
1427 1428 2053 2052 1452 1453 2078 2077 
1428 1429 2054 2053 1453 1454 2079 2078 
1429 1430 2055 2054 1454 1455 2080 2079 
1430 1431 2056 2055 1455 1456 2081 2080 
1431 1432 2057 2056 1456 1457 2082 2081 
1432 1433 2058 2057 1457 1458 2083 2082 
1433 1434 2059 2058 1458 1459 2084 2083 
1434 1435 2060 2059 1459 1460 2085 2084 
1435 1436 2061 2060 1460 1461 2086 2085 
1436 1437 2062 2061 1461 1462 2087 2086 
1437 1438 2063 2062 1462 1463 2088 2087 
1438 1439 2064 2063 1463 1464 2089 2088 
1439 1440 2065 2064 1464 1465 2090 2089 
1440 1441 2066 2065 1465 1466 2091 2090 
1441 1442 2067 2066 1466 1467 2092 2091 
1442 1443 2068 2067 1467 1468 2093 2092 
1443 1444 2069 2068 1468 1469 2094 2093 
1444 1445 2070 2069 1469 1470 2095 2094 
1445 1446 2071 2070 1470 1471 2096 2095 
1446 1447 2072 2071 1471 1472 2097 2096 
1447 1448 2073 2072 1472 1473 2098 2097 
1448 1449 2074 2073 1473 1474 2099 2098 
1450 1451 2076 2075 1475 1476 2101 2100 
1451 1452 2077 2076 1476 1477 2102 2101 
1452 1453 2078 2077 1477 1478 2103 2102 
1453 1454 2079 2078 1478 1479 2104 2103 
1454 1455 2080 2079 1479 1480 2105 2104 
1455 1456 2081 2080 1480 1481 2106 2105 
1456 1457 2082 2081 1481 1482 2107 2106 
1457 1458 2083 2082 1482 1483 2108 2107 
1458 1459 2084 2083 1483 1484 2109 2108 
1459 1460 2085 2084 1484 1485 2110 2109 
1460 1461 2086 2085 1485 1486 2111 2110 
1461 1462 2087 2086 1486 1487 2112 2111 
1462 1463 2088 2087 1487 1488 2113 2112 
1463 1464 2089 2088 1488 1489 2114 2113 
1464 1465 2090 2089 1489 1490 2115 2114 
1465 1466 2091 2090 1490 1491 2116 2115 
1466 1467 2092 2091 1491 1492 2117 2116 
1467 1468 2093 2092 1492 1493 2118 2117 
1468 1469 2094 2093 1493 1494 2119 2118 
1469 1470 2095 2094 1494 1495 2120 2119 
1470 1471 2096 2095 1495 1496 2121 2120 
1471 1472 2097 2096 1496 1497 2122 2121 
1472 1473 2098 2097 1497 1498 2123 2122 
1473 1474 2099 2098 1498 1499 2124 2123 
1475 1476 2101 2100 1500 1501 2126 2125 
1476 1477 2102 2101 1501 1502 2127 2126 
1477 1478 2103 2102 1502 1503 2128 2127 
1478 1479 2104 2103 1503 1504 2129 2128 
1479 1480 2105 2104 1504 1505 2130 2129 
1480 1481 2106 2105 1505 1506 2131 2130 
1481 1482 2107 2106 1506 1507 2132 2131 
1482 1483 2108 2107 1507 1508 2133 2132 
1483 1484 2109 2108 1508 1509 2134 2133 
1484 1485 2110 2109 1509 1510 2135 2134 
1485 1486 2111 2110 1510 1511 2136 2135 
1486 1487 2112 2111 1511 1512 2137 2136 
1487 1488 2113 2112 1512 1513 2138 2137 
1488 1489 2114 2113 1513 1514 2139 2138 
1489 1490 2115 2114 1514 1515 2140 2139 
1490 1491 2116 2115 1515 1516 2141 2140 
1491 1492 2117 2116 1516 1517 2142 2141 
1492 1493 2118 2117 1517 1518 2143 2142 
1493 1494 2119 2118 1518 1519 2144 2143 
1494 1495 2120 2119 1519 1520 2145 2144 
1495 1496 2121 2120 1520 1521 2146 2145 
1496 1497 2122 2121 1521 1522 2147 2146 
1497 1498 2123 2122 1522 1523 2148 2147 
1498 1499 2124 2123 1523 1524 2149 2148 
1500 1501 2126 2125 1525 1526 2151 2150 
1501 1502 2127 2126 1526 1527 2152 2151 
1502 1503 2128 2127 1527 1528 2153 2152 
1503 1504 2129 2128 1528 1529 2154 2153 
1504 1505 2130 2129 1529 1530 2155 2154 
1505 1506 2131 2130 1530 1531 2156 2155 
1506 1507 2132 2131 1531 1532 2157 2156 
1507 1508 2133 2132 1532 1533 2158 2157 
1508 1509 2134 2133 1533 1534 2159 2158 
1509 1510 2135 2134 1534 1535 2160 2159 
1510 1511 2136 2135 1535 1536 2161 2160 
1511 1512 2137 2136 1536 1537 2162 2161 
1512 1513 2138 2137 1537 1538 2163 2162 
1513 1514 2139 2138 1538 1539 2164 2163 
1514 1515 2140 2139 1539 1540 2165 2164 
1515 1516 2141 2140 1540 1541 2166 2165 
1516 1517 2142 2141 1541 1542 2167 2166 
1517 1518 2143 2142 1542 1543 2168 2167 
1518 1519 2144 2143 1543 1544 2169 2168 
1519 1520 2145 2144 1544 1545 2170 2169 
1520 1521 2146 2145 1545 1546 2171 2170 
1521 1522 2147 2146 1546 1547 2172 2171 
1522 1523 2148 2147 1547 1548 2173 2172 
1523 1524 2149 2148 1548 1549 2174 2173 
1525 1526 2151 2150 1550 1551 2176 2175 
1526 1527 2152 2151 1551 1552 2177 2176 
1527 1528 2153 2152 1552 1553 2178 2177 
1528 1529 2154 2153 1553 1554 2179 2178 
1529 1530 2155 2154 1554 1555 2180 2179 
1530 1531 2156 2155 1555 1556 2181 2180 
1531 1532 2157 2156 1556 1557 2182 2181 
1532 1533 2158 2157 1557 1558 2183 2182 
1533 1534 2159 2158 1558 1559 2184 2183 
1534 1535 2160 2159 1559 1560 2185 2184 
1535 1536 2161 2160 1560 1561 2186 2185 
1536 1537 2162 2161 1561 1562 2187 2186 
1537 1538 2163 2162 1562 1563 2188 2187 
1538 1539 2164 2163 1563 1564 2189 2188 
1539 1540 2165 2164 1564 1565 2190 2189 
1540 1541 2166 2165 1565 1566 2191 2190 
1541 1542 2167 2166 1566 1567 2192 2191 
1542 1543 2168 2167 1567 1568 2193 2192 
1543 1544 2169 2168 1568 1569 2194 2193 
1544 1545 2170 2169 1569 1570 2195 2194 
1545 1546 2171 2170 1570 1571 2196 2195 
1546 1547 2172 2171 1571 1572 2197 2196 
1547 1548 2173 2172 1572 1573 2198 2197 
1548 1549 2174 2173 1573 1574 2199 2198 
1550 1551 2176 2175 1575 1576 2201 2200 
1551 1552 2177 2176 1576 1577 2202 2201 
1552 1553 2178 2177 1577 1578 2203 2202 
1553 1554 2179 2178 1578 1579 2204 2203 
1554 1555 2180 2179 1579 1580 2205 2204 
1555 1556 2181 2180 1580 1581 2206 2205 
1556 1557 2182 2181 1581 1582 2207 2206 
1557 1558 2183 2182 1582 1583 2208 2207 
1558 1559 2184 2183 1583 1584 2209 2208 
1559 1560 2185 2184 1584 1585 2210 2209 
1560 1561 2186 2185 1585 1586 2211 2210 
1561 1562 2187 2186 1586 1587 2212 2211 
1562 1563 2188 2187 1587 1588 2213 2212 
1563 1564 2189 2188 1588 1589 2214 2213 
1564 1565 2190 2189 1589 1590 2215 2214 
1565 1566 2191 2190 1590 1591 2216 2215 
1566 1567 2192 2191 1591 1592 2217 2216 
1567 1568 2193 2192 1592 1593 2218 2217 
1568 1569 2194 2193 1593 1594 2219 2218 
1569 1570 2195 2194 1594 1595 2220 2219 
1570 1571 2196 2195 1595 1596 2221 2220 
1571 1572 2197 2196 1596 1597 2222 2221 
1572 1573 2198 2197 1597 1598 2223 2222 
1573 1574 2199 2198 1598 1599 2224 2223 
1575 1576 2201 2200 1600 1601 2226 2225 
1576 1577 2202 2201 1601 1602 2227 2226 
1577 1578 2203 2202 1602 1603 2228 2227 
1578 1579 2204 2203 1603 1604 2229 2228 
1579 1580 2205 2204 1604 1605 2230 2229 
1580 1581 2206 2205 1605 1606 2231 2230 
1581 1582 2207 2206 1606 1607 2232 2231 
1582 1583 2208 2207 1607 1608 2233 2232 
1583 1584 2209 2208 1608 1609 2234 2233 
1584 1585 2210 2209 1609 1610 2235 2234 
1585 1586 2211 2210 1610 1611 2236 2235 
1586 1587 2212 2211 1611 1612 2237 2236 
1587 1588 2213 2212 1612 1613 2238 2237 
1588 1589 2214 2213 1613 1614 2239 2238 
1589 1590 2215 2214 1614 1615 2240 2239 
1590 1591 2216 2215 1615 1616 2241 2240 
1591 1592 2217 2216 1616 1617 2242 2241 
1592 1593 2218 2217 1617 1618 2243 2242 
1593 1594 2219 2218 1618 1619 2244 2243 
1594 1595 2220 2219 1619 1620 2245 2244 
1595 1596 2221 2220 1620 1621 2246 2245 
1596 1597 2222 2221 1621 1622 2247 2246 
1597 1598 2223 2222 1622 1623 2248 2247 
1598 1599 2224 2223 1623 1624 2249 2248 
1600 1601 2226 2225 1625 1626 2251 2250 
1601 1602 2227 2226 1626 1627 2252 2251 
1602 1603 2228 2227 1627 1628 2253 2252 
1603 1604 2229 2228 1628 1629 2254 2253 
1604 1605 2230 2229 1629 1630 2255 2254 
1605 1606 2231 2230 1630 1631 2256 2255 
1606 1607 2232 2231 1631 1632 2257 2256 
1607 1608 2233 2232 1632 1633 2258 2257 
1608 1609 2234 2233 1633 1634 2259 2258 
1609 1610 2235 2234 1634 1635 2260 2259 
1610 1611 2236 2235 1635 1636 2261 2260 
1611 1612 2237 2236 1636 1637 2262 2261 
1612 1613 2238 2237 1637 1638 2263 2262 
1613 1614 2239 2238 1638 1639 2264 2263 
1614 1615 2240 2239 1639 1640 2265 2264 
1615 1616 2241 2240 1640 1641 2266 2265 
1616 1617 2242 2241 1641 1642 2267 2266 
1617 1618 2243 2242 1642 1643 2268 2267 
1618 1619 2244 2243 1643 1644 2269 2268 
1619 1620 2245 2244 1644 1645 2270 2269 
1620 1621 2246 2245 1645 1646 2271 2270 
1621 1622 2247 2246 1646 1647 2272 2271 
1622 1623 2248 2247 1647 1648 2273 2272 
1623 1624 2249 2248 1648 1649 2274 2273 
1625 1626 2251 2250 1650 1651 2276 2275 
1626 1627 2252 2251 1651 1652 2277 2276 
1627 1628 2253 2252 1652 1653 2278 2277 
1628 1629 2254 2253 1653 1654 2279 2278 
1629 1630 2255 2254 1654 1655 2280 2279 
1630 1631 2256 2255 1655 1656 2281 2280 
1631 1632 2257 2256 1656 1657 2282 2281 
1632 1633 2258 2257 1657 1658 2283 2282 
1633 1634 2259 2258 1658 1659 2284 2283 
1634 1635 2260 2259 1659 1660 2285 2284 
1635 1636 2261 2260 1660 1661 2286 2285 
1636 1637 2262 2261 1661 1662 2287 2286 
1637 1638 2263 2262 1662 1663 2288 2287 
1638 1639 2264 2263 1663 1664 2289 2288 
1639 1640 2265 2264 1664 1665 2290 2289 
1640 1641 2266 2265 1665 1666 2291 2290 
1641 1642 2267 2266 1666 1667 2292 2291 
1642 1643 2268 2267 1667 1668 2293 2292 
1643 1644 2269 2268 1668 1669 2294 2293 
1644 1645 2270 2269 1669 1670 2295 2294 
1645 1646 2271 2270 1670 1671 2296 2295 
1646 1647 2272 2271 1671 1672 2297 2296 
1647 1648 2273 2272 1672 1673 2298 2297 
1648 1649 2274 2273 1673 1674 2299 2298 
1650 1651 2276 2275 1675 1676 2301 2300 
1651 1652 2277 2276 1676 1677 2302 2301 
1652 1653 2278 2277 1677 1678 2303 2302 
1653 1654 2279 2278 1678 1679 2304 2303 
1654 1655 2280 2279 1679 1680 2305 2304 
1655 1656 2281 2280 1680 1681 2306 2305 
1656 1657 2282 2281 1681 1682 2307 2306 
1657 1658 2283 2282 1682 1683 2308 2307 
1658 1659 2284 2283 1683 1684 2309 2308 
1659 1660 2285 2284 1684 1685 2310 2309 
1660 1661 2286 2285 1685 1686 2311 2310 
1661 1662 2287 2286 1686 1687 2312 2311 
1662 1663 2288 2287 1687 1688 2313 2312 
1663 1664 2289 2288 1688 1689 2314 2313 
1664 1665 2290 2289 1689 1690 2315 2314 
1665 1666 2291 2290 1690 1691 2316 2315 
1666 1667 2292 2291 1691 1692 2317 2316 
1667 1668 2293 2292 1692 1693 2318 2317 
1668 1669 2294 2293 1693 1694 2319 2318 
1669 1670 2295 2294 1694 1695 2320 2319 
1670 1671 2296 2295 1695 1696 2321 2320 
1671 1672 2297 2296 1696 1697 2322 2321 
1672 1673 2298 2297 1697 1698 2323 2322 
1673 1674 2299 2298 1698 1699 2324 2323 
1675 1676 2301 2300 1700 1701 2326 2325 
1676 1677 2302 2301 1701 1702 2327 2326 
1677 1678 2303 2302 1702 1703 2328 2327 
1678 1679 2304 2303 1703 1704 2329 2328 
1679 1680 2305 2304 1704 1705 2330 2329 
1680 1681 2306 2305 1705 1706 2331 2330 
1681 1682 2307 2306 1706 1707 2332 2331 
1682 1683 2308 2307 1707 1708 2333 2332 
1683 1684 2309 2308 1708 1709 2334 2333 
1684 1685 2310 2309 1709 1710 2335 2334 
1685 1686 2311 2310 1710 1711 2336 2335 
1686 1687 2312 2311 1711 1712 2337 2336 
1687 1688 2313 2312 1712 1713 2338 2337 
1688 1689 2314 2313 1713 1714 2339 2338 
1689 1690 2315 2314 1714 1715 2340 2339 
1690 1691 2316 2315 1715 1716 2341 2340 
1691 1692 2317 2316 1716 1717 2342 2341 
1692 1693 2318 2317 1717 1718 2343 2342 
1693 1694 2319 2318 1718 1719 2344 2343 
1694 1695 2320 2319 1719 1720 2345 2344 
1695 1696 2321 2320 1720 1721 2346 2345 
1696 1697 2322 2321 1721 1722 2347 2346 
1697 1698 2323 2322 1722 1723 2348 2347 
1698 1699 2324 2323 1723 1724 2349 2348 
1700 1701 2326 2325 1725 1726 2351 2350 
1701 1702 2327 2326 1726 1727 2352 2351 
1702 1703 2328 2327 1727 1728 2353 2352 
1703 1704 2329 2328 1728 1729 2354 2353 
1704 1705 2330 2329 1729 1730 2355 2354 
1705 1706 2331 2330 1730 1731 2356 2355 
1706 1707 2332 2331 1731 1732 2357 2356 
1707 1708 2333 2332 1732 1733 2358 2357 
1708 1709 2334 2333 1733 1734 2359 2358 
1709 1710 2335 2334 1734 1735 2360 2359 
1710 1711 2336 2335 1735 1736 2361 2360 
1711 1712 2337 2336 1736 1737 2362 2361 
1712 1713 2338 2337 1737 1738 2363 2362 
1713 1714 2339 2338 1738 1739 2364 2363 
1714 1715 2340 2339 1739 1740 2365 2364 
1715 1716 2341 2340 1740 1741 2366 2365 
1716 1717 2342 2341 1741 1742 2367 2366 
1717 1718 2343 2342 1742 1743 2368 2367 
1718 1719 2344 2343 1743 1744 2369 2368 
1719 1720 2345 2344 1744 1745 2370 2369 
1720 1721 2346 2345 1745 1746 2371 2370 
1721 1722 2347 2346 1746 1747 2372 2371 
1722 1723 2348 2347 1747 1748 2373 2372 
1723 1724 2349 2348 1748 1749 2374 2373 
1725 1726 2351 2350 1750 1751 2376 2375 
1726 1727 2352 2351 1751 1752 2377 2376 
1727 1728 2353 2352 1752 1753 2378 2377 
1728 1729 2354 2353 1753 1754 2379 2378 
1729 1730 2355 2354 1754 1755 2380 2379 
1730 1731 2356 2355 1755 1756 2381 2380 
1731 1732 2357 2356 1756 1757 2382 2381 
1732 1733 2358 2357 1757 1758 2383 2382 
1733 1734 2359 2358 1758 1759 2384 2383 
1734 1735 2360 2359 1759 1760 2385 2384 
1735 1736 2361 2360 1760 1761 2386 2385 
1736 1737 2362 2361 1761 1762 2387 2386 
1737 1738 2363 2362 1762 1763 2388 2387 
1738 1739 2364 2363 1763 1764 2389 2388 
1739 1740 2365 2364 1764 1765 2390 2389 
1740 1741 2366 2365 1765 1766 2391 2390 
1741 1742 2367 2366 1766 1767 2392 2391 
1742 1743 2368 2367 1767 1768 2393 2392 
1743 1744 2369 2368 1768 1769 2394 2393 
1744 1745 2370 2369 1769 1770 2395 2394 
1745 1746 2371 2370 1770 1771 2396 2395 
1746 1747 2372 2371 1771 1772 2397 2396 
1747 1748 2373 2372 1772 1773 2398 2397 
1748 1749 2374 2373 1773 1774 2399 2398 
1750 1751 2376 2375 1775 1776 2401 2400 
1751 1752 2377 2376 1776 1777 2402 2401 
1752 1753 2378 2377 1777 1778 2403 2402 
1753 1754 2379 2378 1778 1779 2404 2403 
1754 1755 2380 2379 1779 1780 2405 2404 
1755 1756 2381 2380 1780 1781 2406 2405 
1756 1757 2382 2381 1781 1782 2407 2406 
1757 1758 2383 2382 1782 1783 2408 2407 
1758 1759 2384 2383 1783 1784 2409 2408 
1759 1760 2385 2384 1784 1785 2410 2409 
1760 1761 2386 2385 1785 1786 2411 2410 
1761 1762 2387 2386 1786 1787 2412 2411 
1762 1763 2388 2387 1787 1788 2413 2412 
1763 1764 2389 2388 1788 1789 2414 2413 
1764 1765 2390 2389 1789 1790 2415 2414 
1765 1766 2391 2390 1790 1791 2416 2415 
1766 1767 2392 2391 1791 1792 2417 2416 
1767 1768 2393 2392 1792 1793 2418 2417 
1768 1769 2394 2393 1793 1794 2419 2418 
1769 1770 2395 2394 1794 1795 2420 2419 
1770 1771 2396 2395 1795 1796 2421 2420 
1771 1772 2397 2396 1796 1797 2422 2421 
1772 1773 2398 2397 1797 1798 2423 2422 
1773 1774 2399 2398 1798 1799 2424 2423 
1775 1776 2401 2400 1800 1801 2426 2425 
1776 1777 2402 2401 1801 1802 2427 2426 
1777 1778 2403 2402 1802 1803 2428 2427 
1778 1779 2404 2403 1803 1804 2429 2428 
1779 1780 2405 2404 1804 1805 2430 2429 
1780 1781 2406 2405 1805 1806 2431 2430 
1781 1782 2407 2406 1806 1807 2432 2431 
1782 1783 2408 2407 1807 1808 2433 2432 
1783 1784 2409 2408 1808 1809 2434 2433 
1784 1785 2410 2409 1809 1810 2435 2434 
1785 1786 2411 2410 1810 1811 2436 2435 
1786 1787 2412 2411 1811 1812 2437 2436 
1787 1788 2413 2412 1812 1813 2438 2437 
1788 1789 2414 2413 1813 1814 2439 2438 
1789 1790 2415 2414 1814 1815 2440 2439 
1790 1791 2416 2415 1815 1816 2441 2440 
1791 1792 2417 2416 1816 1817 2442 2441 
1792 1793 2418 2417 1817 1818 2443 2442 
1793 1794 2419 2418 1818 1819 2444 2443 
1794 1795 2420 2419 1819 1820 2445 2444 
1795 1796 2421 2420 1820 1821 2446 2445 
1796 1797 2422 2421 1821 1822 2447 2446 
1797 1798 2423 2422 1822 1823 2448 2447 
1798 1799 2424 2423 1823 1824 2449 2448 
1800 1801 2426 2425 1825 1826 2451 2450 
1801 1802 2427 2426 1826 1827 2452 2451 
1802 1803 2428 2427 1827 1828 2453 2452 
1803 1804 2429 2428 1828 1829 2454 2453 
1804 1805 2430 2429 1829 1830 2455 2454 
1805 1806 2431 2430 1830 1831 2456 2455 
1806 1807 2432 2431 1831 1832 2457 2456 
1807 1808 2433 2432 1832 1833 2458 2457 
1808 1809 2434 2433 1833 1834 2459 2458 
1809 1810 2435 2434 1834 1835 2460 2459 
1810 1811 2436 2435 1835 1836 2461 2460 
1811 1812 2437 2436 1836 1837 2462 2461 
1812 1813 2438 2437 1837 1838 2463 2462 
1813 1814 2439 2438 1838 1839 2464 2463 
1814 1815 2440 2439 1839 1840 2465 2464 
1815 1816 2441 2440 1840 1841 2466 2465 
1816 1817 2442 2441 1841 1842 2467 2466 
1817 1818 2443 2442 1842 1843 2468 2467 
1818 1819 2444 2443 1843 1844 2469 2468 
1819 1820 2445 2444 1844 1845 2470 2469 
1820 1821 2446 2445 1845 1846 2471 2470 
1821 1822 2447 2446 1846 1847 2472 2471 
1822 1823 2448 2447 1847 1848 2473 2472 
1823 1824 2449 2448 1848 1849 2474 2473 
1825 1826 2451 2450 1850 1851 2476 2475 
1826 1827 2452 2451 1851 1852 2477 2476 
1827 1828 2453 2452 1852 1853 2478 2477 
1828 1829 2454 2453 1853 1854 2479 2478 
1829 1830 2455 2454 1854 1855 2480 2479 
1830 1831 2456 2455 1855 1856 2481 2480 
1831 1832 2457 2456 1856 1857 2482 2481 
1832 1833 2458 2457 1857 1858 2483 2482 
1833 1834 2459 2458 1858 1859 2484 2483 
1834 1835 2460 2459 1859 1860 2485 2484 
1835 1836 2461 2460 1860 1861 2486 2485 
1836 1837 2462 2461 1861 1862 2487 2486 
1837 1838 2463 2462 1862 1863 2488 2487 
1838 1839 2464 2463 1863 1864 2489 2488 
1839 1840 2465 2464 1864 1865 2490 2489 
1840 1841 2466 2465 1865 1866 2491 2490 
1841 1842 2467 2466 1866 1867 2492 2491 
1842 1843 2468 2467 1867 1868 2493 2492 
1843 1844 2469 2468 1868 1869 2494 2493 
1844 1845 2470 2469 1869 1870 2495 2494 
1845 1846 2471 2470 1870 1871 2496 2495 
1846 1847 2472 2471 1871 1872 2497 2496 
1847 1848 2473 2472 1872 1873 2498 2497 
1848 1849 2474 2473 1873 1874 2499 2498 
1875 1876 2501 2500 1900 1901 2526 2525 
1876 1877 2502 2501 1901 1902 2527 2526 
1877 1878 2503 2502 1902 1903 2528 2527 
1878 1879 2504 2503 1903 1904 2529 2528 
1879 1880 2505 2504 1904 1905 2530 2529 
1880 1881 2506 2505 1905 1906 2531 2530 
1881 1882 2507 2506 1906 1907 2532 2531 
1882 1883 2508 2507 1907 1908 2533 2532 
1883 1884 2509 2508 1908 1909 2534 2533 
1884 1885 2510 2509 1909 1910 2535 2534 
1885 1886 2511 2510 1910 1911 2536 2535 
1886 1887 2512 2511 1911 1912 2537 2536 
1887 1888 2513 2512 1912 1913 2538 2537 
1888 1889 2514 2513 1913 1914 2539 2538 
1889 1890 2515 2514 1914 1915 2540 2539 
1890 1891 2516 2515 1915 1916 2541 2540 
1891 1892 2517 2516 1916 1917 2542 2541 
1892 1893 2518 2517 1917 1918 2543 2542 
1893 1894 2519 2518 1918 1919 2544 2543 
1894 1895 2520 2519 1919 1920 2545 2544 
1895 1896 2521 2520 1920 1921 2546 2545 
1896 1897 2522 2521 1921 1922 2547 2546 
1897 1898 2523 2522 1922 1923 2548 2547 
1898 1899 2524 2523 1923 1924 2549 2548 
1900 1901 2526 2525 1925 1926 2551 2550 
1901 1902 2527 2526 1926 1927 2552 2551 
1902 1903 2528 2527 1927 1928 2553 2552 
1903 1904 2529 2528 1928 1929 2554 2553 
1904 1905 2530 2529 1929 1930 2555 2554 
1905 1906 2531 2530 1930 1931 2556 2555 
1906 1907 2532 2531 1931 1932 2557 2556 
1907 1908 2533 2532 1932 1933 2558 2557 
1908 1909 2534 2533 1933 1934 2559 2558 
1909 1910 2535 2534 1934 1935 2560 2559 
1910 1911 2536 2535 1935 1936 2561 2560 
1911 1912 2537 2536 1936 1937 2562 2561 
1912 1913 2538 2537 1937 1938 2563 2562 
1913 1914 2539 2538 1938 1939 2564 2563 
1914 1915 2540 2539 1939 1940 2565 2564 
1915 1916 2541 2540 1940 1941 2566 2565 
1916 1917 2542 2541 1941 1942 2567 2566 
1917 1918 2543 2542 1942 1943 2568 2567 
1918 1919 2544 2543 1943 1944 2569 2568 
1919 1920 2545 2544 1944 1945 2570 2569 
1920 1921 2546 2545 1945 1946 2571 2570 
1921 1922 2547 2546 1946 1947 2572 2571 
1922 1923 2548 2547 1947 1948 2573 2572 
1923 1924 2549 2548 1948 1949 2574 2573 
1925 1926 2551 2550 1950 1951 2576 2575 
1926 1927 2552 2551 1951 1952 2577 2576 
1927 1928 2553 2552 1952 1953 2578 2577 
1928 1929 2554 2553 1953 1954 2579 2578 
1929 1930 2555 2554 1954 1955 2580 2579 
1930 1931 2556 2555 1955 1956 2581 2580 
1931 1932 2557 2556 1956 1957 2582 2581 
1932 1933 2558 2557 1957 1958 2583 2582 
1933 1934 2559 2558 1958 1959 2584 2583 
1934 1935 2560 2559 1959 1960 2585 2584 
1935 1936 2561 2560 1960 1961 2586 2585 
1936 1937 2562 2561 1961 1962 2587 2586 
1937 1938 2563 2562 1962 1963 2588 2587 
1938 1939 2564 2563 1963 1964 2589 2588 
1939 1940 2565 2564 1964 1965 2590 2589 
1940 1941 2566 2565 1965 1966 2591 2590 
1941 1942 2567 2566 1966 1967 2592 2591 
1942 1943 2568 2567 1967 1968 2593 2592 
1943 1944 2569 2568 1968 1969 2594 2593 
1944 1945 2570 2569 1969 1970 2595 2594 
1945 1946 2571 2570 1970 1971 2596 2595 
1946 1947 2572 2571 1971 1972 2597 2596 
1947 1948 2573 2572 1972 1973 2598 2597 
1948 1949 2574 2573 1973 1974 2599 2598 
1950 1951 2576 2575 1975 1976 2601 2600 
1951 1952 2577 2576 1976 1977 2602 2601 
1952 1953 2578 2577 1977 1978 2603 2602 
1953 1954 2579 2578 1978 1979 2604 2603 
1954 1955 2580 2579 1979 1980 2605 2604 
1955 1956 2581 2580 1980 1981 2606 2605 
1956 1957 2582 2581 1981 1982 2607 2606 
1957 1958 2583 2582 1982 1983 2608 2607 
1958 1959 2584 2583 1983 1984 2609 2608 
1959 1960 2585 2584 1984 1985 2610 2609 
1960 1961 2586 2585 1985 1986 2611 2610 
1961 1962 2587 2586 1986 1987 2612 2611 
1962 1963 2588 2587 1987 1988 2613 2612 
1963 1964 2589 2588 1988 1989 2614 2613 
1964 1965 2590 2589 1989 1990 2615 2614 
1965 1966 2591 2590 1990 1991 2616 2615 
1966 1967 2592 2591 1991 1992 2617 2616 
1967 1968 2593 2592 1992 1993 2618 2617 
1968 1969 2594 2593 1993 1994 2619 2618 
1969 1970 2595 2594 1994 1995 2620 2619 
1970 1971 2596 2595 1995 1996 2621 2620 
1971 1972 2597 2596 1996 1997 2622 2621 
1972 1973 2598 2597 1997 1998 2623 2622 
1973 1974 2599 2598 1998 1999 2624 2623 
1975 1976 2601 2600 2000 2001 2626 2625 
1976 1977 2602 2601 2001 2002 2627 2626 
1977 1978 2603 2602 2002 2003 2628 2627 
1978 1979 2604 2603 2003 2004 2629 2628 
1979 1980 2605 2604 2004 2005 2630 2629 
1980 1981 2606 2605 2005 2006 2631 2630 
1981 1982 2607 2606 2006 2007 2632 2631 
1982 1983 2608 2607 2007 2008 2633 2632 
1983 1984 2609 2608 2008 2009 2634 2633 
1984 1985 2610 2609 2009 2010 2635 2634 
1985 1986 2611 2610 2010 2011 2636 2635 
1986 1987 2612 2611 2011 2012 2637 2636 
1987 1988 2613 2612 2012 2013 2638 2637 
1988 1989 2614 2613 2013 2014 2639 2638 
1989 1990 2615 2614 2014 2015 2640 2639 
1990 1991 2616 2615 2015 2016 2641 2640 
1991 1992 2617 2616 2016 2017 2642 2641 
1992 1993 2618 2617 2017 2018 2643 2642 
1993 1994 2619 2618 2018 2019 2644 2643 
1994 1995 2620 2619 2019 2020 2645 2644 
1995 1996 2621 2620 2020 2021 2646 2645 
1996 1997 2622 2621 2021 2022 2647 2646 
1997 1998 2623 2622 2022 2023 2648 2647 
1998 1999 2624 2623 2023 2024 2649 2648 
2000 2001 2626 2625 2025 2026 2651 2650 
2001 2002 2627 2626 2026 2027 2652 2651 
2002 2003 2628 2627 2027 2028 2653 2652 
2003 2004 2629 2628 2028 2029 2654 2653 
2004 2005 2630 2629 2029 2030 2655 2654 
2005 2006 2631 2630 2030 2031 2656 2655 
2006 2007 2632 2631 2031 2032 2657 2656 
2007 2008 2633 2632 2032 2033 2658 2657 
2008 2009 2634 2633 2033 2034 2659 2658 
2009 2010 2635 2634 2034 2035 2660 2659 
2010 2011 2636 2635 2035 2036 2661 2660 
2011 2012 2637 2636 2036 2037 2662 2661 
2012 2013 2638 2637 2037 2038 2663 2662 
2013 2014 2639 2638 2038 2039 2664 2663 
2014 2015 2640 2639 2039 2040 2665 2664 
2015 2016 2641 2640 2040 2041 2666 2665 
2016 2017 2642 2641 2041 2042 2667 2666 
2017 2018 2643 2642 2042 2043 2668 2667 
2018 2019 2644 2643 2043 2044 2669 2668 
2019 2020 2645 2644 2044 2045 2670 2669 
2020 2021 2646 2645 2045 2046 2671 2670 
2021 2022 2647 2646 2046 2047 2672 2671 
2022 2023 2648 2647 2047 2048 2673 2672 
2023 2024 2649 2648 2048 2049 2674 2673 
2025 2026 2651 2650 2050 2051 2676 2675 
2026 2027 2652 2651 2051 2052 2677 2676 
2027 2028 2653 2652 2052 2053 2678 2677 
2028 2029 2654 2653 2053 2054 2679 2678 
2029 2030 2655 2654 2054 2055 2680 2679 
2030 2031 2656 2655 2055 2056 2681 2680 
2031 2032 2657 2656 2056 2057 2682 2681 
2032 2033 2658 2657 2057 2058 2683 2682 
2033 2034 2659 2658 2058 2059 2684 2683 
2034 2035 2660 2659 2059 2060 2685 2684 
2035 2036 2661 2660 2060 2061 2686 2685 
2036 2037 2662 2661 2061 2062 2687 2686 
2037 2038 2663 2662 2062 2063 2688 2687 
2038 2039 2664 2663 2063 2064 2689 2688 
2039 2040 2665 2664 2064 2065 2690 2689 
2040 2041 2666 2665 2065 2066 2691 2690 
2041 2042 2667 2666 2066 2067 2692 2691 
2042 2043 2668 2667 2067 2068 2693 2692 
2043 2044 2669 2668 2068 2069 2694 2693 
2044 2045 2670 2669 2069 2070 2695 2694 
2045 2046 2671 2670 2070 2071 2696 2695 
2046 2047 2672 2671 2071 2072 2697 2696 
2047 2048 2673 2672 2072 2073 2698 2697 
2048 2049 2674 2673 2073 2074 2699 2698 
2050 2051 2676 2675 2075 2076 2701 2700 
2051 2052 2677 2676 2076 2077 2702 2701 
2052 2053 2678 2677 2077 2078 2703 2702 
2053 2054 2679 2678 2078 2079 2704 2703 
2054 2055 2680 2679 2079 2080 2705 2704 
2055 2056 2681 2680 2080 2081 2706 2705 
2056 2057 2682 2681 2081 2082 2707 2706 
2057 2058 2683 2682 2082 2083 2708 2707 
2058 2059 2684 2683 2083 2084 2709 2708 
2059 2060 2685 2684 2084 2085 2710 2709 
2060 2061 2686 2685 2085 2086 2711 2710 
2061 2062 2687 2686 2086 2087 2712 2711 
2062 2063 2688 2687 2087 2088 2713 2712 
2063 2064 2689 2688 2088 2089 2714 2713 
2064 2065 2690 2689 2089 2090 2715 2714 
2065 2066 2691 2690 2090 2091 2716 2715 
2066 2067 2692 2691 2091 2092 2717 2716 
2067 2068 2693 2692 2092 2093 2718 2717 
2068 2069 2694 2693 2093 2094 2719 2718 
2069 2070 2695 2694 2094 2095 2720 2719 
2070 2071 2696 2695 2095 2096 2721 2720 
2071 2072 2697 2696 2096 2097 2722 2721 
2072 2073 2698 2697 2097 2098 2723 2722 
2073 2074 2699 2698 2098 2099 2724 2723 
2075 2076 2701 2700 2100 2101 2726 2725 
2076 2077 2702 2701 2101 2102 2727 2726 
2077 2078 2703 2702 2102 2103 2728 2727 
2078 2079 2704 2703 2103 2104 2729 2728 
2079 2080 2705 2704 2104 2105 2730 2729 
2080 2081 2706 2705 2105 2106 2731 2730 
2081 2082 2707 2706 2106 2107 2732 2731 
2082 2083 2708 2707 2107 2108 2733 2732 
2083 2084 2709 2708 2108 2109 2734 2733 
2084 2085 2710 2709 2109 2110 2735 2734 
2085 2086 2711 2710 2110 2111 2736 2735 
2086 2087 2712 2711 2111 2112 2737 2736 
2087 2088 2713 2712 2112 2113 2738 2737 
2088 2089 2714 2713 2113 2114 2739 2738 
2089 2090 2715 2714 2114 2115 2740 2739 
2090 2091 2716 2715 2115 2116 2741 2740 
2091 2092 2717 2716 2116 2117 2742 2741 
2092 2093 2718 2717 2117 2118 2743 2742 
2093 2094 2719 2718 2118 2119 2744 2743 
2094 2095 2720 2719 2119 2120 2745 2744 
2095 2096 2721 2720 2120 2121 2746 2745 
2096 2097 2722 2721 2121 2122 2747 2746 
2097 2098 2723 2722 2122 2123 2748 2747 
2098 2099 2724 2723 2123 2124 2749 2748 
2100 2101 2726 2725 2125 2126 2751 2750 
2101 2102 2727 2726 2126 2127 2752 2751 
2102 2103 2728 2727 2127 2128 2753 2752 
2103 2104 2729 2728 2128 2129 2754 2753 
2104 2105 2730 2729 2129 2130 2755 2754 
2105 2106 2731 2730 2130 2131 2756 2755 
2106 2107 2732 2731 2131 2132 2757 2756 
2107 2108 2733 2732 2132 2133 2758 2757 
2108 2109 2734 2733 2133 2134 2759 2758 
2109 2110 2735 2734 2134 2135 2760 2759 
2110 2111 2736 2735 2135 2136 2761 2760 
2111 2112 2737 2736 2136 2137 2762 2761 
2112 2113 2738 2737 2137 2138 2763 2762 
2113 2114 2739 2738 2138 2139 2764 2763 
2114 2115 2740 2739 2139 2140 2765 2764 
2115 2116 2741 2740 2140 2141 2766 2765 
2116 2117 2742 2741 2141 2142 2767 2766 
2117 2118 2743 2742 2142 2143 2768 2767 
2118 2119 2744 2743 2143 2144 2769 2768 
2119 2120 2745 2744 2144 2145 2770 2769 
2120 2121 2746 2745 2145 2146 2771 2770 
2121 2122 2747 2746 2146 2147 2772 2771 
2122 2123 2748 2747 2147 2148 2773 2772 
2123 2124 2749 2748 2148 2149 2774 2773 
2125 2126 2751 2750 2150 2151 2776 2775 
2126 2127 2752 2751 2151 2152 2777 2776 
2127 2128 2753 2752 2152 2153 2778 2777 
2128 2129 2754 2753 2153 2154 2779 2778 
2129 2130 2755 2754 2154 2155 2780 2779 
2130 2131 2756 2755 2155 2156 2781 2780 
2131 2132 2757 2756 2156 2157 2782 2781 
2132 2133 2758 2757 2157 2158 2783 2782 
2133 2134 2759 2758 2158 2159 2784 2783 
2134 2135 2760 2759 2159 2160 2785 2784 
2135 2136 2761 2760 2160 2161 2786 2785 
2136 2137 2762 2761 2161 2162 2787 2786 
2137 2138 2763 2762 2162 2163 2788 2787 
2138 2139 2764 2763 2163 2164 2789 2788 
2139 2140 2765 2764 2164 2165 2790 2789 
2140 2141 2766 2765 2165 2166 2791 2790 
2141 2142 2767 2766 2166 2167 2792 2791 
2142 2143 2768 2767 2167 2168 2793 2792 
2143 2144 2769 2768 2168 2169 2794 2793 
2144 2145 2770 2769 2169 2170 2795 2794 
2145 2146 2771 2770 2170 2171 2796 2795 
2146 2147 2772 2771 2171 2172 2797 2796 
2147 2148 2773 2772 2172 2173 2798 2797 
2148 2149 2774 2773 2173 2174 2799 2798 
2150 2151 2776 2775 2175 2176 2801 2800 
2151 2152 2777 2776 2176 2177 2802 2801 
2152 2153 2778 2777 2177 2178 2803 2802 
2153 2154 2779 2778 2178 2179 2804 2803 
2154 2155 2780 2779 2179 2180 2805 2804 
2155 2156 2781 2780 2180 2181 2806 2805 
2156 2157 2782 2781 2181 2182 2807 2806 
2157 2158 2783 2782 2182 2183 2808 2807 
2158 2159 2784 2783 2183 2184 2809 2808 
2159 2160 2785 2784 2184 2185 2810 2809 
2160 2161 2786 2785 2185 2186 2811 2810 
2161 2162 2787 2786 2186 2187 2812 2811 
2162 2163 2788 2787 2187 2188 2813 2812 
2163 2164 2789 2788 2188 2189 2814 2813 
2164 2165 2790 2789 2189 2190 2815 2814 
2165 2166 2791 2790 2190 2191 2816 2815 
2166 2167 2792 2791 2191 2192 2817 2816 
2167 2168 2793 2792 2192 2193 2818 2817 
2168 2169 2794 2793 2193 2194 2819 2818 
2169 2170 2795 2794 2194 2195 2820 2819 
2170 2171 2796 2795 2195 2196 2821 2820 
2171 2172 2797 2796 2196 2197 2822 2821 
2172 2173 2798 2797 2197 2198 2823 2822 
2173 2174 2799 2798 2198 2199 2824 2823 
2175 2176 2801 2800 2200 2201 2826 2825 
2176 2177 2802 2801 2201 2202 2827 2826 
2177 2178 2803 2802 2202 2203 2828 2827 
2178 2179 2804 2803 2203 2204 2829 2828 
2179 2180 2805 2804 2204 2205 2830 2829 
2180 2181 2806 2805 2205 2206 2831 2830 
2181 2182 2807 2806 2206 2207 2832 2831 
2182 2183 2808 2807 2207 2208 2833 2832 
2183 2184 2809 2808 2208 2209 2834 2833 
2184 2185 2810 2809 2209 2210 2835 2834 
2185 2186 2811 2810 2210 2211 2836 2835 
2186 2187 2812 2811 2211 2212 2837 2836 
2187 2188 2813 2812 2212 2213 2838 2837 
2188 2189 2814 2813 2213 2214 2839 2838 
2189 2190 2815 2814 2214 2215 2840 2839 
2190 2191 2816 2815 2215 2216 2841 2840 
2191 2192 2817 2816 2216 2217 2842 2841 
2192 2193 2818 2817 2217 2218 2843 2842 
2193 2194 2819 2818 2218 2219 2844 2843 
2194 2195 2820 2819 2219 2220 2845 2844 
2195 2196 2821 2820 2220 2221 2846 2845 
2196 2197 2822 2821 2221 2222 2847 2846 
2197 2198 2823 2822 2222 2223 2848 2847 
2198 2199 2824 2823 2223 2224 2849 2848 
2200 2201 2826 2825 2225 2226 2851 2850 
2201 2202 2827 2826 2226 2227 2852 2851 
2202 2203 2828 2827 2227 2228 2853 2852 
2203 2204 2829 2828 2228 2229 2854 2853 
2204 2205 2830 2829 2229 2230 2855 2854 
2205 2206 2831 2830 2230 2231 2856 2855 
2206 2207 2832 2831 2231 2232 2857 2856 
2207 2208 2833 2832 2232 2233 2858 2857 
2208 2209 2834 2833 2233 2234 2859 2858 
2209 2210 2835 2834 2234 2235 2860 2859 
2210 2211 2836 2835 2235 2236 2861 2860 
2211 2212 2837 2836 2236 2237 2862 2861 
2212 2213 2838 2837 2237 2238 2863 2862 
2213 2214 2839 2838 2238 2239 2864 2863 
2214 2215 2840 2839 2239 2240 2865 2864 
2215 2216 2841 2840 2240 2241 2866 2865 
2216 2217 2842 2841 2241 2242 2867 2866 
2217 2218 2843 2842 2242 2243 2868 2867 
2218 2219 2844 2843 2243 2244 2869 2868 
2219 2220 2845 2844 2244 2245 2870 2869 
2220 2221 2846 2845 2245 2246 2871 2870 
2221 2222 2847 2846 2246 2247 2872 2871 
2222 2223 2848 2847 2247 2248 2873 2872 
2223 2224 2849 2848 2248 2249 2874 2873 
2225 2226 2851 2850 2250 2251 2876 2875 
2226 2227 2852 2851 2251 2252 2877 2876 
2227 2228 2853 2852 2252 2253 2878 2877 
2228 2229 2854 2853 2253 2254 2879 2878 
2229 2230 2855 2854 2254 2255 2880 2879 
2230 2231 2856 2855 2255 2256 2881 2880 
2231 2232 2857 2856 2256 2257 2882 2881 
2232 2233 2858 2857 2257 2258 2883 2882 
2233 2234 2859 2858 2258 2259 2884 2883 
2234 2235 2860 2859 2259 2260 2885 2884 
2235 2236 2861 2860 2260 2261 2886 2885 
2236 2237 2862 2861 2261 2262 2887 2886 
2237 2238 2863 2862 2262 2263 2888 2887 
2238 2239 2864 2863 2263 2264 2889 2888 
2239 2240 2865 2864 2264 2265 2890 2889 
2240 2241 2866 2865 2265 2266 2891 2890 
2241 2242 2867 2866 2266 2267 2892 2891 
2242 2243 2868 2867 2267 2268 2893 2892 
2243 2244 2869 2868 2268 2269 2894 2893 
2244 2245 2870 2869 2269 2270 2895 2894 
2245 2246 2871 2870 2270 2271 2896 2895 
2246 2247 2872 2871 2271 2272 2897 2896 
2247 2248 2873 2872 2272 2273 2898 2897 
2248 2249 2874 2873 2273 2274 2899 2898 
2250 2251 2876 2875 2275 2276 2901 2900 
2251 2252 2877 2876 2276 2277 2902 2901 
2252 2253 2878 2877 2277 2278 2903 2902 
2253 2254 2879 2878 2278 2279 2904 2903 
2254 2255 2880 2879 2279 2280 2905 2904 
2255 2256 2881 2880 2280 2281 2906 2905 
2256 2257 2882 2881 2281 2282 2907 2906 
2257 2258 2883 2882 2282 2283 2908 2907 
2258 2259 2884 2883 2283 2284 2909 2908 
2259 2260 2885 2884 2284 2285 2910 2909 
2260 2261 2886 2885 2285 2286 2911 2910 
2261 2262 2887 2886 2286 2287 2912 2911 
2262 2263 2888 2887 2287 2288 2913 2912 
2263 2264 2889 2888 2288 2289 2914 2913 
2264 2265 2890 2889 2289 2290 2915 2914 
2265 2266 2891 2890 2290 2291 2916 2915 
2266 2267 2892 2891 2291 2292 2917 2916 
2267 2268 2893 2892 2292 2293 2918 2917 
2268 2269 2894 2893 2293 2294 2919 2918 
2269 2270 2895 2894 2294 2295 2920 2919 
2270 2271 2896 2895 2295 2296 2921 2920 
2271 2272 2897 2896 2296 2297 2922 2921 
2272 2273 2898 2897 2297 2298 2923 2922 
2273 2274 2899 2898 2298 2299 2924 2923 
2275 2276 2901 2900 2300 2301 2926 2925 
2276 2277 2902 2901 2301 2302 2927 2926 
2277 2278 2903 2902 2302 2303 2928 2927 
2278 2279 2904 2903 2303 2304 2929 2928 
2279 2280 2905 2904 2304 2305 2930 2929 
2280 2281 2906 2905 2305 2306 2931 2930 
2281 2282 2907 2906 2306 2307 2932 2931 
2282 2283 2908 2907 2307 2308 2933 2932 
2283 2284 2909 2908 2308 2309 2934 2933 
2284 2285 2910 2909 2309 2310 2935 2934 
2285 2286 2911 2910 2310 2311 2936 2935 
2286 2287 2912 2911 2311 2312 2937 2936 
2287 2288 2913 2912 2312 2313 2938 2937 
2288 2289 2914 2913 2313 2314 2939 2938 
2289 2290 2915 2914 2314 2315 2940 2939 
2290 2291 2916 2915 2315 2316 2941 2940 
2291 2292 2917 2916 2316 2317 2942 2941 
2292 2293 2918 2917 2317 2318 2943 2942 
2293 2294 2919 2918 2318 2319 2944 2943 
2294 2295 2920 2919 2319 2320 2945 2944 
2295 2296 2921 2920 2320 2321 2946 2945 
2296 2297 2922 2921 2321 2322 2947 2946 
2297 2298 2923 2922 2322 2323 2948 2947 
2298 2299 2924 2923 2323 2324 2949 2948 
2300 2301 2926 2925 2325 2326 2951 2950 
2301 2302 2927 2926 2326 2327 2952 2951 
2302 2303 2928 2927 2327 2328 2953 2952 
2303 2304 2929 2928 2328 2329 2954 2953 
2304 2305 2930 2929 2329 2330 2955 2954 
2305 2306 2931 2930 2330 2331 2956 2955 
2306 2307 2932 2931 2331 2332 2957 2956 
2307 2308 2933 2932 2332 2333 2958 2957 
2308 2309 2934 2933 2333 2334 2959 2958 
2309 2310 2935 2934 2334 2335 2960 2959 
2310 2311 2936 2935 2335 2336 2961 2960 
2311 2312 2937 2936 2336 2337 2962 2961 
2312 2313 2938 2937 2337 2338 2963 2962 
2313 2314 2939 2938 2338 2339 2964 2963 
2314 2315 2940 2939 2339 2340 2965 2964 
2315 2316 2941 2940 2340 2341 2966 2965 
2316 2317 2942 2941 2341 2342 2967 2966 
2317 2318 2943 2942 2342 2343 2968 2967 
2318 2319 2944 2943 2343 2344 2969 2968 
2319 2320 2945 2944 2344 2345 2970 2969 
2320 2321 2946 2945 2345 2346 2971 2970 
2321 2322 2947 2946 2346 2347 2972 2971 
2322 2323 2948 2947 2347 2348 2973 2972 
2323 2324 2949 2948 2348 2349 2974 2973 
2325 2326 2951 2950 2350 2351 2976 2975 
2326 2327 2952 2951 2351 2352 2977 2976 
2327 2328 2953 2952 2352 2353 2978 2977 
2328 2329 2954 2953 2353 2354 2979 2978 
2329 2330 2955 2954 2354 2355 2980 2979 
2330 2331 2956 2955 2355 2356 2981 2980 
2331 2332 2957 2956 2356 2357 2982 2981 
2332 2333 2958 2957 2357 2358 2983 2982 
2333 2334 2959 2958 2358 2359 2984 2983 
2334 2335 2960 2959 2359 2360 2985 2984 
2335 2336 2961 2960 2360 2361 2986 2985 
2336 2337 2962 2961 2361 2362 2987 2986 
2337 2338 2963 2962 2362 2363 2988 2987 
2338 2339 2964 2963 2363 2364 2989 2988 
2339 2340 2965 2964 2364 2365 2990 2989 
2340 2341 2966 2965 2365 2366 2991 2990 
2341 2342 2967 2966 2366 2367 2992 2991 
2342 2343 2968 2967 2367 2368 2993 2992 
2343 2344 2969 2968 2368 2369 2994 2993 
2344 2345 2970 2969 2369 2370 2995 2994 
2345 2346 2971 2970 2370 2371 2996 2995 
2346 2347 2972 2971 2371 2372 2997 2996 
2347 2348 2973 2972 2372 2373 2998 2997 
2348 2349 2974 2973 2373 2374 2999 2998 
2350 2351 2976 2975 2375 2376 3001 3000 
2351 2352 2977 2976 2376 2377 3002 3001 
2352 2353 2978 2977 2377 2378 3003 3002 
2353 2354 2979 2978 2378 2379 3004 3003 
2354 2355 2980 2979 2379 2380 3005 3004 
2355 2356 2981 2980 2380 2381 3006 3005 
2356 2357 2982 2981 2381 2382 3007 3006 
2357 2358 2983 2982 2382 2383 3008 3007 
2358 2359 2984 2983 2383 2384 3009 3008 
2359 2360 2985 2984 2384 2385 3010 3009 
2360 2361 2986 2985 2385 2386 3011 3010 
2361 2362 2987 2986 2386 2387 3012 3011 
2362 2363 2988 2987 2387 2388 3013 3012 
2363 2364 2989 2988 2388 2389 3014 3013 
2364 2365 2990 2989 2389 2390 3015 3014 
2365 2366 2991 2990 2390 2391 3016 3015 
2366 2367 2992 2991 2391 2392 3017 3016 
2367 2368 2993 2992 2392 2393 3018 3017 
2368 2369 2994 2993 2393 2394 3019 3018 
2369 2370 2995 2994 2394 2395 3020 3019 
2370 2371 2996 2995 2395 2396 3021 3020 
2371 2372 2997 2996 2396 2397 3022 3021 
2372 2373 2998 2997 2397 2398 3023 3022 
2373 2374 2999 2998 2398 2399 3024 3023 
2375 2376 3001 3000 2400 2401 3026 3025 
2376 2377 3002 3001 2401 2402 3027 3026 
2377 2378 3003 3002 2402 2403 3028 3027 
2378 2379 3004 3003 2403 2404 3029 3028 
2379 2380 3005 3004 2404 2405 3030 3029 
2380 2381 3006 3005 2405 2406 3031 3030 
2381 2382 3007 3006 2406 2407 3032 3031 
2382 2383 3008 3007 2407 2408 3033 3032 
2383 2384 3009 3008 2408 2409 3034 3033 
2384 2385 3010 3009 2409 2410 3035 3034 
2385 2386 3011 3010 2410 2411 3036 3035 
2386 2387 3012 3011 2411 2412 3037 3036 
2387 2388 3013 3012 2412 2413 3038 3037 
2388 2389 3014 3013 2413 2414 3039 3038 
2389 2390 3015 3014 2414 2415 3040 3039 
2390 2391 3016 3015 2415 2416 3041 3040 
2391 2392 3017 3016 2416 2417 3042 3041 
2392 2393 3018 3017 2417 2418 3043 3042 
2393 2394 3019 3018 2418 2419 3044 3043 
2394 2395 3020 3019 2419 2420 3045 3044 
2395 2396 3021 3020 2420 2421 3046 3045 
2396 2397 3022 3021 2421 2422 3047 3046 
2397 2398 3023 3022 2422 2423 3048 3047 
2398 2399 3024 3023 2423 2424 3049 3048 
2400 2401 3026 3025 2425 2426 3051 3050 
2401 2402 3027 3026 2426 2427 3052 3051 
2402 2403 3028 3027 2427 2428 3053 3052 
2403 2404 3029 3028 2428 2429 3054 3053 
2404 2405 3030 3029 2429 2430 3055 3054 
2405 2406 3031 3030 2430 2431 3056 3055 
2406 2407 3032 3031 2431 2432 3057 3056 
2407 2408 3033 3032 2432 2433 3058 3057 
2408 2409 3034 3033 2433 2434 3059 3058 
2409 2410 3035 3034 2434 2435 3060 3059 
2410 2411 3036 3035 2435 2436 3061 3060 
2411 2412 3037 3036 2436 2437 3062 3061 
2412 2413 3038 3037 2437 2438 3063 3062 
2413 2414 3039 3038 2438 2439 3064 3063 
2414 2415 3040 3039 2439 2440 3065 3064 
2415 2416 3041 3040 2440 2441 3066 3065 
2416 2417 3042 3041 2441 2442 3067 3066 
2417 2418 3043 3042 2442 2443 3068 3067 
2418 2419 3044 3043 2443 2444 3069 3068 
2419 2420 3045 3044 2444 2445 3070 3069 
2420 2421 3046 3045 2445 2446 3071 3070 
2421 2422 3047 3046 2446 2447 3072 3071 
2422 2423 3048 3047 2447 2448 3073 3072 
2423 2424 3049 3048 2448 2449 3074 3073 
2425 2426 3051 3050 2450 2451 3076 3075 
2426 2427 3052 3051 2451 2452 3077 3076 
2427 2428 3053 3052 2452 2453 3078 3077 
2428 2429 3054 3053 2453 2454 3079 3078 
2429 2430 3055 3054 2454 2455 3080 3079 
2430 2431 3056 3055 2455 2456 3081 3080 
2431 2432 3057 3056 2456 2457 3082 3081 
2432 2433 3058 3057 2457 2458 3083 3082 
2433 2434 3059 3058 2458 2459 3084 3083 
2434 2435 3060 3059 2459 2460 3085 3084 
2435 2436 3061 3060 2460 2461 3086 3085 
2436 2437 3062 3061 2461 2462 3087 3086 
2437 2438 3063 3062 2462 2463 3088 3087 
2438 2439 3064 3063 2463 2464 3089 3088 
2439 2440 3065 3064 2464 2465 3090 3089 
2440 2441 3066 3065 2465 2466 3091 3090 
2441 2442 3067 3066 2466 2467 3092 3091 
2442 2443 3068 3067 2467 2468 3093 3092 
2443 2444 3069 3068 2468 2469 3094 3093 
2444 2445 3070 3069 2469 2470 3095 3094 
2445 2446 3071 3070 2470 2471 3096 3095 
2446 2447 3072 3071 2471 2472 3097 3096 
2447 2448 3073 3072 2472 2473 3098 3097 
2448 2449 3074 3073 2473 2474 3099 3098 
2450 2451 3076 3075 2475 2476 3101 3100 
2451 2452 3077 3076 2476 2477 3102 3101 
2452 2453 3078 3077 2477 2478 3103 3102 
2453 2454 3079 3078 2478 2479 3104 3103 
2454 2455 3080 3079 2479 2480 3105 3104 
2455 2456 3081 3080 2480 2481 3106 3105 
2456 2457 3082 3081 2481 2482 3107 3106 
2457 2458 3083 3082 2482 2483 3108 3107 
2458 2459 3084 3083 2483 2484 3109 3108 
2459 2460 3085 3084 2484 2485 3110 3109 
2460 2461 3086 3085 2485 2486 3111 3110 
2461 2462 3087 3086 2486 2487 3112 3111 
2462 2463 3088 3087 2487 2488 3113 3112 
2463 2464 3089 3088 2488 2489 3114 3113 
2464 2465 3090 3089 2489 2490 3115 3114 
2465 2466 3091 3090 2490 2491 3116 3115 
2466 2467 3092 3091 2491 2492 3117 3116 
2467 2468 3093 3092 2492 2493 3118 3117 
2468 2469 3094 3093 2493 2494 3119 3118 
2469 2470 3095 3094 2494 2495 3120 3119 
2470 2471 3096 3095 2495 2496 3121 3120 
2471 2472 3097 3096 2496 2497 3122 3121 
2472 2473 3098 3097 2497 2498 3123 3122 
2473 2474 3099 3098 2498 2499 3124 3123 
2500 2501 3126 3125 2525 2526 3151 3150 
2501 2502 3127 3126 2526 2527 3152 3151 
2502 2503 3128 3127 2527 2528 3153 3152 
2503 2504 3129 3128 2528 2529 3154 3153 
2504 2505 3130 3129 2529 2530 3155 3154 
2505 2506 3131 3130 2530 2531 3156 3155 
2506 2507 3132 3131 2531 2532 3157 3156 
2507 2508 3133 3132 2532 2533 3158 3157 
2508 2509 3134 3133 2533 2534 3159 3158 
2509 2510 3135 3134 2534 2535 3160 3159 
2510 2511 3136 3135 2535 2536 3161 3160 
2511 2512 3137 3136 2536 2537 3162 3161 
2512 2513 3138 3137 2537 2538 3163 3162 
2513 2514 3139 3138 2538 2539 3164 3163 
2514 2515 3140 3139 2539 2540 3165 3164 
2515 2516 3141 3140 2540 2541 3166 3165 
2516 2517 3142 3141 2541 2542 3167 3166 
2517 2518 3143 3142 2542 2543 3168 3167 
2518 2519 3144 3143 2543 2544 3169 3168 
2519 2520 3145 3144 2544 2545 3170 3169 
2520 2521 3146 3145 2545 2546 3171 3170 
2521 2522 3147 3146 2546 2547 3172 3171 
2522 2523 3148 3147 2547 2548 3173 3172 
2523 2524 3149 3148 2548 2549 3174 3173 
2525 2526 3151 3150 2550 2551 3176 3175 
2526 2527 3152 3151 2551 2552 3177 3176 
2527 2528 3153 3152 2552 2553 3178 3177 
2528 2529 3154 3153 2553 2554 3179 3178 
2529 2530 3155 3154 2554 2555 3180 3179 
2530 2531 3156 3155 2555 2556 3181 3180 
2531 2532 3157 3156 2556 2557 3182 3181 
2532 2533 3158 3157 2557 2558 3183 3182 
2533 2534 3159 3158 2558 2559 3184 3183 
2534 2535 3160 3159 2559 2560 3185 3184 
2535 2536 3161 3160 2560 2561 3186 3185 
2536 2537 3162 3161 2561 2562 3187 3186 
2537 2538 3163 3162 2562 2563 3188 3187 
2538 2539 3164 3163 2563 2564 3189 3188 
2539 2540 3165 3164 2564 2565 3190 3189 
2540 2541 3166 3165 2565 2566 3191 3190 
2541 2542 3167 3166 2566 2567 3192 3191 
2542 2543 3168 3167 2567 2568 3193 3192 
2543 2544 3169 3168 2568 2569 3194 3193 
2544 2545 3170 3169 2569 2570 3195 3194 
2545 2546 3171 3170 2570 2571 3196 3195 
2546 2547 3172 3171 2571 2572 3197 3196 
2547 2548 3173 3172 2572 2573 3198 3197 
2548 2549 3174 3173 2573 2574 3199 3198 
2550 2551 3176 3175 2575 2576 3201 3200 
2551 2552 3177 3176 2576 2577 3202 3201 
2552 2553 3178 3177 2577 2578 3203 3202 
2553 2554 3179 3178 2578 2579 3204 3203 
2554 2555 3180 3179 2579 2580 3205 3204 
2555 2556 3181 3180 2580 2581 3206 3205 
2556 2557 3182 3181 2581 2582 3207 3206 
2557 2558 3183 3182 2582 2583 3208 3207 
2558 2559 3184 3183 2583 2584 3209 3208 
2559 2560 3185 3184 2584 2585 3210 3209 
2560 2561 3186 3185 2585 2586 3211 3210 
2561 2562 3187 3186 2586 2587 3212 3211 
2562 2563 3188 3187 2587 2588 3213 3212 
2563 2564 3189 3188 2588 2589 3214 3213 
2564 2565 3190 3189 2589 2590 3215 3214 
2565 2566 3191 3190 2590 2591 3216 3215 
2566 2567 3192 3191 2591 2592 3217 3216 
2567 2568 3193 3192 2592 2593 3218 3217 
2568 2569 3194 3193 2593 2594 3219 3218 
2569 2570 3195 3194 2594 2595 3220 3219 
2570 2571 3196 3195 2595 2596 3221 3220 
2571 2572 3197 3196 2596 2597 3222 3221 
2572 2573 3198 3197 2597 2598 3223 3222 
2573 2574 3199 3198 2598 2599 3224 3223 
2575 2576 3201 3200 2600 2601 3226 3225 
2576 2577 3202 3201 2601 2602 3227 3226 
2577 2578 3203 3202 2602 2603 3228 3227 
2578 2579 3204 3203 2603 2604 3229 3228 
2579 2580 3205 3204 2604 2605 3230 3229 
2580 2581 3206 3205 2605 2606 3231 3230 
2581 2582 3207 3206 2606 2607 3232 3231 
2582 2583 3208 3207 2607 2608 3233 3232 
2583 2584 3209 3208 2608 2609 3234 3233 
2584 2585 3210 3209 2609 2610 3235 3234 
2585 2586 3211 3210 2610 2611 3236 3235 
2586 2587 3212 3211 2611 2612 3237 3236 
2587 2588 3213 3212 2612 2613 3238 3237 
2588 2589 3214 3213 2613 2614 3239 3238 
2589 2590 3215 3214 2614 2615 3240 3239 
2590 2591 3216 3215 2615 2616 3241 3240 
2591 2592 3217 3216 2616 2617 3242 3241 
2592 2593 3218 3217 2617 2618 3243 3242 
2593 2594 3219 3218 2618 2619 3244 3243 
2594 2595 3220 3219 2619 2620 3245 3244 
2595 2596 3221 3220 2620 2621 3246 3245 
2596 2597 3222 3221 2621 2622 3247 3246 
2597 2598 3223 3222 2622 2623 3248 3247 
2598 2599 3224 3223 2623 2624 3249 3248 
2600 2601 3226 3225 2625 2626 3251 3250 
2601 2602 3227 3226 2626 2627 3252 3251 
2602 2603 3228 3227 2627 2628 3253 3252 
2603 2604 3229 3228 2628 2629 3254 3253 
2604 2605 3230 3229 2629 2630 3255 3254 
2605 2606 3231 3230 2630 2631 3256 3255 
2606 2607 3232 3231 2631 2632 3257 3256 
2607 2608 3233 3232 2632 2633 3258 3257 
2608 2609 3234 3233 2633 2634 3259 3258 
2609 2610 3235 3234 2634 2635 3260 3259 
2610 2611 3236 3235 2635 2636 3261 3260 
2611 2612 3237 3236 2636 2637 3262 3261 
2612 2613 3238 3237 2637 2638 3263 3262 
2613 2614 3239 3238 2638 2639 3264 3263 
2614 2615 3240 3239 2639 2640 3265 3264 
2615 2616 3241 3240 2640 2641 3266 3265 
2616 2617 3242 3241 2641 2642 3267 3266 
2617 2618 3243 3242 2642 2643 3268 3267 
2618 2619 3244 3243 2643 2644 3269 3268 
2619 2620 3245 3244 2644 2645 3270 3269 
2620 2621 3246 3245 2645 2646 3271 3270 
2621 2622 3247 3246 2646 2647 3272 3271 
2622 2623 3248 3247 2647 2648 3273 3272 
2623 2624 3249 3248 2648 2649 3274 3273 
2625 2626 3251 3250 2650 2651 3276 3275 
2626 2627 3252 3251 2651 2652 3277 3276 
2627 2628 3253 3252 2652 2653 3278 3277 
2628 2629 3254 3253 2653 2654 3279 3278 
2629 2630 3255 3254 2654 2655 3280 3279 
2630 2631 3256 3255 2655 2656 3281 3280 
2631 2632 3257 3256 2656 2657 3282 3281 
2632 2633 3258 3257 2657 2658 3283 3282 
2633 2634 3259 3258 2658 2659 3284 3283 
2634 2635 3260 3259 2659 2660 3285 3284 
2635 2636 3261 3260 2660 2661 3286 3285 
2636 2637 3262 3261 2661 2662 3287 3286 
2637 2638 3263 3262 2662 2663 3288 3287 
2638 2639 3264 3263 2663 2664 3289 3288 
2639 2640 3265 3264 2664 2665 3290 3289 
2640 2641 3266 3265 2665 2666 3291 3290 
2641 2642 3267 3266 2666 2667 3292 3291 
2642 2643 3268 3267 2667 2668 3293 3292 
2643 2644 3269 3268 2668 2669 3294 3293 
2644 2645 3270 3269 2669 2670 3295 3294 
2645 2646 3271 3270 2670 2671 3296 3295 
2646 2647 3272 3271 2671 2672 3297 3296 
2647 2648 3273 3272 2672 2673 3298 3297 
2648 2649 3274 3273 2673 2674 3299 3298 
2650 2651 3276 3275 2675 2676 3301 3300 
2651 2652 3277 3276 2676 2677 3302 3301 
2652 2653 3278 3277 2677 2678 3303 3302 
2653 2654 3279 3278 2678 2679 3304 3303 
2654 2655 3280 3279 2679 2680 3305 3304 
2655 2656 3281 3280 2680 2681 3306 3305 
2656 2657 3282 3281 2681 2682 3307 3306 
2657 2658 3283 3282 2682 2683 3308 3307 
2658 2659 3284 3283 2683 2684 3309 3308 
2659 2660 3285 3284 2684 2685 3310 3309 
2660 2661 3286 3285 2685 2686 3311 3310 
2661 2662 3287 3286 2686 2687 3312 3311 
2662 2663 3288 3287 2687 2688 3313 3312 
2663 2664 3289 3288 2688 2689 3314 3313 
2664 2665 3290 3289 2689 2690 3315 3314 
2665 2666 3291 3290 2690 2691 3316 3315 
2666 2667 3292 3291 2691 2692 3317 3316 
2667 2668 3293 3292 2692 2693 3318 3317 
2668 2669 3294 3293 2693 2694 3319 3318 
2669 2670 3295 3294 2694 2695 3320 3319 
2670 2671 3296 3295 2695 2696 3321 3320 
2671 2672 3297 3296 2696 2697 3322 3321 
2672 2673 3298 3297 2697 2698 3323 3322 
2673 2674 3299 3298 2698 2699 3324 3323 
2675 2676 3301 3300 2700 2701 3326 3325 
2676 2677 3302 3301 2701 2702 3327 3326 
2677 2678 3303 3302 2702 2703 3328 3327 
2678 2679 3304 3303 2703 2704 3329 3328 
2679 2680 3305 3304 2704 2705 3330 3329 
2680 2681 3306 3305 2705 2706 3331 3330 
2681 2682 3307 3306 2706 2707 3332 3331 
2682 2683 3308 3307 2707 2708 3333 3332 
2683 2684 3309 3308 2708 2709 3334 3333 
2684 2685 3310 3309 2709 2710 3335 3334 
2685 2686 3311 3310 2710 2711 3336 3335 
2686 2687 3312 3311 2711 2712 3337 3336 
2687 2688 3313 3312 2712 2713 3338 3337 
2688 2689 3314 3313 2713 2714 3339 3338 
2689 2690 3315 3314 2714 2715 3340 3339 
2690 2691 3316 3315 2715 2716 3341 3340 
2691 2692 3317 3316 2716 2717 3342 3341 
2692 2693 3318 3317 2717 2718 3343 3342 
2693 2694 3319 3318 2718 2719 3344 3343 
2694 2695 3320 3319 2719 2720 3345 3344 
2695 2696 3321 3320 2720 2721 3346 3345 
2696 2697 3322 3321 2721 2722 3347 3346 
2697 2698 3323 3322 2722 2723 3348 3347 
2698 2699 3324 3323 2723 2724 3349 3348 
2700 2701 3326 3325 2725 2726 3351 3350 
2701 2702 3327 3326 2726 2727 3352 3351 
2702 2703 3328 3327 2727 2728 3353 3352 
2703 2704 3329 3328 2728 2729 3354 3353 
2704 2705 3330 3329 2729 2730 3355 3354 
2705 2706 3331 3330 2730 2731 3356 3355 
2706 2707 3332 3331 2731 2732 3357 3356 
2707 2708 3333 3332 2732 2733 3358 3357 
2708 2709 3334 3333 2733 2734 3359 3358 
2709 2710 3335 3334 2734 2735 3360 3359 
2710 2711 3336 3335 2735 2736 3361 3360 
2711 2712 3337 3336 2736 2737 3362 3361 
2712 2713 3338 3337 2737 2738 3363 3362 
2713 2714 3339 3338 2738 2739 3364 3363 
2714 2715 3340 3339 2739 2740 3365 3364 
2715 2716 3341 3340 2740 2741 3366 3365 
2716 2717 3342 3341 2741 2742 3367 3366 
2717 2718 3343 3342 2742 2743 3368 3367 
2718 2719 3344 3343 2743 2744 3369 3368 
2719 2720 3345 3344 2744 2745 3370 3369 
2720 2721 3346 3345 2745 2746 3371 3370 
2721 2722 3347 3346 2746 2747 3372 3371 
2722 2723 3348 3347 2747 2748 3373 3372 
2723 2724 3349 3348 2748 2749 3374 3373 
2725 2726 3351 3350 2750 2751 3376 3375 
2726 2727 3352 3351 2751 2752 3377 3376 
2727 2728 3353 3352 2752 2753 3378 3377 
2728 2729 3354 3353 2753 2754 3379 3378 
2729 2730 3355 3354 2754 2755 3380 3379 
2730 2731 3356 3355 2755 2756 3381 3380 
2731 2732 3357 3356 2756 2757 3382 3381 
2732 2733 3358 3357 2757 2758 3383 3382 
2733 2734 3359 3358 2758 2759 3384 3383 
2734 2735 3360 3359 2759 2760 3385 3384 
2735 2736 3361 3360 2760 2761 3386 3385 
2736 2737 3362 3361 2761 2762 3387 3386 
2737 2738 3363 3362 2762 2763 3388 3387 
2738 2739 3364 3363 2763 2764 3389 3388 
2739 2740 3365 3364 2764 2765 3390 3389 
2740 2741 3366 3365 2765 2766 3391 3390 
2741 2742 3367 3366 2766 2767 3392 3391 
2742 2743 3368 3367 2767 2768 3393 3392 
2743 2744 3369 3368 2768 2769 3394 3393 
2744 2745 3370 3369 2769 2770 3395 3394 
2745 2746 3371 3370 2770 2771 3396 3395 
2746 2747 3372 3371 2771 2772 3397 3396 
2747 2748 3373 3372 2772 2773 3398 3397 
2748 2749 3374 3373 2773 2774 3399 3398 
2750 2751 3376 3375 2775 2776 3401 3400 
2751 2752 3377 3376 2776 2777 3402 3401 
2752 2753 3378 3377 2777 2778 3403 3402 
2753 2754 3379 3378 2778 2779 3404 3403 
2754 2755 3380 3379 2779 2780 3405 3404 
2755 2756 3381 3380 2780 2781 3406 3405 
2756 2757 3382 3381 2781 2782 3407 3406 
2757 2758 3383 3382 2782 2783 3408 3407 
2758 2759 3384 3383 2783 2784 3409 3408 
2759 2760 3385 3384 2784 2785 3410 3409 
2760 2761 3386 3385 2785 2786 3411 3410 
2761 2762 3387 3386 2786 2787 3412 3411 
2762 2763 3388 3387 2787 2788 3413 3412 
2763 2764 3389 3388 2788 2789 3414 3413 
2764 2765 3390 3389 2789 2790 3415 3414 
2765 2766 3391 3390 2790 2791 3416 3415 
2766 2767 3392 3391 2791 2792 3417 3416 
2767 2768 3393 3392 2792 2793 3418 3417 
2768 2769 3394 3393 2793 2794 3419 3418 
2769 2770 3395 3394 2794 2795 3420 3419 
2770 2771 3396 3395 2795 2796 3421 3420 
2771 2772 3397 3396 2796 2797 3422 3421 
2772 2773 3398 3397 2797 2798 3423 3422 
2773 2774 3399 3398 2798 2799 3424 3423 
2775 2776 3401 3400 2800 2801 3426 3425 
2776 2777 3402 3401 2801 2802 3427 3426 
2777 2778 3403 3402 2802 2803 3428 3427 
2778 2779 3404 3403 2803 2804 3429 3428 
2779 2780 3405 3404 2804 2805 3430 3429 
2780 2781 3406 3405 2805 2806 3431 3430 
2781 2782 3407 3406 2806 2807 3432 3431 
2782 2783 3408 3407 2807 2808 3433 3432 
2783 2784 3409 3408 2808 2809 3434 3433 
2784 2785 3410 3409 2809 2810 3435 3434 
2785 2786 3411 3410 2810 2811 3436 3435 
2786 2787 3412 3411 2811 2812 3437 3436 
2787 2788 3413 3412 2812 2813 3438 3437 
2788 2789 3414 3413 2813 2814 3439 3438 
2789 2790 3415 3414 2814 2815 3440 3439 
2790 2791 3416 3415 2815 2816 3441 3440 
2791 2792 3417 3416 2816 2817 3442 3441 
2792 2793 3418 3417 2817 2818 3443 3442 
2793 2794 3419 3418 2818 2819 3444 3443 
2794 2795 3420 3419 2819 2820 3445 3444 
2795 2796 3421 3420 2820 2821 3446 3445 
2796 2797 3422 3421 2821 2822 3447 3446 
2797 2798 3423 3422 2822 2823 3448 3447 
2798 2799 3424 3423 2823 2824 3449 3448 
2800 2801 3426 3425 2825 2826 3451 3450 
2801 2802 3427 3426 2826 2827 3452 3451 
2802 2803 3428 3427 2827 2828 3453 3452 
2803 2804 3429 3428 2828 2829 3454 3453 
2804 2805 3430 3429 2829 2830 3455 3454 
2805 2806 3431 3430 2830 2831 3456 3455 
2806 2807 3432 3431 2831 2832 3457 3456 
2807 2808 3433 3432 2832 2833 3458 3457 
2808 2809 3434 3433 2833 2834 3459 3458 
2809 2810 3435 3434 2834 2835 3460 3459 
2810 2811 3436 3435 2835 2836 3461 3460 
2811 2812 3437 3436 2836 2837 3462 3461 
2812 2813 3438 3437 2837 2838 3463 3462 
2813 2814 3439 3438 2838 2839 3464 3463 
2814 2815 3440 3439 2839 2840 3465 3464 
2815 2816 3441 3440 2840 2841 3466 3465 
2816 2817 3442 3441 2841 2842 3467 3466 
2817 2818 3443 3442 2842 2843 3468 3467 
2818 2819 3444 3443 2843 2844 3469 3468 
2819 2820 3445 3444 2844 2845 3470 3469 
2820 2821 3446 3445 2845 2846 3471 3470 
2821 2822 3447 3446 2846 2847 3472 3471 
2822 2823 3448 3447 2847 2848 3473 3472 
2823 2824 3449 3448 2848 2849 3474 3473 
2825 2826 3451 3450 2850 2851 3476 3475 
2826 2827 3452 3451 2851 2852 3477 3476 
2827 2828 3453 3452 2852 2853 3478 3477 
2828 2829 3454 3453 2853 2854 3479 3478 
2829 2830 3455 3454 2854 2855 3480 3479 
2830 2831 3456 3455 2855 2856 3481 3480 
2831 2832 3457 3456 2856 2857 3482 3481 
2832 2833 3458 3457 2857 2858 3483 3482 
2833 2834 3459 3458 2858 2859 3484 3483 
2834 2835 3460 3459 2859 2860 3485 3484 
2835 2836 3461 3460 2860 2861 3486 3485 
2836 2837 3462 3461 2861 2862 3487 3486 
2837 2838 3463 3462 2862 2863 3488 3487 
2838 2839 3464 3463 2863 2864 3489 3488 
2839 2840 3465 3464 2864 2865 3490 3489 
2840 2841 3466 3465 2865 2866 3491 3490 
2841 2842 3467 3466 2866 2867 3492 3491 
2842 2843 3468 3467 2867 2868 3493 3492 
2843 2844 3469 3468 2868 2869 3494 3493 
2844 2845 3470 3469 2869 2870 3495 3494 
2845 2846 3471 3470 2870 2871 3496 3495 
2846 2847 3472 3471 2871 2872 3497 3496 
2847 2848 3473 3472 2872 2873 3498 3497 
2848 2849 3474 3473 2873 2874 3499 3498 
2850 2851 3476 3475 2875 2876 3501 3500 
2851 2852 3477 3476 2876 2877 3502 3501 
2852 2853 3478 3477 2877 2878 3503 3502 
2853 2854 3479 3478 2878 2879 3504 3503 
2854 2855 3480 3479 2879 2880 3505 3504 
2855 2856 3481 3480 2880 2881 3506 3505 
2856 2857 3482 3481 2881 2882 3507 3506 
2857 2858 3483 3482 2882 2883 3508 3507 
2858 2859 3484 3483 2883 2884 3509 3508 
2859 2860 3485 3484 2884 2885 3510 3509 
2860 2861 3486 3485 2885 2886 3511 3510 
2861 2862 3487 3486 2886 2887 3512 3511 
2862 2863 3488 3487 2887 2888 3513 3512 
2863 2864 3489 3488 2888 2889 3514 3513 
2864 2865 3490 3489 2889 2890 3515 3514 
2865 2866 3491 3490 2890 2891 3516 3515 
2866 2867 3492 3491 2891 2892 3517 3516 
2867 2868 3493 3492 2892 2893 3518 3517 
2868 2869 3494 3493 2893 2894 3519 3518 
2869 2870 3495 3494 2894 2895 3520 3519 
2870 2871 3496 3495 2895 2896 3521 3520 
2871 2872 3497 3496 2896 2897 3522 3521 
2872 2873 3498 3497 2897 2898 3523 3522 
2873 2874 3499 3498 2898 2899 3524 3523 
2875 2876 3501 3500 2900 2901 3526 3525 
2876 2877 3502 3501 2901 2902 3527 3526 
2877 2878 3503 3502 2902 2903 3528 3527 
2878 2879 3504 3503 2903 2904 3529 3528 
2879 2880 3505 3504 2904 2905 3530 3529 
2880 2881 3506 3505 2905 2906 3531 3530 
2881 2882 3507 3506 2906 2907 3532 3531 
2882 2883 3508 3507 2907 2908 3533 3532 
2883 2884 3509 3508 2908 2909 3534 3533 
2884 2885 3510 3509 2909 2910 3535 3534 
2885 2886 3511 3510 2910 2911 3536 3535 
2886 2887 3512 3511 2911 2912 3537 3536 
2887 2888 3513 3512 2912 2913 3538 3537 
2888 2889 3514 3513 2913 2914 3539 3538 
2889 2890 3515 3514 2914 2915 3540 3539 
2890 2891 3516 3515 2915 2916 3541 3540 
2891 2892 3517 3516 2916 2917 3542 3541 
2892 2893 3518 3517 2917 2918 3543 3542 
2893 2894 3519 3518 2918 2919 3544 3543 
2894 2895 3520 3519 2919 2920 3545 3544 
2895 2896 3521 3520 2920 2921 3546 3545 
2896 2897 3522 3521 2921 2922 3547 3546 
2897 2898 3523 3522 2922 2923 3548 3547 
2898 2899 3524 3523 2923 2924 3549 3548 
2900 2901 3526 3525 2925 2926 3551 3550 
2901 2902 3527 3526 2926 2927 3552 3551 
2902 2903 3528 3527 2927 2928 3553 3552 
2903 2904 3529 3528 2928 2929 3554 3553 
2904 2905 3530 3529 2929 2930 3555 3554 
2905 2906 3531 3530 2930 2931 3556 3555 
2906 2907 3532 3531 2931 2932 3557 3556 
2907 2908 3533 3532 2932 2933 3558 3557 
2908 2909 3534 3533 2933 2934 3559 3558 
2909 2910 3535 3534 2934 2935 3560 3559 
2910 2911 3536 3535 2935 2936 3561 3560 
2911 2912 3537 3536 2936 2937 3562 3561 
2912 2913 3538 3537 2937 2938 3563 3562 
2913 2914 3539 3538 2938 2939 3564 3563 
2914 2915 3540 3539 2939 2940 3565 3564 
2915 2916 3541 3540 2940 2941 3566 3565 
2916 2917 3542 3541 2941 2942 3567 3566 
2917 2918 3543 3542 2942 2943 3568 3567 
2918 2919 3544 3543 2943 2944 3569 3568 
2919 2920 3545 3544 2944 2945 3570 3569 
2920 2921 3546 3545 2945 2946 3571 3570 
2921 2922 3547 3546 2946 2947 3572 3571 
2922 2923 3548 3547 2947 2948 3573 3572 
2923 2924 3549 3548 2948 2949 3574 3573 
2925 2926 3551 3550 2950 2951 3576 3575 
2926 2927 3552 3551 2951 2952 3577 3576 
2927 2928 3553 3552 2952 2953 3578 3577 
2928 2929 3554 3553 2953 2954 3579 3578 
2929 2930 3555 3554 2954 2955 3580 3579 
2930 2931 3556 3555 2955 2956 3581 3580 
2931 2932 3557 3556 2956 2957 3582 3581 
2932 2933 3558 3557 2957 2958 3583 3582 
2933 2934 3559 3558 2958 2959 3584 3583 
2934 2935 3560 3559 2959 2960 3585 3584 
2935 2936 3561 3560 2960 2961 3586 3585 
2936 2937 3562 3561 2961 2962 3587 3586 
2937 2938 3563 3562 2962 2963 3588 3587 
2938 2939 3564 3563 2963 2964 3589 3588 
2939 2940 3565 3564 2964 2965 3590 3589 
2940 2941 3566 3565 2965 2966 3591 3590 
2941 2942 3567 3566 2966 2967 3592 3591 
2942 2943 3568 3567 2967 2968 3593 3592 
2943 2944 3569 3568 2968 2969 3594 3593 
2944 2945 3570 3569 2969 2970 3595 3594 
2945 2946 3571 3570 2970 2971 3596 3595 
2946 2947 3572 3571 2971 2972 3597 3596 
2947 2948 3573 3572 2972 2973 3598 3597 
2948 2949 3574 3573 2973 2974 3599 3598 
2950 2951 3576 3575 2975 2976 3601 3600 
2951 2952 3577 3576 2976 2977 3602 3601 
2952 2953 3578 3577 2977 2978 3603 3602 
2953 2954 3579 3578 2978 2979 3604 3603 
2954 2955 3580 3579 2979 2980 3605 3604 
2955 2956 3581 3580 2980 2981 3606 3605 
2956 2957 3582 3581 2981 2982 3607 3606 
2957 2958 3583 3582 2982 2983 3608 3607 
2958 2959 3584 3583 2983 2984 3609 3608 
2959 2960 3585 3584 2984 2985 3610 3609 
2960 2961 3586 3585 2985 2986 3611 3610 
2961 2962 3587 3586 2986 2987 3612 3611 
2962 2963 3588 3587 2987 2988 3613 3612 
2963 2964 3589 3588 2988 2989 3614 3613 
2964 2965 3590 3589 2989 2990 3615 3614 
2965 2966 3591 3590 2990 2991 3616 3615 
2966 2967 3592 3591 2991 2992 3617 3616 
2967 2968 3593 3592 2992 2993 3618 3617 
2968 2969 3594 3593 2993 2994 3619 3618 
2969 2970 3595 3594 2994 2995 3620 3619 
2970 2971 3596 3595 2995 2996 3621 3620 
2971 2972 3597 3596 2996 2997 3622 3621 
2972 2973 3598 3597 2997 2998 3623 3622 
2973 2974 3599 3598 2998 2999 3624 3623 
2975 2976 3601 3600 3000 3001 3626 3625 
2976 2977 3602 3601 3001 3002 3627 3626 
2977 2978 3603 3602 3002 3003 3628 3627 
2978 2979 3604 3603 3003 3004 3629 3628 
2979 2980 3605 3604 3004 3005 3630 3629 
2980 2981 3606 3605 3005 3006 3631 3630 
2981 2982 3607 3606 3006 3007 3632 3631 
2982 2983 3608 3607 3007 3008 3633 3632 
2983 2984 3609 3608 3008 3009 3634 3633 
2984 2985 3610 3609 3009 3010 3635 3634 
2985 2986 3611 3610 3010 3011 3636 3635 
2986 2987 3612 3611 3011 3012 3637 3636 
2987 2988 3613 3612 3012 3013 3638 3637 
2988 2989 3614 3613 3013 3014 3639 3638 
2989 2990 3615 3614 3014 3015 3640 3639 
2990 2991 3616 3615 3015 3016 3641 3640 
2991 2992 3617 3616 3016 3017 3642 3641 
2992 2993 3618 3617 3017 3018 3643 3642 
2993 2994 3619 3618 3018 3019 3644 3643 
2994 2995 3620 3619 3019 3020 3645 3644 
2995 2996 3621 3620 3020 3021 3646 3645 
2996 2997 3622 3621 3021 3022 3647 3646 
2997 2998 3623 3622 3022 3023 3648 3647 
2998 2999 3624 3623 3023 3024 3649 3648 
3000 3001 3626 3625 3025 3026 3651 3650 
3001 3002 3627 3626 3026 3027 3652 3651 
3002 3003 3628 3627 3027 3028 3653 3652 
3003 3004 3629 3628 3028 3029 3654 3653 
3004 3005 3630 3629 3029 3030 3655 3654 
3005 3006 3631 3630 3030 3031 3656 3655 
3006 3007 3632 3631 3031 3032 3657 3656 
3007 3008 3633 3632 3032 3033 3658 3657 
3008 3009 3634 3633 3033 3034 3659 3658 
3009 3010 3635 3634 3034 3035 3660 3659 
3010 3011 3636 3635 3035 3036 3661 3660 
3011 3012 3637 3636 3036 3037 3662 3661 
3012 3013 3638 3637 3037 3038 3663 3662 
3013 3014 3639 3638 3038 3039 3664 3663 
3014 3015 3640 3639 3039 3040 3665 3664 
3015 3016 3641 3640 3040 3041 3666 3665 
3016 3017 3642 3641 3041 3042 3667 3666 
3017 3018 3643 3642 3042 3043 3668 3667 
3018 3019 3644 3643 3043 3044 3669 3668 
3019 3020 3645 3644 3044 3045 3670 3669 
3020 3021 3646 3645 3045 3046 3671 3670 
3021 3022 3647 3646 3046 3047 3672 3671 
3022 3023 3648 3647 3047 3048 3673 3672 
3023 3024 3649 3648 3048 3049 3674 3673 
3025 3026 3651 3650 3050 3051 3676 3675 
3026 3027 3652 3651 3051 3052 3677 3676 
3027 3028 3653 3652 3052 3053 3678 3677 
3028 3029 3654 3653 3053 3054 3679 3678 
3029 3030 3655 3654 3054 3055 3680 3679 
3030 3031 3656 3655 3055 3056 3681 3680 
3031 3032 3657 3656 3056 3057 3682 3681 
3032 3033 3658 3657 3057 3058 3683 3682 
3033 3034 3659 3658 3058 3059 3684 3683 
3034 3035 3660 3659 3059 3060 3685 3684 
3035 3036 3661 3660 3060 3061 3686 3685 
3036 3037 3662 3661 3061 3062 3687 3686 
3037 3038 3663 3662 3062 3063 3688 3687 
3038 3039 3664 3663 3063 3064 3689 3688 
3039 3040 3665 3664 3064 3065 3690 3689 
3040 3041 3666 3665 3065 3066 3691 3690 
3041 3042 3667 3666 3066 3067 3692 3691 
3042 3043 3668 3667 3067 3068 3693 3692 
3043 3044 3669 3668 3068 3069 3694 3693 
3044 3045 3670 3669 3069 3070 3695 3694 
3045 3046 3671 3670 3070 3071 3696 3695 
3046 3047 3672 3671 3071 3072 3697 3696 
3047 3048 3673 3672 3072 3073 3698 3697 
3048 3049 3674 3673 3073 3074 3699 3698 
3050 3051 3676 3675 3075 3076 3701 3700 
3051 3052 3677 3676 3076 3077 3702 3701 
3052 3053 3678 3677 3077 3078 3703 3702 
3053 3054 3679 3678 3078 3079 3704 3703 
3054 3055 3680 3679 3079 3080 3705 3704 
3055 3056 3681 3680 3080 3081 3706 3705 
3056 3057 3682 3681 3081 3082 3707 3706 
3057 3058 3683 3682 3082 3083 3708 3707 
3058 3059 3684 3683 3083 3084 3709 3708 
3059 3060 3685 3684 3084 3085 3710 3709 
3060 3061 3686 3685 3085 3086 3711 3710 
3061 3062 3687 3686 3086 3087 3712 3711 
3062 3063 3688 3687 3087 3088 3713 3712 
3063 3064 3689 3688 3088 3089 3714 3713 
3064 3065 3690 3689 3089 3090 3715 3714 
3065 3066 3691 3690 3090 3091 3716 3715 
3066 3067 3692 3691 3091 3092 3717 3716 
3067 3068 3693 3692 3092 3093 3718 3717 
3068 3069 3694 3693 3093 3094 3719 3718 
3069 3070 3695 3694 3094 3095 3720 3719 
3070 3071 3696 3695 3095 3096 3721 3720 
3071 3072 3697 3696 3096 3097 3722 3721 
3072 3073 3698 3697 3097 3098 3723 3722 
3073 3074 3699 3698 3098 3099 3724 3723 
3075 3076 3701 3700 3100 3101 3726 3725 
3076 3077 3702 3701 3101 3102 3727 3726 
3077 3078 3703 3702 3102 3103 3728 3727 
3078 3079 3704 3703 3103 3104 3729 3728 
3079 3080 3705 3704 3104 3105 3730 3729 
3080 3081 3706 3705 3105 3106 3731 3730 
3081 3082 3707 3706 3106 3107 3732 3731 
3082 3083 3708 3707 3107 3108 3733 3732 
3083 3084 3709 3708 3108 3109 3734 3733 
3084 3085 3710 3709 3109 3110 3735 3734 
3085 3086 3711 3710 3110 3111 3736 3735 
3086 3087 3712 3711 3111 3112 3737 3736 
3087 3088 3713 3712 3112 3113 3738 3737 
3088 3089 3714 3713 3113 3114 3739 3738 
3089 3090 3715 3714 3114 3115 3740 3739 
3090 3091 3716 3715 3115 3116 3741 3740 
3091 3092 3717 3716 3116 3117 3742 3741 
3092 3093 3718 3717 3117 3118 3743 3742 
3093 3094 3719 3718 3118 3119 3744 3743 
3094 3095 3720 3719 3119 3120 3745 3744 
3095 3096 3721 3720 3120 3121 3746 3745 
3096 3097 3722 3721 3121 3122 3747 3746 
3097 3098 3723 3722 3122 3123 3748 3747 
3098 3099 3724 3723 3123 3124 3749 3748 
3125 3126 3751 3750 3150 3151 3776 3775 
3126 3127 3752 3751 3151 3152 3777 3776 
3127 3128 3753 3752 3152 3153 3778 3777 
3128 3129 3754 3753 3153 3154 3779 3778 
3129 3130 3755 3754 3154 3155 3780 3779 
3130 3131 3756 3755 3155 3156 3781 3780 
3131 3132 3757 3756 3156 3157 3782 3781 
3132 3133 3758 3757 3157 3158 3783 3782 
3133 3134 3759 3758 3158 3159 3784 3783 
3134 3135 3760 3759 3159 3160 3785 3784 
3135 3136 3761 3760 3160 3161 3786 3785 
3136 3137 3762 3761 3161 3162 3787 3786 
3137 3138 3763 3762 3162 3163 3788 3787 
3138 3139 3764 3763 3163 3164 3789 3788 
3139 3140 3765 3764 3164 3165 3790 3789 
3140 3141 3766 3765 3165 3166 3791 3790 
3141 3142 3767 3766 3166 3167 3792 3791 
3142 3143 3768 3767 3167 3168 3793 3792 
3143 3144 3769 3768 3168 3169 3794 3793 
3144 3145 3770 3769 3169 3170 3795 3794 
3145 3146 3771 3770 3170 3171 3796 3795 
3146 3147 3772 3771 3171 3172 3797 3796 
3147 3148 3773 3772 3172 3173 3798 3797 
3148 3149 3774 3773 3173 3174 3799 3798 
3150 3151 3776 3775 3175 3176 3801 3800 
3151 3152 3777 3776 3176 3177 3802 3801 
3152 3153 3778 3777 3177 3178 3803 3802 
3153 3154 3779 3778 3178 3179 3804 3803 
3154 3155 3780 3779 3179 3180 3805 3804 
3155 3156 3781 3780 3180 3181 3806 3805 
3156 3157 3782 3781 3181 3182 3807 3806 
3157 3158 3783 3782 3182 3183 3808 3807 
3158 3159 3784 3783 3183 3184 3809 3808 
3159 3160 3785 3784 3184 3185 3810 3809 
3160 3161 3786 3785 3185 3186 3811 3810 
3161 3162 3787 3786 3186 3187 3812 3811 
3162 3163 3788 3787 3187 3188 3813 3812 
3163 3164 3789 3788 3188 3189 3814 3813 
3164 3165 3790 3789 3189 3190 3815 3814 
3165 3166 3791 3790 3190 3191 3816 3815 
3166 3167 3792 3791 3191 3192 3817 3816 
3167 3168 3793 3792 3192 3193 3818 3817 
3168 3169 3794 3793 3193 3194 3819 3818 
3169 3170 3795 3794 3194 3195 3820 3819 
3170 3171 3796 3795 3195 3196 3821 3820 
3171 3172 3797 3796 3196 3197 3822 3821 
3172 3173 3798 3797 3197 3198 3823 3822 
3173 3174 3799 3798 3198 3199 3824 3823 
3175 3176 3801 3800 3200 3201 3826 3825 
3176 3177 3802 3801 3201 3202 3827 3826 
3177 3178 3803 3802 3202 3203 3828 3827 
3178 3179 3804 3803 3203 3204 3829 3828 
3179 3180 3805 3804 3204 3205 3830 3829 
3180 3181 3806 3805 3205 3206 3831 3830 
3181 3182 3807 3806 3206 3207 3832 3831 
3182 3183 3808 3807 3207 3208 3833 3832 
3183 3184 3809 3808 3208 3209 3834 3833 
3184 3185 3810 3809 3209 3210 3835 3834 
3185 3186 3811 3810 3210 3211 3836 3835 
3186 3187 3812 3811 3211 3212 3837 3836 
3187 3188 3813 3812 3212 3213 3838 3837 
3188 3189 3814 3813 3213 3214 3839 3838 
3189 3190 3815 3814 3214 3215 3840 3839 
3190 3191 3816 3815 3215 3216 3841 3840 
3191 3192 3817 3816 3216 3217 3842 3841 
3192 3193 3818 3817 3217 3218 3843 3842 
3193 3194 3819 3818 3218 3219 3844 3843 
3194 3195 3820 3819 3219 3220 3845 3844 
3195 3196 3821 3820 3220 3221 3846 3845 
3196 3197 3822 3821 3221 3222 3847 3846 
3197 3198 3823 3822 3222 3223 3848 3847 
3198 3199 3824 3823 3223 3224 3849 3848 
3200 3201 3826 3825 3225 3226 3851 3850 
3201 3202 3827 3826 3226 3227 3852 3851 
3202 3203 3828 3827 3227 3228 3853 3852 
3203 3204 3829 3828 3228 3229 3854 3853 
3204 3205 3830 3829 3229 3230 3855 3854 
3205 3206 3831 3830 3230 3231 3856 3855 
3206 3207 3832 3831 3231 3232 3857 3856 
3207 3208 3833 3832 3232 3233 3858 3857 
3208 3209 3834 3833 3233 3234 3859 3858 
3209 3210 3835 3834 3234 3235 3860 3859 
3210 3211 3836 3835 3235 3236 3861 3860 
3211 3212 3837 3836 3236 3237 3862 3861 
3212 3213 3838 3837 3237 3238 3863 3862 
3213 3214 3839 3838 3238 3239 3864 3863 
3214 3215 3840 3839 3239 3240 3865 3864 
3215 3216 3841 3840 3240 3241 3866 3865 
3216 3217 3842 3841 3241 3242 3867 3866 
3217 3218 3843 3842 3242 3243 3868 3867 
3218 3219 3844 3843 3243 3244 3869 3868 
3219 3220 3845 3844 3244 3245 3870 3869 
3220 3221 3846 3845 3245 3246 3871 3870 
3221 3222 3847 3846 3246 3247 3872 3871 
3222 3223 3848 3847 3247 3248 3873 3872 
3223 3224 3849 3848 3248 3249 3874 3873 
3225 3226 3851 3850 3250 3251 3876 3875 
3226 3227 3852 3851 3251 3252 3877 3876 
3227 3228 3853 3852 3252 3253 3878 3877 
3228 3229 3854 3853 3253 3254 3879 3878 
3229 3230 3855 3854 3254 3255 3880 3879 
3230 3231 3856 3855 3255 3256 3881 3880 
3231 3232 3857 3856 3256 3257 3882 3881 
3232 3233 3858 3857 3257 3258 3883 3882 
3233 3234 3859 3858 3258 3259 3884 3883 
3234 3235 3860 3859 3259 3260 3885 3884 
3235 3236 3861 3860 3260 3261 3886 3885 
3236 3237 3862 3861 3261 3262 3887 3886 
3237 3238 3863 3862 3262 3263 3888 3887 
3238 3239 3864 3863 3263 3264 3889 3888 
3239 3240 3865 3864 3264 3265 3890 3889 
3240 3241 3866 3865 3265 3266 3891 3890 
3241 3242 3867 3866 3266 3267 3892 3891 
3242 3243 3868 3867 3267 3268 3893 3892 
3243 3244 3869 3868 3268 3269 3894 3893 
3244 3245 3870 3869 3269 3270 3895 3894 
3245 3246 3871 3870 3270 3271 3896 3895 
3246 3247 3872 3871 3271 3272 3897 3896 
3247 3248 3873 3872 3272 3273 3898 3897 
3248 3249 3874 3873 3273 3274 3899 3898 
3250 3251 3876 3875 3275 3276 3901 3900 
3251 3252 3877 3876 3276 3277 3902 3901 
3252 3253 3878 3877 3277 3278 3903 3902 
3253 3254 3879 3878 3278 3279 3904 3903 
3254 3255 3880 3879 3279 3280 3905 3904 
3255 3256 3881 3880 3280 3281 3906 3905 
3256 3257 3882 3881 3281 3282 3907 3906 
3257 3258 3883 3882 3282 3283 3908 3907 
3258 3259 3884 3883 3283 3284 3909 3908 
3259 3260 3885 3884 3284 3285 3910 3909 
3260 3261 3886 3885 3285 3286 3911 3910 
3261 3262 3887 3886 3286 3287 3912 3911 
3262 3263 3888 3887 3287 3288 3913 3912 
3263 3264 3889 3888 3288 3289 3914 3913 
3264 3265 3890 3889 3289 3290 3915 3914 
3265 3266 3891 3890 3290 3291 3916 3915 
3266 3267 3892 3891 3291 3292 3917 3916 
3267 3268 3893 3892 3292 3293 3918 3917 
3268 3269 3894 3893 3293 3294 3919 3918 
3269 3270 3895 3894 3294 3295 3920 3919 
3270 3271 3896 3895 3295 3296 3921 3920 
3271 3272 3897 3896 3296 3297 3922 3921 
3272 3273 3898 3897 3297 3298 3923 3922 
3273 3274 3899 3898 3298 3299 3924 3923 
3275 3276 3901 3900 3300 3301 3926 3925 
3276 3277 3902 3901 3301 3302 3927 3926 
3277 3278 3903 3902 3302 3303 3928 3927 
3278 3279 3904 3903 3303 3304 3929 3928 
3279 3280 3905 3904 3304 3305 3930 3929 
3280 3281 3906 3905 3305 3306 3931 3930 
3281 3282 3907 3906 3306 3307 3932 3931 
3282 3283 3908 3907 3307 3308 3933 3932 
3283 3284 3909 3908 3308 3309 3934 3933 
3284 3285 3910 3909 3309 3310 3935 3934 
3285 3286 3911 3910 3310 3311 3936 3935 
3286 3287 3912 3911 3311 3312 3937 3936 
3287 3288 3913 3912 3312 3313 3938 3937 
3288 3289 3914 3913 3313 3314 3939 3938 
3289 3290 3915 3914 3314 3315 3940 3939 
3290 3291 3916 3915 3315 3316 3941 3940 
3291 3292 3917 3916 3316 3317 3942 3941 
3292 3293 3918 3917 3317 3318 3943 3942 
3293 3294 3919 3918 3318 3319 3944 3943 
3294 3295 3920 3919 3319 3320 3945 3944 
3295 3296 3921 3920 3320 3321 3946 3945 
3296 3297 3922 3921 3321 3322 3947 3946 
3297 3298 3923 3922 3322 3323 3948 3947 
3298 3299 3924 3923 3323 3324 3949 3948 
3300 3301 3926 3925 3325 3326 3951 3950 
3301 3302 3927 3926 3326 3327 3952 3951 
3302 3303 3928 3927 3327 3328 3953 3952 
3303 3304 3929 3928 3328 3329 3954 3953 
3304 3305 3930 3929 3329 3330 3955 3954 
3305 3306 3931 3930 3330 3331 3956 3955 
3306 3307 3932 3931 3331 3332 3957 3956 
3307 3308 3933 3932 3332 3333 3958 3957 
3308 3309 3934 3933 3333 3334 3959 3958 
3309 3310 3935 3934 3334 3335 3960 3959 
3310 3311 3936 3935 3335 3336 3961 3960 
3311 3312 3937 3936 3336 3337 3962 3961 
3312 3313 3938 3937 3337 3338 3963 3962 
3313 3314 3939 3938 3338 3339 3964 3963 
3314 3315 3940 3939 3339 3340 3965 3964 
3315 3316 3941 3940 3340 3341 3966 3965 
3316 3317 3942 3941 3341 3342 3967 3966 
3317 3318 3943 3942 3342 3343 3968 3967 
3318 3319 3944 3943 3343 3344 3969 3968 
3319 3320 3945 3944 3344 3345 3970 3969 
3320 3321 3946 3945 3345 3346 3971 3970 
3321 3322 3947 3946 3346 3347 3972 3971 
3322 3323 3948 3947 3347 3348 3973 3972 
3323 3324 3949 3948 3348 3349 3974 3973 
3325 3326 3951 3950 3350 3351 3976 3975 
3326 3327 3952 3951 3351 3352 3977 3976 
3327 3328 3953 3952 3352 3353 3978 3977 
3328 3329 3954 3953 3353 3354 3979 3978 
3329 3330 3955 3954 3354 3355 3980 3979 
3330 3331 3956 3955 3355 3356 3981 3980 
3331 3332 3957 3956 3356 3357 3982 3981 
3332 3333 3958 3957 3357 3358 3983 3982 
3333 3334 3959 3958 3358 3359 3984 3983 
3334 3335 3960 3959 3359 3360 3985 3984 
3335 3336 3961 3960 3360 3361 3986 3985 
3336 3337 3962 3961 3361 3362 3987 3986 
3337 3338 3963 3962 3362 3363 3988 3987 
3338 3339 3964 3963 3363 3364 3989 3988 
3339 3340 3965 3964 3364 3365 3990 3989 
3340 3341 3966 3965 3365 3366 3991 3990 
3341 3342 3967 3966 3366 3367 3992 3991 
3342 3343 3968 3967 3367 3368 3993 3992 
3343 3344 3969 3968 3368 3369 3994 3993 
3344 3345 3970 3969 3369 3370 3995 3994 
3345 3346 3971 3970 3370 3371 3996 3995 
3346 3347 3972 3971 3371 3372 3997 3996 
3347 3348 3973 3972 3372 3373 3998 3997 
3348 3349 3974 3973 3373 3374 3999 3998 
3350 3351 3976 3975 3375 3376 4001 4000 
3351 3352 3977 3976 3376 3377 4002 4001 
3352 3353 3978 3977 3377 3378 4003 4002 
3353 3354 3979 3978 3378 3379 4004 4003 
3354 3355 3980 3979 3379 3380 4005 4004 
3355 3356 3981 3980 3380 3381 4006 4005 
3356 3357 3982 3981 3381 3382 4007 4006 
3357 3358 3983 3982 3382 3383 4008 4007 
3358 3359 3984 3983 3383 3384 4009 4008 
3359 3360 3985 3984 3384 3385 4010 4009 
3360 3361 3986 3985 3385 3386 4011 4010 
3361 3362 3987 3986 3386 3387 4012 4011 
3362 3363 3988 3987 3387 3388 4013 4012 
3363 3364 3989 3988 3388 3389 4014 4013 
3364 3365 3990 3989 3389 3390 4015 4014 
3365 3366 3991 3990 3390 3391 4016 4015 
3366 3367 3992 3991 3391 3392 4017 4016 
3367 3368 3993 3992 3392 3393 4018 4017 
3368 3369 3994 3993 3393 3394 4019 4018 
3369 3370 3995 3994 3394 3395 4020 4019 
3370 3371 3996 3995 3395 3396 4021 4020 
3371 3372 3997 3996 3396 3397 4022 4021 
3372 3373 3998 3997 3397 3398 4023 4022 
3373 3374 3999 3998 3398 3399 4024 4023 
3375 3376 4001 4000 3400 3401 4026 4025 
3376 3377 4002 4001 3401 3402 4027 4026 
3377 3378 4003 4002 3402 3403 4028 4027 
3378 3379 4004 4003 3403 3404 4029 4028 
3379 3380 4005 4004 3404 3405 4030 4029 
3380 3381 4006 4005 3405 3406 4031 4030 
3381 3382 4007 4006 3406 3407 4032 4031 
3382 3383 4008 4007 3407 3408 4033 4032 
3383 3384 4009 4008 3408 3409 4034 4033 
3384 3385 4010 4009 3409 3410 4035 4034 
3385 3386 4011 4010 3410 3411 4036 4035 
3386 3387 4012 4011 3411 3412 4037 4036 
3387 3388 4013 4012 3412 3413 4038 4037 
3388 3389 4014 4013 3413 3414 4039 4038 
3389 3390 4015 4014 3414 3415 4040 4039 
3390 3391 4016 4015 3415 3416 4041 4040 
3391 3392 4017 4016 3416 3417 4042 4041 
3392 3393 4018 4017 3417 3418 4043 4042 
3393 3394 4019 4018 3418 3419 4044 4043 
3394 3395 4020 4019 3419 3420 4045 4044 
3395 3396 4021 4020 3420 3421 4046 4045 
3396 3397 4022 4021 3421 3422 4047 4046 
3397 3398 4023 4022 3422 3423 4048 4047 
3398 3399 4024 4023 3423 3424 4049 4048 
3400 3401 4026 4025 3425 3426 4051 4050 
3401 3402 4027 4026 3426 3427 4052 4051 
3402 3403 4028 4027 3427 3428 4053 4052 
3403 3404 4029 4028 3428 3429 4054 4053 
3404 3405 4030 4029 3429 3430 4055 4054 
3405 3406 4031 4030 3430 3431 4056 4055 
3406 3407 4032 4031 3431 3432 4057 4056 
3407 3408 4033 4032 3432 3433 4058 4057 
3408 3409 4034 4033 3433 3434 4059 4058 
3409 3410 4035 4034 3434 3435 4060 4059 
3410 3411 4036 4035 3435 3436 4061 4060 
3411 3412 4037 4036 3436 3437 4062 4061 
3412 3413 4038 4037 3437 3438 4063 4062 
3413 3414 4039 4038 3438 3439 4064 4063 
3414 3415 4040 4039 3439 3440 4065 4064 
3415 3416 4041 4040 3440 3441 4066 4065 
3416 3417 4042 4041 3441 3442 4067 4066 
3417 3418 4043 4042 3442 3443 4068 4067 
3418 3419 4044 4043 3443 3444 4069 4068 
3419 3420 4045 4044 3444 3445 4070 4069 
3420 3421 4046 4045 3445 3446 4071 4070 
3421 3422 4047 4046 3446 3447 4072 4071 
3422 3423 4048 4047 3447 3448 4073 4072 
3423 3424 4049 4048 3448 3449 4074 4073 
3425 3426 4051 4050 3450 3451 4076 4075 
3426 3427 4052 4051 3451 3452 4077 4076 
3427 3428 4053 4052 3452 3453 4078 4077 
3428 3429 4054 4053 3453 3454 4079 4078 
3429 3430 4055 4054 3454 3455 4080 4079 
3430 3431 4056 4055 3455 3456 4081 4080 
3431 3432 4057 4056 3456 3457 4082 4081 
3432 3433 4058 4057 3457 3458 4083 4082 
3433 3434 4059 4058 3458 3459 4084 4083 
3434 3435 4060 4059 3459 3460 4085 4084 
3435 3436 4061 4060 3460 3461 4086 4085 
3436 3437 4062 4061 3461 3462 4087 4086 
3437 3438 4063 4062 3462 3463 4088 4087 
3438 3439 4064 4063 3463 3464 4089 4088 
3439 3440 4065 4064 3464 3465 4090 4089 
3440 3441 4066 4065 3465 3466 4091 4090 
3441 3442 4067 4066 3466 3467 4092 4091 
3442 3443 4068 4067 3467 3468 4093 4092 
3443 3444 4069 4068 3468 3469 4094 4093 
3444 3445 4070 4069 3469 3470 4095 4094 
3445 3446 4071 4070 3470 3471 4096 4095 
3446 3447 4072 4071 3471 3472 4097 4096 
3447 3448 4073 4072 3472 3473 4098 4097 
3448 3449 4074 4073 3473 3474 4099 4098 
3450 3451 4076 4075 3475 3476 4101 4100 
3451 3452 4077 4076 3476 3477 4102 4101 
3452 3453 4078 4077 3477 3478 4103 4102 
3453 3454 4079 4078 3478 3479 4104 4103 
3454 3455 4080 4079 3479 3480 4105 4104 
3455 3456 4081 4080 3480 3481 4106 4105 
3456 3457 4082 4081 3481 3482 4107 4106 
3457 3458 4083 4082 3482 3483 4108 4107 
3458 3459 4084 4083 3483 3484 4109 4108 
3459 3460 4085 4084 3484 3485 4110 4109 
3460 3461 4086 4085 3485 3486 4111 4110 
3461 3462 4087 4086 3486 3487 4112 4111 
3462 3463 4088 4087 3487 3488 4113 4112 
3463 3464 4089 4088 3488 3489 4114 4113 
3464 3465 4090 4089 3489 3490 4115 4114 
3465 3466 4091 4090 3490 3491 4116 4115 
3466 3467 4092 4091 3491 3492 4117 4116 
3467 3468 4093 4092 3492 3493 4118 4117 
3468 3469 4094 4093 3493 3494 4119 4118 
3469 3470 4095 4094 3494 3495 4120 4119 
3470 3471 4096 4095 3495 3496 4121 4120 
3471 3472 4097 4096 3496 3497 4122 4121 
3472 3473 4098 4097 3497 3498 4123 4122 
3473 3474 4099 4098 3498 3499 4124 4123 
3475 3476 4101 4100 3500 3501 4126 4125 
3476 3477 4102 4101 3501 3502 4127 4126 
3477 3478 4103 4102 3502 3503 4128 4127 
3478 3479 4104 4103 3503 3504 4129 4128 
3479 3480 4105 4104 3504 3505 4130 4129 
3480 3481 4106 4105 3505 3506 4131 4130 
3481 3482 4107 4106 3506 3507 4132 4131 
3482 3483 4108 4107 3507 3508 4133 4132 
3483 3484 4109 4108 3508 3509 4134 4133 
3484 3485 4110 4109 3509 3510 4135 4134 
3485 3486 4111 4110 3510 3511 4136 4135 
3486 3487 4112 4111 3511 3512 4137 4136 
3487 3488 4113 4112 3512 3513 4138 4137 
3488 3489 4114 4113 3513 3514 4139 4138 
3489 3490 4115 4114 3514 3515 4140 4139 
3490 3491 4116 4115 3515 3516 4141 4140 
3491 3492 4117 4116 3516 3517 4142 4141 
3492 3493 4118 4117 3517 3518 4143 4142 
3493 3494 4119 4118 3518 3519 4144 4143 
3494 3495 4120 4119 3519 3520 4145 4144 
3495 3496 4121 4120 3520 3521 4146 4145 
3496 3497 4122 4121 3521 3522 4147 4146 
3497 3498 4123 4122 3522 3523 4148 4147 
3498 3499 4124 4123 3523 3524 4149 4148 
3500 3501 4126 4125 3525 3526 4151 4150 
3501 3502 4127 4126 3526 3527 4152 4151 
3502 3503 4128 4127 3527 3528 4153 4152 
3503 3504 4129 4128 3528 3529 4154 4153 
3504 3505 4130 4129 3529 3530 4155 4154 
3505 3506 4131 4130 3530 3531 4156 4155 
3506 3507 4132 4131 3531 3532 4157 4156 
3507 3508 4133 4132 3532 3533 4158 4157 
3508 3509 4134 4133 3533 3534 4159 4158 
3509 3510 4135 4134 3534 3535 4160 4159 
3510 3511 4136 4135 3535 3536 4161 4160 
3511 3512 4137 4136 3536 3537 4162 4161 
3512 3513 4138 4137 3537 3538 4163 4162 
3513 3514 4139 4138 3538 3539 4164 4163 
3514 3515 4140 4139 3539 3540 4165 4164 
3515 3516 4141 4140 3540 3541 4166 4165 
3516 3517 4142 4141 3541 3542 4167 4166 
3517 3518 4143 4142 3542 3543 4168 4167 
3518 3519 4144 4143 3543 3544 4169 4168 
3519 3520 4145 4144 3544 3545 4170 4169 
3520 3521 4146 4145 3545 3546 4171 4170 
3521 3522 4147 4146 3546 3547 4172 4171 
3522 3523 4148 4147 3547 3548 4173 4172 
3523 3524 4149 4148 3548 3549 4174 4173 
3525 3526 4151 4150 3550 3551 4176 4175 
3526 3527 4152 4151 3551 3552 4177 4176 
3527 3528 4153 4152 3552 3553 4178 4177 
3528 3529 4154 4153 3553 3554 4179 4178 
3529 3530 4155 4154 3554 3555 4180 4179 
3530 3531 4156 4155 3555 3556 4181 4180 
3531 3532 4157 4156 3556 3557 4182 4181 
3532 3533 4158 4157 3557 3558 4183 4182 
3533 3534 4159 4158 3558 3559 4184 4183 
3534 3535 4160 4159 3559 3560 4185 4184 
3535 3536 4161 4160 3560 3561 4186 4185 
3536 3537 4162 4161 3561 3562 4187 4186 
3537 3538 4163 4162 3562 3563 4188 4187 
3538 3539 4164 4163 3563 3564 4189 4188 
3539 3540 4165 4164 3564 3565 4190 4189 
3540 3541 4166 4165 3565 3566 4191 4190 
3541 3542 4167 4166 3566 3567 4192 4191 
3542 3543 4168 4167 3567 3568 4193 4192 
3543 3544 4169 4168 3568 3569 4194 4193 
3544 3545 4170 4169 3569 3570 4195 4194 
3545 3546 4171 4170 3570 3571 4196 4195 
3546 3547 4172 4171 3571 3572 4197 4196 
3547 3548 4173 4172 3572 3573 4198 4197 
3548 3549 4174 4173 3573 3574 4199 4198 
3550 3551 4176 4175 3575 3576 4201 4200 
3551 3552 4177 4176 3576 3577 4202 4201 
3552 3553 4178 4177 3577 3578 4203 4202 
3553 3554 4179 4178 3578 3579 4204 4203 
3554 3555 4180 4179 3579 3580 4205 4204 
3555 3556 4181 4180 3580 3581 4206 4205 
3556 3557 4182 4181 3581 3582 4207 4206 
3557 3558 4183 4182 3582 3583 4208 4207 
3558 3559 4184 4183 3583 3584 4209 4208 
3559 3560 4185 4184 3584 3585 4210 4209 
3560 3561 4186 4185 3585 3586 4211 4210 
3561 3562 4187 4186 3586 3587 4212 4211 
3562 3563 4188 4187 3587 3588 4213 4212 
3563 3564 4189 4188 3588 3589 4214 4213 
3564 3565 4190 4189 3589 3590 4215 4214 
3565 3566 4191 4190 3590 3591 4216 4215 
3566 3567 4192 4191 3591 3592 4217 4216 
3567 3568 4193 4192 3592 3593 4218 4217 
3568 3569 4194 4193 3593 3594 4219 4218 
3569 3570 4195 4194 3594 3595 4220 4219 
3570 3571 4196 4195 3595 3596 4221 4220 
3571 3572 4197 4196 3596 3597 4222 4221 
3572 3573 4198 4197 3597 3598 4223 4222 
3573 3574 4199 4198 3598 3599 4224 4223 
3575 3576 4201 4200 3600 3601 4226 4225 
3576 3577 4202 4201 3601 3602 4227 4226 
3577 3578 4203 4202 3602 3603 4228 4227 
3578 3579 4204 4203 3603 3604 4229 4228 
3579 3580 4205 4204 3604 3605 4230 4229 
3580 3581 4206 4205 3605 3606 4231 4230 
3581 3582 4207 4206 3606 3607 4232 4231 
3582 3583 4208 4207 3607 3608 4233 4232 
3583 3584 4209 4208 3608 3609 4234 4233 
3584 3585 4210 4209 3609 3610 4235 4234 
3585 3586 4211 4210 3610 3611 4236 4235 
3586 3587 4212 4211 3611 3612 4237 4236 
3587 3588 4213 4212 3612 3613 4238 4237 
3588 3589 4214 4213 3613 3614 4239 4238 
3589 3590 4215 4214 3614 3615 4240 4239 
3590 3591 4216 4215 3615 3616 4241 4240 
3591 3592 4217 4216 3616 3617 4242 4241 
3592 3593 4218 4217 3617 3618 4243 4242 
3593 3594 4219 4218 3618 3619 4244 4243 
3594 3595 4220 4219 3619 3620 4245 4244 
3595 3596 4221 4220 3620 3621 4246 4245 
3596 3597 4222 4221 3621 3622 4247 4246 
3597 3598 4223 4222 3622 3623 4248 4247 
3598 3599 4224 4223 3623 3624 4249 4248 
3600 3601 4226 4225 3625 3626 4251 4250 
3601 3602 4227 4226 3626 3627 4252 4251 
3602 3603 4228 4227 3627 3628 4253 4252 
3603 3604 4229 4228 3628 3629 4254 4253 
3604 3605 4230 4229 3629 3630 4255 4254 
3605 3606 4231 4230 3630 3631 4256 4255 
3606 3607 4232 4231 3631 3632 4257 4256 
3607 3608 4233 4232 3632 3633 4258 4257 
3608 3609 4234 4233 3633 3634 4259 4258 
3609 3610 4235 4234 3634 3635 4260 4259 
3610 3611 4236 4235 3635 3636 4261 4260 
3611 3612 4237 4236 3636 3637 4262 4261 
3612 3613 4238 4237 3637 3638 4263 4262 
3613 3614 4239 4238 3638 3639 4264 4263 
3614 3615 4240 4239 3639 3640 4265 4264 
3615 3616 4241 4240 3640 3641 4266 4265 
3616 3617 4242 4241 3641 3642 4267 4266 
3617 3618 4243 4242 3642 3643 4268 4267 
3618 3619 4244 4243 3643 3644 4269 4268 
3619 3620 4245 4244 3644 3645 4270 4269 
3620 3621 4246 4245 3645 3646 4271 4270 
3621 3622 4247 4246 3646 3647 4272 4271 
3622 3623 4248 4247 3647 3648 4273 4272 
3623 3624 4249 4248 3648 3649 4274 4273 
3625 3626 4251 4250 3650 3651 4276 4275 
3626 3627 4252 4251 3651 3652 4277 4276 
3627 3628 4253 4252 3652 3653 4278 4277 
3628 3629 4254 4253 3653 3654 4279 4278 
3629 3630 4255 4254 3654 3655 4280 4279 
3630 3631 4256 4255 3655 3656 4281 4280 
3631 3632 4257 4256 3656 3657 4282 4281 
3632 3633 4258 4257 3657 3658 4283 4282 
3633 3634 4259 4258 3658 3659 4284 4283 
3634 3635 4260 4259 3659 3660 4285 4284 
3635 3636 4261 4260 3660 3661 4286 4285 
3636 3637 4262 4261 3661 3662 4287 4286 
3637 3638 4263 4262 3662 3663 4288 4287 
3638 3639 4264 4263 3663 3664 4289 4288 
3639 3640 4265 4264 3664 3665 4290 4289 
3640 3641 4266 4265 3665 3666 4291 4290 
3641 3642 4267 4266 3666 3667 4292 4291 
3642 3643 4268 4267 3667 3668 4293 4292 
3643 3644 4269 4268 3668 3669 4294 4293 
3644 3645 4270 4269 3669 3670 4295 4294 
3645 3646 4271 4270 3670 3671 4296 4295 
3646 3647 4272 4271 3671 3672 4297 4296 
3647 3648 4273 4272 3672 3673 4298 4297 
3648 3649 4274 4273 3673 3674 4299 4298 
3650 3651 4276 4275 3675 3676 4301 4300 
3651 3652 4277 4276 3676 3677 4302 4301 
3652 3653 4278 4277 3677 3678 4303 4302 
3653 3654 4279 4278 3678 3679 4304 4303 
3654 3655 4280 4279 3679 3680 4305 4304 
3655 3656 4281 4280 3680 3681 4306 4305 
3656 3657 4282 4281 3681 3682 4307 4306 
3657 3658 4283 4282 3682 3683 4308 4307 
3658 3659 4284 4283 3683 3684 4309 4308 
3659 3660 4285 4284 3684 3685 4310 4309 
3660 3661 4286 4285 3685 3686 4311 4310 
3661 3662 4287 4286 3686 3687 4312 4311 
3662 3663 4288 4287 3687 3688 4313 4312 
3663 3664 4289 4288 3688 3689 4314 4313 
3664 3665 4290 4289 3689 3690 4315 4314 
3665 3666 4291 4290 3690 3691 4316 4315 
3666 3667 4292 4291 3691 3692 4317 4316 
3667 3668 4293 4292 3692 3693 4318 4317 
3668 3669 4294 4293 3693 3694 4319 4318 
3669 3670 4295 4294 3694 3695 4320 4319 
3670 3671 4296 4295 3695 3696 4321 4320 
3671 3672 4297 4296 3696 3697 4322 4321 
3672 3673 4298 4297 3697 3698 4323 4322 
3673 3674 4299 4298 3698 3699 4324 4323 
3675 3676 4301 4300 3700 3701 4326 4325 
3676 3677 4302 4301 3701 3702 4327 4326 
3677 3678 4303 4302 3702 3703 4328 4327 
3678 3679 4304 4303 3703 3704 4329 4328 
3679 3680 4305 4304 3704 3705 4330 4329 
3680 3681 4306 4305 3705 3706 4331 4330 
3681 3682 4307 4306 3706 3707 4332 4331 
3682 3683 4308 4307 3707 3708 4333 4332 
3683 3684 4309 4308 3708 3709 4334 4333 
3684 3685 4310 4309 3709 3710 4335 4334 
3685 3686 4311 4310 3710 3711 4336 4335 
3686 3687 4312 4311 3711 3712 4337 4336 
3687 3688 4313 4312 3712 3713 4338 4337 
3688 3689 4314 4313 3713 3714 4339 4338 
3689 3690 4315 4314 3714 3715 4340 4339 
3690 3691 4316 4315 3715 3716 4341 4340 
3691 3692 4317 4316 3716 3717 4342 4341 
3692 3693 4318 4317 3717 3718 4343 4342 
3693 3694 4319 4318 3718 3719 4344 4343 
3694 3695 4320 4319 3719 3720 4345 4344 
3695 3696 4321 4320 3720 3721 4346 4345 
3696 3697 4322 4321 3721 3722 4347 4346 
3697 3698 4323 4322 3722 3723 4348 4347 
3698 3699 4324 4323 3723 3724 4349 4348 
3700 3701 4326 4325 3725 3726 4351 4350 
3701 3702 4327 4326 3726 3727 4352 4351 
3702 3703 4328 4327 3727 3728 4353 4352 
3703 3704 4329 4328 3728 3729 4354 4353 
3704 3705 4330 4329 3729 3730 4355 4354 
3705 3706 4331 4330 3730 3731 4356 4355 
3706 3707 4332 4331 3731 3732 4357 4356 
3707 3708 4333 4332 3732 3733 4358 4357 
3708 3709 4334 4333 3733 3734 4359 4358 
3709 3710 4335 4334 3734 3735 4360 4359 
3710 3711 4336 4335 3735 3736 4361 4360 
3711 3712 4337 4336 3736 3737 4362 4361 
3712 3713 4338 4337 3737 3738 4363 4362 
3713 3714 4339 4338 3738 3739 4364 4363 
3714 3715 4340 4339 3739 3740 4365 4364 
3715 3716 4341 4340 3740 3741 4366 4365 
3716 3717 4342 4341 3741 3742 4367 4366 
3717 3718 4343 4342 3742 3743 4368 4367 
3718 3719 4344 4343 3743 3744 4369 4368 
3719 3720 4345 4344 3744 3745 4370 4369 
3720 3721 4346 4345 3745 3746 4371 4370 
3721 3722 4347 4346 3746 3747 4372 4371 
3722 3723 4348 4347 3747 3748 4373 4372 
3723 3724 4349 4348 3748 3749 4374 4373 
3750 3751 4376 4375 3775 3776 4401 4400 
3751 3752 4377 4376 3776 3777 4402 4401 
3752 3753 4378 4377 3777 3778 4403 4402 
3753 3754 4379 4378 3778 3779 4404 4403 
3754 3755 4380 4379 3779 3780 4405 4404 
3755 3756 4381 4380 3780 3781 4406 4405 
3756 3757 4382 4381 3781 3782 4407 4406 
3757 3758 4383 4382 3782 3783 4408 4407 
3758 3759 4384 4383 3783 3784 4409 4408 
3759 3760 4385 4384 3784 3785 4410 4409 
3760 3761 4386 4385 3785 3786 4411 4410 
3761 3762 4387 4386 3786 3787 4412 4411 
3762 3763 4388 4387 3787 3788 4413 4412 
3763 3764 4389 4388 3788 3789 4414 4413 
3764 3765 4390 4389 3789 3790 4415 4414 
3765 3766 4391 4390 3790 3791 4416 4415 
3766 3767 4392 4391 3791 3792 4417 4416 
3767 3768 4393 4392 3792 3793 4418 4417 
3768 3769 4394 4393 3793 3794 4419 4418 
3769 3770 4395 4394 3794 3795 4420 4419 
3770 3771 4396 4395 3795 3796 4421 4420 
3771 3772 4397 4396 3796 3797 4422 4421 
3772 3773 4398 4397 3797 3798 4423 4422 
3773 3774 4399 4398 3798 3799 4424 4423 
3775 3776 4401 4400 3800 3801 4426 4425 
3776 3777 4402 4401 3801 3802 4427 4426 
3777 3778 4403 4402 3802 3803 4428 4427 
3778 3779 4404 4403 3803 3804 4429 4428 
3779 3780 4405 4404 3804 3805 4430 4429 
3780 3781 4406 4405 3805 3806 4431 4430 
3781 3782 4407 4406 3806 3807 4432 4431 
3782 3783 4408 4407 3807 3808 4433 4432 
3783 3784 4409 4408 3808 3809 4434 4433 
3784 3785 4410 4409 3809 3810 4435 4434 
3785 3786 4411 4410 3810 3811 4436 4435 
3786 3787 4412 4411 3811 3812 4437 4436 
3787 3788 4413 4412 3812 3813 4438 4437 
3788 3789 4414 4413 3813 3814 4439 4438 
3789 3790 4415 4414 3814 3815 4440 4439 
3790 3791 4416 4415 3815 3816 4441 4440 
3791 3792 4417 4416 3816 3817 4442 4441 
3792 3793 4418 4417 3817 3818 4443 4442 
3793 3794 4419 4418 3818 3819 4444 4443 
3794 3795 4420 4419 3819 3820 4445 4444 
3795 3796 4421 4420 3820 3821 4446 4445 
3796 3797 4422 4421 3821 3822 4447 4446 
3797 3798 4423 4422 3822 3823 4448 4447 
3798 3799 4424 4423 3823 3824 4449 4448 
3800 3801 4426 4425 3825 3826 4451 4450 
3801 3802 4427 4426 3826 3827 4452 4451 
3802 3803 4428 4427 3827 3828 4453 4452 
3803 3804 4429 4428 3828 3829 4454 4453 
3804 3805 4430 4429 3829 3830 4455 4454 
3805 3806 4431 4430 3830 3831 4456 4455 
3806 3807 4432 4431 3831 3832 4457 4456 
3807 3808 4433 4432 3832 3833 4458 4457 
3808 3809 4434 4433 3833 3834 4459 4458 
3809 3810 4435 4434 3834 3835 4460 4459 
3810 3811 4436 4435 3835 3836 4461 4460 
3811 3812 4437 4436 3836 3837 4462 4461 
3812 3813 4438 4437 3837 3838 4463 4462 
3813 3814 4439 4438 3838 3839 4464 4463 
3814 3815 4440 4439 3839 3840 4465 4464 
3815 3816 4441 4440 3840 3841 4466 4465 
3816 3817 4442 4441 3841 3842 4467 4466 
3817 3818 4443 4442 3842 3843 4468 4467 
3818 3819 4444 4443 3843 3844 4469 4468 
3819 3820 4445 4444 3844 3845 4470 4469 
3820 3821 4446 4445 3845 3846 4471 4470 
3821 3822 4447 4446 3846 3847 4472 4471 
3822 3823 4448 4447 3847 3848 4473 4472 
3823 3824 4449 4448 3848 3849 4474 4473 
3825 3826 4451 4450 3850 3851 4476 4475 
3826 3827 4452 4451 3851 3852 4477 4476 
3827 3828 4453 4452 3852 3853 4478 4477 
3828 3829 4454 4453 3853 3854 4479 4478 
3829 3830 4455 4454 3854 3855 4480 4479 
3830 3831 4456 4455 3855 3856 4481 4480 
3831 3832 4457 4456 3856 3857 4482 4481 
3832 3833 4458 4457 3857 3858 4483 4482 
3833 3834 4459 4458 3858 3859 4484 4483 
3834 3835 4460 4459 3859 3860 4485 4484 
3835 3836 4461 4460 3860 3861 4486 4485 
3836 3837 4462 4461 3861 3862 4487 4486 
3837 3838 4463 4462 3862 3863 4488 4487 
3838 3839 4464 4463 3863 3864 4489 4488 
3839 3840 4465 4464 3864 3865 4490 4489 
3840 3841 4466 4465 3865 3866 4491 4490 
3841 3842 4467 4466 3866 3867 4492 4491 
3842 3843 4468 4467 3867 3868 4493 4492 
3843 3844 4469 4468 3868 3869 4494 4493 
3844 3845 4470 4469 3869 3870 4495 4494 
3845 3846 4471 4470 3870 3871 4496 4495 
3846 3847 4472 4471 3871 3872 4497 4496 
3847 3848 4473 4472 3872 3873 4498 4497 
3848 3849 4474 4473 3873 3874 4499 4498 
3850 3851 4476 4475 3875 3876 4501 4500 
3851 3852 4477 4476 3876 3877 4502 4501 
3852 3853 4478 4477 3877 3878 4503 4502 
3853 3854 4479 4478 3878 3879 4504 4503 
3854 3855 4480 4479 3879 3880 4505 4504 
3855 3856 4481 4480 3880 3881 4506 4505 
3856 3857 4482 4481 3881 3882 4507 4506 
3857 3858 4483 4482 3882 3883 4508 4507 
3858 3859 4484 4483 3883 3884 4509 4508 
3859 3860 4485 4484 3884 3885 4510 4509 
3860 3861 4486 4485 3885 3886 4511 4510 
3861 3862 4487 4486 3886 3887 4512 4511 
3862 3863 4488 4487 3887 3888 4513 4512 
3863 3864 4489 4488 3888 3889 4514 4513 
3864 3865 4490 4489 3889 3890 4515 4514 
3865 3866 4491 4490 3890 3891 4516 4515 
3866 3867 4492 4491 3891 3892 4517 4516 
3867 3868 4493 4492 3892 3893 4518 4517 
3868 3869 4494 4493 3893 3894 4519 4518 
3869 3870 4495 4494 3894 3895 4520 4519 
3870 3871 4496 4495 3895 3896 4521 4520 
3871 3872 4497 4496 3896 3897 4522 4521 
3872 3873 4498 4497 3897 3898 4523 4522 
3873 3874 4499 4498 3898 3899 4524 4523 
3875 3876 4501 4500 3900 3901 4526 4525 
3876 3877 4502 4501 3901 3902 4527 4526 
3877 3878 4503 4502 3902 3903 4528 4527 
3878 3879 4504 4503 3903 3904 4529 4528 
3879 3880 4505 4504 3904 3905 4530 4529 
3880 3881 4506 4505 3905 3906 4531 4530 
3881 3882 4507 4506 3906 3907 4532 4531 
3882 3883 4508 4507 3907 3908 4533 4532 
3883 3884 4509 4508 3908 3909 4534 4533 
3884 3885 4510 4509 3909 3910 4535 4534 
3885 3886 4511 4510 3910 3911 4536 4535 
3886 3887 4512 4511 3911 3912 4537 4536 
3887 3888 4513 4512 3912 3913 4538 4537 
3888 3889 4514 4513 3913 3914 4539 4538 
3889 3890 4515 4514 3914 3915 4540 4539 
3890 3891 4516 4515 3915 3916 4541 4540 
3891 3892 4517 4516 3916 3917 4542 4541 
3892 3893 4518 4517 3917 3918 4543 4542 
3893 3894 4519 4518 3918 3919 4544 4543 
3894 3895 4520 4519 3919 3920 4545 4544 
3895 3896 4521 4520 3920 3921 4546 4545 
3896 3897 4522 4521 3921 3922 4547 4546 
3897 3898 4523 4522 3922 3923 4548 4547 
3898 3899 4524 4523 3923 3924 4549 4548 
3900 3901 4526 4525 3925 3926 4551 4550 
3901 3902 4527 4526 3926 3927 4552 4551 
3902 3903 4528 4527 3927 3928 4553 4552 
3903 3904 4529 4528 3928 3929 4554 4553 
3904 3905 4530 4529 3929 3930 4555 4554 
3905 3906 4531 4530 3930 3931 4556 4555 
3906 3907 4532 4531 3931 3932 4557 4556 
3907 3908 4533 4532 3932 3933 4558 4557 
3908 3909 4534 4533 3933 3934 4559 4558 
3909 3910 4535 4534 3934 3935 4560 4559 
3910 3911 4536 4535 3935 3936 4561 4560 
3911 3912 4537 4536 3936 3937 4562 4561 
3912 3913 4538 4537 3937 3938 4563 4562 
3913 3914 4539 4538 3938 3939 4564 4563 
3914 3915 4540 4539 3939 3940 4565 4564 
3915 3916 4541 4540 3940 3941 4566 4565 
3916 3917 4542 4541 3941 3942 4567 4566 
3917 3918 4543 4542 3942 3943 4568 4567 
3918 3919 4544 4543 3943 3944 4569 4568 
3919 3920 4545 4544 3944 3945 4570 4569 
3920 3921 4546 4545 3945 3946 4571 4570 
3921 3922 4547 4546 3946 3947 4572 4571 
3922 3923 4548 4547 3947 3948 4573 4572 
3923 3924 4549 4548 3948 3949 4574 4573 
3925 3926 4551 4550 3950 3951 4576 4575 
3926 3927 4552 4551 3951 3952 4577 4576 
3927 3928 4553 4552 3952 3953 4578 4577 
3928 3929 4554 4553 3953 3954 4579 4578 
3929 3930 4555 4554 3954 3955 4580 4579 
3930 3931 4556 4555 3955 3956 4581 4580 
3931 3932 4557 4556 3956 3957 4582 4581 
3932 3933 4558 4557 3957 3958 4583 4582 
3933 3934 4559 4558 3958 3959 4584 4583 
3934 3935 4560 4559 3959 3960 4585 4584 
3935 3936 4561 4560 3960 3961 4586 4585 
3936 3937 4562 4561 3961 3962 4587 4586 
3937 3938 4563 4562 3962 3963 4588 4587 
3938 3939 4564 4563 3963 3964 4589 4588 
3939 3940 4565 4564 3964 3965 4590 4589 
3940 3941 4566 4565 3965 3966 4591 4590 
3941 3942 4567 4566 3966 3967 4592 4591 
3942 3943 4568 4567 3967 3968 4593 4592 
3943 3944 4569 4568 3968 3969 4594 4593 
3944 3945 4570 4569 3969 3970 4595 4594 
3945 3946 4571 4570 3970 3971 4596 4595 
3946 3947 4572 4571 3971 3972 4597 4596 
3947 3948 4573 4572 3972 3973 4598 4597 
3948 3949 4574 4573 3973 3974 4599 4598 
3950 3951 4576 4575 3975 3976 4601 4600 
3951 3952 4577 4576 3976 3977 4602 4601 
3952 3953 4578 4577 3977 3978 4603 4602 
3953 3954 4579 4578 3978 3979 4604 4603 
3954 3955 4580 4579 3979 3980 4605 4604 
3955 3956 4581 4580 3980 3981 4606 4605 
3956 3957 4582 4581 3981 3982 4607 4606 
3957 3958 4583 4582 3982 3983 4608 4607 
3958 3959 4584 4583 3983 3984 4609 4608 
3959 3960 4585 4584 3984 3985 4610 4609 
3960 3961 4586 4585 3985 3986 4611 4610 
3961 3962 4587 4586 3986 3987 4612 4611 
3962 3963 4588 4587 3987 3988 4613 4612 
3963 3964 4589 4588 3988 3989 4614 4613 
3964 3965 4590 4589 3989 3990 4615 4614 
3965 3966 4591 4590 3990 3991 4616 4615 
3966 3967 4592 4591 3991 3992 4617 4616 
3967 3968 4593 4592 3992 3993 4618 4617 
3968 3969 4594 4593 3993 3994 4619 4618 
3969 3970 4595 4594 3994 3995 4620 4619 
3970 3971 4596 4595 3995 3996 4621 4620 
3971 3972 4597 4596 3996 3997 4622 4621 
3972 3973 4598 4597 3997 3998 4623 4622 
3973 3974 4599 4598 3998 3999 4624 4623 
3975 3976 4601 4600 4000 4001 4626 4625 
3976 3977 4602 4601 4001 4002 4627 4626 
3977 3978 4603 4602 4002 4003 4628 4627 
3978 3979 4604 4603 4003 4004 4629 4628 
3979 3980 4605 4604 4004 4005 4630 4629 
3980 3981 4606 4605 4005 4006 4631 4630 
3981 3982 4607 4606 4006 4007 4632 4631 
3982 3983 4608 4607 4007 4008 4633 4632 
3983 3984 4609 4608 4008 4009 4634 4633 
3984 3985 4610 4609 4009 4010 4635 4634 
3985 3986 4611 4610 4010 4011 4636 4635 
3986 3987 4612 4611 4011 4012 4637 4636 
3987 3988 4613 4612 4012 4013 4638 4637 
3988 3989 4614 4613 4013 4014 4639 4638 
3989 3990 4615 4614 4014 4015 4640 4639 
3990 3991 4616 4615 4015 4016 4641 4640 
3991 3992 4617 4616 4016 4017 4642 4641 
3992 3993 4618 4617 4017 4018 4643 4642 
3993 3994 4619 4618 4018 4019 4644 4643 
3994 3995 4620 4619 4019 4020 4645 4644 
3995 3996 4621 4620 4020 4021 4646 4645 
3996 3997 4622 4621 4021 4022 4647 4646 
3997 3998 4623 4622 4022 4023 4648 4647 
3998 3999 4624 4623 4023 4024 4649 4648 
4000 4001 4626 4625 4025 4026 4651 4650 
4001 4002 4627 4626 4026 4027 4652 4651 
4002 4003 4628 4627 4027 4028 4653 4652 
4003 4004 4629 4628 4028 4029 4654 4653 
4004 4005 4630 4629 4029 4030 4655 4654 
4005 4006 4631 4630 4030 4031 4656 4655 
4006 4007 4632 4631 4031 4032 4657 4656 
4007 4008 4633 4632 4032 4033 4658 4657 
4008 4009 4634 4633 4033 4034 4659 4658 
4009 4010 4635 4634 4034 4035 4660 4659 
4010 4011 4636 4635 4035 4036 4661 4660 
4011 4012 4637 4636 4036 4037 4662 4661 
4012 4013 4638 4637 4037 4038 4663 4662 
4013 4014 4639 4638 4038 4039 4664 4663 
4014 4015 4640 4639 4039 4040 4665 4664 
4015 4016 4641 4640 4040 4041 4666 4665 
4016 4017 4642 4641 4041 4042 4667 4666 
4017 4018 4643 4642 4042 4043 4668 4667 
4018 4019 4644 4643 4043 4044 4669 4668 
4019 4020 4645 4644 4044 4045 4670 4669 
4020 4021 4646 4645 4045 4046 4671 4670 
4021 4022 4647 4646 4046 4047 4672 4671 
4022 4023 4648 4647 4047 4048 4673 4672 
4023 4024 4649 4648 4048 4049 4674 4673 
4025 4026 4651 4650 4050 4051 4676 4675 
4026 4027 4652 4651 4051 4052 4677 4676 
4027 4028 4653 4652 4052 4053 4678 4677 
4028 4029 4654 4653 4053 4054 4679 4678 
4029 4030 4655 4654 4054 4055 4680 4679 
4030 4031 4656 4655 4055 4056 4681 4680 
4031 4032 4657 4656 4056 4057 4682 4681 
4032 4033 4658 4657 4057 4058 4683 4682 
4033 4034 4659 4658 4058 4059 4684 4683 
4034 4035 4660 4659 4059 4060 4685 4684 
4035 4036 4661 4660 4060 4061 4686 4685 
4036 4037 4662 4661 4061 4062 4687 4686 
4037 4038 4663 4662 4062 4063 4688 4687 
4038 4039 4664 4663 4063 4064 4689 4688 
4039 4040 4665 4664 4064 4065 4690 4689 
4040 4041 4666 4665 4065 4066 4691 4690 
4041 4042 4667 4666 4066 4067 4692 4691 
4042 4043 4668 4667 4067 4068 4693 4692 
4043 4044 4669 4668 4068 4069 4694 4693 
4044 4045 4670 4669 4069 4070 4695 4694 
4045 4046 4671 4670 4070 4071 4696 4695 
4046 4047 4672 4671 4071 4072 4697 4696 
4047 4048 4673 4672 4072 4073 4698 4697 
4048 4049 4674 4673 4073 4074 4699 4698 
4050 4051 4676 4675 4075 4076 4701 4700 
4051 4052 4677 4676 4076 4077 4702 4701 
4052 4053 4678 4677 4077 4078 4703 4702 
4053 4054 4679 4678 4078 4079 4704 4703 
4054 4055 4680 4679 4079 4080 4705 4704 
4055 4056 4681 4680 4080 4081 4706 4705 
4056 4057 4682 4681 4081 4082 4707 4706 
4057 4058 4683 4682 4082 4083 4708 4707 
4058 4059 4684 4683 4083 4084 4709 4708 
4059 4060 4685 4684 4084 4085 4710 4709 
4060 4061 4686 4685 4085 4086 4711 4710 
4061 4062 4687 4686 4086 4087 4712 4711 
4062 4063 4688 4687 4087 4088 4713 4712 
4063 4064 4689 4688 4088 4089 4714 4713 
4064 4065 4690 4689 4089 4090 4715 4714 
4065 4066 4691 4690 4090 4091 4716 4715 
4066 4067 4692 4691 4091 4092 4717 4716 
4067 4068 4693 4692 4092 4093 4718 4717 
4068 4069 4694 4693 4093 4094 4719 4718 
4069 4070 4695 4694 4094 4095 4720 4719 
4070 4071 4696 4695 4095 4096 4721 4720 
4071 4072 4697 4696 4096 4097 4722 4721 
4072 4073 4698 4697 4097 4098 4723 4722 
4073 4074 4699 4698 4098 4099 4724 4723 
4075 4076 4701 4700 4100 4101 4726 4725 
4076 4077 4702 4701 4101 4102 4727 4726 
4077 4078 4703 4702 4102 4103 4728 4727 
4078 4079 4704 4703 4103 4104 4729 4728 
4079 4080 4705 4704 4104 4105 4730 4729 
4080 4081 4706 4705 4105 4106 4731 4730 
4081 4082 4707 4706 4106 4107 4732 4731 
4082 4083 4708 4707 4107 4108 4733 4732 
4083 4084 4709 4708 4108 4109 4734 4733 
4084 4085 4710 4709 4109 4110 4735 4734 
4085 4086 4711 4710 4110 4111 4736 4735 
4086 4087 4712 4711 4111 4112 4737 4736 
4087 4088 4713 4712 4112 4113 4738 4737 
4088 4089 4714 4713 4113 4114 4739 4738 
4089 4090 4715 4714 4114 4115 4740 4739 
4090 4091 4716 4715 4115 4116 4741 4740 
4091 4092 4717 4716 4116 4117 4742 4741 
4092 4093 4718 4717 4117 4118 4743 4742 
4093 4094 4719 4718 4118 4119 4744 4743 
4094 4095 4720 4719 4119 4120 4745 4744 
4095 4096 4721 4720 4120 4121 4746 4745 
4096 4097 4722 4721 4121 4122 4747 4746 
4097 4098 4723 4722 4122 4123 4748 4747 
4098 4099 4724 4723 4123 4124 4749 4748 
4100 4101 4726 4725 4125 4126 4751 4750 
4101 4102 4727 4726 4126 4127 4752 4751 
4102 4103 4728 4727 4127 4128 4753 4752 
4103 4104 4729 4728 4128 4129 4754 4753 
4104 4105 4730 4729 4129 4130 4755 4754 
4105 4106 4731 4730 4130 4131 4756 4755 
4106 4107 4732 4731 4131 4132 4757 4756 
4107 4108 4733 4732 4132 4133 4758 4757 
4108 4109 4734 4733 4133 4134 4759 4758 
4109 4110 4735 4734 4134 4135 4760 4759 
4110 4111 4736 4735 4135 4136 4761 4760 
4111 4112 4737 4736 4136 4137 4762 4761 
4112 4113 4738 4737 4137 4138 4763 4762 
4113 4114 4739 4738 4138 4139 4764 4763 
4114 4115 4740 4739 4139 4140 4765 4764 
4115 4116 4741 4740 4140 4141 4766 4765 
4116 4117 4742 4741 4141 4142 4767 4766 
4117 4118 4743 4742 4142 4143 4768 4767 
4118 4119 4744 4743 4143 4144 4769 4768 
4119 4120 4745 4744 4144 4145 4770 4769 
4120 4121 4746 4745 4145 4146 4771 4770 
4121 4122 4747 4746 4146 4147 4772 4771 
4122 4123 4748 4747 4147 4148 4773 4772 
4123 4124 4749 4748 4148 4149 4774 4773 
4125 4126 4751 4750 4150 4151 4776 4775 
4126 4127 4752 4751 4151 4152 4777 4776 
4127 4128 4753 4752 4152 4153 4778 4777 
4128 4129 4754 4753 4153 4154 4779 4778 
4129 4130 4755 4754 4154 4155 4780 4779 
4130 4131 4756 4755 4155 4156 4781 4780 
4131 4132 4757 4756 4156 4157 4782 4781 
4132 4133 4758 4757 4157 4158 4783 4782 
4133 4134 4759 4758 4158 4159 4784 4783 
4134 4135 4760 4759 4159 4160 4785 4784 
4135 4136 4761 4760 4160 4161 4786 4785 
4136 4137 4762 4761 4161 4162 4787 4786 
4137 4138 4763 4762 4162 4163 4788 4787 
4138 4139 4764 4763 4163 4164 4789 4788 
4139 4140 4765 4764 4164 4165 4790 4789 
4140 4141 4766 4765 4165 4166 4791 4790 
4141 4142 4767 4766 4166 4167 4792 4791 
4142 4143 4768 4767 4167 4168 4793 4792 
4143 4144 4769 4768 4168 4169 4794 4793 
4144 4145 4770 4769 4169 4170 4795 4794 
4145 4146 4771 4770 4170 4171 4796 4795 
4146 4147 4772 4771 4171 4172 4797 4796 
4147 4148 4773 4772 4172 4173 4798 4797 
4148 4149 4774 4773 4173 4174 4799 4798 
4150 4151 4776 4775 4175 4176 4801 4800 
4151 4152 4777 4776 4176 4177 4802 4801 
4152 4153 4778 4777 4177 4178 4803 4802 
4153 4154 4779 4778 4178 4179 4804 4803 
4154 4155 4780 4779 4179 4180 4805 4804 
4155 4156 4781 4780 4180 4181 4806 4805 
4156 4157 4782 4781 4181 4182 4807 4806 
4157 4158 4783 4782 4182 4183 4808 4807 
4158 4159 4784 4783 4183 4184 4809 4808 
4159 4160 4785 4784 4184 4185 4810 4809 
4160 4161 4786 4785 4185 4186 4811 4810 
4161 4162 4787 4786 4186 4187 4812 4811 
4162 4163 4788 4787 4187 4188 4813 4812 
4163 4164 4789 4788 4188 4189 4814 4813 
4164 4165 4790 4789 4189 4190 4815 4814 
4165 4166 4791 4790 4190 4191 4816 4815 
4166 4167 4792 4791 4191 4192 4817 4816 
4167 4168 4793 4792 4192 4193 4818 4817 
4168 4169 4794 4793 4193 4194 4819 4818 
4169 4170 4795 4794 4194 4195 4820 4819 
4170 4171 4796 4795 4195 4196 4821 4820 
4171 4172 4797 4796 4196 4197 4822 4821 
4172 4173 4798 4797 4197 4198 4823 4822 
4173 4174 4799 4798 4198 4199 4824 4823 
4175 4176 4801 4800 4200 4201 4826 4825 
4176 4177 4802 4801 4201 4202 4827 4826 
4177 4178 4803 4802 4202 4203 4828 4827 
4178 4179 4804 4803 4203 4204 4829 4828 
4179 4180 4805 4804 4204 4205 4830 4829 
4180 4181 4806 4805 4205 4206 4831 4830 
4181 4182 4807 4806 4206 4207 4832 4831 
4182 4183 4808 4807 4207 4208 4833 4832 
4183 4184 4809 4808 4208 4209 4834 4833 
4184 4185 4810 4809 4209 4210 4835 4834 
4185 4186 4811 4810 4210 4211 4836 4835 
4186 4187 4812 4811 4211 4212 4837 4836 
4187 4188 4813 4812 4212 4213 4838 4837 
4188 4189 4814 4813 4213 4214 4839 4838 
4189 4190 4815 4814 4214 4215 4840 4839 
4190 4191 4816 4815 4215 4216 4841 4840 
4191 4192 4817 4816 4216 4217 4842 4841 
4192 4193 4818 4817 4217 4218 4843 4842 
4193 4194 4819 4818 4218 4219 4844 4843 
4194 4195 4820 4819 4219 4220 4845 4844 
4195 4196 4821 4820 4220 4221 4846 4845 
4196 4197 4822 4821 4221 4222 4847 4846 
4197 4198 4823 4822 4222 4223 4848 4847 
4198 4199 4824 4823 4223 4224 4849 4848 
4200 4201 4826 4825 4225 4226 4851 4850 
4201 4202 4827 4826 4226 4227 4852 4851 
4202 4203 4828 4827 4227 4228 4853 4852 
4203 4204 4829 4828 4228 4229 4854 4853 
4204 4205 4830 4829 4229 4230 4855 4854 
4205 4206 4831 4830 4230 4231 4856 4855 
4206 4207 4832 4831 4231 4232 4857 4856 
4207 4208 4833 4832 4232 4233 4858 4857 
4208 4209 4834 4833 4233 4234 4859 4858 
4209 4210 4835 4834 4234 4235 4860 4859 
4210 4211 4836 4835 4235 4236 4861 4860 
4211 4212 4837 4836 4236 4237 4862 4861 
4212 4213 4838 4837 4237 4238 4863 4862 
4213 4214 4839 4838 4238 4239 4864 4863 
4214 4215 4840 4839 4239 4240 4865 4864 
4215 4216 4841 4840 4240 4241 4866 4865 
4216 4217 4842 4841 4241 4242 4867 4866 
4217 4218 4843 4842 4242 4243 4868 4867 
4218 4219 4844 4843 4243 4244 4869 4868 
4219 4220 4845 4844 4244 4245 4870 4869 
4220 4221 4846 4845 4245 4246 4871 4870 
4221 4222 4847 4846 4246 4247 4872 4871 
4222 4223 4848 4847 4247 4248 4873 4872 
4223 4224 4849 4848 4248 4249 4874 4873 
4225 4226 4851 4850 4250 4251 4876 4875 
4226 4227 4852 4851 4251 4252 4877 4876 
4227 4228 4853 4852 4252 4253 4878 4877 
4228 4229 4854 4853 4253 4254 4879 4878 
4229 4230 4855 4854 4254 4255 4880 4879 
4230 4231 4856 4855 4255 4256 4881 4880 
4231 4232 4857 4856 4256 4257 4882 4881 
4232 4233 4858 4857 4257 4258 4883 4882 
4233 4234 4859 4858 4258 4259 4884 4883 
4234 4235 4860 4859 4259 4260 4885 4884 
4235 4236 4861 4860 4260 4261 4886 4885 
4236 4237 4862 4861 4261 4262 4887 4886 
4237 4238 4863 4862 4262 4263 4888 4887 
4238 4239 4864 4863 4263 4264 4889 4888 
4239 4240 4865 4864 4264 4265 4890 4889 
4240 4241 4866 4865 4265 4266 4891 4890 
4241 4242 4867 4866 4266 4267 4892 4891 
4242 4243 4868 4867 4267 4268 4893 4892 
4243 4244 4869 4868 4268 4269 4894 4893 
4244 4245 4870 4869 4269 4270 4895 4894 
4245 4246 4871 4870 4270 4271 4896 4895 
4246 4247 4872 4871 4271 4272 4897 4896 
4247 4248 4873 4872 4272 4273 4898 4897 
4248 4249 4874 4873 4273 4274 4899 4898 
4250 4251 4876 4875 4275 4276 4901 4900 
4251 4252 4877 4876 4276 4277 4902 4901 
4252 4253 4878 4877 4277 4278 4903 4902 
4253 4254 4879 4878 4278 4279 4904 4903 
4254 4255 4880 4879 4279 4280 4905 4904 
4255 4256 4881 4880 4280 4281 4906 4905 
4256 4257 4882 4881 4281 4282 4907 4906 
4257 4258 4883 4882 4282 4283 4908 4907 
4258 4259 4884 4883 4283 4284 4909 4908 
4259 4260 4885 4884 4284 4285 4910 4909 
4260 4261 4886 4885 4285 4286 4911 4910 
4261 4262 4887 4886 4286 4287 4912 4911 
4262 4263 4888 4887 4287 4288 4913 4912 
4263 4264 4889 4888 4288 4289 4914 4913 
4264 4265 4890 4889 4289 4290 4915 4914 
4265 4266 4891 4890 4290 4291 4916 4915 
4266 4267 4892 4891 4291 4292 4917 4916 
4267 4268 4893 4892 4292 4293 4918 4917 
4268 4269 4894 4893 4293 4294 4919 4918 
4269 4270 4895 4894 4294 4295 4920 4919 
4270 4271 4896 4895 4295 4296 4921 4920 
4271 4272 4897 4896 4296 4297 4922 4921 
4272 4273 4898 4897 4297 4298 4923 4922 
4273 4274 4899 4898 4298 4299 4924 4923 
4275 4276 4901 4900 4300 4301 4926 4925 
4276 4277 4902 4901 4301 4302 4927 4926 
4277 4278 4903 4902 4302 4303 4928 4927 
4278 4279 4904 4903 4303 4304 4929 4928 
4279 4280 4905 4904 4304 4305 4930 4929 
4280 4281 4906 4905 4305 4306 4931 4930 
4281 4282 4907 4906 4306 4307 4932 4931 
4282 4283 4908 4907 4307 4308 4933 4932 
4283 4284 4909 4908 4308 4309 4934 4933 
4284 4285 4910 4909 4309 4310 4935 4934 
4285 4286 4911 4910 4310 4311 4936 4935 
4286 4287 4912 4911 4311 4312 4937 4936 
4287 4288 4913 4912 4312 4313 4938 4937 
4288 4289 4914 4913 4313 4314 4939 4938 
4289 4290 4915 4914 4314 4315 4940 4939 
4290 4291 4916 4915 4315 4316 4941 4940 
4291 4292 4917 4916 4316 4317 4942 4941 
4292 4293 4918 4917 4317 4318 4943 4942 
4293 4294 4919 4918 4318 4319 4944 4943 
4294 4295 4920 4919 4319 4320 4945 4944 
4295 4296 4921 4920 4320 4321 4946 4945 
4296 4297 4922 4921 4321 4322 4947 4946 
4297 4298 4923 4922 4322 4323 4948 4947 
4298 4299 4924 4923 4323 4324 4949 4948 
4300 4301 4926 4925 4325 4326 4951 4950 
4301 4302 4927 4926 4326 4327 4952 4951 
4302 4303 4928 4927 4327 4328 4953 4952 
4303 4304 4929 4928 4328 4329 4954 4953 
4304 4305 4930 4929 4329 4330 4955 4954 
4305 4306 4931 4930 4330 4331 4956 4955 
4306 4307 4932 4931 4331 4332 4957 4956 
4307 4308 4933 4932 4332 4333 4958 4957 
4308 4309 4934 4933 4333 4334 4959 4958 
4309 4310 4935 4934 4334 4335 4960 4959 
4310 4311 4936 4935 4335 4336 4961 4960 
4311 4312 4937 4936 4336 4337 4962 4961 
4312 4313 4938 4937 4337 4338 4963 4962 
4313 4314 4939 4938 4338 4339 4964 4963 
4314 4315 4940 4939 4339 4340 4965 4964 
4315 4316 4941 4940 4340 4341 4966 4965 
4316 4317 4942 4941 4341 4342 4967 4966 
4317 4318 4943 4942 4342 4343 4968 4967 
4318 4319 4944 4943 4343 4344 4969 4968 
4319 4320 4945 4944 4344 4345 4970 4969 
4320 4321 4946 4945 4345 4346 4971 4970 
4321 4322 4947 4946 4346 4347 4972 4971 
4322 4323 4948 4947 4347 4348 4973 4972 
4323 4324 4949 4948 4348 4349 4974 4973 
4325 4326 4951 4950 4350 4351 4976 4975 
4326 4327 4952 4951 4351 4352 4977 4976 
4327 4328 4953 4952 4352 4353 4978 4977 
4328 4329 4954 4953 4353 4354 4979 4978 
4329 4330 4955 4954 4354 4355 4980 4979 
4330 4331 4956 4955 4355 4356 4981 4980 
4331 4332 4957 4956 4356 4357 4982 4981 
4332 4333 4958 4957 4357 4358 4983 4982 
4333 4334 4959 4958 4358 4359 4984 4983 
4334 4335 4960 4959 4359 4360 4985 4984 
4335 4336 4961 4960 4360 4361 4986 4985 
4336 4337 4962 4961 4361 4362 4987 4986 
4337 4338 4963 4962 4362 4363 4988 4987 
4338 4339 4964 4963 4363 4364 4989 4988 
4339 4340 4965 4964 4364 4365 4990 4989 
4340 4341 4966 4965 4365 4366 4991 4990 
4341 4342 4967 4966 4366 4367 4992 4991 
4342 4343 4968 4967 4367 4368 4993 4992 
4343 4344 4969 4968 4368 4369 4994 4993 
4344 4345 4970 4969 4369 4370 4995 4994 
4345 4346 4971 4970 4370 4371 4996 4995 
4346 4347 4972 4971 4371 4372 4997 4996 
4347 4348 4973 4972 4372 4373 4998 4997 
4348 4349 4974 4973 4373 4374 4999 4998 
4375 4376 5001 5000 4400 4401 5026 5025 
4376 4377 5002 5001 4401 4402 5027 5026 
4377 4378 5003 5002 4402 4403 5028 5027 
4378 4379 5004 5003 4403 4404 5029 5028 
4379 4380 5005 5004 4404 4405 5030 5029 
4380 4381 5006 5005 4405 4406 5031 5030 
4381 4382 5007 5006 4406 4407 5032 5031 
4382 4383 5008 5007 4407 4408 5033 5032 
4383 4384 5009 5008 4408 4409 5034 5033 
4384 4385 5010 5009 4409 4410 5035 5034 
4385 4386 5011 5010 4410 4411 5036 5035 
4386 4387 5012 5011 4411 4412 5037 5036 
4387 4388 5013 5012 4412 4413 5038 5037 
4388 4389 5014 5013 4413 4414 5039 5038 
4389 4390 5015 5014 4414 4415 5040 5039 
4390 4391 5016 5015 4415 4416 5041 5040 
4391 4392 5017 5016 4416 4417 5042 5041 
4392 4393 5018 5017 4417 4418 5043 5042 
4393 4394 5019 5018 4418 4419 5044 5043 
4394 4395 5020 5019 4419 4420 5045 5044 
4395 4396 5021 5020 4420 4421 5046 5045 
4396 4397 5022 5021 4421 4422 5047 5046 
4397 4398 5023 5022 4422 4423 5048 5047 
4398 4399 5024 5023 4423 4424 5049 5048 
4400 4401 5026 5025 4425 4426 5051 5050 
4401 4402 5027 5026 4426 4427 5052 5051 
4402 4403 5028 5027 4427 4428 5053 5052 
4403 4404 5029 5028 4428 4429 5054 5053 
4404 4405 5030 5029 4429 4430 5055 5054 
4405 4406 5031 5030 4430 4431 5056 5055 
4406 4407 5032 5031 4431 4432 5057 5056 
4407 4408 5033 5032 4432 4433 5058 5057 
4408 4409 5034 5033 4433 4434 5059 5058 
4409 4410 5035 5034 4434 4435 5060 5059 
4410 4411 5036 5035 4435 4436 5061 5060 
4411 4412 5037 5036 4436 4437 5062 5061 
4412 4413 5038 5037 4437 4438 5063 5062 
4413 4414 5039 5038 4438 4439 5064 5063 
4414 4415 5040 5039 4439 4440 5065 5064 
4415 4416 5041 5040 4440 4441 5066 5065 
4416 4417 5042 5041 4441 4442 5067 5066 
4417 4418 5043 5042 4442 4443 5068 5067 
4418 4419 5044 5043 4443 4444 5069 5068 
4419 4420 5045 5044 4444 4445 5070 5069 
4420 4421 5046 5045 4445 4446 5071 5070 
4421 4422 5047 5046 4446 4447 5072 5071 
4422 4423 5048 5047 4447 4448 5073 5072 
4423 4424 5049 5048 4448 4449 5074 5073 
4425 4426 5051 5050 4450 4451 5076 5075 
4426 4427 5052 5051 4451 4452 5077 5076 
4427 4428 5053 5052 4452 4453 5078 5077 
4428 4429 5054 5053 4453 4454 5079 5078 
4429 4430 5055 5054 4454 4455 5080 5079 
4430 4431 5056 5055 4455 4456 5081 5080 
4431 4432 5057 5056 4456 4457 5082 5081 
4432 4433 5058 5057 4457 4458 5083 5082 
4433 4434 5059 5058 4458 4459 5084 5083 
4434 4435 5060 5059 4459 4460 5085 5084 
4435 4436 5061 5060 4460 4461 5086 5085 
4436 4437 5062 5061 4461 4462 5087 5086 
4437 4438 5063 5062 4462 4463 5088 5087 
4438 4439 5064 5063 4463 4464 5089 5088 
4439 4440 5065 5064 4464 4465 5090 5089 
4440 4441 5066 5065 4465 4466 5091 5090 
4441 4442 5067 5066 4466 4467 5092 5091 
4442 4443 5068 5067 4467 4468 5093 5092 
4443 4444 5069 5068 4468 4469 5094 5093 
4444 4445 5070 5069 4469 4470 5095 5094 
4445 4446 5071 5070 4470 4471 5096 5095 
4446 4447 5072 5071 4471 4472 5097 5096 
4447 4448 5073 5072 4472 4473 5098 5097 
4448 4449 5074 5073 4473 4474 5099 5098 
4450 4451 5076 5075 4475 4476 5101 5100 
4451 4452 5077 5076 4476 4477 5102 5101 
4452 4453 5078 5077 4477 4478 5103 5102 
4453 4454 5079 5078 4478 4479 5104 5103 
4454 4455 5080 5079 4479 4480 5105 5104 
4455 4456 5081 5080 4480 4481 5106 5105 
4456 4457 5082 5081 4481 4482 5107 5106 
4457 4458 5083 5082 4482 4483 5108 5107 
4458 4459 5084 5083 4483 4484 5109 5108 
4459 4460 5085 5084 4484 4485 5110 5109 
4460 4461 5086 5085 4485 4486 5111 5110 
4461 4462 5087 5086 4486 4487 5112 5111 
4462 4463 5088 5087 4487 4488 5113 5112 
4463 4464 5089 5088 4488 4489 5114 5113 
4464 4465 5090 5089 4489 4490 5115 5114 
4465 4466 5091 5090 4490 4491 5116 5115 
4466 4467 5092 5091 4491 4492 5117 5116 
4467 4468 5093 5092 4492 4493 5118 5117 
4468 4469 5094 5093 4493 4494 5119 5118 
4469 4470 5095 5094 4494 4495 5120 5119 
4470 4471 5096 5095 4495 4496 5121 5120 
4471 4472 5097 5096 4496 4497 5122 5121 
4472 4473 5098 5097 4497 4498 5123 5122 
4473 4474 5099 5098 4498 4499 5124 5123 
4475 4476 5101 5100 4500 4501 5126 5125 
4476 4477 5102 5101 4501 4502 5127 5126 
4477 4478 5103 5102 4502 4503 5128 5127 
4478 4479 5104 5103 4503 4504 5129 5128 
4479 4480 5105 5104 4504 4505 5130 5129 
4480 4481 5106 5105 4505 4506 5131 5130 
4481 4482 5107 5106 4506 4507 5132 5131 
4482 4483 5108 5107 4507 4508 5133 5132 
4483 4484 5109 5108 4508 4509 5134 5133 
4484 4485 5110 5109 4509 4510 5135 5134 
4485 4486 5111 5110 4510 4511 5136 5135 
4486 4487 5112 5111 4511 4512 5137 5136 
4487 4488 5113 5112 4512 4513 5138 5137 
4488 4489 5114 5113 4513 4514 5139 5138 
4489 4490 5115 5114 4514 4515 5140 5139 
4490 4491 5116 5115 4515 4516 5141 5140 
4491 4492 5117 5116 4516 4517 5142 5141 
4492 4493 5118 5117 4517 4518 5143 5142 
4493 4494 5119 5118 4518 4519 5144 5143 
4494 4495 5120 5119 4519 4520 5145 5144 
4495 4496 5121 5120 4520 4521 5146 5145 
4496 4497 5122 5121 4521 4522 5147 5146 
4497 4498 5123 5122 4522 4523 5148 5147 
4498 4499 5124 5123 4523 4524 5149 5148 
4500 4501 5126 5125 4525 4526 5151 5150 
4501 4502 5127 5126 4526 4527 5152 5151 
4502 4503 5128 5127 4527 4528 5153 5152 
4503 4504 5129 5128 4528 4529 5154 5153 
4504 4505 5130 5129 4529 4530 5155 5154 
4505 4506 5131 5130 4530 4531 5156 5155 
4506 4507 5132 5131 4531 4532 5157 5156 
4507 4508 5133 5132 4532 4533 5158 5157 
4508 4509 5134 5133 4533 4534 5159 5158 
4509 4510 5135 5134 4534 4535 5160 5159 
4510 4511 5136 5135 4535 4536 5161 5160 
4511 4512 5137 5136 4536 4537 5162 5161 
4512 4513 5138 5137 4537 4538 5163 5162 
4513 4514 5139 5138 4538 4539 5164 5163 
4514 4515 5140 5139 4539 4540 5165 5164 
4515 4516 5141 5140 4540 4541 5166 5165 
4516 4517 5142 5141 4541 4542 5167 5166 
4517 4518 5143 5142 4542 4543 5168 5167 
4518 4519 5144 5143 4543 4544 5169 5168 
4519 4520 5145 5144 4544 4545 5170 5169 
4520 4521 5146 5145 4545 4546 5171 5170 
4521 4522 5147 5146 4546 4547 5172 5171 
4522 4523 5148 5147 4547 4548 5173 5172 
4523 4524 5149 5148 4548 4549 5174 5173 
4525 4526 5151 5150 4550 4551 5176 5175 
4526 4527 5152 5151 4551 4552 5177 5176 
4527 4528 5153 5152 4552 4553 5178 5177 
4528 4529 5154 5153 4553 4554 5179 5178 
4529 4530 5155 5154 4554 4555 5180 5179 
4530 4531 5156 5155 4555 4556 5181 5180 
4531 4532 5157 5156 4556 4557 5182 5181 
4532 4533 5158 5157 4557 4558 5183 5182 
4533 4534 5159 5158 4558 4559 5184 5183 
4534 4535 5160 5159 4559 4560 5185 5184 
4535 4536 5161 5160 4560 4561 5186 5185 
4536 4537 5162 5161 4561 4562 5187 5186 
4537 4538 5163 5162 4562 4563 5188 5187 
4538 4539 5164 5163 4563 4564 5189 5188 
4539 4540 5165 5164 4564 4565 5190 5189 
4540 4541 5166 5165 4565 4566 5191 5190 
4541 4542 5167 5166 4566 4567 5192 5191 
4542 4543 5168 5167 4567 4568 5193 5192 
4543 4544 5169 5168 4568 4569 5194 5193 
4544 4545 5170 5169 4569 4570 5195 5194 
4545 4546 5171 5170 4570 4571 5196 5195 
4546 4547 5172 5171 4571 4572 5197 5196 
4547 4548 5173 5172 4572 4573 5198 5197 
4548 4549 5174 5173 4573 4574 5199 5198 
4550 4551 5176 5175 4575 4576 5201 5200 
4551 4552 5177 5176 4576 4577 5202 5201 
4552 4553 5178 5177 4577 4578 5203 5202 
4553 4554 5179 5178 4578 4579 5204 5203 
4554 4555 5180 5179 4579 4580 5205 5204 
4555 4556 5181 5180 4580 4581 5206 5205 
4556 4557 5182 5181 4581 4582 5207 5206 
4557 4558 5183 5182 4582 4583 5208 5207 
4558 4559 5184 5183 4583 4584 5209 5208 
4559 4560 5185 5184 4584 4585 5210 5209 
4560 4561 5186 5185 4585 4586 5211 5210 
4561 4562 5187 5186 4586 4587 5212 5211 
4562 4563 5188 5187 4587 4588 5213 5212 
4563 4564 5189 5188 4588 4589 5214 5213 
4564 4565 5190 5189 4589 4590 5215 5214 
4565 4566 5191 5190 4590 4591 5216 5215 
4566 4567 5192 5191 4591 4592 5217 5216 
4567 4568 5193 5192 4592 4593 5218 5217 
4568 4569 5194 5193 4593 4594 5219 5218 
4569 4570 5195 5194 4594 4595 5220 5219 
4570 4571 5196 5195 4595 4596 5221 5220 
4571 4572 5197 5196 4596 4597 5222 5221 
4572 4573 5198 5197 4597 4598 5223 5222 
4573 4574 5199 5198 4598 4599 5224 5223 
4575 4576 5201 5200 4600 4601 5226 5225 
4576 4577 5202 5201 4601 4602 5227 5226 
4577 4578 5203 5202 4602 4603 5228 5227 
4578 4579 5204 5203 4603 4604 5229 5228 
4579 4580 5205 5204 4604 4605 5230 5229 
4580 4581 5206 5205 4605 4606 5231 5230 
4581 4582 5207 5206 4606 4607 5232 5231 
4582 4583 5208 5207 4607 4608 5233 5232 
4583 4584 5209 5208 4608 4609 5234 5233 
4584 4585 5210 5209 4609 4610 5235 5234 
4585 4586 5211 5210 4610 4611 5236 5235 
4586 4587 5212 5211 4611 4612 5237 5236 
4587 4588 5213 5212 4612 4613 5238 5237 
4588 4589 5214 5213 4613 4614 5239 5238 
4589 4590 5215 5214 4614 4615 5240 5239 
4590 4591 5216 5215 4615 4616 5241 5240 
4591 4592 5217 5216 4616 4617 5242 5241 
4592 4593 5218 5217 4617 4618 5243 5242 
4593 4594 5219 5218 4618 4619 5244 5243 
4594 4595 5220 5219 4619 4620 5245 5244 
4595 4596 5221 5220 4620 4621 5246 5245 
4596 4597 5222 5221 4621 4622 5247 5246 
4597 4598 5223 5222 4622 4623 5248 5247 
4598 4599 5224 5223 4623 4624 5249 5248 
4600 4601 5226 5225 4625 4626 5251 5250 
4601 4602 5227 5226 4626 4627 5252 5251 
4602 4603 5228 5227 4627 4628 5253 5252 
4603 4604 5229 5228 4628 4629 5254 5253 
4604 4605 5230 5229 4629 4630 5255 5254 
4605 4606 5231 5230 4630 4631 5256 5255 
4606 4607 5232 5231 4631 4632 5257 5256 
4607 4608 5233 5232 4632 4633 5258 5257 
4608 4609 5234 5233 4633 4634 5259 5258 
4609 4610 5235 5234 4634 4635 5260 5259 
4610 4611 5236 5235 4635 4636 5261 5260 
4611 4612 5237 5236 4636 4637 5262 5261 
4612 4613 5238 5237 4637 4638 5263 5262 
4613 4614 5239 5238 4638 4639 5264 5263 
4614 4615 5240 5239 4639 4640 5265 5264 
4615 4616 5241 5240 4640 4641 5266 5265 
4616 4617 5242 5241 4641 4642 5267 5266 
4617 4618 5243 5242 4642 4643 5268 5267 
4618 4619 5244 5243 4643 4644 5269 5268 
4619 4620 5245 5244 4644 4645 5270 5269 
4620 4621 5246 5245 4645 4646 5271 5270 
4621 4622 5247 5246 4646 4647 5272 5271 
4622 4623 5248 5247 4647 4648 5273 5272 
4623 4624 5249 5248 4648 4649 5274 5273 
4625 4626 5251 5250 4650 4651 5276 5275 
4626 4627 5252 5251 4651 4652 5277 5276 
4627 4628 5253 5252 4652 4653 5278 5277 
4628 4629 5254 5253 4653 4654 5279 5278 
4629 4630 5255 5254 4654 4655 5280 5279 
4630 4631 5256 5255 4655 4656 5281 5280 
4631 4632 5257 5256 4656 4657 5282 5281 
4632 4633 5258 5257 4657 4658 5283 5282 
4633 4634 5259 5258 4658 4659 5284 5283 
4634 4635 5260 5259 4659 4660 5285 5284 
4635 4636 5261 5260 4660 4661 5286 5285 
4636 4637 5262 5261 4661 4662 5287 5286 
4637 4638 5263 5262 4662 4663 5288 5287 
4638 4639 5264 5263 4663 4664 5289 5288 
4639 4640 5265 5264 4664 4665 5290 5289 
4640 4641 5266 5265 4665 4666 5291 5290 
4641 4642 5267 5266 4666 4667 5292 5291 
4642 4643 5268 5267 4667 4668 5293 5292 
4643 4644 5269 5268 4668 4669 5294 5293 
4644 4645 5270 5269 4669 4670 5295 5294 
4645 4646 5271 5270 4670 4671 5296 5295 
4646 4647 5272 5271 4671 4672 5297 5296 
4647 4648 5273 5272 4672 4673 5298 5297 
4648 4649 5274 5273 4673 4674 5299 5298 
4650 4651 5276 5275 4675 4676 5301 5300 
4651 4652 5277 5276 4676 4677 5302 5301 
4652 4653 5278 5277 4677 4678 5303 5302 
4653 4654 5279 5278 4678 4679 5304 5303 
4654 4655 5280 5279 4679 4680 5305 5304 
4655 4656 5281 5280 4680 4681 5306 5305 
4656 4657 5282 5281 4681 4682 5307 5306 
4657 4658 5283 5282 4682 4683 5308 5307 
4658 4659 5284 5283 4683 4684 5309 5308 
4659 4660 5285 5284 4684 4685 5310 5309 
4660 4661 5286 5285 4685 4686 5311 5310 
4661 4662 5287 5286 4686 4687 5312 5311 
4662 4663 5288 5287 4687 4688 5313 5312 
4663 4664 5289 5288 4688 4689 5314 5313 
4664 4665 5290 5289 4689 4690 5315 5314 
4665 4666 5291 5290 4690 4691 5316 5315 
4666 4667 5292 5291 4691 4692 5317 5316 
4667 4668 5293 5292 4692 4693 5318 5317 
4668 4669 5294 5293 4693 4694 5319 5318 
4669 4670 5295 5294 4694 4695 5320 5319 
4670 4671 5296 5295 4695 4696 5321 5320 
4671 4672 5297 5296 4696 4697 5322 5321 
4672 4673 5298 5297 4697 4698 5323 5322 
4673 4674 5299 5298 4698 4699 5324 5323 
4675 4676 5301 5300 4700 4701 5326 5325 
4676 4677 5302 5301 4701 4702 5327 5326 
4677 4678 5303 5302 4702 4703 5328 5327 
4678 4679 5304 5303 4703 4704 5329 5328 
4679 4680 5305 5304 4704 4705 5330 5329 
4680 4681 5306 5305 4705 4706 5331 5330 
4681 4682 5307 5306 4706 4707 5332 5331 
4682 4683 5308 5307 4707 4708 5333 5332 
4683 4684 5309 5308 4708 4709 5334 5333 
4684 4685 5310 5309 4709 4710 5335 5334 
4685 4686 5311 5310 4710 4711 5336 5335 
4686 4687 5312 5311 4711 4712 5337 5336 
4687 4688 5313 5312 4712 4713 5338 5337 
4688 4689 5314 5313 4713 4714 5339 5338 
4689 4690 5315 5314 4714 4715 5340 5339 
4690 4691 5316 5315 4715 4716 5341 5340 
4691 4692 5317 5316 4716 4717 5342 5341 
4692 4693 5318 5317 4717 4718 5343 5342 
4693 4694 5319 5318 4718 4719 5344 5343 
4694 4695 5320 5319 4719 4720 5345 5344 
4695 4696 5321 5320 4720 4721 5346 5345 
4696 4697 5322 5321 4721 4722 5347 5346 
4697 4698 5323 5322 4722 4723 5348 5347 
4698 4699 5324 5323 4723 4724 5349 5348 
4700 4701 5326 5325 4725 4726 5351 5350 
4701 4702 5327 5326 4726 4727 5352 5351 
4702 4703 5328 5327 4727 4728 5353 5352 
4703 4704 5329 5328 4728 4729 5354 5353 
4704 4705 5330 5329 4729 4730 5355 5354 
4705 4706 5331 5330 4730 4731 5356 5355 
4706 4707 5332 5331 4731 4732 5357 5356 
4707 4708 5333 5332 4732 4733 5358 5357 
4708 4709 5334 5333 4733 4734 5359 5358 
4709 4710 5335 5334 4734 4735 5360 5359 
4710 4711 5336 5335 4735 4736 5361 5360 
4711 4712 5337 5336 4736 4737 5362 5361 
4712 4713 5338 5337 4737 4738 5363 5362 
4713 4714 5339 5338 4738 4739 5364 5363 
4714 4715 5340 5339 4739 4740 5365 5364 
4715 4716 5341 5340 4740 4741 5366 5365 
4716 4717 5342 5341 4741 4742 5367 5366 
4717 4718 5343 5342 4742 4743 5368 5367 
4718 4719 5344 5343 4743 4744 5369 5368 
4719 4720 5345 5344 4744 4745 5370 5369 
4720 4721 5346 5345 4745 4746 5371 5370 
4721 4722 5347 5346 4746 4747 5372 5371 
4722 4723 5348 5347 4747 4748 5373 5372 
4723 4724 5349 5348 4748 4749 5374 5373 
4725 4726 5351 5350 4750 4751 5376 5375 
4726 4727 5352 5351 4751 4752 5377 5376 
4727 4728 5353 5352 4752 4753 5378 5377 
4728 4729 5354 5353 4753 4754 5379 5378 
4729 4730 5355 5354 4754 4755 5380 5379 
4730 4731 5356 5355 4755 4756 5381 5380 
4731 4732 5357 5356 4756 4757 5382 5381 
4732 4733 5358 5357 4757 4758 5383 5382 
4733 4734 5359 5358 4758 4759 5384 5383 
4734 4735 5360 5359 4759 4760 5385 5384 
4735 4736 5361 5360 4760 4761 5386 5385 
4736 4737 5362 5361 4761 4762 5387 5386 
4737 4738 5363 5362 4762 4763 5388 5387 
4738 4739 5364 5363 4763 4764 5389 5388 
4739 4740 5365 5364 4764 4765 5390 5389 
4740 4741 5366 5365 4765 4766 5391 5390 
4741 4742 5367 5366 4766 4767 5392 5391 
4742 4743 5368 5367 4767 4768 5393 5392 
4743 4744 5369 5368 4768 4769 5394 5393 
4744 4745 5370 5369 4769 4770 5395 5394 
4745 4746 5371 5370 4770 4771 5396 5395 
4746 4747 5372 5371 4771 4772 5397 5396 
4747 4748 5373 5372 4772 4773 5398 5397 
4748 4749 5374 5373 4773 4774 5399 5398 
4750 4751 5376 5375 4775 4776 5401 5400 
4751 4752 5377 5376 4776 4777 5402 5401 
4752 4753 5378 5377 4777 4778 5403 5402 
4753 4754 5379 5378 4778 4779 5404 5403 
4754 4755 5380 5379 4779 4780 5405 5404 
4755 4756 5381 5380 4780 4781 5406 5405 
4756 4757 5382 5381 4781 4782 5407 5406 
4757 4758 5383 5382 4782 4783 5408 5407 
4758 4759 5384 5383 4783 4784 5409 5408 
4759 4760 5385 5384 4784 4785 5410 5409 
4760 4761 5386 5385 4785 4786 5411 5410 
4761 4762 5387 5386 4786 4787 5412 5411 
4762 4763 5388 5387 4787 4788 5413 5412 
4763 4764 5389 5388 4788 4789 5414 5413 
4764 4765 5390 5389 4789 4790 5415 5414 
4765 4766 5391 5390 4790 4791 5416 5415 
4766 4767 5392 5391 4791 4792 5417 5416 
4767 4768 5393 5392 4792 4793 5418 5417 
4768 4769 5394 5393 4793 4794 5419 5418 
4769 4770 5395 5394 4794 4795 5420 5419 
4770 4771 5396 5395 4795 4796 5421 5420 
4771 4772 5397 5396 4796 4797 5422 5421 
4772 4773 5398 5397 4797 4798 5423 5422 
4773 4774 5399 5398 4798 4799 5424 5423 
4775 4776 5401 5400 4800 4801 5426 5425 
4776 4777 5402 5401 4801 4802 5427 5426 
4777 4778 5403 5402 4802 4803 5428 5427 
4778 4779 5404 5403 4803 4804 5429 5428 
4779 4780 5405 5404 4804 4805 5430 5429 
4780 4781 5406 5405 4805 4806 5431 5430 
4781 4782 5407 5406 4806 4807 5432 5431 
4782 4783 5408 5407 4807 4808 5433 5432 
4783 4784 5409 5408 4808 4809 5434 5433 
4784 4785 5410 5409 4809 4810 5435 5434 
4785 4786 5411 5410 4810 4811 5436 5435 
4786 4787 5412 5411 4811 4812 5437 5436 
4787 4788 5413 5412 4812 4813 5438 5437 
4788 4789 5414 5413 4813 4814 5439 5438 
4789 4790 5415 5414 4814 4815 5440 5439 
4790 4791 5416 5415 4815 4816 5441 5440 
4791 4792 5417 5416 4816 4817 5442 5441 
4792 4793 5418 5417 4817 4818 5443 5442 
4793 4794 5419 5418 4818 4819 5444 5443 
4794 4795 5420 5419 4819 4820 5445 5444 
4795 4796 5421 5420 4820 4821 5446 5445 
4796 4797 5422 5421 4821 4822 5447 5446 
4797 4798 5423 5422 4822 4823 5448 5447 
4798 4799 5424 5423 4823 4824 5449 5448 
4800 4801 5426 5425 4825 4826 5451 5450 
4801 4802 5427 5426 4826 4827 5452 5451 
4802 4803 5428 5427 4827 4828 5453 5452 
4803 4804 5429 5428 4828 4829 5454 5453 
4804 4805 5430 5429 4829 4830 5455 5454 
4805 4806 5431 5430 4830 4831 5456 5455 
4806 4807 5432 5431 4831 4832 5457 5456 
4807 4808 5433 5432 4832 4833 5458 5457 
4808 4809 5434 5433 4833 4834 5459 5458 
4809 4810 5435 5434 4834 4835 5460 5459 
4810 4811 5436 5435 4835 4836 5461 5460 
4811 4812 5437 5436 4836 4837 5462 5461 
4812 4813 5438 5437 4837 4838 5463 5462 
4813 4814 5439 5438 4838 4839 5464 5463 
4814 4815 5440 5439 4839 4840 5465 5464 
4815 4816 5441 5440 4840 4841 5466 5465 
4816 4817 5442 5441 4841 4842 5467 5466 
4817 4818 5443 5442 4842 4843 5468 5467 
4818 4819 5444 5443 4843 4844 5469 5468 
4819 4820 5445 5444 4844 4845 5470 5469 
4820 4821 5446 5445 4845 4846 5471 5470 
4821 4822 5447 5446 4846 4847 5472 5471 
4822 4823 5448 5447 4847 4848 5473 5472 
4823 4824 5449 5448 4848 4849 5474 5473 
4825 4826 5451 5450 4850 4851 5476 5475 
4826 4827 5452 5451 4851 4852 5477 5476 
4827 4828 5453 5452 4852 4853 5478 5477 
4828 4829 5454 5453 4853 4854 5479 5478 
4829 4830 5455 5454 4854 4855 5480 5479 
4830 4831 5456 5455 4855 4856 5481 5480 
4831 4832 5457 5456 4856 4857 5482 5481 
4832 4833 5458 5457 4857 4858 5483 5482 
4833 4834 5459 5458 4858 4859 5484 5483 
4834 4835 5460 5459 4859 4860 5485 5484 
4835 4836 5461 5460 4860 4861 5486 5485 
4836 4837 5462 5461 4861 4862 5487 5486 
4837 4838 5463 5462 4862 4863 5488 5487 
4838 4839 5464 5463 4863 4864 5489 5488 
4839 4840 5465 5464 4864 4865 5490 5489 
4840 4841 5466 5465 4865 4866 5491 5490 
4841 4842 5467 5466 4866 4867 5492 5491 
4842 4843 5468 5467 4867 4868 5493 5492 
4843 4844 5469 5468 4868 4869 5494 5493 
4844 4845 5470 5469 4869 4870 5495 5494 
4845 4846 5471 5470 4870 4871 5496 5495 
4846 4847 5472 5471 4871 4872 5497 5496 
4847 4848 5473 5472 4872 4873 5498 5497 
4848 4849 5474 5473 4873 4874 5499 5498 
4850 4851 5476 5475 4875 4876 5501 5500 
4851 4852 5477 5476 4876 4877 5502 5501 
4852 4853 5478 5477 4877 4878 5503 5502 
4853 4854 5479 5478 4878 4879 5504 5503 
4854 4855 5480 5479 4879 4880 5505 5504 
4855 4856 5481 5480 4880 4881 5506 5505 
4856 4857 5482 5481 4881 4882 5507 5506 
4857 4858 5483 5482 4882 4883 5508 5507 
4858 4859 5484 5483 4883 4884 5509 5508 
4859 4860 5485 5484 4884 4885 5510 5509 
4860 4861 5486 5485 4885 4886 5511 5510 
4861 4862 5487 5486 4886 4887 5512 5511 
4862 4863 5488 5487 4887 4888 5513 5512 
4863 4864 5489 5488 4888 4889 5514 5513 
4864 4865 5490 5489 4889 4890 5515 5514 
4865 4866 5491 5490 4890 4891 5516 5515 
4866 4867 5492 5491 4891 4892 5517 5516 
4867 4868 5493 5492 4892 4893 5518 5517 
4868 4869 5494 5493 4893 4894 5519 5518 
4869 4870 5495 5494 4894 4895 5520 5519 
4870 4871 5496 5495 4895 4896 5521 5520 
4871 4872 5497 5496 4896 4897 5522 5521 
4872 4873 5498 5497 4897 4898 5523 5522 
4873 4874 5499 5498 4898 4899 5524 5523 
4875 4876 5501 5500 4900 4901 5526 5525 
4876 4877 5502 5501 4901 4902 5527 5526 
4877 4878 5503 5502 4902 4903 5528 5527 
4878 4879 5504 5503 4903 4904 5529 5528 
4879 4880 5505 5504 4904 4905 5530 5529 
4880 4881 5506 5505 4905 4906 5531 5530 
4881 4882 5507 5506 4906 4907 5532 5531 
4882 4883 5508 5507 4907 4908 5533 5532 
4883 4884 5509 5508 4908 4909 5534 5533 
4884 4885 5510 5509 4909 4910 5535 5534 
4885 4886 5511 5510 4910 4911 5536 5535 
4886 4887 5512 5511 4911 4912 5537 5536 
4887 4888 5513 5512 4912 4913 5538 5537 
4888 4889 5514 5513 4913 4914 5539 5538 
4889 4890 5515 5514 4914 4915 5540 5539 
4890 4891 5516 5515 4915 4916 5541 5540 
4891 4892 5517 5516 4916 4917 5542 5541 
4892 4893 5518 5517 4917 4918 5543 5542 
4893 4894 5519 5518 4918 4919 5544 5543 
4894 4895 5520 5519 4919 4920 5545 5544 
4895 4896 5521 5520 4920 4921 5546 5545 
4896 4897 5522 5521 4921 4922 5547 5546 
4897 4898 5523 5522 4922 4923 5548 5547 
4898 4899 5524 5523 4923 4924 5549 5548 
4900 4901 5526 5525 4925 4926 5551 5550 
4901 4902 5527 5526 4926 4927 5552 5551 
4902 4903 5528 5527 4927 4928 5553 5552 
4903 4904 5529 5528 4928 4929 5554 5553 
4904 4905 5530 5529 4929 4930 5555 5554 
4905 4906 5531 5530 4930 4931 5556 5555 
4906 4907 5532 5531 4931 4932 5557 5556 
4907 4908 5533 5532 4932 4933 5558 5557 
4908 4909 5534 5533 4933 4934 5559 5558 
4909 4910 5535 5534 4934 4935 5560 5559 
4910 4911 5536 5535 4935 4936 5561 5560 
4911 4912 5537 5536 4936 4937 5562 5561 
4912 4913 5538 5537 4937 4938 5563 5562 
4913 4914 5539 5538 4938 4939 5564 5563 
4914 4915 5540 5539 4939 4940 5565 5564 
4915 4916 5541 5540 4940 4941 5566 5565 
4916 4917 5542 5541 4941 4942 5567 5566 
4917 4918 5543 5542 4942 4943 5568 5567 
4918 4919 5544 5543 4943 4944 5569 5568 
4919 4920 5545 5544 4944 4945 5570 5569 
4920 4921 5546 5545 4945 4946 5571 5570 
4921 4922 5547 5546 4946 4947 5572 5571 
4922 4923 5548 5547 4947 4948 5573 5572 
4923 4924 5549 5548 4948 4949 5574 5573 
4925 4926 5551 5550 4950 4951 5576 5575 
4926 4927 5552 5551 4951 4952 5577 5576 
4927 4928 5553 5552 4952 4953 5578 5577 
4928 4929 5554 5553 4953 4954 5579 5578 
4929 4930 5555 5554 4954 4955 5580 5579 
4930 4931 5556 5555 4955 4956 5581 5580 
4931 4932 5557 5556 4956 4957 5582 5581 
4932 4933 5558 5557 4957 4958 5583 5582 
4933 4934 5559 5558 4958 4959 5584 5583 
4934 4935 5560 5559 4959 4960 5585 5584 
4935 4936 5561 5560 4960 4961 5586 5585 
4936 4937 5562 5561 4961 4962 5587 5586 
4937 4938 5563 5562 4962 4963 5588 5587 
4938 4939 5564 5563 4963 4964 5589 5588 
4939 4940 5565 5564 4964 4965 5590 5589 
4940 4941 5566 5565 4965 4966 5591 5590 
4941 4942 5567 5566 4966 4967 5592 5591 
4942 4943 5568 5567 4967 4968 5593 5592 
4943 4944 5569 5568 4968 4969 5594 5593 
4944 4945 5570 5569 4969 4970 5595 5594 
4945 4946 5571 5570 4970 4971 5596 5595 
4946 4947 5572 5571 4971 4972 5597 5596 
4947 4948 5573 5572 4972 4973 5598 5597 
4948 4949 5574 5573 4973 4974 5599 5598 
4950 4951 5576 5575 4975 4976 5601 5600 
4951 4952 5577 5576 4976 4977 5602 5601 
4952 4953 5578 5577 4977 4978 5603 5602 
4953 4954 5579 5578 4978 4979 5604 5603 
4954 4955 5580 5579 4979 4980 5605 5604 
4955 4956 5581 5580 4980 4981 5606 5605 
4956 4957 5582 5581 4981 4982 5607 5606 
4957 4958 5583 5582 4982 4983 5608 5607 
4958 4959 5584 5583 4983 4984 5609 5608 
4959 4960 5585 5584 4984 4985 5610 5609 
4960 4961 5586 5585 4985 4986 5611 5610 
4961 4962 5587 5586 4986 4987 5612 5611 
4962 4963 5588 5587 4987 4988 5613 5612 
4963 4964 5589 5588 4988 4989 5614 5613 
4964 4965 5590 5589 4989 4990 5615 5614 
4965 4966 5591 5590 4990 4991 5616 5615 
4966 4967 5592 5591 4991 4992 5617 5616 
4967 4968 5593 5592 4992 4993 5618 5617 
4968 4969 5594 5593 4993 4994 5619 5618 
4969 4970 5595 5594 4994 4995 5620 5619 
4970 4971 5596 5595 4995 4996 5621 5620 
4971 4972 5597 5596 4996 4997 5622 5621 
4972 4973 5598 5597 4997 4998 5623 5622 
4973 4974 5599 5598 4998 4999 5624 5623 
5000 5001 5626 5625 5025 5026 5651 5650 
5001 5002 5627 5626 5026 5027 5652 5651 
5002 5003 5628 5627 5027 5028 5653 5652 
5003 5004 5629 5628 5028 5029 5654 5653 
5004 5005 5630 5629 5029 5030 5655 5654 
5005 5006 5631 5630 5030 5031 5656 5655 
5006 5007 5632 5631 5031 5032 5657 5656 
5007 5008 5633 5632 5032 5033 5658 5657 
5008 5009 5634 5633 5033 5034 5659 5658 
5009 5010 5635 5634 5034 5035 5660 5659 
5010 5011 5636 5635 5035 5036 5661 5660 
5011 5012 5637 5636 5036 5037 5662 5661 
5012 5013 5638 5637 5037 5038 5663 5662 
5013 5014 5639 5638 5038 5039 5664 5663 
5014 5015 5640 5639 5039 5040 5665 5664 
5015 5016 5641 5640 5040 5041 5666 5665 
5016 5017 5642 5641 5041 5042 5667 5666 
5017 5018 5643 5642 5042 5043 5668 5667 
5018 5019 5644 5643 5043 5044 5669 5668 
5019 5020 5645 5644 5044 5045 5670 5669 
5020 5021 5646 5645 5045 5046 5671 5670 
5021 5022 5647 5646 5046 5047 5672 5671 
5022 5023 5648 5647 5047 5048 5673 5672 
5023 5024 5649 5648 5048 5049 5674 5673 
5025 5026 5651 5650 5050 5051 5676 5675 
5026 5027 5652 5651 5051 5052 5677 5676 
5027 5028 5653 5652 5052 5053 5678 5677 
5028 5029 5654 5653 5053 5054 5679 5678 
5029 5030 5655 5654 5054 5055 5680 5679 
5030 5031 5656 5655 5055 5056 5681 5680 
5031 5032 5657 5656 5056 5057 5682 5681 
5032 5033 5658 5657 5057 5058 5683 5682 
5033 5034 5659 5658 5058 5059 5684 5683 
5034 5035 5660 5659 5059 5060 5685 5684 
5035 5036 5661 5660 5060 5061 5686 5685 
5036 5037 5662 5661 5061 5062 5687 5686 
5037 5038 5663 5662 5062 5063 5688 5687 
5038 5039 5664 5663 5063 5064 5689 5688 
5039 5040 5665 5664 5064 5065 5690 5689 
5040 5041 5666 5665 5065 5066 5691 5690 
5041 5042 5667 5666 5066 5067 5692 5691 
5042 5043 5668 5667 5067 5068 5693 5692 
5043 5044 5669 5668 5068 5069 5694 5693 
5044 5045 5670 5669 5069 5070 5695 5694 
5045 5046 5671 5670 5070 5071 5696 5695 
5046 5047 5672 5671 5071 5072 5697 5696 
5047 5048 5673 5672 5072 5073 5698 5697 
5048 5049 5674 5673 5073 5074 5699 5698 
5050 5051 5676 5675 5075 5076 5701 5700 
5051 5052 5677 5676 5076 5077 5702 5701 
5052 5053 5678 5677 5077 5078 5703 5702 
5053 5054 5679 5678 5078 5079 5704 5703 
5054 5055 5680 5679 5079 5080 5705 5704 
5055 5056 5681 5680 5080 5081 5706 5705 
5056 5057 5682 5681 5081 5082 5707 5706 
5057 5058 5683 5682 5082 5083 5708 5707 
5058 5059 5684 5683 5083 5084 5709 5708 
5059 5060 5685 5684 5084 5085 5710 5709 
5060 5061 5686 5685 5085 5086 5711 5710 
5061 5062 5687 5686 5086 5087 5712 5711 
5062 5063 5688 5687 5087 5088 5713 5712 
5063 5064 5689 5688 5088 5089 5714 5713 
5064 5065 5690 5689 5089 5090 5715 5714 
5065 5066 5691 5690 5090 5091 5716 5715 
5066 5067 5692 5691 5091 5092 5717 5716 
5067 5068 5693 5692 5092 5093 5718 5717 
5068 5069 5694 5693 5093 5094 5719 5718 
5069 5070 5695 5694 5094 5095 5720 5719 
5070 5071 5696 5695 5095 5096 5721 5720 
5071 5072 5697 5696 5096 5097 5722 5721 
5072 5073 5698 5697 5097 5098 5723 5722 
5073 5074 5699 5698 5098 5099 5724 5723 
5075 5076 5701 5700 5100 5101 5726 5725 
5076 5077 5702 5701 5101 5102 5727 5726 
5077 5078 5703 5702 5102 5103 5728 5727 
5078 5079 5704 5703 5103 5104 5729 5728 
5079 5080 5705 5704 5104 5105 5730 5729 
5080 5081 5706 5705 5105 5106 5731 5730 
5081 5082 5707 5706 5106 5107 5732 5731 
5082 5083 5708 5707 5107 5108 5733 5732 
5083 5084 5709 5708 5108 5109 5734 5733 
5084 5085 5710 5709 5109 5110 5735 5734 
5085 5086 5711 5710 5110 5111 5736 5735 
5086 5087 5712 5711 5111 5112 5737 5736 
5087 5088 5713 5712 5112 5113 5738 5737 
5088 5089 5714 5713 5113 5114 5739 5738 
5089 5090 5715 5714 5114 5115 5740 5739 
5090 5091 5716 5715 5115 5116 5741 5740 
5091 5092 5717 5716 5116 5117 5742 5741 
5092 5093 5718 5717 5117 5118 5743 5742 
5093 5094 5719 5718 5118 5119 5744 5743 
5094 5095 5720 5719 5119 5120 5745 5744 
5095 5096 5721 5720 5120 5121 5746 5745 
5096 5097 5722 5721 5121 5122 5747 5746 
5097 5098 5723 5722 5122 5123 5748 5747 
5098 5099 5724 5723 5123 5124 5749 5748 
5100 5101 5726 5725 5125 5126 5751 5750 
5101 5102 5727 5726 5126 5127 5752 5751 
5102 5103 5728 5727 5127 5128 5753 5752 
5103 5104 5729 5728 5128 5129 5754 5753 
5104 5105 5730 5729 5129 5130 5755 5754 
5105 5106 5731 5730 5130 5131 5756 5755 
5106 5107 5732 5731 5131 5132 5757 5756 
5107 5108 5733 5732 5132 5133 5758 5757 
5108 5109 5734 5733 5133 5134 5759 5758 
5109 5110 5735 5734 5134 5135 5760 5759 
5110 5111 5736 5735 5135 5136 5761 5760 
5111 5112 5737 5736 5136 5137 5762 5761 
5112 5113 5738 5737 5137 5138 5763 5762 
5113 5114 5739 5738 5138 5139 5764 5763 
5114 5115 5740 5739 5139 5140 5765 5764 
5115 5116 5741 5740 5140 5141 5766 5765 
5116 5117 5742 5741 5141 5142 5767 5766 
5117 5118 5743 5742 5142 5143 5768 5767 
5118 5119 5744 5743 5143 5144 5769 5768 
5119 5120 5745 5744 5144 5145 5770 5769 
5120 5121 5746 5745 5145 5146 5771 5770 
5121 5122 5747 5746 5146 5147 5772 5771 
5122 5123 5748 5747 5147 5148 5773 5772 
5123 5124 5749 5748 5148 5149 5774 5773 
5125 5126 5751 5750 5150 5151 5776 5775 
5126 5127 5752 5751 5151 5152 5777 5776 
5127 5128 5753 5752 5152 5153 5778 5777 
5128 5129 5754 5753 5153 5154 5779 5778 
5129 5130 5755 5754 5154 5155 5780 5779 
5130 5131 5756 5755 5155 5156 5781 5780 
5131 5132 5757 5756 5156 5157 5782 5781 
5132 5133 5758 5757 5157 5158 5783 5782 
5133 5134 5759 5758 5158 5159 5784 5783 
5134 5135 5760 5759 5159 5160 5785 5784 
5135 5136 5761 5760 5160 5161 5786 5785 
5136 5137 5762 5761 5161 5162 5787 5786 
5137 5138 5763 5762 5162 5163 5788 5787 
5138 5139 5764 5763 5163 5164 5789 5788 
5139 5140 5765 5764 5164 5165 5790 5789 
5140 5141 5766 5765 5165 5166 5791 5790 
5141 5142 5767 5766 5166 5167 5792 5791 
5142 5143 5768 5767 5167 5168 5793 5792 
5143 5144 5769 5768 5168 5169 5794 5793 
5144 5145 5770 5769 5169 5170 5795 5794 
5145 5146 5771 5770 5170 5171 5796 5795 
5146 5147 5772 5771 5171 5172 5797 5796 
5147 5148 5773 5772 5172 5173 5798 5797 
5148 5149 5774 5773 5173 5174 5799 5798 
5150 5151 5776 5775 5175 5176 5801 5800 
5151 5152 5777 5776 5176 5177 5802 5801 
5152 5153 5778 5777 5177 5178 5803 5802 
5153 5154 5779 5778 5178 5179 5804 5803 
5154 5155 5780 5779 5179 5180 5805 5804 
5155 5156 5781 5780 5180 5181 5806 5805 
5156 5157 5782 5781 5181 5182 5807 5806 
5157 5158 5783 5782 5182 5183 5808 5807 
5158 5159 5784 5783 5183 5184 5809 5808 
5159 5160 5785 5784 5184 5185 5810 5809 
5160 5161 5786 5785 5185 5186 5811 5810 
5161 5162 5787 5786 5186 5187 5812 5811 
5162 5163 5788 5787 5187 5188 5813 5812 
5163 5164 5789 5788 5188 5189 5814 5813 
5164 5165 5790 5789 5189 5190 5815 5814 
5165 5166 5791 5790 5190 5191 5816 5815 
5166 5167 5792 5791 5191 5192 5817 5816 
5167 5168 5793 5792 5192 5193 5818 5817 
5168 5169 5794 5793 5193 5194 5819 5818 
5169 5170 5795 5794 5194 5195 5820 5819 
5170 5171 5796 5795 5195 5196 5821 5820 
5171 5172 5797 5796 5196 5197 5822 5821 
5172 5173 5798 5797 5197 5198 5823 5822 
5173 5174 5799 5798 5198 5199 5824 5823 
5175 5176 5801 5800 5200 5201 5826 5825 
5176 5177 5802 5801 5201 5202 5827 5826 
5177 5178 5803 5802 5202 5203 5828 5827 
5178 5179 5804 5803 5203 5204 5829 5828 
5179 5180 5805 5804 5204 5205 5830 5829 
5180 5181 5806 5805 5205 5206 5831 5830 
5181 5182 5807 5806 5206 5207 5832 5831 
5182 5183 5808 5807 5207 5208 5833 5832 
5183 5184 5809 5808 5208 5209 5834 5833 
5184 5185 5810 5809 5209 5210 5835 5834 
5185 5186 5811 5810 5210 5211 5836 5835 
5186 5187 5812 5811 5211 5212 5837 5836 
5187 5188 5813 5812 5212 5213 5838 5837 
5188 5189 5814 5813 5213 5214 5839 5838 
5189 5190 5815 5814 5214 5215 5840 5839 
5190 5191 5816 5815 5215 5216 5841 5840 
5191 5192 5817 5816 5216 5217 5842 5841 
5192 5193 5818 5817 5217 5218 5843 5842 
5193 5194 5819 5818 5218 5219 5844 5843 
5194 5195 5820 5819 5219 5220 5845 5844 
5195 5196 5821 5820 5220 5221 5846 5845 
5196 5197 5822 5821 5221 5222 5847 5846 
5197 5198 5823 5822 5222 5223 5848 5847 
5198 5199 5824 5823 5223 5224 5849 5848 
5200 5201 5826 5825 5225 5226 5851 5850 
5201 5202 5827 5826 5226 5227 5852 5851 
5202 5203 5828 5827 5227 5228 5853 5852 
5203 5204 5829 5828 5228 5229 5854 5853 
5204 5205 5830 5829 5229 5230 5855 5854 
5205 5206 5831 5830 5230 5231 5856 5855 
5206 5207 5832 5831 5231 5232 5857 5856 
5207 5208 5833 5832 5232 5233 5858 5857 
5208 5209 5834 5833 5233 5234 5859 5858 
5209 5210 5835 5834 5234 5235 5860 5859 
5210 5211 5836 5835 5235 5236 5861 5860 
5211 5212 5837 5836 5236 5237 5862 5861 
5212 5213 5838 5837 5237 5238 5863 5862 
5213 5214 5839 5838 5238 5239 5864 5863 
5214 5215 5840 5839 5239 5240 5865 5864 
5215 5216 5841 5840 5240 5241 5866 5865 
5216 5217 5842 5841 5241 5242 5867 5866 
5217 5218 5843 5842 5242 5243 5868 5867 
5218 5219 5844 5843 5243 5244 5869 5868 
5219 5220 5845 5844 5244 5245 5870 5869 
5220 5221 5846 5845 5245 5246 5871 5870 
5221 5222 5847 5846 5246 5247 5872 5871 
5222 5223 5848 5847 5247 5248 5873 5872 
5223 5224 5849 5848 5248 5249 5874 5873 
5225 5226 5851 5850 5250 5251 5876 5875 
5226 5227 5852 5851 5251 5252 5877 5876 
5227 5228 5853 5852 5252 5253 5878 5877 
5228 5229 5854 5853 5253 5254 5879 5878 
5229 5230 5855 5854 5254 5255 5880 5879 
5230 5231 5856 5855 5255 5256 5881 5880 
5231 5232 5857 5856 5256 5257 5882 5881 
5232 5233 5858 5857 5257 5258 5883 5882 
5233 5234 5859 5858 5258 5259 5884 5883 
5234 5235 5860 5859 5259 5260 5885 5884 
5235 5236 5861 5860 5260 5261 5886 5885 
5236 5237 5862 5861 5261 5262 5887 5886 
5237 5238 5863 5862 5262 5263 5888 5887 
5238 5239 5864 5863 5263 5264 5889 5888 
5239 5240 5865 5864 5264 5265 5890 5889 
5240 5241 5866 5865 5265 5266 5891 5890 
5241 5242 5867 5866 5266 5267 5892 5891 
5242 5243 5868 5867 5267 5268 5893 5892 
5243 5244 5869 5868 5268 5269 5894 5893 
5244 5245 5870 5869 5269 5270 5895 5894 
5245 5246 5871 5870 5270 5271 5896 5895 
5246 5247 5872 5871 5271 5272 5897 5896 
5247 5248 5873 5872 5272 5273 5898 5897 
5248 5249 5874 5873 5273 5274 5899 5898 
5250 5251 5876 5875 5275 5276 5901 5900 
5251 5252 5877 5876 5276 5277 5902 5901 
5252 5253 5878 5877 5277 5278 5903 5902 
5253 5254 5879 5878 5278 5279 5904 5903 
5254 5255 5880 5879 5279 5280 5905 5904 
5255 5256 5881 5880 5280 5281 5906 5905 
5256 5257 5882 5881 5281 5282 5907 5906 
5257 5258 5883 5882 5282 5283 5908 5907 
5258 5259 5884 5883 5283 5284 5909 5908 
5259 5260 5885 5884 5284 5285 5910 5909 
5260 5261 5886 5885 5285 5286 5911 5910 
5261 5262 5887 5886 5286 5287 5912 5911 
5262 5263 5888 5887 5287 5288 5913 5912 
5263 5264 5889 5888 5288 5289 5914 5913 
5264 5265 5890 5889 5289 5290 5915 5914 
5265 5266 5891 5890 5290 5291 5916 5915 
5266 5267 5892 5891 5291 5292 5917 5916 
5267 5268 5893 5892 5292 5293 5918 5917 
5268 5269 5894 5893 5293 5294 5919 5918 
5269 5270 5895 5894 5294 5295 5920 5919 
5270 5271 5896 5895 5295 5296 5921 5920 
5271 5272 5897 5896 5296 5297 5922 5921 
5272 5273 5898 5897 5297 5298 5923 5922 
5273 5274 5899 5898 5298 5299 5924 5923 
5275 5276 5901 5900 5300 5301 5926 5925 
5276 5277 5902 5901 5301 5302 5927 5926 
5277 5278 5903 5902 5302 5303 5928 5927 
5278 5279 5904 5903 5303 5304 5929 5928 
5279 5280 5905 5904 5304 5305 5930 5929 
5280 5281 5906 5905 5305 5306 5931 5930 
5281 5282 5907 5906 5306 5307 5932 5931 
5282 5283 5908 5907 5307 5308 5933 5932 
5283 5284 5909 5908 5308 5309 5934 5933 
5284 5285 5910 5909 5309 5310 5935 5934 
5285 5286 5911 5910 5310 5311 5936 5935 
5286 5287 5912 5911 5311 5312 5937 5936 
5287 5288 5913 5912 5312 5313 5938 5937 
5288 5289 5914 5913 5313 5314 5939 5938 
5289 5290 5915 5914 5314 5315 5940 5939 
5290 5291 5916 5915 5315 5316 5941 5940 
5291 5292 5917 5916 5316 5317 5942 5941 
5292 5293 5918 5917 5317 5318 5943 5942 
5293 5294 5919 5918 5318 5319 5944 5943 
5294 5295 5920 5919 5319 5320 5945 5944 
5295 5296 5921 5920 5320 5321 5946 5945 
5296 5297 5922 5921 5321 5322 5947 5946 
5297 5298 5923 5922 5322 5323 5948 5947 
5298 5299 5924 5923 5323 5324 5949 5948 
5300 5301 5926 5925 5325 5326 5951 5950 
5301 5302 5927 5926 5326 5327 5952 5951 
5302 5303 5928 5927 5327 5328 5953 5952 
5303 5304 5929 5928 5328 5329 5954 5953 
5304 5305 5930 5929 5329 5330 5955 5954 
5305 5306 5931 5930 5330 5331 5956 5955 
5306 5307 5932 5931 5331 5332 5957 5956 
5307 5308 5933 5932 5332 5333 5958 5957 
5308 5309 5934 5933 5333 5334 5959 5958 
5309 5310 5935 5934 5334 5335 5960 5959 
5310 5311 5936 5935 5335 5336 5961 5960 
5311 5312 5937 5936 5336 5337 5962 5961 
5312 5313 5938 5937 5337 5338 5963 5962 
5313 5314 5939 5938 5338 5339 5964 5963 
5314 5315 5940 5939 5339 5340 5965 5964 
5315 5316 5941 5940 5340 5341 5966 5965 
5316 5317 5942 5941 5341 5342 5967 5966 
5317 5318 5943 5942 5342 5343 5968 5967 
5318 5319 5944 5943 5343 5344 5969 5968 
5319 5320 5945 5944 5344 5345 5970 5969 
5320 5321 5946 5945 5345 5346 5971 5970 
5321 5322 5947 5946 5346 5347 5972 5971 
5322 5323 5948 5947 5347 5348 5973 5972 
5323 5324 5949 5948 5348 5349 5974 5973 
5325 5326 5951 5950 5350 5351 5976 5975 
5326 5327 5952 5951 5351 5352 5977 5976 
5327 5328 5953 5952 5352 5353 5978 5977 
5328 5329 5954 5953 5353 5354 5979 5978 
5329 5330 5955 5954 5354 5355 5980 5979 
5330 5331 5956 5955 5355 5356 5981 5980 
5331 5332 5957 5956 5356 5357 5982 5981 
5332 5333 5958 5957 5357 5358 5983 5982 
5333 5334 5959 5958 5358 5359 5984 5983 
5334 5335 5960 5959 5359 5360 5985 5984 
5335 5336 5961 5960 5360 5361 5986 5985 
5336 5337 5962 5961 5361 5362 5987 5986 
5337 5338 5963 5962 5362 5363 5988 5987 
5338 5339 5964 5963 5363 5364 5989 5988 
5339 5340 5965 5964 5364 5365 5990 5989 
5340 5341 5966 5965 5365 5366 5991 5990 
5341 5342 5967 5966 5366 5367 5992 5991 
5342 5343 5968 5967 5367 5368 5993 5992 
5343 5344 5969 5968 5368 5369 5994 5993 
5344 5345 5970 5969 5369 5370 5995 5994 
5345 5346 5971 5970 5370 5371 5996 5995 
5346 5347 5972 5971 5371 5372 5997 5996 
5347 5348 5973 5972 5372 5373 5998 5997 
5348 5349 5974 5973 5373 5374 5999 5998 
5350 5351 5976 5975 5375 5376 6001 6000 
5351 5352 5977 5976 5376 5377 6002 6001 
5352 5353 5978 5977 5377 5378 6003 6002 
5353 5354 5979 5978 5378 5379 6004 6003 
5354 5355 5980 5979 5379 5380 6005 6004 
5355 5356 5981 5980 5380 5381 6006 6005 
5356 5357 5982 5981 5381 5382 6007 6006 
5357 5358 5983 5982 5382 5383 6008 6007 
5358 5359 5984 5983 5383 5384 6009 6008 
5359 5360 5985 5984 5384 5385 6010 6009 
5360 5361 5986 5985 5385 5386 6011 6010 
5361 5362 5987 5986 5386 5387 6012 6011 
5362 5363 5988 5987 5387 5388 6013 6012 
5363 5364 5989 5988 5388 5389 6014 6013 
5364 5365 5990 5989 5389 5390 6015 6014 
5365 5366 5991 5990 5390 5391 6016 6015 
5366 5367 5992 5991 5391 5392 6017 6016 
5367 5368 5993 5992 5392 5393 6018 6017 
5368 5369 5994 5993 5393 5394 6019 6018 
5369 5370 5995 5994 5394 5395 6020 6019 
5370 5371 5996 5995 5395 5396 6021 6020 
5371 5372 5997 5996 5396 5397 6022 6021 
5372 5373 5998 5997 5397 5398 6023 6022 
5373 5374 5999 5998 5398 5399 6024 6023 
5375 5376 6001 6000 5400 5401 6026 6025 
5376 5377 6002 6001 5401 5402 6027 6026 
5377 5378 6003 6002 5402 5403 6028 6027 
5378 5379 6004 6003 5403 5404 6029 6028 
5379 5380 6005 6004 5404 5405 6030 6029 
5380 5381 6006 6005 5405 5406 6031 6030 
5381 5382 6007 6006 5406 5407 6032 6031 
5382 5383 6008 6007 5407 5408 6033 6032 
5383 5384 6009 6008 5408 5409 6034 6033 
5384 5385 6010 6009 5409 5410 6035 6034 
5385 5386 6011 6010 5410 5411 6036 6035 
5386 5387 6012 6011 5411 5412 6037 6036 
5387 5388 6013 6012 5412 5413 6038 6037 
5388 5389 6014 6013 5413 5414 6039 6038 
5389 5390 6015 6014 5414 5415 6040 6039 
5390 5391 6016 6015 5415 5416 6041 6040 
5391 5392 6017 6016 5416 5417 6042 6041 
5392 5393 6018 6017 5417 5418 6043 6042 
5393 5394 6019 6018 5418 5419 6044 6043 
5394 5395 6020 6019 5419 5420 6045 6044 
5395 5396 6021 6020 5420 5421 6046 6045 
5396 5397 6022 6021 5421 5422 6047 6046 
5397 5398 6023 6022 5422 5423 6048 6047 
5398 5399 6024 6023 5423 5424 6049 6048 
5400 5401 6026 6025 5425 5426 6051 6050 
5401 5402 6027 6026 5426 5427 6052 6051 
5402 5403 6028 6027 5427 5428 6053 6052 
5403 5404 6029 6028 5428 5429 6054 6053 
5404 5405 6030 6029 5429 5430 6055 6054 
5405 5406 6031 6030 5430 5431 6056 6055 
5406 5407 6032 6031 5431 5432 6057 6056 
5407 5408 6033 6032 5432 5433 6058 6057 
5408 5409 6034 6033 5433 5434 6059 6058 
5409 5410 6035 6034 5434 5435 6060 6059 
5410 5411 6036 6035 5435 5436 6061 6060 
5411 5412 6037 6036 5436 5437 6062 6061 
5412 5413 6038 6037 5437 5438 6063 6062 
5413 5414 6039 6038 5438 5439 6064 6063 
5414 5415 6040 6039 5439 5440 6065 6064 
5415 5416 6041 6040 5440 5441 6066 6065 
5416 5417 6042 6041 5441 5442 6067 6066 
5417 5418 6043 6042 5442 5443 6068 6067 
5418 5419 6044 6043 5443 5444 6069 6068 
5419 5420 6045 6044 5444 5445 6070 6069 
5420 5421 6046 6045 5445 5446 6071 6070 
5421 5422 6047 6046 5446 5447 6072 6071 
5422 5423 6048 6047 5447 5448 6073 6072 
5423 5424 6049 6048 5448 5449 6074 6073 
5425 5426 6051 6050 5450 5451 6076 6075 
5426 5427 6052 6051 5451 5452 6077 6076 
5427 5428 6053 6052 5452 5453 6078 6077 
5428 5429 6054 6053 5453 5454 6079 6078 
5429 5430 6055 6054 5454 5455 6080 6079 
5430 5431 6056 6055 5455 5456 6081 6080 
5431 5432 6057 6056 5456 5457 6082 6081 
5432 5433 6058 6057 5457 5458 6083 6082 
5433 5434 6059 6058 5458 5459 6084 6083 
5434 5435 6060 6059 5459 5460 6085 6084 
5435 5436 6061 6060 5460 5461 6086 6085 
5436 5437 6062 6061 5461 5462 6087 6086 
5437 5438 6063 6062 5462 5463 6088 6087 
5438 5439 6064 6063 5463 5464 6089 6088 
5439 5440 6065 6064 5464 5465 6090 6089 
5440 5441 6066 6065 5465 5466 6091 6090 
5441 5442 6067 6066 5466 5467 6092 6091 
5442 5443 6068 6067 5467 5468 6093 6092 
5443 5444 6069 6068 5468 5469 6094 6093 
5444 5445 6070 6069 5469 5470 6095 6094 
5445 5446 6071 6070 5470 5471 6096 6095 
5446 5447 6072 6071 5471 5472 6097 6096 
5447 5448 6073 6072 5472 5473 6098 6097 
5448 5449 6074 6073 5473 5474 6099 6098 
5450 5451 6076 6075 5475 5476 6101 6100 
5451 5452 6077 6076 5476 5477 6102 6101 
5452 5453 6078 6077 5477 5478 6103 6102 
5453 5454 6079 6078 5478 5479 6104 6103 
5454 5455 6080 6079 5479 5480 6105 6104 
5455 5456 6081 6080 5480 5481 6106 6105 
5456 5457 6082 6081 5481 5482 6107 6106 
5457 5458 6083 6082 5482 5483 6108 6107 
5458 5459 6084 6083 5483 5484 6109 6108 
5459 5460 6085 6084 5484 5485 6110 6109 
5460 5461 6086 6085 5485 5486 6111 6110 
5461 5462 6087 6086 5486 5487 6112 6111 
5462 5463 6088 6087 5487 5488 6113 6112 
5463 5464 6089 6088 5488 5489 6114 6113 
5464 5465 6090 6089 5489 5490 6115 6114 
5465 5466 6091 6090 5490 5491 6116 6115 
5466 5467 6092 6091 5491 5492 6117 6116 
5467 5468 6093 6092 5492 5493 6118 6117 
5468 5469 6094 6093 5493 5494 6119 6118 
5469 5470 6095 6094 5494 5495 6120 6119 
5470 5471 6096 6095 5495 5496 6121 6120 
5471 5472 6097 6096 5496 5497 6122 6121 
5472 5473 6098 6097 5497 5498 6123 6122 
5473 5474 6099 6098 5498 5499 6124 6123 
5475 5476 6101 6100 5500 5501 6126 6125 
5476 5477 6102 6101 5501 5502 6127 6126 
5477 5478 6103 6102 5502 5503 6128 6127 
5478 5479 6104 6103 5503 5504 6129 6128 
5479 5480 6105 6104 5504 5505 6130 6129 
5480 5481 6106 6105 5505 5506 6131 6130 
5481 5482 6107 6106 5506 5507 6132 6131 
5482 5483 6108 6107 5507 5508 6133 6132 
5483 5484 6109 6108 5508 5509 6134 6133 
5484 5485 6110 6109 5509 5510 6135 6134 
5485 5486 6111 6110 5510 5511 6136 6135 
5486 5487 6112 6111 5511 5512 6137 6136 
5487 5488 6113 6112 5512 5513 6138 6137 
5488 5489 6114 6113 5513 5514 6139 6138 
5489 5490 6115 6114 5514 5515 6140 6139 
5490 5491 6116 6115 5515 5516 6141 6140 
5491 5492 6117 6116 5516 5517 6142 6141 
5492 5493 6118 6117 5517 5518 6143 6142 
5493 5494 6119 6118 5518 5519 6144 6143 
5494 5495 6120 6119 5519 5520 6145 6144 
5495 5496 6121 6120 5520 5521 6146 6145 
5496 5497 6122 6121 5521 5522 6147 6146 
5497 5498 6123 6122 5522 5523 6148 6147 
5498 5499 6124 6123 5523 5524 6149 6148 
5500 5501 6126 6125 5525 5526 6151 6150 
5501 5502 6127 6126 5526 5527 6152 6151 
5502 5503 6128 6127 5527 5528 6153 6152 
5503 5504 6129 6128 5528 5529 6154 6153 
5504 5505 6130 6129 5529 5530 6155 6154 
5505 5506 6131 6130 5530 5531 6156 6155 
5506 5507 6132 6131 5531 5532 6157 6156 
5507 5508 6133 6132 5532 5533 6158 6157 
5508 5509 6134 6133 5533 5534 6159 6158 
5509 5510 6135 6134 5534 5535 6160 6159 
5510 5511 6136 6135 5535 5536 6161 6160 
5511 5512 6137 6136 5536 5537 6162 6161 
5512 5513 6138 6137 5537 5538 6163 6162 
5513 5514 6139 6138 5538 5539 6164 6163 
5514 5515 6140 6139 5539 5540 6165 6164 
5515 5516 6141 6140 5540 5541 6166 6165 
5516 5517 6142 6141 5541 5542 6167 6166 
5517 5518 6143 6142 5542 5543 6168 6167 
5518 5519 6144 6143 5543 5544 6169 6168 
5519 5520 6145 6144 5544 5545 6170 6169 
5520 5521 6146 6145 5545 5546 6171 6170 
5521 5522 6147 6146 5546 5547 6172 6171 
5522 5523 6148 6147 5547 5548 6173 6172 
5523 5524 6149 6148 5548 5549 6174 6173 
5525 5526 6151 6150 5550 5551 6176 6175 
5526 5527 6152 6151 5551 5552 6177 6176 
5527 5528 6153 6152 5552 5553 6178 6177 
5528 5529 6154 6153 5553 5554 6179 6178 
5529 5530 6155 6154 5554 5555 6180 6179 
5530 5531 6156 6155 5555 5556 6181 6180 
5531 5532 6157 6156 5556 5557 6182 6181 
5532 5533 6158 6157 5557 5558 6183 6182 
5533 5534 6159 6158 5558 5559 6184 6183 
5534 5535 6160 6159 5559 5560 6185 6184 
5535 5536 6161 6160 5560 5561 6186 6185 
5536 5537 6162 6161 5561 5562 6187 6186 
5537 5538 6163 6162 5562 5563 6188 6187 
5538 5539 6164 6163 5563 5564 6189 6188 
5539 5540 6165 6164 5564 5565 6190 6189 
5540 5541 6166 6165 5565 5566 6191 6190 
5541 5542 6167 6166 5566 5567 6192 6191 
5542 5543 6168 6167 5567 5568 6193 6192 
5543 5544 6169 6168 5568 5569 6194 6193 
5544 5545 6170 6169 5569 5570 6195 6194 
5545 5546 6171 6170 5570 5571 6196 6195 
5546 5547 6172 6171 5571 5572 6197 6196 
5547 5548 6173 6172 5572 5573 6198 6197 
5548 5549 6174 6173 5573 5574 6199 6198 
5550 5551 6176 6175 5575 5576 6201 6200 
5551 5552 6177 6176 5576 5577 6202 6201 
5552 5553 6178 6177 5577 5578 6203 6202 
5553 5554 6179 6178 5578 5579 6204 6203 
5554 5555 6180 6179 5579 5580 6205 6204 
5555 5556 6181 6180 5580 5581 6206 6205 
5556 5557 6182 6181 5581 5582 6207 6206 
5557 5558 6183 6182 5582 5583 6208 6207 
5558 5559 6184 6183 5583 5584 6209 6208 
5559 5560 6185 6184 5584 5585 6210 6209 
5560 5561 6186 6185 5585 5586 6211 6210 
5561 5562 6187 6186 5586 5587 6212 6211 
5562 5563 6188 6187 5587 5588 6213 6212 
5563 5564 6189 6188 5588 5589 6214 6213 
5564 5565 6190 6189 5589 5590 6215 6214 
5565 5566 6191 6190 5590 5591 6216 6215 
5566 5567 6192 6191 5591 5592 6217 6216 
5567 5568 6193 6192 5592 5593 6218 6217 
5568 5569 6194 6193 5593 5594 6219 6218 
5569 5570 6195 6194 5594 5595 6220 6219 
5570 5571 6196 6195 5595 5596 6221 6220 
5571 5572 6197 6196 5596 5597 6222 6221 
5572 5573 6198 6197 5597 5598 6223 6222 
5573 5574 6199 6198 5598 5599 6224 6223 
5575 5576 6201 6200 5600 5601 6226 6225 
5576 5577 6202 6201 5601 5602 6227 6226 
5577 5578 6203 6202 5602 5603 6228 6227 
5578 5579 6204 6203 5603 5604 6229 6228 
5579 5580 6205 6204 5604 5605 6230 6229 
5580 5581 6206 6205 5605 5606 6231 6230 
5581 5582 6207 6206 5606 5607 6232 6231 
5582 5583 6208 6207 5607 5608 6233 6232 
5583 5584 6209 6208 5608 5609 6234 6233 
5584 5585 6210 6209 5609 5610 6235 6234 
5585 5586 6211 6210 5610 5611 6236 6235 
5586 5587 6212 6211 5611 5612 6237 6236 
5587 5588 6213 6212 5612 5613 6238 6237 
5588 5589 6214 6213 5613 5614 6239 6238 
5589 5590 6215 6214 5614 5615 6240 6239 
5590 5591 6216 6215 5615 5616 6241 6240 
5591 5592 6217 6216 5616 5617 6242 6241 
5592 5593 6218 6217 5617 5618 6243 6242 
5593 5594 6219 6218 5618 5619 6244 6243 
5594 5595 6220 6219 5619 5620 6245 6244 
5595 5596 6221 6220 5620 5621 6246 6245 
5596 5597 6222 6221 5621 5622 6247 6246 
5597 5598 6223 6222 5622 5623 6248 6247 
5598 5599 6224 6223 5623 5624 6249 6248 
5625 5626 6251 6250 5650 5651 6276 6275 
5626 5627 6252 6251 5651 5652 6277 6276 
5627 5628 6253 6252 5652 5653 6278 6277 
5628 5629 6254 6253 5653 5654 6279 6278 
5629 5630 6255 6254 5654 5655 6280 6279 
5630 5631 6256 6255 5655 5656 6281 6280 
5631 5632 6257 6256 5656 5657 6282 6281 
5632 5633 6258 6257 5657 5658 6283 6282 
5633 5634 6259 6258 5658 5659 6284 6283 
5634 5635 6260 6259 5659 5660 6285 6284 
5635 5636 6261 6260 5660 5661 6286 6285 
5636 5637 6262 6261 5661 5662 6287 6286 
5637 5638 6263 6262 5662 5663 6288 6287 
5638 5639 6264 6263 5663 5664 6289 6288 
5639 5640 6265 6264 5664 5665 6290 6289 
5640 5641 6266 6265 5665 5666 6291 6290 
5641 5642 6267 6266 5666 5667 6292 6291 
5642 5643 6268 6267 5667 5668 6293 6292 
5643 5644 6269 6268 5668 5669 6294 6293 
5644 5645 6270 6269 5669 5670 6295 6294 
5645 5646 6271 6270 5670 5671 6296 6295 
5646 5647 6272 6271 5671 5672 6297 6296 
5647 5648 6273 6272 5672 5673 6298 6297 
5648 5649 6274 6273 5673 5674 6299 6298 
5650 5651 6276 6275 5675 5676 6301 6300 
5651 5652 6277 6276 5676 5677 6302 6301 
5652 5653 6278 6277 5677 5678 6303 6302 
5653 5654 6279 6278 5678 5679 6304 6303 
5654 5655 6280 6279 5679 5680 6305 6304 
5655 5656 6281 6280 5680 5681 6306 6305 
5656 5657 6282 6281 5681 5682 6307 6306 
5657 5658 6283 6282 5682 5683 6308 6307 
5658 5659 6284 6283 5683 5684 6309 6308 
5659 5660 6285 6284 5684 5685 6310 6309 
5660 5661 6286 6285 5685 5686 6311 6310 
5661 5662 6287 6286 5686 5687 6312 6311 
5662 5663 6288 6287 5687 5688 6313 6312 
5663 5664 6289 6288 5688 5689 6314 6313 
5664 5665 6290 6289 5689 5690 6315 6314 
5665 5666 6291 6290 5690 5691 6316 6315 
5666 5667 6292 6291 5691 5692 6317 6316 
5667 5668 6293 6292 5692 5693 6318 6317 
5668 5669 6294 6293 5693 5694 6319 6318 
5669 5670 6295 6294 5694 5695 6320 6319 
5670 5671 6296 6295 5695 5696 6321 6320 
5671 5672 6297 6296 5696 5697 6322 6321 
5672 5673 6298 6297 5697 5698 6323 6322 
5673 5674 6299 6298 5698 5699 6324 6323 
5675 5676 6301 6300 5700 5701 6326 6325 
5676 5677 6302 6301 5701 5702 6327 6326 
5677 5678 6303 6302 5702 5703 6328 6327 
5678 5679 6304 6303 5703 5704 6329 6328 
5679 5680 6305 6304 5704 5705 6330 6329 
5680 5681 6306 6305 5705 5706 6331 6330 
5681 5682 6307 6306 5706 5707 6332 6331 
5682 5683 6308 6307 5707 5708 6333 6332 
5683 5684 6309 6308 5708 5709 6334 6333 
5684 5685 6310 6309 5709 5710 6335 6334 
5685 5686 6311 6310 5710 5711 6336 6335 
5686 5687 6312 6311 5711 5712 6337 6336 
5687 5688 6313 6312 5712 5713 6338 6337 
5688 5689 6314 6313 5713 5714 6339 6338 
5689 5690 6315 6314 5714 5715 6340 6339 
5690 5691 6316 6315 5715 5716 6341 6340 
5691 5692 6317 6316 5716 5717 6342 6341 
5692 5693 6318 6317 5717 5718 6343 6342 
5693 5694 6319 6318 5718 5719 6344 6343 
5694 5695 6320 6319 5719 5720 6345 6344 
5695 5696 6321 6320 5720 5721 6346 6345 
5696 5697 6322 6321 5721 5722 6347 6346 
5697 5698 6323 6322 5722 5723 6348 6347 
5698 5699 6324 6323 5723 5724 6349 6348 
5700 5701 6326 6325 5725 5726 6351 6350 
5701 5702 6327 6326 5726 5727 6352 6351 
5702 5703 6328 6327 5727 5728 6353 6352 
5703 5704 6329 6328 5728 5729 6354 6353 
5704 5705 6330 6329 5729 5730 6355 6354 
5705 5706 6331 6330 5730 5731 6356 6355 
5706 5707 6332 6331 5731 5732 6357 6356 
5707 5708 6333 6332 5732 5733 6358 6357 
5708 5709 6334 6333 5733 5734 6359 6358 
5709 5710 6335 6334 5734 5735 6360 6359 
5710 5711 6336 6335 5735 5736 6361 6360 
5711 5712 6337 6336 5736 5737 6362 6361 
5712 5713 6338 6337 5737 5738 6363 6362 
5713 5714 6339 6338 5738 5739 6364 6363 
5714 5715 6340 6339 5739 5740 6365 6364 
5715 5716 6341 6340 5740 5741 6366 6365 
5716 5717 6342 6341 5741 5742 6367 6366 
5717 5718 6343 6342 5742 5743 6368 6367 
5718 5719 6344 6343 5743 5744 6369 6368 
5719 5720 6345 6344 5744 5745 6370 6369 
5720 5721 6346 6345 5745 5746 6371 6370 
5721 5722 6347 6346 5746 5747 6372 6371 
5722 5723 6348 6347 5747 5748 6373 6372 
5723 5724 6349 6348 5748 5749 6374 6373 
5725 5726 6351 6350 5750 5751 6376 6375 
5726 5727 6352 6351 5751 5752 6377 6376 
5727 5728 6353 6352 5752 5753 6378 6377 
5728 5729 6354 6353 5753 5754 6379 6378 
5729 5730 6355 6354 5754 5755 6380 6379 
5730 5731 6356 6355 5755 5756 6381 6380 
5731 5732 6357 6356 5756 5757 6382 6381 
5732 5733 6358 6357 5757 5758 6383 6382 
5733 5734 6359 6358 5758 5759 6384 6383 
5734 5735 6360 6359 5759 5760 6385 6384 
5735 5736 6361 6360 5760 5761 6386 6385 
5736 5737 6362 6361 5761 5762 6387 6386 
5737 5738 6363 6362 5762 5763 6388 6387 
5738 5739 6364 6363 5763 5764 6389 6388 
5739 5740 6365 6364 5764 5765 6390 6389 
5740 5741 6366 6365 5765 5766 6391 6390 
5741 5742 6367 6366 5766 5767 6392 6391 
5742 5743 6368 6367 5767 5768 6393 6392 
5743 5744 6369 6368 5768 5769 6394 6393 
5744 5745 6370 6369 5769 5770 6395 6394 
5745 5746 6371 6370 5770 5771 6396 6395 
5746 5747 6372 6371 5771 5772 6397 6396 
5747 5748 6373 6372 5772 5773 6398 6397 
5748 5749 6374 6373 5773 5774 6399 6398 
5750 5751 6376 6375 5775 5776 6401 6400 
5751 5752 6377 6376 5776 5777 6402 6401 
5752 5753 6378 6377 5777 5778 6403 6402 
5753 5754 6379 6378 5778 5779 6404 6403 
5754 5755 6380 6379 5779 5780 6405 6404 
5755 5756 6381 6380 5780 5781 6406 6405 
5756 5757 6382 6381 5781 5782 6407 6406 
5757 5758 6383 6382 5782 5783 6408 6407 
5758 5759 6384 6383 5783 5784 6409 6408 
5759 5760 6385 6384 5784 5785 6410 6409 
5760 5761 6386 6385 5785 5786 6411 6410 
5761 5762 6387 6386 5786 5787 6412 6411 
5762 5763 6388 6387 5787 5788 6413 6412 
5763 5764 6389 6388 5788 5789 6414 6413 
5764 5765 6390 6389 5789 5790 6415 6414 
5765 5766 6391 6390 5790 5791 6416 6415 
5766 5767 6392 6391 5791 5792 6417 6416 
5767 5768 6393 6392 5792 5793 6418 6417 
5768 5769 6394 6393 5793 5794 6419 6418 
5769 5770 6395 6394 5794 5795 6420 6419 
5770 5771 6396 6395 5795 5796 6421 6420 
5771 5772 6397 6396 5796 5797 6422 6421 
5772 5773 6398 6397 5797 5798 6423 6422 
5773 5774 6399 6398 5798 5799 6424 6423 
5775 5776 6401 6400 5800 5801 6426 6425 
5776 5777 6402 6401 5801 5802 6427 6426 
5777 5778 6403 6402 5802 5803 6428 6427 
5778 5779 6404 6403 5803 5804 6429 6428 
5779 5780 6405 6404 5804 5805 6430 6429 
5780 5781 6406 6405 5805 5806 6431 6430 
5781 5782 6407 6406 5806 5807 6432 6431 
5782 5783 6408 6407 5807 5808 6433 6432 
5783 5784 6409 6408 5808 5809 6434 6433 
5784 5785 6410 6409 5809 5810 6435 6434 
5785 5786 6411 6410 5810 5811 6436 6435 
5786 5787 6412 6411 5811 5812 6437 6436 
5787 5788 6413 6412 5812 5813 6438 6437 
5788 5789 6414 6413 5813 5814 6439 6438 
5789 5790 6415 6414 5814 5815 6440 6439 
5790 5791 6416 6415 5815 5816 6441 6440 
5791 5792 6417 6416 5816 5817 6442 6441 
5792 5793 6418 6417 5817 5818 6443 6442 
5793 5794 6419 6418 5818 5819 6444 6443 
5794 5795 6420 6419 5819 5820 6445 6444 
5795 5796 6421 6420 5820 5821 6446 6445 
5796 5797 6422 6421 5821 5822 6447 6446 
5797 5798 6423 6422 5822 5823 6448 6447 
5798 5799 6424 6423 5823 5824 6449 6448 
5800 5801 6426 6425 5825 5826 6451 6450 
5801 5802 6427 6426 5826 5827 6452 6451 
5802 5803 6428 6427 5827 5828 6453 6452 
5803 5804 6429 6428 5828 5829 6454 6453 
5804 5805 6430 6429 5829 5830 6455 6454 
5805 5806 6431 6430 5830 5831 6456 6455 
5806 5807 6432 6431 5831 5832 6457 6456 
5807 5808 6433 6432 5832 5833 6458 6457 
5808 5809 6434 6433 5833 5834 6459 6458 
5809 5810 6435 6434 5834 5835 6460 6459 
5810 5811 6436 6435 5835 5836 6461 6460 
5811 5812 6437 6436 5836 5837 6462 6461 
5812 5813 6438 6437 5837 5838 6463 6462 
5813 5814 6439 6438 5838 5839 6464 6463 
5814 5815 6440 6439 5839 5840 6465 6464 
5815 5816 6441 6440 5840 5841 6466 6465 
5816 5817 6442 6441 5841 5842 6467 6466 
5817 5818 6443 6442 5842 5843 6468 6467 
5818 5819 6444 6443 5843 5844 6469 6468 
5819 5820 6445 6444 5844 5845 6470 6469 
5820 5821 6446 6445 5845 5846 6471 6470 
5821 5822 6447 6446 5846 5847 6472 6471 
5822 5823 6448 6447 5847 5848 6473 6472 
5823 5824 6449 6448 5848 5849 6474 6473 
5825 5826 6451 6450 5850 5851 6476 6475 
5826 5827 6452 6451 5851 5852 6477 6476 
5827 5828 6453 6452 5852 5853 6478 6477 
5828 5829 6454 6453 5853 5854 6479 6478 
5829 5830 6455 6454 5854 5855 6480 6479 
5830 5831 6456 6455 5855 5856 6481 6480 
5831 5832 6457 6456 5856 5857 6482 6481 
5832 5833 6458 6457 5857 5858 6483 6482 
5833 5834 6459 6458 5858 5859 6484 6483 
5834 5835 6460 6459 5859 5860 6485 6484 
5835 5836 6461 6460 5860 5861 6486 6485 
5836 5837 6462 6461 5861 5862 6487 6486 
5837 5838 6463 6462 5862 5863 6488 6487 
5838 5839 6464 6463 5863 5864 6489 6488 
5839 5840 6465 6464 5864 5865 6490 6489 
5840 5841 6466 6465 5865 5866 6491 6490 
5841 5842 6467 6466 5866 5867 6492 6491 
5842 5843 6468 6467 5867 5868 6493 6492 
5843 5844 6469 6468 5868 5869 6494 6493 
5844 5845 6470 6469 5869 5870 6495 6494 
5845 5846 6471 6470 5870 5871 6496 6495 
5846 5847 6472 6471 5871 5872 6497 6496 
5847 5848 6473 6472 5872 5873 6498 6497 
5848 5849 6474 6473 5873 5874 6499 6498 
5850 5851 6476 6475 5875 5876 6501 6500 
5851 5852 6477 6476 5876 5877 6502 6501 
5852 5853 6478 6477 5877 5878 6503 6502 
5853 5854 6479 6478 5878 5879 6504 6503 
5854 5855 6480 6479 5879 5880 6505 6504 
5855 5856 6481 6480 5880 5881 6506 6505 
5856 5857 6482 6481 5881 5882 6507 6506 
5857 5858 6483 6482 5882 5883 6508 6507 
5858 5859 6484 6483 5883 5884 6509 6508 
5859 5860 6485 6484 5884 5885 6510 6509 
5860 5861 6486 6485 5885 5886 6511 6510 
5861 5862 6487 6486 5886 5887 6512 6511 
5862 5863 6488 6487 5887 5888 6513 6512 
5863 5864 6489 6488 5888 5889 6514 6513 
5864 5865 6490 6489 5889 5890 6515 6514 
5865 5866 6491 6490 5890 5891 6516 6515 
5866 5867 6492 6491 5891 5892 6517 6516 
5867 5868 6493 6492 5892 5893 6518 6517 
5868 5869 6494 6493 5893 5894 6519 6518 
5869 5870 6495 6494 5894 5895 6520 6519 
5870 5871 6496 6495 5895 5896 6521 6520 
5871 5872 6497 6496 5896 5897 6522 6521 
5872 5873 6498 6497 5897 5898 6523 6522 
5873 5874 6499 6498 5898 5899 6524 6523 
5875 5876 6501 6500 5900 5901 6526 6525 
5876 5877 6502 6501 5901 5902 6527 6526 
5877 5878 6503 6502 5902 5903 6528 6527 
5878 5879 6504 6503 5903 5904 6529 6528 
5879 5880 6505 6504 5904 5905 6530 6529 
5880 5881 6506 6505 5905 5906 6531 6530 
5881 5882 6507 6506 5906 5907 6532 6531 
5882 5883 6508 6507 5907 5908 6533 6532 
5883 5884 6509 6508 5908 5909 6534 6533 
5884 5885 6510 6509 5909 5910 6535 6534 
5885 5886 6511 6510 5910 5911 6536 6535 
5886 5887 6512 6511 5911 5912 6537 6536 
5887 5888 6513 6512 5912 5913 6538 6537 
5888 5889 6514 6513 5913 5914 6539 6538 
5889 5890 6515 6514 5914 5915 6540 6539 
5890 5891 6516 6515 5915 5916 6541 6540 
5891 5892 6517 6516 5916 5917 6542 6541 
5892 5893 6518 6517 5917 5918 6543 6542 
5893 5894 6519 6518 5918 5919 6544 6543 
5894 5895 6520 6519 5919 5920 6545 6544 
5895 5896 6521 6520 5920 5921 6546 6545 
5896 5897 6522 6521 5921 5922 6547 6546 
5897 5898 6523 6522 5922 5923 6548 6547 
5898 5899 6524 6523 5923 5924 6549 6548 
5900 5901 6526 6525 5925 5926 6551 6550 
5901 5902 6527 6526 5926 5927 6552 6551 
5902 5903 6528 6527 5927 5928 6553 6552 
5903 5904 6529 6528 5928 5929 6554 6553 
5904 5905 6530 6529 5929 5930 6555 6554 
5905 5906 6531 6530 5930 5931 6556 6555 
5906 5907 6532 6531 5931 5932 6557 6556 
5907 5908 6533 6532 5932 5933 6558 6557 
5908 5909 6534 6533 5933 5934 6559 6558 
5909 5910 6535 6534 5934 5935 6560 6559 
5910 5911 6536 6535 5935 5936 6561 6560 
5911 5912 6537 6536 5936 5937 6562 6561 
5912 5913 6538 6537 5937 5938 6563 6562 
5913 5914 6539 6538 5938 5939 6564 6563 
5914 5915 6540 6539 5939 5940 6565 6564 
5915 5916 6541 6540 5940 5941 6566 6565 
5916 5917 6542 6541 5941 5942 6567 6566 
5917 5918 6543 6542 5942 5943 6568 6567 
5918 5919 6544 6543 5943 5944 6569 6568 
5919 5920 6545 6544 5944 5945 6570 6569 
5920 5921 6546 6545 5945 5946 6571 6570 
5921 5922 6547 6546 5946 5947 6572 6571 
5922 5923 6548 6547 5947 5948 6573 6572 
5923 5924 6549 6548 5948 5949 6574 6573 
5925 5926 6551 6550 5950 5951 6576 6575 
5926 5927 6552 6551 5951 5952 6577 6576 
5927 5928 6553 6552 5952 5953 6578 6577 
5928 5929 6554 6553 5953 5954 6579 6578 
5929 5930 6555 6554 5954 5955 6580 6579 
5930 5931 6556 6555 5955 5956 6581 6580 
5931 5932 6557 6556 5956 5957 6582 6581 
5932 5933 6558 6557 5957 5958 6583 6582 
5933 5934 6559 6558 5958 5959 6584 6583 
5934 5935 6560 6559 5959 5960 6585 6584 
5935 5936 6561 6560 5960 5961 6586 6585 
5936 5937 6562 6561 5961 5962 6587 6586 
5937 5938 6563 6562 5962 5963 6588 6587 
5938 5939 6564 6563 5963 5964 6589 6588 
5939 5940 6565 6564 5964 5965 6590 6589 
5940 5941 6566 6565 5965 5966 6591 6590 
5941 5942 6567 6566 5966 5967 6592 6591 
5942 5943 6568 6567 5967 5968 6593 6592 
5943 5944 6569 6568 5968 5969 6594 6593 
5944 5945 6570 6569 5969 5970 6595 6594 
5945 5946 6571 6570 5970 5971 6596 6595 
5946 5947 6572 6571 5971 5972 6597 6596 
5947 5948 6573 6572 5972 5973 6598 6597 
5948 5949 6574 6573 5973 5974 6599 6598 
5950 5951 6576 6575 5975 5976 6601 6600 
5951 5952 6577 6576 5976 5977 6602 6601 
5952 5953 6578 6577 5977 5978 6603 6602 
5953 5954 6579 6578 5978 5979 6604 6603 
5954 5955 6580 6579 5979 5980 6605 6604 
5955 5956 6581 6580 5980 5981 6606 6605 
5956 5957 6582 6581 5981 5982 6607 6606 
5957 5958 6583 6582 5982 5983 6608 6607 
5958 5959 6584 6583 5983 5984 6609 6608 
5959 5960 6585 6584 5984 5985 6610 6609 
5960 5961 6586 6585 5985 5986 6611 6610 
5961 5962 6587 6586 5986 5987 6612 6611 
5962 5963 6588 6587 5987 5988 6613 6612 
5963 5964 6589 6588 5988 5989 6614 6613 
5964 5965 6590 6589 5989 5990 6615 6614 
5965 5966 6591 6590 5990 5991 6616 6615 
5966 5967 6592 6591 5991 5992 6617 6616 
5967 5968 6593 6592 5992 5993 6618 6617 
5968 5969 6594 6593 5993 5994 6619 6618 
5969 5970 6595 6594 5994 5995 6620 6619 
5970 5971 6596 6595 5995 5996 6621 6620 
5971 5972 6597 6596 5996 5997 6622 6621 
5972 5973 6598 6597 5997 5998 6623 6622 
5973 5974 6599 6598 5998 5999 6624 6623 
5975 5976 6601 6600 6000 6001 6626 6625 
5976 5977 6602 6601 6001 6002 6627 6626 
5977 5978 6603 6602 6002 6003 6628 6627 
5978 5979 6604 6603 6003 6004 6629 6628 
5979 5980 6605 6604 6004 6005 6630 6629 
5980 5981 6606 6605 6005 6006 6631 6630 
5981 5982 6607 6606 6006 6007 6632 6631 
5982 5983 6608 6607 6007 6008 6633 6632 
5983 5984 6609 6608 6008 6009 6634 6633 
5984 5985 6610 6609 6009 6010 6635 6634 
5985 5986 6611 6610 6010 6011 6636 6635 
5986 5987 6612 6611 6011 6012 6637 6636 
5987 5988 6613 6612 6012 6013 6638 6637 
5988 5989 6614 6613 6013 6014 6639 6638 
5989 5990 6615 6614 6014 6015 6640 6639 
5990 5991 6616 6615 6015 6016 6641 6640 
5991 5992 6617 6616 6016 6017 6642 6641 
5992 5993 6618 6617 6017 6018 6643 6642 
5993 5994 6619 6618 6018 6019 6644 6643 
5994 5995 6620 6619 6019 6020 6645 6644 
5995 5996 6621 6620 6020 6021 6646 6645 
5996 5997 6622 6621 6021 6022 6647 6646 
5997 5998 6623 6622 6022 6023 6648 6647 
5998 5999 6624 6623 6023 6024 6649 6648 
6000 6001 6626 6625 6025 6026 6651 6650 
6001 6002 6627 6626 6026 6027 6652 6651 
6002 6003 6628 6627 6027 6028 6653 6652 
6003 6004 6629 6628 6028 6029 6654 6653 
6004 6005 6630 6629 6029 6030 6655 6654 
6005 6006 6631 6630 6030 6031 6656 6655 
6006 6007 6632 6631 6031 6032 6657 6656 
6007 6008 6633 6632 6032 6033 6658 6657 
6008 6009 6634 6633 6033 6034 6659 6658 
6009 6010 6635 6634 6034 6035 6660 6659 
6010 6011 6636 6635 6035 6036 6661 6660 
6011 6012 6637 6636 6036 6037 6662 6661 
6012 6013 6638 6637 6037 6038 6663 6662 
6013 6014 6639 6638 6038 6039 6664 6663 
6014 6015 6640 6639 6039 6040 6665 6664 
6015 6016 6641 6640 6040 6041 6666 6665 
6016 6017 6642 6641 6041 6042 6667 6666 
6017 6018 6643 6642 6042 6043 6668 6667 
6018 6019 6644 6643 6043 6044 6669 6668 
6019 6020 6645 6644 6044 6045 6670 6669 
6020 6021 6646 6645 6045 6046 6671 6670 
6021 6022 6647 6646 6046 6047 6672 6671 
6022 6023 6648 6647 6047 6048 6673 6672 
6023 6024 6649 6648 6048 6049 6674 6673 
6025 6026 6651 6650 6050 6051 6676 6675 
6026 6027 6652 6651 6051 6052 6677 6676 
6027 6028 6653 6652 6052 6053 6678 6677 
6028 6029 6654 6653 6053 6054 6679 6678 
6029 6030 6655 6654 6054 6055 6680 6679 
6030 6031 6656 6655 6055 6056 6681 6680 
6031 6032 6657 6656 6056 6057 6682 6681 
6032 6033 6658 6657 6057 6058 6683 6682 
6033 6034 6659 6658 6058 6059 6684 6683 
6034 6035 6660 6659 6059 6060 6685 6684 
6035 6036 6661 6660 6060 6061 6686 6685 
6036 6037 6662 6661 6061 6062 6687 6686 
6037 6038 6663 6662 6062 6063 6688 6687 
6038 6039 6664 6663 6063 6064 6689 6688 
6039 6040 6665 6664 6064 6065 6690 6689 
6040 6041 6666 6665 6065 6066 6691 6690 
6041 6042 6667 6666 6066 6067 6692 6691 
6042 6043 6668 6667 6067 6068 6693 6692 
6043 6044 6669 6668 6068 6069 6694 6693 
6044 6045 6670 6669 6069 6070 6695 6694 
6045 6046 6671 6670 6070 6071 6696 6695 
6046 6047 6672 6671 6071 6072 6697 6696 
6047 6048 6673 6672 6072 6073 6698 6697 
6048 6049 6674 6673 6073 6074 6699 6698 
6050 6051 6676 6675 6075 6076 6701 6700 
6051 6052 6677 6676 6076 6077 6702 6701 
6052 6053 6678 6677 6077 6078 6703 6702 
6053 6054 6679 6678 6078 6079 6704 6703 
6054 6055 6680 6679 6079 6080 6705 6704 
6055 6056 6681 6680 6080 6081 6706 6705 
6056 6057 6682 6681 6081 6082 6707 6706 
6057 6058 6683 6682 6082 6083 6708 6707 
6058 6059 6684 6683 6083 6084 6709 6708 
6059 6060 6685 6684 6084 6085 6710 6709 
6060 6061 6686 6685 6085 6086 6711 6710 
6061 6062 6687 6686 6086 6087 6712 6711 
6062 6063 6688 6687 6087 6088 6713 6712 
6063 6064 6689 6688 6088 6089 6714 6713 
6064 6065 6690 6689 6089 6090 6715 6714 
6065 6066 6691 6690 6090 6091 6716 6715 
6066 6067 6692 6691 6091 6092 6717 6716 
6067 6068 6693 6692 6092 6093 6718 6717 
6068 6069 6694 6693 6093 6094 6719 6718 
6069 6070 6695 6694 6094 6095 6720 6719 
6070 6071 6696 6695 6095 6096 6721 6720 
6071 6072 6697 6696 6096 6097 6722 6721 
6072 6073 6698 6697 6097 6098 6723 6722 
6073 6074 6699 6698 6098 6099 6724 6723 
6075 6076 6701 6700 6100 6101 6726 6725 
6076 6077 6702 6701 6101 6102 6727 6726 
6077 6078 6703 6702 6102 6103 6728 6727 
6078 6079 6704 6703 6103 6104 6729 6728 
6079 6080 6705 6704 6104 6105 6730 6729 
6080 6081 6706 6705 6105 6106 6731 6730 
6081 6082 6707 6706 6106 6107 6732 6731 
6082 6083 6708 6707 6107 6108 6733 6732 
6083 6084 6709 6708 6108 6109 6734 6733 
6084 6085 6710 6709 6109 6110 6735 6734 
6085 6086 6711 6710 6110 6111 6736 6735 
6086 6087 6712 6711 6111 6112 6737 6736 
6087 6088 6713 6712 6112 6113 6738 6737 
6088 6089 6714 6713 6113 6114 6739 6738 
6089 6090 6715 6714 6114 6115 6740 6739 
6090 6091 6716 6715 6115 6116 6741 6740 
6091 6092 6717 6716 6116 6117 6742 6741 
6092 6093 6718 6717 6117 6118 6743 6742 
6093 6094 6719 6718 6118 6119 6744 6743 
6094 6095 6720 6719 6119 6120 6745 6744 
6095 6096 6721 6720 6120 6121 6746 6745 
6096 6097 6722 6721 6121 6122 6747 6746 
6097 6098 6723 6722 6122 6123 6748 6747 
6098 6099 6724 6723 6123 6124 6749 6748 
6100 6101 6726 6725 6125 6126 6751 6750 
6101 6102 6727 6726 6126 6127 6752 6751 
6102 6103 6728 6727 6127 6128 6753 6752 
6103 6104 6729 6728 6128 6129 6754 6753 
6104 6105 6730 6729 6129 6130 6755 6754 
6105 6106 6731 6730 6130 6131 6756 6755 
6106 6107 6732 6731 6131 6132 6757 6756 
6107 6108 6733 6732 6132 6133 6758 6757 
6108 6109 6734 6733 6133 6134 6759 6758 
6109 6110 6735 6734 6134 6135 6760 6759 
6110 6111 6736 6735 6135 6136 6761 6760 
6111 6112 6737 6736 6136 6137 6762 6761 
6112 6113 6738 6737 6137 6138 6763 6762 
6113 6114 6739 6738 6138 6139 6764 6763 
6114 6115 6740 6739 6139 6140 6765 6764 
6115 6116 6741 6740 6140 6141 6766 6765 
6116 6117 6742 6741 6141 6142 6767 6766 
6117 6118 6743 6742 6142 6143 6768 6767 
6118 6119 6744 6743 6143 6144 6769 6768 
6119 6120 6745 6744 6144 6145 6770 6769 
6120 6121 6746 6745 6145 6146 6771 6770 
6121 6122 6747 6746 6146 6147 6772 6771 
6122 6123 6748 6747 6147 6148 6773 6772 
6123 6124 6749 6748 6148 6149 6774 6773 
6125 6126 6751 6750 6150 6151 6776 6775 
6126 6127 6752 6751 6151 6152 6777 6776 
6127 6128 6753 6752 6152 6153 6778 6777 
6128 6129 6754 6753 6153 6154 6779 6778 
6129 6130 6755 6754 6154 6155 6780 6779 
6130 6131 6756 6755 6155 6156 6781 6780 
6131 6132 6757 6756 6156 6157 6782 6781 
6132 6133 6758 6757 6157 6158 6783 6782 
6133 6134 6759 6758 6158 6159 6784 6783 
6134 6135 6760 6759 6159 6160 6785 6784 
6135 6136 6761 6760 6160 6161 6786 6785 
6136 6137 6762 6761 6161 6162 6787 6786 
6137 6138 6763 6762 6162 6163 6788 6787 
6138 6139 6764 6763 6163 6164 6789 6788 
6139 6140 6765 6764 6164 6165 6790 6789 
6140 6141 6766 6765 6165 6166 6791 6790 
6141 6142 6767 6766 6166 6167 6792 6791 
6142 6143 6768 6767 6167 6168 6793 6792 
6143 6144 6769 6768 6168 6169 6794 6793 
6144 6145 6770 6769 6169 6170 6795 6794 
6145 6146 6771 6770 6170 6171 6796 6795 
6146 6147 6772 6771 6171 6172 6797 6796 
6147 6148 6773 6772 6172 6173 6798 6797 
6148 6149 6774 6773 6173 6174 6799 6798 
6150 6151 6776 6775 6175 6176 6801 6800 
6151 6152 6777 6776 6176 6177 6802 6801 
6152 6153 6778 6777 6177 6178 6803 6802 
6153 6154 6779 6778 6178 6179 6804 6803 
6154 6155 6780 6779 6179 6180 6805 6804 
6155 6156 6781 6780 6180 6181 6806 6805 
6156 6157 6782 6781 6181 6182 6807 6806 
6157 6158 6783 6782 6182 6183 6808 6807 
6158 6159 6784 6783 6183 6184 6809 6808 
6159 6160 6785 6784 6184 6185 6810 6809 
6160 6161 6786 6785 6185 6186 6811 6810 
6161 6162 6787 6786 6186 6187 6812 6811 
6162 6163 6788 6787 6187 6188 6813 6812 
6163 6164 6789 6788 6188 6189 6814 6813 
6164 6165 6790 6789 6189 6190 6815 6814 
6165 6166 6791 6790 6190 6191 6816 6815 
6166 6167 6792 6791 6191 6192 6817 6816 
6167 6168 6793 6792 6192 6193 6818 6817 
6168 6169 6794 6793 6193 6194 6819 6818 
6169 6170 6795 6794 6194 6195 6820 6819 
6170 6171 6796 6795 6195 6196 6821 6820 
6171 6172 6797 6796 6196 6197 6822 6821 
6172 6173 6798 6797 6197 6198 6823 6822 
6173 6174 6799 6798 6198 6199 6824 6823 
6175 6176 6801 6800 6200 6201 6826 6825 
6176 6177 6802 6801 6201 6202 6827 6826 
6177 6178 6803 6802 6202 6203 6828 6827 
6178 6179 6804 6803 6203 6204 6829 6828 
6179 6180 6805 6804 6204 6205 6830 6829 
6180 6181 6806 6805 6205 6206 6831 6830 
6181 6182 6807 6806 6206 6207 6832 6831 
6182 6183 6808 6807 6207 6208 6833 6832 
6183 6184 6809 6808 6208 6209 6834 6833 
6184 6185 6810 6809 6209 6210 6835 6834 
6185 6186 6811 6810 6210 6211 6836 6835 
6186 6187 6812 6811 6211 6212 6837 6836 
6187 6188 6813 6812 6212 6213 6838 6837 
6188 6189 6814 6813 6213 6214 6839 6838 
6189 6190 6815 6814 6214 6215 6840 6839 
6190 6191 6816 6815 6215 6216 6841 6840 
6191 6192 6817 6816 6216 6217 6842 6841 
6192 6193 6818 6817 6217 6218 6843 6842 
6193 6194 6819 6818 6218 6219 6844 6843 
6194 6195 6820 6819 6219 6220 6845 6844 
6195 6196 6821 6820 6220 6221 6846 6845 
6196 6197 6822 6821 6221 6222 6847 6846 
6197 6198 6823 6822 6222 6223 6848 6847 
6198 6199 6824 6823 6223 6224 6849 6848 
6200 6201 6826 6825 6225 6226 6851 6850 
6201 6202 6827 6826 6226 6227 6852 6851 
6202 6203 6828 6827 6227 6228 6853 6852 
6203 6204 6829 6828 6228 6229 6854 6853 
6204 6205 6830 6829 6229 6230 6855 6854 
6205 6206 6831 6830 6230 6231 6856 6855 
6206 6207 6832 6831 6231 6232 6857 6856 
6207 6208 6833 6832 6232 6233 6858 6857 
6208 6209 6834 6833 6233 6234 6859 6858 
6209 6210 6835 6834 6234 6235 6860 6859 
6210 6211 6836 6835 6235 6236 6861 6860 
6211 6212 6837 6836 6236 6237 6862 6861 
6212 6213 6838 6837 6237 6238 6863 6862 
6213 6214 6839 6838 6238 6239 6864 6863 
6214 6215 6840 6839 6239 6240 6865 6864 
6215 6216 6841 6840 6240 6241 6866 6865 
6216 6217 6842 6841 6241 6242 6867 6866 
6217 6218 6843 6842 6242 6243 6868 6867 
6218 6219 6844 6843 6243 6244 6869 6868 
6219 6220 6845 6844 6244 6245 6870 6869 
6220 6221 6846 6845 6245 6246 6871 6870 
6221 6222 6847 6846 6246 6247 6872 6871 
6222 6223 6848 6847 6247 6248 6873 6872 
6223 6224 6849 6848 6248 6249 6874 6873 
6250 6251 6876 6875 6275 6276 6901 6900 
6251 6252 6877 6876 6276 6277 6902 6901 
6252 6253 6878 6877 6277 6278 6903 6902 
6253 6254 6879 6878 6278 6279 6904 6903 
6254 6255 6880 6879 6279 6280 6905 6904 
6255 6256 6881 6880 6280 6281 6906 6905 
6256 6257 6882 6881 6281 6282 6907 6906 
6257 6258 6883 6882 6282 6283 6908 6907 
6258 6259 6884 6883 6283 6284 6909 6908 
6259 6260 6885 6884 6284 6285 6910 6909 
6260 6261 6886 6885 6285 6286 6911 6910 
6261 6262 6887 6886 6286 6287 6912 6911 
6262 6263 6888 6887 6287 6288 6913 6912 
6263 6264 6889 6888 6288 6289 6914 6913 
6264 6265 6890 6889 6289 6290 6915 6914 
6265 6266 6891 6890 6290 6291 6916 6915 
6266 6267 6892 6891 6291 6292 6917 6916 
6267 6268 6893 6892 6292 6293 6918 6917 
6268 6269 6894 6893 6293 6294 6919 6918 
6269 6270 6895 6894 6294 6295 6920 6919 
6270 6271 6896 6895 6295 6296 6921 6920 
6271 6272 6897 6896 6296 6297 6922 6921 
6272 6273 6898 6897 6297 6298 6923 6922 
6273 6274 6899 6898 6298 6299 6924 6923 
6275 6276 6901 6900 6300 6301 6926 6925 
6276 6277 6902 6901 6301 6302 6927 6926 
6277 6278 6903 6902 6302 6303 6928 6927 
6278 6279 6904 6903 6303 6304 6929 6928 
6279 6280 6905 6904 6304 6305 6930 6929 
6280 6281 6906 6905 6305 6306 6931 6930 
6281 6282 6907 6906 6306 6307 6932 6931 
6282 6283 6908 6907 6307 6308 6933 6932 
6283 6284 6909 6908 6308 6309 6934 6933 
6284 6285 6910 6909 6309 6310 6935 6934 
6285 6286 6911 6910 6310 6311 6936 6935 
6286 6287 6912 6911 6311 6312 6937 6936 
6287 6288 6913 6912 6312 6313 6938 6937 
6288 6289 6914 6913 6313 6314 6939 6938 
6289 6290 6915 6914 6314 6315 6940 6939 
6290 6291 6916 6915 6315 6316 6941 6940 
6291 6292 6917 6916 6316 6317 6942 6941 
6292 6293 6918 6917 6317 6318 6943 6942 
6293 6294 6919 6918 6318 6319 6944 6943 
6294 6295 6920 6919 6319 6320 6945 6944 
6295 6296 6921 6920 6320 6321 6946 6945 
6296 6297 6922 6921 6321 6322 6947 6946 
6297 6298 6923 6922 6322 6323 6948 6947 
6298 6299 6924 6923 6323 6324 6949 6948 
6300 6301 6926 6925 6325 6326 6951 6950 
6301 6302 6927 6926 6326 6327 6952 6951 
6302 6303 6928 6927 6327 6328 6953 6952 
6303 6304 6929 6928 6328 6329 6954 6953 
6304 6305 6930 6929 6329 6330 6955 6954 
6305 6306 6931 6930 6330 6331 6956 6955 
6306 6307 6932 6931 6331 6332 6957 6956 
6307 6308 6933 6932 6332 6333 6958 6957 
6308 6309 6934 6933 6333 6334 6959 6958 
6309 6310 6935 6934 6334 6335 6960 6959 
6310 6311 6936 6935 6335 6336 6961 6960 
6311 6312 6937 6936 6336 6337 6962 6961 
6312 6313 6938 6937 6337 6338 6963 6962 
6313 6314 6939 6938 6338 6339 6964 6963 
6314 6315 6940 6939 6339 6340 6965 6964 
6315 6316 6941 6940 6340 6341 6966 6965 
6316 6317 6942 6941 6341 6342 6967 6966 
6317 6318 6943 6942 6342 6343 6968 6967 
6318 6319 6944 6943 6343 6344 6969 6968 
6319 6320 6945 6944 6344 6345 6970 6969 
6320 6321 6946 6945 6345 6346 6971 6970 
6321 6322 6947 6946 6346 6347 6972 6971 
6322 6323 6948 6947 6347 6348 6973 6972 
6323 6324 6949 6948 6348 6349 6974 6973 
6325 6326 6951 6950 6350 6351 6976 6975 
6326 6327 6952 6951 6351 6352 6977 6976 
6327 6328 6953 6952 6352 6353 6978 6977 
6328 6329 6954 6953 6353 6354 6979 6978 
6329 6330 6955 6954 6354 6355 6980 6979 
6330 6331 6956 6955 6355 6356 6981 6980 
6331 6332 6957 6956 6356 6357 6982 6981 
6332 6333 6958 6957 6357 6358 6983 6982 
6333 6334 6959 6958 6358 6359 6984 6983 
6334 6335 6960 6959 6359 6360 6985 6984 
6335 6336 6961 6960 6360 6361 6986 6985 
6336 6337 6962 6961 6361 6362 6987 6986 
6337 6338 6963 6962 6362 6363 6988 6987 
6338 6339 6964 6963 6363 6364 6989 6988 
6339 6340 6965 6964 6364 6365 6990 6989 
6340 6341 6966 6965 6365 6366 6991 6990 
6341 6342 6967 6966 6366 6367 6992 6991 
6342 6343 6968 6967 6367 6368 6993 6992 
6343 6344 6969 6968 6368 6369 6994 6993 
6344 6345 6970 6969 6369 6370 6995 6994 
6345 6346 6971 6970 6370 6371 6996 6995 
6346 6347 6972 6971 6371 6372 6997 6996 
6347 6348 6973 6972 6372 6373 6998 6997 
6348 6349 6974 6973 6373 6374 6999 6998 
6350 6351 6976 6975 6375 6376 7001 7000 
6351 6352 6977 6976 6376 6377 7002 7001 
6352 6353 6978 6977 6377 6378 7003 7002 
6353 6354 6979 6978 6378 6379 7004 7003 
6354 6355 6980 6979 6379 6380 7005 7004 
6355 6356 6981 6980 6380 6381 7006 7005 
6356 6357 6982 6981 6381 6382 7007 7006 
6357 6358 6983 6982 6382 6383 7008 7007 
6358 6359 6984 6983 6383 6384 7009 7008 
6359 6360 6985 6984 6384 6385 7010 7009 
6360 6361 6986 6985 6385 6386 7011 7010 
6361 6362 6987 6986 6386 6387 7012 7011 
6362 6363 6988 6987 6387 6388 7013 7012 
6363 6364 6989 6988 6388 6389 7014 7013 
6364 6365 6990 6989 6389 6390 7015 7014 
6365 6366 6991 6990 6390 6391 7016 7015 
6366 6367 6992 6991 6391 6392 7017 7016 
6367 6368 6993 6992 6392 6393 7018 7017 
6368 6369 6994 6993 6393 6394 7019 7018 
6369 6370 6995 6994 6394 6395 7020 7019 
6370 6371 6996 6995 6395 6396 7021 7020 
6371 6372 6997 6996 6396 6397 7022 7021 
6372 6373 6998 6997 6397 6398 7023 7022 
6373 6374 6999 6998 6398 6399 7024 7023 
6375 6376 7001 7000 6400 6401 7026 7025 
6376 6377 7002 7001 6401 6402 7027 7026 
6377 6378 7003 7002 6402 6403 7028 7027 
6378 6379 7004 7003 6403 6404 7029 7028 
6379 6380 7005 7004 6404 6405 7030 7029 
6380 6381 7006 7005 6405 6406 7031 7030 
6381 6382 7007 7006 6406 6407 7032 7031 
6382 6383 7008 7007 6407 6408 7033 7032 
6383 6384 7009 7008 6408 6409 7034 7033 
6384 6385 7010 7009 6409 6410 7035 7034 
6385 6386 7011 7010 6410 6411 7036 7035 
6386 6387 7012 7011 6411 6412 7037 7036 
6387 6388 7013 7012 6412 6413 7038 7037 
6388 6389 7014 7013 6413 6414 7039 7038 
6389 6390 7015 7014 6414 6415 7040 7039 
6390 6391 7016 7015 6415 6416 7041 7040 
6391 6392 7017 7016 6416 6417 7042 7041 
6392 6393 7018 7017 6417 6418 7043 7042 
6393 6394 7019 7018 6418 6419 7044 7043 
6394 6395 7020 7019 6419 6420 7045 7044 
6395 6396 7021 7020 6420 6421 7046 7045 
6396 6397 7022 7021 6421 6422 7047 7046 
6397 6398 7023 7022 6422 6423 7048 7047 
6398 6399 7024 7023 6423 6424 7049 7048 
6400 6401 7026 7025 6425 6426 7051 7050 
6401 6402 7027 7026 6426 6427 7052 7051 
6402 6403 7028 7027 6427 6428 7053 7052 
6403 6404 7029 7028 6428 6429 7054 7053 
6404 6405 7030 7029 6429 6430 7055 7054 
6405 6406 7031 7030 6430 6431 7056 7055 
6406 6407 7032 7031 6431 6432 7057 7056 
6407 6408 7033 7032 6432 6433 7058 7057 
6408 6409 7034 7033 6433 6434 7059 7058 
6409 6410 7035 7034 6434 6435 7060 7059 
6410 6411 7036 7035 6435 6436 7061 7060 
6411 6412 7037 7036 6436 6437 7062 7061 
6412 6413 7038 7037 6437 6438 7063 7062 
6413 6414 7039 7038 6438 6439 7064 7063 
6414 6415 7040 7039 6439 6440 7065 7064 
6415 6416 7041 7040 6440 6441 7066 7065 
6416 6417 7042 7041 6441 6442 7067 7066 
6417 6418 7043 7042 6442 6443 7068 7067 
6418 6419 7044 7043 6443 6444 7069 7068 
6419 6420 7045 7044 6444 6445 7070 7069 
6420 6421 7046 7045 6445 6446 7071 7070 
6421 6422 7047 7046 6446 6447 7072 7071 
6422 6423 7048 7047 6447 6448 7073 7072 
6423 6424 7049 7048 6448 6449 7074 7073 
6425 6426 7051 7050 6450 6451 7076 7075 
6426 6427 7052 7051 6451 6452 7077 7076 
6427 6428 7053 7052 6452 6453 7078 7077 
6428 6429 7054 7053 6453 6454 7079 7078 
6429 6430 7055 7054 6454 6455 7080 7079 
6430 6431 7056 7055 6455 6456 7081 7080 
6431 6432 7057 7056 6456 6457 7082 7081 
6432 6433 7058 7057 6457 6458 7083 7082 
6433 6434 7059 7058 6458 6459 7084 7083 
6434 6435 7060 7059 6459 6460 7085 7084 
6435 6436 7061 7060 6460 6461 7086 7085 
6436 6437 7062 7061 6461 6462 7087 7086 
6437 6438 7063 7062 6462 6463 7088 7087 
6438 6439 7064 7063 6463 6464 7089 7088 
6439 6440 7065 7064 6464 6465 7090 7089 
6440 6441 7066 7065 6465 6466 7091 7090 
6441 6442 7067 7066 6466 6467 7092 7091 
6442 6443 7068 7067 6467 6468 7093 7092 
6443 6444 7069 7068 6468 6469 7094 7093 
6444 6445 7070 7069 6469 6470 7095 7094 
6445 6446 7071 7070 6470 6471 7096 7095 
6446 6447 7072 7071 6471 6472 7097 7096 
6447 6448 7073 7072 6472 6473 7098 7097 
6448 6449 7074 7073 6473 6474 7099 7098 
6450 6451 7076 7075 6475 6476 7101 7100 
6451 6452 7077 7076 6476 6477 7102 7101 
6452 6453 7078 7077 6477 6478 7103 7102 
6453 6454 7079 7078 6478 6479 7104 7103 
6454 6455 7080 7079 6479 6480 7105 7104 
6455 6456 7081 7080 6480 6481 7106 7105 
6456 6457 7082 7081 6481 6482 7107 7106 
6457 6458 7083 7082 6482 6483 7108 7107 
6458 6459 7084 7083 6483 6484 7109 7108 
6459 6460 7085 7084 6484 6485 7110 7109 
6460 6461 7086 7085 6485 6486 7111 7110 
6461 6462 7087 7086 6486 6487 7112 7111 
6462 6463 7088 7087 6487 6488 7113 7112 
6463 6464 7089 7088 6488 6489 7114 7113 
6464 6465 7090 7089 6489 6490 7115 7114 
6465 6466 7091 7090 6490 6491 7116 7115 
6466 6467 7092 7091 6491 6492 7117 7116 
6467 6468 7093 7092 6492 6493 7118 7117 
6468 6469 7094 7093 6493 6494 7119 7118 
6469 6470 7095 7094 6494 6495 7120 7119 
6470 6471 7096 7095 6495 6496 7121 7120 
6471 6472 7097 7096 6496 6497 7122 7121 
6472 6473 7098 7097 6497 6498 7123 7122 
6473 6474 7099 7098 6498 6499 7124 7123 
6475 6476 7101 7100 6500 6501 7126 7125 
6476 6477 7102 7101 6501 6502 7127 7126 
6477 6478 7103 7102 6502 6503 7128 7127 
6478 6479 7104 7103 6503 6504 7129 7128 
6479 6480 7105 7104 6504 6505 7130 7129 
6480 6481 7106 7105 6505 6506 7131 7130 
6481 6482 7107 7106 6506 6507 7132 7131 
6482 6483 7108 7107 6507 6508 7133 7132 
6483 6484 7109 7108 6508 6509 7134 7133 
6484 6485 7110 7109 6509 6510 7135 7134 
6485 6486 7111 7110 6510 6511 7136 7135 
6486 6487 7112 7111 6511 6512 7137 7136 
6487 6488 7113 7112 6512 6513 7138 7137 
6488 6489 7114 7113 6513 6514 7139 7138 
6489 6490 7115 7114 6514 6515 7140 7139 
6490 6491 7116 7115 6515 6516 7141 7140 
6491 6492 7117 7116 6516 6517 7142 7141 
6492 6493 7118 7117 6517 6518 7143 7142 
6493 6494 7119 7118 6518 6519 7144 7143 
6494 6495 7120 7119 6519 6520 7145 7144 
6495 6496 7121 7120 6520 6521 7146 7145 
6496 6497 7122 7121 6521 6522 7147 7146 
6497 6498 7123 7122 6522 6523 7148 7147 
6498 6499 7124 7123 6523 6524 7149 7148 
6500 6501 7126 7125 6525 6526 7151 7150 
6501 6502 7127 7126 6526 6527 7152 7151 
6502 6503 7128 7127 6527 6528 7153 7152 
6503 6504 7129 7128 6528 6529 7154 7153 
6504 6505 7130 7129 6529 6530 7155 7154 
6505 6506 7131 7130 6530 6531 7156 7155 
6506 6507 7132 7131 6531 6532 7157 7156 
6507 6508 7133 7132 6532 6533 7158 7157 
6508 6509 7134 7133 6533 6534 7159 7158 
6509 6510 7135 7134 6534 6535 7160 7159 
6510 6511 7136 7135 6535 6536 7161 7160 
6511 6512 7137 7136 6536 6537 7162 7161 
6512 6513 7138 7137 6537 6538 7163 7162 
6513 6514 7139 7138 6538 6539 7164 7163 
6514 6515 7140 7139 6539 6540 7165 7164 
6515 6516 7141 7140 6540 6541 7166 7165 
6516 6517 7142 7141 6541 6542 7167 7166 
6517 6518 7143 7142 6542 6543 7168 7167 
6518 6519 7144 7143 6543 6544 7169 7168 
6519 6520 7145 7144 6544 6545 7170 7169 
6520 6521 7146 7145 6545 6546 7171 7170 
6521 6522 7147 7146 6546 6547 7172 7171 
6522 6523 7148 7147 6547 6548 7173 7172 
6523 6524 7149 7148 6548 6549 7174 7173 
6525 6526 7151 7150 6550 6551 7176 7175 
6526 6527 7152 7151 6551 6552 7177 7176 
6527 6528 7153 7152 6552 6553 7178 7177 
6528 6529 7154 7153 6553 6554 7179 7178 
6529 6530 7155 7154 6554 6555 7180 7179 
6530 6531 7156 7155 6555 6556 7181 7180 
6531 6532 7157 7156 6556 6557 7182 7181 
6532 6533 7158 7157 6557 6558 7183 7182 
6533 6534 7159 7158 6558 6559 7184 7183 
6534 6535 7160 7159 6559 6560 7185 7184 
6535 6536 7161 7160 6560 6561 7186 7185 
6536 6537 7162 7161 6561 6562 7187 7186 
6537 6538 7163 7162 6562 6563 7188 7187 
6538 6539 7164 7163 6563 6564 7189 7188 
6539 6540 7165 7164 6564 6565 7190 7189 
6540 6541 7166 7165 6565 6566 7191 7190 
6541 6542 7167 7166 6566 6567 7192 7191 
6542 6543 7168 7167 6567 6568 7193 7192 
6543 6544 7169 7168 6568 6569 7194 7193 
6544 6545 7170 7169 6569 6570 7195 7194 
6545 6546 7171 7170 6570 6571 7196 7195 
6546 6547 7172 7171 6571 6572 7197 7196 
6547 6548 7173 7172 6572 6573 7198 7197 
6548 6549 7174 7173 6573 6574 7199 7198 
6550 6551 7176 7175 6575 6576 7201 7200 
6551 6552 7177 7176 6576 6577 7202 7201 
6552 6553 7178 7177 6577 6578 7203 7202 
6553 6554 7179 7178 6578 6579 7204 7203 
6554 6555 7180 7179 6579 6580 7205 7204 
6555 6556 7181 7180 6580 6581 7206 7205 
6556 6557 7182 7181 6581 6582 7207 7206 
6557 6558 7183 7182 6582 6583 7208 7207 
6558 6559 7184 7183 6583 6584 7209 7208 
6559 6560 7185 7184 6584 6585 7210 7209 
6560 6561 7186 7185 6585 6586 7211 7210 
6561 6562 7187 7186 6586 6587 7212 7211 
6562 6563 7188 7187 6587 6588 7213 7212 
6563 6564 7189 7188 6588 6589 7214 7213 
6564 6565 7190 7189 6589 6590 7215 7214 
6565 6566 7191 7190 6590 6591 7216 7215 
6566 6567 7192 7191 6591 6592 7217 7216 
6567 6568 7193 7192 6592 6593 7218 7217 
6568 6569 7194 7193 6593 6594 7219 7218 
6569 6570 7195 7194 6594 6595 7220 7219 
6570 6571 7196 7195 6595 6596 7221 7220 
6571 6572 7197 7196 6596 6597 7222 7221 
6572 6573 7198 7197 6597 6598 7223 7222 
6573 6574 7199 7198 6598 6599 7224 7223 
6575 6576 7201 7200 6600 6601 7226 7225 
6576 6577 7202 7201 6601 6602 7227 7226 
6577 6578 7203 7202 6602 6603 7228 7227 
6578 6579 7204 7203 6603 6604 7229 7228 
6579 6580 7205 7204 6604 6605 7230 7229 
6580 6581 7206 7205 6605 6606 7231 7230 
6581 6582 7207 7206 6606 6607 7232 7231 
6582 6583 7208 7207 6607 6608 7233 7232 
6583 6584 7209 7208 6608 6609 7234 7233 
6584 6585 7210 7209 6609 6610 7235 7234 
6585 6586 7211 7210 6610 6611 7236 7235 
6586 6587 7212 7211 6611 6612 7237 7236 
6587 6588 7213 7212 6612 6613 7238 7237 
6588 6589 7214 7213 6613 6614 7239 7238 
6589 6590 7215 7214 6614 6615 7240 7239 
6590 6591 7216 7215 6615 6616 7241 7240 
6591 6592 7217 7216 6616 6617 7242 7241 
6592 6593 7218 7217 6617 6618 7243 7242 
6593 6594 7219 7218 6618 6619 7244 7243 
6594 6595 7220 7219 6619 6620 7245 7244 
6595 6596 7221 7220 6620 6621 7246 7245 
6596 6597 7222 7221 6621 6622 7247 7246 
6597 6598 7223 7222 6622 6623 7248 7247 
6598 6599 7224 7223 6623 6624 7249 7248 
6600 6601 7226 7225 6625 6626 7251 7250 
6601 6602 7227 7226 6626 6627 7252 7251 
6602 6603 7228 7227 6627 6628 7253 7252 
6603 6604 7229 7228 6628 6629 7254 7253 
6604 6605 7230 7229 6629 6630 7255 7254 
6605 6606 7231 7230 6630 6631 7256 7255 
6606 6607 7232 7231 6631 6632 7257 7256 
6607 6608 7233 7232 6632 6633 7258 7257 
6608 6609 7234 7233 6633 6634 7259 7258 
6609 6610 7235 7234 6634 6635 7260 7259 
6610 6611 7236 7235 6635 6636 7261 7260 
6611 6612 7237 7236 6636 6637 7262 7261 
6612 6613 7238 7237 6637 6638 7263 7262 
6613 6614 7239 7238 6638 6639 7264 7263 
6614 6615 7240 7239 6639 6640 7265 7264 
6615 6616 7241 7240 6640 6641 7266 7265 
6616 6617 7242 7241 6641 6642 7267 7266 
6617 6618 7243 7242 6642 6643 7268 7267 
6618 6619 7244 7243 6643 6644 7269 7268 
6619 6620 7245 7244 6644 6645 7270 7269 
6620 6621 7246 7245 6645 6646 7271 7270 
6621 6622 7247 7246 6646 6647 7272 7271 
6622 6623 7248 7247 6647 6648 7273 7272 
6623 6624 7249 7248 6648 6649 7274 7273 
6625 6626 7251 7250 6650 6651 7276 7275 
6626 6627 7252 7251 6651 6652 7277 7276 
6627 6628 7253 7252 6652 6653 7278 7277 
6628 6629 7254 7253 6653 6654 7279 7278 
6629 6630 7255 7254 6654 6655 7280 7279 
6630 6631 7256 7255 6655 6656 7281 7280 
6631 6632 7257 7256 6656 6657 7282 7281 
6632 6633 7258 7257 6657 6658 7283 7282 
6633 6634 7259 7258 6658 6659 7284 7283 
6634 6635 7260 7259 6659 6660 7285 7284 
6635 6636 7261 7260 6660 6661 7286 7285 
6636 6637 7262 7261 6661 6662 7287 7286 
6637 6638 7263 7262 6662 6663 7288 7287 
6638 6639 7264 7263 6663 6664 7289 7288 
6639 6640 7265 7264 6664 6665 7290 7289 
6640 6641 7266 7265 6665 6666 7291 7290 
6641 6642 7267 7266 6666 6667 7292 7291 
6642 6643 7268 7267 6667 6668 7293 7292 
6643 6644 7269 7268 6668 6669 7294 7293 
6644 6645 7270 7269 6669 6670 7295 7294 
6645 6646 7271 7270 6670 6671 7296 7295 
6646 6647 7272 7271 6671 6672 7297 7296 
6647 6648 7273 7272 6672 6673 7298 7297 
6648 6649 7274 7273 6673 6674 7299 7298 
6650 6651 7276 7275 6675 6676 7301 7300 
6651 6652 7277 7276 6676 6677 7302 7301 
6652 6653 7278 7277 6677 6678 7303 7302 
6653 6654 7279 7278 6678 6679 7304 7303 
6654 6655 7280 7279 6679 6680 7305 7304 
6655 6656 7281 7280 6680 6681 7306 7305 
6656 6657 7282 7281 6681 6682 7307 7306 
6657 6658 7283 7282 6682 6683 7308 7307 
6658 6659 7284 7283 6683 6684 7309 7308 
6659 6660 7285 7284 6684 6685 7310 7309 
6660 6661 7286 7285 6685 6686 7311 7310 
6661 6662 7287 7286 6686 6687 7312 7311 
6662 6663 7288 7287 6687 6688 7313 7312 
6663 6664 7289 7288 6688 6689 7314 7313 
6664 6665 7290 7289 6689 6690 7315 7314 
6665 6666 7291 7290 6690 6691 7316 7315 
6666 6667 7292 7291 6691 6692 7317 7316 
6667 6668 7293 7292 6692 6693 7318 7317 
6668 6669 7294 7293 6693 6694 7319 7318 
6669 6670 7295 7294 6694 6695 7320 7319 
6670 6671 7296 7295 6695 6696 7321 7320 
6671 6672 7297 7296 6696 6697 7322 7321 
6672 6673 7298 7297 6697 6698 7323 7322 
6673 6674 7299 7298 6698 6699 7324 7323 
6675 6676 7301 7300 6700 6701 7326 7325 
6676 6677 7302 7301 6701 6702 7327 7326 
6677 6678 7303 7302 6702 6703 7328 7327 
6678 6679 7304 7303 6703 6704 7329 7328 
6679 6680 7305 7304 6704 6705 7330 7329 
6680 6681 7306 7305 6705 6706 7331 7330 
6681 6682 7307 7306 6706 6707 7332 7331 
6682 6683 7308 7307 6707 6708 7333 7332 
6683 6684 7309 7308 6708 6709 7334 7333 
6684 6685 7310 7309 6709 6710 7335 7334 
6685 6686 7311 7310 6710 6711 7336 7335 
6686 6687 7312 7311 6711 6712 7337 7336 
6687 6688 7313 7312 6712 6713 7338 7337 
6688 6689 7314 7313 6713 6714 7339 7338 
6689 6690 7315 7314 6714 6715 7340 7339 
6690 6691 7316 7315 6715 6716 7341 7340 
6691 6692 7317 7316 6716 6717 7342 7341 
6692 6693 7318 7317 6717 6718 7343 7342 
6693 6694 7319 7318 6718 6719 7344 7343 
6694 6695 7320 7319 6719 6720 7345 7344 
6695 6696 7321 7320 6720 6721 7346 7345 
6696 6697 7322 7321 6721 6722 7347 7346 
6697 6698 7323 7322 6722 6723 7348 7347 
6698 6699 7324 7323 6723 6724 7349 7348 
6700 6701 7326 7325 6725 6726 7351 7350 
6701 6702 7327 7326 6726 6727 7352 7351 
6702 6703 7328 7327 6727 6728 7353 7352 
6703 6704 7329 7328 6728 6729 7354 7353 
6704 6705 7330 7329 6729 6730 7355 7354 
6705 6706 7331 7330 6730 6731 7356 7355 
6706 6707 7332 7331 6731 6732 7357 7356 
6707 6708 7333 7332 6732 6733 7358 7357 
6708 6709 7334 7333 6733 6734 7359 7358 
6709 6710 7335 7334 6734 6735 7360 7359 
6710 6711 7336 7335 6735 6736 7361 7360 
6711 6712 7337 7336 6736 6737 7362 7361 
6712 6713 7338 7337 6737 6738 7363 7362 
6713 6714 7339 7338 6738 6739 7364 7363 
6714 6715 7340 7339 6739 6740 7365 7364 
6715 6716 7341 7340 6740 6741 7366 7365 
6716 6717 7342 7341 6741 6742 7367 7366 
6717 6718 7343 7342 6742 6743 7368 7367 
6718 6719 7344 7343 6743 6744 7369 7368 
6719 6720 7345 7344 6744 6745 7370 7369 
6720 6721 7346 7345 6745 6746 7371 7370 
6721 6722 7347 7346 6746 6747 7372 7371 
6722 6723 7348 7347 6747 6748 7373 7372 
6723 6724 7349 7348 6748 6749 7374 7373 
6725 6726 7351 7350 6750 6751 7376 7375 
6726 6727 7352 7351 6751 6752 7377 7376 
6727 6728 7353 7352 6752 6753 7378 7377 
6728 6729 7354 7353 6753 6754 7379 7378 
6729 6730 7355 7354 6754 6755 7380 7379 
6730 6731 7356 7355 6755 6756 7381 7380 
6731 6732 7357 7356 6756 6757 7382 7381 
6732 6733 7358 7357 6757 6758 7383 7382 
6733 6734 7359 7358 6758 6759 7384 7383 
6734 6735 7360 7359 6759 6760 7385 7384 
6735 6736 7361 7360 6760 6761 7386 7385 
6736 6737 7362 7361 6761 6762 7387 7386 
6737 6738 7363 7362 6762 6763 7388 7387 
6738 6739 7364 7363 6763 6764 7389 7388 
6739 6740 7365 7364 6764 6765 7390 7389 
6740 6741 7366 7365 6765 6766 7391 7390 
6741 6742 7367 7366 6766 6767 7392 7391 
6742 6743 7368 7367 6767 6768 7393 7392 
6743 6744 7369 7368 6768 6769 7394 7393 
6744 6745 7370 7369 6769 6770 7395 7394 
6745 6746 7371 7370 6770 6771 7396 7395 
6746 6747 7372 7371 6771 6772 7397 7396 
6747 6748 7373 7372 6772 6773 7398 7397 
6748 6749 7374 7373 6773 6774 7399 7398 
6750 6751 7376 7375 6775 6776 7401 7400 
6751 6752 7377 7376 6776 6777 7402 7401 
6752 6753 7378 7377 6777 6778 7403 7402 
6753 6754 7379 7378 6778 6779 7404 7403 
6754 6755 7380 7379 6779 6780 7405 7404 
6755 6756 7381 7380 6780 6781 7406 7405 
6756 6757 7382 7381 6781 6782 7407 7406 
6757 6758 7383 7382 6782 6783 7408 7407 
6758 6759 7384 7383 6783 6784 7409 7408 
6759 6760 7385 7384 6784 6785 7410 7409 
6760 6761 7386 7385 6785 6786 7411 7410 
6761 6762 7387 7386 6786 6787 7412 7411 
6762 6763 7388 7387 6787 6788 7413 7412 
6763 6764 7389 7388 6788 6789 7414 7413 
6764 6765 7390 7389 6789 6790 7415 7414 
6765 6766 7391 7390 6790 6791 7416 7415 
6766 6767 7392 7391 6791 6792 7417 7416 
6767 6768 7393 7392 6792 6793 7418 7417 
6768 6769 7394 7393 6793 6794 7419 7418 
6769 6770 7395 7394 6794 6795 7420 7419 
6770 6771 7396 7395 6795 6796 7421 7420 
6771 6772 7397 7396 6796 6797 7422 7421 
6772 6773 7398 7397 6797 6798 7423 7422 
6773 6774 7399 7398 6798 6799 7424 7423 
6775 6776 7401 7400 6800 6801 7426 7425 
6776 6777 7402 7401 6801 6802 7427 7426 
6777 6778 7403 7402 6802 6803 7428 7427 
6778 6779 7404 7403 6803 6804 7429 7428 
6779 6780 7405 7404 6804 6805 7430 7429 
6780 6781 7406 7405 6805 6806 7431 7430 
6781 6782 7407 7406 6806 6807 7432 7431 
6782 6783 7408 7407 6807 6808 7433 7432 
6783 6784 7409 7408 6808 6809 7434 7433 
6784 6785 7410 7409 6809 6810 7435 7434 
6785 6786 7411 7410 6810 6811 7436 7435 
6786 6787 7412 7411 6811 6812 7437 7436 
6787 6788 7413 7412 6812 6813 7438 7437 
6788 6789 7414 7413 6813 6814 7439 7438 
6789 6790 7415 7414 6814 6815 7440 7439 
6790 6791 7416 7415 6815 6816 7441 7440 
6791 6792 7417 7416 6816 6817 7442 7441 
6792 6793 7418 7417 6817 6818 7443 7442 
6793 6794 7419 7418 6818 6819 7444 7443 
6794 6795 7420 7419 6819 6820 7445 7444 
6795 6796 7421 7420 6820 6821 7446 7445 
6796 6797 7422 7421 6821 6822 7447 7446 
6797 6798 7423 7422 6822 6823 7448 7447 
6798 6799 7424 7423 6823 6824 7449 7448 
6800 6801 7426 7425 6825 6826 7451 7450 
6801 6802 7427 7426 6826 6827 7452 7451 
6802 6803 7428 7427 6827 6828 7453 7452 
6803 6804 7429 7428 6828 6829 7454 7453 
6804 6805 7430 7429 6829 6830 7455 7454 
6805 6806 7431 7430 6830 6831 7456 7455 
6806 6807 7432 7431 6831 6832 7457 7456 
6807 6808 7433 7432 6832 6833 7458 7457 
6808 6809 7434 7433 6833 6834 7459 7458 
6809 6810 7435 7434 6834 6835 7460 7459 
6810 6811 7436 7435 6835 6836 7461 7460 
6811 6812 7437 7436 6836 6837 7462 7461 
6812 6813 7438 7437 6837 6838 7463 7462 
6813 6814 7439 7438 6838 6839 7464 7463 
6814 6815 7440 7439 6839 6840 7465 7464 
6815 6816 7441 7440 6840 6841 7466 7465 
6816 6817 7442 7441 6841 6842 7467 7466 
6817 6818 7443 7442 6842 6843 7468 7467 
6818 6819 7444 7443 6843 6844 7469 7468 
6819 6820 7445 7444 6844 6845 7470 7469 
6820 6821 7446 7445 6845 6846 7471 7470 
6821 6822 7447 7446 6846 6847 7472 7471 
6822 6823 7448 7447 6847 6848 7473 7472 
6823 6824 7449 7448 6848 6849 7474 7473 
6825 6826 7451 7450 6850 6851 7476 7475 
6826 6827 7452 7451 6851 6852 7477 7476 
6827 6828 7453 7452 6852 6853 7478 7477 
6828 6829 7454 7453 6853 6854 7479 7478 
6829 6830 7455 7454 6854 6855 7480 7479 
6830 6831 7456 7455 6855 6856 7481 7480 
6831 6832 7457 7456 6856 6857 7482 7481 
6832 6833 7458 7457 6857 6858 7483 7482 
6833 6834 7459 7458 6858 6859 7484 7483 
6834 6835 7460 7459 6859 6860 7485 7484 
6835 6836 7461 7460 6860 6861 7486 7485 
6836 6837 7462 7461 6861 6862 7487 7486 
6837 6838 7463 7462 6862 6863 7488 7487 
6838 6839 7464 7463 6863 6864 7489 7488 
6839 6840 7465 7464 6864 6865 7490 7489 
6840 6841 7466 7465 6865 6866 7491 7490 
6841 6842 7467 7466 6866 6867 7492 7491 
6842 6843 7468 7467 6867 6868 7493 7492 
6843 6844 7469 7468 6868 6869 7494 7493 
6844 6845 7470 7469 6869 6870 7495 7494 
6845 6846 7471 7470 6870 6871 7496 7495 
6846 6847 7472 7471 6871 6872 7497 7496 
6847 6848 7473 7472 6872 6873 7498 7497 
6848 6849 7474 7473 6873 6874 7499 7498 
6875 6876 7501 7500 6900 6901 7526 7525 
6876 6877 7502 7501 6901 6902 7527 7526 
6877 6878 7503 7502 6902 6903 7528 7527 
6878 6879 7504 7503 6903 6904 7529 7528 
6879 6880 7505 7504 6904 6905 7530 7529 
6880 6881 7506 7505 6905 6906 7531 7530 
6881 6882 7507 7506 6906 6907 7532 7531 
6882 6883 7508 7507 6907 6908 7533 7532 
6883 6884 7509 7508 6908 6909 7534 7533 
6884 6885 7510 7509 6909 6910 7535 7534 
6885 6886 7511 7510 6910 6911 7536 7535 
6886 6887 7512 7511 6911 6912 7537 7536 
6887 6888 7513 7512 6912 6913 7538 7537 
6888 6889 7514 7513 6913 6914 7539 7538 
6889 6890 7515 7514 6914 6915 7540 7539 
6890 6891 7516 7515 6915 6916 7541 7540 
6891 6892 7517 7516 6916 6917 7542 7541 
6892 6893 7518 7517 6917 6918 7543 7542 
6893 6894 7519 7518 6918 6919 7544 7543 
6894 6895 7520 7519 6919 6920 7545 7544 
6895 6896 7521 7520 6920 6921 7546 7545 
6896 6897 7522 7521 6921 6922 7547 7546 
6897 6898 7523 7522 6922 6923 7548 7547 
6898 6899 7524 7523 6923 6924 7549 7548 
6900 6901 7526 7525 6925 6926 7551 7550 
6901 6902 7527 7526 6926 6927 7552 7551 
6902 6903 7528 7527 6927 6928 7553 7552 
6903 6904 7529 7528 6928 6929 7554 7553 
6904 6905 7530 7529 6929 6930 7555 7554 
6905 6906 7531 7530 6930 6931 7556 7555 
6906 6907 7532 7531 6931 6932 7557 7556 
6907 6908 7533 7532 6932 6933 7558 7557 
6908 6909 7534 7533 6933 6934 7559 7558 
6909 6910 7535 7534 6934 6935 7560 7559 
6910 6911 7536 7535 6935 6936 7561 7560 
6911 6912 7537 7536 6936 6937 7562 7561 
6912 6913 7538 7537 6937 6938 7563 7562 
6913 6914 7539 7538 6938 6939 7564 7563 
6914 6915 7540 7539 6939 6940 7565 7564 
6915 6916 7541 7540 6940 6941 7566 7565 
6916 6917 7542 7541 6941 6942 7567 7566 
6917 6918 7543 7542 6942 6943 7568 7567 
6918 6919 7544 7543 6943 6944 7569 7568 
6919 6920 7545 7544 6944 6945 7570 7569 
6920 6921 7546 7545 6945 6946 7571 7570 
6921 6922 7547 7546 6946 6947 7572 7571 
6922 6923 7548 7547 6947 6948 7573 7572 
6923 6924 7549 7548 6948 6949 7574 7573 
6925 6926 7551 7550 6950 6951 7576 7575 
6926 6927 7552 7551 6951 6952 7577 7576 
6927 6928 7553 7552 6952 6953 7578 7577 
6928 6929 7554 7553 6953 6954 7579 7578 
6929 6930 7555 7554 6954 6955 7580 7579 
6930 6931 7556 7555 6955 6956 7581 7580 
6931 6932 7557 7556 6956 6957 7582 7581 
6932 6933 7558 7557 6957 6958 7583 7582 
6933 6934 7559 7558 6958 6959 7584 7583 
6934 6935 7560 7559 6959 6960 7585 7584 
6935 6936 7561 7560 6960 6961 7586 7585 
6936 6937 7562 7561 6961 6962 7587 7586 
6937 6938 7563 7562 6962 6963 7588 7587 
6938 6939 7564 7563 6963 6964 7589 7588 
6939 6940 7565 7564 6964 6965 7590 7589 
6940 6941 7566 7565 6965 6966 7591 7590 
6941 6942 7567 7566 6966 6967 7592 7591 
6942 6943 7568 7567 6967 6968 7593 7592 
6943 6944 7569 7568 6968 6969 7594 7593 
6944 6945 7570 7569 6969 6970 7595 7594 
6945 6946 7571 7570 6970 6971 7596 7595 
6946 6947 7572 7571 6971 6972 7597 7596 
6947 6948 7573 7572 6972 6973 7598 7597 
6948 6949 7574 7573 6973 6974 7599 7598 
6950 6951 7576 7575 6975 6976 7601 7600 
6951 6952 7577 7576 6976 6977 7602 7601 
6952 6953 7578 7577 6977 6978 7603 7602 
6953 6954 7579 7578 6978 6979 7604 7603 
6954 6955 7580 7579 6979 6980 7605 7604 
6955 6956 7581 7580 6980 6981 7606 7605 
6956 6957 7582 7581 6981 6982 7607 7606 
6957 6958 7583 7582 6982 6983 7608 7607 
6958 6959 7584 7583 6983 6984 7609 7608 
6959 6960 7585 7584 6984 6985 7610 7609 
6960 6961 7586 7585 6985 6986 7611 7610 
6961 6962 7587 7586 6986 6987 7612 7611 
6962 6963 7588 7587 6987 6988 7613 7612 
6963 6964 7589 7588 6988 6989 7614 7613 
6964 6965 7590 7589 6989 6990 7615 7614 
6965 6966 7591 7590 6990 6991 7616 7615 
6966 6967 7592 7591 6991 6992 7617 7616 
6967 6968 7593 7592 6992 6993 7618 7617 
6968 6969 7594 7593 6993 6994 7619 7618 
6969 6970 7595 7594 6994 6995 7620 7619 
6970 6971 7596 7595 6995 6996 7621 7620 
6971 6972 7597 7596 6996 6997 7622 7621 
6972 6973 7598 7597 6997 6998 7623 7622 
6973 6974 7599 7598 6998 6999 7624 7623 
6975 6976 7601 7600 7000 7001 7626 7625 
6976 6977 7602 7601 7001 7002 7627 7626 
6977 6978 7603 7602 7002 7003 7628 7627 
6978 6979 7604 7603 7003 7004 7629 7628 
6979 6980 7605 7604 7004 7005 7630 7629 
6980 6981 7606 7605 7005 7006 7631 7630 
6981 6982 7607 7606 7006 7007 7632 7631 
6982 6983 7608 7607 7007 7008 7633 7632 
6983 6984 7609 7608 7008 7009 7634 7633 
6984 6985 7610 7609 7009 7010 7635 7634 
6985 6986 7611 7610 7010 7011 7636 7635 
6986 6987 7612 7611 7011 7012 7637 7636 
6987 6988 7613 7612 7012 7013 7638 7637 
6988 6989 7614 7613 7013 7014 7639 7638 
6989 6990 7615 7614 7014 7015 7640 7639 
6990 6991 7616 7615 7015 7016 7641 7640 
6991 6992 7617 7616 7016 7017 7642 7641 
6992 6993 7618 7617 7017 7018 7643 7642 
6993 6994 7619 7618 7018 7019 7644 7643 
6994 6995 7620 7619 7019 7020 7645 7644 
6995 6996 7621 7620 7020 7021 7646 7645 
6996 6997 7622 7621 7021 7022 7647 7646 
6997 6998 7623 7622 7022 7023 7648 7647 
6998 6999 7624 7623 7023 7024 7649 7648 
7000 7001 7626 7625 7025 7026 7651 7650 
7001 7002 7627 7626 7026 7027 7652 7651 
7002 7003 7628 7627 7027 7028 7653 7652 
7003 7004 7629 7628 7028 7029 7654 7653 
7004 7005 7630 7629 7029 7030 7655 7654 
7005 7006 7631 7630 7030 7031 7656 7655 
7006 7007 7632 7631 7031 7032 7657 7656 
7007 7008 7633 7632 7032 7033 7658 7657 
7008 7009 7634 7633 7033 7034 7659 7658 
7009 7010 7635 7634 7034 7035 7660 7659 
7010 7011 7636 7635 7035 7036 7661 7660 
7011 7012 7637 7636 7036 7037 7662 7661 
7012 7013 7638 7637 7037 7038 7663 7662 
7013 7014 7639 7638 7038 7039 7664 7663 
7014 7015 7640 7639 7039 7040 7665 7664 
7015 7016 7641 7640 7040 7041 7666 7665 
7016 7017 7642 7641 7041 7042 7667 7666 
7017 7018 7643 7642 7042 7043 7668 7667 
7018 7019 7644 7643 7043 7044 7669 7668 
7019 7020 7645 7644 7044 7045 7670 7669 
7020 7021 7646 7645 7045 7046 7671 7670 
7021 7022 7647 7646 7046 7047 7672 7671 
7022 7023 7648 7647 7047 7048 7673 7672 
7023 7024 7649 7648 7048 7049 7674 7673 
7025 7026 7651 7650 7050 7051 7676 7675 
7026 7027 7652 7651 7051 7052 7677 7676 
7027 7028 7653 7652 7052 7053 7678 7677 
7028 7029 7654 7653 7053 7054 7679 7678 
7029 7030 7655 7654 7054 7055 7680 7679 
7030 7031 7656 7655 7055 7056 7681 7680 
7031 7032 7657 7656 7056 7057 7682 7681 
7032 7033 7658 7657 7057 7058 7683 7682 
7033 7034 7659 7658 7058 7059 7684 7683 
7034 7035 7660 7659 7059 7060 7685 7684 
7035 7036 7661 7660 7060 7061 7686 7685 
7036 7037 7662 7661 7061 7062 7687 7686 
7037 7038 7663 7662 7062 7063 7688 7687 
7038 7039 7664 7663 7063 7064 7689 7688 
7039 7040 7665 7664 7064 7065 7690 7689 
7040 7041 7666 7665 7065 7066 7691 7690 
7041 7042 7667 7666 7066 7067 7692 7691 
7042 7043 7668 7667 7067 7068 7693 7692 
7043 7044 7669 7668 7068 7069 7694 7693 
7044 7045 7670 7669 7069 7070 7695 7694 
7045 7046 7671 7670 7070 7071 7696 7695 
7046 7047 7672 7671 7071 7072 7697 7696 
7047 7048 7673 7672 7072 7073 7698 7697 
7048 7049 7674 7673 7073 7074 7699 7698 
7050 7051 7676 7675 7075 7076 7701 7700 
7051 7052 7677 7676 7076 7077 7702 7701 
7052 7053 7678 7677 7077 7078 7703 7702 
7053 7054 7679 7678 7078 7079 7704 7703 
7054 7055 7680 7679 7079 7080 7705 7704 
7055 7056 7681 7680 7080 7081 7706 7705 
7056 7057 7682 7681 7081 7082 7707 7706 
7057 7058 7683 7682 7082 7083 7708 7707 
7058 7059 7684 7683 7083 7084 7709 7708 
7059 7060 7685 7684 7084 7085 7710 7709 
7060 7061 7686 7685 7085 7086 7711 7710 
7061 7062 7687 7686 7086 7087 7712 7711 
7062 7063 7688 7687 7087 7088 7713 7712 
7063 7064 7689 7688 7088 7089 7714 7713 
7064 7065 7690 7689 7089 7090 7715 7714 
7065 7066 7691 7690 7090 7091 7716 7715 
7066 7067 7692 7691 7091 7092 7717 7716 
7067 7068 7693 7692 7092 7093 7718 7717 
7068 7069 7694 7693 7093 7094 7719 7718 
7069 7070 7695 7694 7094 7095 7720 7719 
7070 7071 7696 7695 7095 7096 7721 7720 
7071 7072 7697 7696 7096 7097 7722 7721 
7072 7073 7698 7697 7097 7098 7723 7722 
7073 7074 7699 7698 7098 7099 7724 7723 
7075 7076 7701 7700 7100 7101 7726 7725 
7076 7077 7702 7701 7101 7102 7727 7726 
7077 7078 7703 7702 7102 7103 7728 7727 
7078 7079 7704 7703 7103 7104 7729 7728 
7079 7080 7705 7704 7104 7105 7730 7729 
7080 7081 7706 7705 7105 7106 7731 7730 
7081 7082 7707 7706 7106 7107 7732 7731 
7082 7083 7708 7707 7107 7108 7733 7732 
7083 7084 7709 7708 7108 7109 7734 7733 
7084 7085 7710 7709 7109 7110 7735 7734 
7085 7086 7711 7710 7110 7111 7736 7735 
7086 7087 7712 7711 7111 7112 7737 7736 
7087 7088 7713 7712 7112 7113 7738 7737 
7088 7089 7714 7713 7113 7114 7739 7738 
7089 7090 7715 7714 7114 7115 7740 7739 
7090 7091 7716 7715 7115 7116 7741 7740 
7091 7092 7717 7716 7116 7117 7742 7741 
7092 7093 7718 7717 7117 7118 7743 7742 
7093 7094 7719 7718 7118 7119 7744 7743 
7094 7095 7720 7719 7119 7120 7745 7744 
7095 7096 7721 7720 7120 7121 7746 7745 
7096 7097 7722 7721 7121 7122 7747 7746 
7097 7098 7723 7722 7122 7123 7748 7747 
7098 7099 7724 7723 7123 7124 7749 7748 
7100 7101 7726 7725 7125 7126 7751 7750 
7101 7102 7727 7726 7126 7127 7752 7751 
7102 7103 7728 7727 7127 7128 7753 7752 
7103 7104 7729 7728 7128 7129 7754 7753 
7104 7105 7730 7729 7129 7130 7755 7754 
7105 7106 7731 7730 7130 7131 7756 7755 
7106 7107 7732 7731 7131 7132 7757 7756 
7107 7108 7733 7732 7132 7133 7758 7757 
7108 7109 7734 7733 7133 7134 7759 7758 
7109 7110 7735 7734 7134 7135 7760 7759 
7110 7111 7736 7735 7135 7136 7761 7760 
7111 7112 7737 7736 7136 7137 7762 7761 
7112 7113 7738 7737 7137 7138 7763 7762 
7113 7114 7739 7738 7138 7139 7764 7763 
7114 7115 7740 7739 7139 7140 7765 7764 
7115 7116 7741 7740 7140 7141 7766 7765 
7116 7117 7742 7741 7141 7142 7767 7766 
7117 7118 7743 7742 7142 7143 7768 7767 
7118 7119 7744 7743 7143 7144 7769 7768 
7119 7120 7745 7744 7144 7145 7770 7769 
7120 7121 7746 7745 7145 7146 7771 7770 
7121 7122 7747 7746 7146 7147 7772 7771 
7122 7123 7748 7747 7147 7148 7773 7772 
7123 7124 7749 7748 7148 7149 7774 7773 
7125 7126 7751 7750 7150 7151 7776 7775 
7126 7127 7752 7751 7151 7152 7777 7776 
7127 7128 7753 7752 7152 7153 7778 7777 
7128 7129 7754 7753 7153 7154 7779 7778 
7129 7130 7755 7754 7154 7155 7780 7779 
7130 7131 7756 7755 7155 7156 7781 7780 
7131 7132 7757 7756 7156 7157 7782 7781 
7132 7133 7758 7757 7157 7158 7783 7782 
7133 7134 7759 7758 7158 7159 7784 7783 
7134 7135 7760 7759 7159 7160 7785 7784 
7135 7136 7761 7760 7160 7161 7786 7785 
7136 7137 7762 7761 7161 7162 7787 7786 
7137 7138 7763 7762 7162 7163 7788 7787 
7138 7139 7764 7763 7163 7164 7789 7788 
7139 7140 7765 7764 7164 7165 7790 7789 
7140 7141 7766 7765 7165 7166 7791 7790 
7141 7142 7767 7766 7166 7167 7792 7791 
7142 7143 7768 7767 7167 7168 7793 7792 
7143 7144 7769 7768 7168 7169 7794 7793 
7144 7145 7770 7769 7169 7170 7795 7794 
7145 7146 7771 7770 7170 7171 7796 7795 
7146 7147 7772 7771 7171 7172 7797 7796 
7147 7148 7773 7772 7172 7173 7798 7797 
7148 7149 7774 7773 7173 7174 7799 7798 
7150 7151 7776 7775 7175 7176 7801 7800 
7151 7152 7777 7776 7176 7177 7802 7801 
7152 7153 7778 7777 7177 7178 7803 7802 
7153 7154 7779 7778 7178 7179 7804 7803 
7154 7155 7780 7779 7179 7180 7805 7804 
7155 7156 7781 7780 7180 7181 7806 7805 
7156 7157 7782 7781 7181 7182 7807 7806 
7157 7158 7783 7782 7182 7183 7808 7807 
7158 7159 7784 7783 7183 7184 7809 7808 
7159 7160 7785 7784 7184 7185 7810 7809 
7160 7161 7786 7785 7185 7186 7811 7810 
7161 7162 7787 7786 7186 7187 7812 7811 
7162 7163 7788 7787 7187 7188 7813 7812 
7163 7164 7789 7788 7188 7189 7814 7813 
7164 7165 7790 7789 7189 7190 7815 7814 
7165 7166 7791 7790 7190 7191 7816 7815 
7166 7167 7792 7791 7191 7192 7817 7816 
7167 7168 7793 7792 7192 7193 7818 7817 
7168 7169 7794 7793 7193 7194 7819 7818 
7169 7170 7795 7794 7194 7195 7820 7819 
7170 7171 7796 7795 7195 7196 7821 7820 
7171 7172 7797 7796 7196 7197 7822 7821 
7172 7173 7798 7797 7197 7198 7823 7822 
7173 7174 7799 7798 7198 7199 7824 7823 
7175 7176 7801 7800 7200 7201 7826 7825 
7176 7177 7802 7801 7201 7202 7827 7826 
7177 7178 7803 7802 7202 7203 7828 7827 
7178 7179 7804 7803 7203 7204 7829 7828 
7179 7180 7805 7804 7204 7205 7830 7829 
7180 7181 7806 7805 7205 7206 7831 7830 
7181 7182 7807 7806 7206 7207 7832 7831 
7182 7183 7808 7807 7207 7208 7833 7832 
7183 7184 7809 7808 7208 7209 7834 7833 
7184 7185 7810 7809 7209 7210 7835 7834 
7185 7186 7811 7810 7210 7211 7836 7835 
7186 7187 7812 7811 7211 7212 7837 7836 
7187 7188 7813 7812 7212 7213 7838 7837 
7188 7189 7814 7813 7213 7214 7839 7838 
7189 7190 7815 7814 7214 7215 7840 7839 
7190 7191 7816 7815 7215 7216 7841 7840 
7191 7192 7817 7816 7216 7217 7842 7841 
7192 7193 7818 7817 7217 7218 7843 7842 
7193 7194 7819 7818 7218 7219 7844 7843 
7194 7195 7820 7819 7219 7220 7845 7844 
7195 7196 7821 7820 7220 7221 7846 7845 
7196 7197 7822 7821 7221 7222 7847 7846 
7197 7198 7823 7822 7222 7223 7848 7847 
7198 7199 7824 7823 7223 7224 7849 7848 
7200 7201 7826 7825 7225 7226 7851 7850 
7201 7202 7827 7826 7226 7227 7852 7851 
7202 7203 7828 7827 7227 7228 7853 7852 
7203 7204 7829 7828 7228 7229 7854 7853 
7204 7205 7830 7829 7229 7230 7855 7854 
7205 7206 7831 7830 7230 7231 7856 7855 
7206 7207 7832 7831 7231 7232 7857 7856 
7207 7208 7833 7832 7232 7233 7858 7857 
7208 7209 7834 7833 7233 7234 7859 7858 
7209 7210 7835 7834 7234 7235 7860 7859 
7210 7211 7836 7835 7235 7236 7861 7860 
7211 7212 7837 7836 7236 7237 7862 7861 
7212 7213 7838 7837 7237 7238 7863 7862 
7213 7214 7839 7838 7238 7239 7864 7863 
7214 7215 7840 7839 7239 7240 7865 7864 
7215 7216 7841 7840 7240 7241 7866 7865 
7216 7217 7842 7841 7241 7242 7867 7866 
7217 7218 7843 7842 7242 7243 7868 7867 
7218 7219 7844 7843 7243 7244 7869 7868 
7219 7220 7845 7844 7244 7245 7870 7869 
7220 7221 7846 7845 7245 7246 7871 7870 
7221 7222 7847 7846 7246 7247 7872 7871 
7222 7223 7848 7847 7247 7248 7873 7872 
7223 7224 7849 7848 7248 7249 7874 7873 
7225 7226 7851 7850 7250 7251 7876 7875 
7226 7227 7852 7851 7251 7252 7877 7876 
7227 7228 7853 7852 7252 7253 7878 7877 
7228 7229 7854 7853 7253 7254 7879 7878 
7229 7230 7855 7854 7254 7255 7880 7879 
7230 7231 7856 7855 7255 7256 7881 7880 
7231 7232 7857 7856 7256 7257 7882 7881 
7232 7233 7858 7857 7257 7258 7883 7882 
7233 7234 7859 7858 7258 7259 7884 7883 
7234 7235 7860 7859 7259 7260 7885 7884 
7235 7236 7861 7860 7260 7261 7886 7885 
7236 7237 7862 7861 7261 7262 7887 7886 
7237 7238 7863 7862 7262 7263 7888 7887 
7238 7239 7864 7863 7263 7264 7889 7888 
7239 7240 7865 7864 7264 7265 7890 7889 
7240 7241 7866 7865 7265 7266 7891 7890 
7241 7242 7867 7866 7266 7267 7892 7891 
7242 7243 7868 7867 7267 7268 7893 7892 
7243 7244 7869 7868 7268 7269 7894 7893 
7244 7245 7870 7869 7269 7270 7895 7894 
7245 7246 7871 7870 7270 7271 7896 7895 
7246 7247 7872 7871 7271 7272 7897 7896 
7247 7248 7873 7872 7272 7273 7898 7897 
7248 7249 7874 7873 7273 7274 7899 7898 
7250 7251 7876 7875 7275 7276 7901 7900 
7251 7252 7877 7876 7276 7277 7902 7901 
7252 7253 7878 7877 7277 7278 7903 7902 
7253 7254 7879 7878 7278 7279 7904 7903 
7254 7255 7880 7879 7279 7280 7905 7904 
7255 7256 7881 7880 7280 7281 7906 7905 
7256 7257 7882 7881 7281 7282 7907 7906 
7257 7258 7883 7882 7282 7283 7908 7907 
7258 7259 7884 7883 7283 7284 7909 7908 
7259 7260 7885 7884 7284 7285 7910 7909 
7260 7261 7886 7885 7285 7286 7911 7910 
7261 7262 7887 7886 7286 7287 7912 7911 
7262 7263 7888 7887 7287 7288 7913 7912 
7263 7264 7889 7888 7288 7289 7914 7913 
7264 7265 7890 7889 7289 7290 7915 7914 
7265 7266 7891 7890 7290 7291 7916 7915 
7266 7267 7892 7891 7291 7292 7917 7916 
7267 7268 7893 7892 7292 7293 7918 7917 
7268 7269 7894 7893 7293 7294 7919 7918 
7269 7270 7895 7894 7294 7295 7920 7919 
7270 7271 7896 7895 7295 7296 7921 7920 
7271 7272 7897 7896 7296 7297 7922 7921 
7272 7273 7898 7897 7297 7298 7923 7922 
7273 7274 7899 7898 7298 7299 7924 7923 
7275 7276 7901 7900 7300 7301 7926 7925 
7276 7277 7902 7901 7301 7302 7927 7926 
7277 7278 7903 7902 7302 7303 7928 7927 
7278 7279 7904 7903 7303 7304 7929 7928 
7279 7280 7905 7904 7304 7305 7930 7929 
7280 7281 7906 7905 7305 7306 7931 7930 
7281 7282 7907 7906 7306 7307 7932 7931 
7282 7283 7908 7907 7307 7308 7933 7932 
7283 7284 7909 7908 7308 7309 7934 7933 
7284 7285 7910 7909 7309 7310 7935 7934 
7285 7286 7911 7910 7310 7311 7936 7935 
7286 7287 7912 7911 7311 7312 7937 7936 
7287 7288 7913 7912 7312 7313 7938 7937 
7288 7289 7914 7913 7313 7314 7939 7938 
7289 7290 7915 7914 7314 7315 7940 7939 
7290 7291 7916 7915 7315 7316 7941 7940 
7291 7292 7917 7916 7316 7317 7942 7941 
7292 7293 7918 7917 7317 7318 7943 7942 
7293 7294 7919 7918 7318 7319 7944 7943 
7294 7295 7920 7919 7319 7320 7945 7944 
7295 7296 7921 7920 7320 7321 7946 7945 
7296 7297 7922 7921 7321 7322 7947 7946 
7297 7298 7923 7922 7322 7323 7948 7947 
7298 7299 7924 7923 7323 7324 7949 7948 
7300 7301 7926 7925 7325 7326 7951 7950 
7301 7302 7927 7926 7326 7327 7952 7951 
7302 7303 7928 7927 7327 7328 7953 7952 
7303 7304 7929 7928 7328 7329 7954 7953 
7304 7305 7930 7929 7329 7330 7955 7954 
7305 7306 7931 7930 7330 7331 7956 7955 
7306 7307 7932 7931 7331 7332 7957 7956 
7307 7308 7933 7932 7332 7333 7958 7957 
7308 7309 7934 7933 7333 7334 7959 7958 
7309 7310 7935 7934 7334 7335 7960 7959 
7310 7311 7936 7935 7335 7336 7961 7960 
7311 7312 7937 7936 7336 7337 7962 7961 
7312 7313 7938 7937 7337 7338 7963 7962 
7313 7314 7939 7938 7338 7339 7964 7963 
7314 7315 7940 7939 7339 7340 7965 7964 
7315 7316 7941 7940 7340 7341 7966 7965 
7316 7317 7942 7941 7341 7342 7967 7966 
7317 7318 7943 7942 7342 7343 7968 7967 
7318 7319 7944 7943 7343 7344 7969 7968 
7319 7320 7945 7944 7344 7345 7970 7969 
7320 7321 7946 7945 7345 7346 7971 7970 
7321 7322 7947 7946 7346 7347 7972 7971 
7322 7323 7948 7947 7347 7348 7973 7972 
7323 7324 7949 7948 7348 7349 7974 7973 
7325 7326 7951 7950 7350 7351 7976 7975 
7326 7327 7952 7951 7351 7352 7977 7976 
7327 7328 7953 7952 7352 7353 7978 7977 
7328 7329 7954 7953 7353 7354 7979 7978 
7329 7330 7955 7954 7354 7355 7980 7979 
7330 7331 7956 7955 7355 7356 7981 7980 
7331 7332 7957 7956 7356 7357 7982 7981 
7332 7333 7958 7957 7357 7358 7983 7982 
7333 7334 7959 7958 7358 7359 7984 7983 
7334 7335 7960 7959 7359 7360 7985 7984 
7335 7336 7961 7960 7360 7361 7986 7985 
7336 7337 7962 7961 7361 7362 7987 7986 
7337 7338 7963 7962 7362 7363 7988 7987 
7338 7339 7964 7963 7363 7364 7989 7988 
7339 7340 7965 7964 7364 7365 7990 7989 
7340 7341 7966 7965 7365 7366 7991 7990 
7341 7342 7967 7966 7366 7367 7992 7991 
7342 7343 7968 7967 7367 7368 7993 7992 
7343 7344 7969 7968 7368 7369 7994 7993 
7344 7345 7970 7969 7369 7370 7995 7994 
7345 7346 7971 7970 7370 7371 7996 7995 
7346 7347 7972 7971 7371 7372 7997 7996 
7347 7348 7973 7972 7372 7373 7998 7997 
7348 7349 7974 7973 7373 7374 7999 7998 
7350 7351 7976 7975 7375 7376 8001 8000 
7351 7352 7977 7976 7376 7377 8002 8001 
7352 7353 7978 7977 7377 7378 8003 8002 
7353 7354 7979 7978 7378 7379 8004 8003 
7354 7355 7980 7979 7379 7380 8005 8004 
7355 7356 7981 7980 7380 7381 8006 8005 
7356 7357 7982 7981 7381 7382 8007 8006 
7357 7358 7983 7982 7382 7383 8008 8007 
7358 7359 7984 7983 7383 7384 8009 8008 
7359 7360 7985 7984 7384 7385 8010 8009 
7360 7361 7986 7985 7385 7386 8011 8010 
7361 7362 7987 7986 7386 7387 8012 8011 
7362 7363 7988 7987 7387 7388 8013 8012 
7363 7364 7989 7988 7388 7389 8014 8013 
7364 7365 7990 7989 7389 7390 8015 8014 
7365 7366 7991 7990 7390 7391 8016 8015 
7366 7367 7992 7991 7391 7392 8017 8016 
7367 7368 7993 7992 7392 7393 8018 8017 
7368 7369 7994 7993 7393 7394 8019 8018 
7369 7370 7995 7994 7394 7395 8020 8019 
7370 7371 7996 7995 7395 7396 8021 8020 
7371 7372 7997 7996 7396 7397 8022 8021 
7372 7373 7998 7997 7397 7398 8023 8022 
7373 7374 7999 7998 7398 7399 8024 8023 
7375 7376 8001 8000 7400 7401 8026 8025 
7376 7377 8002 8001 7401 7402 8027 8026 
7377 7378 8003 8002 7402 7403 8028 8027 
7378 7379 8004 8003 7403 7404 8029 8028 
7379 7380 8005 8004 7404 7405 8030 8029 
7380 7381 8006 8005 7405 7406 8031 8030 
7381 7382 8007 8006 7406 7407 8032 8031 
7382 7383 8008 8007 7407 7408 8033 8032 
7383 7384 8009 8008 7408 7409 8034 8033 
7384 7385 8010 8009 7409 7410 8035 8034 
7385 7386 8011 8010 7410 7411 8036 8035 
7386 7387 8012 8011 7411 7412 8037 8036 
7387 7388 8013 8012 7412 7413 8038 8037 
7388 7389 8014 8013 7413 7414 8039 8038 
7389 7390 8015 8014 7414 7415 8040 8039 
7390 7391 8016 8015 7415 7416 8041 8040 
7391 7392 8017 8016 7416 7417 8042 8041 
7392 7393 8018 8017 7417 7418 8043 8042 
7393 7394 8019 8018 7418 7419 8044 8043 
7394 7395 8020 8019 7419 7420 8045 8044 
7395 7396 8021 8020 7420 7421 8046 8045 
7396 7397 8022 8021 7421 7422 8047 8046 
7397 7398 8023 8022 7422 7423 8048 8047 
7398 7399 8024 8023 7423 7424 8049 8048 
7400 7401 8026 8025 7425 7426 8051 8050 
7401 7402 8027 8026 7426 7427 8052 8051 
7402 7403 8028 8027 7427 7428 8053 8052 
7403 7404 8029 8028 7428 7429 8054 8053 
7404 7405 8030 8029 7429 7430 8055 8054 
7405 7406 8031 8030 7430 7431 8056 8055 
7406 7407 8032 8031 7431 7432 8057 8056 
7407 7408 8033 8032 7432 7433 8058 8057 
7408 7409 8034 8033 7433 7434 8059 8058 
7409 7410 8035 8034 7434 7435 8060 8059 
7410 7411 8036 8035 7435 7436 8061 8060 
7411 7412 8037 8036 7436 7437 8062 8061 
7412 7413 8038 8037 7437 7438 8063 8062 
7413 7414 8039 8038 7438 7439 8064 8063 
7414 7415 8040 8039 7439 7440 8065 8064 
7415 7416 8041 8040 7440 7441 8066 8065 
7416 7417 8042 8041 7441 7442 8067 8066 
7417 7418 8043 8042 7442 7443 8068 8067 
7418 7419 8044 8043 7443 7444 8069 8068 
7419 7420 8045 8044 7444 7445 8070 8069 
7420 7421 8046 8045 7445 7446 8071 8070 
7421 7422 8047 8046 7446 7447 8072 8071 
7422 7423 8048 8047 7447 7448 8073 8072 
7423 7424 8049 8048 7448 7449 8074 8073 
7425 7426 8051 8050 7450 7451 8076 8075 
7426 7427 8052 8051 7451 7452 8077 8076 
7427 7428 8053 8052 7452 7453 8078 8077 
7428 7429 8054 8053 7453 7454 8079 8078 
7429 7430 8055 8054 7454 7455 8080 8079 
7430 7431 8056 8055 7455 7456 8081 8080 
7431 7432 8057 8056 7456 7457 8082 8081 
7432 7433 8058 8057 7457 7458 8083 8082 
7433 7434 8059 8058 7458 7459 8084 8083 
7434 7435 8060 8059 7459 7460 8085 8084 
7435 7436 8061 8060 7460 7461 8086 8085 
7436 7437 8062 8061 7461 7462 8087 8086 
7437 7438 8063 8062 7462 7463 8088 8087 
7438 7439 8064 8063 7463 7464 8089 8088 
7439 7440 8065 8064 7464 7465 8090 8089 
7440 7441 8066 8065 7465 7466 8091 8090 
7441 7442 8067 8066 7466 7467 8092 8091 
7442 7443 8068 8067 7467 7468 8093 8092 
7443 7444 8069 8068 7468 7469 8094 8093 
7444 7445 8070 8069 7469 7470 8095 8094 
7445 7446 8071 8070 7470 7471 8096 8095 
7446 7447 8072 8071 7471 7472 8097 8096 
7447 7448 8073 8072 7472 7473 8098 8097 
7448 7449 8074 8073 7473 7474 8099 8098 
7450 7451 8076 8075 7475 7476 8101 8100 
7451 7452 8077 8076 7476 7477 8102 8101 
7452 7453 8078 8077 7477 7478 8103 8102 
7453 7454 8079 8078 7478 7479 8104 8103 
7454 7455 8080 8079 7479 7480 8105 8104 
7455 7456 8081 8080 7480 7481 8106 8105 
7456 7457 8082 8081 7481 7482 8107 8106 
7457 7458 8083 8082 7482 7483 8108 8107 
7458 7459 8084 8083 7483 7484 8109 8108 
7459 7460 8085 8084 7484 7485 8110 8109 
7460 7461 8086 8085 7485 7486 8111 8110 
7461 7462 8087 8086 7486 7487 8112 8111 
7462 7463 8088 8087 7487 7488 8113 8112 
7463 7464 8089 8088 7488 7489 8114 8113 
7464 7465 8090 8089 7489 7490 8115 8114 
7465 7466 8091 8090 7490 7491 8116 8115 
7466 7467 8092 8091 7491 7492 8117 8116 
7467 7468 8093 8092 7492 7493 8118 8117 
7468 7469 8094 8093 7493 7494 8119 8118 
7469 7470 8095 8094 7494 7495 8120 8119 
7470 7471 8096 8095 7495 7496 8121 8120 
7471 7472 8097 8096 7496 7497 8122 8121 
7472 7473 8098 8097 7497 7498 8123 8122 
7473 7474 8099 8098 7498 7499 8124 8123 
7500 7501 8126 8125 7525 7526 8151 8150 
7501 7502 8127 8126 7526 7527 8152 8151 
7502 7503 8128 8127 7527 7528 8153 8152 
7503 7504 8129 8128 7528 7529 8154 8153 
7504 7505 8130 8129 7529 7530 8155 8154 
7505 7506 8131 8130 7530 7531 8156 8155 
7506 7507 8132 8131 7531 7532 8157 8156 
7507 7508 8133 8132 7532 7533 8158 8157 
7508 7509 8134 8133 7533 7534 8159 8158 
7509 7510 8135 8134 7534 7535 8160 8159 
7510 7511 8136 8135 7535 7536 8161 8160 
7511 7512 8137 8136 7536 7537 8162 8161 
7512 7513 8138 8137 7537 7538 8163 8162 
7513 7514 8139 8138 7538 7539 8164 8163 
7514 7515 8140 8139 7539 7540 8165 8164 
7515 7516 8141 8140 7540 7541 8166 8165 
7516 7517 8142 8141 7541 7542 8167 8166 
7517 7518 8143 8142 7542 7543 8168 8167 
7518 7519 8144 8143 7543 7544 8169 8168 
7519 7520 8145 8144 7544 7545 8170 8169 
7520 7521 8146 8145 7545 7546 8171 8170 
7521 7522 8147 8146 7546 7547 8172 8171 
7522 7523 8148 8147 7547 7548 8173 8172 
7523 7524 8149 8148 7548 7549 8174 8173 
7525 7526 8151 8150 7550 7551 8176 8175 
7526 7527 8152 8151 7551 7552 8177 8176 
7527 7528 8153 8152 7552 7553 8178 8177 
7528 7529 8154 8153 7553 7554 8179 8178 
7529 7530 8155 8154 7554 7555 8180 8179 
7530 7531 8156 8155 7555 7556 8181 8180 
7531 7532 8157 8156 7556 7557 8182 8181 
7532 7533 8158 8157 7557 7558 8183 8182 
7533 7534 8159 8158 7558 7559 8184 8183 
7534 7535 8160 8159 7559 7560 8185 8184 
7535 7536 8161 8160 7560 7561 8186 8185 
7536 7537 8162 8161 7561 7562 8187 8186 
7537 7538 8163 8162 7562 7563 8188 8187 
7538 7539 8164 8163 7563 7564 8189 8188 
7539 7540 8165 8164 7564 7565 8190 8189 
7540 7541 8166 8165 7565 7566 8191 8190 
7541 7542 8167 8166 7566 7567 8192 8191 
7542 7543 8168 8167 7567 7568 8193 8192 
7543 7544 8169 8168 7568 7569 8194 8193 
7544 7545 8170 8169 7569 7570 8195 8194 
7545 7546 8171 8170 7570 7571 8196 8195 
7546 7547 8172 8171 7571 7572 8197 8196 
7547 7548 8173 8172 7572 7573 8198 8197 
7548 7549 8174 8173 7573 7574 8199 8198 
7550 7551 8176 8175 7575 7576 8201 8200 
7551 7552 8177 8176 7576 7577 8202 8201 
7552 7553 8178 8177 7577 7578 8203 8202 
7553 7554 8179 8178 7578 7579 8204 8203 
7554 7555 8180 8179 7579 7580 8205 8204 
7555 7556 8181 8180 7580 7581 8206 8205 
7556 7557 8182 8181 7581 7582 8207 8206 
7557 7558 8183 8182 7582 7583 8208 8207 
7558 7559 8184 8183 7583 7584 8209 8208 
7559 7560 8185 8184 7584 7585 8210 8209 
7560 7561 8186 8185 7585 7586 8211 8210 
7561 7562 8187 8186 7586 7587 8212 8211 
7562 7563 8188 8187 7587 7588 8213 8212 
7563 7564 8189 8188 7588 7589 8214 8213 
7564 7565 8190 8189 7589 7590 8215 8214 
7565 7566 8191 8190 7590 7591 8216 8215 
7566 7567 8192 8191 7591 7592 8217 8216 
7567 7568 8193 8192 7592 7593 8218 8217 
7568 7569 8194 8193 7593 7594 8219 8218 
7569 7570 8195 8194 7594 7595 8220 8219 
7570 7571 8196 8195 7595 7596 8221 8220 
7571 7572 8197 8196 7596 7597 8222 8221 
7572 7573 8198 8197 7597 7598 8223 8222 
7573 7574 8199 8198 7598 7599 8224 8223 
7575 7576 8201 8200 7600 7601 8226 8225 
7576 7577 8202 8201 7601 7602 8227 8226 
7577 7578 8203 8202 7602 7603 8228 8227 
7578 7579 8204 8203 7603 7604 8229 8228 
7579 7580 8205 8204 7604 7605 8230 8229 
7580 7581 8206 8205 7605 7606 8231 8230 
7581 7582 8207 8206 7606 7607 8232 8231 
7582 7583 8208 8207 7607 7608 8233 8232 
7583 7584 8209 8208 7608 7609 8234 8233 
7584 7585 8210 8209 7609 7610 8235 8234 
7585 7586 8211 8210 7610 7611 8236 8235 
7586 7587 8212 8211 7611 7612 8237 8236 
7587 7588 8213 8212 7612 7613 8238 8237 
7588 7589 8214 8213 7613 7614 8239 8238 
7589 7590 8215 8214 7614 7615 8240 8239 
7590 7591 8216 8215 7615 7616 8241 8240 
7591 7592 8217 8216 7616 7617 8242 8241 
7592 7593 8218 8217 7617 7618 8243 8242 
7593 7594 8219 8218 7618 7619 8244 8243 
7594 7595 8220 8219 7619 7620 8245 8244 
7595 7596 8221 8220 7620 7621 8246 8245 
7596 7597 8222 8221 7621 7622 8247 8246 
7597 7598 8223 8222 7622 7623 8248 8247 
7598 7599 8224 8223 7623 7624 8249 8248 
7600 7601 8226 8225 7625 7626 8251 8250 
7601 7602 8227 8226 7626 7627 8252 8251 
7602 7603 8228 8227 7627 7628 8253 8252 
7603 7604 8229 8228 7628 7629 8254 8253 
7604 7605 8230 8229 7629 7630 8255 8254 
7605 7606 8231 8230 7630 7631 8256 8255 
7606 7607 8232 8231 7631 7632 8257 8256 
7607 7608 8233 8232 7632 7633 8258 8257 
7608 7609 8234 8233 7633 7634 8259 8258 
7609 7610 8235 8234 7634 7635 8260 8259 
7610 7611 8236 8235 7635 7636 8261 8260 
7611 7612 8237 8236 7636 7637 8262 8261 
7612 7613 8238 8237 7637 7638 8263 8262 
7613 7614 8239 8238 7638 7639 8264 8263 
7614 7615 8240 8239 7639 7640 8265 8264 
7615 7616 8241 8240 7640 7641 8266 8265 
7616 7617 8242 8241 7641 7642 8267 8266 
7617 7618 8243 8242 7642 7643 8268 8267 
7618 7619 8244 8243 7643 7644 8269 8268 
7619 7620 8245 8244 7644 7645 8270 8269 
7620 7621 8246 8245 7645 7646 8271 8270 
7621 7622 8247 8246 7646 7647 8272 8271 
7622 7623 8248 8247 7647 7648 8273 8272 
7623 7624 8249 8248 7648 7649 8274 8273 
7625 7626 8251 8250 7650 7651 8276 8275 
7626 7627 8252 8251 7651 7652 8277 8276 
7627 7628 8253 8252 7652 7653 8278 8277 
7628 7629 8254 8253 7653 7654 8279 8278 
7629 7630 8255 8254 7654 7655 8280 8279 
7630 7631 8256 8255 7655 7656 8281 8280 
7631 7632 8257 8256 7656 7657 8282 8281 
7632 7633 8258 8257 7657 7658 8283 8282 
7633 7634 8259 8258 7658 7659 8284 8283 
7634 7635 8260 8259 7659 7660 8285 8284 
7635 7636 8261 8260 7660 7661 8286 8285 
7636 7637 8262 8261 7661 7662 8287 8286 
7637 7638 8263 8262 7662 7663 8288 8287 
7638 7639 8264 8263 7663 7664 8289 8288 
7639 7640 8265 8264 7664 7665 8290 8289 
7640 7641 8266 8265 7665 7666 8291 8290 
7641 7642 8267 8266 7666 7667 8292 8291 
7642 7643 8268 8267 7667 7668 8293 8292 
7643 7644 8269 8268 7668 7669 8294 8293 
7644 7645 8270 8269 7669 7670 8295 8294 
7645 7646 8271 8270 7670 7671 8296 8295 
7646 7647 8272 8271 7671 7672 8297 8296 
7647 7648 8273 8272 7672 7673 8298 8297 
7648 7649 8274 8273 7673 7674 8299 8298 
7650 7651 8276 8275 7675 7676 8301 8300 
7651 7652 8277 8276 7676 7677 8302 8301 
7652 7653 8278 8277 7677 7678 8303 8302 
7653 7654 8279 8278 7678 7679 8304 8303 
7654 7655 8280 8279 7679 7680 8305 8304 
7655 7656 8281 8280 7680 7681 8306 8305 
7656 7657 8282 8281 7681 7682 8307 8306 
7657 7658 8283 8282 7682 7683 8308 8307 
7658 7659 8284 8283 7683 7684 8309 8308 
7659 7660 8285 8284 7684 7685 8310 8309 
7660 7661 8286 8285 7685 7686 8311 8310 
7661 7662 8287 8286 7686 7687 8312 8311 
7662 7663 8288 8287 7687 7688 8313 8312 
7663 7664 8289 8288 7688 7689 8314 8313 
7664 7665 8290 8289 7689 7690 8315 8314 
7665 7666 8291 8290 7690 7691 8316 8315 
7666 7667 8292 8291 7691 7692 8317 8316 
7667 7668 8293 8292 7692 7693 8318 8317 
7668 7669 8294 8293 7693 7694 8319 8318 
7669 7670 8295 8294 7694 7695 8320 8319 
7670 7671 8296 8295 7695 7696 8321 8320 
7671 7672 8297 8296 7696 7697 8322 8321 
7672 7673 8298 8297 7697 7698 8323 8322 
7673 7674 8299 8298 7698 7699 8324 8323 
7675 7676 8301 8300 7700 7701 8326 8325 
7676 7677 8302 8301 7701 7702 8327 8326 
7677 7678 8303 8302 7702 7703 8328 8327 
7678 7679 8304 8303 7703 7704 8329 8328 
7679 7680 8305 8304 7704 7705 8330 8329 
7680 7681 8306 8305 7705 7706 8331 8330 
7681 7682 8307 8306 7706 7707 8332 8331 
7682 7683 8308 8307 7707 7708 8333 8332 
7683 7684 8309 8308 7708 7709 8334 8333 
7684 7685 8310 8309 7709 7710 8335 8334 
7685 7686 8311 8310 7710 7711 8336 8335 
7686 7687 8312 8311 7711 7712 8337 8336 
7687 7688 8313 8312 7712 7713 8338 8337 
7688 7689 8314 8313 7713 7714 8339 8338 
7689 7690 8315 8314 7714 7715 8340 8339 
7690 7691 8316 8315 7715 7716 8341 8340 
7691 7692 8317 8316 7716 7717 8342 8341 
7692 7693 8318 8317 7717 7718 8343 8342 
7693 7694 8319 8318 7718 7719 8344 8343 
7694 7695 8320 8319 7719 7720 8345 8344 
7695 7696 8321 8320 7720 7721 8346 8345 
7696 7697 8322 8321 7721 7722 8347 8346 
7697 7698 8323 8322 7722 7723 8348 8347 
7698 7699 8324 8323 7723 7724 8349 8348 
7700 7701 8326 8325 7725 7726 8351 8350 
7701 7702 8327 8326 7726 7727 8352 8351 
7702 7703 8328 8327 7727 7728 8353 8352 
7703 7704 8329 8328 7728 7729 8354 8353 
7704 7705 8330 8329 7729 7730 8355 8354 
7705 7706 8331 8330 7730 7731 8356 8355 
7706 7707 8332 8331 7731 7732 8357 8356 
7707 7708 8333 8332 7732 7733 8358 8357 
7708 7709 8334 8333 7733 7734 8359 8358 
7709 7710 8335 8334 7734 7735 8360 8359 
7710 7711 8336 8335 7735 7736 8361 8360 
7711 7712 8337 8336 7736 7737 8362 8361 
7712 7713 8338 8337 7737 7738 8363 8362 
7713 7714 8339 8338 7738 7739 8364 8363 
7714 7715 8340 8339 7739 7740 8365 8364 
7715 7716 8341 8340 7740 7741 8366 8365 
7716 7717 8342 8341 7741 7742 8367 8366 
7717 7718 8343 8342 7742 7743 8368 8367 
7718 7719 8344 8343 7743 7744 8369 8368 
7719 7720 8345 8344 7744 7745 8370 8369 
7720 7721 8346 8345 7745 7746 8371 8370 
7721 7722 8347 8346 7746 7747 8372 8371 
7722 7723 8348 8347 7747 7748 8373 8372 
7723 7724 8349 8348 7748 7749 8374 8373 
7725 7726 8351 8350 7750 7751 8376 8375 
7726 7727 8352 8351 7751 7752 8377 8376 
7727 7728 8353 8352 7752 7753 8378 8377 
7728 7729 8354 8353 7753 7754 8379 8378 
7729 7730 8355 8354 7754 7755 8380 8379 
7730 7731 8356 8355 7755 7756 8381 8380 
7731 7732 8357 8356 7756 7757 8382 8381 
7732 7733 8358 8357 7757 7758 8383 8382 
7733 7734 8359 8358 7758 7759 8384 8383 
7734 7735 8360 8359 7759 7760 8385 8384 
7735 7736 8361 8360 7760 7761 8386 8385 
7736 7737 8362 8361 7761 7762 8387 8386 
7737 7738 8363 8362 7762 7763 8388 8387 
7738 7739 8364 8363 7763 7764 8389 8388 
7739 7740 8365 8364 7764 7765 8390 8389 
7740 7741 8366 8365 7765 7766 8391 8390 
7741 7742 8367 8366 7766 7767 8392 8391 
7742 7743 8368 8367 7767 7768 8393 8392 
7743 7744 8369 8368 7768 7769 8394 8393 
7744 7745 8370 8369 7769 7770 8395 8394 
7745 7746 8371 8370 7770 7771 8396 8395 
7746 7747 8372 8371 7771 7772 8397 8396 
7747 7748 8373 8372 7772 7773 8398 8397 
7748 7749 8374 8373 7773 7774 8399 8398 
7750 7751 8376 8375 7775 7776 8401 8400 
7751 7752 8377 8376 7776 7777 8402 8401 
7752 7753 8378 8377 7777 7778 8403 8402 
7753 7754 8379 8378 7778 7779 8404 8403 
7754 7755 8380 8379 7779 7780 8405 8404 
7755 7756 8381 8380 7780 7781 8406 8405 
7756 7757 8382 8381 7781 7782 8407 8406 
7757 7758 8383 8382 7782 7783 8408 8407 
7758 7759 8384 8383 7783 7784 8409 8408 
7759 7760 8385 8384 7784 7785 8410 8409 
7760 7761 8386 8385 7785 7786 8411 8410 
7761 7762 8387 8386 7786 7787 8412 8411 
7762 7763 8388 8387 7787 7788 8413 8412 
7763 7764 8389 8388 7788 7789 8414 8413 
7764 7765 8390 8389 7789 7790 8415 8414 
7765 7766 8391 8390 7790 7791 8416 8415 
7766 7767 8392 8391 7791 7792 8417 8416 
7767 7768 8393 8392 7792 7793 8418 8417 
7768 7769 8394 8393 7793 7794 8419 8418 
7769 7770 8395 8394 7794 7795 8420 8419 
7770 7771 8396 8395 7795 7796 8421 8420 
7771 7772 8397 8396 7796 7797 8422 8421 
7772 7773 8398 8397 7797 7798 8423 8422 
7773 7774 8399 8398 7798 7799 8424 8423 
7775 7776 8401 8400 7800 7801 8426 8425 
7776 7777 8402 8401 7801 7802 8427 8426 
7777 7778 8403 8402 7802 7803 8428 8427 
7778 7779 8404 8403 7803 7804 8429 8428 
7779 7780 8405 8404 7804 7805 8430 8429 
7780 7781 8406 8405 7805 7806 8431 8430 
7781 7782 8407 8406 7806 7807 8432 8431 
7782 7783 8408 8407 7807 7808 8433 8432 
7783 7784 8409 8408 7808 7809 8434 8433 
7784 7785 8410 8409 7809 7810 8435 8434 
7785 7786 8411 8410 7810 7811 8436 8435 
7786 7787 8412 8411 7811 7812 8437 8436 
7787 7788 8413 8412 7812 7813 8438 8437 
7788 7789 8414 8413 7813 7814 8439 8438 
7789 7790 8415 8414 7814 7815 8440 8439 
7790 7791 8416 8415 7815 7816 8441 8440 
7791 7792 8417 8416 7816 7817 8442 8441 
7792 7793 8418 8417 7817 7818 8443 8442 
7793 7794 8419 8418 7818 7819 8444 8443 
7794 7795 8420 8419 7819 7820 8445 8444 
7795 7796 8421 8420 7820 7821 8446 8445 
7796 7797 8422 8421 7821 7822 8447 8446 
7797 7798 8423 8422 7822 7823 8448 8447 
7798 7799 8424 8423 7823 7824 8449 8448 
7800 7801 8426 8425 7825 7826 8451 8450 
7801 7802 8427 8426 7826 7827 8452 8451 
7802 7803 8428 8427 7827 7828 8453 8452 
7803 7804 8429 8428 7828 7829 8454 8453 
7804 7805 8430 8429 7829 7830 8455 8454 
7805 7806 8431 8430 7830 7831 8456 8455 
7806 7807 8432 8431 7831 7832 8457 8456 
7807 7808 8433 8432 7832 7833 8458 8457 
7808 7809 8434 8433 7833 7834 8459 8458 
7809 7810 8435 8434 7834 7835 8460 8459 
7810 7811 8436 8435 7835 7836 8461 8460 
7811 7812 8437 8436 7836 7837 8462 8461 
7812 7813 8438 8437 7837 7838 8463 8462 
7813 7814 8439 8438 7838 7839 8464 8463 
7814 7815 8440 8439 7839 7840 8465 8464 
7815 7816 8441 8440 7840 7841 8466 8465 
7816 7817 8442 8441 7841 7842 8467 8466 
7817 7818 8443 8442 7842 7843 8468 8467 
7818 7819 8444 8443 7843 7844 8469 8468 
7819 7820 8445 8444 7844 7845 8470 8469 
7820 7821 8446 8445 7845 7846 8471 8470 
7821 7822 8447 8446 7846 7847 8472 8471 
7822 7823 8448 8447 7847 7848 8473 8472 
7823 7824 8449 8448 7848 7849 8474 8473 
7825 7826 8451 8450 7850 7851 8476 8475 
7826 7827 8452 8451 7851 7852 8477 8476 
7827 7828 8453 8452 7852 7853 8478 8477 
7828 7829 8454 8453 7853 7854 8479 8478 
7829 7830 8455 8454 7854 7855 8480 8479 
7830 7831 8456 8455 7855 7856 8481 8480 
7831 7832 8457 8456 7856 7857 8482 8481 
7832 7833 8458 8457 7857 7858 8483 8482 
7833 7834 8459 8458 7858 7859 8484 8483 
7834 7835 8460 8459 7859 7860 8485 8484 
7835 7836 8461 8460 7860 7861 8486 8485 
7836 7837 8462 8461 7861 7862 8487 8486 
7837 7838 8463 8462 7862 7863 8488 8487 
7838 7839 8464 8463 7863 7864 8489 8488 
7839 7840 8465 8464 7864 7865 8490 8489 
7840 7841 8466 8465 7865 7866 8491 8490 
7841 7842 8467 8466 7866 7867 8492 8491 
7842 7843 8468 8467 7867 7868 8493 8492 
7843 7844 8469 8468 7868 7869 8494 8493 
7844 7845 8470 8469 7869 7870 8495 8494 
7845 7846 8471 8470 7870 7871 8496 8495 
7846 7847 8472 8471 7871 7872 8497 8496 
7847 7848 8473 8472 7872 7873 8498 8497 
7848 7849 8474 8473 7873 7874 8499 8498 
7850 7851 8476 8475 7875 7876 8501 8500 
7851 7852 8477 8476 7876 7877 8502 8501 
7852 7853 8478 8477 7877 7878 8503 8502 
7853 7854 8479 8478 7878 7879 8504 8503 
7854 7855 8480 8479 7879 7880 8505 8504 
7855 7856 8481 8480 7880 7881 8506 8505 
7856 7857 8482 8481 7881 7882 8507 8506 
7857 7858 8483 8482 7882 7883 8508 8507 
7858 7859 8484 8483 7883 7884 8509 8508 
7859 7860 8485 8484 7884 7885 8510 8509 
7860 7861 8486 8485 7885 7886 8511 8510 
7861 7862 8487 8486 7886 7887 8512 8511 
7862 7863 8488 8487 7887 7888 8513 8512 
7863 7864 8489 8488 7888 7889 8514 8513 
7864 7865 8490 8489 7889 7890 8515 8514 
7865 7866 8491 8490 7890 7891 8516 8515 
7866 7867 8492 8491 7891 7892 8517 8516 
7867 7868 8493 8492 7892 7893 8518 8517 
7868 7869 8494 8493 7893 7894 8519 8518 
7869 7870 8495 8494 7894 7895 8520 8519 
7870 7871 8496 8495 7895 7896 8521 8520 
7871 7872 8497 8496 7896 7897 8522 8521 
7872 7873 8498 8497 7897 7898 8523 8522 
7873 7874 8499 8498 7898 7899 8524 8523 
7875 7876 8501 8500 7900 7901 8526 8525 
7876 7877 8502 8501 7901 7902 8527 8526 
7877 7878 8503 8502 7902 7903 8528 8527 
7878 7879 8504 8503 7903 7904 8529 8528 
7879 7880 8505 8504 7904 7905 8530 8529 
7880 7881 8506 8505 7905 7906 8531 8530 
7881 7882 8507 8506 7906 7907 8532 8531 
7882 7883 8508 8507 7907 7908 8533 8532 
7883 7884 8509 8508 7908 7909 8534 8533 
7884 7885 8510 8509 7909 7910 8535 8534 
7885 7886 8511 8510 7910 7911 8536 8535 
7886 7887 8512 8511 7911 7912 8537 8536 
7887 7888 8513 8512 7912 7913 8538 8537 
7888 7889 8514 8513 7913 7914 8539 8538 
7889 7890 8515 8514 7914 7915 8540 8539 
7890 7891 8516 8515 7915 7916 8541 8540 
7891 7892 8517 8516 7916 7917 8542 8541 
7892 7893 8518 8517 7917 7918 8543 8542 
7893 7894 8519 8518 7918 7919 8544 8543 
7894 7895 8520 8519 7919 7920 8545 8544 
7895 7896 8521 8520 7920 7921 8546 8545 
7896 7897 8522 8521 7921 7922 8547 8546 
7897 7898 8523 8522 7922 7923 8548 8547 
7898 7899 8524 8523 7923 7924 8549 8548 
7900 7901 8526 8525 7925 7926 8551 8550 
7901 7902 8527 8526 7926 7927 8552 8551 
7902 7903 8528 8527 7927 7928 8553 8552 
7903 7904 8529 8528 7928 7929 8554 8553 
7904 7905 8530 8529 7929 7930 8555 8554 
7905 7906 8531 8530 7930 7931 8556 8555 
7906 7907 8532 8531 7931 7932 8557 8556 
7907 7908 8533 8532 7932 7933 8558 8557 
7908 7909 8534 8533 7933 7934 8559 8558 
7909 7910 8535 8534 7934 7935 8560 8559 
7910 7911 8536 8535 7935 7936 8561 8560 
7911 7912 8537 8536 7936 7937 8562 8561 
7912 7913 8538 8537 7937 7938 8563 8562 
7913 7914 8539 8538 7938 7939 8564 8563 
7914 7915 8540 8539 7939 7940 8565 8564 
7915 7916 8541 8540 7940 7941 8566 8565 
7916 7917 8542 8541 7941 7942 8567 8566 
7917 7918 8543 8542 7942 7943 8568 8567 
7918 7919 8544 8543 7943 7944 8569 8568 
7919 7920 8545 8544 7944 7945 8570 8569 
7920 7921 8546 8545 7945 7946 8571 8570 
7921 7922 8547 8546 7946 7947 8572 8571 
7922 7923 8548 8547 7947 7948 8573 8572 
7923 7924 8549 8548 7948 7949 8574 8573 
7925 7926 8551 8550 7950 7951 8576 8575 
7926 7927 8552 8551 7951 7952 8577 8576 
7927 7928 8553 8552 7952 7953 8578 8577 
7928 7929 8554 8553 7953 7954 8579 8578 
7929 7930 8555 8554 7954 7955 8580 8579 
7930 7931 8556 8555 7955 7956 8581 8580 
7931 7932 8557 8556 7956 7957 8582 8581 
7932 7933 8558 8557 7957 7958 8583 8582 
7933 7934 8559 8558 7958 7959 8584 8583 
7934 7935 8560 8559 7959 7960 8585 8584 
7935 7936 8561 8560 7960 7961 8586 8585 
7936 7937 8562 8561 7961 7962 8587 8586 
7937 7938 8563 8562 7962 7963 8588 8587 
7938 7939 8564 8563 7963 7964 8589 8588 
7939 7940 8565 8564 7964 7965 8590 8589 
7940 7941 8566 8565 7965 7966 8591 8590 
7941 7942 8567 8566 7966 7967 8592 8591 
7942 7943 8568 8567 7967 7968 8593 8592 
7943 7944 8569 8568 7968 7969 8594 8593 
7944 7945 8570 8569 7969 7970 8595 8594 
7945 7946 8571 8570 7970 7971 8596 8595 
7946 7947 8572 8571 7971 7972 8597 8596 
7947 7948 8573 8572 7972 7973 8598 8597 
7948 7949 8574 8573 7973 7974 8599 8598 
7950 7951 8576 8575 7975 7976 8601 8600 
7951 7952 8577 8576 7976 7977 8602 8601 
7952 7953 8578 8577 7977 7978 8603 8602 
7953 7954 8579 8578 7978 7979 8604 8603 
7954 7955 8580 8579 7979 7980 8605 8604 
7955 7956 8581 8580 7980 7981 8606 8605 
7956 7957 8582 8581 7981 7982 8607 8606 
7957 7958 8583 8582 7982 7983 8608 8607 
7958 7959 8584 8583 7983 7984 8609 8608 
7959 7960 8585 8584 7984 7985 8610 8609 
7960 7961 8586 8585 7985 7986 8611 8610 
7961 7962 8587 8586 7986 7987 8612 8611 
7962 7963 8588 8587 7987 7988 8613 8612 
7963 7964 8589 8588 7988 7989 8614 8613 
7964 7965 8590 8589 7989 7990 8615 8614 
7965 7966 8591 8590 7990 7991 8616 8615 
7966 7967 8592 8591 7991 7992 8617 8616 
7967 7968 8593 8592 7992 7993 8618 8617 
7968 7969 8594 8593 7993 7994 8619 8618 
7969 7970 8595 8594 7994 7995 8620 8619 
7970 7971 8596 8595 7995 7996 8621 8620 
7971 7972 8597 8596 7996 7997 8622 8621 
7972 7973 8598 8597 7997 7998 8623 8622 
7973 7974 8599 8598 7998 7999 8624 8623 
7975 7976 8601 8600 8000 8001 8626 8625 
7976 7977 8602 8601 8001 8002 8627 8626 
7977 7978 8603 8602 8002 8003 8628 8627 
7978 7979 8604 8603 8003 8004 8629 8628 
7979 7980 8605 8604 8004 8005 8630 8629 
7980 7981 8606 8605 8005 8006 8631 8630 
7981 7982 8607 8606 8006 8007 8632 8631 
7982 7983 8608 8607 8007 8008 8633 8632 
7983 7984 8609 8608 8008 8009 8634 8633 
7984 7985 8610 8609 8009 8010 8635 8634 
7985 7986 8611 8610 8010 8011 8636 8635 
7986 7987 8612 8611 8011 8012 8637 8636 
7987 7988 8613 8612 8012 8013 8638 8637 
7988 7989 8614 8613 8013 8014 8639 8638 
7989 7990 8615 8614 8014 8015 8640 8639 
7990 7991 8616 8615 8015 8016 8641 8640 
7991 7992 8617 8616 8016 8017 8642 8641 
7992 7993 8618 8617 8017 8018 8643 8642 
7993 7994 8619 8618 8018 8019 8644 8643 
7994 7995 8620 8619 8019 8020 8645 8644 
7995 7996 8621 8620 8020 8021 8646 8645 
7996 7997 8622 8621 8021 8022 8647 8646 
7997 7998 8623 8622 8022 8023 8648 8647 
7998 7999 8624 8623 8023 8024 8649 8648 
8000 8001 8626 8625 8025 8026 8651 8650 
8001 8002 8627 8626 8026 8027 8652 8651 
8002 8003 8628 8627 8027 8028 8653 8652 
8003 8004 8629 8628 8028 8029 8654 8653 
8004 8005 8630 8629 8029 8030 8655 8654 
8005 8006 8631 8630 8030 8031 8656 8655 
8006 8007 8632 8631 8031 8032 8657 8656 
8007 8008 8633 8632 8032 8033 8658 8657 
8008 8009 8634 8633 8033 8034 8659 8658 
8009 8010 8635 8634 8034 8035 8660 8659 
8010 8011 8636 8635 8035 8036 8661 8660 
8011 8012 8637 8636 8036 8037 8662 8661 
8012 8013 8638 8637 8037 8038 8663 8662 
8013 8014 8639 8638 8038 8039 8664 8663 
8014 8015 8640 8639 8039 8040 8665 8664 
8015 8016 8641 8640 8040 8041 8666 8665 
8016 8017 8642 8641 8041 8042 8667 8666 
8017 8018 8643 8642 8042 8043 8668 8667 
8018 8019 8644 8643 8043 8044 8669 8668 
8019 8020 8645 8644 8044 8045 8670 8669 
8020 8021 8646 8645 8045 8046 8671 8670 
8021 8022 8647 8646 8046 8047 8672 8671 
8022 8023 8648 8647 8047 8048 8673 8672 
8023 8024 8649 8648 8048 8049 8674 8673 
8025 8026 8651 8650 8050 8051 8676 8675 
8026 8027 8652 8651 8051 8052 8677 8676 
8027 8028 8653 8652 8052 8053 8678 8677 
8028 8029 8654 8653 8053 8054 8679 8678 
8029 8030 8655 8654 8054 8055 8680 8679 
8030 8031 8656 8655 8055 8056 8681 8680 
8031 8032 8657 8656 8056 8057 8682 8681 
8032 8033 8658 8657 8057 8058 8683 8682 
8033 8034 8659 8658 8058 8059 8684 8683 
8034 8035 8660 8659 8059 8060 8685 8684 
8035 8036 8661 8660 8060 8061 8686 8685 
8036 8037 8662 8661 8061 8062 8687 8686 
8037 8038 8663 8662 8062 8063 8688 8687 
8038 8039 8664 8663 8063 8064 8689 8688 
8039 8040 8665 8664 8064 8065 8690 8689 
8040 8041 8666 8665 8065 8066 8691 8690 
8041 8042 8667 8666 8066 8067 8692 8691 
8042 8043 8668 8667 8067 8068 8693 8692 
8043 8044 8669 8668 8068 8069 8694 8693 
8044 8045 8670 8669 8069 8070 8695 8694 
8045 8046 8671 8670 8070 8071 8696 8695 
8046 8047 8672 8671 8071 8072 8697 8696 
8047 8048 8673 8672 8072 8073 8698 8697 
8048 8049 8674 8673 8073 8074 8699 8698 
8050 8051 8676 8675 8075 8076 8701 8700 
8051 8052 8677 8676 8076 8077 8702 8701 
8052 8053 8678 8677 8077 8078 8703 8702 
8053 8054 8679 8678 8078 8079 8704 8703 
8054 8055 8680 8679 8079 8080 8705 8704 
8055 8056 8681 8680 8080 8081 8706 8705 
8056 8057 8682 8681 8081 8082 8707 8706 
8057 8058 8683 8682 8082 8083 8708 8707 
8058 8059 8684 8683 8083 8084 8709 8708 
8059 8060 8685 8684 8084 8085 8710 8709 
8060 8061 8686 8685 8085 8086 8711 8710 
8061 8062 8687 8686 8086 8087 8712 8711 
8062 8063 8688 8687 8087 8088 8713 8712 
8063 8064 8689 8688 8088 8089 8714 8713 
8064 8065 8690 8689 8089 8090 8715 8714 
8065 8066 8691 8690 8090 8091 8716 8715 
8066 8067 8692 8691 8091 8092 8717 8716 
8067 8068 8693 8692 8092 8093 8718 8717 
8068 8069 8694 8693 8093 8094 8719 8718 
8069 8070 8695 8694 8094 8095 8720 8719 
8070 8071 8696 8695 8095 8096 8721 8720 
8071 8072 8697 8696 8096 8097 8722 8721 
8072 8073 8698 8697 8097 8098 8723 8722 
8073 8074 8699 8698 8098 8099 8724 8723 
8075 8076 8701 8700 8100 8101 8726 8725 
8076 8077 8702 8701 8101 8102 8727 8726 
8077 8078 8703 8702 8102 8103 8728 8727 
8078 8079 8704 8703 8103 8104 8729 8728 
8079 8080 8705 8704 8104 8105 8730 8729 
8080 8081 8706 8705 8105 8106 8731 8730 
8081 8082 8707 8706 8106 8107 8732 8731 
8082 8083 8708 8707 8107 8108 8733 8732 
8083 8084 8709 8708 8108 8109 8734 8733 
8084 8085 8710 8709 8109 8110 8735 8734 
8085 8086 8711 8710 8110 8111 8736 8735 
8086 8087 8712 8711 8111 8112 8737 8736 
8087 8088 8713 8712 8112 8113 8738 8737 
8088 8089 8714 8713 8113 8114 8739 8738 
8089 8090 8715 8714 8114 8115 8740 8739 
8090 8091 8716 8715 8115 8116 8741 8740 
8091 8092 8717 8716 8116 8117 8742 8741 
8092 8093 8718 8717 8117 8118 8743 8742 
8093 8094 8719 8718 8118 8119 8744 8743 
8094 8095 8720 8719 8119 8120 8745 8744 
8095 8096 8721 8720 8120 8121 8746 8745 
8096 8097 8722 8721 8121 8122 8747 8746 
8097 8098 8723 8722 8122 8123 8748 8747 
8098 8099 8724 8723 8123 8124 8749 8748 
8125 8126 8751 8750 8150 8151 8776 8775 
8126 8127 8752 8751 8151 8152 8777 8776 
8127 8128 8753 8752 8152 8153 8778 8777 
8128 8129 8754 8753 8153 8154 8779 8778 
8129 8130 8755 8754 8154 8155 8780 8779 
8130 8131 8756 8755 8155 8156 8781 8780 
8131 8132 8757 8756 8156 8157 8782 8781 
8132 8133 8758 8757 8157 8158 8783 8782 
8133 8134 8759 8758 8158 8159 8784 8783 
8134 8135 8760 8759 8159 8160 8785 8784 
8135 8136 8761 8760 8160 8161 8786 8785 
8136 8137 8762 8761 8161 8162 8787 8786 
8137 8138 8763 8762 8162 8163 8788 8787 
8138 8139 8764 8763 8163 8164 8789 8788 
8139 8140 8765 8764 8164 8165 8790 8789 
8140 8141 8766 8765 8165 8166 8791 8790 
8141 8142 8767 8766 8166 8167 8792 8791 
8142 8143 8768 8767 8167 8168 8793 8792 
8143 8144 8769 8768 8168 8169 8794 8793 
8144 8145 8770 8769 8169 8170 8795 8794 
8145 8146 8771 8770 8170 8171 8796 8795 
8146 8147 8772 8771 8171 8172 8797 8796 
8147 8148 8773 8772 8172 8173 8798 8797 
8148 8149 8774 8773 8173 8174 8799 8798 
8150 8151 8776 8775 8175 8176 8801 8800 
8151 8152 8777 8776 8176 8177 8802 8801 
8152 8153 8778 8777 8177 8178 8803 8802 
8153 8154 8779 8778 8178 8179 8804 8803 
8154 8155 8780 8779 8179 8180 8805 8804 
8155 8156 8781 8780 8180 8181 8806 8805 
8156 8157 8782 8781 8181 8182 8807 8806 
8157 8158 8783 8782 8182 8183 8808 8807 
8158 8159 8784 8783 8183 8184 8809 8808 
8159 8160 8785 8784 8184 8185 8810 8809 
8160 8161 8786 8785 8185 8186 8811 8810 
8161 8162 8787 8786 8186 8187 8812 8811 
8162 8163 8788 8787 8187 8188 8813 8812 
8163 8164 8789 8788 8188 8189 8814 8813 
8164 8165 8790 8789 8189 8190 8815 8814 
8165 8166 8791 8790 8190 8191 8816 8815 
8166 8167 8792 8791 8191 8192 8817 8816 
8167 8168 8793 8792 8192 8193 8818 8817 
8168 8169 8794 8793 8193 8194 8819 8818 
8169 8170 8795 8794 8194 8195 8820 8819 
8170 8171 8796 8795 8195 8196 8821 8820 
8171 8172 8797 8796 8196 8197 8822 8821 
8172 8173 8798 8797 8197 8198 8823 8822 
8173 8174 8799 8798 8198 8199 8824 8823 
8175 8176 8801 8800 8200 8201 8826 8825 
8176 8177 8802 8801 8201 8202 8827 8826 
8177 8178 8803 8802 8202 8203 8828 8827 
8178 8179 8804 8803 8203 8204 8829 8828 
8179 8180 8805 8804 8204 8205 8830 8829 
8180 8181 8806 8805 8205 8206 8831 8830 
8181 8182 8807 8806 8206 8207 8832 8831 
8182 8183 8808 8807 8207 8208 8833 8832 
8183 8184 8809 8808 8208 8209 8834 8833 
8184 8185 8810 8809 8209 8210 8835 8834 
8185 8186 8811 8810 8210 8211 8836 8835 
8186 8187 8812 8811 8211 8212 8837 8836 
8187 8188 8813 8812 8212 8213 8838 8837 
8188 8189 8814 8813 8213 8214 8839 8838 
8189 8190 8815 8814 8214 8215 8840 8839 
8190 8191 8816 8815 8215 8216 8841 8840 
8191 8192 8817 8816 8216 8217 8842 8841 
8192 8193 8818 8817 8217 8218 8843 8842 
8193 8194 8819 8818 8218 8219 8844 8843 
8194 8195 8820 8819 8219 8220 8845 8844 
8195 8196 8821 8820 8220 8221 8846 8845 
8196 8197 8822 8821 8221 8222 8847 8846 
8197 8198 8823 8822 8222 8223 8848 8847 
8198 8199 8824 8823 8223 8224 8849 8848 
8200 8201 8826 8825 8225 8226 8851 8850 
8201 8202 8827 8826 8226 8227 8852 8851 
8202 8203 8828 8827 8227 8228 8853 8852 
8203 8204 8829 8828 8228 8229 8854 8853 
8204 8205 8830 8829 8229 8230 8855 8854 
8205 8206 8831 8830 8230 8231 8856 8855 
8206 8207 8832 8831 8231 8232 8857 8856 
8207 8208 8833 8832 8232 8233 8858 8857 
8208 8209 8834 8833 8233 8234 8859 8858 
8209 8210 8835 8834 8234 8235 8860 8859 
8210 8211 8836 8835 8235 8236 8861 8860 
8211 8212 8837 8836 8236 8237 8862 8861 
8212 8213 8838 8837 8237 8238 8863 8862 
8213 8214 8839 8838 8238 8239 8864 8863 
8214 8215 8840 8839 8239 8240 8865 8864 
8215 8216 8841 8840 8240 8241 8866 8865 
8216 8217 8842 8841 8241 8242 8867 8866 
8217 8218 8843 8842 8242 8243 8868 8867 
8218 8219 8844 8843 8243 8244 8869 8868 
8219 8220 8845 8844 8244 8245 8870 8869 
8220 8221 8846 8845 8245 8246 8871 8870 
8221 8222 8847 8846 8246 8247 8872 8871 
8222 8223 8848 8847 8247 8248 8873 8872 
8223 8224 8849 8848 8248 8249 8874 8873 
8225 8226 8851 8850 8250 8251 8876 8875 
8226 8227 8852 8851 8251 8252 8877 8876 
8227 8228 8853 8852 8252 8253 8878 8877 
8228 8229 8854 8853 8253 8254 8879 8878 
8229 8230 8855 8854 8254 8255 8880 8879 
8230 8231 8856 8855 8255 8256 8881 8880 
8231 8232 8857 8856 8256 8257 8882 8881 
8232 8233 8858 8857 8257 8258 8883 8882 
8233 8234 8859 8858 8258 8259 8884 8883 
8234 8235 8860 8859 8259 8260 8885 8884 
8235 8236 8861 8860 8260 8261 8886 8885 
8236 8237 8862 8861 8261 8262 8887 8886 
8237 8238 8863 8862 8262 8263 8888 8887 
8238 8239 8864 8863 8263 8264 8889 8888 
8239 8240 8865 8864 8264 8265 8890 8889 
8240 8241 8866 8865 8265 8266 8891 8890 
8241 8242 8867 8866 8266 8267 8892 8891 
8242 8243 8868 8867 8267 8268 8893 8892 
8243 8244 8869 8868 8268 8269 8894 8893 
8244 8245 8870 8869 8269 8270 8895 8894 
8245 8246 8871 8870 8270 8271 8896 8895 
8246 8247 8872 8871 8271 8272 8897 8896 
8247 8248 8873 8872 8272 8273 8898 8897 
8248 8249 8874 8873 8273 8274 8899 8898 
8250 8251 8876 8875 8275 8276 8901 8900 
8251 8252 8877 8876 8276 8277 8902 8901 
8252 8253 8878 8877 8277 8278 8903 8902 
8253 8254 8879 8878 8278 8279 8904 8903 
8254 8255 8880 8879 8279 8280 8905 8904 
8255 8256 8881 8880 8280 8281 8906 8905 
8256 8257 8882 8881 8281 8282 8907 8906 
8257 8258 8883 8882 8282 8283 8908 8907 
8258 8259 8884 8883 8283 8284 8909 8908 
8259 8260 8885 8884 8284 8285 8910 8909 
8260 8261 8886 8885 8285 8286 8911 8910 
8261 8262 8887 8886 8286 8287 8912 8911 
8262 8263 8888 8887 8287 8288 8913 8912 
8263 8264 8889 8888 8288 8289 8914 8913 
8264 8265 8890 8889 8289 8290 8915 8914 
8265 8266 8891 8890 8290 8291 8916 8915 
8266 8267 8892 8891 8291 8292 8917 8916 
8267 8268 8893 8892 8292 8293 8918 8917 
8268 8269 8894 8893 8293 8294 8919 8918 
8269 8270 8895 8894 8294 8295 8920 8919 
8270 8271 8896 8895 8295 8296 8921 8920 
8271 8272 8897 8896 8296 8297 8922 8921 
8272 8273 8898 8897 8297 8298 8923 8922 
8273 8274 8899 8898 8298 8299 8924 8923 
8275 8276 8901 8900 8300 8301 8926 8925 
8276 8277 8902 8901 8301 8302 8927 8926 
8277 8278 8903 8902 8302 8303 8928 8927 
8278 8279 8904 8903 8303 8304 8929 8928 
8279 8280 8905 8904 8304 8305 8930 8929 
8280 8281 8906 8905 8305 8306 8931 8930 
8281 8282 8907 8906 8306 8307 8932 8931 
8282 8283 8908 8907 8307 8308 8933 8932 
8283 8284 8909 8908 8308 8309 8934 8933 
8284 8285 8910 8909 8309 8310 8935 8934 
8285 8286 8911 8910 8310 8311 8936 8935 
8286 8287 8912 8911 8311 8312 8937 8936 
8287 8288 8913 8912 8312 8313 8938 8937 
8288 8289 8914 8913 8313 8314 8939 8938 
8289 8290 8915 8914 8314 8315 8940 8939 
8290 8291 8916 8915 8315 8316 8941 8940 
8291 8292 8917 8916 8316 8317 8942 8941 
8292 8293 8918 8917 8317 8318 8943 8942 
8293 8294 8919 8918 8318 8319 8944 8943 
8294 8295 8920 8919 8319 8320 8945 8944 
8295 8296 8921 8920 8320 8321 8946 8945 
8296 8297 8922 8921 8321 8322 8947 8946 
8297 8298 8923 8922 8322 8323 8948 8947 
8298 8299 8924 8923 8323 8324 8949 8948 
8300 8301 8926 8925 8325 8326 8951 8950 
8301 8302 8927 8926 8326 8327 8952 8951 
8302 8303 8928 8927 8327 8328 8953 8952 
8303 8304 8929 8928 8328 8329 8954 8953 
8304 8305 8930 8929 8329 8330 8955 8954 
8305 8306 8931 8930 8330 8331 8956 8955 
8306 8307 8932 8931 8331 8332 8957 8956 
8307 8308 8933 8932 8332 8333 8958 8957 
8308 8309 8934 8933 8333 8334 8959 8958 
8309 8310 8935 8934 8334 8335 8960 8959 
8310 8311 8936 8935 8335 8336 8961 8960 
8311 8312 8937 8936 8336 8337 8962 8961 
8312 8313 8938 8937 8337 8338 8963 8962 
8313 8314 8939 8938 8338 8339 8964 8963 
8314 8315 8940 8939 8339 8340 8965 8964 
8315 8316 8941 8940 8340 8341 8966 8965 
8316 8317 8942 8941 8341 8342 8967 8966 
8317 8318 8943 8942 8342 8343 8968 8967 
8318 8319 8944 8943 8343 8344 8969 8968 
8319 8320 8945 8944 8344 8345 8970 8969 
8320 8321 8946 8945 8345 8346 8971 8970 
8321 8322 8947 8946 8346 8347 8972 8971 
8322 8323 8948 8947 8347 8348 8973 8972 
8323 8324 8949 8948 8348 8349 8974 8973 
8325 8326 8951 8950 8350 8351 8976 8975 
8326 8327 8952 8951 8351 8352 8977 8976 
8327 8328 8953 8952 8352 8353 8978 8977 
8328 8329 8954 8953 8353 8354 8979 8978 
8329 8330 8955 8954 8354 8355 8980 8979 
8330 8331 8956 8955 8355 8356 8981 8980 
8331 8332 8957 8956 8356 8357 8982 8981 
8332 8333 8958 8957 8357 8358 8983 8982 
8333 8334 8959 8958 8358 8359 8984 8983 
8334 8335 8960 8959 8359 8360 8985 8984 
8335 8336 8961 8960 8360 8361 8986 8985 
8336 8337 8962 8961 8361 8362 8987 8986 
8337 8338 8963 8962 8362 8363 8988 8987 
8338 8339 8964 8963 8363 8364 8989 8988 
8339 8340 8965 8964 8364 8365 8990 8989 
8340 8341 8966 8965 8365 8366 8991 8990 
8341 8342 8967 8966 8366 8367 8992 8991 
8342 8343 8968 8967 8367 8368 8993 8992 
8343 8344 8969 8968 8368 8369 8994 8993 
8344 8345 8970 8969 8369 8370 8995 8994 
8345 8346 8971 8970 8370 8371 8996 8995 
8346 8347 8972 8971 8371 8372 8997 8996 
8347 8348 8973 8972 8372 8373 8998 8997 
8348 8349 8974 8973 8373 8374 8999 8998 
8350 8351 8976 8975 8375 8376 9001 9000 
8351 8352 8977 8976 8376 8377 9002 9001 
8352 8353 8978 8977 8377 8378 9003 9002 
8353 8354 8979 8978 8378 8379 9004 9003 
8354 8355 8980 8979 8379 8380 9005 9004 
8355 8356 8981 8980 8380 8381 9006 9005 
8356 8357 8982 8981 8381 8382 9007 9006 
8357 8358 8983 8982 8382 8383 9008 9007 
8358 8359 8984 8983 8383 8384 9009 9008 
8359 8360 8985 8984 8384 8385 9010 9009 
8360 8361 8986 8985 8385 8386 9011 9010 
8361 8362 8987 8986 8386 8387 9012 9011 
8362 8363 8988 8987 8387 8388 9013 9012 
8363 8364 8989 8988 8388 8389 9014 9013 
8364 8365 8990 8989 8389 8390 9015 9014 
8365 8366 8991 8990 8390 8391 9016 9015 
8366 8367 8992 8991 8391 8392 9017 9016 
8367 8368 8993 8992 8392 8393 9018 9017 
8368 8369 8994 8993 8393 8394 9019 9018 
8369 8370 8995 8994 8394 8395 9020 9019 
8370 8371 8996 8995 8395 8396 9021 9020 
8371 8372 8997 8996 8396 8397 9022 9021 
8372 8373 8998 8997 8397 8398 9023 9022 
8373 8374 8999 8998 8398 8399 9024 9023 
8375 8376 9001 9000 8400 8401 9026 9025 
8376 8377 9002 9001 8401 8402 9027 9026 
8377 8378 9003 9002 8402 8403 9028 9027 
8378 8379 9004 9003 8403 8404 9029 9028 
8379 8380 9005 9004 8404 8405 9030 9029 
8380 8381 9006 9005 8405 8406 9031 9030 
8381 8382 9007 9006 8406 8407 9032 9031 
8382 8383 9008 9007 8407 8408 9033 9032 
8383 8384 9009 9008 8408 8409 9034 9033 
8384 8385 9010 9009 8409 8410 9035 9034 
8385 8386 9011 9010 8410 8411 9036 9035 
8386 8387 9012 9011 8411 8412 9037 9036 
8387 8388 9013 9012 8412 8413 9038 9037 
8388 8389 9014 9013 8413 8414 9039 9038 
8389 8390 9015 9014 8414 8415 9040 9039 
8390 8391 9016 9015 8415 8416 9041 9040 
8391 8392 9017 9016 8416 8417 9042 9041 
8392 8393 9018 9017 8417 8418 9043 9042 
8393 8394 9019 9018 8418 8419 9044 9043 
8394 8395 9020 9019 8419 8420 9045 9044 
8395 8396 9021 9020 8420 8421 9046 9045 
8396 8397 9022 9021 8421 8422 9047 9046 
8397 8398 9023 9022 8422 8423 9048 9047 
8398 8399 9024 9023 8423 8424 9049 9048 
8400 8401 9026 9025 8425 8426 9051 9050 
8401 8402 9027 9026 8426 8427 9052 9051 
8402 8403 9028 9027 8427 8428 9053 9052 
8403 8404 9029 9028 8428 8429 9054 9053 
8404 8405 9030 9029 8429 8430 9055 9054 
8405 8406 9031 9030 8430 8431 9056 9055 
8406 8407 9032 9031 8431 8432 9057 9056 
8407 8408 9033 9032 8432 8433 9058 9057 
8408 8409 9034 9033 8433 8434 9059 9058 
8409 8410 9035 9034 8434 8435 9060 9059 
8410 8411 9036 9035 8435 8436 9061 9060 
8411 8412 9037 9036 8436 8437 9062 9061 
8412 8413 9038 9037 8437 8438 9063 9062 
8413 8414 9039 9038 8438 8439 9064 9063 
8414 8415 9040 9039 8439 8440 9065 9064 
8415 8416 9041 9040 8440 8441 9066 9065 
8416 8417 9042 9041 8441 8442 9067 9066 
8417 8418 9043 9042 8442 8443 9068 9067 
8418 8419 9044 9043 8443 8444 9069 9068 
8419 8420 9045 9044 8444 8445 9070 9069 
8420 8421 9046 9045 8445 8446 9071 9070 
8421 8422 9047 9046 8446 8447 9072 9071 
8422 8423 9048 9047 8447 8448 9073 9072 
8423 8424 9049 9048 8448 8449 9074 9073 
8425 8426 9051 9050 8450 8451 9076 9075 
8426 8427 9052 9051 8451 8452 9077 9076 
8427 8428 9053 9052 8452 8453 9078 9077 
8428 8429 9054 9053 8453 8454 9079 9078 
8429 8430 9055 9054 8454 8455 9080 9079 
8430 8431 9056 9055 8455 8456 9081 9080 
8431 8432 9057 9056 8456 8457 9082 9081 
8432 8433 9058 9057 8457 8458 9083 9082 
8433 8434 9059 9058 8458 8459 9084 9083 
8434 8435 9060 9059 8459 8460 9085 9084 
8435 8436 9061 9060 8460 8461 9086 9085 
8436 8437 9062 9061 8461 8462 9087 9086 
8437 8438 9063 9062 8462 8463 9088 9087 
8438 8439 9064 9063 8463 8464 9089 9088 
8439 8440 9065 9064 8464 8465 9090 9089 
8440 8441 9066 9065 8465 8466 9091 9090 
8441 8442 9067 9066 8466 8467 9092 9091 
8442 8443 9068 9067 8467 8468 9093 9092 
8443 8444 9069 9068 8468 8469 9094 9093 
8444 8445 9070 9069 8469 8470 9095 9094 
8445 8446 9071 9070 8470 8471 9096 9095 
8446 8447 9072 9071 8471 8472 9097 9096 
8447 8448 9073 9072 8472 8473 9098 9097 
8448 8449 9074 9073 8473 8474 9099 9098 
8450 8451 9076 9075 8475 8476 9101 9100 
8451 8452 9077 9076 8476 8477 9102 9101 
8452 8453 9078 9077 8477 8478 9103 9102 
8453 8454 9079 9078 8478 8479 9104 9103 
8454 8455 9080 9079 8479 8480 9105 9104 
8455 8456 9081 9080 8480 8481 9106 9105 
8456 8457 9082 9081 8481 8482 9107 9106 
8457 8458 9083 9082 8482 8483 9108 9107 
8458 8459 9084 9083 8483 8484 9109 9108 
8459 8460 9085 9084 8484 8485 9110 9109 
8460 8461 9086 9085 8485 8486 9111 9110 
8461 8462 9087 9086 8486 8487 9112 9111 
8462 8463 9088 9087 8487 8488 9113 9112 
8463 8464 9089 9088 8488 8489 9114 9113 
8464 8465 9090 9089 8489 8490 9115 9114 
8465 8466 9091 9090 8490 8491 9116 9115 
8466 8467 9092 9091 8491 8492 9117 9116 
8467 8468 9093 9092 8492 8493 9118 9117 
8468 8469 9094 9093 8493 8494 9119 9118 
8469 8470 9095 9094 8494 8495 9120 9119 
8470 8471 9096 9095 8495 8496 9121 9120 
8471 8472 9097 9096 8496 8497 9122 9121 
8472 8473 9098 9097 8497 8498 9123 9122 
8473 8474 9099 9098 8498 8499 9124 9123 
8475 8476 9101 9100 8500 8501 9126 9125 
8476 8477 9102 9101 8501 8502 9127 9126 
8477 8478 9103 9102 8502 8503 9128 9127 
8478 8479 9104 9103 8503 8504 9129 9128 
8479 8480 9105 9104 8504 8505 9130 9129 
8480 8481 9106 9105 8505 8506 9131 9130 
8481 8482 9107 9106 8506 8507 9132 9131 
8482 8483 9108 9107 8507 8508 9133 9132 
8483 8484 9109 9108 8508 8509 9134 9133 
8484 8485 9110 9109 8509 8510 9135 9134 
8485 8486 9111 9110 8510 8511 9136 9135 
8486 8487 9112 9111 8511 8512 9137 9136 
8487 8488 9113 9112 8512 8513 9138 9137 
8488 8489 9114 9113 8513 8514 9139 9138 
8489 8490 9115 9114 8514 8515 9140 9139 
8490 8491 9116 9115 8515 8516 9141 9140 
8491 8492 9117 9116 8516 8517 9142 9141 
8492 8493 9118 9117 8517 8518 9143 9142 
8493 8494 9119 9118 8518 8519 9144 9143 
8494 8495 9120 9119 8519 8520 9145 9144 
8495 8496 9121 9120 8520 8521 9146 9145 
8496 8497 9122 9121 8521 8522 9147 9146 
8497 8498 9123 9122 8522 8523 9148 9147 
8498 8499 9124 9123 8523 8524 9149 9148 
8500 8501 9126 9125 8525 8526 9151 9150 
8501 8502 9127 9126 8526 8527 9152 9151 
8502 8503 9128 9127 8527 8528 9153 9152 
8503 8504 9129 9128 8528 8529 9154 9153 
8504 8505 9130 9129 8529 8530 9155 9154 
8505 8506 9131 9130 8530 8531 9156 9155 
8506 8507 9132 9131 8531 8532 9157 9156 
8507 8508 9133 9132 8532 8533 9158 9157 
8508 8509 9134 9133 8533 8534 9159 9158 
8509 8510 9135 9134 8534 8535 9160 9159 
8510 8511 9136 9135 8535 8536 9161 9160 
8511 8512 9137 9136 8536 8537 9162 9161 
8512 8513 9138 9137 8537 8538 9163 9162 
8513 8514 9139 9138 8538 8539 9164 9163 
8514 8515 9140 9139 8539 8540 9165 9164 
8515 8516 9141 9140 8540 8541 9166 9165 
8516 8517 9142 9141 8541 8542 9167 9166 
8517 8518 9143 9142 8542 8543 9168 9167 
8518 8519 9144 9143 8543 8544 9169 9168 
8519 8520 9145 9144 8544 8545 9170 9169 
8520 8521 9146 9145 8545 8546 9171 9170 
8521 8522 9147 9146 8546 8547 9172 9171 
8522 8523 9148 9147 8547 8548 9173 9172 
8523 8524 9149 9148 8548 8549 9174 9173 
8525 8526 9151 9150 8550 8551 9176 9175 
8526 8527 9152 9151 8551 8552 9177 9176 
8527 8528 9153 9152 8552 8553 9178 9177 
8528 8529 9154 9153 8553 8554 9179 9178 
8529 8530 9155 9154 8554 8555 9180 9179 
8530 8531 9156 9155 8555 8556 9181 9180 
8531 8532 9157 9156 8556 8557 9182 9181 
8532 8533 9158 9157 8557 8558 9183 9182 
8533 8534 9159 9158 8558 8559 9184 9183 
8534 8535 9160 9159 8559 8560 9185 9184 
8535 8536 9161 9160 8560 8561 9186 9185 
8536 8537 9162 9161 8561 8562 9187 9186 
8537 8538 9163 9162 8562 8563 9188 9187 
8538 8539 9164 9163 8563 8564 9189 9188 
8539 8540 9165 9164 8564 8565 9190 9189 
8540 8541 9166 9165 8565 8566 9191 9190 
8541 8542 9167 9166 8566 8567 9192 9191 
8542 8543 9168 9167 8567 8568 9193 9192 
8543 8544 9169 9168 8568 8569 9194 9193 
8544 8545 9170 9169 8569 8570 9195 9194 
8545 8546 9171 9170 8570 8571 9196 9195 
8546 8547 9172 9171 8571 8572 9197 9196 
8547 8548 9173 9172 8572 8573 9198 9197 
8548 8549 9174 9173 8573 8574 9199 9198 
8550 8551 9176 9175 8575 8576 9201 9200 
8551 8552 9177 9176 8576 8577 9202 9201 
8552 8553 9178 9177 8577 8578 9203 9202 
8553 8554 9179 9178 8578 8579 9204 9203 
8554 8555 9180 9179 8579 8580 9205 9204 
8555 8556 9181 9180 8580 8581 9206 9205 
8556 8557 9182 9181 8581 8582 9207 9206 
8557 8558 9183 9182 8582 8583 9208 9207 
8558 8559 9184 9183 8583 8584 9209 9208 
8559 8560 9185 9184 8584 8585 9210 9209 
8560 8561 9186 9185 8585 8586 9211 9210 
8561 8562 9187 9186 8586 8587 9212 9211 
8562 8563 9188 9187 8587 8588 9213 9212 
8563 8564 9189 9188 8588 8589 9214 9213 
8564 8565 9190 9189 8589 8590 9215 9214 
8565 8566 9191 9190 8590 8591 9216 9215 
8566 8567 9192 9191 8591 8592 9217 9216 
8567 8568 9193 9192 8592 8593 9218 9217 
8568 8569 9194 9193 8593 8594 9219 9218 
8569 8570 9195 9194 8594 8595 9220 9219 
8570 8571 9196 9195 8595 8596 9221 9220 
8571 8572 9197 9196 8596 8597 9222 9221 
8572 8573 9198 9197 8597 8598 9223 9222 
8573 8574 9199 9198 8598 8599 9224 9223 
8575 8576 9201 9200 8600 8601 9226 9225 
8576 8577 9202 9201 8601 8602 9227 9226 
8577 8578 9203 9202 8602 8603 9228 9227 
8578 8579 9204 9203 8603 8604 9229 9228 
8579 8580 9205 9204 8604 8605 9230 9229 
8580 8581 9206 9205 8605 8606 9231 9230 
8581 8582 9207 9206 8606 8607 9232 9231 
8582 8583 9208 9207 8607 8608 9233 9232 
8583 8584 9209 9208 8608 8609 9234 9233 
8584 8585 9210 9209 8609 8610 9235 9234 
8585 8586 9211 9210 8610 8611 9236 9235 
8586 8587 9212 9211 8611 8612 9237 9236 
8587 8588 9213 9212 8612 8613 9238 9237 
8588 8589 9214 9213 8613 8614 9239 9238 
8589 8590 9215 9214 8614 8615 9240 9239 
8590 8591 9216 9215 8615 8616 9241 9240 
8591 8592 9217 9216 8616 8617 9242 9241 
8592 8593 9218 9217 8617 8618 9243 9242 
8593 8594 9219 9218 8618 8619 9244 9243 
8594 8595 9220 9219 8619 8620 9245 9244 
8595 8596 9221 9220 8620 8621 9246 9245 
8596 8597 9222 9221 8621 8622 9247 9246 
8597 8598 9223 9222 8622 8623 9248 9247 
8598 8599 9224 9223 8623 8624 9249 9248 
8600 8601 9226 9225 8625 8626 9251 9250 
8601 8602 9227 9226 8626 8627 9252 9251 
8602 8603 9228 9227 8627 8628 9253 9252 
8603 8604 9229 9228 8628 8629 9254 9253 
8604 8605 9230 9229 8629 8630 9255 9254 
8605 8606 9231 9230 8630 8631 9256 9255 
8606 8607 9232 9231 8631 8632 9257 9256 
8607 8608 9233 9232 8632 8633 9258 9257 
8608 8609 9234 9233 8633 8634 9259 9258 
8609 8610 9235 9234 8634 8635 9260 9259 
8610 8611 9236 9235 8635 8636 9261 9260 
8611 8612 9237 9236 8636 8637 9262 9261 
8612 8613 9238 9237 8637 8638 9263 9262 
8613 8614 9239 9238 8638 8639 9264 9263 
8614 8615 9240 9239 8639 8640 9265 9264 
8615 8616 9241 9240 8640 8641 9266 9265 
8616 8617 9242 9241 8641 8642 9267 9266 
8617 8618 9243 9242 8642 8643 9268 9267 
8618 8619 9244 9243 8643 8644 9269 9268 
8619 8620 9245 9244 8644 8645 9270 9269 
8620 8621 9246 9245 8645 8646 9271 9270 
8621 8622 9247 9246 8646 8647 9272 9271 
8622 8623 9248 9247 8647 8648 9273 9272 
8623 8624 9249 9248 8648 8649 9274 9273 
8625 8626 9251 9250 8650 8651 9276 9275 
8626 8627 9252 9251 8651 8652 9277 9276 
8627 8628 9253 9252 8652 8653 9278 9277 
8628 8629 9254 9253 8653 8654 9279 9278 
8629 8630 9255 9254 8654 8655 9280 9279 
8630 8631 9256 9255 8655 8656 9281 9280 
8631 8632 9257 9256 8656 8657 9282 9281 
8632 8633 9258 9257 8657 8658 9283 9282 
8633 8634 9259 9258 8658 8659 9284 9283 
8634 8635 9260 9259 8659 8660 9285 9284 
8635 8636 9261 9260 8660 8661 9286 9285 
8636 8637 9262 9261 8661 8662 9287 9286 
8637 8638 9263 9262 8662 8663 9288 9287 
8638 8639 9264 9263 8663 8664 9289 9288 
8639 8640 9265 9264 8664 8665 9290 9289 
8640 8641 9266 9265 8665 8666 9291 9290 
8641 8642 9267 9266 8666 8667 9292 9291 
8642 8643 9268 9267 8667 8668 9293 9292 
8643 8644 9269 9268 8668 8669 9294 9293 
8644 8645 9270 9269 8669 8670 9295 9294 
8645 8646 9271 9270 8670 8671 9296 9295 
8646 8647 9272 9271 8671 8672 9297 9296 
8647 8648 9273 9272 8672 8673 9298 9297 
8648 8649 9274 9273 8673 8674 9299 9298 
8650 8651 9276 9275 8675 8676 9301 9300 
8651 8652 9277 9276 8676 8677 9302 9301 
8652 8653 9278 9277 8677 8678 9303 9302 
8653 8654 9279 9278 8678 8679 9304 9303 
8654 8655 9280 9279 8679 8680 9305 9304 
8655 8656 9281 9280 8680 8681 9306 9305 
8656 8657 9282 9281 8681 8682 9307 9306 
8657 8658 9283 9282 8682 8683 9308 9307 
8658 8659 9284 9283 8683 8684 9309 9308 
8659 8660 9285 9284 8684 8685 9310 9309 
8660 8661 9286 9285 8685 8686 9311 9310 
8661 8662 9287 9286 8686 8687 9312 9311 
8662 8663 9288 9287 8687 8688 9313 9312 
8663 8664 9289 9288 8688 8689 9314 9313 
8664 8665 9290 9289 8689 8690 9315 9314 
8665 8666 9291 9290 8690 8691 9316 9315 
8666 8667 9292 9291 8691 8692 9317 9316 
8667 8668 9293 9292 8692 8693 9318 9317 
8668 8669 9294 9293 8693 8694 9319 9318 
8669 8670 9295 9294 8694 8695 9320 9319 
8670 8671 9296 9295 8695 8696 9321 9320 
8671 8672 9297 9296 8696 8697 9322 9321 
8672 8673 9298 9297 8697 8698 9323 9322 
8673 8674 9299 9298 8698 8699 9324 9323 
8675 8676 9301 9300 8700 8701 9326 9325 
8676 8677 9302 9301 8701 8702 9327 9326 
8677 8678 9303 9302 8702 8703 9328 9327 
8678 8679 9304 9303 8703 8704 9329 9328 
8679 8680 9305 9304 8704 8705 9330 9329 
8680 8681 9306 9305 8705 8706 9331 9330 
8681 8682 9307 9306 8706 8707 9332 9331 
8682 8683 9308 9307 8707 8708 9333 9332 
8683 8684 9309 9308 8708 8709 9334 9333 
8684 8685 9310 9309 8709 8710 9335 9334 
8685 8686 9311 9310 8710 8711 9336 9335 
8686 8687 9312 9311 8711 8712 9337 9336 
8687 8688 9313 9312 8712 8713 9338 9337 
8688 8689 9314 9313 8713 8714 9339 9338 
8689 8690 9315 9314 8714 8715 9340 9339 
8690 8691 9316 9315 8715 8716 9341 9340 
8691 8692 9317 9316 8716 8717 9342 9341 
8692 8693 9318 9317 8717 8718 9343 9342 
8693 8694 9319 9318 8718 8719 9344 9343 
8694 8695 9320 9319 8719 8720 9345 9344 
8695 8696 9321 9320 8720 8721 9346 9345 
8696 8697 9322 9321 8721 8722 9347 9346 
8697 8698 9323 9322 8722 8723 9348 9347 
8698 8699 9324 9323 8723 8724 9349 9348 
8700 8701 9326 9325 8725 8726 9351 9350 
8701 8702 9327 9326 8726 8727 9352 9351 
8702 8703 9328 9327 8727 8728 9353 9352 
8703 8704 9329 9328 8728 8729 9354 9353 
8704 8705 9330 9329 8729 8730 9355 9354 
8705 8706 9331 9330 8730 8731 9356 9355 
8706 8707 9332 9331 8731 8732 9357 9356 
8707 8708 9333 9332 8732 8733 9358 9357 
8708 8709 9334 9333 8733 8734 9359 9358 
8709 8710 9335 9334 8734 8735 9360 9359 
8710 8711 9336 9335 8735 8736 9361 9360 
8711 8712 9337 9336 8736 8737 9362 9361 
8712 8713 9338 9337 8737 8738 9363 9362 
8713 8714 9339 9338 8738 8739 9364 9363 
8714 8715 9340 9339 8739 8740 9365 9364 
8715 8716 9341 9340 8740 8741 9366 9365 
8716 8717 9342 9341 8741 8742 9367 9366 
8717 8718 9343 9342 8742 8743 9368 9367 
8718 8719 9344 9343 8743 8744 9369 9368 
8719 8720 9345 9344 8744 8745 9370 9369 
8720 8721 9346 9345 8745 8746 9371 9370 
8721 8722 9347 9346 8746 8747 9372 9371 
8722 8723 9348 9347 8747 8748 9373 9372 
8723 8724 9349 9348 8748 8749 9374 9373 
8750 8751 9376 9375 8775 8776 9401 9400 
8751 8752 9377 9376 8776 8777 9402 9401 
8752 8753 9378 9377 8777 8778 9403 9402 
8753 8754 9379 9378 8778 8779 9404 9403 
8754 8755 9380 9379 8779 8780 9405 9404 
8755 8756 9381 9380 8780 8781 9406 9405 
8756 8757 9382 9381 8781 8782 9407 9406 
8757 8758 9383 9382 8782 8783 9408 9407 
8758 8759 9384 9383 8783 8784 9409 9408 
8759 8760 9385 9384 8784 8785 9410 9409 
8760 8761 9386 9385 8785 8786 9411 9410 
8761 8762 9387 9386 8786 8787 9412 9411 
8762 8763 9388 9387 8787 8788 9413 9412 
8763 8764 9389 9388 8788 8789 9414 9413 
8764 8765 9390 9389 8789 8790 9415 9414 
8765 8766 9391 9390 8790 8791 9416 9415 
8766 8767 9392 9391 8791 8792 9417 9416 
8767 8768 9393 9392 8792 8793 9418 9417 
8768 8769 9394 9393 8793 8794 9419 9418 
8769 8770 9395 9394 8794 8795 9420 9419 
8770 8771 9396 9395 8795 8796 9421 9420 
8771 8772 9397 9396 8796 8797 9422 9421 
8772 8773 9398 9397 8797 8798 9423 9422 
8773 8774 9399 9398 8798 8799 9424 9423 
8775 8776 9401 9400 8800 8801 9426 9425 
8776 8777 9402 9401 8801 8802 9427 9426 
8777 8778 9403 9402 8802 8803 9428 9427 
8778 8779 9404 9403 8803 8804 9429 9428 
8779 8780 9405 9404 8804 8805 9430 9429 
8780 8781 9406 9405 8805 8806 9431 9430 
8781 8782 9407 9406 8806 8807 9432 9431 
8782 8783 9408 9407 8807 8808 9433 9432 
8783 8784 9409 9408 8808 8809 9434 9433 
8784 8785 9410 9409 8809 8810 9435 9434 
8785 8786 9411 9410 8810 8811 9436 9435 
8786 8787 9412 9411 8811 8812 9437 9436 
8787 8788 9413 9412 8812 8813 9438 9437 
8788 8789 9414 9413 8813 8814 9439 9438 
8789 8790 9415 9414 8814 8815 9440 9439 
8790 8791 9416 9415 8815 8816 9441 9440 
8791 8792 9417 9416 8816 8817 9442 9441 
8792 8793 9418 9417 8817 8818 9443 9442 
8793 8794 9419 9418 8818 8819 9444 9443 
8794 8795 9420 9419 8819 8820 9445 9444 
8795 8796 9421 9420 8820 8821 9446 9445 
8796 8797 9422 9421 8821 8822 9447 9446 
8797 8798 9423 9422 8822 8823 9448 9447 
8798 8799 9424 9423 8823 8824 9449 9448 
8800 8801 9426 9425 8825 8826 9451 9450 
8801 8802 9427 9426 8826 8827 9452 9451 
8802 8803 9428 9427 8827 8828 9453 9452 
8803 8804 9429 9428 8828 8829 9454 9453 
8804 8805 9430 9429 8829 8830 9455 9454 
8805 8806 9431 9430 8830 8831 9456 9455 
8806 8807 9432 9431 8831 8832 9457 9456 
8807 8808 9433 9432 8832 8833 9458 9457 
8808 8809 9434 9433 8833 8834 9459 9458 
8809 8810 9435 9434 8834 8835 9460 9459 
8810 8811 9436 9435 8835 8836 9461 9460 
8811 8812 9437 9436 8836 8837 9462 9461 
8812 8813 9438 9437 8837 8838 9463 9462 
8813 8814 9439 9438 8838 8839 9464 9463 
8814 8815 9440 9439 8839 8840 9465 9464 
8815 8816 9441 9440 8840 8841 9466 9465 
8816 8817 9442 9441 8841 8842 9467 9466 
8817 8818 9443 9442 8842 8843 9468 9467 
8818 8819 9444 9443 8843 8844 9469 9468 
8819 8820 9445 9444 8844 8845 9470 9469 
8820 8821 9446 9445 8845 8846 9471 9470 
8821 8822 9447 9446 8846 8847 9472 9471 
8822 8823 9448 9447 8847 8848 9473 9472 
8823 8824 9449 9448 8848 8849 9474 9473 
8825 8826 9451 9450 8850 8851 9476 9475 
8826 8827 9452 9451 8851 8852 9477 9476 
8827 8828 9453 9452 8852 8853 9478 9477 
8828 8829 9454 9453 8853 8854 9479 9478 
8829 8830 9455 9454 8854 8855 9480 9479 
8830 8831 9456 9455 8855 8856 9481 9480 
8831 8832 9457 9456 8856 8857 9482 9481 
8832 8833 9458 9457 8857 8858 9483 9482 
8833 8834 9459 9458 8858 8859 9484 9483 
8834 8835 9460 9459 8859 8860 9485 9484 
8835 8836 9461 9460 8860 8861 9486 9485 
8836 8837 9462 9461 8861 8862 9487 9486 
8837 8838 9463 9462 8862 8863 9488 9487 
8838 8839 9464 9463 8863 8864 9489 9488 
8839 8840 9465 9464 8864 8865 9490 9489 
8840 8841 9466 9465 8865 8866 9491 9490 
8841 8842 9467 9466 8866 8867 9492 9491 
8842 8843 9468 9467 8867 8868 9493 9492 
8843 8844 9469 9468 8868 8869 9494 9493 
8844 8845 9470 9469 8869 8870 9495 9494 
8845 8846 9471 9470 8870 8871 9496 9495 
8846 8847 9472 9471 8871 8872 9497 9496 
8847 8848 9473 9472 8872 8873 9498 9497 
8848 8849 9474 9473 8873 8874 9499 9498 
8850 8851 9476 9475 8875 8876 9501 9500 
8851 8852 9477 9476 8876 8877 9502 9501 
8852 8853 9478 9477 8877 8878 9503 9502 
8853 8854 9479 9478 8878 8879 9504 9503 
8854 8855 9480 9479 8879 8880 9505 9504 
8855 8856 9481 9480 8880 8881 9506 9505 
8856 8857 9482 9481 8881 8882 9507 9506 
8857 8858 9483 9482 8882 8883 9508 9507 
8858 8859 9484 9483 8883 8884 9509 9508 
8859 8860 9485 9484 8884 8885 9510 9509 
8860 8861 9486 9485 8885 8886 9511 9510 
8861 8862 9487 9486 8886 8887 9512 9511 
8862 8863 9488 9487 8887 8888 9513 9512 
8863 8864 9489 9488 8888 8889 9514 9513 
8864 8865 9490 9489 8889 8890 9515 9514 
8865 8866 9491 9490 8890 8891 9516 9515 
8866 8867 9492 9491 8891 8892 9517 9516 
8867 8868 9493 9492 8892 8893 9518 9517 
8868 8869 9494 9493 8893 8894 9519 9518 
8869 8870 9495 9494 8894 8895 9520 9519 
8870 8871 9496 9495 8895 8896 9521 9520 
8871 8872 9497 9496 8896 8897 9522 9521 
8872 8873 9498 9497 8897 8898 9523 9522 
8873 8874 9499 9498 8898 8899 9524 9523 
8875 8876 9501 9500 8900 8901 9526 9525 
8876 8877 9502 9501 8901 8902 9527 9526 
8877 8878 9503 9502 8902 8903 9528 9527 
8878 8879 9504 9503 8903 8904 9529 9528 
8879 8880 9505 9504 8904 8905 9530 9529 
8880 8881 9506 9505 8905 8906 9531 9530 
8881 8882 9507 9506 8906 8907 9532 9531 
8882 8883 9508 9507 8907 8908 9533 9532 
8883 8884 9509 9508 8908 8909 9534 9533 
8884 8885 9510 9509 8909 8910 9535 9534 
8885 8886 9511 9510 8910 8911 9536 9535 
8886 8887 9512 9511 8911 8912 9537 9536 
8887 8888 9513 9512 8912 8913 9538 9537 
8888 8889 9514 9513 8913 8914 9539 9538 
8889 8890 9515 9514 8914 8915 9540 9539 
8890 8891 9516 9515 8915 8916 9541 9540 
8891 8892 9517 9516 8916 8917 9542 9541 
8892 8893 9518 9517 8917 8918 9543 9542 
8893 8894 9519 9518 8918 8919 9544 9543 
8894 8895 9520 9519 8919 8920 9545 9544 
8895 8896 9521 9520 8920 8921 9546 9545 
8896 8897 9522 9521 8921 8922 9547 9546 
8897 8898 9523 9522 8922 8923 9548 9547 
8898 8899 9524 9523 8923 8924 9549 9548 
8900 8901 9526 9525 8925 8926 9551 9550 
8901 8902 9527 9526 8926 8927 9552 9551 
8902 8903 9528 9527 8927 8928 9553 9552 
8903 8904 9529 9528 8928 8929 9554 9553 
8904 8905 9530 9529 8929 8930 9555 9554 
8905 8906 9531 9530 8930 8931 9556 9555 
8906 8907 9532 9531 8931 8932 9557 9556 
8907 8908 9533 9532 8932 8933 9558 9557 
8908 8909 9534 9533 8933 8934 9559 9558 
8909 8910 9535 9534 8934 8935 9560 9559 
8910 8911 9536 9535 8935 8936 9561 9560 
8911 8912 9537 9536 8936 8937 9562 9561 
8912 8913 9538 9537 8937 8938 9563 9562 
8913 8914 9539 9538 8938 8939 9564 9563 
8914 8915 9540 9539 8939 8940 9565 9564 
8915 8916 9541 9540 8940 8941 9566 9565 
8916 8917 9542 9541 8941 8942 9567 9566 
8917 8918 9543 9542 8942 8943 9568 9567 
8918 8919 9544 9543 8943 8944 9569 9568 
8919 8920 9545 9544 8944 8945 9570 9569 
8920 8921 9546 9545 8945 8946 9571 9570 
8921 8922 9547 9546 8946 8947 9572 9571 
8922 8923 9548 9547 8947 8948 9573 9572 
8923 8924 9549 9548 8948 8949 9574 9573 
8925 8926 9551 9550 8950 8951 9576 9575 
8926 8927 9552 9551 8951 8952 9577 9576 
8927 8928 9553 9552 8952 8953 9578 9577 
8928 8929 9554 9553 8953 8954 9579 9578 
8929 8930 9555 9554 8954 8955 9580 9579 
8930 8931 9556 9555 8955 8956 9581 9580 
8931 8932 9557 9556 8956 8957 9582 9581 
8932 8933 9558 9557 8957 8958 9583 9582 
8933 8934 9559 9558 8958 8959 9584 9583 
8934 8935 9560 9559 8959 8960 9585 9584 
8935 8936 9561 9560 8960 8961 9586 9585 
8936 8937 9562 9561 8961 8962 9587 9586 
8937 8938 9563 9562 8962 8963 9588 9587 
8938 8939 9564 9563 8963 8964 9589 9588 
8939 8940 9565 9564 8964 8965 9590 9589 
8940 8941 9566 9565 8965 8966 9591 9590 
8941 8942 9567 9566 8966 8967 9592 9591 
8942 8943 9568 9567 8967 8968 9593 9592 
8943 8944 9569 9568 8968 8969 9594 9593 
8944 8945 9570 9569 8969 8970 9595 9594 
8945 8946 9571 9570 8970 8971 9596 9595 
8946 8947 9572 9571 8971 8972 9597 9596 
8947 8948 9573 9572 8972 8973 9598 9597 
8948 8949 9574 9573 8973 8974 9599 9598 
8950 8951 9576 9575 8975 8976 9601 9600 
8951 8952 9577 9576 8976 8977 9602 9601 
8952 8953 9578 9577 8977 8978 9603 9602 
8953 8954 9579 9578 8978 8979 9604 9603 
8954 8955 9580 9579 8979 8980 9605 9604 
8955 8956 9581 9580 8980 8981 9606 9605 
8956 8957 9582 9581 8981 8982 9607 9606 
8957 8958 9583 9582 8982 8983 9608 9607 
8958 8959 9584 9583 8983 8984 9609 9608 
8959 8960 9585 9584 8984 8985 9610 9609 
8960 8961 9586 9585 8985 8986 9611 9610 
8961 8962 9587 9586 8986 8987 9612 9611 
8962 8963 9588 9587 8987 8988 9613 9612 
8963 8964 9589 9588 8988 8989 9614 9613 
8964 8965 9590 9589 8989 8990 9615 9614 
8965 8966 9591 9590 8990 8991 9616 9615 
8966 8967 9592 9591 8991 8992 9617 9616 
8967 8968 9593 9592 8992 8993 9618 9617 
8968 8969 9594 9593 8993 8994 9619 9618 
8969 8970 9595 9594 8994 8995 9620 9619 
8970 8971 9596 9595 8995 8996 9621 9620 
8971 8972 9597 9596 8996 8997 9622 9621 
8972 8973 9598 9597 8997 8998 9623 9622 
8973 8974 9599 9598 8998 8999 9624 9623 
8975 8976 9601 9600 9000 9001 9626 9625 
8976 8977 9602 9601 9001 9002 9627 9626 
8977 8978 9603 9602 9002 9003 9628 9627 
8978 8979 9604 9603 9003 9004 9629 9628 
8979 8980 9605 9604 9004 9005 9630 9629 
8980 8981 9606 9605 9005 9006 9631 9630 
8981 8982 9607 9606 9006 9007 9632 9631 
8982 8983 9608 9607 9007 9008 9633 9632 
8983 8984 9609 9608 9008 9009 9634 9633 
8984 8985 9610 9609 9009 9010 9635 9634 
8985 8986 9611 9610 9010 9011 9636 9635 
8986 8987 9612 9611 9011 9012 9637 9636 
8987 8988 9613 9612 9012 9013 9638 9637 
8988 8989 9614 9613 9013 9014 9639 9638 
8989 8990 9615 9614 9014 9015 9640 9639 
8990 8991 9616 9615 9015 9016 9641 9640 
8991 8992 9617 9616 9016 9017 9642 9641 
8992 8993 9618 9617 9017 9018 9643 9642 
8993 8994 9619 9618 9018 9019 9644 9643 
8994 8995 9620 9619 9019 9020 9645 9644 
8995 8996 9621 9620 9020 9021 9646 9645 
8996 8997 9622 9621 9021 9022 9647 9646 
8997 8998 9623 9622 9022 9023 9648 9647 
8998 8999 9624 9623 9023 9024 9649 9648 
9000 9001 9626 9625 9025 9026 9651 9650 
9001 9002 9627 9626 9026 9027 9652 9651 
9002 9003 9628 9627 9027 9028 9653 9652 
9003 9004 9629 9628 9028 9029 9654 9653 
9004 9005 9630 9629 9029 9030 9655 9654 
9005 9006 9631 9630 9030 9031 9656 9655 
9006 9007 9632 9631 9031 9032 9657 9656 
9007 9008 9633 9632 9032 9033 9658 9657 
9008 9009 9634 9633 9033 9034 9659 9658 
9009 9010 9635 9634 9034 9035 9660 9659 
9010 9011 9636 9635 9035 9036 9661 9660 
9011 9012 9637 9636 9036 9037 9662 9661 
9012 9013 9638 9637 9037 9038 9663 9662 
9013 9014 9639 9638 9038 9039 9664 9663 
9014 9015 9640 9639 9039 9040 9665 9664 
9015 9016 9641 9640 9040 9041 9666 9665 
9016 9017 9642 9641 9041 9042 9667 9666 
9017 9018 9643 9642 9042 9043 9668 9667 
9018 9019 9644 9643 9043 9044 9669 9668 
9019 9020 9645 9644 9044 9045 9670 9669 
9020 9021 9646 9645 9045 9046 9671 9670 
9021 9022 9647 9646 9046 9047 9672 9671 
9022 9023 9648 9647 9047 9048 9673 9672 
9023 9024 9649 9648 9048 9049 9674 9673 
9025 9026 9651 9650 9050 9051 9676 9675 
9026 9027 9652 9651 9051 9052 9677 9676 
9027 9028 9653 9652 9052 9053 9678 9677 
9028 9029 9654 9653 9053 9054 9679 9678 
9029 9030 9655 9654 9054 9055 9680 9679 
9030 9031 9656 9655 9055 9056 9681 9680 
9031 9032 9657 9656 9056 9057 9682 9681 
9032 9033 9658 9657 9057 9058 9683 9682 
9033 9034 9659 9658 9058 9059 9684 9683 
9034 9035 9660 9659 9059 9060 9685 9684 
9035 9036 9661 9660 9060 9061 9686 9685 
9036 9037 9662 9661 9061 9062 9687 9686 
9037 9038 9663 9662 9062 9063 9688 9687 
9038 9039 9664 9663 9063 9064 9689 9688 
9039 9040 9665 9664 9064 9065 9690 9689 
9040 9041 9666 9665 9065 9066 9691 9690 
9041 9042 9667 9666 9066 9067 9692 9691 
9042 9043 9668 9667 9067 9068 9693 9692 
9043 9044 9669 9668 9068 9069 9694 9693 
9044 9045 9670 9669 9069 9070 9695 9694 
9045 9046 9671 9670 9070 9071 9696 9695 
9046 9047 9672 9671 9071 9072 9697 9696 
9047 9048 9673 9672 9072 9073 9698 9697 
9048 9049 9674 9673 9073 9074 9699 9698 
9050 9051 9676 9675 9075 9076 9701 9700 
9051 9052 9677 9676 9076 9077 9702 9701 
9052 9053 9678 9677 9077 9078 9703 9702 
9053 9054 9679 9678 9078 9079 9704 9703 
9054 9055 9680 9679 9079 9080 9705 9704 
9055 9056 9681 9680 9080 9081 9706 9705 
9056 9057 9682 9681 9081 9082 9707 9706 
9057 9058 9683 9682 9082 9083 9708 9707 
9058 9059 9684 9683 9083 9084 9709 9708 
9059 9060 9685 9684 9084 9085 9710 9709 
9060 9061 9686 9685 9085 9086 9711 9710 
9061 9062 9687 9686 9086 9087 9712 9711 
9062 9063 9688 9687 9087 9088 9713 9712 
9063 9064 9689 9688 9088 9089 9714 9713 
9064 9065 9690 9689 9089 9090 9715 9714 
9065 9066 9691 9690 9090 9091 9716 9715 
9066 9067 9692 9691 9091 9092 9717 9716 
9067 9068 9693 9692 9092 9093 9718 9717 
9068 9069 9694 9693 9093 9094 9719 9718 
9069 9070 9695 9694 9094 9095 9720 9719 
9070 9071 9696 9695 9095 9096 9721 9720 
9071 9072 9697 9696 9096 9097 9722 9721 
9072 9073 9698 9697 9097 9098 9723 9722 
9073 9074 9699 9698 9098 9099 9724 9723 
9075 9076 9701 9700 9100 9101 9726 9725 
9076 9077 9702 9701 9101 9102 9727 9726 
9077 9078 9703 9702 9102 9103 9728 9727 
9078 9079 9704 9703 9103 9104 9729 9728 
9079 9080 9705 9704 9104 9105 9730 9729 
9080 9081 9706 9705 9105 9106 9731 9730 
9081 9082 9707 9706 9106 9107 9732 9731 
9082 9083 9708 9707 9107 9108 9733 9732 
9083 9084 9709 9708 9108 9109 9734 9733 
9084 9085 9710 9709 9109 9110 9735 9734 
9085 9086 9711 9710 9110 9111 9736 9735 
9086 9087 9712 9711 9111 9112 9737 9736 
9087 9088 9713 9712 9112 9113 9738 9737 
9088 9089 9714 9713 9113 9114 9739 9738 
9089 9090 9715 9714 9114 9115 9740 9739 
9090 9091 9716 9715 9115 9116 9741 9740 
9091 9092 9717 9716 9116 9117 9742 9741 
9092 9093 9718 9717 9117 9118 9743 9742 
9093 9094 9719 9718 9118 9119 9744 9743 
9094 9095 9720 9719 9119 9120 9745 9744 
9095 9096 9721 9720 9120 9121 9746 9745 
9096 9097 9722 9721 9121 9122 9747 9746 
9097 9098 9723 9722 9122 9123 9748 9747 
9098 9099 9724 9723 9123 9124 9749 9748 
9100 9101 9726 9725 9125 9126 9751 9750 
9101 9102 9727 9726 9126 9127 9752 9751 
9102 9103 9728 9727 9127 9128 9753 9752 
9103 9104 9729 9728 9128 9129 9754 9753 
9104 9105 9730 9729 9129 9130 9755 9754 
9105 9106 9731 9730 9130 9131 9756 9755 
9106 9107 9732 9731 9131 9132 9757 9756 
9107 9108 9733 9732 9132 9133 9758 9757 
9108 9109 9734 9733 9133 9134 9759 9758 
9109 9110 9735 9734 9134 9135 9760 9759 
9110 9111 9736 9735 9135 9136 9761 9760 
9111 9112 9737 9736 9136 9137 9762 9761 
9112 9113 9738 9737 9137 9138 9763 9762 
9113 9114 9739 9738 9138 9139 9764 9763 
9114 9115 9740 9739 9139 9140 9765 9764 
9115 9116 9741 9740 9140 9141 9766 9765 
9116 9117 9742 9741 9141 9142 9767 9766 
9117 9118 9743 9742 9142 9143 9768 9767 
9118 9119 9744 9743 9143 9144 9769 9768 
9119 9120 9745 9744 9144 9145 9770 9769 
9120 9121 9746 9745 9145 9146 9771 9770 
9121 9122 9747 9746 9146 9147 9772 9771 
9122 9123 9748 9747 9147 9148 9773 9772 
9123 9124 9749 9748 9148 9149 9774 9773 
9125 9126 9751 9750 9150 9151 9776 9775 
9126 9127 9752 9751 9151 9152 9777 9776 
9127 9128 9753 9752 9152 9153 9778 9777 
9128 9129 9754 9753 9153 9154 9779 9778 
9129 9130 9755 9754 9154 9155 9780 9779 
9130 9131 9756 9755 9155 9156 9781 9780 
9131 9132 9757 9756 9156 9157 9782 9781 
9132 9133 9758 9757 9157 9158 9783 9782 
9133 9134 9759 9758 9158 9159 9784 9783 
9134 9135 9760 9759 9159 9160 9785 9784 
9135 9136 9761 9760 9160 9161 9786 9785 
9136 9137 9762 9761 9161 9162 9787 9786 
9137 9138 9763 9762 9162 9163 9788 9787 
9138 9139 9764 9763 9163 9164 9789 9788 
9139 9140 9765 9764 9164 9165 9790 9789 
9140 9141 9766 9765 9165 9166 9791 9790 
9141 9142 9767 9766 9166 9167 9792 9791 
9142 9143 9768 9767 9167 9168 9793 9792 
9143 9144 9769 9768 9168 9169 9794 9793 
9144 9145 9770 9769 9169 9170 9795 9794 
9145 9146 9771 9770 9170 9171 9796 9795 
9146 9147 9772 9771 9171 9172 9797 9796 
9147 9148 9773 9772 9172 9173 9798 9797 
9148 9149 9774 9773 9173 9174 9799 9798 
9150 9151 9776 9775 9175 9176 9801 9800 
9151 9152 9777 9776 9176 9177 9802 9801 
9152 9153 9778 9777 9177 9178 9803 9802 
9153 9154 9779 9778 9178 9179 9804 9803 
9154 9155 9780 9779 9179 9180 9805 9804 
9155 9156 9781 9780 9180 9181 9806 9805 
9156 9157 9782 9781 9181 9182 9807 9806 
9157 9158 9783 9782 9182 9183 9808 9807 
9158 9159 9784 9783 9183 9184 9809 9808 
9159 9160 9785 9784 9184 9185 9810 9809 
9160 9161 9786 9785 9185 9186 9811 9810 
9161 9162 9787 9786 9186 9187 9812 9811 
9162 9163 9788 9787 9187 9188 9813 9812 
9163 9164 9789 9788 9188 9189 9814 9813 
9164 9165 9790 9789 9189 9190 9815 9814 
9165 9166 9791 9790 9190 9191 9816 9815 
9166 9167 9792 9791 9191 9192 9817 9816 
9167 9168 9793 9792 9192 9193 9818 9817 
9168 9169 9794 9793 9193 9194 9819 9818 
9169 9170 9795 9794 9194 9195 9820 9819 
9170 9171 9796 9795 9195 9196 9821 9820 
9171 9172 9797 9796 9196 9197 9822 9821 
9172 9173 9798 9797 9197 9198 9823 9822 
9173 9174 9799 9798 9198 9199 9824 9823 
9175 9176 9801 9800 9200 9201 9826 9825 
9176 9177 9802 9801 9201 9202 9827 9826 
9177 9178 9803 9802 9202 9203 9828 9827 
9178 9179 9804 9803 9203 9204 9829 9828 
9179 9180 9805 9804 9204 9205 9830 9829 
9180 9181 9806 9805 9205 9206 9831 9830 
9181 9182 9807 9806 9206 9207 9832 9831 
9182 9183 9808 9807 9207 9208 9833 9832 
9183 9184 9809 9808 9208 9209 9834 9833 
9184 9185 9810 9809 9209 9210 9835 9834 
9185 9186 9811 9810 9210 9211 9836 9835 
9186 9187 9812 9811 9211 9212 9837 9836 
9187 9188 9813 9812 9212 9213 9838 9837 
9188 9189 9814 9813 9213 9214 9839 9838 
9189 9190 9815 9814 9214 9215 9840 9839 
9190 9191 9816 9815 9215 9216 9841 9840 
9191 9192 9817 9816 9216 9217 9842 9841 
9192 9193 9818 9817 9217 9218 9843 9842 
9193 9194 9819 9818 9218 9219 9844 9843 
9194 9195 9820 9819 9219 9220 9845 9844 
9195 9196 9821 9820 9220 9221 9846 9845 
9196 9197 9822 9821 9221 9222 9847 9846 
9197 9198 9823 9822 9222 9223 9848 9847 
9198 9199 9824 9823 9223 9224 9849 9848 
9200 9201 9826 9825 9225 9226 9851 9850 
9201 9202 9827 9826 9226 9227 9852 9851 
9202 9203 9828 9827 9227 9228 9853 9852 
9203 9204 9829 9828 9228 9229 9854 9853 
9204 9205 9830 9829 9229 9230 9855 9854 
9205 9206 9831 9830 9230 9231 9856 9855 
9206 9207 9832 9831 9231 9232 9857 9856 
9207 9208 9833 9832 9232 9233 9858 9857 
9208 9209 9834 9833 9233 9234 9859 9858 
9209 9210 9835 9834 9234 9235 9860 9859 
9210 9211 9836 9835 9235 9236 9861 9860 
9211 9212 9837 9836 9236 9237 9862 9861 
9212 9213 9838 9837 9237 9238 9863 9862 
9213 9214 9839 9838 9238 9239 9864 9863 
9214 9215 9840 9839 9239 9240 9865 9864 
9215 9216 9841 9840 9240 9241 9866 9865 
9216 9217 9842 9841 9241 9242 9867 9866 
9217 9218 9843 9842 9242 9243 9868 9867 
9218 9219 9844 9843 9243 9244 9869 9868 
9219 9220 9845 9844 9244 9245 9870 9869 
9220 9221 9846 9845 9245 9246 9871 9870 
9221 9222 9847 9846 9246 9247 9872 9871 
9222 9223 9848 9847 9247 9248 9873 9872 
9223 9224 9849 9848 9248 9249 9874 9873 
9225 9226 9851 9850 9250 9251 9876 9875 
9226 9227 9852 9851 9251 9252 9877 9876 
9227 9228 9853 9852 9252 9253 9878 9877 
9228 9229 9854 9853 9253 9254 9879 9878 
9229 9230 9855 9854 9254 9255 9880 9879 
9230 9231 9856 9855 9255 9256 9881 9880 
9231 9232 9857 9856 9256 9257 9882 9881 
9232 9233 9858 9857 9257 9258 9883 9882 
9233 9234 9859 9858 9258 9259 9884 9883 
9234 9235 9860 9859 9259 9260 9885 9884 
9235 9236 9861 9860 9260 9261 9886 9885 
9236 9237 9862 9861 9261 9262 9887 9886 
9237 9238 9863 9862 9262 9263 9888 9887 
9238 9239 9864 9863 9263 9264 9889 9888 
9239 9240 9865 9864 9264 9265 9890 9889 
9240 9241 9866 9865 9265 9266 9891 9890 
9241 9242 9867 9866 9266 9267 9892 9891 
9242 9243 9868 9867 9267 9268 9893 9892 
9243 9244 9869 9868 9268 9269 9894 9893 
9244 9245 9870 9869 9269 9270 9895 9894 
9245 9246 9871 9870 9270 9271 9896 9895 
9246 9247 9872 9871 9271 9272 9897 9896 
9247 9248 9873 9872 9272 9273 9898 9897 
9248 9249 9874 9873 9273 9274 9899 9898 
9250 9251 9876 9875 9275 9276 9901 9900 
9251 9252 9877 9876 9276 9277 9902 9901 
9252 9253 9878 9877 9277 9278 9903 9902 
9253 9254 9879 9878 9278 9279 9904 9903 
9254 9255 9880 9879 9279 9280 9905 9904 
9255 9256 9881 9880 9280 9281 9906 9905 
9256 9257 9882 9881 9281 9282 9907 9906 
9257 9258 9883 9882 9282 9283 9908 9907 
9258 9259 9884 9883 9283 9284 9909 9908 
9259 9260 9885 9884 9284 9285 9910 9909 
9260 9261 9886 9885 9285 9286 9911 9910 
9261 9262 9887 9886 9286 9287 9912 9911 
9262 9263 9888 9887 9287 9288 9913 9912 
9263 9264 9889 9888 9288 9289 9914 9913 
9264 9265 9890 9889 9289 9290 9915 9914 
9265 9266 9891 9890 9290 9291 9916 9915 
9266 9267 9892 9891 9291 9292 9917 9916 
9267 9268 9893 9892 9292 9293 9918 9917 
9268 9269 9894 9893 9293 9294 9919 9918 
9269 9270 9895 9894 9294 9295 9920 9919 
9270 9271 9896 9895 9295 9296 9921 9920 
9271 9272 9897 9896 9296 9297 9922 9921 
9272 9273 9898 9897 9297 9298 9923 9922 
9273 9274 9899 9898 9298 9299 9924 9923 
9275 9276 9901 9900 9300 9301 9926 9925 
9276 9277 9902 9901 9301 9302 9927 9926 
9277 9278 9903 9902 9302 9303 9928 9927 
9278 9279 9904 9903 9303 9304 9929 9928 
9279 9280 9905 9904 9304 9305 9930 9929 
9280 9281 9906 9905 9305 9306 9931 9930 
9281 9282 9907 9906 9306 9307 9932 9931 
9282 9283 9908 9907 9307 9308 9933 9932 
9283 9284 9909 9908 9308 9309 9934 9933 
9284 9285 9910 9909 9309 9310 9935 9934 
9285 9286 9911 9910 9310 9311 9936 9935 
9286 9287 9912 9911 9311 9312 9937 9936 
9287 9288 9913 9912 9312 9313 9938 9937 
9288 9289 9914 9913 9313 9314 9939 9938 
9289 9290 9915 9914 9314 9315 9940 9939 
9290 9291 9916 9915 9315 9316 9941 9940 
9291 9292 9917 9916 9316 9317 9942 9941 
9292 9293 9918 9917 9317 9318 9943 9942 
9293 9294 9919 9918 9318 9319 9944 9943 
9294 9295 9920 9919 9319 9320 9945 9944 
9295 9296 9921 9920 9320 9321 9946 9945 
9296 9297 9922 9921 9321 9322 9947 9946 
9297 9298 9923 9922 9322 9323 9948 9947 
9298 9299 9924 9923 9323 9324 9949 9948 
9300 9301 9926 9925 9325 9326 9951 9950 
9301 9302 9927 9926 9326 9327 9952 9951 
9302 9303 9928 9927 9327 9328 9953 9952 
9303 9304 9929 9928 9328 9329 9954 9953 
9304 9305 9930 9929 9329 9330 9955 9954 
9305 9306 9931 9930 9330 9331 9956 9955 
9306 9307 9932 9931 9331 9332 9957 9956 
9307 9308 9933 9932 9332 9333 9958 9957 
9308 9309 9934 9933 9333 9334 9959 9958 
9309 9310 9935 9934 9334 9335 9960 9959 
9310 9311 9936 9935 9335 9336 9961 9960 
9311 9312 9937 9936 9336 9337 9962 9961 
9312 9313 9938 9937 9337 9338 9963 9962 
9313 9314 9939 9938 9338 9339 9964 9963 
9314 9315 9940 9939 9339 9340 9965 9964 
9315 9316 9941 9940 9340 9341 9966 9965 
9316 9317 9942 9941 9341 9342 9967 9966 
9317 9318 9943 9942 9342 9343 9968 9967 
9318 9319 9944 9943 9343 9344 9969 9968 
9319 9320 9945 9944 9344 9345 9970 9969 
9320 9321 9946 9945 9345 9346 9971 9970 
9321 9322 9947 9946 9346 9347 9972 9971 
9322 9323 9948 9947 9347 9348 9973 9972 
9323 9324 9949 9948 9348 9349 9974 9973 
9325 9326 9951 9950 9350 9351 9976 9975 
9326 9327 9952 9951 9351 9352 9977 9976 
9327 9328 9953 9952 9352 9353 9978 9977 
9328 9329 9954 9953 9353 9354 9979 9978 
9329 9330 9955 9954 9354 9355 9980 9979 
9330 9331 9956 9955 9355 9356 9981 9980 
9331 9332 9957 9956 9356 9357 9982 9981 
9332 9333 9958 9957 9357 9358 9983 9982 
9333 9334 9959 9958 9358 9359 9984 9983 
9334 9335 9960 9959 9359 9360 9985 9984 
9335 9336 9961 9960 9360 9361 9986 9985 
9336 9337 9962 9961 9361 9362 9987 9986 
9337 9338 9963 9962 9362 9363 9988 9987 
9338 9339 9964 9963 9363 9364 9989 9988 
9339 9340 9965 9964 9364 9365 9990 9989 
9340 9341 9966 9965 9365 9366 9991 9990 
9341 9342 9967 9966 9366 9367 9992 9991 
9342 9343 9968 9967 9367 9368 9993 9992 
9343 9344 9969 9968 9368 9369 9994 9993 
9344 9345 9970 9969 9369 9370 9995 9994 
9345 9346 9971 9970 9370 9371 9996 9995 
9346 9347 9972 9971 9371 9372 9997 9996 
9347 9348 9973 9972 9372 9373 9998 9997 
9348 9349 9974 9973 9373 9374 9999 9998 
9375 9376 10001 10000 9400 9401 10026 10025 
9376 9377 10002 10001 9401 9402 10027 10026 
9377 9378 10003 10002 9402 9403 10028 10027 
9378 9379 10004 10003 9403 9404 10029 10028 
9379 9380 10005 10004 9404 9405 10030 10029 
9380 9381 10006 10005 9405 9406 10031 10030 
9381 9382 10007 10006 9406 9407 10032 10031 
9382 9383 10008 10007 9407 9408 10033 10032 
9383 9384 10009 10008 9408 9409 10034 10033 
9384 9385 10010 10009 9409 9410 10035 10034 
9385 9386 10011 10010 9410 9411 10036 10035 
9386 9387 10012 10011 9411 9412 10037 10036 
9387 9388 10013 10012 9412 9413 10038 10037 
9388 9389 10014 10013 9413 9414 10039 10038 
9389 9390 10015 10014 9414 9415 10040 10039 
9390 9391 10016 10015 9415 9416 10041 10040 
9391 9392 10017 10016 9416 9417 10042 10041 
9392 9393 10018 10017 9417 9418 10043 10042 
9393 9394 10019 10018 9418 9419 10044 10043 
9394 9395 10020 10019 9419 9420 10045 10044 
9395 9396 10021 10020 9420 9421 10046 10045 
9396 9397 10022 10021 9421 9422 10047 10046 
9397 9398 10023 10022 9422 9423 10048 10047 
9398 9399 10024 10023 9423 9424 10049 10048 
9400 9401 10026 10025 9425 9426 10051 10050 
9401 9402 10027 10026 9426 9427 10052 10051 
9402 9403 10028 10027 9427 9428 10053 10052 
9403 9404 10029 10028 9428 9429 10054 10053 
9404 9405 10030 10029 9429 9430 10055 10054 
9405 9406 10031 10030 9430 9431 10056 10055 
9406 9407 10032 10031 9431 9432 10057 10056 
9407 9408 10033 10032 9432 9433 10058 10057 
9408 9409 10034 10033 9433 9434 10059 10058 
9409 9410 10035 10034 9434 9435 10060 10059 
9410 9411 10036 10035 9435 9436 10061 10060 
9411 9412 10037 10036 9436 9437 10062 10061 
9412 9413 10038 10037 9437 9438 10063 10062 
9413 9414 10039 10038 9438 9439 10064 10063 
9414 9415 10040 10039 9439 9440 10065 10064 
9415 9416 10041 10040 9440 9441 10066 10065 
9416 9417 10042 10041 9441 9442 10067 10066 
9417 9418 10043 10042 9442 9443 10068 10067 
9418 9419 10044 10043 9443 9444 10069 10068 
9419 9420 10045 10044 9444 9445 10070 10069 
9420 9421 10046 10045 9445 9446 10071 10070 
9421 9422 10047 10046 9446 9447 10072 10071 
9422 9423 10048 10047 9447 9448 10073 10072 
9423 9424 10049 10048 9448 9449 10074 10073 
9425 9426 10051 10050 9450 9451 10076 10075 
9426 9427 10052 10051 9451 9452 10077 10076 
9427 9428 10053 10052 9452 9453 10078 10077 
9428 9429 10054 10053 9453 9454 10079 10078 
9429 9430 10055 10054 9454 9455 10080 10079 
9430 9431 10056 10055 9455 9456 10081 10080 
9431 9432 10057 10056 9456 9457 10082 10081 
9432 9433 10058 10057 9457 9458 10083 10082 
9433 9434 10059 10058 9458 9459 10084 10083 
9434 9435 10060 10059 9459 9460 10085 10084 
9435 9436 10061 10060 9460 9461 10086 10085 
9436 9437 10062 10061 9461 9462 10087 10086 
9437 9438 10063 10062 9462 9463 10088 10087 
9438 9439 10064 10063 9463 9464 10089 10088 
9439 9440 10065 10064 9464 9465 10090 10089 
9440 9441 10066 10065 9465 9466 10091 10090 
9441 9442 10067 10066 9466 9467 10092 10091 
9442 9443 10068 10067 9467 9468 10093 10092 
9443 9444 10069 10068 9468 9469 10094 10093 
9444 9445 10070 10069 9469 9470 10095 10094 
9445 9446 10071 10070 9470 9471 10096 10095 
9446 9447 10072 10071 9471 9472 10097 10096 
9447 9448 10073 10072 9472 9473 10098 10097 
9448 9449 10074 10073 9473 9474 10099 10098 
9450 9451 10076 10075 9475 9476 10101 10100 
9451 9452 10077 10076 9476 9477 10102 10101 
9452 9453 10078 10077 9477 9478 10103 10102 
9453 9454 10079 10078 9478 9479 10104 10103 
9454 9455 10080 10079 9479 9480 10105 10104 
9455 9456 10081 10080 9480 9481 10106 10105 
9456 9457 10082 10081 9481 9482 10107 10106 
9457 9458 10083 10082 9482 9483 10108 10107 
9458 9459 10084 10083 9483 9484 10109 10108 
9459 9460 10085 10084 9484 9485 10110 10109 
9460 9461 10086 10085 9485 9486 10111 10110 
9461 9462 10087 10086 9486 9487 10112 10111 
9462 9463 10088 10087 9487 9488 10113 10112 
9463 9464 10089 10088 9488 9489 10114 10113 
9464 9465 10090 10089 9489 9490 10115 10114 
9465 9466 10091 10090 9490 9491 10116 10115 
9466 9467 10092 10091 9491 9492 10117 10116 
9467 9468 10093 10092 9492 9493 10118 10117 
9468 9469 10094 10093 9493 9494 10119 10118 
9469 9470 10095 10094 9494 9495 10120 10119 
9470 9471 10096 10095 9495 9496 10121 10120 
9471 9472 10097 10096 9496 9497 10122 10121 
9472 9473 10098 10097 9497 9498 10123 10122 
9473 9474 10099 10098 9498 9499 10124 10123 
9475 9476 10101 10100 9500 9501 10126 10125 
9476 9477 10102 10101 9501 9502 10127 10126 
9477 9478 10103 10102 9502 9503 10128 10127 
9478 9479 10104 10103 9503 9504 10129 10128 
9479 9480 10105 10104 9504 9505 10130 10129 
9480 9481 10106 10105 9505 9506 10131 10130 
9481 9482 10107 10106 9506 9507 10132 10131 
9482 9483 10108 10107 9507 9508 10133 10132 
9483 9484 10109 10108 9508 9509 10134 10133 
9484 9485 10110 10109 9509 9510 10135 10134 
9485 9486 10111 10110 9510 9511 10136 10135 
9486 9487 10112 10111 9511 9512 10137 10136 
9487 9488 10113 10112 9512 9513 10138 10137 
9488 9489 10114 10113 9513 9514 10139 10138 
9489 9490 10115 10114 9514 9515 10140 10139 
9490 9491 10116 10115 9515 9516 10141 10140 
9491 9492 10117 10116 9516 9517 10142 10141 
9492 9493 10118 10117 9517 9518 10143 10142 
9493 9494 10119 10118 9518 9519 10144 10143 
9494 9495 10120 10119 9519 9520 10145 10144 
9495 9496 10121 10120 9520 9521 10146 10145 
9496 9497 10122 10121 9521 9522 10147 10146 
9497 9498 10123 10122 9522 9523 10148 10147 
9498 9499 10124 10123 9523 9524 10149 10148 
9500 9501 10126 10125 9525 9526 10151 10150 
9501 9502 10127 10126 9526 9527 10152 10151 
9502 9503 10128 10127 9527 9528 10153 10152 
9503 9504 10129 10128 9528 9529 10154 10153 
9504 9505 10130 10129 9529 9530 10155 10154 
9505 9506 10131 10130 9530 9531 10156 10155 
9506 9507 10132 10131 9531 9532 10157 10156 
9507 9508 10133 10132 9532 9533 10158 10157 
9508 9509 10134 10133 9533 9534 10159 10158 
9509 9510 10135 10134 9534 9535 10160 10159 
9510 9511 10136 10135 9535 9536 10161 10160 
9511 9512 10137 10136 9536 9537 10162 10161 
9512 9513 10138 10137 9537 9538 10163 10162 
9513 9514 10139 10138 9538 9539 10164 10163 
9514 9515 10140 10139 9539 9540 10165 10164 
9515 9516 10141 10140 9540 9541 10166 10165 
9516 9517 10142 10141 9541 9542 10167 10166 
9517 9518 10143 10142 9542 9543 10168 10167 
9518 9519 10144 10143 9543 9544 10169 10168 
9519 9520 10145 10144 9544 9545 10170 10169 
9520 9521 10146 10145 9545 9546 10171 10170 
9521 9522 10147 10146 9546 9547 10172 10171 
9522 9523 10148 10147 9547 9548 10173 10172 
9523 9524 10149 10148 9548 9549 10174 10173 
9525 9526 10151 10150 9550 9551 10176 10175 
9526 9527 10152 10151 9551 9552 10177 10176 
9527 9528 10153 10152 9552 9553 10178 10177 
9528 9529 10154 10153 9553 9554 10179 10178 
9529 9530 10155 10154 9554 9555 10180 10179 
9530 9531 10156 10155 9555 9556 10181 10180 
9531 9532 10157 10156 9556 9557 10182 10181 
9532 9533 10158 10157 9557 9558 10183 10182 
9533 9534 10159 10158 9558 9559 10184 10183 
9534 9535 10160 10159 9559 9560 10185 10184 
9535 9536 10161 10160 9560 9561 10186 10185 
9536 9537 10162 10161 9561 9562 10187 10186 
9537 9538 10163 10162 9562 9563 10188 10187 
9538 9539 10164 10163 9563 9564 10189 10188 
9539 9540 10165 10164 9564 9565 10190 10189 
9540 9541 10166 10165 9565 9566 10191 10190 
9541 9542 10167 10166 9566 9567 10192 10191 
9542 9543 10168 10167 9567 9568 10193 10192 
9543 9544 10169 10168 9568 9569 10194 10193 
9544 9545 10170 10169 9569 9570 10195 10194 
9545 9546 10171 10170 9570 9571 10196 10195 
9546 9547 10172 10171 9571 9572 10197 10196 
9547 9548 10173 10172 9572 9573 10198 10197 
9548 9549 10174 10173 9573 9574 10199 10198 
9550 9551 10176 10175 9575 9576 10201 10200 
9551 9552 10177 10176 9576 9577 10202 10201 
9552 9553 10178 10177 9577 9578 10203 10202 
9553 9554 10179 10178 9578 9579 10204 10203 
9554 9555 10180 10179 9579 9580 10205 10204 
9555 9556 10181 10180 9580 9581 10206 10205 
9556 9557 10182 10181 9581 9582 10207 10206 
9557 9558 10183 10182 9582 9583 10208 10207 
9558 9559 10184 10183 9583 9584 10209 10208 
9559 9560 10185 10184 9584 9585 10210 10209 
9560 9561 10186 10185 9585 9586 10211 10210 
9561 9562 10187 10186 9586 9587 10212 10211 
9562 9563 10188 10187 9587 9588 10213 10212 
9563 9564 10189 10188 9588 9589 10214 10213 
9564 9565 10190 10189 9589 9590 10215 10214 
9565 9566 10191 10190 9590 9591 10216 10215 
9566 9567 10192 10191 9591 9592 10217 10216 
9567 9568 10193 10192 9592 9593 10218 10217 
9568 9569 10194 10193 9593 9594 10219 10218 
9569 9570 10195 10194 9594 9595 10220 10219 
9570 9571 10196 10195 9595 9596 10221 10220 
9571 9572 10197 10196 9596 9597 10222 10221 
9572 9573 10198 10197 9597 9598 10223 10222 
9573 9574 10199 10198 9598 9599 10224 10223 
9575 9576 10201 10200 9600 9601 10226 10225 
9576 9577 10202 10201 9601 9602 10227 10226 
9577 9578 10203 10202 9602 9603 10228 10227 
9578 9579 10204 10203 9603 9604 10229 10228 
9579 9580 10205 10204 9604 9605 10230 10229 
9580 9581 10206 10205 9605 9606 10231 10230 
9581 9582 10207 10206 9606 9607 10232 10231 
9582 9583 10208 10207 9607 9608 10233 10232 
9583 9584 10209 10208 9608 9609 10234 10233 
9584 9585 10210 10209 9609 9610 10235 10234 
9585 9586 10211 10210 9610 9611 10236 10235 
9586 9587 10212 10211 9611 9612 10237 10236 
9587 9588 10213 10212 9612 9613 10238 10237 
9588 9589 10214 10213 9613 9614 10239 10238 
9589 9590 10215 10214 9614 9615 10240 10239 
9590 9591 10216 10215 9615 9616 10241 10240 
9591 9592 10217 10216 9616 9617 10242 10241 
9592 9593 10218 10217 9617 9618 10243 10242 
9593 9594 10219 10218 9618 9619 10244 10243 
9594 9595 10220 10219 9619 9620 10245 10244 
9595 9596 10221 10220 9620 9621 10246 10245 
9596 9597 10222 10221 9621 9622 10247 10246 
9597 9598 10223 10222 9622 9623 10248 10247 
9598 9599 10224 10223 9623 9624 10249 10248 
9600 9601 10226 10225 9625 9626 10251 10250 
9601 9602 10227 10226 9626 9627 10252 10251 
9602 9603 10228 10227 9627 9628 10253 10252 
9603 9604 10229 10228 9628 9629 10254 10253 
9604 9605 10230 10229 9629 9630 10255 10254 
9605 9606 10231 10230 9630 9631 10256 10255 
9606 9607 10232 10231 9631 9632 10257 10256 
9607 9608 10233 10232 9632 9633 10258 10257 
9608 9609 10234 10233 9633 9634 10259 10258 
9609 9610 10235 10234 9634 9635 10260 10259 
9610 9611 10236 10235 9635 9636 10261 10260 
9611 9612 10237 10236 9636 9637 10262 10261 
9612 9613 10238 10237 9637 9638 10263 10262 
9613 9614 10239 10238 9638 9639 10264 10263 
9614 9615 10240 10239 9639 9640 10265 10264 
9615 9616 10241 10240 9640 9641 10266 10265 
9616 9617 10242 10241 9641 9642 10267 10266 
9617 9618 10243 10242 9642 9643 10268 10267 
9618 9619 10244 10243 9643 9644 10269 10268 
9619 9620 10245 10244 9644 9645 10270 10269 
9620 9621 10246 10245 9645 9646 10271 10270 
9621 9622 10247 10246 9646 9647 10272 10271 
9622 9623 10248 10247 9647 9648 10273 10272 
9623 9624 10249 10248 9648 9649 10274 10273 
9625 9626 10251 10250 9650 9651 10276 10275 
9626 9627 10252 10251 9651 9652 10277 10276 
9627 9628 10253 10252 9652 9653 10278 10277 
9628 9629 10254 10253 9653 9654 10279 10278 
9629 9630 10255 10254 9654 9655 10280 10279 
9630 9631 10256 10255 9655 9656 10281 10280 
9631 9632 10257 10256 9656 9657 10282 10281 
9632 9633 10258 10257 9657 9658 10283 10282 
9633 9634 10259 10258 9658 9659 10284 10283 
9634 9635 10260 10259 9659 9660 10285 10284 
9635 9636 10261 10260 9660 9661 10286 10285 
9636 9637 10262 10261 9661 9662 10287 10286 
9637 9638 10263 10262 9662 9663 10288 10287 
9638 9639 10264 10263 9663 9664 10289 10288 
9639 9640 10265 10264 9664 9665 10290 10289 
9640 9641 10266 10265 9665 9666 10291 10290 
9641 9642 10267 10266 9666 9667 10292 10291 
9642 9643 10268 10267 9667 9668 10293 10292 
9643 9644 10269 10268 9668 9669 10294 10293 
9644 9645 10270 10269 9669 9670 10295 10294 
9645 9646 10271 10270 9670 9671 10296 10295 
9646 9647 10272 10271 9671 9672 10297 10296 
9647 9648 10273 10272 9672 9673 10298 10297 
9648 9649 10274 10273 9673 9674 10299 10298 
9650 9651 10276 10275 9675 9676 10301 10300 
9651 9652 10277 10276 9676 9677 10302 10301 
9652 9653 10278 10277 9677 9678 10303 10302 
9653 9654 10279 10278 9678 9679 10304 10303 
9654 9655 10280 10279 9679 9680 10305 10304 
9655 9656 10281 10280 9680 9681 10306 10305 
9656 9657 10282 10281 9681 9682 10307 10306 
9657 9658 10283 10282 9682 9683 10308 10307 
9658 9659 10284 10283 9683 9684 10309 10308 
9659 9660 10285 10284 9684 9685 10310 10309 
9660 9661 10286 10285 9685 9686 10311 10310 
9661 9662 10287 10286 9686 9687 10312 10311 
9662 9663 10288 10287 9687 9688 10313 10312 
9663 9664 10289 10288 9688 9689 10314 10313 
9664 9665 10290 10289 9689 9690 10315 10314 
9665 9666 10291 10290 9690 9691 10316 10315 
9666 9667 10292 10291 9691 9692 10317 10316 
9667 9668 10293 10292 9692 9693 10318 10317 
9668 9669 10294 10293 9693 9694 10319 10318 
9669 9670 10295 10294 9694 9695 10320 10319 
9670 9671 10296 10295 9695 9696 10321 10320 
9671 9672 10297 10296 9696 9697 10322 10321 
9672 9673 10298 10297 9697 9698 10323 10322 
9673 9674 10299 10298 9698 9699 10324 10323 
9675 9676 10301 10300 9700 9701 10326 10325 
9676 9677 10302 10301 9701 9702 10327 10326 
9677 9678 10303 10302 9702 9703 10328 10327 
9678 9679 10304 10303 9703 9704 10329 10328 
9679 9680 10305 10304 9704 9705 10330 10329 
9680 9681 10306 10305 9705 9706 10331 10330 
9681 9682 10307 10306 9706 9707 10332 10331 
9682 9683 10308 10307 9707 9708 10333 10332 
9683 9684 10309 10308 9708 9709 10334 10333 
9684 9685 10310 10309 9709 9710 10335 10334 
9685 9686 10311 10310 9710 9711 10336 10335 
9686 9687 10312 10311 9711 9712 10337 10336 
9687 9688 10313 10312 9712 9713 10338 10337 
9688 9689 10314 10313 9713 9714 10339 10338 
9689 9690 10315 10314 9714 9715 10340 10339 
9690 9691 10316 10315 9715 9716 10341 10340 
9691 9692 10317 10316 9716 9717 10342 10341 
9692 9693 10318 10317 9717 9718 10343 10342 
9693 9694 10319 10318 9718 9719 10344 10343 
9694 9695 10320 10319 9719 9720 10345 10344 
9695 9696 10321 10320 9720 9721 10346 10345 
9696 9697 10322 10321 9721 9722 10347 10346 
9697 9698 10323 10322 9722 9723 10348 10347 
9698 9699 10324 10323 9723 9724 10349 10348 
9700 9701 10326 10325 9725 9726 10351 10350 
9701 9702 10327 10326 9726 9727 10352 10351 
9702 9703 10328 10327 9727 9728 10353 10352 
9703 9704 10329 10328 9728 9729 10354 10353 
9704 9705 10330 10329 9729 9730 10355 10354 
9705 9706 10331 10330 9730 9731 10356 10355 
9706 9707 10332 10331 9731 9732 10357 10356 
9707 9708 10333 10332 9732 9733 10358 10357 
9708 9709 10334 10333 9733 9734 10359 10358 
9709 9710 10335 10334 9734 9735 10360 10359 
9710 9711 10336 10335 9735 9736 10361 10360 
9711 9712 10337 10336 9736 9737 10362 10361 
9712 9713 10338 10337 9737 9738 10363 10362 
9713 9714 10339 10338 9738 9739 10364 10363 
9714 9715 10340 10339 9739 9740 10365 10364 
9715 9716 10341 10340 9740 9741 10366 10365 
9716 9717 10342 10341 9741 9742 10367 10366 
9717 9718 10343 10342 9742 9743 10368 10367 
9718 9719 10344 10343 9743 9744 10369 10368 
9719 9720 10345 10344 9744 9745 10370 10369 
9720 9721 10346 10345 9745 9746 10371 10370 
9721 9722 10347 10346 9746 9747 10372 10371 
9722 9723 10348 10347 9747 9748 10373 10372 
9723 9724 10349 10348 9748 9749 10374 10373 
9725 9726 10351 10350 9750 9751 10376 10375 
9726 9727 10352 10351 9751 9752 10377 10376 
9727 9728 10353 10352 9752 9753 10378 10377 
9728 9729 10354 10353 9753 9754 10379 10378 
9729 9730 10355 10354 9754 9755 10380 10379 
9730 9731 10356 10355 9755 9756 10381 10380 
9731 9732 10357 10356 9756 9757 10382 10381 
9732 9733 10358 10357 9757 9758 10383 10382 
9733 9734 10359 10358 9758 9759 10384 10383 
9734 9735 10360 10359 9759 9760 10385 10384 
9735 9736 10361 10360 9760 9761 10386 10385 
9736 9737 10362 10361 9761 9762 10387 10386 
9737 9738 10363 10362 9762 9763 10388 10387 
9738 9739 10364 10363 9763 9764 10389 10388 
9739 9740 10365 10364 9764 9765 10390 10389 
9740 9741 10366 10365 9765 9766 10391 10390 
9741 9742 10367 10366 9766 9767 10392 10391 
9742 9743 10368 10367 9767 9768 10393 10392 
9743 9744 10369 10368 9768 9769 10394 10393 
9744 9745 10370 10369 9769 9770 10395 10394 
9745 9746 10371 10370 9770 9771 10396 10395 
9746 9747 10372 10371 9771 9772 10397 10396 
9747 9748 10373 10372 9772 9773 10398 10397 
9748 9749 10374 10373 9773 9774 10399 10398 
9750 9751 10376 10375 9775 9776 10401 10400 
9751 9752 10377 10376 9776 9777 10402 10401 
9752 9753 10378 10377 9777 9778 10403 10402 
9753 9754 10379 10378 9778 9779 10404 10403 
9754 9755 10380 10379 9779 9780 10405 10404 
9755 9756 10381 10380 9780 9781 10406 10405 
9756 9757 10382 10381 9781 9782 10407 10406 
9757 9758 10383 10382 9782 9783 10408 10407 
9758 9759 10384 10383 9783 9784 10409 10408 
9759 9760 10385 10384 9784 9785 10410 10409 
9760 9761 10386 10385 9785 9786 10411 10410 
9761 9762 10387 10386 9786 9787 10412 10411 
9762 9763 10388 10387 9787 9788 10413 10412 
9763 9764 10389 10388 9788 9789 10414 10413 
9764 9765 10390 10389 9789 9790 10415 10414 
9765 9766 10391 10390 9790 9791 10416 10415 
9766 9767 10392 10391 9791 9792 10417 10416 
9767 9768 10393 10392 9792 9793 10418 10417 
9768 9769 10394 10393 9793 9794 10419 10418 
9769 9770 10395 10394 9794 9795 10420 10419 
9770 9771 10396 10395 9795 9796 10421 10420 
9771 9772 10397 10396 9796 9797 10422 10421 
9772 9773 10398 10397 9797 9798 10423 10422 
9773 9774 10399 10398 9798 9799 10424 10423 
9775 9776 10401 10400 9800 9801 10426 10425 
9776 9777 10402 10401 9801 9802 10427 10426 
9777 9778 10403 10402 9802 9803 10428 10427 
9778 9779 10404 10403 9803 9804 10429 10428 
9779 9780 10405 10404 9804 9805 10430 10429 
9780 9781 10406 10405 9805 9806 10431 10430 
9781 9782 10407 10406 9806 9807 10432 10431 
9782 9783 10408 10407 9807 9808 10433 10432 
9783 9784 10409 10408 9808 9809 10434 10433 
9784 9785 10410 10409 9809 9810 10435 10434 
9785 9786 10411 10410 9810 9811 10436 10435 
9786 9787 10412 10411 9811 9812 10437 10436 
9787 9788 10413 10412 9812 9813 10438 10437 
9788 9789 10414 10413 9813 9814 10439 10438 
9789 9790 10415 10414 9814 9815 10440 10439 
9790 9791 10416 10415 9815 9816 10441 10440 
9791 9792 10417 10416 9816 9817 10442 10441 
9792 9793 10418 10417 9817 9818 10443 10442 
9793 9794 10419 10418 9818 9819 10444 10443 
9794 9795 10420 10419 9819 9820 10445 10444 
9795 9796 10421 10420 9820 9821 10446 10445 
9796 9797 10422 10421 9821 9822 10447 10446 
9797 9798 10423 10422 9822 9823 10448 10447 
9798 9799 10424 10423 9823 9824 10449 10448 
9800 9801 10426 10425 9825 9826 10451 10450 
9801 9802 10427 10426 9826 9827 10452 10451 
9802 9803 10428 10427 9827 9828 10453 10452 
9803 9804 10429 10428 9828 9829 10454 10453 
9804 9805 10430 10429 9829 9830 10455 10454 
9805 9806 10431 10430 9830 9831 10456 10455 
9806 9807 10432 10431 9831 9832 10457 10456 
9807 9808 10433 10432 9832 9833 10458 10457 
9808 9809 10434 10433 9833 9834 10459 10458 
9809 9810 10435 10434 9834 9835 10460 10459 
9810 9811 10436 10435 9835 9836 10461 10460 
9811 9812 10437 10436 9836 9837 10462 10461 
9812 9813 10438 10437 9837 9838 10463 10462 
9813 9814 10439 10438 9838 9839 10464 10463 
9814 9815 10440 10439 9839 9840 10465 10464 
9815 9816 10441 10440 9840 9841 10466 10465 
9816 9817 10442 10441 9841 9842 10467 10466 
9817 9818 10443 10442 9842 9843 10468 10467 
9818 9819 10444 10443 9843 9844 10469 10468 
9819 9820 10445 10444 9844 9845 10470 10469 
9820 9821 10446 10445 9845 9846 10471 10470 
9821 9822 10447 10446 9846 9847 10472 10471 
9822 9823 10448 10447 9847 9848 10473 10472 
9823 9824 10449 10448 9848 9849 10474 10473 
9825 9826 10451 10450 9850 9851 10476 10475 
9826 9827 10452 10451 9851 9852 10477 10476 
9827 9828 10453 10452 9852 9853 10478 10477 
9828 9829 10454 10453 9853 9854 10479 10478 
9829 9830 10455 10454 9854 9855 10480 10479 
9830 9831 10456 10455 9855 9856 10481 10480 
9831 9832 10457 10456 9856 9857 10482 10481 
9832 9833 10458 10457 9857 9858 10483 10482 
9833 9834 10459 10458 9858 9859 10484 10483 
9834 9835 10460 10459 9859 9860 10485 10484 
9835 9836 10461 10460 9860 9861 10486 10485 
9836 9837 10462 10461 9861 9862 10487 10486 
9837 9838 10463 10462 9862 9863 10488 10487 
9838 9839 10464 10463 9863 9864 10489 10488 
9839 9840 10465 10464 9864 9865 10490 10489 
9840 9841 10466 10465 9865 9866 10491 10490 
9841 9842 10467 10466 9866 9867 10492 10491 
9842 9843 10468 10467 9867 9868 10493 10492 
9843 9844 10469 10468 9868 9869 10494 10493 
9844 9845 10470 10469 9869 9870 10495 10494 
9845 9846 10471 10470 9870 9871 10496 10495 
9846 9847 10472 10471 9871 9872 10497 10496 
9847 9848 10473 10472 9872 9873 10498 10497 
9848 9849 10474 10473 9873 9874 10499 10498 
9850 9851 10476 10475 9875 9876 10501 10500 
9851 9852 10477 10476 9876 9877 10502 10501 
9852 9853 10478 10477 9877 9878 10503 10502 
9853 9854 10479 10478 9878 9879 10504 10503 
9854 9855 10480 10479 9879 9880 10505 10504 
9855 9856 10481 10480 9880 9881 10506 10505 
9856 9857 10482 10481 9881 9882 10507 10506 
9857 9858 10483 10482 9882 9883 10508 10507 
9858 9859 10484 10483 9883 9884 10509 10508 
9859 9860 10485 10484 9884 9885 10510 10509 
9860 9861 10486 10485 9885 9886 10511 10510 
9861 9862 10487 10486 9886 9887 10512 10511 
9862 9863 10488 10487 9887 9888 10513 10512 
9863 9864 10489 10488 9888 9889 10514 10513 
9864 9865 10490 10489 9889 9890 10515 10514 
9865 9866 10491 10490 9890 9891 10516 10515 
9866 9867 10492 10491 9891 9892 10517 10516 
9867 9868 10493 10492 9892 9893 10518 10517 
9868 9869 10494 10493 9893 9894 10519 10518 
9869 9870 10495 10494 9894 9895 10520 10519 
9870 9871 10496 10495 9895 9896 10521 10520 
9871 9872 10497 10496 9896 9897 10522 10521 
9872 9873 10498 10497 9897 9898 10523 10522 
9873 9874 10499 10498 9898 9899 10524 10523 
9875 9876 10501 10500 9900 9901 10526 10525 
9876 9877 10502 10501 9901 9902 10527 10526 
9877 9878 10503 10502 9902 9903 10528 10527 
9878 9879 10504 10503 9903 9904 10529 10528 
9879 9880 10505 10504 9904 9905 10530 10529 
9880 9881 10506 10505 9905 9906 10531 10530 
9881 9882 10507 10506 9906 9907 10532 10531 
9882 9883 10508 10507 9907 9908 10533 10532 
9883 9884 10509 10508 9908 9909 10534 10533 
9884 9885 10510 10509 9909 9910 10535 10534 
9885 9886 10511 10510 9910 9911 10536 10535 
9886 9887 10512 10511 9911 9912 10537 10536 
9887 9888 10513 10512 9912 9913 10538 10537 
9888 9889 10514 10513 9913 9914 10539 10538 
9889 9890 10515 10514 9914 9915 10540 10539 
9890 9891 10516 10515 9915 9916 10541 10540 
9891 9892 10517 10516 9916 9917 10542 10541 
9892 9893 10518 10517 9917 9918 10543 10542 
9893 9894 10519 10518 9918 9919 10544 10543 
9894 9895 10520 10519 9919 9920 10545 10544 
9895 9896 10521 10520 9920 9921 10546 10545 
9896 9897 10522 10521 9921 9922 10547 10546 
9897 9898 10523 10522 9922 9923 10548 10547 
9898 9899 10524 10523 9923 9924 10549 10548 
9900 9901 10526 10525 9925 9926 10551 10550 
9901 9902 10527 10526 9926 9927 10552 10551 
9902 9903 10528 10527 9927 9928 10553 10552 
9903 9904 10529 10528 9928 9929 10554 10553 
9904 9905 10530 10529 9929 9930 10555 10554 
9905 9906 10531 10530 9930 9931 10556 10555 
9906 9907 10532 10531 9931 9932 10557 10556 
9907 9908 10533 10532 9932 9933 10558 10557 
9908 9909 10534 10533 9933 9934 10559 10558 
9909 9910 10535 10534 9934 9935 10560 10559 
9910 9911 10536 10535 9935 9936 10561 10560 
9911 9912 10537 10536 9936 9937 10562 10561 
9912 9913 10538 10537 9937 9938 10563 10562 
9913 9914 10539 10538 9938 9939 10564 10563 
9914 9915 10540 10539 9939 9940 10565 10564 
9915 9916 10541 10540 9940 9941 10566 10565 
9916 9917 10542 10541 9941 9942 10567 10566 
9917 9918 10543 10542 9942 9943 10568 10567 
9918 9919 10544 10543 9943 9944 10569 10568 
9919 9920 10545 10544 9944 9945 10570 10569 
9920 9921 10546 10545 9945 9946 10571 10570 
9921 9922 10547 10546 9946 9947 10572 10571 
9922 9923 10548 10547 9947 9948 10573 10572 
9923 9924 10549 10548 9948 9949 10574 10573 
9925 9926 10551 10550 9950 9951 10576 10575 
9926 9927 10552 10551 9951 9952 10577 10576 
9927 9928 10553 10552 9952 9953 10578 10577 
9928 9929 10554 10553 9953 9954 10579 10578 
9929 9930 10555 10554 9954 9955 10580 10579 
9930 9931 10556 10555 9955 9956 10581 10580 
9931 9932 10557 10556 9956 9957 10582 10581 
9932 9933 10558 10557 9957 9958 10583 10582 
9933 9934 10559 10558 9958 9959 10584 10583 
9934 9935 10560 10559 9959 9960 10585 10584 
9935 9936 10561 10560 9960 9961 10586 10585 
9936 9937 10562 10561 9961 9962 10587 10586 
9937 9938 10563 10562 9962 9963 10588 10587 
9938 9939 10564 10563 9963 9964 10589 10588 
9939 9940 10565 10564 9964 9965 10590 10589 
9940 9941 10566 10565 9965 9966 10591 10590 
9941 9942 10567 10566 9966 9967 10592 10591 
9942 9943 10568 10567 9967 9968 10593 10592 
9943 9944 10569 10568 9968 9969 10594 10593 
9944 9945 10570 10569 9969 9970 10595 10594 
9945 9946 10571 10570 9970 9971 10596 10595 
9946 9947 10572 10571 9971 9972 10597 10596 
9947 9948 10573 10572 9972 9973 10598 10597 
9948 9949 10574 10573 9973 9974 10599 10598 
9950 9951 10576 10575 9975 9976 10601 10600 
9951 9952 10577 10576 9976 9977 10602 10601 
9952 9953 10578 10577 9977 9978 10603 10602 
9953 9954 10579 10578 9978 9979 10604 10603 
9954 9955 10580 10579 9979 9980 10605 10604 
9955 9956 10581 10580 9980 9981 10606 10605 
9956 9957 10582 10581 9981 9982 10607 10606 
9957 9958 10583 10582 9982 9983 10608 10607 
9958 9959 10584 10583 9983 9984 10609 10608 
9959 9960 10585 10584 9984 9985 10610 10609 
9960 9961 10586 10585 9985 9986 10611 10610 
9961 9962 10587 10586 9986 9987 10612 10611 
9962 9963 10588 10587 9987 9988 10613 10612 
9963 9964 10589 10588 9988 9989 10614 10613 
9964 9965 10590 10589 9989 9990 10615 10614 
9965 9966 10591 10590 9990 9991 10616 10615 
9966 9967 10592 10591 9991 9992 10617 10616 
9967 9968 10593 10592 9992 9993 10618 10617 
9968 9969 10594 10593 9993 9994 10619 10618 
9969 9970 10595 10594 9994 9995 10620 10619 
9970 9971 10596 10595 9995 9996 10621 10620 
9971 9972 10597 10596 9996 9997 10622 10621 
9972 9973 10598 10597 9997 9998 10623 10622 
9973 9974 10599 10598 9998 9999 10624 10623 
10000 10001 10626 10625 10025 10026 10651 10650 
10001 10002 10627 10626 10026 10027 10652 10651 
10002 10003 10628 10627 10027 10028 10653 10652 
10003 10004 10629 10628 10028 10029 10654 10653 
10004 10005 10630 10629 10029 10030 10655 10654 
10005 10006 10631 10630 10030 10031 10656 10655 
10006 10007 10632 10631 10031 10032 10657 10656 
10007 10008 10633 10632 10032 10033 10658 10657 
10008 10009 10634 10633 10033 10034 10659 10658 
10009 10010 10635 10634 10034 10035 10660 10659 
10010 10011 10636 10635 10035 10036 10661 10660 
10011 10012 10637 10636 10036 10037 10662 10661 
10012 10013 10638 10637 10037 10038 10663 10662 
10013 10014 10639 10638 10038 10039 10664 10663 
10014 10015 10640 10639 10039 10040 10665 10664 
10015 10016 10641 10640 10040 10041 10666 10665 
10016 10017 10642 10641 10041 10042 10667 10666 
10017 10018 10643 10642 10042 10043 10668 10667 
10018 10019 10644 10643 10043 10044 10669 10668 
10019 10020 10645 10644 10044 10045 10670 10669 
10020 10021 10646 10645 10045 10046 10671 10670 
10021 10022 10647 10646 10046 10047 10672 10671 
10022 10023 10648 10647 10047 10048 10673 10672 
10023 10024 10649 10648 10048 10049 10674 10673 
10025 10026 10651 10650 10050 10051 10676 10675 
10026 10027 10652 10651 10051 10052 10677 10676 
10027 10028 10653 10652 10052 10053 10678 10677 
10028 10029 10654 10653 10053 10054 10679 10678 
10029 10030 10655 10654 10054 10055 10680 10679 
10030 10031 10656 10655 10055 10056 10681 10680 
10031 10032 10657 10656 10056 10057 10682 10681 
10032 10033 10658 10657 10057 10058 10683 10682 
10033 10034 10659 10658 10058 10059 10684 10683 
10034 10035 10660 10659 10059 10060 10685 10684 
10035 10036 10661 10660 10060 10061 10686 10685 
10036 10037 10662 10661 10061 10062 10687 10686 
10037 10038 10663 10662 10062 10063 10688 10687 
10038 10039 10664 10663 10063 10064 10689 10688 
10039 10040 10665 10664 10064 10065 10690 10689 
10040 10041 10666 10665 10065 10066 10691 10690 
10041 10042 10667 10666 10066 10067 10692 10691 
10042 10043 10668 10667 10067 10068 10693 10692 
10043 10044 10669 10668 10068 10069 10694 10693 
10044 10045 10670 10669 10069 10070 10695 10694 
10045 10046 10671 10670 10070 10071 10696 10695 
10046 10047 10672 10671 10071 10072 10697 10696 
10047 10048 10673 10672 10072 10073 10698 10697 
10048 10049 10674 10673 10073 10074 10699 10698 
10050 10051 10676 10675 10075 10076 10701 10700 
10051 10052 10677 10676 10076 10077 10702 10701 
10052 10053 10678 10677 10077 10078 10703 10702 
10053 10054 10679 10678 10078 10079 10704 10703 
10054 10055 10680 10679 10079 10080 10705 10704 
10055 10056 10681 10680 10080 10081 10706 10705 
10056 10057 10682 10681 10081 10082 10707 10706 
10057 10058 10683 10682 10082 10083 10708 10707 
10058 10059 10684 10683 10083 10084 10709 10708 
10059 10060 10685 10684 10084 10085 10710 10709 
10060 10061 10686 10685 10085 10086 10711 10710 
10061 10062 10687 10686 10086 10087 10712 10711 
10062 10063 10688 10687 10087 10088 10713 10712 
10063 10064 10689 10688 10088 10089 10714 10713 
10064 10065 10690 10689 10089 10090 10715 10714 
10065 10066 10691 10690 10090 10091 10716 10715 
10066 10067 10692 10691 10091 10092 10717 10716 
10067 10068 10693 10692 10092 10093 10718 10717 
10068 10069 10694 10693 10093 10094 10719 10718 
10069 10070 10695 10694 10094 10095 10720 10719 
10070 10071 10696 10695 10095 10096 10721 10720 
10071 10072 10697 10696 10096 10097 10722 10721 
10072 10073 10698 10697 10097 10098 10723 10722 
10073 10074 10699 10698 10098 10099 10724 10723 
10075 10076 10701 10700 10100 10101 10726 10725 
10076 10077 10702 10701 10101 10102 10727 10726 
10077 10078 10703 10702 10102 10103 10728 10727 
10078 10079 10704 10703 10103 10104 10729 10728 
10079 10080 10705 10704 10104 10105 10730 10729 
10080 10081 10706 10705 10105 10106 10731 10730 
10081 10082 10707 10706 10106 10107 10732 10731 
10082 10083 10708 10707 10107 10108 10733 10732 
10083 10084 10709 10708 10108 10109 10734 10733 
10084 10085 10710 10709 10109 10110 10735 10734 
10085 10086 10711 10710 10110 10111 10736 10735 
10086 10087 10712 10711 10111 10112 10737 10736 
10087 10088 10713 10712 10112 10113 10738 10737 
10088 10089 10714 10713 10113 10114 10739 10738 
10089 10090 10715 10714 10114 10115 10740 10739 
10090 10091 10716 10715 10115 10116 10741 10740 
10091 10092 10717 10716 10116 10117 10742 10741 
10092 10093 10718 10717 10117 10118 10743 10742 
10093 10094 10719 10718 10118 10119 10744 10743 
10094 10095 10720 10719 10119 10120 10745 10744 
10095 10096 10721 10720 10120 10121 10746 10745 
10096 10097 10722 10721 10121 10122 10747 10746 
10097 10098 10723 10722 10122 10123 10748 10747 
10098 10099 10724 10723 10123 10124 10749 10748 
10100 10101 10726 10725 10125 10126 10751 10750 
10101 10102 10727 10726 10126 10127 10752 10751 
10102 10103 10728 10727 10127 10128 10753 10752 
10103 10104 10729 10728 10128 10129 10754 10753 
10104 10105 10730 10729 10129 10130 10755 10754 
10105 10106 10731 10730 10130 10131 10756 10755 
10106 10107 10732 10731 10131 10132 10757 10756 
10107 10108 10733 10732 10132 10133 10758 10757 
10108 10109 10734 10733 10133 10134 10759 10758 
10109 10110 10735 10734 10134 10135 10760 10759 
10110 10111 10736 10735 10135 10136 10761 10760 
10111 10112 10737 10736 10136 10137 10762 10761 
10112 10113 10738 10737 10137 10138 10763 10762 
10113 10114 10739 10738 10138 10139 10764 10763 
10114 10115 10740 10739 10139 10140 10765 10764 
10115 10116 10741 10740 10140 10141 10766 10765 
10116 10117 10742 10741 10141 10142 10767 10766 
10117 10118 10743 10742 10142 10143 10768 10767 
10118 10119 10744 10743 10143 10144 10769 10768 
10119 10120 10745 10744 10144 10145 10770 10769 
10120 10121 10746 10745 10145 10146 10771 10770 
10121 10122 10747 10746 10146 10147 10772 10771 
10122 10123 10748 10747 10147 10148 10773 10772 
10123 10124 10749 10748 10148 10149 10774 10773 
10125 10126 10751 10750 10150 10151 10776 10775 
10126 10127 10752 10751 10151 10152 10777 10776 
10127 10128 10753 10752 10152 10153 10778 10777 
10128 10129 10754 10753 10153 10154 10779 10778 
10129 10130 10755 10754 10154 10155 10780 10779 
10130 10131 10756 10755 10155 10156 10781 10780 
10131 10132 10757 10756 10156 10157 10782 10781 
10132 10133 10758 10757 10157 10158 10783 10782 
10133 10134 10759 10758 10158 10159 10784 10783 
10134 10135 10760 10759 10159 10160 10785 10784 
10135 10136 10761 10760 10160 10161 10786 10785 
10136 10137 10762 10761 10161 10162 10787 10786 
10137 10138 10763 10762 10162 10163 10788 10787 
10138 10139 10764 10763 10163 10164 10789 10788 
10139 10140 10765 10764 10164 10165 10790 10789 
10140 10141 10766 10765 10165 10166 10791 10790 
10141 10142 10767 10766 10166 10167 10792 10791 
10142 10143 10768 10767 10167 10168 10793 10792 
10143 10144 10769 10768 10168 10169 10794 10793 
10144 10145 10770 10769 10169 10170 10795 10794 
10145 10146 10771 10770 10170 10171 10796 10795 
10146 10147 10772 10771 10171 10172 10797 10796 
10147 10148 10773 10772 10172 10173 10798 10797 
10148 10149 10774 10773 10173 10174 10799 10798 
10150 10151 10776 10775 10175 10176 10801 10800 
10151 10152 10777 10776 10176 10177 10802 10801 
10152 10153 10778 10777 10177 10178 10803 10802 
10153 10154 10779 10778 10178 10179 10804 10803 
10154 10155 10780 10779 10179 10180 10805 10804 
10155 10156 10781 10780 10180 10181 10806 10805 
10156 10157 10782 10781 10181 10182 10807 10806 
10157 10158 10783 10782 10182 10183 10808 10807 
10158 10159 10784 10783 10183 10184 10809 10808 
10159 10160 10785 10784 10184 10185 10810 10809 
10160 10161 10786 10785 10185 10186 10811 10810 
10161 10162 10787 10786 10186 10187 10812 10811 
10162 10163 10788 10787 10187 10188 10813 10812 
10163 10164 10789 10788 10188 10189 10814 10813 
10164 10165 10790 10789 10189 10190 10815 10814 
10165 10166 10791 10790 10190 10191 10816 10815 
10166 10167 10792 10791 10191 10192 10817 10816 
10167 10168 10793 10792 10192 10193 10818 10817 
10168 10169 10794 10793 10193 10194 10819 10818 
10169 10170 10795 10794 10194 10195 10820 10819 
10170 10171 10796 10795 10195 10196 10821 10820 
10171 10172 10797 10796 10196 10197 10822 10821 
10172 10173 10798 10797 10197 10198 10823 10822 
10173 10174 10799 10798 10198 10199 10824 10823 
10175 10176 10801 10800 10200 10201 10826 10825 
10176 10177 10802 10801 10201 10202 10827 10826 
10177 10178 10803 10802 10202 10203 10828 10827 
10178 10179 10804 10803 10203 10204 10829 10828 
10179 10180 10805 10804 10204 10205 10830 10829 
10180 10181 10806 10805 10205 10206 10831 10830 
10181 10182 10807 10806 10206 10207 10832 10831 
10182 10183 10808 10807 10207 10208 10833 10832 
10183 10184 10809 10808 10208 10209 10834 10833 
10184 10185 10810 10809 10209 10210 10835 10834 
10185 10186 10811 10810 10210 10211 10836 10835 
10186 10187 10812 10811 10211 10212 10837 10836 
10187 10188 10813 10812 10212 10213 10838 10837 
10188 10189 10814 10813 10213 10214 10839 10838 
10189 10190 10815 10814 10214 10215 10840 10839 
10190 10191 10816 10815 10215 10216 10841 10840 
10191 10192 10817 10816 10216 10217 10842 10841 
10192 10193 10818 10817 10217 10218 10843 10842 
10193 10194 10819 10818 10218 10219 10844 10843 
10194 10195 10820 10819 10219 10220 10845 10844 
10195 10196 10821 10820 10220 10221 10846 10845 
10196 10197 10822 10821 10221 10222 10847 10846 
10197 10198 10823 10822 10222 10223 10848 10847 
10198 10199 10824 10823 10223 10224 10849 10848 
10200 10201 10826 10825 10225 10226 10851 10850 
10201 10202 10827 10826 10226 10227 10852 10851 
10202 10203 10828 10827 10227 10228 10853 10852 
10203 10204 10829 10828 10228 10229 10854 10853 
10204 10205 10830 10829 10229 10230 10855 10854 
10205 10206 10831 10830 10230 10231 10856 10855 
10206 10207 10832 10831 10231 10232 10857 10856 
10207 10208 10833 10832 10232 10233 10858 10857 
10208 10209 10834 10833 10233 10234 10859 10858 
10209 10210 10835 10834 10234 10235 10860 10859 
10210 10211 10836 10835 10235 10236 10861 10860 
10211 10212 10837 10836 10236 10237 10862 10861 
10212 10213 10838 10837 10237 10238 10863 10862 
10213 10214 10839 10838 10238 10239 10864 10863 
10214 10215 10840 10839 10239 10240 10865 10864 
10215 10216 10841 10840 10240 10241 10866 10865 
10216 10217 10842 10841 10241 10242 10867 10866 
10217 10218 10843 10842 10242 10243 10868 10867 
10218 10219 10844 10843 10243 10244 10869 10868 
10219 10220 10845 10844 10244 10245 10870 10869 
10220 10221 10846 10845 10245 10246 10871 10870 
10221 10222 10847 10846 10246 10247 10872 10871 
10222 10223 10848 10847 10247 10248 10873 10872 
10223 10224 10849 10848 10248 10249 10874 10873 
10225 10226 10851 10850 10250 10251 10876 10875 
10226 10227 10852 10851 10251 10252 10877 10876 
10227 10228 10853 10852 10252 10253 10878 10877 
10228 10229 10854 10853 10253 10254 10879 10878 
10229 10230 10855 10854 10254 10255 10880 10879 
10230 10231 10856 10855 10255 10256 10881 10880 
10231 10232 10857 10856 10256 10257 10882 10881 
10232 10233 10858 10857 10257 10258 10883 10882 
10233 10234 10859 10858 10258 10259 10884 10883 
10234 10235 10860 10859 10259 10260 10885 10884 
10235 10236 10861 10860 10260 10261 10886 10885 
10236 10237 10862 10861 10261 10262 10887 10886 
10237 10238 10863 10862 10262 10263 10888 10887 
10238 10239 10864 10863 10263 10264 10889 10888 
10239 10240 10865 10864 10264 10265 10890 10889 
10240 10241 10866 10865 10265 10266 10891 10890 
10241 10242 10867 10866 10266 10267 10892 10891 
10242 10243 10868 10867 10267 10268 10893 10892 
10243 10244 10869 10868 10268 10269 10894 10893 
10244 10245 10870 10869 10269 10270 10895 10894 
10245 10246 10871 10870 10270 10271 10896 10895 
10246 10247 10872 10871 10271 10272 10897 10896 
10247 10248 10873 10872 10272 10273 10898 10897 
10248 10249 10874 10873 10273 10274 10899 10898 
10250 10251 10876 10875 10275 10276 10901 10900 
10251 10252 10877 10876 10276 10277 10902 10901 
10252 10253 10878 10877 10277 10278 10903 10902 
10253 10254 10879 10878 10278 10279 10904 10903 
10254 10255 10880 10879 10279 10280 10905 10904 
10255 10256 10881 10880 10280 10281 10906 10905 
10256 10257 10882 10881 10281 10282 10907 10906 
10257 10258 10883 10882 10282 10283 10908 10907 
10258 10259 10884 10883 10283 10284 10909 10908 
10259 10260 10885 10884 10284 10285 10910 10909 
10260 10261 10886 10885 10285 10286 10911 10910 
10261 10262 10887 10886 10286 10287 10912 10911 
10262 10263 10888 10887 10287 10288 10913 10912 
10263 10264 10889 10888 10288 10289 10914 10913 
10264 10265 10890 10889 10289 10290 10915 10914 
10265 10266 10891 10890 10290 10291 10916 10915 
10266 10267 10892 10891 10291 10292 10917 10916 
10267 10268 10893 10892 10292 10293 10918 10917 
10268 10269 10894 10893 10293 10294 10919 10918 
10269 10270 10895 10894 10294 10295 10920 10919 
10270 10271 10896 10895 10295 10296 10921 10920 
10271 10272 10897 10896 10296 10297 10922 10921 
10272 10273 10898 10897 10297 10298 10923 10922 
10273 10274 10899 10898 10298 10299 10924 10923 
10275 10276 10901 10900 10300 10301 10926 10925 
10276 10277 10902 10901 10301 10302 10927 10926 
10277 10278 10903 10902 10302 10303 10928 10927 
10278 10279 10904 10903 10303 10304 10929 10928 
10279 10280 10905 10904 10304 10305 10930 10929 
10280 10281 10906 10905 10305 10306 10931 10930 
10281 10282 10907 10906 10306 10307 10932 10931 
10282 10283 10908 10907 10307 10308 10933 10932 
10283 10284 10909 10908 10308 10309 10934 10933 
10284 10285 10910 10909 10309 10310 10935 10934 
10285 10286 10911 10910 10310 10311 10936 10935 
10286 10287 10912 10911 10311 10312 10937 10936 
10287 10288 10913 10912 10312 10313 10938 10937 
10288 10289 10914 10913 10313 10314 10939 10938 
10289 10290 10915 10914 10314 10315 10940 10939 
10290 10291 10916 10915 10315 10316 10941 10940 
10291 10292 10917 10916 10316 10317 10942 10941 
10292 10293 10918 10917 10317 10318 10943 10942 
10293 10294 10919 10918 10318 10319 10944 10943 
10294 10295 10920 10919 10319 10320 10945 10944 
10295 10296 10921 10920 10320 10321 10946 10945 
10296 10297 10922 10921 10321 10322 10947 10946 
10297 10298 10923 10922 10322 10323 10948 10947 
10298 10299 10924 10923 10323 10324 10949 10948 
10300 10301 10926 10925 10325 10326 10951 10950 
10301 10302 10927 10926 10326 10327 10952 10951 
10302 10303 10928 10927 10327 10328 10953 10952 
10303 10304 10929 10928 10328 10329 10954 10953 
10304 10305 10930 10929 10329 10330 10955 10954 
10305 10306 10931 10930 10330 10331 10956 10955 
10306 10307 10932 10931 10331 10332 10957 10956 
10307 10308 10933 10932 10332 10333 10958 10957 
10308 10309 10934 10933 10333 10334 10959 10958 
10309 10310 10935 10934 10334 10335 10960 10959 
10310 10311 10936 10935 10335 10336 10961 10960 
10311 10312 10937 10936 10336 10337 10962 10961 
10312 10313 10938 10937 10337 10338 10963 10962 
10313 10314 10939 10938 10338 10339 10964 10963 
10314 10315 10940 10939 10339 10340 10965 10964 
10315 10316 10941 10940 10340 10341 10966 10965 
10316 10317 10942 10941 10341 10342 10967 10966 
10317 10318 10943 10942 10342 10343 10968 10967 
10318 10319 10944 10943 10343 10344 10969 10968 
10319 10320 10945 10944 10344 10345 10970 10969 
10320 10321 10946 10945 10345 10346 10971 10970 
10321 10322 10947 10946 10346 10347 10972 10971 
10322 10323 10948 10947 10347 10348 10973 10972 
10323 10324 10949 10948 10348 10349 10974 10973 
10325 10326 10951 10950 10350 10351 10976 10975 
10326 10327 10952 10951 10351 10352 10977 10976 
10327 10328 10953 10952 10352 10353 10978 10977 
10328 10329 10954 10953 10353 10354 10979 10978 
10329 10330 10955 10954 10354 10355 10980 10979 
10330 10331 10956 10955 10355 10356 10981 10980 
10331 10332 10957 10956 10356 10357 10982 10981 
10332 10333 10958 10957 10357 10358 10983 10982 
10333 10334 10959 10958 10358 10359 10984 10983 
10334 10335 10960 10959 10359 10360 10985 10984 
10335 10336 10961 10960 10360 10361 10986 10985 
10336 10337 10962 10961 10361 10362 10987 10986 
10337 10338 10963 10962 10362 10363 10988 10987 
10338 10339 10964 10963 10363 10364 10989 10988 
10339 10340 10965 10964 10364 10365 10990 10989 
10340 10341 10966 10965 10365 10366 10991 10990 
10341 10342 10967 10966 10366 10367 10992 10991 
10342 10343 10968 10967 10367 10368 10993 10992 
10343 10344 10969 10968 10368 10369 10994 10993 
10344 10345 10970 10969 10369 10370 10995 10994 
10345 10346 10971 10970 10370 10371 10996 10995 
10346 10347 10972 10971 10371 10372 10997 10996 
10347 10348 10973 10972 10372 10373 10998 10997 
10348 10349 10974 10973 10373 10374 10999 10998 
10350 10351 10976 10975 10375 10376 11001 11000 
10351 10352 10977 10976 10376 10377 11002 11001 
10352 10353 10978 10977 10377 10378 11003 11002 
10353 10354 10979 10978 10378 10379 11004 11003 
10354 10355 10980 10979 10379 10380 11005 11004 
10355 10356 10981 10980 10380 10381 11006 11005 
10356 10357 10982 10981 10381 10382 11007 11006 
10357 10358 10983 10982 10382 10383 11008 11007 
10358 10359 10984 10983 10383 10384 11009 11008 
10359 10360 10985 10984 10384 10385 11010 11009 
10360 10361 10986 10985 10385 10386 11011 11010 
10361 10362 10987 10986 10386 10387 11012 11011 
10362 10363 10988 10987 10387 10388 11013 11012 
10363 10364 10989 10988 10388 10389 11014 11013 
10364 10365 10990 10989 10389 10390 11015 11014 
10365 10366 10991 10990 10390 10391 11016 11015 
10366 10367 10992 10991 10391 10392 11017 11016 
10367 10368 10993 10992 10392 10393 11018 11017 
10368 10369 10994 10993 10393 10394 11019 11018 
10369 10370 10995 10994 10394 10395 11020 11019 
10370 10371 10996 10995 10395 10396 11021 11020 
10371 10372 10997 10996 10396 10397 11022 11021 
10372 10373 10998 10997 10397 10398 11023 11022 
10373 10374 10999 10998 10398 10399 11024 11023 
10375 10376 11001 11000 10400 10401 11026 11025 
10376 10377 11002 11001 10401 10402 11027 11026 
10377 10378 11003 11002 10402 10403 11028 11027 
10378 10379 11004 11003 10403 10404 11029 11028 
10379 10380 11005 11004 10404 10405 11030 11029 
10380 10381 11006 11005 10405 10406 11031 11030 
10381 10382 11007 11006 10406 10407 11032 11031 
10382 10383 11008 11007 10407 10408 11033 11032 
10383 10384 11009 11008 10408 10409 11034 11033 
10384 10385 11010 11009 10409 10410 11035 11034 
10385 10386 11011 11010 10410 10411 11036 11035 
10386 10387 11012 11011 10411 10412 11037 11036 
10387 10388 11013 11012 10412 10413 11038 11037 
10388 10389 11014 11013 10413 10414 11039 11038 
10389 10390 11015 11014 10414 10415 11040 11039 
10390 10391 11016 11015 10415 10416 11041 11040 
10391 10392 11017 11016 10416 10417 11042 11041 
10392 10393 11018 11017 10417 10418 11043 11042 
10393 10394 11019 11018 10418 10419 11044 11043 
10394 10395 11020 11019 10419 10420 11045 11044 
10395 10396 11021 11020 10420 10421 11046 11045 
10396 10397 11022 11021 10421 10422 11047 11046 
10397 10398 11023 11022 10422 10423 11048 11047 
10398 10399 11024 11023 10423 10424 11049 11048 
10400 10401 11026 11025 10425 10426 11051 11050 
10401 10402 11027 11026 10426 10427 11052 11051 
10402 10403 11028 11027 10427 10428 11053 11052 
10403 10404 11029 11028 10428 10429 11054 11053 
10404 10405 11030 11029 10429 10430 11055 11054 
10405 10406 11031 11030 10430 10431 11056 11055 
10406 10407 11032 11031 10431 10432 11057 11056 
10407 10408 11033 11032 10432 10433 11058 11057 
10408 10409 11034 11033 10433 10434 11059 11058 
10409 10410 11035 11034 10434 10435 11060 11059 
10410 10411 11036 11035 10435 10436 11061 11060 
10411 10412 11037 11036 10436 10437 11062 11061 
10412 10413 11038 11037 10437 10438 11063 11062 
10413 10414 11039 11038 10438 10439 11064 11063 
10414 10415 11040 11039 10439 10440 11065 11064 
10415 10416 11041 11040 10440 10441 11066 11065 
10416 10417 11042 11041 10441 10442 11067 11066 
10417 10418 11043 11042 10442 10443 11068 11067 
10418 10419 11044 11043 10443 10444 11069 11068 
10419 10420 11045 11044 10444 10445 11070 11069 
10420 10421 11046 11045 10445 10446 11071 11070 
10421 10422 11047 11046 10446 10447 11072 11071 
10422 10423 11048 11047 10447 10448 11073 11072 
10423 10424 11049 11048 10448 10449 11074 11073 
10425 10426 11051 11050 10450 10451 11076 11075 
10426 10427 11052 11051 10451 10452 11077 11076 
10427 10428 11053 11052 10452 10453 11078 11077 
10428 10429 11054 11053 10453 10454 11079 11078 
10429 10430 11055 11054 10454 10455 11080 11079 
10430 10431 11056 11055 10455 10456 11081 11080 
10431 10432 11057 11056 10456 10457 11082 11081 
10432 10433 11058 11057 10457 10458 11083 11082 
10433 10434 11059 11058 10458 10459 11084 11083 
10434 10435 11060 11059 10459 10460 11085 11084 
10435 10436 11061 11060 10460 10461 11086 11085 
10436 10437 11062 11061 10461 10462 11087 11086 
10437 10438 11063 11062 10462 10463 11088 11087 
10438 10439 11064 11063 10463 10464 11089 11088 
10439 10440 11065 11064 10464 10465 11090 11089 
10440 10441 11066 11065 10465 10466 11091 11090 
10441 10442 11067 11066 10466 10467 11092 11091 
10442 10443 11068 11067 10467 10468 11093 11092 
10443 10444 11069 11068 10468 10469 11094 11093 
10444 10445 11070 11069 10469 10470 11095 11094 
10445 10446 11071 11070 10470 10471 11096 11095 
10446 10447 11072 11071 10471 10472 11097 11096 
10447 10448 11073 11072 10472 10473 11098 11097 
10448 10449 11074 11073 10473 10474 11099 11098 
10450 10451 11076 11075 10475 10476 11101 11100 
10451 10452 11077 11076 10476 10477 11102 11101 
10452 10453 11078 11077 10477 10478 11103 11102 
10453 10454 11079 11078 10478 10479 11104 11103 
10454 10455 11080 11079 10479 10480 11105 11104 
10455 10456 11081 11080 10480 10481 11106 11105 
10456 10457 11082 11081 10481 10482 11107 11106 
10457 10458 11083 11082 10482 10483 11108 11107 
10458 10459 11084 11083 10483 10484 11109 11108 
10459 10460 11085 11084 10484 10485 11110 11109 
10460 10461 11086 11085 10485 10486 11111 11110 
10461 10462 11087 11086 10486 10487 11112 11111 
10462 10463 11088 11087 10487 10488 11113 11112 
10463 10464 11089 11088 10488 10489 11114 11113 
10464 10465 11090 11089 10489 10490 11115 11114 
10465 10466 11091 11090 10490 10491 11116 11115 
10466 10467 11092 11091 10491 10492 11117 11116 
10467 10468 11093 11092 10492 10493 11118 11117 
10468 10469 11094 11093 10493 10494 11119 11118 
10469 10470 11095 11094 10494 10495 11120 11119 
10470 10471 11096 11095 10495 10496 11121 11120 
10471 10472 11097 11096 10496 10497 11122 11121 
10472 10473 11098 11097 10497 10498 11123 11122 
10473 10474 11099 11098 10498 10499 11124 11123 
10475 10476 11101 11100 10500 10501 11126 11125 
10476 10477 11102 11101 10501 10502 11127 11126 
10477 10478 11103 11102 10502 10503 11128 11127 
10478 10479 11104 11103 10503 10504 11129 11128 
10479 10480 11105 11104 10504 10505 11130 11129 
10480 10481 11106 11105 10505 10506 11131 11130 
10481 10482 11107 11106 10506 10507 11132 11131 
10482 10483 11108 11107 10507 10508 11133 11132 
10483 10484 11109 11108 10508 10509 11134 11133 
10484 10485 11110 11109 10509 10510 11135 11134 
10485 10486 11111 11110 10510 10511 11136 11135 
10486 10487 11112 11111 10511 10512 11137 11136 
10487 10488 11113 11112 10512 10513 11138 11137 
10488 10489 11114 11113 10513 10514 11139 11138 
10489 10490 11115 11114 10514 10515 11140 11139 
10490 10491 11116 11115 10515 10516 11141 11140 
10491 10492 11117 11116 10516 10517 11142 11141 
10492 10493 11118 11117 10517 10518 11143 11142 
10493 10494 11119 11118 10518 10519 11144 11143 
10494 10495 11120 11119 10519 10520 11145 11144 
10495 10496 11121 11120 10520 10521 11146 11145 
10496 10497 11122 11121 10521 10522 11147 11146 
10497 10498 11123 11122 10522 10523 11148 11147 
10498 10499 11124 11123 10523 10524 11149 11148 
10500 10501 11126 11125 10525 10526 11151 11150 
10501 10502 11127 11126 10526 10527 11152 11151 
10502 10503 11128 11127 10527 10528 11153 11152 
10503 10504 11129 11128 10528 10529 11154 11153 
10504 10505 11130 11129 10529 10530 11155 11154 
10505 10506 11131 11130 10530 10531 11156 11155 
10506 10507 11132 11131 10531 10532 11157 11156 
10507 10508 11133 11132 10532 10533 11158 11157 
10508 10509 11134 11133 10533 10534 11159 11158 
10509 10510 11135 11134 10534 10535 11160 11159 
10510 10511 11136 11135 10535 10536 11161 11160 
10511 10512 11137 11136 10536 10537 11162 11161 
10512 10513 11138 11137 10537 10538 11163 11162 
10513 10514 11139 11138 10538 10539 11164 11163 
10514 10515 11140 11139 10539 10540 11165 11164 
10515 10516 11141 11140 10540 10541 11166 11165 
10516 10517 11142 11141 10541 10542 11167 11166 
10517 10518 11143 11142 10542 10543 11168 11167 
10518 10519 11144 11143 10543 10544 11169 11168 
10519 10520 11145 11144 10544 10545 11170 11169 
10520 10521 11146 11145 10545 10546 11171 11170 
10521 10522 11147 11146 10546 10547 11172 11171 
10522 10523 11148 11147 10547 10548 11173 11172 
10523 10524 11149 11148 10548 10549 11174 11173 
10525 10526 11151 11150 10550 10551 11176 11175 
10526 10527 11152 11151 10551 10552 11177 11176 
10527 10528 11153 11152 10552 10553 11178 11177 
10528 10529 11154 11153 10553 10554 11179 11178 
10529 10530 11155 11154 10554 10555 11180 11179 
10530 10531 11156 11155 10555 10556 11181 11180 
10531 10532 11157 11156 10556 10557 11182 11181 
10532 10533 11158 11157 10557 10558 11183 11182 
10533 10534 11159 11158 10558 10559 11184 11183 
10534 10535 11160 11159 10559 10560 11185 11184 
10535 10536 11161 11160 10560 10561 11186 11185 
10536 10537 11162 11161 10561 10562 11187 11186 
10537 10538 11163 11162 10562 10563 11188 11187 
10538 10539 11164 11163 10563 10564 11189 11188 
10539 10540 11165 11164 10564 10565 11190 11189 
10540 10541 11166 11165 10565 10566 11191 11190 
10541 10542 11167 11166 10566 10567 11192 11191 
10542 10543 11168 11167 10567 10568 11193 11192 
10543 10544 11169 11168 10568 10569 11194 11193 
10544 10545 11170 11169 10569 10570 11195 11194 
10545 10546 11171 11170 10570 10571 11196 11195 
10546 10547 11172 11171 10571 10572 11197 11196 
10547 10548 11173 11172 10572 10573 11198 11197 
10548 10549 11174 11173 10573 10574 11199 11198 
10550 10551 11176 11175 10575 10576 11201 11200 
10551 10552 11177 11176 10576 10577 11202 11201 
10552 10553 11178 11177 10577 10578 11203 11202 
10553 10554 11179 11178 10578 10579 11204 11203 
10554 10555 11180 11179 10579 10580 11205 11204 
10555 10556 11181 11180 10580 10581 11206 11205 
10556 10557 11182 11181 10581 10582 11207 11206 
10557 10558 11183 11182 10582 10583 11208 11207 
10558 10559 11184 11183 10583 10584 11209 11208 
10559 10560 11185 11184 10584 10585 11210 11209 
10560 10561 11186 11185 10585 10586 11211 11210 
10561 10562 11187 11186 10586 10587 11212 11211 
10562 10563 11188 11187 10587 10588 11213 11212 
10563 10564 11189 11188 10588 10589 11214 11213 
10564 10565 11190 11189 10589 10590 11215 11214 
10565 10566 11191 11190 10590 10591 11216 11215 
10566 10567 11192 11191 10591 10592 11217 11216 
10567 10568 11193 11192 10592 10593 11218 11217 
10568 10569 11194 11193 10593 10594 11219 11218 
10569 10570 11195 11194 10594 10595 11220 11219 
10570 10571 11196 11195 10595 10596 11221 11220 
10571 10572 11197 11196 10596 10597 11222 11221 
10572 10573 11198 11197 10597 10598 11223 11222 
10573 10574 11199 11198 10598 10599 11224 11223 
10575 10576 11201 11200 10600 10601 11226 11225 
10576 10577 11202 11201 10601 10602 11227 11226 
10577 10578 11203 11202 10602 10603 11228 11227 
10578 10579 11204 11203 10603 10604 11229 11228 
10579 10580 11205 11204 10604 10605 11230 11229 
10580 10581 11206 11205 10605 10606 11231 11230 
10581 10582 11207 11206 10606 10607 11232 11231 
10582 10583 11208 11207 10607 10608 11233 11232 
10583 10584 11209 11208 10608 10609 11234 11233 
10584 10585 11210 11209 10609 10610 11235 11234 
10585 10586 11211 11210 10610 10611 11236 11235 
10586 10587 11212 11211 10611 10612 11237 11236 
10587 10588 11213 11212 10612 10613 11238 11237 
10588 10589 11214 11213 10613 10614 11239 11238 
10589 10590 11215 11214 10614 10615 11240 11239 
10590 10591 11216 11215 10615 10616 11241 11240 
10591 10592 11217 11216 10616 10617 11242 11241 
10592 10593 11218 11217 10617 10618 11243 11242 
10593 10594 11219 11218 10618 10619 11244 11243 
10594 10595 11220 11219 10619 10620 11245 11244 
10595 10596 11221 11220 10620 10621 11246 11245 
10596 10597 11222 11221 10621 10622 11247 11246 
10597 10598 11223 11222 10622 10623 11248 11247 
10598 10599 11224 11223 10623 10624 11249 11248 
10625 10626 11251 11250 10650 10651 11276 11275 
10626 10627 11252 11251 10651 10652 11277 11276 
10627 10628 11253 11252 10652 10653 11278 11277 
10628 10629 11254 11253 10653 10654 11279 11278 
10629 10630 11255 11254 10654 10655 11280 11279 
10630 10631 11256 11255 10655 10656 11281 11280 
10631 10632 11257 11256 10656 10657 11282 11281 
10632 10633 11258 11257 10657 10658 11283 11282 
10633 10634 11259 11258 10658 10659 11284 11283 
10634 10635 11260 11259 10659 10660 11285 11284 
10635 10636 11261 11260 10660 10661 11286 11285 
10636 10637 11262 11261 10661 10662 11287 11286 
10637 10638 11263 11262 10662 10663 11288 11287 
10638 10639 11264 11263 10663 10664 11289 11288 
10639 10640 11265 11264 10664 10665 11290 11289 
10640 10641 11266 11265 10665 10666 11291 11290 
10641 10642 11267 11266 10666 10667 11292 11291 
10642 10643 11268 11267 10667 10668 11293 11292 
10643 10644 11269 11268 10668 10669 11294 11293 
10644 10645 11270 11269 10669 10670 11295 11294 
10645 10646 11271 11270 10670 10671 11296 11295 
10646 10647 11272 11271 10671 10672 11297 11296 
10647 10648 11273 11272 10672 10673 11298 11297 
10648 10649 11274 11273 10673 10674 11299 11298 
10650 10651 11276 11275 10675 10676 11301 11300 
10651 10652 11277 11276 10676 10677 11302 11301 
10652 10653 11278 11277 10677 10678 11303 11302 
10653 10654 11279 11278 10678 10679 11304 11303 
10654 10655 11280 11279 10679 10680 11305 11304 
10655 10656 11281 11280 10680 10681 11306 11305 
10656 10657 11282 11281 10681 10682 11307 11306 
10657 10658 11283 11282 10682 10683 11308 11307 
10658 10659 11284 11283 10683 10684 11309 11308 
10659 10660 11285 11284 10684 10685 11310 11309 
10660 10661 11286 11285 10685 10686 11311 11310 
10661 10662 11287 11286 10686 10687 11312 11311 
10662 10663 11288 11287 10687 10688 11313 11312 
10663 10664 11289 11288 10688 10689 11314 11313 
10664 10665 11290 11289 10689 10690 11315 11314 
10665 10666 11291 11290 10690 10691 11316 11315 
10666 10667 11292 11291 10691 10692 11317 11316 
10667 10668 11293 11292 10692 10693 11318 11317 
10668 10669 11294 11293 10693 10694 11319 11318 
10669 10670 11295 11294 10694 10695 11320 11319 
10670 10671 11296 11295 10695 10696 11321 11320 
10671 10672 11297 11296 10696 10697 11322 11321 
10672 10673 11298 11297 10697 10698 11323 11322 
10673 10674 11299 11298 10698 10699 11324 11323 
10675 10676 11301 11300 10700 10701 11326 11325 
10676 10677 11302 11301 10701 10702 11327 11326 
10677 10678 11303 11302 10702 10703 11328 11327 
10678 10679 11304 11303 10703 10704 11329 11328 
10679 10680 11305 11304 10704 10705 11330 11329 
10680 10681 11306 11305 10705 10706 11331 11330 
10681 10682 11307 11306 10706 10707 11332 11331 
10682 10683 11308 11307 10707 10708 11333 11332 
10683 10684 11309 11308 10708 10709 11334 11333 
10684 10685 11310 11309 10709 10710 11335 11334 
10685 10686 11311 11310 10710 10711 11336 11335 
10686 10687 11312 11311 10711 10712 11337 11336 
10687 10688 11313 11312 10712 10713 11338 11337 
10688 10689 11314 11313 10713 10714 11339 11338 
10689 10690 11315 11314 10714 10715 11340 11339 
10690 10691 11316 11315 10715 10716 11341 11340 
10691 10692 11317 11316 10716 10717 11342 11341 
10692 10693 11318 11317 10717 10718 11343 11342 
10693 10694 11319 11318 10718 10719 11344 11343 
10694 10695 11320 11319 10719 10720 11345 11344 
10695 10696 11321 11320 10720 10721 11346 11345 
10696 10697 11322 11321 10721 10722 11347 11346 
10697 10698 11323 11322 10722 10723 11348 11347 
10698 10699 11324 11323 10723 10724 11349 11348 
10700 10701 11326 11325 10725 10726 11351 11350 
10701 10702 11327 11326 10726 10727 11352 11351 
10702 10703 11328 11327 10727 10728 11353 11352 
10703 10704 11329 11328 10728 10729 11354 11353 
10704 10705 11330 11329 10729 10730 11355 11354 
10705 10706 11331 11330 10730 10731 11356 11355 
10706 10707 11332 11331 10731 10732 11357 11356 
10707 10708 11333 11332 10732 10733 11358 11357 
10708 10709 11334 11333 10733 10734 11359 11358 
10709 10710 11335 11334 10734 10735 11360 11359 
10710 10711 11336 11335 10735 10736 11361 11360 
10711 10712 11337 11336 10736 10737 11362 11361 
10712 10713 11338 11337 10737 10738 11363 11362 
10713 10714 11339 11338 10738 10739 11364 11363 
10714 10715 11340 11339 10739 10740 11365 11364 
10715 10716 11341 11340 10740 10741 11366 11365 
10716 10717 11342 11341 10741 10742 11367 11366 
10717 10718 11343 11342 10742 10743 11368 11367 
10718 10719 11344 11343 10743 10744 11369 11368 
10719 10720 11345 11344 10744 10745 11370 11369 
10720 10721 11346 11345 10745 10746 11371 11370 
10721 10722 11347 11346 10746 10747 11372 11371 
10722 10723 11348 11347 10747 10748 11373 11372 
10723 10724 11349 11348 10748 10749 11374 11373 
10725 10726 11351 11350 10750 10751 11376 11375 
10726 10727 11352 11351 10751 10752 11377 11376 
10727 10728 11353 11352 10752 10753 11378 11377 
10728 10729 11354 11353 10753 10754 11379 11378 
10729 10730 11355 11354 10754 10755 11380 11379 
10730 10731 11356 11355 10755 10756 11381 11380 
10731 10732 11357 11356 10756 10757 11382 11381 
10732 10733 11358 11357 10757 10758 11383 11382 
10733 10734 11359 11358 10758 10759 11384 11383 
10734 10735 11360 11359 10759 10760 11385 11384 
10735 10736 11361 11360 10760 10761 11386 11385 
10736 10737 11362 11361 10761 10762 11387 11386 
10737 10738 11363 11362 10762 10763 11388 11387 
10738 10739 11364 11363 10763 10764 11389 11388 
10739 10740 11365 11364 10764 10765 11390 11389 
10740 10741 11366 11365 10765 10766 11391 11390 
10741 10742 11367 11366 10766 10767 11392 11391 
10742 10743 11368 11367 10767 10768 11393 11392 
10743 10744 11369 11368 10768 10769 11394 11393 
10744 10745 11370 11369 10769 10770 11395 11394 
10745 10746 11371 11370 10770 10771 11396 11395 
10746 10747 11372 11371 10771 10772 11397 11396 
10747 10748 11373 11372 10772 10773 11398 11397 
10748 10749 11374 11373 10773 10774 11399 11398 
10750 10751 11376 11375 10775 10776 11401 11400 
10751 10752 11377 11376 10776 10777 11402 11401 
10752 10753 11378 11377 10777 10778 11403 11402 
10753 10754 11379 11378 10778 10779 11404 11403 
10754 10755 11380 11379 10779 10780 11405 11404 
10755 10756 11381 11380 10780 10781 11406 11405 
10756 10757 11382 11381 10781 10782 11407 11406 
10757 10758 11383 11382 10782 10783 11408 11407 
10758 10759 11384 11383 10783 10784 11409 11408 
10759 10760 11385 11384 10784 10785 11410 11409 
10760 10761 11386 11385 10785 10786 11411 11410 
10761 10762 11387 11386 10786 10787 11412 11411 
10762 10763 11388 11387 10787 10788 11413 11412 
10763 10764 11389 11388 10788 10789 11414 11413 
10764 10765 11390 11389 10789 10790 11415 11414 
10765 10766 11391 11390 10790 10791 11416 11415 
10766 10767 11392 11391 10791 10792 11417 11416 
10767 10768 11393 11392 10792 10793 11418 11417 
10768 10769 11394 11393 10793 10794 11419 11418 
10769 10770 11395 11394 10794 10795 11420 11419 
10770 10771 11396 11395 10795 10796 11421 11420 
10771 10772 11397 11396 10796 10797 11422 11421 
10772 10773 11398 11397 10797 10798 11423 11422 
10773 10774 11399 11398 10798 10799 11424 11423 
10775 10776 11401 11400 10800 10801 11426 11425 
10776 10777 11402 11401 10801 10802 11427 11426 
10777 10778 11403 11402 10802 10803 11428 11427 
10778 10779 11404 11403 10803 10804 11429 11428 
10779 10780 11405 11404 10804 10805 11430 11429 
10780 10781 11406 11405 10805 10806 11431 11430 
10781 10782 11407 11406 10806 10807 11432 11431 
10782 10783 11408 11407 10807 10808 11433 11432 
10783 10784 11409 11408 10808 10809 11434 11433 
10784 10785 11410 11409 10809 10810 11435 11434 
10785 10786 11411 11410 10810 10811 11436 11435 
10786 10787 11412 11411 10811 10812 11437 11436 
10787 10788 11413 11412 10812 10813 11438 11437 
10788 10789 11414 11413 10813 10814 11439 11438 
10789 10790 11415 11414 10814 10815 11440 11439 
10790 10791 11416 11415 10815 10816 11441 11440 
10791 10792 11417 11416 10816 10817 11442 11441 
10792 10793 11418 11417 10817 10818 11443 11442 
10793 10794 11419 11418 10818 10819 11444 11443 
10794 10795 11420 11419 10819 10820 11445 11444 
10795 10796 11421 11420 10820 10821 11446 11445 
10796 10797 11422 11421 10821 10822 11447 11446 
10797 10798 11423 11422 10822 10823 11448 11447 
10798 10799 11424 11423 10823 10824 11449 11448 
10800 10801 11426 11425 10825 10826 11451 11450 
10801 10802 11427 11426 10826 10827 11452 11451 
10802 10803 11428 11427 10827 10828 11453 11452 
10803 10804 11429 11428 10828 10829 11454 11453 
10804 10805 11430 11429 10829 10830 11455 11454 
10805 10806 11431 11430 10830 10831 11456 11455 
10806 10807 11432 11431 10831 10832 11457 11456 
10807 10808 11433 11432 10832 10833 11458 11457 
10808 10809 11434 11433 10833 10834 11459 11458 
10809 10810 11435 11434 10834 10835 11460 11459 
10810 10811 11436 11435 10835 10836 11461 11460 
10811 10812 11437 11436 10836 10837 11462 11461 
10812 10813 11438 11437 10837 10838 11463 11462 
10813 10814 11439 11438 10838 10839 11464 11463 
10814 10815 11440 11439 10839 10840 11465 11464 
10815 10816 11441 11440 10840 10841 11466 11465 
10816 10817 11442 11441 10841 10842 11467 11466 
10817 10818 11443 11442 10842 10843 11468 11467 
10818 10819 11444 11443 10843 10844 11469 11468 
10819 10820 11445 11444 10844 10845 11470 11469 
10820 10821 11446 11445 10845 10846 11471 11470 
10821 10822 11447 11446 10846 10847 11472 11471 
10822 10823 11448 11447 10847 10848 11473 11472 
10823 10824 11449 11448 10848 10849 11474 11473 
10825 10826 11451 11450 10850 10851 11476 11475 
10826 10827 11452 11451 10851 10852 11477 11476 
10827 10828 11453 11452 10852 10853 11478 11477 
10828 10829 11454 11453 10853 10854 11479 11478 
10829 10830 11455 11454 10854 10855 11480 11479 
10830 10831 11456 11455 10855 10856 11481 11480 
10831 10832 11457 11456 10856 10857 11482 11481 
10832 10833 11458 11457 10857 10858 11483 11482 
10833 10834 11459 11458 10858 10859 11484 11483 
10834 10835 11460 11459 10859 10860 11485 11484 
10835 10836 11461 11460 10860 10861 11486 11485 
10836 10837 11462 11461 10861 10862 11487 11486 
10837 10838 11463 11462 10862 10863 11488 11487 
10838 10839 11464 11463 10863 10864 11489 11488 
10839 10840 11465 11464 10864 10865 11490 11489 
10840 10841 11466 11465 10865 10866 11491 11490 
10841 10842 11467 11466 10866 10867 11492 11491 
10842 10843 11468 11467 10867 10868 11493 11492 
10843 10844 11469 11468 10868 10869 11494 11493 
10844 10845 11470 11469 10869 10870 11495 11494 
10845 10846 11471 11470 10870 10871 11496 11495 
10846 10847 11472 11471 10871 10872 11497 11496 
10847 10848 11473 11472 10872 10873 11498 11497 
10848 10849 11474 11473 10873 10874 11499 11498 
10850 10851 11476 11475 10875 10876 11501 11500 
10851 10852 11477 11476 10876 10877 11502 11501 
10852 10853 11478 11477 10877 10878 11503 11502 
10853 10854 11479 11478 10878 10879 11504 11503 
10854 10855 11480 11479 10879 10880 11505 11504 
10855 10856 11481 11480 10880 10881 11506 11505 
10856 10857 11482 11481 10881 10882 11507 11506 
10857 10858 11483 11482 10882 10883 11508 11507 
10858 10859 11484 11483 10883 10884 11509 11508 
10859 10860 11485 11484 10884 10885 11510 11509 
10860 10861 11486 11485 10885 10886 11511 11510 
10861 10862 11487 11486 10886 10887 11512 11511 
10862 10863 11488 11487 10887 10888 11513 11512 
10863 10864 11489 11488 10888 10889 11514 11513 
10864 10865 11490 11489 10889 10890 11515 11514 
10865 10866 11491 11490 10890 10891 11516 11515 
10866 10867 11492 11491 10891 10892 11517 11516 
10867 10868 11493 11492 10892 10893 11518 11517 
10868 10869 11494 11493 10893 10894 11519 11518 
10869 10870 11495 11494 10894 10895 11520 11519 
10870 10871 11496 11495 10895 10896 11521 11520 
10871 10872 11497 11496 10896 10897 11522 11521 
10872 10873 11498 11497 10897 10898 11523 11522 
10873 10874 11499 11498 10898 10899 11524 11523 
10875 10876 11501 11500 10900 10901 11526 11525 
10876 10877 11502 11501 10901 10902 11527 11526 
10877 10878 11503 11502 10902 10903 11528 11527 
10878 10879 11504 11503 10903 10904 11529 11528 
10879 10880 11505 11504 10904 10905 11530 11529 
10880 10881 11506 11505 10905 10906 11531 11530 
10881 10882 11507 11506 10906 10907 11532 11531 
10882 10883 11508 11507 10907 10908 11533 11532 
10883 10884 11509 11508 10908 10909 11534 11533 
10884 10885 11510 11509 10909 10910 11535 11534 
10885 10886 11511 11510 10910 10911 11536 11535 
10886 10887 11512 11511 10911 10912 11537 11536 
10887 10888 11513 11512 10912 10913 11538 11537 
10888 10889 11514 11513 10913 10914 11539 11538 
10889 10890 11515 11514 10914 10915 11540 11539 
10890 10891 11516 11515 10915 10916 11541 11540 
10891 10892 11517 11516 10916 10917 11542 11541 
10892 10893 11518 11517 10917 10918 11543 11542 
10893 10894 11519 11518 10918 10919 11544 11543 
10894 10895 11520 11519 10919 10920 11545 11544 
10895 10896 11521 11520 10920 10921 11546 11545 
10896 10897 11522 11521 10921 10922 11547 11546 
10897 10898 11523 11522 10922 10923 11548 11547 
10898 10899 11524 11523 10923 10924 11549 11548 
10900 10901 11526 11525 10925 10926 11551 11550 
10901 10902 11527 11526 10926 10927 11552 11551 
10902 10903 11528 11527 10927 10928 11553 11552 
10903 10904 11529 11528 10928 10929 11554 11553 
10904 10905 11530 11529 10929 10930 11555 11554 
10905 10906 11531 11530 10930 10931 11556 11555 
10906 10907 11532 11531 10931 10932 11557 11556 
10907 10908 11533 11532 10932 10933 11558 11557 
10908 10909 11534 11533 10933 10934 11559 11558 
10909 10910 11535 11534 10934 10935 11560 11559 
10910 10911 11536 11535 10935 10936 11561 11560 
10911 10912 11537 11536 10936 10937 11562 11561 
10912 10913 11538 11537 10937 10938 11563 11562 
10913 10914 11539 11538 10938 10939 11564 11563 
10914 10915 11540 11539 10939 10940 11565 11564 
10915 10916 11541 11540 10940 10941 11566 11565 
10916 10917 11542 11541 10941 10942 11567 11566 
10917 10918 11543 11542 10942 10943 11568 11567 
10918 10919 11544 11543 10943 10944 11569 11568 
10919 10920 11545 11544 10944 10945 11570 11569 
10920 10921 11546 11545 10945 10946 11571 11570 
10921 10922 11547 11546 10946 10947 11572 11571 
10922 10923 11548 11547 10947 10948 11573 11572 
10923 10924 11549 11548 10948 10949 11574 11573 
10925 10926 11551 11550 10950 10951 11576 11575 
10926 10927 11552 11551 10951 10952 11577 11576 
10927 10928 11553 11552 10952 10953 11578 11577 
10928 10929 11554 11553 10953 10954 11579 11578 
10929 10930 11555 11554 10954 10955 11580 11579 
10930 10931 11556 11555 10955 10956 11581 11580 
10931 10932 11557 11556 10956 10957 11582 11581 
10932 10933 11558 11557 10957 10958 11583 11582 
10933 10934 11559 11558 10958 10959 11584 11583 
10934 10935 11560 11559 10959 10960 11585 11584 
10935 10936 11561 11560 10960 10961 11586 11585 
10936 10937 11562 11561 10961 10962 11587 11586 
10937 10938 11563 11562 10962 10963 11588 11587 
10938 10939 11564 11563 10963 10964 11589 11588 
10939 10940 11565 11564 10964 10965 11590 11589 
10940 10941 11566 11565 10965 10966 11591 11590 
10941 10942 11567 11566 10966 10967 11592 11591 
10942 10943 11568 11567 10967 10968 11593 11592 
10943 10944 11569 11568 10968 10969 11594 11593 
10944 10945 11570 11569 10969 10970 11595 11594 
10945 10946 11571 11570 10970 10971 11596 11595 
10946 10947 11572 11571 10971 10972 11597 11596 
10947 10948 11573 11572 10972 10973 11598 11597 
10948 10949 11574 11573 10973 10974 11599 11598 
10950 10951 11576 11575 10975 10976 11601 11600 
10951 10952 11577 11576 10976 10977 11602 11601 
10952 10953 11578 11577 10977 10978 11603 11602 
10953 10954 11579 11578 10978 10979 11604 11603 
10954 10955 11580 11579 10979 10980 11605 11604 
10955 10956 11581 11580 10980 10981 11606 11605 
10956 10957 11582 11581 10981 10982 11607 11606 
10957 10958 11583 11582 10982 10983 11608 11607 
10958 10959 11584 11583 10983 10984 11609 11608 
10959 10960 11585 11584 10984 10985 11610 11609 
10960 10961 11586 11585 10985 10986 11611 11610 
10961 10962 11587 11586 10986 10987 11612 11611 
10962 10963 11588 11587 10987 10988 11613 11612 
10963 10964 11589 11588 10988 10989 11614 11613 
10964 10965 11590 11589 10989 10990 11615 11614 
10965 10966 11591 11590 10990 10991 11616 11615 
10966 10967 11592 11591 10991 10992 11617 11616 
10967 10968 11593 11592 10992 10993 11618 11617 
10968 10969 11594 11593 10993 10994 11619 11618 
10969 10970 11595 11594 10994 10995 11620 11619 
10970 10971 11596 11595 10995 10996 11621 11620 
10971 10972 11597 11596 10996 10997 11622 11621 
10972 10973 11598 11597 10997 10998 11623 11622 
10973 10974 11599 11598 10998 10999 11624 11623 
10975 10976 11601 11600 11000 11001 11626 11625 
10976 10977 11602 11601 11001 11002 11627 11626 
10977 10978 11603 11602 11002 11003 11628 11627 
10978 10979 11604 11603 11003 11004 11629 11628 
10979 10980 11605 11604 11004 11005 11630 11629 
10980 10981 11606 11605 11005 11006 11631 11630 
10981 10982 11607 11606 11006 11007 11632 11631 
10982 10983 11608 11607 11007 11008 11633 11632 
10983 10984 11609 11608 11008 11009 11634 11633 
10984 10985 11610 11609 11009 11010 11635 11634 
10985 10986 11611 11610 11010 11011 11636 11635 
10986 10987 11612 11611 11011 11012 11637 11636 
10987 10988 11613 11612 11012 11013 11638 11637 
10988 10989 11614 11613 11013 11014 11639 11638 
10989 10990 11615 11614 11014 11015 11640 11639 
10990 10991 11616 11615 11015 11016 11641 11640 
10991 10992 11617 11616 11016 11017 11642 11641 
10992 10993 11618 11617 11017 11018 11643 11642 
10993 10994 11619 11618 11018 11019 11644 11643 
10994 10995 11620 11619 11019 11020 11645 11644 
10995 10996 11621 11620 11020 11021 11646 11645 
10996 10997 11622 11621 11021 11022 11647 11646 
10997 10998 11623 11622 11022 11023 11648 11647 
10998 10999 11624 11623 11023 11024 11649 11648 
11000 11001 11626 11625 11025 11026 11651 11650 
11001 11002 11627 11626 11026 11027 11652 11651 
11002 11003 11628 11627 11027 11028 11653 11652 
11003 11004 11629 11628 11028 11029 11654 11653 
11004 11005 11630 11629 11029 11030 11655 11654 
11005 11006 11631 11630 11030 11031 11656 11655 
11006 11007 11632 11631 11031 11032 11657 11656 
11007 11008 11633 11632 11032 11033 11658 11657 
11008 11009 11634 11633 11033 11034 11659 11658 
11009 11010 11635 11634 11034 11035 11660 11659 
11010 11011 11636 11635 11035 11036 11661 11660 
11011 11012 11637 11636 11036 11037 11662 11661 
11012 11013 11638 11637 11037 11038 11663 11662 
11013 11014 11639 11638 11038 11039 11664 11663 
11014 11015 11640 11639 11039 11040 11665 11664 
11015 11016 11641 11640 11040 11041 11666 11665 
11016 11017 11642 11641 11041 11042 11667 11666 
11017 11018 11643 11642 11042 11043 11668 11667 
11018 11019 11644 11643 11043 11044 11669 11668 
11019 11020 11645 11644 11044 11045 11670 11669 
11020 11021 11646 11645 11045 11046 11671 11670 
11021 11022 11647 11646 11046 11047 11672 11671 
11022 11023 11648 11647 11047 11048 11673 11672 
11023 11024 11649 11648 11048 11049 11674 11673 
11025 11026 11651 11650 11050 11051 11676 11675 
11026 11027 11652 11651 11051 11052 11677 11676 
11027 11028 11653 11652 11052 11053 11678 11677 
11028 11029 11654 11653 11053 11054 11679 11678 
11029 11030 11655 11654 11054 11055 11680 11679 
11030 11031 11656 11655 11055 11056 11681 11680 
11031 11032 11657 11656 11056 11057 11682 11681 
11032 11033 11658 11657 11057 11058 11683 11682 
11033 11034 11659 11658 11058 11059 11684 11683 
11034 11035 11660 11659 11059 11060 11685 11684 
11035 11036 11661 11660 11060 11061 11686 11685 
11036 11037 11662 11661 11061 11062 11687 11686 
11037 11038 11663 11662 11062 11063 11688 11687 
11038 11039 11664 11663 11063 11064 11689 11688 
11039 11040 11665 11664 11064 11065 11690 11689 
11040 11041 11666 11665 11065 11066 11691 11690 
11041 11042 11667 11666 11066 11067 11692 11691 
11042 11043 11668 11667 11067 11068 11693 11692 
11043 11044 11669 11668 11068 11069 11694 11693 
11044 11045 11670 11669 11069 11070 11695 11694 
11045 11046 11671 11670 11070 11071 11696 11695 
11046 11047 11672 11671 11071 11072 11697 11696 
11047 11048 11673 11672 11072 11073 11698 11697 
11048 11049 11674 11673 11073 11074 11699 11698 
11050 11051 11676 11675 11075 11076 11701 11700 
11051 11052 11677 11676 11076 11077 11702 11701 
11052 11053 11678 11677 11077 11078 11703 11702 
11053 11054 11679 11678 11078 11079 11704 11703 
11054 11055 11680 11679 11079 11080 11705 11704 
11055 11056 11681 11680 11080 11081 11706 11705 
11056 11057 11682 11681 11081 11082 11707 11706 
11057 11058 11683 11682 11082 11083 11708 11707 
11058 11059 11684 11683 11083 11084 11709 11708 
11059 11060 11685 11684 11084 11085 11710 11709 
11060 11061 11686 11685 11085 11086 11711 11710 
11061 11062 11687 11686 11086 11087 11712 11711 
11062 11063 11688 11687 11087 11088 11713 11712 
11063 11064 11689 11688 11088 11089 11714 11713 
11064 11065 11690 11689 11089 11090 11715 11714 
11065 11066 11691 11690 11090 11091 11716 11715 
11066 11067 11692 11691 11091 11092 11717 11716 
11067 11068 11693 11692 11092 11093 11718 11717 
11068 11069 11694 11693 11093 11094 11719 11718 
11069 11070 11695 11694 11094 11095 11720 11719 
11070 11071 11696 11695 11095 11096 11721 11720 
11071 11072 11697 11696 11096 11097 11722 11721 
11072 11073 11698 11697 11097 11098 11723 11722 
11073 11074 11699 11698 11098 11099 11724 11723 
11075 11076 11701 11700 11100 11101 11726 11725 
11076 11077 11702 11701 11101 11102 11727 11726 
11077 11078 11703 11702 11102 11103 11728 11727 
11078 11079 11704 11703 11103 11104 11729 11728 
11079 11080 11705 11704 11104 11105 11730 11729 
11080 11081 11706 11705 11105 11106 11731 11730 
11081 11082 11707 11706 11106 11107 11732 11731 
11082 11083 11708 11707 11107 11108 11733 11732 
11083 11084 11709 11708 11108 11109 11734 11733 
11084 11085 11710 11709 11109 11110 11735 11734 
11085 11086 11711 11710 11110 11111 11736 11735 
11086 11087 11712 11711 11111 11112 11737 11736 
11087 11088 11713 11712 11112 11113 11738 11737 
11088 11089 11714 11713 11113 11114 11739 11738 
11089 11090 11715 11714 11114 11115 11740 11739 
11090 11091 11716 11715 11115 11116 11741 11740 
11091 11092 11717 11716 11116 11117 11742 11741 
11092 11093 11718 11717 11117 11118 11743 11742 
11093 11094 11719 11718 11118 11119 11744 11743 
11094 11095 11720 11719 11119 11120 11745 11744 
11095 11096 11721 11720 11120 11121 11746 11745 
11096 11097 11722 11721 11121 11122 11747 11746 
11097 11098 11723 11722 11122 11123 11748 11747 
11098 11099 11724 11723 11123 11124 11749 11748 
11100 11101 11726 11725 11125 11126 11751 11750 
11101 11102 11727 11726 11126 11127 11752 11751 
11102 11103 11728 11727 11127 11128 11753 11752 
11103 11104 11729 11728 11128 11129 11754 11753 
11104 11105 11730 11729 11129 11130 11755 11754 
11105 11106 11731 11730 11130 11131 11756 11755 
11106 11107 11732 11731 11131 11132 11757 11756 
11107 11108 11733 11732 11132 11133 11758 11757 
11108 11109 11734 11733 11133 11134 11759 11758 
11109 11110 11735 11734 11134 11135 11760 11759 
11110 11111 11736 11735 11135 11136 11761 11760 
11111 11112 11737 11736 11136 11137 11762 11761 
11112 11113 11738 11737 11137 11138 11763 11762 
11113 11114 11739 11738 11138 11139 11764 11763 
11114 11115 11740 11739 11139 11140 11765 11764 
11115 11116 11741 11740 11140 11141 11766 11765 
11116 11117 11742 11741 11141 11142 11767 11766 
11117 11118 11743 11742 11142 11143 11768 11767 
11118 11119 11744 11743 11143 11144 11769 11768 
11119 11120 11745 11744 11144 11145 11770 11769 
11120 11121 11746 11745 11145 11146 11771 11770 
11121 11122 11747 11746 11146 11147 11772 11771 
11122 11123 11748 11747 11147 11148 11773 11772 
11123 11124 11749 11748 11148 11149 11774 11773 
11125 11126 11751 11750 11150 11151 11776 11775 
11126 11127 11752 11751 11151 11152 11777 11776 
11127 11128 11753 11752 11152 11153 11778 11777 
11128 11129 11754 11753 11153 11154 11779 11778 
11129 11130 11755 11754 11154 11155 11780 11779 
11130 11131 11756 11755 11155 11156 11781 11780 
11131 11132 11757 11756 11156 11157 11782 11781 
11132 11133 11758 11757 11157 11158 11783 11782 
11133 11134 11759 11758 11158 11159 11784 11783 
11134 11135 11760 11759 11159 11160 11785 11784 
11135 11136 11761 11760 11160 11161 11786 11785 
11136 11137 11762 11761 11161 11162 11787 11786 
11137 11138 11763 11762 11162 11163 11788 11787 
11138 11139 11764 11763 11163 11164 11789 11788 
11139 11140 11765 11764 11164 11165 11790 11789 
11140 11141 11766 11765 11165 11166 11791 11790 
11141 11142 11767 11766 11166 11167 11792 11791 
11142 11143 11768 11767 11167 11168 11793 11792 
11143 11144 11769 11768 11168 11169 11794 11793 
11144 11145 11770 11769 11169 11170 11795 11794 
11145 11146 11771 11770 11170 11171 11796 11795 
11146 11147 11772 11771 11171 11172 11797 11796 
11147 11148 11773 11772 11172 11173 11798 11797 
11148 11149 11774 11773 11173 11174 11799 11798 
11150 11151 11776 11775 11175 11176 11801 11800 
11151 11152 11777 11776 11176 11177 11802 11801 
11152 11153 11778 11777 11177 11178 11803 11802 
11153 11154 11779 11778 11178 11179 11804 11803 
11154 11155 11780 11779 11179 11180 11805 11804 
11155 11156 11781 11780 11180 11181 11806 11805 
11156 11157 11782 11781 11181 11182 11807 11806 
11157 11158 11783 11782 11182 11183 11808 11807 
11158 11159 11784 11783 11183 11184 11809 11808 
11159 11160 11785 11784 11184 11185 11810 11809 
11160 11161 11786 11785 11185 11186 11811 11810 
11161 11162 11787 11786 11186 11187 11812 11811 
11162 11163 11788 11787 11187 11188 11813 11812 
11163 11164 11789 11788 11188 11189 11814 11813 
11164 11165 11790 11789 11189 11190 11815 11814 
11165 11166 11791 11790 11190 11191 11816 11815 
11166 11167 11792 11791 11191 11192 11817 11816 
11167 11168 11793 11792 11192 11193 11818 11817 
11168 11169 11794 11793 11193 11194 11819 11818 
11169 11170 11795 11794 11194 11195 11820 11819 
11170 11171 11796 11795 11195 11196 11821 11820 
11171 11172 11797 11796 11196 11197 11822 11821 
11172 11173 11798 11797 11197 11198 11823 11822 
11173 11174 11799 11798 11198 11199 11824 11823 
11175 11176 11801 11800 11200 11201 11826 11825 
11176 11177 11802 11801 11201 11202 11827 11826 
11177 11178 11803 11802 11202 11203 11828 11827 
11178 11179 11804 11803 11203 11204 11829 11828 
11179 11180 11805 11804 11204 11205 11830 11829 
11180 11181 11806 11805 11205 11206 11831 11830 
11181 11182 11807 11806 11206 11207 11832 11831 
11182 11183 11808 11807 11207 11208 11833 11832 
11183 11184 11809 11808 11208 11209 11834 11833 
11184 11185 11810 11809 11209 11210 11835 11834 
11185 11186 11811 11810 11210 11211 11836 11835 
11186 11187 11812 11811 11211 11212 11837 11836 
11187 11188 11813 11812 11212 11213 11838 11837 
11188 11189 11814 11813 11213 11214 11839 11838 
11189 11190 11815 11814 11214 11215 11840 11839 
11190 11191 11816 11815 11215 11216 11841 11840 
11191 11192 11817 11816 11216 11217 11842 11841 
11192 11193 11818 11817 11217 11218 11843 11842 
11193 11194 11819 11818 11218 11219 11844 11843 
11194 11195 11820 11819 11219 11220 11845 11844 
11195 11196 11821 11820 11220 11221 11846 11845 
11196 11197 11822 11821 11221 11222 11847 11846 
11197 11198 11823 11822 11222 11223 11848 11847 
11198 11199 11824 11823 11223 11224 11849 11848 
11200 11201 11826 11825 11225 11226 11851 11850 
11201 11202 11827 11826 11226 11227 11852 11851 
11202 11203 11828 11827 11227 11228 11853 11852 
11203 11204 11829 11828 11228 11229 11854 11853 
11204 11205 11830 11829 11229 11230 11855 11854 
11205 11206 11831 11830 11230 11231 11856 11855 
11206 11207 11832 11831 11231 11232 11857 11856 
11207 11208 11833 11832 11232 11233 11858 11857 
11208 11209 11834 11833 11233 11234 11859 11858 
11209 11210 11835 11834 11234 11235 11860 11859 
11210 11211 11836 11835 11235 11236 11861 11860 
11211 11212 11837 11836 11236 11237 11862 11861 
11212 11213 11838 11837 11237 11238 11863 11862 
11213 11214 11839 11838 11238 11239 11864 11863 
11214 11215 11840 11839 11239 11240 11865 11864 
11215 11216 11841 11840 11240 11241 11866 11865 
11216 11217 11842 11841 11241 11242 11867 11866 
11217 11218 11843 11842 11242 11243 11868 11867 
11218 11219 11844 11843 11243 11244 11869 11868 
11219 11220 11845 11844 11244 11245 11870 11869 
11220 11221 11846 11845 11245 11246 11871 11870 
11221 11222 11847 11846 11246 11247 11872 11871 
11222 11223 11848 11847 11247 11248 11873 11872 
11223 11224 11849 11848 11248 11249 11874 11873 
11250 11251 11876 11875 11275 11276 11901 11900 
11251 11252 11877 11876 11276 11277 11902 11901 
11252 11253 11878 11877 11277 11278 11903 11902 
11253 11254 11879 11878 11278 11279 11904 11903 
11254 11255 11880 11879 11279 11280 11905 11904 
11255 11256 11881 11880 11280 11281 11906 11905 
11256 11257 11882 11881 11281 11282 11907 11906 
11257 11258 11883 11882 11282 11283 11908 11907 
11258 11259 11884 11883 11283 11284 11909 11908 
11259 11260 11885 11884 11284 11285 11910 11909 
11260 11261 11886 11885 11285 11286 11911 11910 
11261 11262 11887 11886 11286 11287 11912 11911 
11262 11263 11888 11887 11287 11288 11913 11912 
11263 11264 11889 11888 11288 11289 11914 11913 
11264 11265 11890 11889 11289 11290 11915 11914 
11265 11266 11891 11890 11290 11291 11916 11915 
11266 11267 11892 11891 11291 11292 11917 11916 
11267 11268 11893 11892 11292 11293 11918 11917 
11268 11269 11894 11893 11293 11294 11919 11918 
11269 11270 11895 11894 11294 11295 11920 11919 
11270 11271 11896 11895 11295 11296 11921 11920 
11271 11272 11897 11896 11296 11297 11922 11921 
11272 11273 11898 11897 11297 11298 11923 11922 
11273 11274 11899 11898 11298 11299 11924 11923 
11275 11276 11901 11900 11300 11301 11926 11925 
11276 11277 11902 11901 11301 11302 11927 11926 
11277 11278 11903 11902 11302 11303 11928 11927 
11278 11279 11904 11903 11303 11304 11929 11928 
11279 11280 11905 11904 11304 11305 11930 11929 
11280 11281 11906 11905 11305 11306 11931 11930 
11281 11282 11907 11906 11306 11307 11932 11931 
11282 11283 11908 11907 11307 11308 11933 11932 
11283 11284 11909 11908 11308 11309 11934 11933 
11284 11285 11910 11909 11309 11310 11935 11934 
11285 11286 11911 11910 11310 11311 11936 11935 
11286 11287 11912 11911 11311 11312 11937 11936 
11287 11288 11913 11912 11312 11313 11938 11937 
11288 11289 11914 11913 11313 11314 11939 11938 
11289 11290 11915 11914 11314 11315 11940 11939 
11290 11291 11916 11915 11315 11316 11941 11940 
11291 11292 11917 11916 11316 11317 11942 11941 
11292 11293 11918 11917 11317 11318 11943 11942 
11293 11294 11919 11918 11318 11319 11944 11943 
11294 11295 11920 11919 11319 11320 11945 11944 
11295 11296 11921 11920 11320 11321 11946 11945 
11296 11297 11922 11921 11321 11322 11947 11946 
11297 11298 11923 11922 11322 11323 11948 11947 
11298 11299 11924 11923 11323 11324 11949 11948 
11300 11301 11926 11925 11325 11326 11951 11950 
11301 11302 11927 11926 11326 11327 11952 11951 
11302 11303 11928 11927 11327 11328 11953 11952 
11303 11304 11929 11928 11328 11329 11954 11953 
11304 11305 11930 11929 11329 11330 11955 11954 
11305 11306 11931 11930 11330 11331 11956 11955 
11306 11307 11932 11931 11331 11332 11957 11956 
11307 11308 11933 11932 11332 11333 11958 11957 
11308 11309 11934 11933 11333 11334 11959 11958 
11309 11310 11935 11934 11334 11335 11960 11959 
11310 11311 11936 11935 11335 11336 11961 11960 
11311 11312 11937 11936 11336 11337 11962 11961 
11312 11313 11938 11937 11337 11338 11963 11962 
11313 11314 11939 11938 11338 11339 11964 11963 
11314 11315 11940 11939 11339 11340 11965 11964 
11315 11316 11941 11940 11340 11341 11966 11965 
11316 11317 11942 11941 11341 11342 11967 11966 
11317 11318 11943 11942 11342 11343 11968 11967 
11318 11319 11944 11943 11343 11344 11969 11968 
11319 11320 11945 11944 11344 11345 11970 11969 
11320 11321 11946 11945 11345 11346 11971 11970 
11321 11322 11947 11946 11346 11347 11972 11971 
11322 11323 11948 11947 11347 11348 11973 11972 
11323 11324 11949 11948 11348 11349 11974 11973 
11325 11326 11951 11950 11350 11351 11976 11975 
11326 11327 11952 11951 11351 11352 11977 11976 
11327 11328 11953 11952 11352 11353 11978 11977 
11328 11329 11954 11953 11353 11354 11979 11978 
11329 11330 11955 11954 11354 11355 11980 11979 
11330 11331 11956 11955 11355 11356 11981 11980 
11331 11332 11957 11956 11356 11357 11982 11981 
11332 11333 11958 11957 11357 11358 11983 11982 
11333 11334 11959 11958 11358 11359 11984 11983 
11334 11335 11960 11959 11359 11360 11985 11984 
11335 11336 11961 11960 11360 11361 11986 11985 
11336 11337 11962 11961 11361 11362 11987 11986 
11337 11338 11963 11962 11362 11363 11988 11987 
11338 11339 11964 11963 11363 11364 11989 11988 
11339 11340 11965 11964 11364 11365 11990 11989 
11340 11341 11966 11965 11365 11366 11991 11990 
11341 11342 11967 11966 11366 11367 11992 11991 
11342 11343 11968 11967 11367 11368 11993 11992 
11343 11344 11969 11968 11368 11369 11994 11993 
11344 11345 11970 11969 11369 11370 11995 11994 
11345 11346 11971 11970 11370 11371 11996 11995 
11346 11347 11972 11971 11371 11372 11997 11996 
11347 11348 11973 11972 11372 11373 11998 11997 
11348 11349 11974 11973 11373 11374 11999 11998 
11350 11351 11976 11975 11375 11376 12001 12000 
11351 11352 11977 11976 11376 11377 12002 12001 
11352 11353 11978 11977 11377 11378 12003 12002 
11353 11354 11979 11978 11378 11379 12004 12003 
11354 11355 11980 11979 11379 11380 12005 12004 
11355 11356 11981 11980 11380 11381 12006 12005 
11356 11357 11982 11981 11381 11382 12007 12006 
11357 11358 11983 11982 11382 11383 12008 12007 
11358 11359 11984 11983 11383 11384 12009 12008 
11359 11360 11985 11984 11384 11385 12010 12009 
11360 11361 11986 11985 11385 11386 12011 12010 
11361 11362 11987 11986 11386 11387 12012 12011 
11362 11363 11988 11987 11387 11388 12013 12012 
11363 11364 11989 11988 11388 11389 12014 12013 
11364 11365 11990 11989 11389 11390 12015 12014 
11365 11366 11991 11990 11390 11391 12016 12015 
11366 11367 11992 11991 11391 11392 12017 12016 
11367 11368 11993 11992 11392 11393 12018 12017 
11368 11369 11994 11993 11393 11394 12019 12018 
11369 11370 11995 11994 11394 11395 12020 12019 
11370 11371 11996 11995 11395 11396 12021 12020 
11371 11372 11997 11996 11396 11397 12022 12021 
11372 11373 11998 11997 11397 11398 12023 12022 
11373 11374 11999 11998 11398 11399 12024 12023 
11375 11376 12001 12000 11400 11401 12026 12025 
11376 11377 12002 12001 11401 11402 12027 12026 
11377 11378 12003 12002 11402 11403 12028 12027 
11378 11379 12004 12003 11403 11404 12029 12028 
11379 11380 12005 12004 11404 11405 12030 12029 
11380 11381 12006 12005 11405 11406 12031 12030 
11381 11382 12007 12006 11406 11407 12032 12031 
11382 11383 12008 12007 11407 11408 12033 12032 
11383 11384 12009 12008 11408 11409 12034 12033 
11384 11385 12010 12009 11409 11410 12035 12034 
11385 11386 12011 12010 11410 11411 12036 12035 
11386 11387 12012 12011 11411 11412 12037 12036 
11387 11388 12013 12012 11412 11413 12038 12037 
11388 11389 12014 12013 11413 11414 12039 12038 
11389 11390 12015 12014 11414 11415 12040 12039 
11390 11391 12016 12015 11415 11416 12041 12040 
11391 11392 12017 12016 11416 11417 12042 12041 
11392 11393 12018 12017 11417 11418 12043 12042 
11393 11394 12019 12018 11418 11419 12044 12043 
11394 11395 12020 12019 11419 11420 12045 12044 
11395 11396 12021 12020 11420 11421 12046 12045 
11396 11397 12022 12021 11421 11422 12047 12046 
11397 11398 12023 12022 11422 11423 12048 12047 
11398 11399 12024 12023 11423 11424 12049 12048 
11400 11401 12026 12025 11425 11426 12051 12050 
11401 11402 12027 12026 11426 11427 12052 12051 
11402 11403 12028 12027 11427 11428 12053 12052 
11403 11404 12029 12028 11428 11429 12054 12053 
11404 11405 12030 12029 11429 11430 12055 12054 
11405 11406 12031 12030 11430 11431 12056 12055 
11406 11407 12032 12031 11431 11432 12057 12056 
11407 11408 12033 12032 11432 11433 12058 12057 
11408 11409 12034 12033 11433 11434 12059 12058 
11409 11410 12035 12034 11434 11435 12060 12059 
11410 11411 12036 12035 11435 11436 12061 12060 
11411 11412 12037 12036 11436 11437 12062 12061 
11412 11413 12038 12037 11437 11438 12063 12062 
11413 11414 12039 12038 11438 11439 12064 12063 
11414 11415 12040 12039 11439 11440 12065 12064 
11415 11416 12041 12040 11440 11441 12066 12065 
11416 11417 12042 12041 11441 11442 12067 12066 
11417 11418 12043 12042 11442 11443 12068 12067 
11418 11419 12044 12043 11443 11444 12069 12068 
11419 11420 12045 12044 11444 11445 12070 12069 
11420 11421 12046 12045 11445 11446 12071 12070 
11421 11422 12047 12046 11446 11447 12072 12071 
11422 11423 12048 12047 11447 11448 12073 12072 
11423 11424 12049 12048 11448 11449 12074 12073 
11425 11426 12051 12050 11450 11451 12076 12075 
11426 11427 12052 12051 11451 11452 12077 12076 
11427 11428 12053 12052 11452 11453 12078 12077 
11428 11429 12054 12053 11453 11454 12079 12078 
11429 11430 12055 12054 11454 11455 12080 12079 
11430 11431 12056 12055 11455 11456 12081 12080 
11431 11432 12057 12056 11456 11457 12082 12081 
11432 11433 12058 12057 11457 11458 12083 12082 
11433 11434 12059 12058 11458 11459 12084 12083 
11434 11435 12060 12059 11459 11460 12085 12084 
11435 11436 12061 12060 11460 11461 12086 12085 
11436 11437 12062 12061 11461 11462 12087 12086 
11437 11438 12063 12062 11462 11463 12088 12087 
11438 11439 12064 12063 11463 11464 12089 12088 
11439 11440 12065 12064 11464 11465 12090 12089 
11440 11441 12066 12065 11465 11466 12091 12090 
11441 11442 12067 12066 11466 11467 12092 12091 
11442 11443 12068 12067 11467 11468 12093 12092 
11443 11444 12069 12068 11468 11469 12094 12093 
11444 11445 12070 12069 11469 11470 12095 12094 
11445 11446 12071 12070 11470 11471 12096 12095 
11446 11447 12072 12071 11471 11472 12097 12096 
11447 11448 12073 12072 11472 11473 12098 12097 
11448 11449 12074 12073 11473 11474 12099 12098 
11450 11451 12076 12075 11475 11476 12101 12100 
11451 11452 12077 12076 11476 11477 12102 12101 
11452 11453 12078 12077 11477 11478 12103 12102 
11453 11454 12079 12078 11478 11479 12104 12103 
11454 11455 12080 12079 11479 11480 12105 12104 
11455 11456 12081 12080 11480 11481 12106 12105 
11456 11457 12082 12081 11481 11482 12107 12106 
11457 11458 12083 12082 11482 11483 12108 12107 
11458 11459 12084 12083 11483 11484 12109 12108 
11459 11460 12085 12084 11484 11485 12110 12109 
11460 11461 12086 12085 11485 11486 12111 12110 
11461 11462 12087 12086 11486 11487 12112 12111 
11462 11463 12088 12087 11487 11488 12113 12112 
11463 11464 12089 12088 11488 11489 12114 12113 
11464 11465 12090 12089 11489 11490 12115 12114 
11465 11466 12091 12090 11490 11491 12116 12115 
11466 11467 12092 12091 11491 11492 12117 12116 
11467 11468 12093 12092 11492 11493 12118 12117 
11468 11469 12094 12093 11493 11494 12119 12118 
11469 11470 12095 12094 11494 11495 12120 12119 
11470 11471 12096 12095 11495 11496 12121 12120 
11471 11472 12097 12096 11496 11497 12122 12121 
11472 11473 12098 12097 11497 11498 12123 12122 
11473 11474 12099 12098 11498 11499 12124 12123 
11475 11476 12101 12100 11500 11501 12126 12125 
11476 11477 12102 12101 11501 11502 12127 12126 
11477 11478 12103 12102 11502 11503 12128 12127 
11478 11479 12104 12103 11503 11504 12129 12128 
11479 11480 12105 12104 11504 11505 12130 12129 
11480 11481 12106 12105 11505 11506 12131 12130 
11481 11482 12107 12106 11506 11507 12132 12131 
11482 11483 12108 12107 11507 11508 12133 12132 
11483 11484 12109 12108 11508 11509 12134 12133 
11484 11485 12110 12109 11509 11510 12135 12134 
11485 11486 12111 12110 11510 11511 12136 12135 
11486 11487 12112 12111 11511 11512 12137 12136 
11487 11488 12113 12112 11512 11513 12138 12137 
11488 11489 12114 12113 11513 11514 12139 12138 
11489 11490 12115 12114 11514 11515 12140 12139 
11490 11491 12116 12115 11515 11516 12141 12140 
11491 11492 12117 12116 11516 11517 12142 12141 
11492 11493 12118 12117 11517 11518 12143 12142 
11493 11494 12119 12118 11518 11519 12144 12143 
11494 11495 12120 12119 11519 11520 12145 12144 
11495 11496 12121 12120 11520 11521 12146 12145 
11496 11497 12122 12121 11521 11522 12147 12146 
11497 11498 12123 12122 11522 11523 12148 12147 
11498 11499 12124 12123 11523 11524 12149 12148 
11500 11501 12126 12125 11525 11526 12151 12150 
11501 11502 12127 12126 11526 11527 12152 12151 
11502 11503 12128 12127 11527 11528 12153 12152 
11503 11504 12129 12128 11528 11529 12154 12153 
11504 11505 12130 12129 11529 11530 12155 12154 
11505 11506 12131 12130 11530 11531 12156 12155 
11506 11507 12132 12131 11531 11532 12157 12156 
11507 11508 12133 12132 11532 11533 12158 12157 
11508 11509 12134 12133 11533 11534 12159 12158 
11509 11510 12135 12134 11534 11535 12160 12159 
11510 11511 12136 12135 11535 11536 12161 12160 
11511 11512 12137 12136 11536 11537 12162 12161 
11512 11513 12138 12137 11537 11538 12163 12162 
11513 11514 12139 12138 11538 11539 12164 12163 
11514 11515 12140 12139 11539 11540 12165 12164 
11515 11516 12141 12140 11540 11541 12166 12165 
11516 11517 12142 12141 11541 11542 12167 12166 
11517 11518 12143 12142 11542 11543 12168 12167 
11518 11519 12144 12143 11543 11544 12169 12168 
11519 11520 12145 12144 11544 11545 12170 12169 
11520 11521 12146 12145 11545 11546 12171 12170 
11521 11522 12147 12146 11546 11547 12172 12171 
11522 11523 12148 12147 11547 11548 12173 12172 
11523 11524 12149 12148 11548 11549 12174 12173 
11525 11526 12151 12150 11550 11551 12176 12175 
11526 11527 12152 12151 11551 11552 12177 12176 
11527 11528 12153 12152 11552 11553 12178 12177 
11528 11529 12154 12153 11553 11554 12179 12178 
11529 11530 12155 12154 11554 11555 12180 12179 
11530 11531 12156 12155 11555 11556 12181 12180 
11531 11532 12157 12156 11556 11557 12182 12181 
11532 11533 12158 12157 11557 11558 12183 12182 
11533 11534 12159 12158 11558 11559 12184 12183 
11534 11535 12160 12159 11559 11560 12185 12184 
11535 11536 12161 12160 11560 11561 12186 12185 
11536 11537 12162 12161 11561 11562 12187 12186 
11537 11538 12163 12162 11562 11563 12188 12187 
11538 11539 12164 12163 11563 11564 12189 12188 
11539 11540 12165 12164 11564 11565 12190 12189 
11540 11541 12166 12165 11565 11566 12191 12190 
11541 11542 12167 12166 11566 11567 12192 12191 
11542 11543 12168 12167 11567 11568 12193 12192 
11543 11544 12169 12168 11568 11569 12194 12193 
11544 11545 12170 12169 11569 11570 12195 12194 
11545 11546 12171 12170 11570 11571 12196 12195 
11546 11547 12172 12171 11571 11572 12197 12196 
11547 11548 12173 12172 11572 11573 12198 12197 
11548 11549 12174 12173 11573 11574 12199 12198 
11550 11551 12176 12175 11575 11576 12201 12200 
11551 11552 12177 12176 11576 11577 12202 12201 
11552 11553 12178 12177 11577 11578 12203 12202 
11553 11554 12179 12178 11578 11579 12204 12203 
11554 11555 12180 12179 11579 11580 12205 12204 
11555 11556 12181 12180 11580 11581 12206 12205 
11556 11557 12182 12181 11581 11582 12207 12206 
11557 11558 12183 12182 11582 11583 12208 12207 
11558 11559 12184 12183 11583 11584 12209 12208 
11559 11560 12185 12184 11584 11585 12210 12209 
11560 11561 12186 12185 11585 11586 12211 12210 
11561 11562 12187 12186 11586 11587 12212 12211 
11562 11563 12188 12187 11587 11588 12213 12212 
11563 11564 12189 12188 11588 11589 12214 12213 
11564 11565 12190 12189 11589 11590 12215 12214 
11565 11566 12191 12190 11590 11591 12216 12215 
11566 11567 12192 12191 11591 11592 12217 12216 
11567 11568 12193 12192 11592 11593 12218 12217 
11568 11569 12194 12193 11593 11594 12219 12218 
11569 11570 12195 12194 11594 11595 12220 12219 
11570 11571 12196 12195 11595 11596 12221 12220 
11571 11572 12197 12196 11596 11597 12222 12221 
11572 11573 12198 12197 11597 11598 12223 12222 
11573 11574 12199 12198 11598 11599 12224 12223 
11575 11576 12201 12200 11600 11601 12226 12225 
11576 11577 12202 12201 11601 11602 12227 12226 
11577 11578 12203 12202 11602 11603 12228 12227 
11578 11579 12204 12203 11603 11604 12229 12228 
11579 11580 12205 12204 11604 11605 12230 12229 
11580 11581 12206 12205 11605 11606 12231 12230 
11581 11582 12207 12206 11606 11607 12232 12231 
11582 11583 12208 12207 11607 11608 12233 12232 
11583 11584 12209 12208 11608 11609 12234 12233 
11584 11585 12210 12209 11609 11610 12235 12234 
11585 11586 12211 12210 11610 11611 12236 12235 
11586 11587 12212 12211 11611 11612 12237 12236 
11587 11588 12213 12212 11612 11613 12238 12237 
11588 11589 12214 12213 11613 11614 12239 12238 
11589 11590 12215 12214 11614 11615 12240 12239 
11590 11591 12216 12215 11615 11616 12241 12240 
11591 11592 12217 12216 11616 11617 12242 12241 
11592 11593 12218 12217 11617 11618 12243 12242 
11593 11594 12219 12218 11618 11619 12244 12243 
11594 11595 12220 12219 11619 11620 12245 12244 
11595 11596 12221 12220 11620 11621 12246 12245 
11596 11597 12222 12221 11621 11622 12247 12246 
11597 11598 12223 12222 11622 11623 12248 12247 
11598 11599 12224 12223 11623 11624 12249 12248 
11600 11601 12226 12225 11625 11626 12251 12250 
11601 11602 12227 12226 11626 11627 12252 12251 
11602 11603 12228 12227 11627 11628 12253 12252 
11603 11604 12229 12228 11628 11629 12254 12253 
11604 11605 12230 12229 11629 11630 12255 12254 
11605 11606 12231 12230 11630 11631 12256 12255 
11606 11607 12232 12231 11631 11632 12257 12256 
11607 11608 12233 12232 11632 11633 12258 12257 
11608 11609 12234 12233 11633 11634 12259 12258 
11609 11610 12235 12234 11634 11635 12260 12259 
11610 11611 12236 12235 11635 11636 12261 12260 
11611 11612 12237 12236 11636 11637 12262 12261 
11612 11613 12238 12237 11637 11638 12263 12262 
11613 11614 12239 12238 11638 11639 12264 12263 
11614 11615 12240 12239 11639 11640 12265 12264 
11615 11616 12241 12240 11640 11641 12266 12265 
11616 11617 12242 12241 11641 11642 12267 12266 
11617 11618 12243 12242 11642 11643 12268 12267 
11618 11619 12244 12243 11643 11644 12269 12268 
11619 11620 12245 12244 11644 11645 12270 12269 
11620 11621 12246 12245 11645 11646 12271 12270 
11621 11622 12247 12246 11646 11647 12272 12271 
11622 11623 12248 12247 11647 11648 12273 12272 
11623 11624 12249 12248 11648 11649 12274 12273 
11625 11626 12251 12250 11650 11651 12276 12275 
11626 11627 12252 12251 11651 11652 12277 12276 
11627 11628 12253 12252 11652 11653 12278 12277 
11628 11629 12254 12253 11653 11654 12279 12278 
11629 11630 12255 12254 11654 11655 12280 12279 
11630 11631 12256 12255 11655 11656 12281 12280 
11631 11632 12257 12256 11656 11657 12282 12281 
11632 11633 12258 12257 11657 11658 12283 12282 
11633 11634 12259 12258 11658 11659 12284 12283 
11634 11635 12260 12259 11659 11660 12285 12284 
11635 11636 12261 12260 11660 11661 12286 12285 
11636 11637 12262 12261 11661 11662 12287 12286 
11637 11638 12263 12262 11662 11663 12288 12287 
11638 11639 12264 12263 11663 11664 12289 12288 
11639 11640 12265 12264 11664 11665 12290 12289 
11640 11641 12266 12265 11665 11666 12291 12290 
11641 11642 12267 12266 11666 11667 12292 12291 
11642 11643 12268 12267 11667 11668 12293 12292 
11643 11644 12269 12268 11668 11669 12294 12293 
11644 11645 12270 12269 11669 11670 12295 12294 
11645 11646 12271 12270 11670 11671 12296 12295 
11646 11647 12272 12271 11671 11672 12297 12296 
11647 11648 12273 12272 11672 11673 12298 12297 
11648 11649 12274 12273 11673 11674 12299 12298 
11650 11651 12276 12275 11675 11676 12301 12300 
11651 11652 12277 12276 11676 11677 12302 12301 
11652 11653 12278 12277 11677 11678 12303 12302 
11653 11654 12279 12278 11678 11679 12304 12303 
11654 11655 12280 12279 11679 11680 12305 12304 
11655 11656 12281 12280 11680 11681 12306 12305 
11656 11657 12282 12281 11681 11682 12307 12306 
11657 11658 12283 12282 11682 11683 12308 12307 
11658 11659 12284 12283 11683 11684 12309 12308 
11659 11660 12285 12284 11684 11685 12310 12309 
11660 11661 12286 12285 11685 11686 12311 12310 
11661 11662 12287 12286 11686 11687 12312 12311 
11662 11663 12288 12287 11687 11688 12313 12312 
11663 11664 12289 12288 11688 11689 12314 12313 
11664 11665 12290 12289 11689 11690 12315 12314 
11665 11666 12291 12290 11690 11691 12316 12315 
11666 11667 12292 12291 11691 11692 12317 12316 
11667 11668 12293 12292 11692 11693 12318 12317 
11668 11669 12294 12293 11693 11694 12319 12318 
11669 11670 12295 12294 11694 11695 12320 12319 
11670 11671 12296 12295 11695 11696 12321 12320 
11671 11672 12297 12296 11696 11697 12322 12321 
11672 11673 12298 12297 11697 11698 12323 12322 
11673 11674 12299 12298 11698 11699 12324 12323 
11675 11676 12301 12300 11700 11701 12326 12325 
11676 11677 12302 12301 11701 11702 12327 12326 
11677 11678 12303 12302 11702 11703 12328 12327 
11678 11679 12304 12303 11703 11704 12329 12328 
11679 11680 12305 12304 11704 11705 12330 12329 
11680 11681 12306 12305 11705 11706 12331 12330 
11681 11682 12307 12306 11706 11707 12332 12331 
11682 11683 12308 12307 11707 11708 12333 12332 
11683 11684 12309 12308 11708 11709 12334 12333 
11684 11685 12310 12309 11709 11710 12335 12334 
11685 11686 12311 12310 11710 11711 12336 12335 
11686 11687 12312 12311 11711 11712 12337 12336 
11687 11688 12313 12312 11712 11713 12338 12337 
11688 11689 12314 12313 11713 11714 12339 12338 
11689 11690 12315 12314 11714 11715 12340 12339 
11690 11691 12316 12315 11715 11716 12341 12340 
11691 11692 12317 12316 11716 11717 12342 12341 
11692 11693 12318 12317 11717 11718 12343 12342 
11693 11694 12319 12318 11718 11719 12344 12343 
11694 11695 12320 12319 11719 11720 12345 12344 
11695 11696 12321 12320 11720 11721 12346 12345 
11696 11697 12322 12321 11721 11722 12347 12346 
11697 11698 12323 12322 11722 11723 12348 12347 
11698 11699 12324 12323 11723 11724 12349 12348 
11700 11701 12326 12325 11725 11726 12351 12350 
11701 11702 12327 12326 11726 11727 12352 12351 
11702 11703 12328 12327 11727 11728 12353 12352 
11703 11704 12329 12328 11728 11729 12354 12353 
11704 11705 12330 12329 11729 11730 12355 12354 
11705 11706 12331 12330 11730 11731 12356 12355 
11706 11707 12332 12331 11731 11732 12357 12356 
11707 11708 12333 12332 11732 11733 12358 12357 
11708 11709 12334 12333 11733 11734 12359 12358 
11709 11710 12335 12334 11734 11735 12360 12359 
11710 11711 12336 12335 11735 11736 12361 12360 
11711 11712 12337 12336 11736 11737 12362 12361 
11712 11713 12338 12337 11737 11738 12363 12362 
11713 11714 12339 12338 11738 11739 12364 12363 
11714 11715 12340 12339 11739 11740 12365 12364 
11715 11716 12341 12340 11740 11741 12366 12365 
11716 11717 12342 12341 11741 11742 12367 12366 
11717 11718 12343 12342 11742 11743 12368 12367 
11718 11719 12344 12343 11743 11744 12369 12368 
11719 11720 12345 12344 11744 11745 12370 12369 
11720 11721 12346 12345 11745 11746 12371 12370 
11721 11722 12347 12346 11746 11747 12372 12371 
11722 11723 12348 12347 11747 11748 12373 12372 
11723 11724 12349 12348 11748 11749 12374 12373 
11725 11726 12351 12350 11750 11751 12376 12375 
11726 11727 12352 12351 11751 11752 12377 12376 
11727 11728 12353 12352 11752 11753 12378 12377 
11728 11729 12354 12353 11753 11754 12379 12378 
11729 11730 12355 12354 11754 11755 12380 12379 
11730 11731 12356 12355 11755 11756 12381 12380 
11731 11732 12357 12356 11756 11757 12382 12381 
11732 11733 12358 12357 11757 11758 12383 12382 
11733 11734 12359 12358 11758 11759 12384 12383 
11734 11735 12360 12359 11759 11760 12385 12384 
11735 11736 12361 12360 11760 11761 12386 12385 
11736 11737 12362 12361 11761 11762 12387 12386 
11737 11738 12363 12362 11762 11763 12388 12387 
11738 11739 12364 12363 11763 11764 12389 12388 
11739 11740 12365 12364 11764 11765 12390 12389 
11740 11741 12366 12365 11765 11766 12391 12390 
11741 11742 12367 12366 11766 11767 12392 12391 
11742 11743 12368 12367 11767 11768 12393 12392 
11743 11744 12369 12368 11768 11769 12394 12393 
11744 11745 12370 12369 11769 11770 12395 12394 
11745 11746 12371 12370 11770 11771 12396 12395 
11746 11747 12372 12371 11771 11772 12397 12396 
11747 11748 12373 12372 11772 11773 12398 12397 
11748 11749 12374 12373 11773 11774 12399 12398 
11750 11751 12376 12375 11775 11776 12401 12400 
11751 11752 12377 12376 11776 11777 12402 12401 
11752 11753 12378 12377 11777 11778 12403 12402 
11753 11754 12379 12378 11778 11779 12404 12403 
11754 11755 12380 12379 11779 11780 12405 12404 
11755 11756 12381 12380 11780 11781 12406 12405 
11756 11757 12382 12381 11781 11782 12407 12406 
11757 11758 12383 12382 11782 11783 12408 12407 
11758 11759 12384 12383 11783 11784 12409 12408 
11759 11760 12385 12384 11784 11785 12410 12409 
11760 11761 12386 12385 11785 11786 12411 12410 
11761 11762 12387 12386 11786 11787 12412 12411 
11762 11763 12388 12387 11787 11788 12413 12412 
11763 11764 12389 12388 11788 11789 12414 12413 
11764 11765 12390 12389 11789 11790 12415 12414 
11765 11766 12391 12390 11790 11791 12416 12415 
11766 11767 12392 12391 11791 11792 12417 12416 
11767 11768 12393 12392 11792 11793 12418 12417 
11768 11769 12394 12393 11793 11794 12419 12418 
11769 11770 12395 12394 11794 11795 12420 12419 
11770 11771 12396 12395 11795 11796 12421 12420 
11771 11772 12397 12396 11796 11797 12422 12421 
11772 11773 12398 12397 11797 11798 12423 12422 
11773 11774 12399 12398 11798 11799 12424 12423 
11775 11776 12401 12400 11800 11801 12426 12425 
11776 11777 12402 12401 11801 11802 12427 12426 
11777 11778 12403 12402 11802 11803 12428 12427 
11778 11779 12404 12403 11803 11804 12429 12428 
11779 11780 12405 12404 11804 11805 12430 12429 
11780 11781 12406 12405 11805 11806 12431 12430 
11781 11782 12407 12406 11806 11807 12432 12431 
11782 11783 12408 12407 11807 11808 12433 12432 
11783 11784 12409 12408 11808 11809 12434 12433 
11784 11785 12410 12409 11809 11810 12435 12434 
11785 11786 12411 12410 11810 11811 12436 12435 
11786 11787 12412 12411 11811 11812 12437 12436 
11787 11788 12413 12412 11812 11813 12438 12437 
11788 11789 12414 12413 11813 11814 12439 12438 
11789 11790 12415 12414 11814 11815 12440 12439 
11790 11791 12416 12415 11815 11816 12441 12440 
11791 11792 12417 12416 11816 11817 12442 12441 
11792 11793 12418 12417 11817 11818 12443 12442 
11793 11794 12419 12418 11818 11819 12444 12443 
11794 11795 12420 12419 11819 11820 12445 12444 
11795 11796 12421 12420 11820 11821 12446 12445 
11796 11797 12422 12421 11821 11822 12447 12446 
11797 11798 12423 12422 11822 11823 12448 12447 
11798 11799 12424 12423 11823 11824 12449 12448 
11800 11801 12426 12425 11825 11826 12451 12450 
11801 11802 12427 12426 11826 11827 12452 12451 
11802 11803 12428 12427 11827 11828 12453 12452 
11803 11804 12429 12428 11828 11829 12454 12453 
11804 11805 12430 12429 11829 11830 12455 12454 
11805 11806 12431 12430 11830 11831 12456 12455 
11806 11807 12432 12431 11831 11832 12457 12456 
11807 11808 12433 12432 11832 11833 12458 12457 
11808 11809 12434 12433 11833 11834 12459 12458 
11809 11810 12435 12434 11834 11835 12460 12459 
11810 11811 12436 12435 11835 11836 12461 12460 
11811 11812 12437 12436 11836 11837 12462 12461 
11812 11813 12438 12437 11837 11838 12463 12462 
11813 11814 12439 12438 11838 11839 12464 12463 
11814 11815 12440 12439 11839 11840 12465 12464 
11815 11816 12441 12440 11840 11841 12466 12465 
11816 11817 12442 12441 11841 11842 12467 12466 
11817 11818 12443 12442 11842 11843 12468 12467 
11818 11819 12444 12443 11843 11844 12469 12468 
11819 11820 12445 12444 11844 11845 12470 12469 
11820 11821 12446 12445 11845 11846 12471 12470 
11821 11822 12447 12446 11846 11847 12472 12471 
11822 11823 12448 12447 11847 11848 12473 12472 
11823 11824 12449 12448 11848 11849 12474 12473 
11825 11826 12451 12450 11850 11851 12476 12475 
11826 11827 12452 12451 11851 11852 12477 12476 
11827 11828 12453 12452 11852 11853 12478 12477 
11828 11829 12454 12453 11853 11854 12479 12478 
11829 11830 12455 12454 11854 11855 12480 12479 
11830 11831 12456 12455 11855 11856 12481 12480 
11831 11832 12457 12456 11856 11857 12482 12481 
11832 11833 12458 12457 11857 11858 12483 12482 
11833 11834 12459 12458 11858 11859 12484 12483 
11834 11835 12460 12459 11859 11860 12485 12484 
11835 11836 12461 12460 11860 11861 12486 12485 
11836 11837 12462 12461 11861 11862 12487 12486 
11837 11838 12463 12462 11862 11863 12488 12487 
11838 11839 12464 12463 11863 11864 12489 12488 
11839 11840 12465 12464 11864 11865 12490 12489 
11840 11841 12466 12465 11865 11866 12491 12490 
11841 11842 12467 12466 11866 11867 12492 12491 
11842 11843 12468 12467 11867 11868 12493 12492 
11843 11844 12469 12468 11868 11869 12494 12493 
11844 11845 12470 12469 11869 11870 12495 12494 
11845 11846 12471 12470 11870 11871 12496 12495 
11846 11847 12472 12471 11871 11872 12497 12496 
11847 11848 12473 12472 11872 11873 12498 12497 
11848 11849 12474 12473 11873 11874 12499 12498 
11875 11876 12501 12500 11900 11901 12526 12525 
11876 11877 12502 12501 11901 11902 12527 12526 
11877 11878 12503 12502 11902 11903 12528 12527 
11878 11879 12504 12503 11903 11904 12529 12528 
11879 11880 12505 12504 11904 11905 12530 12529 
11880 11881 12506 12505 11905 11906 12531 12530 
11881 11882 12507 12506 11906 11907 12532 12531 
11882 11883 12508 12507 11907 11908 12533 12532 
11883 11884 12509 12508 11908 11909 12534 12533 
11884 11885 12510 12509 11909 11910 12535 12534 
11885 11886 12511 12510 11910 11911 12536 12535 
11886 11887 12512 12511 11911 11912 12537 12536 
11887 11888 12513 12512 11912 11913 12538 12537 
11888 11889 12514 12513 11913 11914 12539 12538 
11889 11890 12515 12514 11914 11915 12540 12539 
11890 11891 12516 12515 11915 11916 12541 12540 
11891 11892 12517 12516 11916 11917 12542 12541 
11892 11893 12518 12517 11917 11918 12543 12542 
11893 11894 12519 12518 11918 11919 12544 12543 
11894 11895 12520 12519 11919 11920 12545 12544 
11895 11896 12521 12520 11920 11921 12546 12545 
11896 11897 12522 12521 11921 11922 12547 12546 
11897 11898 12523 12522 11922 11923 12548 12547 
11898 11899 12524 12523 11923 11924 12549 12548 
11900 11901 12526 12525 11925 11926 12551 12550 
11901 11902 12527 12526 11926 11927 12552 12551 
11902 11903 12528 12527 11927 11928 12553 12552 
11903 11904 12529 12528 11928 11929 12554 12553 
11904 11905 12530 12529 11929 11930 12555 12554 
11905 11906 12531 12530 11930 11931 12556 12555 
11906 11907 12532 12531 11931 11932 12557 12556 
11907 11908 12533 12532 11932 11933 12558 12557 
11908 11909 12534 12533 11933 11934 12559 12558 
11909 11910 12535 12534 11934 11935 12560 12559 
11910 11911 12536 12535 11935 11936 12561 12560 
11911 11912 12537 12536 11936 11937 12562 12561 
11912 11913 12538 12537 11937 11938 12563 12562 
11913 11914 12539 12538 11938 11939 12564 12563 
11914 11915 12540 12539 11939 11940 12565 12564 
11915 11916 12541 12540 11940 11941 12566 12565 
11916 11917 12542 12541 11941 11942 12567 12566 
11917 11918 12543 12542 11942 11943 12568 12567 
11918 11919 12544 12543 11943 11944 12569 12568 
11919 11920 12545 12544 11944 11945 12570 12569 
11920 11921 12546 12545 11945 11946 12571 12570 
11921 11922 12547 12546 11946 11947 12572 12571 
11922 11923 12548 12547 11947 11948 12573 12572 
11923 11924 12549 12548 11948 11949 12574 12573 
11925 11926 12551 12550 11950 11951 12576 12575 
11926 11927 12552 12551 11951 11952 12577 12576 
11927 11928 12553 12552 11952 11953 12578 12577 
11928 11929 12554 12553 11953 11954 12579 12578 
11929 11930 12555 12554 11954 11955 12580 12579 
11930 11931 12556 12555 11955 11956 12581 12580 
11931 11932 12557 12556 11956 11957 12582 12581 
11932 11933 12558 12557 11957 11958 12583 12582 
11933 11934 12559 12558 11958 11959 12584 12583 
11934 11935 12560 12559 11959 11960 12585 12584 
11935 11936 12561 12560 11960 11961 12586 12585 
11936 11937 12562 12561 11961 11962 12587 12586 
11937 11938 12563 12562 11962 11963 12588 12587 
11938 11939 12564 12563 11963 11964 12589 12588 
11939 11940 12565 12564 11964 11965 12590 12589 
11940 11941 12566 12565 11965 11966 12591 12590 
11941 11942 12567 12566 11966 11967 12592 12591 
11942 11943 12568 12567 11967 11968 12593 12592 
11943 11944 12569 12568 11968 11969 12594 12593 
11944 11945 12570 12569 11969 11970 12595 12594 
11945 11946 12571 12570 11970 11971 12596 12595 
11946 11947 12572 12571 11971 11972 12597 12596 
11947 11948 12573 12572 11972 11973 12598 12597 
11948 11949 12574 12573 11973 11974 12599 12598 
11950 11951 12576 12575 11975 11976 12601 12600 
11951 11952 12577 12576 11976 11977 12602 12601 
11952 11953 12578 12577 11977 11978 12603 12602 
11953 11954 12579 12578 11978 11979 12604 12603 
11954 11955 12580 12579 11979 11980 12605 12604 
11955 11956 12581 12580 11980 11981 12606 12605 
11956 11957 12582 12581 11981 11982 12607 12606 
11957 11958 12583 12582 11982 11983 12608 12607 
11958 11959 12584 12583 11983 11984 12609 12608 
11959 11960 12585 12584 11984 11985 12610 12609 
11960 11961 12586 12585 11985 11986 12611 12610 
11961 11962 12587 12586 11986 11987 12612 12611 
11962 11963 12588 12587 11987 11988 12613 12612 
11963 11964 12589 12588 11988 11989 12614 12613 
11964 11965 12590 12589 11989 11990 12615 12614 
11965 11966 12591 12590 11990 11991 12616 12615 
11966 11967 12592 12591 11991 11992 12617 12616 
11967 11968 12593 12592 11992 11993 12618 12617 
11968 11969 12594 12593 11993 11994 12619 12618 
11969 11970 12595 12594 11994 11995 12620 12619 
11970 11971 12596 12595 11995 11996 12621 12620 
11971 11972 12597 12596 11996 11997 12622 12621 
11972 11973 12598 12597 11997 11998 12623 12622 
11973 11974 12599 12598 11998 11999 12624 12623 
11975 11976 12601 12600 12000 12001 12626 12625 
11976 11977 12602 12601 12001 12002 12627 12626 
11977 11978 12603 12602 12002 12003 12628 12627 
11978 11979 12604 12603 12003 12004 12629 12628 
11979 11980 12605 12604 12004 12005 12630 12629 
11980 11981 12606 12605 12005 12006 12631 12630 
11981 11982 12607 12606 12006 12007 12632 12631 
11982 11983 12608 12607 12007 12008 12633 12632 
11983 11984 12609 12608 12008 12009 12634 12633 
11984 11985 12610 12609 12009 12010 12635 12634 
11985 11986 12611 12610 12010 12011 12636 12635 
11986 11987 12612 12611 12011 12012 12637 12636 
11987 11988 12613 12612 12012 12013 12638 12637 
11988 11989 12614 12613 12013 12014 12639 12638 
11989 11990 12615 12614 12014 12015 12640 12639 
11990 11991 12616 12615 12015 12016 12641 12640 
11991 11992 12617 12616 12016 12017 12642 12641 
11992 11993 12618 12617 12017 12018 12643 12642 
11993 11994 12619 12618 12018 12019 12644 12643 
11994 11995 12620 12619 12019 12020 12645 12644 
11995 11996 12621 12620 12020 12021 12646 12645 
11996 11997 12622 12621 12021 12022 12647 12646 
11997 11998 12623 12622 12022 12023 12648 12647 
11998 11999 12624 12623 12023 12024 12649 12648 
12000 12001 12626 12625 12025 12026 12651 12650 
12001 12002 12627 12626 12026 12027 12652 12651 
12002 12003 12628 12627 12027 12028 12653 12652 
12003 12004 12629 12628 12028 12029 12654 12653 
12004 12005 12630 12629 12029 12030 12655 12654 
12005 12006 12631 12630 12030 12031 12656 12655 
12006 12007 12632 12631 12031 12032 12657 12656 
12007 12008 12633 12632 12032 12033 12658 12657 
12008 12009 12634 12633 12033 12034 12659 12658 
12009 12010 12635 12634 12034 12035 12660 12659 
12010 12011 12636 12635 12035 12036 12661 12660 
12011 12012 12637 12636 12036 12037 12662 12661 
12012 12013 12638 12637 12037 12038 12663 12662 
12013 12014 12639 12638 12038 12039 12664 12663 
12014 12015 12640 12639 12039 12040 12665 12664 
12015 12016 12641 12640 12040 12041 12666 12665 
12016 12017 12642 12641 12041 12042 12667 12666 
12017 12018 12643 12642 12042 12043 12668 12667 
12018 12019 12644 12643 12043 12044 12669 12668 
12019 12020 12645 12644 12044 12045 12670 12669 
12020 12021 12646 12645 12045 12046 12671 12670 
12021 12022 12647 12646 12046 12047 12672 12671 
12022 12023 12648 12647 12047 12048 12673 12672 
12023 12024 12649 12648 12048 12049 12674 12673 
12025 12026 12651 12650 12050 12051 12676 12675 
12026 12027 12652 12651 12051 12052 12677 12676 
12027 12028 12653 12652 12052 12053 12678 12677 
12028 12029 12654 12653 12053 12054 12679 12678 
12029 12030 12655 12654 12054 12055 12680 12679 
12030 12031 12656 12655 12055 12056 12681 12680 
12031 12032 12657 12656 12056 12057 12682 12681 
12032 12033 12658 12657 12057 12058 12683 12682 
12033 12034 12659 12658 12058 12059 12684 12683 
12034 12035 12660 12659 12059 12060 12685 12684 
12035 12036 12661 12660 12060 12061 12686 12685 
12036 12037 12662 12661 12061 12062 12687 12686 
12037 12038 12663 12662 12062 12063 12688 12687 
12038 12039 12664 12663 12063 12064 12689 12688 
12039 12040 12665 12664 12064 12065 12690 12689 
12040 12041 12666 12665 12065 12066 12691 12690 
12041 12042 12667 12666 12066 12067 12692 12691 
12042 12043 12668 12667 12067 12068 12693 12692 
12043 12044 12669 12668 12068 12069 12694 12693 
12044 12045 12670 12669 12069 12070 12695 12694 
12045 12046 12671 12670 12070 12071 12696 12695 
12046 12047 12672 12671 12071 12072 12697 12696 
12047 12048 12673 12672 12072 12073 12698 12697 
12048 12049 12674 12673 12073 12074 12699 12698 
12050 12051 12676 12675 12075 12076 12701 12700 
12051 12052 12677 12676 12076 12077 12702 12701 
12052 12053 12678 12677 12077 12078 12703 12702 
12053 12054 12679 12678 12078 12079 12704 12703 
12054 12055 12680 12679 12079 12080 12705 12704 
12055 12056 12681 12680 12080 12081 12706 12705 
12056 12057 12682 12681 12081 12082 12707 12706 
12057 12058 12683 12682 12082 12083 12708 12707 
12058 12059 12684 12683 12083 12084 12709 12708 
12059 12060 12685 12684 12084 12085 12710 12709 
12060 12061 12686 12685 12085 12086 12711 12710 
12061 12062 12687 12686 12086 12087 12712 12711 
12062 12063 12688 12687 12087 12088 12713 12712 
12063 12064 12689 12688 12088 12089 12714 12713 
12064 12065 12690 12689 12089 12090 12715 12714 
12065 12066 12691 12690 12090 12091 12716 12715 
12066 12067 12692 12691 12091 12092 12717 12716 
12067 12068 12693 12692 12092 12093 12718 12717 
12068 12069 12694 12693 12093 12094 12719 12718 
12069 12070 12695 12694 12094 12095 12720 12719 
12070 12071 12696 12695 12095 12096 12721 12720 
12071 12072 12697 12696 12096 12097 12722 12721 
12072 12073 12698 12697 12097 12098 12723 12722 
12073 12074 12699 12698 12098 12099 12724 12723 
12075 12076 12701 12700 12100 12101 12726 12725 
12076 12077 12702 12701 12101 12102 12727 12726 
12077 12078 12703 12702 12102 12103 12728 12727 
12078 12079 12704 12703 12103 12104 12729 12728 
12079 12080 12705 12704 12104 12105 12730 12729 
12080 12081 12706 12705 12105 12106 12731 12730 
12081 12082 12707 12706 12106 12107 12732 12731 
12082 12083 12708 12707 12107 12108 12733 12732 
12083 12084 12709 12708 12108 12109 12734 12733 
12084 12085 12710 12709 12109 12110 12735 12734 
12085 12086 12711 12710 12110 12111 12736 12735 
12086 12087 12712 12711 12111 12112 12737 12736 
12087 12088 12713 12712 12112 12113 12738 12737 
12088 12089 12714 12713 12113 12114 12739 12738 
12089 12090 12715 12714 12114 12115 12740 12739 
12090 12091 12716 12715 12115 12116 12741 12740 
12091 12092 12717 12716 12116 12117 12742 12741 
12092 12093 12718 12717 12117 12118 12743 12742 
12093 12094 12719 12718 12118 12119 12744 12743 
12094 12095 12720 12719 12119 12120 12745 12744 
12095 12096 12721 12720 12120 12121 12746 12745 
12096 12097 12722 12721 12121 12122 12747 12746 
12097 12098 12723 12722 12122 12123 12748 12747 
12098 12099 12724 12723 12123 12124 12749 12748 
12100 12101 12726 12725 12125 12126 12751 12750 
12101 12102 12727 12726 12126 12127 12752 12751 
12102 12103 12728 12727 12127 12128 12753 12752 
12103 12104 12729 12728 12128 12129 12754 12753 
12104 12105 12730 12729 12129 12130 12755 12754 
12105 12106 12731 12730 12130 12131 12756 12755 
12106 12107 12732 12731 12131 12132 12757 12756 
12107 12108 12733 12732 12132 12133 12758 12757 
12108 12109 12734 12733 12133 12134 12759 12758 
12109 12110 12735 12734 12134 12135 12760 12759 
12110 12111 12736 12735 12135 12136 12761 12760 
12111 12112 12737 12736 12136 12137 12762 12761 
12112 12113 12738 12737 12137 12138 12763 12762 
12113 12114 12739 12738 12138 12139 12764 12763 
12114 12115 12740 12739 12139 12140 12765 12764 
12115 12116 12741 12740 12140 12141 12766 12765 
12116 12117 12742 12741 12141 12142 12767 12766 
12117 12118 12743 12742 12142 12143 12768 12767 
12118 12119 12744 12743 12143 12144 12769 12768 
12119 12120 12745 12744 12144 12145 12770 12769 
12120 12121 12746 12745 12145 12146 12771 12770 
12121 12122 12747 12746 12146 12147 12772 12771 
12122 12123 12748 12747 12147 12148 12773 12772 
12123 12124 12749 12748 12148 12149 12774 12773 
12125 12126 12751 12750 12150 12151 12776 12775 
12126 12127 12752 12751 12151 12152 12777 12776 
12127 12128 12753 12752 12152 12153 12778 12777 
12128 12129 12754 12753 12153 12154 12779 12778 
12129 12130 12755 12754 12154 12155 12780 12779 
12130 12131 12756 12755 12155 12156 12781 12780 
12131 12132 12757 12756 12156 12157 12782 12781 
12132 12133 12758 12757 12157 12158 12783 12782 
12133 12134 12759 12758 12158 12159 12784 12783 
12134 12135 12760 12759 12159 12160 12785 12784 
12135 12136 12761 12760 12160 12161 12786 12785 
12136 12137 12762 12761 12161 12162 12787 12786 
12137 12138 12763 12762 12162 12163 12788 12787 
12138 12139 12764 12763 12163 12164 12789 12788 
12139 12140 12765 12764 12164 12165 12790 12789 
12140 12141 12766 12765 12165 12166 12791 12790 
12141 12142 12767 12766 12166 12167 12792 12791 
12142 12143 12768 12767 12167 12168 12793 12792 
12143 12144 12769 12768 12168 12169 12794 12793 
12144 12145 12770 12769 12169 12170 12795 12794 
12145 12146 12771 12770 12170 12171 12796 12795 
12146 12147 12772 12771 12171 12172 12797 12796 
12147 12148 12773 12772 12172 12173 12798 12797 
12148 12149 12774 12773 12173 12174 12799 12798 
12150 12151 12776 12775 12175 12176 12801 12800 
12151 12152 12777 12776 12176 12177 12802 12801 
12152 12153 12778 12777 12177 12178 12803 12802 
12153 12154 12779 12778 12178 12179 12804 12803 
12154 12155 12780 12779 12179 12180 12805 12804 
12155 12156 12781 12780 12180 12181 12806 12805 
12156 12157 12782 12781 12181 12182 12807 12806 
12157 12158 12783 12782 12182 12183 12808 12807 
12158 12159 12784 12783 12183 12184 12809 12808 
12159 12160 12785 12784 12184 12185 12810 12809 
12160 12161 12786 12785 12185 12186 12811 12810 
12161 12162 12787 12786 12186 12187 12812 12811 
12162 12163 12788 12787 12187 12188 12813 12812 
12163 12164 12789 12788 12188 12189 12814 12813 
12164 12165 12790 12789 12189 12190 12815 12814 
12165 12166 12791 12790 12190 12191 12816 12815 
12166 12167 12792 12791 12191 12192 12817 12816 
12167 12168 12793 12792 12192 12193 12818 12817 
12168 12169 12794 12793 12193 12194 12819 12818 
12169 12170 12795 12794 12194 12195 12820 12819 
12170 12171 12796 12795 12195 12196 12821 12820 
12171 12172 12797 12796 12196 12197 12822 12821 
12172 12173 12798 12797 12197 12198 12823 12822 
12173 12174 12799 12798 12198 12199 12824 12823 
12175 12176 12801 12800 12200 12201 12826 12825 
12176 12177 12802 12801 12201 12202 12827 12826 
12177 12178 12803 12802 12202 12203 12828 12827 
12178 12179 12804 12803 12203 12204 12829 12828 
12179 12180 12805 12804 12204 12205 12830 12829 
12180 12181 12806 12805 12205 12206 12831 12830 
12181 12182 12807 12806 12206 12207 12832 12831 
12182 12183 12808 12807 12207 12208 12833 12832 
12183 12184 12809 12808 12208 12209 12834 12833 
12184 12185 12810 12809 12209 12210 12835 12834 
12185 12186 12811 12810 12210 12211 12836 12835 
12186 12187 12812 12811 12211 12212 12837 12836 
12187 12188 12813 12812 12212 12213 12838 12837 
12188 12189 12814 12813 12213 12214 12839 12838 
12189 12190 12815 12814 12214 12215 12840 12839 
12190 12191 12816 12815 12215 12216 12841 12840 
12191 12192 12817 12816 12216 12217 12842 12841 
12192 12193 12818 12817 12217 12218 12843 12842 
12193 12194 12819 12818 12218 12219 12844 12843 
12194 12195 12820 12819 12219 12220 12845 12844 
12195 12196 12821 12820 12220 12221 12846 12845 
12196 12197 12822 12821 12221 12222 12847 12846 
12197 12198 12823 12822 12222 12223 12848 12847 
12198 12199 12824 12823 12223 12224 12849 12848 
12200 12201 12826 12825 12225 12226 12851 12850 
12201 12202 12827 12826 12226 12227 12852 12851 
12202 12203 12828 12827 12227 12228 12853 12852 
12203 12204 12829 12828 12228 12229 12854 12853 
12204 12205 12830 12829 12229 12230 12855 12854 
12205 12206 12831 12830 12230 12231 12856 12855 
12206 12207 12832 12831 12231 12232 12857 12856 
12207 12208 12833 12832 12232 12233 12858 12857 
12208 12209 12834 12833 12233 12234 12859 12858 
12209 12210 12835 12834 12234 12235 12860 12859 
12210 12211 12836 12835 12235 12236 12861 12860 
12211 12212 12837 12836 12236 12237 12862 12861 
12212 12213 12838 12837 12237 12238 12863 12862 
12213 12214 12839 12838 12238 12239 12864 12863 
12214 12215 12840 12839 12239 12240 12865 12864 
12215 12216 12841 12840 12240 12241 12866 12865 
12216 12217 12842 12841 12241 12242 12867 12866 
12217 12218 12843 12842 12242 12243 12868 12867 
12218 12219 12844 12843 12243 12244 12869 12868 
12219 12220 12845 12844 12244 12245 12870 12869 
12220 12221 12846 12845 12245 12246 12871 12870 
12221 12222 12847 12846 12246 12247 12872 12871 
12222 12223 12848 12847 12247 12248 12873 12872 
12223 12224 12849 12848 12248 12249 12874 12873 
12225 12226 12851 12850 12250 12251 12876 12875 
12226 12227 12852 12851 12251 12252 12877 12876 
12227 12228 12853 12852 12252 12253 12878 12877 
12228 12229 12854 12853 12253 12254 12879 12878 
12229 12230 12855 12854 12254 12255 12880 12879 
12230 12231 12856 12855 12255 12256 12881 12880 
12231 12232 12857 12856 12256 12257 12882 12881 
12232 12233 12858 12857 12257 12258 12883 12882 
12233 12234 12859 12858 12258 12259 12884 12883 
12234 12235 12860 12859 12259 12260 12885 12884 
12235 12236 12861 12860 12260 12261 12886 12885 
12236 12237 12862 12861 12261 12262 12887 12886 
12237 12238 12863 12862 12262 12263 12888 12887 
12238 12239 12864 12863 12263 12264 12889 12888 
12239 12240 12865 12864 12264 12265 12890 12889 
12240 12241 12866 12865 12265 12266 12891 12890 
12241 12242 12867 12866 12266 12267 12892 12891 
12242 12243 12868 12867 12267 12268 12893 12892 
12243 12244 12869 12868 12268 12269 12894 12893 
12244 12245 12870 12869 12269 12270 12895 12894 
12245 12246 12871 12870 12270 12271 12896 12895 
12246 12247 12872 12871 12271 12272 12897 12896 
12247 12248 12873 12872 12272 12273 12898 12897 
12248 12249 12874 12873 12273 12274 12899 12898 
12250 12251 12876 12875 12275 12276 12901 12900 
12251 12252 12877 12876 12276 12277 12902 12901 
12252 12253 12878 12877 12277 12278 12903 12902 
12253 12254 12879 12878 12278 12279 12904 12903 
12254 12255 12880 12879 12279 12280 12905 12904 
12255 12256 12881 12880 12280 12281 12906 12905 
12256 12257 12882 12881 12281 12282 12907 12906 
12257 12258 12883 12882 12282 12283 12908 12907 
12258 12259 12884 12883 12283 12284 12909 12908 
12259 12260 12885 12884 12284 12285 12910 12909 
12260 12261 12886 12885 12285 12286 12911 12910 
12261 12262 12887 12886 12286 12287 12912 12911 
12262 12263 12888 12887 12287 12288 12913 12912 
12263 12264 12889 12888 12288 12289 12914 12913 
12264 12265 12890 12889 12289 12290 12915 12914 
12265 12266 12891 12890 12290 12291 12916 12915 
12266 12267 12892 12891 12291 12292 12917 12916 
12267 12268 12893 12892 12292 12293 12918 12917 
12268 12269 12894 12893 12293 12294 12919 12918 
12269 12270 12895 12894 12294 12295 12920 12919 
12270 12271 12896 12895 12295 12296 12921 12920 
12271 12272 12897 12896 12296 12297 12922 12921 
12272 12273 12898 12897 12297 12298 12923 12922 
12273 12274 12899 12898 12298 12299 12924 12923 
12275 12276 12901 12900 12300 12301 12926 12925 
12276 12277 12902 12901 12301 12302 12927 12926 
12277 12278 12903 12902 12302 12303 12928 12927 
12278 12279 12904 12903 12303 12304 12929 12928 
12279 12280 12905 12904 12304 12305 12930 12929 
12280 12281 12906 12905 12305 12306 12931 12930 
12281 12282 12907 12906 12306 12307 12932 12931 
12282 12283 12908 12907 12307 12308 12933 12932 
12283 12284 12909 12908 12308 12309 12934 12933 
12284 12285 12910 12909 12309 12310 12935 12934 
12285 12286 12911 12910 12310 12311 12936 12935 
12286 12287 12912 12911 12311 12312 12937 12936 
12287 12288 12913 12912 12312 12313 12938 12937 
12288 12289 12914 12913 12313 12314 12939 12938 
12289 12290 12915 12914 12314 12315 12940 12939 
12290 12291 12916 12915 12315 12316 12941 12940 
12291 12292 12917 12916 12316 12317 12942 12941 
12292 12293 12918 12917 12317 12318 12943 12942 
12293 12294 12919 12918 12318 12319 12944 12943 
12294 12295 12920 12919 12319 12320 12945 12944 
12295 12296 12921 12920 12320 12321 12946 12945 
12296 12297 12922 12921 12321 12322 12947 12946 
12297 12298 12923 12922 12322 12323 12948 12947 
12298 12299 12924 12923 12323 12324 12949 12948 
12300 12301 12926 12925 12325 12326 12951 12950 
12301 12302 12927 12926 12326 12327 12952 12951 
12302 12303 12928 12927 12327 12328 12953 12952 
12303 12304 12929 12928 12328 12329 12954 12953 
12304 12305 12930 12929 12329 12330 12955 12954 
12305 12306 12931 12930 12330 12331 12956 12955 
12306 12307 12932 12931 12331 12332 12957 12956 
12307 12308 12933 12932 12332 12333 12958 12957 
12308 12309 12934 12933 12333 12334 12959 12958 
12309 12310 12935 12934 12334 12335 12960 12959 
12310 12311 12936 12935 12335 12336 12961 12960 
12311 12312 12937 12936 12336 12337 12962 12961 
12312 12313 12938 12937 12337 12338 12963 12962 
12313 12314 12939 12938 12338 12339 12964 12963 
12314 12315 12940 12939 12339 12340 12965 12964 
12315 12316 12941 12940 12340 12341 12966 12965 
12316 12317 12942 12941 12341 12342 12967 12966 
12317 12318 12943 12942 12342 12343 12968 12967 
12318 12319 12944 12943 12343 12344 12969 12968 
12319 12320 12945 12944 12344 12345 12970 12969 
12320 12321 12946 12945 12345 12346 12971 12970 
12321 12322 12947 12946 12346 12347 12972 12971 
12322 12323 12948 12947 12347 12348 12973 12972 
12323 12324 12949 12948 12348 12349 12974 12973 
12325 12326 12951 12950 12350 12351 12976 12975 
12326 12327 12952 12951 12351 12352 12977 12976 
12327 12328 12953 12952 12352 12353 12978 12977 
12328 12329 12954 12953 12353 12354 12979 12978 
12329 12330 12955 12954 12354 12355 12980 12979 
12330 12331 12956 12955 12355 12356 12981 12980 
12331 12332 12957 12956 12356 12357 12982 12981 
12332 12333 12958 12957 12357 12358 12983 12982 
12333 12334 12959 12958 12358 12359 12984 12983 
12334 12335 12960 12959 12359 12360 12985 12984 
12335 12336 12961 12960 12360 12361 12986 12985 
12336 12337 12962 12961 12361 12362 12987 12986 
12337 12338 12963 12962 12362 12363 12988 12987 
12338 12339 12964 12963 12363 12364 12989 12988 
12339 12340 12965 12964 12364 12365 12990 12989 
12340 12341 12966 12965 12365 12366 12991 12990 
12341 12342 12967 12966 12366 12367 12992 12991 
12342 12343 12968 12967 12367 12368 12993 12992 
12343 12344 12969 12968 12368 12369 12994 12993 
12344 12345 12970 12969 12369 12370 12995 12994 
12345 12346 12971 12970 12370 12371 12996 12995 
12346 12347 12972 12971 12371 12372 12997 12996 
12347 12348 12973 12972 12372 12373 12998 12997 
12348 12349 12974 12973 12373 12374 12999 12998 
12350 12351 12976 12975 12375 12376 13001 13000 
12351 12352 12977 12976 12376 12377 13002 13001 
12352 12353 12978 12977 12377 12378 13003 13002 
12353 12354 12979 12978 12378 12379 13004 13003 
12354 12355 12980 12979 12379 12380 13005 13004 
12355 12356 12981 12980 12380 12381 13006 13005 
12356 12357 12982 12981 12381 12382 13007 13006 
12357 12358 12983 12982 12382 12383 13008 13007 
12358 12359 12984 12983 12383 12384 13009 13008 
12359 12360 12985 12984 12384 12385 13010 13009 
12360 12361 12986 12985 12385 12386 13011 13010 
12361 12362 12987 12986 12386 12387 13012 13011 
12362 12363 12988 12987 12387 12388 13013 13012 
12363 12364 12989 12988 12388 12389 13014 13013 
12364 12365 12990 12989 12389 12390 13015 13014 
12365 12366 12991 12990 12390 12391 13016 13015 
12366 12367 12992 12991 12391 12392 13017 13016 
12367 12368 12993 12992 12392 12393 13018 13017 
12368 12369 12994 12993 12393 12394 13019 13018 
12369 12370 12995 12994 12394 12395 13020 13019 
12370 12371 12996 12995 12395 12396 13021 13020 
12371 12372 12997 12996 12396 12397 13022 13021 
12372 12373 12998 12997 12397 12398 13023 13022 
12373 12374 12999 12998 12398 12399 13024 13023 
12375 12376 13001 13000 12400 12401 13026 13025 
12376 12377 13002 13001 12401 12402 13027 13026 
12377 12378 13003 13002 12402 12403 13028 13027 
12378 12379 13004 13003 12403 12404 13029 13028 
12379 12380 13005 13004 12404 12405 13030 13029 
12380 12381 13006 13005 12405 12406 13031 13030 
12381 12382 13007 13006 12406 12407 13032 13031 
12382 12383 13008 13007 12407 12408 13033 13032 
12383 12384 13009 13008 12408 12409 13034 13033 
12384 12385 13010 13009 12409 12410 13035 13034 
12385 12386 13011 13010 12410 12411 13036 13035 
12386 12387 13012 13011 12411 12412 13037 13036 
12387 12388 13013 13012 12412 12413 13038 13037 
12388 12389 13014 13013 12413 12414 13039 13038 
12389 12390 13015 13014 12414 12415 13040 13039 
12390 12391 13016 13015 12415 12416 13041 13040 
12391 12392 13017 13016 12416 12417 13042 13041 
12392 12393 13018 13017 12417 12418 13043 13042 
12393 12394 13019 13018 12418 12419 13044 13043 
12394 12395 13020 13019 12419 12420 13045 13044 
12395 12396 13021 13020 12420 12421 13046 13045 
12396 12397 13022 13021 12421 12422 13047 13046 
12397 12398 13023 13022 12422 12423 13048 13047 
12398 12399 13024 13023 12423 12424 13049 13048 
12400 12401 13026 13025 12425 12426 13051 13050 
12401 12402 13027 13026 12426 12427 13052 13051 
12402 12403 13028 13027 12427 12428 13053 13052 
12403 12404 13029 13028 12428 12429 13054 13053 
12404 12405 13030 13029 12429 12430 13055 13054 
12405 12406 13031 13030 12430 12431 13056 13055 
12406 12407 13032 13031 12431 12432 13057 13056 
12407 12408 13033 13032 12432 12433 13058 13057 
12408 12409 13034 13033 12433 12434 13059 13058 
12409 12410 13035 13034 12434 12435 13060 13059 
12410 12411 13036 13035 12435 12436 13061 13060 
12411 12412 13037 13036 12436 12437 13062 13061 
12412 12413 13038 13037 12437 12438 13063 13062 
12413 12414 13039 13038 12438 12439 13064 13063 
12414 12415 13040 13039 12439 12440 13065 13064 
12415 12416 13041 13040 12440 12441 13066 13065 
12416 12417 13042 13041 12441 12442 13067 13066 
12417 12418 13043 13042 12442 12443 13068 13067 
12418 12419 13044 13043 12443 12444 13069 13068 
12419 12420 13045 13044 12444 12445 13070 13069 
12420 12421 13046 13045 12445 12446 13071 13070 
12421 12422 13047 13046 12446 12447 13072 13071 
12422 12423 13048 13047 12447 12448 13073 13072 
12423 12424 13049 13048 12448 12449 13074 13073 
12425 12426 13051 13050 12450 12451 13076 13075 
12426 12427 13052 13051 12451 12452 13077 13076 
12427 12428 13053 13052 12452 12453 13078 13077 
12428 12429 13054 13053 12453 12454 13079 13078 
12429 12430 13055 13054 12454 12455 13080 13079 
12430 12431 13056 13055 12455 12456 13081 13080 
12431 12432 13057 13056 12456 12457 13082 13081 
12432 12433 13058 13057 12457 12458 13083 13082 
12433 12434 13059 13058 12458 12459 13084 13083 
12434 12435 13060 13059 12459 12460 13085 13084 
12435 12436 13061 13060 12460 12461 13086 13085 
12436 12437 13062 13061 12461 12462 13087 13086 
12437 12438 13063 13062 12462 12463 13088 13087 
12438 12439 13064 13063 12463 12464 13089 13088 
12439 12440 13065 13064 12464 12465 13090 13089 
12440 12441 13066 13065 12465 12466 13091 13090 
12441 12442 13067 13066 12466 12467 13092 13091 
12442 12443 13068 13067 12467 12468 13093 13092 
12443 12444 13069 13068 12468 12469 13094 13093 
12444 12445 13070 13069 12469 12470 13095 13094 
12445 12446 13071 13070 12470 12471 13096 13095 
12446 12447 13072 13071 12471 12472 13097 13096 
12447 12448 13073 13072 12472 12473 13098 13097 
12448 12449 13074 13073 12473 12474 13099 13098 
12450 12451 13076 13075 12475 12476 13101 13100 
12451 12452 13077 13076 12476 12477 13102 13101 
12452 12453 13078 13077 12477 12478 13103 13102 
12453 12454 13079 13078 12478 12479 13104 13103 
12454 12455 13080 13079 12479 12480 13105 13104 
12455 12456 13081 13080 12480 12481 13106 13105 
12456 12457 13082 13081 12481 12482 13107 13106 
12457 12458 13083 13082 12482 12483 13108 13107 
12458 12459 13084 13083 12483 12484 13109 13108 
12459 12460 13085 13084 12484 12485 13110 13109 
12460 12461 13086 13085 12485 12486 13111 13110 
12461 12462 13087 13086 12486 12487 13112 13111 
12462 12463 13088 13087 12487 12488 13113 13112 
12463 12464 13089 13088 12488 12489 13114 13113 
12464 12465 13090 13089 12489 12490 13115 13114 
12465 12466 13091 13090 12490 12491 13116 13115 
12466 12467 13092 13091 12491 12492 13117 13116 
12467 12468 13093 13092 12492 12493 13118 13117 
12468 12469 13094 13093 12493 12494 13119 13118 
12469 12470 13095 13094 12494 12495 13120 13119 
12470 12471 13096 13095 12495 12496 13121 13120 
12471 12472 13097 13096 12496 12497 13122 13121 
12472 12473 13098 13097 12497 12498 13123 13122 
12473 12474 13099 13098 12498 12499 13124 13123 
12500 12501 13126 13125 12525 12526 13151 13150 
12501 12502 13127 13126 12526 12527 13152 13151 
12502 12503 13128 13127 12527 12528 13153 13152 
12503 12504 13129 13128 12528 12529 13154 13153 
12504 12505 13130 13129 12529 12530 13155 13154 
12505 12506 13131 13130 12530 12531 13156 13155 
12506 12507 13132 13131 12531 12532 13157 13156 
12507 12508 13133 13132 12532 12533 13158 13157 
12508 12509 13134 13133 12533 12534 13159 13158 
12509 12510 13135 13134 12534 12535 13160 13159 
12510 12511 13136 13135 12535 12536 13161 13160 
12511 12512 13137 13136 12536 12537 13162 13161 
12512 12513 13138 13137 12537 12538 13163 13162 
12513 12514 13139 13138 12538 12539 13164 13163 
12514 12515 13140 13139 12539 12540 13165 13164 
12515 12516 13141 13140 12540 12541 13166 13165 
12516 12517 13142 13141 12541 12542 13167 13166 
12517 12518 13143 13142 12542 12543 13168 13167 
12518 12519 13144 13143 12543 12544 13169 13168 
12519 12520 13145 13144 12544 12545 13170 13169 
12520 12521 13146 13145 12545 12546 13171 13170 
12521 12522 13147 13146 12546 12547 13172 13171 
12522 12523 13148 13147 12547 12548 13173 13172 
12523 12524 13149 13148 12548 12549 13174 13173 
12525 12526 13151 13150 12550 12551 13176 13175 
12526 12527 13152 13151 12551 12552 13177 13176 
12527 12528 13153 13152 12552 12553 13178 13177 
12528 12529 13154 13153 12553 12554 13179 13178 
12529 12530 13155 13154 12554 12555 13180 13179 
12530 12531 13156 13155 12555 12556 13181 13180 
12531 12532 13157 13156 12556 12557 13182 13181 
12532 12533 13158 13157 12557 12558 13183 13182 
12533 12534 13159 13158 12558 12559 13184 13183 
12534 12535 13160 13159 12559 12560 13185 13184 
12535 12536 13161 13160 12560 12561 13186 13185 
12536 12537 13162 13161 12561 12562 13187 13186 
12537 12538 13163 13162 12562 12563 13188 13187 
12538 12539 13164 13163 12563 12564 13189 13188 
12539 12540 13165 13164 12564 12565 13190 13189 
12540 12541 13166 13165 12565 12566 13191 13190 
12541 12542 13167 13166 12566 12567 13192 13191 
12542 12543 13168 13167 12567 12568 13193 13192 
12543 12544 13169 13168 12568 12569 13194 13193 
12544 12545 13170 13169 12569 12570 13195 13194 
12545 12546 13171 13170 12570 12571 13196 13195 
12546 12547 13172 13171 12571 12572 13197 13196 
12547 12548 13173 13172 12572 12573 13198 13197 
12548 12549 13174 13173 12573 12574 13199 13198 
12550 12551 13176 13175 12575 12576 13201 13200 
12551 12552 13177 13176 12576 12577 13202 13201 
12552 12553 13178 13177 12577 12578 13203 13202 
12553 12554 13179 13178 12578 12579 13204 13203 
12554 12555 13180 13179 12579 12580 13205 13204 
12555 12556 13181 13180 12580 12581 13206 13205 
12556 12557 13182 13181 12581 12582 13207 13206 
12557 12558 13183 13182 12582 12583 13208 13207 
12558 12559 13184 13183 12583 12584 13209 13208 
12559 12560 13185 13184 12584 12585 13210 13209 
12560 12561 13186 13185 12585 12586 13211 13210 
12561 12562 13187 13186 12586 12587 13212 13211 
12562 12563 13188 13187 12587 12588 13213 13212 
12563 12564 13189 13188 12588 12589 13214 13213 
12564 12565 13190 13189 12589 12590 13215 13214 
12565 12566 13191 13190 12590 12591 13216 13215 
12566 12567 13192 13191 12591 12592 13217 13216 
12567 12568 13193 13192 12592 12593 13218 13217 
12568 12569 13194 13193 12593 12594 13219 13218 
12569 12570 13195 13194 12594 12595 13220 13219 
12570 12571 13196 13195 12595 12596 13221 13220 
12571 12572 13197 13196 12596 12597 13222 13221 
12572 12573 13198 13197 12597 12598 13223 13222 
12573 12574 13199 13198 12598 12599 13224 13223 
12575 12576 13201 13200 12600 12601 13226 13225 
12576 12577 13202 13201 12601 12602 13227 13226 
12577 12578 13203 13202 12602 12603 13228 13227 
12578 12579 13204 13203 12603 12604 13229 13228 
12579 12580 13205 13204 12604 12605 13230 13229 
12580 12581 13206 13205 12605 12606 13231 13230 
12581 12582 13207 13206 12606 12607 13232 13231 
12582 12583 13208 13207 12607 12608 13233 13232 
12583 12584 13209 13208 12608 12609 13234 13233 
12584 12585 13210 13209 12609 12610 13235 13234 
12585 12586 13211 13210 12610 12611 13236 13235 
12586 12587 13212 13211 12611 12612 13237 13236 
12587 12588 13213 13212 12612 12613 13238 13237 
12588 12589 13214 13213 12613 12614 13239 13238 
12589 12590 13215 13214 12614 12615 13240 13239 
12590 12591 13216 13215 12615 12616 13241 13240 
12591 12592 13217 13216 12616 12617 13242 13241 
12592 12593 13218 13217 12617 12618 13243 13242 
12593 12594 13219 13218 12618 12619 13244 13243 
12594 12595 13220 13219 12619 12620 13245 13244 
12595 12596 13221 13220 12620 12621 13246 13245 
12596 12597 13222 13221 12621 12622 13247 13246 
12597 12598 13223 13222 12622 12623 13248 13247 
12598 12599 13224 13223 12623 12624 13249 13248 
12600 12601 13226 13225 12625 12626 13251 13250 
12601 12602 13227 13226 12626 12627 13252 13251 
12602 12603 13228 13227 12627 12628 13253 13252 
12603 12604 13229 13228 12628 12629 13254 13253 
12604 12605 13230 13229 12629 12630 13255 13254 
12605 12606 13231 13230 12630 12631 13256 13255 
12606 12607 13232 13231 12631 12632 13257 13256 
12607 12608 13233 13232 12632 12633 13258 13257 
12608 12609 13234 13233 12633 12634 13259 13258 
12609 12610 13235 13234 12634 12635 13260 13259 
12610 12611 13236 13235 12635 12636 13261 13260 
12611 12612 13237 13236 12636 12637 13262 13261 
12612 12613 13238 13237 12637 12638 13263 13262 
12613 12614 13239 13238 12638 12639 13264 13263 
12614 12615 13240 13239 12639 12640 13265 13264 
12615 12616 13241 13240 12640 12641 13266 13265 
12616 12617 13242 13241 12641 12642 13267 13266 
12617 12618 13243 13242 12642 12643 13268 13267 
12618 12619 13244 13243 12643 12644 13269 13268 
12619 12620 13245 13244 12644 12645 13270 13269 
12620 12621 13246 13245 12645 12646 13271 13270 
12621 12622 13247 13246 12646 12647 13272 13271 
12622 12623 13248 13247 12647 12648 13273 13272 
12623 12624 13249 13248 12648 12649 13274 13273 
12625 12626 13251 13250 12650 12651 13276 13275 
12626 12627 13252 13251 12651 12652 13277 13276 
12627 12628 13253 13252 12652 12653 13278 13277 
12628 12629 13254 13253 12653 12654 13279 13278 
12629 12630 13255 13254 12654 12655 13280 13279 
12630 12631 13256 13255 12655 12656 13281 13280 
12631 12632 13257 13256 12656 12657 13282 13281 
12632 12633 13258 13257 12657 12658 13283 13282 
12633 12634 13259 13258 12658 12659 13284 13283 
12634 12635 13260 13259 12659 12660 13285 13284 
12635 12636 13261 13260 12660 12661 13286 13285 
12636 12637 13262 13261 12661 12662 13287 13286 
12637 12638 13263 13262 12662 12663 13288 13287 
12638 12639 13264 13263 12663 12664 13289 13288 
12639 12640 13265 13264 12664 12665 13290 13289 
12640 12641 13266 13265 12665 12666 13291 13290 
12641 12642 13267 13266 12666 12667 13292 13291 
12642 12643 13268 13267 12667 12668 13293 13292 
12643 12644 13269 13268 12668 12669 13294 13293 
12644 12645 13270 13269 12669 12670 13295 13294 
12645 12646 13271 13270 12670 12671 13296 13295 
12646 12647 13272 13271 12671 12672 13297 13296 
12647 12648 13273 13272 12672 12673 13298 13297 
12648 12649 13274 13273 12673 12674 13299 13298 
12650 12651 13276 13275 12675 12676 13301 13300 
12651 12652 13277 13276 12676 12677 13302 13301 
12652 12653 13278 13277 12677 12678 13303 13302 
12653 12654 13279 13278 12678 12679 13304 13303 
12654 12655 13280 13279 12679 12680 13305 13304 
12655 12656 13281 13280 12680 12681 13306 13305 
12656 12657 13282 13281 12681 12682 13307 13306 
12657 12658 13283 13282 12682 12683 13308 13307 
12658 12659 13284 13283 12683 12684 13309 13308 
12659 12660 13285 13284 12684 12685 13310 13309 
12660 12661 13286 13285 12685 12686 13311 13310 
12661 12662 13287 13286 12686 12687 13312 13311 
12662 12663 13288 13287 12687 12688 13313 13312 
12663 12664 13289 13288 12688 12689 13314 13313 
12664 12665 13290 13289 12689 12690 13315 13314 
12665 12666 13291 13290 12690 12691 13316 13315 
12666 12667 13292 13291 12691 12692 13317 13316 
12667 12668 13293 13292 12692 12693 13318 13317 
12668 12669 13294 13293 12693 12694 13319 13318 
12669 12670 13295 13294 12694 12695 13320 13319 
12670 12671 13296 13295 12695 12696 13321 13320 
12671 12672 13297 13296 12696 12697 13322 13321 
12672 12673 13298 13297 12697 12698 13323 13322 
12673 12674 13299 13298 12698 12699 13324 13323 
12675 12676 13301 13300 12700 12701 13326 13325 
12676 12677 13302 13301 12701 12702 13327 13326 
12677 12678 13303 13302 12702 12703 13328 13327 
12678 12679 13304 13303 12703 12704 13329 13328 
12679 12680 13305 13304 12704 12705 13330 13329 
12680 12681 13306 13305 12705 12706 13331 13330 
12681 12682 13307 13306 12706 12707 13332 13331 
12682 12683 13308 13307 12707 12708 13333 13332 
12683 12684 13309 13308 12708 12709 13334 13333 
12684 12685 13310 13309 12709 12710 13335 13334 
12685 12686 13311 13310 12710 12711 13336 13335 
12686 12687 13312 13311 12711 12712 13337 13336 
12687 12688 13313 13312 12712 12713 13338 13337 
12688 12689 13314 13313 12713 12714 13339 13338 
12689 12690 13315 13314 12714 12715 13340 13339 
12690 12691 13316 13315 12715 12716 13341 13340 
12691 12692 13317 13316 12716 12717 13342 13341 
12692 12693 13318 13317 12717 12718 13343 13342 
12693 12694 13319 13318 12718 12719 13344 13343 
12694 12695 13320 13319 12719 12720 13345 13344 
12695 12696 13321 13320 12720 12721 13346 13345 
12696 12697 13322 13321 12721 12722 13347 13346 
12697 12698 13323 13322 12722 12723 13348 13347 
12698 12699 13324 13323 12723 12724 13349 13348 
12700 12701 13326 13325 12725 12726 13351 13350 
12701 12702 13327 13326 12726 12727 13352 13351 
12702 12703 13328 13327 12727 12728 13353 13352 
12703 12704 13329 13328 12728 12729 13354 13353 
12704 12705 13330 13329 12729 12730 13355 13354 
12705 12706 13331 13330 12730 12731 13356 13355 
12706 12707 13332 13331 12731 12732 13357 13356 
12707 12708 13333 13332 12732 12733 13358 13357 
12708 12709 13334 13333 12733 12734 13359 13358 
12709 12710 13335 13334 12734 12735 13360 13359 
12710 12711 13336 13335 12735 12736 13361 13360 
12711 12712 13337 13336 12736 12737 13362 13361 
12712 12713 13338 13337 12737 12738 13363 13362 
12713 12714 13339 13338 12738 12739 13364 13363 
12714 12715 13340 13339 12739 12740 13365 13364 
12715 12716 13341 13340 12740 12741 13366 13365 
12716 12717 13342 13341 12741 12742 13367 13366 
12717 12718 13343 13342 12742 12743 13368 13367 
12718 12719 13344 13343 12743 12744 13369 13368 
12719 12720 13345 13344 12744 12745 13370 13369 
12720 12721 13346 13345 12745 12746 13371 13370 
12721 12722 13347 13346 12746 12747 13372 13371 
12722 12723 13348 13347 12747 12748 13373 13372 
12723 12724 13349 13348 12748 12749 13374 13373 
12725 12726 13351 13350 12750 12751 13376 13375 
12726 12727 13352 13351 12751 12752 13377 13376 
12727 12728 13353 13352 12752 12753 13378 13377 
12728 12729 13354 13353 12753 12754 13379 13378 
12729 12730 13355 13354 12754 12755 13380 13379 
12730 12731 13356 13355 12755 12756 13381 13380 
12731 12732 13357 13356 12756 12757 13382 13381 
12732 12733 13358 13357 12757 12758 13383 13382 
12733 12734 13359 13358 12758 12759 13384 13383 
12734 12735 13360 13359 12759 12760 13385 13384 
12735 12736 13361 13360 12760 12761 13386 13385 
12736 12737 13362 13361 12761 12762 13387 13386 
12737 12738 13363 13362 12762 12763 13388 13387 
12738 12739 13364 13363 12763 12764 13389 13388 
12739 12740 13365 13364 12764 12765 13390 13389 
12740 12741 13366 13365 12765 12766 13391 13390 
12741 12742 13367 13366 12766 12767 13392 13391 
12742 12743 13368 13367 12767 12768 13393 13392 
12743 12744 13369 13368 12768 12769 13394 13393 
12744 12745 13370 13369 12769 12770 13395 13394 
12745 12746 13371 13370 12770 12771 13396 13395 
12746 12747 13372 13371 12771 12772 13397 13396 
12747 12748 13373 13372 12772 12773 13398 13397 
12748 12749 13374 13373 12773 12774 13399 13398 
12750 12751 13376 13375 12775 12776 13401 13400 
12751 12752 13377 13376 12776 12777 13402 13401 
12752 12753 13378 13377 12777 12778 13403 13402 
12753 12754 13379 13378 12778 12779 13404 13403 
12754 12755 13380 13379 12779 12780 13405 13404 
12755 12756 13381 13380 12780 12781 13406 13405 
12756 12757 13382 13381 12781 12782 13407 13406 
12757 12758 13383 13382 12782 12783 13408 13407 
12758 12759 13384 13383 12783 12784 13409 13408 
12759 12760 13385 13384 12784 12785 13410 13409 
12760 12761 13386 13385 12785 12786 13411 13410 
12761 12762 13387 13386 12786 12787 13412 13411 
12762 12763 13388 13387 12787 12788 13413 13412 
12763 12764 13389 13388 12788 12789 13414 13413 
12764 12765 13390 13389 12789 12790 13415 13414 
12765 12766 13391 13390 12790 12791 13416 13415 
12766 12767 13392 13391 12791 12792 13417 13416 
12767 12768 13393 13392 12792 12793 13418 13417 
12768 12769 13394 13393 12793 12794 13419 13418 
12769 12770 13395 13394 12794 12795 13420 13419 
12770 12771 13396 13395 12795 12796 13421 13420 
12771 12772 13397 13396 12796 12797 13422 13421 
12772 12773 13398 13397 12797 12798 13423 13422 
12773 12774 13399 13398 12798 12799 13424 13423 
12775 12776 13401 13400 12800 12801 13426 13425 
12776 12777 13402 13401 12801 12802 13427 13426 
12777 12778 13403 13402 12802 12803 13428 13427 
12778 12779 13404 13403 12803 12804 13429 13428 
12779 12780 13405 13404 12804 12805 13430 13429 
12780 12781 13406 13405 12805 12806 13431 13430 
12781 12782 13407 13406 12806 12807 13432 13431 
12782 12783 13408 13407 12807 12808 13433 13432 
12783 12784 13409 13408 12808 12809 13434 13433 
12784 12785 13410 13409 12809 12810 13435 13434 
12785 12786 13411 13410 12810 12811 13436 13435 
12786 12787 13412 13411 12811 12812 13437 13436 
12787 12788 13413 13412 12812 12813 13438 13437 
12788 12789 13414 13413 12813 12814 13439 13438 
12789 12790 13415 13414 12814 12815 13440 13439 
12790 12791 13416 13415 12815 12816 13441 13440 
12791 12792 13417 13416 12816 12817 13442 13441 
12792 12793 13418 13417 12817 12818 13443 13442 
12793 12794 13419 13418 12818 12819 13444 13443 
12794 12795 13420 13419 12819 12820 13445 13444 
12795 12796 13421 13420 12820 12821 13446 13445 
12796 12797 13422 13421 12821 12822 13447 13446 
12797 12798 13423 13422 12822 12823 13448 13447 
12798 12799 13424 13423 12823 12824 13449 13448 
12800 12801 13426 13425 12825 12826 13451 13450 
12801 12802 13427 13426 12826 12827 13452 13451 
12802 12803 13428 13427 12827 12828 13453 13452 
12803 12804 13429 13428 12828 12829 13454 13453 
12804 12805 13430 13429 12829 12830 13455 13454 
12805 12806 13431 13430 12830 12831 13456 13455 
12806 12807 13432 13431 12831 12832 13457 13456 
12807 12808 13433 13432 12832 12833 13458 13457 
12808 12809 13434 13433 12833 12834 13459 13458 
12809 12810 13435 13434 12834 12835 13460 13459 
12810 12811 13436 13435 12835 12836 13461 13460 
12811 12812 13437 13436 12836 12837 13462 13461 
12812 12813 13438 13437 12837 12838 13463 13462 
12813 12814 13439 13438 12838 12839 13464 13463 
12814 12815 13440 13439 12839 12840 13465 13464 
12815 12816 13441 13440 12840 12841 13466 13465 
12816 12817 13442 13441 12841 12842 13467 13466 
12817 12818 13443 13442 12842 12843 13468 13467 
12818 12819 13444 13443 12843 12844 13469 13468 
12819 12820 13445 13444 12844 12845 13470 13469 
12820 12821 13446 13445 12845 12846 13471 13470 
12821 12822 13447 13446 12846 12847 13472 13471 
12822 12823 13448 13447 12847 12848 13473 13472 
12823 12824 13449 13448 12848 12849 13474 13473 
12825 12826 13451 13450 12850 12851 13476 13475 
12826 12827 13452 13451 12851 12852 13477 13476 
12827 12828 13453 13452 12852 12853 13478 13477 
12828 12829 13454 13453 12853 12854 13479 13478 
12829 12830 13455 13454 12854 12855 13480 13479 
12830 12831 13456 13455 12855 12856 13481 13480 
12831 12832 13457 13456 12856 12857 13482 13481 
12832 12833 13458 13457 12857 12858 13483 13482 
12833 12834 13459 13458 12858 12859 13484 13483 
12834 12835 13460 13459 12859 12860 13485 13484 
12835 12836 13461 13460 12860 12861 13486 13485 
12836 12837 13462 13461 12861 12862 13487 13486 
12837 12838 13463 13462 12862 12863 13488 13487 
12838 12839 13464 13463 12863 12864 13489 13488 
12839 12840 13465 13464 12864 12865 13490 13489 
12840 12841 13466 13465 12865 12866 13491 13490 
12841 12842 13467 13466 12866 12867 13492 13491 
12842 12843 13468 13467 12867 12868 13493 13492 
12843 12844 13469 13468 12868 12869 13494 13493 
12844 12845 13470 13469 12869 12870 13495 13494 
12845 12846 13471 13470 12870 12871 13496 13495 
12846 12847 13472 13471 12871 12872 13497 13496 
12847 12848 13473 13472 12872 12873 13498 13497 
12848 12849 13474 13473 12873 12874 13499 13498 
12850 12851 13476 13475 12875 12876 13501 13500 
12851 12852 13477 13476 12876 12877 13502 13501 
12852 12853 13478 13477 12877 12878 13503 13502 
12853 12854 13479 13478 12878 12879 13504 13503 
12854 12855 13480 13479 12879 12880 13505 13504 
12855 12856 13481 13480 12880 12881 13506 13505 
12856 12857 13482 13481 12881 12882 13507 13506 
12857 12858 13483 13482 12882 12883 13508 13507 
12858 12859 13484 13483 12883 12884 13509 13508 
12859 12860 13485 13484 12884 12885 13510 13509 
12860 12861 13486 13485 12885 12886 13511 13510 
12861 12862 13487 13486 12886 12887 13512 13511 
12862 12863 13488 13487 12887 12888 13513 13512 
12863 12864 13489 13488 12888 12889 13514 13513 
12864 12865 13490 13489 12889 12890 13515 13514 
12865 12866 13491 13490 12890 12891 13516 13515 
12866 12867 13492 13491 12891 12892 13517 13516 
12867 12868 13493 13492 12892 12893 13518 13517 
12868 12869 13494 13493 12893 12894 13519 13518 
12869 12870 13495 13494 12894 12895 13520 13519 
12870 12871 13496 13495 12895 12896 13521 13520 
12871 12872 13497 13496 12896 12897 13522 13521 
12872 12873 13498 13497 12897 12898 13523 13522 
12873 12874 13499 13498 12898 12899 13524 13523 
12875 12876 13501 13500 12900 12901 13526 13525 
12876 12877 13502 13501 12901 12902 13527 13526 
12877 12878 13503 13502 12902 12903 13528 13527 
12878 12879 13504 13503 12903 12904 13529 13528 
12879 12880 13505 13504 12904 12905 13530 13529 
12880 12881 13506 13505 12905 12906 13531 13530 
12881 12882 13507 13506 12906 12907 13532 13531 
12882 12883 13508 13507 12907 12908 13533 13532 
12883 12884 13509 13508 12908 12909 13534 13533 
12884 12885 13510 13509 12909 12910 13535 13534 
12885 12886 13511 13510 12910 12911 13536 13535 
12886 12887 13512 13511 12911 12912 13537 13536 
12887 12888 13513 13512 12912 12913 13538 13537 
12888 12889 13514 13513 12913 12914 13539 13538 
12889 12890 13515 13514 12914 12915 13540 13539 
12890 12891 13516 13515 12915 12916 13541 13540 
12891 12892 13517 13516 12916 12917 13542 13541 
12892 12893 13518 13517 12917 12918 13543 13542 
12893 12894 13519 13518 12918 12919 13544 13543 
12894 12895 13520 13519 12919 12920 13545 13544 
12895 12896 13521 13520 12920 12921 13546 13545 
12896 12897 13522 13521 12921 12922 13547 13546 
12897 12898 13523 13522 12922 12923 13548 13547 
12898 12899 13524 13523 12923 12924 13549 13548 
12900 12901 13526 13525 12925 12926 13551 13550 
12901 12902 13527 13526 12926 12927 13552 13551 
12902 12903 13528 13527 12927 12928 13553 13552 
12903 12904 13529 13528 12928 12929 13554 13553 
12904 12905 13530 13529 12929 12930 13555 13554 
12905 12906 13531 13530 12930 12931 13556 13555 
12906 12907 13532 13531 12931 12932 13557 13556 
12907 12908 13533 13532 12932 12933 13558 13557 
12908 12909 13534 13533 12933 12934 13559 13558 
12909 12910 13535 13534 12934 12935 13560 13559 
12910 12911 13536 13535 12935 12936 13561 13560 
12911 12912 13537 13536 12936 12937 13562 13561 
12912 12913 13538 13537 12937 12938 13563 13562 
12913 12914 13539 13538 12938 12939 13564 13563 
12914 12915 13540 13539 12939 12940 13565 13564 
12915 12916 13541 13540 12940 12941 13566 13565 
12916 12917 13542 13541 12941 12942 13567 13566 
12917 12918 13543 13542 12942 12943 13568 13567 
12918 12919 13544 13543 12943 12944 13569 13568 
12919 12920 13545 13544 12944 12945 13570 13569 
12920 12921 13546 13545 12945 12946 13571 13570 
12921 12922 13547 13546 12946 12947 13572 13571 
12922 12923 13548 13547 12947 12948 13573 13572 
12923 12924 13549 13548 12948 12949 13574 13573 
12925 12926 13551 13550 12950 12951 13576 13575 
12926 12927 13552 13551 12951 12952 13577 13576 
12927 12928 13553 13552 12952 12953 13578 13577 
12928 12929 13554 13553 12953 12954 13579 13578 
12929 12930 13555 13554 12954 12955 13580 13579 
12930 12931 13556 13555 12955 12956 13581 13580 
12931 12932 13557 13556 12956 12957 13582 13581 
12932 12933 13558 13557 12957 12958 13583 13582 
12933 12934 13559 13558 12958 12959 13584 13583 
12934 12935 13560 13559 12959 12960 13585 13584 
12935 12936 13561 13560 12960 12961 13586 13585 
12936 12937 13562 13561 12961 12962 13587 13586 
12937 12938 13563 13562 12962 12963 13588 13587 
12938 12939 13564 13563 12963 12964 13589 13588 
12939 12940 13565 13564 12964 12965 13590 13589 
12940 12941 13566 13565 12965 12966 13591 13590 
12941 12942 13567 13566 12966 12967 13592 13591 
12942 12943 13568 13567 12967 12968 13593 13592 
12943 12944 13569 13568 12968 12969 13594 13593 
12944 12945 13570 13569 12969 12970 13595 13594 
12945 12946 13571 13570 12970 12971 13596 13595 
12946 12947 13572 13571 12971 12972 13597 13596 
12947 12948 13573 13572 12972 12973 13598 13597 
12948 12949 13574 13573 12973 12974 13599 13598 
12950 12951 13576 13575 12975 12976 13601 13600 
12951 12952 13577 13576 12976 12977 13602 13601 
12952 12953 13578 13577 12977 12978 13603 13602 
12953 12954 13579 13578 12978 12979 13604 13603 
12954 12955 13580 13579 12979 12980 13605 13604 
12955 12956 13581 13580 12980 12981 13606 13605 
12956 12957 13582 13581 12981 12982 13607 13606 
12957 12958 13583 13582 12982 12983 13608 13607 
12958 12959 13584 13583 12983 12984 13609 13608 
12959 12960 13585 13584 12984 12985 13610 13609 
12960 12961 13586 13585 12985 12986 13611 13610 
12961 12962 13587 13586 12986 12987 13612 13611 
12962 12963 13588 13587 12987 12988 13613 13612 
12963 12964 13589 13588 12988 12989 13614 13613 
12964 12965 13590 13589 12989 12990 13615 13614 
12965 12966 13591 13590 12990 12991 13616 13615 
12966 12967 13592 13591 12991 12992 13617 13616 
12967 12968 13593 13592 12992 12993 13618 13617 
12968 12969 13594 13593 12993 12994 13619 13618 
12969 12970 13595 13594 12994 12995 13620 13619 
12970 12971 13596 13595 12995 12996 13621 13620 
12971 12972 13597 13596 12996 12997 13622 13621 
12972 12973 13598 13597 12997 12998 13623 13622 
12973 12974 13599 13598 12998 12999 13624 13623 
12975 12976 13601 13600 13000 13001 13626 13625 
12976 12977 13602 13601 13001 13002 13627 13626 
12977 12978 13603 13602 13002 13003 13628 13627 
12978 12979 13604 13603 13003 13004 13629 13628 
12979 12980 13605 13604 13004 13005 13630 13629 
12980 12981 13606 13605 13005 13006 13631 13630 
12981 12982 13607 13606 13006 13007 13632 13631 
12982 12983 13608 13607 13007 13008 13633 13632 
12983 12984 13609 13608 13008 13009 13634 13633 
12984 12985 13610 13609 13009 13010 13635 13634 
12985 12986 13611 13610 13010 13011 13636 13635 
12986 12987 13612 13611 13011 13012 13637 13636 
12987 12988 13613 13612 13012 13013 13638 13637 
12988 12989 13614 13613 13013 13014 13639 13638 
12989 12990 13615 13614 13014 13015 13640 13639 
12990 12991 13616 13615 13015 13016 13641 13640 
12991 12992 13617 13616 13016 13017 13642 13641 
12992 12993 13618 13617 13017 13018 13643 13642 
12993 12994 13619 13618 13018 13019 13644 13643 
12994 12995 13620 13619 13019 13020 13645 13644 
12995 12996 13621 13620 13020 13021 13646 13645 
12996 12997 13622 13621 13021 13022 13647 13646 
12997 12998 13623 13622 13022 13023 13648 13647 
12998 12999 13624 13623 13023 13024 13649 13648 
13000 13001 13626 13625 13025 13026 13651 13650 
13001 13002 13627 13626 13026 13027 13652 13651 
13002 13003 13628 13627 13027 13028 13653 13652 
13003 13004 13629 13628 13028 13029 13654 13653 
13004 13005 13630 13629 13029 13030 13655 13654 
13005 13006 13631 13630 13030 13031 13656 13655 
13006 13007 13632 13631 13031 13032 13657 13656 
13007 13008 13633 13632 13032 13033 13658 13657 
13008 13009 13634 13633 13033 13034 13659 13658 
13009 13010 13635 13634 13034 13035 13660 13659 
13010 13011 13636 13635 13035 13036 13661 13660 
13011 13012 13637 13636 13036 13037 13662 13661 
13012 13013 13638 13637 13037 13038 13663 13662 
13013 13014 13639 13638 13038 13039 13664 13663 
13014 13015 13640 13639 13039 13040 13665 13664 
13015 13016 13641 13640 13040 13041 13666 13665 
13016 13017 13642 13641 13041 13042 13667 13666 
13017 13018 13643 13642 13042 13043 13668 13667 
13018 13019 13644 13643 13043 13044 13669 13668 
13019 13020 13645 13644 13044 13045 13670 13669 
13020 13021 13646 13645 13045 13046 13671 13670 
13021 13022 13647 13646 13046 13047 13672 13671 
13022 13023 13648 13647 13047 13048 13673 13672 
13023 13024 13649 13648 13048 13049 13674 13673 
13025 13026 13651 13650 13050 13051 13676 13675 
13026 13027 13652 13651 13051 13052 13677 13676 
13027 13028 13653 13652 13052 13053 13678 13677 
13028 13029 13654 13653 13053 13054 13679 13678 
13029 13030 13655 13654 13054 13055 13680 13679 
13030 13031 13656 13655 13055 13056 13681 13680 
13031 13032 13657 13656 13056 13057 13682 13681 
13032 13033 13658 13657 13057 13058 13683 13682 
13033 13034 13659 13658 13058 13059 13684 13683 
13034 13035 13660 13659 13059 13060 13685 13684 
13035 13036 13661 13660 13060 13061 13686 13685 
13036 13037 13662 13661 13061 13062 13687 13686 
13037 13038 13663 13662 13062 13063 13688 13687 
13038 13039 13664 13663 13063 13064 13689 13688 
13039 13040 13665 13664 13064 13065 13690 13689 
13040 13041 13666 13665 13065 13066 13691 13690 
13041 13042 13667 13666 13066 13067 13692 13691 
13042 13043 13668 13667 13067 13068 13693 13692 
13043 13044 13669 13668 13068 13069 13694 13693 
13044 13045 13670 13669 13069 13070 13695 13694 
13045 13046 13671 13670 13070 13071 13696 13695 
13046 13047 13672 13671 13071 13072 13697 13696 
13047 13048 13673 13672 13072 13073 13698 13697 
13048 13049 13674 13673 13073 13074 13699 13698 
13050 13051 13676 13675 13075 13076 13701 13700 
13051 13052 13677 13676 13076 13077 13702 13701 
13052 13053 13678 13677 13077 13078 13703 13702 
13053 13054 13679 13678 13078 13079 13704 13703 
13054 13055 13680 13679 13079 13080 13705 13704 
13055 13056 13681 13680 13080 13081 13706 13705 
13056 13057 13682 13681 13081 13082 13707 13706 
13057 13058 13683 13682 13082 13083 13708 13707 
13058 13059 13684 13683 13083 13084 13709 13708 
13059 13060 13685 13684 13084 13085 13710 13709 
13060 13061 13686 13685 13085 13086 13711 13710 
13061 13062 13687 13686 13086 13087 13712 13711 
13062 13063 13688 13687 13087 13088 13713 13712 
13063 13064 13689 13688 13088 13089 13714 13713 
13064 13065 13690 13689 13089 13090 13715 13714 
13065 13066 13691 13690 13090 13091 13716 13715 
13066 13067 13692 13691 13091 13092 13717 13716 
13067 13068 13693 13692 13092 13093 13718 13717 
13068 13069 13694 13693 13093 13094 13719 13718 
13069 13070 13695 13694 13094 13095 13720 13719 
13070 13071 13696 13695 13095 13096 13721 13720 
13071 13072 13697 13696 13096 13097 13722 13721 
13072 13073 13698 13697 13097 13098 13723 13722 
13073 13074 13699 13698 13098 13099 13724 13723 
13075 13076 13701 13700 13100 13101 13726 13725 
13076 13077 13702 13701 13101 13102 13727 13726 
13077 13078 13703 13702 13102 13103 13728 13727 
13078 13079 13704 13703 13103 13104 13729 13728 
13079 13080 13705 13704 13104 13105 13730 13729 
13080 13081 13706 13705 13105 13106 13731 13730 
13081 13082 13707 13706 13106 13107 13732 13731 
13082 13083 13708 13707 13107 13108 13733 13732 
13083 13084 13709 13708 13108 13109 13734 13733 
13084 13085 13710 13709 13109 13110 13735 13734 
13085 13086 13711 13710 13110 13111 13736 13735 
13086 13087 13712 13711 13111 13112 13737 13736 
13087 13088 13713 13712 13112 13113 13738 13737 
13088 13089 13714 13713 13113 13114 13739 13738 
13089 13090 13715 13714 13114 13115 13740 13739 
13090 13091 13716 13715 13115 13116 13741 13740 
13091 13092 13717 13716 13116 13117 13742 13741 
13092 13093 13718 13717 13117 13118 13743 13742 
13093 13094 13719 13718 13118 13119 13744 13743 
13094 13095 13720 13719 13119 13120 13745 13744 
13095 13096 13721 13720 13120 13121 13746 13745 
13096 13097 13722 13721 13121 13122 13747 13746 
13097 13098 13723 13722 13122 13123 13748 13747 
13098 13099 13724 13723 13123 13124 13749 13748 
13125 13126 13751 13750 13150 13151 13776 13775 
13126 13127 13752 13751 13151 13152 13777 13776 
13127 13128 13753 13752 13152 13153 13778 13777 
13128 13129 13754 13753 13153 13154 13779 13778 
13129 13130 13755 13754 13154 13155 13780 13779 
13130 13131 13756 13755 13155 13156 13781 13780 
13131 13132 13757 13756 13156 13157 13782 13781 
13132 13133 13758 13757 13157 13158 13783 13782 
13133 13134 13759 13758 13158 13159 13784 13783 
13134 13135 13760 13759 13159 13160 13785 13784 
13135 13136 13761 13760 13160 13161 13786 13785 
13136 13137 13762 13761 13161 13162 13787 13786 
13137 13138 13763 13762 13162 13163 13788 13787 
13138 13139 13764 13763 13163 13164 13789 13788 
13139 13140 13765 13764 13164 13165 13790 13789 
13140 13141 13766 13765 13165 13166 13791 13790 
13141 13142 13767 13766 13166 13167 13792 13791 
13142 13143 13768 13767 13167 13168 13793 13792 
13143 13144 13769 13768 13168 13169 13794 13793 
13144 13145 13770 13769 13169 13170 13795 13794 
13145 13146 13771 13770 13170 13171 13796 13795 
13146 13147 13772 13771 13171 13172 13797 13796 
13147 13148 13773 13772 13172 13173 13798 13797 
13148 13149 13774 13773 13173 13174 13799 13798 
13150 13151 13776 13775 13175 13176 13801 13800 
13151 13152 13777 13776 13176 13177 13802 13801 
13152 13153 13778 13777 13177 13178 13803 13802 
13153 13154 13779 13778 13178 13179 13804 13803 
13154 13155 13780 13779 13179 13180 13805 13804 
13155 13156 13781 13780 13180 13181 13806 13805 
13156 13157 13782 13781 13181 13182 13807 13806 
13157 13158 13783 13782 13182 13183 13808 13807 
13158 13159 13784 13783 13183 13184 13809 13808 
13159 13160 13785 13784 13184 13185 13810 13809 
13160 13161 13786 13785 13185 13186 13811 13810 
13161 13162 13787 13786 13186 13187 13812 13811 
13162 13163 13788 13787 13187 13188 13813 13812 
13163 13164 13789 13788 13188 13189 13814 13813 
13164 13165 13790 13789 13189 13190 13815 13814 
13165 13166 13791 13790 13190 13191 13816 13815 
13166 13167 13792 13791 13191 13192 13817 13816 
13167 13168 13793 13792 13192 13193 13818 13817 
13168 13169 13794 13793 13193 13194 13819 13818 
13169 13170 13795 13794 13194 13195 13820 13819 
13170 13171 13796 13795 13195 13196 13821 13820 
13171 13172 13797 13796 13196 13197 13822 13821 
13172 13173 13798 13797 13197 13198 13823 13822 
13173 13174 13799 13798 13198 13199 13824 13823 
13175 13176 13801 13800 13200 13201 13826 13825 
13176 13177 13802 13801 13201 13202 13827 13826 
13177 13178 13803 13802 13202 13203 13828 13827 
13178 13179 13804 13803 13203 13204 13829 13828 
13179 13180 13805 13804 13204 13205 13830 13829 
13180 13181 13806 13805 13205 13206 13831 13830 
13181 13182 13807 13806 13206 13207 13832 13831 
13182 13183 13808 13807 13207 13208 13833 13832 
13183 13184 13809 13808 13208 13209 13834 13833 
13184 13185 13810 13809 13209 13210 13835 13834 
13185 13186 13811 13810 13210 13211 13836 13835 
13186 13187 13812 13811 13211 13212 13837 13836 
13187 13188 13813 13812 13212 13213 13838 13837 
13188 13189 13814 13813 13213 13214 13839 13838 
13189 13190 13815 13814 13214 13215 13840 13839 
13190 13191 13816 13815 13215 13216 13841 13840 
13191 13192 13817 13816 13216 13217 13842 13841 
13192 13193 13818 13817 13217 13218 13843 13842 
13193 13194 13819 13818 13218 13219 13844 13843 
13194 13195 13820 13819 13219 13220 13845 13844 
13195 13196 13821 13820 13220 13221 13846 13845 
13196 13197 13822 13821 13221 13222 13847 13846 
13197 13198 13823 13822 13222 13223 13848 13847 
13198 13199 13824 13823 13223 13224 13849 13848 
13200 13201 13826 13825 13225 13226 13851 13850 
13201 13202 13827 13826 13226 13227 13852 13851 
13202 13203 13828 13827 13227 13228 13853 13852 
13203 13204 13829 13828 13228 13229 13854 13853 
13204 13205 13830 13829 13229 13230 13855 13854 
13205 13206 13831 13830 13230 13231 13856 13855 
13206 13207 13832 13831 13231 13232 13857 13856 
13207 13208 13833 13832 13232 13233 13858 13857 
13208 13209 13834 13833 13233 13234 13859 13858 
13209 13210 13835 13834 13234 13235 13860 13859 
13210 13211 13836 13835 13235 13236 13861 13860 
13211 13212 13837 13836 13236 13237 13862 13861 
13212 13213 13838 13837 13237 13238 13863 13862 
13213 13214 13839 13838 13238 13239 13864 13863 
13214 13215 13840 13839 13239 13240 13865 13864 
13215 13216 13841 13840 13240 13241 13866 13865 
13216 13217 13842 13841 13241 13242 13867 13866 
13217 13218 13843 13842 13242 13243 13868 13867 
13218 13219 13844 13843 13243 13244 13869 13868 
13219 13220 13845 13844 13244 13245 13870 13869 
13220 13221 13846 13845 13245 13246 13871 13870 
13221 13222 13847 13846 13246 13247 13872 13871 
13222 13223 13848 13847 13247 13248 13873 13872 
13223 13224 13849 13848 13248 13249 13874 13873 
13225 13226 13851 13850 13250 13251 13876 13875 
13226 13227 13852 13851 13251 13252 13877 13876 
13227 13228 13853 13852 13252 13253 13878 13877 
13228 13229 13854 13853 13253 13254 13879 13878 
13229 13230 13855 13854 13254 13255 13880 13879 
13230 13231 13856 13855 13255 13256 13881 13880 
13231 13232 13857 13856 13256 13257 13882 13881 
13232 13233 13858 13857 13257 13258 13883 13882 
13233 13234 13859 13858 13258 13259 13884 13883 
13234 13235 13860 13859 13259 13260 13885 13884 
13235 13236 13861 13860 13260 13261 13886 13885 
13236 13237 13862 13861 13261 13262 13887 13886 
13237 13238 13863 13862 13262 13263 13888 13887 
13238 13239 13864 13863 13263 13264 13889 13888 
13239 13240 13865 13864 13264 13265 13890 13889 
13240 13241 13866 13865 13265 13266 13891 13890 
13241 13242 13867 13866 13266 13267 13892 13891 
13242 13243 13868 13867 13267 13268 13893 13892 
13243 13244 13869 13868 13268 13269 13894 13893 
13244 13245 13870 13869 13269 13270 13895 13894 
13245 13246 13871 13870 13270 13271 13896 13895 
13246 13247 13872 13871 13271 13272 13897 13896 
13247 13248 13873 13872 13272 13273 13898 13897 
13248 13249 13874 13873 13273 13274 13899 13898 
13250 13251 13876 13875 13275 13276 13901 13900 
13251 13252 13877 13876 13276 13277 13902 13901 
13252 13253 13878 13877 13277 13278 13903 13902 
13253 13254 13879 13878 13278 13279 13904 13903 
13254 13255 13880 13879 13279 13280 13905 13904 
13255 13256 13881 13880 13280 13281 13906 13905 
13256 13257 13882 13881 13281 13282 13907 13906 
13257 13258 13883 13882 13282 13283 13908 13907 
13258 13259 13884 13883 13283 13284 13909 13908 
13259 13260 13885 13884 13284 13285 13910 13909 
13260 13261 13886 13885 13285 13286 13911 13910 
13261 13262 13887 13886 13286 13287 13912 13911 
13262 13263 13888 13887 13287 13288 13913 13912 
13263 13264 13889 13888 13288 13289 13914 13913 
13264 13265 13890 13889 13289 13290 13915 13914 
13265 13266 13891 13890 13290 13291 13916 13915 
13266 13267 13892 13891 13291 13292 13917 13916 
13267 13268 13893 13892 13292 13293 13918 13917 
13268 13269 13894 13893 13293 13294 13919 13918 
13269 13270 13895 13894 13294 13295 13920 13919 
13270 13271 13896 13895 13295 13296 13921 13920 
13271 13272 13897 13896 13296 13297 13922 13921 
13272 13273 13898 13897 13297 13298 13923 13922 
13273 13274 13899 13898 13298 13299 13924 13923 
13275 13276 13901 13900 13300 13301 13926 13925 
13276 13277 13902 13901 13301 13302 13927 13926 
13277 13278 13903 13902 13302 13303 13928 13927 
13278 13279 13904 13903 13303 13304 13929 13928 
13279 13280 13905 13904 13304 13305 13930 13929 
13280 13281 13906 13905 13305 13306 13931 13930 
13281 13282 13907 13906 13306 13307 13932 13931 
13282 13283 13908 13907 13307 13308 13933 13932 
13283 13284 13909 13908 13308 13309 13934 13933 
13284 13285 13910 13909 13309 13310 13935 13934 
13285 13286 13911 13910 13310 13311 13936 13935 
13286 13287 13912 13911 13311 13312 13937 13936 
13287 13288 13913 13912 13312 13313 13938 13937 
13288 13289 13914 13913 13313 13314 13939 13938 
13289 13290 13915 13914 13314 13315 13940 13939 
13290 13291 13916 13915 13315 13316 13941 13940 
13291 13292 13917 13916 13316 13317 13942 13941 
13292 13293 13918 13917 13317 13318 13943 13942 
13293 13294 13919 13918 13318 13319 13944 13943 
13294 13295 13920 13919 13319 13320 13945 13944 
13295 13296 13921 13920 13320 13321 13946 13945 
13296 13297 13922 13921 13321 13322 13947 13946 
13297 13298 13923 13922 13322 13323 13948 13947 
13298 13299 13924 13923 13323 13324 13949 13948 
13300 13301 13926 13925 13325 13326 13951 13950 
13301 13302 13927 13926 13326 13327 13952 13951 
13302 13303 13928 13927 13327 13328 13953 13952 
13303 13304 13929 13928 13328 13329 13954 13953 
13304 13305 13930 13929 13329 13330 13955 13954 
13305 13306 13931 13930 13330 13331 13956 13955 
13306 13307 13932 13931 13331 13332 13957 13956 
13307 13308 13933 13932 13332 13333 13958 13957 
13308 13309 13934 13933 13333 13334 13959 13958 
13309 13310 13935 13934 13334 13335 13960 13959 
13310 13311 13936 13935 13335 13336 13961 13960 
13311 13312 13937 13936 13336 13337 13962 13961 
13312 13313 13938 13937 13337 13338 13963 13962 
13313 13314 13939 13938 13338 13339 13964 13963 
13314 13315 13940 13939 13339 13340 13965 13964 
13315 13316 13941 13940 13340 13341 13966 13965 
13316 13317 13942 13941 13341 13342 13967 13966 
13317 13318 13943 13942 13342 13343 13968 13967 
13318 13319 13944 13943 13343 13344 13969 13968 
13319 13320 13945 13944 13344 13345 13970 13969 
13320 13321 13946 13945 13345 13346 13971 13970 
13321 13322 13947 13946 13346 13347 13972 13971 
13322 13323 13948 13947 13347 13348 13973 13972 
13323 13324 13949 13948 13348 13349 13974 13973 
13325 13326 13951 13950 13350 13351 13976 13975 
13326 13327 13952 13951 13351 13352 13977 13976 
13327 13328 13953 13952 13352 13353 13978 13977 
13328 13329 13954 13953 13353 13354 13979 13978 
13329 13330 13955 13954 13354 13355 13980 13979 
13330 13331 13956 13955 13355 13356 13981 13980 
13331 13332 13957 13956 13356 13357 13982 13981 
13332 13333 13958 13957 13357 13358 13983 13982 
13333 13334 13959 13958 13358 13359 13984 13983 
13334 13335 13960 13959 13359 13360 13985 13984 
13335 13336 13961 13960 13360 13361 13986 13985 
13336 13337 13962 13961 13361 13362 13987 13986 
13337 13338 13963 13962 13362 13363 13988 13987 
13338 13339 13964 13963 13363 13364 13989 13988 
13339 13340 13965 13964 13364 13365 13990 13989 
13340 13341 13966 13965 13365 13366 13991 13990 
13341 13342 13967 13966 13366 13367 13992 13991 
13342 13343 13968 13967 13367 13368 13993 13992 
13343 13344 13969 13968 13368 13369 13994 13993 
13344 13345 13970 13969 13369 13370 13995 13994 
13345 13346 13971 13970 13370 13371 13996 13995 
13346 13347 13972 13971 13371 13372 13997 13996 
13347 13348 13973 13972 13372 13373 13998 13997 
13348 13349 13974 13973 13373 13374 13999 13998 
13350 13351 13976 13975 13375 13376 14001 14000 
13351 13352 13977 13976 13376 13377 14002 14001 
13352 13353 13978 13977 13377 13378 14003 14002 
13353 13354 13979 13978 13378 13379 14004 14003 
13354 13355 13980 13979 13379 13380 14005 14004 
13355 13356 13981 13980 13380 13381 14006 14005 
13356 13357 13982 13981 13381 13382 14007 14006 
13357 13358 13983 13982 13382 13383 14008 14007 
13358 13359 13984 13983 13383 13384 14009 14008 
13359 13360 13985 13984 13384 13385 14010 14009 
13360 13361 13986 13985 13385 13386 14011 14010 
13361 13362 13987 13986 13386 13387 14012 14011 
13362 13363 13988 13987 13387 13388 14013 14012 
13363 13364 13989 13988 13388 13389 14014 14013 
13364 13365 13990 13989 13389 13390 14015 14014 
13365 13366 13991 13990 13390 13391 14016 14015 
13366 13367 13992 13991 13391 13392 14017 14016 
13367 13368 13993 13992 13392 13393 14018 14017 
13368 13369 13994 13993 13393 13394 14019 14018 
13369 13370 13995 13994 13394 13395 14020 14019 
13370 13371 13996 13995 13395 13396 14021 14020 
13371 13372 13997 13996 13396 13397 14022 14021 
13372 13373 13998 13997 13397 13398 14023 14022 
13373 13374 13999 13998 13398 13399 14024 14023 
13375 13376 14001 14000 13400 13401 14026 14025 
13376 13377 14002 14001 13401 13402 14027 14026 
13377 13378 14003 14002 13402 13403 14028 14027 
13378 13379 14004 14003 13403 13404 14029 14028 
13379 13380 14005 14004 13404 13405 14030 14029 
13380 13381 14006 14005 13405 13406 14031 14030 
13381 13382 14007 14006 13406 13407 14032 14031 
13382 13383 14008 14007 13407 13408 14033 14032 
13383 13384 14009 14008 13408 13409 14034 14033 
13384 13385 14010 14009 13409 13410 14035 14034 
13385 13386 14011 14010 13410 13411 14036 14035 
13386 13387 14012 14011 13411 13412 14037 14036 
13387 13388 14013 14012 13412 13413 14038 14037 
13388 13389 14014 14013 13413 13414 14039 14038 
13389 13390 14015 14014 13414 13415 14040 14039 
13390 13391 14016 14015 13415 13416 14041 14040 
13391 13392 14017 14016 13416 13417 14042 14041 
13392 13393 14018 14017 13417 13418 14043 14042 
13393 13394 14019 14018 13418 13419 14044 14043 
13394 13395 14020 14019 13419 13420 14045 14044 
13395 13396 14021 14020 13420 13421 14046 14045 
13396 13397 14022 14021 13421 13422 14047 14046 
13397 13398 14023 14022 13422 13423 14048 14047 
13398 13399 14024 14023 13423 13424 14049 14048 
13400 13401 14026 14025 13425 13426 14051 14050 
13401 13402 14027 14026 13426 13427 14052 14051 
13402 13403 14028 14027 13427 13428 14053 14052 
13403 13404 14029 14028 13428 13429 14054 14053 
13404 13405 14030 14029 13429 13430 14055 14054 
13405 13406 14031 14030 13430 13431 14056 14055 
13406 13407 14032 14031 13431 13432 14057 14056 
13407 13408 14033 14032 13432 13433 14058 14057 
13408 13409 14034 14033 13433 13434 14059 14058 
13409 13410 14035 14034 13434 13435 14060 14059 
13410 13411 14036 14035 13435 13436 14061 14060 
13411 13412 14037 14036 13436 13437 14062 14061 
13412 13413 14038 14037 13437 13438 14063 14062 
13413 13414 14039 14038 13438 13439 14064 14063 
13414 13415 14040 14039 13439 13440 14065 14064 
13415 13416 14041 14040 13440 13441 14066 14065 
13416 13417 14042 14041 13441 13442 14067 14066 
13417 13418 14043 14042 13442 13443 14068 14067 
13418 13419 14044 14043 13443 13444 14069 14068 
13419 13420 14045 14044 13444 13445 14070 14069 
13420 13421 14046 14045 13445 13446 14071 14070 
13421 13422 14047 14046 13446 13447 14072 14071 
13422 13423 14048 14047 13447 13448 14073 14072 
13423 13424 14049 14048 13448 13449 14074 14073 
13425 13426 14051 14050 13450 13451 14076 14075 
13426 13427 14052 14051 13451 13452 14077 14076 
13427 13428 14053 14052 13452 13453 14078 14077 
13428 13429 14054 14053 13453 13454 14079 14078 
13429 13430 14055 14054 13454 13455 14080 14079 
13430 13431 14056 14055 13455 13456 14081 14080 
13431 13432 14057 14056 13456 13457 14082 14081 
13432 13433 14058 14057 13457 13458 14083 14082 
13433 13434 14059 14058 13458 13459 14084 14083 
13434 13435 14060 14059 13459 13460 14085 14084 
13435 13436 14061 14060 13460 13461 14086 14085 
13436 13437 14062 14061 13461 13462 14087 14086 
13437 13438 14063 14062 13462 13463 14088 14087 
13438 13439 14064 14063 13463 13464 14089 14088 
13439 13440 14065 14064 13464 13465 14090 14089 
13440 13441 14066 14065 13465 13466 14091 14090 
13441 13442 14067 14066 13466 13467 14092 14091 
13442 13443 14068 14067 13467 13468 14093 14092 
13443 13444 14069 14068 13468 13469 14094 14093 
13444 13445 14070 14069 13469 13470 14095 14094 
13445 13446 14071 14070 13470 13471 14096 14095 
13446 13447 14072 14071 13471 13472 14097 14096 
13447 13448 14073 14072 13472 13473 14098 14097 
13448 13449 14074 14073 13473 13474 14099 14098 
13450 13451 14076 14075 13475 13476 14101 14100 
13451 13452 14077 14076 13476 13477 14102 14101 
13452 13453 14078 14077 13477 13478 14103 14102 
13453 13454 14079 14078 13478 13479 14104 14103 
13454 13455 14080 14079 13479 13480 14105 14104 
13455 13456 14081 14080 13480 13481 14106 14105 
13456 13457 14082 14081 13481 13482 14107 14106 
13457 13458 14083 14082 13482 13483 14108 14107 
13458 13459 14084 14083 13483 13484 14109 14108 
13459 13460 14085 14084 13484 13485 14110 14109 
13460 13461 14086 14085 13485 13486 14111 14110 
13461 13462 14087 14086 13486 13487 14112 14111 
13462 13463 14088 14087 13487 13488 14113 14112 
13463 13464 14089 14088 13488 13489 14114 14113 
13464 13465 14090 14089 13489 13490 14115 14114 
13465 13466 14091 14090 13490 13491 14116 14115 
13466 13467 14092 14091 13491 13492 14117 14116 
13467 13468 14093 14092 13492 13493 14118 14117 
13468 13469 14094 14093 13493 13494 14119 14118 
13469 13470 14095 14094 13494 13495 14120 14119 
13470 13471 14096 14095 13495 13496 14121 14120 
13471 13472 14097 14096 13496 13497 14122 14121 
13472 13473 14098 14097 13497 13498 14123 14122 
13473 13474 14099 14098 13498 13499 14124 14123 
13475 13476 14101 14100 13500 13501 14126 14125 
13476 13477 14102 14101 13501 13502 14127 14126 
13477 13478 14103 14102 13502 13503 14128 14127 
13478 13479 14104 14103 13503 13504 14129 14128 
13479 13480 14105 14104 13504 13505 14130 14129 
13480 13481 14106 14105 13505 13506 14131 14130 
13481 13482 14107 14106 13506 13507 14132 14131 
13482 13483 14108 14107 13507 13508 14133 14132 
13483 13484 14109 14108 13508 13509 14134 14133 
13484 13485 14110 14109 13509 13510 14135 14134 
13485 13486 14111 14110 13510 13511 14136 14135 
13486 13487 14112 14111 13511 13512 14137 14136 
13487 13488 14113 14112 13512 13513 14138 14137 
13488 13489 14114 14113 13513 13514 14139 14138 
13489 13490 14115 14114 13514 13515 14140 14139 
13490 13491 14116 14115 13515 13516 14141 14140 
13491 13492 14117 14116 13516 13517 14142 14141 
13492 13493 14118 14117 13517 13518 14143 14142 
13493 13494 14119 14118 13518 13519 14144 14143 
13494 13495 14120 14119 13519 13520 14145 14144 
13495 13496 14121 14120 13520 13521 14146 14145 
13496 13497 14122 14121 13521 13522 14147 14146 
13497 13498 14123 14122 13522 13523 14148 14147 
13498 13499 14124 14123 13523 13524 14149 14148 
13500 13501 14126 14125 13525 13526 14151 14150 
13501 13502 14127 14126 13526 13527 14152 14151 
13502 13503 14128 14127 13527 13528 14153 14152 
13503 13504 14129 14128 13528 13529 14154 14153 
13504 13505 14130 14129 13529 13530 14155 14154 
13505 13506 14131 14130 13530 13531 14156 14155 
13506 13507 14132 14131 13531 13532 14157 14156 
13507 13508 14133 14132 13532 13533 14158 14157 
13508 13509 14134 14133 13533 13534 14159 14158 
13509 13510 14135 14134 13534 13535 14160 14159 
13510 13511 14136 14135 13535 13536 14161 14160 
13511 13512 14137 14136 13536 13537 14162 14161 
13512 13513 14138 14137 13537 13538 14163 14162 
13513 13514 14139 14138 13538 13539 14164 14163 
13514 13515 14140 14139 13539 13540 14165 14164 
13515 13516 14141 14140 13540 13541 14166 14165 
13516 13517 14142 14141 13541 13542 14167 14166 
13517 13518 14143 14142 13542 13543 14168 14167 
13518 13519 14144 14143 13543 13544 14169 14168 
13519 13520 14145 14144 13544 13545 14170 14169 
13520 13521 14146 14145 13545 13546 14171 14170 
13521 13522 14147 14146 13546 13547 14172 14171 
13522 13523 14148 14147 13547 13548 14173 14172 
13523 13524 14149 14148 13548 13549 14174 14173 
13525 13526 14151 14150 13550 13551 14176 14175 
13526 13527 14152 14151 13551 13552 14177 14176 
13527 13528 14153 14152 13552 13553 14178 14177 
13528 13529 14154 14153 13553 13554 14179 14178 
13529 13530 14155 14154 13554 13555 14180 14179 
13530 13531 14156 14155 13555 13556 14181 14180 
13531 13532 14157 14156 13556 13557 14182 14181 
13532 13533 14158 14157 13557 13558 14183 14182 
13533 13534 14159 14158 13558 13559 14184 14183 
13534 13535 14160 14159 13559 13560 14185 14184 
13535 13536 14161 14160 13560 13561 14186 14185 
13536 13537 14162 14161 13561 13562 14187 14186 
13537 13538 14163 14162 13562 13563 14188 14187 
13538 13539 14164 14163 13563 13564 14189 14188 
13539 13540 14165 14164 13564 13565 14190 14189 
13540 13541 14166 14165 13565 13566 14191 14190 
13541 13542 14167 14166 13566 13567 14192 14191 
13542 13543 14168 14167 13567 13568 14193 14192 
13543 13544 14169 14168 13568 13569 14194 14193 
13544 13545 14170 14169 13569 13570 14195 14194 
13545 13546 14171 14170 13570 13571 14196 14195 
13546 13547 14172 14171 13571 13572 14197 14196 
13547 13548 14173 14172 13572 13573 14198 14197 
13548 13549 14174 14173 13573 13574 14199 14198 
13550 13551 14176 14175 13575 13576 14201 14200 
13551 13552 14177 14176 13576 13577 14202 14201 
13552 13553 14178 14177 13577 13578 14203 14202 
13553 13554 14179 14178 13578 13579 14204 14203 
13554 13555 14180 14179 13579 13580 14205 14204 
13555 13556 14181 14180 13580 13581 14206 14205 
13556 13557 14182 14181 13581 13582 14207 14206 
13557 13558 14183 14182 13582 13583 14208 14207 
13558 13559 14184 14183 13583 13584 14209 14208 
13559 13560 14185 14184 13584 13585 14210 14209 
13560 13561 14186 14185 13585 13586 14211 14210 
13561 13562 14187 14186 13586 13587 14212 14211 
13562 13563 14188 14187 13587 13588 14213 14212 
13563 13564 14189 14188 13588 13589 14214 14213 
13564 13565 14190 14189 13589 13590 14215 14214 
13565 13566 14191 14190 13590 13591 14216 14215 
13566 13567 14192 14191 13591 13592 14217 14216 
13567 13568 14193 14192 13592 13593 14218 14217 
13568 13569 14194 14193 13593 13594 14219 14218 
13569 13570 14195 14194 13594 13595 14220 14219 
13570 13571 14196 14195 13595 13596 14221 14220 
13571 13572 14197 14196 13596 13597 14222 14221 
13572 13573 14198 14197 13597 13598 14223 14222 
13573 13574 14199 14198 13598 13599 14224 14223 
13575 13576 14201 14200 13600 13601 14226 14225 
13576 13577 14202 14201 13601 13602 14227 14226 
13577 13578 14203 14202 13602 13603 14228 14227 
13578 13579 14204 14203 13603 13604 14229 14228 
13579 13580 14205 14204 13604 13605 14230 14229 
13580 13581 14206 14205 13605 13606 14231 14230 
13581 13582 14207 14206 13606 13607 14232 14231 
13582 13583 14208 14207 13607 13608 14233 14232 
13583 13584 14209 14208 13608 13609 14234 14233 
13584 13585 14210 14209 13609 13610 14235 14234 
13585 13586 14211 14210 13610 13611 14236 14235 
13586 13587 14212 14211 13611 13612 14237 14236 
13587 13588 14213 14212 13612 13613 14238 14237 
13588 13589 14214 14213 13613 13614 14239 14238 
13589 13590 14215 14214 13614 13615 14240 14239 
13590 13591 14216 14215 13615 13616 14241 14240 
13591 13592 14217 14216 13616 13617 14242 14241 
13592 13593 14218 14217 13617 13618 14243 14242 
13593 13594 14219 14218 13618 13619 14244 14243 
13594 13595 14220 14219 13619 13620 14245 14244 
13595 13596 14221 14220 13620 13621 14246 14245 
13596 13597 14222 14221 13621 13622 14247 14246 
13597 13598 14223 14222 13622 13623 14248 14247 
13598 13599 14224 14223 13623 13624 14249 14248 
13600 13601 14226 14225 13625 13626 14251 14250 
13601 13602 14227 14226 13626 13627 14252 14251 
13602 13603 14228 14227 13627 13628 14253 14252 
13603 13604 14229 14228 13628 13629 14254 14253 
13604 13605 14230 14229 13629 13630 14255 14254 
13605 13606 14231 14230 13630 13631 14256 14255 
13606 13607 14232 14231 13631 13632 14257 14256 
13607 13608 14233 14232 13632 13633 14258 14257 
13608 13609 14234 14233 13633 13634 14259 14258 
13609 13610 14235 14234 13634 13635 14260 14259 
13610 13611 14236 14235 13635 13636 14261 14260 
13611 13612 14237 14236 13636 13637 14262 14261 
13612 13613 14238 14237 13637 13638 14263 14262 
13613 13614 14239 14238 13638 13639 14264 14263 
13614 13615 14240 14239 13639 13640 14265 14264 
13615 13616 14241 14240 13640 13641 14266 14265 
13616 13617 14242 14241 13641 13642 14267 14266 
13617 13618 14243 14242 13642 13643 14268 14267 
13618 13619 14244 14243 13643 13644 14269 14268 
13619 13620 14245 14244 13644 13645 14270 14269 
13620 13621 14246 14245 13645 13646 14271 14270 
13621 13622 14247 14246 13646 13647 14272 14271 
13622 13623 14248 14247 13647 13648 14273 14272 
13623 13624 14249 14248 13648 13649 14274 14273 
13625 13626 14251 14250 13650 13651 14276 14275 
13626 13627 14252 14251 13651 13652 14277 14276 
13627 13628 14253 14252 13652 13653 14278 14277 
13628 13629 14254 14253 13653 13654 14279 14278 
13629 13630 14255 14254 13654 13655 14280 14279 
13630 13631 14256 14255 13655 13656 14281 14280 
13631 13632 14257 14256 13656 13657 14282 14281 
13632 13633 14258 14257 13657 13658 14283 14282 
13633 13634 14259 14258 13658 13659 14284 14283 
13634 13635 14260 14259 13659 13660 14285 14284 
13635 13636 14261 14260 13660 13661 14286 14285 
13636 13637 14262 14261 13661 13662 14287 14286 
13637 13638 14263 14262 13662 13663 14288 14287 
13638 13639 14264 14263 13663 13664 14289 14288 
13639 13640 14265 14264 13664 13665 14290 14289 
13640 13641 14266 14265 13665 13666 14291 14290 
13641 13642 14267 14266 13666 13667 14292 14291 
13642 13643 14268 14267 13667 13668 14293 14292 
13643 13644 14269 14268 13668 13669 14294 14293 
13644 13645 14270 14269 13669 13670 14295 14294 
13645 13646 14271 14270 13670 13671 14296 14295 
13646 13647 14272 14271 13671 13672 14297 14296 
13647 13648 14273 14272 13672 13673 14298 14297 
13648 13649 14274 14273 13673 13674 14299 14298 
13650 13651 14276 14275 13675 13676 14301 14300 
13651 13652 14277 14276 13676 13677 14302 14301 
13652 13653 14278 14277 13677 13678 14303 14302 
13653 13654 14279 14278 13678 13679 14304 14303 
13654 13655 14280 14279 13679 13680 14305 14304 
13655 13656 14281 14280 13680 13681 14306 14305 
13656 13657 14282 14281 13681 13682 14307 14306 
13657 13658 14283 14282 13682 13683 14308 14307 
13658 13659 14284 14283 13683 13684 14309 14308 
13659 13660 14285 14284 13684 13685 14310 14309 
13660 13661 14286 14285 13685 13686 14311 14310 
13661 13662 14287 14286 13686 13687 14312 14311 
13662 13663 14288 14287 13687 13688 14313 14312 
13663 13664 14289 14288 13688 13689 14314 14313 
13664 13665 14290 14289 13689 13690 14315 14314 
13665 13666 14291 14290 13690 13691 14316 14315 
13666 13667 14292 14291 13691 13692 14317 14316 
13667 13668 14293 14292 13692 13693 14318 14317 
13668 13669 14294 14293 13693 13694 14319 14318 
13669 13670 14295 14294 13694 13695 14320 14319 
13670 13671 14296 14295 13695 13696 14321 14320 
13671 13672 14297 14296 13696 13697 14322 14321 
13672 13673 14298 14297 13697 13698 14323 14322 
13673 13674 14299 14298 13698 13699 14324 14323 
13675 13676 14301 14300 13700 13701 14326 14325 
13676 13677 14302 14301 13701 13702 14327 14326 
13677 13678 14303 14302 13702 13703 14328 14327 
13678 13679 14304 14303 13703 13704 14329 14328 
13679 13680 14305 14304 13704 13705 14330 14329 
13680 13681 14306 14305 13705 13706 14331 14330 
13681 13682 14307 14306 13706 13707 14332 14331 
13682 13683 14308 14307 13707 13708 14333 14332 
13683 13684 14309 14308 13708 13709 14334 14333 
13684 13685 14310 14309 13709 13710 14335 14334 
13685 13686 14311 14310 13710 13711 14336 14335 
13686 13687 14312 14311 13711 13712 14337 14336 
13687 13688 14313 14312 13712 13713 14338 14337 
13688 13689 14314 14313 13713 13714 14339 14338 
13689 13690 14315 14314 13714 13715 14340 14339 
13690 13691 14316 14315 13715 13716 14341 14340 
13691 13692 14317 14316 13716 13717 14342 14341 
13692 13693 14318 14317 13717 13718 14343 14342 
13693 13694 14319 14318 13718 13719 14344 14343 
13694 13695 14320 14319 13719 13720 14345 14344 
13695 13696 14321 14320 13720 13721 14346 14345 
13696 13697 14322 14321 13721 13722 14347 14346 
13697 13698 14323 14322 13722 13723 14348 14347 
13698 13699 14324 14323 13723 13724 14349 14348 
13700 13701 14326 14325 13725 13726 14351 14350 
13701 13702 14327 14326 13726 13727 14352 14351 
13702 13703 14328 14327 13727 13728 14353 14352 
13703 13704 14329 14328 13728 13729 14354 14353 
13704 13705 14330 14329 13729 13730 14355 14354 
13705 13706 14331 14330 13730 13731 14356 14355 
13706 13707 14332 14331 13731 13732 14357 14356 
13707 13708 14333 14332 13732 13733 14358 14357 
13708 13709 14334 14333 13733 13734 14359 14358 
13709 13710 14335 14334 13734 13735 14360 14359 
13710 13711 14336 14335 13735 13736 14361 14360 
13711 13712 14337 14336 13736 13737 14362 14361 
13712 13713 14338 14337 13737 13738 14363 14362 
13713 13714 14339 14338 13738 13739 14364 14363 
13714 13715 14340 14339 13739 13740 14365 14364 
13715 13716 14341 14340 13740 13741 14366 14365 
13716 13717 14342 14341 13741 13742 14367 14366 
13717 13718 14343 14342 13742 13743 14368 14367 
13718 13719 14344 14343 13743 13744 14369 14368 
13719 13720 14345 14344 13744 13745 14370 14369 
13720 13721 14346 14345 13745 13746 14371 14370 
13721 13722 14347 14346 13746 13747 14372 14371 
13722 13723 14348 14347 13747 13748 14373 14372 
13723 13724 14349 14348 13748 13749 14374 14373 
13750 13751 14376 14375 13775 13776 14401 14400 
13751 13752 14377 14376 13776 13777 14402 14401 
13752 13753 14378 14377 13777 13778 14403 14402 
13753 13754 14379 14378 13778 13779 14404 14403 
13754 13755 14380 14379 13779 13780 14405 14404 
13755 13756 14381 14380 13780 13781 14406 14405 
13756 13757 14382 14381 13781 13782 14407 14406 
13757 13758 14383 14382 13782 13783 14408 14407 
13758 13759 14384 14383 13783 13784 14409 14408 
13759 13760 14385 14384 13784 13785 14410 14409 
13760 13761 14386 14385 13785 13786 14411 14410 
13761 13762 14387 14386 13786 13787 14412 14411 
13762 13763 14388 14387 13787 13788 14413 14412 
13763 13764 14389 14388 13788 13789 14414 14413 
13764 13765 14390 14389 13789 13790 14415 14414 
13765 13766 14391 14390 13790 13791 14416 14415 
13766 13767 14392 14391 13791 13792 14417 14416 
13767 13768 14393 14392 13792 13793 14418 14417 
13768 13769 14394 14393 13793 13794 14419 14418 
13769 13770 14395 14394 13794 13795 14420 14419 
13770 13771 14396 14395 13795 13796 14421 14420 
13771 13772 14397 14396 13796 13797 14422 14421 
13772 13773 14398 14397 13797 13798 14423 14422 
13773 13774 14399 14398 13798 13799 14424 14423 
13775 13776 14401 14400 13800 13801 14426 14425 
13776 13777 14402 14401 13801 13802 14427 14426 
13777 13778 14403 14402 13802 13803 14428 14427 
13778 13779 14404 14403 13803 13804 14429 14428 
13779 13780 14405 14404 13804 13805 14430 14429 
13780 13781 14406 14405 13805 13806 14431 14430 
13781 13782 14407 14406 13806 13807 14432 14431 
13782 13783 14408 14407 13807 13808 14433 14432 
13783 13784 14409 14408 13808 13809 14434 14433 
13784 13785 14410 14409 13809 13810 14435 14434 
13785 13786 14411 14410 13810 13811 14436 14435 
13786 13787 14412 14411 13811 13812 14437 14436 
13787 13788 14413 14412 13812 13813 14438 14437 
13788 13789 14414 14413 13813 13814 14439 14438 
13789 13790 14415 14414 13814 13815 14440 14439 
13790 13791 14416 14415 13815 13816 14441 14440 
13791 13792 14417 14416 13816 13817 14442 14441 
13792 13793 14418 14417 13817 13818 14443 14442 
13793 13794 14419 14418 13818 13819 14444 14443 
13794 13795 14420 14419 13819 13820 14445 14444 
13795 13796 14421 14420 13820 13821 14446 14445 
13796 13797 14422 14421 13821 13822 14447 14446 
13797 13798 14423 14422 13822 13823 14448 14447 
13798 13799 14424 14423 13823 13824 14449 14448 
13800 13801 14426 14425 13825 13826 14451 14450 
13801 13802 14427 14426 13826 13827 14452 14451 
13802 13803 14428 14427 13827 13828 14453 14452 
13803 13804 14429 14428 13828 13829 14454 14453 
13804 13805 14430 14429 13829 13830 14455 14454 
13805 13806 14431 14430 13830 13831 14456 14455 
13806 13807 14432 14431 13831 13832 14457 14456 
13807 13808 14433 14432 13832 13833 14458 14457 
13808 13809 14434 14433 13833 13834 14459 14458 
13809 13810 14435 14434 13834 13835 14460 14459 
13810 13811 14436 14435 13835 13836 14461 14460 
13811 13812 14437 14436 13836 13837 14462 14461 
13812 13813 14438 14437 13837 13838 14463 14462 
13813 13814 14439 14438 13838 13839 14464 14463 
13814 13815 14440 14439 13839 13840 14465 14464 
13815 13816 14441 14440 13840 13841 14466 14465 
13816 13817 14442 14441 13841 13842 14467 14466 
13817 13818 14443 14442 13842 13843 14468 14467 
13818 13819 14444 14443 13843 13844 14469 14468 
13819 13820 14445 14444 13844 13845 14470 14469 
13820 13821 14446 14445 13845 13846 14471 14470 
13821 13822 14447 14446 13846 13847 14472 14471 
13822 13823 14448 14447 13847 13848 14473 14472 
13823 13824 14449 14448 13848 13849 14474 14473 
13825 13826 14451 14450 13850 13851 14476 14475 
13826 13827 14452 14451 13851 13852 14477 14476 
13827 13828 14453 14452 13852 13853 14478 14477 
13828 13829 14454 14453 13853 13854 14479 14478 
13829 13830 14455 14454 13854 13855 14480 14479 
13830 13831 14456 14455 13855 13856 14481 14480 
13831 13832 14457 14456 13856 13857 14482 14481 
13832 13833 14458 14457 13857 13858 14483 14482 
13833 13834 14459 14458 13858 13859 14484 14483 
13834 13835 14460 14459 13859 13860 14485 14484 
13835 13836 14461 14460 13860 13861 14486 14485 
13836 13837 14462 14461 13861 13862 14487 14486 
13837 13838 14463 14462 13862 13863 14488 14487 
13838 13839 14464 14463 13863 13864 14489 14488 
13839 13840 14465 14464 13864 13865 14490 14489 
13840 13841 14466 14465 13865 13866 14491 14490 
13841 13842 14467 14466 13866 13867 14492 14491 
13842 13843 14468 14467 13867 13868 14493 14492 
13843 13844 14469 14468 13868 13869 14494 14493 
13844 13845 14470 14469 13869 13870 14495 14494 
13845 13846 14471 14470 13870 13871 14496 14495 
13846 13847 14472 14471 13871 13872 14497 14496 
13847 13848 14473 14472 13872 13873 14498 14497 
13848 13849 14474 14473 13873 13874 14499 14498 
13850 13851 14476 14475 13875 13876 14501 14500 
13851 13852 14477 14476 13876 13877 14502 14501 
13852 13853 14478 14477 13877 13878 14503 14502 
13853 13854 14479 14478 13878 13879 14504 14503 
13854 13855 14480 14479 13879 13880 14505 14504 
13855 13856 14481 14480 13880 13881 14506 14505 
13856 13857 14482 14481 13881 13882 14507 14506 
13857 13858 14483 14482 13882 13883 14508 14507 
13858 13859 14484 14483 13883 13884 14509 14508 
13859 13860 14485 14484 13884 13885 14510 14509 
13860 13861 14486 14485 13885 13886 14511 14510 
13861 13862 14487 14486 13886 13887 14512 14511 
13862 13863 14488 14487 13887 13888 14513 14512 
13863 13864 14489 14488 13888 13889 14514 14513 
13864 13865 14490 14489 13889 13890 14515 14514 
13865 13866 14491 14490 13890 13891 14516 14515 
13866 13867 14492 14491 13891 13892 14517 14516 
13867 13868 14493 14492 13892 13893 14518 14517 
13868 13869 14494 14493 13893 13894 14519 14518 
13869 13870 14495 14494 13894 13895 14520 14519 
13870 13871 14496 14495 13895 13896 14521 14520 
13871 13872 14497 14496 13896 13897 14522 14521 
13872 13873 14498 14497 13897 13898 14523 14522 
13873 13874 14499 14498 13898 13899 14524 14523 
13875 13876 14501 14500 13900 13901 14526 14525 
13876 13877 14502 14501 13901 13902 14527 14526 
13877 13878 14503 14502 13902 13903 14528 14527 
13878 13879 14504 14503 13903 13904 14529 14528 
13879 13880 14505 14504 13904 13905 14530 14529 
13880 13881 14506 14505 13905 13906 14531 14530 
13881 13882 14507 14506 13906 13907 14532 14531 
13882 13883 14508 14507 13907 13908 14533 14532 
13883 13884 14509 14508 13908 13909 14534 14533 
13884 13885 14510 14509 13909 13910 14535 14534 
13885 13886 14511 14510 13910 13911 14536 14535 
13886 13887 14512 14511 13911 13912 14537 14536 
13887 13888 14513 14512 13912 13913 14538 14537 
13888 13889 14514 14513 13913 13914 14539 14538 
13889 13890 14515 14514 13914 13915 14540 14539 
13890 13891 14516 14515 13915 13916 14541 14540 
13891 13892 14517 14516 13916 13917 14542 14541 
13892 13893 14518 14517 13917 13918 14543 14542 
13893 13894 14519 14518 13918 13919 14544 14543 
13894 13895 14520 14519 13919 13920 14545 14544 
13895 13896 14521 14520 13920 13921 14546 14545 
13896 13897 14522 14521 13921 13922 14547 14546 
13897 13898 14523 14522 13922 13923 14548 14547 
13898 13899 14524 14523 13923 13924 14549 14548 
13900 13901 14526 14525 13925 13926 14551 14550 
13901 13902 14527 14526 13926 13927 14552 14551 
13902 13903 14528 14527 13927 13928 14553 14552 
13903 13904 14529 14528 13928 13929 14554 14553 
13904 13905 14530 14529 13929 13930 14555 14554 
13905 13906 14531 14530 13930 13931 14556 14555 
13906 13907 14532 14531 13931 13932 14557 14556 
13907 13908 14533 14532 13932 13933 14558 14557 
13908 13909 14534 14533 13933 13934 14559 14558 
13909 13910 14535 14534 13934 13935 14560 14559 
13910 13911 14536 14535 13935 13936 14561 14560 
13911 13912 14537 14536 13936 13937 14562 14561 
13912 13913 14538 14537 13937 13938 14563 14562 
13913 13914 14539 14538 13938 13939 14564 14563 
13914 13915 14540 14539 13939 13940 14565 14564 
13915 13916 14541 14540 13940 13941 14566 14565 
13916 13917 14542 14541 13941 13942 14567 14566 
13917 13918 14543 14542 13942 13943 14568 14567 
13918 13919 14544 14543 13943 13944 14569 14568 
13919 13920 14545 14544 13944 13945 14570 14569 
13920 13921 14546 14545 13945 13946 14571 14570 
13921 13922 14547 14546 13946 13947 14572 14571 
13922 13923 14548 14547 13947 13948 14573 14572 
13923 13924 14549 14548 13948 13949 14574 14573 
13925 13926 14551 14550 13950 13951 14576 14575 
13926 13927 14552 14551 13951 13952 14577 14576 
13927 13928 14553 14552 13952 13953 14578 14577 
13928 13929 14554 14553 13953 13954 14579 14578 
13929 13930 14555 14554 13954 13955 14580 14579 
13930 13931 14556 14555 13955 13956 14581 14580 
13931 13932 14557 14556 13956 13957 14582 14581 
13932 13933 14558 14557 13957 13958 14583 14582 
13933 13934 14559 14558 13958 13959 14584 14583 
13934 13935 14560 14559 13959 13960 14585 14584 
13935 13936 14561 14560 13960 13961 14586 14585 
13936 13937 14562 14561 13961 13962 14587 14586 
13937 13938 14563 14562 13962 13963 14588 14587 
13938 13939 14564 14563 13963 13964 14589 14588 
13939 13940 14565 14564 13964 13965 14590 14589 
13940 13941 14566 14565 13965 13966 14591 14590 
13941 13942 14567 14566 13966 13967 14592 14591 
13942 13943 14568 14567 13967 13968 14593 14592 
13943 13944 14569 14568 13968 13969 14594 14593 
13944 13945 14570 14569 13969 13970 14595 14594 
13945 13946 14571 14570 13970 13971 14596 14595 
13946 13947 14572 14571 13971 13972 14597 14596 
13947 13948 14573 14572 13972 13973 14598 14597 
13948 13949 14574 14573 13973 13974 14599 14598 
13950 13951 14576 14575 13975 13976 14601 14600 
13951 13952 14577 14576 13976 13977 14602 14601 
13952 13953 14578 14577 13977 13978 14603 14602 
13953 13954 14579 14578 13978 13979 14604 14603 
13954 13955 14580 14579 13979 13980 14605 14604 
13955 13956 14581 14580 13980 13981 14606 14605 
13956 13957 14582 14581 13981 13982 14607 14606 
13957 13958 14583 14582 13982 13983 14608 14607 
13958 13959 14584 14583 13983 13984 14609 14608 
13959 13960 14585 14584 13984 13985 14610 14609 
13960 13961 14586 14585 13985 13986 14611 14610 
13961 13962 14587 14586 13986 13987 14612 14611 
13962 13963 14588 14587 13987 13988 14613 14612 
13963 13964 14589 14588 13988 13989 14614 14613 
13964 13965 14590 14589 13989 13990 14615 14614 
13965 13966 14591 14590 13990 13991 14616 14615 
13966 13967 14592 14591 13991 13992 14617 14616 
13967 13968 14593 14592 13992 13993 14618 14617 
13968 13969 14594 14593 13993 13994 14619 14618 
13969 13970 14595 14594 13994 13995 14620 14619 
13970 13971 14596 14595 13995 13996 14621 14620 
13971 13972 14597 14596 13996 13997 14622 14621 
13972 13973 14598 14597 13997 13998 14623 14622 
13973 13974 14599 14598 13998 13999 14624 14623 
13975 13976 14601 14600 14000 14001 14626 14625 
13976 13977 14602 14601 14001 14002 14627 14626 
13977 13978 14603 14602 14002 14003 14628 14627 
13978 13979 14604 14603 14003 14004 14629 14628 
13979 13980 14605 14604 14004 14005 14630 14629 
13980 13981 14606 14605 14005 14006 14631 14630 
13981 13982 14607 14606 14006 14007 14632 14631 
13982 13983 14608 14607 14007 14008 14633 14632 
13983 13984 14609 14608 14008 14009 14634 14633 
13984 13985 14610 14609 14009 14010 14635 14634 
13985 13986 14611 14610 14010 14011 14636 14635 
13986 13987 14612 14611 14011 14012 14637 14636 
13987 13988 14613 14612 14012 14013 14638 14637 
13988 13989 14614 14613 14013 14014 14639 14638 
13989 13990 14615 14614 14014 14015 14640 14639 
13990 13991 14616 14615 14015 14016 14641 14640 
13991 13992 14617 14616 14016 14017 14642 14641 
13992 13993 14618 14617 14017 14018 14643 14642 
13993 13994 14619 14618 14018 14019 14644 14643 
13994 13995 14620 14619 14019 14020 14645 14644 
13995 13996 14621 14620 14020 14021 14646 14645 
13996 13997 14622 14621 14021 14022 14647 14646 
13997 13998 14623 14622 14022 14023 14648 14647 
13998 13999 14624 14623 14023 14024 14649 14648 
14000 14001 14626 14625 14025 14026 14651 14650 
14001 14002 14627 14626 14026 14027 14652 14651 
14002 14003 14628 14627 14027 14028 14653 14652 
14003 14004 14629 14628 14028 14029 14654 14653 
14004 14005 14630 14629 14029 14030 14655 14654 
14005 14006 14631 14630 14030 14031 14656 14655 
14006 14007 14632 14631 14031 14032 14657 14656 
14007 14008 14633 14632 14032 14033 14658 14657 
14008 14009 14634 14633 14033 14034 14659 14658 
14009 14010 14635 14634 14034 14035 14660 14659 
14010 14011 14636 14635 14035 14036 14661 14660 
14011 14012 14637 14636 14036 14037 14662 14661 
14012 14013 14638 14637 14037 14038 14663 14662 
14013 14014 14639 14638 14038 14039 14664 14663 
14014 14015 14640 14639 14039 14040 14665 14664 
14015 14016 14641 14640 14040 14041 14666 14665 
14016 14017 14642 14641 14041 14042 14667 14666 
14017 14018 14643 14642 14042 14043 14668 14667 
14018 14019 14644 14643 14043 14044 14669 14668 
14019 14020 14645 14644 14044 14045 14670 14669 
14020 14021 14646 14645 14045 14046 14671 14670 
14021 14022 14647 14646 14046 14047 14672 14671 
14022 14023 14648 14647 14047 14048 14673 14672 
14023 14024 14649 14648 14048 14049 14674 14673 
14025 14026 14651 14650 14050 14051 14676 14675 
14026 14027 14652 14651 14051 14052 14677 14676 
14027 14028 14653 14652 14052 14053 14678 14677 
14028 14029 14654 14653 14053 14054 14679 14678 
14029 14030 14655 14654 14054 14055 14680 14679 
14030 14031 14656 14655 14055 14056 14681 14680 
14031 14032 14657 14656 14056 14057 14682 14681 
14032 14033 14658 14657 14057 14058 14683 14682 
14033 14034 14659 14658 14058 14059 14684 14683 
14034 14035 14660 14659 14059 14060 14685 14684 
14035 14036 14661 14660 14060 14061 14686 14685 
14036 14037 14662 14661 14061 14062 14687 14686 
14037 14038 14663 14662 14062 14063 14688 14687 
14038 14039 14664 14663 14063 14064 14689 14688 
14039 14040 14665 14664 14064 14065 14690 14689 
14040 14041 14666 14665 14065 14066 14691 14690 
14041 14042 14667 14666 14066 14067 14692 14691 
14042 14043 14668 14667 14067 14068 14693 14692 
14043 14044 14669 14668 14068 14069 14694 14693 
14044 14045 14670 14669 14069 14070 14695 14694 
14045 14046 14671 14670 14070 14071 14696 14695 
14046 14047 14672 14671 14071 14072 14697 14696 
14047 14048 14673 14672 14072 14073 14698 14697 
14048 14049 14674 14673 14073 14074 14699 14698 
14050 14051 14676 14675 14075 14076 14701 14700 
14051 14052 14677 14676 14076 14077 14702 14701 
14052 14053 14678 14677 14077 14078 14703 14702 
14053 14054 14679 14678 14078 14079 14704 14703 
14054 14055 14680 14679 14079 14080 14705 14704 
14055 14056 14681 14680 14080 14081 14706 14705 
14056 14057 14682 14681 14081 14082 14707 14706 
14057 14058 14683 14682 14082 14083 14708 14707 
14058 14059 14684 14683 14083 14084 14709 14708 
14059 14060 14685 14684 14084 14085 14710 14709 
14060 14061 14686 14685 14085 14086 14711 14710 
14061 14062 14687 14686 14086 14087 14712 14711 
14062 14063 14688 14687 14087 14088 14713 14712 
14063 14064 14689 14688 14088 14089 14714 14713 
14064 14065 14690 14689 14089 14090 14715 14714 
14065 14066 14691 14690 14090 14091 14716 14715 
14066 14067 14692 14691 14091 14092 14717 14716 
14067 14068 14693 14692 14092 14093 14718 14717 
14068 14069 14694 14693 14093 14094 14719 14718 
14069 14070 14695 14694 14094 14095 14720 14719 
14070 14071 14696 14695 14095 14096 14721 14720 
14071 14072 14697 14696 14096 14097 14722 14721 
14072 14073 14698 14697 14097 14098 14723 14722 
14073 14074 14699 14698 14098 14099 14724 14723 
14075 14076 14701 14700 14100 14101 14726 14725 
14076 14077 14702 14701 14101 14102 14727 14726 
14077 14078 14703 14702 14102 14103 14728 14727 
14078 14079 14704 14703 14103 14104 14729 14728 
14079 14080 14705 14704 14104 14105 14730 14729 
14080 14081 14706 14705 14105 14106 14731 14730 
14081 14082 14707 14706 14106 14107 14732 14731 
14082 14083 14708 14707 14107 14108 14733 14732 
14083 14084 14709 14708 14108 14109 14734 14733 
14084 14085 14710 14709 14109 14110 14735 14734 
14085 14086 14711 14710 14110 14111 14736 14735 
14086 14087 14712 14711 14111 14112 14737 14736 
14087 14088 14713 14712 14112 14113 14738 14737 
14088 14089 14714 14713 14113 14114 14739 14738 
14089 14090 14715 14714 14114 14115 14740 14739 
14090 14091 14716 14715 14115 14116 14741 14740 
14091 14092 14717 14716 14116 14117 14742 14741 
14092 14093 14718 14717 14117 14118 14743 14742 
14093 14094 14719 14718 14118 14119 14744 14743 
14094 14095 14720 14719 14119 14120 14745 14744 
14095 14096 14721 14720 14120 14121 14746 14745 
14096 14097 14722 14721 14121 14122 14747 14746 
14097 14098 14723 14722 14122 14123 14748 14747 
14098 14099 14724 14723 14123 14124 14749 14748 
14100 14101 14726 14725 14125 14126 14751 14750 
14101 14102 14727 14726 14126 14127 14752 14751 
14102 14103 14728 14727 14127 14128 14753 14752 
14103 14104 14729 14728 14128 14129 14754 14753 
14104 14105 14730 14729 14129 14130 14755 14754 
14105 14106 14731 14730 14130 14131 14756 14755 
14106 14107 14732 14731 14131 14132 14757 14756 
14107 14108 14733 14732 14132 14133 14758 14757 
14108 14109 14734 14733 14133 14134 14759 14758 
14109 14110 14735 14734 14134 14135 14760 14759 
14110 14111 14736 14735 14135 14136 14761 14760 
14111 14112 14737 14736 14136 14137 14762 14761 
14112 14113 14738 14737 14137 14138 14763 14762 
14113 14114 14739 14738 14138 14139 14764 14763 
14114 14115 14740 14739 14139 14140 14765 14764 
14115 14116 14741 14740 14140 14141 14766 14765 
14116 14117 14742 14741 14141 14142 14767 14766 
14117 14118 14743 14742 14142 14143 14768 14767 
14118 14119 14744 14743 14143 14144 14769 14768 
14119 14120 14745 14744 14144 14145 14770 14769 
14120 14121 14746 14745 14145 14146 14771 14770 
14121 14122 14747 14746 14146 14147 14772 14771 
14122 14123 14748 14747 14147 14148 14773 14772 
14123 14124 14749 14748 14148 14149 14774 14773 
14125 14126 14751 14750 14150 14151 14776 14775 
14126 14127 14752 14751 14151 14152 14777 14776 
14127 14128 14753 14752 14152 14153 14778 14777 
14128 14129 14754 14753 14153 14154 14779 14778 
14129 14130 14755 14754 14154 14155 14780 14779 
14130 14131 14756 14755 14155 14156 14781 14780 
14131 14132 14757 14756 14156 14157 14782 14781 
14132 14133 14758 14757 14157 14158 14783 14782 
14133 14134 14759 14758 14158 14159 14784 14783 
14134 14135 14760 14759 14159 14160 14785 14784 
14135 14136 14761 14760 14160 14161 14786 14785 
14136 14137 14762 14761 14161 14162 14787 14786 
14137 14138 14763 14762 14162 14163 14788 14787 
14138 14139 14764 14763 14163 14164 14789 14788 
14139 14140 14765 14764 14164 14165 14790 14789 
14140 14141 14766 14765 14165 14166 14791 14790 
14141 14142 14767 14766 14166 14167 14792 14791 
14142 14143 14768 14767 14167 14168 14793 14792 
14143 14144 14769 14768 14168 14169 14794 14793 
14144 14145 14770 14769 14169 14170 14795 14794 
14145 14146 14771 14770 14170 14171 14796 14795 
14146 14147 14772 14771 14171 14172 14797 14796 
14147 14148 14773 14772 14172 14173 14798 14797 
14148 14149 14774 14773 14173 14174 14799 14798 
14150 14151 14776 14775 14175 14176 14801 14800 
14151 14152 14777 14776 14176 14177 14802 14801 
14152 14153 14778 14777 14177 14178 14803 14802 
14153 14154 14779 14778 14178 14179 14804 14803 
14154 14155 14780 14779 14179 14180 14805 14804 
14155 14156 14781 14780 14180 14181 14806 14805 
14156 14157 14782 14781 14181 14182 14807 14806 
14157 14158 14783 14782 14182 14183 14808 14807 
14158 14159 14784 14783 14183 14184 14809 14808 
14159 14160 14785 14784 14184 14185 14810 14809 
14160 14161 14786 14785 14185 14186 14811 14810 
14161 14162 14787 14786 14186 14187 14812 14811 
14162 14163 14788 14787 14187 14188 14813 14812 
14163 14164 14789 14788 14188 14189 14814 14813 
14164 14165 14790 14789 14189 14190 14815 14814 
14165 14166 14791 14790 14190 14191 14816 14815 
14166 14167 14792 14791 14191 14192 14817 14816 
14167 14168 14793 14792 14192 14193 14818 14817 
14168 14169 14794 14793 14193 14194 14819 14818 
14169 14170 14795 14794 14194 14195 14820 14819 
14170 14171 14796 14795 14195 14196 14821 14820 
14171 14172 14797 14796 14196 14197 14822 14821 
14172 14173 14798 14797 14197 14198 14823 14822 
14173 14174 14799 14798 14198 14199 14824 14823 
14175 14176 14801 14800 14200 14201 14826 14825 
14176 14177 14802 14801 14201 14202 14827 14826 
14177 14178 14803 14802 14202 14203 14828 14827 
14178 14179 14804 14803 14203 14204 14829 14828 
14179 14180 14805 14804 14204 14205 14830 14829 
14180 14181 14806 14805 14205 14206 14831 14830 
14181 14182 14807 14806 14206 14207 14832 14831 
14182 14183 14808 14807 14207 14208 14833 14832 
14183 14184 14809 14808 14208 14209 14834 14833 
14184 14185 14810 14809 14209 14210 14835 14834 
14185 14186 14811 14810 14210 14211 14836 14835 
14186 14187 14812 14811 14211 14212 14837 14836 
14187 14188 14813 14812 14212 14213 14838 14837 
14188 14189 14814 14813 14213 14214 14839 14838 
14189 14190 14815 14814 14214 14215 14840 14839 
14190 14191 14816 14815 14215 14216 14841 14840 
14191 14192 14817 14816 14216 14217 14842 14841 
14192 14193 14818 14817 14217 14218 14843 14842 
14193 14194 14819 14818 14218 14219 14844 14843 
14194 14195 14820 14819 14219 14220 14845 14844 
14195 14196 14821 14820 14220 14221 14846 14845 
14196 14197 14822 14821 14221 14222 14847 14846 
14197 14198 14823 14822 14222 14223 14848 14847 
14198 14199 14824 14823 14223 14224 14849 14848 
14200 14201 14826 14825 14225 14226 14851 14850 
14201 14202 14827 14826 14226 14227 14852 14851 
14202 14203 14828 14827 14227 14228 14853 14852 
14203 14204 14829 14828 14228 14229 14854 14853 
14204 14205 14830 14829 14229 14230 14855 14854 
14205 14206 14831 14830 14230 14231 14856 14855 
14206 14207 14832 14831 14231 14232 14857 14856 
14207 14208 14833 14832 14232 14233 14858 14857 
14208 14209 14834 14833 14233 14234 14859 14858 
14209 14210 14835 14834 14234 14235 14860 14859 
14210 14211 14836 14835 14235 14236 14861 14860 
14211 14212 14837 14836 14236 14237 14862 14861 
14212 14213 14838 14837 14237 14238 14863 14862 
14213 14214 14839 14838 14238 14239 14864 14863 
14214 14215 14840 14839 14239 14240 14865 14864 
14215 14216 14841 14840 14240 14241 14866 14865 
14216 14217 14842 14841 14241 14242 14867 14866 
14217 14218 14843 14842 14242 14243 14868 14867 
14218 14219 14844 14843 14243 14244 14869 14868 
14219 14220 14845 14844 14244 14245 14870 14869 
14220 14221 14846 14845 14245 14246 14871 14870 
14221 14222 14847 14846 14246 14247 14872 14871 
14222 14223 14848 14847 14247 14248 14873 14872 
14223 14224 14849 14848 14248 14249 14874 14873 
14225 14226 14851 14850 14250 14251 14876 14875 
14226 14227 14852 14851 14251 14252 14877 14876 
14227 14228 14853 14852 14252 14253 14878 14877 
14228 14229 14854 14853 14253 14254 14879 14878 
14229 14230 14855 14854 14254 14255 14880 14879 
14230 14231 14856 14855 14255 14256 14881 14880 
14231 14232 14857 14856 14256 14257 14882 14881 
14232 14233 14858 14857 14257 14258 14883 14882 
14233 14234 14859 14858 14258 14259 14884 14883 
14234 14235 14860 14859 14259 14260 14885 14884 
14235 14236 14861 14860 14260 14261 14886 14885 
14236 14237 14862 14861 14261 14262 14887 14886 
14237 14238 14863 14862 14262 14263 14888 14887 
14238 14239 14864 14863 14263 14264 14889 14888 
14239 14240 14865 14864 14264 14265 14890 14889 
14240 14241 14866 14865 14265 14266 14891 14890 
14241 14242 14867 14866 14266 14267 14892 14891 
14242 14243 14868 14867 14267 14268 14893 14892 
14243 14244 14869 14868 14268 14269 14894 14893 
14244 14245 14870 14869 14269 14270 14895 14894 
14245 14246 14871 14870 14270 14271 14896 14895 
14246 14247 14872 14871 14271 14272 14897 14896 
14247 14248 14873 14872 14272 14273 14898 14897 
14248 14249 14874 14873 14273 14274 14899 14898 
14250 14251 14876 14875 14275 14276 14901 14900 
14251 14252 14877 14876 14276 14277 14902 14901 
14252 14253 14878 14877 14277 14278 14903 14902 
14253 14254 14879 14878 14278 14279 14904 14903 
14254 14255 14880 14879 14279 14280 14905 14904 
14255 14256 14881 14880 14280 14281 14906 14905 
14256 14257 14882 14881 14281 14282 14907 14906 
14257 14258 14883 14882 14282 14283 14908 14907 
14258 14259 14884 14883 14283 14284 14909 14908 
14259 14260 14885 14884 14284 14285 14910 14909 
14260 14261 14886 14885 14285 14286 14911 14910 
14261 14262 14887 14886 14286 14287 14912 14911 
14262 14263 14888 14887 14287 14288 14913 14912 
14263 14264 14889 14888 14288 14289 14914 14913 
14264 14265 14890 14889 14289 14290 14915 14914 
14265 14266 14891 14890 14290 14291 14916 14915 
14266 14267 14892 14891 14291 14292 14917 14916 
14267 14268 14893 14892 14292 14293 14918 14917 
14268 14269 14894 14893 14293 14294 14919 14918 
14269 14270 14895 14894 14294 14295 14920 14919 
14270 14271 14896 14895 14295 14296 14921 14920 
14271 14272 14897 14896 14296 14297 14922 14921 
14272 14273 14898 14897 14297 14298 14923 14922 
14273 14274 14899 14898 14298 14299 14924 14923 
14275 14276 14901 14900 14300 14301 14926 14925 
14276 14277 14902 14901 14301 14302 14927 14926 
14277 14278 14903 14902 14302 14303 14928 14927 
14278 14279 14904 14903 14303 14304 14929 14928 
14279 14280 14905 14904 14304 14305 14930 14929 
14280 14281 14906 14905 14305 14306 14931 14930 
14281 14282 14907 14906 14306 14307 14932 14931 
14282 14283 14908 14907 14307 14308 14933 14932 
14283 14284 14909 14908 14308 14309 14934 14933 
14284 14285 14910 14909 14309 14310 14935 14934 
14285 14286 14911 14910 14310 14311 14936 14935 
14286 14287 14912 14911 14311 14312 14937 14936 
14287 14288 14913 14912 14312 14313 14938 14937 
14288 14289 14914 14913 14313 14314 14939 14938 
14289 14290 14915 14914 14314 14315 14940 14939 
14290 14291 14916 14915 14315 14316 14941 14940 
14291 14292 14917 14916 14316 14317 14942 14941 
14292 14293 14918 14917 14317 14318 14943 14942 
14293 14294 14919 14918 14318 14319 14944 14943 
14294 14295 14920 14919 14319 14320 14945 14944 
14295 14296 14921 14920 14320 14321 14946 14945 
14296 14297 14922 14921 14321 14322 14947 14946 
14297 14298 14923 14922 14322 14323 14948 14947 
14298 14299 14924 14923 14323 14324 14949 14948 
14300 14301 14926 14925 14325 14326 14951 14950 
14301 14302 14927 14926 14326 14327 14952 14951 
14302 14303 14928 14927 14327 14328 14953 14952 
14303 14304 14929 14928 14328 14329 14954 14953 
14304 14305 14930 14929 14329 14330 14955 14954 
14305 14306 14931 14930 14330 14331 14956 14955 
14306 14307 14932 14931 14331 14332 14957 14956 
14307 14308 14933 14932 14332 14333 14958 14957 
14308 14309 14934 14933 14333 14334 14959 14958 
14309 14310 14935 14934 14334 14335 14960 14959 
14310 14311 14936 14935 14335 14336 14961 14960 
14311 14312 14937 14936 14336 14337 14962 14961 
14312 14313 14938 14937 14337 14338 14963 14962 
14313 14314 14939 14938 14338 14339 14964 14963 
14314 14315 14940 14939 14339 14340 14965 14964 
14315 14316 14941 14940 14340 14341 14966 14965 
14316 14317 14942 14941 14341 14342 14967 14966 
14317 14318 14943 14942 14342 14343 14968 14967 
14318 14319 14944 14943 14343 14344 14969 14968 
14319 14320 14945 14944 14344 14345 14970 14969 
14320 14321 14946 14945 14345 14346 14971 14970 
14321 14322 14947 14946 14346 14347 14972 14971 
14322 14323 14948 14947 14347 14348 14973 14972 
14323 14324 14949 14948 14348 14349 14974 14973 
14325 14326 14951 14950 14350 14351 14976 14975 
14326 14327 14952 14951 14351 14352 14977 14976 
14327 14328 14953 14952 14352 14353 14978 14977 
14328 14329 14954 14953 14353 14354 14979 14978 
14329 14330 14955 14954 14354 14355 14980 14979 
14330 14331 14956 14955 14355 14356 14981 14980 
14331 14332 14957 14956 14356 14357 14982 14981 
14332 14333 14958 14957 14357 14358 14983 14982 
14333 14334 14959 14958 14358 14359 14984 14983 
14334 14335 14960 14959 14359 14360 14985 14984 
14335 14336 14961 14960 14360 14361 14986 14985 
14336 14337 14962 14961 14361 14362 14987 14986 
14337 14338 14963 14962 14362 14363 14988 14987 
14338 14339 14964 14963 14363 14364 14989 14988 
14339 14340 14965 14964 14364 14365 14990 14989 
14340 14341 14966 14965 14365 14366 14991 14990 
14341 14342 14967 14966 14366 14367 14992 14991 
14342 14343 14968 14967 14367 14368 14993 14992 
14343 14344 14969 14968 14368 14369 14994 14993 
14344 14345 14970 14969 14369 14370 14995 14994 
14345 14346 14971 14970 14370 14371 14996 14995 
14346 14347 14972 14971 14371 14372 14997 14996 
14347 14348 14973 14972 14372 14373 14998 14997 
14348 14349 14974 14973 14373 14374 14999 14998 
14375 14376 15001 15000 14400 14401 15026 15025 
14376 14377 15002 15001 14401 14402 15027 15026 
14377 14378 15003 15002 14402 14403 15028 15027 
14378 14379 15004 15003 14403 14404 15029 15028 
14379 14380 15005 15004 14404 14405 15030 15029 
14380 14381 15006 15005 14405 14406 15031 15030 
14381 14382 15007 15006 14406 14407 15032 15031 
14382 14383 15008 15007 14407 14408 15033 15032 
14383 14384 15009 15008 14408 14409 15034 15033 
14384 14385 15010 15009 14409 14410 15035 15034 
14385 14386 15011 15010 14410 14411 15036 15035 
14386 14387 15012 15011 14411 14412 15037 15036 
14387 14388 15013 15012 14412 14413 15038 15037 
14388 14389 15014 15013 14413 14414 15039 15038 
14389 14390 15015 15014 14414 14415 15040 15039 
14390 14391 15016 15015 14415 14416 15041 15040 
14391 14392 15017 15016 14416 14417 15042 15041 
14392 14393 15018 15017 14417 14418 15043 15042 
14393 14394 15019 15018 14418 14419 15044 15043 
14394 14395 15020 15019 14419 14420 15045 15044 
14395 14396 15021 15020 14420 14421 15046 15045 
14396 14397 15022 15021 14421 14422 15047 15046 
14397 14398 15023 15022 14422 14423 15048 15047 
14398 14399 15024 15023 14423 14424 15049 15048 
14400 14401 15026 15025 14425 14426 15051 15050 
14401 14402 15027 15026 14426 14427 15052 15051 
14402 14403 15028 15027 14427 14428 15053 15052 
14403 14404 15029 15028 14428 14429 15054 15053 
14404 14405 15030 15029 14429 14430 15055 15054 
14405 14406 15031 15030 14430 14431 15056 15055 
14406 14407 15032 15031 14431 14432 15057 15056 
14407 14408 15033 15032 14432 14433 15058 15057 
14408 14409 15034 15033 14433 14434 15059 15058 
14409 14410 15035 15034 14434 14435 15060 15059 
14410 14411 15036 15035 14435 14436 15061 15060 
14411 14412 15037 15036 14436 14437 15062 15061 
14412 14413 15038 15037 14437 14438 15063 15062 
14413 14414 15039 15038 14438 14439 15064 15063 
14414 14415 15040 15039 14439 14440 15065 15064 
14415 14416 15041 15040 14440 14441 15066 15065 
14416 14417 15042 15041 14441 14442 15067 15066 
14417 14418 15043 15042 14442 14443 15068 15067 
14418 14419 15044 15043 14443 14444 15069 15068 
14419 14420 15045 15044 14444 14445 15070 15069 
14420 14421 15046 15045 14445 14446 15071 15070 
14421 14422 15047 15046 14446 14447 15072 15071 
14422 14423 15048 15047 14447 14448 15073 15072 
14423 14424 15049 15048 14448 14449 15074 15073 
14425 14426 15051 15050 14450 14451 15076 15075 
14426 14427 15052 15051 14451 14452 15077 15076 
14427 14428 15053 15052 14452 14453 15078 15077 
14428 14429 15054 15053 14453 14454 15079 15078 
14429 14430 15055 15054 14454 14455 15080 15079 
14430 14431 15056 15055 14455 14456 15081 15080 
14431 14432 15057 15056 14456 14457 15082 15081 
14432 14433 15058 15057 14457 14458 15083 15082 
14433 14434 15059 15058 14458 14459 15084 15083 
14434 14435 15060 15059 14459 14460 15085 15084 
14435 14436 15061 15060 14460 14461 15086 15085 
14436 14437 15062 15061 14461 14462 15087 15086 
14437 14438 15063 15062 14462 14463 15088 15087 
14438 14439 15064 15063 14463 14464 15089 15088 
14439 14440 15065 15064 14464 14465 15090 15089 
14440 14441 15066 15065 14465 14466 15091 15090 
14441 14442 15067 15066 14466 14467 15092 15091 
14442 14443 15068 15067 14467 14468 15093 15092 
14443 14444 15069 15068 14468 14469 15094 15093 
14444 14445 15070 15069 14469 14470 15095 15094 
14445 14446 15071 15070 14470 14471 15096 15095 
14446 14447 15072 15071 14471 14472 15097 15096 
14447 14448 15073 15072 14472 14473 15098 15097 
14448 14449 15074 15073 14473 14474 15099 15098 
14450 14451 15076 15075 14475 14476 15101 15100 
14451 14452 15077 15076 14476 14477 15102 15101 
14452 14453 15078 15077 14477 14478 15103 15102 
14453 14454 15079 15078 14478 14479 15104 15103 
14454 14455 15080 15079 14479 14480 15105 15104 
14455 14456 15081 15080 14480 14481 15106 15105 
14456 14457 15082 15081 14481 14482 15107 15106 
14457 14458 15083 15082 14482 14483 15108 15107 
14458 14459 15084 15083 14483 14484 15109 15108 
14459 14460 15085 15084 14484 14485 15110 15109 
14460 14461 15086 15085 14485 14486 15111 15110 
14461 14462 15087 15086 14486 14487 15112 15111 
14462 14463 15088 15087 14487 14488 15113 15112 
14463 14464 15089 15088 14488 14489 15114 15113 
14464 14465 15090 15089 14489 14490 15115 15114 
14465 14466 15091 15090 14490 14491 15116 15115 
14466 14467 15092 15091 14491 14492 15117 15116 
14467 14468 15093 15092 14492 14493 15118 15117 
14468 14469 15094 15093 14493 14494 15119 15118 
14469 14470 15095 15094 14494 14495 15120 15119 
14470 14471 15096 15095 14495 14496 15121 15120 
14471 14472 15097 15096 14496 14497 15122 15121 
14472 14473 15098 15097 14497 14498 15123 15122 
14473 14474 15099 15098 14498 14499 15124 15123 
14475 14476 15101 15100 14500 14501 15126 15125 
14476 14477 15102 15101 14501 14502 15127 15126 
14477 14478 15103 15102 14502 14503 15128 15127 
14478 14479 15104 15103 14503 14504 15129 15128 
14479 14480 15105 15104 14504 14505 15130 15129 
14480 14481 15106 15105 14505 14506 15131 15130 
14481 14482 15107 15106 14506 14507 15132 15131 
14482 14483 15108 15107 14507 14508 15133 15132 
14483 14484 15109 15108 14508 14509 15134 15133 
14484 14485 15110 15109 14509 14510 15135 15134 
14485 14486 15111 15110 14510 14511 15136 15135 
14486 14487 15112 15111 14511 14512 15137 15136 
14487 14488 15113 15112 14512 14513 15138 15137 
14488 14489 15114 15113 14513 14514 15139 15138 
14489 14490 15115 15114 14514 14515 15140 15139 
14490 14491 15116 15115 14515 14516 15141 15140 
14491 14492 15117 15116 14516 14517 15142 15141 
14492 14493 15118 15117 14517 14518 15143 15142 
14493 14494 15119 15118 14518 14519 15144 15143 
14494 14495 15120 15119 14519 14520 15145 15144 
14495 14496 15121 15120 14520 14521 15146 15145 
14496 14497 15122 15121 14521 14522 15147 15146 
14497 14498 15123 15122 14522 14523 15148 15147 
14498 14499 15124 15123 14523 14524 15149 15148 
14500 14501 15126 15125 14525 14526 15151 15150 
14501 14502 15127 15126 14526 14527 15152 15151 
14502 14503 15128 15127 14527 14528 15153 15152 
14503 14504 15129 15128 14528 14529 15154 15153 
14504 14505 15130 15129 14529 14530 15155 15154 
14505 14506 15131 15130 14530 14531 15156 15155 
14506 14507 15132 15131 14531 14532 15157 15156 
14507 14508 15133 15132 14532 14533 15158 15157 
14508 14509 15134 15133 14533 14534 15159 15158 
14509 14510 15135 15134 14534 14535 15160 15159 
14510 14511 15136 15135 14535 14536 15161 15160 
14511 14512 15137 15136 14536 14537 15162 15161 
14512 14513 15138 15137 14537 14538 15163 15162 
14513 14514 15139 15138 14538 14539 15164 15163 
14514 14515 15140 15139 14539 14540 15165 15164 
14515 14516 15141 15140 14540 14541 15166 15165 
14516 14517 15142 15141 14541 14542 15167 15166 
14517 14518 15143 15142 14542 14543 15168 15167 
14518 14519 15144 15143 14543 14544 15169 15168 
14519 14520 15145 15144 14544 14545 15170 15169 
14520 14521 15146 15145 14545 14546 15171 15170 
14521 14522 15147 15146 14546 14547 15172 15171 
14522 14523 15148 15147 14547 14548 15173 15172 
14523 14524 15149 15148 14548 14549 15174 15173 
14525 14526 15151 15150 14550 14551 15176 15175 
14526 14527 15152 15151 14551 14552 15177 15176 
14527 14528 15153 15152 14552 14553 15178 15177 
14528 14529 15154 15153 14553 14554 15179 15178 
14529 14530 15155 15154 14554 14555 15180 15179 
14530 14531 15156 15155 14555 14556 15181 15180 
14531 14532 15157 15156 14556 14557 15182 15181 
14532 14533 15158 15157 14557 14558 15183 15182 
14533 14534 15159 15158 14558 14559 15184 15183 
14534 14535 15160 15159 14559 14560 15185 15184 
14535 14536 15161 15160 14560 14561 15186 15185 
14536 14537 15162 15161 14561 14562 15187 15186 
14537 14538 15163 15162 14562 14563 15188 15187 
14538 14539 15164 15163 14563 14564 15189 15188 
14539 14540 15165 15164 14564 14565 15190 15189 
14540 14541 15166 15165 14565 14566 15191 15190 
14541 14542 15167 15166 14566 14567 15192 15191 
14542 14543 15168 15167 14567 14568 15193 15192 
14543 14544 15169 15168 14568 14569 15194 15193 
14544 14545 15170 15169 14569 14570 15195 15194 
14545 14546 15171 15170 14570 14571 15196 15195 
14546 14547 15172 15171 14571 14572 15197 15196 
14547 14548 15173 15172 14572 14573 15198 15197 
14548 14549 15174 15173 14573 14574 15199 15198 
14550 14551 15176 15175 14575 14576 15201 15200 
14551 14552 15177 15176 14576 14577 15202 15201 
14552 14553 15178 15177 14577 14578 15203 15202 
14553 14554 15179 15178 14578 14579 15204 15203 
14554 14555 15180 15179 14579 14580 15205 15204 
14555 14556 15181 15180 14580 14581 15206 15205 
14556 14557 15182 15181 14581 14582 15207 15206 
14557 14558 15183 15182 14582 14583 15208 15207 
14558 14559 15184 15183 14583 14584 15209 15208 
14559 14560 15185 15184 14584 14585 15210 15209 
14560 14561 15186 15185 14585 14586 15211 15210 
14561 14562 15187 15186 14586 14587 15212 15211 
14562 14563 15188 15187 14587 14588 15213 15212 
14563 14564 15189 15188 14588 14589 15214 15213 
14564 14565 15190 15189 14589 14590 15215 15214 
14565 14566 15191 15190 14590 14591 15216 15215 
14566 14567 15192 15191 14591 14592 15217 15216 
14567 14568 15193 15192 14592 14593 15218 15217 
14568 14569 15194 15193 14593 14594 15219 15218 
14569 14570 15195 15194 14594 14595 15220 15219 
14570 14571 15196 15195 14595 14596 15221 15220 
14571 14572 15197 15196 14596 14597 15222 15221 
14572 14573 15198 15197 14597 14598 15223 15222 
14573 14574 15199 15198 14598 14599 15224 15223 
14575 14576 15201 15200 14600 14601 15226 15225 
14576 14577 15202 15201 14601 14602 15227 15226 
14577 14578 15203 15202 14602 14603 15228 15227 
14578 14579 15204 15203 14603 14604 15229 15228 
14579 14580 15205 15204 14604 14605 15230 15229 
14580 14581 15206 15205 14605 14606 15231 15230 
14581 14582 15207 15206 14606 14607 15232 15231 
14582 14583 15208 15207 14607 14608 15233 15232 
14583 14584 15209 15208 14608 14609 15234 15233 
14584 14585 15210 15209 14609 14610 15235 15234 
14585 14586 15211 15210 14610 14611 15236 15235 
14586 14587 15212 15211 14611 14612 15237 15236 
14587 14588 15213 15212 14612 14613 15238 15237 
14588 14589 15214 15213 14613 14614 15239 15238 
14589 14590 15215 15214 14614 14615 15240 15239 
14590 14591 15216 15215 14615 14616 15241 15240 
14591 14592 15217 15216 14616 14617 15242 15241 
14592 14593 15218 15217 14617 14618 15243 15242 
14593 14594 15219 15218 14618 14619 15244 15243 
14594 14595 15220 15219 14619 14620 15245 15244 
14595 14596 15221 15220 14620 14621 15246 15245 
14596 14597 15222 15221 14621 14622 15247 15246 
14597 14598 15223 15222 14622 14623 15248 15247 
14598 14599 15224 15223 14623 14624 15249 15248 
14600 14601 15226 15225 14625 14626 15251 15250 
14601 14602 15227 15226 14626 14627 15252 15251 
14602 14603 15228 15227 14627 14628 15253 15252 
14603 14604 15229 15228 14628 14629 15254 15253 
14604 14605 15230 15229 14629 14630 15255 15254 
14605 14606 15231 15230 14630 14631 15256 15255 
14606 14607 15232 15231 14631 14632 15257 15256 
14607 14608 15233 15232 14632 14633 15258 15257 
14608 14609 15234 15233 14633 14634 15259 15258 
14609 14610 15235 15234 14634 14635 15260 15259 
14610 14611 15236 15235 14635 14636 15261 15260 
14611 14612 15237 15236 14636 14637 15262 15261 
14612 14613 15238 15237 14637 14638 15263 15262 
14613 14614 15239 15238 14638 14639 15264 15263 
14614 14615 15240 15239 14639 14640 15265 15264 
14615 14616 15241 15240 14640 14641 15266 15265 
14616 14617 15242 15241 14641 14642 15267 15266 
14617 14618 15243 15242 14642 14643 15268 15267 
14618 14619 15244 15243 14643 14644 15269 15268 
14619 14620 15245 15244 14644 14645 15270 15269 
14620 14621 15246 15245 14645 14646 15271 15270 
14621 14622 15247 15246 14646 14647 15272 15271 
14622 14623 15248 15247 14647 14648 15273 15272 
14623 14624 15249 15248 14648 14649 15274 15273 
14625 14626 15251 15250 14650 14651 15276 15275 
14626 14627 15252 15251 14651 14652 15277 15276 
14627 14628 15253 15252 14652 14653 15278 15277 
14628 14629 15254 15253 14653 14654 15279 15278 
14629 14630 15255 15254 14654 14655 15280 15279 
14630 14631 15256 15255 14655 14656 15281 15280 
14631 14632 15257 15256 14656 14657 15282 15281 
14632 14633 15258 15257 14657 14658 15283 15282 
14633 14634 15259 15258 14658 14659 15284 15283 
14634 14635 15260 15259 14659 14660 15285 15284 
14635 14636 15261 15260 14660 14661 15286 15285 
14636 14637 15262 15261 14661 14662 15287 15286 
14637 14638 15263 15262 14662 14663 15288 15287 
14638 14639 15264 15263 14663 14664 15289 15288 
14639 14640 15265 15264 14664 14665 15290 15289 
14640 14641 15266 15265 14665 14666 15291 15290 
14641 14642 15267 15266 14666 14667 15292 15291 
14642 14643 15268 15267 14667 14668 15293 15292 
14643 14644 15269 15268 14668 14669 15294 15293 
14644 14645 15270 15269 14669 14670 15295 15294 
14645 14646 15271 15270 14670 14671 15296 15295 
14646 14647 15272 15271 14671 14672 15297 15296 
14647 14648 15273 15272 14672 14673 15298 15297 
14648 14649 15274 15273 14673 14674 15299 15298 
14650 14651 15276 15275 14675 14676 15301 15300 
14651 14652 15277 15276 14676 14677 15302 15301 
14652 14653 15278 15277 14677 14678 15303 15302 
14653 14654 15279 15278 14678 14679 15304 15303 
14654 14655 15280 15279 14679 14680 15305 15304 
14655 14656 15281 15280 14680 14681 15306 15305 
14656 14657 15282 15281 14681 14682 15307 15306 
14657 14658 15283 15282 14682 14683 15308 15307 
14658 14659 15284 15283 14683 14684 15309 15308 
14659 14660 15285 15284 14684 14685 15310 15309 
14660 14661 15286 15285 14685 14686 15311 15310 
14661 14662 15287 15286 14686 14687 15312 15311 
14662 14663 15288 15287 14687 14688 15313 15312 
14663 14664 15289 15288 14688 14689 15314 15313 
14664 14665 15290 15289 14689 14690 15315 15314 
14665 14666 15291 15290 14690 14691 15316 15315 
14666 14667 15292 15291 14691 14692 15317 15316 
14667 14668 15293 15292 14692 14693 15318 15317 
14668 14669 15294 15293 14693 14694 15319 15318 
14669 14670 15295 15294 14694 14695 15320 15319 
14670 14671 15296 15295 14695 14696 15321 15320 
14671 14672 15297 15296 14696 14697 15322 15321 
14672 14673 15298 15297 14697 14698 15323 15322 
14673 14674 15299 15298 14698 14699 15324 15323 
14675 14676 15301 15300 14700 14701 15326 15325 
14676 14677 15302 15301 14701 14702 15327 15326 
14677 14678 15303 15302 14702 14703 15328 15327 
14678 14679 15304 15303 14703 14704 15329 15328 
14679 14680 15305 15304 14704 14705 15330 15329 
14680 14681 15306 15305 14705 14706 15331 15330 
14681 14682 15307 15306 14706 14707 15332 15331 
14682 14683 15308 15307 14707 14708 15333 15332 
14683 14684 15309 15308 14708 14709 15334 15333 
14684 14685 15310 15309 14709 14710 15335 15334 
14685 14686 15311 15310 14710 14711 15336 15335 
14686 14687 15312 15311 14711 14712 15337 15336 
14687 14688 15313 15312 14712 14713 15338 15337 
14688 14689 15314 15313 14713 14714 15339 15338 
14689 14690 15315 15314 14714 14715 15340 15339 
14690 14691 15316 15315 14715 14716 15341 15340 
14691 14692 15317 15316 14716 14717 15342 15341 
14692 14693 15318 15317 14717 14718 15343 15342 
14693 14694 15319 15318 14718 14719 15344 15343 
14694 14695 15320 15319 14719 14720 15345 15344 
14695 14696 15321 15320 14720 14721 15346 15345 
14696 14697 15322 15321 14721 14722 15347 15346 
14697 14698 15323 15322 14722 14723 15348 15347 
14698 14699 15324 15323 14723 14724 15349 15348 
14700 14701 15326 15325 14725 14726 15351 15350 
14701 14702 15327 15326 14726 14727 15352 15351 
14702 14703 15328 15327 14727 14728 15353 15352 
14703 14704 15329 15328 14728 14729 15354 15353 
14704 14705 15330 15329 14729 14730 15355 15354 
14705 14706 15331 15330 14730 14731 15356 15355 
14706 14707 15332 15331 14731 14732 15357 15356 
14707 14708 15333 15332 14732 14733 15358 15357 
14708 14709 15334 15333 14733 14734 15359 15358 
14709 14710 15335 15334 14734 14735 15360 15359 
14710 14711 15336 15335 14735 14736 15361 15360 
14711 14712 15337 15336 14736 14737 15362 15361 
14712 14713 15338 15337 14737 14738 15363 15362 
14713 14714 15339 15338 14738 14739 15364 15363 
14714 14715 15340 15339 14739 14740 15365 15364 
14715 14716 15341 15340 14740 14741 15366 15365 
14716 14717 15342 15341 14741 14742 15367 15366 
14717 14718 15343 15342 14742 14743 15368 15367 
14718 14719 15344 15343 14743 14744 15369 15368 
14719 14720 15345 15344 14744 14745 15370 15369 
14720 14721 15346 15345 14745 14746 15371 15370 
14721 14722 15347 15346 14746 14747 15372 15371 
14722 14723 15348 15347 14747 14748 15373 15372 
14723 14724 15349 15348 14748 14749 15374 15373 
14725 14726 15351 15350 14750 14751 15376 15375 
14726 14727 15352 15351 14751 14752 15377 15376 
14727 14728 15353 15352 14752 14753 15378 15377 
14728 14729 15354 15353 14753 14754 15379 15378 
14729 14730 15355 15354 14754 14755 15380 15379 
14730 14731 15356 15355 14755 14756 15381 15380 
14731 14732 15357 15356 14756 14757 15382 15381 
14732 14733 15358 15357 14757 14758 15383 15382 
14733 14734 15359 15358 14758 14759 15384 15383 
14734 14735 15360 15359 14759 14760 15385 15384 
14735 14736 15361 15360 14760 14761 15386 15385 
14736 14737 15362 15361 14761 14762 15387 15386 
14737 14738 15363 15362 14762 14763 15388 15387 
14738 14739 15364 15363 14763 14764 15389 15388 
14739 14740 15365 15364 14764 14765 15390 15389 
14740 14741 15366 15365 14765 14766 15391 15390 
14741 14742 15367 15366 14766 14767 15392 15391 
14742 14743 15368 15367 14767 14768 15393 15392 
14743 14744 15369 15368 14768 14769 15394 15393 
14744 14745 15370 15369 14769 14770 15395 15394 
14745 14746 15371 15370 14770 14771 15396 15395 
14746 14747 15372 15371 14771 14772 15397 15396 
14747 14748 15373 15372 14772 14773 15398 15397 
14748 14749 15374 15373 14773 14774 15399 15398 
14750 14751 15376 15375 14775 14776 15401 15400 
14751 14752 15377 15376 14776 14777 15402 15401 
14752 14753 15378 15377 14777 14778 15403 15402 
14753 14754 15379 15378 14778 14779 15404 15403 
14754 14755 15380 15379 14779 14780 15405 15404 
14755 14756 15381 15380 14780 14781 15406 15405 
14756 14757 15382 15381 14781 14782 15407 15406 
14757 14758 15383 15382 14782 14783 15408 15407 
14758 14759 15384 15383 14783 14784 15409 15408 
14759 14760 15385 15384 14784 14785 15410 15409 
14760 14761 15386 15385 14785 14786 15411 15410 
14761 14762 15387 15386 14786 14787 15412 15411 
14762 14763 15388 15387 14787 14788 15413 15412 
14763 14764 15389 15388 14788 14789 15414 15413 
14764 14765 15390 15389 14789 14790 15415 15414 
14765 14766 15391 15390 14790 14791 15416 15415 
14766 14767 15392 15391 14791 14792 15417 15416 
14767 14768 15393 15392 14792 14793 15418 15417 
14768 14769 15394 15393 14793 14794 15419 15418 
14769 14770 15395 15394 14794 14795 15420 15419 
14770 14771 15396 15395 14795 14796 15421 15420 
14771 14772 15397 15396 14796 14797 15422 15421 
14772 14773 15398 15397 14797 14798 15423 15422 
14773 14774 15399 15398 14798 14799 15424 15423 
14775 14776 15401 15400 14800 14801 15426 15425 
14776 14777 15402 15401 14801 14802 15427 15426 
14777 14778 15403 15402 14802 14803 15428 15427 
14778 14779 15404 15403 14803 14804 15429 15428 
14779 14780 15405 15404 14804 14805 15430 15429 
14780 14781 15406 15405 14805 14806 15431 15430 
14781 14782 15407 15406 14806 14807 15432 15431 
14782 14783 15408 15407 14807 14808 15433 15432 
14783 14784 15409 15408 14808 14809 15434 15433 
14784 14785 15410 15409 14809 14810 15435 15434 
14785 14786 15411 15410 14810 14811 15436 15435 
14786 14787 15412 15411 14811 14812 15437 15436 
14787 14788 15413 15412 14812 14813 15438 15437 
14788 14789 15414 15413 14813 14814 15439 15438 
14789 14790 15415 15414 14814 14815 15440 15439 
14790 14791 15416 15415 14815 14816 15441 15440 
14791 14792 15417 15416 14816 14817 15442 15441 
14792 14793 15418 15417 14817 14818 15443 15442 
14793 14794 15419 15418 14818 14819 15444 15443 
14794 14795 15420 15419 14819 14820 15445 15444 
14795 14796 15421 15420 14820 14821 15446 15445 
14796 14797 15422 15421 14821 14822 15447 15446 
14797 14798 15423 15422 14822 14823 15448 15447 
14798 14799 15424 15423 14823 14824 15449 15448 
14800 14801 15426 15425 14825 14826 15451 15450 
14801 14802 15427 15426 14826 14827 15452 15451 
14802 14803 15428 15427 14827 14828 15453 15452 
14803 14804 15429 15428 14828 14829 15454 15453 
14804 14805 15430 15429 14829 14830 15455 15454 
14805 14806 15431 15430 14830 14831 15456 15455 
14806 14807 15432 15431 14831 14832 15457 15456 
14807 14808 15433 15432 14832 14833 15458 15457 
14808 14809 15434 15433 14833 14834 15459 15458 
14809 14810 15435 15434 14834 14835 15460 15459 
14810 14811 15436 15435 14835 14836 15461 15460 
14811 14812 15437 15436 14836 14837 15462 15461 
14812 14813 15438 15437 14837 14838 15463 15462 
14813 14814 15439 15438 14838 14839 15464 15463 
14814 14815 15440 15439 14839 14840 15465 15464 
14815 14816 15441 15440 14840 14841 15466 15465 
14816 14817 15442 15441 14841 14842 15467 15466 
14817 14818 15443 15442 14842 14843 15468 15467 
14818 14819 15444 15443 14843 14844 15469 15468 
14819 14820 15445 15444 14844 14845 15470 15469 
14820 14821 15446 15445 14845 14846 15471 15470 
14821 14822 15447 15446 14846 14847 15472 15471 
14822 14823 15448 15447 14847 14848 15473 15472 
14823 14824 15449 15448 14848 14849 15474 15473 
14825 14826 15451 15450 14850 14851 15476 15475 
14826 14827 15452 15451 14851 14852 15477 15476 
14827 14828 15453 15452 14852 14853 15478 15477 
14828 14829 15454 15453 14853 14854 15479 15478 
14829 14830 15455 15454 14854 14855 15480 15479 
14830 14831 15456 15455 14855 14856 15481 15480 
14831 14832 15457 15456 14856 14857 15482 15481 
14832 14833 15458 15457 14857 14858 15483 15482 
14833 14834 15459 15458 14858 14859 15484 15483 
14834 14835 15460 15459 14859 14860 15485 15484 
14835 14836 15461 15460 14860 14861 15486 15485 
14836 14837 15462 15461 14861 14862 15487 15486 
14837 14838 15463 15462 14862 14863 15488 15487 
14838 14839 15464 15463 14863 14864 15489 15488 
14839 14840 15465 15464 14864 14865 15490 15489 
14840 14841 15466 15465 14865 14866 15491 15490 
14841 14842 15467 15466 14866 14867 15492 15491 
14842 14843 15468 15467 14867 14868 15493 15492 
14843 14844 15469 15468 14868 14869 15494 15493 
14844 14845 15470 15469 14869 14870 15495 15494 
14845 14846 15471 15470 14870 14871 15496 15495 
14846 14847 15472 15471 14871 14872 15497 15496 
14847 14848 15473 15472 14872 14873 15498 15497 
14848 14849 15474 15473 14873 14874 15499 15498 
14850 14851 15476 15475 14875 14876 15501 15500 
14851 14852 15477 15476 14876 14877 15502 15501 
14852 14853 15478 15477 14877 14878 15503 15502 
14853 14854 15479 15478 14878 14879 15504 15503 
14854 14855 15480 15479 14879 14880 15505 15504 
14855 14856 15481 15480 14880 14881 15506 15505 
14856 14857 15482 15481 14881 14882 15507 15506 
14857 14858 15483 15482 14882 14883 15508 15507 
14858 14859 15484 15483 14883 14884 15509 15508 
14859 14860 15485 15484 14884 14885 15510 15509 
14860 14861 15486 15485 14885 14886 15511 15510 
14861 14862 15487 15486 14886 14887 15512 15511 
14862 14863 15488 15487 14887 14888 15513 15512 
14863 14864 15489 15488 14888 14889 15514 15513 
14864 14865 15490 15489 14889 14890 15515 15514 
14865 14866 15491 15490 14890 14891 15516 15515 
14866 14867 15492 15491 14891 14892 15517 15516 
14867 14868 15493 15492 14892 14893 15518 15517 
14868 14869 15494 15493 14893 14894 15519 15518 
14869 14870 15495 15494 14894 14895 15520 15519 
14870 14871 15496 15495 14895 14896 15521 15520 
14871 14872 15497 15496 14896 14897 15522 15521 
14872 14873 15498 15497 14897 14898 15523 15522 
14873 14874 15499 15498 14898 14899 15524 15523 
14875 14876 15501 15500 14900 14901 15526 15525 
14876 14877 15502 15501 14901 14902 15527 15526 
14877 14878 15503 15502 14902 14903 15528 15527 
14878 14879 15504 15503 14903 14904 15529 15528 
14879 14880 15505 15504 14904 14905 15530 15529 
14880 14881 15506 15505 14905 14906 15531 15530 
14881 14882 15507 15506 14906 14907 15532 15531 
14882 14883 15508 15507 14907 14908 15533 15532 
14883 14884 15509 15508 14908 14909 15534 15533 
14884 14885 15510 15509 14909 14910 15535 15534 
14885 14886 15511 15510 14910 14911 15536 15535 
14886 14887 15512 15511 14911 14912 15537 15536 
14887 14888 15513 15512 14912 14913 15538 15537 
14888 14889 15514 15513 14913 14914 15539 15538 
14889 14890 15515 15514 14914 14915 15540 15539 
14890 14891 15516 15515 14915 14916 15541 15540 
14891 14892 15517 15516 14916 14917 15542 15541 
14892 14893 15518 15517 14917 14918 15543 15542 
14893 14894 15519 15518 14918 14919 15544 15543 
14894 14895 15520 15519 14919 14920 15545 15544 
14895 14896 15521 15520 14920 14921 15546 15545 
14896 14897 15522 15521 14921 14922 15547 15546 
14897 14898 15523 15522 14922 14923 15548 15547 
14898 14899 15524 15523 14923 14924 15549 15548 
14900 14901 15526 15525 14925 14926 15551 15550 
14901 14902 15527 15526 14926 14927 15552 15551 
14902 14903 15528 15527 14927 14928 15553 15552 
14903 14904 15529 15528 14928 14929 15554 15553 
14904 14905 15530 15529 14929 14930 15555 15554 
14905 14906 15531 15530 14930 14931 15556 15555 
14906 14907 15532 15531 14931 14932 15557 15556 
14907 14908 15533 15532 14932 14933 15558 15557 
14908 14909 15534 15533 14933 14934 15559 15558 
14909 14910 15535 15534 14934 14935 15560 15559 
14910 14911 15536 15535 14935 14936 15561 15560 
14911 14912 15537 15536 14936 14937 15562 15561 
14912 14913 15538 15537 14937 14938 15563 15562 
14913 14914 15539 15538 14938 14939 15564 15563 
14914 14915 15540 15539 14939 14940 15565 15564 
14915 14916 15541 15540 14940 14941 15566 15565 
14916 14917 15542 15541 14941 14942 15567 15566 
14917 14918 15543 15542 14942 14943 15568 15567 
14918 14919 15544 15543 14943 14944 15569 15568 
14919 14920 15545 15544 14944 14945 15570 15569 
14920 14921 15546 15545 14945 14946 15571 15570 
14921 14922 15547 15546 14946 14947 15572 15571 
14922 14923 15548 15547 14947 14948 15573 15572 
14923 14924 15549 15548 14948 14949 15574 15573 
14925 14926 15551 15550 14950 14951 15576 15575 
14926 14927 15552 15551 14951 14952 15577 15576 
14927 14928 15553 15552 14952 14953 15578 15577 
14928 14929 15554 15553 14953 14954 15579 15578 
14929 14930 15555 15554 14954 14955 15580 15579 
14930 14931 15556 15555 14955 14956 15581 15580 
14931 14932 15557 15556 14956 14957 15582 15581 
14932 14933 15558 15557 14957 14958 15583 15582 
14933 14934 15559 15558 14958 14959 15584 15583 
14934 14935 15560 15559 14959 14960 15585 15584 
14935 14936 15561 15560 14960 14961 15586 15585 
14936 14937 15562 15561 14961 14962 15587 15586 
14937 14938 15563 15562 14962 14963 15588 15587 
14938 14939 15564 15563 14963 14964 15589 15588 
14939 14940 15565 15564 14964 14965 15590 15589 
14940 14941 15566 15565 14965 14966 15591 15590 
14941 14942 15567 15566 14966 14967 15592 15591 
14942 14943 15568 15567 14967 14968 15593 15592 
14943 14944 15569 15568 14968 14969 15594 15593 
14944 14945 15570 15569 14969 14970 15595 15594 
14945 14946 15571 15570 14970 14971 15596 15595 
14946 14947 15572 15571 14971 14972 15597 15596 
14947 14948 15573 15572 14972 14973 15598 15597 
14948 14949 15574 15573 14973 14974 15599 15598 
14950 14951 15576 15575 14975 14976 15601 15600 
14951 14952 15577 15576 14976 14977 15602 15601 
14952 14953 15578 15577 14977 14978 15603 15602 
14953 14954 15579 15578 14978 14979 15604 15603 
14954 14955 15580 15579 14979 14980 15605 15604 
14955 14956 15581 15580 14980 14981 15606 15605 
14956 14957 15582 15581 14981 14982 15607 15606 
14957 14958 15583 15582 14982 14983 15608 15607 
14958 14959 15584 15583 14983 14984 15609 15608 
14959 14960 15585 15584 14984 14985 15610 15609 
14960 14961 15586 15585 14985 14986 15611 15610 
14961 14962 15587 15586 14986 14987 15612 15611 
14962 14963 15588 15587 14987 14988 15613 15612 
14963 14964 15589 15588 14988 14989 15614 15613 
14964 14965 15590 15589 14989 14990 15615 15614 
14965 14966 15591 15590 14990 14991 15616 15615 
14966 14967 15592 15591 14991 14992 15617 15616 
14967 14968 15593 15592 14992 14993 15618 15617 
14968 14969 15594 15593 14993 14994 15619 15618 
14969 14970 15595 15594 14994 14995 15620 15619 
14970 14971 15596 15595 14995 14996 15621 15620 
14971 14972 15597 15596 14996 14997 15622 15621 
14972 14973 15598 15597 14997 14998 15623 15622 
14973 14974 15599 15598 14998 14999 15624 15623 
CELL_TYPES 13824
12 12 12 12 12 12 12 12 12 12 12 12 12 12 12 12 12 12 12 12 12 12 12 12 12 12 12 12 12 12 12 12 12 12 12 12 12 12 12 12 12 12 12 12 12 12 12 12 12 12 12 12 12 12 12 12 12 12 12 12 12 12 12 12 12 12 12 12 12 12 12 12 12 12 12 12 12 12 12 12 12 12 12 12 12 12 12 12 12 12 12 12 12 12 12 12 12 12 12 12 12 12 12 12 12 12 12 12 12 12 12 12 12 12 12 12 12 12 12 12 12 12 12 12 12 12 12 12 12 12 12 12 12 12 12 12 12 12 12 12 12 12 12 12 12 12 12 12 12 12 12 12 12 12 12 12 12 12 12 12 12 12 12 12 12 12 12 12 12 12 12 12 12 12 12 12 12 12 12 12 12 12 12 12 12 12 12 12 12 12 12 12 12 12 12 12 12 12 12 12 12 12 12 12 12 12 12 12 12 12 12 12 12 12 12 12 12 12 12 12 12 12 12 12 12 12 12 12 12 12 12 12 12 12 12 12 12 12 12 12 12 12 12 12 12 12 12 12 12 12 12 12 12 12 12 12 12 12 12 12 12 12 12 12 12 12 12 12 12 12 12 12 12 12 12 12 12 12 12 12 12 12 12 12 12 12 12 12 12 12 12 12 12 12 12 12 12 12 12 12 12 12 12 12 12 12 12 12 12 12 12 12 12 12 12 12 12 12 12 12 12 12 12 12 12 12 12 12 12 12 12 12 12 12 12 12 12 12 12 12 12 12 12 12 12 12 12 12 12 12 12 12 12 12 12 12 12 12 12 12 12 12 12 12 12 12 12 12 12 12 12 12 12 12 12 12 12 12 12 12 12 12 12 12 12 12 12 12 12 12 12 12 12 12 12 12 12 12 12 12 12 12 12 12 12 12 12 12 12 12 12 12 12 12 12 12 12 12 12 12 12 12 12 12 12 12 12 12 12 12 12 12 12 12 12 12 12 12 12 12 12 12 12 12 12 12 12 12 12 12 12 12 12 12 12 12 12 12 12 12 12 12 12 12 12 12 12 12 12 12 12 12 12 12 12 12 12 12 12 12 12 12 12 12 12 12 12 12 12 12 12 12 12 12 12 12 12 12 12 12 12 12 12 12 12 12 12 12 12 12 12 12 12 12 12 12 12 12 12 12 12 12 12 12 12 12 12 12 12 12 12 12 12 12 12 12 12 12 12 12 12 12 12 12 12 12 12 12 12 12 12 12 12 12 12 12 12 12 12 12 12 12 12 12 12 12 12 12 12 12 12 12 12 12 12 12 12 12 12 12 12 12 12 12 12 12 12 12 12 12 12 12 12 12 12 12 12 12 12 12 12 12 12 12 12 12 12 12 12 12 12 12 12 12 12 12 12 12 12 12 12 12 12 12 12 12 12 12 12 12 12 12 12 12 12 12 12 12 12 12 12 12 12 12 12 12 12 12 12 12 12 12 12 12 12 12 12 12 12 12 12 12 12 12 12 12 12 12 12 12 12 12 12 12 12 12 12 12 12 12 12 12 12 12 12 12 12 12 12 12 12 12 12 12 12 12 12 12 12 12 12 12 12 12 12 12 12 12 12 12 12 12 12 12 12 12 12 12 12 12 12 12 12 12 12 12 12 12 12 12 12 12 12 12 12 12 12 12 12 12 12 12 12 12 12 12 12 12 12 12 12 12 12 12 12 12 12 12 12 12 12 12 12 12 12 12 12 12 12 12 12 12 12 12 12 12 12 12 12 12 12 12 12 12 12 12 12 12 12 12 12 12 12 12 12 12 12 12 12 12 12 12 12 12 12 12 12 12 12 12 12 12 12 12 12 12 12 12 12 12 12 12 12 12 12 12 12 12 12 12 12 12 12 12 12 12 12 12 12 12 12 12 12 12 12 12 12 12 12 12 12 12 12 12 12 12 12 12 12 12 12 12 12 12 12 12 12 12 12 12 12 12 12 12 12 12 12 12 12 12 12 12 12 12 12 12 12 12 12 12 12 12 12 12 12 12 12 12 12 12 12 12 12 12 12 12 12 12 12 12 12 12 12 12 12 12 12 12 12 12 12 12 12 12 12 12 12 12 12 12 12 12 12 12 12 12 12 12 12 12 12 12 12 12 12 12 12 12 12 12 12 12 12 12 12 12 12 12 12 12 12 12 12 12 12 12 12 12 12 12 12 12 12 12 12 12 12 12 12 12 12 12 12 12 12 12 12 12 12 12 12 12 12 12 12 12 12 12 12 12 12 12 12 12 12 12 12 12 12 12 12 12 12 12 12 12 12 12 12 12 12 12 12 12 12 12 12 12 12 12 12 12 12 12 12 12 12 12 12 12 12 12 12 12 12 12 12 12 12 12 12 12 12 12 12 12 12 12 12 12 12 12 12 12 12 12 12 12 12 12 12 12 12 12 12 12 12 12 12 12 12 12 12 12 12 12 12 12 12 12 12 12 12 12 12 12 12 12 12 12 12 12 12 12 12 12 12 12 12 12 12 12 12 12 12 12 12 12 12 12 12 12 12 12 12 12 12 12 12 12 12 12 12 12 12 12 12 12 12 12 12 12 12 12 12 12 12 12 12 12 12 12 12 12 12 12 12 12 12 12 12 12 12 12 12 12 12 12 12 12 12 12 12 12 12 12 12 12 12 12 12 12 12 12 12 12 12 12 12 12 12 12 12 12 12 12 12 12 12 12 12 12 12 12 12 12 12 12 12 12 12 12 12 12 12 12 12 12 12 12 12 12 12 12 12 12 12 12 12 12 12 12 12 12 12 12 12 12 12 12 12 12 12 12 12 12 12 12 12 12 12 12 12 12 12 12 12 12 12 12 12 12 12 12 12 12 12 12 12 12 12 12 12 12 12 12 12 12 12 12 12 12 12 12 12 12 12 12 12 12 12 12 12 12 12 12 12 12 12 12 12 12 12 12 12 12 12 12 12 12 12 12 12 12 12 12 12 12 12 12 12 12 12 12 12 12 12 12 12 12 12 12 12 12 12 12 12 12 12 12 12 12 12 12 12 12 12 12 12 12 12 12 12 12 12 12 12 12 12 12 12 12 12 12 12 12 12 12 12 12 12 12 12 12 12 12 12 12 12 12 12 12 12 12 12 12 12 12 12 12 12 12 12 12 12 12 12 12 12 12 12 12 12 12 12 12 12 12 12 12 12 12 12 12 12 12 12 12 12 12 12 12 12 12 12 12 12 12 12 12 12 12 12 12 12 12 12 12 12 12 12 12 12 12 12 12 12 12 12 12 12 12 12 12 12 12 12 12 12 12 12 12 12 12 12 12 12 12 12 12 12 12 12 12 12 12 12 12 12 12 12 12 12 12 12 12 12 12 12 12 12 12 12 12 12 12 12 12 12 12 12 12 12 12 12 12 12 12 12 12 12 12 12 12 12 12 12 12 12 12 12 12 12 12 12 12 12 12 12 12 12 12 12 12 12 12 12 12 12 12 12 12 12 12 12 12 12 12 12 12 12 12 12 12 12 12 12 12 12 12 12 12 12 12 12 12 12 12 12 12 12 12 12 12 12 12 12 12 12 12 12 12 12 12 12 12 12 12 12 12 12 12 12 12 12 12 12 12 12 12 12 12 12 12 12 12 12 12 12 12 12 12 12 12 12 12 12 12 12 12 12 12 12 12 12 12 12 12 12 12 12 12 12 12 12 12 12 12 12 12 12 12 12 12 12 12 12 12 12 12 12 12 12 12 12 12 12 12 12 12 12 12 12 12 12 12 12 12 12 12 12 12 12 12 12 12 12 12 12 12 12 12 12 12 12 12 12 12 12 12 12 12 12 12 12 12 12 12 12 12 12 12 12 12 12 12 12 12 12 12 12 12 12 12 12 12 12 12 12 12 12 12 12 12 12 12 12 12 12 12 12 12 12 12 12 12 12 12 12 12 12 12 12 12 12 12 12 12 12 12 12 12 12 12 12 12 12 12 12 12 12 12 12 12 12 12 12 12 12 12 12 12 12 12 12 12 12 12 12 12 12 12 12 12 12 12 12 12 12 12 12 12 12 12 12 12 12 12 12 12 12 12 12 12 12 12 12 12 12 12 12 12 12 12 12 12 12 12 12 12 12 12 12 12 12 12 12 12 12 12 12 12 12 12 12 12 12 12 12 12 12 12 12 12 12 12 12 12 12 12 12 12 12 12 12 12 12 12 12 12 12 12 12 12 12 12 12 12 12 12 12 12 12 12 12 12 12 12 12 12 12 12 12 12 12 12 12 12 12 12 12 12 12 12 12 12 12 12 12 12 12 12 12 12 12 12 12 12 12 12 12 12 12 12 12 12 12 12 12 12 12 12 12 12 12 12 12 12 12 12 12 12 12 12 12 12 12 12 12 12 12 12 12 12 12 12 12 12 12 12 12 12 12 12 12 12 12 12 12 12 12 12 12 12 12 12 12 12 12 12 12 12 12 12 12 12 12 12 12 12 12 12 12 12 12 12 12 12 12 12 12 12 12 12 12 12 12 12 12 12 12 12 12 12 12 12 12 12 12 12 12 12 12 12 12 12 12 12 12 12 12 12 12 12 12 12 12 12 12 12 12 12 12 12 12 12 12 12 12 12 12 12 12 12 12 12 12 12 12 12 12 12 12 12 12 12 12 12 12 12 12 12 12 12 12 12 12 12 12 12 12 12 12 12 12 12 12 12 12 12 12 12 12 12 12 12 12 12 12 12 12 12 12 12 12 12 12 12 12 12 12 12 12 12 12 12 12 12 12 12 12 12 12 12 12 12 12 12 12 12 12 12 12 12 12 12 12 12 12 12 12 12 12 12 12 12 12 12 12 12 12 12 12 12 12 12 12 12 12 12 12 12 12 12 12 12 12 12 12 12 12 12 12 12 12 12 12 12 12 12 12 12 12 12 12 12 12 12 12 12 12 12 12 12 12 12 12 12 12 12 12 12 12 12 12 12 12 12 12 12 12 12 12 12 12 12 12 12 12 12 12 12 12 12 12 12 12 12 12 12 12 12 12 12 12 12 12 12 12 12 12 12 12 12 12 12 12 12 12 12 12 12 12 12 12 12 12 12 12 12 12 12 12 12 12 12 12 12 12 12 12 12 12 12 12 12 12 12 12 12 12 12 12 12 12 12 12 12 12 12 12 12 12 12 12 12 12 12 12 12 12 12 12 12 12 12 12 12 12 12 12 12 12 12 12 12 12 12 12 12 12 12 12 12 12 12 12 12 12 12 12 12 12 12 12 12 12 12 12 12 12 12 12 12 12 12 12 12 12 12 12 12 12 12 12 12 12 12 12 12 12 12 12 12 12 12 12 12 12 12 12 12 12 12 12 12 12 12 12 12 12 12 12 12 12 12 12 12 12 12 12 12 12 12 12 12 12 12 12 12 12 12 12 12 12 12 12 12 12 12 12 12 12 12 12 12 12 12 12 12 12 12 12 12 12 12 12 12 12 12 12 12 12 12 12 12 12 12 12 12 12 12 12 12 12 12 12 12 12 12 12 12 12 12 12 12 12 12 12 12 12 12 12 12 12 12 12 12 12 12 12 12 12 12 12 12 12 12 12 12 12 12 12 12 12 12 12 12 12 12 12 12 12 12 12 12 12 12 12 12 12 12 12 12 12 12 12 12 12 12 12 12 12 12 12 12 12 12 12 12 12 12 12 12 12 12 12 12 12 12 12 12 12 12 12 12 12 12 12 12 12 12 12 12 12 12 12 12 12 12 12 12 12 12 12 12 12 12 12 12 12 12 12 12 12 12 12 12 12 12 12 12 12 12 12 12 12 12 12 12 12 12 12 12 12 12 12 12 12 12 12 12 12 12 12 12 12 12 12 12 12 12 12 12 12 12 12 12 12 12 12 12 12 12 12 12 12 12 12 12 12 12 12 12 12 12 12 12 12 12 12 12 12 12 12 12 12 12 12 12 12 12 12 12 12 12 12 12 12 12 12 12 12 12 12 12 12 12 12 12 12 12 12 12 12 12 12 12 12 12 12 12 12 12 12 12 12 12 12 12 12 12 12 12 12 12 12 12 12 12 12 12 12 12 12 12 12 12 12 12 12 12 12 12 12 12 12 12 12 12 12 12 12 12 12 12 12 12 12 12 12 12 12 12 12 12 12 12 12 12 12 12 12 12 12 12 12 12 12 12 12 12 12 12 12 12 12 12 12 12 12 12 12 12 12 12 12 12 12 12 12 12 12 12 12 12 12 12 12 12 12 12 12 12 12 12 12 12 12 12 12 12 12 12 12 12 12 12 12 12 12 12 12 12 12 12 12 12 12 12 12 12 12 12 12 12 12 12 12 12 12 12 12 12 12 12 12 12 12 12 12 12 12 12 12 12 12 12 12 12 12 12 12 12 12 12 12 12 12 12 12 12 12 12 12 12 12 12 12 12 12 12 12 12 12 12 12 12 12 12 12 12 12 12 12 12 12 12 12 12 12 12 12 12 12 12 12 12 12 12 12 12 12 12 12 12 12 12 12 12 12 12 12 12 12 12 12 12 12 12 12 12 12 12 12 12 12 12 12 12 12 12 12 12 12 12 12 12 12 12 12 12 12 12 12 12 12 12 12 12 12 12 12 12 12 12 12 12 12 12 12 12 12 12 12 12 12 12 12 12 12 12 12 12 12 12 12 12 12 12 12 12 12 12 12 12 12 12 12 12 12 12 12 12 12 12 12 12 12 12 12 12 12 12 12 12 12 12 12 12 12 12 12 12 12 12 12 12 12 12 12 12 12 12 12 12 12 12 12 12 12 12 12 12 12 12 12 12 12 12 12 12 12 12 12 12 12 12 12 12 12 12 12 12 12 12 12 12 12 12 12 12 12 12 12 12 12 12 12 12 12 12 12 12 12 12 12 12 12 12 12 12 12 12 12 12 12 12 12 12 12 12 12 12 12 12 12 12 12 12 12 12 12 12 12 12 12 12 12 12 12 12 12 12 12 12 12 12 12 12 12 12 12 12 12 12 12 12 12 12 12 12 12 12 12 12 12 12 12 12 12 12 12 12 12 12 12 12 12 12 12 12 12 12 12 12 12 12 12 12 12 12 12 12 12 12 12 12 12 12 12 12 12 12 12 12 12 12 12 12 12 12 12 12 12 12 12 12 12 12 12 12 12 12 12 12 12 12 12 12 12 12 12 12 12 12 12 12 12 12 12 12 12 12 12 12 12 12 12 12 12 12 12 12 12 12 12 12 12 12 12 12 12 12 12 12 12 12 12 12 12 12 12 12 12 12 12 12 12 12 12 12 12 12 12 12 12 12 12 12 12 12 12 12 12 12 12 12 12 12 12 12 12 12 12 12 12 12 12 12 12 12 12 12 12 12 12 12 12 12 12 12 12 12 12 12 12 12 12 12 12 12 12 12 12 12 12 12 12 12 12 12 12 12 12 12 12 12 12 12 12 12 12 12 12 12 12 12 12 12 12 12 12 12 12 12 12 12 12 12 12 12 12 12 12 12 12 12 12 12 12 12 12 12 12 12 12 12 12 12 12 12 12 12 12 12 12 12 12 12 12 12 12 12 12 12 12 12 12 12 12 12 12 12 12 12 12 12 12 12 12 12 12 12 12 12 12 12 12 12 12 12 12 12 12 12 12 12 12 12 12 12 12 12 12 12 12 12 12 12 12 12 12 12 12 12 12 12 12 12 12 12 12 12 12 12 12 12 12 12 12 12 12 12 12 12 12 12 12 12 12 12 12 12 12 12 12 12 12 12 12 12 12 12 12 12 12 12 12 12 12 12 12 12 12 12 12 12 12 12 12 12 12 12 12 12 12 12 12 12 12 12 12 12 12 12 12 12 12 12 12 12 12 12 12 12 12 12 12 12 12 12 12 12 12 12 12 12 12 12 12 12 12 12 12 12 12 12 12 12 12 12 12 12 12 12 12 12 12 12 12 12 12 12 12 12 12 12 12 12 12 12 12 12 12 12 12 12 12 12 12 12 12 12 12 12 12 12 12 12 12 12 12 12 12 12 12 12 12 12 12 12 12 12 12 12 12 12 12 12 12 12 12 12 12 12 12 12 12 12 12 12 12 12 12 12 12 12 12 12 12 12 12 12 12 12 12 12 12 12 12 12 12 12 12 12 12 12 12 12 12 12 12 12 12 12 12 12 12 12 12 12 12 12 12 12 12 12 12 12 12 12 12 12 12 12 12 12 12 12 12 12 12 12 12 12 12 12 12 12 12 12 12 12 12 12 12 12 12 12 12 12 12 12 12 12 12 12 12 12 12 12 12 12 12 12 12 12 12 12 12 12 12 12 12 12 12 12 12 12 12 12 12 12 12 12 12 12 12 12 12 12 12 12 12 12 12 12 12 12 12 12 12 12 12 12 12 12 12 12 12 12 12 12 12 12 12 12 12 12 12 12 12 12 12 12 12 12 12 12 12 12 12 12 12 12 12 12 12 12 12 12 12 12 12 12 12 12 12 12 12 12 12 12 12 12 12 12 12 12 12 12 12 12 12 12 12 12 12 12 12 12 12 12 12 12 12 12 12 12 12 12 12 12 12 12 12 12 12 12 12 12 12 12 12 12 12 12 12 12 12 12 12 12 12 12 12 12 12 12 12 12 12 12 12 12 12 12 12 12 12 12 12 12 12 12 12 12 12 12 12 12 12 12 12 12 12 12 12 12 12 12 12 12 12 12 12 12 12 12 12 12 12 12 12 12 12 12 12 12 12 12 12 12 12 12 12 12 12 12 12 12 12 12 12 12 12 12 12 12 12 12 12 12 12 12 12 12 12 12 12 12 12 12 12 12 12 12 12 12 12 12 12 12 12 12 12 12 12 12 12 12 12 12 12 12 12 12 12 12 12 12 12 12 12 12 12 12 12 12 12 12 12 12 12 12 12 12 12 12 12 12 12 12 12 12 12 12 12 12 12 12 12 12 12 12 12 12 12 12 12 12 12 12 12 12 12 12 12 12 12 12 12 12 12 12 12 12 12 12 12 12 12 12 12 12 12 12 12 12 12 12 12 12 12 12 12 12 12 12 12 12 12 12 12 12 12 12 12 12 12 12 12 12 12 12 12 12 12 12 12 12 12 12 12 12 12 12 12 12 12 12 12 12 12 12 12 12 12 12 12 12 12 12 12 12 12 12 12 12 12 12 12 12 12 12 12 12 12 12 12 12 12 12 12 12 12 12 12 12 12 12 12 12 12 12 12 12 12 12 12 12 12 12 12 12 12 12 12 12 12 12 12 12 12 12 12 12 12 12 12 12 12 12 12 12 12 12 12 12 12 12 12 12 12 12 12 12 12 12 12 12 12 12 12 12 12 12 12 12 12 12 12 12 12 12 12 12 12 12 12 12 12 12 12 12 12 12 12 12 12 12 12 12 12 12 12 12 12 12 12 12 12 12 12 12 12 12 12 12 12 12 12 12 12 12 12 12 12 12 12 12 12 12 12 12 12 12 12 12 12 12 12 12 12 12 12 12 12 12 12 12 12 12 12 12 12 12 12 12 12 12 12 12 12 12 12 12 12 12 12 12 12 12 12 12 12 12 12 12 12 12 12 12 12 12 12 12 12 12 12 12 12 12 12 12 12 12 12 12 12 12 12 12 12 12 12 12 12 12 12 12 12 12 12 12 12 12 12 12 12 12 12 12 12 12 12 12 12 12 12 12 12 12 12 12 12 12 12 12 12 12 12 12 12 12 12 12 12 12 12 12 12 12 12 12 12 12 12 12 12 12 12 12 12 12 12 12 12 12 12 12 12 12 12 12 12 12 12 12 12 12 12 12 12 12 12 12 12 12 12 12 12 12 12 12 12 12 12 12 12 12 12 12 12 12 12 12 12 12 12 12 12 12 12 12 12 12 12 12 12 12 12 12 12 12 12 12 12 12 12 12 12 12 12 12 12 12 12 12 12 12 12 12 12 12 12 12 12 12 12 12 12 12 12 12 12 12 12 12 12 12 12 12 12 12 12 12 12 12 12 12 12 12 12 12 12 12 12 12 12 12 12 12 12 12 12 12 12 12 12 12 12 12 12 12 12 12 12 12 12 12 12 12 12 12 12 12 12 12 12 12 12 12 12 12 12 12 12 12 12 12 12 12 12 12 12 12 12 12 12 12 12 12 12 12 12 12 12 12 12 12 12 12 12 12 12 12 12 12 12 12 12 12 12 12 12 12 12 12 12 12 12 12 12 12 12 12 12 12 12 12 12 12 12 12 12 12 12 12 12 12 12 12 12 12 12 12 12 12 12 12 12 12 12 12 12 12 12 12 12 12 12 12 12 12 12 12 12 12 12 12 12 12 12 12 12 12 12 12 12 12 12 12 12 12 12 12 12 12 12 12 12 12 12 12 12 12 12 12 12 12 12 12 12 12 12 12 12 12 12 12 12 12 12 12 12 12 12 12 12 12 12 12 12 12 12 12 12 12 12 12 12 12 12 12 12 12 12 12 12 12 12 12 12 12 12 12 12 12 12 12 12 12 12 12 12 12 12 12 12 12 12 12 12 12 12 12 12 12 12 12 12 12 12 12 12 12 12 12 12 12 12 12 12 12 12 12 12 12 12 12 12 12 12 12 12 12 12 12 12 12 12 12 12 12 12 12 12 12 12 12 12 12 12 12 12 12 12 12 12 12 12 12 12 12 12 12 12 12 12 12 12 12 12 12 12 12 12 12 12 12 12 12 12 12 12 12 12 12 12 12 12 12 12 12 12 12 12 12 12 12 12 12 12 12 12 12 12 12 12 12 12 12 12 12 12 12 12 12 12 12 12 12 12 12 12 12 12 12 12 12 12 12 12 12 12 12 12 12 12 12 12 12 12 12 12 12 12 12 12 12 12 12 12 12 12 12 12 12 12 12 12 12 12 12 12 12 12 12 12 12 12 12 12 12 12 12 12 12 12 12 12 12 12 12 12 12 12 12 12 12 12 12 12 12 12 12 12 12 12 12 12 12 12 12 12 12 12 12 12 12 12 12 12 12 12 12 12 12 12 12 12 12 12 12 12 12 12 12 12 12 12 12 12 12 12 12 12 12 12 12 12 12 12 12 12 12 12 12 12 12 12 12 12 12 12 12 12 12 12 12 12 12 12 12 12 12 12 12 12 12 12 12 12 12 12 12 12 12 12 12 12 12 12 12 12 12 12 12 12 12 12 12 12 12 12 12 12 12 12 12 12 12 12 12 12 12 12 12 12 12 12 12 12 12 12 12 12 12 12 12 12 12 12 12 12 12 12 12 12 12 12 12 12 12 12 12 12 12 12 12 12 12 12 12 12 12 12 12 12 12 12 12 12 12 12 12 12 12 12 12 12 12 12 12 12 12 12 12 12 12 12 12 12 12 12 12 12 12 12 12 12 12 12 12 12 12 12 12 12 12 12 12 12 12 12 12 12 12 12 12 12 12 12 12 12 12 12 12 12 12 12 12 12 12 12 12 12 12 12 12 12 12 12 12 12 12 12 12 12 12 12 12 12 12 12 12 12 12 12 12 12 12 12 12 12 12 12 12 12 12 12 12 12 12 12 12 12 12 12 12 12 12 12 12 12 12 12 12 12 12 12 12 12 12 12 12 12 12 12 12 12 12 12 12 12 12 12 12 12 12 12 12 12 12 12 12 12 12 12 12 12 12 12 12 12 12 12 12 12 12 12 12 12 12 12 12 12 12 12 12 12 12 12 12 12 12 12 12 12 12 12 12 12 12 12 12 12 12 12 12 12 12 12 12 12 12 12 12 12 12 12 12 12 12 12 12 12 12 12 12 12 12 12 12 12 12 12 12 12 12 12 12 12 12 12 12 12 12 12 12 12 12 12 12 12 12 12 12 12 12 12 12 12 12 12 12 12 12 12 12 12 12 12 12 12 12 12 12 12 12 12 12 12 12 12 12 12 12 12 12 12 12 12 12 12 12 12 12 12 12 12 12 12 12 12 12 12 12 12 12 12 12 12 12 12 12 12 12 12 12 12 12 12 12 12 12 12 12 12 12 12 12 12 12 12 12 12 12 12 12 12 12 12 12 12 12 12 12 12 12 12 12 12 12 12 12 12 12 12 12 12 12 12 12 12 12 12 12 12 12 12 12 12 12 12 12 12 12 12 12 12 12 12 12 12 12 12 12 12 12 12 12 12 12 12 12 12 12 12 12 12 12 12 12 12 12 12 12 12 12 12 12 12 12 12 12 12 12 12 12 12 12 12 12 12 12 12 12 12 12 12 12 12 12 12 12 12 12 12 12 12 12 12 12 12 12 12 12 12 12 12 12 12 12 12 12 12 12 12 12 12 12 12 12 12 12 12 12 12 12 12 12 12 12 12 12 12 12 12 12 12 12 12 12 12 12 12 12 12 12 12 12 12 12 12 12 12 12 12 12 12 12 12 12 12 12 12 12 12 12 12 12 12 12 12 12 12 12 12 12 12 12 12 12 12 12 12 12 12 12 12 12 12 12 12 12 12 12 12 12 12 12 12 12 12 12 12 12 12 12 12 12 12 12 12 12 12 12 12 12 12 12 12 12 12 12 12 12 12 12 12 12 12 12 12 12 12 12 12 12 12 12 12 12 12 12 12 12 12 12 12 12 12 12 12 12 12 12 12 12 12 12 12 12 12 12 12 12 12 12 12 12 12 12 12 12 12 12 12 12 12 12 12 12 12 12 12 12 12 12 12 12 12 12 12 12 12 12 12 12 12 12 12 12 12 12 12 12 12 12 12 12 12 12 12 12 12 12 12 12 12 12 12 12 12 12 12 12 12 12 12 12 12 12 12 12 12 12 12 12 12 12 12 12 12 12 12 12 12 12 12 12 12 12 12 12 12 12 12 12 12 12 12 12 12 12 12 12 12 12 12 12 12 12 12 12 12 12 12 12 12 12 12 12 12 12 12 12 12 12 12 12 12 12 12 12 12 12 12 12 12 12 12 12 12 12 12 12 12 12 12 12 12 12 12 12 12 12 12 12 12 12 12 12 12 12 12 12 12 12 12 12 12 12 12 12 12 12 12 12 12 12 12 12 12 12 12 12 12 12 12 12 12 12 12 12 12 12 12 12 12 12 12 12 12 12 12 12 12 12 12 12 12 12 12 12 12 12 12 12 12 12 12 12 12 12 12 12 12 12 12 12 12 12 12 12 12 12 12 12 12 12 12 12 12 12 12 12 12 12 12 12 12 12 12 12 12 12 12 12 12 12 12 12 12 12 12 12 12 12 12 12 12 12 12 12 12 12 12 12 12 12 12 12 12 12 12 12 12 12 12 12 12 12 12 12 12 12 12 12 12 12 12 12 12 12 12 12 12 12 12 12 12 12 12 12 12 12 12 12 12 12 12 12 12 12 12 12 12 12 12 12 12 12 12 12 12 12 12 12 12 12 12 12 12 12 12 12 12 12 12 12 12 12 12 12 12 12 12 12 12 12 12 12 12 12 12 12 12 12 12 12 12 12 12 12 12 12 12 12 12 12 12 12 12 12 12 12 12 12 12 12 12 12 12 12 12 12 12 12 12 12 12 12 12 12 12 12 12 12 12 12 12 12 12 12 12 12 12 12 12 12 12 12 12 12 12 12 12 12 12 12 12 12 12 12 12 12 12 12 12 12 12 12 12 12 12 12 12 12 12 12 12 12 12 12 12 12 12 12 12 12 12 12 12 12 12 12 12 12 12 12 12 12 12 12 12 12 12 12 12 12 12 12 12 12 12 12 12 12 12 12 12 12 12 12 12 12 12 12 12 12 12 12 12 12 12 12 12 12 12 12 12 12 12 12 12 12 12 12 12 12 12 12 12 12 12 12 12 12 12 12 12 12 12 12 12 12 12 12 12 12 12 12 12 12 12 12 12 12 12 12 12 12 12 12 12 12 12 12 12 12 12 12 12 12 12 12 12 12 12 12 12 12 12 12 12 12 12 12 12 12 12 12 12 12 12 12 12 12 12 12 12 12 12 12 12 12 12 12 12 12 12 12 12 12 12 12 12 12 12 12 12 12 12 12 12 12 12 12 12 12 12 12 12 12 12 12 12 12 12 12 12 12 12 12 12 12 12 12 12 12 12 12 12 12 12 12 12 12 12 12 12 12 12 12 12 12 12 12 12 12 12 12 12 12 12 12 12 12 12 12 12 12 12 12 12 12 12 12 12 12 12 12 12 12 12 12 12 12 12 12 12 12 12 12 12 12 12 12 12 12 12 12 12 12 12 12 12 12 12 12 12 12 12 12 12 12 12 12 12 12 12 12 12 12 12 12 12 12 12 12 12 12 12 12 12 12 12 12 12 12 12 12 12 12 12 12 12 12 12 12 12 12 12 12 12 12 12 12 12 12 12 12 12 12 12 12 12 12 12 12 12 12 12 12 12 12 12 12 12 12 12 12 12 12 12 12 12 12 12 12 12 12 12 12 12 12 12 12 12 12 12 12 12 12 12 12 12 12 12 12 12 12 12 12 12 12 12 12 12 12 12 12 12 12 12 12 12 12 12 12 12 12 12 12 12 12 12 12 12 12 12 12 12 12 12 12 12 12 12 12 12 12 12 12 12 12 12 12 12 12 12 12 12 12 12 12 12 12 12 12 12 12 12 12 12 12 12 12 12 12 12 12 12 12 12 12 12 12 12 12 12 12 12 12 12 12 12 12 12 12 12 12 12 12 12 12 12 12 12 12 12 12 12 12 12 12 12 12 12 12 12 12 12 12 12 12 12 12 12 12 12 12 12 12 12 12 12 12 12 12 12 12 12 12 12 12 12 12 12 12 12 12 12 12 12 12 12 12 12 12 12 12 12 12 12 12 12 12 12 12 12 12 12 12 12 12 12 12 12 12 12 12 12 12 12 12 12 12 12 12 12 12 12 12 12 12 12 12 12 12 12 12 12 12 12 12 12 12 12 12 12 12 12 12 12 12 12 12 12 12 12 12 12 12 12 12 12 12 12 12 12 12 12 12 12 12 12 12 12 12 12 12 12 12 12 12 12 12 12 12 12 12 12 12 12 12 12 12 12 12 12 12 12 12 12 12 12 12 12 12 12 12 12 12 12 12 12 12 12 12 12 12 12 12 12 12 12 12 12 12 12 12 12 12 12 12 12 12 12 12 12 12 12 12 12 12 12 12 12 12 12 12 12 12 12 12 12 12 12 12 12 12 12 12 12 12 12 12 12 12 12 12 12 12 12 12 12 12 12 12 12 12 12 12 12 12 12 12 12 12 12 12 12 12 12 12 12 12 12 12 12 12 12 12 12 12 12 12 12 12 12 12 12 12 12 12 12 12 12 12 12 12 12 12 12 12 12 12 12 12 12 12 12 12 12 12 12 12 12 12 12 12 12 12 12 12 12 12 12 12 12 12 12 12 12 12 12 12 12 12 12 12 12 12 12 12 12 12 12 12 12 12 12 12 12 12 12 12 12 12 12 12 12 12 12 12 12 12 12 12 12 12 12 12 12 12 12 12 12 12 12 12 12 12 12 12 12 12 12 12 12 12 12 12 12 12 12 12 12 12 12 12 12 12 12 12 12 12 12 12 12 12 12 12 12 12 12 12 12 12 12 12 12 12 12 12 12 12 12 12 12 12 12 12 12 12 12 12 12 12 12 12 12 12 12 12 12 12 12 12 12 12 12 12 12 12 12 12 12 12 12 12 12 12 12 12 12 12 12 12 12 12 12 12 12 12 12 12 12 12 12 12 12 12 12 12 12 12 12 12 12 12 12 12 12 12 12 12 12 12 12 12 12 12 12 12 12 12 12 12 12 12 12 12 12 12 12 12 12 12 12 12 12 12 12 12 12 12 12 12 12 12 12 12 12 12 12 12 12 12 12 12 12 12 12 12 12 12 12 12 12 12 12 12 12 12 12 12 12 12 12 12 12 12 12 12 12 12 12 12 12 12 12 12 12 12 12 12 12 12 12 12 12 12 12 12 12 12 12 12 12 12 12 12 12 12 12 12 12 12 12 12 12 12 12 12 12 12 12 12 12 12 12 12 12 12 12 12 12 12 12 12 12 12 12 12 12 12 12 12 12 12 12 12 12 12 12 12 12 12 12 12 12 12 12 12 12 12 12 12 12 12 12 12 12 12 12 12 12 12 12 12 12 12 12 12 12 12 12 12 12 12 12 12 12 12 12 12 12 12 12 12 12 12 12 12 12 12 12 12 12 12 12 12 12 12 12 12 12 12 12 12 12 12 12 12 12 12 12 12 12 12 12 12 12 12 12 12 12 12 12 12 12 12 12 12 12 12 12 12 12 12 12 12 12 12 12 12 12 12 12 12 12 12 12 12 12 12 12 12 12 12 12 12 12 12 12 12 12 12 12 12 12 12 12 12 12 12 12 12 12 12 12 12 12 12 12 12 12 12 12 12 12 12 12 12 12 12 12 12 12 12 12 12 12 12 12 12 12 12 12 12 12 12 12 12 12 12 12 12 12 12 12 12 12 12 12 12 12 12 12 12 12 12 12 12 12 12 12 12 12 12 12 12 12 12 12 12 12 12 12 12 12 12 12 12 12 12 12 12 12 12 12 12 12 12 12 12 12 12 12 12 12 12 12 12 12 12 12 12 12 12 12 12 12 12 12 12 12 12 12 12 12 12 12 12 12 12 12 12 12 12 12 12 12 12 12 12 12 12 12 12 12 12 12 12 12 12 12 12 12 12 12 12 12 12 12 12 12 12 12 12 12 12 12 12 12 12 12 12 12 12 12 12 12 12 12 12 12 12 12 12 12 12 12 12 12 12 12 12 12 12 12 12 12 12 12 12 12 12 12 12 12 12 12 12 12 12 12 12 12 12 12 12 12 12 12 12 12 12 12 12 12 12 12 12 12 12 12 12 12 12 12 12 12 12 12 12 12 12 12 12 12 12 12 12 12 12 12 12 12 12 12 12 12 12 12 12 12 12 12 12 12 12 12 12 12 12 12 12 12 12 12 12 12 12 12 12 12 12 12 12 12 12 12 12 12 12 12 12 12 12 12 12 12 12 12 12 12 12 12 12 12 12 12 12 12 12 12 12 12 12 12 12 12 12 12 12 12 12 12 12 12 12 12 12 12 12 12 12 12 12 12 12 12 12 12 12 12 12 12 12 12 12 12 12 12 12 12 12 12 12 12 12 12 12 12 12 12 12 12 12 12 12 12 12 12 12 12 12 12 12 12 12 12 12 12 12 12 12 12 12 12 12 12 12 12 12 12 12 12 12 12 12 12 12 12 12 12 12 12 12 12 12 12 12 12 12 12 12 12 12 12 12 12 12 12 12 12 12 12 12 12 12 12 12 12 12 12 12 12 12 12 12 12 12 12 12 12 12 12 12 12 12 12 12 12 12 12 12 12 12 12 12 12 12 12 12 12 12 12 12 12 12 12 12 12 12 12 12 12 12 12 12 12 12 12 12 12 12 12 12 12 12 12 12 12 12 12 12 12 12 12 12 12 12 12 12 12 12 12 12 12 12 12 12 12 12 12 12 12 12 12 12 12 12 12 12 12 12 12 12 12 12 12 12 12 12 12 12 12 12 12 12 12 12 12 12 12 12 12 12 12 12 12 12 12 12 12 12 12 12 12 12 12 12 12 12 12 12 12 12 12 12 12 12 12 12 12 12 12 12 12 12 12 12 12 12 12 12 12 12 12 12 12 12 12 12 12 12 12 12 12 12 12 12 12 12 12 12 12 12 12 12 12 12 12 12 12 12 12 12 12 12 12 12 12 12 12 12 12 12 12 12 12 12 12 12 12 12 12 12 12 12 12 12 12 12 12 12 12 12 12 12 12 12 12 12 12 12 12 12 12 12 12 12 12 12 12 12 12 12 12 12 12 12 12 12 12 12 12 12 12 12 12 12 12 12 12 12 12 12 12 12 12 12 12 12 12 12 12 12 12 12 12 12 12 12 12 12 12 12 12 12 12 12 12 12 12 12 12 12 12 12 12 12 12 12 12 12 12 12 12 12 12 12 12 12 12 12 12 12 12 12 12 12 12 12 12 12 12 12 12 12 12 12 12 12 12 12 12 12 12 12 12 12 12 12 12 12 12 12 12 12 12 12 12 12 12 12 12 12 12 12 12 12 12 12 12 12 12 12 12 12 12 12 12 12 12 12 12 12 12 12 12 12 12 12 12 12 12 12 12 12 12 12 12 12 12 12 12 12 12 12 12 12 12 12 12 12 12 12 12 12 12 12 12 12 12 12 12 12 12 12 12 12 12 12 12 12 12 12 12 12 12 12 12 12 12 12 12 12 12 12 12 12 12 12 12 12 12 12 12 12 12 12 12 12 12 12 12 12 12 12 12 12 12 12 12 12 12 12 12 12 12 12 12 12 12 12 12 12 12 12 12 12 12 12 12 12 12 12 12 12 12 12 12 12 12 12 12 12 12 12 12 12 12 12 12 12 12 12 12 12 12 12 12 12 12 12 12 12 12 12 12 12 12 12 12 12 12 12 12 12 12 12 12 12 12 12 12 12 12 12 12 12 12 12 12 12 12 12 12 12 12 12 12 12 12 12 12 12 12 12 12 12 12 12 12 12 12 12 12 12 12 12 12 12 12 12 12 12 12 12 12 12 12 12 12 12 12 12 12 12 12 12 12 12 12 12 12 12 12 12 12 12 12 12 12 12 12 12 12 12 12 12 12 12 12 12 12 12 12 12 12 12 12 12 12 12 12 12 12 12 12 12 12 12 12 12 12 12 12 12 12 12 12 12 12 12 12 12 12 12 12 12 12 12 12 12 12 12 12 12 12 12 12 12 12 12 12 12 12 12 12 12 12 12 12 12 12 12 12 12 12 12 12 12 12 12 12 12 12 12 12 12 12 12 12 12 12 12 12 12 12 12 12 12 12 12 12 12 12 12 12 12 12 12 12 12 12 12 12 12 12 12 12 12 12 12 12 12 12 12 12 12 12 12 12 12 12 12 12 12 12 12 12 12 12 12 12 12 12 12 12 12 12 12 12 12 12 12 12 12 12 12 12 12 12 12 12 12 12 12 12 12 12 12 12 12 12 12 12 12 12 12 12 12 12 12 12 12 12 12 12 12 12 12 12 12 12 12 12 12 12 12 12 12 12 12 12 12 12 12 12 12 12 12 12 12 12 12 12 12 12 12 12 12 12 12 12 12 12 12 12 12 12 12 12 12 12 12 12 12 12 12 12 12 12 12 12 12 12 12 12 12 12 12 12 12 12 12 12 12 12 12 12 12 12 12 12 12 12 12 12 12 12 12 12 12 12 12 12 12 12 12 12 12 12 12 12 12 12 12 12 12 12 12 12 12 12 12 12 12 12 12 12 12 12 12 12 12 12 12 12 12 12 12 12 12 12 12 12 12 12 12 12 12 12 12 12 12 12 12 12 12 12 12 12 12 12 12 12 12 12 12 12 12 12 12 12 12 12 12 12 12 12 12 12 12 12 12 12 12 12 12 12 12 12 12 12 12 12 12 12 12 12 12 12 12 12 12 12 12 12 12 12 12 12 12 12 12 12 12 12 12 12 12 12 12 12 12 12 12 12 12 12 12 12 12 12 12 12 12 12 12 12 12 12 12 12 12 12 12 12 12 12 12 12 12 12 12 12 12 12 12 12 12 12 12 12 12 12 12 12 12 12 12 12 12 12 12 12 12 12 12 12 12 12 12 12 12 12 12 12 12 12 12 12 12 12 12 12 12 12 12 12 12 12 12 12 12 12 12 12 12 12 12 12 12 12 12 12 12 12 12 12 12 12 12 12 12 12 12 12 12 12 12 12 12 12 12 12 12 12 12 12 12 12 12 12 12 12 12 12 12 12 12 12 12 12 12 12 12 12 12 12 12 12 12 12 12 12 12 12 12 12 12 12 12 12 12 12 12 12 12 12 12 12 12 12 12 12 12 12 12 12 12 12 12 12 12 12 12 12 12 12 12 12 12 12 12 12 12 12 12 12 12 12 12 12 12 12 12 12 12 12 12 12 12 12 12 12 12 12 12 12 12 12 12 12 12 12 12 12 12 12 12 12 12 12 12 12 12 12 12 12 12 12 12 12 12 12 12 12 12 12 12 12 12 12 12 12 12 12 12 12 12 12 12 12 12 12 12 12 12 12 12 12 12 12 12 12 12 12 12 12 12 12 12 12 12 12 12 12 12 12 12 12 12 12 12 12 12 12 12 12 12 12 12 12 12 12 12 12 12 12 12 12 12 12 12 12 12 12 12 12 12 12 12 12 12 12 12 12 12 12 12 12 12 12 12 12 12 12 12 12 12 12 12 12 12 12 12 12 12 12 12 12 12 12 12 12 12 12 12 12 12 12 12 12 12 12 12 12 12 12 12 12 12 12 12 12 12 12 12 12 12 12 12 12 12 12 12 12 12 12 12 12 12 12 12 12 12 12 12 12 12 12 12 12 12 12 12 12 12 12 12 12 12 12 12 12 12 12 12 12 12 12 12 12 12 12 12 12 12 12 12 12 12 12 12 12 12 12 12 12 12 12 12 12 12 12 12 12 12 12 12 12 12 12 12 12 12 12 12 12 12 12 12 12 12 12 12 12 12 12 12 12 12 12 12 12 12 12 12 12 12 12 12 12 12 12 12 12 12 12 12 12 12 12 12 12 12 12 12 12 12 12 12 12 12 12 12 12 12 12 12 12 12 12 12 12 12 12 12 12 12 12 12 12 12 12 12 12 12 12 12 12 12 12 12 12 12 12 12 12 12 12 12 12 12 12 12 12 12 12 12 12 12 12 12 12 12 12 12 12 12 12 12 12 12 12 12 12 12 12 12 12 12 12 12 12 12 12 12 12 12 12 12 12 12 12 12 12 12 12 12 12 12 12 12 12 12 12 12 12 12 12 12 12 12 12 12 12 12 12 12 12 12 12 12 12 12 12 12 12 12 12 12 12 12 12 12 12 12 12 12 12 12 12 12 12 12 12 12 12 12 12 12 12 12 12 12 12 12 12 12 12 12 12 12 12 12 12 12 12 12 12 12 12 12 12 12 12 12 12 12 12 12 12 12 12 12 12 12 12 12 12 12 12 12 12 12 12 12 12 12 12 12 12 12 12 12 12 12 12 12 12 12 12 12 12 12 12 12 12 12 12 12 12 12 12 12 12 12 12 12 12 12 12 12 12 12 12 12 12 12 12 12 12 12 12 12 12 12 12 12 12 12 12 12 12 12 12 12 12 12 12 12 12 12 12 12 12 12 12 12 12 12 12 12 12 12 12 12 12 12 12 12 12 12 12 12 12 12 12 12 12 12 12 12 12 12 12 12 12 12 12 12 12 12 12 12 12 12 12 12 12 12 12 12 12 12 12 12 12 12 12 12 12 12 12 12 12 12 12 12 12 12 12 12 12 12 12 12 12 12 12 12 12 12 12 12 12 12 12 12 12 12 12 12 12 12 12 12 12 12 12 12 12 12 12 12 12 12 12 12 12 12 12 12 12 12 12 12 12 12 12 12 12 12 12 12 12 12 12 12 12 12 12 12 12 12 12 12 12 12 12 12 12 12 12 12 12 12 12 12 12 12 12 12 12 12 12 12 12 12 12 12 12 12 12 12 12 12 12 12 12 12 12 12 12 12 12 12 12 12 12 12 12 12 12 12 12 12 12 12 12 12 12 12 12 12 12 12 12 12 12 12 12 12 12 12 12 12 12 12 12 12 12 12 12 12 12 12 12 12 12 12 12 12 12 12 12 12 12 12 12 12 12 12 12 12 12 12 12 12 12 12 12 12 12 12 12 12 12 12 12 12 12 12 12 12 12 12 12 12 12 12 12 12 12 12 12 12 12 12 12 12 12 12 12 12 12 12 12 12 12 12 12 12 12 12 12 12 12 12 12 12 12 12 12 12 12 12 12 12 12 12 12 12 12 12 12 12 12 12 12 12 12 12 12 12 12 12 12 12 12 12 12 12 12 12 12 12 12 12 12 12 12 12 12 12 12 12 12 12 12 12 12 12 12 12 12 12 12 12 12 12 12 12 12 12 12 12 12 12 12 12 12 12 12 12 12 12 12 12 12 12 12 12 12 12 12 12 12 12 12 12 12 12 12 12 12 12 12 12 12 12 12 12 12 12 12 12 12 12 12 12 12 12 12 12 12 12 12 12 12 12 12 12 12 12 12 12 12 12 12 12 12 12 12 12 12 12 12 12 12 12 12 12 12 12 12 12 12 12 12 12 12 12 12 12 12 12 12 12 12 12 12 12 12 12 12 12 12 12 12 12 12 12 12 12 12 12 12 12 12 12 12 12 12 12 12 12 12 12 12 12 12 12 12 12 12 12 12 12 12 12 12 12 12 12 12 12 12 12 12 12 12 12 12 12 12 12 12 12 12 12 12 12 12 12 12 12 12 12 12 12 12 12 12 12 12 12 12 12 12 12 12 12 12 12 12 12 12 12 12 12 12 12 12 12 12 12 12 12 12 12 12 12 12 12 12 12 12 12 12 12 12 12 12 12 12 12 12 12 12 12 12 12 12 12 12 12 12 12 12 12 12 12 12 12 12 12 12 12 12 12 12 12 12 12 12 12 12 12 12 12 12 12 12 12 12 12 12 12 12 12 12 12 12 12 12 12 12 12 12 12 12 12 12 12 12 12 12 12 12 12 12 12 12 12 12 12 12 12 12 12 12 12 12 12 12 12 12 12 12 12 12 12 12 12 12 12 12 12 12 12 12 12 12 12 12 12 12 12 12 12 12 12 12 12 12 12 12 12 12 12 12 12 12 12 12 12 12 12 12 12 12 12 12 12 12 12 12 12 12 12 12 12 12 12 12 12 12 12 12 12 12 12 12 12 12 12 12 12 12 12 12 12 12 12 12 12 12 12 12 12 12 12 12 12 12 12 12 12 12 12 12 12 12 12 12 12 12 12 12 12 12 12 12 12 12 12 12 12 12 12 12 12 12 12 12 12 12 12 12 12 12 12 12 12 12 12 12 12 12 12 12 12 12 12 12 12 12 12 12 12 12 12 12 12 12 12 12 12 12 12 12 12 12 12 12 12 12 12 12 12 12 12 12 12 12 12 12 12 12 12 12 12 12 12 12 12 12 12 12 12 12 12 12 12 12 12 12 12 12 12 12 12 12 12 12 12 12 12 12 12 12 12 12 12 12 12 12 12 12 12 12 12 12 12 12 12 12 12 12 12 12 12 12 12 12 12 12 12 12 12 12 12 12 12 12 12 12 12 12 12 12 12 12 12 12 12 12 12 12 12 12 12 12 12 12 12 12 12 12 12 12 12 12 12 12 12 12 12 12 12 12 12 12 12 12 12 12 12 12 12 12 12 12 12 12 12 12 12 12 12 12 12 12 12 12 12 12 12 12 12 12 12 12 12 12 12 12 12 12 12 12 12 12 12 12 12 12 12 12 12 12 12 12 12 12 12 12 12 12 12 12 12 12 12 12 12 12 12 12 12 12 12 12 12 12 12 12 12 12 12 12 12 12 12 12 12 12 12 12 12 12 12 12 12 12 12 12 12 12 12 12 12 12 12 12 12 12 12 12 12 12 12 12 12 12 12 12 12 12 12 12 12 12 12 12 12 12 12 12 12 12 12 12 12 12 12 12 12 12 12 12 12 12 12 12 12 12 12 12 12 12 12 12 12 12 12 12 12 12 12 12 12 12 12 12 12 12 12 12 12 12 12 12 12 12 12 12 12 12 12 12 12 12 12 12 12 12 12 12 12 12 12 12 12 12 12 12 12 12 12 12 12 12 12 12 12 12 12 12 12 12 12 12 12 12 12 12 12 12 12 12 12 12 12 12 12 12 12 12 12 12 12 12 12 12 12 12 12 12 12 12 12 12 12 12 12 12 12 12 12 12 12 12 12 12 12 12 12 12 12 12 12 12 12 12 12 12 12 12 12 12 12 12 12 12 12 12 12 12 12 12 12 12 12 12 12 12 12 12 12 12 12 12 12 12 12 12 12 12 12 12 12 12 12 12 12 12 12 12 12 12 12 12 12 12 12 12 12 12 12 12 12 12 12 12 12 12 12 12 12 12 12 12 12 12 12 12 12 12 12 12 12 12 12 12 12 12 12 12 12 12 12 12 12 12 12 12 12 12 12 12 12 12 12 12 12 12 12 12 12 12 12 12 12 12 12 12 12 12 12 12 12 12 12 12 12 12 12 12 12 12 12 12 12 12 12 12 12 12 12 12 12 12 12 12 12 12 12 12 12 12 12 12 12 12 12 12 12 12 12 12 12 12 12 12 12 12 12 12 12 12 12 12 12 12 12 12 12 12 12 12 12 12 12 12 12 12 12 12 12 12 12 12 12 12 12 12 12 12 12 12 12 12 12 12 12 12 12 12 12 12 12 12 12 12 12 12 12 12 12 12 12 12 12 12 12 12 12 12 12 12 12 12 12 12 12 12 12 12 12 12 12 12 12 12 12 12 12 12 12 12 12 12 12 12 12 12 12 12 12 12 12 12 12 12 12 12 12 12 12 12 12 12 12 12 12 12 12 12 12 12 12 12 12 12 12 12 12 12 12 12 12 12 12 12 12 12 12 12 12 12 12 12 12 12 12 12 12 12 12 12 12 12 12 12 12 12 12 12 12 12 12 12 12 12 12 12 12 12 12 12 12 12 12 12 12 12 12 12 12 12 12 12 12 12 12 12 12 12 12 12 12 12 12 12 12 12 12 12 12 12 12 12 12 12 12 12 12 12 12 12 12 12 12 12 12 12 12 12 12 12 12 12 12 12 12 12 12 12 12 12 12 12 12 12 12 12 12 12 12 12 12 12 12 12 12 12 12 12 12 12 12 12 12 12 12 12 12 12 12 12 12 12 12 12 12 12 12 12 12 12 12 12 12 12 12 12 12 12 12 12 12 12 12 12 12 12 12 12 12 12 12 12 12 12 12 12 12 12 12 12 12 12 12 12 12 12 12 12 12 12 12 12 12 12 12 12 12 12 12 12 12 12 12 12 12 12 12 12 12 12 12 12 12 12 12 12 12 12 12 12 12 12 12 12 12 12 12 12 12 12 12 12 12 12 12 12 12 12 12 12 12 12 12 12 12 12 12 12 12 12 12 12 12 12 12 12 12 12 12 12 12 12 12 12 12 12 12 12 12 12 12 12 12 12 12 12 12 12 12 12 12 12 12 12 12 12 12 12 12 12 12 12 12 12 12 12 12 12 12 12 12 12 12 12 12 12 12 12 12 12 12 12 12 12 12 12 12 12 12 12 12 12 12 12 12 12 12 12 12 12 12 12 12 12 12 12 12 12 12 12 12 12 12 12 12 12 12 12 12 12 12 12 12 12 12 12 12 12 12 12 12 12 12 12 12 12 12 12 12 12 12 12 12 12 12 12 12 12 12 12 12 12 12 12 12 12 12 12 12 12 12 12 12 12 12 12 12 12 12 12 12 12 12 12 12 12 12 12 12 12 12 12 12 12 12 12 12 12 12 12 12 12 12 12 12 12 12 12 12 12 12 12 12 12 12 12 12 12 12 12 12 12 12 12 12 12 12 12 12 12 12 12 12 12 12 12 12 12 12 12 12 12 12 12 12 12 12 12 12 12 12 12 12 12 12 12 12 12 12 12 12 12 12 12 12 12 12 12 12 12 12 12 12 12 12 12 12 12 12 12 12 12 12 12 12 12 12 12 12 12 12 12 12 12 12 12 12 12 12 12 12 12 12 12 12 12 12 12 12 12 12 12 12 12 12 12 12 12 12 12 12 12 12 12 12 12 12 12 12 12 12 12 12 12 12 12 12 12 12 12 12 12 12 12 12 12 12 12 12 12 12 12 12 12 12 12 12 12 12 12 12 12 12 12 12 12 12 12 12 12 12 12 12 12 12 12 12 12 12 12 12 12 12 12 12 12 12 12 12 12 12 12 12 12 12 12 12 12 12 12 12 12 12 12 12 12 12 12 12 12 12 12 12 12 12 12 12 12 12 12 12 12 12 12 12 12 12 12 12 12 12 12 12 12 12 12 12 12 12 12 12 12 12 12 12 12 12 12 12 12 12 12 12 12 12 12 12 12 12 12 12 12 12 12 12 12 12 12 12 12 12 12 12 12 12 12 12 12 12 12 12 12 12 12 12 12 12 12 12 12 12 12 12 12 12 12 12 12 12 12 12 12 12 12 12 12 12 12 12 12 12 12 12 12 12 12 12 12 12 12 12 12 12 12 12 12 12 12 12 12 12 12 12 12 12 12 12 12 12 12 12 12 12 12 12 12 12 12 12 12 12 12 12 12 12 12 12 12 12 12 12 12 12 12 12 12 12 12 12 12 12 12 12 12 12 12 12 12 12 12 12 12 12 12 12 12 12 12 12 12 12 12 12 12 12 12 12 12 12 12 12 12 12 12 12 12 12 12 12 12 12 12 12 12 12 12 12 12 12 12 12 12 12 12 12 12 12 12 12 12 12 12 12 12 12 12 12 12 12 12 12 12 12 12 12 12 12 12 12 12 12 12 12 12 12 12 12 12 12 12 12 12 12 12 12 12 12 12 12 12 12 12 12 12 12 12 12 12 12 12 12 12 12 12 12 12 12 12 12 12 12 12 12 12 12 12 12 12 12 12 12 12 12 12 12 12 12 12 12 12 12 12 12 12 12 12 12 12 12 12 12 12 12 12 12 12 12 12 12 12 12 12 12 12 12 12 12 12 12 12 12 12 12 12 12 12 12 12 12 12 12 12 12 12 12 12 12 12 12 12 12 12 12 12 12 12 12 12 12 12 12 12 12 12 12 12 12 12 12 12 12 12 12 12 12 12 12 12 12 12 12 12 12 12 12 12 12 12 12 12 12 12 12 12 12 12 12 12 12 12 12 12 12 12 12 12 12 12 12 12 12 12 12 12 12 12 12 12 12 12 12 12 12 12 12 12 12 12 12 12 12 12 12 12 12 12 12 12 12 12 12 12 12 12 12 12 12 12 12 12 12 12 12 12 12 12 12 12 12 12 12 12 12 12 12 12 12 12 12 12 12 12 12 12 12 12 12 12 12 12 12 12 12 12 12 12 12 12 12 12 12 12 12 12 12 12 12 12 12 12 12 12 12 12 12 12 12 12 12 12 12 12 12 12 12 12 12 12 12 12 12 12 12 12 12 12 12 12 12 12 12 12 12 12 12 12 12 12 12 12 12 12 12 12 12 12 12 12 12 12 12 12 12 12 12 12 12 12 12 12 12 12 12 12 12 12 12 12 12 12 12 12 12 12 12 12 12 12 12 12 12 12 12 12 12 12 12 12 12 12 12 12 12 12 12 12 12 12 12 12 12 12 12 12 12 12 12 12 12 12 12 12 12 12 12 12 12 12 12 12 12 12 12 12 12 12 12 12 12 12 12 12 12 12 12 12 12 12 12 12 12 12 12 12 12 12 12 12 12 12 12 12 12 12 12 12 12 12 12 12 12 12 12 12 12 12 12 12 12 12 12 12 12 12 12 12 12 12 12 12 12 12 12 12 12 12 12 12 12 12 12 12 12 12 12 12 12 12 12 12 12 12 12 12 12 12 12 12 12 12 12 12 12 12 12 12 12 12 12 12 12 12 12 12 12 12 12 12 12 12 12 12 12 12 12 12 12 12 12 12 12 12 12 12 12 12 12 12 12 12 12 12 12 12 12 12 12 12 12 12 12 12 12 12 12 12 12 12 12 12 12 12 12 12 12 12 12 12 12 12 12 12 12 12 12 12 12 12 12 12 12 12 12 12 12 12 12 12 12 12 12 12 12 12 12 12 12 12 12 12 12 12 12 12 12 12 12 12 12 12 12 12 12 12 12 12 12 12 12 12 12 12 12 12 12 12 12 12 12 12 12 12 12 12 12 12 12 12 12 12 12 12 12 12 12 12 12 12 12 12 12 12 12 12 12 12 12 12 12 12 12 12 12 12 12 12 12 12 12 12 12 12 12 12 12 12 12 12 12 12 12 12 12 12 12 12 12 12 12 12 12 12 12 12 12 12 12 12 12 12 12 12 12 12 12 12 12 12 12 12 12 12 12 12 12 12 12 12 12 12 12 12 12 12 12 12 12 12 12 12 12 12 12 12 12 12 12 12 12 12 12 12 12 12 12 12 12 12 12 12 12 12 12 12 12 12 12 12 12 12 12 12 12 12 12 12 12 12 12 12 12 12 12 12 12 12 12 12 12 12 12 12 12 12 12 12 12 12 12 12 12 12 12 12 12 12 12 12 12 12 12 12 12 12 12 12 12 12 12 12 12 12 12 12 12 12 12 12 12 12 12 12 12 12 12 12 12 12 12 12 12 12 12 12 12 12 12 12 12 12 12 12 12 12 12 12 12 12 12 12 12 12 12 12 12 12 12 12 12 12 12 12 12 12 12 12 12 12 12 12 12 12 12 12 12 12 12 12 12 12 12 12 12 12 12 12 12 12 12 12 12 12 12 12 12 12 12 12 12 12 12 12 12 12 12 12 12 12 12 12 12 12 12 12 12 12 12 12 12 12 12 12 12 12 12 12 12 12 12 12 12 12 12 12 12 12 12 12 12 12 12 12 12 12 12 12 12 12 12 12 12 12 12 12 12 12 12 12 12 12 12 12 12 12 12 12 12 12 12 12 12 12 12 12 12 12 12 12 12 12 12 12 12 12 12 12 12 12 12 12 12 12 12 12 12 12 12 12 12 12 12 12 12 12 12 12 12 12 12 12 12 12 12 12 12 12 12 12 12 12 12 12 12 12 12 12 12 12 12 12 12 12 12 12 12 12 12 12 12 12 12 12 12 12 12 12 12 12 12 12 12 12 12 12 12 12 12 12 12 12 12 12 12 12 12 12 12 12 12 12 12 12 12 12 12 12 12 12 12 12 12 12 12 12 12 12 12 12 12 12 12 12 12 12 12 12 12 12 12 12 12 12 12 12 12 12 12 12 12 12 12 12 12 12 12 12 12 12 12 12 12 12 12 12 12 12 12 12 12 12 12 12 12 12 12 12 12 12 12 12 12 12 12 12 12 12 12 12 12 12 12 12 12 12 12 12 12 12 12 12 12 12 12 12 12 12 12 12 12 12 12 12 12 12 12 12 12 12 12 12 12 12 12 12 12 12 12 12 12 12 12 12 12 12 12 12 12 12 12 12 12 12 12 12 12 12 12 12 12 12 12 12 12 12 12 12 12 12 12 12 12 12 12 12 12 12 12 12 12 12 12 12 12 12 12 12 12 12 12 12 12 12 12 12 12 12 12 12 12 12 12 12 12 12 12 12 12 12 12 12 12 12 12 12 12 12 12 12 12 12 12 12 12 12 12 12 12 12 12 12 12 12 12 12 12 12 12 12 12 12 12 12 12 12 12 12 12 12 12 12 12 12 12 12 12 12 12 12 12 12 12 12 12 12 12 12 12 12 12 12 12 12 12 12 12 12 12 12 12 12 12 12 12 12 12 12 12 12 12 12 12 12 12 12 12 12 12 12 12 12 12 12 12 12 12 12 12 12 12 12 12 12 12 12 12 12 12 12 12 12 12 12 12 12 12 12 12 12 12 12 12 12 12 12 12 12 12 12 12 12 12 12 12 12 12 12 12 12 12 12 12 12 12 12 12 12 12 12 12 12 12 12 12 12 12 12 12 12 12 12 12 12 12 12 12 12 12 12 12 12 12 12 12 12 12 12 12 12 12 12 12 12 12 12 12 12 12 12 12 12 12 12 12 12 12 12 12 12 12 12 12 12 12 12 12 12 12 12 12 12 12 12 12 12 12 12 12 12 12 12 12 12 12 12 12 12 12 12 12 12 12 12 12 12 12 12 12 12 12 12 12 12 12 12 12 12 12 12 12 12 12 12 12 12 12 12 12 12 12 12 12 12 12 12 12 12 12 12 12 12 12 12 12 12 12 12 12 12 12 12 12 12 12 12 12 12 12 12 12 12 12 12 12 12 12 12 12 12 12 12 12 12 12 12 12 12 12 12 12 12 12 12 12 12 12 12 12 12 12 12 12 12 12 12 12 12 12 12 12 12 12 12 12 12 12 12 12 12 12 12 12 12 12 12 12 12 12 12 12 12 12 12 12 12 12 12 12 12 12 12 12 12 12 12 12 12 12 12 12 12 12 12 12 12 12 12 12 12 12 12 12 12 12 12 12 12 12 12 12 12 12 12 12 12 12 12 12 12 12 12 12 12 12 12 12 12 12 12 12 12 12 12 12 12 12 12 12 12 12 12 12 12 12 12 12 12 12 12 12 12 12 12 12 12 12 12 12 12 12 12 12 12 12 12 12 12 12 12 12 12 12 12 12 12 12 12 12 12 12 12 12 12 12 12 12 12 12 12 12 12 12 12 12 12 12 12 12 12 12 12 12 12 12 12 12 12 12 12 12 12 12 12 12 12 12 12 12 12 12 12 12 12 12 12 12 12 12 12 12 12 12 12 12 12 12 12 12 12 12 12 12 12 12 12 12 12 12 12 12 12 12 12 12 12 12 12 12 12 12 12 12 12 12 12 12 12 12 12 12 12 12 12 12 12 12 12 12 12 12 12 12 12 12 12 12 12 12 12 12 12 12 12 12 12 12 12 12 12 12 12 12 12 12 12 12 12 12 12 12 12 12 12 12 12 12 12 12 12 12 12 12 12 12 12 12 12 12 12 12 12 12 12 12 12 12 12 12 12 12 12 12 12 12 12 12 12 12 12 12 12 12 12 12 12 12 12 12 12 12 12 12 12 12 12 12 12 12 12 12 12 12 12 12 12 12 12 12 12 12 12 12 12 12 12 12 12 12 12 12 12 12 12 12 12 12 12 12 12 12 12 12 12 12 12 12 12 12 12 12 12 12 12 12 12 12 12 12 12 12 12 12 12 12 12 12 12 12 12 12 12 12 12 12 12 12 12 12 12 12 12 12 12 12 12 12 12 12 12 12 12 12 12 12 12 12 12 12 12 12 12 12 12 12 12 12 12 12 12 12 12 12 12 12 12 12 12 12 12 12 12 12 12 12 12 12 12 12 12 12 12 12 12 12 12 12 12 12 12 12 12 12 12 12 12 12 12 12 12 12 12 12 12 12 12 12 12 12 12 12 12 12 12 12 12 12 12 12 12 12 12 12 12 12 12 12 12 12 12 12 12 12 12 12 12 12 12 12 12 12 12 12 12 12 12 12 12 12 12 12 12 12 12 12 12 12 12 12 12 12 12 12 12 12 12 12 12 12 12 12 12 12 12 12 12 12 12 12 12 12 12 12 12 12 12 12 12 12 12 12 12 12 12 12 12 12 12 12 12 12 

POINT_DATA 15625
SCALARS weights float 1
LOOKUP_TABLE default
0.00904225 0.0180845 0.0180845 0.0180845 0.0180845 0.0180845 0.0180845 0.0180845 0.0180845 0.0180845 0.0180845 0.0180845 0.0180845 0.0180845 0.0180845 0.0180845 0.0180845 0.0180845 0.0180845 0.0180845 0.0180845 0.0180845 0.0180845 0.0180845 0.00904224 0.0180845 0.036169 0.036169 0.036169 0.036169 0.036169 0.036169 0.036169 0.036169 0.036169 0.036169 0.036169 0.036169 0.036169 0.036169 0.036169 0.036169 0.036169 0.036169 0.036169 0.036169 0.036169 0.036169 0.036169 0.0180845 0.0180845 0.036169 0.036169 0.036169 0.036169 0.036169 0.036169 0.036169 0.036169 0.036169 0.036169 0.036169 0.036169 0.036169 0.036169 0.036169 0.036169 0.036169 0.036169 0.036169 0.036169 0.036169 0.036169 0.036169 0.0180845 0.0180845 0.036169 0.036169 0.036169 0.036169 0.036169 0.036169 0.036169 0.036169 0.036169 0.036169 0.036169 0.036169 0.036169 0.036169 0.036169 0.036169 0.036169 0.036169 0.036169 0.036169 0.036169 0.036169 0.036169 0.0180845 0.0180845 0.036169 0.036169 0.036169 0.036169 0.036169 0.036169 0.036169 0.036169 0.036169 0.036169 0.036169 0.036169 0.036169 0.036169 0.036169 0.036169 0.036169 0.036169 0.036169 0.036169 0.036169 0.036169 0.036169 0.0180845 0.0180845 0.036169 0.036169 0.036169 0.036169 0.036169 0.036169 0.036169 0.036169 0.036169 0.036169 0.036169 0.036169 0.036169 0.036169 0.036169 0.036169 0.036169 0.036169 0.036169 0.036169 0.036169 0.036169 0.036169 0.0180845 0.0180845 0.036169 0.036169 0.036169 0.036169 0.036169 0.036169 0.036169 0.036169 0.036169 0.036169 0.036169 0.036169 0.036169 0.036169 0.036169 0.036169 0.036169 0.036169 0.036169 0.036169 0.036169 0.036169 0.036169 0.0180845 0.0180845 0.036169 0.036169 0.036169 0.036169 0.036169 0.036169 0.036169 0.036169 0.036169 0.036169 0.036169 0.036169 0.036169 0.036169 0.036169 0.036169 0.036169 0.036169 0.036169 0.036169 0.036169 0.036169 0.036169 0.0180845 0.0180845 0.036169 0.036169 0.036169 0.036169 0.036169 0.036169 0.036169 0.036169 0.036169 0.036169 0.036169 0.036169 0.036169 0.036169 0.036169 0.036169 0.036169 0.036169 0.036169 0.036169 0.036169 0.036169 0.036169 0.0180845 0.0180845 0.036169 0.036169 0.036169 0.036169 0.036169 0.036169 0.036169 0.036169 0.036169 0.036169 0.036169 0.036169 0.036169 0.036169 0.036169 0.036169 0.036169 0.036169 0.036169 0.036169 0.036169 0.036169 0.036169 0.0180845 0.0180845 0.036169 0.036169 0.036169 0.036169 0.036169 0.036169 0.036169 0.036169 0.036169 0.036169 0.036169 0.036169 0.036169 0.036169 0.036169 0.036169 0.036169 0.036169 0.036169 0.036169 0.036169 0.036169 0.036169 0.0180845 0.0180845 0.036169 0.036169 0.036169 0.036169 0.036169 0.036169 0.036169 0.036169 0.036169 0.036169 0.036169 0.036169 0.036169 0.036169 0.036169 0.036169 0.036169 0.036169 0.036169 0.036169 0.036169 0.036169 0.036169 0.0180845 0.0180845 0.036169 0.036169 0.036169 0.036169 0.036169 0.036169 0.036169 0.036169 0.036169 0.036169 0.036169 0.036169 0.036169 0.036169 0.036169 0.036169 0.036169 0.036169 0.036169 0.036169 0.036169 0.036169 0.036169 0.0180845 0.0180845 0.036169 0.036169 0.036169 0.036169 0.036169 0.036169 0.036169 0.036169 0.036169 0.036169 0.036169 0.036169 0.036169 0.036169 0.036169 0.036169 0.036169 0.036169 0.036169 0.036169 0.036169 0.036169 0.036169 0.0180845 0.0180845 0.036169 0.036169 0.036169 0.036169 0.036169 0.036169 0.036169 0.036169 0.036169 0.036169 0.036169 0.036169 0.036169 0.036169 0.036169 0.036169 0.036169 0.036169 0.036169 0.036169 0.036169 0.036169 0.036169 0.0180845 0.0180845 0.036169 0.036169 0.036169 0.036169 0.036169 0.036169 0.036169 0.036169 0.036169 0.036169 0.036169 0.036169 0.036169 0.036169 0.036169 0.036169 0.036169 0.036169 0.036169 0.036169 0.036169 0.036169 0.036169 0.0180845 0.0180845 0.036169 0.036169 0.036169 0.036169 0.036169 0.036169 0.036169 0.036169 0.036169 0.036169 0.036169 0.036169 0.036169 0.036169 0.036169 0.036169 0.036169 0.036169 0.036169 0.036169 0.036169 0.036169 0.036169 0.0180845 0.0180845 0.036169 0.036169 0.036169 0.036169 0.036169 0.036169 0.036169 0.036169 0.036169 0.036169 0.036169 0.036169 0.036169 0.036169 0.036169 0.036169 0.036169 0.036169 0.036169 0.036169 0.036169 0.036169 0.036169 0.0180845 0.0180845 0.036169 0.036169 0.036169 0.036169 0.036169 0.036169 0.036169 0.0361689 0.036169 0.036169 0.0361689 0.036169 0.036169 0.0361689 0.036169 0.036169 0.0361689 0.0361689 0.036169 0.036169 0.0361689 0.036169 0.036169 0.0180845 0.0180845 0.036169 0.036169 0.036169 0.036169 0.036169 0.036169 0.036169 0.036169 0.036169 0.036169 0.036169 0.036169 0.036169 0.036169 0.036169 0.036169 0.036169 0.036169 0.036169 0.036169 0.036169 0.036169 0.036169 0.0180845 0.0180845 0.036169 0.036169 0.036169 0.036169 0.036169 0.036169 0.036169 0.036169 0.036169 0.036169 0.036169 0.036169 0.036169 0.036169 0.036169 0.036169 0.036169 0.036169 0.036169 0.036169 0.036169 0.036169 0.036169 0.0180845 0.0180845 0.036169 0.036169 0.036169 0.036169 0.036169 0.036169 0.036169 0.036169 0.036169 0.036169 0.036169 0.036169 0.036169 0.036169 0.036169 0.036169 0.0361689 0.0361689 0.036169 0.036169 0.0361689 0.036169 0.036169 0.0180845 0.0180845 0.036169 0.036169 0.036169 0.036169 0.036169 0.036169 0.036169 0.036169 0.036169 0.036169 0.036169 0.036169 0.036169 0.036169 0.036169 0.036169 0.036169 0.036169 0.036169 0.036169 0.036169 0.036169 0.036169 0.0180845 0.0180845 0.036169 0.036169 0.036169 0.036169 0.036169 0.036169 0.036169 0.036169 0.036169 0.036169 0.036169 0.036169 0.036169 0.036169 0.036169 0.036169 0.036169 0.036169 0.036169 0.036169 0.036169 0.036169 0.036169 0.0180845 0.00904224 0.0180845 0.0180845 0.0180845 0.0180845 0.0180845 0.0180845 0.0180845 0.0180845 0.0180845 0.0180845 0.0180845 0.0180845 0.0180845 0.0180845 0.0180845 0.0180845 0.0180845 0.0180845 0.0180845 0.0180845 0.0180845 0.0180845 0.0180845 0.00904223 0.0180845 0.036169 0.036169 0.036169 0.036169 0.036169 0.036169 0.036169 0.036169 0.036169 0.036169 0.036169 0.036169 0.036169 0.036169 0.036169 0.036169 0.036169 0.036169 0.036169 0.036169 0.036169 0.036169 0.036169 0.0180845 0.036169 0.072338 0.072338 0.072338 0.072338 0.072338 0.072338 0.072338 0.072338 0.072338 0.072338 0.072338 0.072338 0.072338 0.072338 0.072338 0.072338 0.0723379 0.0723379 0.072338 0.072338 0.0723379 0.072338 0.072338 0.0361689 0.036169 0.072338 0.072338 0.072338 0.072338 0.072338 0.072338 0.072338 0.072338 0.072338 0.072338 0.0723379 0.072338 0.072338 0.0723379 0.072338 0.072338 0.0723379 0.0723379 0.072338 0.072338 0.0723379 0.072338 0.072338 0.0361689 0.036169 0.072338 0.072338 0.072338 0.072338 0.072338 0.072338 0.072338 0.072338 0.072338 0.072338 0.0723379 0.072338 0.072338 0.0723379 0.072338 0.072338 0.0723379 0.0723379 0.072338 0.072338 0.0723379 0.072338 0.072338 0.0361689 0.036169 0.072338 0.072338 0.072338 0.072338 0.072338 0.072338 0.072338 0.072338 0.072338 0.072338 0.072338 0.072338 0.072338 0.072338 0.072338 0.072338 0.0723379 0.0723379 0.072338 0.072338 0.0723379 0.072338 0.072338 0.0361689 0.036169 0.072338 0.072338 0.072338 0.072338 0.072338 0.072338 0.072338 0.0723379 0.072338 0.072338 0.0723379 0.072338 0.072338 0.0723379 0.072338 0.072338 0.0723379 0.0723379 0.072338 0.072338 0.0723379 0.072338 0.072338 0.0361689 0.036169 0.072338 0.072338 0.072338 0.072338 0.072338 0.072338 0.072338 0.072338 0.072338 0.072338 0.0723379 0.072338 0.072338 0.0723379 0.072338 0.072338 0.0723379 0.0723379 0.072338 0.072338 0.0723379 0.072338 0.072338 0.0361689 0.036169 0.072338 0.072338 0.072338 0.072338 0.072338 0.072338 0.072338 0.072338 0.072338 0.072338 0.072338 0.072338 0.072338 0.072338 0.072338 0.072338 0.0723379 0.0723379 0.072338 0.072338 0.0723379 0.072338 0.072338 0.0361689 0.036169 0.0723379 0.0723379 0.0723379 0.072338 0.0723379 0.072338 0.072338 0.0723379 0.072338 0.072338 0.0723379 0.072338 0.072338 0.0723379 0.072338 0.072338 0.0723379 0.0723379 0.072338 0.072338 0.0723379 0.072338 0.0723379 0.0361689 0.036169 0.072338 0.072338 0.072338 0.072338 0.072338 0.072338 0.072338 0.072338 0.072338 0.072338 0.0723379 0.072338 0.072338 0.0723379 0.072338 0.072338 0.0723379 0.0723379 0.072338 0.072338 0.0723379 0.072338 0.072338 0.0361689 0.036169 0.072338 0.072338 0.072338 0.072338 0.072338 0.072338 0.072338 0.072338 0.072338 0.072338 0.0723379 0.072338 0.072338 0.072338 0.072338 0.072338 0.0723379 0.0723379 0.072338 0.072338 0.0723379 0.072338 0.072338 0.0361689 0.036169 0.072338 0.072338 0.072338 0.072338 0.0723379 0.072338 0.072338 0.0723379 0.072338 0.072338 0.0723379 0.072338 0.072338 0.0723379 0.072338 0.072338 0.0723379 0.0723379 0.072338 0.072338 0.0723379 0.072338 0.0723379 0.0361689 0.036169 0.072338 0.072338 0.072338 0.072338 0.072338 0.072338 0.072338 0.072338 0.072338 0.072338 0.072338 0.072338 0.072338 0.072338 0.072338 0.072338 0.0723379 0.0723379 0.072338 0.072338 0.0723379 0.072338 0.072338 0.0361689 0.036169 0.072338 0.072338 0.072338 0.072338 0.072338 0.072338 0.072338 0.072338 0.072338 0.072338 0.072338 0.072338 0.072338 0.072338 0.072338 0.072338 0.0723379 0.0723379 0.072338 0.072338 0.0723379 0.072338 0.072338 0.0361689 0.036169 0.0723379 0.0723379 0.0723379 0.072338 0.0723379 0.0723379 0.072338 0.0723379 0.072338 0.072338 0.0723379 0.072338 0.072338 0.0723379 0.072338 0.072338 0.0723379 0.0723379 0.072338 0.072338 0.0723379 0.072338 0.0723379 0.0361689 0.036169 0.072338 0.072338 0.072338 0.072338 0.072338 0.072338 0.072338 0.0723379 0.072338 0.072338 0.0723379 0.072338 0.072338 0.0723379 0.072338 0.072338 0.0723379 0.0723379 0.072338 0.072338 0.0723379 0.072338 0.072338 0.0361689 0.036169 0.072338 0.072338 0.072338 0.072338 0.072338 0.072338 0.072338 0.072338 0.072338 0.072338 0.072338 0.072338 0.072338 0.072338 0.072338 0.0723381 0.072338 0.072338 0.0723381 0.072338 0.072338 0.072338 0.072338 0.036169 0.036169 0.0723379 0.0723379 0.0723379 0.072338 0.0723379 0.0723379 0.072338 0.0723379 0.072338 0.072338 0.0723379 0.0723379 0.072338 0.0723379 0.0723379 0.072338 0.0723379 0.0723379 0.072338 0.072338 0.0723379 0.072338 0.0723379 0.0361689 0.036169 0.0723379 0.0723379 0.0723379 0.0723379 0.0723379 0.0723379 0.0723379 0.0723379 0.0723379 0.0723379 0.0723379 0.0723379 0.0723379 0.0723379 0.0723379 0.072338 0.0723379 0.0723379 0.072338 0.0723379 0.0723379 0.0723379 0.0723379 0.0361689 0.036169 0.072338 0.072338 0.072338 0.072338 0.072338 0.072338 0.072338 0.072338 0.072338 0.072338 0.072338 0.072338 0.072338 0.072338 0.072338 0.072338 0.072338 0.072338 0.072338 0.072338 0.072338 0.072338 0.072338 0.036169 0.036169 0.072338 0.072338 0.072338 0.072338 0.072338 0.072338 0.072338 0.072338 0.072338 0.072338 0.072338 0.072338 0.072338 0.072338 0.072338 0.072338 0.0723379 0.0723379 0.072338 0.072338 0.0723379 0.072338 0.072338 0.0361689 0.036169 0.0723379 0.0723379 0.0723379 0.0723379 0.0723379 0.0723379 0.0723379 0.0723379 0.0723379 0.0723379 0.0723379 0.0723379 0.072338 0.0723379 0.0723379 0.072338 0.0723379 0.0723379 0.072338 0.0723379 0.0723379 0.072338 0.0723379 0.0361689 0.036169 0.072338 0.072338 0.072338 0.072338 0.072338 0.072338 0.072338 0.072338 0.072338 0.072338 0.072338 0.072338 0.072338 0.072338 0.072338 0.072338 0.072338 0.0723379 0.072338 0.072338 0.0723379 0.072338 0.072338 0.036169 0.036169 0.0723379 0.0723379 0.072338 0.072338 0.072338 0.072338 0.072338 0.0723379 0.072338 0.072338 0.0723379 0.072338 0.072338 0.0723379 0.072338 0.072338 0.0723379 0.0723379 0.072338 0.072338 0.0723379 0.072338 0.072338 0.0361689 0.0180845 0.0361689 0.0361689 0.0361689 0.0361689 0.0361689 0.0361689 0.0361689 0.0361689 0.0361689 0.0361689 0.0361689 0.0361689 0.036169 0.0361689 0.0361689 0.036169 0.0361689 0.0361689 0.036169 0.0361689 0.0361689 0.036169 0.0361689 0.0180845 0.0180845 0.036169 0.036169 0.036169 0.036169 0.036169 0.036169 0.036169 0.036169 0.036169 0.036169 0.036169 0.036169 0.036169 0.036169 0.036169 0.036169 0.036169 0.036169 0.036169 0.036169 0.036169 0.036169 0.036169 0.0180845 0.036169 0.072338 0.072338 0.072338 0.072338 0.072338 0.072338 0.072338 0.072338 0.072338 0.072338 0.0723379 0.072338 0.072338 0.0723379 0.072338 0.072338 0.0723379 0.0723379 0.072338 0.072338 0.0723379 0.072338 0.072338 0.0361689 0.036169 0.072338 0.072338 0.072338 0.072338 0.072338 0.072338 0.072338 0.072338 0.072338 0.072338 0.0723379 0.072338 0.072338 0.0723379 0.072338 0.072338 0.0723379 0.0723379 0.072338 0.072338 0.0723379 0.072338 0.072338 0.0361689 0.036169 0.072338 0.072338 0.072338 0.072338 0.072338 0.072338 0.072338 0.072338 0.072338 0.072338 0.0723379 0.072338 0.072338 0.0723379 0.072338 0.072338 0.0723379 0.0723379 0.072338 0.072338 0.0723379 0.072338 0.072338 0.0361689 0.036169 0.072338 0.072338 0.072338 0.072338 0.072338 0.072338 0.072338 0.072338 0.072338 0.072338 0.072338 0.072338 0.072338 0.072338 0.072338 0.072338 0.0723379 0.0723379 0.072338 0.072338 0.0723379 0.072338 0.072338 0.0361689 0.036169 0.072338 0.072338 0.072338 0.072338 0.072338 0.072338 0.072338 0.0723379 0.072338 0.072338 0.0723379 0.072338 0.072338 0.0723379 0.072338 0.072338 0.0723379 0.0723379 0.072338 0.072338 0.0723379 0.072338 0.072338 0.0361689 0.036169 0.072338 0.072338 0.072338 0.072338 0.072338 0.072338 0.072338 0.072338 0.072338 0.072338 0.0723379 0.072338 0.072338 0.0723379 0.072338 0.072338 0.0723379 0.0723379 0.072338 0.072338 0.0723379 0.072338 0.072338 0.0361689 0.036169 0.072338 0.072338 0.072338 0.072338 0.072338 0.072338 0.072338 0.072338 0.072338 0.072338 0.0723379 0.072338 0.072338 0.072338 0.072338 0.072338 0.0723379 0.0723379 0.072338 0.072338 0.0723379 0.072338 0.072338 0.0361689 0.036169 0.0723379 0.0723379 0.0723379 0.0723379 0.0723379 0.0723379 0.072338 0.0723379 0.072338 0.072338 0.0723379 0.0723379 0.072338 0.0723379 0.0723379 0.072338 0.0723379 0.0723379 0.072338 0.072338 0.0723379 0.072338 0.0723379 0.0361689 0.036169 0.072338 0.072338 0.072338 0.072338 0.072338 0.072338 0.072338 0.072338 0.072338 0.072338 0.0723379 0.072338 0.072338 0.0723379 0.072338 0.072338 0.0723379 0.0723379 0.072338 0.072338 0.0723379 0.072338 0.072338 0.0361689 0.036169 0.072338 0.072338 0.072338 0.072338 0.072338 0.072338 0.072338 0.072338 0.072338 0.072338 0.072338 0.072338 0.072338 0.072338 0.072338 0.072338 0.0723379 0.0723379 0.072338 0.072338 0.0723379 0.072338 0.072338 0.0361689 0.036169 0.072338 0.072338 0.072338 0.072338 0.0723379 0.072338 0.072338 0.0723379 0.072338 0.072338 0.0723379 0.072338 0.072338 0.0723379 0.072338 0.072338 0.0723379 0.0723379 0.072338 0.072338 0.0723379 0.072338 0.0723379 0.0361689 0.036169 0.072338 0.072338 0.072338 0.072338 0.072338 0.072338 0.072338 0.072338 0.072338 0.072338 0.072338 0.072338 0.072338 0.072338 0.072338 0.072338 0.0723379 0.0723379 0.072338 0.072338 0.0723379 0.072338 0.072338 0.0361689 0.036169 0.072338 0.072338 0.072338 0.072338 0.072338 0.072338 0.072338 0.072338 0.072338 0.072338 0.072338 0.072338 0.072338 0.072338 0.072338 0.072338 0.0723379 0.0723379 0.072338 0.072338 0.0723379 0.072338 0.072338 0.0361689 0.036169 0.072338 0.072338 0.0723379 0.072338 0.0723379 0.0723379 0.072338 0.0723379 0.0723379 0.0723379 0.0723379 0.0723379 0.072338 0.0723379 0.0723379 0.072338 0.0723379 0.0723379 0.072338 0.072338 0.0723379 0.072338 0.0723379 0.0361689 0.036169 0.072338 0.0723379 0.072338 0.072338 0.0723379 0.072338 0.072338 0.0723379 0.072338 0.072338 0.0723379 0.072338 0.072338 0.0723379 0.072338 0.072338 0.0723379 0.0723379 0.072338 0.072338 0.0723379 0.072338 0.072338 0.0361689 0.036169 0.072338 0.072338 0.072338 0.072338 0.072338 0.072338 0.072338 0.072338 0.072338 0.072338 0.072338 0.072338 0.072338 0.072338 0.072338 0.0723381 0.072338 0.072338 0.0723381 0.072338 0.072338 0.072338 0.072338 0.036169 0.036169 0.0723379 0.0723379 0.0723379 0.0723379 0.0723379 0.0723379 0.072338 0.0723379 0.072338 0.0723379 0.0723379 0.0723379 0.072338 0.0723379 0.0723379 0.072338 0.0723379 0.0723379 0.072338 0.0723379 0.0723379 0.072338 0.0723379 0.0361689 0.036169 0.0723379 0.0723379 0.0723379 0.0723379 0.0723379 0.0723379 0.0723379 0.0723379 0.0723379 0.0723379 0.0723379 0.0723379 0.0723379 0.0723379 0.0723379 0.072338 0.0723379 0.0723379 0.072338 0.0723379 0.0723379 0.0723379 0.0723379 0.0361689 0.036169 0.072338 0.072338 0.072338 0.072338 0.072338 0.072338 0.072338 0.072338 0.072338 0.072338 0.072338 0.072338 0.072338 0.072338 0.072338 0.072338 0.072338 0.072338 0.072338 0.072338 0.072338 0.072338 0.072338 0.036169 0.036169 0.072338 0.072338 0.072338 0.072338 0.072338 0.072338 0.072338 0.0723379 0.072338 0.072338 0.0723379 0.072338 0.072338 0.072338 0.072338 0.072338 0.0723379 0.0723379 0.072338 0.072338 0.0723379 0.072338 0.072338 0.0361689 0.036169 0.0723379 0.0723379 0.0723379 0.0723379 0.0723379 0.0723379 0.0723379 0.0723379 0.0723379 0.0723379 0.0723379 0.0723379 0.072338 0.0723379 0.0723379 0.072338 0.0723379 0.0723379 0.072338 0.0723379 0.0723379 0.072338 0.0723379 0.0361689 0.036169 0.072338 0.072338 0.072338 0.072338 0.072338 0.072338 0.072338 0.072338 0.072338 0.072338 0.072338 0.072338 0.072338 0.072338 0.072338 0.072338 0.072338 0.0723379 0.072338 0.072338 0.0723379 0.072338 0.072338 0.036169 0.036169 0.0723379 0.0723379 0.072338 0.072338 0.0723379 0.072338 0.072338 0.0723379 0.072338 0.072338 0.0723379 0.072338 0.072338 0.0723379 0.072338 0.072338 0.0723379 0.0723379 0.072338 0.072338 0.0723379 0.072338 0.072338 0.0361689 0.0180845 0.0361689 0.0361689 0.0361689 0.0361689 0.0361689 0.0361689 0.0361689 0.0361689 0.0361689 0.0361689 0.0361689 0.0361689 0.036169 0.0361689 0.0361689 0.036169 0.0361689 0.0361689 0.036169 0.0361689 0.0361689 0.036169 0.0361689 0.0180845 0.0180845 0.036169 0.036169 0.036169 0.036169 0.036169 0.036169 0.036169 0.036169 0.036169 0.036169 0.036169 0.036169 0.036169 0.036169 0.036169 0.036169 0.036169 0.036169 0.036169 0.036169 0.036169 0.036169 0.036169 0.0180845 0.036169 0.072338 0.072338 0.072338 0.072338 0.072338 0.072338 0.072338 0.072338 0.072338 0.072338 0.0723379 0.072338 0.072338 0.0723379 0.072338 0.072338 0.0723379 0.0723379 0.072338 0.072338 0.0723379 0.072338 0.072338 0.0361689 0.036169 0.072338 0.072338 0.072338 0.072338 0.072338 0.072338 0.072338 0.072338 0.072338 0.072338 0.0723379 0.072338 0.072338 0.0723379 0.072338 0.072338 0.0723379 0.0723379 0.072338 0.072338 0.0723379 0.072338 0.072338 0.0361689 0.036169 0.072338 0.072338 0.072338 0.072338 0.072338 0.072338 0.072338 0.0723379 0.072338 0.072338 0.0723379 0.072338 0.072338 0.0723379 0.072338 0.072338 0.0723379 0.0723379 0.072338 0.072338 0.0723379 0.072338 0.072338 0.0361689 0.036169 0.072338 0.072338 0.072338 0.072338 0.072338 0.072338 0.072338 0.072338 0.072338 0.072338 0.072338 0.072338 0.072338 0.072338 0.072338 0.072338 0.0723379 0.0723379 0.072338 0.072338 0.0723379 0.072338 0.072338 0.0361689 0.036169 0.072338 0.072338 0.072338 0.072338 0.072338 0.072338 0.072338 0.0723379 0.072338 0.072338 0.0723379 0.072338 0.072338 0.0723379 0.072338 0.072338 0.0723379 0.0723379 0.072338 0.072338 0.0723379 0.072338 0.072338 0.0361689 0.036169 0.072338 0.072338 0.072338 0.072338 0.072338 0.072338 0.072338 0.072338 0.072338 0.072338 0.0723379 0.072338 0.072338 0.072338 0.072338 0.072338 0.0723379 0.0723379 0.072338 0.072338 0.0723379 0.072338 0.072338 0.0361689 0.036169 0.072338 0.072338 0.072338 0.072338 0.072338 0.072338 0.072338 0.072338 0.072338 0.072338 0.072338 0.072338 0.072338 0.072338 0.072338 0.072338 0.0723379 0.0723379 0.072338 0.072338 0.0723379 0.072338 0.072338 0.0361689 0.036169 0.0723379 0.0723379 0.0723379 0.072338 0.0723379 0.0723379 0.072338 0.0723379 0.072338 0.072338 0.0723379 0.072338 0.072338 0.0723379 0.0723379 0.072338 0.0723379 0.0723379 0.072338 0.072338 0.0723379 0.072338 0.0723379 0.0361689 0.036169 0.072338 0.072338 0.072338 0.072338 0.072338 0.072338 0.072338 0.0723379 0.072338 0.072338 0.0723379 0.072338 0.072338 0.0723379 0.072338 0.072338 0.0723379 0.0723379 0.072338 0.072338 0.0723379 0.072338 0.072338 0.0361689 0.036169 0.072338 0.072338 0.072338 0.072338 0.072338 0.072338 0.072338 0.072338 0.072338 0.072338 0.0723379 0.072338 0.072338 0.0723379 0.072338 0.072338 0.0723379 0.0723379 0.072338 0.072338 0.0723379 0.072338 0.072338 0.0361689 0.036169 0.072338 0.072338 0.072338 0.072338 0.072338 0.072338 0.072338 0.0723379 0.072338 0.072338 0.0723379 0.072338 0.072338 0.0723379 0.072338 0.072338 0.0723379 0.0723379 0.072338 0.072338 0.0723379 0.072338 0.0723379 0.0361689 0.036169 0.072338 0.072338 0.072338 0.072338 0.072338 0.072338 0.072338 0.072338 0.072338 0.072338 0.072338 0.072338 0.072338 0.072338 0.072338 0.072338 0.0723379 0.0723379 0.072338 0.072338 0.0723379 0.072338 0.072338 0.0361689 0.036169 0.072338 0.072338 0.072338 0.072338 0.072338 0.072338 0.072338 0.072338 0.072338 0.072338 0.072338 0.072338 0.072338 0.072338 0.072338 0.072338 0.0723379 0.0723379 0.072338 0.072338 0.0723379 0.072338 0.072338 0.0361689 0.036169 0.0723379 0.0723379 0.0723379 0.0723379 0.0723379 0.0723379 0.072338 0.0723379 0.072338 0.072338 0.0723379 0.0723379 0.072338 0.0723379 0.072338 0.072338 0.0723379 0.0723379 0.072338 0.072338 0.0723379 0.072338 0.0723379 0.0361689 0.036169 0.072338 0.0723379 0.072338 0.072338 0.0723379 0.072338 0.072338 0.0723379 0.072338 0.072338 0.0723379 0.072338 0.072338 0.0723379 0.072338 0.072338 0.0723379 0.0723379 0.072338 0.072338 0.0723379 0.072338 0.072338 0.0361689 0.036169 0.072338 0.072338 0.072338 0.072338 0.072338 0.072338 0.072338 0.072338 0.072338 0.072338 0.072338 0.072338 0.072338 0.072338 0.072338 0.0723381 0.072338 0.072338 0.0723381 0.072338 0.072338 0.072338 0.072338 0.036169 0.036169 0.0723379 0.0723379 0.0723379 0.0723379 0.0723379 0.0723379 0.072338 0.0723379 0.072338 0.072338 0.0723379 0.072338 0.072338 0.0723379 0.0723379 0.072338 0.0723379 0.0723379 0.072338 0.072338 0.0723379 0.072338 0.0723379 0.0361689 0.036169 0.0723379 0.0723379 0.0723379 0.0723379 0.0723379 0.0723379 0.0723379 0.0723379 0.0723379 0.0723379 0.0723379 0.0723379 0.0723379 0.0723379 0.0723379 0.072338 0.0723379 0.0723379 0.072338 0.0723379 0.0723379 0.0723379 0.0723379 0.0361689 0.036169 0.072338 0.072338 0.072338 0.072338 0.072338 0.072338 0.072338 0.072338 0.072338 0.072338 0.072338 0.072338 0.072338 0.072338 0.072338 0.072338 0.072338 0.072338 0.072338 0.072338 0.072338 0.072338 0.072338 0.036169 0.036169 0.072338 0.072338 0.072338 0.072338 0.072338 0.072338 0.072338 0.072338 0.072338 0.072338 0.0723379 0.072338 0.072338 0.072338 0.072338 0.072338 0.0723379 0.0723379 0.072338 0.072338 0.0723379 0.072338 0.072338 0.0361689 0.036169 0.0723379 0.0723379 0.0723379 0.0723379 0.0723379 0.0723379 0.0723379 0.0723379 0.0723379 0.0723379 0.0723379 0.0723379 0.072338 0.0723379 0.0723379 0.072338 0.0723379 0.0723379 0.072338 0.0723379 0.0723379 0.072338 0.0723379 0.0361689 0.036169 0.072338 0.072338 0.072338 0.072338 0.072338 0.072338 0.072338 0.072338 0.072338 0.072338 0.072338 0.072338 0.072338 0.072338 0.072338 0.072338 0.072338 0.072338 0.072338 0.072338 0.0723379 0.072338 0.072338 0.036169 0.036169 0.072338 0.072338 0.072338 0.072338 0.072338 0.072338 0.072338 0.0723379 0.072338 0.072338 0.0723379 0.072338 0.072338 0.0723379 0.072338 0.072338 0.0723379 0.0723379 0.072338 0.072338 0.0723379 0.072338 0.072338 0.0361689 0.0180845 0.0361689 0.0361689 0.0361689 0.0361689 0.0361689 0.0361689 0.036169 0.0361689 0.0361689 0.0361689 0.0361689 0.0361689 0.036169 0.0361689 0.0361689 0.036169 0.0361689 0.0361689 0.036169 0.036169 0.0361689 0.036169 0.0361689 0.0180845 0.0180845 0.036169 0.036169 0.036169 0.036169 0.036169 0.036169 0.036169 0.036169 0.036169 0.036169 0.036169 0.036169 0.036169 0.036169 0.036169 0.036169 0.036169 0.036169 0.036169 0.036169 0.036169 0.036169 0.036169 0.0180845 0.036169 0.072338 0.072338 0.072338 0.072338 0.072338 0.072338 0.072338 0.072338 0.072338 0.072338 0.072338 0.072338 0.072338 0.072338 0.072338 0.072338 0.0723379 0.0723379 0.072338 0.072338 0.0723379 0.072338 0.072338 0.0361689 0.036169 0.072338 0.072338 0.072338 0.072338 0.072338 0.072338 0.072338 0.072338 0.072338 0.072338 0.072338 0.072338 0.072338 0.072338 0.072338 0.072338 0.0723379 0.0723379 0.072338 0.072338 0.0723379 0.072338 0.072338 0.0361689 0.036169 0.072338 0.072338 0.072338 0.072338 0.072338 0.072338 0.072338 0.072338 0.072338 0.072338 0.072338 0.072338 0.072338 0.072338 0.072338 0.072338 0.0723379 0.0723379 0.072338 0.072338 0.0723379 0.072338 0.072338 0.0361689 0.036169 0.072338 0.072338 0.072338 0.072338 0.072338 0.072338 0.072338 0.072338 0.072338 0.072338 0.072338 0.072338 0.072338 0.072338 0.072338 0.072338 0.0723379 0.0723379 0.072338 0.072338 0.0723379 0.072338 0.072338 0.0361689 0.036169 0.072338 0.072338 0.072338 0.072338 0.072338 0.072338 0.072338 0.072338 0.072338 0.072338 0.0723379 0.072338 0.072338 0.0723379 0.072338 0.072338 0.0723379 0.0723379 0.072338 0.072338 0.0723379 0.072338 0.072338 0.0361689 0.036169 0.072338 0.072338 0.072338 0.072338 0.072338 0.072338 0.072338 0.072338 0.072338 0.072338 0.072338 0.072338 0.072338 0.072338 0.072338 0.072338 0.0723379 0.0723379 0.072338 0.072338 0.0723379 0.072338 0.072338 0.0361689 0.036169 0.072338 0.072338 0.072338 0.072338 0.072338 0.072338 0.072338 0.072338 0.072338 0.072338 0.072338 0.072338 0.072338 0.072338 0.072338 0.072338 0.0723379 0.0723379 0.072338 0.072338 0.0723379 0.072338 0.072338 0.0361689 0.036169 0.072338 0.072338 0.072338 0.072338 0.0723379 0.072338 0.072338 0.0723379 0.072338 0.072338 0.0723379 0.072338 0.072338 0.0723379 0.072338 0.072338 0.0723379 0.0723379 0.072338 0.072338 0.0723379 0.072338 0.072338 0.0361689 0.036169 0.072338 0.072338 0.072338 0.072338 0.072338 0.072338 0.072338 0.072338 0.072338 0.072338 0.0723379 0.072338 0.072338 0.0723379 0.072338 0.072338 0.0723379 0.0723379 0.072338 0.072338 0.0723379 0.072338 0.072338 0.0361689 0.036169 0.072338 0.072338 0.072338 0.072338 0.072338 0.072338 0.072338 0.072338 0.072338 0.072338 0.072338 0.072338 0.072338 0.072338 0.072338 0.072338 0.0723379 0.0723379 0.072338 0.072338 0.0723379 0.072338 0.072338 0.0361689 0.036169 0.072338 0.072338 0.072338 0.072338 0.072338 0.072338 0.072338 0.0723379 0.072338 0.072338 0.0723379 0.072338 0.072338 0.0723379 0.072338 0.072338 0.0723379 0.0723379 0.072338 0.072338 0.0723379 0.072338 0.072338 0.0361689 0.036169 0.072338 0.072338 0.072338 0.072338 0.072338 0.072338 0.072338 0.072338 0.072338 0.072338 0.072338 0.072338 0.072338 0.072338 0.072338 0.072338 0.072338 0.0723379 0.072338 0.072338 0.0723379 0.072338 0.072338 0.0361689 0.036169 0.072338 0.072338 0.072338 0.072338 0.072338 0.072338 0.072338 0.072338 0.072338 0.072338 0.072338 0.072338 0.072338 0.072338 0.072338 0.072338 0.072338 0.072338 0.072338 0.072338 0.072338 0.072338 0.072338 0.036169 0.036169 0.072338 0.072338 0.072338 0.072338 0.072338 0.072338 0.072338 0.0723379 0.072338 0.072338 0.0723379 0.072338 0.072338 0.0723379 0.072338 0.072338 0.0723379 0.0723379 0.072338 0.072338 0.0723379 0.072338 0.072338 0.0361689 0.036169 0.072338 0.072338 0.072338 0.072338 0.072338 0.072338 0.072338 0.072338 0.072338 0.072338 0.0723379 0.072338 0.072338 0.0723379 0.072338 0.072338 0.0723379 0.0723379 0.072338 0.072338 0.0723379 0.072338 0.072338 0.0361689 0.036169 0.072338 0.072338 0.072338 0.072338 0.072338 0.072338 0.072338 0.072338 0.072338 0.072338 0.072338 0.072338 0.0723381 0.072338 0.072338 0.0723381 0.072338 0.072338 0.0723381 0.072338 0.072338 0.0723381 0.072338 0.036169 0.036169 0.072338 0.0723379 0.0723379 0.072338 0.0723379 0.0723379 0.072338 0.0723379 0.072338 0.072338 0.0723379 0.072338 0.072338 0.0723379 0.0723379 0.072338 0.0723379 0.0723379 0.072338 0.072338 0.0723379 0.072338 0.072338 0.0361689 0.036169 0.0723379 0.0723379 0.0723379 0.0723379 0.0723379 0.0723379 0.0723379 0.0723379 0.0723379 0.0723379 0.0723379 0.0723379 0.0723379 0.0723379 0.0723379 0.072338 0.0723379 0.0723379 0.072338 0.0723379 0.0723379 0.0723379 0.0723379 0.0361689 0.036169 0.072338 0.072338 0.072338 0.072338 0.072338 0.072338 0.072338 0.072338 0.072338 0.072338 0.072338 0.072338 0.072338 0.072338 0.072338 0.0723381 0.072338 0.072338 0.0723381 0.072338 0.072338 0.072338 0.072338 0.036169 0.036169 0.072338 0.072338 0.072338 0.072338 0.072338 0.072338 0.072338 0.072338 0.072338 0.072338 0.072338 0.072338 0.072338 0.072338 0.072338 0.072338 0.0723379 0.0723379 0.072338 0.072338 0.0723379 0.072338 0.072338 0.0361689 0.036169 0.0723379 0.0723379 0.0723379 0.072338 0.0723379 0.0723379 0.072338 0.0723379 0.0723379 0.0723379 0.0723379 0.0723379 0.072338 0.0723379 0.0723379 0.072338 0.0723379 0.0723379 0.072338 0.0723379 0.0723379 0.072338 0.0723379 0.0361689 0.036169 0.072338 0.072338 0.072338 0.072338 0.072338 0.072338 0.072338 0.072338 0.072338 0.072338 0.072338 0.072338 0.072338 0.072338 0.072338 0.072338 0.072338 0.072338 0.072338 0.072338 0.072338 0.072338 0.072338 0.036169 0.036169 0.072338 0.072338 0.072338 0.072338 0.072338 0.072338 0.072338 0.072338 0.072338 0.072338 0.0723379 0.072338 0.072338 0.0723379 0.072338 0.072338 0.0723379 0.0723379 0.072338 0.072338 0.0723379 0.072338 0.072338 0.0361689 0.0180845 0.0361689 0.0361689 0.0361689 0.0361689 0.0361689 0.0361689 0.036169 0.0361689 0.0361689 0.036169 0.0361689 0.0361689 0.036169 0.0361689 0.0361689 0.036169 0.0361689 0.0361689 0.036169 0.036169 0.0361689 0.036169 0.0361689 0.0180845 0.0180845 0.036169 0.036169 0.036169 0.036169 0.036169 0.036169 0.036169 0.036169 0.036169 0.036169 0.036169 0.036169 0.036169 0.036169 0.036169 0.036169 0.036169 0.036169 0.036169 0.036169 0.036169 0.036169 0.036169 0.0180845 0.036169 0.072338 0.072338 0.072338 0.072338 0.072338 0.072338 0.072338 0.0723379 0.072338 0.072338 0.0723379 0.072338 0.072338 0.0723379 0.072338 0.072338 0.0723379 0.0723379 0.072338 0.072338 0.0723379 0.072338 0.072338 0.0361689 0.036169 0.072338 0.072338 0.072338 0.072338 0.072338 0.072338 0.072338 0.0723379 0.072338 0.072338 0.0723379 0.072338 0.072338 0.0723379 0.072338 0.072338 0.0723379 0.0723379 0.072338 0.072338 0.0723379 0.072338 0.072338 0.0361689 0.036169 0.072338 0.072338 0.072338 0.072338 0.072338 0.072338 0.072338 0.072338 0.072338 0.072338 0.0723379 0.072338 0.072338 0.0723379 0.072338 0.072338 0.0723379 0.0723379 0.072338 0.072338 0.0723379 0.072338 0.072338 0.0361689 0.036169 0.072338 0.072338 0.072338 0.072338 0.072338 0.072338 0.072338 0.072338 0.072338 0.072338 0.0723379 0.072338 0.072338 0.0723379 0.072338 0.072338 0.0723379 0.0723379 0.072338 0.072338 0.0723379 0.072338 0.072338 0.0361689 0.036169 0.072338 0.072338 0.072338 0.072338 0.0723379 0.072338 0.072338 0.0723379 0.072338 0.072338 0.0723379 0.072338 0.072338 0.0723379 0.0723379 0.072338 0.0723379 0.0723379 0.072338 0.072338 0.0723379 0.072338 0.072338 0.0361689 0.036169 0.072338 0.072338 0.072338 0.072338 0.072338 0.072338 0.072338 0.0723379 0.072338 0.072338 0.0723379 0.072338 0.072338 0.0723379 0.072338 0.072338 0.0723379 0.0723379 0.072338 0.072338 0.0723379 0.072338 0.072338 0.0361689 0.036169 0.072338 0.072338 0.072338 0.072338 0.072338 0.072338 0.072338 0.072338 0.072338 0.072338 0.0723379 0.072338 0.072338 0.0723379 0.072338 0.072338 0.0723379 0.0723379 0.072338 0.072338 0.0723379 0.072338 0.072338 0.0361689 0.036169 0.0723379 0.0723379 0.0723379 0.0723379 0.0723379 0.0723379 0.072338 0.0723379 0.0723379 0.072338 0.0723379 0.0723379 0.072338 0.0723379 0.0723379 0.072338 0.0723379 0.0723379 0.072338 0.0723379 0.0723379 0.072338 0.0723379 0.0361689 0.036169 0.072338 0.072338 0.072338 0.072338 0.072338 0.072338 0.072338 0.0723379 0.072338 0.072338 0.0723379 0.072338 0.072338 0.0723379 0.072338 0.072338 0.0723379 0.0723379 0.072338 0.072338 0.0723379 0.072338 0.072338 0.0361689 0.036169 0.072338 0.072338 0.072338 0.072338 0.072338 0.072338 0.072338 0.0723379 0.072338 0.072338 0.0723379 0.072338 0.072338 0.0723379 0.072338 0.072338 0.0723379 0.0723379 0.072338 0.072338 0.0723379 0.072338 0.072338 0.0361689 0.036169 0.0723379 0.0723379 0.0723379 0.0723379 0.0723379 0.0723379 0.072338 0.0723379 0.0723379 0.072338 0.0723379 0.072338 0.072338 0.0723379 0.0723379 0.072338 0.0723379 0.0723379 0.072338 0.072338 0.0723379 0.072338 0.0723379 0.0361689 0.036169 0.072338 0.072338 0.072338 0.072338 0.072338 0.072338 0.072338 0.072338 0.072338 0.072338 0.0723379 0.072338 0.072338 0.0723379 0.072338 0.072338 0.0723379 0.0723379 0.072338 0.072338 0.0723379 0.072338 0.072338 0.0361689 0.036169 0.072338 0.072338 0.072338 0.072338 0.072338 0.072338 0.072338 0.072338 0.072338 0.072338 0.072338 0.072338 0.072338 0.072338 0.072338 0.072338 0.0723379 0.0723379 0.072338 0.072338 0.0723379 0.072338 0.072338 0.0361689 0.036169 0.0723379 0.0723379 0.0723379 0.0723379 0.0723379 0.0723379 0.0723379 0.0723379 0.0723379 0.0723379 0.0723379 0.0723379 0.072338 0.0723379 0.0723379 0.072338 0.0723379 0.0723379 0.072338 0.0723379 0.0723379 0.072338 0.0723379 0.0361689 0.036169 0.0723379 0.0723379 0.0723379 0.072338 0.0723379 0.0723379 0.072338 0.0723379 0.072338 0.072338 0.0723379 0.072338 0.072338 0.0723379 0.0723379 0.072338 0.0723379 0.0723379 0.072338 0.072338 0.0723379 0.072338 0.0723379 0.0361689 0.036169 0.072338 0.072338 0.072338 0.072338 0.072338 0.072338 0.072338 0.072338 0.072338 0.072338 0.072338 0.072338 0.072338 0.072338 0.072338 0.0723381 0.072338 0.072338 0.0723381 0.072338 0.072338 0.072338 0.072338 0.036169 0.036169 0.0723379 0.0723379 0.0723379 0.0723379 0.0723379 0.0723379 0.0723379 0.0723379 0.0723379 0.0723379 0.0723379 0.0723379 0.072338 0.0723379 0.0723379 0.072338 0.0723379 0.0723379 0.072338 0.0723379 0.0723379 0.072338 0.0723379 0.0361689 0.036169 0.0723379 0.0723379 0.0723379 0.0723379 0.0723379 0.0723379 0.0723379 0.0723379 0.0723379 0.0723379 0.0723379 0.0723379 0.0723379 0.0723379 0.0723379 0.072338 0.0723379 0.0723379 0.0723379 0.0723379 0.0723379 0.0723379 0.0723379 0.0361689 0.036169 0.072338 0.072338 0.072338 0.072338 0.072338 0.072338 0.072338 0.072338 0.072338 0.072338 0.072338 0.072338 0.072338 0.072338 0.072338 0.072338 0.072338 0.0723379 0.072338 0.072338 0.0723379 0.072338 0.072338 0.036169 0.036169 0.072338 0.072338 0.072338 0.072338 0.072338 0.072338 0.072338 0.0723379 0.072338 0.072338 0.0723379 0.072338 0.072338 0.0723379 0.072338 0.072338 0.0723379 0.0723379 0.072338 0.072338 0.0723379 0.072338 0.072338 0.0361689 0.036169 0.0723379 0.0723379 0.0723379 0.0723379 0.0723379 0.0723379 0.0723379 0.0723379 0.0723379 0.0723379 0.0723379 0.0723379 0.072338 0.0723379 0.0723379 0.072338 0.0723379 0.0723379 0.072338 0.0723379 0.0723379 0.072338 0.0723379 0.0361689 0.036169 0.072338 0.072338 0.072338 0.072338 0.072338 0.072338 0.072338 0.072338 0.072338 0.072338 0.072338 0.072338 0.072338 0.072338 0.072338 0.072338 0.0723379 0.0723379 0.072338 0.072338 0.0723379 0.072338 0.072338 0.0361689 0.036169 0.0723379 0.0723379 0.072338 0.072338 0.0723379 0.0723379 0.072338 0.0723379 0.072338 0.072338 0.0723379 0.072338 0.072338 0.0723379 0.0723379 0.072338 0.0723379 0.0723379 0.072338 0.072338 0.0723379 0.072338 0.0723379 0.0361689 0.0180845 0.0361689 0.0361689 0.0361689 0.0361689 0.0361689 0.0361689 0.0361689 0.0361689 0.0361689 0.0361689 0.0361689 0.0361689 0.036169 0.0361689 0.0361689 0.036169 0.0361689 0.0361689 0.036169 0.0361689 0.0361689 0.036169 0.0361689 0.0180844 0.0180845 0.036169 0.036169 0.036169 0.036169 0.036169 0.036169 0.036169 0.036169 0.036169 0.036169 0.036169 0.036169 0.036169 0.036169 0.036169 0.036169 0.036169 0.036169 0.036169 0.036169 0.036169 0.036169 0.036169 0.0180845 0.036169 0.072338 0.072338 0.072338 0.072338 0.072338 0.072338 0.072338 0.072338 0.072338 0.072338 0.0723379 0.072338 0.072338 0.0723379 0.072338 0.072338 0.0723379 0.0723379 0.072338 0.072338 0.0723379 0.072338 0.072338 0.0361689 0.036169 0.072338 0.072338 0.072338 0.072338 0.072338 0.072338 0.072338 0.0723379 0.072338 0.072338 0.0723379 0.072338 0.072338 0.0723379 0.072338 0.072338 0.0723379 0.0723379 0.072338 0.072338 0.0723379 0.072338 0.072338 0.0361689 0.036169 0.072338 0.072338 0.072338 0.072338 0.072338 0.072338 0.072338 0.072338 0.072338 0.072338 0.0723379 0.072338 0.072338 0.0723379 0.072338 0.072338 0.0723379 0.0723379 0.072338 0.072338 0.0723379 0.072338 0.072338 0.0361689 0.036169 0.072338 0.072338 0.072338 0.072338 0.072338 0.072338 0.072338 0.072338 0.072338 0.072338 0.072338 0.072338 0.072338 0.072338 0.072338 0.072338 0.0723379 0.0723379 0.072338 0.072338 0.0723379 0.072338 0.072338 0.0361689 0.036169 0.072338 0.072338 0.072338 0.072338 0.0723379 0.072338 0.072338 0.0723379 0.072338 0.072338 0.0723379 0.072338 0.072338 0.0723379 0.072338 0.072338 0.0723379 0.0723379 0.072338 0.072338 0.0723379 0.072338 0.072338 0.0361689 0.036169 0.072338 0.072338 0.072338 0.072338 0.072338 0.072338 0.072338 0.072338 0.072338 0.072338 0.0723379 0.072338 0.072338 0.0723379 0.072338 0.072338 0.0723379 0.0723379 0.072338 0.072338 0.0723379 0.072338 0.072338 0.0361689 0.036169 0.072338 0.072338 0.072338 0.072338 0.072338 0.072338 0.072338 0.072338 0.072338 0.072338 0.072338 0.072338 0.072338 0.072338 0.072338 0.072338 0.0723379 0.0723379 0.072338 0.072338 0.0723379 0.072338 0.072338 0.0361689 0.036169 0.072338 0.0723379 0.0723379 0.072338 0.0723379 0.072338 0.072338 0.0723379 0.072338 0.072338 0.0723379 0.072338 0.072338 0.0723379 0.0723379 0.072338 0.0723379 0.0723379 0.072338 0.072338 0.0723379 0.072338 0.0723379 0.0361689 0.036169 0.072338 0.072338 0.072338 0.072338 0.072338 0.072338 0.072338 0.072338 0.072338 0.072338 0.0723379 0.072338 0.072338 0.0723379 0.072338 0.072338 0.0723379 0.0723379 0.072338 0.072338 0.0723379 0.072338 0.072338 0.0361689 0.036169 0.072338 0.072338 0.072338 0.072338 0.072338 0.072338 0.072338 0.072338 0.072338 0.072338 0.0723379 0.072338 0.072338 0.072338 0.072338 0.072338 0.0723379 0.0723379 0.072338 0.072338 0.0723379 0.072338 0.072338 0.0361689 0.036169 0.072338 0.072338 0.072338 0.072338 0.072338 0.072338 0.072338 0.0723379 0.072338 0.072338 0.0723379 0.072338 0.072338 0.0723379 0.072338 0.072338 0.0723379 0.0723379 0.072338 0.072338 0.0723379 0.072338 0.072338 0.0361689 0.036169 0.072338 0.072338 0.072338 0.072338 0.072338 0.072338 0.072338 0.072338 0.072338 0.072338 0.072338 0.072338 0.072338 0.072338 0.072338 0.072338 0.0723379 0.0723379 0.072338 0.072338 0.0723379 0.072338 0.072338 0.0361689 0.036169 0.072338 0.072338 0.072338 0.072338 0.072338 0.072338 0.072338 0.072338 0.072338 0.072338 0.072338 0.072338 0.072338 0.072338 0.072338 0.072338 0.072338 0.072338 0.072338 0.072338 0.0723379 0.072338 0.072338 0.036169 0.036169 0.0723379 0.0723379 0.0723379 0.0723379 0.0723379 0.0723379 0.072338 0.0723379 0.072338 0.072338 0.0723379 0.072338 0.072338 0.0723379 0.0723379 0.072338 0.0723379 0.0723379 0.072338 0.072338 0.0723379 0.072338 0.0723379 0.0361689 0.036169 0.072338 0.072338 0.072338 0.072338 0.0723379 0.072338 0.072338 0.0723379 0.072338 0.072338 0.0723379 0.072338 0.072338 0.0723379 0.072338 0.072338 0.0723379 0.0723379 0.072338 0.072338 0.0723379 0.072338 0.0723379 0.0361689 0.036169 0.072338 0.072338 0.072338 0.072338 0.072338 0.072338 0.072338 0.072338 0.072338 0.072338 0.072338 0.072338 0.072338 0.072338 0.072338 0.0723381 0.072338 0.072338 0.0723381 0.072338 0.072338 0.072338 0.072338 0.036169 0.036169 0.0723379 0.0723379 0.0723379 0.0723379 0.0723379 0.0723379 0.0723379 0.0723379 0.0723379 0.0723379 0.0723379 0.0723379 0.072338 0.0723379 0.0723379 0.072338 0.0723379 0.0723379 0.072338 0.0723379 0.0723379 0.072338 0.0723379 0.0361689 0.036169 0.0723379 0.0723379 0.0723379 0.0723379 0.0723379 0.0723379 0.0723379 0.0723379 0.0723379 0.0723379 0.0723379 0.0723379 0.0723379 0.0723379 0.0723379 0.072338 0.0723379 0.0723379 0.072338 0.0723379 0.0723379 0.0723379 0.0723379 0.0361689 0.036169 0.072338 0.072338 0.072338 0.072338 0.072338 0.072338 0.072338 0.072338 0.072338 0.072338 0.072338 0.072338 0.072338 0.072338 0.072338 0.072338 0.072338 0.072338 0.072338 0.072338 0.072338 0.072338 0.072338 0.036169 0.036169 0.072338 0.072338 0.072338 0.072338 0.072338 0.072338 0.072338 0.072338 0.072338 0.072338 0.0723379 0.072338 0.072338 0.0723379 0.072338 0.072338 0.0723379 0.0723379 0.072338 0.072338 0.0723379 0.072338 0.072338 0.0361689 0.036169 0.0723379 0.0723379 0.0723379 0.0723379 0.0723379 0.0723379 0.0723379 0.0723379 0.0723379 0.0723379 0.0723379 0.0723379 0.072338 0.0723379 0.0723379 0.072338 0.0723379 0.0723379 0.072338 0.0723379 0.0723379 0.072338 0.0723379 0.0361689 0.036169 0.072338 0.072338 0.072338 0.072338 0.072338 0.072338 0.072338 0.072338 0.072338 0.072338 0.072338 0.072338 0.072338 0.072338 0.072338 0.072338 0.072338 0.0723379 0.072338 0.072338 0.072338 0.072338 0.072338 0.036169 0.036169 0.072338 0.072338 0.072338 0.072338 0.0723379 0.072338 0.072338 0.0723379 0.072338 0.072338 0.0723379 0.072338 0.072338 0.0723379 0.072338 0.072338 0.0723379 0.0723379 0.072338 0.072338 0.0723379 0.072338 0.0723379 0.0361689 0.0180845 0.0361689 0.0361689 0.0361689 0.0361689 0.0361689 0.0361689 0.0361689 0.0361689 0.0361689 0.036169 0.0361689 0.0361689 0.036169 0.0361689 0.0361689 0.036169 0.0361689 0.0361689 0.036169 0.0361689 0.0361689 0.036169 0.0361689 0.0180845 0.0180845 0.036169 0.036169 0.036169 0.036169 0.036169 0.036169 0.036169 0.036169 0.036169 0.036169 0.036169 0.036169 0.036169 0.036169 0.036169 0.036169 0.036169 0.036169 0.036169 0.036169 0.036169 0.036169 0.036169 0.0180845 0.036169 0.072338 0.072338 0.072338 0.072338 0.072338 0.072338 0.072338 0.072338 0.072338 0.072338 0.0723379 0.072338 0.072338 0.072338 0.072338 0.072338 0.0723379 0.0723379 0.072338 0.072338 0.0723379 0.072338 0.072338 0.0361689 0.036169 0.072338 0.072338 0.072338 0.072338 0.072338 0.072338 0.072338 0.072338 0.072338 0.072338 0.0723379 0.072338 0.072338 0.072338 0.072338 0.072338 0.0723379 0.0723379 0.072338 0.072338 0.0723379 0.072338 0.072338 0.0361689 0.036169 0.072338 0.072338 0.072338 0.072338 0.072338 0.072338 0.072338 0.072338 0.072338 0.072338 0.0723379 0.072338 0.072338 0.072338 0.072338 0.072338 0.0723379 0.0723379 0.072338 0.072338 0.0723379 0.072338 0.072338 0.0361689 0.036169 0.072338 0.072338 0.072338 0.072338 0.072338 0.072338 0.072338 0.072338 0.072338 0.072338 0.072338 0.072338 0.072338 0.072338 0.072338 0.072338 0.0723379 0.0723379 0.072338 0.072338 0.0723379 0.072338 0.072338 0.0361689 0.036169 0.072338 0.072338 0.072338 0.072338 0.072338 0.072338 0.072338 0.072338 0.072338 0.072338 0.0723379 0.072338 0.072338 0.0723379 0.072338 0.072338 0.0723379 0.0723379 0.072338 0.072338 0.0723379 0.072338 0.072338 0.0361689 0.036169 0.072338 0.072338 0.072338 0.072338 0.072338 0.072338 0.072338 0.072338 0.072338 0.072338 0.072338 0.072338 0.072338 0.072338 0.072338 0.072338 0.0723379 0.0723379 0.072338 0.072338 0.0723379 0.072338 0.072338 0.0361689 0.036169 0.072338 0.072338 0.072338 0.072338 0.072338 0.072338 0.072338 0.072338 0.072338 0.072338 0.072338 0.072338 0.072338 0.072338 0.072338 0.072338 0.072338 0.0723379 0.072338 0.072338 0.0723379 0.072338 0.072338 0.036169 0.036169 0.072338 0.072338 0.072338 0.072338 0.0723379 0.072338 0.072338 0.0723379 0.072338 0.072338 0.0723379 0.072338 0.072338 0.0723379 0.072338 0.072338 0.0723379 0.0723379 0.072338 0.072338 0.0723379 0.072338 0.072338 0.0361689 0.036169 0.072338 0.072338 0.072338 0.072338 0.072338 0.072338 0.072338 0.072338 0.072338 0.072338 0.072338 0.072338 0.072338 0.072338 0.072338 0.072338 0.0723379 0.0723379 0.072338 0.072338 0.0723379 0.072338 0.072338 0.0361689 0.036169 0.072338 0.072338 0.072338 0.072338 0.072338 0.072338 0.072338 0.072338 0.072338 0.072338 0.072338 0.072338 0.072338 0.072338 0.072338 0.072338 0.0723379 0.0723379 0.072338 0.072338 0.0723379 0.072338 0.072338 0.0361689 0.036169 0.072338 0.072338 0.072338 0.072338 0.072338 0.072338 0.072338 0.0723379 0.072338 0.072338 0.0723379 0.072338 0.072338 0.0723379 0.072338 0.072338 0.0723379 0.0723379 0.072338 0.072338 0.0723379 0.072338 0.072338 0.0361689 0.036169 0.072338 0.072338 0.072338 0.072338 0.072338 0.072338 0.072338 0.072338 0.072338 0.072338 0.072338 0.072338 0.072338 0.072338 0.072338 0.072338 0.0723379 0.0723379 0.072338 0.072338 0.0723379 0.072338 0.072338 0.0361689 0.036169 0.072338 0.072338 0.072338 0.072338 0.072338 0.072338 0.072338 0.072338 0.072338 0.072338 0.072338 0.072338 0.072338 0.072338 0.072338 0.072338 0.072338 0.0723379 0.072338 0.072338 0.072338 0.072338 0.072338 0.036169 0.036169 0.0723379 0.0723379 0.072338 0.072338 0.0723379 0.0723379 0.072338 0.0723379 0.072338 0.072338 0.0723379 0.072338 0.072338 0.0723379 0.072338 0.072338 0.0723379 0.0723379 0.072338 0.072338 0.0723379 0.072338 0.0723379 0.0361689 0.036169 0.072338 0.072338 0.072338 0.072338 0.072338 0.072338 0.072338 0.0723379 0.072338 0.072338 0.0723379 0.072338 0.072338 0.0723379 0.072338 0.072338 0.0723379 0.0723379 0.072338 0.072338 0.0723379 0.072338 0.072338 0.0361689 0.036169 0.072338 0.072338 0.072338 0.072338 0.072338 0.072338 0.072338 0.072338 0.072338 0.072338 0.072338 0.072338 0.0723381 0.072338 0.072338 0.0723381 0.072338 0.072338 0.0723381 0.072338 0.072338 0.0723381 0.072338 0.036169 0.036169 0.072338 0.0723379 0.072338 0.072338 0.0723379 0.072338 0.072338 0.0723379 0.072338 0.072338 0.0723379 0.072338 0.072338 0.0723379 0.072338 0.072338 0.0723379 0.0723379 0.072338 0.072338 0.0723379 0.072338 0.0723379 0.0361689 0.036169 0.0723379 0.0723379 0.0723379 0.0723379 0.0723379 0.0723379 0.0723379 0.0723379 0.0723379 0.0723379 0.0723379 0.0723379 0.0723379 0.0723379 0.0723379 0.072338 0.0723379 0.0723379 0.072338 0.0723379 0.0723379 0.072338 0.0723379 0.0361689 0.036169 0.072338 0.072338 0.072338 0.072338 0.072338 0.072338 0.072338 0.072338 0.072338 0.072338 0.072338 0.072338 0.072338 0.072338 0.072338 0.0723381 0.072338 0.072338 0.0723381 0.072338 0.072338 0.072338 0.072338 0.036169 0.036169 0.072338 0.072338 0.072338 0.072338 0.072338 0.072338 0.072338 0.072338 0.072338 0.072338 0.072338 0.072338 0.072338 0.072338 0.072338 0.072338 0.0723379 0.0723379 0.072338 0.072338 0.0723379 0.072338 0.072338 0.0361689 0.036169 0.0723379 0.0723379 0.0723379 0.072338 0.0723379 0.0723379 0.072338 0.0723379 0.072338 0.0723379 0.0723379 0.0723379 0.072338 0.0723379 0.0723379 0.072338 0.0723379 0.0723379 0.072338 0.072338 0.0723379 0.072338 0.0723379 0.0361689 0.036169 0.072338 0.072338 0.072338 0.072338 0.072338 0.072338 0.072338 0.072338 0.072338 0.072338 0.072338 0.072338 0.072338 0.072338 0.072338 0.0723381 0.072338 0.072338 0.0723381 0.072338 0.072338 0.072338 0.072338 0.036169 0.036169 0.072338 0.072338 0.072338 0.072338 0.072338 0.072338 0.072338 0.0723379 0.072338 0.072338 0.0723379 0.072338 0.072338 0.0723379 0.072338 0.072338 0.0723379 0.0723379 0.072338 0.072338 0.0723379 0.072338 0.072338 0.0361689 0.0180845 0.0361689 0.0361689 0.0361689 0.0361689 0.0361689 0.0361689 0.036169 0.0361689 0.0361689 0.036169 0.0361689 0.0361689 0.036169 0.0361689 0.0361689 0.036169 0.0361689 0.0361689 0.036169 0.036169 0.0361689 0.036169 0.0361689 0.0180845 0.0180845 0.036169 0.036169 0.036169 0.036169 0.036169 0.036169 0.036169 0.036169 0.036169 0.036169 0.036169 0.036169 0.036169 0.036169 0.036169 0.036169 0.036169 0.036169 0.036169 0.036169 0.036169 0.036169 0.036169 0.0180845 0.036169 0.0723379 0.0723379 0.0723379 0.072338 0.0723379 0.072338 0.072338 0.0723379 0.072338 0.072338 0.0723379 0.072338 0.072338 0.0723379 0.072338 0.072338 0.0723379 0.0723379 0.072338 0.072338 0.0723379 0.072338 0.0723379 0.0361689 0.036169 0.0723379 0.0723379 0.0723379 0.0723379 0.0723379 0.0723379 0.072338 0.0723379 0.072338 0.072338 0.0723379 0.072338 0.072338 0.0723379 0.0723379 0.072338 0.0723379 0.0723379 0.072338 0.072338 0.0723379 0.072338 0.0723379 0.0361689 0.036169 0.0723379 0.0723379 0.0723379 0.0723379 0.0723379 0.072338 0.072338 0.0723379 0.072338 0.072338 0.0723379 0.072338 0.072338 0.0723379 0.072338 0.072338 0.0723379 0.0723379 0.072338 0.072338 0.0723379 0.072338 0.0723379 0.0361689 0.036169 0.0723379 0.0723379 0.072338 0.072338 0.0723379 0.072338 0.072338 0.0723379 0.072338 0.072338 0.0723379 0.072338 0.072338 0.0723379 0.072338 0.072338 0.0723379 0.0723379 0.072338 0.072338 0.0723379 0.072338 0.072338 0.0361689 0.036169 0.0723379 0.0723379 0.0723379 0.0723379 0.0723379 0.0723379 0.072338 0.0723379 0.0723379 0.0723379 0.0723379 0.0723379 0.072338 0.0723379 0.0723379 0.072338 0.0723379 0.0723379 0.072338 0.0723379 0.0723379 0.072338 0.0723379 0.0361689 0.036169 0.072338 0.0723379 0.072338 0.072338 0.0723379 0.0723379 0.072338 0.0723379 0.072338 0.072338 0.0723379 0.072338 0.072338 0.0723379 0.0723379 0.072338 0.0723379 0.0723379 0.072338 0.072338 0.0723379 0.072338 0.0723379 0.0361689 0.036169 0.072338 0.072338 0.072338 0.072338 0.072338 0.072338 0.072338 0.0723379 0.072338 0.072338 0.0723379 0.072338 0.072338 0.0723379 0.072338 0.072338 0.0723379 0.0723379 0.072338 0.072338 0.0723379 0.072338 0.072338 0.0361689 0.036169 0.0723379 0.0723379 0.0723379 0.0723379 0.0723379 0.0723379 0.0723379 0.0723379 0.0723379 0.0723379 0.0723379 0.0723379 0.072338 0.0723379 0.0723379 0.072338 0.0723379 0.0723379 0.072338 0.0723379 0.0723379 0.072338 0.0723379 0.0361689 0.036169 0.0723379 0.0723379 0.0723379 0.0723379 0.0723379 0.0723379 0.072338 0.0723379 0.072338 0.0723379 0.0723379 0.0723379 0.072338 0.0723379 0.0723379 0.072338 0.0723379 0.0723379 0.072338 0.072338 0.0723379 0.072338 0.0723379 0.0361689 0.036169 0.072338 0.0723379 0.072338 0.072338 0.0723379 0.0723379 0.072338 0.0723379 0.072338 0.072338 0.0723379 0.072338 0.072338 0.0723379 0.072338 0.072338 0.0723379 0.0723379 0.072338 0.072338 0.0723379 0.072338 0.0723379 0.0361689 0.036169 0.0723379 0.0723379 0.0723379 0.0723379 0.0723379 0.0723379 0.0723379 0.0723379 0.0723379 0.0723379 0.0723379 0.0723379 0.072338 0.0723379 0.0723379 0.072338 0.0723379 0.0723379 0.072338 0.0723379 0.0723379 0.072338 0.0723379 0.0361689 0.036169 0.072338 0.072338 0.072338 0.072338 0.072338 0.072338 0.072338 0.0723379 0.072338 0.072338 0.0723379 0.072338 0.072338 0.0723379 0.072338 0.072338 0.0723379 0.0723379 0.072338 0.072338 0.0723379 0.072338 0.072338 0.0361689 0.036169 0.072338 0.072338 0.072338 0.072338 0.072338 0.072338 0.072338 0.072338 0.072338 0.072338 0.0723379 0.072338 0.072338 0.0723379 0.072338 0.072338 0.0723379 0.0723379 0.072338 0.072338 0.0723379 0.072338 0.072338 0.0361689 0.036169 0.0723379 0.0723379 0.0723379 0.0723379 0.0723379 0.0723379 0.0723379 0.0723379 0.0723379 0.0723379 0.0723379 0.0723379 0.072338 0.0723379 0.0723379 0.072338 0.0723379 0.0723379 0.072338 0.0723379 0.0723379 0.072338 0.0723379 0.0361689 0.036169 0.0723379 0.0723379 0.0723379 0.0723379 0.0723379 0.0723379 0.0723379 0.0723379 0.0723379 0.0723379 0.0723379 0.0723379 0.072338 0.0723379 0.0723379 0.072338 0.0723379 0.0723379 0.072338 0.0723379 0.0723379 0.072338 0.0723379 0.0361689 0.036169 0.072338 0.072338 0.072338 0.072338 0.072338 0.072338 0.072338 0.072338 0.072338 0.072338 0.072338 0.072338 0.072338 0.072338 0.072338 0.072338 0.072338 0.072338 0.072338 0.072338 0.072338 0.072338 0.072338 0.036169 0.036169 0.0723379 0.0723379 0.0723379 0.0723379 0.0723379 0.0723379 0.0723379 0.0723379 0.0723379 0.0723379 0.0723379 0.0723379 0.072338 0.0723379 0.0723379 0.072338 0.0723379 0.0723379 0.072338 0.0723379 0.0723379 0.0723379 0.0723379 0.0361689 0.0361689 0.0723379 0.0723379 0.0723379 0.0723379 0.0723379 0.0723379 0.0723379 0.0723379 0.0723379 0.0723379 0.0723379 0.0723379 0.0723379 0.0723379 0.0723379 0.0723379 0.0723379 0.0723379 0.0723379 0.0723379 0.0723379 0.0723379 0.0723379 0.0361689 0.036169 0.072338 0.072338 0.072338 0.072338 0.072338 0.072338 0.072338 0.072338 0.072338 0.072338 0.072338 0.072338 0.072338 0.072338 0.072338 0.072338 0.0723379 0.0723379 0.072338 0.072338 0.0723379 0.072338 0.072338 0.0361689 0.036169 0.0723379 0.0723379 0.0723379 0.072338 0.0723379 0.0723379 0.072338 0.0723379 0.072338 0.072338 0.0723379 0.072338 0.072338 0.0723379 0.072338 0.072338 0.0723379 0.0723379 0.072338 0.072338 0.0723379 0.072338 0.0723379 0.0361689 0.036169 0.0723379 0.0723379 0.0723379 0.0723379 0.0723379 0.0723379 0.0723379 0.0723379 0.0723379 0.0723379 0.0723379 0.0723379 0.0723379 0.0723379 0.0723379 0.072338 0.0723379 0.0723379 0.072338 0.0723379 0.0723379 0.0723379 0.0723379 0.0361689 0.036169 0.072338 0.072338 0.072338 0.072338 0.072338 0.072338 0.072338 0.072338 0.072338 0.072338 0.072338 0.072338 0.072338 0.072338 0.072338 0.072338 0.0723379 0.0723379 0.072338 0.072338 0.0723379 0.072338 0.072338 0.0361689 0.036169 0.0723379 0.0723379 0.0723379 0.0723379 0.0723379 0.0723379 0.0723379 0.0723379 0.0723379 0.0723379 0.0723379 0.0723379 0.072338 0.0723379 0.0723379 0.072338 0.0723379 0.0723379 0.072338 0.0723379 0.0723379 0.072338 0.0723379 0.0361689 0.0180845 0.0361689 0.0361689 0.0361689 0.0361689 0.0361689 0.0361689 0.0361689 0.0361689 0.0361689 0.0361689 0.0361689 0.0361689 0.0361689 0.0361689 0.0361689 0.036169 0.0361689 0.0361689 0.036169 0.0361689 0.0361689 0.0361689 0.0361689 0.0180844 0.0180845 0.036169 0.036169 0.036169 0.036169 0.036169 0.036169 0.036169 0.036169 0.036169 0.036169 0.036169 0.036169 0.036169 0.036169 0.036169 0.036169 0.036169 0.036169 0.036169 0.036169 0.036169 0.036169 0.036169 0.0180845 0.036169 0.072338 0.072338 0.072338 0.072338 0.072338 0.072338 0.072338 0.072338 0.072338 0.072338 0.072338 0.072338 0.072338 0.0723379 0.072338 0.072338 0.0723379 0.0723379 0.072338 0.072338 0.0723379 0.072338 0.072338 0.0361689 0.036169 0.072338 0.072338 0.072338 0.072338 0.072338 0.072338 0.072338 0.072338 0.072338 0.072338 0.0723379 0.072338 0.072338 0.0723379 0.072338 0.072338 0.0723379 0.0723379 0.072338 0.072338 0.0723379 0.072338 0.072338 0.0361689 0.036169 0.072338 0.072338 0.072338 0.072338 0.072338 0.072338 0.072338 0.072338 0.072338 0.072338 0.0723379 0.072338 0.072338 0.0723379 0.072338 0.072338 0.0723379 0.0723379 0.072338 0.072338 0.0723379 0.072338 0.072338 0.0361689 0.036169 0.072338 0.072338 0.072338 0.072338 0.072338 0.072338 0.072338 0.072338 0.072338 0.072338 0.072338 0.072338 0.072338 0.072338 0.072338 0.072338 0.0723379 0.0723379 0.072338 0.072338 0.0723379 0.072338 0.072338 0.0361689 0.036169 0.072338 0.072338 0.072338 0.072338 0.072338 0.072338 0.072338 0.0723379 0.072338 0.072338 0.0723379 0.072338 0.072338 0.0723379 0.072338 0.072338 0.0723379 0.0723379 0.072338 0.072338 0.0723379 0.072338 0.0723379 0.0361689 0.036169 0.072338 0.072338 0.072338 0.072338 0.072338 0.072338 0.072338 0.072338 0.072338 0.072338 0.0723379 0.072338 0.072338 0.0723379 0.072338 0.072338 0.0723379 0.0723379 0.072338 0.072338 0.0723379 0.072338 0.072338 0.0361689 0.036169 0.072338 0.072338 0.072338 0.072338 0.072338 0.072338 0.072338 0.072338 0.072338 0.072338 0.072338 0.072338 0.072338 0.072338 0.072338 0.072338 0.0723379 0.0723379 0.072338 0.072338 0.0723379 0.072338 0.072338 0.0361689 0.036169 0.0723379 0.0723379 0.0723379 0.0723379 0.0723379 0.0723379 0.072338 0.0723379 0.072338 0.072338 0.0723379 0.0723379 0.072338 0.0723379 0.0723379 0.072338 0.0723379 0.0723379 0.072338 0.072338 0.0723379 0.072338 0.0723379 0.0361689 0.036169 0.072338 0.072338 0.072338 0.072338 0.0723379 0.072338 0.072338 0.0723379 0.072338 0.072338 0.0723379 0.072338 0.072338 0.0723379 0.072338 0.072338 0.0723379 0.0723379 0.072338 0.072338 0.0723379 0.072338 0.072338 0.0361689 0.036169 0.072338 0.072338 0.072338 0.072338 0.072338 0.072338 0.072338 0.072338 0.072338 0.072338 0.0723379 0.072338 0.072338 0.0723379 0.072338 0.072338 0.0723379 0.0723379 0.072338 0.072338 0.0723379 0.072338 0.072338 0.0361689 0.036169 0.0723379 0.0723379 0.0723379 0.072338 0.0723379 0.0723379 0.072338 0.0723379 0.072338 0.072338 0.0723379 0.072338 0.072338 0.0723379 0.0723379 0.072338 0.0723379 0.0723379 0.072338 0.072338 0.0723379 0.072338 0.072338 0.0361689 0.036169 0.072338 0.072338 0.072338 0.072338 0.072338 0.072338 0.072338 0.072338 0.072338 0.072338 0.0723379 0.072338 0.072338 0.072338 0.072338 0.072338 0.0723379 0.0723379 0.072338 0.072338 0.0723379 0.072338 0.072338 0.0361689 0.036169 0.072338 0.072338 0.072338 0.072338 0.072338 0.072338 0.072338 0.072338 0.072338 0.072338 0.072338 0.072338 0.072338 0.072338 0.072338 0.072338 0.0723379 0.0723379 0.072338 0.072338 0.0723379 0.072338 0.072338 0.0361689 0.036169 0.0723379 0.0723379 0.0723379 0.0723379 0.0723379 0.0723379 0.0723379 0.0723379 0.072338 0.072338 0.0723379 0.0723379 0.072338 0.0723379 0.0723379 0.072338 0.0723379 0.0723379 0.072338 0.072338 0.0723379 0.072338 0.0723379 0.0361689 0.036169 0.072338 0.0723379 0.072338 0.072338 0.072338 0.072338 0.072338 0.0723379 0.072338 0.072338 0.0723379 0.072338 0.072338 0.0723379 0.072338 0.072338 0.0723379 0.0723379 0.072338 0.072338 0.0723379 0.072338 0.0723379 0.0361689 0.036169 0.072338 0.072338 0.072338 0.072338 0.072338 0.072338 0.072338 0.072338 0.072338 0.072338 0.072338 0.072338 0.072338 0.072338 0.072338 0.0723381 0.072338 0.072338 0.0723381 0.072338 0.072338 0.072338 0.072338 0.036169 0.036169 0.0723379 0.0723379 0.0723379 0.0723379 0.0723379 0.0723379 0.072338 0.0723379 0.0723379 0.0723379 0.0723379 0.0723379 0.072338 0.0723379 0.0723379 0.072338 0.0723379 0.0723379 0.072338 0.072338 0.0723379 0.072338 0.0723379 0.0361689 0.036169 0.0723379 0.0723379 0.0723379 0.0723379 0.0723379 0.0723379 0.0723379 0.0723379 0.0723379 0.0723379 0.0723379 0.0723379 0.0723379 0.0723379 0.0723379 0.072338 0.0723379 0.0723379 0.072338 0.0723379 0.0723379 0.0723379 0.0723379 0.0361689 0.036169 0.072338 0.072338 0.072338 0.072338 0.072338 0.072338 0.072338 0.072338 0.072338 0.072338 0.072338 0.072338 0.072338 0.072338 0.072338 0.072338 0.072338 0.072338 0.072338 0.072338 0.072338 0.072338 0.072338 0.036169 0.036169 0.072338 0.072338 0.072338 0.072338 0.072338 0.072338 0.072338 0.072338 0.072338 0.072338 0.0723379 0.072338 0.072338 0.0723379 0.072338 0.072338 0.0723379 0.0723379 0.072338 0.072338 0.0723379 0.072338 0.072338 0.0361689 0.036169 0.0723379 0.0723379 0.0723379 0.0723379 0.0723379 0.0723379 0.0723379 0.0723379 0.0723379 0.0723379 0.0723379 0.0723379 0.072338 0.0723379 0.0723379 0.072338 0.0723379 0.0723379 0.072338 0.0723379 0.0723379 0.072338 0.0723379 0.0361689 0.036169 0.072338 0.072338 0.072338 0.072338 0.072338 0.072338 0.072338 0.072338 0.072338 0.072338 0.072338 0.072338 0.072338 0.072338 0.072338 0.072338 0.072338 0.0723379 0.072338 0.072338 0.0723379 0.072338 0.072338 0.0361689 0.036169 0.072338 0.072338 0.072338 0.072338 0.072338 0.072338 0.072338 0.0723379 0.072338 0.072338 0.0723379 0.072338 0.072338 0.0723379 0.072338 0.072338 0.0723379 0.0723379 0.072338 0.072338 0.0723379 0.072338 0.0723379 0.0361689 0.0180845 0.0361689 0.0361689 0.0361689 0.0361689 0.0361689 0.0361689 0.0361689 0.0361689 0.0361689 0.0361689 0.0361689 0.0361689 0.036169 0.0361689 0.0361689 0.036169 0.0361689 0.0361689 0.036169 0.0361689 0.0361689 0.036169 0.0361689 0.0180845 0.0180845 0.036169 0.036169 0.036169 0.036169 0.036169 0.036169 0.036169 0.036169 0.036169 0.036169 0.036169 0.036169 0.036169 0.036169 0.036169 0.036169 0.036169 0.036169 0.036169 0.036169 0.036169 0.036169 0.036169 0.0180845 0.036169 0.072338 0.072338 0.072338 0.072338 0.072338 0.072338 0.072338 0.0723379 0.072338 0.072338 0.0723379 0.072338 0.072338 0.0723379 0.072338 0.072338 0.0723379 0.0723379 0.072338 0.072338 0.0723379 0.072338 0.072338 0.0361689 0.036169 0.072338 0.072338 0.072338 0.072338 0.072338 0.072338 0.072338 0.0723379 0.072338 0.072338 0.0723379 0.072338 0.072338 0.0723379 0.072338 0.072338 0.0723379 0.0723379 0.072338 0.072338 0.0723379 0.072338 0.072338 0.0361689 0.036169 0.072338 0.072338 0.072338 0.072338 0.072338 0.072338 0.072338 0.0723379 0.072338 0.072338 0.0723379 0.072338 0.072338 0.0723379 0.072338 0.072338 0.0723379 0.0723379 0.072338 0.072338 0.0723379 0.072338 0.072338 0.0361689 0.036169 0.072338 0.072338 0.072338 0.072338 0.072338 0.072338 0.072338 0.072338 0.072338 0.072338 0.0723379 0.072338 0.072338 0.0723379 0.072338 0.072338 0.0723379 0.0723379 0.072338 0.072338 0.0723379 0.072338 0.072338 0.0361689 0.036169 0.0723379 0.0723379 0.072338 0.072338 0.0723379 0.072338 0.072338 0.0723379 0.072338 0.072338 0.0723379 0.072338 0.072338 0.0723379 0.072338 0.072338 0.0723379 0.0723379 0.072338 0.072338 0.0723379 0.072338 0.0723379 0.0361689 0.036169 0.072338 0.072338 0.072338 0.072338 0.0723379 0.072338 0.072338 0.0723379 0.072338 0.072338 0.0723379 0.072338 0.072338 0.0723379 0.072338 0.072338 0.0723379 0.0723379 0.072338 0.072338 0.0723379 0.072338 0.072338 0.0361689 0.036169 0.072338 0.072338 0.072338 0.072338 0.072338 0.072338 0.072338 0.072338 0.072338 0.072338 0.0723379 0.072338 0.072338 0.072338 0.072338 0.072338 0.0723379 0.0723379 0.072338 0.072338 0.0723379 0.072338 0.072338 0.0361689 0.036169 0.0723379 0.0723379 0.0723379 0.0723379 0.0723379 0.0723379 0.0723379 0.0723379 0.0723379 0.0723379 0.0723379 0.072338 0.072338 0.0723379 0.0723379 0.072338 0.0723379 0.0723379 0.072338 0.072338 0.0723379 0.072338 0.0723379 0.0361689 0.036169 0.072338 0.072338 0.072338 0.072338 0.0723379 0.072338 0.072338 0.0723379 0.072338 0.072338 0.0723379 0.072338 0.072338 0.0723379 0.072338 0.072338 0.0723379 0.0723379 0.072338 0.072338 0.0723379 0.072338 0.072338 0.0361689 0.036169 0.072338 0.072338 0.072338 0.072338 0.072338 0.072338 0.072338 0.0723379 0.072338 0.072338 0.0723379 0.072338 0.072338 0.0723379 0.072338 0.072338 0.0723379 0.0723379 0.072338 0.072338 0.0723379 0.072338 0.072338 0.0361689 0.036169 0.0723379 0.0723379 0.0723379 0.0723379 0.0723379 0.0723379 0.072338 0.0723379 0.0723379 0.072338 0.0723379 0.072338 0.072338 0.0723379 0.0723379 0.072338 0.0723379 0.0723379 0.072338 0.072338 0.0723379 0.072338 0.0723379 0.0361689 0.036169 0.072338 0.072338 0.072338 0.072338 0.072338 0.072338 0.072338 0.072338 0.072338 0.072338 0.0723379 0.072338 0.072338 0.0723379 0.072338 0.072338 0.0723379 0.0723379 0.072338 0.072338 0.0723379 0.072338 0.072338 0.0361689 0.036169 0.072338 0.072338 0.072338 0.072338 0.072338 0.072338 0.072338 0.072338 0.072338 0.072338 0.072338 0.072338 0.072338 0.072338 0.072338 0.072338 0.0723379 0.0723379 0.072338 0.072338 0.0723379 0.072338 0.072338 0.0361689 0.036169 0.0723379 0.0723379 0.0723379 0.0723379 0.0723379 0.0723379 0.0723379 0.0723379 0.0723379 0.072338 0.0723379 0.072338 0.072338 0.0723379 0.0723379 0.072338 0.0723379 0.0723379 0.072338 0.0723379 0.0723379 0.072338 0.0723379 0.0361689 0.036169 0.072338 0.072338 0.072338 0.072338 0.0723379 0.0723379 0.072338 0.0723379 0.0723379 0.072338 0.0723379 0.072338 0.072338 0.0723379 0.0723379 0.072338 0.0723379 0.0723379 0.072338 0.072338 0.0723379 0.072338 0.0723379 0.0361689 0.036169 0.072338 0.072338 0.072338 0.072338 0.072338 0.072338 0.072338 0.072338 0.072338 0.072338 0.072338 0.072338 0.072338 0.072338 0.072338 0.0723381 0.072338 0.072338 0.0723381 0.072338 0.072338 0.072338 0.072338 0.036169 0.036169 0.0723379 0.0723379 0.0723379 0.0723379 0.0723379 0.0723379 0.0723379 0.0723379 0.0723379 0.0723379 0.0723379 0.0723379 0.072338 0.0723379 0.0723379 0.072338 0.0723379 0.0723379 0.072338 0.0723379 0.0723379 0.072338 0.0723379 0.0361689 0.036169 0.0723379 0.0723379 0.0723379 0.0723379 0.0723379 0.0723379 0.0723379 0.0723379 0.0723379 0.0723379 0.0723379 0.0723379 0.0723379 0.0723379 0.0723379 0.0723379 0.0723379 0.0723379 0.0723379 0.0723379 0.0723379 0.0723379 0.0723379 0.0361689 0.036169 0.072338 0.072338 0.072338 0.072338 0.072338 0.072338 0.072338 0.072338 0.072338 0.072338 0.072338 0.072338 0.072338 0.072338 0.072338 0.072338 0.0723379 0.0723379 0.072338 0.072338 0.0723379 0.072338 0.072338 0.036169 0.036169 0.072338 0.072338 0.072338 0.072338 0.072338 0.072338 0.072338 0.0723379 0.072338 0.072338 0.0723379 0.072338 0.072338 0.0723379 0.072338 0.072338 0.0723379 0.0723379 0.072338 0.072338 0.0723379 0.072338 0.072338 0.0361689 0.036169 0.0723379 0.0723379 0.0723379 0.0723379 0.0723379 0.0723379 0.0723379 0.0723379 0.0723379 0.0723379 0.0723379 0.0723379 0.072338 0.0723379 0.0723379 0.072338 0.0723379 0.0723379 0.072338 0.0723379 0.0723379 0.072338 0.0723379 0.0361689 0.036169 0.072338 0.072338 0.072338 0.072338 0.072338 0.072338 0.072338 0.072338 0.072338 0.072338 0.072338 0.072338 0.072338 0.072338 0.072338 0.072338 0.0723379 0.0723379 0.072338 0.072338 0.0723379 0.072338 0.072338 0.0361689 0.036169 0.072338 0.072338 0.072338 0.072338 0.0723379 0.0723379 0.072338 0.0723379 0.0723379 0.072338 0.0723379 0.072338 0.072338 0.0723379 0.0723379 0.072338 0.0723379 0.0723379 0.072338 0.072338 0.0723379 0.072338 0.0723379 0.0361689 0.0180845 0.0361689 0.0361689 0.0361689 0.0361689 0.0361689 0.0361689 0.0361689 0.0361689 0.0361689 0.0361689 0.0361689 0.0361689 0.036169 0.0361689 0.0361689 0.036169 0.0361689 0.0361689 0.036169 0.0361689 0.0361689 0.036169 0.0361689 0.0180844 0.0180845 0.036169 0.036169 0.036169 0.036169 0.036169 0.036169 0.036169 0.036169 0.036169 0.036169 0.036169 0.036169 0.036169 0.036169 0.036169 0.036169 0.036169 0.0361689 0.036169 0.036169 0.0361689 0.036169 0.036169 0.0180845 0.036169 0.0723379 0.0723379 0.0723379 0.072338 0.0723379 0.0723379 0.072338 0.0723379 0.0723379 0.0723379 0.0723379 0.0723379 0.072338 0.0723379 0.0723379 0.072338 0.0723379 0.0723379 0.072338 0.0723379 0.0723379 0.072338 0.0723379 0.0361689 0.036169 0.0723379 0.0723379 0.0723379 0.0723379 0.0723379 0.0723379 0.0723379 0.0723379 0.0723379 0.0723379 0.0723379 0.0723379 0.072338 0.0723379 0.0723379 0.072338 0.0723379 0.0723379 0.072338 0.0723379 0.0723379 0.072338 0.0723379 0.0361689 0.036169 0.0723379 0.0723379 0.0723379 0.072338 0.0723379 0.0723379 0.072338 0.0723379 0.0723379 0.0723379 0.0723379 0.0723379 0.072338 0.0723379 0.0723379 0.072338 0.0723379 0.0723379 0.072338 0.0723379 0.0723379 0.072338 0.0723379 0.0361689 0.036169 0.0723379 0.0723379 0.0723379 0.072338 0.0723379 0.0723379 0.072338 0.0723379 0.072338 0.072338 0.0723379 0.0723379 0.072338 0.0723379 0.0723379 0.072338 0.0723379 0.0723379 0.072338 0.072338 0.0723379 0.072338 0.0723379 0.0361689 0.036169 0.0723379 0.0723379 0.0723379 0.0723379 0.0723379 0.0723379 0.0723379 0.0723379 0.0723379 0.0723379 0.0723379 0.0723379 0.072338 0.0723379 0.0723379 0.072338 0.0723379 0.0723379 0.072338 0.0723379 0.0723379 0.072338 0.0723379 0.0361689 0.036169 0.0723379 0.0723379 0.0723379 0.0723379 0.0723379 0.0723379 0.072338 0.0723379 0.072338 0.0723379 0.0723379 0.0723379 0.072338 0.0723379 0.0723379 0.072338 0.0723379 0.0723379 0.072338 0.0723379 0.0723379 0.072338 0.0723379 0.0361689 0.036169 0.0723379 0.0723379 0.0723379 0.072338 0.0723379 0.072338 0.072338 0.0723379 0.0723379 0.072338 0.0723379 0.072338 0.072338 0.0723379 0.072338 0.072338 0.0723379 0.0723379 0.072338 0.072338 0.0723379 0.072338 0.0723379 0.0361689 0.036169 0.0723379 0.0723379 0.0723379 0.0723379 0.0723379 0.0723379 0.0723379 0.0723379 0.0723379 0.0723379 0.0723379 0.0723379 0.0723379 0.0723379 0.0723379 0.072338 0.0723379 0.0723379 0.072338 0.0723379 0.0723379 0.0723379 0.0723379 0.0361689 0.036169 0.0723379 0.0723379 0.0723379 0.0723379 0.0723379 0.0723379 0.0723379 0.0723379 0.0723379 0.0723379 0.0723379 0.0723379 0.072338 0.0723379 0.0723379 0.072338 0.0723379 0.0723379 0.072338 0.0723379 0.0723379 0.072338 0.0723379 0.0361689 0.036169 0.0723379 0.0723379 0.0723379 0.0723379 0.0723379 0.0723379 0.072338 0.0723379 0.072338 0.072338 0.0723379 0.072338 0.072338 0.0723379 0.0723379 0.072338 0.0723379 0.0723379 0.072338 0.072338 0.0723379 0.072338 0.0723379 0.0361689 0.036169 0.0723379 0.0723379 0.0723379 0.0723379 0.0723379 0.0723379 0.0723379 0.0723379 0.0723379 0.0723379 0.0723379 0.0723379 0.072338 0.0723379 0.0723379 0.072338 0.0723379 0.0723379 0.072338 0.0723379 0.0723379 0.072338 0.0723379 0.0361689 0.036169 0.072338 0.072338 0.072338 0.072338 0.0723379 0.0723379 0.072338 0.0723379 0.072338 0.072338 0.0723379 0.072338 0.072338 0.0723379 0.072338 0.072338 0.0723379 0.0723379 0.072338 0.072338 0.0723379 0.072338 0.0723379 0.0361689 0.036169 0.072338 0.072338 0.072338 0.072338 0.0723379 0.072338 0.072338 0.0723379 0.072338 0.072338 0.0723379 0.072338 0.072338 0.0723379 0.072338 0.072338 0.0723379 0.0723379 0.072338 0.072338 0.0723379 0.072338 0.072338 0.0361689 0.036169 0.0723379 0.0723379 0.0723379 0.0723379 0.0723379 0.0723379 0.0723379 0.0723379 0.0723379 0.0723379 0.0723379 0.0723379 0.0723379 0.0723379 0.0723379 0.072338 0.0723379 0.0723379 0.072338 0.0723379 0.0723379 0.0723379 0.0723379 0.0361689 0.036169 0.0723379 0.0723379 0.0723379 0.0723379 0.0723379 0.0723379 0.0723379 0.0723379 0.0723379 0.0723379 0.0723379 0.0723379 0.072338 0.0723379 0.0723379 0.072338 0.0723379 0.0723379 0.072338 0.0723379 0.0723379 0.072338 0.0723379 0.0361689 0.036169 0.072338 0.072338 0.072338 0.072338 0.072338 0.072338 0.072338 0.072338 0.072338 0.072338 0.072338 0.072338 0.072338 0.072338 0.072338 0.072338 0.072338 0.0723379 0.072338 0.072338 0.0723379 0.072338 0.072338 0.0361689 0.036169 0.0723379 0.0723379 0.0723379 0.0723379 0.0723379 0.0723379 0.0723379 0.0723379 0.0723379 0.0723379 0.0723379 0.0723379 0.0723379 0.0723379 0.0723379 0.072338 0.0723379 0.0723379 0.072338 0.0723379 0.0723379 0.0723379 0.0723379 0.0361689 0.0361689 0.0723379 0.0723379 0.0723379 0.0723379 0.0723379 0.0723379 0.0723379 0.0723379 0.0723379 0.0723379 0.0723379 0.0723379 0.0723379 0.0723379 0.0723379 0.0723379 0.0723379 0.0723379 0.0723379 0.0723379 0.0723378 0.0723379 0.0723379 0.0361689 0.036169 0.072338 0.072338 0.072338 0.072338 0.072338 0.072338 0.072338 0.072338 0.072338 0.072338 0.0723379 0.072338 0.072338 0.0723379 0.072338 0.072338 0.0723379 0.0723379 0.072338 0.072338 0.0723379 0.072338 0.072338 0.0361689 0.036169 0.0723379 0.0723379 0.0723379 0.0723379 0.0723379 0.0723379 0.072338 0.0723379 0.0723379 0.0723379 0.0723379 0.0723379 0.072338 0.0723379 0.0723379 0.072338 0.0723379 0.0723379 0.072338 0.072338 0.0723379 0.072338 0.0723379 0.0361689 0.0361689 0.0723379 0.0723379 0.0723379 0.0723379 0.0723379 0.0723379 0.0723379 0.0723379 0.0723379 0.0723379 0.0723379 0.0723379 0.0723379 0.0723379 0.0723379 0.072338 0.0723379 0.0723379 0.0723379 0.0723379 0.0723379 0.0723379 0.0723379 0.0361689 0.036169 0.072338 0.072338 0.072338 0.072338 0.072338 0.072338 0.072338 0.072338 0.072338 0.072338 0.0723379 0.072338 0.072338 0.0723379 0.072338 0.072338 0.0723379 0.0723379 0.072338 0.072338 0.0723379 0.072338 0.072338 0.0361689 0.036169 0.0723379 0.0723379 0.0723379 0.0723379 0.0723379 0.0723379 0.0723379 0.0723379 0.0723379 0.0723379 0.0723379 0.0723379 0.072338 0.0723379 0.0723379 0.072338 0.0723379 0.0723379 0.072338 0.0723379 0.0723379 0.072338 0.0723379 0.0361689 0.0180845 0.0361689 0.0361689 0.0361689 0.0361689 0.0361689 0.0361689 0.0361689 0.0361689 0.0361689 0.0361689 0.0361689 0.0361689 0.0361689 0.0361689 0.0361689 0.036169 0.0361689 0.0361689 0.036169 0.0361689 0.0361689 0.0361689 0.0361689 0.0180844 0.0180845 0.036169 0.036169 0.036169 0.036169 0.036169 0.036169 0.036169 0.036169 0.036169 0.036169 0.036169 0.036169 0.036169 0.036169 0.036169 0.036169 0.036169 0.036169 0.036169 0.036169 0.036169 0.036169 0.036169 0.0180845 0.036169 0.072338 0.072338 0.072338 0.072338 0.072338 0.072338 0.072338 0.072338 0.072338 0.072338 0.0723379 0.072338 0.072338 0.0723379 0.072338 0.072338 0.0723379 0.0723379 0.072338 0.072338 0.0723379 0.072338 0.072338 0.0361689 0.036169 0.072338 0.072338 0.072338 0.072338 0.072338 0.072338 0.072338 0.0723379 0.072338 0.072338 0.0723379 0.072338 0.072338 0.0723379 0.072338 0.072338 0.0723379 0.0723379 0.072338 0.072338 0.0723379 0.072338 0.072338 0.0361689 0.036169 0.072338 0.072338 0.072338 0.072338 0.072338 0.072338 0.072338 0.072338 0.072338 0.072338 0.0723379 0.072338 0.072338 0.0723379 0.072338 0.072338 0.0723379 0.0723379 0.072338 0.072338 0.0723379 0.072338 0.072338 0.0361689 0.036169 0.072338 0.072338 0.072338 0.072338 0.072338 0.072338 0.072338 0.072338 0.072338 0.072338 0.072338 0.072338 0.072338 0.072338 0.072338 0.072338 0.0723379 0.0723379 0.072338 0.072338 0.0723379 0.072338 0.072338 0.0361689 0.036169 0.072338 0.072338 0.072338 0.072338 0.072338 0.072338 0.072338 0.0723379 0.072338 0.072338 0.0723379 0.072338 0.072338 0.0723379 0.072338 0.072338 0.0723379 0.0723379 0.072338 0.072338 0.0723379 0.072338 0.072338 0.0361689 0.036169 0.072338 0.072338 0.072338 0.072338 0.072338 0.072338 0.072338 0.072338 0.072338 0.072338 0.072338 0.072338 0.072338 0.0723379 0.072338 0.072338 0.0723379 0.0723379 0.072338 0.072338 0.0723379 0.072338 0.072338 0.0361689 0.036169 0.072338 0.072338 0.072338 0.072338 0.072338 0.072338 0.072338 0.072338 0.072338 0.072338 0.072338 0.072338 0.072338 0.072338 0.072338 0.072338 0.0723379 0.0723379 0.072338 0.072338 0.0723379 0.072338 0.072338 0.0361689 0.036169 0.0723379 0.0723379 0.072338 0.072338 0.0723379 0.0723379 0.072338 0.0723379 0.0723379 0.072338 0.0723379 0.072338 0.072338 0.0723379 0.0723379 0.072338 0.0723379 0.0723379 0.072338 0.072338 0.0723379 0.072338 0.0723379 0.0361689 0.036169 0.072338 0.072338 0.072338 0.072338 0.072338 0.072338 0.072338 0.072338 0.072338 0.072338 0.0723379 0.072338 0.072338 0.072338 0.072338 0.072338 0.0723379 0.0723379 0.072338 0.072338 0.0723379 0.072338 0.072338 0.0361689 0.036169 0.072338 0.072338 0.072338 0.072338 0.072338 0.072338 0.072338 0.072338 0.072338 0.072338 0.072338 0.072338 0.072338 0.072338 0.072338 0.072338 0.0723379 0.0723379 0.072338 0.072338 0.0723379 0.072338 0.072338 0.0361689 0.036169 0.072338 0.072338 0.072338 0.072338 0.0723379 0.072338 0.072338 0.0723379 0.072338 0.072338 0.0723379 0.072338 0.072338 0.0723379 0.072338 0.072338 0.0723379 0.0723379 0.072338 0.072338 0.0723379 0.072338 0.072338 0.0361689 0.036169 0.072338 0.072338 0.072338 0.072338 0.072338 0.072338 0.072338 0.072338 0.072338 0.072338 0.072338 0.072338 0.072338 0.072338 0.072338 0.072338 0.0723379 0.0723379 0.072338 0.072338 0.0723379 0.072338 0.072338 0.0361689 0.036169 0.072338 0.072338 0.072338 0.072338 0.072338 0.072338 0.072338 0.072338 0.072338 0.072338 0.072338 0.072338 0.072338 0.072338 0.072338 0.072338 0.072338 0.0723379 0.072338 0.072338 0.0723379 0.072338 0.072338 0.036169 0.036169 0.0723379 0.0723379 0.0723379 0.0723379 0.0723379 0.0723379 0.072338 0.0723379 0.072338 0.072338 0.0723379 0.072338 0.072338 0.0723379 0.0723379 0.072338 0.0723379 0.0723379 0.072338 0.072338 0.0723379 0.072338 0.0723379 0.0361689 0.036169 0.072338 0.072338 0.072338 0.072338 0.0723379 0.072338 0.072338 0.0723379 0.072338 0.072338 0.0723379 0.072338 0.072338 0.0723379 0.072338 0.072338 0.0723379 0.0723379 0.072338 0.072338 0.0723379 0.072338 0.072338 0.0361689 0.036169 0.072338 0.072338 0.072338 0.072338 0.072338 0.072338 0.072338 0.072338 0.072338 0.072338 0.072338 0.072338 0.072338 0.072338 0.072338 0.0723381 0.072338 0.072338 0.0723381 0.072338 0.072338 0.072338 0.072338 0.036169 0.036169 0.0723379 0.0723379 0.0723379 0.0723379 0.0723379 0.0723379 0.072338 0.0723379 0.0723379 0.072338 0.0723379 0.072338 0.072338 0.0723379 0.072338 0.072338 0.0723379 0.0723379 0.072338 0.0723379 0.0723379 0.072338 0.0723379 0.0361689 0.036169 0.0723379 0.0723379 0.0723379 0.0723379 0.0723379 0.0723379 0.0723379 0.0723379 0.0723379 0.0723379 0.0723379 0.0723379 0.072338 0.0723379 0.0723379 0.072338 0.0723379 0.0723379 0.072338 0.0723379 0.0723379 0.0723379 0.0723379 0.0361689 0.036169 0.072338 0.072338 0.072338 0.072338 0.072338 0.072338 0.072338 0.072338 0.072338 0.072338 0.072338 0.072338 0.072338 0.072338 0.072338 0.072338 0.072338 0.072338 0.072338 0.072338 0.072338 0.072338 0.072338 0.036169 0.036169 0.072338 0.072338 0.072338 0.072338 0.072338 0.072338 0.072338 0.072338 0.072338 0.072338 0.072338 0.072338 0.072338 0.072338 0.072338 0.072338 0.0723379 0.0723379 0.072338 0.072338 0.0723379 0.072338 0.072338 0.0361689 0.036169 0.0723379 0.0723379 0.0723379 0.0723379 0.0723379 0.0723379 0.0723379 0.0723379 0.0723379 0.0723379 0.0723379 0.0723379 0.072338 0.0723379 0.0723379 0.072338 0.0723379 0.0723379 0.072338 0.0723379 0.0723379 0.072338 0.0723379 0.0361689 0.036169 0.072338 0.072338 0.072338 0.072338 0.072338 0.072338 0.072338 0.072338 0.072338 0.072338 0.072338 0.072338 0.072338 0.072338 0.072338 0.072338 0.072338 0.0723379 0.072338 0.072338 0.072338 0.072338 0.072338 0.036169 0.036169 0.072338 0.072338 0.072338 0.072338 0.072338 0.072338 0.072338 0.0723379 0.072338 0.072338 0.0723379 0.072338 0.072338 0.0723379 0.072338 0.072338 0.0723379 0.0723379 0.072338 0.072338 0.0723379 0.072338 0.072338 0.0361689 0.0180845 0.0361689 0.0361689 0.0361689 0.0361689 0.0361689 0.0361689 0.0361689 0.0361689 0.0361689 0.0361689 0.0361689 0.0361689 0.036169 0.0361689 0.0361689 0.036169 0.0361689 0.0361689 0.036169 0.0361689 0.0361689 0.036169 0.0361689 0.0180845 0.0180845 0.036169 0.036169 0.036169 0.036169 0.036169 0.036169 0.036169 0.036169 0.036169 0.036169 0.036169 0.036169 0.036169 0.036169 0.036169 0.036169 0.036169 0.036169 0.036169 0.036169 0.036169 0.036169 0.036169 0.0180845 0.036169 0.072338 0.072338 0.072338 0.072338 0.072338 0.072338 0.072338 0.072338 0.072338 0.072338 0.072338 0.072338 0.072338 0.072338 0.072338 0.072338 0.072338 0.072338 0.072338 0.072338 0.0723379 0.072338 0.072338 0.036169 0.036169 0.072338 0.072338 0.072338 0.072338 0.072338 0.072338 0.072338 0.072338 0.072338 0.072338 0.072338 0.072338 0.072338 0.072338 0.072338 0.072338 0.072338 0.0723379 0.072338 0.072338 0.0723379 0.072338 0.072338 0.0361689 0.036169 0.072338 0.072338 0.072338 0.072338 0.072338 0.072338 0.072338 0.072338 0.072338 0.072338 0.072338 0.072338 0.072338 0.072338 0.072338 0.072338 0.072338 0.0723379 0.072338 0.072338 0.0723379 0.072338 0.072338 0.036169 0.036169 0.072338 0.072338 0.072338 0.072338 0.072338 0.072338 0.072338 0.072338 0.072338 0.072338 0.072338 0.072338 0.072338 0.072338 0.072338 0.0723381 0.072338 0.072338 0.072338 0.072338 0.072338 0.072338 0.072338 0.036169 0.036169 0.072338 0.072338 0.072338 0.072338 0.072338 0.072338 0.072338 0.072338 0.072338 0.072338 0.072338 0.072338 0.072338 0.072338 0.072338 0.072338 0.0723379 0.0723379 0.072338 0.072338 0.0723379 0.072338 0.072338 0.0361689 0.036169 0.072338 0.072338 0.072338 0.072338 0.072338 0.072338 0.072338 0.072338 0.072338 0.072338 0.072338 0.072338 0.072338 0.072338 0.072338 0.072338 0.072338 0.072338 0.072338 0.072338 0.0723379 0.072338 0.072338 0.0361689 0.036169 0.072338 0.072338 0.072338 0.072338 0.072338 0.072338 0.072338 0.072338 0.072338 0.072338 0.072338 0.072338 0.072338 0.072338 0.072338 0.072338 0.072338 0.072338 0.072338 0.072338 0.072338 0.072338 0.072338 0.036169 0.036169 0.072338 0.072338 0.072338 0.072338 0.072338 0.072338 0.072338 0.072338 0.072338 0.072338 0.0723379 0.072338 0.072338 0.0723379 0.072338 0.072338 0.0723379 0.0723379 0.072338 0.072338 0.0723379 0.072338 0.072338 0.0361689 0.036169 0.072338 0.072338 0.072338 0.072338 0.072338 0.072338 0.072338 0.072338 0.072338 0.072338 0.072338 0.072338 0.072338 0.072338 0.072338 0.072338 0.0723379 0.0723379 0.072338 0.072338 0.0723379 0.072338 0.072338 0.0361689 0.036169 0.072338 0.072338 0.072338 0.072338 0.072338 0.072338 0.072338 0.072338 0.072338 0.072338 0.072338 0.072338 0.072338 0.072338 0.072338 0.072338 0.072338 0.072338 0.072338 0.072338 0.072338 0.072338 0.072338 0.036169 0.036169 0.072338 0.072338 0.072338 0.072338 0.072338 0.072338 0.072338 0.072338 0.072338 0.072338 0.072338 0.072338 0.072338 0.072338 0.072338 0.072338 0.0723379 0.0723379 0.072338 0.072338 0.0723379 0.072338 0.072338 0.0361689 0.036169 0.072338 0.072338 0.072338 0.072338 0.072338 0.072338 0.072338 0.072338 0.072338 0.072338 0.072338 0.072338 0.072338 0.072338 0.072338 0.0723381 0.072338 0.072338 0.0723381 0.072338 0.072338 0.072338 0.072338 0.036169 0.036169 0.072338 0.072338 0.072338 0.072338 0.072338 0.072338 0.072338 0.072338 0.072338 0.072338 0.072338 0.072338 0.072338 0.072338 0.072338 0.0723381 0.072338 0.072338 0.0723381 0.072338 0.072338 0.072338 0.072338 0.036169 0.036169 0.072338 0.072338 0.072338 0.072338 0.072338 0.072338 0.072338 0.072338 0.072338 0.072338 0.0723379 0.072338 0.072338 0.0723379 0.072338 0.072338 0.0723379 0.0723379 0.072338 0.072338 0.0723379 0.072338 0.072338 0.0361689 0.036169 0.072338 0.072338 0.072338 0.072338 0.072338 0.072338 0.072338 0.072338 0.072338 0.072338 0.072338 0.072338 0.072338 0.072338 0.072338 0.072338 0.0723379 0.0723379 0.072338 0.072338 0.0723379 0.072338 0.072338 0.0361689 0.036169 0.072338 0.072338 0.072338 0.072338 0.072338 0.072338 0.072338 0.072338 0.072338 0.072338 0.072338 0.072338 0.0723381 0.072338 0.072338 0.0723381 0.072338 0.072338 0.0723381 0.072338 0.072338 0.0723381 0.072338 0.036169 0.036169 0.072338 0.072338 0.072338 0.072338 0.072338 0.072338 0.072338 0.0723379 0.072338 0.072338 0.0723379 0.072338 0.072338 0.0723379 0.072338 0.072338 0.0723379 0.0723379 0.072338 0.072338 0.0723379 0.072338 0.072338 0.0361689 0.036169 0.0723379 0.0723379 0.0723379 0.0723379 0.0723379 0.0723379 0.0723379 0.0723379 0.0723379 0.0723379 0.0723379 0.0723379 0.072338 0.0723379 0.0723379 0.072338 0.0723379 0.0723379 0.072338 0.0723379 0.0723379 0.072338 0.0723379 0.0361689 0.036169 0.072338 0.072338 0.072338 0.072338 0.072338 0.072338 0.072338 0.072338 0.072338 0.072338 0.072338 0.072338 0.072338 0.072338 0.072338 0.0723381 0.072338 0.072338 0.0723381 0.072338 0.072338 0.072338 0.072338 0.036169 0.036169 0.072338 0.072338 0.072338 0.072338 0.072338 0.072338 0.072338 0.072338 0.072338 0.072338 0.072338 0.072338 0.072338 0.072338 0.072338 0.072338 0.072338 0.0723379 0.072338 0.072338 0.072338 0.072338 0.072338 0.036169 0.036169 0.0723379 0.0723379 0.0723379 0.072338 0.0723379 0.072338 0.072338 0.0723379 0.072338 0.072338 0.0723379 0.072338 0.072338 0.0723379 0.072338 0.072338 0.0723379 0.0723379 0.072338 0.072338 0.0723379 0.072338 0.0723379 0.0361689 0.036169 0.072338 0.072338 0.072338 0.072338 0.072338 0.072338 0.072338 0.072338 0.072338 0.072338 0.072338 0.072338 0.0723381 0.072338 0.072338 0.0723381 0.072338 0.072338 0.0723381 0.072338 0.072338 0.072338 0.072338 0.036169 0.036169 0.072338 0.072338 0.072338 0.072338 0.072338 0.072338 0.072338 0.072338 0.072338 0.072338 0.072338 0.072338 0.072338 0.072338 0.072338 0.072338 0.0723379 0.0723379 0.072338 0.072338 0.0723379 0.072338 0.072338 0.0361689 0.0180845 0.036169 0.036169 0.036169 0.036169 0.0361689 0.036169 0.036169 0.0361689 0.036169 0.036169 0.0361689 0.036169 0.036169 0.0361689 0.036169 0.036169 0.0361689 0.0361689 0.036169 0.036169 0.0361689 0.036169 0.036169 0.0180845 0.0180845 0.036169 0.036169 0.036169 0.036169 0.036169 0.036169 0.036169 0.036169 0.036169 0.036169 0.036169 0.036169 0.036169 0.036169 0.036169 0.036169 0.0361689 0.0361689 0.036169 0.036169 0.0361689 0.036169 0.036169 0.0180845 0.036169 0.0723379 0.0723379 0.0723379 0.0723379 0.0723379 0.0723379 0.0723379 0.0723379 0.0723379 0.0723379 0.0723379 0.0723379 0.072338 0.0723379 0.0723379 0.072338 0.0723379 0.0723379 0.072338 0.0723379 0.0723379 0.072338 0.0723379 0.0361689 0.036169 0.0723379 0.0723379 0.0723379 0.0723379 0.0723379 0.0723379 0.0723379 0.0723379 0.0723379 0.0723379 0.0723379 0.0723379 0.072338 0.0723379 0.0723379 0.072338 0.0723379 0.0723379 0.072338 0.0723379 0.0723379 0.072338 0.0723379 0.0361689 0.036169 0.0723379 0.0723379 0.0723379 0.0723379 0.0723379 0.0723379 0.0723379 0.0723379 0.0723379 0.0723379 0.0723379 0.0723379 0.072338 0.0723379 0.0723379 0.072338 0.0723379 0.0723379 0.072338 0.0723379 0.0723379 0.072338 0.0723379 0.0361689 0.036169 0.0723379 0.0723379 0.0723379 0.0723379 0.0723379 0.0723379 0.072338 0.0723379 0.0723379 0.0723379 0.0723379 0.0723379 0.072338 0.0723379 0.0723379 0.072338 0.0723379 0.0723379 0.072338 0.072338 0.0723379 0.072338 0.0723379 0.0361689 0.036169 0.0723379 0.0723379 0.0723379 0.0723379 0.0723379 0.0723379 0.0723379 0.0723379 0.0723379 0.0723379 0.0723379 0.0723379 0.072338 0.0723379 0.0723379 0.072338 0.0723379 0.0723379 0.072338 0.0723379 0.0723379 0.072338 0.0723379 0.0361689 0.036169 0.0723379 0.0723379 0.0723379 0.0723379 0.0723379 0.0723379 0.0723379 0.0723379 0.0723379 0.0723379 0.0723379 0.0723379 0.072338 0.0723379 0.0723379 0.072338 0.0723379 0.0723379 0.072338 0.0723379 0.0723379 0.072338 0.0723379 0.0361689 0.036169 0.0723379 0.0723379 0.0723379 0.0723379 0.0723379 0.0723379 0.072338 0.0723379 0.0723379 0.072338 0.0723379 0.0723379 0.072338 0.0723379 0.0723379 0.072338 0.0723379 0.0723379 0.072338 0.0723379 0.0723379 0.072338 0.0723379 0.0361689 0.036169 0.0723379 0.0723379 0.0723379 0.0723379 0.0723379 0.0723379 0.0723379 0.0723379 0.0723379 0.0723379 0.0723379 0.0723379 0.0723379 0.0723379 0.0723379 0.072338 0.0723379 0.0723379 0.072338 0.0723379 0.0723379 0.0723379 0.0723379 0.0361689 0.036169 0.0723379 0.0723379 0.0723379 0.0723379 0.0723379 0.0723379 0.0723379 0.0723379 0.0723379 0.0723379 0.0723379 0.0723379 0.072338 0.0723379 0.0723379 0.072338 0.0723379 0.0723379 0.072338 0.0723379 0.0723379 0.072338 0.0723379 0.0361689 0.036169 0.0723379 0.0723379 0.0723379 0.0723379 0.0723379 0.0723379 0.0723379 0.0723379 0.0723379 0.0723379 0.0723379 0.0723379 0.072338 0.0723379 0.0723379 0.072338 0.0723379 0.0723379 0.072338 0.0723379 0.0723379 0.072338 0.0723379 0.0361689 0.036169 0.0723379 0.0723379 0.0723379 0.0723379 0.0723379 0.0723379 0.0723379 0.0723379 0.0723379 0.0723379 0.0723379 0.0723379 0.072338 0.0723379 0.0723379 0.072338 0.0723379 0.0723379 0.072338 0.0723379 0.0723379 0.072338 0.0723379 0.0361689 0.036169 0.072338 0.072338 0.0723379 0.072338 0.0723379 0.0723379 0.072338 0.0723379 0.072338 0.072338 0.0723379 0.072338 0.072338 0.0723379 0.0723379 0.072338 0.0723379 0.0723379 0.072338 0.072338 0.0723379 0.072338 0.0723379 0.0361689 0.036169 0.0723379 0.0723379 0.072338 0.072338 0.0723379 0.072338 0.072338 0.0723379 0.072338 0.072338 0.0723379 0.072338 0.072338 0.0723379 0.072338 0.072338 0.0723379 0.0723379 0.072338 0.072338 0.0723379 0.072338 0.072338 0.0361689 0.036169 0.0723379 0.0723379 0.0723379 0.0723379 0.0723379 0.0723379 0.0723379 0.0723379 0.0723379 0.0723379 0.0723379 0.0723379 0.0723379 0.0723379 0.0723379 0.072338 0.0723379 0.0723379 0.072338 0.0723379 0.0723379 0.0723379 0.0723379 0.0361689 0.036169 0.0723379 0.0723379 0.0723379 0.0723379 0.0723379 0.0723379 0.0723379 0.0723379 0.0723379 0.0723379 0.0723379 0.0723379 0.0723379 0.0723379 0.0723379 0.072338 0.0723379 0.0723379 0.072338 0.0723379 0.0723379 0.072338 0.0723379 0.0361689 0.036169 0.072338 0.072338 0.072338 0.072338 0.072338 0.072338 0.072338 0.072338 0.072338 0.072338 0.072338 0.072338 0.072338 0.072338 0.072338 0.072338 0.072338 0.0723379 0.072338 0.072338 0.0723379 0.072338 0.072338 0.0361689 0.036169 0.0723379 0.0723379 0.0723379 0.0723379 0.0723379 0.0723379 0.0723379 0.0723379 0.0723379 0.0723379 0.0723379 0.0723379 0.0723379 0.0723379 0.0723379 0.072338 0.0723379 0.0723379 0.072338 0.0723379 0.0723379 0.0723379 0.0723379 0.0361689 0.0361689 0.0723379 0.0723379 0.0723379 0.0723379 0.0723379 0.0723379 0.0723379 0.0723379 0.0723379 0.0723379 0.0723379 0.0723379 0.0723379 0.0723379 0.0723379 0.0723379 0.0723379 0.0723379 0.0723379 0.0723379 0.0723378 0.0723379 0.0723379 0.0361689 0.036169 0.072338 0.072338 0.072338 0.072338 0.072338 0.072338 0.072338 0.0723379 0.072338 0.072338 0.0723379 0.072338 0.072338 0.0723379 0.072338 0.072338 0.0723379 0.0723379 0.072338 0.072338 0.0723379 0.072338 0.072338 0.0361689 0.036169 0.0723379 0.0723379 0.0723379 0.0723379 0.0723379 0.0723379 0.072338 0.0723379 0.0723379 0.0723379 0.0723379 0.0723379 0.072338 0.0723379 0.0723379 0.072338 0.0723379 0.0723379 0.072338 0.0723379 0.0723379 0.072338 0.0723379 0.0361689 0.0361689 0.0723379 0.0723379 0.0723379 0.0723379 0.0723379 0.0723379 0.0723379 0.0723379 0.0723379 0.0723379 0.0723379 0.0723379 0.0723379 0.0723379 0.0723379 0.072338 0.0723379 0.0723379 0.0723379 0.0723379 0.0723379 0.0723379 0.0723379 0.0361689 0.036169 0.072338 0.072338 0.072338 0.072338 0.0723379 0.072338 0.072338 0.0723379 0.072338 0.072338 0.0723379 0.072338 0.072338 0.0723379 0.072338 0.072338 0.0723379 0.0723379 0.072338 0.072338 0.0723379 0.072338 0.072338 0.0361689 0.036169 0.0723379 0.0723379 0.0723379 0.0723379 0.0723379 0.0723379 0.0723379 0.0723379 0.0723379 0.0723379 0.0723379 0.0723379 0.072338 0.0723379 0.0723379 0.072338 0.0723379 0.0723379 0.072338 0.0723379 0.0723379 0.0723379 0.0723379 0.0361689 0.0180845 0.0361689 0.0361689 0.0361689 0.0361689 0.0361689 0.0361689 0.0361689 0.0361689 0.0361689 0.0361689 0.0361689 0.0361689 0.0361689 0.0361689 0.0361689 0.036169 0.0361689 0.0361689 0.036169 0.0361689 0.0361689 0.0361689 0.0361689 0.0180844 0.0180845 0.036169 0.036169 0.036169 0.036169 0.036169 0.036169 0.036169 0.036169 0.036169 0.036169 0.036169 0.036169 0.036169 0.036169 0.036169 0.036169 0.036169 0.036169 0.036169 0.036169 0.0361689 0.036169 0.036169 0.0180845 0.036169 0.0723379 0.0723379 0.0723379 0.0723379 0.0723379 0.0723379 0.072338 0.0723379 0.0723379 0.072338 0.0723379 0.0723379 0.072338 0.0723379 0.0723379 0.072338 0.0723379 0.0723379 0.072338 0.072338 0.0723379 0.072338 0.0723379 0.0361689 0.036169 0.0723379 0.0723379 0.0723379 0.0723379 0.0723379 0.0723379 0.072338 0.0723379 0.0723379 0.072338 0.0723379 0.0723379 0.072338 0.0723379 0.0723379 0.072338 0.0723379 0.0723379 0.072338 0.072338 0.0723379 0.072338 0.0723379 0.0361689 0.036169 0.0723379 0.0723379 0.0723379 0.0723379 0.0723379 0.0723379 0.072338 0.0723379 0.0723379 0.072338 0.0723379 0.0723379 0.072338 0.0723379 0.0723379 0.072338 0.0723379 0.0723379 0.072338 0.072338 0.0723379 0.072338 0.0723379 0.0361689 0.036169 0.0723379 0.0723379 0.072338 0.072338 0.0723379 0.0723379 0.072338 0.0723379 0.072338 0.072338 0.0723379 0.072338 0.072338 0.0723379 0.0723379 0.072338 0.0723379 0.0723379 0.072338 0.072338 0.0723379 0.072338 0.0723379 0.0361689 0.036169 0.0723379 0.0723379 0.0723379 0.0723379 0.0723379 0.0723379 0.0723379 0.0723379 0.0723379 0.0723379 0.0723379 0.0723379 0.072338 0.0723379 0.0723379 0.072338 0.0723379 0.0723379 0.072338 0.0723379 0.0723379 0.072338 0.0723379 0.0361689 0.036169 0.0723379 0.0723379 0.0723379 0.0723379 0.0723379 0.0723379 0.072338 0.0723379 0.0723379 0.0723379 0.0723379 0.0723379 0.072338 0.0723379 0.0723379 0.072338 0.0723379 0.0723379 0.072338 0.072338 0.0723379 0.072338 0.0723379 0.0361689 0.036169 0.0723379 0.0723379 0.0723379 0.072338 0.0723379 0.072338 0.072338 0.0723379 0.072338 0.072338 0.0723379 0.072338 0.072338 0.0723379 0.0723379 0.072338 0.0723379 0.0723379 0.072338 0.072338 0.0723379 0.072338 0.072338 0.0361689 0.036169 0.0723379 0.0723379 0.0723379 0.0723379 0.0723379 0.0723379 0.0723379 0.0723379 0.0723379 0.0723379 0.0723379 0.0723379 0.0723379 0.0723379 0.0723379 0.072338 0.0723379 0.0723379 0.072338 0.0723379 0.0723379 0.0723379 0.0723379 0.0361689 0.036169 0.0723379 0.0723379 0.0723379 0.0723379 0.0723379 0.0723379 0.0723379 0.0723379 0.0723379 0.0723379 0.0723379 0.0723379 0.072338 0.0723379 0.0723379 0.072338 0.0723379 0.0723379 0.072338 0.0723379 0.0723379 0.072338 0.0723379 0.0361689 0.036169 0.0723379 0.0723379 0.0723379 0.0723379 0.0723379 0.0723379 0.072338 0.0723379 0.072338 0.072338 0.0723379 0.072338 0.072338 0.0723379 0.0723379 0.072338 0.0723379 0.0723379 0.072338 0.072338 0.0723379 0.072338 0.0723379 0.0361689 0.036169 0.0723379 0.0723379 0.0723379 0.0723379 0.0723379 0.0723379 0.0723379 0.0723379 0.0723379 0.0723379 0.0723379 0.0723379 0.072338 0.0723379 0.0723379 0.072338 0.0723379 0.0723379 0.072338 0.0723379 0.0723379 0.072338 0.0723379 0.0361689 0.036169 0.072338 0.072338 0.072338 0.072338 0.0723379 0.072338 0.072338 0.0723379 0.072338 0.072338 0.0723379 0.072338 0.072338 0.0723379 0.072338 0.072338 0.0723379 0.0723379 0.072338 0.072338 0.0723379 0.072338 0.072338 0.0361689 0.036169 0.072338 0.072338 0.072338 0.072338 0.0723379 0.072338 0.072338 0.0723379 0.072338 0.072338 0.0723379 0.072338 0.072338 0.0723379 0.072338 0.072338 0.0723379 0.0723379 0.072338 0.072338 0.0723379 0.072338 0.072338 0.0361689 0.036169 0.0723379 0.0723379 0.0723379 0.0723379 0.0723379 0.0723379 0.0723379 0.0723379 0.0723379 0.0723379 0.0723379 0.0723379 0.072338 0.0723379 0.0723379 0.072338 0.0723379 0.0723379 0.072338 0.0723379 0.0723379 0.072338 0.0723379 0.0361689 0.036169 0.0723379 0.0723379 0.0723379 0.0723379 0.0723379 0.0723379 0.0723379 0.0723379 0.0723379 0.0723379 0.0723379 0.0723379 0.072338 0.0723379 0.0723379 0.072338 0.0723379 0.0723379 0.072338 0.0723379 0.0723379 0.072338 0.0723379 0.0361689 0.036169 0.072338 0.072338 0.072338 0.072338 0.072338 0.072338 0.072338 0.072338 0.072338 0.072338 0.072338 0.072338 0.072338 0.072338 0.072338 0.072338 0.072338 0.0723379 0.072338 0.072338 0.0723379 0.072338 0.072338 0.036169 0.036169 0.0723379 0.0723379 0.0723379 0.0723379 0.0723379 0.0723379 0.0723379 0.0723379 0.0723379 0.0723379 0.0723379 0.0723379 0.0723379 0.0723379 0.0723379 0.072338 0.0723379 0.0723379 0.072338 0.0723379 0.0723379 0.0723379 0.0723379 0.0361689 0.0361689 0.0723379 0.0723379 0.0723379 0.0723379 0.0723379 0.0723379 0.0723379 0.0723379 0.0723379 0.0723379 0.0723379 0.0723379 0.0723379 0.0723379 0.0723379 0.0723379 0.0723379 0.0723379 0.0723379 0.0723379 0.0723379 0.0723379 0.0723379 0.0361689 0.036169 0.072338 0.072338 0.072338 0.072338 0.072338 0.072338 0.072338 0.072338 0.072338 0.072338 0.072338 0.072338 0.072338 0.0723379 0.072338 0.072338 0.0723379 0.0723379 0.072338 0.072338 0.0723379 0.072338 0.072338 0.0361689 0.036169 0.0723379 0.0723379 0.0723379 0.0723379 0.0723379 0.0723379 0.072338 0.0723379 0.0723379 0.072338 0.0723379 0.0723379 0.072338 0.0723379 0.0723379 0.072338 0.0723379 0.0723379 0.072338 0.072338 0.0723379 0.072338 0.0723379 0.0361689 0.036169 0.0723379 0.0723379 0.0723379 0.0723379 0.0723379 0.0723379 0.0723379 0.0723379 0.0723379 0.0723379 0.0723379 0.0723379 0.0723379 0.0723379 0.0723379 0.072338 0.0723379 0.0723379 0.0723379 0.0723379 0.0723379 0.0723379 0.0723379 0.0361689 0.036169 0.072338 0.072338 0.072338 0.072338 0.072338 0.072338 0.072338 0.0723379 0.072338 0.072338 0.0723379 0.072338 0.072338 0.0723379 0.072338 0.072338 0.0723379 0.0723379 0.072338 0.072338 0.0723379 0.072338 0.072338 0.0361689 0.036169 0.0723379 0.0723379 0.0723379 0.0723379 0.0723379 0.0723379 0.0723379 0.0723379 0.0723379 0.0723379 0.0723379 0.0723379 0.072338 0.0723379 0.0723379 0.072338 0.0723379 0.0723379 0.072338 0.0723379 0.0723379 0.072338 0.0723379 0.0361689 0.0180845 0.0361689 0.0361689 0.0361689 0.0361689 0.0361689 0.0361689 0.0361689 0.0361689 0.0361689 0.0361689 0.0361689 0.0361689 0.0361689 0.0361689 0.0361689 0.036169 0.0361689 0.0361689 0.036169 0.0361689 0.0361689 0.0361689 0.0361689 0.0180844 0.0180845 0.036169 0.036169 0.036169 0.036169 0.036169 0.036169 0.036169 0.036169 0.036169 0.036169 0.036169 0.036169 0.036169 0.036169 0.036169 0.036169 0.036169 0.036169 0.036169 0.036169 0.036169 0.036169 0.036169 0.0180845 0.036169 0.072338 0.072338 0.072338 0.072338 0.072338 0.072338 0.072338 0.072338 0.072338 0.072338 0.072338 0.072338 0.072338 0.072338 0.072338 0.0723381 0.072338 0.072338 0.0723381 0.072338 0.072338 0.072338 0.072338 0.036169 0.036169 0.072338 0.072338 0.072338 0.072338 0.072338 0.072338 0.072338 0.072338 0.072338 0.072338 0.072338 0.072338 0.072338 0.072338 0.072338 0.0723381 0.072338 0.072338 0.0723381 0.072338 0.072338 0.072338 0.072338 0.036169 0.036169 0.072338 0.072338 0.072338 0.072338 0.072338 0.072338 0.072338 0.072338 0.072338 0.072338 0.072338 0.072338 0.0723381 0.072338 0.072338 0.0723381 0.072338 0.072338 0.0723381 0.072338 0.072338 0.0723381 0.072338 0.036169 0.036169 0.072338 0.072338 0.072338 0.072338 0.072338 0.072338 0.072338 0.072338 0.072338 0.072338 0.072338 0.072338 0.0723381 0.072338 0.072338 0.0723381 0.072338 0.072338 0.0723381 0.072338 0.072338 0.0723381 0.072338 0.036169 0.036169 0.072338 0.072338 0.072338 0.072338 0.072338 0.072338 0.072338 0.072338 0.072338 0.072338 0.072338 0.072338 0.072338 0.072338 0.072338 0.0723381 0.072338 0.072338 0.0723381 0.072338 0.072338 0.072338 0.072338 0.036169 0.036169 0.072338 0.072338 0.072338 0.072338 0.072338 0.072338 0.072338 0.072338 0.072338 0.072338 0.072338 0.072338 0.0723381 0.072338 0.072338 0.0723381 0.072338 0.072338 0.0723381 0.072338 0.072338 0.0723381 0.072338 0.036169 0.036169 0.072338 0.072338 0.072338 0.072338 0.072338 0.072338 0.072338 0.072338 0.072338 0.072338 0.072338 0.072338 0.0723381 0.072338 0.072338 0.0723381 0.072338 0.072338 0.0723381 0.072338 0.072338 0.0723381 0.072338 0.036169 0.036169 0.072338 0.072338 0.072338 0.072338 0.072338 0.072338 0.072338 0.072338 0.072338 0.072338 0.072338 0.072338 0.072338 0.072338 0.072338 0.0723381 0.072338 0.072338 0.072338 0.072338 0.072338 0.072338 0.072338 0.036169 0.036169 0.072338 0.072338 0.072338 0.072338 0.072338 0.072338 0.072338 0.072338 0.072338 0.072338 0.072338 0.072338 0.0723381 0.072338 0.072338 0.0723381 0.072338 0.072338 0.0723381 0.072338 0.072338 0.0723381 0.072338 0.036169 0.036169 0.072338 0.072338 0.072338 0.072338 0.072338 0.072338 0.072338 0.072338 0.072338 0.072338 0.072338 0.072338 0.0723381 0.072338 0.072338 0.0723381 0.072338 0.072338 0.0723381 0.072338 0.072338 0.0723381 0.072338 0.036169 0.036169 0.072338 0.072338 0.072338 0.072338 0.072338 0.072338 0.072338 0.072338 0.072338 0.072338 0.072338 0.072338 0.072338 0.072338 0.072338 0.0723381 0.072338 0.072338 0.0723381 0.072338 0.072338 0.072338 0.072338 0.036169 0.036169 0.072338 0.072338 0.072338 0.072338 0.072338 0.072338 0.072338 0.072338 0.072338 0.072338 0.072338 0.072338 0.0723381 0.072338 0.072338 0.0723381 0.072338 0.072338 0.0723381 0.072338 0.072338 0.0723381 0.072338 0.036169 0.036169 0.072338 0.072338 0.072338 0.072338 0.072338 0.072338 0.0723381 0.072338 0.072338 0.0723381 0.072338 0.0723381 0.0723381 0.072338 0.072338 0.0723381 0.072338 0.072338 0.0723381 0.072338 0.072338 0.0723381 0.072338 0.036169 0.036169 0.072338 0.072338 0.072338 0.072338 0.072338 0.072338 0.072338 0.072338 0.072338 0.072338 0.072338 0.072338 0.072338 0.072338 0.072338 0.072338 0.072338 0.072338 0.072338 0.072338 0.072338 0.072338 0.072338 0.036169 0.036169 0.072338 0.072338 0.072338 0.072338 0.072338 0.072338 0.072338 0.072338 0.072338 0.072338 0.072338 0.072338 0.072338 0.072338 0.072338 0.0723381 0.072338 0.072338 0.0723381 0.072338 0.072338 0.072338 0.072338 0.036169 0.036169 0.0723381 0.0723381 0.0723381 0.0723381 0.0723381 0.0723381 0.0723381 0.0723381 0.0723381 0.0723381 0.0723381 0.0723381 0.0723381 0.0723381 0.0723381 0.0723381 0.072338 0.072338 0.0723381 0.0723381 0.072338 0.0723381 0.0723381 0.036169 0.036169 0.072338 0.072338 0.072338 0.072338 0.072338 0.072338 0.072338 0.072338 0.072338 0.072338 0.072338 0.072338 0.072338 0.072338 0.072338 0.072338 0.072338 0.072338 0.072338 0.072338 0.072338 0.072338 0.072338 0.036169 0.036169 0.072338 0.072338 0.072338 0.072338 0.072338 0.072338 0.072338 0.0723379 0.072338 0.072338 0.0723379 0.072338 0.072338 0.0723379 0.072338 0.072338 0.0723379 0.0723379 0.072338 0.072338 0.0723379 0.072338 0.072338 0.0361689 0.036169 0.0723381 0.0723381 0.0723381 0.0723381 0.072338 0.072338 0.0723381 0.072338 0.0723381 0.0723381 0.072338 0.0723381 0.0723381 0.072338 0.0723381 0.0723381 0.072338 0.072338 0.0723381 0.0723381 0.072338 0.0723381 0.072338 0.036169 0.036169 0.072338 0.072338 0.072338 0.072338 0.072338 0.072338 0.072338 0.072338 0.072338 0.072338 0.072338 0.072338 0.072338 0.072338 0.072338 0.0723381 0.072338 0.072338 0.0723381 0.072338 0.072338 0.072338 0.072338 0.036169 0.036169 0.072338 0.072338 0.072338 0.072338 0.072338 0.072338 0.072338 0.072338 0.072338 0.072338 0.072338 0.072338 0.072338 0.072338 0.072338 0.072338 0.0723379 0.0723379 0.072338 0.072338 0.0723379 0.072338 0.072338 0.036169 0.036169 0.072338 0.072338 0.0723381 0.0723381 0.072338 0.072338 0.0723381 0.072338 0.0723381 0.0723381 0.072338 0.0723381 0.0723381 0.072338 0.072338 0.0723381 0.072338 0.072338 0.0723381 0.0723381 0.072338 0.0723381 0.072338 0.036169 0.036169 0.072338 0.072338 0.072338 0.072338 0.072338 0.072338 0.072338 0.072338 0.072338 0.072338 0.072338 0.072338 0.072338 0.072338 0.072338 0.0723381 0.072338 0.072338 0.0723381 0.072338 0.072338 0.072338 0.072338 0.036169 0.0180845 0.036169 0.036169 0.036169 0.036169 0.036169 0.036169 0.036169 0.036169 0.036169 0.036169 0.036169 0.036169 0.036169 0.036169 0.036169 0.036169 0.036169 0.0361689 0.036169 0.036169 0.0361689 0.036169 0.036169 0.0180845 0.0180845 0.036169 0.036169 0.036169 0.036169 0.036169 0.036169 0.036169 0.036169 0.036169 0.036169 0.036169 0.036169 0.036169 0.036169 0.036169 0.036169 0.036169 0.036169 0.036169 0.036169 0.036169 0.036169 0.036169 0.0180845 0.036169 0.072338 0.072338 0.072338 0.072338 0.0723379 0.072338 0.072338 0.0723379 0.072338 0.072338 0.0723379 0.072338 0.072338 0.0723379 0.072338 0.072338 0.0723379 0.0723379 0.072338 0.072338 0.0723379 0.072338 0.072338 0.0361689 0.036169 0.072338 0.072338 0.072338 0.072338 0.0723379 0.072338 0.072338 0.0723379 0.072338 0.072338 0.0723379 0.072338 0.072338 0.0723379 0.072338 0.072338 0.0723379 0.0723379 0.072338 0.072338 0.0723379 0.072338 0.072338 0.0361689 0.036169 0.072338 0.072338 0.072338 0.072338 0.0723379 0.072338 0.072338 0.0723379 0.072338 0.072338 0.0723379 0.072338 0.072338 0.0723379 0.072338 0.072338 0.0723379 0.0723379 0.072338 0.072338 0.0723379 0.072338 0.072338 0.0361689 0.036169 0.072338 0.072338 0.072338 0.072338 0.072338 0.072338 0.072338 0.0723379 0.072338 0.072338 0.0723379 0.072338 0.072338 0.0723379 0.072338 0.072338 0.0723379 0.0723379 0.072338 0.072338 0.0723379 0.072338 0.072338 0.0361689 0.036169 0.0723379 0.0723379 0.0723379 0.072338 0.0723379 0.0723379 0.072338 0.0723379 0.072338 0.072338 0.0723379 0.072338 0.072338 0.0723379 0.0723379 0.072338 0.0723379 0.0723379 0.072338 0.072338 0.0723379 0.072338 0.0723379 0.0361689 0.036169 0.0723379 0.072338 0.072338 0.072338 0.072338 0.072338 0.072338 0.0723379 0.072338 0.072338 0.0723379 0.072338 0.072338 0.0723379 0.072338 0.072338 0.0723379 0.0723379 0.072338 0.072338 0.0723379 0.072338 0.072338 0.0361689 0.036169 0.072338 0.072338 0.072338 0.072338 0.072338 0.072338 0.072338 0.072338 0.072338 0.072338 0.0723379 0.072338 0.072338 0.0723379 0.072338 0.072338 0.0723379 0.0723379 0.072338 0.072338 0.0723379 0.072338 0.072338 0.0361689 0.036169 0.0723379 0.0723379 0.0723379 0.0723379 0.0723379 0.0723379 0.0723379 0.0723379 0.0723379 0.0723379 0.0723379 0.0723379 0.072338 0.0723379 0.0723379 0.072338 0.0723379 0.0723379 0.072338 0.0723379 0.0723379 0.072338 0.0723379 0.0361689 0.036169 0.0723379 0.0723379 0.072338 0.072338 0.0723379 0.0723379 0.072338 0.0723379 0.072338 0.072338 0.0723379 0.072338 0.072338 0.0723379 0.072338 0.072338 0.0723379 0.0723379 0.072338 0.072338 0.0723379 0.072338 0.0723379 0.0361689 0.036169 0.072338 0.072338 0.072338 0.072338 0.0723379 0.072338 0.072338 0.0723379 0.072338 0.072338 0.0723379 0.072338 0.072338 0.0723379 0.072338 0.072338 0.0723379 0.0723379 0.072338 0.072338 0.0723379 0.072338 0.072338 0.0361689 0.036169 0.0723379 0.0723379 0.0723379 0.0723379 0.0723379 0.0723379 0.072338 0.0723379 0.0723379 0.072338 0.0723379 0.0723379 0.072338 0.0723379 0.0723379 0.072338 0.0723379 0.0723379 0.072338 0.0723379 0.0723379 0.072338 0.0723379 0.0361689 0.036169 0.072338 0.072338 0.072338 0.072338 0.072338 0.072338 0.072338 0.072338 0.072338 0.072338 0.0723379 0.072338 0.072338 0.0723379 0.072338 0.072338 0.0723379 0.0723379 0.072338 0.072338 0.0723379 0.072338 0.072338 0.0361689 0.036169 0.072338 0.072338 0.072338 0.072338 0.072338 0.072338 0.072338 0.072338 0.072338 0.072338 0.072338 0.072338 0.072338 0.072338 0.072338 0.072338 0.0723379 0.0723379 0.072338 0.072338 0.0723379 0.072338 0.072338 0.0361689 0.036169 0.0723379 0.0723379 0.0723379 0.0723379 0.0723379 0.0723379 0.0723379 0.0723379 0.0723379 0.0723379 0.0723379 0.0723379 0.072338 0.0723379 0.0723379 0.072338 0.0723379 0.0723379 0.072338 0.0723379 0.0723379 0.072338 0.0723379 0.0361689 0.036169 0.0723379 0.0723379 0.0723379 0.0723379 0.0723379 0.0723379 0.072338 0.0723379 0.0723379 0.0723379 0.0723379 0.0723379 0.072338 0.0723379 0.0723379 0.072338 0.0723379 0.0723379 0.072338 0.072338 0.0723379 0.072338 0.0723379 0.0361689 0.036169 0.072338 0.072338 0.072338 0.072338 0.072338 0.072338 0.072338 0.072338 0.072338 0.072338 0.072338 0.072338 0.072338 0.072338 0.072338 0.072338 0.072338 0.072338 0.072338 0.072338 0.072338 0.072338 0.072338 0.036169 0.036169 0.0723379 0.0723379 0.0723379 0.0723379 0.0723379 0.0723379 0.0723379 0.0723379 0.0723379 0.0723379 0.0723379 0.0723379 0.072338 0.0723379 0.0723379 0.072338 0.0723379 0.0723379 0.072338 0.0723379 0.0723379 0.072338 0.0723379 0.0361689 0.036169 0.0723379 0.0723379 0.0723379 0.0723379 0.0723379 0.0723379 0.0723379 0.0723379 0.0723379 0.0723379 0.0723379 0.0723379 0.0723379 0.0723379 0.0723379 0.072338 0.0723379 0.0723379 0.0723379 0.0723379 0.0723379 0.0723379 0.0723379 0.0361689 0.036169 0.072338 0.072338 0.072338 0.072338 0.072338 0.072338 0.072338 0.072338 0.072338 0.072338 0.072338 0.072338 0.072338 0.072338 0.072338 0.072338 0.072338 0.0723379 0.072338 0.072338 0.0723379 0.072338 0.072338 0.036169 0.036169 0.072338 0.072338 0.072338 0.072338 0.0723379 0.072338 0.072338 0.0723379 0.072338 0.072338 0.0723379 0.072338 0.072338 0.0723379 0.072338 0.072338 0.0723379 0.0723379 0.072338 0.072338 0.0723379 0.072338 0.072338 0.0361689 0.036169 0.0723379 0.0723379 0.0723379 0.0723379 0.0723379 0.0723379 0.0723379 0.0723379 0.0723379 0.0723379 0.0723379 0.0723379 0.0723379 0.0723379 0.0723379 0.072338 0.0723379 0.0723379 0.072338 0.0723379 0.0723379 0.0723379 0.0723379 0.0361689 0.036169 0.072338 0.072338 0.072338 0.072338 0.072338 0.072338 0.072338 0.072338 0.072338 0.072338 0.072338 0.072338 0.072338 0.072338 0.072338 0.072338 0.0723379 0.0723379 0.072338 0.072338 0.0723379 0.072338 0.072338 0.0361689 0.036169 0.0723379 0.0723379 0.0723379 0.0723379 0.0723379 0.0723379 0.072338 0.0723379 0.072338 0.0723379 0.0723379 0.0723379 0.072338 0.0723379 0.0723379 0.072338 0.0723379 0.0723379 0.072338 0.072338 0.0723379 0.072338 0.0723379 0.0361689 0.0180845 0.0361689 0.0361689 0.0361689 0.0361689 0.0361689 0.0361689 0.0361689 0.0361689 0.0361689 0.0361689 0.0361689 0.0361689 0.036169 0.0361689 0.0361689 0.036169 0.0361689 0.0361689 0.036169 0.0361689 0.0361689 0.036169 0.0361689 0.0180844 0.0180845 0.036169 0.036169 0.036169 0.036169 0.036169 0.036169 0.036169 0.036169 0.036169 0.036169 0.0361689 0.036169 0.036169 0.0361689 0.036169 0.036169 0.0361689 0.0361689 0.036169 0.036169 0.0361689 0.036169 0.036169 0.0180845 0.036169 0.0723379 0.0723379 0.0723379 0.0723379 0.0723379 0.0723379 0.0723379 0.0723379 0.0723379 0.0723379 0.0723379 0.0723379 0.0723379 0.0723379 0.0723379 0.072338 0.0723379 0.0723379 0.072338 0.0723379 0.0723379 0.0723379 0.0723379 0.0361689 0.036169 0.0723379 0.0723379 0.0723379 0.0723379 0.0723379 0.0723379 0.0723379 0.0723379 0.0723379 0.0723379 0.0723379 0.0723379 0.0723379 0.0723379 0.0723379 0.072338 0.0723379 0.0723379 0.072338 0.0723379 0.0723379 0.0723379 0.0723379 0.0361689 0.036169 0.0723379 0.0723379 0.0723379 0.0723379 0.0723379 0.0723379 0.0723379 0.0723379 0.0723379 0.0723379 0.0723379 0.0723379 0.0723379 0.0723379 0.0723379 0.072338 0.0723379 0.0723379 0.072338 0.0723379 0.0723379 0.0723379 0.0723379 0.0361689 0.036169 0.0723379 0.0723379 0.0723379 0.0723379 0.0723379 0.0723379 0.0723379 0.0723379 0.0723379 0.0723379 0.0723379 0.0723379 0.0723379 0.0723379 0.0723379 0.072338 0.0723379 0.0723379 0.072338 0.0723379 0.0723379 0.0723379 0.0723379 0.0361689 0.036169 0.0723379 0.0723379 0.0723379 0.0723379 0.0723379 0.0723379 0.0723379 0.0723379 0.0723379 0.0723379 0.0723379 0.0723379 0.0723379 0.0723379 0.0723379 0.072338 0.0723379 0.0723379 0.072338 0.0723379 0.0723379 0.0723379 0.0723379 0.0361689 0.036169 0.0723379 0.0723379 0.0723379 0.0723379 0.0723379 0.0723379 0.0723379 0.0723379 0.0723379 0.0723379 0.0723379 0.0723379 0.0723379 0.0723379 0.0723379 0.072338 0.0723379 0.0723379 0.072338 0.0723379 0.0723379 0.072338 0.0723379 0.0361689 0.036169 0.0723379 0.0723379 0.0723379 0.0723379 0.0723379 0.0723379 0.0723379 0.0723379 0.0723379 0.0723379 0.0723379 0.0723379 0.072338 0.0723379 0.0723379 0.072338 0.0723379 0.0723379 0.072338 0.0723379 0.0723379 0.072338 0.0723379 0.0361689 0.0361689 0.0723379 0.0723379 0.0723379 0.0723379 0.0723379 0.0723379 0.0723379 0.0723379 0.0723379 0.0723379 0.0723379 0.0723379 0.0723379 0.0723379 0.0723379 0.0723379 0.0723379 0.0723379 0.0723379 0.0723379 0.0723379 0.0723379 0.0723379 0.0361689 0.036169 0.0723379 0.0723379 0.0723379 0.0723379 0.0723379 0.0723379 0.0723379 0.0723379 0.0723379 0.0723379 0.0723379 0.0723379 0.0723379 0.0723379 0.0723379 0.072338 0.0723379 0.0723379 0.072338 0.0723379 0.0723379 0.072338 0.0723379 0.0361689 0.036169 0.0723379 0.0723379 0.0723379 0.0723379 0.0723379 0.0723379 0.0723379 0.0723379 0.0723379 0.0723379 0.0723379 0.0723379 0.072338 0.0723379 0.0723379 0.072338 0.0723379 0.0723379 0.072338 0.0723379 0.0723379 0.072338 0.0723379 0.0361689 0.036169 0.0723379 0.0723379 0.0723379 0.0723379 0.0723379 0.0723379 0.0723379 0.0723379 0.0723379 0.0723379 0.0723379 0.0723379 0.0723379 0.0723379 0.0723379 0.0723379 0.0723379 0.0723379 0.0723379 0.0723379 0.0723379 0.0723379 0.0723379 0.0361689 0.036169 0.0723379 0.0723379 0.0723379 0.0723379 0.0723379 0.0723379 0.0723379 0.0723379 0.0723379 0.0723379 0.0723379 0.0723379 0.072338 0.0723379 0.0723379 0.072338 0.0723379 0.0723379 0.072338 0.0723379 0.0723379 0.072338 0.0723379 0.0361689 0.036169 0.0723379 0.0723379 0.0723379 0.0723379 0.0723379 0.0723379 0.0723379 0.0723379 0.0723379 0.0723379 0.0723379 0.0723379 0.072338 0.0723379 0.0723379 0.072338 0.0723379 0.0723379 0.072338 0.0723379 0.0723379 0.072338 0.0723379 0.0361689 0.0361689 0.0723379 0.0723379 0.0723379 0.0723379 0.0723379 0.0723379 0.0723379 0.0723379 0.0723379 0.0723379 0.0723379 0.0723379 0.0723379 0.0723379 0.0723379 0.0723379 0.0723379 0.0723379 0.0723379 0.0723379 0.0723379 0.0723379 0.0723379 0.0361689 0.036169 0.0723379 0.0723379 0.0723379 0.0723379 0.0723379 0.0723379 0.0723379 0.0723379 0.0723379 0.0723379 0.0723379 0.0723379 0.0723379 0.0723379 0.0723379 0.072338 0.0723379 0.0723379 0.072338 0.0723379 0.0723379 0.0723379 0.0723379 0.0361689 0.036169 0.072338 0.072338 0.072338 0.072338 0.072338 0.072338 0.072338 0.072338 0.072338 0.072338 0.0723379 0.072338 0.072338 0.0723379 0.072338 0.072338 0.0723379 0.0723379 0.072338 0.072338 0.0723379 0.072338 0.072338 0.0361689 0.0361689 0.0723379 0.0723379 0.0723379 0.0723379 0.0723379 0.0723379 0.0723379 0.0723379 0.0723379 0.0723379 0.0723379 0.0723379 0.0723379 0.0723379 0.0723379 0.0723379 0.0723379 0.0723379 0.0723379 0.0723379 0.0723379 0.0723379 0.0723379 0.0361689 0.0361689 0.0723379 0.0723379 0.0723379 0.0723379 0.0723379 0.0723379 0.0723379 0.0723379 0.0723379 0.0723379 0.0723378 0.0723379 0.0723379 0.0723379 0.0723379 0.0723379 0.0723378 0.0723378 0.0723379 0.0723379 0.0723378 0.0723379 0.0723379 0.0361689 0.036169 0.0723379 0.0723379 0.072338 0.072338 0.0723379 0.0723379 0.072338 0.0723379 0.072338 0.072338 0.0723379 0.072338 0.072338 0.0723379 0.0723379 0.072338 0.0723379 0.0723379 0.072338 0.072338 0.0723379 0.072338 0.0723379 0.0361689 0.036169 0.0723379 0.0723379 0.0723379 0.0723379 0.0723379 0.0723379 0.0723379 0.0723379 0.0723379 0.0723379 0.0723379 0.0723379 0.0723379 0.0723379 0.0723379 0.072338 0.0723379 0.0723379 0.072338 0.0723379 0.0723379 0.0723379 0.0723379 0.0361689 0.0361689 0.0723379 0.0723379 0.0723379 0.0723379 0.0723379 0.0723379 0.0723379 0.0723379 0.0723379 0.0723379 0.0723379 0.0723379 0.0723379 0.0723379 0.0723379 0.0723379 0.0723379 0.0723379 0.0723379 0.0723379 0.0723378 0.0723379 0.0723379 0.0361689 0.036169 0.0723379 0.0723379 0.0723379 0.0723379 0.0723379 0.0723379 0.072338 0.0723379 0.072338 0.072338 0.0723379 0.0723379 0.072338 0.0723379 0.072338 0.072338 0.0723379 0.0723379 0.072338 0.072338 0.0723379 0.072338 0.0723379 0.0361689 0.036169 0.0723379 0.0723379 0.0723379 0.0723379 0.0723379 0.0723379 0.0723379 0.0723379 0.0723379 0.0723379 0.0723379 0.0723379 0.0723379 0.0723379 0.0723379 0.072338 0.0723379 0.0723379 0.072338 0.0723379 0.0723379 0.0723379 0.0723379 0.0361689 0.0180845 0.0361689 0.0361689 0.0361689 0.0361689 0.0361689 0.0361689 0.0361689 0.0361689 0.0361689 0.0361689 0.0361689 0.0361689 0.0361689 0.0361689 0.0361689 0.0361689 0.0361689 0.0361689 0.0361689 0.0361689 0.0361689 0.0361689 0.0361689 0.0180844 0.0180845 0.036169 0.036169 0.036169 0.036169 0.036169 0.036169 0.036169 0.036169 0.036169 0.036169 0.036169 0.036169 0.036169 0.036169 0.036169 0.036169 0.036169 0.036169 0.036169 0.036169 0.036169 0.036169 0.036169 0.0180845 0.036169 0.072338 0.072338 0.072338 0.072338 0.072338 0.072338 0.072338 0.072338 0.072338 0.072338 0.072338 0.072338 0.0723381 0.072338 0.072338 0.0723381 0.072338 0.072338 0.0723381 0.072338 0.072338 0.072338 0.072338 0.036169 0.036169 0.072338 0.072338 0.072338 0.072338 0.072338 0.072338 0.072338 0.072338 0.072338 0.072338 0.072338 0.072338 0.072338 0.072338 0.072338 0.0723381 0.072338 0.072338 0.0723381 0.072338 0.072338 0.072338 0.072338 0.036169 0.036169 0.072338 0.072338 0.072338 0.072338 0.072338 0.072338 0.072338 0.072338 0.072338 0.072338 0.072338 0.072338 0.072338 0.072338 0.072338 0.0723381 0.072338 0.072338 0.0723381 0.072338 0.072338 0.072338 0.072338 0.036169 0.036169 0.072338 0.072338 0.072338 0.072338 0.072338 0.072338 0.072338 0.072338 0.072338 0.072338 0.072338 0.072338 0.0723381 0.072338 0.072338 0.0723381 0.072338 0.072338 0.0723381 0.072338 0.072338 0.072338 0.072338 0.036169 0.036169 0.072338 0.072338 0.072338 0.072338 0.072338 0.072338 0.072338 0.072338 0.072338 0.072338 0.072338 0.072338 0.072338 0.072338 0.072338 0.0723381 0.072338 0.072338 0.0723381 0.072338 0.072338 0.072338 0.072338 0.036169 0.036169 0.072338 0.072338 0.072338 0.072338 0.072338 0.072338 0.072338 0.072338 0.072338 0.072338 0.072338 0.072338 0.072338 0.072338 0.072338 0.0723381 0.072338 0.072338 0.0723381 0.072338 0.072338 0.072338 0.072338 0.036169 0.036169 0.072338 0.072338 0.072338 0.072338 0.072338 0.072338 0.072338 0.072338 0.072338 0.072338 0.072338 0.072338 0.072338 0.072338 0.072338 0.0723381 0.072338 0.072338 0.0723381 0.072338 0.072338 0.072338 0.072338 0.036169 0.036169 0.072338 0.072338 0.072338 0.072338 0.072338 0.072338 0.072338 0.072338 0.072338 0.072338 0.072338 0.072338 0.072338 0.072338 0.072338 0.072338 0.0723379 0.0723379 0.072338 0.072338 0.0723379 0.072338 0.072338 0.036169 0.036169 0.072338 0.072338 0.072338 0.072338 0.072338 0.072338 0.072338 0.072338 0.072338 0.072338 0.072338 0.072338 0.072338 0.072338 0.072338 0.0723381 0.072338 0.072338 0.0723381 0.072338 0.072338 0.072338 0.072338 0.036169 0.036169 0.072338 0.072338 0.072338 0.072338 0.072338 0.072338 0.072338 0.072338 0.072338 0.072338 0.072338 0.072338 0.072338 0.072338 0.072338 0.0723381 0.072338 0.072338 0.0723381 0.072338 0.072338 0.072338 0.072338 0.036169 0.036169 0.072338 0.072338 0.072338 0.072338 0.072338 0.072338 0.072338 0.072338 0.072338 0.072338 0.072338 0.072338 0.072338 0.072338 0.072338 0.072338 0.072338 0.0723379 0.072338 0.072338 0.072338 0.072338 0.072338 0.036169 0.036169 0.072338 0.072338 0.072338 0.072338 0.072338 0.072338 0.072338 0.072338 0.072338 0.072338 0.072338 0.072338 0.072338 0.072338 0.072338 0.0723381 0.072338 0.072338 0.0723381 0.072338 0.072338 0.0723381 0.072338 0.036169 0.036169 0.072338 0.072338 0.072338 0.072338 0.072338 0.072338 0.072338 0.072338 0.072338 0.072338 0.072338 0.072338 0.0723381 0.072338 0.072338 0.0723381 0.072338 0.072338 0.0723381 0.072338 0.072338 0.0723381 0.072338 0.036169 0.036169 0.072338 0.072338 0.072338 0.072338 0.072338 0.072338 0.072338 0.072338 0.072338 0.072338 0.072338 0.072338 0.072338 0.072338 0.072338 0.072338 0.072338 0.0723379 0.072338 0.072338 0.072338 0.072338 0.072338 0.036169 0.036169 0.072338 0.072338 0.072338 0.072338 0.072338 0.072338 0.072338 0.072338 0.072338 0.072338 0.072338 0.072338 0.072338 0.072338 0.072338 0.072338 0.072338 0.072338 0.072338 0.072338 0.072338 0.072338 0.072338 0.036169 0.036169 0.0723381 0.0723381 0.0723381 0.0723381 0.0723381 0.0723381 0.0723381 0.072338 0.0723381 0.0723381 0.072338 0.0723381 0.0723381 0.072338 0.0723381 0.0723381 0.072338 0.072338 0.0723381 0.0723381 0.072338 0.0723381 0.0723381 0.036169 0.036169 0.072338 0.072338 0.072338 0.072338 0.072338 0.072338 0.072338 0.072338 0.072338 0.072338 0.072338 0.072338 0.072338 0.072338 0.072338 0.072338 0.072338 0.0723379 0.072338 0.072338 0.0723379 0.072338 0.072338 0.0361689 0.036169 0.0723379 0.0723379 0.072338 0.072338 0.072338 0.072338 0.072338 0.0723379 0.072338 0.072338 0.0723379 0.072338 0.072338 0.0723379 0.072338 0.072338 0.0723379 0.0723379 0.072338 0.072338 0.0723379 0.072338 0.072338 0.0361689 0.036169 0.072338 0.072338 0.072338 0.072338 0.072338 0.072338 0.0723381 0.072338 0.0723381 0.0723381 0.072338 0.072338 0.0723381 0.072338 0.072338 0.0723381 0.072338 0.072338 0.0723381 0.072338 0.072338 0.0723381 0.072338 0.036169 0.036169 0.072338 0.072338 0.072338 0.072338 0.072338 0.072338 0.072338 0.072338 0.072338 0.072338 0.072338 0.072338 0.072338 0.072338 0.072338 0.0723381 0.072338 0.072338 0.0723381 0.072338 0.072338 0.072338 0.072338 0.036169 0.036169 0.072338 0.072338 0.072338 0.072338 0.072338 0.072338 0.072338 0.072338 0.072338 0.072338 0.072338 0.072338 0.072338 0.072338 0.072338 0.072338 0.0723379 0.0723379 0.072338 0.072338 0.0723379 0.072338 0.072338 0.0361689 0.036169 0.072338 0.072338 0.072338 0.072338 0.072338 0.072338 0.072338 0.072338 0.072338 0.072338 0.072338 0.072338 0.0723381 0.072338 0.072338 0.0723381 0.072338 0.072338 0.0723381 0.072338 0.072338 0.0723381 0.072338 0.036169 0.036169 0.072338 0.072338 0.072338 0.072338 0.072338 0.072338 0.072338 0.072338 0.072338 0.072338 0.072338 0.072338 0.072338 0.072338 0.072338 0.072338 0.072338 0.072338 0.072338 0.072338 0.072338 0.072338 0.072338 0.036169 0.0180845 0.036169 0.036169 0.036169 0.036169 0.036169 0.036169 0.036169 0.036169 0.036169 0.036169 0.036169 0.036169 0.036169 0.036169 0.036169 0.036169 0.0361689 0.0361689 0.036169 0.036169 0.0361689 0.036169 0.036169 0.0180845 0.0180845 0.036169 0.036169 0.036169 0.036169 0.036169 0.036169 0.036169 0.036169 0.036169 0.036169 0.036169 0.036169 0.036169 0.036169 0.036169 0.036169 0.036169 0.036169 0.036169 0.036169 0.036169 0.036169 0.036169 0.0180845 0.036169 0.072338 0.072338 0.072338 0.072338 0.072338 0.072338 0.072338 0.072338 0.072338 0.072338 0.072338 0.072338 0.072338 0.072338 0.072338 0.072338 0.072338 0.072338 0.072338 0.072338 0.0723379 0.072338 0.072338 0.036169 0.036169 0.072338 0.072338 0.072338 0.072338 0.072338 0.072338 0.072338 0.072338 0.072338 0.072338 0.072338 0.072338 0.072338 0.072338 0.072338 0.072338 0.072338 0.072338 0.072338 0.072338 0.0723379 0.072338 0.072338 0.036169 0.036169 0.072338 0.072338 0.072338 0.072338 0.072338 0.072338 0.072338 0.072338 0.072338 0.072338 0.072338 0.072338 0.072338 0.072338 0.072338 0.072338 0.072338 0.072338 0.072338 0.072338 0.072338 0.072338 0.072338 0.036169 0.036169 0.072338 0.072338 0.072338 0.072338 0.072338 0.072338 0.072338 0.072338 0.072338 0.072338 0.072338 0.072338 0.072338 0.072338 0.072338 0.0723381 0.072338 0.072338 0.072338 0.072338 0.072338 0.072338 0.072338 0.036169 0.036169 0.072338 0.072338 0.072338 0.072338 0.072338 0.072338 0.072338 0.072338 0.072338 0.072338 0.072338 0.072338 0.072338 0.072338 0.072338 0.072338 0.0723379 0.0723379 0.072338 0.072338 0.0723379 0.072338 0.072338 0.036169 0.036169 0.072338 0.072338 0.072338 0.072338 0.072338 0.072338 0.072338 0.072338 0.072338 0.072338 0.072338 0.072338 0.072338 0.072338 0.072338 0.072338 0.072338 0.072338 0.072338 0.072338 0.072338 0.072338 0.072338 0.036169 0.036169 0.072338 0.072338 0.072338 0.072338 0.072338 0.072338 0.072338 0.072338 0.072338 0.072338 0.072338 0.072338 0.072338 0.072338 0.072338 0.072338 0.072338 0.072338 0.072338 0.072338 0.072338 0.072338 0.072338 0.036169 0.036169 0.072338 0.072338 0.072338 0.072338 0.072338 0.072338 0.072338 0.072338 0.072338 0.072338 0.0723379 0.072338 0.072338 0.072338 0.072338 0.072338 0.0723379 0.0723379 0.072338 0.072338 0.0723379 0.072338 0.072338 0.0361689 0.036169 0.072338 0.072338 0.072338 0.072338 0.072338 0.072338 0.072338 0.072338 0.072338 0.072338 0.072338 0.072338 0.072338 0.072338 0.072338 0.072338 0.072338 0.0723379 0.072338 0.072338 0.0723379 0.072338 0.072338 0.036169 0.036169 0.072338 0.072338 0.072338 0.072338 0.072338 0.072338 0.072338 0.072338 0.072338 0.072338 0.072338 0.072338 0.072338 0.072338 0.072338 0.072338 0.072338 0.072338 0.072338 0.072338 0.072338 0.072338 0.072338 0.036169 0.036169 0.072338 0.072338 0.072338 0.072338 0.072338 0.072338 0.072338 0.072338 0.072338 0.072338 0.072338 0.072338 0.072338 0.072338 0.072338 0.072338 0.0723379 0.0723379 0.072338 0.072338 0.0723379 0.072338 0.072338 0.0361689 0.036169 0.072338 0.072338 0.072338 0.072338 0.072338 0.072338 0.072338 0.072338 0.072338 0.072338 0.072338 0.072338 0.072338 0.072338 0.072338 0.0723381 0.072338 0.072338 0.0723381 0.072338 0.072338 0.072338 0.072338 0.036169 0.036169 0.072338 0.072338 0.072338 0.072338 0.072338 0.072338 0.072338 0.072338 0.072338 0.072338 0.072338 0.072338 0.072338 0.072338 0.072338 0.0723381 0.072338 0.072338 0.0723381 0.072338 0.072338 0.072338 0.072338 0.036169 0.036169 0.072338 0.072338 0.072338 0.072338 0.072338 0.072338 0.072338 0.072338 0.072338 0.072338 0.0723379 0.072338 0.072338 0.072338 0.072338 0.072338 0.0723379 0.0723379 0.072338 0.072338 0.0723379 0.072338 0.072338 0.0361689 0.036169 0.072338 0.072338 0.072338 0.072338 0.072338 0.072338 0.072338 0.072338 0.072338 0.072338 0.072338 0.072338 0.072338 0.072338 0.072338 0.072338 0.0723379 0.0723379 0.072338 0.072338 0.0723379 0.072338 0.072338 0.0361689 0.036169 0.072338 0.072338 0.072338 0.072338 0.072338 0.0723381 0.0723381 0.072338 0.072338 0.0723381 0.072338 0.0723381 0.0723381 0.072338 0.072338 0.0723381 0.072338 0.072338 0.0723381 0.072338 0.072338 0.0723381 0.072338 0.036169 0.036169 0.072338 0.072338 0.072338 0.072338 0.072338 0.072338 0.072338 0.072338 0.072338 0.072338 0.0723379 0.072338 0.072338 0.0723379 0.072338 0.072338 0.0723379 0.0723379 0.072338 0.072338 0.0723379 0.072338 0.072338 0.0361689 0.036169 0.0723379 0.0723379 0.0723379 0.0723379 0.0723379 0.0723379 0.072338 0.0723379 0.0723379 0.0723379 0.0723379 0.0723379 0.072338 0.0723379 0.0723379 0.072338 0.0723379 0.0723379 0.072338 0.0723379 0.0723379 0.072338 0.0723379 0.0361689 0.036169 0.072338 0.072338 0.072338 0.072338 0.072338 0.072338 0.072338 0.072338 0.072338 0.072338 0.072338 0.072338 0.0723381 0.072338 0.072338 0.0723381 0.072338 0.072338 0.0723381 0.072338 0.072338 0.0723381 0.072338 0.036169 0.036169 0.072338 0.072338 0.072338 0.072338 0.072338 0.072338 0.072338 0.072338 0.072338 0.072338 0.072338 0.072338 0.072338 0.072338 0.072338 0.0723381 0.072338 0.072338 0.072338 0.072338 0.072338 0.072338 0.072338 0.036169 0.036169 0.072338 0.072338 0.072338 0.072338 0.072338 0.072338 0.072338 0.0723379 0.072338 0.072338 0.0723379 0.072338 0.072338 0.0723379 0.072338 0.072338 0.0723379 0.0723379 0.072338 0.072338 0.0723379 0.072338 0.072338 0.0361689 0.036169 0.072338 0.072338 0.072338 0.072338 0.072338 0.072338 0.072338 0.072338 0.072338 0.072338 0.072338 0.072338 0.0723381 0.072338 0.072338 0.0723381 0.072338 0.072338 0.0723381 0.072338 0.072338 0.072338 0.072338 0.036169 0.036169 0.072338 0.072338 0.072338 0.072338 0.072338 0.072338 0.072338 0.072338 0.072338 0.072338 0.072338 0.072338 0.072338 0.072338 0.072338 0.072338 0.0723379 0.0723379 0.072338 0.072338 0.0723379 0.072338 0.072338 0.0361689 0.0180845 0.036169 0.036169 0.036169 0.036169 0.036169 0.036169 0.036169 0.0361689 0.036169 0.036169 0.0361689 0.036169 0.036169 0.0361689 0.036169 0.036169 0.0361689 0.0361689 0.036169 0.036169 0.0361689 0.036169 0.036169 0.0180845 0.0180845 0.036169 0.036169 0.036169 0.036169 0.036169 0.036169 0.036169 0.036169 0.036169 0.036169 0.036169 0.036169 0.036169 0.036169 0.036169 0.036169 0.036169 0.0361689 0.036169 0.036169 0.0361689 0.036169 0.036169 0.0180845 0.036169 0.0723379 0.0723379 0.0723379 0.0723379 0.0723379 0.0723379 0.0723379 0.0723379 0.0723379 0.0723379 0.0723379 0.0723379 0.072338 0.0723379 0.0723379 0.072338 0.0723379 0.0723379 0.072338 0.0723379 0.0723379 0.072338 0.0723379 0.0361689 0.036169 0.0723379 0.0723379 0.0723379 0.0723379 0.0723379 0.0723379 0.0723379 0.0723379 0.0723379 0.0723379 0.0723379 0.0723379 0.072338 0.0723379 0.0723379 0.072338 0.0723379 0.0723379 0.072338 0.0723379 0.0723379 0.072338 0.0723379 0.0361689 0.036169 0.0723379 0.0723379 0.0723379 0.0723379 0.0723379 0.0723379 0.0723379 0.0723379 0.0723379 0.0723379 0.0723379 0.0723379 0.072338 0.0723379 0.0723379 0.072338 0.0723379 0.0723379 0.072338 0.0723379 0.0723379 0.072338 0.0723379 0.0361689 0.036169 0.0723379 0.0723379 0.0723379 0.072338 0.0723379 0.0723379 0.072338 0.0723379 0.0723379 0.072338 0.0723379 0.0723379 0.072338 0.0723379 0.0723379 0.072338 0.0723379 0.0723379 0.072338 0.072338 0.0723379 0.072338 0.0723379 0.0361689 0.036169 0.0723379 0.0723379 0.0723379 0.0723379 0.0723379 0.0723379 0.0723379 0.0723379 0.0723379 0.0723379 0.0723379 0.0723379 0.072338 0.0723379 0.0723379 0.072338 0.0723379 0.0723379 0.072338 0.0723379 0.0723379 0.072338 0.0723379 0.0361689 0.036169 0.0723379 0.0723379 0.0723379 0.0723379 0.0723379 0.0723379 0.072338 0.0723379 0.0723379 0.0723379 0.0723379 0.0723379 0.072338 0.0723379 0.0723379 0.072338 0.0723379 0.0723379 0.072338 0.072338 0.0723379 0.072338 0.0723379 0.0361689 0.036169 0.0723379 0.0723379 0.0723379 0.0723379 0.0723379 0.072338 0.072338 0.0723379 0.072338 0.072338 0.0723379 0.072338 0.072338 0.0723379 0.0723379 0.072338 0.0723379 0.0723379 0.072338 0.072338 0.0723379 0.072338 0.0723379 0.0361689 0.036169 0.0723379 0.0723379 0.0723379 0.0723379 0.0723379 0.0723379 0.0723379 0.0723379 0.0723379 0.0723379 0.0723379 0.0723379 0.0723379 0.0723379 0.0723379 0.072338 0.0723379 0.0723379 0.072338 0.0723379 0.0723379 0.0723379 0.0723379 0.0361689 0.036169 0.0723379 0.0723379 0.0723379 0.0723379 0.0723379 0.0723379 0.0723379 0.0723379 0.0723379 0.0723379 0.0723379 0.0723379 0.072338 0.0723379 0.0723379 0.072338 0.0723379 0.0723379 0.072338 0.0723379 0.0723379 0.072338 0.0723379 0.0361689 0.036169 0.0723379 0.0723379 0.0723379 0.0723379 0.0723379 0.0723379 0.072338 0.0723379 0.072338 0.0723379 0.0723379 0.0723379 0.072338 0.0723379 0.0723379 0.072338 0.0723379 0.0723379 0.072338 0.072338 0.0723379 0.072338 0.0723379 0.0361689 0.036169 0.0723379 0.0723379 0.0723379 0.0723379 0.0723379 0.0723379 0.0723379 0.0723379 0.0723379 0.0723379 0.0723379 0.0723379 0.072338 0.0723379 0.0723379 0.072338 0.0723379 0.0723379 0.072338 0.0723379 0.0723379 0.072338 0.0723379 0.0361689 0.036169 0.072338 0.072338 0.072338 0.072338 0.0723379 0.0723379 0.072338 0.0723379 0.072338 0.072338 0.0723379 0.072338 0.072338 0.0723379 0.072338 0.072338 0.0723379 0.0723379 0.072338 0.072338 0.0723379 0.072338 0.0723379 0.0361689 0.036169 0.072338 0.072338 0.072338 0.072338 0.0723379 0.072338 0.072338 0.0723379 0.072338 0.072338 0.0723379 0.072338 0.072338 0.0723379 0.072338 0.072338 0.0723379 0.0723379 0.072338 0.072338 0.0723379 0.072338 0.072338 0.0361689 0.036169 0.0723379 0.0723379 0.0723379 0.0723379 0.0723379 0.0723379 0.0723379 0.0723379 0.0723379 0.0723379 0.0723379 0.0723379 0.0723379 0.0723379 0.0723379 0.072338 0.0723379 0.0723379 0.072338 0.0723379 0.0723379 0.0723379 0.0723379 0.0361689 0.036169 0.0723379 0.0723379 0.0723379 0.0723379 0.0723379 0.0723379 0.0723379 0.0723379 0.0723379 0.0723379 0.0723379 0.0723379 0.072338 0.0723379 0.0723379 0.072338 0.0723379 0.0723379 0.072338 0.0723379 0.0723379 0.0723379 0.0723379 0.0361689 0.036169 0.072338 0.072338 0.072338 0.072338 0.072338 0.072338 0.072338 0.072338 0.072338 0.072338 0.072338 0.072338 0.072338 0.072338 0.072338 0.072338 0.0723379 0.0723379 0.072338 0.072338 0.0723379 0.072338 0.072338 0.036169 0.036169 0.0723379 0.0723379 0.0723379 0.0723379 0.0723379 0.0723379 0.0723379 0.0723379 0.0723379 0.0723379 0.0723379 0.0723379 0.0723379 0.0723379 0.0723379 0.072338 0.0723379 0.0723379 0.072338 0.0723379 0.0723379 0.0723379 0.0723379 0.0361689 0.0361689 0.0723379 0.0723379 0.0723379 0.0723379 0.0723379 0.0723379 0.0723379 0.0723379 0.0723379 0.0723379 0.0723379 0.0723379 0.0723379 0.0723379 0.0723379 0.0723379 0.0723379 0.0723379 0.0723379 0.0723379 0.0723378 0.0723379 0.0723379 0.0361689 0.036169 0.072338 0.072338 0.072338 0.072338 0.072338 0.072338 0.072338 0.072338 0.072338 0.072338 0.0723379 0.072338 0.072338 0.0723379 0.072338 0.072338 0.0723379 0.0723379 0.072338 0.072338 0.0723379 0.072338 0.072338 0.0361689 0.036169 0.0723379 0.0723379 0.0723379 0.0723379 0.0723379 0.0723379 0.0723379 0.0723379 0.0723379 0.0723379 0.0723379 0.0723379 0.072338 0.0723379 0.0723379 0.072338 0.0723379 0.0723379 0.072338 0.0723379 0.0723379 0.072338 0.0723379 0.0361689 0.036169 0.0723379 0.0723379 0.0723379 0.0723379 0.0723379 0.0723379 0.0723379 0.0723379 0.0723379 0.0723379 0.0723379 0.0723379 0.0723379 0.0723379 0.0723379 0.0723379 0.0723379 0.0723379 0.0723379 0.0723379 0.0723379 0.0723379 0.0723379 0.0361689 0.036169 0.072338 0.072338 0.072338 0.072338 0.072338 0.072338 0.072338 0.0723379 0.072338 0.072338 0.0723379 0.072338 0.072338 0.0723379 0.072338 0.072338 0.0723379 0.0723379 0.072338 0.072338 0.0723379 0.072338 0.072338 0.0361689 0.036169 0.0723379 0.0723379 0.0723379 0.0723379 0.0723379 0.0723379 0.0723379 0.0723379 0.0723379 0.0723379 0.0723379 0.0723379 0.072338 0.0723379 0.0723379 0.072338 0.0723379 0.0723379 0.072338 0.0723379 0.0723379 0.072338 0.0723379 0.0361689 0.0180845 0.0361689 0.0361689 0.0361689 0.0361689 0.0361689 0.0361689 0.0361689 0.0361689 0.0361689 0.0361689 0.0361689 0.0361689 0.0361689 0.0361689 0.0361689 0.036169 0.0361689 0.0361689 0.0361689 0.0361689 0.0361689 0.0361689 0.0361689 0.0180844 0.0180845 0.036169 0.036169 0.036169 0.036169 0.036169 0.036169 0.036169 0.036169 0.036169 0.036169 0.036169 0.036169 0.036169 0.036169 0.036169 0.036169 0.036169 0.036169 0.036169 0.036169 0.036169 0.036169 0.036169 0.0180845 0.036169 0.072338 0.072338 0.072338 0.072338 0.072338 0.072338 0.072338 0.072338 0.072338 0.072338 0.072338 0.072338 0.072338 0.072338 0.072338 0.0723381 0.072338 0.072338 0.072338 0.072338 0.072338 0.072338 0.072338 0.036169 0.036169 0.072338 0.072338 0.072338 0.072338 0.072338 0.072338 0.072338 0.072338 0.072338 0.072338 0.072338 0.072338 0.072338 0.072338 0.072338 0.072338 0.072338 0.0723379 0.072338 0.072338 0.072338 0.072338 0.072338 0.036169 0.036169 0.072338 0.072338 0.072338 0.072338 0.072338 0.072338 0.072338 0.072338 0.072338 0.072338 0.072338 0.072338 0.072338 0.072338 0.072338 0.072338 0.072338 0.072338 0.072338 0.072338 0.072338 0.072338 0.072338 0.036169 0.036169 0.072338 0.072338 0.072338 0.072338 0.072338 0.072338 0.072338 0.072338 0.072338 0.072338 0.072338 0.072338 0.072338 0.072338 0.072338 0.0723381 0.072338 0.072338 0.072338 0.072338 0.072338 0.072338 0.072338 0.036169 0.036169 0.072338 0.072338 0.072338 0.072338 0.072338 0.072338 0.072338 0.072338 0.072338 0.072338 0.072338 0.072338 0.072338 0.072338 0.072338 0.072338 0.072338 0.0723379 0.072338 0.072338 0.0723379 0.072338 0.072338 0.036169 0.036169 0.072338 0.072338 0.072338 0.072338 0.072338 0.072338 0.072338 0.072338 0.072338 0.072338 0.072338 0.072338 0.072338 0.072338 0.072338 0.0723381 0.072338 0.072338 0.072338 0.072338 0.072338 0.072338 0.072338 0.036169 0.036169 0.072338 0.072338 0.072338 0.072338 0.072338 0.072338 0.072338 0.072338 0.072338 0.072338 0.072338 0.072338 0.072338 0.072338 0.072338 0.0723381 0.072338 0.072338 0.0723381 0.072338 0.072338 0.072338 0.072338 0.036169 0.036169 0.072338 0.072338 0.072338 0.072338 0.072338 0.072338 0.072338 0.072338 0.072338 0.072338 0.072338 0.072338 0.072338 0.072338 0.072338 0.072338 0.0723379 0.0723379 0.072338 0.072338 0.0723379 0.072338 0.072338 0.0361689 0.036169 0.072338 0.072338 0.072338 0.072338 0.072338 0.072338 0.072338 0.072338 0.072338 0.072338 0.072338 0.072338 0.072338 0.072338 0.072338 0.072338 0.072338 0.072338 0.072338 0.072338 0.0723379 0.072338 0.072338 0.036169 0.036169 0.072338 0.072338 0.072338 0.072338 0.072338 0.072338 0.072338 0.072338 0.072338 0.072338 0.072338 0.072338 0.072338 0.072338 0.072338 0.072338 0.072338 0.072338 0.072338 0.072338 0.072338 0.072338 0.072338 0.036169 0.036169 0.072338 0.072338 0.072338 0.072338 0.072338 0.072338 0.072338 0.072338 0.072338 0.072338 0.072338 0.072338 0.072338 0.072338 0.072338 0.072338 0.0723379 0.0723379 0.072338 0.072338 0.0723379 0.072338 0.072338 0.0361689 0.036169 0.072338 0.072338 0.072338 0.072338 0.072338 0.072338 0.072338 0.072338 0.072338 0.072338 0.072338 0.072338 0.072338 0.072338 0.072338 0.0723381 0.072338 0.072338 0.0723381 0.072338 0.072338 0.072338 0.072338 0.036169 0.036169 0.072338 0.072338 0.072338 0.072338 0.072338 0.072338 0.072338 0.072338 0.072338 0.072338 0.072338 0.072338 0.072338 0.072338 0.072338 0.0723381 0.072338 0.072338 0.0723381 0.072338 0.072338 0.072338 0.072338 0.036169 0.036169 0.072338 0.072338 0.072338 0.072338 0.072338 0.072338 0.072338 0.072338 0.072338 0.072338 0.072338 0.072338 0.072338 0.072338 0.072338 0.072338 0.0723379 0.0723379 0.072338 0.072338 0.0723379 0.072338 0.072338 0.0361689 0.036169 0.072338 0.072338 0.072338 0.072338 0.072338 0.072338 0.072338 0.072338 0.072338 0.072338 0.072338 0.072338 0.072338 0.072338 0.072338 0.072338 0.0723379 0.0723379 0.072338 0.072338 0.0723379 0.072338 0.072338 0.0361689 0.036169 0.072338 0.072338 0.072338 0.0723381 0.072338 0.072338 0.0723381 0.072338 0.0723381 0.0723381 0.072338 0.0723381 0.0723381 0.072338 0.072338 0.0723381 0.072338 0.072338 0.0723381 0.0723381 0.072338 0.0723381 0.072338 0.036169 0.036169 0.072338 0.072338 0.072338 0.072338 0.072338 0.072338 0.072338 0.072338 0.072338 0.072338 0.0723379 0.072338 0.072338 0.0723379 0.072338 0.072338 0.0723379 0.0723379 0.072338 0.072338 0.0723379 0.072338 0.072338 0.0361689 0.036169 0.0723379 0.0723379 0.0723379 0.0723379 0.0723379 0.0723379 0.072338 0.0723379 0.072338 0.072338 0.0723379 0.072338 0.072338 0.0723379 0.0723379 0.072338 0.0723379 0.0723379 0.072338 0.072338 0.0723379 0.072338 0.0723379 0.0361689 0.036169 0.072338 0.072338 0.072338 0.072338 0.072338 0.072338 0.072338 0.072338 0.072338 0.072338 0.072338 0.072338 0.0723381 0.072338 0.072338 0.0723381 0.072338 0.072338 0.0723381 0.072338 0.072338 0.0723381 0.072338 0.036169 0.036169 0.072338 0.072338 0.072338 0.072338 0.072338 0.072338 0.072338 0.072338 0.072338 0.072338 0.072338 0.072338 0.072338 0.072338 0.072338 0.0723381 0.072338 0.072338 0.072338 0.072338 0.072338 0.072338 0.072338 0.036169 0.036169 0.072338 0.072338 0.072338 0.072338 0.072338 0.072338 0.072338 0.0723379 0.072338 0.072338 0.0723379 0.072338 0.072338 0.0723379 0.072338 0.072338 0.0723379 0.0723379 0.072338 0.072338 0.0723379 0.072338 0.072338 0.0361689 0.036169 0.072338 0.072338 0.072338 0.072338 0.072338 0.072338 0.072338 0.072338 0.072338 0.072338 0.072338 0.072338 0.0723381 0.072338 0.072338 0.0723381 0.072338 0.072338 0.0723381 0.072338 0.072338 0.072338 0.072338 0.036169 0.036169 0.072338 0.072338 0.072338 0.072338 0.072338 0.072338 0.072338 0.072338 0.072338 0.072338 0.072338 0.072338 0.072338 0.072338 0.072338 0.072338 0.0723379 0.0723379 0.072338 0.072338 0.0723379 0.072338 0.072338 0.036169 0.0180845 0.036169 0.036169 0.036169 0.036169 0.036169 0.036169 0.036169 0.0361689 0.036169 0.036169 0.0361689 0.036169 0.036169 0.0361689 0.036169 0.036169 0.0361689 0.0361689 0.036169 0.036169 0.0361689 0.036169 0.036169 0.0180845 0.0180845 0.036169 0.036169 0.036169 0.036169 0.036169 0.036169 0.036169 0.036169 0.036169 0.036169 0.036169 0.036169 0.036169 0.036169 0.036169 0.036169 0.036169 0.036169 0.036169 0.036169 0.036169 0.036169 0.036169 0.0180845 0.036169 0.072338 0.072338 0.072338 0.072338 0.072338 0.072338 0.072338 0.072338 0.072338 0.072338 0.0723379 0.072338 0.072338 0.0723379 0.072338 0.072338 0.0723379 0.0723379 0.072338 0.072338 0.0723379 0.072338 0.072338 0.0361689 0.036169 0.072338 0.072338 0.072338 0.072338 0.072338 0.072338 0.072338 0.072338 0.072338 0.072338 0.0723379 0.072338 0.072338 0.0723379 0.072338 0.072338 0.0723379 0.0723379 0.072338 0.072338 0.0723379 0.072338 0.072338 0.0361689 0.036169 0.072338 0.072338 0.072338 0.072338 0.072338 0.072338 0.072338 0.072338 0.072338 0.072338 0.0723379 0.072338 0.072338 0.0723379 0.072338 0.072338 0.0723379 0.0723379 0.072338 0.072338 0.0723379 0.072338 0.072338 0.0361689 0.036169 0.072338 0.072338 0.072338 0.072338 0.072338 0.072338 0.072338 0.072338 0.072338 0.072338 0.072338 0.072338 0.072338 0.072338 0.072338 0.072338 0.0723379 0.0723379 0.072338 0.072338 0.0723379 0.072338 0.072338 0.0361689 0.036169 0.072338 0.072338 0.072338 0.072338 0.072338 0.072338 0.072338 0.072338 0.072338 0.072338 0.0723379 0.072338 0.072338 0.0723379 0.072338 0.072338 0.0723379 0.0723379 0.072338 0.072338 0.0723379 0.072338 0.072338 0.0361689 0.036169 0.072338 0.072338 0.072338 0.072338 0.072338 0.072338 0.072338 0.072338 0.072338 0.072338 0.072338 0.072338 0.072338 0.072338 0.072338 0.072338 0.0723379 0.0723379 0.072338 0.072338 0.0723379 0.072338 0.072338 0.0361689 0.036169 0.072338 0.072338 0.072338 0.072338 0.072338 0.072338 0.072338 0.072338 0.072338 0.072338 0.072338 0.072338 0.072338 0.072338 0.072338 0.072338 0.0723379 0.0723379 0.072338 0.072338 0.0723379 0.072338 0.072338 0.036169 0.036169 0.0723379 0.0723379 0.0723379 0.072338 0.0723379 0.0723379 0.072338 0.0723379 0.072338 0.072338 0.0723379 0.072338 0.072338 0.0723379 0.0723379 0.072338 0.0723379 0.0723379 0.072338 0.072338 0.0723379 0.072338 0.0723379 0.0361689 0.036169 0.072338 0.072338 0.072338 0.072338 0.072338 0.072338 0.072338 0.072338 0.072338 0.072338 0.0723379 0.072338 0.072338 0.0723379 0.072338 0.072338 0.0723379 0.0723379 0.072338 0.072338 0.0723379 0.072338 0.072338 0.0361689 0.036169 0.072338 0.072338 0.072338 0.072338 0.072338 0.072338 0.072338 0.072338 0.072338 0.072338 0.072338 0.072338 0.072338 0.072338 0.072338 0.072338 0.0723379 0.0723379 0.072338 0.072338 0.0723379 0.072338 0.072338 0.0361689 0.036169 0.072338 0.072338 0.072338 0.072338 0.072338 0.072338 0.072338 0.0723379 0.072338 0.072338 0.0723379 0.072338 0.072338 0.0723379 0.072338 0.072338 0.0723379 0.0723379 0.072338 0.072338 0.0723379 0.072338 0.072338 0.0361689 0.036169 0.072338 0.072338 0.072338 0.072338 0.072338 0.072338 0.072338 0.072338 0.072338 0.072338 0.072338 0.072338 0.072338 0.072338 0.072338 0.072338 0.0723379 0.0723379 0.072338 0.072338 0.0723379 0.072338 0.072338 0.0361689 0.036169 0.072338 0.072338 0.072338 0.072338 0.072338 0.072338 0.072338 0.072338 0.072338 0.072338 0.072338 0.072338 0.072338 0.072338 0.072338 0.072338 0.072338 0.0723379 0.072338 0.072338 0.0723379 0.072338 0.072338 0.036169 0.036169 0.0723379 0.0723379 0.0723379 0.072338 0.0723379 0.072338 0.072338 0.0723379 0.072338 0.072338 0.0723379 0.072338 0.072338 0.0723379 0.072338 0.072338 0.0723379 0.0723379 0.072338 0.072338 0.0723379 0.072338 0.0723379 0.0361689 0.036169 0.072338 0.072338 0.072338 0.072338 0.072338 0.072338 0.072338 0.0723379 0.072338 0.072338 0.0723379 0.072338 0.072338 0.0723379 0.072338 0.072338 0.0723379 0.0723379 0.072338 0.072338 0.0723379 0.072338 0.072338 0.0361689 0.036169 0.072338 0.072338 0.072338 0.072338 0.072338 0.072338 0.072338 0.072338 0.072338 0.072338 0.072338 0.072338 0.072338 0.072338 0.072338 0.0723381 0.072338 0.072338 0.0723381 0.072338 0.072338 0.072338 0.072338 0.036169 0.036169 0.0723379 0.0723379 0.0723379 0.072338 0.0723379 0.0723379 0.072338 0.0723379 0.0723379 0.072338 0.0723379 0.0723379 0.072338 0.0723379 0.0723379 0.072338 0.0723379 0.0723379 0.072338 0.072338 0.0723379 0.072338 0.0723379 0.0361689 0.036169 0.0723379 0.0723379 0.0723379 0.0723379 0.0723379 0.0723379 0.0723379 0.0723379 0.0723379 0.0723379 0.0723379 0.0723379 0.0723379 0.0723379 0.0723379 0.072338 0.0723379 0.0723379 0.072338 0.0723379 0.0723379 0.0723379 0.0723379 0.0361689 0.036169 0.072338 0.072338 0.072338 0.072338 0.072338 0.072338 0.072338 0.072338 0.072338 0.072338 0.072338 0.072338 0.072338 0.072338 0.072338 0.072338 0.072338 0.072338 0.072338 0.072338 0.072338 0.072338 0.072338 0.036169 0.036169 0.072338 0.072338 0.072338 0.072338 0.072338 0.072338 0.072338 0.072338 0.072338 0.072338 0.0723379 0.072338 0.072338 0.0723379 0.072338 0.072338 0.0723379 0.0723379 0.072338 0.072338 0.0723379 0.072338 0.072338 0.0361689 0.036169 0.0723379 0.0723379 0.0723379 0.0723379 0.0723379 0.0723379 0.0723379 0.0723379 0.0723379 0.0723379 0.0723379 0.0723379 0.072338 0.0723379 0.0723379 0.072338 0.0723379 0.0723379 0.072338 0.0723379 0.0723379 0.072338 0.0723379 0.0361689 0.036169 0.072338 0.072338 0.072338 0.072338 0.072338 0.072338 0.072338 0.072338 0.072338 0.072338 0.072338 0.072338 0.072338 0.072338 0.072338 0.072338 0.072338 0.072338 0.072338 0.072338 0.072338 0.072338 0.072338 0.036169 0.036169 0.072338 0.072338 0.072338 0.072338 0.072338 0.072338 0.072338 0.0723379 0.072338 0.072338 0.0723379 0.072338 0.072338 0.0723379 0.072338 0.072338 0.0723379 0.0723379 0.072338 0.072338 0.0723379 0.072338 0.072338 0.0361689 0.0180845 0.0361689 0.0361689 0.0361689 0.0361689 0.0361689 0.0361689 0.036169 0.0361689 0.0361689 0.0361689 0.0361689 0.036169 0.036169 0.0361689 0.0361689 0.036169 0.0361689 0.0361689 0.036169 0.0361689 0.0361689 0.036169 0.0361689 0.0180845 0.00904224 0.0180845 0.0180845 0.0180845 0.0180845 0.0180845 0.0180845 0.0180845 0.0180845 0.0180845 0.0180845 0.0180845 0.0180845 0.0180845 0.0180845 0.0180845 0.0180845 0.0180845 0.0180845 0.0180845 0.0180845 0.0180845 0.0180845 0.0180845 0.00904223 0.0180845 0.0361689 0.0361689 0.0361689 0.0361689 0.0361689 0.0361689 0.0361689 0.0361689 0.0361689 0.0361689 0.0361689 0.0361689 0.036169 0.0361689 0.0361689 0.036169 0.0361689 0.0361689 0.036169 0.0361689 0.0361689 0.036169 0.0361689 0.0180845 0.0180845 0.0361689 0.0361689 0.0361689 0.0361689 0.0361689 0.0361689 0.0361689 0.0361689 0.0361689 0.0361689 0.0361689 0.0361689 0.036169 0.0361689 0.0361689 0.036169 0.0361689 0.0361689 0.036169 0.0361689 0.0361689 0.036169 0.0361689 0.0180845 0.0180845 0.0361689 0.0361689 0.0361689 0.0361689 0.0361689 0.0361689 0.036169 0.0361689 0.0361689 0.0361689 0.0361689 0.0361689 0.036169 0.0361689 0.0361689 0.036169 0.0361689 0.0361689 0.036169 0.0361689 0.0361689 0.036169 0.0361689 0.0180845 0.0180845 0.0361689 0.0361689 0.0361689 0.036169 0.0361689 0.0361689 0.036169 0.0361689 0.0361689 0.0361689 0.0361689 0.0361689 0.036169 0.0361689 0.0361689 0.036169 0.0361689 0.0361689 0.036169 0.0361689 0.0361689 0.036169 0.0361689 0.0180845 0.0180845 0.0361689 0.0361689 0.0361689 0.0361689 0.0361689 0.0361689 0.0361689 0.0361689 0.0361689 0.0361689 0.0361689 0.0361689 0.036169 0.0361689 0.0361689 0.036169 0.0361689 0.0361689 0.036169 0.0361689 0.0361689 0.036169 0.0361689 0.0180844 0.0180845 0.0361689 0.0361689 0.0361689 0.0361689 0.0361689 0.0361689 0.0361689 0.0361689 0.0361689 0.0361689 0.0361689 0.0361689 0.036169 0.0361689 0.0361689 0.036169 0.0361689 0.0361689 0.036169 0.0361689 0.0361689 0.036169 0.0361689 0.0180845 0.0180845 0.0361689 0.0361689 0.0361689 0.0361689 0.0361689 0.0361689 0.036169 0.0361689 0.0361689 0.036169 0.0361689 0.0361689 0.036169 0.0361689 0.0361689 0.036169 0.0361689 0.0361689 0.036169 0.036169 0.0361689 0.036169 0.0361689 0.0180845 0.0180845 0.0361689 0.0361689 0.0361689 0.0361689 0.0361689 0.0361689 0.0361689 0.0361689 0.0361689 0.0361689 0.0361689 0.0361689 0.0361689 0.0361689 0.0361689 0.036169 0.0361689 0.0361689 0.036169 0.0361689 0.0361689 0.0361689 0.0361689 0.0180844 0.0180845 0.0361689 0.0361689 0.0361689 0.0361689 0.0361689 0.0361689 0.0361689 0.0361689 0.0361689 0.0361689 0.0361689 0.0361689 0.036169 0.0361689 0.0361689 0.036169 0.0361689 0.0361689 0.036169 0.0361689 0.0361689 0.036169 0.0361689 0.0180845 0.0180845 0.0361689 0.0361689 0.0361689 0.0361689 0.0361689 0.0361689 0.0361689 0.0361689 0.0361689 0.0361689 0.0361689 0.0361689 0.036169 0.0361689 0.0361689 0.036169 0.0361689 0.0361689 0.036169 0.0361689 0.0361689 0.036169 0.0361689 0.0180845 0.0180845 0.0361689 0.0361689 0.0361689 0.0361689 0.0361689 0.0361689 0.0361689 0.0361689 0.0361689 0.0361689 0.0361689 0.0361689 0.036169 0.0361689 0.0361689 0.036169 0.0361689 0.0361689 0.036169 0.0361689 0.0361689 0.0361689 0.0361689 0.0180844 0.0180845 0.0361689 0.0361689 0.0361689 0.036169 0.0361689 0.0361689 0.036169 0.0361689 0.036169 0.036169 0.0361689 0.036169 0.036169 0.0361689 0.036169 0.036169 0.0361689 0.0361689 0.036169 0.036169 0.0361689 0.036169 0.0361689 0.0180845 0.0180845 0.0361689 0.0361689 0.036169 0.036169 0.0361689 0.036169 0.036169 0.0361689 0.036169 0.036169 0.0361689 0.036169 0.036169 0.0361689 0.036169 0.036169 0.0361689 0.0361689 0.036169 0.036169 0.0361689 0.036169 0.036169 0.0180845 0.0180845 0.0361689 0.0361689 0.0361689 0.0361689 0.0361689 0.0361689 0.0361689 0.0361689 0.0361689 0.0361689 0.0361689 0.0361689 0.0361689 0.0361689 0.0361689 0.036169 0.0361689 0.0361689 0.036169 0.0361689 0.0361689 0.0361689 0.0361689 0.0180844 0.0180845 0.0361689 0.0361689 0.0361689 0.0361689 0.0361689 0.0361689 0.0361689 0.0361689 0.0361689 0.0361689 0.0361689 0.0361689 0.036169 0.0361689 0.0361689 0.036169 0.0361689 0.0361689 0.036169 0.0361689 0.0361689 0.036169 0.0361689 0.0180844 0.0180845 0.036169 0.036169 0.036169 0.036169 0.036169 0.036169 0.036169 0.036169 0.036169 0.036169 0.036169 0.036169 0.036169 0.036169 0.036169 0.036169 0.0361689 0.0361689 0.036169 0.036169 0.0361689 0.036169 0.036169 0.0180845 0.0180845 0.0361689 0.0361689 0.0361689 0.0361689 0.0361689 0.0361689 0.0361689 0.0361689 0.0361689 0.0361689 0.0361689 0.0361689 0.0361689 0.0361689 0.0361689 0.036169 0.0361689 0.0361689 0.036169 0.0361689 0.0361689 0.0361689 0.0361689 0.0180844 0.0180845 0.0361689 0.0361689 0.0361689 0.0361689 0.0361689 0.0361689 0.0361689 0.0361689 0.0361689 0.0361689 0.0361689 0.0361689 0.0361689 0.0361689 0.0361689 0.0361689 0.0361689 0.0361689 0.0361689 0.0361689 0.0361689 0.0361689 0.0361689 0.0180844 0.0180845 0.036169 0.036169 0.036169 0.036169 0.036169 0.036169 0.036169 0.0361689 0.036169 0.036169 0.0361689 0.036169 0.036169 0.0361689 0.036169 0.036169 0.0361689 0.0361689 0.036169 0.036169 0.0361689 0.036169 0.036169 0.0180845 0.0180845 0.0361689 0.0361689 0.0361689 0.0361689 0.0361689 0.0361689 0.0361689 0.0361689 0.0361689 0.0361689 0.0361689 0.0361689 0.036169 0.0361689 0.0361689 0.036169 0.0361689 0.0361689 0.036169 0.0361689 0.0361689 0.036169 0.0361689 0.0180845 0.0180845 0.0361689 0.0361689 0.0361689 0.0361689 0.0361689 0.0361689 0.0361689 0.0361689 0.0361689 0.0361689 0.0361689 0.0361689 0.0361689 0.0361689 0.0361689 0.036169 0.0361689 0.0361689 0.0361689 0.0361689 0.0361689 0.0361689 0.0361689 0.0180844 0.0180845 0.036169 0.036169 0.036169 0.036169 0.036169 0.036169 0.036169 0.0361689 0.036169 0.036169 0.0361689 0.036169 0.036169 0.0361689 0.036169 0.036169 0.0361689 0.0361689 0.036169 0.036169 0.0361689 0.036169 0.036169 0.0180845 0.0180845 0.0361689 0.0361689 0.0361689 0.0361689 0.0361689 0.0361689 0.0361689 0.0361689 0.0361689 0.0361689 0.0361689 0.0361689 0.036169 0.0361689 0.0361689 0.036169 0.0361689 0.0361689 0.036169 0.0361689 0.0361689 0.0361689 0.0361689 0.0180844 0.00904223 0.0180845 0.0180845 0.0180845 0.0180845 0.0180844 0.0180845 0.0180845 0.0180844 0.0180845 0.0180845 0.0180844 0.0180845 0.0180845 0.0180844 0.0180845 0.0180845 0.0180844 0.0180844 0.0180845 0.0180845 0.0180844 0.0180845 0.0180844 0.00904221 
SCALARS u_norm float 1
LOOKUP_TABLE default
0 1.11759e-08 7.45058e-09 0 1.49012e-08 0 0 0 0 0 0 0 0 0 0 0 0 0 0 0 0 0 0 0 0 0.0722116 0.0822379 0.0836355 0.0830738 0.0817595 0.0802785 0.0788483 0.0775537 0.0764019 0.075353 0.0743447 0.0733161 0.0722235 0.0710567 0.0698402 0.0686274 0.0674938 0.0665151 0.065761 0.0652861 0.0651402 0.0653286 0.0660297 0.0668642 0.0722136 0.160089 0.168799 0.169462 0.166776 0.162861 0.158671 0.154658 0.151014 0.147785 0.144932 0.142386 0.140079 0.137966 0.136048 0.13436 0.132967 0.13194 0.13135 0.131261 0.131743 0.132877 0.134805 0.137776 0.14279 0.16009 0.251106 0.257453 0.256448 0.251357 0.244569 0.23727 0.230118 0.223458 0.21746 0.212192 0.207658 0.203839 0.200712 0.198269 0.196522 0.195499 0.19523 0.195755 0.197119 0.199402 0.202751 0.207483 0.214343 0.226371 0.251109 0.341451 0.34485 0.342036 0.335045 0.325788 0.315583 0.305283 0.295446 0.286436 0.278486 0.271738 0.266264 0.262085 0.259197 0.257576 0.2572 0.258044 0.2601 0.263394 0.268024 0.27423 0.282549 0.294294 0.312583 0.341455 0.429855 0.430003 0.424877 0.416009 0.404718 0.392154 0.379195 0.366527 0.354695 0.344127 0.335143 0.327957 0.322679 0.319336 0.317889 0.318264 0.320378 0.324171 0.329643 0.336905 0.346276 0.358456 0.374895 0.397876 0.429862 0.515796 0.512547 0.504724 0.49372 0.480489 0.465929 0.450816 0.435845 0.421647 0.408794 0.397779 0.388977 0.382629 0.378826 0.377548 0.378687 0.382109 0.387704 0.395437 0.405417 0.417989 0.433887 0.454367 0.481011 0.515804 0.598888 0.59219 0.581494 0.568139 0.552903 0.536484 0.519536 0.502697 0.486607 0.471906 0.459207 0.449028 0.441741 0.437537 0.436434 0.438323 0.443036 0.450414 0.460382 0.473022 0.488653 0.507925 0.531823 0.561554 0.598895 0.678896 0.668738 0.655106 0.639285 0.621962 0.603717 0.585096 0.566673 0.54906 0.532913 0.518905 0.507652 0.499638 0.495152 0.494274 0.49691 0.502875 0.511972 0.524083 0.539237 0.557687 0.57995 0.606794 0.639237 0.6789 0.755611 0.742021 0.72545 0.707121 0.687668 0.667599 0.647391 0.627558 0.608679 0.591398 0.576408 0.56438 0.555874 0.551263 0.55069 0.55409 0.561272 0.572009 0.586135 0.603617 0.624621 0.649531 0.678965 0.713827 0.755615 0.828822 0.811855 0.79238 0.771551 0.749964 0.728083 0.706343 0.685216 0.665248 0.647063 0.63135 0.618801 0.610025 0.605451 0.605277 0.609468 0.617835 0.630126 0.64613 0.665746 0.68905 0.716318 0.748062 0.785096 0.828825 0.898296 0.878033 0.855714 0.832428 0.808738 0.785076 0.761856 0.739523 0.718597 0.699681 0.683447 0.670585 0.661724 0.65733 0.657641 0.66265 0.672171 0.685931 0.703677 0.725243 0.750624 0.780007 0.813824 0.852813 0.898297 0.963794 0.940333 0.915252 0.889574 0.863832 0.838439 0.813797 0.790338 0.768565 0.749058 0.732465 0.71946 0.710669 0.706575 0.70744 0.713281 0.723918 0.739062 0.758418 0.781766 0.80903 0.840324 0.876007 0.91675 0.963795 1.02509 0.998541 0.970792 0.942801 0.915072 0.888008 0.862005 0.837495 0.814972 0.794997 0.778189 0.765189 0.756601 0.752908 0.754383 0.76106 0.772766 0.789202 0.810042 0.835018 0.863994 0.897018 0.934387 0.976695 1.02509 1.08198 1.05247 1.02215 0.991929 0.962284 0.933611 0.906308 0.880818 0.857633 0.837302 0.820407 0.80755 0.799294 0.796096 0.798229 0.805737 0.818457 0.836089 0.858285 0.884742 0.915273 0.949869 0.988757 1.03245 1.08198 1.13431 1.10195 1.06918 1.03682 1.00533 0.975106 0.946555 0.920141 0.896367 0.875769 0.858902 0.846316 0.838517 0.835916 0.838762 0.847099 0.860777 0.879504 0.902928 0.930721 0.962659 0.998682 1.03894 1.08386 1.13431 1.18196 1.1469 1.11179 1.07739 1.04413 1.0124 0.982639 0.955337 0.931019 0.91022 0.89347 0.881263 0.874042 0.872143 0.87577 0.884951 0.899542 0.919267 0.943784 0.972764 1.00596 1.04328 1.08478 1.13078 1.18196 1.22486 1.18726 1.14996 1.11364 1.07868 1.04547 1.01452 0.986341 0.961493 0.94052 0.923932 0.912178 0.905627 0.904532 0.909025 0.91909 0.934574 0.955216 0.980698 1.01071 1.04502 1.08348 1.12612 1.17309 1.22486 1.26295 1.22302 1.18373 1.14562 1.10901 1.07436 1.04221 1.01315 0.987755 0.966596 0.950171 0.938891 0.933053 0.93283 0.938264 0.949269 0.965661 0.987177 1.01352 1.04441 1.07965 1.11913 1.1628 1.21069 1.26295 1.2962 1.25424 1.21323 1.17346 1.13525 1.09914 1.06578 1.0358 1.00982 0.988437 0.972134 0.961291 0.956148 0.956799 0.963198 0.975189 0.992525 1.01492 1.04207 1.07373 1.10974 1.15004 1.19463 1.24343 1.29619 1.32456 1.28107 1.23871 1.19738 1.15753 1.11992 1.08528 1.05433 1.02773 1.00606 0.989815 0.979331 0.974801 0.976252 0.983572 0.99653 1.01482 1.03811 1.06608 1.09847 1.13515 1.17609 1.22144 1.27116 1.32456 1.34801 1.30397 1.26069 1.21766 1.17599 1.13673 1.10074 1.06876 1.04148 1.01948 1.0032 0.992976 0.98894 0.991069 0.999196 1.01303 1.03223 1.05642 1.08526 1.11845 1.15582 1.19736 1.24326 1.29379 1.34801 1.36733 1.32462 1.28 1.23448 1.19061 1.14952 1.11208 1.07903 1.05101 1.02859 1.01219 1.00209 0.998397 1.00106 1.00988 1.02454 1.04464 1.06981 1.09964 1.13382 1.17211 1.21444 1.26085 1.31198 1.36733 1.38742 1.34596 1.29612 1.24723 1.20087 1.1579 1.11904 1.08491 1.05611 1.03317 1.01647 1.00628 1.00271 1.00572 1.01515 1.03069 1.05199 1.07864 1.1102 1.14624 1.18637 1.23026 1.27781 1.32937 1.38742 1.41421 1.35657 1.30171 1.25 1.20185 1.1577 1.11803 1.08333 1.05409 1.03078 1.01379 1.00347 1 1.00347 1.01379 1.03078 1.05409 1.08333 1.11803 1.1577 1.20185 1.25 1.30171 1.35657 1.41421 1.11759e-08 1.58051e-08 1.34317e-08 1.11759e-08 1.86265e-08 1.11759e-08 1.11759e-08 1.11759e-08 1.11759e-08 1.11759e-08 1.11759e-08 1.11759e-08 1.11759e-08 1.11759e-08 1.11759e-08 1.11759e-08 1.11759e-08 1.11759e-08 1.11759e-08 1.11759e-08 1.11759e-08 1.11759e-08 1.11759e-08 1.11759e-08 1.11759e-08 0.066863 0.0751808 0.0753587 0.0738269 0.0718422 0.069933 0.0682579 0.0668614 0.0657315 0.0648328 0.0641198 0.0635549 0.0631163 0.0628024 0.0626311 0.0626368 0.0628568 0.0633351 0.0641154 0.0652507 0.0668229 0.0689165 0.0718425 0.0751816 0.0822388 0.142789 0.1505 0.151981 0.150193 0.146936 0.143113 0.139236 0.135575 0.13227 0.129392 0.126972 0.125031 0.123587 0.122661 0.122274 0.122454 0.123218 0.124586 0.126584 0.12926 0.132706 0.137108 0.14272 0.150501 0.1688 0.226369 0.231925 0.231807 0.22803 0.222412 0.215998 0.209416 0.203063 0.197204 0.192029 0.187674 0.184248 0.181824 0.18045 0.180142 0.180898 0.182689 0.185491 0.189294 0.194136 0.200145 0.207622 0.217291 0.231927 0.257456 0.31258 0.314991 0.3124 0.306088 0.297686 0.288321 0.278742 0.269464 0.260871 0.253266 0.246896 0.241959 0.238592 0.236874 0.236814 0.238373 0.241474 0.246037 0.252018 0.259454 0.268534 0.279748 0.294308 0.314995 0.344853 0.39787 0.396809 0.391408 0.382579 0.371562 0.359415 0.346949 0.334802 0.323491 0.313455 0.305066 0.298624 0.29434 0.292328 0.292596 0.295067 0.299614 0.306104 0.314456 0.324705 0.337097 0.35225 0.371468 0.396814 0.430009 0.481005 0.476368 0.467946 0.456526 0.443049 0.428402 0.413367 0.398637 0.384833 0.372527 0.362223 0.354339 0.349177 0.346899 0.34752 0.350939 0.356978 0.365451 0.376236 0.389355 0.405067 0.424004 0.447286 0.476374 0.512554 0.561548 0.553296 0.541728 0.527605 0.511699 0.494739 0.477426 0.460444 0.444468 0.430162 0.418147 0.408961 0.403003 0.400499 0.401488 0.405851 0.41337 0.423811 0.437003 0.452931 0.471821 0.49422 0.521011 0.553302 0.592196 0.639233 0.627362 0.612601 0.595699 0.577349 0.558168 0.538776 0.519816 0.501976 0.485969 0.4725 0.462207 0.455581 0.452919 0.454295 0.459589 0.468551 0.480898 0.496408 0.515008 0.536853 0.562368 0.592234 0.627366 0.668742 0.713824 0.698366 0.68042 0.660723 0.63992 0.618566 0.597217 0.576481 0.557027 0.539592 0.524928 0.513743 0.506606 0.50388 0.505678 0.511889 0.52224 0.536406 0.554108 0.575204 0.599758 0.62807 0.660678 0.698368 0.742025 0.785094 0.76611 0.745025 0.722556 0.699319 0.675832 0.652615 0.630244 0.60937 0.590734 0.575108 0.56324 0.555756 0.553071 0.555337 0.562454 0.574138 0.590022 0.609772 0.633173 0.660195 0.691029 0.726104 0.766111 0.811858 0.85281 0.830387 0.806238 0.781056 0.755433 0.729865 0.704854 0.680956 0.658813 0.639157 0.622765 0.610403 0.602727 0.600187 0.602967 0.610982 0.623936 0.641432 0.663081 0.688597 0.717864 0.750981 0.788285 0.830389 0.878034 0.916749 0.890994 0.863873 0.836056 0.808114 0.78053 0.753798 0.728471 0.705183 0.684658 0.667666 0.654973 0.647243 0.644946 0.648284 0.657181 0.67134 0.690337 0.713735 0.741186 0.772497 0.807683 0.847003 0.890994 0.940334 0.976695 0.947728 0.917742 0.887386 0.857208 0.827684 0.799311 0.772644 0.748322 0.727056 0.709608 0.696727 0.689067 0.687099 0.691029 0.700792 0.716084 0.736467 0.761467 0.790679 0.823847 0.860909 0.902051 0.947727 0.998542 1.03245 1.0004 0.967672 0.934882 0.90256 0.871179 0.841246 0.813331 0.788074 0.766184 0.748406 0.735463 0.727986 0.726425 0.730982 0.741587 0.757939 0.779589 0.806039 0.836845 0.871693 0.910454 0.953236 1.00041 1.05246 1.08386 1.04887 1.01353 0.978413 0.944041 0.910887 0.879474 0.85039 0.824293 0.801882 0.783886 0.770995 0.763804 0.762727 0.767943 0.779372 0.796711 0.819508 0.847257 0.879487 0.915842 0.956137 1.00039 1.04887 1.10195 1.13078 1.09301 1.05519 1.01787 0.981543 0.946692 0.913874 0.883702 0.856845 0.834004 0.815886 0.803149 0.796339 0.79582 0.801732 0.813974 0.832236 0.856066 0.884961 0.918442 0.956132 0.997797 1.04338 1.09301 1.1469 1.17309 1.13272 1.09259 1.05319 1.01499 0.978516 0.944359 0.913164 0.885614 0.862416 0.844255 0.831754 0.825404 0.825511 0.832162 0.845221 0.864359 0.889126 0.919023 0.953585 0.99243 1.0353 1.08206 1.13272 1.18726 1.21069 1.16794 1.12569 1.08433 1.04434 1.0063 0.970861 0.938694 0.910506 0.887003 0.868857 0.856649 0.850815 0.851599 0.859028 0.872915 0.892906 0.918542 0.949328 0.984813 1.02463 1.06853 1.11634 1.16794 1.22302 1.24343 1.19863 1.15449 1.11129 1.06956 1.03001 0.99333 0.960228 0.931436 0.907667 0.889571 0.877689 0.872399 0.873883 0.882101 0.896822 0.917656 0.944123 0.975728 1.01202 1.05267 1.09743 1.14615 1.19862 1.25424 1.27116 1.22481 1.17906 1.13408 1.09067 1.04963 1.01171 0.977698 0.94833 0.924318 0.90629 0.894741 0.889991 0.892157 0.901147 0.916678 0.93833 0.965607 0.998001 1.03506 1.07645 1.12195 1.17147 1.22481 1.28107 1.29379 1.24671 1.19955 1.15278 1.10765 1.06509 1.02596 0.991047 0.961121 0.936877 0.918913 0.907675 0.903428 0.906227 0.915928 0.932212 0.954634 0.982689 1.01587 1.05371 1.09587 1.14212 1.19241 1.24671 1.30397 1.31198 1.26511 1.21624 1.16739 1.12041 1.07634 1.03602 1.00026 0.9698 0.945312 0.927362 0.916358 0.912515 0.915847 0.92617 0.943139 0.966295 0.995133 1.02914 1.06786 1.11093 1.15812 1.20937 1.26511 1.32462 1.32936 1.28146 1.22873 1.17736 1.12852 1.08305 1.04171 1.00523 0.9743 0.949558 0.931526 0.920594 0.916963 0.920642 0.931456 0.949074 0.973051 1.00289 1.03806 1.07808 1.12254 1.17116 1.22396 1.28146 1.34595 1.35657 1.29636 1.23884 1.18439 1.13346 1.08653 1.04416 1.00692 0.975392 0.950147 0.931696 0.920448 0.916668 0.920448 0.931696 0.950147 0.975392 1.00692 1.04416 1.08653 1.13346 1.18439 1.23884 1.29636 1.35657 7.45058e-09 1.34317e-08 1.05367e-08 7.45058e-09 1.666e-08 7.45058e-09 7.45058e-09 7.45058e-09 7.45058e-09 7.45058e-09 7.45058e-09 7.45058e-09 7.45058e-09 7.45058e-09 7.45058e-09 7.45058e-09 7.45058e-09 7.45058e-09 7.45058e-09 7.45058e-09 7.45058e-09 7.45058e-09 7.45058e-09 7.45058e-09 7.45058e-09 0.0660292 0.0718411 0.0709976 0.0688 0.0663006 0.0639468 0.0618893 0.0601748 0.0587989 0.0577336 0.0569458 0.0564086 0.0561078 0.0560458 0.0562374 0.056705 0.0574745 0.0585715 0.0600263 0.0618839 0.0642258 0.0671525 0.0709972 0.0753584 0.0836361 0.137776 0.142718 0.142505 0.139399 0.135185 0.130629 0.126183 0.122097 0.118517 0.115523 0.113169 0.111489 0.110512 0.11026 0.110745 0.11197 0.113927 0.116604 0.120002 0.124155 0.129148 0.135177 0.142508 0.151984 0.169463 0.214342 0.217288 0.215819 0.211313 0.205121 0.198181 0.1911 0.184309 0.178123 0.172782 0.16848 0.165358 0.163519 0.163017 0.163856 0.166003 0.169394 0.173956 0.179643 0.18646 0.194514 0.204076 0.215821 0.231809 0.256451 0.294291 0.294306 0.290486 0.283634 0.274897 0.265219 0.2553 0.245678 0.236796 0.229034 0.222717 0.218108 0.215392 0.214668 0.215941 0.219136 0.22413 0.230786 0.239004 0.24877 0.260225 0.273788 0.290488 0.312402 0.342039 0.374891 0.371466 0.364695 0.355103 0.343613 0.33111 0.318329 0.305895 0.294355 0.284211 0.275914 0.269845 0.266279 0.265365 0.267113 0.271417 0.278092 0.286938 0.297803 0.31065 0.325649 0.343311 0.364697 0.391413 0.424882 0.454361 0.447283 0.437276 0.424774 0.410512 0.395266 0.379759 0.364661 0.350608 0.338209 0.328034 0.320578 0.316209 0.315134 0.317376 0.3228 0.33117 0.342222 0.355747 0.371678 0.390176 0.41174 0.437279 0.467951 0.50473 0.531818 0.521007 0.507637 0.492134 0.475106 0.457225 0.439168 0.421617 0.405262 0.3908 0.378906 0.37018 0.365084 0.363886 0.366629 0.373162 0.383199 0.396416 0.412546 0.43147 0.453301 0.478453 0.507641 0.541733 0.5815 0.60679 0.592229 0.575459 0.55691 0.537125 0.516693 0.49624 0.47644 0.458008 0.441703 0.428282 0.418438 0.412717 0.411449 0.414705 0.422323 0.433977 0.449284 0.467913 0.489679 0.514619 0.543032 0.575463 0.612604 0.655111 0.678964 0.660676 0.64052 0.618926 0.5964 0.573481 0.550756 0.528876 0.508572 0.49064 0.475893 0.465098 0.458873 0.457603 0.461389 0.470065 0.483271 0.50057 0.521563 0.54599 0.573798 0.605171 0.640521 0.680422 0.725454 0.748061 0.726102 0.702613 0.678011 0.652784 0.627443 0.602545 0.57873 0.55673 0.537362 0.521481 0.509902 0.503299 0.502103 0.506442 0.516147 0.530832 0.55001 0.573217 0.600113 0.630552 0.664617 0.702613 0.745027 0.792383 0.813823 0.788285 0.761543 0.734003 0.706138 0.678443 0.651464 0.625834 0.602288 0.581654 0.564812 0.552608 0.54575 0.544703 0.549616 0.56032 0.576407 0.597344 0.622605 0.651777 0.684626 0.721142 0.761543 0.80624 0.855716 0.876006 0.847003 0.817112 0.786726 0.756307 0.72634 0.697372 0.670038 0.64508 0.623332 0.605685 0.592997 0.585999 0.585171 0.590675 0.602343 0.619747 0.642318 0.669474 0.700732 0.735782 0.774529 0.817113 0.863873 0.915253 0.934388 0.902052 0.869132 0.83601 0.803132 0.770986 0.740125 0.711197 0.68495 0.662226 0.643914 0.630875 0.62384 0.623294 0.629403 0.641994 0.660625 0.684697 0.713586 0.746746 0.783799 0.824573 0.869131 0.917742 0.970792 0.988759 0.953239 0.917424 0.881685 0.846457 0.812232 0.779579 0.749166 0.721751 0.69818 0.679336 0.666067 0.659092 0.658885 0.665606 0.679076 0.69884 0.724279 0.754732 0.789611 0.828476 0.871085 0.917423 0.967674 1.02215 1.03894 1.00039 0.961832 0.923606 0.88614 0.849939 0.815599 0.783807 0.755342 0.731046 0.711793 0.698409 0.691585 0.691773 0.699111 0.713413 0.734214 0.760882 0.792735 0.82915 0.869639 0.913899 0.961832 1.01353 1.06918 1.08478 1.04338 1.00223 0.961649 0.922055 0.883977 0.84805 0.814989 0.785586 0.760683 0.741139 0.727748 0.721166 0.721801 0.729765 0.744855 0.766599 0.79436 0.827444 0.86521 0.907138 0.95287 1.00223 1.05519 1.11179 1.12612 1.08206 1.03851 0.995706 0.954085 0.914229 0.876815 0.842587 0.812352 0.786951 0.767223 0.753928 0.74767 0.748807 0.757413 0.773256 0.795859 0.824582 0.858734 0.89767 0.940848 0.987877 1.03851 1.09259 1.14996 1.1628 1.11635 1.07059 1.02569 0.982135 0.940592 0.901786 0.86649 0.835522 0.809721 0.789905 0.776793 0.770931 0.772622 0.781885 0.798456 0.821847 0.85142 0.88649 0.926418 0.970666 1.01882 1.07059 1.12569 1.18373 1.19464 1.14615 1.09841 1.05151 1.00611 0.962971 0.922865 0.886589 0.854976 0.828864 0.809042 0.796184 0.790779 0.793062 0.802994 0.820274 0.844395 0.87472 0.91058 0.951346 0.996496 1.04562 1.09841 1.15449 1.21322 1.22145 1.17147 1.12193 1.07311 1.02594 0.981292 0.939967 0.902792 0.870616 0.844264 0.824499 0.811949 0.807035 0.809927 0.820529 0.838493 0.863291 0.894289 0.930831 0.972311 1.01822 1.06819 1.12193 1.17906 1.23871 1.24325 1.19241 1.14112 1.09042 1.04158 0.9955 0.953045 0.915059 0.88239 0.855852 0.83618 0.823949 0.819525 0.823011 0.834253 0.852861 0.878286 0.909891 0.947036 0.989136 1.03572 1.08643 1.14112 1.19955 1.26069 1.26085 1.20937 1.15605 1.10351 1.05305 1.00566 0.962178 0.923468 0.890362 0.863657 0.844053 0.83209 0.82808 0.83208 0.84389 0.863089 0.889104 0.921299 0.959036 1.00175 1.04898 1.10045 1.15605 1.21624 1.28 1.27781 1.22396 1.16777 1.11316 1.06112 1.01249 0.96807 0.928677 0.895113 0.868146 0.848446 0.83653 0.832697 0.836993 0.849215 0.868942 0.895602 0.92855 0.967127 1.01074 1.05889 1.11126 1.16777 1.22873 1.29612 1.30171 1.23884 1.17851 1.12114 1.06719 1.01721 0.971826 0.931696 0.897528 0.870026 0.849837 0.83749 0.833334 0.83749 0.849837 0.870026 0.897528 0.931696 0.971826 1.01721 1.06719 1.12114 1.17851 1.23884 1.30171 0 1.11759e-08 7.45058e-09 0 1.49012e-08 0 0 0 0 0 0 0 0 0 0 0 0 0 0 0 0 0 0 0 0 0.0653283 0.0689159 0.0671524 0.0644958 0.0616372 0.0589458 0.0565607 0.0545421 0.0529025 0.0516333 0.0507177 0.0501417 0.0499006 0.0499973 0.050442 0.0512454 0.0524162 0.0539628 0.0558974 0.0582493 0.0610811 0.0644955 0.0687994 0.0738259 0.0830735 0.134804 0.137106 0.135175 0.130852 0.125716 0.120416 0.115339 0.110715 0.106696 0.103389 0.100872 0.0992029 0.0984248 0.0985587 0.0996053 0.101544 0.104337 0.107949 0.112351 0.117563 0.123662 0.130853 0.139399 0.150194 0.166777 0.207482 0.20762 0.204074 0.198042 0.190654 0.18274 0.174849 0.16739 0.160685 0.155 0.150556 0.147529 0.146041 0.146149 0.147847 0.151067 0.155706 0.161655 0.168826 0.1772 0.18686 0.198043 0.211314 0.228031 0.25136 0.282548 0.279747 0.273787 0.265401 0.255472 0.244798 0.234019 0.223664 0.2142 0.206044 0.199569 0.195084 0.192809 0.192852 0.195206 0.199759 0.206336 0.214746 0.224835 0.236543 0.249955 0.265401 0.283634 0.306091 0.335048 0.358454 0.352249 0.343309 0.332127 0.319399 0.305861 0.29218 0.278968 0.266797 0.256216 0.247739 0.241804 0.238738 0.238709 0.241718 0.247613 0.256148 0.267054 0.280106 0.295198 0.312415 0.332127 0.355105 0.382583 0.416013 0.433885 0.424002 0.411738 0.397494 0.381834 0.365416 0.348898 0.332935 0.318181 0.305294 0.294909 0.287592 0.283771 0.28368 0.287336 0.294555 0.305025 0.318397 0.334376 0.3528 0.373726 0.397495 0.424778 0.456531 0.493724 0.507922 0.494217 0.478451 0.461002 0.442351 0.423083 0.403829 0.385259 0.368085 0.353051 0.340897 0.332301 0.32779 0.327665 0.33196 0.340469 0.352821 0.368589 0.387403 0.409035 0.433481 0.461003 0.492138 0.527609 0.568144 0.579948 0.562366 0.54303 0.522318 0.500662 0.478591 0.456703 0.435674 0.416254 0.399249 0.385487 0.375742 0.370627 0.370507 0.37544 0.3852 0.399363 0.41743 0.43895 0.463621 0.491355 0.522319 0.556914 0.595703 0.639288 0.649529 0.628069 0.605171 0.581197 0.556554 0.531733 0.507311 0.483962 0.46246 0.44366 0.428458 0.417703 0.412084 0.41202 0.417593 0.428562 0.444455 0.464705 0.488782 0.5163 0.547084 0.581197 0.618926 0.660724 0.707123 0.716317 0.691028 0.664618 0.637427 0.609845 0.582342 0.555481 0.52994 0.506508 0.486079 0.469599 0.457975 0.451955 0.452003 0.45822 0.470353 0.487889 0.510196 0.536667 0.566834 0.600431 0.637425 0.678012 0.722558 0.771553 0.780007 0.750981 0.721143 0.690813 0.660365 0.630259 0.601058 0.573443 0.548225 0.526321 0.508716 0.496358 0.490037 0.490251 0.497114 0.510363 0.529447 0.553677 0.582376 0.614993 0.651177 0.69081 0.734003 0.781058 0.83243 0.840323 0.807682 0.774529 0.741161 0.707941 0.675328 0.643889 0.61432 0.587449 0.564217 0.545631 0.532668 0.526142 0.526571 0.534079 0.548388 0.56892 0.594934 0.625687 0.660557 0.699115 0.74116 0.786726 0.836056 0.889576 0.897017 0.860909 0.824573 0.788288 0.752407 0.717391 0.683826 0.652424 0.624035 0.599615 0.580187 0.56674 0.560099 0.560786 0.568928 0.584237 0.606108 0.633759 0.666393 0.703322 0.744045 0.788287 0.836008 0.887385 0.942802 0.949871 0.910457 0.871087 0.832019 0.793599 0.756297 0.720722 0.687613 0.657838 0.63237 0.612235 0.598421 0.59175 0.592736 0.601498 0.617739 0.640834 0.669969 0.704305 0.743098 0.785784 0.832018 0.881683 0.934882 0.991928 0.998682 0.956137 0.913899 0.872194 0.83136 0.791892 0.754429 0.719742 0.688719 0.662341 0.641632 0.627569 0.62095 0.622274 0.63164 0.648742 0.672939 0.703399 0.739254 0.779716 0.824166 0.872194 0.923605 0.978413 1.03682 1.04328 0.997797 0.95287 0.908673 0.865551 0.824036 0.784812 0.748679 0.716544 0.689394 0.668244 0.654045 0.647564 0.649265 0.659222 0.677112 0.702288 0.733911 0.771095 0.813025 0.859041 0.908674 0.961649 1.01787 1.0774 1.08349 1.0353 0.987878 0.941333 0.896039 0.852596 0.811737 0.77429 0.741179 0.713392 0.691928 0.677705 0.671447 0.67357 0.684111 0.702726 0.728763 0.761384 0.799703 0.842898 0.890279 0.941333 0.995706 1.05319 1.11364 1.11913 1.06853 1.01883 0.970055 0.922702 0.877452 0.835084 0.796455 0.762501 0.734205 0.712547 0.698406 0.692451 0.695042 0.706166 0.725452 0.752242 0.785707 0.824972 0.86922 0.917762 0.970055 1.02569 1.08433 1.14562 1.15004 1.09743 1.04563 0.994736 0.945434 0.8985 0.854753 0.815069 0.780394 0.75171 0.729966 0.715998 0.710417 0.713517 0.725229 0.745146 0.772597 0.806763 0.846792 0.891889 0.941383 0.994736 1.05151 1.11129 1.17346 1.1761 1.12195 1.06819 1.01528 0.964156 0.915673 0.870675 0.830058 0.794777 0.765803 0.74406 0.730338 0.725182 0.728817 0.741118 0.761631 0.789668 0.824418 0.865052 0.910809 0.961047 1.01528 1.07311 1.13408 1.19737 1.19736 1.14212 1.08643 1.03163 0.978861 0.928978 0.882863 0.841432 0.80564 0.776448 0.754756 0.741305 0.736583 0.740749 0.753617 0.77469 0.803259 0.838512 0.879636 0.925902 0.976715 1.03163 1.09042 1.15278 1.21766 1.21443 1.15812 1.10045 1.04401 0.989763 0.938657 0.891568 0.849423 0.813178 0.783782 0.762112 0.748875 0.744511 0.749129 0.762495 0.784078 0.813143 0.848875 0.890467 0.937202 0.988507 1.04401 1.10351 1.16739 1.23448 1.23026 1.17116 1.11126 1.05308 0.997488 0.945299 0.897367 0.854591 0.817901 0.788233 0.76644 0.753213 0.748977 0.753829 0.767525 0.789526 0.819094 0.855399 0.897615 0.945005 0.99697 1.05308 1.11316 1.17736 1.24723 1.25 1.18439 1.12114 1.06066 1.00347 0.950147 0.901389 0.85797 0.820739 0.79057 0.768296 0.754616 0.750001 0.754616 0.768296 0.79057 0.820739 0.85797 0.901389 0.950147 1.00347 1.06066 1.12114 1.18439 1.25 1.49012e-08 1.86265e-08 1.666e-08 1.49012e-08 2.10734e-08 1.49012e-08 1.49012e-08 1.49012e-08 1.49012e-08 1.49012e-08 1.49012e-08 1.49012e-08 1.49012e-08 1.49012e-08 1.49012e-08 1.49012e-08 1.49012e-08 1.49012e-08 1.49012e-08 1.49012e-08 1.49012e-08 1.49012e-08 1.49012e-08 1.49012e-08 1.49012e-08 0.0651397 0.0668229 0.0642256 0.0610805 0.0578162 0.0547306 0.0519493 0.0495462 0.0475565 0.0459959 0.0448705 0.0441848 0.0439439 0.0441522 0.0448104 0.0459137 0.0474496 0.0494055 0.051772 0.05456 0.0578169 0.0616375 0.0663003 0.0718422 0.0817603 0.132877 0.132705 0.129146 0.123662 0.117621 0.111544 0.105769 0.100513 0.0959432 0.0921944 0.0893793 0.0875883 0.0868821 0.0872866 0.0887855 0.0913304 0.0948475 0.0992637 0.104524 0.110621 0.11762 0.125716 0.135185 0.146936 0.162861 0.202752 0.200144 0.194513 0.186859 0.178161 0.169146 0.160302 0.152014 0.144609 0.13838 0.133589 0.130454 0.129127 0.129674 0.132066 0.136197 0.141913 0.149051 0.157489 0.167172 0.178161 0.190654 0.205122 0.222413 0.244571 0.27423 0.268535 0.260224 0.249956 0.238492 0.226518 0.214615 0.203286 0.193005 0.18422 0.177356 0.172775 0.17074 0.171374 0.174647 0.180395 0.188376 0.198331 0.210054 0.223429 0.23849 0.255471 0.274898 0.297688 0.32579 0.346277 0.337096 0.325648 0.312414 0.297993 0.283013 0.268077 0.253769 0.240674 0.22938 0.220461 0.214425 0.211655 0.212344 0.216466 0.223809 0.234044 0.246813 0.261818 0.278877 0.297993 0.319398 0.343616 0.371564 0.404722 0.41799 0.405067 0.390176 0.373724 0.356209 0.338189 0.320268 0.303075 0.287279 0.273583 0.262694 0.255257 0.251773 0.252507 0.257449 0.266344 0.278779 0.2943 0.312513 0.333166 0.356209 0.381835 0.410515 0.443052 0.480494 0.488653 0.47182 0.453301 0.43348 0.412785 0.391722 0.37088 0.350913 0.332551 0.316592 0.303853 0.295107 0.29096 0.29175 0.297488 0.307881 0.322441 0.340615 0.361918 0.386014 0.412785 0.442353 0.475109 0.511703 0.552907 0.557688 0.536853 0.514619 0.491356 0.467447 0.443362 0.419672 0.397047 0.376262 0.358188 0.343741 0.333796 0.329057 0.329931 0.336447 0.348281 0.364874 0.385583 0.409827 0.437183 0.467447 0.500663 0.537127 0.577352 0.621965 0.624621 0.599759 0.573799 0.547085 0.519974 0.49291 0.466451 0.441282 0.418214 0.398177 0.382164 0.371141 0.365894 0.366887 0.374167 0.387383 0.40591 0.429022 0.456041 0.486455 0.519973 0.556554 0.5964 0.63992 0.68767 0.689051 0.660196 0.630554 0.600432 0.570166 0.540185 0.511046 0.483447 0.458232 0.436378 0.418945 0.406966 0.401297 0.402447 0.410477 0.425013 0.445371 0.470743 0.500363 0.533629 0.570165 0.609844 0.652785 0.699321 0.749965 0.750624 0.717865 0.684627 0.651178 0.617835 0.585023 0.553302 0.523389 0.496158 0.472631 0.453916 0.441102 0.435095 0.436439 0.445206 0.460995 0.483072 0.510556 0.542598 0.578511 0.617834 0.660362 0.706137 0.755433 0.808738 0.80903 0.772497 0.735782 0.699116 0.662799 0.627257 0.593063 0.560958 0.531847 0.506787 0.486926 0.473395 0.467131 0.468703 0.478185 0.495154 0.518832 0.548272 0.582553 0.620908 0.662798 0.70794 0.756306 0.808114 0.863832 0.863992 0.823846 0.783798 0.744046 0.704876 0.666721 0.630176 0.59601 0.565158 0.538707 0.517837 0.503701 0.497259 0.499088 0.509257 0.527327 0.552478 0.583712 0.620045 0.660636 0.704875 0.752406 0.80313 0.857206 0.915071 0.915272 0.871692 0.828476 0.785785 0.743897 0.703257 0.664493 0.628404 0.595956 0.56826 0.546517 0.531892 0.525348 0.527458 0.538282 0.557364 0.583853 0.616711 0.6549 0.697521 0.743895 0.793597 0.846456 0.90256 0.962284 0.962659 0.915842 0.869639 0.824167 0.779699 0.736712 0.695868 0.658001 0.624107 0.595316 0.57284 0.557841 0.551271 0.553688 0.565133 0.585132 0.612815 0.647116 0.68696 0.7314 0.779698 0.831359 0.886139 0.944041 1.00533 1.00597 0.956133 0.907139 0.859042 0.812134 0.766936 0.724157 0.684664 0.649478 0.619746 0.596677 0.581421 0.574906 0.577657 0.589691 0.610514 0.639244 0.674802 0.716089 0.762127 0.812133 0.865551 0.922055 0.981543 1.04414 1.04502 0.992433 0.940851 0.890281 0.841068 0.793801 0.749236 0.708271 0.671951 0.641428 0.617906 0.602511 0.59613 0.599249 0.611845 0.633402 0.663033 0.699654 0.742166 0.789575 0.841067 0.896038 0.954085 1.01499 1.07868 1.07966 1.02464 0.970668 0.917763 0.866379 0.817187 0.770986 0.728708 0.691407 0.660242 0.636402 0.620978 0.614814 0.618336 0.631474 0.653687 0.68408 0.721579 0.765092 0.813631 0.866379 0.922701 0.982134 1.04434 1.10901 1.10974 1.05267 0.996494 0.941381 0.887968 0.837005 0.789327 0.745885 0.707751 0.676082 0.652045 0.636695 0.630818 0.634777 0.648448 0.671254 0.702288 0.740486 0.784782 0.83421 0.88797 0.945435 1.00611 1.06957 1.13525 1.13515 1.07645 1.01822 0.961047 0.905779 0.853215 0.804219 0.759763 0.720928 0.688869 0.664733 0.649536 0.643998 0.648418 0.662613 0.68596 0.717537 0.75629 0.801173 0.851258 0.905779 0.964157 1.02594 1.09067 1.15753 1.15582 1.09587 1.03572 0.976716 0.919825 0.86586 0.815716 0.770388 0.730963 0.698596 0.674419 0.659404 0.654218 0.659094 0.673788 0.697631 0.729683 0.768885 0.814213 0.864766 0.919825 0.978862 1.04158 1.10765 1.17599 1.17211 1.11092 1.04898 0.988509 0.930255 0.875124 0.824022 0.777959 0.738034 0.705397 0.681167 0.66629 0.661389 0.666649 0.681773 0.706058 0.738536 0.778145 0.823862 0.874798 0.930254 0.989762 1.05305 1.12041 1.19061 1.18637 1.12254 1.05889 0.99697 0.937563 0.881482 0.829618 0.78296 0.742594 0.709662 0.685271 0.670357 0.665532 0.670969 0.68636 0.71099 0.74388 0.783954 0.830169 0.881615 0.937562 0.997487 1.06112 1.12852 1.20087 1.20185 1.13346 1.06719 1.00347 0.94281 0.885846 0.833334 0.786166 0.745357 0.712001 0.687185 0.671856 0.666667 0.671856 0.687185 0.712001 0.745357 0.786166 0.833334 0.885846 0.94281 1.00347 1.06719 1.13346 1.20185 0 1.11759e-08 7.45058e-09 0 1.49012e-08 0 0 0 0 0 0 0 0 0 0 0 0 0 0 0 0 0 0 0 0 0.0652854 0.0652511 0.0618837 0.058248 0.0545599 0.051058 0.0478504 0.0450196 0.0426235 0.0407073 0.0393088 0.0384591 0.0381799 0.0384794 0.0393466 0.0407551 0.0426654 0.0450367 0.0478365 0.0510575 0.0547309 0.0589459 0.0639473 0.0699327 0.0802791 0.131743 0.129259 0.124153 0.117563 0.110621 0.103736 0.0971976 0.0912165 0.0859775 0.0816532 0.0784049 0.0763699 0.0756426 0.0762569 0.0781774 0.0813138 0.0855421 0.0907409 0.0968172 0.103737 0.111544 0.120417 0.13063 0.143114 0.158671 0.199404 0.194136 0.186461 0.177199 0.167172 0.157002 0.147115 0.137871 0.129604 0.122645 0.117314 0.113895 0.112591 0.113483 0.116514 0.121519 0.128268 0.136535 0.146142 0.157002 0.169145 0.182739 0.198181 0.215998 0.237271 0.268025 0.259455 0.24877 0.236543 0.223429 0.210022 0.196838 0.184352 0.173041 0.163393 0.155898 0.151004 0.14904 0.150155 0.154283 0.161183 0.170514 0.181931 0.195154 0.210022 0.226518 0.244797 0.265219 0.288323 0.315584 0.336906 0.324706 0.31065 0.295199 0.278877 0.262235 0.245812 0.230164 0.21588 0.203592 0.193951 0.18757 0.184914 0.186209 0.191394 0.200156 0.212044 0.226589 0.243402 0.262234 0.283014 0.30586 0.33111 0.359416 0.392155 0.405419 0.389357 0.371678 0.3528 0.333166 0.313273 0.293664 0.274946 0.257795 0.242966 0.231257 0.223431 0.220092 0.221548 0.227746 0.238312 0.252687 0.27028 0.290589 0.313272 0.33819 0.365416 0.395268 0.428405 0.465931 0.473021 0.452931 0.43147 0.409034 0.386013 0.362863 0.340123 0.318431 0.298534 0.281286 0.267616 0.258425 0.254441 0.256056 0.263227 0.275528 0.292297 0.312824 0.336492 0.362863 0.391723 0.423085 0.457227 0.494742 0.536486 0.539236 0.515008 0.48968 0.463621 0.437183 0.41079 0.384977 0.36041 0.337887 0.318353 0.302843 0.292384 0.287815 0.2896 0.297712 0.311675 0.330731 0.354056 0.380921 0.41079 0.443363 0.478591 0.516695 0.55817 0.603718 0.603618 0.575205 0.545992 0.516301 0.486455 0.456858 0.428044 0.4007 0.375677 0.35399 0.33677 0.325149 0.320062 0.322039 0.331062 0.34661 0.367838 0.393814 0.423698 0.456858 0.492909 0.531732 0.573482 0.618565 0.667598 0.665748 0.633175 0.600115 0.566837 0.533632 0.500894 0.469163 0.43915 0.41175 0.388043 0.369243 0.356567 0.351035 0.353226 0.363132 0.380186 0.403465 0.431934 0.464653 0.500892 0.540184 0.58234 0.627443 0.675833 0.728083 0.725244 0.688599 0.651779 0.614995 0.578513 0.542721 0.508173 0.475604 0.445957 0.420367 0.400116 0.386496 0.380591 0.383019 0.393774 0.412251 0.437452 0.468252 0.503614 0.54272 0.585021 0.630257 0.678442 0.729865 0.785076 0.781766 0.741187 0.700733 0.660558 0.620909 0.582173 0.544923 0.509926 0.478166 0.45083 0.42926 0.414804 0.408596 0.411281 0.422849 0.442658 0.469644 0.502604 0.540415 0.582173 0.627254 0.675326 0.726339 0.780529 0.83844 0.835018 0.79068 0.746746 0.703323 0.660637 0.619085 0.579265 0.541977 0.508248 0.479311 0.456554 0.441373 0.43493 0.437886 0.450223 0.471264 0.499892 0.534833 0.57489 0.619084 0.66672 0.71739 0.770984 0.827683 0.888007 0.884741 0.836845 0.789612 0.743099 0.697522 0.653296 0.611048 0.571619 0.536074 0.505686 0.481882 0.466085 0.459477 0.462718 0.475774 0.497941 0.528055 0.564789 0.606884 0.653295 0.703256 0.756295 0.812231 0.871179 0.93361 0.930719 0.879485 0.829149 0.779715 0.731399 0.68465 0.640132 0.598722 0.561522 0.529841 0.505131 0.488834 0.482129 0.485668 0.499393 0.522572 0.554009 0.592337 0.63625 0.68465 0.73671 0.791891 0.849938 0.910887 0.975106 0.972766 0.918444 0.865211 0.813025 0.762128 0.713011 0.666381 0.623156 0.584469 0.551657 0.52619 0.50951 0.502782 0.506633 0.520976 0.545053 0.577644 0.617359 0.66286 0.713011 0.766936 0.824035 0.883977 0.946693 1.0124 1.01071 0.953587 0.897671 0.842898 0.789575 0.738251 0.689679 0.64481 0.604808 0.571029 0.54495 0.528003 0.521329 0.525512 0.540428 0.565289 0.598866 0.639752 0.686599 0.738252 0.7938 0.852596 0.914229 0.978515 1.04547 1.04442 0.984815 0.926419 0.86922 0.813631 0.760268 0.709925 0.663587 0.622439 0.587853 0.561306 0.544208 0.537661 0.542198 0.557647 0.583192 0.617587 0.659432 0.707377 0.760268 0.817186 0.877451 0.940591 1.0063 1.07436 1.07373 1.01202 0.951346 0.891889 0.83421 0.778988 0.727054 0.679417 0.637286 0.602043 0.575156 0.558011 0.551659 0.556572 0.572526 0.598665 0.633733 0.676329 0.725129 0.778989 0.837005 0.898501 0.962972 1.03001 1.09914 1.09848 1.03506 0.97231 0.910809 0.851257 0.794383 0.741045 0.69228 0.649316 0.613543 0.586422 0.56931 0.563202 0.568507 0.58494 0.6116 0.647214 0.69039 0.739816 0.794383 0.853214 0.915673 0.981291 1.04962 1.11991 1.11845 1.05371 0.989137 0.925903 0.864766 0.806479 0.75194 0.702217 0.658554 0.622351 0.595068 0.578027 0.572179 0.577866 0.594742 0.621863 0.657932 0.701553 0.751431 0.806478 0.865859 0.928978 0.995501 1.06509 1.13673 1.13382 1.06786 1.00175 0.937203 0.874799 0.815383 0.75988 0.70938 0.665145 0.628586 0.601155 0.584162 0.578518 0.584521 0.601771 0.629287 0.665744 0.70974 0.75998 0.815382 0.875124 0.938656 1.00566 1.07634 1.14952 1.14624 1.07808 1.01074 0.945006 0.881616 0.821361 0.76516 0.714092 0.669415 0.632537 0.60491 0.587839 0.58223 0.58837 0.605847 0.633663 0.67048 0.714878 0.76554 0.82136 0.881482 0.945297 1.01249 1.08305 1.1579 1.1577 1.08653 1.01721 0.950147 0.885846 0.824958 0.768296 0.716861 0.671856 0.634648 0.606677 0.589256 0.583334 0.589256 0.606677 0.634649 0.671856 0.716861 0.768296 0.824959 0.885846 0.950147 1.01721 1.08653 1.1577 0 1.11759e-08 7.45058e-09 0 1.49012e-08 0 0 0 0 0 0 0 0 0 0 0 0 0 0 0 0 0 0 0 0 0.0657611 0.0641158 0.0600255 0.0558964 0.051772 0.0478372 0.04418 0.040886 0.0380333 0.0356998 0.0339632 0.0328949 0.032546 0.032933 0.0340309 0.0357801 0.0381025 0.0409217 0.0441796 0.0478501 0.0519499 0.0565612 0.0618896 0.0682581 0.0788491 0.131261 0.126583 0.12 0.11235 0.104523 0.0968168 0.0894735 0.0826933 0.07668 0.0716502 0.0678306 0.0654324 0.0646093 0.0654146 0.0677847 0.0715644 0.0765557 0.0825713 0.0894739 0.0971987 0.105769 0.11534 0.126183 0.139236 0.154658 0.19712 0.189294 0.179644 0.168826 0.157488 0.146142 0.135146 0.124831 0.115541 0.107654 0.101575 0.0976908 0.0962919 0.097492 0.101194 0.107134 0.114972 0.124389 0.135145 0.147115 0.160302 0.174849 0.1911 0.209415 0.230118 0.263395 0.252019 0.239006 0.224836 0.210053 0.195154 0.180584 0.166783 0.154228 0.14346 0.135066 0.129623 0.127581 0.129131 0.134155 0.14228 0.15302 0.165907 0.180584 0.196837 0.214614 0.234018 0.255299 0.278742 0.305283 0.329646 0.314459 0.297805 0.280107 0.261817 0.243402 0.225337 0.208138 0.192396 0.1788 0.168115 0.161107 0.158391 0.16025 0.166556 0.176833 0.190447 0.206777 0.225336 0.245812 0.268077 0.292181 0.31833 0.346949 0.379195 0.395441 0.376239 0.355748 0.334375 0.312513 0.290589 0.26909 0.248586 0.229761 0.213431 0.200527 0.191994 0.188608 0.19075 0.198287 0.210652 0.227063 0.246751 0.26909 0.293664 0.320268 0.3489 0.37976 0.413369 0.450819 0.460384 0.437004 0.412546 0.387402 0.361916 0.336491 0.311615 0.287896 0.266096 0.247144 0.232118 0.222129 0.218104 0.220516 0.229236 0.24361 0.262718 0.285638 0.311615 0.340123 0.37088 0.40383 0.439169 0.477428 0.519538 0.524083 0.496407 0.467913 0.43895 0.409827 0.380921 0.352725 0.325882 0.301217 0.279763 0.262725 0.251365 0.246748 0.249432 0.259289 0.275584 0.297269 0.323278 0.352724 0.384978 0.419671 0.456703 0.496242 0.538777 0.585097 0.586135 0.554108 0.521563 0.488783 0.456041 0.423699 0.392253 0.362381 0.334968 0.311133 0.292201 0.279565 0.274412 0.277374 0.288324 0.30645 0.330582 0.359521 0.392253 0.428044 0.466449 0.507311 0.550756 0.597216 0.647389 0.646129 0.609772 0.573218 0.536669 0.500365 0.464654 0.430046 0.397249 0.367205 0.341116 0.32041 0.306597 0.300968 0.304219 0.316216 0.336078 0.362521 0.39422 0.430045 0.46916 0.511045 0.55548 0.602544 0.652615 0.706341 0.703677 0.663082 0.622607 0.582378 0.5426 0.503616 0.46595 0.430345 0.397799 0.369586 0.347231 0.332342 0.326299 0.329846 0.342842 0.364339 0.392949 0.427231 0.465948 0.50817 0.553299 0.601055 0.651462 0.704852 0.761854 0.758418 0.713737 0.669475 0.625689 0.582555 0.540415 0.499816 0.461535 0.426624 0.396427 0.37255 0.356689 0.350293 0.354143 0.368084 0.391107 0.421731 0.458413 0.499816 0.544922 0.59306 0.643886 0.69737 0.753797 0.813796 0.810043 0.761468 0.713587 0.666395 0.620047 0.574891 0.531499 0.490689 0.453563 0.421528 0.396264 0.379535 0.372847 0.377003 0.391829 0.416261 0.448737 0.487625 0.531499 0.579263 0.630175 0.683823 0.740123 0.79931 0.862004 0.858286 0.80604 0.754733 0.704306 0.654901 0.606885 0.560858 0.517679 0.478498 0.444783 0.418271 0.400784 0.393866 0.398329 0.413974 0.43969 0.473846 0.514735 0.560858 0.611048 0.664493 0.720719 0.779578 0.841247 0.906307 0.902927 0.847257 0.792736 0.739254 0.686961 0.636251 0.587759 0.542382 0.501318 0.466086 0.438472 0.42034 0.413255 0.418025 0.434423 0.461291 0.496946 0.539621 0.587758 0.640131 0.695867 0.754428 0.815597 0.879474 0.946555 0.943784 0.88496 0.827444 0.771094 0.716089 0.66286 0.612079 0.564685 0.521916 0.485336 0.456771 0.438113 0.430928 0.436007 0.453089 0.480974 0.517938 0.562174 0.612079 0.666381 0.724157 0.784811 0.84805 0.913875 0.98264 0.9807 0.919026 0.858736 0.799704 0.742167 0.686599 0.633714 0.584487 0.540198 0.502443 0.47308 0.45401 0.446794 0.452188 0.469887 0.498655 0.536738 0.5823 0.633714 0.689679 0.749235 0.811736 0.876815 0.944359 1.01452 1.01352 0.94933 0.886491 0.824973 0.765093 0.707379 0.652581 0.601711 0.556081 0.517322 0.487308 0.467943 0.460762 0.466478 0.484736 0.514261 0.553272 0.599925 0.652579 0.709926 0.770986 0.835083 0.901786 0.970861 1.04221 1.04207 0.975729 0.91058 0.846793 0.784783 0.72513 0.66862 0.616297 0.569506 0.529901 0.499373 0.479819 0.472737 0.478782 0.497547 0.527712 0.567478 0.61499 0.668618 0.727054 0.789326 0.854752 0.922864 0.993329 1.06578 1.06608 0.998002 0.930832 0.865054 0.801173 0.739817 0.681808 0.628224 0.580441 0.540138 0.509216 0.489557 0.482619 0.488998 0.508223 0.538928 0.579292 0.627461 0.681807 0.741045 0.804218 0.870674 0.939966 1.01171 1.08528 1.08526 1.01587 0.947038 0.879638 0.814214 0.751432 0.692161 0.63752 0.588911 0.548035 0.516807 0.497095 0.49032 0.497016 0.51665 0.547811 0.588651 0.637306 0.69216 0.75194 0.815716 0.882864 0.953045 1.02596 1.10074 1.09964 1.02914 0.959035 0.890467 0.823862 0.75998 0.699732 0.644263 0.595002 0.553672 0.522192 0.502431 0.495781 0.502735 0.522705 0.55424 0.595463 0.644501 0.699731 0.759879 0.824023 0.891568 0.962178 1.03602 1.11208 1.1102 1.03806 0.967127 0.897615 0.83017 0.765541 0.704645 0.648625 0.598915 0.557239 0.525528 0.505653 0.499006 0.50607 0.526246 0.558061 0.59962 0.64903 0.704643 0.76516 0.829618 0.897367 0.968069 1.04171 1.11903 1.11803 1.04416 0.971826 0.901388 0.833334 0.768296 0.707107 0.650855 0.600926 0.559018 0.527047 0.506898 0.500001 0.506898 0.527047 0.559018 0.600926 0.650855 0.707107 0.768296 0.833334 0.901388 0.971826 1.04416 1.11803 0 1.11759e-08 7.45058e-09 0 1.49012e-08 0 0 0 0 0 0 0 0 0 0 0 0 0 0 0 0 0 0 0 0 0.0665151 0.0633355 0.05857 0.0539616 0.0494054 0.0450371 0.0409216 0.0371408 0.0337863 0.0309683 0.0288153 0.0274608 0.0270097 0.0274985 0.0288778 0.0310335 0.0338285 0.0371424 0.0408864 0.0450198 0.0495465 0.0545422 0.0601749 0.0668617 0.0775545 0.131349 0.124586 0.116602 0.107947 0.0992633 0.0907402 0.0825709 0.074934 0.0680452 0.0621665 0.0576105 0.0547045 0.0537109 0.0547256 0.0576359 0.0621761 0.0680324 0.0749348 0.0826934 0.0912172 0.100513 0.110716 0.122098 0.135575 0.151015 0.195755 0.185491 0.173957 0.161654 0.149051 0.136535 0.124389 0.112907 0.102435 0.0934008 0.0863225 0.0817514 0.08014 0.0816689 0.0861665 0.0932007 0.102261 0.112907 0.12483 0.137871 0.152013 0.16739 0.184309 0.203063 0.223458 0.260101 0.246038 0.230788 0.214747 0.198332 0.181931 0.165908 0.150651 0.136634 0.12445 0.114822 0.108539 0.10626 0.10827 0.11435 0.123901 0.13621 0.150651 0.166783 0.184352 0.203285 0.223664 0.245677 0.269464 0.295445 0.324173 0.306107 0.28694 0.267056 0.246814 0.22659 0.206778 0.187842 0.170364 0.155091 0.142949 0.134956 0.131987 0.134443 0.142068 0.154105 0.169635 0.187841 0.208137 0.230164 0.253769 0.278968 0.305896 0.334802 0.366526 0.387708 0.365453 0.342223 0.318399 0.294301 0.270281 0.24675 0.224228 0.203389 0.18512 0.170534 0.160872 0.157218 0.160092 0.169211 0.183668 0.202341 0.224228 0.248585 0.274946 0.303075 0.332935 0.364663 0.398638 0.435846 0.450416 0.423811 0.396417 0.368589 0.340614 0.312824 0.285637 0.259616 0.23552 0.214359 0.197421 0.186154 0.181841 0.185115 0.195673 0.212465 0.234176 0.259617 0.287896 0.318431 0.350913 0.385259 0.421618 0.460446 0.502698 0.511974 0.480898 0.449284 0.417429 0.385583 0.354056 0.323278 0.293849 0.266601 0.24266 0.223472 0.210678 0.205743 0.209408 0.221348 0.240379 0.265001 0.293848 0.325881 0.360409 0.397046 0.435674 0.47644 0.519818 0.566674 0.57201 0.536406 0.500569 0.464705 0.429022 0.393815 0.359521 0.326779 0.29649 0.269886 0.248559 0.234325 0.228817 0.232868 0.246132 0.267297 0.294691 0.326779 0.362379 0.4007 0.44128 0.483961 0.528876 0.576479 0.627557 0.630129 0.590023 0.550011 0.510197 0.470745 0.431936 0.394221 0.358275 0.325064 0.29592 0.27257 0.25699 0.250959 0.255392 0.269918 0.293108 0.323124 0.358274 0.397247 0.439146 0.483444 0.529938 0.578729 0.630242 0.685215 0.685934 0.641433 0.597345 0.553679 0.510558 0.468254 0.427233 0.388207 0.352204 0.320652 0.295401 0.27857 0.27207 0.276882 0.292605 0.3177 0.35018 0.388206 0.430343 0.475603 0.523385 0.57344 0.625832 0.680954 0.739522 0.739063 0.690337 0.642318 0.594934 0.548273 0.502605 0.458414 0.416448 0.377799 0.343981 0.316957 0.298976 0.292059 0.297243 0.314094 0.340968 0.375744 0.416448 0.461535 0.509926 0.560955 0.614317 0.670037 0.728469 0.790336 0.789204 0.736468 0.684699 0.63376 0.583714 0.534834 0.487626 0.442876 0.401739 0.365806 0.337147 0.318121 0.310843 0.31639 0.334292 0.362809 0.399701 0.442877 0.490689 0.541977 0.596009 0.652423 0.711195 0.772644 0.837494 0.836092 0.77959 0.72428 0.66997 0.616712 0.56479 0.514736 0.467376 0.423919 0.386035 0.355884 0.335922 0.328342 0.334239 0.353109 0.383128 0.421948 0.467376 0.517679 0.57162 0.628403 0.687611 0.749164 0.81333 0.880817 0.879505 0.819509 0.760883 0.7034 0.647117 0.592338 0.539621 0.489835 0.444241 0.404578 0.373086 0.352304 0.344477 0.350713 0.370466 0.401836 0.442384 0.489836 0.542381 0.598721 0.658 0.719742 0.783806 0.850391 0.920141 0.919267 0.856065 0.794359 0.733911 0.674802 0.61736 0.562176 0.510157 0.462614 0.42135 0.388675 0.367189 0.359177 0.365742 0.386289 0.418852 0.460921 0.510155 0.564685 0.623156 0.684664 0.748678 0.814989 0.883703 0.955338 0.955217 0.889126 0.824582 0.761385 0.699654 0.639752 0.582301 0.528249 0.478954 0.436273 0.402572 0.380503 0.372368 0.379251 0.400506 0.434106 0.477484 0.528249 0.584488 0.64481 0.708271 0.77429 0.842588 0.913164 0.986341 0.987177 0.918542 0.85142 0.785708 0.721579 0.659432 0.599926 0.544046 0.493194 0.449276 0.414709 0.392173 0.383978 0.39117 0.413049 0.447533 0.492007 0.544045 0.60171 0.663587 0.728707 0.796455 0.86649 0.938694 1.01315 1.01492 0.944125 0.874722 0.806765 0.740488 0.676332 0.614993 0.557495 0.505283 0.460305 0.425018 0.402127 0.393927 0.401422 0.42385 0.459071 0.504436 0.557493 0.616295 0.679418 0.745885 0.815068 0.886588 0.960226 1.03579 1.03811 0.965606 0.894289 0.824419 0.75629 0.69039 0.62746 0.568566 0.51519 0.469321 0.433451 0.4103 0.402143 0.409929 0.432833 0.46866 0.514726 0.568566 0.628224 0.692279 0.759762 0.830058 0.902792 0.977697 1.05433 1.05642 0.982689 0.909891 0.838511 0.768885 0.701553 0.637306 0.577254 0.522917 0.476321 0.439987 0.416645 0.408554 0.416609 0.439918 0.476233 0.522839 0.577254 0.637519 0.702216 0.770387 0.841433 0.915059 0.991047 1.06876 1.06981 0.995132 0.921298 0.848876 0.778146 0.709741 0.644502 0.583572 0.528501 0.481345 0.444648 0.421156 0.413115 0.421382 0.445012 0.48171 0.52873 0.58357 0.644262 0.709379 0.77796 0.849423 0.923468 1.00026 1.07903 1.07864 1.00288 0.928547 0.855397 0.783954 0.714878 0.64903 0.587559 0.532026 0.484495 0.447529 0.423887 0.41582 0.424184 0.448016 0.484995 0.53235 0.587559 0.648625 0.714092 0.78296 0.85459 0.928677 1.00523 1.08491 1.08333 1.00692 0.931695 0.85797 0.786165 0.716861 0.650855 0.589256 0.533594 0.485913 0.448764 0.424919 0.416667 0.424919 0.448764 0.485913 0.533594 0.589256 0.650855 0.716861 0.786166 0.85797 0.931695 1.00692 1.08333 0 1.11759e-08 7.45058e-09 0 1.49012e-08 0 0 0 0 0 0 0 0 0 0 0 0 0 0 0 0 0 0 0 0 0.0674937 0.0628574 0.0574729 0.0524151 0.0474497 0.0426659 0.0381021 0.0338277 0.0299346 0.0265575 0.0238831 0.0221412 0.0215419 0.0221689 0.0239238 0.0265886 0.0299352 0.0337874 0.0380337 0.0426236 0.0475562 0.0529022 0.0587983 0.0657315 0.0764028 0.131939 0.123218 0.113925 0.104336 0.0948475 0.0855422 0.0765553 0.0680325 0.0601801 0.0532938 0.0477851 0.0441646 0.0429026 0.0441926 0.0478208 0.0533143 0.060181 0.068046 0.07668 0.0859778 0.0959419 0.106696 0.118517 0.13227 0.147785 0.19523 0.18269 0.169394 0.155707 0.141913 0.128268 0.114971 0.102261 0.0904586 0.0800287 0.0716212 0.0660484 0.0640728 0.0660222 0.0715723 0.0799762 0.0904597 0.102435 0.115541 0.129604 0.144608 0.160685 0.178122 0.197204 0.217459 0.258045 0.241475 0.224131 0.206338 0.188375 0.170514 0.15302 0.13621 0.12052 0.106579 0.0952748 0.087728 0.085007 0.0875933 0.095062 0.106393 0.12052 0.136634 0.154228 0.17304 0.193003 0.214199 0.236796 0.260871 0.286434 0.320379 0.299617 0.278094 0.256151 0.234044 0.212045 0.190447 0.169635 0.150145 0.132765 0.118611 0.109106 0.105629 0.108823 0.118177 0.132403 0.150145 0.170364 0.192395 0.215878 0.240674 0.266797 0.294355 0.32349 0.354694 0.382112 0.356981 0.331171 0.305027 0.27878 0.252687 0.227064 0.202342 0.179151 0.158423 0.141494 0.130076 0.12585 0.129627 0.140816 0.15787 0.17915 0.20339 0.22976 0.257795 0.287279 0.318182 0.350609 0.384833 0.421647 0.443037 0.413372 0.383199 0.352821 0.32244 0.292297 0.262718 0.234176 0.207385 0.183411 0.163795 0.150529 0.145578 0.149915 0.162877 0.182673 0.207385 0.23552 0.266096 0.298533 0.332553 0.368085 0.405262 0.444469 0.486607 0.502875 0.468551 0.433976 0.399363 0.364873 0.330731 0.297269 0.265001 0.234715 0.207604 0.185404 0.170364 0.164723 0.169603 0.184271 0.206703 0.234715 0.2666 0.301216 0.337886 0.376261 0.416254 0.458008 0.501976 0.54906 0.561273 0.522241 0.483271 0.444455 0.405911 0.367839 0.330584 0.294693 0.261025 0.230894 0.206216 0.189488 0.183197 0.188604 0.204906 0.229858 0.261023 0.296488 0.334965 0.375676 0.418212 0.462459 0.508572 0.557026 0.608678 0.617837 0.574139 0.530834 0.48789 0.445372 0.403466 0.362523 0.323125 0.286201 0.253176 0.226139 0.207814 0.200919 0.206836 0.224695 0.252041 0.2862 0.325063 0.367202 0.411747 0.458228 0.506507 0.556729 0.60937 0.665247 0.672172 0.623937 0.576408 0.529448 0.483073 0.437453 0.39295 0.350181 0.310139 0.274358 0.245087 0.225262 0.21781 0.22422 0.243554 0.273158 0.310138 0.352204 0.397796 0.445955 0.496155 0.548222 0.602287 0.658813 0.718597 0.723919 0.67134 0.619748 0.56892 0.518833 0.469646 0.421732 0.375744 0.332739 0.294351 0.26298 0.241757 0.233799 0.240684 0.261403 0.29312 0.332738 0.377799 0.426624 0.478165 0.531845 0.587447 0.64508 0.705183 0.768564 0.772767 0.716085 0.660626 0.606108 0.552479 0.499893 0.448738 0.399702 0.353902 0.313068 0.279743 0.257231 0.248818 0.256156 0.278165 0.31184 0.353902 0.401738 0.453562 0.508247 0.565157 0.624033 0.68495 0.748322 0.814972 0.818459 0.75794 0.69884 0.640834 0.583853 0.528056 0.473846 0.421948 0.373536 0.330431 0.295304 0.271618 0.262804 0.27057 0.293766 0.329237 0.373536 0.423919 0.478498 0.536074 0.595955 0.657836 0.721751 0.788074 0.857633 0.860778 0.796713 0.734215 0.67294 0.612816 0.55401 0.496946 0.442384 0.391555 0.346363 0.309595 0.284855 0.275695 0.283863 0.308141 0.345235 0.391555 0.444241 0.501318 0.56152 0.624105 0.688718 0.755341 0.824293 0.896367 0.899542 0.832236 0.7666 0.702289 0.639244 0.577645 0.51794 0.460923 0.40788 0.360793 0.322552 0.296881 0.287434 0.295979 0.321227 0.359764 0.407879 0.462613 0.521917 0.584469 0.649479 0.716543 0.785585 0.856845 0.931019 0.934574 0.864359 0.795859 0.728763 0.663033 0.598867 0.53674 0.477486 0.42244 0.373655 0.334113 0.307639 0.297962 0.306858 0.332966 0.372763 0.422439 0.478954 0.540199 0.604808 0.671951 0.741179 0.812352 0.885614 0.961493 0.965663 0.892908 0.821848 0.752243 0.684081 0.617589 0.553274 0.492008 0.435175 0.384892 0.34422 0.317069 0.307223 0.316445 0.343302 0.384177 0.435175 0.493194 0.556081 0.62244 0.691407 0.762501 0.835521 0.910505 0.987754 0.992526 0.917656 0.844395 0.772598 0.702289 0.633734 0.567479 0.504436 0.446038 0.394457 0.352824 0.325118 0.315158 0.324682 0.352181 0.393953 0.446037 0.505281 0.569504 0.637287 0.707751 0.780394 0.854976 0.931436 1.00982 1.01482 0.938331 0.863292 0.78967 0.717538 0.647216 0.579294 0.514728 0.454992 0.402313 0.359883 0.331737 0.321712 0.33151 0.359548 0.402049 0.45499 0.51519 0.580441 0.649315 0.720927 0.794777 0.870616 0.948329 1.02773 1.03223 0.954633 0.878285 0.803259 0.729683 0.657932 0.588651 0.52284 0.462014 0.408445 0.365376 0.336886 0.326831 0.33687 0.365349 0.408418 0.462012 0.522917 0.58891 0.658553 0.730963 0.80564 0.88239 0.961121 1.04148 1.04464 0.966294 0.889103 0.813142 0.738536 0.665743 0.595463 0.52873 0.467093 0.412859 0.369308 0.340559 0.33048 0.340706 0.369521 0.413019 0.467093 0.5285 0.595002 0.665145 0.738034 0.813177 0.890362 0.9698 1.05101 1.05199 0.973051 0.895602 0.819093 0.74388 0.67048 0.59962 0.53235 0.470233 0.415589 0.371724 0.342782 0.332653 0.34297 0.372001 0.415801 0.470232 0.532025 0.598914 0.669415 0.742594 0.817902 0.895113 0.974302 1.05612 1.05409 0.975392 0.897528 0.820739 0.745356 0.671855 0.600926 0.533594 0.471405 0.416667 0.372679 0.343593 0.333334 0.343593 0.372679 0.416667 0.471405 0.533594 0.600926 0.671855 0.745357 0.820739 0.897528 0.975392 1.05409 0 1.11759e-08 7.45058e-09 0 1.49012e-08 0 0 0 0 0 0 0 0 0 0 0 0 0 0 0 0 0 0 0 0 0.0686279 0.0626365 0.0567037 0.0512438 0.0459129 0.040755 0.0357797 0.031032 0.0265878 0.0225819 0.019248 0.0169527 0.0161249 0.0169691 0.0192651 0.0225826 0.0265579 0.0309688 0.0356998 0.0407076 0.045996 0.0516327 0.0577331 0.0648326 0.0753529 0.132966 0.122454 0.111969 0.101543 0.0913294 0.0813137 0.071564 0.0621747 0.0533134 0.045265 0.0385196 0.0338474 0.0321503 0.0338678 0.0385396 0.0452657 0.0532943 0.0621674 0.0716505 0.081653 0.0921929 0.103388 0.115523 0.129392 0.144931 0.195498 0.180898 0.166004 0.151066 0.136197 0.121518 0.107134 0.0932009 0.0799766 0.0679021 0.0577305 0.0506464 0.0480511 0.0506419 0.0577215 0.0679014 0.0800288 0.093401 0.107654 0.122644 0.138379 0.154999 0.172782 0.192028 0.21219 0.257201 0.238373 0.219138 0.19976 0.180394 0.161183 0.142281 0.123901 0.106393 0.0903476 0.0767787 0.067286 0.0637781 0.0672282 0.0767101 0.0903478 0.106579 0.124449 0.143459 0.163391 0.184219 0.206043 0.229034 0.253265 0.278485 0.318266 0.295069 0.271419 0.247614 0.22381 0.200157 0.176835 0.154106 0.132405 0.112467 0.0955604 0.0836904 0.0792703 0.0835558 0.0954064 0.112466 0.132764 0.15509 0.178798 0.20359 0.22938 0.256216 0.284211 0.313454 0.344127 0.378689 0.350941 0.322801 0.294556 0.266345 0.238313 0.210653 0.183669 0.157872 0.134136 0.113971 0.0997767 0.094459 0.0995553 0.113722 0.134135 0.158422 0.18512 0.21343 0.242966 0.273583 0.305293 0.338209 0.372526 0.408794 0.438326 0.405853 0.373163 0.34047 0.307882 0.275528 0.24361 0.212465 0.182674 0.155243 0.131912 0.115463 0.109274 0.115155 0.131569 0.155241 0.183411 0.214359 0.247145 0.281286 0.316593 0.35305 0.390799 0.430162 0.471906 0.496911 0.45959 0.422323 0.385201 0.348282 0.311675 0.275585 0.24038 0.206704 0.175689 0.149298 0.130674 0.123645 0.130285 0.148868 0.175688 0.207604 0.242659 0.279762 0.318352 0.358187 0.399248 0.441702 0.485969 0.532914 0.554093 0.51189 0.470066 0.428563 0.387384 0.346611 0.306451 0.267298 0.229859 0.195384 0.166046 0.145335 0.137508 0.14488 0.165546 0.195383 0.230892 0.269884 0.311131 0.353989 0.398175 0.443659 0.490638 0.53959 0.591397 0.609469 0.562455 0.516149 0.470354 0.425014 0.380187 0.336079 0.293108 0.252042 0.214242 0.182085 0.159385 0.150804 0.158878 0.181529 0.214242 0.253175 0.295919 0.341114 0.388041 0.436377 0.486078 0.537362 0.590733 0.647062 0.662652 0.610985 0.560323 0.510365 0.460997 0.412253 0.36434 0.317701 0.27316 0.232185 0.197344 0.172762 0.163473 0.172219 0.196751 0.232184 0.274357 0.320652 0.369585 0.420365 0.472629 0.52632 0.581655 0.639156 0.699681 0.713283 0.657183 0.602345 0.548389 0.495155 0.442659 0.391107 0.340969 0.293121 0.249136 0.211761 0.185409 0.175463 0.184847 0.211147 0.249135 0.29435 0.343981 0.396428 0.45083 0.506786 0.564216 0.623333 0.684658 0.749057 0.76106 0.700792 0.641996 0.584239 0.527328 0.471265 0.416262 0.362811 0.311842 0.265023 0.225273 0.197272 0.186722 0.196707 0.224657 0.265021 0.313069 0.365806 0.421529 0.479311 0.538707 0.599614 0.662226 0.727057 0.794998 0.805737 0.741587 0.679076 0.61774 0.557364 0.497942 0.439691 0.383129 0.329238 0.279778 0.237823 0.208301 0.197203 0.20775 0.237222 0.279776 0.330432 0.386035 0.444783 0.505687 0.568261 0.632369 0.698179 0.766185 0.837302 0.847099 0.779372 0.713414 0.648743 0.585132 0.522572 0.461291 0.401835 0.345234 0.293334 0.249355 0.218448 0.20686 0.217926 0.248787 0.293335 0.346364 0.404578 0.466086 0.529841 0.595317 0.662342 0.731045 0.801883 0.87577 0.884952 0.813975 0.744857 0.677114 0.610515 0.545054 0.480975 0.418852 0.359764 0.305635 0.259819 0.227667 0.21565 0.227194 0.259303 0.305636 0.360792 0.421349 0.485337 0.551658 0.619748 0.689394 0.760683 0.834004 0.910221 0.919091 0.845222 0.773257 0.702727 0.633403 0.56529 0.498657 0.434106 0.372763 0.316627 0.269168 0.235916 0.22353 0.235506 0.268721 0.316627 0.373655 0.436272 0.502443 0.571029 0.641429 0.713393 0.786952 0.862415 0.940519 0.949269 0.872915 0.798458 0.725453 0.653687 0.583192 0.514261 0.447533 0.384177 0.326259 0.277356 0.243149 0.230459 0.242821 0.276997 0.326259 0.384892 0.449275 0.517321 0.587854 0.660242 0.734205 0.809721 0.887003 0.966595 0.97519 0.896823 0.820276 0.745147 0.671255 0.598667 0.527714 0.459072 0.393956 0.334489 0.284341 0.249327 0.236393 0.249098 0.28409 0.334486 0.394455 0.460303 0.5299 0.602043 0.676081 0.751708 0.828863 0.907667 0.988437 0.996529 0.916678 0.838493 0.761631 0.68596 0.611601 0.538929 0.468661 0.40205 0.341276 0.29009 0.254414 0.241294 0.254296 0.28996 0.341275 0.402311 0.46932 0.540137 0.613541 0.688867 0.765802 0.844264 0.924319 1.00606 1.01303 0.93221 0.85286 0.77469 0.697631 0.621863 0.547811 0.476233 0.408419 0.346596 0.294579 0.25838 0.245124 0.258373 0.294571 0.346595 0.408444 0.47632 0.548035 0.622351 0.698596 0.776448 0.855853 0.936877 1.01948 1.02454 0.943139 0.863089 0.784077 0.706057 0.629285 0.554238 0.481709 0.413019 0.350429 0.2978 0.261215 0.247859 0.261294 0.297886 0.350427 0.412858 0.481344 0.553671 0.628586 0.705397 0.783781 0.863657 0.945312 1.02859 1.03069 0.949074 0.868942 0.789526 0.71099 0.633663 0.558061 0.484995 0.415802 0.35276 0.299762 0.262927 0.249491 0.263026 0.29987 0.352759 0.415588 0.484495 0.557239 0.632536 0.709661 0.788232 0.868144 0.949557 1.03317 1.03078 0.950146 0.870026 0.79057 0.712001 0.634648 0.559017 0.485913 0.416667 0.353554 0.300463 0.263524 0.250001 0.263524 0.300463 0.353554 0.416667 0.485913 0.559017 0.634648 0.712001 0.79057 0.870026 0.950147 1.03078 0 1.11759e-08 7.45058e-09 0 1.49012e-08 0 0 0 0 0 0 0 0 0 0 0 0 0 0 0 0 0 0 0 0 0.0698404 0.0626316 0.0562361 0.0504407 0.0448092 0.0393462 0.0340307 0.0288768 0.0239232 0.0192654 0.0151203 0.0119823 0.0107417 0.0119878 0.0151189 0.0192474 0.0238828 0.0288146 0.0339628 0.0393086 0.0448704 0.0507168 0.0569451 0.0641191 0.0743454 0.134362 0.122275 0.110744 0.0996049 0.0887844 0.0781774 0.0677844 0.0576348 0.0478199 0.0385395 0.030242 0.0239366 0.0214344 0.0239452 0.0302414 0.0385194 0.0477851 0.0576115 0.0678314 0.078406 0.0893785 0.100871 0.113168 0.126972 0.142386 0.196523 0.180144 0.163856 0.147846 0.132065 0.116514 0.101194 0.0861676 0.0715727 0.0577215 0.0452967 0.0358245 0.0320507 0.0358251 0.0452968 0.0577292 0.0716217 0.086323 0.101576 0.117314 0.133588 0.150555 0.168479 0.187673 0.207657 0.257578 0.236815 0.215942 0.195206 0.174646 0.154284 0.134156 0.114351 0.0950628 0.0767107 0.0602084 0.0475961 0.0425519 0.047578 0.0602072 0.0767783 0.0952753 0.114822 0.135066 0.155899 0.177355 0.199569 0.222716 0.246896 0.271737 0.317891 0.292597 0.267115 0.241719 0.216467 0.191395 0.166557 0.142069 0.118179 0.0954081 0.0748992 0.0591945 0.0528935 0.0591494 0.0748976 0.0955593 0.118611 0.142948 0.168114 0.193951 0.220461 0.247739 0.275914 0.305065 0.335143 0.377549 0.347523 0.317378 0.287337 0.25745 0.227748 0.198288 0.169212 0.140817 0.113724 0.0892948 0.0705635 0.0630294 0.0704874 0.0892932 0.11397 0.141493 0.170534 0.200527 0.231257 0.262694 0.294909 0.328034 0.362222 0.397779 0.436437 0.401489 0.36663 0.33196 0.297489 0.263228 0.229237 0.195674 0.162879 0.131571 0.103324 0.0816463 0.0729119 0.0815392 0.103321 0.13191 0.163795 0.19742 0.232118 0.267616 0.303854 0.340897 0.378905 0.418148 0.459207 0.494275 0.454298 0.414707 0.375441 0.336449 0.297713 0.25929 0.221349 0.184272 0.14887 0.11692 0.0923908 0.0824957 0.0922553 0.116919 0.149296 0.185403 0.223471 0.262725 0.302843 0.34374 0.385488 0.428282 0.472501 0.518906 0.550693 0.505681 0.461392 0.417595 0.374168 0.331064 0.288324 0.246133 0.204907 0.165546 0.130024 0.102748 0.0917385 0.102588 0.130024 0.166046 0.206216 0.248558 0.292199 0.33677 0.382163 0.428458 0.475892 0.524928 0.576408 0.605279 0.555339 0.506445 0.458222 0.41048 0.363134 0.316217 0.269921 0.224698 0.181532 0.142581 0.112674 0.100602 0.112495 0.142579 0.182084 0.226139 0.272569 0.320409 0.369241 0.418943 0.469598 0.521481 0.575107 0.63135 0.657643 0.602969 0.549618 0.497116 0.445207 0.393776 0.342843 0.292608 0.243557 0.196753 0.154534 0.122127 0.109047 0.121933 0.154532 0.197343 0.245087 0.295402 0.34723 0.400115 0.453915 0.508715 0.564813 0.622765 0.683447 0.70744 0.648285 0.590677 0.53408 0.478185 0.42285 0.368085 0.314096 0.261405 0.211149 0.165833 0.131063 0.117037 0.130864 0.165832 0.211759 0.262981 0.316957 0.372551 0.42926 0.486926 0.545631 0.605686 0.667667 0.732465 0.754383 0.69103 0.629404 0.568929 0.509258 0.450225 0.391831 0.334294 0.278167 0.224659 0.176434 0.139448 0.124541 0.139248 0.176432 0.225272 0.279744 0.337146 0.396265 0.456555 0.517838 0.580187 0.643914 0.709609 0.77819 0.798229 0.730982 0.665607 0.6015 0.538284 0.475776 0.413975 0.353111 0.293768 0.237223 0.186288 0.147248 0.131526 0.147051 0.186286 0.237822 0.295305 0.355884 0.418271 0.481883 0.546518 0.612235 0.679335 0.748406 0.820408 0.838763 0.767945 0.699113 0.631643 0.565133 0.499393 0.434423 0.370467 0.308142 0.248787 0.195352 0.154423 0.137959 0.154237 0.195352 0.249355 0.309596 0.373087 0.438471 0.505131 0.57284 0.641634 0.711792 0.783886 0.858903 0.875772 0.801734 0.729768 0.659224 0.589692 0.520977 0.453088 0.386289 0.321227 0.259302 0.203588 0.160945 0.143813 0.160777 0.203589 0.25982 0.322552 0.388674 0.456772 0.52619 0.596678 0.668244 0.741138 0.815886 0.893469 0.909026 0.832162 0.757413 0.684112 0.611845 0.540428 0.469887 0.400507 0.332967 0.268722 0.210958 0.166782 0.149059 0.166636 0.210958 0.269169 0.334113 0.402572 0.47308 0.544951 0.617907 0.691929 0.767224 0.844255 0.923932 0.938264 0.859029 0.781886 0.706167 0.631475 0.557647 0.484737 0.413051 0.343303 0.276999 0.217425 0.171903 0.15367 0.171785 0.217423 0.277355 0.344219 0.414707 0.487307 0.561306 0.636401 0.712548 0.789905 0.868857 0.950172 0.963199 0.882103 0.802995 0.72523 0.648449 0.572527 0.497548 0.423852 0.352183 0.284092 0.222956 0.17628 0.157616 0.176198 0.222954 0.284339 0.352822 0.425016 0.499372 0.575155 0.652043 0.729965 0.809041 0.889571 0.972134 0.983573 0.901148 0.82053 0.74112 0.662615 0.584942 0.508225 0.432836 0.35955 0.289962 0.227521 0.179889 0.160874 0.179846 0.227519 0.290088 0.359881 0.43345 0.509213 0.58642 0.664731 0.74406 0.824499 0.90629 0.989814 0.999196 0.915928 0.834252 0.753616 0.673787 0.594742 0.51665 0.439918 0.365348 0.294571 0.231095 0.182707 0.163421 0.182704 0.231094 0.294578 0.365374 0.439985 0.516805 0.595066 0.674418 0.754755 0.836179 0.918912 1.0032 1.00988 0.926171 0.843891 0.762496 0.681773 0.60177 0.522705 0.445012 0.369521 0.297886 0.233661 0.184725 0.165242 0.184753 0.233661 0.297799 0.369307 0.444647 0.522191 0.601155 0.681166 0.762111 0.844053 0.927361 1.01219 1.01515 0.931457 0.849216 0.767526 0.68636 0.605847 0.526246 0.448015 0.372 0.29987 0.235206 0.185938 0.166329 0.185973 0.235205 0.29976 0.371722 0.447528 0.525527 0.604908 0.685269 0.766438 0.848444 0.931526 1.01646 1.01379 0.931695 0.849837 0.768296 0.687184 0.606676 0.527047 0.448764 0.372678 0.300463 0.235703 0.18634 0.166667 0.18634 0.235703 0.300463 0.372678 0.448764 0.527047 0.606676 0.687185 0.768296 0.849837 0.931695 1.01379 0 1.11759e-08 7.45058e-09 0 1.49012e-08 0 0 0 0 0 0 0 0 0 0 0 0 0 0 0 0 0 0 0 0 0.0710577 0.0628024 0.0560446 0.0499958 0.044151 0.0384786 0.0329331 0.0274977 0.0221688 0.0169692 0.0119896 0.00759175 0.00538748 0.00759183 0.0119826 0.0169529 0.0221413 0.0274601 0.0328946 0.0384593 0.0441845 0.0501408 0.0564075 0.0635539 0.0733155 0.136049 0.122661 0.11026 0.0985587 0.0872855 0.0762568 0.0654147 0.0547247 0.0441916 0.0338683 0.0239461 0.0151642 0.0107529 0.0151639 0.0239362 0.0338471 0.0441642 0.0547052 0.0654333 0.0763713 0.0875878 0.099202 0.111488 0.12503 0.140077 0.198269 0.180451 0.163017 0.14615 0.129674 0.113482 0.0974932 0.0816705 0.0660227 0.0506418 0.0358257 0.0226885 0.0160778 0.0226873 0.0358242 0.0506447 0.0660485 0.0817518 0.0976919 0.113896 0.130454 0.147528 0.165357 0.184246 0.203838 0.259199 0.236874 0.214671 0.192854 0.171374 0.150156 0.129132 0.108271 0.0875938 0.0672289 0.0475788 0.0301314 0.0213394 0.0301305 0.0475943 0.0672853 0.0877281 0.108538 0.129624 0.151004 0.172775 0.195084 0.218107 0.241958 0.266263 0.319338 0.29233 0.265367 0.238712 0.212345 0.186211 0.160252 0.134444 0.108824 0.0835578 0.0591509 0.0374585 0.0265141 0.037457 0.0591934 0.08369 0.109107 0.134956 0.161107 0.18757 0.214426 0.241804 0.269844 0.298623 0.327957 0.378828 0.346901 0.315136 0.283682 0.252508 0.22155 0.190751 0.160093 0.129629 0.0995578 0.070489 0.0446349 0.0315788 0.0446332 0.0705618 0.0997763 0.130076 0.160872 0.191995 0.223432 0.255258 0.287592 0.320577 0.354339 0.388977 0.437538 0.4005 0.363886 0.327666 0.291752 0.256058 0.220518 0.185117 0.149918 0.115157 0.0815409 0.0516289 0.0365126 0.0516273 0.0816444 0.115461 0.150528 0.186154 0.22213 0.258425 0.295108 0.332301 0.37018 0.408962 0.449029 0.495154 0.452921 0.411451 0.370509 0.329933 0.289601 0.249433 0.209409 0.169605 0.130286 0.0922564 0.0584072 0.0412939 0.0584069 0.0923895 0.130671 0.170364 0.210678 0.251366 0.292384 0.333795 0.375742 0.418439 0.462208 0.507653 0.551265 0.503881 0.457605 0.412022 0.366888 0.32204 0.277375 0.232869 0.188606 0.144882 0.10259 0.0649441 0.0459059 0.0649428 0.102748 0.145335 0.189487 0.234325 0.279564 0.325148 0.371141 0.417703 0.465098 0.513743 0.564381 0.605453 0.553073 0.502106 0.452005 0.402448 0.353228 0.30422 0.255393 0.206838 0.15888 0.112497 0.0712107 0.0503294 0.0712087 0.112673 0.159385 0.207814 0.256989 0.306597 0.356567 0.406966 0.457975 0.509903 0.563241 0.618803 0.657333 0.600189 0.544706 0.490254 0.436442 0.383021 0.329848 0.276884 0.224224 0.172223 0.121936 0.0771803 0.0545454 0.077179 0.122125 0.172761 0.225261 0.278571 0.332342 0.386496 0.441102 0.496358 0.552609 0.610404 0.670587 0.706576 0.644948 0.585174 0.526574 0.468705 0.411283 0.354146 0.297246 0.240687 0.18485 0.130867 0.0828294 0.0585385 0.0828276 0.131062 0.185408 0.241757 0.298977 0.356689 0.414806 0.473395 0.532668 0.592998 0.654974 0.719461 0.75291 0.6871 0.623297 0.560789 0.499091 0.437889 0.377006 0.316393 0.256159 0.19671 0.139251 0.088133 0.0622907 0.0881305 0.139448 0.197271 0.257231 0.318121 0.379536 0.441374 0.503703 0.56674 0.630876 0.696728 0.76519 0.796097 0.726427 0.658888 0.592738 0.527461 0.46272 0.39833 0.334241 0.270571 0.207751 0.147052 0.0930677 0.065785 0.0930668 0.147247 0.208301 0.271618 0.335923 0.400784 0.466086 0.531893 0.598422 0.666067 0.735464 0.807551 0.835918 0.76273 0.691775 0.622277 0.553688 0.485668 0.418026 0.350714 0.283864 0.217928 0.154239 0.0976137 0.069006 0.0976118 0.154423 0.218448 0.284854 0.352303 0.420339 0.488834 0.557841 0.62757 0.69841 0.770997 0.846317 0.872145 0.795822 0.721803 0.649266 0.577658 0.506633 0.436007 0.365741 0.295978 0.227194 0.160777 0.101746 0.0719356 0.101746 0.160945 0.227668 0.296881 0.367188 0.438111 0.509509 0.581422 0.654045 0.727749 0.80315 0.881265 0.904533 0.825511 0.748808 0.673571 0.59925 0.525513 0.452188 0.379252 0.306859 0.235508 0.166637 0.105448 0.0745595 0.105447 0.166782 0.235916 0.307638 0.380502 0.45401 0.528003 0.60251 0.677705 0.753929 0.831754 0.91218 0.932831 0.8516 0.772623 0.695042 0.618336 0.542198 0.466479 0.391171 0.316446 0.242823 0.171788 0.108697 0.0768638 0.108695 0.171902 0.243149 0.317069 0.392172 0.467942 0.544207 0.620978 0.698406 0.776793 0.856649 0.938892 0.956798 0.873882 0.793062 0.713517 0.634778 0.556573 0.478784 0.401424 0.324684 0.249101 0.1762 0.111476 0.078832 0.111475 0.176279 0.249326 0.325117 0.402125 0.479818 0.55801 0.636694 0.715997 0.796183 0.877688 0.961291 0.976254 0.892158 0.809929 0.72882 0.648421 0.56851 0.489 0.409931 0.331512 0.254297 0.179847 0.113769 0.0804547 0.113767 0.179886 0.254411 0.331734 0.410298 0.489554 0.569308 0.649533 0.730337 0.811948 0.89474 0.979331 0.99107 0.906227 0.823012 0.74075 0.659095 0.577867 0.497017 0.416609 0.33687 0.258374 0.182705 0.115561 0.081722 0.11556 0.182706 0.258378 0.336885 0.416644 0.497094 0.578026 0.659402 0.741304 0.823948 0.907674 0.992975 1.00107 0.915848 0.832081 0.74913 0.666649 0.58452 0.502735 0.421382 0.340706 0.261294 0.184753 0.116845 0.0826267 0.116844 0.184724 0.261215 0.340559 0.421155 0.50243 0.584161 0.666288 0.748874 0.832088 0.916356 1.00208 1.00572 0.920642 0.836993 0.753829 0.670968 0.58837 0.506069 0.424184 0.34297 0.263026 0.185973 0.117611 0.0831671 0.117611 0.185937 0.262925 0.34278 0.423885 0.505651 0.587837 0.670354 0.753211 0.836528 0.920593 1.00627 1.00347 0.920447 0.83749 0.754616 0.671855 0.589256 0.506897 0.424918 0.343592 0.263523 0.186339 0.117852 0.0833341 0.117852 0.186339 0.263523 0.343592 0.424919 0.506897 0.589256 0.671855 0.754616 0.83749 0.920447 1.00347 0 1.11759e-08 7.45058e-09 0 1.49012e-08 0 0 0 0 0 0 0 0 0 0 0 0 0 0 0 0 0 0 0 0 0.0722244 0.0631159 0.056107 0.0498997 0.043943 0.0381791 0.0325461 0.0270089 0.0215421 0.0161251 0.0107433 0.00538672 0.000539791 0.00538676 0.010742 0.0161254 0.0215422 0.0270091 0.0325463 0.0381806 0.0439439 0.0498996 0.0561066 0.0631151 0.0722228 0.137967 0.123587 0.110513 0.0984247 0.0868812 0.0756427 0.0646093 0.0537099 0.0429018 0.0321512 0.0214355 0.0107532 0.00105708 0.0107528 0.0214343 0.0321502 0.0429025 0.053712 0.0646101 0.0756442 0.0868824 0.0984241 0.110511 0.123585 0.137965 0.200712 0.181825 0.163521 0.146041 0.129127 0.11259 0.0962931 0.0801414 0.064073 0.0480508 0.0320513 0.0160793 0.00150116 0.0160779 0.032051 0.0480499 0.0640736 0.080141 0.0962933 0.112592 0.129128 0.146041 0.163518 0.181822 0.200711 0.262087 0.238593 0.215394 0.19281 0.17074 0.149041 0.127582 0.106261 0.0850074 0.0637786 0.0425531 0.0213402 0.00183556 0.0213398 0.0425511 0.0637781 0.0850078 0.10626 0.127581 0.149042 0.170741 0.192809 0.215392 0.238592 0.262084 0.322682 0.294342 0.266281 0.238741 0.211657 0.184915 0.158393 0.131989 0.105629 0.0792724 0.0528945 0.0265156 0.00203554 0.0265143 0.0528941 0.0792712 0.10563 0.131988 0.158392 0.184915 0.211656 0.238738 0.266278 0.29434 0.322678 0.38263 0.349179 0.316212 0.283773 0.251776 0.220096 0.188611 0.15722 0.125852 0.0944619 0.0630312 0.0315809 0.00208955 0.031578 0.0630283 0.0944596 0.12585 0.157219 0.188609 0.220094 0.251774 0.283771 0.31621 0.349177 0.382629 0.441742 0.403004 0.365085 0.327792 0.290962 0.254444 0.218106 0.181844 0.145581 0.109276 0.0729134 0.0365139 0.00199842 0.0365124 0.0729108 0.109272 0.145578 0.181841 0.218104 0.254443 0.290961 0.32779 0.365086 0.403004 0.441742 0.499639 0.455582 0.412719 0.370628 0.329059 0.287816 0.246749 0.205746 0.164727 0.123647 0.0824975 0.0412961 0.00177392 0.0412943 0.0824948 0.123644 0.164723 0.205744 0.246748 0.287815 0.329057 0.370627 0.412719 0.455583 0.49964 0.555875 0.506607 0.458875 0.412086 0.365895 0.320064 0.274413 0.228819 0.183201 0.137512 0.0917426 0.0459084 0.00143579 0.0459054 0.0917388 0.137508 0.183197 0.228817 0.274412 0.320062 0.365894 0.412084 0.458874 0.506607 0.555877 0.610026 0.555758 0.503302 0.451957 0.401298 0.351036 0.300969 0.250961 0.200922 0.150807 0.100605 0.0503317 0.00100863 0.0503281 0.100602 0.150804 0.20092 0.250958 0.300968 0.351035 0.401297 0.451956 0.5033 0.555758 0.610028 0.661726 0.602728 0.545752 0.49004 0.435097 0.380593 0.326301 0.272073 0.217814 0.163477 0.10905 0.0545486 0.000520562 0.0545456 0.109046 0.163473 0.21781 0.272071 0.3263 0.380591 0.435095 0.490038 0.545752 0.602729 0.661727 0.710671 0.647246 0.586002 0.526145 0.467134 0.4086 0.350297 0.292063 0.233804 0.175467 0.117042 0.0585426 2.63898e-06 0.0585391 0.117038 0.175463 0.2338 0.292061 0.350294 0.408597 0.467132 0.526143 0.586 0.647246 0.710671 0.756606 0.689071 0.623844 0.560103 0.497264 0.434934 0.372852 0.310848 0.248822 0.186726 0.124544 0.062294 0.000517135 0.0622906 0.124542 0.186722 0.248819 0.310844 0.372849 0.434931 0.497261 0.5601 0.623842 0.689069 0.756604 0.799296 0.727988 0.659094 0.591752 0.525352 0.45948 0.393868 0.328344 0.262807 0.197205 0.131528 0.0657888 0.00100518 0.0657861 0.131526 0.197203 0.262804 0.328341 0.393865 0.459477 0.525349 0.591751 0.659092 0.727988 0.799296 0.838519 0.763807 0.691588 0.620954 0.551273 0.482131 0.413257 0.344478 0.275697 0.206862 0.137961 0.0690087 0.00143254 0.0690066 0.13796 0.206861 0.275695 0.344476 0.413254 0.482129 0.551271 0.620952 0.691587 0.763807 0.83852 0.874042 0.796341 0.721167 0.647566 0.574907 0.502784 0.430929 0.359178 0.287435 0.215652 0.143816 0.0719388 0.00177091 0.0719366 0.143814 0.21565 0.287433 0.359176 0.430927 0.502781 0.574905 0.647565 0.721166 0.79634 0.874043 0.905627 0.825404 0.747671 0.671448 0.596131 0.52133 0.446795 0.372369 0.297963 0.223531 0.149061 0.0745616 0.00199586 0.0745594 0.149059 0.22353 0.297962 0.372368 0.446793 0.521328 0.59613 0.671447 0.747669 0.825404 0.905628 0.933055 0.850816 0.770932 0.692453 0.614816 0.537662 0.460764 0.383979 0.307225 0.23046 0.153671 0.0768653 0.00208771 0.0768622 0.153668 0.230458 0.307223 0.383977 0.460762 0.53766 0.614813 0.69245 0.77093 0.850816 0.933054 0.956147 0.8724 0.790779 0.710418 0.630818 0.551659 0.472738 0.393929 0.31516 0.236395 0.157617 0.0788337 0.00203437 0.078831 0.157614 0.236392 0.315158 0.393927 0.472736 0.551658 0.630817 0.710417 0.790778 0.872399 0.956148 0.974802 0.889992 0.807036 0.725183 0.643998 0.563203 0.482619 0.402142 0.321711 0.241293 0.160874 0.080455 0.00183523 0.0804532 0.160872 0.241291 0.32171 0.402141 0.482618 0.563201 0.643997 0.725182 0.807035 0.889991 0.974801 0.98894 0.903427 0.819524 0.736583 0.654218 0.572178 0.49032 0.408554 0.326831 0.245124 0.163422 0.081722 0.0015015 0.0817211 0.16342 0.245123 0.32683 0.408553 0.490319 0.572178 0.654218 0.736583 0.819524 0.903427 0.98894 0.998397 0.912515 0.828079 0.74451 0.661389 0.578518 0.495782 0.413115 0.330481 0.24786 0.165243 0.0826282 0.00105745 0.0826253 0.165241 0.247859 0.33048 0.413114 0.495781 0.578517 0.661388 0.74451 0.828079 0.912515 0.998397 1.00271 0.916962 0.832696 0.748976 0.665531 0.58223 0.499006 0.41582 0.332653 0.249491 0.166329 0.0831665 0.000540018 0.0831657 0.166328 0.249489 0.332651 0.415819 0.499004 0.582229 0.665531 0.748975 0.832696 0.916962 1.00271 1 0.916667 0.833333 0.75 0.666667 0.583333 0.5 0.416667 0.333333 0.25 0.166667 0.0833333 7.15256e-07 0.0833334 0.166667 0.25 0.333333 0.416667 0.5 0.583333 0.666667 0.75 0.833333 0.916667 1 0 1.11759e-08 7.45058e-09 0 1.49012e-08 0 0 0 0 0 0 0 0 0 0 0 0 0 0 0 0 0 0 0 0 0.0733169 0.0635546 0.056408 0.0501411 0.0441845 0.0384582 0.0328948 0.0274605 0.0221411 0.0169534 0.0119838 0.00759155 0.005387 0.00759129 0.0119882 0.0169691 0.0221692 0.027498 0.0329339 0.0384802 0.044152 0.049996 0.0560441 0.0628009 0.0710562 0.14008 0.125032 0.11149 0.0992026 0.0875872 0.0763704 0.0654318 0.054704 0.0441641 0.0338484 0.0239376 0.0151646 0.0107535 0.0151641 0.0239453 0.0338674 0.0441928 0.0547268 0.0654158 0.0762586 0.0872862 0.0985573 0.110258 0.122658 0.136046 0.20384 0.184249 0.16536 0.147529 0.130453 0.113895 0.0976914 0.0817526 0.0660483 0.0506463 0.0358253 0.0226893 0.0160789 0.0226888 0.0358259 0.050641 0.0660238 0.0816702 0.0974941 0.113484 0.129674 0.146149 0.163015 0.180448 0.198268 0.266265 0.24196 0.218109 0.195085 0.172775 0.151005 0.129624 0.108539 0.0877281 0.0672868 0.0475971 0.0301317 0.0213403 0.0301315 0.047578 0.0672287 0.0875952 0.108271 0.129133 0.150156 0.171374 0.192853 0.214668 0.236873 0.259195 0.327959 0.298626 0.269848 0.241807 0.214428 0.187571 0.161109 0.134957 0.109106 0.0836926 0.0591955 0.0374587 0.0265135 0.0374571 0.0591501 0.0835566 0.108825 0.134444 0.160251 0.18621 0.212344 0.238709 0.265365 0.292327 0.319336 0.388979 0.354341 0.32058 0.287594 0.255261 0.223434 0.191996 0.160873 0.130077 0.099779 0.0705651 0.0446361 0.0315796 0.0446344 0.0704877 0.0995567 0.129628 0.160093 0.190751 0.22155 0.252507 0.283681 0.315134 0.346899 0.378829 0.449029 0.408962 0.370181 0.332303 0.295109 0.258427 0.222131 0.186157 0.150531 0.115465 0.0816478 0.0516289 0.0365135 0.0516286 0.0815396 0.115154 0.149916 0.185116 0.220517 0.256057 0.291752 0.327665 0.363887 0.400501 0.437539 0.507652 0.462207 0.418439 0.375743 0.333797 0.292385 0.251367 0.210681 0.170368 0.130675 0.0923923 0.058409 0.0412947 0.058407 0.092255 0.130284 0.169603 0.209409 0.249433 0.289601 0.329931 0.370508 0.411452 0.452922 0.495155 0.564379 0.513743 0.4651 0.417705 0.371143 0.325151 0.279567 0.234328 0.189491 0.145339 0.102752 0.0649458 0.0459076 0.064944 0.102589 0.144881 0.188603 0.232869 0.277375 0.322039 0.366888 0.412021 0.457605 0.503882 0.551268 0.618802 0.563241 0.509905 0.457977 0.406968 0.356568 0.306599 0.256992 0.207817 0.159389 0.112678 0.071213 0.0503299 0.0712096 0.112496 0.158879 0.206837 0.255393 0.304219 0.353227 0.402447 0.452004 0.502105 0.553074 0.605455 0.670587 0.610404 0.552611 0.496361 0.441105 0.386499 0.332345 0.278574 0.225266 0.172767 0.12213 0.0771826 0.0545478 0.0771799 0.121934 0.17222 0.224221 0.276883 0.329848 0.38302 0.43644 0.490252 0.544706 0.60019 0.657334 0.719462 0.654976 0.593001 0.532672 0.473399 0.414809 0.356694 0.298981 0.241762 0.185414 0.131068 0.082833 0.0585411 0.0828291 0.130865 0.184848 0.240686 0.297245 0.354145 0.411283 0.468705 0.526573 0.585173 0.644949 0.706577 0.765194 0.696732 0.63088 0.566744 0.503706 0.441378 0.379541 0.318126 0.257236 0.197276 0.139452 0.0881354 0.0622946 0.0881335 0.13925 0.196708 0.256157 0.31639 0.377005 0.437888 0.49909 0.560788 0.623297 0.687101 0.752911 0.807552 0.735465 0.666069 0.598424 0.531897 0.466089 0.400787 0.335926 0.271622 0.208304 0.147251 0.0930713 0.065789 0.0930689 0.147052 0.207751 0.27057 0.334239 0.398328 0.462719 0.52746 0.592738 0.658887 0.726428 0.796099 0.846318 0.770999 0.698412 0.627572 0.557843 0.488837 0.420343 0.352306 0.284858 0.218452 0.154426 0.097616 0.0690093 0.0976138 0.154239 0.217928 0.283864 0.350713 0.418025 0.485668 0.553688 0.622276 0.691775 0.76273 0.835918 0.881265 0.803151 0.72775 0.654046 0.581424 0.509512 0.438115 0.367191 0.296884 0.22767 0.160948 0.101749 0.0719386 0.101747 0.160777 0.227194 0.295978 0.365741 0.436006 0.506632 0.577657 0.649266 0.721802 0.795822 0.872144 0.912179 0.831755 0.75393 0.677707 0.602512 0.528006 0.454013 0.380505 0.30764 0.235917 0.166783 0.105449 0.0745622 0.105448 0.166636 0.235506 0.306858 0.37925 0.452186 0.52551 0.599248 0.67357 0.748807 0.825512 0.904534 0.938892 0.85665 0.776795 0.698409 0.620982 0.544211 0.467945 0.392175 0.317071 0.243151 0.171904 0.108699 0.0768636 0.108695 0.171785 0.242821 0.316444 0.391169 0.466477 0.542196 0.618335 0.695041 0.772622 0.8516 0.932832 0.961291 0.87769 0.796185 0.715999 0.636697 0.558012 0.479821 0.402128 0.325119 0.249328 0.17628 0.111476 0.0788319 0.111474 0.176198 0.249098 0.324681 0.401422 0.478783 0.556572 0.634777 0.713517 0.793061 0.873882 0.956798 0.979331 0.894742 0.811949 0.730338 0.649534 0.569308 0.489555 0.410298 0.331734 0.254412 0.179888 0.113767 0.0804546 0.113767 0.179846 0.254295 0.33151 0.40993 0.488999 0.568508 0.648419 0.728818 0.809928 0.892157 0.976253 0.992976 0.907675 0.823949 0.741305 0.659403 0.578027 0.497095 0.416645 0.336885 0.258379 0.182706 0.115561 0.0817216 0.115561 0.182704 0.258373 0.33687 0.416608 0.497016 0.577867 0.659095 0.74075 0.823011 0.906227 0.99107 1.00208 0.916357 0.832089 0.748874 0.666289 0.584161 0.50243 0.421155 0.340558 0.261214 0.184724 0.116843 0.0826265 0.116844 0.184752 0.261294 0.340706 0.421382 0.502734 0.58452 0.666648 0.749129 0.83208 0.915847 1.00106 1.00627 0.920592 0.836528 0.753211 0.670355 0.587838 0.505652 0.423885 0.34278 0.262926 0.185937 0.117611 0.0831656 0.117611 0.185973 0.263026 0.342971 0.424184 0.506069 0.588369 0.670968 0.753828 0.836993 0.920642 1.00572 1.00347 0.920447 0.83749 0.754615 0.671855 0.589256 0.506897 0.424918 0.343592 0.263523 0.186339 0.117851 0.0833327 0.117851 0.186339 0.263523 0.343592 0.424918 0.506897 0.589256 0.671855 0.754615 0.83749 0.920447 1.00347 0 1.11759e-08 7.45058e-09 0 1.49012e-08 0 0 0 0 0 0 0 0 0 0 0 0 0 0 0 0 0 0 0 0 0.0743455 0.0641192 0.0569464 0.0507179 0.0448704 0.039308 0.0339638 0.0288152 0.023883 0.0192482 0.0151208 0.0119883 0.010742 0.0119822 0.0151193 0.0192652 0.0239238 0.0288775 0.0340316 0.0393476 0.0448106 0.0504406 0.0562353 0.0626299 0.0698382 0.142387 0.126974 0.11317 0.100872 0.089379 0.0784057 0.0678302 0.0576107 0.0477852 0.0385208 0.0302426 0.0239456 0.021435 0.0239369 0.0302416 0.0385389 0.0478211 0.0576373 0.0677861 0.0781798 0.088786 0.0996039 0.110743 0.122273 0.13436 0.20766 0.187677 0.168482 0.150557 0.133589 0.117314 0.101576 0.0863235 0.0716217 0.0577309 0.0452977 0.0358265 0.0320513 0.035825 0.0452968 0.0577205 0.0715736 0.0861679 0.101196 0.116516 0.132067 0.147847 0.163855 0.180142 0.196523 0.27174 0.2469 0.22272 0.199571 0.177356 0.1559 0.135067 0.114823 0.0952756 0.0767801 0.0602096 0.0475794 0.0425522 0.0475958 0.0602076 0.0767104 0.0950638 0.114352 0.134157 0.154285 0.174647 0.195206 0.215941 0.236814 0.257577 0.335147 0.30507 0.275917 0.247741 0.220463 0.193953 0.168116 0.14295 0.118611 0.0955625 0.0749005 0.0591516 0.0528938 0.0591942 0.0748988 0.0954073 0.118179 0.14207 0.166558 0.191396 0.216467 0.241718 0.267114 0.292596 0.317891 0.397782 0.362226 0.328037 0.294912 0.262697 0.231259 0.200528 0.170535 0.141494 0.113972 0.0892965 0.0704902 0.0630307 0.0705636 0.0892938 0.113723 0.140816 0.169212 0.198288 0.227747 0.25745 0.287337 0.317377 0.347522 0.37755 0.459209 0.418148 0.378907 0.340899 0.303856 0.267618 0.232121 0.197424 0.163797 0.131914 0.103325 0.0815409 0.0729124 0.0816466 0.103323 0.131569 0.162878 0.195674 0.229237 0.263229 0.29749 0.331961 0.366631 0.40149 0.436437 0.518906 0.472502 0.428284 0.385488 0.343743 0.302845 0.262727 0.223475 0.185408 0.149301 0.116921 0.0922578 0.082497 0.0923913 0.11692 0.148869 0.184271 0.22135 0.25929 0.297714 0.336448 0.375442 0.414709 0.454299 0.494276 0.576408 0.524929 0.475895 0.428461 0.382166 0.336773 0.292203 0.248562 0.20622 0.16605 0.130027 0.102591 0.0917408 0.102749 0.130025 0.165546 0.204906 0.246132 0.288324 0.331063 0.374168 0.417594 0.461392 0.505682 0.550695 0.63135 0.57511 0.521484 0.469602 0.418946 0.369245 0.320413 0.272573 0.226143 0.182089 0.142584 0.112499 0.100603 0.112675 0.14258 0.18153 0.224697 0.269919 0.316216 0.363133 0.410478 0.458221 0.506444 0.555341 0.60528 0.683449 0.622767 0.564817 0.508719 0.453919 0.40012 0.347234 0.295405 0.245092 0.19735 0.154537 0.121938 0.109049 0.122127 0.154534 0.196753 0.243557 0.292608 0.342843 0.393776 0.445207 0.497116 0.549619 0.602972 0.657646 0.732466 0.66767 0.605688 0.545635 0.48693 0.429265 0.372556 0.316961 0.262985 0.211767 0.165838 0.130869 0.117041 0.131065 0.165834 0.211149 0.261406 0.314097 0.368086 0.42285 0.478186 0.53408 0.590678 0.648287 0.707443 0.778193 0.709613 0.643919 0.580192 0.517841 0.45656 0.396269 0.337152 0.279748 0.225277 0.176437 0.139252 0.124545 0.139451 0.176434 0.224658 0.278166 0.334293 0.391831 0.450225 0.509259 0.568929 0.629405 0.691032 0.754386 0.820409 0.748409 0.679338 0.612238 0.546522 0.481887 0.418275 0.355888 0.295309 0.237826 0.186291 0.147055 0.131529 0.147249 0.186288 0.237223 0.293768 0.35311 0.413975 0.475775 0.538284 0.601499 0.665608 0.730984 0.79823 0.858903 0.783888 0.711795 0.641636 0.572842 0.505135 0.438474 0.37309 0.309599 0.24936 0.195357 0.154241 0.137962 0.154425 0.195353 0.248787 0.308142 0.370467 0.434423 0.499393 0.565134 0.631642 0.699113 0.767945 0.838763 0.893469 0.815887 0.74114 0.668247 0.596681 0.526194 0.456775 0.388677 0.322555 0.259823 0.203591 0.160779 0.143816 0.160947 0.203589 0.259303 0.321228 0.386289 0.453089 0.520976 0.589692 0.659223 0.729766 0.801733 0.875771 0.923931 0.844256 0.767226 0.691931 0.617908 0.544953 0.473083 0.402575 0.334115 0.269171 0.21096 0.166638 0.149062 0.166783 0.210958 0.268721 0.332966 0.400506 0.469886 0.540427 0.611845 0.684111 0.757413 0.832163 0.909027 0.950172 0.868858 0.789908 0.71255 0.636404 0.561308 0.48731 0.414711 0.344222 0.277358 0.217426 0.171789 0.15367 0.171903 0.217425 0.276998 0.343302 0.41305 0.484735 0.557647 0.631474 0.706166 0.781885 0.859029 0.938264 0.972135 0.889573 0.809043 0.729966 0.652045 0.575157 0.499375 0.425019 0.352824 0.28434 0.222955 0.176199 0.157616 0.17628 0.222955 0.284091 0.352181 0.423851 0.497547 0.572526 0.648449 0.72523 0.802994 0.882102 0.963199 0.989816 0.906291 0.8245 0.744061 0.664732 0.586421 0.509215 0.433451 0.359882 0.290089 0.22752 0.179846 0.160874 0.179887 0.22752 0.289961 0.359549 0.432834 0.508223 0.58494 0.662614 0.741118 0.820529 0.901147 0.983572 1.0032 0.918914 0.83618 0.754756 0.674418 0.595067 0.516806 0.439985 0.365374 0.294577 0.231095 0.182705 0.163421 0.182707 0.231095 0.294571 0.365349 0.439918 0.51665 0.594742 0.673788 0.753617 0.834253 0.915928 0.999196 1.01219 0.927361 0.844053 0.762111 0.681166 0.601155 0.522191 0.444646 0.369306 0.297799 0.23366 0.184752 0.165242 0.184724 0.233659 0.297884 0.36952 0.445011 0.522704 0.60177 0.681772 0.762494 0.843889 0.92617 1.00988 1.01647 0.931526 0.848445 0.766439 0.68527 0.604909 0.525527 0.447527 0.371722 0.29976 0.235204 0.185973 0.166328 0.185937 0.235204 0.299869 0.371999 0.448015 0.526245 0.605847 0.686359 0.767524 0.849214 0.931456 1.01514 1.01379 0.931695 0.849837 0.768295 0.687184 0.606676 0.527046 0.448764 0.372678 0.300462 0.235702 0.186338 0.166666 0.186338 0.235702 0.300462 0.372678 0.448764 0.527046 0.606676 0.687184 0.768295 0.849837 0.931695 1.01379 0 1.11759e-08 7.45058e-09 0 1.49012e-08 0 0 0 0 0 0 0 0 0 0 0 0 0 0 0 0 0 0 0 0 0.0753539 0.0648325 0.0577343 0.0516336 0.0459959 0.0407066 0.0357006 0.0309687 0.0265575 0.0225824 0.0192657 0.0169685 0.0161243 0.0169519 0.019247 0.0225815 0.0265884 0.0310329 0.0357803 0.0407567 0.0459147 0.0512444 0.0567032 0.0626343 0.0686253 0.144935 0.129393 0.115524 0.103389 0.0921942 0.0816537 0.0716503 0.0621674 0.0532939 0.0452662 0.0385402 0.0338678 0.0321508 0.033847 0.0385187 0.0452641 0.0533143 0.0621762 0.0715657 0.0813163 0.0913312 0.101542 0.111968 0.122452 0.132965 0.212195 0.19203 0.172785 0.155001 0.13838 0.122645 0.107655 0.0934017 0.0800293 0.0679024 0.0577228 0.0506435 0.0480519 0.0506468 0.0577307 0.067902 0.0799777 0.0932015 0.107136 0.121521 0.136199 0.151068 0.166004 0.180897 0.195499 0.27849 0.25327 0.229037 0.206045 0.18422 0.163394 0.143461 0.124451 0.10658 0.0903494 0.0767114 0.0672296 0.0637799 0.0672874 0.0767793 0.0903484 0.106394 0.123902 0.142281 0.161184 0.180395 0.199759 0.219137 0.238374 0.257201 0.344132 0.313459 0.284214 0.256219 0.229383 0.203593 0.178802 0.155093 0.132765 0.112469 0.0954097 0.0835585 0.0792714 0.0836911 0.0955604 0.112467 0.132404 0.154107 0.176835 0.200157 0.22381 0.247613 0.271418 0.295068 0.318266 0.408797 0.372531 0.338212 0.305297 0.273587 0.242968 0.213432 0.185121 0.158424 0.134137 0.113725 0.0995582 0.0944614 0.0997783 0.113971 0.134137 0.157872 0.183669 0.210653 0.238313 0.266345 0.294555 0.322801 0.350941 0.37869 0.471909 0.430163 0.390802 0.353053 0.316594 0.281288 0.247147 0.214362 0.183413 0.155244 0.131572 0.115156 0.109275 0.115464 0.131912 0.155242 0.182674 0.212466 0.243611 0.275529 0.307883 0.34047 0.373163 0.405854 0.438327 0.532913 0.48597 0.441704 0.39925 0.35819 0.318354 0.279765 0.242663 0.207609 0.175692 0.148871 0.130288 0.123647 0.130674 0.149299 0.175689 0.206704 0.240381 0.275586 0.311676 0.348282 0.385201 0.422326 0.459592 0.496914 0.591398 0.539593 0.490642 0.443664 0.398179 0.353992 0.311134 0.269889 0.230897 0.195387 0.165549 0.144883 0.137511 0.145337 0.166047 0.195383 0.229859 0.267298 0.306452 0.346611 0.387384 0.428564 0.470068 0.511893 0.554096 0.647063 0.590736 0.537366 0.486083 0.436379 0.388045 0.341118 0.295923 0.253179 0.214246 0.181534 0.158883 0.150807 0.159387 0.182086 0.214243 0.252043 0.293109 0.336079 0.380188 0.425014 0.470355 0.51615 0.562458 0.609473 0.699685 0.639158 0.58166 0.526324 0.472634 0.420371 0.36959 0.320656 0.274363 0.232191 0.196756 0.172223 0.163476 0.172763 0.197346 0.232186 0.273161 0.317702 0.36434 0.412253 0.460997 0.510365 0.560323 0.610986 0.662654 0.74906 0.684661 0.623336 0.56422 0.506791 0.450836 0.396433 0.343985 0.294356 0.249142 0.211154 0.184852 0.175467 0.18541 0.211762 0.249137 0.293123 0.34097 0.391108 0.442659 0.495156 0.54839 0.602346 0.657184 0.713284 0.795002 0.72706 0.662231 0.599619 0.538711 0.479316 0.421534 0.365811 0.313074 0.265028 0.224662 0.196712 0.186726 0.197274 0.225274 0.265023 0.311842 0.362811 0.416262 0.471265 0.527328 0.584239 0.641997 0.700794 0.761062 0.837304 0.766187 0.698184 0.632373 0.568265 0.505691 0.444788 0.386039 0.330437 0.279781 0.237227 0.207754 0.197206 0.208303 0.237824 0.279779 0.329239 0.383129 0.43969 0.497942 0.557365 0.617741 0.679077 0.741588 0.805738 0.875771 0.801885 0.731049 0.662344 0.59532 0.529845 0.466089 0.404581 0.346368 0.29334 0.248793 0.21793 0.206863 0.21845 0.249357 0.293336 0.345236 0.401836 0.461292 0.522572 0.585132 0.648743 0.713414 0.779373 0.8471 0.910222 0.834005 0.760686 0.689397 0.619751 0.551662 0.48534 0.421353 0.360797 0.30564 0.259306 0.227197 0.215652 0.22767 0.259821 0.305637 0.359765 0.418852 0.480974 0.545053 0.610514 0.677114 0.744856 0.813975 0.884952 0.940521 0.862417 0.786955 0.713395 0.641431 0.571033 0.502448 0.436276 0.373658 0.31663 0.268723 0.235509 0.223532 0.235917 0.269169 0.316628 0.372764 0.434106 0.498656 0.56529 0.633403 0.702727 0.773257 0.845222 0.919091 0.966597 0.887005 0.809725 0.734208 0.660245 0.587856 0.517323 0.449279 0.384894 0.326261 0.277 0.242825 0.23046 0.24315 0.277356 0.326259 0.384178 0.447534 0.514261 0.583192 0.653688 0.725453 0.798458 0.872916 0.949271 0.988438 0.90767 0.828865 0.75171 0.676083 0.602045 0.529903 0.460306 0.394457 0.334488 0.284092 0.2491 0.236393 0.249327 0.28434 0.334487 0.393954 0.459071 0.527712 0.598665 0.671254 0.745146 0.820275 0.896823 0.975189 1.00606 0.924319 0.844264 0.765803 0.688868 0.613542 0.540138 0.469322 0.402312 0.341275 0.289961 0.254296 0.241293 0.254412 0.290089 0.341275 0.402048 0.46866 0.538929 0.611601 0.68596 0.76163 0.838493 0.916678 0.996529 1.01948 0.936878 0.855853 0.776448 0.698597 0.622351 0.548036 0.476321 0.408444 0.346596 0.294572 0.258373 0.245123 0.258379 0.294578 0.346596 0.408419 0.476233 0.547811 0.621863 0.697631 0.77469 0.85286 0.932211 1.01303 1.02859 0.945312 0.863657 0.783782 0.705397 0.628586 0.553671 0.481344 0.412858 0.350428 0.297885 0.261293 0.24786 0.261214 0.297799 0.350427 0.413019 0.48171 0.554239 0.629285 0.706057 0.784076 0.863088 0.943138 1.02453 1.03317 0.949556 0.868144 0.788232 0.709662 0.632536 0.557239 0.484495 0.415588 0.352759 0.299869 0.263026 0.249489 0.262925 0.29976 0.352758 0.4158 0.484994 0.55806 0.633663 0.710989 0.789525 0.868941 0.949072 1.03069 1.03078 0.950146 0.870025 0.790569 0.712 0.634648 0.559017 0.485912 0.416666 0.353553 0.300462 0.263523 0.249999 0.263523 0.300462 0.353553 0.416666 0.485912 0.559017 0.634648 0.712 0.790569 0.870026 0.950146 1.03078 0 1.11759e-08 7.45058e-09 0 1.49012e-08 0 0 0 0 0 0 0 0 0 0 0 0 0 0 0 0 0 0 0 0 0.0764026 0.0657318 0.0587999 0.0529036 0.0475568 0.0426234 0.0380344 0.033787 0.0299353 0.0265887 0.0239241 0.0221693 0.0215424 0.0221411 0.0238827 0.0265573 0.0299353 0.0338283 0.0381027 0.0426673 0.0474515 0.0524151 0.0574719 0.0628555 0.0674919 0.147786 0.132272 0.118518 0.106697 0.0959431 0.085978 0.0766804 0.0680464 0.0601805 0.053315 0.0478212 0.0441921 0.0429027 0.0441642 0.0477842 0.0532927 0.0601801 0.0680331 0.0765568 0.0855439 0.0948478 0.104336 0.113924 0.123217 0.131939 0.217463 0.197206 0.178124 0.160688 0.14461 0.129605 0.115541 0.102435 0.0904591 0.0799767 0.0715735 0.0660233 0.0640738 0.0660491 0.0716219 0.0800292 0.0904595 0.102262 0.114974 0.12827 0.141914 0.155708 0.169393 0.182688 0.195231 0.286439 0.260875 0.236799 0.214202 0.193005 0.173043 0.15423 0.136636 0.120521 0.106395 0.095064 0.0875954 0.0850086 0.0877287 0.0952753 0.106579 0.12052 0.13621 0.153021 0.170515 0.188377 0.206337 0.224131 0.241475 0.258046 0.354701 0.323494 0.294358 0.2668 0.240677 0.215882 0.192399 0.170366 0.150146 0.132406 0.11818 0.108826 0.105631 0.109108 0.118612 0.132765 0.150146 0.169636 0.190448 0.212046 0.234045 0.25615 0.278093 0.299615 0.32038 0.421651 0.384837 0.35061 0.318184 0.287283 0.257797 0.229763 0.203391 0.179153 0.157873 0.140818 0.129629 0.125852 0.130077 0.141495 0.158424 0.179152 0.202343 0.227065 0.252689 0.278781 0.305027 0.331172 0.35698 0.382114 0.48661 0.44447 0.405264 0.368088 0.332554 0.298536 0.266099 0.235524 0.207388 0.182677 0.162881 0.149918 0.14558 0.15053 0.163796 0.183411 0.207386 0.234177 0.262718 0.292299 0.322443 0.352823 0.383202 0.413375 0.44304 0.54906 0.501977 0.45801 0.416255 0.376265 0.337888 0.30122 0.266603 0.23472 0.206708 0.184274 0.169607 0.164726 0.170366 0.185405 0.207605 0.234716 0.265003 0.29727 0.330733 0.364875 0.399365 0.433981 0.468555 0.50288 0.60868 0.557029 0.508576 0.462464 0.418216 0.375679 0.334969 0.296493 0.261028 0.229863 0.204909 0.188607 0.1832 0.189489 0.206217 0.230893 0.261025 0.294693 0.330584 0.36784 0.405912 0.444457 0.483274 0.522244 0.561277 0.665249 0.609375 0.556734 0.506513 0.458234 0.411751 0.367207 0.325066 0.286204 0.252046 0.2247 0.206841 0.200922 0.207816 0.226141 0.253177 0.286201 0.323126 0.362523 0.403466 0.445373 0.487891 0.530835 0.574141 0.617839 0.7186 0.658816 0.602292 0.548227 0.496161 0.44596 0.397802 0.352208 0.310145 0.273165 0.24356 0.224225 0.217813 0.225263 0.245089 0.274359 0.31014 0.350182 0.39295 0.437454 0.483074 0.529449 0.576409 0.623939 0.672173 0.768567 0.705188 0.645082 0.587452 0.531851 0.47817 0.426629 0.377804 0.332745 0.293127 0.26141 0.240689 0.233803 0.24176 0.262983 0.294352 0.332741 0.375746 0.421733 0.469646 0.518834 0.568922 0.619749 0.671342 0.723919 0.814975 0.748325 0.684953 0.624038 0.565162 0.508252 0.453567 0.401744 0.353907 0.311847 0.27817 0.256161 0.248823 0.257234 0.279745 0.31307 0.353904 0.399704 0.448739 0.499894 0.55248 0.60611 0.660628 0.716086 0.772767 0.857636 0.788077 0.721755 0.657841 0.59596 0.536079 0.478503 0.423924 0.37354 0.329242 0.293772 0.270574 0.262807 0.27162 0.295307 0.330434 0.373538 0.42195 0.473848 0.528057 0.583854 0.640835 0.698841 0.75794 0.818458 0.89637 0.824296 0.755344 0.688723 0.62411 0.561525 0.501321 0.444244 0.391559 0.34524 0.308148 0.283867 0.275699 0.284857 0.309598 0.346365 0.391557 0.442386 0.496947 0.554011 0.612816 0.67294 0.734216 0.796712 0.860779 0.931022 0.856847 0.785588 0.716547 0.649483 0.584474 0.52192 0.462616 0.407883 0.359768 0.321232 0.295982 0.287436 0.296883 0.322553 0.360794 0.40788 0.460923 0.51794 0.577646 0.639245 0.70229 0.766601 0.832237 0.899544 0.961494 0.885617 0.812355 0.741183 0.671953 0.604812 0.540202 0.478957 0.422443 0.372767 0.332969 0.306861 0.297964 0.30764 0.334113 0.373656 0.422441 0.477486 0.53674 0.598867 0.663033 0.728764 0.79586 0.864361 0.934576 0.987755 0.910507 0.835524 0.762503 0.691409 0.622442 0.556084 0.493198 0.435178 0.38418 0.343304 0.316448 0.307224 0.317069 0.34422 0.384892 0.435176 0.492008 0.553273 0.617588 0.684081 0.752243 0.821848 0.892908 0.965663 1.00982 0.931438 0.854977 0.780396 0.707753 0.63729 0.569509 0.505285 0.446039 0.393955 0.352183 0.324683 0.315159 0.325118 0.352823 0.394456 0.446038 0.504437 0.567478 0.633733 0.702288 0.772597 0.844395 0.917656 0.992526 1.02773 0.948332 0.870618 0.794779 0.720929 0.649317 0.580444 0.515192 0.454991 0.402049 0.35955 0.331511 0.321712 0.331735 0.359882 0.402311 0.45499 0.514726 0.579293 0.647215 0.717537 0.789668 0.86329 0.938329 1.01482 1.04149 0.961123 0.88239 0.80564 0.730964 0.658554 0.588911 0.522918 0.462013 0.408418 0.365349 0.33687 0.32683 0.336885 0.365374 0.408444 0.462013 0.522839 0.58865 0.657931 0.729682 0.803258 0.878284 0.954633 1.03223 1.05101 0.9698 0.890362 0.813177 0.738034 0.665145 0.595002 0.5285 0.467093 0.413019 0.369521 0.340706 0.33048 0.340558 0.369306 0.412857 0.467092 0.52873 0.595463 0.665744 0.738536 0.813143 0.889104 0.966295 1.04464 1.05611 0.974301 0.895114 0.817902 0.742595 0.669416 0.598915 0.532026 0.470232 0.415801 0.371999 0.342971 0.332651 0.34278 0.371722 0.415587 0.470232 0.53235 0.59962 0.670481 0.74388 0.819093 0.895601 0.97305 1.05199 1.05409 0.975392 0.897527 0.820738 0.745356 0.671855 0.600925 0.533593 0.471404 0.416666 0.372677 0.343592 0.333333 0.343592 0.372677 0.416666 0.471404 0.533593 0.600925 0.671855 0.745356 0.820738 0.897527 0.975392 1.05409 0 1.11759e-08 7.45058e-09 0 1.49012e-08 0 0 0 0 0 0 0 0 0 0 0 0 0 0 0 0 0 0 0 0 0.0775545 0.0668625 0.0601762 0.0545427 0.0495473 0.04502 0.0408867 0.0371413 0.0338282 0.0310328 0.0288773 0.0274979 0.0270094 0.0274606 0.0288152 0.0309682 0.0337869 0.0371415 0.0409219 0.0450383 0.0494072 0.0539615 0.0585693 0.0633345 0.0665144 0.151017 0.135576 0.122099 0.110716 0.100514 0.0912176 0.0826942 0.0749345 0.0680322 0.0621759 0.0576353 0.0547244 0.0537097 0.0547038 0.0576102 0.0621666 0.0680455 0.0749344 0.0825714 0.0907417 0.0992642 0.107947 0.116602 0.124586 0.131349 0.223461 0.203064 0.184312 0.167393 0.152016 0.137873 0.124832 0.112908 0.102261 0.0932008 0.0861671 0.0816694 0.0801405 0.0817522 0.086323 0.0934008 0.102435 0.112907 0.124388 0.136535 0.149053 0.161656 0.173955 0.18549 0.195755 0.29545 0.269469 0.245681 0.223666 0.203288 0.184356 0.166785 0.150654 0.136212 0.123903 0.114352 0.108271 0.10626 0.108539 0.114823 0.12445 0.136635 0.150652 0.165907 0.181931 0.198332 0.214747 0.230786 0.246038 0.260101 0.366533 0.334806 0.305898 0.278971 0.253773 0.230168 0.208141 0.187845 0.169636 0.154108 0.142071 0.134446 0.131989 0.134956 0.142949 0.155092 0.170365 0.187842 0.206777 0.22659 0.246814 0.267055 0.286939 0.306105 0.324173 0.43585 0.398641 0.364664 0.332939 0.30308 0.274949 0.248588 0.224231 0.202344 0.183672 0.169214 0.160094 0.15722 0.160873 0.170535 0.185121 0.20339 0.224229 0.246751 0.270282 0.294301 0.318399 0.342223 0.365454 0.387709 0.502702 0.460448 0.421621 0.385263 0.350916 0.318434 0.2879 0.259621 0.23418 0.212469 0.195676 0.185117 0.181843 0.186156 0.197423 0.214361 0.235522 0.259619 0.285639 0.312827 0.340618 0.368593 0.39642 0.423816 0.450418 0.566675 0.519819 0.476443 0.435677 0.39705 0.360411 0.325885 0.293852 0.265006 0.240383 0.221352 0.209411 0.205745 0.210679 0.223473 0.24266 0.266601 0.29385 0.323279 0.354059 0.385586 0.417432 0.449289 0.480901 0.511977 0.62756 0.576483 0.52888 0.483967 0.441284 0.400703 0.362384 0.326784 0.294696 0.267302 0.246135 0.232871 0.228819 0.234326 0.24856 0.269886 0.29649 0.326779 0.359522 0.393816 0.429024 0.464708 0.500573 0.53641 0.572013 0.685218 0.630248 0.578736 0.529945 0.483449 0.43915 0.397251 0.358278 0.323128 0.293112 0.269923 0.255396 0.250961 0.256991 0.272571 0.295921 0.325064 0.358275 0.394221 0.431935 0.470745 0.510199 0.550013 0.590025 0.63013 0.739527 0.680958 0.625839 0.573446 0.523391 0.475608 0.430349 0.388211 0.350186 0.317707 0.292611 0.276885 0.272072 0.278572 0.295403 0.320654 0.352205 0.388207 0.427233 0.468254 0.510558 0.55368 0.597346 0.641434 0.685934 0.790341 0.728475 0.670041 0.614323 0.560961 0.509931 0.46154 0.416454 0.375751 0.340974 0.3141 0.297248 0.292063 0.29898 0.31696 0.343982 0.377801 0.416449 0.458415 0.502606 0.548275 0.594936 0.64232 0.690338 0.739063 0.837498 0.772648 0.711201 0.652429 0.596013 0.541982 0.490694 0.442882 0.399708 0.362816 0.334297 0.316395 0.310849 0.318125 0.33715 0.365809 0.401741 0.442879 0.487627 0.534836 0.583716 0.633761 0.6847 0.736468 0.789203 0.88082 0.813335 0.749171 0.687616 0.628408 0.571624 0.517684 0.467381 0.421953 0.383133 0.353114 0.334244 0.328344 0.335925 0.355886 0.386037 0.423922 0.467378 0.514737 0.564792 0.616713 0.669971 0.72428 0.77959 0.836091 0.920145 0.850395 0.783811 0.719747 0.658005 0.598725 0.542386 0.48984 0.44239 0.40184 0.370472 0.350717 0.344479 0.352306 0.373088 0.40458 0.444243 0.489837 0.539623 0.59234 0.647119 0.703402 0.760884 0.81951 0.879506 0.955341 0.883707 0.814993 0.748683 0.684669 0.62316 0.564689 0.510159 0.460926 0.418856 0.386293 0.365745 0.359179 0.367191 0.388677 0.421352 0.462615 0.510157 0.562176 0.617361 0.674803 0.733913 0.794361 0.856068 0.919269 0.986343 0.913167 0.842591 0.774294 0.708275 0.644815 0.584492 0.528253 0.477488 0.434109 0.40051 0.379254 0.372371 0.380505 0.402574 0.436273 0.478955 0.52825 0.582301 0.639752 0.699655 0.761385 0.824582 0.889127 0.955217 1.01315 0.938697 0.866493 0.796458 0.728711 0.66359 0.601714 0.544049 0.49201 0.447536 0.413053 0.391173 0.383979 0.392174 0.414709 0.449277 0.493195 0.544047 0.599926 0.659432 0.721579 0.785707 0.85142 0.918542 0.987178 1.0358 0.96023 0.88659 0.815071 0.745889 0.679421 0.616299 0.557496 0.504438 0.459074 0.423853 0.401424 0.393928 0.402127 0.425018 0.460305 0.505283 0.557495 0.614991 0.67633 0.740487 0.806764 0.87472 0.944123 1.01492 1.05433 0.977701 0.902794 0.83006 0.759764 0.692282 0.628227 0.568568 0.514727 0.468661 0.432835 0.409931 0.402143 0.410299 0.43345 0.469321 0.51519 0.568567 0.62746 0.69039 0.756289 0.824419 0.894289 0.965606 1.03811 1.06877 0.991047 0.91506 0.841433 0.770388 0.702218 0.637521 0.577256 0.52284 0.476232 0.439919 0.416609 0.408553 0.416644 0.439985 0.47632 0.522917 0.577254 0.637306 0.701553 0.768885 0.838512 0.909891 0.982688 1.05642 1.07903 1.00026 0.923468 0.849424 0.77796 0.70938 0.644263 0.583571 0.52873 0.48171 0.445012 0.421381 0.413114 0.421155 0.444646 0.481343 0.5285 0.583571 0.644501 0.70974 0.778145 0.848875 0.921298 0.995132 1.06981 1.08491 1.00523 0.928677 0.85459 0.782961 0.714092 0.648626 0.587559 0.53235 0.484994 0.448015 0.424184 0.415819 0.423884 0.447527 0.484494 0.532025 0.587558 0.649029 0.714878 0.783954 0.855397 0.928548 1.00288 1.07864 1.08333 1.00692 0.931695 0.857969 0.786165 0.71686 0.650854 0.589255 0.533593 0.485912 0.448763 0.424918 0.416666 0.424918 0.448763 0.485912 0.533593 0.589255 0.650854 0.71686 0.786165 0.857969 0.931695 1.00692 1.08333 0 1.11759e-08 7.45058e-09 0 1.49012e-08 0 0 0 0 0 0 0 0 0 0 0 0 0 0 0 0 0 0 0 0 0.0788495 0.0682589 0.0618907 0.0565611 0.0519501 0.0478507 0.0441804 0.0409216 0.0381028 0.0357803 0.0340317 0.0329335 0.0325465 0.0328952 0.0339633 0.0356992 0.0380332 0.0408861 0.04418 0.0478374 0.051774 0.0558964 0.0600247 0.064116 0.0657597 0.154661 0.139236 0.126184 0.11534 0.10577 0.0971989 0.0894742 0.0825708 0.0765551 0.0715641 0.0677842 0.0654135 0.0646082 0.0654317 0.0678302 0.0716499 0.0766798 0.0826941 0.0894746 0.0968174 0.104524 0.112351 0.120002 0.126584 0.131261 0.230122 0.209418 0.191103 0.174852 0.160304 0.147117 0.135147 0.124389 0.114972 0.107134 0.101194 0.0974922 0.0962918 0.0976911 0.101576 0.107655 0.115541 0.124831 0.135147 0.146143 0.15749 0.168827 0.179643 0.189294 0.19712 0.305288 0.278747 0.255303 0.234021 0.214617 0.196842 0.180587 0.16591 0.153023 0.142282 0.134156 0.129132 0.127581 0.129624 0.135067 0.14346 0.154229 0.166783 0.180585 0.195155 0.210054 0.224836 0.239006 0.252021 0.263396 0.379201 0.346955 0.318333 0.292184 0.26808 0.245816 0.22534 0.206781 0.19045 0.176836 0.166559 0.160254 0.158393 0.161109 0.168117 0.178801 0.192397 0.208139 0.225338 0.243403 0.261817 0.280107 0.297803 0.314457 0.329643 0.450822 0.413372 0.379762 0.348902 0.320272 0.293668 0.269093 0.246754 0.227067 0.210655 0.19829 0.190753 0.188609 0.191995 0.200528 0.213432 0.229762 0.248587 0.269091 0.29059 0.312513 0.334376 0.355747 0.376238 0.39544 0.519543 0.477432 0.439173 0.403832 0.370883 0.340128 0.311619 0.285642 0.262722 0.243614 0.229241 0.22052 0.218107 0.222131 0.23212 0.247145 0.266097 0.287896 0.311616 0.336493 0.361919 0.387405 0.412549 0.437007 0.460384 0.5851 0.538779 0.496245 0.456706 0.419676 0.384981 0.352728 0.323281 0.297273 0.275588 0.259292 0.249435 0.24675 0.251367 0.262727 0.279764 0.301219 0.325882 0.352726 0.380923 0.409829 0.438953 0.467917 0.496411 0.524087 0.647392 0.597221 0.550761 0.507315 0.466454 0.428048 0.392257 0.359525 0.330587 0.306454 0.288326 0.277376 0.274413 0.279567 0.292202 0.311133 0.334968 0.36238 0.392254 0.4237 0.456044 0.488786 0.521566 0.554112 0.586139 0.706346 0.652622 0.602551 0.555486 0.511049 0.469165 0.430049 0.394224 0.362525 0.336082 0.316219 0.304222 0.30097 0.306599 0.320411 0.341116 0.367205 0.397248 0.430046 0.464654 0.500367 0.536672 0.573221 0.609776 0.646134 0.76186 0.704858 0.651469 0.60106 0.553306 0.508176 0.465953 0.427237 0.392954 0.364345 0.342847 0.32985 0.326302 0.332345 0.347233 0.369588 0.397798 0.430346 0.465951 0.503617 0.542601 0.582379 0.622609 0.663083 0.703679 0.813801 0.753803 0.697375 0.643891 0.593065 0.544927 0.499821 0.458419 0.421737 0.391113 0.368089 0.354148 0.350297 0.356693 0.372554 0.39643 0.426626 0.461537 0.499817 0.540417 0.582557 0.62569 0.669476 0.713737 0.758419 0.862007 0.799314 0.740129 0.68383 0.630179 0.579269 0.531504 0.48763 0.448742 0.416267 0.391834 0.377008 0.372852 0.37954 0.396268 0.421532 0.453565 0.490692 0.531502 0.574893 0.620048 0.666396 0.713588 0.761468 0.810043 0.906311 0.841251 0.779585 0.720725 0.664498 0.611052 0.560863 0.51474 0.473851 0.439694 0.413978 0.398332 0.393869 0.400786 0.418273 0.444786 0.478501 0.517682 0.560861 0.606887 0.654903 0.704307 0.754734 0.806041 0.858287 0.946559 0.879479 0.815602 0.754434 0.695871 0.640136 0.587763 0.539625 0.496951 0.461295 0.434427 0.418028 0.413257 0.420342 0.438473 0.466087 0.50132 0.542383 0.58776 0.636253 0.686963 0.739256 0.792738 0.847259 0.90293 0.982644 0.913879 0.848053 0.784816 0.724161 0.666385 0.612084 0.562178 0.517943 0.480978 0.453092 0.436009 0.430929 0.438115 0.456774 0.485338 0.521918 0.564686 0.612081 0.662862 0.716092 0.771097 0.827447 0.884963 0.943787 1.01452 0.944362 0.876818 0.81174 0.749238 0.689683 0.633719 0.582305 0.536742 0.498659 0.46989 0.45219 0.446796 0.454012 0.473081 0.502445 0.540201 0.58449 0.633717 0.686601 0.742168 0.799706 0.858737 0.919026 0.9807 1.04221 0.970862 0.901789 0.835086 0.77099 0.709929 0.652584 0.599929 0.553276 0.514264 0.484738 0.46648 0.460764 0.467943 0.487307 0.517322 0.556082 0.601712 0.652581 0.707378 0.765092 0.824972 0.886491 0.94933 1.01352 1.06578 0.993332 0.922867 0.854754 0.78933 0.727057 0.668622 0.614994 0.56748 0.527715 0.497549 0.478785 0.472738 0.479819 0.499373 0.529901 0.569506 0.616297 0.668619 0.725129 0.784783 0.846792 0.91058 0.975728 1.04207 1.08528 1.01172 0.939967 0.870676 0.80422 0.741047 0.68181 0.627463 0.579294 0.538929 0.508224 0.489 0.482619 0.489556 0.509215 0.540138 0.580441 0.628225 0.681808 0.739817 0.801174 0.865053 0.930831 0.998001 1.06608 1.10074 1.02596 0.953048 0.882865 0.815718 0.751942 0.692163 0.637307 0.588651 0.547811 0.516651 0.497016 0.490319 0.497094 0.516805 0.548034 0.58891 0.637519 0.692161 0.751431 0.814213 0.879637 0.947036 1.01587 1.08526 1.11208 1.03602 0.96218 0.89157 0.824024 0.759881 0.699733 0.644502 0.595464 0.55424 0.522704 0.502734 0.49578 0.50243 0.52219 0.55367 0.595002 0.644262 0.699731 0.759979 0.823861 0.890466 0.959035 1.02914 1.09964 1.11903 1.04171 0.968069 0.897367 0.829618 0.76516 0.704644 0.64903 0.599621 0.558061 0.526245 0.506069 0.499004 0.50565 0.525526 0.557238 0.598915 0.648624 0.704643 0.76554 0.830169 0.897614 0.967126 1.03806 1.1102 1.11803 1.04416 0.971825 0.901388 0.833333 0.768295 0.707106 0.650854 0.600925 0.559016 0.527046 0.506896 0.499999 0.506896 0.527046 0.559016 0.600925 0.650854 0.707106 0.768295 0.833333 0.901388 0.971825 1.04416 1.11803 0 1.11759e-08 7.45058e-09 0 1.49012e-08 0 0 0 0 0 0 0 0 0 0 0 0 0 0 0 0 0 0 0 0 0.0802802 0.0699346 0.0639484 0.0589459 0.0547313 0.0510578 0.0478375 0.0450373 0.0426662 0.0407554 0.0393471 0.0384791 0.0381798 0.0384592 0.0393086 0.040707 0.0426229 0.0450194 0.0478504 0.0510587 0.0545616 0.0582476 0.0618829 0.0652517 0.0652857 0.158674 0.143115 0.130631 0.120417 0.111546 0.103737 0.0968176 0.0907411 0.0855435 0.0813152 0.0781787 0.0762572 0.0756435 0.0763707 0.0784051 0.0816535 0.0859775 0.0912166 0.0971984 0.103737 0.110621 0.117564 0.124155 0.12926 0.131744 0.237274 0.216 0.198183 0.182742 0.169148 0.157004 0.146144 0.136536 0.128269 0.121519 0.116515 0.113482 0.112591 0.113896 0.117315 0.122645 0.129605 0.137872 0.147117 0.157004 0.167174 0.177201 0.186461 0.194136 0.199405 0.315588 0.288326 0.265222 0.2448 0.226521 0.210025 0.195157 0.181933 0.170517 0.161185 0.154286 0.150156 0.149041 0.151005 0.1559 0.163394 0.173041 0.184353 0.196839 0.210023 0.22343 0.236544 0.248771 0.259456 0.268024 0.392161 0.35942 0.331113 0.305863 0.283016 0.262238 0.243406 0.226593 0.212048 0.20016 0.191398 0.186212 0.184916 0.187571 0.193953 0.203592 0.215881 0.230167 0.245815 0.262237 0.278878 0.295199 0.31065 0.324706 0.336906 0.465935 0.428406 0.395269 0.365419 0.338194 0.313275 0.290592 0.270284 0.25269 0.238316 0.22775 0.221552 0.220096 0.223434 0.23126 0.242969 0.257797 0.274948 0.293666 0.313274 0.333168 0.352802 0.371679 0.389358 0.405419 0.536491 0.494745 0.45723 0.423086 0.391726 0.362868 0.336496 0.312828 0.292301 0.275532 0.263231 0.256059 0.254445 0.258427 0.267619 0.281288 0.298535 0.318433 0.340126 0.362865 0.386016 0.409037 0.431473 0.452935 0.473024 0.603719 0.558172 0.516698 0.478594 0.443366 0.410794 0.380926 0.354061 0.330735 0.311678 0.297716 0.289603 0.287818 0.292386 0.302845 0.318355 0.337888 0.36041 0.384979 0.410791 0.437185 0.463624 0.489683 0.515011 0.539241 0.667602 0.61857 0.573486 0.531737 0.492913 0.456862 0.423703 0.393819 0.367843 0.346614 0.331065 0.32204 0.320064 0.32515 0.336772 0.353992 0.375678 0.400701 0.428046 0.45686 0.486457 0.516304 0.545995 0.575209 0.603622 0.728087 0.675838 0.627449 0.582346 0.540188 0.500897 0.464658 0.431938 0.40347 0.38019 0.363135 0.353229 0.351037 0.356568 0.369243 0.388043 0.411749 0.439148 0.469163 0.500894 0.533633 0.566839 0.600117 0.633177 0.66575 0.785083 0.729871 0.678448 0.630262 0.585027 0.542724 0.503619 0.468257 0.437457 0.412257 0.393779 0.383022 0.380593 0.386499 0.400118 0.420368 0.445957 0.475605 0.508173 0.542722 0.578514 0.614997 0.651781 0.6886 0.725246 0.838444 0.780535 0.726343 0.675331 0.627259 0.582178 0.54042 0.502611 0.469652 0.442663 0.422854 0.411286 0.4086 0.414809 0.429264 0.450834 0.478169 0.509929 0.544925 0.582176 0.620911 0.660562 0.700734 0.741189 0.781768 0.888011 0.827688 0.77099 0.717396 0.666724 0.61909 0.574896 0.534838 0.499897 0.47127 0.450229 0.437892 0.434935 0.441377 0.456559 0.479314 0.50825 0.54198 0.579267 0.619088 0.660639 0.703326 0.746748 0.790681 0.835019 0.933615 0.871185 0.812237 0.7563 0.703261 0.653299 0.606889 0.564793 0.52806 0.497945 0.475779 0.462722 0.459481 0.466089 0.481885 0.505689 0.536076 0.571623 0.611051 0.653298 0.697524 0.743102 0.789614 0.836848 0.884744 0.975109 0.910891 0.849943 0.791895 0.736715 0.684655 0.636255 0.592341 0.554014 0.522575 0.499396 0.485671 0.482133 0.488837 0.505134 0.529844 0.561523 0.598724 0.640134 0.684654 0.731403 0.779719 0.829153 0.87949 0.930723 1.01241 0.946697 0.88398 0.82404 0.76694 0.713015 0.662864 0.617362 0.577649 0.545056 0.52098 0.506636 0.502784 0.509512 0.526193 0.551661 0.584472 0.623158 0.666384 0.713014 0.76213 0.813028 0.865214 0.918446 0.972768 1.04548 0.978519 0.914232 0.8526 0.793804 0.738255 0.686603 0.639755 0.598869 0.565292 0.54043 0.525514 0.521331 0.528006 0.544952 0.571032 0.604811 0.644813 0.689681 0.738253 0.789577 0.842901 0.897673 0.953589 1.01071 1.07436 1.0063 0.940595 0.877454 0.81719 0.760272 0.707381 0.659435 0.617591 0.583195 0.55765 0.5422 0.537663 0.544209 0.561307 0.587855 0.622441 0.663589 0.709927 0.760269 0.813632 0.869222 0.92642 0.984816 1.04442 1.09915 1.03002 0.962974 0.898503 0.837009 0.778992 0.725133 0.676333 0.633735 0.598668 0.572528 0.556575 0.55166 0.558011 0.575156 0.602043 0.637288 0.67942 0.727056 0.77899 0.834211 0.89189 0.951347 1.01202 1.07373 1.11992 1.04963 0.981293 0.915676 0.853216 0.794386 0.73982 0.690392 0.647216 0.611601 0.584941 0.568509 0.563202 0.569309 0.586421 0.613541 0.649315 0.69228 0.741045 0.794383 0.851258 0.910808 0.972311 1.03506 1.09847 1.13673 1.06509 0.995504 0.92898 0.865861 0.806482 0.751434 0.701554 0.657931 0.621863 0.594743 0.577867 0.572178 0.578026 0.595066 0.622351 0.658553 0.702216 0.75194 0.806478 0.864766 0.925903 0.989137 1.05371 1.11845 1.14952 1.07634 1.00566 0.938657 0.875125 0.815384 0.759981 0.709741 0.665744 0.629286 0.601769 0.584519 0.578516 0.58416 0.601154 0.628585 0.665145 0.70938 0.759879 0.815382 0.874797 0.937201 1.00175 1.06786 1.13382 1.1579 1.08305 1.01249 0.945298 0.881482 0.821361 0.765541 0.714879 0.670481 0.633663 0.605846 0.588369 0.582228 0.587836 0.604908 0.632535 0.669415 0.714092 0.765159 0.82136 0.881615 0.945005 1.01074 1.07808 1.14624 1.1577 1.08653 1.01721 0.950146 0.885845 0.824957 0.768295 0.71686 0.671854 0.634647 0.606675 0.589255 0.583333 0.589255 0.606675 0.634647 0.671854 0.71686 0.768295 0.824958 0.885845 0.950146 1.01721 1.08653 1.1577 0 1.11759e-08 7.45058e-09 0 1.49012e-08 0 0 0 0 0 0 0 0 0 0 0 0 0 0 0 0 0 0 0 0 0.0817614 0.0718444 0.0663023 0.061638 0.057817 0.0545604 0.0517726 0.0494058 0.0474497 0.0459128 0.04481 0.0441513 0.0439439 0.0441847 0.0448704 0.0459959 0.0475564 0.0495466 0.0519499 0.0547315 0.0578181 0.0610807 0.0642258 0.0668233 0.06514 0.162864 0.146938 0.135187 0.125717 0.117622 0.110622 0.104525 0.0992642 0.0948486 0.0913309 0.0887865 0.087286 0.0868822 0.0875884 0.0893786 0.0921932 0.0959425 0.100513 0.105768 0.111544 0.117621 0.123664 0.129148 0.132704 0.132877 0.244574 0.222416 0.205124 0.190656 0.178164 0.167174 0.15749 0.149053 0.141914 0.136198 0.132067 0.129675 0.129127 0.130454 0.133588 0.138379 0.144609 0.152015 0.160302 0.169147 0.178163 0.186862 0.194515 0.200146 0.202753 0.325795 0.297691 0.2749 0.255474 0.238493 0.223432 0.210055 0.198334 0.188378 0.180396 0.174648 0.171375 0.17074 0.172776 0.177356 0.184221 0.193004 0.203287 0.214615 0.22652 0.238492 0.249958 0.260225 0.268537 0.274229 0.404725 0.371569 0.343616 0.319401 0.297996 0.27888 0.26182 0.246817 0.234046 0.223811 0.216468 0.212346 0.211657 0.214428 0.220463 0.229383 0.240677 0.253772 0.268079 0.283015 0.297994 0.312417 0.32565 0.337097 0.346278 0.480496 0.443054 0.410515 0.381839 0.356213 0.33317 0.312516 0.294304 0.278782 0.266347 0.257452 0.25251 0.251775 0.25526 0.262696 0.273585 0.287281 0.303078 0.320271 0.338193 0.356212 0.373729 0.390177 0.405068 0.417992 0.55291 0.511706 0.475111 0.442355 0.412789 0.386019 0.361922 0.340619 0.322444 0.307885 0.297491 0.291753 0.290961 0.295108 0.303855 0.316593 0.332553 0.350915 0.370881 0.391725 0.412787 0.433484 0.453304 0.471824 0.488656 0.621967 0.577354 0.537131 0.500667 0.467451 0.437188 0.409831 0.385587 0.364878 0.348285 0.33645 0.329935 0.32906 0.333798 0.343743 0.35819 0.376263 0.397047 0.419673 0.443364 0.46745 0.491359 0.514623 0.536856 0.557692 0.687673 0.639925 0.596404 0.556558 0.519977 0.48646 0.456046 0.429027 0.405916 0.387387 0.37417 0.36689 0.365897 0.371143 0.382167 0.398178 0.418215 0.441282 0.466452 0.492911 0.519975 0.547088 0.573802 0.599763 0.624625 0.749969 0.699326 0.652791 0.609849 0.570169 0.533635 0.500369 0.470748 0.445376 0.425017 0.410481 0.402449 0.401299 0.406968 0.418947 0.436379 0.458232 0.483447 0.511047 0.540187 0.570167 0.600434 0.630556 0.660197 0.689052 0.808744 0.755439 0.706144 0.660368 0.61784 0.578516 0.542603 0.510561 0.483078 0.461001 0.44521 0.436443 0.435097 0.441105 0.453918 0.472632 0.496159 0.523388 0.553302 0.585024 0.617837 0.651181 0.68463 0.717867 0.750626 0.863836 0.808119 0.75631 0.707945 0.662803 0.620913 0.582558 0.548279 0.518839 0.495159 0.478189 0.468707 0.467134 0.473399 0.48693 0.506789 0.531849 0.560958 0.593063 0.627257 0.662801 0.699117 0.735785 0.772499 0.809032 0.915075 0.857211 0.803136 0.752411 0.70488 0.660641 0.62005 0.583718 0.552483 0.527332 0.509263 0.499093 0.497265 0.503706 0.517841 0.53871 0.56516 0.596012 0.630178 0.666722 0.704878 0.744048 0.783801 0.823848 0.863994 0.962289 0.902566 0.846462 0.793601 0.7439 0.697525 0.654904 0.616715 0.583857 0.557368 0.538287 0.527463 0.525352 0.531897 0.546521 0.568262 0.595958 0.628406 0.664495 0.703259 0.743898 0.785787 0.828478 0.871695 0.915275 1.00534 0.944045 0.886145 0.831363 0.779702 0.731404 0.686964 0.647121 0.61282 0.585135 0.565136 0.553692 0.551274 0.557844 0.572842 0.595318 0.624108 0.658002 0.695869 0.736713 0.779701 0.824169 0.869642 0.915845 0.962661 1.04414 0.981545 0.922057 0.865555 0.812137 0.762132 0.716093 0.674805 0.639248 0.610517 0.589695 0.577661 0.574909 0.581425 0.59668 0.619749 0.649481 0.684667 0.724159 0.766939 0.812136 0.859044 0.907141 0.956136 1.00597 1.07868 1.01499 0.95409 0.896043 0.841072 0.78958 0.742171 0.699657 0.663036 0.633404 0.611848 0.599252 0.596133 0.602513 0.617908 0.641431 0.671953 0.708274 0.749237 0.793802 0.841069 0.890281 0.940851 0.992432 1.04502 1.10901 1.04434 0.982138 0.922704 0.866383 0.813635 0.765095 0.721582 0.684083 0.653691 0.631477 0.618338 0.614816 0.62098 0.636402 0.660244 0.691409 0.72871 0.770988 0.817187 0.86638 0.917763 0.970668 1.02463 1.07966 1.13525 1.06957 1.00611 0.945437 0.887973 0.834214 0.784787 0.74049 0.702291 0.671256 0.648451 0.63478 0.630819 0.636696 0.652044 0.676081 0.707752 0.745887 0.789328 0.837005 0.88797 0.941383 0.996496 1.05267 1.10974 1.15753 1.09067 1.02594 0.964159 0.905781 0.851262 0.801176 0.756292 0.717538 0.685961 0.662615 0.648421 0.643998 0.649535 0.664732 0.688867 0.720927 0.759764 0.804219 0.853215 0.905779 0.961048 1.01822 1.07645 1.13515 1.17599 1.10765 1.04158 0.978864 0.919827 0.864769 0.814216 0.768886 0.729682 0.697632 0.673788 0.659095 0.654217 0.659402 0.674418 0.698596 0.730963 0.770388 0.815717 0.865859 0.919825 0.976715 1.03572 1.09587 1.15582 1.19062 1.12042 1.05305 0.989764 0.930255 0.874798 0.823862 0.778145 0.738536 0.706057 0.681772 0.666647 0.661387 0.666288 0.681165 0.705396 0.738034 0.77796 0.824022 0.875123 0.930254 0.988508 1.04898 1.11092 1.17211 1.20087 1.12852 1.06112 0.997487 0.937562 0.881615 0.830169 0.783954 0.743881 0.71099 0.686359 0.670967 0.66553 0.670353 0.685268 0.70966 0.742594 0.78296 0.829618 0.881481 0.937561 0.99697 1.05889 1.12254 1.18637 1.20185 1.13346 1.06719 1.00347 0.942809 0.885845 0.833333 0.786165 0.745356 0.712 0.687184 0.671854 0.666666 0.671854 0.687184 0.712 0.745356 0.786165 0.833333 0.885845 0.942809 1.00347 1.06719 1.13346 1.20185 0 1.11759e-08 7.45058e-09 0 1.49012e-08 0 0 0 0 0 0 0 0 0 0 0 0 0 0 0 0 0 0 0 0 0.0830753 0.0738286 0.0688014 0.064497 0.0610816 0.0582486 0.055897 0.0539624 0.0524151 0.051244 0.0504413 0.0499969 0.0499009 0.0501423 0.0507181 0.0516334 0.0529027 0.0545424 0.0565616 0.058947 0.0616385 0.0644959 0.0671517 0.0689164 0.0653282 0.16678 0.150196 0.139401 0.130853 0.123663 0.117564 0.112352 0.107948 0.104337 0.101543 0.0996047 0.0985577 0.0984242 0.0992024 0.100871 0.103389 0.106697 0.110715 0.11534 0.120418 0.125718 0.130855 0.135177 0.137108 0.134805 0.251362 0.228034 0.211316 0.198044 0.186861 0.177201 0.168828 0.161656 0.155709 0.151069 0.147849 0.146151 0.146041 0.147529 0.150555 0.155 0.160685 0.167391 0.174851 0.182742 0.190657 0.198045 0.204077 0.207623 0.207484 0.335052 0.306094 0.283637 0.265403 0.249958 0.236546 0.224838 0.214748 0.206338 0.199761 0.195208 0.192854 0.19281 0.195086 0.199571 0.206045 0.2142 0.223665 0.234021 0.2448 0.255474 0.265404 0.273791 0.27975 0.282551 0.416017 0.382586 0.355108 0.332129 0.312417 0.295201 0.28011 0.267057 0.256151 0.247614 0.24172 0.238711 0.23874 0.241806 0.24774 0.256218 0.266798 0.278969 0.292182 0.305862 0.3194 0.332129 0.343313 0.352251 0.358458 0.493727 0.456534 0.424779 0.397498 0.373729 0.352803 0.334379 0.318401 0.305028 0.294557 0.287338 0.283682 0.283772 0.287593 0.294911 0.305296 0.318183 0.332937 0.348902 0.365418 0.381837 0.397496 0.411742 0.424005 0.433889 0.568147 0.527612 0.492139 0.461006 0.433486 0.409038 0.387407 0.368594 0.352824 0.340472 0.331963 0.327667 0.327792 0.332303 0.340899 0.353052 0.368087 0.385262 0.403833 0.423086 0.442355 0.461004 0.478455 0.494222 0.507926 0.63929 0.595704 0.556916 0.522323 0.491361 0.463626 0.438954 0.417434 0.399367 0.385204 0.375443 0.37051 0.370629 0.375745 0.38549 0.399251 0.416256 0.435677 0.456705 0.478593 0.500666 0.522322 0.543035 0.562371 0.579954 0.707126 0.660728 0.618929 0.5812 0.547088 0.516306 0.488788 0.464711 0.444461 0.428568 0.417598 0.412024 0.412087 0.417706 0.428461 0.443662 0.462462 0.483964 0.507313 0.531735 0.556557 0.5812 0.605174 0.628075 0.649534 0.771555 0.722562 0.678016 0.637431 0.600435 0.56684 0.536674 0.510201 0.487894 0.470358 0.458225 0.452006 0.451958 0.457978 0.469602 0.486082 0.50651 0.529941 0.555483 0.582343 0.609846 0.637429 0.66462 0.691032 0.716319 0.832434 0.781063 0.734009 0.690816 0.651183 0.614997 0.582381 0.553683 0.529453 0.510369 0.497119 0.490255 0.49004 0.49636 0.508718 0.526323 0.548225 0.573444 0.601058 0.630259 0.660365 0.690813 0.721145 0.750983 0.780009 0.889579 0.836062 0.786731 0.741166 0.699121 0.660563 0.625692 0.59494 0.568927 0.548393 0.534083 0.526575 0.526145 0.532672 0.545635 0.564219 0.58745 0.614321 0.643889 0.675328 0.707942 0.741162 0.774532 0.807686 0.840326 0.942805 0.887391 0.836015 0.788293 0.744051 0.703328 0.666398 0.633765 0.606113 0.584244 0.568934 0.560791 0.560103 0.566744 0.580191 0.599617 0.624036 0.652426 0.683827 0.717392 0.752407 0.78829 0.824575 0.860911 0.89702 0.991934 0.934889 0.88169 0.832022 0.78579 0.743104 0.70431 0.669973 0.640838 0.617744 0.601502 0.59274 0.591753 0.598424 0.612238 0.632371 0.657839 0.687613 0.720722 0.756297 0.793599 0.83202 0.871087 0.910457 0.949871 1.03682 0.978419 0.923611 0.872197 0.824171 0.779721 0.739258 0.703404 0.672943 0.648746 0.631644 0.622279 0.620954 0.627573 0.641636 0.662344 0.688721 0.719744 0.754432 0.791894 0.831362 0.872196 0.913901 0.956139 0.998684 1.0774 1.01788 0.961651 0.908679 0.859047 0.81303 0.771099 0.733915 0.702292 0.677115 0.659226 0.649269 0.647567 0.654048 0.668247 0.689396 0.716546 0.748681 0.784813 0.824038 0.865553 0.908676 0.952872 0.997799 1.04328 1.11364 1.05319 0.995711 0.941337 0.890284 0.842903 0.799708 0.761387 0.728766 0.702728 0.684114 0.673572 0.671449 0.677708 0.69193 0.713395 0.741182 0.774292 0.811738 0.852598 0.896039 0.941334 0.987879 1.0353 1.08349 1.14562 1.08433 1.02569 0.970058 0.917767 0.869224 0.824975 0.785709 0.752244 0.725456 0.706169 0.695043 0.692453 0.698407 0.712548 0.734207 0.762503 0.796458 0.835086 0.877453 0.922703 0.970057 1.01883 1.06853 1.11913 1.17346 1.11129 1.05152 0.99474 0.941386 0.891893 0.846795 0.806765 0.772599 0.745149 0.725232 0.713519 0.710419 0.715999 0.729965 0.75171 0.780396 0.81507 0.854754 0.898501 0.945435 0.994736 1.04563 1.09743 1.15004 1.19738 1.13409 1.07311 1.01528 0.961049 0.910812 0.865055 0.82442 0.789669 0.761632 0.74112 0.72882 0.725183 0.730338 0.744061 0.765802 0.794777 0.830059 0.870675 0.915674 0.964158 1.01528 1.06819 1.12195 1.1761 1.21766 1.15278 1.09042 1.03164 0.976716 0.925905 0.879638 0.838512 0.803259 0.77469 0.753617 0.74075 0.736582 0.741304 0.754755 0.776448 0.80564 0.841433 0.882864 0.928978 0.978862 1.03163 1.08643 1.14212 1.19736 1.23448 1.16739 1.10351 1.04401 0.988507 0.937201 0.890466 0.848875 0.813143 0.784076 0.762494 0.749129 0.744509 0.748873 0.76211 0.783781 0.813177 0.849424 0.891568 0.938656 0.989762 1.04401 1.10045 1.15812 1.21443 1.24723 1.17736 1.11316 1.05308 0.996968 0.945004 0.897614 0.855397 0.819093 0.789526 0.767524 0.753828 0.748975 0.75321 0.766437 0.788231 0.817901 0.85459 0.897367 0.945297 0.997486 1.05308 1.11126 1.17116 1.23026 1.25 1.18439 1.12113 1.06066 1.00347 0.950146 0.901387 0.857969 0.820738 0.790569 0.768295 0.754615 0.749999 0.754615 0.768295 0.790569 0.820738 0.857969 0.901387 0.950146 1.00347 1.06066 1.12114 1.18439 1.25 0 1.11759e-08 7.45058e-09 0 1.49012e-08 0 0 0 0 0 0 0 0 0 0 0 0 0 0 0 0 0 0 0 0 0.0836376 0.0753604 0.0709998 0.0671539 0.0642266 0.0618842 0.0600262 0.0585706 0.0574727 0.056703 0.0562351 0.0560437 0.0561064 0.0564077 0.0569458 0.0577334 0.058799 0.0601754 0.0618899 0.0639478 0.0663008 0.0687998 0.0709975 0.0718412 0.0660299 0.169466 0.151984 0.142509 0.135177 0.129146 0.124154 0.120001 0.116603 0.113926 0.11197 0.110745 0.11026 0.110512 0.111489 0.113168 0.115522 0.118516 0.122097 0.126183 0.130631 0.135186 0.139402 0.142507 0.142719 0.137777 0.256454 0.231812 0.215823 0.204077 0.194515 0.186461 0.179644 0.173957 0.169394 0.166005 0.163857 0.163018 0.16352 0.165358 0.16848 0.172782 0.178121 0.18431 0.191101 0.198182 0.205122 0.211315 0.215821 0.21729 0.214345 0.342043 0.312406 0.29049 0.27379 0.260227 0.248773 0.239007 0.230789 0.224132 0.219139 0.215943 0.21467 0.215394 0.218109 0.222718 0.229034 0.236795 0.245678 0.255301 0.265221 0.274899 0.283638 0.29049 0.294311 0.294295 0.424884 0.391416 0.3647 0.343312 0.325651 0.310652 0.297805 0.286941 0.278094 0.271418 0.267114 0.265367 0.266282 0.269848 0.275918 0.284214 0.294357 0.305897 0.318334 0.331114 0.343618 0.355109 0.364701 0.371472 0.374897 0.504733 0.467954 0.437281 0.411742 0.390179 0.371681 0.35575 0.342225 0.331173 0.322803 0.317378 0.315136 0.316211 0.320579 0.328036 0.338211 0.35061 0.364663 0.379762 0.395268 0.410516 0.424781 0.437282 0.447289 0.45437 0.581502 0.541736 0.507643 0.478455 0.453306 0.431474 0.412551 0.396422 0.383203 0.373167 0.366632 0.363889 0.365086 0.370181 0.378908 0.390802 0.405264 0.421618 0.439171 0.457227 0.47511 0.492139 0.507642 0.521012 0.531824 0.655113 0.612606 0.575467 0.543036 0.514625 0.489685 0.467918 0.44929 0.433982 0.422328 0.41471 0.411453 0.41272 0.418441 0.428284 0.441706 0.458011 0.476441 0.496243 0.516695 0.537128 0.556915 0.575465 0.592236 0.606797 0.725456 0.680425 0.640524 0.605174 0.573802 0.545995 0.521567 0.500575 0.483277 0.470072 0.461395 0.457608 0.458877 0.465101 0.475896 0.490643 0.508576 0.52888 0.550759 0.573485 0.596403 0.618929 0.640523 0.66068 0.678966 0.792385 0.74503 0.702617 0.664622 0.630557 0.600119 0.573223 0.550016 0.530838 0.516153 0.506448 0.502107 0.503303 0.509905 0.521484 0.537365 0.556733 0.578733 0.602548 0.627447 0.652788 0.678015 0.702617 0.726107 0.748063 0.855721 0.806245 0.761547 0.721148 0.684632 0.651782 0.622611 0.59735 0.576412 0.560327 0.549622 0.544709 0.545755 0.552611 0.564816 0.581659 0.602292 0.625836 0.651467 0.678446 0.706141 0.734006 0.761546 0.788288 0.813825 0.915259 0.863878 0.817117 0.774535 0.735787 0.700736 0.669478 0.642325 0.619755 0.60235 0.590681 0.585177 0.586003 0.593002 0.605689 0.623337 0.645083 0.670041 0.697374 0.726342 0.756309 0.78673 0.817116 0.847006 0.87601 0.970797 0.917747 0.869138 0.82458 0.783804 0.74675 0.71359 0.684703 0.660631 0.642001 0.629409 0.6233 0.623845 0.630879 0.643917 0.662229 0.684951 0.711197 0.740126 0.770986 0.803132 0.83601 0.869134 0.902053 0.934388 1.02215 0.967681 0.917429 0.87109 0.828481 0.789616 0.754738 0.724283 0.698845 0.679081 0.66561 0.658889 0.659095 0.66607 0.679338 0.698182 0.721752 0.749166 0.779582 0.812233 0.846458 0.881685 0.917425 0.953238 0.988759 1.06918 1.01353 0.961838 0.913902 0.869643 0.829155 0.79274 0.760887 0.734218 0.713417 0.699115 0.691777 0.691589 0.698412 0.711795 0.731048 0.755343 0.783808 0.8156 0.849941 0.886142 0.923608 0.961834 1.00039 1.03894 1.11179 1.05519 1.00223 0.952874 0.907143 0.865216 0.827449 0.794363 0.766603 0.744857 0.729769 0.721803 0.721168 0.727751 0.741141 0.760685 0.785587 0.814991 0.848052 0.883978 0.922057 0.96165 1.00223 1.04338 1.08478 1.14996 1.09259 1.03851 0.987882 0.940852 0.897675 0.858739 0.824585 0.795861 0.773258 0.757415 0.748809 0.747671 0.753931 0.767226 0.786954 0.812354 0.84259 0.876817 0.914231 0.954087 0.995708 1.03851 1.08206 1.12612 1.18373 1.12569 1.07059 1.01883 0.970671 0.926423 0.886494 0.851421 0.821849 0.79846 0.781887 0.772624 0.770932 0.776794 0.789906 0.809724 0.835523 0.866493 0.901789 0.940593 0.982135 1.02569 1.07059 1.11635 1.1628 1.21323 1.1545 1.09842 1.04563 0.996499 0.95135 0.910582 0.874721 0.844397 0.820277 0.802996 0.793063 0.79078 0.796185 0.809042 0.828865 0.854978 0.886591 0.922867 0.962974 1.00611 1.05151 1.09841 1.14615 1.19463 1.23871 1.17907 1.12193 1.06819 1.01822 0.972313 0.930833 0.894289 0.863291 0.838494 0.82053 0.809929 0.807035 0.811949 0.824499 0.844263 0.870615 0.902793 0.939966 0.981292 1.02594 1.07311 1.12193 1.17147 1.22145 1.2607 1.19955 1.14112 1.08643 1.03572 0.989138 0.947037 0.909892 0.878285 0.852861 0.834252 0.823012 0.819524 0.823948 0.836179 0.855852 0.882389 0.915059 0.953046 0.9955 1.04158 1.09042 1.14112 1.19241 1.24326 1.28 1.21624 1.15605 1.10045 1.04898 1.00175 0.959035 0.921299 0.889105 0.863088 0.84389 0.83208 0.828078 0.832088 0.844052 0.863656 0.890362 0.923468 0.962178 1.00566 1.05305 1.10351 1.15605 1.20937 1.26085 1.29612 1.22873 1.16777 1.11126 1.05889 1.01074 0.967127 0.928549 0.895602 0.868941 0.849214 0.836992 0.832695 0.836527 0.848443 0.868143 0.895113 0.928677 0.968069 1.01248 1.06112 1.11316 1.16777 1.22396 1.27781 1.30171 1.23884 1.17851 1.12113 1.06719 1.01721 0.971825 0.931695 0.897527 0.870025 0.849836 0.837489 0.833333 0.837489 0.849836 0.870025 0.897527 0.931695 0.971825 1.01721 1.06719 1.12113 1.17851 1.23884 1.30171 0 1.11759e-08 7.45058e-09 0 1.49012e-08 0 0 0 0 0 0 0 0 0 0 0 0 0 0 0 0 0 0 0 0 0.0822389 0.0751819 0.0718432 0.0689174 0.0668243 0.0652526 0.0641169 0.0633364 0.0628576 0.0626361 0.0626305 0.0628011 0.0631153 0.0635549 0.0641197 0.0648326 0.0657325 0.0668625 0.0682589 0.0699336 0.0718435 0.073827 0.0753578 0.0751806 0.0668629 0.168802 0.150502 0.142722 0.137109 0.132705 0.129261 0.126584 0.124587 0.12322 0.122455 0.122275 0.12266 0.123586 0.125031 0.126973 0.129392 0.132271 0.135575 0.139237 0.143114 0.146937 0.150195 0.151982 0.1505 0.142788 0.257458 0.23193 0.217293 0.207623 0.200147 0.194138 0.189294 0.185492 0.182691 0.180899 0.180145 0.18045 0.181824 0.184248 0.187676 0.192029 0.197206 0.203063 0.209417 0.216 0.222416 0.228034 0.231812 0.231929 0.226373 0.344856 0.314998 0.29431 0.27975 0.268537 0.259457 0.25202 0.246039 0.241476 0.238377 0.236817 0.236876 0.238594 0.241961 0.246899 0.253268 0.260872 0.269465 0.278743 0.288324 0.29769 0.306093 0.312406 0.314998 0.312585 0.430011 0.396816 0.371471 0.352252 0.337099 0.324707 0.314459 0.306107 0.299617 0.295069 0.292597 0.292329 0.294341 0.298625 0.305068 0.313456 0.323491 0.334803 0.346951 0.359417 0.371567 0.382585 0.391416 0.396816 0.397878 0.512556 0.476378 0.447289 0.424006 0.40507 0.389358 0.376239 0.365455 0.356982 0.350944 0.347524 0.346902 0.34918 0.354342 0.362226 0.37253 0.384835 0.398638 0.413369 0.428403 0.443053 0.456532 0.467953 0.476376 0.481013 0.592197 0.553305 0.521013 0.494223 0.471826 0.452934 0.437008 0.423816 0.413376 0.405857 0.401494 0.400504 0.403006 0.408964 0.41815 0.430165 0.444469 0.460445 0.477427 0.49474 0.511701 0.527609 0.541733 0.553303 0.561555 0.668743 0.627368 0.592236 0.56237 0.536858 0.515013 0.496412 0.480903 0.468557 0.459595 0.454301 0.452924 0.455585 0.462211 0.472504 0.485973 0.501979 0.519819 0.538777 0.55817 0.577352 0.595704 0.612605 0.627367 0.639238 0.742027 0.698371 0.66068 0.628072 0.599761 0.575209 0.554113 0.536412 0.522247 0.511896 0.505684 0.503884 0.506608 0.513744 0.52493 0.539594 0.557029 0.576482 0.597218 0.618567 0.639923 0.660727 0.680424 0.69837 0.713827 0.811861 0.766114 0.726108 0.691033 0.660198 0.633178 0.609778 0.590028 0.574144 0.562461 0.555344 0.553076 0.555759 0.563242 0.57511 0.590737 0.609374 0.630246 0.652619 0.675835 0.699324 0.722561 0.745031 0.766114 0.785098 0.87804 0.830395 0.78829 0.750986 0.717869 0.688601 0.663086 0.641438 0.623941 0.610989 0.602974 0.600193 0.602732 0.610406 0.622768 0.63916 0.658817 0.680957 0.704856 0.729867 0.755437 0.781061 0.806244 0.830392 0.852816 0.94034 0.891 0.847009 0.807689 0.772502 0.741191 0.713741 0.690344 0.671347 0.657188 0.648291 0.644953 0.647249 0.654978 0.667671 0.684661 0.705187 0.728473 0.7538 0.780532 0.808117 0.836059 0.863877 0.890997 0.916753 0.998548 0.947734 0.902058 0.860915 0.823852 0.790684 0.761471 0.736473 0.71609 0.700798 0.691036 0.687105 0.689073 0.696731 0.709612 0.727059 0.748324 0.772647 0.799313 0.827686 0.857209 0.887388 0.917744 0.947729 0.976696 1.05247 1.00041 0.953243 0.910459 0.871698 0.83685 0.806045 0.779593 0.757944 0.741592 0.730986 0.72643 0.72799 0.735467 0.748409 0.766186 0.788075 0.813332 0.841249 0.871183 0.902562 0.934885 0.967675 1.00041 1.03245 1.10196 1.04888 1.0004 0.95614 0.915846 0.879492 0.847262 0.819512 0.796715 0.779375 0.767946 0.762732 0.763808 0.770998 0.783887 0.801884 0.824293 0.850392 0.879475 0.910888 0.944042 0.978414 1.01353 1.04887 1.08386 1.1469 1.09301 1.04338 0.997801 0.956137 0.918446 0.884964 0.856069 0.832239 0.813975 0.801735 0.795824 0.796342 0.803152 0.815888 0.834005 0.856846 0.883704 0.913876 0.946694 0.981545 1.01787 1.05519 1.09301 1.13078 1.18726 1.13273 1.08207 1.0353 0.992434 0.953591 0.919028 0.889128 0.864362 0.845223 0.832165 0.825513 0.825405 0.831756 0.844256 0.862416 0.885616 0.913166 0.944361 0.978518 1.01499 1.05319 1.09259 1.13272 1.17309 1.22302 1.16794 1.11635 1.06853 1.02464 0.984818 0.949332 0.918544 0.892908 0.872918 0.85903 0.851601 0.850817 0.85665 0.868858 0.887004 0.910507 0.938697 0.970863 1.0063 1.04434 1.08433 1.12569 1.16794 1.21069 1.25424 1.19863 1.14615 1.09743 1.05267 1.01203 0.97573 0.944124 0.917658 0.896825 0.882104 0.873883 0.872401 0.87769 0.889572 0.907668 0.931437 0.960229 0.993331 1.03002 1.06957 1.11129 1.1545 1.19863 1.24344 1.28107 1.22481 1.17147 1.12195 1.07645 1.03507 0.998002 0.965607 0.938331 0.916679 0.901148 0.892159 0.889992 0.894742 0.906291 0.924319 0.948331 0.9777 1.01171 1.04963 1.09067 1.13408 1.17907 1.22481 1.27116 1.30397 1.24671 1.19241 1.14212 1.09587 1.05371 1.01587 0.982689 0.954633 0.932212 0.915928 0.906227 0.903427 0.907674 0.918913 0.936878 0.961122 0.991047 1.02596 1.06509 1.10765 1.15278 1.19955 1.24671 1.29379 1.32462 1.26511 1.20937 1.15812 1.11092 1.06786 1.02914 0.995133 0.966295 0.943138 0.92617 0.915847 0.912514 0.916356 0.92736 0.945311 0.9698 1.00026 1.03602 1.07634 1.12041 1.16739 1.21624 1.26511 1.31198 1.34595 1.28146 1.22396 1.17116 1.12254 1.07808 1.03806 1.00289 0.973051 0.949072 0.931455 0.920641 0.916961 0.920592 0.931524 0.949555 0.974301 1.00523 1.04171 1.08304 1.12852 1.17736 1.22873 1.28146 1.32936 1.35657 1.29636 1.23884 1.18439 1.13346 1.08653 1.04416 1.00692 0.975391 0.950146 0.931695 0.920446 0.916666 0.920446 0.931695 0.950146 0.975391 1.00692 1.04416 1.08653 1.13346 1.18439 1.23884 1.29636 1.35657 0 1.11759e-08 7.45058e-09 0 1.49012e-08 0 0 0 0 0 0 0 0 0 0 0 0 0 0 0 0 0 0 0 0 0.0722118 0.0668635 0.0660301 0.0653286 0.0651405 0.0652859 0.0657621 0.0665162 0.0674941 0.0686271 0.0698396 0.0710557 0.0722229 0.0733167 0.0743459 0.0753541 0.0764034 0.0775553 0.0788485 0.0802791 0.0817597 0.083074 0.0836343 0.0822381 0.0722117 0.160091 0.14279 0.137778 0.134807 0.132877 0.131744 0.131263 0.131351 0.131942 0.132967 0.134361 0.136048 0.137965 0.140078 0.142387 0.144933 0.147787 0.151017 0.15466 0.158672 0.162862 0.166778 0.169461 0.168799 0.16009 0.25111 0.226372 0.214346 0.207485 0.202754 0.199405 0.197121 0.195757 0.195234 0.195502 0.196526 0.198272 0.200714 0.203841 0.207661 0.212194 0.217463 0.22346 0.230121 0.237272 0.244572 0.251362 0.256451 0.257458 0.251112 0.341457 0.312586 0.294296 0.28255 0.274232 0.268027 0.263395 0.260101 0.258047 0.257204 0.257581 0.259197 0.262086 0.266265 0.27174 0.278487 0.286436 0.295447 0.305284 0.315584 0.32579 0.335048 0.342041 0.344855 0.341457 0.429864 0.397878 0.374898 0.358458 0.346279 0.336909 0.329646 0.324174 0.320381 0.318267 0.317892 0.319338 0.32268 0.327959 0.335145 0.344129 0.354695 0.366528 0.379196 0.392155 0.404721 0.416014 0.424883 0.430011 0.429863 0.515807 0.481015 0.454369 0.43389 0.417994 0.405422 0.395441 0.387709 0.382114 0.378691 0.377552 0.37883 0.382631 0.388979 0.39778 0.408796 0.421649 0.435848 0.45082 0.465932 0.480493 0.493727 0.504732 0.512555 0.515804 0.598897 0.561556 0.531824 0.507926 0.488656 0.473024 0.460386 0.450418 0.443042 0.43833 0.436439 0.437542 0.441745 0.449032 0.45921 0.47191 0.486609 0.5027 0.519539 0.536486 0.552906 0.568146 0.581501 0.592197 0.598896 0.678901 0.639239 0.606795 0.579953 0.557692 0.539242 0.524087 0.511978 0.502881 0.496916 0.494278 0.495155 0.49964 0.507655 0.518908 0.532916 0.549062 0.566676 0.585099 0.603718 0.621965 0.639289 0.655112 0.668743 0.678901 0.755617 0.71383 0.678967 0.649533 0.624624 0.603622 0.586139 0.572014 0.561279 0.554098 0.550696 0.551269 0.555877 0.564382 0.57641 0.591401 0.60868 0.627561 0.647391 0.6676 0.687672 0.707126 0.725456 0.742026 0.755617 0.828828 0.785099 0.748065 0.716321 0.689055 0.665752 0.646136 0.630132 0.617841 0.609474 0.605282 0.605455 0.610027 0.618802 0.631351 0.647066 0.665249 0.685218 0.706345 0.728085 0.749966 0.771555 0.792384 0.81186 0.828828 0.898303 0.852818 0.813828 0.780011 0.750629 0.725248 0.703682 0.685938 0.672177 0.662656 0.657647 0.657336 0.661728 0.670588 0.683449 0.699684 0.718601 0.739526 0.761858 0.785079 0.808741 0.832433 0.855719 0.878037 0.898301 0.963802 0.916756 0.876013 0.840329 0.809034 0.781771 0.758422 0.739068 0.723924 0.713288 0.707446 0.706582 0.710673 0.719465 0.732469 0.749061 0.768568 0.79034 0.813798 0.838441 0.863834 0.889578 0.915256 0.940336 0.963798 1.0251 0.976702 0.934393 0.897025 0.863998 0.835022 0.810045 0.789208 0.772772 0.761066 0.754388 0.752915 0.756608 0.765194 0.778193 0.795001 0.814974 0.837496 0.862006 0.888008 0.915072 0.942802 0.970793 0.998543 1.02509 1.08199 1.03246 0.988762 0.949872 0.915278 0.884746 0.85829 0.836092 0.818461 0.805742 0.798234 0.796101 0.799299 0.807554 0.82041 0.837303 0.857634 0.880818 0.906309 0.933612 0.962285 0.99193 1.02215 1.05247 1.08198 1.13432 1.08386 1.03895 0.998683 0.962663 0.930724 0.902933 0.879509 0.860781 0.847102 0.838764 0.83592 0.838521 0.846318 0.858903 0.87577 0.896366 0.92014 0.946555 0.975107 1.00533 1.03682 1.06918 1.10195 1.13431 1.18196 1.13078 1.08478 1.04328 1.00597 0.972769 0.943789 0.91927 0.899545 0.884951 0.875772 0.872146 0.874044 0.881265 0.89347 0.910221 0.93102 0.955338 0.982641 1.0124 1.04414 1.0774 1.11179 1.1469 1.18196 1.22486 1.1731 1.12612 1.08349 1.04502 1.01072 0.980703 0.955218 0.934577 0.919092 0.909027 0.904535 0.905628 0.912181 0.923933 0.94052 0.961495 0.986343 1.01452 1.04548 1.07868 1.11364 1.14996 1.18726 1.22486 1.26295 1.21069 1.1628 1.11913 1.07966 1.04442 1.01352 0.987179 0.965664 0.949272 0.938264 0.932832 0.933055 0.938893 0.950172 0.966597 0.987757 1.01315 1.04221 1.07436 1.10901 1.14562 1.18373 1.22302 1.26295 1.2962 1.24344 1.19464 1.15004 1.10974 1.07373 1.04207 1.01492 0.992528 0.975192 0.963201 0.9568 0.95615 0.961293 0.972135 0.988438 1.00982 1.0358 1.06578 1.09914 1.13525 1.17346 1.21323 1.25424 1.2962 1.32456 1.27116 1.22145 1.1761 1.13515 1.09848 1.06608 1.03811 1.01482 0.996529 0.983574 0.976255 0.974802 0.979333 0.989816 1.00606 1.02773 1.05433 1.08528 1.11992 1.15753 1.19737 1.23871 1.28107 1.32456 1.34801 1.29379 1.24326 1.19736 1.15582 1.11845 1.08526 1.05642 1.03223 1.01303 0.999196 0.991071 0.98894 0.992976 1.0032 1.01948 1.04148 1.06876 1.10074 1.13673 1.17599 1.21766 1.2607 1.30397 1.34801 1.36733 1.31198 1.26085 1.21444 1.17211 1.13382 1.09964 1.06981 1.04464 1.02454 1.00988 1.00106 0.998396 1.00208 1.01218 1.02859 1.05101 1.07903 1.11208 1.14952 1.19061 1.23448 1.28 1.32462 1.36733 1.38742 1.32936 1.27781 1.23026 1.18637 1.14624 1.1102 1.07864 1.05199 1.03069 1.01514 1.00572 1.00271 1.00627 1.01646 1.03316 1.05611 1.08491 1.11903 1.1579 1.20087 1.24723 1.29612 1.34595 1.38742 1.41421 1.35657 1.30171 1.25 1.20185 1.1577 1.11803 1.08333 1.05409 1.03078 1.01379 1.00347 0.999999 1.00347 1.01379 1.03078 1.05409 1.08333 1.11803 1.1577 1.20185 1.25 1.30171 1.35657 1.41421 
VECTORS u float
0 0 0  -1.11759e-08 0 0  7.45058e-09 0 0  0 0 0  1.49012e-08 0 0  0 0 0  0 0 0  0 0 0  0 0 0  0 0 0  0 0 0  0 0 0  0 0 0  0 0 0  0 0 0  0 0 0  0 0 0  0 0 0  0 0 0  0 0 0  0 0 0  0 0 0  0 0 0  0 0 0  0 0 0  -0.0266022 0.0072557 0.0667397  -0.0364528 0.00756359 0.0733285  -0.0438345 0.00731305 0.0708517  -0.0503569 0.00697028 0.0657027  -0.0560389 0.00639819 0.0591888  -0.0609284 0.00563307 0.0519676  -0.0650238 0.00470094 0.0443493  -0.0683079 0.00363063 0.0365435  -0.0707572 0.00245332 0.0287169  -0.0723527 0.00120385 0.0210167  -0.0730948 -7.72625e-05 0.0135744  -0.0730146 -0.00134337 0.00650443  -0.0721786 -0.00254461 -0.000103766  -0.0706935 -0.00362845 -0.00618974  -0.0686991 -0.00454436 -0.0117231  -0.0663572 -0.00524782 -0.0167005  -0.0638446 -0.00570097 -0.0211374  -0.061336 -0.00587618 -0.0250526  -0.0590041 -0.00575143 -0.0284596  -0.0570148 -0.0053097 -0.0313592  -0.0555412 -0.00452849 -0.0337329  -0.0547537 -0.00338397 -0.0354741  -0.0550434 -0.00172112 -0.0364305  -0.0567151 0.000520386 -0.0354112  -0.0667413 0.0072556 -0.0266039  -0.0665688 0.0170942 0.144585  -0.0800151 0.0214126 0.147078  -0.0901827 0.0214777 0.141856  -0.0994403 0.0205047 0.132309  -0.107929 0.0187684 0.120511  -0.115626 0.0164947 0.107401  -0.122384 0.0137912 0.0935468  -0.128054 0.010758 0.0793204  -0.132509 0.00749493 0.0650042  -0.135663 0.00410705 0.0508322  -0.13749 0.000705346 0.03701  -0.138031 -0.00259431 0.0237204  -0.137401 -0.00567619 0.0111181  -0.135785 -0.00842797 -0.000677031  -0.133428 -0.0107472 -0.0115843  -0.130606 -0.0125442 -0.0215604  -0.127607 -0.013744 -0.030592  -0.124709 -0.0142828 -0.038683  -0.122185 -0.0141012 -0.0458414  -0.120304 -0.0131319 -0.0520629  -0.119354 -0.0112823 -0.0573019  -0.119709 -0.00837666 -0.0614169  -0.121902 -0.00408447 -0.0640751  -0.127626 0.00286416 -0.0639719  -0.144586 0.0170943 -0.0665692  -0.104439 0.0208815 0.2274  -0.119746 0.0286904 0.226097  -0.132221 0.031652 0.217442  -0.143684 0.0318892 0.203761  -0.154488 0.030339 0.187156  -0.164492 0.0274509 0.168777  -0.173492 0.0235662 0.149331  -0.181273 0.0189447 0.129285  -0.187662 0.0138162 0.109  -0.192544 0.00839525 0.0887784  -0.195873 0.00289147 0.0688978  -0.197694 -0.0024886 0.0496105  -0.198138 -0.00754625 0.0311405  -0.197427 -0.0120962 0.0136734  -0.195854 -0.0159727 -0.00265209  -0.193759 -0.019034 -0.0177477  -0.191496 -0.0211599 -0.0315661  -0.189423 -0.0222435 -0.0440928  -0.187889 -0.022178 -0.0553326  -0.187253 -0.020835 -0.0652948  -0.187912 -0.018028 -0.0739753  -0.19039 -0.0134459 -0.0813652  -0.195577 -0.00648088 -0.0874683  -0.206162 0.00438254 -0.0933919  -0.227402 0.0208813 -0.10444  -0.132887 0.0191807 0.313945  -0.149943 0.0297648 0.309116  -0.165148 0.0358704 0.297368  -0.179416 0.0384432 0.280334  -0.192991 0.0382819 0.259666  -0.205714 0.0359378 0.236607  -0.217341 0.0318691 0.212002  -0.227639 0.0264814 0.186461  -0.23642 0.0201436 0.160453  -0.243562 0.0132004 0.13438  -0.24902 0.005981 0.108603  -0.252845 -0.00119966 0.0834532  -0.25518 -0.00804508 0.0592232  -0.256264 -0.0142844 0.0361605  -0.256416 -0.0196783 0.0144562  -0.256011 -0.0240225 -0.0057608  -0.255448 -0.0271439 -0.0244165  -0.255139 -0.0288889 -0.0414867  -0.255504 -0.0291027 -0.056984  -0.256982 -0.0276066 -0.0709587  -0.260087 -0.0241547 -0.0835063  -0.265524 -0.0183807 -0.0948335  -0.274569 -0.00966392 -0.105486  -0.289767 0.00282072 -0.117198  -0.313949 0.0191816 -0.132888  -0.150159 0.0154554 0.402479  -0.168987 0.0278484 0.394424  -0.187039 0.0362698 0.379765  -0.204566 0.0410333 0.359906  -0.221511 0.04258 0.336031  -0.237632 0.041375 0.309199  -0.25262 0.0378555 0.280247  -0.266194 0.0324577 0.249858  -0.278137 0.0256193 0.218615  -0.288312 0.0177784 0.187039  -0.296676 0.00937018 0.155617  -0.303286 0.000817463 0.124789  -0.308303 -0.00747921 0.0949483  -0.311985 -0.0151561 0.0664166  -0.314672 -0.0218926 0.0394433  -0.316763 -0.0274154 0.0141972  -0.318693 -0.0314949 -0.00922896  -0.320915 -0.0339283 -0.0308071  -0.323907 -0.0345201 -0.0505695  -0.328184 -0.0330574 -0.0686141  -0.334368 -0.0292784 -0.0851352  -0.343319 -0.0228382 -0.100502  -0.356417 -0.0133098 -0.115482  -0.375519 -0.000461638 -0.131495  -0.402485 0.0154562 -0.150161  -0.156013 0.0113872 0.491503  -0.176628 0.0249116 0.480506  -0.197541 0.0348495 0.463152  -0.218533 0.041248 0.440796  -0.239256 0.0442864 0.414325  -0.259326 0.0442852 0.384549  -0.278348 0.0416058 0.352175  -0.295966 0.0366432 0.317841  -0.311902 0.0298299 0.28216  -0.325972 0.0216329 0.245738  -0.338104 0.0125489 0.209181  -0.348344 0.00308147 0.173062  -0.356858 -0.00627694 0.137903  -0.36392 -0.0150724 0.104137  -0.369892 -0.0229014 0.0720937  -0.375199 -0.0294216 0.0419931  -0.380307 -0.0343444 0.0139551  -0.385708 -0.0374205 -0.0119882  -0.391927 -0.0384205 -0.035887  -0.399544 -0.0371143 -0.0578791  -0.409257 -0.03325 -0.0782176  -0.421992 -0.0265547 -0.0973416  -0.43899 -0.0168119 -0.115992  -0.4616 -0.00407247 -0.135207  -0.491511 0.0113887 -0.156014  -0.150447 0.00779113 0.579631  -0.172955 0.0219664 0.565945  -0.196788 0.0328341 0.546198  -0.221363 0.0403253 0.521684  -0.246109 0.0444764 0.493106  -0.270499 0.0454854 0.46106  -0.294044 0.043633 0.426089  -0.316311 0.0392561 0.388729  -0.336946 0.032747 0.349544  -0.355693 0.0245575 0.309152  -0.372419 0.0151984 0.268225  -0.387125 0.00521526 0.22745  -0.399953 -0.00483567 0.187482  -0.411173 -0.0144255 0.148886  -0.42116 -0.0230759 0.112102  -0.430359 -0.0303786 0.0774298  -0.43927 -0.0359895 0.0450324  -0.448418 -0.0396177 0.01496  -0.458372 -0.0410062 -0.0128408  -0.469757 -0.0399184 -0.0385263  -0.483308 -0.0361265 -0.0623701  -0.499929 -0.0294367 -0.0848069  -0.520681 -0.0197724 -0.10647  -0.546694 -0.00727314 -0.128126  -0.579638 0.00779346 -0.150448  -0.133666 0.0049797 0.665588  -0.158235 0.0194678 0.649456  -0.185084 0.0308633 0.627659  -0.213337 0.0390315 0.601373  -0.242259 0.0439351 0.571154  -0.271203 0.045694 0.537434  -0.299598 0.044521 0.500596  -0.326938 0.0407012 0.461057  -0.352794 0.0345827 0.419293  -0.376832 0.0265852 0.375881  -0.39884 0.0172059 0.331502  -0.418748 0.00699955 0.2869  -0.436642 -0.00344452 0.242839  -0.452755 -0.0135458 0.200011  -0.467453 -0.0227666 0.158983  -0.48119 -0.0306416 0.120156  -0.494484 -0.0367779 0.0837642  -0.507894 -0.0408488 0.0498978  -0.522022 -0.0425761 0.0185221  -0.537517 -0.0417218 -0.0105124  -0.555123 -0.0380841 -0.0374686  -0.575684 -0.0315285 -0.0627398  -0.600143 -0.022043 -0.0868428  -0.629564 -0.00978413 -0.11035  -0.665593 0.00498223 -0.133667  -0.106001 0.00296515 0.748133  -0.132839 0.0175523 0.729823  -0.162822 0.0292139 0.706338  -0.194839 0.0377716 0.678698  -0.228032 0.0431498 0.647323  -0.261671 0.0454222 0.612497  -0.295118 0.0447544 0.574471  -0.327805 0.0413888 0.533536  -0.359235 0.0356376 0.490071  -0.388999 0.0278892 0.444582  -0.416802 0.0186164 0.397713  -0.44249 0.00836632 0.350224  -0.46607 -0.00226226 0.302935  -0.487715 -0.0126597 0.256642  -0.507748 -0.0222474 0.21203  -0.526608 -0.0305157 0.169613  -0.544819 -0.0370315 0.129718  -0.562957 -0.0414389 0.0924996  -0.581641 -0.0434442 0.0579645  -0.601535 -0.042809 0.0259953  -0.623369 -0.0393511 -0.00363719  -0.64794 -0.032968 -0.0312664  -0.676129 -0.0236673 -0.0573002  -0.708989 -0.0116017 -0.082152  -0.748137 0.00296658 -0.106002  -0.0679136 0.00160372 0.826034  -0.0972456 0.0161747 0.805848  -0.130484 0.0279478 0.781063  -0.166335 0.0367152 0.752513  -0.203857 0.042381 0.720481  -0.242264 0.0449893 0.68512  -0.280866 0.0446754 0.646559  -0.319049 0.0416511 0.604974  -0.356261 0.0362014 0.560644  -0.392023 0.0286885 0.513989  -0.425961 0.0195637 0.465594  -0.457834 0.00935826 0.416191  -0.487561 -0.00133091 0.366623  -0.515235 -0.0118824 0.317746  -0.541114 -0.0216932 0.270342  -0.565595 -0.0302215 0.225032  -0.589184 -0.0370044 0.182246  -0.612452 -0.0416623 0.14222  -0.636024 -0.0438891 0.105025  -0.660566 -0.0434458 0.0705955  -0.686786 -0.0401598 0.0387562  -0.715454 -0.0339384 0.00924606  -0.747428 -0.02479 -0.0182388  -0.783758 -0.0128581 -0.0439694  -0.826036 0.00160447 -0.0679152  -0.0200204 0.000690907 0.898073  -0.0520603 0.0152013 0.876356  -0.0886595 0.0270095 0.85068  -0.128393 0.0358893 0.821683  -0.170263 0.0417316 0.78951  -0.213448 0.0445602 0.754188  -0.25723 0.0444926 0.715736  -0.300958 0.0417188 0.674225  -0.344033 0.0365031 0.629834  -0.385921 0.0291898 0.582895  -0.426175 0.0202107 0.533916  -0.464472 0.0100816 0.483578  -0.500641 -0.000608325 0.432709  -0.534683 -0.0112352 0.382192  -0.566778 -0.0211826 0.332875  -0.597259 -0.0298882 0.285469  -0.626588 -0.0368662 0.240503  -0.655315 -0.041719 0.198303  -0.684051 -0.0441288 0.159021  -0.713449 -0.0438525 0.122663  -0.744201 -0.0407189 0.0891205  -0.77706 -0.0346337 0.0582156  -0.812877 -0.0255961 0.0297521  -0.852694 -0.0137405 0.00359437  -0.898074 0.000689924 -0.0200214  0.0369015 1.90735e-06 0.963088  0.00197035 0.0144551 0.94022  -0.0380655 0.026278 0.914083  -0.0816973 0.0352335 0.885114  -0.127897 0.0412013 0.853317  -0.175822 0.0441909 0.818605  -0.224735 0.044307 0.780895  -0.273963 0.0417258 0.74016  -0.322872 0.0366985 0.69649  -0.370883 0.0295548 0.650123  -0.417488 0.0207101 0.601481  -0.46229 0.0106655 0.551178  -0.505031 -1.2219e-06 0.499993  -0.545623 -0.0106678 0.448809  -0.584153 -0.0207117 0.398506  -0.620879 -0.0295566 0.349864  -0.656201 -0.0366998 0.303497  -0.690624 -0.0417264 0.259827  -0.724729 -0.0443073 0.219093  -0.759148 -0.0441913 0.181383  -0.794556 -0.041201 0.146671  -0.831689 -0.0352333 0.114874  -0.871389 -0.0262764 0.0859054  -0.914686 -0.0144533 0.059768  -0.963088 3.57628e-07 0.0368998  0.101916 -0.00068897 1.02001  0.0639612 0.0137412 0.996396  0.0204475 0.0255966 0.970239  -0.0270689 0.0346342 0.941775  -0.0775439 0.0407197 0.910871  -0.130123 0.0438526 0.877327  -0.184058 0.0441285 0.840968  -0.238655 0.0417185 0.801686  -0.293261 0.0368651 0.759485  -0.347264 0.0298862 0.714517  -0.400115 0.0211805 0.667111  -0.451352 0.0112331 0.617794  -0.500642 0.000606 0.567277  -0.547806 -0.010084 0.516408  -0.592842 -0.0202121 0.466072  -0.63592 -0.0291915 0.417092  -0.677363 -0.0365048 0.370153  -0.71762 -0.0417198 0.325763  -0.757225 -0.0444933 0.284252  -0.796776 -0.044561 0.2458  -0.836925 -0.0417321 0.210477  -0.878386 -0.0358889 0.178304  -0.921985 -0.0270085 0.149307  -0.968719 -0.0152003 0.12363  -1.02001 -0.000689685 0.101914  0.173953 -0.0016045 1.06791  0.132898 0.0128576 1.04396  0.0858968 0.0247893 1.01823  0.034538 0.0339388 0.990746  -0.0201277 0.0401599 0.961235  -0.0772412 0.0434456 0.929395  -0.136033 0.0438887 0.894965  -0.195795 0.041662 0.85777  -0.255858 0.0370031 0.817742  -0.315602 0.0302202 0.774956  -0.374452 0.0216916 0.729646  -0.431905 0.0118806 0.682242  -0.487564 0.00132912 0.633364  -0.541168 -0.00935984 0.583796  -0.592629 -0.0195648 0.534395  -0.642023 -0.0286899 0.485999  -0.689593 -0.0362029 0.439343  -0.735714 -0.0416528 0.395013  -0.780862 -0.0446763 0.353428  -0.825593 -0.0449902 0.314867  -0.87052 -0.0423825 0.279505  -0.91633 -0.0367151 0.247474  -0.963811 -0.0279478 0.218924  -1.01391 -0.0161747 0.194138  -1.06791 -0.00160313 0.173952  0.251853 -0.00296676 1.10599  0.207667 0.0116017 1.08214  0.157193 0.023668 1.05729  0.102051 0.0329687 1.03126  0.0432885 0.0393518 1.00363  -0.0182116 0.0428082 0.973996  -0.0816499 0.0434434 0.942026  -0.146299 0.0414377 0.90749  -0.211495 0.0370303 0.870271  -0.276615 0.0305146 0.830377  -0.341087 0.0222459 0.787958  -0.404386 0.0126578 0.743345  -0.466073 0.00226063 0.697052  -0.525825 -0.00836724 0.649765  -0.583471 -0.0186172 0.602276  -0.639001 -0.0278902 0.555407  -0.692568 -0.0356385 0.509918  -0.744471 -0.0413905 0.466453  -0.795117 -0.0447557 0.425518  -0.845003 -0.0454237 0.38749  -0.894695 -0.0431519 0.352662  -0.944835 -0.0377727 0.321287  -0.996151 -0.0292149 0.293647  -1.0495 -0.0175533 0.270162  -1.106 -0.00296593 0.251852  0.334397 -0.00498319 1.13366  0.287092 0.00978327 1.11034  0.233181 0.0220428 1.08684  0.174307 0.0315282 1.06273  0.111534 0.0380846 1.03746  0.0458047 0.0417211 1.0105  -0.0220318 0.0425758 0.981469  -0.091238 0.0408479 0.950093  -0.16116 0.0367771 0.916227  -0.231198 0.0306407 0.879835  -0.300794 0.0227655 0.841007  -0.369428 0.013544 0.799978  -0.436646 0.00344336 0.757151  -0.502084 -0.00700051 0.713089  -0.565508 -0.0172064 0.668489  -0.626833 -0.0265862 0.624108  -0.686128 -0.0345833 0.580696  -0.743605 -0.0407023 0.538931  -0.799597 -0.0445221 0.499391  -0.854533 -0.0456945 0.462553  -0.908922 -0.0439367 0.42883  -0.963334 -0.0390337 0.398611  -1.01841 -0.0308651 0.372326  -1.0749 -0.019469 0.350529  -1.13366 -0.00498098 0.334397  0.420352 -0.00779474 1.15044  0.369964 0.00727141 1.12812  0.312644 0.0197713 1.10647  0.250063 0.0294355 1.0848  0.18335 0.0361254 1.06237  0.113567 0.0399175 1.03852  0.0416181 0.0410062 1.01284  -0.031761 0.0396171 0.985033  -0.105946 0.0359891 0.954961  -0.180369 0.0303778 0.922563  -0.254501 0.0230752 0.887889  -0.327847 0.0144237 0.851104  -0.39996 0.00483447 0.812508  -0.470463 -0.00521642 0.772538  -0.539088 -0.015199 0.731764  -0.605696 -0.0245589 0.690836  -0.670282 -0.0327477 0.650445  -0.73298 -0.0392572 0.611259  -0.794044 -0.0436338 0.573898  -0.853831 -0.045486 0.538926  -0.912773 -0.0444772 0.506878  -0.97136 -0.0403271 0.478299  -1.03012 -0.0328354 0.453787  -1.08962 -0.0219671 0.43404  -1.15044 -0.00779212 0.420354  0.508479 -0.0113883 1.15601  0.455057 0.00407201 1.1352  0.394333 0.0168108 1.11599  0.327998 0.0265539 1.09734  0.257399 0.0332494 1.07821  0.18378 0.0371136 1.05787  0.108064 0.0384197 1.03588  0.0309493 0.0374199 1.01198  -0.0469826 0.0343438 0.98604  -0.125209 0.0294206 0.958  -0.203234 0.0229006 0.927899  -0.280595 0.0150713 0.895855  -0.356866 0.00627577 0.862088  -0.431683 -0.00308204 0.826929  -0.504776 -0.0125496 0.790811  -0.575976 -0.021634 0.754252  -0.645239 -0.0298311 0.717829  -0.712635 -0.0366439 0.682149  -0.778349 -0.0416065 0.647813  -0.84266 -0.0442858 0.615437  -0.905922 -0.0442871 0.58566  -0.968532 -0.0412493 0.559187  -1.03087 -0.0348504 0.536833  -1.09329 -0.0249127 0.519479  -1.15601 -0.0113872 0.508482  0.597507 -0.0154563 1.15016  0.54114 0.000460923 1.13149  0.476908 0.0133088 1.11548  0.406673 0.022837 1.1005  0.332291 0.0292773 1.08513  0.255141 0.0330563 1.06861  0.176084 0.0345199 1.05057  0.0957412 0.0339277 1.0308  0.0146328 0.0314946 1.00922  -0.0667722 0.0274143 0.985798  -0.148013 0.0218916 0.960551  -0.228659 0.0151553 0.933577  -0.30831 0.00747901 0.905046  -0.386627 -0.000817835 0.875205  -0.463349 -0.0093708 0.844376  -0.538317 -0.0177791 0.812953  -0.611475 -0.0256208 0.781376  -0.682863 -0.032458 0.750133  -0.752622 -0.0378557 0.719744  -0.820967 -0.0413758 0.690791  -0.888179 -0.042581 0.663957  -0.954567 -0.0410348 0.640081  -1.02037 -0.0362706 0.620221  -1.08565 -0.0278487 0.605562  -1.15016 -0.0154552 0.597507  0.686044 -0.0191822 1.13289  0.626892 -0.00282133 1.1172  0.558757 0.00966233 1.10549  0.48447 0.01838 1.09483  0.406573 0.0241536 1.0835  0.326343 0.0276054 1.07096  0.244487 0.0291021 1.05698  0.161519 0.0288882 1.04148  0.0778778 0.0271436 1.02441  -0.0060187 0.0240213 1.00576  -0.0897574 0.0196776 0.98554  -0.172937 0.014284 0.963835  -0.255186 0.00804508 0.940773  -0.336183 0.00119948 0.916541  -0.415693 -0.0059815 0.891391  -0.493568 -0.0132011 0.865614  -0.569759 -0.0201451 0.83954  -0.64431 -0.026482 0.813533  -0.717344 -0.0318692 0.787991  -0.78905 -0.0359383 0.763385  -0.859659 -0.0382824 0.740324  -0.929417 -0.0384435 0.719654  -0.998482 -0.0358706 0.702619  -1.06661 -0.0297644 0.690872  -1.13289 -0.0191808 0.686042  0.77259 -0.0208818 1.10444  0.710498 -0.00438285 1.09339  0.637748 0.0064795 1.08747  0.559604 0.0134459 1.08137  0.478749 0.0180277 1.07398  0.396072 0.0208333 1.06529  0.312104 0.0221769 1.05533  0.227239 0.0222428 1.04409  0.141833 0.0211598 1.03156  0.0562364 0.0190338 1.01775  -0.0291926 0.0159728 1.00265  -0.114098 0.0120963 0.986325  -0.198142 0.0075466 0.968857  -0.281031 0.00248855 0.950386  -0.362545 -0.00289184 0.931099  -0.44255 -0.00839591 0.911217  -0.521001 -0.0138171 0.890995  -0.597943 -0.0189447 0.87071  -0.673495 -0.023566 0.850664  -0.747829 -0.0274514 0.831217  -0.821157 -0.030339 0.812838  -0.893686 -0.0318896 0.796231  -0.965557 -0.031652 0.782548  -1.03641 -0.0286898 0.773893  -1.10444 -0.020881 0.772589  0.855408 -0.0170935 1.06657  0.789035 -0.00286317 1.06397  0.711425 0.00408435 1.06408  0.630284 0.00837654 1.06142  0.547307 0.0112826 1.0573  0.463024 0.0131315 1.05207  0.377811 0.0141001 1.04584  0.291954 0.0142819 1.03868  0.205725 0.0137443 1.03059  0.119391 0.0125441 1.02156  0.0332355 0.0107468 1.01158  -0.0524545 0.00842839 1.00068  -0.137403 0.00567651 0.988881  -0.221368 0.00259423 0.976277  -0.304162 -0.000705779 0.962988  -0.385668 -0.00410759 0.949166  -0.465846 -0.00749511 0.934993  -0.544724 -0.0107579 0.920678  -0.622388 -0.0137914 0.906451  -0.698963 -0.0164948 0.892595  -0.774598 -0.0187684 0.879485  -0.849443 -0.0205051 0.867687  -0.923519 -0.0214784 0.85814  -0.996684 -0.021413 0.852916  -1.06657 -0.0170951 0.855408  0.933256 -0.00725543 1.02661  0.859949 -0.000519872 1.03541  0.778286 0.00172085 1.03643  0.695243 0.00338382 1.03548  0.611124 0.00452888 1.03373  0.526317 0.00530982 1.03136  0.440993 0.00575119 1.02846  0.355328 0.00587559 1.02505  0.269489 0.0057013 1.02114  0.183642 0.00524771 1.0167  0.0979669 0.00454426 1.01172  0.0126387 0.00362855 1.00619  -0.0721799 0.00254482 1.0001  -0.15635 0.00134319 0.993494  -0.239764 7.69496e-05 0.986425  -0.322355 -0.00120401 0.978983  -0.404092 -0.00245321 0.971283  -0.484976 -0.00363052 0.963457  -0.565026 -0.00470102 0.95565  -0.644263 -0.005633 0.948032  -0.722707 -0.00639808 0.940811  -0.800359 -0.00697047 0.934295  -0.877169 -0.00731307 0.929147  -0.953121 -0.00756353 0.926668  -1.0266 -0.00725567 0.933256  1 0 1  0.916667 0 1  0.833333 0 1  0.75 0 1  0.666667 0 1  0.583333 0 1  0.5 0 1  0.416667 0 1  0.333333 0 1  0.25 0 1  0.166667 0 1  0.0833333 0 1  0 0 1  -0.0833334 0 1  -0.166667 0 1  -0.25 0 1  -0.333333 0 1  -0.416667 0 1  -0.5 0 1  -0.583333 0 1  -0.666667 0 1  -0.75 0 1  -0.833333 0 1  -0.916667 0 1  -1 0 1  0 0 -1.11759e-08  -1.11759e-08 0 -1.11759e-08  7.45058e-09 0 -1.11759e-08  0 0 -1.11759e-08  1.49012e-08 0 -1.11759e-08  0 0 -1.11759e-08  0 0 -1.11759e-08  0 0 -1.11759e-08  0 0 -1.11759e-08  0 0 -1.11759e-08  0 0 -1.11759e-08  0 0 -1.11759e-08  0 0 -1.11759e-08  0 0 -1.11759e-08  0 0 -1.11759e-08  0 0 -1.11759e-08  0 0 -1.11759e-08  0 0 -1.11759e-08  0 0 -1.11759e-08  0 0 -1.11759e-08  0 0 -1.11759e-08  0 0 -1.11759e-08  0 0 -1.11759e-08  0 0 -1.11759e-08  0 0 -1.11759e-08  -0.0354111 0.000520423 0.0567137  -0.0397456 0.00225522 0.0637757  -0.0427849 0.00268938 0.0619771  -0.046039 0.00298378 0.0576361  -0.0493384 0.00302153 0.0521335  -0.0525291 0.002877 0.0460765  -0.0554503 0.00258303 0.0397207  -0.0579851 0.0021694 0.0332184  -0.06005 0.0016614 0.0266808  -0.061595 0.00108683 0.0202029  -0.0626006 0.000476141 0.0138669  -0.0630815 -0.000136036 0.00774133  -0.0630843 -0.000714015 0.00187702  -0.0626817 -0.00122496 -0.00369435  -0.0619659 -0.00164123 -0.0089551  -0.0610448 -0.00194041 -0.0138976  -0.060031 -0.00210779 -0.0185151  -0.0590511 -0.00212894 -0.0227984  -0.0582419 -0.00198998 -0.0267339  -0.0577605 -0.00167277 -0.030308  -0.0578014 -0.00114674 -0.0335108  -0.0585858 -0.000378937 -0.036291  -0.0605649 0.000798617 -0.038634  -0.0637769 0.00225512 -0.0397454  -0.0733289 0.00756319 -0.0364539  -0.0639715 0.00286397 0.127624  -0.0744969 0.00812812 0.130516  -0.0826979 0.00985528 0.127131  -0.0901752 0.0105225 0.119648  -0.096985 0.0103831 0.109892  -0.103137 0.00964974 0.0987477  -0.108558 0.00846107 0.0867769  -0.113166 0.00693126 0.0743364  -0.116893 0.00516037 0.0616825  -0.119705 0.00324395 0.0490161  -0.121606 0.00127393 0.0365027  -0.122649 -0.000657618 0.0242832  -0.122932 -0.00246295 0.0124726  -0.122588 -0.00406169 0.00115884  -0.121779 -0.00538402 -0.00959377  -0.120685 -0.00636908 -0.0197387  -0.119495 -0.00696548 -0.0292403  -0.118414 -0.00712173 -0.0380688  -0.117657 -0.00677981 -0.0461995  -0.117471 -0.0058634 -0.053613  -0.118146 -0.00425731 -0.0602852  -0.120067 -0.00176126 -0.0661782  -0.123729 0.00198518 -0.0711075  -0.130517 0.00812775 -0.0744971  -0.14708 0.0214124 -0.0800156  -0.0933913 0.00438216 0.206159  -0.107114 0.0125586 0.205325  -0.118461 0.0165406 0.198564  -0.128742 0.0181397 0.187334  -0.138281 0.0181751 0.173249  -0.14702 0.0170516 0.157319  -0.15485 0.015062 0.140177  -0.161652 0.0124327 0.122265  -0.167343 0.00935838 0.103915  -0.171886 0.00601584 0.0854047  -0.175299 0.00256939 0.0669728  -0.177656 -0.000824839 0.0488338  -0.179086 -0.00402135 0.0311749  -0.179762 -0.00688742 0.0141534  -0.17989 -0.0093046 -0.00210493  -0.179702 -0.0111656 -0.0175054  -0.179443 -0.0123723 -0.0319767  -0.179374 -0.0128245 -0.0454701  -0.179776 -0.0124085 -0.0579581  -0.180962 -0.0109787 -0.0694344  -0.183309 -0.00832329 -0.0799173  -0.187318 -0.00409848 -0.0894547  -0.193823 0.00232202 -0.0981954  -0.205327 0.0125584 -0.107115  -0.2261 0.0286902 -0.119747  -0.117197 0.0028196 0.289764  -0.132803 0.013433 0.285311  -0.146652 0.0199261 0.275118  -0.159544 0.0232427 0.260183  -0.171735 0.0241891 0.241948  -0.183151 0.0233148 0.221453  -0.193623 0.0210401 0.19941  -0.202994 0.0177162 0.176324  -0.211151 0.0136472 0.152587  -0.218039 0.00910747 0.12853  -0.22367 0.00434697 0.104454  -0.228125 -0.00040251 0.0806388  -0.231548 -0.00492987 0.0573356  -0.234133 -0.0090438 0.0347688  -0.236116 -0.0125732 0.0131258  -0.237761 -0.0153616 -0.00744657  -0.239356 -0.0172618 -0.026841  -0.241208 -0.0181241 -0.0449915  -0.243656 -0.0177817 -0.0618743  -0.247084 -0.0160305 -0.0775171  -0.251964 -0.0125924 -0.0920131  -0.258963 -0.00705838 -0.105581  -0.26929 0.00125907 -0.118736  -0.285314 0.0134342 -0.132805  -0.309119 0.0297658 -0.149944  -0.131493 -0.000462547 0.375513  -0.148779 0.0119057 0.367669  -0.165149 0.0204907 0.354269  -0.180942 0.0256462 0.336109  -0.196182 0.027907 0.314312  -0.210716 0.0277897 0.289836  -0.224329 0.0257531 0.263414  -0.236823 0.0222192 0.235613  -0.248057 0.0175782 0.206894  -0.257957 0.0121948 0.177662  -0.266526 0.00640814 0.148284  -0.273842 0.000532001 0.119108  -0.28005 -0.00514975 0.0904518  -0.285357 -0.0103813 0.0626041  -0.290012 -0.0149353 0.0358106  -0.294301 -0.0186052 0.010268  -0.298541 -0.0211966 -0.0138821  -0.303078 -0.0225151 -0.0365569  -0.308301 -0.0223508 -0.0577379  -0.31466 -0.0204601 -0.0774842  -0.322727 -0.016539 -0.0959599  -0.33331 -0.0101849 -0.113495  -0.347705 -0.000857741 -0.130727  -0.367673 0.0119066 -0.148781  -0.394429 0.0278491 -0.168989  -0.135205 -0.00407365 0.461594  -0.154221 0.00942126 0.450615  -0.173221 0.019483 0.434267  -0.192176 0.0261502 0.41328  -0.210866 0.0297028 0.388517  -0.229014 0.0305319 0.360761  -0.246332 0.0290519 0.33068  -0.262571 0.0256875 0.298844  -0.277548 0.0208636 0.26576  -0.291161 0.0150027 0.231898  -0.303392 0.0085144 0.197702  -0.314306 0.00178859 0.1636  -0.324045 -0.00481732 0.129986  -0.332816 -0.0109805 0.0972196  -0.340876 -0.0164141 0.0656071  -0.348526 -0.020861 0.0353945  -0.3561 -0.0240831 0.00675908  -0.363976 -0.0258474 -0.0201967  -0.372581 -0.0259126 -0.0454535  -0.382424 -0.0240151 -0.0690882  -0.394145 -0.0198535 -0.0912974  -0.408613 -0.0130823 -0.112444  -0.427001 -0.00336181 -0.133129  -0.45062 0.00942248 -0.154223  -0.480513 0.0249131 -0.176629  -0.128125 -0.00727436 0.546688  -0.149016 0.00686944 0.532808  -0.170782 0.0178737 0.513793  -0.193101 0.025614 0.490329  -0.215547 0.0302117 0.463101  -0.237709 0.0319296 0.432714  -0.259219 0.0311047 0.399717  -0.279762 0.0281196 0.364624  -0.299103 0.0233897 0.327937  -0.317091 0.0173537 0.290157  -0.333672 0.0104626 0.251794  -0.348886 0.00316164 0.21335  -0.362854 -0.00412738 0.175304  -0.375778 -0.0110175 0.138092  -0.387911 -0.0171632 0.102091  -0.399561 -0.0222561 0.0676052  -0.411076 -0.0260185 0.0348487  -0.422854 -0.0281842 0.00395226  -0.435353 -0.028491 -0.0250528  -0.449117 -0.0266691 -0.0522403  -0.46482 -0.0224382 -0.0778048  -0.483312 -0.0155256 -0.102087  -0.505611 -0.00574595 -0.125604  -0.532813 0.0068706 -0.149017  -0.56595 0.0219681 -0.172956  -0.110349 -0.00978595 0.62956  -0.133316 0.00467274 0.613016  -0.158005 0.0162275 0.591651  -0.18386 0.0246599 0.566078  -0.210287 0.0300059 0.536853  -0.236762 0.0324376 0.504424  -0.262833 0.0322187 0.469212  -0.288123 0.029676 0.43164  -0.312335 0.0251895 0.392164  -0.335262 0.0191858 0.351279  -0.356798 0.0121257 0.309524  -0.376937 0.00448585 0.267458  -0.395768 -0.00326559 0.225636  -0.413466 -0.0106869 0.184575  -0.430275 -0.0173788 0.144728  -0.446497 -0.0229848 0.106461  -0.462488 -0.0271885 0.0700414  -0.478655 -0.0296971 0.0356337  -0.495475 -0.0302341 0.00329605  -0.513507 -0.028532 -0.0270235  -0.533423 -0.0243377 -0.0554929  -0.556024 -0.0174421 -0.0824059  -0.582217 -0.00774598 -0.108183  -0.61302 0.0046744 -0.133316  -0.64946 0.0194697 -0.158235  -0.0821513 -0.0116033 0.708987  -0.107437 0.00296041 0.690046  -0.135219 0.0148032 0.666685  -0.16476 0.0236495 0.639413  -0.195335 0.0294895 0.608665  -0.22633 0.0324408 0.574757  -0.257225 0.0327122 0.53799  -0.28758 0.0305825 0.49869  -0.317042 0.0263891 0.457238  -0.345342 0.0205324 0.414097  -0.372314 0.0134618 0.369798  -0.397895 0.00566211 0.32493  -0.422123 -0.00237069 0.280101  -0.445133 -0.0101555 0.235899  -0.467141 -0.0172473 0.192852  -0.488435 -0.023246 0.151398  -0.509361 -0.0278002 0.111861  -0.530332 -0.0305938 0.0744532  -0.551825 -0.0313398 0.0392719  -0.574398 -0.0297758 0.00630218  -0.598704 -0.025674 -0.024583  -0.625493 -0.0188672 -0.053617  -0.655612 -0.00929356 -0.0811216  -0.690048 0.00296232 -0.107438  -0.729826 0.0175537 -0.13284  -0.0439685 -0.0128594 0.783757  -0.0718317 0.00169697 0.762733  -0.102873 0.0136697 0.737762  -0.136226 0.0227493 0.709233  -0.171071 0.0288993 0.677456  -0.206725 0.032207 0.642633  -0.242609 0.0328462 0.604953  -0.278235 0.0310594 0.564649  -0.313195 0.0271486 0.522019  -0.347167 0.0214853 0.477473  -0.379919 0.0144958 0.431509  -0.411326 0.00665849 0.384716  -0.441364 -0.00152156 0.337728  -0.470114 -0.00953844 0.291185  -0.497749 -0.0169127 0.245681  -0.524524 -0.0232078 0.20172  -0.550768 -0.0280396 0.159693  -0.576881 -0.031071 0.119869  -0.603331 -0.0320058 0.0823944  -0.630662 -0.0305861 0.047302  -0.659499 -0.0265999 0.0145185  -0.690554 -0.019902 -0.0161205  -0.724643 -0.0104424 -0.0448361  -0.762734 0.00169787 -0.0718326  -0.80585 0.0161757 -0.0972469  0.0035947 -0.0137402 0.852692  -0.0270926 0.000763237 0.829945  -0.0615447 0.012784 0.803784  -0.0988084 0.0219932 0.774469  -0.138 0.0283379 0.74218  -0.178385 0.0318867 0.707011  -0.219344 0.0327941 0.669053  -0.260345 0.031278 0.628445  -0.300935 0.0276167 0.585415  -0.340742 0.0221545 0.540301  -0.379479 0.0152935 0.493556  -0.416954 0.00749531 0.44574  -0.453079 -0.000739187 0.39749  -0.487869 -0.0088931 0.34947  -0.521441 -0.0164641 0.302321  -0.554006 -0.022986 0.25661  -0.585858 -0.0280464 0.21279  -0.617372 -0.0312867 0.171194  -0.648996 -0.0324005 0.132026  -0.681249 -0.0311293 0.095376  -0.714728 -0.0272682 0.0612343  -0.750116 -0.0206788 0.0295137  -0.788204 -0.0113102 9.55425e-05  -0.829947 0.000763535 -0.0270942  -0.876358 0.0152012 -0.0520621  0.0597681 -0.0144536 0.914685  0.0260433 4.76837e-07 0.890613  -0.0119373 0.012042 0.863707  -0.053176 0.0213346 0.834091  -0.0967477 0.0278133 0.80182  -0.141883 0.0315349 0.766878  -0.187929 0.0326422 0.729266  -0.234319 0.0313427 0.689045  -0.280563 0.0278992 0.646366  -0.326245 0.0226352 0.601505  -0.37103 0.0159296 0.554852  -0.414671 0.00822163 0.506922  -0.457013 -1.2815e-06 0.458327  -0.498004 -0.00822425 0.409732  -0.537696 -0.0159321 0.361803  -0.576242 -0.0226368 0.315151  -0.613892 -0.027901 0.270288  -0.65098 -0.0313433 0.227612  -0.687923 -0.0326435 0.18739  -0.72521 -0.0315359 0.149778  -0.763407 -0.0278139 0.114837  -0.803168 -0.021335 0.0825652  -0.845261 -0.0120414 0.0529496  -0.890613 6.55651e-07 0.0260427  -0.940221 0.0144542 0.00196942  0.123631 -0.0152014 0.96872  0.0867094 -0.000763535 0.943752  0.0451198 0.0113093 0.916562  -0.000124648 0.0206788 0.887145  -0.0480704 0.0272684 0.855424  -0.0979238 0.0311285 0.821281  -0.149003 0.0323992 0.784631  -0.200712 0.0312856 0.745463  -0.25253 0.0280449 0.703866  -0.30401 0.0229844 0.660046  -0.354777 0.016462 0.614334  -0.404537 0.00889075 0.567185  -0.453079 0.000736713 0.519165  -0.500288 -0.00749767 0.470915  -0.546145 -0.0152956 0.423099  -0.590741 -0.0221562 0.376355  -0.634266 -0.0276189 0.33124  -0.677007 -0.0312784 0.288212  -0.719339 -0.0327955 0.247603  -0.761713 -0.0318885 0.209643  -0.804661 -0.0283394 0.174474  -0.848801 -0.0219939 0.142185  -0.89487 -0.0127836 0.11287  -0.943752 -0.000762403 0.0867091  -0.996396 0.0137406 0.06396  0.194139 -0.0161751 1.01391  0.153922 -0.00169814 0.988491  0.108681 0.0104416 0.961493  0.0594363 0.0199022 0.932779  0.0071585 0.0266 0.902139  -0.0473384 0.0305852 0.869354  -0.10334 0.0320047 0.834261  -0.160224 0.0310696 0.796787  -0.217442 0.0280383 0.756963  -0.274529 0.0232063 0.714936  -0.331086 0.0169107 0.670974  -0.386784 0.00953627 0.62547  -0.441366 0.0015195 0.578928  -0.49466 -0.00666058 0.53194  -0.546587 -0.0144976 0.485146  -0.597167 -0.0214873 0.439182  -0.646528 -0.0271512 0.394634  -0.6949 -0.0310604 0.352007  -0.742606 -0.0328479 0.3117  -0.790054 -0.0322092 0.27402  -0.837734 -0.0289012 0.239197  -0.88622 -0.0227505 0.20742  -0.9362 -0.0136704 0.178891  -0.988492 -0.00169688 0.153922  -1.04396 0.0128587 0.132896  0.270164 -0.017554 1.0495  0.226608 -0.00296253 1.0241  0.17771 0.00929409 0.997782  0.124497 0.0188672 0.970276  0.0679534 0.0256741 0.941242  0.00892556 0.029775 0.910356  -0.0518344 0.0313386 0.877386  -0.113674 0.0305919 0.842203  -0.176036 0.027799 0.804796  -0.238441 0.023245 0.765259  -0.30048 0.0172454 0.723803  -0.361803 0.0101534 0.680756  -0.422125 0.00236917 0.636555  -0.481229 -0.00566363 0.591726  -0.538983 -0.0134634 0.546858  -0.595343 -0.020534 0.502559  -0.650375 -0.0263911 0.459417  -0.704246 -0.0305838 0.417966  -0.757224 -0.0327141 0.378665  -0.809661 -0.0324434 0.341897  -0.861997 -0.0294916 0.307989  -0.914755 -0.0236511 0.27724  -0.968547 -0.0148046 0.249969  -1.0241 -0.00296175 0.226608  -1.08215 0.0116021 0.207667  0.35053 -0.01947 1.0749  0.303637 -0.00467479 1.04998  0.251106 0.00774634 1.02484  0.193967 0.0174416 0.999065  0.133234 0.0243381 0.972153  0.0698167 0.0285314 0.943683  0.00451556 0.030233 0.913362  -0.061998 0.0296957 0.881025  -0.129163 0.0271874 0.846617  -0.196504 0.0229842 0.810198  -0.263615 0.0173773 0.77193  -0.330137 0.0106851 0.732081  -0.395772 0.00326419 0.691021  -0.460272 -0.00448686 0.649198  -0.523467 -0.0121272 0.607132  -0.585263 -0.0191866 0.565378  -0.645669 -0.0251908 0.524493  -0.70479 -0.0296774 0.485015  -0.762832 -0.0322195 0.447443  -0.820092 -0.0324392 0.412228  -0.87695 -0.0300072 0.379799  -0.933857 -0.0246612 0.350574  -0.991335 -0.0162285 0.325002  -1.04998 -0.0046733 0.303637  -1.11034 0.00978541 0.287092  0.434041 -0.0219681 1.08962  0.383844 -0.00687164 1.06568  0.327713 0.00574571 1.04227  0.266679 0.0155252 1.01875  0.201838 0.0224379 0.994465  0.134207 0.0266693 0.968901  0.0646363 0.0284905 0.941714  -0.00619698 0.0281833 0.912708  -0.077752 0.0260174 0.881811  -0.149568 0.0222557 0.849055  -0.221251 0.0171616 0.814568  -0.29245 0.0110162 0.778567  -0.36286 0.00412637 0.741355  -0.432223 -0.0031625 0.703308  -0.500342 -0.0104638 0.664862  -0.567093 -0.0173543 0.6265  -0.632438 -0.0233907 0.58872  -0.69643 -0.0281205 0.552032  -0.759218 -0.0311058 0.516937  -0.821041 -0.0319307 0.483939  -0.88221 -0.0302127 0.453551  -0.943098 -0.0256154 0.426323  -1.00411 -0.017875 0.402859  -1.06568 -0.00687009 0.383845  -1.12812 0.00727326 0.369964  0.519478 -0.0249132 1.09329  0.466037 -0.00942308 1.07089  0.406323 0.00336105 1.04979  0.341379 0.0130815 1.02911  0.272513 0.0198533 1.00796  0.200901 0.024015 0.98575  0.12741 0.0259119 0.962115  0.0526815 0.0258468 0.936858  -0.0227758 0.0240825 0.909903  -0.098534 0.0208601 0.881266  -0.174218 0.0164129 0.851053  -0.24949 0.0109794 0.81944  -0.324051 0.00481659 0.786673  -0.397644 -0.00178921 0.753058  -0.470063 -0.00851542 0.718956  -0.541164 -0.0150031 0.684761  -0.610883 -0.020864 0.650898  -0.679239 -0.0256882 0.617814  -0.746333 -0.0290533 0.585975  -0.812347 -0.0305325 0.555894  -0.877532 -0.0297039 0.528137  -0.942175 -0.0261515 0.503371  -1.00655 -0.019484 0.482385  -1.07089 -0.00942218 0.466038  -1.1352 0.00407261 0.455057  0.60556 -0.02785 1.08566  0.548984 -0.0119072 1.06545  0.485619 0.000856996 1.04739  0.416683 0.0101843 1.03016  0.343932 0.0165384 1.01262  0.268666 0.0204595 0.994147  0.19169 0.0223504 0.974402  0.113579 0.0225148 0.953221  0.034785 0.0211961 0.930545  -0.0443087 0.0186043 0.906394  -0.123352 0.0149345 0.880851  -0.202029 0.0103807 0.854057  -0.280056 0.0051493 0.82621  -0.357181 -0.000532329 0.797554  -0.433198 -0.00640923 0.768375  -0.507961 -0.0121954 0.738997  -0.581393 -0.0175787 0.709765  -0.653491 -0.0222192 0.681046  -0.72433 -0.0257542 0.653244  -0.794051 -0.0277907 0.626821  -0.862849 -0.0279081 0.602344  -0.930943 -0.0256482 0.580545  -0.998482 -0.0204914 0.562385  -1.06545 -0.0119063 0.548985  -1.13149 0.000461936 0.541139  0.690871 -0.0297661 1.06661  0.631344 -0.0134342 1.04947  0.564035 -0.00125986 1.0354  0.491029 0.00705832 1.02225  0.414696 0.0125923 1.00868  0.336242 0.0160305 0.994182  0.256336 0.0177816 0.97854  0.175452 0.0181236 0.961656  0.0939719 0.0172616 0.943505  0.0122328 0.0153608 0.92411  -0.0694555 0.0125725 0.903537  -0.150806 0.00904369 0.881894  -0.231554 0.00492954 0.859327  -0.311464 0.000402153 0.836023  -0.390342 -0.00434798 0.812207  -0.468043 -0.00910813 0.788132  -0.544488 -0.0136479 0.764074  -0.619663 -0.0177159 0.740337  -0.693625 -0.0210404 0.71725  -0.766486 -0.0233157 0.695206  -0.838404 -0.0241901 0.67471  -0.909546 -0.0232435 0.656473  -0.979986 -0.0199264 0.641539  -1.04947 -0.0134334 0.631344  -1.1172 -0.00282019 0.626892  0.773893 -0.0286909 1.03642  0.711333 -0.0125588 1.02378  0.639503 -0.00232267 1.01486  0.562676 0.00409842 1.00612  0.483353 0.00832373 0.996584  0.402366 0.0109785 0.9861  0.32022 0.0124087 0.974624  0.237287 0.0128241 0.962135  0.153885 0.0123719 0.948641  0.0702927 0.0111653 0.93417  -0.0132289 0.00930399 0.91877  -0.096432 0.00688791 0.902511  -0.17909 0.00402129 0.88549  -0.260993 0.000824809 0.86783  -0.341971 -0.00257015 0.849691  -0.421891 -0.00601649 0.831258  -0.50068 -0.00935894 0.812747  -0.578321 -0.0124325 0.794397  -0.654852 -0.0150619 0.776485  -0.730356 -0.0170522 0.759342  -0.804949 -0.0181753 0.743411  -0.878744 -0.0181403 0.729327  -0.951795 -0.0165406 0.718095  -1.02378 -0.0125588 0.711333  -1.09339 -0.00438231 0.710497  0.852914 -0.0214124 0.996684  0.786144 -0.00812811 0.991166  0.7096 -0.00198513 0.987778  0.62993 0.00176162 0.982848  0.548518 0.0042575 0.976953  0.465859 0.00586319 0.970282  0.38234 0.00677985 0.962865  0.298249 0.00712144 0.954734  0.213834 0.00696504 0.945906  0.129312 0.00636905 0.936404  0.0448848 0.00538361 0.926259  -0.0392566 0.00406218 0.915507  -0.122934 0.00246292 0.904193  -0.205985 0.000657737 0.892381  -0.288276 -0.00127441 0.880163  -0.369708 -0.00324422 0.867649  -0.45023 -0.00516087 0.854981  -0.529835 -0.00693107 0.842328  -0.60856 -0.00846076 0.829888  -0.686473 -0.00965053 0.817915  -0.763653 -0.0103828 0.806772  -0.840177 -0.0105227 0.797015  -0.916033 -0.00985521 0.789532  -0.991165 -0.00812835 0.786146  -1.06397 -0.00286448 0.789036  0.926667 -0.00756323 0.953122  0.852886 -0.00225526 0.956415  0.772766 -0.000798345 0.955303  0.691412 0.000379324 0.952959  0.608862 0.00114673 0.950179  0.52557 0.00167263 0.946977  0.441756 0.0019899 0.943402  0.357614 0.0021289 0.939465  0.273301 0.0021075 0.935181  0.188954 0.00194067 0.930565  0.104699 0.00164115 0.925622  0.0206506 0.00122529 0.920362  -0.0630859 0.000714123 0.91479  -0.146417 0.000136077 0.908924  -0.22927 -0.000476301 0.902799  -0.311597 -0.00108671 0.896464  -0.393386 -0.00166172 0.889985  -0.474654 -0.00216931 0.883448  -0.555452 -0.00258291 0.876946  -0.635864 -0.0028773 0.870589  -0.716006 -0.00302154 0.864533  -0.796039 -0.00298381 0.859029  -0.876119 -0.00268936 0.854688  -0.956413 -0.0022552 0.852888  -1.03541 -0.000520468 0.859949  1 0 0.916668  0.916667 0 0.916668  0.833333 0 0.916668  0.75 0 0.916668  0.666667 0 0.916668  0.583333 0 0.916668  0.5 0 0.916668  0.416667 0 0.916668  0.333333 0 0.916668  0.25 0 0.916668  0.166667 0 0.916668  0.0833333 0 0.916668  0 0 0.916668  -0.0833334 0 0.916668  -0.166667 0 0.916668  -0.25 0 0.916668  -0.333333 0 0.916668  -0.416667 0 0.916668  -0.5 0 0.916668  -0.583333 0 0.916668  -0.666667 0 0.916668  -0.75 0 0.916668  -0.833333 0 0.916668  -0.916667 0 0.916668  -1 0 0.916668  0 0 7.45058e-09  -1.11759e-08 0 7.45058e-09  7.45058e-09 0 7.45058e-09  0 0 7.45058e-09  1.49012e-08 0 7.45058e-09  0 0 7.45058e-09  0 0 7.45058e-09  0 0 7.45058e-09  0 0 7.45058e-09  0 0 7.45058e-09  0 0 7.45058e-09  0 0 7.45058e-09  0 0 7.45058e-09  0 0 7.45058e-09  0 0 7.45058e-09  0 0 7.45058e-09  0 0 7.45058e-09  0 0 7.45058e-09  0 0 7.45058e-09  0 0 7.45058e-09  0 0 7.45058e-09  0 0 7.45058e-09  0 0 7.45058e-09  0 0 7.45058e-09  0 0 7.45058e-09  -0.0364306 -0.00172091 0.0550427  -0.038634 0.0007983 0.0605633  -0.0402905 0.00150252 0.0584387  -0.0423532 0.00187859 0.0541859  -0.0446677 0.00197943 0.0489555  -0.0470487 0.00190112 0.0432666  -0.0493167 0.00169252 0.0373535  -0.0513416 0.00139157 0.0313545  -0.0530384 0.00102945 0.0253608  -0.0543591 0.000633255 0.0194385  -0.0552884 0.000228737 0.0136368  -0.0558394 -0.000159856 0.0079915  -0.0560486 -0.000511236 0.00252561  -0.0559726 -0.000806503 -0.00274778  -0.0556815 -0.00103082 -0.0078202  -0.0552554 -0.00117279 -0.0126855  -0.0547844 -0.00122187 -0.017335  -0.054368 -0.00116749 -0.0217571  -0.0541227 -0.000995357 -0.0259403  -0.054189 -0.000685785 -0.0298781  -0.0547498 -0.000207711 -0.0335764  -0.0560231 0.000471782 -0.0370222  -0.0584383 0.00150234 -0.0402903  -0.0619768 0.0026894 -0.0427847  -0.0708515 0.00731305 -0.0438358  -0.0640754 -0.00408442 0.121901  -0.0711073 0.00198477 0.123727  -0.0765037 0.00454437 0.120143  -0.0817265 0.00583542 0.112778  -0.0867541 0.00628474 0.103486  -0.0915029 0.0061259 0.0930248  -0.0958506 0.00552374 0.0818797  -0.0996891 0.00460605 0.0703463  -0.102939 0.00348017 0.0586316  -0.105556 0.00223794 0.0468878  -0.10754 0.000963077 0.0352352  -0.108926 -0.000271186 0.023769  -0.109787 -0.00140012 0.0125647  -0.110222 -0.00236938 0.00168132  -0.110348 -0.00313408 -0.00883422  -0.110295 -0.00365632 -0.0189428  -0.110207 -0.00389955 -0.0286096  -0.110239 -0.00382224 -0.037805  -0.110571 -0.0033702 -0.046509  -0.111419 -0.00246644 -0.0547181  -0.113044 -0.000997655 -0.0624431  -0.1158 0.00122538 -0.0697263  -0.120145 0.00454424 -0.0765038  -0.127133 0.00985494 -0.0826983  -0.141857 0.0214769 -0.0901831  -0.0874672 -0.00648084 0.195576  -0.0981944 0.00232196 0.193821  -0.107196 0.0071798 0.187177  -0.115486 0.00977325 0.176693  -0.123285 0.0108384 0.163578  -0.13053 0.0107765 0.148732  -0.137132 0.00987543 0.132728  -0.143004 0.00836281 0.115974  -0.148089 0.00643198 0.0987727  -0.152366 0.00425161 0.0813646  -0.155859 0.00197355 0.0639489  -0.158629 -0.000268839 0.0466923  -0.160776 -0.00235747 0.0297363  -0.162427 -0.00419236 0.0131986  -0.163733 -0.00568774 -0.00282281  -0.164858 -0.00676736 -0.0182485  -0.165983 -0.0073557 -0.0330126  -0.167306 -0.0073676 -0.0470662  -0.169058 -0.00669524 -0.0603852  -0.171507 -0.00519361 -0.0729774  -0.174991 -0.00265092 -0.0848928  -0.179962 0.00127143 -0.0962238  -0.18718 0.00717999 -0.107196  -0.198567 0.0165406 -0.118462  -0.217445 0.0316518 -0.132223  -0.105485 -0.00966448 0.274567  -0.118735 0.00125864 0.269289  -0.130614 0.00831471 0.259331  -0.141729 0.0124797 0.245367  -0.152266 0.0144676 0.228417  -0.162184 0.014793 0.209329  -0.171373 0.013847 0.188726  -0.179736 0.0119515 0.167062  -0.18721 0.00938343 0.144696  -0.193776 0.00638768 0.121929  -0.199466 0.00318514 0.0990253  -0.204356 -2.7582e-05 0.076219  -0.208564 -0.00307584 0.0537175  -0.212235 -0.00580874 0.0317004  -0.215542 -0.00809394 0.0103209  -0.218674 -0.00981106 -0.0102953  -0.221842 -0.0108403 -0.0300492  -0.225281 -0.0110496 -0.0488741  -0.229266 -0.0102796 -0.0667432  -0.234124 -0.00832565 -0.0836852  -0.240278 -0.00490296 -0.0997971  -0.248329 0.000410244 -0.115292  -0.259333 0.00831524 -0.130615  -0.27512 0.019927 -0.146653  -0.297371 0.0358714 -0.16515  -0.115481 -0.0133107 0.356413  -0.130726 -0.000857875 0.347703  -0.145216 0.00800478 0.334441  -0.159214 0.01372 0.317114  -0.172741 0.0168121 0.29656  -0.185695 0.0177827 0.273559  -0.197931 0.0170681 0.248728  -0.209322 0.0150546 0.222552  -0.219787 0.0120884 0.195429  -0.229299 0.0084842 0.167708  -0.237888 0.00452879 0.139706  -0.245633 0.000481009 0.111716  -0.252656 -0.00342809 0.0840082  -0.259115 -0.00699475 0.056824  -0.265191 -0.0100386 0.0303723  -0.271091 -0.0123934 0.00482696  -0.277047 -0.0138951 -0.0196785  -0.283325 -0.0143684 -0.043057  -0.290242 -0.0136107 -0.0652783  -0.29818 -0.0113752 -0.0863851  -0.307648 -0.00734231 -0.106518  -0.319367 -0.00108019 -0.125959  -0.334443 0.00800514 -0.145217  -0.354273 0.0204913 -0.16515  -0.37977 0.0362702 -0.18704  -0.11599 -0.0168127 0.438985  -0.133127 -0.00336222 0.426999  -0.150241 0.00681716 0.410599  -0.167307 0.0138333 0.390193  -0.184156 0.0180011 0.366446  -0.200578 0.0197313 0.340021  -0.216363 0.0194419 0.31149  -0.231342 0.0175392 0.281337  -0.245407 0.01441 0.249988  -0.258511 0.0104204 0.217827  -0.270674 0.00591415 0.185222  -0.281968 0.00120634 0.152522  -0.292512 -0.00341803 0.120055  -0.302463 -0.00770321 0.0881243  -0.312007 -0.0114212 0.0569937  -0.321358 -0.0143609 0.0268853  -0.330762 -0.0163176 -0.00202972  -0.340508 -0.0170772 -0.0296392  -0.350944 -0.0164051 -0.0559024  -0.362503 -0.0140308 -0.0808655  -0.375748 -0.00963083 -0.104681  -0.391444 -0.00281915 -0.127645  -0.410601 0.00681794 -0.150243  -0.434272 0.0194843 -0.173223  -0.463157 0.0348507 -0.197543  -0.106469 -0.0197732 0.520676  -0.125602 -0.00574654 0.505608  -0.145473 0.00530237 0.486318  -0.165815 0.0132843 0.463168  -0.18629 0.0183561 0.436675  -0.206569 0.0208184 0.407371  -0.226366 0.0210342 0.375745  -0.245456 0.019392 0.342252  -0.263688 0.0162864 0.307312  -0.280987 0.0121112 0.271338  -0.297349 0.00724968 0.234736  -0.31283 0.00206238 0.197905  -0.327539 -0.00311732 0.161229  -0.341624 -0.00798595 0.125069  -0.355263 -0.0122696 0.0897462  -0.368672 -0.0157144 0.0555336  -0.382102 -0.0180785 0.0226412  -0.395858 -0.0191159 -0.00878695  -0.410308 -0.0185689 -0.0386906  -0.425913 -0.0161588 -0.0671023  -0.443262 -0.0115782 -0.0941623  -0.463102 -0.00450939 -0.120141  -0.486321 0.00530332 -0.145475  -0.513798 0.0178747 -0.170784  -0.546203 0.0328358 -0.19679  -0.0868413 -0.0220436 0.600139  -0.108182 -0.00774685 0.582213  -0.130997 0.00382295 0.560338  -0.154822 0.0124556 0.534812  -0.179179 0.0182068 0.506031  -0.203631 0.0212871 0.474397  -0.227819 0.0219955 0.440306  -0.251457 0.0206805 0.404149  -0.274343 0.0177208 0.366323  -0.29636 0.0135149 0.327245  -0.317471 0.00846514 0.287343  -0.337706 0.00296304 0.247055  -0.35715 -0.00261912 0.206815  -0.375933 -0.00793684 0.167038  -0.394221 -0.0126733 0.128101  -0.412219 -0.0165364 0.0903266  -0.430177 -0.0192491 0.0539714  -0.448403 -0.02054 0.0192145  -0.467275 -0.0201355 -0.0138526  -0.487262 -0.0177569 -0.0452358  -0.508948 -0.0131232 -0.075045  -0.533041 -0.00598067 -0.103511  -0.560341 0.00382367 -0.131  -0.591654 0.016229 -0.158007  -0.627663 0.0308662 -0.185086  -0.0572994 -0.0236686 0.676127  -0.081121 -0.00929537 0.655611  -0.107088 0.00255165 0.6315  -0.134589 0.0115884 0.604004  -0.163035 0.0178099 0.573407  -0.191908 0.0213659 0.539996  -0.220776 0.0224995 0.504068  -0.249298 0.0215148 0.465938  -0.27722 0.0187635 0.425961  -0.304377 0.0146311 0.384536  -0.330687 0.00952137 0.342096  -0.356145 0.00384197 0.299101  -0.380804 -0.002009 0.256025  -0.404764 -0.00765413 0.213325  -0.428169 -0.0127403 0.171432  -0.451206 -0.0169399 0.130719  -0.474112 -0.0199447 0.0914884  -0.49719 -0.0214611 0.0539617  -0.520812 -0.0212044 0.0182687  -0.545441 -0.0188995 -0.0155581  -0.571642 -0.0142915 -0.0475897  -0.600079 -0.00717372 -0.0780039  -0.6315 0.00255299 -0.107089  -0.666686 0.014805 -0.13522  -0.706342 0.029216 -0.162823  -0.0182379 -0.0247912 0.747427  -0.0448359 -0.0104437 0.724641  -0.074162 0.00152948 0.698686  -0.105511 0.0108005 0.669664  -0.138213 0.0173294 0.637749  -0.171684 0.0212285 0.603124  -0.205438 0.0227003 0.565987  -0.239081 0.0220129 0.526577  -0.272312 0.0194878 0.485196  -0.304915 0.015489 0.442205  -0.336761 0.0104102 0.398028  -0.367801 0.00466043 0.35313  -0.398046 -0.00134918 0.308006  -0.427561 -0.00721872 0.263149  -0.456456 -0.0125667 0.219028  -0.48489 -0.0170338 0.176065  -0.51308 -0.0202847 0.13461  -0.541309 -0.0220038 0.0949295  -0.569935 -0.0218975 0.0571976  -0.599404 -0.019694 0.0214911  -0.630252 -0.0151566 -0.0122121  -0.663107 -0.00810736 -0.0440295  -0.698687 0.00153047 -0.0741635  -0.737764 0.0136708 -0.102875  -0.781065 0.0279491 -0.130485  0.0297516 -0.0255971 0.812876  9.62801e-05 -0.0113114 0.788203  -0.032778 0.000709146 0.760837  -0.0681149 0.0101127 0.730765  -0.105194 0.01684 0.698055  -0.143382 0.0209793 0.662787  -0.182148 0.0227092 0.625069  -0.221056 0.0222726 0.585069  -0.259759 0.0199664 0.543026  -0.297997 0.0161314 0.499259  -0.335593 0.0111445 0.454165  -0.37245 0.00540489 0.4082  -0.408533 -0.000675559 0.36186  -0.443865 -0.0066849 0.315659  -0.478515 -0.0122225 0.270095  -0.512606 -0.0169031 0.225628  -0.546323 -0.0203668 0.182651  -0.57992 -0.0222771 0.141478  -0.613732 -0.0223292 0.102332  -0.648178 -0.0202503 0.0653386  -0.683762 -0.0158121 0.0305318  -0.721084 -0.00884923 -0.00213687  -0.760837 0.00071007 -0.0327788  -0.803786 0.0127844 -0.0615456  -0.850682 0.0270095 -0.0886607  0.0859057 -0.0262766 0.871388  0.0529503 -0.0120419 0.84526  0.0163757 -5.96046e-07 0.816948  -0.0230523 0.00948685 0.786331  -0.0645826 0.0163481 0.753367  -0.107548 0.0206584 0.718037  -0.151382 0.0225837 0.680368  -0.19561 0.0223551 0.640459  -0.239847 0.0202525 0.598491  -0.283792 0.0165963 0.554734  -0.327227 0.0117444 0.509548  -0.370007 0.00607747 0.463361  -0.412054 -8.9407e-07 0.416661  -0.45334 -0.00607926 0.369961  -0.493893 -0.0117459 0.323774  -0.533789 -0.0165984 0.278588  -0.573176 -0.0202538 0.234832  -0.612271 -0.0223565 0.192864  -0.651375 -0.0225851 0.152955  -0.690874 -0.0206593 0.115287  -0.731242 -0.0163491 0.0799567  -0.773044 -0.00948822 0.0469914  -0.816948 4.76837e-07 0.0163747  -0.863707 0.0120429 -0.0119379  -0.914084 0.0262773 -0.038067  0.149308 -0.0270095 0.921986  0.112871 -0.0127847 0.894871  0.0724868 -0.000711501 0.866104  0.028906 0.00884855 0.835463  -0.0171055 0.0158112 0.802794  -0.0648522 0.0202494 0.767987  -0.11374 0.0223275 0.730993  -0.16326 0.0222756 0.691846  -0.212995 0.020365 0.650673  -0.26261 0.016901 0.607695  -0.31185 0.0122207 0.563228  -0.360533 0.00668299 0.517663  -0.408534 0.000673532 0.471461  -0.455784 -0.00540709 0.425121  -0.50226 -0.0111466 0.379155  -0.547996 -0.0161334 0.334061  -0.59309 -0.0199677 0.290295  -0.637719 -0.0222738 0.248252  -0.682144 -0.0227104 0.208252  -0.726709 -0.0209807 0.170535  -0.771855 -0.0168417 0.135266  -0.818108 -0.0101141 0.102556  -0.866103 -0.000709593 0.0724859  -0.916562 0.011311 0.0451189  -0.970239 0.0255964 0.0204452  0.218924 -0.0279498 0.963813  0.178893 -0.0136718 0.936202  0.134637 -0.00153208 0.90749  0.0868831 0.00810665 0.877356  0.0364047 0.0151556 0.845538  -0.0160799 0.0196933 0.811834  -0.0699437 0.0218957 0.776126  -0.12465 0.0220025 0.738395  -0.179754 0.0202824 0.698714  -0.234895 0.0170317 0.657259  -0.289792 0.0125651 0.614296  -0.34423 0.00721651 0.570175  -0.398048 0.00134718 0.525317  -0.451135 -0.00466293 0.480192  -0.503429 -0.0104123 0.435295  -0.554915 -0.0154909 0.391118  -0.605645 -0.0194891 0.348127  -0.655746 -0.0220143 0.306744  -0.705435 -0.0227018 0.267334  -0.755013 -0.0212303 0.230196  -0.804875 -0.0173311 0.195571  -0.855505 -0.0108011 0.163657  -0.907489 -0.00152969 0.134635  -0.961495 0.0104433 0.108679  -1.01823 0.0247909 0.0858937  0.293648 -0.0292161 0.996149  0.249971 -0.0148047 0.968546  0.201822 -0.00255287 0.940416  0.149911 0.00717312 0.91133  0.0950145 0.0142903 0.880916  0.0378832 0.0188984 0.848884  -0.0208202 0.021203 0.815057  -0.0805302 0.0214595 0.779364  -0.140787 0.0199431 0.741837  -0.201212 0.0169377 0.702606  -0.261507 0.0127389 0.661892  -0.321434 0.00765163 0.619997  -0.380806 0.00200671 0.577298  -0.43948 -0.00384432 0.534221  -0.497356 -0.00952357 0.491226  -0.554378 -0.0146331 0.448786  -0.610554 -0.018765 0.407361  -0.665964 -0.0215161 0.367384  -0.720774 -0.0225016 0.329253  -0.775239 -0.0213685 0.293323  -0.829698 -0.0178112 0.259914  -0.884585 -0.0115893 0.229317  -0.940416 -0.00255227 0.201822  -0.997782 0.00929433 0.17771  -1.05729 0.0236679 0.157194  0.372327 -0.0308658 1.01841  0.325004 -0.0162288 0.991335  0.272983 -0.00382334 0.964328  0.21695 0.00598031 0.936838  0.157708 0.0131226 0.908373  0.0960622 0.0177563 0.878563  0.0327171 0.0201344 0.847179  -0.0317445 0.0205387 0.814112  -0.0968516 0.0192478 0.779355  -0.162225 0.0165347 0.743  -0.22756 0.0126719 0.705226  -0.292603 0.00793463 0.666287  -0.357153 0.00261718 0.62651  -0.421041 -0.00296491 0.586269  -0.48414 -0.00846714 0.54598  -0.546361 -0.0135167 0.506079  -0.607677 -0.0177222 0.467  -0.668124 -0.0206816 0.429174  -0.727818 -0.0219976 0.393014  -0.786963 -0.0212891 0.358922  -0.845843 -0.0182073 0.327289  -0.90482 -0.0124561 0.298507  -0.964328 -0.00382334 0.272981  -1.02484 0.00774705 0.251106  -1.08684 0.0220441 0.23318  0.453787 -0.0328366 1.03012  0.40286 -0.0178756 1.00411  0.347004 -0.00530332 0.978804  0.28689 0.00450945 0.95347  0.223395 0.0115783 0.92749  0.157411 0.0161588 0.90043  0.0896822 0.0185689 0.872019  0.0207997 0.0191146 0.842113  -0.0487772 0.0180773 0.810685  -0.118679 0.0157128 0.777792  -0.188603 0.0122678 0.743579  -0.258296 0.00798422 0.708257  -0.327545 0.00311565 0.672097  -0.396167 -0.00206381 0.635421  -0.464017 -0.00725085 0.59859  -0.530988 -0.0121126 0.561987  -0.597023 -0.0162875 0.526013  -0.662123 -0.019393 0.491073  -0.726365 -0.021036 0.457577  -0.789901 -0.0208199 0.425951  -0.852954 -0.018357 0.396645  -0.915812 -0.013285 0.370153  -0.978804 -0.00530303 0.347003  -1.04227 0.00574648 0.327713  -1.10647 0.019773 0.312644  0.536833 -0.0348518 1.03088  0.482385 -0.0194853 1.00656  0.422724 -0.00681883 0.983574  0.358548 0.00281817 0.960975  0.290911 0.00963122 0.938012  0.220823 0.0140306 0.914195  0.149048 0.0164047 0.889232  0.0761502 0.0170764 0.862968  0.00256333 0.0163165 0.835358  -0.0713652 0.0143596 0.806442  -0.145348 0.0114197 0.776334  -0.219136 0.00770193 0.745203  -0.292517 0.00341678 0.713272  -0.365305 -0.00120723 0.680805  -0.437344 -0.00591469 0.648104  -0.508514 -0.0104217 0.615498  -0.578742 -0.0144107 0.583337  -0.64801 -0.0175399 0.551988  -0.716363 -0.0194431 0.521834  -0.78391 -0.0197326 0.493301  -0.850821 -0.0180025 0.466875  -0.917304 -0.0138339 0.443129  -0.983573 -0.00681764 0.422723  -1.04979 0.00336158 0.406322  -1.11599 0.0168127 0.394334  0.620221 -0.0362712 1.02037  0.562384 -0.0204923 0.998484  0.498882 -0.0080061 0.97855  0.430625 0.00107902 0.95929  0.359012 0.00734198 0.939848  0.285146 0.0113751 0.919715  0.209751 0.0136109 0.89861  0.133333 0.0143678 0.876388  0.0562798 0.0138944 0.853008  -0.0210975 0.0123923 0.828503  -0.0985312 0.0100373 0.802957  -0.175787 0.00699371 0.776504  -0.252662 0.00342733 0.74932  -0.328971 -0.000481784 0.721613  -0.404558 -0.00452936 0.693622  -0.479302 -0.0084852 0.665618  -0.553121 -0.0120886 0.637898  -0.625989 -0.0150546 0.610775  -0.697932 -0.0170686 0.584598  -0.769029 -0.0177839 0.559766  -0.839407 -0.0168132 0.536764  -0.909213 -0.013721 0.516211  -0.978548 -0.00800538 0.498882  -1.04739 0.000857055 0.48562  -1.11548 0.0133095 0.476907  0.702619 -0.0358719 0.998485  0.641538 -0.0199271 0.979988  0.573992 -0.00831592 0.963947  0.501663 -0.000411034 0.948625  0.426384 0.00490308 0.933129  0.349203 0.00832558 0.917018  0.270729 0.0102799 0.900077  0.191379 0.0110487 0.882205  0.111486 0.0108398 0.86338  0.0313196 0.00981021 0.843626  -0.0488818 0.008093 0.823009  -0.128908 0.00580812 0.80163  -0.208569 0.00307536 0.779612  -0.287694 2.68221e-05 0.757109  -0.366137 -0.00318557 0.734304  -0.443779 -0.00638831 0.7114  -0.520545 -0.00938326 0.688633  -0.596404 -0.0119514 0.666267  -0.671374 -0.013847 0.644602  -0.745518 -0.0147938 0.623998  -0.818933 -0.0144682 0.60491  -0.891729 -0.0124798 0.587959  -0.963947 -0.00831491 0.573993  -1.0354 -0.00125873 0.564034  -1.10548 0.00966376 0.558756  0.782546 -0.0316523 0.965558  0.718092 -0.0165407 0.951796  0.646147 -0.00718009 0.940529  0.570031 -0.00127131 0.929558  0.49167 0.00265133 0.918226  0.411821 0.00519371 0.90631  0.330938 0.00669533 0.893718  0.249355 0.00736684 0.880398  0.167346 0.00735545 0.866344  0.0851372 0.0067668 0.85158  0.00292918 0.00568736 0.836155  -0.0790978 0.00419211 0.820133  -0.160779 0.00235742 0.803595  -0.241966 0.0002684 0.786638  -0.322529 -0.00197363 0.769382  -0.402369 -0.00425231 0.751966  -0.481424 -0.00643188 0.734558  -0.559672 -0.00836289 0.717355  -0.637133 -0.009875 0.700601  -0.713865 -0.0107766 0.684596  -0.789952 -0.0108383 0.66975  -0.865487 -0.00977308 0.656636  -0.940529 -0.00717992 0.64615  -1.01486 -0.00232202 0.639505  -1.08747 0.00648099 0.637749  0.858136 -0.0214781 0.923519  0.789529 -0.00985509 0.916034  0.713185 -0.00454444 0.90984  0.634198 -0.00122523 0.903063  0.55362 0.000997961 0.895778  0.471912 0.00246662 0.888053  0.389427 0.00337005 0.879842  0.306426 0.00382197 0.871138  0.223125 0.0038994 0.861943  0.139702 0.00365591 0.852275  0.0563174 0.00313389 0.842167  -0.0268902 0.00236917 0.831652  -0.109789 0.00140029 0.820768  -0.192261 0.000271201 0.809563  -0.274209 -0.000963271 0.798097  -0.355559 -0.00223839 0.786445  -0.436274 -0.00348026 0.774699  -0.516357 -0.00460607 0.762985  -0.595852 -0.00552362 0.751452  -0.674837 -0.00612581 0.740306  -0.753422 -0.00628448 0.729845  -0.831727 -0.00583494 0.720552  -0.909838 -0.0045445 0.713187  -0.987775 -0.00198478 0.709602  -1.06408 0.00408447 0.711428  0.929145 -0.00731319 0.877171  0.854687 -0.00268924 0.87612  0.774892 -0.00150269 0.873626  0.693976 -0.000471532 0.870357  0.611915 0.000207841 0.866911  0.529143 0.000685811 0.863213  0.445876 0.000995338 0.859275  0.362298 0.00116742 0.855091  0.278549 0.0012219 0.850668  0.194745 0.00117272 0.84602  0.110985 0.0010308 0.841155  0.0273602 0.000806332 0.836082  -0.0560492 0.000511289 0.830809  -0.139174 0.000159979 0.825341  -0.221957 -0.000228941 0.819696  -0.30436 -0.000633299 0.813894  -0.386373 -0.00102955 0.807972  -0.468009 -0.00139159 0.801979  -0.549317 -0.00169247 0.795979  -0.630382 -0.00190103 0.790066  -0.711334 -0.00197923 0.784377  -0.792353 -0.00187838 0.779146  -0.873624 -0.00150263 0.774894  -0.955301 -0.000798106 0.772768  -1.03643 0.00172108 0.778287  1 0 0.833334  0.916667 0 0.833334  0.833333 0 0.833334  0.75 0 0.833334  0.666667 0 0.833334  0.583333 0 0.833334  0.5 0 0.833334  0.416667 0 0.833334  0.333333 0 0.833334  0.25 0 0.833334  0.166667 0 0.833334  0.0833333 0 0.833334  0 0 0.833334  -0.0833334 0 0.833334  -0.166667 0 0.833334  -0.25 0 0.833334  -0.333333 0 0.833334  -0.416667 0 0.833334  -0.5 0 0.833334  -0.583333 0 0.833334  -0.666667 0 0.833334  -0.75 0 0.833334  -0.833333 0 0.833334  -0.916667 0 0.833334  -1 0 0.833334  0 0 0  -1.11759e-08 0 0  7.45058e-09 0 0  0 0 0  1.49012e-08 0 0  0 0 0  0 0 0  0 0 0  0 0 0  0 0 0  0 0 0  0 0 0  0 0 0  0 0 0  0 0 0  0 0 0  0 0 0  0 0 0  0 0 0  0 0 0  0 0 0  0 0 0  0 0 0  0 0 0  0 0 0  -0.0354744 -0.00338383 0.0547532  -0.0362913 -0.000379138 0.058585  -0.0370226 0.000471663 0.0560227  -0.038378 0.000952009 0.051826  -0.0400745 0.00113956 0.0468175  -0.0419253 0.00115444 0.0414191  -0.0437546 0.00104837 0.0358267  -0.0454354 0.000860769 0.0301616  -0.0468833 0.000621725 0.0245  -0.0480512 0.000357021 0.0188933  -0.0489222 8.88892e-05 0.013375  -0.0495044 -0.000163279 0.00796749  -0.0498269 -0.000382729 0.00268337  -0.0499332 -0.000556882 -0.00247026  -0.0498785 -0.000675485 -0.007488  -0.0497262 -0.000730503 -0.0123639  -0.0495467 -0.000714354 -0.0170902  -0.049422 -0.000616945 -0.0216581  -0.0494484 -0.000425119 -0.0260612  -0.0497462 -0.000119597 -0.0303031  -0.0504714 0.000327565 -0.034401  -0.0518258 0.00095189 -0.0383778  -0.0541852 0.00187846 -0.0423532  -0.057635 0.0029837 -0.0460388  -0.0657017 0.00697019 -0.0503578  -0.0614171 -0.00837674 0.119708  -0.0661783 -0.00176148 0.120064  -0.0697265 0.00122545 0.115797  -0.0734676 0.00283336 0.108243  -0.077281 0.0035784 0.0990932  -0.0810422 0.00373497 0.0889849  -0.0846032 0.00347891 0.0783153  -0.0878461 0.00293977 0.0673217  -0.0906885 0.00221988 0.0561672  -0.0930861 0.00140386 0.0449704  -0.0950312 0.000562631 0.0338208  -0.0965497 -0.000243001 0.0227883  -0.0976946 -0.000962786 0.0119274  -0.0985381 -0.00155657 0.0012809  -0.0991674 -0.00199133 -0.00911485  -0.0996814 -0.00223819 -0.0192296  -0.10019 -0.00226752 -0.0290364  -0.100822 -0.00204113 -0.0385174  -0.101727 -0.00151 -0.0476665  -0.103093 -0.000601687 -0.0565025  -0.105156 0.000788517 -0.0650687  -0.108244 0.00283326 -0.0734678  -0.112778 0.00583484 -0.0817266  -0.119648 0.0105222 -0.0901756  -0.132309 0.0205043 -0.0994413  -0.0813641 -0.0134462 0.190389  -0.089454 -0.00409862 0.187316  -0.0962232 0.00127117 0.17996  -0.102665 0.00437801 0.169296  -0.108921 0.0059792 0.156363  -0.114901 0.00650001 0.141948  -0.120503 0.00623412 0.12654  -0.125635 0.00540826 0.110481  -0.130239 0.00420773 0.0940199  -0.134292 0.00278771 0.0773499  -0.137804 0.00128053 0.0606263  -0.140821 -0.000200681 0.0439785  -0.143417 -0.00156131 0.0275144  -0.145684 -0.00272319 0.0113254  -0.147733 -0.00362005 -0.00451096  -0.149687 -0.00419164 -0.0199315  -0.151685 -0.004375 -0.0348851  -0.153887 -0.00409303 -0.0493389  -0.156481 -0.00324951 -0.0632872  -0.159701 -0.00170694 -0.0767621  -0.163841 0.000731334 -0.0898447  -0.169298 0.00437778 -0.102665  -0.176695 0.00977255 -0.115486  -0.187336 0.0181391 -0.128742  -0.203764 0.0318886 -0.143685  -0.0948329 -0.018381 0.265523  -0.10558 -0.00705907 0.258962  -0.115292 0.000409827 0.248328  -0.124545 0.0051136 0.234308  -0.133467 0.007752 0.217698  -0.14201 0.0088332 0.199202  -0.150077 0.00873749 0.179347  -0.15759 0.00777516 0.158527  -0.164499 0.00620709 0.137052  -0.170793 0.00425741 0.115177  -0.1765 0.00212154 0.0931197  -0.181679 -3.20971e-05 0.0710686  -0.186417 -0.00205995 0.0491889  -0.190825 -0.00384049 0.0276239  -0.195027 -0.00526814 0.00649679  -0.199164 -0.00624515 -0.0140902  -0.203396 -0.00666955 -0.0340582  -0.207913 -0.00642276 -0.0533565  -0.212936 -0.00535923 -0.0719755  -0.218745 -0.00328423 -0.0899573  -0.2257 7.28518e-05 -0.107411  -0.234307 0.00511384 -0.124546  -0.245367 0.0124797 -0.14173  -0.260185 0.0232434 -0.159546  -0.280337 0.0384439 -0.179418  -0.1005 -0.0228381 0.343319  -0.113494 -0.0101851 0.333308  -0.125959 -0.00108072 0.319365  -0.13813 0.00506355 0.301998  -0.150011 0.00877143 0.281843  -0.161514 0.0105302 0.259525  -0.17253 0.0107578 0.235557  -0.182967 0.00981878 0.210356  -0.192776 0.00803351 0.184265  -0.201947 0.00568515 0.157582  -0.210513 0.00302692 0.130574  -0.218541 0.000279471 0.103484  -0.226126 -0.0023652 0.0765328  -0.233384 -0.0047415 0.0499144  -0.24045 -0.00670226 0.0238009  -0.247474 -0.00811006 -0.00166427  -0.254635 -0.00882342 -0.0263695  -0.262141 -0.0086842 -0.0502433  -0.27025 -0.00750382 -0.0732657  -0.279284 -0.0050455 -0.0954812  -0.289669 -0.000997767 -0.117021  -0.301998 0.00506376 -0.138131  -0.317115 0.0137203 -0.159215  -0.336112 0.0256473 -0.180944  -0.35991 0.041034 -0.204568  -0.0973394 -0.0265545 0.421991  -0.112442 -0.0130825 0.408612  -0.127643 -0.00281982 0.391443  -0.142902 0.00447956 0.370891  -0.158062 0.00915319 0.347462  -0.172951 0.0116095 0.321686  -0.18741 0.0122528 0.294036  -0.201322 0.0114668 0.264922  -0.214619 0.00960809 0.234703  -0.227286 0.00700399 0.203706  -0.239353 0.00395399 0.172238  -0.250886 0.000725508 0.140587  -0.261981 -0.00244534 0.109022  -0.272754 -0.00535052 0.0777891  -0.283341 -0.00780235 0.0471087  -0.293897 -0.00962469 0.0171666  -0.304608 -0.0106383 -0.0118899  -0.3157 -0.0106499 -0.0399628  -0.327456 -0.00943728 -0.0670143  -0.340233 -0.00673817 -0.093082  -0.354503 -0.00223039 -0.118295  -0.370892 0.00447947 -0.142903  -0.390196 0.0138336 -0.167308  -0.413285 0.0261511 -0.192178  -0.440801 0.0412482 -0.218534  -0.0848056 -0.0294366 0.499926  -0.102085 -0.0155257 0.48331  -0.120139 -0.00450981 0.4631  -0.138692 0.00363448 0.439629  -0.157439 0.00909638 0.413285  -0.176105 0.0121897 0.384497  -0.194466 0.0132745 0.353673  -0.212361 0.0127238 0.321193  -0.229694 0.0109065 0.287417  -0.246429 0.00817576 0.252686  -0.262588 0.00486365 0.217336  -0.278228 0.00127524 0.181692  -0.293438 -0.00231546 0.146066  -0.308327 -0.00566223 0.110753  -0.323026 -0.00853959 0.0760191  -0.337687 -0.0107349 0.0420934  -0.352497 -0.0120349 0.00916058  -0.36769 -0.0122154 -0.0226487  -0.383564 -0.0110305 -0.0532719  -0.400498 -0.00820562 -0.0827268  -0.418981 -0.00342944 -0.111125  -0.43963 0.00363454 -0.138694  -0.463172 0.0132855 -0.165817  -0.490333 0.025615 -0.193103  -0.521688 0.0403263 -0.221364  -0.0627387 -0.0315292 0.575681  -0.0824046 -0.0174423 0.556022  -0.103509 -0.00598097 0.53304  -0.125578 0.00273475 0.50699  -0.148185 0.00878951 0.478149  -0.170961 0.012414 0.446841  -0.193614 0.013914 0.413398  -0.215929 0.013634 0.378154  -0.237772 0.0119362 0.341452  -0.259078 0.00918192 0.303634  -0.279847 0.00572208 0.265053  -0.300123 0.0018881 0.226063  -0.319979 -0.00201663 0.187012  -0.339513 -0.00571305 0.148235  -0.35884 -0.00894225 0.110042  -0.378103 -0.0114581 0.0727039  -0.397483 -0.0130169 0.0364462  -0.417214 -0.0133686 0.00143448  -0.437593 -0.0122508 -0.0322367  -0.459008 -0.00938541 -0.0645562  -0.481944 -0.00448212 -0.0956051  -0.506991 0.00273481 -0.12558  -0.534815 0.0124565 -0.154824  -0.566082 0.0246612 -0.183862  -0.601375 0.0390329 -0.213339  -0.0312653 -0.0329691 0.647938  -0.0536156 -0.0188683 0.625492  -0.0780018 -0.00717428 0.60008  -0.10381 0.00190058 0.571847  -0.130514 0.00837302 0.540969  -0.157671 0.0124106 0.507667  -0.184925 0.0142691 0.47219  -0.212011 0.0142593 0.434819  -0.238748 0.012724 0.395862  -0.265037 0.0100203 0.355653  -0.290847 0.0065057 0.31455  -0.316199 0.00252512 0.272924  -0.341146 -0.00159684 0.23115  -0.365764 -0.0055562 0.189595  -0.390151 -0.0090653 0.148606  -0.414431 -0.0118487 0.108497  -0.438771 -0.0136355 0.0695296  -0.463393 -0.0141535 0.0319083  -0.488588 -0.0131282 -0.00423621  -0.514734 -0.0102822 -0.0388556  -0.5423 -0.00534818 -0.0719957  -0.571847 0.00190094 -0.103812  -0.604004 0.0115897 -0.134591  -0.639414 0.0236517 -0.164761  -0.6787 0.0377727 -0.194841  0.00924687 -0.0339395 0.715453  -0.0161202 -0.0199032 0.690553  -0.0440275 -0.00810796 0.663108  -0.0737767 0.0011785 0.633142  -0.104775 0.00793085 0.600724  -0.136522 0.0122737 0.56598  -0.16861 0.0144235 0.529076  -0.200725 0.0146607 0.490235  -0.232644 0.0133051 0.449722  -0.264227 0.0107004 0.407852  -0.295406 0.00720158 0.364976  -0.326172 0.00315583 0.32147  -0.356554 -0.00109997 0.277726  -0.386601 -0.00524458 0.234134  -0.416385 -0.00896841 0.191072  -0.446006 -0.0119719 0.148886  -0.475608 -0.0139588 0.107877  -0.505393 -0.0146383 0.0682865  -0.535636 -0.0137242 0.0302839  -0.566696 -0.0109407 -0.006042  -0.59902 -0.00603795 -0.0406942  -0.63314 0.00117883 -0.0737788  -0.669664 0.0108014 -0.105513  -0.709235 0.0227507 -0.136228  -0.752514 0.0367163 -0.166337  0.0582156 -0.0346347 0.77706  0.0295142 -0.0206802 0.750116  -0.00213557 -0.00885001 0.721086  -0.0359977 0.000559151 0.689874  -0.0714427 0.00749585 0.656446  -0.107929 0.0120574 0.620832  -0.145007 0.0144352 0.583125  -0.182323 0.0148865 0.543483  -0.21961 0.0137107 0.502129  -0.256689 0.0112348 0.459345  -0.293456 0.00780347 0.415469  -0.329868 0.00375867 0.37087  -0.365918 -0.000559926 0.325946  -0.401628 -0.00482228 0.2811  -0.437042 -0.0087038 0.236729  -0.472229 -0.0118857 0.193206  -0.507304 -0.0140512 0.150864  -0.54244 -0.0148908 0.10998  -0.577888 -0.014107 0.0707635  -0.613982 -0.0114211 0.0333465  -0.65114 -0.00659195 -0.00222566  -0.689872 0.000559539 -0.0360001  -0.730765 0.0101138 -0.0681167  -0.77447 0.021994 -0.0988103  -0.821685 0.0358901 -0.128394  0.114874 -0.0352336 0.831688  0.0825665 -0.0213352 0.803168  0.0469938 -0.00948861 0.773044  0.00888637 -4.17233e-07 0.741108  -0.0311099 0.007061 0.707222  -0.0724251 0.0117783 0.67133  -0.114577 0.014331 0.63345  -0.157177 0.014963 0.593684  -0.199921 0.0139593 0.552208  -0.242595 0.0116309 0.509267  -0.285055 0.00830674 0.465175  -0.327222 0.00431854 0.420288  -0.369059 -9.83477e-07 0.374995  -0.410555 -0.00432074 0.329702  -0.45172 -0.00830865 0.284815  -0.492592 -0.0116331 0.240723  -0.53325 -0.0139605 0.197784  -0.573838 -0.0149643 0.156308  -0.614571 -0.0143334 0.116541  -0.655751 -0.0117801 0.0786618  -0.697769 -0.00706223 0.0427692  -0.741107 -3.8743e-07 0.00888343  -0.786331 0.00948763 -0.0230539  -0.834091 0.0213352 -0.0531778  -0.885115 0.0352342 -0.0816984  0.178305 -0.0358899 0.878385  0.142187 -0.0219938 0.848801  0.102559 -0.0101144 0.818108  0.060119 -0.000559926 0.785992  0.0155178 0.00659168 0.752218  -0.0306565 0.0114198 0.716645  -0.0778957 0.0141053 0.679228  -0.12578 0.0148895 0.640012  -0.173975 0.0140498 0.599128  -0.222233 0.0118836 0.556785  -0.270378 0.00870162 0.513261  -0.318296 0.00482035 0.468891  -0.365918 0.000558078 0.424045  -0.413201 -0.00376099 0.37912  -0.460123 -0.00780499 0.334523  -0.506688 -0.0112374 0.290645  -0.55294 -0.0137117 0.247863  -0.598985 -0.0148873 0.206508  -0.645002 -0.0144379 0.166865  -0.691256 -0.0120595 0.129158  -0.738103 -0.00749785 0.0935446  -0.785991 -0.000560284 0.0601168  -0.835461 0.00884926 0.0289045  -0.887144 0.0206792 -0.000126369  -0.941776 0.0346344 -0.0270702  0.247474 -0.0367174 0.916331  0.207421 -0.0227515 0.886222  0.163659 -0.0108023 0.855507  0.11685 -0.00117993 0.823772  0.0676376 0.00603765 0.790688  0.0166284 0.0109397 0.756035  -0.0356432 0.0137228 0.719709  -0.0887335 0.0146367 0.681706  -0.14228 0.0139576 0.642116  -0.19601 0.0119697 0.601106  -0.249721 0.00896615 0.558919  -0.30327 0.00524253 0.515857  -0.356556 0.00109839 0.472265  -0.409507 -0.00315785 0.42852  -0.462073 -0.0072034 0.385015  -0.514227 -0.0107033 0.342137  -0.565977 -0.0133062 0.300268  -0.61739 -0.0146617 0.259755  -0.668607 -0.0144258 0.220912  -0.719851 -0.0122757 0.184009  -0.771436 -0.00793302 0.149264  -0.823771 -0.0011794 0.116848  -0.877354 0.00810742 0.0868816  -0.932779 0.0199022 0.0594349  -0.990746 0.0339394 0.0345367  0.321289 -0.0377735 0.944834  0.277242 -0.0236518 0.914754  0.229319 -0.0115896 0.884585  0.178143 -0.00190198 0.853805  0.124358 0.00534737 0.821989  0.0685912 0.0102814 0.788849  0.0114038 0.013127 0.754229  -0.0467331 0.014152 0.718084  -0.105444 0.0136345 0.680463  -0.164437 0.0118468 0.641495  -0.223489 0.00906301 0.601384  -0.282434 0.00555396 0.560395  -0.341148 0.00159526 0.51884  -0.399534 -0.002527 0.477065  -0.457516 -0.00650823 0.435438  -0.515039 -0.0100229 0.394335  -0.572082 -0.0127251 0.354128  -0.628677 -0.0142605 0.31517  -0.684924 -0.0142708 0.277798  -0.741002 -0.0124126 0.242322  -0.797176 -0.00837505 0.209018  -0.853805 -0.00190097 0.178142  -0.91133 0.00717372 0.149909  -0.970277 0.0188673 0.124496  -1.03126 0.0329686 0.102051  0.398614 -0.0390335 0.963333  0.350576 -0.0246617 0.933856  0.298508 -0.0124562 0.90482  0.243 -0.0027355 0.875574  0.184713 0.00448191 0.8456  0.124316 0.00938481 0.814551  0.0623994 0.0122501 0.782231  -0.000553936 0.0133672 0.748559  -0.0641562 0.0130159 0.713548  -0.128109 0.0114561 0.677289  -0.192178 0.00894046 0.639952  -0.256183 0.00571138 0.601758  -0.319982 0.00201511 0.56298  -0.383459 -0.00188977 0.523929  -0.446516 -0.00572437 0.484938  -0.50908 -0.00918376 0.446357  -0.571106 -0.011937 0.40854  -0.632597 -0.0136356 0.371835  -0.693613 -0.0139153 0.336591  -0.754293 -0.0124155 0.303147  -0.814849 -0.00879091 0.271838  -0.875575 -0.00273472 0.242999  -0.936838 0.00598055 0.216948  -0.999067 0.0174425 0.193966  -1.06273 0.0315292 0.174305  0.478302 -0.0403266 0.971361  0.426325 -0.0256153 0.943099  0.370153 -0.0132855 0.915813  0.310361 -0.00363505 0.88869  0.247677 0.00342929 0.861121  0.182827 0.00820565 0.832723  0.116428 0.0110305 0.803268  0.0489692 0.0122141 0.772643  -0.0191705 0.0120333 0.740833  -0.087693 0.0107331 0.7079  -0.156365 0.00853771 0.673974  -0.224999 0.00566077 0.63924  -0.293442 0.00231373 0.603927  -0.361564 -0.00127655 0.568301  -0.429257 -0.00486559 0.532656  -0.496431 -0.00817728 0.497305  -0.563028 -0.0109074 0.462575  -0.629029 -0.0127252 0.428797  -0.694466 -0.0132756 0.396317  -0.759437 -0.012191 0.365492  -0.824103 -0.00909716 0.336702  -0.88869 -0.00363445 0.31036  -0.953471 0.00450939 0.286888  -1.01875 0.0155261 0.266678  -1.0848 0.0294371 0.250062  0.55919 -0.0412492 0.968534  0.503373 -0.0261514 0.942177  0.443129 -0.0138344 0.917306  0.3791 -0.00448048 0.8929  0.312156 0.00223058 0.868293  0.243093 0.00673831 0.843079  0.172537 0.00943726 0.817011  0.100958 0.010649 0.789959  0.0287174 0.0106369 0.761885  -0.0439035 0.00962329 0.732828  -0.11668 0.0078007 0.702886  -0.189426 0.00534922 0.672206  -0.261986 0.00244361 0.640972  -0.334223 -0.000726163 0.609408  -0.406022 -0.00395548 0.577755  -0.477287 -0.00700521 0.546286  -0.547953 -0.00960875 0.515289  -0.61799 -0.0114681 0.48507  -0.68741 -0.0122544 0.455955  -0.756283 -0.0116105 0.428304  -0.824727 -0.00915414 0.402527  -0.8929 -0.00447923 0.379099  -0.960975 0.00281924 0.358547  -1.02911 0.0130826 0.341379  -1.09734 0.0265554 0.327999  0.640081 -0.0410348 0.95457  0.580546 -0.0256483 0.930945  0.51621 -0.0137216 0.909215  0.447995 -0.00506502 0.88813  0.376993 0.000997841 0.867019  0.304043 0.00504541 0.845479  0.229743 0.00750381 0.823265  0.154518 0.0086832 0.800242  0.0786918 0.00882196 0.776367  0.00251964 0.00810921 0.751662  -0.0737893 0.00670105 0.726196  -0.150056 0.00474018 0.700081  -0.226131 0.00236386 0.673462  -0.301878 -0.000279725 0.646511  -0.377182 -0.00302762 0.619421  -0.451948 -0.00568569 0.592413  -0.52611 -0.00803411 0.565729  -0.599634 -0.00981992 0.539637  -0.67253 -0.010759 0.514436  -0.744847 -0.0105312 0.490468  -0.816677 -0.00877249 0.468149  -0.88813 -0.00506401 0.447995  -0.95929 0.00108063 0.430626  -1.03016 0.0101853 0.416683  -1.1005 0.0228386 0.406673  0.719654 -0.0384434 0.929419  0.656472 -0.0232438 0.909547  0.587957 -0.0124807 0.891729  0.515685 -0.00511402 0.874545  0.440961 -7.236e-05 0.857409  0.364583 0.00328475 0.839956  0.287058 0.00535929 0.821975  0.208749 0.00642216 0.803355  0.129931 0.00666821 0.784056  0.050832 0.00624478 0.764089  -0.0283653 0.0052672 0.743501  -0.107497 0.00383955 0.722374  -0.186422 0.00205904 0.700808  -0.265014 3.18885e-05 0.678927  -0.343169 -0.00212175 0.656877  -0.420795 -0.00425744 0.634819  -0.497833 -0.00620776 0.612943  -0.574257 -0.00777614 0.591468  -0.650077 -0.00873834 0.570648  -0.725343 -0.00883377 0.550793  -0.800133 -0.00775272 0.532296  -0.874544 -0.00511408 0.515687  -0.948624 -0.000409961 0.501665  -1.02225 0.00705922 0.49103  -1.09483 0.0183812 0.48447  0.79623 -0.0318893 0.893687  0.729324 -0.0181402 0.878744  0.656633 -0.00977319 0.865487  0.580697 -0.00437808 0.852667  0.502821 -0.000731051 0.839845  0.423629 0.00170803 0.826762  0.343514 0.00324929 0.813286  0.262775 0.00409305 0.799338  0.181643 0.00437397 0.784883  0.100309 0.0041917 0.76993  0.0189286 0.00361943 0.75451  -0.0623549 0.00272268 0.738673  -0.14342 0.00156099 0.722484  -0.224157 0.00020057 0.706019  -0.304473 -0.00128037 0.689372  -0.384293 -0.00278753 0.672648  -0.463575 -0.00420851 0.655977  -0.542303 -0.00540876 0.639516  -0.620503 -0.00623482 0.623455  -0.698235 -0.00650001 0.608047  -0.775588 -0.00597924 0.593633  -0.852666 -0.0043782 0.5807  -0.929557 -0.00127107 0.570035  -1.00612 0.00409883 0.562678  -1.08136 0.0134467 0.559605  0.867685 -0.0205044 0.849442  0.797013 -0.0105227 0.840177  0.720551 -0.00583506 0.831729  0.641753 -0.00283349 0.823471  0.561508 -0.000788927 0.815071  0.480239 0.000602841 0.806503  0.398271 0.00150967 0.797666  0.315843 0.00204086 0.788517  0.233141 0.002267 0.779037  0.150318 0.00223833 0.769229  0.0674977 0.00199085 0.759114  -0.0152063 0.0015564 0.748719  -0.0976959 0.000962913 0.738073  -0.179885 0.000242829 0.727211  -0.261699 -0.00056231 0.716179  -0.343088 -0.00140357 0.705029  -0.424023 -0.00222033 0.69383  -0.504513 -0.00293988 0.682676  -0.584603 -0.0034793 0.671683  -0.664375 -0.00373483 0.661014  -0.743947 -0.00357854 0.650904  -0.823468 -0.0028336 0.641754  -0.90306 -0.00122535 0.634199  -0.982845 0.00176185 0.629932  -1.06142 0.00837702 0.630287  0.934295 -0.00697023 0.800359  0.859029 -0.00298369 0.796041  0.779146 -0.00187838 0.792355  0.698172 -0.000952005 0.788379  0.616194 -0.000327766 0.784403  0.533587 0.000120103 0.780304  0.450551 0.000424981 0.776062  0.367244 0.00061655 0.771658  0.283786 0.000714242 0.76709  0.200274 0.000730634 0.762365  0.116787 0.000675201 0.75749  0.0333995 0.000556827 0.752472  -0.0498277 0.000382781 0.747318  -0.132839 0.000163198 0.742033  -0.21559 -8.86917e-05 0.736625  -0.298053 -0.000356972 0.731106  -0.380218 -0.000621736 0.725499  -0.462103 -0.000860631 0.719838  -0.543755 -0.00104839 0.714172  -0.625259 -0.0011543 0.70858  -0.706741 -0.00113964 0.703182  -0.788378 -0.000952184 0.698172  -0.870355 -0.000471771 0.693976  -0.952957 0.000379324 0.691413  -1.03547 0.00338393 0.695244  1 0 0.750001  0.916667 0 0.750001  0.833333 0 0.750001  0.75 0 0.750001  0.666667 0 0.750001  0.583333 0 0.750001  0.5 0 0.750001  0.416667 0 0.750001  0.333333 0 0.750001  0.25 0 0.750001  0.166667 0 0.750001  0.0833333 0 0.750001  0 0 0.750001  -0.0833334 0 0.750001  -0.166667 0 0.750001  -0.25 0 0.750001  -0.333333 0 0.750001  -0.416667 0 0.750001  -0.5 0 0.750001  -0.583333 0 0.750001  -0.666667 0 0.750001  -0.75 0 0.750001  -0.833333 0 0.750001  -0.916667 0 0.750001  -1 0 0.750001  0 0 1.49012e-08  -1.11759e-08 0 1.49012e-08  7.45058e-09 0 1.49012e-08  0 0 1.49012e-08  1.49012e-08 0 1.49012e-08  0 0 1.49012e-08  0 0 1.49012e-08  0 0 1.49012e-08  0 0 1.49012e-08  0 0 1.49012e-08  0 0 1.49012e-08  0 0 1.49012e-08  0 0 1.49012e-08  0 0 1.49012e-08  0 0 1.49012e-08  0 0 1.49012e-08  0 0 1.49012e-08  0 0 1.49012e-08  0 0 1.49012e-08  0 0 1.49012e-08  0 0 1.49012e-08  0 0 1.49012e-08  0 0 1.49012e-08  0 0 1.49012e-08  0 0 1.49012e-08  -0.0337333 -0.00452848 0.0555404  -0.0335112 -0.0011469 0.0578013  -0.0335767 -0.000207808 0.0547493  -0.034401 0.00032765 0.0504707  -0.0356265 0.000560816 0.0455318  -0.0370533 0.000626706 0.0402752  -0.038515 0.000581011 0.0348567  -0.0398944 0.000463806 0.0293777  -0.0411134 0.000303868 0.0239  -0.0421275 0.000124287 0.0184628  -0.0429189 -5.60544e-05 0.0130892  -0.0434915 -0.000221558 0.00779353  -0.0438664 -0.000359688 0.00258321  -0.0440768 -0.000460885 -0.00253749  -0.0441643 -0.000517961 -0.00756405  -0.0441784 -0.000523932 -0.0124923  -0.0441743 -0.000472371 -0.017317  -0.044218 -0.000353273 -0.0220351  -0.0443873 -0.000154648 -0.0266474  -0.0447811 0.000141244 -0.0311678  -0.0455322 0.000560995 -0.0356272  -0.0468177 0.00113958 -0.0400748  -0.0489553 0.00197927 -0.0446677  -0.0521336 0.00302159 -0.0493382  -0.0591893 0.00639822 -0.0560397  -0.0573028 -0.0112823 0.119354  -0.060286 -0.00425781 0.118144  -0.062444 -0.000997886 0.113041  -0.0650694 0.000788704 0.105155  -0.0679692 0.0017087 0.0959791  -0.0709781 0.00205911 0.0860231  -0.0739325 0.00202515 0.0756102  -0.0767089 0.00173493 0.0649276  -0.0792227 0.00128494 0.0541036  -0.0814274 0.000751585 0.0432299  -0.0833096 0.000196643 0.032375  -0.0848848 -0.000329323 0.0215909  -0.0861897 -0.000786394 0.0109182  -0.0872782 -0.00114232 0.000389636  -0.0882137 -0.00137238 -0.00996658  -0.0890729 -0.0014514 -0.0201285  -0.0899414 -0.00135392 -0.0300792  -0.0909235 -0.00104526 -0.0398135  -0.0921434 -0.000480048 -0.0493423  -0.0937587 0.000405662 -0.0587033  -0.0959783 0.0017089 -0.0679691  -0.099092 0.00357834 -0.0772816  -0.103485 0.00628471 -0.086755  -0.109891 0.0103833 -0.096986  -0.12051 0.0187683 -0.10793  -0.0739746 -0.0180279 0.187912  -0.0799171 -0.00832362 0.183307  -0.0848929 -0.00265142 0.17499  -0.0898457 0.000731409 0.16384  -0.0948684 0.0026308 0.15078  -0.099841 0.00349715 0.136491  -0.104645 0.00363016 0.121379  -0.109182 0.00325245 0.105721  -0.113387 0.00253843 0.0897148  -0.117227 0.00162926 0.0735119  -0.120705 0.000641465 0.0572339  -0.123849 -0.000329345 0.0409809  -0.12671 -0.00120519 0.0248367  -0.129356 -0.00192239 0.00887311  -0.131866 -0.00242825 -0.00685002  -0.134335 -0.00267105 -0.0222847  -0.136872 -0.00259627 -0.0373973  -0.139605 -0.00213638 -0.0521739  -0.142694 -0.0012017 -0.0666318  -0.146334 0.00032787 -0.0808261  -0.150779 0.00263059 -0.0948675  -0.156363 0.00597882 -0.108921  -0.163579 0.0108383 -0.123286  -0.17325 0.0181752 -0.138282  -0.187156 0.0303383 -0.154489  -0.0835063 -0.0241547 0.260087  -0.092013 -0.0125928 0.251964  -0.0997976 -0.00490353 0.240277  -0.107411 7.24494e-05 0.225701  -0.114946 0.00306866 0.208941  -0.122338 0.00460003 0.190586  -0.129484 0.00504419 0.171078  -0.136307 0.00469951 0.150743  -0.142756 0.00381096 0.129835  -0.148814 0.00258231 0.108558  -0.154497 0.00118639 0.0870879  -0.159847 -0.00023289 0.0655734  -0.164927 -0.00155525 0.0441457  -0.169814 -0.0026807 0.0229188  -0.1746 -0.00352257 0.00198944  -0.179393 -0.00399749 -0.0185631  -0.184317 -0.0040172 -0.0386831  -0.189524 -0.00347704 -0.058342  -0.1952 -0.00224362 -0.077553  -0.201573 -0.000143722 -0.0963786  -0.208939 0.00306834 -0.114945  -0.217697 0.00775152 -0.133467  -0.228417 0.014468 -0.152267  -0.24195 0.0241895 -0.171737  -0.259668 0.0382817 -0.192992  -0.0851327 -0.029277 0.33437  -0.0959581 -0.0165388 0.322726  -0.106517 -0.00734243 0.307648  -0.11702 -0.000998005 0.289669  -0.127451 0.00305416 0.269345  -0.137722 0.00529943 0.247186  -0.147731 0.00614545 0.223614  -0.157399 0.00593787 0.19897  -0.166682 0.0049752 0.173541  -0.175573 0.00351444 0.147571  -0.184097 0.00177884 0.121277  -0.192304 -4.22597e-05 0.0948541  -0.200263 -0.00178674 0.0684811  -0.208059 -0.00331742 0.0423136  -0.21579 -0.00451194 0.0164889  -0.223571 -0.00525357 -0.00887999  -0.23154 -0.00541879 -0.0337087  -0.239864 -0.00486681 -0.0579491  -0.248753 -0.00342625 -0.0816018  -0.258465 -0.000881955 -0.104725  -0.269345 0.00305395 -0.127452  -0.281842 0.00877123 -0.150011  -0.296562 0.0168132 -0.172743  -0.314314 0.0279077 -0.196184  -0.336034 0.0425808 -0.221513  -0.0782146 -0.0332487 0.409259  -0.0912947 -0.0198532 0.394145  -0.104679 -0.00963083 0.375748  -0.118294 -0.00223063 0.354502  -0.13198 0.00272748 0.330845  -0.145578 0.00564998 0.3052  -0.158956 0.00693047 0.277951  -0.172017 0.00693128 0.249432  -0.184714 0.00598294 0.219942  -0.197038 0.00438184 0.189749  -0.209017 0.00239143 0.159104  -0.220705 0.000240743 0.12824  -0.232173 -0.00187092 0.0973756  -0.243507 -0.00377056 0.066709  -0.254805 -0.00530204 0.0364167  -0.266186 -0.00631526 0.00664872  -0.277792 -0.00665322 -0.0224783  -0.289801 -0.00614277 -0.0508911  -0.30244 -0.0045816 -0.0785694  -0.315997 -0.00172608 -0.105558  -0.330844 0.0027273 -0.131981  -0.347462 0.00915337 -0.158063  -0.366449 0.0180022 -0.184158  -0.388519 0.0297037 -0.210868  -0.414329 0.0442874 -0.239258  -0.0623681 -0.0361255 0.483308  -0.0778028 -0.0224378 0.46482  -0.0941603 -0.0115781 0.443263  -0.111124 -0.00342992 0.41898  -0.128395 0.00224033 0.392302  -0.145728 0.00574836 0.363561  -0.162938 0.0074479 0.333088  -0.179899 0.00769323 0.301192  -0.196544 0.00682589 0.268168  -0.212855 0.00516629 0.2343  -0.228856 0.0030058 0.199857  -0.244598 0.000605792 0.165104  -0.260149 -0.00180426 0.130294  -0.275592 -0.00401929 0.095663  -0.291019 -0.00585207 0.0614261  -0.306544 -0.00712126 0.0277699  -0.322309 -0.00763997 -0.00515574  -0.338496 -0.0072068 -0.0372462  -0.355341 -0.00559506 -0.0684548  -0.373146 -0.00254595 -0.098803  -0.392302 0.00224009 -0.128396  -0.413287 0.00909671 -0.15744  -0.436677 0.0183565 -0.186292  -0.463105 0.0302125 -0.215548  -0.49311 0.0444771 -0.246111  -0.0374671 -0.0380841 0.555123  -0.0554917 -0.0243377 0.533423  -0.0750434 -0.0131231 0.508949  -0.0956038 -0.00448254 0.481944  -0.116758 0.00170895 0.452627  -0.138179 0.00568902 0.421241  -0.159625 0.00776145 0.388052  -0.180925 0.00825742 0.353333  -0.201986 0.00751421 0.317362  -0.222772 0.00586128 0.280423  -0.243294 0.00360686 0.242802  -0.263594 0.00103438 0.204785  -0.283732 -0.00160256 0.16665  -0.303781 -0.00407314 0.128667  -0.323824 -0.00616211 0.0910858  -0.343964 -0.00766096 0.0541271  -0.364335 -0.00835568 0.0179763  -0.385115 -0.00802112 -0.0172298  -0.406539 -0.00641191 -0.0514116  -0.428914 -0.0032635 -0.084563  -0.452627 0.00170943 -0.116759  -0.47815 0.00879002 -0.148187  -0.506033 0.018207 -0.17918  -0.536856 0.0300069 -0.210288  -0.571157 0.0439362 -0.24226  -0.0036356 -0.0393518 0.623369  -0.0245809 -0.0256744 0.598705  -0.0475874 -0.0142916 0.571643  -0.0719938 -0.00534838 0.542301  -0.0972956 0.00120455 0.510788  -0.1231 0.0055452 0.477259  -0.149108 0.00792956 0.441905  -0.17511 0.00866199 0.404958  -0.200974 0.00806487 0.36667  -0.226639 0.00646615 0.327318  -0.252097 0.0041807 0.287192  -0.277374 0.00150424 0.246591  -0.30252 -0.00129244 0.205813  -0.32759 -0.00395921 0.165153  -0.352653 -0.00625768 0.124891  -0.377796 -0.00795561 0.0852781  -0.403138 -0.00881556 0.0465338  -0.428845 -0.00859118 0.00882867  -0.455143 -0.00702447 -0.0277246  -0.482332 -0.0038476 -0.063085  -0.510788 0.00120541 -0.0972976  -0.540969 0.00837365 -0.130516  -0.573406 0.0178108 -0.163037  -0.608664 0.0294911 -0.195336  -0.647324 0.0431515 -0.228034  0.0387573 -0.0401605 0.686787  0.0145193 -0.0266008 0.6595  -0.01221 -0.015157 0.630254  -0.0406923 -0.00603837 0.599022  -0.0703658 0.000756383 0.565806  -0.100787 0.00536132 0.530672  -0.131613 0.00799602 0.493743  -0.162591 0.00893852 0.455198  -0.193555 0.00849441 0.41526  -0.224412 0.006982 0.374188  -0.255127 0.00471506 0.332269  -0.285708 0.00199279 0.289807  -0.316184 -0.000903487 0.247115  -0.346595 -0.0037114 0.204503  -0.37699 -0.00617492 0.162272  -0.407434 -0.00804168 0.120703  -0.438026 -0.00905439 0.0800428  -0.468913 -0.00894803 0.0404959  -0.500302 -0.00745383 0.00220792  -0.53248 -0.00430226 -0.0347435  -0.565805 0.000757188 -0.0703677  -0.600723 0.00793156 -0.104777  -0.63775 0.0173304 -0.138215  -0.677457 0.0289004 -0.171073  -0.720481 0.0423819 -0.20386  0.0891216 -0.0407195 0.744201  0.0612357 -0.0272689 0.714728  0.0305342 -0.0158122 0.683763  -0.0022232 -0.00659227 0.651141  -0.036446 0.000362247 0.616759  -0.0716578 0.00515601 0.580595  -0.107481 0.0079855 0.542703  -0.143626 0.0091078 0.503214  -0.179892 0.00881347 0.462314  -0.216153 0.0074079 0.420241  -0.252346 0.00519788 0.377271  -0.288454 0.00247908 0.333705  -0.324483 -0.000464439 0.289859  -0.360452 -0.00336352 0.246053  -0.396389 -0.00595066 0.202604  -0.432335 -0.00795844 0.15981  -0.468364 -0.00911206 0.117946  -0.504596 -0.00913092 0.0772431  -0.541218 -0.0077351 0.0378802  -0.578492 -0.00465158 -2.7582e-05  -0.616758 0.000362635 -0.0364479  -0.656443 0.00749627 -0.0714446  -0.698055 0.0168407 -0.105195  -0.742181 0.0283383 -0.138002  -0.78951 0.0417317 -0.170265  0.146671 -0.0412022 0.794556  0.114838 -0.0278142 0.763407  0.0799594 -0.0163498 0.731242  0.0427724 -0.0070622 0.69777  0.00387359 -4.17233e-07 0.662788  -0.036241 0.00492615 0.62619  -0.0771661 0.00790226 0.587968  -0.118583 0.00917524 0.548204  -0.160259 0.00902265 0.507047  -0.202036 0.00773787 0.464709  -0.243822 0.00561517 0.421446  -0.285571 0.00294262 0.377549  -0.327266 -1.16229e-06 0.333329  -0.368904 -0.00294524 0.28911  -0.410487 -0.00561747 0.245212  -0.452033 -0.00773978 0.201949  -0.493588 -0.0090239 0.159612  -0.535245 -0.00917614 0.118456  -0.57716 -0.0079039 0.0786906  -0.619568 -0.00492671 0.0404697  -0.662786 -4.17233e-07 0.0038707  -0.70722 0.00706112 -0.0311124  -0.753366 0.0163484 -0.0645846  -0.801819 0.0278135 -0.0967497  -0.853317 0.0412012 -0.127899  0.210478 -0.041733 0.836923  0.174476 -0.0283393 0.80466  0.135269 -0.0168421 0.771854  0.0935475 -0.00749725 0.738103  0.0498999 -0.000363052 0.703108  0.00483409 0.00465107 0.666687  -0.0412255 0.00773364 0.628779  -0.0879351 0.00913006 0.589416  -0.135035 0.00911063 0.548713  -0.182339 0.00795686 0.506848  -0.229725 0.00594842 0.464054  -0.277121 0.00336117 0.420604  -0.324483 0.000462174 0.376799  -0.371787 -0.00248188 0.332953  -0.419012 -0.00520033 0.289387  -0.466151 -0.00741005 0.246417  -0.513223 -0.00881475 0.204345  -0.560288 -0.00910884 0.163445  -0.607476 -0.0079872 0.123954  -0.654986 -0.00515729 0.086063  -0.703107 -0.000363648 0.0498979  -0.752217 0.00659126 0.0155163  -0.802792 0.0158116 -0.0171057  -0.855423 0.0272681 -0.0480708  -0.91087 0.0407187 -0.0775444  0.279507 -0.0423827 0.870519  0.239198 -0.0289015 0.837733  0.195573 -0.0173314 0.804875  0.149267 -0.00793266 0.771437  0.100852 -0.000757754 0.737028  0.0508456 0.00430179 0.701404  -0.000309199 0.00745225 0.664451  -0.0522518 0.00894719 0.626164  -0.104698 0.00905329 0.586617  -0.157438 0.00804013 0.545956  -0.210327 0.0061729 0.504386  -0.263264 0.00370944 0.462156  -0.316186 0.000901699 0.419543  -0.369042 -0.00199544 0.37685  -0.421794 -0.00471735 0.334389  -0.474412 -0.00698423 0.292471  -0.526887 -0.00849599 0.2514  -0.579255 -0.00893992 0.211461  -0.631609 -0.00799835 0.172914  -0.684116 -0.00536275 0.135984  -0.737027 -0.00075841 0.100849  -0.790687 0.00603747 0.0676356  -0.845537 0.0151568 0.0364036  -0.90214 0.0266004 0.00715679  -0.961235 0.0401598 -0.0201308  0.352664 -0.0431517 0.894694  0.307992 -0.0294914 0.861996  0.259916 -0.0178111 0.829698  0.209022 -0.00837469 0.797177  0.155871 -0.0012061 0.763959  0.100994 0.00384694 0.729747  0.0448494 0.00702339 0.694386  -0.0121839 0.00859004 0.657832  -0.0698102 0.00881463 0.620127  -0.127801 0.00795418 0.581382  -0.18599 0.00625616 0.541769  -0.244259 0.00395757 0.501506  -0.302521 0.00129098 0.460846  -0.360709 -0.00150633 0.420067  -0.418764 -0.00418282 0.379466  -0.47664 -0.00646812 0.33934  -0.534307 -0.00806648 0.299988  -0.591775 -0.00866342 0.2617  -0.649106 -0.00793177 0.224752  -0.70643 -0.00554681 0.189399  -0.763958 -0.00120658 0.155868  -0.821989 0.00534749 0.124356  -0.880915 0.0142912 0.0950137  -0.941242 0.0256741 0.0679524  -1.00363 0.0393512 0.0432868  0.428833 -0.0439367 0.908922  0.379802 -0.0300074 0.87695  0.327291 -0.0182071 0.845843  0.271841 -0.00879061 0.814848  0.21403 -0.00170958 0.783421  0.154411 0.00326282 0.751224  0.0934543 0.00641149 0.718073  0.0315452 0.00801998 0.68389  -0.031008 0.00835443 0.648684  -0.0939689 0.00765985 0.612533  -0.157162 0.00616062 0.575574  -0.220451 0.00407195 0.537992  -0.283735 0.00160122 0.500008  -0.34693 -0.00103593 0.461873  -0.409963 -0.00360876 0.423855  -0.472774 -0.00586283 0.386235  -0.535321 -0.00751561 0.349296  -0.597592 -0.00825882 0.313325  -0.659623 -0.00776303 0.278605  -0.721511 -0.00569069 0.245414  -0.783422 -0.00170988 0.214029  -0.8456 0.00448197 0.184712  -0.908373 0.013123 0.157707  -0.972154 0.0243382 0.133233  -1.03746 0.0380844 0.111533  0.506881 -0.0444778 0.912776  0.453554 -0.0302137 0.882212  0.396648 -0.0183571 0.852956  0.336704 -0.00909775 0.824104  0.274356 -0.00224066 0.795059  0.210178 0.0025453 0.765466  0.144652 0.00559497 0.735118  0.0781644 0.00720584 0.703908  0.0110183 0.00763863 0.671817  -0.056549 0.00712019 0.638891  -0.124357 0.00585073 0.605234  -0.192262 0.00401843 0.570998  -0.260153 0.00180286 0.536366  -0.327934 -0.000606835 0.501556  -0.395525 -0.00300723 0.466803  -0.462856 -0.00516713 0.43236  -0.529878 -0.00682682 0.398491  -0.596566 -0.00769454 0.365466  -0.662937 -0.00744891 0.33357  -0.72906 -0.00574982 0.303096  -0.795058 -0.0022406 0.274354  -0.861121 0.00342923 0.247676  -0.927491 0.0115777 0.223393  -0.994467 0.0224389 0.201836  -1.06237 0.0361267 0.183348  0.585661 -0.0442875 0.905924  0.528138 -0.0297043 0.877534  0.466877 -0.0180029 0.850822  0.402529 -0.00915492 0.824727  0.335813 -0.0027281 0.798646  0.267328 0.00172555 0.772222  0.197553 0.00458157 0.745233  0.126858 0.00614202 0.717554  0.0555342 0.00665188 0.689141  -0.0161915 0.00631452 0.660014  -0.0881438 0.00530124 0.630246  -0.160177 0.00376952 0.599953  -0.232177 0.00186962 0.569286  -0.304042 -0.000241518 0.538422  -0.375687 -0.00239259 0.507556  -0.447039 -0.00438225 0.476911  -0.518048 -0.00598353 0.446717  -0.588685 -0.00693256 0.417226  -0.658956 -0.00693148 0.388708  -0.728912 -0.00565106 0.361458  -0.798646 -0.00272757 0.335812  -0.868293 0.00223053 0.312155  -0.938012 0.0096305 0.290909  -1.00796 0.0198539 0.272512  -1.07821 0.0332503 0.257398  0.663956 -0.0425799 0.88818  0.602343 -0.0279076 0.862849  0.536762 -0.0168135 0.839408  0.468148 -0.00877225 0.816676  0.397314 -0.0030545 0.794116  0.324862 0.000882328 0.771389  0.251241 0.00342673 0.748267  0.176795 0.00486577 0.724613  0.101787 0.00541794 0.700373  0.0264233 0.00525331 0.675545  -0.0491282 0.00451177 0.650176  -0.12473 0.00331646 0.624349  -0.200267 0.00178576 0.598181  -0.27564 4.16636e-05 0.571808  -0.350766 -0.00177968 0.545385  -0.425574 -0.00351459 0.519092  -0.500016 -0.00497562 0.49312  -0.574066 -0.00593895 0.467689  -0.647731 -0.00614631 0.443046  -0.721055 -0.00530022 0.419473  -0.794118 -0.0030545 0.397315  -0.86702 0.000997782 0.376991  -0.939849 0.0073424 0.359011  -1.01262 0.0165393 0.343932  -1.08513 0.0292782 0.332289  0.740322 -0.0382815 0.859661  0.674708 -0.0241896 0.838405  0.604908 -0.0144687 0.818933  0.532295 -0.00775218 0.800133  0.457722 -0.00306875 0.781611  0.381757 0.000144601 0.763044  0.304796 0.00224417 0.744219  0.227137 0.00347579 0.725007  0.149012 0.00401682 0.705348  0.070604 0.0039975 0.685229  -0.00793612 0.00352281 0.664676  -0.0864835 0.00268042 0.643747  -0.16493 0.00155437 0.622519  -0.243182 0.000232399 0.601089  -0.321166 -0.00118691 0.579575  -0.398815 -0.00258231 0.558105  -0.476089 -0.00381112 0.536828  -0.552974 -0.0047003 0.515919  -0.629484 -0.00504512 0.495583  -0.70567 -0.00460076 0.476076  -0.781612 -0.00306922 0.457721  -0.85741 -7.27177e-05 0.440961  -0.93313 0.00490338 0.426384  -1.00868 0.0125929 0.414695  -1.0835 0.0241548 0.406573  0.812837 -0.0303384 0.821158  0.743411 -0.0181751 0.80495  0.669749 -0.0108386 0.789953  0.593633 -0.00597864 0.775588  0.515884 -0.00263053 0.761534  0.436997 -0.00032717 0.747493  0.357304 0.00120205 0.733298  0.277058 0.00213546 0.718841  0.196459 0.00259596 0.704063  0.115663 0.00267118 0.68895  0.0347984 0.00242865 0.673517  -0.0460242 0.00192273 0.657793  -0.126712 0.00120467 0.641829  -0.207184 0.000328839 0.625684  -0.287373 -0.000641763 0.609431  -0.367228 -0.00162911 0.593153  -0.446721 -0.00253862 0.57695  -0.525849 -0.00325286 0.560943  -0.604645 -0.00363094 0.545283  -0.683174 -0.00349778 0.530171  -0.761535 -0.00263119 0.515883  -0.839845 -0.000731587 0.502823  -0.918226 0.00265133 0.491672  -0.996583 0.00832385 0.483355  -1.07397 0.018028 0.478748  0.879486 -0.0187677 0.774597  0.806772 -0.0103829 0.763653  0.729845 -0.00628436 0.753423  0.650904 -0.00357789 0.74395  0.570684 -0.00170845 0.734636  0.489571 -0.000405073 0.72537  0.407854 0.000480235 0.716008  0.32574 0.00104487 0.706479  0.243389 0.00135338 0.696745  0.160925 0.00145167 0.686794  0.078451 0.00137264 0.676633  -0.00394672 0.00114286 0.666277  -0.0861917 0.000786304 0.655748  -0.16822 0.000329196 0.645076  -0.249977 -0.000196695 0.634291  -0.331429 -0.000751734 0.623436  -0.412557 -0.0012849 0.612561  -0.493376 -0.00173491 0.601737  -0.573933 -0.00202543 0.591055  -0.654311 -0.00205952 0.580641  -0.734635 -0.00170881 0.570685  -0.815069 -0.000789165 0.561509  -0.895776 0.000997782 0.553622  -0.976951 0.00425762 0.548518  -1.0573 0.0112822 0.547308  0.940809 -0.00639796 0.722707  0.864532 -0.00302136 0.716006  0.784377 -0.00197923 0.711336  0.703181 -0.00113934 0.706743  0.621133 -0.000560701 0.702295  0.538551 -0.000141025 0.697835  0.455611 0.000154912 0.693314  0.372447 0.000353277 0.688702  0.289157 0.000472009 0.683984  0.205821 0.000524402 0.67916  0.122502 0.000518024 0.674232  0.0392566 0.00046134 0.669206  -0.0438667 0.000359774 0.664085  -0.126825 0.000221729 0.658874  -0.209586 5.59688e-05 0.653578  -0.292128 -0.000124395 0.648203  -0.374447 -0.000303864 0.642765  -0.456561 -0.000463605 0.637288  -0.538515 -0.000581145 0.631809  -0.620386 -0.000626624 0.62639  -0.702293 -0.00056076 0.621134  -0.784401 -0.000327885 0.616194  -0.866909 0.000207901 0.611917  -0.950177 0.00114673 0.608864  -1.03373 0.00452858 0.611124  1 0 0.666667  0.916667 0 0.666667  0.833333 0 0.666667  0.75 0 0.666667  0.666667 0 0.666667  0.583333 0 0.666667  0.5 0 0.666667  0.416667 0 0.666667  0.333333 0 0.666667  0.25 0 0.666667  0.166667 0 0.666667  0.0833333 0 0.666667  0 0 0.666667  -0.0833334 0 0.666667  -0.166667 0 0.666667  -0.25 0 0.666667  -0.333333 0 0.666667  -0.416667 0 0.666667  -0.5 0 0.666667  -0.583333 0 0.666667  -0.666667 0 0.666667  -0.75 0 0.666667  -0.833333 0 0.666667  -0.916667 0 0.666667  -1 0 0.666667  0 0 0  -1.11759e-08 0 0  7.45058e-09 0 0  0 0 0  1.49012e-08 0 0  0 0 0  0 0 0  0 0 0  0 0 0  0 0 0  0 0 0  0 0 0  0 0 0  0 0 0  0 0 0  0 0 0  0 0 0  0 0 0  0 0 0  0 0 0  0 0 0  0 0 0  0 0 0  0 0 0  0 0 0  -0.0313591 -0.0053098 0.057014  -0.0303084 -0.0016727 0.0577609  -0.0298785 -0.000685651 0.0541885  -0.0303031 -0.00011972 0.0497447  -0.0311675 0.000141144 0.0447811  -0.0322625 0.000241682 0.0395727  -0.0334284 0.000238553 0.0342366  -0.034558 0.000171401 0.0288527  -0.0355805 6.71409e-05 0.0234688  -0.036455 -5.36963e-05 0.018114  -0.0371645 -0.000174563 0.0128044  -0.0377099 -0.00028288 0.00754902  -0.0381056 -0.000368975 0.00235254  -0.0383763 -0.000424936 -0.0027829  -0.0385523 -0.000445496 -0.00785333  -0.0386714 -0.000424244 -0.0128576  -0.0387762 -0.00035511 -0.0177938  -0.038917 -0.000229415 -0.0226653  -0.0391555 -3.59118e-05 -0.0274805  -0.0395719 0.000241764 -0.0322625  -0.0402752 0.000626832 -0.0370539  -0.0414191 0.00115433 -0.0419254  -0.0432673 0.0019012 -0.0470487  -0.0460769 0.00287679 -0.0525283  -0.0519682 0.00563298 -0.0609288  -0.052063 -0.0131317 0.120304  -0.0536138 -0.00586313 0.11747  -0.0547194 -0.00246624 0.111417  -0.0565033 -0.000601843 0.103092  -0.0587033 0.000405461 0.0937591  -0.0611251 0.000868745 0.0838099  -0.0635947 0.000975631 0.0734992  -0.0659877 0.000850491 0.0629711  -0.06822 0.00058309 0.0523242  -0.0702446 0.000241868 0.0416278  -0.0720444 -0.000119336 0.0309342  -0.0736263 -0.000458397 0.0202812  -0.0750144 -0.000743009 0.00969967  -0.0762469 -0.000947118 -0.000785574  -0.0773706 -0.00105014 -0.0111532  -0.0784433 -0.00103015 -0.0213895  -0.0795314 -0.000864476 -0.0314876  -0.0807167 -0.000522308 -0.0414542  -0.0820996 3.6411e-05 -0.0513151  -0.0838106 0.000869147 -0.0611254  -0.0860235 0.00205931 -0.0709778  -0.088985 0.00373475 -0.0810423  -0.0930253 0.00612597 -0.0915037  -0.0987477 0.00964946 -0.103137  -0.107401 0.0164943 -0.115627  -0.0652942 -0.0208342 0.187255  -0.0694344 -0.0109783 0.180961  -0.0729774 -0.00519342 0.171508  -0.0767626 -0.00170714 0.1597  -0.0808265 0.000327483 0.146333  -0.0850179 0.00138287 0.131984  -0.0892009 0.00175922 0.116974  -0.0932679 0.00167242 0.101522  -0.097147 0.00128457 0.0857786  -0.1008 0.000723615 0.0698608  -0.104218 9.04053e-05 0.0538612  -0.107418 -0.000532568 0.037857  -0.110433 -0.00108195 0.0219128  -0.113309 -0.00150481 0.00608523  -0.116106 -0.00175712 -0.00958091  -0.118895 -0.00179409 -0.0250516  -0.12176 -0.0015688 -0.0403091  -0.124804 -0.00102028 -0.0553583  -0.128158 -7.19205e-05 -0.0702354  -0.131983 0.00138353 -0.0850184  -0.13649 0.00349751 -0.099841  -0.141947 0.00649989 -0.114902  -0.148732 0.0107768 -0.130532  -0.157319 0.0170515 -0.147021  -0.168778 0.0274507 -0.164494  -0.0709581 -0.0276058 0.256983  -0.0775164 -0.01603 0.247085  -0.083685 -0.00832559 0.234124  -0.0899567 -0.0032845 0.218746  -0.0963784 -0.000144124 0.201573  -0.10286 0.00162269 0.183102  -0.109287 0.00238872 0.163694  -0.115571 0.00244182 0.143607  -0.121657 0.00200869 0.123039  -0.127518 0.00127466 0.102151  -0.133157 0.000390023 0.0810758  -0.1386 -0.000520006 0.0599323  -0.143889 -0.00135623 0.0388219  -0.149078 -0.00203472 0.0178355  -0.154235 -0.00248267 -0.00295295  -0.159442 -0.00262854 -0.0234846  -0.164795 -0.00239672 -0.0437257  -0.170417 -0.00169346 -0.0636702  -0.176457 -0.000404745 -0.0833534  -0.183102 0.00162292 -0.10286  -0.190585 0.00460032 -0.122337  -0.199201 0.00883305 -0.14201  -0.209329 0.0147933 -0.162185  -0.221453 0.023315 -0.183153  -0.236607 0.0359376 -0.205716  -0.0686122 -0.0330565 0.328185  -0.0774824 -0.0204594 0.314662  -0.0863841 -0.0113752 0.298181  -0.0954804 -0.00504562 0.279285  -0.104724 -0.000882193 0.258466  -0.114011 0.00160691 0.236149  -0.123233 0.00281867 0.212672  -0.132308 0.00308377 0.18831  -0.141191 0.00267714 0.163285  -0.149866 0.00183164 0.137792  -0.158344 0.000742733 0.111999  -0.16666 -0.000425145 0.0860619  -0.17486 -0.00153637 0.0601209  -0.183006 -0.00247568 0.0342995  -0.19117 -0.00313987 0.00870538  -0.199439 -0.00342907 -0.016576  -0.20792 -0.00323765 -0.0414876  -0.216748 -0.00244059 -0.0660058  -0.226088 -0.000889301 -0.0901545  -0.236147 0.00160685 -0.114012  -0.247186 0.00529972 -0.137724  -0.259523 0.0105301 -0.161516  -0.273559 0.0177829 -0.185698  -0.289836 0.0277901 -0.210718  -0.309198 0.0413747 -0.237634  -0.0578767 -0.0371136 0.399546  -0.0690859 -0.0240146 0.382426  -0.0808638 -0.0140307 0.362504  -0.0930811 -0.00673823 0.340233  -0.105557 -0.00172623 0.315998  -0.11813 0.00141808 0.290143  -0.130672 0.00307465 0.262971  -0.143092 0.00358877 0.234749  -0.155346 0.00326344 0.205707  -0.16742 0.00236657 0.17606  -0.179334 0.00112957 0.146006  -0.191124 -0.000249758 0.115729  -0.202841 -0.00160307 0.0854024  -0.214547 -0.00278553 0.0551845  -0.226316 -0.00366488 0.0252145  -0.238236 -0.00411342 -0.00439194  -0.250418 -0.00399658 -0.03355  -0.263004 -0.00316074 -0.062214  -0.27617 -0.00142844 -0.0903872  -0.290142 0.00141785 -0.118131  -0.3052 0.00565019 -0.14558  -0.321686 0.0116096 -0.172952  -0.340022 0.0197315 -0.200579  -0.360763 0.0305322 -0.229016  -0.384551 0.0442848 -0.259328  -0.0385242 -0.0399179 0.469757  -0.052238 -0.0266687 0.449118  -0.0671 -0.0161586 0.425914  -0.0827251 -0.00820574 0.400498  -0.0988019 -0.00254601 0.373146  -0.115093 0.00114432 0.344125  -0.131431 0.00320587 0.313687  -0.147704 0.00397605 0.282075  -0.163856 0.00376788 0.249518  -0.179872 0.0028702 0.21624  -0.195769 0.00154009 0.182456  -0.211585 1.51992e-06 0.148374  -0.22737 -0.00155067 0.114197  -0.243183 -0.00294527 0.0801114  -0.259094 -0.00402409 0.0462885  -0.275188 -0.00463319 0.0128738  -0.291574 -0.00461194 -0.0200193  -0.308395 -0.00378126 -0.0523158  -0.325834 -0.00194079 -0.0839947  -0.344125 0.00114405 -0.115094  -0.363561 0.00574869 -0.145729  -0.384498 0.0121899 -0.176106  -0.407372 0.0208187 -0.20657  -0.432717 0.0319297 -0.237711  -0.461062 0.045485 -0.270501  -0.0105101 -0.0417216 0.537517  -0.0270215 -0.0285318 0.513507  -0.0452335 -0.0177566 0.487262  -0.0645542 -0.0093852 0.459009  -0.0845612 -0.00326362 0.428914  -0.104946 0.000853509 0.397158  -0.125494 0.00325993 0.363934  -0.146063 0.00427207 0.329458  -0.166579 0.00419974 0.293942  -0.187013 0.00334036 0.257611  -0.207376 0.00196567 0.220693  -0.227703 0.000318676 0.183411  -0.248038 -0.00138628 0.145989  -0.268433 -0.00295612 0.108641  -0.288952 -0.00421032 0.0715623  -0.309671 -0.00497183 0.0349298  -0.33069 -0.00505653 -0.00111367  -0.352148 -0.00426391 -0.0364647  -0.374224 -0.00237507 -0.0710719  -0.397157 0.0008533 -0.104948  -0.421241 0.00568962 -0.138181  -0.446841 0.0124143 -0.170963  -0.474399 0.0212878 -0.203633  -0.504425 0.0324379 -0.236763  -0.537434 0.0456938 -0.271205  0.0259974 -0.0428093 0.601537  0.00630409 -0.0297763 0.574399  -0.0155557 -0.0188994 0.545443  -0.0388536 -0.010282 0.514735  -0.0630821 -0.00384772 0.482333  -0.0878788 0.00058648 0.448326  -0.112982 0.00327262 0.412852  -0.138217 0.00450015 0.37608  -0.163481 0.00456911 0.33821  -0.188731 0.00377527 0.299458  -0.213966 0.00239688 0.260052  -0.239207 0.000686854 0.22023  -0.264493 -0.00112644 0.180227  -0.289867 -0.00283355 0.140277  -0.315378 -0.00423571 0.100602  -0.341089 -0.00513631 0.0614018  -0.367089 -0.00533035 0.0228478  -0.393504 -0.00459939 -0.0149279  -0.420506 -0.00270969 -0.0518432  -0.448326 0.00058648 -0.0878808  -0.477257 0.00554559 -0.123101  -0.507666 0.0124106 -0.157672  -0.539996 0.0213667 -0.191909  -0.574755 0.0324414 -0.226332  -0.612496 0.0454226 -0.261673  0.0705966 -0.0434467 0.660567  0.0473035 -0.0305866 0.630664  0.0214931 -0.0196944 0.599407  -0.00604002 -0.0109409 0.566699  -0.0347417 -0.00430256 0.532483  -0.0642063 0.000359118 0.496762  -0.0941349 0.00326326 0.459611  -0.124322 0.0046753 0.421158  -0.154639 0.00488183 0.381577  -0.185017 0.00417161 0.34107  -0.215437 0.00282159 0.299865  -0.245908 0.00108796 0.258202  -0.276457 -0.000792831 0.216325  -0.307111 -0.00260064 0.174484  -0.337907 -0.00412306 0.132916  -0.36889 -0.00514737 0.0918425  -0.400133 -0.00545055 0.0514595  -0.431743 -0.00479859 0.0119264  -0.463879 -0.00294584 -0.0266456  -0.496759 0.000359356 -0.0642071  -0.530671 0.00536153 -0.100788  -0.565978 0.0122735 -0.136523  -0.603124 0.0212288 -0.171685  -0.642633 0.0322073 -0.206726  -0.685119 0.0449887 -0.242265  0.122663 -0.043854 0.713449  0.0953773 -0.03113 0.68125  0.0653407 -0.0202508 0.648179  0.033349 -0.011421 0.613984  -2.53767e-05 -0.00465164 0.578494  -0.0343515 0.000168562 0.541633  -0.0693048 0.00323752 0.503415  -0.104649 0.00480261 0.463923  -0.140229 0.00513777 0.423304  -0.175952 0.00452182 0.381744  -0.211778 0.00322536 0.339459  -0.247697 0.00150174 0.296686  -0.283719 -0.000409454 0.253678  -0.319858 -0.0022842 0.210686  -0.356135 -0.00389999 0.167961  -0.392575 -0.00503159 0.12574  -0.42923 -0.00544238 0.0842376  -0.466188 -0.00488329 0.0436387  -0.503588 -0.00309828 0.0040814  -0.541631 0.000168532 -0.0343533  -0.580593 0.00515592 -0.0716597  -0.620829 0.0120575 -0.10793  -0.662785 0.0209793 -0.143383  -0.70701 0.0318867 -0.178387  -0.754187 0.0445599 -0.213449  0.181383 -0.0441927 0.759148  0.149779 -0.0315365 0.72521  0.11529 -0.02066 0.690875  0.078665 -0.0117798 0.655752  0.0404726 -0.00492635 0.619569  0.00115457 -6.55651e-07 0.582172  -0.0389432 0.00318766 0.54352  -0.0795648 0.00487626 0.503657  -0.120528 0.00532955 0.462696  -0.161717 0.00481373 0.4208  -0.203066 0.00359094 0.378173  -0.244549 0.00190735 0.335044  -0.286154 -1.16229e-06 0.291662  -0.327881 -0.00191048 0.248279  -0.369731 -0.00359339 0.205151  -0.411714 -0.00481591 0.162525  -0.453857 -0.00533161 0.120629  -0.496226 -0.00487792 0.0796682  -0.538937 -0.00318888 0.039805  -0.582172 -7.7486e-07 0.00115305  -0.626187 0.00492525 -0.0362432  -0.671327 0.0117783 -0.0724263  -0.718035 0.0206578 -0.107549  -0.766877 0.0315344 -0.141885  -0.818605 0.0441906 -0.175824  0.2458 -0.0445623 0.796775  0.209644 -0.0318893 0.761713  0.170537 -0.0209815 0.726709  0.129161 -0.0120593 0.691256  0.086065 -0.00515699 0.654986  0.0416944 -0.000170171 0.61768  -0.00359426 0.00309706 0.579245  -0.0495278 0.0048815 0.539688  -0.0959023 0.00544071 0.499088  -0.142579 0.00502938 0.457586  -0.189471 0.00389779 0.415364  -0.236527 0.00228131 0.372638  -0.283719 0.000407219 0.329647  -0.33103 -0.00150472 0.286638  -0.378443 -0.00322771 0.243867  -0.42595 -0.00452387 0.201582  -0.473559 -0.00514024 0.160021  -0.521312 -0.00480419 0.119403  -0.569299 -0.00323927 0.0799116  -0.617679 -0.000170112 0.0416929  -0.666686 0.00465006 0.00483194  -0.716644 0.0114195 -0.0306577  -0.767984 0.0202491 -0.0648534  -0.82128 0.0311279 -0.0979244  -0.877326 0.0438513 -0.130124  0.314868 -0.0449905 0.825591  0.274022 -0.0322092 0.790053  0.230198 -0.0212306 0.755013  0.184012 -0.0122758 0.719851  0.135986 -0.00536287 0.684117  0.0865654 -0.000361204 0.647535  0.0361152 0.00294453 0.609973  -0.0150824 0.00479674 0.5714  -0.0668052 0.00544906 0.531867  -0.118895 0.00514519 0.491483  -0.171243 0.00412154 0.45041  -0.22378 0.00259852 0.408842  -0.276458 0.000790656 0.367001  -0.329243 -0.00109011 0.325125  -0.382103 -0.00282353 0.283461  -0.435016 -0.00417352 0.242257  -0.48797 -0.004884 0.201751  -0.540986 -0.00467688 0.16217  -0.594131 -0.00326568 0.123716  -0.647534 -0.000360966 0.0865652  -0.701403 0.00430107 0.0508443  -0.756033 0.0109392 0.0166272  -0.811833 0.0196934 -0.0160806  -0.869354 0.0305851 -0.0473386  -0.929394 0.0434446 -0.0772425  0.387491 -0.0454229 0.845  0.3419 -0.032442 0.809658  0.293327 -0.0213671 0.775236  0.242324 -0.0124124 0.740999  0.1894 -0.00554675 0.706429  0.134999 -0.000588417 0.671208  0.079487 0.00270855 0.635172  0.0231566 0.00459754 0.598256  -0.0337617 0.00532866 0.56048  -0.0910942 0.0051344 0.521926  -0.148715 0.00423419 0.482725  -0.206537 0.00283211 0.44305  -0.264495 0.00112474 0.4031  -0.322542 -0.000688314 0.363097  -0.380633 -0.00239837 0.323274  -0.438732 -0.00377691 0.283869  -0.496813 -0.0045709 0.245115  -0.554881 -0.00450158 0.207245  -0.612979 -0.00327498 0.170472  -0.671209 -0.000588 0.134998  -0.729745 0.00384647 0.100992  -0.788848 0.0102808 0.0685892  -0.848883 0.0188992 0.0378821  -0.910356 0.0297753 0.0089249  -0.973996 0.0428082 -0.0182127  0.462556 -0.0456942 0.854533  0.412232 -0.0324381 0.820092  0.358924 -0.0212882 0.786963  0.303149 -0.0124153 0.754292  0.245416 -0.00569022 0.721511  0.186168 -0.00085479 0.688277  0.125769 0.00237399 0.654401  0.0645128 0.00426233 0.619793  0.00263768 0.00505453 0.584441  -0.0596756 0.00496989 0.548397  -0.12229 0.00420886 0.511765  -0.185103 0.00295508 0.474687  -0.24804 0.00138497 0.437338  -0.311038 -0.00031966 0.399915  -0.374044 -0.00196689 0.362634  -0.437014 -0.00334162 0.325715  -0.499912 -0.00420111 0.289384  -0.56273 -0.0042733 0.253869  -0.625492 -0.00326246 0.21939  -0.688277 -0.000854671 0.186167  -0.751224 0.00326252 0.15441  -0.81455 0.00938433 0.124315  -0.878562 0.0177566 0.0960617  -0.943684 0.0285315 0.0698162  -1.01051 0.0417216 0.0458053  0.538929 -0.0454853 0.853832  0.483943 -0.0319294 0.821041  0.425952 -0.0208192 0.789901  0.365493 -0.0121906 0.759436  0.303097 -0.00574911 0.729059  0.2392 -0.00114477 0.698425  0.174158 0.00194001 0.667325  0.108265 0.00377995 0.635645  0.0417528 0.00460994 0.603347  -0.0251937 0.00463158 0.570454  -0.0924319 0.00402278 0.537039  -0.159853 0.00294405 0.503216  -0.227373 0.0015496 0.46913  -0.294922 -2.38419e-06 0.434953  -0.362439 -0.00154096 0.400871  -0.429874 -0.00287127 0.367086  -0.497191 -0.00376892 0.333807  -0.564371 -0.00397712 0.301251  -0.63143 -0.00320774 0.269637  -0.698425 -0.00114548 0.239199  -0.765466 0.0025456 0.210177  -0.832723 0.00820512 0.182826  -0.900431 0.0161585 0.15741  -0.968902 0.0266689 0.134205  -1.03852 0.0399182 0.113566  0.615439 -0.0442852 0.842661  0.555895 -0.0305317 0.812348  0.493303 -0.0197322 0.78391  0.428306 -0.01161 0.756283  0.361458 -0.00565046 0.728911  0.293184 -0.00141811 0.701462  0.223823 0.00142807 0.673717  0.153656 0.00315982 0.645544  0.0829089 0.00399494 0.61688  0.0117586 0.00411224 0.587721  -0.059654 0.00366396 0.558115  -0.131217 0.00278449 0.528144  -0.202844 0.00160205 0.497927  -0.27446 0.000248849 0.4676  -0.346003 -0.00113022 0.437323  -0.417422 -0.00236738 0.407267  -0.48868 -0.00326425 0.377619  -0.55976 -0.00358969 0.348578  -0.630671 -0.0030762 0.320354  -0.701463 -0.00141889 0.293183  -0.772221 0.00172585 0.267328  -0.843078 0.00673759 0.243091  -0.914195 0.01403 0.220821  -0.98575 0.0240147 0.200899  -1.05787 0.0371139 0.183777  0.69079 -0.0413749 0.820968  0.626821 -0.0277897 0.79405  0.559765 -0.0177835 0.769029  0.490469 -0.0105303 0.744847  0.419474 -0.00529969 0.721054  0.347178 -0.0016067 0.697343  0.273904 0.00088954 0.673486  0.199911 0.00244021 0.649336  0.125406 0.00323665 0.624817  0.0505549 0.00342888 0.599907  -0.0245084 0.00313914 0.574625  -0.0996763 0.0024752 0.549031  -0.174863 0.00153536 0.523209  -0.249995 0.000424147 0.497267  -0.325013 -0.00074333 0.47133  -0.399867 -0.00183207 0.445537  -0.474525 -0.00267756 0.420043  -0.548975 -0.0030846 0.395017  -0.623232 -0.00281984 0.370655  -0.697343 -0.00160712 0.347179  -0.77139 0.000881791 0.324861  -0.84548 0.00504482 0.304042  -0.919716 0.0113747 0.285145  -0.994147 0.0204594 0.268664  -1.06861 0.0330568 0.255139  0.763383 -0.0359375 0.789051  0.695205 -0.0233147 0.766487  0.623998 -0.0147932 0.745517  0.550793 -0.00883281 0.725343  0.476077 -0.00460035 0.705669  0.400227 -0.00162238 0.686193  0.323538 0.000404775 0.666687  0.246246 0.00169337 0.647002  0.168535 0.00239617 0.627057  0.0905557 0.0026291 0.606818  0.0124281 0.00248206 0.586285  -0.0657476 0.00203484 0.565497  -0.143891 0.00135541 0.544509  -0.221935 0.000519276 0.523397  -0.299825 -0.00039047 0.502254  -0.377518 -0.00127494 0.481179  -0.45499 -0.00200903 0.460289  -0.532238 -0.00244248 0.439721  -0.609286 -0.00238919 0.419634  -0.686193 -0.00162286 0.400226  -0.763044 0.000143349 0.381755  -0.839956 0.00328386 0.364582  -0.917017 0.00832528 0.349203  -0.994181 0.0160301 0.336241  -1.07096 0.0276058 0.326344  0.831216 -0.0274506 0.747829  0.759342 -0.0170513 0.730356  0.684596 -0.0107763 0.713865  0.608048 -0.00649941 0.698235  0.530171 -0.00349748 0.683174  0.451346 -0.00138259 0.668351  0.371839 7.21216e-05 0.653567  0.291859 0.00102037 0.638691  0.21157 0.00156844 0.623641  0.131103 0.00179487 0.608383  0.0505567 0.00175661 0.592914  -0.0299781 0.00150532 0.577247  -0.110435 0.00108129 0.561419  -0.190753 0.000532448 0.545475  -0.270887 -9.08971e-05 0.52947  -0.350801 -0.000723898 0.51347  -0.430481 -0.00128508 0.497553  -0.509935 -0.00167274 0.481809  -0.589201 -0.00175947 0.466356  -0.668351 -0.00138324 0.451345  -0.747493 -0.000328302 0.436996  -0.826763 0.0017066 0.423629  -0.906311 0.00519341 0.411821  -0.986101 0.0109783 0.402367  -1.06529 0.0208346 0.396073  0.892596 -0.0164946 0.698961  0.817916 -0.00964957 0.686472  0.740306 -0.00612581 0.674839  0.661013 -0.00373471 0.664379  0.580641 -0.00205904 0.654313  0.499522 -0.000868857 0.644459  0.417899 -3.61204e-05 0.634648  0.335948 0.000522316 0.624787  0.253799 0.00086391 0.61482  0.171555 0.0010308 0.604722  0.0892933 0.00105 0.594486  0.0070841 0.000947535 0.584118  -0.0750169 0.000742614 0.573633  -0.156961 0.000458539 0.563052  -0.238713 0.000118971 0.552399  -0.320246 -0.000242233 0.541705  -0.401554 -0.000583529 0.531007  -0.482655 -0.000850499 0.52036  -0.563595 -0.000975907 0.509832  -0.644459 -0.000869453 0.49952  -0.72537 -0.000405848 0.489572  -0.806503 0.000601351 0.480238  -0.888052 0.00246614 0.471913  -0.97028 0.00586277 0.465859  -1.05206 0.0131319 0.463025  0.94803 -0.00563306 0.644263  0.870588 -0.00287688 0.635863  0.790065 -0.00190091 0.630383  0.70858 -0.00115436 0.62526  0.626391 -0.000626564 0.620388  0.54376 -0.000241935 0.615597  0.460843 3.61204e-05 0.610814  0.377748 0.000229418 0.605998  0.294555 0.000354826 0.601127  0.211327 0.000424504 0.596191  0.128113 0.000445664 0.591188  0.0449559 0.00042516 0.586118  -0.0381068 0.000368834 0.580982  -0.121044 0.000283062 0.575785  -0.203832 0.000174582 0.570529  -0.286455 5.3525e-05 0.565219  -0.368914 -6.71744e-05 0.559863  -0.451225 -0.000171483 0.554479  -0.533428 -0.000238538 0.549095  -0.615596 -0.000242293 0.543759  -0.697834 -0.000141025 0.538552  -0.780303 0.000119328 0.533587  -0.863211 0.000685632 0.529144  -0.946974 0.00167233 0.525571  -1.03136 0.00530982 0.526317  1 0 0.583334  0.916667 0 0.583334  0.833333 0 0.583334  0.75 0 0.583334  0.666667 0 0.583334  0.583333 0 0.583334  0.5 0 0.583334  0.416667 0 0.583334  0.333333 0 0.583334  0.25 0 0.583334  0.166667 0 0.583334  0.0833333 0 0.583334  0 0 0.583334  -0.0833334 0 0.583334  -0.166667 0 0.583334  -0.25 0 0.583334  -0.333333 0 0.583334  -0.416667 0 0.583334  -0.5 0 0.583334  -0.583333 0 0.583334  -0.666667 0 0.583334  -0.75 0 0.583334  -0.833333 0 0.583334  -0.916667 0 0.583334  -1 0 0.583334  0 0 0  -1.11759e-08 0 0  7.45058e-09 0 0  0 0 0  1.49012e-08 0 0  0 0 0  0 0 0  0 0 0  0 0 0  0 0 0  0 0 0  0 0 0  0 0 0  0 0 0  0 0 0  0 0 0  0 0 0  0 0 0  0 0 0  0 0 0  0 0 0  0 0 0  0 0 0  0 0 0  0 0 0  -0.0284595 -0.00575126 0.0590042  -0.026734 -0.00198997 0.0582423  -0.0259405 -0.000995129 0.0541217  -0.0260613 -0.000425041 0.0494473  -0.0266472 -0.000154827 0.0443874  -0.0274801 -3.59155e-05 0.0391566  -0.0284075 -1.25207e-05 0.0338362  -0.0293306 -4.66108e-05 0.0284847  -0.0301864 -0.000112951 0.0231366  -0.0309383 -0.000193413 0.0178118  -0.0315701 -0.000274111 0.0125201  -0.0320804 -0.000344567 0.00726649  -0.0324787 -0.00039687 0.00205341  -0.0327823 -0.000425108 -0.00311881  -0.0330135 -0.000424244 -0.00824788  -0.0331997 -0.000389174 -0.0133356  -0.0333722 -0.000314198 -0.0183847  -0.0335683 -0.000192154 -0.0234035  -0.0338355 -1.25729e-05 -0.0284077  -0.0342364 0.000238754 -0.0334282  -0.0348573 0.000581242 -0.0385152  -0.0358278 0.00104848 -0.0437543  -0.0373548 0.00169237 -0.049316  -0.0397221 0.002583 -0.0554495  -0.0443506 0.00470078 -0.0650239  -0.0458405 -0.0141007 0.122185  -0.046199 -0.00677972 0.117656  -0.0465095 -0.00336969 0.11057  -0.0476669 -0.00150987 0.101726  -0.0493416 -0.000480503 0.092143  -0.0513146 3.64631e-05 0.0820993  -0.0534055 0.000225656 0.0717866  -0.0554913 0.0002058 0.0613095  -0.0574906 5.97239e-05 0.0507409  -0.0593573 -0.000151739 0.0401303  -0.0610712 -0.000382401 0.0295153  -0.0626337 -0.000596881 0.0189225  -0.0640596 -0.000768706 0.00837466  -0.0653747 -0.000876814 -0.00211005  -0.0666129 -0.000903018 -0.0125168  -0.0678167 -0.000829309 -0.0228399  -0.0690362 -0.000635259 -0.0330811  -0.0703331 -0.00029543 -0.0432571  -0.0717867 0.000225663 -0.0534059  -0.0735 0.00097613 -0.0635954  -0.0756108 0.00202564 -0.0739325  -0.078316 0.00347925 -0.0846037  -0.0818799 0.00552343 -0.0958511  -0.0867767 0.00846079 -0.108558  -0.0935464 0.0137908 -0.122385  -0.0553313 -0.0221772 0.187891  -0.0579575 -0.0124082 0.179775  -0.0603849 -0.00669463 0.169059  -0.0632873 -0.0032494 0.156481  -0.0666317 -0.00120236 0.142693  -0.0702349 -7.19354e-05 0.128159  -0.0739454 0.000436544 0.11312  -0.0776486 0.000528395 0.09774  -0.081268 0.000353456 0.0821283  -0.0847603 2.53767e-05 0.0663708  -0.0881104 -0.000367396 0.0505367  -0.0913239 -0.000756398 0.0346825  -0.094421 -0.00108831 0.018858  -0.0974336 -0.00131992 0.00310627  -0.100404 -0.00141312 -0.0125402  -0.103386 -0.00133045 -0.02806  -0.106441 -0.00103097 -0.0434488  -0.109652 -0.000464149 -0.0587268  -0.11312 0.00043653 -0.0739459  -0.116974 0.0017598 -0.0892012  -0.121379 0.00363083 -0.104645  -0.126539 0.00623447 -0.120503  -0.132727 0.00987497 -0.137132  -0.140176 0.0150615 -0.15485  -0.14933 0.0235655 -0.173493  -0.0569827 -0.0291017 0.255506  -0.0618736 -0.017781 0.243658  -0.066743 -0.010279 0.229267  -0.0719748 -0.00535947 0.212937  -0.0775524 -0.00224438 0.195199  -0.0833529 -0.000404865 0.176457  -0.0892439 0.000524148 0.15699  -0.0951274 0.000813618 0.136991  -0.100939 0.000673935 0.116607  -0.106644 0.000270069 0.0959565  -0.112235 -0.000265867 0.0751397  -0.117724 -0.000829041 0.0542462  -0.123136 -0.0013357 0.0333542  -0.128509 -0.00171649 0.0125346  -0.133893 -0.00190933 -0.00815739  -0.139347 -0.00185379 -0.028681  -0.144948 -0.00148502 -0.0490212  -0.150788 -0.00072518 -0.0691908  -0.156989 0.000524119 -0.0892452  -0.163693 0.00238922 -0.109288  -0.171077 0.00504483 -0.129485  -0.179345 0.00873789 -0.150078  -0.188723 0.0138468 -0.171375  -0.199408 0.02104 -0.193625  -0.212001 0.0318686 -0.217343  -0.0505684 -0.0345191 0.32391  -0.0577368 -0.02235 0.308304  -0.0652775 -0.0136106 0.290243  -0.073265 -0.00750431 0.270251  -0.0816011 -0.00342721 0.248752  -0.0901535 -0.000889629 0.226089  -0.0987995 0.000493884 0.202522  -0.107448 0.00103278 0.178255  -0.116045 0.000981331 0.153456  -0.124564 0.000547007 0.128269  -0.133005 -9.8452e-05 0.10282  -0.141388 -0.000815973 0.0772298  -0.149741 -0.00149149 0.0516056  -0.158107 -0.00202852 0.0260449  -0.166538 -0.0023402 0.000629932  -0.175101 -0.0023419 -0.0245779  -0.183879 -0.00194354 -0.0495451  -0.192975 -0.00104088 -0.0742705  -0.202521 0.000493869 -0.0988005  -0.212671 0.00281921 -0.123233  -0.223613 0.00614563 -0.147732  -0.235557 0.0107581 -0.172531  -0.248728 0.017068 -0.197933  -0.263414 0.0257528 -0.22433  -0.280247 0.0378546 -0.252621  -0.035885 -0.0384197 0.391931  -0.0454513 -0.0259119 0.372584  -0.0559009 -0.0164051 0.350945  -0.0670134 -0.00943793 0.327455  -0.0785681 -0.00458236 0.302441  -0.0903861 -0.00142881 0.276171  -0.102329 0.000389963 0.248874  -0.114304 0.00119516 0.220745  -0.126256 0.00126636 0.191958  -0.138168 0.000841707 0.16267  -0.150044 0.000124127 0.133033  -0.161906 -0.000717759 0.103187  -0.173788 -0.00154272 0.0732687  -0.185733 -0.00222889 0.0434011  -0.197796 -0.00266558 0.0136922  -0.210043 -0.00274464 -0.015772  -0.22256 -0.00235166 -0.0449352  -0.235458 -0.00135751 -0.073779  -0.248873 0.000389874 -0.10233  -0.262971 0.00307527 -0.130673  -0.27795 0.00693035 -0.158957  -0.294036 0.0122534 -0.187412  -0.31149 0.0194422 -0.216365  -0.33068 0.0290518 -0.246334  -0.352175 0.0416055 -0.27835  -0.0128387 -0.0410056 0.458374  -0.0250506 -0.0284906 0.435355  -0.0386887 -0.0185694 0.410308  -0.0532705 -0.0110309 0.383564  -0.0684539 -0.00559559 0.35534  -0.0839931 -0.00194111 0.325834  -0.099722 0.000260711 0.295228  -0.115533 0.00132304 0.263694  -0.131366 0.00153369 0.231404  -0.147202 0.00114974 0.198521  -0.163047 0.000395447 0.16521  -0.178926 -0.000537753 0.131631  -0.194871 -0.00148579 0.0979414  -0.210924 -0.00230509 0.0642889  -0.227139 -0.00286308 0.0308059  -0.243579 -0.00303039 -0.00239721  -0.26033 -0.00266996 -0.0352406  -0.277499 -0.00163051 -0.0676804  -0.295227 0.000260592 -0.0997235  -0.313687 0.00320631 -0.131432  -0.333087 0.00744763 -0.16294  -0.353673 0.0132749 -0.194468  -0.375746 0.0210345 -0.226368  -0.399718 0.0311045 -0.259221  -0.42609 0.0436329 -0.294046  0.0185249 -0.0425758 0.522022  0.00329854 -0.0302339 0.495475  -0.0138504 -0.0201356 0.467274  -0.0322347 -0.0122508 0.437593  -0.05141 -0.00641236 0.406539  -0.0710703 -0.00237507 0.374225  -0.0910119 0.000143051 0.340781  -0.111104 0.0014368 0.306354  -0.131279 0.00179076 0.271099  -0.151507 0.00146887 0.235182  -0.171792 0.000708252 0.198775  -0.192157 -0.000284106 0.16205  -0.212631 -0.00132638 0.125183  -0.233254 -0.00225812 0.0883391  -0.254071 -0.00292757 0.051674  -0.27514 -0.0031867 0.0153206  -0.296539 -0.00287831 -0.0206153  -0.318374 -0.00183168 -0.0560665  -0.34078 0.000143319 -0.0910132  -0.363934 0.00326008 -0.125496  -0.388051 0.00776136 -0.159626  -0.413397 0.0139141 -0.193616  -0.440306 0.0219957 -0.227821  -0.469212 0.0322186 -0.262835  -0.500596 0.0445209 -0.2996  0.0579666 -0.0434448 0.581641  0.0392742 -0.0313399 0.551825  0.0182713 -0.0212043 0.520812  -0.00423419 -0.0131279 0.488588  -0.0277217 -0.00702429 0.455144  -0.051841 -0.00270936 0.420507  -0.0763531 5.80549e-05 0.38475  -0.101103 0.0015502 0.347988  -0.126003 0.00204167 0.310359  -0.151016 0.00179499 0.27202  -0.176136 0.00105256 0.233145  -0.201378 3.06666e-05 0.193917  -0.226769 -0.0010781 0.154519  -0.252341 -0.00209957 0.115135  -0.278129 -0.00286743 0.075938  -0.304182 -0.0032171 0.0370814  -0.330566 -0.00297403 -0.00130652  -0.357379 -0.00195032 -0.0391337  -0.38475 5.82337e-05 -0.0763543  -0.412851 0.00327241 -0.112983  -0.441903 0.00792974 -0.14911  -0.472189 0.0142691 -0.184927  -0.504066 0.0224992 -0.220777  -0.537989 0.0327125 -0.257226  -0.574468 0.0447539 -0.29512  0.105026 -0.04389 0.636024  0.0823966 -0.032006 0.603331  0.0572004 -0.0218976 0.569936  0.0302867 -0.0137239 0.535638  0.0022108 -0.0074532 0.500304  -0.0266439 -0.00294521 0.46388  -0.0560099 1.11461e-05 0.426383  -0.0857117 0.00166759 0.387888  -0.115643 0.00228533 0.348513  -0.145748 0.00212079 0.308404  -0.176011 0.00141576 0.267733  -0.206436 0.000389725 0.226684  -0.237044 -0.000759393 0.185448  -0.267855 -0.00184867 0.144219  -0.298895 -0.00269994 0.103184  -0.330198 -0.00313595 0.0625133  -0.361819 -0.00296688 0.0223545  -0.393841 -0.00199008 -0.0171773  -0.426382 1.12355e-05 -0.0560112  -0.459607 0.00326285 -0.0941358  -0.493741 0.0079962 -0.131613  -0.529075 0.0144233 -0.168611  -0.565985 0.0226999 -0.205439  -0.604953 0.0328462 -0.24261  -0.646557 0.0446744 -0.280867  0.159023 -0.0441299 0.684051  0.132027 -0.0324008 0.648997  0.102334 -0.0223297 0.613733  0.0707661 -0.0141065 0.57789  0.0378831 -0.00773418 0.541221  0.00408374 -0.00309777 0.50359  -0.0303489 -3.78489e-06 0.46496  -0.0652146 0.00178409 0.425372  -0.100392 0.00251433 0.384914  -0.135808 0.00243491 0.343721  -0.17143 0.001782 0.301956  -0.207252 0.000773489 0.259802  -0.243281 -0.000392586 0.217452  -0.279526 -0.00152797 0.175104  -0.316003 -0.00244758 0.132954  -0.352731 -0.00296363 0.0911861  -0.389749 -0.00287423 0.0499633  -0.427123 -0.00196368 0.00942013  -0.464959 -3.8445e-06 -0.0303489  -0.503412 0.00323656 -0.0693056  -0.542701 0.0079852 -0.107481  -0.583122 0.0144349 -0.145008  -0.625068 0.0227087 -0.182149  -0.669051 0.0327935 -0.219345  -0.715734 0.0444913 -0.25723  0.219094 -0.0443084 0.724729  0.187392 -0.0326437 0.687924  0.152958 -0.0225857 0.651376  0.116544 -0.0143326 0.614572  0.078694 -0.00790268 0.577161  0.039807 -0.00318843 0.538938  0.000178128 -8.04663e-07 0.499816  -0.0399819 0.00188768 0.459797  -0.0805317 0.00271595 0.418945  -0.121382 0.00272185 0.377377  -0.162484 0.00213283 0.335243  -0.203816 0.00116003 0.29272  -0.245371 -1.13249e-06 0.249996  -0.287149 -0.00116214 0.207272  -0.329149 -0.00213444 0.164749  -0.371379 -0.00272292 0.122616  -0.413861 -0.00271678 0.081048  -0.456643 -0.00188896 0.0401971  -0.499816 -8.9407e-07 0.000177979  -0.543519 0.00318646 -0.038944  -0.587965 0.00790173 -0.0771664  -0.633447 0.0143304 -0.114578  -0.680367 0.0225834 -0.151382  -0.729265 0.0326416 -0.187929  -0.780893 0.0443055 -0.224736  0.284254 -0.0444941 0.757225  0.247605 -0.0327956 0.71934  0.208255 -0.0227112 0.682144  0.166869 -0.014437 0.645003  0.123957 -0.00798631 0.607477  0.0799136 -0.00323904 0.5693  0.035034 1.78814e-06 0.530344  -0.0104623 0.00196171 0.490574  -0.0564208 0.00287265 0.450031  -0.102735 0.00296217 0.408807  -0.149338 0.00244641 0.367038  -0.196195 0.00152618 0.324888  -0.243281 0.00039053 0.28254  -0.290585 -0.000775456 0.24019  -0.338096 -0.00178373 0.198036  -0.385806 -0.00243604 0.156272  -0.433723 -0.0025149 0.11508  -0.481878 -0.00178486 0.0746228  -0.530343 2.08616e-06 0.0350333  -0.579244 0.0030964 -0.00359561  -0.628777 0.00773281 -0.0412266  -0.679226 0.0141043 -0.0778972  -0.73099 0.0223277 -0.11374  -0.78463 0.0323992 -0.149004  -0.840967 0.0441274 -0.184059  0.353431 -0.0446763 0.780862  0.311703 -0.0328479 0.742606  0.267337 -0.0227018 0.705435  0.220916 -0.0144252 0.668607  0.172917 -0.00799739 0.63161  0.123717 -0.00326532 0.594132  0.0736118 -1.33514e-05 0.556007  0.0228199 0.00198746 0.517172  -0.0284916 0.00296456 0.47764  -0.0802018 0.00313413 0.437481  -0.13223 0.00269878 0.39681  -0.184523 0.00184709 0.355774  -0.237046 0.000757933 0.314545  -0.289771 -0.000391304 0.27331  -0.342676 -0.00141698 0.232261  -0.395747 -0.00212193 0.19159  -0.448974 -0.00228626 0.151482  -0.502376 -0.00166851 0.112106  -0.556007 -1.2815e-05 0.0736104  -0.609973 0.00294435 0.0361132  -0.664451 0.00745207 -0.000310943  -0.719706 0.0137218 -0.0356454  -0.776125 0.0218958 -0.069944  -0.834262 0.0320047 -0.10334  -0.894964 0.0438879 -0.136033  0.425519 -0.0447551 0.795115  0.378667 -0.0327138 0.757222  0.329256 -0.0225007 0.720773  0.277802 -0.0142707 0.684923  0.224755 -0.00793087 0.649106  0.170475 -0.00327438 0.612979  0.115243 -6.02603e-05 0.57635  0.0592813 0.00194782 0.539129  0.00276124 0.00297135 0.501302  -0.0541855 0.00321549 0.462914  -0.111465 0.00286627 0.424058  -0.16901 0.00209796 0.38486  -0.226771 0.00107682 0.345476  -0.284712 -3.17693e-05 0.306078  -0.342802 -0.00105315 0.26685  -0.401016 -0.00179613 0.227975  -0.459336 -0.00204289 0.189636  -0.517767 -0.00155145 0.152005  -0.57635 -5.96046e-05 0.115242  -0.635171 0.00270873 0.079486  -0.694385 0.00702357 0.0448489  -0.754228 0.0131263 0.011403  -0.815055 0.0212031 -0.0208205  -0.877385 0.0313385 -0.0518337  -0.942026 0.043443 -0.0816498  0.499394 -0.0445207 0.799595  0.447444 -0.0322186 0.76283  0.393016 -0.0219966 0.727817  0.336593 -0.0139151 0.693612  0.278606 -0.00776213 0.659622  0.219391 -0.00326174 0.625492  0.159213 -0.000145018 0.591009  0.0982866 0.00182945 0.556062  0.0367885 0.00287563 0.52061  -0.0251439 0.0031848 0.484674  -0.0874075 0.00292647 0.448321  -0.149923 0.00225687 0.411656  -0.212633 0.00132561 0.374813  -0.275491 0.000283182 0.337945  -0.33846 -0.00070858 0.301221  -0.401507 -0.00146997 0.264813  -0.464611 -0.00179201 0.228896  -0.52777 -0.0014382 0.193641  -0.59101 -0.000144839 0.159212  -0.654401 0.00237417 0.125768  -0.718073 0.00641173 0.0934532  -0.78223 0.0122498 0.0623975  -0.847179 0.0201351 0.0327167  -0.913363 0.0302332 0.00451556  -0.98147 0.0425755 -0.0220315  0.5739 -0.0436333 0.794045  0.51694 -0.0311049 0.759219  0.457577 -0.0210357 0.726366  0.396318 -0.0132756 0.694466  0.333572 -0.00744814 0.662937  0.269638 -0.00320745 0.63143  0.204766 -0.000262082 0.599721  0.139162 0.00162834 0.567677  0.072998 0.00266743 0.535236  0.00641555 0.00302845 0.502393  -0.0604762 0.00286198 0.46919  -0.127594 0.00230455 0.435706  -0.194873 0.00148517 0.402053  -0.262261 0.000537336 0.368365  -0.329715 -0.000395715 0.334786  -0.397202 -0.00115108 0.301473  -0.464699 -0.00153494 0.26859  -0.532198 -0.00132436 0.236299  -0.59972 -0.000262022 0.204765  -0.667324 0.00193971 0.174158  -0.735117 0.00559485 0.144652  -0.803268 0.0110301 0.116428  -0.872018 0.018569 0.089683  -0.941713 0.0284904 0.0646366  -1.01283 0.0410058 0.0416171  0.647816 -0.0416056 0.77835  0.585977 -0.0290525 0.746334  0.521835 -0.0194436 0.716364  0.455957 -0.0122539 0.687411  0.38871 -0.00693071 0.658957  0.320356 -0.00307614 0.630672  0.251121 -0.000391006 0.602329  0.181201 0.00135559 0.573777  0.110767 0.00234932 0.544933  0.0399526 0.00274318 0.515769  -0.0311331 0.00266427 0.486305  -0.102402 0.0022285 0.456595  -0.173791 0.00154233 0.426727  -0.245242 0.00071758 0.396809  -0.316712 -0.000124514 0.366963  -0.388169 -0.000842929 0.337325  -0.45959 -0.00126737 0.308036  -0.53097 -0.00119656 0.279248  -0.602328 -0.000390887 0.25112  -0.673718 0.00142741 0.223823  -0.745232 0.00458151 0.197552  -0.817011 0.00943708 0.172536  -0.889232 0.016405 0.149048  -0.962116 0.0259121 0.127409  -1.03588 0.0384204 0.108062  0.719744 -0.0378547 0.752623  0.653245 -0.0257533 0.72433  0.584598 -0.0170692 0.697933  0.514437 -0.0107585 0.67253  0.443048 -0.00614589 0.647731  0.370656 -0.00281936 0.623233  0.297473 -0.00049454 0.5988  0.223685 0.00103915 0.57427  0.149449 0.00194162 0.549543  0.0748942 0.00234085 0.524577  0.000124574 0.00233883 0.499368  -0.0747762 0.00202805 0.473953  -0.149743 0.00149137 0.448392  -0.224722 0.000815868 0.422767  -0.299673 9.82881e-05 0.397176  -0.374565 -0.000548124 0.371727  -0.449379 -0.000981867 0.346539  -0.524114 -0.00103384 0.321738  -0.598798 -0.000494301 0.297473  -0.673485 0.000888526 0.273905  -0.748266 0.00342649 0.251242  -0.823263 0.00750309 0.229743  -0.898609 0.0136104 0.209751  -0.974401 0.0223501 0.19169  -1.05057 0.0345201 0.176084  0.78799 -0.0318689 0.717346  0.71725 -0.0210402 0.693626  0.644602 -0.0138475 0.671375  0.570649 -0.00873768 0.650078  0.495585 -0.00504494 0.629483  0.419635 -0.00238878 0.609287  0.343006 -0.00052458 0.589244  0.265873 0.000724316 0.56919  0.188381 0.00148386 0.54902  0.110649 0.00185323 0.52868  0.0327696 0.00190812 0.508157  -0.0451797 0.00171608 0.487465  -0.123138 0.0013358 0.466644  -0.201058 0.000829339 0.445751  -0.278903 0.000265777 0.424857  -0.356645 -0.000270963 0.40404  -0.434272 -0.000674009 0.383389  -0.511795 -0.00081414 0.363005  -0.589244 -0.000524282 0.343005  -0.666686 0.000404358 0.323537  -0.744218 0.0022437 0.304795  -0.821975 0.00535834 0.287058  -0.900076 0.0102794 0.270728  -0.978539 0.0177816 0.256335  -1.05698 0.0291029 0.244488  0.850664 -0.0235664 0.673496  0.776485 -0.0150619 0.654853  0.700602 -0.00987577 0.637134  0.623457 -0.00623429 0.620504  0.545284 -0.00363111 0.604646  0.466357 -0.00175947 0.589201  0.386877 -0.000437379 0.573945  0.307012 0.000464082 0.558726  0.226889 0.00103039 0.543448  0.146612 0.00133008 0.528059  0.0662594 0.00141233 0.51254  -0.0141027 0.00131953 0.496893  -0.0944229 0.0010885 0.481141  -0.174659 0.00075686 0.465316  -0.254779 0.000367582 0.449461  -0.334761 -2.57492e-05 0.433626  -0.414602 -0.000353634 0.417869  -0.494315 -0.000528276 0.402258  -0.573945 -0.000436842 0.386876  -0.653567 7.18236e-05 0.371838  -0.733298 0.00120145 0.357303  -0.813287 0.00324839 0.343515  -0.893717 0.00669485 0.330938  -0.974624 0.0124086 0.320221  -1.05533 0.0221777 0.312105  0.90645 -0.0137913 0.622387  0.829886 -0.00846076 0.608559  0.75145 -0.0055238 0.595853  0.671681 -0.00347924 0.584606  0.591054 -0.0020259 0.573934  0.509833 -0.000975847 0.563595  0.428212 -0.000226319 0.553406  0.346333 0.000295401 0.543257  0.264296 0.000635087 0.53308  0.182182 0.000829101 0.52284  0.100051 0.000902534 0.512517  0.0179569 0.000876725 0.502109  -0.0640607 0.000768721 0.491625  -0.145968 0.000597298 0.481077  -0.227739 0.000382543 0.470484  -0.309359 0.000151694 0.459869  -0.390825 -6.00219e-05 0.449257  -0.472158 -0.000205457 0.438688  -0.553406 -0.000225723 0.428212  -0.634648 -3.6478e-05 0.417897  -0.716008 0.000479937 0.407854  -0.797666 0.00150919 0.398271  -0.879842 0.00336975 0.389428  -0.962865 0.00677997 0.382341  -1.04584 0.014101 0.377811  0.955649 -0.0047009 0.565025  0.876945 -0.00258291 0.555451  0.795978 -0.00169253 0.549317  0.714172 -0.00104856 0.543756  0.631809 -0.000581205 0.538516  0.549096 -0.000238478 0.533429  0.466163 1.22786e-05 0.528409  0.383097 0.000192106 0.523403  0.29996 0.000314236 0.518385  0.216799 0.000389099 0.513336  0.133652 0.000424087 0.508249  0.0505502 0.00042516 0.50312  -0.0324793 0.000396907 0.497948  -0.115414 0.000344694 0.492734  -0.198237 0.000274062 0.48748  -0.280939 0.000193357 0.482188  -0.36352 0.000112951 0.476862  -0.445997 4.68493e-05 0.471514  -0.528408 1.26958e-05 0.466163  -0.610814 3.5882e-05 0.460842  -0.693314 0.000154793 0.455612  -0.776061 0.000424862 0.450551  -0.859274 0.000995219 0.445877  -0.943401 0.00198996 0.441757  -1.02846 0.00575149 0.440994  1 0 0.500001  0.916667 0 0.500001  0.833333 0 0.500001  0.75 0 0.500001  0.666667 0 0.500001  0.583333 0 0.500001  0.5 0 0.500001  0.416667 0 0.500001  0.333333 0 0.500001  0.25 0 0.500001  0.166667 0 0.500001  0.0833333 0 0.500001  0 0 0.500001  -0.0833334 0 0.500001  -0.166667 0 0.500001  -0.25 0 0.500001  -0.333333 0 0.500001  -0.416667 0 0.500001  -0.5 0 0.500001  -0.583333 0 0.500001  -0.666667 0 0.500001  -0.75 0 0.500001  -0.833333 0 0.500001  -0.916667 0 0.500001  -1 0 0.500001  0 0 0  -1.11759e-08 0 0  7.45058e-09 0 0  0 0 0  1.49012e-08 0 0  0 0 0  0 0 0  0 0 0  0 0 0  0 0 0  0 0 0  0 0 0  0 0 0  0 0 0  0 0 0  0 0 0  0 0 0  0 0 0  0 0 0  0 0 0  0 0 0  0 0 0  0 0 0  0 0 0  0 0 0  -0.025052 -0.00587601 0.0613362  -0.0227981 -0.00212875 0.0590517  -0.0217571 -0.00116735 0.0543665  -0.0216579 -0.00061686 0.0494207  -0.0220345 -0.000353273 0.0442182  -0.0226645 -0.000229344 0.038918  -0.0234025 -0.000191972 0.0335688  -0.0241584 -0.000205625 0.0282094  -0.0248763 -0.000247315 0.022861  -0.0255237 -0.000300948 0.0175353  -0.0260857 -0.000355002 0.0122363  -0.0265598 -0.000400584 0.00696501  -0.0269513 -0.000431512 0.00172177  -0.0272719 -0.00044312 -0.0034948  -0.0275374 -0.000430781 -0.00868511  -0.0277668 -0.000390388 -0.0138539  -0.0279818 -0.000317715 -0.0190075  -0.0282103 -0.000205532 -0.0241597  -0.0284853 -4.67189e-05 -0.0293306  -0.0288535 0.000171557 -0.0345576  -0.0293785 0.000463799 -0.0398941  -0.0301627 0.000860855 -0.0454348  -0.0313559 0.0013916 -0.0513409  -0.0332198 0.00216947 -0.0579847  -0.0365445 0.0036305 -0.0683083  -0.0386814 -0.0142824 0.124709  -0.0380677 -0.0071212 0.118413  -0.0378047 -0.00382192 0.110237  -0.0385171 -0.00204113 0.10082  -0.0398128 -0.00104505 0.0909234  -0.0414533 -0.000522278 0.0807164  -0.0432563 -0.000295199 0.0703332  -0.0451021 -0.000254244 0.0598401  -0.0469133 -0.000323847 0.0492868  -0.0486457 -0.000450641 0.0387049  -0.0502791 -0.000595063 0.0281182  -0.0518098 -0.000727952 0.0175442  -0.0532466 -0.00082738 0.00699827  -0.0546061 -0.00087662 -0.00350794  -0.0559118 -0.000859916 -0.0139652  -0.0571939 -0.000762463 -0.0243751  -0.0584876 -0.000568226 -0.034746  -0.0598404 -0.000254191 -0.045103  -0.0613094 0.000205703 -0.0554916  -0.0629714 0.000850819 -0.0659883  -0.0649278 0.0017351 -0.0767086  -0.0673226 0.00294001 -0.0878462  -0.0703477 0.00460615 -0.0996895  -0.0743378 0.00693121 -0.113166  -0.0793216 0.0107575 -0.128055  -0.0440913 -0.022243 0.189424  -0.0454692 -0.0128241 0.179374  -0.0470652 -0.00736715 0.167306  -0.0493382 -0.00409311 0.153887  -0.0521738 -0.00213595 0.139605  -0.0553576 -0.00102016 0.124805  -0.0587259 -0.000463918 0.109652  -0.0621594 -0.000276469 0.0942556  -0.0655808 -0.000321679 0.0786888  -0.0689438 -0.000499964 0.0630097  -0.0722285 -0.00073503 0.047266  -0.0754339 -0.000969954 0.0314973  -0.0785705 -0.00116077 0.0157402  -0.081659 -0.00127199 2.67923e-05  -0.0847291 -0.00127201 -0.0156214  -0.0878182 -0.00113012 -0.0311937  -0.0909731 -0.000812382 -0.0466963  -0.0942553 -0.000276729 -0.0621604  -0.0977392 0.000528306 -0.0776492  -0.101521 0.00167266 -0.0932683  -0.10572 0.00325283 -0.109182  -0.11048 0.0054086 -0.125636  -0.115973 0.0083629 -0.143004  -0.122264 0.0124328 -0.161653  -0.129283 0.018944 -0.181274  -0.0414852 -0.0288882 0.255141  -0.0449906 -0.0181238 0.241209  -0.0488733 -0.0110491 0.225282  -0.053356 -0.0064227 0.207914  -0.0583418 -0.00347666 0.189525  -0.0636698 -0.00169335 0.170417  -0.0691897 -0.000725016 0.15079  -0.0747945 -0.000319183 0.130773  -0.0804128 -0.000285909 0.110466  -0.0860041 -0.00048025 0.0899489  -0.0915534 -0.000787959 0.069293  -0.0970615 -0.00112161 0.0485636  -0.102544 -0.00141191 0.0278191  -0.108024 -0.00160135 0.00711322  -0.113536 -0.0016392 -0.0135141  -0.119125 -0.00147574 -0.0340369  -0.124847 -0.00105678 -0.0544547  -0.130772 -0.000319749 -0.0747949  -0.136991 0.000813439 -0.0951282  -0.143607 0.00244205 -0.115572  -0.150742 0.00469962 -0.136307  -0.158526 0.00777532 -0.15759  -0.16706 0.0119513 -0.179737  -0.176322 0.0177159 -0.202996  -0.186458 0.0264802 -0.22764  -0.030806 -0.0339277 0.320918  -0.0365557 -0.0225147 0.303081  -0.043056 -0.0143682 0.283328  -0.0502426 -0.00868393 0.262143  -0.0579489 -0.00486667 0.239865  -0.0660049 -0.00244066 0.216749  -0.0742694 -0.0010407 0.192977  -0.0826406 -0.000379562 0.168686  -0.0910541 -0.00022833 0.143989  -0.0994759 -0.000404209 0.118986  -0.107897 -0.000759631 0.0937661  -0.116322 -0.0011777 0.0684173  -0.124769 -0.00156395 0.0430221  -0.133266 -0.00183819 0.017655  -0.14185 -0.0019296 -0.00762269  -0.150571 -0.00176793 -0.0327691  -0.15949 -0.00127971 -0.0577693  -0.168685 -0.000380188 -0.082641  -0.178255 0.00103241 -0.107448  -0.188309 0.00308384 -0.132308  -0.19897 0.00593771 -0.157399  -0.210356 0.00981866 -0.182968  -0.222552 0.0150542 -0.209323  -0.235613 0.0222184 -0.236823  -0.249857 0.0324557 -0.266194  -0.0119862 -0.0374196 0.385712  -0.0201948 -0.0258472 0.363978  -0.0296378 -0.017077 0.340509  -0.0399617 -0.0106497 0.315701  -0.0508897 -0.00614281 0.289803  -0.0622129 -0.00316074 0.263004  -0.0737773 -0.00135782 0.235459  -0.0854806 -0.000436038 0.207295  -0.0972598 -0.00014542 0.178627  -0.109087 -0.00027582 0.149564  -0.120955 -0.000653505 0.120213  -0.132875 -0.00113641 0.0906795  -0.144865 -0.00160712 0.0610662  -0.156956 -0.00196479 0.0314688  -0.169186 -0.00211869 0.0019688  -0.181606 -0.00197937 -0.0273718  -0.194281 -0.00145385 -0.0565207  -0.207294 -0.000436589 -0.0854822  -0.220744 0.00119478 -0.114304  -0.234748 0.00358865 -0.143093  -0.249432 0.00693116 -0.172018  -0.264922 0.0114667 -0.201323  -0.281338 0.0175391 -0.231344  -0.298845 0.0256869 -0.262572  -0.317841 0.0366417 -0.295967  0.0149634 -0.0396165 0.448421  0.0039549 -0.028184 0.422855  -0.00878399 -0.0191155 0.395859  -0.0226464 -0.0122152 0.367689  -0.0372445 -0.00720659 0.338495  -0.0523135 -0.0037812 0.308395  -0.0676787 -0.00163081 0.277498  -0.0832267 -0.000466287 0.245914  -0.098893 -2.98917e-05 0.213752  -0.114649 -9.67383e-05 0.181123  -0.130491 -0.000474006 0.148145  -0.14643 -0.0010007 0.114937  -0.162487 -0.00154033 0.0816198  -0.17869 -0.00197434 0.0483073  -0.195077 -0.00219423 0.0151006  -0.211697 -0.00209269 -0.0179192  -0.228616 -0.00155833 -0.0507011  -0.245914 -0.000466675 -0.0832281  -0.263694 0.00132245 -0.115534  -0.282074 0.00397566 -0.147705  -0.301192 0.00769317 -0.179901  -0.321193 0.0127235 -0.212363  -0.342252 0.0193922 -0.245458  -0.364625 0.0281194 -0.279764  -0.388729 0.0392553 -0.316313  0.0499012 -0.0408481 0.507896  0.035636 -0.0296971 0.478655  0.0192171 -0.0205399 0.448402  0.00143716 -0.0133687 0.417212  -0.0172268 -0.00802073 0.385115  -0.0364622 -0.00426343 0.352148  -0.0560644 -0.00183168 0.318374  -0.075906 -0.000454515 0.283876  -0.0959163 0.000122517 0.248749  -0.116062 0.000129968 0.213104  -0.136337 -0.000228584 0.177064  -0.156754 -0.000778824 0.140757  -0.177331 -0.00137061 0.104318  -0.198094 -0.00187051 0.0678739  -0.219078 -0.00215569 0.0315444  -0.240327 -0.00210235 -0.00457078  -0.261899 -0.00158283 -0.0403999  -0.283875 -0.000455141 -0.0759078  -0.306352 0.0014362 -0.111106  -0.329456 0.00427154 -0.146065  -0.353331 0.00825727 -0.180927  -0.378153 0.0136338 -0.215931  -0.404148 0.0206807 -0.251459  -0.43164 0.0296758 -0.288126  -0.461056 0.0407009 -0.326941  0.0925029 -0.0414387 0.562958  0.0744552 -0.030594 0.530332  0.053964 -0.0214615 0.497189  0.03191 -0.0141539 0.463392  0.00883195 -0.00859088 0.428845  -0.0149249 -0.00459847 0.393505  -0.039132 -0.00194988 0.357379  -0.0636435 -0.000395179 0.320522  -0.0883796 0.000310808 0.283011  -0.1133 0.000397235 0.244951  -0.138396 7.18832e-05 0.206466  -0.163672 -0.000484377 0.167689  -0.189146 -0.00111154 0.128762  -0.214839 -0.00166589 0.089827  -0.240778 -0.00201243 0.0510162  -0.266999 -0.00201389 0.0124464  -0.293556 -0.00152749 -0.0257927  -0.32052 -0.000396043 -0.0636457  -0.347986 0.00154948 -0.101104  -0.376079 0.00449947 -0.138218  -0.404955 0.00866145 -0.175111  -0.434817 0.0142588 -0.212013  -0.465936 0.0215146 -0.249299  -0.498687 0.0305818 -0.287582  -0.533533 0.0413886 -0.327807  0.142221 -0.0416631 0.612454  0.11987 -0.0310718 0.576882  0.0949311 -0.022005 0.54131  0.0682881 -0.0146391 0.505394  0.0404982 -0.00894782 0.468914  0.0119284 -0.00479788 0.431744  -0.0171752 -0.00198925 0.393842  -0.0466568 -0.000291854 0.355224  -0.0764212 0.000528455 0.315953  -0.106421 0.000694245 0.276121  -0.136637 0.000412405 0.235849  -0.16707 -0.000134766 0.195272  -0.197732 -0.000781924 0.154537  -0.228636 -0.00137889 0.113794  -0.259801 -0.00178117 0.0731854  -0.291256 -0.00184068 0.0328417  -0.323042 -0.00140136 -0.00713095  -0.355223 -0.000292659 -0.0466587  -0.387886 0.00166649 -0.0857138  -0.421154 0.00467476 -0.124324  -0.455195 0.00893795 -0.162592  -0.490232 0.0146601 -0.200727  -0.526576 0.0220123 -0.239083  -0.564646 0.0310583 -0.278237  -0.604972 0.0416508 -0.319051  0.198305 -0.0417195 0.655317  0.171195 -0.0312876 0.617373  0.14148 -0.0222785 0.579921  0.109981 -0.0148917 0.542441  0.0772451 -0.00913098 0.504598  0.0436411 -0.00488284 0.46619  0.00942072 -0.00196272 0.427125  -0.0252453 -0.00015527 0.387385  -0.0602554 0.000763208 0.347011  -0.095549 0.00100616 0.306084  -0.131098 0.000774741 0.264716  -0.166895 0.000249624 0.223041  -0.202942 -0.000403583 0.181208  -0.239246 -0.00103131 0.139369  -0.275817 -0.00148284 0.0976759  -0.312673 -0.00160119 0.0562678  -0.349845 -0.00121954 0.0152637  -0.387384 -0.000155538 -0.0252466  -0.425369 0.00178277 -0.065216  -0.463922 0.00480226 -0.10465  -0.50321 0.00910687 -0.143626  -0.54348 0.0148858 -0.182323  -0.585067 0.022272 -0.221057  -0.628442 0.0312766 -0.260346  -0.674223 0.0417178 -0.300958  0.25983 -0.0417262 0.690624  0.227613 -0.031344 0.65098  0.192866 -0.0223572 0.612271  0.15631 -0.014965 0.573838  0.118457 -0.00917619 0.535245  0.0796703 -0.00487772 0.496226  0.0401981 -0.00188819 0.456644  0.000213444 -1.01328e-06 0.416448  -0.0401691 0.000999093 0.375656  -0.0808806 0.00131464 0.334334  -0.121882 0.00113845 0.292584  -0.163154 0.000646055 0.250534  -0.204689 -5.36442e-07 0.20833  -0.246486 -0.000646919 0.166126  -0.288546 -0.00113997 0.124076  -0.330877 -0.00131634 0.0823264  -0.373498 -0.00100064 0.0410044  -0.416448 -5.36442e-07 0.000213414  -0.459796 0.00188673 -0.0399823  -0.503657 0.00487614 -0.0795646  -0.5482 0.00917423 -0.118583  -0.593681 0.0149624 -0.157177  -0.640458 0.0223547 -0.19561  -0.689043 0.0313414 -0.234319  -0.740158 0.0417242 -0.273963  0.325766 -0.0417195 0.717621  0.288213 -0.0312793 0.677008  0.248255 -0.0222742 0.63772  0.20651 -0.0148884 0.598985  0.163447 -0.00910908 0.560289  0.119404 -0.00480425 0.521313  0.0746241 -0.00178468 0.481878  0.0292765 0.000152946 0.441908  -0.0165167 0.00121754 0.401397  -0.0626771 0.00159943 0.360393  -0.109153 0.00148129 0.318985  -0.155914 0.00102997 0.277292  -0.202942 0.000402451 0.235453  -0.250228 -0.00025034 0.193619  -0.297764 -0.000775874 0.151944  -0.345546 -0.00100768 0.110577  -0.393586 -0.000764251 0.0696498  -0.441908 0.000154138 0.0292763  -0.490573 0.00196147 -0.0104633  -0.539687 0.0048818 -0.0495284  -0.589415 0.00912923 -0.0879364  -0.64001 0.0148892 -0.12578  -0.691844 0.0222756 -0.16326  -0.745462 0.031285 -0.200713  -0.801685 0.041717 -0.238656  0.395017 -0.041652 0.735715  0.352009 -0.0310608 0.6949  0.306747 -0.0220144 0.655747  0.259758 -0.0146627 0.61739  0.211462 -0.00893986 0.579256  0.16217 -0.00467706 0.540987  0.112108 -0.00166899 0.502376  0.0614371 0.000289381 0.46332  0.010286 0.00139868 0.423792  -0.0412594 0.00183904 0.38382  -0.0931368 0.00177979 0.343476  -0.145304 0.00137746 0.302867  -0.197733 0.000781 0.262124  -0.250404 0.000134349 0.22139  -0.303303 -0.000413179 0.180813  -0.35642 -0.000695586 0.14054  -0.409753 -0.000529289 0.100709  -0.46332 0.000290751 0.061437  -0.517172 0.00198787 0.0228193  -0.5714 0.00479722 -0.0150827  -0.626163 0.00894624 -0.052253  -0.681705 0.0146371 -0.0887337  -0.738394 0.0220026 -0.12465  -0.796787 0.0310695 -0.160223  -0.857769 0.0416605 -0.195794  0.466455 -0.0413894 0.74447  0.417968 -0.0305834 0.704246  0.367387 -0.0215161 0.665963  0.315173 -0.0142609 0.628676  0.261702 -0.00866318 0.591775  0.207246 -0.0045017 0.554881  0.152007 -0.00155193 0.517767  0.0961395 0.000392735 0.480308  0.0397716 0.00152445 0.442455  -0.0170035 0.00201172 0.404215  -0.0741138 0.00201082 0.365645  -0.131508 0.00166482 0.326835  -0.189148 0.00111067 0.287899  -0.247006 0.000484288 0.248973  -0.305063 -7.25389e-05 0.210196  -0.363301 -0.00039804 0.171711  -0.421712 -0.000311971 0.133651  -0.480308 0.000393987 0.0961392  -0.539129 0.0019483 0.0592802  -0.598255 0.00459808 0.0231553  -0.657831 0.00858963 -0.0121861  -0.718084 0.0141525 -0.0467336  -0.779362 0.0214601 -0.0805313  -0.842204 0.0305923 -0.113675  -0.90749 0.0414371 -0.1463  0.538933 -0.0407007 0.743603  0.485016 -0.0296761 0.704788  0.429175 -0.0206809 0.668122  0.371838 -0.0136349 0.632595  0.313327 -0.00825828 0.597592  0.25387 -0.00427347 0.56273  0.193642 -0.0014385 0.527771  0.132786 0.000452101 0.492572  0.0714299 0.0015797 0.457064  0.00967029 0.00209987 0.421234  -0.0524141 0.00215358 0.385118  -0.114764 0.00186914 0.348789  -0.177333 0.00136977 0.312345  -0.240089 0.000778913 0.275905  -0.303005 0.000228107 0.239598  -0.366061 -0.000130236 0.203558  -0.429248 -0.000123739 0.167913  -0.492571 0.000453055 0.132786  -0.556062 0.00182974 0.0982864  -0.619793 0.00426269 0.0645124  -0.68389 0.0080198 0.0315446  -0.748558 0.0133674 -0.000554562  -0.814111 0.020539 -0.0317448  -0.881025 0.0296957 -0.0619982  -0.950093 0.0408472 -0.0912381  0.611262 -0.0392552 0.732978  0.552033 -0.0281199 0.696429  0.491073 -0.0193925 0.662123  0.428799 -0.0127238 0.629028  0.365467 -0.00769365 0.596565  0.301252 -0.00397658 0.56437  0.2363 -0.00132436 0.532199  0.170747 0.000464082 0.499892  0.104712 0.00155544 0.467365  0.0382977 0.00209033 0.434583  -0.0284137 0.00219202 0.401562  -0.0953588 0.00197268 0.368355  -0.162488 0.00153959 0.335042  -0.229764 0.0010007 0.301726  -0.297159 0.000473619 0.268518  -0.364649 9.7096e-05 0.235539  -0.432226 2.86102e-05 0.202909  -0.499892 0.000464797 0.170746  -0.567677 0.00162888 0.139161  -0.635645 0.00378025 0.108264  -0.703908 0.00720602 0.0781631  -0.772644 0.0122139 0.0489683  -0.842114 0.019115 0.0207992  -0.912708 0.0281831 -0.00619802  -0.985033 0.0396169 -0.0317624  0.68215 -0.0366426 0.712635  0.617814 -0.0256873 0.679239  0.551988 -0.0175398 0.64801  0.485072 -0.011467 0.617989  0.417228 -0.00693196 0.588684  0.348579 -0.00358921 0.559759  0.279249 -0.00119615 0.53097  0.209365 0.000433981 0.502148  0.139046 0.00145137 0.473185  0.0683891 0.00197721 0.444036  -0.00252295 0.00211686 0.414696  -0.0736243 0.00196368 0.385195  -0.144867 0.00160652 0.355598  -0.216209 0.00113636 0.325985  -0.287623 0.000653148 0.29645  -0.359087 0.000276387 0.267099  -0.430593 0.000144362 0.238034  -0.502146 0.000434995 0.209366  -0.573776 0.00135601 0.181201  -0.645544 0.00315988 0.153657  -0.717554 0.00614196 0.126858  -0.789958 0.0106484 0.100958  -0.862968 0.0170761 0.0761499  -0.936858 0.0258466 0.0526811  -1.01198 0.0374199 0.0309481  0.750135 -0.0324571 0.682864  0.681048 -0.0222193 0.653492  0.610776 -0.0150552 0.625991  0.53964 -0.00981927 0.599635  0.467692 -0.0059393 0.574066  0.39502 -0.00308436 0.548976  0.32174 -0.00103366 0.524116  0.247976 0.000377595 0.499308  0.17384 0.00127774 0.474436  0.0994255 0.00176603 0.449436  0.0248135 0.00192815 0.424288  -0.0499348 0.00183773 0.39901  -0.124771 0.00156325 0.373642  -0.199656 0.00117791 0.348247  -0.274564 0.000759244 0.322897  -0.349476 0.000404716 0.297678  -0.424388 0.000228047 0.272673  -0.499306 0.000378489 0.247975  -0.574268 0.00103962 0.223684  -0.649337 0.00243992 0.199912  -0.724613 0.00486583 0.176795  -0.800241 0.00868285 0.154518  -0.876387 0.0143672 0.133333  -0.953219 0.0225146 0.11358  -1.0308 0.0339277 0.0957415  0.813532 -0.0264812 0.64431  0.740337 -0.0177162 0.619664  0.666267 -0.0119519 0.596405  0.591469 -0.00777584 0.574257  0.51592 -0.00470078 0.552973  0.439722 -0.00244248 0.532238  0.363005 -0.000814676 0.511794  0.285889 0.000317633 0.491462  0.208482 0.0010553 0.47112  0.130871 0.0014739 0.450703  0.0531269 0.00163829 0.43018  -0.0246933 0.00160122 0.409553  -0.102545 0.00141174 0.388846  -0.180396 0.00112206 0.368101  -0.25822 0.000787795 0.34737  -0.336005 0.000480711 0.326715  -0.413746 0.000286162 0.306197  -0.491462 0.000318408 0.28589  -0.569189 0.000724316 0.265872  -0.647002 0.00169307 0.246245  -0.725007 0.00347602 0.227136  -0.803355 0.00642169 0.208748  -0.882205 0.0110483 0.191379  -0.961655 0.018124 0.175451  -1.04148 0.0288884 0.161519  0.87071 -0.0189446 0.597943  0.794397 -0.0124331 0.578322  0.717355 -0.00836307 0.559672  0.639515 -0.005409 0.542303  0.560943 -0.0032531 0.525849  0.481809 -0.00167334 0.509935  0.402258 -0.000529408 0.494315  0.322408 0.000275075 0.478828  0.242357 0.0008111 0.463363  0.162179 0.00112885 0.44786  0.0819344 0.00127137 0.432288  0.00167188 0.00127214 0.41664  -0.0785721 0.0011614 0.400926  -0.158768 0.000970781 0.385168  -0.238896 0.000734866 0.369399  -0.318945 0.000500381 0.353655  -0.398915 0.000322163 0.337975  -0.478827 0.000276029 0.322408  -0.558726 0.000463903 0.307011  -0.63869 0.00102001 0.291858  -0.71884 0.00213575 0.277058  -0.799338 0.00409228 0.262776  -0.880398 0.00736666 0.249357  -0.962135 0.0128247 0.23729  -1.04409 0.0222431 0.227238  0.920676 -0.0107576 0.544723  0.842326 -0.0069316 0.529835  0.762983 -0.00460643 0.516358  0.682675 -0.00294048 0.504515  0.601737 -0.00173521 0.493377  0.520361 -0.000851214 0.482655  0.438689 -0.00020659 0.472159  0.356825 0.000253201 0.461771  0.274845 0.000567377 0.451413  0.192806 0.000761867 0.441043  0.110754 0.000859499 0.430633  0.028727 0.000876606 0.420174  -0.0532469 0.000828087 0.409668  -0.135144 0.000728726 0.399122  -0.216947 0.000594914 0.388548  -0.298646 0.00045073 0.377961  -0.380247 0.00032413 0.367379  -0.46177 0.000254035 0.356824  -0.543257 0.000295401 0.346332  -0.624786 0.000522137 0.335947  -0.706479 0.00104505 0.325741  -0.788517 0.00204045 0.315843  -0.871138 0.00382197 0.306427  -0.954734 0.0071218 0.298251  -1.03868 0.0142826 0.291955  0.963454 -0.00363046 0.484976  0.883446 -0.00216937 0.474653  0.801976 -0.00139177 0.468009  0.719836 -0.000860989 0.462103  0.637286 -0.000463784 0.456562  0.554478 -0.000171602 0.451225  0.471513 4.62532e-05 0.445999  0.388456 0.000205338 0.440826  0.305351 0.000317335 0.435675  0.222233 0.00039041 0.430521  0.139129 0.000430465 0.425353  0.0560615 0.000443161 0.420163  -0.0269513 0.000431657 0.414946  -0.109893 0.000400901 0.409702  -0.192754 0.000355005 0.404431  -0.275525 0.000301003 0.399131  -0.358211 0.0002473 0.393804  -0.440826 0.000205636 0.388456  -0.523403 0.000192165 0.383096  -0.605998 0.000229359 0.377748  -0.688701 0.000353217 0.372448  -0.771658 0.00061667 0.367245  -0.85509 0.00116748 0.362299  -0.939465 0.00212908 0.357615  -1.02505 0.00587612 0.355329  1 0 0.416667  0.916667 0 0.416667  0.833333 0 0.416667  0.75 0 0.416667  0.666667 0 0.416667  0.583333 0 0.416667  0.5 0 0.416667  0.416667 0 0.416667  0.333333 0 0.416667  0.25 0 0.416667  0.166667 0 0.416667  0.0833333 0 0.416667  0 0 0.416667  -0.0833334 0 0.416667  -0.166667 0 0.416667  -0.25 0 0.416667  -0.333333 0 0.416667  -0.416667 0 0.416667  -0.5 0 0.416667  -0.583333 0 0.416667  -0.666667 0 0.416667  -0.75 0 0.416667  -0.833333 0 0.416667  -0.916667 0 0.416667  -1 0 0.416667  0 0 0  -1.11759e-08 0 0  7.45058e-09 0 0  0 0 0  1.49012e-08 0 0  0 0 0  0 0 0  0 0 0  0 0 0  0 0 0  0 0 0  0 0 0  0 0 0  0 0 0  0 0 0  0 0 0  0 0 0  0 0 0  0 0 0  0 0 0  0 0 0  0 0 0  0 0 0  0 0 0  0 0 0  -0.0211371 -0.00570108 0.0638445  -0.0185151 -0.00210749 0.0600317  -0.0173353 -0.00122186 0.0547826  -0.0170905 -0.00071422 0.0495453  -0.0173172 -0.000472184 0.0441743  -0.0177937 -0.000354975 0.0387768  -0.0183841 -0.000314336 0.0333721  -0.0190072 -0.000317324 0.0279811  -0.0196128 -0.000344608 0.0226119  -0.0201729 -0.000381615 0.0172687  -0.020674 -0.000418726 0.0119504  -0.021113 -0.000448525 0.00665361  -0.0214928 -0.000466425 0.00137699  -0.0218212 -0.000468325 -0.00388283  -0.0221088 -0.000450868 -0.00912932  -0.0223674 -0.000411071 -0.0143697  -0.0226125 -0.000344601 -0.0196131  -0.0228617 -0.000247497 -0.0248771  -0.0231374 -0.000113051 -0.0301863  -0.0234694 6.70776e-05 -0.0355803  -0.0239 0.000303626 -0.0411131  -0.0245 0.000621818 -0.0468828  -0.0253606 0.00102946 -0.0530379  -0.0266806 0.00166146 -0.06005  -0.0287167 0.00245327 -0.0707582  -0.0305899 -0.0137438 0.127606  -0.0292388 -0.00696487 0.119496  -0.0286089 -0.00389943 0.110205  -0.0290363 -0.00226714 0.100189  -0.0300791 -0.00135338 0.0899414  -0.0314872 -0.000864327 0.0795316  -0.0330806 -0.000635445 0.0690361  -0.0347459 -0.00056731 0.0584877  -0.0364107 -0.000594541 0.0479119  -0.0380343 -0.000669926 0.0373252  -0.0395968 -0.000760607 0.0267382  -0.0410929 -0.00084167 0.016161  -0.0425259 -0.000896744 0.0056012  -0.0439068 -0.000911482 -0.00493488  -0.0452502 -0.000874244 -0.0154431  -0.0465771 -0.000773147 -0.0259305  -0.0479127 -0.000594676 -0.0364111  -0.0492871 -0.000324331 -0.046914  -0.0507407 5.93886e-05 -0.0574909  -0.0523242 0.000583082 -0.0682204  -0.0541031 0.00128438 -0.0792215  -0.0561675 0.00222006 -0.0906882  -0.0586319 0.00347991 -0.102939  -0.0616826 0.00516019 -0.116893  -0.0650041 0.00749443 -0.132509  -0.0315642 -0.0211595 0.191496  -0.0319755 -0.0123718 0.179444  -0.0330116 -0.0073556 0.165983  -0.0348846 -0.00437433 0.151685  -0.0373968 -0.00259584 0.136872  -0.040308 -0.00156867 0.12176  -0.0434473 -0.00103123 0.106441  -0.046695 -0.000811338 0.090974  -0.0499744 -0.000789888 0.0753969  -0.0532399 -0.000879876 0.0597438  -0.0564697 -0.00101767 0.0440425  -0.0596583 -0.00115526 0.0283186  -0.0628098 -0.00125861 0.0125967  -0.0659366 -0.00129849 -0.00310063  -0.0690583 -0.00125045 -0.018761  -0.0722008 -0.00108977 -0.0343809  -0.0753977 -0.000790223 -0.0499752  -0.0786895 -0.000322253 -0.0655809  -0.0821292 0.000353009 -0.0812679  -0.0857791 0.00128444 -0.0971468  -0.089714 0.00253755 -0.113386  -0.0940194 0.00420755 -0.130239  -0.0987715 0.00643127 -0.148088  -0.103914 0.00935775 -0.167343  -0.108998 0.0138149 -0.187663  -0.0244156 -0.0271438 0.255449  -0.0268401 -0.0172613 0.239357  -0.0300481 -0.0108403 0.221843  -0.0340572 -0.0066687 0.203398  -0.0386823 -0.00401708 0.184317  -0.0437247 -0.00239654 0.164795  -0.0490194 -0.00148527 0.144948  -0.0544533 -0.00105593 0.124847  -0.0599518 -0.00094153 0.104546  -0.0654711 -0.00101611 0.0840927  -0.0709914 -0.00118463 0.0635304  -0.0765079 -0.00137377 0.0429051  -0.0820271 -0.00152871 0.0222579  -0.0875635 -0.00160292 0.00162831  -0.09314 -0.00155658 -0.0189555  -0.0987873 -0.00134996 -0.0394794  -0.104545 -0.000942215 -0.059953  -0.110464 -0.000286356 -0.0804134  -0.116606 0.000673547 -0.100939  -0.123038 0.00200829 -0.121657  -0.129833 0.00381002 -0.142755  -0.137051 0.00620671 -0.164499  -0.144695 0.00938261 -0.18721  -0.152586 0.0136464 -0.211151  -0.160451 0.0201414 -0.236419  -0.00922823 -0.031495 0.318694  -0.0138809 -0.0211963 0.298543  -0.0196776 -0.0138954 0.277048  -0.0263685 -0.0088228 0.254637  -0.0337084 -0.00541882 0.231541  -0.0414865 -0.00323778 0.207921  -0.0495438 -0.00194371 0.18388  -0.0577688 -0.00127894 0.15949  -0.0660905 -0.00104229 0.134813  -0.0744693 -0.0010754 0.109908  -0.0828885 -0.00125563 0.0848322  -0.0913463 -0.00148556 0.0596476  -0.099851 -0.00168926 0.0344143  -0.10842 -0.00180286 0.00918874  -0.117078 -0.00176992 -0.0159845  -0.12586 -0.00153551 -0.0410784  -0.134812 -0.00104322 -0.0660917  -0.143988 -0.000228792 -0.0910553  -0.153455 0.00098075 -0.116046  -0.163283 0.00267661 -0.141191  -0.173539 0.00497466 -0.166683  -0.184264 0.00803322 -0.192777  -0.195428 0.0120878 -0.219788  -0.206893 0.0175772 -0.248057  -0.218612 0.025617 -0.278137  0.0139569 -0.0343444 0.380309  0.00676134 -0.0240826 0.356103  -0.00202822 -0.0163177 0.330763  -0.0118883 -0.010638 0.304609  -0.0224766 -0.00665323 0.277793  -0.033549 -0.00399689 0.250418  -0.044934 -0.00235148 0.222562  -0.0565201 -0.00145325 0.194282  -0.0682359 -0.00108084 0.165644  -0.0800465 -0.00105394 0.136709  -0.0919374 -0.00122817 0.107547  -0.103909 -0.00148562 0.0782331  -0.115972 -0.00173134 0.0488434  -0.128145 -0.00188555 0.0194508  -0.140456 -0.00187521 -0.00988421  -0.152938 -0.00163162 -0.039118  -0.165643 -0.00108178 -0.0682368  -0.178627 -0.000146076 -0.0972618  -0.191956 0.00126538 -0.126257  -0.205706 0.00326285 -0.155347  -0.219941 0.0059827 -0.184715  -0.234703 0.00960797 -0.21462  -0.249987 0.0144091 -0.245408  -0.265759 0.0208625 -0.277549  -0.282158 0.0298277 -0.311902  0.0450351 -0.0359896 0.43927  0.0348519 -0.0260178 0.411077  0.0226441 -0.0180786 0.382102  0.0091631 -0.0120344 0.352497  -0.00515382 -0.00764036 0.322308  -0.0200167 -0.004612 0.291574  -0.0352388 -0.00266925 0.26033  -0.0506996 -0.00155771 0.228617  -0.0663286 -0.00104916 0.196489  -0.0820894 -0.00095132 0.164013  -0.097971 -0.00110483 0.131261  -0.113974 -0.00137645 0.0983208  -0.13011 -0.00165537 0.0652816  -0.146398 -0.00184828 0.0322307  -0.162865 -0.00186732 -0.000754774  -0.179545 -0.00163081 -0.0336182  -0.196488 -0.00105014 -0.0663297  -0.213751 -3.1054e-05 -0.0988943  -0.231403 0.00153258 -0.131367  -0.249517 0.00376701 -0.163857  -0.268169 0.00682577 -0.196546  -0.287416 0.0109061 -0.229695  -0.307311 0.0162856 -0.26369  -0.327936 0.0233885 -0.299105  -0.349543 0.0327455 -0.336948  0.0837675 -0.036778 0.494483  0.0700445 -0.0271879 0.462487  0.0539741 -0.0192492 0.430176  0.0364494 -0.0130165 0.397483  0.0179791 -0.00835621 0.364334  -0.00111105 -0.00505635 0.33069  -0.0206122 -0.00287718 0.29654  -0.0403975 -0.00158179 0.261899  -0.0603918 -0.000945657 0.226811  -0.0805575 -0.00077191 0.191336  -0.100881 -0.000893384 0.155553  -0.121365 -0.00116697 0.119554  -0.14202 -0.00147 0.0834381  -0.162863 -0.00169757 0.0473046  -0.183919 -0.00175059 0.0112447  -0.20522 -0.00153446 -0.02467  -0.22681 -0.000946641 -0.0603931  -0.248747 0.000120938 -0.0959172  -0.271097 0.00178945 -0.13128  -0.29394 0.00419867 -0.16658  -0.31736 0.0075137 -0.201988  -0.341451 0.0119357 -0.237774  -0.366322 0.0177203 -0.274345  -0.392162 0.0251885 -0.312337  -0.419292 0.0345814 -0.352796  0.129721 -0.0370319 0.544819  0.111863 -0.0278002 0.509361  0.0914908 -0.0199449 0.474112  0.0695319 -0.0136353 0.438771  0.0465364 -0.0088158 0.403138  0.0228502 -0.00533003 0.36709  -0.00130454 -0.00297275 0.330568  -0.0257902 -0.00152612 0.293558  -0.0505281 -0.000775665 0.256087  -0.0754757 -0.000525862 0.218209  -0.100619 -0.00060752 0.180002  -0.125957 -0.000872165 0.141561  -0.151499 -0.0011903 0.102995  -0.177259 -0.00144798 0.0644089  -0.203256 -0.00153717 0.025907  -0.229518 -0.00135154 -0.012426  -0.256085 -0.000776678 -0.0505302  -0.283009 0.000309169 -0.0883819  -0.310355 0.00204018 -0.126005  -0.338209 0.00456795 -0.163483  -0.366667 0.00806403 -0.200975  -0.39586 0.0127236 -0.238749  -0.42596 0.0187629 -0.277221  -0.457236 0.0263884 -0.317043  -0.49007 0.0356369 -0.359236  0.182248 -0.037005 0.589185  0.159694 -0.02804 0.550769  0.134612 -0.020285 0.513081  0.107879 -0.013959 0.475609  0.0800449 -0.00905418 0.438027  0.0514613 -0.00545016 0.400133  0.022357 -0.00296545 0.36182  -0.00712836 -0.00139976 0.323043  -0.0369075 -0.00055033 0.28381  -0.0669351 -0.0002276 0.244167  -0.0971924 -0.000264674 0.204187  -0.127675 -0.000511318 0.163968  -0.158387 -0.000836462 0.123618  -0.189338 -0.00111923 0.0832528  -0.220542 -0.00124481 0.0429832  -0.252022 -0.0010969 0.00290492  -0.283809 -0.000551432 -0.0369099  -0.315951 0.000526905 -0.0764234  -0.348509 0.00228354 -0.115644  -0.381573 0.00488117 -0.15464  -0.415256 0.00849319 -0.193556  -0.44972 0.0133045 -0.232645  -0.485194 0.0194874 -0.272313  -0.522018 0.0271485 -0.313196  -0.560642 0.0362008 -0.356262  0.240505 -0.0368663 0.626589  0.212792 -0.0280467 0.585859  0.182653 -0.0203673 0.546323  0.150866 -0.0140517 0.507304  0.117948 -0.00911173 0.468364  0.0842402 -0.00544164 0.429231  0.0499642 -0.00287309 0.38975  0.0152658 -0.00121817 0.349846  -0.019769 -0.000285655 0.309508  -0.0550871 0.000104815 0.26877  -0.0906643 0.000114948 0.227701  -0.126491 -0.000107288 0.186394  -0.162566 -0.000431836 0.14496  -0.198893 -0.00073427 0.103517  -0.235481 -0.000894815 0.0621824  -0.272344 -0.00079 0.0210592  -0.309507 -0.000286669 -0.0197709  -0.34701 0.000761926 -0.0602572  -0.384911 0.00251257 -0.100394  -0.423303 0.00513774 -0.14023  -0.46231 0.00881228 -0.179893  -0.502126 0.0137099 -0.219611  -0.543025 0.0199662 -0.25976  -0.585413 0.0276164 -0.300937  -0.629833 0.0365027 -0.344034  0.303501 -0.0366994 0.656201  0.270291 -0.0279008 0.613891  0.234834 -0.0202543 0.573175  0.197786 -0.013961 0.53325  0.159614 -0.00902334 0.493589  0.120632 -0.00533056 0.453858  0.0810493 -0.00271627 0.413861  0.041006 -0.000999838 0.373498  0.000591487 -6.55651e-07 0.332738  -0.0401376 0.000450671 0.291601  -0.0811503 0.000508547 0.250146  -0.122429 0.000315726 0.208465  -0.163967 -1.2219e-06 0.166664  -0.205762 -0.000317454 0.124864  -0.247815 -0.000510842 0.0831817  -0.290135 -0.000452161 0.0417273  -0.332738 -1.37091e-06 0.000589699  -0.375656 0.000998318 -0.0401703  -0.418945 0.00271446 -0.0805329  -0.462695 0.00532931 -0.120529  -0.507045 0.00902206 -0.16026  -0.552205 0.0139585 -0.199922  -0.598491 0.0202526 -0.239847  -0.646366 0.0278988 -0.280563  -0.696489 0.0366979 -0.322872  0.370157 -0.036504 0.677363  0.331243 -0.0276182 0.634266  0.290298 -0.0199683 0.593089  0.247865 -0.0137122 0.55294  0.204348 -0.00881374 0.513223  0.160024 -0.00513899 0.47356  0.115081 -0.0025152 0.433723  0.0696512 -0.000764012 0.393586  0.023821 0.000283957 0.353099  -0.0223478 0.000787854 0.312269  -0.0688173 0.000892341 0.271145  -0.115561 0.00073266 0.22981  -0.162566 0.000429749 0.188368  -0.209824 0.000105858 0.146934  -0.25733 -0.000117004 0.105627  -0.305084 -0.000106037 0.0645576  -0.353099 0.000284076 0.0238195  -0.401397 0.00121701 -0.0165181  -0.45003 0.00287211 -0.0564216  -0.499087 0.00544029 -0.0959033  -0.548712 0.00911039 -0.135036  -0.599126 0.0140494 -0.173976  -0.650672 0.0203658 -0.212995  -0.703866 0.0280449 -0.252531  -0.759485 0.0368646 -0.293262  0.439346 -0.036202 0.689593  0.394638 -0.0271502 0.646527  0.348128 -0.0194899 0.605644  0.300271 -0.0133066 0.565976  0.251402 -0.00849497 0.526887  0.201752 -0.00488269 0.48797  0.151483 -0.00228643 0.448974  0.10071 -0.000529528 0.409752  0.0495191 0.000548303 0.370238  -0.00202584 0.00109422 0.330423  -0.0538784 0.00124228 0.290345  -0.106006 0.00111789 0.250076  -0.158388 0.000834882 0.209711  -0.211008 0.000510037 0.169361  -0.263858 0.000263274 0.129141  -0.316934 0.0002262 0.0891612  -0.370239 0.000549078 0.0495178  -0.423792 0.00139868 0.0102846  -0.47764 0.00296479 -0.0284919  -0.531867 0.00544888 -0.0668053  -0.586616 0.00905252 -0.104699  -0.642114 0.0139572 -0.142281  -0.698714 0.0202837 -0.179753  -0.756963 0.0280384 -0.217442  -0.817742 0.0370025 -0.255858  0.50992 -0.035638 0.692568  0.45942 -0.0263898 0.650375  0.407363 -0.0187653 0.610553  0.35413 -0.0127259 0.572082  0.29999 -0.008066 0.534307  0.245117 -0.00456989 0.496813  0.189637 -0.00204277 0.459335  0.133652 -0.000311971 0.421712  0.0772431 0.00077337 0.383859  0.0204784 0.0013485 0.345755  -0.0365916 0.00153482 0.307421  -0.0939276 0.00144655 0.26892  -0.151501 0.00118881 0.230334  -0.209291 0.000871003 0.191767  -0.267286 0.000606835 0.153327  -0.325475 0.000524461 0.11512  -0.38386 0.000774682 0.0772424  -0.442455 0.00152498 0.0397705  -0.501302 0.00297207 0.00276056  -0.560479 0.00532877 -0.0337629  -0.620126 0.0088141 -0.0698117  -0.680462 0.0136339 -0.105446  -0.741836 0.0199441 -0.140787  -0.804796 0.0277992 -0.176037  -0.870271 0.0370298 -0.211495  0.580697 -0.0345826 0.686128  0.524494 -0.0251894 0.645668  0.467002 -0.0177218 0.607676  0.408541 -0.0119377 0.571105  0.349298 -0.00751567 0.53532  0.289387 -0.00420064 0.499912  0.228898 -0.00179166 0.464612  0.167914 -0.000123441 0.429249  0.106518 0.000943124 0.393724  0.0447764 0.0015313 0.358  -0.0172555 0.00174838 0.322085  -0.0795321 0.00169611 0.286025  -0.142022 0.00146812 0.249891  -0.2047 0.00116593 0.213775  -0.267549 0.000893176 0.177775  -0.330557 0.000770509 0.141991  -0.393724 0.000945091 0.106517  -0.457063 0.0015806 0.0714278  -0.520611 0.00287664 0.0367877  -0.584441 0.00505489 0.00263631  -0.648684 0.00835472 -0.0310086  -0.713546 0.0130152 -0.0641582  -0.779354 0.0192485 -0.0968519  -0.846617 0.0271875 -0.129163  -0.916227 0.0367765 -0.16116  0.650446 -0.0327464 0.67028  0.588722 -0.023389 0.632436  0.526014 -0.0162863 0.597022  0.462575 -0.0109077 0.563028  0.398491 -0.00682729 0.529878  0.33381 -0.00376874 0.497191  0.268592 -0.00153476 0.4647  0.202911 2.90275e-05 0.432226  0.13684 0.00104678 0.399661  0.0704503 0.00162762 0.36695  0.00379926 0.00186557 0.334087  -0.0630665 0.00184661 0.3011  -0.130111 0.00165343 0.268048  -0.197308 0.0013755 0.235009  -0.264638 0.00110477 0.202069  -0.332089 0.000950217 0.169317  -0.399661 0.00104892 0.13684  -0.467365 0.00155652 0.104711  -0.535237 0.00266862 0.0729982  -0.603347 0.00461024 0.0417521  -0.671817 0.00763935 0.0110177  -0.740834 0.0120332 -0.0191711  -0.810685 0.0180774 -0.0487775  -0.881811 0.0260173 -0.0777524  -0.95496 0.0359884 -0.105947  0.717832 -0.0298293 0.645238  0.6509 -0.0208631 0.610884  0.58334 -0.0144096 0.578741  0.515291 -0.00960863 0.547953  0.446719 -0.00598413 0.518048  0.377621 -0.00326425 0.48868  0.308038 -0.00126725 0.45959  0.238035 0.000144303 0.430594  0.167686 0.00107872 0.401569  0.0970577 0.00162882 0.37245  0.0262088 0.00187367 0.343216  -0.0448139 0.00188386 0.31388  -0.115974 0.00172973 0.284487  -0.187244 0.00148499 0.255098  -0.258605 0.00122833 0.225783  -0.330047 0.00105363 0.196621  -0.401569 0.00108111 0.167686  -0.473185 0.00145227 0.139046  -0.544932 0.00235087 0.110767  -0.61688 0.00399482 0.0829085  -0.689141 0.00665277 0.0555342  -0.761885 0.0106373 0.0287178  -0.835358 0.0163165 0.00256306  -0.909902 0.0240819 -0.0227768  -0.986038 0.0343432 -0.0469844  0.781378 -0.0256182 0.611473  0.709767 -0.0175772 0.581391  0.637898 -0.0120882 0.553121  0.565731 -0.00803334 0.52611  0.493121 -0.00497615 0.500016  0.420044 -0.00267768 0.474526  0.346539 -0.000982404 0.44938  0.272673 0.000227153 0.424388  0.198516 0.00104094 0.399424  0.124135 0.00153357 0.374411  0.0495861 0.00176847 0.349317  -0.0250885 0.00180149 0.324144  -0.0998519 0.00168824 0.298917  -0.17468 0.00148511 0.273684  -0.249555 0.00125593 0.248499  -0.324469 0.00107574 0.223423  -0.399423 0.00104284 0.198517  -0.474434 0.0012784 0.173838  -0.549542 0.00194299 0.149449  -0.624818 0.00323623 0.125407  -0.700373 0.00541872 0.101788  -0.776366 0.00882244 0.0786919  -0.853008 0.013894 0.0562788  -0.930544 0.0211957 0.0347836  -1.00922 0.0314943 0.014631  0.839541 -0.0201428 0.569757  0.764076 -0.0136469 0.544487  0.688635 -0.00938284 0.520545  0.612945 -0.00620687 0.497833  0.536829 -0.00381154 0.476089  0.460291 -0.00200951 0.454991  0.383391 -0.000675023 0.434273  0.306199 0.00028491 0.413748  0.228785 0.00094074 0.393286  0.15121 0.0013485 0.372813  0.0735246 0.00155562 0.352289  -0.0042322 0.00160211 0.331706  -0.0820282 0.00152832 0.311075  -0.159841 0.00137377 0.290427  -0.237658 0.00118494 0.2698  -0.315471 0.0010168 0.249239  -0.393285 0.00094229 0.228784  -0.47112 0.00105542 0.208483  -0.549019 0.00148475 0.188381  -0.627057 0.00239581 0.168533  -0.705347 0.00401741 0.149012  -0.784056 0.00666875 0.129932  -0.86338 0.0108392 0.111486  -0.943504 0.0172613 0.0939709  -1.02441 0.0271436 0.0778776  0.890996 -0.0138156 0.520999  0.812748 -0.00935775 0.500678  0.734558 -0.00643116 0.481423  0.655978 -0.00420785 0.463574  0.57695 -0.00253856 0.44672  0.497552 -0.00128561 0.430481  0.41787 -0.00035429 0.414602  0.337976 0.000320971 0.398916  0.257934 0.000789285 0.383309  0.177797 0.0010885 0.367715  0.097606 0.00124973 0.352095  0.017395 0.00129819 0.336434  -0.0628107 0.00125879 0.320736  -0.142992 0.00115532 0.305013  -0.223137 0.00101817 0.28929  -0.30324 0.000880301 0.273588  -0.383308 0.000790715 0.257934  -0.463362 0.000810683 0.242356  -0.543447 0.00103116 0.226889  -0.623641 0.00156838 0.21157  -0.704062 0.00259662 0.19646  -0.784883 0.00437403 0.181645  -0.866344 0.00735533 0.167348  -0.948641 0.0123721 0.153887  -1.03156 0.0211598 0.141833  0.934993 -0.00749475 0.465845  0.854981 -0.00516009 0.450228  0.774698 -0.00347948 0.436273  0.693829 -0.00222021 0.424023  0.612561 -0.00128478 0.412556  0.531007 -0.000583589 0.401554  0.449258 -5.99027e-05 0.390825  0.367378 0.000323176 0.380249  0.28542 0.000594079 0.369745  0.203421 0.000772238 0.359265  0.121415 0.000873566 0.348778  0.0394261 0.000911534 0.338268  -0.0425262 0.00089699 0.327732  -0.124427 0.000841737 0.317172  -0.206264 0.000760853 0.306595  -0.288035 0.000670373 0.296007  -0.369744 0.000595152 0.28542  -0.451413 0.00056684 0.274843  -0.53308 0.000635505 0.264295  -0.61482 0.000864506 0.253799  -0.696745 0.0013541 0.24339  -0.779036 0.00226682 0.233142  -0.861942 0.00389951 0.223126  -0.945906 0.00696528 0.213835  -1.03059 0.0137445 0.205726  0.971283 -0.00245339 0.404093  0.889985 -0.00166142 0.393385  0.807971 -0.00102925 0.386373  0.725498 -0.000621855 0.380218  0.642765 -0.000303745 0.374448  0.559862 -6.71744e-05 0.368914  0.476861 0.000112891 0.363521  0.393804 0.000246882 0.358211  0.31072 0.000344515 0.352947  0.227632 0.000410676 0.347703  0.144557 0.00045073 0.342464  0.061512 0.000468373 0.337217  -0.0214927 0.000466645 0.331957  -0.104446 0.000448585 0.32668  -0.187341 0.000418901 0.321384  -0.270173 0.000381649 0.316065  -0.352946 0.000344992 0.31072  -0.435674 0.000317097 0.305351  -0.518384 0.000314415 0.299959  -0.601127 0.000355184 0.294555  -0.683984 0.000472426 0.289158  -0.76709 0.000714183 0.283787  -0.850668 0.00122184 0.278549  -0.935182 0.00210768 0.273301  -1.02114 0.00570136 0.269488  1 0 0.333334  0.916667 0 0.333334  0.833333 0 0.333334  0.75 0 0.333334  0.666667 0 0.333334  0.583333 0 0.333334  0.5 0 0.333334  0.416667 0 0.333334  0.333333 0 0.333334  0.25 0 0.333334  0.166667 0 0.333334  0.0833333 0 0.333334  0 0 0.333334  -0.0833334 0 0.333334  -0.166667 0 0.333334  -0.25 0 0.333334  -0.333333 0 0.333334  -0.416667 0 0.333334  -0.5 0 0.333334  -0.583333 0 0.333334  -0.666667 0 0.333334  -0.75 0 0.333334  -0.833333 0 0.333334  -0.916667 0 0.333334  -1 0 0.333334  0 0 0  -1.11759e-08 0 0  7.45058e-09 0 0  0 0 0  1.49012e-08 0 0  0 0 0  0 0 0  0 0 0  0 0 0  0 0 0  0 0 0  0 0 0  0 0 0  0 0 0  0 0 0  0 0 0  0 0 0  0 0 0  0 0 0  0 0 0  0 0 0  0 0 0  0 0 0  0 0 0  0 0 0  -0.0166998 -0.0052476 0.0663579  -0.013897 -0.00194041 0.0610446  -0.0126856 -0.00117255 0.0552541  -0.0123642 -0.000730537 0.0497245  -0.0124924 -0.000523966 0.0441776  -0.0128572 -0.000424232 0.0386715  -0.013335 -0.000389211 0.0331996  -0.0138533 -0.000390533 0.0277655  -0.014369 -0.000410829 0.0223668  -0.0148577 -0.000438858 0.017  -0.015308 -0.000465915 0.011659  -0.0157165 -0.000486501 0.00633636  -0.0160843 -0.000496969 0.00102976  -0.0164164 -0.000494041 -0.00426725  -0.0167189 -0.000475533 -0.00956017  -0.0170003 -0.000438817 -0.0148584  -0.017269 -0.000381671 -0.0201732  -0.0175357 -0.000301149 -0.0255239  -0.0178123 -0.000193551 -0.030938  -0.0181147 -5.37075e-05 -0.0364549  -0.0184634 0.000124261 -0.0421274  -0.0188935 0.000356868 -0.0480505  -0.0194389 0.000633277 -0.0543585  -0.0202035 0.00108684 -0.0615947  -0.021017 0.0012033 -0.0723526  -0.0215584 -0.0125442 0.130606  -0.0197372 -0.00636868 0.120685  -0.018942 -0.00365608 0.110294  -0.0192292 -0.00223818 0.0996803  -0.0201283 -0.0014514 0.0890719  -0.0213889 -0.00103016 0.0784435  -0.0228392 -0.000829406 0.0678166  -0.0243746 -0.000762537 0.0571926  -0.0259301 -0.00077264 0.0465763  -0.0274691 -0.000821427 0.0359679  -0.0289737 -0.000881016 0.0253676  -0.0304372 -0.000932097 0.014777  -0.0318605 -0.000961691 0.00419834  -0.0332501 -0.000958823 -0.00636706  -0.0346151 -0.000914887 -0.0169193  -0.0359685 -0.000821576 -0.0274695  -0.0373256 -0.000670195 -0.0380347  -0.0387051 -0.000451177 -0.0486467  -0.0401303 -0.000151984 -0.0593577  -0.0416269 0.000241436 -0.070245  -0.043228 0.000751249 -0.0814267  -0.0449681 0.00140344 -0.0930856  -0.0468858 0.00223788 -0.105556  -0.049014 0.0032437 -0.119705  -0.0508294 0.00410583 -0.135663  -0.0177466 -0.019034 0.193759  -0.0175044 -0.0111654 0.179703  -0.0182479 -0.00676709 0.164859  -0.0199312 -0.00419171 0.149687  -0.0222844 -0.00267103 0.134335  -0.0250509 -0.00179427 0.118895  -0.0280588 -0.00133066 0.103385  -0.0311929 -0.00112975 0.0878188  -0.0343812 -0.00108909 0.0722012  -0.0375803 -0.001137 0.0565432  -0.0407691 -0.00122048 0.0408559  -0.0439402 -0.00130219 0.0251518  -0.0470939 -0.00135519 0.00944614  -0.0502368 -0.00135725 -0.00624698  -0.0533811 -0.00129021 -0.0219219  -0.0565426 -0.00113747 -0.0375797  -0.0597435 -0.000880525 -0.0532405  -0.0630093 -0.000500508 -0.0689443  -0.0663705 2.51234e-05 -0.0847611  -0.0698597 0.000722662 -0.1008  -0.0735112 0.00162877 -0.117227  -0.0773493 0.00278702 -0.134291  -0.0813643 0.004251 -0.152366  -0.0854041 0.00601508 -0.171886  -0.0887768 0.00839345 -0.192543  -0.00575967 -0.0240223 0.256012  -0.00744592 -0.0153616 0.237761  -0.0102939 -0.00981073 0.218676  -0.0140897 -0.00624518 0.199164  -0.018563 -0.00399749 0.179392  -0.0234841 -0.00262898 0.159441  -0.0286799 -0.00185397 0.139348  -0.034036 -0.00147508 0.119126  -0.0394787 -0.00134915 0.098788  -0.0449646 -0.00137222 0.0783517  -0.050473 -0.00146551 0.0578385  -0.0559952 -0.00157215 0.0372755  -0.0615334 -0.00164889 0.0166905  -0.0670951 -0.00166063 -0.00388849  -0.0726947 -0.00157769 -0.0244423  -0.0783517 -0.00137293 -0.044965  -0.0840928 -0.00101703 -0.0654716  -0.0899485 -0.00048092 -0.086004  -0.0959561 0.000269666 -0.106644  -0.102149 0.00127339 -0.127517  -0.108557 0.00258204 -0.148814  -0.115175 0.00425664 -0.170793  -0.121927 0.00638691 -0.193776  -0.128528 0.00910616 -0.218039  -0.134378 0.0131985 -0.243562  0.0141987 -0.0274154 0.316765  0.0102696 -0.018605 0.294303  0.00482865 -0.0123933 0.271093  -0.00166282 -0.00810988 0.247476  -0.00887956 -0.00525354 0.223572  -0.0165755 -0.0034294 0.19944  -0.0245777 -0.00234176 0.175103  -0.0327694 -0.00176772 0.150571  -0.0410782 -0.00153469 0.125862  -0.0494621 -0.00151318 0.100996  -0.0579014 -0.00160183 0.0760043  -0.0663901 -0.00172471 0.0509261  -0.0749308 -0.00182289 0.0258037  -0.0835326 -0.00184771 0.000679314  -0.0922127 -0.00175773 -0.0244153  -0.100994 -0.00151393 -0.049463  -0.109906 -0.00107652 -0.0744709  -0.118984 -0.000405014 -0.0994775  -0.128266 0.00054644 -0.124564  -0.137789 0.0018305 -0.149866  -0.147569 0.00351438 -0.175574  -0.15758 0.00568469 -0.201948  -0.167706 0.0084832 -0.2293  -0.177659 0.0121932 -0.257957  -0.187037 0.0177763 -0.288313  0.0419956 -0.0294214 0.375201  0.0353974 -0.0208605 0.348528  0.0268873 -0.0143611 0.321359  0.0171687 -0.00962433 0.293898  0.00665052 -0.00631513 0.266187  -0.00439051 -0.00411353 0.238237  -0.0157705 -0.00274448 0.210044  -0.027371 -0.00197932 0.181607  -0.0391172 -0.00163071 0.15294  -0.0509702 -0.00155143 0.124065  -0.0629119 -0.00162247 0.0950197  -0.0749377 -0.0017523 0.0658534  -0.0870509 -0.00186783 0.0366218  -0.0992631 -0.00190783 0.00737962  -0.111593 -0.00181952 -0.0218284  -0.124063 -0.00155205 -0.0509713  -0.136707 -0.00105526 -0.0800478  -0.149563 -0.000277087 -0.109089  -0.162668 0.000841051 -0.13817  -0.176058 0.00236574 -0.167422  -0.189747 0.00438178 -0.197039  -0.203704 0.00700355 -0.227287  -0.217825 0.0104193 -0.258513  -0.231895 0.0150008 -0.291162  -0.245737 0.021631 -0.325973  0.0774326 -0.0303784 0.430361  0.0676076 -0.0222557 0.399562  0.0555354 -0.0157146 0.368672  0.0420949 -0.0107348 0.337687  0.0277719 -0.00712112 0.306544  0.0128761 -0.00463346 0.275188  -0.00239584 -0.00303015 0.243579  -0.0179179 -0.00209245 0.211698  -0.0336173 -0.00162983 0.179547  -0.049454 -0.00148547 0.147147  -0.0654118 -0.00152868 0.114542  -0.0814855 -0.00165659 0.0817871  -0.0976814 -0.00178474 0.048948  -0.11401 -0.00184071 0.0160924  -0.13049 -0.00176165 -0.0167222  -0.147146 -0.00148579 -0.0494543  -0.164012 -0.000952721 -0.0820901  -0.181122 -9.85563e-05 -0.11465  -0.19852 0.00114876 -0.147203  -0.216239 0.00286949 -0.179873  -0.234299 0.0051659 -0.212857  -0.252684 0.00817487 -0.24643  -0.271336 0.01211 -0.280988  -0.290157 0.0173523 -0.317092  -0.309151 0.0245557 -0.355694  0.120159 -0.0306413 0.48119  0.106464 -0.022984 0.446498  0.090329 -0.0165364 0.412219  0.0727064 -0.0114579 0.378104  0.0541296 -0.00766113 0.343965  0.0349315 -0.00497216 0.309671  0.0153228 -0.0031864 0.27514  -0.00456908 -0.00210181 0.240327  -0.0246684 -0.00153348 0.205221  -0.0449364 -0.0013212 0.16984  -0.065354 -0.0013296 0.134228  -0.0859196 -0.00144792 0.0984444  -0.106636 -0.0015834 0.0625649  -0.127517 -0.00165549 0.0266642  -0.148576 -0.00159177 -0.00918728  -0.169839 -0.00132158 -0.0449366  -0.191335 -0.000773638 -0.0805579  -0.213103 0.000127912 -0.116063  -0.235181 0.00146741 -0.151508  -0.25761 0.00333944 -0.187014  -0.280421 0.00586075 -0.222773  -0.303633 0.00918096 -0.25908  -0.327244 0.013514 -0.296361  -0.351278 0.0191846 -0.335264  -0.375881 0.0265841 -0.376834  0.169617 -0.0305151 0.52661  0.151401 -0.0232454 0.488435  0.130721 -0.0169398 0.451206  0.108499 -0.0118483 0.414432  0.0852802 -0.0079557 0.377797  0.0614036 -0.00513652 0.34109  0.0370831 -0.00321665 0.304182  0.0124491 -0.00201324 0.267001  -0.0124236 -0.00135055 0.229519  -0.0374926 -0.0010713 0.19175  -0.0627406 -0.00104064 0.153733  -0.0881629 -0.00114289 0.115535  -0.113763 -0.00128099 0.0772328  -0.139551 -0.00136855 0.0389104  -0.165539 -0.0013251 0.000647098  -0.191749 -0.00107196 -0.0374945  -0.218207 -0.000527591 -0.0754775  -0.244949 0.000395417 -0.113302  -0.272016 0.0017933 -0.151017  -0.299456 0.0037744 -0.188733  -0.327316 0.00646579 -0.22664  -0.355651 0.0100197 -0.265038  -0.384534 0.0146302 -0.304377  -0.414095 0.0205315 -0.345343  -0.444581 0.0278881 -0.389  0.225036 -0.0302211 0.565596  0.201723 -0.0232071 0.524524  0.176069 -0.0170336 0.484891  0.148889 -0.011971 0.446007  0.120705 -0.00804153 0.407434  0.0918439 -0.00514713 0.368891  0.0625147 -0.00313568 0.330199  0.0328436 -0.00184026 0.291256  0.00290754 -0.00109616 0.252023  -0.0272529 -0.000753731 0.212501  -0.0576177 -0.000681341 0.172727  -0.0881802 -0.00076282 0.132767  -0.118941 -0.000899345 0.0927033  -0.149907 -0.00100136 0.0526233  -0.181087 -0.00098139 0.0126133  -0.2125 -0.000754356 -0.0272561  -0.244166 -0.000229001 -0.0669383  -0.276119 0.000692725 -0.106423  -0.308401 0.00211933 -0.145749  -0.341067 0.00417075 -0.185019  -0.374185 0.00698209 -0.224413  -0.407849 0.0107003 -0.264228  -0.442203 0.0154887 -0.304916  -0.477471 0.0214847 -0.347168  -0.513987 0.028688 -0.392024  0.285472 -0.0298882 0.59726  0.256613 -0.0229855 0.554007  0.225631 -0.0169033 0.512608  0.193209 -0.0118853 0.472231  0.159812 -0.00795805 0.432336  0.125742 -0.00503111 0.392576  0.0911869 -0.00296354 0.352732  0.0562695 -0.00160101 0.312675  0.021061 -0.000789493 0.272346  -0.0143943 -0.000389457 0.231738  -0.0500756 -0.000274509 0.190885  -0.0859733 -0.000331849 0.14985  -0.122083 -0.000463426 0.108715  -0.158409 -0.000578105 0.067571  -0.194956 -0.000583887 0.0265081  -0.231736 -0.000389904 -0.0143966  -0.26877 0.000103861 -0.0550893  -0.306083 0.00100496 -0.095551  -0.34372 0.00243405 -0.135809  -0.381742 0.00452119 -0.175954  -0.420239 0.00740829 -0.216154  -0.459343 0.011235 -0.256691  -0.499259 0.0161316 -0.297998  -0.5403 0.0221542 -0.340744  -0.582894 0.0291897 -0.385922  0.349867 -0.0295565 0.62088  0.315153 -0.0226366 0.576242  0.278591 -0.0165983 0.533789  0.240726 -0.011633 0.492592  0.201952 -0.0077391 0.452033  0.162527 -0.0048154 0.411714  0.122617 -0.00272304 0.371379  0.0823281 -0.00131619 0.330878  0.0417295 -0.000452042 0.290136  0.000863969 -1.19209e-06 0.249135  -0.0402438 0.00015521 0.207902  -0.0815799 0.00012368 0.166497  -0.123136 -1.19209e-07 0.124999  -0.164913 -0.000125319 0.0835004  -0.206909 -0.000157446 0.0420943  -0.249133 -1.43051e-06 0.00086081  -0.2916 0.000450134 -0.0401404  -0.334334 0.00131387 -0.0808829  -0.377377 0.00272137 -0.121384  -0.420799 0.00481361 -0.161718  -0.464707 0.00773817 -0.202037  -0.509266 0.0116313 -0.242596  -0.554734 0.016597 -0.283793  -0.601505 0.0226354 -0.326246  -0.650122 0.0295546 -0.370884  0.417095 -0.0291913 0.635919  0.376357 -0.0221558 0.59074  0.334065 -0.016133 0.547995  0.290648 -0.011237 0.506688  0.24642 -0.00740951 0.466151  0.201584 -0.0045234 0.425951  0.156274 -0.00243628 0.385806  0.110578 -0.00100756 0.345548  0.0645597 -0.000106096 0.305086  0.0182603 0.000387251 0.264393  -0.028292 0.000581801 0.223489  -0.0750765 0.000576496 0.182426  -0.122083 0.00046277 0.141282  -0.169306 0.000329733 0.100145  -0.216741 0.000272214 0.0591101  -0.264392 0.000387251 0.0182572  -0.312269 0.000787735 -0.02235  -0.360392 0.00159872 -0.0626791  -0.408807 0.00296199 -0.102736  -0.457586 0.0050298 -0.14258  -0.506848 0.00795704 -0.18234  -0.556784 0.0118838 -0.222234  -0.607695 0.0169019 -0.262611  -0.660047 0.0229846 -0.304011  -0.714518 0.0298864 -0.347265  0.486 -0.0286896 0.642023  0.439185 -0.0214865 0.597165  0.39112 -0.0154901 0.554914  0.342141 -0.0107024 0.514225  0.292473 -0.00698364 0.474411  0.242259 -0.00417304 0.435016  0.191592 -0.00212198 0.395747  0.140542 -0.000695586 0.35642  0.0891633 0.000226021 0.316935  0.0374974 0.000751674 0.277252  -0.0144231 0.000979304 0.237383  -0.0665749 0.000999629 0.197373  -0.118942 0.000898302 0.157293  -0.171513 0.000760257 0.117228  -0.224284 0.000679255 0.0772689  -0.277251 0.000752151 0.0374954  -0.330424 0.00109452 -0.00202727  -0.383819 0.00183827 -0.0412615  -0.437481 0.00313437 -0.080203  -0.491484 0.00514579 -0.118896  -0.545957 0.00804067 -0.157439  -0.601105 0.01197 -0.196012  -0.657258 0.0170325 -0.234896  -0.714936 0.0232064 -0.27453  -0.774956 0.03022 -0.315602  0.555408 -0.0278893 0.638999  0.502561 -0.0205333 0.595342  0.44879 -0.0146315 0.554376  0.39434 -0.0100216 0.515037  0.339342 -0.00646758 0.476639  0.28387 -0.00377655 0.438731  0.227977 -0.00179589 0.401015  0.171711 -0.000398815 0.363299  0.115121 0.000524282 0.325474  0.0582483 0.00106937 0.28749  0.00112522 0.0013231 0.249348  -0.0562195 0.00136715 0.211085  -0.113765 0.00127971 0.172762  -0.171497 0.00114048 0.13446  -0.229407 0.00103891 0.0962614  -0.287492 0.00106978 0.0582453  -0.345755 0.00134879 0.0204756  -0.404216 0.00201154 -0.017006  -0.462914 0.00321531 -0.0541876  -0.521926 0.00513536 -0.0910956  -0.581382 0.00795484 -0.127802  -0.641495 0.0118475 -0.164439  -0.702605 0.0169385 -0.201214  -0.765259 0.023245 -0.238443  -0.830376 0.0305141 -0.276617  0.62411 -0.0265849 0.626833  0.565379 -0.0191861 0.585264  0.506082 -0.0135153 0.546361  0.44636 -0.00918257 0.50908  0.386238 -0.00586241 0.472773  0.325718 -0.00334138 0.437013  0.264814 -0.00147009 0.401507  0.203558 -0.000131965 0.366062  0.141993 0.000770509 0.330557  0.0801577 0.00131893 0.294934  0.0180877 0.00158978 0.259184  -0.044185 0.00165403 0.223332  -0.106638 0.00158238 0.187432  -0.169254 0.00144589 0.151552  -0.232021 0.00132799 0.115769  -0.294935 0.00131947 0.0801557  -0.358 0.00153166 0.0447739  -0.421233 0.00210005 0.00966722  -0.484674 0.00318497 -0.0251458  -0.548398 0.00497097 -0.0596769  -0.612534 0.00766039 -0.09397  -0.677289 0.0114571 -0.12811  -0.742999 0.0165353 -0.162227  -0.810198 0.0229841 -0.196505  -0.879835 0.0306402 -0.231199  0.69084 -0.0245566 0.605695  0.626502 -0.0173531 0.567093  0.561989 -0.0121114 0.530988  0.497308 -0.00817621 0.496431  0.432361 -0.00516719 0.462856  0.367088 -0.00287098 0.429873  0.301475 -0.00115114 0.397203  0.235539 9.4533e-05 0.36465  0.169318 0.00094974 0.332089  0.10285 0.00148308 0.299453  0.0361737 0.00175941 0.266721  -0.0306785 0.00183952 0.233906  -0.097682 0.00178385 0.201049  -0.16482 0.00165504 0.16821  -0.232079 0.00152743 0.135455  -0.299454 0.0014838 0.102849  -0.36695 0.00162846 0.0704488  -0.434583 0.00209063 0.0382966  -0.502393 0.00302863 0.00641537  -0.570454 0.00463235 -0.0251937  -0.638891 0.00712067 -0.0565497  -0.707901 0.0107338 -0.0876932  -0.777793 0.0157136 -0.11868  -0.849055 0.0222554 -0.149569  -0.922562 0.0303773 -0.180369  0.754254 -0.0216313 0.575973  0.684762 -0.0150014 0.541162  0.615501 -0.01042 0.508512  0.546288 -0.00700444 0.477286  0.476912 -0.00438267 0.447038  0.407267 -0.00236684 0.417421  0.337325 -0.000843048 0.388169  0.267098 0.000273824 0.359088  0.196622 0.00105238 0.330047  0.125934 0.00154942 0.300971  0.0550716 0.00181735 0.271827  -0.0159312 0.00190699 0.242619  -0.0870524 0.00186712 0.213377  -0.158272 0.00175083 0.184144  -0.229579 0.00162184 0.154978  -0.300971 0.0015502 0.125933  -0.37245 0.00163013 0.0970565  -0.444036 0.00197756 0.0683878  -0.515769 0.00274336 0.039952  -0.587722 0.00411278 0.011759  -0.660013 0.00631458 -0.0161922  -0.732828 0.00962341 -0.0439036  -0.806443 0.0143604 -0.0713653  -0.881266 0.0208603 -0.0985341  -0.958 0.0294202 -0.125209  0.812955 -0.017777 0.538316  0.739001 -0.0121937 0.507958  0.665622 -0.00848311 0.4793  0.592414 -0.00568557 0.451948  0.519093 -0.00351501 0.425574  0.445539 -0.00183153 0.399867  0.371728 -0.000547886 0.374566  0.297678 0.000402391 0.349478  0.223424 0.00107402 0.324472  0.149003 0.00151139 0.299464  0.0744515 0.00175595 0.274415  -0.000201017 0.00184709 0.24932  -0.0749314 0.00182247 0.224195  -0.149724 0.00172347 0.199072  -0.224568 0.00160193 0.173994  -0.299461 0.00151271 0.149002  -0.37441 0.00153482 0.124136  -0.449434 0.00176644 0.0994242  -0.524575 0.00234127 0.0748936  -0.599907 0.0034287 0.050556  -0.675544 0.00525326 0.0264235  -0.75166 0.00810903 0.00251994  -0.828502 0.0123928 -0.0210967  -0.906394 0.0186045 -0.0443083  -0.985798 0.0274145 -0.0667723  0.865615 -0.0131992 0.493565  0.788133 -0.00910664 0.468041  0.711401 -0.00638658 0.443777  0.63482 -0.00425726 0.420794  0.558106 -0.00258207 0.398814  0.481181 -0.00127423 0.377518  0.404042 -0.000270605 0.356644  0.326715 0.000479102 0.336006  0.249239 0.00101507 0.315473  0.171646 0.00137055 0.294966  0.09397 0.0015763 0.274443  0.0162366 0.00166023 0.25389  -0.0615344 0.0016486 0.23331  -0.139329 0.00157142 0.212723  -0.217139 0.00146598 0.19216  -0.294965 0.00137204 0.171646  -0.372811 0.00134993 0.151209  -0.450702 0.00147456 0.130871  -0.528679 0.00185359 0.110649  -0.606816 0.00262839 0.0905541  -0.685228 0.00399774 0.0706036  -0.764088 0.00624466 0.0508321  -0.843626 0.00981057 0.0313209  -0.92411 0.0153611 0.0122325  -1.00576 0.0240219 -0.00601918  0.911218 -0.00839478 0.442547  0.831258 -0.00601542 0.421888  0.751966 -0.00425076 0.402367  0.672648 -0.00278705 0.384292  0.593154 -0.00162852 0.367227  0.513471 -0.000723124 0.3508  0.433627 -2.56896e-05 0.334761  0.353654 0.000499249 0.318945  0.273587 0.000879228 0.303242  0.193455 0.00113589 0.287581  0.113284 0.00128919 0.271923  0.0330957 0.0013572 0.256248  -0.0470943 0.00135499 0.240554  -0.127273 0.001302 0.224847  -0.207435 0.00122094 0.209143  -0.28758 0.00113702 0.193455  -0.367714 0.00109011 0.177797  -0.447859 0.00112945 0.162179  -0.528058 0.00133014 0.146611  -0.608383 0.00179416 0.131102  -0.68895 0.00267154 0.115663  -0.76993 0.00419134 0.10031  -0.85158 0.00676715 0.0851397  -0.93417 0.0111651 0.070294  -1.01775 0.0190338 0.0562365  0.949167 -0.00410688 0.385667  0.86765 -0.00324374 0.369708  0.786445 -0.00223786 0.355558  0.705029 -0.00140333 0.343087  0.623436 -0.000751078 0.331427  0.541704 -0.000241756 0.320244  0.459867 0.000151455 0.309358  0.377959 0.000450432 0.298648  0.296006 0.000669599 0.288035  0.21403 0.000820994 0.277472  0.13205 0.000914156 0.266921  0.0500825 0.00095886 0.256367  -0.031861 0.000961542 0.245801  -0.113771 0.000932097 0.235223  -0.195641 0.000881374 0.224633  -0.277469 0.000821292 0.214031  -0.359263 0.00077337 0.203422  -0.441041 0.000762224 0.192805  -0.522839 0.000828981 0.182181  -0.604722 0.00103027 0.171554  -0.686794 0.00145191 0.160926  -0.769229 0.00223798 0.150318  -0.852275 0.00365627 0.139705  -0.936404 0.00636858 0.129312  -1.02156 0.0125442 0.119392  0.978983 -0.00120395 0.322356  0.896464 -0.00108653 0.311597  0.813894 -0.000633299 0.304361  0.731106 -0.000356913 0.298053  0.648203 -0.000124097 0.292128  0.565219 5.36442e-05 0.286456  0.482188 0.000193238 0.28094  0.399132 0.000301063 0.275525  0.316065 0.00038147 0.270175  0.233 0.00043875 0.264859  0.149948 0.000475228 0.259562  0.066917 0.000494123 0.254268  -0.0160844 0.000496864 0.248971  -0.0990497 0.000486493 0.243663  -0.181975 0.000466049 0.238342  -0.264858 0.000438809 0.233  -0.347702 0.000411153 0.227632  -0.43052 0.000390291 0.222233  -0.513335 0.000389099 0.216799  -0.59619 0.000424266 0.211327  -0.679159 0.000524282 0.205821  -0.762364 0.000730515 0.200275  -0.846019 0.00117266 0.194745  -0.930564 0.00194049 0.188955  -1.0167 0.00524783 0.183642  1 0 0.250001  0.916667 0 0.250001  0.833333 0 0.250001  0.75 0 0.250001  0.666667 0 0.250001  0.583333 0 0.250001  0.5 0 0.250001  0.416667 0 0.250001  0.333333 0 0.250001  0.25 0 0.250001  0.166667 0 0.250001  0.0833333 0 0.250001  0 0 0.250001  -0.0833334 0 0.250001  -0.166667 0 0.250001  -0.25 0 0.250001  -0.333333 0 0.250001  -0.416667 0 0.250001  -0.5 0 0.250001  -0.583333 0 0.250001  -0.666667 0 0.250001  -0.75 0 0.250001  -0.833333 0 0.250001  -0.916667 0 0.250001  -1 0 0.250001  0 0 0  -1.11759e-08 0 0  7.45058e-09 0 0  0 0 0  1.49012e-08 0 0  0 0 0  0 0 0  0 0 0  0 0 0  0 0 0  0 0 0  0 0 0  0 0 0  0 0 0  0 0 0  0 0 0  0 0 0  0 0 0  0 0 0  0 0 0  0 0 0  0 0 0  0 0 0  0 0 0  0 0 0  -0.0117219 -0.00454428 0.0686995  -0.00895452 -0.00164087 0.0619664  -0.00782011 -0.00103077 0.0556802  -0.00748824 -0.000675324 0.0498772  -0.00756419 -0.00051808 0.0441631  -0.00785311 -0.000445437 0.038552  -0.00824744 -0.000424292 0.0330135  -0.00868499 -0.000430666 0.0275364  -0.00912949 -0.000450898 0.0221081  -0.00956064 -0.000475489 0.016719  -0.00996867 -0.000497915 0.0113579  -0.0103508 -0.000513863 0.00601435  -0.0107073 -0.000520419 0.000684232  -0.0110409 -0.000515763 -0.00464097  -0.0113562 -0.000497825 -0.00996852  -0.0116574 -0.000466023 -0.0153085  -0.0119491 -0.00041873 -0.0206745  -0.012235 -0.000355165 -0.0260856  -0.0125192 -0.000274006 -0.03157  -0.0128036 -0.000174556 -0.0371646  -0.0130886 -5.59986e-05 -0.042919  -0.0133744 8.87103e-05 -0.0489214  -0.0136361 0.000228766 -0.0552879  -0.0138659 0.000475999 -0.0626001  -0.0135739 -7.72104e-05 -0.0730957  -0.0115826 -0.0107467 0.133429  -0.00959262 -0.00538344 0.121779  -0.00883354 -0.00313413 0.110347  -0.00911454 -0.00199121 0.099167  -0.00996655 -0.00137252 0.0882125  -0.0111527 -0.00105007 0.0773706  -0.0125162 -0.000903219 0.0666127  -0.013965 -0.000859648 0.0559107  -0.015443 -0.000874072 0.0452492  -0.0169193 -0.000914946 0.0346149  -0.0183785 -0.000960834 0.0239977  -0.0198145 -0.000996932 0.0133922  -0.0212269 -0.00101352 0.00279677  -0.0226195 -0.00100357 -0.00779247  -0.023997 -0.000960685 -0.0183784  -0.0253668 -0.000881426 -0.028974  -0.0267374 -0.000760697 -0.0395973  -0.0281178 -0.00059519 -0.0502804  -0.029515 -0.000382259 -0.0610723  -0.0309339 -0.00011909 -0.0720457  -0.032374 0.000196628 -0.0833091  -0.0338194 0.00056234 -0.0950305  -0.0352339 0.000962682 -0.107539  -0.0365015 0.00127354 -0.121605  -0.0370085 0.000704736 -0.13749  -0.0026514 -0.0159723 0.195855  -0.00210388 -0.0093041 0.179891  -0.00282215 -0.00568797 0.163733  -0.00451054 -0.00362012 0.147733  -0.00684978 -0.00242843 0.131865  -0.00958046 -0.00175707 0.116106  -0.0125395 -0.00141349 0.100405  -0.0156211 -0.0012717 0.0847303  -0.0187612 -0.00125017 0.0690587  -0.021922 -0.00129034 0.053381  -0.0250848 -0.00135204 0.0376923  -0.0282424 -0.00140636 0.021995  -0.0313936 -0.00143385 0.00629547  -0.0345412 -0.00141972 -0.00939834  -0.0376924 -0.00135188 -0.0250851  -0.0408549 -0.00122145 -0.0407682  -0.0440422 -0.00101794 -0.0564704  -0.0472655 -0.000735261 -0.0722295  -0.0505361 -0.000367336 -0.0881116  -0.0538606 9.09567e-05 -0.104219  -0.0572327 0.000641271 -0.120705  -0.0606247 0.00128011 -0.137804  -0.0639471 0.00197279 -0.155859  -0.0669708 0.00256851 -0.175299  -0.0688955 0.0028902 -0.195873  0.0144579 -0.0196777 0.256418  0.0131269 -0.0125729 0.236116  0.0103226 -0.00809415 0.215543  0.00649771 -0.00526838 0.195027  0.00198968 -0.00352275 0.174599  -0.00295232 -0.00248262 0.154236  -0.00815666 -0.00190966 0.133894  -0.0135135 -0.00163887 0.113537  -0.0189555 -0.00155611 0.0931407  -0.0244428 -0.00157781 0.0726952  -0.0299562 -0.00164416 0.0522013  -0.0354871 -0.00171134 0.0316722  -0.0410347 -0.00174889 0.0111246  -0.0466034 -0.00173262 -0.00942266  -0.0522004 -0.00164397 -0.0299553  -0.0578379 -0.00146684 -0.0504731  -0.0635304 -0.00118524 -0.070992  -0.0692927 -0.000788361 -0.0915535  -0.0751395 -0.000265762 -0.112236  -0.0810754 0.0003905 -0.133158  -0.0870866 0.00118606 -0.154497  -0.0931181 0.00212102 -0.1765  -0.0990233 0.00318404 -0.199466  -0.104452 0.00434564 -0.22367  -0.1086 0.00597887 -0.24902  0.0394461 -0.021892 0.314674  0.035813 -0.014935 0.290013  0.0303746 -0.0100385 0.265193  0.0238024 -0.0067026 0.240451  0.0164896 -0.00451227 0.21579  0.00870626 -0.00313969 0.191171  0.000630409 -0.00234048 0.166539  -0.00762275 -0.00192912 0.141852  -0.0159847 -0.00176927 0.117079  -0.0244151 -0.0017577 0.0922145  -0.0328951 -0.00181726 0.0672644  -0.0414173 -0.0018906 0.0422495  -0.0499821 -0.0019362 0.0171979  -0.0585937 -0.00192033 -0.00785801  -0.0672625 -0.00181723 -0.0328953  -0.0760022 -0.00160317 -0.0579022  -0.0848305 -0.00125666 -0.0828899  -0.0937639 -0.000760466 -0.107898  -0.102818 -9.87202e-05 -0.133007  -0.111996 0.000742972 -0.158346  -0.121273 0.00177851 -0.184099  -0.130571 0.00302653 -0.210515  -0.139702 0.00452757 -0.237889  -0.14828 0.00640659 -0.266527  -0.155613 0.00936805 -0.296677  0.0720966 -0.022901 0.369894  0.06561 -0.0164134 0.340878  0.0569961 -0.011421 0.312009  0.0471102 -0.00780274 0.283341  0.0364181 -0.0053024 0.254806  0.0252159 -0.00366469 0.226318  0.0136932 -0.00266577 0.197797  0.00196943 -0.00211845 0.169187  -0.00988328 -0.00187479 0.140457  -0.0218272 -0.00181924 0.111595  -0.0338443 -0.00186184 0.0826115  -0.0459273 -0.00193468 0.0535364  -0.0580774 -0.00198525 0.0244086  -0.0703009 -0.00197226 -0.00472993  -0.0826097 -0.00186209 -0.0338443  -0.0950183 -0.00162357 -0.0629126  -0.107546 -0.00122955 -0.0919382  -0.120212 -0.000655189 -0.120957  -0.133031 0.000123262 -0.150046  -0.146004 0.00112948 -0.179336  -0.159101 0.00239089 -0.209019  -0.172236 0.00395367 -0.239355  -0.185219 0.00591269 -0.270676  -0.197699 0.00851294 -0.303393  -0.209178 0.0125466 -0.338105  0.112106 -0.0230754 0.421161  0.102095 -0.017162 0.387912  0.0897487 -0.0122692 0.355263  0.0760207 -0.00853994 0.323025  0.0614281 -0.0058524 0.291019  0.0462909 -0.00402373 0.259095  0.030807 -0.00286341 0.227139  0.0151021 -0.00219408 0.195078  -0.000754088 -0.00186706 0.162867  -0.016722 -0.00176135 0.130492  -0.0327851 -0.00177911 0.097968  -0.048936 -0.00184473 0.0653298  -0.065178 -0.00189742 0.0326247  -0.0815172 -0.00188926 -9.54866e-05  -0.0979656 -0.0017795 -0.0327847  -0.114539 -0.00152984 -0.0654118  -0.131259 -0.00110647 -0.0979718  -0.148143 -0.000476211 -0.130492  -0.165208 0.000393897 -0.163049  -0.182455 0.00153995 -0.195771  -0.199856 0.00300527 -0.228858  -0.217334 0.00486356 -0.262589  -0.234734 0.00724816 -0.297349  -0.251794 0.0104615 -0.333674  -0.268224 0.0151962 -0.372419  0.158987 -0.0227664 0.467454  0.144731 -0.0173777 0.430276  0.128104 -0.012673 0.394222  0.110044 -0.00894237 0.358841  0.0910882 -0.00616232 0.323825  0.0715638 -0.00420991 0.288954  0.0516754 -0.00292778 0.254071  0.0315458 -0.00215539 0.219079  0.0112465 -0.00175056 0.183921  -0.00918686 -0.00159171 0.148577  -0.0297336 -0.00157872 0.113065  -0.0503911 -0.00163123 0.0774218  -0.0711593 -0.0016838 0.0417019  -0.0920469 -0.00168186 0.00596425  -0.113063 -0.0015792 -0.0297346  -0.134225 -0.00133106 -0.0653547  -0.155551 -0.000895202 -0.100882  -0.177062 -0.00023064 -0.136339  -0.198773 0.000706285 -0.171793  -0.220692 0.00196561 -0.207377  -0.242801 0.00360629 -0.243294  -0.265053 0.00572211 -0.279848  -0.287342 0.00846389 -0.317472  -0.309523 0.0121247 -0.356799  -0.331501 0.0172043 -0.398842  0.212034 -0.022247 0.507749  0.192856 -0.0172461 0.467143  0.171435 -0.0127399 0.428171  0.148609 -0.00906494 0.390153  0.124892 -0.00625771 0.352654  0.100604 -0.00423521 0.31538  0.0759392 -0.00286785 0.278129  0.0510188 -0.00201222 0.240779  0.0259093 -0.00153747 0.203256  0.000649005 -0.00132531 0.16554  -0.0247445 -0.00127774 0.127642  -0.0502675 -0.00131261 0.0896025  -0.0759194 -0.0013625 0.0514813  -0.101708 -0.00136808 0.0133441  -0.127641 -0.00127798 -0.0247463  -0.153732 -0.00104207 -0.062742  -0.18 -0.000609189 -0.10062  -0.206464 7.00057e-05 -0.138397  -0.233142 0.00105089 -0.176136  -0.260051 0.0023964 -0.213967  -0.28719 0.00418022 -0.252098  -0.314549 0.00650546 -0.290849  -0.342094 0.00952038 -0.330689  -0.369796 0.0134608 -0.372316  -0.397711 0.018615 -0.416804  0.270345 -0.0216927 0.541115  0.245684 -0.0169119 0.49775  0.219033 -0.0125661 0.456457  0.191075 -0.00896803 0.416386  0.162274 -0.00617445 0.376992  0.132917 -0.0041227 0.337908  0.103185 -0.00270039 0.298896  0.0731868 -0.00178105 0.259803  0.0429852 -0.00124538 0.220545  0.0126158 -0.000982016 0.18109  -0.0179046 -0.000897944 0.141449  -0.0485694 -0.000912011 0.101665  -0.0793787 -0.000956714 0.0617972  -0.110335 -0.000970781 0.0219176  -0.141447 -0.000897706 -0.0179062  -0.172726 -0.000682414 -0.05762  -0.204187 -0.000265747 -0.0971944  -0.235846 0.000410587 -0.136638  -0.267731 0.00141478 -0.176011  -0.299862 0.00282064 -0.215438  -0.332266 0.00471461 -0.255128  -0.364973 0.00720096 -0.295407  -0.398026 0.0104097 -0.336763  -0.431507 0.0144953 -0.379921  -0.465592 0.0195628 -0.425963  0.332879 -0.0211819 0.566778  0.302325 -0.0164632 0.521441  0.2701 -0.0122217 0.478515  0.236733 -0.00870329 0.437043  0.202606 -0.00595015 0.39639  0.167963 -0.00389931 0.356136  0.132955 -0.00244811 0.316004  0.0976782 -0.00148267 0.275819  0.0621843 -0.00089547 0.235483  0.0265103 -0.000584871 0.194958  -0.00932917 -0.000463724 0.154252  -0.0453263 -0.000455499 0.113403  -0.0814765 -0.000493407 0.0724741  -0.117783 -0.000515997 0.0315386  -0.154249 -0.000463188 -0.0093317  -0.190883 -0.000275224 -0.0500782  -0.2277 0.000114411 -0.0906667  -0.264715 0.000773311 -0.1311  -0.301955 0.00178161 -0.171432  -0.339457 0.00322452 -0.21178  -0.377269 0.00519761 -0.252348  -0.415467 0.00780305 -0.293458  -0.454165 0.0111444 -0.335595  -0.493555 0.0152936 -0.379481  -0.533914 0.0202103 -0.426177  0.398509 -0.0207112 0.584151  0.361806 -0.0159311 0.537695  0.323778 -0.0117452 0.493892  0.284819 -0.00830799 0.45172  0.245215 -0.00561696 0.410487  0.205154 -0.00359225 0.369732  0.16475 -0.00213513 0.329149  0.124079 -0.00113994 0.288547  0.0831841 -0.000511527 0.247816  0.0420975 -0.000158638 0.20691  0.000834942 -1.96695e-06 0.165831  -0.0405926 2.90275e-05 0.124618  -0.0821799 -8.64267e-07 0.0833319  -0.123926 -3.16203e-05 0.0420453  -0.16583 -1.37091e-06 0.000831813  -0.2079 0.000154674 -0.0402468  -0.250146 0.000508487 -0.0811527  -0.292583 0.00113761 -0.121884  -0.335243 0.0021323 -0.162486  -0.378173 0.00359035 -0.203068  -0.421445 0.00561547 -0.243824  -0.465174 0.00830692 -0.285057  -0.509547 0.0117442 -0.327229  -0.554852 0.0159298 -0.371032  -0.601481 0.0207103 -0.417489  0.466075 -0.0202115 0.59284  0.423102 -0.0152949 0.546144  0.37916 -0.0111452 0.502258  0.334526 -0.00780421 0.460122  0.289389 -0.00519991 0.419012  0.24387 -0.0032264 0.378443  0.198039 -0.00178456 0.338096  0.151947 -0.000776172 0.297765  0.105629 -0.000117779 0.257331  0.0591131 0.000270605 0.216742  0.0124148 0.00045985 0.175996  -0.0344505 0.000512958 0.135125  -0.0814767 0.000491798 0.09419  -0.128658 0.000453174 0.0532615  -0.175994 0.000460684 0.0124127  -0.223487 0.000581443 -0.0282945  -0.271145 0.000892699 -0.0688193  -0.318984 0.00148088 -0.109155  -0.367038 0.00244552 -0.14934  -0.415364 0.00389731 -0.189473  -0.464055 0.00594932 -0.229727  -0.51326 0.00870204 -0.27038  -0.563227 0.0122207 -0.311853  -0.614334 0.0164621 -0.354779  -0.667112 0.0211809 -0.400115  0.534396 -0.0195644 0.592628  0.485149 -0.014497 0.546585  0.435298 -0.0104109 0.503428  0.385019 -0.00720209 0.462072  0.334392 -0.00471741 0.421793  0.283464 -0.00282252 0.382103  0.232263 -0.00141788 0.342677  0.180815 -0.000413954 0.303303  0.129143 0.000262201 0.263859  0.077271 0.000677645 0.224285  0.0252174 0.000894427 0.184572  -0.0270029 0.000967503 0.144747  -0.0793783 0.000954688 0.104867  -0.131902 0.000909805 0.0649996  -0.18457 0.000895083 0.0252149  -0.237382 0.000979066 -0.0144254  -0.290345 0.0012427 -0.0538799  -0.343476 0.00177962 -0.0931387  -0.39681 0.00269794 -0.132232  -0.45041 0.00412101 -0.171245  -0.504387 0.00617361 -0.210328  -0.558919 0.00896674 -0.249723  -0.614294 0.012565 -0.289794  -0.670974 0.0169109 -0.331088  -0.729646 0.0216917 -0.374453  0.602278 -0.0186161 0.58347  0.546861 -0.0134619 0.538982  0.49123 -0.00952178 0.497355  0.435444 -0.00650638 0.457514  0.379467 -0.00418293 0.418764  0.323276 -0.00239784 0.380632  0.266851 -0.00105417 0.342802  0.210198 -7.33733e-05 0.305062  0.153329 0.000605345 0.267285  0.0962646 0.0010373 0.229406  0.0390235 0.001275 0.19141  -0.0183762 0.00136471 0.153319  -0.0759203 0.00135958 0.115182  -0.133601 0.00131017 0.07706  -0.191411 0.00127542 0.0390205  -0.249349 0.00132287 0.00112224  -0.307422 0.0015353 -0.0365944  -0.365645 0.00201088 -0.0741162  -0.424057 0.00286555 -0.111467  -0.482724 0.0042339 -0.148717  -0.541769 0.00625664 -0.185992  -0.601385 0.00906372 -0.223491  -0.66189 0.0127386 -0.26151  -0.723803 0.0172455 -0.300482  -0.787958 0.0222462 -0.341088  0.668491 -0.0172047 0.565509  0.607135 -0.0121256 0.523467  0.545985 -0.00846505 0.484139  0.484941 -0.005723 0.446515  0.423858 -0.00360858 0.409961  0.362637 -0.00196666 0.374043  0.301222 -0.000709355 0.338459  0.239599 0.000227213 0.303004  0.177776 0.000891209 0.267548  0.115771 0.00132662 0.232019  0.0536007 0.00157648 0.196399  -0.00871447 0.00167888 0.1607  -0.07116 0.00168049 0.124962  -0.133725 0.00162834 0.0892423  -0.1964 0.0015769 0.0535987  -0.259185 0.00158972 0.0180857  -0.322085 0.00174904 -0.0172575  -0.385118 0.00215399 -0.0524167  -0.44832 0.00292563 -0.0874098  -0.511765 0.00420904 -0.122291  -0.575575 0.00616109 -0.157163  -0.639951 0.00894117 -0.192179  -0.705224 0.0126721 -0.227561  -0.771929 0.0173771 -0.263616  -0.841007 0.0227654 -0.300793  0.731767 -0.0151967 0.539087  0.664864 -0.0104623 0.500341  0.598591 -0.00724941 0.464016  0.532658 -0.00486451 0.429255  0.466804 -0.00300729 0.395524  0.400873 -0.00154096 0.362437  0.334787 -0.000396371 0.329715  0.268518 0.000472963 0.297159  0.20207 0.00110275 0.264638  0.135456 0.00152594 0.232079  0.0686987 0.00177699 0.199451  0.00181472 0.00188661 0.166761  -0.0651778 0.00189435 0.134041  -0.132269 0.0018416 0.101335  -0.199451 0.00177741 0.0686972  -0.266721 0.00175965 0.0361727  -0.334086 0.00186598 0.00379735  -0.401562 0.0021925 -0.0284156  -0.469189 0.00286114 -0.0604781  -0.537039 0.0040229 -0.092433  -0.605235 0.00585139 -0.124358  -0.673975 0.00853878 -0.156365  -0.74358 0.0122687 -0.188603  -0.814567 0.0171618 -0.221252  -0.887889 0.0230749 -0.254501  0.790813 -0.0125471 0.504773  0.718958 -0.00851387 0.470061  0.648107 -0.00591391 0.437343  0.577757 -0.00395453 0.406021  0.507558 -0.00239271 0.375686  0.437323 -0.0011304 0.346003  0.366965 -0.000125051 0.316712  0.296452 0.000653028 0.287623  0.225785 0.00122643 0.258605  0.15498 0.00162005 0.22958  0.0840558 0.00185955 0.200512  0.013032 0.00197005 0.171397  -0.0580776 0.00198287 0.142258  -0.12926 0.00193185 0.11313  -0.20051 0.00186038 0.0840551  -0.271826 0.001818 0.0550718  -0.343215 0.00187373 0.0262078  -0.414694 0.0021171 -0.00252414  -0.486304 0.00266361 -0.0311337  -0.558115 0.00366372 -0.0596543  -0.630245 0.00530177 -0.088144  -0.702886 0.00780165 -0.11668  -0.776334 0.0114206 -0.145348  -0.851053 0.016413 -0.174218  -0.9279 0.0229008 -0.203234  0.844378 -0.00936878 0.463347  0.768379 -0.00640714 0.433195  0.693624 -0.00452864 0.404557  0.619422 -0.00302702 0.377181  0.545387 -0.00177985 0.350765  0.471331 -0.000743449 0.325013  0.397177 9.79304e-05 0.299674  0.322899 0.000759423 0.274565  0.2485 0.0012545 0.249558  0.173995 0.00159979 0.22457  0.0994023 0.00181508 0.199563  0.0247385 0.00191826 0.174525  -0.0499818 0.00193441 0.149468  -0.12475 0.00188851 0.124417  -0.19956 0.00181597 0.0994013  -0.274413 0.00175673 0.0744505  -0.349316 0.00176853 0.0495852  -0.424286 0.00192827 0.024812  -0.499366 0.00233859 0.00012365  -0.574624 0.00313878 -0.0245079  -0.650174 0.00451189 -0.0491273  -0.726195 0.00670159 -0.0737875  -0.802956 0.0100381 -0.0985297  -0.880851 0.0149345 -0.123351  -0.960551 0.0218919 -0.148013  0.891393 -0.0059796 0.41569  0.812209 -0.00434583 0.390339  0.734306 -0.00318491 0.366135  0.656879 -0.00212145 0.343168  0.579578 -0.00118703 0.321166  0.502257 -0.000390887 0.299825  0.42486 0.000265837 0.278902  0.347373 0.000788033 0.258222  0.269801 0.00118399 0.23766  0.19216 0.00146407 0.217141  0.114464 0.00164253 0.196624  0.0367284 0.00173098 0.176091  -0.0410354 0.00174731 0.155542  -0.11882 0.00170994 0.134994  -0.196622 0.00164336 0.114464  -0.274442 0.00157684 0.0939701  -0.352287 0.00155568 0.0735236  -0.430178 0.00163829 0.0531268  -0.508154 0.00190818 0.0327692  -0.586283 0.00248212 0.0124278  -0.664674 0.0035224 -0.00793657  -0.7435 0.00526774 -0.0283637  -0.823009 0.00809371 -0.0488794  -0.903537 0.0125729 -0.0694543  -0.98554 0.0196781 -0.0897565  0.931099 -0.00289053 0.362543  0.849692 -0.0025683 0.341967  0.769382 -0.00197333 0.322527  0.689372 -0.00128019 0.304471  0.609431 -0.000641584 0.287372  0.52947 -9.08971e-05 0.270886  0.449462 0.000367582 0.254778  0.369399 0.000735462 0.238897  0.289288 0.00101727 0.223138  0.209142 0.00121975 0.207437  0.128972 0.00135088 0.191753  0.0487905 0.00141829 0.176066  -0.0313949 0.00143218 0.160371  -0.111576 0.00140584 0.144671  -0.191752 0.00135136 0.128973  -0.271922 0.00128937 0.113283  -0.352094 0.00125003 0.0976057  -0.432287 0.00127167 0.0819349  -0.512538 0.00141257 0.0662591  -0.592912 0.00175685 0.0505572  -0.673515 0.00242811 0.0347982  -0.754509 0.00361973 0.0189305  -0.836155 0.00568759 0.00293159  -0.91877 0.00930476 -0.0132261  -1.00265 0.0159727 -0.0291924  0.96299 -0.000704944 0.30416  0.880164 -0.00127351 0.288275  0.798098 -0.000963032 0.274208  0.716179 -0.00056237 0.2617  0.634291 -0.000196576 0.249977  0.552399 0.00011915 0.238712  0.470484 0.000382781 0.227739  0.388548 0.000595272 0.216948  0.306594 0.000760555 0.206265  0.224631 0.00088042 0.195643  0.142668 0.00096035 0.185047  0.060712 0.00100213 0.17446  -0.0212285 0.00101233 0.163869  -0.103149 0.000996768 0.153274  -0.185046 0.000960231 0.142669  -0.26692 0.000914454 0.132051  -0.348777 0.000874043 0.121415  -0.430632 0.000859857 0.110753  -0.512516 0.000902891 0.100051  -0.594485 0.00104994 0.089293  -0.676632 0.00137216 0.0784506  -0.759114 0.00199097 0.0674983  -0.842166 0.00313401 0.0563192  -0.926259 0.00538397 0.0448864  -1.01158 0.0107469 0.0332366  0.986426 7.7188e-05 0.239764  0.9028 -0.000475943 0.229269  0.819697 -0.000228882 0.221957  0.736625 -8.86917e-05 0.215591  0.653577 5.61476e-05 0.209586  0.570529 0.000174642 0.203832  0.48748 0.00027442 0.198237  0.40443 0.000354946 0.192753  0.321382 0.000418901 0.187343  0.238341 0.000465631 0.181976  0.155309 0.000497878 0.176637  0.0722913 0.000515044 0.171308  -0.0107075 0.000520051 0.165984  -0.0936839 0.000513732 0.160652  -0.176635 0.000497758 0.15531  -0.25956 0.000475228 0.149948  -0.342462 0.000451028 0.144557  -0.425352 0.000430882 0.13913  -0.508247 0.000424385 0.133652  -0.591186 0.000445306 0.128112  -0.67423 0.000517905 0.122501  -0.757487 0.000675321 0.116789  -0.841153 0.00103098 0.110986  -0.925621 0.00164104 0.104701  -1.01172 0.00454426 0.0979667  1 0 0.166667  0.916667 0 0.166667  0.833333 0 0.166667  0.75 0 0.166667  0.666667 0 0.166667  0.583333 0 0.166667  0.5 0 0.166667  0.416667 0 0.166667  0.333333 0 0.166667  0.25 0 0.166667  0.166667 0 0.166667  0.0833333 0 0.166667  0 0 0.166667  -0.0833334 0 0.166667  -0.166667 0 0.166667  -0.25 0 0.166667  -0.333333 0 0.166667  -0.416667 0 0.166667  -0.5 0 0.166667  -0.583333 0 0.166667  -0.666667 0 0.166667  -0.75 0 0.166667  -0.833333 0 0.166667  -0.916667 0 0.166667  -1 0 0.166667  0 0 0  -1.11759e-08 0 0  7.45058e-09 0 0  0 0 0  1.49012e-08 0 0  0 0 0  0 0 0  0 0 0  0 0 0  0 0 0  0 0 0  0 0 0  0 0 0  0 0 0  0 0 0  0 0 0  0 0 0  0 0 0  0 0 0  0 0 0  0 0 0  0 0 0  0 0 0  0 0 0  0 0 0  -0.00618853 -0.0036282 0.0706947  -0.00369349 -0.00122487 0.0626817  -0.00274713 -0.000806492 0.0559714  -0.00246994 -0.000556901 0.0499317  -0.00253728 -0.000460889 0.0440756  -0.00278252 -0.000424992 0.0383755  -0.00311825 -0.000425067 0.0327823  -0.00349459 -0.000442915 0.0272711  -0.00388291 -0.00046844 0.0218211  -0.00426757 -0.000493973 0.0164164  -0.00464138 -0.000515562 0.0110427  -0.0050022 -0.000529673 0.00568613  -0.00534996 -0.000534911 0.000341535  -0.005687 -0.00052968 -0.00500134  -0.0060153 -0.000513718 -0.0103506  -0.00633687 -0.00048675 -0.0157165  -0.00665337 -0.000448808 -0.0211133  -0.00696427 -0.000400815 -0.0265592  -0.00726569 -0.000344507 -0.0320803  -0.00754833 -0.000282742 -0.0377102  -0.00779283 -0.000221521 -0.0434913  -0.007967 -0.00016332 -0.0495035  -0.00799108 -0.000160109 -0.0558384  -0.00774091 -0.000136212 -0.0630805  -0.00650388 -0.00134392 -0.0730141  -0.000675558 -0.00842769 0.135786  0.00116015 -0.00406157 0.122588  0.00168227 -0.0023694 0.110221  0.00128135 -0.00155643 0.0985381  0.000389636 -0.00114238 0.0872772  -0.000785306 -0.00094714 0.0762468  -0.00210972 -0.000876628 0.0653748  -0.00350794 -0.00087627 0.0546052  -0.00493494 -0.000911713 0.0439057  -0.00636691 -0.000958823 0.0332506  -0.0077925 -0.00100323 0.0226204  -0.00920716 -0.0010342 0.0120046  -0.0106102 -0.00104608 0.00139791  -0.0120044 -0.00103422 -0.00920698  -0.0133916 -0.000996761 -0.0198145  -0.0147759 -0.000932753 -0.0304373  -0.0161597 -0.000842445 -0.0410929  -0.0175428 -0.000728592 -0.051811  -0.018921 -0.000596821 -0.0626351  -0.0202798 -0.000458144 -0.0736281  -0.0215886 -0.000329286 -0.0848849  -0.0227856 -0.000243329 -0.0965494  -0.0237659 -0.00027176 -0.108925  -0.0242803 -0.000658259 -0.122648  -0.0237173 -0.00259549 -0.13803  0.0136747 -0.0120961 0.197427  0.0141551 -0.00688727 0.179763  0.0131998 -0.0041924 0.162428  0.011326 -0.00272281 0.145685  0.00887311 -0.00192247 0.129355  0.00608514 -0.00150469 0.113309  0.00310659 -0.00131977 0.0974347  2.70605e-05 -0.00127164 0.0816606  -0.00310117 -0.00129862 0.065937  -0.00624779 -0.00135747 0.0502366  -0.00939879 -0.00141962 0.0345417  -0.0125488 -0.00146599 0.0188454  -0.0156968 -0.00148429 0.0031471  -0.0188437 -0.00146603 -0.012549  -0.0219936 -0.00140632 -0.0282432  -0.0251497 -0.00130308 -0.0439395  -0.028317 -0.00115632 -0.0596592  -0.0314957 -0.000970773 -0.075435  -0.0346812 -0.000756338 -0.0913255  -0.0378551 -0.000532441 -0.107419  -0.0409784 -0.000329159 -0.12385  -0.0439751 -0.000201218 -0.140822  -0.0466887 -0.000269711 -0.158629  -0.0488301 -0.000825956 -0.177656  -0.049607 -0.00249013 -0.197694  0.0361621 -0.0142844 0.256266  0.0347694 -0.00904377 0.234134  0.0317015 -0.00580877 0.212238  0.0276245 -0.00384004 0.190827  0.0229182 -0.00268085 0.169813  0.0178353 -0.00203441 0.149079  0.0125345 -0.00171643 0.128511  0.00711319 -0.00160104 0.108026  0.00162777 -0.00160311 0.087564  -0.00388893 -0.00166085 0.0670958  -0.00942272 -0.00173296 0.0466042  -0.0149676 -0.00179008 0.0260895  -0.020522 -0.00181381 0.00556138  -0.0260884 -0.00179029 -0.014968  -0.0316698 -0.00171159 -0.0354868  -0.037273 -0.00157334 -0.0559961  -0.042903 -0.0013748 -0.0765093  -0.0485613 -0.00112249 -0.0970626  -0.0542439 -0.00082916 -0.117725  -0.0599297 -0.000519872 -0.138602  -0.0655711 -0.000232518 -0.159849  -0.0710655 -3.26931e-05 -0.181679  -0.076216 -2.85357e-05 -0.204357  -0.0806357 -0.000403747 -0.228126  -0.0834503 -0.00120127 -0.252845  0.0664186 -0.0151562 0.311987  0.062606 -0.010381 0.285359  0.0568257 -0.00699486 0.259117  0.0499161 -0.00474112 0.233387  0.0423141 -0.00331752 0.20806  0.0343001 -0.00247541 0.183008  0.0260457 -0.00202864 0.158108  0.0176556 -0.00183803 0.133267  0.00918871 -0.00180274 0.108421  0.000679433 -0.00184813 0.0835346  -0.00785825 -0.0019208 0.0585952  -0.0164179 -0.00198315 0.0336103  -0.025001 -0.00201026 0.00859714  -0.0336085 -0.00198343 -0.0164184  -0.0422473 -0.00189105 -0.041418  -0.0509238 -0.00172624 -0.0663913  -0.0596454 -0.0014865 -0.091348  -0.0684146 -0.00117886 -0.116323  -0.0772272 -0.000816256 -0.141389  -0.0860597 -0.000424892 -0.166662  -0.0948517 -4.19617e-05 -0.192306  -0.103481 0.00027886 -0.218543  -0.111712 0.000479937 -0.245634  -0.119103 0.000530586 -0.273843  -0.124786 0.000815779 -0.303288  0.10414 -0.0150723 0.363921  0.0972224 -0.01098 0.332817  0.0881267 -0.00770333 0.302465  0.0777912 -0.00535013 0.272755  0.0667106 -0.00377078 0.243508  0.0551864 -0.00278543 0.214549  0.0434022 -0.00222905 0.185734  0.0314696 -0.00196467 0.156958  0.0194515 -0.00188495 0.128147  0.00738057 -0.00190842 0.0992655  -0.00472972 -0.00197259 0.0703025  -0.0168738 -0.00203449 0.0412724  -0.0290529 -0.00206247 0.0122021  -0.0412705 -0.00203449 -0.016874  -0.0535344 -0.00193498 -0.045927  -0.0658521 -0.00175397 -0.0749382  -0.0782318 -0.00148667 -0.10391  -0.0906785 -0.00113776 -0.132876  -0.103186 -0.000718087 -0.161908  -0.115728 -0.000249743 -0.191125  -0.128239 0.000240743 -0.220706  -0.140585 0.00072524 -0.250887  -0.15252 0.00120506 -0.281968  -0.163598 0.00178739 -0.314306  -0.17306 0.00307938 -0.348345  0.14889 -0.014425 0.411173  0.138095 -0.011017 0.375778  0.125071 -0.00798595 0.341623  0.110755 -0.00566179 0.308328  0.0956648 -0.00401953 0.275593  0.0801131 -0.0029451 0.243185  0.0642897 -0.00230494 0.210926  0.0483088 -0.00197458 0.178692  0.0322323 -0.00184754 0.146401  0.0160929 -0.00184119 0.114012  -9.57549e-05 -0.00188971 0.081519  -0.0163286 -0.00194517 0.0489401  -0.0326079 -0.00197211 0.0163097  -0.0489384 -0.00194478 -0.016329  -0.0653273 -0.00184494 -0.0489362  -0.0817842 -0.00165829 -0.0814855  -0.0983196 -0.00137749 -0.113974  -0.114936 -0.00100222 -0.146431  -0.13163 -0.000538319 -0.178927  -0.148374 1.2815e-06 -0.211586  -0.165104 0.000605643 -0.244599  -0.181691 0.00127512 -0.278228  -0.197904 0.00206137 -0.312831  -0.21335 0.00316045 -0.348887  -0.22745 0.00521332 -0.387126  0.200014 -0.0135454 0.452757  0.184577 -0.0106865 0.413467  0.167041 -0.00793651 0.375934  0.148238 -0.00571239 0.339514  0.12867 -0.0040732 0.303781  0.108642 -0.00295562 0.268434  0.088341 -0.00225773 0.233254  0.0678754 -0.00187138 0.198095  0.0473074 -0.00169691 0.162865  0.0266648 -0.00165597 0.127518  0.00596544 -0.00168252 0.092048  -0.0147901 -0.00172648 0.0564772  -0.0356016 -0.00175065 0.0208482  -0.0564767 -0.0017257 -0.0147908  -0.0774201 -0.00163153 -0.0503912  -0.098442 -0.00144947 -0.0859191  -0.119552 -0.00116819 -0.121366  -0.140757 -0.000780463 -0.156755  -0.16205 -0.000285 -0.192158  -0.18341 0.000318289 -0.227704  -0.204784 0.00103417 -0.263594  -0.226062 0.00188792 -0.300124  -0.247055 0.00296244 -0.337707  -0.267458 0.00448474 -0.376938  -0.2869 0.00699791 -0.418749  0.256646 -0.0126591 0.487715  0.235902 -0.0101551 0.445133  0.21333 -0.00765345 0.404764  0.189598 -0.00555536 0.365765  0.165155 -0.00395891 0.32759  0.14028 -0.00283274 0.289868  0.115137 -0.00209907 0.252341  0.0898291 -0.00166711 0.214839  0.0644119 -0.0014475 0.17726  0.0389126 -0.00136927 0.139552  0.0133464 -0.00136876 0.101709  -0.0122865 -0.00139716 0.063756  -0.0379849 -0.00141683 0.0257388  -0.0637545 -0.00139654 -0.0122875  -0.0896015 -0.00131288 -0.0502687  -0.115534 -0.0011442 -0.0881639  -0.14156 -0.000873595 -0.125958  -0.167688 -0.000486076 -0.163673  -0.193914 2.95937e-05 -0.201379  -0.220228 0.000686437 -0.239208  -0.246589 0.00150421 -0.277376  -0.272923 0.00252476 -0.3162  -0.2991 0.00384161 -0.356147  -0.324928 0.00566119 -0.397896  -0.350224 0.00836527 -0.442492  0.31775 -0.0118816 0.515236  0.291188 -0.00953808 0.470115  0.263153 -0.00721806 0.427562  0.234138 -0.00524366 0.386602  0.204505 -0.00371084 0.346596  0.174486 -0.00259954 0.307111  0.144221 -0.00184816 0.267855  0.113795 -0.00138018 0.228636  0.0832561 -0.00111881 0.189339  0.0526265 -0.00100201 0.149908  0.0219195 -0.000971109 0.110337  -0.0088613 -0.000981182 0.0706504  -0.0397168 -0.000995129 0.0308971  -0.0706482 -0.000981152 -0.00886253  -0.101663 -0.000911832 -0.0485705  -0.132767 -0.000763804 -0.0881816  -0.163967 -0.000513166 -0.127676  -0.19527 -0.000136286 -0.167072  -0.226682 0.000388831 -0.206438  -0.2582 0.00108793 -0.24591  -0.289806 0.00199306 -0.285709  -0.321468 0.00315577 -0.326174  -0.353129 0.00466034 -0.367803  -0.384715 0.00665835 -0.411328  -0.416191 0.0093582 -0.457836  0.382197 -0.011234 0.534683  0.349474 -0.00889248 0.487869  0.315664 -0.00668418 0.443865  0.281104 -0.00482145 0.401629  0.246055 -0.00336283 0.360453  0.210689 -0.00228304 0.31986  0.175105 -0.0015277 0.279527  0.139371 -0.00103259 0.239247  0.10352 -0.000733912 0.198895  0.0675738 -0.000579 0.158411  0.0315414 -0.000516295 0.117785  -0.00457302 -0.000506312 0.0770431  -0.0407663 -0.000513494 0.036236  -0.0770416 -0.000506341 -0.00457516  -0.1134 -0.000454903 -0.0453283  -0.149848 -0.000332564 -0.0859752  -0.186392 -0.000109136 -0.126493  -0.223041 0.000248492 -0.166897  -0.259801 0.000772566 -0.207253  -0.296685 0.00150198 -0.247698  -0.333704 0.00247955 -0.288455  -0.370869 0.00375894 -0.329869  -0.4082 0.00540486 -0.372452  -0.44574 0.00749588 -0.416956  -0.483579 0.0100825 -0.464475  0.448812 -0.0106669 0.545622  0.409736 -0.00822338 0.498003  0.369965 -0.00607833 0.45334  0.329706 -0.00431997 0.410555  0.289112 -0.00294462 0.368904  0.248282 -0.00190961 0.327882  0.207275 -0.00116205 0.28715  0.166128 -0.000648171 0.246487  0.124867 -0.000317484 0.205763  0.0835037 -0.000126362 0.164914  0.0420486 -3.23653e-05 0.123927  0.000507265 -1.69873e-06 0.0828278  -0.0411183 -1.46031e-06 0.0416658  -0.0828261 -1.37091e-06 0.000503898  -0.124617 2.99215e-05 -0.0405954  -0.166494 0.000123262 -0.0815823  -0.208463 0.000314057 -0.122432  -0.250534 0.00064528 -0.163156  -0.292718 0.00115901 -0.203818  -0.335045 0.00190741 -0.244551  -0.377548 0.00294304 -0.285573  -0.420287 0.00431877 -0.327224  -0.463361 0.00607765 -0.370009  -0.506923 0.00822264 -0.414672  -0.551179 0.0106667 -0.462291  0.516412 -0.0100825 0.547805  0.470918 -0.00749689 0.500287  0.425126 -0.00540555 0.455783  0.379124 -0.0037601 0.413201  0.332956 -0.00248128 0.371787  0.286641 -0.00150436 0.33103  0.240194 -0.000775695 0.290586  0.193622 -0.00025177 0.250229  0.146937 0.000105321 0.209826  0.100149 0.000329018 0.169308  0.0532638 0.00045234 0.128661  0.00629121 0.000502825 0.0879067  -0.0407662 0.000510633 0.0470954  -0.0879044 0.00050348 0.00628817  -0.135124 0.00051415 -0.0344532  -0.182424 0.000576437 -0.0750792  -0.229809 0.000730932 -0.115563  -0.27729 0.00102955 -0.155916  -0.324888 0.00152469 -0.196197  -0.372639 0.00228125 -0.236529  -0.420604 0.00336128 -0.277123  -0.468889 0.00482041 -0.318299  -0.517663 0.00668347 -0.360535  -0.567186 0.008892 -0.404539  -0.617795 0.0112342 -0.451353  0.583798 -0.00935894 0.541169  0.531943 -0.00665951 0.49466  0.480196 -0.00466096 0.451135  0.428524 -0.00315708 0.409507  0.376855 -0.00199449 0.369042  0.325127 -0.00109029 0.329243  0.273312 -0.000392079 0.289771  0.221392 0.000132442 0.250404  0.169364 0.000508845 0.211008  0.117231 0.000760019 0.171513  0.0650017 0.00090903 0.131902  0.0126838 0.000977814 0.0921941  -0.0397159 0.00099206 0.0524341  -0.0921937 0.000978172 0.0126806  -0.144746 0.000968993 -0.0270061  -0.197372 0.00100023 -0.0665777  -0.250075 0.0011161 -0.106008  -0.302867 0.00137699 -0.145306  -0.355773 0.00184524 -0.184526  -0.408842 0.00259817 -0.223781  -0.462156 0.00370944 -0.263266  -0.515856 0.00524253 -0.303272  -0.570174 0.00721759 -0.344231  -0.625471 0.00953752 -0.386785  -0.682242 0.0118815 -0.431906  0.649767 -0.00836599 0.525825  0.591729 -0.00566232 0.481229  0.534224 -0.00384235 0.43948  0.477069 -0.00252581 0.399533  0.420069 -0.00150573 0.360709  0.363098 -0.00068891 0.322541  0.30608 -3.30806e-05 0.284712  0.248974 0.000482082 0.247006  0.191769 0.000868917 0.209291  0.134464 0.00114059 0.171496  0.0770632 0.00131011 0.133601  0.0195778 0.00139374 0.0956201  -0.0379844 0.00141346 0.0575936  -0.0956185 0.00139409 0.0195761  -0.153319 0.00136632 -0.0183772  -0.211085 0.00136763 -0.0562205  -0.268919 0.00144506 -0.0939294  -0.326833 0.00166392 -0.13151  -0.384858 0.00209624 -0.169012  -0.443049 0.0028314 -0.206538  -0.501505 0.00395721 -0.244261  -0.560396 0.00555414 -0.282436  -0.619998 0.00765312 -0.321436  -0.680757 0.0101544 -0.361805  -0.743346 0.0126585 -0.404388  0.713091 -0.00699896 0.502084  0.649201 -0.00448585 0.460272  0.586272 -0.00296324 0.421041  0.523931 -0.00188863 0.383457  0.461876 -0.00103557 0.346927  0.399917 -0.000320375 0.311036  0.337945 0.00028193 0.27549  0.275905 0.000777066 0.240088  0.213776 0.00116324 0.204699  0.151555 0.00144607 0.169252  0.0892445 0.00162894 0.133723  0.0268564 0.00172335 0.0981221  -0.0356019 0.00174779 0.0624835  -0.098123 0.00172377 0.0268545  -0.160701 0.0016802 -0.00871593  -0.223333 0.00165427 -0.0441863  -0.286024 0.00169486 -0.0795345  -0.348787 0.00186837 -0.114766  -0.411654 0.00225502 -0.149926  -0.474686 0.0029543 -0.185105  -0.537992 0.00407135 -0.220452  -0.601757 0.00571126 -0.256185  -0.666287 0.00793594 -0.292605  -0.732082 0.0106859 -0.330139  -0.799979 0.0135447 -0.369429  0.772541 -0.00521481 0.470462  0.703308 -0.00316185 0.432222  0.635422 -0.00206274 0.396166  0.568304 -0.00127584 0.361563  0.501557 -0.000606835 0.327933  0.434954 -2.98023e-06 0.29492  0.368366 0.000536025 0.262261  0.301726 0.000999391 0.229766  0.23501 0.00137293 0.197309  0.168212 0.00165504 0.16482  0.101338 0.0018425 0.13227  0.0343941 0.00194228 0.0996617  -0.0326075 0.00196987 0.0670224  -0.0996614 0.00194317 0.0343928  -0.166761 0.00188768 0.00181392  -0.233906 0.0018397 -0.0306792  -0.301098 0.0018456 -0.0630685  -0.368354 0.0019722 -0.0953606  -0.435705 0.00230247 -0.127596  -0.503215 0.00294363 -0.159854  -0.570997 0.00401747 -0.192263  -0.63924 0.00566077 -0.224999  -0.708257 0.00798512 -0.258296  -0.778567 0.0110165 -0.292451  -0.851105 0.0144243 -0.327847  0.826932 -0.00308037 0.431681  0.75306 -0.00178856 0.397643  0.680807 -0.00120646 0.365304  0.609409 -0.000726163 0.334222  0.538423 -0.000241816 0.30404  0.4676 0.000248373 0.27446  0.39681 0.000716627 0.245241  0.325986 0.00113541 0.21621  0.255099 0.00148314 0.187244  0.184147 0.00175101 0.158273  0.113131 0.00193274 0.129261  0.0420625 0.00203156 0.100208  -0.0290533 0.00206023 0.0711316  -0.100207 0.00203311 0.0420606  -0.171396 0.00197113 0.0130304  -0.242619 0.00190693 -0.0159324  -0.31388 0.00188351 -0.0448156  -0.385194 0.00196302 -0.073627  -0.456594 0.00222677 -0.102404  -0.528144 0.0027836 -0.131219  -0.599952 0.00376898 -0.160179  -0.672205 0.00534922 -0.189426  -0.745202 0.00770253 -0.219136  -0.81944 0.0109798 -0.249489  -0.895856 0.0150717 -0.280594  0.875205 -0.000816584 0.386624  0.797555 -0.000531316 0.357178  0.721614 -0.000481129 0.328969  0.646511 -0.000279963 0.301877  0.571809 4.11868e-05 0.275639  0.497268 0.000423968 0.249995  0.422768 0.000815392 0.224723  0.348248 0.00117731 0.199657  0.273684 0.00148404 0.174683  0.199074 0.00172353 0.149726  0.124417 0.00188893 0.124752  0.0497237 0.00198066 0.0997523  -0.0250005 0.00200808 0.0747357  -0.0997509 0.00198221 0.0497232  -0.174524 0.00191963 0.0247374  -0.249319 0.00184703 -0.000202358  -0.324142 0.00180161 -0.0250897  -0.399008 0.0018369 -0.0499369  -0.473951 0.00202668 -0.0747779  -0.549029 0.00247389 -0.0996775  -0.624349 0.00331658 -0.12473  -0.700081 0.00474042 -0.150055  -0.776504 0.00699431 -0.175786  -0.854057 0.010381 -0.202028  -0.933577 0.0151561 -0.228657  0.916544 0.0012008 0.336181  0.836025 0.000403583 0.311461  0.757112 2.74777e-05 0.287692  0.67893 3.22461e-05 0.265013  0.601092 0.000232339 0.243183  0.523401 0.000519216 0.221935  0.445754 0.000829101 0.201058  0.368102 0.00112182 0.180397  0.290427 0.00137323 0.159844  0.212724 0.00157112 0.139331  0.134994 0.00170988 0.118822  0.0572429 0.00178826 0.0983032  -0.0205221 0.00181216 0.0777722  -0.0983002 0.00178939 0.0572438  -0.176088 0.00173205 0.0367281  -0.253887 0.00166053 0.0162368  -0.331703 0.00160211 -0.00423262  -0.409551 0.00160038 -0.024694  -0.487462 0.00171506 -0.0451804  -0.565495 0.00203359 -0.0657485  -0.643745 0.00268054 -0.0864833  -0.722372 0.00383979 -0.107495  -0.801629 0.00580835 -0.128906  -0.881894 0.00904399 -0.150804  -0.963835 0.0142846 -0.172936  0.950387 0.00248951 0.281029  0.867831 0.000825822 0.260991  0.78664 0.000268936 0.241963  0.706021 0.000200927 0.224155  0.625685 0.000329256 0.207183  0.545475 0.000532269 0.190753  0.465317 0.000756741 0.174658  0.385168 0.000970364 0.158769  0.305013 0.00115526 0.142994  0.224847 0.00130177 0.127276  0.144671 0.00140506 0.111577  0.064488 0.00146472 0.0958829  -0.0156974 0.00148344 0.0801865  -0.0958821 0.00146538 0.0644875  -0.176065 0.00141913 0.0487902  -0.256247 0.0013575 0.0330951  -0.336433 0.00129813 0.0173942  -0.416639 0.00127131 0.00167158  -0.496892 0.00131893 -0.0141037  -0.577246 0.0015046 -0.0299786  -0.657791 0.00192231 -0.0460249  -0.738672 0.00272292 -0.0623532  -0.820132 0.00419217 -0.0790958  -0.902511 0.00688791 -0.0964302  -0.986324 0.0120965 -0.114097  0.97628 0.00259537 0.221366  0.892383 0.000658154 0.205985  0.809565 0.000271559 0.192261  0.727212 0.000242949 0.179885  0.645076 0.000329256 0.168219  0.563052 0.00045836 0.156961  0.481077 0.000597239 0.145968  0.399121 0.000728071 0.135145  0.317171 0.000841796 0.124428  0.235222 0.000932157 0.113773  0.153274 0.000996053 0.10315  0.0713287 0.00103343 0.0925418  -0.0106103 0.0010457 0.081936  -0.0925403 0.0010336 0.0713281  -0.174459 0.00100321 0.060713  -0.256367 0.000959039 0.0500829  -0.338268 0.000911415 0.0394258  -0.420174 0.000876307 0.0287254  -0.502109 0.000876129 0.0179563  -0.584117 0.000947356 0.00708395  -0.666276 0.00114208 -0.00394732  -0.748718 0.00155658 -0.0152056  -0.83165 0.00236923 -0.0268884  -0.915506 0.00406224 -0.039255  -1.00068 0.00842816 -0.0524529  0.993495 0.00134385 0.156349  0.908924 0.000136256 0.146417  0.825341 0.000160158 0.139174  0.742032 0.000163078 0.132839  0.658873 0.00022155 0.126826  0.575784 0.000282884 0.121045  0.492733 0.000344694 0.115414  0.409701 0.000400603 0.109894  0.326679 0.000448763 0.104448  0.243662 0.000486553 0.0990513  0.160651 0.000513613 0.0936857  0.0776466 0.000529468 0.0883356  -0.00534934 0.000534773 0.0829931  -0.0883344 0.000529468 0.0776468  -0.171307 0.00051564 0.0722928  -0.254267 0.000494123 0.0669171  -0.337216 0.000468314 0.0615112  -0.420161 0.000443041 0.0560617  -0.503118 0.000424802 0.0505497  -0.586115 0.000425279 0.0449555  -0.669203 0.000460684 0.0392559  -0.75247 0.000556886 0.033401  -0.83608 0.000806391 0.0273612  -0.92036 0.00122523 0.0206526  -1.00619 0.00362849 0.0126394  1 0 0.0833341  0.916667 0 0.0833341  0.833333 0 0.0833341  0.75 0 0.0833341  0.666667 0 0.0833341  0.583333 0 0.0833341  0.5 0 0.0833341  0.416667 0 0.0833341  0.333333 0 0.0833341  0.25 0 0.0833341  0.166667 0 0.0833341  0.0833333 0 0.0833341  0 0 0.0833341  -0.0833334 0 0.0833341  -0.166667 0 0.0833341  -0.25 0 0.0833341  -0.333333 0 0.0833341  -0.416667 0 0.0833341  -0.5 0 0.0833341  -0.583333 0 0.0833341  -0.666667 0 0.0833341  -0.75 0 0.0833341  -0.833333 0 0.0833341  -0.916667 0 0.0833341  -1 0 0.0833341  0 0 0  -1.11759e-08 0 0  7.45058e-09 0 0  0 0 0  1.49012e-08 0 0  0 0 0  0 0 0  0 0 0  0 0 0  0 0 0  0 0 0  0 0 0  0 0 0  0 0 0  0 0 0  0 0 0  0 0 0  0 0 0  0 0 0  0 0 0  0 0 0  0 0 0  0 0 0  0 0 0  0 0 0  -0.00010285 -0.00254463 0.0721795  0.00187807 -0.000714075 0.0630839  0.00252653 -0.000511199 0.0560478  0.00268382 -0.000382651 0.049826  0.00258313 -0.000359785 0.0438655  0.00235224 -0.00036893 0.0381048  0.00205323 -0.000396851 0.0324788  0.0017215 -0.000431664 0.0269505  0.00137687 -0.000466384 0.021493  0.00102946 -0.000497028 0.0160846  0.000683963 -0.000520308 0.0107089  0.00034079 -0.000534672 0.00534928  -4.76837e-07 -0.000539791 6.55651e-07  -0.000341713 -0.000534728 -0.00534925  -0.000684321 -0.000520475 -0.0107075  -0.00102967 -0.00049673 -0.0160848  -0.00137669 -0.000466734 -0.0214931  -0.00172085 -0.000431687 -0.0269508  -0.00205207 -0.000396911 -0.0324791  -0.00235057 -0.000368915 -0.0381064  -0.00258112 -0.000359543 -0.0438665  -0.00268149 -0.000382643 -0.0498261  -0.0025242 -0.00051127 -0.0560474  -0.00187588 -0.000714127 -0.0630832  0.000104666 -0.00254504 -0.0721778  0.0111192 -0.00567644 0.137401  0.0124736 -0.00246313 0.122931  0.0125656 -0.00140022 0.109787  0.0119281 -0.000962801 0.0976945  0.0109185 -0.000786334 0.0861888  0.00969994 -0.000743017 0.0750145  0.00837481 -0.00076858 0.0640596  0.00699803 -0.000827745 0.0532456  0.0056009 -0.000896975 0.0425252  0.00419843 -0.000961848 0.0318614  0.00279677 -0.00101324 0.0212281  0.00139746 -0.00104568 0.0106106  2.38419e-07 -0.00105708 5.36442e-07  -0.00139713 -0.00104582 -0.0106102  -0.00279641 -0.00101342 -0.0212269  -0.00419831 -0.000961475 -0.0318604  -0.00560105 -0.000897273 -0.0425259  -0.00699824 -0.000827797 -0.0532477  -0.00837445 -0.00076884 -0.0640605  -0.00969946 -0.00074286 -0.0750161  -0.0109175 -0.000785992 -0.0861902  -0.0119263 -0.000962839 -0.0976941  -0.012563 -0.00140058 -0.109785  -0.0124705 -0.00246371 -0.12293  -0.0111156 -0.00567743 -0.137399  0.0311416 -0.00754661 0.198138  0.0311761 -0.00402141 0.179087  0.0297372 -0.00235781 0.160777  0.0275147 -0.00156157 0.143417  0.0248368 -0.00120499 0.12671  0.021913 -0.00108211 0.110432  0.0188586 -0.00108802 0.0944221  0.0157408 -0.00116121 0.0785717  0.0125967 -0.00125895 0.0628099  0.00944579 -0.00135542 0.0470937  0.00629523 -0.00143363 0.0313943  0.00314716 -0.00148376 0.0156984  5.96046e-08 -0.00150116 3.57628e-07  -0.00314653 -0.00148392 -0.015697  -0.00629473 -0.00143369 -0.031394  -0.00944495 -0.0013552 -0.047093  -0.012596 -0.00125919 -0.0628107  -0.0157394 -0.00116137 -0.0785716  -0.0188566 -0.00108863 -0.0944227  -0.021911 -0.00108147 -0.110435  -0.0248343 -0.0012048 -0.126712  -0.0275114 -0.00156155 -0.143417  -0.0297329 -0.0023583 -0.160775  -0.0311714 -0.00402264 -0.179085  -0.0311373 -0.00754789 -0.198137  0.0592253 -0.00804511 0.255181  0.0573367 -0.00492999 0.231549  0.0537189 -0.00307623 0.208565  0.0491896 -0.00206023 0.186418  0.0441457 -0.00155509 0.164927  0.038822 -0.00135644 0.14389  0.0333548 -0.00133531 0.123138  0.0278194 -0.00141211 0.102545  0.0222576 -0.00152913 0.0820275  0.0166903 -0.00164934 0.0615339  0.0111246 -0.00174883 0.041036  0.0055615 -0.0018132 0.0205228  8.9407e-07 -0.00183555 4.76837e-07  -0.0055604 -0.00181317 -0.0205227  -0.0111229 -0.00174868 -0.0410344  -0.0166893 -0.00164913 -0.0615337  -0.022257 -0.00152935 -0.0820282  -0.0278177 -0.00141257 -0.102545  -0.0333532 -0.0013359 -0.123137  -0.0388209 -0.00135556 -0.143891  -0.0441436 -0.0015552 -0.164928  -0.0491861 -0.00206017 -0.186419  -0.0537143 -0.00307681 -0.208565  -0.0573318 -0.0049313 -0.231548  -0.0592195 -0.00804688 -0.255179  0.09495 -0.0074795 0.308305  0.0904531 -0.00515001 0.280052  0.0840098 -0.0034283 0.252658  0.076534 -0.00236535 0.226128  0.0684818 -0.0017868 0.200264  0.0601209 -0.0015365 0.174861  0.0516062 -0.00149126 0.149743  0.0430223 -0.00156406 0.124771  0.0344139 -0.00168991 0.0998517  0.0258044 -0.00182359 0.0749328  0.017198 -0.00193624 0.0499831  0.00859782 -0.0020097 0.0250023  0 -0.00203554 -2.68221e-07  -0.00859648 -0.00200969 -0.0250014  -0.0171965 -0.00193587 -0.0499831  -0.025802 -0.00182322 -0.0749323  -0.0344123 -0.00169003 -0.0998526  -0.04302 -0.00156443 -0.12477  -0.0516035 -0.00149152 -0.149742  -0.0601193 -0.00153573 -0.174862  -0.0684791 -0.00178692 -0.200264  -0.0765308 -0.0023656 -0.226127  -0.0840055 -0.00342914 -0.252657  -0.0904489 -0.00515102 -0.28005  -0.0949453 -0.00748113 -0.308303  0.137905 -0.00627771 0.356859  0.129988 -0.00481774 0.324046  0.120058 -0.00341795 0.292514  0.109023 -0.00244522 0.261983  0.0973767 -0.00187106 0.232175  0.0854034 -0.0016029 0.202844  0.073269 -0.00154252 0.173791  0.0610661 -0.00160746 0.144867  0.0488434 -0.00173199 0.115974  0.0366224 -0.00186864 0.0870537  0.0244085 -0.00198543 0.0580794  0.0122024 -0.00206216 0.0290551  3.57628e-07 -0.00208955 8.34465e-07  -0.0122006 -0.00206234 -0.0290527  -0.0244068 -0.00198485 -0.058077  -0.0366212 -0.00186813 -0.0870518  -0.0488424 -0.00173214 -0.115973  -0.0610656 -0.00160773 -0.144866  -0.0732682 -0.00154282 -0.173789  -0.0854019 -0.00160262 -0.202843  -0.0973747 -0.00187075 -0.232174  -0.10902 -0.00244594 -0.261982  -0.120054 -0.00341865 -0.292513  -0.129984 -0.00481863 -0.324045  -0.137902 -0.00627847 -0.35686  0.187485 -0.00483644 0.399953  0.175306 -0.00412786 0.362854  0.161231 -0.00311714 0.32754  0.146069 -0.0023151 0.293439  0.130296 -0.00180417 0.260151  0.114199 -0.00155017 0.227372  0.0979429 -0.00148585 0.194872  0.0816221 -0.00154072 0.162489  0.0652834 -0.00165597 0.130112  0.0489491 -0.00178525 0.0976829  0.032625 -0.00189769 0.0651795  0.0163098 -0.00197163 0.0326093  -1.49012e-07 -0.00199842 6.55651e-07  -0.0163094 -0.00197223 -0.0326079  -0.0326229 -0.00189716 -0.0651777  -0.0489457 -0.00178522 -0.0976808  -0.0652805 -0.00165629 -0.130111  -0.0816193 -0.00154117 -0.162487  -0.0979404 -0.00148636 -0.194871  -0.114197 -0.00155032 -0.227371  -0.130294 -0.00180417 -0.260151  -0.146065 -0.00231615 -0.293438  -0.161229 -0.00311756 -0.327541  -0.175303 -0.00412843 -0.362855  -0.187482 -0.00483704 -0.399954  0.242841 -0.00344509 0.436641  0.225638 -0.00326586 0.395767  0.206818 -0.00261876 0.357151  0.187015 -0.00201625 0.319979  0.166653 -0.00160226 0.283732  0.145992 -0.0013856 0.248037  0.125185 -0.00132638 0.212631  0.10432 -0.00137109 0.177332  0.0834407 -0.00147039 0.142022  0.0625654 -0.00158378 0.106638  0.0417023 -0.00168386 0.0711612  0.0208487 -0.00175011 0.0356038  1.07288e-06 -0.00177392 1.07288e-06  -0.0208474 -0.0017508 -0.0356025  -0.0417001 -0.00168353 -0.0711594  -0.0625622 -0.00158444 -0.106636  -0.0834369 -0.00147077 -0.142021  -0.104317 -0.00137165 -0.177332  -0.125183 -0.0013271 -0.212632  -0.145989 -0.00138602 -0.248038  -0.166649 -0.00160295 -0.283732  -0.187011 -0.0020172 -0.31998  -0.206816 -0.00261921 -0.357152  -0.225636 -0.00326636 -0.395769  -0.24284 -0.00344551 -0.436643  0.302937 -0.00226268 0.466069  0.280103 -0.00237063 0.422122  0.256028 -0.0020088 0.380804  0.231153 -0.00159645 0.341145  0.205816 -0.00129193 0.302519  0.180229 -0.0011254 0.264494  0.154521 -0.00107756 0.22677  0.128765 -0.00111189 0.189147  0.102997 -0.00119027 0.151501  0.0772348 -0.00128162 0.113766  0.0514835 -0.00136247 0.0759229  0.0257395 -0.00141683 0.0379875  1.13249e-06 -0.00143579 7.7486e-07  -0.0257372 -0.00141695 -0.0379854  -0.0514805 -0.00136229 -0.0759204  -0.0772316 -0.00128251 -0.113764  -0.102993 -0.00119123 -0.1515  -0.128762 -0.00111285 -0.189147  -0.154518 -0.00107849 -0.22677  -0.180226 -0.00112626 -0.264494  -0.205812 -0.00129297 -0.30252  -0.231149 -0.00159737 -0.341147  -0.256025 -0.00200891 -0.380805  -0.2801 -0.00237131 -0.422124  -0.302936 -0.0022628 -0.466072  0.366626 -0.00133061 0.487561  0.337731 -0.00152105 0.441365  0.30801 -0.00134891 0.398047  0.277729 -0.00109965 0.356554  0.247118 -0.000902772 0.316184  0.216328 -0.000791281 0.276456  0.185451 -0.000758588 0.237044  0.15454 -0.000781894 0.197732  0.123621 -0.000836074 0.158388  0.0927068 -0.000900149 0.118943  0.0617996 -0.000957102 0.0793803  0.0308987 -0.000995725 0.0397184  7.15256e-07 -0.00100863 5.36442e-07  -0.0308949 -0.000995278 -0.0397169  -0.0617958 -0.000956744 -0.0793791  -0.0927028 -0.000901133 -0.118942  -0.123618 -0.000837535 -0.158388  -0.154535 -0.000783294 -0.197733  -0.185447 -0.000759572 -0.237046  -0.216324 -0.000792921 -0.276458  -0.247114 -0.000903726 -0.316186  -0.277725 -0.00110003 -0.356555  -0.308006 -0.00134894 -0.398048  -0.337728 -0.00152153 -0.441366  -0.366624 -0.00133058 -0.487564  0.432714 -0.000607044 0.50064  0.397494 -0.000738263 0.453078  0.361866 -0.000675023 0.408532  0.32595 -0.000559539 0.365917  0.289862 -0.000463575 0.324483  0.253682 -0.000407726 0.283719  0.217454 -0.000391394 0.243281  0.181211 -0.000403404 0.202943  0.144963 -0.00043112 0.162568  0.108719 -0.000464618 0.122086  0.0724768 -0.000494003 0.0814791  0.0362379 -0.000514239 0.0407689  2.14577e-06 -0.000520557 7.15256e-07  -0.0362347 -0.000513583 -0.0407677  -0.0724716 -0.000493616 -0.0814779  -0.108713 -0.000465423 -0.122085  -0.144958 -0.00043264 -0.162567  -0.181208 -0.000405103 -0.202944  -0.217451 -0.000392526 -0.243282  -0.253677 -0.000409722 -0.28372  -0.289858 -0.000464439 -0.324485  -0.325945 -0.000559479 -0.365919  -0.361861 -0.000674933 -0.408535  -0.397491 -0.000738353 -0.453081  -0.432711 -0.000606924 -0.500643  0.499997 4.76837e-07 0.505031  0.458331 -3.8743e-07 0.457013  0.416665 -1.78814e-07 0.412054  0.374998 -6.55651e-07 0.369059  0.333332 -8.9407e-08 0.327267  0.291666 3.57628e-07 0.286155  0.250001 1.78814e-07 0.245373  0.208333 -8.9407e-08 0.20469  0.166668 -4.76837e-07 0.163969  0.125002 -1.66893e-06 0.123139  0.0833353 -1.84774e-06 0.0821826  0.0416693 -2.41399e-06 0.0411206  2.08616e-06 -1.60933e-06 -1.49012e-07  -0.0416641 -1.57952e-06 -0.0411209  -0.0833297 -1.2517e-06 -0.0821827  -0.124996 -2.02656e-06 -0.123139  -0.166663 -1.96695e-06 -0.16397  -0.208329 -2.26498e-06 -0.204691  -0.249995 -1.04308e-06 -0.245374  -0.291661 -1.72853e-06 -0.286157  -0.333328 -1.07288e-06 -0.327268  -0.374994 -4.76837e-07 -0.369061  -0.416661 -4.17233e-07 -0.412055  -0.458329 3.57628e-07 -0.457014  -0.499995 5.36442e-07 -0.505032  0.567282 0.000608027 0.500642  0.519169 0.000737786 0.45308  0.471466 0.000674784 0.408535  0.424049 0.000558615 0.36592  0.376803 0.000463188 0.324485  0.329652 0.00040853 0.283721  0.282546 0.000391483 0.243282  0.235457 0.000402868 0.202944  0.188372 0.000430107 0.162568  0.141285 0.0004614 0.122085  0.0941924 0.000490189 0.0814787  0.0470981 0.00050962 0.0407683  2.38419e-06 0.00051713 -3.57628e-07  -0.0470929 0.000510156 -0.0407691  -0.0941889 0.000491202 -0.0814795  -0.14128 0.000461519 -0.122086  -0.188367 0.000428498 -0.162569  -0.235451 0.000400662 -0.202945  -0.282541 0.00039053 -0.243283  -0.329646 0.000406027 -0.283722  -0.376799 0.000462413 -0.324486  -0.424044 0.000558555 -0.365921  -0.471462 0.000674367 -0.408536  -0.519166 0.000738323 -0.453082  -0.56728 0.000607967 -0.500643  0.633367 0.00133044 0.487564  0.57893 0.00152051 0.441366  0.525321 0.00134873 0.398047  0.472268 0.00109887 0.356556  0.419548 0.000902474 0.316186  0.367004 0.00079155 0.276458  0.314549 0.000758171 0.237046  0.262128 0.000780702 0.197733  0.209714 0.000834405 0.158388  0.157295 0.000897229 0.118943  0.104869 0.000953317 0.0793795  0.0524376 0.000991285 0.0397174  2.563e-06 0.00100517 -5.96046e-07  -0.0524333 0.000991583 -0.0397187  -0.104865 0.000954509 -0.079381  -0.157291 0.000897408 -0.118944  -0.209709 0.000833333 -0.158389  -0.262122 0.000779152 -0.197734  -0.314544 0.000757158 -0.237047  -0.366999 0.000789225 -0.276459  -0.419543 0.000901639 -0.316187  -0.472265 0.00109893 -0.356557  -0.525317 0.0013482 -0.398049  -0.578929 0.00152117 -0.441367  -0.633367 0.00133151 -0.487564  0.697054 0.0022614 0.466074  0.636558 0.00237 0.422126  0.577301 0.00200826 0.380807  0.518844 0.00159627 0.341148  0.460847 0.00129122 0.302522  0.403102 0.00112468 0.264496  0.345478 0.00107634 0.226771  0.287902 0.00111049 0.189147  0.230337 0.00118786 0.1515  0.172766 0.00127864 0.113764  0.115185 0.00135928 0.0759206  0.0575956 0.00141299 0.0379861  2.32458e-06 0.00143254 -6.25849e-07  -0.0575924 0.0014134 -0.0379872  -0.115182 0.0013603 -0.0759225  -0.172763 0.00127929 -0.113766  -0.230333 0.00118762 -0.151502  -0.287897 0.00110906 -0.18915  -0.345474 0.00107586 -0.226772  -0.403098 0.00112331 -0.264497  -0.460845 0.00129044 -0.302523  -0.518841 0.0015958 -0.341149  -0.577298 0.00200814 -0.380808  -0.636556 0.00237066 -0.422127  -0.697055 0.00226289 -0.466074  0.757151 0.00344378 0.436646  0.691023 0.0032649 0.395772  0.626512 0.00261831 0.357153  0.562982 0.00201589 0.319982  0.500011 0.0016011 0.283734  0.43734 0.00138456 0.248039  0.374814 0.00132436 0.212633  0.312346 0.00136948 0.177332  0.249893 0.00146759 0.142022  0.187435 0.00158113 0.106637  0.124965 0.00168091 0.0711604  0.0624867 0.00174713 0.0356026  1.49012e-06 0.00177091 -4.76837e-07  -0.0624835 0.00174743 -0.0356037  -0.124963 0.0016818 -0.0711612  -0.187432 0.00158197 -0.106639  -0.24989 0.00146794 -0.142023  -0.312343 0.0013687 -0.177335  -0.37481 0.00132459 -0.212634  -0.437336 0.00138378 -0.248041  -0.500007 0.00160021 -0.283736  -0.56298 0.00201559 -0.319983  -0.62651 0.00261849 -0.357154  -0.691022 0.00326568 -0.395772  -0.757152 0.00344497 -0.436646  0.812508 0.00483483 0.399959  0.741355 0.00412685 0.36286  0.672099 0.00311655 0.327543  0.603929 0.00231457 0.29344  0.536367 0.00180256 0.260152  0.469131 0.00154871 0.227372  0.402055 0.00148404 0.194872  0.335043 0.00153899 0.162488  0.268049 0.00165349 0.130111  0.201051 0.00178289 0.0976821  0.134042 0.00189519 0.065178  0.0670243 0.00196946 0.0326082  1.66893e-06 0.00199586 -2.98023e-07  -0.0670218 0.00196946 -0.0326083  -0.13404 0.00189567 -0.0651786  -0.201049 0.00178319 -0.0976829  -0.268047 0.00165397 -0.130112  -0.335041 0.00153905 -0.16249  -0.402052 0.00148439 -0.194874  -0.469129 0.00154865 -0.227374  -0.536365 0.00180185 -0.260154  -0.603927 0.00231457 -0.293441  -0.672097 0.00311667 -0.327544  -0.741356 0.00412768 -0.362859  -0.81251 0.00483584 -0.399958  0.86209 0.00627655 0.356864  0.786675 0.00481737 0.32405  0.713274 0.00341707 0.292516  0.640975 0.00244445 0.261985  0.569288 0.00186908 0.232177  0.497927 0.00160086 0.202845  0.426729 0.00154114 0.173791  0.355599 0.00160575 0.144867  0.284489 0.00172985 0.115974  0.213378 0.00186652 0.0870528  0.142259 0.0019834 0.0580783  0.0711331 0.00206041 0.0290535  1.13249e-06 0.00208771 6.55651e-07  -0.0711298 0.00206041 -0.0290535  -0.142257 0.00198346 -0.0580782  -0.213376 0.00186628 -0.0870527  -0.284487 0.00173026 -0.115975  -0.355597 0.00160635 -0.144868  -0.426727 0.00154161 -0.173791  -0.497925 0.00160158 -0.202845  -0.569285 0.00186896 -0.232177  -0.640972 0.00244451 -0.261985  -0.713271 0.00341761 -0.292517  -0.786674 0.00481761 -0.32405  -0.86209 0.00627714 -0.356864  0.905046 0.00747901 0.308309  0.826211 0.0051499 0.280054  0.749321 0.00342727 0.25266  0.673464 0.00236464 0.226129  0.598183 0.0017851 0.200265  0.52321 0.0015344 0.174864  0.448393 0.00149024 0.149744  0.373644 0.00156301 0.124772  0.298918 0.00168782 0.0998545  0.224197 0.00182205 0.0749333  0.149469 0.00193465 0.0499845  0.0747369 0.00200802 0.0250025  1.2517e-06 0.00203437 4.76837e-07  -0.0747344 0.00200891 -0.025001  -0.149467 0.00193441 -0.0499831  -0.224194 0.00182152 -0.0749327  -0.298916 0.0016883 -0.0998536  -0.373641 0.00156355 -0.124772  -0.44839 0.00149107 -0.149744  -0.523208 0.00153518 -0.174864  -0.598181 0.00178534 -0.200267  -0.673462 0.00236428 -0.22613  -0.74932 0.00342786 -0.252661  -0.82621 0.00515008 -0.280055  -0.905047 0.00747967 -0.308308  0.940774 0.00804567 0.255184  0.859328 0.0049299 0.231552  0.779614 0.00307572 0.208566  0.70081 0.00205952 0.186419  0.622519 0.00155401 0.164929  0.54451 0.00135511 0.14389  0.466644 0.00133491 0.123138  0.388846 0.00141144 0.102546  0.311073 0.00152773 0.0820307  0.233309 0.00164855 0.0615354  0.155542 0.00174779 0.0410362  0.0777718 0.00181192 0.020525  1.3113e-06 0.00183523 3.57628e-07  -0.0777705 0.00181288 -0.0205226  -0.15554 0.00174773 -0.041036  -0.233307 0.00164783 -0.0615344  -0.311073 0.00152785 -0.0820287  -0.388844 0.0014118 -0.102546  -0.466642 0.00133592 -0.123138  -0.544508 0.00135535 -0.143892  -0.622518 0.00155419 -0.16493  -0.700808 0.00205904 -0.186421  -0.779612 0.00307584 -0.208567  -0.859328 0.00493014 -0.231552  -0.940773 0.00804615 -0.255183  0.968858 0.00754708 0.19814  0.88549 0.00402153 0.179088  0.803595 0.00235766 0.160777  0.722484 0.00156105 0.143418  0.641828 0.00120443 0.126711  0.561419 0.00108135 0.110434  0.481141 0.00108784 0.0944228  0.400926 0.00116068 0.0785728  0.320736 0.00125808 0.0628128  0.240554 0.00135505 0.0470966  0.160371 0.00143307 0.0313957  0.0801864 0.00148314 0.0156982  2.98023e-07 0.0015015 2.38419e-07  -0.0801854 0.00148362 -0.0156984  -0.16037 0.00143325 -0.0313952  -0.240552 0.00135452 -0.0470951  -0.320735 0.00125808 -0.0628116  -0.400925 0.00116056 -0.0785726  -0.48114 0.00108886 -0.0944231  -0.561419 0.00108141 -0.110435  -0.641828 0.00120455 -0.126713  -0.722483 0.00156075 -0.143419  -0.803595 0.00235766 -0.160777  -0.88549 0.00402182 -0.179088  -0.968858 0.0075475 -0.19814  0.988881 0.00567645 0.137402  0.904193 0.00246322 0.122933  0.820768 0.00140011 0.109788  0.738072 0.000962794 0.0976964  0.655748 0.000785947 0.0861918  0.573633 0.000742793 0.0750161  0.491625 0.000768423 0.0640612  0.409668 0.000827432 0.0532486  0.327732 0.000896752 0.0425284  0.245802 0.000961542 0.031863  0.163871 0.00101316 0.021229  0.0819372 0.00104553 0.0106124  1.54972e-06 0.00105745 7.7486e-07  -0.0819345 0.00104558 -0.0106108  -0.163869 0.00101328 -0.0212274  -0.245801 0.000961125 -0.0318612  -0.327731 0.000896335 -0.0425265  -0.409667 0.000827193 -0.0532483  -0.491624 0.000769198 -0.064061  -0.573633 0.000742853 -0.075017  -0.655747 0.000786006 -0.0861925  -0.738071 0.000962496 -0.0976963  -0.820767 0.00140017 -0.109787  -0.904193 0.00246328 -0.122933  -0.988881 0.00567704 -0.137401  1.0001 0.0025447 0.07218  0.914789 0.000714183 0.0630861  0.830807 0.000511229 0.0560501  0.747316 0.000382721 0.0498281  0.664084 0.000359595 0.0438674  0.580981 0.000368953 0.0381072  0.497947 0.000396729 0.0324791  0.414946 0.000431538 0.0269523  0.331957 0.000466645 0.0214951  0.248971 0.000496805 0.0160861  0.165983 0.000520349 0.0107094  0.0829925 0.000534654 0.00535029  3.57628e-07 0.000540018 5.36442e-07  -0.0829918 0.000534534 -0.00534943  -0.165982 0.000520468 -0.0107069  -0.24897 0.000496566 -0.0160842  -0.331956 0.000466406 -0.0214933  -0.414945 0.000431418 -0.0269507  -0.497946 0.000397027 -0.0324797  -0.58098 0.000368953 -0.0381077  -0.664083 0.000359714 -0.0438668  -0.747316 0.000382721 -0.0498261  -0.830807 0.00051105 -0.0560484  -0.914789 0.000714183 -0.0630835  -1.0001 0.00254494 -0.0721786  1 0 7.15256e-07  0.916667 0 7.15256e-07  0.833333 0 7.15256e-07  0.75 0 7.15256e-07  0.666667 0 7.15256e-07  0.583333 0 7.15256e-07  0.5 0 7.15256e-07  0.416667 0 7.15256e-07  0.333333 0 7.15256e-07  0.25 0 7.15256e-07  0.166667 0 7.15256e-07  0.0833333 0 7.15256e-07  0 0 7.15256e-07  -0.0833334 0 7.15256e-07  -0.166667 0 7.15256e-07  -0.25 0 7.15256e-07  -0.333333 0 7.15256e-07  -0.416667 0 7.15256e-07  -0.5 0 7.15256e-07  -0.583333 0 7.15256e-07  -0.666667 0 7.15256e-07  -0.75 0 7.15256e-07  -0.833333 0 7.15256e-07  -0.916667 0 7.15256e-07  -1 0 7.15256e-07  0 0 0  -1.11759e-08 0 0  7.45058e-09 0 0  0 0 0  1.49012e-08 0 0  0 0 0  0 0 0  0 0 0  0 0 0  0 0 0  0 0 0  0 0 0  0 0 0  0 0 0  0 0 0  0 0 0  0 0 0  0 0 0  0 0 0  0 0 0  0 0 0  0 0 0  0 0 0  0 0 0  0 0 0  0.00650543 -0.00134331 0.0730154  0.00774229 -0.000135928 0.0630811  0.00799233 -0.00016015 0.0558387  0.00796799 -0.000163484 0.0495037  0.00779383 -0.000221565 0.0434911  0.00754923 -0.000282917 0.0377089  0.00726682 -0.000344884 0.0320803  0.00696522 -0.000400644 0.0265594  0.00665382 -0.000448771 0.0211129  0.00633693 -0.00048662 0.015717  0.006015 -0.00051371 0.0103521  0.00568649 -0.000529695 0.00500149  0.00534958 -0.000534721 -0.000340402  0.00500149 -0.000529565 -0.00568616  0.00464046 -0.000515334 -0.0110416  0.00426632 -0.000494096 -0.0164166  0.00388181 -0.000468295 -0.0218217  0.00349396 -0.000443075 -0.0272715  0.00311804 -0.000425011 -0.0327832  0.00278264 -0.000425134 -0.0383771  0.00253832 -0.000461206 -0.0440765  0.00247192 -0.00055714 -0.0499317  0.00274944 -0.000806667 -0.0559708  0.00369614 -0.00122534 -0.06268  0.00619185 -0.00362882 -0.0706928  0.0237215 -0.00259404 0.138032  0.0242842 -0.000657588 0.122649  0.0237697 -0.000271663 0.108926  0.0227891 -0.000243329 0.0965493  0.0215914 -0.000329643 0.0848836  0.020282 -0.000458494 0.0736265  0.0189228 -0.000597358 0.062633  0.0175444 -0.000728413 0.0518092  0.0161609 -0.000842176 0.0410924  0.0147773 -0.000932492 0.0304381  0.0133928 -0.000996575 0.0198153  0.012005 -0.00103425 0.00920731  0.010611 -0.00104561 -0.00139713  0.00920761 -0.00103406 -0.0120041  0.00779313 -0.00100283 -0.0226195  0.00636739 -0.000958763 -0.0332497  0.00493467 -0.000911295 -0.043907  0.00350726 -0.000876442 -0.0546073  0.00210941 -0.000876561 -0.0653759  0.000785232 -0.000947364 -0.0762487  -0.00038904 -0.00114288 -0.0872778  -0.00128007 -0.00155701 -0.0985367  -0.00168091 -0.00236958 -0.11022  -0.00115871 -0.00406226 -0.122586  0.000677109 -0.00842866 -0.135783  0.0496115 -0.00248881 0.197695  0.0488349 -0.000824921 0.177657  0.0466934 -0.000269249 0.15863  0.043979 -0.000200987 0.140822  0.0409809 -0.000329718 0.123848  0.0378568 -0.000532679 0.107418  0.0346825 -0.000756837 0.0913244  0.0314977 -0.000970729 0.075435  0.0283186 -0.00115614 0.0596582  0.0251519 -0.00130273 0.0439401  0.0219953 -0.00140586 0.0282433  0.0188455 -0.00146585 0.01255  0.0156981 -0.00148366 -0.00314671  0.0125501 -0.00146566 -0.0188448  0.00939965 -0.00141919 -0.0345417  0.00624853 -0.00135709 -0.0502357  0.00310063 -0.00129791 -0.0659381  -2.72989e-05 -0.00127165 -0.0816603  -0.00310719 -0.00131943 -0.0974357  -0.00608563 -0.00150497 -0.11331  -0.00887257 -0.00192305 -0.129356  -0.0113245 -0.00272363 -0.145684  -0.0131971 -0.00419272 -0.162426  -0.0141514 -0.00688836 -0.17976  -0.0136712 -0.0120974 -0.197426  0.083455 -0.00120041 0.252845  0.0806404 -0.000402808 0.228126  0.0762208 -2.78801e-05 0.204358  0.0710697 -3.24547e-05 0.181679  0.0655736 -0.00023298 0.159847  0.0599328 -0.000520021 0.138601  0.0542465 -0.000829518 0.117725  0.0485636 -0.00112256 0.0970621  0.0429049 -0.00137487 0.0765082  0.0372753 -0.00157298 0.0559963  0.0316724 -0.00171089 0.0354883  0.0260895 -0.00179003 0.0149684  0.0205233 -0.00181329 -0.00556022  0.0149684 -0.00178964 -0.0260893  0.00942415 -0.00173232 -0.0466031  0.00388974 -0.00166033 -0.0670956  -0.00162792 -0.00160201 -0.0875654  -0.00711256 -0.00160085 -0.108026  -0.0125336 -0.00171593 -0.128511  -0.0178341 -0.00203462 -0.14908  -0.0229169 -0.00268142 -0.169814  -0.0276222 -0.00384089 -0.190826  -0.0316986 -0.00580934 -0.212236  -0.0347667 -0.00904483 -0.234133  -0.036158 -0.014286 -0.256263  0.124791 0.000816777 0.303288  0.119109 0.00053142 0.273843  0.111717 0.000480846 0.245635  0.103486 0.000279263 0.218543  0.0948554 -4.2066e-05 0.192306  0.086062 -0.000424981 0.166662  0.0772296 -0.000816554 0.14139  0.0684168 -0.00117886 0.116324  0.0596465 -0.00148666 0.0913471  0.0509263 -0.00172593 0.0663926  0.0422491 -0.00189044 0.0414192  0.0336097 -0.00198308 0.0164199  0.0250005 -0.0020099 -0.00859678  0.016418 -0.00198261 -0.0336088  0.00785768 -0.00192001 -0.0585944  -0.000679374 -0.00184757 -0.0835334  -0.00918883 -0.001802 -0.108421  -0.0176544 -0.00183773 -0.133267  -0.026044 -0.00202808 -0.158108  -0.0342984 -0.00247544 -0.183007  -0.0423119 -0.00331807 -0.208059  -0.0499125 -0.00474207 -0.233385  -0.0568221 -0.00699544 -0.259116  -0.0626013 -0.0103826 -0.285357  -0.066414 -0.0151574 -0.311986  0.173064 0.00308058 0.348345  0.163602 0.0017879 0.314307  0.152524 0.00120607 0.281969  0.140589 0.000725597 0.250888  0.128242 0.000240892 0.220708  0.11573 -0.000249371 0.191127  0.103188 -0.000718161 0.161908  0.0906792 -0.00113761 0.132876  0.0782329 -0.0014867 0.103911  0.0658542 -0.00175333 0.0749399  0.0535368 -0.00193468 0.0459293  0.0412727 -0.00203411 0.0168762  0.0290543 -0.00206244 -0.012201  0.0168761 -0.00203383 -0.0412709  0.00473243 -0.00197184 -0.070301  -0.00737846 -0.00190774 -0.0992646  -0.0194494 -0.00188495 -0.128147  -0.0314679 -0.00196445 -0.156958  -0.0434001 -0.00222847 -0.185735  -0.0551835 -0.00278527 -0.214549  -0.0667074 -0.00377119 -0.243508  -0.0777879 -0.00535108 -0.272755  -0.088123 -0.00770403 -0.302464  -0.0972176 -0.0109816 -0.332816  -0.104137 -0.015073 -0.363922  0.227453 0.00521421 0.387124  0.213352 0.0031608 0.348885  0.197907 0.00206226 0.31283  0.181694 0.00127548 0.278229  0.165107 0.000605792 0.244599  0.148377 2.11596e-06 0.211586  0.131633 -0.000537813 0.178927  0.114939 -0.00100163 0.146432  0.0983221 -0.00137722 0.113976  0.0817876 -0.00165746 0.0814873  0.0653305 -0.00184485 0.0489376  0.04894 -0.00194463 0.0163292  0.0326089 -0.00197238 -0.0163096  0.0163296 -0.00194439 -0.0489395  9.73344e-05 -0.0018889 -0.0815177  -0.0160896 -0.00184074 -0.11401  -0.0322297 -0.00184795 -0.146399  -0.0483067 -0.00197428 -0.178691  -0.0642877 -0.00230476 -0.210926  -0.0801111 -0.00294501 -0.243185  -0.0956621 -0.00401986 -0.275593  -0.110752 -0.00566274 -0.308329  -0.125068 -0.00798678 -0.341625  -0.138092 -0.0110179 -0.37578  -0.148887 -0.0144258 -0.411175  0.286902 0.00699833 0.418746  0.26746 0.00448513 0.376935  0.247058 0.00296313 0.337706  0.226065 0.0018883 0.300122  0.204788 0.00103459 0.263593  0.183414 0.00031966 0.227702  0.162053 -0.000283837 0.192157  0.14076 -0.00077942 0.156756  0.119557 -0.00116763 0.121368  0.0984455 -0.00144869 0.0859212  0.0774224 -0.0016315 0.0503929  0.0564785 -0.00172591 0.0147924  0.0356035 -0.00175074 -0.0208465  0.0147911 -0.0017257 -0.0564768  -0.00596261 -0.00168163 -0.0920468  -0.0266619 -0.00165555 -0.127516  -0.0473034 -0.00169784 -0.162864  -0.0678734 -0.00187069 -0.198096  -0.088339 -0.00225788 -0.233255  -0.10864 -0.00295609 -0.268435  -0.128666 -0.00407359 -0.303782  -0.148234 -0.00571334 -0.339514  -0.167039 -0.00793695 -0.375935  -0.184576 -0.010687 -0.413468  -0.200013 -0.0135458 -0.452758  0.350226 0.00836569 0.442488  0.324932 0.00566179 0.397893  0.299106 0.0038425 0.356145  0.272928 0.00252536 0.316199  0.246593 0.00150514 0.277374  0.220232 0.000688195 0.239208  0.193919 3.13222e-05 0.201379  0.167692 -0.000484616 0.163673  0.141564 -0.00087288 0.125959  0.115538 -0.00114352 0.0881652  0.0896054 -0.00131276 0.0502701  0.0637573 -0.00139681 0.0122885  0.0379876 -0.00141686 -0.0257379  0.0122895 -0.00139681 -0.0637553  -0.013343 -0.00136796 -0.101709  -0.0389093 -0.00136879 -0.139551  -0.0644078 -0.00144866 -0.177259  -0.0898269 -0.00166634 -0.21484  -0.115135 -0.00209951 -0.252342  -0.140276 -0.00283343 -0.289868  -0.165153 -0.0039593 -0.32759  -0.189595 -0.00555623 -0.365765  -0.213327 -0.00765371 -0.404766  -0.2359 -0.0101555 -0.445135  -0.256645 -0.0126591 -0.487718  0.416194 0.0093585 0.457833  0.384719 0.0066587 0.411325  0.353135 0.00466123 0.3678  0.321473 0.00315621 0.326172  0.28981 0.00199449 0.285707  0.258204 0.00108951 0.245908  0.226687 0.000390738 0.206436  0.195275 -0.00013423 0.167071  0.163971 -0.000511974 0.127676  0.132771 -0.000763178 0.0881825  0.101668 -0.00091204 0.0485718  0.0706523 -0.000981212 0.00886405  0.0397186 -0.000995398 -0.0308957  0.00886446 -0.000981212 -0.0706489  -0.0219159 -0.000970811 -0.110336  -0.0526233 -0.00100163 -0.149908  -0.083253 -0.00111994 -0.189339  -0.113793 -0.00137949 -0.228637  -0.144219 -0.00184843 -0.267856  -0.174484 -0.00260016 -0.307112  -0.204502 -0.00371146 -0.346596  -0.234134 -0.00524428 -0.386602  -0.26315 -0.00721806 -0.427562  -0.291187 -0.00953799 -0.470117  -0.317749 -0.0118817 -0.515238  0.483582 0.0100829 0.464472  0.445743 0.0074957 0.416953  0.408206 0.00540566 0.372449  0.370874 0.00375938 0.329867  0.33371 0.00248149 0.288454  0.296691 0.00150394 0.247697  0.259805 0.000774682 0.207253  0.223045 0.000251055 0.166897  0.186397 -0.000107706 0.126494  0.149855 -0.000332117 0.0859765  0.113406 -0.00045529 0.0453295  0.0770452 -0.000506461 0.00457627  0.0407705 -0.00051403 -0.0362349  0.00457633 -0.000506282 -0.0770425  -0.0315366 -0.000515997 -0.117784  -0.0675688 -0.000578582 -0.15841  -0.103516 -0.000734895 -0.198895  -0.139369 -0.00103199 -0.239248  -0.175103 -0.00152808 -0.279528  -0.210685 -0.00228348 -0.319861  -0.246051 -0.00336358 -0.360455  -0.281099 -0.00482181 -0.401631  -0.31566 -0.00668401 -0.443867  -0.349473 -0.00889182 -0.487871  -0.382195 -0.0112337 -0.534686  0.551181 0.0106671 0.462289  0.506926 0.00822276 0.414671  0.463365 0.00607824 0.370008  0.420292 0.00431943 0.327223  0.377553 0.00294495 0.285572  0.33505 0.00190979 0.24455  0.292725 0.00116134 0.203818  0.250538 0.000647724 0.163156  0.208469 0.000315428 0.122432  0.166501 0.000123322 0.0815825  0.124622 2.96235e-05 0.040596  0.0828315 -1.81794e-06 -0.000503242  0.0411226 -2.35438e-06 -0.0416653  -0.000502288 -1.57952e-06 -0.0828276  -0.0420428 -3.17693e-05 -0.123927  -0.0834989 -0.000125736 -0.164914  -0.124863 -0.000318259 -0.205764  -0.166126 -0.000648171 -0.246489  -0.207271 -0.00116265 -0.287151  -0.248278 -0.00191024 -0.327884  -0.289108 -0.00294545 -0.368906  -0.329701 -0.00432003 -0.410557  -0.369961 -0.00607821 -0.453343  -0.409735 -0.00822237 -0.498006  -0.448812 -0.0106659 -0.545624  0.6178 0.0112351 0.451353  0.56719 0.00889218 0.404539  0.517667 0.00668401 0.360535  0.468895 0.00482112 0.318298  0.42061 0.00336307 0.277122  0.372644 0.00228357 0.236528  0.324894 0.00152725 0.196196  0.277297 0.00103164 0.155915  0.229815 0.000732183 0.115563  0.182429 0.00057596 0.0750786  0.135128 0.000513673 0.0344524  0.0879093 0.000502825 -0.00628924  0.0407711 0.000509262 -0.0470965  -0.00628531 0.000503421 -0.0879077  -0.0532606 0.000453055 -0.128661  -0.100144 0.000329494 -0.169308  -0.146933 0.000105083 -0.209826  -0.193617 -0.000252247 -0.25023  -0.240189 -0.000776291 -0.290587  -0.286638 -0.00150502 -0.331032  -0.332952 -0.00248247 -0.37179  -0.37912 -0.0037598 -0.413204  -0.425122 -0.00540555 -0.455786  -0.470916 -0.0074957 -0.50029  -0.516411 -0.0100818 -0.547808  0.682245 0.011882 0.431905  0.625472 0.00953716 0.386785  0.570177 0.00721723 0.34423  0.51586 0.00524336 0.30327  0.462161 0.00371087 0.263264  0.408846 0.00260007 0.223779  0.355778 0.00184751 0.184523  0.302872 0.00137913 0.145303  0.25008 0.00111747 0.106006  0.197376 0.000999153 0.066576  0.14475 0.000968039 0.0270044  0.092198 0.000977933 -0.0126823  0.0397206 0.000990808 -0.0524355  -0.0126801 0.00097841 -0.0921959  -0.0649977 0.000909626 -0.131904  -0.117227 0.000760555 -0.171516  -0.16936 0.000509322 -0.21101  -0.221388 0.000132143 -0.250406  -0.273308 -0.000392616 -0.289772  -0.325124 -0.00109112 -0.329244  -0.37685 -0.00199592 -0.369044  -0.428521 -0.00315696 -0.409509  -0.480193 -0.00466084 -0.451137  -0.531942 -0.0066582 -0.494662  -0.583798 -0.00935823 -0.54117  0.743347 0.0126584 0.404387  0.68076 0.0101544 0.361804  0.62 0.00765222 0.321436  0.560399 0.0055548 0.282434  0.501508 0.00395805 0.244259  0.443053 0.00283241 0.206536  0.384863 0.00209856 0.169009  0.326838 0.00166583 0.131507  0.268923 0.00144655 0.0939267  0.21109 0.00136656 0.0562181  0.153323 0.00136501 0.0183755  0.0956225 0.00139409 -0.0195773  0.037989 0.00141269 -0.0575945  -0.0195749 0.00139421 -0.0956208  -0.0770603 0.00131029 -0.133602  -0.13446 0.00114083 -0.171498  -0.191766 0.000870228 -0.209293  -0.248971 0.000482619 -0.247008  -0.306076 -3.3617e-05 -0.284714  -0.363096 -0.000689924 -0.322543  -0.420067 -0.00150675 -0.360711  -0.477066 -0.00252652 -0.399535  -0.534222 -0.00384218 -0.439482  -0.591728 -0.00566155 -0.481231  -0.649766 -0.00836587 -0.525827  0.79998 0.0135445 0.369428  0.732084 0.0106859 0.330138  0.666288 0.00793463 0.292604  0.601759 0.0057115 0.256184  0.537995 0.00407165 0.220451  0.47469 0.0029546 0.185103  0.411659 0.00225711 0.149922  0.348791 0.0018701 0.114763  0.286028 0.00169623 0.0795315  0.223336 0.00165343 0.0441846  0.160703 0.00167865 0.0087145  0.0981254 0.001724 -0.0268565  0.0356044 0.00174725 -0.0624855  -0.0268537 0.00172371 -0.0981243  -0.0892422 0.00162899 -0.133725  -0.151552 0.00144631 -0.169254  -0.213774 0.00116521 -0.204701  -0.275903 0.00077796 -0.24009  -0.337942 0.000281334 -0.275493  -0.399914 -0.000321627 -0.311039  -0.461873 -0.00103629 -0.34693  -0.523929 -0.00188947 -0.383459  -0.58627 -0.00296324 -0.421042  -0.6492 -0.00448501 -0.460273  -0.71309 -0.00699896 -0.502085  0.851104 0.0144239 0.327846  0.778568 0.0110166 0.29245  0.708258 0.00798386 0.258296  0.639243 0.00566095 0.224998  0.570999 0.00401783 0.192262  0.503218 0.00294352 0.159853  0.435709 0.00230384 0.127593  0.368357 0.00197351 0.0953576  0.301101 0.00184679 0.063066  0.233907 0.00183868 0.0306779  0.166762 0.00188643 -0.00181538  0.0996629 0.00194335 -0.0343944  0.0326099 0.00196975 -0.0670242  -0.0343922 0.00194299 -0.0996624  -0.101335 0.00184262 -0.13227  -0.16821 0.00165546 -0.16482  -0.235008 0.00137508 -0.197309  -0.301724 0.00100034 -0.229766  -0.368362 0.000535667 -0.262262  -0.434951 -4.23193e-06 -0.294922  -0.501555 -0.000607312 -0.327934  -0.568301 -0.00127655 -0.361564  -0.635421 -0.00206268 -0.396167  -0.703309 -0.00316077 -0.432222  -0.772541 -0.00521493 -0.470462  0.895856 0.0150715 0.280594  0.819441 0.0109796 0.249489  0.745206 0.00770187 0.219135  0.672208 0.00534958 0.189426  0.599956 0.00376946 0.160178  0.528147 0.0027836 0.131219  0.456598 0.00222743 0.102404  0.385197 0.00196368 0.0736251  0.313883 0.00188428 0.0448139  0.242621 0.0019061 0.015932  0.171399 0.00197023 -0.0130305  0.100211 0.00203311 -0.0420614  0.0290556 0.00206047 -0.0711304  -0.0420597 0.002033 -0.100207  -0.113129 0.00193298 -0.129261  -0.184144 0.00175124 -0.158272  -0.255097 0.00148475 -0.187244  -0.325983 0.0011363 -0.216211  -0.396808 0.000716329 -0.245242  -0.467598 0.000247538 -0.274461  -0.53842 -0.000242412 -0.304042  -0.609407 -0.000726163 -0.334223  -0.680804 -0.00120664 -0.365305  -0.75306 -0.00178814 -0.397644  -0.826931 -0.00308132 -0.431683  0.933577 0.0151553 0.228658  0.854059 0.0103811 0.202027  0.776506 0.00699395 0.175786  0.700082 0.00474066 0.150055  0.624351 0.00331682 0.124728  0.549032 0.00247377 0.0996763  0.473954 0.0020268 0.0747762  0.399011 0.00183713 0.0499356  0.324145 0.00180203 0.0250892  0.249321 0.00184691 0.000202715  0.174526 0.00191867 -0.0247365  0.0997532 0.00198215 -0.0497225  0.0250029 0.00200838 -0.0747348  -0.0497218 0.00198221 -0.0997512  -0.124415 0.00188911 -0.124751  -0.199071 0.00172377 -0.149725  -0.273682 0.00148493 -0.174682  -0.348246 0.00117749 -0.199658  -0.422766 0.000815153 -0.224724  -0.497267 0.000423431 -0.249997  -0.571807 4.07696e-05 -0.275641  -0.646511 -0.000279605 -0.301877  -0.721612 -0.000481427 -0.328971  -0.797554 -0.000531673 -0.357179  -0.875205 -0.00081718 -0.386624  0.963836 0.0142838 0.172936  0.881895 0.00904399 0.150804  0.80163 0.00580817 0.128905  0.722374 0.00384003 0.107493  0.643745 0.00268066 0.0864817  0.565495 0.00203317 0.0657468  0.487463 0.00171524 0.0451784  0.409552 0.0016005 0.0246931  0.331703 0.00160229 0.00423372  0.253888 0.00166041 -0.0162364  0.17609 0.0017314 -0.0367281  0.0983014 0.00178915 -0.0572419  0.0205241 0.00181264 -0.0777716  -0.0572422 0.00178933 -0.0983013  -0.134993 0.00171018 -0.118821  -0.212723 0.00157136 -0.13933  -0.290426 0.00137335 -0.159843  -0.3681 0.00112146 -0.180398  -0.445751 0.000828624 -0.201059  -0.523398 0.000518858 -0.221937  -0.60109 0.000231922 -0.243184  -0.678928 3.19481e-05 -0.265015  -0.75711 2.74181e-05 -0.287693  -0.836024 0.00040257 -0.311463  -0.916543 0.00120038 -0.336182  0.986325 0.0120959 0.114098  0.902512 0.00688767 0.0964305  0.820133 0.00419205 0.0790961  0.738673 0.00272298 0.0623525  0.657792 0.00192267 0.0460231  0.577247 0.00150424 0.0299781  0.496893 0.00131935 0.0141021  0.416639 0.00127131 -0.00167149  0.336434 0.00129837 -0.0173935  0.256247 0.00135726 -0.0330937  0.176066 0.00141889 -0.0487897  0.0958833 0.00146508 -0.0644872  0.0156985 0.0014838 -0.0801859  -0.0644868 0.00146568 -0.0958833  -0.14467 0.00140542 -0.111577  -0.224847 0.00130171 -0.127274  -0.305013 0.00115514 -0.142993  -0.385168 0.000970066 -0.158769  -0.465316 0.000756264 -0.174659  -0.545474 0.000531673 -0.190754  -0.625684 0.000328898 -0.207185  -0.70602 0.000200629 -0.224157  -0.786639 0.000268757 -0.241964  -0.867831 0.000824869 -0.260992  -0.950387 0.00248933 -0.28103  1.00068 0.00842756 0.0524545  0.915507 0.00406194 0.039256  0.831651 0.00236905 0.0268895  0.748718 0.0015564 0.0152063  0.666276 0.00114256 0.00394613  0.584118 0.000947177 -0.00708485  0.502109 0.000876486 -0.017957  0.420174 0.000876367 -0.0287256  0.338267 0.000911474 -0.0394242  0.256367 0.00095892 -0.0500815  0.174459 0.00100285 -0.0607122  0.0925402 0.00103366 -0.0713274  0.0106109 0.00104594 -0.0819357  -0.071328 0.00103438 -0.0925407  -0.153274 0.000996232 -0.103148  -0.235223 0.000932038 -0.113771  -0.317172 0.000841558 -0.124426  -0.399122 0.000728309 -0.135144  -0.481077 0.000596583 -0.145969  -0.563051 0.000457823 -0.156962  -0.645075 0.000329137 -0.16822  -0.727211 0.000243008 -0.179885  -0.809563 0.000271082 -0.19226  -0.892382 0.000657618 -0.205984  -0.976278 0.00259483 -0.221366  1.00619 0.00362796 -0.0126377  0.92036 0.00122505 -0.02065  0.83608 0.000806332 -0.0273594  0.75247 0.000556827 -0.0333994  0.669204 0.000460923 -0.0392559  0.586116 0.0004251 -0.0449556  0.503119 0.0004251 -0.0505505  0.420161 0.000443161 -0.0560606  0.337216 0.000468254 -0.0615101  0.254267 0.000494182 -0.0669157  0.171308 0.000515461 -0.0722899  0.0883356 0.000529408 -0.0776457  0.00534993 0.000534773 -0.0829916  -0.0776469 0.000530005 -0.0883347  -0.160652 0.000513494 -0.0936837  -0.243663 0.000486672 -0.0990494  -0.32668 0.000448465 -0.104447  -0.409702 0.000400901 -0.109893  -0.492733 0.000344396 -0.115415  -0.575783 0.000282645 -0.121045  -0.658872 0.000221491 -0.126825  -0.742032 0.000163138 -0.132837  -0.825341 0.000160038 -0.139172  -0.908925 0.000136077 -0.146414  -0.993495 0.00134367 -0.156348  1 0 -0.0833327  0.916667 0 -0.0833327  0.833333 0 -0.0833327  0.75 0 -0.0833327  0.666667 0 -0.0833327  0.583333 0 -0.0833327  0.5 0 -0.0833327  0.416667 0 -0.0833327  0.333333 0 -0.0833327  0.25 0 -0.0833327  0.166667 0 -0.0833327  0.0833333 0 -0.0833327  0 0 -0.0833327  -0.0833334 0 -0.0833327  -0.166667 0 -0.0833327  -0.25 0 -0.0833327  -0.333333 0 -0.0833327  -0.416667 0 -0.0833327  -0.5 0 -0.0833327  -0.583333 0 -0.0833327  -0.666667 0 -0.0833327  -0.75 0 -0.0833327  -0.833333 0 -0.0833327  -0.916667 0 -0.0833327  -1 0 -0.0833327  0 0 0  -1.11759e-08 0 0  7.45058e-09 0 0  0 0 0  1.49012e-08 0 0  0 0 0  0 0 0  0 0 0  0 0 0  0 0 0  0 0 0  0 0 0  0 0 0  0 0 0  0 0 0  0 0 0  0 0 0  0 0 0  0 0 0  0 0 0  0 0 0  0 0 0  0 0 0  0 0 0  0 0 0  0.0135758 -7.70986e-05 0.0730955  0.0138681 0.000476077 0.0625997  0.0136379 0.000228874 0.0552887  0.0133756 8.88892e-05 0.0489223  0.0130894 -5.6047e-05 0.0429187  0.0128044 -0.00017463 0.0371636  0.0125201 -0.000274245 0.0315707  0.0122359 -0.000355072 0.0260859  0.0119498 -0.0004187 0.0206742  0.0116583 -0.000466038 0.0153089  0.0113573 -0.000497766 0.00997007  0.0110415 -0.000515595 0.00464106  0.0107076 -0.00052033 -0.000683367  0.0103508 -0.000513609 -0.00601417  0.00996834 -0.000497796 -0.0113569  0.00955975 -0.000475276 -0.0167193  0.00912845 -0.000450853 -0.0221092  0.00868416 -0.000430472 -0.0275375  0.00824642 -0.000424139 -0.0330146  0.00785184 -0.000445493 -0.0385537  0.00756305 -0.000517953 -0.0441647  0.00748765 -0.000675552 -0.0498772  0.00782013 -0.00103093 -0.0556793  0.00895494 -0.00164105 -0.0619646  0.0117224 -0.00454472 -0.0686972  0.0370111 0.000705302 0.137491  0.0365037 0.00127417 0.121607  0.0352358 0.000963211 0.107541  0.0338211 0.000562638 0.0950311  0.0323752 0.000196613 0.0833091  0.0309345 -0.000119343 0.0720451  0.0295152 -0.000382781 0.0610707  0.0281183 -0.000595473 0.0502792  0.0267384 -0.000760697 0.0395968  0.0253678 -0.000881247 0.028975  0.0239976 -0.000960559 0.0183796  0.02262 -0.00100306 0.00779253  0.0212277 -0.00101336 -0.00279605  0.0198153 -0.000996463 -0.0133917  0.018379 -0.00096038 -0.0239968  0.0169196 -0.000914663 -0.0346141  0.0154428 -0.000873797 -0.0452506  0.0139644 -0.000859126 -0.0559135  0.0125159 -0.000902794 -0.0666145  0.0111523 -0.00105004 -0.0773731  0.00996703 -0.0013724 -0.0882141  0.00911605 -0.00199158 -0.0991659  0.00883573 -0.00313444 -0.110345  0.00959545 -0.00538422 -0.121777  0.0115864 -0.010748 -0.133427  0.0688986 0.00289145 0.195876  0.0669736 0.00256988 0.175301  0.06395 0.00197372 0.155861  0.0606267 0.00128043 0.137805  0.0572339 0.000641227 0.120705  0.0538612 9.05246e-05 0.104219  0.0505365 -0.000367992 0.0881109  0.0472663 -0.000735611 0.0722296  0.0440429 -0.00101799 0.0564699  0.0408563 -0.00122075 0.0407692  0.0376932 -0.00135167 0.0250855  0.0345423 -0.00141896 0.00939953  0.0313944 -0.00143394 -0.00629473  0.0282433 -0.00140562 -0.0219948  0.0250855 -0.00135146 -0.037692  0.0219228 -0.00129014 -0.0533797  0.0187608 -0.00124967 -0.0690598  0.015621 -0.00127111 -0.0847306  0.0125391 -0.00141276 -0.100407  0.00958055 -0.00175708 -0.116108  0.0068506 -0.00242838 -0.131867  0.00451225 -0.00362058 -0.147734  0.00282526 -0.00568856 -0.163732  0.0021078 -0.00930528 -0.179889  0.00265479 -0.0159737 -0.195854  0.108605 0.00598063 0.249022  0.104456 0.00434758 0.223672  0.0990267 0.00318517 0.199469  0.0931207 0.00212148 0.176501  0.0870879 0.00118591 0.154497  0.0810766 0.000389919 0.133158  0.0751404 -0.000266284 0.112236  0.0692933 -0.000788644 0.091554  0.0635307 -0.00118536 0.0709921  0.0578392 -0.00146613 0.0504744  0.052202 -0.00164361 0.0299574  0.0466046 -0.00173177 0.00942385  0.0410355 -0.00174876 -0.011123  0.0354872 -0.00171049 -0.0316716  0.0299568 -0.00164366 -0.0522001  0.0244433 -0.00157769 -0.0726947  0.0189557 -0.00155576 -0.0931418  0.0135142 -0.00163841 -0.113538  0.00815773 -0.00190887 -0.133895  0.00295335 -0.0024827 -0.154237  -0.00198811 -0.00352304 -0.1746  -0.00649512 -0.00526895 -0.195027  -0.0103191 -0.00809477 -0.215542  -0.0131237 -0.0125739 -0.236116  -0.0144537 -0.0196791 -0.256417  0.155618 0.00937003 0.296679  0.148286 0.00640868 0.266529  0.139707 0.00452864 0.23789  0.130576 0.00302698 0.210515  0.121278 0.00177832 0.184099  0.111999 0.000742495 0.158345  0.102821 -9.88096e-05 0.133007  0.0937661 -0.000760451 0.107899  0.0848313 -0.00125669 0.0828893  0.0760049 -0.00160265 0.057904  0.0672649 -0.00181691 0.0328971  0.0585956 -0.00191961 0.00785971  0.0499824 -0.00193562 -0.0171977  0.041418 -0.00188984 -0.0422485  0.0328953 -0.00181697 -0.0672639  0.0244155 -0.00175779 -0.0922136  0.0159847 -0.00176916 -0.117079  0.00762314 -0.00192875 -0.141852  -0.000628948 -0.00233968 -0.16654  -0.00870383 -0.00313985 -0.191172  -0.0164866 -0.00451271 -0.215791  -0.0237983 -0.00670305 -0.24045  -0.0303701 -0.0100394 -0.265192  -0.035808 -0.0149362 -0.290012  -0.0394412 -0.0218933 -0.314674  0.209182 0.0125485 0.338106  0.197704 0.00851458 0.303394  0.185223 0.00591409 0.270676  0.17224 0.00395417 0.239355  0.159105 0.00239092 0.20902  0.146007 0.00112948 0.179336  0.133033 0.000123829 0.150046  0.120213 -0.000654623 0.120956  0.107547 -0.00122935 0.0919387  0.0950204 -0.00162305 0.062914  0.0826124 -0.00186199 0.0338464  0.0703035 -0.00197163 0.00473154  0.0580792 -0.00198463 -0.0244075  0.0459291 -0.00193366 -0.0535351  0.0338466 -0.00186172 -0.0826094  0.021829 -0.00181957 -0.111593  0.00988531 -0.0018747 -0.140456  -0.00196832 -0.00211813 -0.169188  -0.0136918 -0.00266498 -0.197797  -0.0252139 -0.0036649 -0.226317  -0.0364156 -0.00530268 -0.254806  -0.0471075 -0.00780304 -0.283342  -0.0569924 -0.0114218 -0.312009  -0.0656056 -0.0164146 -0.340878  -0.0720925 -0.0229022 -0.369895  0.268229 0.0151979 0.372419  0.251797 0.0104622 0.333672  0.234738 0.00724947 0.297348  0.217339 0.00486395 0.262588  0.199859 0.00300574 0.228857  0.182458 0.00154042 0.195771  0.165211 0.00039494 0.163049  0.148147 -0.000475258 0.130493  0.131262 -0.00110596 0.0979724  0.114543 -0.00152904 0.065413  0.097969 -0.00177929 0.0327865  0.0815189 -0.0018886 9.63211e-05  0.065179 -0.00189695 -0.032624  0.0489373 -0.00184363 -0.0653293  0.0327869 -0.00177905 -0.0979667  0.0167255 -0.00176167 -0.13049  0.000756681 -0.00186712 -0.162866  -0.0151001 -0.00219384 -0.195078  -0.0308048 -0.00286254 -0.22714  -0.0462882 -0.00402397 -0.259095  -0.0614256 -0.00585258 -0.29102  -0.0760179 -0.00854027 -0.323027  -0.0897459 -0.0122699 -0.355265  -0.102091 -0.0171634 -0.387914  -0.112102 -0.0230769 -0.421162  0.331502 0.0172052 0.39884  0.309525 0.0121254 0.356798  0.287345 0.00846481 0.317471  0.265055 0.00572249 0.279847  0.242805 0.00360727 0.243294  0.220695 0.00196671 0.207376  0.198777 0.000707746 0.171794  0.177066 -0.000229537 0.13634  0.155556 -0.000894487 0.100884  0.134229 -0.00133011 0.0653567  0.113066 -0.00157884 0.0297357  0.0920496 -0.00168157 -0.00596309  0.0711613 -0.00168306 -0.0417013  0.0503924 -0.00163072 -0.0774215  0.0297366 -0.00157866 -0.113064  0.00919008 -0.00159207 -0.148576  -0.0112433 -0.00175065 -0.18392  -0.031544 -0.0021553 -0.21908  -0.0516734 -0.00292739 -0.254072  -0.0715619 -0.00421014 -0.288955  -0.0910838 -0.00616261 -0.323825  -0.110041 -0.00894263 -0.358842  -0.128102 -0.0126736 -0.394224  -0.144729 -0.0173787 -0.430278  -0.158985 -0.0227672 -0.467456  0.397715 0.0186157 0.4168  0.3698 0.0134614 0.372313  0.342099 0.00952101 0.330687  0.314554 0.00650635 0.290847  0.287195 0.00418153 0.252097  0.260055 0.00239828 0.213966  0.233146 0.00105283 0.176137  0.206468 7.14064e-05 0.138398  0.180004 -0.000608355 0.100622  0.153736 -0.00104126 0.062744  0.127644 -0.0012778 0.0247481  0.10171 -0.00136825 -0.0133432  0.0759225 -0.00136191 -0.0514811  0.0502707 -0.00131243 -0.0896022  0.024748 -0.00127774 -0.127641  -0.00064522 -0.00132585 -0.165539  -0.0259059 -0.0015372 -0.203256  -0.0510161 -0.00201234 -0.240779  -0.0759377 -0.00286752 -0.27813  -0.100601 -0.00423563 -0.315379  -0.12489 -0.00625783 -0.352654  -0.148607 -0.00906527 -0.390152  -0.171434 -0.0127402 -0.428171  -0.192855 -0.0172464 -0.467144  -0.212034 -0.0222472 -0.507751  0.465595 0.0195635 0.425959  0.431513 0.0144961 0.379918  0.398032 0.0104103 0.336761  0.364979 0.00720203 0.295406  0.332271 0.00471625 0.255127  0.299867 0.00282317 0.215437  0.267736 0.00141686 0.176012  0.235851 0.000412464 0.136639  0.20419 -0.000264853 0.097195  0.172731 -0.000681669 0.0576211  0.141452 -0.000897765 0.0179077  0.11034 -0.000971168 -0.021916  0.0793811 -0.000956684 -0.0617961  0.0485724 -0.000911862 -0.101663  0.0179078 -0.000897616 -0.141448  -0.0126129 -0.000982463 -0.181088  -0.0429839 -0.00124478 -0.220544  -0.0731845 -0.00178137 -0.259802  -0.103183 -0.00270051 -0.298896  -0.132915 -0.00412321 -0.337908  -0.162271 -0.00617489 -0.376991  -0.191072 -0.00896826 -0.416386  -0.21903 -0.0125661 -0.456458  -0.245684 -0.0169112 -0.497752  -0.270346 -0.0216924 -0.541116  0.533918 0.0202112 0.426176  0.49356 0.0152945 0.379479  0.454171 0.0111448 0.335593  0.415473 0.00780421 0.293457  0.377275 0.00519916 0.252346  0.339464 0.00322735 0.211778  0.30196 0.0017834 0.17143  0.26472 0.000775129 0.131099  0.227705 0.000115186 0.0906662  0.19089 -0.000274569 0.0500782  0.154255 -0.000463396 0.00933182  0.117787 -0.000516444 -0.0315382  0.0814806 -0.000493437 -0.0724735  0.0453295 -0.00045526 -0.113402  0.00933343 -0.000463277 -0.154251  -0.0265056 -0.00058496 -0.194958  -0.0621812 -0.000894934 -0.235484  -0.0976757 -0.00148329 -0.27582  -0.132953 -0.00244844 -0.316005  -0.167959 -0.00390026 -0.356137  -0.202602 -0.00595063 -0.396392  -0.236729 -0.00870371 -0.437045  -0.270097 -0.0122212 -0.478518  -0.302324 -0.0164624 -0.521444  -0.332879 -0.0211808 -0.566781  0.601484 0.0207107 0.417486  0.554857 0.0159308 0.371029  0.509551 0.0117444 0.327226  0.46518 0.00830811 0.285054  0.42145 0.00561631 0.243822  0.378179 0.00359327 0.203066  0.335249 0.00213379 0.162485  0.292588 0.00113916 0.121883  0.250151 0.000509202 0.0811521  0.207907 0.000154853 0.0402465  0.165836 -1.3411e-06 -0.000832021  0.123931 -3.20673e-05 -0.0420452  0.0821846 -8.34465e-07 -0.083332  0.040597 2.95043e-05 -0.124619  -0.000829279 -1.66893e-06 -0.165832  -0.0420932 -0.00015828 -0.206911  -0.0831816 -0.000510961 -0.247818  -0.124075 -0.00114101 -0.288549  -0.164747 -0.00213534 -0.329152  -0.205149 -0.00359374 -0.369734  -0.245211 -0.00561732 -0.41049  -0.284814 -0.0083085 -0.451723  -0.323775 -0.0117446 -0.493895  -0.361805 -0.0159304 -0.537698  -0.398509 -0.0207097 -0.584155  0.667117 0.0211822 0.400114  0.614339 0.0164631 0.354778  0.563232 0.0122215 0.311852  0.513266 0.00870365 0.270379  0.464058 0.00594974 0.229726  0.41537 0.00389987 0.189471  0.367044 0.00244653 0.149339  0.31899 0.00148207 0.109153  0.27115 0.000893414 0.0688179  0.223493 0.000581324 0.0282937  0.175999 0.000460684 -0.0124131  0.128663 0.000452757 -0.0532618  0.081482 0.000491202 -0.0941905  0.0344564 0.000513911 -0.135126  -0.0124112 0.000459969 -0.175996  -0.0591086 0.000271499 -0.216743  -0.105626 -0.000116885 -0.257332  -0.151942 -0.000777364 -0.297766  -0.198035 -0.00178474 -0.338098  -0.243866 -0.00322813 -0.378446  -0.289386 -0.00520009 -0.419015  -0.334521 -0.00780481 -0.460125  -0.379157 -0.0111448 -0.502262  -0.4231 -0.0152941 -0.546148  -0.466074 -0.0202104 -0.592844  0.729648 0.0216923 0.374452  0.670978 0.0169115 0.331086  0.614299 0.0125657 0.289793  0.558923 0.00896794 0.249722  0.504392 0.00617421 0.210326  0.450415 0.00412244 0.171243  0.396814 0.00269854 0.132231  0.343481 0.00178033 0.0931368  0.29035 0.00124353 0.0538779  0.237387 0.000979125 0.0144237  0.184575 0.000894725 -0.0252166  0.131906 0.000909328 -0.065001  0.0793827 0.00095439 -0.104868  0.0270066 0.000968993 -0.144748  -0.025213 0.000894487 -0.184572  -0.0772672 0.000678599 -0.224286  -0.12914 0.000263155 -0.263861  -0.180811 -0.00041467 -0.303305  -0.232259 -0.00141811 -0.342678  -0.283461 -0.00282419 -0.382105  -0.334389 -0.00471729 -0.421795  -0.385015 -0.00720292 -0.462075  -0.435296 -0.0104105 -0.503431  -0.485148 -0.0144958 -0.546588  -0.534396 -0.0195634 -0.59263  0.787959 0.0222461 0.341087  0.723806 0.0172458 0.300479  0.661894 0.0127391 0.261507  0.601388 0.00906444 0.223488  0.541772 0.00625712 0.185989  0.482729 0.00423449 0.148715  0.42406 0.00286603 0.111465  0.365649 0.0020113 0.0741139  0.307426 0.00153625 0.0365916  0.249354 0.00132298 -0.00112522  0.191415 0.00127465 -0.039023  0.133604 0.00130999 -0.0770618  0.0759239 0.00136042 -0.115184  0.0183786 0.00136662 -0.153321  -0.0390206 0.00127512 -0.191412  -0.096261 0.00103813 -0.229408  -0.153326 0.000606298 -0.267287  -0.210194 -7.4029e-05 -0.305064  -0.266848 -0.00105441 -0.342804  -0.323273 -0.00239927 -0.380634  -0.379466 -0.00418288 -0.418766  -0.435439 -0.00650722 -0.457516  -0.491228 -0.00952137 -0.497356  -0.546859 -0.0134614 -0.538984  -0.602277 -0.018616 -0.583472  0.841007 0.0227651 0.300792  0.771931 0.0173775 0.263614  0.705227 0.0126719 0.227559  0.639954 0.00894165 0.192178  0.575578 0.00616115 0.157161  0.511769 0.0042088 0.122289  0.448324 0.00292623 0.0874071  0.385121 0.00215411 0.0524142  0.322088 0.00174981 0.0172541  0.259188 0.00159007 -0.0180886  0.196403 0.00157565 -0.0536009  0.133727 0.00162876 -0.0892443  0.0711625 0.00168204 -0.124964  0.00871688 0.00168079 -0.160702  -0.0535985 0.00157678 -0.196401  -0.115768 0.00132746 -0.232022  -0.177774 0.000891805 -0.26755  -0.239597 0.000226855 -0.303006  -0.301218 -0.000709713 -0.338462  -0.362633 -0.00196797 -0.374045  -0.423856 -0.00360858 -0.409963  -0.484939 -0.00572354 -0.446516  -0.545982 -0.00846499 -0.48414  -0.607133 -0.0121255 -0.523468  -0.668489 -0.0172054 -0.56551  0.887889 0.0230743 0.2545  0.814569 0.0171621 0.22125  0.743582 0.0122685 0.188602  0.673978 0.0085389 0.156363  0.605237 0.00585097 0.124357  0.537041 0.00402212 0.0924314  0.469193 0.00286174 0.0604748  0.401565 0.0021925 0.0284127  0.334088 0.00186658 -0.00379992  0.266723 0.00175995 -0.0361741  0.199453 0.00177622 -0.0686979  0.132272 0.00184232 -0.101337  0.0651803 0.00189632 -0.134042  -0.00181305 0.00188839 -0.166762  -0.0686966 0.00177759 -0.199452  -0.135454 0.00152695 -0.232079  -0.202068 0.0011031 -0.264639  -0.268515 0.000472844 -0.29716  -0.334784 -0.000397027 -0.329716  -0.40087 -0.00154173 -0.362439  -0.466803 -0.00300705 -0.395525  -0.532657 -0.00486475 -0.429257  -0.598589 -0.00724977 -0.464018  -0.664864 -0.0104625 -0.500342  -0.731766 -0.0151978 -0.539089  0.9279 0.0229002 0.203235  0.851054 0.0164132 0.174217  0.776337 0.0114207 0.145345  0.702889 0.00780171 0.116678  0.630249 0.00530154 0.0881423  0.558117 0.003663 0.0596546  0.486307 0.00266433 0.031133  0.414698 0.00211692 0.00252312  0.343218 0.00187457 -0.0262089  0.271829 0.00181806 -0.0550721  0.200513 0.00185949 -0.084055  0.129264 0.00193268 -0.113131  0.0580793 0.0019846 -0.142258  -0.0130304 0.00197142 -0.171397  -0.0840543 0.00186068 -0.200512  -0.154978 0.00162137 -0.22958  -0.225783 0.0012269 -0.258606  -0.296449 0.000652671 -0.287625  -0.366962 -0.000125766 -0.316713  -0.437321 -0.00113082 -0.346004  -0.507556 -0.00239211 -0.375687  -0.577755 -0.00395495 -0.406022  -0.648105 -0.00591409 -0.437344  -0.718957 -0.00851458 -0.470063  -0.790812 -0.0125483 -0.504775  0.960552 0.0218912 0.148014  0.880853 0.0149344 0.12335  0.802958 0.0100383 0.0985289  0.726196 0.00670165 0.0737872  0.650176 0.00451177 0.0491255  0.574626 0.00313842 0.0245066  0.499369 0.00233912 -0.000126541  0.424289 0.00192785 -0.0248134  0.349318 0.0017693 -0.0495862  0.274415 0.00175649 -0.0744504  0.199562 0.00181526 -0.0994011  0.124752 0.00188881 -0.124417  0.0499831 0.00193572 -0.149468  -0.0247374 0.00191945 -0.174525  -0.099401 0.00181639 -0.199563  -0.173993 0.0016011 -0.22457  -0.248498 0.00125498 -0.249557  -0.322897 0.000759244 -0.274566  -0.397175 9.72152e-05 -0.299675  -0.47133 -0.000743747 -0.325014  -0.545386 -0.00177944 -0.350767  -0.619421 -0.00302732 -0.377183  -0.693622 -0.00452876 -0.404559  -0.768377 -0.00640804 -0.433197  -0.844377 -0.00936997 -0.463347  0.985541 0.0196775 0.0897563  0.903539 0.0125724 0.0694549  0.823011 0.00809389 0.0488793  0.743501 0.0052675 0.0283626  0.664675 0.0035224 0.00793517  0.586285 0.002482 -0.0124294  0.508156 0.00190854 -0.0327711  0.430179 0.00163764 -0.0531274  0.352288 0.00155616 -0.0735233  0.274443 0.0015769 -0.0939699  0.196623 0.00164241 -0.114464  0.118821 0.0017097 -0.134993  0.0410364 0.00174868 -0.155542  -0.0367276 0.00173211 -0.176089  -0.114463 0.0016436 -0.196623  -0.192159 0.00146508 -0.21714  -0.2698 0.00118446 -0.237659  -0.34737 0.000788033 -0.258222  -0.424857 0.000264883 -0.278904  -0.502254 -0.000390708 -0.299826  -0.579575 -0.00118697 -0.321167  -0.656877 -0.00212151 -0.343169  -0.734304 -0.00318474 -0.366136  -0.812207 -0.00434685 -0.39034  -0.891392 -0.00598061 -0.415691  1.00265 0.0159721 0.0291929  0.918771 0.00930429 0.0132267  0.836156 0.00568771 -0.00293112  0.75451 0.00361949 -0.0189304  0.673515 0.00242805 -0.0347992  0.592913 0.00175685 -0.0505583  0.512539 0.00141263 -0.0662609  0.432287 0.00127077 -0.0819346  0.352093 0.00125039 -0.0976052  0.271921 0.00128996 -0.113283  0.191752 0.00135064 -0.128972  0.111578 0.00140518 -0.14467  0.0313956 0.00143397 -0.16037  -0.0487899 0.00141943 -0.176066  -0.128973 0.00135189 -0.191753  -0.209143 0.00122023 -0.207436  -0.289289 0.00101751 -0.223138  -0.369399 0.0007357 -0.238896  -0.449461 0.000366628 -0.254779  -0.52947 -9.07779e-05 -0.270887  -0.60943 -0.000641942 -0.287374  -0.689372 -0.00128019 -0.304472  -0.769382 -0.00197321 -0.322528  -0.849691 -0.00256932 -0.341968  -0.931099 -0.00289106 -0.362544  1.01158 0.0107466 -0.033236  0.926259 0.00538361 -0.0448856  0.842166 0.00313401 -0.0563183  0.759113 0.00199085 -0.0674978  0.676632 0.00137246 -0.0784516  0.594485 0.00105006 -0.0892939  0.512516 0.000902712 -0.100052  0.430631 0.00085932 -0.110753  0.348776 0.000874221 -0.121415  0.26692 0.000914872 -0.13205  0.185047 0.000960171 -0.142667  0.10315 0.000996351 -0.153273  0.0212295 0.0010137 -0.16387  -0.0607117 0.00100321 -0.174459  -0.142668 0.000960886 -0.185045  -0.224631 0.000880659 -0.19564  -0.306594 0.000760376 -0.206264  -0.388547 0.000595927 -0.216947  -0.470483 0.000381827 -0.22774  -0.552397 0.000119209 -0.238713  -0.63429 -0.000196993 -0.249978  -0.716178 -0.000562191 -0.261699  -0.798097 -0.000963151 -0.274207  -0.880163 -0.00127387 -0.288274  -0.962988 -0.000705123 -0.304159  1.01172 0.0045442 -0.0979653  0.925622 0.00164104 -0.104698  0.841154 0.00103098 -0.110984  0.757489 0.000675201 -0.116787  0.674231 0.000518203 -0.122502  0.591187 0.000445604 -0.128113  0.508248 0.000424087 -0.133652  0.425352 0.000430644 -0.139128  0.342463 0.000450909 -0.144557  0.259561 0.000475645 -0.149947  0.176636 0.000497758 -0.155308  0.0936847 0.000513732 -0.160651  0.0107082 0.000520587 -0.165982  -0.072291 0.000515461 -0.171307  -0.155309 0.000498116 -0.176635  -0.238341 0.000465631 -0.181974  -0.321383 0.000418663 -0.187341  -0.40443 0.000355363 -0.192753  -0.487479 0.000273824 -0.198238  -0.570528 0.000174582 -0.203833  -0.653577 5.59688e-05 -0.209586  -0.736624 -8.85129e-05 -0.215588  -0.819696 -0.000228941 -0.221955  -0.902799 -0.000476122 -0.229267  -0.986424 7.73072e-05 -0.239762  1 0 -0.166666  0.916667 0 -0.166666  0.833333 0 -0.166666  0.75 0 -0.166666  0.666667 0 -0.166666  0.583333 0 -0.166666  0.5 0 -0.166666  0.416667 0 -0.166666  0.333333 0 -0.166666  0.25 0 -0.166666  0.166667 0 -0.166666  0.0833333 0 -0.166666  0 0 -0.166666  -0.0833334 0 -0.166666  -0.166667 0 -0.166666  -0.25 0 -0.166666  -0.333333 0 -0.166666  -0.416667 0 -0.166666  -0.5 0 -0.166666  -0.583333 0 -0.166666  -0.666667 0 -0.166666  -0.75 0 -0.166666  -0.833333 0 -0.166666  -0.916667 0 -0.166666  -1 0 -0.166666  0 0 0  -1.11759e-08 0 0  7.45058e-09 0 0  0 0 0  1.49012e-08 0 0  0 0 0  0 0 0  0 0 0  0 0 0  0 0 0  0 0 0  0 0 0  0 0 0  0 0 0  0 0 0  0 0 0  0 0 0  0 0 0  0 0 0  0 0 0  0 0 0  0 0 0  0 0 0  0 0 0  0 0 0  0.0210179 0.00120415 0.0723534  0.0202036 0.00108679 0.0615945  0.0194389 0.000633206 0.0543597  0.0188934 0.000356801 0.0480515  0.0184629 0.000124291 0.0421275  0.0181138 -5.38267e-05 0.0364543  0.0178117 -0.000193477 0.0309393  0.0175353 -0.000300951 0.0255241  0.0172686 -0.00038176 0.0201731  0.0169997 -0.000438951 0.0148588  0.0167186 -0.000475366 0.0095619  0.0164157 -0.000493959 0.00426745  0.0160837 -0.000496823 -0.00102907  0.0157158 -0.000486761 -0.00633579  0.0153075 -0.000465803 -0.011658  0.0148569 -0.000438813 -0.0170001  0.014368 -0.000410732 -0.0223682  0.0138524 -0.000390485 -0.0277668  0.0133343 -0.000389252 -0.0332005  0.0128564 -0.000424057 -0.0386736  0.0124915 -0.000523847 -0.0441797  0.0123637 -0.000730466 -0.0497252  0.0126852 -0.00117257 -0.0552536  0.0138969 -0.00194073 -0.0610424  0.0167001 -0.00524808 -0.066355  0.0508336 0.00410774 0.135665  0.0490167 0.00324396 0.119706  0.0468884 0.00223801 0.105557  0.0449704 0.00140344 0.0930855  0.0432301 0.000751391 0.081427  0.0416284 0.000241645 0.0702449  0.0401309 -0.000151858 0.059357  0.0387051 -0.000450782 0.0486466  0.037325 -0.000670254 0.0380346  0.0359682 -0.000821881 0.0274709  0.0346151 -0.000914849 0.0169206  0.0332502 -0.000958554 0.00636661  0.0318611 -0.00096149 -0.00419748  0.0304372 -0.000932507 -0.0147758  0.0289736 -0.000881001 -0.0253662  0.027469 -0.000821419 -0.0359669  0.0259295 -0.000772446 -0.0465776  0.0243737 -0.00076279 -0.0571947  0.0228387 -0.000829421 -0.0678185  0.0213885 -0.00103005 -0.0784462  0.0201281 -0.00145108 -0.0890738  0.0192297 -0.00223826 -0.0996796  0.0189431 -0.00365625 -0.110293  0.0197389 -0.00636936 -0.120683  0.0215603 -0.012545 -0.130604  0.088781 0.00839594 0.192547  0.0854063 0.00601611 0.171887  0.0813664 0.00425176 0.152368  0.0773507 0.00278737 0.134293  0.0735123 0.00162899 0.117227  0.0698608 0.000723183 0.1008  0.0663713 2.52873e-05 0.084761  0.0630106 -0.000500038 0.0689441  0.0597446 -0.00088039 0.05324  0.0565438 -0.0011377 0.0375798  0.0533823 -0.00129061 0.0219223  0.0502383 -0.00135677 0.00624794  0.0470949 -0.0013549 -0.00944543  0.0439408 -0.0013024 -0.0251517  0.0407701 -0.00122074 -0.0408552  0.0375817 -0.00113697 -0.056542  0.0343818 -0.00108924 -0.0722021  0.0311939 -0.00113008 -0.0878191  0.0280591 -0.00133054 -0.103388  0.025051 -0.00179423 -0.118897  0.0222853 -0.00267079 -0.134337  0.0199327 -0.0041918 -0.149689  0.0182508 -0.0067675 -0.164858  0.0175082 -0.0111663 -0.179701  0.0177504 -0.0190351 -0.193759  0.134383 0.013201 0.243565  0.128532 0.00910804 0.218042  0.12193 0.00638798 0.193779  0.115178 0.00425719 0.170794  0.108558 0.00258206 0.148814  0.102151 0.00127417 0.127519  0.0959571 0.000269756 0.106645  0.0899497 -0.00048022 0.0860053  0.084093 -0.0010169 0.0654719  0.0783525 -0.00137284 0.0449667  0.0726955 -0.00157811 0.024444  0.0670964 -0.00166038 0.00388968  0.0615352 -0.00164844 -0.0166903  0.055997 -0.00157222 -0.0372755  0.0504748 -0.00146586 -0.0578377  0.0449659 -0.00137214 -0.0783519  0.0394793 -0.00134958 -0.0987887  0.0340365 -0.00147517 -0.119126  0.0286806 -0.00185382 -0.139348  0.0234842 -0.00262882 -0.159442  0.0185634 -0.00399756 -0.179393  0.0140908 -0.0062454 -0.199164  0.0102966 -0.00981146 -0.218675  0.00744873 -0.0153623 -0.237762  0.00576389 -0.0240237 -0.256012  0.187042 0.0177788 0.288316  0.177664 0.0121952 0.25796  0.16771 0.00848448 0.229302  0.157583 0.00568523 0.201949  0.147572 0.00351451 0.175575  0.137792 0.00183117 0.149867  0.12827 0.000546664 0.124566  0.118987 -0.000404552 0.0994779  0.109908 -0.00107642 0.0744699  0.100997 -0.00151378 0.0494641  0.0922157 -0.00175798 0.0244169  0.0835353 -0.00184773 -0.000677645  0.074932 -0.0018225 -0.0258037  0.0663913 -0.00172463 -0.0509256  0.0579022 -0.00160208 -0.0760037  0.0494628 -0.00151326 -0.100994  0.0410777 -0.00153482 -0.125862  0.0327689 -0.00176758 -0.150572  0.0245777 -0.00234164 -0.175103  0.0165763 -0.00342932 -0.19944  0.00888079 -0.00525384 -0.223572  0.00166577 -0.00811058 -0.247475  -0.00482512 -0.0123943 -0.271091  -0.0102658 -0.0186059 -0.294302  -0.0141947 -0.0274167 -0.316765  0.24574 0.0216328 0.325974  0.2319 0.0150028 0.291164  0.217828 0.0104205 0.258514  0.203708 0.00700408 0.227288  0.189752 0.00438207 0.19704  0.176062 0.00236624 0.167421  0.162671 0.00084132 0.138169  0.149565 -0.000276491 0.109088  0.13671 -0.00105499 0.0800478  0.124065 -0.00155179 0.0509723  0.111596 -0.00181961 0.0218298  0.0992661 -0.00190786 -0.00737864  0.0870537 -0.00186746 -0.0366212  0.0749401 -0.00175217 -0.065853  0.0629151 -0.0016226 -0.0950184  0.0509725 -0.00155136 -0.124065  0.0391195 -0.00163069 -0.15294  0.0273726 -0.0019791 -0.181607  0.015772 -0.00274408 -0.210044  0.00439197 -0.00411336 -0.238237  -0.00664878 -0.00631537 -0.266187  -0.0171661 -0.00962526 -0.293897  -0.0268844 -0.014362 -0.321359  -0.0353934 -0.0208615 -0.348528  -0.0419924 -0.0294223 -0.375203  0.309156 0.0245573 0.355693  0.29016 0.0173532 0.317091  0.27134 0.0121111 0.280987  0.252689 0.00817558 0.24643  0.234302 0.00516647 0.212856  0.216242 0.00287008 0.179873  0.198523 0.00114924 0.147203  0.181125 -9.7245e-05 0.114651  0.164014 -0.000952154 0.0820915  0.147148 -0.00148559 0.0494561  0.130493 -0.00176167 0.0167246  0.114011 -0.00184083 -0.0160911  0.0976826 -0.00178435 -0.0489475  0.0814869 -0.00165671 -0.0817861  0.0654135 -0.00152892 -0.114541  0.0494571 -0.00148505 -0.147146  0.0336199 -0.00162983 -0.179546  0.01792 -0.00209251 -0.211699  0.00239831 -0.00302958 -0.24358  -0.0128736 -0.00463307 -0.27519  -0.02777 -0.00712132 -0.306546  -0.0420923 -0.0107357 -0.337688  -0.0555332 -0.0157154 -0.368673  -0.067606 -0.0222563 -0.399564  -0.0774302 -0.0303789 -0.430362  0.375883 0.0265848 0.376831  0.351281 0.0191855 0.335262  0.327247 0.0135148 0.29636  0.303636 0.00918201 0.259078  0.280425 0.00586152 0.222772  0.257613 0.00334048 0.187013  0.235184 0.00146824 0.151508  0.213107 0.00012958 0.116063  0.19134 -0.000772744 0.0805591  0.169843 -0.00132135 0.0449375  0.148579 -0.00159195 0.00918752  0.12752 -0.00165567 -0.0266632  0.106638 -0.00158343 -0.0625643  0.0859214 -0.00144836 -0.0984439  0.065357 -0.00132987 -0.134227  0.04494 -0.00132102 -0.169839  0.0246715 -0.00153342 -0.205221  0.00457072 -0.0021022 -0.240328  -0.0153204 -0.00318596 -0.275141  -0.0349302 -0.00497168 -0.309673  -0.0541259 -0.00766098 -0.343966  -0.0727033 -0.0114587 -0.378105  -0.0903285 -0.0165367 -0.412222  -0.106463 -0.0229843 -0.4465  -0.120158 -0.0306414 -0.481193  0.444584 0.027889 0.388998  0.414099 0.0205323 0.345341  0.38454 0.0146312 0.304376  0.355657 0.010021 0.265037  0.327321 0.00646669 0.226639  0.29946 0.00377616 0.188732  0.27202 0.00179464 0.151017  0.244954 0.000396997 0.113303  0.218211 -0.00052622 0.0754785  0.191752 -0.00107205 0.0374956  0.165542 -0.00132528 -0.000646651  0.139554 -0.00136894 -0.0389107  0.113766 -0.00128117 -0.077233  0.0881664 -0.00114372 -0.115534  0.0627435 -0.00104052 -0.153733  0.0374965 -0.00107193 -0.191748  0.0124266 -0.00135052 -0.229519  -0.012446 -0.00201362 -0.267001  -0.0370811 -0.00321665 -0.304183  -0.0614009 -0.00513592 -0.341091  -0.0852779 -0.00795546 -0.377798  -0.108497 -0.0118488 -0.414433  -0.130721 -0.0169396 -0.451208  -0.151402 -0.0232449 -0.488438  -0.169618 -0.0305148 -0.526613  0.513992 0.0286889 0.392021  0.477477 0.0214852 0.347165  0.44221 0.0154894 0.304914  0.407856 0.0107013 0.264226  0.37419 0.00698289 0.224411  0.341072 0.00417295 0.185017  0.308406 0.002121 0.145748  0.276124 0.000694215 0.106422  0.24417 -0.000227362 0.0669369  0.212504 -0.000754476 0.0272554  0.181093 -0.000981599 -0.0126135  0.149912 -0.00100163 -0.0526234  0.118945 -0.000899643 -0.0927036  0.0881836 -0.000763446 -0.132767  0.0576212 -0.000680923 -0.172727  0.0272564 -0.000754654 -0.2125  -0.00290561 -0.00109634 -0.252024  -0.0328412 -0.00184053 -0.291257  -0.0625123 -0.00313574 -0.330199  -0.091842 -0.00514695 -0.368892  -0.120702 -0.00804147 -0.407436  -0.148887 -0.0119712 -0.446008  -0.176067 -0.017033 -0.484893  -0.201723 -0.0232063 -0.524527  -0.225037 -0.0302203 -0.565599  0.582899 0.0291912 0.385922  0.540302 0.0221542 0.340743  0.499265 0.0161322 0.297998  0.459349 0.0112357 0.256689  0.420245 0.00740916 0.216153  0.381749 0.00452372 0.175952  0.343725 0.00243551 0.135808  0.306088 0.00100639 0.0955502  0.268776 0.000105411 0.0550888  0.231743 -0.000389665 0.014397  0.194962 -0.000583708 -0.0265077  0.158413 -0.000578225 -0.0675706  0.122087 -0.000463933 -0.108715  0.0859765 -0.000332355 -0.14985  0.0500798 -0.000274152 -0.190886  0.0143984 -0.000390202 -0.231739  -0.0210578 -0.000789762 -0.272347  -0.0562676 -0.00160113 -0.312676  -0.0911847 -0.0029639 -0.352733  -0.125738 -0.00503132 -0.392578  -0.15981 -0.00795788 -0.432338  -0.193206 -0.0118848 -0.472231  -0.225629 -0.0169023 -0.512609  -0.256612 -0.0229844 -0.554009  -0.285473 -0.0298867 -0.597262  0.650126 0.0295557 0.370882  0.601509 0.0226353 0.326245  0.554738 0.0165974 0.283792  0.50927 0.0116318 0.242595  0.464714 0.00773925 0.202036  0.420806 0.00481576 0.161716  0.377383 0.0027225 0.121382  0.334338 0.00131482 0.0808808  0.291606 0.000451624 0.0401382  0.24914 -6.85453e-07 -0.000862122  0.206915 -0.000157267 -0.0420953  0.164918 -0.000125229 -0.0835012  0.123141 -4.47035e-07 -0.124999  0.081584 0.000123203 -0.166496  0.0402492 0.000155389 -0.207902  -0.000860691 -1.37091e-06 -0.249135  -0.0417274 -0.000452369 -0.290137  -0.0823256 -0.00131649 -0.33088  -0.122614 -0.00272366 -0.371381  -0.162523 -0.00481591 -0.411716  -0.201949 -0.00773886 -0.452036  -0.240723 -0.0116322 -0.492594  -0.278588 -0.0165973 -0.533792  -0.315152 -0.0226353 -0.576245  -0.349866 -0.0295554 -0.620881  0.714523 0.0298877 0.347263  0.66005 0.022985 0.30401  0.6077 0.0169029 0.262611  0.556789 0.0118848 0.222234  0.506852 0.00795805 0.18234  0.457591 0.00503105 0.14258  0.408813 0.00296301 0.102735  0.360398 0.00159913 0.0626773  0.312275 0.000789106 0.0223476  0.264398 0.000388145 -0.0182595  0.216746 0.000272214 -0.0591117  0.16931 0.000330329 -0.100147  0.122089 0.000463009 -0.141282  0.0750822 0.000576258 -0.182426  0.0282955 0.00058198 -0.223489  -0.0182562 0.00038743 -0.264394  -0.0645566 -0.000106454 -0.305087  -0.110575 -0.00100797 -0.345549  -0.156271 -0.0024367 -0.385808  -0.201581 -0.00452387 -0.425952  -0.246417 -0.00740921 -0.466153  -0.290645 -0.0112361 -0.50669  -0.334063 -0.0161322 -0.547998  -0.376356 -0.0221547 -0.590743  -0.417093 -0.0291907 -0.635922  0.774959 0.030221 0.3156  0.714939 0.0232068 0.274529  0.657263 0.0170334 0.234895  0.601109 0.0119709 0.196011  0.545962 0.00804132 0.157438  0.491489 0.0051465 0.118894  0.437486 0.00313509 0.0802014  0.383824 0.00183874 0.0412601  0.330429 0.00109583 0.00202549  0.277256 0.000752628 -0.037497  0.224289 0.000679433 -0.0772704  0.171518 0.000761271 -0.11723  0.118946 0.000898957 -0.157294  0.0665784 0.000999629 -0.197374  0.0144266 0.000979722 -0.237384  -0.0374937 0.000751853 -0.277254  -0.08916 0.000225961 -0.316936  -0.140538 -0.000696003 -0.356422  -0.191589 -0.00212222 -0.395748  -0.242257 -0.00417352 -0.435017  -0.292472 -0.00698334 -0.474412  -0.342139 -0.0107017 -0.514228  -0.391117 -0.0154899 -0.554916  -0.439183 -0.0214856 -0.597168  -0.485999 -0.0286891 -0.642025  0.830378 0.0305147 0.276614  0.765262 0.0232455 0.23844  0.70261 0.0169396 0.201211  0.641499 0.0118481 0.164437  0.581386 0.00795496 0.1278  0.52193 0.00513548 0.0910929  0.462917 0.00321597 0.0541847  0.404218 0.00201207 0.0170029  0.345759 0.0013501 -0.0204792  0.287496 0.00107068 -0.0582488  0.229412 0.00103891 -0.0962648  0.1715 0.00114173 -0.134463  0.113767 0.00128049 -0.172765  0.0562216 0.00136739 -0.211087  -0.00112271 0.00132358 -0.249351  -0.0582451 0.00106925 -0.287493  -0.115119 0.0005247 -0.325477  -0.17171 -0.000398457 -0.363301  -0.227975 -0.00179595 -0.401017  -0.283868 -0.00377709 -0.438733  -0.33934 -0.00646776 -0.476641  -0.394337 -0.0100213 -0.515039  -0.448787 -0.0146319 -0.554379  -0.502559 -0.0205328 -0.595345  -0.555407 -0.0278894 -0.639002  0.879837 0.0306409 0.231196  0.810199 0.0229841 0.196504  0.743003 0.0165362 0.162224  0.677293 0.0114576 0.128108  0.612537 0.00766009 0.0939688  0.548403 0.00497097 0.0596748  0.484678 0.00318539 0.0251439  0.421237 0.00210088 -0.00966918  0.358004 0.00153291 -0.0447766  0.294938 0.0013203 -0.0801579  0.232024 0.00132835 -0.115771  0.169256 0.00144708 -0.151554  0.10664 0.00158286 -0.187434  0.0441871 0.00165445 -0.223334  -0.018086 0.00159007 -0.259186  -0.0801552 0.00131917 -0.294936  -0.141991 0.000771284 -0.330558  -0.203557 -0.000130773 -0.366062  -0.264811 -0.00146973 -0.401509  -0.325714 -0.00334215 -0.437015  -0.386235 -0.00586289 -0.472775  -0.446358 -0.00918269 -0.509081  -0.506079 -0.0135154 -0.546363  -0.565377 -0.0191861 -0.585265  -0.624108 -0.0265852 -0.626835  0.922564 0.030378 0.180367  0.849057 0.0222557 0.149567  0.777796 0.0157143 0.118677  0.707904 0.0107343 0.0876911  0.638893 0.00712061 0.0565491  0.570458 0.00463253 0.0251927  0.502398 0.00302893 -0.00641644  0.434587 0.00209141 -0.0382982  0.366953 0.00162923 -0.0704506  0.299456 0.00148439 -0.10285  0.232081 0.00152826 -0.135456  0.164823 0.00165594 -0.168211  0.0976849 0.00178409 -0.20105  0.0306808 0.0018397 -0.233906  -0.0361721 0.00175971 -0.266722  -0.102849 0.0014838 -0.299455  -0.169317 0.000951052 -0.33209  -0.235538 9.63211e-05 -0.364651  -0.301473 -0.00115091 -0.397204  -0.367086 -0.00287211 -0.429875  -0.432359 -0.00516778 -0.462858  -0.497306 -0.00817668 -0.496432  -0.561988 -0.0121113 -0.53099  -0.626501 -0.0173537 -0.567094  -0.690839 -0.0245572 -0.605696  0.958002 0.029421 0.125209  0.881268 0.0208606 0.0985336  0.806446 0.0143607 0.0713627  0.732831 0.00962394 0.0439013  0.660016 0.00631505 0.0161896  0.587724 0.00411284 -0.0117601  0.515771 0.00274324 -0.0399531  0.444039 0.00197804 -0.0683904  0.372452 0.00163031 -0.0970582  0.300973 0.00155067 -0.125934  0.229581 0.00162244 -0.15498  0.158275 0.00175166 -0.184146  0.0870537 0.00186723 -0.213377  0.0159325 0.00190705 -0.24262  -0.0550708 0.00181794 -0.271828  -0.125933 0.00155032 -0.300971  -0.196621 0.00105381 -0.330048  -0.267098 0.000275791 -0.359089  -0.337324 -0.000843048 -0.38817  -0.407266 -0.00236833 -0.417423  -0.47691 -0.00438339 -0.447041  -0.546287 -0.00700486 -0.477289  -0.615499 -0.0104203 -0.508514  -0.684762 -0.0150024 -0.541165  -0.754254 -0.0216325 -0.575976  0.985799 0.0274147 0.066772  0.906397 0.018605 0.0443066  0.828504 0.0123928 0.0210968  0.751662 0.00810951 -0.00252032  0.675546 0.00525391 -0.0264255  0.599909 0.0034284 -0.0505564  0.524578 0.00234056 -0.0748959  0.449436 0.0017665 -0.0994267  0.374411 0.00153506 -0.124137  0.299463 0.00151283 -0.149003  0.22457 0.00160182 -0.173994  0.149726 0.0017246 -0.199073  0.0749334 0.00182247 -0.224195  0.000203192 0.00184709 -0.24932  -0.0744495 0.00175679 -0.274415  -0.149001 0.00151277 -0.299463  -0.223422 0.00107551 -0.32447  -0.297677 0.000404298 -0.349478  -0.371726 -0.000548124 -0.374566  -0.445536 -0.00183284 -0.399868  -0.51909 -0.00351542 -0.425575  -0.592412 -0.00568593 -0.451949  -0.665619 -0.00848407 -0.479302  -0.738998 -0.0121945 -0.50796  -0.812954 -0.0177777 -0.538316  1.00576 0.0240214 0.00601786  0.924111 0.015361 -0.0122333  0.843626 0.00981009 -0.0313203  0.764089 0.00624502 -0.0508341  0.685228 0.00399774 -0.0706056  0.606816 0.00262809 -0.0905563  0.52868 0.00185257 -0.11065  0.450703 0.00147456 -0.130872  0.372812 0.00134993 -0.15121  0.294966 0.00137204 -0.171646  0.217141 0.0014655 -0.19216  0.13933 0.00157243 -0.212723  0.0615357 0.00164878 -0.233309  -0.0162359 0.00166011 -0.253888  -0.0939695 0.0015775 -0.274443  -0.171646 0.00137222 -0.294965  -0.249238 0.00101626 -0.315472  -0.326715 0.000480413 -0.336005  -0.40404 -0.000271022 -0.356645  -0.481179 -0.0012753 -0.377519  -0.558105 -0.00258249 -0.398815  -0.634818 -0.00425756 -0.420796  -0.7114 -0.00638759 -0.443779  -0.788132 -0.00910711 -0.468042  -0.865615 -0.0131998 -0.493565  1.01775 0.0190331 -0.0562353  0.934171 0.011165 -0.0702937  0.851581 0.00676674 -0.0851384  0.76993 0.00419194 -0.10031  0.68895 0.00267124 -0.115664  0.608383 0.00179398 -0.131103  0.528059 0.0013296 -0.146613  0.44786 0.00112981 -0.162179  0.367715 0.00108969 -0.177796  0.287581 0.0011372 -0.193454  0.207438 0.00122052 -0.209142  0.127275 0.00130284 -0.224847  0.0470959 0.00135511 -0.240553  -0.0330942 0.00135702 -0.256247  -0.113284 0.00129056 -0.271922  -0.193455 0.0011372 -0.28758  -0.273587 0.000879943 -0.303241  -0.353655 0.000500143 -0.318944  -0.433626 -2.61068e-05 -0.334762  -0.51347 -0.000723958 -0.350801  -0.593152 -0.00162894 -0.367229  -0.672648 -0.00278753 -0.384293  -0.751965 -0.00425172 -0.402369  -0.831259 -0.00601572 -0.421889  -0.911218 -0.00839472 -0.442547  1.02156 0.0125435 -0.11939  0.936405 0.00636858 -0.129312  0.852276 0.00365597 -0.139703  0.769229 0.00223845 -0.150318  0.686794 0.00145155 -0.160926  0.604722 0.00103021 -0.171554  0.52284 0.000829101 -0.182181  0.441042 0.000762582 -0.192804  0.359264 0.000773132 -0.203421  0.277471 0.00082165 -0.21403  0.195642 0.000881016 -0.224631  0.113772 0.000932753 -0.235222  0.0318623 0.000961721 -0.245801  -0.0500819 0.00095892 -0.256366  -0.132051 0.00091517 -0.266919  -0.214031 0.00082165 -0.277469  -0.296007 0.000669956 -0.288034  -0.37796 0.000450671 -0.298647  -0.459868 0.000151575 -0.309359  -0.541703 -0.000242233 -0.320246  -0.623435 -0.000751078 -0.331428  -0.705028 -0.00140387 -0.343087  -0.786444 -0.0022378 -0.355557  -0.867649 -0.00324422 -0.369707  -0.949166 -0.00410652 -0.385666  1.0167 0.00524759 -0.183639  0.930564 0.00194043 -0.188953  0.846019 0.00117266 -0.194743  0.762364 0.000730574 -0.200273  0.679159 0.000523984 -0.20582  0.596191 0.000424445 -0.211327  0.513335 0.000389218 -0.216799  0.43052 0.000390649 -0.222232  0.347703 0.000410974 -0.227631  0.264858 0.000438929 -0.232999  0.181975 0.00046587 -0.23834  0.0990504 0.000486732 -0.243663  0.0160849 0.000496984 -0.24897  -0.0669166 0.000494182 -0.254267  -0.149947 0.000475585 -0.25956  -0.233 0.000438869 -0.264857  -0.316064 0.000381589 -0.270173  -0.39913 0.000301123 -0.275524  -0.482187 0.000193298 -0.280939  -0.565218 5.37038e-05 -0.286456  -0.648203 -0.000124037 -0.292127  -0.731106 -0.000357091 -0.298051  -0.813894 -0.000633121 -0.304358  -0.896463 -0.00108689 -0.311595  -0.978982 -0.00120378 -0.322354  1 0 -0.249999  0.916667 0 -0.249999  0.833333 0 -0.249999  0.75 0 -0.249999  0.666667 0 -0.249999  0.583333 0 -0.249999  0.5 0 -0.249999  0.416667 0 -0.249999  0.333333 0 -0.249999  0.25 0 -0.249999  0.166667 0 -0.249999  0.0833333 0 -0.249999  0 0 -0.249999  -0.0833334 0 -0.249999  -0.166667 0 -0.249999  -0.25 0 -0.249999  -0.333333 0 -0.249999  -0.416667 0 -0.249999  -0.5 0 -0.249999  -0.583333 0 -0.249999  -0.666667 0 -0.249999  -0.75 0 -0.249999  -0.833333 0 -0.249999  -0.916667 0 -0.249999  -1 0 -0.249999  0 0 0  -1.11759e-08 0 0  7.45058e-09 0 0  0 0 0  1.49012e-08 0 0  0 0 0  0 0 0  0 0 0  0 0 0  0 0 0  0 0 0  0 0 0  0 0 0  0 0 0  0 0 0  0 0 0  0 0 0  0 0 0  0 0 0  0 0 0  0 0 0  0 0 0  0 0 0  0 0 0  0 0 0  0.0287181 0.00245344 0.0707574  0.0266817 0.0016613 0.06005  0.0253615 0.00102941 0.0530393  0.0245008 0.000621997 0.0468841  0.0239005 0.000303686 0.0411135  0.0234691 6.70403e-05 0.0355802  0.0231372 -0.000112802 0.0301873  0.0228616 -0.000247203 0.0248767  0.0226123 -0.000344642 0.0196134  0.0223671 -0.000411101 0.0143703  0.0221086 -0.00045104 0.0091306  0.0218216 -0.000468288 0.00388265  0.0214933 -0.000466321 -0.00137657  0.0211132 -0.000448432 -0.00665289  0.020674 -0.000418659 -0.0119495  0.0201725 -0.000381541 -0.0172689  0.0196121 -0.000344578 -0.0226134  0.0190065 -0.000317525 -0.0279823  0.0183836 -0.000314329 -0.033373  0.0177929 -0.000354987 -0.0387787  0.0173164 -0.000472121 -0.0441765  0.0170895 -0.000714339 -0.0495457  0.0173342 -0.00122202 -0.0547819  0.0185146 -0.00210761 -0.0600298  0.0211374 -0.00570123 -0.0638425  0.0650058 0.00749485 0.13251  0.061684 0.0051605 0.116894  0.0586328 0.00347991 0.102939  0.0561686 0.00222035 0.0906888  0.054104 0.00128462 0.0792224  0.0523245 0.000583142 0.0682204  0.050741 5.96792e-05 0.0574911  0.0492873 -0.000323616 0.0469145  0.0479122 -0.000594757 0.0364109  0.0465771 -0.000773184 0.0259319  0.0452501 -0.000874437 0.0154443  0.0439063 -0.000911616 0.00493431  0.0425261 -0.000896566 -0.00560021  0.0410931 -0.000841551 -0.0161594  0.0395968 -0.000760391 -0.0267366  0.0380339 -0.000669844 -0.0373241  0.0364098 -0.000594832 -0.0479126  0.0347448 -0.000567794 -0.0584891  0.0330796 -0.000635348 -0.0690383  0.0314857 -0.000864267 -0.079534  0.0300775 -0.00135341 -0.0899423  0.0290353 -0.00226725 -0.100188  0.0286088 -0.00389965 -0.110204  0.0292399 -0.00696545 -0.119494  0.030592 -0.0137444 -0.127605  0.109001 0.013816 0.187664  0.103917 0.00935866 0.167343  0.098774 0.00643158 0.14809  0.0940216 0.00420822 0.130241  0.0897153 0.0025384 0.113387  0.0857791 0.00128493 0.0971479  0.0821283 0.000353202 0.0812683  0.0786892 -0.000321597 0.065581  0.0753974 -0.000790186 0.0499747  0.0722013 -0.00108991 0.0343809  0.0690594 -0.00125071 0.0187619  0.0659377 -0.00129861 0.00310171  0.0628109 -0.00125824 -0.0125962  0.059659 -0.00115542 -0.0283187  0.0564709 -0.00101774 -0.044042  0.0532417 -0.000879779 -0.059743  0.0499755 -0.000790708 -0.0753972  0.0466962 -0.000811912 -0.0909747  0.0434483 -0.00103103 -0.106443  0.0403084 -0.00156841 -0.121762  0.037397 -0.00259582 -0.136873  0.0348849 -0.00437469 -0.151686  0.033013 -0.00735589 -0.165982  0.0319772 -0.0123727 -0.179442  0.031566 -0.0211602 -0.191496  0.160456 0.0201435 0.236422  0.152589 0.0136477 0.211154  0.144697 0.00938322 0.187212  0.137053 0.00620763 0.1645  0.129835 0.00381093 0.142756  0.123041 0.00200884 0.121658  0.116608 0.000673771 0.10094  0.110467 -0.000285998 0.0804137  0.104547 -0.000941828 0.0599529  0.098789 -0.00135006 0.0394804  0.0931419 -0.00155683 0.0189563  0.0875656 -0.00160262 -0.00162774  0.0820287 -0.00152799 -0.0222582  0.0765092 -0.00137432 -0.0429043  0.0709929 -0.00118491 -0.0635295  0.0654724 -0.00101632 -0.0840923  0.0599521 -0.000942469 -0.104546  0.054454 -0.00105649 -0.124847  0.0490203 -0.00148515 -0.144949  0.0437254 -0.0023963 -0.164796  0.0386835 -0.00401674 -0.184318  0.0340586 -0.00666909 -0.203398  0.0300495 -0.0108403 -0.221843  0.0268415 -0.0172624 -0.239357  0.0244176 -0.0271444 -0.25545  0.218619 0.0256198 0.27814  0.206897 0.0175783 0.248059  0.195431 0.0120884 0.219788  0.184267 0.00803383 0.192778  0.173543 0.00497517 0.166683  0.163287 0.00267708 0.141192  0.153459 0.000981048 0.116047  0.143991 -0.000228316 0.0910556  0.134814 -0.00104262 0.0660908  0.125863 -0.00153527 0.0410796  0.117081 -0.00177038 0.0159864  0.108423 -0.00180218 -0.00918758  0.0998533 -0.00168857 -0.0344144  0.091348 -0.00148609 -0.0596475  0.0828905 -0.001256 -0.0848318  0.0744714 -0.00107607 -0.109907  0.0660912 -0.00104287 -0.134814  0.0577689 -0.00127934 -0.159491  0.0495442 -0.00194359 -0.18388  0.0414867 -0.00323717 -0.207922  0.0337086 -0.00541836 -0.231542  0.0263697 -0.00882304 -0.254636  0.0196794 -0.0138955 -0.277048  0.0138834 -0.0211973 -0.298542  0.00922978 -0.0314953 -0.318695  0.282163 0.0298302 0.311904  0.265763 0.0208637 0.277551  0.24999 0.01441 0.245408  0.234706 0.00960827 0.214621  0.219945 0.00598326 0.184716  0.205709 0.00326359 0.155347  0.191959 0.00126627 0.126257  0.178629 -0.00014551 0.097261  0.165645 -0.00108099 0.0682372  0.152941 -0.0016309 0.0391191  0.140458 -0.00187562 0.00988567  0.128148 -0.00188482 -0.0194496  0.115975 -0.00173101 -0.0488429  0.103912 -0.00148618 -0.0782322  0.0919404 -0.00122865 -0.107546  0.0800488 -0.00105496 -0.136709  0.0682386 -0.00108112 -0.165644  0.056522 -0.00145322 -0.194283  0.0449355 -0.00235122 -0.222562  0.03355 -0.00399585 -0.25042  0.022478 -0.00665294 -0.277794  0.01189 -0.0106381 -0.30461  0.00203001 -0.0163182 -0.330763  -0.00675863 -0.0240836 -0.356103  -0.0139554 -0.0343445 -0.380312  0.349548 0.0327467 0.336946  0.32794 0.0233892 0.299102  0.307315 0.0162863 0.263688  0.28742 0.0109067 0.229694  0.268172 0.0068264 0.196544  0.249521 0.00376785 0.163857  0.231407 0.00153366 0.131367  0.213755 -3.05474e-05 0.0988944  0.196492 -0.00104886 0.0663294  0.179549 -0.00162995 0.033619  0.162868 -0.00186729 0.000756323  0.1464 -0.00184762 -0.0322305  0.130112 -0.00165525 -0.0652814  0.113975 -0.0013769 -0.0983203  0.0979731 -0.00110549 -0.13126  0.0820921 -0.000952333 -0.164011  0.066331 -0.00104925 -0.196489  0.0507012 -0.00155753 -0.228617  0.0352411 -0.00266913 -0.26033  0.0200188 -0.00461113 -0.291576  0.00515503 -0.00763994 -0.322311  -0.00916058 -0.0120348 -0.352499  -0.0226414 -0.0180792 -0.382105  -0.0348494 -0.0260187 -0.411081  -0.0450324 -0.0359897 -0.439274  0.419295 0.034582 0.352792  0.392166 0.0251892 0.312334  0.366326 0.0177209 0.274343  0.341454 0.0119365 0.237771  0.317365 0.00751498 0.201987  0.293943 0.00419977 0.166579  0.271101 0.00179052 0.13128  0.248751 0.000121504 0.0959174  0.226815 -0.000945151 0.0603934  0.205225 -0.0015333 0.02467  0.183922 -0.00175056 -0.0112448  0.162868 -0.00169703 -0.0473044  0.142023 -0.00146988 -0.0834383  0.121368 -0.0011673 -0.119553  0.100884 -0.000894338 -0.155553  0.0805616 -0.000772923 -0.191335  0.0603947 -0.000945687 -0.226811  0.0403995 -0.00158179 -0.2619  0.0206152 -0.00287747 -0.296541  0.00111264 -0.00505602 -0.330692  -0.0179753 -0.008356 -0.364337  -0.036446 -0.0130171 -0.397486  -0.0539731 -0.0192497 -0.430181  -0.0700421 -0.0271886 -0.462491  -0.0837663 -0.0367777 -0.494489  0.490072 0.0356378 0.359235  0.457241 0.0263897 0.317042  0.425965 0.0187638 0.27722  0.395866 0.0127248 0.238749  0.366673 0.00806561 0.200974  0.338213 0.00456941 0.163481  0.31036 0.00204122 0.126004  0.283014 0.000310004 0.0883815  0.256089 -0.000775009 0.0505294  0.229523 -0.00135031 0.0124258  0.203259 -0.001537 -0.0259073  0.177262 -0.00144753 -0.0644091  0.151502 -0.00119027 -0.102994  0.125961 -0.000872433 -0.14156  0.100622 -0.000608593 -0.18  0.0754794 -0.000526756 -0.218207  0.0505305 -0.000775754 -0.256086  0.0257925 -0.00152639 -0.293558  0.00130719 -0.00297359 -0.330568  -0.0228468 -0.00533012 -0.367091  -0.0465332 -0.00881571 -0.40314  -0.06953 -0.0136355 -0.438773  -0.0914898 -0.0199448 -0.474115  -0.111864 -0.0277998 -0.509365  -0.129722 -0.037031 -0.544824  0.560646 0.0362016 0.356261  0.522024 0.0271497 0.313195  0.4852 0.019488 0.272313  0.449727 0.0133058 0.232645  0.415261 0.00849533 0.193556  0.381577 0.00488272 0.15464  0.348514 0.0022848 0.115645  0.315955 0.000527889 0.0764236  0.283814 -0.000549495 0.0369097  0.252027 -0.00109619 -0.00290453  0.220548 -0.00124434 -0.042983  0.189343 -0.00111875 -0.0832532  0.15839 -0.000836283 -0.123619  0.127678 -0.000511706 -0.163968  0.0971961 -0.000265479 -0.204188  0.0669386 -0.000228286 -0.244167  0.0369092 -0.000550598 -0.283811  0.00713086 -0.00140029 -0.323044  -0.0223538 -0.00296649 -0.361821  -0.0514588 -0.00545037 -0.400134  -0.0800426 -0.00905392 -0.438027  -0.107878 -0.0139583 -0.47561  -0.134611 -0.0202845 -0.513083  -0.159695 -0.028039 -0.550771  -0.182249 -0.0370044 -0.589187  0.629837 0.0365036 0.344033  0.585417 0.0276174 0.300936  0.54303 0.0199666 0.25976  0.502132 0.0137113 0.21961  0.462317 0.00881445 0.179892  0.423308 0.00513861 0.14023  0.384917 0.00251389 0.100393  0.347015 0.00076288 0.0602567  0.309514 -0.00028488 0.0197703  0.272351 -0.000789523 -0.021059  0.235487 -0.000894278 -0.0621828  0.198897 -0.000733525 -0.103518  0.162569 -0.000431329 -0.14496  0.126494 -0.000107586 -0.186394  0.0906683 0.00011462 -0.227701  0.0550902 0.000104249 -0.268771  0.0197719 -0.000285804 -0.309509  -0.0152633 -0.00121886 -0.349847  -0.049962 -0.00287396 -0.389751  -0.084237 -0.00544184 -0.429232  -0.117946 -0.0091114 -0.468366  -0.150864 -0.0140505 -0.507306  -0.182652 -0.0203661 -0.546325  -0.212792 -0.0280456 -0.58586  -0.240505 -0.0368662 -0.62659  0.696493 0.0366987 0.322871  0.646371 0.0278998 0.280562  0.598494 0.0202526 0.239847  0.55221 0.0139604 0.199921  0.507051 0.00902385 0.160259  0.4627 0.00532985 0.120528  0.418951 0.00271583 0.0805318  0.375661 0.000999093 0.0401695  0.332744 -1.78814e-07 -0.000590444  0.290142 -0.000451654 -0.0417278  0.247822 -0.000510305 -0.0831821  0.205767 -0.000316471 -0.124864  0.163971 -5.06639e-07 -0.166665  0.122434 0.000315368 -0.208465  0.0811552 0.000508726 -0.250147  0.0401402 0.000450194 -0.291602  -0.000589609 -8.64267e-07 -0.33274  -0.0410038 -0.00100029 -0.3735  -0.0810469 -0.00271651 -0.413863  -0.120628 -0.00533059 -0.453859  -0.159611 -0.00902319 -0.49359  -0.197784 -0.0139597 -0.533253  -0.234832 -0.0202532 -0.573178  -0.270288 -0.0279003 -0.613894  -0.303498 -0.0366994 -0.656202  0.759489 0.0368655 0.293259  0.70387 0.0280454 0.252529  0.650676 0.0203654 0.212994  0.599132 0.0140513 0.173974  0.548717 0.00911218 0.135035  0.499093 0.00544113 0.0959026  0.450035 0.00287324 0.056421  0.401403 0.00121802 0.0165171  0.353105 0.000284553 -0.0238207  0.305091 -0.000105262 -0.0645586  0.257335 -0.000116646 -0.105628  0.209829 0.000106633 -0.146935  0.162572 0.000430167 -0.188369  0.115566 0.000732183 -0.229811  0.0688203 0.000892699 -0.271146  0.0223511 0.000787437 -0.31227  -0.023819 0.000283897 -0.353101  -0.0696489 -0.000764072 -0.393588  -0.11508 -0.00251466 -0.433725  -0.160021 -0.00513893 -0.473562  -0.204345 -0.00881398 -0.513225  -0.247862 -0.0137108 -0.552943  -0.290296 -0.0199671 -0.593092  -0.331241 -0.0276177 -0.634268  -0.370153 -0.0365037 -0.677365  0.817746 0.0370039 0.255856  0.756967 0.028039 0.21744  0.698719 0.0202838 0.179753  0.642119 0.013959 0.14228  0.586622 0.00905448 0.104697  0.531872 0.00544965 0.0668045  0.477645 0.00296575 0.0284905  0.423797 0.00139952 -0.0102864  0.370243 0.000549316 -0.0495192  0.316939 0.000227511 -0.0891631  0.263864 0.000263095 -0.129142  0.211013 0.000510335 -0.169362  0.158391 0.000834882 -0.209712  0.106009 0.00111741 -0.250077  0.0538812 0.00124252 -0.290347  0.00202948 0.00109398 -0.330426  -0.0495163 0.000548422 -0.370241  -0.100707 -0.00052923 -0.409755  -0.151482 -0.00228554 -0.448977  -0.201751 -0.00488287 -0.487972  -0.2514 -0.00849515 -0.526889  -0.300269 -0.0133052 -0.565978  -0.348126 -0.0194885 -0.605646  -0.394635 -0.0271496 -0.646529  -0.439344 -0.0362015 -0.689594  0.870275 0.0370312 0.211492  0.8048 0.0277998 0.176034  0.74184 0.0199438 0.140785  0.680467 0.0136355 0.105443  0.620131 0.00881547 0.0698087  0.560484 0.00532937 0.0337601  0.501305 0.0029726 -0.00276315  0.442457 0.00152522 -0.0397735  0.383864 0.000774682 -0.0772456  0.325479 0.000526011 -0.115124  0.267291 0.000607073 -0.153331  0.209294 0.000870824 -0.191769  0.151504 0.00118887 -0.230337  0.0939296 0.00144625 -0.268922  0.0365943 0.00153518 -0.307424  -0.0204756 0.00134844 -0.345757  -0.0772409 0.000773668 -0.383862  -0.133651 -0.000311494 -0.421714  -0.189636 -0.00204206 -0.459337  -0.245116 -0.00456995 -0.496815  -0.299988 -0.00806576 -0.534308  -0.354129 -0.0127242 -0.572083  -0.407362 -0.0187638 -0.610554  -0.459417 -0.0263899 -0.650376  -0.509919 -0.0356374 -0.69257  0.91623 0.0367773 0.161158  0.84662 0.0271879 0.129161  0.779358 0.0192484 0.0968504  0.713551 0.0130164 0.0641555  0.648689 0.00835538 0.0310063  0.584446 0.00505537 -0.00263888  0.520614 0.00287658 -0.0367898  0.457065 0.00158066 -0.0714301  0.393727 0.000944793 -0.106519  0.33056 0.000772357 -0.141995  0.267552 0.000893354 -0.177778  0.204703 0.00116587 -0.213777  0.142024 0.0014689 -0.249893  0.0795346 0.00169587 -0.286026  0.0172577 0.00174874 -0.322087  -0.0447736 0.00153154 -0.358001  -0.106516 0.000944078 -0.393725  -0.167913 -0.000122905 -0.429249  -0.228895 -0.0017913 -0.464613  -0.289385 -0.00420046 -0.499914  -0.349297 -0.00751543 -0.535322  -0.408541 -0.0119361 -0.571107  -0.467 -0.0177213 -0.607679  -0.524493 -0.0251898 -0.645671  -0.580696 -0.0345824 -0.68613  0.954962 0.0359886 0.105945  0.881813 0.0260177 0.0777498  0.810688 0.0180776 0.0487757  0.740837 0.0120341 0.0191685  0.67182 0.00763941 -0.0110189  0.603351 0.00461072 -0.0417542  0.535241 0.00266832 -0.0729994  0.467368 0.00155652 -0.104713  0.399664 0.00104892 -0.136841  0.332092 0.000951469 -0.169318  0.264641 0.00110453 -0.20207  0.197311 0.00137562 -0.23501  0.130114 0.00165451 -0.268049  0.0630691 0.00184673 -0.3011  -0.00379723 0.00186527 -0.334087  -0.0704493 0.00162834 -0.366951  -0.136839 0.00104821 -0.399662  -0.202909 2.96831e-05 -0.432228  -0.26859 -0.00153428 -0.464701  -0.333808 -0.00376862 -0.497191  -0.39849 -0.006827 -0.529879  -0.462576 -0.0109064 -0.563029  -0.526013 -0.0162868 -0.597024  -0.588721 -0.0233895 -0.632439  -0.650447 -0.0327464 -0.670282  0.98604 0.0343435 0.0469825  0.909903 0.0240827 0.0227748  0.835361 0.0163167 -0.00256574  0.761887 0.0106376 -0.0287199  0.689143 0.00665236 -0.0555366  0.616882 0.00399554 -0.0829109  0.544935 0.00235039 -0.110768  0.473189 0.0014528 -0.139048  0.401572 0.00108099 -0.167687  0.33005 0.00105399 -0.196622  0.258608 0.0012278 -0.225784  0.187247 0.00148541 -0.255099  0.115976 0.00173044 -0.284488  0.0448156 0.00188392 -0.313881  -0.026207 0.0018732 -0.343216  -0.0970562 0.00162971 -0.37245  -0.167685 0.00108051 -0.40157  -0.238034 0.000145316 -0.430595  -0.308036 -0.00126678 -0.459591  -0.377619 -0.00326407 -0.48868  -0.446717 -0.00598377 -0.518049  -0.51529 -0.00960809 -0.547954  -0.583338 -0.0144104 -0.578743  -0.650899 -0.0208632 -0.610884  -0.717832 -0.0298294 -0.645238  1.00923 0.0314947 -0.0146331  0.930547 0.0211964 -0.0347866  0.85301 0.0138947 -0.0562804  0.776368 0.00882286 -0.0786932  0.700375 0.005418 -0.101789  0.62482 0.00323719 -0.125408  0.549546 0.00194293 -0.149451  0.474437 0.00127912 -0.173841  0.399425 0.00104272 -0.198518  0.324471 0.00107527 -0.223424  0.249558 0.00125545 -0.2485  0.174682 0.00148559 -0.273684  0.0998542 0.00168836 -0.298917  0.0250908 0.00180149 -0.324143  -0.0495837 0.00176835 -0.349317  -0.124134 0.00153422 -0.374411  -0.198516 0.00104219 -0.399424  -0.272673 0.000228524 -0.424389  -0.346538 -0.000981629 -0.449379  -0.420042 -0.00267756 -0.474525  -0.493119 -0.00497603 -0.500017  -0.565729 -0.00803334 -0.52611  -0.637896 -0.0120888 -0.553123  -0.709765 -0.0175779 -0.581393  -0.781378 -0.0256191 -0.611474  1.02442 0.0271441 -0.0778796  0.943507 0.0172616 -0.0939716  0.863382 0.0108404 -0.111486  0.784058 0.00666881 -0.129932  0.705349 0.0040167 -0.149012  0.627059 0.00239646 -0.168536  0.549021 0.00148511 -0.188383  0.471122 0.00105637 -0.208484  0.393286 0.000942051 -0.228784  0.315472 0.00101608 -0.249238  0.23766 0.00118464 -0.269801  0.159844 0.00137377 -0.290427  0.0820305 0.0015282 -0.311074  0.00423372 0.00160235 -0.331704  -0.0735223 0.00155532 -0.352288  -0.151208 0.00134939 -0.372812  -0.228783 0.000941634 -0.393285  -0.306197 0.000286281 -0.413747  -0.383389 -0.000674188 -0.434273  -0.460289 -0.00200909 -0.454991  -0.536827 -0.00381154 -0.47609  -0.612943 -0.00620705 -0.497834  -0.688632 -0.00938368 -0.520546  -0.764074 -0.0136474 -0.544488  -0.839541 -0.0201435 -0.569757  1.03157 0.02116 -0.141833  0.948643 0.0123721 -0.153886  0.866345 0.00735587 -0.167348  0.784884 0.00437403 -0.181644  0.704063 0.0025959 -0.196459  0.623641 0.00156879 -0.211571  0.543448 0.0010314 -0.226891  0.463363 0.000811875 -0.242358  0.383308 0.000790417 -0.257934  0.303241 0.000879884 -0.273586  0.223138 0.00101787 -0.28929  0.142994 0.00115502 -0.305013  0.0628119 0.00125861 -0.320735  -0.017394 0.00129855 -0.336433  -0.0976052 0.00124961 -0.352094  -0.177797 0.00108951 -0.367714  -0.257934 0.000790238 -0.383309  -0.337975 0.000321984 -0.398915  -0.417869 -0.000353515 -0.414602  -0.497551 -0.00128502 -0.430481  -0.576949 -0.00253886 -0.446721  -0.655976 -0.00420791 -0.463574  -0.734556 -0.00643212 -0.481424  -0.812746 -0.00935858 -0.500679  -0.890995 -0.0138162 -0.520999  1.03059 0.0137442 -0.205724  0.945906 0.00696528 -0.213835  0.861943 0.0038994 -0.223125  0.779036 0.00226671 -0.233141  0.696745 0.00135362 -0.243389  0.61482 0.000864506 -0.2538  0.53308 0.000635505 -0.264296  0.451412 0.000567973 -0.274844  0.369744 0.000594795 -0.28542  0.288035 0.000670254 -0.296007  0.206265 0.000760853 -0.306594  0.124428 0.00084126 -0.317171  0.0425274 0.000896871 -0.327731  -0.0394258 0.000911772 -0.338267  -0.121415 0.000873983 -0.348776  -0.203421 0.000772774 -0.359263  -0.28542 0.000594914 -0.369744  -0.367378 0.000323832 -0.380248  -0.449257 -5.9545e-05 -0.390825  -0.531007 -0.00058347 -0.401555  -0.612561 -0.00128514 -0.412557  -0.693831 -0.00221997 -0.424022  -0.774699 -0.0034802 -0.436273  -0.854981 -0.00516063 -0.450229  -0.934993 -0.00749487 -0.465845  1.02114 0.00570124 -0.269486  0.935183 0.0021078 -0.273299  0.85067 0.0012219 -0.278547  0.767092 0.000713885 -0.283785  0.683985 0.000472307 -0.289157  0.601128 0.000355005 -0.294555  0.518385 0.000314295 -0.29996  0.435675 0.000317574 -0.30535  0.352947 0.000344694 -0.31072  0.270174 0.000381887 -0.316064  0.187341 0.000418842 -0.321382  0.104448 0.000448287 -0.326679  0.0214947 0.000466526 -0.331956  -0.0615105 0.000468493 -0.337215  -0.144557 0.000450969 -0.342462  -0.227631 0.000410795 -0.347702  -0.31072 0.000344813 -0.352946  -0.393804 0.00024724 -0.358211  -0.476862 0.00011307 -0.36352  -0.559863 -6.71744e-05 -0.368914  -0.642765 -0.000303864 -0.374447  -0.725499 -0.000621796 -0.380217  -0.807971 -0.00102943 -0.386371  -0.889985 -0.00166142 -0.393383  -0.971282 -0.00245321 -0.404092  1 0 -0.333333  0.916667 0 -0.333333  0.833333 0 -0.333333  0.75 0 -0.333333  0.666667 0 -0.333333  0.583333 0 -0.333333  0.5 0 -0.333333  0.416667 0 -0.333333  0.333333 0 -0.333333  0.25 0 -0.333333  0.166667 0 -0.333333  0.0833333 0 -0.333333  0 0 -0.333333  -0.0833334 0 -0.333333  -0.166667 0 -0.333333  -0.25 0 -0.333333  -0.333333 0 -0.333333  -0.416667 0 -0.333333  -0.5 0 -0.333333  -0.583333 0 -0.333333  -0.666667 0 -0.333333  -0.75 0 -0.333333  -0.833333 0 -0.333333  -0.916667 0 -0.333333  -1 0 -0.333333  0 0 0  -1.11759e-08 0 0  7.45058e-09 0 0  0 0 0  1.49012e-08 0 0  0 0 0  0 0 0  0 0 0  0 0 0  0 0 0  0 0 0  0 0 0  0 0 0  0 0 0  0 0 0  0 0 0  0 0 0  0 0 0  0 0 0  0 0 0  0 0 0  0 0 0  0 0 0  0 0 0  0 0 0  0.0365449 0.00363063 0.068308  0.0332196 0.00216951 0.0579858  0.0313554 0.00139162 0.0513427  0.0301625 0.000860944 0.0454355  0.0293787 0.000464112 0.0398951  0.0288533 0.000171684 0.0345581  0.028485 -4.6473e-05 0.0293312  0.0282096 -0.000205427 0.0241588  0.0279811 -0.000317395 0.0190081  0.0277657 -0.000390336 0.0138546  0.0275366 -0.00043077 0.00868624  0.0272714 -0.000442944 0.00349414  0.0269511 -0.000431664 -0.00172114  0.0265598 -0.000400502 -0.00696433  0.026086 -0.000354815 -0.0122358  0.0255237 -0.000301089 -0.0175351  0.024876 -0.000247393 -0.0228622  0.0241581 -0.000205718 -0.0282106  0.0234022 -0.000192203 -0.0335694  0.0226641 -0.000229299 -0.0389196  0.0220338 -0.000353038 -0.0442206  0.0216572 -0.00061693 -0.049421  0.0217566 -0.00116747 -0.0543659  0.0227984 -0.00212895 -0.0590505  0.0250534 -0.00587634 -0.0613348  0.0793221 0.0107581 0.128056  0.0743377 0.00693136 0.113166  0.0703479 0.00460616 0.09969  0.0673231 0.00294031 0.0878468  0.0649287 0.00173559 0.0767098  0.0629716 0.000851244 0.0659887  0.0613095 0.000206389 0.0554926  0.0598399 -0.000253759 0.0451033  0.0584871 -0.000567369 0.0347463  0.057193 -0.00076215 0.0243766  0.0559109 -0.000859842 0.0139666  0.0546049 -0.000876389 0.00350785  0.0532455 -0.000827707 -0.00699705  0.0518095 -0.000727966 -0.0175427  0.0502796 -0.000594959 -0.0281165  0.0486463 -0.000450656 -0.0387043  0.0469131 -0.000323921 -0.0492874  0.045101 -0.00025434 -0.0598414  0.0432548 -0.000295706 -0.0703347  0.0414522 -0.000522435 -0.0807186  0.0398122 -0.00104462 -0.0909246  0.0385164 -0.00204112 -0.100821  0.0378047 -0.00382239 -0.110237  0.0380688 -0.00712149 -0.118413  0.0386827 -0.0142831 -0.124709  0.129288 0.0189445 0.181275  0.122267 0.0124329 0.161652  0.115976 0.00836295 0.143005  0.110483 0.00540905 0.125637  0.105723 0.00325343 0.109183  0.101523 0.00167361 0.0932693  0.0977407 0.0005292 0.0776497  0.0942558 -0.000275694 0.0621603  0.0909735 -0.000811271 0.0466957  0.0878184 -0.00112934 0.0311937  0.0847294 -0.00127175 0.0156227  0.0816595 -0.00127187 -2.56896e-05  0.078571 -0.00116117 -0.01574  0.0754349 -0.000970237 -0.031497  0.0722296 -0.000734985 -0.0472652  0.0689445 -0.00049974 -0.0630088  0.0655808 -0.000321664 -0.0786888  0.0621589 -0.000276536 -0.0942561  0.0587246 -0.000464745 -0.109653  0.0553562 -0.00102068 -0.124806  0.0521728 -0.00213549 -0.139607  0.0493373 -0.00409293 -0.153888  0.047065 -0.00736751 -0.167305  0.0454692 -0.0128242 -0.179373  0.0440912 -0.0222433 -0.189423  0.186464 0.0264816 0.227642  0.176328 0.0177167 0.202998  0.167064 0.0119517 0.179738  0.158529 0.00777595 0.15759  0.150746 0.00470075 0.136307  0.14361 0.0024433 0.115573  0.136993 0.000814468 0.0951287  0.130775 -0.000318289 0.0747958  0.124849 -0.00105581 0.054455  0.119127 -0.00147459 0.0340376  0.113539 -0.00163861 0.0135145  0.108026 -0.00160114 -0.00711262  0.102545 -0.00141226 -0.0278188  0.0970623 -0.00112225 -0.0485622  0.0915545 -0.00078769 -0.0692921  0.0860049 -0.000479907 -0.0899481  0.0804127 -0.000285879 -0.110466  0.0747945 -0.000319317 -0.130773  0.0691898 -0.000725701 -0.150789  0.0636693 -0.00169386 -0.170418  0.0583419 -0.00347613 -0.189525  0.0533562 -0.0064224 -0.207913  0.0488735 -0.0110493 -0.225281  0.0449904 -0.018124 -0.24121  0.0414857 -0.0288888 -0.255141  0.249863 0.0324583 0.266197  0.235616 0.0222198 0.236826  0.222554 0.0150553 0.209324  0.210358 0.00981973 0.18297  0.198973 0.00593936 0.157401  0.188313 0.0030852 0.13231  0.178258 0.00103369 0.107451  0.168689 -0.000378594 0.0826422  0.159491 -0.00127873 0.0577695  0.150573 -0.00176677 0.0327705  0.141854 -0.00192872 0.00762451  0.133269 -0.00183757 -0.0176537  0.124771 -0.00156397 -0.0430213  0.116323 -0.00117832 -0.0684165  0.107898 -0.0007599 -0.093765  0.0994783 -0.00040403 -0.118985  0.091055 -0.000228271 -0.14399  0.0826408 -0.000379607 -0.168686  0.0742694 -0.00104107 -0.192976  0.0660043 -0.00244077 -0.216749  0.0579486 -0.00486627 -0.239865  0.0502427 -0.00868367 -0.262143  0.0430565 -0.0143683 -0.283326  0.0365566 -0.0225153 -0.303079  0.0308065 -0.0339283 -0.320917  0.317845 0.0366441 0.295969  0.298848 0.0256884 0.262573  0.28134 0.0175402 0.231344  0.264925 0.0114679 0.201324  0.249436 0.00693271 0.17202  0.234751 0.00358981 0.143094  0.220747 0.00119603 0.114304  0.207297 -0.000435188 0.0854819  0.194284 -0.00145264 0.0565211  0.18161 -0.00197804 0.0273725  0.169189 -0.0021178 -0.00196797  0.156959 -0.00196414 -0.0314678  0.144867 -0.00160715 -0.0610655  0.132877 -0.00113703 -0.0906785  0.120958 -0.000654235 -0.120212  0.109089 -0.000276268 -0.149564  0.0972625 -0.000145391 -0.178627  0.0854831 -0.000436038 -0.207295  0.073779 -0.00135775 -0.235459  0.062214 -0.00316063 -0.263005  0.0508909 -0.00614277 -0.289803  0.0399628 -0.0106498 -0.315701  0.0296391 -0.0170776 -0.340509  0.0201964 -0.0258479 -0.363978  0.0119877 -0.0374208 -0.385712  0.388734 0.039257 0.316314  0.364628 0.0281208 0.279765  0.342255 0.0193932 0.245459  0.321196 0.012725 0.212364  0.301195 0.00769439 0.179901  0.282078 0.00397655 0.147706  0.263698 0.00132367 0.115534  0.245919 -0.000465482 0.0832289  0.22862 -0.00155675 0.0507011  0.211702 -0.00209126 0.0179202  0.19508 -0.00219303 -0.0151002  0.178692 -0.00197425 -0.0483071  0.162489 -0.00154054 -0.0816201  0.146432 -0.00100172 -0.114937  0.130494 -0.000474811 -0.148145  0.114652 -9.7394e-05 -0.181123  0.0988964 -3.016e-05 -0.213752  0.0832293 -0.000466555 -0.245916  0.0676818 -0.00163075 -0.2775  0.0523167 -0.00378114 -0.308398  0.0372468 -0.00720719 -0.338499  0.0226495 -0.0122157 -0.367693  0.00878716 -0.0191169 -0.395862  -0.00395197 -0.0281851 -0.422859  -0.0149588 -0.0396185 -0.448423  0.461059 0.0407017 0.326938  0.431643 0.0296767 0.288124  0.404152 0.020681 0.251458  0.378157 0.0136349 0.21593  0.353336 0.00825837 0.180926  0.329459 0.00427225 0.146064  0.306356 0.00143754 0.111106  0.283878 -0.000453889 0.0759082  0.261903 -0.00158092 0.0404005  0.240331 -0.00210118 0.0045712  0.219082 -0.00215432 -0.0315444  0.198098 -0.00187087 -0.0678725  0.177333 -0.00137118 -0.104317  0.156757 -0.000780195 -0.140756  0.13634 -0.000229299 -0.177063  0.116066 0.000129431 -0.213103  0.095919 0.000121802 -0.248748  0.0759078 -0.00045529 -0.283876  0.0560673 -0.00183177 -0.318375  0.036464 -0.00426385 -0.35215  0.0172303 -0.00802124 -0.385117  -0.00143409 -0.013369 -0.417216  -0.0192165 -0.0205407 -0.448407  -0.0356339 -0.0296979 -0.478659  -0.0498992 -0.0408492 -0.5079  0.533537 0.0413896 0.327805  0.498693 0.0305834 0.287581  0.465942 0.0215156 0.249299  0.434823 0.0142601 0.212012  0.40496 0.00866288 0.175111  0.376083 0.0045003 0.138218  0.347991 0.00155076 0.101104  0.320526 -0.000394732 0.0636463  0.293561 -0.00152567 0.025793  0.267004 -0.00201303 -0.0124456  0.240781 -0.00201151 -0.0510161  0.214842 -0.00166613 -0.0898263  0.189149 -0.00111231 -0.128761  0.163676 -0.00048542 -0.167687  0.138399 7.1317e-05 -0.206464  0.113304 0.000396907 -0.24495  0.0883821 0.000309706 -0.28301  0.0636456 -0.000396281 -0.320521  0.0391341 -0.00195035 -0.35738  0.0149282 -0.00459924 -0.393506  -0.00882876 -0.00859115 -0.428847  -0.0319085 -0.014154 -0.463395  -0.0539628 -0.0214614 -0.497193  -0.0744556 -0.030594 -0.530336  -0.0925028 -0.0414389 -0.562961  0.604977 0.0416517 0.319048  0.564653 0.0310598 0.278235  0.526584 0.0220139 0.239082  0.49024 0.0146614 0.200727  0.455201 0.00893947 0.162591  0.421159 0.00467578 0.124323  0.38789 0.00166765 0.0857136  0.355227 -0.000291228 0.0466582  0.323046 -0.00139973 0.00713056  0.291261 -0.00183994 -0.0328409  0.259806 -0.00178051 -0.0731844  0.22864 -0.0013791 -0.113793  0.197735 -0.0007824 -0.154537  0.167074 -0.000135213 -0.195272  0.13664 0.000412047 -0.235848  0.106424 0.000693947 -0.276121  0.0764233 0.000527084 -0.315952  0.0466593 -0.000292987 -0.355223  0.0171782 -0.00198999 -0.393841  -0.0119259 -0.00479835 -0.431744  -0.0404961 -0.00894779 -0.468914  -0.0682882 -0.014638 -0.505396  -0.0949308 -0.0220038 -0.541312  -0.119871 -0.031071 -0.576884  -0.142222 -0.0416626 -0.612455  0.674229 0.0417194 0.300956  0.628448 0.0312781 0.260344  0.585075 0.0222737 0.221056  0.543486 0.0148876 0.182322  0.503217 0.00910816 0.143626  0.463927 0.00480345 0.10465  0.425375 0.00178385 0.0652161  0.387389 -0.000154346 0.0252463  0.349851 -0.00121799 -0.015264  0.31268 -0.0016005 -0.0562678  0.275823 -0.00148231 -0.0976765  0.23925 -0.0010314 -0.13937  0.202945 -0.000403821 -0.181208  0.166898 0.000249565 -0.223042  0.131102 0.00077492 -0.264717  0.0955518 0.00100568 -0.306084  0.0602582 0.000761956 -0.347011  0.0252483 -0.000156373 -0.387385  -0.00941914 -0.00196338 -0.427125  -0.0436379 -0.00488317 -0.46619  -0.077243 -0.00913048 -0.504599  -0.10998 -0.0148901 -0.542443  -0.14148 -0.0222769 -0.579922  -0.171195 -0.0312866 -0.617375  -0.198305 -0.0417193 -0.655317  0.740164 0.0417257 0.273961  0.689049 0.0313427 0.234317  0.640463 0.0223563 0.195608  0.593688 0.0149646 0.157176  0.548207 0.00917548 0.118583  0.503662 0.00487739 0.0795648  0.459802 0.0018878 0.0399825  0.416454 3.57628e-07 -0.000213146  0.373505 -0.000998974 -0.0410044  0.330884 -0.00131589 -0.0823256  0.288553 -0.00114015 -0.124076  0.246491 -0.000647187 -0.166127  0.204693 -8.04663e-07 -0.208331  0.163158 0.000645936 -0.250535  0.121886 0.00113899 -0.292586  0.0808829 0.00131398 -0.334335  0.0401713 0.000998199 -0.375658  -0.000211298 -1.90735e-06 -0.416449  -0.0401956 -0.00188863 -0.456645  -0.0796669 -0.0048776 -0.496228  -0.118455 -0.00917545 -0.535247  -0.156307 -0.0149636 -0.57384  -0.192864 -0.0223559 -0.612273  -0.227611 -0.0313434 -0.650982  -0.259827 -0.0417265 -0.690625  0.80169 0.0417188 0.238655  0.745467 0.0312864 0.200712  0.691851 0.0222772 0.163258  0.640017 0.0148909 0.125778  0.589419 0.00913048 0.0879346  0.539692 0.00488234 0.0495268  0.490578 0.00196254 0.0104614  0.441913 0.000154853 -0.0292781  0.393592 -0.00076288 -0.0696525  0.345553 -0.00100744 -0.110579  0.297769 -0.00077641 -0.151946  0.250233 -0.000250936 -0.193621  0.202948 0.000401974 -0.235455  0.155918 0.00103033 -0.277294  0.109156 0.00148153 -0.318987  0.0626797 0.00159878 -0.360395  0.0165184 0.00121677 -0.4014  -0.0292737 0.000152528 -0.44191  -0.0746212 -0.0017851 -0.481881  -0.119403 -0.00480366 -0.521315  -0.163445 -0.00910836 -0.560292  -0.206507 -0.0148872 -0.598988  -0.248253 -0.022273 -0.637722  -0.28821 -0.0312787 -0.677009  -0.325763 -0.0417194 -0.717621  0.857773 0.0416616 0.195792  0.796792 0.0310707 0.160221  0.7384 0.0220035 0.124648  0.68171 0.0146382 0.0887324  0.626168 0.00894755 0.0522517  0.571405 0.00479758 0.0150821  0.517177 0.00198877 -0.0228209  0.463325 0.000291824 -0.0614393  0.409757 -0.000528276 -0.100711  0.356424 -0.000695407 -0.140542  0.303308 -0.000413716 -0.180814  0.250409 0.000133872 -0.221391  0.197737 0.000780344 -0.262125  0.145307 0.00137794 -0.302869  0.0931398 0.00177944 -0.343477  0.0412632 0.00183809 -0.383821  -0.0102832 0.00139821 -0.423795  -0.0614341 0.000289321 -0.463323  -0.112105 -0.00166899 -0.502379  -0.162169 -0.00467646 -0.540989  -0.211461 -0.00893915 -0.579258  -0.259755 -0.0146615 -0.617392  -0.306744 -0.0220133 -0.655748  -0.352006 -0.0310601 -0.694901  -0.395014 -0.0416516 -0.735715  0.907494 0.041438 0.146299  0.842208 0.0305936 0.113672  0.779368 0.0214607 0.0805295  0.718089 0.0141534 0.0467321  0.657836 0.00859082 0.0121839  0.59826 0.0045985 -0.0231572  0.539133 0.00194907 -0.0592821  0.480312 0.000395298 -0.0961412  0.421717 -0.000311196 -0.133653  0.363305 -0.000397861 -0.171712  0.305068 -7.27177e-05 -0.210198  0.247009 0.000484169 -0.248974  0.189151 0.00111037 -0.287901  0.13151 0.00166506 -0.326836  0.0741168 0.00201005 -0.365647  0.0170061 0.002011 -0.404217  -0.0397695 0.00152439 -0.442457  -0.0961383 0.000392616 -0.48031  -0.152004 -0.00155181 -0.51777  -0.207245 -0.0045011 -0.554883  -0.261701 -0.00866258 -0.591778  -0.315171 -0.0142599 -0.628679  -0.367384 -0.0215158 -0.665966  -0.417966 -0.0305829 -0.704248  -0.466453 -0.0413893 -0.744473  0.950096 0.0408477 0.0912365  0.881029 0.0296971 0.0619961  0.814115 0.0205398 0.0317432  0.748563 0.0133679 0.000552833  0.683895 0.00802094 -0.0315472  0.619797 0.00426334 -0.0645146  0.556066 0.00183034 -0.0982882  0.492574 0.000454426 -0.132788  0.429252 -0.000123143 -0.167915  0.366065 -0.000130355 -0.20356  0.303008 0.000228643 -0.239601  0.240092 0.000778794 -0.275907  0.177335 0.00136983 -0.312346  0.114766 0.0018692 -0.34879  0.0524172 0.00215286 -0.38512  -0.00966728 0.00209951 -0.421235  -0.0714281 0.00158012 -0.457065  -0.132785 0.00045222 -0.492573  -0.19364 -0.0014382 -0.527773  -0.253869 -0.00427294 -0.562732  -0.313325 -0.00825816 -0.597594  -0.371836 -0.0136346 -0.632598  -0.429174 -0.0206811 -0.668126  -0.485016 -0.0296761 -0.704792  -0.538932 -0.0407014 -0.743607  0.985035 0.0396172 0.0317598  0.912711 0.0281839 0.00619441  0.842118 0.0191154 -0.0208021  0.772647 0.0122144 -0.0489704  0.703911 0.0072068 -0.0781653  0.635649 0.00378108 -0.108267  0.567681 0.00162929 -0.139163  0.499896 0.000465512 -0.170748  0.432229 2.90871e-05 -0.202911  0.364652 9.64999e-05 -0.235541  0.297161 0.000474751 -0.26852  0.229767 0.00100094 -0.301727  0.16249 0.00153971 -0.335044  0.0953606 0.0019725 -0.368357  0.0284148 0.0021916 -0.401564  -0.0382969 0.00209016 -0.434584  -0.104711 0.00155592 -0.467366  -0.170745 0.000464916 -0.499894  -0.236298 -0.00132394 -0.5322  -0.301251 -0.00397658 -0.564371  -0.365466 -0.00769365 -0.596567  -0.428797 -0.0127241 -0.629029  -0.491072 -0.0193923 -0.662124  -0.552032 -0.0281198 -0.696431  -0.61126 -0.0392562 -0.73298  1.01199 0.0374212 -0.0309502  0.936861 0.0258475 -0.0526816  0.862971 0.0170768 -0.0761516  0.789961 0.0106491 -0.100959  0.717558 0.0061428 -0.12686  0.645547 0.00316036 -0.153658  0.573779 0.00135654 -0.181203  0.50215 0.000434935 -0.209368  0.430596 0.000144541 -0.238036  0.35909 0.000275552 -0.2671  0.287625 0.000654161 -0.296452  0.216211 0.0011366 -0.325987  0.144868 0.0016064 -0.355599  0.0736264 0.0019629 -0.385196  0.0025239 0.00211638 -0.414696  -0.0683885 0.00197744 -0.444037  -0.139046 0.00145197 -0.473187  -0.209366 0.00043577 -0.502148  -0.279248 -0.00119591 -0.530971  -0.348578 -0.00358927 -0.55976  -0.417227 -0.00693196 -0.588685  -0.48507 -0.0114672 -0.61799  -0.551987 -0.0175394 -0.648011  -0.617814 -0.0256876 -0.67924  -0.68215 -0.0366433 -0.712635  1.03081 0.0339289 -0.0957441  0.953223 0.022515 -0.113582  0.876389 0.014368 -0.133334  0.800243 0.0086835 -0.154519  0.724616 0.00486672 -0.176798  0.649339 0.00244039 -0.199914  0.574271 0.00103945 -0.223687  0.499309 0.000378847 -0.247977  0.42439 0.000227928 -0.272674  0.34948 0.000404 -0.297678  0.274567 0.00075978 -0.322899  0.199659 0.00117749 -0.348248  0.124773 0.00156289 -0.373642  0.0499372 0.00183678 -0.39901  -0.0248116 0.00192761 -0.424288  -0.0994249 0.0017668 -0.449435  -0.173839 0.00127882 -0.474435  -0.247976 0.000379562 -0.499308  -0.321739 -0.00103325 -0.524116  -0.395018 -0.00308412 -0.548976  -0.467689 -0.00593901 -0.574067  -0.539638 -0.00981885 -0.599635  -0.610773 -0.0150548 -0.625991  -0.681046 -0.0222192 -0.653492  -0.750133 -0.0324579 -0.682864  1.04149 0.0288892 -0.161521  0.961659 0.0181244 -0.175452  0.882207 0.0110492 -0.191379  0.803357 0.0064224 -0.208749  0.725009 0.00347644 -0.227138  0.647004 0.00169331 -0.246247  0.569192 0.000723958 -0.265874  0.491463 0.000318944 -0.285891  0.413748 0.000286341 -0.306197  0.336006 0.000480235 -0.326714  0.258223 0.000787973 -0.347371  0.180399 0.00112092 -0.368101  0.102548 0.00141096 -0.388846  0.0246948 0.00160003 -0.409552  -0.0531257 0.001638 -0.430179  -0.130871 0.00147486 -0.450702  -0.208483 0.00105649 -0.47112  -0.28589 0.000319242 -0.491462  -0.363005 -0.000813842 -0.511795  -0.439721 -0.00244206 -0.532239  -0.515918 -0.0047006 -0.552974  -0.591468 -0.00777501 -0.574258  -0.666265 -0.0119517 -0.596406  -0.740336 -0.0177162 -0.619664  -0.813532 -0.0264816 -0.644309  1.04409 0.0222433 -0.22724  0.962135 0.0128244 -0.237289  0.880399 0.00736719 -0.249356  0.799338 0.00409263 -0.262776  0.718841 0.00213563 -0.277059  0.638692 0.00102025 -0.291859  0.558728 0.000463367 -0.307012  0.478828 0.000276625 -0.322409  0.398916 0.000322342 -0.337975  0.318945 0.000500202 -0.353654  0.238898 0.000734806 -0.369399  0.15877 0.000969231 -0.385167  0.0785737 0.00116032 -0.400924  -0.00167024 0.00127071 -0.416639  -0.0819342 0.00127143 -0.432287  -0.162179 0.00112969 -0.447859  -0.242357 0.000812054 -0.463362  -0.322408 0.000276506 -0.478827  -0.402257 -0.000528693 -0.494316  -0.481808 -0.00167263 -0.509936  -0.560942 -0.00325322 -0.52585  -0.639515 -0.00540805 -0.542303  -0.717354 -0.00836307 -0.559673  -0.794397 -0.0124323 -0.57832  -0.870709 -0.0189445 -0.597942  1.03868 0.014283 -0.291954  0.954735 0.00712162 -0.29825  0.871139 0.00382221 -0.306426  0.788518 0.00204074 -0.315842  0.70648 0.00104487 -0.32574  0.624787 0.000522316 -0.335948  0.543258 0.000294805 -0.346331  0.46177 0.000254512 -0.356825  0.380248 0.00032413 -0.367379  0.298647 0.000450611 -0.37796  0.216948 0.000594914 -0.388547  0.135145 0.000727475 -0.399121  0.0532483 0.000827312 -0.409667  -0.028725 0.000875771 -0.420173  -0.110753 0.000859439 -0.430631  -0.192804 0.000762463 -0.441041  -0.274844 0.000567853 -0.451412  -0.356824 0.000254214 -0.46177  -0.438687 -0.000206113 -0.472159  -0.520359 -0.000850737 -0.482655  -0.601736 -0.00173509 -0.493376  -0.682676 -0.00293958 -0.504513  -0.762984 -0.00460613 -0.516357  -0.842327 -0.00693077 -0.529834  -0.920676 -0.0107577 -0.544723  1.02505 0.00587624 -0.355328  0.939465 0.00212884 -0.357612  0.855091 0.00116765 -0.362298  0.771659 0.000616789 -0.367243  0.688702 0.000353217 -0.372446  0.605999 0.000229359 -0.377747  0.523404 0.000191867 -0.383097  0.440827 0.000205934 -0.388456  0.358211 0.000247359 -0.393804  0.275525 0.000301003 -0.39913  0.192754 0.000354946 -0.404429  0.109895 0.000400364 -0.409701  0.0269526 0.000431597 -0.414944  -0.0560604 0.000442922 -0.42016  -0.139128 0.000430465 -0.425351  -0.222232 0.000390589 -0.43052  -0.30535 0.000317454 -0.435674  -0.388455 0.000205755 -0.440826  -0.471513 4.63724e-05 -0.445998  -0.554479 -0.000171483 -0.451225  -0.637287 -0.000463724 -0.456561  -0.719837 -0.000860572 -0.462102  -0.801977 -0.00139153 -0.468008  -0.883447 -0.00216925 -0.474652  -0.963455 -0.00363064 -0.484976  1 0 -0.416666  0.916667 0 -0.416666  0.833333 0 -0.416666  0.75 0 -0.416666  0.666667 0 -0.416666  0.583333 0 -0.416666  0.5 0 -0.416666  0.416667 0 -0.416666  0.333333 0 -0.416666  0.25 0 -0.416666  0.166667 0 -0.416666  0.0833333 0 -0.416666  0 0 -0.416666  -0.0833334 0 -0.416666  -0.166667 0 -0.416666  -0.25 0 -0.416666  -0.333333 0 -0.416666  -0.416667 0 -0.416666  -0.5 0 -0.416666  -0.583333 0 -0.416666  -0.666667 0 -0.416666  -0.75 0 -0.416666  -0.833333 0 -0.416666  -0.916667 0 -0.416666  -1 0 -0.416666  0 0 0  -1.11759e-08 0 0  7.45058e-09 0 0  0 0 0  1.49012e-08 0 0  0 0 0  0 0 0  0 0 0  0 0 0  0 0 0  0 0 0  0 0 0  0 0 0  0 0 0  0 0 0  0 0 0  0 0 0  0 0 0  0 0 0  0 0 0  0 0 0  0 0 0  0 0 0  0 0 0  0 0 0  0.0443507 0.00470094 0.0650244  0.0397215 0.00258286 0.0554509  0.0373544 0.00169238 0.0493177  0.0358275 0.00104848 0.0437544  0.0348574 0.000581097 0.0385154  0.034237 0.000238873 0.0334284  0.0338363 -1.23903e-05 0.028408  0.0335686 -0.000192039 0.0234027  0.0333724 -0.000313979 0.018385  0.0332 -0.000389069 0.0133357  0.0330142 -0.000424169 0.00824839  0.0327828 -0.000425059 0.00311774  0.0324792 -0.000396863 -0.00205284  0.0320808 -0.000344414 -0.00726587  0.0315703 -0.000273868 -0.0125198  0.030938 -0.000193488 -0.0178112  0.0301857 -0.000112925 -0.0231374  0.0293295 -4.65885e-05 -0.028486  0.0284065 -1.25244e-05 -0.033837  0.0274792 -3.62657e-05 -0.0391575  0.0266467 -0.000154737 -0.0443901  0.0260611 -0.000425201 -0.0494474  0.0259402 -0.000995278 -0.054121  0.026734 -0.00198978 -0.0582426  0.0284597 -0.00575181 -0.0590026  0.0935486 0.0137911 0.122386  0.086778 0.00846084 0.108558  0.0818809 0.00552341 0.0958511  0.0783167 0.00347923 0.0846038  0.0756112 0.00202575 0.0739335  0.0734999 0.000976495 0.0635958  0.0717866 0.000226192 0.0534066  0.0703326 -0.000294909 0.0432571  0.0690356 -0.000634715 0.0330812  0.067816 -0.000829011 0.0228411  0.0666122 -0.000902809 0.0125178  0.0653736 -0.000876561 0.00210983  0.0640586 -0.000768661 -0.00837368  0.0626333 -0.000596516 -0.0189217  0.0610715 -0.000381805 -0.029514  0.059357 -0.000151813 -0.0401301  0.0574905 5.93662e-05 -0.0507408  0.0554913 0.000205897 -0.0613106  0.0534048 0.000225581 -0.0717884  0.0513133 3.58224e-05 -0.0821009  0.049341 -0.000480339 -0.0921435  0.0476661 -0.00151001 -0.101727  0.0465094 -0.00336991 -0.110571  0.0462003 -0.00677983 -0.117656  0.0458422 -0.0141019 -0.122184  0.149334 0.0235659 0.173493  0.14018 0.0150619 0.15485  0.13273 0.00987536 0.137133  0.126542 0.00623466 0.120504  0.121381 0.00363137 0.104646  0.116976 0.0017605 0.0892023  0.113121 0.000437543 0.0739467  0.109652 -0.000463165 0.0587265  0.106441 -0.00103006 0.0434482  0.103385 -0.00133023 0.02806  0.100404 -0.00141294 0.0125412  0.0974338 -0.00131951 -0.0031054  0.0944209 -0.00108826 -0.018858  0.0913244 -0.000756241 -0.0346819  0.0881118 -0.000366934 -0.050536  0.0847616 2.54065e-05 -0.06637  0.0812684 0.000352904 -0.082128  0.0776491 0.000528261 -0.0977407  0.0739459 0.000436559 -0.113122  0.070235 -7.24643e-05 -0.12816  0.066632 -0.00120228 -0.142695  0.0632878 -0.00324964 -0.156483  0.060386 -0.00669525 -0.169058  0.0579596 -0.0124089 -0.179774  0.0553337 -0.0221788 -0.18789  0.212006 0.0318695 0.217344  0.199414 0.0210407 0.193626  0.188729 0.0138474 0.171375  0.179349 0.00873823 0.150078  0.171081 0.00504543 0.129485  0.163698 0.00239035 0.109289  0.156993 0.000525236 0.0892454  0.150792 -0.000723824 0.0691912  0.14495 -0.0014839 0.0490218  0.139349 -0.00185362 0.0286817  0.133895 -0.0019092 0.00815797  0.128511 -0.00171593 -0.0125338  0.123137 -0.00133583 -0.0333538  0.117725 -0.000829071 -0.0542452  0.112237 -0.000265852 -0.0751387  0.106646 0.000270173 -0.095956  0.100939 0.000673503 -0.116608  0.0951276 0.00081341 -0.136991  0.0892442 0.00052397 -0.156991  0.0833532 -0.000405282 -0.176458  0.0775536 -0.00224447 -0.1952  0.0719765 -0.00535977 -0.212937  0.0667453 -0.0102803 -0.229267  0.0618762 -0.0177827 -0.243659  0.0569859 -0.029104 -0.255506  0.280253 0.0378561 0.252623  0.263419 0.0257543 0.224332  0.248731 0.0170689 0.197933  0.23556 0.0107589 0.172531  0.223617 0.00614673 0.147732  0.212676 0.00282066 0.123235  0.202525 0.000495046 0.0988011  0.19298 -0.00103921 0.0742708  0.183883 -0.00194231 0.0495444  0.175104 -0.00234151 0.024578  0.166542 -0.0023399 -0.000629008  0.15811 -0.0020279 -0.0260444  0.149743 -0.00149186 -0.0516055  0.14139 -0.00081633 -0.0772302  0.133008 -9.875e-05 -0.10282  0.124567 0.000547141 -0.128268  0.116046 0.000981063 -0.153457  0.107449 0.00103268 -0.178256  0.0988003 0.000493601 -0.202523  0.090154 -0.000889823 -0.22609  0.0816023 -0.00342746 -0.248752  0.073266 -0.00750445 -0.270251  0.0652784 -0.0136114 -0.290242  0.0577377 -0.022351 -0.308301  0.0505692 -0.0345209 -0.323907  0.35218 0.041607 0.27835  0.330684 0.0290534 0.246334  0.311493 0.0194433 0.216364  0.29404 0.012254 0.187412  0.277955 0.00693181 0.158958  0.262975 0.00307694 0.130672  0.248877 0.000391155 0.10233  0.235462 -0.0013562 0.0737792  0.222564 -0.00235043 0.0449353  0.210046 -0.00274415 0.0157723  0.197799 -0.00266476 -0.0136919  0.185737 -0.00222841 -0.0434  0.17379 -0.00154313 -0.0732678  0.161908 -0.000718325 -0.103186  0.150047 0.000124007 -0.133031  0.13817 0.000841796 -0.16267  0.126258 0.00126627 -0.191957  0.114306 0.00119507 -0.220745  0.10233 0.000389725 -0.248874  0.0903873 -0.00142881 -0.276171  0.0785694 -0.00458257 -0.30244  0.0670143 -0.00943778 -0.327456  0.0559018 -0.0164056 -0.350944  0.0454516 -0.0259127 -0.372583  0.0358852 -0.0384212 -0.391929  0.426096 0.0436344 0.294046  0.399723 0.0311064 0.259221  0.37575 0.021036 0.226369  0.353676 0.0132757 0.194468  0.333091 0.00744924 0.16294  0.313691 0.00320804 0.131433  0.295231 0.000261575 0.0997241  0.277503 -0.00162986 0.0676807  0.260334 -0.00266871 0.0352397  0.243584 -0.00302985 0.00239712  0.227143 -0.00286207 -0.0308069  0.210928 -0.00230458 -0.0642896  0.194874 -0.00148597 -0.0979419  0.178928 -0.00053823 -0.131631  0.16305 0.000395417 -0.165209  0.147205 0.00114945 -0.19852  0.131368 0.0015336 -0.231403  0.115534 0.00132242 -0.263694  0.0997236 0.000260532 -0.295228  0.0839946 -0.00194097 -0.325836  0.0684547 -0.00559595 -0.355342  0.0532715 -0.011031 -0.383566  0.0386896 -0.0185702 -0.410311  0.025052 -0.0284919 -0.435357  0.0128421 -0.0410077 -0.458375  0.5006 0.0445224 0.299599  0.469216 0.0322201 0.262834  0.44031 0.0219967 0.227821  0.4134 0.0139148 0.193615  0.388056 0.00776297 0.159625  0.363938 0.00326169 0.125495  0.340784 0.000143617 0.0910136  0.318377 -0.00183135 0.0560669  0.296543 -0.00287718 0.0206153  0.275144 -0.00318605 -0.0153201  0.254075 -0.00292677 -0.0516733  0.233258 -0.00225759 -0.0883383  0.212634 -0.0013265 -0.125182  0.192159 -0.000284165 -0.16205  0.171795 0.000708163 -0.198775  0.151511 0.00146821 -0.235181  0.131282 0.00179049 -0.271099  0.111107 0.00143579 -0.306354  0.0910141 0.000143021 -0.340782  0.0710717 -0.00237533 -0.374227  0.0514118 -0.00641245 -0.406541  0.0322367 -0.0122508 -0.437596  0.0138503 -0.0201365 -0.467278  -0.00329715 -0.0302346 -0.495478  -0.0185238 -0.0425771 -0.522026  0.574473 0.0447553 0.295117  0.537994 0.0327138 0.257225  0.504072 0.0225003 0.220776  0.472194 0.0142698 0.184926  0.441909 0.00793129 0.149109  0.412855 0.00327373 0.112983  0.384754 5.8502e-05 0.0763547  0.357384 -0.00194979 0.0391346  0.330571 -0.00297317 0.0013079  0.304186 -0.00321651 -0.0370794  0.278132 -0.00286719 -0.0759361  0.252344 -0.00209936 -0.115134  0.226772 -0.00107807 -0.154518  0.201381 3.08454e-05 -0.193916  0.176139 0.00105265 -0.233144  0.151019 0.00179446 -0.272018  0.126005 0.00204113 -0.310358  0.101104 0.00154907 -0.347987  0.0763544 5.79953e-05 -0.384751  0.0518434 -0.00270981 -0.420507  0.0277232 -0.00702396 -0.455146  0.00423473 -0.0131276 -0.488591  -0.0182706 -0.0212046 -0.520815  -0.0392743 -0.0313401 -0.551829  -0.0579674 -0.0434444 -0.581645  0.646563 0.0446765 0.280866  0.60496 0.0328479 0.24261  0.565993 0.0227012 0.205439  0.529082 0.0144246 0.168611  0.493746 0.00799736 0.131612  0.459613 0.00326407 0.0941347  0.426386 1.15335e-05 0.0560111  0.393844 -0.0019888 0.0171769  0.361823 -0.0029664 -0.0223534  0.330203 -0.00313565 -0.0625118  0.298899 -0.00270033 -0.103183  0.267859 -0.00184834 -0.144219  0.237047 -0.000759333 -0.185448  0.206439 0.000390321 -0.226684  0.176013 0.00141606 -0.267733  0.14575 0.00212076 -0.308404  0.115645 0.00228402 -0.348512  0.0857145 0.00166634 -0.387887  0.0560128 1.09673e-05 -0.426383  0.0266458 -0.00294569 -0.46388  -0.00220942 -0.00745279 -0.500306  -0.0302865 -0.0137236 -0.535641  -0.057199 -0.0218976 -0.569939  -0.0823962 -0.0320061 -0.603335  -0.105026 -0.04389 -0.636028  0.715741 0.0444932 0.257227  0.669058 0.0327948 0.219343  0.625075 0.0227103 0.182148  0.583128 0.0144365 0.145007  0.542707 0.00798613 0.107481  0.503417 0.00323781 0.0693051  0.464964 -3.21865e-06 0.0303489  0.427129 -0.00196236 -0.00942039  0.389754 -0.00287417 -0.0499629  0.352737 -0.00296366 -0.091186  0.316008 -0.00244847 -0.132954  0.27953 -0.00152764 -0.175105  0.243284 -0.00039199 -0.217453  0.207255 0.000774384 -0.259803  0.171433 0.00178251 -0.301957  0.13581 0.00243512 -0.343722  0.100395 0.00251243 -0.384913  0.0652173 0.00178283 -0.425371  0.0303504 -4.52995e-06 -0.464961  -0.00408071 -0.00309807 -0.503591  -0.0378807 -0.00773409 -0.541222  -0.0707638 -0.0141058 -0.577892  -0.102334 -0.0223288 -0.613736  -0.132026 -0.0324005 -0.648998  -0.159022 -0.0441297 -0.684053  0.780899 0.0443071 0.224733  0.729272 0.0326426 0.187926  0.680372 0.0225847 0.151379  0.633453 0.0143319 0.114575  0.587971 0.00790232 0.0771649  0.543525 0.00318766 0.0389423  0.499821 5.96046e-08 -0.000179648  0.456649 -0.00188795 -0.0401987  0.413867 -0.00271699 -0.0810484  0.371385 -0.00272295 -0.122616  0.329154 -0.00213531 -0.164749  0.287153 -0.00116202 -0.207274  0.245375 -2.38419e-07 -0.249998  0.203821 0.00116098 -0.292722  0.162488 0.00213313 -0.335246  0.121384 0.00272191 -0.37738  0.0805346 0.0027138 -0.418947  0.0399843 0.00188673 -0.459798  -0.000175655 -1.66893e-06 -0.499817  -0.0398045 -0.00318846 -0.53894  -0.0786905 -0.00790274 -0.577163  -0.116541 -0.0143317 -0.614574  -0.152955 -0.0225844 -0.651378  -0.187388 -0.0326434 -0.687925  -0.219093 -0.0443079 -0.72473  0.840971 0.0441284 0.184056  0.784635 0.0324 0.149001  0.730997 0.0223287 0.113737  0.679233 0.0141061 0.0778938  0.628781 0.00773364 0.041225  0.57925 0.00309741 0.00359386  0.530348 3.15905e-06 -0.0350349  0.481883 -0.00178403 -0.074624  0.433728 -0.0025149 -0.115081  0.385812 -0.0024361 -0.156273  0.338101 -0.0017845 -0.198037  0.29059 -0.000775516 -0.240191  0.243286 0.000391126 -0.282543  0.196198 0.00152653 -0.324891  0.149342 0.0024457 -0.367041  0.102737 0.00296187 -0.40881  0.0564223 0.0028711 -0.450033  0.0104652 0.00196099 -0.490577  -0.0350307 1.2517e-06 -0.530346  -0.0799114 -0.00323856 -0.569303  -0.123954 -0.00798619 -0.607479  -0.166864 -0.0144362 -0.645005  -0.208252 -0.0227097 -0.682146  -0.247601 -0.0327953 -0.719341  -0.284251 -0.044493 -0.757226  0.894969 0.0438884 0.136031  0.834267 0.0320056 0.103338  0.776133 0.0218972 0.0699414  0.719712 0.013724 0.0356432  0.664456 0.00745291 0.000309944  0.609977 0.00294513 -0.0361146  0.556011 -1.19209e-05 -0.0736122  0.502381 -0.00166768 -0.112108  0.448979 -0.00228554 -0.151483  0.395751 -0.00212169 -0.191591  0.342682 -0.00141788 -0.232261  0.289775 -0.000391424 -0.273311  0.237049 0.000757992 -0.314547  0.184526 0.00184667 -0.355776  0.132233 0.00269735 -0.396811  0.0802045 0.00313371 -0.437484  0.0284933 0.00296402 -0.477643  -0.0228172 0.0019874 -0.517175  -0.0736087 -1.38283e-05 -0.556009  -0.123716 -0.00326461 -0.594135  -0.172914 -0.00799745 -0.631612  -0.220913 -0.0144247 -0.668609  -0.267333 -0.0227013 -0.705437  -0.3117 -0.0328474 -0.742608  -0.353429 -0.0446755 -0.780864  0.94203 0.0434438 0.0816494  0.877391 0.0313399 0.0518325  0.815061 0.0212038 0.0208192  0.754234 0.0131284 -0.0114061  0.694389 0.00702387 -0.0448502  0.635176 0.00270915 -0.0794875  0.576354 -5.87702e-05 -0.115244  0.517771 -0.00155067 -0.152007  0.459341 -0.00204176 -0.189638  0.40102 -0.00179583 -0.227977  0.342806 -0.00105345 -0.266852  0.284715 -3.24249e-05 -0.306079  0.226774 0.0010767 -0.345477  0.169012 0.00209695 -0.384861  0.111468 0.00286466 -0.424058  0.054188 0.00321472 -0.462916  -0.00276011 0.00297171 -0.501304  -0.0592807 0.00194812 -0.539131  -0.11524 -6.07371e-05 -0.576352  -0.170472 -0.00327438 -0.612982  -0.224752 -0.00793099 -0.649109  -0.277799 -0.0142703 -0.684926  -0.329254 -0.0225007 -0.720777  -0.378665 -0.0327135 -0.757226  -0.425518 -0.0447549 -0.795119  0.981474 0.0425763 0.0220293  0.913367 0.030234 -0.00451744  0.847182 0.020135 -0.0327173  0.782235 0.0122509 -0.0624008  0.718077 0.00641173 -0.0934552  0.654405 0.00237459 -0.12577  0.591014 -0.000143528 -0.159215  0.527773 -0.0014376 -0.193642  0.464616 -0.00179076 -0.228898  0.401511 -0.00146937 -0.264814  0.338463 -0.000708461 -0.301222  0.275494 0.000282466 -0.337945  0.212635 0.00132495 -0.374813  0.149926 0.00225514 -0.411657  0.0874102 0.00292504 -0.448323  0.0251463 0.00318426 -0.484676  -0.0367879 0.00287658 -0.520612  -0.0982867 0.0018298 -0.556063  -0.159211 -0.000145435 -0.591012  -0.219389 -0.00326228 -0.625494  -0.278605 -0.00776237 -0.659626  -0.336592 -0.0139151 -0.693616  -0.393015 -0.021997 -0.727821  -0.447443 -0.0322194 -0.762834  -0.499392 -0.0445215 -0.7996  1.01284 0.0410067 -0.0416198  0.941717 0.0284903 -0.0646392  0.872022 0.0185692 -0.0896854  0.803271 0.0110306 -0.11643  0.73512 0.00559509 -0.144653  0.667329 0.00194031 -0.17416  0.599724 -0.000260949 -0.204768  0.532202 -0.00132364 -0.236302  0.464701 -0.00153363 -0.268593  0.397205 -0.00114995 -0.301476  0.329718 -0.000395834 -0.334788  0.262263 0.000536323 -0.368366  0.194874 0.00148439 -0.402056  0.127595 0.00230241 -0.435708  0.0604768 0.00286078 -0.469191  -0.00641567 0.00302827 -0.502395  -0.0729984 0.00266886 -0.535239  -0.139161 0.00162882 -0.567679  -0.204765 -0.00026226 -0.599723  -0.269637 -0.00320816 -0.631432  -0.333571 -0.00744855 -0.66294  -0.396317 -0.0132755 -0.694468  -0.457577 -0.0210355 -0.726367  -0.516939 -0.0311051 -0.75922  -0.573899 -0.0436335 -0.794046  1.03589 0.038421 -0.108065  0.962117 0.0259125 -0.127409  0.889235 0.0164057 -0.14905  0.817013 0.00943768 -0.172538  0.745237 0.00458181 -0.197554  0.673721 0.00142825 -0.223824  0.602332 -0.00039041 -0.251122  0.530973 -0.00119573 -0.279251  0.459592 -0.00126612 -0.308039  0.388171 -0.000842094 -0.337327  0.316714 -0.000124931 -0.366965  0.245244 0.000716686 -0.396811  0.173792 0.00154138 -0.426729  0.102405 0.00222671 -0.456595  0.0311338 0.00266355 -0.486305  -0.039952 0.0027433 -0.515769  -0.110767 0.00235087 -0.544934  -0.181201 0.00135601 -0.573778  -0.251119 -0.000390768 -0.602329  -0.320354 -0.00307679 -0.630672  -0.388708 -0.00693071 -0.658957  -0.455955 -0.0122538 -0.687411  -0.521835 -0.0194424 -0.716364  -0.585977 -0.0290521 -0.746333  -0.647814 -0.0416062 -0.77835  1.05057 0.0345199 -0.176085  0.974404 0.0223508 -0.191693  0.898611 0.0136114 -0.209753  0.823266 0.00750417 -0.229744  0.748269 0.00342667 -0.251243  0.673488 0.000889301 -0.273906  0.598802 -0.000494301 -0.297475  0.524118 -0.00103325 -0.32174  0.449381 -0.000981271 -0.34654  0.374567 -0.000547409 -0.371729  0.299676 9.7692e-05 -0.397177  0.224725 0.000815392 -0.422768  0.149745 0.00149024 -0.448392  0.0747783 0.00202686 -0.473952  -0.00012362 0.00233883 -0.499368  -0.0748937 0.00234115 -0.524576  -0.149449 0.00194317 -0.549543  -0.223684 0.00103986 -0.57427  -0.297472 -0.000494123 -0.5988  -0.370654 -0.00282025 -0.623233  -0.443047 -0.00614536 -0.647732  -0.514435 -0.0107588 -0.672531  -0.584597 -0.017068 -0.697933  -0.653244 -0.0257533 -0.724331  -0.719743 -0.0378556 -0.752623  1.05699 0.0291031 -0.24449  0.978542 0.0177822 -0.256337  0.900077 0.0102803 -0.270728  0.821976 0.00535947 -0.287059  0.74422 0.00224411 -0.304796  0.666688 0.000404596 -0.323539  0.589246 -0.000524342 -0.343007  0.511796 -0.000813842 -0.363006  0.434274 -0.000674307 -0.383389  0.356645 -0.000270069 -0.40404  0.278904 0.000265121 -0.424858  0.20106 0.000828683 -0.445752  0.12314 0.00133497 -0.466644  0.0451804 0.00171512 -0.487464  -0.0327697 0.00190866 -0.508156  -0.110649 0.00185388 -0.528679  -0.188382 0.00148529 -0.549019  -0.265873 0.000724912 -0.56919  -0.343006 -0.000524044 -0.589245  -0.419633 -0.00238973 -0.609288  -0.495583 -0.00504434 -0.629485  -0.570647 -0.0087381 -0.650078  -0.644601 -0.0138465 -0.671375  -0.717249 -0.0210401 -0.693625  -0.78799 -0.0318691 -0.717344  1.05533 0.0221782 -0.312105  0.974626 0.0124089 -0.32022  0.89372 0.00669539 -0.330938  0.813289 0.00324911 -0.343514  0.7333 0.00120205 -0.357304  0.653569 7.17044e-05 -0.371839  0.573947 -0.000436723 -0.386878  0.494316 -0.000528157 -0.402258  0.414603 -0.000353873 -0.417868  0.334762 -2.51532e-05 -0.433626  0.25478 0.000366867 -0.449462  0.17466 0.000756264 -0.465316  0.0944242 0.00108796 -0.48114  0.0141042 0.00131893 -0.496892  -0.0662588 0.00141269 -0.512538  -0.146612 0.00133079 -0.528058  -0.226889 0.00103158 -0.543448  -0.307011 0.000464141 -0.558726  -0.386876 -0.000436664 -0.573946  -0.466355 -0.00175983 -0.589202  -0.545283 -0.00363064 -0.604646  -0.623455 -0.00623429 -0.620504  -0.700601 -0.00987476 -0.637133  -0.776484 -0.0150621 -0.654852  -0.850664 -0.0235662 -0.673494  1.04584 0.0141018 -0.377812  0.962867 0.00678003 -0.382341  0.879844 0.00336993 -0.389426  0.797669 0.00150937 -0.39827  0.71601 0.000480235 -0.407853  0.63465 -3.65973e-05 -0.417898  0.553408 -0.000225723 -0.428211  0.472161 -0.000205576 -0.438688  0.390827 -5.99027e-05 -0.449257  0.30936 0.000152051 -0.459868  0.227741 0.000382066 -0.470483  0.14597 0.000596881 -0.481075  0.0640628 0.000768602 -0.491623  -0.0179551 0.000876129 -0.502108  -0.100051 0.000902653 -0.512515  -0.182181 0.000829577 -0.522839  -0.264295 0.000635505 -0.53308  -0.346331 0.000295401 -0.543258  -0.42821 -0.000225902 -0.553407  -0.509831 -0.000975788 -0.563595  -0.591053 -0.0020256 -0.573933  -0.671682 -0.00347877 -0.584604  -0.751451 -0.0055235 -0.595851  -0.829886 -0.008461 -0.608559  -0.906449 -0.0137914 -0.622387  1.02846 0.00575173 -0.440994  0.943401 0.0019902 -0.441756  0.859274 0.0009951 -0.445876  0.776062 0.000424802 -0.450549  0.693315 0.000154734 -0.45561  0.610815 3.58224e-05 -0.460842  0.528409 1.25766e-05 -0.466163  0.445999 4.66704e-05 -0.471514  0.363522 0.000112951 -0.476862  0.28094 0.000193536 -0.482187  0.198239 0.000274062 -0.487478  0.115416 0.000344634 -0.492733  0.0324803 0.000396967 -0.497946  -0.0505494 0.000424862 -0.503117  -0.133651 0.000424206 -0.508247  -0.216798 0.000389159 -0.513335  -0.299959 0.000314295 -0.518385  -0.383096 0.000192046 -0.523403  -0.466162 1.25766e-05 -0.528408  -0.549095 -0.000238597 -0.533428  -0.631809 -0.000581026 -0.538514  -0.714172 -0.00104839 -0.543755  -0.795978 -0.00169235 -0.549316  -0.876945 -0.00258297 -0.55545  -0.955649 -0.0047009 -0.565025  1 0 -0.499999  0.916667 0 -0.499999  0.833333 0 -0.499999  0.75 0 -0.499999  0.666667 0 -0.499999  0.583333 0 -0.499999  0.5 0 -0.499999  0.416667 0 -0.499999  0.333333 0 -0.499999  0.25 0 -0.499999  0.166667 0 -0.499999  0.0833333 0 -0.499999  0 0 -0.499999  -0.0833334 0 -0.499999  -0.166667 0 -0.499999  -0.25 0 -0.499999  -0.333333 0 -0.499999  -0.416667 0 -0.499999  -0.5 0 -0.499999  -0.583333 0 -0.499999  -0.666667 0 -0.499999  -0.75 0 -0.499999  -0.833333 0 -0.499999  -0.916667 0 -0.499999  -1 0 -0.499999  0 0 0  -1.11759e-08 0 0  7.45058e-09 0 0  0 0 0  1.49012e-08 0 0  0 0 0  0 0 0  0 0 0  0 0 0  0 0 0  0 0 0  0 0 0  0 0 0  0 0 0  0 0 0  0 0 0  0 0 0  0 0 0  0 0 0  0 0 0  0 0 0  0 0 0  0 0 0  0 0 0  0 0 0  0.051969 0.00563311 0.0609295  0.0460776 0.00287697 0.0525302  0.0432675 0.00190107 0.04705  0.0414194 0.00115428 0.0419251  0.0402756 0.000626873 0.0370539  0.0395727 0.000241742 0.0322621  0.0391567 -3.58671e-05 0.0274804  0.038918 -0.000229266 0.0226647  0.038777 -0.000354715 0.0177939  0.0386719 -0.000424054 0.012857  0.0385527 -0.000445321 0.00785369  0.038376 -0.000425078 0.00278211  0.0381055 -0.000368986 -0.00235176  0.0377101 -0.000282638 -0.00754869  0.0371644 -0.000174709 -0.0128039  0.0364549 -5.35175e-05 -0.0181133  0.0355797 6.70403e-05 -0.023469  0.0345569 0.0001713 -0.0288537  0.0334275 0.000238512 -0.0342375  0.0322618 0.000241753 -0.039574  0.0311668 0.000141121 -0.0447837  0.0303025 -0.000119895 -0.0497447  0.0298784 -0.00068593 -0.0541877  0.0303092 -0.00167304 -0.0577611  0.0313611 -0.00531003 -0.0570133  0.107403 0.0164945 0.115628  0.0987495 0.00964982 0.103137  0.0930262 0.00612575 0.0915039  0.0889857 0.00373474 0.0810426  0.0860245 0.00205961 0.0709789  0.0838108 0.0008692 0.0611256  0.0821001 3.66941e-05 0.0513149  0.0807175 -0.000521958 0.0414532  0.079533 -0.000863679 0.0314874  0.0784447 -0.0010297 0.0213901  0.0773719 -0.00104956 0.0111533  0.0762473 -0.000947401 0.000784993  0.0750154 -0.000742771 -0.0096994  0.0736272 -0.00045798 -0.0202808  0.0720449 -0.000119336 -0.0309333  0.070245 0.000242002 -0.0416278  0.06822 0.000582919 -0.0523242  0.0659873 0.000850208 -0.0629716  0.0635941 0.00097546 -0.0735008  0.0611243 0.000868671 -0.0838119  0.0587031 0.000405401 -0.0937597  0.0565035 -0.000602283 -0.103094  0.0547203 -0.00246722 -0.111418  0.0536159 -0.00586424 -0.11747  0.0520661 -0.0131328 -0.120305  0.168781 0.0274512 0.164494  0.157321 0.0170517 0.147021  0.148734 0.0107765 0.130532  0.14195 0.00649987 0.114902  0.136493 0.00349793 0.099842  0.131986 0.00138372 0.0850188  0.12816 -7.13542e-05 0.0702354  0.124806 -0.00101941 0.0553575  0.121761 -0.00156772 0.0403083  0.118896 -0.00179362 0.0250516  0.116107 -0.00175626 0.00958169  0.113309 -0.00150529 -0.0060845  0.110433 -0.0010815 -0.0219133  0.107419 -0.000532351 -0.0378566  0.10422 9.08524e-05 -0.0538606  0.100801 0.000723347 -0.06986  0.0971482 0.00128448 -0.0857787  0.0932686 0.00167203 -0.101523  0.0892015 0.00175893 -0.116976  0.0850189 0.00138268 -0.131986  0.0808277 0.000327408 -0.146335  0.0767637 -0.00170796 -0.159701  0.0729796 -0.00519454 -0.171507  0.0694374 -0.0109798 -0.180961  0.065298 -0.0208363 -0.187255  0.236611 0.0359386 0.205717  0.221457 0.0233152 0.183153  0.209332 0.0147931 0.162185  0.199204 0.00883329 0.14201  0.190588 0.00460097 0.122338  0.183105 0.00162357 0.102862  0.17646 -0.000403747 0.0833539  0.17042 -0.00169235 0.0636708  0.164798 -0.0023953 0.0437263  0.159444 -0.00262786 0.0234849  0.154237 -0.00248194 0.00295365  0.149079 -0.00203498 -0.0178346  0.14389 -0.00135604 -0.0388215  0.138602 -0.000520125 -0.0599314  0.13316 0.000390381 -0.0810747  0.127519 0.00127415 -0.10215  0.121657 0.00200811 -0.123039  0.115572 0.00244159 -0.143608  0.109287 0.00238878 -0.163695  0.10286 0.0016222 -0.183104  0.0963798 -0.000144199 -0.201573  0.0899584 -0.00328529 -0.218746  0.0836868 -0.0083266 -0.234125  0.0775177 -0.0160317 -0.247086  0.0709598 -0.0276079 -0.256982  0.309205 0.0413759 0.237636  0.289841 0.0277904 0.21072  0.273561 0.0177833 0.185697  0.259526 0.0105307 0.161516  0.247189 0.00530067 0.137724  0.236151 0.00160787 0.114012  0.226092 -0.000888094 0.0901543  0.216752 -0.00243951 0.0660056  0.207925 -0.00323619 0.0414868  0.199443 -0.00342809 0.0165758  0.191174 -0.00313923 -0.00870508  0.183009 -0.00247581 -0.0342985  0.174863 -0.0015361 -0.0601206  0.166661 -0.000425488 -0.0860615  0.158346 0.000742778 -0.111998  0.149868 0.00183113 -0.13779  0.141192 0.00267594 -0.163285  0.13231 0.0030836 -0.188311  0.123235 0.00281881 -0.212674  0.114013 0.00160626 -0.23615  0.104727 -0.000882521 -0.258466  0.0954824 -0.00504607 -0.279285  0.0863863 -0.0113761 -0.29818  0.077485 -0.0204607 -0.314661  0.0686147 -0.0330589 -0.328184  0.384555 0.0442862 0.259328  0.360765 0.0305325 0.229015  0.340024 0.0197322 0.200578  0.321689 0.0116102 0.172952  0.305204 0.00565141 0.14558  0.290146 0.00141928 0.118131  0.276174 -0.00142716 0.090387  0.263008 -0.00315958 0.0622146  0.250422 -0.00399505 0.0335496  0.23824 -0.00411235 0.00439137  0.22632 -0.00366427 -0.025215  0.214551 -0.00278564 -0.0551838  0.202845 -0.00160275 -0.085403  0.191127 -0.000250027 -0.115729  0.179338 0.00112948 -0.146006  0.167424 0.00236619 -0.176061  0.155349 0.00326201 -0.205707  0.143096 0.00358883 -0.234749  0.130674 0.00307488 -0.262973  0.118132 0.00141734 -0.290144  0.105559 -0.00172655 -0.315999  0.0930836 -0.00673863 -0.340234  0.0808664 -0.0140319 -0.362503  0.0690877 -0.0240159 -0.382426  0.0578779 -0.0371156 -0.399546  0.461067 0.0454864 0.270501  0.43272 0.0319305 0.237711  0.407375 0.0208195 0.206571  0.3845 0.0121908 0.176106  0.363565 0.00574982 0.145729  0.344129 0.00114563 0.115095  0.325839 -0.00193942 0.0839948  0.3084 -0.00378007 0.0523161  0.291578 -0.00461063 0.0200185  0.275192 -0.0046325 -0.0128738  0.259097 -0.00402376 -0.046289  0.243187 -0.00294548 -0.0801116  0.227373 -0.00155053 -0.114198  0.211588 1.2219e-06 -0.148375  0.195773 0.00154012 -0.182456  0.179876 0.00286999 -0.21624  0.163859 0.00376695 -0.249518  0.147707 0.00397578 -0.282075  0.131432 0.00320634 -0.313689  0.115095 0.00114354 -0.344127  0.0988027 -0.00254631 -0.373149  0.0827261 -0.00820607 -0.4005  0.0671003 -0.0161598 -0.425917  0.0522386 -0.0266702 -0.449121  0.038527 -0.0399198 -0.469759  0.537437 0.0456945 0.271203  0.504428 0.0324388 0.236762  0.474402 0.0212881 0.203633  0.446845 0.0124155 0.170962  0.421245 0.00569054 0.138181  0.397161 0.000854671 0.104948  0.374229 -0.0023739 0.0710723  0.352152 -0.0042628 0.0364645  0.330695 -0.00505581 0.00111383  0.309675 -0.00497159 -0.0349295  0.288956 -0.00421023 -0.071562  0.268437 -0.00295651 -0.10864  0.248041 -0.00138617 -0.14599  0.227706 0.000318706 -0.183412  0.207378 0.00196588 -0.220693  0.187016 0.00334054 -0.257611  0.166581 0.00419933 -0.293941  0.146065 0.00427139 -0.329457  0.125496 0.0032607 -0.363936  0.104947 0.000853032 -0.397159  0.0845618 -0.00326365 -0.428916  0.0645552 -0.00938532 -0.459012  0.045233 -0.0177577 -0.487266  0.0270222 -0.0285326 -0.51351  0.0105098 -0.0417228 -0.537522  0.612501 0.0454239 0.261672  0.574761 0.0324427 0.226332  0.540001 0.0213676 0.19191  0.507671 0.0124121 0.157673  0.477261 0.0055466 0.123102  0.44833 0.000587493 0.087881  0.420511 -0.00270882 0.051844  0.393509 -0.00459847 0.0149287  0.367094 -0.00533012 -0.0228462  0.341094 -0.00513652 -0.0613996  0.315382 -0.0042358 -0.1006  0.28987 -0.00283387 -0.140276  0.264496 -0.00112617 -0.180226  0.23921 0.000687063 -0.220229  0.213969 0.00239724 -0.260052  0.188734 0.00377592 -0.299458  0.163484 0.00456882 -0.338211  0.138218 0.00449938 -0.376081  0.112983 0.00327295 -0.412853  0.0878808 0.00058639 -0.448327  0.0630835 -0.00384787 -0.482334  0.0388539 -0.0102819 -0.514738  0.015556 -0.0189 -0.545446  -0.00630385 -0.029777 -0.574403  -0.0259967 -0.0428103 -0.60154  0.685125 0.0449907 0.242263  0.642639 0.0322082 0.206726  0.60313 0.0212297 0.171685  0.565984 0.0122746 0.136522  0.530676 0.00536218 0.100786  0.496764 0.000359803 0.0642056  0.463884 -0.00294533 0.0266445  0.431747 -0.00479782 -0.0119276  0.400138 -0.00545046 -0.0514594  0.368895 -0.00514758 -0.0918417  0.337911 -0.00412339 -0.132915  0.307114 -0.00260067 -0.174483  0.276459 -0.000792235 -0.216325  0.245911 0.00108847 -0.258201  0.21544 0.00282201 -0.299864  0.185019 0.00417215 -0.341069  0.154641 0.00488153 -0.381575  0.124324 0.00467464 -0.421157  0.0941375 0.00326347 -0.45961  0.0642076 0.000358999 -0.496761  0.0347424 -0.00430259 -0.532483  0.00603914 -0.0109404 -0.566701  -0.0214925 -0.0196942 -0.599409  -0.0473037 -0.0305866 -0.630666  -0.0705965 -0.043447 -0.660569  0.754194 0.0445612 0.213447  0.707017 0.0318877 0.178385  0.662792 0.0209805 0.143382  0.620835 0.0120585 0.107929  0.580599 0.0051564 0.0716587  0.541636 0.000169098 0.0343519  0.503593 -0.00309783 -0.00408262  0.466194 -0.00488254 -0.0436397  0.429235 -0.00544208 -0.0842378  0.392581 -0.00503182 -0.125739  0.356141 -0.00390029 -0.16796  0.319863 -0.00228375 -0.210686  0.283722 -0.000408828 -0.253679  0.2477 0.00150305 -0.296688  0.211781 0.00322592 -0.33946  0.175955 0.004522 -0.381744  0.140231 0.00513747 -0.423305  0.104651 0.00480202 -0.463923  0.0693064 0.00323689 -0.503415  0.034354 0.000168234 -0.541634  2.80142e-05 -0.00465146 -0.578496  -0.0333471 -0.01142 -0.613986  -0.0653401 -0.0202504 -0.648181  -0.0953765 -0.0311296 -0.681252  -0.122663 -0.0438538 -0.713451  0.81861 0.0441912 0.17582  0.766883 0.0315351 0.141882  0.71804 0.0206587 0.107546  0.671333 0.0117787 0.0724233  0.626192 0.00492537 0.0362406  0.582177 -2.38419e-07 -0.00115556  0.538942 -0.0031881 -0.039807  0.496232 -0.00487745 -0.0796697  0.453864 -0.00533119 -0.12063  0.41172 -0.00481609 -0.162525  0.369737 -0.00359368 -0.205152  0.327886 -0.00191003 -0.24828  0.286158 -6.25849e-07 -0.291664  0.244553 0.00190872 -0.335048  0.20307 0.00359172 -0.378176  0.161719 0.00481355 -0.420802  0.12053 0.00532877 -0.462698  0.0795671 0.00487608 -0.50366  0.0389457 0.00318658 -0.543522  -0.00115228 -9.83477e-07 -0.582175  -0.0404688 -0.00492653 -0.619571  -0.0786616 -0.0117787 -0.655755  -0.115286 -0.0206594 -0.690877  -0.149777 -0.0315358 -0.725212  -0.181382 -0.0441921 -0.75915  0.877331 0.0438522 0.130121  0.821285 0.0311292 0.0979212  0.767991 0.0202493 0.064851  0.716649 0.01142 0.0306554  0.66669 0.00465047 -0.00483346  0.617684 -0.000169516 -0.0416947  0.569305 -0.0032382 -0.0799139  0.521317 -0.00480431 -0.119404  0.473564 -0.00513977 -0.160024  0.425956 -0.00452387 -0.201584  0.378449 -0.00322795 -0.243869  0.331035 -0.0015043 -0.28664  0.283725 0.000407517 -0.329649  0.236531 0.00228238 -0.372642  0.189474 0.00389826 -0.415367  0.142581 0.00502914 -0.457588  0.0959038 0.0054394 -0.49909  0.0495302 0.00488156 -0.53969  0.00359839 0.0030961 -0.579247  -0.0416915 -0.000170469 -0.617682  -0.0860614 -0.00515705 -0.654989  -0.129157 -0.0120578 -0.69126  -0.170534 -0.0209805 -0.726712  -0.209643 -0.0318876 -0.761715  -0.245799 -0.0445606 -0.796777  0.929399 0.0434455 0.0772397  0.869361 0.0305864 0.0473359  0.811839 0.0196933 0.0160789  0.756038 0.0109398 -0.0166286  0.701407 0.00430131 -0.0508454  0.647539 -0.000360072 -0.0865667  0.594136 -0.00326461 -0.123718  0.54099 -0.00467747 -0.16217  0.487975 -0.00488359 -0.201752  0.435021 -0.00417352 -0.242259  0.382107 -0.00282359 -0.283463  0.329246 -0.00108993 -0.325127  0.276461 0.000790894 -0.367003  0.223783 0.0025987 -0.408844  0.171246 0.00412118 -0.450412  0.118897 0.00514519 -0.491486  0.0668073 0.00544739 -0.531869  0.0150844 0.0047968 -0.571404  -0.0361112 0.00294334 -0.609976  -0.0865626 -0.000361323 -0.647538  -0.135983 -0.00536293 -0.684119  -0.18401 -0.0122744 -0.719854  -0.230195 -0.0212296 -0.755016  -0.274021 -0.0322077 -0.790057  -0.314867 -0.0449892 -0.825595  0.973999 0.0428087 0.0182097  0.91036 0.0297756 -0.00892806  0.848888 0.0188989 -0.0378848  0.788852 0.0102814 -0.0685918  0.729749 0.0038467 -0.100994  0.671213 -0.000587523 -0.135001  0.612982 -0.00327396 -0.170475  0.554885 -0.00450206 -0.207246  0.496818 -0.00457031 -0.245118  0.438735 -0.00377691 -0.28387  0.380636 -0.00239837 -0.323276  0.322545 -0.000688672 -0.363099  0.264497 0.00112468 -0.403103  0.206539 0.0028314 -0.443052  0.148717 0.00423336 -0.482727  0.0910958 0.00513434 -0.521929  0.0337634 0.00532705 -0.560482  -0.0231561 0.00459731 -0.598258  -0.0794844 0.00270748 -0.635174  -0.134997 -0.000588298 -0.671212  -0.189398 -0.00554699 -0.706433  -0.242322 -0.0124118 -0.741005  -0.293325 -0.0213671 -0.775241  -0.341899 -0.0324419 -0.809664  -0.387491 -0.0454226 -0.845005  1.01051 0.0417225 -0.0458086  0.943687 0.028532 -0.069819  0.878565 0.0177566 -0.0960634  0.814554 0.00938523 -0.124319  0.751227 0.00326306 -0.154413  0.688281 -0.000854552 -0.18617  0.625496 -0.00326157 -0.219393  0.562732 -0.00427341 -0.25387  0.499916 -0.00420046 -0.289388  0.437016 -0.0033415 -0.325718  0.374047 -0.00196695 -0.362636  0.31104 -0.000320673 -0.399917  0.248041 0.00138456 -0.437339  0.185106 0.00295377 -0.474689  0.122292 0.00420761 -0.511768  0.0596766 0.00497013 -0.548401  -0.00263608 0.0050534 -0.584444  -0.0645128 0.00426197 -0.619795  -0.125768 0.00237346 -0.654404  -0.186167 -0.000854969 -0.68828  -0.245414 -0.00569069 -0.721514  -0.303148 -0.0124149 -0.754295  -0.358924 -0.0212879 -0.786966  -0.41223 -0.0324383 -0.820096  -0.462555 -0.0456942 -0.854537  1.03852 0.0399193 -0.113569  0.968904 0.0266688 -0.134209  0.900433 0.0161586 -0.157413  0.832726 0.00820577 -0.18283  0.765469 0.00254583 -0.210181  0.698428 -0.00114512 -0.239202  0.631433 -0.00320715 -0.269641  0.564373 -0.0039767 -0.301254  0.497192 -0.00376821 -0.333811  0.429875 -0.00287098 -0.367089  0.36244 -0.0015412 -0.400874  0.294923 -3.39746e-06 -0.434955  0.227374 0.00154877 -0.469132  0.159854 0.00294256 -0.503218  0.0924323 0.00402117 -0.537041  0.0251926 0.00463188 -0.570457  -0.0417523 0.00460923 -0.60335  -0.108265 0.00377995 -0.635648  -0.174158 0.00194007 -0.667327  -0.239199 -0.00114572 -0.698427  -0.303096 -0.00574958 -0.729062  -0.365493 -0.0121904 -0.75944  -0.425951 -0.0208194 -0.789904  -0.483941 -0.03193 -0.821044  -0.538927 -0.045486 -0.853834  1.05788 0.0371152 -0.183782  0.985752 0.0240158 -0.2009  0.914198 0.0140314 -0.220823  0.843082 0.0067389 -0.243093  0.772225 0.00172603 -0.26733  0.701465 -0.00141841 -0.293185  0.630674 -0.0030756 -0.320357  0.559762 -0.00358909 -0.34858  0.488681 -0.00326377 -0.377622  0.417423 -0.00236696 -0.407269  0.346005 -0.0011307 -0.437324  0.274462 0.000248075 -0.467602  0.202846 0.00160116 -0.497928  0.131218 0.0027827 -0.528145  0.0596539 0.00366253 -0.558116  -0.0117594 0.00411236 -0.587723  -0.082909 0.00399488 -0.616882  -0.153657 0.0031603 -0.645546  -0.223823 0.00142843 -0.67372  -0.293182 -0.00141948 -0.701464  -0.361457 -0.00565106 -0.728913  -0.428305 -0.01161 -0.756285  -0.493302 -0.0197326 -0.783912  -0.555895 -0.0305325 -0.812349  -0.615439 -0.0442864 -0.842662  1.06861 0.0330574 -0.255143  0.994149 0.0204603 -0.268668  0.919718 0.0113759 -0.285148  0.845482 0.00504595 -0.304044  0.771393 0.000882149 -0.324863  0.697346 -0.00160694 -0.34718  0.623236 -0.00281966 -0.370657  0.548977 -0.00308388 -0.39502  0.474527 -0.00267738 -0.420045  0.399868 -0.00183165 -0.445539  0.325014 -0.000744164 -0.471332  0.249997 0.000423729 -0.497269  0.174865 0.00153446 -0.52321  0.0996784 0.00247329 -0.54903  0.0245086 0.00313801 -0.574625  -0.0505562 0.00342858 -0.599907  -0.125407 0.00323683 -0.624819  -0.199912 0.00244051 -0.649338  -0.273906 0.00088948 -0.673487  -0.347178 -0.00160795 -0.697345  -0.419473 -0.00530016 -0.721056  -0.490468 -0.0105305 -0.744848  -0.559764 -0.0177835 -0.769031  -0.62682 -0.0277902 -0.794051  -0.690791 -0.0413756 -0.820968  1.07096 0.027607 -0.326347  0.994184 0.0160314 -0.336244  0.917019 0.00832695 -0.349204  0.839958 0.00328493 -0.364583  0.763047 0.000144184 -0.381756  0.686196 -0.00162292 -0.400227  0.609289 -0.00238955 -0.419635  0.53224 -0.00244206 -0.439723  0.454991 -0.00200909 -0.46029  0.377519 -0.00127441 -0.481179  0.299827 -0.000391483 -0.502255  0.221937 0.000518739 -0.523399  0.143892 0.00135469 -0.544509  0.0657495 0.00203288 -0.565496  -0.0124266 0.00248128 -0.586284  -0.0905544 0.00262868 -0.606816  -0.168534 0.00239611 -0.627057  -0.246245 0.00169343 -0.647003  -0.323538 0.000405073 -0.666687  -0.400224 -0.00162333 -0.686194  -0.476075 -0.00460011 -0.705671  -0.550791 -0.00883305 -0.725343  -0.623996 -0.0147929 -0.745518  -0.695205 -0.023315 -0.766486  -0.763385 -0.035938 -0.789049  1.0653 0.0208362 -0.396075  0.986103 0.0109795 -0.402368  0.906313 0.0051946 -0.411822  0.826764 0.00170767 -0.423629  0.747496 -0.000327647 -0.436996  0.668354 -0.0013833 -0.451346  0.589204 -0.00175989 -0.466356  0.509937 -0.00167251 -0.481808  0.430483 -0.00128514 -0.497551  0.350802 -0.0007236 -0.51347  0.270889 -9.16123e-05 -0.52947  0.190755 0.000531733 -0.545474  0.110437 0.00108069 -0.561418  0.0299804 0.00150353 -0.577246  -0.0505559 0.00175613 -0.592912  -0.131101 0.0017944 -0.608383  -0.211569 0.00156844 -0.623641  -0.291858 0.00102049 -0.638691  -0.371837 7.23004e-05 -0.653568  -0.451344 -0.00138342 -0.668352  -0.53017 -0.00349724 -0.683175  -0.608047 -0.00649977 -0.698235  -0.684596 -0.0107762 -0.713865  -0.759342 -0.0170517 -0.730356  -0.831216 -0.0274515 -0.747828  1.05206 0.0131326 -0.463027  0.97028 0.00586355 -0.465861  0.888053 0.00246686 -0.471913  0.806504 0.000602424 -0.480238  0.725371 -0.00040549 -0.489571  0.64446 -0.000868917 -0.499521  0.563597 -0.000976145 -0.509832  0.482656 -0.00085026 -0.52036  0.401555 -0.000583649 -0.531007  0.320247 -0.000242114 -0.541703  0.238714 0.000118613 -0.552397  0.156962 0.000457764 -0.56305  0.0750175 0.000742316 -0.573631  -0.00708276 0.000946403 -0.584117  -0.0892921 0.00104934 -0.594484  -0.171553 0.00103009 -0.604721  -0.253798 0.000864446 -0.61482  -0.335946 0.000522494 -0.624788  -0.417897 -3.61204e-05 -0.634649  -0.499519 -0.000869095 -0.644459  -0.58064 -0.00205922 -0.654311  -0.661012 -0.00373495 -0.664376  -0.740305 -0.00612575 -0.674837  -0.817915 -0.00964981 -0.686472  -0.892595 -0.0164947 -0.698961  1.03136 0.00531024 -0.526319  0.946976 0.00167286 -0.525571  0.863213 0.000686049 -0.529143  0.780304 0.000120163 -0.533586  0.697835 -0.000141144 -0.53855  0.615597 -0.000241637 -0.543759  0.533429 -0.000238717 -0.549095  0.451225 -0.000171244 -0.554479  0.368915 -6.73532e-05 -0.559863  0.286456 5.36442e-05 -0.565218  0.203833 0.000174224 -0.570527  0.121045 0.000282586 -0.575783  0.0381077 0.000368834 -0.58098  -0.0449549 0.000424802 -0.586114  -0.128112 0.000445068 -0.591186  -0.211326 0.000424147 -0.59619  -0.294555 0.000355184 -0.601127  -0.377748 0.000229597 -0.605998  -0.460843 3.59416e-05 -0.610813  -0.54376 -0.000241697 -0.615596  -0.62639 -0.000626802 -0.620386  -0.70858 -0.00115442 -0.625259  -0.790065 -0.00190115 -0.630382  -0.870588 -0.00287694 -0.635862  -0.94803 -0.00563306 -0.644263  1 0 -0.583333  0.916667 0 -0.583333  0.833333 0 -0.583333  0.75 0 -0.583333  0.666667 0 -0.583333  0.583333 0 -0.583333  0.5 0 -0.583333  0.416667 0 -0.583333  0.333333 0 -0.583333  0.25 0 -0.583333  0.166667 0 -0.583333  0.0833333 0 -0.583333  0 0 -0.583333  -0.0833334 0 -0.583333  -0.166667 0 -0.583333  -0.25 0 -0.583333  -0.333333 0 -0.583333  -0.416667 0 -0.583333  -0.5 0 -0.583333  -0.583333 0 -0.583333  -0.666667 0 -0.583333  -0.75 0 -0.583333  -0.833333 0 -0.583333  -0.916667 0 -0.583333  -1 0 -0.583333  0 0 0  -1.11759e-08 0 0  7.45058e-09 0 0  0 0 0  1.49012e-08 0 0  0 0 0  0 0 0  0 0 0  0 0 0  0 0 0  0 0 0  0 0 0  0 0 0  0 0 0  0 0 0  0 0 0  0 0 0  0 0 0  0 0 0  0 0 0  0 0 0  0 0 0  0 0 0  0 0 0  0 0 0  0.0591902 0.00639826 0.0560402  0.052135 0.00302187 0.04934  0.0489564 0.00197947 0.0446693  0.0468182 0.00113956 0.0400749  0.0455326 0.000560924 0.0356269  0.0447819 0.000141475 0.0311673  0.044388 -0.000154592 0.0266474  0.0442184 -0.000353098 0.0220351  0.0441744 -0.000471871 0.0173168  0.0441777 -0.000523947 0.0124917  0.0441639 -0.000517681 0.00756419  0.0440759 -0.000461183 0.00253719  0.0438665 -0.000359502 -0.00258267  0.0434914 -0.000221621 -0.00779343  0.042919 -5.62556e-05 -0.0130886  0.042128 0.000124313 -0.0184618  0.0411134 0.000303805 -0.0238998  0.0398942 0.000463869 -0.0293787  0.0385147 0.000580974 -0.0348579  0.0370532 0.000626653 -0.0402766  0.0356262 0.000560746 -0.0455344  0.034401 0.000327632 -0.0504709  0.0335768 -0.000207633 -0.0547494  0.0335112 -0.00114723 -0.0578017  0.033734 -0.00452857 -0.0555403  0.120513 0.0187686 0.107931  0.109894 0.0103839 0.0969862  0.103487 0.00628465 0.0867555  0.0990938 0.00357832 0.0772818  0.0959803 0.00170925 0.0679697  0.0937604 0.000406012 0.0587035  0.0921445 -0.000479802 0.0493414  0.0909245 -0.00104456 0.0398123  0.0899426 -0.00135306 0.0300792  0.0890733 -0.00145131 0.0201289  0.0882147 -0.00137177 0.00996679  0.0872776 -0.00114287 -0.000389934  0.08619 -0.000786379 -0.0109175  0.0848851 -0.000329182 -0.0215902  0.0833092 0.000196315 -0.0323739  0.0814267 0.000751242 -0.0432287  0.079222 0.00128484 -0.0541036  0.0767081 0.0017349 -0.0649279  0.0739311 0.00202502 -0.0756111  0.0709763 0.00205878 -0.0860245  0.0679681 0.00170859 -0.0959799  0.0650687 0.000788704 -0.105158  0.0624434 -0.000997886 -0.113044  0.0602853 -0.00425839 -0.118144  0.0573027 -0.0112826 -0.119354  0.18716 0.0303394 0.154489  0.173253 0.0181758 0.138282  0.163581 0.0108384 0.123287  0.156365 0.00597923 0.108922  0.150782 0.00263159 0.0948694  0.146335 0.000328407 0.0808272  0.142695 -0.00120122 0.0666319  0.139607 -0.00213499 0.0521734  0.136873 -0.00259555 0.0373967  0.134336 -0.00267076 0.0222846  0.131867 -0.00242793 0.00685048  0.129357 -0.00192266 -0.00887275  0.12671 -0.00120539 -0.0248371  0.12385 -0.000329003 -0.0409803  0.120706 0.000641182 -0.0572332  0.117228 0.00162886 -0.0735108  0.113387 0.00253819 -0.0897142  0.109182 0.00325254 -0.105722  0.104644 0.00362983 -0.121381  0.0998406 0.00349654 -0.136493  0.0948684 0.00263034 -0.150782  0.0898466 0.000731245 -0.163842  0.0848947 -0.00265194 -0.174991  0.0799199 -0.00832467 -0.183308  0.0739776 -0.0180298 -0.187912  0.259672 0.0382833 0.192995  0.241952 0.0241903 0.171739  0.228419 0.0144683 0.152268  0.217699 0.00775257 0.133467  0.208942 0.00306958 0.114947  0.201575 -0.000142947 0.0963804  0.195202 -0.00224288 0.077553  0.189527 -0.00347555 0.0583424  0.184319 -0.00401661 0.0386836  0.179394 -0.00399709 0.0185634  0.174602 -0.00352244 -0.00198823  0.169814 -0.00268102 -0.022918  0.164928 -0.00155562 -0.0441447  0.159849 -0.000232473 -0.0655726  0.154499 0.00118604 -0.0870857  0.148815 0.00258206 -0.108557  0.142756 0.00381033 -0.129834  0.136307 0.00469966 -0.150744  0.129485 0.00504367 -0.171079  0.122338 0.0045993 -0.190587  0.114947 0.00306787 -0.20894  0.107412 7.25091e-05 -0.225702  0.0997987 -0.00490434 -0.240277  0.0920142 -0.0125936 -0.251966  0.0835077 -0.0241565 -0.260086  0.336036 0.0425813 0.221516  0.314317 0.0279087 0.196186  0.296562 0.0168132 0.172743  0.281845 0.00877264 0.150012  0.269347 0.00305533 0.127452  0.258469 -0.000880703 0.104725  0.248755 -0.00342555 0.0816021  0.239868 -0.00486536 0.0579498  0.231543 -0.00541808 0.0337092  0.223573 -0.00525306 0.00888038  0.215792 -0.00451191 -0.0164882  0.208061 -0.00331777 -0.042312  0.200265 -0.00178742 -0.0684803  0.192307 -4.19319e-05 -0.0948547  0.1841 0.00177857 -0.121277  0.175577 0.00351419 -0.14757  0.166684 0.00497448 -0.173542  0.157401 0.00593781 -0.198973  0.147733 0.00614443 -0.223615  0.137724 0.00529881 -0.247187  0.127454 0.00305325 -0.269345  0.117022 -0.000997946 -0.289671  0.10652 -0.00734349 -0.307648  0.0959619 -0.0165407 -0.322726  0.0851365 -0.0292799 -0.33437  0.414332 0.0442866 0.239257  0.388523 0.0297037 0.210867  0.36645 0.0180019 0.184156  0.347467 0.00915444 0.158063  0.33085 0.00272891 0.131981  0.316001 -0.00172451 0.105558  0.302444 -0.00458048 0.0785697  0.289806 -0.00614159 0.0508915  0.277795 -0.00665237 0.0224774  0.266189 -0.00631472 -0.00664896  0.254808 -0.00530231 -0.036416  0.24351 -0.00377096 -0.0667077  0.232175 -0.00187202 -0.0973743  0.220708 0.000240833 -0.12824  0.20902 0.00239152 -0.159104  0.197041 0.00438154 -0.189749  0.184716 0.0059821 -0.219942  0.172021 0.00693101 -0.249433  0.158959 0.00692946 -0.277952  0.145582 0.00564942 -0.305202  0.131983 0.00272641 -0.330847  0.118298 -0.00223072 -0.354505  0.104683 -0.0096323 -0.375748  0.0912979 -0.0198557 -0.394145  0.0782169 -0.0332513 -0.40926  0.493113 0.0444773 0.246111  0.463107 0.0302131 0.215549  0.43668 0.0183572 0.186292  0.413289 0.00909808 0.15744  0.392307 0.00224179 0.128396  0.373152 -0.00254413 0.0988029  0.355345 -0.00559404 0.0684552  0.3385 -0.0072059 0.0372469  0.322312 -0.00763932 0.0051558  0.306547 -0.00712103 -0.027769  0.291021 -0.00585258 -0.0614256  0.275595 -0.00401968 -0.0956623  0.260151 -0.00180522 -0.130293  0.2446 0.000605792 -0.165104  0.228859 0.0030061 -0.199857  0.212858 0.00516608 -0.234299  0.196547 0.00682512 -0.268169  0.179902 0.00769269 -0.301193  0.16294 0.00744671 -0.333089  0.145729 0.00574785 -0.363563  0.128396 0.00223932 -0.392305  0.111125 -0.00343022 -0.418984  0.0941612 -0.0115803 -0.443265  0.0778034 -0.0224406 -0.464824  0.0623709 -0.0361282 -0.483311  0.57116 0.0439365 0.242258  0.536858 0.0300074 0.210287  0.506036 0.0182075 0.17918  0.478153 0.00879106 0.148187  0.452631 0.00171047 0.11676  0.428919 -0.00326163 0.0845631  0.406543 -0.00641111 0.0514126  0.385118 -0.00802037 0.0172304  0.364339 -0.00835559 -0.0179755  0.343968 -0.00766113 -0.0541264  0.323828 -0.00616288 -0.0910851  0.303785 -0.00407362 -0.128667  0.283735 -0.00160304 -0.16665  0.263596 0.00103438 -0.204785  0.243296 0.0036073 -0.242803  0.222775 0.00586104 -0.280423  0.201989 0.00751376 -0.317361  0.180927 0.00825661 -0.353332  0.159626 0.00776082 -0.388052  0.13818 0.00568876 -0.421243  0.116758 0.00170869 -0.45263  0.0956043 -0.00448301 -0.481947  0.0750428 -0.0131249 -0.508953  0.055493 -0.0243397 -0.533425  0.0374669 -0.038086 -0.555128  0.647327 0.0431519 0.228034  0.608669 0.0294917 0.195336  0.573411 0.0178119 0.163037  0.540974 0.00837469 0.130515  0.510792 0.00120619 0.0972967  0.482337 -0.0038465 0.063084  0.455149 -0.00702351 0.0277237  0.42885 -0.00859085 -0.008829  0.403143 -0.00881577 -0.0465333  0.377801 -0.00795648 -0.0852767  0.352657 -0.00625834 -0.12489  0.327593 -0.00395954 -0.165153  0.302522 -0.00129253 -0.205813  0.277377 0.00150445 -0.246591  0.2521 0.00418115 -0.287192  0.226642 0.006466 -0.327319  0.200977 0.00806445 -0.36667  0.175112 0.00866097 -0.404958  0.14911 0.00792933 -0.441906  0.123102 0.00554523 -0.477259  0.0972962 0.00120458 -0.51079  0.0719936 -0.00534865 -0.542304  0.047587 -0.0142927 -0.571646  0.0245811 -0.0256761 -0.598709  0.0036366 -0.0393532 -0.623374  0.720484 0.0423827 0.20386  0.677462 0.0289013 0.171074  0.637756 0.0173315 0.138215  0.600729 0.00793231 0.104776  0.56581 0.000757992 0.0703662  0.532485 -0.00430173 0.0347426  0.500309 -0.00745288 -0.00220895  0.468917 -0.0089477 -0.0404963  0.438031 -0.00905436 -0.0800424  0.407438 -0.0080426 -0.120701  0.376994 -0.00617585 -0.16227  0.346598 -0.00371161 -0.204502  0.316186 -0.000903487 -0.247115  0.28571 0.00199366 -0.289808  0.25513 0.00471556 -0.332269  0.224414 0.00698188 -0.374187  0.193558 0.00849378 -0.415259  0.162593 0.00893757 -0.455197  0.131616 0.00799617 -0.493743  0.100789 0.00536141 -0.530674  0.070366 0.000756443 -0.565808  0.0406916 -0.00603843 -0.599023  0.0122105 -0.0151569 -0.630255  -0.0145199 -0.0266006 -0.659501  -0.0387577 -0.0401606 -0.686788  0.789516 0.0417317 0.170264  0.742187 0.0283389 0.138  0.698061 0.0168412 0.105194  0.656449 0.00749701 0.0714433  0.616764 0.000362903 0.0364469  0.578497 -0.0046508 2.58088e-05  0.541224 -0.00773448 -0.0378818  0.504602 -0.0091311 -0.0772442  0.468369 -0.00911197 -0.117947  0.432341 -0.00795898 -0.15981  0.396395 -0.00595158 -0.202603  0.360456 -0.00336364 -0.246053  0.324486 -0.00046435 -0.289859  0.288456 0.00248039 -0.333707  0.252349 0.00519851 -0.377273  0.216156 0.0074079 -0.420242  0.179894 0.00881281 -0.462314  0.143628 0.00910679 -0.503213  0.107482 0.00798488 -0.542703  0.0716596 0.00515562 -0.580595  0.0364485 0.000362188 -0.616761  0.00222605 -0.00659209 -0.651144  -0.0305332 -0.0158121 -0.683766  -0.0612347 -0.0272688 -0.714731  -0.0891206 -0.0407201 -0.744204  0.853322 0.0412012 0.127897  0.801825 0.027814 0.0967474  0.75337 0.0163484 0.0645829  0.707225 0.00706118 0.0311107  0.662792 -2.38419e-07 -0.00387269  0.619573 -0.00492609 -0.0404721  0.577165 -0.00790346 -0.0786929  0.535251 -0.00917676 -0.118457  0.493595 -0.00902426 -0.159613  0.452039 -0.0077399 -0.20195  0.410493 -0.00561771 -0.245213  0.368908 -0.00294533 -0.28911  0.32727 -9.23872e-07 -0.33333  0.285575 0.00294411 -0.377551  0.243825 0.00561613 -0.421448  0.202038 0.00773764 -0.46471  0.160262 0.00902206 -0.507048  0.118586 0.00917423 -0.548204  0.0771686 0.00790143 -0.587968  0.0362442 0.00492513 -0.62619  -0.00386983 -3.8743e-07 -0.662789  -0.0427681 -0.00706157 -0.697772  -0.0799567 -0.0163484 -0.731245  -0.114836 -0.0278134 -0.76341  -0.146671 -0.041202 -0.794558  0.910874 0.0407187 0.0775418  0.855428 0.0272687 0.0480679  0.802798 0.0158111 0.0171037  0.752222 0.00659084 -0.015518  0.703111 -0.00036335 -0.0499002  0.654991 -0.0051567 -0.0860657  0.607481 -0.0079869 -0.123957  0.560294 -0.00910956 -0.163446  0.513227 -0.00881487 -0.204347  0.466157 -0.00741005 -0.246419  0.419018 -0.00520027 -0.289388  0.371792 -0.00248194 -0.332954  0.324488 0.00046289 -0.376801  0.277124 0.00336236 -0.420608  0.229728 0.00594956 -0.464057  0.182341 0.00795609 -0.50685  0.135037 0.00910997 -0.548715  0.0879387 0.00912905 -0.589418  0.0412294 0.00773293 -0.62878  -0.00483054 0.00465024 -0.666688  -0.0498958 -0.000363231 -0.703109  -0.0935425 -0.00749642 -0.738106  -0.135265 -0.0168408 -0.771857  -0.174473 -0.0283386 -0.804663  -0.210477 -0.0417319 -0.836926  0.96124 0.0401598 0.0201268  0.902145 0.0266004 -0.0071606  0.845543 0.0151561 -0.0364066  0.790691 0.00603724 -0.0676378  0.737031 -0.000757933 -0.100852  0.68412 -0.00536245 -0.135987  0.631614 -0.00799823 -0.172916  0.579259 -0.00894046 -0.211462  0.526891 -0.00849593 -0.251402  0.474416 -0.00698388 -0.292473  0.421797 -0.00471723 -0.334391  0.369046 -0.00199533 -0.376853  0.316189 0.000902534 -0.419546  0.263267 0.00371033 -0.462159  0.210329 0.00617361 -0.50439  0.157441 0.0080393 -0.545958  0.1047 0.00905257 -0.586619  0.0522541 0.00894642 -0.626166  0.00031352 0.00745177 -0.664453  -0.0508416 0.00430119 -0.701405  -0.100848 -0.000758052 -0.73703  -0.149264 -0.00793201 -0.771439  -0.195569 -0.0173303 -0.804878  -0.239197 -0.0289006 -0.837736  -0.279505 -0.042382 -0.870522  1.00363 0.0393518 -0.0432903  0.941246 0.025674 -0.0679556  0.88092 0.0142909 -0.095017  0.821992 0.00534803 -0.124359  0.763962 -0.00120604 -0.155872  0.706434 -0.00554669 -0.189402  0.649109 -0.00793171 -0.224755  0.591779 -0.00866354 -0.261702  0.534311 -0.00806618 -0.299991  0.476643 -0.00646806 -0.339342  0.418767 -0.00418234 -0.379468  0.360713 -0.00150609 -0.42007  0.302524 0.00129163 -0.460848  0.244262 0.00395805 -0.501508  0.185992 0.00625604 -0.541771  0.127803 0.00795382 -0.581384  0.0698108 0.00881422 -0.620128  0.0121852 0.00858986 -0.657833  -0.0448465 0.00702244 -0.694387  -0.100991 0.00384617 -0.729748  -0.155868 -0.00120646 -0.763961  -0.209018 -0.00837469 -0.79718  -0.259915 -0.0178112 -0.829701  -0.30799 -0.0294909 -0.862  -0.352663 -0.0431509 -0.894697  1.03747 0.0380854 -0.111538  0.972156 0.0243374 -0.133236  0.908374 0.0131235 -0.157711  0.845603 0.00448215 -0.184717  0.783424 -0.00170952 -0.214034  0.721514 -0.00569034 -0.245419  0.659626 -0.00776297 -0.278608  0.597594 -0.0082584 -0.313328  0.535323 -0.00751489 -0.3493  0.472776 -0.00586277 -0.386238  0.409964 -0.00360793 -0.423859  0.346931 -0.00103563 -0.461876  0.283736 0.0016017 -0.500011  0.220453 0.00407201 -0.537995  0.157164 0.00616026 -0.575576  0.0939701 0.00765961 -0.612536  0.0310079 0.0083546 -0.648687  -0.0315457 0.00801986 -0.683893  -0.0934528 0.00641036 -0.718075  -0.15441 0.00326204 -0.751227  -0.214028 -0.00171036 -0.783425  -0.271838 -0.00879121 -0.814852  -0.327289 -0.0182074 -0.845846  -0.3798 -0.0300069 -0.876953  -0.428832 -0.0439358 -0.908925  1.06237 0.0361279 -0.183351  0.99447 0.0224388 -0.201839  0.927495 0.0115797 -0.223398  0.861125 0.00343013 -0.247679  0.795062 -0.00223982 -0.274358  0.729064 -0.00574899 -0.303099  0.662941 -0.00744879 -0.333573  0.596569 -0.00769377 -0.365469  0.52988 -0.00682622 -0.398493  0.462858 -0.00516695 -0.432362  0.395527 -0.00300664 -0.466806  0.327935 -0.000606537 -0.501558  0.260153 0.00180352 -0.536369  0.192263 0.00401825 -0.571  0.124357 0.00585014 -0.605236  0.0565493 0.00711989 -0.638893  -0.0110186 0.00763887 -0.671819  -0.0781643 0.00720602 -0.703911  -0.14465 0.00559413 -0.73512  -0.210176 0.00254488 -0.765468  -0.274354 -0.00224119 -0.795061  -0.336702 -0.00909775 -0.824106  -0.396645 -0.0183569 -0.852957  -0.453552 -0.0302128 -0.882213  -0.50688 -0.044477 -0.912776  1.07822 0.0332513 -0.257402  1.00796 0.0198553 -0.272513  0.938015 0.00963259 -0.290913  0.868295 0.00223136 -0.312156  0.798648 -0.00272739 -0.335815  0.728914 -0.00565016 -0.361461  0.658959 -0.00693113 -0.38871  0.588687 -0.00693148 -0.417229  0.51805 -0.00598317 -0.446719  0.447042 -0.00438231 -0.476913  0.375689 -0.00239217 -0.507559  0.304043 -0.000241458 -0.538423  0.232177 0.00187027 -0.569288  0.160177 0.00376934 -0.599954  0.0881429 0.0053007 -0.630246  0.0161917 0.00631392 -0.660015  -0.0555354 0.0066523 -0.689143  -0.126858 0.00614244 -0.717557  -0.197552 0.00458115 -0.745235  -0.267327 0.00172472 -0.772223  -0.335812 -0.0027281 -0.798647  -0.402527 -0.00915456 -0.824729  -0.466876 -0.0180024 -0.850823  -0.528137 -0.0297043 -0.877534  -0.585661 -0.0442876 -0.905924  1.08513 0.0292786 -0.332292  1.01263 0.0165398 -0.343935  0.939852 0.00734341 -0.359014  0.867022 0.000998318 -0.376993  0.79412 -0.00305444 -0.397316  0.721058 -0.00529933 -0.419476  0.647734 -0.00614595 -0.443049  0.574068 -0.00593799 -0.467692  0.500018 -0.00497532 -0.493122  0.425576 -0.00351471 -0.519093  0.350768 -0.0017795 -0.545387  0.275642 4.16636e-05 -0.57181  0.200267 0.00178599 -0.598183  0.12473 0.0033161 -0.62435  0.0491272 0.00451124 -0.650175  -0.0264237 0.00525272 -0.675544  -0.101787 0.00541812 -0.700373  -0.176796 0.00486672 -0.724615  -0.251241 0.00342631 -0.748268  -0.324859 0.000880957 -0.771391  -0.397313 -0.00305492 -0.794118  -0.468148 -0.00877231 -0.816678  -0.536763 -0.0168132 -0.839409  -0.602343 -0.0279084 -0.862851  -0.663957 -0.0425815 -0.88818  1.08351 0.0241559 -0.406576  1.00868 0.0125936 -0.414697  0.933132 0.00490475 -0.426384  0.857413 -7.23004e-05 -0.440961  0.781615 -0.00306869 -0.457721  0.705673 -0.00459987 -0.476078  0.629487 -0.00504458 -0.495585  0.552975 -0.00469965 -0.51592  0.47609 -0.003811 -0.536829  0.398816 -0.00258249 -0.558105  0.321167 -0.00118667 -0.579577  0.243184 0.000232577 -0.601091  0.164931 0.00155419 -0.622518  0.0864849 0.00267988 -0.643746  0.00793725 0.00352228 -0.664675  -0.0706037 0.00399721 -0.685228  -0.149012 0.00401664 -0.705348  -0.227138 0.00347686 -0.725009  -0.304795 0.00224364 -0.74422  -0.381754 0.00014329 -0.763046  -0.457719 -0.00306928 -0.781614  -0.532295 -0.0077523 -0.800134  -0.604909 -0.0144681 -0.818934  -0.67471 -0.0241904 -0.838404  -0.740324 -0.0382829 -0.85966  1.07398 0.0180291 -0.47875  0.996586 0.00832421 -0.483355  0.918228 0.0026527 -0.491673  0.839848 -0.000730932 -0.502822  0.761538 -0.00263059 -0.515883  0.683177 -0.00349689 -0.530173  0.604648 -0.00363064 -0.545285  0.525851 -0.00325257 -0.560942  0.446722 -0.0025388 -0.576948  0.36723 -0.00162947 -0.593152  0.287375 -0.000641465 -0.609431  0.207185 0.000328839 -0.625684  0.126713 0.00120443 -0.641828  0.0460246 0.00192231 -0.657791  -0.0347976 0.002428 -0.673515  -0.115661 0.00267071 -0.68895  -0.196458 0.00259578 -0.704063  -0.277058 0.00213605 -0.718841  -0.357302 0.00120175 -0.733299  -0.436995 -0.000327885 -0.747494  -0.515882 -0.00263101 -0.761536  -0.593632 -0.00597906 -0.775588  -0.669749 -0.0108383 -0.789953  -0.74341 -0.0181755 -0.804949  -0.812837 -0.0303391 -0.821156  1.0573 0.0112832 -0.547311  0.976954 0.00425798 -0.548519  0.895779 0.000998557 -0.553623  0.81507 -0.000788331 -0.561508  0.734636 -0.00170863 -0.570685  0.654312 -0.00205904 -0.580641  0.573933 -0.00202537 -0.591054  0.493376 -0.00173515 -0.601737  0.412556 -0.00128508 -0.612561  0.331428 -0.000751615 -0.623435  0.249977 -0.000196576 -0.63429  0.16822 0.000328779 -0.645074  0.0861922 0.000785947 -0.655746  0.00394666 0.0011428 -0.666275  -0.0784501 0.00137222 -0.676631  -0.160924 0.00145113 -0.686794  -0.243388 0.00135332 -0.696746  -0.325739 0.00104505 -0.70648  -0.407853 0.000480354 -0.716009  -0.489571 -0.00040555 -0.72537  -0.570685 -0.00170881 -0.734635  -0.650904 -0.00357819 -0.743948  -0.729844 -0.00628448 -0.753422  -0.806771 -0.010383 -0.763653  -0.879485 -0.0187682 -0.774597  1.03373 0.00452888 -0.611127  0.950177 0.00114697 -0.608864  0.86691 0.000207782 -0.611916  0.784401 -0.000327408 -0.616194  0.702293 -0.00056082 -0.621133  0.620387 -0.000626683 -0.62639  0.538515 -0.000580966 -0.631809  0.456562 -0.000463784 -0.637288  0.374448 -0.000303864 -0.642765  0.292129 -0.000124276 -0.648203  0.209587 5.62072e-05 -0.653576  0.126826 0.000221312 -0.658872  0.043868 0.000359654 -0.664082  -0.0392557 0.000461221 -0.669202  -0.122501 0.000517964 -0.67423  -0.20582 0.000523984 -0.679158  -0.289157 0.000472128 -0.683984  -0.372447 0.000353217 -0.688702  -0.455611 0.000154793 -0.693314  -0.53855 -0.000141084 -0.697834  -0.621133 -0.00056088 -0.702292  -0.703181 -0.0011394 -0.706741  -0.784376 -0.00197923 -0.711334  -0.864532 -0.00302136 -0.716005  -0.94081 -0.00639802 -0.722706  1 0 -0.666666  0.916667 0 -0.666666  0.833333 0 -0.666666  0.75 0 -0.666666  0.666667 0 -0.666666  0.583333 0 -0.666666  0.5 0 -0.666666  0.416667 0 -0.666666  0.333333 0 -0.666666  0.25 0 -0.666666  0.166667 0 -0.666666  0.0833333 0 -0.666666  0 0 -0.666666  -0.0833334 0 -0.666666  -0.166667 0 -0.666666  -0.25 0 -0.666666  -0.333333 0 -0.666666  -0.416667 0 -0.666666  -0.5 0 -0.666666  -0.583333 0 -0.666666  -0.666667 0 -0.666666  -0.75 0 -0.666666  -0.833333 0 -0.666666  -0.916667 0 -0.666666  -1 0 -0.666666  0 0 0  -1.11759e-08 0 0  7.45058e-09 0 0  0 0 0  1.49012e-08 0 0  0 0 0  0 0 0  0 0 0  0 0 0  0 0 0  0 0 0  0 0 0  0 0 0  0 0 0  0 0 0  0 0 0  0 0 0  0 0 0  0 0 0  0 0 0  0 0 0  0 0 0  0 0 0  0 0 0  0 0 0  0.0657038 0.00697029 0.0503581  0.0576373 0.00298387 0.0460402  0.0541868 0.00187831 0.0423544  0.0518271 0.000951968 0.0383785  0.0504718 0.000327688 0.0344013  0.0497458 -0.000119608 0.0303026  0.049448 -0.000425041 0.0260614  0.0494214 -0.000616796 0.0216584  0.0495458 -0.000714198 0.0170896  0.0497249 -0.000730656 0.0123632  0.0498779 -0.000675403 0.00748777  0.0499327 -0.000556923 0.00246972  0.0498272 -0.00038274 -0.00268334  0.049505 -0.00016332 -0.00796753  0.0489228 8.87886e-05 -0.0133743  0.0480518 0.000356983 -0.0188919  0.0468836 0.000621788 -0.0244996  0.0454353 0.000860732 -0.0301623  0.0437546 0.00104841 -0.0358281  0.0419254 0.00115459 -0.0414206  0.040074 0.00113942 -0.0468197  0.0383776 0.000952128 -0.0518264  0.0370221 0.000471365 -0.0560222  0.0362912 -0.000379182 -0.0585856  0.0354742 -0.00338394 -0.0547531  0.132312 0.020505 0.0994425  0.119651 0.0105229 0.0901759  0.11278 0.00583496 0.0817281  0.108245 0.00283323 0.0734683  0.105157 0.000788838 0.0650687  0.103094 -0.000601582 0.0565029  0.101728 -0.00150948 0.0476659  0.100822 -0.00204077 0.0385162  0.10019 -0.00226694 0.0290367  0.0996807 -0.00223799 0.0192297  0.0991668 -0.00199126 0.00911528  0.0985371 -0.00155675 -0.00128096  0.0976942 -0.000962846 -0.0119265  0.0965494 -0.000243224 -0.0227876  0.0950313 0.00056231 -0.0338196  0.0930867 0.00140371 -0.0449693  0.0906891 0.00221993 -0.0561674  0.0878462 0.00293974 -0.067322  0.084603 0.00347891 -0.0783163  0.0810419 0.00373493 -0.0889867  0.0772812 0.00357839 -0.0990952  0.0734683 0.00283343 -0.108247  0.0697268 0.0012249 -0.115799  0.0661789 -0.0017618 -0.120066  0.0614179 -0.00837716 -0.119708  0.203766 0.0318894 0.143685  0.187338 0.0181402 0.128744  0.176696 0.00977287 0.115488  0.169298 0.00437786 0.102667  0.163842 0.000731692 0.0898466  0.159702 -0.00170657 0.0767626  0.156483 -0.00324854 0.0632865  0.153889 -0.00409245 0.0493371  0.151688 -0.00437396 0.034884  0.14969 -0.004191 0.0199305  0.147736 -0.00361995 0.00451154  0.145686 -0.00272316 -0.011325  0.143417 -0.00156164 -0.0275139  0.140822 -0.000200607 -0.0439776  0.137804 0.00127988 -0.0606254  0.134292 0.00278729 -0.0773486  0.13024 0.00420734 -0.0940189  0.125635 0.00540809 -0.110482  0.120503 0.00623383 -0.126542  0.114902 0.00649932 -0.14195  0.108922 0.00597899 -0.156366  0.102667 0.0043778 -0.169299  0.0962252 0.00127074 -0.179962  0.0894562 -0.00409945 -0.187318  0.0813667 -0.0134475 -0.19039  0.280341 0.0384438 0.17942  0.260189 0.0232435 0.159547  0.245371 0.0124803 0.14173  0.23431 0.00511397 0.124545  0.225703 7.32839e-05 0.107412  0.218749 -0.00328343 0.089958  0.212939 -0.00535804 0.0719749  0.207915 -0.00642191 0.0533568  0.203399 -0.00666857 0.0340588  0.199165 -0.00624466 0.0140904  0.195029 -0.00526804 -0.00649625  0.190827 -0.0038404 -0.0276237  0.186419 -0.00206026 -0.0491885  0.181681 -3.18885e-05 -0.071068  0.176502 0.00212127 -0.093118  0.170795 0.0042568 -0.115176  0.1645 0.0062062 -0.137051  0.157591 0.00777455 -0.158527  0.150078 0.00873704 -0.179348  0.14201 0.00883198 -0.199204  0.133469 0.00775166 -0.217699  0.124548 0.0051131 -0.234309  0.115295 0.00040929 -0.248331  0.105583 -0.00706045 -0.258964  0.0948367 -0.0183825 -0.265524  0.359912 0.0410352 0.204571  0.336115 0.0256481 0.180946  0.317118 0.0137218 0.159216  0.302 0.00506456 0.138131  0.289672 -0.000996307 0.11702  0.279287 -0.00504409 0.0954815  0.270254 -0.00750233 0.0732661  0.262144 -0.00868316 0.050244  0.254638 -0.00882252 0.0263699  0.247476 -0.00810978 0.00166422  0.240452 -0.00670187 -0.0238006  0.233387 -0.00474194 -0.0499126  0.226128 -0.00236537 -0.076532  0.218543 0.000279516 -0.103484  0.210515 0.00302678 -0.130574  0.201949 0.00568467 -0.157581  0.192777 0.00803222 -0.184264  0.182968 0.00981778 -0.210356  0.172531 0.0107573 -0.235558  0.161516 0.010529 -0.259525  0.150013 0.00877063 -0.281843  0.138133 0.00506212 -0.301999  0.125963 -0.00108166 -0.319368  0.113499 -0.0101873 -0.333309  0.100505 -0.0228407 -0.343321  0.440804 0.0412486 0.218534  0.413288 0.0261516 0.192178  0.390198 0.0138349 0.167308  0.370895 0.00448087 0.142904  0.354506 -0.00222868 0.118296  0.340236 -0.00673676 0.0930826  0.327459 -0.00943577 0.0670145  0.315704 -0.0106487 0.0399631  0.30461 -0.0106377 0.0118897  0.293899 -0.00962444 -0.0171658  0.283343 -0.00780211 -0.0471073  0.272756 -0.00535119 -0.0777871  0.261984 -0.00244556 -0.10902  0.250888 0.000725597 -0.140587  0.239355 0.00395387 -0.172238  0.227289 0.00700337 -0.203706  0.214621 0.00960675 -0.234703  0.201325 0.011466 -0.264923  0.187413 0.0122522 -0.294038  0.172954 0.0116079 -0.321687  0.158066 0.00915179 -0.347464  0.142907 0.00447744 -0.370892  0.127648 -0.00282075 -0.391445  0.112446 -0.013085 -0.408614  0.0973427 -0.0265574 -0.421994  0.521692 0.0403268 0.221366  0.490336 0.0256153 0.193103  0.463173 0.0132855 0.165816  0.439633 0.00363591 0.138693  0.418986 -0.00342783 0.111125  0.400501 -0.00820425 0.0827267  0.383569 -0.0110295 0.0532728  0.367695 -0.0122144 0.0226493  0.3525 -0.0120345 -0.00916022  0.33769 -0.0107348 -0.0420921  0.323029 -0.00853983 -0.0760183  0.30833 -0.00566322 -0.110751  0.29344 -0.00231597 -0.146066  0.27823 0.00127533 -0.181692  0.26259 0.00486329 -0.217336  0.246432 0.00817475 -0.252686  0.229696 0.0109052 -0.287418  0.212365 0.012723 -0.321195  0.194469 0.0132735 -0.353676  0.176107 0.012188 -0.384499  0.157441 0.00909474 -0.413289  0.138695 0.00363234 -0.439631  0.12014 -0.00451162 -0.463104  0.102085 -0.0155283 -0.483315  0.0848072 -0.0294393 -0.49993  0.601377 0.0390326 0.213338  0.566083 0.0246608 0.183861  0.534818 0.0124562 0.154824  0.506995 0.00273573 0.12558  0.481949 -0.00448081 0.0956049  0.459014 -0.00938365 0.0645561  0.437598 -0.0122499 0.0322372  0.417217 -0.0133682 -0.00143421  0.397487 -0.0130167 -0.036446  0.378108 -0.0114582 -0.0727032  0.358844 -0.00894278 -0.110041  0.339516 -0.00571385 -0.148234  0.319982 -0.00201726 -0.187012  0.300126 0.00188807 -0.226064  0.27985 0.00572163 -0.265054  0.259082 0.00918096 -0.303634  0.237775 0.0119351 -0.341452  0.215932 0.0136332 -0.378156  0.193616 0.0139129 -0.413399  0.170963 0.0124124 -0.446843  0.148186 0.00878829 -0.478153  0.125579 0.00273275 -0.506994  0.103509 -0.00598368 -0.533045  0.082406 -0.0174445 -0.556027  0.0627393 -0.0315321 -0.575688  0.678703 0.0377729 0.194841  0.639418 0.0236512 0.164762  0.604007 0.0115903 0.134591  0.57185 0.00190175 0.103812  0.542304 -0.00534731 0.0719948  0.51474 -0.0102808 0.0388542  0.488593 -0.0131276 0.00423485  0.463398 -0.0141537 -0.0319092  0.438777 -0.0136357 -0.0695302  0.414438 -0.0118489 -0.108497  0.390156 -0.00906575 -0.148607  0.365768 -0.00555629 -0.189596  0.341148 -0.00159726 -0.231151  0.316202 0.00252488 -0.272925  0.29085 0.00650534 -0.314551  0.26504 0.0100196 -0.355654  0.238751 0.012723 -0.395862  0.212014 0.0142582 -0.43482  0.184928 0.014268 -0.472192  0.157673 0.0124094 -0.507668  0.130515 0.00837225 -0.540972  0.10381 0.00189945 -0.571851  0.078001 -0.00717613 -0.600083  0.0536145 -0.0188701 -0.625498  0.0312668 -0.0329714 -0.647942  0.752517 0.036716 0.166336  0.709239 0.0227503 0.136227  0.669669 0.0108016 0.105511  0.633146 0.00117931 0.0737768  0.599024 -0.0060378 0.0406923  0.566702 -0.0109403 0.00603986  0.535643 -0.0137239 -0.0302858  0.505399 -0.0146381 -0.0682883  0.475613 -0.013959 -0.107878  0.446012 -0.0119717 -0.148887  0.41639 -0.00896919 -0.191072  0.386604 -0.00524423 -0.234136  0.356557 -0.00109988 -0.277727  0.326175 0.00315571 -0.321471  0.295409 0.00720119 -0.364977  0.264229 0.0107001 -0.407853  0.232647 0.0133039 -0.449723  0.200728 0.0146596 -0.490236  0.168614 0.014423 -0.529077  0.136524 0.0122727 -0.56598  0.104776 0.00793001 -0.600726  0.0737767 0.00117767 -0.633144  0.044028 -0.00810823 -0.663111  0.0161198 -0.0199032 -0.690557  -0.00924599 -0.0339407 -0.715454  0.821689 0.0358887 0.128393  0.774475 0.0219935 0.0988085  0.730772 0.0101138 0.0681143  0.689877 0.000560015 0.0359975  0.651146 -0.00659186 0.00222373  0.613986 -0.0114205 -0.0333484  0.577894 -0.0141065 -0.0707651  0.542446 -0.0148906 -0.109981  0.507309 -0.0140513 -0.150865  0.472236 -0.011886 -0.193206  0.437048 -0.00870463 -0.236729  0.401633 -0.00482199 -0.281101  0.36592 -0.000559926 -0.325946  0.329869 0.00375882 -0.370871  0.293459 0.00780332 -0.415469  0.256692 0.0112347 -0.459346  0.219613 0.0137093 -0.502128  0.182325 0.0148854 -0.543483  0.145009 0.0144348 -0.583125  0.10793 0.0120565 -0.620832  0.0714446 0.00749561 -0.656446  0.0360005 0.000559151 -0.689875  0.00213581 -0.00884935 -0.721088  -0.0295141 -0.0206796 -0.750118  -0.0582154 -0.0346351 -0.777062  0.885119 0.0352333 0.0816974  0.834096 0.0213356 0.0531758  0.786336 0.00948852 0.023052  0.741112 1.19209e-07 -0.00888509  0.697775 -0.00706115 -0.0427716  0.655756 -0.0117789 -0.0786638  0.614576 -0.0143327 -0.116542  0.573845 -0.0149644 -0.156308  0.533258 -0.0139608 -0.197785  0.492597 -0.0116333 -0.240723  0.451725 -0.00830927 -0.284815  0.41056 -0.0043208 -0.329702  0.369063 -1.2517e-06 -0.374996  0.327226 0.00431865 -0.42029  0.285058 0.00830716 -0.465178  0.242597 0.0116308 -0.509269  0.199924 0.0139582 -0.552208  0.157179 0.0149622 -0.593684  0.114579 0.0143307 -0.633451  0.0724278 0.0117778 -0.67133  0.0311136 0.00706112 -0.707223  -0.00888205 0 -0.741109  -0.0469909 -0.00948763 -0.773047  -0.0825654 -0.0213348 -0.803171  -0.114874 -0.0352342 -0.831691  0.941779 0.0346335 0.0270672  0.88715 0.02068 0.000121891  0.835468 0.00884926 -0.0289078  0.785997 -0.000560164 -0.060119  0.738109 -0.00749582 -0.0935482  0.691262 -0.0120581 -0.129161  0.645007 -0.0144371 -0.166867  0.598991 -0.0148876 -0.206511  0.552945 -0.0137119 -0.247865  0.506694 -0.011237 -0.290648  0.460128 -0.00780547 -0.334524  0.413206 -0.00376099 -0.379123  0.365923 0.000558019 -0.424047  0.3183 0.00482011 -0.468893  0.27038 0.00870275 -0.513265  0.222235 0.0118833 -0.556786  0.173977 0.0140492 -0.599129  0.125783 0.0148891 -0.640013  0.0778994 0.0141054 -0.679229  0.0306596 0.0114194 -0.716645  -0.0155136 0.00659156 -0.752219  -0.0601147 -0.000558972 -0.785994  -0.102555 -0.0101135 -0.81811  -0.142184 -0.0219931 -0.848804  -0.178303 -0.0358891 -0.878388  0.990752 0.03394 -0.0345393  0.932786 0.0199035 -0.0594386  0.877361 0.00810808 -0.0868846  0.823775 -0.00117868 -0.11685  0.771442 -0.00793111 -0.149268  0.719855 -0.0122744 -0.184013  0.668611 -0.014425 -0.220915  0.617394 -0.0146617 -0.259758  0.565981 -0.0133067 -0.30027  0.514231 -0.0107025 -0.342141  0.462076 -0.00720352 -0.385017  0.409511 -0.00315779 -0.428523  0.356559 0.00109839 -0.472267  0.303273 0.00524241 -0.515858  0.249724 0.00896734 -0.558921  0.196013 0.0119696 -0.601106  0.142282 0.0139574 -0.642116  0.088735 0.0146369 -0.681707  0.0356474 0.0137231 -0.71971  -0.0166243 0.0109396 -0.756035  -0.0676339 0.00603747 -0.790688  -0.116847 -0.00117856 -0.823774  -0.163655 -0.0108007 -0.855508  -0.20742 -0.0227501 -0.886223  -0.247474 -0.0367149 -0.916332  1.03126 0.0329702 -0.102053  0.970282 0.0188684 -0.1245  0.911335 0.00717425 -0.149913  0.853808 -0.00189972 -0.178145  0.797181 -0.00837332 -0.209023  0.741005 -0.0124117 -0.242325  0.684927 -0.0142701 -0.277802  0.628681 -0.0142605 -0.315173  0.572085 -0.0127255 -0.354131  0.515041 -0.0100219 -0.39434  0.457517 -0.00650769 -0.435442  0.399537 -0.00252658 -0.477069  0.341151 0.00159544 -0.518843  0.282437 0.00555438 -0.560398  0.22349 0.00906408 -0.601388  0.164438 0.0118471 -0.641497  0.105444 0.0136344 -0.680465  0.0467327 0.0141526 -0.718086  -0.0114025 0.013127 -0.754231  -0.0685881 0.0102806 -0.788851  -0.124355 0.00534707 -0.821991  -0.178141 -0.00190091 -0.853809  -0.229317 -0.0115891 -0.884587  -0.277239 -0.0236507 -0.914757  -0.321287 -0.0377717 -0.944837  1.06274 0.0315318 -0.174308  0.999072 0.0174443 -0.193968  0.936841 0.00598246 -0.216949  0.875579 -0.00273353 -0.243002  0.814853 -0.00878936 -0.271843  0.754297 -0.0124146 -0.303151  0.693617 -0.0139147 -0.336594  0.632599 -0.0136355 -0.371837  0.571109 -0.0119375 -0.408541  0.509081 -0.00918269 -0.44636  0.446518 -0.00572407 -0.484941  0.38346 -0.00188923 -0.523932  0.319984 0.00201511 -0.562982  0.256184 0.00571191 -0.60176  0.192179 0.00894135 -0.639954  0.128109 0.011457 -0.677292  0.0641564 0.013016 -0.713549  0.00055325 0.0133678 -0.748561  -0.0623981 0.0122496 -0.782233  -0.124315 0.0093841 -0.814552  -0.18471 0.00448138 -0.845603  -0.242998 -0.00273466 -0.875578  -0.298506 -0.0124558 -0.904822  -0.350573 -0.0246611 -0.933859  -0.398612 -0.0390328 -0.963336  1.08481 0.029439 -0.250065  1.01875 0.0155272 -0.266681  0.953474 0.00451076 -0.286891  0.888694 -0.00363332 -0.310363  0.824107 -0.00909644 -0.336706  0.75944 -0.0121896 -0.365497  0.694469 -0.013275 -0.396321  0.62903 -0.0127252 -0.428799  0.56303 -0.0109077 -0.462577  0.496432 -0.00817621 -0.497308  0.429259 -0.00486535 -0.532659  0.361565 -0.00127655 -0.568304  0.293441 0.00231421 -0.603929  0.224999 0.00566137 -0.639243  0.156364 0.00853884 -0.673977  0.0876916 0.0107344 -0.707903  0.0191692 0.0120343 -0.740836  -0.0489692 0.0122147 -0.772646  -0.116427 0.0110301 -0.80327  -0.182825 0.00820541 -0.832725  -0.247675 0.00342864 -0.861122  -0.310359 -0.00363433 -0.888692  -0.370151 -0.0132852 -0.915815  -0.426323 -0.0256154 -0.9431  -0.478299 -0.0403271 -0.971363  1.09734 0.0265561 -0.328001  1.02911 0.0130846 -0.34138  0.960977 0.00281996 -0.358549  0.892902 -0.00447786 -0.379102  0.824731 -0.00915378 -0.40253  0.756286 -0.0116093 -0.428308  0.687413 -0.0122535 -0.455958  0.617991 -0.0114682 -0.485071  0.547955 -0.00960881 -0.515291  0.47729 -0.00700468 -0.546289  0.406024 -0.00395554 -0.577757  0.334224 -0.000726759 -0.609409  0.261986 0.00244439 -0.640975  0.189425 0.00534964 -0.672207  0.116678 0.00780159 -0.702887  0.0439015 0.00962448 -0.73283  -0.0287199 0.010638 -0.761887  -0.100959 0.0106493 -0.789962  -0.172537 0.00943726 -0.817013  -0.243092 0.00673777 -0.843081  -0.312154 0.00222999 -0.868295  -0.379098 -0.00448024 -0.892902  -0.443128 -0.0138347 -0.917306  -0.503372 -0.0261515 -0.942177  -0.559188 -0.0412498 -0.968533  1.1005 0.0228401 -0.406675  1.03016 0.0101865 -0.416686  0.959295 0.00108099 -0.430627  0.888134 -0.0050627 -0.447997  0.81668 -0.00877178 -0.46815  0.74485 -0.0105302 -0.49047  0.672533 -0.0107585 -0.514438  0.599637 -0.00981987 -0.539638  0.526112 -0.00803375 -0.565731  0.451951 -0.00568569 -0.592415  0.377185 -0.00302827 -0.619422  0.301879 -0.000280321 -0.646513  0.226131 0.0023644 -0.673464  0.150056 0.0047406 -0.700082  0.0737871 0.00670183 -0.726196  -0.00252134 0.00810987 -0.751662  -0.0786931 0.00882316 -0.776368  -0.154519 0.00868386 -0.800243  -0.229743 0.00750381 -0.823265  -0.304042 0.00504494 -0.845481  -0.37699 0.000997424 -0.86702  -0.447993 -0.0050649 -0.888131  -0.516209 -0.0137215 -0.909216  -0.580546 -0.0256479 -0.930944  -0.640081 -0.0410357 -0.954568  1.09484 0.0183823 -0.484473  1.02225 0.00705963 -0.491032  0.948626 -0.000409305 -0.501664  0.874547 -0.00511307 -0.515687  0.800135 -0.00775212 -0.532296  0.725345 -0.00883329 -0.550794  0.650079 -0.0087378 -0.570649  0.574258 -0.00777584 -0.591469  0.497834 -0.00620717 -0.612944  0.420795 -0.00425768 -0.634819  0.34317 -0.00212252 -0.656878  0.265015 3.16501e-05 -0.678929  0.186421 0.00205922 -0.700809  0.107496 0.00383979 -0.722374  0.0283641 0.00526774 -0.743501  -0.0508328 0.00624502 -0.764088  -0.129933 0.0066691 -0.784056  -0.208748 0.00642276 -0.803356  -0.287057 0.00535923 -0.821976  -0.364581 0.00328404 -0.839957  -0.440959 -7.26581e-05 -0.857412  -0.515684 -0.0051145 -0.874546  -0.587957 -0.0124808 -0.89173  -0.656474 -0.0232438 -0.909546  -0.719655 -0.0384447 -0.929418  1.08137 0.0134469 -0.559607  1.00612 0.00409901 -0.56268  0.929559 -0.00127119 -0.570034  0.852667 -0.0043776 -0.580699  0.775589 -0.00597918 -0.593633  0.698236 -0.00650007 -0.608049  0.620504 -0.00623429 -0.623457  0.542303 -0.00540888 -0.639516  0.463574 -0.00420761 -0.655977  0.384294 -0.00278801 -0.672648  0.304473 -0.00128084 -0.689372  0.224157 0.00020051 -0.70602  0.14342 0.00156075 -0.722483  0.0623544 0.0027228 -0.738672  -0.0189287 0.00361955 -0.754509  -0.100308 0.00419182 -0.76993  -0.181643 0.00437456 -0.784883  -0.262775 0.00409317 -0.799338  -0.343513 0.00324905 -0.813288  -0.423627 0.00170714 -0.826763  -0.50282 -0.000731468 -0.839846  -0.580697 -0.00437814 -0.852666  -0.656633 -0.00977349 -0.865487  -0.729325 -0.0181402 -0.878743  -0.796231 -0.0318899 -0.893685  1.06142 0.00837642 -0.630289  0.982844 0.00176191 -0.629933  0.90306 -0.00122553 -0.6342  0.823468 -0.00283307 -0.641753  0.743948 -0.00357836 -0.650903  0.664376 -0.00373489 -0.661012  0.584604 -0.00347924 -0.671682  0.504513 -0.00294018 -0.682676  0.424022 -0.00222003 -0.693831  0.343087 -0.00140393 -0.705029  0.261699 -0.000562489 -0.716178  0.179885 0.000242889 -0.72721  0.0976966 0.000962734 -0.73807  0.0152073 0.00155622 -0.748717  -0.067497 0.00199109 -0.759113  -0.150316 0.00223833 -0.769228  -0.23314 0.00226706 -0.779036  -0.315842 0.00204122 -0.788518  -0.39827 0.00150955 -0.797667  -0.480238 0.000601888 -0.806502  -0.561508 -0.000788927 -0.815069  -0.641753 -0.00283349 -0.823468  -0.720551 -0.00583541 -0.831728  -0.797014 -0.010523 -0.840177  -0.867686 -0.0205052 -0.849442  1.03547 0.00338352 -0.695246  0.952957 0.000379264 -0.691414  0.870355 -0.000471652 -0.693976  0.788377 -0.000951946 -0.698172  0.70674 -0.0011394 -0.70318  0.625257 -0.00115448 -0.70858  0.543754 -0.00104839 -0.714172  0.462101 -0.00086087 -0.719837  0.380216 -0.000621796 -0.725499  0.298051 -0.000356972 -0.731106  0.215588 -8.86917e-05 -0.736624  0.132837 0.000163376 -0.742031  0.0498263 0.0003829 -0.747316  -0.0334002 0.000556707 -0.752469  -0.116788 0.00067544 -0.757487  -0.200273 0.000730574 -0.762363  -0.283786 0.000714183 -0.76709  -0.367244 0.000616968 -0.771658  -0.45055 0.000424981 -0.776061  -0.533586 0.000119805 -0.780302  -0.616194 -0.000327826 -0.7844  -0.698172 -0.000952065 -0.788378  -0.779145 -0.0018785 -0.792353  -0.859028 -0.00298393 -0.796039  -0.934295 -0.00697041 -0.800358  1 0 -0.749999  0.916667 0 -0.749999  0.833333 0 -0.749999  0.75 0 -0.749999  0.666667 0 -0.749999  0.583333 0 -0.749999  0.5 0 -0.749999  0.416667 0 -0.749999  0.333333 0 -0.749999  0.25 0 -0.749999  0.166667 0 -0.749999  0.0833333 0 -0.749999  0 0 -0.749999  -0.0833334 0 -0.749999  -0.166667 0 -0.749999  -0.25 0 -0.749999  -0.333333 0 -0.749999  -0.416667 0 -0.749999  -0.5 0 -0.749999  -0.583333 0 -0.749999  -0.666667 0 -0.749999  -0.75 0 -0.749999  -0.833333 0 -0.749999  -0.916667 0 -0.749999  -1 0 -0.749999  0 0 0  -1.11759e-08 0 0  7.45058e-09 0 0  0 0 0  1.49012e-08 0 0  0 0 0  0 0 0  0 0 0  0 0 0  0 0 0  0 0 0  0 0 0  0 0 0  0 0 0  0 0 0  0 0 0  0 0 0  0 0 0  0 0 0  0 0 0  0 0 0  0 0 0  0 0 0  0 0 0  0 0 0  0.0708535 0.0073133 0.0438355  0.0619786 0.00268935 0.0427857  0.0584401 0.00150261 0.0402923  0.056024 0.000471793 0.0370233  0.0547504 -0.000207745 0.0335769  0.0541893 -0.000685617 0.0298781  0.0541224 -0.0009951 0.0259408  0.0543669 -0.00116731 0.0217575  0.0547826 -0.00122176 0.0173345  0.0552536 -0.00117254 0.0126848  0.0556792 -0.0010309 0.00782001  0.0559706 -0.00080654 0.00274688  0.0560472 -0.0005114 -0.0025261  0.0558385 -0.00016031 -0.00799131  0.0552886 0.000228673 -0.0136361  0.0543595 0.000633016 -0.0194369  0.053039 0.00102933 -0.02536  0.051342 0.00139147 -0.0313553  0.0493167 0.00169229 -0.0373545  0.0470486 0.00190137 -0.0432683  0.0446666 0.00197902 -0.0489569  0.0423527 0.00187854 -0.0541862  0.0402901 0.00150262 -0.0584388  0.0386334 0.000798129 -0.0605638  0.0364307 -0.00172055 -0.0550436  0.14186 0.0214786 0.0901852  0.127134 0.00985563 0.0826983  0.120145 0.00454456 0.0765062  0.115799 0.00122576 0.0697275  0.113043 -0.000997417 0.0624428  0.111418 -0.00246619 0.0547186  0.110571 -0.00336958 0.0465081  0.110239 -0.00382176 0.0378039  0.110207 -0.00389954 0.0286097  0.110296 -0.00365584 0.0189419  0.110347 -0.00313437 0.00883436  0.110222 -0.0023695 -0.00168145  0.109787 -0.0014003 -0.0125638  0.108925 -0.000271715 -0.0237685  0.107539 0.00096263 -0.0352339  0.105556 0.00223742 -0.0468866  0.102939 0.00347934 -0.0586306  0.0996895 0.00460575 -0.0703459  0.0958503 0.00552307 -0.0818801  0.0915036 0.00612617 -0.093027  0.0867538 0.00628394 -0.103487  0.0817267 0.00583514 -0.112781  0.0765041 0.00454411 -0.120145  0.0711077 0.00198431 -0.123728  0.0640762 -0.00408412 -0.121902  0.217448 0.0316529 0.132224  0.198569 0.0165414 0.118463  0.187181 0.00718038 0.107198  0.179963 0.0012719 0.0962252  0.174992 -0.00265083 0.0848942  0.171508 -0.00519314 0.0729772  0.169059 -0.00669444 0.0603832  0.167308 -0.00736669 0.0470638  0.165984 -0.00735576 0.0330113  0.16486 -0.00676671 0.0182478  0.163734 -0.00568816 0.00282401  0.162428 -0.0041926 -0.0131978  0.160776 -0.00235763 -0.0297356  0.158629 -0.0002691 -0.0466916  0.155859 0.00197312 -0.0639487  0.152366 0.00425057 -0.0813627  0.148089 0.00643061 -0.0987707  0.143003 0.00836186 -0.115975  0.137132 0.00987448 -0.132729  0.130531 0.010776 -0.148734  0.123285 0.0108375 -0.16358  0.115487 0.00977308 -0.176696  0.107196 0.00717933 -0.187179  0.0981951 0.00232112 -0.193823  0.0874687 -0.00648096 -0.195579  0.297375 0.0358712 0.165152  0.275124 0.0199275 0.146655  0.259335 0.00831586 0.130615  0.248332 0.000411063 0.115292  0.24028 -0.00490297 0.0997975  0.234127 -0.00832555 0.0836853  0.229268 -0.0102789 0.0667425  0.225284 -0.0110487 0.0488737  0.221844 -0.01084 0.0300493  0.218677 -0.00981048 0.0102951  0.215544 -0.00809401 -0.0103207  0.212237 -0.00580904 -0.0316998  0.208565 -0.00307611 -0.0537171  0.204359 -2.79546e-05 -0.0762175  0.199469 0.00318469 -0.0990234  0.193778 0.00638658 -0.121927  0.187211 0.00938149 -0.144694  0.179737 0.0119501 -0.167061  0.171374 0.013846 -0.188727  0.162185 0.0147916 -0.209331  0.152269 0.014467 -0.228417  0.141733 0.0124794 -0.24537  0.130617 0.00831424 -0.259335  0.118738 0.00125764 -0.269292  0.105488 -0.00966537 -0.274569  0.379771 0.0362712 0.187042  0.354276 0.0204923 0.165151  0.334445 0.00800635 0.145217  0.319369 -0.00107941 0.125959  0.30765 -0.00734152 0.106517  0.298182 -0.0113748 0.0863848  0.290244 -0.0136103 0.0652784  0.283328 -0.0143676 0.0430574  0.277049 -0.0138948 0.0196793  0.271092 -0.0123929 -0.00482696  0.265192 -0.010039 -0.0303719  0.259118 -0.00699522 -0.056823  0.25266 -0.0034284 -0.0840083  0.245636 0.000480205 -0.111716  0.237891 0.00452816 -0.139707  0.229303 0.00848323 -0.167708  0.219789 0.0120865 -0.195429  0.209324 0.0150525 -0.222553  0.197935 0.017067 -0.248731  0.185699 0.0177809 -0.273561  0.172746 0.0168114 -0.296563  0.159219 0.0137194 -0.317118  0.145221 0.00800397 -0.334446  0.130731 -0.000858992 -0.347707  0.115486 -0.0133125 -0.356418  0.46316 0.0348501 0.197544  0.434275 0.0194842 0.173224  0.410604 0.00681883 0.150243  0.391446 -0.00281847 0.127645  0.375751 -0.00962998 0.104681  0.362506 -0.0140298 0.080865  0.350947 -0.0164043 0.0559018  0.340512 -0.0170763 0.0296386  0.330765 -0.0163173 0.00202948  0.321361 -0.0143609 -0.026885  0.31201 -0.0114218 -0.0569926  0.302466 -0.00770386 -0.0881232  0.292515 -0.00341888 -0.120054  0.281969 0.00120506 -0.152522  0.270676 0.00591314 -0.185222  0.258514 0.0104192 -0.217827  0.245409 0.014408 -0.249988  0.231345 0.0175369 -0.281337  0.216365 0.0194405 -0.311492  0.20058 0.0197292 -0.340022  0.184159 0.0179998 -0.366449  0.167312 0.0138327 -0.390198  0.150247 0.00681639 -0.410603  0.133132 -0.00336452 -0.427004  0.115995 -0.0168152 -0.438993  0.546206 0.0328352 0.19679  0.513801 0.0178744 0.170783  0.486324 0.00530362 0.145473  0.463104 -0.00450882 0.12014  0.443267 -0.0115774 0.094162  0.425918 -0.0161574 0.0671007  0.410313 -0.0185688 0.0386904  0.395863 -0.0191154 0.00878638  0.382107 -0.0180783 -0.0226427  0.368677 -0.0157146 -0.0555339  0.355267 -0.01227 -0.0897463  0.341627 -0.00798663 -0.125068  0.327542 -0.00311857 -0.161228  0.312832 0.00206095 -0.197904  0.297351 0.00724861 -0.234736  0.280989 0.0121101 -0.271339  0.26369 0.0162847 -0.307313  0.245459 0.0193897 -0.342251  0.226368 0.0210328 -0.375748  0.206571 0.0208161 -0.407372  0.186291 0.018354 -0.436678  0.165817 0.0132836 -0.463172  0.145474 0.00530073 -0.486323  0.125601 -0.00574908 -0.505614  0.106469 -0.0197748 -0.520682  0.627666 0.0308658 0.185084  0.591656 0.0162286 0.158006  0.560345 0.00382382 0.130998  0.533046 -0.00598043 0.103509  0.508955 -0.0131224 0.0750438  0.487268 -0.0177562 0.0452343  0.467279 -0.0201353 0.0138508  0.448409 -0.0205396 -0.0192167  0.430182 -0.0192492 -0.0539731  0.412224 -0.0165366 -0.0903274  0.394225 -0.0126736 -0.128102  0.375937 -0.00793728 -0.167039  0.357153 -0.00262022 -0.206816  0.337709 0.00296167 -0.247055  0.317473 0.00846371 -0.287344  0.296364 0.013514 -0.327246  0.274346 0.0177197 -0.366325  0.25146 0.0206784 -0.404149  0.227822 0.0219942 -0.440308  0.203632 0.0212851 -0.474399  0.179179 0.0182047 -0.506034  0.154823 0.0124539 -0.534817  0.130997 0.00382009 -0.560344  0.108183 -0.00774929 -0.58222  0.0868419 -0.0220469 -0.600146  0.706344 0.0292155 0.162824  0.66669 0.0148044 0.135221  0.631503 0.00255364 0.107088  0.600083 -0.00717285 0.0780028  0.571647 -0.0142904 0.0475883  0.545446 -0.018899 0.0155575  0.520816 -0.021204 -0.0182697  0.497195 -0.0214608 -0.0539628  0.474119 -0.0199453 -0.0914887  0.451212 -0.0169401 -0.13072  0.428175 -0.0127403 -0.171435  0.404768 -0.00765422 -0.213328  0.380807 -0.00200954 -0.256027  0.356148 0.00384086 -0.299103  0.33069 0.00952002 -0.342097  0.30438 0.0146301 -0.384538  0.277223 0.0187624 -0.425964  0.249301 0.0215131 -0.46594  0.220778 0.0224976 -0.50407  0.191911 0.021365 -0.539999  0.163037 0.0178089 -0.573409  0.134589 0.0115874 -0.604007  0.107086 0.00254989 -0.631503  0.081118 -0.00929663 -0.655615  0.0572996 -0.0236701 -0.67613  0.781067 0.0279485 0.130484  0.737766 0.0136703 0.102874  0.69869 0.00153002 0.0741621  0.663112 -0.00810677 0.0440267  0.630256 -0.0151561 0.0122091  0.59941 -0.0196941 -0.0214933  0.569941 -0.0218975 -0.0571997  0.541315 -0.0220034 -0.0949321  0.513086 -0.0202849 -0.134612  0.484896 -0.0170343 -0.176067  0.456462 -0.0125665 -0.219031  0.427564 -0.00721866 -0.263152  0.398048 -0.00134948 -0.308008  0.367803 0.00465953 -0.353132  0.336764 0.0104091 -0.398029  0.304917 0.015488 -0.442207  0.272315 0.0194867 -0.485198  0.239085 0.0220112 -0.526579  0.205442 0.0226991 -0.565989  0.171687 0.0212277 -0.603127  0.138214 0.0173284 -0.637753  0.105511 0.0107995 -0.669668  0.0741624 0.00152841 -0.69869  0.0448365 -0.0104445 -0.724646  0.0182401 -0.0247937 -0.74743  0.850687 0.0270096 0.0886597  0.803791 0.0127842 0.0615451  0.760841 0.000709683 0.0327785  0.72109 -0.00884852 0.00213504  0.683768 -0.0158115 -0.0305339  0.648182 -0.02025 -0.0653405  0.613737 -0.0223291 -0.102334  0.579926 -0.022277 -0.141481  0.546328 -0.020367 -0.182653  0.512613 -0.0169041 -0.225629  0.478521 -0.0122221 -0.270098  0.44387 -0.00668487 -0.315663  0.408537 -0.00067547 -0.361864  0.372452 0.0054042 -0.408203  0.335596 0.0111437 -0.454168  0.298 0.0161307 -0.499262  0.259763 0.0199653 -0.543028  0.221059 0.022271 -0.585071  0.182151 0.0227078 -0.625072  0.143384 0.0209783 -0.662789  0.105196 0.0168393 -0.698058  0.0681176 0.0101126 -0.730769  0.0327792 0.000708669 -0.76084  -9.47714e-05 -0.0113123 -0.788207  -0.0297505 -0.0255992 -0.812879  0.914089 0.0262783 0.0380646  0.863712 0.0120432 0.0119365  0.816953 4.17233e-07 -0.0163755  0.77305 -0.00948733 -0.0469933  0.731247 -0.0163483 -0.0799588  0.690878 -0.0206591 -0.115289  0.65138 -0.0225852 -0.152956  0.612278 -0.022357 -0.192866  0.573183 -0.0202542 -0.234834  0.533795 -0.0165988 -0.278591  0.493897 -0.0117458 -0.323777  0.453345 -0.00607917 -0.369964  0.412057 -9.53674e-07 -0.416664  0.370011 0.00607681 -0.463364  0.32723 0.0117435 -0.509551  0.283794 0.0165961 -0.554738  0.23985 0.0202512 -0.598493  0.195613 0.0223539 -0.640461  0.151384 0.0225831 -0.68037  0.107551 0.0206574 -0.718038  0.0645866 0.0163475 -0.753368  0.0230553 0.00948727 -0.786335  -0.0163727 -6.25849e-07 -0.816952  -0.0529481 -0.0120433 -0.845264  -0.0859047 -0.026279 -0.871392  0.970244 0.0255973 -0.0204492  0.916568 0.0113111 -0.0451217  0.86611 -0.000710428 -0.0724876  0.818114 -0.0101135 -0.102559  0.771859 -0.0168406 -0.135269  0.726714 -0.0209806 -0.170537  0.682147 -0.0227103 -0.208255  0.637724 -0.0222746 -0.248255  0.593095 -0.0199677 -0.290299  0.548001 -0.0161334 -0.334065  0.502265 -0.011146 -0.379159  0.455788 -0.00540686 -0.425124  0.408538 0.000673294 -0.471464  0.360537 0.00668246 -0.517665  0.311854 0.0122199 -0.563229  0.262612 0.0169014 -0.607698  0.212997 0.0203642 -0.650674  0.163264 0.0222747 -0.691846  0.113743 0.0223279 -0.730993  0.0648551 0.0202488 -0.767986  0.0171095 0.0158111 -0.802794  -0.0289019 0.00884968 -0.835464  -0.0724836 -0.000709891 -0.866106  -0.112867 -0.0127839 -0.894872  -0.149305 -0.0270089 -0.921987  1.01824 0.0247919 -0.0858971  0.961501 0.0104436 -0.108682  0.907495 -0.00152981 -0.134637  0.85551 -0.0107999 -0.16366  0.80488 -0.0173302 -0.195574  0.755018 -0.0212301 -0.230198  0.705439 -0.0227014 -0.267337  0.65575 -0.0220144 -0.306746  0.605648 -0.0194888 -0.34813  0.554919 -0.0154903 -0.391121  0.503432 -0.0104114 -0.435298  0.451139 -0.00466251 -0.480195  0.39805 0.00134695 -0.525319  0.344233 0.0072161 -0.570176  0.289796 0.0125647 -0.614297  0.234897 0.0170322 -0.65726  0.179754 0.0202826 -0.698716  0.124652 0.0220015 -0.738396  0.0699472 0.0218963 -0.776129  0.0160841 0.019693 -0.811835  -0.0364017 0.0151559 -0.845539  -0.0868788 0.00810754 -0.877357  -0.134633 -0.00152975 -0.907492  -0.178891 -0.0136706 -0.936202  -0.218922 -0.0279484 -0.963813  1.0573 0.0236705 -0.157196  0.997786 0.00929511 -0.177712  0.940421 -0.0025515 -0.201824  0.884587 -0.0115877 -0.22932  0.829702 -0.0178106 -0.259918  0.775242 -0.0213677 -0.293327  0.720778 -0.0225007 -0.329256  0.665968 -0.0215162 -0.367386  0.610557 -0.0187646 -0.407363  0.55438 -0.0146323 -0.448789  0.497357 -0.00952262 -0.49123  0.439484 -0.00384414 -0.534224  0.380809 0.00200695 -0.577301  0.321437 0.00765157 -0.619999  0.261509 0.0127388 -0.661894  0.201212 0.0169386 -0.702608  0.140786 0.0199432 -0.741839  0.0805311 0.0214589 -0.779365  0.020822 0.021203 -0.815059  -0.0378801 0.018898 -0.848886  -0.095012 0.0142906 -0.880918  -0.149907 0.00717348 -0.911333  -0.20182 -0.00255239 -0.940418  -0.249967 -0.0148036 -0.968549  -0.293644 -0.0292147 -0.996151  1.08684 0.0220466 -0.233181  1.02485 0.00774896 -0.251107  0.96433 -0.00382036 -0.272983  0.904824 -0.0124548 -0.298509  0.845847 -0.0182067 -0.327291  0.786967 -0.0212877 -0.358925  0.727822 -0.0219967 -0.393017  0.668127 -0.0206816 -0.429175  0.60768 -0.0177221 -0.467001  0.546363 -0.013516 -0.50608  0.484142 -0.00846666 -0.545983  0.421044 -0.00296503 -0.586271  0.357155 0.00261766 -0.626512  0.292605 0.00793481 -0.666288  0.227561 0.0126722 -0.705227  0.162225 0.0165352 -0.743001  0.0968511 0.0192478 -0.779357  0.031744 0.0205386 -0.814113  -0.0327164 0.0201346 -0.847181  -0.0960597 0.0177554 -0.878564  -0.157705 0.0131231 -0.908375  -0.216946 0.00598043 -0.93684  -0.27298 -0.00382245 -0.96433  -0.325 -0.0162279 -0.991337  -0.372324 -0.0308649 -1.01841  1.10647 0.0197748 -0.312645  1.04227 0.00574756 -0.327715  0.978808 -0.00530136 -0.347006  0.915816 -0.0132839 -0.370155  0.852958 -0.0183564 -0.396648  0.789905 -0.0208189 -0.425955  0.726369 -0.0210356 -0.45758  0.662125 -0.0193931 -0.491074  0.597025 -0.0162872 -0.526015  0.53099 -0.0121122 -0.561988  0.46402 -0.00725126 -0.598591  0.396168 -0.00206393 -0.635422  0.327544 0.00311601 -0.672099  0.258296 0.00798458 -0.70826  0.188602 0.0122682 -0.743582  0.118678 0.0157135 -0.777795  0.0487764 0.0180772 -0.810687  -0.0208008 0.0191155 -0.842117  -0.0896821 0.0185688 -0.872021  -0.157408 0.0161581 -0.900433  -0.223394 0.0115776 -0.927493  -0.286886 0.00450885 -0.953473  -0.347002 -0.00530291 -0.978806  -0.402858 -0.0178754 -1.00411  -0.453786 -0.0328356 -1.03012  1.11599 0.0168135 -0.394337  1.04979 0.00336343 -0.406323  0.983575 -0.0068168 -0.422726  0.917306 -0.0138326 -0.443131  0.850824 -0.0180019 -0.46688  0.783913 -0.0197315 -0.493305  0.716366 -0.019443 -0.521836  0.648012 -0.0175404 -0.551988  0.578743 -0.0144106 -0.583339  0.508516 -0.0104213 -0.615501  0.437346 -0.00591564 -0.648106  0.365306 -0.00120753 -0.680806  0.292517 0.00341684 -0.713274  0.219134 0.00770211 -0.745205  0.145345 0.0114199 -0.776335  0.0713634 0.0143603 -0.806445  -0.00256509 0.0163165 -0.83536  -0.0761517 0.0170773 -0.862971  -0.149047 0.0164049 -0.889235  -0.220821 0.0140301 -0.914197  -0.290909 0.00963044 -0.938013  -0.358545 0.00281841 -0.960977  -0.422723 -0.00681847 -0.983574  -0.482384 -0.0194851 -1.00656  -0.536832 -0.0348513 -1.03088  1.11548 0.0133117 -0.47691  1.0474 0.000858307 -0.485622  0.978553 -0.00800449 -0.498884  0.909217 -0.01372 -0.516212  0.839411 -0.0168123 -0.536765  0.769032 -0.0177826 -0.559768  0.697935 -0.0170689 -0.584599  0.625991 -0.0150555 -0.610774  0.553123 -0.0120889 -0.637899  0.479303 -0.00848508 -0.665621  0.40456 -0.00453013 -0.693624  0.328972 -0.000482142 -0.721614  0.252662 0.00342697 -0.749322  0.175786 0.00699401 -0.776506  0.0985295 0.0100371 -0.802957  0.0210956 0.0123928 -0.828504  -0.0562809 0.0138947 -0.85301  -0.133335 0.0143684 -0.87639  -0.209751 0.0136105 -0.898611  -0.285146 0.0113749 -0.919718  -0.359011 0.00734228 -0.939851  -0.430624 0.00107926 -0.959292  -0.498881 -0.00800598 -0.97855  -0.562384 -0.0204927 -0.998483  -0.620222 -0.0362719 -1.02037  1.10548 0.00966364 -0.55876  1.0354 -0.00125909 -0.564038  0.963947 -0.00831467 -0.573994  0.89173 -0.0124799 -0.58796  0.818933 -0.0144676 -0.604912  0.745518 -0.014793 -0.624  0.671375 -0.0138475 -0.644603  0.596405 -0.011952 -0.666267  0.520545 -0.00938344 -0.688634  0.44378 -0.00638855 -0.711401  0.366137 -0.00318587 -0.734305  0.287695 2.66433e-05 -0.757111  0.208569 0.00307488 -0.779613  0.128907 0.00580823 -0.80163  0.0488821 0.00809258 -0.823009  -0.0313199 0.00981057 -0.843625  -0.111485 0.0108401 -0.86338  -0.191378 0.0110494 -0.882206  -0.270726 0.0102795 -0.900076  -0.349202 0.0083257 -0.917018  -0.426382 0.00490355 -0.933131  -0.501663 -0.000411093 -0.948625  -0.573992 -0.0083161 -0.963948  -0.641539 -0.0199278 -0.979986  -0.70262 -0.0358721 -0.998483  1.08747 0.00648093 -0.637753  1.01486 -0.0023216 -0.639507  0.940531 -0.00717992 -0.64615  0.865488 -0.00977308 -0.656634  0.789953 -0.0108381 -0.669751  0.713865 -0.0107765 -0.684598  0.637134 -0.00987566 -0.700602  0.559672 -0.00836289 -0.717356  0.481424 -0.00643158 -0.734557  0.40237 -0.00425243 -0.751966  0.322529 -0.00197381 -0.769382  0.241966 0.00026834 -0.786639  0.160779 0.00235701 -0.803594  0.0790978 0.00419182 -0.820132  -0.00292832 0.00568688 -0.836155  -0.0851368 0.00676709 -0.85158  -0.167346 0.00735593 -0.866344  -0.249355 0.00736731 -0.880398  -0.330936 0.00669509 -0.893719  -0.411819 0.00519335 -0.90631  -0.49167 0.00265127 -0.918226  -0.570032 -0.0012722 -0.929558  -0.646148 -0.00718087 -0.94053  -0.718095 -0.0165414 -0.951795  -0.782549 -0.0316533 -0.965556  1.06407 0.00408381 -0.711429  0.987773 -0.00198501 -0.709603  0.909836 -0.00454479 -0.713187  0.831726 -0.00583535 -0.720552  0.75342 -0.0062843 -0.729845  0.674837 -0.00612599 -0.740306  0.595851 -0.00552356 -0.751451  0.516357 -0.00460613 -0.762985  0.436273 -0.00347954 -0.7747  0.355559 -0.00223857 -0.786444  0.274209 -0.000963569 -0.798097  0.192261 0.000271142 -0.809563  0.109789 0.00139982 -0.820766  0.0268904 0.00236911 -0.83165  -0.0563164 0.0031333 -0.842165  -0.139702 0.00365615 -0.852275  -0.223125 0.00389969 -0.861943  -0.306426 0.00382227 -0.871139  -0.389426 0.00336981 -0.879842  -0.471912 0.0024659 -0.888052  -0.553621 0.000997603 -0.895776  -0.634197 -0.00122607 -0.90306  -0.713185 -0.00454497 -0.909838  -0.78953 -0.00985551 -0.916032  -0.858138 -0.0214781 -0.923517  1.03643 0.00172079 -0.778289  0.955302 -0.000798285 -0.772768  0.873625 -0.00150263 -0.774893  0.792354 -0.00187856 -0.779145  0.711334 -0.00197911 -0.784376  0.630383 -0.00190133 -0.790065  0.549317 -0.00169247 -0.795979  0.468009 -0.00139159 -0.801978  0.386372 -0.00102913 -0.807972  0.30436 -0.000633359 -0.813894  0.221956 -0.00022918 -0.819695  0.139173 0.00015986 -0.82534  0.0560493 0.000511169 -0.830806  -0.02736 0.000806332 -0.83608  -0.110984 0.00103068 -0.841152  -0.194743 0.00117266 -0.846018  -0.278548 0.0012219 -0.850668  -0.362298 0.00116754 -0.85509  -0.445876 0.000995338 -0.859274  -0.529142 0.000685453 -0.863211  -0.611915 0.000207722 -0.866909  -0.693975 -0.000471711 -0.870356  -0.774892 -0.00150275 -0.873624  -0.854687 -0.00268942 -0.876118  -0.929145 -0.00731319 -0.877169  1 0 -0.833333  0.916667 0 -0.833333  0.833333 0 -0.833333  0.75 0 -0.833333  0.666667 0 -0.833333  0.583333 0 -0.833333  0.5 0 -0.833333  0.416667 0 -0.833333  0.333333 0 -0.833333  0.25 0 -0.833333  0.166667 0 -0.833333  0.0833333 0 -0.833333  0 0 -0.833333  -0.0833334 0 -0.833333  -0.166667 0 -0.833333  -0.25 0 -0.833333  -0.333333 0 -0.833333  -0.416667 0 -0.833333  -0.5 0 -0.833333  -0.583333 0 -0.833333  -0.666667 0 -0.833333  -0.75 0 -0.833333  -0.833333 0 -0.833333  -0.916667 0 -0.833333  -1 0 -0.833333  0 0 0  -1.11759e-08 0 0  7.45058e-09 0 0  0 0 0  1.49012e-08 0 0  0 0 0  0 0 0  0 0 0  0 0 0  0 0 0  0 0 0  0 0 0  0 0 0  0 0 0  0 0 0  0 0 0  0 0 0  0 0 0  0 0 0  0 0 0  0 0 0  0 0 0  0 0 0  0 0 0  0 0 0  0.0733294 0.00756358 0.036453  0.0637767 0.00225507 0.0397463  0.0605648 0.000798356 0.0386356  0.0585866 -0.000379115 0.0362916  0.0578028 -0.00114698 0.0335113  0.0577625 -0.00167252 0.0303082  0.0582433 -0.00199009 0.0267345  0.0590524 -0.00212889 0.0227988  0.0600318 -0.00210753 0.0185152  0.0610442 -0.00194036 0.0138965  0.0619652 -0.00164121 0.00895512  0.0626805 -0.00122508 0.00369316  0.0630833 -0.00071431 -0.00187796  0.0630815 -0.000136051 -0.00774133  0.0626006 0.000475995 -0.0138664  0.0615954 0.00108651 -0.0202013  0.0600514 0.00166148 -0.0266801  0.0579861 0.00216928 -0.033219  0.0554512 0.00258295 -0.0397211  0.0525293 0.00287676 -0.0460772  0.0493385 0.00302163 -0.0521351  0.0460386 0.00298383 -0.0576365  0.042784 0.0026893 -0.0619766  0.0397445 0.00225524 -0.0637763  0.0354097 0.000520442 -0.0567144  0.147081 0.0214129 0.0800167  0.130518 0.0081281 0.0744966  0.123729 0.00198475 0.07111  0.120066 -0.00176145 0.0661793  0.118146 -0.00425752 0.0602838  0.117472 -0.00586294 0.0536126  0.117658 -0.00677983 0.0461978  0.118415 -0.00712138 0.0380669  0.119497 -0.00696518 0.0292402  0.120686 -0.0063686 0.0197374  0.121779 -0.00538384 0.00959396  0.122587 -0.00406232 -0.00115824  0.122931 -0.00246365 -0.0124716  0.122649 -0.000657998 -0.0242831  0.121607 0.00127392 -0.0365022  0.119705 0.0032431 -0.0490147  0.116895 0.00516012 -0.0616819  0.113167 0.00693059 -0.0743353  0.108559 0.00846065 -0.0867775  0.103137 0.00964929 -0.0987487  0.096985 0.0103828 -0.109893  0.0901747 0.0105225 -0.119651  0.0826965 0.00985479 -0.127132  0.0744953 0.00812814 -0.130517  0.0639699 0.00286452 -0.127625  0.226101 0.0286905 0.119748  0.205329 0.012559 0.107116  0.193825 0.00232205 0.0981966  0.187319 -0.00409889 0.0894548  0.18331 -0.00832358 0.079918  0.180964 -0.010978 0.0694335  0.179776 -0.012408 0.0579551  0.179375 -0.0128239 0.0454671  0.179445 -0.0123717 0.0319753  0.179704 -0.0111651 0.0175046  0.179893 -0.00930418 0.00210583  0.179763 -0.00688824 -0.0141523  0.179087 -0.00402229 -0.0311737  0.177657 -0.000825472 -0.0488331  0.1753 0.00256906 -0.0669731  0.171888 0.00601494 -0.0854034  0.167345 0.00935772 -0.103914  0.161652 0.0124312 -0.122265  0.15485 0.0150607 -0.140179  0.147022 0.0170507 -0.15732  0.138283 0.0181749 -0.173252  0.128744 0.0181395 -0.187337  0.118463 0.0165404 -0.198569  0.107116 0.0125578 -0.205328  0.0933936 0.0043816 -0.206163  0.309121 0.0297649 0.149946  0.285317 0.0134341 0.132806  0.269293 0.00125957 0.118736  0.258965 -0.00705847 0.10558  0.251967 -0.0125922 0.0920125  0.247087 -0.0160304 0.0775174  0.243659 -0.017781 0.0618732  0.241211 -0.0181239 0.044991  0.239359 -0.0172614 0.0268406  0.237765 -0.015361 0.00744617  0.236119 -0.012573 -0.0131258  0.234136 -0.00904438 -0.0347686  0.23155 -0.00493082 -0.057335  0.228128 -0.000403419 -0.080637  0.223673 0.00434643 -0.104453  0.218041 0.00910641 -0.128529  0.211153 0.013646 -0.152586  0.202996 0.0177145 -0.176324  0.193624 0.0210384 -0.199411  0.183152 0.0233132 -0.221455  0.171739 0.024189 -0.24195  0.159548 0.0232426 -0.260187  0.146656 0.0199262 -0.275123  0.132807 0.0134323 -0.285317  0.117201 0.00281928 -0.289768  0.394431 0.0278488 0.168989  0.367676 0.0119067 0.14878  0.347708 -0.000856802 0.130725  0.333312 -0.0101843 0.113494  0.322729 -0.0165379 0.0959584  0.314662 -0.0204596 0.0774834  0.308304 -0.0223503 0.0577381  0.303081 -0.0225149 0.0365574  0.298543 -0.0211966 0.0138831  0.294303 -0.0186046 -0.0102684  0.290013 -0.0149356 -0.0358106  0.285359 -0.0103818 -0.0626034  0.280052 -0.00515097 -0.0904505  0.273844 0.000530869 -0.119106  0.266528 0.00640742 -0.148284  0.257958 0.0121932 -0.17766  0.248058 0.0175761 -0.206894  0.236824 0.0222172 -0.235613  0.22433 0.0257512 -0.263416  0.210719 0.0277879 -0.289838  0.196186 0.0279067 -0.314316  0.180946 0.0256459 -0.336113  0.165153 0.0204907 -0.354276  0.148784 0.0119052 -0.367674  0.131498 -0.000463963 -0.375519  0.480515 0.0249123 0.176631  0.450624 0.00942248 0.154225  0.427005 -0.00336055 0.133129  0.408615 -0.013081 0.112443  0.394148 -0.0198524 0.0912963  0.382426 -0.0240145 0.0690869  0.372584 -0.0259121 0.0454516  0.36398 -0.0258473 0.0201955  0.356105 -0.0240828 -0.00676024  0.348531 -0.0208605 -0.0353952  0.34088 -0.0164145 -0.0656067  0.33282 -0.0109809 -0.0972192  0.324048 -0.00481871 -0.129985  0.314308 0.00178748 -0.163601  0.303395 0.00851369 -0.197704  0.291164 0.0150016 -0.231899  0.27755 0.0208617 -0.265761  0.262573 0.0256854 -0.298844  0.246334 0.0290503 -0.330681  0.229016 0.0305296 -0.360762  0.210869 0.0297019 -0.38852  0.19218 0.0261497 -0.413285  0.173226 0.0194834 -0.434274  0.154225 0.00941989 -0.450622  0.135209 -0.00407626 -0.461601  0.565951 0.0219677 0.172957  0.532816 0.00687084 0.149017  0.505614 -0.0057455 0.125602  0.483315 -0.0155251 0.102085  0.464825 -0.022438 0.0778039  0.449121 -0.0266686 0.0522377  0.435358 -0.0284913 0.0250516  0.42286 -0.0281844 -0.00395346  0.411082 -0.0260179 -0.0348513  0.399567 -0.0222559 -0.0676064  0.387917 -0.0171628 -0.102093  0.375783 -0.0110179 -0.138092  0.362858 -0.00412881 -0.175303  0.348888 0.00316036 -0.21335  0.333675 0.0104616 -0.251795  0.317093 0.0173529 -0.290159  0.299104 0.0233878 -0.327937  0.279764 0.0281181 -0.364625  0.25922 0.0311024 -0.399717  0.23771 0.0319273 -0.432715  0.215546 0.03021 -0.463104  0.193102 0.0256139 -0.490334  0.170782 0.0178726 -0.513798  0.149014 0.00686729 -0.532815  0.128125 -0.00727597 -0.546694  0.649461 0.0194692 0.158235  0.613022 0.0046744 0.133316  0.58222 -0.00774628 0.108183  0.556026 -0.0174427 0.0824052  0.533428 -0.0243382 0.0554918  0.513512 -0.0285321 0.0270217  0.49548 -0.0302338 -0.00329834  0.47866 -0.0296971 -0.0356352  0.462493 -0.0271881 -0.070043  0.446503 -0.0229846 -0.106463  0.43028 -0.0173784 -0.14473  0.41347 -0.0106872 -0.184577  0.39577 -0.00326663 -0.225638  0.37694 0.00448462 -0.26746  0.356801 0.012125 -0.309526  0.335266 0.0191856 -0.351282  0.312338 0.0251886 -0.392165  0.288126 0.0296745 -0.431641  0.262836 0.0322168 -0.469212  0.236762 0.0324354 -0.504426  0.210286 0.0300043 -0.536856  0.18386 0.024659 -0.566084  0.158003 0.0162252 -0.591655  0.133314 0.00467139 -0.613021  0.110348 -0.00978798 -0.629566  0.729829 0.0175528 0.132838  0.690052 0.0029608 0.107437  0.655616 -0.00929376 0.0811193  0.625495 -0.0188677 0.0536155  0.598707 -0.0256745 0.0245819  0.574403 -0.0297759 -0.00630325  0.55183 -0.0313391 -0.0392744  0.530337 -0.0305933 -0.0744556  0.509368 -0.0277999 -0.111863  0.488441 -0.0232458 -0.1514  0.467147 -0.0172466 -0.192855  0.445136 -0.0101556 -0.235901  0.422125 -0.00237182 -0.280101  0.397897 0.00566065 -0.32493  0.372316 0.0134607 -0.369799  0.345345 0.0205322 -0.414098  0.317044 0.0263885 -0.45724  0.287583 0.030581 -0.498691  0.257226 0.0327106 -0.537991  0.226333 0.0324396 -0.574758  0.195337 0.0294891 -0.608667  0.164759 0.023649 -0.639417  0.135217 0.0148015 -0.666689  0.107434 0.00295851 -0.69005  0.0821521 -0.011605 -0.708989  0.805854 0.016175 0.0972437  0.762738 0.00169739 0.0718297  0.724647 -0.0104427 0.0448334  0.690558 -0.0199023 0.0161181  0.659502 -0.0266004 -0.0145202  0.630668 -0.0305862 -0.0473037  0.603337 -0.0320056 -0.0823964  0.576887 -0.0310703 -0.119872  0.550775 -0.0280393 -0.159695  0.52453 -0.0232073 -0.201722  0.497755 -0.016912 -0.245684  0.470118 -0.00953791 -0.291189  0.441366 -0.00152186 -0.33773  0.411327 0.00665769 -0.384717  0.37992 0.0144954 -0.431511  0.347169 0.0214849 -0.477475  0.313197 0.0271485 -0.522022  0.278238 0.0310577 -0.564649  0.242613 0.0328454 -0.604956  0.206728 0.0322056 -0.642635  0.171072 0.0288983 -0.677461  0.136228 0.0227481 -0.709238  0.102873 0.0136683 -0.737768  0.0718335 0.00169516 -0.762737  0.0439701 -0.0128619 -0.783761  0.876364 0.0152016 0.0520598  0.829952 0.000763744 0.0270923  0.788209 -0.0113101 -9.7096e-05  0.750121 -0.0206785 -0.0295155  0.714732 -0.0272686 -0.0612351  0.681253 -0.0311288 -0.0953776  0.649001 -0.0323999 -0.132027  0.617379 -0.0312863 -0.171195  0.585863 -0.0280464 -0.212791  0.554012 -0.0229858 -0.256611  0.521447 -0.0164636 -0.302324  0.487874 -0.00889245 -0.349474  0.453083 -0.000738651 -0.397493  0.416956 0.00749522 -0.445743  0.379481 0.0152939 -0.493559  0.340745 0.022154 -0.540303  0.300939 0.0276167 -0.585417  0.260347 0.031276 -0.628446  0.219346 0.0327924 -0.669054  0.178388 0.031885 -0.707013  0.138002 0.0283369 -0.742184  0.0988114 0.021992 -0.774473  0.061546 0.012783 -0.80379  0.0270954 0.000760794 -0.829949  -0.00359362 -0.0137433 -0.852697  0.940227 0.0144554 -0.0019722  0.890619 1.84774e-06 -0.0260457  0.845266 -0.0120411 -0.0529518  0.803174 -0.0213344 -0.0825679  0.763411 -0.027813 -0.114839  0.725214 -0.0315355 -0.14978  0.687928 -0.0326425 -0.187392  0.650987 -0.0313433 -0.227614  0.613898 -0.0279009 -0.270291  0.576248 -0.0226366 -0.315154  0.537701 -0.0159314 -0.361807  0.498009 -0.00822353 -0.409736  0.457015 -4.47035e-07 -0.458331  0.414674 0.00822228 -0.506926  0.371033 0.0159304 -0.554856  0.326247 0.0226349 -0.601507  0.280565 0.0278988 -0.646369  0.234323 0.0313407 -0.689045  0.187932 0.0326407 -0.729267  0.141886 0.0315334 -0.766879  0.0967512 0.0278128 -0.801822  0.0531797 0.0213339 -0.834093  0.0119399 0.0120419 -0.86371  -0.0260415 -1.3113e-06 -0.890616  -0.0597675 -0.014456 -0.914689  0.996402 0.0137423 -0.063962  0.943759 -0.00076139 -0.086711  0.894878 -0.0127833 -0.112871  0.848808 -0.0219934 -0.142187  0.804666 -0.028338 -0.174476  0.761717 -0.031888 -0.209645  0.719343 -0.0327939 -0.247606  0.677013 -0.0312787 -0.288214  0.634271 -0.0276186 -0.331243  0.590747 -0.0221561 -0.376358  0.54615 -0.0152951 -0.423103  0.500292 -0.00749695 -0.470919  0.453084 0.000737846 -0.519169  0.404541 0.00889134 -0.567188  0.354779 0.0164623 -0.614337  0.304011 0.022984 -0.660048  0.252532 0.0280439 -0.703868  0.200716 0.0312842 -0.745464  0.149008 0.0323982 -0.784632  0.0979259 0.0311278 -0.821283  0.0480737 0.0272682 -0.855426  0.000128984 0.0206794 -0.887147  -0.0451165 0.0113103 -0.916564  -0.0867061 -0.00076288 -0.943754  -0.123628 -0.0152014 -0.968721  1.04397 0.0128593 -0.132899  0.988498 -0.00169694 -0.153924  0.936206 -0.0136693 -0.178895  0.886224 -0.0227496 -0.207423  0.837739 -0.0289006 -0.2392  0.790058 -0.0322084 -0.274023  0.742611 -0.032847 -0.311704  0.694902 -0.0310601 -0.352009  0.646531 -0.0271507 -0.394638  0.59717 -0.0214865 -0.439186  0.54659 -0.0144969 -0.48515  0.494663 -0.00665945 -0.531944  0.441369 0.00152045 -0.578931  0.386788 0.00953662 -0.625472  0.33109 0.0169104 -0.670976  0.274531 0.0232056 -0.714938  0.217443 0.0280371 -0.756964  0.160225 0.0310684 -0.796788  0.103344 0.0320041 -0.834264  0.0473409 0.030586 -0.869358  -0.00715518 0.0266 -0.902142  -0.0594324 0.0199031 -0.932781  -0.108677 0.0104433 -0.961497  -0.153919 -0.0016976 -0.988492  -0.194136 -0.0161746 -1.01391  1.08215 0.0116059 -0.207667  1.0241 -0.00295895 -0.226608  0.968552 -0.0148023 -0.24997  0.914757 -0.0236489 -0.277241  0.862001 -0.0294905 -0.307991  0.809665 -0.0324425 -0.341899  0.757228 -0.0327139 -0.378667  0.70425 -0.0305839 -0.417967  0.650379 -0.0263906 -0.459419  0.595346 -0.0205333 -0.502561  0.538985 -0.0134628 -0.546859  0.481233 -0.00566292 -0.591728  0.422129 0.00236952 -0.636557  0.361806 0.0101534 -0.680758  0.300482 0.0172446 -0.723805  0.238442 0.0232441 -0.76526  0.176036 0.0277981 -0.804797  0.113675 0.0305915 -0.842204  0.0518371 0.0313383 -0.877386  -0.00892311 0.0297755 -0.910357  -0.0679493 0.0256741 -0.941243  -0.124493 0.0188684 -0.970278  -0.177707 0.00929481 -0.997783  -0.226605 -0.00295997 -1.0241  -0.270161 -0.0175512 -1.0495  1.11035 0.00978774 -0.287094  1.04998 -0.00467157 -0.303638  0.991337 -0.0162257 -0.325004  0.933861 -0.0246603 -0.350576  0.876954 -0.0300067 -0.379802  0.820096 -0.0324385 -0.412231  0.762836 -0.0322201 -0.447443  0.704794 -0.0296773 -0.485016  0.645672 -0.02519 -0.524494  0.585265 -0.0191859 -0.565379  0.523469 -0.0121268 -0.607134  0.460274 -0.00448626 -0.649202  0.395773 0.00326419 -0.691023  0.330138 0.0106851 -0.732084  0.263616 0.0173767 -0.771932  0.196505 0.0229833 -0.810198  0.129163 0.0271872 -0.846618  0.0619977 0.0296955 -0.881026  -0.00451446 0.0302329 -0.913364  -0.0698152 0.0285313 -0.943685  -0.13323 0.0243378 -0.972156  -0.193964 0.0174425 -0.999069  -0.251104 0.00774723 -1.02485  -0.303636 -0.00467265 -1.04998  -0.35053 -0.0194679 -1.0749  1.12813 0.00727594 -0.369966  1.06568 -0.0068686 -0.383846  1.00412 -0.0178732 -0.402861  0.943101 -0.0256139 -0.426325  0.882214 -0.0302122 -0.453554  0.821046 -0.0319303 -0.483942  0.759223 -0.0311064 -0.516938  0.696433 -0.0281208 -0.552032  0.63244 -0.02339 -0.588722  0.567095 -0.017354 -0.626501  0.500344 -0.0104638 -0.664864  0.432223 -0.0031625 -0.70331  0.36286 0.00412589 -0.741356  0.292451 0.0110162 -0.778569  0.221251 0.0171615 -0.814569  0.149568 0.0222551 -0.849056  0.0777512 0.0260177 -0.881813  0.00619745 0.0281832 -0.91271  -0.0646352 0.0284902 -0.941716  -0.134204 0.0266685 -0.968904  -0.201836 0.0224375 -0.994468  -0.266677 0.015526 -1.01875  -0.327712 0.00574696 -1.04227  -0.383845 -0.00686961 -1.06568  -0.434041 -0.021966 -1.08962  1.1352 0.00407404 -0.455062  1.07089 -0.00942016 -0.46604  1.00656 -0.0194834 -0.482388  0.942176 -0.0261499 -0.503375  0.877536 -0.0297042 -0.52814  0.81235 -0.0305323 -0.555897  0.746335 -0.0290533 -0.585978  0.679241 -0.0256883 -0.617814  0.610885 -0.0208642 -0.650899  0.541166 -0.015003 -0.684763  0.470063 -0.00851566 -0.718958  0.397644 -0.00178975 -0.753061  0.32405 0.00481629 -0.786675  0.249487 0.0109798 -0.819442  0.174216 0.0164131 -0.851054  0.0985332 0.0208601 -0.881267  0.0227751 0.0240823 -0.909903  -0.0526811 0.025847 -0.936861  -0.127407 0.0259115 -0.962118  -0.200899 0.0240142 -0.985752  -0.272512 0.0198535 -1.00796  -0.341378 0.0130821 -1.02911  -0.406323 0.00336206 -1.04979  -0.466039 -0.00942141 -1.07089  -0.519479 -0.0249119 -1.09329  1.13149 0.000462949 -0.541144  1.06545 -0.0119063 -0.548989  0.998484 -0.0204911 -0.562389  0.930944 -0.0256468 -0.580549  0.862851 -0.0279077 -0.602346  0.794052 -0.0277901 -0.626823  0.724331 -0.0257538 -0.653246  0.653491 -0.0222193 -0.681048  0.581393 -0.0175787 -0.709767  0.507962 -0.0121956 -0.739001  0.433198 -0.00640911 -0.768378  0.357181 -0.000533104 -0.797555  0.280056 0.00514907 -0.826212  0.202028 0.0103809 -0.854059  0.123349 0.0149348 -0.880852  0.0443071 0.0186045 -0.906395  -0.0347853 0.0211958 -0.930546  -0.113581 0.0225146 -0.953222  -0.191689 0.0223494 -0.974403  -0.268664 0.0204591 -0.99415  -0.343933 0.0165386 -1.01263  -0.416683 0.0101846 -1.03016  -0.485622 0.000857055 -1.04739  -0.548988 -0.0119078 -1.06545  -0.605564 -0.0278513 -1.08566  1.1172 -0.00282037 -0.626896  1.04947 -0.0134338 -0.631348  0.979986 -0.0199262 -0.641541  0.909546 -0.023243 -0.656477  0.838404 -0.0241895 -0.674712  0.766487 -0.0233151 -0.695208  0.693626 -0.0210404 -0.717251  0.619664 -0.0177163 -0.740337  0.544488 -0.013648 -0.764075  0.468043 -0.0091083 -0.788132  0.390341 -0.0043478 -0.812208  0.311464 0.000401616 -0.836025  0.231553 0.00492942 -0.859328  0.150805 0.00904357 -0.881895  0.0694543 0.0125729 -0.903539  -0.0122328 0.0153607 -0.924111  -0.0939709 0.0172609 -0.943506  -0.17545 0.0181238 -0.961658  -0.256335 0.0177811 -0.97854  -0.336241 0.01603 -0.994183  -0.414695 0.012593 -1.00868  -0.49103 0.00705844 -1.02225  -0.564036 -0.00125915 -1.0354  -0.631345 -0.0134344 -1.04947  -0.690873 -0.0297662 -1.06661  1.09339 -0.00438309 -0.710502  1.02378 -0.0125589 -0.711336  0.951794 -0.0165409 -0.718097  0.878742 -0.0181396 -0.729328  0.804947 -0.0181748 -0.743413  0.730355 -0.0170516 -0.759345  0.654851 -0.0150618 -0.776487  0.57832 -0.0124325 -0.794399  0.500679 -0.00935906 -0.812747  0.421889 -0.00601631 -0.831259  0.341969 -0.00257009 -0.849691  0.260994 0.000824153 -0.867831  0.17909 0.00402111 -0.885489  0.0964321 0.00688726 -0.902511  0.0132281 0.00930423 -0.918771  -0.0702918 0.0111648 -0.934171  -0.153884 0.0123717 -0.948642  -0.237287 0.0128244 -0.962136  -0.320218 0.0124087 -0.974625  -0.402366 0.0109786 -0.9861  -0.483353 0.00832379 -0.996583  -0.562677 0.00409859 -1.00612  -0.639505 -0.00232226 -1.01486  -0.711334 -0.01256 -1.02378  -0.773895 -0.0286921 -1.03641  1.06397 -0.0028646 -0.789038  0.991163 -0.00812846 -0.786147  0.916031 -0.00985587 -0.789532  0.840175 -0.0105225 -0.797015  0.763651 -0.0103826 -0.806772  0.686471 -0.00964957 -0.817917  0.608559 -0.00846076 -0.829888  0.529834 -0.00693125 -0.842329  0.450229 -0.00516069 -0.854982  0.369708 -0.00324428 -0.867649  0.288276 -0.00127441 -0.880163  0.205986 0.000657141 -0.892381  0.122935 0.00246274 -0.904191  0.039258 0.00406158 -0.915506  -0.0448838 0.00538343 -0.926258  -0.12931 0.00636834 -0.936403  -0.213833 0.00696516 -0.945906  -0.298248 0.00712156 -0.954735  -0.38234 0.00678015 -0.962865  -0.465859 0.00586337 -0.970279  -0.548518 0.00425774 -0.976951  -0.629931 0.00176132 -0.982844  -0.709601 -0.00198501 -0.987775  -0.786145 -0.0081287 -0.991164  -0.852915 -0.0214136 -0.996683  1.03541 -0.000520825 -0.859951  0.956412 -0.00225526 -0.852889  0.876118 -0.00268954 -0.854688  0.796039 -0.00298375 -0.859029  0.716005 -0.00302136 -0.864532  0.635863 -0.00287682 -0.870589  0.555451 -0.00258285 -0.876945  0.474653 -0.00216943 -0.883447  0.393385 -0.00166142 -0.889985  0.311597 -0.00108701 -0.896462  0.229269 -0.000476241 -0.902798  0.146416 0.000135899 -0.908924  0.063086 0.000714004 -0.914788  -0.02065 0.00122494 -0.920359  -0.104698 0.0016408 -0.92562  -0.188953 0.00194049 -0.930563  -0.273299 0.00210768 -0.935182  -0.357613 0.00212902 -0.939465  -0.441755 0.0019902 -0.9434  -0.52557 0.00167269 -0.946974  -0.608863 0.00114691 -0.950176  -0.691413 0.000379026 -0.952958  -0.772768 -0.000798225 -0.955301  -0.852888 -0.00225532 -0.956412  -0.926668 -0.00756365 -0.953121  1 0 -0.916666  0.916667 0 -0.916666  0.833333 0 -0.916666  0.75 0 -0.916666  0.666667 0 -0.916666  0.583333 0 -0.916666  0.5 0 -0.916666  0.416667 0 -0.916666  0.333333 0 -0.916666  0.25 0 -0.916666  0.166667 0 -0.916666  0.0833333 0 -0.916666  0 0 -0.916666  -0.0833334 0 -0.916666  -0.166667 0 -0.916666  -0.25 0 -0.916666  -0.333333 0 -0.916666  -0.416667 0 -0.916666  -0.5 0 -0.916666  -0.583333 0 -0.916666  -0.666667 0 -0.916666  -0.75 0 -0.916666  -0.833333 0 -0.916666  -0.916667 0 -0.916666  -1 0 -0.916666  0 0 0  -1.11759e-08 0 0  7.45058e-09 0 0  0 0 0  1.49012e-08 0 0  0 0 0  0 0 0  0 0 0  0 0 0  0 0 0  0 0 0  0 0 0  0 0 0  0 0 0  0 0 0  0 0 0  0 0 0  0 0 0  0 0 0  0 0 0  0 0 0  0 0 0  0 0 0  0 0 0  0 0 0  0.06674 0.00725579 0.026602  0.056714 0.000520442 0.0354116  0.055043 -0.00172102 0.0364319  0.0547536 -0.0033841 0.0354743  0.0555412 -0.00452868 0.0337335  0.0570147 -0.00531001 0.0313588  0.059005 -0.00575151 0.0284603  0.0613369 -0.00587616 0.0250533  0.0638447 -0.00570117 0.021138  0.066357 -0.00524771 0.0166998  0.0686985 -0.00454446 0.0117234  0.0706926 -0.00362867 0.00618839  0.0721779 -0.00254516 0.000102639  0.0730152 -0.00134372 -0.00650448  0.0730962 -7.73408e-05 -0.0135741  0.0723543 0.00120362 -0.0210152  0.0707591 0.00245322 -0.0287162  0.0683095 0.00363065 -0.0365437  0.0650244 0.00470051 -0.0443488  0.0609291 0.00563296 -0.0519679  0.0560389 0.00639781 -0.0591892  0.0503571 0.00697021 -0.0657029  0.0438343 0.00731279 -0.0708504  0.0364527 0.0075637 -0.0733287  0.0266017 0.00725564 -0.06674  0.144587 0.0170942 0.0665699  0.127626 0.00286383 0.0639709  0.121902 -0.00408499 0.0640776  0.11971 -0.00837711 0.0614175  0.119356 -0.0112824 0.0573  0.120306 -0.0131321 0.0520617  0.122187 -0.0141009 0.0458399  0.124711 -0.0142826 0.0386813  0.127608 -0.013744 0.0305921  0.130607 -0.0125441 0.0215592  0.133429 -0.0107473 0.0115844  0.135785 -0.00842896 0.000678301  0.1374 -0.00567735 -0.0111171  0.138031 -0.00259513 -0.0237203  0.137491 0.000704885 -0.0370096  0.135665 0.00410631 -0.0508312  0.132511 0.00749437 -0.0650036  0.128058 0.0107577 -0.0793198  0.122387 0.0137905 -0.0935473  0.115628 0.0164938 -0.107401  0.10793 0.0187678 -0.120512  0.0994409 0.0205042 -0.13231  0.0901818 0.0214767 -0.141856  0.0800146 0.0214128 -0.147079  0.0665684 0.0170951 -0.144586  0.227404 0.020881 0.104441  0.206162 0.00438169 0.0933918  0.195579 -0.0064813 0.0874685  0.190392 -0.0134468 0.0813646  0.187915 -0.0180285 0.0739746  0.187257 -0.0208348 0.0652931  0.187892 -0.0221774 0.0553287  0.189426 -0.0222429 0.044089  0.1915 -0.0211593 0.031564  0.193762 -0.0190336 0.0177462  0.195858 -0.0159727 0.00265217  0.197429 -0.0120973 -0.0136727  0.19814 -0.00754748 -0.0311398  0.197696 -0.00248953 -0.0496105  0.195876 0.00289074 -0.0688984  0.192547 0.00839424 -0.0887781  0.187666 0.013815 -0.108999  0.181275 0.0189433 -0.129286  0.173494 0.0235649 -0.149333  0.164495 0.0274497 -0.168779  0.15449 0.0303376 -0.187157  0.143686 0.0318887 -0.203764  0.132223 0.0316503 -0.217446  0.119748 0.0286889 -0.226101  0.104442 0.0208804 -0.227405  0.313951 0.01918 0.13289  0.289769 0.00281967 0.117198  0.274572 -0.0096637 0.105485  0.265525 -0.0183807 0.0948316  0.26009 -0.0241548 0.0835057  0.256984 -0.0276067 0.0709593  0.255505 -0.0291027 0.0569826  0.255141 -0.0288887 0.0414855  0.255451 -0.0271435 0.0244155  0.256015 -0.0240217 0.00575972  0.256421 -0.0196779 -0.014456  0.256265 -0.0142858 -0.0361596  0.25518 -0.00804682 -0.059222  0.252847 -0.00120114 -0.083451  0.249023 0.00597952 -0.108601  0.243564 0.0131988 -0.134379  0.236422 0.0201415 -0.160451  0.227641 0.0264798 -0.186461  0.217343 0.0318675 -0.212003  0.205715 0.0359361 -0.236608  0.192993 0.0382809 -0.259668  0.179418 0.0384425 -0.280337  0.16515 0.03587 -0.297373  0.149944 0.0297641 -0.309121  0.13289 0.0191815 -0.31395  0.402487 0.015456 0.15016  0.375521 -0.000461578 0.131494  0.35642 -0.0133093 0.115481  0.343322 -0.0228379 0.100501  0.334371 -0.0292774 0.0851328  0.328187 -0.0330568 0.0686128  0.32391 -0.0345204 0.0505695  0.320918 -0.0339284 0.0308077  0.318696 -0.031495 0.00922978  0.316766 -0.0274146 -0.0141984  0.314675 -0.0218921 -0.0394444  0.311986 -0.0151571 -0.0664167  0.308304 -0.00748107 -0.0949471  0.303289 0.000816047 -0.124788  0.296678 0.00936829 -0.155616  0.288314 0.0177769 -0.187039  0.278138 0.0256167 -0.218614  0.266195 0.0324558 -0.249859  0.252621 0.0378533 -0.280249  0.237634 0.041373 -0.309199  0.221514 0.0425789 -0.336032  0.204569 0.0410332 -0.35991  0.187041 0.0362696 -0.37977  0.168991 0.0278488 -0.394431  0.150162 0.0154548 -0.402486  0.491514 0.0113873 0.156015  0.461603 -0.00407358 0.135207  0.438993 -0.0168122 0.115991  0.421996 -0.026554 0.0973384  0.409263 -0.0332491 0.0782145  0.39955 -0.037113 0.057876  0.391931 -0.0384199 0.0358847  0.385713 -0.0374199 0.0119871  0.380311 -0.0343438 -0.0139561  0.375204 -0.0294216 -0.041993  0.369897 -0.0229017 -0.0720938  0.363924 -0.0150732 -0.104137  0.356862 -0.00627863 -0.137902  0.348346 0.00307989 -0.173062  0.338106 0.0125468 -0.20918  0.325974 0.0216313 -0.245739  0.311903 0.0298274 -0.28216  0.295968 0.0366417 -0.317842  0.278351 0.0416043 -0.352177  0.259328 0.044283 -0.384552  0.239258 0.0442847 -0.414329  0.218535 0.0412478 -0.440803  0.197545 0.0348497 -0.463158  0.17663 0.024911 -0.480514  0.156015 0.0113854 -0.491512  0.57964 0.00779396 0.150449  0.546695 -0.00727239 0.128126  0.520682 -0.0197718 0.10647  0.49993 -0.0294359 0.0848073  0.483311 -0.0361258 0.0623709  0.46976 -0.0399167 0.0385246  0.458376 -0.0410057 0.0128402  0.448423 -0.0396172 -0.0149611  0.439275 -0.0359885 -0.0450349  0.430366 -0.0303784 -0.0774308  0.421164 -0.0230766 -0.112103  0.411178 -0.0144262 -0.148886  0.399957 -0.0048371 -0.187483  0.387128 0.00521377 -0.227451  0.372421 0.0151966 -0.268227  0.355695 0.0245562 -0.309155  0.336948 0.032745 -0.349546  0.316314 0.0392546 -0.388731  0.294046 0.0436314 -0.426091  0.2705 0.045483 -0.461061  0.246109 0.044474 -0.49311  0.221364 0.0403251 -0.521691  0.196789 0.032833 -0.546205  0.172954 0.0219636 -0.565952  0.150448 0.00778878 -0.579639  0.665594 0.00498226 0.133668  0.629566 -0.00978407 0.11035  0.600144 -0.0220431 0.0868423  0.575687 -0.0315285 0.0627388  0.555127 -0.0380844 0.0374682  0.537523 -0.0417214 0.010511  0.522026 -0.0425756 -0.0185241  0.507901 -0.040848 -0.0498998  0.49449 -0.0367773 -0.0837659  0.481195 -0.0306413 -0.120158  0.467457 -0.0227671 -0.158985  0.452759 -0.0135466 -0.200012  0.436643 -0.00344634 -0.24284  0.418751 0.00699762 -0.286901  0.398843 0.0172042 -0.331502  0.376835 0.0265842 -0.375883  0.352797 0.034581 -0.419294  0.32694 0.0407001 -0.461059  0.299601 0.0445198 -0.500598  0.271203 0.0456911 -0.537435  0.242259 0.0439329 -0.571158  0.213337 0.0390302 -0.601378  0.185082 0.0308616 -0.627665  0.158234 0.0194655 -0.649461  0.133665 0.00497752 -0.665594  0.748139 0.00296602 0.106001  0.708992 -0.0116031 0.0821518  0.67613 -0.0236679 0.0572993  0.647942 -0.0329681 0.0312651  0.623373 -0.0393512 0.00363588  0.601541 -0.0428088 -0.0259967  0.581645 -0.0434434 -0.0579671  0.562962 -0.0414381 -0.0925024  0.544826 -0.0370311 -0.129721  0.526616 -0.0305151 -0.169617  0.507753 -0.0222475 -0.212034  0.487719 -0.0126598 -0.256646  0.466073 -0.0022637 -0.302937  0.442492 0.00836444 -0.350224  0.416804 0.0186148 -0.397714  0.389001 0.0278886 -0.444584  0.359237 0.0356361 -0.490072  0.327807 0.0413879 -0.533537  0.295119 0.0447522 -0.574472  0.261674 0.0454198 -0.612498  0.228035 0.0431484 -0.647326  0.19484 0.0377695 -0.678703  0.162821 0.0292114 -0.706344  0.132838 0.017549 -0.729828  0.106002 0.00296405 -0.748139  0.82604 0.00160396 0.0679117  0.783761 -0.0128586 0.0439668  0.747431 -0.0247909 0.0182369  0.715456 -0.033939 -0.0092479  0.686791 -0.0401594 -0.0387588  0.660572 -0.0434458 -0.0705975  0.636031 -0.0438889 -0.105027  0.612457 -0.0416617 -0.142223  0.589189 -0.0370044 -0.182248  0.565602 -0.0302215 -0.225034  0.54112 -0.0216934 -0.270344  0.515238 -0.0118829 -0.317748  0.487563 -0.00133204 -0.366624  0.457835 0.0093568 -0.416192  0.425962 0.019562 -0.465594  0.392026 0.0286885 -0.513992  0.356262 0.0361998 -0.560645  0.319052 0.0416501 -0.604976  0.28087 0.0446733 -0.646559  0.242266 0.0449866 -0.685121  0.203859 0.0423785 -0.720483  0.166336 0.0367135 -0.752516  0.130484 0.0279455 -0.781067  0.0972471 0.0161731 -0.805852  0.0679142 0.00160131 -0.826039  0.89808 0.000690341 0.0200192  0.8527 -0.0137399 -0.00359684  0.812881 -0.0255964 -0.0297531  0.777064 -0.0346335 -0.0582169  0.744206 -0.0407186 -0.0891221  0.713453 -0.043852 -0.122665  0.684056 -0.0441281 -0.159023  0.655321 -0.0417192 -0.198304  0.626594 -0.036866 -0.240505  0.597265 -0.0298881 -0.285471  0.566783 -0.0211827 -0.332878  0.534687 -0.0112351 -0.382196  0.500644 -0.000608861 -0.432711  0.464474 0.0100817 -0.483582  0.426177 0.0202096 -0.533917  0.385923 0.0291896 -0.582898  0.344036 0.0365023 -0.629836  0.300959 0.041717 -0.674226  0.257231 0.0444898 -0.715737  0.21345 0.0445578 -0.75419  0.170266 0.0417293 -0.789512  0.128395 0.0358878 -0.821688  0.0886618 0.0270073 -0.850685  0.0520627 0.0151988 -0.876361  0.0200211 0.000687599 -0.898078  0.963095 2.02656e-06 -0.036903  0.914691 -0.0144516 -0.0597709  0.871394 -0.0262755 -0.0859073  0.831695 -0.0352325 -0.114876  0.79456 -0.0412004 -0.146673  0.759153 -0.0441907 -0.181384  0.724733 -0.0443068 -0.219095  0.690629 -0.0417267 -0.259829  0.656206 -0.0366994 -0.303501  0.620884 -0.0295559 -0.349869  0.584159 -0.0207119 -0.39851  0.545628 -0.010667 -0.448814  0.505034 -1.10269e-06 -0.499997  0.462293 0.0106661 -0.551182  0.41749 0.0207099 -0.601484  0.370884 0.0295549 -0.650126  0.322874 0.0366978 -0.696492  0.273966 0.041724 -0.740161  0.224739 0.0443048 -0.780895  0.175824 0.0441893 -0.818607  0.127901 0.0411996 -0.853319  0.0817004 0.0352324 -0.885117  0.0380688 0.0262765 -0.914087  -0.00196862 0.0144522 -0.940223  -0.0368999 -1.99676e-06 -0.963091  1.02002 -0.000687838 -0.101916  0.968726 -0.0151988 -0.123633  0.921992 -0.0270084 -0.149308  0.878392 -0.0358889 -0.178306  0.836929 -0.0417313 -0.21048  0.79678 -0.0445604 -0.245802  0.757228 -0.0444928 -0.284254  0.717625 -0.0417199 -0.325766  0.677368 -0.0365042 -0.370157  0.635925 -0.0291912 -0.417096  0.592846 -0.0202122 -0.466075  0.547811 -0.0100831 -0.516413  0.500646 0.000606894 -0.567282  0.451356 0.0112334 -0.617798  0.400117 0.0211807 -0.667115  0.347265 0.0298864 -0.71452  0.293263 0.0368646 -0.759487  0.238659 0.0417171 -0.801686  0.184063 0.0441271 -0.840968  0.130126 0.0438511 -0.877327  0.0775487 0.0407183 -0.91087  0.0270736 0.0346342 -0.941777  -0.0204433 0.0255966 -0.97024  -0.0639575 0.013741 -0.996398  -0.101911 -0.000690043 -1.02001  1.06791 -0.00160182 -0.173953  1.01391 -0.0161734 -0.19414  0.963816 -0.0279468 -0.218924  0.916333 -0.0367147 -0.247474  0.870525 -0.0423821 -0.279506  0.825597 -0.0449901 -0.314867  0.780867 -0.0446761 -0.35343  0.735716 -0.0416516 -0.395016  0.689596 -0.0362023 -0.439346  0.642027 -0.0286895 -0.486003  0.592632 -0.0195646 -0.534398  0.541172 -0.0093593 -0.5838  0.487567 0.00132996 -0.633368  0.431909 0.0118809 -0.682244  0.374455 0.0216916 -0.729648  0.315602 0.0302199 -0.774957  0.255859 0.0370026 -0.817743  0.195795 0.0416605 -0.85777  0.136038 0.0438876 -0.894966  0.0772458 0.0434453 -0.929396  0.0201336 0.0401592 -0.961235  -0.0345326 0.0339395 -0.990748  -0.0858912 0.0247913 -1.01823  -0.132895 0.0128591 -1.04396  -0.173949 -0.0016036 -1.06791  1.106 -0.00296307 -0.251854  1.0495 -0.0175514 -0.270165  0.996155 -0.0292133 -0.29365  0.944836 -0.0377706 -0.321289  0.894698 -0.0431507 -0.352664  0.845006 -0.0454233 -0.387491  0.795121 -0.0447556 -0.425519  0.744475 -0.0413901 -0.466455  0.692572 -0.0356387 -0.509919  0.639004 -0.0278902 -0.555408  0.583473 -0.0186175 -0.602277  0.525828 -0.00836688 -0.649767  0.466076 0.00226134 -0.697055  0.404388 0.0126585 -0.743347  0.341089 0.0222457 -0.787958  0.276617 0.0305142 -0.830377  0.211495 0.0370296 -0.870271  0.146301 0.0414367 -0.907489  0.0816535 0.0434426 -0.942026  0.0182151 0.0428082 -0.973997  -0.043283 0.039351 -1.00363  -0.102046 0.0329692 -1.03126  -0.157191 0.0236694 -1.05729  -0.207664 0.0116041 -1.08215  -0.251849 -0.00296438 -1.106  1.13366 -0.00497866 -0.334398  1.0749 -0.0194666 -0.350532  1.01841 -0.0308622 -0.372329  0.963337 -0.0390316 -0.398616  0.908926 -0.0439354 -0.428834  0.854537 -0.0456938 -0.462556  0.799601 -0.0445219 -0.499393  0.743608 -0.0407023 -0.538932  0.686131 -0.0345829 -0.580697  0.626834 -0.0265856 -0.624108  0.565512 -0.0172068 -0.668489  0.502087 -0.00699973 -0.713091  0.436648 0.00344396 -0.757152  0.369429 0.0135447 -0.799979  0.300795 0.0227651 -0.841007  0.231198 0.0306399 -0.879835  0.161159 0.0367765 -0.916228  0.091238 0.0408466 -0.950094  0.0220335 0.0425746 -0.981471  -0.0458037 0.0417208 -1.01051  -0.111531 0.0380843 -1.03747  -0.174303 0.0315288 -1.06274  -0.233179 0.0220442 -1.08684  -0.287091 0.00978506 -1.11035  -0.334397 -0.00498116 -1.13366  1.15045 -0.00778967 -0.420354  1.08962 -0.0219651 -0.434042  1.03012 -0.0328325 -0.45379  0.971363 -0.0403244 -0.478302  0.912777 -0.0444757 -0.506881  0.853836 -0.0454859 -0.538928  0.794048 -0.0436336 -0.5739  0.732982 -0.0392569 -0.61126  0.670284 -0.0327473 -0.650447  0.605697 -0.0245576 -0.690839  0.53909 -0.0151989 -0.731765  0.470463 -0.00521517 -0.772542  0.399959 0.00483531 -0.81251  0.327847 0.0144247 -0.851107  0.2545 0.0230746 -0.88789  0.180369 0.0303768 -0.922563  0.105946 0.0359885 -0.954962  0.0317625 0.0396163 -0.985035  -0.0416152 0.0410052 -1.01284  -0.113564 0.0399175 -1.03852  -0.183347 0.0361254 -1.06237  -0.25006 0.0294369 -1.08481  -0.312644 0.0197736 -1.10647  -0.369965 0.00727439 -1.12812  -0.420354 -0.00779063 -1.15045  1.15601 -0.0113858 -0.508482  1.09329 -0.0249093 -0.51948  1.03088 -0.0348483 -0.536837  0.968534 -0.0412467 -0.559191  0.905926 -0.0442865 -0.585664  0.842663 -0.0442855 -0.61544  0.778352 -0.0416064 -0.647816  0.712637 -0.036644 -0.682149  0.64524 -0.0298299 -0.717831  0.575978 -0.0216336 -0.754253  0.504776 -0.012549 -0.790812  0.431682 -0.00308144 -0.826932  0.356864 0.00627667 -0.862091  0.280592 0.0150716 -0.895857  0.203233 0.0228999 -0.9279  0.125207 0.0294201 -0.958002  0.0469825 0.0343432 -0.986041  -0.0309485 0.0374197 -1.01199  -0.108062 0.03842 -1.03589  -0.183778 0.037113 -1.05788  -0.257398 0.0332491 -1.07821  -0.327999 0.0265548 -1.09734  -0.394336 0.0168127 -1.11599  -0.455061 0.00407422 -1.13521  -0.508483 -0.0113867 -1.15601  1.15016 -0.0154548 -0.597509  1.08566 -0.0278485 -0.605566  1.02038 -0.0362697 -0.620225  0.954569 -0.0410336 -0.640084  0.888181 -0.0425797 -0.66396  0.820969 -0.0413748 -0.690793  0.752624 -0.0378559 -0.719744  0.682865 -0.0324581 -0.750133  0.611475 -0.0256196 -0.781379  0.538318 -0.0177792 -0.812956  0.463348 -0.00937021 -0.84438  0.386624 -0.000817537 -0.875207  0.308309 0.00747895 -0.905048  0.228657 0.0151556 -0.933579  0.148012 0.0218908 -0.960552  0.0667707 0.0274143 -0.985799  -0.0146325 0.0314941 -1.00923  -0.0957419 0.0339279 -1.03081  -0.176083 0.0345196 -1.05057  -0.255139 0.0330564 -1.06861  -0.332288 0.0292774 -1.08513  -0.406673 0.0228384 -1.1005  -0.47691 0.0133101 -1.11548  -0.541143 0.000461638 -1.13149  -0.59751 -0.0154573 -1.15016  1.13289 -0.0191813 -0.686048  1.06661 -0.0297648 -0.690877  0.998483 -0.0358711 -0.702623  0.929417 -0.0384432 -0.719659  0.859659 -0.0382816 -0.740327  0.78905 -0.0359378 -0.763388  0.717344 -0.0318692 -0.787993  0.644309 -0.0264816 -0.813534  0.569757 -0.0201441 -0.839542  0.493566 -0.0132008 -0.865615  0.415691 -0.00598091 -0.891393  0.336182 0.0011999 -0.916544  0.255184 0.0080449 -0.940774  0.172936 0.0142842 -0.963837  0.0897565 0.0196773 -0.985541  0.00601834 0.0240217 -1.00576  -0.0778771 0.0271433 -1.02441  -0.161519 0.0288892 -1.04149  -0.244488 0.0291026 -1.05698  -0.326344 0.0276062 -1.07096  -0.406571 0.0241543 -1.08351  -0.484471 0.0183806 -1.09483  -0.558758 0.00966382 -1.10548  -0.626894 -0.00282061 -1.1172  -0.686044 -0.0191827 -1.13289  1.10444 -0.0208819 -0.772595  1.03641 -0.0286897 -0.773898  0.965556 -0.0316528 -0.782551  0.893684 -0.0318887 -0.796234  0.821156 -0.0303386 -0.812839  0.747828 -0.027451 -0.831219  0.673494 -0.0235661 -0.850666  0.597942 -0.018945 -0.870711  0.520998 -0.0138164 -0.890996  0.442547 -0.00839549 -0.911219  0.362542 -0.00289112 -0.9311  0.28103 0.00248891 -0.950388  0.198141 0.00754642 -0.968858  0.114098 0.0120961 -0.986325  0.0291925 0.0159729 -1.00265  -0.056235 0.0190338 -1.01775  -0.14183 0.0211592 -1.03156  -0.227237 0.0222434 -1.04409  -0.312104 0.0221779 -1.05533  -0.396073 0.0208344 -1.06529  -0.478749 0.0180275 -1.07397  -0.559606 0.0134461 -1.08136  -0.637751 0.0064801 -1.08747  -0.7105 -0.00438398 -1.09339  -0.772592 -0.0208839 -1.10444  1.06657 -0.0170939 -0.855411  0.996683 -0.0214124 -0.852918  0.923518 -0.0214785 -0.85814  0.849441 -0.0205045 -0.867688  0.774597 -0.0187681 -0.879486  0.698962 -0.016495 -0.892596  0.622387 -0.0137911 -0.906451  0.544724 -0.0107582 -0.920678  0.465846 -0.00749516 -0.934993  0.385668 -0.00410748 -0.949166  0.304161 -0.000705481 -0.962989  0.221368 0.00259435 -0.976278  0.137403 0.00567627 -0.98888  0.0524555 0.00842798 -1.00067  -0.0332352 0.0107473 -1.01158  -0.11939 0.0125441 -1.02156  -0.205722 0.0137436 -1.03059  -0.291953 0.0142825 -1.03868  -0.377811 0.014101 -1.04584  -0.463025 0.0131316 -1.05206  -0.547309 0.0112821 -1.0573  -0.630287 0.00837648 -1.06142  -0.711428 0.00408429 -1.06408  -0.789036 -0.0028646 -1.06397  -0.855409 -0.017095 -1.06657  1.0266 -0.00725555 -0.933259  0.953119 -0.00756365 -0.926669  0.877168 -0.00731313 -0.929146  0.800358 -0.00697035 -0.934296  0.722706 -0.00639802 -0.94081  0.644264 -0.00563323 -0.948031  0.565026 -0.00470102 -0.95565  0.484977 -0.0036307 -0.963456  0.404092 -0.00245333 -0.971282  0.322354 -0.00120378 -0.978982  0.239764 7.70688e-05 -0.986423  0.15635 0.00134325 -0.993494  0.07218 0.00254476 -1.0001  -0.0126383 0.00362843 -1.00619  -0.0979668 0.00454462 -1.01172  -0.183641 0.00524771 -1.0167  -0.269486 0.00570077 -1.02114  -0.355328 0.00587589 -1.02505  -0.440993 0.00575137 -1.02846  -0.526317 0.00530976 -1.03136  -0.611124 0.00452846 -1.03373  -0.695244 0.00338387 -1.03547  -0.778288 0.00172091 -1.03643  -0.859949 -0.000520468 -1.03541  -0.933256 -0.00725573 -1.0266  1 0 -0.999999  0.916667 0 -0.999999  0.833333 0 -0.999999  0.75 0 -0.999999  0.666667 0 -0.999999  0.583333 0 -0.999999  0.5 0 -0.999999  0.416667 0 -0.999999  0.333333 0 -0.999999  0.25 0 -0.999999  0.166667 0 -0.999999  0.0833333 0 -0.999999  0 0 -0.999999  -0.0833334 0 -0.999999  -0.166667 0 -0.999999  -0.25 0 -0.999999  -0.333333 0 -0.999999  -0.416667 0 -0.999999  -0.5 0 -0.999999  -0.583333 0 -0.999999  -0.666667 0 -0.999999  -0.75 0 -0.999999  -0.833333 0 -0.999999  -0.916667 0 -0.999999  -1 0 -0.999999  
SCALARS smooth_stress float 1
LOOKUP_TABLE default
3826.73 4069.75 4331.94 4313.55 4222.44 4118.01 4027.07 3952.21 3886.72 3836.81 3797.25 3760.81 3720.87 3673.19 3620.77 3565.67 3512.43 3461.77 3423.09 3404.15 3406.17 3430.3 3493.8 3615.18 3690.95 4293.43 4450.5 4609.62 4553.46 4415.16 4253.91 4099.1 3958.7 3834.88 3730.66 3643.26 3570.43 3504.74 3446.41 3397.14 3351.55 3315.48 3292.8 3285.47 3299.93 3344.31 3423.62 3563.88 3841.97 4028.39 4807.87 4859.93 4908.66 4836.72 4668.28 4456.35 4231.43 4010.99 3807.81 3629.05 3476.43 3352.98 3254.41 3181.46 3135.24 3106.56 3097.75 3115.2 3156.47 3226.74 3339.67 3509.02 3779.28 4217.16 4485.6 4756.98 4772.97 4809.07 4795.79 4689.89 4520.42 4314.47 4094.04 3879.16 3684.06 3511.76 3368.2 3257.66 3178.27 3128.03 3104.04 3108.13 3140.45 3202.51 3302.72 3452.21 3667.26 3979.91 4367.71 4569.33 4568.65 4547.35 4547.48 4572.58 4544.62 4454.09 4315.11 4146.1 3965.62 3787.78 3624.04 3480.95 3363.17 3275.04 3216.53 3186.63 3186.79 3218.11 3284.33 3389.29 3542.92 3757.72 4030.89 4322.01 4463.67 4417.62 4361.97 4303.31 4311.85 4320.6 4296.69 4234.78 4139.33 4017.64 3881.83 3746.9 3618.59 3503.04 3409.52 3341.82 3301.47 3289.19 3309.87 3368.28 3464.05 3601.82 3787.05 4005.44 4228.71 4338.59 4315.81 4239.17 4133.91 4103.35 4107.31 4114.58 4106.2 4073.72 4016.82 3938.72 3844.61 3741.94 3640.54 3549.17 3474.18 3421.98 3397.54 3404.18 3445.66 3526.57 3644.34 3793.6 3966.07 4151.04 4245.86 4253.96 4165.25 4029.47 3963.76 3946.1 3955.53 3971.44 3980.01 3975.1 3950.82 3902.94 3835.3 3755.11 3672.64 3596.83 3535.52 3499.37 3493.35 3517.79 3579.53 3675.1 3795.78 3937.94 4101.07 4188.77 4221.58 4125.16 3969.65 3880.09 3840.19 3837.09 3857.01 3886.04 3913.65 3929.63 3924.15 3892.94 3838.95 3772.32 3701.37 3635.8 3590.72 3572.09 3581.61 3623.94 3697.4 3797.62 3922.35 4075.44 4160.68 4208.61 4107.35 3939.35 3832.8 3775.06 3757.59 3771.26 3806.26 3851.92 3893.65 3919.39 3919.93 3893.42 3844.64 3781.36 3717.8 3666.48 3636.33 3633.63 3660.64 3717.27 3802.11 3915.93 4064.54 4148.53 4205.78 4102.17 3927.22 3808.75 3737.1 3707.21 3712.49 3745.91 3797.53 3853.58 3900.52 3925.78 3924.01 3893.15 3840.32 3779.93 3724.92 3688.02 3674.61 3689.36 3734.4 3808.83 3915.25 4060.55 4143.95 4204.95 4101.26 3923.02 3797.62 3716.94 3676.9 3672.93 3701.15 3752.38 3814.73 3875.78 3919.73 3936.86 3923.58 3883.57 3827.43 3771.88 3729.89 3707.59 3712.52 3748.16 3815.01 3916.22 4059.18 4142.4 4205.36 4101.19 3922.04 3792.98 3704.97 3656.77 3644.75 3666.54 3716.18 3781.02 3849.09 3906.47 3938.86 3941.41 3914.14 3865.19 3811.25 3764.89 3736.23 3733.28 3760.48 3820.4 3917.42 4058.89 4141.87 4206.82 4102.72 3922.99 3790.8 3696.03 3639.53 3620.88 3634.86 3677.84 3743.31 3817.29 3885.97 3933.53 3951.85 3938.52 3899.69 3849.43 3801.41 3767.81 3756.31 3774.79 3827.47 3919.26 4059.12 4142.52 4206.4 4104.32 3924.41 3788.22 3687.21 3622.02 3594.46 3599.64 3635.73 3698.79 3776.53 3854.95 3918.16 3954.67 3958.51 3933.97 3892.34 3846.05 3807.96 3788.12 3796.42 3840.01 3924.87 4060.58 4143.13 4209.6 4108.56 3927.44 3784.94 3676.1 3600.7 3561.01 3558.71 3588.91 3646.17 3724.2 3810.05 3888.2 3944.34 3970.34 3966.68 3940.83 3902.49 3862.99 3836.38 3833.74 3864.36 3938.19 4066.09 4145.44 4224.08 4120.98 3934.59 3783.04 3662.64 3573.16 3518.65 3505.4 3526.77 3577.55 3655.02 3745.73 3836.54 3915.41 3970.01 3995.96 3995.57 3974.11 3941.01 3910.66 3896.47 3911.08 3968.63 4084.23 4158.73 4252.14 4146.2 3951.1 3784.1 3643.73 3536.29 3467.3 3440.26 3450.73 3493 3565.11 3657.4 3759.25 3860.9 3946.24 4009.11 4047.06 4056.46 4044.08 4020.02 3996.31 3991.6 4026.46 4122.73 4189.31 4304.05 4194.38 3982.12 3786.64 3618.64 3491.11 3407.43 3365.69 3363.71 3396.83 3459.88 3547.69 3655.53 3773.93 3889.62 3993.66 4078.26 4135.63 4163.74 4164.22 4142.98 4119.43 4123.89 4191.77 4246.32 4391.04 4268.81 4020.35 3781.94 3582.35 3435.82 3338.62 3283.44 3269.47 3292.11 3345.58 3426.61 3533.78 3660.25 3797.6 3939.65 4075.1 4190.12 4276.86 4326.91 4334.06 4308.13 4279.44 4304.57 4339.27 4517.14 4362.6 4043.98 3748.3 3522.01 3363.91 3259.31 3198.09 3175.72 3188.71 3234.81 3309.27 3409.54 3537.24 3685.77 3850.67 4026.28 4195.78 4348.29 4467.22 4534.66 4541.71 4498.82 4472.35 4476.17 4646.26 4420.36 3991.44 3650.81 3423.01 3271.22 3171.84 3115.85 3093.87 3104.95 3147.03 3215.85 3311.11 3437.6 3588.51 3760.45 3954.74 4158.35 4358.29 4536.83 4673.79 4744.28 4729.98 4671.5 4642.61 4627.54 4310.69 3796.72 3482.02 3290.23 3168.67 3096.38 3061.71 3057.45 3082.56 3130.69 3201.28 3297.19 3418.46 3558.97 3722.37 3910.52 4112.77 4322.35 4525.03 4701.66 4821.92 4842.99 4759.14 4695.42 4243.81 3951.58 3520.28 3304.95 3183.4 3117.4 3094.4 3103.86 3140.71 3201.38 3275.68 3362.88 3462.47 3572.64 3690.42 3819.27 3964.61 4121.99 4291.27 4465.51 4632.85 4763.61 4800.77 4621.68 4455.96 3935.15 3709.47 3381.41 3226.74 3147.92 3116.04 3122.63 3161.09 3224.56 3308.11 3401.11 3501.11 3603.67 3707.55 3810.67 3914.25 4028.29 4151.59 4285.49 4429.71 4579.84 4707.59 4752.14 4496.28 4248.46 3710.14 3920.46 4125.46 4063.57 3940.33 3811.64 3700.87 3610.94 3536.74 3481.13 3440.65 3407.28 3376.98 3351.42 3324.14 3301.36 3289.57 3285.82 3299.8 3335.34 3397.47 3490.6 3629.71 3829.32 3944.2 4014.38 4153.26 4298.95 4252.9 4124.66 3969.55 3816.32 3675.43 3550.82 3446.15 3360.61 3291.35 3235.21 3194.08 3165.43 3147.92 3145.61 3160.02 3194.16 3252.14 3341.75 3468.78 3658.86 3989.24 4202.53 4454.08 4491.97 4538.76 4496.89 4362.42 4179.04 3976.28 3772.72 3581.73 3413.13 3268.92 3151.45 3063.19 3002.61 2969.82 2959.96 2972.51 3012.81 3078.82 3175.72 3313.26 3504.33 3793.88 4258.72 4545.46 4556.85 4545.97 4536.78 4499.71 4389.96 4227.25 4034.54 3830.18 3630.72 3450.17 3291.44 3158.95 3059.71 2992.34 2953.48 2942.5 2960.55 3009.19 3089.69 3208.53 3374.84 3606.24 3933.87 4349.24 4572.54 4453.51 4407.12 4357.62 4338.64 4280.84 4174.18 4030.09 3864.89 3692.77 3526.95 3376.17 3246.32 3141.14 3065.85 3019.46 3000.63 3014.26 3059.98 3140.99 3261.45 3430.15 3659.71 3949.22 4267.64 4427.81 4325.92 4252.22 4156.26 4125.37 4099.05 4047.61 3965.05 3858.27 3734.02 3602.35 3474.87 3358.21 3255.51 3174.98 3120.77 3092.33 3094.62 3130.18 3201.59 3311.57 3464.77 3664.75 3900.4 4149.06 4274.01 4231.95 4140.31 4004.97 3943.95 3916.75 3894.21 3859.34 3806.1 3736.16 3651.46 3557.53 3461.83 3371.04 3292.01 3231.3 3193.77 3183.87 3206.25 3262.6 3357.48 3490.52 3656.42 3846.88 4054.8 4163.33 4174.19 4071.22 3907.83 3816.61 3772.92 3754.87 3744.07 3728.96 3704.58 3665.7 3610.68 3543.22 3469.78 3398.24 3335.75 3290.6 3270.87 3280.9 3322.11 3399.38 3510.5 3648.41 3809.39 3994.93 4094.95 4142.68 4032.74 3851.09 3737.34 3674.55 3647.45 3642.71 3648.42 3654.2 3651.34 3633.17 3596.99 3544.71 3485.45 3426.76 3377.39 3349 3347.36 3375 3434.61 3525.98 3644.29 3787.55 3962.26 4059.17 4129.56 4014.88 3821.52 3691.88 3612.44 3573 3564.34 3577.39 3600.68 3622.35 3632.82 3624.56 3595.58 3551.08 3499.12 3450.21 3415.36 3403.61 3419.14 3464.07 3540.56 3645.33 3777.39 3946.76 4042.83 4125.96 4008.84 3808.57 3667.85 3575.44 3524.66 3508.88 3521.59 3552.03 3588.42 3619.15 3633.06 3626.11 3597.38 3553.81 3507.39 3469.37 3450.7 3456.03 3489.52 3554.09 3648.82 3774.7 3941.17 4036.48 4124.55 4007.38 3804.1 3656.48 3555.02 3494.26 3470.34 3478.48 3509.71 3553.4 3597.78 3629.53 3640.26 3627.13 3594.32 3552.41 3513.75 3489.58 3486.85 3511.38 3566.5 3653.23 3774.72 3939.37 4033.97 4124.27 4006.98 3803.06 3651.6 3542.94 3474.04 3442 3444.08 3473.96 3520.46 3572.23 3617.58 3643.27 3644.87 3623.99 3588.62 3551.35 3523.19 3514.19 3531.05 3578.33 3658.68 3776.12 3939.45 4034.03 4125.25 4008.03 3803.36 3649.01 3534.18 3457.67 3418.48 3413.22 3437.82 3484.96 3542.15 3597.88 3638.54 3655.92 3647.81 3621.11 3588.31 3559.07 3544.63 3553.35 3592.55 3666.06 3778.65 3940.68 4035.73 4126.22 4010.68 3805.85 3647.32 3526.02 3441.15 3393.51 3379.94 3398.24 3443.64 3504.54 3568.59 3623.04 3657.84 3666.57 3653.65 3629 3601.55 3583.11 3584.27 3613.98 3678.67 3784.97 3943.38 4037.49 4132.38 4017.37 3810.96 3646.47 3517.71 3422.55 3363.42 3341.61 3353.13 3393.76 3455.56 3526.29 3593.49 3645.97 3675.99 3683.4 3673.11 3653.46 3635.1 3630.32 3649.82 3702.76 3798.85 3950.15 4041.56 4150.73 4033.69 3821.71 3648.32 3507.95 3399.2 3326.65 3294.35 3298.27 3332.62 3392.06 3466.84 3545.29 3617.12 3672.1 3706.29 3719.94 3717.13 3706.42 3699.58 3709.06 3747.18 3827.52 3967.26 4054.52 4186.43 4066.16 3844.53 3655.45 3495.75 3369.9 3284.02 3239.46 3233.13 3258.85 3313.1 3389.14 3476.49 3566.97 3648.17 3714.02 3761.52 3787.72 3796.97 3797.6 3800.42 3821.59 3881.41 4003.16 4082.61 4251.23 4124.87 3883.86 3666.59 3480.7 3336.03 3235.39 3177.67 3158.52 3174.88 3222.4 3294.75 3387.33 3491.64 3597.38 3697.28 3785.09 3853.41 3898.99 3922.91 3930.02 3936.69 3970.62 4066.79 4135.17 4355.34 4214.3 3935.39 3675.28 3458.09 3294.73 3180.42 3110.38 3080.55 3086.73 3125.54 3191.83 3283.98 3395.58 3519.28 3650.31 3779.86 3896.64 3991.98 4059.14 4092.41 4099.31 4106.3 4166.2 4217.94 4506.51 4330.11 3978.79 3662.33 3418.7 3243.71 3121.48 3043.76 3005.8 3003.46 3034.26 3094.05 3181.51 3294.97 3428.5 3579.34 3741.18 3901.34 4049.26 4172.08 4254.46 4288.07 4282.96 4299.97 4326.06 4667.38 4417.36 3954.8 3596.02 3351.26 3181.17 3061.97 2987.12 2948.04 2943 2968.81 3021.51 3103.79 3216 3351.9 3510.14 3688.58 3875.87 4061.41 4229.17 4360.59 4435.61 4441 4420.03 4414.3 4687.88 4351.77 3809.24 3476.4 3264.69 3119.68 3021.25 2961.81 2934.19 2935.75 2963.13 3014.15 3093.1 3199.92 3328.41 3480.25 3654.58 3842.65 4036.78 4221.67 4377.58 4476.58 4481.11 4401.75 4348.75 4461.05 4144.88 3664.6 3400.8 3234.04 3124.95 3058.56 3025.36 3021.33 3042.25 3081.63 3136.76 3208.14 3295.73 3396.43 3512.06 3644.59 3792.21 3953.47 4120.34 4279.41 4401.97 4433.29 4264.01 4110.61 4286.36 4027.46 3625.65 3393.9 3247.84 3156.7 3107.02 3090.16 3100.58 3134.02 3182.24 3239.99 3304.52 3377.3 3456.56 3543.53 3643.57 3758.34 3890.08 4037.91 4195.93 4338.61 4407.48 4189.97 3966.48 3539.77 3678.58 3771.61 3642.28 3471.88 3308.58 3169.82 3056.39 2966.03 2899.2 2853.37 2822.16 2805.66 2805.72 2813.58 2837.2 2881.61 2941.84 3024.97 3136.13 3280.75 3467.97 3713.8 4029.17 4204.51 3623.66 3721.1 3814.7 3755.19 3622.81 3465.73 3309.77 3165.61 3038.18 2932.87 2851.41 2789.75 2751.31 2736.95 2741.11 2767.74 2817.31 2888.67 2984.82 3109.52 3270.19 3473.83 3745.51 4149.14 4394.33 3888.16 3905.26 3937.02 3917.81 3816.84 3664.03 3487.12 3305.96 3132.51 2978.67 2850.02 2747.33 2679.73 2644.76 2639.4 2664.98 2718.44 2802.07 2916.17 3064.03 3252.55 3492.05 3823.93 4323.6 4625.52 4128.67 4084.3 4018.94 3955.68 3847.67 3699.21 3526.87 3346.78 3170.36 3009.29 2869.85 2756.71 2677.58 2631.08 2615.27 2631.56 2680.22 2762.62 2880.84 3039.45 3244 3510.02 3868.63 4332.13 4588.59 4169.76 4089.14 3967.78 3884.42 3785.71 3659.94 3513.04 3356.39 3199.19 3051.22 2919.38 2810.03 2726.38 2671.28 2645.72 2651.21 2692.61 2768.44 2880.78 3034.04 3235.87 3497.98 3824.62 4200.39 4397.01 4117.37 4014.76 3855.01 3755.75 3670.3 3575.39 3464.76 3343.94 3218.56 3095.4 2980.8 2881.28 2800.48 2741.69 2708.5 2704.25 2733.56 2798.09 2899.28 3038.9 3224.15 3458.34 3734.23 4036.4 4191.68 4058.33 3940.98 3750.31 3629.63 3544.2 3469.57 3391.89 3307.57 3218.79 3127 3036.24 2951.63 2878.86 2821.19 2783.55 2771.19 2787.46 2838.95 2926.67 3051.32 3215.75 3417.56 3649.41 3905.6 4039.81 4017.75 3890.17 3675.84 3532.71 3436.82 3367.29 3309.49 3254.62 3198.84 3138.99 3075.54 3010.7 2949.55 2896.51 2856.63 2838.28 2846.73 2885.48 2958.72 3068.14 3211.9 3386.61 3589.38 3820.81 3944.02 3994.5 3860.35 3630.07 3468.03 3357.9 3283.54 3233.07 3196.77 3165.48 3132.97 3096.1 3053.56 3006.91 2961.62 2923.67 2902.01 2902.82 2930.84 2991.92 3085.97 3212.46 3368.54 3552.32 3770.5 3889.45 3983.5 3845.24 3605.03 3429.16 3305.12 3222.32 3170.92 3142.42 3126.45 3114.51 3100.3 3078.59 3048.33 3013.59 2981.02 2957.99 2952.12 2972.21 3022.33 3102.95 3216.07 3360.07 3533.18 3744.29 3861.42 3979.88 3839.5 3593.18 3407.55 3272.2 3180.38 3124.23 3096.51 3088.1 3089.86 3093.11 3089.24 3075.62 3052.9 3026.23 3004.57 2995.91 3009.25 3049.83 3120.03 3222.52 3356.84 3523.8 3732.3 3848.51 3978.94 3838.02 3588.84 3397.16 3253.3 3152.25 3089.65 3059.02 3052.79 3062.43 3077.8 3088.66 3089.23 3078.64 3060.52 3043.03 3033.59 3041.92 3075.43 3137.16 3231.06 3357.85 3520.09 3727.73 3844.23 3979.44 3838.57 3588.23 3392.57 3242.3 3133.4 3063.22 3027.72 3020.57 3033.85 3056.87 3079.56 3093.27 3094.94 3087.09 3075.28 3067.04 3072.24 3099.7 3154.24 3240.84 3362.07 3521.1 3727.45 3843.9 3981.85 3840.94 3589.26 3390.39 3234.84 3119.35 3041.6 2999.61 2989.4 3003.3 3030.96 3062.75 3089.51 3105.35 3108.18 3103.36 3099.93 3104.64 3126.95 3174.64 3253.85 3368.6 3523.64 3728.59 3844.92 3987.55 3847.19 3594.5 3391.14 3229.17 3105.87 3020.18 2970.88 2955.65 2968.25 2999.07 3037.89 3075.77 3106.12 3123.11 3129.96 3133.97 3140.92 3160.56 3202.45 3273.58 3380.33 3529.74 3731.76 3847.41 4001.1 3860.47 3605.27 3396.21 3226.86 3093.29 2997.38 2939.51 2917.07 2926.71 2958.6 3002.68 3050.54 3094.5 3128.99 3153.16 3169.28 3183.69 3204.69 3241.96 3304.67 3401.74 3542.33 3738.47 3852.33 4029.73 3887.26 3626.3 3407.96 3226.18 3079.42 2971.73 2904.65 2875.58 2879.03 2907.56 2954.8 3011.7 3069.63 3122.91 3167.82 3203.23 3232.68 3261.46 3298.16 3353.34 3438.12 3565.52 3751.87 3862.07 4083.99 3937.34 3664.2 3428.73 3228.08 3065.04 2945.16 2867.31 2828.87 2824.12 2847.89 2895.69 2958.97 3030.24 3101.97 3169.97 3230.94 3283.25 3328.96 3373.33 3424.87 3496.38 3607.06 3778.46 3881.79 4177.87 4021.03 3723.45 3459.02 3233.48 3052.74 2918.55 2828.2 2776.86 2763.04 2781.74 2827.05 2894.17 2975.28 3064.06 3156.09 3246.4 3329 3401.55 3464.17 3520.56 3582.63 3673.28 3823.16 3916.77 4322.43 4145.11 3803.34 3494.95 3238.97 3040.72 2892.78 2790 2727.67 2704.41 2715.01 2754.51 2821.19 2908.42 3010.9 3124.38 3242.88 3359.15 3465.55 3557.4 3631.77 3693.47 3763.76 3885.16 3965.26 4522.16 4302.9 3883.68 3522.24 3240.94 3029.76 2872.09 2759.62 2688.67 2656.51 2657.9 2689.6 2752.01 2841.85 2952.98 3081.34 3222.15 3367.42 3506.78 3632.36 3733.77 3805.16 3858.98 3944.18 4003.8 4723.29 4433.44 3911.63 3515.44 3231.61 3020.82 2861.97 2747.66 2671.18 2630.65 2624.32 2648.2 2704.1 2790.39 2902.94 3039.05 3194.11 3358.86 3522.75 3673.57 3795.84 3874.75 3907.22 3940.14 3967.33 4788.27 4435.01 3855.81 3481.01 3221.24 3025.7 2876.5 2767.2 2691.59 2647.1 2633.69 2648.87 2694.61 2770.86 2875.75 3006.71 3159.29 3326.55 3498.98 3662.01 3796.41 3876.8 3874.13 3816.18 3783.71 4718.69 4377.38 3832.14 3490.32 3249.58 3070.15 2934.69 2835.4 2767.55 2726.38 2710.47 2716.57 2744.65 2795.53 2868.5 2963.39 3078.85 3214.08 3365.38 3525.38 3679.97 3802.34 3844.58 3716.48 3595.33 4671.4 4363.58 3856.17 3518.3 3279.71 3105.88 2977.03 2884.43 2821.87 2783.95 2769.19 2770.9 2787.2 2819.24 2866.52 2932.85 3018.82 3126.74 3257.6 3411.13 3580.64 3743.85 3851.77 3712.44 3542.13 3452.21 3517.39 3507.42 3335.03 3139.25 2955.89 2799.47 2669.6 2565.74 2487.93 2434.12 2401.73 2388.75 2393.93 2417.49 2462.01 2530.38 2620.97 2734.65 2879.16 3058.53 3283.93 3574.85 3951.93 4165.44 3450.07 3500.9 3517.79 3411.3 3250.59 3075.35 2907.3 2754.99 2622.6 2514.59 2434.67 2380.56 2352.73 2351.89 2376.41 2428.21 2506.6 2610.87 2741.18 2903.42 3105.52 3355.1 3677.38 4114.43 4367.61 3560.59 3561 3557.31 3509.22 3392.94 3234.03 3057.16 2880.31 2713.69 2566.83 2449.42 2363.37 2312.28 2297.53 2317.39 2371.17 2457.98 2577.33 2728.97 2917.31 3150.12 3435.36 3806.39 4311.21 4601.45 3751.76 3693.31 3602.31 3523.52 3411.83 3266.36 3100.23 2928.96 2763.05 2611.16 2482.64 2385.16 2321.56 2291.74 2298.54 2341.41 2421.24 2538.02 2690.53 2885.17 3127.67 3427.4 3812.61 4299.66 4567.6 3856.22 3759.63 3601.69 3483.92 3364.49 3230.66 3083.62 2931.73 2783.14 2644.13 2522.2 2425.81 2357.23 2317.46 2310.9 2341.37 2410.4 2516.51 2659.58 2845.68 3082.11 3376.46 3738.93 4163.68 4389.27 3882.46 3761.41 3557.91 3410.73 3285.57 3163.87 3038.76 2911.88 2787.59 2669.96 2563.32 2473.94 2407.15 2364.12 2348.87 2367 2421.69 2514.26 2645.52 2818.15 3037.01 3306.77 3625.83 3983.17 4169.65 3876.88 3740.57 3505.51 3333.86 3201.02 3087.26 2981.15 2878.58 2779.96 2686.37 2599.06 2521.97 2461.01 2418.11 2398.44 2407.34 2448.54 2527.2 2644.18 2801.38 2999.15 3238.58 3516.97 3824.58 3984.71 3867.66 3721.27 3463.93 3271.45 3127.24 3014.17 2920.14 2837.21 2761.35 2690.6 2624.23 2563.12 2511.01 2471.3 2449.21 2452.23 2485.04 2549.75 2651.89 2793.16 2970.92 3185.02 3433.42 3711.16 3856.5 3863.09 3709.87 3437.12 3227.89 3071.23 2953.34 2863.78 2793.71 2735.69 2684.97 2638.12 2593.55 2553.09 2519.49 2498.16 2497.74 2522.63 2576.83 2667.45 2793.76 2954.87 3150.79 3378.37 3639.4 3778.56 3861.47 3704.28 3422.06 3200.8 3032.64 2907.89 2817.44 2752.91 2706.56 2671.15 2640.98 2611.93 2583.78 2558.6 2541.07 2538.82 2557.41 2604.22 2684.79 2798.75 2946.7 3129.76 3346.13 3598.54 3734.67 3863.03 3703.36 3415.6 3186.22 3007.97 2875.51 2781.41 2717.73 2677.55 2652.5 2635.55 2619.97 2604.05 2588.74 2576.1 2574.15 2589.94 2630.69 2702.42 2807.07 2945.49 3118.22 3327.2 3576.58 3711.91 3866.14 3704.82 3413.99 3179.86 2994.05 2853.5 2753.69 2688 2650.01 2631.47 2623.94 2619.74 2615.04 2609.2 2603.59 2604.75 2619.41 2656.06 2721.26 2817.44 2948.3 3114.62 3318.33 3566.83 3703.23 3869.71 3708.59 3416.3 3177.98 2986.6 2839.26 2732.41 2662.34 2623.48 2608.49 2607.99 2613.31 2619.09 2622.69 2625.49 2631.58 2646.76 2680.5 2740.44 2829.91 2954.11 3115.6 3316.18 3563.25 3699.61 3876.84 3715.87 3421.96 3179.12 2982.09 2828.81 2715.15 2639.28 2597.85 2583.49 2587.37 2600.28 2615.89 2630.28 2642.21 2654.68 2673.47 2706.57 2762.27 2846.36 2963.86 3119.33 3316.23 3561.11 3696.78 3889.28 3727.81 3432.24 3185.06 2981.06 2819.87 2699.15 2616.85 2570.74 2555.2 2561.75 2580.85 2605.37 2630.74 2653.48 2674.92 2700.19 2735.53 2789.14 2868.29 2978.81 3127.18 3318.79 3561.24 3696.36 3912.78 3750.03 3450.79 3197.83 2985.71 2814.44 2684.4 2594.06 2541.63 2523.46 2530.2 2553.61 2586.81 2622.85 2658.2 2692.18 2727.44 2768.94 2823.36 2898.5 3001.74 3141.51 3325.85 3563.47 3696.71 3957.43 3791.7 3484.01 3219.4 2995.2 2811.78 2670.12 2570.63 2510.99 2487.11 2491.21 2517.16 2558.06 2605.23 2654.62 2703.81 2753.2 2806.09 2865.92 2939.93 3036.74 3166.28 3340.21 3568.85 3697.95 4034.86 3863.45 3539.81 3254.55 3011.71 2812.67 2658.32 2548.06 2478.71 2447.11 2447.29 2473.37 2519.07 2576.96 2640.39 2707.26 2775.31 2843.97 2915.79 2994.39 3087.17 3205.48 3364.46 3579.83 3703.27 4158.96 3974 3620.52 3304.91 3037.1 2819.89 2651.69 2528.57 2447.66 2407.12 2400.72 2424.02 2471.63 2537.11 2614.81 2700.89 2790.6 2879.79 2969.2 3058.82 3152.81 3261.1 3401.05 3596.22 3710.4 4337.6 4126.03 3721.43 3363.87 3068.59 2834.34 2652.18 2515.69 2422.68 2372.01 2356.47 2373.46 2419.91 2490.31 2579.62 2682.37 2793.79 2907.54 3019.66 3126.59 3227.7 3328.2 3446.07 3613.34 3713.67 4556.44 4301.09 3822.22 3419.89 3103.05 2855.43 2662.13 2515.42 2410.2 2347.66 2322.07 2329.74 2371.17 2442.97 2539.08 2654.33 2784.73 2921.66 3057.85 3185.8 3297.64 3392.08 3483.23 3610.6 3690.14 4741.31 4432.51 3879.03 3453.3 3132.33 2881.45 2684.19 2531.33 2416.56 2341.57 2305 2302.93 2335.47 2401.07 2497.28 2619.57 2762.58 2917.2 3073.45 3221.03 3344.89 3433.42 3488.97 3555.57 3601.13 4794.13 4453.8 3871.72 3457.88 3151.58 2909.45 2716.37 2564.07 2447.26 2365.01 2318.12 2304.63 2323.11 2375.35 2460.56 2575.44 2715.77 2874.1 3040.68 3203.69 3344.35 3440.97 3468.65 3449.69 3437.68 4718.39 4377.91 3810.97 3422.72 3136.49 2913.37 2736.67 2599.04 2493.51 2416.83 2369.21 2348.34 2352.78 2384.03 2441.91 2525.47 2635.29 2769.12 2921.9 3087.42 3252.6 3394.97 3473.6 3408.28 3326.76 4658.94 4323.33 3768.08 3390.63 3113.93 2903.55 2739.48 2613.4 2517.77 2448.1 2404.1 2382.4 2381.48 2400 2439.05 2500.36 2586.68 2699.61 2836.92 2998.35 3177.22 3354 3490.96 3428.25 3313.63 3401.54 3402.2 3302.63 3092.26 2874.75 2673.08 2497.86 2350.8 2232.65 2142.74 2080.01 2043.37 2029.12 2037.69 2072.02 2130.68 2214.68 2325.95 2464.32 2631.14 2833.15 3082.16 3395.99 3814.16 4056.54 3349.02 3354.35 3297.82 3145.85 2957.35 2763.69 2580.66 2416.67 2276.69 2163.78 2080.53 2028.36 2004.67 2010.45 2048.27 2115.89 2211.96 2337.08 2492.28 2680.23 2907.94 3185.96 3536.81 3991.46 4248.56 3367.1 3345.96 3295.71 3203.82 3057.72 2882.19 2696.69 2516.01 2350.72 2208.44 2096.45 2020.73 1980.11 1976.44 2013.71 2087.65 2196.41 2339.45 2517 2733.65 2995.67 3312.05 3706.02 4200.13 4473.5 3501.8 3427.93 3304.4 3195.11 3061.09 2902.47 2730.71 2558.22 2395.36 2249.98 2130.01 2043.76 1990.94 1975.06 2001.66 2066.64 2170.53 2314.2 2494.51 2716.46 2987.07 3313.55 3712.78 4200.17 4467.19 3606.25 3495.6 3307.37 3159.81 3018.14 2870.09 2715.26 2560.58 2413.15 2278.34 2163.39 2076.32 2018.15 1993.33 2006.94 2059.13 2151.75 2284.26 2455.45 2670.79 2935.87 3255.56 3640.5 4094.38 4338.19 3669.57 3533.87 3297.43 3114.55 2959.14 2815.27 2675.3 2539.87 2412.39 2295.42 2192.69 2110.92 2053.74 2024.04 2027.56 2066.95 2146.17 2264.83 2422.96 2627.09 2877.02 3176.66 3531.47 3935.07 4147.74 3706.09 3553.8 3283.36 3072.03 2901.7 2756.85 2627.48 2508.86 2400.65 2303.19 2216.25 2144.37 2091.88 2060.92 2057.95 2087.12 2153.61 2258.91 2402.42 2590.76 2821.51 3096.96 3418.68 3775.59 3961.63 3730.2 3566.7 3272.13 3038.49 2853.88 2704.4 2580.23 2474.53 2382.49 2301.97 2231.75 2172.59 2127.38 2098.92 2092.44 2114.55 2171.21 2263.09 2392.84 2564.84 2777.43 3030.46 3322.26 3646.03 3814.85 3749.19 3578.17 3267.07 3016.26 2818.31 2661.91 2538.22 2440.14 2360.42 2294.68 2239.81 2193.46 2156.87 2133.27 2126.96 2144.77 2192.66 2273.83 2393.03 2550.93 2747.74 2982.85 3253.21 3556.48 3715.72 3763.58 3587.67 3266.42 3003.87 2794.43 2630.66 2504.62 2409 2337.15 2282.77 2240.25 2205.92 2179.06 2161.67 2157.69 2173.71 2215.41 2288.59 2398.08 2544.52 2728.71 2950.74 3207.74 3500.16 3655.88 3775.33 3596.12 3268.68 2998.98 2780.62 2609.08 2478.46 2382.56 2315.04 2268.16 2235.35 2211.11 2193.72 2183.85 2183.56 2199.34 2238 2305.21 2406.44 2544.48 2718.99 2930.18 3178.62 3466.38 3620.65 3784.49 3604 3273.26 2998.57 2773.47 2594.71 2458.47 2360.14 2293.92 2251.61 2226 2210.73 2202.44 2200.04 2204.77 2222.7 2259.76 2322.6 2417.67 2548.13 2715.15 2919.34 3162.98 3448.3 3601.47 3794.23 3613.53 3280.82 3001.94 2771.34 2586.13 2443.63 2341.05 2273.53 2233.41 2212.98 2205.58 2205.89 2210.99 2222.09 2243.55 2280.14 2340 2430.21 2554.27 2714.92 2914.29 3154.79 3438.8 3592.14 3808.6 3627.17 3292.58 3009.8 2773.28 2581.32 2432.01 2324.19 2253.83 2213.95 2197.07 2195.53 2203.21 2216.44 2234.98 2261.38 2300.02 2359.14 2445.51 2564.07 2718.71 2912.87 3149.65 3431.86 3585.09 3830.1 3647.88 3310.89 3022.81 2778.84 2579.07 2422.59 2308.63 2233.65 2192.57 2177.9 2180.76 2195.34 2217.21 2244.2 2277.61 2320.93 2381.03 2464.87 2578.28 2726.65 2914.79 3146.24 3426 3578.96 3866.77 3682.32 3339.5 3043.19 2789.81 2580.98 2416.06 2294.52 2213.7 2169.23 2154.16 2160.32 2181.77 2212.21 2248.7 2291.32 2341.98 2405.92 2489.51 2598.6 2739.99 2920.34 3145 3420.31 3571.34 3926.01 3738.07 3384.26 3074.2 2808.87 2588.75 2413.1 2282.02 2193.45 2143.41 2125.79 2133.43 2160.68 2199.96 2247.15 2301.26 2362.76 2434.69 2520.87 2627.35 2761.93 2932.51 3147.24 3413.98 3561.09 4023.31 3826.61 3452.9 3121.23 2838.15 2603.24 2415.09 2273.36 2174.28 2116.29 2095.01 2102.27 2132.54 2180.53 2239.63 2306.98 2381.94 2464.9 2558.3 2665.91 2794.36 2953.42 3153.69 3407.15 3548.69 4166.74 3952.63 3545.29 3184.08 2877.97 2626.03 2424.08 2270.42 2160.76 2093.36 2064.09 2067.93 2099.09 2152.92 2223.58 2305.49 2396.63 2494.67 2599.69 2712.4 2837.4 2983.67 3164.43 3397.45 3529.35 4350.01 4108.11 3650.45 3254.32 2926.04 2657.89 2442.59 2276 2154.34 2075.67 2036.23 2033.35 2062.57 2119.53 2199.09 2294.89 2404.23 2520.93 2641.49 2764.28 2889.4 3022.04 3177.44 3381.25 3498.76 4541.6 4262.29 3746.47 3319.55 2975.87 2696.19 2470.45 2293.24 2157.84 2066.35 2016.56 2004.18 2027.82 2084.07 2168.2 2275.61 2401.2 2536.58 2676.42 2813.83 2942.32 3062.42 3186.67 3348.68 3444.74 4669.16 4358.74 3802.39 3363.06 3015.72 2733.7 2503.08 2318.76 2174.75 2072.5 2009.98 1985.08 1999.38 2049.79 2132.96 2245.53 2381.54 2532.45 2690.74 2845.88 2984.32 3097.26 3186.56 3289.16 3351.81 4686.27 4366.94 3799.38 3363.33 3025.39 2751.18 2525.94 2343.57 2199.75 2092.13 2020.87 1985.94 1987.53 2026.76 2099.74 2204.73 2339.27 2494.86 2663.78 2835.24 2992.51 3117.77 3187.28 3214.34 3224.41 4602.76 4266.62 3692.91 3279.52 2965.75 2715.86 2513.19 2349.51 2219.51 2120.82 2053.27 2015.86 2007.52 2030.05 2081.74 2162.52 2273.5 2411 2571.12 2747.04 2927.47 3094.43 3211.84 3208.65 3165.36 4539.2 4183.98 3603.11 3209.23 2911.97 2680.33 2494.33 2344.61 2226.23 2137.15 2075.02 2038.42 2027.21 2040.32 2078.78 2142.95 2235.14 2356.46 2505.32 2679 2870.99 3065.85 3233.11 3240.6 3176.15 3380.45 3324.58 3145.78 2899.39 2659.38 2439.52 2246.09 2080.94 1946.47 1842.38 1767.88 1722.82 1706.4 1719.26 1762.04 1833.15 1931.85 2058.82 2216.01 2402.25 2623.45 2891.69 3223.18 3672.23 3936.55 3287.41 3249.98 3124.91 2930.78 2716 2504.53 2306.92 2130.47 1980.47 1859.94 1770.37 1714.3 1691.75 1703.57 1750.34 1829.53 1940.49 2081.16 2254.01 2461.33 2707.29 3004.11 3372.1 3836.38 4095.44 3235.99 3191.28 3092.18 2956.54 2781.14 2587.91 2391.78 2205.24 2037.72 1896.13 1785.49 1712.65 1678.14 1683.71 1731.94 1819.11 1943.35 2102.35 2298.17 2533.93 2814.16 3148.68 3553.27 4032.18 4288.8 3329.96 3239.34 3079.33 2934.26 2773.12 2596.61 2414.16 2236.03 2071.66 1928.52 1812.87 1731.97 1687.28 1683.41 1724.04 1805.3 1926.58 2088.5 2291.07 2534.04 2823.29 3166.23 3569.28 4047.36 4307.86 3426.05 3300.73 3080.75 2901.31 2733.08 2565.26 2397.7 2235.2 2084.02 1949.9 1838.95 1757.27 1708.07 1696.24 1725.59 1796.22 1908.46 2063.13 2259.65 2498.32 2783.93 3120.88 3516.32 3982.54 4234.92 3504.66 3354.75 3087.62 2872.49 2687.89 2520.2 2363.14 2215.88 2080.96 1961.04 1859.83 1782.85 1733.89 1716.37 1735.82 1795.94 1896.68 2038.74 2223.7 2452.93 2727.52 3051.07 3430.31 3866.19 4097.56 3567.69 3399.65 3097.07 2852.16 2649.36 2476.37 2324.12 2188.31 2068.31 1963.7 1875.1 1806.18 1760.33 1740.95 1753.88 1803.25 1892.02 2021.46 2193.48 2409.72 2669.21 2975.12 3330.52 3730.42 3940.09 3618.13 3437.61 3108.87 2840.45 2621.32 2439.79 2287.65 2159.54 2051.26 1959.82 1884.04 1825.18 1785.62 1767.45 1775.76 1816.91 1895.65 2013.77 2173.36 2375.96 2620.87 2908.49 3238.22 3605.71 3797.95 3658.18 3469.4 3123.25 2837.05 2603.06 2412.12 2257.05 2132.83 2032.72 1951.92 1887.86 1838.76 1805.81 1790.98 1798.2 1834.47 1905.27 2013.19 2161.85 2352.55 2583.54 2854.84 3164.59 3508.74 3689.11 3689.58 3494.74 3137.56 2839.37 2592.98 2393.24 2233.92 2109.7 2014.16 1941.53 1886.73 1846.8 1820.97 1810.72 1819.49 1853.34 1918.15 2018.26 2157.34 2336.63 2555.7 2814.32 3110.48 3442.14 3617.01 3714.63 3516.01 3150.73 2844.41 2589.84 2381.8 2216.86 2090.48 1996.71 1929.43 1882.07 1850.31 1831.72 1826.56 1838.01 1871.37 1931.74 2025.38 2157.13 2327.87 2538.41 2786.6 3072.3 3398.56 3571.89 3733.05 3533.52 3164.65 2852.32 2590.48 2375.45 2204.62 2074.84 1980.77 1916.19 1874.63 1849.57 1837.79 1838.27 1853.26 1887.65 1945.97 2034.93 2160.31 2324.21 2527.8 2768.54 3047.4 3370.38 3543.32 3752.48 3551.43 3179.42 2863.16 2595.12 2373.21 2196.75 2062.36 1966.3 1902.82 1864.66 1845.19 1839.97 1846.61 1866 1902.43 1960.41 2046.54 2166.48 2323.99 2520.78 2756.61 3032.77 3352.63 3524.15 3776.62 3573.16 3197.14 2877.38 2604.28 2374.86 2191.3 2051.92 1952.79 1888.77 1852.57 1837.48 1838.17 1851.17 1876.2 1916.04 1974.66 2059.45 2175.29 2326.98 2517.54 2748.14 3021.52 3339.43 3510 3806 3602.85 3223.69 2896.78 2616.71 2380.31 2188.92 2043.03 1939.72 1873.85 1838.51 1826.45 1832.68 1852.39 1883.82 1928.88 1990.24 2074.59 2187.39 2333.58 2517.56 2742.33 3010.26 3325.59 3496.23 3851.64 3647.1 3261.97 2924.81 2634.51 2389.56 2190.36 2037.46 1928.05 1858.06 1822.02 1812.13 1823.17 1849.4 1888.14 1940.08 2006.56 2092.61 2203.53 2344.72 2521.91 2739.07 2999.46 3309.3 3477.67 3921.4 3712.55 3315.83 2964.11 2660.81 2405.1 2196.51 2035.41 1918.01 1841.43 1802.55 1793.41 1808.18 1841.09 1888.24 1948.91 2023.47 2114.35 2225.26 2362.49 2532.18 2739.15 2989.27 3290.28 3454.54 4028 3807.42 3388.22 3016.02 2696.94 2429.23 2208.97 2036.64 1909.49 1825.34 1781.89 1771.65 1788.59 1828.14 1884.65 1955.4 2039.85 2138.26 2252.93 2388.06 2549.2 2743.49 2979.72 3267.52 3425.4 4170.26 3930.21 3476.64 3079.14 2742.24 2460.14 2226.92 2043.99 1906.97 1813.88 1762.82 1748.36 1765.74 1809.92 1875.53 1957.15 2053.16 2163.04 2285.56 2421.24 2575.16 2754.93 2971.42 3238.6 3386.62 4328.87 4064.13 3568.8 3145.94 2792.82 2497.63 2253.95 2060.14 1911.88 1807.91 1746.88 1725.37 1739.67 1785.67 1858.82 1952.2 2062.61 2186.69 2320.02 2460.94 2611.15 2774.76 2964.83 3202.4 3335.83 4466 4174.29 3642.15 3204.21 2841.58 2538.07 2287.01 2083.29 1923.72 1808.47 1737.02 1706.44 1714.17 1759.04 1836.05 1939.03 2063.37 2202.97 2350.78 2502.16 2652.66 2801.44 2960.08 3156.4 3268.46 4529.91 4226.37 3680.58 3238.41 2873.31 2569.1 2315.35 2107.82 1942.71 1818.51 1735.14 1693.29 1693.47 1733.49 1808.96 1915.76 2049.32 2202.27 2366.17 2532.68 2691.45 2833.34 2959.46 3100.09 3180.51 4514.81 4215.46 3667.62 3222.43 2864.5 2569.43 2324.05 2121.99 1959.18 1832.53 1742.92 1693.57 1684.2 1714.45 1782 1883.74 2017.3 2174.98 2349.2 2530.87 2707.15 2861.89 2973.09 3048.35 3082.13 4439.93 4108.74 3535.23 3109.71 2779.03 2510.81 2289.53 2107.05 1959.4 1843.99 1761.45 1711.94 1695.53 1713.78 1765.49 1849.81 1966.68 2112.01 2281.91 2470.23 2667.61 2859.34 3014.67 3072.1 3066.04 4388.08 4021.41 3425.34 3021.86 2711.15 2463.05 2258.32 2089.77 1953.93 1848.74 1773.05 1725.03 1707.36 1719.75 1761.36 1833.69 1936.98 2070.47 2233.33 2421.75 2629.71 2845.17 3043.92 3117.16 3098.71 3385.15 3276.87 3024.44 2744.21 2481.71 2242.9 2031.85 1849 1696.81 1576.78 1490.41 1436.48 1415.96 1432.12 1482.97 1565.72 1679.72 1823.39 1996.41 2200.48 2440.34 2725.82 3074.19 3548.25 3829.26 3256.82 3178.63 2988.91 2756.32 2516.59 2286.73 2074.56 1885.07 1722.92 1590.99 1493.43 1432.04 1407.31 1423.5 1478.6 1568.42 1692.67 1848.11 2034.75 2256.43 2517.88 2828.45 3208.11 3679.59 3940.3 3148.08 3079.1 2931.62 2754.99 2551.45 2339.95 2132.33 1938.18 1765.14 1619.01 1506.25 1432.58 1400.22 1413.4 1470.79 1567.93 1704.85 1877.27 2085.25 2332.64 2623.87 2967.28 3375.21 3838.72 4080.06 3211.15 3102.94 2905.63 2724.26 2534.7 2338.66 2143.53 1957.29 1788.19 1642.89 1526.92 1447.27 1408.46 1414.24 1465.67 1560.19 1696.81 1873.97 2091.11 2348.08 2648.89 2998.99 3401.22 3863.88 4111.94 3300.61 3160.12 2907.86 2695.68 2499.27 2309.68 2126.36 1952.72 1794.59 1657.5 1546.05 1466.34 1423.72 1422.37 1465.04 1552.39 1682.5 1856.52 2072.23 2327.7 2627.26 2973.86 3373.43 3839.37 4091.2 3388.5 3223.88 2926.22 2679.96 2466.32 2273.71 2097.09 1935.08 1789.46 1663.31 1560.34 1484.73 1441.31 1435.29 1470.56 1549.22 1669.81 1834.14 2042.1 2291.33 2583.83 2924.25 3318.11 3773.1 4017.19 3468.51 3285.38 2952.28 2676.49 2443.36 2242.5 2066.67 1912 1777.54 1662.77 1569.41 1500.43 1459.41 1451.13 1480.16 1549.74 1660.62 1813.93 2011.54 2252.06 2535.34 2865.17 3244.69 3675.96 3904.54 3537.97 3341.71 2981.92 2682.18 2431.2 2219.48 2040.32 1889.06 1762.47 1657.76 1573.93 1512.51 1476.57 1468.15 1491.71 1553.94 1656.37 1800.4 1988.13 2218.28 2490.32 2806.26 3169.16 3575 3787.28 3596.05 3390.55 3011.97 2693.64 2427.15 2204.72 2020.06 1869.32 1747.39 1650.08 1574.94 1521.13 1490.38 1483.77 1505.42 1562.11 1656.96 1792.05 1969.99 2190.54 2451.6 2754.61 3100.48 3484.49 3685.26 3643.12 3430.16 3038.7 2708.06 2429.23 2197.03 2006.32 1853.62 1733.41 1641.13 1572.97 1526.1 1500.42 1497.11 1519.2 1572.19 1660.89 1788.91 1958.57 2169.76 2420.94 2712.63 3044.04 3412.72 3606.36 3681.24 3463.78 3062.93 2723.23 2435.42 2194.35 1997.43 1841.37 1720.88 1631.67 1568.71 1528.08 1507.63 1507.79 1531.39 1583.19 1667.05 1788.75 1951.74 2154.84 2398.19 2680.49 3002.3 3363.8 3554.12 3711.87 3492.45 3086.6 2739.92 2443.74 2195.49 1992.74 1832.19 1709.89 1621.83 1562.77 1527.08 1511.72 1515.94 1541.91 1593.48 1674.7 1791.67 1947.99 2144.03 2381.29 2657.42 2970.83 3328.03 3518.86 3739 3518.14 3108.94 2758.1 2455.56 2200.31 1991.49 1825.52 1700.54 1612.56 1555.63 1523.66 1513.09 1521.91 1550.99 1603.54 1683.68 1797.25 1947.81 2137.3 2367.76 2638.85 2947.61 3302.01 3493.11 3769.5 3547.63 3134.76 2778.61 2470.29 2207.58 1991.98 1821.16 1692.85 1603.53 1547.15 1518.15 1512.18 1525.83 1558.77 1613.42 1693.5 1804.82 1950.28 2133.86 2358.14 2623.42 2929.33 3281.5 3471.09 3806.98 3584.48 3166.71 2803.47 2488.86 2218.8 1995.97 1819.01 1685.88 1593.97 1537.4 1510.38 1508.49 1527.14 1564.76 1622.88 1704.19 1814.02 1956.01 2133.82 2351 2609.67 2910.14 3259.04 3447.56 3859.32 3633.83 3208.46 2835.9 2512.32 2234.19 2003.78 1820.44 1681.15 1584.61 1526.6 1500.4 1501.93 1525.69 1568.78 1631.7 1716.2 1825.93 1964.96 2137.1 2346.68 2597.38 2890.59 3233.4 3418.91 3933.87 3702.51 3264.91 2877.01 2540.75 2254.37 2015.81 1825.18 1678.82 1575.91 1514.32 1487.88 1491.59 1520.59 1570.22 1639.53 1729.29 1840.99 1977.97 2145.04 2346.86 2587.06 2869.96 3202.68 3382.7 4036.38 3792.94 3332.01 2925.44 2576.82 2281.52 2033.18 1831.87 1677.45 1568.23 1501.66 1473.37 1478.49 1511.91 1568.4 1645.57 1742.37 1858.6 1996.46 2159.28 2351.53 2578.54 2847.67 3166.6 3339.25 4156.25 3894.8 3403.91 2979.4 2618.79 2312.58 2054.4 1844.65 1682.29 1564.81 1491.19 1458.27 1463.09 1499.85 1563.18 1649.09 1754.44 1878.62 2020.66 2180.92 2363.81 2575.42 2825.06 3123.78 3286.52 4267.42 3986.65 3468.55 3030.59 2660.77 2346.75 2081.49 1864.13 1692.61 1565.64 1483.26 1444.19 1445.25 1483.22 1552.92 1648.05 1764.28 1898.84 2048.12 2210.07 2386.23 2580.5 2804.17 3073.93 3222.4 4338.2 4043.89 3510.99 3070.42 2696.96 2379.06 2109.92 1885.89 1705.69 1569.93 1478.43 1431.67 1427.55 1464.26 1537.31 1639.96 1767.8 1914.51 2074.48 2243.63 2417.6 2596.4 2789.61 3019.81 3148.01 4345.9 4055.26 3526.82 3087.37 2713.68 2396.02 2128.05 1903.77 1721.03 1579.28 1478.69 1422.81 1412.64 1445.44 1517.56 1624.38 1760.33 1918.24 2091.02 2272.08 2452.49 2624.16 2787.51 2966.73 3065.53 4310.93 4030 3502.35 3055.86 2688.72 2380.92 2122.73 1906.65 1728.38 1586.47 1483.66 1422.84 1405.28 1430.71 1497.03 1601.1 1737.86 1901.6 2084.55 2278.67 2473.82 2656.8 2808.81 2932.47 2990.87 4262.82 3937.62 3368.98 2937.35 2595.53 2313.73 2077.74 1880.7 1717.62 1587.15 1492.36 1432.86 1410.83 1428.08 1483.31 1574.72 1700.43 1857.07 2039.58 2242.19 2457.02 2672.91 2865.11 2981.65 3012.19 4236.99 3865.04 3261.75 2851.12 2528.07 2264.45 2043.39 1858.79 1706.98 1586.5 1497.71 1440.03 1417.34 1430.82 1479.27 1561.92 1678.54 1826.94 2005.26 2210.14 2435.94 2672.84 2902.88 3039.75 3065.44 3409.69 3252.15 2931.53 2619.85 2335.27 2077.75 1848.81 1648.64 1478.57 1341.19 1239.66 1175.92 1152.49 1170.69 1229.28 1324.83 1454.33 1615.06 1805.78 2027.9 2285.7 2588.19 2952.59 3446.17 3739.03 3251.06 3133.56 2882.76 2614.92 2351.71 2104.01 1876.92 1673.49 1497.51 1352.51 1243.56 1174.69 1147.91 1166.41 1229.24 1330.67 1467.28 1637.21 1839.2 2073.96 2347.61 2669.32 3056.92 3532.77 3794.75 3094.27 3001.13 2806.36 2591.46 2361.79 2132.28 1912.34 1708.62 1527.05 1372.98 1254.09 1176.73 1144.46 1161.92 1227.66 1336.21 1484.11 1667.6 1886.64 2142.17 2439.29 2786.42 3191.67 3640.18 3870.24 3134.24 3008.68 2774 2557.02 2339.82 2123.45 1914.2 1718.13 1540.99 1388.85 1268.32 1186.84 1150.44 1162.93 1225.34 1333.87 1484.31 1673.63 1900.92 2166.83 2474.53 2827.42 3224.36 3670.33 3907.2 3219.56 3064.19 2779.8 2535.25 2310.88 2098.46 1897.59 1710.9 1542.53 1397.62 1281.29 1200.12 1160.78 1167.92 1224.87 1328.82 1475.39 1665.42 1894.71 2161.72 2471.25 2822.85 3219.65 3678.83 3927.17 3314.11 3135.66 2808.62 2532.35 2290.61 2072.65 1874.58 1695.45 1536.12 1399.68 1290.27 1212.46 1172.44 1176.45 1227.25 1323.92 1464.59 1649.89 1875.79 2140.32 2446.71 2796.6 3196.13 3659.82 3910.16 3407.2 3210.39 2848.64 2543.59 2281.82 2053.55 1853.43 1677.9 1525.54 1397.3 1295.25 1222.5 1184.32 1186.3 1231.32 1320.34 1454.24 1632.23 1851.55 2111.41 2413.28 2760.05 3156.18 3609.27 3851.28 3492.1 3280.98 2892.09 2563.27 2282.9 2042.91 1837.39 1662 1513.94 1391.99 1296.82 1229.73 1194.85 1196.16 1236.53 1319.8 1447.15 1617.49 1829.83 2083.23 2378.35 2717.24 3104.52 3541.53 3771.84 3566.09 3344.16 2934.48 2587 2291.2 2039.78 1826.84 1649.08 1502.92 1385.58 1296.45 1234.97 1203.74 1205.74 1243.88 1322.31 1443.03 1605.9 1811.61 2058.59 2346.09 2675.86 3051.22 3470.87 3690.66 3626.87 3396.66 2972.63 2611.79 2303.29 2041.82 1821.7 1640 1493.21 1378.63 1294.35 1238.11 1210.78 1214.46 1251.82 1326.52 1441.33 1597.96 1796.97 2037.47 2317.21 2638.84 3002.92 3406.9 3619.03 3674.17 3439.34 3006.96 2636.72 2317.84 2047.45 1820.58 1634.21 1485.33 1371.87 1290.74 1238.98 1215.61 1221.46 1259.05 1331.92 1442.37 1593.13 1786.16 2020.01 2292.47 2605.98 2961.15 3356.01 3563.48 3713.44 3476.6 3037.67 2659.91 2333.98 2055.97 1822.2 1630.66 1479.11 1365.51 1286.37 1237.96 1218.29 1227.06 1265.94 1337.47 1444.71 1590.82 1778.22 2005.88 2272.31 2579.31 2926.68 3315.34 3520.61 3747.61 3509.68 3065.51 2682.39 2351.2 2065.86 1825.69 1629.18 1474.87 1360.24 1281.69 1235.47 1219.2 1231.16 1272.12 1343.67 1448.98 1591.56 1773.13 1994.24 2254.53 2556.38 2898.23 3284.57 3490.93 3782.13 3544.41 3098.18 2708.85 2369.9 2077.74 1831.64 1629.86 1471.8 1355.2 1276.26 1231.68 1218.58 1233.97 1277.39 1349.88 1454.25 1594.18 1770.5 1984.83 2239.75 2536.59 2873.57 3257.51 3463.6 3826.47 3585.86 3133.86 2737.42 2391.24 2092.47 1840.08 1632.55 1469.19 1349.52 1270.02 1226.51 1216.09 1235.31 1281.89 1356.14 1460.31 1597.87 1770.19 1979.06 2226.88 2516.15 2847.62 3227.33 3431.16 3882.86 3637.07 3175.21 2769.78 2415.81 2109.85 1851.33 1638.88 1470.01 1345.58 1263.56 1219.93 1211.82 1234.69 1285.22 1362.52 1467.92 1603.69 1772.19 1975.16 2214.93 2495.6 2819.88 3194.2 3395.24 3951.17 3698.93 3224.71 2807 2443.22 2130.76 1865.91 1647.25 1472.72 1342.87 1256.84 1212.07 1205.22 1231.64 1286.93 1368.74 1476.87 1612.54 1777.4 1973.68 2205.33 2475.9 2789.75 3154.05 3349.88 4034.16 3770.42 3275.42 2844.92 2473.65 2154.75 1882.98 1656.25 1475.49 1340.48 1250.39 1203.38 1196.68 1226.24 1286.63 1374.02 1486.64 1624.14 1787.39 1978.06 2199.57 2457.04 2756.56 3105.43 3293.28 4116.04 3838.42 3322.19 2881.53 2504.41 2179.66 1903.06 1670.63 1483.2 1341.42 1245.06 1194.15 1186.49 1218.41 1283.92 1377.81 1496.89 1638.96 1802.81 1989.08 2200.59 2442.11 2722.33 3050.56 3227.55 4170.49 3881.22 3353.57 2911.17 2532.03 2204.84 1924.49 1687.68 1494.03 1345.26 1241.62 1185.36 1175.04 1207.73 1277.73 1378.58 1506.04 1655.09 1822.42 2007.32 2210.31 2434.31 2689.8 2990.66 3153.78 4177.62 3888.15 3364.85 2928.65 2551.35 2224.07 1941.67 1702.4 1504.84 1350.53 1240.67 1178.29 1163.77 1194.87 1267.58 1374.73 1511.02 1668.8 1843.6 2032.21 2230.45 2439.25 2666 2929.24 3073.12 4140.95 3865.67 3359.04 2926.15 2549.97 2225.28 1946.87 1710.1 1513.33 1356.57 1241.63 1172.84 1153.33 1181.61 1254.18 1365.62 1508.73 1675.52 1860.45 2057.55 2259.39 2460.43 2660.37 2877.76 2994.69 4098.15 3832.95 3326.03 2883.75 2513.2 2199.02 1931.23 1703.27 1512.71 1358.31 1243.26 1171.34 1147.43 1171.49 1240.13 1350.52 1495.34 1667.91 1861.86 2069.88 2284.07 2494.38 2685.4 2857.16 2940.51 4089.85 3771.23 3210.38 2776.59 2426.68 2134.64 1886.46 1675.26 1497.74 1353.19 1245.27 1176.26 1149.96 1168.23 1229.34 1331.48 1469.88 1639.49 1835.73 2053.21 2286.13 2525.76 2753.63 2928.15 2994.72 4098.13 3725.76 3120.84 2704.09 2369.1 2091.35 1855.87 1654.93 1486.21 1349.22 1246.39 1180.28 1153.47 1168.75 1225.25 1321.45 1454.28 1619.27 1814.16 2035.6 2279.46 2538.05 2799.74 2998.5 3066.8 3446.21 3244.17 2861.68 2521.53 2216.89 1941.45 1695.18 1477.75 1289.82 1133.67 1013.16 935.883 907.679 929.691 999.208 1110.75 1258.15 1436.69 1645.8 1885.82 2160.07 2478.24 2857.08 3365.83 3667.27 3263.66 3109.6 2802.08 2501.92 2217.6 1952.96 1710.9 1493.18 1302.2 1141.67 1017.23 936.624 905.955 928.109 1000.82 1116.87 1269.38 1454.32 1670.28 1917.87 2202.07 2532.28 2925.23 3403.25 3666.18 3069.55 2952.63 2712.32 2461.66 2208.13 1961.51 1728.75 1513.73 1320.83 1155.48 1025.78 940.095 905.27 926.849 1002.24 1124.52 1285.77 1480.4 1708.47 1970.49 2271.11 2617.87 3017.28 3451.95 3672.94 3092.22 2949.61 2679.07 2428.3 2184.97 1949.01 1724.94 1516.57 1327.97 1164.98 1035.07 946.984 909.628 928.388 1002.5 1126.02 1290.6 1491.15 1727.49 1999.37 2309.39 2660.56 3050.03 3479.93 3706.23 3174.84 3005.52 2691.26 2416.24 2164.89 1930.25 1711.01 1508.73 1326.76 1169.43 1042.93 955.475 916.612 931.839 1002.57 1124.03 1288.1 1491.82 1731.89 2007.41 2321.56 2673.01 3064.42 3512.71 3754.08 3277.3 3085.36 2730.57 2426.36 2157.74 1915.63 1695.86 1497.09 1320.74 1169.29 1047.8 963.122 923.872 936.907 1003.1 1119.41 1281.24 1484.76 1724.91 2001.5 2317.33 2670.88 3070.96 3534.45 3783.96 3383.96 3172.46 2782.45 2450.74 2162.57 1908.76 1684.36 1485.88 1312.71 1166.36 1050.1 969.089 930.852 942.29 1005.04 1115.83 1272.83 1472.92 1710.96 1986.39 2301.65 2657.86 3062.91 3529.6 3779.54 3482.01 3255.49 2838.19 2482.77 2175.58 1909.54 1678.19 1477.25 1305.38 1162.25 1050.49 973.663 937.305 947.945 1007.67 1114.14 1266.6 1461.77 1695.99 1968.98 2281.79 2636.99 3039.94 3499.46 3744.26 3568.47 3330.23 2890.92 2516.86 2194.67 1916.6 1676.47 1471.27 1298.82 1157.78 1049.7 976.588 942.786 953.516 1010.68 1113.4 1261.57 1451.74 1682.1 1951.8 2260.59 2611.78 3009.12 3456.84 3693.48 3639.36 3393.15 2938.01 2550.41 2216.31 1927.25 1678.89 1468.15 1293.47 1153.44 1047.96 978.125 947.301 958.605 1014.03 1113.89 1257.48 1442.2 1668.09 1933.77 2237.21 2584.01 2974.8 3410.06 3639.65 3692.78 3442.7 2979.57 2582.54 2238.14 1939.78 1684.36 1468.34 1290.3 1149.65 1045.57 978.563 950.486 963.056 1017.93 1115.51 1255.2 1435.25 1656.32 1917.6 2216.35 2557.07 2940.05 3366.32 3591.45 3737.53 3485.23 3015.49 2610.78 2259.67 1953.22 1690.72 1470.01 1288.41 1146.29 1042.74 977.87 952.265 966.638 1021.74 1117.7 1254.08 1430.39 1646.74 1902.69 2196.94 2530.81 2907.1 3328.28 3550.5 3778 3523.62 3047.75 2636.26 2279.53 1967.02 1698.27 1472.77 1288.25 1144.14 1039.99 976.149 952.694 969.207 1025.31 1120.46 1254.43 1427.25 1638.92 1889.61 2178.62 2507.32 2878.37 3295.68 3516.68 3814.09 3558.76 3080.3 2662.44 2298.57 1981.9 1707.79 1477.05 1289.04 1142.22 1036.95 973.626 952.169 970.89 1028.47 1123.69 1256.07 1425.73 1632.98 1877.62 2161.11 2485.37 2850.86 3264.07 3483.99 3855.19 3596.48 3114.03 2690.55 2318.74 1996.66 1717.99 1482.45 1289.88 1139.94 1033.42 970.509 950.626 971.904 1031.41 1127.07 1258.29 1425.22 1627.82 1866.55 2142.94 2459.95 2820.21 3229.17 3447.02 3904.06 3640.58 3149.53 2718.77 2340.54 2012.74 1729.9 1490.32 1292.93 1139.4 1030.47 966.721 947.914 971.586 1033.77 1130.75 1261.58 1426.01 1623.8 1856.33 2125.71 2433.62 2785.72 3189.84 3405.54 3957.89 3688.14 3184.6 2745.22 2361.77 2029.66 1743.25 1499.55 1297.8 1139.91 1027.42 962.225 944.234 970.032 1035.1 1134.72 1266.38 1428.83 1622.09 1847.48 2108.18 2406.14 2747.17 3140.67 3351.23 4011.79 3732.31 3214.32 2768.84 2382.06 2046.65 1756.7 1508.23 1302.6 1140.66 1024.56 957.667 939.172 966.934 1035.44 1138.69 1272.56 1434.44 1624.37 1842.83 2092.33 2377.89 2704.93 3081.05 3282.5 4045 3759.06 3232.86 2785.55 2398.98 2062.68 1770.49 1518.7 1308.76 1142.87 1023.05 952.862 932.674 961.907 1034.33 1141.96 1279.65 1443.07 1630.91 1843.56 2082.75 2352.58 2660.32 3015.77 3206.59 4042.51 3755.5 3232.01 2791.51 2408.95 2074.05 1782.18 1529.51 1316.5 1146.74 1022.36 947.554 925.553 955.503 1031.06 1143.59 1286.64 1453.97 1642.16 1850.72 2080.39 2333.21 2617.58 2946.78 3124.04 3999.73 3721.45 3214.64 2786.14 2409.26 2077.26 1787 1535.69 1322.74 1150.79 1022.77 943.505 918.335 947.528 1025.33 1142.6 1291.75 1464.89 1656.77 1865.05 2088.06 2326.13 2584.63 2878.75 3037.27 3932.8 3673.41 3190.11 2766.27 2391.82 2065.31 1780.59 1534.11 1324.79 1152.79 1022.69 940.2 911.519 938.916 1017.33 1138.08 1292.51 1472.19 1671.05 1884.66 2108.22 2337.75 2572.89 2826.83 2961.21 3890.9 3639.88 3153.91 2719.41 2349.76 2033.22 1758.97 1521.52 1319.39 1151 1021.56 938.069 906.95 931.607 1008.18 1129.32 1286.17 1470.82 1677.15 1899.83 2133.08 2369.51 2597.57 2815.57 2923.2 3928.67 3618.12 3067.66 2634.97 2280.29 1979.58 1720.24 1495.47 1303.24 1143.18 1019.68 938.938 906.989 928.227 1000.06 1116.52 1270.35 1455.08 1666.06 1899.07 2149.95 2412.29 2673.62 2904.59 3007.11 3973.21 3605.73 3004.41 2582.81 2238.41 1947.42 1696.72 1478.83 1292.22 1137.48 1018.25 940.048 908.568 928.135 996.507 1109.11 1259.69 1442.89 1655.21 1893.43 2155.03 2434.63 2726.14 2985.3 3096.13 3491.66 3249.97 2812.57 2447.28 2124.54 1833.39 1571.97 1337.71 1131.16 954.542 812.814 716.795 679.042 706.353 792.825 925.708 1094.13 1292.1 1518.23 1774.15 2063.31 2394.15 2784.34 3303.36 3609.53 3291.78 3104.2 2745.44 2416.48 2113.05 1833.35 1577.5 1345.39 1138.4 959.732 815.813 717.723 678.804 706.314 794.45 930.094 1101.66 1302.79 1531.96 1791.23 2084.62 2420.63 2815.73 3292.84 3554.92 3069.84 2929.98 2647.82 2364.9 2089.36 1827.3 1581.74 1354.45 1148.45 968.27 821.848 720.942 679.847 707.273 797.154 936.763 1113.79 1321.06 1557.66 1825.12 2127.09 2470.3 2861.53 3282.19 3494.68 3079.77 2921.02 2618.07 2336.8 2068.89 1814.7 1575.76 1353.48 1151.09 973.155 827.211 725.591 683.212 709.542 799.615 940.6 1120.97 1333.96 1578.16 1853.68 2162.65 2508.44 2889.68 3303.21 3517.99 3164.24 2981.14 2639.17 2336.49 2059.91 1804.34 1566.9 1347.53 1149.13 974.754 831.188 730.451 687.255 711.335 800.085 941.661 1124.19 1341.19 1590.67 1871.86 2186.03 2534.03 2918.95 3353.43 3585.25 3276.11 3070.69 2689.35 2359.16 2065.9 1801.31 1560.46 1341.2 1144.89 973.811 833.69 734.772 691.278 713.875 800.216 939.922 1122.94 1342.36 1594.3 1879.29 2198.93 2553.33 2950.22 3406.76 3652.5 3393.78 3168.6 2751.96 2395.34 2083.39 1806.26 1558.78 1337.1 1140.85 971.842 834.614 738.159 695.729 717.423 801.523 938.313 1119.56 1339.01 1591.47 1878.09 2201.71 2563.32 2971.16 3441.6 3694.88 3502.09 3260.85 2816.84 2438.14 2107.65 1817.54 1561.76 1335.83 1138.4 969.918 834.763 741.009 699.874 720.562 802.4 936.679 1115.39 1333.39 1585.84 1873.31 2198.14 2562.96 2975.86 3450.13 3704.7 3595.79 3342.61 2877.85 2481.45 2135.48 1833.18 1568.05 1336.51 1136.61 967.961 834.349 742.644 702.867 723.464 803.569 934.964 1111.18 1327.07 1578.75 1865.83 2189.26 2554.61 2968.82 3438.21 3687.66 3674.06 3412.98 2930.77 2519.64 2162.64 1850.16 1576.66 1338.64 1135.58 966.433 833.49 743.346 705.357 726.157 804.698 934.118 1107.76 1319.58 1568.91 1855.14 2176.41 2540.69 2952.48 3414.3 3658.82 3734.44 3468.95 2975.92 2554.46 2188.24 1866.52 1586.18 1342.94 1136.3 965.496 832.586 743.914 707.429 728.557 806.032 933.736 1104.5 1312.92 1559.07 1843.25 2163.02 2524.5 2930.57 3385.04 3626.41 3780.97 3513.11 3014.53 2585.65 2211.48 1882.16 1595.93 1348.61 1138.19 964.866 831.381 743.721 708.643 730.6 807.838 933.933 1101.72 1307.78 1551 1830.23 2147.09 2504.82 2905.46 3354.66 3592.78 3819.8 3549.46 3045.95 2610.21 2230.6 1897.6 1605.95 1354.36 1140.56 964.697 830.314 742.783 708.903 732.123 809.762 934.584 1099.66 1302.67 1542.49 1818.16 2131.24 2483.38 2878.45 3323.59 3559.65 3851.96 3579.96 3074.07 2632.41 2247.13 1911.74 1615.27 1359.65 1143.24 964.882 829.118 741.507 708.723 733.223 811.264 935.312 1098.96 1298.79 1534.15 1805.62 2113.83 2460.53 2850.75 3291.92 3526.09 3884.41 3609.63 3100.34 2654.84 2263.59 1923.96 1624.84 1365.87 1145.93 964.936 827.672 739.88 707.865 733.812 812.692 936.254 1098.38 1295.28 1526.07 1791.46 2093.44 2435.13 2820.39 3256.56 3488.39 3919.64 3640.6 3123.65 2673.84 2279.3 1935.71 1634.69 1373.1 1149.28 965.881 826.855 737.838 705.987 733.394 813.813 937.543 1097.99 1291.81 1517.92 1777.38 2073.14 2406.63 2782.63 3211.73 3440.76 3948.46 3665.97 3141.31 2686.53 2290.87 1945.87 1643.4 1380.19 1153.68 967.462 825.944 735.582 704.003 732.635 814.564 939.181 1099.03 1289.85 1511.04 1763.56 2050.14 2373.12 2738.01 3156.4 3380.26 3963.02 3675.54 3146.39 2693.64 2299.09 1953.9 1650.74 1385.94 1157.95 969.179 824.828 732.901 701.054 730.891 814.737 940.973 1101.15 1289.85 1506.35 1751.21 2026.4 2336.99 2688.88 3091.45 3306.77 3948.65 3661.04 3135.56 2690.85 2301.64 1958.54 1655.64 1389.97 1161.27 971.064 824.602 730.175 697.094 727.997 814.135 942.63 1103.94 1291.76 1504.47 1742.35 2006.6 2302.01 2635.85 3017.9 3222.34 3898.32 3618.32 3107.21 2674.92 2293.88 1955.8 1656.96 1392.8 1163.72 972.94 824.723 727.508 692.9 724.319 812.677 943.991 1107.48 1296.2 1506.93 1738.75 1992.74 2272.26 2583.83 2939.33 3129.86 3817.58 3552.96 3067.25 2649.38 2276.23 1944.5 1650.88 1390.66 1163.97 973.699 824.215 724.99 688.571 719.681 809.842 944.23 1111.08 1302.39 1513.43 1742.1 1988.7 2253.99 2541.84 2865.01 3037.6 3732.51 3488.78 3028.78 2616.71 2248.26 1923.45 1635.92 1381.8 1160.3 972.125 822.673 722.654 684.625 714.593 805.627 942.615 1112.93 1308.13 1522.62 1753.27 1998.14 2254.5 2522.25 2810.68 2961.85 3698.65 3460.63 2995.26 2572.23 2207.79 1891.19 1612.67 1367 1151.99 967.942 820.56 720.672 681.215 709.488 800.08 938.183 1110.9 1310.2 1530.23 1767.7 2019.19 2279.79 2542.67 2804.37 2935.03 3780.49 3480.79 2945.39 2517.07 2160.42 1853.07 1583.61 1346.35 1138.28 959.98 817.383 719.631 679.935 706.654 794.48 930.325 1102.61 1304.03 1529.97 1778.16 2045.94 2329.16 2621.77 2906.36 3043.09 3858.57 3501.75 2911.64 2488.22 2136.6 1833.88 1568.48 1334.67 1129.98 955.016 815.257 719.221 680.184 706.318 791.932 925.505 1096.57 1298.41 1527.25 1781.46 2059.94 2359.38 2678.27 2994.77 3146.46 3541.26 3265.49 2781.75 2395.85 2057.68 1753.82 1479.79 1231.08 1007.29 809.045 641.139 518.271 466.29 502.904 614.209 773.617 965.049 1182.12 1424.15 1693.08 1993.76 2334.71 2732.71 3256.33 3563.73 3331.54 3114.85 2711.71 2357.93 2037.68 1745.2 1477.61 1232.53 1010.09 811.711 643.026 518.919 466.461 503.408 615.56 776.258 968.68 1186.14 1428.27 1696.95 1996.58 2336.01 2730.02 3201.86 3460.63 3092.07 2932.44 2613.44 2301.5 2006.13 1730.22 1472.71 1233.56 1013.9 815.881 646.397 520.989 467.524 504.662 618.258 781.221 976.149 1196.17 1440.91 1712 2013.04 2351.04 2731.33 3136.09 3339.87 3095.06 2922.37 2590.73 2282.17 1992.38 1721.35 1467.91 1231.93 1014.54 817.959 648.999 523.691 469.637 506.395 621.106 785.903 983.845 1208.58 1459.03 1736.01 2042.2 2381.07 2751.49 3148.37 3352.81 3184.55 2988.74 2621.48 2294.34 1995.65 1720.57 1465.87 1230.09 1013.7 818.667 650.992 526.191 471.697 507.459 622.601 789.491 990.532 1219.54 1475.58 1758.92 2071.43 2414.6 2790.21 3209.6 3432.39 3305.11 3086.99 2681.75 2328.99 2014.05 1728.76 1468.34 1230.06 1013.21 818.954 652.559 528.547 473.771 508.847 623.465 790.919 994.25 1227.2 1487.66 1776.5 2096.36 2448.76 2838.55 3285.35 3526.73 3431.36 3193.14 2752.68 2374.55 2042.01 1744.39 1475.96 1232.85 1013.69 819.115 653.456 530.546 476.441 511.246 624.614 791.375 995.633 1231.39 1495.11 1788.19 2114.49 2477.29 2882.95 3350.52 3603.74 3547.7 3292.09 2822.82 2423.96 2074.52 1764.02 1486.61 1237.69 1015.37 819.472 654.018 532.191 478.881 513.2 625.29 791.169 994.929 1231.7 1498.41 1795.53 2126.67 2496.6 2912.73 3392.38 3651.79 3644.61 3377.22 2887.89 2472.05 2107.63 1785.55 1498.91 1244 1018.08 820.294 654.581 533.35 480.564 514.548 625.646 790.389 993.751 1230.27 1498.09 1797.59 2131.6 2505.63 2927.6 3410.8 3670.08 3723.12 3448.11 2943.43 2512.68 2136.02 1805.02 1511.3 1250.42 1020.78 821.395 654.973 534.162 482.069 515.923 626.068 790.019 992.992 1228.42 1495.02 1794.79 2130.38 2506.46 2931.46 3412.51 3667.72 3782.99 3503.56 2988.64 2547.89 2161.79 1821.98 1522.48 1257.24 1024.09 822.559 655.26 534.786 483.517 517.35 626.595 789.511 990.753 1224.46 1490.14 1789.27 2125.84 2501.64 2923.78 3400.99 3653.72 3823.7 3543.28 3023.69 2575.4 2182.95 1838.08 1533.43 1264.3 1027.91 823.577 655.314 534.97 484.334 518.439 627.173 788.839 987.869 1219.9 1484.84 1781.5 2115.54 2490.26 2908.6 3380.9 3631.91 3855.32 3572.57 3048.67 2595.52 2199.43 1851.59 1542.5 1269.68 1030.6 824.499 655.383 534.845 484.603 519.159 627.791 788.328 985.668 1215.97 1478.53 1772.73 2104.07 2475.2 2889.82 3358.47 3607.68 3880.02 3596.59 3069.83 2613.46 2214.26 1862.64 1550.12 1274.59 1033.45 825.629 655.377 534.35 484.547 519.691 628.317 787.692 983.537 1211.51 1470.55 1762.37 2091.36 2457.06 2867.04 3333.43 3581.23 3898.3 3615.35 3085.54 2624.93 2223.67 1870.66 1557.66 1280.29 1036.79 826.825 655.078 533.557 483.977 519.929 628.681 786.965 980.866 1206.15 1461.78 1749.32 2072.64 2434.09 2839.47 3299.9 3545.32 3914.01 3627.4 3093.08 2631.39 2229.57 1875.65 1562.57 1284.41 1039.29 828.182 654.975 532.502 482.819 519.404 628.53 786.205 978.259 1200.2 1451.7 1733.71 2049.83 2403.84 2801.43 3254.6 3496.85 3914.66 3625.69 3090.44 2631.31 2231.49 1878.05 1564.96 1287.15 1041.13 829.119 654.973 531.266 481.455 518.659 628.418 785.741 976.059 1194.73 1441.16 1716.62 2024.35 2368.18 2755.26 3198.74 3436.44 3889.91 3601.4 3071.42 2620.23 2225.93 1876.34 1565.02 1288.54 1042.75 829.597 654.568 529.755 479.528 517.428 627.984 785.356 974.467 1190.03 1431.25 1699.14 1996.71 2329.17 2702.7 3130.48 3360.38 3837.04 3553.56 3035.67 2597.46 2212.17 1868.58 1561.08 1286.36 1042.25 829.563 653.833 528.04 477.215 515.757 627.235 785.01 973.446 1186.28 1422.66 1682.98 1969.37 2286.99 2643.93 3051.17 3268.74 3751.98 3481.31 2986.21 2564.98 2190.61 1854.36 1552.76 1281.58 1039.86 828.821 652.97 526.335 474.929 513.662 626.124 784.878 973.258 1184.12 1416.27 1669.84 1945.84 2248.24 2584.87 2965.88 3168.64 3645.09 3394.89 2931.35 2526.67 2162.04 1833.83 1538.83 1273.08 1035.57 826.594 651.349 524.786 472.777 511.147 624.442 784.404 973.556 1184.19 1414.02 1662.56 1930.47 2219.52 2534.42 2884.84 3070.29 3551.38 3322.32 2884.69 2486.84 2127.96 1807.15 1519.29 1259.9 1027.52 822.265 648.898 522.947 470.618 508.39 622.229 783.479 974.039 1186.18 1416.54 1663.93 1927.9 2208.37 2506.29 2826.44 2993.05 3527.09 3301.26 2857.81 2450.01 2093.51 1778.91 1497.71 1245.14 1018.13 817.056 646.377 521.118 468.44 505.559 619.354 781.515 973.774 1188.56 1422.19 1673.7 1941.28 2224.25 2519.79 2822.2 2974.69 3646.66 3360.39 2845.31 2425.92 2070.18 1758.44 1480.93 1232.47 1009.22 811.136 643.481 519.835 467.075 503.556 616.108 777.611 970.957 1188.84 1428.55 1689.82 1971.92 2274.49 2596.43 2930.68 3099.41 3752.99 3411.91 2840.38 2419.58 2063.47 1751.56 1474.67 1226.89 1004.82 808.009 641.813 519.19 466.625 502.835 614.429 775.136 968.736 1188.11 1431.67 1699.33 1991.66 2309.09 2653.34 3022.78 3212.63 3589.92 3287.26 2766.6 2364.7 2015.98 1703.09 1419.94 1161.2 924.079 707.008 511.298 348.623 270.415 325.78 477.318 667.046 879.15 1111.08 1364.52 1642.47 1950.73 2297.84 2698.89 3220.04 3524.54 3378.77 3139.35 2700.08 2325.21 1991.69 1689.35 1413.15 1158.62 923.76 707.605 511.921 348.886 270.539 326.048 477.815 667.772 879.556 1110.2 1361.36 1635.98 1939.06 2278.86 2667.7 3128.9 3381.52 3134.82 2959.73 2609.8 2272.34 1959.81 1671.47 1404.36 1155.67 923.943 709.06 513.408 349.799 270.998 326.607 479.25 670.186 882.683 1113.09 1362.88 1635.06 1933.35 2264.09 2630.67 3017.17 3211.4 3137.97 2952.89 2596.14 2264.32 1955.8 1669.49 1403.5 1156.08 925.162 710.575 514.947 351.113 271.912 327.548 481.333 674.122 888.789 1122.41 1376.14 1652.02 1953.09 2282.87 2640.44 3020.29 3214.96 3233.47 3025.51 2635.5 2287.87 1970.57 1678.85 1409.22 1159.25 927.115 712.146 516.462 352.485 272.968 328.66 483.503 678.491 895.897 1133.61 1392.83 1674.7 1982.52 2318.17 2683.51 3086.64 3299.11 3361.47 3130.4 2702.95 2331.79 1998.87 1696.85 1420.26 1165.46 930.785 714.558 518.188 353.871 274.062 329.81 485.451 682.247 902.972 1144.94 1409.03 1697.67 2013.97 2360.68 2741.93 3174.83 3407.82 3493.21 3241.49 2779.1 2383.58 2033.9 1719.88 1434.65 1174.11 935.562 717.076 519.729 355.264 275.521 331.345 487.273 685.043 908.351 1154.2 1423.44 1718.61 2042.51 2401.04 2800.26 3258.7 3506.91 3609.81 3342.4 2852.3 2435.53 2069.9 1744.04 1450.05 1183.36 940.566 719.63 521.339 356.761 277.095 332.868 488.86 686.954 911.348 1159.87 1433.75 1734.86 2066.58 2435.43 2848.95 3326.43 3584.96 3703.46 3425.38 2915.88 2482.83 2103.72 1767.32 1465.16 1192.63 945.829 722.237 522.778 358.069 278.544 334.043 489.568 687.968 913.246 1163.55 1440.14 1745.71 2084.52 2460.54 2883.05 3372.1 3636.43 3774.07 3489.43 2967.03 2521.78 2132.08 1786.88 1478.14 1200.35 950.263 724.852 523.871 359.197 280.016 335.23 490.043 688.575 914.522 1166.13 1443.93 1751.29 2094.41 2475.36 2904.07 3396.37 3660.07 3822.11 3534.79 3004.44 2551.25 2154.74 1801.95 1488.32 1207.35 954.418 727.205 525.056 360.064 281.298 336.383 490.869 689.073 914.817 1166.62 1444.65 1752.78 2098.66 2482.46 2912.73 3404.4 3666.55 3850.82 3563.33 3030.46 2571.37 2169.88 1814.07 1497.12 1213.38 957.655 728.508 525.941 360.674 282.15 337.161 491.021 688.949 914.259 1165.54 1444.4 1752.69 2097.73 2482.4 2911.82 3401.77 3663.97 3870.98 3583.08 3048.88 2586.35 2181.05 1823.71 1504.11 1217.21 960.111 729.612 526.162 360.841 282.419 337.482 490.973 688.326 913.181 1163.68 1441.71 1748.91 2092.53 2476.69 2904.21 3392.07 3654.29 3885.53 3596.57 3059.38 2595.93 2190.16 1830.48 1509.25 1220.98 962.506 730.788 526.497 360.686 282.213 337.486 491.07 687.274 910.806 1159.86 1435.74 1741.94 2084.82 2465 2888.75 3374.61 3635.31 3886.25 3598.33 3060.2 2596.59 2192.48 1832.47 1511.89 1223.7 964.188 731.658 526.535 360.294 281.776 337.329 490.652 686.126 908.004 1154.67 1428.66 1732.26 2070.65 2445.98 2866.31 3348.31 3606.49 3876.64 3588.92 3051.33 2589.86 2188.75 1830.49 1510.45 1222.97 964.425 731.921 526.25 359.47 280.805 336.57 489.816 684.811 905.172 1149.06 1419.43 1717.68 2049.76 2419.74 2834.95 3311.12 3566.33 3852.71 3563.83 3030.25 2576.06 2179.17 1824.51 1506.8 1221.1 963.627 731.654 526.009 358.33 279.326 335.517 489.048 683.071 901.115 1142.32 1408.27 1700.5 2025.28 2386.74 2792.55 3258.19 3508.05 3799.55 3515.04 2993.52 2550.79 2161.5 1813.2 1500.56 1218.27 962.019 730.437 525.029 357.099 277.758 334.256 487.936 681.005 897.141 1134.79 1395.36 1681.32 1996.95 2347.44 2739.69 3189.26 3431.33 3715.95 3442.69 2941.48 2513.43 2135.2 1796.11 1489.48 1210.85 957.515 727.979 523.524 355.917 276.299 332.742 486.345 678.593 893.229 1127.18 1382.4 1661.17 1966.35 2303.29 2679.24 3108.38 3338.58 3607.69 3351.02 2877.59 2468.96 2103.97 1773.85 1473.99 1200.6 951.407 724.594 521.457 354.309 274.813 331.268 484.757 676.24 888.987 1119.68 1370.04 1641.4 1936.4 2258.82 2615.57 3019.18 3234.19 3490.21 3255.11 2813.84 2423.21 2070.09 1748.38 1455.81 1188.71 944.137 720.277 518.974 352.802 273.496 329.774 483.165 674.054 885.398 1113.75 1359.82 1624.99 1911.17 2220.78 2558.83 2933.8 3131.59 3395.43 3180.2 2764.81 2383.02 2036.08 1721.83 1436.57 1175.24 935.366 715.315 516.39 351.379 272.33 328.333 481.553 672.13 882.916 1110.49 1354.53 1616.19 1896.71 2198.41 2523.01 2871.63 3052.36 3379.53 3166.36 2746.73 2357.17 2010.96 1700.96 1420.03 1163.35 927.573 710.551 513.838 350.065 271.411 327.073 479.83 670.476 881.778 1110.17 1355.26 1618.1 1899.6 2202.86 2527.63 2866.71 3038.92 3526.61 3257.02 2767.78 2361.24 2009.67 1697.11 1415.05 1158.36 923.132 707.105 511.679 349.046 270.783 326.09 478.267 669.044 881.8 1113.08 1363.45 1634.42 1927.73 2246.89 2595.4 2974.97 3172.63 3653.44 3333.27 2787.91 2373.54 2017.31 1700.96 1416.6 1158.22 921.979 705.858 510.766 348.5 270.422 325.651 477.575 668.389 881.99 1115.3 1369.66 1646.83 1949.41 2280.7 2647.71 3065.7 3289.73 3635.09 3312.7 2765.85 2353.79 1999.1 1681.62 1394.18 1131.25 888.349 662.106 450.212 256.592 151.838 223.94 410.898 619.95 843.307 1082.51 1341 1623.1 1934.08 2281.47 2680.51 3191.46 3487.24 3433.27 3176.71 2710.25 2319.23 1976.24 1667.63 1386.43 1127.42 886.822 661.744 450.17 256.625 151.79 223.917 410.904 619.647 841.944 1079.03 1333.95 1610.37 1913.08 2248.94 2628.63 3073.39 3315.62 3200.68 3012.65 2637.19 2278.32 1951.34 1653.09 1378.94 1124.47 886.25 662.311 450.916 256.96 151.791 224.179 411.574 620.164 841.711 1076.91 1327.99 1598.13 1891.02 2211.66 2561.69 2927.76 3111.72 3208.34 3012.54 2634.43 2282.84 1958.24 1659.66 1384.29 1128.77 889.684 664.915 452.648 257.637 151.846 224.67 413.06 622.706 845.294 1081.95 1334.85 1606.26 1899.42 2217.66 2559.84 2921.91 3107.47 3309.66 3090.83 2680.62 2315.84 1983.23 1677.88 1396.94 1137.16 895.158 668.239 454.636 258.594 152.044 225.202 414.911 626.411 851.003 1090.73 1348.17 1624.6 1923.8 2248.49 2600.91 2987.23 3189.9 3441.69 3198.82 2751.08 2364.52 2017.72 1702.46 1413.89 1147.86 901.756 672.284 456.899 259.863 152.726 226.045 416.94 630.46 858.2 1101.93 1364.16 1647.58 1955.97 2292.65 2662.4 3079.62 3302.99 3571.78 3309.02 2827.76 2417.42 2054.44 1728.22 1431.39 1159.46 909.011 676.347 458.969 261.251 154.03 227.486 419.106 634.238 865.107 1113.04 1380.77 1671.68 1989.76 2339.35 2728.67 3174.93 3415.09 3679.99 3403.28 2897.05 2467.32 2089.16 1751.81 1447.48 1170.69 915.909 679.819 461.231 262.994 155.814 229.247 421.127 637.37 870.296 1121.69 1394.86 1693.12 2020.42 2382.29 2789.16 3258.57 3511.37 3761.08 3476.4 2952.94 2508.21 2118.86 1772.43 1461.81 1179.54 921.087 683.046 463.139 264.641 157.679 231.049 422.898 640 874.304 1128.77 1406.38 1710.94 2046.61 2418.98 2838.68 3322.83 3583.81 3815.33 3526.35 2992.33 2538.05 2142.49 1788.93 1471.92 1185.19 924.641 685.542 464.306 265.89 159.502 232.779 424.118 641.896 877.555 1134.69 1415.61 1724.48 2066.62 2445.47 2872.79 3366.34 3632.07 3845.69 3555.1 3017.12 2558.08 2158.34 1800.27 1479.34 1190.35 927.721 687.369 465.607 267.063 161.043 234.121 425.231 643.408 880.378 1139.35 1422.08 1733.54 2079.09 2462.37 2894.31 3392.12 3660.07 3859.6 3570.81 3033.79 2570.66 2166.35 1806.67 1484.6 1193.97 929.533 688.244 466.284 267.72 162.174 235.034 425.898 644.511 882.513 1142.5 1427.01 1739.83 2086.83 2474.55 2909.41 3407.18 3674.98 3863.17 3576.22 3040.95 2576.93 2170.9 1810.45 1487.39 1195.63 930.774 688.76 466.389 267.857 162.521 235.37 425.914 644.58 882.721 1142.98 1428.36 1741.51 2089.65 2478.95 2913.71 3410.98 3678.74 3860.93 3572.3 3037.07 2574.67 2170.03 1811.17 1487.81 1195.99 931.112 688.907 466.568 267.736 162.007 235.003 425.914 644.24 881.679 1141.41 1426.38 1739.67 2087.75 2475.08 2907.9 3404.07 3671.14 3847.07 3557.98 3024.33 2565.97 2163.59 1806.19 1484.44 1193.65 929.955 688.386 466.051 267.099 161.227 234.391 425.742 644.141 880.672 1138.43 1422.36 1734.53 2080.25 2464.02 2895.67 3390.66 3655.24 3815.96 3530.78 3002.39 2550.03 2152.54 1796.85 1477.85 1189.35 927.754 687.12 465.031 266.198 159.965 233.358 424.881 643.184 878.752 1134.61 1415.84 1724.08 2066.09 2446.14 2874.42 3366.29 3629.03 3767.02 3486.37 2967.81 2523.61 2133.33 1784.35 1469.96 1184.6 924.719 685.393 463.931 264.834 158.139 231.891 423.707 641.185 875.478 1129.88 1407.48 1710.32 2047.03 2421.01 2840.42 3323.41 3582.68 3693.9 3420.47 2917.85 2487.54 2107.4 1766.79 1458.94 1178.17 920.648 682.964 462.354 263.153 156.211 230.219 422.416 638.729 871.121 1122.38 1395.39 1692.96 2021.58 2385.81 2793.34 3262.54 3515.06 3593.64 3333.69 2854.77 2442.32 2074.99 1744.2 1443.6 1168.13 914.546 679.23 460.151 261.601 154.54 228.421 420.268 635.356 865.552 1112.95 1380.93 1672.25 1991.39 2344.38 2737.01 3186.3 3428.48 3476.05 3234.12 2784.51 2392 2038.96 1718.67 1426.01 1156.24 907.136 674.976 457.68 259.903 153.08 226.964 418.026 631.419 859.087 1102.74 1365.34 1649.56 1959.41 2299 2673.61 3097.9 3325.21 3357.24 3136.32 2718.54 2344.42 2004.42 1693.15 1407.77 1144.24 899.369 670.395 455.361 258.621 152.183 225.924 416.054 627.688 852.772 1092.53 1349.63 1627.33 1928.26 2255.27 2613.5 3011.13 3221.09 3265.68 3063.51 2671.85 2308.91 1976.25 1671.66 1392.18 1133.54 892.424 666.182 453.07 257.767 151.958 225.156 414.071 624.131 847.012 1083.97 1337.55 1610 1904.28 2224.04 2571.47 2945.95 3139.72 3256.57 3057.24 2664.27 2296.08 1963.08 1660.69 1383.46 1126.7 887.662 663.03 451.164 257.033 151.881 224.499 412.237 621.348 843.341 1079.21 1331.49 1602.47 1895.64 2215.95 2565.6 2937.39 3127.07 3418.4 3169.88 2712.6 2322.72 1979.28 1669.9 1387.74 1127.93 887.156 661.866 450.094 256.51 151.832 224.148 411.297 620.455 843.319 1081.05 1336.57 1613.14 1914.8 2246.99 2617.24 3036.14 3259.22 3555.97 3262.8 2751.98 2348.77 1997.19 1680.97 1393.99 1131.13 888.298 662.011 449.829 256.292 151.813 224.074 411.124 620.512 844.152 1083.8 1342.7 1624.41 1933.47 2274.89 2659.62 3118.86 3372.73 3677.54 3342.18 2779.54 2363.17 2006.8 1689.65 1403.71 1143.33 903.942 682.651 479.485 302.038 208.833 271.432 442.016 642.352 860.95 1097.17 1353.7 1634.09 1942.74 2285.96 2677.36 3168.28 3448.93 3497.16 3228.34 2742.2 2339.84 1991.5 1680.65 1398.84 1141.21 903.416 682.987 479.855 302.234 208.966 271.604 442.279 642.359 860.001 1094.23 1346.85 1620.38 1918.67 2246.96 2613.15 3033.55 3260.05 3291.84 3093.19 2696.22 2319.08 1980.65 1675.74 1397.74 1142.36 905.452 684.919 481.171 302.819 209.227 272.185 443.131 642.884 859.22 1090.7 1337.96 1602.68 1887.62 2195.51 2526.03 2867.32 3038.09 3307.49 3101.95 2705.17 2336.88 1999 1691.31 1410.04 1151.23 911.476 688.896 483.584 303.902 209.58 272.847 444.254 644.205 860.443 1091.45 1338.02 1601.55 1884.29 2188.02 2511.68 2854.69 3031.3 3412.3 3183.3 2754.89 2374.99 2030.2 1715.34 1427.3 1163.08 919.124 693.465 486.045 305.131 210.18 273.506 445.549 646.233 863.445 1095.93 1344.96 1612.01 1899.16 2209.67 2546.61 2915.83 3109.73 3542.02 3288.8 2823.46 2423.17 2065.22 1741.05 1445.68 1175.25 926.791 697.85 488.093 306.356 211.259 274.616 447.301 648.943 867.792 1103.3 1356.6 1629.85 1926.32 2249.81 2606.47 3007.23 3220.46 3659.47 3388.22 2891.77 2470.31 2098.41 1764.28 1461.63 1185.76 933.387 701.433 490.042 307.839 212.685 276.121 449.031 651.677 872.462 1111.85 1370.9 1651.77 1959.64 2297.9 2675.11 3105.7 3336.11 3749.47 3466.68 2948.7 2510.9 2126.45 1783.03 1474.46 1194.34 938.751 704.215 491.99 309.508 214.342 277.795 450.632 654.251 877.351 1120.42 1385.26 1674.76 1992.56 2344.75 2741.64 3196.74 3441 3808.68 3521.56 2991.28 2540.94 2147.79 1797.42 1483.86 1199.58 941.551 706.1 493.256 310.758 216.004 279.445 452.393 657.144 882.531 1128.86 1398.63 1695.41 2022.18 2386.72 2799.28 3271.56 3524.81 3836.89 3549.45 3015.21 2559.44 2162.04 1806.31 1488.36 1201.59 942.459 706.834 494.012 311.835 217.73 281.05 453.705 659.436 886.776 1136.67 1410.85 1712.99 2048.03 2420.81 2842.38 3326.5 3585.78 3844.72 3557.97 3025.33 2568.4 2168.66 1811.02 1491.57 1203.88 943.571 707.611 494.735 312.971 219.199 282.341 454.89 661.224 890.606 1143.93 1421.42 1727.79 2068.56 2446.76 2874.72 3365.9 3628.33 3839.33 3556.81 3028.75 2570.14 2168.75 1811.75 1492.48 1204.44 943.599 707.571 494.812 313.475 220.187 283.126 455.846 663.236 894.362 1149.3 1428.97 1738.21 2083.17 2467.53 2900.35 3394.48 3658.29 3826.15 3546.33 3022.57 2566.8 2165.84 1808.79 1490.11 1202.6 942.371 706.717 494.628 313.622 220.513 283.469 456.225 664.426 896.203 1152.46 1434.23 1745.36 2093.52 2480.24 2913.96 3410.08 3675.31 3806.67 3527.68 3007.31 2555 2156.9 1802.39 1485.04 1199.33 940.484 705.742 494.367 313.363 220.016 283.142 456.43 665.326 897.441 1154.4 1437.56 1750.27 2099.32 2485.82 2919.71 3417.55 3684.22 3780.88 3501.17 2983.5 2536.87 2142.52 1791.86 1477.69 1194.03 937.365 704.32 493.654 312.586 219.165 282.516 456.41 665.818 898.235 1154.92 1438.54 1750.98 2098.52 2485.04 2921.22 3419.83 3685.36 3737.92 3460.63 2950.06 2512.04 2124.29 1778.77 1469.05 1188.19 933.742 702.406 492.479 311.701 218.026 281.635 455.759 665.107 897.785 1154.13 1436.43 1746.98 2092.41 2476.5 2912.14 3411.58 3677.08 3671.64 3402.66 2905.89 2477.92 2099.97 1762.21 1457.89 1181.17 929.364 700.068 491.132 310.53 216.44 280.318 455.149 664.392 896.68 1152 1431.71 1739.22 2081.42 2461.77 2890.84 3386.59 3653.05 3587.61 3328.07 2849.19 2436.07 2069.76 1741.18 1443.92 1172.71 924.651 697.558 489.724 309.11 214.556 278.761 454.482 663.309 893.964 1147.26 1424.48 1727.71 2063.5 2437.88 2857.77 3341.67 3603 3482.69 3237.15 2782.38 2387.61 2035.18 1717.77 1428.46 1163.34 919.803 694.503 487.862 307.596 212.91 276.922 452.546 660.8 889.681 1140.04 1413.28 1711.55 2039.75 2404.05 2811.05 3277.62 3529.39 3365.27 3138.02 2712.56 2338.17 2000.85 1694.26 1413.23 1153.72 914.137 691.337 485.87 305.911 211.281 275.208 450.296 657.261 884.112 1130.68 1398.2 1690.54 2010.55 2362.63 2753.53 3197.75 3436.44 3250.7 3043.01 2649.33 2294.64 1971.01 1673.97 1400.08 1145.72 908.956 688.322 484.042 304.509 210.141 274.342 448.529 653.397 877.268 1119.27 1381.05 1666.49 1978.05 2319.68 2695.31 3113.47 3335.43 3164.7 2975.35 2608.39 2267.1 1952.15 1660.99 1391.26 1140.28 905.608 685.92 482.343 303.594 209.65 273.528 446.369 649.045 869.612 1107.4 1364.36 1643.36 1948.4 2283.53 2650.42 3047.65 3253.7 3158.23 2974.68 2612.02 2268.25 1951.8 1660.05 1390.02 1138.67 903.951 684.409 481.03 302.749 209.256 272.602 444.099 644.947 863.264 1098.11 1351.51 1626.88 1928.83 2263.03 2634.33 3035 3240.3 3321.28 3098.08 2679.84 2311.38 1979.94 1677.14 1399.26 1142.78 904.983 683.943 480.047 301.943 209.068 272.15 442.624 642.581 860.307 1095.36 1349.65 1627.05 1933.21 2274.84 2662.16 3114.04 3359.19 3459.5 3199.06 2731.77 2345.49 2002.84 1691.11 1406.88 1146.46 906.46 684.13 479.672 301.609 209.045 271.958 442.037 641.885 859.755 1095.87 1352.37 1632.89 1943.6 2291.48 2688.46 3180.83 3460.27 3717.1 3375.67 2806.98 2391.54 2038.64 1727.27 1448.64 1197.15 969.616 765.492 588.371 453.001 392.518 432.946 557.045 728.996 930.093 1154.68 1402.5 1675.33 1976.81 2311.29 2689.49 3151.11 3410.46 3571.12 3294.92 2796.35 2386.83 2036.69 1727.76 1450.36 1199.82 972.241 767.481 589.668 453.532 392.661 433.427 558.285 730.593 931.41 1154.6 1398.98 1665.03 1954.98 2271.85 2620.09 3008.96 3215.01 3410.15 3202.24 2786.69 2394.44 2047.23 1738.25 1459.82 1207.92 978.73 772.18 592.565 454.899 393.313 434.705 560.627 733.193 932.944 1153.25 1391.89 1648.08 1922.18 2214.49 2522.2 2833.79 2988.36 3437.54 3221.5 2806.61 2424.41 2076.15 1762 1477.71 1220.17 986.737 777.212 595.582 456.687 394.788 436.586 562.535 734.551 933.124 1151.38 1386.95 1639.35 1908.76 2194.95 2496.58 2817.05 2983.11 3541.09 3300.55 2854.11 2462.32 2108.05 1786.93 1495.87 1232.34 994.063 781.049 597.454 457.95 396.363 438.525 564.023 735.159 933.044 1150.82 1386.45 1639.91 1911.93 2204.95 2522.4 2872.48 3057.37 3658.48 3394.7 2913.3 2502.87 2136.99 1807.91 1510.78 1241.68 999.129 783.367 598.304 459.015 398.213 440.428 565.328 735.788 933.372 1152.22 1390.54 1649.18 1929.99 2236.77 2576.31 2958.27 3161.44 3751.38 3473.82 2966.73 2537.34 2160.77 1824.3 1521.43 1248.35 1002.44 784.794 599.443 460.746 400.442 442.326 566.4 736.502 934.579 1155.7 1398.58 1664.77 1956.99 2279.58 2641.21 3053.22 3273.47 3806.5 3524.59 3004.85 2562.29 2176.96 1834.51 1527.6 1251.45 1004.08 785.49 600.176 462.418 402.379 443.922 567.287 737.307 936.677 1160.88 1409.64 1684.01 1987.12 2325.06 2706.89 3144.04 3378.14 3830.85 3549.65 3027.58 2578.36 2186.5 1839.85 1529.6 1250.97 1003.18 784.927 600.507 463.692 404.048 445.213 568.09 738.519 939.813 1167.61 1421.73 1703.56 2017.29 2368.63 2766.26 3222.27 3466.49 3833.74 3555.03 3033.79 2582.87 2189.32 1839.55 1527.81 1248.96 1001.21 784.248 601.18 464.893 405.534 446.3 568.845 739.895 943.221 1174.53 1433.55 1721.78 2044.84 2406.75 2815.3 3284.94 3536.55 3816.79 3542.17 3027.32 2578.92 2185.62 1835.62 1524.96 1247.03 999.873 784.167 601.607 465.994 406.733 447.034 569.486 741.214 946.543 1181.36 1444.9 1739.25 2069.21 2438.71 2856.38 3333.6 3588.07 3791.53 3520.94 3015.34 2571.46 2178.32 1829.81 1519.94 1243.35 998.067 783.548 601.695 466.733 407.598 447.34 569.674 742.472 949.824 1187.21 1454.07 1753.18 2088.6 2464.18 2888.63 3370.15 3625.69 3767.66 3499.52 2997.63 2557.7 2166.93 1820.36 1512.93 1238.88 995.923 781.949 601.327 467.146 407.922 447.401 569.984 743.925 953.12 1192.63 1461.51 1763.88 2104.32 2483.69 2910.49 3395.85 3654.05 3736.67 3471.76 2973.94 2536.99 2151.21 1809.12 1504.76 1233.71 993.002 780.559 601.157 467.291 407.784 447.089 570.266 745.47 956.345 1197.08 1467.87 1773.4 2115.76 2497.35 2927.09 3416.61 3677.82 3700.61 3436.12 2942.07 2512.03 2133.19 1796.47 1496.11 1227.73 989.085 779.35 601.171 466.983 407.16 446.424 569.972 746.147 958.443 1200.94 1474.18 1779.76 2121.82 2506.16 2940.44 3433.7 3695.76 3650.85 3387.97 2900.95 2481.16 2111.06 1781.5 1486.63 1221.95 985.729 777.756 600.618 466.368 406.141 445.584 569.55 746.378 959.811 1204.22 1478.05 1783.24 2125.67 2510.37 2946.38 3442.1 3705.17 3578.49 3324.02 2852.69 2444.98 2084.65 1763.11 1474.12 1214.57 982.284 776.364 599.917 465.647 404.898 444.491 569.183 746.89 961.126 1205.51 1478.76 1783.97 2125.08 2507.88 2940.83 3437.57 3704.44 3490.92 3246.96 2794.82 2402.84 2054.48 1742.26 1461.26 1207.55 979.072 775.134 599.123 464.457 402.98 442.92 568.949 747.372 961.397 1205.18 1477.51 1780.62 2118.12 2496.88 2923.98 3416.56 3683.13 3389.04 3159.09 2730.38 2356.31 2022.68 1722.16 1449.86 1201.81 976.804 774.181 598.221 462.973 401.076 440.904 567.875 747.119 960.247 1202.87 1473.14 1772.58 2104.97 2475.56 2892.28 3373.49 3634.01 3278.36 3065.29 2665.15 2312.05 1994.29 1705 1440.35 1197.28 975.017 773.391 597.209 461.229 399.081 439.016 566.317 745.496 957.281 1197.31 1463.51 1758.03 2084.1 2445.27 2847.85 3309.66 3559.37 3172.44 2977.16 2608.28 2276.82 1973.62 1693.99 1435.13 1195.29 974.099 772.538 595.775 459.087 396.918 437.96 565.422 743.153 952.572 1188.43 1449.42 1737.91 2056.73 2409.6 2799.26 3236.68 3470.36 3092.33 2916.36 2576.66 2260.89 1966.57 1691.59 1434.94 1195.81 974.293 771.642 594.039 457.001 395.021 436.653 563.813 739.928 946.153 1177.17 1432.41 1713.97 2026 2373.22 2756.69 3175.2 3393.38 3083.86 2917.61 2589.66 2274.59 1977.46 1699.34 1439.67 1198.08 974.429 770.303 592.016 455.055 393.619 435.269 561.377 735.305 938.321 1164.75 1414.42 1690.27 1997.28 2342.27 2731.97 3158.36 3378.11 3235.97 3041.32 2668.59 2326.68 2010.96 1718.7 1449.11 1201.07 973.815 768.239 589.75 453.452 392.948 434.417 558.941 730.571 931.189 1155.35 1402.82 1676.74 1982.64 2329.07 2729.99 3209.68 3473.09 3366.22 3143.15 2727.44 2363.51 2033.95 1731.42 1454.89 1202.49 973.334 767.036 588.629 452.812 392.752 433.91 557.656 728.393 928.01 1151.8 1399.34 1673.81 1980.79 2329.09 2734.68 3253.33 3552.36 3757.88 3416.24 2850.04 2440.78 2096.12 1795.03 1528.21 1290.4 1079.81 897.504 748.276 644.049 601.039 628.767 721.939 864.538 1043.2 1251.25 1485.71 1746.89 2036.82 2357.5 2718.11 3143.46 3376.39 3656.33 3377.08 2872.86 2460.92 2112.5 1808.55 1539.35 1299.72 1086.58 901.469 750.049 643.914 600.453 629.38 724.099 868.409 1048.34 1256.09 1488.19 1743.36 2021.78 2323.66 2650.32 3001.46 3182.62 3554.77 3338.24 2906.9 2502.79 2148.91 1838.21 1562.11 1316.48 1098.5 909.01 753.774 645.131 600.896 631.378 728.574 874.746 1055.16 1261.1 1488.07 1732.94 1993.9 2268.35 2549.72 2826.81 2962.59 3598.4 3369.95 2936.23 2541.88 2184.95 1867.34 1583.23 1329.82 1106.58 913.73 756.495 647.424 603.55 634.839 732.684 878.099 1056.36 1258.98 1480.95 1719.35 1972.67 2238.68 2514.7 2808.16 2961.27 3693.65 3440.49 2975.47 2573.56 2212.64 1888.37 1597.96 1338.94 1110.65 915.486 757.839 649.122 606.743 638.864 735.673 878.798 1054.13 1253.72 1472.96 1709.7 1963.49 2235.62 2529.8 2857.61 3032.18 3782.56 3511.48 3018.11 2600.1 2230.36 1900.12 1604.82 1342.13 1111.3 915.115 758.015 650.838 610.045 642.474 737.631 878.12 1050.83 1248.83 1468.34 1708.11 1969.43 2255.95 2574 2935.96 3130.11 3836.22 3558.5 3049.66 2617.01 2239.41 1904.74 1605.94 1341.34 1109.58 913.467 757.718 652.977 613.55 645.344 738.66 876.9 1048.02 1246.03 1467.87 1713.91 1986.54 2289.62 2631.46 3024.09 3234.84 3846.44 3571.47 3061.94 2623.51 2241.34 1902.95 1602.44 1337.48 1106.33 911.485 757.578 655.429 617.111 647.806 739.023 875.457 1045.84 1245.35 1471.85 1725.47 2009.86 2329.64 2692.45 3108.73 3331.56 3829.99 3561.11 3058.63 2620.35 2235.86 1896.87 1596.64 1331.54 1102.06 909.441 758.088 657.911 619.949 649.606 738.934 874.271 1044.93 1246.95 1479.15 1740.45 2036.7 2371.15 2748.99 3183.7 3416.84 3804.29 3540.72 3043.93 2606.53 2223.99 1887.24 1588.83 1325.75 1098.18 908.101 759.222 660.125 622.069 650.625 738.702 873.608 1045.3 1250.18 1487.52 1756.48 2063.07 2408.59 2798.23 3248 3489.51 3766.53 3508.76 3022.14 2590.58 2210.72 1875.71 1579.73 1319.55 1094.6 907.343 760.26 662.094 623.853 651.244 738.379 873.238 1046.6 1254.78 1497.08 1773.28 2086.45 2440 2840.55 3298.75 3543.38 3730.88 3475.83 2998.47 2574.81 2197.33 1864.47 1570.81 1313.62 1092.03 907.14 761.273 663.672 625.087 651.322 737.607 872.944 1048.36 1259.88 1506.13 1787.75 2106.7 2466.66 2874.3 3337.66 3584.45 3699.62 3446.03 2971.34 2552.9 2180.77 1851.38 1561.17 1308.18 1089.99 906.354 761.91 664.923 625.626 650.82 736.938 873.077 1050.8 1265.24 1514.61 1800.68 2125.74 2491.5 2904.12 3371.39 3619.28 3660.49 3409.86 2939.32 2526.66 2162.53 1838.89 1552.2 1302.53 1087.45 905.829 762.906 665.956 625.572 649.893 736.246 873.522 1053.78 1270.5 1523.05 1813.51 2141.88 2512.57 2931.18 3402.9 3652.52 3618.01 3370.62 2905.77 2498.79 2141.81 1825.08 1543.65 1297.49 1085.34 906.159 763.763 666.084 624.744 648.501 735.128 874.007 1056.62 1276.21 1531.34 1824.02 2154.33 2529.53 2953.63 3429.4 3681.53 3566.3 3322.24 2864.74 2467.04 2118.26 1808.4 1534.05 1292.7 1083.73 906.463 764.253 665.714 623.27 646.783 734.337 875.217 1059.81 1282.29 1540.18 1834.44 2167.35 2545.52 2972.35 3453.16 3708.97 3496.42 3259.02 2816.64 2432.23 2093.12 1791.95 1524.46 1288.59 1083 907.006 764.811 665.192 621.466 644.794 733.329 876.28 1063.28 1287.59 1547.77 1843.88 2178.44 2557.35 2985.34 3472.78 3733.56 3413.06 3185.68 2762.13 2393.43 2067.01 1776.44 1517.23 1286.45 1083.24 907.965 765.081 663.781 618.741 642.241 732.568 877.442 1066.36 1292.45 1553.6 1849.85 2184.09 2561.68 2988.88 3480.43 3744.77 3319.52 3104.68 2703.45 2353.41 2042.49 1763.45 1512.35 1286.16 1084.75 909.333 764.832 661.553 615.434 639.529 732.041 879.382 1069.25 1296.25 1557.8 1852.16 2183.56 2557.27 2978.3 3466.83 3732.02 3218.36 3019.37 2646.55 2318.08 2023.32 1755.52 1510.92 1288.22 1087.51 910.762 763.902 658.624 612.024 637.161 731.219 880.12 1070.49 1296.9 1556.25 1847.92 2175.53 2542.54 2953.92 3429.24 3687.27 3121.61 2940.44 2599.09 2293.9 2014.5 1755.47 1514.89 1292.75 1090.65 911.461 762.002 654.778 608.084 635.108 731.034 880.102 1069.84 1293.88 1549.05 1836.73 2159.29 2519.48 2921.42 3376.48 3619.86 3046.82 2885.95 2577.15 2290.68 2019.95 1763.57 1522.76 1298.35 1092.99 910.585 758.851 650.431 604.142 632.8 730.226 879.327 1066.74 1286.4 1536.32 1817.67 2133.51 2489.76 2888.18 3326.49 3555.58 3031.8 2885.88 2597.66 2315.01 2039.86 1777.6 1530.9 1301.78 1092.68 907.443 754.517 646.545 601.386 630.926 728.125 875.812 1059.59 1273.28 1516.24 1789.93 2098.74 2451.71 2857.28 3306.38 3538.84 3162.93 3001.64 2681.06 2368.99 2071.97 1793.42 1535.41 1299.53 1087.41 901.58 749.712 644.029 600.52 630.192 725.295 869.194 1048.87 1257.21 1493.47 1760.33 2062.62 2410.22 2820.58 3322.09 3600.08 3279.6 3098.76 2741.5 2403.43 2090.7 1801.09 1536.27 1296.59 1083.22 897.942 747.367 643.209 600.668 630.039 723.705 865.152 1042.58 1248.82 1482.14 1746.26 2045.85 2390.3 2798.88 3336.65 3651.17 3805.57 3468.5 2911.95 2513.6 2180.86 1892.84 1640.89 1419.76 1227.68 1066.47 940.857 856.961 822.725 843.048 916.636 1036.03 1192.95 1382.26 1600.4 1847.15 2122.62 2426.73 2765.48 3146.72 3348.49 3756.65 3477.28 2971.98 2561.26 2218.17 1921.8 1663.13 1436.16 1239 1072.74 942.658 856.149 821.169 843.383 919.91 1042.88 1203.06 1394.19 1612.01 1854.12 2118.51 2402.91 2704.26 3010.9 3163.21 3725.05 3499.58 3053.3 2639.95 2282.14 1971.55 1699.48 1461.59 1255.97 1081.91 945.478 855.813 820.887 846.16 926.811 1054.07 1217.41 1409.12 1623.67 1855.99 2101.94 2356.35 2608.52 2846.02 2959.95 3783.6 3541.45 3088.33 2684.23 2321.49 2002.07 1720.39 1473.85 1262.02 1084.48 947.031 857.827 824.634 851.944 933.994 1060.83 1221.93 1409.32 1617.11 1840.56 2075.98 2319.3 2567.1 2829.85 2967.82 3860.01 3596.27 3114.53 2703.3 2338.47 2013.85 1727.54 1476.52 1260.41 1083.04 947.504 860.523 830.217 859.014 940.151 1063.54 1219.69 1401.2 1602.98 1821.6 2055.17 2303.88 2571.82 2874.36 3037.2 3906.56 3633.52 3133.49 2709.42 2339.65 2012.47 1723.42 1471 1255.1 1079.76 947.183 863.556 836.154 865.391 944.254 1063.19 1214.07 1390.7 1589.52 1808.26 2047.47 2310.97 2604.99 2944.24 3127.81 3907.06 3635.84 3133.98 2704.25 2330.76 2001.84 1712.49 1461.36 1248.09 1075.59 946.962 867.469 842.125 870.437 946.11 1060.73 1207.31 1380.86 1579.49 1802.58 2052.22 2332.91 2652.11 3022.44 3222.27 3870.04 3606.99 3116.44 2690.2 2316.05 1986.37 1698.73 1450.54 1240.75 1072.19 947.641 871.85 848.085 874.787 946.851 1057.44 1200.78 1373.47 1574.33 1804.06 2065.9 2363.72 2704.14 3098.03 3309.87 3814.1 3561.69 3086.37 2666.54 2295.28 1969.23 1685.26 1440.05 1234.85 1070.71 949.571 876.245 852.808 877.805 946.832 1054.25 1195.69 1369.05 1574.01 1811.21 2085 2397.73 2754.26 3166.25 3387.56 3756.68 3512.83 3049.93 2635.99 2270.88 1951.6 1672.25 1431.43 1230.66 1070.12 952.176 880.651 856.619 879.459 945.68 1050.99 1191.81 1367.02 1577.04 1822.14 2105.47 2429.69 2799.21 3225.08 3453.87 3704.24 3467.09 3014.98 2608.44 2249.44 1934.84 1659.71 1423 1226.52 1070.14 954.927 884.43 859.527 880.146 944.003 1048 1189.47 1367.8 1582.76 1834.62 2125.02 2457.82 2837.89 3272.12 3504.17 3662.19 3426.96 2981.61 2584.18 2231.4 1920.13 1649.41 1417.49 1224.4 1071.26 957.893 887.28 861.352 880.139 942.061 1045.67 1188.83 1370.19 1589.48 1847.1 2144.07 2483.69 2870.56 3310.9 3545.65 3627.51 3391.78 2949.45 2558.86 2212.53 1906.41 1640 1413.32 1223.86 1072.6 960.798 889.873 862.16 878.932 939.803 1043.61 1188.7 1373.31 1597.24 1860.65 2164.57 2510.42 2901.9 3344.89 3579.76 3590.71 3356.44 2918.09 2533.54 2193.72 1893.5 1631.97 1409.5 1223.55 1074.42 963.505 891.76 861.877 876.777 937.202 1041.65 1189.17 1377.78 1605.9 1873.84 2183.65 2536.02 2933.18 3379.42 3614.98 3549.56 3319.01 2887 2507.61 2173.85 1880.76 1625.47 1407.36 1224.52 1077.1 965.875 892.521 860.767 874.252 934.368 1040.62 1191.16 1383.22 1614.69 1886.99 2200.46 2557.94 2961.49 3414.3 3654.54 3500.07 3274.16 2849.76 2477.93 2152.4 1867.16 1619.12 1405.96 1226.4 1080.1 967.7 892.247 858.503 871.018 931.852 1040.62 1194.36 1389.72 1625.72 1902.65 2219.8 2582.26 2991.72 3452.65 3698.23 3437.7 3217.31 2805.36 2446.39 2131.89 1855.85 1614.88 1406.76 1229.75 1083.34 969.196 891.268 855.335 867.034 929.132 1040.91 1197.99 1397.12 1638.35 1918.88 2240.38 2607.99 3023.59 3494.78 3745.83 3362.94 3151.84 2758.03 2415.02 2113.47 1848.06 1614.68 1410.54 1234.42 1086.82 970.3 889.46 851.167 862.529 926.606 1041.69 1202.84 1406.47 1651.12 1934.11 2259.07 2629.5 3049.51 3530.74 3788.17 3278.94 3080.25 2708.69 2384.31 2098.57 1844.7 1618.27 1417.03 1240.33 1089.99 969.842 885.666 845.556 857.876 925.139 1043.81 1208.9 1416.45 1663.21 1947.86 2274.09 2644.98 3065.34 3552.79 3816.61 3189.59 3005.77 2661.51 2359.64 2091.07 1847.95 1626.3 1425.78 1246.94 1092.31 967.298 879.957 839.496 853.523 923.962 1046.41 1214.69 1424.5 1672.09 1957.26 2282.49 2650.1 3066.52 3551.28 3814.61 3101.92 2935.79 2624.3 2348.07 2095.17 1859.24 1639.11 1435.88 1252.44 1092.87 963.384 873.195 832.908 849.64 923.785 1049.61 1219.53 1428.92 1675.38 1958.84 2281.06 2644.87 3055.41 3526.86 3780.7 3029.26 2885.08 2610.47 2356.59 2112.62 1877.03 1653.18 1444.31 1254.97 1090.44 957.704 866.138 826.616 846.65 924.45 1051.92 1221.63 1427.86 1669.52 1947.98 2265.68 2628.21 3037.59 3495.36 3737.02 3003.49 2880.39 2636.08 2389.04 2138.53 1894.21 1661.85 1446.21 1251.67 1083.54 949.672 859.098 822.036 844.893 924.212 1051.14 1217.63 1418.06 1651.47 1920.36 2229.44 2588 3005.97 3475.41 3720.05 3105.78 2981.7 2718.77 2438.93 2162.73 1900.53 1656.91 1435.58 1239.14 1072.21 941.503 854.8 821.251 845.235 922.277 1044.81 1204.59 1396.42 1619.56 1876.16 2172.21 2518.35 2934.2 3451.95 3741.25 3203.38 3069.59 2776.79 2466.73 2173.22 1899.53 1649.94 1426.37 1230.21 1065.56 937.904 854.186 822.477 846.247 920.871 1039.63 1195.6 1382.8 1599.89 1850.17 2139.29 2476.92 2883.89 3433.66 3759.23 3865.75 3536.89 2995.49 2611.09 2292.8 2020.58 1785.89 1581.91 1407.78 1266.09 1159.14 1088.82 1059.86 1076.38 1137.35 1238.28 1375.07 1545.19 1745.8 1975.95 2234.42 2519.91 2833.27 3163.64 3329.96 3875.48 3596.73 3093.13 2687 2351.44 2064.68 1818.04 1604.57 1422.63 1273.03 1159.66 1086.42 1056.36 1074.85 1140.48 1247.13 1390.03 1565.29 1768.49 1996.32 2244.9 2509.69 2782.16 3039.16 3159.65 3919.21 3682.67 3219.95 2799.82 2440.58 2131.92 1865.25 1636.15 1441.78 1281.35 1160.01 1083.63 1054.54 1076.73 1148.58 1263.22 1413.27 1592.8 1795.69 2015.71 2245.78 2477.62 2697.15 2891.82 2982.44 3985.21 3729.31 3256.11 2843.45 2478.12 2159.52 1882.2 1644.48 1443.95 1280.8 1159.56 1084.52 1059.52 1085.63 1159.77 1275.37 1424 1598.83 1793.29 2002.03 2218.87 2436.9 2653.23 2882.51 3004.25 4028.02 3757.07 3263 2845.52 2479.94 2158.44 1878.6 1638 1436.17 1275.35 1158.51 1088.22 1067.67 1096.86 1170.35 1281.99 1424.06 1590.29 1775.29 1975.35 2187.63 2410.26 2649.16 2923.44 3072.81 4020.05 3749.76 3251.21 2827 2460.64 2140.55 1862.19 1623.17 1424.63 1269.37 1158.15 1093.61 1077.33 1107.25 1177.96 1283.47 1417.31 1574.93 1753.28 1950.29 2166.15 2403.63 2670.8 2984.18 3155.03 3959.94 3701.4 3216.58 2795.87 2431.75 2114.18 1839.9 1606.53 1413.94 1265.08 1160.29 1100.99 1087.55 1116.46 1182.83 1281.32 1407.81 1559.02 1733.8 1932.6 2157.04 2411.99 2706.2 3051.34 3238.27 3874.18 3629.64 3167.25 2758.51 2399.83 2086.72 1817.8 1590.59 1404.91 1262.72 1164.05 1109.17 1096.97 1123.62 1184.72 1276.82 1397.52 1544.88 1719.19 1922.77 2158.41 2430.23 2746.09 3115.7 3315.07 3786.16 3553.41 3112.43 2717.15 2366.39 2061.28 1799.02 1577.69 1399.17 1263.31 1168.93 1116.91 1104.53 1128.18 1184.76 1271.47 1387.74 1533.51 1709.83 1919.78 2167.15 2454.24 2786.18 3173.28 3382 3707.77 3484.23 3059.49 2676.8 2336.16 2039.2 1783.8 1568.75 1396.21 1265.51 1175.08 1124.59 1110.75 1131.03 1183.26 1265.97 1379.67 1525.68 1705.92 1923.2 2179.86 2479.13 2823.53 3222.44 3437.84 3646.24 3429.99 3016.07 2641.88 2310.11 2020.09 1770.67 1561.82 1394.84 1268.52 1181.19 1131.04 1115.29 1132.33 1180.6 1260.45 1373.3 1521.32 1706.27 1929.91 2194.17 2502.55 2856.7 3263.57 3482.29 3601.68 3387.27 2978.73 2612.5 2288.9 2004.61 1760.86 1558.34 1395.79 1272.59 1186.68 1135.89 1118.21 1132.25 1177.37 1255.47 1368.66 1518.97 1708.21 1937.9 2208.97 2524.85 2886.97 3299.02 3518.95 3570.78 3353.97 2946.88 2587.44 2270.09 1992.07 1754.11 1556.87 1398.15 1277.29 1191.91 1139.73 1119.34 1130.28 1173.19 1250.63 1364.96 1518.1 1711.95 1948.26 2226.71 2547.88 2914.39 3329.27 3549.42 3541.54 3325.09 2920.56 2565.02 2252.34 1980.88 1749.17 1556.9 1401.66 1282.36 1196.78 1142.66 1119.02 1126.91 1168.14 1245.61 1361.75 1519.03 1718.04 1959.67 2245.15 2572.24 2943.14 3361.06 3581.86 3505.98 3292.17 2893.07 2543.19 2236.63 1972.11 1746.61 1558.93 1406.37 1287.76 1201.16 1144.25 1117.47 1122.72 1162.91 1241.52 1360.51 1522.21 1726.88 1973.43 2263.63 2596.98 2974.13 3399.76 3625.31 3460.94 3251.64 2861.13 2519.97 2221.79 1965.09 1746.3 1562.89 1412.54 1293.51 1204.45 1144.01 1113.89 1117.23 1157.54 1238.09 1361.25 1528.02 1738.29 1990.75 2285.86 2626.79 3013.31 3447.3 3676.92 3407.38 3204.43 2825.41 2495.64 2208.43 1960.55 1748.65 1569.36 1420.32 1299.54 1206.66 1141.99 1108.57 1110.47 1151.49 1235.18 1363.05 1534.95 1751.58 2010.93 2312.8 2662.1 3059.08 3504.31 3739.47 3345.32 3150.85 2787.87 2472.76 2198.59 1961.03 1755.83 1579.4 1429.4 1305.19 1207.72 1138.53 1101.69 1102.58 1145.8 1234.02 1367.55 1545.19 1767.72 2033.03 2342.23 2698.51 3104.36 3566.55 3812.45 3273.31 3090.47 2748.83 2452.49 2194.65 1968.43 1768.72 1592.64 1439.14 1309.33 1205.93 1132.18 1092.6 1094.19 1141.71 1235 1374.84 1559.2 1786.2 2056.24 2371.25 2733.11 3146.86 3625.54 3882.87 3195.52 3026.8 2712.33 2439.8 2199.73 1983.49 1786.5 1607.73 1448.32 1311.17 1200.99 1123.1 1083 1086.55 1138.44 1237.86 1383.79 1574.15 1805.65 2079.8 2397.65 2760.98 3177.74 3665.69 3930.41 3115.59 2964.92 2685.48 2441.15 2217.16 2005.91 1806.9 1622.05 1454.59 1309.82 1193.37 1112.09 1072.81 1079.85 1136.83 1242.6 1393.56 1587.35 1821.8 2096.86 2414.53 2778.42 3194.19 3679.22 3942.46 3042.73 2916.41 2678.6 2460.21 2245.36 2031.54 1824.88 1630.73 1454.97 1303.59 1182.92 1100.61 1063.28 1075.35 1138.07 1247.97 1401.5 1595.13 1827.4 2098.75 2414.02 2778.99 3195.91 3673.32 3928.64 3002.85 2903.61 2706.08 2497.42 2273.59 2048.47 1830.87 1627.79 1445.73 1291.11 1170.14 1090.18 1057.29 1074.49 1140.8 1251.29 1402.5 1591.09 1815.08 2076.88 2383.07 2743.52 3169.51 3658.1 3915.74 3070.42 2985.03 2782.84 2538.18 2284.85 2040.45 1811.87 1605.19 1424 1273.87 1159.56 1085.75 1058.05 1077.59 1142.43 1248.32 1390.89 1567.29 1776.92 2022.13 2309.48 2651.24 3069.02 3598.24 3896.27 3145.01 3060.38 2835.46 2556.25 2284.02 2028.05 1794.36 1587.86 1409.81 1264.41 1155.87 1086.49 1061.04 1080.23 1142.54 1244.59 1381.57 1549.92 1750.3 1985.46 2261.16 2589.11 2992.19 3547.38 3878.61 3941.82 3625.01 3103.44 2734.24 2432.06 2178.42 1961.64 1774.6 1617.91 1493.99 1402.17 1341.9 1317.21 1330.89 1381.72 1466.67 1586.37 1738.47 1920.89 2133.95 2374.33 2638.98 2924.39 3198.8 3325.68 4012.09 3733.63 3233.42 2834.3 2508.29 2234.45 2000.96 1801.13 1633.61 1498.97 1398.91 1335.02 1310.29 1326.9 1383.89 1477.61 1606.73 1768.1 1957.11 2170.63 2402.34 2645.33 2886.5 3089.8 3175.52 4129.05 3878.44 3397.57 2972.99 2614.9 2311.97 2053.37 1833.7 1650.86 1503.24 1393.86 1327.21 1304.33 1326.43 1393.42 1500.1 1640.92 1811.06 2003.94 2212.04 2425.68 2633.34 2817.62 2967.03 3033.11 4192.45 3923.02 3430.2 3010.4 2645.41 2331.54 2062.06 1834.25 1646.36 1497.41 1389.53 1327.1 1310.06 1337.99 1409.98 1519.5 1659.89 1825.27 2008.78 2203.44 2401.08 2592.77 2774.98 2968.34 3072.92 4186.21 3912.35 3411.85 2991.14 2629.12 2315.36 2045.02 1817.39 1631.9 1487.5 1386.77 1332.17 1322.11 1354.26 1425.88 1531.35 1663.83 1818.49 1989.14 2171.36 2361.09 2556.06 2764.16 3008.05 3143.02 4109.48 3849.34 3364.53 2947.65 2589.24 2280.34 2016.28 1794.53 1616.67 1481.27 1389.22 1342 1336.62 1369.95 1438.02 1535.95 1657.63 1799.78 1959.68 2135.14 2325.91 2535.4 2774.12 3060.14 3217.69 3988.23 3748.84 3294.24 2892.04 2542.98 2241.92 1986.29 1773.8 1604.99 1479.64 1396.17 1354.55 1351.85 1384.04 1446.75 1535.2 1646.15 1778.13 1930.92 2104.86 2302.32 2529.52 2796.06 3114.5 3288.42 3861.3 3640.35 3215.87 2833.32 2497.67 2207.07 1960.57 1757.27 1597.9 1481.42 1405.33 1368 1366.35 1395.18 1450.64 1530.47 1632.85 1757.6 1906.74 2083.2 2290.48 2534.29 2822.92 3165.51 3351.44 3752.17 3542.95 3142.2 2778.97 2456.48 2176.89 1940.2 1746.15 1595.96 1486.76 1415.6 1380.97 1378.27 1402.8 1451.38 1523.31 1618.9 1739.39 1888.24 2069.58 2287.53 2546.15 2851.13 3210.33 3404.54 3666.67 3464.78 3080.25 2733.19 2423.32 2153.68 1925.9 1739.81 1596.65 1493.51 1426.69 1393.16 1387.84 1407.64 1450.29 1515.7 1606.38 1725.3 1876.11 2063.28 2290.74 2561.21 2877.73 3247.83 3447.72 3608.57 3410.85 3034.9 2697.69 2397.06 2135.69 1916.09 1737.55 1600.26 1501.32 1437.27 1403.28 1394.86 1409.79 1446.96 1507.58 1595.51 1714.94 1869.3 2062.38 2297.85 2577.33 2902.41 3280.23 3483.79 3569.57 3372.95 3000.53 2669.47 2377.1 2123.18 1910.39 1738.86 1606.25 1509.78 1446.44 1411.01 1399.15 1409.41 1441.99 1499.51 1586.15 1706.85 1865.25 2064.33 2307.15 2594.59 2926.76 3308.57 3513.14 3542.1 3344.76 2974.02 2648.02 2362.08 2115.2 1908.51 1741.74 1612.77 1518.39 1454.56 1416.63 1400.82 1406.86 1435.94 1491.53 1578.33 1701.09 1863.89 2069.51 2318.89 2611.25 2948.56 3334.32 3539.77 3517.92 3321.01 2952.62 2630.32 2349.35 2108.96 1908.49 1746.63 1620.88 1527.5 1461.88 1420.43 1400.67 1402.52 1428.51 1483.15 1570.98 1697.1 1865.4 2077.38 2333.23 2630.68 2972.18 3362.17 3569.4 3490.21 3295.24 2930.95 2613.76 2338.98 2105.22 1910.98 1753.72 1629.97 1536.2 1468.17 1422.54 1398.25 1396.08 1419.95 1474.95 1565.03 1695.88 1870.1 2087.65 2350.11 2655.66 3003.25 3396.11 3604.34 3455.34 3264.05 2907.65 2598.47 2331.53 2105.38 1916.95 1763.25 1640.47 1544.51 1472.43 1422.02 1392.79 1387.17 1410.39 1466.68 1560.99 1698.09 1878.68 2103.07 2372.47 2686.58 3044.22 3443.34 3652.71 3413.13 3227.54 2881.95 2583.56 2326.98 2109.36 1926.82 1775.76 1652.49 1552.47 1474.51 1418.47 1384.53 1376.49 1399.78 1458.74 1558.33 1701.55 1890.07 2123.8 2401.45 2725.26 3096.12 3507.76 3722.32 3364.55 3185.65 2854.1 2570.26 2326.83 2119.39 1942.53 1792.05 1665.45 1559.76 1474.87 1412.16 1373.79 1364.36 1389.12 1452.92 1559.17 1709.61 1906.51 2148.45 2435.31 2771.69 3157.66 3589.71 3816.8 3305.43 3137.09 2826.21 2561.91 2334.7 2137.67 1964.55 1811.52 1678.41 1564.66 1471.62 1402.16 1360.02 1351.31 1380.63 1450.47 1564.22 1723.14 1928.13 2178.25 2474.89 2822.32 3223.33 3681.51 3925.15 3238.16 3084.64 2801.97 2562.33 2352.86 2164.03 1991 1831.97 1689.39 1565.34 1463.36 1388.28 1344.63 1338.44 1373.84 1451.48 1573.81 1741.52 1954.22 2212.71 2517.05 2870.91 3283.22 3764.34 4023.1 3165.34 3031.12 2785.5 2575.38 2382.25 2196.5 2018.07 1849.25 1694.81 1560.33 1450.78 1371.92 1329.19 1326.99 1369.29 1456.57 1588.17 1763.37 1981.63 2244.64 2553.16 2911.72 3329.61 3822 4089.34 3090.97 2983.32 2784.38 2603.25 2418.4 2227.32 2037.76 1856.6 1691.04 1547.74 1433.73 1354.85 1315.43 1319.65 1370.14 1464.99 1602.01 1780.58 2000.44 2262.24 2570.75 2933.02 3355.02 3848.9 4115.78 3033.44 2958.95 2810.22 2641.98 2446.01 2240.54 2037.17 1845.54 1673.85 1528.2 1415.36 1340.99 1307.88 1319.28 1375.6 1472.62 1609.33 1784.97 1997.66 2250.76 2551.14 2909.14 3339.52 3845.26 4115.54 3061.84 3016.26 2876.79 2669.34 2440.61 2214.29 2000.33 1807.47 1640.46 1503.87 1402.08 1337.5 1311.8 1327.1 1382.98 1475.26 1603.08 1764.86 1960.07 2193.24 2470.43 2804.55 3220.69 3757.56 4062.13 3111.14 3076.72 2921.95 2675.47 2426.07 2188.22 1970.66 1780.8 1619.83 1490.77 1397.45 1339.38 1317.43 1333.08 1386.7 1474.93 1595.5 1746.83 1930.99 2150.63 2411.34 2727.52 3124.08 3679.39 4012.34 4032.55 3732.5 3236.51 2884.94 2600.55 2364.7 2165.44 1996.97 1857.65 1748.35 1669.77 1618.54 1597.62 1608.19 1649.6 1722.93 1827.91 1962.97 2127.94 2322.81 2544.43 2787.21 3042.82 3256.9 3341.03 4161.96 3882.88 3386.46 2997.94 2685.14 2425.56 2206.85 2022.07 1869.55 1748.53 1660.22 1604.94 1585.03 1600.79 1651.54 1737.12 1855.78 2004.73 2180.36 2378.95 2593.1 2812.85 3019.93 3166.33 3215.52 4343.61 4074.79 3572.68 3147.5 2796.1 2503.01 2255.69 2047.3 1877.65 1743.32 1645.28 1588.17 1572.57 1597.92 1663.43 1766.55 1902.28 2066.03 2250.9 2447.4 2643.97 2826.1 2972.73 3074.9 3115.79 4388.71 4107.97 3598.13 3173.62 2813.3 2509.26 2252.07 2037.19 1864.55 1730.56 1636.55 1586.58 1578.83 1612.12 1685.12 1793.07 1929.46 2088.99 2264.77 2446.5 2624.43 2789.38 2936.73 3092.94 3179.75 4318.92 4049.28 3552.08 3132.99 2778.26 2476.41 2221.94 2012.09 1844.61 1717.84 1634.18 1594.46 1594.93 1633 1706.67 1810.69 1938.49 2085.13 2244.42 2410.06 2576.88 2744.24 2920.67 3133.27 3253.8 4169.72 3927.08 3467.85 3065.65 2722.42 2430.01 2184.53 1984.65 1828.27 1713.57 1641.36 1610.52 1616.38 1655.88 1724.84 1819.18 1933.9 2064.88 2208.73 2363.23 2528.46 2709.15 2917.41 3174.56 3318.67 3995.72 3780.46 3365.41 2990.73 2664.86 2385.53 2152.01 1963.72 1819.89 1718 1655.59 1630.62 1639.01 1676.54 1738.5 1820.79 1921.09 2037.85 2170.63 2320.01 2489.6 2686.98 2922.95 3212.92 3373.51 3841.94 3646.15 3266.76 2919.89 2612.59 2348.37 2128.63 1952.37 1819.36 1727.27 1672.73 1651.72 1660.01 1692.54 1746.02 1817 1904.99 2010.97 2136.63 2285.56 2462.99 2676.24 2934.64 3248.33 3420.21 3727.28 3542.5 3185.89 2860.17 2570.44 2320.59 2112.92 1947.82 1824.86 1740.49 1691.19 1672.1 1678.02 1704.69 1748.83 1809.29 1887.65 1986.24 2108.62 2260.29 2447.01 2674.34 2949.6 3278.98 3457.64 3648.16 3468.26 3124.09 2813.91 2539.39 2301.78 2104.4 1948.35 1833.19 1755.03 1709 1689.9 1692.33 1712.83 1748.54 1799.99 1871.03 1965.15 2087.52 2243.84 2439.42 2678.26 2964.92 3304.28 3487.35 3599.33 3420.16 3081.77 2781.83 2516.64 2288.64 2101.16 1953 1843.81 1769.68 1724.91 1704.1 1702.17 1716.19 1744.66 1789.24 1855.47 1948.15 2072.83 2234.44 2437.46 2685.31 2979.97 3326.1 3512.63 3567.8 3389.27 3053.91 2759.91 2501.64 2281.04 2101.29 1960.03 1855.57 1783.68 1738.7 1715.11 1708.29 1715.64 1737.7 1777.82 1841.29 1934.23 2062.1 2229.29 2439.73 2694.82 2995.59 3345.08 3532.45 3545.84 3367.86 3034.61 2744.26 2492.14 2278.6 2104.95 1968.94 1867.68 1796.9 1750.63 1723.3 1711.23 1712.54 1729.4 1766.42 1828.92 1923.35 2055.09 2228.18 2445.11 2705.7 3011.03 3363.5 3551.71 3528.28 3351.15 3020.24 2732.83 2485.88 2278.82 2110.72 1979.35 1880.65 1809.66 1760.26 1728.15 1710.74 1706.56 1719.32 1754.26 1816.81 1914.03 2051.01 2230.49 2453.71 2719.7 3028.55 3384.9 3575.79 3509.21 3333.67 3006.18 2723.54 2482.79 2281.98 2119.68 1992.31 1894.54 1821.59 1768.09 1730.3 1706.63 1697.32 1706.91 1741.15 1805.6 1907.25 2049.65 2235.37 2465.96 2739.28 3054.13 3412.31 3602.6 3486.4 3313.46 2991.53 2715.95 2483.21 2289.65 2132.57 2007.51 1909 1832.44 1773.29 1728.67 1698.48 1684.69 1692.41 1727.16 1794.84 1902.16 2051.49 2245.09 2484.15 2766.21 3090.42 3453.34 3643.47 3457.96 3289.21 2976.14 2710.53 2487.96 2302.99 2150.93 2026.59 1925.02 1841.98 1774.65 1722.68 1686.15 1668.55 1675.56 1712.57 1785.42 1898.96 2057.63 2261.32 2509.94 2803.62 3141.06 3516.45 3712.04 3421.21 3258.86 2960 2709.33 2499.49 2323.54 2175.26 2049.2 1941.69 1849.93 1772.99 1712.64 1670.34 1649.89 1657.22 1698.84 1779.57 1902.03 2069.99 2284.04 2543.96 2852.23 3209.08 3607.09 3814.84 3375.89 3223.37 2945.24 2714.76 2520.45 2353.23 2205.83 2074.05 1957.16 1854.33 1766.69 1697.91 1650.89 1629.75 1640.73 1689.06 1778.21 1911.02 2089.32 2314.87 2588.62 2912.75 3291.6 3720.43 3945.71 3322.24 3183.91 2934.05 2728.97 2551.9 2391 2240.31 2098.85 1969.12 1852.75 1753.83 1677.88 1628.24 1609.51 1627.69 1685.55 1784.79 1928.34 2117.79 2354.88 2640.42 2977.85 3377.14 3840.01 4086.18 3256.91 3138.73 2927.79 2753.54 2592.28 2432.41 2272.81 2117.78 1972.79 1843.42 1735.89 1655.09 1605.65 1592.16 1619.17 1688.9 1800.1 1953.35 2151.67 2397.13 2690.44 3037.83 3451.6 3943.37 4210.17 3178.87 3089.63 2930.4 2788.37 2634.78 2466.83 2293.09 2122.55 1963.75 1824.77 1712.51 1631.85 1586.34 1581.34 1619.33 1699.14 1819.13 1978.42 2180.98 2429.49 2726.07 3080.01 3501.88 4007.87 4285.12 3099.64 3049.88 2950.9 2825.65 2659.68 2474.06 2283.85 2102 1937.66 1797.1 1687.31 1613.23 1576.75 1581.43 1628.08 1712.83 1834.9 1994.4 2192.18 2433.82 2724.38 3073.38 3501.6 4021.67 4304.7 3084.79 3080.06 3005.2 2836.75 2633.86 2425.53 2225.56 2045.57 1890.76 1764.38 1670.41 1611.17 1586.21 1596.9 1644.48 1724.84 1837.89 1984.77 2164.94 2383.43 2648.42 2971.53 3381.23 3921.61 4230.42 3107 3125.07 3043.37 2830.3 2603.49 2383.11 2181.6 2007.23 1861.91 1747.49 1665.16 1615.82 1596.82 1609.03 1654.93 1730.05 1834.77 1970.94 2138.8 2340.97 2586.55 2890.19 3278.33 3827.98 4157.92 4138.3 3859 3393.04 3060.39 2795.15 2577.51 2396.79 2246.95 2126.5 2031.72 1963.66 1922.37 1905.97 1916.04 1951.03 2013.43 2103.32 2222.3 2370.71 2546.47 2749.62 2970.81 3194.52 3343.28 3381.63 4318.02 4036 3542.59 3169.36 2874.66 2631.96 2430.4 2263.19 2127.56 2021.03 1944.86 1899.11 1884.17 1902.2 1950.75 2030.18 2139.95 2278.47 2442.31 2626.2 2823.2 3018.88 3188.97 3275.17 3286.61 4546.09 4254.84 3727.76 3307.15 2970.92 2693.51 2462.18 2270.45 2115.84 1997.39 1914.55 1868.09 1861.53 1893.49 1961.73 2065.34 2200.75 2361.56 2539.84 2726.56 2906.54 3061.49 3168.31 3222.86 3239.46 4553.64 4266.41 3744.53 3317.71 2969.02 2682.39 2443.25 2246.57 2091.02 1975.86 1900.14 1863.83 1868.69 1909.99 1987.16 2098.31 2236.05 2393.84 2562.95 2733.69 2893.7 3031.55 3143.84 3263.68 3333.3 4409.94 4153.88 3673.53 3262.25 2920.58 2637.78 2405.07 2217.73 2070.65 1964.46 1900.94 1876.78 1890.02 1936.5 2015.23 2121.78 2248.48 2390.95 2541.4 2692.62 2839.2 2979.62 3123.8 3304.63 3410.23 4194.4 3977.24 3557.6 3180.39 2859.12 2589.11 2368.09 2194.4 2060.39 1967.13 1915.83 1901.04 1919.81 1967.54 2040.54 2134.7 2245.12 2368.52 2499.54 2635.26 2776.54 2928.21 3103.9 3330.52 3460.75 3988.52 3801.33 3434.39 3095.82 2800.47 2549.15 2342.16 2181.17 2062.13 1982.15 1940.66 1932.09 1952.29 1996.76 2060.61 2139.98 2232.85 2337.84 2452.54 2578.08 2719.87 2885.83 3089.1 3348.52 3494.8 3830.49 3659.69 3328.58 3023.07 2750.75 2518.34 2327.76 2180.11 2073.17 2003.33 1968.94 1963.87 1982.53 2020.5 2073.66 2138.59 2215.11 2304.57 2407.78 2529.06 2675.43 2855.86 3081.47 3363.66 3520.42 3723.72 3561.69 3250.79 2966.9 2713.9 2498.33 2322.11 2186.03 2089.16 2027.55 1997.48 1993.2 2008.28 2038.02 2079.66 2131.16 2194.19 2272.51 2369.47 2491.07 2644.5 2837.83 3080.1 3377.49 3540.54 3657.78 3499.36 3197.86 2928.01 2690.33 2487.98 2323.14 2196.02 2107.32 2051.98 2024.01 2018.36 2028.28 2049.46 2080.39 2120.56 2173.49 2244.43 2339.03 2463.63 2625.03 2829.34 3082.68 3389.96 3557.26 3620.99 3461.99 3163.89 2902.73 2675.31 2482.99 2327.91 2209.34 2126.49 2074.99 2047.27 2038.1 2042 2054.89 2076.1 2107.42 2153.59 2220.57 2315.78 2445.09 2614.11 2827.58 3087.98 3400.72 3570.95 3599.39 3441.04 3144.8 2887.77 2666.83 2482.46 2335.18 2223.37 2145.38 2095.72 2066.68 2052.99 2050.24 2054.78 2067.82 2092.69 2134.55 2200.7 2298.31 2433.09 2609.04 2829.1 3094.86 3410.55 3581.77 3586.14 3428.5 3133.78 2879.39 2663.45 2485.67 2344.93 2238.47 2163.26 2113.74 2082.4 2063.55 2053.84 2050.84 2057.12 2077.07 2116.66 2183.93 2285.27 2425.68 2607.81 2833.32 3102.92 3420.88 3592.99 3577.71 3419.82 3126.11 2874.93 2664.23 2492.03 2356.48 2254.67 2181.15 2129.98 2094.89 2070.01 2052.68 2042.83 2043.48 2059.99 2099.02 2168.85 2275.03 2421.69 2610.01 2840.38 3114.23 3434.62 3607.25 3566.99 3409.88 3119.18 2873.17 2668.63 2502.75 2372.58 2273.88 2200.04 2145.29 2104.3 2071.89 2046.89 2030.27 2026.16 2041.14 2081.74 2155.61 2267.35 2420.97 2616.36 2852.97 3132.72 3454.75 3626.2 3553.31 3398.55 3112.94 2873.98 2677.66 2519.05 2393.83 2296.02 2219.42 2159.33 2110.03 2068.44 2035.72 2013.06 2005.66 2020.4 2063.75 2142.46 2261.43 2422.9 2627.12 2873.57 3160.51 3486.48 3659.01 3537.61 3386.47 3109 2879.58 2693.04 2542.31 2420.92 2321.84 2239.5 2170.46 2110.71 2059.35 2018.11 1990.47 1981.54 1997.79 2046.02 2131.01 2258.54 2430.07 2645.37 2904.03 3202.84 3540.38 3718.76 3515.74 3371.12 3107.56 2892.33 2717.82 2574.65 2454.6 2350.88 2259.14 2177.54 2105.43 2043.77 1994.52 1963.04 1954.08 1974.25 2030.22 2124.7 2262.37 2446.06 2674.32 2948.38 3267.98 3626.25 3814.12 3487.85 3352.38 3108.97 2913.98 2754.14 2617.25 2494.39 2381.02 2276.1 2180.09 2094.17 2021.91 1966.67 1933.22 1927.78 1954.77 2019.31 2125.1 2274.08 2470.46 2714.98 3008.98 3355.28 3744.54 3947.78 3451.21 3328.89 3113.8 2944.84 2800.41 2666.72 2536.54 2409.23 2287.61 2175 2075.49 1994.52 1935.92 1903.61 1904.38 1941.2 2016.6 2134.3 2295.97 2505.19 2764.73 3079.08 3454.99 3887.61 4116.29 3396.42 3294.43 3119.66 2982.59 2852.55 2716.63 2573.8 2429.71 2289.94 2161.13 2050.87 1964.21 1904.97 1877.69 1887.36 1935.67 2024.44 2155.15 2328.96 2548.94 2819.05 3148.89 3550.65 4031.38 4291.91 3314.48 3243.09 3123.98 3022.25 2900.36 2754.18 2594.31 2431.94 2276.49 2137.3 2021.4 1934.81 1880.14 1862.27 1883.64 1944.07 2044.82 2184.66 2365.62 2591.82 2868.14 3204.95 3620.25 4134.3 4418.5 3209.46 3183.54 3134.86 3055.08 2920.84 2754.88 2576.74 2402.03 2240.84 2101.25 1989.57 1911.84 1869 1863.38 1896.07 1965.56 2070.83 2211.75 2391.43 2614.57 2886.11 3217.38 3636.52 4168.42 4464.3 3147.01 3184.08 3176.64 3049.53 2872.42 2681.33 2494.6 2325.58 2179.72 2060.09 1970.25 1912.87 1886.22 1890.68 1927.75 1994.55 2091.68 2220.72 2383.17 2584.4 2832.1 3139.66 3538.66 4077.44 4388.43 3140.55 3213.71 3209.3 3030.69 2824.45 2620.38 2433.98 2273.7 2142.35 2039.86 1966.41 1922.83 1904.71 1912.85 1948.85 2010.19 2099.67 2218.2 2366.98 2551.32 2781.32 3071.25 3449.74 3988.05 4309.97 4243.54 3990.82 3563.44 3252.82 3008.38 2812.9 2653.88 2523.8 2423.59 2346.74 2290.64 2258.56 2246.67 2258.87 2291.06 2343.16 2421.41 2526.67 2657.24 2814.53 2999.48 3199.37 3390.06 3466.49 3454.21 4458.35 4169.61 3681.01 3332.13 3062.62 2843.99 2664.99 2519.09 2404.12 2316.38 2254.38 2220.85 2214.08 2236.91 2287.02 2363.06 2468.09 2599.49 2752.21 2922.1 3101.75 3272.36 3402.8 3424.44 3396.32 4708.21 4390.29 3836.53 3429.09 3119.42 2868.02 2661.74 2494.76 2362.08 2264.18 2200.01 2169.76 2176.11 2217.81 2294.19 2403.6 2543.63 2705.39 2880.27 3058.77 3222.6 3350.37 3416.2 3423.21 3416.74 4661.73 4377.13 3852.96 3429.43 3101.77 2840.05 2627.28 2457.55 2325.2 2232.8 2179.31 2161.34 2180.79 2234.51 2321.31 2439.34 2582.88 2742.3 2908.66 3072.47 3217.65 3331.17 3410.53 3495.56 3548.92 4445.48 4215.39 3769.92 3375.75 3055.38 2798.31 2592.48 2431.56 2309.64 2228.58 2186.9 2180.75 2208.74 2267.06 2354.36 2466.05 2595.33 2736.93 2882.49 3024.31 3154.93 3270.48 3382.88 3532.05 3622.89 4188.75 4004.74 3639.24 3297.29 3003.63 2762.72 2570.81 2423.38 2315.82 2247.37 2215.71 2217.64 2250.54 2307.91 2387.96 2485.25 2594.02 2712.32 2834.07 2954.86 3073.75 3195.38 3336.85 3531.15 3646.46 3982.78 3824.62 3512.9 3219.12 2958.6 2739.6 2562.9 2429.55 2335.99 2278.55 2256.05 2264.04 2296.76 2348.93 2417.13 2496.38 2583.81 2678.34 2777.72 2881.5 2993.94 3125.13 3292.59 3518.91 3649.75 3843.9 3697.98 3415.94 3155.61 2923.42 2725.08 2564.72 2445.48 2363.62 2315.92 2300.05 2310.19 2339.52 2383.16 2437.45 2498.52 2565.6 2639.21 2720.88 2814.57 2927.4 3071.17 3259.8 3508.16 3649.35 3756.97 3617.55 3351.32 3110.98 2898.49 2717.68 2573.09 2465.62 2393.83 2354.67 2342.1 2351.29 2375.51 2408.44 2448.03 2491.8 2541.05 2599.27 2670.17 2760.62 2878.71 3034.71 3239.63 3502.9 3650.21 3707.68 3570.62 3311.79 3083.51 2884.68 2717.88 2585.6 2486.99 2423.47 2389.77 2378.25 2384.95 2402.11 2424.08 2449.91 2479.18 2515 2562.95 2628.9 2720.51 2846.26 3013.16 3229.3 3502.51 3654.01 3684.37 3546.28 3289.28 3068.1 2878.77 2721.97 2599.33 2509.32 2451.73 2420.98 2409.11 2410.78 2419.99 2431.77 2445.4 2463.25 2489.47 2531.59 2597.03 2692.82 2826.16 3002.43 3225.87 3504.2 3658.3 3673.88 3535.07 3278.16 3060.59 2877.9 2728.87 2613.83 2530.86 2477.59 2448.28 2434.72 2430.42 2430.77 2432.32 2436.04 2444.96 2465.09 2505.51 2573.23 2674.29 2814.26 2997.41 3226.68 3507.56 3661.89 3668.29 3529.7 3273.43 3058.25 2880.71 2738.06 2629.37 2551.66 2500.77 2470.95 2454.29 2443.5 2434.6 2426.82 2422.34 2425.07 2442.16 2482.87 2554.55 2661.67 2807.66 2996.29 3229.58 3512.27 3666.99 3666.16 3526.91 3271.5 3059.65 2886.94 2750.16 2647.08 2573.67 2524.1 2491.67 2469.51 2450.76 2432.54 2416.25 2404.52 2403.06 2419.37 2462.29 2538.65 2652.21 2804.89 2998.37 3234.72 3518.88 3673.96 3661.85 3523.63 3271.14 3064.12 2897.61 2767.65 2670 2599.02 2548.25 2510.83 2480.41 2452.22 2424.86 2399.72 2381.67 2378.18 2395.72 2442.26 2524.2 2645.03 2804.74 3004.13 3245.98 3531.02 3684.57 3656.05 3520.37 3273.29 3073.66 2915.71 2792.98 2699.68 2628.67 2573.49 2527.99 2486.44 2446.71 2409.63 2376.68 2354.11 2349.66 2369.79 2421.4 2511.05 2640.32 2808.17 3016.21 3265.04 3553.48 3707.39 3651.1 3519.2 3280.7 3091.12 2943.31 2827.95 2736.8 2662.32 2598.6 2541.08 2486.04 2433.46 2386.39 2346.96 2321.52 2317.71 2341.93 2400.69 2498.71 2637.74 2817.48 3037 3295.74 3592.86 3750.65 3646.16 3520.32 3295.11 3119.71 2983.69 2874.66 2782.18 2698.91 2621.37 2547.37 2476.99 2411.32 2353.62 2309.47 2283.27 2282.54 2313.76 2381.53 2489.65 2640.38 2833.95 3071.58 3349.82 3661.85 3826.3 3640.48 3523.35 3317.77 3162.38 3039.49 2932.92 2832.82 2734.71 2638.98 2546.26 2458.64 2380.16 2314.08 2266.62 2243.45 2248.86 2288.54 2366.88 2487.1 2651.39 2861.49 3121.26 3427.6 3768.77 3946.71 3628.38 3524.1 3346.46 3216.06 3105.34 2996.11 2882.58 2765.3 2647.94 2535.48 2431.2 2341.05 2270.55 2223.3 2204.96 2219.53 2270.11 2359.67 2491.61 2669.59 2897.7 3181.2 3523.58 3914.35 4119.06 3594.04 3509.55 3372.11 3271.94 3171.23 3055.02 2924.47 2786.58 2647.53 2515.49 2397.96 2300.96 2229 2185.93 2175.89 2199.79 2262.5 2366.66 2510.24 2699.53 2940.74 3243.85 3623.3 4078.69 4323.98 3512.25 3458.94 3379.77 3316.93 3223.98 3097.05 2947.6 2789.26 2632.94 2487.79 2363.17 2265.96 2198.62 2163.83 2164.44 2200.34 2275.25 2390.03 2542.2 2738.2 2985.32 3295.52 3696.04 4209.37 4495.56 3377.69 3374.72 3375.98 3342.88 3240.56 3094.11 2925.8 2754.98 2592.82 2448 2329.62 2242.99 2188.42 2166.99 2179.33 2226.9 2310.14 2427.14 2580.09 2774.3 3017.03 3320.87 3720.02 4257.6 4565.6 3260.77 3341.49 3405.16 3321.91 3170.45 2995.15 2820.47 2659.91 2518.73 2401.03 2310.88 2250.37 2216.5 2209.79 2230.95 2279.3 2357.28 2464.76 2603.66 2780.94 3004.8 3289.72 3668.85 4197.22 4506.93 3222.1 3355.24 3435.15 3292.69 3104.74 2913.94 2742.17 2594.21 2472.75 2377.81 2308.35 2264.7 2242.91 2243.48 2266.18 2311.17 2382.48 2480.21 2607.17 2770.99 2981.35 3254.09 3619.18 4137.62 4445.28 4298.93 4084.11 3713.35 3437.66 3224.37 3059.61 2930.51 2828.21 2752.15 2698.88 2662.44 2641.91 2637.05 2651.78 2683.31 2730.41 2797.75 2888.01 3003.64 3144.89 3310.68 3489.19 3644.41 3638.98 3569.04 4534.65 4239.56 3764.75 3456.36 3225.09 3041.95 2897.3 2782.66 2695.06 2633.72 2594.77 2579.54 2586.49 2617.25 2673.86 2753.74 2856.61 2981.84 3127.21 3286.55 3449.59 3595.58 3684.47 3637.39 3567.23 4787.2 4442.63 3869.86 3489.33 3218.47 3005.89 2837.22 2705.09 2604.35 2535.34 2497.89 2493.31 2519.54 2576.37 2667.37 2789.57 2938.39 3105.63 3283.59 3459.33 3613.29 3721.09 3752.05 3715.42 3686.74 4688.08 4419.95 3914.2 3505.55 3206.85 2978.27 2800.51 2664.59 2564.51 2500.88 2472.21 2477.1 2515.26 2586.74 2687.57 2816.06 2968.88 3135.42 3307.17 3470.88 3610.38 3710.95 3766.12 3818.65 3854.62 4430.53 4238.36 3848.62 3486.09 3193.78 2965.94 2792.11 2662.31 2569.8 2516.07 2497.29 2510.09 2554.18 2628.27 2726.82 2846.17 2981.65 3127.17 3274.43 3412.71 3532.02 3626.2 3706.85 3821 3895.13 4183.38 4035.48 3732.56 3434.52 3173.81 2963.51 2801.98 2683.41 2602.53 2558.65 2548.71 2567.79 2614.27 2683.91 2772.62 2875.46 2986.95 3103.64 3218.85 3326.33 3421.99 3510.44 3612.71 3769.63 3868.21 4010.8 3881.91 3626.12 3379.14 3155.46 2968.63 2822.44 2716.71 2648.5 2614.1 2610.55 2633.94 2679.04 2740.76 2814.82 2895.74 2980.17 3065.77 3149.47 3229.74 3309.5 3401.73 3527.29 3715.61 3830.03 3904.18 3783.25 3550.48 3336.02 3142.42 2977.03 2846.72 2754.14 2697.65 2672.07 2673.66 2698.68 2738.63 2788.39 2845.13 2902.96 2960.3 3017.75 3076.29 3139.73 3215.95 3318.86 3465.52 3676.75 3801.59 3842.91 3725.68 3503.92 3307.15 3133.91 2986.82 2872.25 2791.42 2743.75 2725.9 2731.38 2754.7 2787.68 2824.2 2861.7 2896.75 2930.81 2967.21 3009.83 3066.81 3147.42 3262.81 3426.74 3653.71 3784.62 3810.62 3694.61 3478.05 3291.16 3131.19 2998.53 2896.77 2826 2785.79 2772.83 2778.87 2797.9 2821.98 2844.94 2864.75 2881.02 2897.49 2919.81 2955.44 3013.04 3101.66 3229.31 3406.05 3643 3777.62 3797.54 3680.87 3465.63 3284.39 3132.76 3010.43 2918.75 2856.69 2823.06 2813.1 2817.59 2830.46 2844.79 2854.67 2859 2860.46 2864.76 2879.53 2914.24 2976.28 3073.2 3211.03 3396.78 3639.35 3775.82 3794.13 3675.94 3460.02 3282.45 3137.29 3022.6 2939.29 2884.57 2855.29 2846.42 2848.92 2855.11 2857.98 2854.79 2846.86 2837.45 2834.33 2847.19 2884.19 2951.76 3056.03 3201.27 3393.35 3638.25 3774.39 3794.44 3675.07 3458.76 3284.1 3144.25 3035.84 2959.42 2910.82 2884.32 2874.56 2872.95 2870.86 2862.1 2847.01 2829 2812.71 2806.08 2819.64 2860.94 2934.91 3046.03 3197.22 3392.98 3638.89 3775.14 3795.22 3675.68 3460.44 3288.83 3154.11 3052.81 2982.55 2937.66 2912.6 2900.06 2890.99 2878.95 2859.72 2833.96 2807.03 2786.02 2778.47 2794.61 2841.23 2921.69 3039.79 3196.53 3394.24 3641.05 3778.12 3794.41 3676.67 3464.56 3297.52 3170.05 3076.36 3011.52 2969.28 2942.55 2923.05 2903.16 2879.76 2849.44 2812.82 2778.85 2755.54 2749.41 2769.21 2821.73 2909.65 3034.8 3197.19 3399.68 3647.53 3783.27 3796.2 3680.18 3473.21 3314.47 3196.24 3110.35 3050.04 3007.44 2974.35 2943.51 2909.41 2871.45 2828.88 2783.35 2744.04 2719.34 2715.7 2741.25 2801.46 2897.95 3031.66 3201.82 3410.85 3660.9 3796.16 3801.01 3688.56 3490.83 3343.68 3236.61 3158.78 3099.93 3051.07 3005.88 2959.38 2908.02 2852.75 2797.4 2744.63 2701.69 2677.34 2677.84 2710.65 2779.25 2885.52 3031.29 3213.22 3431.1 3686.83 3824.14 3811.47 3705.47 3522.25 3390.82 3296.21 3223.3 3159.65 3097.44 3033.18 2965.55 2894.75 2822.33 2753.94 2694.7 2650.44 2629.06 2636.69 2677.84 2755.74 2874.15 3033.82 3233.05 3468.08 3735.99 3878.42 3831.47 3734.23 3571.6 3460.83 3377.84 3302.99 3224.88 3140.8 3051.37 2958.37 2866.43 2779.08 2699.86 2635.4 2593.5 2577.69 2593.42 2644.56 2733.7 2865.21 3040.71 3262.61 3524.85 3817.47 3970.69 3855.6 3771.54 3636.96 3549.16 3472.9 3386.86 3285.81 3174.19 3056.37 2938.02 2825.96 2725.46 2639.79 2574.26 2536.23 2527.58 2552.89 2614.2 2714.42 2859.18 3053.04 3300.87 3601.11 3940.49 4117.07 3862.21 3797.56 3701.27 3637.98 3562.04 3459.1 3332.66 3193.29 3049.32 2908.56 2780.3 2671.25 2582.63 2519.34 2487.97 2487.28 2521.08 2593.9 2704.47 2859.18 3066.32 3336.22 3681.31 4093.39 4313.2 3801.38 3767.7 3728.22 3698.46 3625.23 3508.37 3360.78 3198.58 3034.66 2877.9 2740.33 2628.04 2541.92 2484.91 2461.65 2469.66 2511.65 2592.85 2709.03 2867.59 3077.45 3352.78 3726.54 4221.32 4500.02 3638.1 3658.26 3708.17 3718.23 3642.28 3509.9 3346.36 3172.83 3004.08 2847.52 2715.24 2611.82 2537.01 2491.52 2476.34 2492.51 2542.09 2624.69 2739.45 2894.19 3096.52 3358.92 3721.71 4251.67 4567.48 3454.05 3582.21 3721.58 3682.72 3554.94 3392.99 3226.4 3067.72 2925.35 2803.71 2706.71 2634.35 2584.28 2557 2553.18 2574.83 2622.75 2698.56 2804.66 2945.91 3133.53 3382.11 3725.16 4228.47 4530.03 3377.76 3579.45 3753.39 3646.51 3473.32 3292.13 3129.99 2987.96 2868.57 2775.86 2706.5 2655.49 2621.9 2606.65 2609.34 2632.44 2676.27 2746 2845.53 2977.6 3156.87 3401.45 3741.32 4223.02 4505.41 4154.89 3990.09 3710.88 3513.14 3368.27 3264.01 3191.31 3142.42 3112.59 3100.64 3100.87 3109.16 3128.65 3155.47 3187.86 3231.57 3289.61 3365.95 3464.07 3583.94 3722.71 3865.79 3968.94 3869.76 3737.47 4437.37 4151.41 3717.18 3472.01 3301.27 3175.13 3085.61 3023.24 2982.83 2965 2965.44 2981.4 3016.02 3065.85 3132.46 3218.96 3323.58 3447.95 3590.16 3743.77 3896.84 4025.42 4083.1 3972.82 3859.56 4746.34 4397.63 3833.22 3486.99 3260.09 3093.19 2972.53 2885.79 2827.56 2799.54 2798.04 2823.24 2876.23 2956.71 3066.98 3205.43 3368.11 3549.41 3740.95 3929.66 4095.44 4209.51 4234.94 4166.85 4113.38 4660.88 4428.19 3967.66 3583.75 3317.49 3124.64 2983.84 2883.67 2817.71 2785.49 2783.36 2811.83 2871.04 2961.31 3079.61 3223.23 3390.87 3572.83 3758.38 3934.31 4083.14 4184.07 4222.84 4236.02 4245.96 4434.55 4284.92 3958.01 3630.71 3368.04 3171.57 3028.75 2928.88 2865.01 2836.01 2839.84 2872.54 2934.45 3024.58 3137.79 3270.13 3417.76 3573.74 3726.31 3863.79 3973.05 4043.42 4083.77 4149.26 4198.98 4242.55 4127.56 3881.79 3625.32 3395.95 3215.12 3082.9 2991.41 2935.55 2914.03 2925.13 2962.07 3023.78 3107.63 3207.9 3319.83 3437.32 3553.47 3659.75 3749.19 3815.63 3863.18 3916.73 4027.37 4104.99 4117.1 4014.65 3807.66 3601.44 3411.22 3254.33 3136.69 3056.35 3012.47 3000.69 3016.73 3056.78 3115.68 3188.51 3269.46 3352.66 3433.07 3506.24 3568.18 3618.06 3659.11 3706 3784.64 3931.34 4027.16 4042.03 3944.18 3755.77 3580.65 3420.83 3286.41 3184.98 3117.84 3085.32 3081.92 3102.74 3143.62 3195.92 3253.66 3311.63 3363.45 3406.5 3441.8 3470.6 3498.18 3533.65 3592.78 3696.73 3869.71 3977.01 4000.9 3904.76 3724.98 3566.44 3427.5 3312.58 3226.87 3173.32 3150.08 3152.46 3176.92 3215.36 3258.04 3298.48 3331.37 3353.78 3366.57 3374.6 3384.05 3404.23 3445.39 3520.41 3644.77 3835 3948.83 3981.61 3885.79 3709.1 3559.62 3434.64 3334.41 3261.9 3219.52 3204.74 3212.8 3237.4 3269.86 3300.47 3322.53 3333 3331.46 3322.33 3314.13 3316.23 3337.91 3388.75 3478.52 3617.63 3818.56 3936.2 3975.45 3878.77 3702.82 3558.5 3441.77 3352.47 3291.08 3257.39 3249.22 3261.66 3284.11 3308.91 3327.49 3332.63 3323.54 3303.84 3281.07 3264.84 3266.73 3294.36 3355.21 3456.33 3605.9 3813.26 3932.57 3974.34 3876.59 3700.51 3559.88 3449.67 3368.28 3315.65 3289.69 3286.63 3300.29 3320.04 3336.28 3340.8 3330.52 3306.72 3274.86 3244.31 3226.75 3232.29 3266.76 3336.27 3445.6 3601.3 3810.8 3929.93 3975.75 3876.94 3700.53 3563.05 3458.52 3383.74 3338.62 3319.74 3319.76 3332.16 3347.1 3353.25 3344.58 3320.72 3285.03 3245.07 3211.63 3196.18 3206.5 3248.03 3325.22 3441.02 3599.84 3809.95 3929.25 3977.02 3878.45 3703.29 3568.89 3470.07 3403.1 3365.05 3350.39 3351.34 3360.51 3367.4 3362.75 3341.98 3305.51 3259.8 3214.31 3180.45 3168.37 3184.44 3232.77 3317.14 3438.99 3600.53 3811.71 3931.49 3978.44 3881.24 3708.96 3579.61 3488.74 3430.32 3398.74 3387.25 3386.76 3388.11 3382.63 3364.32 3329.52 3280.13 3226.96 3179.48 3146.84 3139.34 3162.14 3217.93 3309.63 3437.31 3602.96 3815.02 3933.94 3983.82 3888.02 3720.97 3600.94 3520.47 3471.27 3445.54 3434.01 3426.5 3414.45 3390.93 3354.37 3304.14 3243.62 3184.82 3136.49 3107.43 3106.46 3135.88 3200.37 3302.05 3437.35 3607.96 3821.44 3940.38 3994 3901.88 3745.41 3639.5 3572.36 3532.61 3508.93 3489.99 3467.86 3435.9 3389.95 3331.62 3264.48 3194.9 3131.55 3083.79 3060.44 3066.71 3104.49 3179.63 3293.77 3440.63 3619.77 3837.5 3957.31 4016.24 3930.84 3791.06 3704.14 3652.2 3618.26 3587.74 3551.68 3504.86 3444.36 3372.15 3291.73 3208.33 3130.59 3065.56 3021.08 3004.58 3019.19 3068.21 3156.26 3283.68 3446.72 3642.05 3870.09 3992.81 4058.62 3983.48 3867.22 3804.1 3765.4 3727.67 3676.78 3610.11 3527.8 3432.69 3332.4 3231.44 3135.07 3051.49 2988.83 2950.11 2941.45 2966.18 3026.33 3127.4 3270.83 3456.45 3677.41 3926.59 4057.79 4122.41 4062.52 3978.26 3939.87 3903.61 3845.11 3759.24 3651.49 3528.9 3399.8 3273.28 3155.66 3051.38 2966.47 2907.55 2875.23 2875.27 2909.34 2980.06 3093.58 3254.03 3467.01 3725.98 4015.34 4165.31 4194.87 4156.68 4112.03 4090.22 4037.91 3943.66 3814.94 3665.89 3508.52 3351.4 3205.24 3077.11 2968.52 2885.65 2831.59 2805.23 2812.02 2853.34 2932.03 3054 3226 3460.65 3766.91 4127.89 4317.16 4211.85 4205.25 4209.91 4200.42 4128.25 4003.35 3841.97 3663.99 3483.05 3307.75 3151.06 3018.03 2909.55 2828.87 2778.49 2756.57 2765.05 2808.6 2888.12 3009.93 3181.34 3417.69 3754.75 4210.13 4466.28 4064.34 4111.25 4201.54 4228.44 4154.19 4016.16 3841.78 3652.87 3467.42 3292.55 3137.95 3009.72 2907.16 2829.88 2780.1 2757.45 2761.85 2797.99 2867.14 2975.31 3129.58 3344.02 3662.24 4162.11 4469.23 3789.67 3967.68 4179.39 4175.55 4066.19 3912.94 3746.92 3581.02 3428.47 3293.28 3176.7 3078.25 2996.78 2933.2 2887.92 2863.3 2859.44 2880.68 2932.6 3018.52 3148.32 3337.85 3620.5 4070.84 4350.11 3643.97 3918.47 4194.16 4130.92 3981.54 3815.42 3660 3518.31 3394.3 3292.37 3208.51 3133.97 3069.26 3016.74 2976.6 2952.03 2943.01 2956.07 2999.64 3074.36 3192.53 3373.13 3644.95 4050.41 4291.42 4004.17 3866.76 3645.13 3503.23 3406.71 3344.08 3309.82 3297.63 3299.89 3315.33 3340.36 3370.09 3408.61 3446.35 3479.82 3521.32 3576.62 3647.88 3734.23 3839.73 3960.96 4079.27 4149.26 3999.8 3835.91 4325.85 4050.84 3646.83 3440.3 3306.79 3215.78 3160.31 3130.98 3121.79 3131.76 3156.53 3192.76 3246.43 3310.02 3382.01 3471.28 3579.19 3706.17 3846.89 3998.13 4148.71 4271.82 4319.24 4180.91 4046.22 4692.91 4352.34 3801.89 3472.62 3267.64 3123.61 3028.82 2967.38 2933.22 2928.68 2946.11 2986.39 3054.06 3148.38 3269.07 3415.61 3586.92 3778.36 3980.03 4180.31 4359.7 4486.79 4520.77 4441.23 4374.01 4643.84 4434.39 4002.58 3632.16 3382.22 3206.27 3083.28 3001.57 2951.61 2933.64 2944.87 2985.03 3054.12 3153.09 3281.12 3433.66 3610.44 3802.28 3997.07 4183.14 4340.27 4443.64 4474.72 4464.3 4457.85 4456.36 4327.46 4030.26 3718.55 3470.04 3289.79 3161 3074.11 3023.45 3005.66 3020.45 3063.49 3134.16 3231.55 3353.31 3494.22 3650.47 3813.19 3968.36 4105.32 4208.92 4265.45 4281.8 4318.01 4352.79 4299.46 4199.19 3978.34 3739.04 3523.49 3358.32 3240.01 3159.09 3115.93 3105.94 3125.69 3171.92 3242.31 3333.14 3440.29 3558.21 3679.37 3794.72 3894.73 3972.75 4022.39 4046.89 4073.16 4158.18 4223.86 4196.02 4105.52 3919.96 3731.63 3556.23 3413.63 3309.78 3240.98 3209.38 3209.1 3234.37 3284.11 3351.37 3429.75 3514.29 3598.26 3675.52 3740.29 3788.98 3821.65 3841.38 3863.2 3917.61 4043.33 4129.13 4133.72 4046.96 3878.63 3720.68 3576.66 3456.52 3369.37 3315.23 3293.64 3302.01 3333.67 3383.08 3442.16 3504.17 3562.28 3609.41 3643.43 3665.46 3677.14 3684.96 3698.55 3734.95 3818.35 3972.99 4071.38 4101.64 4015.76 3855.33 3713.17 3590.04 3490.38 3419.04 3380.11 3369.06 3381.97 3416.63 3462.64 3510.14 3552.06 3581.66 3596.08 3596.04 3588.03 3579.27 3579.67 3600.76 3656.3 3761.93 3934.57 4040.04 4088.41 4002.12 3843.44 3710.46 3601.59 3516.93 3459.25 3431.57 3430.42 3449.39 3483.64 3522.98 3556.6 3577.19 3581.24 3568.96 3545.12 3520.53 3504.66 3507.68 3540.23 3612.08 3733.01 3916.28 4025.49 4084.09 3996.79 3838.37 3710.76 3610.97 3537.58 3491.57 3472.63 3478.03 3501.88 3533.84 3564.39 3584.62 3586.82 3569.38 3537.39 3499.25 3467.14 3452.02 3462.08 3505.16 3588.94 3720.87 3910.68 4021.87 4082.95 3994.69 3836.87 3713.57 3620.35 3554.78 3517.11 3506.26 3517.27 3542.86 3571.65 3592.03 3597.22 3583.27 3550.12 3505.38 3459.55 3426.59 3416.37 3433.89 3486.11 3578.44 3716.63 3909.03 4020.14 4083.2 3994.36 3836.93 3716.99 3629.57 3571.15 3541.15 3537.29 3551.04 3575.45 3599.39 3609.1 3600.83 3572.52 3526.71 3473.46 3425.63 3395.17 3389.74 3415.01 3475.52 3574.42 3715.82 3908.72 4019.47 4083.72 3995.37 3839.62 3722.78 3641.02 3590.74 3568.68 3569.78 3583.87 3604.28 3620.08 3619.17 3597.73 3556.06 3500.03 3440.93 3393.24 3366.3 3366.65 3399.24 3467.35 3572.5 3716.61 3910.64 4022.08 4085.65 3998.42 3845.68 3734.12 3660.09 3618.81 3604.1 3608.52 3621.63 3634.49 3637.73 3621.96 3584.39 3528.9 3465.3 3404.28 3357.54 3336.04 3343.77 3383.31 3458.65 3569.88 3717.82 3913.07 4024.53 4091.13 4005.74 3858.28 3756.47 3693.9 3662.56 3654.45 3659.01 3665.63 3664.75 3648.3 3612.14 3556.86 3488.81 3419.68 3358.36 3316.02 3301.34 3315.14 3363.88 3449.45 3568.09 3721.12 3917.72 4028.96 4102.49 4021.31 3885.14 3798.67 3750.96 3729.75 3724.51 3722.17 3713.38 3690.28 3648.03 3588.18 3514.46 3435.3 3360.51 3300.06 3264.28 3256.94 3279.38 3339.82 3438.17 3567.8 3729.5 3929.47 4040.39 4129.33 4054.85 3936.49 3870.91 3840.51 3826.76 3814.56 3793.8 3757.53 3701.21 3628.2 3543.73 3451.94 3363.46 3286.5 3229.55 3200.32 3201.48 3236.86 3310.11 3421.87 3568.32 3745.74 3954.87 4067.73 4180.6 4117.43 4024.54 3985.44 3970.65 3953.41 3918.55 3862.43 3784.84 3688.41 3582.38 3473.7 3367.69 3272.97 3198.05 3147.74 3127.06 3138.38 3185.84 3272.88 3401.27 3570.37 3772.57 4001.84 4122.55 4263.26 4216.83 4159.14 4147.46 4134.21 4091.53 4015.35 3909.93 3784.02 3648.73 3512.24 3382.94 3268.79 3173.61 3102.78 3060.06 3048.29 3068.55 3126.07 3225.5 3370.23 3566.27 3806.9 4073.8 4211.12 4374.34 4351.89 4336.49 4337.3 4297.96 4207.85 4077.17 3921.58 3754.7 3587.32 3429.67 3288.37 3169.66 3078.65 3012.46 2973.01 2967.87 2993.96 3056.95 3164.42 3320 3536.91 3824.43 4160.52 4334.52 4449.88 4460.02 4488.75 4485.21 4407.92 4273.69 4100.75 3911.34 3719.04 3532.67 3364.27 3218.64 3099.38 3007.63 2942.77 2905.56 2898.31 2922.55 2984.45 3090.34 3243.72 3461.16 3778.44 4209.02 4450.11 4331.11 4393.12 4499.79 4523.76 4440.91 4292.72 4107.03 3906.51 3709.33 3523.64 3355.76 3213.02 3095.79 3001.05 2932.33 2889.64 2869.5 2879.62 2924.99 3008.9 3139.01 3330.5 3626.32 4104.1 4400.59 4003.25 4206.36 4451.43 4460.84 4359.24 4208.74 4040.62 3869.22 3709.19 3564.18 3432.9 3317.06 3215.25 3127.99 3056.53 3001.67 2965.04 2951.94 2968.97 3020.62 3115.59 3269.06 3513.57 3927.58 4190.65 3808.61 4119.14 4446.96 4410.48 4278.98 4123.79 3972.26 3830.51 3703.86 3593.74 3494.99 3402.19 3314.62 3234.57 3164.7 3105.25 3059.89 3033.72 3037.16 3074.03 3150.92 3286.03 3506.86 3859.77 4075.46 
CELL_DATA 13824
SCALARS stress float 1
LOOKUP_TABLE default
34.6022 38.9971 39.3439 38.6645 37.6962 36.7759 36.0516 35.4222 34.8672 34.5196 34.1517 33.8606 33.4294 32.9983 32.4814 32.0019 31.5187 31.0855 30.8193 30.743 30.8559 31.1792 32.0043 33.3744 43.0424 44.3283 44.0561 42.6295 40.7017 38.6857 36.7471 34.9612 33.4531 32.0944 31.0074 30.119 29.3538 28.8719 28.5195 28.2193 28.1776 28.3155 28.6116 29.1815 30.18 31.6138 34.1045 39.4769 43.9056 44.5024 44.6545 43.599 41.9166 39.8775 37.7361 35.629 33.6812 32.0303 30.6068 29.5407 28.6951 28.1494 27.8577 27.7647 27.8807 28.2999 28.9395 29.9755 31.4553 33.6683 37.3063 41.6429 42.1219 42.1038 42.6785 42.5269 41.586 40.1189 38.3175 36.3948 34.6001 32.9372 31.4425 30.2341 29.3563 28.7538 28.3766 28.2712 28.5013 28.9048 29.6873 30.8539 32.5781 34.9393 38.0356 40.991 40.4997 39.7477 39.9478 40.2324 40.029 39.3659 38.2707 36.9773 35.4601 34.0026 32.6954 31.5304 30.5215 29.8232 29.3849 29.2245 29.2661 29.7236 30.4752 31.5709 33.1411 35.2543 37.5639 39.732 39.3907 38.1299 37.8211 37.954 38.0564 37.9554 37.5756 36.8918 35.9847 34.9543 33.8694 32.7856 31.864 31.1102 30.5518 30.2497 30.2263 30.4986 31.1298 32.1152 33.4471 35.1313 36.9231 38.7291 38.6587 37.1474 36.4211 36.2178 36.329 36.4792 36.5068 36.3679 36.0397 35.4808 34.7512 33.9359 33.0892 32.3066 31.6887 31.2792 31.1305 31.2701 31.7273 32.5803 33.6694 34.9628 36.4315 38.0551 38.2721 36.5747 35.5987 35.1277 35.052 35.2073 35.4497 35.6286 35.7393 35.6373 35.2961 34.7358 34.0575 33.3823 32.7159 32.1924 31.9666 31.9836 32.2537 32.9065 33.7685 34.8887 36.1484 37.6967 38.0731 36.2828 35.1218 34.4906 34.2255 34.2989 34.5481 34.9278 35.2569 35.4971 35.5021 35.2697 34.7879 34.2133 33.5633 33.0318 32.6819 32.5667 32.7389 33.175 33.8811 34.8178 36.0124 37.547 38.0375 36.1654 34.9123 34.1039 33.7201 33.6637 33.8921 34.3007 34.8346 35.2405 35.5206 35.4873 35.2761 34.7797 34.2116 33.6623 33.2369 33.0367 33.0823 33.4056 33.9883 34.8312 35.9738 37.477 38.022 36.1465 34.8194 33.9229 33.4202 33.2822 33.4391 33.8538 34.3635 34.9415 35.3752 35.6083 35.5558 35.1998 34.7092 34.133 33.6943 33.4239 33.364 33.5885 34.0873 34.8548 35.9508 37.4643 38.0223 36.1477 34.7782 33.8356 33.2592 33.0281 33.0969 33.4771 34.0252 34.6448 35.2217 35.5672 35.661 35.4953 35.0606 34.5316 34.0661 33.7221 33.5896 33.736 34.1552 34.8876 35.9525 37.4489 38.0294 36.1363 34.7939 33.7805 33.1299 32.8447 32.8572 33.1837 33.7243 34.3614 34.9897 35.5142 35.7219 35.6786 35.3361 34.8716 34.3797 34.0044 33.8196 33.8837 34.238 34.8991 35.95 37.4546 38.0489 36.1764 34.784 33.7512 33.0201 32.6435 32.6182 32.81 33.3056 34.0006 34.716 35.3317 35.7039 35.8302 35.6074 35.2327 34.7459 34.363 34.0907 34.068 34.3408 34.9578 35.949 37.4607 38.0217 36.2021 34.7792 33.7016 32.8898 32.4514 32.2946 32.4725 32.9123 33.563 34.3136 35.0682 35.612 35.8904 35.8472 35.6002 35.2031 34.7957 34.4806 34.3732 34.5307 35.06 35.9918 37.4656 38.1067 36.2721 34.7982 33.6184 32.751 32.1413 31.911 32.0367 32.3858 33.0174 33.8066 34.6172 35.3348 35.8257 36.0399 35.9834 35.7491 35.4012 35.043 34.8613 34.8972 35.2821 36.1064 37.5025 38.2837 36.3893 34.8505 33.5616 32.5431 31.8021 31.4116 31.4276 31.7096 32.2837 33.091 33.9645 34.8474 35.6087 36.1169 36.3898 36.3935 36.1957 35.9024 35.638 35.5351 35.7455 36.4074 37.7061 38.614 36.6766 34.9906 33.4641 32.2211 31.3376 30.8572 30.7344 30.9377 31.4071 32.1647 33.0643 34.0919 35.0967 35.9088 36.59 37.0047 37.124 37.0478 36.8119 36.5576 36.5338 36.9462 38.0553 39.2225 37.193 35.1689 33.3352 31.8619 30.8492 30.1992 29.9428 30.047 30.4679 31.1005 31.9867 33.0739 34.2368 35.441 36.5067 37.4049 38.0478 38.3785 38.3774 38.1005 37.8035 37.8731 38.7372 40.1872 37.796 35.254 33.0307 31.3422 30.2168 29.4895 29.1272 29.1364 29.4209 30.0169 30.8331 31.9197 33.1572 34.5202 36.0255 37.4553 38.6444 39.6191 40.1249 40.1559 39.7609 39.3456 39.7362 41.503 38.3046 34.9121 32.3754 30.6391 29.471 28.7086 28.3463 28.2527 28.5223 29.0396 29.8034 30.7635 32.0981 33.5352 35.1941 36.9515 38.7056 40.3041 41.5267 42.2066 42.1455 41.4657 41.2129 42.5222 37.5502 33.5993 31.1594 29.633 28.5734 27.9691 27.673 27.6299 27.8978 28.3653 29.1055 30.0868 31.3859 32.7735 34.5087 36.3848 38.3613 40.2637 41.9983 43.3145 43.9289 43.5384 42.7461 41.1646 34.6763 31.4977 29.6848 28.5272 27.874 27.5762 27.5206 27.7613 28.2039 28.7668 29.5496 30.514 31.6556 32.9092 34.443 36.1033 37.9055 39.8044 41.5996 43.142 44.0185 43.6805 42.1681 35.5826 31.5012 29.6498 28.7042 28.2242 28.1277 28.3434 28.8232 29.4912 30.3342 31.173 32.1427 33.0278 34.0213 34.8927 35.8943 36.9552 38.1241 39.3767 40.7324 42.0917 43.0426 42.8973 38.4155 32.4938 35.7059 35.1668 33.8002 32.3568 31.0341 29.995 29.1352 28.4957 28.0264 27.7473 27.4783 27.3735 27.4161 27.3348 27.5886 27.8711 28.3693 29.0763 29.9974 31.2868 32.9295 35.1698 37.9543 35.0578 36.2111 37.1684 36.8167 35.7042 34.1949 32.5807 30.9803 29.5439 28.2876 27.2656 26.4596 25.9544 25.656 25.7024 25.8665 26.3036 26.9481 27.8333 28.9908 30.5 32.3791 35.294 41.1956 39.0938 38.7986 38.6056 37.7665 36.4349 34.7877 33.0266 31.2497 29.5963 28.2119 26.9628 26.0078 25.4545 25.0675 25.0059 25.1815 25.6317 26.3836 27.3838 28.8094 30.5818 33.1178 36.9578 42.0891 39.6953 38.6246 38.2134 37.4557 36.2757 34.7938 33.1926 31.5211 29.9666 28.5549 27.3498 26.3676 25.6768 25.3063 25.1315 25.2658 25.6634 26.4133 27.4898 28.9595 30.9155 33.6119 36.9313 40.6609 38.7621 37.2472 36.6587 36.1348 35.4268 34.3558 33.1132 31.7908 30.4167 29.194 28.049 27.1636 26.3733 25.9661 25.6794 25.726 26.1273 26.753 27.7654 29.1249 30.9859 33.3099 36.0326 38.7653 37.8116 36.008 35.0953 34.5766 34.1068 33.4995 32.6875 31.7924 30.7978 29.7768 28.8238 28.0088 27.2499 26.7633 26.4715 26.4049 26.634 27.2018 28.0491 29.3217 30.9279 32.9032 35.0287 37.36 37.2044 35.1507 33.9376 33.2735 32.8156 32.4575 32.0152 31.4882 30.9038 30.2014 29.487 28.7598 28.1608 27.5936 27.2599 27.1249 27.2654 27.7067 28.4259 29.5244 30.9109 32.5452 34.3496 36.439 36.8412 34.6547 33.1998 32.3101 31.8 31.4792 31.2435 31.0455 30.7688 30.3985 29.9372 29.4066 28.8513 28.3803 27.9738 27.8005 27.8488 28.1621 28.7851 29.7014 30.8814 32.2915 33.946 35.9192 36.6502 34.3716 32.7761 31.727 31.0768 30.7091 30.5704 30.5054 30.4649 30.3679 30.1796 29.8714 29.4371 29.0206 28.6354 28.4003 28.3378 28.5933 29.0569 29.8356 30.9126 32.1792 33.6995 35.6528 36.6013 34.2466 32.564 31.3676 30.6049 30.1646 29.9898 30.0469 30.1285 30.2431 30.2398 30.1231 29.8445 29.5186 29.1767 28.9001 28.8092 28.9474 29.3114 29.9782 30.9404 32.1452 33.5899 35.5483 36.5711 34.2006 32.4497 31.1853 30.315 29.796 29.5974 29.6249 29.7937 30.0335 30.2078 30.246 30.1644 29.8887 29.5909 29.3335 29.1982 29.27 29.5666 30.1284 30.9793 32.1217 33.5869 35.5057 36.5654 34.2103 32.4287 31.0826 30.1424 29.5244 29.2736 29.2636 29.4837 29.76 30.0715 30.2549 30.2711 30.1431 29.918 29.6974 29.5237 29.5303 29.7651 30.2678 31.0507 32.1301 33.5714 35.4857 36.5535 34.1916 32.4189 31.0312 30.028 29.3484 29.0142 28.9714 29.17 29.494 29.8649 30.2039 30.3526 30.3387 30.1816 29.9966 29.8306 29.8032 29.9749 30.3927 31.1253 32.1753 33.5911 35.5175 36.5745 34.2224 32.4038 30.9983 29.9165 29.1901 28.7692 28.6818 28.8383 29.2006 29.6051 30.038 30.3387 30.4976 30.4049 30.313 30.2008 30.1282 30.2277 30.5848 31.2441 32.2148 33.6026 35.5353 36.5962 34.2824 32.4571 30.9641 29.8233 28.9912 28.5214 28.33 28.4711 28.8144 29.298 29.7736 30.2176 30.5107 30.6437 30.6486 30.57 30.5222 30.5867 30.8673 31.4186 32.3402 33.6811 35.5701 36.7394 34.3876 32.498 30.9614 29.7541 28.7782 28.2136 27.9453 28.0046 28.3294 28.826 29.3811 29.9413 30.4098 30.7462 30.9405 31.0104 31.0321 31.0942 31.3039 31.7687 32.5524 33.7871 35.6409 36.9979 34.6126 32.6464 30.9777 29.5904 28.5312 27.8544 27.5069 27.5739 27.7708 28.2505 28.8473 29.5253 30.1625 30.7226 31.1663 31.4603 31.647 31.7992 31.9786 32.3237 32.9588 34.0352 35.7983 37.5232 35.0404 32.899 31.0375 29.4797 28.2664 27.4989 27.045 26.9427 27.1131 27.5819 28.1988 28.9422 29.7524 30.5322 31.2378 31.8582 32.3124 32.6365 32.8964 33.1729 33.6186 34.5278 36.104 38.4029 35.7115 33.2699 31.0679 29.3193 27.9859 27.0472 26.5412 26.29 26.4588 26.8074 27.4311 28.2439 29.1402 30.1183 31.1185 32.085 32.9106 33.5872 34.0394 34.333 34.6518 35.2717 36.6679 39.7156 36.6251 33.6594 31.0761 29.118 27.641 26.6363 26.0152 25.7407 25.726 26.0967 26.6178 27.4503 28.4078 29.5558 30.77 32.0617 33.265 34.3194 35.1845 35.7207 36.0093 36.3258 37.4173 41.5903 37.51 33.7563 30.8617 28.8589 27.3567 26.2815 25.5748 25.2399 25.2252 25.4446 25.965 26.7909 27.7639 28.9728 30.3486 31.8231 33.3084 34.7494 35.9718 36.8676 37.3232 37.4447 38.1026 43.1988 37.3636 33.0865 30.378 28.518 27.0694 26.0667 25.4619 25.0765 25.0461 25.2169 25.6296 26.3773 27.3728 28.5672 30.0158 31.5978 33.24 34.8616 36.2538 37.297 37.7792 37.6269 37.5988 42.6704 35.6523 32.1271 29.943 28.3177 27.1588 26.2632 25.7204 25.4097 25.3409 25.509 25.8947 26.5913 27.4922 28.6138 29.9234 31.3884 32.9883 34.5879 36.0182 37.0417 37.3047 36.2777 34.7768 41.9341 36.651 33.334 31.066 29.4766 28.346 27.5605 27.0408 26.7893 26.7395 26.8516 27.0197 27.3306 27.7738 28.3324 29.0463 29.8885 30.9673 32.2319 33.706 35.2323 36.5562 36.9177 33.3161 31.5212 33.3297 32.2128 30.5578 28.8594 27.4175 26.2026 25.2138 24.4336 23.9052 23.5245 23.3246 23.3014 23.3892 23.6244 24.0708 24.6944 25.4686 26.4959 27.8611 29.5162 31.7003 34.5249 38.082 31.9913 32.8662 33.2868 32.6335 31.3385 29.7987 28.1988 26.6877 25.2852 24.1803 23.3281 22.6771 22.4551 22.4394 22.7239 23.3016 24.1019 25.2032 26.5211 28.1608 30.2459 32.732 36.2129 41.7065 34.4878 33.9923 33.8668 33.2624 32.1463 30.6431 29.0208 27.4017 25.8543 24.5118 23.4169 22.6186 22.2188 22.0708 22.2626 22.7349 23.5246 24.5993 26.0776 27.8692 30.1249 32.9265 36.9954 42.3091 36.0529 34.7046 33.916 33.0597 31.9317 30.5802 29.0815 27.6052 26.1424 24.8477 23.7431 22.948 22.3982 22.1344 22.204 22.5759 23.3037 24.3228 25.7237 27.555 29.8493 32.78 36.5284 40.9056 36.3058 34.4075 33.2491 32.3038 31.2625 30.1262 28.8829 27.6074 26.3725 25.2239 24.2195 23.4313 22.8623 22.5173 22.4469 22.7534 23.3624 24.317 25.605 27.2531 29.4329 32.1509 35.3205 38.7034 36.0415 33.8357 32.3624 31.3023 30.3885 29.4703 28.498 27.5216 26.5252 25.608 24.7303 23.9997 23.4924 23.1035 22.9795 23.1582 23.5745 24.4381 25.5987 27.11 29.072 31.3862 33.9948 36.7801 35.7281 33.3026 31.5977 30.4145 29.5024 28.7411 27.9934 27.2669 26.5447 25.8431 25.165 24.5402 24.0394 23.6767 23.5082 23.5549 23.9225 24.6212 25.6679 27.0288 28.7251 30.749 33.0345 35.5364 35.5441 32.9815 31.0783 29.7376 28.7592 28.0282 27.4438 26.9365 26.4432 25.9646 25.4816 25.0105 24.5957 24.2301 24.02 24.073 24.3369 24.8662 25.7924 27.0175 28.5528 30.3244 32.4088 34.7565 35.4414 32.765 30.7651 29.276 28.2168 27.455 26.9442 26.5586 26.2611 25.9637 25.6726 25.3286 25.0124 24.7098 24.5225 24.4996 24.6871 25.1785 25.9947 27.0496 28.4321 30.0995 32.019 34.3487 35.3861 32.6946 30.5974 28.9848 27.8319 27.0371 26.5077 26.1933 26.0027 25.8658 25.7372 25.5468 25.3465 25.1081 24.9491 24.8911 25.0251 25.425 26.1215 27.1132 28.3826 29.9688 31.8825 34.1138 35.3898 32.6515 30.5189 28.8278 27.5869 26.7258 26.1821 25.8534 25.7435 25.7035 25.7189 25.6495 25.5631 25.4067 25.273 25.2304 25.3306 25.6777 26.299 27.1784 28.4098 29.8788 31.731 34.0288 35.3878 32.6581 30.4918 28.759 27.4382 26.4986 25.9015 25.5866 25.4827 25.5295 25.6174 25.6613 25.6582 25.6075 25.5635 25.5198 25.6098 25.9061 26.4557 27.275 28.4387 29.891 31.7254 34.0214 35.4255 32.6824 30.4833 28.7164 27.3439 26.3397 25.6866 25.3218 25.2222 25.3207 25.4698 25.6254 25.7332 25.7773 25.7838 25.7991 25.8868 26.1488 26.6419 27.3982 28.4875 29.9066 31.7187 34.0052 35.4661 32.7298 30.5076 28.6942 27.2734 26.2076 25.4672 25.0737 24.9682 25.0389 25.2596 25.4862 25.7113 25.8857 25.9699 26.0418 26.1738 26.4111 26.8615 27.5652 28.579 29.945 31.7392 34.0088 35.589 32.8378 30.5776 28.7053 27.2167 26.0537 25.273 24.7908 24.6515 24.7341 24.9959 25.2981 25.6316 25.8976 26.1091 26.2838 26.4733 26.7283 27.1625 27.8032 28.7417 30.0424 31.7686 34.0423 35.7912 33.0352 30.7219 28.7892 27.2103 25.9346 25.0588 24.5052 24.316 24.3912 24.6299 25.0048 25.4218 25.8199 26.2079 26.5135 26.8191 27.1462 27.5481 28.1508 28.999 30.2115 31.8617 34.0814 36.2227 33.4099 31.0075 28.9233 27.1691 25.7909 24.807 24.2258 23.9361 23.9416 24.1877 24.6168 25.1216 25.6487 26.1878 26.6688 27.1362 27.5942 28.0665 28.6412 29.4083 30.4842 32.0321 34.1663 36.9698 34.0426 31.4025 29.1336 27.201 25.6899 24.6081 23.8693 23.535 23.4783 23.687 24.0979 24.6961 25.3527 26.0312 26.7627 27.4298 28.0652 28.6892 29.3126 30.014 30.9402 32.3305 34.3317 38.2132 34.969 32.0113 29.3965 27.2682 25.6187 24.4068 23.5696 23.0792 22.9754 23.123 23.5755 24.1729 24.9254 25.7951 26.709 27.6368 28.515 29.3451 30.0847 30.8171 31.6125 32.7641 34.5616 40.0061 36.2057 32.674 29.6623 27.3925 25.6163 24.3056 23.3012 22.777 22.5846 22.6265 22.9773 23.6105 24.4384 25.4216 26.5229 27.6794 28.8403 29.9085 30.8663 31.6696 32.3636 33.264 34.7726 42.2498 37.3604 33.1463 29.9554 27.518 25.665 24.2592 23.2513 22.5926 22.2807 22.2826 22.5498 23.1131 23.9986 25.0537 26.2524 27.6257 28.9888 30.2936 31.4639 32.3491 32.954 33.4661 34.5209 43.7976 37.6351 33.1008 30.0147 27.6634 25.8707 24.4601 23.4044 22.6261 22.2089 22.1325 22.3444 22.8392 23.5956 24.6682 25.9601 27.4321 28.9572 30.4296 31.715 32.6653 33.0561 32.9899 33.2719 43.52 36.9819 32.9745 30.185 27.9986 26.2763 24.915 23.8818 23.1233 22.6544 22.4068 22.4799 22.7667 23.4036 24.3129 25.4376 26.7814 28.2511 29.7937 31.2425 32.3912 32.9046 32.3079 31.2051 42.5458 36.6951 32.7937 30.0594 28.0216 26.4923 25.2772 24.4483 23.7855 23.3782 23.1894 23.1597 23.2999 23.5646 24.0082 24.6911 25.5616 26.6735 27.9512 29.4878 31.0817 32.5406 33.3 30.7413 30.9102 31.4592 29.8582 27.9958 26.1307 24.5039 23.13 22.0102 21.1427 20.5044 20.1054 19.9138 19.859 20.0363 20.3884 20.9649 21.7912 22.8435 24.1014 25.678 27.5687 29.9911 33.0825 37.2477 30.3627 30.8074 30.6495 29.5723 28.053 26.3632 24.6936 23.154 21.7866 20.6624 19.9091 19.4225 19.2385 19.412 19.891 20.6871 21.7107 23.0513 24.6066 26.6026 29.0137 31.933 35.8373 40.9356 31.9411 31.1464 30.7135 29.865 28.5673 27.0332 25.3975 23.8014 22.3317 21.0673 20.1102 19.4792 19.1558 19.2082 19.6272 20.2974 21.4469 22.8007 24.548 26.6464 29.21 32.3208 36.3886 41.4784 33.2158 31.6255 30.6184 29.5826 28.3895 26.9901 25.5177 24.0495 22.6869 21.4439 20.4481 19.7739 19.3444 19.2496 19.5149 20.156 21.1083 22.4888 24.0669 26.2209 28.7738 31.9455 35.9111 40.5124 33.901 31.7509 30.2667 29.0232 27.8275 26.5914 25.2925 24.0388 22.824 21.7295 20.7954 20.1192 19.6399 19.4944 19.6042 20.1148 20.9891 22.1473 23.7171 25.7096 28.1594 31.1542 34.6766 38.6341 34.1763 31.6745 29.8253 28.3926 27.171 26.0302 24.9263 23.8724 22.8869 21.9693 21.1491 20.5153 20.0682 19.838 19.9286 20.2382 20.9896 22.0588 23.49 25.3762 27.5781 30.2715 33.3305 36.6942 34.277 31.5494 29.4339 27.8356 26.5487 25.474 24.5172 23.6353 22.8439 22.1054 21.4409 20.8934 20.4757 20.227 20.2367 20.5379 21.1468 22.0614 23.3382 25.0363 27.026 29.464 32.1803 35.1119 34.3402 31.4664 29.1639 27.3886 26.0314 24.9538 24.0859 23.3594 22.7205 22.1673 21.6634 21.2157 20.8708 20.6536 20.6182 20.8404 21.3508 22.1382 23.3465 24.8244 26.6992 28.857 31.3491 34.0806 34.3984 31.4273 28.9871 27.1022 25.6549 24.5395 23.7095 23.0539 22.5609 22.1442 21.7792 21.4606 21.191 20.9912 20.9665 21.141 21.5528 22.2918 23.3491 24.7204 26.4536 28.5028 30.8235 33.4805 34.4395 31.4076 28.9011 26.9256 25.3831 24.2325 23.3824 22.7908 22.3661 22.0609 21.8197 21.5966 21.4231 21.3022 21.2664 21.4169 21.784 22.4394 23.4124 24.695 26.312 28.2489 30.507 33.136 34.5066 31.418 28.8882 26.8409 25.2092 24.0024 23.1317 22.5537 22.1848 21.9492 21.7949 21.6593 21.5871 21.5279 21.5167 21.6655 22.0075 22.6091 23.5035 24.7347 26.2447 28.12 30.346 32.9773 34.5501 31.437 28.8979 26.7999 25.1216 23.8338 22.9201 22.3154 21.976 21.7861 21.7106 21.6946 21.6935 21.7002 21.743 21.9103 22.2092 22.7837 23.6156 24.7462 26.2462 28.0762 30.2727 32.9145 34.5999 31.531 28.9467 26.7939 25.0717 23.7391 22.7378 22.1182 21.7542 21.6215 21.6011 21.661 21.7325 21.8178 21.9298 22.1141 22.4123 22.9454 23.7407 24.8369 26.2657 28.0642 30.2307 32.8699 34.7298 31.6338 29.0233 26.8056 25.0196 23.6353 22.595 21.9197 21.545 21.4135 21.4401 21.5557 21.7229 21.8888 22.0789 22.3165 22.6493 23.1602 23.9071 24.9483 26.3192 28.0785 30.2065 32.8246 34.8865 31.7892 29.1822 26.9052 25.024 23.5534 22.4661 21.712 21.3011 21.1855 21.2441 21.4138 21.6472 21.917 22.2 22.4983 22.8897 23.3969 24.1331 25.1055 26.4186 28.0895 30.2049 32.8177 35.2545 32.086 29.3934 27.0499 25.0797 23.5188 22.3259 21.5173 21.062 20.9006 20.9484 21.1879 21.5195 21.877 22.2601 22.6739 23.1456 23.6999 24.4208 25.3479 26.5727 28.1745 30.2325 32.7647 35.8677 32.617 29.7553 27.2442 25.2013 23.494 22.2214 21.2926 20.7849 20.5798 20.6304 20.8808 21.2921 21.7566 22.2717 22.8048 23.3991 24.0465 24.7926 25.7009 26.8507 28.3414 30.2862 32.7387 36.8765 33.468 30.3594 27.6014 25.3874 23.5296 22.1568 21.1402 20.5211 20.2421 20.2855 20.5326 20.9863 21.5577 22.1942 22.9167 23.642 24.4137 25.254 26.1511 27.2404 28.5986 30.3651 32.7068 38.3659 34.566 31.0818 28.0838 25.6254 23.665 22.1426 21.0182 20.326 19.969 19.9025 20.1446 20.5863 21.2516 22.0417 22.9262 23.8428 24.7727 25.731 26.7013 27.7466 28.9317 30.4822 32.601 40.3013 35.8412 31.852 28.5737 25.9733 23.8713 22.2271 21.0086 20.172 19.7034 19.5778 19.7639 20.2203 20.939 21.792 22.8285 23.9513 25.0872 26.2363 27.2985 28.3017 29.3121 30.5516 32.3844 42.2446 36.9232 32.4891 29.0349 26.3584 24.1614 22.4676 21.1395 20.1066 19.6078 19.3099 19.4405 19.8506 20.5491 21.4792 22.6588 23.9231 25.2509 26.5926 27.7947 28.8008 29.625 30.4333 31.7907 43.1963 37.2316 32.7149 29.3488 26.6924 24.5085 22.7761 21.3533 20.3353 19.6263 19.2899 19.2395 19.5664 20.1765 21.1268 22.295 23.6923 25.1541 26.66 28.0537 29.1199 29.7962 30.0643 30.6654 42.8849 36.9317 32.502 29.2954 26.7808 24.6734 23.0166 21.6724 20.6331 19.8726 19.4964 19.3225 19.4906 19.9897 20.7185 21.7833 23.072 24.5662 26.1447 27.7093 29.0266 29.9525 29.8439 29.1949 41.7088 35.4206 31.3781 28.4043 26.1422 24.3621 22.9524 21.8459 20.9854 20.3962 19.9901 19.8295 19.8466 20.0943 20.5508 21.1853 22.1194 23.2875 24.6963 26.312 28.0352 29.653 30.771 29.1838 30.6048 30.0798 28.0556 25.9344 23.916 22.1319 20.5791 19.3066 18.2933 17.5602 17.0617 16.8256 16.7929 17.013 17.5053 18.206 19.1408 20.3517 21.8354 23.5511 25.6743 28.2444 31.5115 36.1127 29.2528 29.1696 28.4781 27.0203 25.3065 23.5148 21.7634 20.1801 18.8175 17.7564 16.9419 16.5476 16.4141 16.6663 17.2556 18.1606 19.3475 20.823 22.6734 24.8341 27.4318 30.6087 34.6369 39.37 30.2282 29.1316 28.3085 27.1507 25.6543 23.9996 22.308 20.7054 19.2697 18.0624 17.1435 16.6212 16.3583 16.5185 17.0891 18.0083 19.2257 20.8251 22.7466 25.0894 27.8724 31.1967 35.1641 40.0177 31.2716 29.4092 28.0801 26.8091 25.4145 23.9099 22.3783 20.8988 19.5318 18.3655 17.4393 16.8264 16.4617 16.5757 17.0128 17.7906 18.9783 20.5303 22.4416 24.744 27.5219 30.8541 34.7946 39.5652 32.0461 29.6446 27.8527 26.3416 24.9381 23.5556 22.1812 20.8702 19.6623 18.5668 17.7065 17.0877 16.7356 16.6921 17.0345 17.7255 18.7904 20.2063 22.0242 24.2757 26.9695 30.122 33.8888 38.1962 32.6013 29.8381 27.6768 25.9215 24.4424 23.0944 21.854 20.6938 19.6589 18.748 17.9501 17.3763 17.0216 16.9254 17.1523 17.7212 18.6812 19.9704 21.6581 23.7877 26.2618 29.2763 32.74 36.4949 32.9908 29.9671 27.5469 25.5917 23.9993 22.6647 21.5056 20.4812 19.5859 18.8099 18.1468 17.6476 17.3245 17.2027 17.3573 17.8062 18.6668 19.8303 21.3788 23.3449 25.6913 28.4585 31.5793 34.9872 33.3096 30.1076 27.4639 25.3734 23.6752 22.2836 21.164 20.2541 19.4641 18.8233 18.2837 17.8689 17.5935 17.4841 17.5829 17.9828 18.7295 19.7834 21.2165 23.05 25.2416 27.7793 30.6583 33.7995 33.5561 30.2318 27.4854 25.2255 23.4194 21.9997 20.8739 20.0138 19.3212 18.7908 18.3714 18.0273 17.7957 17.7366 17.8264 18.1897 18.8252 19.8124 21.169 22.8534 24.923 27.3166 30.0443 33.0331 33.7308 30.333 27.5127 25.1544 23.2785 21.7893 20.6524 19.7857 19.1724 18.7147 18.3742 18.143 17.9914 17.9394 18.0542 18.3808 18.9683 19.8776 21.12 22.7463 24.6854 27.0079 29.5905 32.5797 33.8728 30.4281 27.5608 25.1564 23.1965 21.6439 20.4523 19.6005 19.0112 18.6151 18.3722 18.1875 18.1011 18.1034 18.2439 18.5517 19.1182 19.9501 21.1645 22.6861 24.5819 26.7627 29.3524 32.262 33.9515 30.5419 27.6088 25.1577 23.1452 21.5431 20.3131 19.441 18.8548 18.4997 18.2962 18.2045 18.1925 18.2406 18.4131 18.7414 19.263 20.071 21.1915 22.6846 24.4841 26.6629 29.211 32.1074 34.132 30.6517 27.7128 25.2365 23.1465 21.4745 20.2061 19.2948 18.7079 18.3604 18.2069 18.1719 18.2188 18.3429 18.5542 18.8878 19.4029 20.1835 21.2648 22.6902 24.4379 26.5761 29.1172 32.0322 34.2916 30.8121 27.8675 25.3364 23.2032 21.4377 20.1012 19.1541 18.5431 18.207 18.0814 18.1018 18.2111 18.3978 18.6637 19.0388 19.5573 20.3446 21.3571 22.7344 24.4332 26.536 29.0305 31.9424 34.6228 31.1146 28.0807 25.4628 23.2585 21.4331 20.0236 19.03 18.3723 18.0384 17.9349 17.9797 18.1743 18.429 18.7657 19.1957 19.7458 20.4948 21.5096 22.8128 24.4681 26.5065 28.9405 31.8626 35.0934 31.5243 28.4025 25.6616 23.3678 21.4677 19.9844 18.9217 18.2179 17.84 17.736 17.8283 18.0744 18.3887 18.8289 19.3267 19.9389 20.7278 21.7031 22.9444 24.5349 26.4863 28.8685 31.7267 35.7842 32.1774 28.8548 26.0201 23.5635 21.5724 19.9739 18.8397 18.0334 17.6315 17.5086 17.6076 17.9085 18.3242 18.8472 19.4552 20.173 20.9899 21.9742 23.1738 24.6675 26.5041 28.772 31.571 36.9907 33.0277 29.5159 26.4321 23.8562 21.7089 20.0455 18.7802 17.8905 17.4045 17.2663 17.3622 17.6934 18.2163 18.8424 19.5499 20.3641 21.2771 22.3142 23.4861 24.8679 26.5734 28.6909 31.3357 38.4737 34.1567 30.2838 26.9714 24.2287 21.9606 20.1442 18.8098 17.8186 17.2579 16.9839 17.1121 17.4259 18.0203 18.7249 19.5783 20.5474 21.5991 22.6946 23.8769 25.1813 26.6926 28.5736 31.0095 40.1945 35.2733 31.0114 27.5534 24.6544 22.2879 20.3935 18.897 17.7904 17.1122 16.7903 16.8132 17.1359 17.743 18.5651 19.5509 20.6918 21.8664 23.0926 24.3313 25.5756 26.8669 28.4391 30.5517 41.5246 36.0225 31.5991 28.0161 25.104 22.6262 20.6722 19.0825 17.8974 17.0855 16.6866 16.596 16.8683 17.4512 18.3244 19.414 20.6794 22.0411 23.4398 24.7608 25.9783 27.069 28.2201 29.8659 41.9132 36.2462 31.8304 28.2432 25.3533 22.9461 20.9094 19.334 18.0686 17.1928 16.5988 16.4351 16.6348 17.1809 18.0055 19.1335 20.4797 21.9712 23.5327 25.0311 26.3405 27.3197 27.9817 28.9094 41.5031 35.9887 31.3943 27.9676 25.1694 22.891 21.0005 19.4674 18.2619 17.3499 16.7592 16.5175 16.5674 17.0057 17.6877 18.7351 20.0274 21.5105 23.1533 24.8112 26.3796 27.5978 28.0055 27.8538 40.3803 33.8205 29.7015 26.5903 24.1859 22.2546 20.6484 19.3555 18.3336 17.5832 17.0819 16.8258 16.8201 17.0354 17.5068 18.2652 19.2728 20.5511 22.0799 23.8086 25.6848 27.5154 28.999 28.2552 30.5288 29.0334 26.6109 24.2672 22.0696 20.1175 18.4104 16.9694 15.8327 14.9509 14.3695 14.0559 14.0444 14.3336 14.8794 15.7123 16.8139 18.159 19.8047 21.6958 23.9661 26.7044 30.1188 35.0777 28.5159 27.9122 26.7103 24.9302 23.0256 21.0907 19.2699 17.635 16.2285 15.1047 14.3196 13.887 13.8104 14.1579 14.8048 15.8202 17.1698 18.7409 20.6623 22.9907 25.696 28.9852 33.1211 37.5673 29.0457 27.5947 26.3767 24.8953 23.1988 21.414 19.6561 18.0045 16.5637 15.3595 14.4703 13.9587 13.7961 14.0746 14.7177 15.7345 17.1115 18.8358 20.9378 23.3654 26.2906 29.6877 33.636 38.1664 29.8958 27.7505 26.1012 24.5367 22.9422 21.3 19.6692 18.1297 16.7558 15.5968 14.7018 14.1257 13.906 14.0837 14.6414 15.5974 16.9187 18.6522 20.7614 23.2215 26.1258 29.4892 33.3725 38.0614 30.7032 28.0474 25.9693 24.1842 22.5388 20.9667 19.4842 18.0784 16.8268 15.746 14.9031 14.3267 14.0888 14.1593 14.6264 15.5062 16.7473 18.4192 20.4233 22.8319 25.6934 28.9822 32.8601 37.3499 31.4094 28.3853 25.9382 23.9056 22.1642 20.6059 19.2024 17.9281 16.814 15.835 15.0811 14.5364 14.2529 14.2829 14.6926 15.4564 16.5738 18.0899 20.0664 22.3726 25.1103 28.2928 31.9793 36.1633 32.0383 28.6936 25.99 23.7483 21.8764 20.2886 18.9065 17.7262 16.7293 15.8694 15.2007 14.7165 14.4628 14.4642 14.7946 15.4628 16.4967 17.9193 19.7586 21.9468 24.5701 27.5532 31.0439 34.8635 32.5255 29.037 26.083 23.6751 21.6818 20.02 18.6513 17.5277 16.6155 15.8717 15.2826 14.883 14.6712 14.6509 14.9181 15.527 16.4557 17.7901 19.5396 21.6367 24.1067 26.9933 30.1803 33.7176 32.9215 29.2801 26.241 23.6792 21.5702 19.838 18.4397 17.3604 16.4861 15.825 15.3154 14.9801 14.8091 14.8146 15.0645 15.6101 16.5036 17.73 19.3423 21.371 23.7054 26.4468 29.5013 32.8809 33.24 29.509 26.3716 23.7242 21.5195 19.7076 18.2966 17.1886 16.3722 15.7641 15.3266 15.0559 14.9231 14.9739 15.2089 15.7324 16.5453 17.7339 19.2719 21.1534 23.4366 26.06 29.0382 32.3298 33.5108 29.7163 26.4856 23.7932 21.5214 19.6382 18.1827 17.0625 16.2446 15.6769 15.3017 15.0866 15.0143 15.0831 15.3514 15.8478 16.5939 17.7245 19.1997 21.0516 23.2823 25.7598 28.6725 32.02 33.6856 29.9006 26.682 23.8861 21.5333 19.6137 18.0908 16.9468 16.123 15.5883 15.257 15.088 15.0678 15.174 15.4518 15.9474 16.7043 17.7776 19.1931 20.9577 23.1273 25.6093 28.412 31.7688 33.9545 30.0854 26.8098 24.0213 21.5989 19.6178 18.0491 16.845 16.0251 15.4872 15.1902 15.0621 15.0937 15.2497 15.5564 16.0656 16.7996 17.8406 19.1963 20.9344 23.0317 25.478 28.3178 31.5564 34.2184 30.3292 27.0062 24.1534 21.6924 19.6215 18.0065 16.7746 15.9162 15.3828 15.0949 15.0101 15.0996 15.2965 15.6596 16.1762 16.9151 17.9332 19.2358 20.9164 22.9355 25.366 28.1492 31.4219 34.5264 30.7076 27.2773 24.3631 21.8176 19.7227 17.9955 16.7028 15.822 15.2686 14.9862 14.9324 15.0636 15.3264 15.7331 16.2981 17.0427 18.0377 19.3187 20.9217 22.8931 25.2362 27.9914 31.2281 35.0672 31.1676 27.6898 24.6374 22.0065 19.7821 18.037 16.6909 15.7134 15.1358 14.8609 14.8272 15.0041 15.3215 15.7905 16.4029 17.1994 18.1877 19.4197 20.9826 22.8723 25.1413 27.8041 30.9661 35.8884 31.8559 28.1883 24.9633 22.2574 19.9623 18.1113 16.6787 15.6495 14.9836 14.6965 14.6668 14.8831 15.2767 15.8135 16.5152 17.3624 18.3688 19.5998 21.1001 22.8975 25.0409 27.6206 30.6833 37.0254 32.6712 28.8058 25.392 22.6067 20.1982 18.2195 16.6774 15.5792 14.8689 14.5381 14.5113 14.75 15.192 15.8191 16.6068 17.5324 18.6095 19.839 21.2601 22.9509 24.9559 27.3889 30.3031 38.344 33.6137 29.4178 25.9199 22.961 20.4412 18.3722 16.8091 15.5814 14.811 14.3878 14.3111 14.5641 15.0638 15.7934 16.6611 17.6817 18.8588 20.1405 21.5362 23.1223 24.9413 27.1296 29.8421 39.5585 34.3766 30.0267 26.3864 23.3521 20.7875 18.659 16.9414 15.6537 14.7557 14.2666 14.1449 14.337 14.882 15.6707 16.6737 17.8206 19.1147 20.4587 21.8884 23.3731 24.9678 26.8592 29.2501 40.2529 34.7567 30.399 26.7943 23.6933 21.0934 18.9178 17.1374 15.7584 14.768 14.1879 13.955 14.149 14.6793 15.5004 16.5661 17.8639 19.2806 20.7569 22.2724 23.7081 25.1118 26.5925 28.5491 40.1514 34.8593 30.5324 26.8456 23.7997 21.2272 19.0954 17.3267 15.9264 14.8499 14.1468 13.8827 13.9813 14.4526 15.2619 16.3764 17.7308 19.2606 20.8805 22.5348 24.0681 25.3623 26.4241 27.7111 39.7285 34.5471 29.9102 26.3804 23.4527 21.0276 19.0198 17.3471 15.9909 14.9213 14.2604 13.9087 13.9039 14.293 15.0189 16.0471 17.3976 18.9559 20.6716 22.4633 24.2013 25.7535 26.6229 27.0032 38.9757 32.2736 28.0952 24.9104 22.3727 20.2726 18.5054 17.0755 15.9072 15.0429 14.4213 14.0635 14.044 14.302 14.8625 15.6882 16.8323 18.2306 19.9156 21.7882 23.8323 25.8741 27.7069 27.7833 30.69 28.2688 25.4778 22.8993 20.5248 18.4113 16.5506 14.9461 13.6238 12.6233 11.9631 11.5677 11.546 11.8743 12.5501 13.4888 14.7388 16.2382 18.006 20.0827 22.52 25.3996 28.9677 34.1724 28.0613 26.9256 25.2724 23.2183 21.1097 19.0679 17.1511 15.4294 13.9679 12.7575 11.9429 11.4855 11.4048 11.8013 12.5576 13.6432 15.0574 16.7706 18.8076 21.1757 24.0115 27.3217 31.4498 35.699 28.24 26.4404 24.8352 23.0517 21.1373 19.2229 17.3757 15.6826 14.1749 12.9595 12.0453 11.5205 11.4259 11.7718 12.5084 13.6344 15.1542 16.9578 19.1302 21.6689 24.6063 28.0478 31.9068 36.1389 28.9628 26.5305 24.5585 22.7124 20.8808 19.0783 17.3426 15.7263 14.3168 13.1162 12.2046 11.6658 11.4863 11.7593 12.467 13.56 15.0334 16.8958 19.0953 21.675 24.6618 28.0317 31.8656 36.3579 29.8179 26.8889 24.5027 22.4348 20.5626 18.8084 17.1671 15.6581 14.3252 13.2166 12.3533 11.7912 11.5988 11.8093 12.432 13.4662 14.8798 16.7504 18.9029 21.4697 24.372 27.7665 31.6595 36.2051 30.6281 27.3284 24.6164 22.3114 20.3067 18.5224 16.9424 15.519 14.2965 13.2602 12.4763 11.9343 11.7323 11.9014 12.4734 13.4143 14.747 16.4706 18.5984 21.0847 23.974 27.3432 31.1422 35.5794 31.3768 27.7979 24.8119 22.29 20.145 18.3089 16.722 15.3634 14.2074 13.2696 12.5358 12.0571 11.8784 11.9968 12.4658 13.3457 14.6297 16.2891 18.3184 20.7635 23.5795 26.8371 30.5229 34.617 32.0243 28.2389 25.0539 22.3711 20.0806 18.1518 16.5434 15.2104 14.1133 13.2429 12.5823 12.1542 11.9888 12.0899 12.5271 13.3677 14.5331 16.1234 18.0787 20.4237 23.118 26.241 29.8791 33.7838 32.5942 28.6442 25.3014 22.448 20.069 18.0733 16.4095 15.0803 14.0088 13.2 12.6083 12.2291 12.0953 12.2128 12.6207 13.3643 14.4995 15.9981 17.9032 20.1641 22.818 25.8331 29.2079 32.9097 33.0124 28.9298 25.5359 22.5941 20.1213 18.03 16.3383 14.9738 13.9214 13.1386 12.6074 12.2724 12.1724 12.2966 12.7039 13.4242 14.4662 15.9292 17.7704 19.9799 22.4976 25.4286 28.6837 32.3178 33.3834 29.2611 25.7564 22.7318 20.1684 18.0283 16.2687 14.8897 13.8323 13.0818 12.5804 12.3071 12.2268 12.3803 12.7795 13.4768 14.5042 15.8974 17.6577 19.7926 22.2861 25.15 28.3874 31.8813 33.6749 29.5042 25.9718 22.8933 20.2477 18.0665 16.2618 14.8338 13.7571 13.0158 12.5459 12.2996 12.2648 12.4488 12.8694 13.5452 14.525 15.8787 17.5848 19.6575 22.1025 24.915 27.9978 31.6033 33.9211 29.7691 26.1711 23.0799 20.3698 18.1182 16.2421 14.7852 13.6977 12.9555 12.4915 12.2844 12.2934 12.4997 12.9455 13.6157 14.5918 15.8916 17.5378 19.5464 21.9213 24.7036 27.7912 31.4136 34.2452 30.1058 26.4855 23.2718 20.508 18.1656 16.2753 14.7616 13.6518 12.8796 12.4357 12.2511 12.2937 12.5492 13.0017 13.6909 14.6495 15.9357 17.5086 19.4835 21.814 24.523 27.5734 31.1539 34.7044 30.4567 26.7047 23.5352 20.6973 18.2782 16.3188 14.7483 13.5758 12.8078 12.357 12.1902 12.2807 12.5608 13.0641 13.7721 14.7331 15.9756 17.5483 19.4233 21.6793 24.3312 27.3432 30.8908 35.2898 30.9444 27.1456 23.7899 20.8889 18.4237 16.3912 14.8027 13.5548 12.749 12.266 12.1157 12.2329 12.5756 13.1103 13.8629 14.8355 16.0722 17.5808 19.3982 21.5837 24.1521 27.1001 30.5735 36.0387 31.5804 27.605 24.0982 21.1514 18.6045 16.5074 14.8109 13.5415 12.6706 12.1801 12.0172 12.1518 12.5507 13.1474 13.9576 14.9577 16.1902 17.6628 19.4238 21.5087 23.9462 26.8019 30.1259 37.0392 32.2743 28.0496 24.5178 21.4154 18.8447 16.6283 14.8801 13.526 12.623 12.0662 11.9039 12.0665 12.4975 13.1581 14.0196 15.0882 16.3384 17.8112 19.5013 21.4624 23.7633 26.4768 29.6648 37.9185 32.8554 28.5437 24.8766 21.7485 19.0712 16.8353 15.0163 13.6241 12.5818 11.9927 11.777 11.9533 12.4091 13.1441 14.0898 15.2331 16.5537 18.0189 19.6565 21.5032 23.6008 26.1026 29.06 38.5273 33.1922 28.882 25.1737 22.0567 19.3412 17.063 15.1512 13.6626 12.5853 11.9154 11.6743 11.7846 12.2992 13.0731 14.111 15.3535 16.7419 18.2697 19.9032 21.6324 23.527 25.7196 28.3988 38.5695 33.2927 29.0518 25.3939 22.2421 19.5303 17.2353 15.3165 13.7651 12.6172 11.8509 11.5693 11.652 12.1388 12.9626 14.0739 15.4161 16.9007 18.5405 20.2102 21.8964 23.6016 25.4155 27.6621 38.2128 33.2539 28.9768 25.3402 22.1931 19.5436 17.2957 15.3899 13.8754 12.6811 11.8635 11.4669 11.5313 11.9761 12.8055 13.9573 15.3543 16.9547 18.6852 20.4769 22.2413 23.8369 25.298 26.9546 37.8294 32.94 28.3335 24.7354 21.7494 19.2378 17.1068 15.3419 13.8295 12.6879 11.9144 11.4821 11.4984 11.858 12.6262 13.7269 15.123 16.7813 18.6023 20.5198 22.4459 24.2781 25.6076 26.5077 37.6481 30.8971 26.7082 23.4082 20.7464 18.5112 16.6179 15.0318 13.7253 12.7066 11.9998 11.5997 11.5564 11.8489 12.4903 13.452 14.7387 16.277 18.105 20.1296 22.3551 24.6122 26.8011 27.6534 30.9726 27.6956 24.5883 21.7917 19.2486 16.9655 14.9421 13.1909 11.7175 10.5451 9.70588 9.29529 9.2752 9.64732 10.39 11.4891 12.8849 14.5532 16.5156 18.7428 21.326 24.3665 28.0583 33.4459 27.8638 26.1976 24.1072 21.8027 19.5225 17.3493 15.3349 13.512 11.9393 10.6635 9.7551 9.25947 9.20337 9.6235 10.4764 11.663 13.1748 15.0142 17.1385 19.5568 22.4058 25.7422 29.8259 33.9348 27.7515 25.6156 23.6122 21.5611 19.444 17.391 15.442 13.6704 12.0869 10.7694 9.82479 9.28868 9.19948 9.621 10.4467 11.7291 13.3013 15.2007 17.4561 20.0263 23.002 26.4266 30.1581 34.2099 28.4079 25.693 23.3805 21.258 19.2126 17.2391 15.378 13.6686 12.1458 10.8974 9.93041 9.37314 9.26033 9.60016 10.4646 11.679 13.2809 15.2427 17.5302 20.1621 23.2003 26.5529 30.2544 34.6126 29.2597 26.0963 23.4346 21.1133 18.9899 17.0269 15.2277 13.5945 12.148 10.935 10.0323 9.46352 9.32944 9.64164 10.4303 11.6254 13.202 15.1881 17.4541 20.0856 23.1387 26.475 30.2977 34.8661 30.1621 26.6456 23.6571 21.1146 18.8651 16.8491 15.0596 13.4774 12.1007 10.9676 10.0941 9.56214 9.39995 9.68953 10.3989 11.5293 13.0816 15.0297 17.2967 19.9342 22.9313 26.2991 30.2183 34.7757 31.068 27.2262 23.9816 21.2148 18.8146 16.7382 14.9309 13.3612 12.0292 10.9463 10.1457 9.62784 9.47932 9.73675 10.409 11.4745 12.9748 14.8495 17.085 19.6544 22.65 26.0419 29.907 34.3245 31.8367 27.7707 24.3269 21.3719 18.8525 16.6887 14.829 13.2655 11.9647 10.9202 10.1662 9.68716 9.56046 9.79757 10.4255 11.4565 12.9019 14.7043 16.9177 19.4552 22.4006 25.6912 29.4548 33.698 32.5265 28.2738 24.6645 21.6007 18.947 16.6902 14.7644 13.1886 11.8864 10.8937 10.1689 9.73925 9.62179 9.85457 10.4512 11.4401 12.823 14.5844 16.7385 19.2335 22.0983 25.3655 29.0468 33.0957 33.0472 28.679 25.0049 21.7821 19.0528 16.7175 14.7547 13.1244 11.8322 10.8466 10.1669 9.77033 9.68442 9.91373 10.5007 11.4526 12.7929 14.4999 16.5656 19.0314 21.7998 25.0469 28.6131 32.5733 33.448 29.0342 25.3157 22.0139 19.2036 16.7865 14.7728 13.0929 11.779 10.8064 10.1412 9.77963 9.72203 9.96167 10.5406 11.4698 12.7517 14.4023 16.4849 18.8414 21.6041 24.6983 28.1957 32.115 33.805 29.3791 25.5163 22.2137 19.3628 16.8609 14.7689 13.0698 11.7413 10.7646 10.1171 9.78065 9.7484 10.0105 10.5847 11.4843 12.7506 14.3671 16.3598 18.7228 21.3674 24.4584 27.9075 31.7373 34.1463 29.6835 25.7574 22.4352 19.4786 16.9357 14.8128 13.077 11.7269 10.7383 10.0864 9.76616 9.75737 10.037 10.627 11.5267 12.7772 14.3485 16.2961 18.5544 21.2158 24.2394 27.6394 31.5092 34.4834 30.0409 26.1026 22.6496 19.6413 17.0823 14.8653 13.0817 11.6856 10.697 10.038 9.74366 9.75991 10.0726 10.671 11.5688 12.7772 14.3481 16.2076 18.4442 21.0393 24.0354 27.3628 31.1982 34.9666 30.391 26.4102 22.8599 19.8143 17.1781 14.9442 13.1 11.6733 10.651 10.0047 9.70269 9.74786 10.0949 10.7149 11.6172 12.8268 14.3403 16.1878 18.3579 20.8468 23.7443 27.0774 30.8584 35.4782 30.8674 26.7681 23.1467 20.0228 17.3194 15.0681 13.1795 11.703 10.6217 9.94636 9.66448 9.7258 10.0962 10.7534 11.667 12.8721 14.3519 16.1398 18.2428 20.6917 23.4975 26.7388 30.4796 36.1033 31.2709 27.0877 23.412 20.2281 17.4965 15.1653 13.2333 11.7081 10.5919 9.89173 9.59717 9.67798 10.0836 10.7766 11.7364 12.945 14.4233 16.1522 18.1716 20.5089 23.213 26.3553 29.9826 36.7303 31.707 27.3622 23.6634 20.4524 17.6772 15.2873 13.297 11.7368 10.5698 9.85702 9.53641 9.6144 10.0608 10.7969 11.8011 13.0352 14.5087 16.2092 18.1568 20.3788 22.9559 25.8919 29.3411 37.1848 31.9535 27.5743 23.8565 20.6331 17.8296 15.49 13.4156 11.7955 10.5787 9.79607 9.45303 9.52383 10.0116 10.7977 11.8602 13.1545 14.6469 16.324 18.2081 20.3193 22.6731 25.463 28.671 37.2117 31.9165 27.673 24.0084 20.8083 18.0052 15.5783 13.5338 11.8758 10.6095 9.7567 9.38148 9.45225 9.93092 10.7629 11.8848 13.2571 14.785 16.4901 18.3352 20.3319 22.5049 24.984 27.9391 36.792 31.759 27.639 24.0308 20.8455 18.0552 15.6481 13.6224 11.9295 10.65 9.76291 9.32398 9.34692 9.82952 10.6974 11.8791 13.3284 14.9346 16.6994 18.5574 20.4796 22.4763 24.6242 27.1517 36.1997 31.5552 27.4574 23.7819 20.6321 17.9303 15.5937 13.6039 11.9689 10.6444 9.74672 9.25674 9.28234 9.71855 10.5965 11.8137 13.3157 14.9988 16.8672 18.8019 20.776 22.6746 24.5188 26.5462 35.984 31.2931 26.7883 23.1913 20.1767 17.6098 15.3838 13.4952 11.9222 10.6479 9.74921 9.25286 9.23242 9.64648 10.4811 11.6868 13.1921 14.9335 16.8598 18.9177 21.0454 23.1405 24.9018 26.3468 36.4644 29.7472 25.5251 22.1624 19.3709 17.0134 14.9823 13.2251 11.7725 10.5956 9.77879 9.3113 9.25233 9.61472 10.3622 11.4908 12.9182 14.6334 16.6008 18.79 21.1707 23.6605 26.19 27.8079 31.3504 27.3197 23.9005 20.9208 18.2216 15.7845 13.6209 11.695 10.0482 8.69271 7.70136 7.14738 7.11195 7.59151 8.51152 9.78408 11.3481 13.1775 15.2804 17.6693 20.3893 23.5534 27.3595 32.8747 27.8565 25.6861 23.202 20.6709 18.2379 15.943 13.8229 11.8951 10.2001 8.77983 7.74081 7.14815 7.09414 7.59054 8.56615 9.91185 11.5683 13.4811 15.6642 18.1673 21.0361 24.3608 28.3383 32.3464 27.5506 25.0657 22.7173 20.398 18.0944 15.9096 13.8616 11.9614 10.281 8.86514 7.80415 7.18339 7.10874 7.6056 8.57009 9.98218 11.6798 13.6688 15.9632 18.5692 21.5239 24.8739 28.5378 32.3554 28.1322 25.1525 22.5613 20.17 17.9186 15.7779 13.7797 11.9436 10.3046 8.92195 7.8613 7.23702 7.14985 7.61257 8.59814 9.98441 11.7225 13.7701 16.1313 18.7923 21.7808 25.0989 28.7305 32.8724 29.0307 25.641 22.7214 20.1466 17.7951 15.6705 13.6715 11.8754 10.2945 8.94667 7.91818 7.30128 7.19127 7.62213 8.55437 9.9737 11.7105 13.7986 16.1661 18.8903 21.8869 25.2264 29.0384 33.4299 30.0841 26.2694 23.0585 20.2716 17.7906 15.5855 13.5841 11.8064 10.2427 8.94868 7.95299 7.34576 7.23765 7.66236 8.56338 9.90089 11.659 13.7346 16.1083 18.8489 21.9149 25.3334 29.2587 33.7901 31.0802 26.9538 23.4844 20.4991 17.8651 15.5676 13.5281 11.7377 10.2033 8.93378 7.97299 7.40032 7.28292 7.67488 8.56797 9.87292 11.581 13.6375 16.0262 18.7379 21.8251 25.2679 29.2383 33.8115 31.9561 27.604 23.961 20.7584 18.0002 15.6056 13.5085 11.7003 10.1668 8.9108 7.9945 7.43798 7.32676 7.71372 8.56721 9.82111 11.5407 13.5518 15.9124 18.6436 21.6931 25.1844 29.1177 33.5919 32.7485 28.1859 24.3362 21.0447 18.1825 15.6762 13.51 11.6621 10.1197 8.88895 7.99016 7.46008 7.36573 7.73482 8.56587 9.81358 11.4622 13.4477 15.823 18.4658 21.5364 24.9609 28.8522 33.2034 33.3098 28.6829 24.7026 21.3553 18.358 15.7889 13.5456 11.6531 10.1001 8.86969 7.9825 7.47743 7.40681 7.76166 8.57026 9.78193 11.3969 13.3185 15.6886 18.3385 21.3311 24.7833 28.5221 32.7699 33.7591 29.0779 25.0385 21.6029 18.5336 15.8784 13.5985 11.6747 10.0814 8.84771 7.97316 7.49608 7.41947 7.79572 8.59078 9.78718 11.3656 13.2952 15.5596 18.2054 21.1745 24.5347 28.2829 32.4409 34.1705 29.4405 25.3322 21.8254 18.7036 15.9623 13.6745 11.6853 10.0768 8.82284 7.95689 7.49239 7.44624 7.82057 8.60613 9.78891 11.3193 13.2193 15.4336 18.0293 20.977 24.2589 27.9569 32.1244 34.5245 29.7419 25.6169 22.0043 18.8732 16.113 13.7216 11.7271 10.0853 8.80843 7.93623 7.47677 7.44796 7.84243 8.64042 9.79387 11.3017 13.1604 15.3715 17.9235 20.8069 24.0506 27.7043 31.8237 34.7977 30.0149 25.8647 22.1644 19.0275 16.2152 13.792 11.7692 10.0938 8.79083 7.91544 7.4674 7.45872 7.85619 8.65041 9.80712 11.309 13.112 15.282 17.7437 20.6027 23.7963 27.3977 31.4812 35.1904 30.2766 26.1613 22.4162 19.1597 16.3159 13.8827 11.8025 10.1009 8.76861 7.89005 7.44261 7.44346 7.8719 8.6782 9.8222 11.294 13.0898 15.1854 17.6137 20.3676 23.5156 27.0788 31.1369 35.5706 30.6115 26.3444 22.5633 19.3273 16.4598 13.9692 11.8608 10.1079 8.79556 7.86432 7.41534 7.42792 7.87456 8.69688 9.84602 11.3145 13.0655 15.1015 17.4544 20.1948 23.1844 26.6765 30.6996 36.0007 30.8903 26.5273 22.734 19.4118 16.5559 14.0693 11.9288 10.1589 8.77142 7.83878 7.38719 7.40812 7.87596 8.71949 9.88733 11.3392 13.0475 15.0573 17.3235 19.9139 22.8512 26.2084 30.0488 36.2678 31.0171 26.6549 22.851 19.5603 16.6685 14.1563 11.9648 10.1997 8.77637 7.81769 7.3496 7.3669 7.8582 8.72996 9.92242 11.3875 13.0778 15.0273 17.2085 19.6925 22.4969 25.6967 29.3522 36.1206 30.9415 26.6477 22.8908 19.6294 16.7594 14.2052 12.0437 10.2198 8.79623 7.81348 7.30472 7.31879 7.8278 8.73835 9.96047 11.4462 13.1317 15.0511 17.1741 19.5235 22.1404 25.1241 28.6144 35.6963 30.6401 26.4501 22.8315 19.6006 16.7671 14.2842 12.0907 10.2579 8.81943 7.7854 7.25324 7.26534 7.78869 8.72688 9.99357 11.5158 13.2399 15.1217 17.1734 19.4258 21.8608 24.6 27.7687 34.9663 30.22 26.2428 22.6679 19.4883 16.6949 14.2349 12.0965 10.2776 8.826 7.77547 7.21206 7.19523 7.73339 8.70071 10.0081 11.5755 13.3308 15.2458 17.291 19.4516 21.7367 24.18 26.9952 34.2873 29.9474 25.9447 22.3417 19.2311 16.5231 14.1237 12.051 10.2825 8.81134 7.7622 7.17199 7.14809 7.66522 8.64997 9.98118 11.5961 13.4154 15.3879 17.4815 19.6656 21.8473 24.0599 26.4108 34.2588 29.7758 25.3851 21.8259 18.7964 16.1797 13.8966 11.9157 10.2025 8.78113 7.7547 7.16354 7.09895 7.59856 8.57325 9.91002 11.5435 13.4007 15.4583 17.6559 19.9588 22.2972 24.4633 26.4254 35.3889 28.815 24.5789 21.1509 18.2767 15.7751 13.5977 11.6826 10.0582 8.71528 7.73921 7.1712 7.12712 7.57549 8.49016 9.77223 11.3805 13.2558 15.3771 17.7155 20.269 22.958 25.7931 28.1839 31.7945 27.0835 23.4242 20.2701 17.4298 14.876 12.5752 10.4925 8.67704 7.10681 5.89778 5.17923 5.12168 5.72293 6.84969 8.33663 10.1046 12.1038 14.3512 16.8684 19.7008 22.9506 26.8433 32.4017 28.059 25.4015 22.5824 19.8324 17.2705 14.8576 12.633 10.5886 8.75301 7.1673 5.92768 5.1762 5.12455 5.73604 6.9005 8.42069 10.2178 12.2398 14.5206 17.0531 19.9128 23.2 27.0785 30.955 27.5667 24.7623 22.1208 19.5486 17.0875 14.7828 12.6097 10.6062 8.79109 7.20527 5.96061 5.21049 5.13312 5.76996 6.92559 8.4865 10.302 12.4049 14.7354 17.3527 20.2541 23.5345 27.0733 30.742 28.1426 24.9281 22.0781 19.4453 16.9967 14.704 12.5619 10.5839 8.79539 7.23164 5.9887 5.24212 5.15746 5.78952 6.97102 8.52319 10.4081 12.5394 14.9477 17.6 20.5686 23.8208 27.3636 31.2723 29.1417 25.481 22.3487 19.5453 16.9923 14.6676 12.5136 10.5484 8.77958 7.23732 6.0207 5.27004 5.16559 5.76816 6.96062 8.55237 10.4468 12.6227 15.09 17.7891 20.8247 24.0993 27.7729 32.1002 30.237 26.2431 22.7788 19.7856 17.1159 14.6858 12.5019 10.5182 8.75379 7.24022 6.04263 5.30034 5.19374 5.79938 6.95555 8.53113 10.4567 12.6742 15.1336 17.9177 20.9937 24.423 28.2607 32.7869 31.3485 26.994 23.2889 20.1072 17.2726 14.7782 12.5282 10.5186 8.74611 7.23253 6.05049 5.33142 5.23544 5.8106 6.94638 8.53742 10.4478 12.6707 15.1384 17.9467 21.082 24.5852 28.5605 33.2515 32.2824 27.664 23.8145 20.4565 17.5039 14.8839 12.5742 10.5354 8.74121 7.22741 6.06261 5.35277 5.25989 5.81983 6.94341 8.50101 10.3833 12.642 15.1375 17.969 21.1118 24.6498 28.6643 33.34 33.069 28.2878 24.3246 20.8073 17.723 15.0333 12.6375 10.5524 8.74235 7.22304 6.05762 5.36561 5.27513 5.83804 6.9456 8.47562 10.383 12.5867 15.1022 17.9171 21.0301 24.6287 28.7003 33.2433 33.7598 28.8442 24.642 21.0528 17.9175 15.1576 12.7035 10.5701 8.7453 7.2207 6.06028 5.37843 5.29488 5.85167 6.94229 8.47707 10.3429 12.5181 15.0069 17.8553 20.9623 24.5555 28.5734 33.1193 34.2423 29.2607 25.023 21.3673 18.1057 15.2805 12.7881 10.6116 8.76147 7.21563 6.05789 5.38747 5.31344 5.85866 6.93562 8.45943 10.2864 12.4506 14.9429 17.7399 20.8613 24.4142 28.3251 32.8334 34.5821 29.5978 25.294 21.5576 18.278 15.4095 12.8547 10.6686 8.77451 7.21604 6.05023 5.38515 5.32152 5.87446 6.95536 8.4354 10.2543 12.4114 14.8837 17.6007 20.728 24.2448 28.1574 32.5484 34.8812 29.8226 25.4922 21.6946 18.4202 15.5085 12.9271 10.7129 8.77537 7.225 6.0476 5.38611 5.32448 5.88261 6.95452 8.43133 10.2226 12.3433 14.7577 17.5219 20.5825 23.9941 27.8543 32.2522 35.1182 30.066 25.7527 21.833 18.5354 15.5983 12.9696 10.7348 8.80146 7.21743 6.03574 5.37378 5.33235 5.89515 6.96345 8.41745 10.2133 12.2893 14.6613 17.3536 20.3755 23.7808 27.6393 31.9779 35.3888 30.2603 25.8756 21.9779 18.6294 15.6937 13.0702 10.7834 8.80812 7.22033 6.03363 5.36274 5.32445 5.90029 6.97284 8.41504 10.1763 12.2142 14.5588 17.1917 20.1866 23.527 27.2859 31.5755 35.6197 30.4358 25.9928 22.0885 18.7178 15.7221 13.1367 10.8216 8.85163 7.21678 6.02375 5.34121 5.31194 5.89774 6.97714 8.41165 10.1467 12.1457 14.4421 17.0247 19.933 23.1816 26.8399 31.0367 35.6207 30.44 25.9944 22.0938 18.7806 15.7848 13.1823 10.8716 8.85387 7.22814 6.00838 5.33155 5.30292 5.89824 6.98395 8.41607 10.1407 12.1058 14.3404 16.8286 19.6299 22.778 26.3425 30.4753 35.4492 30.1953 25.8844 22.1125 18.7674 15.812 13.182 10.9007 8.88539 7.23456 5.991 5.29232 5.27418 5.88664 6.98395 8.42491 10.1369 12.0698 14.2402 16.6535 19.3355 22.3551 25.7794 29.726 34.9808 29.8597 25.619 21.9904 18.6942 15.7853 13.1972 10.898 8.89191 7.24076 5.97994 5.27062 5.24923 5.88002 6.98786 8.43994 10.1382 12.0549 14.1771 16.506 19.0595 21.9191 25.16 28.8561 34.2007 29.302 25.3088 21.7601 18.5375 15.7049 13.1579 10.8757 8.90348 7.25098 5.97261 5.24644 5.21463 5.8513 6.98651 8.45287 10.166 12.0717 14.1599 16.4146 18.8744 21.5674 24.5371 27.9647 33.2147 28.7736 24.941 21.449 18.3234 15.5443 13.033 10.8244 8.8728 7.22717 5.96496 5.23408 5.18885 5.82283 6.972 8.4631 10.1986 12.114 14.1943 16.4196 18.808 21.3241 24.0652 27.1382 32.5326 28.4292 24.5968 21.1034 18.0298 15.3035 12.8816 10.7112 8.81779 7.20632 5.93697 5.21758 5.15647 5.78208 6.9512 8.46063 10.2238 12.173 14.2815 16.5266 18.8978 21.3545 23.8866 26.5829 32.6977 28.4062 24.1858 20.6866 17.6925 15.0491 12.6997 10.6068 8.74553 7.1719 5.93313 5.19181 5.1293 5.74429 6.91163 8.42838 10.217 12.2075 14.3694 16.7109 19.1674 21.7272 24.2959 26.7378 34.3912 28.0595 23.8574 20.4091 17.4418 14.8357 12.5217 10.4718 8.65775 7.11073 5.92176 5.18126 5.12195 5.72224 6.85546 8.35668 10.1524 12.1735 14.4326 16.9085 19.6131 22.4964 25.6227 28.7181 32.2475 26.9841 23.1212 19.84 16.8842 14.2438 11.8276 9.63163 7.63142 5.84705 4.33771 3.3306 3.23373 4.11119 5.5315 7.26311 9.2005 11.3469 13.7081 16.3093 19.2337 22.5587 26.4869 32.0465 28.3976 25.3546 22.2081 19.2892 16.5852 14.0973 11.7771 9.63342 7.66033 5.87457 4.3563 3.33204 3.24481 4.12061 5.55587 7.29497 9.23403 11.3556 13.6918 16.2516 19.0989 22.3263 26.0402 29.7641 27.8137 24.771 21.8503 19.0541 16.4522 14.0276 11.7476 9.63769 7.67324 5.89433 4.37298 3.35095 3.24758 4.12957 5.58538 7.34248 9.31421 11.46 13.8247 16.4125 19.2839 22.459 25.8672 29.3384 28.4222 24.9919 21.9057 19.0847 16.4557 14.0124 11.7395 9.62869 7.67336 5.90518 4.38853 3.36832 3.26255 4.14186 5.61662 7.39982 9.39302 11.6045 14.0264 16.6799 19.5767 22.7443 26.1746 29.9151 29.4753 25.6165 22.2826 19.2777 16.5638 14.0701 11.769 9.63715 7.68273 5.91551 4.40389 3.38125 3.27426 4.14919 5.64064 7.44586 9.48389 11.7208 14.1891 16.9147 19.889 23.1437 26.7192 30.8582 30.6884 26.4235 22.8182 19.6376 16.7739 14.1858 11.8228 9.66927 7.70458 5.92772 4.41683 3.39831 3.28813 4.17054 5.65609 7.47119 9.53404 11.8337 14.3502 17.1239 20.1936 23.5714 27.3447 31.8126 31.8351 27.2155 23.361 19.993 17.029 14.3441 11.9213 9.70147 7.71648 5.9317 4.42756 3.411 3.30639 4.17832 5.66642 7.48229 9.56153 11.8977 14.4547 17.2887 20.4119 23.9409 27.8604 32.4925 32.8506 27.9533 23.9058 20.4171 17.2874 14.5063 12.0022 9.7506 7.73977 5.94373 4.4343 3.42744 3.31696 4.19648 5.67073 7.48392 9.5739 11.922 14.5291 17.4206 20.6083 24.209 28.2312 32.9972 33.6199 28.5744 24.3793 20.718 17.5488 14.6761 12.1144 9.82176 7.76226 5.95859 4.44372 3.43736 3.3279 4.18717 5.65669 7.49811 9.58712 11.9169 14.5321 17.4266 20.7124 24.302 28.3916 33.1624 34.213 29.0615 24.808 21.0304 17.7177 14.7972 12.2046 9.84866 7.7982 5.9676 4.44782 3.44936 3.34323 4.20282 5.66419 7.48877 9.57852 11.9481 14.5361 17.4553 20.7481 24.3726 28.5315 33.1326 34.6119 29.4469 25.1058 21.2798 17.9086 14.9137 12.2878 9.93184 7.81328 5.98008 4.45018 3.45392 3.35593 4.2034 5.66794 7.47635 9.55965 11.891 14.5003 17.3955 20.7613 24.2883 28.4399 33.0658 34.863 29.709 25.2906 21.3808 18.0326 15.0346 12.3563 9.95774 7.83772 5.97712 4.45689 3.45689 3.36139 4.21404 5.65894 7.47396 9.51496 11.8769 14.4536 17.3536 20.5932 24.2494 28.2831 32.9146 35.1167 29.8604 25.4683 21.5767 18.1615 15.0954 12.3952 9.97361 7.85142 5.9854 4.45083 3.45587 3.36375 4.21265 5.66054 7.45602 9.5127 11.8249 14.4021 17.2622 20.5621 24.0966 28.1639 32.7709 35.2202 30.0848 25.5181 21.7168 18.2368 15.1835 12.4547 10.0332 7.87486 5.99341 4.45322 3.45065 3.36415 4.21827 5.664 7.43274 9.46104 11.771 14.3273 17.2002 20.4265 23.9204 27.9466 32.5283 35.2703 30.1187 25.5254 21.6826 18.244 15.1987 12.5093 10.0582 7.90524 5.98996 4.44327 3.44337 3.35843 4.21751 5.64596 7.41597 9.42208 11.7029 14.2174 17.0318 20.1642 23.6961 27.6056 32.1487 35.2872 30.0183 25.5202 21.6867 18.2559 15.2193 12.4833 10.0486 7.90339 6.01354 4.43829 3.43384 3.35014 4.21212 5.643 7.39086 9.38676 11.6253 14.1063 16.84 19.9088 23.2912 27.2223 31.7166 35.0619 29.7914 25.3631 21.6042 18.1944 15.1796 12.4977 10.0679 7.89461 6.01485 4.43575 3.41796 3.33798 4.20773 5.6386 7.37768 9.33586 11.5374 13.9476 16.6474 19.6251 22.9617 26.6929 31.064 34.5621 29.3973 25.1143 21.3755 18.0908 15.1212 12.4505 10.0578 7.89843 6.00149 4.43595 3.40849 3.32268 4.19931 5.62861 7.35726 9.30162 11.4562 13.8361 16.4186 19.2996 22.502 26.0961 30.2761 33.7895 28.8232 24.7006 21.0983 17.8946 15.0035 12.3733 9.99302 7.8692 5.9871 4.42616 3.39281 3.31042 4.18633 5.62012 7.34333 9.27492 11.3805 13.6971 16.2147 18.9727 21.9924 25.4525 29.3687 32.7345 28.1404 24.2625 20.8062 17.6834 14.8373 12.2638 9.94797 7.84231 5.96952 4.40745 3.37798 3.29328 4.17209 5.6083 7.33759 9.25071 11.32 13.5888 16.035 18.6815 21.5664 24.7894 28.4169 31.6891 27.5244 23.7955 20.4508 17.3872 14.6379 12.1364 9.85295 7.79109 5.9368 4.38777 3.37065 3.27384 4.15853 5.59925 7.3226 9.23371 11.307 13.5316 15.9223 18.4906 21.243 24.2426 27.5293 31.0134 27.1525 23.4596 20.0965 17.0918 14.4072 11.9586 9.74061 7.71783 5.91117 4.36877 3.34812 3.25396 4.13936 5.58546 7.32098 9.23653 11.3188 13.5491 15.9401 18.4555 21.1751 24.0089 27.005 31.3275 27.247 23.2511 19.849 16.8905 14.2178 11.8236 9.64862 7.66083 5.87281 4.35656 3.34369 3.2451 4.12054 5.56827 7.30669 9.24688 11.3541 13.6252 16.0695 18.6606 21.4593 24.3694 27.2658 33.4797 27.4747 23.3419 19.9052 16.8775 14.1971 11.7829 9.59904 7.61452 5.84182 4.33937 3.33617 3.23797 4.10486 5.5407 7.283 9.24607 11.4008 13.7751 16.3468 19.1679 22.24 25.6095 29.3805 32.6743 26.991 22.9686 19.5989 16.5926 13.8782 11.408 9.13214 7.02776 5.06552 3.24283 1.69818 1.51811 2.9201 4.70132 6.63043 8.70393 10.9353 13.3628 16.026 18.9867 22.3312 26.2392 31.693 28.8873 25.5576 22.1327 19.042 16.2424 13.6801 11.3118 9.09034 7.01585 5.06417 3.24314 1.69689 1.51587 2.92126 4.70229 6.62578 8.67257 10.8604 13.217 15.7765 18.5846 21.7277 25.2658 28.8025 28.2847 25.0347 21.8789 18.9211 16.1828 13.6432 11.3034 9.09756 7.02768 5.0818 3.2516 1.69984 1.51548 2.93088 4.72206 6.65101 8.71645 10.905 13.2735 15.8291 18.6174 21.6816 24.9296 28.248 28.9766 25.3112 22.056 19.0457 16.2821 13.7117 11.3411 9.13275 7.05336 5.09259 3.26318 1.70336 1.5215 2.94471 4.74753 6.6997 8.77651 11.0229 13.4303 16.0274 18.856 21.9194 25.2283 28.7801 30.077 25.9882 22.4945 19.3529 16.4847 13.8642 11.4317 9.17753 7.08001 5.11248 3.27843 1.7111 1.52361 2.95691 4.77811 6.75235 8.85623 11.1453 13.615 16.2618 19.2063 22.356 25.8338 29.7718 31.3403 26.8375 23.0647 19.7488 16.7549 14.0489 11.546 9.25321 7.12652 5.14011 3.28968 1.71879 1.52963 2.96554 4.79949 6.80864 8.96699 11.2819 13.79 16.5612 19.5361 22.8706 26.5059 30.8146 32.482 27.6609 23.6531 20.1466 17.0444 14.2317 11.6791 9.3398 7.16523 5.15947 3.30306 1.73379 1.5446 2.98566 4.82629 6.84419 9.0394 11.3769 13.9831 16.7692 19.8665 23.2954 27.1757 31.7215 33.3957 28.3892 24.191 20.5137 17.3011 14.4165 11.7925 9.41497 7.21031 5.18988 3.32292 1.74727 1.55701 2.99359 4.84564 6.87333 9.06655 11.4647 14.0862 16.965 20.1621 23.6794 27.6954 32.4532 34.084 28.9179 24.618 20.8599 17.5325 14.5753 11.9034 9.4725 7.24715 5.19342 3.33015 1.75877 1.57655 3.00833 4.8557 6.88207 9.09735 11.5406 14.1848 17.1366 20.3586 23.9583 28.0868 32.913 34.5872 29.3602 24.9096 21.097 17.726 14.6854 11.9693 9.49586 7.29367 5.21339 3.34105 1.77531 1.58729 3.01656 4.85723 6.90732 9.11542 11.5715 14.2205 17.193 20.4747 24.1359 28.2956 33.1726 34.8297 29.5892 25.0542 21.2673 17.843 14.7578 12.0461 9.55288 7.3062 5.23213 3.34922 1.77941 1.6041 3.01991 4.87643 6.9079 9.14212 11.5848 14.2504 17.2417 20.5435 24.2516 28.3854 33.2442 34.9757 29.7388 25.2828 21.3462 17.9064 14.8297 12.0728 9.56757 7.3075 5.24473 3.35516 1.78872 1.60978 3.02102 4.85774 6.9179 9.1428 11.6003 14.3274 17.2636 20.5932 24.291 28.4466 33.2972 35.0539 29.8751 25.3249 21.4214 17.9475 14.9161 12.1039 9.62321 7.33371 5.24104 3.35034 1.78778 1.60543 3.02468 4.86637 6.90062 9.13872 11.5669 14.2384 17.2116 20.5295 24.2438 28.3102 33.1891 35.1448 29.8128 25.3646 21.3938 17.9772 14.8954 12.132 9.60725 7.3284 5.25551 3.35598 1.78662 1.60044 3.02371 4.85279 6.88293 9.10114 11.5255 14.2025 17.1638 20.4554 24.0786 28.2063 32.9972 34.9263 29.7174 25.2263 21.4044 17.9441 14.8773 12.1163 9.60929 7.3309 5.24833 3.3488 1.78103 1.59841 3.02077 4.84971 6.88881 9.07842 11.4644 14.1355 17.0297 20.3147 23.881 28.0085 32.7685 34.7301 29.547 25.0531 21.2464 17.8655 14.8092 12.0493 9.59252 7.31637 5.23791 3.34775 1.76697 1.58065 3.00876 4.83443 6.86906 9.02637 11.4141 14.0127 16.8798 20.1064 23.6767 27.6929 32.3565 34.2695 29.0947 24.8142 21.059 17.7244 14.7333 12.027 9.5654 7.31806 5.2276 3.33476 1.74552 1.57282 3.00045 4.83167 6.82668 8.97165 11.3355 13.8927 16.6844 19.8125 23.2697 27.2004 31.7455 33.5324 28.5612 24.4089 20.7796 17.5302 14.589 11.9489 9.51202 7.2763 5.20693 3.32215 1.73119 1.55578 2.98267 4.80724 6.79471 8.93192 11.2181 13.7137 16.4827 19.4848 22.8536 26.6073 31.022 32.5181 27.8532 23.9221 20.417 17.27 14.4271 11.8323 9.4225 7.23535 5.18565 3.30522 1.7243 1.54119 2.97148 4.78538 6.75132 8.85929 11.1152 13.583 16.2199 19.1488 22.3613 25.9452 30.0858 31.4445 27.1025 23.3546 20.0386 16.9887 14.2121 11.6758 9.34 7.17249 5.15404 3.28602 1.71006 1.5294 2.95907 4.76358 6.70824 8.78216 11.0124 13.4089 15.9879 18.8149 21.8607 25.2372 29.1057 30.3692 26.463 22.9048 19.6771 16.7138 14.0138 11.533 9.23915 7.11096 5.12611 3.2738 1.70726 1.52165 2.94733 4.74298 6.67717 8.73575 10.9249 13.2732 15.8007 18.5175 21.472 24.6895 28.2145 29.7373 26.0999 22.6008 19.3972 16.4713 13.8306 11.4009 9.15261 7.05722 5.0932 3.25694 1.70472 1.51956 2.93671 4.72489 6.64717 8.6944 10.8796 13.1997 15.6954 18.3822 21.2921 24.3864 27.6516 30.1558 26.3149 22.5671 19.2916 16.3804 13.7545 11.3291 9.10069 7.02033 5.0664 3.24415 1.7 1.51817 2.92641 4.70825 6.63916 8.69427 10.8832 13.2272 15.7443 18.4656 21.4596 24.6929 27.9921 32.5908 27.0154 23.0035 19.5978 16.5834 13.8638 11.3931 9.11651 7.01693 5.05687 3.23581 1.6935 1.51325 2.92238 4.70542 6.64578 8.72579 10.9665 13.3968 16.0454 18.9481 22.1345 25.7809 30.1124 33.0645 27.087 22.9914 19.5754 16.5385 13.8131 11.3266 9.04934 6.92141 4.93302 3.04234 1.29732 0.978202 2.68328 4.55704 6.53415 8.63308 10.8811 13.3232 15.9939 18.9472 22.2531 26.1278 31.3718 29.5517 25.9832 22.3423 19.1172 16.2505 13.6378 11.2358 9.00134 6.91269 4.92883 3.04456 1.29845 0.977179 2.68372 4.55494 6.51802 8.58659 10.782 13.133 15.6583 18.4149 21.4379 24.7673 28.0552 29.0415 25.588 22.2514 19.1235 16.2766 13.6681 11.2695 9.03225 6.93177 4.94742 3.05681 1.29665 0.979939 2.69233 4.56492 6.52241 8.59486 10.7838 13.1094 15.6087 18.3032 21.2198 24.2775 27.4421 29.7397 25.9445 22.5048 19.3548 16.4685 13.8234 11.3765 9.09992 6.98265 4.98131 3.06892 1.29657 0.970876 2.69649 4.581 6.55668 8.6293 10.8372 13.1984 15.717 18.4413 21.382 24.5353 27.9238 30.9139 26.6331 22.9781 19.7363 16.7375 14.0021 11.5009 9.19912 7.02858 5.00811 3.08245 1.30216 0.969404 2.70716 4.60189 6.59603 8.69309 10.9407 13.3343 15.936 18.7177 21.7722 25.1173 28.8997 32.1511 27.4547 23.5569 20.112 17.0309 14.229 11.6548 9.2707 7.0955 5.04036 3.09949 1.31582 0.97737 2.72199 4.62947 6.64025 8.7669 11.06 13.5128 16.1712 19.1007 22.2862 25.8509 29.9797 33.2144 28.2272 24.0993 20.4898 17.2863 14.3896 11.7649 9.3644 7.14061 5.05774 3.111 1.32672 0.995512 2.73556 4.65328 6.67785 8.83594 11.1868 13.6905 16.448 19.482 22.7861 26.6158 31.0044 34.0095 28.8076 24.5388 20.8484 17.4953 14.5572 11.8761 9.45337 7.16626 5.08722 3.13322 1.34644 1.01996 2.75138 4.67206 6.71344 8.9048 11.2654 13.8477 16.6872 19.7731 23.2851 27.2294 31.8234 34.5454 29.3265 24.8207 21.048 17.6753 14.6605 11.9627 9.45027 7.2147 5.10118 3.14451 1.36029 1.03991 2.76687 4.69801 6.75605 8.95182 11.3613 13.9837 16.8747 20.0903 23.677 27.7327 32.4332 34.7799 29.4879 25.0184 21.2257 17.8192 14.7334 11.9859 9.49436 7.21815 5.10904 3.15419 1.36964 1.07031 2.77293 4.70423 6.77286 8.99772 11.4452 14.0951 17.0571 20.31 23.8953 28.0305 32.8494 34.8978 29.6371 25.196 21.278 17.8739 14.7889 12.0459 9.51708 7.23125 5.11905 3.163 1.38695 1.07651 2.78823 4.72479 6.79208 9.04942 11.5124 14.1904 17.1527 20.4242 24.0873 28.2867 33.1148 34.8946 29.7425 25.2178 21.3139 17.8804 14.8104 12.0415 9.52585 7.23219 5.11314 3.15362 1.39021 1.09561 2.78672 4.73373 6.81205 9.07494 11.539 14.2221 17.2077 20.5304 24.2823 28.4297 33.264 34.8026 29.6131 25.1812 21.3222 17.9005 14.7734 12.047 9.50762 7.23267 5.11852 3.16107 1.38929 1.0896 2.79333 4.72616 6.81302 9.05427 11.5642 14.2668 17.2399 20.585 24.2671 28.501 33.3058 34.6445 29.4662 25.0576 21.181 17.832 14.7746 11.983 9.5118 7.2101 5.11422 3.1539 1.38247 1.0776 2.78489 4.73785 6.82328 9.06493 11.5514 14.2656 17.2559 20.5827 24.3 28.4446 33.2893 34.4291 29.2362 24.8929 21.0967 17.6804 14.6748 11.9282 9.45846 7.21479 5.09418 3.14224 1.37034 1.06591 2.78363 4.74398 6.81651 9.05006 11.516 14.2298 17.1894 20.4892 24.1402 28.4078 33.1512 33.9337 28.8897 24.6244 20.9199 17.5528 14.5766 11.8728 9.4083 7.18117 5.08119 3.13897 1.36013 1.04807 2.77446 4.71924 6.80487 9.03305 11.4931 14.153 17.0864 20.3614 23.9789 28.1436 32.982 33.316 28.4162 24.2466 20.5898 17.3633 14.4513 11.8143 9.36216 7.1483 5.06936 3.1223 1.34114 1.02415 2.76521 4.71591 6.78023 9.01851 11.4409 14.0726 16.9393 20.2076 23.7177 27.7905 32.4977 32.4867 27.7535 23.7757 20.27 17.1287 14.2854 11.6875 9.30884 7.10671 5.05093 3.11173 1.32717 1.00225 2.75023 4.70334 6.74456 8.94689 11.3273 13.9391 16.7407 19.8852 23.3535 27.2715 31.8707 31.4409 27.006 23.2277 19.8711 16.8336 14.1075 11.5496 9.23812 7.0565 5.01573 3.08802 1.31391 0.983355 2.73657 4.66442 6.70938 8.87419 11.2353 13.7622 16.526 19.565 22.9352 26.6618 31.026 30.3218 26.2623 22.6976 19.5038 16.5716 13.9146 11.4355 9.14591 7.0095 4.99715 3.0758 1.29756 0.973738 2.72335 4.63533 6.65797 8.80209 11.0894 13.5596 16.2787 19.1986 22.4205 25.9823 30.0518 29.2923 25.6196 22.2492 19.1649 16.3374 13.727 11.3236 9.07919 6.96133 4.96343 3.06352 1.29406 0.974877 2.71349 4.61135 6.60902 8.71542 10.9691 13.3918 16.0173 18.8705 21.9871 25.4063 29.1315 28.7175 25.3092 22.0301 18.9973 16.1989 13.632 11.2465 9.0229 6.93272 4.9453 3.05183 1.29416 0.976004 2.69767 4.5786 6.5572 8.63498 10.8579 13.259 15.8272 18.6409 21.72 25.0616 28.5627 29.1762 25.6439 22.1619 19.0477 16.2209 13.6423 11.2411 9.00926 6.91598 4.93112 3.04736 1.29407 0.980103 2.68517 4.56265 6.52915 8.60929 10.8146 13.1958 15.7711 18.6003 21.7369 25.2411 28.8964 31.7171 26.6886 22.8287 19.5225 16.5326 13.8192 11.3429 9.05935 6.93601 4.93442 3.04274 1.29775 0.986402 2.6825 4.55961 6.53245 8.62809 10.8796 13.3213 15.9898 18.9484 22.2494 26.0308 30.8817 33.442 27.29 23.1646 19.7421 16.7281 14.0332 11.5978 9.37953 7.34438 5.492 3.87515 2.70959 2.56818 3.58778 5.15918 6.98285 8.98963 11.1797 13.5779 16.2083 19.1174 22.363 26.0935 31.0003 30.4308 26.6829 22.8239 19.5028 16.6068 13.9668 11.5784 9.38372 7.35886 5.51471 3.88117 2.71444 2.57286 3.59611 5.17152 6.98927 8.97721 11.1248 13.4269 15.8936 18.5589 21.448 24.5395 27.4853 30.0385 26.4387 22.929 19.668 16.7311 14.0821 11.6714 9.4639 7.41403 5.53733 3.89611 2.71711 2.57844 3.60876 5.18292 7.00096 8.96496 11.085 13.3405 15.7642 18.3451 21.0909 23.9472 26.902 30.8087 26.7888 23.2411 19.9724 17.0091 14.2873 11.8211 9.54318 7.46661 5.57221 3.92138 2.73013 2.59085 3.6195 5.19052 7.00108 8.97252 11.0853 13.3501 15.765 18.3609 21.134 24.1033 27.3712 31.9571 27.4874 23.7052 20.3093 17.2729 14.4834 11.9533 9.64087 7.52667 5.59777 3.92733 2.74358 2.60044 3.63016 5.20341 7.01657 8.99465 11.1248 13.4209 15.8879 18.5553 21.4794 24.6935 28.2812 33.0893 28.2182 24.2101 20.6794 17.5156 14.6726 12.0817 9.71407 7.56671 5.61736 3.93478 2.75557 2.61767 3.64095 5.22181 7.03378 9.03307 11.1973 13.5426 16.0947 18.8823 21.9528 25.3944 29.3203 33.9046 28.8378 24.5806 20.969 17.7117 14.7889 12.1502 9.7745 7.59286 5.62912 3.95883 2.76623 2.63034 3.65465 5.2243 7.06027 9.06414 11.2849 13.6931 16.3331 19.2442 22.4906 26.1356 30.3591 34.4861 29.2854 24.9263 21.1815 17.8409 14.9107 12.222 9.79051 7.62484 5.64285 3.96957 2.77719 2.64265 3.66511 5.24146 7.08459 9.12486 11.382 13.8566 16.5922 19.5781 22.9751 26.8076 31.2704 34.715 29.5668 25.111 21.3319 17.9454 14.9363 12.2136 9.80644 7.60348 5.63728 3.96528 2.78313 2.6557 3.67292 5.25737 7.11345 9.19155 11.4779 13.9995 16.8008 19.8841 23.3877 27.3998 31.9619 34.736 29.6023 25.1809 21.4084 17.9438 14.9507 12.2219 9.78508 7.60307 5.64405 3.98032 2.80018 2.67099 3.68094 5.26683 7.13346 9.23071 11.5679 14.1274 16.976 20.1574 23.7143 27.7751 32.4495 34.6459 29.5892 25.1343 21.3511 17.9765 14.9189 12.2515 9.78454 7.62249 5.64009 3.97839 2.80703 2.67481 3.68924 5.2786 7.15876 9.28968 11.6564 14.2279 17.1586 20.3993 24.0056 28.1568 32.8193 34.4262 29.4589 25.1177 21.3098 17.8989 14.9103 12.1956 9.76514 7.57949 5.64655 3.97983 2.8171 2.67965 3.68998 5.28371 7.19343 9.32603 11.6904 14.3298 17.2492 20.5701 24.1969 28.3603 33.1185 34.2643 29.332 24.9834 21.231 17.816 14.8546 12.1588 9.75243 7.57382 5.62611 3.98159 2.81406 2.67594 3.69477 5.29399 7.20712 9.34869 11.7691 14.3681 17.3726 20.6861 24.2978 28.4552 33.2437 33.972 29.0907 24.8183 21.049 17.6939 14.7361 12.0975 9.69929 7.54504 5.63153 3.97462 2.81106 2.67546 3.69035 5.29588 7.23105 9.37679 11.7773 14.4275 17.4145 20.7242 24.3763 28.5637 33.4157 33.7048 28.724 24.5346 20.8817 17.5707 14.6572 12.0415 9.65362 7.51398 5.62527 3.97395 2.8032 2.66789 3.69087 5.28828 7.22708 9.38683 11.8215 14.4718 17.4083 20.7388 24.4114 28.6713 33.4395 33.1292 28.2881 24.2112 20.5548 17.4101 14.5502 11.967 9.62144 7.49321 5.6068 3.96231 2.79667 2.65937 3.68272 5.2855 7.22709 9.39849 11.7886 14.4349 17.3996 20.6877 24.3369 28.5682 33.4235 32.4208 27.7479 23.7823 20.3188 17.1982 14.3721 11.8569 9.54094 7.47281 5.5887 3.95793 2.78372 2.64361 3.68007 5.30144 7.22651 9.37535 11.785 14.399 17.3269 20.557 24.2324 28.3499 33.2239 31.5365 27.0683 23.3139 19.9232 16.9305 14.2243 11.7586 9.50227 7.44536 5.57778 3.94693 2.76947 2.62902 3.67046 5.28961 7.22083 9.35473 11.7419 14.3383 17.2232 20.3894 24.0084 28.0013 32.7242 30.501 26.3756 22.7509 19.5822 16.6812 14.0686 11.6504 9.45798 7.42085 5.56502 3.93481 2.75881 2.61746 3.64261 5.27899 7.18981 9.31734 11.6703 14.2191 17.062 20.1601 23.6069 27.507 32.0335 29.4546 25.6357 22.2658 19.2394 16.4546 13.9276 11.5768 9.40352 7.39448 5.55069 3.91967 2.74041 2.59838 3.63252 5.25974 7.14932 9.25486 11.5477 14.0596 16.823 19.826 23.196 26.8752 31.1812 28.5056 25.0335 21.8835 18.9855 16.3216 13.8372 11.5364 9.37806 7.38008 5.53517 3.90921 2.72736 2.59477 3.63424 5.23562 7.10711 9.16408 11.4228 13.8625 16.5582 19.5156 22.7868 26.3194 30.2743 27.9484 24.8045 21.7557 18.9312 16.2776 13.8208 11.5173 9.38175 7.37376 5.52624 3.89705 2.72418 2.58022 3.61522 5.20322 7.04847 9.06973 11.2729 13.6589 16.3027 19.211 22.454 25.9907 29.7143 28.3879 25.1945 22.0484 19.1086 16.407 13.8851 11.5659 9.3844 7.36927 5.51443 3.88347 2.70817 2.58028 3.60481 5.17788 6.99705 9.00098 11.1747 13.5317 16.1391 19.0358 22.3041 26.054 30.0249 30.8461 26.4549 22.8332 19.6497 16.7359 14.0781 11.6451 9.41872 7.37164 5.50219 3.86989 2.69848 2.57832 3.58921 5.1567 6.96753 8.96839 11.1605 13.5525 16.1965 19.1632 22.5194 26.4394 31.6954 33.7799 27.5827 23.4884 20.1046 17.1606 14.5517 12.2129 10.1093 8.2368 6.61387 5.29976 4.50008 4.41913 5.08414 6.31665 7.90835 9.75971 11.8347 14.1346 16.674 19.4993 22.617 26.2025 30.6761 31.5112 27.6279 23.6221 20.2098 17.2754 14.6601 12.3148 10.2159 8.30136 6.656 5.32269 4.50466 4.41537 5.10965 6.36017 7.96159 9.80771 11.8475 14.0734 16.4559 19.0118 21.7255 24.5431 27.1218 31.361 27.5522 23.9067 20.5468 17.5517 14.8672 12.4595 10.2909 8.37055 6.70504 5.35185 4.51844 4.43016 5.13435 6.39107 7.98017 9.80538 11.8111 13.9772 16.2872 18.7298 21.2817 23.8747 26.5768 32.1241 27.9248 24.2433 20.8698 17.8354 15.0955 12.6104 10.4044 8.42499 6.73116 5.36811 4.53268 4.46031 5.15938 6.40614 7.98306 9.79214 11.7723 13.9079 16.1954 18.628 21.2078 23.9582 27.0458 33.1877 28.476 24.5937 21.1844 18.0389 15.24 12.7173 10.4543 8.44743 6.73264 5.36798 4.536 4.47812 5.18325 6.40793 7.97117 9.76332 11.743 13.8883 16.2124 18.7 21.4363 24.4529 27.8835 34.0893 29.0608 24.9903 21.3801 18.2046 15.3523 12.7863 10.4724 8.45239 6.72615 5.37604 4.56295 4.5116 5.19747 6.40967 7.96104 9.7446 11.7487 13.923 16.3284 18.9501 21.8472 25.1086 28.8611 34.6004 29.4883 25.221 21.5157 18.3299 15.3902 12.835 10.4891 8.45248 6.73329 5.38686 4.58813 4.53463 5.20967 6.41371 7.95244 9.75621 11.7723 14.0087 16.5026 19.229 22.3034 25.8273 29.8573 34.6862 29.6728 25.3522 21.6048 18.3236 15.4089 12.7978 10.4686 8.43982 6.70545 5.38949 4.61407 4.55401 5.22132 6.40613 7.95236 9.76243 11.8287 14.1438 16.6876 19.5774 22.792 26.4794 30.6968 34.6704 29.6917 25.4028 21.6026 18.3363 15.3887 12.7698 10.424 8.41039 6.71589 5.41361 4.63017 4.57109 5.22299 6.40711 7.9605 9.79439 11.9008 14.2556 16.8956 19.9104 23.2371 27.0267 31.4502 34.541 29.6405 25.2622 21.5397 18.2625 15.3054 12.7318 10.3944 8.39854 6.7182 5.41348 4.64325 4.58098 5.22879 6.41209 7.97169 9.83496 11.9648 14.4061 17.0888 20.2066 23.6013 27.5114 32.0515 34.1265 29.3516 25.2288 21.4485 18.1728 15.254 12.6783 10.3601 8.38054 6.71801 5.42642 4.65995 4.58505 5.22674 6.41221 7.98427 9.86751 12.0451 14.5254 17.3039 20.3919 23.9349 27.9254 32.4563 33.9371 29.1622 25.0809 21.3427 18.0751 15.158 12.5827 10.3236 8.38217 6.7109 5.42518 4.66854 4.59266 5.22151 6.40703 7.99088 9.89783 12.1076 14.6018 17.4247 20.5871 24.168 28.2098 32.7432 33.6445 28.9227 24.7847 21.1684 17.9096 15.0586 12.5234 10.3166 8.3497 6.69587 5.43276 4.6733 4.58699 5.22256 6.41791 8.01991 9.96289 12.17 14.6857 17.5638 20.7688 24.3902 28.4607 33.0575 33.2706 28.6432 24.5534 20.9325 17.8134 14.9857 12.4369 10.2593 8.33553 6.70644 5.4376 4.67789 4.58359 5.21185 6.42452 8.03539 9.99822 12.1911 14.7942 17.658 20.862 24.548 28.6479 33.3059 32.8999 28.2562 24.2028 20.7431 17.6262 14.8699 12.4006 10.223 8.31855 6.70023 5.43782 4.66444 4.56955 5.20385 6.42502 8.04754 10.0289 12.2928 14.8625 17.7074 20.975 24.6546 28.8319 33.5105 32.3137 27.7627 23.8692 20.4846 17.4387 14.747 12.3064 10.1799 8.30182 6.70143 5.43967 4.65805 4.56022 5.19819 6.42564 8.06531 10.0495 12.3439 14.9026 17.8088 21.0409 24.7497 28.9109 33.6386 31.5665 27.2236 23.4725 20.1717 17.2226 14.6012 12.2341 10.1531 8.29318 6.70268 5.43725 4.64833 4.53952 5.1899 6.41006 8.08697 10.0967 12.3665 14.95 17.8268 21.0762 24.7341 28.8519 33.6997 30.7391 26.5757 22.9871 19.8466 17.0057 14.4767 12.1808 10.1253 8.29108 6.69997 5.4281 4.62613 4.51094 5.17636 6.43866 8.08925 10.0951 12.3648 14.9342 17.8079 21.0132 24.608 28.729 33.5668 29.8015 25.9242 22.5138 19.5328 16.814 14.3766 12.1438 10.1175 8.29956 6.70302 5.41844 4.60778 4.49341 5.15382 6.42839 8.10949 10.0857 12.3831 14.9123 17.7281 20.8853 24.4054 28.3554 33.1137 28.8178 25.2262 22.0994 19.2648 16.6937 14.3201 12.1279 10.1311 8.3057 6.7062 5.40305 4.58142 4.47106 5.1483 6.42181 8.09012 10.0511 12.3007 14.7749 17.5934 20.6819 24.1241 27.9381 32.4101 27.9659 24.7223 21.8112 19.1509 16.6571 14.3278 12.1605 10.1505 8.32075 6.69073 5.38246 4.54585 4.45297 5.14891 6.42026 8.07416 10.0164 12.2108 14.6692 17.3761 20.4052 23.7699 27.4831 31.6535 27.4265 24.5568 21.8222 19.208 16.7257 14.3985 12.2021 10.1755 8.31782 6.67439 5.35629 4.51612 4.43348 5.12679 6.40081 8.03518 9.92771 12.0693 14.4507 17.1065 20.0815 23.4496 27.1596 31.0926 27.7774 24.9583 22.1907 19.4742 16.9134 14.4985 12.2545 10.1849 8.30074 6.64552 5.32784 4.50459 4.42658 5.11908 6.36105 7.96682 9.83035 11.9102 14.2478 16.8335 19.7689 23.1304 27.0827 31.3506 30.0301 26.3532 23.0072 19.9955 17.1847 14.6247 12.2739 10.1552 8.25891 6.61012 5.30787 4.50147 4.42714 5.0994 6.3245 7.89647 9.73275 11.7979 14.1018 16.6894 19.594 22.9642 26.9876 32.547 34.1794 28.02 23.9921 20.6954 17.8538 15.3582 13.151 11.1993 9.51033 8.1008 7.04997 6.44477 6.37497 6.86363 7.84737 9.19709 10.8663 12.7957 14.9715 17.403 20.0933 23.0586 26.4331 30.3842 32.7754 28.8148 24.6688 21.2367 18.2779 15.6892 13.4153 11.4006 9.62744 8.16386 7.0501 6.40737 6.36921 6.89199 7.90621 9.32147 11.0129 12.9387 15.0567 17.3421 19.7722 22.3106 24.8286 26.9299 32.9247 28.9142 25.1723 21.6837 18.6661 15.985 13.6089 11.5256 9.73095 8.20072 7.07624 6.43611 6.38625 6.93559 7.97451 9.38212 11.0565 12.9455 14.9937 17.1709 19.4645 21.7917 24.0857 26.5253 33.7407 29.2337 25.4538 21.9978 18.9036 16.1747 13.7262 11.5706 9.72965 8.20428 7.08587 6.46397 6.43162 6.9853 8.01453 9.38828 11.0273 12.8618 14.8596 16.9822 19.2409 21.5969 24.1119 26.9581 34.543 29.6483 25.6659 22.157 19.071 16.2417 13.7876 11.5851 9.72563 8.22864 7.10182 6.49969 6.48818 7.02798 8.03255 9.36678 10.9615 12.7698 14.7478 16.8824 19.1936 21.7168 24.5198 27.7834 34.9912 30.0165 25.8721 22.2425 19.0613 16.241 13.7234 11.5602 9.69136 8.19326 7.1067 6.52909 6.52377 7.06487 8.03493 9.33732 10.9093 12.6975 14.6987 16.8803 19.3175 22.0291 25.0873 28.6849 35.0711 30.097 25.8602 22.2272 19.0334 16.1725 13.6699 11.4938 9.65259 8.17679 7.11267 6.57254 6.56026 7.08058 8.02224 9.30177 10.8487 12.6576 14.6759 16.9629 19.5311 22.4185 25.7327 29.5974 34.7641 29.9727 25.8305 22.1677 18.9317 16.065 13.5781 11.4181 9.61496 8.15959 7.13751 6.61111 6.6058 7.09471 8.01104 9.26907 10.8111 12.649 14.7343 17.1012 19.7975 22.8726 26.3404 30.3477 34.406 29.7393 25.5926 21.9971 18.7735 15.9879 13.5015 11.3629 9.58199 8.15899 7.158 6.6379 6.6217 7.09953 7.99007 9.24665 10.7913 12.6639 14.8224 17.2599 20.1014 23.236 26.8725 31.0889 33.9799 29.4599 25.4029 21.7513 18.616 15.849 13.3983 11.3194 9.54865 8.15752 7.18489 6.67079 6.64334 7.09648 7.9791 9.22777 10.7876 12.6974 14.8932 17.4389 20.337 23.6027 27.3309 31.6211 33.584 29.133 25.1363 21.6275 18.5007 15.7247 13.3329 11.2386 9.54103 8.17283 7.20431 6.69139 6.65351 7.09478 7.96259 9.21853 10.8168 12.7542 15.0096 17.6098 20.5529 23.8769 27.6962 32.0315 33.2943 28.8454 24.9648 21.4266 18.356 15.6305 13.2684 11.2401 9.52891 8.18623 7.22502 6.70785 6.65857 7.08246 7.94965 9.22182 10.8388 12.8096 15.0968 17.7501 20.7742 24.147 27.9624 32.4145 32.9354 28.5371 24.6428 21.2606 18.2135 15.5238 13.1867 11.1895 9.51725 8.19277 7.24627 6.72023 6.64838 7.06591 7.94151 9.20793 10.873 12.8649 15.2271 17.9075 20.9954 24.399 28.3408 32.6902 32.5456 28.1634 24.3769 21.0542 18.081 15.436 13.1319 11.1781 9.51791 8.21038 7.26503 6.72082 6.64143 7.05123 7.92303 9.21862 10.9126 12.9326 15.3084 18.0408 21.1433 24.6476 28.6018 33.0542 32.1434 27.9016 24.0995 20.7948 17.8893 15.3213 13.0823 11.1454 9.53357 8.22705 7.2645 6.71506 6.61991 7.0298 7.90835 9.24139 10.9508 13.0113 15.3806 18.194 21.2594 24.8908 28.8371 33.2865 31.6324 27.414 23.7231 20.5437 17.7103 15.213 13.0292 11.1441 9.54841 8.24063 7.27313 6.70369 6.59511 7.01035 7.91923 9.27891 11.002 13.0791 15.5408 18.3029 21.4933 25.0736 29.0651 33.714 30.9495 26.8886 23.3964 20.2816 17.5591 15.1338 13.0113 11.1555 9.56635 8.25649 7.27364 6.68487 6.5658 6.98401 7.91016 9.29205 11.0442 13.1599 15.6199 18.4307 21.6044 25.2213 29.347 33.9864 30.1918 26.3105 22.9524 20.0276 17.4088 15.0961 13.0189 11.1804 9.59418 8.27635 7.26994 6.64829 6.53458 6.95727 7.926 9.31915 11.1151 13.2508 15.7379 18.5072 21.7259 25.3234 29.395 34.1911 29.3311 25.7121 22.5858 19.7946 17.3196 15.0669 13.0401 11.2317 9.62861 8.28645 7.2441 6.61255 6.48549 6.95031 7.92349 9.37818 11.1552 13.3183 15.7865 18.5674 21.7188 25.3076 29.3206 34.1115 28.4545 25.1478 22.237 19.6569 17.2863 15.1132 13.1085 11.2864 9.66777 8.2854 7.21245 6.56371 6.45714 6.93142 7.93731 9.37733 11.19 13.3308 15.7693 18.5431 21.6557 25.1436 29.0859 33.7292 27.6672 24.7034 22.0652 19.6506 17.3648 15.2238 13.2024 11.3473 9.68581 8.27083 7.17051 6.50582 6.40953 6.92307 7.9504 9.39339 11.1973 13.2997 15.6999 18.4399 21.5031 24.9704 28.8145 33.1336 27.1407 24.5811 22.1637 19.8309 17.5305 15.3446 13.2936 11.3883 9.67839 8.2311 7.11735 6.45639 6.38222 6.89851 7.95426 9.38019 11.1413 13.1929 15.5418 18.2026 21.2188 24.7058 28.5724 32.7217 27.3126 25.0051 22.6313 20.1419 17.7345 15.4423 13.308 11.3611 9.63542 8.15917 7.06859 6.42254 6.36111 6.89216 7.91837 9.33779 11.0291 13.0056 15.2632 17.8338 20.773 24.2238 28.3657 32.831 29.2796 26.4158 23.3808 20.546 17.892 15.4419 13.2245 11.2428 9.52204 8.08653 7.02695 6.42789 6.36903 6.89228 7.85946 9.2112 10.8685 12.7695 14.9381 17.4311 20.2816 23.6146 27.666 33.4824 34.6425 28.6105 24.6999 21.5271 18.8034 16.4469 14.3933 12.6077 11.0867 9.8755 9.00362 8.49706 8.44035 8.81326 9.62956 10.7981 12.2864 14.0467 16.0709 18.3642 20.9125 23.708 26.8248 30.1715 34.277 30.2203 25.961 22.4958 19.5679 17.0218 14.832 12.8897 11.3051 9.93032 9.01583 8.46343 8.4046 8.85063 9.74182 10.9986 12.546 14.3602 16.3689 18.5459 20.8156 23.1511 25.3059 26.9245 34.7541 30.4722 26.6463 23.1045 20.0532 17.3571 15.0275 13.0291 11.3457 9.95884 8.99813 8.46061 8.45373 8.91754 9.82535 11.0994 12.6483 14.4244 16.3648 18.4155 20.5234 22.6248 24.5969 26.6786 35.4295 30.7125 26.799 23.3147 20.2086 17.4778 15.0923 13.0352 11.3252 9.95399 9.02833 8.50421 8.51589 9.00207 9.90838 11.146 12.644 14.3397 16.1888 18.1669 20.2084 22.3227 24.5683 27.181 35.8997 30.94 26.846 23.3171 20.1905 17.41 15.0569 12.9542 11.2498 9.92749 9.01017 8.55449 8.59818 9.09021 9.9476 11.1306 12.5653 14.1903 15.9988 17.9445 20.0478 22.3309 24.8728 27.9299 35.8623 30.9406 26.7414 23.152 20.0541 17.3085 14.8995 12.8424 11.1828 9.90876 9.04048 8.62545 8.66692 9.14058 9.96669 11.0928 12.4598 14.0468 15.833 17.8207 20.023 22.5122 25.3711 28.7316 35.3901 30.6409 26.5369 22.9877 19.8446 17.0939 14.7697 12.7529 11.1085 9.89189 9.07081 8.69321 8.74642 9.18228 9.94751 11.0282 12.3563 13.9127 15.7351 17.7885 20.1292 22.7972 25.9004 29.5322 34.7502 30.2364 26.2627 22.7308 19.6155 16.9337 14.5998 12.6467 11.0657 9.89028 9.11092 8.75914 8.80032 9.21006 9.94488 10.9684 12.2783 13.8402 15.6789 17.8256 20.3072 23.1333 26.4172 30.2372 34.032 29.7446 25.8832 22.4275 19.3917 16.7512 14.4915 12.5721 11.064 9.91776 9.15702 8.81419 8.8403 9.22631 9.91537 10.9166 12.2122 13.7883 15.6836 17.9136 20.5186 23.4801 26.8858 30.8508 33.4574 29.292 25.5112 22.1163 19.1976 16.6081 14.38 12.5215 11.0531 9.92802 9.21631 8.86542 8.87253 9.21819 9.88354 10.8674 12.1633 13.7834 15.7478 18.0505 20.6854 23.7975 27.2841 31.3621 32.9574 28.9384 25.2239 21.9204 18.9905 16.4757 14.2915 12.455 11.0469 9.96384 9.24978 8.895 8.88455 9.20464 9.84795 10.8233 12.1393 13.802 15.8059 18.1575 20.8879 24.0536 27.6455 31.7275 32.622 28.5246 24.9169 21.7177 18.8758 16.3446 14.2471 12.4648 11.0555 9.99745 9.29264 8.91803 8.8996 9.18941 9.81534 10.8023 12.137 13.8194 15.8824 18.3038 21.0614 24.3112 27.9576 32.0689 32.3516 28.2443 24.6817 21.492 18.7078 16.2538 14.1799 12.4601 11.0755 10.0364 9.32549 8.9361 8.87821 9.15773 9.7815 10.7726 12.1349 13.8649 15.976 18.4525 21.336 24.5744 28.2256 32.3024 32.0399 27.9813 24.4614 21.3019 18.5789 16.1777 14.1639 12.4707 11.0999 10.0715 9.35027 8.94394 8.8574 9.1241 9.75034 10.7555 12.1472 13.936 16.0579 18.5798 21.5057 24.8491 28.542 32.7035 31.6551 27.6605 24.1949 21.1119 18.4397 16.1263 14.144 12.4891 11.1447 10.1106 9.37015 8.93339 8.83423 9.08355 9.71987 10.7592 12.1808 13.9884 16.1881 18.7513 21.7024 25.0379 28.8219 33.1365 31.1631 27.2763 23.8759 20.9048 18.3059 16.061 14.1469 12.523 11.1872 10.1404 9.37501 8.90841 8.79264 9.04217 9.69494 10.7548 12.2297 14.0873 16.3253 18.9508 21.9216 25.4165 29.2724 33.624 30.5931 26.8166 23.5435 20.698 18.2134 16.0524 14.1697 12.5825 11.251 10.1764 9.37406 8.87977 8.743 8.9865 9.6642 10.7829 12.2761 14.1869 16.5156 19.1221 22.239 25.6869 29.6383 34.1585 29.8996 26.3484 23.2541 20.5443 18.1518 16.0692 14.2514 12.6661 11.2998 10.1978 9.36486 8.84627 8.66916 8.95332 9.64736 10.8121 12.3691 14.3391 16.6287 19.3473 22.44 25.9718 30.0119 34.6782 29.1733 25.8522 22.9253 20.392 18.1679 16.1617 14.3582 12.7584 11.364 10.2005 9.31643 8.76482 8.60464 8.90228 9.66262 10.8383 12.4624 14.4535 16.7984 19.5307 22.6657 26.1789 30.2313 35.062 28.4055 25.355 22.713 20.3871 18.2597 16.3015 14.4931 12.8614 11.403 10.1795 9.24764 8.69264 8.54655 8.8644 9.66575 10.9125 12.5547 14.5807 16.9179 19.671 22.7587 26.2741 30.2846 35.0679 27.6662 24.9695 22.6457 20.4991 18.4557 16.489 14.6381 12.9315 11.4156 10.1479 9.17512 8.59729 8.47823 8.85093 9.70151 10.9884 12.6048 14.607 16.9882 19.6691 22.7668 26.2526 30.1969 34.8133 27.0912 24.882 22.8254 20.7902 18.7007 16.6713 14.7251 12.9525 11.3827 10.068 9.09755 8.53464 8.43165 8.87083 9.72334 11.0024 12.6627 14.5826 16.8572 19.5144 22.5802 26.1215 30.0994 34.4954 27.089 25.2598 23.3409 21.0943 18.8737 16.7262 14.704 12.8835 11.2616 9.96488 8.99079 8.45758 8.41832 8.86315 9.73506 10.986 12.5416 14.4234 16.5974 19.1044 22.0463 25.5415 29.8162 34.5023 28.6518 26.6768 23.9602 21.3319 18.8331 16.5368 14.4735 12.6494 11.0812 9.85044 8.95911 8.48106 8.47015 8.87645 9.67875 10.8528 12.3111 14.0652 16.0934 18.4561 21.2071 24.4843 28.5424 34.5012 35.2676 29.4052 25.6281 22.5852 20.0125 17.8194 15.9342 14.281 12.9426 11.8884 11.1575 10.7234 10.6734 11.0046 11.6893 12.6703 13.9801 15.5746 17.4515 19.5814 21.9586 24.5634 27.3801 30.049 35.985 31.7721 27.4534 24.0216 21.0848 18.5982 16.4678 14.6654 13.1321 11.9275 11.0885 10.6404 10.5726 10.9933 11.7771 12.9102 14.3627 16.0733 17.9826 20.0444 22.1686 24.2681 26.0546 27.1362 36.7377 32.178 28.2216 24.6288 21.5902 18.9459 16.6784 14.7658 13.1628 11.9279 11.0659 10.6545 10.6331 11.0627 11.9177 13.1083 14.5597 16.245 18.0771 20.0127 21.9289 23.7452 25.3595 27.1322 37.2198 32.2669 28.2435 24.7313 21.6311 18.9513 16.6242 14.7056 13.0828 11.8931 11.0541 10.686 10.7357 11.2113 12.0505 13.2018 14.6015 16.1934 17.8897 19.7075 21.5451 23.382 25.3297 27.6686 37.1403 32.1703 28.0605 24.5272 21.4732 18.7945 16.4874 14.5339 13.0029 11.8206 11.1165 10.7655 10.8727 11.3186 12.1319 13.2199 14.5045 15.9996 17.6204 19.3764 21.252 23.2641 25.5645 28.3608 36.4986 31.7978 27.6894 24.1658 21.1176 18.495 16.2552 14.3872 12.9019 11.8296 11.1247 10.8719 10.977 11.4322 12.1836 13.1709 14.382 15.779 17.3609 19.1253 21.1053 23.3381 25.9467 29.0919 35.476 31.1456 27.1883 23.7857 20.8002 18.2218 16.0508 14.2552 12.8503 11.8396 11.2267 10.9897 11.1003 11.5167 12.1937 13.1049 14.2435 15.5964 17.1555 18.9811 21.0627 23.5108 26.3847 29.7692 34.5089 30.4126 26.6886 23.3645 20.4696 17.9698 15.8564 14.1283 12.8203 11.8757 11.2993 11.0849 11.1783 11.5461 12.1594 13.0156 14.0988 15.4269 17.0171 18.9075 21.133 23.7245 26.7787 30.3641 33.6504 29.7115 26.2069 22.9889 20.1908 17.7862 15.7489 14.0829 12.833 11.9187 11.3882 11.1812 11.2411 11.5674 12.1333 12.9217 13.9745 15.3114 16.9389 18.9075 21.2543 23.9838 27.1435 30.8711 32.9664 29.1881 25.78 22.7203 19.9598 17.626 15.6448 14.0383 12.8338 11.9963 11.4809 11.2477 11.2871 11.5638 12.0869 12.8533 13.8938 15.2375 16.9118 18.967 21.3899 24.2257 27.4481 31.2592 32.4994 28.8194 25.4232 22.4129 19.7911 17.4801 15.5808 14.0673 12.8843 12.0557 11.5538 11.3084 11.3171 11.5622 12.0349 12.7811 13.8202 15.2099 16.93 19.0354 21.5479 24.4418 27.7519 31.602 32.1903 28.4768 25.1517 22.216 19.65 17.4016 15.5555 14.0652 12.9297 12.1233 11.6052 11.3454 11.3208 11.5262 11.9876 12.7255 13.7774 15.174 16.945 19.1234 21.6747 24.6638 28.0125 31.8783 31.9876 28.2222 24.9532 22.0408 19.5134 17.3551 15.5515 14.0966 12.992 12.1865 11.6534 11.3698 11.3026 11.4872 11.9208 12.6624 13.7266 15.1817 16.9953 19.2548 21.8693 24.8176 28.2582 32.1292 31.7148 27.9885 24.7348 21.8827 19.4122 17.2943 15.5554 14.1453 13.0531 12.2486 11.7005 11.3781 11.2817 11.4294 11.8499 12.612 13.6949 15.1973 17.0707 19.3718 22.0397 25.079 28.5548 32.4169 31.3978 27.7111 24.5463 21.7349 19.331 17.298 15.5867 14.2147 13.1165 12.3088 11.7289 11.3677 11.2387 11.366 11.7996 12.5628 13.7044 15.2646 17.2161 19.5181 22.2776 25.3687 28.8891 32.8666 30.9627 27.3901 24.3135 21.6076 19.2837 17.3047 15.656 14.2958 13.2093 12.352 11.7416 11.3299 11.1716 11.2895 11.7386 12.5312 13.747 15.3318 17.3426 19.7148 22.5177 25.7737 29.3966 33.3632 30.5224 27.0779 24.0904 21.4957 19.2445 17.3567 15.7467 14.4035 13.2907 12.3994 11.7284 11.272 11.0942 11.2095 11.6709 12.5132 13.7654 15.411 17.505 19.9904 22.8467 26.1687 29.9347 34.1068 29.9818 26.6859 23.8519 21.3966 19.2969 17.4716 15.8955 14.5352 13.3708 12.429 11.6943 11.1993 10.9899 11.1124 11.6402 12.5354 13.8714 15.5568 17.73 20.2259 23.2207 26.631 30.5196 34.9486 29.3376 26.2792 23.6474 21.3963 19.4109 17.6617 16.0764 14.6673 13.4427 12.4095 11.622 11.0913 10.8711 11.0484 11.6221 12.5793 13.9851 15.7522 17.9509 20.5322 23.5687 27.0308 31.0618 35.7503 28.6622 25.8879 23.5447 21.4844 19.6253 17.8931 16.2863 14.7985 13.4733 12.3747 11.5268 10.9813 10.79 10.9713 11.6155 12.6482 14.1203 15.9617 18.2017 20.8457 23.8686 27.3784 31.4318 36.2786 27.9538 25.5762 23.5701 21.7435 19.9302 18.1492 16.4571 14.8701 13.4687 12.2872 11.3873 10.8383 10.6804 10.9321 11.6345 12.7209 14.2575 16.1389 18.3891 20.9997 24.0827 27.6033 31.6396 36.4348 27.3411 25.4868 23.8088 22.0839 20.2213 18.3399 16.5381 14.851 13.3772 12.1515 11.2554 10.7303 10.6247 10.9195 11.6929 12.8117 14.3333 16.2017 18.4257 20.9756 24.0365 27.5826 31.6896 36.3513 27.0889 25.8026 24.346 22.3687 20.3341 18.3151 16.4215 14.6756 13.1969 11.9931 11.1246 10.6707 10.6141 10.984 11.7344 12.8297 14.2868 16.0638 18.1476 20.6151 23.514 27.0383 31.3866 36.2791 28.2241 27.1381 24.7804 22.3841 20.0615 17.9212 15.9685 14.3398 12.9211 11.8797 11.1174 10.7395 10.6859 11.0382 11.731 12.753 14.053 15.6296 17.5182 19.7443 22.376 25.5778 29.6199 35.6413 36.0182 30.4216 26.7933 23.8878 21.4797 19.4795 17.7176 16.2528 15.0418 14.1633 13.5058 13.1484 13.0969 13.3619 13.9194 14.7687 15.9584 17.3654 19.0851 21.0647 23.2724 25.6547 28.174 30.094 37.8423 33.3706 29.0548 25.6034 22.7699 20.3915 18.3371 16.6341 15.2223 14.1144 13.3492 12.9593 12.9694 13.313 14.049 15.1033 16.4738 18.112 19.9283 21.8808 23.8093 25.6624 27.0457 27.5757 38.7784 33.8941 29.8285 26.2476 23.2099 20.6526 18.4653 16.6319 15.2053 14.0491 13.3065 12.9435 12.9799 13.4276 14.2567 15.3918 16.7912 18.3907 20.152 21.9362 23.6874 25.2206 26.4644 27.8603 38.9006 33.8073 29.6936 26.171 23.1536 20.524 18.3238 16.4908 15.0491 13.949 13.2697 13.0192 13.1151 13.6219 14.4468 15.5435 16.8755 18.3795 19.9834 21.634 23.2376 24.8091 26.4259 28.483 38.1499 33.3564 29.2078 25.7381 22.7597 20.2006 18.027 16.2733 14.9097 13.8956 13.3176 13.1375 13.3068 13.7822 14.5817 15.5988 16.8129 18.1789 19.6453 21.2153 22.8283 24.582 26.5967 29.1672 36.8468 32.4932 28.6078 25.2303 22.2881 19.8267 17.7672 16.0815 14.8562 13.9358 13.4533 13.2908 13.466 13.9441 14.6492 15.5714 16.6495 17.8859 19.2893 20.819 22.5297 24.5059 26.876 29.7603 35.4287 31.4967 27.8798 24.6571 21.9093 19.5174 17.5497 15.966 14.8032 14.0174 13.5688 13.4596 13.6346 14.0475 14.6877 15.4917 16.4655 17.6243 18.9877 20.5425 22.3791 24.5483 27.1505 30.3172 34.2456 30.6213 27.1965 24.1961 21.4938 19.2727 17.3849 15.9262 14.8393 14.1169 13.7141 13.6152 13.7761 14.1246 14.6605 15.3972 16.2999 17.386 18.7354 20.3674 22.3151 24.6518 27.4548 30.7674 33.3073 29.8322 26.6306 23.7528 21.2397 19.0488 17.2825 15.9029 14.9157 14.2291 13.8597 13.7539 13.8702 14.172 14.6268 15.2786 16.1213 17.2047 18.5707 20.2648 22.3258 24.795 27.7129 31.1358 32.6956 29.2835 26.1863 23.4478 20.9977 18.9439 17.2342 15.9195 14.9723 14.3385 13.9925 13.8745 13.938 14.1863 14.5742 15.1677 15.9917 17.0694 18.4695 20.2237 22.3742 24.9239 27.9363 31.434 32.3566 28.9247 25.9333 23.2417 20.827 18.866 17.2302 15.9758 15.068 14.4532 14.0982 13.9548 13.9735 14.1532 14.5085 15.0486 15.8598 16.9726 18.4201 20.231 22.453 25.0826 28.144 31.7096 32.0613 28.6634 25.6594 23.0657 20.7498 18.8209 17.2582 16.0522 15.1504 14.5499 14.193 14.0105 13.9808 14.1198 14.4181 14.9672 15.7591 16.8965 18.3802 20.2646 22.5646 25.259 28.3601 31.8766 31.8749 28.4763 25.5316 22.934 20.6981 18.8199 17.2947 16.12 15.2583 14.6474 14.2611 14.0376 13.9645 14.067 14.3463 14.8662 15.6891 16.8488 18.4083 20.3329 22.6593 25.3843 28.5372 32.1456 31.6621 28.3088 25.3707 22.8238 20.6423 18.8223 17.3633 16.2206 15.3649 14.7453 14.3067 14.044 13.9428 13.9802 14.2549 14.7757 15.6145 16.8119 18.4247 20.4149 22.8386 25.6097 28.7609 32.4097 31.4626 28.1248 25.2337 22.7468 20.6234 18.8637 17.4527 16.3219 15.4714 14.8166 14.3489 14.0289 13.8645 13.886 14.1498 14.6899 15.5567 16.8321 18.4618 20.5383 23.003 25.8886 29.098 32.6718 31.153 27.9122 25.1016 22.6833 20.6472 18.947 17.5596 16.4628 15.5759 14.8757 14.3404 13.9799 13.7705 13.7582 14.0367 14.5877 15.5394 16.8604 18.59 20.7503 23.2996 26.2124 29.586 33.213 30.8112 27.6439 24.9445 22.6529 20.714 19.0894 17.7226 16.6083 15.6913 14.9082 14.3175 13.8992 13.637 13.6419 13.912 14.5318 15.5111 16.9205 18.7626 20.976 23.6203 26.7007 30.1945 33.9493 30.3769 27.3432 24.8215 22.6734 20.8441 19.2954 17.941 16.7805 15.7949 14.946 14.2664 13.7754 13.5099 13.5 13.799 14.4984 15.5601 17.0731 18.9536 21.2712 24.0142 27.2959 30.9733 35.0448 29.8575 27.0683 24.7445 22.7913 21.0779 19.5756 18.1941 16.9513 15.87 14.9212 14.1656 13.6148 13.3291 13.3903 13.7597 14.4895 15.6332 17.2166 19.2435 21.6627 24.5329 27.8666 31.7896 36.2247 29.2637 26.7803 24.7367 23.0083 21.4064 19.8906 18.4474 17.0999 15.9038 14.8385 13.9985 13.4252 13.1651 13.2546 13.719 14.5638 15.8271 17.4815 19.5562 22.0698 24.9975 28.432 32.5101 37.2577 28.6073 26.5337 24.8675 23.3425 21.7862 20.2095 18.65 17.1616 15.8233 14.7014 13.8319 13.2525 13.0179 13.1801 13.7442 14.7195 16.0276 17.7441 19.8741 22.436 25.3905 28.8743 32.9874 37.9357 27.8949 26.4133 25.1594 23.7376 22.0965 20.387 18.6761 17.0985 15.6762 14.4746 13.6234 13.0877 12.924 13.1824 13.827 14.8236 16.1916 17.9086 20.0252 22.5202 25.5213 29.0768 33.2416 38.1414 27.3913 26.6253 25.6431 23.9678 22.1297 20.2523 18.4346 16.807 15.4003 14.2772 13.4841 13.0285 12.9296 13.2557 13.9121 14.8946 16.2446 17.8903 19.8434 22.2627 25.0984 28.5731 32.9856 38.083 28.0392 27.8801 25.8852 23.719 21.5836 19.5793 17.8074 16.2938 15.0329 14.0859 13.4614 13.1256 13.099 13.393 13.9931 14.8694 16.0323 17.4661 19.2279 21.2956 23.7996 26.8981 30.8987 36.9196 36.9084 31.6526 28.1938 25.4705 23.2211 21.3484 19.7764 18.4816 17.413 16.618 16.1067 15.7801 15.759 15.9487 16.4341 17.1943 18.1923 19.4827 21.0322 22.8318 24.8606 27.023 29.2042 30.3268 39.7651 34.9007 30.5824 27.2792 24.5256 22.2443 20.3442 18.7287 17.4654 16.4473 15.7925 15.4562 15.4888 15.8604 16.5821 17.609 18.9437 20.49 22.227 24.0386 25.8214 27.3716 28.3202 28.3056 40.7183 35.4924 31.317 27.7712 24.8577 22.4113 20.3257 18.6303 17.3075 16.2968 15.6602 15.4179 15.5415 16.0095 16.8306 17.9659 19.3288 20.9224 22.6032 24.274 25.8118 27.0497 27.9071 28.9531 40.3379 35.2334 31.0153 27.5293 24.5681 22.1375 20.0697 18.4283 17.1347 16.1933 15.6601 15.4927 15.6998 16.2222 17.0825 18.1893 19.4876 20.9374 22.4599 23.9319 25.3328 26.6289 27.9314 29.7117 38.8225 34.3089 30.3277 26.9514 24.1023 21.6931 19.7549 18.1831 16.9662 16.1678 15.7601 15.6828 15.9201 16.46 17.2595 18.2793 19.4399 20.7226 22.0495 23.42 24.8064 26.2877 28.0139 30.3247 36.9955 33.1041 29.4517 26.2481 23.6167 21.2949 19.4597 18.0191 16.9643 16.2606 15.9424 15.917 16.2045 16.6991 17.3954 18.2603 19.2822 20.3977 21.6058 22.9071 24.3779 26.0561 28.1215 30.7805 35.2505 31.8555 28.5583 25.7106 23.1106 21.0013 19.255 17.9531 17.0039 16.4352 16.1489 16.1754 16.4148 16.8673 17.4692 18.1875 19.0598 20.0491 21.1794 22.4938 24.0437 25.9301 28.2517 31.1584 34.0346 30.8224 27.8803 25.1406 22.7716 20.7998 19.1998 17.9956 17.1213 16.6102 16.3908 16.4097 16.5963 16.9739 17.4726 18.0718 18.8298 19.7549 20.8424 22.184 23.8422 25.8838 28.4153 31.4624 33.2246 30.1691 27.3081 24.7938 22.552 20.6884 19.1672 18.042 17.2639 16.8068 16.6093 16.6036 16.7599 17.0407 17.4358 17.9374 18.6131 19.4707 20.5684 21.9716 23.7407 25.9016 28.5527 31.6936 32.723 29.6519 26.9291 24.5039 22.407 20.6288 19.2345 18.1573 17.4357 16.9936 16.796 16.7547 16.8652 17.0705 17.3796 17.8075 18.4294 19.2551 20.3983 21.8484 23.7137 25.9646 28.6895 31.8704 32.4089 29.3633 26.6569 24.3331 22.2903 20.5949 19.2613 18.2633 17.5859 17.1677 16.9365 16.8638 16.9074 17.0516 17.2814 17.6625 18.2543 19.0932 20.2662 21.778 23.699 26.0386 28.7855 32.0343 32.2168 29.1781 26.5346 24.2217 22.2345 20.6226 19.349 18.395 17.7378 17.315 17.0602 16.9502 16.9335 16.9863 17.1832 17.5348 18.1088 18.9736 20.1653 21.7568 23.7384 26.103 28.9222 32.1444 32.0966 29.0569 26.4176 24.1495 22.2228 20.6611 19.4413 18.5186 17.8717 17.4539 17.1564 16.9908 16.9189 16.911 17.0695 17.3942 17.9813 18.8739 20.1143 21.7601 23.798 26.2186 29.0277 32.2952 31.981 28.9593 26.3567 24.1032 22.2498 20.7288 19.5538 18.6699 18.0182 17.5476 17.2151 16.9993 16.8539 16.8111 16.9319 17.2613 17.842 18.7953 20.0886 21.8055 23.8873 26.3421 29.1987 32.4823 31.8189 28.8332 26.2739 24.1068 22.3038 20.8395 19.7095 18.8281 18.1524 17.6538 17.2658 16.9574 16.7636 16.6784 16.7819 17.106 17.7675 18.7461 20.1066 21.8617 24.0331 26.5517 29.4799 32.7383 31.665 28.7196 26.2021 24.1185 22.4006 21.0031 19.8911 18.9938 18.2871 17.722 17.2531 16.8744 16.6257 16.5202 16.6141 16.9727 17.6155 18.6807 20.1231 21.9736 24.2391 26.8745 29.8637 33.1573 31.4418 28.5884 26.1762 24.1956 22.5617 21.231 20.1503 19.211 18.4223 17.7625 17.1955 16.755 16.4309 16.3157 16.4077 16.8215 17.574 18.6655 20.2421 22.1619 24.5438 27.3179 30.4685 33.9409 31.1118 28.4221 26.1808 24.3422 22.8239 21.5203 20.404 19.4177 18.5319 17.7633 17.0948 16.5847 16.2366 16.0781 16.2258 16.6945 17.539 18.7454 20.3763 22.4795 24.9583 27.8738 31.3142 35.0439 30.7564 28.2355 26.2363 24.5898 23.1816 21.9091 20.7255 19.6189 18.6122 17.6988 16.9423 16.3797 15.9918 15.8571 16.0768 16.6391 17.578 18.8941 20.6344 22.8319 25.505 28.6555 32.3391 36.3986 30.2844 28.0719 26.3697 24.9313 23.6131 22.3058 21.0119 19.7779 18.6083 17.5713 16.7328 16.116 15.7618 15.6787 16.0075 16.6742 17.7038 19.1581 21.0124 23.3365 26.0663 29.356 33.3469 37.9119 29.6436 27.8648 26.5657 25.3639 24.0685 22.6759 21.2191 19.8285 18.5041 17.399 16.4976 15.8713 15.5397 15.5755 15.9682 16.7753 17.9246 19.435 21.3863 23.7323 26.5921 30.042 34.1334 39.1722 28.8308 27.7088 26.8661 25.8025 24.3971 22.8246 21.235 19.6719 18.2896 17.1321 16.2197 15.6603 15.399 15.5724 16.0892 16.9656 18.1646 19.7186 21.6759 24.0942 26.9121 30.3926 34.5707 39.7389 27.9939 27.7641 27.2819 25.9432 24.3217 22.5597 20.8398 19.2913 17.9318 16.8173 16.0282 15.566 15.464 15.6705 16.2628 17.1281 18.3202 19.8322 21.6835 23.9524 26.7149 30.0331 34.4256 39.7332 28.1493 28.9621 27.3482 25.4165 23.4465 21.5851 19.9344 18.5639 17.4526 16.6335 16.0464 15.809 15.7215 15.9834 16.4877 17.224 18.2359 19.5527 21.1113 23.0358 25.4221 28.4154 32.3616 38.2741 37.9306 33.0847 29.7918 27.235 25.1712 23.485 22.0795 20.9324 20.0863 19.3681 18.9307 18.7128 18.6851 18.9085 19.2753 19.9198 20.7687 21.9347 23.2966 24.9426 26.8161 28.7515 30.564 30.8283 41.5742 36.14 31.9178 28.7949 26.2497 24.1449 22.3874 20.9847 19.8114 18.9877 18.436 18.1625 18.2529 18.6979 19.4063 20.4382 21.7338 23.2743 24.9345 26.671 28.2428 29.4922 29.9575 29.4125 42.3701 36.8258 32.4825 29.0878 26.3442 24.065 22.1861 20.6523 19.4753 18.6958 18.1787 18.0301 18.3093 18.8111 19.7098 20.8606 22.3181 23.8191 25.4562 27.0296 28.364 29.308 29.7826 30.4967 41.2744 36.371 32.134 28.6593 25.9556 23.6993 21.845 20.3751 19.2562 18.5699 18.1977 18.1881 18.498 19.0736 20.008 21.1403 22.4609 23.8912 25.3088 26.6862 27.8941 28.9066 29.9049 31.4003 39.0684 35.067 31.2788 28.0885 25.4141 23.2416 21.5368 20.2331 19.2096 18.6074 18.3536 18.4276 18.811 19.3978 20.2739 21.2527 22.401 23.6158 24.8544 26.0683 27.2428 28.4404 29.8557 31.9076 36.8209 33.5185 30.2932 27.4236 24.9784 22.95 21.372 20.1795 19.2894 18.8326 18.6627 18.7711 19.1412 19.6945 20.4286 21.2701 22.2218 23.253 24.313 25.4115 26.6152 27.9943 29.7606 32.1588 35.1938 32.2418 29.4138 26.8459 24.6465 22.8019 21.2926 20.2503 19.5104 19.0888 19.0122 19.1339 19.4666 19.9534 20.5529 21.2379 22.0001 22.8507 23.7629 24.8198 26.0809 27.6566 29.6883 32.3056 34.0659 31.2701 28.7404 26.3929 24.3649 22.675 21.36 20.3985 19.736 19.4112 19.3322 19.4595 19.7563 20.1306 20.5848 21.1247 21.7252 22.4381 23.2965 24.3687 25.7024 27.4471 29.6348 32.4037 33.3582 30.7006 28.2644 26.0991 24.2033 22.6691 21.4176 20.5526 20.0154 19.7036 19.6293 19.7492 19.9406 20.2276 20.5723 20.9644 21.4571 22.0995 22.9321 24.0354 25.4524 27.3125 29.6607 32.4979 32.9927 30.3171 27.9864 25.9212 24.1328 22.6941 21.5517 20.7325 20.24 19.9773 19.8967 19.9652 20.0835 20.2656 20.4988 20.8012 21.2164 21.8162 22.6607 23.7992 25.3276 27.2557 29.6574 32.6006 32.843 30.1339 27.8306 25.8162 24.1222 22.7445 21.6867 20.932 20.4795 20.2209 20.1067 20.1125 20.162 20.2406 20.3929 20.6228 20.9927 21.5745 22.455 23.6674 25.2665 27.2756 29.7115 32.6523 32.7176 30.0561 27.7348 25.7678 24.1275 22.8394 21.8237 21.1233 20.6755 20.418 20.2743 20.2046 20.1759 20.1814 20.2647 20.4386 20.7943 21.4027 22.3245 23.592 25.2349 27.2954 29.7446 32.7177 32.6762 30.0122 27.7013 25.7619 24.1831 22.9174 21.9733 21.3021 20.8614 20.5701 20.389 20.2478 20.1489 20.0977 20.1143 20.252 20.6114 21.2353 22.2225 23.5333 25.2306 27.3377 29.81 32.7974 32.6483 29.9525 27.68 25.7962 24.2586 23.0472 22.1404 21.4993 21.0387 20.7166 20.4916 20.2503 20.0772 19.9553 19.9304 20.0621 20.4348 21.1162 22.1252 23.5307 25.2579 27.3954 29.947 32.8956 32.5662 29.9044 27.6753 25.847 24.3776 23.2386 22.3702 21.7164 21.2233 20.8353 20.4951 20.2016 19.9646 19.7615 19.7178 19.8601 20.2552 20.9749 22.0626 23.5468 25.339 27.5716 30.128 33.0395 32.4697 29.8675 27.7079 25.9664 24.5758 23.4837 22.6289 21.9514 21.3959 20.9318 20.4785 20.1011 19.7717 19.5346 19.4766 19.6223 20.0883 20.8528 22.0402 23.5533 25.4943 27.7651 30.3907 33.4073 32.3756 29.8432 27.7943 26.1421 24.8483 23.8018 22.9346 22.196 21.5439 20.9417 20.3993 19.9126 19.5146 19.2737 19.1984 19.4029 19.908 20.7683 22.0058 23.6867 25.7081 28.1293 30.8778 33.9981 32.2314 29.8458 27.944 26.4503 25.2373 24.2205 23.2985 22.446 21.6532 20.9002 20.2451 19.6553 19.19 18.9629 18.8918 19.1704 19.7516 20.7446 22.1069 23.8837 26.0328 28.7155 31.7022 34.9697 32.0523 29.8492 28.1827 26.8653 25.7385 24.6949 23.6659 22.6614 21.7072 20.8364 20.0072 19.3516 18.8753 18.6532 18.7059 18.9994 19.7007 20.7718 22.2284 24.1667 26.5379 29.3846 32.7297 36.3746 31.7338 29.8218 28.4791 27.3696 26.2871 25.1747 24.0004 22.8169 21.6787 20.6227 19.7256 19.0249 18.5395 18.3461 18.4333 18.8865 19.6954 20.8894 22.4971 24.5131 27.0376 30.1914 33.9244 38.1969 31.1834 29.7085 28.7886 27.8864 26.8277 25.5627 24.2329 22.873 21.5626 20.3853 19.4213 18.6972 18.251 18.1358 18.3829 18.8943 19.89 21.2032 22.8904 25.0171 27.6295 30.8697 34.9836 39.9527 30.2234 29.4348 29.0451 28.305 27.1549 25.7201 24.1966 22.6648 21.282 20.0532 19.1158 18.4768 18.1099 18.1296 18.4049 19.1495 20.1544 21.5435 23.271 25.4196 28.0786 31.3226 35.567 40.9486 29.0351 29.3003 29.3682 28.3865 26.9767 25.3281 23.6924 22.1667 20.8001 19.694 18.8611 18.3712 18.1525 18.2954 18.7328 19.4516 20.4655 21.7944 23.4722 25.5638 28.0398 31.2448 35.5025 41.0485 28.6459 30.4792 29.2877 27.5645 25.7298 24.0148 22.5003 21.2387 20.2313 19.4623 18.9808 18.7106 18.6504 18.8305 19.1863 19.8087 20.6743 21.7669 23.1803 24.9511 27.1884 30.058 33.9387 39.6693 38.8116 34.5172 31.4924 29.1319 27.272 25.8113 24.6123 23.659 22.981 22.4438 22.1074 21.939 21.9231 22.1843 22.4972 23.0575 23.8338 24.8497 26.0285 27.5308 29.1986 30.9518 32.3478 31.6393 42.9377 36.6252 32.7078 29.9681 27.7211 25.8735 24.386 23.1845 22.27 21.6137 21.1902 21.1731 21.3135 21.8479 22.6204 23.7245 25.0606 26.586 28.1847 29.7898 31.1823 32.0805 32.0063 30.9612 43.409 37.7028 33.125 29.9692 27.5175 25.551 23.9505 22.734 21.7559 21.1761 20.8659 20.9192 21.2544 21.9448 22.9185 24.1929 25.6725 27.2382 28.86 30.3397 31.4968 32.1917 32.3018 32.7093 41.5564 37.1229 32.9512 29.669 27.1727 25.1378 23.6175 22.4135 21.5375 21.0493 20.9135 21.0536 21.5011 22.2478 23.2048 24.4215 25.7731 27.1992 28.6334 29.9428 31.0049 31.8034 32.5116 33.7544 38.8891 35.5834 32.2001 29.2141 26.8464 24.9566 23.5001 22.3729 21.6762 21.3045 21.1998 21.417 21.8795 22.5855 23.5186 24.5695 25.7219 26.9208 28.0897 29.1891 30.1927 31.095 32.1927 33.9737 36.7246 34.0229 31.2912 28.7297 26.5815 24.8809 23.5287 22.5788 21.982 21.6683 21.6513 21.9362 22.416 23.024 23.8171 24.6471 25.5617 26.5073 27.457 28.3659 29.2629 30.3038 31.7384 33.8483 35.3138 32.8289 30.506 28.3612 26.4519 24.8861 23.683 22.8636 22.3265 22.1281 22.1545 22.4539 22.8241 23.397 23.9826 24.6464 25.3226 26.0284 26.7621 27.5496 28.4699 29.6815 31.356 33.6949 34.4565 32.1337 29.9673 28.0428 26.368 24.9325 23.8959 23.1571 22.7368 22.5911 22.6629 22.9053 23.2365 23.6282 24.0906 24.5179 25.0155 25.5344 26.1498 26.8908 27.8804 29.2429 31.1005 33.589 34.0049 31.6963 29.6545 27.8802 26.3194 25.0591 24.123 23.453 23.1155 23.0224 23.0698 23.2791 23.5126 23.7888 24.0623 24.3348 24.675 25.0808 25.6229 26.401 27.5091 28.9776 30.972 33.5337 33.7472 31.4747 29.474 27.7751 26.3404 25.1878 24.3347 23.7389 23.4609 23.3357 23.4025 23.5303 23.7033 23.8309 23.9753 24.1295 24.3518 24.702 25.2549 26.0898 27.2783 28.8522 30.9126 33.5293 33.6769 31.345 29.378 27.7582 26.3783 25.3015 24.5291 24.0132 23.7561 23.6579 23.672 23.7053 23.7955 23.8277 23.8633 23.903 24.0658 24.4108 24.99 25.8762 27.1339 28.7994 30.8884 33.5346 33.6429 31.3045 29.3521 27.7587 26.4524 25.435 24.7189 24.2505 23.9937 23.9021 23.8711 23.8648 23.8162 23.7502 23.6972 23.6813 23.8215 24.1813 24.8034 25.744 27.0627 28.7577 30.9387 33.5419 33.6417 31.2799 29.3527 27.7982 26.5352 25.5757 24.9196 24.4703 24.2238 24.0992 24.0146 23.8918 23.764 23.6167 23.5048 23.4717 23.5903 23.9685 24.6524 25.6676 27.0352 28.7914 30.9458 33.5742 33.635 31.284 29.3913 27.8476 26.6548 25.7688 25.1423 24.7267 24.4661 24.2661 24.0924 23.9053 23.6794 23.4476 23.2711 23.2263 23.3636 23.7965 24.5237 25.5999 27.0448 28.8029 30.9629 33.616 33.5957 31.3057 29.434 27.981 26.8445 26.0156 25.4192 24.993 24.6716 24.4106 24.1202 23.8323 23.4988 23.2067 22.995 22.9695 23.1302 23.5963 24.3999 25.5475 27.0226 28.878 31.1214 33.716 33.604 31.3434 29.5446 28.1856 27.1387 26.3638 25.7692 25.3042 24.9051 24.4962 24.0965 23.6646 23.2731 22.9134 22.6862 22.6423 22.858 23.403 24.3145 25.5304 27.1032 29.0121 31.3194 33.9294 33.6071 31.4612 29.7569 28.5075 27.5489 26.8073 26.1851 25.6178 25.0634 24.5386 23.9527 23.4265 22.9628 22.5309 22.3201 22.3096 22.5791 23.2033 24.1634 25.5143 27.2203 29.2579 31.655 34.3223 33.6636 31.6247 30.091 28.9869 28.1126 27.3702 26.6391 25.9166 25.188 24.4425 23.7601 23.0784 22.5158 22.1118 21.8775 21.9439 22.3074 23.0124 24.0911 25.5476 27.4089 29.719 32.2627 35.103 33.7249 31.8798 30.5833 29.6563 28.8232 27.9641 27.067 26.1284 25.1972 24.2667 23.3943 22.6838 22.0456 21.6076 21.4756 21.613 22.0621 22.8645 24.0917 25.6801 27.7367 30.2498 33.1823 36.3008 33.7237 32.1411 31.1391 30.3674 29.5267 28.5233 27.4294 26.2667 25.0897 24.0129 23.002 22.1576 21.5683 21.1931 21.0876 21.3548 21.9032 22.8067 24.0885 25.8473 28.0946 30.8889 34.3377 38.1099 33.352 32.2092 31.6439 31.0108 30.1243 28.9673 27.6595 26.2967 24.9324 23.6808 22.6128 21.8049 21.1979 20.8942 20.9262 21.1627 21.8781 22.9333 24.2767 26.1484 28.4396 31.5021 35.4047 40.1343 32.2755 31.826 31.8295 31.4301 30.4769 29.2003 27.684 26.1618 24.6877 23.3775 22.2999 21.4857 21.0199 20.7889 20.9081 21.3396 22.1183 23.1689 24.6106 26.4423 28.7765 31.7725 35.9419 41.564 30.6338 31.3914 32.0162 31.4363 30.2492 28.715 27.1103 25.6132 24.1831 23.0055 22.1131 21.5299 21.1599 21.0996 21.289 21.8136 22.6183 23.711 25.0671 26.841 29.084 31.9058 35.8419 41.5719 29.624 32.6064 31.8725 30.3683 28.6327 27.0169 25.6493 24.4413 23.5255 22.7837 22.2638 21.9568 21.806 21.8573 22.0913 22.5063 23.1826 24.0826 25.2686 26.8237 28.8692 31.5812 35.3242 40.7211 38.9324 35.4569 32.8418 30.8709 29.3477 28.2321 27.3379 26.6844 26.218 25.9731 25.7737 25.7352 25.7821 26.0226 26.3482 26.8533 27.4472 28.3258 29.4345 30.7536 32.261 33.7892 34.726 32.905 43.3319 36.0687 32.6243 30.389 28.5962 27.1951 26.1369 25.2913 24.6666 24.3517 24.247 24.4335 24.8023 25.4507 26.4506 27.6485 29.0163 30.5805 32.2263 33.7944 35.0261 35.6074 35.0183 33.5174 43.4696 37.8261 33.2583 30.3693 28.2871 26.699 25.4465 24.5508 23.9402 23.6272 23.6207 23.9117 24.4508 25.3049 26.4145 27.8218 29.4206 31.0804 32.7721 34.2739 35.4753 36.116 36.0939 36.1575 41.1281 37.5151 33.644 30.5983 28.3942 26.6828 25.4979 24.5402 24.0395 23.7828 23.799 24.105 24.7531 25.6627 26.7158 28.0182 29.4424 30.9834 32.4674 33.7872 34.847 35.5073 35.9082 36.7966 38.6742 36.1257 33.2592 30.6409 28.4958 26.8641 25.7188 24.9252 24.3891 24.2282 24.3721 24.7146 25.34 26.154 27.1633 28.2748 29.465 30.7077 31.8642 32.8947 33.6412 34.2202 34.9081 36.3582 37.021 34.878 32.6457 30.4654 28.6131 27.1358 26.1045 25.3833 24.9539 24.8854 25.0591 25.399 26.0092 26.7407 27.5628 28.4521 29.3777 30.2491 31.0496 31.71 32.2834 32.9384 33.9394 35.7289 36.0075 34.0128 32.121 30.3195 28.7373 27.4582 26.492 25.8874 25.6117 25.5432 25.7524 26.1276 26.6304 27.2197 27.8747 28.4895 29.0826 29.6423 30.1303 30.6083 31.1526 31.9819 33.2174 35.2561 35.4326 33.4871 31.7781 30.2254 28.81 27.7081 26.8704 26.3796 26.1799 26.1747 26.4002 26.7603 27.1687 27.602 28.0161 28.3764 28.6914 28.9807 29.3043 29.7269 30.3567 31.3139 32.7949 34.9596 35.1 33.1968 31.5525 30.1316 28.9238 27.9397 27.2441 26.8028 26.6525 26.7128 26.9483 27.2432 27.5494 27.8106 28.0105 28.1366 28.2613 28.4025 28.6497 29.1016 29.8113 30.9327 32.549 34.8034 34.9741 33.0669 31.4795 30.1288 29.0052 28.1322 27.5258 27.205 27.0897 27.1911 27.3351 27.586 27.7324 27.8695 27.8822 27.876 27.8336 27.9064 28.1711 28.6665 29.5101 30.7302 32.4609 34.766 34.955 33.0267 31.4521 30.1404 29.091 28.3318 27.7939 27.5066 27.4438 27.5584 27.6661 27.8527 27.8809 27.8612 27.7045 27.5864 27.4854 27.5434 27.8317 28.4182 29.3366 30.6388 32.4337 34.7377 34.9551 33.0044 31.4283 30.1778 29.1885 28.4706 28.0413 27.8102 27.7716 27.8206 27.9369 27.9643 27.8613 27.7167 27.5152 27.3048 27.1817 27.27 27.6057 28.2553 29.2399 30.6042 32.4072 34.7017 35.0014 33.0175 31.4608 30.2371 29.301 28.6481 28.2695 28.0823 28.0435 28.0854 28.0935 28.0353 27.8413 27.5804 27.2628 27.0279 26.9071 27.0464 27.4266 28.1508 29.1883 30.6012 32.3954 34.7252 34.9914 33.0404 31.4946 30.325 29.4629 28.888 28.5399 28.3536 28.3254 28.2751 28.2024 28.0222 27.7273 27.3461 27.0255 26.7452 26.6571 26.8271 27.2878 28.0403 29.1655 30.6011 32.4318 34.7354 35.0178 33.0926 31.5766 30.4861 29.7128 29.1903 28.8832 28.7339 28.5875 28.4455 28.1968 27.9446 27.5132 27.0549 26.6692 26.4281 26.367 26.5811 27.1057 27.9739 29.1369 30.6261 32.502 34.7696 35.087 33.1707 31.7777 30.7766 30.0841 29.6463 29.3461 29.1037 28.8592 28.552 28.1432 27.7167 27.192 26.69 26.2829 26.0388 26.0142 26.3464 26.9047 27.8556 29.1343 30.6998 32.5757 34.8883 35.1806 33.3693 32.0961 31.2302 30.6583 30.2522 29.8726 29.5098 29.0766 28.5845 27.9971 27.365 26.7576 26.2214 25.7897 25.6041 25.6634 26.0156 26.6947 27.7556 29.1641 30.8466 32.8327 35.1753 35.4059 33.734 32.6595 31.957 31.4399 30.9773 30.4586 29.8627 29.1796 28.4485 27.6763 26.9057 26.2025 25.6264 25.2496 25.0861 25.2391 25.6893 26.4745 27.6693 29.1805 31.0751 33.2248 35.6778 35.7862 34.3078 33.4824 32.9327 32.4376 31.8067 30.9984 30.1282 29.1294 28.1505 27.2125 26.3215 25.5494 24.9805 24.679 24.5396 24.8111 25.3158 26.2107 27.4986 29.2367 31.4037 33.863 36.534 36.2183 35.0438 34.5135 34.0646 33.4146 32.5023 31.3977 30.1991 28.9531 27.7313 26.6539 25.7285 24.9023 24.3702 24.0719 24.0184 24.3687 24.9738 26.0041 27.4069 29.3499 31.8179 34.7542 37.9653 36.398 35.6221 35.43 34.9948 34.1674 32.9988 31.5997 30.1474 28.6963 27.3031 26.1247 25.1481 24.3142 23.8035 23.6281 23.6752 24.009 24.765 25.7875 27.2681 29.2565 31.9855 35.6075 39.7942 35.4665 35.3985 35.7326 35.4673 34.5701 33.283 31.7191 30.1103 28.4887 27.0151 25.816 24.8149 24.0919 23.6424 23.4792 23.5312 23.9737 24.7154 25.7083 27.1943 29.0906 31.7096 35.6462 41.2686 33.2109 34.4288 35.6188 35.4385 34.4071 32.9979 31.3597 29.7577 28.3068 26.9195 25.8686 25.006 24.4143 24.0144 23.9116 24.031 24.4639 25.0953 26.09 27.4063 29.1615 31.477 34.9264 40.7965 31.461 35.7735 35.504 34.1458 32.4794 30.9438 29.5983 28.3827 27.4035 26.687 26.1567 25.6689 25.3998 25.2169 25.2116 25.4035 25.7055 26.3493 27.2192 28.3853 30.1025 32.4741 35.9403 40.7569 36.2067 33.7217 32.1985 31.1555 30.453 30.0229 29.8335 29.8024 29.8744 30.0816 30.327 30.6192 31.0237 31.3018 31.6288 32.0523 32.629 33.3408 34.1907 35.2488 36.3831 37.3882 37.6491 34.6852 42.024 34.5621 31.4196 29.6585 28.3363 27.499 26.9498 26.6588 26.5761 26.7405 27.0192 27.5134 28.2638 29.1308 30.2623 31.6092 33.1651 34.9132 36.6932 38.4756 39.947 40.7887 40.3963 38.4885 42.8448 37.9885 33.5401 30.9828 29.2094 27.9329 27.1675 26.551 26.3054 26.3054 26.4926 26.9892 27.6957 28.7833 30.0624 31.6052 33.3559 35.225 37.1218 38.9067 40.3565 41.1901 41.1366 40.6131 41.1366 38.4173 34.8233 32.0251 30.114 28.7109 27.7076 27.1375 26.7627 26.7333 26.9817 27.5018 28.2776 29.2873 30.5415 31.9828 33.6422 35.3015 36.9216 38.3496 39.3702 39.8048 39.7146 40.0047 39.4543 37.5113 35.0182 32.6294 30.7393 29.424 28.4876 27.8546 27.6001 27.6154 27.916 28.4037 29.1763 30.1407 31.3162 32.5419 33.867 35.1083 36.1999 37.0141 37.4983 37.6035 37.7454 38.7131 38.2992 36.6154 34.7473 32.8424 31.2298 30.0737 29.2025 28.7161 28.5291 28.5941 28.9275 29.4779 30.2132 31.0259 31.9488 32.8896 33.7807 34.4949 35.0652 35.4111 35.5621 35.7076 36.2656 37.673 37.5836 35.9939 34.4243 32.9552 31.5979 30.5659 29.869 29.4354 29.3992 29.5475 29.9148 30.4626 31.062 31.7493 32.3841 32.9227 33.3468 33.6598 33.8235 33.9253 34.04 34.4183 35.3043 37.0001 37.1725 35.6243 34.2436 32.9499 31.861 30.9939 30.4378 30.1664 30.1264 30.3571 30.756 31.2288 31.7457 32.1853 32.5252 32.7166 32.7932 32.7761 32.7388 32.7937 33.0136 33.6174 34.7658 36.6287 37.0033 35.4457 34.1294 32.9785 32.0586 31.33 30.9015 30.7491 30.8134 31.0255 31.4373 31.818 32.1655 32.3778 32.4566 32.3678 32.1873 32.0187 31.9246 32.0157 32.4128 33.2005 34.4815 36.4333 36.9334 35.3698 34.0682 33.0272 32.2016 31.6135 31.2724 31.193 31.3189 31.6032 31.9337 32.2332 32.4216 32.4182 32.2771 31.9841 31.6842 31.4436 31.3728 31.5559 32.0619 32.9698 34.3674 36.3655 36.9253 35.3311 34.0606 33.0582 32.3181 31.8174 31.5831 31.553 31.7316 32.0056 32.2729 32.4801 32.5171 32.3745 32.0309 31.6516 31.2444 31.0306 31.0091 31.282 31.8781 32.8984 34.3444 36.3678 36.9126 35.3148 34.0692 33.1278 32.4402 31.997 31.8126 31.8691 32.0622 32.3422 32.562 32.6048 32.5055 32.2059 31.7926 31.3108 30.9216 30.7394 30.7874 31.1219 31.807 32.8449 34.339 36.3342 36.9299 35.3147 34.079 33.1636 32.5462 32.1812 32.0887 32.1696 32.3364 32.5796 32.7025 32.6678 32.46 32.043 31.5161 31.0121 30.6569 30.4817 30.5947 31.0136 31.7633 32.8678 34.3455 36.3557 36.922 35.3417 34.1398 33.2665 32.7155 32.4303 32.3751 32.4818 32.6369 32.8101 32.8422 32.689 32.3094 31.8065 31.2267 30.7 30.3609 30.256 30.436 30.9028 31.7309 32.8516 34.361 36.3814 36.9648 35.39 34.2225 33.4304 32.9692 32.7734 32.7775 32.8819 32.9899 33.0186 32.902 32.569 32.0762 31.4445 30.8584 30.3442 30.0336 30.0104 30.2383 30.7938 31.6682 32.8679 34.389 36.4001 37.0211 35.5075 34.4298 33.7849 33.4199 33.3082 33.3185 33.3645 33.3455 33.1962 32.8383 32.338 31.6646 31.0013 30.3819 29.8838 29.6756 29.6865 29.97 30.6661 31.635 32.8828 34.4493 36.4614 37.1703 35.7477 34.8366 34.3426 34.121 34.0521 34.0328 33.9111 33.688 33.2439 32.6671 31.9374 31.1743 30.4112 29.7519 29.3421 29.1642 29.2739 29.6812 30.4807 31.5731 32.9527 34.6075 36.6068 37.5064 36.235 35.5595 35.2681 35.1757 35.0611 34.8226 34.4512 33.8555 33.0815 32.2355 31.3327 30.4085 29.6587 29.0474 28.668 28.5779 28.7781 29.3403 30.221 31.4905 33.0458 34.8733 36.9559 38.0974 37.0843 36.6844 36.6372 36.5332 36.2205 35.6254 34.8007 33.7863 32.6827 31.5711 30.5006 29.564 28.7488 28.2152 27.9196 27.9368 28.219 28.8908 29.9246 31.3841 33.2158 35.3149 37.5981 39.0014 38.3351 38.328 38.3595 38.0001 37.2327 36.1524 34.8395 33.4375 32.0643 30.716 29.5699 28.5944 27.8789 27.3814 27.1631 27.2341 27.5963 28.3607 29.487 31.102 33.2862 35.8746 38.5576 40.1063 39.9606 40.2226 39.9654 39.1277 37.8329 36.2487 34.5989 32.9274 31.3205 29.9469 28.704 27.775 27.1033 26.5938 26.3924 26.5552 26.9026 27.7069 28.8992 30.5927 32.9453 36.2195 39.8298 40.3674 40.8799 41.2902 40.7469 39.5898 38.0242 36.214 34.4073 32.5801 30.9447 29.4701 28.2935 27.3289 26.5754 26.1643 25.9406 25.9407 26.3068 27.0279 28.1403 29.6895 31.9588 35.5386 40.648 37.9584 39.6888 40.8937 40.6891 39.5972 38.0519 36.2571 34.416 32.7592 31.1625 29.797 28.6508 27.6982 26.9424 26.3771 26.0335 25.8724 26.0332 26.4259 27.2349 28.4699 30.3425 33.3202 38.9344 34.4383 40.0542 40.3667 39.3945 37.9885 36.5881 35.248 34.0246 32.9576 32.0333 31.1716 30.3551 29.5881 28.9074 28.3244 27.8323 27.5042 27.3589 27.5664 28.0257 28.957 30.4691 32.9506 36.8512 
SCALARS volume float 1
LOOKUP_TABLE default
0.0120311 0.0121407 0.0121192 0.0120771 0.0120213 0.0119575 0.0118877 0.0118135 0.0117362 0.0116578 0.0115804 0.0115069 0.0114406 0.0113847 0.0113426 0.0113171 0.0113104 0.011324 0.011359 0.011416 0.0114938 0.0116001 0.0117014 0.012026 0.0118597 0.0118612 0.0118649 0.0118574 0.0118419 0.0118195 0.0117915 0.0117594 0.0117249 0.0116896 0.0116551 0.0116231 0.0115952 0.0115729 0.0115575 0.0115499 0.0115509 0.0115608 0.0115804 0.0116101 0.0116527 0.0117058 0.0118091 0.011846 0.0117538 0.0117337 0.0117424 0.0117478 0.0117487 0.0117438 0.0117341 0.0117203 0.0117037 0.0116856 0.0116671 0.0116498 0.0116349 0.0116237 0.0116169 0.0116153 0.0116191 0.0116283 0.0116429 0.011663 0.0116879 0.0117217 0.011749 0.0117477 0.0117548 0.011724 0.0117084 0.0117042 0.011702 0.0116994 0.0116947 0.0116878 0.0116791 0.0116695 0.0116598 0.0116511 0.0116443 0.0116401 0.0116393 0.011642 0.0116482 0.0116576 0.01167 0.0116845 0.0117006 0.0117167 0.0117236 0.0117516 0.0117677 0.0117413 0.0117189 0.0117024 0.0116904 0.0116806 0.011672 0.011664 0.0116565 0.0116497 0.0116441 0.0116403 0.0116387 0.0116397 0.0116433 0.0116495 0.0116581 0.0116685 0.0116803 0.0116927 0.0117051 0.0117158 0.0117276 0.011765 0.0117771 0.0117573 0.0117365 0.0117162 0.0116977 0.0116809 0.0116657 0.0116524 0.0116414 0.011633 0.0116275 0.0116253 0.0116263 0.0116304 0.0116373 0.0116464 0.0116572 0.0116691 0.0116815 0.0116938 0.0117058 0.0117178 0.0117358 0.0117746 0.011783 0.0117672 0.01175 0.0117306 0.0117104 0.0116899 0.0116699 0.0116514 0.0116353 0.0116228 0.0116146 0.0116111 0.0116123 0.0116176 0.0116262 0.0116374 0.0116502 0.0116637 0.0116774 0.011691 0.0117046 0.0117201 0.0117425 0.0117809 0.0117864 0.0117727 0.0117584 0.0117413 0.0117218 0.0117005 0.0116783 0.0116563 0.0116361 0.0116192 0.0116071 0.0116006 0.0115999 0.0116046 0.0116136 0.0116259 0.0116401 0.0116553 0.0116708 0.0116864 0.0117026 0.0117215 0.0117465 0.0117845 0.011788 0.0117756 0.0117631 0.0117481 0.0117302 0.0117095 0.0116869 0.0116633 0.0116405 0.0116202 0.0116044 0.0115944 0.0115908 0.0115937 0.0116019 0.0116144 0.0116294 0.011646 0.0116633 0.0116811 0.0117 0.0117216 0.0117484 0.0117863 0.0117887 0.0117768 0.0117654 0.011752 0.0117356 0.0117161 0.011694 0.0116701 0.011646 0.0116236 0.0116049 0.0115918 0.0115853 0.0115857 0.0115925 0.0116043 0.0116197 0.0116372 0.0116561 0.0116759 0.0116971 0.0117209 0.011749 0.0117871 0.0117887 0.0117771 0.0117664 0.011754 0.0117389 0.0117206 0.0116993 0.0116758 0.0116514 0.0116278 0.0116073 0.0115917 0.0115826 0.0115806 0.0115855 0.0115963 0.0116115 0.0116296 0.0116497 0.0116713 0.0116943 0.0117196 0.0117488 0.0117872 0.0117885 0.011777 0.0117667 0.011755 0.0117409 0.0117237 0.0117033 0.0116804 0.0116562 0.0116321 0.0116104 0.0115931 0.0115819 0.0115778 0.0115809 0.0115904 0.0116051 0.0116234 0.0116444 0.0116671 0.0116915 0.0117181 0.0117482 0.011787 0.0117882 0.0117766 0.0117667 0.0117556 0.0117422 0.0117259 0.0117065 0.0116844 0.0116605 0.0116364 0.011614 0.0115955 0.0115827 0.0115768 0.0115781 0.0115863 0.0116002 0.0116184 0.0116399 0.0116635 0.0116889 0.0117165 0.0117474 0.0117867 0.0117878 0.0117762 0.0117666 0.011756 0.0117433 0.0117278 0.0117093 0.011688 0.0116646 0.0116408 0.0116181 0.0115987 0.0115846 0.0115771 0.0115768 0.0115836 0.0115965 0.0116144 0.0116359 0.01166 0.0116863 0.0117147 0.0117465 0.0117864 0.0117874 0.0117757 0.0117663 0.0117562 0.0117442 0.0117295 0.0117119 0.0116915 0.011669 0.0116456 0.011623 0.0116031 0.0115879 0.011579 0.0115771 0.0115823 0.011594 0.011611 0.0116322 0.0116566 0.0116834 0.0117127 0.0117453 0.011786 0.0117869 0.0117751 0.0117659 0.0117562 0.0117447 0.0117308 0.0117141 0.0116948 0.0116734 0.011651 0.011629 0.0116091 0.0115932 0.0115829 0.0115793 0.0115828 0.0115928 0.0116085 0.0116289 0.0116529 0.0116801 0.0117102 0.0117439 0.0117856 0.0117864 0.0117741 0.011765 0.0117555 0.0117444 0.0117309 0.0117151 0.0116971 0.0116772 0.0116564 0.0116357 0.0116166 0.0116007 0.0115896 0.0115845 0.0115859 0.0115937 0.0116074 0.0116263 0.0116494 0.0116763 0.011707 0.011742 0.0117852 0.0117857 0.0117726 0.0117634 0.0117538 0.0117425 0.0117292 0.0117141 0.0116974 0.0116794 0.0116608 0.0116423 0.0116251 0.0116104 0.0115994 0.0115934 0.0115929 0.0115983 0.0116093 0.0116256 0.0116467 0.0116725 0.0117032 0.0117394 0.0117846 0.0117849 0.0117704 0.011761 0.0117505 0.0117382 0.0117247 0.0117101 0.0116946 0.0116786 0.0116626 0.0116472 0.0116331 0.0116211 0.0116119 0.0116064 0.0116052 0.0116086 0.0116166 0.0116295 0.0116472 0.01167 0.0116992 0.011736 0.0117838 0.0117834 0.011768 0.0117579 0.0117451 0.0117311 0.0117168 0.0117022 0.0116877 0.0116735 0.0116603 0.0116484 0.0116383 0.0116304 0.011625 0.0116224 0.0116228 0.0116261 0.0116325 0.011642 0.0116551 0.0116728 0.0116972 0.0117317 0.011782 0.0117801 0.011767 0.0117546 0.0117372 0.0117208 0.0117051 0.01169 0.0116761 0.0116635 0.0116528 0.0116443 0.0116384 0.0116353 0.0116351 0.0116375 0.0116425 0.0116494 0.0116579 0.0116674 0.0116778 0.0116897 0.0117048 0.0117296 0.0117755 0.0117786 0.0117781 0.0117513 0.011726 0.011706 0.0116881 0.0116723 0.0116588 0.0116475 0.0116391 0.0116337 0.0116317 0.0116334 0.0116386 0.0116472 0.0116587 0.0116726 0.011688 0.0117039 0.0117192 0.0117321 0.0117426 0.0117465 0.0117683 0.0118207 0.0117873 0.0117293 0.011703 0.0116788 0.0116595 0.0116435 0.0116308 0.0116214 0.0116156 0.0116136 0.0116156 0.0116217 0.011632 0.0116465 0.0116648 0.0116866 0.0117112 0.0117376 0.0117644 0.0117897 0.0118109 0.0118246 0.0118133 0.0117633 0.0116477 0.011656 0.0116253 0.0115992 0.0115755 0.0115578 0.0115468 0.011543 0.0115457 0.0115543 0.0115673 0.0115837 0.0116025 0.0116231 0.0116454 0.0116694 0.0116958 0.0117252 0.0117581 0.0117945 0.0118318 0.0118643 0.0118091 0.0117039 0.0118108 0.0118224 0.0118317 0.0118274 0.0118135 0.0117913 0.0117626 0.011729 0.0116928 0.0116562 0.0116218 0.0115919 0.0115686 0.0115535 0.0115478 0.0115519 0.0115664 0.011592 0.0116294 0.0116786 0.0117491 0.0118091 0.0121351 0.0118188 0.0118231 0.0118184 0.0118032 0.0117847 0.011763 0.0117387 0.0117125 0.0116854 0.011658 0.0116313 0.0116064 0.0115844 0.0115665 0.0115538 0.0115476 0.0115489 0.0115589 0.0115785 0.0116086 0.011652 0.0117057 0.0118124 0.0118483 0.0117559 0.0117412 0.0117404 0.0117345 0.0117251 0.0117133 0.0116997 0.011685 0.0116695 0.0116539 0.0116387 0.0116246 0.0116124 0.0116029 0.0115968 0.0115949 0.0115977 0.0116057 0.0116193 0.011639 0.0116645 0.0116996 0.0117333 0.0117279 0.0117258 0.0117137 0.011703 0.0116972 0.0116907 0.0116831 0.0116743 0.0116646 0.0116546 0.0116446 0.0116352 0.0116271 0.0116207 0.0116166 0.0116152 0.011617 0.011622 0.0116304 0.0116422 0.011657 0.0116747 0.0116945 0.0117081 0.0117164 0.0117273 0.0117167 0.0117008 0.0116888 0.0116784 0.0116687 0.0116593 0.0116502 0.0116416 0.0116339 0.0116275 0.0116227 0.0116199 0.0116195 0.0116216 0.0116264 0.0116336 0.0116432 0.0116549 0.0116683 0.0116831 0.0116977 0.0117121 0.0117322 0.0117342 0.0117263 0.0117102 0.0116946 0.01168 0.0116664 0.0116537 0.0116423 0.0116323 0.0116242 0.0116183 0.0116149 0.0116141 0.0116159 0.0116204 0.0116274 0.0116366 0.0116476 0.0116602 0.0116739 0.0116883 0.0117033 0.0117225 0.011748 0.0117405 0.0117346 0.0117204 0.0117042 0.0116875 0.0116709 0.0116549 0.0116401 0.0116274 0.0116172 0.0116102 0.0116065 0.0116062 0.0116092 0.0116151 0.0116237 0.0116344 0.0116468 0.0116605 0.0116752 0.0116909 0.0117083 0.0117312 0.0117585 0.0117443 0.0117398 0.0117277 0.0117127 0.0116957 0.0116777 0.0116596 0.0116421 0.0116264 0.0116136 0.0116043 0.0115992 0.0115983 0.0116014 0.0116079 0.0116175 0.0116293 0.011643 0.011658 0.0116741 0.0116916 0.0117117 0.0117369 0.0117646 0.0117463 0.0117427 0.0117322 0.0117187 0.0117025 0.0116845 0.0116653 0.0116462 0.0116282 0.0116127 0.011601 0.0115938 0.0115915 0.0115939 0.0116005 0.0116105 0.0116231 0.0116378 0.0116541 0.0116718 0.0116912 0.0117134 0.01174 0.0117679 0.0117469 0.011744 0.0117346 0.0117224 0.0117073 0.0116899 0.0116708 0.0116509 0.0116314 0.011614 0.0116 0.0115906 0.0115865 0.0115877 0.0115937 0.0116036 0.0116168 0.0116323 0.0116498 0.011669 0.0116901 0.0117139 0.0117414 0.0117694 0.0117467 0.0117442 0.0117356 0.0117244 0.0117104 0.0116939 0.0116753 0.0116553 0.0116352 0.0116164 0.0116006 0.0115892 0.0115833 0.011583 0.011588 0.0115976 0.0116109 0.0116271 0.0116455 0.011666 0.0116885 0.0117135 0.0117417 0.0117699 0.0117462 0.011744 0.0117358 0.0117252 0.0117122 0.0116965 0.0116786 0.0116591 0.0116389 0.0116195 0.0116025 0.0115895 0.0115818 0.0115799 0.0115838 0.0115928 0.0116059 0.0116224 0.0116416 0.0116631 0.0116866 0.0117125 0.0117414 0.0117698 0.0117454 0.0117433 0.0117354 0.0117254 0.011713 0.0116981 0.011681 0.0116621 0.0116423 0.0116228 0.0116051 0.011591 0.0115819 0.0115785 0.0115811 0.0115891 0.0116018 0.0116184 0.011638 0.0116602 0.0116846 0.0117113 0.0117407 0.0117695 0.0117444 0.0117425 0.0117348 0.0117251 0.0117132 0.011699 0.0116826 0.0116644 0.0116453 0.0116261 0.0116084 0.0115937 0.0115834 0.0115786 0.0115799 0.0115868 0.0115988 0.011615 0.0116347 0.0116573 0.0116823 0.0117097 0.0117398 0.011769 0.0117431 0.0117413 0.0117338 0.0117244 0.0117129 0.0116992 0.0116835 0.0116661 0.0116478 0.0116294 0.0116121 0.0115973 0.0115863 0.0115804 0.0115803 0.0115859 0.0115968 0.0116124 0.0116318 0.0116544 0.0116798 0.0117078 0.0117386 0.0117684 0.0117415 0.0117399 0.0117325 0.0117233 0.011712 0.0116986 0.0116834 0.0116669 0.0116497 0.0116324 0.011616 0.0116016 0.0115906 0.011584 0.0115827 0.0115869 0.0115965 0.0116108 0.0116295 0.0116517 0.0116771 0.0117056 0.0117371 0.0117677 0.0117394 0.011738 0.0117307 0.0117216 0.0117101 0.0116968 0.0116822 0.0116666 0.0116506 0.0116347 0.0116197 0.0116065 0.011596 0.0115894 0.0115873 0.0115902 0.0115982 0.011611 0.0116282 0.0116494 0.0116743 0.0117029 0.0117351 0.0117665 0.0117367 0.0117358 0.0117286 0.0117189 0.0117069 0.0116935 0.0116793 0.0116647 0.0116501 0.011636 0.0116228 0.0116114 0.0116023 0.0115963 0.0115942 0.0115963 0.0116029 0.0116139 0.0116293 0.0116487 0.0116722 0.0117001 0.0117327 0.0117647 0.0117336 0.0117335 0.0117261 0.011715 0.0117019 0.0116881 0.0116743 0.0116607 0.0116476 0.0116355 0.0116247 0.0116156 0.0116087 0.0116045 0.0116033 0.0116057 0.0116116 0.0116212 0.0116345 0.0116515 0.0116725 0.0116982 0.0117301 0.0117621 0.0117304 0.011733 0.0117239 0.0117097 0.0116949 0.0116806 0.011667 0.0116544 0.0116429 0.0116329 0.0116246 0.0116184 0.0116143 0.0116128 0.0116139 0.0116178 0.0116244 0.0116339 0.0116461 0.0116609 0.0116787 0.0117003 0.0117287 0.0117591 0.0117324 0.0117387 0.0117231 0.0117035 0.0116865 0.0116711 0.0116574 0.0116455 0.0116355 0.0116277 0.011622 0.0116187 0.0116179 0.0116196 0.0116239 0.0116309 0.0116403 0.011652 0.0116656 0.0116805 0.0116964 0.011713 0.0117337 0.0117582 0.0117558 0.0117577 0.0117241 0.0116975 0.0116771 0.01166 0.0116459 0.0116345 0.0116259 0.0116199 0.0116167 0.0116163 0.0116186 0.0116237 0.0116316 0.0116423 0.0116555 0.0116712 0.011689 0.0117083 0.0117278 0.011746 0.0117583 0.0117765 0.0118251 0.0117749 0.0117139 0.0116877 0.0116639 0.0116455 0.0116307 0.0116196 0.011612 0.0116079 0.0116071 0.0116094 0.0116147 0.0116229 0.0116338 0.0116472 0.0116631 0.0116813 0.0117016 0.0117238 0.0117476 0.0117735 0.0117958 0.0118012 0.0118295 0.01168 0.0117065 0.0116956 0.0116866 0.0116755 0.0116649 0.0116556 0.0116486 0.011644 0.0116421 0.0116429 0.0116457 0.01165 0.0116549 0.0116597 0.0116637 0.0116665 0.0116682 0.011669 0.0116701 0.0116716 0.011692 0.0116702 0.0116161 0.0117557 0.011774 0.0117793 0.0117711 0.0117552 0.0117337 0.0117086 0.0116817 0.0116548 0.0116293 0.011607 0.0115892 0.011577 0.0115713 0.0115726 0.0115814 0.0115982 0.0116237 0.0116588 0.0117036 0.0117664 0.0118172 0.0121112 0.0117227 0.0117203 0.011733 0.01173 0.0117234 0.0117123 0.0116979 0.0116812 0.0116632 0.011645 0.0116273 0.0116113 0.0115978 0.0115876 0.0115815 0.0115802 0.0115845 0.0115951 0.0116128 0.0116387 0.0116752 0.0117217 0.0118085 0.0118571 0.011732 0.0117105 0.0117055 0.011699 0.01169 0.0116794 0.0116678 0.0116555 0.0116428 0.0116303 0.0116184 0.0116077 0.0115987 0.0115921 0.0115884 0.0115883 0.0115923 0.011601 0.011615 0.011635 0.0116612 0.0116967 0.0117343 0.0117411 0.0117218 0.011702 0.01169 0.0116802 0.0116708 0.011661 0.0116511 0.0116412 0.0116316 0.0116227 0.0116147 0.011608 0.011603 0.0116 0.0115993 0.0116014 0.0116066 0.011615 0.0116269 0.0116425 0.0116616 0.0116836 0.0116988 0.0117046 0.0117175 0.0117028 0.0116883 0.0116755 0.0116638 0.0116527 0.0116422 0.0116324 0.0116236 0.0116159 0.0116097 0.0116053 0.0116027 0.0116023 0.0116042 0.0116085 0.0116153 0.0116246 0.0116365 0.0116507 0.0116669 0.0116835 0.0116966 0.0117119 0.0117175 0.0117068 0.0116928 0.0116784 0.0116646 0.0116514 0.0116391 0.011628 0.0116183 0.0116104 0.0116045 0.0116009 0.0115997 0.0116009 0.0116046 0.0116107 0.0116192 0.0116298 0.0116425 0.011657 0.0116727 0.0116891 0.011706 0.0117281 0.0117188 0.0117108 0.0116985 0.011684 0.011669 0.011654 0.0116398 0.0116268 0.0116154 0.0116063 0.0115998 0.011596 0.0115952 0.0115973 0.0116021 0.0116095 0.0116193 0.0116313 0.0116451 0.0116605 0.0116772 0.0116955 0.0117162 0.0117415 0.01172 0.0117137 0.0117031 0.0116894 0.0116741 0.0116583 0.0116426 0.0116278 0.0116147 0.0116039 0.0115961 0.0115915 0.0115904 0.0115926 0.011598 0.0116063 0.0116171 0.0116302 0.0116451 0.0116618 0.0116801 0.0117006 0.0117239 0.0117504 0.0117202 0.0117152 0.0117061 0.0116935 0.0116787 0.0116626 0.0116462 0.0116301 0.0116154 0.0116031 0.0115937 0.0115879 0.011586 0.0115879 0.0115933 0.0116021 0.0116136 0.0116276 0.0116437 0.0116616 0.0116815 0.0117039 0.0117287 0.0117555 0.0117197 0.0117156 0.0117077 0.0116962 0.0116822 0.0116664 0.0116497 0.0116329 0.0116171 0.0116034 0.0115926 0.0115855 0.0115825 0.0115837 0.0115888 0.0115977 0.0116097 0.0116244 0.0116414 0.0116606 0.0116818 0.0117056 0.0117313 0.0117583 0.0117186 0.0117153 0.0117082 0.0116976 0.0116844 0.0116692 0.0116527 0.0116357 0.0116193 0.0116045 0.0115925 0.0115841 0.01158 0.0115803 0.0115849 0.0115936 0.0116058 0.011621 0.0116388 0.011659 0.0116813 0.0117061 0.0117325 0.0117595 0.0117172 0.0117145 0.011708 0.0116981 0.0116856 0.011671 0.011655 0.0116381 0.0116215 0.0116062 0.0115933 0.0115838 0.0115786 0.011578 0.0115819 0.0115902 0.0116023 0.0116178 0.0116361 0.0116571 0.0116803 0.0117058 0.0117326 0.0117599 0.0117157 0.0117133 0.0117072 0.0116978 0.011686 0.011672 0.0116565 0.01164 0.0116235 0.0116081 0.0115947 0.0115845 0.0115784 0.0115768 0.0115799 0.0115875 0.0115994 0.0116148 0.0116335 0.011655 0.0116788 0.0117049 0.0117322 0.0117598 0.0117139 0.0117119 0.0117061 0.0116971 0.0116857 0.0116722 0.0116572 0.0116412 0.0116252 0.0116099 0.0115965 0.011586 0.0115792 0.0115767 0.0115789 0.0115859 0.0115971 0.0116124 0.0116311 0.0116528 0.0116771 0.0117036 0.0117314 0.0117595 0.0117118 0.0117101 0.0117046 0.0116959 0.0116847 0.0116716 0.0116571 0.0116418 0.0116264 0.0116117 0.0115986 0.0115881 0.0115809 0.0115778 0.0115793 0.0115854 0.0115959 0.0116105 0.0116289 0.0116505 0.011675 0.0117019 0.0117302 0.011759 0.0117093 0.0117079 0.0117028 0.0116942 0.0116832 0.0116704 0.0116563 0.0116416 0.011627 0.0116131 0.0116007 0.0115906 0.0115836 0.0115802 0.011581 0.0115862 0.0115958 0.0116097 0.0116273 0.0116484 0.0116727 0.0116999 0.0117287 0.0117582 0.0117062 0.0117055 0.0117007 0.0116922 0.011681 0.0116681 0.0116544 0.0116404 0.0116268 0.0116141 0.0116027 0.0115935 0.0115869 0.0115836 0.0115841 0.0115887 0.0115974 0.0116101 0.0116268 0.011647 0.0116707 0.0116976 0.0117267 0.011757 0.0117026 0.011703 0.0116986 0.0116896 0.0116778 0.0116647 0.0116514 0.0116383 0.0116258 0.0116144 0.0116045 0.0115964 0.0115908 0.0115881 0.0115887 0.0115929 0.0116008 0.0116126 0.011628 0.0116469 0.0116694 0.0116955 0.0117244 0.0117552 0.0116996 0.0117017 0.0116974 0.0116868 0.0116738 0.0116604 0.0116474 0.0116351 0.0116239 0.011614 0.0116057 0.0115993 0.0115951 0.0115935 0.0115947 0.0115991 0.0116068 0.0116177 0.011632 0.0116495 0.0116701 0.0116944 0.0117222 0.0117531 0.0116998 0.0117047 0.0116983 0.0116842 0.0116693 0.0116553 0.0116425 0.011631 0.011621 0.0116128 0.0116063 0.0116017 0.0115994 0.0115993 0.0116018 0.0116071 0.0116152 0.0116261 0.0116398 0.011656 0.0116747 0.0116963 0.0117211 0.0117515 0.0117121 0.0117177 0.0117029 0.0116829 0.0116656 0.0116504 0.0116375 0.0116266 0.0116178 0.0116109 0.0116062 0.0116036 0.0116032 0.0116051 0.0116094 0.0116163 0.0116257 0.0116375 0.0116516 0.0116677 0.0116853 0.0117039 0.0117238 0.0117526 0.0117538 0.0117447 0.01171 0.0116836 0.0116634 0.011647 0.0116337 0.011623 0.0116149 0.0116092 0.0116058 0.0116049 0.0116063 0.0116102 0.0116164 0.0116252 0.0116363 0.0116496 0.0116651 0.0116823 0.0117006 0.0117186 0.011733 0.0117579 0.0118105 0.0117544 0.0117063 0.011684 0.0116648 0.0116495 0.0116369 0.0116268 0.0116192 0.0116141 0.0116114 0.0116112 0.0116136 0.0116183 0.0116254 0.0116347 0.0116459 0.0116588 0.0116731 0.0116884 0.0117046 0.0117229 0.0117333 0.0117459 0.0118015 0.0116605 0.0116845 0.0116731 0.0116633 0.0116518 0.0116409 0.0116313 0.0116237 0.0116183 0.0116153 0.0116147 0.0116165 0.0116202 0.0116255 0.0116322 0.0116399 0.0116485 0.0116582 0.0116691 0.011682 0.0116962 0.0117207 0.0116846 0.0115168 0.0116859 0.0117104 0.011721 0.0117168 0.0117053 0.011689 0.0116698 0.0116496 0.0116298 0.0116118 0.011597 0.0115863 0.0115804 0.0115799 0.0115852 0.0115968 0.0116149 0.0116404 0.011674 0.0117165 0.0117736 0.0118271 0.0120684 0.0116758 0.0116705 0.0116878 0.0116874 0.0116825 0.0116734 0.0116618 0.0116485 0.0116345 0.0116208 0.011608 0.011597 0.0115883 0.0115827 0.0115806 0.0115826 0.0115893 0.0116013 0.0116194 0.0116444 0.0116783 0.0117213 0.0117952 0.0118542 0.0117026 0.0116796 0.0116727 0.0116679 0.0116606 0.011652 0.0116424 0.0116322 0.0116219 0.0116121 0.011603 0.0115953 0.0115892 0.0115854 0.0115842 0.011586 0.0115915 0.0116009 0.0116151 0.0116345 0.01166 0.0116933 0.011732 0.011752 0.0117091 0.0116852 0.0116704 0.0116599 0.0116499 0.0116401 0.0116305 0.0116212 0.0116125 0.0116047 0.011598 0.0115927 0.011589 0.0115873 0.0115877 0.0115908 0.0115966 0.0116056 0.011618 0.0116341 0.0116539 0.0116768 0.0116969 0.0117069 0.0117095 0.0116903 0.0116736 0.0116596 0.0116472 0.0116356 0.011625 0.0116153 0.0116068 0.0115997 0.0115941 0.0115903 0.0115883 0.0115882 0.0115904 0.0115948 0.0116017 0.0116112 0.0116233 0.0116381 0.0116552 0.0116731 0.011688 0.0117012 0.011708 0.0116934 0.0116778 0.0116628 0.0116487 0.0116356 0.0116235 0.0116127 0.0116035 0.0115961 0.0115907 0.0115874 0.0115862 0.0115874 0.0115908 0.0115966 0.0116047 0.0116152 0.011628 0.0116429 0.0116595 0.0116766 0.0116931 0.0117125 0.0117058 0.0116947 0.0116812 0.0116667 0.011652 0.0116377 0.0116243 0.0116123 0.0116019 0.0115937 0.0115878 0.0115844 0.0115835 0.0115852 0.0115895 0.0115964 0.0116056 0.0116172 0.011631 0.0116468 0.0116641 0.0116825 0.0117024 0.011726 0.0117035 0.0116949 0.0116834 0.0116699 0.0116553 0.0116405 0.0116262 0.011613 0.0116015 0.0115923 0.0115855 0.0115816 0.0115805 0.0115824 0.0115872 0.0115947 0.0116049 0.0116175 0.0116324 0.0116493 0.0116679 0.0116882 0.0117109 0.0117366 0.0117011 0.0116943 0.0116845 0.0116721 0.0116581 0.0116432 0.0116284 0.0116144 0.0116019 0.0115916 0.0115839 0.0115792 0.0115777 0.0115794 0.0115843 0.0115923 0.0116032 0.0116166 0.0116325 0.0116505 0.0116705 0.0116926 0.0117171 0.0117436 0.0116987 0.0116933 0.0116847 0.0116734 0.0116601 0.0116455 0.0116305 0.011616 0.0116028 0.0115916 0.011583 0.0115775 0.0115754 0.0115767 0.0115814 0.0115896 0.0116009 0.011615 0.0116317 0.0116507 0.011672 0.0116954 0.011721 0.0117478 0.0116962 0.0116919 0.0116843 0.0116739 0.0116612 0.0116471 0.0116322 0.0116176 0.0116039 0.011592 0.0115826 0.0115764 0.0115736 0.0115744 0.0115789 0.011587 0.0115984 0.0116129 0.0116303 0.0116502 0.0116724 0.0116968 0.011723 0.01175 0.0116939 0.0116902 0.0116834 0.0116737 0.0116617 0.011648 0.0116335 0.0116188 0.011605 0.0115927 0.0115828 0.0115759 0.0115724 0.0115727 0.0115768 0.0115846 0.0115961 0.0116108 0.0116287 0.0116492 0.0116721 0.0116972 0.0117239 0.0117511 0.0116915 0.0116884 0.0116821 0.011673 0.0116615 0.0116483 0.0116342 0.0116197 0.0116059 0.0115935 0.0115833 0.011576 0.011572 0.0115717 0.0115753 0.0115828 0.0115941 0.0116088 0.0116269 0.0116478 0.0116713 0.0116969 0.011724 0.0117515 0.0116889 0.0116863 0.0116805 0.0116718 0.0116608 0.011648 0.0116342 0.0116202 0.0116066 0.0115944 0.0115841 0.0115766 0.0115723 0.0115715 0.0115746 0.0115817 0.0115925 0.0116071 0.0116251 0.0116462 0.01167 0.0116959 0.0117234 0.0117516 0.0116862 0.011684 0.0116786 0.0116703 0.0116596 0.0116471 0.0116337 0.0116201 0.0116069 0.0115951 0.0115851 0.0115776 0.0115731 0.0115721 0.0115747 0.0115812 0.0115916 0.0116058 0.0116235 0.0116444 0.0116683 0.0116945 0.0117224 0.0117514 0.011683 0.0116815 0.0116766 0.0116686 0.0116579 0.0116456 0.0116325 0.0116194 0.0116069 0.0115956 0.0115862 0.011579 0.0115746 0.0115734 0.0115757 0.0115818 0.0115916 0.0116051 0.0116223 0.0116428 0.0116664 0.0116926 0.011721 0.0117508 0.0116797 0.0116791 0.0116748 0.0116667 0.0116559 0.0116436 0.0116308 0.0116182 0.0116065 0.011596 0.0115873 0.0115806 0.0115766 0.0115755 0.0115777 0.0115833 0.0115926 0.0116054 0.0116218 0.0116415 0.0116645 0.0116905 0.0117191 0.0117499 0.0116767 0.0116775 0.0116736 0.0116649 0.0116535 0.0116409 0.0116284 0.0116165 0.0116056 0.0115961 0.0115883 0.0115825 0.0115791 0.0115784 0.0115806 0.011586 0.0115947 0.0116068 0.0116223 0.0116411 0.011663 0.0116882 0.0117166 0.0117482 0.011676 0.0116788 0.0116742 0.0116638 0.0116511 0.0116381 0.0116257 0.0116145 0.0116045 0.0115961 0.0115894 0.0115847 0.0115822 0.0115821 0.0115847 0.0115901 0.0115986 0.0116101 0.0116247 0.0116422 0.0116626 0.0116863 0.0117137 0.0117459 0.0116821 0.0116861 0.011678 0.0116639 0.0116493 0.0116356 0.0116232 0.0116125 0.0116034 0.0115961 0.0115905 0.011587 0.0115856 0.0115864 0.0115897 0.0115956 0.0116042 0.0116154 0.0116293 0.0116457 0.0116644 0.0116856 0.0117107 0.011743 0.0117036 0.0117033 0.0116856 0.0116661 0.0116489 0.0116341 0.0116215 0.0116111 0.0116027 0.0115963 0.0115919 0.0115895 0.0115892 0.0115912 0.0115955 0.0116022 0.0116113 0.0116228 0.0116366 0.0116524 0.0116698 0.0116881 0.0117088 0.0117399 0.0117459 0.0117271 0.0116938 0.0116694 0.0116502 0.0116346 0.0116218 0.0116115 0.0116035 0.0115978 0.0115941 0.0115926 0.0115934 0.0115964 0.0116016 0.0116093 0.0116191 0.0116312 0.0116453 0.011661 0.011678 0.0116946 0.0117099 0.0117363 0.0117883 0.0117319 0.0116912 0.0116698 0.0116514 0.0116362 0.0116237 0.0116134 0.0116054 0.0115997 0.0115963 0.0115953 0.0115965 0.0116001 0.0116059 0.0116139 0.011624 0.0116361 0.0116499 0.0116653 0.0116817 0.0116996 0.0117083 0.0117237 0.0117694 0.0116609 0.0116731 0.0116617 0.0116508 0.0116388 0.0116276 0.0116177 0.0116096 0.0116037 0.0116 0.0115988 0.0115998 0.011603 0.0116081 0.0116148 0.0116228 0.0116321 0.0116426 0.0116545 0.0116686 0.0116826 0.0117079 0.011655 0.0114446 0.0116373 0.0116651 0.0116778 0.0116753 0.0116659 0.0116525 0.011637 0.0116211 0.011606 0.0115929 0.0115827 0.0115763 0.0115741 0.0115765 0.0115839 0.0115967 0.0116154 0.0116405 0.011673 0.0117139 0.0117672 0.0118236 0.0120133 0.0116374 0.011629 0.0116514 0.011653 0.01165 0.0116427 0.0116331 0.0116222 0.011611 0.0116004 0.0115908 0.0115831 0.0115777 0.0115752 0.0115759 0.0115802 0.0115887 0.0116018 0.0116203 0.0116448 0.0116768 0.0117176 0.0117795 0.011843 0.011681 0.0116567 0.0116481 0.0116435 0.0116365 0.0116286 0.0116199 0.0116109 0.0116021 0.011594 0.0115868 0.0115811 0.0115772 0.0115755 0.0115762 0.0115797 0.0115865 0.0115969 0.0116116 0.011631 0.0116559 0.0116873 0.0117263 0.0117581 0.0116959 0.0116701 0.0116534 0.0116419 0.0116317 0.0116219 0.0116125 0.0116038 0.0115958 0.0115889 0.0115832 0.011579 0.0115766 0.011576 0.0115775 0.0115815 0.0115882 0.0115977 0.0116106 0.011627 0.0116471 0.0116709 0.011695 0.0117116 0.0116998 0.0116778 0.0116593 0.0116444 0.0116315 0.0116199 0.0116093 0.0115999 0.0115918 0.0115852 0.0115801 0.0115769 0.0115754 0.0115759 0.0115785 0.0115833 0.0115905 0.0116003 0.0116127 0.0116279 0.0116455 0.0116648 0.0116824 0.0116964 0.0116987 0.011681 0.0116637 0.0116479 0.0116336 0.0116205 0.0116087 0.0115984 0.0115896 0.0115827 0.0115777 0.0115748 0.0115739 0.0115752 0.0115786 0.0115843 0.0115924 0.0116028 0.0116157 0.0116308 0.0116479 0.0116659 0.011683 0.0117007 0.0116951 0.0116812 0.011666 0.0116508 0.0116361 0.0116222 0.0116095 0.0115982 0.0115887 0.0115812 0.0115759 0.0115728 0.0115721 0.0115738 0.0115778 0.0115843 0.0115933 0.0116046 0.0116183 0.0116341 0.0116516 0.0116703 0.0116896 0.0117115 0.0116905 0.0116796 0.0116667 0.0116527 0.0116382 0.0116241 0.0116108 0.0115987 0.0115884 0.0115803 0.0115744 0.011571 0.0115702 0.011572 0.0115764 0.0115835 0.0115932 0.0116054 0.01162 0.0116368 0.0116554 0.0116755 0.0116974 0.0117222 0.0116858 0.0116772 0.0116663 0.0116535 0.0116397 0.0116257 0.011612 0.0115995 0.0115886 0.0115797 0.0115733 0.0115694 0.0115683 0.0115701 0.0115747 0.0115821 0.0115924 0.0116053 0.0116208 0.0116386 0.0116584 0.0116802 0.0117042 0.0117304 0.0116813 0.0116746 0.0116652 0.0116536 0.0116405 0.0116268 0.0116132 0.0116003 0.0115889 0.0115795 0.0115725 0.0115682 0.0115667 0.0115683 0.0115729 0.0115805 0.0115912 0.0116047 0.0116209 0.0116396 0.0116606 0.0116837 0.011709 0.0117359 0.0116773 0.011672 0.0116637 0.0116531 0.0116407 0.0116274 0.0116139 0.011601 0.0115893 0.0115795 0.011572 0.0115673 0.0115655 0.0115667 0.0115712 0.0115789 0.0115897 0.0116036 0.0116204 0.0116399 0.0116618 0.0116859 0.0117121 0.0117393 0.0116738 0.0116694 0.0116619 0.0116521 0.0116404 0.0116276 0.0116143 0.0116015 0.0115897 0.0115796 0.0115718 0.0115667 0.0115645 0.0115655 0.0115697 0.0115773 0.0115883 0.0116024 0.0116196 0.0116396 0.0116622 0.0116871 0.0117138 0.0117412 0.0116706 0.0116668 0.0116601 0.0116509 0.0116398 0.0116273 0.0116144 0.0116017 0.0115899 0.0115798 0.0115718 0.0115665 0.011564 0.0115647 0.0115687 0.0115761 0.0115869 0.0116011 0.0116185 0.0116388 0.0116619 0.0116873 0.0117144 0.0117423 0.0116675 0.0116643 0.0116581 0.0116495 0.0116388 0.0116267 0.011614 0.0116016 0.01159 0.01158 0.011572 0.0115665 0.0115639 0.0115644 0.0115681 0.0115752 0.0115858 0.0115998 0.0116172 0.0116377 0.011661 0.0116867 0.0117143 0.0117428 0.0116643 0.0116617 0.0116562 0.0116479 0.0116375 0.0116256 0.0116133 0.0116011 0.0115898 0.0115801 0.0115723 0.0115669 0.0115642 0.0115645 0.011568 0.0115748 0.0115851 0.0115988 0.011616 0.0116363 0.0116596 0.0116856 0.0117136 0.0117431 0.0116612 0.0116594 0.0116544 0.0116464 0.011636 0.0116243 0.0116122 0.0116004 0.0115895 0.0115802 0.0115728 0.0115676 0.011565 0.0115652 0.0115685 0.011575 0.0115849 0.0115982 0.0116149 0.0116349 0.0116579 0.0116839 0.0117123 0.0117429 0.0116584 0.0116578 0.0116533 0.0116451 0.0116344 0.0116227 0.0116108 0.0115994 0.0115891 0.0115803 0.0115733 0.0115685 0.0115661 0.0115664 0.0115696 0.0115759 0.0115854 0.0115981 0.0116142 0.0116335 0.011656 0.0116816 0.0117103 0.0117421 0.0116573 0.0116579 0.0116534 0.0116444 0.0116331 0.011621 0.0116092 0.0115982 0.0115885 0.0115804 0.011574 0.0115697 0.0115678 0.0115683 0.0115714 0.0115776 0.0115866 0.0115988 0.0116141 0.0116325 0.011654 0.0116788 0.0117073 0.0117402 0.0116603 0.0116619 0.0116559 0.0116449 0.0116322 0.0116196 0.0116078 0.0115972 0.0115881 0.0115807 0.011575 0.0115714 0.0115699 0.0115708 0.0115741 0.0115802 0.011589 0.0116006 0.0116152 0.0116325 0.0116526 0.011676 0.0117035 0.011737 0.011672 0.0116721 0.0116615 0.0116469 0.0116323 0.0116189 0.0116069 0.0115966 0.011588 0.0115812 0.0115763 0.0115734 0.0115726 0.0115739 0.0115777 0.0115839 0.0115926 0.0116039 0.0116177 0.011634 0.0116525 0.0116736 0.0116989 0.0117324 0.0116976 0.0116898 0.0116701 0.0116507 0.0116339 0.0116193 0.011607 0.0115968 0.0115886 0.0115823 0.0115781 0.0115758 0.0115756 0.0115776 0.0115818 0.0115884 0.0115973 0.0116085 0.0116221 0.0116376 0.0116547 0.0116731 0.0116946 0.0117266 0.0117351 0.0117092 0.0116781 0.0116552 0.0116365 0.0116212 0.0116085 0.0115981 0.01159 0.011584 0.0115801 0.0115783 0.0115787 0.0115813 0.011586 0.0115931 0.0116024 0.0116138 0.0116273 0.0116425 0.011659 0.0116753 0.0116914 0.0117189 0.0117635 0.0117123 0.0116787 0.011657 0.0116389 0.0116237 0.0116109 0.0116004 0.0115921 0.011586 0.0115822 0.0115806 0.0115813 0.0115842 0.0115893 0.0115966 0.0116061 0.0116175 0.0116308 0.0116457 0.0116614 0.0116786 0.0116841 0.0117012 0.0117385 0.0116613 0.0116624 0.0116494 0.0116367 0.0116239 0.0116121 0.0116019 0.0115936 0.0115874 0.0115835 0.011582 0.0115827 0.0115856 0.0115905 0.0115972 0.0116057 0.0116157 0.0116274 0.0116407 0.0116564 0.0116716 0.0116979 0.0116305 0.0113909 0.0115999 0.0116294 0.0116435 0.0116422 0.0116346 0.0116235 0.0116107 0.0115979 0.0115861 0.0115764 0.0115693 0.0115655 0.0115655 0.0115696 0.011578 0.0115913 0.0116097 0.011634 0.0116649 0.0117037 0.0117528 0.0118106 0.0119516 0.0116105 0.0115998 0.0116251 0.0116273 0.0116249 0.0116182 0.0116097 0.0116002 0.0115908 0.0115822 0.0115748 0.0115693 0.0115661 0.0115656 0.0115681 0.011574 0.0115836 0.0115974 0.011616 0.0116401 0.0116705 0.0117093 0.0117608 0.0118246 0.0116631 0.0116384 0.0116288 0.0116242 0.0116173 0.0116096 0.0116013 0.0115929 0.011585 0.011578 0.0115722 0.011568 0.0115656 0.0115653 0.0115675 0.0115723 0.0115802 0.0115915 0.0116066 0.0116259 0.0116503 0.0116798 0.0117181 0.0117578 0.0116835 0.0116569 0.011639 0.0116267 0.0116161 0.0116062 0.011597 0.0115885 0.0115809 0.0115746 0.0115697 0.0115663 0.0115648 0.0115651 0.0115676 0.0115724 0.0115798 0.0115899 0.0116032 0.0116199 0.0116401 0.0116644 0.0116916 0.0117152 0.0116898 0.0116663 0.0116465 0.0116308 0.0116176 0.0116059 0.0115954 0.0115862 0.0115784 0.0115722 0.0115676 0.0115648 0.0115638 0.0115648 0.0115678 0.011573 0.0115806 0.0115906 0.0116033 0.0116187 0.0116368 0.0116573 0.0116775 0.011694 0.011689 0.0116694 0.0116508 0.0116344 0.0116198 0.0116069 0.0115953 0.0115853 0.011577 0.0115705 0.0115659 0.0115633 0.0115626 0.0115641 0.0115676 0.0115734 0.0115815 0.0115919 0.0116047 0.01162 0.0116373 0.0116561 0.0116742 0.0116911 0.0116845 0.0116687 0.0116524 0.0116366 0.0116218 0.0116082 0.011596 0.0115853 0.0115764 0.0115695 0.0115646 0.0115619 0.0115614 0.0115631 0.0115671 0.0115734 0.0115821 0.0115931 0.0116065 0.0116222 0.0116398 0.0116586 0.0116776 0.0116977 0.0116784 0.0116659 0.0116519 0.0116374 0.011623 0.0116093 0.0115967 0.0115855 0.0115761 0.0115688 0.0115636 0.0115607 0.0115601 0.0115619 0.0115662 0.0115729 0.0115822 0.0115939 0.0116081 0.0116246 0.0116429 0.0116627 0.0116837 0.011707 0.011672 0.0116623 0.0116503 0.0116371 0.0116234 0.01161 0.0115973 0.0115858 0.0115761 0.0115683 0.0115627 0.0115595 0.0115588 0.0115606 0.0115651 0.0115721 0.0115819 0.0115942 0.0116092 0.0116264 0.0116458 0.011667 0.0116901 0.0117153 0.0116659 0.0116584 0.0116481 0.0116362 0.0116233 0.0116103 0.0115976 0.011586 0.011576 0.0115679 0.011562 0.0115586 0.0115577 0.0115594 0.0115639 0.0115712 0.0115813 0.0115941 0.0116097 0.0116278 0.0116482 0.0116707 0.0116953 0.0117217 0.0116606 0.0116547 0.0116457 0.0116349 0.0116228 0.0116102 0.0115977 0.0115861 0.0115759 0.0115676 0.0115615 0.0115578 0.0115567 0.0115583 0.0115627 0.0115701 0.0115804 0.0115937 0.0116097 0.0116285 0.0116498 0.0116734 0.0116991 0.011726 0.0116561 0.0116513 0.0116433 0.0116333 0.0116219 0.0116098 0.0115976 0.0115861 0.0115759 0.0115674 0.0115611 0.0115572 0.0115559 0.0115574 0.0115617 0.0115691 0.0115795 0.011593 0.0116094 0.0116287 0.0116506 0.0116751 0.0117016 0.0117288 0.0116522 0.0116482 0.011641 0.0116317 0.0116209 0.0116091 0.0115972 0.0115858 0.0115756 0.0115672 0.0115608 0.0115568 0.0115554 0.0115567 0.0115609 0.0115682 0.0115786 0.0115921 0.0116088 0.0116284 0.0116508 0.0116758 0.0117029 0.0117307 0.0116488 0.0116453 0.0116389 0.0116301 0.0116197 0.0116082 0.0115966 0.0115854 0.0115754 0.011567 0.0115606 0.0115566 0.0115551 0.0115563 0.0115604 0.0115675 0.0115778 0.0115913 0.0116079 0.0116277 0.0116504 0.0116757 0.0117033 0.0117319 0.0116458 0.0116429 0.0116371 0.0116287 0.0116185 0.0116072 0.0115957 0.0115848 0.011575 0.0115668 0.0115605 0.0115566 0.0115551 0.0115562 0.0115602 0.0115672 0.0115772 0.0115905 0.011607 0.0116266 0.0116493 0.0116749 0.011703 0.0117326 0.0116432 0.0116412 0.0116359 0.0116277 0.0116174 0.0116061 0.0115948 0.0115841 0.0115746 0.0115666 0.0115606 0.0115568 0.0115554 0.0115565 0.0115603 0.0115671 0.0115769 0.0115898 0.011606 0.0116253 0.0116478 0.0116733 0.0117018 0.0117329 0.011642 0.0116409 0.0116358 0.0116271 0.0116165 0.0116051 0.0115938 0.0115834 0.0115742 0.0115666 0.0115609 0.0115573 0.011556 0.0115571 0.0115609 0.0115675 0.011577 0.0115895 0.0116051 0.0116239 0.0116458 0.0116711 0.0116998 0.0117322 0.0116434 0.0116431 0.0116372 0.0116274 0.011616 0.0116043 0.011593 0.0115827 0.0115739 0.0115667 0.0115613 0.011558 0.0115569 0.0115582 0.011562 0.0115685 0.0115776 0.0115897 0.0116046 0.0116226 0.0116436 0.011668 0.0116965 0.0117301 0.0116501 0.0116494 0.011641 0.0116291 0.0116164 0.011604 0.0115925 0.0115824 0.0115739 0.0115671 0.0115622 0.0115592 0.0115584 0.0115599 0.0115637 0.0115701 0.011579 0.0115906 0.0116049 0.0116219 0.0116416 0.0116646 0.0116921 0.0117262 0.0116658 0.011661 0.0116476 0.0116324 0.0116178 0.0116044 0.0115927 0.0115826 0.0115743 0.0115679 0.0115634 0.0115608 0.0115604 0.0115621 0.011566 0.0115724 0.0115812 0.0115925 0.0116061 0.0116221 0.0116404 0.0116613 0.0116867 0.0117204 0.0116921 0.0116774 0.0116561 0.011637 0.0116204 0.011606 0.0115938 0.0115836 0.0115754 0.0115692 0.011565 0.0115627 0.0115626 0.0115647 0.0115689 0.0115754 0.0115842 0.0115953 0.0116086 0.0116239 0.0116408 0.0116591 0.0116807 0.0117126 0.0117218 0.0116924 0.0116637 0.0116422 0.0116239 0.0116087 0.0115959 0.0115854 0.0115771 0.011571 0.0115668 0.0115649 0.011565 0.0115674 0.0115719 0.0115787 0.0115876 0.0115987 0.0116119 0.0116267 0.0116429 0.0116587 0.0116747 0.011702 0.0117389 0.0116944 0.0116666 0.0116447 0.0116266 0.0116111 0.0115981 0.0115874 0.0115789 0.0115725 0.0115685 0.0115666 0.0115669 0.0115694 0.0115742 0.0115811 0.0115902 0.0116013 0.0116144 0.0116292 0.0116447 0.0116617 0.0116648 0.0116828 0.0117118 0.0116621 0.0116535 0.011639 0.0116246 0.011611 0.0115987 0.0115882 0.0115797 0.0115735 0.0115694 0.0115676 0.0115681 0.0115708 0.0115755 0.0115822 0.0115907 0.011601 0.0116132 0.0116271 0.0116434 0.0116589 0.0116856 0.0116072 0.0113575 0.0115742 0.0116033 0.0116174 0.0116166 0.0116101 0.0116004 0.0115896 0.0115789 0.0115695 0.0115619 0.0115569 0.0115549 0.0115561 0.011561 0.0115698 0.0115829 0.0116006 0.0116235 0.0116523 0.0116884 0.0117325 0.0117893 0.0118849 0.0115922 0.0115802 0.0116065 0.0116084 0.0116058 0.0115993 0.0115912 0.0115826 0.0115742 0.0115669 0.011561 0.0115569 0.0115552 0.0115559 0.0115596 0.0115664 0.0115766 0.0115907 0.0116091 0.0116325 0.0116611 0.0116976 0.0117397 0.0118005 0.0116497 0.0116251 0.0116145 0.0116096 0.0116023 0.0115944 0.0115861 0.011578 0.0115706 0.0115643 0.0115593 0.0115561 0.0115547 0.0115555 0.0115586 0.0115645 0.0115731 0.011585 0.0116003 0.0116195 0.0116432 0.011671 0.0117078 0.0117519 0.0116726 0.0116459 0.0116273 0.0116144 0.0116034 0.0115933 0.0115839 0.0115755 0.0115682 0.0115622 0.0115578 0.011555 0.0115541 0.0115551 0.0115583 0.0115638 0.0115717 0.0115824 0.011596 0.0116128 0.0116329 0.0116573 0.0116865 0.0117157 0.0116798 0.0116558 0.0116354 0.0116193 0.0116058 0.0115939 0.0115834 0.0115743 0.0115667 0.0115607 0.0115564 0.0115539 0.0115533 0.0115547 0.0115581 0.0115637 0.0115715 0.0115818 0.0115946 0.0116102 0.0116285 0.0116498 0.0116724 0.0116919 0.011679 0.0116585 0.0116393 0.0116225 0.0116078 0.0115949 0.0115836 0.0115739 0.0115659 0.0115597 0.0115553 0.0115529 0.0115525 0.0115541 0.0115578 0.0115637 0.0115717 0.0115821 0.0115949 0.0116101 0.0116276 0.011647 0.0116661 0.0116829 0.0116738 0.0116571 0.01164 0.0116239 0.0116092 0.0115958 0.011584 0.0115738 0.0115654 0.0115589 0.0115544 0.011552 0.0115516 0.0115534 0.0115573 0.0115635 0.011572 0.0115827 0.0115959 0.0116113 0.0116287 0.0116475 0.0116662 0.0116845 0.0116666 0.0116534 0.0116387 0.0116239 0.0116096 0.0115963 0.0115843 0.0115738 0.0115651 0.0115583 0.0115536 0.0115511 0.0115507 0.0115525 0.0115567 0.0115632 0.011572 0.0115833 0.011597 0.0116129 0.0116308 0.01165 0.0116699 0.0116911 0.0116589 0.0116488 0.0116362 0.0116228 0.0116093 0.0115963 0.0115843 0.0115737 0.0115648 0.0115578 0.0115529 0.0115502 0.0115497 0.0115516 0.0115559 0.0115627 0.0115719 0.0115837 0.0115979 0.0116145 0.0116331 0.0116533 0.011675 0.0116985 0.0116518 0.011644 0.0116333 0.0116211 0.0116085 0.011596 0.0115841 0.0115735 0.0115645 0.0115574 0.0115523 0.0115494 0.0115489 0.0115507 0.0115551 0.0115621 0.0115716 0.0115838 0.0115986 0.0116158 0.0116352 0.0116567 0.01168 0.011705 0.0116456 0.0116396 0.0116302 0.0116192 0.0116074 0.0115953 0.0115837 0.0115732 0.0115641 0.0115569 0.0115517 0.0115487 0.0115481 0.0115499 0.0115543 0.0115614 0.0115711 0.0115836 0.0115989 0.0116167 0.0116369 0.0116595 0.0116841 0.01171 0.0116406 0.0116356 0.0116274 0.0116173 0.0116061 0.0115945 0.0115832 0.0115728 0.0115637 0.0115564 0.0115511 0.0115481 0.0115474 0.0115492 0.0115536 0.0115607 0.0115705 0.0115833 0.0115988 0.0116171 0.0116381 0.0116615 0.0116871 0.0117136 0.0116365 0.0116323 0.0116249 0.0116155 0.0116048 0.0115936 0.0115826 0.0115723 0.0115633 0.011556 0.0115507 0.0115476 0.0115468 0.0115486 0.0115529 0.01156 0.0115699 0.0115827 0.0115985 0.0116171 0.0116386 0.0116627 0.0116891 0.0117161 0.0116333 0.0116295 0.0116229 0.011614 0.0116037 0.0115927 0.0115818 0.0115717 0.0115628 0.0115555 0.0115503 0.0115472 0.0115464 0.0115482 0.0115524 0.0115595 0.0115693 0.0115821 0.0115979 0.0116167 0.0116385 0.0116631 0.0116901 0.011718 0.0116308 0.0116276 0.0116215 0.0116128 0.0116027 0.0115918 0.0115811 0.011571 0.0115623 0.0115552 0.01155 0.0115469 0.0115462 0.0115479 0.0115521 0.0115591 0.0115688 0.0115815 0.0115972 0.0116159 0.0116377 0.0116626 0.0116902 0.0117193 0.0116294 0.011627 0.011621 0.0116123 0.011602 0.011591 0.0115803 0.0115705 0.0115619 0.0115549 0.0115499 0.0115469 0.0115462 0.0115479 0.0115521 0.0115589 0.0115685 0.0115809 0.0115963 0.0116148 0.0116365 0.0116614 0.0116894 0.01172 0.01163 0.0116281 0.0116219 0.0116125 0.0116017 0.0115905 0.0115797 0.01157 0.0115615 0.0115548 0.0115499 0.0115471 0.0115465 0.0115482 0.0115523 0.011559 0.0115684 0.0115805 0.0115955 0.0116135 0.0116347 0.0116593 0.0116876 0.0117197 0.0116342 0.0116322 0.0116245 0.0116137 0.011602 0.0115904 0.0115794 0.0115697 0.0115614 0.0115549 0.0115502 0.0115475 0.011547 0.0115488 0.0115528 0.0115594 0.0115686 0.0115803 0.0115949 0.0116122 0.0116325 0.0116564 0.0116844 0.0117177 0.0116443 0.0116401 0.0116293 0.0116163 0.0116033 0.0115909 0.0115796 0.0115698 0.0115617 0.0115553 0.0115508 0.0115483 0.0115479 0.0115498 0.0115539 0.0115604 0.0115693 0.0115807 0.0115947 0.0116112 0.0116304 0.0116529 0.0116799 0.0117136 0.0116621 0.011652 0.0116361 0.0116203 0.0116055 0.0115922 0.0115805 0.0115705 0.0115624 0.0115561 0.0115518 0.0115496 0.0115493 0.0115513 0.0115554 0.0115619 0.0115706 0.0115818 0.0115952 0.0116109 0.0116287 0.0116493 0.0116742 0.0117072 0.011686 0.0116661 0.0116442 0.0116253 0.0116088 0.0115944 0.0115821 0.0115719 0.0115637 0.0115574 0.0115532 0.0115511 0.011551 0.011553 0.0115573 0.0115638 0.0115725 0.0115835 0.0115965 0.0116116 0.0116282 0.0116463 0.0116674 0.0116984 0.0117078 0.0116774 0.0116512 0.0116307 0.0116127 0.0115974 0.0115845 0.0115739 0.0115654 0.0115591 0.0115549 0.0115528 0.0115528 0.011555 0.0115594 0.011566 0.0115748 0.0115857 0.0115987 0.0116133 0.0116292 0.0116444 0.0116601 0.0116865 0.0117159 0.0116786 0.0116555 0.0116335 0.0116154 0.0115997 0.0115866 0.0115756 0.011567 0.0115605 0.0115563 0.0115543 0.0115544 0.0115567 0.0115612 0.011568 0.0115768 0.0115877 0.0116006 0.0116152 0.0116305 0.0116473 0.0116488 0.0116666 0.0116892 0.0116621 0.0116456 0.0116298 0.0116139 0.0115997 0.011587 0.0115763 0.0115677 0.0115613 0.0115572 0.0115552 0.0115555 0.011558 0.0115625 0.0115691 0.0115776 0.011588 0.0116003 0.0116146 0.0116312 0.0116469 0.0116738 0.0115888 0.0113438 0.011559 0.0115858 0.0115986 0.0115975 0.0115913 0.0115826 0.011573 0.0115638 0.0115559 0.0115498 0.0115461 0.0115451 0.0115471 0.0115523 0.011561 0.0115735 0.0115901 0.0116112 0.0116374 0.01167 0.0117085 0.0117615 0.0118142 0.0115822 0.0115693 0.0115947 0.0115953 0.0115919 0.011585 0.0115769 0.0115686 0.0115609 0.0115543 0.0115493 0.0115463 0.0115454 0.011547 0.0115513 0.0115586 0.011569 0.011583 0.0116008 0.011623 0.0116497 0.0116832 0.0117167 0.0117724 0.0116407 0.0116164 0.0116048 0.0115993 0.0115912 0.0115827 0.0115742 0.0115661 0.0115588 0.0115529 0.0115485 0.0115458 0.0115451 0.0115466 0.0115504 0.0115568 0.0115659 0.0115781 0.0115934 0.0116123 0.011635 0.011661 0.0116959 0.0117413 0.0116638 0.0116374 0.0116185 0.0116049 0.0115935 0.011583 0.0115734 0.0115649 0.0115576 0.0115518 0.0115476 0.0115452 0.0115447 0.0115462 0.0115499 0.0115559 0.0115642 0.0115752 0.0115889 0.0116057 0.0116256 0.0116497 0.0116796 0.0117128 0.0116707 0.0116467 0.0116261 0.0116097 0.011596 0.011584 0.0115734 0.0115644 0.0115568 0.011551 0.0115468 0.0115446 0.0115442 0.0115458 0.0115495 0.0115554 0.0115634 0.0115738 0.0115868 0.0116023 0.0116208 0.0116424 0.0116667 0.011689 0.0116692 0.0116486 0.0116292 0.0116124 0.0115977 0.0115849 0.0115737 0.0115642 0.0115563 0.0115503 0.0115461 0.0115439 0.0115436 0.0115453 0.0115491 0.0115551 0.0115631 0.0115735 0.0115861 0.0116013 0.0116187 0.0116384 0.0116585 0.0116756 0.0116632 0.0116464 0.0116291 0.011613 0.0115984 0.0115853 0.0115738 0.011564 0.0115559 0.0115497 0.0115455 0.0115432 0.011543 0.0115448 0.0115487 0.0115548 0.011563 0.0115735 0.0115864 0.0116014 0.0116185 0.011637 0.0116554 0.0116722 0.011655 0.011642 0.0116271 0.0116122 0.0115981 0.0115852 0.0115737 0.0115637 0.0115555 0.0115492 0.0115448 0.0115425 0.0115422 0.0115441 0.0115482 0.0115545 0.011563 0.0115738 0.0115869 0.0116022 0.0116194 0.0116378 0.0116564 0.0116751 0.0116466 0.0116367 0.011624 0.0116105 0.0115972 0.0115847 0.0115733 0.0115633 0.011555 0.0115486 0.0115441 0.0115418 0.0115415 0.0115434 0.0115476 0.011554 0.0115628 0.011574 0.0115875 0.0116032 0.0116208 0.0116398 0.0116596 0.0116806 0.011639 0.0116315 0.0116205 0.0116084 0.011596 0.0115839 0.0115727 0.0115628 0.0115545 0.011548 0.0115435 0.011541 0.0115408 0.0115427 0.011547 0.0115536 0.0115626 0.0115741 0.011588 0.0116042 0.0116224 0.0116423 0.0116637 0.0116865 0.0116326 0.0116267 0.0116172 0.0116062 0.0115945 0.0115829 0.011572 0.0115622 0.0115539 0.0115474 0.0115428 0.0115404 0.0115401 0.011542 0.0115463 0.0115531 0.0115623 0.011574 0.0115883 0.011605 0.0116239 0.0116448 0.0116675 0.0116915 0.0116277 0.0116226 0.0116143 0.0116041 0.0115931 0.0115819 0.0115712 0.0115616 0.0115533 0.0115468 0.0115422 0.0115397 0.0115394 0.0115414 0.0115457 0.0115525 0.0115619 0.0115738 0.0115884 0.0116055 0.011625 0.0116469 0.0116708 0.0116955 0.011624 0.0116195 0.0116119 0.0116024 0.0115918 0.0115809 0.0115705 0.0115609 0.0115527 0.0115463 0.0115417 0.0115392 0.0115389 0.0115409 0.0115452 0.011552 0.0115614 0.0115735 0.0115882 0.0116056 0.0116257 0.0116484 0.0116732 0.0116986 0.0116214 0.0116172 0.0116102 0.0116011 0.0115907 0.0115801 0.0115697 0.0115603 0.0115522 0.0115458 0.0115412 0.0115387 0.0115384 0.0115404 0.0115447 0.0115516 0.011561 0.011573 0.0115878 0.0116055 0.0116259 0.0116491 0.0116748 0.011701 0.01162 0.0116162 0.0116094 0.0116003 0.01159 0.0115793 0.011569 0.0115597 0.0115516 0.0115453 0.0115408 0.0115384 0.0115381 0.0115401 0.0115444 0.0115512 0.0115605 0.0115725 0.0115873 0.0116049 0.0116255 0.0116491 0.0116755 0.0117029 0.0116201 0.0116167 0.0116098 0.0116003 0.0115897 0.0115789 0.0115685 0.0115592 0.0115512 0.011545 0.0115405 0.0115381 0.0115379 0.0115399 0.0115442 0.011551 0.0115602 0.011572 0.0115867 0.0116041 0.0116246 0.0116484 0.0116753 0.0117043 0.0116228 0.0116194 0.0116116 0.0116012 0.01159 0.0115788 0.0115683 0.0115589 0.011551 0.0115448 0.0115404 0.0115381 0.0115379 0.0115399 0.0115442 0.0115509 0.01156 0.0115717 0.011586 0.0116031 0.0116232 0.0116468 0.0116739 0.0117046 0.0116296 0.0116249 0.011615 0.0116031 0.0115909 0.0115791 0.0115684 0.0115589 0.011551 0.0115448 0.0115406 0.0115383 0.0115382 0.0115402 0.0115444 0.0115511 0.01156 0.0115714 0.0115854 0.0116019 0.0116214 0.0116443 0.0116713 0.0117032 0.0116419 0.0116336 0.0116203 0.0116063 0.0115927 0.0115802 0.011569 0.0115593 0.0115514 0.0115453 0.0115411 0.0115389 0.0115388 0.0115408 0.0115451 0.0115516 0.0115604 0.0115716 0.0115851 0.011601 0.0116195 0.0116412 0.0116672 0.0116996 0.0116599 0.0116449 0.0116271 0.0116106 0.0115955 0.0115821 0.0115703 0.0115604 0.0115523 0.0115461 0.0115419 0.0115397 0.0115397 0.0115418 0.011546 0.0115525 0.0115612 0.0115721 0.0115853 0.0116006 0.0116179 0.0116378 0.0116618 0.0116933 0.0116799 0.0116565 0.0116344 0.0116157 0.0115991 0.0115847 0.0115723 0.0115619 0.0115536 0.0115473 0.0115431 0.011541 0.0115409 0.011543 0.0115473 0.0115538 0.0115624 0.0115732 0.0115861 0.0116009 0.0116171 0.0116347 0.0116551 0.0116843 0.0116942 0.0116646 0.0116405 0.0116209 0.011603 0.0115877 0.0115746 0.0115639 0.0115553 0.0115489 0.0115446 0.0115424 0.0115424 0.0115446 0.0115489 0.0115554 0.0115641 0.0115748 0.0115876 0.011602 0.0116177 0.0116324 0.0116476 0.0116722 0.0116957 0.0116648 0.0116455 0.0116237 0.0116057 0.0115899 0.0115766 0.0115656 0.0115568 0.0115503 0.011546 0.0115438 0.0115438 0.011546 0.0115504 0.011557 0.0115656 0.0115763 0.011589 0.0116036 0.0116187 0.0116354 0.0116358 0.0116528 0.0116698 0.0116611 0.0116385 0.0116216 0.0116047 0.01159 0.0115771 0.0115662 0.0115576 0.0115511 0.0115468 0.0115448 0.011545 0.0115473 0.0115517 0.0115582 0.0115666 0.011577 0.0115894 0.0116037 0.0116205 0.0116362 0.0116632 0.0115763 0.011349 0.0115539 0.0115761 0.0115865 0.0115843 0.0115779 0.0115694 0.0115605 0.0115522 0.0115452 0.01154 0.0115371 0.0115368 0.0115391 0.0115444 0.0115528 0.0115644 0.0115796 0.0115986 0.0116219 0.0116503 0.0116825 0.0117291 0.011741 0.01158 0.0115662 0.0115889 0.0115874 0.0115826 0.0115749 0.0115664 0.0115581 0.0115507 0.0115445 0.0115401 0.0115375 0.0115372 0.0115393 0.0115439 0.0115513 0.0115617 0.0115752 0.0115921 0.0116129 0.0116371 0.011667 0.0116924 0.0117415 0.0116362 0.0116122 0.0115993 0.0115926 0.0115835 0.0115743 0.0115652 0.0115569 0.0115497 0.0115439 0.0115397 0.0115374 0.0115372 0.011539 0.0115433 0.01155 0.0115593 0.0115714 0.0115865 0.0116047 0.0116263 0.0116504 0.0116829 0.0117272 0.0116576 0.0116316 0.0116123 0.0115981 0.0115861 0.0115751 0.0115652 0.0115565 0.0115491 0.0115434 0.0115394 0.0115372 0.0115369 0.0115388 0.0115427 0.011549 0.0115576 0.0115687 0.0115824 0.0115989 0.0116184 0.0116419 0.0116717 0.0117068 0.0116631 0.0116393 0.0116189 0.0116023 0.0115883 0.0115761 0.0115655 0.0115563 0.0115488 0.011543 0.0115389 0.0115368 0.0115366 0.0115384 0.0115422 0.0115483 0.0115565 0.011567 0.0115799 0.0115953 0.0116137 0.0116353 0.0116604 0.0116852 0.0116603 0.0116401 0.011621 0.0116041 0.0115895 0.0115767 0.0115656 0.0115562 0.0115484 0.0115425 0.0115385 0.0115363 0.0115362 0.011538 0.0115418 0.0115478 0.0115558 0.0115661 0.0115786 0.0115935 0.0116108 0.0116305 0.0116512 0.011669 0.0116533 0.011637 0.01162 0.011604 0.0115896 0.0115767 0.0115655 0.0115559 0.0115481 0.0115421 0.011538 0.0115358 0.0115356 0.0115375 0.0115414 0.0115474 0.0115555 0.0115657 0.0115782 0.0115928 0.0116094 0.0116276 0.0116457 0.0116611 0.0116445 0.0116321 0.0116173 0.0116026 0.0115888 0.0115762 0.011565 0.0115554 0.0115475 0.0115415 0.0115374 0.0115352 0.011535 0.0115369 0.0115409 0.011547 0.0115552 0.0115656 0.0115781 0.0115927 0.0116091 0.0116267 0.0116439 0.01166 0.0116358 0.0116265 0.0116138 0.0116005 0.0115875 0.0115753 0.0115643 0.0115548 0.0115469 0.0115408 0.0115367 0.0115345 0.0115344 0.0115363 0.0115403 0.0115466 0.0115549 0.0115655 0.0115783 0.011593 0.0116095 0.0116271 0.0116448 0.0116627 0.0116284 0.0116211 0.0116102 0.0115981 0.0115859 0.0115742 0.0115635 0.0115541 0.0115462 0.0115402 0.011536 0.0115338 0.0115337 0.0115357 0.0115398 0.0115461 0.0115547 0.0115654 0.0115784 0.0115935 0.0116103 0.0116284 0.0116473 0.0116671 0.0116226 0.0116165 0.011607 0.0115959 0.0115843 0.0115731 0.0115626 0.0115533 0.0115455 0.0115395 0.0115353 0.0115332 0.0115331 0.0115351 0.0115392 0.0115457 0.0115544 0.0115653 0.0115786 0.011594 0.0116113 0.0116302 0.0116503 0.0116716 0.0116183 0.0116128 0.0116042 0.0115939 0.0115829 0.011572 0.0115617 0.0115525 0.0115448 0.0115388 0.0115347 0.0115325 0.0115324 0.0115345 0.0115387 0.0115452 0.011554 0.0115651 0.0115786 0.0115944 0.0116122 0.011632 0.0116533 0.0116755 0.0116156 0.0116102 0.0116022 0.0115924 0.0115817 0.011571 0.0115609 0.0115518 0.0115442 0.0115382 0.0115341 0.0115319 0.0115319 0.011534 0.0115382 0.0115448 0.0115536 0.0115649 0.0115785 0.0115946 0.0116129 0.0116335 0.0116559 0.0116788 0.0116141 0.0116088 0.0116011 0.0115915 0.0115809 0.0115702 0.0115602 0.0115511 0.0115435 0.0115376 0.0115335 0.0115314 0.0115314 0.0115335 0.0115378 0.0115444 0.0115533 0.0115646 0.0115783 0.0115946 0.0116133 0.0116346 0.011658 0.0116817 0.0116139 0.0116089 0.0116011 0.0115912 0.0115804 0.0115697 0.0115596 0.0115506 0.011543 0.0115371 0.0115331 0.011531 0.011531 0.0115331 0.0115374 0.011544 0.0115529 0.0115642 0.0115779 0.0115943 0.0116133 0.011635 0.0116593 0.0116841 0.0116159 0.0116107 0.0116022 0.0115917 0.0115805 0.0115695 0.0115593 0.0115503 0.0115427 0.0115368 0.0115327 0.0115307 0.0115308 0.0115329 0.0115372 0.0115438 0.0115527 0.0115639 0.0115776 0.0115938 0.0116128 0.0116348 0.0116598 0.0116862 0.0116206 0.0116147 0.0116048 0.0115931 0.0115812 0.0115698 0.0115593 0.0115501 0.0115425 0.0115366 0.0115326 0.0115306 0.0115306 0.0115328 0.0115371 0.0115437 0.0115525 0.0115636 0.0115771 0.0115932 0.011612 0.0116339 0.0116593 0.0116875 0.0116293 0.0116211 0.0116087 0.0115955 0.0115826 0.0115705 0.0115597 0.0115503 0.0115426 0.0115367 0.0115326 0.0115306 0.0115307 0.0115329 0.0115372 0.0115437 0.0115524 0.0115634 0.0115767 0.0115924 0.0116107 0.0116323 0.0116576 0.0116872 0.0116426 0.0116299 0.0116141 0.011599 0.0115848 0.011572 0.0115607 0.011551 0.0115431 0.0115371 0.011533 0.011531 0.011531 0.0115332 0.0115375 0.011544 0.0115527 0.0115635 0.0115765 0.0115918 0.0116094 0.01163 0.0116544 0.0116846 0.011659 0.0116398 0.0116205 0.0116033 0.0115878 0.0115741 0.0115622 0.0115522 0.011544 0.0115379 0.0115338 0.0115317 0.0115317 0.0115339 0.0115381 0.0115446 0.0115532 0.0115639 0.0115768 0.0115915 0.0116082 0.0116272 0.0116498 0.0116792 0.0116743 0.0116488 0.0116268 0.0116081 0.0115915 0.0115769 0.0115643 0.0115538 0.0115454 0.0115391 0.0115348 0.0115327 0.0115327 0.0115348 0.0115391 0.0115455 0.0115541 0.0115647 0.0115774 0.0115918 0.0116076 0.0116246 0.0116439 0.0116709 0.0116823 0.0116544 0.011632 0.0116129 0.0115952 0.0115798 0.0115666 0.0115557 0.0115471 0.0115406 0.0115362 0.011534 0.011534 0.0115361 0.0115404 0.0115468 0.0115553 0.011566 0.0115786 0.0115928 0.0116082 0.0116225 0.011637 0.0116595 0.0116787 0.0116532 0.0116369 0.0116154 0.0115975 0.0115817 0.0115684 0.0115573 0.0115485 0.0115419 0.0115375 0.0115353 0.0115353 0.0115374 0.0115417 0.0115481 0.0115566 0.0115672 0.0115798 0.0115942 0.0116093 0.0116259 0.011626 0.0116414 0.0116529 0.0116592 0.0116322 0.0116145 0.011597 0.0115819 0.0115688 0.011558 0.0115493 0.0115428 0.0115385 0.0115364 0.0115365 0.0115387 0.011543 0.0115494 0.0115578 0.0115681 0.0115804 0.0115948 0.0116115 0.0116273 0.0116544 0.0115697 0.0113718 0.0115585 0.011574 0.0115806 0.0115765 0.0115692 0.0115605 0.0115517 0.0115438 0.0115374 0.0115327 0.0115303 0.0115302 0.0115327 0.0115378 0.0115457 0.0115564 0.0115701 0.011587 0.011607 0.0116309 0.0116563 0.011694 0.0116665 0.0115851 0.0115699 0.0115883 0.0115841 0.0115774 0.0115685 0.0115594 0.0115508 0.0115433 0.0115373 0.0115331 0.0115309 0.0115309 0.0115332 0.0115379 0.0115452 0.0115553 0.0115681 0.0115839 0.0116029 0.0116244 0.0116503 0.0116677 0.0117095 0.0116362 0.011612 0.0115976 0.0115893 0.011579 0.0115688 0.0115591 0.0115504 0.011543 0.0115372 0.0115331 0.011531 0.011531 0.0115331 0.0115375 0.0115443 0.0115536 0.0115654 0.01158 0.0115973 0.0116175 0.0116394 0.0116692 0.0117109 0.0116544 0.0116285 0.0116088 0.0115939 0.0115812 0.0115697 0.0115593 0.0115503 0.0115429 0.0115371 0.0115331 0.011531 0.0115309 0.0115329 0.011537 0.0115434 0.0115521 0.0115631 0.0115767 0.0115928 0.0116116 0.0116342 0.0116631 0.0116987 0.0116575 0.0116341 0.0116138 0.011597 0.0115828 0.0115704 0.0115595 0.0115503 0.0115427 0.0115369 0.0115329 0.0115308 0.0115307 0.0115326 0.0115365 0.0115427 0.0115509 0.0115614 0.0115742 0.0115894 0.0116074 0.0116287 0.0116541 0.0116804 0.011653 0.0116335 0.0116146 0.0115979 0.0115833 0.0115705 0.0115595 0.0115501 0.0115424 0.0115365 0.0115325 0.0115304 0.0115303 0.0115322 0.011536 0.011542 0.01155 0.0115602 0.0115725 0.0115871 0.0116042 0.0116237 0.0116448 0.0116635 0.0116449 0.0116296 0.0116129 0.0115971 0.0115828 0.0115701 0.0115591 0.0115496 0.011542 0.0115361 0.0115321 0.01153 0.0115298 0.0115317 0.0115355 0.0115414 0.0115494 0.0115594 0.0115715 0.0115857 0.0116019 0.0116196 0.0116375 0.0116521 0.0116359 0.0116242 0.0116098 0.0115953 0.0115817 0.0115693 0.0115584 0.011549 0.0115413 0.0115355 0.0115314 0.0115294 0.0115293 0.0115311 0.011535 0.0115409 0.0115489 0.0115589 0.0115709 0.0115848 0.0116004 0.0116171 0.0116332 0.0116469 0.0116277 0.0116187 0.0116062 0.011593 0.0115802 0.0115682 0.0115575 0.0115482 0.0115406 0.0115348 0.0115308 0.0115287 0.0115286 0.0115305 0.0115344 0.0115404 0.0115485 0.0115585 0.0115706 0.0115844 0.0115998 0.0116159 0.0116316 0.0116463 0.0116211 0.0116137 0.0116028 0.0115907 0.0115786 0.011567 0.0115565 0.0115474 0.0115398 0.011534 0.0115301 0.011528 0.011528 0.0115299 0.0115339 0.01154 0.0115481 0.0115582 0.0115704 0.0115843 0.0115997 0.0116159 0.0116321 0.0116485 0.0116165 0.0116097 0.0115998 0.0115886 0.011577 0.0115658 0.0115555 0.0115465 0.011539 0.0115333 0.0115293 0.0115273 0.0115273 0.0115293 0.0115334 0.0115395 0.0115477 0.011558 0.0115702 0.0115844 0.0116 0.0116167 0.0116338 0.0116517 0.0116136 0.0116068 0.0115976 0.0115869 0.0115757 0.0115647 0.0115546 0.0115457 0.0115382 0.0115325 0.0115286 0.0115267 0.0115267 0.0115288 0.0115329 0.0115391 0.0115474 0.0115577 0.0115702 0.0115845 0.0116005 0.0116178 0.0116361 0.011655 0.0116121 0.0116052 0.0115963 0.0115858 0.0115747 0.0115639 0.0115538 0.0115449 0.0115375 0.0115319 0.011528 0.0115261 0.0115262 0.0115283 0.0115324 0.0115387 0.011547 0.0115575 0.01157 0.0115846 0.011601 0.0116191 0.0116385 0.0116581 0.011612 0.0116049 0.0115959 0.0115853 0.0115741 0.0115632 0.0115531 0.0115443 0.0115369 0.0115313 0.0115274 0.0115256 0.0115257 0.0115278 0.011532 0.0115383 0.0115467 0.0115572 0.0115699 0.0115847 0.0116015 0.0116203 0.0116407 0.0116611 0.0116134 0.0116062 0.0115966 0.0115855 0.011574 0.0115629 0.0115527 0.0115438 0.0115364 0.0115308 0.011527 0.0115251 0.0115253 0.0115275 0.0115317 0.011538 0.0115465 0.011557 0.0115697 0.0115847 0.0116018 0.0116212 0.0116426 0.0116639 0.011617 0.0116091 0.0115984 0.0115864 0.0115744 0.0115629 0.0115526 0.0115436 0.0115361 0.0115305 0.0115266 0.0115248 0.011525 0.0115272 0.0115315 0.0115378 0.0115463 0.0115568 0.0115696 0.0115845 0.0116018 0.0116216 0.0116439 0.0116667 0.0116233 0.011614 0.0116015 0.0115882 0.0115754 0.0115635 0.0115528 0.0115436 0.011536 0.0115303 0.0115265 0.0115246 0.0115248 0.011527 0.0115313 0.0115377 0.0115462 0.0115567 0.0115694 0.0115843 0.0116015 0.0116215 0.0116444 0.011669 0.0116331 0.0116207 0.0116056 0.0115908 0.011577 0.0115645 0.0115534 0.0115439 0.0115362 0.0115304 0.0115265 0.0115246 0.0115248 0.011527 0.0115313 0.0115377 0.0115462 0.0115567 0.0115693 0.011584 0.011601 0.0116208 0.0116439 0.0116701 0.0116459 0.0116287 0.0116107 0.0115943 0.0115794 0.0115661 0.0115546 0.0115448 0.0115368 0.0115308 0.0115268 0.0115249 0.011525 0.0115272 0.0115316 0.011538 0.0115464 0.0115569 0.0115694 0.0115839 0.0116004 0.0116196 0.0116421 0.0116693 0.0116596 0.011637 0.0116163 0.0115984 0.0115825 0.0115684 0.0115563 0.0115461 0.0115378 0.0115317 0.0115275 0.0115255 0.0115256 0.0115278 0.011532 0.0115385 0.0115469 0.0115573 0.0115698 0.011584 0.0116 0.0116179 0.011639 0.0116656 0.01167 0.0116434 0.0116215 0.0116027 0.011586 0.0115711 0.0115584 0.0115477 0.0115392 0.0115328 0.0115285 0.0115264 0.0115264 0.0115286 0.0115328 0.0115392 0.0115476 0.0115581 0.0115705 0.0115846 0.0115999 0.0116162 0.0116344 0.0116588 0.0116728 0.0116466 0.0116255 0.0116069 0.0115892 0.0115738 0.0115606 0.0115496 0.0115408 0.0115343 0.0115299 0.0115277 0.0115276 0.0115297 0.0115339 0.0115403 0.0115487 0.0115592 0.0115716 0.0115856 0.0116008 0.0116148 0.0116288 0.0116488 0.0116656 0.011644 0.0116301 0.011609 0.0115912 0.0115755 0.0115621 0.011551 0.0115422 0.0115356 0.0115312 0.0115289 0.0115289 0.0115309 0.0115351 0.0115415 0.0115499 0.0115603 0.0115728 0.011587 0.0116021 0.0116187 0.0116191 0.0116328 0.0116377 0.0116565 0.0116269 0.0116086 0.0115907 0.0115755 0.0115625 0.0115517 0.011543 0.0115365 0.0115322 0.0115301 0.0115301 0.0115322 0.0115365 0.0115428 0.0115511 0.0115613 0.0115737 0.011588 0.0116047 0.0116207 0.011648 0.0115689 0.0114103 0.011572 0.0115787 0.0115805 0.0115737 0.0115649 0.0115554 0.0115464 0.0115385 0.0115323 0.0115279 0.0115257 0.0115258 0.0115282 0.0115331 0.0115405 0.0115503 0.0115625 0.0115772 0.011594 0.0116132 0.0116314 0.0116585 0.0115931 0.011597 0.0115795 0.0115924 0.0115848 0.0115758 0.0115654 0.0115554 0.0115464 0.0115387 0.0115326 0.0115285 0.0115265 0.0115265 0.0115289 0.0115336 0.0115407 0.0115502 0.0115622 0.0115767 0.0115937 0.0116123 0.0116338 0.0116434 0.0116779 0.0116406 0.0116155 0.0115992 0.011589 0.0115771 0.0115659 0.0115555 0.0115463 0.0115387 0.0115328 0.0115287 0.0115267 0.0115268 0.011529 0.0115334 0.0115401 0.0115492 0.0115607 0.0115745 0.0115907 0.0116092 0.0116286 0.0116555 0.0116937 0.0116542 0.0116282 0.0116077 0.011592 0.0115786 0.0115664 0.0115556 0.0115463 0.0115387 0.0115328 0.0115288 0.0115268 0.0115268 0.0115288 0.011533 0.0115394 0.011548 0.0115588 0.011572 0.0115875 0.0116054 0.011627 0.0116545 0.0116894 0.0116543 0.0116313 0.0116108 0.0115938 0.0115793 0.0115666 0.0115556 0.0115462 0.0115385 0.0115327 0.0115287 0.0115266 0.0115265 0.0115285 0.0115325 0.0115386 0.0115468 0.0115572 0.0115698 0.0115847 0.0116022 0.011623 0.0116481 0.0116754 0.0116479 0.0116291 0.0116104 0.0115938 0.0115792 0.0115664 0.0115552 0.0115458 0.0115382 0.0115323 0.0115283 0.0115263 0.0115262 0.011528 0.0115319 0.0115379 0.0115458 0.0115558 0.011568 0.0115823 0.011599 0.0116181 0.0116394 0.0116591 0.011639 0.0116245 0.0116081 0.0115925 0.0115783 0.0115657 0.0115546 0.0115453 0.0115376 0.0115318 0.0115279 0.0115258 0.0115257 0.0115275 0.0115313 0.0115372 0.011545 0.0115548 0.0115666 0.0115804 0.0115961 0.0116134 0.0116312 0.0116455 0.0116303 0.0116191 0.0116048 0.0115905 0.0115769 0.0115646 0.0115537 0.0115445 0.0115369 0.0115311 0.0115272 0.0115252 0.0115251 0.0115269 0.0115307 0.0115365 0.0115443 0.0115539 0.0115655 0.0115789 0.0115937 0.0116096 0.0116249 0.0116368 0.0116232 0.011614 0.0116015 0.0115883 0.0115754 0.0115634 0.0115528 0.0115436 0.0115361 0.0115304 0.0115265 0.0115245 0.0115244 0.0115263 0.0115301 0.0115359 0.0115436 0.0115532 0.0115647 0.0115778 0.0115921 0.011607 0.0116211 0.0116328 0.0116183 0.0116099 0.0115986 0.0115862 0.0115739 0.0115622 0.0115517 0.0115427 0.0115352 0.0115296 0.0115257 0.0115238 0.0115238 0.0115257 0.0115295 0.0115354 0.0115431 0.0115527 0.0115641 0.011577 0.0115911 0.0116056 0.0116194 0.0116323 0.0116155 0.011607 0.0115963 0.0115845 0.0115725 0.0115611 0.0115507 0.0115418 0.0115344 0.0115288 0.0115249 0.0115231 0.0115231 0.0115251 0.011529 0.0115349 0.0115427 0.0115523 0.0115637 0.0115766 0.0115906 0.0116052 0.0116194 0.0116336 0.0116142 0.0116053 0.0115948 0.0115832 0.0115714 0.0115601 0.0115498 0.0115409 0.0115336 0.011528 0.0115243 0.0115224 0.0115225 0.0115245 0.0115285 0.0115344 0.0115423 0.0115519 0.0115634 0.0115764 0.0115906 0.0116055 0.0116205 0.0116358 0.0116143 0.0116049 0.0115942 0.0115826 0.0115707 0.0115594 0.0115491 0.0115402 0.0115329 0.0115273 0.0115236 0.0115218 0.0115219 0.011524 0.0115281 0.0115341 0.0115419 0.0115517 0.0115632 0.0115764 0.0115908 0.0116063 0.0116223 0.0116383 0.0116156 0.0116058 0.0115946 0.0115825 0.0115704 0.0115589 0.0115486 0.0115396 0.0115323 0.0115268 0.011523 0.0115213 0.0115214 0.0115236 0.0115277 0.0115337 0.0115417 0.0115515 0.0115631 0.0115764 0.0115913 0.0116074 0.0116243 0.011641 0.0116184 0.011608 0.011596 0.0115831 0.0115705 0.0115588 0.0115483 0.0115393 0.0115319 0.0115263 0.0115226 0.0115208 0.0115211 0.0115233 0.0115274 0.0115335 0.0115415 0.0115513 0.011563 0.0115765 0.0115917 0.0116085 0.0116264 0.0116439 0.0116232 0.0116118 0.0115982 0.0115844 0.0115712 0.011559 0.0115483 0.0115391 0.0115316 0.011526 0.0115223 0.0115205 0.0115208 0.011523 0.0115272 0.0115333 0.0115414 0.0115513 0.0115631 0.0115767 0.0115921 0.0116095 0.0116284 0.0116471 0.0116306 0.011617 0.0116015 0.0115863 0.0115723 0.0115597 0.0115486 0.0115392 0.0115316 0.0115259 0.0115221 0.0115204 0.0115206 0.0115229 0.0115271 0.0115333 0.0115414 0.0115514 0.0115632 0.0115769 0.0115925 0.0116102 0.01163 0.0116504 0.0116404 0.0116233 0.0116054 0.0115889 0.011574 0.0115609 0.0115494 0.0115397 0.0115319 0.0115261 0.0115222 0.0115204 0.0115206 0.0115229 0.0115271 0.0115333 0.0115415 0.0115515 0.0115634 0.0115771 0.0115927 0.0116105 0.0116309 0.0116532 0.0116517 0.0116302 0.0116099 0.0115922 0.0115764 0.0115626 0.0115507 0.0115406 0.0115326 0.0115266 0.0115226 0.0115207 0.0115208 0.0115231 0.0115273 0.0115336 0.0115418 0.0115519 0.0115638 0.0115775 0.011593 0.0116105 0.0116308 0.0116544 0.0116619 0.0116363 0.0116145 0.0115958 0.0115793 0.0115649 0.0115524 0.011542 0.0115336 0.0115274 0.0115233 0.0115213 0.0115213 0.0115235 0.0115278 0.0115341 0.0115423 0.0115525 0.0115645 0.0115782 0.0115933 0.0116102 0.0116295 0.0116531 0.0116676 0.0116403 0.0116184 0.0115994 0.0115825 0.0115674 0.0115545 0.0115436 0.011535 0.0115286 0.0115243 0.0115221 0.0115221 0.0115243 0.0115285 0.0115348 0.0115431 0.0115534 0.0115655 0.0115792 0.011594 0.0116097 0.0116268 0.0116486 0.0116661 0.0116414 0.0116211 0.0116029 0.0115853 0.0115698 0.0115565 0.0115454 0.0115365 0.01153 0.0115255 0.0115233 0.0115232 0.0115253 0.0115295 0.0115358 0.0115442 0.0115545 0.0115668 0.0115806 0.0115955 0.0116093 0.0116229 0.0116407 0.0116562 0.0116369 0.0116251 0.0116044 0.0115868 0.0115711 0.0115578 0.0115467 0.0115379 0.0115312 0.0115268 0.0115246 0.0115245 0.0115265 0.0115307 0.011537 0.0115453 0.0115557 0.011568 0.0115821 0.0115972 0.0116138 0.0116152 0.0116272 0.0116237 0.0116537 0.0116228 0.0116042 0.0115862 0.011571 0.011558 0.0115472 0.0115386 0.0115322 0.0115279 0.0115258 0.0115258 0.0115279 0.011532 0.0115383 0.0115466 0.0115569 0.0115692 0.0115835 0.0116002 0.0116164 0.0116441 0.011573 0.0114617 0.0115937 0.0115899 0.0115858 0.0115755 0.0115647 0.011554 0.0115444 0.0115362 0.0115298 0.0115255 0.0115233 0.0115234 0.0115258 0.0115305 0.0115374 0.0115464 0.0115574 0.0115701 0.0115839 0.0115985 0.0116096 0.0116251 0.0115232 0.0116151 0.011594 0.0116004 0.011589 0.0115774 0.0115654 0.0115543 0.0115446 0.0115365 0.0115304 0.0115262 0.0115242 0.0115243 0.0115267 0.0115312 0.011538 0.0115471 0.0115582 0.0115713 0.0115862 0.0116017 0.0116186 0.0116204 0.0116483 0.0116491 0.0116222 0.0116035 0.0115912 0.0115778 0.0115654 0.0115542 0.0115445 0.0115366 0.0115306 0.0115265 0.0115245 0.0115246 0.0115268 0.0115312 0.0115377 0.0115465 0.0115574 0.0115703 0.0115852 0.0116018 0.0116186 0.0116425 0.011677 0.0116572 0.0116304 0.011609 0.0115923 0.0115781 0.0115652 0.011554 0.0115444 0.0115366 0.0115306 0.0115266 0.0115246 0.0115246 0.0115267 0.0115308 0.0115371 0.0115456 0.0115561 0.0115688 0.0115835 0.0116004 0.0116206 0.0116466 0.0116803 0.0116538 0.0116309 0.0116101 0.0115927 0.0115778 0.0115649 0.0115536 0.0115441 0.0115364 0.0115305 0.0115265 0.0115244 0.0115243 0.0115263 0.0115303 0.0115364 0.0115445 0.0115547 0.011567 0.0115815 0.0115984 0.0116186 0.0116431 0.0116709 0.0116456 0.0116273 0.0116087 0.0115919 0.0115772 0.0115642 0.011553 0.0115436 0.0115359 0.0115301 0.0115261 0.011524 0.0115239 0.0115258 0.0115296 0.0115356 0.0115434 0.0115533 0.0115652 0.0115793 0.0115955 0.0116143 0.0116356 0.0116563 0.0116365 0.0116223 0.011606 0.0115903 0.011576 0.0115633 0.0115522 0.0115429 0.0115352 0.0115295 0.0115255 0.0115235 0.0115233 0.0115252 0.011529 0.0115347 0.0115424 0.011552 0.0115636 0.0115771 0.0115924 0.0116094 0.0116272 0.0116419 0.0116288 0.0116173 0.0116029 0.0115884 0.0115747 0.0115622 0.0115513 0.011542 0.0115345 0.0115287 0.0115248 0.0115228 0.0115227 0.0115245 0.0115282 0.011534 0.0115415 0.011551 0.0115622 0.0115751 0.0115895 0.0116047 0.0116197 0.0116307 0.0116237 0.0116133 0.0116002 0.0115865 0.0115733 0.0115611 0.0115503 0.0115411 0.0115336 0.0115279 0.011524 0.011522 0.011522 0.0115238 0.0115276 0.0115332 0.0115407 0.01155 0.011561 0.0115734 0.011587 0.011601 0.011614 0.0116236 0.011621 0.0116104 0.011598 0.0115849 0.011572 0.01156 0.0115493 0.0115401 0.0115327 0.011527 0.0115232 0.0115213 0.0115212 0.0115231 0.0115269 0.0115326 0.0115401 0.0115493 0.01156 0.0115722 0.0115851 0.0115983 0.0116103 0.0116201 0.0116201 0.0116089 0.0115966 0.0115837 0.0115709 0.011559 0.0115484 0.0115392 0.0115318 0.0115262 0.0115224 0.0115205 0.0115206 0.0115225 0.0115263 0.011532 0.0115395 0.0115486 0.0115593 0.0115712 0.0115839 0.0115967 0.0116085 0.0116191 0.0116207 0.0116086 0.0115961 0.011583 0.0115702 0.0115582 0.0115476 0.0115385 0.011531 0.0115254 0.0115217 0.0115198 0.0115199 0.0115219 0.0115258 0.0115316 0.011539 0.0115482 0.0115588 0.0115707 0.0115833 0.011596 0.0116081 0.0116198 0.0116223 0.0116094 0.0115963 0.0115828 0.0115698 0.0115577 0.0115469 0.0115378 0.0115303 0.0115247 0.011521 0.0115193 0.0115194 0.0115215 0.0115254 0.0115312 0.0115387 0.0115478 0.0115585 0.0115704 0.0115831 0.0115961 0.0116089 0.0116212 0.0116248 0.0116114 0.0115973 0.0115832 0.0115697 0.0115574 0.0115465 0.0115372 0.0115298 0.0115242 0.0115205 0.0115188 0.0115189 0.0115211 0.011525 0.0115309 0.0115385 0.0115476 0.0115583 0.0115704 0.0115833 0.0115969 0.0116104 0.0116233 0.0116287 0.0116144 0.0115991 0.011584 0.01157 0.0115574 0.0115463 0.0115369 0.0115294 0.0115238 0.0115201 0.0115183 0.0115186 0.0115208 0.0115248 0.0115307 0.0115383 0.0115476 0.0115584 0.0115705 0.0115838 0.011598 0.0116124 0.0116258 0.0116343 0.0116185 0.0116016 0.0115854 0.0115707 0.0115577 0.0115464 0.0115369 0.0115293 0.0115236 0.0115199 0.0115181 0.0115184 0.0115206 0.0115247 0.0115306 0.0115383 0.0115477 0.0115586 0.0115709 0.0115845 0.0115993 0.0116148 0.0116292 0.0116418 0.0116235 0.0116046 0.0115873 0.0115719 0.0115584 0.0115468 0.0115371 0.0115293 0.0115235 0.0115198 0.011518 0.0115183 0.0115205 0.0115246 0.0115307 0.0115384 0.0115479 0.0115589 0.0115714 0.0115854 0.0116007 0.0116172 0.0116332 0.0116507 0.0116289 0.011608 0.0115897 0.0115736 0.0115596 0.0115477 0.0115377 0.0115297 0.0115238 0.0115199 0.011518 0.0115183 0.0115205 0.0115247 0.0115308 0.0115387 0.0115482 0.0115594 0.0115721 0.0115863 0.011602 0.0116195 0.0116374 0.0116596 0.011634 0.0116116 0.0115924 0.0115758 0.0115613 0.011549 0.0115387 0.0115304 0.0115243 0.0115203 0.0115184 0.0115186 0.0115208 0.011525 0.0115312 0.0115391 0.0115488 0.0115602 0.0115731 0.0115874 0.0116033 0.0116212 0.011641 0.0116659 0.0116378 0.0116149 0.0115954 0.0115784 0.0115635 0.0115507 0.01154 0.0115316 0.0115252 0.0115211 0.0115191 0.0115191 0.0115213 0.0115255 0.0115317 0.0115398 0.0115497 0.0115613 0.0115743 0.0115887 0.0116043 0.011622 0.0116426 0.0116674 0.0116395 0.0116175 0.0115983 0.011581 0.0115657 0.0115526 0.0115416 0.0115329 0.0115264 0.0115221 0.0115199 0.0115199 0.0115221 0.0115262 0.0115325 0.0115406 0.0115507 0.0115625 0.0115759 0.0115902 0.0116053 0.0116214 0.011641 0.0116626 0.0116385 0.0116189 0.0116009 0.0115833 0.0115678 0.0115544 0.0115433 0.0115344 0.0115278 0.0115233 0.0115211 0.011521 0.0115231 0.0115272 0.0115335 0.0115417 0.011552 0.011564 0.0115777 0.0115925 0.0116061 0.0116197 0.0116357 0.0116505 0.0116322 0.0116222 0.0116019 0.0115844 0.0115688 0.0115555 0.0115445 0.0115357 0.011529 0.0115246 0.0115224 0.0115223 0.0115243 0.0115284 0.0115346 0.0115429 0.0115532 0.0115654 0.0115795 0.0115946 0.0116115 0.0116142 0.0116251 0.0116111 0.0116514 0.01162 0.0116015 0.0115836 0.0115685 0.0115556 0.0115449 0.0115364 0.01153 0.0115257 0.0115236 0.0115236 0.0115257 0.0115298 0.0115361 0.0115443 0.0115546 0.011567 0.0115813 0.011598 0.0116145 0.0116427 0.0115811 0.0115232 0.0116219 0.0116067 0.0115959 0.0115816 0.0115682 0.011556 0.0115453 0.0115365 0.0115299 0.0115254 0.0115233 0.0115234 0.0115257 0.0115303 0.0115369 0.0115453 0.0115552 0.0115662 0.0115773 0.0115878 0.0115921 0.011596 0.01146 0.0116385 0.0116124 0.0116117 0.0115963 0.011582 0.0115681 0.0115558 0.0115453 0.0115368 0.0115304 0.0115262 0.0115241 0.0115243 0.0115266 0.011531 0.0115375 0.011546 0.0115562 0.0115679 0.0115807 0.0115932 0.0116056 0.0115999 0.0116222 0.0116611 0.0116315 0.0116103 0.0115957 0.0115806 0.0115671 0.0115551 0.011545 0.0115368 0.0115306 0.0115265 0.0115244 0.0115245 0.0115267 0.011531 0.0115373 0.0115457 0.0115559 0.0115679 0.0115813 0.011596 0.01161 0.0116309 0.0116622 0.0116631 0.011635 0.0116125 0.0115946 0.0115796 0.0115661 0.0115544 0.0115446 0.0115366 0.0115305 0.0115265 0.0115244 0.0115244 0.0115265 0.0115306 0.0115368 0.0115449 0.0115551 0.0115671 0.011581 0.0115967 0.0116156 0.01164 0.0116723 0.0116562 0.0116329 0.0116117 0.0115938 0.0115785 0.0115652 0.0115537 0.011544 0.0115362 0.0115303 0.0115262 0.0115242 0.0115241 0.0115261 0.01153 0.011536 0.011544 0.011554 0.0115659 0.0115799 0.0115962 0.0116157 0.0116396 0.0116676 0.0116466 0.0116283 0.0116095 0.0115924 0.0115773 0.0115642 0.0115529 0.0115434 0.0115356 0.0115297 0.0115257 0.0115237 0.0115236 0.0115254 0.0115293 0.0115351 0.0115429 0.0115527 0.0115644 0.0115782 0.0115941 0.0116126 0.0116338 0.0116556 0.0116381 0.0116234 0.0116068 0.0115908 0.0115762 0.0115632 0.011552 0.0115425 0.0115349 0.011529 0.0115251 0.011523 0.0115229 0.0115247 0.0115285 0.0115343 0.0115419 0.0115514 0.0115628 0.011576 0.0115911 0.0116079 0.0116259 0.0116416 0.0116323 0.0116194 0.0116043 0.0115892 0.011575 0.0115622 0.0115511 0.0115416 0.011534 0.0115282 0.0115243 0.0115222 0.0115221 0.011524 0.0115277 0.0115334 0.0115409 0.0115502 0.0115612 0.0115738 0.0115878 0.0116029 0.0116178 0.0116289 0.0116297 0.0116168 0.0116025 0.0115878 0.0115739 0.0115612 0.0115501 0.0115407 0.0115331 0.0115273 0.0115234 0.0115214 0.0115213 0.0115232 0.0115269 0.0115326 0.0115399 0.011549 0.0115597 0.0115718 0.0115848 0.0115983 0.0116108 0.0116193 0.0116294 0.0116156 0.0116013 0.0115868 0.011573 0.0115603 0.0115492 0.0115398 0.0115322 0.0115264 0.0115226 0.0115206 0.0115206 0.0115225 0.0115262 0.0115318 0.0115392 0.0115481 0.0115585 0.01157 0.0115823 0.0115946 0.0116055 0.0116132 0.0116306 0.0116157 0.011601 0.0115863 0.0115723 0.0115596 0.0115484 0.0115389 0.0115313 0.0115256 0.0115217 0.0115198 0.0115199 0.0115218 0.0115256 0.0115312 0.0115385 0.0115473 0.0115574 0.0115686 0.0115804 0.0115919 0.011602 0.0116099 0.0116327 0.0116167 0.0116013 0.0115862 0.0115719 0.011559 0.0115477 0.0115382 0.0115305 0.0115248 0.011521 0.0115191 0.0115192 0.0115212 0.011525 0.0115307 0.0115379 0.0115467 0.0115567 0.0115677 0.0115791 0.0115903 0.0116002 0.0116087 0.0116355 0.0116187 0.0116022 0.0115864 0.0115718 0.0115586 0.0115472 0.0115375 0.0115299 0.0115241 0.0115204 0.0115186 0.0115187 0.0115208 0.0115246 0.0115303 0.0115376 0.0115463 0.0115563 0.0115672 0.0115785 0.0115896 0.0115997 0.0116089 0.0116389 0.0116213 0.0116037 0.0115871 0.0115719 0.0115584 0.0115468 0.0115371 0.0115294 0.0115237 0.0115199 0.0115181 0.0115183 0.0115204 0.0115243 0.01153 0.0115373 0.0115461 0.011556 0.011567 0.0115784 0.0115898 0.0116004 0.0116099 0.0116434 0.0116246 0.0116057 0.0115881 0.0115723 0.0115585 0.0115467 0.0115369 0.0115291 0.0115233 0.0115195 0.0115178 0.011518 0.0115202 0.0115241 0.0115299 0.0115372 0.011546 0.0115561 0.0115671 0.0115788 0.0115907 0.0116019 0.0116119 0.0116492 0.0116285 0.011608 0.0115894 0.0115731 0.0115589 0.0115469 0.0115369 0.011529 0.0115231 0.0115194 0.0115176 0.0115179 0.0115201 0.0115241 0.0115299 0.0115373 0.0115462 0.0115564 0.0115676 0.0115796 0.0115921 0.0116043 0.0116148 0.0116561 0.0116327 0.0116105 0.0115911 0.0115742 0.0115597 0.0115474 0.0115372 0.0115291 0.0115232 0.0115194 0.0115176 0.0115178 0.0115201 0.0115242 0.01153 0.0115376 0.0115466 0.0115569 0.0115684 0.0115808 0.0115939 0.0116073 0.011619 0.0116632 0.0116367 0.0116131 0.0115929 0.0115755 0.0115607 0.0115482 0.0115378 0.0115296 0.0115235 0.0115196 0.0115177 0.011518 0.0115202 0.0115243 0.0115303 0.0115379 0.0115471 0.0115577 0.0115695 0.0115823 0.0115961 0.0116106 0.0116243 0.0116691 0.0116398 0.0116155 0.011595 0.0115774 0.0115623 0.0115494 0.0115388 0.0115304 0.0115242 0.0115201 0.0115182 0.0115184 0.0115206 0.0115247 0.0115308 0.0115385 0.0115479 0.0115588 0.0115709 0.0115841 0.0115984 0.011614 0.01163 0.0116718 0.0116415 0.0116174 0.0115971 0.0115795 0.0115641 0.011551 0.0115402 0.0115315 0.0115251 0.0115209 0.0115189 0.011519 0.0115211 0.0115253 0.0115314 0.0115393 0.011549 0.0115602 0.0115727 0.0115862 0.0116008 0.0116169 0.0116347 0.0116697 0.011641 0.0116186 0.0115991 0.0115816 0.0115661 0.0115528 0.0115417 0.0115329 0.0115263 0.011522 0.0115198 0.0115198 0.0115219 0.0115261 0.0115323 0.0115403 0.0115502 0.0115618 0.0115748 0.0115887 0.0116033 0.0116188 0.0116366 0.0116623 0.0116381 0.0116187 0.011601 0.0115834 0.0115678 0.0115544 0.0115432 0.0115343 0.0115277 0.0115232 0.011521 0.0115209 0.011523 0.0115271 0.0115333 0.0115415 0.0115516 0.0115635 0.011577 0.0115918 0.0116055 0.0116193 0.0116345 0.0116483 0.0116298 0.0116213 0.0116013 0.0115841 0.0115686 0.0115553 0.0115443 0.0115355 0.0115289 0.0115245 0.0115223 0.0115222 0.0115242 0.0115283 0.0115345 0.0115427 0.011553 0.0115652 0.0115792 0.0115944 0.0116117 0.0116162 0.0116269 0.0116001 0.0116502 0.0116191 0.0116008 0.011583 0.011568 0.0115552 0.0115446 0.0115362 0.0115299 0.0115256 0.0115235 0.0115235 0.0115256 0.0115297 0.011536 0.0115443 0.0115546 0.011567 0.0115813 0.0115982 0.0116148 0.0116434 0.0115924 0.0115916 0.0116547 0.011628 0.0116102 0.0115914 0.0115751 0.0115609 0.011549 0.0115394 0.0115324 0.0115277 0.0115255 0.0115256 0.011528 0.0115325 0.011539 0.0115471 0.0115563 0.011566 0.011575 0.0115819 0.01158 0.0115734 0.0114069 0.0116658 0.0116338 0.0116257 0.0116061 0.0115889 0.0115731 0.0115596 0.0115483 0.0115393 0.0115327 0.0115283 0.0115262 0.0115264 0.0115287 0.0115331 0.0115394 0.0115474 0.0115567 0.0115672 0.011578 0.0115875 0.0115957 0.0115829 0.0116009 0.0116758 0.0116429 0.0116191 0.0116021 0.0115854 0.0115708 0.0115581 0.0115474 0.011539 0.0115327 0.0115285 0.0115265 0.0115266 0.0115287 0.0115329 0.011539 0.011547 0.0115565 0.0115675 0.0115794 0.0115922 0.0116036 0.0116217 0.0116504 0.0116714 0.0116417 0.0116178 0.0115989 0.0115829 0.0115689 0.0115568 0.0115467 0.0115386 0.0115325 0.0115284 0.0115264 0.0115264 0.0115284 0.0115324 0.0115385 0.0115463 0.011556 0.0115674 0.0115804 0.0115949 0.0116124 0.0116354 0.0116665 0.0116612 0.0116374 0.0116155 0.0115969 0.0115811 0.0115674 0.0115558 0.011546 0.011538 0.0115321 0.0115281 0.011526 0.0115259 0.0115278 0.0115318 0.0115377 0.0115455 0.0115552 0.0115668 0.0115803 0.011596 0.0116148 0.0116381 0.0116661 0.0116511 0.0116322 0.0116129 0.0115953 0.0115798 0.0115663 0.0115548 0.0115452 0.0115373 0.0115315 0.0115274 0.0115253 0.0115252 0.0115271 0.0115309 0.0115368 0.0115445 0.0115541 0.0115657 0.0115792 0.0115948 0.0116131 0.0116343 0.0116572 0.0116441 0.0116281 0.0116106 0.0115939 0.0115788 0.0115654 0.011554 0.0115443 0.0115365 0.0115307 0.0115266 0.0115246 0.0115244 0.0115263 0.0115301 0.0115358 0.0115435 0.0115529 0.0115642 0.0115774 0.0115923 0.011609 0.0116273 0.0116445 0.011641 0.0116256 0.0116091 0.0115929 0.011578 0.0115647 0.0115531 0.0115434 0.0115356 0.0115297 0.0115257 0.0115237 0.0115236 0.0115254 0.0115292 0.0115349 0.0115424 0.0115517 0.0115626 0.0115752 0.011589 0.011604 0.0116193 0.0116315 0.0116412 0.0116248 0.0116084 0.0115923 0.0115773 0.0115639 0.0115523 0.0115425 0.0115347 0.0115288 0.0115248 0.0115228 0.0115227 0.0115246 0.0115284 0.011534 0.0115414 0.0115505 0.0115611 0.0115729 0.0115858 0.0115991 0.0116117 0.0116204 0.0116432 0.0116254 0.0116085 0.0115921 0.0115769 0.0115633 0.0115515 0.0115417 0.0115338 0.0115278 0.0115239 0.0115219 0.0115219 0.0115238 0.0115276 0.0115332 0.0115406 0.0115494 0.0115596 0.0115709 0.0115828 0.0115947 0.0116054 0.0116122 0.0116461 0.011627 0.0116091 0.0115922 0.0115766 0.0115628 0.0115508 0.0115409 0.0115329 0.0115269 0.011523 0.0115211 0.0115211 0.0115231 0.0115269 0.0115326 0.0115398 0.0115485 0.0115584 0.0115692 0.0115804 0.0115913 0.0116007 0.0116069 0.0116494 0.0116292 0.0116103 0.0115926 0.0115766 0.0115624 0.0115503 0.0115402 0.0115322 0.0115262 0.0115223 0.0115204 0.0115205 0.0115225 0.0115264 0.011532 0.0115392 0.0115478 0.0115575 0.0115679 0.0115786 0.0115888 0.0115975 0.0116038 0.0116529 0.0116318 0.0116117 0.0115932 0.0115767 0.0115622 0.0115498 0.0115396 0.0115315 0.0115256 0.0115217 0.0115199 0.01152 0.0115221 0.011526 0.0115316 0.0115388 0.0115473 0.0115568 0.0115671 0.0115775 0.0115874 0.0115958 0.0116025 0.0116567 0.0116347 0.0116134 0.011594 0.0115769 0.0115621 0.0115496 0.0115393 0.0115311 0.0115251 0.0115212 0.0115194 0.0115196 0.0115218 0.0115257 0.0115314 0.0115386 0.011547 0.0115565 0.0115667 0.0115771 0.0115869 0.0115955 0.0116024 0.0116612 0.0116379 0.0116152 0.0115949 0.0115773 0.0115622 0.0115495 0.011539 0.0115308 0.0115248 0.011521 0.0115192 0.0115194 0.0115216 0.0115256 0.0115313 0.0115385 0.011547 0.0115565 0.0115668 0.0115772 0.0115874 0.0115963 0.0116034 0.0116665 0.0116411 0.0116171 0.011596 0.0115779 0.0115625 0.0115497 0.0115391 0.0115308 0.0115248 0.0115209 0.0115191 0.0115194 0.0115216 0.0115256 0.0115314 0.0115386 0.0115472 0.0115569 0.0115673 0.011578 0.0115886 0.0115983 0.0116057 0.0116721 0.0116441 0.0116188 0.0115972 0.0115788 0.0115631 0.0115501 0.0115394 0.011531 0.0115249 0.011521 0.0115192 0.0115195 0.0115217 0.0115258 0.0115316 0.011539 0.0115477 0.0115575 0.0115682 0.0115793 0.0115906 0.0116013 0.0116096 0.0116771 0.0116463 0.0116203 0.0115984 0.0115798 0.011564 0.0115508 0.01154 0.0115315 0.0115253 0.0115213 0.0115194 0.0115197 0.011522 0.0115261 0.011532 0.0115395 0.0115483 0.0115584 0.0115695 0.0115811 0.0115932 0.0116053 0.0116153 0.01168 0.0116475 0.0116214 0.0115996 0.0115811 0.0115653 0.0115519 0.011541 0.0115324 0.011526 0.0115219 0.01152 0.0115202 0.0115224 0.0115266 0.0115326 0.0115402 0.0115493 0.0115597 0.0115712 0.0115835 0.0115964 0.0116099 0.0116226 0.0116793 0.0116471 0.0116219 0.0116008 0.0115826 0.0115668 0.0115534 0.0115423 0.0115335 0.0115271 0.0115228 0.0115208 0.011521 0.0115231 0.0115273 0.0115333 0.0115411 0.0115505 0.0115614 0.0115735 0.0115864 0.0116001 0.0116148 0.0116301 0.0116744 0.0116446 0.0116217 0.0116019 0.0115842 0.0115684 0.0115549 0.0115438 0.0115349 0.0115283 0.011524 0.0115218 0.0115219 0.011524 0.0115281 0.0115342 0.0115422 0.0115519 0.0115633 0.0115761 0.0115897 0.0116039 0.0116191 0.0116357 0.011665 0.0116399 0.0116206 0.011603 0.0115855 0.0115699 0.0115564 0.0115452 0.0115363 0.0115297 0.0115252 0.011523 0.011523 0.011525 0.0115292 0.0115353 0.0115435 0.0115535 0.0115654 0.0115788 0.0115936 0.0116076 0.011622 0.0116374 0.0116492 0.0116298 0.0116225 0.0116029 0.0115858 0.0115704 0.0115572 0.0115462 0.0115375 0.0115309 0.0115265 0.0115243 0.0115242 0.0115262 0.0115303 0.0115366 0.0115448 0.011555 0.0115672 0.0115814 0.0115968 0.0116145 0.0116213 0.0116331 0.0115915 0.0116508 0.0116202 0.0116023 0.0115846 0.0115697 0.011557 0.0115465 0.0115381 0.0115318 0.0115276 0.0115255 0.0115255 0.0115276 0.0115317 0.0115381 0.0115464 0.0115568 0.0115693 0.0115837 0.0116005 0.0116173 0.0116457 0.011606 0.0116637 0.0116899 0.0116526 0.0116276 0.0116043 0.0115848 0.0115684 0.011555 0.0115446 0.011537 0.0115321 0.0115298 0.0115301 0.0115327 0.0115375 0.0115441 0.0115521 0.011561 0.0115698 0.0115771 0.0115813 0.0115743 0.0115587 0.0113666 0.0116957 0.011657 0.0116415 0.0116177 0.0115977 0.0115801 0.0115653 0.0115532 0.0115438 0.0115369 0.0115325 0.0115305 0.0115308 0.0115332 0.0115375 0.0115437 0.0115513 0.0115601 0.0115694 0.0115784 0.0115853 0.0115897 0.0115707 0.0115859 0.0116923 0.0116557 0.0116293 0.0116101 0.0115919 0.0115762 0.0115628 0.0115518 0.0115431 0.0115367 0.0115326 0.0115306 0.0115308 0.011533 0.0115371 0.011543 0.0115505 0.0115594 0.0115694 0.01158 0.0115908 0.0115998 0.0116155 0.0116426 0.0116813 0.0116501 0.0116249 0.0116048 0.0115881 0.0115735 0.0115611 0.0115508 0.0115425 0.0115364 0.0115324 0.0115304 0.0115304 0.0115325 0.0115364 0.0115423 0.0115498 0.0115591 0.0115697 0.0115819 0.0115953 0.0116114 0.0116333 0.0116636 0.0116686 0.011644 0.0116214 0.0116021 0.0115858 0.0115718 0.0115598 0.0115499 0.0115419 0.0115359 0.0115319 0.0115299 0.0115298 0.0115317 0.0115356 0.0115414 0.0115491 0.0115585 0.0115697 0.0115828 0.0115979 0.0116161 0.011639 0.011667 0.0116589 0.011639 0.0116189 0.0116006 0.0115845 0.0115707 0.0115589 0.0115491 0.0115412 0.0115352 0.0115312 0.0115291 0.011529 0.0115309 0.0115347 0.0115405 0.0115482 0.0115577 0.0115691 0.0115825 0.0115979 0.011616 0.0116373 0.0116611 0.0116545 0.0116362 0.0116175 0.0115998 0.0115839 0.0115701 0.0115582 0.0115483 0.0115404 0.0115343 0.0115303 0.0115282 0.0115281 0.0115299 0.0115338 0.0115396 0.0115473 0.0115568 0.0115681 0.0115812 0.0115961 0.011613 0.0116316 0.0116503 0.0116545 0.0116357 0.0116172 0.0115997 0.0115837 0.0115696 0.0115575 0.0115475 0.0115394 0.0115333 0.0115293 0.0115272 0.0115271 0.011529 0.0115328 0.0115387 0.0115463 0.0115557 0.0115667 0.0115793 0.0115933 0.0116084 0.0116242 0.0116378 0.0116574 0.0116369 0.0116178 0.0115999 0.0115836 0.0115692 0.0115569 0.0115467 0.0115384 0.0115323 0.0115282 0.0115262 0.0115262 0.0115281 0.011532 0.0115378 0.0115453 0.0115545 0.0115652 0.0115772 0.0115901 0.0116035 0.0116166 0.0116263 0.0116613 0.0116392 0.0116191 0.0116004 0.0115836 0.0115689 0.0115563 0.0115458 0.0115375 0.0115314 0.0115273 0.0115252 0.0115253 0.0115273 0.0115312 0.011537 0.0115445 0.0115535 0.0115637 0.0115751 0.011587 0.0115989 0.0116098 0.0116169 0.0116655 0.011642 0.0116206 0.0116012 0.0115838 0.0115686 0.0115557 0.0115451 0.0115367 0.0115305 0.0115264 0.0115244 0.0115245 0.0115266 0.0115306 0.0115363 0.0115437 0.0115525 0.0115625 0.0115732 0.0115842 0.011595 0.0116043 0.0116101 0.0116693 0.0116449 0.0116224 0.011602 0.011584 0.0115684 0.0115552 0.0115444 0.0115359 0.0115297 0.0115256 0.0115237 0.0115239 0.011526 0.01153 0.0115358 0.0115431 0.0115517 0.0115614 0.0115717 0.0115821 0.0115919 0.0116002 0.0116055 0.011673 0.0116478 0.011624 0.0116028 0.0115842 0.0115683 0.0115549 0.0115439 0.0115353 0.0115291 0.011525 0.0115232 0.0115234 0.0115256 0.0115296 0.0115354 0.0115427 0.0115512 0.0115606 0.0115706 0.0115806 0.0115899 0.0115976 0.0116029 0.0116768 0.0116505 0.0116256 0.0116036 0.0115845 0.0115682 0.0115546 0.0115436 0.0115349 0.0115287 0.0115246 0.0115228 0.0115231 0.0115253 0.0115294 0.0115352 0.0115424 0.0115508 0.0115602 0.01157 0.0115797 0.0115888 0.0115963 0.0116016 0.0116808 0.0116531 0.0116271 0.0116043 0.0115848 0.0115682 0.0115545 0.0115433 0.0115347 0.0115284 0.0115244 0.0115226 0.0115229 0.0115252 0.0115293 0.0115351 0.0115424 0.0115508 0.0115601 0.0115699 0.0115796 0.0115887 0.0115962 0.0116016 0.0116851 0.0116553 0.0116282 0.0116049 0.0115851 0.0115684 0.0115546 0.0115434 0.0115347 0.0115284 0.0115244 0.0115226 0.0115229 0.0115253 0.0115294 0.0115353 0.0115425 0.011551 0.0115603 0.0115702 0.0115801 0.0115895 0.0115974 0.0116029 0.0116891 0.0116569 0.011629 0.0116054 0.0115855 0.0115688 0.0115549 0.0115437 0.0115349 0.0115287 0.0115246 0.0115228 0.0115232 0.0115255 0.0115297 0.0115355 0.0115429 0.0115514 0.011561 0.0115711 0.0115814 0.0115913 0.0116 0.011606 0.0116916 0.0116575 0.0116293 0.0116058 0.011586 0.0115693 0.0115555 0.0115443 0.0115355 0.0115291 0.0115251 0.0115232 0.0115235 0.0115259 0.0115301 0.011536 0.0115434 0.0115522 0.0115619 0.0115724 0.0115833 0.0115941 0.0116041 0.0116113 0.0116918 0.0116568 0.0116291 0.0116061 0.0115867 0.0115703 0.0115565 0.0115452 0.0115364 0.0115299 0.0115258 0.0115239 0.0115242 0.0115265 0.0115307 0.0115367 0.0115443 0.0115532 0.0115634 0.0115744 0.011586 0.0115979 0.0116096 0.0116193 0.0116884 0.0116544 0.0116282 0.0116063 0.0115876 0.0115714 0.0115577 0.0115464 0.0115376 0.011531 0.0115268 0.0115248 0.011525 0.0115273 0.0115314 0.0115375 0.0115453 0.0115545 0.0115652 0.0115769 0.0115894 0.0116024 0.0116161 0.0116291 0.0116813 0.0116502 0.0116267 0.0116066 0.0115886 0.0115727 0.0115591 0.0115478 0.0115389 0.0115324 0.011528 0.0115259 0.011526 0.0115282 0.0115324 0.0115385 0.0115464 0.0115561 0.0115674 0.01158 0.0115934 0.0116075 0.0116226 0.0116385 0.0116703 0.011644 0.0116246 0.011607 0.0115895 0.0115739 0.0115604 0.0115492 0.0115403 0.0115337 0.0115294 0.0115272 0.0115272 0.0115293 0.0115334 0.0115396 0.0115477 0.0115578 0.0115696 0.0115831 0.011598 0.0116126 0.011628 0.0116444 0.0116529 0.0116321 0.0116258 0.0116065 0.0115897 0.0115743 0.0115612 0.0115502 0.0115415 0.0115349 0.0115306 0.0115284 0.0115284 0.0115304 0.0115345 0.0115408 0.0115491 0.0115593 0.0115716 0.0115859 0.0116016 0.01162 0.0116293 0.0116436 0.0115861 0.0116535 0.0116235 0.0116059 0.0115883 0.0115736 0.011561 0.0115505 0.0115422 0.0115359 0.0115317 0.0115296 0.0115296 0.0115317 0.0115359 0.0115422 0.0115506 0.0115611 0.0115736 0.0115881 0.0116048 0.0116215 0.011649 0.0116215 0.0117369 0.011725 0.0116788 0.0116471 0.0116192 0.0115965 0.0115779 0.011563 0.0115516 0.0115435 0.0115384 0.0115363 0.0115369 0.0115399 0.0115452 0.0115523 0.0115607 0.0115696 0.011578 0.0115844 0.0115864 0.0115756 0.011553 0.0113421 0.0117269 0.0116813 0.0116583 0.0116306 0.011608 0.0115886 0.0115727 0.0115599 0.0115501 0.0115431 0.0115388 0.0115369 0.0115374 0.0115401 0.0115446 0.0115508 0.0115583 0.0115665 0.0115749 0.0115825 0.0115871 0.0115883 0.0115645 0.0115779 0.0117093 0.0116696 0.0116407 0.0116193 0.0115998 0.0115832 0.0115692 0.0115579 0.0115491 0.0115428 0.0115387 0.0115369 0.0115372 0.0115396 0.0115437 0.0115495 0.0115567 0.011565 0.0115741 0.0115833 0.0115925 0.0115995 0.0116131 0.0116395 0.0116921 0.0116597 0.0116334 0.0116124 0.0115949 0.0115799 0.0115672 0.0115567 0.0115485 0.0115424 0.0115385 0.0115366 0.0115367 0.0115388 0.0115427 0.0115484 0.0115557 0.0115644 0.0115744 0.0115857 0.0115981 0.0116132 0.0116343 0.011664 0.0116777 0.0116526 0.0116293 0.0116094 0.0115925 0.0115781 0.011566 0.0115559 0.0115479 0.0115419 0.0115379 0.0115359 0.0115359 0.0115378 0.0115417 0.0115474 0.0115549 0.0115641 0.011575 0.0115876 0.0116022 0.0116199 0.0116426 0.0116706 0.0116699 0.0116484 0.0116274 0.0116083 0.0115917 0.0115774 0.0115653 0.0115553 0.0115472 0.0115412 0.0115371 0.011535 0.0115349 0.0115368 0.0115407 0.0115465 0.0115542 0.0115637 0.011575 0.0115882 0.0116035 0.0116216 0.0116428 0.0116673 0.0116687 0.0116476 0.0116273 0.0116084 0.0115917 0.0115771 0.0115648 0.0115546 0.0115464 0.0115402 0.0115361 0.011534 0.0115339 0.0115358 0.0115397 0.0115456 0.0115534 0.0115631 0.0115745 0.0115877 0.0116027 0.0116197 0.0116386 0.0116586 0.011672 0.0116493 0.0116285 0.0116092 0.0115921 0.0115771 0.0115644 0.0115539 0.0115455 0.0115392 0.011535 0.0115329 0.0115328 0.0115348 0.0115388 0.0115448 0.0115527 0.0115623 0.0115736 0.0115864 0.0116006 0.011616 0.0116322 0.0116475 0.0116771 0.0116525 0.0116304 0.0116104 0.0115926 0.0115771 0.0115639 0.0115531 0.0115445 0.0115381 0.0115339 0.0115318 0.0115318 0.0115339 0.011538 0.0115441 0.0115519 0.0115614 0.0115724 0.0115846 0.0115977 0.0116115 0.0116251 0.0116364 0.0116823 0.0116561 0.0116326 0.0116117 0.0115931 0.0115771 0.0115635 0.0115523 0.0115436 0.0115371 0.0115328 0.0115308 0.0115309 0.0115331 0.0115373 0.0115434 0.0115512 0.0115605 0.0115711 0.0115827 0.0115948 0.011607 0.0116184 0.0116266 0.0116869 0.0116596 0.0116348 0.0116129 0.0115935 0.011577 0.011563 0.0115516 0.0115427 0.0115361 0.0115319 0.0115299 0.0115301 0.0115324 0.0115366 0.0115428 0.0115505 0.0115596 0.0115698 0.0115808 0.011592 0.0116029 0.0116126 0.011619 0.0116909 0.0116628 0.0116369 0.0116139 0.0115939 0.0115769 0.0115626 0.011551 0.0115419 0.0115354 0.0115311 0.0115292 0.0115295 0.0115318 0.0115361 0.0115423 0.0115499 0.0115588 0.0115687 0.0115792 0.0115897 0.0115996 0.0116081 0.0116135 0.0116943 0.0116654 0.0116385 0.0116147 0.0115942 0.0115767 0.0115622 0.0115504 0.0115413 0.0115347 0.0115305 0.0115287 0.011529 0.0115314 0.0115358 0.0115419 0.0115495 0.0115582 0.0115679 0.011578 0.0115879 0.0115971 0.0116048 0.0116099 0.0116976 0.0116676 0.0116398 0.0116154 0.0115943 0.0115766 0.0115619 0.01155 0.0115409 0.0115343 0.0115301 0.0115283 0.0115287 0.0115312 0.0115356 0.0115417 0.0115492 0.0115578 0.0115673 0.0115771 0.0115867 0.0115956 0.0116028 0.0116076 0.0117008 0.0116693 0.0116406 0.0116156 0.0115944 0.0115765 0.0115617 0.0115498 0.0115406 0.0115341 0.0115299 0.0115282 0.0115286 0.0115312 0.0115355 0.0115416 0.0115491 0.0115577 0.0115671 0.0115768 0.0115862 0.0115949 0.0116019 0.0116066 0.0117038 0.0116705 0.011641 0.0116157 0.0115944 0.0115764 0.0115617 0.0115498 0.0115406 0.0115341 0.01153 0.0115283 0.0115288 0.0115313 0.0115357 0.0115418 0.0115492 0.0115578 0.0115672 0.0115769 0.0115865 0.0115952 0.0116023 0.0116069 0.011706 0.0116707 0.0116408 0.0116156 0.0115943 0.0115765 0.0115618 0.01155 0.0115409 0.0115344 0.0115303 0.0115286 0.0115291 0.0115316 0.011536 0.0115421 0.0115496 0.0115582 0.0115677 0.0115776 0.0115874 0.0115966 0.0116042 0.0116088 0.0117064 0.0116698 0.0116399 0.0116151 0.0115942 0.0115767 0.0115622 0.0115505 0.0115415 0.011535 0.0115309 0.0115292 0.0115296 0.0115321 0.0115365 0.0115426 0.0115501 0.0115589 0.0115686 0.0115788 0.0115892 0.0115992 0.0116078 0.0116132 0.0117042 0.0116674 0.0116384 0.0116144 0.0115943 0.0115772 0.0115629 0.0115514 0.0115424 0.0115359 0.0115318 0.01153 0.0115304 0.0115328 0.0115372 0.0115433 0.0115509 0.0115599 0.01157 0.0115808 0.0115919 0.011603 0.0116135 0.0116209 0.0116988 0.0116635 0.0116363 0.0116138 0.0115945 0.0115779 0.011564 0.0115525 0.0115436 0.0115371 0.0115329 0.011531 0.0115314 0.0115337 0.011538 0.0115442 0.011552 0.0115613 0.0115719 0.0115834 0.0115957 0.0116082 0.0116211 0.0116321 0.0116902 0.0116576 0.0116336 0.0116131 0.0115949 0.0115789 0.0115652 0.0115539 0.0115449 0.0115384 0.0115342 0.0115322 0.0115324 0.0115347 0.011539 0.0115452 0.0115532 0.0115628 0.0115741 0.0115867 0.0116002 0.0116144 0.0116297 0.011645 0.011678 0.0116501 0.0116305 0.011613 0.0115954 0.0115799 0.0115664 0.0115553 0.0115465 0.0115399 0.0115356 0.0115335 0.0115336 0.0115358 0.01154 0.0115463 0.0115545 0.0115646 0.0115765 0.0115901 0.0116053 0.0116206 0.0116374 0.0116555 0.0116591 0.0116369 0.0116313 0.0116122 0.0115955 0.0115803 0.0115672 0.0115563 0.0115476 0.0115412 0.0115368 0.0115347 0.0115347 0.0115369 0.011541 0.0115474 0.0115557 0.0115661 0.0115785 0.011593 0.011609 0.0116281 0.0116404 0.0116587 0.0115851 0.0116584 0.011629 0.0116118 0.0115943 0.0115796 0.0115671 0.0115568 0.0115484 0.0115422 0.0115379 0.0115358 0.0115358 0.0115379 0.0115422 0.0115486 0.011557 0.0115675 0.0115801 0.0115945 0.011611 0.0116273 0.0116525 0.0116389 0.011809 0.0117579 0.0117052 0.0116672 0.0116351 0.0116094 0.0115886 0.0115723 0.01156 0.0115515 0.0115465 0.0115446 0.0115458 0.0115496 0.0115557 0.0115637 0.0115729 0.0115824 0.011591 0.011597 0.0115977 0.0115842 0.011557 0.0113355 0.0117576 0.011706 0.0116753 0.0116441 0.011619 0.011598 0.0115811 0.0115678 0.0115578 0.0115509 0.0115468 0.0115454 0.0115463 0.0115494 0.0115543 0.0115608 0.0115684 0.0115764 0.0115841 0.0115905 0.0115934 0.0115922 0.0115653 0.0115776 0.0117255 0.0116838 0.0116527 0.0116294 0.0116086 0.0115913 0.0115769 0.0115655 0.0115568 0.0115506 0.0115468 0.0115453 0.0115459 0.0115485 0.0115527 0.0115585 0.0115655 0.0115734 0.0115817 0.0115898 0.0115976 0.0116031 0.0116151 0.0116413 0.0117027 0.0116703 0.0116432 0.0116214 0.0116033 0.0115878 0.011575 0.0115645 0.0115563 0.0115504 0.0115466 0.0115449 0.0115452 0.0115474 0.0115513 0.0115569 0.0115639 0.0115723 0.0115818 0.0115923 0.0116038 0.011618 0.0116384 0.0116679 0.0116881 0.0116626 0.011639 0.0116185 0.0116012 0.0115865 0.0115742 0.011564 0.011556 0.01155 0.0115461 0.0115442 0.0115442 0.0115462 0.01155 0.0115557 0.0115631 0.0115721 0.0115827 0.0115949 0.011609 0.0116264 0.0116489 0.0116766 0.0116833 0.0116601 0.0116382 0.0116183 0.0116011 0.0115863 0.0115739 0.0115636 0.0115554 0.0115493 0.0115452 0.0115431 0.0115431 0.011545 0.0115489 0.0115548 0.0115625 0.0115721 0.0115834 0.0115965 0.0116117 0.0116297 0.0116509 0.0116756 0.0116859 0.0116616 0.0116396 0.0116195 0.0116018 0.0115866 0.0115738 0.0115631 0.0115547 0.0115484 0.0115441 0.011542 0.0115419 0.0115439 0.011548 0.0115541 0.0115621 0.011572 0.0115836 0.0115969 0.0116121 0.0116292 0.0116482 0.0116689 0.0116919 0.0116655 0.0116422 0.0116213 0.0116029 0.011587 0.0115736 0.0115625 0.0115538 0.0115472 0.0115429 0.0115408 0.0115408 0.011543 0.0115472 0.0115535 0.0115617 0.0115717 0.0115833 0.0115964 0.0116109 0.0116265 0.011643 0.0116595 0.0116986 0.0116702 0.0116453 0.0116233 0.011604 0.0115873 0.0115733 0.0115618 0.0115527 0.0115461 0.0115417 0.0115396 0.0115397 0.0115421 0.0115465 0.0115529 0.0115612 0.0115712 0.0115826 0.0115952 0.0116087 0.0116227 0.0116367 0.0116495 0.0117044 0.0116747 0.0116483 0.0116251 0.0116048 0.0115875 0.0115729 0.011561 0.0115517 0.011545 0.0115405 0.0115385 0.0115388 0.0115413 0.0115459 0.0115524 0.0115607 0.0115706 0.0115817 0.0115937 0.0116062 0.0116187 0.0116306 0.0116403 0.011709 0.0116784 0.0116508 0.0116266 0.0116055 0.0115875 0.0115725 0.0115603 0.0115508 0.0115439 0.0115395 0.0115376 0.011538 0.0115406 0.0115453 0.011552 0.0115602 0.0115699 0.0115807 0.0115921 0.0116036 0.0116148 0.0116251 0.0116327 0.0117125 0.0116813 0.0116528 0.0116277 0.0116059 0.0115874 0.011572 0.0115596 0.0115499 0.0115431 0.0115387 0.0115369 0.0115374 0.0115401 0.0115449 0.0115516 0.0115598 0.0115693 0.0115797 0.0115905 0.0116013 0.0116116 0.0116206 0.0116269 0.0117154 0.0116835 0.0116542 0.0116284 0.0116061 0.0115872 0.0115716 0.0115589 0.0115492 0.0115424 0.0115381 0.0115363 0.011537 0.0115398 0.0115446 0.0115512 0.0115594 0.0115687 0.0115788 0.0115892 0.0115994 0.0116089 0.011617 0.0116227 0.0117178 0.011685 0.0116549 0.0116287 0.011606 0.0115869 0.0115711 0.0115585 0.0115488 0.0115419 0.0115377 0.011536 0.0115367 0.0115396 0.0115444 0.011551 0.0115591 0.0115682 0.0115781 0.0115882 0.011598 0.011607 0.0116145 0.0116198 0.01172 0.0116858 0.0116552 0.0116285 0.0116058 0.0115866 0.0115708 0.0115582 0.0115485 0.0115417 0.0115376 0.0115359 0.0115367 0.0115395 0.0115444 0.011551 0.0115589 0.011568 0.0115777 0.0115876 0.0115972 0.0116059 0.011613 0.011618 0.0117217 0.0116859 0.0116548 0.011628 0.0116053 0.0115862 0.0115706 0.011558 0.0115485 0.0115418 0.0115377 0.0115361 0.0115368 0.0115397 0.0115446 0.0115511 0.011559 0.0115679 0.0115776 0.0115874 0.011597 0.0116057 0.0116126 0.0116173 0.0117223 0.011685 0.0116537 0.0116272 0.0116047 0.011586 0.0115705 0.0115582 0.0115488 0.0115421 0.0115381 0.0115365 0.0115373 0.0115401 0.0115449 0.0115514 0.0115592 0.0115682 0.0115779 0.0115878 0.0115976 0.0116065 0.0116136 0.011618 0.011721 0.0116829 0.0116518 0.0116259 0.0116041 0.0115858 0.0115707 0.0115586 0.0115493 0.0115427 0.0115387 0.0115372 0.0115379 0.0115407 0.0115454 0.0115518 0.0115597 0.0115687 0.0115785 0.0115888 0.011599 0.0116085 0.0116164 0.0116209 0.011717 0.0116792 0.0116492 0.0116244 0.0116035 0.0115859 0.0115712 0.0115594 0.0115502 0.0115438 0.0115398 0.0115382 0.0115388 0.0115415 0.0115461 0.0115525 0.0115604 0.0115695 0.0115797 0.0115905 0.0116015 0.0116122 0.0116217 0.0116276 0.0117102 0.0116739 0.0116459 0.0116228 0.0116031 0.0115862 0.0115721 0.0115605 0.0115515 0.0115451 0.011541 0.0115394 0.0115399 0.0115425 0.011547 0.0115534 0.0115614 0.0115708 0.0115815 0.0115931 0.0116052 0.0116176 0.0116298 0.011639 0.0117006 0.0116669 0.0116422 0.0116215 0.0116031 0.0115869 0.0115732 0.0115618 0.011553 0.0115465 0.0115425 0.0115407 0.0115411 0.0115435 0.011548 0.0115544 0.0115625 0.0115723 0.0115836 0.0115963 0.01161 0.0116245 0.0116402 0.0116546 0.0116877 0.0116582 0.0116384 0.0116208 0.0116033 0.0115878 0.0115744 0.0115633 0.0115546 0.0115481 0.011544 0.011542 0.0115423 0.0115446 0.011549 0.0115554 0.0115637 0.0115739 0.011586 0.0115999 0.0116155 0.0116317 0.0116503 0.0116701 0.0116674 0.0116441 0.0116387 0.0116199 0.0116034 0.0115883 0.0115753 0.0115645 0.0115559 0.0115495 0.0115453 0.0115432 0.0115433 0.0115455 0.0115498 0.0115563 0.0115647 0.0115753 0.0115878 0.0116026 0.011619 0.0116388 0.0116544 0.0116781 0.0115891 0.0116654 0.0116365 0.0116196 0.0116023 0.0115877 0.0115753 0.011565 0.0115567 0.0115505 0.0115463 0.0115441 0.0115441 0.0115463 0.0115505 0.011557 0.0115655 0.011576 0.0115886 0.0116027 0.0116188 0.0116344 0.0116557 0.0116583 0.0118786 0.0117864 0.0117299 0.0116864 0.0116507 0.0116222 0.0115995 0.011582 0.0115691 0.0115604 0.0115556 0.0115545 0.0115566 0.0115617 0.0115692 0.0115787 0.0115892 0.0115998 0.0116092 0.0116153 0.0116156 0.0116007 0.0115711 0.0113482 0.0117864 0.0117301 0.0116914 0.0116572 0.01163 0.0116078 0.0115902 0.0115765 0.0115666 0.01156 0.0115564 0.0115556 0.0115573 0.0115612 0.0115669 0.0115739 0.0115818 0.0115899 0.0115974 0.0116031 0.0116047 0.011602 0.011574 0.0115854 0.0117398 0.011698 0.0116651 0.0116399 0.0116182 0.0116003 0.0115858 0.0115744 0.0115659 0.0115601 0.0115567 0.0115557 0.0115568 0.0115598 0.0115644 0.0115703 0.0115773 0.0115848 0.0115925 0.0115999 0.0116066 0.0116111 0.011622 0.0116483 0.0117122 0.0116811 0.0116539 0.0116316 0.011613 0.0115973 0.0115844 0.011574 0.011566 0.0115603 0.0115568 0.0115554 0.0115559 0.0115583 0.0115623 0.011568 0.0115749 0.0115829 0.0115919 0.0116018 0.0116127 0.011626 0.0116459 0.0116752 0.011699 0.0116736 0.0116501 0.0116294 0.0116117 0.0115968 0.0115843 0.0115741 0.0115661 0.0115603 0.0115564 0.0115546 0.0115548 0.0115569 0.0115608 0.0115665 0.0115738 0.0115826 0.011593 0.0116049 0.0116187 0.0116356 0.0116578 0.011685 0.0116984 0.0116734 0.0116508 0.0116303 0.0116125 0.0115974 0.0115847 0.0115742 0.0115659 0.0115597 0.0115556 0.0115535 0.0115536 0.0115556 0.0115596 0.0115656 0.0115735 0.011583 0.0115944 0.0116075 0.0116226 0.0116403 0.0116614 0.0116855 0.0117047 0.0116775 0.0116538 0.0116327 0.0116142 0.0115983 0.011585 0.011574 0.0115652 0.0115587 0.0115544 0.0115523 0.0115523 0.0115545 0.0115588 0.0115651 0.0115734 0.0115836 0.0115955 0.011609 0.0116242 0.0116412 0.0116601 0.0116807 0.011713 0.0116833 0.0116578 0.0116354 0.0116159 0.0115991 0.011585 0.0115734 0.0115643 0.0115575 0.0115531 0.0115509 0.0115511 0.0115535 0.0115581 0.0115648 0.0115735 0.0115839 0.011596 0.0116095 0.0116241 0.0116397 0.0116562 0.0116732 0.0117204 0.0116889 0.0116617 0.0116379 0.0116173 0.0115996 0.0115848 0.0115727 0.0115631 0.0115562 0.0115517 0.0115496 0.01155 0.0115527 0.0115575 0.0115646 0.0115735 0.011584 0.011596 0.0116091 0.0116228 0.0116369 0.011651 0.0116648 0.0117261 0.0116937 0.011665 0.01164 0.0116184 0.0115999 0.0115844 0.0115718 0.011562 0.0115549 0.0115504 0.0115485 0.0115491 0.011552 0.0115571 0.0115643 0.0115734 0.0115839 0.0115956 0.0116081 0.0116209 0.0116336 0.0116458 0.0116568 0.0117301 0.0116971 0.0116675 0.0116415 0.011619 0.0115999 0.0115838 0.0115709 0.0115609 0.0115537 0.0115493 0.0115475 0.0115482 0.0115514 0.0115567 0.0115641 0.0115731 0.0115836 0.011595 0.0116069 0.0116188 0.0116303 0.011641 0.0116499 0.0117328 0.0116995 0.0116692 0.0116425 0.0116193 0.0115996 0.0115832 0.01157 0.0115599 0.0115527 0.0115484 0.0115467 0.0115477 0.0115509 0.0115564 0.0115638 0.0115729 0.0115831 0.0115942 0.0116056 0.0116168 0.0116274 0.0116368 0.0116445 0.0117349 0.011701 0.0116701 0.0116429 0.0116193 0.0115993 0.0115826 0.0115692 0.0115591 0.011552 0.0115477 0.0115462 0.0115472 0.0115507 0.0115562 0.0115636 0.0115726 0.0115826 0.0115934 0.0116044 0.011615 0.0116248 0.0116335 0.0116403 0.0117365 0.0117017 0.0116704 0.0116428 0.011619 0.0115987 0.011582 0.0115686 0.0115585 0.0115514 0.0115473 0.0115459 0.011547 0.0115505 0.0115561 0.0115635 0.0115723 0.0115822 0.0115927 0.0116033 0.0116135 0.0116228 0.0116308 0.0116372 0.0117377 0.0117018 0.0116701 0.0116423 0.0116184 0.0115981 0.0115814 0.0115682 0.0115581 0.0115512 0.0115471 0.0115458 0.011547 0.0115505 0.011556 0.0115634 0.0115721 0.0115818 0.0115921 0.0116024 0.0116123 0.0116213 0.0116289 0.0116348 0.0117382 0.0117012 0.0116691 0.0116413 0.0116175 0.0115975 0.0115811 0.011568 0.0115581 0.0115513 0.0115473 0.011546 0.0115473 0.0115507 0.0115562 0.0115634 0.011572 0.0115815 0.0115917 0.011602 0.0116117 0.0116206 0.0116278 0.0116333 0.0117376 0.0116995 0.0116673 0.0116399 0.0116165 0.0115969 0.0115808 0.011568 0.0115583 0.0115517 0.0115478 0.0115465 0.0115477 0.0115511 0.0115565 0.0115636 0.011572 0.0115815 0.0115916 0.0116019 0.0116118 0.0116208 0.011628 0.0116328 0.0117349 0.0116964 0.0116646 0.011638 0.0116154 0.0115964 0.0115808 0.0115683 0.0115589 0.0115524 0.0115486 0.0115473 0.0115485 0.0115518 0.011557 0.0115639 0.0115723 0.0115817 0.0115919 0.0116024 0.0116127 0.0116222 0.0116297 0.0116342 0.0117299 0.0116918 0.0116612 0.0116358 0.0116143 0.0115962 0.0115812 0.0115691 0.0115599 0.0115535 0.0115497 0.0115484 0.0115495 0.0115526 0.0115577 0.0115645 0.0115728 0.0115822 0.0115927 0.0116037 0.0116147 0.0116253 0.0116342 0.011639 0.0117222 0.0116856 0.0116571 0.0116336 0.0116135 0.0115963 0.0115819 0.0115702 0.0115613 0.011555 0.0115512 0.0115498 0.0115507 0.0115536 0.0115585 0.0115652 0.0115735 0.0115832 0.0115941 0.0116058 0.0116181 0.0116305 0.0116422 0.0116494 0.0117121 0.0116777 0.0116527 0.0116317 0.011613 0.0115968 0.011583 0.0115717 0.0115629 0.0115567 0.0115528 0.0115513 0.011552 0.0115547 0.0115594 0.0115661 0.0115744 0.0115844 0.011596 0.0116089 0.0116229 0.0116378 0.0116539 0.0116667 0.0116988 0.0116684 0.0116484 0.0116306 0.0116131 0.0115977 0.0115844 0.0115734 0.0115647 0.0115584 0.0115545 0.0115527 0.0115532 0.0115557 0.0115603 0.0115669 0.0115755 0.0115859 0.0115982 0.0116123 0.0116285 0.0116458 0.0116665 0.0116874 0.0116778 0.0116538 0.011648 0.0116295 0.0116133 0.0115983 0.0115854 0.0115747 0.0115662 0.0115599 0.0115557 0.0115538 0.011554 0.0115564 0.0115609 0.0115675 0.0115761 0.0115868 0.0115996 0.0116146 0.0116315 0.0116517 0.0116714 0.0117013 0.0115984 0.0116739 0.0116455 0.011629 0.0116119 0.0115977 0.0115855 0.0115753 0.0115671 0.0115609 0.0115567 0.0115546 0.0115545 0.0115567 0.011561 0.0115675 0.0115761 0.0115866 0.011599 0.0116128 0.011628 0.0116428 0.0116583 0.0116804 0.0119444 0.011809 0.0117514 0.011703 0.0116644 0.0116336 0.0116095 0.0115911 0.0115779 0.0115695 0.0115654 0.0115655 0.0115692 0.0115762 0.0115858 0.0115975 0.01161 0.0116224 0.0116331 0.0116401 0.0116407 0.0116257 0.0115958 0.0113811 0.0118118 0.0117533 0.011706 0.0116693 0.0116404 0.0116172 0.0115991 0.0115855 0.011576 0.01157 0.0115673 0.0115676 0.0115705 0.0115756 0.0115824 0.0115904 0.0115991 0.0116076 0.0116152 0.0116207 0.0116219 0.0116186 0.0115917 0.011602 0.0117509 0.0117118 0.0116775 0.0116506 0.0116281 0.0116099 0.0115954 0.0115843 0.0115763 0.0115711 0.0115685 0.0115683 0.0115701 0.0115737 0.0115788 0.0115852 0.0115923 0.0115997 0.0116072 0.011614 0.0116202 0.0116243 0.0116342 0.0116604 0.0117201 0.0116917 0.0116654 0.0116427 0.0116239 0.0116081 0.0115953 0.0115852 0.0115775 0.0115722 0.0115692 0.0115682 0.0115691 0.0115718 0.0115761 0.0115818 0.0115887 0.0115966 0.0116053 0.0116148 0.0116251 0.0116377 0.0116569 0.0116857 0.0117104 0.0116854 0.0116625 0.0116418 0.011624 0.011609 0.0115965 0.0115864 0.0115785 0.0115728 0.0115692 0.0115675 0.0115679 0.0115702 0.0115743 0.01158 0.0115873 0.0115961 0.0116064 0.011618 0.0116314 0.0116477 0.0116691 0.0116954 0.0117148 0.0116879 0.0116648 0.0116441 0.011626 0.0116106 0.0115977 0.011587 0.0115786 0.0115725 0.0115684 0.0115664 0.0115666 0.0115688 0.011573 0.0115792 0.0115872 0.011597 0.0116084 0.0116214 0.0116362 0.0116536 0.0116739 0.0116969 0.0117244 0.0116944 0.0116694 0.0116475 0.0116285 0.0116121 0.0115984 0.0115871 0.0115781 0.0115715 0.0115671 0.011565 0.0115652 0.0115677 0.0115723 0.011579 0.0115877 0.0115982 0.0116103 0.011624 0.0116391 0.0116558 0.0116741 0.0116937 0.0117338 0.0117015 0.0116744 0.0116509 0.0116306 0.0116132 0.0115985 0.0115865 0.011577 0.0115701 0.0115656 0.0115635 0.0115639 0.0115667 0.0115718 0.011579 0.0115883 0.0115993 0.0116118 0.0116256 0.0116402 0.0116556 0.0116715 0.0116881 0.0117411 0.0117076 0.0116787 0.0116537 0.0116322 0.0116137 0.0115983 0.0115856 0.0115756 0.0115685 0.0115639 0.0115621 0.0115627 0.0115659 0.0115714 0.0115792 0.0115888 0.0116001 0.0116127 0.0116261 0.01164 0.0116539 0.0116678 0.0116816 0.011746 0.011712 0.0116819 0.0116558 0.0116332 0.0116138 0.0115976 0.0115844 0.0115742 0.0115669 0.0115625 0.0115608 0.0115618 0.0115653 0.0115712 0.0115793 0.0115892 0.0116006 0.011613 0.011626 0.011639 0.0116517 0.0116638 0.0116753 0.0117491 0.0117148 0.0116841 0.011657 0.0116336 0.0116135 0.0115968 0.0115832 0.0115728 0.0115655 0.0115611 0.0115597 0.011561 0.0115648 0.011571 0.0115794 0.0115894 0.0116008 0.0116129 0.0116254 0.0116375 0.0116491 0.0116599 0.0116698 0.011751 0.0117165 0.0116853 0.0116576 0.0116336 0.011613 0.0115959 0.0115821 0.0115716 0.0115643 0.0115601 0.0115589 0.0115604 0.0115645 0.0115709 0.0115794 0.0115895 0.0116006 0.0116125 0.0116244 0.0116359 0.0116467 0.0116565 0.0116652 0.0117521 0.0117173 0.0116857 0.0116577 0.0116333 0.0116124 0.011595 0.0115811 0.0115706 0.0115634 0.0115593 0.0115583 0.01156 0.0115643 0.0115709 0.0115794 0.0115893 0.0116003 0.0116119 0.0116234 0.0116344 0.0116445 0.0116535 0.0116615 0.0117529 0.0117174 0.0116855 0.0116573 0.0116326 0.0116116 0.0115942 0.0115803 0.0115699 0.0115628 0.0115589 0.011558 0.0115599 0.0115642 0.0115708 0.0115792 0.0115891 0.0115999 0.0116111 0.0116223 0.0116329 0.0116425 0.011651 0.0116585 0.0117533 0.011717 0.0116848 0.0116564 0.0116317 0.0116108 0.0115935 0.0115797 0.0115694 0.0115625 0.0115588 0.011558 0.0115599 0.0115643 0.0115708 0.0115791 0.0115888 0.0115993 0.0116103 0.0116213 0.0116315 0.0116408 0.011649 0.011656 0.011753 0.0117158 0.0116834 0.0116551 0.0116307 0.0116099 0.0115929 0.0115794 0.0115694 0.0115626 0.011559 0.0115583 0.0115602 0.0115645 0.0115709 0.011579 0.0115885 0.0115988 0.0116097 0.0116204 0.0116306 0.0116397 0.0116474 0.0116539 0.0117515 0.0117136 0.0116812 0.0116533 0.0116294 0.0116091 0.0115925 0.0115794 0.0115696 0.0115631 0.0115596 0.0115589 0.0115607 0.0115649 0.0115711 0.011579 0.0115882 0.0115984 0.0116091 0.0116198 0.0116301 0.0116392 0.0116467 0.0116526 0.0117482 0.0117102 0.0116782 0.0116511 0.0116279 0.0116085 0.0115924 0.0115797 0.0115703 0.0115639 0.0115605 0.0115597 0.0115615 0.0115655 0.0115714 0.0115791 0.0115881 0.0115981 0.0116088 0.0116197 0.0116303 0.0116399 0.0116474 0.0116524 0.0117427 0.0117051 0.0116743 0.0116485 0.0116266 0.0116081 0.0115927 0.0115806 0.0115714 0.0115652 0.0115618 0.011561 0.0115626 0.0115663 0.011572 0.0115794 0.0115882 0.0115982 0.011609 0.0116203 0.0116316 0.0116422 0.0116506 0.011655 0.0117349 0.0116985 0.0116698 0.011646 0.0116256 0.0116081 0.0115935 0.0115818 0.011573 0.0115669 0.0115634 0.0115625 0.0115639 0.0115673 0.0115727 0.0115799 0.0115886 0.0115987 0.0116099 0.0116219 0.0116344 0.0116469 0.0116579 0.0116633 0.0117248 0.0116902 0.011665 0.0116438 0.011625 0.0116086 0.0115947 0.0115835 0.0115749 0.0115688 0.0115653 0.0115641 0.0115652 0.0115683 0.0115735 0.0115805 0.0115892 0.0115995 0.0116113 0.0116245 0.0116389 0.0116543 0.0116704 0.0116806 0.0117115 0.0116806 0.0116605 0.0116424 0.011625 0.0116096 0.0115964 0.0115855 0.0115769 0.0115708 0.0115671 0.0115656 0.0115664 0.0115692 0.0115741 0.0115811 0.0115899 0.0116005 0.0116131 0.0116276 0.0116443 0.0116628 0.0116857 0.0117063 0.0116901 0.0116662 0.0116593 0.011641 0.011625 0.0116103 0.0115976 0.011587 0.0115786 0.0115724 0.0115684 0.0115666 0.0115671 0.0115696 0.0115743 0.0115811 0.01159 0.0116009 0.0116139 0.0116291 0.0116464 0.0116669 0.0116914 0.0117276 0.0116128 0.0116833 0.0116556 0.0116395 0.011623 0.0116092 0.0115974 0.0115876 0.0115796 0.0115735 0.0115693 0.0115671 0.0115672 0.0115694 0.0115737 0.0115803 0.0115889 0.0115994 0.0116116 0.0116249 0.0116389 0.0116526 0.0116604 0.0117061 0.0120054 0.011824 0.0117677 0.0117149 0.0116741 0.0116417 0.0116165 0.0115978 0.0115849 0.0115773 0.0115748 0.0115768 0.011583 0.0115929 0.0116056 0.0116204 0.0116358 0.0116507 0.0116636 0.0116721 0.0116737 0.01166 0.011632 0.0114347 0.0118322 0.0117747 0.0117179 0.0116794 0.0116489 0.0116251 0.011607 0.0115939 0.0115851 0.0115803 0.0115791 0.011581 0.0115856 0.0115925 0.011601 0.0116106 0.0116206 0.0116301 0.0116383 0.0116441 0.0116456 0.0116429 0.0116192 0.0116279 0.0117578 0.0117244 0.0116894 0.011661 0.0116379 0.0116196 0.0116054 0.0115948 0.0115876 0.0115834 0.0115818 0.0115826 0.0115856 0.0115902 0.0115962 0.0116032 0.0116107 0.0116184 0.0116259 0.0116328 0.0116388 0.0116431 0.0116521 0.011678 0.011726 0.0117016 0.0116772 0.0116548 0.011636 0.0116204 0.0116078 0.011598 0.0115909 0.0115862 0.0115837 0.0115834 0.0115849 0.0115881 0.0115928 0.0115988 0.0116058 0.0116137 0.0116223 0.0116315 0.0116414 0.0116533 0.0116712 0.0116989 0.0117222 0.0116974 0.0116757 0.0116555 0.011638 0.0116231 0.0116107 0.0116008 0.0115931 0.0115877 0.0115843 0.0115831 0.0115838 0.0115863 0.0115907 0.0115966 0.0116041 0.0116129 0.011623 0.0116343 0.0116471 0.0116627 0.0116828 0.0117072 0.0117317 0.011703 0.0116798 0.0116592 0.0116413 0.0116258 0.0116129 0.0116022 0.0115938 0.0115877 0.0115837 0.011582 0.0115824 0.0115849 0.0115894 0.0115959 0.0116042 0.011614 0.0116254 0.0116383 0.0116527 0.0116692 0.0116883 0.0117091 0.0117436 0.0117116 0.0116856 0.0116635 0.0116443 0.0116278 0.0116139 0.0116024 0.0115933 0.0115866 0.0115823 0.0115803 0.0115808 0.0115836 0.0115887 0.0115959 0.0116051 0.0116159 0.0116283 0.011642 0.0116567 0.0116727 0.0116897 0.0117074 0.0117532 0.0117193 0.0116911 0.0116671 0.0116465 0.0116288 0.0116139 0.0116016 0.0115919 0.0115848 0.0115803 0.0115785 0.0115793 0.0115826 0.0115883 0.0115963 0.0116063 0.0116179 0.0116308 0.0116447 0.0116591 0.0116739 0.0116887 0.0117039 0.0117596 0.011725 0.0116952 0.0116697 0.0116478 0.011629 0.0116131 0.0116002 0.01159 0.0115828 0.0115783 0.0115767 0.011578 0.0115818 0.0115882 0.0115969 0.0116074 0.0116195 0.0116326 0.0116463 0.0116601 0.0116736 0.0116866 0.0116997 0.0117634 0.0117287 0.0116981 0.0116714 0.0116484 0.0116286 0.011612 0.0115985 0.0115881 0.0115808 0.0115765 0.0115752 0.0115769 0.0115813 0.0115883 0.0115975 0.0116085 0.0116208 0.0116338 0.0116472 0.0116601 0.0116725 0.0116841 0.0116955 0.0117654 0.0117307 0.0116996 0.0116722 0.0116483 0.0116279 0.0116107 0.0115968 0.0115862 0.011579 0.0115749 0.011574 0.0115761 0.011581 0.0115884 0.011598 0.0116092 0.0116215 0.0116344 0.0116472 0.0116595 0.0116709 0.0116814 0.0116915 0.0117664 0.0117316 0.0117002 0.0116723 0.0116479 0.0116269 0.0116094 0.0115953 0.0115847 0.0115775 0.0115737 0.0115731 0.0115756 0.0115808 0.0115886 0.0115983 0.0116096 0.0116218 0.0116344 0.0116468 0.0116584 0.0116691 0.0116789 0.0116882 0.0117668 0.0117318 0.0117002 0.011672 0.0116472 0.0116259 0.0116082 0.011594 0.0115835 0.0115765 0.0115728 0.0115726 0.0115753 0.0115808 0.0115887 0.0115985 0.0116097 0.0116218 0.0116341 0.011646 0.0116572 0.0116674 0.0116766 0.0116852 0.0117669 0.0117315 0.0116996 0.0116712 0.0116463 0.0116249 0.0116071 0.0115931 0.0115826 0.0115758 0.0115724 0.0115723 0.0115753 0.0115809 0.0115888 0.0115986 0.0116096 0.0116214 0.0116334 0.011645 0.0116558 0.0116656 0.0116744 0.0116827 0.0117666 0.0117307 0.0116986 0.0116702 0.0116452 0.0116239 0.0116063 0.0115924 0.0115821 0.0115755 0.0115724 0.0115724 0.0115754 0.011581 0.0115888 0.0115984 0.0116092 0.0116207 0.0116324 0.0116438 0.0116544 0.0116639 0.0116724 0.0116804 0.0117658 0.0117293 0.0116972 0.0116688 0.011644 0.011623 0.0116057 0.0115921 0.0115821 0.0115757 0.0115727 0.0115728 0.0115758 0.0115813 0.0115888 0.0115981 0.0116086 0.0116199 0.0116314 0.0116426 0.0116531 0.0116625 0.0116707 0.0116782 0.0117641 0.0117272 0.011695 0.0116669 0.0116427 0.0116222 0.0116054 0.0115921 0.0115825 0.0115763 0.0115734 0.0115735 0.0115764 0.0115816 0.0115889 0.0115978 0.011608 0.0116189 0.0116303 0.0116415 0.0116521 0.0116614 0.0116693 0.0116762 0.0117607 0.0117237 0.011692 0.0116647 0.0116413 0.0116216 0.0116054 0.0115926 0.0115833 0.0115773 0.0115745 0.0115745 0.0115771 0.0115821 0.0115889 0.0115975 0.0116073 0.011618 0.0116292 0.0116406 0.0116515 0.0116611 0.0116688 0.0116748 0.0117555 0.0117189 0.0116883 0.0116623 0.0116401 0.0116214 0.0116058 0.0115937 0.0115847 0.0115789 0.011576 0.0115758 0.0115781 0.0115827 0.0115891 0.0115973 0.0116068 0.0116173 0.0116286 0.0116403 0.0116519 0.0116625 0.0116705 0.0116752 0.011748 0.0117124 0.0116839 0.0116599 0.0116393 0.0116216 0.0116069 0.0115952 0.0115865 0.0115808 0.0115778 0.0115774 0.0115794 0.0115835 0.0115895 0.0115973 0.0116066 0.0116171 0.0116287 0.0116411 0.0116538 0.0116664 0.0116764 0.0116804 0.0117384 0.0117044 0.0116793 0.011658 0.011639 0.0116224 0.0116084 0.0115973 0.0115888 0.011583 0.0115798 0.0115791 0.0115807 0.0115844 0.01159 0.0115975 0.0116067 0.0116173 0.0116295 0.011643 0.0116576 0.0116735 0.011689 0.0116957 0.0117258 0.0116952 0.0116751 0.0116566 0.011639 0.0116236 0.0116104 0.0115996 0.0115912 0.0115853 0.0115818 0.0115807 0.0115818 0.0115851 0.0115904 0.0115977 0.0116068 0.0116178 0.0116307 0.0116455 0.0116626 0.0116823 0.0117073 0.0117254 0.0117042 0.0116809 0.0116724 0.0116544 0.0116387 0.0116243 0.0116118 0.0116014 0.0115931 0.011587 0.0115832 0.0115817 0.0115824 0.0115852 0.0115902 0.0115973 0.0116064 0.0116175 0.0116307 0.011646 0.0116636 0.011684 0.0117142 0.0117558 0.0116316 0.0116926 0.0116659 0.0116504 0.0116349 0.0116219 0.0116108 0.0116014 0.0115938 0.011588 0.0115839 0.0115819 0.011582 0.0115843 0.0115888 0.0115954 0.011604 0.0116145 0.0116264 0.0116391 0.0116516 0.0116641 0.0116622 0.0117359 0.0120602 0.0118298 0.0117763 0.0117197 0.0116773 0.0116437 0.0116181 0.0115997 0.0115879 0.0115823 0.0115823 0.0115877 0.0115979 0.0116121 0.0116293 0.0116484 0.0116678 0.0116862 0.0117017 0.0117123 0.0117155 0.0117039 0.0116798 0.0115081 0.0118461 0.0117936 0.0117261 0.0116861 0.011654 0.0116298 0.011612 0.0115998 0.0115925 0.0115895 0.0115905 0.0115949 0.0116021 0.0116115 0.0116225 0.0116344 0.0116464 0.0116576 0.0116672 0.0116744 0.0116775 0.0116769 0.011659 0.0116657 0.0117593 0.0117351 0.0117007 0.0116709 0.0116476 0.0116295 0.0116158 0.011606 0.0115998 0.0115969 0.0115968 0.0115991 0.0116035 0.0116096 0.0116168 0.0116249 0.0116334 0.0116418 0.0116498 0.011657 0.0116634 0.0116681 0.0116759 0.0117005 0.0117308 0.0117104 0.0116891 0.0116676 0.0116492 0.011634 0.011622 0.0116128 0.0116063 0.0116023 0.0116007 0.0116011 0.0116035 0.0116075 0.0116129 0.0116194 0.0116268 0.0116348 0.0116434 0.0116523 0.0116617 0.0116725 0.0116888 0.0117143 0.0117348 0.0117096 0.0116896 0.0116706 0.0116537 0.0116393 0.0116273 0.0116177 0.0116104 0.0116054 0.0116025 0.0116017 0.0116029 0.0116059 0.0116107 0.011617 0.0116246 0.0116334 0.0116432 0.0116539 0.0116659 0.0116802 0.0116984 0.0117199 0.0117489 0.0117183 0.0116952 0.0116755 0.0116581 0.0116431 0.0116304 0.0116199 0.0116117 0.0116057 0.0116019 0.0116005 0.0116012 0.0116042 0.0116091 0.011616 0.0116246 0.0116345 0.0116458 0.0116581 0.0116717 0.0116869 0.0117041 0.0117219 0.0117615 0.011728 0.0117017 0.0116799 0.0116612 0.011645 0.0116313 0.0116199 0.0116108 0.0116042 0.0116 0.0115983 0.0115992 0.0116026 0.0116082 0.0116161 0.0116257 0.0116369 0.0116494 0.0116628 0.0116769 0.0116917 0.0117069 0.011722 0.0117701 0.0117356 0.011707 0.0116832 0.0116629 0.0116455 0.0116307 0.0116184 0.0116087 0.0116017 0.0115974 0.0115959 0.0115972 0.0116012 0.0116078 0.0116167 0.0116274 0.0116397 0.0116529 0.0116667 0.0116807 0.0116945 0.0117079 0.0117209 0.011775 0.0117404 0.0117106 0.0116852 0.0116635 0.0116449 0.0116291 0.0116161 0.011606 0.0115988 0.0115947 0.0115936 0.0115955 0.0116004 0.0116079 0.0116177 0.0116293 0.0116422 0.0116559 0.0116696 0.0116831 0.0116958 0.0117077 0.0117193 0.0117775 0.0117431 0.0117126 0.0116861 0.0116633 0.0116437 0.0116271 0.0116137 0.0116033 0.0115961 0.0115922 0.0115917 0.0115943 0.0115999 0.0116083 0.0116188 0.0116311 0.0116443 0.011658 0.0116715 0.0116842 0.011696 0.0117067 0.0117172 0.0117785 0.0117442 0.0117134 0.0116863 0.0116626 0.0116422 0.0116251 0.0116113 0.0116008 0.0115938 0.0115903 0.0115902 0.0115935 0.0115998 0.0116088 0.0116199 0.0116325 0.0116458 0.0116593 0.0116724 0.0116845 0.0116954 0.0117053 0.011715 0.0117788 0.0117445 0.0117135 0.0116858 0.0116616 0.0116407 0.0116232 0.0116092 0.0115987 0.011592 0.0115888 0.0115893 0.0115931 0.0116 0.0116094 0.0116208 0.0116334 0.0116467 0.0116599 0.0116725 0.011684 0.0116943 0.0117037 0.0117128 0.0117786 0.0117442 0.011713 0.0116851 0.0116605 0.0116393 0.0116216 0.0116075 0.0115972 0.0115907 0.0115879 0.0115889 0.0115931 0.0116003 0.0116099 0.0116213 0.0116339 0.011647 0.0116599 0.011672 0.0116831 0.011693 0.011702 0.0117107 0.0117782 0.0117436 0.0117122 0.0116841 0.0116593 0.011638 0.0116203 0.0116064 0.0115963 0.01159 0.0115876 0.0115888 0.0115933 0.0116006 0.0116102 0.0116216 0.011634 0.0116467 0.0116593 0.0116711 0.0116819 0.0116916 0.0117003 0.0117088 0.0117776 0.0117426 0.0117111 0.0116829 0.0116581 0.0116369 0.0116194 0.0116057 0.0115958 0.0115899 0.0115877 0.0115891 0.0115937 0.0116009 0.0116104 0.0116215 0.0116335 0.011646 0.0116582 0.0116699 0.0116805 0.01169 0.0116986 0.0117069 0.0117766 0.0117413 0.0117097 0.0116815 0.011657 0.0116361 0.0116189 0.0116055 0.011596 0.0115903 0.0115883 0.0115897 0.0115942 0.0116012 0.0116104 0.0116211 0.0116327 0.0116448 0.0116569 0.0116684 0.0116789 0.0116884 0.0116968 0.0117049 0.0117749 0.0117394 0.0117077 0.0116799 0.0116558 0.0116355 0.0116188 0.0116059 0.0115967 0.0115912 0.0115893 0.0115906 0.0115948 0.0116015 0.0116102 0.0116203 0.0116315 0.0116432 0.0116551 0.0116666 0.0116774 0.0116868 0.011695 0.0117028 0.011772 0.0117366 0.0117054 0.0116783 0.0116549 0.0116353 0.0116193 0.0116068 0.0115979 0.0115926 0.0115906 0.0115917 0.0115955 0.0116017 0.0116098 0.0116194 0.0116301 0.0116414 0.0116532 0.0116649 0.011676 0.0116857 0.0116936 0.0117006 0.0117678 0.0117327 0.0117025 0.0116766 0.0116545 0.0116358 0.0116204 0.0116084 0.0115997 0.0115945 0.0115923 0.0115931 0.0115964 0.011602 0.0116094 0.0116184 0.0116286 0.0116398 0.0116515 0.0116635 0.0116753 0.0116859 0.0116937 0.0116991 0.0117616 0.0117274 0.0116992 0.0116753 0.0116546 0.0116368 0.0116221 0.0116105 0.011602 0.0115967 0.0115943 0.0115946 0.0115974 0.0116023 0.0116091 0.0116176 0.0116274 0.0116384 0.0116504 0.011663 0.0116759 0.0116884 0.0116975 0.0117007 0.0117533 0.0117207 0.011696 0.0116746 0.0116552 0.0116384 0.0116243 0.011613 0.0116046 0.0115991 0.0115964 0.0115962 0.0115984 0.0116027 0.011609 0.011617 0.0116266 0.0116377 0.0116502 0.0116639 0.0116787 0.0116947 0.011709 0.0117118 0.011742 0.0117126 0.0116929 0.0116739 0.0116559 0.0116401 0.0116267 0.0116158 0.0116075 0.0116018 0.0115986 0.0115979 0.0115995 0.0116032 0.011609 0.0116168 0.0116263 0.0116375 0.0116506 0.0116657 0.0116831 0.0117038 0.0117301 0.0117426 0.0117217 0.0116996 0.0116884 0.0116702 0.0116545 0.0116401 0.0116278 0.0116174 0.0116093 0.0116034 0.0115999 0.0115986 0.0115996 0.0116028 0.0116081 0.0116155 0.0116248 0.0116361 0.0116495 0.0116648 0.0116828 0.0117029 0.0117396 0.0117844 0.011651 0.0116992 0.0116739 0.0116599 0.0116462 0.0116349 0.0116253 0.011617 0.0116102 0.0116048 0.0116011 0.0115993 0.0115996 0.0116021 0.0116067 0.0116135 0.0116222 0.0116326 0.0116442 0.0116562 0.011667 0.0116781 0.0116648 0.0117701 0.0121034 0.0118224 0.0117718 0.0117104 0.0116661 0.0116314 0.0116059 0.0115888 0.0115795 0.0115775 0.0115824 0.0115935 0.01161 0.0116309 0.0116549 0.0116804 0.0117058 0.0117294 0.0117497 0.0117643 0.0117712 0.0117648 0.0117475 0.0116081 0.0118526 0.0118099 0.0117312 0.011689 0.0116554 0.011631 0.0116138 0.011603 0.0115978 0.0115977 0.0116018 0.0116097 0.0116206 0.0116338 0.0116485 0.0116638 0.0116788 0.0116926 0.0117043 0.0117133 0.0117183 0.0117208 0.0117092 0.0117145 0.0117559 0.0117429 0.0117103 0.0116794 0.0116563 0.0116384 0.0116252 0.0116165 0.0116117 0.0116104 0.0116121 0.0116165 0.011623 0.0116311 0.0116402 0.01165 0.01166 0.0116699 0.0116793 0.011688 0.0116959 0.0117022 0.0117091 0.0117322 0.0117359 0.0117184 0.0117017 0.0116816 0.0116645 0.0116504 0.0116392 0.0116308 0.0116252 0.0116222 0.0116216 0.0116231 0.0116266 0.0116316 0.0116379 0.0116452 0.0116531 0.0116613 0.0116697 0.011678 0.0116861 0.0116954 0.0117087 0.0117302 0.0117494 0.0117224 0.0117044 0.0116873 0.0116718 0.0116583 0.0116471 0.0116381 0.0116313 0.0116267 0.0116244 0.0116242 0.0116261 0.0116299 0.0116353 0.011642 0.0116498 0.0116583 0.0116673 0.0116767 0.0116869 0.011699 0.0117144 0.0117316 0.0117658 0.0117334 0.0117108 0.0116925 0.0116765 0.0116624 0.0116504 0.0116403 0.0116324 0.0116268 0.0116234 0.0116224 0.0116237 0.0116273 0.0116328 0.0116401 0.0116488 0.0116586 0.0116692 0.0116805 0.0116927 0.0117063 0.011721 0.011735 0.0117772 0.0117431 0.0117169 0.0116962 0.0116787 0.0116635 0.0116504 0.0116394 0.0116306 0.0116242 0.0116203 0.0116191 0.0116206 0.0116246 0.011631 0.0116395 0.0116497 0.0116611 0.0116734 0.0116862 0.0116995 0.0117131 0.0117264 0.0117384 0.0117837 0.0117494 0.0117213 0.0116983 0.0116791 0.0116626 0.0116485 0.0116366 0.0116271 0.0116204 0.0116164 0.0116155 0.0116176 0.0116226 0.0116302 0.0116402 0.0116518 0.0116646 0.0116781 0.0116917 0.0117051 0.0117181 0.0117298 0.0117404 0.011787 0.011753 0.0117238 0.0116992 0.0116785 0.0116607 0.0116456 0.011633 0.0116231 0.0116163 0.0116126 0.0116123 0.0116152 0.0116214 0.0116303 0.0116416 0.0116545 0.0116682 0.0116823 0.0116961 0.011709 0.011721 0.0117315 0.0117412 0.0117884 0.0117547 0.0117249 0.0116992 0.0116772 0.0116584 0.0116424 0.0116293 0.0116193 0.0116125 0.0116093 0.0116097 0.0116137 0.011621 0.0116311 0.0116435 0.0116572 0.0116715 0.0116856 0.0116991 0.0117113 0.0117223 0.0117319 0.0117409 0.0117886 0.0117551 0.0117251 0.0116986 0.0116757 0.0116561 0.0116394 0.011626 0.0116159 0.0116095 0.0116068 0.011608 0.011613 0.0116212 0.0116323 0.0116453 0.0116594 0.0116738 0.0116878 0.0117007 0.0117123 0.0117225 0.0117315 0.01174 0.0117884 0.0117549 0.0117246 0.0116977 0.0116741 0.0116539 0.0116368 0.0116232 0.0116132 0.0116072 0.0116052 0.0116071 0.0116129 0.0116219 0.0116335 0.0116469 0.0116611 0.0116753 0.0116889 0.0117013 0.0117123 0.011722 0.0117306 0.0117388 0.0117879 0.0117544 0.0117238 0.0116965 0.0116726 0.0116519 0.0116347 0.0116211 0.0116115 0.0116058 0.0116043 0.011607 0.0116133 0.0116228 0.0116346 0.0116481 0.0116621 0.011676 0.0116892 0.0117011 0.0117117 0.0117211 0.0117295 0.0117376 0.0117873 0.0117535 0.0117229 0.0116953 0.0116711 0.0116503 0.0116332 0.0116198 0.0116104 0.0116052 0.0116042 0.0116073 0.011614 0.0116236 0.0116355 0.0116487 0.0116624 0.0116759 0.0116887 0.0117003 0.0117106 0.01172 0.0117283 0.0117364 0.0117865 0.0117525 0.0117216 0.0116939 0.0116698 0.0116491 0.0116322 0.0116192 0.0116102 0.0116054 0.0116048 0.0116081 0.0116149 0.0116244 0.0116359 0.0116487 0.011662 0.0116751 0.0116876 0.011699 0.0117092 0.0117185 0.0117269 0.011735 0.0117854 0.0117512 0.0117203 0.0116926 0.0116687 0.0116484 0.0116319 0.0116193 0.0116107 0.0116063 0.0116059 0.0116092 0.0116158 0.011625 0.0116359 0.0116482 0.0116609 0.0116737 0.0116859 0.0116973 0.0117075 0.0117169 0.0117253 0.0117336 0.011784 0.0117496 0.0117187 0.0116913 0.011668 0.0116483 0.0116324 0.0116203 0.0116121 0.0116078 0.0116074 0.0116105 0.0116166 0.0116252 0.0116355 0.0116471 0.0116592 0.0116716 0.0116837 0.0116951 0.0117056 0.0117151 0.0117236 0.0117318 0.0117818 0.0117476 0.011717 0.0116904 0.0116679 0.011649 0.0116338 0.0116221 0.0116141 0.0116099 0.0116093 0.0116119 0.0116173 0.0116251 0.0116346 0.0116453 0.0116569 0.0116688 0.0116809 0.0116926 0.0117035 0.0117133 0.0117216 0.0117296 0.011779 0.0117452 0.0117156 0.0116903 0.0116689 0.0116509 0.0116361 0.0116248 0.0116168 0.0116124 0.0116113 0.0116133 0.0116179 0.0116247 0.0116333 0.0116433 0.0116542 0.0116658 0.0116779 0.0116899 0.0117016 0.0117121 0.0117201 0.011727 0.0117752 0.0117427 0.0117151 0.0116915 0.0116712 0.0116538 0.0116394 0.011628 0.0116199 0.0116151 0.0116133 0.0116145 0.0116182 0.0116241 0.0116318 0.011641 0.0116515 0.0116629 0.011675 0.0116876 0.0117004 0.0117128 0.011721 0.0117251 0.0117704 0.0117399 0.0117157 0.0116941 0.0116745 0.0116573 0.0116428 0.0116313 0.0116229 0.0116176 0.0116152 0.0116155 0.0116183 0.0116234 0.0116303 0.011639 0.0116491 0.0116605 0.011673 0.0116866 0.0117011 0.0117172 0.0117294 0.0117293 0.0117634 0.0117358 0.0117161 0.0116956 0.0116765 0.0116596 0.0116454 0.0116339 0.0116252 0.0116194 0.0116163 0.0116159 0.011618 0.0116222 0.0116286 0.0116368 0.0116468 0.0116584 0.0116718 0.011687 0.0117043 0.0117258 0.0117524 0.0117572 0.0117403 0.0117199 0.0117068 0.0116884 0.0116729 0.0116589 0.0116468 0.0116365 0.0116285 0.0116228 0.0116194 0.0116185 0.0116199 0.0116235 0.0116292 0.0116369 0.0116465 0.011658 0.0116713 0.0116865 0.0117046 0.0117244 0.0117678 0.0118108 0.0116728 0.0117059 0.0116821 0.0116687 0.0116569 0.0116472 0.0116391 0.0116322 0.0116265 0.0116221 0.011619 0.0116176 0.0116181 0.0116207 0.0116254 0.0116323 0.0116411 0.0116514 0.0116627 0.0116743 0.0116837 0.0116944 0.0116686 0.0118066 0.0121268 0.011809 0.0117534 0.0116867 0.0116397 0.0116038 0.011579 0.0115645 0.0115599 0.0115646 0.011578 0.0115991 0.0116265 0.0116583 0.0116922 0.0117261 0.0117577 0.011785 0.0118066 0.0118206 0.0118256 0.0118176 0.0118087 0.0117074 0.0118483 0.0118173 0.0117227 0.0116768 0.0116393 0.0116132 0.0115959 0.0115867 0.0115845 0.0115887 0.0115981 0.0116119 0.011629 0.0116485 0.0116695 0.0116912 0.0117129 0.0117339 0.0117538 0.011772 0.0117881 0.0118024 0.0118088 0.0118111 0.0117481 0.0117473 0.0117201 0.0116912 0.0116703 0.011654 0.0116424 0.0116352 0.011632 0.0116326 0.0116364 0.011643 0.0116518 0.0116623 0.0116737 0.0116856 0.0116974 0.0117087 0.011719 0.0117278 0.0117346 0.0117384 0.0117395 0.0117557 0.0117483 0.0117299 0.0117168 0.0117 0.0116851 0.0116725 0.0116625 0.0116551 0.0116503 0.0116483 0.0116488 0.0116517 0.0116566 0.0116631 0.0116706 0.0116789 0.0116871 0.0116947 0.0117013 0.0117064 0.0117101 0.0117135 0.0117232 0.0117372 0.0117661 0.0117369 0.0117201 0.0117062 0.011693 0.0116813 0.0116712 0.0116629 0.0116567 0.0116528 0.0116512 0.0116519 0.0116548 0.0116594 0.0116654 0.0116724 0.0116797 0.011687 0.0116939 0.0117005 0.0117076 0.0117167 0.0117311 0.0117442 0.0117805 0.0117473 0.0117251 0.0117097 0.0116961 0.0116837 0.0116729 0.0116636 0.0116563 0.0116511 0.0116482 0.0116479 0.0116498 0.011654 0.01166 0.0116675 0.011676 0.0116852 0.0116947 0.0117047 0.0117155 0.0117279 0.0117425 0.0117533 0.0117888 0.0117551 0.0117295 0.0117112 0.0116961 0.0116826 0.0116707 0.0116605 0.0116522 0.0116463 0.0116429 0.0116422 0.0116443 0.0116491 0.0116563 0.0116655 0.0116762 0.0116879 0.0117001 0.0117125 0.0117252 0.0117381 0.0117511 0.0117603 0.0117932 0.0117598 0.0117323 0.0117116 0.0116945 0.0116797 0.0116667 0.0116556 0.0116467 0.0116403 0.0116368 0.0116366 0.0116395 0.0116457 0.0116547 0.011666 0.011679 0.0116927 0.0117066 0.0117202 0.0117331 0.011745 0.0117563 0.0117644 0.0117952 0.0117622 0.0117337 0.0117112 0.0116923 0.011676 0.0116619 0.0116501 0.0116407 0.0116344 0.0116313 0.0116319 0.0116362 0.0116441 0.011655 0.0116683 0.0116829 0.0116979 0.0117125 0.0117261 0.0117383 0.011749 0.011759 0.0117664 0.0117959 0.0117631 0.0117341 0.0117102 0.0116899 0.0116723 0.0116573 0.0116448 0.0116353 0.0116292 0.0116268 0.0116286 0.0116345 0.0116441 0.0116567 0.0116713 0.0116869 0.0117023 0.0117169 0.0117299 0.0117412 0.0117509 0.0117601 0.0117671 0.0117958 0.0117632 0.0117337 0.0117089 0.0116875 0.0116689 0.0116531 0.0116402 0.0116308 0.0116252 0.0116238 0.0116267 0.011634 0.0116451 0.0116588 0.0116743 0.0116903 0.0117056 0.0117197 0.011732 0.0117425 0.0117515 0.0117601 0.011767 0.0117954 0.0117628 0.0117329 0.0117075 0.0116852 0.0116659 0.0116496 0.0116366 0.0116274 0.0116224 0.011622 0.0116261 0.0116346 0.0116466 0.0116611 0.0116769 0.0116927 0.0117077 0.0117212 0.0117329 0.0117427 0.0117513 0.0117597 0.0117666 0.0117949 0.0117621 0.0117319 0.011706 0.0116832 0.0116634 0.0116469 0.011634 0.0116252 0.011621 0.0116214 0.0116265 0.0116358 0.0116484 0.0116631 0.0116788 0.0116943 0.0117087 0.0117217 0.0117328 0.0117423 0.0117506 0.011759 0.0117659 0.0117942 0.0117612 0.0117308 0.0117045 0.0116813 0.0116614 0.0116449 0.0116324 0.0116242 0.0116206 0.0116219 0.0116277 0.0116374 0.0116502 0.0116647 0.01168 0.0116949 0.0117089 0.0117214 0.0117321 0.0117414 0.0117496 0.0117581 0.0117652 0.0117935 0.0117603 0.0117295 0.0117029 0.0116797 0.0116599 0.0116439 0.0116319 0.0116243 0.0116214 0.0116233 0.0116294 0.0116392 0.0116516 0.0116657 0.0116804 0.0116947 0.0117081 0.0117203 0.0117309 0.0117401 0.0117484 0.0117571 0.0117645 0.0117926 0.0117591 0.0117281 0.0117014 0.0116785 0.0116592 0.0116439 0.0116326 0.0116257 0.0116233 0.0116253 0.0116315 0.0116409 0.0116528 0.0116661 0.01168 0.0116936 0.0117066 0.0117185 0.0117291 0.0117384 0.0117469 0.0117559 0.0117636 0.0117916 0.0117578 0.0117265 0.0117001 0.0116779 0.0116596 0.0116451 0.0116346 0.0116282 0.0116261 0.011628 0.0116337 0.0116424 0.0116533 0.0116656 0.0116786 0.0116916 0.0117041 0.0117159 0.0117267 0.0117363 0.011745 0.0117544 0.0117626 0.01179 0.0117561 0.011725 0.0116995 0.0116785 0.0116614 0.0116479 0.011638 0.0116318 0.0116295 0.0116309 0.0116357 0.0116433 0.011653 0.0116641 0.0116761 0.0116884 0.0117006 0.0117124 0.0117235 0.0117337 0.0117429 0.0117525 0.0117612 0.0117881 0.0117545 0.0117244 0.0117007 0.0116814 0.0116655 0.0116527 0.0116429 0.0116364 0.0116334 0.0116338 0.0116373 0.0116435 0.0116518 0.0116617 0.0116727 0.0116844 0.0116962 0.0117081 0.0117197 0.0117308 0.0117407 0.0117503 0.011759 0.011786 0.0117539 0.0117264 0.0117053 0.0116875 0.0116721 0.0116591 0.0116486 0.0116411 0.0116369 0.0116359 0.011638 0.0116428 0.0116497 0.0116584 0.0116686 0.0116797 0.0116913 0.0117034 0.0117155 0.0117277 0.0117394 0.0117488 0.0117553 0.0117844 0.0117572 0.0117339 0.011715 0.011697 0.0116804 0.0116658 0.0116537 0.0116448 0.0116392 0.0116369 0.0116376 0.011641 0.0116468 0.0116546 0.011664 0.0116747 0.0116863 0.0116988 0.0117118 0.0117254 0.0117404 0.0117519 0.0117518 0.01179 0.0117679 0.0117485 0.0117268 0.0117054 0.011686 0.0116695 0.0116562 0.0116463 0.0116398 0.0116365 0.0116362 0.0116386 0.0116435 0.0116504 0.0116592 0.0116696 0.0116813 0.0116944 0.0117089 0.0117249 0.0117451 0.0117696 0.0117641 0.0117872 0.0117687 0.0117458 0.0117211 0.0116998 0.0116813 0.0116657 0.0116531 0.0116433 0.0116365 0.0116323 0.0116309 0.0116319 0.0116354 0.0116412 0.0116491 0.0116592 0.0116712 0.0116853 0.0117014 0.0117209 0.0117404 0.0117923 0.0118319 0.0116547 0.011676 0.0116571 0.0116552 0.0116541 0.0116538 0.0116532 0.0116522 0.0116508 0.0116493 0.0116481 0.0116477 0.0116487 0.0116516 0.0116565 0.0116636 0.0116724 0.0116826 0.0116935 0.0117042 0.0117119 0.0117208 0.0116895 0.0118383 0.0120194 0.0117058 0.0116215 0.0115291 0.0114619 0.0114123 0.0113818 0.0113699 0.0113758 0.0113982 0.0114353 0.0114846 0.0115432 0.011608 0.0116763 0.0117455 0.0118136 0.0118794 0.0119421 0.0120009 0.0120547 0.0120986 0.0121246 0.0120211 0.0118513 0.0118215 0.0117316 0.0116892 0.0116557 0.0116329 0.011618 0.0116106 0.01161 0.0116161 0.0116282 0.0116457 0.0116676 0.0116929 0.0117201 0.011748 0.011775 0.0117998 0.0118212 0.0118376 0.0118472 0.0118489 0.0118391 0.0118359 0.0117614 0.0117632 0.0117429 0.0117159 0.011697 0.0116818 0.0116712 0.0116647 0.0116624 0.0116643 0.0116702 0.0116796 0.0116919 0.0117061 0.0117212 0.011736 0.0117493 0.0117599 0.0117665 0.011768 0.0117633 0.0117533 0.0117399 0.0117546 0.0117688 0.0117399 0.0117359 0.0117235 0.0117111 0.0117004 0.0116915 0.0116851 0.0116815 0.0116808 0.0116829 0.0116878 0.0116948 0.0117033 0.0117124 0.0117211 0.0117284 0.0117332 0.0117351 0.011734 0.0117311 0.0117293 0.0117383 0.0117647 0.0117821 0.0117443 0.0117338 0.011725 0.0117151 0.0117058 0.0116974 0.0116905 0.0116855 0.0116827 0.0116822 0.011684 0.0116878 0.0116932 0.0116996 0.0117061 0.0117123 0.0117175 0.011722 0.0117262 0.0117315 0.0117405 0.0117558 0.0117788 0.0117908 0.0117522 0.0117352 0.0117245 0.0117146 0.011705 0.0116962 0.0116883 0.011682 0.0116775 0.0116751 0.0116751 0.0116774 0.011682 0.0116884 0.0116962 0.0117048 0.0117139 0.0117233 0.0117332 0.0117439 0.0117564 0.0117706 0.0117879 0.0117962 0.0117587 0.0117376 0.0117235 0.0117119 0.0117012 0.0116912 0.0116822 0.0116745 0.0116688 0.0116655 0.011665 0.0116677 0.0116735 0.0116821 0.0116929 0.0117052 0.0117181 0.0117311 0.0117439 0.0117562 0.0117681 0.0117796 0.0117936 0.0117992 0.0117626 0.0117394 0.0117223 0.0117084 0.0116959 0.0116845 0.0116742 0.0116656 0.0116593 0.011656 0.0116564 0.0116608 0.0116691 0.0116806 0.0116945 0.0117097 0.011725 0.0117397 0.0117531 0.0117648 0.0117752 0.0117846 0.0117968 0.0118006 0.0117646 0.0117402 0.0117208 0.0117046 0.0116903 0.0116774 0.011666 0.0116568 0.0116506 0.0116483 0.0116504 0.0116571 0.0116681 0.0116823 0.0116985 0.0117154 0.0117317 0.0117466 0.0117595 0.0117701 0.0117789 0.011787 0.0117984 0.0118011 0.0117654 0.01174 0.011719 0.011701 0.011685 0.0116708 0.0116587 0.0116494 0.0116439 0.0116429 0.0116471 0.0116561 0.0116693 0.0116855 0.011703 0.0117206 0.011737 0.0117514 0.0117634 0.0117729 0.0117807 0.011788 0.011799 0.0118011 0.0117654 0.0117393 0.0117171 0.0116976 0.0116803 0.0116652 0.0116527 0.0116438 0.0116392 0.0116399 0.0116459 0.0116568 0.0116717 0.0116889 0.0117071 0.0117247 0.0117407 0.0117544 0.0117655 0.0117741 0.0117812 0.0117881 0.0117991 0.0118008 0.0117649 0.0117383 0.0117152 0.0116947 0.0116764 0.0116607 0.0116483 0.0116399 0.0116365 0.0116386 0.0116462 0.0116586 0.0116743 0.0116921 0.0117103 0.0117277 0.011743 0.011756 0.0117663 0.0117743 0.011781 0.0117877 0.0117989 0.0118004 0.0117643 0.0117371 0.0117133 0.0116921 0.0116733 0.0116575 0.0116453 0.0116377 0.0116353 0.0116387 0.0116475 0.0116607 0.011677 0.0116949 0.0117128 0.0117296 0.0117444 0.0117566 0.0117664 0.011774 0.0117804 0.0117872 0.0117985 0.0118 0.0117635 0.0117358 0.0117115 0.0116898 0.0116709 0.0116551 0.0116435 0.0116367 0.0116356 0.01164 0.0116496 0.0116632 0.0116796 0.0116972 0.0117147 0.0117308 0.0117449 0.0117566 0.0117659 0.0117732 0.0117796 0.0117865 0.0117982 0.0117996 0.0117626 0.0117344 0.0117097 0.0116878 0.011669 0.0116538 0.0116429 0.0116373 0.011637 0.0116423 0.0116523 0.0116661 0.0116821 0.0116992 0.0117159 0.0117313 0.0117447 0.0117559 0.0117649 0.0117721 0.0117785 0.0117856 0.0117978 0.0117993 0.0117616 0.0117329 0.0117079 0.0116861 0.0116679 0.0116536 0.0116439 0.0116393 0.0116401 0.0116457 0.0116558 0.0116692 0.0116845 0.0117005 0.0117163 0.0117308 0.0117436 0.0117544 0.0117633 0.0117706 0.0117772 0.0117846 0.0117976 0.0117991 0.0117604 0.0117311 0.0117061 0.0116851 0.011668 0.0116551 0.0116468 0.0116433 0.0116446 0.0116504 0.0116599 0.0116722 0.0116862 0.011701 0.0117154 0.011729 0.0117412 0.0117519 0.0117609 0.0117685 0.0117754 0.0117833 0.0117974 0.0117988 0.0117588 0.0117292 0.0117049 0.0116854 0.0116703 0.0116592 0.0116523 0.0116496 0.0116508 0.0116558 0.0116639 0.0116745 0.0116867 0.0116997 0.0117128 0.0117256 0.0117374 0.0117481 0.0117576 0.0117657 0.0117731 0.0117816 0.0117972 0.0117985 0.0117569 0.0117278 0.0117057 0.011689 0.0116763 0.011667 0.011661 0.011658 0.0116581 0.0116611 0.011667 0.0116751 0.0116852 0.0116964 0.0117083 0.0117204 0.0117321 0.0117431 0.0117533 0.0117625 0.0117706 0.0117793 0.011797 0.0117975 0.0117548 0.0117288 0.0117112 0.0116982 0.0116877 0.0116792 0.0116722 0.0116672 0.0116646 0.0116646 0.0116676 0.0116732 0.0116812 0.011691 0.0117021 0.0117138 0.0117256 0.0117372 0.0117483 0.0117588 0.0117685 0.0117766 0.0117956 0.0117948 0.0117564 0.0117384 0.0117269 0.011716 0.011705 0.0116937 0.011683 0.0116741 0.0116677 0.0116646 0.0116649 0.0116686 0.0116753 0.0116842 0.0116949 0.0117065 0.0117186 0.0117309 0.0117431 0.0117553 0.0117681 0.0117755 0.0117896 0.0117938 0.0117746 0.0117684 0.0117555 0.0117394 0.0117216 0.0117039 0.011688 0.0116749 0.0116655 0.0116603 0.0116593 0.0116621 0.0116682 0.0116768 0.0116872 0.0116988 0.0117112 0.0117241 0.0117376 0.0117517 0.0117698 0.0117887 0.0117834 0.0118293 0.011827 0.011805 0.0117777 0.0117499 0.0117239 0.011701 0.011682 0.0116676 0.0116577 0.0116523 0.0116511 0.0116535 0.011659 0.0116668 0.0116764 0.0116873 0.0116993 0.0117122 0.0117258 0.0117418 0.0117566 0.0118008 0.0118227 0.0117414 0.0117997 0.0117726 0.0117413 0.0117125 0.0116888 0.0116698 0.0116546 0.0116422 0.0116319 0.0116232 0.0116159 0.0116103 0.011607 0.0116066 0.0116098 0.0116173 0.0116291 0.0116449 0.0116639 0.0116824 0.0117037 0.0116809 0.0117935 
SCALARS volume_diff float 1
LOOKUP_TABLE default
0.0119588 0.0120683 0.0120469 0.0120048 0.0119489 0.0118851 0.0118154 0.0117411 0.0116639 0.0115854 0.011508 0.0114346 0.0113682 0.0113124 0.0112703 0.0112447 0.011238 0.0112517 0.0112867 0.0113437 0.0114215 0.0115278 0.0116291 0.0119536 0.0117873 0.0117889 0.0117926 0.0117851 0.0117696 0.0117471 0.0117191 0.0116871 0.0116526 0.0116173 0.0115827 0.0115507 0.0115228 0.0115006 0.0114852 0.0114776 0.0114785 0.0114885 0.0115081 0.0115377 0.0115803 0.0116335 0.0117368 0.0117737 0.0116814 0.0116613 0.0116701 0.0116755 0.0116763 0.0116715 0.0116617 0.011648 0.0116314 0.0116132 0.0115948 0.0115775 0.0115626 0.0115514 0.0115446 0.011543 0.0115467 0.0115559 0.0115705 0.0115907 0.0116156 0.0116494 0.0116767 0.0116754 0.0116824 0.0116516 0.0116361 0.0116319 0.0116297 0.011627 0.0116223 0.0116155 0.0116068 0.0115972 0.0115875 0.0115787 0.0115719 0.0115678 0.0115669 0.0115696 0.0115758 0.0115853 0.0115977 0.0116122 0.0116283 0.0116443 0.0116512 0.0116792 0.0116954 0.011669 0.0116466 0.0116301 0.011618 0.0116082 0.0115997 0.0115916 0.0115841 0.0115774 0.0115718 0.011568 0.0115664 0.0115673 0.0115709 0.0115772 0.0115857 0.0115962 0.011608 0.0116204 0.0116327 0.0116435 0.0116553 0.0116927 0.0117048 0.0116849 0.0116641 0.0116439 0.0116254 0.0116085 0.0115933 0.0115801 0.011569 0.0115606 0.0115552 0.011553 0.011554 0.0115581 0.0115649 0.0115741 0.0115849 0.0115967 0.0116091 0.0116215 0.0116335 0.0116455 0.0116634 0.0117023 0.0117107 0.0116948 0.0116776 0.0116583 0.0116381 0.0116176 0.0115976 0.011579 0.011563 0.0115505 0.0115423 0.0115388 0.0115399 0.0115452 0.0115539 0.0115651 0.0115778 0.0115914 0.0116051 0.0116187 0.0116323 0.0116477 0.0116701 0.0117085 0.0117141 0.0117004 0.011686 0.011669 0.0116495 0.0116282 0.0116059 0.011584 0.0115638 0.0115469 0.0115348 0.0115282 0.0115276 0.0115322 0.0115413 0.0115536 0.0115678 0.011583 0.0115985 0.011614 0.0116302 0.0116491 0.0116741 0.0117122 0.0117157 0.0117033 0.0116907 0.0116758 0.0116578 0.0116372 0.0116145 0.011591 0.0115681 0.0115479 0.011532 0.011522 0.0115185 0.0115213 0.0115296 0.011542 0.0115571 0.0115737 0.011591 0.0116088 0.0116276 0.0116493 0.0116761 0.011714 0.0117163 0.0117045 0.0116931 0.0116796 0.0116633 0.0116438 0.0116217 0.0115978 0.0115737 0.0115513 0.0115326 0.0115194 0.011513 0.0115134 0.0115201 0.0115319 0.0115473 0.0115649 0.0115838 0.0116036 0.0116248 0.0116485 0.0116767 0.0117148 0.0117164 0.0117047 0.0116941 0.0116817 0.0116666 0.0116483 0.011627 0.0116035 0.011579 0.0115555 0.0115349 0.0115193 0.0115103 0.0115083 0.0115132 0.011524 0.0115391 0.0115573 0.0115774 0.0115989 0.0116219 0.0116473 0.0116765 0.0117149 0.0117162 0.0117046 0.0116944 0.0116827 0.0116686 0.0116513 0.011631 0.0116081 0.0115838 0.0115598 0.0115381 0.0115208 0.0115096 0.0115055 0.0115086 0.0115181 0.0115327 0.0115511 0.011572 0.0115948 0.0116192 0.0116458 0.0116759 0.0117147 0.0117158 0.0117043 0.0116943 0.0116833 0.0116699 0.0116536 0.0116342 0.011612 0.0115881 0.011564 0.0115417 0.0115232 0.0115103 0.0115044 0.0115058 0.011514 0.0115278 0.0115461 0.0115675 0.0115911 0.0116166 0.0116441 0.0116751 0.0117144 0.0117154 0.0117039 0.0116942 0.0116836 0.011671 0.0116555 0.0116369 0.0116156 0.0115923 0.0115684 0.0115457 0.0115264 0.0115123 0.0115048 0.0115045 0.0115113 0.0115242 0.011542 0.0115635 0.0115877 0.0116139 0.0116424 0.0116741 0.011714 0.011715 0.0117034 0.011694 0.0116839 0.0116719 0.0116572 0.0116395 0.0116191 0.0115967 0.0115733 0.0115507 0.0115308 0.0115156 0.0115067 0.0115048 0.01151 0.0115217 0.0115387 0.0115599 0.0115842 0.011611 0.0116403 0.011673 0.0117137 0.0117146 0.0117028 0.0116935 0.0116838 0.0116724 0.0116584 0.0116417 0.0116224 0.0116011 0.0115787 0.0115566 0.0115367 0.0115208 0.0115106 0.011507 0.0115104 0.0115204 0.0115361 0.0115565 0.0115806 0.0116077 0.0116378 0.0116716 0.0117133 0.0117141 0.0117018 0.0116926 0.0116832 0.011672 0.0116586 0.0116428 0.0116247 0.0116049 0.0115841 0.0115634 0.0115443 0.0115284 0.0115173 0.0115121 0.0115135 0.0115214 0.0115351 0.0115539 0.0115771 0.011604 0.0116347 0.0116696 0.0117128 0.0117134 0.0117003 0.011691 0.0116815 0.0116701 0.0116569 0.0116418 0.011625 0.0116071 0.0115884 0.01157 0.0115528 0.011538 0.0115271 0.011521 0.0115206 0.0115259 0.0115369 0.0115533 0.0115744 0.0116001 0.0116309 0.011667 0.0117123 0.0117126 0.0116981 0.0116887 0.0116782 0.0116659 0.0116524 0.0116378 0.0116222 0.0116062 0.0115902 0.0115748 0.0115607 0.0115487 0.0115396 0.0115341 0.0115329 0.0115362 0.0115443 0.0115572 0.0115748 0.0115977 0.0116269 0.0116637 0.0117115 0.0117111 0.0116957 0.0116855 0.0116727 0.0116588 0.0116445 0.0116299 0.0116153 0.0116012 0.011588 0.011576 0.0115659 0.011558 0.0115526 0.01155 0.0115504 0.0115538 0.0115602 0.0115696 0.0115828 0.0116005 0.0116248 0.0116594 0.0117097 0.0117078 0.0116947 0.0116823 0.0116649 0.0116485 0.0116327 0.0116177 0.0116037 0.0115911 0.0115804 0.011572 0.0115661 0.011563 0.0115627 0.0115652 0.0115701 0.0115771 0.0115855 0.0115951 0.0116054 0.0116174 0.0116325 0.0116573 0.0117032 0.0117063 0.0117058 0.0116789 0.0116537 0.0116336 0.0116157 0.0116 0.0115864 0.0115752 0.0115667 0.0115613 0.0115594 0.011561 0.0115663 0.0115748 0.0115864 0.0116003 0.0116157 0.0116316 0.0116468 0.0116598 0.0116702 0.0116741 0.011696 0.0117483 0.011715 0.011657 0.0116306 0.0116064 0.0115872 0.0115712 0.0115585 0.0115491 0.0115433 0.0115412 0.0115432 0.0115494 0.0115597 0.0115741 0.0115925 0.0116143 0.0116388 0.0116652 0.011692 0.0117173 0.0117385 0.0117522 0.011741 0.0116909 0.0115754 0.0115836 0.0115529 0.0115269 0.0115032 0.0114854 0.0114745 0.0114706 0.0114734 0.0114819 0.0114949 0.0115114 0.0115302 0.0115508 0.011573 0.0115971 0.0116235 0.0116528 0.0116857 0.0117222 0.0117595 0.0117919 0.0117368 0.0116316 0.0117384 0.0117501 0.0117593 0.0117551 0.0117411 0.011719 0.0116902 0.0116567 0.0116205 0.0115839 0.0115494 0.0115195 0.0114963 0.0114812 0.0114754 0.0114796 0.0114941 0.0115196 0.011557 0.0116062 0.0116767 0.0117368 0.0120628 0.0117464 0.0117508 0.0117461 0.0117309 0.0117124 0.0116906 0.0116663 0.0116402 0.011613 0.0115857 0.011559 0.0115341 0.0115121 0.0114942 0.0114815 0.0114752 0.0114766 0.0114865 0.0115061 0.0115362 0.0115796 0.0116333 0.01174 0.0117759 0.0116836 0.0116688 0.011668 0.0116621 0.0116528 0.0116409 0.0116274 0.0116126 0.0115972 0.0115816 0.0115664 0.0115523 0.0115401 0.0115306 0.0115245 0.0115225 0.0115253 0.0115334 0.011547 0.0115667 0.0115922 0.0116272 0.011661 0.0116556 0.0116535 0.0116413 0.0116306 0.0116249 0.0116184 0.0116108 0.011602 0.0115923 0.0115822 0.0115722 0.0115629 0.0115547 0.0115483 0.0115442 0.0115428 0.0115446 0.0115497 0.0115581 0.0115698 0.0115847 0.0116023 0.0116222 0.0116358 0.0116441 0.0116549 0.0116443 0.0116285 0.0116164 0.0116061 0.0115964 0.011587 0.0115779 0.0115693 0.0115616 0.0115551 0.0115503 0.0115476 0.0115471 0.0115493 0.011554 0.0115613 0.0115709 0.0115826 0.011596 0.0116108 0.0116254 0.0116398 0.0116598 0.0116619 0.011654 0.0116379 0.0116223 0.0116077 0.0115941 0.0115814 0.0115699 0.0115599 0.0115518 0.0115459 0.0115425 0.0115417 0.0115436 0.0115481 0.0115551 0.0115643 0.0115753 0.0115878 0.0116015 0.011616 0.011631 0.0116501 0.0116757 0.0116681 0.0116622 0.011648 0.0116319 0.0116151 0.0115985 0.0115825 0.0115678 0.011555 0.0115449 0.0115378 0.0115341 0.0115339 0.0115368 0.0115428 0.0115514 0.0115621 0.0115745 0.0115882 0.0116029 0.0116185 0.011636 0.0116589 0.0116861 0.011672 0.0116675 0.0116554 0.0116403 0.0116234 0.0116054 0.0115872 0.0115698 0.0115541 0.0115412 0.011532 0.0115269 0.011526 0.011529 0.0115356 0.0115452 0.011557 0.0115706 0.0115857 0.0116018 0.0116193 0.0116393 0.0116646 0.0116922 0.0116739 0.0116704 0.0116599 0.0116463 0.0116302 0.0116121 0.011593 0.0115738 0.0115558 0.0115404 0.0115287 0.0115215 0.0115192 0.0115216 0.0115281 0.0115381 0.0115508 0.0115655 0.0115818 0.0115995 0.0116189 0.011641 0.0116677 0.0116956 0.0116746 0.0116716 0.0116622 0.01165 0.011635 0.0116176 0.0115985 0.0115786 0.0115591 0.0115416 0.0115276 0.0115182 0.0115142 0.0115153 0.0115213 0.0115313 0.0115444 0.01156 0.0115774 0.0115966 0.0116177 0.0116415 0.0116691 0.0116971 0.0116744 0.0116719 0.0116633 0.011652 0.0116381 0.0116215 0.0116029 0.011583 0.0115628 0.0115441 0.0115282 0.0115169 0.0115109 0.0115106 0.0115157 0.0115253 0.0115386 0.0115547 0.0115732 0.0115937 0.0116161 0.0116411 0.0116694 0.0116976 0.0116738 0.0116716 0.0116634 0.0116529 0.0116398 0.0116242 0.0116063 0.0115867 0.0115665 0.0115471 0.0115301 0.0115172 0.0115094 0.0115076 0.0115114 0.0115204 0.0115336 0.0115501 0.0115693 0.0115907 0.0116143 0.0116402 0.0116691 0.0116975 0.0116731 0.011671 0.0116631 0.0116531 0.0116407 0.0116258 0.0116087 0.0115898 0.0115699 0.0115504 0.0115328 0.0115187 0.0115095 0.0115062 0.0115087 0.0115168 0.0115295 0.011546 0.0115657 0.0115878 0.0116123 0.0116389 0.0116684 0.0116972 0.0116721 0.0116701 0.0116624 0.0116528 0.0116409 0.0116267 0.0116103 0.0115921 0.0115729 0.0115538 0.0115361 0.0115213 0.0115111 0.0115063 0.0115075 0.0115145 0.0115264 0.0115427 0.0115624 0.011585 0.01161 0.0116374 0.0116674 0.0116967 0.0116708 0.0116689 0.0116615 0.0116521 0.0116406 0.0116268 0.0116111 0.0115938 0.0115755 0.0115571 0.0115397 0.0115249 0.011514 0.0115081 0.0115079 0.0115136 0.0115245 0.01154 0.0115595 0.0115821 0.0116075 0.0116355 0.0116662 0.0116961 0.0116692 0.0116675 0.0116602 0.011651 0.0116397 0.0116262 0.0116111 0.0115946 0.0115773 0.01156 0.0115436 0.0115293 0.0115183 0.0115117 0.0115103 0.0115146 0.0115241 0.0115385 0.0115571 0.0115793 0.0116048 0.0116332 0.0116647 0.0116953 0.0116671 0.0116657 0.0116584 0.0116492 0.0116378 0.0116245 0.0116099 0.0115943 0.0115782 0.0115624 0.0115474 0.0115342 0.0115237 0.011517 0.0115149 0.0115179 0.0115259 0.0115387 0.0115559 0.0115771 0.011602 0.0116306 0.0116628 0.0116941 0.0116644 0.0116634 0.0116562 0.0116466 0.0116345 0.0116211 0.0116069 0.0115923 0.0115777 0.0115636 0.0115505 0.0115391 0.01153 0.011524 0.0115218 0.011524 0.0115306 0.0115416 0.0115569 0.0115763 0.0115999 0.0116278 0.0116603 0.0116923 0.0116612 0.0116612 0.0116538 0.0116427 0.0116295 0.0116158 0.011602 0.0115884 0.0115753 0.0115632 0.0115524 0.0115433 0.0115364 0.0115322 0.011531 0.0115333 0.0115393 0.0115488 0.0115621 0.0115792 0.0116001 0.0116259 0.0116577 0.0116897 0.011658 0.0116607 0.0116516 0.0116374 0.0116225 0.0116083 0.0115947 0.011582 0.0115706 0.0115606 0.0115523 0.0115461 0.011542 0.0115404 0.0115415 0.0115454 0.0115521 0.0115616 0.0115738 0.0115886 0.0116064 0.011628 0.0116563 0.0116867 0.0116601 0.0116663 0.0116508 0.0116312 0.0116141 0.0115987 0.0115851 0.0115732 0.0115632 0.0115553 0.0115496 0.0115464 0.0115455 0.0115473 0.0115516 0.0115586 0.011568 0.0115797 0.0115932 0.0116081 0.0116241 0.0116407 0.0116614 0.0116858 0.0116834 0.0116853 0.0116518 0.0116252 0.0116048 0.0115877 0.0115736 0.0115622 0.0115535 0.0115476 0.0115444 0.0115439 0.0115463 0.0115514 0.0115593 0.01157 0.0115832 0.0115989 0.0116167 0.0116359 0.0116554 0.0116737 0.0116859 0.0117042 0.0117528 0.0117026 0.0116416 0.0116154 0.0115916 0.0115731 0.0115584 0.0115473 0.0115397 0.0115356 0.0115347 0.011537 0.0115424 0.0115505 0.0115614 0.0115749 0.0115908 0.011609 0.0116293 0.0116515 0.0116752 0.0117012 0.0117234 0.0117288 0.0117572 0.0116076 0.0116342 0.0116233 0.0116143 0.0116031 0.0115925 0.0115833 0.0115762 0.0115717 0.0115698 0.0115705 0.0115734 0.0115777 0.0115826 0.0115874 0.0115914 0.0115942 0.0115959 0.0115966 0.0115977 0.0115992 0.0116197 0.0115979 0.0115438 0.0116834 0.0117017 0.0117069 0.0116988 0.0116828 0.0116614 0.0116363 0.0116094 0.0115824 0.011557 0.0115347 0.0115169 0.0115047 0.0114989 0.0115002 0.0115091 0.0115259 0.0115514 0.0115865 0.0116313 0.0116941 0.0117449 0.0120388 0.0116504 0.011648 0.0116606 0.0116577 0.011651 0.0116399 0.0116256 0.0116089 0.0115909 0.0115726 0.011555 0.0115389 0.0115254 0.0115153 0.0115091 0.0115079 0.0115122 0.0115228 0.0115405 0.0115664 0.0116028 0.0116494 0.0117362 0.0117847 0.0116596 0.0116382 0.0116331 0.0116267 0.0116176 0.0116071 0.0115955 0.0115831 0.0115705 0.011558 0.0115461 0.0115354 0.0115264 0.0115198 0.0115161 0.011516 0.01152 0.0115287 0.0115427 0.0115626 0.0115889 0.0116244 0.011662 0.0116688 0.0116495 0.0116297 0.0116176 0.0116079 0.0115985 0.0115887 0.0115787 0.0115689 0.0115593 0.0115504 0.0115424 0.0115357 0.0115307 0.0115276 0.011527 0.0115291 0.0115342 0.0115426 0.0115546 0.0115702 0.0115892 0.0116113 0.0116264 0.0116323 0.0116452 0.0116305 0.011616 0.0116031 0.0115915 0.0115804 0.0115699 0.0115601 0.0115512 0.0115436 0.0115374 0.0115329 0.0115304 0.01153 0.0115318 0.0115362 0.011543 0.0115523 0.0115642 0.0115784 0.0115946 0.0116112 0.0116243 0.0116395 0.0116452 0.0116344 0.0116205 0.0116061 0.0115922 0.0115791 0.0115668 0.0115556 0.0115459 0.011538 0.0115322 0.0115285 0.0115273 0.0115286 0.0115323 0.0115384 0.0115468 0.0115575 0.0115701 0.0115846 0.0116004 0.0116168 0.0116336 0.0116558 0.0116465 0.0116384 0.0116262 0.0116116 0.0115966 0.0115817 0.0115675 0.0115544 0.0115431 0.011534 0.0115274 0.0115237 0.0115229 0.0115249 0.0115297 0.0115372 0.011547 0.0115589 0.0115727 0.0115881 0.0116049 0.0116232 0.0116439 0.0116692 0.0116476 0.0116413 0.0116308 0.0116171 0.0116018 0.0115859 0.0115702 0.0115555 0.0115423 0.0115316 0.0115238 0.0115192 0.0115181 0.0115203 0.0115256 0.0115339 0.0115448 0.0115578 0.0115728 0.0115895 0.0116077 0.0116282 0.0116516 0.011678 0.0116479 0.0116429 0.0116338 0.0116212 0.0116064 0.0115903 0.0115738 0.0115577 0.0115431 0.0115307 0.0115214 0.0115156 0.0115137 0.0115155 0.011521 0.0115297 0.0115413 0.0115553 0.0115713 0.0115893 0.0116092 0.0116315 0.0116564 0.0116832 0.0116473 0.0116433 0.0116354 0.0116239 0.0116099 0.0115941 0.0115774 0.0115606 0.0115448 0.011531 0.0115202 0.0115131 0.0115101 0.0115113 0.0115165 0.0115254 0.0115374 0.0115521 0.0115691 0.0115883 0.0116095 0.0116333 0.011659 0.0116859 0.0116462 0.011643 0.0116359 0.0116253 0.0116121 0.0115969 0.0115803 0.0115634 0.0115469 0.0115322 0.0115202 0.0115118 0.0115077 0.011508 0.0115126 0.0115213 0.0115335 0.0115487 0.0115665 0.0115866 0.011609 0.0116338 0.0116601 0.0116871 0.0116449 0.0116422 0.0116357 0.0116257 0.0116133 0.0115987 0.0115826 0.0115658 0.0115491 0.0115338 0.0115209 0.0115115 0.0115063 0.0115056 0.0115096 0.0115178 0.01153 0.0115454 0.0115638 0.0115847 0.011608 0.0116335 0.0116603 0.0116875 0.0116434 0.011641 0.0116349 0.0116255 0.0116136 0.0115997 0.0115841 0.0115676 0.0115512 0.0115357 0.0115224 0.0115122 0.011506 0.0115044 0.0115075 0.0115152 0.011527 0.0115425 0.0115612 0.0115826 0.0116065 0.0116326 0.0116599 0.0116874 0.0116416 0.0116395 0.0116338 0.0116247 0.0116133 0.0115999 0.0115848 0.0115689 0.0115528 0.0115376 0.0115242 0.0115136 0.0115068 0.0115044 0.0115066 0.0115135 0.0115248 0.01154 0.0115587 0.0115804 0.0116047 0.0116313 0.0116591 0.0116872 0.0116395 0.0116377 0.0116323 0.0116235 0.0116124 0.0115993 0.0115848 0.0115694 0.011554 0.0115393 0.0115262 0.0115157 0.0115086 0.0115055 0.0115069 0.011513 0.0115235 0.0115382 0.0115565 0.0115782 0.0116026 0.0116296 0.0116579 0.0116867 0.0116369 0.0116356 0.0116304 0.0116219 0.0116109 0.011598 0.0115839 0.0115693 0.0115546 0.0115408 0.0115284 0.0115183 0.0115112 0.0115078 0.0115086 0.0115139 0.0115235 0.0115373 0.011555 0.0115761 0.0116004 0.0116275 0.0116563 0.0116859 0.0116338 0.0116331 0.0116284 0.0116198 0.0116086 0.0115958 0.0115821 0.0115681 0.0115545 0.0115418 0.0115304 0.0115212 0.0115146 0.0115113 0.0115118 0.0115163 0.011525 0.0115378 0.0115544 0.0115747 0.0115983 0.0116253 0.0116544 0.0116847 0.0116303 0.0116306 0.0116263 0.0116172 0.0116054 0.0115924 0.0115791 0.0115659 0.0115535 0.0115421 0.0115321 0.0115241 0.0115185 0.0115158 0.0115164 0.0115206 0.0115285 0.0115402 0.0115556 0.0115746 0.011597 0.0116231 0.0116521 0.0116829 0.0116272 0.0116294 0.0116251 0.0116144 0.0116015 0.011588 0.011575 0.0115628 0.0115515 0.0115417 0.0115334 0.0115269 0.0115228 0.0115211 0.0115224 0.0115268 0.0115344 0.0115454 0.0115596 0.0115771 0.0115978 0.0116221 0.0116498 0.0116808 0.0116275 0.0116324 0.0116259 0.0116118 0.011597 0.011583 0.0115701 0.0115586 0.0115487 0.0115404 0.0115339 0.0115294 0.011527 0.011527 0.0115295 0.0115348 0.0115429 0.0115538 0.0115674 0.0115837 0.0116024 0.0116239 0.0116488 0.0116792 0.0116397 0.0116454 0.0116306 0.0116105 0.0115932 0.0115781 0.0115652 0.0115543 0.0115454 0.0115386 0.0115339 0.0115312 0.0115308 0.0115328 0.0115371 0.0115439 0.0115533 0.0115651 0.0115793 0.0115954 0.011613 0.0116316 0.0116514 0.0116803 0.0116815 0.0116723 0.0116377 0.0116112 0.011591 0.0115746 0.0115613 0.0115507 0.0115425 0.0115368 0.0115335 0.0115326 0.011534 0.0115378 0.0115441 0.0115529 0.0115639 0.0115773 0.0115928 0.01161 0.0116283 0.0116462 0.0116607 0.0116855 0.0117382 0.011682 0.011634 0.0116116 0.0115924 0.0115771 0.0115646 0.0115545 0.0115469 0.0115418 0.0115391 0.0115389 0.0115412 0.011546 0.0115531 0.0115624 0.0115736 0.0115864 0.0116007 0.0116161 0.0116322 0.0116505 0.011661 0.0116736 0.0117292 0.0115881 0.0116121 0.0116007 0.011591 0.0115795 0.0115685 0.011559 0.0115513 0.0115459 0.0115429 0.0115424 0.0115441 0.0115478 0.0115532 0.0115599 0.0115676 0.0115762 0.0115859 0.0115968 0.0116096 0.0116238 0.0116484 0.0116123 0.0114445 0.0116136 0.011638 0.0116486 0.0116444 0.011633 0.0116166 0.0115975 0.0115772 0.0115574 0.0115395 0.0115247 0.0115139 0.011508 0.0115076 0.0115129 0.0115244 0.0115426 0.0115681 0.0116017 0.0116441 0.0117013 0.0117548 0.011996 0.0116035 0.0115982 0.0116155 0.0116151 0.0116102 0.0116011 0.0115894 0.0115761 0.0115622 0.0115485 0.0115357 0.0115246 0.011516 0.0115103 0.0115082 0.0115103 0.011517 0.011529 0.011547 0.0115721 0.0116059 0.0116489 0.0117228 0.0117818 0.0116302 0.0116072 0.0116004 0.0115956 0.0115883 0.0115797 0.01157 0.0115599 0.0115496 0.0115397 0.0115307 0.0115229 0.0115169 0.0115131 0.0115118 0.0115137 0.0115191 0.0115286 0.0115427 0.0115622 0.0115877 0.0116209 0.0116597 0.0116797 0.0116367 0.0116129 0.0115981 0.0115875 0.0115776 0.0115678 0.0115581 0.0115488 0.0115402 0.0115324 0.0115256 0.0115203 0.0115167 0.0115149 0.0115154 0.0115184 0.0115243 0.0115332 0.0115457 0.0115618 0.0115816 0.0116045 0.0116246 0.0116345 0.0116372 0.011618 0.0116012 0.0115873 0.0115748 0.0115633 0.0115527 0.011543 0.0115345 0.0115274 0.0115218 0.0115179 0.0115159 0.0115159 0.011518 0.0115225 0.0115294 0.0115388 0.011551 0.0115658 0.0115828 0.0116008 0.0116157 0.0116288 0.0116356 0.011621 0.0116054 0.0115905 0.0115764 0.0115632 0.0115512 0.0115404 0.0115312 0.0115238 0.0115184 0.011515 0.0115139 0.011515 0.0115185 0.0115243 0.0115324 0.0115428 0.0115556 0.0115706 0.0115872 0.0116042 0.0116208 0.0116402 0.0116334 0.0116224 0.0116088 0.0115943 0.0115796 0.0115653 0.011552 0.0115399 0.0115296 0.0115214 0.0115155 0.011512 0.0115112 0.0115129 0.0115172 0.011524 0.0115333 0.0115449 0.0115587 0.0115745 0.0115918 0.0116102 0.01163 0.0116537 0.0116312 0.0116225 0.011611 0.0115975 0.0115829 0.0115681 0.0115539 0.0115407 0.0115292 0.0115199 0.0115132 0.0115092 0.0115082 0.0115101 0.0115148 0.0115224 0.0115326 0.0115452 0.01156 0.0115769 0.0115956 0.0116159 0.0116385 0.0116642 0.0116288 0.011622 0.0116121 0.0115998 0.0115857 0.0115709 0.0115561 0.0115421 0.0115296 0.0115193 0.0115116 0.0115069 0.0115054 0.0115071 0.011512 0.01152 0.0115308 0.0115442 0.0115601 0.0115781 0.0115982 0.0116202 0.0116447 0.0116712 0.0116264 0.011621 0.0116124 0.0116011 0.0115877 0.0115731 0.0115582 0.0115437 0.0115305 0.0115193 0.0115107 0.0115052 0.011503 0.0115043 0.0115091 0.0115173 0.0115285 0.0115426 0.0115593 0.0115784 0.0115996 0.0116231 0.0116486 0.0116754 0.0116239 0.0116195 0.011612 0.0116016 0.0115889 0.0115747 0.0115599 0.0115452 0.0115315 0.0115197 0.0115103 0.011504 0.0115012 0.011502 0.0115065 0.0115146 0.0115261 0.0115406 0.011558 0.0115779 0.0116001 0.0116245 0.0116507 0.0116777 0.0116215 0.0116179 0.011611 0.0116014 0.0115893 0.0115757 0.0115611 0.0115465 0.0115326 0.0115204 0.0115105 0.0115036 0.0115001 0.0115004 0.0115044 0.0115123 0.0115237 0.0115385 0.0115563 0.0115768 0.0115998 0.0116249 0.0116516 0.0116787 0.0116191 0.011616 0.0116097 0.0116006 0.0115892 0.011576 0.0115618 0.0115474 0.0115336 0.0115212 0.011511 0.0115036 0.0114997 0.0114994 0.011503 0.0115105 0.0115217 0.0115365 0.0115545 0.0115755 0.011599 0.0116246 0.0116516 0.0116792 0.0116166 0.011614 0.0116081 0.0115995 0.0115884 0.0115757 0.0115619 0.0115478 0.0115343 0.011522 0.0115118 0.0115042 0.0115 0.0114992 0.0115023 0.0115093 0.0115202 0.0115348 0.0115528 0.0115738 0.0115976 0.0116236 0.0116511 0.0116792 0.0116138 0.0116117 0.0116063 0.011598 0.0115873 0.0115748 0.0115614 0.0115477 0.0115346 0.0115228 0.0115127 0.0115053 0.0115008 0.0114997 0.0115024 0.0115089 0.0115193 0.0115334 0.0115511 0.0115721 0.0115959 0.0116222 0.0116501 0.011679 0.0116107 0.0116092 0.0116043 0.0115963 0.0115856 0.0115733 0.0115602 0.0115471 0.0115346 0.0115233 0.0115138 0.0115066 0.0115023 0.0115011 0.0115034 0.0115094 0.0115192 0.0115328 0.01155 0.0115705 0.0115941 0.0116203 0.0116487 0.0116785 0.0116073 0.0116068 0.0116024 0.0115944 0.0115836 0.0115712 0.0115585 0.0115459 0.0115341 0.0115237 0.0115149 0.0115083 0.0115043 0.0115032 0.0115053 0.011511 0.0115202 0.011533 0.0115494 0.0115692 0.0115922 0.0116181 0.0116467 0.0116775 0.0116044 0.0116052 0.0116013 0.0115926 0.0115811 0.0115686 0.0115561 0.0115442 0.0115333 0.0115238 0.011516 0.0115102 0.0115068 0.0115061 0.0115083 0.0115137 0.0115224 0.0115345 0.01155 0.0115687 0.0115907 0.0116159 0.0116443 0.0116758 0.0116037 0.0116064 0.0116019 0.0115915 0.0115787 0.0115658 0.0115534 0.0115421 0.0115322 0.0115237 0.0115171 0.0115124 0.0115099 0.0115098 0.0115123 0.0115178 0.0115262 0.0115377 0.0115523 0.0115698 0.0115903 0.0116139 0.0116413 0.0116735 0.0116098 0.0116137 0.0116057 0.0115916 0.0115769 0.0115632 0.0115509 0.0115401 0.011531 0.0115237 0.0115182 0.0115147 0.0115133 0.0115141 0.0115174 0.0115233 0.0115318 0.0115431 0.011557 0.0115734 0.0115921 0.0116133 0.0116383 0.0116706 0.0116312 0.0116309 0.0116133 0.0115937 0.0115766 0.0115617 0.0115492 0.0115388 0.0115304 0.0115239 0.0115195 0.0115171 0.0115169 0.0115189 0.0115231 0.0115298 0.0115389 0.0115505 0.0115642 0.0115801 0.0115974 0.0116157 0.0116365 0.0116676 0.0116736 0.0116548 0.0116215 0.0115971 0.0115779 0.0115622 0.0115495 0.0115392 0.0115312 0.0115254 0.0115218 0.0115203 0.011521 0.011524 0.0115293 0.011537 0.0115468 0.0115589 0.011573 0.0115887 0.0116057 0.0116223 0.0116376 0.011664 0.0117159 0.0116596 0.0116189 0.0115975 0.011579 0.0115639 0.0115513 0.011541 0.0115331 0.0115274 0.011524 0.0115229 0.0115242 0.0115277 0.0115336 0.0115416 0.0115517 0.0115637 0.0115775 0.0115929 0.0116093 0.0116272 0.011636 0.0116513 0.011697 0.0115885 0.0116008 0.0115894 0.0115784 0.0115665 0.0115552 0.0115453 0.0115373 0.0115313 0.0115277 0.0115264 0.0115275 0.0115307 0.0115358 0.0115425 0.0115505 0.0115597 0.0115703 0.0115822 0.0115962 0.0116103 0.0116356 0.0115826 0.0113723 0.011565 0.0115928 0.0116054 0.0116029 0.0115936 0.0115802 0.0115647 0.0115487 0.0115336 0.0115205 0.0115104 0.011504 0.0115017 0.0115041 0.0115116 0.0115244 0.011543 0.0115682 0.0116007 0.0116415 0.0116949 0.0117513 0.011941 0.0115651 0.0115567 0.0115791 0.0115807 0.0115777 0.0115704 0.0115607 0.0115499 0.0115387 0.011528 0.0115185 0.0115108 0.0115054 0.0115028 0.0115035 0.0115079 0.0115164 0.0115295 0.0115479 0.0115725 0.0116044 0.0116453 0.0117072 0.0117706 0.0116087 0.0115844 0.0115758 0.0115711 0.0115642 0.0115562 0.0115475 0.0115386 0.0115298 0.0115216 0.0115145 0.0115088 0.0115049 0.0115031 0.0115038 0.0115074 0.0115142 0.0115246 0.0115393 0.0115587 0.0115836 0.011615 0.011654 0.0116857 0.0116235 0.0115978 0.011581 0.0115695 0.0115593 0.0115495 0.0115402 0.0115314 0.0115234 0.0115165 0.0115109 0.0115067 0.0115042 0.0115037 0.0115052 0.0115092 0.0115158 0.0115254 0.0115383 0.0115547 0.0115747 0.0115985 0.0116226 0.0116393 0.0116275 0.0116055 0.0115869 0.011572 0.0115592 0.0115475 0.011537 0.0115276 0.0115195 0.0115128 0.0115078 0.0115045 0.0115031 0.0115036 0.0115062 0.011511 0.0115182 0.0115279 0.0115404 0.0115555 0.0115732 0.0115925 0.01161 0.0116241 0.0116264 0.0116087 0.0115914 0.0115756 0.0115612 0.0115482 0.0115364 0.011526 0.0115173 0.0115104 0.0115054 0.0115024 0.0115016 0.0115028 0.0115063 0.011512 0.01152 0.0115305 0.0115433 0.0115585 0.0115755 0.0115935 0.0116106 0.0116283 0.0116228 0.0116088 0.0115937 0.0115785 0.0115638 0.0115499 0.0115371 0.0115259 0.0115164 0.0115089 0.0115035 0.0115005 0.0114998 0.0115014 0.0115055 0.011512 0.0115209 0.0115322 0.0115459 0.0115617 0.0115793 0.0115979 0.0116172 0.0116392 0.0116182 0.0116072 0.0115944 0.0115803 0.0115659 0.0115517 0.0115384 0.0115264 0.0115161 0.0115079 0.011502 0.0114987 0.0114978 0.0114997 0.0115041 0.0115112 0.0115208 0.011533 0.0115476 0.0115644 0.011583 0.0116032 0.0116251 0.0116499 0.0116134 0.0116049 0.0115939 0.0115812 0.0115674 0.0115533 0.0115397 0.0115272 0.0115162 0.0115074 0.0115009 0.0114971 0.011496 0.0114978 0.0115023 0.0115098 0.0115201 0.011533 0.0115485 0.0115663 0.0115861 0.0116079 0.0116318 0.0116581 0.011609 0.0116023 0.0115929 0.0115812 0.0115682 0.0115545 0.0115408 0.011528 0.0115166 0.0115072 0.0115002 0.0114958 0.0114944 0.0114959 0.0115005 0.0115082 0.0115188 0.0115323 0.0115486 0.0115673 0.0115882 0.0116114 0.0116367 0.0116636 0.011605 0.0115996 0.0115913 0.0115807 0.0115684 0.0115551 0.0115416 0.0115287 0.011517 0.0115072 0.0114997 0.0114949 0.0114931 0.0114944 0.0114988 0.0115065 0.0115174 0.0115313 0.0115481 0.0115676 0.0115894 0.0116136 0.0116397 0.0116669 0.0116015 0.011597 0.0115896 0.0115798 0.0115681 0.0115552 0.011542 0.0115291 0.0115173 0.0115073 0.0114995 0.0114944 0.0114922 0.0114932 0.0114974 0.011505 0.0115159 0.01153 0.0115472 0.0115673 0.0115898 0.0116147 0.0116414 0.0116688 0.0115982 0.0115945 0.0115877 0.0115785 0.0115674 0.011555 0.0115421 0.0115293 0.0115176 0.0115075 0.0114995 0.0114942 0.0114917 0.0114924 0.0114963 0.0115038 0.0115146 0.0115287 0.0115461 0.0115665 0.0115895 0.0116149 0.0116421 0.0116699 0.0115951 0.0115919 0.0115858 0.0115771 0.0115664 0.0115543 0.0115417 0.0115292 0.0115176 0.0115076 0.0114997 0.0114942 0.0114916 0.011492 0.0114957 0.0115029 0.0115135 0.0115275 0.0115449 0.0115654 0.0115886 0.0116144 0.011642 0.0116705 0.011592 0.0115894 0.0115838 0.0115756 0.0115651 0.0115533 0.0115409 0.0115287 0.0115175 0.0115078 0.0115 0.0114946 0.0114919 0.0114922 0.0114956 0.0115025 0.0115128 0.0115265 0.0115436 0.011564 0.0115873 0.0116132 0.0116413 0.0116707 0.0115889 0.011587 0.0115821 0.0115741 0.0115637 0.011552 0.0115398 0.011528 0.0115172 0.0115079 0.0115004 0.0114952 0.0114927 0.0114929 0.0114961 0.0115027 0.0115126 0.0115259 0.0115426 0.0115626 0.0115856 0.0116115 0.01164 0.0116706 0.0115861 0.0115854 0.0115809 0.0115728 0.0115621 0.0115503 0.0115384 0.011527 0.0115167 0.0115079 0.0115009 0.0114962 0.0114938 0.0114941 0.0114973 0.0115035 0.011513 0.0115258 0.0115418 0.0115612 0.0115836 0.0116092 0.0116379 0.0116697 0.011585 0.0115856 0.0115811 0.0115721 0.0115607 0.0115487 0.0115369 0.0115259 0.0115162 0.011508 0.0115017 0.0114974 0.0114954 0.0114959 0.0114991 0.0115052 0.0115143 0.0115265 0.0115418 0.0115602 0.0115817 0.0116065 0.011635 0.0116678 0.011588 0.0115896 0.0115835 0.0115725 0.0115599 0.0115472 0.0115354 0.0115248 0.0115157 0.0115083 0.0115027 0.0114991 0.0114976 0.0114984 0.0115018 0.0115079 0.0115167 0.0115283 0.0115428 0.0115601 0.0115802 0.0116036 0.0116311 0.0116646 0.0115996 0.0115998 0.0115891 0.0115745 0.01156 0.0115466 0.0115346 0.0115243 0.0115157 0.0115089 0.011504 0.0115011 0.0115002 0.0115016 0.0115053 0.0115115 0.0115202 0.0115316 0.0115454 0.0115617 0.0115802 0.0116013 0.0116266 0.0116601 0.0116253 0.0116175 0.0115977 0.0115783 0.0115615 0.011547 0.0115347 0.0115244 0.0115162 0.01151 0.0115057 0.0115034 0.0115033 0.0115053 0.0115095 0.011516 0.011525 0.0115362 0.0115497 0.0115653 0.0115824 0.0116008 0.0116223 0.0116542 0.0116628 0.0116369 0.0116057 0.0115829 0.0115642 0.0115488 0.0115361 0.0115258 0.0115177 0.0115117 0.0115078 0.011506 0.0115064 0.0115089 0.0115137 0.0115208 0.0115301 0.0115415 0.011555 0.0115702 0.0115867 0.011603 0.011619 0.0116466 0.0116912 0.01164 0.0116063 0.0115847 0.0115666 0.0115513 0.0115386 0.0115281 0.0115198 0.0115137 0.0115099 0.0115083 0.0115089 0.0115118 0.0115169 0.0115243 0.0115337 0.0115452 0.0115585 0.0115734 0.0115891 0.0116063 0.0116118 0.0116288 0.0116661 0.011589 0.0115901 0.0115771 0.0115644 0.0115516 0.0115397 0.0115296 0.0115212 0.0115151 0.0115112 0.0115096 0.0115103 0.0115132 0.0115181 0.0115249 0.0115334 0.0115434 0.0115551 0.0115684 0.0115841 0.0115993 0.0116256 0.0115581 0.0113186 0.0115276 0.0115571 0.0115711 0.0115699 0.0115623 0.0115511 0.0115384 0.0115256 0.0115138 0.011504 0.011497 0.0114932 0.0114932 0.0114972 0.0115057 0.0115189 0.0115373 0.0115617 0.0115926 0.0116314 0.0116804 0.0117382 0.0118793 0.0115381 0.0115275 0.0115528 0.011555 0.0115525 0.0115459 0.0115373 0.0115279 0.0115185 0.0115098 0.0115025 0.011497 0.0114938 0.0114933 0.0114957 0.0115016 0.0115112 0.0115251 0.0115437 0.0115677 0.0115982 0.011637 0.0116885 0.0117522 0.0115908 0.0115661 0.0115564 0.0115519 0.0115449 0.0115372 0.0115289 0.0115206 0.0115127 0.0115057 0.0114999 0.0114956 0.0114932 0.011493 0.0114951 0.0115 0.0115079 0.0115192 0.0115343 0.0115536 0.0115779 0.0116075 0.0116457 0.0116855 0.0116112 0.0115846 0.0115666 0.0115543 0.0115438 0.0115339 0.0115246 0.0115161 0.0115086 0.0115023 0.0114974 0.011494 0.0114924 0.0114928 0.0114952 0.0115001 0.0115074 0.0115176 0.0115309 0.0115476 0.0115677 0.011592 0.0116193 0.0116429 0.0116174 0.0115939 0.0115742 0.0115585 0.0115453 0.0115335 0.0115231 0.0115139 0.0115061 0.0114998 0.0114952 0.0114924 0.0114915 0.0114924 0.0114954 0.0115007 0.0115082 0.0115182 0.0115309 0.0115463 0.0115644 0.0115849 0.0116052 0.0116217 0.0116166 0.011597 0.0115785 0.011562 0.0115475 0.0115345 0.011523 0.011513 0.0115047 0.0114982 0.0114936 0.0114909 0.0114903 0.0114917 0.0114953 0.0115011 0.0115091 0.0115195 0.0115324 0.0115476 0.011565 0.0115838 0.0116019 0.0116187 0.0116122 0.0115964 0.01158 0.0115642 0.0115494 0.0115358 0.0115236 0.0115129 0.0115041 0.0114971 0.0114923 0.0114896 0.0114891 0.0114908 0.0114947 0.0115011 0.0115097 0.0115208 0.0115342 0.0115499 0.0115675 0.0115862 0.0116052 0.0116254 0.0116061 0.0115936 0.0115796 0.011565 0.0115506 0.0115369 0.0115243 0.0115132 0.0115038 0.0114964 0.0114912 0.0114883 0.0114878 0.0114896 0.0114938 0.0115006 0.0115098 0.0115216 0.0115358 0.0115522 0.0115706 0.0115904 0.0116114 0.0116346 0.0115996 0.0115899 0.011578 0.0115648 0.0115511 0.0115376 0.0115249 0.0115135 0.0115037 0.011496 0.0114904 0.0114872 0.0114865 0.0114883 0.0114927 0.0114998 0.0115095 0.0115219 0.0115368 0.0115541 0.0115735 0.0115946 0.0116177 0.011643 0.0115936 0.0115861 0.0115758 0.0115639 0.011551 0.0115379 0.0115253 0.0115137 0.0115037 0.0114956 0.0114897 0.0114863 0.0114854 0.0114871 0.0114915 0.0114988 0.0115089 0.0115218 0.0115374 0.0115555 0.0115758 0.0115983 0.011623 0.0116493 0.0115883 0.0115824 0.0115734 0.0115625 0.0115504 0.0115378 0.0115254 0.0115138 0.0115036 0.0114953 0.0114892 0.0114855 0.0114844 0.011486 0.0114904 0.0114978 0.0115081 0.0115213 0.0115374 0.0115562 0.0115774 0.011601 0.0116268 0.0116537 0.0115837 0.0115789 0.011571 0.011561 0.0115496 0.0115374 0.0115252 0.0115137 0.0115035 0.0114951 0.0114888 0.0114849 0.0114836 0.0114851 0.0114894 0.0114968 0.0115072 0.0115206 0.0115371 0.0115564 0.0115783 0.0116027 0.0116292 0.0116565 0.0115799 0.0115758 0.0115687 0.0115594 0.0115485 0.0115367 0.0115248 0.0115135 0.0115033 0.0114949 0.0114885 0.0114845 0.011483 0.0114844 0.0114886 0.0114959 0.0115063 0.0115198 0.0115365 0.0115561 0.0115785 0.0116035 0.0116305 0.0116583 0.0115765 0.011573 0.0115666 0.0115578 0.0115473 0.0115359 0.0115242 0.0115131 0.011503 0.0114947 0.0114883 0.0114843 0.0114828 0.011484 0.0114881 0.0114952 0.0115055 0.0115189 0.0115356 0.0115554 0.011578 0.0116034 0.011631 0.0116595 0.0115734 0.0115706 0.0115648 0.0115564 0.0115461 0.0115349 0.0115234 0.0115125 0.0115026 0.0114945 0.0114882 0.0114842 0.0114827 0.0114839 0.0114879 0.0114948 0.0115049 0.0115181 0.0115346 0.0115543 0.011577 0.0116026 0.0116306 0.0116603 0.0115709 0.0115689 0.0115636 0.0115553 0.011545 0.0115338 0.0115225 0.0115118 0.0115022 0.0114943 0.0114883 0.0114845 0.011483 0.0114841 0.011488 0.0114948 0.0115046 0.0115175 0.0115336 0.011553 0.0115754 0.011601 0.0116295 0.0116605 0.0115696 0.0115686 0.0115634 0.0115548 0.0115441 0.0115327 0.0115215 0.011511 0.0115018 0.0114943 0.0114885 0.0114849 0.0114836 0.0114848 0.0114886 0.0114952 0.0115047 0.0115172 0.0115328 0.0115515 0.0115735 0.0115987 0.0116274 0.0116598 0.011571 0.0115707 0.0115649 0.0115551 0.0115437 0.0115319 0.0115206 0.0115104 0.0115015 0.0114943 0.011489 0.0114857 0.0114846 0.0114859 0.0114896 0.0114961 0.0115053 0.0115173 0.0115323 0.0115503 0.0115712 0.0115957 0.0116242 0.0116577 0.0115778 0.011577 0.0115687 0.0115568 0.011544 0.0115316 0.0115202 0.0115101 0.0115015 0.0114948 0.0114898 0.0114869 0.0114861 0.0114875 0.0114914 0.0114977 0.0115067 0.0115183 0.0115326 0.0115495 0.0115692 0.0115923 0.0116198 0.0116539 0.0115935 0.0115887 0.0115753 0.01156 0.0115454 0.0115321 0.0115203 0.0115103 0.011502 0.0114956 0.011491 0.0114885 0.011488 0.0114897 0.0114937 0.0115001 0.0115089 0.0115201 0.0115338 0.0115498 0.011568 0.011589 0.0116144 0.011648 0.0116197 0.0116051 0.0115838 0.0115647 0.0115481 0.0115337 0.0115215 0.0115113 0.0115031 0.0114968 0.0114926 0.0114904 0.0114903 0.0114923 0.0114966 0.0115031 0.0115119 0.011523 0.0115362 0.0115515 0.0115684 0.0115868 0.0116084 0.0116403 0.0116495 0.01162 0.0115914 0.0115699 0.0115516 0.0115363 0.0115235 0.0115131 0.0115047 0.0114986 0.0114945 0.0114925 0.0114927 0.011495 0.0114995 0.0115063 0.0115153 0.0115264 0.0115395 0.0115544 0.0115706 0.0115863 0.0116023 0.0116297 0.0116666 0.0116221 0.0115943 0.0115723 0.0115543 0.0115388 0.0115258 0.011515 0.0115065 0.0115002 0.0114961 0.0114942 0.0114946 0.0114971 0.0115018 0.0115088 0.0115179 0.011529 0.011542 0.0115568 0.0115723 0.0115893 0.0115925 0.0116104 0.0116395 0.0115897 0.0115811 0.0115667 0.0115522 0.0115387 0.0115264 0.0115159 0.0115074 0.0115011 0.0114971 0.0114953 0.0114957 0.0114984 0.0115031 0.0115099 0.0115184 0.0115287 0.0115408 0.0115548 0.0115711 0.0115866 0.0116132 0.0115348 0.0112852 0.0115018 0.011531 0.0115451 0.0115443 0.0115377 0.0115281 0.0115172 0.0115066 0.0114971 0.0114896 0.0114846 0.0114825 0.0114838 0.0114887 0.0114975 0.0115105 0.0115282 0.0115512 0.01158 0.011616 0.0116602 0.0117169 0.0118125 0.0115199 0.0115078 0.0115342 0.0115361 0.0115334 0.0115269 0.0115188 0.0115102 0.0115019 0.0114945 0.0114886 0.0114846 0.0114828 0.0114836 0.0114872 0.011494 0.0115043 0.0115184 0.0115368 0.0115601 0.0115888 0.0116253 0.0116674 0.0117282 0.0115774 0.0115528 0.0115422 0.0115373 0.01153 0.011522 0.0115138 0.0115057 0.0114983 0.011492 0.011487 0.0114837 0.0114824 0.0114831 0.0114863 0.0114921 0.0115008 0.0115126 0.011528 0.0115472 0.0115708 0.0115987 0.0116354 0.0116796 0.0116003 0.0115736 0.011555 0.011542 0.0115311 0.011521 0.0115116 0.0115032 0.0114959 0.0114899 0.0114854 0.0114827 0.0114817 0.0114828 0.0114859 0.0114914 0.0114994 0.01151 0.0115237 0.0115404 0.0115606 0.011585 0.0116141 0.0116434 0.0116075 0.0115834 0.011563 0.0115469 0.0115334 0.0115215 0.0115111 0.011502 0.0114944 0.0114884 0.0114841 0.0114816 0.011481 0.0114824 0.0114857 0.0114913 0.0114992 0.0115094 0.0115223 0.0115378 0.0115562 0.0115775 0.0116001 0.0116196 0.0116066 0.0115862 0.011567 0.0115502 0.0115355 0.0115226 0.0115113 0.0115016 0.0114935 0.0114873 0.011483 0.0114806 0.0114802 0.0114818 0.0114854 0.0114913 0.0114994 0.0115098 0.0115225 0.0115378 0.0115553 0.0115746 0.0115938 0.0116105 0.0116014 0.0115847 0.0115677 0.0115516 0.0115368 0.0115235 0.0115117 0.0115015 0.0114931 0.0114866 0.0114821 0.0114796 0.0114793 0.0114811 0.011485 0.0114912 0.0114996 0.0115104 0.0115236 0.011539 0.0115564 0.0115751 0.0115938 0.0116122 0.0115942 0.0115811 0.0115664 0.0115515 0.0115372 0.0115239 0.0115119 0.0115015 0.0114927 0.011486 0.0114813 0.0114787 0.0114783 0.0114802 0.0114844 0.0114909 0.0114997 0.011511 0.0115247 0.0115406 0.0115584 0.0115777 0.0115975 0.0116187 0.0115865 0.0115764 0.0115639 0.0115504 0.0115369 0.0115239 0.011512 0.0115014 0.0114924 0.0114855 0.0114806 0.0114778 0.0114774 0.0114793 0.0114836 0.0114903 0.0114996 0.0115113 0.0115256 0.0115422 0.0115608 0.011581 0.0116027 0.0116262 0.0115794 0.0115717 0.0115609 0.0115488 0.0115361 0.0115236 0.0115118 0.0115012 0.0114922 0.011485 0.0114799 0.0114771 0.0114766 0.0114784 0.0114828 0.0114897 0.0114993 0.0115114 0.0115262 0.0115435 0.0115629 0.0115843 0.0116077 0.0116327 0.0115732 0.0115672 0.0115579 0.0115469 0.011535 0.011523 0.0115114 0.0115008 0.0114918 0.0114845 0.0114793 0.0114764 0.0114757 0.0114776 0.0114819 0.011489 0.0114988 0.0115113 0.0115265 0.0115444 0.0115646 0.0115871 0.0116118 0.0116377 0.0115682 0.0115633 0.0115551 0.011545 0.0115338 0.0115222 0.0115109 0.0115005 0.0114914 0.0114841 0.0114788 0.0114757 0.0114751 0.0114768 0.0114812 0.0114883 0.0114982 0.0115109 0.0115265 0.0115448 0.0115657 0.0115892 0.0116148 0.0116412 0.0115642 0.0115599 0.0115526 0.0115432 0.0115325 0.0115213 0.0115102 0.0114999 0.0114909 0.0114836 0.0114783 0.0114752 0.0114745 0.0114762 0.0114806 0.0114877 0.0114976 0.0115104 0.0115262 0.0115448 0.0115662 0.0115904 0.0116167 0.0116438 0.011561 0.0115572 0.0115506 0.0115417 0.0115313 0.0115204 0.0115095 0.0114993 0.0114904 0.0114832 0.0114779 0.0114749 0.0114741 0.0114758 0.0114801 0.0114871 0.011497 0.0115098 0.0115256 0.0115444 0.0115661 0.0115907 0.0116178 0.0116456 0.0115584 0.0115553 0.0115491 0.0115405 0.0115303 0.0115195 0.0115087 0.0114987 0.0114899 0.0114829 0.0114777 0.0114746 0.0114739 0.0114756 0.0114798 0.0114867 0.0114965 0.0115091 0.0115248 0.0115436 0.0115654 0.0115903 0.0116179 0.0116469 0.0115571 0.0115546 0.0115487 0.01154 0.0115296 0.0115187 0.011508 0.0114981 0.0114895 0.0114826 0.0114775 0.0114746 0.0114739 0.0114756 0.0114797 0.0114866 0.0114961 0.0115085 0.011524 0.0115425 0.0115641 0.011589 0.0116171 0.0116477 0.0115577 0.0115558 0.0115495 0.0115402 0.0115294 0.0115182 0.0115074 0.0114976 0.0114892 0.0114825 0.0114776 0.0114747 0.0114741 0.0114758 0.01148 0.0114867 0.011496 0.0115082 0.0115232 0.0115412 0.0115623 0.0115869 0.0116152 0.0116474 0.0115618 0.0115598 0.0115521 0.0115414 0.0115297 0.011518 0.0115071 0.0114974 0.0114891 0.0114825 0.0114778 0.0114752 0.0114747 0.0114764 0.0114805 0.0114871 0.0114962 0.011508 0.0115225 0.0115398 0.0115602 0.011584 0.0116121 0.0116454 0.0115719 0.0115677 0.0115569 0.011544 0.0115309 0.0115185 0.0115073 0.0114975 0.0114893 0.011483 0.0114785 0.011476 0.0114756 0.0114774 0.0114815 0.0114881 0.011497 0.0115084 0.0115224 0.0115388 0.011558 0.0115806 0.0116076 0.0116413 0.0115897 0.0115797 0.0115638 0.0115479 0.0115332 0.0115198 0.0115082 0.0114982 0.0114901 0.0114838 0.0114795 0.0114772 0.011477 0.0114789 0.011483 0.0114895 0.0114983 0.0115094 0.0115229 0.0115386 0.0115564 0.0115769 0.0116019 0.0116349 0.0116137 0.0115938 0.0115719 0.011553 0.0115365 0.0115221 0.0115098 0.0114995 0.0114913 0.0114851 0.0114809 0.0114787 0.0114787 0.0114807 0.011485 0.0114915 0.0115002 0.0115111 0.0115242 0.0115392 0.0115558 0.0115739 0.0115951 0.011626 0.0116354 0.0116051 0.0115789 0.0115584 0.0115403 0.0115251 0.0115121 0.0115015 0.0114931 0.0114868 0.0114826 0.0114805 0.0114805 0.0114827 0.0114871 0.0114937 0.0115025 0.0115134 0.0115263 0.0115409 0.0115569 0.0115721 0.0115878 0.0116142 0.0116436 0.0116062 0.0115831 0.0115611 0.0115431 0.0115274 0.0115142 0.0115033 0.0114947 0.0114882 0.011484 0.0114819 0.0114821 0.0114844 0.0114889 0.0114956 0.0115044 0.0115153 0.0115282 0.0115429 0.0115582 0.011575 0.0115764 0.0115943 0.0116169 0.0115898 0.0115732 0.0115574 0.0115416 0.0115274 0.0115147 0.011504 0.0114954 0.011489 0.0114848 0.0114829 0.0114832 0.0114856 0.0114902 0.0114968 0.0115053 0.0115157 0.011528 0.0115422 0.0115589 0.0115745 0.0116014 0.0115165 0.0112714 0.0114866 0.0115134 0.0115263 0.0115252 0.011519 0.0115102 0.0115006 0.0114915 0.0114835 0.0114774 0.0114737 0.0114727 0.0114747 0.01148 0.0114887 0.0115012 0.0115177 0.0115389 0.0115651 0.0115976 0.0116362 0.0116892 0.0117419 0.0115099 0.0114969 0.0115224 0.011523 0.0115195 0.0115127 0.0115046 0.0114963 0.0114886 0.011482 0.011477 0.0114739 0.0114731 0.0114747 0.011479 0.0114862 0.0114967 0.0115106 0.0115285 0.0115507 0.0115774 0.0116108 0.0116443 0.0117 0.0115684 0.0115441 0.0115325 0.0115269 0.0115189 0.0115104 0.0115018 0.0114937 0.0114865 0.0114806 0.0114761 0.0114735 0.0114728 0.0114742 0.0114781 0.0114845 0.0114936 0.0115057 0.0115211 0.0115399 0.0115627 0.0115887 0.0116236 0.011669 0.0115915 0.0115651 0.0115461 0.0115325 0.0115211 0.0115106 0.011501 0.0114925 0.0114853 0.0114795 0.0114753 0.0114729 0.0114724 0.0114739 0.0114775 0.0114835 0.0114919 0.0115028 0.0115166 0.0115333 0.0115532 0.0115774 0.0116073 0.0116404 0.0115984 0.0115743 0.0115538 0.0115374 0.0115237 0.0115116 0.0115011 0.011492 0.0114845 0.0114786 0.0114745 0.0114722 0.0114719 0.0114735 0.0114772 0.011483 0.0114911 0.0115015 0.0115144 0.01153 0.0115484 0.0115701 0.0115943 0.0116167 0.0115969 0.0115763 0.0115569 0.01154 0.0115254 0.0115125 0.0115013 0.0114918 0.011484 0.0114779 0.0114738 0.0114715 0.0114713 0.011473 0.0114768 0.0114827 0.0114908 0.0115011 0.0115138 0.0115289 0.0115464 0.011566 0.0115861 0.0116032 0.0115908 0.011574 0.0115568 0.0115407 0.0115261 0.011513 0.0115015 0.0114916 0.0114836 0.0114774 0.0114731 0.0114709 0.0114706 0.0114725 0.0114763 0.0114824 0.0114907 0.0115012 0.011514 0.0115291 0.0115462 0.0115647 0.0115831 0.0115998 0.0115827 0.0115696 0.0115547 0.0115399 0.0115258 0.0115129 0.0115013 0.0114914 0.0114831 0.0114768 0.0114725 0.0114702 0.0114699 0.0114718 0.0114758 0.0114821 0.0114906 0.0115015 0.0115146 0.0115299 0.011547 0.0115655 0.0115841 0.0116027 0.0115743 0.0115644 0.0115516 0.0115382 0.0115249 0.0115124 0.011501 0.011491 0.0114827 0.0114763 0.0114718 0.0114694 0.0114692 0.0114711 0.0114752 0.0114817 0.0114905 0.0115016 0.0115152 0.0115309 0.0115485 0.0115675 0.0115873 0.0116083 0.0115666 0.0115591 0.0115482 0.011536 0.0115236 0.0115116 0.0115004 0.0114905 0.0114822 0.0114757 0.0114711 0.0114687 0.0114684 0.0114704 0.0114746 0.0114813 0.0114903 0.0115017 0.0115157 0.0115319 0.0115501 0.01157 0.0115913 0.0116142 0.0115603 0.0115543 0.0115449 0.0115338 0.0115222 0.0115106 0.0114997 0.0114899 0.0114816 0.0114751 0.0114705 0.011468 0.0114677 0.0114697 0.011474 0.0114807 0.0114899 0.0115017 0.0115159 0.0115326 0.0115515 0.0115725 0.0115952 0.0116192 0.0115554 0.0115503 0.0115419 0.0115318 0.0115208 0.0115096 0.0114989 0.0114893 0.011481 0.0114745 0.0114699 0.0114674 0.0114671 0.0114691 0.0114734 0.0114802 0.0114895 0.0115015 0.011516 0.0115331 0.0115527 0.0115745 0.0115984 0.0116232 0.0115517 0.0115471 0.0115395 0.01153 0.0115195 0.0115086 0.0114981 0.0114886 0.0114804 0.0114739 0.0114694 0.0114668 0.0114665 0.0114685 0.0114728 0.0114797 0.0114891 0.0115011 0.0115159 0.0115333 0.0115534 0.011576 0.0116009 0.0116262 0.0115491 0.0115449 0.0115379 0.0115287 0.0115184 0.0115077 0.0114974 0.0114879 0.0114798 0.0114734 0.0114689 0.0114664 0.0114661 0.0114681 0.0114724 0.0114792 0.0114886 0.0115007 0.0115155 0.0115331 0.0115536 0.0115768 0.0116024 0.0116287 0.0115476 0.0115439 0.0115371 0.011528 0.0115177 0.011507 0.0114967 0.0114873 0.0114793 0.0114729 0.0114685 0.011466 0.0114657 0.0114677 0.011472 0.0114789 0.0114882 0.0115002 0.0115149 0.0115326 0.0115532 0.0115768 0.0116031 0.0116306 0.0115478 0.0115444 0.0115374 0.011528 0.0115174 0.0115065 0.0114962 0.0114869 0.0114789 0.0114726 0.0114682 0.0114658 0.0114656 0.0114676 0.0114719 0.0114786 0.0114879 0.0114997 0.0115143 0.0115318 0.0115523 0.011576 0.0116029 0.011632 0.0115505 0.0115471 0.0115392 0.0115289 0.0115176 0.0115064 0.0114959 0.0114866 0.0114787 0.0114725 0.0114681 0.0114658 0.0114656 0.0114676 0.0114719 0.0114786 0.0114877 0.0114993 0.0115136 0.0115307 0.0115509 0.0115744 0.0116016 0.0116323 0.0115572 0.0115525 0.0115427 0.0115308 0.0115186 0.0115068 0.011496 0.0114866 0.0114786 0.0114725 0.0114682 0.011466 0.0114658 0.0114679 0.0114721 0.0114787 0.0114877 0.0114991 0.011513 0.0115296 0.0115491 0.0115719 0.0115989 0.0116309 0.0115695 0.0115612 0.011548 0.0115339 0.0115204 0.0115079 0.0114967 0.011487 0.0114791 0.0114729 0.0114687 0.0114665 0.0114664 0.0114685 0.0114727 0.0114792 0.0114881 0.0114992 0.0115128 0.0115287 0.0115472 0.0115689 0.0115949 0.0116273 0.0115876 0.0115726 0.0115548 0.0115383 0.0115232 0.0115098 0.011498 0.011488 0.0114799 0.0114738 0.0114696 0.0114674 0.0114674 0.0114694 0.0114737 0.0114802 0.0114888 0.0114998 0.011513 0.0115283 0.0115456 0.0115655 0.0115894 0.0116209 0.0116075 0.0115841 0.0115621 0.0115433 0.0115268 0.0115123 0.0114999 0.0114896 0.0114812 0.011475 0.0114708 0.0114686 0.0114686 0.0114707 0.011475 0.0114815 0.0114901 0.0115009 0.0115138 0.0115285 0.0115447 0.0115624 0.0115827 0.011612 0.0116219 0.0115923 0.0115682 0.0115486 0.0115307 0.0115153 0.0115023 0.0114915 0.0114829 0.0114765 0.0114722 0.0114701 0.0114701 0.0114722 0.0114765 0.0114831 0.0114917 0.0115025 0.0115152 0.0115297 0.0115453 0.0115601 0.0115752 0.0115999 0.0116233 0.0115925 0.0115731 0.0115513 0.0115333 0.0115175 0.0115043 0.0114932 0.0114845 0.011478 0.0114736 0.0114715 0.0114715 0.0114737 0.0114781 0.0114846 0.0114933 0.011504 0.0115167 0.0115312 0.0115464 0.0115631 0.0115635 0.0115805 0.0115974 0.0115887 0.0115661 0.0115493 0.0115324 0.0115177 0.0115047 0.0114939 0.0114852 0.0114788 0.0114745 0.0114725 0.0114726 0.0114749 0.0114793 0.0114858 0.0114942 0.0115046 0.011517 0.0115314 0.0115482 0.0115638 0.0115908 0.0115039 0.0112766 0.0114815 0.0115038 0.0115142 0.011512 0.0115055 0.011497 0.0114881 0.0114798 0.0114728 0.0114677 0.0114648 0.0114644 0.0114668 0.011472 0.0114804 0.0114921 0.0115073 0.0115263 0.0115495 0.011578 0.0116102 0.0116568 0.0116686 0.0115076 0.0114938 0.0115166 0.0115151 0.0115102 0.0115025 0.0114941 0.0114858 0.0114783 0.0114722 0.0114677 0.0114652 0.0114649 0.0114669 0.0114716 0.011479 0.0114893 0.0115029 0.0115198 0.0115405 0.0115648 0.0115947 0.0116201 0.0116692 0.0115639 0.0115399 0.011527 0.0115203 0.0115112 0.011502 0.0114929 0.0114846 0.0114773 0.0114715 0.0114674 0.0114651 0.0114648 0.0114667 0.0114709 0.0114776 0.0114869 0.011499 0.0115142 0.0115324 0.011554 0.011578 0.0116106 0.0116549 0.0115853 0.0115592 0.01154 0.0115258 0.0115138 0.0115028 0.0114928 0.0114841 0.0114768 0.0114711 0.011467 0.0114648 0.0114646 0.0114664 0.0114704 0.0114766 0.0114853 0.0114963 0.0115101 0.0115266 0.011546 0.0115696 0.0115993 0.0116344 0.0115908 0.011567 0.0115465 0.01153 0.011516 0.0115038 0.0114931 0.011484 0.0114765 0.0114706 0.0114666 0.0114645 0.0114643 0.0114661 0.0114699 0.0114759 0.0114841 0.0114946 0.0115075 0.011523 0.0115413 0.011563 0.0115881 0.0116128 0.011588 0.0115678 0.0115486 0.0115318 0.0115172 0.0115044 0.0114933 0.0114838 0.0114761 0.0114702 0.0114661 0.011464 0.0114638 0.0114656 0.0114695 0.0114754 0.0114835 0.0114937 0.0115063 0.0115212 0.0115385 0.0115581 0.0115789 0.0115967 0.0115809 0.0115647 0.0115477 0.0115317 0.0115172 0.0115044 0.0114931 0.0114835 0.0114757 0.0114697 0.0114656 0.0114635 0.0114633 0.0114651 0.011469 0.011475 0.0114831 0.0114934 0.0115058 0.0115204 0.0115371 0.0115553 0.0115734 0.0115888 0.0115722 0.0115597 0.011545 0.0115303 0.0115165 0.0115039 0.0114927 0.0114831 0.0114752 0.0114692 0.011465 0.0114628 0.0114627 0.0114646 0.0114685 0.0114746 0.0114828 0.0114932 0.0115058 0.0115204 0.0115367 0.0115543 0.0115716 0.0115876 0.0115635 0.0115542 0.0115415 0.0115282 0.0115151 0.0115029 0.011492 0.0114824 0.0114746 0.0114685 0.0114643 0.0114622 0.011462 0.011464 0.011468 0.0114742 0.0114826 0.0114932 0.0115059 0.0115207 0.0115372 0.0115547 0.0115725 0.0115904 0.011556 0.0115488 0.0115379 0.0115258 0.0115136 0.0115019 0.0114912 0.0114817 0.0114739 0.0114679 0.0114637 0.0114615 0.0114614 0.0114633 0.0114674 0.0114738 0.0114823 0.0114931 0.0115061 0.0115212 0.011538 0.0115561 0.011575 0.0115948 0.0115502 0.0115442 0.0115346 0.0115236 0.011512 0.0115007 0.0114903 0.011481 0.0114732 0.0114672 0.011463 0.0114608 0.0114607 0.0114627 0.0114669 0.0114733 0.011482 0.011493 0.0115062 0.0115216 0.0115389 0.0115579 0.011578 0.0115992 0.011546 0.0115405 0.0115319 0.0115216 0.0115106 0.0114997 0.0114893 0.0114802 0.0114725 0.0114665 0.0114623 0.0114602 0.0114601 0.0114621 0.0114664 0.0114729 0.0114817 0.0114928 0.0115063 0.011522 0.0115399 0.0115596 0.011581 0.0116032 0.0115432 0.0115379 0.0115299 0.0115201 0.0115094 0.0114987 0.0114885 0.0114795 0.0114718 0.0114659 0.0114617 0.0114596 0.0114596 0.0114616 0.0114659 0.0114725 0.0114813 0.0114925 0.0115062 0.0115222 0.0115406 0.0115612 0.0115836 0.0116065 0.0115417 0.0115365 0.0115288 0.0115191 0.0115085 0.0114979 0.0114878 0.0114788 0.0114712 0.0114653 0.0114612 0.0114591 0.0114591 0.0114612 0.0114655 0.0114721 0.0114809 0.0114922 0.011506 0.0115222 0.011541 0.0115622 0.0115856 0.0116093 0.0115416 0.0115366 0.0115287 0.0115188 0.0115081 0.0114973 0.0114873 0.0114783 0.0114707 0.0114648 0.0114607 0.0114587 0.0114587 0.0114608 0.0114651 0.0114717 0.0114806 0.0114919 0.0115056 0.011522 0.0115409 0.0115627 0.0115869 0.0116118 0.0115435 0.0115384 0.0115299 0.0115194 0.0115082 0.0114972 0.011487 0.0114779 0.0114703 0.0114644 0.0114604 0.0114584 0.0114584 0.0114606 0.0114649 0.0114715 0.0114803 0.0114915 0.0115052 0.0115215 0.0115405 0.0115625 0.0115875 0.0116139 0.0115483 0.0115424 0.0115324 0.0115208 0.0115089 0.0114974 0.011487 0.0114778 0.0114701 0.0114643 0.0114603 0.0114582 0.0114583 0.0114604 0.0114648 0.0114714 0.0114801 0.0114912 0.0115048 0.0115208 0.0115396 0.0115616 0.011587 0.0116152 0.0115569 0.0115487 0.0115364 0.0115232 0.0115102 0.0114982 0.0114874 0.011478 0.0114702 0.0114643 0.0114603 0.0114583 0.0114583 0.0114605 0.0114648 0.0114714 0.0114801 0.0114911 0.0115044 0.0115201 0.0115384 0.0115599 0.0115852 0.0116148 0.0115702 0.0115575 0.0115418 0.0115266 0.0115125 0.0114997 0.0114883 0.0114787 0.0114708 0.0114648 0.0114607 0.0114587 0.0114587 0.0114609 0.0114652 0.0114717 0.0114803 0.0114912 0.0115042 0.0115195 0.0115371 0.0115576 0.0115821 0.0116122 0.0115866 0.0115675 0.0115481 0.0115309 0.0115155 0.0115018 0.0114899 0.0114798 0.0114717 0.0114655 0.0114614 0.0114594 0.0114594 0.0114615 0.0114658 0.0114723 0.0114809 0.0114916 0.0115044 0.0115192 0.0115359 0.0115549 0.0115775 0.0116068 0.0116019 0.0115765 0.0115545 0.0115358 0.0115192 0.0115045 0.011492 0.0114815 0.0114731 0.0114668 0.0114625 0.0114604 0.0114604 0.0114625 0.0114668 0.0114732 0.0114818 0.0114924 0.0115051 0.0115195 0.0115353 0.0115523 0.0115716 0.0115986 0.01161 0.011582 0.0115596 0.0115406 0.0115228 0.0115074 0.0114943 0.0114834 0.0114747 0.0114682 0.0114639 0.0114617 0.0114617 0.0114638 0.011468 0.0114745 0.011483 0.0114936 0.0115062 0.0115205 0.0115359 0.0115502 0.0115647 0.0115872 0.0116064 0.0115809 0.0115645 0.0115431 0.0115252 0.0115094 0.0114961 0.011485 0.0114762 0.0114696 0.0114652 0.011463 0.011463 0.0114651 0.0114693 0.0114758 0.0114843 0.0114949 0.0115075 0.0115218 0.0115369 0.0115535 0.0115537 0.0115691 0.0115805 0.0115868 0.0115599 0.0115421 0.0115246 0.0115096 0.0114965 0.0114857 0.011477 0.0114705 0.0114662 0.0114641 0.0114642 0.0114664 0.0114707 0.011477 0.0114854 0.0114957 0.0115081 0.0115224 0.0115392 0.011555 0.0115821 0.0114974 0.0112995 0.0114861 0.0115016 0.0115083 0.0115042 0.0114968 0.0114881 0.0114794 0.0114715 0.011465 0.0114604 0.011458 0.0114579 0.0114604 0.0114655 0.0114734 0.0114841 0.0114978 0.0115146 0.0115347 0.0115586 0.0115839 0.0116217 0.0115942 0.0115127 0.0114976 0.011516 0.0115118 0.011505 0.0114961 0.011487 0.0114785 0.011471 0.011465 0.0114608 0.0114586 0.0114586 0.0114609 0.0114656 0.0114729 0.0114829 0.0114958 0.0115116 0.0115305 0.0115521 0.0115779 0.0115954 0.0116372 0.0115639 0.0115397 0.0115253 0.011517 0.0115066 0.0114964 0.0114867 0.011478 0.0114706 0.0114649 0.0114608 0.0114587 0.0114587 0.0114608 0.0114652 0.011472 0.0114813 0.0114931 0.0115077 0.011525 0.0115452 0.011567 0.0115969 0.0116386 0.011582 0.0115561 0.0115364 0.0115215 0.0115089 0.0114973 0.011487 0.011478 0.0114705 0.0114647 0.0114607 0.0114587 0.0114586 0.0114606 0.0114647 0.0114711 0.0114798 0.0114908 0.0115043 0.0115205 0.0115392 0.0115619 0.0115908 0.0116263 0.0115851 0.0115618 0.0115414 0.0115247 0.0115105 0.011498 0.0114872 0.0114779 0.0114703 0.0114645 0.0114605 0.0114584 0.0114583 0.0114602 0.0114642 0.0114703 0.0114786 0.011489 0.0115018 0.011517 0.011535 0.0115564 0.0115817 0.0116081 0.0115807 0.0115612 0.0115423 0.0115256 0.011511 0.0114982 0.0114871 0.0114777 0.0114701 0.0114642 0.0114602 0.0114581 0.011458 0.0114598 0.0114637 0.0114697 0.0114777 0.0114878 0.0115002 0.0115148 0.0115318 0.0115513 0.0115724 0.0115911 0.0115726 0.0115572 0.0115405 0.0115248 0.0115105 0.0114978 0.0114867 0.0114773 0.0114696 0.0114637 0.0114597 0.0114576 0.0114575 0.0114593 0.0114632 0.0114691 0.011477 0.011487 0.0114992 0.0115133 0.0115295 0.0115473 0.0115652 0.0115797 0.0115635 0.0115519 0.0115375 0.011523 0.0115093 0.011497 0.011486 0.0114766 0.011469 0.0114631 0.0114591 0.011457 0.0114569 0.0114588 0.0114627 0.0114686 0.0114765 0.0114865 0.0114986 0.0115125 0.0115281 0.0115447 0.0115609 0.0115745 0.0115553 0.0115464 0.0115339 0.0115207 0.0115078 0.0114958 0.0114851 0.0114759 0.0114682 0.0114624 0.0114584 0.0114564 0.0114563 0.0114582 0.0114621 0.0114681 0.0114761 0.0114862 0.0114982 0.0115121 0.0115274 0.0115436 0.0115593 0.011574 0.0115488 0.0115414 0.0115305 0.0115184 0.0115062 0.0114947 0.0114842 0.011475 0.0114675 0.0114617 0.0114577 0.0114557 0.0114556 0.0114576 0.0114616 0.0114676 0.0114757 0.0114859 0.011498 0.011512 0.0115274 0.0115436 0.0115598 0.0115761 0.0115441 0.0115373 0.0115275 0.0115162 0.0115047 0.0114935 0.0114832 0.0114741 0.0114667 0.0114609 0.011457 0.011455 0.011455 0.011457 0.011461 0.0114672 0.0114754 0.0114856 0.0114979 0.011512 0.0115276 0.0115443 0.0115615 0.0115793 0.0115413 0.0115345 0.0115253 0.0115146 0.0115034 0.0114924 0.0114822 0.0114733 0.0114659 0.0114602 0.0114563 0.0114544 0.0114544 0.0114564 0.0114605 0.0114668 0.011475 0.0114854 0.0114978 0.0115122 0.0115281 0.0115455 0.0115638 0.0115827 0.0115398 0.0115329 0.0115239 0.0115135 0.0115024 0.0114915 0.0114814 0.0114726 0.0114652 0.0114595 0.0114557 0.0114538 0.0114538 0.0114559 0.0114601 0.0114664 0.0114747 0.0114851 0.0114977 0.0115123 0.0115287 0.0115468 0.0115662 0.0115858 0.0115397 0.0115326 0.0115236 0.011513 0.0115018 0.0114909 0.0114808 0.0114719 0.0114646 0.011459 0.0114551 0.0114532 0.0114534 0.0114555 0.0114597 0.011466 0.0114744 0.0114849 0.0114976 0.0115124 0.0115292 0.011548 0.0115684 0.0115888 0.0115411 0.0115338 0.0115242 0.0115131 0.0115016 0.0114906 0.0114804 0.0114715 0.0114641 0.0114585 0.0114546 0.0114528 0.0114529 0.0114551 0.0114594 0.0114657 0.0114741 0.0114847 0.0114974 0.0115123 0.0115294 0.0115489 0.0115702 0.0115916 0.0115446 0.0115368 0.0115261 0.0115141 0.011502 0.0114906 0.0114802 0.0114712 0.0114638 0.0114581 0.0114543 0.0114525 0.0114526 0.0114549 0.0114591 0.0114655 0.0114739 0.0114845 0.0114972 0.0115122 0.0115295 0.0115493 0.0115716 0.0115944 0.011551 0.0115416 0.0115291 0.0115159 0.011503 0.0114912 0.0114805 0.0114713 0.0114637 0.011458 0.0114541 0.0114523 0.0114525 0.0114547 0.011459 0.0114654 0.0114738 0.0114844 0.011497 0.0115119 0.0115292 0.0115492 0.0115721 0.0115967 0.0115607 0.0115483 0.0115333 0.0115185 0.0115047 0.0114921 0.0114811 0.0114716 0.0114639 0.011458 0.0114541 0.0114523 0.0114524 0.0114547 0.011459 0.0114654 0.0114738 0.0114843 0.0114969 0.0115117 0.0115287 0.0115485 0.0115715 0.0115978 0.0115736 0.0115564 0.0115384 0.0115219 0.0115071 0.0114938 0.0114822 0.0114724 0.0114645 0.0114585 0.0114545 0.0114526 0.0114527 0.0114549 0.0114592 0.0114656 0.0114741 0.0114845 0.011497 0.0115115 0.0115281 0.0115472 0.0115698 0.0115969 0.0115873 0.0115646 0.011544 0.0115261 0.0115102 0.0114961 0.0114839 0.0114737 0.0114655 0.0114593 0.0114552 0.0114532 0.0114532 0.0114554 0.0114597 0.0114661 0.0114745 0.011485 0.0114974 0.0115117 0.0115276 0.0115456 0.0115666 0.0115932 0.0115976 0.0115711 0.0115492 0.0115304 0.0115136 0.0114988 0.011486 0.0114754 0.0114668 0.0114605 0.0114562 0.0114541 0.0114541 0.0114562 0.0114605 0.0114669 0.0114753 0.0114858 0.0114982 0.0115122 0.0115275 0.0115439 0.011562 0.0115865 0.0116004 0.0115743 0.0115531 0.0115346 0.0115169 0.0115015 0.0114882 0.0114772 0.0114684 0.0114619 0.0114575 0.0114553 0.0114552 0.0114573 0.0114616 0.0114679 0.0114764 0.0114869 0.0114993 0.0115133 0.0115285 0.0115425 0.0115564 0.0115765 0.0115933 0.0115716 0.0115577 0.0115366 0.0115189 0.0115031 0.0114898 0.0114787 0.0114698 0.0114632 0.0114588 0.0114566 0.0114565 0.0114586 0.0114628 0.0114692 0.0114776 0.011488 0.0115004 0.0115147 0.0115297 0.0115463 0.0115468 0.0115604 0.0115653 0.0115842 0.0115546 0.0115363 0.0115184 0.0115032 0.0114902 0.0114793 0.0114706 0.0114642 0.0114599 0.0114578 0.0114577 0.0114599 0.0114641 0.0114704 0.0114787 0.011489 0.0115014 0.0115157 0.0115324 0.0115483 0.0115757 0.0114965 0.0113379 0.0114997 0.0115064 0.0115081 0.0115013 0.0114925 0.0114831 0.0114741 0.0114662 0.0114599 0.0114555 0.0114533 0.0114534 0.0114559 0.0114607 0.0114681 0.0114779 0.0114902 0.0115049 0.0115217 0.0115409 0.0115591 0.0115862 0.0115207 0.0115247 0.0115072 0.01152 0.0115125 0.0115034 0.0114931 0.0114831 0.011474 0.0114663 0.0114603 0.0114562 0.0114541 0.0114542 0.0114566 0.0114612 0.0114683 0.0114779 0.0114899 0.0115044 0.0115214 0.01154 0.0115614 0.011571 0.0116055 0.0115683 0.0115432 0.0115268 0.0115166 0.0115048 0.0114935 0.0114831 0.0114739 0.0114663 0.0114604 0.0114564 0.0114544 0.0114544 0.0114566 0.0114611 0.0114678 0.0114769 0.0114883 0.0115022 0.0115183 0.0115369 0.0115562 0.0115832 0.0116214 0.0115819 0.0115558 0.0115354 0.0115196 0.0115062 0.0114941 0.0114833 0.011474 0.0114663 0.0114605 0.0114565 0.0114544 0.0114544 0.0114565 0.0114607 0.0114671 0.0114757 0.0114865 0.0114997 0.0115152 0.0115331 0.0115546 0.0115822 0.0116171 0.0115819 0.0115589 0.0115385 0.0115215 0.0115069 0.0114943 0.0114832 0.0114739 0.0114662 0.0114603 0.0114563 0.0114543 0.0114542 0.0114562 0.0114602 0.0114663 0.0114745 0.0114849 0.0114975 0.0115124 0.0115299 0.0115507 0.0115758 0.0116031 0.0115755 0.0115568 0.0115381 0.0115215 0.0115068 0.011494 0.0114829 0.0114735 0.0114658 0.01146 0.011456 0.0114539 0.0114538 0.0114557 0.0114596 0.0114655 0.0114735 0.0114835 0.0114956 0.01151 0.0115266 0.0115458 0.0115671 0.0115867 0.0115667 0.0115522 0.0115358 0.0115202 0.011506 0.0114933 0.0114823 0.0114729 0.0114653 0.0114595 0.0114555 0.0114534 0.0114534 0.0114552 0.011459 0.0114648 0.0114726 0.0114824 0.0114942 0.011508 0.0115237 0.0115411 0.0115588 0.0115731 0.011558 0.0115468 0.0115325 0.0115181 0.0115046 0.0114923 0.0114814 0.0114721 0.0114646 0.0114588 0.0114549 0.0114528 0.0114527 0.0114546 0.0114584 0.0114642 0.0114719 0.0114816 0.0114932 0.0115065 0.0115214 0.0115373 0.0115526 0.0115645 0.0115509 0.0115417 0.0115292 0.0115159 0.0115031 0.0114911 0.0114804 0.0114712 0.0114638 0.011458 0.0114541 0.0114521 0.0114521 0.011454 0.0114578 0.0114636 0.0114713 0.0114809 0.0114924 0.0115054 0.0115198 0.0115347 0.0115487 0.0115605 0.011546 0.0115376 0.0115262 0.0115139 0.0115015 0.0114899 0.0114794 0.0114703 0.0114629 0.0114572 0.0114534 0.0114514 0.0114514 0.0114533 0.0114572 0.011463 0.0114708 0.0114804 0.0114918 0.0115047 0.0115187 0.0115332 0.0115471 0.0115599 0.0115431 0.0115346 0.011524 0.0115121 0.0115002 0.0114888 0.0114784 0.0114694 0.0114621 0.0114564 0.0114526 0.0114507 0.0114507 0.0114527 0.0114566 0.0114625 0.0114703 0.01148 0.0114914 0.0115043 0.0115183 0.0115328 0.0115471 0.0115612 0.0115419 0.0115329 0.0115225 0.0115109 0.0114991 0.0114878 0.0114775 0.0114686 0.0114613 0.0114557 0.0114519 0.0114501 0.0114502 0.0114522 0.0114561 0.0114621 0.0114699 0.0114796 0.0114911 0.0115041 0.0115182 0.0115332 0.0115482 0.0115634 0.011542 0.0115325 0.0115219 0.0115102 0.0114984 0.0114871 0.0114768 0.0114679 0.0114606 0.011455 0.0114513 0.0114495 0.0114496 0.0114517 0.0114557 0.0114617 0.0114696 0.0114793 0.0114909 0.011504 0.0115185 0.011534 0.0115499 0.0115659 0.0115433 0.0115334 0.0115223 0.0115102 0.0114981 0.0114866 0.0114762 0.0114673 0.01146 0.0114544 0.0114507 0.0114489 0.0114491 0.0114513 0.0114553 0.0114614 0.0114693 0.0114791 0.0114908 0.0115041 0.0115189 0.0115351 0.011552 0.0115686 0.0115461 0.0115357 0.0115236 0.0115108 0.0114982 0.0114864 0.0114759 0.0114669 0.0114595 0.011454 0.0114503 0.0114485 0.0114487 0.0114509 0.011455 0.0114612 0.0114692 0.011479 0.0114907 0.0115042 0.0115194 0.0115361 0.0115541 0.0115715 0.0115509 0.0115395 0.0115259 0.0115121 0.0114988 0.0114867 0.011476 0.0114668 0.0114593 0.0114537 0.0114499 0.0114482 0.0114484 0.0114507 0.0114549 0.011461 0.0114691 0.011479 0.0114907 0.0115044 0.0115198 0.0115371 0.0115561 0.0115747 0.0115582 0.0115447 0.0115291 0.011514 0.0115 0.0114874 0.0114763 0.0114669 0.0114593 0.0114536 0.0114498 0.0114481 0.0114483 0.0114505 0.0114548 0.011461 0.0114691 0.011479 0.0114909 0.0115045 0.0115201 0.0115379 0.0115577 0.011578 0.0115681 0.011551 0.0115331 0.0115166 0.0115017 0.0114885 0.0114771 0.0114674 0.0114596 0.0114537 0.0114499 0.011448 0.0114483 0.0114505 0.0114547 0.011461 0.0114692 0.0114792 0.011491 0.0115048 0.0115204 0.0115382 0.0115586 0.0115808 0.0115794 0.0115578 0.0115376 0.0115198 0.0115041 0.0114903 0.0114783 0.0114683 0.0114603 0.0114542 0.0114503 0.0114483 0.0114485 0.0114507 0.011455 0.0114613 0.0114695 0.0114796 0.0114915 0.0115052 0.0115206 0.0115382 0.0115585 0.0115821 0.0115896 0.0115639 0.0115421 0.0115234 0.011507 0.0114925 0.0114801 0.0114696 0.0114613 0.0114551 0.0114509 0.0114489 0.011449 0.0114512 0.0114554 0.0114617 0.01147 0.0114802 0.0114922 0.0115059 0.011521 0.0115378 0.0115572 0.0115808 0.0115952 0.011568 0.0115461 0.0115271 0.0115101 0.0114951 0.0114821 0.0114713 0.0114627 0.0114562 0.0114519 0.0114498 0.0114498 0.0114519 0.0114561 0.0114624 0.0114708 0.011481 0.0114932 0.0115069 0.0115217 0.0115373 0.0115544 0.0115763 0.0115937 0.011569 0.0115488 0.0115306 0.0115129 0.0114974 0.0114841 0.011473 0.0114642 0.0114576 0.0114532 0.011451 0.0114509 0.011453 0.0114572 0.0114635 0.0114718 0.0114822 0.0114944 0.0115082 0.0115232 0.0115369 0.0115506 0.0115683 0.0115838 0.0115646 0.0115527 0.0115321 0.0115145 0.0114988 0.0114855 0.0114744 0.0114655 0.0114589 0.0114545 0.0114522 0.0114522 0.0114542 0.0114583 0.0114646 0.011473 0.0114833 0.0114957 0.0115098 0.0115248 0.0115415 0.0115428 0.0115548 0.0115514 0.0115814 0.0115504 0.0115319 0.0115138 0.0114987 0.0114857 0.0114749 0.0114663 0.0114599 0.0114556 0.0114534 0.0114534 0.0114555 0.0114597 0.011466 0.0114743 0.0114845 0.0114968 0.0115111 0.0115279 0.011544 0.0115718 0.0115006 0.0113894 0.0115213 0.0115176 0.0115134 0.0115032 0.0114924 0.0114817 0.011472 0.0114638 0.0114575 0.0114531 0.011451 0.0114511 0.0114535 0.0114581 0.0114651 0.0114741 0.011485 0.0114977 0.0115115 0.0115262 0.0115372 0.0115527 0.0114509 0.0115428 0.0115217 0.0115281 0.0115167 0.0115051 0.0114931 0.011482 0.0114723 0.0114642 0.011458 0.0114539 0.0114519 0.011452 0.0114543 0.0114589 0.0114657 0.0114747 0.0114858 0.0114989 0.0115138 0.0115293 0.0115463 0.011548 0.0115759 0.0115768 0.0115499 0.0115312 0.0115188 0.0115054 0.0114931 0.0114819 0.0114722 0.0114643 0.0114583 0.0114542 0.0114522 0.0114523 0.0114545 0.0114588 0.0114654 0.0114742 0.011485 0.011498 0.0115128 0.0115295 0.0115462 0.0115701 0.0116047 0.0115849 0.0115581 0.0115367 0.0115199 0.0115057 0.0114929 0.0114817 0.0114721 0.0114643 0.0114583 0.0114543 0.0114522 0.0114522 0.0114543 0.0114585 0.0114648 0.0114732 0.0114838 0.0114964 0.0115112 0.0115281 0.0115483 0.0115743 0.0116079 0.0115815 0.0115585 0.0115378 0.0115204 0.0115055 0.0114925 0.0114813 0.0114718 0.011464 0.0114581 0.0114541 0.0114521 0.011452 0.011454 0.0114579 0.011464 0.0114722 0.0114823 0.0114946 0.0115091 0.0115261 0.0115462 0.0115708 0.0115985 0.0115732 0.011555 0.0115364 0.0115196 0.0115048 0.0114919 0.0114807 0.0114713 0.0114636 0.0114577 0.0114537 0.0114517 0.0114516 0.0114534 0.0114573 0.0114632 0.0114711 0.011481 0.0114929 0.0115069 0.0115232 0.011542 0.0115633 0.011584 0.0115641 0.01155 0.0115337 0.011518 0.0115037 0.011491 0.0114799 0.0114705 0.0114629 0.0114571 0.0114532 0.0114511 0.011451 0.0114528 0.0114566 0.0114624 0.0114701 0.0114797 0.0114913 0.0115048 0.0115201 0.0115371 0.0115549 0.0115696 0.0115565 0.011545 0.0115306 0.011516 0.0115023 0.0114899 0.011479 0.0114697 0.0114621 0.0114564 0.0114524 0.0114504 0.0114503 0.0114522 0.0114559 0.0114616 0.0114692 0.0114786 0.0114899 0.0115028 0.0115171 0.0115324 0.0115473 0.0115584 0.0115513 0.0115409 0.0115278 0.0115142 0.0115009 0.0114887 0.011478 0.0114687 0.0114612 0.0114555 0.0114516 0.0114497 0.0114496 0.0114515 0.0114552 0.0114609 0.0114684 0.0114777 0.0114887 0.0115011 0.0115147 0.0115286 0.0115416 0.0115512 0.0115486 0.0115381 0.0115257 0.0115126 0.0114997 0.0114876 0.011477 0.0114678 0.0114603 0.0114547 0.0114509 0.0114489 0.0114489 0.0114508 0.0114546 0.0114603 0.0114677 0.0114769 0.0114877 0.0114998 0.0115128 0.0115259 0.011538 0.0115478 0.0115478 0.0115365 0.0115243 0.0115113 0.0114986 0.0114867 0.011476 0.0114669 0.0114595 0.0114538 0.01145 0.0114482 0.0114482 0.0114502 0.011454 0.0114597 0.0114672 0.0114763 0.011487 0.0114989 0.0115116 0.0115243 0.0115361 0.0115468 0.0115484 0.0115362 0.0115237 0.0115107 0.0114978 0.0114859 0.0114752 0.0114661 0.0114587 0.0114531 0.0114493 0.0114475 0.0114476 0.0114496 0.0114535 0.0114592 0.0114667 0.0114758 0.0114865 0.0114983 0.0115109 0.0115237 0.0115358 0.0115474 0.0115499 0.0115371 0.011524 0.0115105 0.0114974 0.0114853 0.0114746 0.0114654 0.011458 0.0114524 0.0114487 0.0114469 0.0114471 0.0114491 0.011453 0.0114588 0.0114663 0.0114755 0.0114861 0.011498 0.0115108 0.0115238 0.0115365 0.0115489 0.0115525 0.011539 0.011525 0.0115108 0.0114974 0.011485 0.0114741 0.0114649 0.0114575 0.0114519 0.0114482 0.0114464 0.0114466 0.0114487 0.0114527 0.0114586 0.0114661 0.0114753 0.011486 0.011498 0.011511 0.0115245 0.011538 0.0115509 0.0115564 0.0115421 0.0115268 0.0115117 0.0114977 0.011485 0.0114739 0.0114646 0.0114571 0.0114514 0.0114478 0.011446 0.0114462 0.0114484 0.0114524 0.0114584 0.011466 0.0114752 0.011486 0.0114982 0.0115115 0.0115256 0.0115401 0.0115535 0.011562 0.0115462 0.0115292 0.0115131 0.0114984 0.0114854 0.0114741 0.0114646 0.0114569 0.0114512 0.0114475 0.0114458 0.011446 0.0114482 0.0114523 0.0114583 0.011466 0.0114753 0.0114862 0.0114986 0.0115122 0.011527 0.0115424 0.0115568 0.0115695 0.0115511 0.0115323 0.011515 0.0114996 0.0114861 0.0114745 0.0114648 0.011457 0.0114512 0.0114474 0.0114457 0.0114459 0.0114482 0.0114523 0.0114583 0.0114661 0.0114755 0.0114866 0.0114991 0.011513 0.0115284 0.0115449 0.0115608 0.0115784 0.0115565 0.0115357 0.0115174 0.0115013 0.0114873 0.0114753 0.0114654 0.0114574 0.0114514 0.0114475 0.0114457 0.011446 0.0114482 0.0114524 0.0114585 0.0114663 0.0114759 0.0114871 0.0114998 0.011514 0.0115297 0.0115472 0.0115651 0.0115872 0.0115616 0.0115392 0.0115201 0.0115034 0.011489 0.0114767 0.0114663 0.0114581 0.011452 0.011448 0.0114461 0.0114463 0.0114485 0.0114527 0.0114588 0.0114668 0.0114765 0.0114879 0.0115008 0.011515 0.0115309 0.0115489 0.0115686 0.0115936 0.0115655 0.0115426 0.0115231 0.011506 0.0114911 0.0114783 0.0114677 0.0114592 0.0114529 0.0114487 0.0114467 0.0114468 0.011449 0.0114532 0.0114594 0.0114674 0.0114774 0.0114889 0.011502 0.0115163 0.011532 0.0115496 0.0115702 0.0115951 0.0115672 0.0115452 0.0115259 0.0115087 0.0114934 0.0114803 0.0114693 0.0114606 0.0114541 0.0114498 0.0114476 0.0114476 0.0114497 0.0114539 0.0114601 0.0114683 0.0114784 0.0114902 0.0115036 0.0115178 0.0115329 0.0115491 0.0115687 0.0115903 0.0115662 0.0115465 0.0115286 0.011511 0.0114955 0.0114821 0.0114709 0.0114621 0.0114554 0.011451 0.0114488 0.0114487 0.0114507 0.0114549 0.0114611 0.0114694 0.0114796 0.0114917 0.0115053 0.0115201 0.0115338 0.0115473 0.0115634 0.0115782 0.0115599 0.0115498 0.0115295 0.0115121 0.0114965 0.0114832 0.0114721 0.0114633 0.0114567 0.0114523 0.01145 0.0114499 0.0114519 0.011456 0.0114623 0.0114706 0.0114809 0.0114931 0.0115072 0.0115222 0.0115391 0.0115419 0.0115528 0.0115387 0.011579 0.0115477 0.0115292 0.0115112 0.0114961 0.0114833 0.0114726 0.011464 0.0114577 0.0114534 0.0114513 0.0114512 0.0114533 0.0114575 0.0114637 0.011472 0.0114823 0.0114946 0.0115089 0.0115257 0.0115421 0.0115704 0.0115088 0.0114509 0.0115495 0.0115343 0.0115236 0.0115093 0.0114959 0.0114836 0.011473 0.0114642 0.0114576 0.0114531 0.0114509 0.011451 0.0114534 0.0114579 0.0114645 0.011473 0.0114829 0.0114938 0.011505 0.0115155 0.0115197 0.0115237 0.0113877 0.0115661 0.0115401 0.0115394 0.011524 0.0115096 0.0114958 0.0114835 0.011473 0.0114645 0.0114581 0.0114539 0.0114518 0.0114519 0.0114542 0.0114587 0.0114652 0.0114736 0.0114839 0.0114956 0.0115084 0.0115209 0.0115333 0.0115275 0.0115499 0.0115888 0.0115592 0.011538 0.0115233 0.0115083 0.0114948 0.0114828 0.0114726 0.0114644 0.0114582 0.0114541 0.0114521 0.0114522 0.0114544 0.0114586 0.011465 0.0114733 0.0114836 0.0114956 0.011509 0.0115237 0.0115377 0.0115586 0.0115898 0.0115908 0.0115627 0.0115401 0.0115223 0.0115072 0.0114938 0.0114821 0.0114722 0.0114642 0.0114582 0.0114541 0.0114521 0.0114521 0.0114542 0.0114582 0.0114645 0.0114726 0.0114827 0.0114948 0.0115087 0.0115244 0.0115432 0.0115677 0.0116 0.0115838 0.0115606 0.0115394 0.0115215 0.0115061 0.0114928 0.0114814 0.0114717 0.0114639 0.0114579 0.0114539 0.0114518 0.0114518 0.0114537 0.0114577 0.0114637 0.0114717 0.0114816 0.0114936 0.0115076 0.0115239 0.0115434 0.0115672 0.0115952 0.0115742 0.011556 0.0115371 0.0115201 0.011505 0.0114919 0.0114805 0.011471 0.0114633 0.0114574 0.0114534 0.0114513 0.0114512 0.0114531 0.0114569 0.0114628 0.0114706 0.0114803 0.0114921 0.0115058 0.0115218 0.0115403 0.0115615 0.0115833 0.0115657 0.0115511 0.0115345 0.0115184 0.0115038 0.0114909 0.0114797 0.0114702 0.0114625 0.0114567 0.0114527 0.0114507 0.0114506 0.0114524 0.0114562 0.0114619 0.0114696 0.0114791 0.0114905 0.0115037 0.0115187 0.0115355 0.0115535 0.0115693 0.01156 0.0115471 0.011532 0.0115168 0.0115026 0.0114899 0.0114787 0.0114693 0.0114617 0.0114559 0.0114519 0.0114499 0.0114498 0.0114516 0.0114553 0.011461 0.0114685 0.0114778 0.0114889 0.0115015 0.0115155 0.0115305 0.0115454 0.0115566 0.0115573 0.0115444 0.0115301 0.0115155 0.0115016 0.0114889 0.0114778 0.0114683 0.0114607 0.011455 0.0114511 0.0114491 0.011449 0.0114508 0.0114546 0.0114602 0.0114676 0.0114767 0.0114874 0.0114994 0.0115125 0.0115259 0.0115385 0.011547 0.011557 0.0115432 0.011529 0.0115145 0.0115007 0.011488 0.0114769 0.0114675 0.0114598 0.0114541 0.0114502 0.0114483 0.0114483 0.0114501 0.0114539 0.0114595 0.0114668 0.0114757 0.0114861 0.0114977 0.0115099 0.0115222 0.0115332 0.0115409 0.0115583 0.0115433 0.0115286 0.011514 0.0115 0.0114872 0.0114761 0.0114666 0.0114589 0.0114532 0.0114494 0.0114475 0.0114475 0.0114495 0.0114532 0.0114588 0.0114661 0.0114749 0.0114851 0.0114963 0.011508 0.0115195 0.0115297 0.0115376 0.0115604 0.0115444 0.011529 0.0115138 0.0114996 0.0114867 0.0114754 0.0114658 0.0114582 0.0114525 0.0114487 0.0114468 0.0114469 0.0114489 0.0114527 0.0114583 0.0114656 0.0114743 0.0114844 0.0114954 0.0115068 0.0115179 0.0115279 0.0115364 0.0115632 0.0115463 0.0115299 0.0115141 0.0114994 0.0114863 0.0114748 0.0114652 0.0114575 0.0114518 0.011448 0.0114462 0.0114464 0.0114484 0.0114523 0.011458 0.0114652 0.0114739 0.0114839 0.0114948 0.0115061 0.0115173 0.0115274 0.0115365 0.0115666 0.011549 0.0115314 0.0115148 0.0114996 0.0114861 0.0114745 0.0114648 0.011457 0.0114513 0.0114475 0.0114458 0.011446 0.0114481 0.011452 0.0114577 0.011465 0.0114737 0.0114837 0.0114946 0.0115061 0.0115175 0.011528 0.0115376 0.0115711 0.0115523 0.0115333 0.0115157 0.0115 0.0114862 0.0114744 0.0114646 0.0114567 0.011451 0.0114472 0.0114454 0.0114457 0.0114478 0.0114518 0.0114576 0.0114649 0.0114737 0.0114838 0.0114948 0.0115065 0.0115183 0.0115296 0.0115395 0.0115768 0.0115562 0.0115356 0.0115171 0.0115007 0.0114866 0.0114745 0.0114645 0.0114566 0.0114508 0.011447 0.0114453 0.0114455 0.0114477 0.0114518 0.0114576 0.011465 0.0114739 0.011484 0.0114953 0.0115073 0.0115198 0.011532 0.0115425 0.0115837 0.0115604 0.0115382 0.0115187 0.0115018 0.0114873 0.011475 0.0114649 0.0114568 0.0114509 0.011447 0.0114453 0.0114455 0.0114477 0.0114518 0.0114577 0.0114652 0.0114742 0.0114846 0.0114961 0.0115085 0.0115216 0.011535 0.0115467 0.0115908 0.0115643 0.0115407 0.0115205 0.0115032 0.0114884 0.0114758 0.0114655 0.0114573 0.0114512 0.0114472 0.0114454 0.0114457 0.0114479 0.011452 0.011458 0.0114656 0.0114747 0.0114853 0.0114971 0.0115099 0.0115237 0.0115383 0.011552 0.0115968 0.0115675 0.0115432 0.0115227 0.0115051 0.0114899 0.0114771 0.0114665 0.0114581 0.0114518 0.0114478 0.0114458 0.011446 0.0114482 0.0114524 0.0114584 0.0114662 0.0114756 0.0114864 0.0114985 0.0115118 0.0115261 0.0115417 0.0115577 0.0115994 0.0115691 0.0115451 0.0115248 0.0115072 0.0114918 0.0114787 0.0114678 0.0114592 0.0114528 0.0114486 0.0114466 0.0114466 0.0114488 0.0114529 0.0114591 0.011467 0.0114766 0.0114878 0.0115003 0.0115139 0.0115285 0.0115446 0.0115624 0.0115974 0.0115686 0.0115463 0.0115268 0.0115093 0.0114938 0.0114804 0.0114694 0.0114605 0.011454 0.0114497 0.0114475 0.0114475 0.0114496 0.0114537 0.0114599 0.011468 0.0114779 0.0114894 0.0115024 0.0115163 0.0115309 0.0115464 0.0115643 0.01159 0.0115658 0.0115464 0.0115287 0.0115111 0.0114955 0.0114821 0.0114709 0.011462 0.0114553 0.0114509 0.0114487 0.0114486 0.0114506 0.0114548 0.0114609 0.0114691 0.0114792 0.0114912 0.0115047 0.0115194 0.0115332 0.0115469 0.0115622 0.0115759 0.0115575 0.011549 0.011529 0.0115118 0.0114963 0.011483 0.011472 0.0114632 0.0114566 0.0114522 0.0114499 0.0114498 0.0114518 0.0114559 0.0114622 0.0114704 0.0114806 0.0114928 0.0115069 0.0115221 0.0115394 0.0115439 0.0115546 0.0115278 0.0115779 0.0115468 0.0115285 0.0115107 0.0114956 0.0114829 0.0114723 0.0114639 0.0114575 0.0114533 0.0114511 0.0114511 0.0114532 0.0114574 0.0114637 0.011472 0.0114823 0.0114947 0.011509 0.0115258 0.0115425 0.0115711 0.01152 0.0115192 0.0115824 0.0115557 0.0115379 0.0115191 0.0115028 0.0114885 0.0114766 0.0114671 0.01146 0.0114553 0.0114531 0.0114533 0.0114557 0.0114602 0.0114667 0.0114748 0.011484 0.0114936 0.0115026 0.0115096 0.0115077 0.0115011 0.0113345 0.0115935 0.0115614 0.0115534 0.0115337 0.0115165 0.0115008 0.0114872 0.0114759 0.011467 0.0114603 0.011456 0.0114539 0.0114541 0.0114564 0.0114607 0.011467 0.011475 0.0114844 0.0114948 0.0115057 0.0115152 0.0115234 0.0115105 0.0115286 0.0116035 0.0115706 0.0115467 0.0115297 0.0115131 0.0114985 0.0114857 0.0114751 0.0114666 0.0114603 0.0114561 0.0114541 0.0114542 0.0114564 0.0114606 0.0114667 0.0114746 0.0114842 0.0114951 0.0115071 0.0115198 0.0115312 0.0115493 0.0115781 0.011599 0.0115693 0.0115455 0.0115265 0.0115106 0.0114966 0.0114845 0.0114744 0.0114662 0.0114601 0.0114561 0.011454 0.011454 0.0114561 0.0114601 0.0114661 0.011474 0.0114837 0.0114951 0.0115081 0.0115226 0.0115401 0.0115631 0.0115941 0.0115889 0.011565 0.0115431 0.0115246 0.0115087 0.0114951 0.0114834 0.0114736 0.0114657 0.0114597 0.0114557 0.0114536 0.0114536 0.0114555 0.0114594 0.0114653 0.0114732 0.0114829 0.0114944 0.0115079 0.0115237 0.0115425 0.0115658 0.0115938 0.0115787 0.0115599 0.0115405 0.0115229 0.0115075 0.011494 0.0114825 0.0114728 0.011465 0.0114591 0.0114551 0.011453 0.0114529 0.0114548 0.0114586 0.0114645 0.0114722 0.0114818 0.0114934 0.0115069 0.0115225 0.0115408 0.011562 0.0115848 0.0115717 0.0115557 0.0115383 0.0115216 0.0115064 0.0114931 0.0114816 0.011472 0.0114642 0.0114583 0.0114543 0.0114522 0.0114521 0.011454 0.0114578 0.0114635 0.0114711 0.0114806 0.0114919 0.011505 0.0115199 0.0115367 0.0115549 0.0115721 0.0115687 0.0115532 0.0115368 0.0115206 0.0115056 0.0114923 0.0114808 0.0114711 0.0114633 0.0114574 0.0114534 0.0114513 0.0114513 0.0114531 0.0114569 0.0114626 0.0114701 0.0114793 0.0114903 0.0115028 0.0115167 0.0115317 0.011547 0.0115591 0.0115688 0.0115524 0.0115361 0.01152 0.011505 0.0114916 0.01148 0.0114702 0.0114623 0.0114564 0.0114524 0.0114504 0.0114504 0.0114522 0.011456 0.0114617 0.0114691 0.0114781 0.0114887 0.0115006 0.0115134 0.0115268 0.0115394 0.0115481 0.0115709 0.0115531 0.0115361 0.0115198 0.0115046 0.011491 0.0114792 0.0114693 0.0114614 0.0114555 0.0114516 0.0114496 0.0114496 0.0114515 0.0114553 0.0114609 0.0114682 0.0114771 0.0114873 0.0114986 0.0115105 0.0115224 0.0115331 0.0115399 0.0115738 0.0115546 0.0115368 0.0115199 0.0115043 0.0114904 0.0114785 0.0114685 0.0114605 0.0114546 0.0114507 0.0114488 0.0114488 0.0114508 0.0114546 0.0114602 0.0114674 0.0114761 0.0114861 0.0114969 0.0115081 0.0115189 0.0115283 0.0115345 0.0115771 0.0115569 0.0115379 0.0115203 0.0115042 0.0114901 0.0114779 0.0114678 0.0114598 0.0114539 0.01145 0.0114481 0.0114482 0.0114502 0.011454 0.0114597 0.0114669 0.0114754 0.0114851 0.0114956 0.0115063 0.0115165 0.0115252 0.0115315 0.0115805 0.0115595 0.0115394 0.0115209 0.0115043 0.0114898 0.0114775 0.0114673 0.0114592 0.0114532 0.0114493 0.0114475 0.0114477 0.0114497 0.0114537 0.0114593 0.0114665 0.0114749 0.0114845 0.0114948 0.0115052 0.0115151 0.0115235 0.0115302 0.0115844 0.0115624 0.0115411 0.0115217 0.0115046 0.0114898 0.0114772 0.0114669 0.0114587 0.0114528 0.0114489 0.0114471 0.0114473 0.0114494 0.0114534 0.0114591 0.0114662 0.0114747 0.0114842 0.0114944 0.0115047 0.0115146 0.0115231 0.0115301 0.0115889 0.0115655 0.0115429 0.0115226 0.011505 0.0114899 0.0114771 0.0114667 0.0114585 0.0114525 0.0114486 0.0114468 0.0114471 0.0114492 0.0114532 0.011459 0.0114662 0.0114746 0.0114842 0.0114944 0.0115049 0.011515 0.0115239 0.0115311 0.0115942 0.0115688 0.0115447 0.0115237 0.0115056 0.0114902 0.0114773 0.0114668 0.0114585 0.0114524 0.0114485 0.0114468 0.011447 0.0114492 0.0114533 0.011459 0.0114663 0.0114749 0.0114845 0.0114949 0.0115057 0.0115163 0.0115259 0.0115334 0.0115998 0.0115718 0.0115465 0.0115248 0.0115064 0.0114908 0.0114777 0.0114671 0.0114587 0.0114526 0.0114487 0.0114469 0.0114471 0.0114494 0.0114534 0.0114593 0.0114667 0.0114753 0.0114852 0.0114958 0.011507 0.0115183 0.0115289 0.0115372 0.0116047 0.011574 0.0115479 0.011526 0.0115074 0.0114917 0.0114785 0.0114677 0.0114592 0.011453 0.011449 0.0114471 0.0114474 0.0114496 0.0114537 0.0114596 0.0114671 0.011476 0.0114861 0.0114971 0.0115088 0.0115209 0.0115329 0.0115429 0.0116076 0.0115752 0.011549 0.0115273 0.0115087 0.0114929 0.0114796 0.0114687 0.01146 0.0114537 0.0114496 0.0114477 0.0114479 0.0114501 0.0114542 0.0114602 0.0114679 0.011477 0.0114874 0.0114989 0.0115112 0.0115241 0.0115376 0.0115502 0.011607 0.0115747 0.0115496 0.0115285 0.0115103 0.0114944 0.0114811 0.01147 0.0114612 0.0114547 0.0114505 0.0114485 0.0114486 0.0114508 0.0114549 0.011461 0.0114688 0.0114782 0.0114891 0.0115011 0.0115141 0.0115277 0.0115425 0.0115577 0.0116021 0.0115722 0.0115494 0.0115295 0.0115118 0.0114961 0.0114826 0.0114714 0.0114625 0.011456 0.0114516 0.0114495 0.0114495 0.0114516 0.0114558 0.0114619 0.0114699 0.0114796 0.011491 0.0115037 0.0115173 0.0115316 0.0115467 0.0115633 0.0115926 0.0115676 0.0115483 0.0115307 0.0115131 0.0114975 0.0114841 0.0114729 0.011464 0.0114573 0.0114529 0.0114507 0.0114506 0.0114527 0.0114568 0.011463 0.0114711 0.0114812 0.011493 0.0115065 0.0115212 0.0115353 0.0115497 0.011565 0.0115769 0.0115574 0.0115502 0.0115305 0.0115135 0.0114981 0.0114849 0.0114739 0.0114651 0.0114585 0.0114541 0.0114519 0.0114519 0.0114539 0.011458 0.0114642 0.0114724 0.0114827 0.0114949 0.011509 0.0115244 0.0115422 0.0115489 0.0115607 0.0115191 0.0115785 0.0115479 0.01153 0.0115122 0.0114974 0.0114847 0.0114742 0.0114658 0.0114595 0.0114553 0.0114532 0.0114531 0.0114552 0.0114594 0.0114657 0.0114741 0.0114844 0.0114969 0.0115113 0.0115282 0.0115449 0.0115734 0.0115336 0.0115913 0.0116175 0.0115802 0.0115553 0.0115319 0.0115124 0.011496 0.0114827 0.0114722 0.0114646 0.0114597 0.0114575 0.0114578 0.0114604 0.0114651 0.0114718 0.0114798 0.0114886 0.0114975 0.0115048 0.0115089 0.011502 0.0114864 0.0112943 0.0116234 0.0115846 0.0115692 0.0115454 0.0115254 0.0115077 0.011493 0.0114809 0.0114715 0.0114646 0.0114602 0.0114582 0.0114585 0.0114608 0.0114652 0.0114714 0.011479 0.0114877 0.011497 0.0115061 0.0115129 0.0115174 0.0114984 0.0115136 0.0116199 0.0115834 0.011557 0.0115377 0.0115196 0.0115039 0.0114905 0.0114795 0.0114708 0.0114644 0.0114602 0.0114583 0.0114584 0.0114606 0.0114648 0.0114707 0.0114782 0.0114871 0.0114971 0.0115076 0.0115185 0.0115275 0.0115431 0.0115702 0.011609 0.0115777 0.0115525 0.0115325 0.0115158 0.0115012 0.0114887 0.0114784 0.0114702 0.0114641 0.01146 0.0114581 0.0114581 0.0114601 0.0114641 0.0114699 0.0114775 0.0114867 0.0114974 0.0115095 0.0115229 0.0115391 0.011561 0.0115912 0.0115962 0.0115717 0.011549 0.0115298 0.0115134 0.0114994 0.0114875 0.0114776 0.0114696 0.0114636 0.0114596 0.0114575 0.0114575 0.0114594 0.0114633 0.0114691 0.0114767 0.0114862 0.0114974 0.0115104 0.0115255 0.0115438 0.0115667 0.0115947 0.0115866 0.0115667 0.0115465 0.0115282 0.0115122 0.0114984 0.0114866 0.0114768 0.0114688 0.0114629 0.0114588 0.0114568 0.0114567 0.0114585 0.0114623 0.0114682 0.0114758 0.0114854 0.0114968 0.0115101 0.0115256 0.0115437 0.0115649 0.0115887 0.0115821 0.0115639 0.0115452 0.0115275 0.0115116 0.0114977 0.0114859 0.011476 0.011468 0.011462 0.0114579 0.0114559 0.0114557 0.0114576 0.0114615 0.0114673 0.0114749 0.0114844 0.0114958 0.0115089 0.0115238 0.0115406 0.0115592 0.0115779 0.0115822 0.0115633 0.0115449 0.0115273 0.0115113 0.0114972 0.0114852 0.0114751 0.0114671 0.011461 0.0114569 0.0114548 0.0114548 0.0114567 0.0114605 0.0114663 0.011474 0.0114833 0.0114944 0.011507 0.011521 0.0115361 0.0115518 0.0115655 0.011585 0.0115646 0.0115455 0.0115275 0.0115113 0.0114969 0.0114846 0.0114743 0.0114661 0.01146 0.0114559 0.0114538 0.0114538 0.0114558 0.0114597 0.0114655 0.011473 0.0114822 0.0114929 0.0115048 0.0115177 0.0115312 0.0115442 0.011554 0.011589 0.0115669 0.0115467 0.0115281 0.0115113 0.0114966 0.011484 0.0114735 0.0114652 0.011459 0.0114549 0.0114529 0.0114529 0.011455 0.0114589 0.0114647 0.0114721 0.0114811 0.0114914 0.0115027 0.0115146 0.0115266 0.0115375 0.0115446 0.0115931 0.0115697 0.0115483 0.0115288 0.0115115 0.0114963 0.0114834 0.0114728 0.0114643 0.0114581 0.0114541 0.0114521 0.0114522 0.0114543 0.0114582 0.011464 0.0114714 0.0114802 0.0114901 0.0115008 0.0115119 0.0115226 0.011532 0.0115377 0.011597 0.0115726 0.01155 0.0115297 0.0115116 0.0114961 0.0114829 0.0114721 0.0114636 0.0114573 0.0114533 0.0114514 0.0114515 0.0114537 0.0114577 0.0114635 0.0114708 0.0114794 0.0114891 0.0114993 0.0115097 0.0115196 0.0115279 0.0115332 0.0116007 0.0115755 0.0115517 0.0115305 0.0115119 0.0114959 0.0114825 0.0114716 0.011463 0.0114568 0.0114527 0.0114508 0.0114511 0.0114532 0.0114573 0.0114631 0.0114703 0.0114788 0.0114883 0.0114983 0.0115082 0.0115175 0.0115252 0.0115305 0.0116044 0.0115782 0.0115533 0.0115312 0.0115121 0.0114959 0.0114823 0.0114712 0.0114626 0.0114563 0.0114523 0.0114505 0.0114507 0.011453 0.0114571 0.0114629 0.0114701 0.0114785 0.0114878 0.0114977 0.0115074 0.0115164 0.0115239 0.0115293 0.0116085 0.0115807 0.0115547 0.0115319 0.0115124 0.0114959 0.0114821 0.011471 0.0114624 0.0114561 0.0114521 0.0114503 0.0114506 0.0114529 0.011457 0.0114628 0.01147 0.0114784 0.0114877 0.0114975 0.0115072 0.0115163 0.0115239 0.0115293 0.0116128 0.0115829 0.0115559 0.0115326 0.0115128 0.0114961 0.0114823 0.0114711 0.0114624 0.0114561 0.0114521 0.0114503 0.0114506 0.0114529 0.0114571 0.0114629 0.0114702 0.0114786 0.011488 0.0114979 0.0115078 0.0115172 0.0115251 0.0115306 0.0116167 0.0115846 0.0115567 0.0115331 0.0115132 0.0114964 0.0114826 0.0114714 0.0114626 0.0114563 0.0114523 0.0114505 0.0114508 0.0114531 0.0114573 0.0114632 0.0114705 0.0114791 0.0114886 0.0114988 0.0115091 0.011519 0.0115277 0.0115336 0.0116193 0.0115852 0.0115569 0.0115335 0.0115136 0.011497 0.0114832 0.0114719 0.0114632 0.0114568 0.0114527 0.0114509 0.0114512 0.0114535 0.0114577 0.0114637 0.0114711 0.0114798 0.0114896 0.0115001 0.011511 0.0115218 0.0115318 0.011539 0.0116194 0.0115844 0.0115567 0.0115338 0.0115144 0.0114979 0.0114841 0.0114729 0.011464 0.0114576 0.0114535 0.0114516 0.0114519 0.0114541 0.0114583 0.0114643 0.0114719 0.0114809 0.0114911 0.0115021 0.0115137 0.0115255 0.0115373 0.011547 0.0116161 0.0115821 0.0115559 0.011534 0.0115153 0.0114991 0.0114854 0.0114741 0.0114652 0.0114587 0.0114545 0.0114525 0.0114527 0.0114549 0.0114591 0.0114652 0.0114729 0.0114822 0.0114929 0.0115046 0.0115171 0.0115301 0.0115437 0.0115568 0.0116089 0.0115778 0.0115544 0.0115342 0.0115163 0.0115004 0.0114868 0.0114755 0.0114666 0.01146 0.0114557 0.0114536 0.0114537 0.0114559 0.01146 0.0114661 0.0114741 0.0114838 0.011495 0.0115076 0.0115211 0.0115352 0.0115503 0.0115662 0.011598 0.0115716 0.0115522 0.0115347 0.0115171 0.0115015 0.0114881 0.0114769 0.011468 0.0114614 0.011457 0.0114549 0.0114548 0.0114569 0.0114611 0.0114673 0.0114754 0.0114854 0.0114973 0.0115108 0.0115257 0.0115402 0.0115556 0.0115721 0.0115805 0.0115597 0.0115535 0.0115342 0.0115173 0.011502 0.0114888 0.0114779 0.0114691 0.0114626 0.0114583 0.0114561 0.011456 0.0114581 0.0114622 0.0114685 0.0114767 0.011487 0.0114993 0.0115136 0.0115293 0.0115477 0.0115569 0.0115713 0.0115138 0.0115812 0.0115512 0.0115336 0.011516 0.0115012 0.0114887 0.0114782 0.0114699 0.0114636 0.0114594 0.0114572 0.0114572 0.0114593 0.0114636 0.0114699 0.0114783 0.0114887 0.0115013 0.0115157 0.0115325 0.0115491 0.0115767 0.0115491 0.0116645 0.0116527 0.0116065 0.0115748 0.0115469 0.0115242 0.0115055 0.0114907 0.0114793 0.0114712 0.0114661 0.011464 0.0114645 0.0114676 0.0114728 0.0114799 0.0114883 0.0114972 0.0115057 0.0115121 0.0115141 0.0115032 0.0114807 0.0112698 0.0116545 0.011609 0.011586 0.0115583 0.0115357 0.0115162 0.0115003 0.0114875 0.0114777 0.0114708 0.0114664 0.0114646 0.0114651 0.0114678 0.0114723 0.0114785 0.011486 0.0114942 0.0115026 0.0115101 0.0115147 0.011516 0.0114922 0.0115056 0.0116369 0.0115972 0.0115683 0.011547 0.0115274 0.0115108 0.0114969 0.0114856 0.0114768 0.0114704 0.0114664 0.0114646 0.0114649 0.0114672 0.0114713 0.0114772 0.0114844 0.0114926 0.0115017 0.011511 0.0115202 0.0115271 0.0115408 0.0115672 0.0116197 0.0115874 0.0115611 0.0115401 0.0115226 0.0115075 0.0114948 0.0114844 0.0114762 0.0114701 0.0114661 0.0114642 0.0114644 0.0114664 0.0114703 0.0114761 0.0114833 0.0114921 0.0115021 0.0115134 0.0115258 0.0115409 0.0115619 0.0115916 0.0116054 0.0115802 0.011557 0.0115371 0.0115202 0.0115058 0.0114937 0.0114836 0.0114756 0.0114696 0.0114656 0.0114636 0.0114636 0.0114655 0.0114693 0.0114751 0.0114826 0.0114917 0.0115027 0.0115152 0.0115299 0.0115476 0.0115703 0.0115982 0.0115975 0.0115761 0.0115551 0.011536 0.0115194 0.0115051 0.0114929 0.0114829 0.0114749 0.0114688 0.0114648 0.0114627 0.0114626 0.0114645 0.0114683 0.0114742 0.0114818 0.0114913 0.0115027 0.0115159 0.0115312 0.0115492 0.0115705 0.011595 0.0115964 0.0115753 0.011555 0.0115361 0.0115193 0.0115048 0.0114925 0.0114822 0.0114741 0.0114679 0.0114637 0.0114616 0.0114615 0.0114635 0.0114674 0.0114733 0.0114811 0.0114907 0.0115022 0.0115154 0.0115304 0.0115474 0.0115663 0.0115862 0.0115996 0.011577 0.0115561 0.0115369 0.0115197 0.0115048 0.011492 0.0114815 0.0114731 0.0114668 0.0114626 0.0114605 0.0114605 0.0114625 0.0114665 0.0114725 0.0114804 0.01149 0.0115012 0.0115141 0.0115282 0.0115436 0.0115598 0.0115751 0.0116047 0.0115801 0.0115581 0.011538 0.0115202 0.0115047 0.0114916 0.0114807 0.0114721 0.0114658 0.0114615 0.0114595 0.0114595 0.0114616 0.0114657 0.0114717 0.0114796 0.011489 0.0115 0.0115122 0.0115254 0.0115391 0.0115527 0.011564 0.01161 0.0115838 0.0115603 0.0115393 0.0115208 0.0115047 0.0114912 0.01148 0.0114712 0.0114647 0.0114605 0.0114584 0.0114586 0.0114608 0.0114649 0.011471 0.0114788 0.0114881 0.0114987 0.0115103 0.0115224 0.0115346 0.011546 0.0115543 0.0116146 0.0115873 0.0115625 0.0115405 0.0115212 0.0115046 0.0114907 0.0114793 0.0114703 0.0114638 0.0114595 0.0114576 0.0114578 0.0114601 0.0114643 0.0114704 0.0114781 0.0114872 0.0114975 0.0115085 0.0115197 0.0115306 0.0115403 0.0115467 0.0116186 0.0115904 0.0115646 0.0115416 0.0115216 0.0115045 0.0114902 0.0114786 0.0114696 0.011463 0.0114588 0.0114569 0.0114571 0.0114595 0.0114638 0.0114699 0.0114776 0.0114865 0.0114964 0.0115068 0.0115173 0.0115273 0.0115358 0.0115412 0.011622 0.0115931 0.0115662 0.0115424 0.0115219 0.0115044 0.0114899 0.0114781 0.011469 0.0114624 0.0114582 0.0114564 0.0114567 0.0114591 0.0114635 0.0114696 0.0114771 0.0114859 0.0114956 0.0115056 0.0115156 0.0115248 0.0115325 0.0115375 0.0116253 0.0115953 0.0115674 0.011543 0.011522 0.0115042 0.0114895 0.0114777 0.0114685 0.011462 0.0114578 0.011456 0.0114564 0.0114589 0.0114632 0.0114693 0.0114769 0.0114855 0.011495 0.0115048 0.0115144 0.0115232 0.0115304 0.0115353 0.0116285 0.011597 0.0115683 0.0115433 0.011522 0.0115041 0.0114893 0.0114774 0.0114683 0.0114617 0.0114576 0.0114559 0.0114563 0.0114588 0.0114632 0.0114693 0.0114768 0.0114854 0.0114947 0.0115044 0.0115139 0.0115225 0.0115295 0.0115343 0.0116315 0.0115981 0.0115686 0.0115434 0.011522 0.0115041 0.0114893 0.0114774 0.0114683 0.0114618 0.0114577 0.011456 0.0114564 0.011459 0.0114634 0.0114694 0.0114769 0.0114855 0.0114948 0.0115046 0.0115141 0.0115229 0.0115299 0.0115345 0.0116337 0.0115984 0.0115685 0.0115432 0.011522 0.0115042 0.0114895 0.0114777 0.0114686 0.0114621 0.011458 0.0114563 0.0114568 0.0114593 0.0114636 0.0114697 0.0114772 0.0114859 0.0114953 0.0115053 0.0115151 0.0115242 0.0115318 0.0115365 0.0116341 0.0115974 0.0115676 0.0115427 0.0115219 0.0115044 0.0114899 0.0114782 0.0114691 0.0114627 0.0114586 0.0114568 0.0114573 0.0114598 0.0114642 0.0114702 0.0114778 0.0114866 0.0114963 0.0115065 0.0115169 0.0115268 0.0115355 0.0115408 0.0116319 0.0115951 0.0115661 0.0115421 0.0115219 0.0115049 0.0114906 0.011479 0.01147 0.0114635 0.0114594 0.0114576 0.011458 0.0114605 0.0114648 0.011471 0.0114786 0.0114876 0.0114977 0.0115085 0.0115196 0.0115307 0.0115412 0.0115486 0.0116265 0.0115911 0.0115639 0.0115414 0.0115222 0.0115056 0.0114916 0.0114802 0.0114712 0.0114647 0.0114606 0.0114587 0.011459 0.0114614 0.0114657 0.0114718 0.0114796 0.0114889 0.0114995 0.0115111 0.0115233 0.0115359 0.0115488 0.0115598 0.0116178 0.0115853 0.0115612 0.0115408 0.0115226 0.0115065 0.0114928 0.0114815 0.0114726 0.0114661 0.0114619 0.0114599 0.0114601 0.0114624 0.0114666 0.0114728 0.0114808 0.0114905 0.0115018 0.0115143 0.0115278 0.0115421 0.0115573 0.0115726 0.0116057 0.0115777 0.0115582 0.0115406 0.0115231 0.0115075 0.0114941 0.011483 0.0114741 0.0114676 0.0114633 0.0114612 0.0114613 0.0114635 0.0114677 0.011474 0.0114821 0.0114922 0.0115042 0.0115178 0.011533 0.0115483 0.0115651 0.0115832 0.0115868 0.0115645 0.011559 0.0115399 0.0115232 0.011508 0.0114949 0.011484 0.0114753 0.0114688 0.0114645 0.0114624 0.0114624 0.0114645 0.0114687 0.011475 0.0114834 0.0114938 0.0115062 0.0115207 0.0115367 0.0115558 0.011568 0.0115864 0.0115127 0.0115861 0.0115567 0.0115394 0.011522 0.0115073 0.0114948 0.0114844 0.0114761 0.0114698 0.0114656 0.0114635 0.0114635 0.0114656 0.0114698 0.0114762 0.0114847 0.0114952 0.0115078 0.0115221 0.0115387 0.011555 0.0115802 0.0115665 0.0117367 0.0116855 0.0116329 0.0115949 0.0115628 0.011537 0.0115162 0.0115 0.0114877 0.0114792 0.0114741 0.0114723 0.0114734 0.0114773 0.0114834 0.0114914 0.0115006 0.01151 0.0115187 0.0115246 0.0115254 0.0115119 0.0114846 0.0112632 0.0116852 0.0116336 0.0116029 0.0115717 0.0115467 0.0115257 0.0115088 0.0114955 0.0114855 0.0114786 0.0114745 0.011473 0.011474 0.0114771 0.011482 0.0114885 0.011496 0.011504 0.0115118 0.0115182 0.011521 0.0115198 0.011493 0.0115053 0.0116532 0.0116115 0.0115804 0.0115571 0.0115363 0.011519 0.0115046 0.0114932 0.0114844 0.0114783 0.0114745 0.011473 0.0114736 0.0114761 0.0114804 0.0114862 0.0114932 0.011501 0.0115093 0.0115175 0.0115253 0.0115308 0.0115428 0.011569 0.0116304 0.0115979 0.0115709 0.0115491 0.0115309 0.0115155 0.0115026 0.0114922 0.011484 0.0114781 0.0114743 0.0114726 0.0114729 0.011475 0.0114789 0.0114846 0.0114916 0.0114999 0.0115094 0.0115199 0.0115315 0.0115457 0.0115661 0.0115956 0.0116158 0.0115903 0.0115667 0.0115462 0.0115289 0.0115142 0.0115018 0.0114917 0.0114836 0.0114777 0.0114737 0.0114718 0.0114719 0.0114738 0.0114777 0.0114834 0.0114907 0.0114997 0.0115103 0.0115225 0.0115367 0.0115541 0.0115765 0.0116043 0.0116109 0.0115877 0.0115658 0.011546 0.0115287 0.011514 0.0115016 0.0114913 0.0114831 0.011477 0.0114729 0.0114708 0.0114707 0.0114727 0.0114766 0.0114825 0.0114902 0.0114997 0.011511 0.0115242 0.0115394 0.0115573 0.0115786 0.0116032 0.0116135 0.0115893 0.0115672 0.0115472 0.0115295 0.0115143 0.0115014 0.0114908 0.0114823 0.011476 0.0114718 0.0114696 0.0114696 0.0114716 0.0114757 0.0114818 0.0114898 0.0114996 0.0115112 0.0115246 0.0115398 0.0115569 0.0115759 0.0115966 0.0116196 0.0115932 0.0115699 0.011549 0.0115306 0.0115147 0.0115012 0.0114902 0.0114814 0.0114749 0.0114706 0.0114684 0.0114685 0.0114706 0.0114749 0.0114812 0.0114893 0.0114993 0.011511 0.0115241 0.0115385 0.0115541 0.0115706 0.0115872 0.0116263 0.0115979 0.011573 0.0115509 0.0115316 0.011515 0.011501 0.0114895 0.0114804 0.0114737 0.0114693 0.0114672 0.0114674 0.0114697 0.0114741 0.0114806 0.0114889 0.0114988 0.0115103 0.0115229 0.0115363 0.0115504 0.0115644 0.0115771 0.0116321 0.0116023 0.0115759 0.0115527 0.0115325 0.0115151 0.0115006 0.0114887 0.0114794 0.0114726 0.0114682 0.0114662 0.0114665 0.0114689 0.0114735 0.0114801 0.0114884 0.0114982 0.0115093 0.0115213 0.0115338 0.0115463 0.0115582 0.011568 0.0116366 0.0116061 0.0115785 0.0115542 0.0115332 0.0115152 0.0115002 0.0114879 0.0114784 0.0114716 0.0114672 0.0114653 0.0114657 0.0114683 0.011473 0.0114796 0.0114879 0.0114976 0.0115083 0.0115197 0.0115313 0.0115425 0.0115527 0.0115604 0.0116402 0.011609 0.0115805 0.0115553 0.0115336 0.0115151 0.0114997 0.0114872 0.0114776 0.0114707 0.0114664 0.0114645 0.0114651 0.0114678 0.0114726 0.0114792 0.0114874 0.0114969 0.0115073 0.0115182 0.011529 0.0115392 0.0115482 0.0115546 0.011643 0.0116112 0.0115818 0.011556 0.0115338 0.0115148 0.0114992 0.0114866 0.0114769 0.01147 0.0114658 0.011464 0.0114646 0.0114674 0.0114723 0.0114789 0.011487 0.0114963 0.0115064 0.0115169 0.0115271 0.0115366 0.0115447 0.0115504 0.0116455 0.0116126 0.0115826 0.0115563 0.0115337 0.0115146 0.0114988 0.0114862 0.0114764 0.0114696 0.0114654 0.0114637 0.0114644 0.0114673 0.0114721 0.0114787 0.0114868 0.0114959 0.0115058 0.0115159 0.0115257 0.0115347 0.0115422 0.0115475 0.0116477 0.0116135 0.0115828 0.0115562 0.0115334 0.0115142 0.0114984 0.0114858 0.0114762 0.0114694 0.0114652 0.0114636 0.0114643 0.0114672 0.0114721 0.0114786 0.0114866 0.0114956 0.0115053 0.0115153 0.0115248 0.0115335 0.0115407 0.0115457 0.0116494 0.0116136 0.0115824 0.0115557 0.011533 0.0115139 0.0114982 0.0114857 0.0114761 0.0114694 0.0114653 0.0114637 0.0114645 0.0114674 0.0114722 0.0114787 0.0114867 0.0114956 0.0115053 0.0115151 0.0115247 0.0115333 0.0115403 0.011545 0.01165 0.0116127 0.0115814 0.0115548 0.0115324 0.0115136 0.0114982 0.0114858 0.0114764 0.0114698 0.0114657 0.0114642 0.0114649 0.0114678 0.0114726 0.0114791 0.0114869 0.0114958 0.0115055 0.0115155 0.0115252 0.0115341 0.0115412 0.0115456 0.0116487 0.0116106 0.0115795 0.0115535 0.0115317 0.0115134 0.0114984 0.0114862 0.011477 0.0114704 0.0114664 0.0114648 0.0114655 0.0114684 0.0114731 0.0114795 0.0114873 0.0114963 0.0115062 0.0115164 0.0115266 0.0115362 0.0115441 0.0115486 0.0116447 0.0116068 0.0115769 0.0115521 0.0115312 0.0115135 0.0114988 0.011487 0.0114779 0.0114714 0.0114674 0.0114658 0.0114665 0.0114692 0.0114738 0.0114802 0.0114881 0.0114972 0.0115074 0.0115182 0.0115291 0.0115399 0.0115494 0.0115552 0.0116378 0.0116016 0.0115736 0.0115505 0.0115308 0.0115139 0.0114997 0.0114881 0.0114792 0.0114727 0.0114687 0.011467 0.0114675 0.0114701 0.0114747 0.011481 0.011489 0.0114984 0.0115091 0.0115207 0.0115329 0.0115453 0.0115575 0.0115667 0.0116282 0.0115945 0.0115699 0.0115492 0.0115308 0.0115146 0.0115008 0.0114895 0.0114806 0.0114742 0.0114701 0.0114684 0.0114687 0.0114712 0.0114757 0.011482 0.0114901 0.0114999 0.0115113 0.011524 0.0115376 0.0115522 0.0115679 0.0115823 0.0116153 0.0115859 0.0115661 0.0115485 0.011531 0.0115155 0.0115021 0.011491 0.0114822 0.0114758 0.0114716 0.0114697 0.0114699 0.0114723 0.0114766 0.011483 0.0114914 0.0115016 0.0115137 0.0115275 0.0115432 0.0115594 0.011578 0.0115978 0.0115951 0.0115718 0.0115663 0.0115475 0.0115311 0.011516 0.011503 0.0114921 0.0114836 0.0114771 0.0114729 0.0114708 0.011471 0.0114732 0.0114775 0.0114839 0.0114924 0.0115029 0.0115155 0.0115302 0.0115467 0.0115664 0.0115821 0.0116058 0.0115167 0.0115931 0.0115641 0.0115472 0.0115299 0.0115154 0.011503 0.0114927 0.0114844 0.0114781 0.0114739 0.0114718 0.0114718 0.0114739 0.0114782 0.0114846 0.0114932 0.0115037 0.0115162 0.0115304 0.0115464 0.0115621 0.0115834 0.011586 0.0118062 0.0117141 0.0116576 0.011614 0.0115783 0.0115499 0.0115272 0.0115097 0.0114968 0.0114881 0.0114833 0.0114821 0.0114843 0.0114894 0.0114969 0.0115063 0.0115168 0.0115274 0.0115368 0.011543 0.0115432 0.0115284 0.0114987 0.0112759 0.011714 0.0116578 0.0116191 0.0115849 0.0115577 0.0115355 0.0115179 0.0115042 0.0114943 0.0114877 0.0114841 0.0114833 0.011485 0.0114889 0.0114945 0.0115016 0.0115095 0.0115176 0.011525 0.0115307 0.0115324 0.0115297 0.0115017 0.0115131 0.0116674 0.0116257 0.0115927 0.0115676 0.0115458 0.0115279 0.0115134 0.011502 0.0114935 0.0114877 0.0114844 0.0114834 0.0114845 0.0114875 0.0114921 0.011498 0.0115049 0.0115125 0.0115202 0.0115275 0.0115343 0.0115388 0.0115496 0.011576 0.0116399 0.0116088 0.0115816 0.0115592 0.0115406 0.0115249 0.011512 0.0115016 0.0114937 0.011488 0.0114845 0.0114831 0.0114836 0.011486 0.01149 0.0114956 0.0115025 0.0115106 0.0115196 0.0115295 0.0115403 0.0115537 0.0115736 0.0116029 0.0116267 0.0116013 0.0115778 0.011557 0.0115394 0.0115244 0.011512 0.0115018 0.0114938 0.0114879 0.0114841 0.0114823 0.0114824 0.0114845 0.0114884 0.0114941 0.0115014 0.0115103 0.0115207 0.0115326 0.0115464 0.0115633 0.0115854 0.0116127 0.0116261 0.0116011 0.0115784 0.0115579 0.0115402 0.011525 0.0115123 0.0115019 0.0114935 0.0114874 0.0114832 0.0114812 0.0114812 0.0114833 0.0114873 0.0114933 0.0115011 0.0115107 0.0115221 0.0115352 0.0115502 0.011568 0.011589 0.0116132 0.0116324 0.0116051 0.0115815 0.0115603 0.0115418 0.011526 0.0115126 0.0115016 0.0114929 0.0114864 0.0114821 0.0114799 0.0114799 0.0114822 0.0114864 0.0114928 0.0115011 0.0115112 0.0115231 0.0115367 0.0115519 0.0115689 0.0115878 0.0116084 0.0116407 0.0116109 0.0115854 0.0115631 0.0115435 0.0115268 0.0115127 0.0115011 0.0114919 0.0114852 0.0114807 0.0114786 0.0114788 0.0114812 0.0114858 0.0114925 0.0115011 0.0115116 0.0115236 0.0115371 0.0115517 0.0115674 0.0115838 0.0116008 0.011648 0.0116166 0.0115893 0.0115656 0.011545 0.0115273 0.0115125 0.0115003 0.0114908 0.0114838 0.0114793 0.0114773 0.0114776 0.0114803 0.0114852 0.0114922 0.0115011 0.0115117 0.0115237 0.0115367 0.0115505 0.0115646 0.0115787 0.0115924 0.0116538 0.0116213 0.0115927 0.0115677 0.0115461 0.0115275 0.0115121 0.0114995 0.0114896 0.0114826 0.0114781 0.0114761 0.0114767 0.0114796 0.0114848 0.011492 0.011501 0.0115116 0.0115233 0.0115358 0.0115486 0.0115613 0.0115735 0.0115844 0.0116577 0.0116248 0.0115952 0.0115692 0.0115467 0.0115275 0.0115115 0.0114985 0.0114885 0.0114814 0.0114769 0.0114752 0.0114759 0.011479 0.0114844 0.0114917 0.0115008 0.0115112 0.0115227 0.0115346 0.0115465 0.011558 0.0115686 0.0115776 0.0116605 0.0116272 0.0115968 0.0115701 0.011547 0.0115273 0.0115109 0.0114977 0.0114875 0.0114804 0.011476 0.0114744 0.0114753 0.0114786 0.0114841 0.0114915 0.0115005 0.0115108 0.0115219 0.0115333 0.0115445 0.011555 0.0115645 0.0115721 0.0116625 0.0116287 0.0115978 0.0115706 0.011547 0.0115269 0.0115103 0.0114969 0.0114868 0.0114796 0.0114754 0.0114739 0.0114749 0.0114783 0.0114839 0.0114913 0.0115003 0.0115103 0.0115211 0.0115321 0.0115426 0.0115525 0.0115611 0.0115679 0.0116641 0.0116294 0.0115981 0.0115705 0.0115466 0.0115264 0.0115097 0.0114963 0.0114861 0.0114791 0.011475 0.0114735 0.0114747 0.0114782 0.0114837 0.0114911 0.0115 0.0115098 0.0115203 0.011531 0.0115411 0.0115504 0.0115585 0.0115648 0.0116653 0.0116295 0.0115977 0.01157 0.011546 0.0115258 0.0115091 0.0114959 0.0114858 0.0114789 0.0114748 0.0114735 0.0114747 0.0114782 0.0114837 0.011491 0.0114997 0.0115094 0.0115197 0.0115301 0.01154 0.011549 0.0115566 0.0115625 0.0116659 0.0116288 0.0115967 0.011569 0.0115452 0.0115252 0.0115087 0.0114956 0.0114857 0.0114789 0.011475 0.0114737 0.0114749 0.0114784 0.0114839 0.0114911 0.0114996 0.0115092 0.0115194 0.0115296 0.0115394 0.0115482 0.0115555 0.011561 0.0116653 0.0116271 0.011595 0.0115675 0.0115442 0.0115246 0.0115085 0.0114957 0.011486 0.0114793 0.0114754 0.0114742 0.0114754 0.0114788 0.0114842 0.0114913 0.0114997 0.0115091 0.0115193 0.0115296 0.0115395 0.0115484 0.0115556 0.0115605 0.0116626 0.011624 0.0115923 0.0115656 0.011543 0.0115241 0.0115085 0.011496 0.0114866 0.01148 0.0114762 0.011475 0.0114761 0.0114794 0.0114846 0.0114916 0.0114999 0.0115093 0.0115195 0.0115301 0.0115404 0.0115498 0.0115574 0.0115619 0.0116576 0.0116194 0.0115889 0.0115634 0.011542 0.0115239 0.0115088 0.0114968 0.0114876 0.0114812 0.0114774 0.0114761 0.0114771 0.0114803 0.0114853 0.0114921 0.0115004 0.0115099 0.0115203 0.0115313 0.0115424 0.0115529 0.0115619 0.0115667 0.0116499 0.0116132 0.0115847 0.0115612 0.0115411 0.0115239 0.0115095 0.0114979 0.0114889 0.0114827 0.0114789 0.0114774 0.0114783 0.0114813 0.0114862 0.0114929 0.0115012 0.0115109 0.0115218 0.0115335 0.0115458 0.0115582 0.0115698 0.0115771 0.0116398 0.0116054 0.0115803 0.0115593 0.0115407 0.0115244 0.0115106 0.0114993 0.0114906 0.0114843 0.0114805 0.0114789 0.0114796 0.0114824 0.0114871 0.0114937 0.0115021 0.0115121 0.0115237 0.0115366 0.0115505 0.0115655 0.0115816 0.0115944 0.0116265 0.011596 0.0115761 0.0115582 0.0115408 0.0115253 0.011512 0.011501 0.0114924 0.0114861 0.0114821 0.0114804 0.0114808 0.0114834 0.011488 0.0114946 0.0115031 0.0115135 0.0115259 0.01154 0.0115561 0.0115734 0.0115942 0.0116151 0.0116054 0.0115815 0.0115756 0.0115571 0.0115409 0.011526 0.0115131 0.0115024 0.0114938 0.0114875 0.0114834 0.0114814 0.0114817 0.0114841 0.0114885 0.0114951 0.0115038 0.0115145 0.0115273 0.0115422 0.0115591 0.0115794 0.0115991 0.0116289 0.0115261 0.0116016 0.0115732 0.0115566 0.0115396 0.0115253 0.0115131 0.011503 0.0114948 0.0114886 0.0114843 0.0114822 0.0114822 0.0114844 0.0114887 0.0114952 0.0115037 0.0115143 0.0115267 0.0115405 0.0115557 0.0115704 0.011586 0.0116081 0.011872 0.0117367 0.0116791 0.0116306 0.011592 0.0115613 0.0115371 0.0115188 0.0115056 0.0114972 0.0114931 0.0114931 0.0114969 0.0115039 0.0115135 0.0115251 0.0115377 0.0115501 0.0115608 0.0115677 0.0115683 0.0115533 0.0115235 0.0113087 0.0117394 0.0116809 0.0116336 0.011597 0.011568 0.0115448 0.0115268 0.0115132 0.0115036 0.0114977 0.011495 0.0114953 0.0114982 0.0115032 0.01151 0.0115181 0.0115268 0.0115353 0.0115429 0.0115484 0.0115495 0.0115463 0.0115194 0.0115297 0.0116786 0.0116394 0.0116051 0.0115783 0.0115557 0.0115375 0.011523 0.0115119 0.0115039 0.0114988 0.0114962 0.0114959 0.0114977 0.0115014 0.0115065 0.0115128 0.0115199 0.0115274 0.0115348 0.0115417 0.0115479 0.0115519 0.0115618 0.0115881 0.0116478 0.0116194 0.011593 0.0115704 0.0115516 0.0115358 0.011523 0.0115128 0.0115052 0.0114999 0.0114968 0.0114959 0.0114968 0.0114995 0.0115038 0.0115095 0.0115164 0.0115242 0.0115329 0.0115424 0.0115528 0.0115654 0.0115845 0.0116134 0.0116381 0.011613 0.0115901 0.0115694 0.0115517 0.0115366 0.0115241 0.011514 0.0115061 0.0115004 0.0114968 0.0114952 0.0114956 0.0114979 0.0115019 0.0115077 0.011515 0.0115238 0.011534 0.0115456 0.011559 0.0115754 0.0115968 0.011623 0.0116424 0.0116156 0.0115924 0.0115717 0.0115537 0.0115383 0.0115253 0.0115147 0.0115063 0.0115001 0.011496 0.0114941 0.0114942 0.0114964 0.0115007 0.0115069 0.0115149 0.0115246 0.011536 0.011549 0.0115639 0.0115812 0.0116016 0.0116245 0.011652 0.0116221 0.0115971 0.0115752 0.0115561 0.0115398 0.0115261 0.0115147 0.0115058 0.0114991 0.0114948 0.0114927 0.0114929 0.0114953 0.0114999 0.0115067 0.0115154 0.0115258 0.011538 0.0115517 0.0115668 0.0115835 0.0116017 0.0116214 0.0116615 0.0116292 0.011602 0.0115786 0.0115583 0.0115409 0.0115262 0.0115142 0.0115047 0.0114977 0.0114932 0.0114912 0.0114916 0.0114944 0.0114994 0.0115067 0.011516 0.011527 0.0115395 0.0115532 0.0115679 0.0115833 0.0115992 0.0116157 0.0116688 0.0116352 0.0116063 0.0115814 0.0115599 0.0115414 0.0115259 0.0115132 0.0115033 0.0114961 0.0114916 0.0114897 0.0114904 0.0114936 0.0114991 0.0115068 0.0115165 0.0115278 0.0115404 0.0115538 0.0115677 0.0115816 0.0115954 0.0116093 0.0116737 0.0116396 0.0116096 0.0115834 0.0115608 0.0115415 0.0115253 0.0115121 0.0115018 0.0114946 0.0114901 0.0114884 0.0114894 0.011493 0.0114989 0.011507 0.0115169 0.0115283 0.0115407 0.0115537 0.0115666 0.0115793 0.0115914 0.011603 0.0116768 0.0116425 0.0116117 0.0115847 0.0115612 0.0115412 0.0115244 0.0115109 0.0115005 0.0114931 0.0114888 0.0114873 0.0114886 0.0114925 0.0114987 0.0115071 0.0115171 0.0115284 0.0115406 0.011553 0.0115652 0.0115768 0.0115876 0.0115974 0.0116786 0.0116441 0.0116129 0.0115853 0.0115613 0.0115407 0.0115235 0.0115098 0.0114992 0.0114919 0.0114878 0.0114865 0.0114881 0.0114922 0.0114986 0.0115071 0.0115171 0.0115283 0.0115402 0.0115521 0.0115636 0.0115744 0.0115841 0.0115929 0.0116798 0.0116449 0.0116134 0.0115854 0.0115609 0.01154 0.0115226 0.0115087 0.0114983 0.0114911 0.011487 0.011486 0.0114877 0.011492 0.0114985 0.011507 0.011517 0.011528 0.0115395 0.0115511 0.011562 0.0115721 0.0115812 0.0115892 0.0116806 0.0116451 0.0116132 0.0115849 0.0115603 0.0115393 0.0115218 0.011508 0.0114975 0.0114905 0.0114866 0.0114857 0.0114875 0.0114919 0.0114985 0.0115069 0.0115167 0.0115275 0.0115388 0.01155 0.0115605 0.0115702 0.0115787 0.0115862 0.011681 0.0116446 0.0116125 0.0115841 0.0115594 0.0115384 0.0115211 0.0115074 0.0114971 0.0114902 0.0114864 0.0114856 0.0114876 0.0114919 0.0114984 0.0115068 0.0115164 0.011527 0.011538 0.0115489 0.0115592 0.0115685 0.0115766 0.0115837 0.0116807 0.0116435 0.0116111 0.0115827 0.0115583 0.0115376 0.0115205 0.011507 0.011497 0.0114903 0.0114867 0.0114859 0.0114879 0.0114922 0.0114985 0.0115067 0.0115161 0.0115265 0.0115373 0.0115481 0.0115582 0.0115674 0.0115751 0.0115816 0.0116792 0.0116413 0.0116089 0.011581 0.011557 0.0115368 0.0115202 0.0115071 0.0114973 0.0114908 0.0114872 0.0114865 0.0114884 0.0114926 0.0114988 0.0115067 0.0115159 0.011526 0.0115367 0.0115475 0.0115577 0.0115669 0.0115744 0.0115802 0.0116759 0.0116378 0.0116059 0.0115787 0.0115556 0.0115361 0.0115201 0.0115074 0.0114979 0.0114916 0.0114881 0.0114874 0.0114892 0.0114931 0.0114991 0.0115067 0.0115157 0.0115257 0.0115364 0.0115474 0.0115579 0.0115675 0.0115751 0.01158 0.0116704 0.0116328 0.011602 0.0115762 0.0115543 0.0115357 0.0115204 0.0115082 0.0114991 0.0114929 0.0114895 0.0114886 0.0114902 0.011494 0.0114996 0.011507 0.0115159 0.0115258 0.0115367 0.011548 0.0115593 0.0115699 0.0115783 0.0115827 0.0116626 0.0116261 0.0115974 0.0115736 0.0115533 0.0115357 0.0115212 0.0115095 0.0115006 0.0114946 0.0114911 0.0114902 0.0114915 0.011495 0.0115004 0.0115075 0.0115163 0.0115263 0.0115376 0.0115496 0.0115621 0.0115746 0.0115855 0.0115909 0.0116524 0.0116179 0.0115926 0.0115715 0.0115527 0.0115362 0.0115224 0.0115112 0.0115026 0.0114965 0.011493 0.0114918 0.0114928 0.011496 0.0115011 0.0115081 0.0115168 0.0115272 0.011539 0.0115522 0.0115665 0.011582 0.0115981 0.0116083 0.0116391 0.0116082 0.0115882 0.0115701 0.0115526 0.0115372 0.011524 0.0115131 0.0115046 0.0114985 0.0114947 0.0114933 0.0114941 0.0114969 0.0115018 0.0115087 0.0115175 0.0115282 0.0115408 0.0115553 0.0115719 0.0115904 0.0116134 0.011634 0.0116178 0.0115938 0.0115869 0.0115687 0.0115527 0.011538 0.0115253 0.0115146 0.0115062 0.0115 0.011496 0.0114943 0.0114947 0.0114973 0.011502 0.0115088 0.0115177 0.0115286 0.0115416 0.0115568 0.011574 0.0115945 0.011619 0.0116552 0.0115405 0.011611 0.0115833 0.0115672 0.0115507 0.0115369 0.0115251 0.0115152 0.0115072 0.0115011 0.0114969 0.0114948 0.0114948 0.011497 0.0115014 0.011508 0.0115166 0.011527 0.0115392 0.0115526 0.0115666 0.0115803 0.011588 0.0116337 0.0119331 0.0117517 0.0116953 0.0116425 0.0116018 0.0115693 0.0115442 0.0115254 0.0115125 0.011505 0.0115024 0.0115045 0.0115107 0.0115206 0.0115333 0.011548 0.0115635 0.0115784 0.0115912 0.0115997 0.0116014 0.0115876 0.0115597 0.0113624 0.0117599 0.0117024 0.0116456 0.0116071 0.0115766 0.0115528 0.0115347 0.0115215 0.0115128 0.011508 0.0115068 0.0115087 0.0115133 0.0115202 0.0115287 0.0115383 0.0115482 0.0115577 0.0115659 0.0115718 0.0115733 0.0115705 0.0115469 0.0115555 0.0116854 0.0116521 0.0116171 0.0115886 0.0115656 0.0115473 0.0115331 0.0115225 0.0115152 0.011511 0.0115095 0.0115103 0.0115132 0.0115178 0.0115238 0.0115309 0.0115384 0.0115461 0.0115536 0.0115604 0.0115665 0.0115707 0.0115798 0.0116057 0.0116537 0.0116292 0.0116048 0.0115824 0.0115637 0.011548 0.0115355 0.0115257 0.0115186 0.0115139 0.0115114 0.011511 0.0115126 0.0115158 0.0115205 0.0115265 0.0115335 0.0115414 0.0115499 0.0115591 0.011569 0.0115809 0.0115989 0.0116265 0.0116499 0.011625 0.0116033 0.0115832 0.0115656 0.0115508 0.0115384 0.0115284 0.0115208 0.0115153 0.011512 0.0115107 0.0115114 0.011514 0.0115183 0.0115243 0.0115318 0.0115405 0.0115506 0.0115619 0.0115748 0.0115903 0.0116104 0.0116349 0.0116594 0.0116307 0.0116074 0.0115869 0.0115689 0.0115535 0.0115405 0.0115299 0.0115215 0.0115154 0.0115114 0.0115096 0.01151 0.0115125 0.0115171 0.0115236 0.0115318 0.0115417 0.0115531 0.0115659 0.0115804 0.0115969 0.011616 0.0116368 0.0116713 0.0116392 0.0116133 0.0115912 0.011572 0.0115555 0.0115416 0.0115301 0.011521 0.0115143 0.0115099 0.011508 0.0115085 0.0115113 0.0115163 0.0115236 0.0115327 0.0115436 0.011556 0.0115696 0.0115844 0.0116003 0.0116174 0.0116351 0.0116808 0.011647 0.0116187 0.0115948 0.0115742 0.0115565 0.0115415 0.0115292 0.0115195 0.0115125 0.011508 0.0115062 0.0115069 0.0115102 0.011516 0.011524 0.0115339 0.0115455 0.0115585 0.0115723 0.0115868 0.0116015 0.0116164 0.0116316 0.0116872 0.0116527 0.0116229 0.0115974 0.0115755 0.0115566 0.0115408 0.0115278 0.0115177 0.0115104 0.011506 0.0115044 0.0115056 0.0115095 0.0115159 0.0115245 0.0115351 0.0115472 0.0115603 0.011574 0.0115878 0.0116012 0.0116143 0.0116274 0.011691 0.0116564 0.0116257 0.0115991 0.011576 0.0115563 0.0115397 0.0115262 0.0115158 0.0115085 0.0115041 0.0115029 0.0115045 0.011509 0.0115159 0.0115251 0.0115361 0.0115484 0.0115615 0.0115748 0.0115878 0.0116001 0.0116117 0.0116232 0.011693 0.0116584 0.0116272 0.0115999 0.011576 0.0115555 0.0115384 0.0115245 0.0115139 0.0115066 0.0115025 0.0115016 0.0115038 0.0115087 0.0115161 0.0115256 0.0115368 0.0115492 0.0115621 0.0115749 0.0115871 0.0115985 0.0116091 0.0116192 0.011694 0.0116593 0.0116279 0.0116 0.0115756 0.0115546 0.0115371 0.011523 0.0115123 0.0115052 0.0115013 0.0115008 0.0115032 0.0115085 0.0115162 0.011526 0.0115373 0.0115495 0.0115621 0.0115745 0.0115861 0.0115968 0.0116065 0.0116158 0.0116944 0.0116595 0.0116278 0.0115996 0.0115749 0.0115536 0.0115359 0.0115217 0.0115111 0.0115041 0.0115005 0.0115002 0.011503 0.0115085 0.0115163 0.0115262 0.0115374 0.0115494 0.0115617 0.0115737 0.0115849 0.011595 0.0116042 0.0116129 0.0116945 0.0116591 0.0116273 0.0115989 0.011574 0.0115526 0.0115348 0.0115207 0.0115102 0.0115034 0.0115001 0.0115 0.0115029 0.0115085 0.0115164 0.0115262 0.0115373 0.011549 0.0115611 0.0115727 0.0115835 0.0115933 0.0116021 0.0116104 0.0116943 0.0116584 0.0116263 0.0115978 0.0115729 0.0115516 0.011534 0.01152 0.0115098 0.0115032 0.0115 0.0115001 0.0115031 0.0115087 0.0115165 0.0115261 0.0115369 0.0115484 0.0115601 0.0115715 0.0115821 0.0115916 0.0116001 0.011608 0.0116935 0.011657 0.0116248 0.0115964 0.0115717 0.0115507 0.0115333 0.0115197 0.0115097 0.0115034 0.0115003 0.0115004 0.0115034 0.0115089 0.0115165 0.0115258 0.0115363 0.0115475 0.0115591 0.0115703 0.0115807 0.0115901 0.0115983 0.0116058 0.0116917 0.0116548 0.0116227 0.0115946 0.0115704 0.0115499 0.011533 0.0115198 0.0115101 0.011504 0.011501 0.0115012 0.011504 0.0115092 0.0115165 0.0115255 0.0115356 0.0115466 0.0115579 0.0115692 0.0115797 0.0115891 0.0115969 0.0116038 0.0116883 0.0116514 0.0116197 0.0115924 0.011569 0.0115492 0.011533 0.0115203 0.011511 0.011505 0.0115021 0.0115022 0.0115048 0.0115097 0.0115166 0.0115251 0.0115349 0.0115456 0.0115569 0.0115683 0.0115791 0.0115888 0.0115965 0.0116024 0.0116831 0.0116465 0.011616 0.01159 0.0115678 0.011549 0.0115335 0.0115213 0.0115123 0.0115065 0.0115036 0.0115035 0.0115058 0.0115103 0.0115168 0.011525 0.0115344 0.011545 0.0115563 0.011568 0.0115796 0.0115902 0.0115982 0.0116029 0.0116756 0.0116401 0.0116115 0.0115876 0.011567 0.0115492 0.0115346 0.0115229 0.0115142 0.0115085 0.0115055 0.0115051 0.0115071 0.0115112 0.0115172 0.011525 0.0115342 0.0115447 0.0115563 0.0115687 0.0115815 0.011594 0.0116041 0.011608 0.0116661 0.0116321 0.011607 0.0115857 0.0115666 0.01155 0.0115361 0.0115249 0.0115165 0.0115107 0.0115075 0.0115068 0.0115083 0.0115121 0.0115177 0.0115252 0.0115343 0.011545 0.0115572 0.0115707 0.0115853 0.0116011 0.0116167 0.0116233 0.0116535 0.0116228 0.0116028 0.0115843 0.0115667 0.0115512 0.011538 0.0115272 0.0115188 0.0115129 0.0115095 0.0115084 0.0115095 0.0115128 0.0115181 0.0115253 0.0115345 0.0115454 0.0115583 0.0115731 0.0115903 0.01161 0.011635 0.011653 0.0116318 0.0116086 0.0116001 0.0115821 0.0115664 0.011552 0.0115395 0.011529 0.0115207 0.0115147 0.0115109 0.0115094 0.01151 0.0115129 0.0115179 0.011525 0.0115341 0.0115452 0.0115584 0.0115737 0.0115913 0.0116117 0.0116419 0.0116834 0.0115592 0.0116203 0.0115935 0.011578 0.0115625 0.0115495 0.0115384 0.0115291 0.0115215 0.0115156 0.0115116 0.0115096 0.0115097 0.011512 0.0115164 0.0115231 0.0115317 0.0115421 0.011554 0.0115668 0.0115793 0.0115918 0.0115898 0.0116636 0.0119878 0.0117575 0.011704 0.0116474 0.011605 0.0115714 0.0115458 0.0115274 0.0115156 0.01151 0.01151 0.0115154 0.0115256 0.0115398 0.011557 0.011576 0.0115955 0.0116138 0.0116294 0.0116399 0.0116431 0.0116316 0.0116074 0.0114358 0.0117738 0.0117212 0.0116538 0.0116137 0.0115817 0.0115575 0.0115397 0.0115274 0.0115201 0.0115172 0.0115182 0.0115225 0.0115297 0.0115392 0.0115501 0.011562 0.011574 0.0115852 0.0115949 0.0116021 0.0116052 0.0116046 0.0115867 0.0115934 0.011687 0.0116628 0.0116283 0.0115985 0.0115753 0.0115571 0.0115434 0.0115337 0.0115275 0.0115246 0.0115244 0.0115268 0.0115312 0.0115372 0.0115445 0.0115526 0.011561 0.0115694 0.0115774 0.0115846 0.0115911 0.0115957 0.0116036 0.0116282 0.0116585 0.0116381 0.0116167 0.0115952 0.0115769 0.0115617 0.0115496 0.0115404 0.0115339 0.01153 0.0115283 0.0115288 0.0115311 0.0115351 0.0115405 0.011547 0.0115544 0.0115625 0.011571 0.01158 0.0115894 0.0116002 0.0116164 0.011642 0.0116625 0.0116372 0.0116172 0.0115982 0.0115814 0.011567 0.011555 0.0115454 0.0115381 0.011533 0.0115301 0.0115293 0.0115305 0.0115336 0.0115384 0.0115447 0.0115523 0.011561 0.0115708 0.0115816 0.0115936 0.0116078 0.011626 0.0116476 0.0116766 0.011646 0.0116229 0.0116031 0.0115857 0.0115707 0.011558 0.0115475 0.0115393 0.0115333 0.0115296 0.0115281 0.0115289 0.0115318 0.0115368 0.0115437 0.0115522 0.0115622 0.0115734 0.0115857 0.0115994 0.0116146 0.0116317 0.0116495 0.0116892 0.0116557 0.0116294 0.0116076 0.0115888 0.0115727 0.0115589 0.0115475 0.0115385 0.0115318 0.0115277 0.011526 0.0115269 0.0115302 0.0115359 0.0115437 0.0115534 0.0115646 0.011577 0.0115904 0.0116046 0.0116194 0.0116346 0.0116496 0.0116977 0.0116633 0.0116347 0.0116108 0.0115905 0.0115731 0.0115583 0.011546 0.0115363 0.0115293 0.011525 0.0115235 0.0115249 0.0115289 0.0115355 0.0115444 0.0115551 0.0115673 0.0115806 0.0115944 0.0116084 0.0116222 0.0116355 0.0116486 0.0117027 0.0116681 0.0116382 0.0116129 0.0115911 0.0115725 0.0115568 0.0115438 0.0115336 0.0115265 0.0115223 0.0115212 0.0115232 0.011528 0.0115355 0.0115454 0.011557 0.0115699 0.0115835 0.0115973 0.0116107 0.0116234 0.0116353 0.0116469 0.0117052 0.0116707 0.0116402 0.0116138 0.0115909 0.0115714 0.0115548 0.0115413 0.0115309 0.0115238 0.0115199 0.0115193 0.011522 0.0115276 0.0115359 0.0115465 0.0115587 0.011572 0.0115857 0.0115991 0.0116119 0.0116236 0.0116344 0.0116448 0.0117062 0.0116719 0.0116411 0.0116139 0.0115902 0.0115699 0.0115528 0.011539 0.0115285 0.0115214 0.0115179 0.0115179 0.0115212 0.0115275 0.0115364 0.0115476 0.0115601 0.0115735 0.011587 0.0116 0.0116121 0.011623 0.0116329 0.0116426 0.0117064 0.0116722 0.0116412 0.0116135 0.0115893 0.0115684 0.0115509 0.0115369 0.0115264 0.0115196 0.0115165 0.011517 0.0115208 0.0115276 0.011537 0.0115484 0.0115611 0.0115744 0.0115876 0.0116002 0.0116117 0.011622 0.0116313 0.0116404 0.0117063 0.0116719 0.0116407 0.0116128 0.0115882 0.011567 0.0115493 0.0115352 0.0115249 0.0115184 0.0115156 0.0115165 0.0115207 0.0115279 0.0115375 0.011549 0.0115616 0.0115747 0.0115875 0.0115997 0.0116108 0.0116207 0.0116297 0.0116384 0.0117059 0.0116713 0.0116399 0.0116118 0.011587 0.0115657 0.011548 0.0115341 0.0115239 0.0115177 0.0115153 0.0115165 0.011521 0.0115283 0.0115379 0.0115493 0.0115616 0.0115744 0.011587 0.0115988 0.0116096 0.0116192 0.011628 0.0116365 0.0117053 0.0116703 0.0116388 0.0116106 0.0115858 0.0115646 0.0115471 0.0115333 0.0115235 0.0115176 0.0115154 0.0115168 0.0115213 0.0115286 0.0115381 0.0115491 0.0115612 0.0115736 0.0115859 0.0115975 0.0116081 0.0116176 0.0116263 0.0116346 0.0117043 0.011669 0.0116373 0.0116092 0.0115846 0.0115637 0.0115465 0.0115332 0.0115236 0.011518 0.0115159 0.0115174 0.0115219 0.0115289 0.011538 0.0115487 0.0115604 0.0115724 0.0115845 0.011596 0.0116066 0.011616 0.0116244 0.0116326 0.0117025 0.011667 0.0116354 0.0116076 0.0115835 0.0115631 0.0115465 0.0115335 0.0115243 0.0115189 0.011517 0.0115183 0.0115225 0.0115292 0.0115378 0.011548 0.0115592 0.0115709 0.0115828 0.0115943 0.011605 0.0116144 0.0116227 0.0116304 0.0116997 0.0116643 0.0116331 0.0116059 0.0115826 0.011563 0.0115469 0.0115344 0.0115256 0.0115202 0.0115183 0.0115194 0.0115232 0.0115294 0.0115374 0.011547 0.0115577 0.0115691 0.0115809 0.0115926 0.0116036 0.0116134 0.0116213 0.0116282 0.0116955 0.0116603 0.0116302 0.0116043 0.0115821 0.0115634 0.011548 0.011536 0.0115274 0.0115221 0.01152 0.0115207 0.0115241 0.0115296 0.011537 0.0115461 0.0115563 0.0115674 0.0115792 0.0115912 0.0116029 0.0116135 0.0116214 0.0116268 0.0116893 0.011655 0.0116269 0.011603 0.0115822 0.0115645 0.0115498 0.0115382 0.0115297 0.0115244 0.011522 0.0115223 0.0115251 0.01153 0.0115368 0.0115453 0.0115551 0.0115661 0.011578 0.0115906 0.0116036 0.0116161 0.0116251 0.0116284 0.011681 0.0116483 0.0116236 0.0116023 0.0115829 0.011566 0.0115519 0.0115407 0.0115323 0.0115268 0.011524 0.0115238 0.011526 0.0115304 0.0115366 0.0115447 0.0115543 0.0115654 0.0115778 0.0115915 0.0116064 0.0116223 0.0116366 0.0116395 0.0116697 0.0116403 0.0116205 0.0116015 0.0115835 0.0115678 0.0115544 0.0115435 0.0115352 0.0115295 0.0115263 0.0115256 0.0115271 0.0115309 0.0115367 0.0115444 0.0115539 0.0115652 0.0115783 0.0115934 0.0116108 0.0116314 0.0116578 0.0116703 0.0116493 0.0116272 0.0116161 0.0115979 0.0115821 0.0115678 0.0115554 0.0115451 0.0115369 0.0115311 0.0115275 0.0115263 0.0115273 0.0115305 0.0115358 0.0115432 0.0115525 0.0115638 0.0115771 0.0115925 0.0116105 0.0116306 0.0116673 0.0117121 0.0115786 0.0116268 0.0116015 0.0115876 0.0115739 0.0115626 0.0115529 0.0115447 0.0115378 0.0115325 0.0115288 0.011527 0.0115273 0.0115297 0.0115344 0.0115412 0.0115499 0.0115603 0.0115718 0.0115839 0.0115947 0.0116058 0.0115924 0.0116978 0.012031 0.0117501 0.0116995 0.0116381 0.0115938 0.011559 0.0115336 0.0115165 0.0115072 0.0115052 0.01151 0.0115211 0.0115377 0.0115586 0.0115825 0.011608 0.0116334 0.0116571 0.0116773 0.0116919 0.0116988 0.0116924 0.0116752 0.0115358 0.0117803 0.0117376 0.0116589 0.0116167 0.0115831 0.0115587 0.0115415 0.0115307 0.0115255 0.0115253 0.0115295 0.0115374 0.0115483 0.0115615 0.0115761 0.0115915 0.0116065 0.0116202 0.011632 0.0116409 0.011646 0.0116485 0.0116368 0.0116421 0.0116836 0.0116705 0.011638 0.011607 0.011584 0.011566 0.0115529 0.0115441 0.0115393 0.011538 0.0115398 0.0115442 0.0115507 0.0115587 0.0115679 0.0115777 0.0115877 0.0115975 0.011607 0.0116157 0.0116236 0.0116299 0.0116368 0.0116599 0.0116635 0.011646 0.0116294 0.0116093 0.0115922 0.011578 0.0115668 0.0115585 0.0115529 0.0115498 0.0115492 0.0115508 0.0115543 0.0115593 0.0115656 0.0115729 0.0115808 0.011589 0.0115973 0.0116056 0.0116138 0.011623 0.0116364 0.0116579 0.0116771 0.0116501 0.0116321 0.011615 0.0115994 0.011586 0.0115748 0.0115657 0.0115589 0.0115544 0.0115521 0.0115519 0.0115538 0.0115575 0.0115629 0.0115696 0.0115774 0.0115859 0.0115949 0.0116044 0.0116145 0.0116267 0.011642 0.0116592 0.0116934 0.0116611 0.0116385 0.0116202 0.0116041 0.0115901 0.0115781 0.011568 0.0115601 0.0115544 0.011551 0.0115501 0.0115514 0.0115549 0.0115604 0.0115678 0.0115765 0.0115863 0.0115969 0.0116082 0.0116203 0.011634 0.0116487 0.0116627 0.0117048 0.0116708 0.0116446 0.0116238 0.0116064 0.0115912 0.011578 0.011567 0.0115582 0.0115518 0.011548 0.0115467 0.0115482 0.0115523 0.0115587 0.0115672 0.0115774 0.0115887 0.011601 0.0116139 0.0116271 0.0116408 0.0116541 0.011666 0.0117114 0.0116771 0.0116489 0.0116259 0.0116068 0.0115903 0.0115761 0.0115642 0.0115548 0.011548 0.0115441 0.0115432 0.0115453 0.0115502 0.0115579 0.0115678 0.0115795 0.0115923 0.0116057 0.0116194 0.0116328 0.0116457 0.0116575 0.0116681 0.0117147 0.0116807 0.0116515 0.0116268 0.0116061 0.0115884 0.0115732 0.0115606 0.0115508 0.0115439 0.0115402 0.0115399 0.0115429 0.0115491 0.011558 0.0115693 0.0115821 0.0115959 0.01161 0.0116237 0.0116367 0.0116487 0.0116592 0.0116689 0.011716 0.0116823 0.0116526 0.0116269 0.0116049 0.0115861 0.0115701 0.011557 0.0115469 0.0115402 0.011537 0.0115374 0.0115414 0.0115487 0.0115588 0.0115711 0.0115848 0.0115991 0.0116133 0.0116267 0.011639 0.01165 0.0116595 0.0116685 0.0117163 0.0116828 0.0116527 0.0116263 0.0116034 0.0115837 0.0115671 0.0115537 0.0115436 0.0115371 0.0115345 0.0115357 0.0115406 0.0115489 0.0115599 0.0115729 0.0115871 0.0116015 0.0116154 0.0116284 0.0116399 0.0116502 0.0116591 0.0116677 0.0117161 0.0116826 0.0116523 0.0116253 0.0116018 0.0115815 0.0115645 0.0115509 0.0115409 0.0115349 0.0115328 0.0115348 0.0115406 0.0115496 0.0115612 0.0115745 0.0115888 0.011603 0.0116166 0.011629 0.0116399 0.0116497 0.0116583 0.0116665 0.0117156 0.011682 0.0116515 0.0116242 0.0116002 0.0115796 0.0115624 0.0115488 0.0115391 0.0115335 0.011532 0.0115346 0.011541 0.0115504 0.0115623 0.0115757 0.0115898 0.0116037 0.0116168 0.0116288 0.0116393 0.0116488 0.0116572 0.0116653 0.0117149 0.0116812 0.0116505 0.0116229 0.0115987 0.011578 0.0115608 0.0115475 0.0115381 0.0115329 0.0115319 0.011535 0.0115417 0.0115513 0.0115631 0.0115763 0.0115901 0.0116036 0.0116164 0.011628 0.0116383 0.0116476 0.0116559 0.011664 0.0117141 0.0116802 0.0116493 0.0116216 0.0115974 0.0115768 0.0115599 0.0115468 0.0115378 0.0115331 0.0115325 0.0115358 0.0115425 0.011552 0.0115636 0.0115764 0.0115897 0.0116028 0.0116153 0.0116267 0.0116369 0.0116462 0.0116546 0.0116627 0.0117131 0.0116789 0.0116479 0.0116202 0.0115963 0.0115761 0.0115596 0.011547 0.0115384 0.011534 0.0115335 0.0115369 0.0115435 0.0115526 0.0115636 0.0115759 0.0115886 0.0116013 0.0116136 0.011625 0.0116352 0.0116446 0.011653 0.0116612 0.0117116 0.0116773 0.0116463 0.011619 0.0115956 0.011576 0.0115601 0.011548 0.0115397 0.0115355 0.0115351 0.0115382 0.0115443 0.0115528 0.0115632 0.0115747 0.0115869 0.0115992 0.0116113 0.0116228 0.0116333 0.0116427 0.0116512 0.0116595 0.0117095 0.0116753 0.0116447 0.0116181 0.0115955 0.0115767 0.0115614 0.0115497 0.0115418 0.0115376 0.0115369 0.0115396 0.011545 0.0115527 0.0115622 0.011573 0.0115846 0.0115965 0.0116085 0.0116202 0.0116311 0.0116409 0.0116493 0.0116572 0.0117067 0.0116729 0.0116433 0.011618 0.0115966 0.0115785 0.0115638 0.0115524 0.0115445 0.0115401 0.011539 0.0115409 0.0115455 0.0115524 0.0115609 0.0115709 0.0115819 0.0115935 0.0116055 0.0116175 0.0116292 0.0116398 0.0116478 0.0116547 0.0117029 0.0116703 0.0116427 0.0116192 0.0115989 0.0115815 0.011567 0.0115557 0.0115475 0.0115427 0.011541 0.0115422 0.0115459 0.0115517 0.0115595 0.0115687 0.0115792 0.0115905 0.0116027 0.0116152 0.0116281 0.0116405 0.0116487 0.0116527 0.011698 0.0116675 0.0116434 0.0116218 0.0116022 0.011585 0.0115705 0.011559 0.0115506 0.0115452 0.0115428 0.0115431 0.011546 0.011551 0.011558 0.0115666 0.0115767 0.0115881 0.0116007 0.0116142 0.0116288 0.0116449 0.011657 0.011657 0.0116911 0.0116634 0.0116437 0.0116233 0.0116041 0.0115872 0.011573 0.0115615 0.0115529 0.0115471 0.011544 0.0115436 0.0115456 0.0115499 0.0115562 0.0115645 0.0115745 0.0115861 0.0115995 0.0116147 0.011632 0.0116534 0.01168 0.0116849 0.011668 0.0116475 0.0116344 0.0116161 0.0116006 0.0115866 0.0115744 0.0115642 0.0115561 0.0115504 0.0115471 0.0115462 0.0115475 0.0115512 0.0115568 0.0115646 0.0115742 0.0115856 0.0115989 0.0116141 0.0116323 0.0116521 0.0116954 0.0117385 0.0116005 0.0116336 0.0116097 0.0115964 0.0115845 0.0115749 0.0115667 0.0115599 0.0115542 0.0115497 0.0115466 0.0115452 0.0115458 0.0115483 0.0115531 0.01156 0.0115687 0.011579 0.0115904 0.011602 0.0116113 0.011622 0.0115963 0.0117343 0.0120545 0.0117366 0.0116811 0.0116143 0.0115674 0.0115315 0.0115067 0.0114922 0.0114875 0.0114922 0.0115056 0.0115267 0.0115542 0.011586 0.0116199 0.0116538 0.0116853 0.0117127 0.0117342 0.0117482 0.0117532 0.0117453 0.0117364 0.0116351 0.011776 0.011745 0.0116504 0.0116045 0.011567 0.0115409 0.0115236 0.0115143 0.0115122 0.0115164 0.0115258 0.0115396 0.0115567 0.0115762 0.0115971 0.0116189 0.0116405 0.0116615 0.0116814 0.0116997 0.0117157 0.0117301 0.0117364 0.0117388 0.0116758 0.0116749 0.0116478 0.0116188 0.0115979 0.0115816 0.0115701 0.0115628 0.0115597 0.0115603 0.0115641 0.0115707 0.0115795 0.0115899 0.0116014 0.0116132 0.011625 0.0116363 0.0116466 0.0116555 0.0116623 0.0116661 0.0116672 0.0116834 0.011676 0.0116576 0.0116444 0.0116276 0.0116128 0.0116002 0.0115902 0.0115827 0.011578 0.011576 0.0115765 0.0115793 0.0115842 0.0115907 0.0115983 0.0116065 0.0116147 0.0116224 0.0116289 0.011634 0.0116377 0.0116411 0.0116509 0.0116649 0.0116938 0.0116645 0.0116478 0.0116339 0.0116207 0.0116089 0.0115988 0.0115906 0.0115844 0.0115805 0.0115789 0.0115796 0.0115824 0.0115871 0.0115931 0.0116 0.0116074 0.0116146 0.0116216 0.0116282 0.0116353 0.0116444 0.0116588 0.0116719 0.0117082 0.0116749 0.0116528 0.0116374 0.0116237 0.0116114 0.0116006 0.0115913 0.0115839 0.0115787 0.0115759 0.0115755 0.0115775 0.0115817 0.0115876 0.0115952 0.0116037 0.0116128 0.0116224 0.0116324 0.0116431 0.0116556 0.0116702 0.011681 0.0117165 0.0116828 0.0116571 0.0116389 0.0116237 0.0116103 0.0115984 0.0115882 0.0115799 0.0115739 0.0115705 0.0115698 0.011572 0.0115767 0.0115839 0.0115931 0.0116039 0.0116155 0.0116278 0.0116402 0.0116529 0.0116658 0.0116788 0.0116879 0.0117209 0.0116875 0.01166 0.0116392 0.0116222 0.0116073 0.0115944 0.0115833 0.0115743 0.011568 0.0115645 0.0115642 0.0115672 0.0115733 0.0115824 0.0115937 0.0116066 0.0116204 0.0116343 0.0116479 0.0116607 0.0116727 0.011684 0.011692 0.0117229 0.0116898 0.0116614 0.0116388 0.01162 0.0116037 0.0115896 0.0115777 0.0115684 0.011562 0.011559 0.0115596 0.0115639 0.0115718 0.0115827 0.011596 0.0116106 0.0116256 0.0116402 0.0116537 0.0116659 0.0116767 0.0116866 0.0116941 0.0117236 0.0116908 0.0116618 0.0116379 0.0116176 0.0116 0.011585 0.0115725 0.011563 0.0115569 0.0115545 0.0115563 0.0115621 0.0115717 0.0115843 0.011599 0.0116146 0.01163 0.0116445 0.0116576 0.0116689 0.0116786 0.0116877 0.0116947 0.0117235 0.0116908 0.0116614 0.0116366 0.0116151 0.0115966 0.0115808 0.0115679 0.0115584 0.0115528 0.0115514 0.0115544 0.0115617 0.0115727 0.0115865 0.011602 0.0116179 0.0116333 0.0116473 0.0116597 0.0116702 0.0116791 0.0116878 0.0116947 0.0117231 0.0116904 0.0116606 0.0116351 0.0116129 0.0115936 0.0115773 0.0115643 0.0115551 0.0115501 0.0115496 0.0115538 0.0115623 0.0115743 0.0115888 0.0116046 0.0116204 0.0116354 0.0116489 0.0116605 0.0116704 0.011679 0.0116874 0.0116942 0.0117225 0.0116898 0.0116596 0.0116336 0.0116108 0.0115911 0.0115745 0.0115617 0.0115529 0.0115486 0.0115491 0.0115542 0.0115635 0.0115761 0.0115908 0.0116065 0.0116219 0.0116364 0.0116493 0.0116605 0.0116699 0.0116783 0.0116867 0.0116936 0.0117219 0.0116889 0.0116584 0.0116321 0.011609 0.0115891 0.0115726 0.0115601 0.0115518 0.0115483 0.0115496 0.0115553 0.0115651 0.0115778 0.0115924 0.0116076 0.0116226 0.0116365 0.011649 0.0116598 0.011669 0.0116773 0.0116858 0.0116929 0.0117212 0.0116879 0.0116571 0.0116305 0.0116074 0.0115876 0.0115716 0.0115596 0.011552 0.0115491 0.0115509 0.0115571 0.0115668 0.0115793 0.0115934 0.011608 0.0116224 0.0116358 0.0116479 0.0116586 0.0116677 0.011676 0.0116847 0.0116921 0.0117203 0.0116868 0.0116557 0.011629 0.0116061 0.0115869 0.0115715 0.0115602 0.0115533 0.011551 0.011553 0.0115591 0.0115686 0.0115805 0.0115937 0.0116076 0.0116213 0.0116342 0.0116462 0.0116568 0.011666 0.0116746 0.0116835 0.0116913 0.0117192 0.0116854 0.0116542 0.0116278 0.0116056 0.0115872 0.0115727 0.0115622 0.0115559 0.0115537 0.0115557 0.0115614 0.0115701 0.011581 0.0115933 0.0116062 0.0116192 0.0116318 0.0116435 0.0116543 0.011664 0.0116727 0.011682 0.0116903 0.0117177 0.0116838 0.0116527 0.0116272 0.0116062 0.0115891 0.0115755 0.0115656 0.0115595 0.0115572 0.0115586 0.0115634 0.0115709 0.0115807 0.0115918 0.0116038 0.0116161 0.0116282 0.01164 0.0116512 0.0116613 0.0116705 0.0116802 0.0116889 0.0117158 0.0116822 0.0116521 0.0116284 0.0116091 0.0115932 0.0115803 0.0115706 0.0115641 0.011561 0.0115614 0.011565 0.0115711 0.0115795 0.0115893 0.0116004 0.011612 0.0116239 0.0116358 0.0116473 0.0116584 0.0116684 0.011678 0.0116867 0.0117137 0.0116816 0.011654 0.011633 0.0116152 0.0115998 0.0115868 0.0115763 0.0115688 0.0115646 0.0115636 0.0115656 0.0115704 0.0115774 0.0115861 0.0115962 0.0116073 0.011619 0.0116311 0.0116432 0.0116554 0.0116671 0.0116765 0.011683 0.0117121 0.0116849 0.0116616 0.0116427 0.0116247 0.0116081 0.0115934 0.0115814 0.0115725 0.0115669 0.0115645 0.0115652 0.0115687 0.0115745 0.0115823 0.0115917 0.0116023 0.011614 0.0116264 0.0116395 0.0116531 0.011668 0.0116795 0.0116795 0.0117176 0.0116956 0.0116762 0.0116544 0.0116331 0.0116137 0.0115972 0.0115839 0.0115739 0.0115674 0.0115641 0.0115638 0.0115663 0.0115711 0.0115781 0.0115869 0.0115972 0.011609 0.0116221 0.0116366 0.0116526 0.0116727 0.0116972 0.0116918 0.0117149 0.0116964 0.0116735 0.0116488 0.0116275 0.0116089 0.0115934 0.0115807 0.011571 0.0115641 0.01156 0.0115585 0.0115596 0.0115631 0.0115689 0.0115768 0.0115868 0.0115988 0.0116129 0.011629 0.0116486 0.0116681 0.0117199 0.0117596 0.0115824 0.0116037 0.0115848 0.0115829 0.0115817 0.0115814 0.0115809 0.0115799 0.0115785 0.011577 0.0115757 0.0115753 0.0115764 0.0115793 0.0115842 0.0115912 0.0116001 0.0116102 0.0116211 0.0116318 0.0116395 0.0116485 0.0116172 0.011766 0.0119471 0.0116335 0.0115491 0.0114568 0.0113896 0.01134 0.0113095 0.0112975 0.0113034 0.0113259 0.011363 0.0114122 0.0114708 0.0115357 0.011604 0.0116731 0.0117413 0.0118071 0.0118697 0.0119285 0.0119824 0.0120263 0.0120523 0.0119487 0.011779 0.0117492 0.0116592 0.0116169 0.0115833 0.0115605 0.0115457 0.0115382 0.0115377 0.0115438 0.0115559 0.0115734 0.0115953 0.0116206 0.0116478 0.0116756 0.0117027 0.0117275 0.0117489 0.0117652 0.0117749 0.0117766 0.0117667 0.0117636 0.011689 0.0116908 0.0116706 0.0116436 0.0116246 0.0116095 0.0115988 0.0115923 0.0115901 0.011592 0.0115979 0.0116073 0.0116195 0.0116337 0.0116488 0.0116637 0.011677 0.0116875 0.0116941 0.0116956 0.011691 0.011681 0.0116676 0.0116822 0.0116964 0.0116675 0.0116635 0.0116512 0.0116388 0.011628 0.0116192 0.0116128 0.0116091 0.0116084 0.0116106 0.0116154 0.0116225 0.011631 0.01164 0.0116488 0.011656 0.0116609 0.0116628 0.0116616 0.0116588 0.0116569 0.011666 0.0116924 0.0117098 0.011672 0.0116614 0.0116527 0.0116428 0.0116334 0.011625 0.0116182 0.0116132 0.0116104 0.0116099 0.0116117 0.0116155 0.0116209 0.0116272 0.0116338 0.0116399 0.0116452 0.0116497 0.0116539 0.0116591 0.0116682 0.0116834 0.0117065 0.0117185 0.0116799 0.0116629 0.0116522 0.0116423 0.0116327 0.0116238 0.011616 0.0116097 0.0116052 0.0116028 0.0116027 0.0116051 0.0116097 0.0116161 0.0116239 0.0116325 0.0116415 0.011651 0.0116608 0.0116716 0.0116841 0.0116983 0.0117156 0.0117239 0.0116863 0.0116653 0.0116512 0.0116396 0.0116289 0.0116189 0.0116099 0.0116022 0.0115965 0.0115931 0.0115926 0.0115954 0.0116012 0.0116098 0.0116206 0.0116328 0.0116457 0.0116588 0.0116715 0.0116838 0.0116958 0.0117072 0.0117212 0.0117268 0.0116903 0.0116671 0.0116499 0.011636 0.0116236 0.0116122 0.0116019 0.0115932 0.0115869 0.0115836 0.011584 0.0115885 0.0115967 0.0116083 0.0116222 0.0116373 0.0116527 0.0116673 0.0116807 0.0116925 0.0117028 0.0117122 0.0117245 0.0117282 0.0116923 0.0116678 0.0116484 0.0116322 0.011618 0.011605 0.0115937 0.0115845 0.0115783 0.0115759 0.011578 0.0115848 0.0115957 0.0116099 0.0116262 0.0116431 0.0116594 0.0116743 0.0116871 0.0116978 0.0117066 0.0117147 0.0117261 0.0117287 0.0116931 0.0116677 0.0116467 0.0116286 0.0116126 0.0115984 0.0115864 0.0115771 0.0115716 0.0115706 0.0115747 0.0115838 0.011597 0.0116131 0.0116307 0.0116483 0.0116647 0.011679 0.0116911 0.0117006 0.0117083 0.0117156 0.0117267 0.0117287 0.011693 0.011667 0.0116448 0.0116253 0.0116079 0.0115928 0.0115804 0.0115714 0.0115669 0.0115675 0.0115735 0.0115845 0.0115993 0.0116166 0.0116347 0.0116523 0.0116683 0.011682 0.0116931 0.0117017 0.0117088 0.0117157 0.0117268 0.0117285 0.0116926 0.011666 0.0116429 0.0116224 0.0116041 0.0115884 0.011576 0.0115676 0.0115642 0.0115663 0.0115738 0.0115862 0.011602 0.0116198 0.011638 0.0116553 0.0116707 0.0116836 0.011694 0.011702 0.0117086 0.0117154 0.0117265 0.0117281 0.011692 0.0116647 0.011641 0.0116198 0.011601 0.0115851 0.0115729 0.0115653 0.011563 0.0115664 0.0115752 0.0115884 0.0116047 0.0116225 0.0116405 0.0116573 0.011672 0.0116843 0.011694 0.0117017 0.0117081 0.0117148 0.0117262 0.0117277 0.0116912 0.0116635 0.0116392 0.0116175 0.0115985 0.0115828 0.0115712 0.0115644 0.0115632 0.0115676 0.0115772 0.0115909 0.0116073 0.0116249 0.0116423 0.0116585 0.0116726 0.0116843 0.0116936 0.0117009 0.0117073 0.0117141 0.0117258 0.0117273 0.0116903 0.0116621 0.0116373 0.0116155 0.0115966 0.0115814 0.0115706 0.0115649 0.0115647 0.0115699 0.01158 0.0115937 0.0116098 0.0116269 0.0116435 0.0116589 0.0116724 0.0116836 0.0116926 0.0116998 0.0117062 0.0117133 0.0117255 0.011727 0.0116892 0.0116605 0.0116355 0.0116138 0.0115955 0.0115812 0.0115716 0.011567 0.0115677 0.0115734 0.0115835 0.0115968 0.0116122 0.0116282 0.0116439 0.0116585 0.0116712 0.0116821 0.011691 0.0116982 0.0117048 0.0117123 0.0117252 0.0117267 0.011688 0.0116587 0.0116338 0.0116127 0.0115956 0.0115828 0.0115745 0.011571 0.0115723 0.011578 0.0115875 0.0115999 0.0116139 0.0116286 0.0116431 0.0116567 0.0116689 0.0116796 0.0116886 0.0116962 0.011703 0.011711 0.011725 0.0117265 0.0116865 0.0116569 0.0116326 0.0116131 0.0115979 0.0115869 0.01158 0.0115772 0.0115785 0.0115835 0.0115916 0.0116022 0.0116144 0.0116273 0.0116405 0.0116532 0.011665 0.0116758 0.0116853 0.0116934 0.0117008 0.0117092 0.0117249 0.0117262 0.0116846 0.0116555 0.0116333 0.0116166 0.0116039 0.0115947 0.0115886 0.0115856 0.0115857 0.0115888 0.0115946 0.0116028 0.0116128 0.0116241 0.011636 0.011648 0.0116597 0.0116708 0.0116809 0.0116902 0.0116983 0.0117069 0.0117247 0.0117251 0.0116824 0.0116565 0.0116389 0.0116259 0.0116154 0.0116068 0.0115999 0.0115949 0.0115922 0.0115923 0.0115952 0.0116009 0.0116089 0.0116187 0.0116298 0.0116415 0.0116532 0.0116648 0.0116759 0.0116865 0.0116961 0.0117043 0.0117233 0.0117225 0.0116841 0.0116661 0.0116545 0.0116437 0.0116326 0.0116214 0.0116107 0.0116018 0.0115954 0.0115922 0.0115925 0.0115962 0.0116029 0.0116119 0.0116226 0.0116342 0.0116463 0.0116586 0.0116708 0.011683 0.0116957 0.0117031 0.0117173 0.0117215 0.0117022 0.011696 0.0116831 0.0116671 0.0116493 0.0116316 0.0116156 0.0116025 0.0115932 0.011588 0.0115869 0.0115898 0.0115958 0.0116045 0.0116149 0.0116265 0.0116388 0.0116517 0.0116653 0.0116794 0.0116975 0.0117163 0.0117111 0.011757 0.0117547 0.0117326 0.0117053 0.0116775 0.0116515 0.0116286 0.0116097 0.0115952 0.0115854 0.01158 0.0115788 0.0115812 0.0115867 0.0115945 0.0116041 0.011615 0.011627 0.0116399 0.0116535 0.0116694 0.0116843 0.0117284 0.0117504 0.011669 0.0117274 0.0117002 0.011669 0.0116402 0.0116165 0.0115975 0.0115823 0.0115699 0.0115596 0.0115508 0.0115435 0.011538 0.0115346 0.0115342 0.0115375 0.011545 0.0115568 0.0115726 0.0115916 0.0116101 0.0116313 0.0116085 0.0117211 
