# vtk DataFile Version 5.1
vtk output
ASCII

DATASET UNSTRUCTURED_GRID
POINTS 2197 float
0 0 0
0.166667 0 0
0.333333 0 0
0.5 0 0
0.666667 0 0
0.833333 0 0
1 0 0
0 0.166667 0
0.166667 0.166667 0
0.333333 0.166667 0
0.5 0.166667 0
0.666667 0.166667 0
0.833333 0.166667 0
1 0.166667 0
0 0.333333 0
0.166667 0.333333 0
0.333333 0.333333 0
0.5 0.333333 0
0.666667 0.333333 0
0.833333 0.333333 0
1 0.333333 0
0 0.5 0
0.166667 0.5 0
0.333333 0.5 0
0.5 0.5 0
0.666667 0.5 0
0.833333 0.5 0
1 0.5 0
0 0.666667 0
0.166667 0.666667 0
0.333333 0.666667 0
0.5 0.666667 0
0.666667 0.666667 0
0.833333 0.666667 0
1 0.666667 0
0 0.833333 0
0.166667 0.833333 0
0.333333 0.833333 0
0.5 0.833333 0
0.666667 0.833333 0
0.833333 0.833333 0
1 0.833333 0
0 1 0
0.166667 1 0
0.333333 1 0
0.5 1 0
0.666667 1 0
0.833333 1 0
1 1 0
0 0 0.166667
0.166667 0 0.166667
0.333333 0 0.166667
0.5 0 0.166667
0.666667 0 0.166667
0.833333 0 0.166667
1 0 0.166667
0 0.166667 0.166667
0.166667 0.166667 0.166667
0.333333 0.166667 0.166667
0.5 0.166667 0.166667
0.666667 0.166667 0.166667
0.833333 0.166667 0.166667
1 0.166667 0.166667
0 0.333333 0.166667
0.166667 0.333333 0.166667
0.333333 0.333333 0.166667
0.5 0.333333 0.166667
0.666667 0.333333 0.166667
0.833333 0.333333 0.166667
1 0.333333 0.166667
0 0.5 0.166667
0.166667 0.5 0.166667
0.333333 0.5 0.166667
0.5 0.5 0.166667
0.666667 0.5 0.166667
0.833333 0.5 0.166667
1 0.5 0.166667
0 0.666667 0.166667
0.166667 0.666667 0.166667
0.333333 0.666667 0.166667
0.5 0.666667 0.166667
0.666667 0.666667 0.166667
0.833333 0.666667 0.166667
1 0.666667 0.166667
0 0.833333 0.166667
0.166667 0.833333 0.166667
0.333333 0.833333 0.166667
0.5 0.833333 0.166667
0.666667 0.833333 0.166667
0.833333 0.833333 0.166667
1 0.833333 0.166667
0 1 0.166667
0.166667 1 0.166667
0.333333 1 0.166667
0.5 1 0.166667
0.666667 1 0.166667
0.833333 1 0.166667
1 1 0.166667
0 0 0.333333
0.166667 0 0.333333
0.333333 0 0.333333
0.5 0 0.333333
0.666667 0 0.333333
0.833333 0 0.333333
1 0 0.333333
0 0.166667 0.333333
0.166667 0.166667 0.333333
0.333333 0.166667 0.333333
0.5 0.166667 0.333333
0.666667 0.166667 0.333333
0.833333 0.166667 0.333333
1 0.166667 0.333333
0 0.333333 0.333333
0.166667 0.333333 0.333333
0.333333 0.333333 0.333333
0.5 0.333333 0.333333
0.666667 0.333333 0.333333
0.833333 0.333333 0.333333
1 0.333333 0.333333
0 0.5 0.333333
0.166667 0.5 0.333333
0.333333 0.5 0.333333
0.5 0.5 0.333333
0.666667 0.5 0.333333
0.833333 0.5 0.333333
1 0.5 0.333333
0 0.666667 0.333333
0.166667 0.666667 0.333333
0.333333 0.666667 0.333333
0.5 0.666667 0.333333
0.666667 0.666667 0.333333
0.833333 0.666667 0.333333
1 0.666667 0.333333
0 0.833333 0.333333
0.166667 0.833333 0.333333
0.333333 0.833333 0.333333
0.5 0.833333 0.333333
0.666667 0.833333 0.333333
0.833333 0.833333 0.333333
1 0.833333 0.333333
0 1 0.333333
0.166667 1 0.333333
0.333333 1 0.333333
0.5 1 0.333333
0.666667 1 0.333333
0.833333 1 0.333333
1 1 0.333333
0 0 0.5
0.166667 0 0.5
0.333333 0 0.5
0.5 0 0.5
0.666667 0 0.5
0.833333 0 0.5
1 0 0.5
0 0.166667 0.5
0.166667 0.166667 0.5
0.333333 0.166667 0.5
0.5 0.166667 0.5
0.666667 0.166667 0.5
0.833333 0.166667 0.5
1 0.166667 0.5
0 0.333333 0.5
0.166667 0.333333 0.5
0.333333 0.333333 0.5
0.5 0.333333 0.5
0.666667 0.333333 0.5
0.833333 0.333333 0.5
1 0.333333 0.5
0 0.5 0.5
0.166667 0.5 0.5
0.333333 0.5 0.5
0.5 0.5 0.5
0.666667 0.5 0.5
0.833333 0.5 0.5
1 0.5 0.5
0 0.666667 0.5
0.166667 0.666667 0.5
0.333333 0.666667 0.5
0.5 0.666667 0.5
0.666667 0.666667 0.5
0.833333 0.666667 0.5
1 0.666667 0.5
0 0.833333 0.5
0.166667 0.833333 0.5
0.333333 0.833333 0.5
0.5 0.833333 0.5
0.666667 0.833333 0.5
0.833333 0.833333 0.5
1 0.833333 0.5
0 1 0.5
0.166667 1 0.5
0.333333 1 0.5
0.5 1 0.5
0.666667 1 0.5
0.833333 1 0.5
1 1 0.5
0 0 0.666667
0.166667 0 0.666667
0.333333 0 0.666667
0.5 0 0.666667
0.666667 0 0.666667
0.833333 0 0.666667
1 0 0.666667
0 0.166667 0.666667
0.166667 0.166667 0.666667
0.333333 0.166667 0.666667
0.5 0.166667 0.666667
0.666667 0.166667 0.666667
0.833333 0.166667 0.666667
1 0.166667 0.666667
0 0.333333 0.666667
0.166667 0.333333 0.666667
0.333333 0.333333 0.666667
0.5 0.333333 0.666667
0.666667 0.333333 0.666667
0.833333 0.333333 0.666667
1 0.333333 0.666667
0 0.5 0.666667
0.166667 0.5 0.666667
0.333333 0.5 0.666667
0.5 0.5 0.666667
0.666667 0.5 0.666667
0.833333 0.5 0.666667
1 0.5 0.666667
0 0.666667 0.666667
0.166667 0.666667 0.666667
0.333333 0.666667 0.666667
0.5 0.666667 0.666667
0.666667 0.666667 0.666667
0.833333 0.666667 0.666667
1 0.666667 0.666667
0 0.833333 0.666667
0.166667 0.833333 0.666667
0.333333 0.833333 0.666667
0.5 0.833333 0.666667
0.666667 0.833333 0.666667
0.833333 0.833333 0.666667
1 0.833333 0.666667
0 1 0.666667
0.166667 1 0.666667
0.333333 1 0.666667
0.5 1 0.666667
0.666667 1 0.666667
0.833333 1 0.666667
1 1 0.666667
0 0 0.833333
0.166667 0 0.833333
0.333333 0 0.833333
0.5 0 0.833333
0.666667 0 0.833333
0.833333 0 0.833333
1 0 0.833333
0 0.166667 0.833333
0.166667 0.166667 0.833333
0.333333 0.166667 0.833333
0.5 0.166667 0.833333
0.666667 0.166667 0.833333
0.833333 0.166667 0.833333
1 0.166667 0.833333
0 0.333333 0.833333
0.166667 0.333333 0.833333
0.333333 0.333333 0.833333
0.5 0.333333 0.833333
0.666667 0.333333 0.833333
0.833333 0.333333 0.833333
1 0.333333 0.833333
0 0.5 0.833333
0.166667 0.5 0.833333
0.333333 0.5 0.833333
0.5 0.5 0.833333
0.666667 0.5 0.833333
0.833333 0.5 0.833333
1 0.5 0.833333
0 0.666667 0.833333
0.166667 0.666667 0.833333
0.333333 0.666667 0.833333
0.5 0.666667 0.833333
0.666667 0.666667 0.833333
0.833333 0.666667 0.833333
1 0.666667 0.833333
0 0.833333 0.833333
0.166667 0.833333 0.833333
0.333333 0.833333 0.833333
0.5 0.833333 0.833333
0.666667 0.833333 0.833333
0.833333 0.833333 0.833333
1 0.833333 0.833333
0 1 0.833333
0.166667 1 0.833333
0.333333 1 0.833333
0.5 1 0.833333
0.666667 1 0.833333
0.833333 1 0.833333
1 1 0.833333
0 0 1
0.166667 0 1
0.333333 0 1
0.5 0 1
0.666667 0 1
0.833333 0 1
1 0 1
0 0.166667 1
0.166667 0.166667 1
0.333333 0.166667 1
0.5 0.166667 1
0.666667 0.166667 1
0.833333 0.166667 1
1 0.166667 1
0 0.333333 1
0.166667 0.333333 1
0.333333 0.333333 1
0.5 0.333333 1
0.666667 0.333333 1
0.833333 0.333333 1
1 0.333333 1
0 0.5 1
0.166667 0.5 1
0.333333 0.5 1
0.5 0.5 1
0.666667 0.5 1
0.833333 0.5 1
1 0.5 1
0 0.666667 1
0.166667 0.666667 1
0.333333 0.666667 1
0.5 0.666667 1
0.666667 0.666667 1
0.833333 0.666667 1
1 0.666667 1
0 0.833333 1
0.166667 0.833333 1
0.333333 0.833333 1
0.5 0.833333 1
0.666667 0.833333 1
0.833333 0.833333 1
1 0.833333 1
0 1 1
0.166667 1 1
0.333333 1 1
0.5 1 1
0.666667 1 1
0.833333 1 1
1 1 1
0.0833333 0 0
0.166667 0 0.0833333
0.0833333 0 0.166667
0 0 0.0833333
0 0.0833333 0
0.166667 0.0833333 0
0.166667 0.0833333 0.166667
0 0.0833333 0.166667
0.0833333 0.166667 0
0.166667 0.166667 0.0833333
0.0833333 0.166667 0.166667
0 0.166667 0.0833333
0.0833333 0 0.0833333
0.0833333 0.0833333 0
0.166667 0.0833333 0.0833333
0.0833333 0.0833333 0.166667
0 0.0833333 0.0833333
0.0833333 0.166667 0.0833333
0.0833333 0.0833333 0.0833333
0.25 0 0
0.333333 0 0.0833333
0.25 0 0.166667
0.333333 0.0833333 0
0.333333 0.0833333 0.166667
0.25 0.166667 0
0.333333 0.166667 0.0833333
0.25 0.166667 0.166667
0.25 0 0.0833333
0.25 0.0833333 0
0.333333 0.0833333 0.0833333
0.25 0.0833333 0.166667
0.25 0.166667 0.0833333
0.25 0.0833333 0.0833333
0.416667 0 0
0.5 0 0.0833333
0.416667 0 0.166667
0.5 0.0833333 0
0.5 0.0833333 0.166667
0.416667 0.166667 0
0.5 0.166667 0.0833333
0.416667 0.166667 0.166667
0.416667 0 0.0833333
0.416667 0.0833333 0
0.5 0.0833333 0.0833333
0.416667 0.0833333 0.166667
0.416667 0.166667 0.0833333
0.416667 0.0833333 0.0833333
0.583333 0 0
0.666667 0 0.0833333
0.583333 0 0.166667
0.666667 0.0833333 0
0.666667 0.0833333 0.166667
0.583333 0.166667 0
0.666667 0.166667 0.0833333
0.583333 0.166667 0.166667
0.583333 0 0.0833333
0.583333 0.0833333 0
0.666667 0.0833333 0.0833333
0.583333 0.0833333 0.166667
0.583333 0.166667 0.0833333
0.583333 0.0833333 0.0833333
0.75 0 0
0.833333 0 0.0833333
0.75 0 0.166667
0.833333 0.0833333 0
0.833333 0.0833333 0.166667
0.75 0.166667 0
0.833333 0.166667 0.0833333
0.75 0.166667 0.166667
0.75 0 0.0833333
0.75 0.0833333 0
0.833333 0.0833333 0.0833333
0.75 0.0833333 0.166667
0.75 0.166667 0.0833333
0.75 0.0833333 0.0833333
0.916667 0 0
1 0 0.0833333
0.916667 0 0.166667
1 0.0833333 0
1 0.0833333 0.166667
0.916667 0.166667 0
1 0.166667 0.0833333
0.916667 0.166667 0.166667
0.916667 0 0.0833333
0.916667 0.0833333 0
1 0.0833333 0.0833333
0.916667 0.0833333 0.166667
0.916667 0.166667 0.0833333
0.916667 0.0833333 0.0833333
0 0.25 0
0.166667 0.25 0
0.166667 0.25 0.166667
0 0.25 0.166667
0.0833333 0.333333 0
0.166667 0.333333 0.0833333
0.0833333 0.333333 0.166667
0 0.333333 0.0833333
0.0833333 0.25 0
0.166667 0.25 0.0833333
0.0833333 0.25 0.166667
0 0.25 0.0833333
0.0833333 0.333333 0.0833333
0.0833333 0.25 0.0833333
0.333333 0.25 0
0.333333 0.25 0.166667
0.25 0.333333 0
0.333333 0.333333 0.0833333
0.25 0.333333 0.166667
0.25 0.25 0
0.333333 0.25 0.0833333
0.25 0.25 0.166667
0.25 0.333333 0.0833333
0.25 0.25 0.0833333
0.5 0.25 0
0.5 0.25 0.166667
0.416667 0.333333 0
0.5 0.333333 0.0833333
0.416667 0.333333 0.166667
0.416667 0.25 0
0.5 0.25 0.0833333
0.416667 0.25 0.166667
0.416667 0.333333 0.0833333
0.416667 0.25 0.0833333
0.666667 0.25 0
0.666667 0.25 0.166667
0.583333 0.333333 0
0.666667 0.333333 0.0833333
0.583333 0.333333 0.166667
0.583333 0.25 0
0.666667 0.25 0.0833333
0.583333 0.25 0.166667
0.583333 0.333333 0.0833333
0.583333 0.25 0.0833333
0.833333 0.25 0
0.833333 0.25 0.166667
0.75 0.333333 0
0.833333 0.333333 0.0833333
0.75 0.333333 0.166667
0.75 0.25 0
0.833333 0.25 0.0833333
0.75 0.25 0.166667
0.75 0.333333 0.0833333
0.75 0.25 0.0833333
1 0.25 0
1 0.25 0.166667
0.916667 0.333333 0
1 0.333333 0.0833333
0.916667 0.333333 0.166667
0.916667 0.25 0
1 0.25 0.0833333
0.916667 0.25 0.166667
0.916667 0.333333 0.0833333
0.916667 0.25 0.0833333
0 0.416667 0
0.166667 0.416667 0
0.166667 0.416667 0.166667
0 0.416667 0.166667
0.0833333 0.5 0
0.166667 0.5 0.0833333
0.0833333 0.5 0.166667
0 0.5 0.0833333
0.0833333 0.416667 0
0.166667 0.416667 0.0833333
0.0833333 0.416667 0.166667
0 0.416667 0.0833333
0.0833333 0.5 0.0833333
0.0833333 0.416667 0.0833333
0.333333 0.416667 0
0.333333 0.416667 0.166667
0.25 0.5 0
0.333333 0.5 0.0833333
0.25 0.5 0.166667
0.25 0.416667 0
0.333333 0.416667 0.0833333
0.25 0.416667 0.166667
0.25 0.5 0.0833333
0.25 0.416667 0.0833333
0.5 0.416667 0
0.5 0.416667 0.166667
0.416667 0.5 0
0.5 0.5 0.0833333
0.416667 0.5 0.166667
0.416667 0.416667 0
0.5 0.416667 0.0833333
0.416667 0.416667 0.166667
0.416667 0.5 0.0833333
0.416667 0.416667 0.0833333
0.666667 0.416667 0
0.666667 0.416667 0.166667
0.583333 0.5 0
0.666667 0.5 0.0833333
0.583333 0.5 0.166667
0.583333 0.416667 0
0.666667 0.416667 0.0833333
0.583333 0.416667 0.166667
0.583333 0.5 0.0833333
0.583333 0.416667 0.0833333
0.833333 0.416667 0
0.833333 0.416667 0.166667
0.75 0.5 0
0.833333 0.5 0.0833333
0.75 0.5 0.166667
0.75 0.416667 0
0.833333 0.416667 0.0833333
0.75 0.416667 0.166667
0.75 0.5 0.0833333
0.75 0.416667 0.0833333
1 0.416667 0
1 0.416667 0.166667
0.916667 0.5 0
1 0.5 0.0833333
0.916667 0.5 0.166667
0.916667 0.416667 0
1 0.416667 0.0833333
0.916667 0.416667 0.166667
0.916667 0.5 0.0833333
0.916667 0.416667 0.0833333
0 0.583333 0
0.166667 0.583333 0
0.166667 0.583333 0.166667
0 0.583333 0.166667
0.0833333 0.666667 0
0.166667 0.666667 0.0833333
0.0833333 0.666667 0.166667
0 0.666667 0.0833333
0.0833333 0.583333 0
0.166667 0.583333 0.0833333
0.0833333 0.583333 0.166667
0 0.583333 0.0833333
0.0833333 0.666667 0.0833333
0.0833333 0.583333 0.0833333
0.333333 0.583333 0
0.333333 0.583333 0.166667
0.25 0.666667 0
0.333333 0.666667 0.0833333
0.25 0.666667 0.166667
0.25 0.583333 0
0.333333 0.583333 0.0833333
0.25 0.583333 0.166667
0.25 0.666667 0.0833333
0.25 0.583333 0.0833333
0.5 0.583333 0
0.5 0.583333 0.166667
0.416667 0.666667 0
0.5 0.666667 0.0833333
0.416667 0.666667 0.166667
0.416667 0.583333 0
0.5 0.583333 0.0833333
0.416667 0.583333 0.166667
0.416667 0.666667 0.0833333
0.416667 0.583333 0.0833333
0.666667 0.583333 0
0.666667 0.583333 0.166667
0.583333 0.666667 0
0.666667 0.666667 0.0833333
0.583333 0.666667 0.166667
0.583333 0.583333 0
0.666667 0.583333 0.0833333
0.583333 0.583333 0.166667
0.583333 0.666667 0.0833333
0.583333 0.583333 0.0833333
0.833333 0.583333 0
0.833333 0.583333 0.166667
0.75 0.666667 0
0.833333 0.666667 0.0833333
0.75 0.666667 0.166667
0.75 0.583333 0
0.833333 0.583333 0.0833333
0.75 0.583333 0.166667
0.75 0.666667 0.0833333
0.75 0.583333 0.0833333
1 0.583333 0
1 0.583333 0.166667
0.916667 0.666667 0
1 0.666667 0.0833333
0.916667 0.666667 0.166667
0.916667 0.583333 0
1 0.583333 0.0833333
0.916667 0.583333 0.166667
0.916667 0.666667 0.0833333
0.916667 0.583333 0.0833333
0 0.75 0
0.166667 0.75 0
0.166667 0.75 0.166667
0 0.75 0.166667
0.0833333 0.833333 0
0.166667 0.833333 0.0833333
0.0833333 0.833333 0.166667
0 0.833333 0.0833333
0.0833333 0.75 0
0.166667 0.75 0.0833333
0.0833333 0.75 0.166667
0 0.75 0.0833333
0.0833333 0.833333 0.0833333
0.0833333 0.75 0.0833333
0.333333 0.75 0
0.333333 0.75 0.166667
0.25 0.833333 0
0.333333 0.833333 0.0833333
0.25 0.833333 0.166667
0.25 0.75 0
0.333333 0.75 0.0833333
0.25 0.75 0.166667
0.25 0.833333 0.0833333
0.25 0.75 0.0833333
0.5 0.75 0
0.5 0.75 0.166667
0.416667 0.833333 0
0.5 0.833333 0.0833333
0.416667 0.833333 0.166667
0.416667 0.75 0
0.5 0.75 0.0833333
0.416667 0.75 0.166667
0.416667 0.833333 0.0833333
0.416667 0.75 0.0833333
0.666667 0.75 0
0.666667 0.75 0.166667
0.583333 0.833333 0
0.666667 0.833333 0.0833333
0.583333 0.833333 0.166667
0.583333 0.75 0
0.666667 0.75 0.0833333
0.583333 0.75 0.166667
0.583333 0.833333 0.0833333
0.583333 0.75 0.0833333
0.833333 0.75 0
0.833333 0.75 0.166667
0.75 0.833333 0
0.833333 0.833333 0.0833333
0.75 0.833333 0.166667
0.75 0.75 0
0.833333 0.75 0.0833333
0.75 0.75 0.166667
0.75 0.833333 0.0833333
0.75 0.75 0.0833333
1 0.75 0
1 0.75 0.166667
0.916667 0.833333 0
1 0.833333 0.0833333
0.916667 0.833333 0.166667
0.916667 0.75 0
1 0.75 0.0833333
0.916667 0.75 0.166667
0.916667 0.833333 0.0833333
0.916667 0.75 0.0833333
0 0.916667 0
0.166667 0.916667 0
0.166667 0.916667 0.166667
0 0.916667 0.166667
0.0833333 1 0
0.166667 1 0.0833333
0.0833333 1 0.166667
0 1 0.0833333
0.0833333 0.916667 0
0.166667 0.916667 0.0833333
0.0833333 0.916667 0.166667
0 0.916667 0.0833333
0.0833333 1 0.0833333
0.0833333 0.916667 0.0833333
0.333333 0.916667 0
0.333333 0.916667 0.166667
0.25 1 0
0.333333 1 0.0833333
0.25 1 0.166667
0.25 0.916667 0
0.333333 0.916667 0.0833333
0.25 0.916667 0.166667
0.25 1 0.0833333
0.25 0.916667 0.0833333
0.5 0.916667 0
0.5 0.916667 0.166667
0.416667 1 0
0.5 1 0.0833333
0.416667 1 0.166667
0.416667 0.916667 0
0.5 0.916667 0.0833333
0.416667 0.916667 0.166667
0.416667 1 0.0833333
0.416667 0.916667 0.0833333
0.666667 0.916667 0
0.666667 0.916667 0.166667
0.583333 1 0
0.666667 1 0.0833333
0.583333 1 0.166667
0.583333 0.916667 0
0.666667 0.916667 0.0833333
0.583333 0.916667 0.166667
0.583333 1 0.0833333
0.583333 0.916667 0.0833333
0.833333 0.916667 0
0.833333 0.916667 0.166667
0.75 1 0
0.833333 1 0.0833333
0.75 1 0.166667
0.75 0.916667 0
0.833333 0.916667 0.0833333
0.75 0.916667 0.166667
0.75 1 0.0833333
0.75 0.916667 0.0833333
1 0.916667 0
1 0.916667 0.166667
0.916667 1 0
1 1 0.0833333
0.916667 1 0.166667
0.916667 0.916667 0
1 0.916667 0.0833333
0.916667 0.916667 0.166667
0.916667 1 0.0833333
0.916667 0.916667 0.0833333
0.166667 0 0.25
0.0833333 0 0.333333
0 0 0.25
0.166667 0.0833333 0.333333
0 0.0833333 0.333333
0.166667 0.166667 0.25
0.0833333 0.166667 0.333333
0 0.166667 0.25
0.0833333 0 0.25
0.166667 0.0833333 0.25
0.0833333 0.0833333 0.333333
0 0.0833333 0.25
0.0833333 0.166667 0.25
0.0833333 0.0833333 0.25
0.333333 0 0.25
0.25 0 0.333333
0.333333 0.0833333 0.333333
0.333333 0.166667 0.25
0.25 0.166667 0.333333
0.25 0 0.25
0.333333 0.0833333 0.25
0.25 0.0833333 0.333333
0.25 0.166667 0.25
0.25 0.0833333 0.25
0.5 0 0.25
0.416667 0 0.333333
0.5 0.0833333 0.333333
0.5 0.166667 0.25
0.416667 0.166667 0.333333
0.416667 0 0.25
0.5 0.0833333 0.25
0.416667 0.0833333 0.333333
0.416667 0.166667 0.25
0.416667 0.0833333 0.25
0.666667 0 0.25
0.583333 0 0.333333
0.666667 0.0833333 0.333333
0.666667 0.166667 0.25
0.583333 0.166667 0.333333
0.583333 0 0.25
0.666667 0.0833333 0.25
0.583333 0.0833333 0.333333
0.583333 0.166667 0.25
0.583333 0.0833333 0.25
0.833333 0 0.25
0.75 0 0.333333
0.833333 0.0833333 0.333333
0.833333 0.166667 0.25
0.75 0.166667 0.333333
0.75 0 0.25
0.833333 0.0833333 0.25
0.75 0.0833333 0.333333
0.75 0.166667 0.25
0.75 0.0833333 0.25
1 0 0.25
0.916667 0 0.333333
1 0.0833333 0.333333
1 0.166667 0.25
0.916667 0.166667 0.333333
0.916667 0 0.25
1 0.0833333 0.25
0.916667 0.0833333 0.333333
0.916667 0.166667 0.25
0.916667 0.0833333 0.25
0.166667 0.25 0.333333
0 0.25 0.333333
0.166667 0.333333 0.25
0.0833333 0.333333 0.333333
0 0.333333 0.25
0.166667 0.25 0.25
0.0833333 0.25 0.333333
0 0.25 0.25
0.0833333 0.333333 0.25
0.0833333 0.25 0.25
0.333333 0.25 0.333333
0.333333 0.333333 0.25
0.25 0.333333 0.333333
0.333333 0.25 0.25
0.25 0.25 0.333333
0.25 0.333333 0.25
0.25 0.25 0.25
0.5 0.25 0.333333
0.5 0.333333 0.25
0.416667 0.333333 0.333333
0.5 0.25 0.25
0.416667 0.25 0.333333
0.416667 0.333333 0.25
0.416667 0.25 0.25
0.666667 0.25 0.333333
0.666667 0.333333 0.25
0.583333 0.333333 0.333333
0.666667 0.25 0.25
0.583333 0.25 0.333333
0.583333 0.333333 0.25
0.583333 0.25 0.25
0.833333 0.25 0.333333
0.833333 0.333333 0.25
0.75 0.333333 0.333333
0.833333 0.25 0.25
0.75 0.25 0.333333
0.75 0.333333 0.25
0.75 0.25 0.25
1 0.25 0.333333
1 0.333333 0.25
0.916667 0.333333 0.333333
1 0.25 0.25
0.916667 0.25 0.333333
0.916667 0.333333 0.25
0.916667 0.25 0.25
0.166667 0.416667 0.333333
0 0.416667 0.333333
0.166667 0.5 0.25
0.0833333 0.5 0.333333
0 0.5 0.25
0.166667 0.416667 0.25
0.0833333 0.416667 0.333333
0 0.416667 0.25
0.0833333 0.5 0.25
0.0833333 0.416667 0.25
0.333333 0.416667 0.333333
0.333333 0.5 0.25
0.25 0.5 0.333333
0.333333 0.416667 0.25
0.25 0.416667 0.333333
0.25 0.5 0.25
0.25 0.416667 0.25
0.5 0.416667 0.333333
0.5 0.5 0.25
0.416667 0.5 0.333333
0.5 0.416667 0.25
0.416667 0.416667 0.333333
0.416667 0.5 0.25
0.416667 0.416667 0.25
0.666667 0.416667 0.333333
0.666667 0.5 0.25
0.583333 0.5 0.333333
0.666667 0.416667 0.25
0.583333 0.416667 0.333333
0.583333 0.5 0.25
0.583333 0.416667 0.25
0.833333 0.416667 0.333333
0.833333 0.5 0.25
0.75 0.5 0.333333
0.833333 0.416667 0.25
0.75 0.416667 0.333333
0.75 0.5 0.25
0.75 0.416667 0.25
1 0.416667 0.333333
1 0.5 0.25
0.916667 0.5 0.333333
1 0.416667 0.25
0.916667 0.416667 0.333333
0.916667 0.5 0.25
0.916667 0.416667 0.25
0.166667 0.583333 0.333333
0 0.583333 0.333333
0.166667 0.666667 0.25
0.0833333 0.666667 0.333333
0 0.666667 0.25
0.166667 0.583333 0.25
0.0833333 0.583333 0.333333
0 0.583333 0.25
0.0833333 0.666667 0.25
0.0833333 0.583333 0.25
0.333333 0.583333 0.333333
0.333333 0.666667 0.25
0.25 0.666667 0.333333
0.333333 0.583333 0.25
0.25 0.583333 0.333333
0.25 0.666667 0.25
0.25 0.583333 0.25
0.5 0.583333 0.333333
0.5 0.666667 0.25
0.416667 0.666667 0.333333
0.5 0.583333 0.25
0.416667 0.583333 0.333333
0.416667 0.666667 0.25
0.416667 0.583333 0.25
0.666667 0.583333 0.333333
0.666667 0.666667 0.25
0.583333 0.666667 0.333333
0.666667 0.583333 0.25
0.583333 0.583333 0.333333
0.583333 0.666667 0.25
0.583333 0.583333 0.25
0.833333 0.583333 0.333333
0.833333 0.666667 0.25
0.75 0.666667 0.333333
0.833333 0.583333 0.25
0.75 0.583333 0.333333
0.75 0.666667 0.25
0.75 0.583333 0.25
1 0.583333 0.333333
1 0.666667 0.25
0.916667 0.666667 0.333333
1 0.583333 0.25
0.916667 0.583333 0.333333
0.916667 0.666667 0.25
0.916667 0.583333 0.25
0.166667 0.75 0.333333
0 0.75 0.333333
0.166667 0.833333 0.25
0.0833333 0.833333 0.333333
0 0.833333 0.25
0.166667 0.75 0.25
0.0833333 0.75 0.333333
0 0.75 0.25
0.0833333 0.833333 0.25
0.0833333 0.75 0.25
0.333333 0.75 0.333333
0.333333 0.833333 0.25
0.25 0.833333 0.333333
0.333333 0.75 0.25
0.25 0.75 0.333333
0.25 0.833333 0.25
0.25 0.75 0.25
0.5 0.75 0.333333
0.5 0.833333 0.25
0.416667 0.833333 0.333333
0.5 0.75 0.25
0.416667 0.75 0.333333
0.416667 0.833333 0.25
0.416667 0.75 0.25
0.666667 0.75 0.333333
0.666667 0.833333 0.25
0.583333 0.833333 0.333333
0.666667 0.75 0.25
0.583333 0.75 0.333333
0.583333 0.833333 0.25
0.583333 0.75 0.25
0.833333 0.75 0.333333
0.833333 0.833333 0.25
0.75 0.833333 0.333333
0.833333 0.75 0.25
0.75 0.75 0.333333
0.75 0.833333 0.25
0.75 0.75 0.25
1 0.75 0.333333
1 0.833333 0.25
0.916667 0.833333 0.333333
1 0.75 0.25
0.916667 0.75 0.333333
0.916667 0.833333 0.25
0.916667 0.75 0.25
0.166667 0.916667 0.333333
0 0.916667 0.333333
0.166667 1 0.25
0.0833333 1 0.333333
0 1 0.25
0.166667 0.916667 0.25
0.0833333 0.916667 0.333333
0 0.916667 0.25
0.0833333 1 0.25
0.0833333 0.916667 0.25
0.333333 0.916667 0.333333
0.333333 1 0.25
0.25 1 0.333333
0.333333 0.916667 0.25
0.25 0.916667 0.333333
0.25 1 0.25
0.25 0.916667 0.25
0.5 0.916667 0.333333
0.5 1 0.25
0.416667 1 0.333333
0.5 0.916667 0.25
0.416667 0.916667 0.333333
0.416667 1 0.25
0.416667 0.916667 0.25
0.666667 0.916667 0.333333
0.666667 1 0.25
0.583333 1 0.333333
0.666667 0.916667 0.25
0.583333 0.916667 0.333333
0.583333 1 0.25
0.583333 0.916667 0.25
0.833333 0.916667 0.333333
0.833333 1 0.25
0.75 1 0.333333
0.833333 0.916667 0.25
0.75 0.916667 0.333333
0.75 1 0.25
0.75 0.916667 0.25
1 0.916667 0.333333
1 1 0.25
0.916667 1 0.333333
1 0.916667 0.25
0.916667 0.916667 0.333333
0.916667 1 0.25
0.916667 0.916667 0.25
0.166667 0 0.416667
0.0833333 0 0.5
0 0 0.416667
0.166667 0.0833333 0.5
0 0.0833333 0.5
0.166667 0.166667 0.416667
0.0833333 0.166667 0.5
0 0.166667 0.416667
0.0833333 0 0.416667
0.166667 0.0833333 0.416667
0.0833333 0.0833333 0.5
0 0.0833333 0.416667
0.0833333 0.166667 0.416667
0.0833333 0.0833333 0.416667
0.333333 0 0.416667
0.25 0 0.5
0.333333 0.0833333 0.5
0.333333 0.166667 0.416667
0.25 0.166667 0.5
0.25 0 0.416667
0.333333 0.0833333 0.416667
0.25 0.0833333 0.5
0.25 0.166667 0.416667
0.25 0.0833333 0.416667
0.5 0 0.416667
0.416667 0 0.5
0.5 0.0833333 0.5
0.5 0.166667 0.416667
0.416667 0.166667 0.5
0.416667 0 0.416667
0.5 0.0833333 0.416667
0.416667 0.0833333 0.5
0.416667 0.166667 0.416667
0.416667 0.0833333 0.416667
0.666667 0 0.416667
0.583333 0 0.5
0.666667 0.0833333 0.5
0.666667 0.166667 0.416667
0.583333 0.166667 0.5
0.583333 0 0.416667
0.666667 0.0833333 0.416667
0.583333 0.0833333 0.5
0.583333 0.166667 0.416667
0.583333 0.0833333 0.416667
0.833333 0 0.416667
0.75 0 0.5
0.833333 0.0833333 0.5
0.833333 0.166667 0.416667
0.75 0.166667 0.5
0.75 0 0.416667
0.833333 0.0833333 0.416667
0.75 0.0833333 0.5
0.75 0.166667 0.416667
0.75 0.0833333 0.416667
1 0 0.416667
0.916667 0 0.5
1 0.0833333 0.5
1 0.166667 0.416667
0.916667 0.166667 0.5
0.916667 0 0.416667
1 0.0833333 0.416667
0.916667 0.0833333 0.5
0.916667 0.166667 0.416667
0.916667 0.0833333 0.416667
0.166667 0.25 0.5
0 0.25 0.5
0.166667 0.333333 0.416667
0.0833333 0.333333 0.5
0 0.333333 0.416667
0.166667 0.25 0.416667
0.0833333 0.25 0.5
0 0.25 0.416667
0.0833333 0.333333 0.416667
0.0833333 0.25 0.416667
0.333333 0.25 0.5
0.333333 0.333333 0.416667
0.25 0.333333 0.5
0.333333 0.25 0.416667
0.25 0.25 0.5
0.25 0.333333 0.416667
0.25 0.25 0.416667
0.5 0.25 0.5
0.5 0.333333 0.416667
0.416667 0.333333 0.5
0.5 0.25 0.416667
0.416667 0.25 0.5
0.416667 0.333333 0.416667
0.416667 0.25 0.416667
0.666667 0.25 0.5
0.666667 0.333333 0.416667
0.583333 0.333333 0.5
0.666667 0.25 0.416667
0.583333 0.25 0.5
0.583333 0.333333 0.416667
0.583333 0.25 0.416667
0.833333 0.25 0.5
0.833333 0.333333 0.416667
0.75 0.333333 0.5
0.833333 0.25 0.416667
0.75 0.25 0.5
0.75 0.333333 0.416667
0.75 0.25 0.416667
1 0.25 0.5
1 0.333333 0.416667
0.916667 0.333333 0.5
1 0.25 0.416667
0.916667 0.25 0.5
0.916667 0.333333 0.416667
0.916667 0.25 0.416667
0.166667 0.416667 0.5
0 0.416667 0.5
0.166667 0.5 0.416667
0.0833333 0.5 0.5
0 0.5 0.416667
0.166667 0.416667 0.416667
0.0833333 0.416667 0.5
0 0.416667 0.416667
0.0833333 0.5 0.416667
0.0833333 0.416667 0.416667
0.333333 0.416667 0.5
0.333333 0.5 0.416667
0.25 0.5 0.5
0.333333 0.416667 0.416667
0.25 0.416667 0.5
0.25 0.5 0.416667
0.25 0.416667 0.416667
0.5 0.416667 0.5
0.5 0.5 0.416667
0.416667 0.5 0.5
0.5 0.416667 0.416667
0.416667 0.416667 0.5
0.416667 0.5 0.416667
0.416667 0.416667 0.416667
0.666667 0.416667 0.5
0.666667 0.5 0.416667
0.583333 0.5 0.5
0.666667 0.416667 0.416667
0.583333 0.416667 0.5
0.583333 0.5 0.416667
0.583333 0.416667 0.416667
0.833333 0.416667 0.5
0.833333 0.5 0.416667
0.75 0.5 0.5
0.833333 0.416667 0.416667
0.75 0.416667 0.5
0.75 0.5 0.416667
0.75 0.416667 0.416667
1 0.416667 0.5
1 0.5 0.416667
0.916667 0.5 0.5
1 0.416667 0.416667
0.916667 0.416667 0.5
0.916667 0.5 0.416667
0.916667 0.416667 0.416667
0.166667 0.583333 0.5
0 0.583333 0.5
0.166667 0.666667 0.416667
0.0833333 0.666667 0.5
0 0.666667 0.416667
0.166667 0.583333 0.416667
0.0833333 0.583333 0.5
0 0.583333 0.416667
0.0833333 0.666667 0.416667
0.0833333 0.583333 0.416667
0.333333 0.583333 0.5
0.333333 0.666667 0.416667
0.25 0.666667 0.5
0.333333 0.583333 0.416667
0.25 0.583333 0.5
0.25 0.666667 0.416667
0.25 0.583333 0.416667
0.5 0.583333 0.5
0.5 0.666667 0.416667
0.416667 0.666667 0.5
0.5 0.583333 0.416667
0.416667 0.583333 0.5
0.416667 0.666667 0.416667
0.416667 0.583333 0.416667
0.666667 0.583333 0.5
0.666667 0.666667 0.416667
0.583333 0.666667 0.5
0.666667 0.583333 0.416667
0.583333 0.583333 0.5
0.583333 0.666667 0.416667
0.583333 0.583333 0.416667
0.833333 0.583333 0.5
0.833333 0.666667 0.416667
0.75 0.666667 0.5
0.833333 0.583333 0.416667
0.75 0.583333 0.5
0.75 0.666667 0.416667
0.75 0.583333 0.416667
1 0.583333 0.5
1 0.666667 0.416667
0.916667 0.666667 0.5
1 0.583333 0.416667
0.916667 0.583333 0.5
0.916667 0.666667 0.416667
0.916667 0.583333 0.416667
0.166667 0.75 0.5
0 0.75 0.5
0.166667 0.833333 0.416667
0.0833333 0.833333 0.5
0 0.833333 0.416667
0.166667 0.75 0.416667
0.0833333 0.75 0.5
0 0.75 0.416667
0.0833333 0.833333 0.416667
0.0833333 0.75 0.416667
0.333333 0.75 0.5
0.333333 0.833333 0.416667
0.25 0.833333 0.5
0.333333 0.75 0.416667
0.25 0.75 0.5
0.25 0.833333 0.416667
0.25 0.75 0.416667
0.5 0.75 0.5
0.5 0.833333 0.416667
0.416667 0.833333 0.5
0.5 0.75 0.416667
0.416667 0.75 0.5
0.416667 0.833333 0.416667
0.416667 0.75 0.416667
0.666667 0.75 0.5
0.666667 0.833333 0.416667
0.583333 0.833333 0.5
0.666667 0.75 0.416667
0.583333 0.75 0.5
0.583333 0.833333 0.416667
0.583333 0.75 0.416667
0.833333 0.75 0.5
0.833333 0.833333 0.416667
0.75 0.833333 0.5
0.833333 0.75 0.416667
0.75 0.75 0.5
0.75 0.833333 0.416667
0.75 0.75 0.416667
1 0.75 0.5
1 0.833333 0.416667
0.916667 0.833333 0.5
1 0.75 0.416667
0.916667 0.75 0.5
0.916667 0.833333 0.416667
0.916667 0.75 0.416667
0.166667 0.916667 0.5
0 0.916667 0.5
0.166667 1 0.416667
0.0833333 1 0.5
0 1 0.416667
0.166667 0.916667 0.416667
0.0833333 0.916667 0.5
0 0.916667 0.416667
0.0833333 1 0.416667
0.0833333 0.916667 0.416667
0.333333 0.916667 0.5
0.333333 1 0.416667
0.25 1 0.5
0.333333 0.916667 0.416667
0.25 0.916667 0.5
0.25 1 0.416667
0.25 0.916667 0.416667
0.5 0.916667 0.5
0.5 1 0.416667
0.416667 1 0.5
0.5 0.916667 0.416667
0.416667 0.916667 0.5
0.416667 1 0.416667
0.416667 0.916667 0.416667
0.666667 0.916667 0.5
0.666667 1 0.416667
0.583333 1 0.5
0.666667 0.916667 0.416667
0.583333 0.916667 0.5
0.583333 1 0.416667
0.583333 0.916667 0.416667
0.833333 0.916667 0.5
0.833333 1 0.416667
0.75 1 0.5
0.833333 0.916667 0.416667
0.75 0.916667 0.5
0.75 1 0.416667
0.75 0.916667 0.416667
1 0.916667 0.5
1 1 0.416667
0.916667 1 0.5
1 0.916667 0.416667
0.916667 0.916667 0.5
0.916667 1 0.416667
0.916667 0.916667 0.416667
0.166667 0 0.583333
0.0833333 0 0.666667
0 0 0.583333
0.166667 0.0833333 0.666667
0 0.0833333 0.666667
0.166667 0.166667 0.583333
0.0833333 0.166667 0.666667
0 0.166667 0.583333
0.0833333 0 0.583333
0.166667 0.0833333 0.583333
0.0833333 0.0833333 0.666667
0 0.0833333 0.583333
0.0833333 0.166667 0.583333
0.0833333 0.0833333 0.583333
0.333333 0 0.583333
0.25 0 0.666667
0.333333 0.0833333 0.666667
0.333333 0.166667 0.583333
0.25 0.166667 0.666667
0.25 0 0.583333
0.333333 0.0833333 0.583333
0.25 0.0833333 0.666667
0.25 0.166667 0.583333
0.25 0.0833333 0.583333
0.5 0 0.583333
0.416667 0 0.666667
0.5 0.0833333 0.666667
0.5 0.166667 0.583333
0.416667 0.166667 0.666667
0.416667 0 0.583333
0.5 0.0833333 0.583333
0.416667 0.0833333 0.666667
0.416667 0.166667 0.583333
0.416667 0.0833333 0.583333
0.666667 0 0.583333
0.583333 0 0.666667
0.666667 0.0833333 0.666667
0.666667 0.166667 0.583333
0.583333 0.166667 0.666667
0.583333 0 0.583333
0.666667 0.0833333 0.583333
0.583333 0.0833333 0.666667
0.583333 0.166667 0.583333
0.583333 0.0833333 0.583333
0.833333 0 0.583333
0.75 0 0.666667
0.833333 0.0833333 0.666667
0.833333 0.166667 0.583333
0.75 0.166667 0.666667
0.75 0 0.583333
0.833333 0.0833333 0.583333
0.75 0.0833333 0.666667
0.75 0.166667 0.583333
0.75 0.0833333 0.583333
1 0 0.583333
0.916667 0 0.666667
1 0.0833333 0.666667
1 0.166667 0.583333
0.916667 0.166667 0.666667
0.916667 0 0.583333
1 0.0833333 0.583333
0.916667 0.0833333 0.666667
0.916667 0.166667 0.583333
0.916667 0.0833333 0.583333
0.166667 0.25 0.666667
0 0.25 0.666667
0.166667 0.333333 0.583333
0.0833333 0.333333 0.666667
0 0.333333 0.583333
0.166667 0.25 0.583333
0.0833333 0.25 0.666667
0 0.25 0.583333
0.0833333 0.333333 0.583333
0.0833333 0.25 0.583333
0.333333 0.25 0.666667
0.333333 0.333333 0.583333
0.25 0.333333 0.666667
0.333333 0.25 0.583333
0.25 0.25 0.666667
0.25 0.333333 0.583333
0.25 0.25 0.583333
0.5 0.25 0.666667
0.5 0.333333 0.583333
0.416667 0.333333 0.666667
0.5 0.25 0.583333
0.416667 0.25 0.666667
0.416667 0.333333 0.583333
0.416667 0.25 0.583333
0.666667 0.25 0.666667
0.666667 0.333333 0.583333
0.583333 0.333333 0.666667
0.666667 0.25 0.583333
0.583333 0.25 0.666667
0.583333 0.333333 0.583333
0.583333 0.25 0.583333
0.833333 0.25 0.666667
0.833333 0.333333 0.583333
0.75 0.333333 0.666667
0.833333 0.25 0.583333
0.75 0.25 0.666667
0.75 0.333333 0.583333
0.75 0.25 0.583333
1 0.25 0.666667
1 0.333333 0.583333
0.916667 0.333333 0.666667
1 0.25 0.583333
0.916667 0.25 0.666667
0.916667 0.333333 0.583333
0.916667 0.25 0.583333
0.166667 0.416667 0.666667
0 0.416667 0.666667
0.166667 0.5 0.583333
0.0833333 0.5 0.666667
0 0.5 0.583333
0.166667 0.416667 0.583333
0.0833333 0.416667 0.666667
0 0.416667 0.583333
0.0833333 0.5 0.583333
0.0833333 0.416667 0.583333
0.333333 0.416667 0.666667
0.333333 0.5 0.583333
0.25 0.5 0.666667
0.333333 0.416667 0.583333
0.25 0.416667 0.666667
0.25 0.5 0.583333
0.25 0.416667 0.583333
0.5 0.416667 0.666667
0.5 0.5 0.583333
0.416667 0.5 0.666667
0.5 0.416667 0.583333
0.416667 0.416667 0.666667
0.416667 0.5 0.583333
0.416667 0.416667 0.583333
0.666667 0.416667 0.666667
0.666667 0.5 0.583333
0.583333 0.5 0.666667
0.666667 0.416667 0.583333
0.583333 0.416667 0.666667
0.583333 0.5 0.583333
0.583333 0.416667 0.583333
0.833333 0.416667 0.666667
0.833333 0.5 0.583333
0.75 0.5 0.666667
0.833333 0.416667 0.583333
0.75 0.416667 0.666667
0.75 0.5 0.583333
0.75 0.416667 0.583333
1 0.416667 0.666667
1 0.5 0.583333
0.916667 0.5 0.666667
1 0.416667 0.583333
0.916667 0.416667 0.666667
0.916667 0.5 0.583333
0.916667 0.416667 0.583333
0.166667 0.583333 0.666667
0 0.583333 0.666667
0.166667 0.666667 0.583333
0.0833333 0.666667 0.666667
0 0.666667 0.583333
0.166667 0.583333 0.583333
0.0833333 0.583333 0.666667
0 0.583333 0.583333
0.0833333 0.666667 0.583333
0.0833333 0.583333 0.583333
0.333333 0.583333 0.666667
0.333333 0.666667 0.583333
0.25 0.666667 0.666667
0.333333 0.583333 0.583333
0.25 0.583333 0.666667
0.25 0.666667 0.583333
0.25 0.583333 0.583333
0.5 0.583333 0.666667
0.5 0.666667 0.583333
0.416667 0.666667 0.666667
0.5 0.583333 0.583333
0.416667 0.583333 0.666667
0.416667 0.666667 0.583333
0.416667 0.583333 0.583333
0.666667 0.583333 0.666667
0.666667 0.666667 0.583333
0.583333 0.666667 0.666667
0.666667 0.583333 0.583333
0.583333 0.583333 0.666667
0.583333 0.666667 0.583333
0.583333 0.583333 0.583333
0.833333 0.583333 0.666667
0.833333 0.666667 0.583333
0.75 0.666667 0.666667
0.833333 0.583333 0.583333
0.75 0.583333 0.666667
0.75 0.666667 0.583333
0.75 0.583333 0.583333
1 0.583333 0.666667
1 0.666667 0.583333
0.916667 0.666667 0.666667
1 0.583333 0.583333
0.916667 0.583333 0.666667
0.916667 0.666667 0.583333
0.916667 0.583333 0.583333
0.166667 0.75 0.666667
0 0.75 0.666667
0.166667 0.833333 0.583333
0.0833333 0.833333 0.666667
0 0.833333 0.583333
0.166667 0.75 0.583333
0.0833333 0.75 0.666667
0 0.75 0.583333
0.0833333 0.833333 0.583333
0.0833333 0.75 0.583333
0.333333 0.75 0.666667
0.333333 0.833333 0.583333
0.25 0.833333 0.666667
0.333333 0.75 0.583333
0.25 0.75 0.666667
0.25 0.833333 0.583333
0.25 0.75 0.583333
0.5 0.75 0.666667
0.5 0.833333 0.583333
0.416667 0.833333 0.666667
0.5 0.75 0.583333
0.416667 0.75 0.666667
0.416667 0.833333 0.583333
0.416667 0.75 0.583333
0.666667 0.75 0.666667
0.666667 0.833333 0.583333
0.583333 0.833333 0.666667
0.666667 0.75 0.583333
0.583333 0.75 0.666667
0.583333 0.833333 0.583333
0.583333 0.75 0.583333
0.833333 0.75 0.666667
0.833333 0.833333 0.583333
0.75 0.833333 0.666667
0.833333 0.75 0.583333
0.75 0.75 0.666667
0.75 0.833333 0.583333
0.75 0.75 0.583333
1 0.75 0.666667
1 0.833333 0.583333
0.916667 0.833333 0.666667
1 0.75 0.583333
0.916667 0.75 0.666667
0.916667 0.833333 0.583333
0.916667 0.75 0.583333
0.166667 0.916667 0.666667
0 0.916667 0.666667
0.166667 1 0.583333
0.0833333 1 0.666667
0 1 0.583333
0.166667 0.916667 0.583333
0.0833333 0.916667 0.666667
0 0.916667 0.583333
0.0833333 1 0.583333
0.0833333 0.916667 0.583333
0.333333 0.916667 0.666667
0.333333 1 0.583333
0.25 1 0.666667
0.333333 0.916667 0.583333
0.25 0.916667 0.666667
0.25 1 0.583333
0.25 0.916667 0.583333
0.5 0.916667 0.666667
0.5 1 0.583333
0.416667 1 0.666667
0.5 0.916667 0.583333
0.416667 0.916667 0.666667
0.416667 1 0.583333
0.416667 0.916667 0.583333
0.666667 0.916667 0.666667
0.666667 1 0.583333
0.583333 1 0.666667
0.666667 0.916667 0.583333
0.583333 0.916667 0.666667
0.583333 1 0.583333
0.583333 0.916667 0.583333
0.833333 0.916667 0.666667
0.833333 1 0.583333
0.75 1 0.666667
0.833333 0.916667 0.583333
0.75 0.916667 0.666667
0.75 1 0.583333
0.75 0.916667 0.583333
1 0.916667 0.666667
1 1 0.583333
0.916667 1 0.666667
1 0.916667 0.583333
0.916667 0.916667 0.666667
0.916667 1 0.583333
0.916667 0.916667 0.583333
0.166667 0 0.75
0.0833333 0 0.833333
0 0 0.75
0.166667 0.0833333 0.833333
0 0.0833333 0.833333
0.166667 0.166667 0.75
0.0833333 0.166667 0.833333
0 0.166667 0.75
0.0833333 0 0.75
0.166667 0.0833333 0.75
0.0833333 0.0833333 0.833333
0 0.0833333 0.75
0.0833333 0.166667 0.75
0.0833333 0.0833333 0.75
0.333333 0 0.75
0.25 0 0.833333
0.333333 0.0833333 0.833333
0.333333 0.166667 0.75
0.25 0.166667 0.833333
0.25 0 0.75
0.333333 0.0833333 0.75
0.25 0.0833333 0.833333
0.25 0.166667 0.75
0.25 0.0833333 0.75
0.5 0 0.75
0.416667 0 0.833333
0.5 0.0833333 0.833333
0.5 0.166667 0.75
0.416667 0.166667 0.833333
0.416667 0 0.75
0.5 0.0833333 0.75
0.416667 0.0833333 0.833333
0.416667 0.166667 0.75
0.416667 0.0833333 0.75
0.666667 0 0.75
0.583333 0 0.833333
0.666667 0.0833333 0.833333
0.666667 0.166667 0.75
0.583333 0.166667 0.833333
0.583333 0 0.75
0.666667 0.0833333 0.75
0.583333 0.0833333 0.833333
0.583333 0.166667 0.75
0.583333 0.0833333 0.75
0.833333 0 0.75
0.75 0 0.833333
0.833333 0.0833333 0.833333
0.833333 0.166667 0.75
0.75 0.166667 0.833333
0.75 0 0.75
0.833333 0.0833333 0.75
0.75 0.0833333 0.833333
0.75 0.166667 0.75
0.75 0.0833333 0.75
1 0 0.75
0.916667 0 0.833333
1 0.0833333 0.833333
1 0.166667 0.75
0.916667 0.166667 0.833333
0.916667 0 0.75
1 0.0833333 0.75
0.916667 0.0833333 0.833333
0.916667 0.166667 0.75
0.916667 0.0833333 0.75
0.166667 0.25 0.833333
0 0.25 0.833333
0.166667 0.333333 0.75
0.0833333 0.333333 0.833333
0 0.333333 0.75
0.166667 0.25 0.75
0.0833333 0.25 0.833333
0 0.25 0.75
0.0833333 0.333333 0.75
0.0833333 0.25 0.75
0.333333 0.25 0.833333
0.333333 0.333333 0.75
0.25 0.333333 0.833333
0.333333 0.25 0.75
0.25 0.25 0.833333
0.25 0.333333 0.75
0.25 0.25 0.75
0.5 0.25 0.833333
0.5 0.333333 0.75
0.416667 0.333333 0.833333
0.5 0.25 0.75
0.416667 0.25 0.833333
0.416667 0.333333 0.75
0.416667 0.25 0.75
0.666667 0.25 0.833333
0.666667 0.333333 0.75
0.583333 0.333333 0.833333
0.666667 0.25 0.75
0.583333 0.25 0.833333
0.583333 0.333333 0.75
0.583333 0.25 0.75
0.833333 0.25 0.833333
0.833333 0.333333 0.75
0.75 0.333333 0.833333
0.833333 0.25 0.75
0.75 0.25 0.833333
0.75 0.333333 0.75
0.75 0.25 0.75
1 0.25 0.833333
1 0.333333 0.75
0.916667 0.333333 0.833333
1 0.25 0.75
0.916667 0.25 0.833333
0.916667 0.333333 0.75
0.916667 0.25 0.75
0.166667 0.416667 0.833333
0 0.416667 0.833333
0.166667 0.5 0.75
0.0833333 0.5 0.833333
0 0.5 0.75
0.166667 0.416667 0.75
0.0833333 0.416667 0.833333
0 0.416667 0.75
0.0833333 0.5 0.75
0.0833333 0.416667 0.75
0.333333 0.416667 0.833333
0.333333 0.5 0.75
0.25 0.5 0.833333
0.333333 0.416667 0.75
0.25 0.416667 0.833333
0.25 0.5 0.75
0.25 0.416667 0.75
0.5 0.416667 0.833333
0.5 0.5 0.75
0.416667 0.5 0.833333
0.5 0.416667 0.75
0.416667 0.416667 0.833333
0.416667 0.5 0.75
0.416667 0.416667 0.75
0.666667 0.416667 0.833333
0.666667 0.5 0.75
0.583333 0.5 0.833333
0.666667 0.416667 0.75
0.583333 0.416667 0.833333
0.583333 0.5 0.75
0.583333 0.416667 0.75
0.833333 0.416667 0.833333
0.833333 0.5 0.75
0.75 0.5 0.833333
0.833333 0.416667 0.75
0.75 0.416667 0.833333
0.75 0.5 0.75
0.75 0.416667 0.75
1 0.416667 0.833333
1 0.5 0.75
0.916667 0.5 0.833333
1 0.416667 0.75
0.916667 0.416667 0.833333
0.916667 0.5 0.75
0.916667 0.416667 0.75
0.166667 0.583333 0.833333
0 0.583333 0.833333
0.166667 0.666667 0.75
0.0833333 0.666667 0.833333
0 0.666667 0.75
0.166667 0.583333 0.75
0.0833333 0.583333 0.833333
0 0.583333 0.75
0.0833333 0.666667 0.75
0.0833333 0.583333 0.75
0.333333 0.583333 0.833333
0.333333 0.666667 0.75
0.25 0.666667 0.833333
0.333333 0.583333 0.75
0.25 0.583333 0.833333
0.25 0.666667 0.75
0.25 0.583333 0.75
0.5 0.583333 0.833333
0.5 0.666667 0.75
0.416667 0.666667 0.833333
0.5 0.583333 0.75
0.416667 0.583333 0.833333
0.416667 0.666667 0.75
0.416667 0.583333 0.75
0.666667 0.583333 0.833333
0.666667 0.666667 0.75
0.583333 0.666667 0.833333
0.666667 0.583333 0.75
0.583333 0.583333 0.833333
0.583333 0.666667 0.75
0.583333 0.583333 0.75
0.833333 0.583333 0.833333
0.833333 0.666667 0.75
0.75 0.666667 0.833333
0.833333 0.583333 0.75
0.75 0.583333 0.833333
0.75 0.666667 0.75
0.75 0.583333 0.75
1 0.583333 0.833333
1 0.666667 0.75
0.916667 0.666667 0.833333
1 0.583333 0.75
0.916667 0.583333 0.833333
0.916667 0.666667 0.75
0.916667 0.583333 0.75
0.166667 0.75 0.833333
0 0.75 0.833333
0.166667 0.833333 0.75
0.0833333 0.833333 0.833333
0 0.833333 0.75
0.166667 0.75 0.75
0.0833333 0.75 0.833333
0 0.75 0.75
0.0833333 0.833333 0.75
0.0833333 0.75 0.75
0.333333 0.75 0.833333
0.333333 0.833333 0.75
0.25 0.833333 0.833333
0.333333 0.75 0.75
0.25 0.75 0.833333
0.25 0.833333 0.75
0.25 0.75 0.75
0.5 0.75 0.833333
0.5 0.833333 0.75
0.416667 0.833333 0.833333
0.5 0.75 0.75
0.416667 0.75 0.833333
0.416667 0.833333 0.75
0.416667 0.75 0.75
0.666667 0.75 0.833333
0.666667 0.833333 0.75
0.583333 0.833333 0.833333
0.666667 0.75 0.75
0.583333 0.75 0.833333
0.583333 0.833333 0.75
0.583333 0.75 0.75
0.833333 0.75 0.833333
0.833333 0.833333 0.75
0.75 0.833333 0.833333
0.833333 0.75 0.75
0.75 0.75 0.833333
0.75 0.833333 0.75
0.75 0.75 0.75
1 0.75 0.833333
1 0.833333 0.75
0.916667 0.833333 0.833333
1 0.75 0.75
0.916667 0.75 0.833333
0.916667 0.833333 0.75
0.916667 0.75 0.75
0.166667 0.916667 0.833333
0 0.916667 0.833333
0.166667 1 0.75
0.0833333 1 0.833333
0 1 0.75
0.166667 0.916667 0.75
0.0833333 0.916667 0.833333
0 0.916667 0.75
0.0833333 1 0.75
0.0833333 0.916667 0.75
0.333333 0.916667 0.833333
0.333333 1 0.75
0.25 1 0.833333
0.333333 0.916667 0.75
0.25 0.916667 0.833333
0.25 1 0.75
0.25 0.916667 0.75
0.5 0.916667 0.833333
0.5 1 0.75
0.416667 1 0.833333
0.5 0.916667 0.75
0.416667 0.916667 0.833333
0.416667 1 0.75
0.416667 0.916667 0.75
0.666667 0.916667 0.833333
0.666667 1 0.75
0.583333 1 0.833333
0.666667 0.916667 0.75
0.583333 0.916667 0.833333
0.583333 1 0.75
0.583333 0.916667 0.75
0.833333 0.916667 0.833333
0.833333 1 0.75
0.75 1 0.833333
0.833333 0.916667 0.75
0.75 0.916667 0.833333
0.75 1 0.75
0.75 0.916667 0.75
1 0.916667 0.833333
1 1 0.75
0.916667 1 0.833333
1 0.916667 0.75
0.916667 0.916667 0.833333
0.916667 1 0.75
0.916667 0.916667 0.75
0.166667 0 0.916667
0.0833333 0 1
0 0 0.916667
0.166667 0.0833333 1
0 0.0833333 1
0.166667 0.166667 0.916667
0.0833333 0.166667 1
0 0.166667 0.916667
0.0833333 0 0.916667
0.166667 0.0833333 0.916667
0.0833333 0.0833333 1
0 0.0833333 0.916667
0.0833333 0.166667 0.916667
0.0833333 0.0833333 0.916667
0.333333 0 0.916667
0.25 0 1
0.333333 0.0833333 1
0.333333 0.166667 0.916667
0.25 0.166667 1
0.25 0 0.916667
0.333333 0.0833333 0.916667
0.25 0.0833333 1
0.25 0.166667 0.916667
0.25 0.0833333 0.916667
0.5 0 0.916667
0.416667 0 1
0.5 0.0833333 1
0.5 0.166667 0.916667
0.416667 0.166667 1
0.416667 0 0.916667
0.5 0.0833333 0.916667
0.416667 0.0833333 1
0.416667 0.166667 0.916667
0.416667 0.0833333 0.916667
0.666667 0 0.916667
0.583333 0 1
0.666667 0.0833333 1
0.666667 0.166667 0.916667
0.583333 0.166667 1
0.583333 0 0.916667
0.666667 0.0833333 0.916667
0.583333 0.0833333 1
0.583333 0.166667 0.916667
0.583333 0.0833333 0.916667
0.833333 0 0.916667
0.75 0 1
0.833333 0.0833333 1
0.833333 0.166667 0.916667
0.75 0.166667 1
0.75 0 0.916667
0.833333 0.0833333 0.916667
0.75 0.0833333 1
0.75 0.166667 0.916667
0.75 0.0833333 0.916667
1 0 0.916667
0.916667 0 1
1 0.0833333 1
1 0.166667 0.916667
0.916667 0.166667 1
0.916667 0 0.916667
1 0.0833333 0.916667
0.916667 0.0833333 1
0.916667 0.166667 0.916667
0.916667 0.0833333 0.916667
0.166667 0.25 1
0 0.25 1
0.166667 0.333333 0.916667
0.0833333 0.333333 1
0 0.333333 0.916667
0.166667 0.25 0.916667
0.0833333 0.25 1
0 0.25 0.916667
0.0833333 0.333333 0.916667
0.0833333 0.25 0.916667
0.333333 0.25 1
0.333333 0.333333 0.916667
0.25 0.333333 1
0.333333 0.25 0.916667
0.25 0.25 1
0.25 0.333333 0.916667
0.25 0.25 0.916667
0.5 0.25 1
0.5 0.333333 0.916667
0.416667 0.333333 1
0.5 0.25 0.916667
0.416667 0.25 1
0.416667 0.333333 0.916667
0.416667 0.25 0.916667
0.666667 0.25 1
0.666667 0.333333 0.916667
0.583333 0.333333 1
0.666667 0.25 0.916667
0.583333 0.25 1
0.583333 0.333333 0.916667
0.583333 0.25 0.916667
0.833333 0.25 1
0.833333 0.333333 0.916667
0.75 0.333333 1
0.833333 0.25 0.916667
0.75 0.25 1
0.75 0.333333 0.916667
0.75 0.25 0.916667
1 0.25 1
1 0.333333 0.916667
0.916667 0.333333 1
1 0.25 0.916667
0.916667 0.25 1
0.916667 0.333333 0.916667
0.916667 0.25 0.916667
0.166667 0.416667 1
0 0.416667 1
0.166667 0.5 0.916667
0.0833333 0.5 1
0 0.5 0.916667
0.166667 0.416667 0.916667
0.0833333 0.416667 1
0 0.416667 0.916667
0.0833333 0.5 0.916667
0.0833333 0.416667 0.916667
0.333333 0.416667 1
0.333333 0.5 0.916667
0.25 0.5 1
0.333333 0.416667 0.916667
0.25 0.416667 1
0.25 0.5 0.916667
0.25 0.416667 0.916667
0.5 0.416667 1
0.5 0.5 0.916667
0.416667 0.5 1
0.5 0.416667 0.916667
0.416667 0.416667 1
0.416667 0.5 0.916667
0.416667 0.416667 0.916667
0.666667 0.416667 1
0.666667 0.5 0.916667
0.583333 0.5 1
0.666667 0.416667 0.916667
0.583333 0.416667 1
0.583333 0.5 0.916667
0.583333 0.416667 0.916667
0.833333 0.416667 1
0.833333 0.5 0.916667
0.75 0.5 1
0.833333 0.416667 0.916667
0.75 0.416667 1
0.75 0.5 0.916667
0.75 0.416667 0.916667
1 0.416667 1
1 0.5 0.916667
0.916667 0.5 1
1 0.416667 0.916667
0.916667 0.416667 1
0.916667 0.5 0.916667
0.916667 0.416667 0.916667
0.166667 0.583333 1
0 0.583333 1
0.166667 0.666667 0.916667
0.0833333 0.666667 1
0 0.666667 0.916667
0.166667 0.583333 0.916667
0.0833333 0.583333 1
0 0.583333 0.916667
0.0833333 0.666667 0.916667
0.0833333 0.583333 0.916667
0.333333 0.583333 1
0.333333 0.666667 0.916667
0.25 0.666667 1
0.333333 0.583333 0.916667
0.25 0.583333 1
0.25 0.666667 0.916667
0.25 0.583333 0.916667
0.5 0.583333 1
0.5 0.666667 0.916667
0.416667 0.666667 1
0.5 0.583333 0.916667
0.416667 0.583333 1
0.416667 0.666667 0.916667
0.416667 0.583333 0.916667
0.666667 0.583333 1
0.666667 0.666667 0.916667
0.583333 0.666667 1
0.666667 0.583333 0.916667
0.583333 0.583333 1
0.583333 0.666667 0.916667
0.583333 0.583333 0.916667
0.833333 0.583333 1
0.833333 0.666667 0.916667
0.75 0.666667 1
0.833333 0.583333 0.916667
0.75 0.583333 1
0.75 0.666667 0.916667
0.75 0.583333 0.916667
1 0.583333 1
1 0.666667 0.916667
0.916667 0.666667 1
1 0.583333 0.916667
0.916667 0.583333 1
0.916667 0.666667 0.916667
0.916667 0.583333 0.916667
0.166667 0.75 1
0 0.75 1
0.166667 0.833333 0.916667
0.0833333 0.833333 1
0 0.833333 0.916667
0.166667 0.75 0.916667
0.0833333 0.75 1
0 0.75 0.916667
0.0833333 0.833333 0.916667
0.0833333 0.75 0.916667
0.333333 0.75 1
0.333333 0.833333 0.916667
0.25 0.833333 1
0.333333 0.75 0.916667
0.25 0.75 1
0.25 0.833333 0.916667
0.25 0.75 0.916667
0.5 0.75 1
0.5 0.833333 0.916667
0.416667 0.833333 1
0.5 0.75 0.916667
0.416667 0.75 1
0.416667 0.833333 0.916667
0.416667 0.75 0.916667
0.666667 0.75 1
0.666667 0.833333 0.916667
0.583333 0.833333 1
0.666667 0.75 0.916667
0.583333 0.75 1
0.583333 0.833333 0.916667
0.583333 0.75 0.916667
0.833333 0.75 1
0.833333 0.833333 0.916667
0.75 0.833333 1
0.833333 0.75 0.916667
0.75 0.75 1
0.75 0.833333 0.916667
0.75 0.75 0.916667
1 0.75 1
1 0.833333 0.916667
0.916667 0.833333 1
1 0.75 0.916667
0.916667 0.75 1
0.916667 0.833333 0.916667
0.916667 0.75 0.916667
0.166667 0.916667 1
0 0.916667 1
0.166667 1 0.916667
0.0833333 1 1
0 1 0.916667
0.166667 0.916667 0.916667
0.0833333 0.916667 1
0 0.916667 0.916667
0.0833333 1 0.916667
0.0833333 0.916667 0.916667
0.333333 0.916667 1
0.333333 1 0.916667
0.25 1 1
0.333333 0.916667 0.916667
0.25 0.916667 1
0.25 1 0.916667
0.25 0.916667 0.916667
0.5 0.916667 1
0.5 1 0.916667
0.416667 1 1
0.5 0.916667 0.916667
0.416667 0.916667 1
0.416667 1 0.916667
0.416667 0.916667 0.916667
0.666667 0.916667 1
0.666667 1 0.916667
0.583333 1 1
0.666667 0.916667 0.916667
0.583333 0.916667 1
0.583333 1 0.916667
0.583333 0.916667 0.916667
0.833333 0.916667 1
0.833333 1 0.916667
0.75 1 1
0.833333 0.916667 0.916667
0.75 0.916667 1
0.75 1 0.916667
0.75 0.916667 0.916667
1 0.916667 1
1 1 0.916667
0.916667 1 1
1 0.916667 0.916667
0.916667 0.916667 1
0.916667 1 0.916667
0.916667 0.916667 0.916667

CELLS 217 5832
OFFSETS vtktypeint64
0 27 54 81 108 135 162 189 216 243 270 297 324 351 378 405 432 459 486 513 540 567 594 621 648 675 702 729 756 783 810 837 864 891 918 945 972 999 1026 1053 1080 1107 1134 1161 1188 1215 1242 1269 1296 1323 1350 1377 1404 1431 1458 1485 1512 1539 1566 1593 1620 1647 1674 1701 1728 1755 1782 1809 1836 1863 1890 1917 1944 1971 1998 2025 2052 2079 2106 2133 2160 2187 2214 2241 2268 2295 2322 2349 2376 2403 2430 2457 2484 2511 2538 2565 2592 2619 2646 2673 2700 2727 2754 2781 2808 2835 2862 2889 2916 2943 2970 2997 3024 3051 3078 3105 3132 3159 3186 3213 3240 3267 3294 3321 3348 3375 3402 3429 3456 3483 3510 3537 3564 3591 3618 3645 3672 3699 3726 3753 3780 3807 3834 3861 3888 3915 3942 3969 3996 4023 4050 4077 4104 4131 4158 4185 4212 4239 4266 4293 4320 4347 4374 4401 4428 4455 4482 4509 4536 4563 4590 4617 4644 4671 4698 4725 4752 4779 4806 4833 4860 4887 4914 4941 4968 4995 5022 5049 5076 5103 5130 5157 5184 5211 5238 5265 5292 5319 5346 5373 5400 5427 5454 5481 5508 5535 5562 5589 5616 5643 5670 5697 5724 5751 5778 5805 5832 
CONNECTIVITY vtktypeint64
0 1 50 49 7 8 57 56 343 344 345 346 351 352 353 354 347 348 349 350 359 357 356 358 355 360 361 
1 2 51 50 8 9 58 57 362 363 364 344 367 368 369 352 348 365 366 349 357 372 371 373 370 374 375 
2 3 52 51 9 10 59 58 376 377 378 363 381 382 383 368 365 379 380 366 372 386 385 387 384 388 389 
3 4 53 52 10 11 60 59 390 391 392 377 395 396 397 382 379 393 394 380 386 400 399 401 398 402 403 
4 5 54 53 11 12 61 60 404 405 406 391 409 410 411 396 393 407 408 394 400 414 413 415 412 416 417 
5 6 55 54 12 13 62 61 418 419 420 405 423 424 425 410 407 421 422 408 414 428 427 429 426 430 431 
7 8 57 56 14 15 64 63 351 352 353 354 436 437 438 439 432 433 434 435 443 441 440 442 360 444 445 
8 9 58 57 15 16 65 64 367 368 369 352 448 449 450 437 433 446 447 434 441 452 451 453 374 454 455 
9 10 59 58 16 17 66 65 381 382 383 368 458 459 460 449 446 456 457 447 452 462 461 463 388 464 465 
10 11 60 59 17 18 67 66 395 396 397 382 468 469 470 459 456 466 467 457 462 472 471 473 402 474 475 
11 12 61 60 18 19 68 67 409 410 411 396 478 479 480 469 466 476 477 467 472 482 481 483 416 484 485 
12 13 62 61 19 20 69 68 423 424 425 410 488 489 490 479 476 486 487 477 482 492 491 493 430 494 495 
14 15 64 63 21 22 71 70 436 437 438 439 500 501 502 503 496 497 498 499 507 505 504 506 444 508 509 
15 16 65 64 22 23 72 71 448 449 450 437 512 513 514 501 497 510 511 498 505 516 515 517 454 518 519 
16 17 66 65 23 24 73 72 458 459 460 449 522 523 524 513 510 520 521 511 516 526 525 527 464 528 529 
17 18 67 66 24 25 74 73 468 469 470 459 532 533 534 523 520 530 531 521 526 536 535 537 474 538 539 
18 19 68 67 25 26 75 74 478 479 480 469 542 543 544 533 530 540 541 531 536 546 545 547 484 548 549 
19 20 69 68 26 27 76 75 488 489 490 479 552 553 554 543 540 550 551 541 546 556 555 557 494 558 559 
21 22 71 70 28 29 78 77 500 501 502 503 564 565 566 567 560 561 562 563 571 569 568 570 508 572 573 
22 23 72 71 29 30 79 78 512 513 514 501 576 577 578 565 561 574 575 562 569 580 579 581 518 582 583 
23 24 73 72 30 31 80 79 522 523 524 513 586 587 588 577 574 584 585 575 580 590 589 591 528 592 593 
24 25 74 73 31 32 81 80 532 533 534 523 596 597 598 587 584 594 595 585 590 600 599 601 538 602 603 
25 26 75 74 32 33 82 81 542 543 544 533 606 607 608 597 594 604 605 595 600 610 609 611 548 612 613 
26 27 76 75 33 34 83 82 552 553 554 543 616 617 618 607 604 614 615 605 610 620 619 621 558 622 623 
28 29 78 77 35 36 85 84 564 565 566 567 628 629 630 631 624 625 626 627 635 633 632 634 572 636 637 
29 30 79 78 36 37 86 85 576 577 578 565 640 641 642 629 625 638 639 626 633 644 643 645 582 646 647 
30 31 80 79 37 38 87 86 586 587 588 577 650 651 652 641 638 648 649 639 644 654 653 655 592 656 657 
31 32 81 80 38 39 88 87 596 597 598 587 660 661 662 651 648 658 659 649 654 664 663 665 602 666 667 
32 33 82 81 39 40 89 88 606 607 608 597 670 671 672 661 658 668 669 659 664 674 673 675 612 676 677 
33 34 83 82 40 41 90 89 616 617 618 607 680 681 682 671 668 678 679 669 674 684 683 685 622 686 687 
35 36 85 84 42 43 92 91 628 629 630 631 692 693 694 695 688 689 690 691 699 697 696 698 636 700 701 
36 37 86 85 43 44 93 92 640 641 642 629 704 705 706 693 689 702 703 690 697 708 707 709 646 710 711 
37 38 87 86 44 45 94 93 650 651 652 641 714 715 716 705 702 712 713 703 708 718 717 719 656 720 721 
38 39 88 87 45 46 95 94 660 661 662 651 724 725 726 715 712 722 723 713 718 728 727 729 666 730 731 
39 40 89 88 46 47 96 95 670 671 672 661 734 735 736 725 722 732 733 723 728 738 737 739 676 740 741 
40 41 90 89 47 48 97 96 680 681 682 671 744 745 746 735 732 742 743 733 738 748 747 749 686 750 751 
49 50 99 98 56 57 106 105 345 752 753 754 353 757 758 759 350 349 755 756 763 761 358 762 760 764 765 
50 51 100 99 57 58 107 106 364 766 767 752 369 769 770 757 349 366 768 755 761 772 373 773 771 774 775 
51 52 101 100 58 59 108 107 378 776 777 766 383 779 780 769 366 380 778 768 772 782 387 783 781 784 785 
52 53 102 101 59 60 109 108 392 786 787 776 397 789 790 779 380 394 788 778 782 792 401 793 791 794 795 
53 54 103 102 60 61 110 109 406 796 797 786 411 799 800 789 394 408 798 788 792 802 415 803 801 804 805 
54 55 104 103 61 62 111 110 420 806 807 796 425 809 810 799 408 422 808 798 802 812 429 813 811 814 815 
56 57 106 105 63 64 113 112 353 757 758 759 438 818 819 820 435 434 816 817 823 821 442 822 764 824 825 
57 58 107 106 64 65 114 113 369 769 770 757 450 827 828 818 434 447 826 816 821 829 453 830 774 831 832 
58 59 108 107 65 66 115 114 383 779 780 769 460 834 835 827 447 457 833 826 829 836 463 837 784 838 839 
59 60 109 108 66 67 116 115 397 789 790 779 470 841 842 834 457 467 840 833 836 843 473 844 794 845 846 
60 61 110 109 67 68 117 116 411 799 800 789 480 848 849 841 467 477 847 840 843 850 483 851 804 852 853 
61 62 111 110 68 69 118 117 425 809 810 799 490 855 856 848 477 487 854 847 850 857 493 858 814 859 860 
63 64 113 112 70 71 120 119 438 818 819 820 502 863 864 865 499 498 861 862 868 866 506 867 824 869 870 
64 65 114 113 71 72 121 120 450 827 828 818 514 872 873 863 498 511 871 861 866 874 517 875 831 876 877 
65 66 115 114 72 73 122 121 460 834 835 827 524 879 880 872 511 521 878 871 874 881 527 882 838 883 884 
66 67 116 115 73 74 123 122 470 841 842 834 534 886 887 879 521 531 885 878 881 888 537 889 845 890 891 
67 68 117 116 74 75 124 123 480 848 849 841 544 893 894 886 531 541 892 885 888 895 547 896 852 897 898 
68 69 118 117 75 76 125 124 490 855 856 848 554 900 901 893 541 551 899 892 895 902 557 903 859 904 905 
70 71 120 119 77 78 127 126 502 863 864 865 566 908 909 910 563 562 906 907 913 911 570 912 869 914 915 
71 72 121 120 78 79 128 127 514 872 873 863 578 917 918 908 562 575 916 906 911 919 581 920 876 921 922 
72 73 122 121 79 80 129 128 524 879 880 872 588 924 925 917 575 585 923 916 919 926 591 927 883 928 929 
73 74 123 122 80 81 130 129 534 886 887 879 598 931 932 924 585 595 930 923 926 933 601 934 890 935 936 
74 75 124 123 81 82 131 130 544 893 894 886 608 938 939 931 595 605 937 930 933 940 611 941 897 942 943 
75 76 125 124 82 83 132 131 554 900 901 893 618 945 946 938 605 615 944 937 940 947 621 948 904 949 950 
77 78 127 126 84 85 134 133 566 908 909 910 630 953 954 955 627 626 951 952 958 956 634 957 914 959 960 
78 79 128 127 85 86 135 134 578 917 918 908 642 962 963 953 626 639 961 951 956 964 645 965 921 966 967 
79 80 129 128 86 87 136 135 588 924 925 917 652 969 970 962 639 649 968 961 964 971 655 972 928 973 974 
80 81 130 129 87 88 137 136 598 931 932 924 662 976 977 969 649 659 975 968 971 978 665 979 935 980 981 
81 82 131 130 88 89 138 137 608 938 939 931 672 983 984 976 659 669 982 975 978 985 675 986 942 987 988 
82 83 132 131 89 90 139 138 618 945 946 938 682 990 991 983 669 679 989 982 985 992 685 993 949 994 995 
84 85 134 133 91 92 141 140 630 953 954 955 694 998 999 1000 691 690 996 997 1003 1001 698 1002 959 1004 1005 
85 86 135 134 92 93 142 141 642 962 963 953 706 1007 1008 998 690 703 1006 996 1001 1009 709 1010 966 1011 1012 
86 87 136 135 93 94 143 142 652 969 970 962 716 1014 1015 1007 703 713 1013 1006 1009 1016 719 1017 973 1018 1019 
87 88 137 136 94 95 144 143 662 976 977 969 726 1021 1022 1014 713 723 1020 1013 1016 1023 729 1024 980 1025 1026 
88 89 138 137 95 96 145 144 672 983 984 976 736 1028 1029 1021 723 733 1027 1020 1023 1030 739 1031 987 1032 1033 
89 90 139 138 96 97 146 145 682 990 991 983 746 1035 1036 1028 733 743 1034 1027 1030 1037 749 1038 994 1039 1040 
98 99 148 147 105 106 155 154 753 1041 1042 1043 758 1046 1047 1048 756 755 1044 1045 1052 1050 762 1051 1049 1053 1054 
99 100 149 148 106 107 156 155 767 1055 1056 1041 770 1058 1059 1046 755 768 1057 1044 1050 1061 773 1062 1060 1063 1064 
100 101 150 149 107 108 157 156 777 1065 1066 1055 780 1068 1069 1058 768 778 1067 1057 1061 1071 783 1072 1070 1073 1074 
101 102 151 150 108 109 158 157 787 1075 1076 1065 790 1078 1079 1068 778 788 1077 1067 1071 1081 793 1082 1080 1083 1084 
102 103 152 151 109 110 159 158 797 1085 1086 1075 800 1088 1089 1078 788 798 1087 1077 1081 1091 803 1092 1090 1093 1094 
103 104 153 152 110 111 160 159 807 1095 1096 1085 810 1098 1099 1088 798 808 1097 1087 1091 1101 813 1102 1100 1103 1104 
105 106 155 154 112 113 162 161 758 1046 1047 1048 819 1107 1108 1109 817 816 1105 1106 1112 1110 822 1111 1053 1113 1114 
106 107 156 155 113 114 163 162 770 1058 1059 1046 828 1116 1117 1107 816 826 1115 1105 1110 1118 830 1119 1063 1120 1121 
107 108 157 156 114 115 164 163 780 1068 1069 1058 835 1123 1124 1116 826 833 1122 1115 1118 1125 837 1126 1073 1127 1128 
108 109 158 157 115 116 165 164 790 1078 1079 1068 842 1130 1131 1123 833 840 1129 1122 1125 1132 844 1133 1083 1134 1135 
109 110 159 158 116 117 166 165 800 1088 1089 1078 849 1137 1138 1130 840 847 1136 1129 1132 1139 851 1140 1093 1141 1142 
110 111 160 159 117 118 167 166 810 1098 1099 1088 856 1144 1145 1137 847 854 1143 1136 1139 1146 858 1147 1103 1148 1149 
112 113 162 161 119 120 169 168 819 1107 1108 1109 864 1152 1153 1154 862 861 1150 1151 1157 1155 867 1156 1113 1158 1159 
113 114 163 162 120 121 170 169 828 1116 1117 1107 873 1161 1162 1152 861 871 1160 1150 1155 1163 875 1164 1120 1165 1166 
114 115 164 163 121 122 171 170 835 1123 1124 1116 880 1168 1169 1161 871 878 1167 1160 1163 1170 882 1171 1127 1172 1173 
115 116 165 164 122 123 172 171 842 1130 1131 1123 887 1175 1176 1168 878 885 1174 1167 1170 1177 889 1178 1134 1179 1180 
116 117 166 165 123 124 173 172 849 1137 1138 1130 894 1182 1183 1175 885 892 1181 1174 1177 1184 896 1185 1141 1186 1187 
117 118 167 166 124 125 174 173 856 1144 1145 1137 901 1189 1190 1182 892 899 1188 1181 1184 1191 903 1192 1148 1193 1194 
119 120 169 168 126 127 176 175 864 1152 1153 1154 909 1197 1198 1199 907 906 1195 1196 1202 1200 912 1201 1158 1203 1204 
120 121 170 169 127 128 177 176 873 1161 1162 1152 918 1206 1207 1197 906 916 1205 1195 1200 1208 920 1209 1165 1210 1211 
121 122 171 170 128 129 178 177 880 1168 1169 1161 925 1213 1214 1206 916 923 1212 1205 1208 1215 927 1216 1172 1217 1218 
122 123 172 171 129 130 179 178 887 1175 1176 1168 932 1220 1221 1213 923 930 1219 1212 1215 1222 934 1223 1179 1224 1225 
123 124 173 172 130 131 180 179 894 1182 1183 1175 939 1227 1228 1220 930 937 1226 1219 1222 1229 941 1230 1186 1231 1232 
124 125 174 173 131 132 181 180 901 1189 1190 1182 946 1234 1235 1227 937 944 1233 1226 1229 1236 948 1237 1193 1238 1239 
126 127 176 175 133 134 183 182 909 1197 1198 1199 954 1242 1243 1244 952 951 1240 1241 1247 1245 957 1246 1203 1248 1249 
127 128 177 176 134 135 184 183 918 1206 1207 1197 963 1251 1252 1242 951 961 1250 1240 1245 1253 965 1254 1210 1255 1256 
128 129 178 177 135 136 185 184 925 1213 1214 1206 970 1258 1259 1251 961 968 1257 1250 1253 1260 972 1261 1217 1262 1263 
129 130 179 178 136 137 186 185 932 1220 1221 1213 977 1265 1266 1258 968 975 1264 1257 1260 1267 979 1268 1224 1269 1270 
130 131 180 179 137 138 187 186 939 1227 1228 1220 984 1272 1273 1265 975 982 1271 1264 1267 1274 986 1275 1231 1276 1277 
131 132 181 180 138 139 188 187 946 1234 1235 1227 991 1279 1280 1272 982 989 1278 1271 1274 1281 993 1282 1238 1283 1284 
133 134 183 182 140 141 190 189 954 1242 1243 1244 999 1287 1288 1289 997 996 1285 1286 1292 1290 1002 1291 1248 1293 1294 
134 135 184 183 141 142 191 190 963 1251 1252 1242 1008 1296 1297 1287 996 1006 1295 1285 1290 1298 1010 1299 1255 1300 1301 
135 136 185 184 142 143 192 191 970 1258 1259 1251 1015 1303 1304 1296 1006 1013 1302 1295 1298 1305 1017 1306 1262 1307 1308 
136 137 186 185 143 144 193 192 977 1265 1266 1258 1022 1310 1311 1303 1013 1020 1309 1302 1305 1312 1024 1313 1269 1314 1315 
137 138 187 186 144 145 194 193 984 1272 1273 1265 1029 1317 1318 1310 1020 1027 1316 1309 1312 1319 1031 1320 1276 1321 1322 
138 139 188 187 145 146 195 194 991 1279 1280 1272 1036 1324 1325 1317 1027 1034 1323 1316 1319 1326 1038 1327 1283 1328 1329 
147 148 197 196 154 155 204 203 1042 1330 1331 1332 1047 1335 1336 1337 1045 1044 1333 1334 1341 1339 1051 1340 1338 1342 1343 
148 149 198 197 155 156 205 204 1056 1344 1345 1330 1059 1347 1348 1335 1044 1057 1346 1333 1339 1350 1062 1351 1349 1352 1353 
149 150 199 198 156 157 206 205 1066 1354 1355 1344 1069 1357 1358 1347 1057 1067 1356 1346 1350 1360 1072 1361 1359 1362 1363 
150 151 200 199 157 158 207 206 1076 1364 1365 1354 1079 1367 1368 1357 1067 1077 1366 1356 1360 1370 1082 1371 1369 1372 1373 
151 152 201 200 158 159 208 207 1086 1374 1375 1364 1089 1377 1378 1367 1077 1087 1376 1366 1370 1380 1092 1381 1379 1382 1383 
152 153 202 201 159 160 209 208 1096 1384 1385 1374 1099 1387 1388 1377 1087 1097 1386 1376 1380 1390 1102 1391 1389 1392 1393 
154 155 204 203 161 162 211 210 1047 1335 1336 1337 1108 1396 1397 1398 1106 1105 1394 1395 1401 1399 1111 1400 1342 1402 1403 
155 156 205 204 162 163 212 211 1059 1347 1348 1335 1117 1405 1406 1396 1105 1115 1404 1394 1399 1407 1119 1408 1352 1409 1410 
156 157 206 205 163 164 213 212 1069 1357 1358 1347 1124 1412 1413 1405 1115 1122 1411 1404 1407 1414 1126 1415 1362 1416 1417 
157 158 207 206 164 165 214 213 1079 1367 1368 1357 1131 1419 1420 1412 1122 1129 1418 1411 1414 1421 1133 1422 1372 1423 1424 
158 159 208 207 165 166 215 214 1089 1377 1378 1367 1138 1426 1427 1419 1129 1136 1425 1418 1421 1428 1140 1429 1382 1430 1431 
159 160 209 208 166 167 216 215 1099 1387 1388 1377 1145 1433 1434 1426 1136 1143 1432 1425 1428 1435 1147 1436 1392 1437 1438 
161 162 211 210 168 169 218 217 1108 1396 1397 1398 1153 1441 1442 1443 1151 1150 1439 1440 1446 1444 1156 1445 1402 1447 1448 
162 163 212 211 169 170 219 218 1117 1405 1406 1396 1162 1450 1451 1441 1150 1160 1449 1439 1444 1452 1164 1453 1409 1454 1455 
163 164 213 212 170 171 220 219 1124 1412 1413 1405 1169 1457 1458 1450 1160 1167 1456 1449 1452 1459 1171 1460 1416 1461 1462 
164 165 214 213 171 172 221 220 1131 1419 1420 1412 1176 1464 1465 1457 1167 1174 1463 1456 1459 1466 1178 1467 1423 1468 1469 
165 166 215 214 172 173 222 221 1138 1426 1427 1419 1183 1471 1472 1464 1174 1181 1470 1463 1466 1473 1185 1474 1430 1475 1476 
166 167 216 215 173 174 223 222 1145 1433 1434 1426 1190 1478 1479 1471 1181 1188 1477 1470 1473 1480 1192 1481 1437 1482 1483 
168 169 218 217 175 176 225 224 1153 1441 1442 1443 1198 1486 1487 1488 1196 1195 1484 1485 1491 1489 1201 1490 1447 1492 1493 
169 170 219 218 176 177 226 225 1162 1450 1451 1441 1207 1495 1496 1486 1195 1205 1494 1484 1489 1497 1209 1498 1454 1499 1500 
170 171 220 219 177 178 227 226 1169 1457 1458 1450 1214 1502 1503 1495 1205 1212 1501 1494 1497 1504 1216 1505 1461 1506 1507 
171 172 221 220 178 179 228 227 1176 1464 1465 1457 1221 1509 1510 1502 1212 1219 1508 1501 1504 1511 1223 1512 1468 1513 1514 
172 173 222 221 179 180 229 228 1183 1471 1472 1464 1228 1516 1517 1509 1219 1226 1515 1508 1511 1518 1230 1519 1475 1520 1521 
173 174 223 222 180 181 230 229 1190 1478 1479 1471 1235 1523 1524 1516 1226 1233 1522 1515 1518 1525 1237 1526 1482 1527 1528 
175 176 225 224 182 183 232 231 1198 1486 1487 1488 1243 1531 1532 1533 1241 1240 1529 1530 1536 1534 1246 1535 1492 1537 1538 
176 177 226 225 183 184 233 232 1207 1495 1496 1486 1252 1540 1541 1531 1240 1250 1539 1529 1534 1542 1254 1543 1499 1544 1545 
177 178 227 226 184 185 234 233 1214 1502 1503 1495 1259 1547 1548 1540 1250 1257 1546 1539 1542 1549 1261 1550 1506 1551 1552 
178 179 228 227 185 186 235 234 1221 1509 1510 1502 1266 1554 1555 1547 1257 1264 1553 1546 1549 1556 1268 1557 1513 1558 1559 
179 180 229 228 186 187 236 235 1228 1516 1517 1509 1273 1561 1562 1554 1264 1271 1560 1553 1556 1563 1275 1564 1520 1565 1566 
180 181 230 229 187 188 237 236 1235 1523 1524 1516 1280 1568 1569 1561 1271 1278 1567 1560 1563 1570 1282 1571 1527 1572 1573 
182 183 232 231 189 190 239 238 1243 1531 1532 1533 1288 1576 1577 1578 1286 1285 1574 1575 1581 1579 1291 1580 1537 1582 1583 
183 184 233 232 190 191 240 239 1252 1540 1541 1531 1297 1585 1586 1576 1285 1295 1584 1574 1579 1587 1299 1588 1544 1589 1590 
184 185 234 233 191 192 241 240 1259 1547 1548 1540 1304 1592 1593 1585 1295 1302 1591 1584 1587 1594 1306 1595 1551 1596 1597 
185 186 235 234 192 193 242 241 1266 1554 1555 1547 1311 1599 1600 1592 1302 1309 1598 1591 1594 1601 1313 1602 1558 1603 1604 
186 187 236 235 193 194 243 242 1273 1561 1562 1554 1318 1606 1607 1599 1309 1316 1605 1598 1601 1608 1320 1609 1565 1610 1611 
187 188 237 236 194 195 244 243 1280 1568 1569 1561 1325 1613 1614 1606 1316 1323 1612 1605 1608 1615 1327 1616 1572 1617 1618 
196 197 246 245 203 204 253 252 1331 1619 1620 1621 1336 1624 1625 1626 1334 1333 1622 1623 1630 1628 1340 1629 1627 1631 1632 
197 198 247 246 204 205 254 253 1345 1633 1634 1619 1348 1636 1637 1624 1333 1346 1635 1622 1628 1639 1351 1640 1638 1641 1642 
198 199 248 247 205 206 255 254 1355 1643 1644 1633 1358 1646 1647 1636 1346 1356 1645 1635 1639 1649 1361 1650 1648 1651 1652 
199 200 249 248 206 207 256 255 1365 1653 1654 1643 1368 1656 1657 1646 1356 1366 1655 1645 1649 1659 1371 1660 1658 1661 1662 
200 201 250 249 207 208 257 256 1375 1663 1664 1653 1378 1666 1667 1656 1366 1376 1665 1655 1659 1669 1381 1670 1668 1671 1672 
201 202 251 250 208 209 258 257 1385 1673 1674 1663 1388 1676 1677 1666 1376 1386 1675 1665 1669 1679 1391 1680 1678 1681 1682 
203 204 253 252 210 211 260 259 1336 1624 1625 1626 1397 1685 1686 1687 1395 1394 1683 1684 1690 1688 1400 1689 1631 1691 1692 
204 205 254 253 211 212 261 260 1348 1636 1637 1624 1406 1694 1695 1685 1394 1404 1693 1683 1688 1696 1408 1697 1641 1698 1699 
205 206 255 254 212 213 262 261 1358 1646 1647 1636 1413 1701 1702 1694 1404 1411 1700 1693 1696 1703 1415 1704 1651 1705 1706 
206 207 256 255 213 214 263 262 1368 1656 1657 1646 1420 1708 1709 1701 1411 1418 1707 1700 1703 1710 1422 1711 1661 1712 1713 
207 208 257 256 214 215 264 263 1378 1666 1667 1656 1427 1715 1716 1708 1418 1425 1714 1707 1710 1717 1429 1718 1671 1719 1720 
208 209 258 257 215 216 265 264 1388 1676 1677 1666 1434 1722 1723 1715 1425 1432 1721 1714 1717 1724 1436 1725 1681 1726 1727 
210 211 260 259 217 218 267 266 1397 1685 1686 1687 1442 1730 1731 1732 1440 1439 1728 1729 1735 1733 1445 1734 1691 1736 1737 
211 212 261 260 218 219 268 267 1406 1694 1695 1685 1451 1739 1740 1730 1439 1449 1738 1728 1733 1741 1453 1742 1698 1743 1744 
212 213 262 261 219 220 269 268 1413 1701 1702 1694 1458 1746 1747 1739 1449 1456 1745 1738 1741 1748 1460 1749 1705 1750 1751 
213 214 263 262 220 221 270 269 1420 1708 1709 1701 1465 1753 1754 1746 1456 1463 1752 1745 1748 1755 1467 1756 1712 1757 1758 
214 215 264 263 221 222 271 270 1427 1715 1716 1708 1472 1760 1761 1753 1463 1470 1759 1752 1755 1762 1474 1763 1719 1764 1765 
215 216 265 264 222 223 272 271 1434 1722 1723 1715 1479 1767 1768 1760 1470 1477 1766 1759 1762 1769 1481 1770 1726 1771 1772 
217 218 267 266 224 225 274 273 1442 1730 1731 1732 1487 1775 1776 1777 1485 1484 1773 1774 1780 1778 1490 1779 1736 1781 1782 
218 219 268 267 225 226 275 274 1451 1739 1740 1730 1496 1784 1785 1775 1484 1494 1783 1773 1778 1786 1498 1787 1743 1788 1789 
219 220 269 268 226 227 276 275 1458 1746 1747 1739 1503 1791 1792 1784 1494 1501 1790 1783 1786 1793 1505 1794 1750 1795 1796 
220 221 270 269 227 228 277 276 1465 1753 1754 1746 1510 1798 1799 1791 1501 1508 1797 1790 1793 1800 1512 1801 1757 1802 1803 
221 222 271 270 228 229 278 277 1472 1760 1761 1753 1517 1805 1806 1798 1508 1515 1804 1797 1800 1807 1519 1808 1764 1809 1810 
222 223 272 271 229 230 279 278 1479 1767 1768 1760 1524 1812 1813 1805 1515 1522 1811 1804 1807 1814 1526 1815 1771 1816 1817 
224 225 274 273 231 232 281 280 1487 1775 1776 1777 1532 1820 1821 1822 1530 1529 1818 1819 1825 1823 1535 1824 1781 1826 1827 
225 226 275 274 232 233 282 281 1496 1784 1785 1775 1541 1829 1830 1820 1529 1539 1828 1818 1823 1831 1543 1832 1788 1833 1834 
226 227 276 275 233 234 283 282 1503 1791 1792 1784 1548 1836 1837 1829 1539 1546 1835 1828 1831 1838 1550 1839 1795 1840 1841 
227 228 277 276 234 235 284 283 1510 1798 1799 1791 1555 1843 1844 1836 1546 1553 1842 1835 1838 1845 1557 1846 1802 1847 1848 
228 229 278 277 235 236 285 284 1517 1805 1806 1798 1562 1850 1851 1843 1553 1560 1849 1842 1845 1852 1564 1853 1809 1854 1855 
229 230 279 278 236 237 286 285 1524 1812 1813 1805 1569 1857 1858 1850 1560 1567 1856 1849 1852 1859 1571 1860 1816 1861 1862 
231 232 281 280 238 239 288 287 1532 1820 1821 1822 1577 1865 1866 1867 1575 1574 1863 1864 1870 1868 1580 1869 1826 1871 1872 
232 233 282 281 239 240 289 288 1541 1829 1830 1820 1586 1874 1875 1865 1574 1584 1873 1863 1868 1876 1588 1877 1833 1878 1879 
233 234 283 282 240 241 290 289 1548 1836 1837 1829 1593 1881 1882 1874 1584 1591 1880 1873 1876 1883 1595 1884 1840 1885 1886 
234 235 284 283 241 242 291 290 1555 1843 1844 1836 1600 1888 1889 1881 1591 1598 1887 1880 1883 1890 1602 1891 1847 1892 1893 
235 236 285 284 242 243 292 291 1562 1850 1851 1843 1607 1895 1896 1888 1598 1605 1894 1887 1890 1897 1609 1898 1854 1899 1900 
236 237 286 285 243 244 293 292 1569 1857 1858 1850 1614 1902 1903 1895 1605 1612 1901 1894 1897 1904 1616 1905 1861 1906 1907 
245 246 295 294 252 253 302 301 1620 1908 1909 1910 1625 1913 1914 1915 1623 1622 1911 1912 1919 1917 1629 1918 1916 1920 1921 
246 247 296 295 253 254 303 302 1634 1922 1923 1908 1637 1925 1926 1913 1622 1635 1924 1911 1917 1928 1640 1929 1927 1930 1931 
247 248 297 296 254 255 304 303 1644 1932 1933 1922 1647 1935 1936 1925 1635 1645 1934 1924 1928 1938 1650 1939 1937 1940 1941 
248 249 298 297 255 256 305 304 1654 1942 1943 1932 1657 1945 1946 1935 1645 1655 1944 1934 1938 1948 1660 1949 1947 1950 1951 
249 250 299 298 256 257 306 305 1664 1952 1953 1942 1667 1955 1956 1945 1655 1665 1954 1944 1948 1958 1670 1959 1957 1960 1961 
250 251 300 299 257 258 307 306 1674 1962 1963 1952 1677 1965 1966 1955 1665 1675 1964 1954 1958 1968 1680 1969 1967 1970 1971 
252 253 302 301 259 260 309 308 1625 1913 1914 1915 1686 1974 1975 1976 1684 1683 1972 1973 1979 1977 1689 1978 1920 1980 1981 
253 254 303 302 260 261 310 309 1637 1925 1926 1913 1695 1983 1984 1974 1683 1693 1982 1972 1977 1985 1697 1986 1930 1987 1988 
254 255 304 303 261 262 311 310 1647 1935 1936 1925 1702 1990 1991 1983 1693 1700 1989 1982 1985 1992 1704 1993 1940 1994 1995 
255 256 305 304 262 263 312 311 1657 1945 1946 1935 1709 1997 1998 1990 1700 1707 1996 1989 1992 1999 1711 2000 1950 2001 2002 
256 257 306 305 263 264 313 312 1667 1955 1956 1945 1716 2004 2005 1997 1707 1714 2003 1996 1999 2006 1718 2007 1960 2008 2009 
257 258 307 306 264 265 314 313 1677 1965 1966 1955 1723 2011 2012 2004 1714 1721 2010 2003 2006 2013 1725 2014 1970 2015 2016 
259 260 309 308 266 267 316 315 1686 1974 1975 1976 1731 2019 2020 2021 1729 1728 2017 2018 2024 2022 1734 2023 1980 2025 2026 
260 261 310 309 267 268 317 316 1695 1983 1984 1974 1740 2028 2029 2019 1728 1738 2027 2017 2022 2030 1742 2031 1987 2032 2033 
261 262 311 310 268 269 318 317 1702 1990 1991 1983 1747 2035 2036 2028 1738 1745 2034 2027 2030 2037 1749 2038 1994 2039 2040 
262 263 312 311 269 270 319 318 1709 1997 1998 1990 1754 2042 2043 2035 1745 1752 2041 2034 2037 2044 1756 2045 2001 2046 2047 
263 264 313 312 270 271 320 319 1716 2004 2005 1997 1761 2049 2050 2042 1752 1759 2048 2041 2044 2051 1763 2052 2008 2053 2054 
264 265 314 313 271 272 321 320 1723 2011 2012 2004 1768 2056 2057 2049 1759 1766 2055 2048 2051 2058 1770 2059 2015 2060 2061 
266 267 316 315 273 274 323 322 1731 2019 2020 2021 1776 2064 2065 2066 1774 1773 2062 2063 2069 2067 1779 2068 2025 2070 2071 
267 268 317 316 274 275 324 323 1740 2028 2029 2019 1785 2073 2074 2064 1773 1783 2072 2062 2067 2075 1787 2076 2032 2077 2078 
268 269 318 317 275 276 325 324 1747 2035 2036 2028 1792 2080 2081 2073 1783 1790 2079 2072 2075 2082 1794 2083 2039 2084 2085 
269 270 319 318 276 277 326 325 1754 2042 2043 2035 1799 2087 2088 2080 1790 1797 2086 2079 2082 2089 1801 2090 2046 2091 2092 
270 271 320 319 277 278 327 326 1761 2049 2050 2042 1806 2094 2095 2087 1797 1804 2093 2086 2089 2096 1808 2097 2053 2098 2099 
271 272 321 320 278 279 328 327 1768 2056 2057 2049 1813 2101 2102 2094 1804 1811 2100 2093 2096 2103 1815 2104 2060 2105 2106 
273 274 323 322 280 281 330 329 1776 2064 2065 2066 1821 2109 2110 2111 1819 1818 2107 2108 2114 2112 1824 2113 2070 2115 2116 
274 275 324 323 281 282 331 330 1785 2073 2074 2064 1830 2118 2119 2109 1818 1828 2117 2107 2112 2120 1832 2121 2077 2122 2123 
275 276 325 324 282 283 332 331 1792 2080 2081 2073 1837 2125 2126 2118 1828 1835 2124 2117 2120 2127 1839 2128 2084 2129 2130 
276 277 326 325 283 284 333 332 1799 2087 2088 2080 1844 2132 2133 2125 1835 1842 2131 2124 2127 2134 1846 2135 2091 2136 2137 
277 278 327 326 284 285 334 333 1806 2094 2095 2087 1851 2139 2140 2132 1842 1849 2138 2131 2134 2141 1853 2142 2098 2143 2144 
278 279 328 327 285 286 335 334 1813 2101 2102 2094 1858 2146 2147 2139 1849 1856 2145 2138 2141 2148 1860 2149 2105 2150 2151 
280 281 330 329 287 288 337 336 1821 2109 2110 2111 1866 2154 2155 2156 1864 1863 2152 2153 2159 2157 1869 2158 2115 2160 2161 
281 282 331 330 288 289 338 337 1830 2118 2119 2109 1875 2163 2164 2154 1863 1873 2162 2152 2157 2165 1877 2166 2122 2167 2168 
282 283 332 331 289 290 339 338 1837 2125 2126 2118 1882 2170 2171 2163 1873 1880 2169 2162 2165 2172 1884 2173 2129 2174 2175 
283 284 333 332 290 291 340 339 1844 2132 2133 2125 1889 2177 2178 2170 1880 1887 2176 2169 2172 2179 1891 2180 2136 2181 2182 
284 285 334 333 291 292 341 340 1851 2139 2140 2132 1896 2184 2185 2177 1887 1894 2183 2176 2179 2186 1898 2187 2143 2188 2189 
285 286 335 334 292 293 342 341 1858 2146 2147 2139 1903 2191 2192 2184 1894 1901 2190 2183 2186 2193 1905 2194 2150 2195 2196 
CELL_TYPES 216
29 29 29 29 29 29 29 29 29 29 29 29 29 29 29 29 29 29 29 29 29 29 29 29 29 29 29 29 29 29 29 29 29 29 29 29 29 29 29 29 29 29 29 29 29 29 29 29 29 29 29 29 29 29 29 29 29 29 29 29 29 29 29 29 29 29 29 29 29 29 29 29 29 29 29 29 29 29 29 29 29 29 29 29 29 29 29 29 29 29 29 29 29 29 29 29 29 29 29 29 29 29 29 29 29 29 29 29 29 29 29 29 29 29 29 29 29 29 29 29 29 29 29 29 29 29 29 29 29 29 29 29 29 29 29 29 29 29 29 29 29 29 29 29 29 29 29 29 29 29 29 29 29 29 29 29 29 29 29 29 29 29 29 29 29 29 29 29 29 29 29 29 29 29 29 29 29 29 29 29 29 29 29 29 29 29 29 29 29 29 29 29 29 29 29 29 29 29 29 29 29 29 29 29 29 29 29 29 29 29 29 29 29 29 29 29 

POINT_DATA 2197
SCALARS weights float 1
LOOKUP_TABLE default
0.171468 0.342936 0.342936 0.342936 0.342936 0.342936 0.171468 0.342936 0.685871 0.685871 0.685871 0.685871 0.685871 0.342936 0.342936 0.685871 0.685871 0.685871 0.685871 0.685871 0.342936 0.342936 0.685871 0.685871 0.685871 0.685871 0.685871 0.342936 0.342936 0.685871 0.685871 0.685871 0.685871 0.685871 0.342936 0.342936 0.685871 0.685871 0.685871 0.685871 0.685871 0.342936 0.171468 0.342936 0.342936 0.342936 0.342936 0.342936 0.171468 0.342936 0.685871 0.685871 0.685871 0.685871 0.685871 0.342936 0.685871 1.37174 1.37174 1.37174 1.37174 1.37174 0.685871 0.685871 1.37174 1.37174 1.37174 1.37174 1.37174 0.685871 0.685871 1.37174 1.37174 1.37174 1.37174 1.37174 0.685871 0.685871 1.37174 1.37174 1.37174 1.37174 1.37174 0.685871 0.685871 1.37174 1.37174 1.37174 1.37174 1.37174 0.685871 0.342936 0.685871 0.685871 0.685871 0.685871 0.685871 0.342935 0.342936 0.685871 0.685871 0.685871 0.685871 0.685871 0.342936 0.685871 1.37174 1.37174 1.37174 1.37174 1.37174 0.685871 0.685871 1.37174 1.37174 1.37174 1.37174 1.37174 0.685871 0.685871 1.37174 1.37174 1.37174 1.37174 1.37174 0.685871 0.685871 1.37174 1.37174 1.37174 1.37174 1.37174 0.685871 0.685871 1.37174 1.37174 1.37174 1.37174 1.37174 0.685871 0.342936 0.685871 0.685871 0.685871 0.685871 0.685871 0.342935 0.342936 0.685871 0.685871 0.685871 0.685871 0.685871 0.342936 0.685871 1.37174 1.37174 1.37174 1.37174 1.37174 0.685871 0.685871 1.37174 1.37174 1.37174 1.37174 1.37174 0.685871 0.685871 1.37174 1.37174 1.37174 1.37174 1.37174 0.685871 0.685871 1.37174 1.37174 1.37174 1.37174 1.37174 0.685871 0.685871 1.37174 1.37174 1.37174 1.37174 1.37174 0.685871 0.342935 0.685871 0.685871 0.685871 0.685871 0.685871 0.342935 0.342936 0.685871 0.685871 0.685871 0.685871 0.685871 0.342936 0.685871 1.37174 1.37174 1.37174 1.37174 1.37174 0.685871 0.685871 1.37174 1.37174 1.37174 1.37174 1.37174 0.685871 0.685871 1.37174 1.37174 1.37174 1.37174 1.37174 0.685871 0.685871 1.37174 1.37174 1.37174 1.37174 1.37174 0.685871 0.685871 1.37174 1.37174 1.37174 1.37174 1.37174 0.685871 0.342936 0.685871 0.685871 0.685871 0.685871 0.685871 0.342935 0.342936 0.685871 0.685871 0.685871 0.685871 0.685871 0.342936 0.685871 1.37174 1.37174 1.37174 1.37174 1.37174 0.685871 0.685871 1.37174 1.37174 1.37174 1.37174 1.37174 0.685871 0.685871 1.37174 1.37174 1.37174 1.37174 1.37174 0.685871 0.685871 1.37174 1.37174 1.37174 1.37174 1.37174 0.685871 0.685871 1.37174 1.37174 1.37174 1.37174 1.37174 0.685871 0.342936 0.685871 0.685871 0.685871 0.685871 0.685871 0.342935 0.171468 0.342936 0.342936 0.342936 0.342936 0.342936 0.171468 0.342936 0.685871 0.685871 0.685871 0.685871 0.685871 0.342936 0.342936 0.685871 0.685871 0.685871 0.685871 0.685871 0.342936 0.342936 0.685871 0.685871 0.685871 0.685871 0.685871 0.342936 0.342936 0.685871 0.685871 0.685871 0.685871 0.685871 0.342936 0.342936 0.685871 0.685871 0.685871 0.685871 0.685871 0.342935 0.171468 0.342935 0.342935 0.342935 0.342936 0.342935 0.171468 0.171468 0.342936 0.342936 0.171468 0.171468 0.342936 0.685871 0.342936 0.342936 0.685871 0.685871 0.342936 0.171468 0.171468 0.342936 0.342936 0.171468 0.342936 0.171468 0.171468 0.342936 0.342936 0.342936 0.685871 0.342936 0.685871 0.685871 0.171468 0.171468 0.342936 0.342936 0.342936 0.171468 0.171468 0.342936 0.342936 0.342936 0.685871 0.342936 0.685871 0.685871 0.171468 0.171468 0.342936 0.342936 0.342936 0.171468 0.171468 0.342936 0.342936 0.342936 0.685871 0.342936 0.685871 0.685871 0.171468 0.171468 0.342936 0.342936 0.342936 0.171468 0.171468 0.342936 0.342936 0.342936 0.685871 0.342936 0.685871 0.685871 0.171468 0.171468 0.342936 0.342936 0.342936 0.171468 0.171468 0.171468 0.342936 0.171468 0.342936 0.342936 0.342936 0.685871 0.171468 0.171468 0.171468 0.342936 0.342936 0.171468 0.171468 0.342936 0.685871 0.342936 0.342936 0.685871 0.685871 0.342936 0.171468 0.342936 0.342936 0.171468 0.342936 0.171468 0.342936 0.685871 0.342936 0.685871 0.685871 0.171468 0.342936 0.342936 0.342936 0.171468 0.342936 0.685871 0.342936 0.685871 0.685871 0.171468 0.342936 0.342936 0.342936 0.171468 0.342936 0.685871 0.342936 0.685871 0.685871 0.171468 0.342936 0.342936 0.342936 0.171468 0.342936 0.685871 0.342936 0.685871 0.685871 0.171468 0.342936 0.342936 0.342936 0.171468 0.171468 0.342936 0.342936 0.342936 0.685871 0.171468 0.171468 0.342936 0.342936 0.171468 0.171468 0.342936 0.685871 0.342936 0.342936 0.685871 0.685871 0.342936 0.171468 0.342936 0.342936 0.171468 0.342936 0.171468 0.342936 0.685871 0.342936 0.685871 0.685871 0.171468 0.342936 0.342936 0.342936 0.171468 0.342936 0.685871 0.342936 0.685871 0.685871 0.171468 0.342936 0.342936 0.342936 0.171468 0.342936 0.685871 0.342936 0.685871 0.685871 0.171468 0.342936 0.342936 0.342936 0.171468 0.342936 0.685871 0.342936 0.685871 0.685871 0.171468 0.342936 0.342936 0.342936 0.171468 0.171468 0.342936 0.342936 0.342936 0.685871 0.171468 0.171468 0.342936 0.342936 0.171468 0.171468 0.342936 0.685871 0.342936 0.342936 0.685871 0.685871 0.342936 0.171468 0.342936 0.342936 0.171468 0.342936 0.171468 0.342936 0.685871 0.342936 0.685871 0.685871 0.171468 0.342936 0.342936 0.342936 0.171468 0.342936 0.685871 0.342936 0.685871 0.685871 0.171468 0.342936 0.342936 0.342936 0.171468 0.342936 0.685871 0.342936 0.685871 0.685871 0.171468 0.342936 0.342936 0.342936 0.171468 0.342936 0.685871 0.342936 0.685871 0.685871 0.171468 0.342936 0.342936 0.342936 0.171468 0.171468 0.342936 0.342936 0.342936 0.685871 0.171468 0.171468 0.342936 0.342936 0.171468 0.171468 0.342936 0.685871 0.342936 0.342936 0.685871 0.685871 0.342936 0.171468 0.342936 0.342936 0.171468 0.342936 0.171468 0.342936 0.685871 0.342936 0.685871 0.685871 0.171468 0.342936 0.342936 0.342936 0.171468 0.342936 0.685871 0.342936 0.685871 0.685871 0.171468 0.342936 0.342936 0.342936 0.171468 0.342936 0.685871 0.342936 0.685871 0.685871 0.171468 0.342936 0.342936 0.342936 0.171468 0.342936 0.685871 0.342936 0.685871 0.685871 0.171468 0.342936 0.342936 0.342936 0.171468 0.171468 0.342936 0.342936 0.342936 0.685871 0.171468 0.171468 0.342936 0.342936 0.171468 0.171468 0.342936 0.685871 0.342936 0.171468 0.342936 0.342936 0.171468 0.171468 0.342936 0.342936 0.171468 0.171468 0.171468 0.342936 0.685871 0.171468 0.342936 0.342936 0.171468 0.342936 0.342936 0.171468 0.171468 0.342936 0.685871 0.171468 0.342936 0.342935 0.171468 0.342936 0.342935 0.171468 0.171468 0.342936 0.685871 0.171468 0.342936 0.342936 0.171468 0.342936 0.342936 0.171468 0.171468 0.342936 0.685871 0.171468 0.342936 0.342936 0.171468 0.342936 0.342936 0.171468 0.171468 0.171468 0.342935 0.171468 0.171468 0.342935 0.171468 0.171468 0.342935 0.171468 0.171468 0.342936 0.342936 0.171468 0.685871 0.342936 0.685871 0.685871 0.342936 0.171468 0.342936 0.342936 0.171468 0.342936 0.171468 0.342936 0.342936 0.685871 0.685871 0.685871 0.171468 0.342936 0.342936 0.342936 0.171468 0.342936 0.342936 0.685871 0.685871 0.685871 0.171468 0.342936 0.342936 0.342936 0.171468 0.342936 0.342936 0.685871 0.685871 0.685871 0.171468 0.342936 0.342936 0.342936 0.171468 0.342936 0.342936 0.685871 0.685871 0.685871 0.171468 0.342936 0.342936 0.342936 0.171468 0.171468 0.342936 0.342936 0.342936 0.685871 0.171468 0.171468 0.342936 0.342936 0.171468 0.685871 0.342936 0.685871 0.685871 0.342936 0.342936 0.342936 0.171468 0.342936 0.171468 0.685871 0.685871 0.685871 0.342936 0.342936 0.342936 0.171468 0.685871 0.685871 0.685871 0.342936 0.342936 0.342936 0.171468 0.685871 0.685871 0.685871 0.342936 0.342936 0.342936 0.171468 0.685871 0.685871 0.685871 0.342936 0.342936 0.342936 0.171468 0.342936 0.342936 0.685871 0.171468 0.342936 0.342936 0.171468 0.685871 0.342936 0.685871 0.685871 0.342936 0.342936 0.342936 0.171468 0.342936 0.171468 0.685871 0.685871 0.685871 0.342936 0.342936 0.342936 0.171468 0.685871 0.685871 0.685871 0.342936 0.342936 0.342936 0.171468 0.685871 0.685871 0.685871 0.342936 0.342936 0.342936 0.171468 0.685871 0.685871 0.685871 0.342936 0.342936 0.342936 0.171468 0.342936 0.342936 0.685871 0.171468 0.342936 0.342936 0.171468 0.685871 0.342936 0.685871 0.685871 0.342936 0.342936 0.342936 0.171468 0.342936 0.171468 0.685871 0.685871 0.685871 0.342936 0.342936 0.342936 0.171468 0.685871 0.685871 0.685871 0.342936 0.342936 0.342936 0.171468 0.685871 0.685871 0.685871 0.342936 0.342936 0.342936 0.171468 0.685871 0.685871 0.685871 0.342936 0.342936 0.342936 0.171468 0.342936 0.342936 0.685871 0.171468 0.342936 0.342936 0.171468 0.685871 0.342936 0.685871 0.685871 0.342936 0.342936 0.342936 0.171468 0.342936 0.171468 0.685871 0.685871 0.685871 0.342936 0.342936 0.342936 0.171468 0.685871 0.685871 0.685871 0.342936 0.342936 0.342936 0.171468 0.685871 0.685871 0.685871 0.342936 0.342936 0.342936 0.171468 0.685871 0.685871 0.685871 0.342936 0.342936 0.342936 0.171468 0.342936 0.342936 0.685871 0.171468 0.342936 0.342936 0.171468 0.685871 0.342936 0.342936 0.342936 0.171468 0.342936 0.342936 0.171468 0.171468 0.171468 0.685871 0.342936 0.342936 0.342936 0.342936 0.171468 0.171468 0.685871 0.342936 0.342935 0.342936 0.342935 0.171468 0.171468 0.685871 0.342936 0.342936 0.342936 0.342936 0.171468 0.171468 0.685871 0.342936 0.342936 0.342936 0.342936 0.171468 0.171468 0.342935 0.171468 0.342935 0.171468 0.342935 0.171468 0.171468 0.342936 0.342936 0.171468 0.685871 0.342936 0.685871 0.685871 0.342936 0.171468 0.342936 0.342936 0.171468 0.342936 0.171468 0.342936 0.342936 0.685871 0.685871 0.685871 0.171468 0.342936 0.342936 0.342936 0.171468 0.342936 0.342936 0.685871 0.685871 0.685871 0.171468 0.342936 0.342936 0.342936 0.171468 0.342936 0.342936 0.685871 0.685871 0.685871 0.171468 0.342936 0.342936 0.342936 0.171468 0.342936 0.342936 0.685871 0.685871 0.685871 0.171468 0.342936 0.342936 0.342936 0.171468 0.171468 0.342936 0.342936 0.342936 0.685871 0.171468 0.171468 0.342936 0.342936 0.171468 0.685871 0.342936 0.685871 0.685871 0.342936 0.342936 0.342936 0.171468 0.342936 0.171468 0.685871 0.685871 0.685871 0.342936 0.342936 0.342936 0.171468 0.685871 0.685871 0.685871 0.342936 0.342936 0.342936 0.171468 0.685871 0.685871 0.685871 0.342936 0.342936 0.342936 0.171468 0.685871 0.685871 0.685871 0.342936 0.342936 0.342936 0.171468 0.342936 0.342936 0.685871 0.171468 0.342936 0.342936 0.171468 0.685871 0.342936 0.685871 0.685871 0.342936 0.342936 0.342936 0.171468 0.342936 0.171468 0.685871 0.685871 0.685871 0.342936 0.342936 0.342936 0.171468 0.685871 0.685871 0.685871 0.342936 0.342936 0.342936 0.171468 0.685871 0.685871 0.685871 0.342936 0.342936 0.342936 0.171468 0.685871 0.685871 0.685871 0.342936 0.342936 0.342936 0.171468 0.342936 0.342936 0.685871 0.171468 0.342936 0.342936 0.171468 0.685871 0.342936 0.685871 0.685871 0.342936 0.342936 0.342936 0.171468 0.342936 0.171468 0.685871 0.685871 0.685871 0.342936 0.342936 0.342936 0.171468 0.685871 0.685871 0.685871 0.342936 0.342936 0.342936 0.171468 0.685871 0.685871 0.685871 0.342936 0.342936 0.342936 0.171468 0.685871 0.685871 0.685871 0.342936 0.342936 0.342936 0.171468 0.342936 0.342936 0.685871 0.171468 0.342936 0.342936 0.171468 0.685871 0.342936 0.685871 0.685871 0.342936 0.342936 0.342936 0.171468 0.342936 0.171468 0.685871 0.685871 0.685871 0.342936 0.342936 0.342936 0.171468 0.685871 0.685871 0.685871 0.342936 0.342936 0.342935 0.171468 0.685871 0.685871 0.685871 0.342936 0.342936 0.342936 0.171468 0.685871 0.685871 0.685871 0.342936 0.342936 0.342936 0.171468 0.342936 0.342936 0.685871 0.171468 0.342936 0.342936 0.171468 0.685871 0.342935 0.342935 0.342935 0.171468 0.342935 0.342935 0.171468 0.171468 0.171468 0.685871 0.342935 0.342936 0.342935 0.342936 0.171468 0.171468 0.685871 0.342935 0.342935 0.342935 0.342935 0.171468 0.171468 0.685871 0.342936 0.342936 0.342936 0.342936 0.171468 0.171468 0.685871 0.342935 0.342936 0.342935 0.342936 0.171468 0.171468 0.342935 0.171468 0.342935 0.171468 0.342935 0.171468 0.171468 0.342936 0.342936 0.171468 0.685871 0.342936 0.685871 0.685871 0.342936 0.171468 0.342936 0.342936 0.171468 0.342936 0.171468 0.342936 0.342936 0.685871 0.685871 0.685871 0.171468 0.342936 0.342936 0.342936 0.171468 0.342936 0.342936 0.685871 0.685871 0.685871 0.171468 0.342936 0.342936 0.342936 0.171468 0.342936 0.342936 0.685871 0.685871 0.685871 0.171468 0.342936 0.342936 0.342936 0.171468 0.342936 0.342936 0.685871 0.685871 0.685871 0.171468 0.342936 0.342936 0.342936 0.171468 0.171468 0.342936 0.342936 0.342936 0.685871 0.171468 0.171468 0.342936 0.342936 0.171468 0.685871 0.342936 0.685871 0.685871 0.342936 0.342936 0.342936 0.171468 0.342936 0.171468 0.685871 0.685871 0.685871 0.342936 0.342936 0.342936 0.171468 0.685871 0.685871 0.685871 0.342936 0.342936 0.342936 0.171468 0.685871 0.685871 0.685871 0.342936 0.342936 0.342936 0.171468 0.685871 0.685871 0.685871 0.342936 0.342936 0.342936 0.171468 0.342936 0.342936 0.685871 0.171468 0.342936 0.342936 0.171468 0.685871 0.342936 0.685871 0.685871 0.342936 0.342936 0.342936 0.171468 0.342936 0.171468 0.685871 0.685871 0.685871 0.342936 0.342936 0.342936 0.171468 0.685871 0.685871 0.685871 0.342936 0.342936 0.342936 0.171468 0.685871 0.685871 0.685871 0.342936 0.342936 0.342936 0.171468 0.685871 0.685871 0.685871 0.342936 0.342936 0.342936 0.171468 0.342936 0.342936 0.685871 0.171468 0.342936 0.342936 0.171468 0.685871 0.342936 0.685871 0.685871 0.342936 0.342936 0.342936 0.171468 0.342936 0.171468 0.685871 0.685871 0.685871 0.342936 0.342936 0.342936 0.171468 0.685871 0.685871 0.685871 0.342936 0.342936 0.342936 0.171468 0.685871 0.685871 0.685871 0.342936 0.342936 0.342936 0.171468 0.685871 0.685871 0.685871 0.342936 0.342936 0.342936 0.171468 0.342936 0.342936 0.685871 0.171468 0.342936 0.342936 0.171468 0.685871 0.342936 0.685871 0.685871 0.342936 0.342936 0.342936 0.171468 0.342936 0.171468 0.685871 0.685871 0.685871 0.342936 0.342936 0.342936 0.171468 0.685871 0.685871 0.685871 0.342936 0.342936 0.342936 0.171468 0.685871 0.685871 0.685871 0.342936 0.342936 0.342936 0.171468 0.685871 0.685871 0.685871 0.342936 0.342936 0.342936 0.171468 0.342936 0.342936 0.685871 0.171468 0.342936 0.342936 0.171468 0.685871 0.342936 0.342936 0.342936 0.171468 0.342936 0.342936 0.171468 0.171468 0.171468 0.685871 0.342936 0.342936 0.342936 0.342936 0.171468 0.171468 0.685871 0.342936 0.342935 0.342936 0.342935 0.171468 0.171468 0.685871 0.342936 0.342936 0.342936 0.342936 0.171468 0.171468 0.685871 0.342935 0.342936 0.342935 0.342936 0.171468 0.171468 0.342935 0.171468 0.342935 0.171468 0.342935 0.171468 0.171468 0.342936 0.342936 0.171468 0.685871 0.342936 0.685871 0.685871 0.342936 0.171468 0.342936 0.342936 0.171468 0.342936 0.171468 0.342936 0.342936 0.685871 0.685871 0.685871 0.171468 0.342936 0.342936 0.342936 0.171468 0.342936 0.342936 0.685871 0.685871 0.685871 0.171468 0.342936 0.342936 0.342936 0.171468 0.342936 0.342936 0.685871 0.685871 0.685871 0.171468 0.342936 0.342936 0.342936 0.171468 0.342936 0.342936 0.685871 0.685871 0.685871 0.171468 0.342936 0.342936 0.342936 0.171468 0.171468 0.342936 0.342936 0.342936 0.685871 0.171468 0.171468 0.342936 0.342936 0.171468 0.685871 0.342936 0.685871 0.685871 0.342936 0.342936 0.342936 0.171468 0.342936 0.171468 0.685871 0.685871 0.685871 0.342936 0.342936 0.342936 0.171468 0.685871 0.685871 0.685871 0.342936 0.342936 0.342936 0.171468 0.685871 0.685871 0.685871 0.342936 0.342936 0.342936 0.171468 0.685871 0.685871 0.685871 0.342936 0.342936 0.342936 0.171468 0.342936 0.342936 0.685871 0.171468 0.342936 0.342936 0.171468 0.685871 0.342936 0.685871 0.685871 0.342936 0.342936 0.342936 0.171468 0.342936 0.171468 0.685871 0.685871 0.685871 0.342936 0.342936 0.342936 0.171468 0.685871 0.685871 0.685871 0.342936 0.342936 0.342936 0.171468 0.685871 0.685871 0.685871 0.342936 0.342936 0.342936 0.171468 0.685871 0.685871 0.685871 0.342936 0.342936 0.342936 0.171468 0.342936 0.342936 0.685871 0.171468 0.342936 0.342936 0.171468 0.685871 0.342936 0.685871 0.685871 0.342936 0.342936 0.342936 0.171468 0.342936 0.171468 0.685871 0.685871 0.685871 0.342936 0.342936 0.342936 0.171468 0.685871 0.685871 0.685871 0.342936 0.342936 0.342936 0.171468 0.685871 0.685871 0.685871 0.342936 0.342936 0.342936 0.171468 0.685871 0.685871 0.685871 0.342936 0.342936 0.342936 0.171468 0.342936 0.342936 0.685871 0.171468 0.342936 0.342936 0.171468 0.685871 0.342936 0.685871 0.685871 0.342936 0.342936 0.342936 0.171468 0.342936 0.171468 0.685871 0.685871 0.685871 0.342936 0.342936 0.342936 0.171468 0.685871 0.685871 0.685871 0.342936 0.342936 0.342936 0.171468 0.685871 0.685871 0.685871 0.342936 0.342936 0.342936 0.171468 0.685871 0.685871 0.685871 0.342936 0.342936 0.342936 0.171468 0.342936 0.342936 0.685871 0.171468 0.342936 0.342936 0.171468 0.685871 0.342936 0.342936 0.342936 0.171468 0.342936 0.342936 0.171468 0.171468 0.171468 0.685871 0.342936 0.342936 0.342936 0.342936 0.171468 0.171468 0.685871 0.342936 0.342935 0.342936 0.342935 0.171468 0.171468 0.685871 0.342936 0.342936 0.342936 0.342936 0.171468 0.171468 0.685871 0.342935 0.342936 0.342935 0.342936 0.171468 0.171468 0.342935 0.171468 0.342935 0.171468 0.342935 0.171468 0.171468 0.342936 0.171468 0.171468 0.342936 0.171468 0.685871 0.342936 0.342936 0.171468 0.342936 0.171468 0.171468 0.342936 0.171468 0.342936 0.171468 0.342936 0.685871 0.342936 0.171468 0.342936 0.171468 0.342936 0.171468 0.342936 0.171468 0.342936 0.685871 0.342936 0.171468 0.342936 0.171468 0.342936 0.171468 0.342936 0.171468 0.342936 0.685871 0.342936 0.171468 0.342936 0.171468 0.342936 0.171468 0.342936 0.171468 0.342936 0.685871 0.342936 0.171468 0.342936 0.171468 0.342936 0.171468 0.171468 0.171468 0.171468 0.342936 0.342936 0.171468 0.171468 0.171468 0.342936 0.171468 0.342936 0.171468 0.685871 0.342936 0.342936 0.342936 0.171468 0.171468 0.342936 0.171468 0.342936 0.685871 0.342936 0.342936 0.171468 0.342936 0.171468 0.342936 0.685871 0.342936 0.342936 0.171468 0.342936 0.171468 0.342936 0.685871 0.342936 0.342936 0.171468 0.342936 0.171468 0.342936 0.685871 0.342936 0.342936 0.171468 0.342936 0.171468 0.171468 0.342936 0.342936 0.171468 0.171468 0.342936 0.171468 0.342936 0.171468 0.685871 0.342936 0.342936 0.342936 0.171468 0.171468 0.342936 0.171468 0.342936 0.685871 0.342936 0.342936 0.171468 0.342936 0.171468 0.342936 0.685871 0.342936 0.342936 0.171468 0.342936 0.171468 0.342936 0.685871 0.342936 0.342936 0.171468 0.342936 0.171468 0.342936 0.685871 0.342936 0.342936 0.171468 0.342936 0.171468 0.171468 0.342936 0.342936 0.171468 0.171468 0.342936 0.171468 0.342936 0.171468 0.685871 0.342936 0.342936 0.342936 0.171468 0.171468 0.342936 0.171468 0.342936 0.685871 0.342936 0.342936 0.171468 0.342936 0.171468 0.342936 0.685871 0.342936 0.342936 0.171468 0.342936 0.171468 0.342936 0.685871 0.342936 0.342936 0.171468 0.342936 0.171468 0.342936 0.685871 0.342936 0.342936 0.171468 0.342936 0.171468 0.171468 0.342936 0.342936 0.171468 0.171468 0.342936 0.171468 0.342936 0.171468 0.685871 0.342936 0.342936 0.342936 0.171468 0.171468 0.342936 0.171468 0.342936 0.685871 0.342936 0.342936 0.171468 0.342936 0.171468 0.342936 0.685871 0.342936 0.342936 0.171468 0.342936 0.171468 0.342936 0.685871 0.342936 0.342936 0.171468 0.342936 0.171468 0.342936 0.685871 0.342936 0.342936 0.171468 0.342936 0.171468 0.171468 0.342935 0.342935 0.171468 0.171468 0.342935 0.171468 0.342935 0.171468 0.342935 0.171468 0.171468 0.342935 0.171468 0.171468 0.171468 0.171468 0.342935 0.342935 0.171468 0.342935 0.171468 0.171468 0.171468 0.342935 0.342935 0.171468 0.342935 0.171468 0.171468 0.171468 0.342936 0.342936 0.171468 0.342936 0.171468 0.171468 0.171468 0.342935 0.342935 0.171468 0.342935 0.171468 0.171468 0.171468 0.171468 0.171468 0.171468 0.171468 0.171468 0.171468 0.171468 
SCALARS u_norm float 1
LOOKUP_TABLE default
0 1.49012e-08 0 0 0 0 0 0.333889 0.318833 0.285534 0.262117 0.257064 0.273119 0.333912 0.67425 0.622966 0.548029 0.495104 0.498672 0.555113 0.674265 0.957472 0.863825 0.770096 0.709768 0.721985 0.807869 0.957488 1.17514 1.04519 0.931318 0.874263 0.902118 1.00642 1.17513 1.3181 1.16003 1.03097 0.97422 1.0154 1.13941 1.31811 1.41421 1.20185 1.05409 1 1.05409 1.20185 1.41421 1.49012e-08 2.10734e-08 1.49012e-08 1.49012e-08 1.49012e-08 1.49012e-08 1.49012e-08 0.273099 0.235221 0.193029 0.170333 0.185945 0.235222 0.318842 0.55509 0.468387 0.375965 0.32594 0.363116 0.468394 0.622965 0.807835 0.664861 0.533213 0.463772 0.51691 0.664885 0.863822 1.00639 0.815127 0.651431 0.573466 0.638672 0.815141 1.04521 1.13941 0.910661 0.721916 0.643133 0.720329 0.910667 1.16004 1.20185 0.942809 0.745356 0.666666 0.745356 0.942809 1.20185 0 1.49012e-08 0 0 0 0 0 0.257045 0.185943 0.120411 0.0851243 0.120409 0.193025 0.285538 0.498672 0.363099 0.233876 0.164186 0.233875 0.375966 0.548027 0.721956 0.516879 0.332059 0.233209 0.332073 0.533225 0.770087 0.902095 0.638644 0.407708 0.287451 0.407722 0.651449 0.931327 1.01539 0.720324 0.455677 0.321995 0.45568 0.721912 1.03095 1.05409 0.745356 0.471404 0.333333 0.471404 0.745356 1.05409 0 1.49012e-08 0 0 0 0 0 0.262106 0.170341 0.0851252 0.00198068 0.0851114 0.170318 0.262119 0.495101 0.32593 0.164179 0.00216946 0.164178 0.325933 0.49509 0.709745 0.463772 0.233211 1.17023e-05 0.2332 0.463773 0.709754 0.874236 0.573458 0.287447 0.0021741 0.28745 0.573472 0.87425 0.974228 0.643136 0.322001 0.0019815 0.322005 0.643136 0.974227 1 0.666667 0.333333 2.98023e-07 0.333333 0.666667 1 0 1.49012e-08 0 0 0 0 0 0.285532 0.193031 0.120411 0.0851188 0.120405 0.185931 0.257057 0.54801 0.375955 0.233876 0.164191 0.233868 0.363098 0.498661 0.770075 0.533207 0.33207 0.233206 0.332069 0.5169 0.721967 0.931321 0.651439 0.407726 0.28744 0.407714 0.638656 0.902107 1.03097 0.721907 0.455673 0.321996 0.45568 0.720325 1.01539 1.05409 0.745356 0.471405 0.333334 0.471405 0.745356 1.05409 0 1.49012e-08 0 0 0 0 0 0.318838 0.235214 0.185942 0.170325 0.193016 0.235218 0.273094 0.622959 0.468373 0.363106 0.325945 0.37596 0.468383 0.555109 0.863815 0.664866 0.516899 0.463779 0.533227 0.664879 0.807856 1.04518 0.815136 0.638661 0.573471 0.651451 0.815136 1.00642 1.16002 0.910653 0.720319 0.643133 0.721917 0.910662 1.13941 1.20185 0.942809 0.745356 0.666667 0.745356 0.942809 1.20185 0 1.49012e-08 0 0 0 0 0 0.333906 0.273098 0.257069 0.262119 0.28552 0.318821 0.333908 0.674256 0.555116 0.498648 0.495099 0.548024 0.622953 0.674249 0.957484 0.807871 0.721971 0.709747 0.770096 0.863809 0.957469 1.17512 1.00642 0.902116 0.874255 0.93133 1.04522 1.17513 1.31811 1.1394 1.01539 0.974229 1.03096 1.16004 1.31811 1.41421 1.20185 1.05409 1 1.05409 1.20185 1.41421 7.45058e-09 1.666e-08 1.666e-08 7.45058e-09 0.161856 0.1591 0.116 0.134894 0.334508 0.270226 0.257136 0.288357 1.05367e-08 0.167071 0.130715 0.130458 0.140703 0.28414 0.141887 0 7.45058e-09 1.49012e-08 0.145174 0.0954057 0.302077 0.237133 0.213505 7.45058e-09 0.151404 0.115379 0.104975 0.253989 0.122192 0 7.45058e-09 1.49012e-08 0.13528 0.0868991 0.272116 0.214704 0.177888 7.45058e-09 0.139969 0.109623 0.089338 0.223135 0.111238 0 7.45058e-09 1.49012e-08 0.12933 0.0944616 0.25748 0.221835 0.172929 7.45058e-09 0.131577 0.114386 0.0885517 0.214229 0.110602 0 7.45058e-09 1.49012e-08 0.134899 0.115998 0.262269 0.25714 0.207119 7.45058e-09 0.13031 0.130458 0.103824 0.236169 0.120936 0 7.45058e-09 1.49012e-08 0.161862 0.159095 0.288373 0.33452 0.270225 7.45058e-09 0.140708 0.167074 0.130711 0.284146 0.141888 0.50999 0.479609 0.355533 0.414212 0.652789 0.534557 0.514518 0.602306 0.501386 0.407469 0.388343 0.448736 0.571898 0.432758 0.420161 0.286558 0.584468 0.454263 0.420546 0.449115 0.34854 0.320049 0.492619 0.377167 0.380318 0.249531 0.515424 0.409434 0.342173 0.396174 0.314183 0.261569 0.424864 0.326501 0.378667 0.276325 0.489732 0.432485 0.333381 0.374903 0.328775 0.254652 0.412402 0.315125 0.414224 0.355534 0.520062 0.514534 0.409297 0.391399 0.388352 0.310821 0.466642 0.353207 0.510007 0.479618 0.602324 0.652798 0.534562 0.448754 0.5014 0.407473 0.57191 0.432769 0.823942 0.748853 0.571041 0.688518 0.91096 0.755063 0.735836 0.871168 0.788334 0.650101 0.630695 0.74404 0.813209 0.698622 0.664986 0.458576 0.81371 0.64303 0.595296 0.705044 0.553559 0.512085 0.695599 0.599351 0.606966 0.398209 0.732781 0.582129 0.486308 0.629247 0.499748 0.417863 0.602604 0.518018 0.61622 0.443521 0.705347 0.617808 0.474631 0.602434 0.529699 0.407295 0.587698 0.504132 0.688542 0.571054 0.755522 0.735862 0.582526 0.644229 0.630714 0.499705 0.667953 0.572245 0.823962 0.748853 0.871184 0.910966 0.755068 0.744056 0.788345 0.650107 0.813222 0.698636 1.07648 0.963531 0.746509 0.916385 1.10774 0.922394 0.907162 1.08027 1.01892 0.846049 0.829293 0.985349 0.998378 0.914236 0.858712 0.597277 0.982404 0.784681 0.726643 0.906574 0.720178 0.666617 0.847434 0.778271 0.798165 0.523023 0.893255 0.718583 0.597211 0.820241 0.65587 0.546339 0.739328 0.676896 0.817864 0.582961 0.876589 0.766071 0.588207 0.796561 0.697833 0.536029 0.72824 0.663407 0.916414 0.746527 0.943501 0.907177 0.717179 0.857337 0.829316 0.655732 0.82656 0.754162 1.07649 0.963532 1.08028 1.10775 0.922407 0.985365 1.01893 0.846057 0.998387 0.914249 1.25639 1.11149 0.870488 1.08041 1.23445 1.02793 1.02212 1.21919 1.1808 0.983922 0.97162 1.15728 1.1206 1.06741 0.989044 0.693027 1.08846 0.871495 0.8067 1.04342 0.835232 0.773779 0.941424 0.902234 0.933094 0.613703 0.991666 0.805517 0.664126 0.950678 0.768855 0.636412 0.824015 0.788515 0.968943 0.68499 0.982813 0.864954 0.663291 0.939291 0.822346 0.631028 0.820353 0.781095 1.08043 0.870501 1.06704 1.02212 0.805291 1.0137 0.97163 0.767575 0.933366 0.886649 1.2564 1.1115 1.2192 1.23446 1.02793 1.1573 1.18081 0.983929 1.12061 1.06742 1.37191 1.19205 0.931592 1.17606 1.30171 1.06719 1.06719 1.30171 1.27945 1.05214 1.04955 1.26198 1.17851 1.15307 1.05035 0.738559 1.11803 0.897527 0.833333 1.11313 0.890057 0.824494 0.971825 0.961575 0.997338 0.661734 1.01379 0.833333 0.687184 1.01133 0.828178 0.681328 0.849836 0.843874 1.04648 0.739836 1.01379 0.897527 0.687184 1.01019 0.89045 0.682671 0.849836 0.844883 1.17607 0.931599 1.11803 1.06719 0.833333 1.10149 1.04956 0.824906 0.971825 0.959393 1.37192 1.19206 1.30171 1.30171 1.06719 1.26198 1.27945 1.05214 1.17851 1.15307 1.49012e-08 7.45058e-09 0 0.0944615 0.129321 0.207119 0.221835 0.262256 7.45058e-09 0.103825 0.114384 0.130305 0.236165 0.120935 0 0 0.0603952 0.154106 0.152033 0 0.0767272 0.0770095 0.179573 0.0896526 0 0 0.0428571 0.127391 0.0953079 0 0.0647677 0.0476809 0.13518 0.0678219 0 0 0.060393 0.152031 0.0949471 0 0.0770065 0.0479586 0.133333 0.0680909 0 0 0.0954033 0.213503 0.154104 0 0.104973 0.076725 0.179572 0.0896509 0 0 0.145169 0.302075 0.237129 0 0.151399 0.115378 0.253987 0.122189 0.27632 0.378667 0.409285 0.432474 0.520046 0.310818 0.328771 0.391393 0.466628 0.3532 0.178501 0.300573 0.296279 0.229152 0.225909 0.352482 0.268435 0.125544 0.245385 0.184681 0.187695 0.140962 0.261759 0.199866 0.178499 0.296284 0.183623 0.22591 0.140384 0.257855 0.197074 0.286555 0.420551 0.300574 0.320049 0.22915 0.352489 0.268436 0.420164 0.584465 0.454263 0.449113 0.348538 0.492622 0.377167 0.443499 0.616202 0.582503 0.617782 0.755496 0.499687 0.52968 0.644207 0.667928 0.572225 0.285335 0.426845 0.420774 0.366809 0.36148 0.500211 0.429783 0.200282 0.348866 0.262425 0.299594 0.225391 0.372146 0.319657 0.285343 0.420794 0.260717 0.361492 0.223971 0.366474 0.314717 0.45858 0.595313 0.426856 0.512092 0.366813 0.500228 0.429794 0.664978 0.813704 0.643027 0.705042 0.553557 0.695601 0.599353 0.582933 0.817833 0.717157 0.766044 0.943475 0.655708 0.697804 0.857312 0.826536 0.754137 0.373107 0.522689 0.517683 0.478849 0.473331 0.612909 0.56146 0.262559 0.430667 0.322514 0.393053 0.295036 0.457168 0.418203 0.373121 0.5177 0.32113 0.473349 0.293416 0.452628 0.413054 0.597289 0.726658 0.522701 0.666631 0.478861 0.612925 0.561477 0.858713 0.982414 0.784687 0.906575 0.72018 0.847444 0.778278 0.68498 0.968936 0.805288 0.864949 1.06703 0.767563 0.822336 1.01369 0.933361 0.886637 0.435344 0.581922 0.580622 0.557216 0.553695 0.684174 0.654169 0.307442 0.482833 0.360121 0.460818 0.344347 0.509677 0.487779 0.435352 0.580628 0.359938 0.553704 0.343439 0.508777 0.484789 0.693032 0.806702 0.581921 0.773788 0.55722 0.684176 0.654176 0.989044 1.08846 0.871489 1.04342 0.835234 0.941427 0.902238 0.73983 1.04647 0.833333 0.897527 1.11803 0.824901 0.890443 1.10148 0.971825 0.959388 0.467058 0.600925 0.600925 0.595299 0.595432 0.707107 0.699739 0.330655 0.5 0.372678 0.496064 0.369398 0.527046 0.522422 0.467058 0.600925 0.372678 0.595435 0.369426 0.527046 0.522772 0.738556 0.833333 0.600925 0.824494 0.595299 0.707107 0.69974 1.05035 1.11803 0.897528 1.11313 0.890053 0.971825 0.961574 1.49012e-08 7.45058e-09 0 0.0869013 0.135278 0.172928 0.214704 0.257473 7.45058e-09 0.088553 0.109623 0.131575 0.214228 0.110601 0 0 0.0428566 0.0949495 0.127395 0 0.0479588 0.0647687 0.133334 0.0680922 0 0 0.00110888 0.0425436 0.0425447 0 0.0214354 0.021436 0.0601107 0.0302512 0 0 0.0428501 0.095301 0.0425339 0 0.0476767 0.0214303 0.0601061 0.0302489 0 0 0.0868932 0.17788 0.127381 0 0.0893336 0.0647626 0.135175 0.0678173 0 0 0.135281 0.272118 0.214695 0 0.139969 0.10962 0.223128 0.111236 0.249531 0.380311 0.333371 0.409426 0.489727 0.254647 0.314181 0.374896 0.412393 0.315119 0.125539 0.183615 0.245374 0.140381 0.187691 0.257847 0.197071 0.00242019 0.0822892 0.0822852 0.0629157 0.0629148 0.116529 0.0890228 0.125533 0.184675 0.0822768 0.140955 0.0629051 0.116528 0.0890206 0.24952 0.342168 0.245377 0.261561 0.187684 0.261754 0.199859 0.380312 0.515415 0.409425 0.396171 0.314173 0.424858 0.326495 0.398203 0.606956 0.474615 0.582115 0.705322 0.407284 0.499736 0.60242 0.587679 0.504119 0.200275 0.260708 0.348863 0.223963 0.299585 0.366462 0.314706 0.00128828 0.116801 0.116801 0.100348 0.100341 0.165479 0.142157 0.200272 0.262425 0.116792 0.225391 0.100336 0.16548 0.142159 0.398204 0.486313 0.348862 0.417861 0.299586 0.37215 0.319655 0.606955 0.732773 0.582119 0.629236 0.499738 0.6026 0.518013 0.523013 0.798149 0.588195 0.718569 0.876566 0.536012 0.655857 0.796538 0.728222 0.663388 0.262553 0.321121 0.43066 0.293405 0.393044 0.452617 0.41304 0.00129927 0.143835 0.143829 0.131433 0.131429 0.203568 0.186122 0.262555 0.32252 0.143831 0.295041 0.131427 0.203571 0.186127 0.523023 0.597219 0.430671 0.546345 0.393051 0.457173 0.418208 0.798159 0.893253 0.718582 0.820239 0.655865 0.73933 0.676895 0.613698 0.933082 0.663287 0.805523 0.982807 0.631019 0.768848 0.93928 0.82035 0.781086 0.307438 0.359936 0.482837 0.343433 0.460815 0.508773 0.48478 0.00242234 0.160995 0.161001 0.153752 0.153748 0.227672 0.217483 0.307439 0.360126 0.161005 0.344351 0.153751 0.227674 0.217486 0.613704 0.664126 0.482837 0.636412 0.460818 0.509678 0.48778 0.933088 0.991663 0.805521 0.950676 0.768854 0.824014 0.788515 0.661732 0.99734 0.687184 0.833333 1.01379 0.682667 0.828178 1.01019 0.849837 0.84488 0.330652 0.372678 0.5 0.369424 0.49606 0.527046 0.522769 0.00110847 0.166666 0.166667 0.165245 0.165246 0.235702 0.233574 0.330655 0.372678 0.166667 0.369399 0.165246 0.235702 0.233576 0.661734 0.687184 0.5 0.681326 0.496063 0.527046 0.522422 0.997338 1.01379 0.833333 1.01133 0.828179 0.849837 0.843872 1.49012e-08 7.45058e-09 0 0.095404 0.14517 0.177895 0.237132 0.272113 7.45058e-09 0.0893382 0.115378 0.139969 0.223134 0.111238 0 0 0.0603955 0.0953064 0.154105 0 0.0476814 0.0767257 0.135182 0.0678219 0 0 0.0428539 0.042542 0.0949426 0 0.0214334 0.0479576 0.0601101 0.030251 0 0 0.0603902 0.0949379 0.0953014 0 0.0479538 0.0476768 0.0601007 0.0302458 0 0 0.0944532 0.172916 0.15203 0 0.0885473 0.0770045 0.133324 0.068087 0 0 0.129324 0.257479 0.22183 0 0.131575 0.11438 0.214224 0.110597 0.286552 0.420156 0.342163 0.454255 0.515415 0.261566 0.348535 0.396171 0.424853 0.326498 0.178499 0.184676 0.300568 0.140958 0.229148 0.261752 0.199862 0.125538 0.0822864 0.183619 0.0629098 0.140381 0.11653 0.0890215 0.178493 0.183614 0.184679 0.140374 0.140953 0.116523 0.0890126 0.276314 0.33337 0.296271 0.254641 0.225903 0.257845 0.197063 0.378661 0.489715 0.432469 0.374894 0.328764 0.412389 0.315114 0.458573 0.664977 0.486299 0.643017 0.732763 0.417855 0.553551 0.629235 0.602593 0.518008 0.285334 0.262429 0.426844 0.225387 0.366805 0.37214 0.31965 0.200279 0.116798 0.260713 0.100339 0.223965 0.165478 0.142155 0.285338 0.260708 0.262424 0.223962 0.225392 0.165473 0.142151 0.443508 0.474623 0.420787 0.407286 0.361483 0.366465 0.314707 0.616207 0.70533 0.6178 0.602422 0.529688 0.587688 0.504122 0.597276 0.858699 0.59721 0.784677 0.893244 0.546335 0.72017 0.820228 0.739319 0.676885 0.373118 0.322524 0.5227 0.295041 0.478854 0.457169 0.418202 0.262555 0.14382 0.321125 0.131427 0.293412 0.203566 0.186124 0.373113 0.321126 0.322516 0.29341 0.295035 0.203565 0.186121 0.582951 0.588202 0.517687 0.536022 0.473342 0.452625 0.413047 0.817848 0.876577 0.76606 0.796548 0.697822 0.728233 0.6634 0.693026 0.989039 0.664121 0.87149 0.991667 0.636407 0.835228 0.95067 0.824015 0.788509 0.435349 0.36012 0.581917 0.344348 0.557215 0.509672 0.487775 0.307435 0.160998 0.359933 0.153746 0.343433 0.227669 0.21748 0.435352 0.359937 0.360124 0.343436 0.34435 0.227674 0.217482 0.684983 0.663288 0.580626 0.631024 0.5537 0.508775 0.484786 0.968938 0.982809 0.86495 0.939285 0.82234 0.820349 0.78109 0.738556 1.05035 0.687184 0.897528 1.01379 0.681325 0.890052 1.01132 0.849837 0.843871 0.467055 0.372678 0.600926 0.369395 0.595295 0.527046 0.522419 0.330653 0.166667 0.372678 0.165245 0.369424 0.235703 0.233574 0.467058 0.372678 0.372678 0.369426 0.369398 0.235703 0.233578 0.739834 0.687185 0.600926 0.682671 0.595436 0.527047 0.522772 1.04647 1.01379 0.897528 1.01019 0.890447 0.849837 0.844883 1.49012e-08 7.45058e-09 0 0.115996 0.159098 0.213497 0.270218 0.302075 7.45058e-09 0.104971 0.130711 0.1514 0.253985 0.122188 0 0 0.0944576 0.152031 0.207113 0 0.077007 0.103821 0.179569 0.0896496 0 0 0.0868926 0.12739 0.172922 0 0.0647661 0.0885467 0.13333 0.0680896 0 0 0.0953974 0.154102 0.177881 0 0.076723 0.0893327 0.135177 0.0678187 0 0 0.115996 0.20711 0.213497 0 0.10382 0.104969 0.179566 0.0896479 0 0 0.134893 0.262261 0.257129 0 0.130307 0.130454 0.236164 0.120933 0.355526 0.47961 0.420531 0.534551 0.584458 0.32004 0.407462 0.44911 0.492613 0.377161 0.276318 0.296282 0.409282 0.225905 0.310813 0.352479 0.26843 0.24953 0.245383 0.333376 0.187691 0.254649 0.257851 0.19707 0.286551 0.30057 0.342171 0.229147 0.261565 0.261756 0.199861 0.35553 0.409284 0.420546 0.310813 0.320045 0.352481 0.26843 0.414212 0.520052 0.514525 0.391389 0.388343 0.466629 0.353197 0.57104 0.748844 0.595297 0.755062 0.813695 0.512081 0.650097 0.705034 0.695591 0.599343 0.443509 0.420783 0.582513 0.361482 0.499692 0.500216 0.429782 0.39821 0.348867 0.474623 0.299591 0.407287 0.366468 0.31471 0.458577 0.426852 0.486315 0.366809 0.417863 0.372149 0.319656 0.571044 0.582518 0.59531 0.499694 0.512087 0.500221 0.429786 0.688534 0.755508 0.735853 0.644218 0.630703 0.667944 0.572235 0.746514 0.963518 0.726651 0.922394 0.982397 0.66662 0.846047 0.906562 0.847428 0.778266 0.58295 0.5177 0.71717 0.473342 0.65572 0.612916 0.561467 0.523027 0.430665 0.588203 0.393053 0.536024 0.452625 0.413048 0.597287 0.522703 0.597219 0.478857 0.546344 0.457172 0.418206 0.746521 0.71717 0.726655 0.655722 0.666627 0.612918 0.56147 0.916401 0.943492 0.907174 0.857324 0.829309 0.826553 0.754152 0.870489 1.11149 0.806691 1.02792 1.08844 0.773778 0.983917 1.04341 0.941415 0.902228 0.684982 0.58062 0.805285 0.553699 0.767566 0.684172 0.654169 0.613702 0.482829 0.663284 0.460813 0.631022 0.508772 0.484784 0.693034 0.581919 0.664127 0.557219 0.636413 0.509675 0.487779 0.870495 0.805289 0.806701 0.767569 0.773782 0.684175 0.654173 1.08042 1.06703 1.02212 1.01369 0.971628 0.933364 0.886644 0.93159 1.19205 0.833334 1.06719 1.11803 0.824491 1.05214 1.11313 0.971826 0.961572 0.739833 0.600926 0.833334 0.595433 0.824899 0.707107 0.699736 0.661732 0.5 0.687185 0.496061 0.682669 0.527047 0.52277 0.738558 0.600926 0.687185 0.595298 0.681326 0.527047 0.522422 0.931595 0.833334 0.833334 0.824904 0.824496 0.707107 0.69974 1.17606 1.11803 1.06719 1.10148 1.04956 0.971826 0.95939 1.49012e-08 7.45058e-09 0 0.134893 0.161867 0.257125 0.288358 0.334509 7.45058e-09 0.130453 0.140703 0.167071 0.284138 0.141885 0 0 0.129327 0.221835 0.262264 0 0.114383 0.130306 0.236165 0.120933 0 0 0.13528 0.214699 0.257478 0 0.109621 0.131573 0.214226 0.110599 0 0 0.14517 0.237127 0.272111 0 0.115376 0.139968 0.223128 0.111236 0 0 0.159098 0.27022 0.302069 0 0.130712 0.151402 0.253982 0.122189 0 0 0.161858 0.288363 0.334509 0 0.140702 0.167074 0.284139 0.141888 0.414212 0.509996 0.514517 0.602316 0.652792 0.388341 0.448741 0.501391 0.571901 0.432759 0.378659 0.432471 0.52005 0.328767 0.391389 0.466626 0.353199 0.380313 0.409433 0.489717 0.314179 0.374897 0.412393 0.31512 0.420153 0.454262 0.515421 0.348535 0.39617 0.424864 0.326495 0.479604 0.534552 0.58446 0.407462 0.44911 0.492614 0.377159 0.510003 0.60231 0.652783 0.448743 0.501383 0.571899 0.432755 0.688535 0.823957 0.735853 0.871178 0.910957 0.630704 0.744048 0.788337 0.813214 0.698625 0.616202 0.617796 0.755517 0.529685 0.644217 0.667941 0.572233 0.606957 0.58212 0.705333 0.49974 0.602423 0.587687 0.504123 0.664977 0.643028 0.732775 0.553557 0.62924 0.602604 0.518015 0.748843 0.755057 0.813702 0.650097 0.705038 0.695597 0.599349 0.823938 0.87117 0.910952 0.744042 0.788331 0.813209 0.698622 0.916406 1.07648 0.907179 1.08027 1.10773 0.829308 0.985356 1.01891 0.998379 0.914238 0.817856 0.766065 0.943498 0.697825 0.857328 0.826554 0.754152 0.798162 0.71858 0.876578 0.655869 0.796556 0.728233 0.663401 0.85872 0.784689 0.893255 0.72018 0.820241 0.73933 0.676897 0.963531 0.922403 0.982418 0.846052 0.906576 0.847443 0.778274 1.07648 1.08028 1.10775 0.985359 1.01892 0.998384 0.914242 1.08042 1.2564 1.02212 1.21919 1.23446 0.971627 1.15729 1.1808 1.12061 1.06741 0.968939 0.864945 1.06703 0.822339 1.01369 0.93336 0.886643 0.933089 0.805521 0.982806 0.768853 0.939286 0.820346 0.781089 0.989044 0.871491 0.991666 0.835237 0.950677 0.824016 0.788516 1.1115 1.02793 1.08846 0.983925 1.04342 0.941426 0.902237 1.2564 1.2192 1.23446 1.1573 1.18081 1.12061 1.06742 1.17606 1.37191 1.06719 1.30171 1.30171 1.04955 1.26198 1.27945 1.17851 1.15307 1.04648 0.897528 1.11803 0.890448 1.10148 0.971826 0.959387 0.997339 0.833334 1.01379 0.828178 1.01019 0.849837 0.844882 1.05035 0.897528 1.01379 0.890055 1.01133 0.849837 0.843874 1.19206 1.06719 1.11803 1.05214 1.11313 0.971826 0.961577 1.37191 1.30171 1.30171 1.26198 1.27945 1.17851 1.15307 
VECTORS u float
0 0 0  1.49012e-08 0 0  0 0 0  0 0 0  0 0 0  0 0 0  0 0 0  -0.122403 0.0271388 0.309456  -0.191302 0.0426188 0.251479  -0.235999 0.0199035 0.159493  -0.255083 -0.00778845 0.0598097  -0.254153 -0.0270157 -0.0275393  -0.258427 -0.0220255 -0.0855829  -0.309482 0.0271402 -0.122398  -0.125569 0.00593388 0.662428  -0.242416 0.0523264 0.571475  -0.353646 0.04 0.416737  -0.432782 -0.00444877 0.240433  -0.490108 -0.0400167 0.0828681  -0.552261 -0.041349 -0.03806  -0.662446 0.00595176 -0.12555  0.0435455 -1.47521e-05 0.956482  -0.126455 0.0449802 0.853334  -0.321474 0.0401697 0.698633  -0.503729 1.96695e-06 0.500027  -0.65482 -0.0401631 0.30143  -0.793157 -0.044973 0.146739  -0.956496 -2.6226e-06 0.0435667  0.337613 -0.00596225 1.12558  0.114443 0.0413386 1.03808  -0.156749 0.0400124 0.91716  -0.432753 0.00446415 0.759632  -0.686972 -0.0399879 0.583342  -0.909091 -0.0523237 0.428605  -1.12558 -0.0059579 0.337615  0.690556 -0.0271322 1.1224  0.408264 0.02202 1.08559  0.0792102 0.0270225 1.02757  -0.255061 0.00778931 0.940207  -0.569326 -0.0199 0.840536  -0.857963 -0.0426087 0.748559  -1.12241 -0.0271361 0.69056  1 0 1  0.666667 0 1  0.333333 0 1  0 0 1  -0.333333 0 1  -0.666667 0 1  -1 0 1  0 0 -1.49012e-08  1.49012e-08 0 -1.49012e-08  0 0 -1.49012e-08  0 0 -1.49012e-08  0 0 -1.49012e-08  0 0 -1.49012e-08  0 0 -1.49012e-08  -0.0855904 -0.0220292 0.258403  -0.117519 0.00392154 0.203722  -0.144653 0.00130691 0.127804  -0.164281 -0.00318077 0.0448895  -0.181739 -0.00407033 -0.0391175  -0.203726 0.00392137 -0.117514  -0.251494 0.0426194 -0.191296  -0.0380737 -0.0413558 0.552236  -0.119877 0.00191206 0.452783  -0.20135 0.00537419 0.317457  -0.280258 -0.00305831 0.166383  -0.362669 -0.00834012 0.0159728  -0.452795 0.00191021 -0.119861  -0.571479 0.0523253 -0.242403  0.146707 -0.0449847 0.793128  0.00181948 4.47035e-06 0.664859  -0.158838 0.0079506 0.508944  -0.322435 5.96046e-06 0.333347  -0.492184 -0.00793326 0.15776  -0.664882 5.60284e-06 0.00183798  -0.853333 0.0449809 -0.12644  0.428576 -0.0523272 0.909072  0.213922 -0.00190657 0.786554  -0.029308 0.00834191 0.650718  -0.28025 0.00306821 0.500313  -0.534688 -0.00535548 0.349259  -0.786565 -0.00190067 0.213933  -1.0381 0.0413542 0.114459  0.748541 -0.0426272 0.857976  0.462954 -0.00392818 0.784194  0.151609 0.0040679 0.705805  -0.164261 0.0031839 0.621794  -0.477978 -0.0013029 0.538895  -0.784185 -0.00391418 0.462982  -1.0856 0.0220294 0.408285  1 0 0.666666  0.666667 0 0.666666  0.333333 0 0.666666  0 0 0.666666  -0.333333 0 0.666666  -0.666667 0 0.666666  -1 0 0.666666  0 0 0  1.49012e-08 0 0  0 0 0  0 0 0  0 0 0  0 0 0  0 0 0  -0.027543 -0.0270201 0.254133  -0.039122 -0.0040724 0.181735  -0.060472 -0.001903 0.104107  -0.0822009 -0.00209315 0.0220176  -0.104111 -0.00190116 -0.0604628  -0.127811 0.00130755 -0.144642  -0.159508 0.019905 -0.235994  0.0828699 -0.0400123 0.490107  0.0159576 -0.00834793 0.362652  -0.059999 -0.00212386 0.226039  -0.141537 -0.00238371 0.0831781  -0.226043 -0.00212115 -0.0599798  -0.317467 0.00537264 -0.201336  -0.416747 0.0399977 -0.353631  0.301405 -0.0401657 0.654799  0.157736 -0.00794673 0.492158  0.00127524 6.55651e-07 0.332056  -0.163105 9.0003e-06 0.166682  -0.332071 8.88109e-06 0.00129232  -0.508962 0.00795108 -0.158817  -0.698631 0.040162 -0.321457  0.583323 -0.0399858 0.686958  0.34924 -0.00536394 0.534667  0.10731 0.00212765 0.393326  -0.141532 0.00239825 0.250182  -0.393337 0.00213492 0.107323  -0.650736 0.0083524 -0.0292895  -0.917172 0.0400195 -0.156728  0.840539 -0.0198914 0.569313  0.538887 -0.00130177 0.47798  0.22923 0.00190097 0.393816  -0.0821955 0.00210148 0.31132  -0.393811 0.00190932 0.229246  -0.705799 0.00407273 0.151618  -1.02755 0.0270161 0.0792089  1 0 0.333333  0.666667 0 0.333333  0.333333 0 0.333333  0 0 0.333333  -0.333333 0 0.333333  -0.666667 0 0.333333  -1 0 0.333333  0 0 0  1.49012e-08 0 0  0 0 0  0 0 0  0 0 0  0 0 0  0 0 0  0.0598072 -0.00779022 0.255073  0.0448916 -0.00317742 0.164289  0.0220156 -0.00209279 0.0822024  0 -0.00198066 7.15256e-06  -0.022015 -0.00209534 -0.0821882  -0.0448922 -0.00318304 -0.164265  -0.0598147 -0.00778744 -0.255084  0.240417 -0.0044471 0.432788  0.166377 -0.00305665 0.28025  0.0831747 -0.00237954 0.141531  0 -0.00216943 1.10865e-05  -0.0831785 -0.00238508 -0.141527  -0.166382 -0.00306228 -0.28025  -0.240428 -0.00445428 -0.432768  0.500019 8.04663e-06 0.503705  0.333351 1.12057e-05 0.322431  0.166683 9.35793e-06 0.163107  1.2517e-06 6.91414e-06 9.35793e-06  -0.16668 5.78165e-06 -0.163095  -0.33336 1.90735e-06 -0.322422  -0.500024 -6.4373e-06 -0.503713  0.759609 0.00446081 0.432738  0.50031 0.00306928 0.28024  0.250183 0.00240183 0.141522  -6.70552e-06 0.00217408 8.04663e-06  -0.250184 0.00238949 -0.141528  -0.500324 0.0030641 -0.280243  -0.759615 0.00444752 -0.432757  0.940216 0.00779396 0.255056  0.621797 0.0031864 0.164265  0.311325 0.00209856 0.0821993  -8.9407e-07 0.0019815 -4.17233e-07  -0.311331 0.00209391 -0.0821946  -0.621797 0.00318444 -0.164262  -0.940213 0.00779003 -0.255064  1 0 -2.98023e-07  0.666667 0 -2.98023e-07  0.333333 0 -2.98023e-07  0 0 -2.98023e-07  -0.333333 0 -2.98023e-07  -0.666667 0 -2.98023e-07  -1 0 -2.98023e-07  0 0 0  1.49012e-08 0 0  0 0 0  0 0 0  0 0 0  0 0 0  0 0 0  0.159488 0.0199054 0.236  0.127802 0.00131163 0.144658  0.104106 -0.00189672 0.060474  0.082199 -0.0020929 -0.0220037  0.0604745 -0.00190549 -0.104099  0.0391333 -0.00407374 -0.18172  0.0275321 -0.0270156 -0.254146  0.416727 0.0400006 0.353629  0.317448 0.00538078 0.201345  0.226039 -0.00211784 0.0599978  0.141546 -0.00238135 -0.0831729  0.0599856 -0.00212455 -0.226034  -0.0159709 -0.008342 -0.36265  -0.082862 -0.0400204 -0.490097  0.698619 0.0401676 0.321456  0.508945 0.00795496 0.158812  0.332067 8.46386e-06 -0.00129199  0.163105 8.40425e-06 -0.166678  -0.00129104 8.70228e-06 -0.332067  -0.157757 -0.00794753 -0.492174  -0.301409 -0.040176 -0.654809  0.917166 0.0400196 0.156727  0.650726 0.00834972 0.0292975  0.393343 0.00213361 -0.10732  0.141518 0.0023973 -0.250178  -0.107314 0.00212538 -0.393332  -0.349252 -0.00537002 -0.534674  -0.583327 -0.040004 -0.686969  1.02757 0.0270256 -0.0792095  0.705793 0.00407457 -0.15162  0.393803 0.00190508 -0.229245  0.0821837 0.00209826 -0.311324  -0.229253 0.00190544 -0.393807  -0.538891 -0.00130963 -0.477978  -0.840528 -0.0199084 -0.56932  1 0 -0.333334  0.666667 0 -0.333334  0.333333 0 -0.333334  0 0 -0.333334  -0.333333 0 -0.333334  -0.666667 0 -0.333334  -1 0 -0.333334  0 0 0  1.49012e-08 0 0  0 0 0  0 0 0  0 0 0  0 0 0  0 0 0  0.25148 0.0426269 0.191307  0.203718 0.00392666 0.117511  0.181734 -0.00407019 0.0391244  0.164275 -0.00318167 -0.0448799  0.144646 0.00130688 -0.127793  0.117521 0.00392763 -0.203717  0.0855745 -0.0220232 -0.258403  0.571472 0.052331 0.242404  0.452772 0.00191808 0.119861  0.362659 -0.00833905 -0.0159656  0.280264 -0.00305274 -0.166383  0.201342 0.00537243 -0.317456  0.119876 0.0019094 -0.452779  0.0380605 -0.0413503 -0.552256  0.853325 0.0449822 0.126445  0.664863 3.93391e-06 -0.00182211  0.492173 -0.00793207 -0.157758  0.322426 1.32918e-05 -0.333366  0.158819 0.00794947 -0.508964  -0.00184321 0 -0.664876  -0.146724 -0.0449758 -0.793146  1.03808 0.0413492 -0.114455  0.786559 -0.00191134 -0.213933  0.534682 -0.00536895 -0.349249  0.280227 0.00307399 -0.500332  0.0292853 0.00835353 -0.650739  -0.213942 -0.00191045 -0.786556  -0.428599 -0.0523328 -0.909086  1.08557 0.0220263 -0.408288  0.784179 -0.00392675 -0.462966  0.477963 -0.00130343 -0.538896  0.164248 0.00318325 -0.621798  -0.151638 0.00407976 -0.7058  -0.462979 -0.0039261 -0.784182  -0.748547 -0.0426322 -0.857966  1 0 -0.666667  0.666667 0 -0.666667  0.333333 0 -0.666667  0 0 -0.666667  -0.333333 0 -0.666667  -0.666667 0 -0.666667  -1 0 -0.666667  0 0 0  1.49012e-08 0 0  0 0 0  0 0 0  0 0 0  0 0 0  0 0 0  0.309473 0.0271457 0.122406  0.258411 -0.0220186 0.0855656  0.254157 -0.0270157 0.0275471  0.255087 -0.00778477 -0.0598041  0.23599 0.0199015 -0.159481  0.191289 0.0426146 -0.251475  0.122409 0.0271425 -0.309473  0.662439 0.00595042 0.125542  0.552265 -0.0413436 0.0380477  0.490084 -0.0400178 -0.0828592  0.432778 -0.0044443 -0.240429  0.353652 0.0400037 -0.416726  0.242402 0.0523283 -0.571466  0.125558 0.00595587 -0.662428  0.956492 -4.32134e-06 -0.0435753  0.793157 -0.0449766 -0.146747  0.654806 -0.0401616 -0.301427  0.503698 3.63588e-06 -0.500029  0.321448 0.0401753 -0.698645  0.126435 0.0449809 -0.853321  -0.0435586 -3.57628e-07 -0.956478  1.12556 -0.00594032 -0.337612  0.90909 -0.0523256 -0.428603  0.686974 -0.0399936 -0.583335  0.432739 0.00446206 -0.759631  0.156717 0.0400194 -0.917177  -0.114482 0.0413563 -1.0381  -0.337614 -0.00594473 -1.12557  1.12241 -0.0271226 -0.690562  0.857957 -0.0426177 -0.748554  0.569314 -0.0199038 -0.840533  0.255049 0.00779527 -0.940219  -0.0792267 0.0270171 -1.02755  -0.408301 0.0220238 -1.08559  -0.690576 -0.0271507 -1.1224  1 0 -1  0.666667 0 -1  0.333333 0 -1  0 0 -1  -0.333333 0 -1  -0.666667 0 -1  -1 0 -1  7.45058e-09 0 0  1.49012e-08 0 7.45058e-09  7.45058e-09 0 -1.49012e-08  0 0 7.45058e-09  -0.0723576 0.0106324 0.144391  -0.10832 0.0151599 0.115542  -0.0680628 0.0010585 0.0939275  -0.0596413 -0.00841435 0.1207  -0.158125 0.0421775 0.291742  -0.152512 0.0181338 0.222336  -0.100345 -0.00348291 0.236722  -0.0988469 -0.0043827 0.27085  7.45058e-09 0 7.45058e-09  -0.0900456 0.0149817 0.139929  -0.0840822 0.00573595 0.099918  -0.0623332 -0.000607789 0.114601  -0.0652301 -0.00301909 0.124632  -0.126031 0.0122226 0.254367  -0.0735788 0.00390065 0.121255  0 0 0  0 0 7.45058e-09  0 0 -1.49012e-08  -0.130998 0.00669666 0.0622111  -0.0795051 -0.000198334 0.0527365  -0.215547 0.0324416 0.209135  -0.188468 0.00964569 0.143593  -0.132065 0.00375099 0.167717  0 0 7.45058e-09  -0.120982 0.0112713 0.0903299  -0.100869 0.00300044 0.0559371  -0.0741122 0.000749625 0.0743411  -0.172254 0.0150951 0.186041  -0.0929704 0.00463365 0.079158  0 0 0  0 0 7.45058e-09  0 0 -1.49012e-08  -0.1347 -0.0041358 0.0118141  -0.0862347 -0.00172865 0.0105852  -0.24905 0.00598216 0.109478  -0.207511 -0.00313292 0.0550213  -0.155285 -0.00123456 0.0867714  0 0 7.45058e-09  -0.135258 0.00116486 0.0359914  -0.108922 -0.000856586 0.0123563  -0.0835833 -0.00111102 0.0315257  -0.199756 0.00289328 0.0993889  -0.106016 0.000863664 0.0336713  0 0 0  0 0 7.45058e-09  0 0 -1.49012e-08  -0.125463 -0.0107 -0.0295097  -0.0894077 -0.00173804 -0.0304341  -0.256428 -0.0195288 0.0126164  -0.219471 -0.0103231 -0.030606  -0.17286 -0.00415549 0.00260043  0 0 7.45058e-09  -0.130873 -0.00844546 -0.0106503  -0.110762 -0.00276384 -0.0284286  -0.087954 -0.0019393 -0.0100862  -0.213817 -0.0078415 0.0107236  -0.110243 -0.00218468 -0.00863913  0 0 0  0 0 7.45058e-09  0 0 -1.49012e-08  -0.120709 -0.00841296 -0.0596354  -0.0939275 0.00105874 -0.0680587  -0.253824 -0.0278259 -0.0598661  -0.23673 -0.00348227 -0.10034  -0.19157 -0.00156422 -0.078718  0 0 7.45058e-09  -0.121195 -0.0108748 -0.0466283  -0.114605 -0.000607386 -0.0623281  -0.0913166 -0.000654839 -0.0493995  -0.226185 -0.00914033 -0.0673248  -0.111684 -0.00233597 -0.046332  0 0 0  0 0 7.45058e-09  0 0 -1.49012e-08  -0.1444 0.0106327 -0.0723526  -0.115541 0.0151589 -0.108313  -0.270871 -0.00438078 -0.0988384  -0.291758 0.0421792 -0.15812  -0.22234 0.0181325 -0.152504  0 0 7.45058e-09  -0.12464 -0.00301879 -0.0652254  -0.139935 0.0149825 -0.0900415  -0.0999168 0.00573547 -0.0840776  -0.254377 0.012224 -0.126024  -0.121259 0.00390103 -0.0735747  -0.147215 0.0159743 0.488019  -0.238313 0.0556196 0.412477  -0.135504 0.00394064 0.328675  -0.0796926 -0.0344066 0.405015  -0.179709 0.0352264 0.626576  -0.178081 0.0228961 0.503502  -0.0752982 -0.0151957 0.508751  -0.0818429 -0.0219692 0.596315  -0.190291 0.0432572 0.461851  -0.183245 0.0242042 0.363135  -0.105833 -0.00998816 0.37351  -0.111311 -0.0135482 0.4345  -0.126221 0.00597349 0.557764  -0.145358 0.0113887 0.407456  -0.31266 0.0337057 0.278645  -0.184959 0.0033628 0.218848  -0.298368 0.0515031 0.499927  -0.271552 0.0187639 0.363679  -0.160956 0.00681514 0.388466  -0.276666 0.0486443 0.35042  -0.244226 0.0154317 0.248186  -0.160988 0.00603047 0.276546  -0.225141 0.0246481 0.437467  -0.21477 0.0226177 0.30922  -0.354695 -0.00770408 0.137016  -0.229632 -0.00368224 0.0975776  -0.396605 0.0188184 0.328653  -0.352965 -0.00363106 0.207459  -0.241112 0.00133413 0.242786  -0.337253 0.0131303 0.207467  -0.289813 -0.00468586 0.121233  -0.207838 -0.000295043 0.158812  -0.313866 0.00803626 0.286239  -0.26895 0.00532335 0.185043  -0.376601 -0.037429 0.0126382  -0.275213 -0.00661759 -0.0238639  -0.462956 -0.0251301 0.157725  -0.428486 -0.0210764 0.0547573  -0.320991 -0.00658515 0.0898017  -0.367223 -0.0253985 0.0710919  -0.328285 -0.0178815 -0.00166573  -0.252018 -0.0059039 0.0360557  -0.391405 -0.0139609 0.129161  -0.309476 -0.0128749 0.0579909  -0.405029 -0.0343997 -0.0796857  -0.328681 0.00393903 -0.135492  -0.517727 -0.0454794 0.0188389  -0.50877 -0.0151917 -0.0752837  -0.405702 -0.00620729 -0.053774  -0.38758 -0.0404961 -0.0365292  -0.373523 -0.00998542 -0.105822  -0.300107 -0.00383681 -0.0808124  -0.465942 -0.0219483 -0.0130977  -0.348332 -0.0173095 -0.0558646  -0.488038 0.0159815 -0.147208  -0.412494 0.0556197 -0.238303  -0.596336 -0.0219597 -0.0818255  -0.626589 0.0352342 -0.179695  -0.503513 0.0228947 -0.178066  -0.434521 -0.0135394 -0.111302  -0.46187 0.0432588 -0.190281  -0.363145 0.0242037 -0.183233  -0.55778 0.00597787 -0.126205  -0.407472 0.0113914 -0.145346  -0.0615702 0.00191227 0.821636  -0.204252 0.0471664 0.718914  -0.0730542 0.00049004 0.566349  0.0377315 -0.0446513 0.686032  -0.0327041 0.0274228 0.90996  -0.0644139 0.0189309 0.752072  0.0812958 -0.0189291 0.731086  0.0900771 -0.0274384 0.866064  -0.126097 0.0299904 0.777606  -0.13827 0.0202729 0.634903  -0.0117202 -0.0179189 0.630332  -0.0145755 -0.0263754 0.743429  0.0204064 -4.94719e-06 0.812953  -0.0703627 0.00179207 0.695067  -0.355276 0.0404716 0.560667  -0.192895 0.00687823 0.415976  -0.221639 0.0474201 0.781506  -0.237181 0.0213745 0.597307  -0.0774098 0.00723785 0.590197  -0.279092 0.0488116 0.64561  -0.269763 0.0205968 0.48294  -0.132669 0.00701621 0.494551  -0.149383 0.0241215 0.678941  -0.203646 0.0244774 0.563161  -0.484428 -0.00103986 0.365699  -0.312253 -0.00174874 0.247115  -0.415819 0.0227305 0.602947  -0.4065 6.3777e-06 0.416692  -0.24041 0.00473922 0.422701  -0.423189 0.0218404 0.465173  -0.393204 -0.00149298 0.308441  -0.252656 0.00307059 0.332813  -0.322981 0.0119969 0.508597  -0.332775 0.0105346 0.396853  -0.587735 -0.0398699 0.180846  -0.436442 -0.00866961 0.0784493  -0.582493 -0.0227219 0.397115  -0.570523 -0.0213636 0.23608  -0.407082 -0.0047223 0.244  -0.538423 -0.0230766 0.269249  -0.511513 -0.0215099 0.135915  -0.373967 -0.00612321 0.161248  -0.489653 -0.0119861 0.324785  -0.453273 -0.0129661 0.220283  -0.686056 -0.0446414 0.0377526  -0.566363 0.000491172 -0.073038  -0.721663 -0.047416 0.21856  -0.731111 -0.0189267 0.081314  -0.577436 -0.00722674 0.0765015  -0.633919 -0.0471726 0.104658  -0.630351 -0.0179142 -0.0117033  -0.499651 -0.00730273 0.000120237  -0.649405 -0.0241143 0.154446  -0.568755 -0.0236675 0.058506  -0.821657 0.00192651 -0.0615511  -0.718918 0.0471642 -0.204238  -0.866078 -0.0274298 0.0900962  -0.909966 0.0274301 -0.0326885  -0.752078 0.0189308 -0.0643968  -0.743446 -0.0263666 -0.0145581  -0.777619 0.0299968 -0.126081  -0.634913 0.0202721 -0.138253  -0.812966 1.2517e-06 0.0204241  -0.695083 0.00179723 -0.0703454  0.178398 -0.00193769 1.06159  -0.0193465 0.044642 0.962302  0.100343 -0.000482738 0.739734  0.281129 -0.0471728 0.87092  0.237046 0.0219525 1.08186  0.15794 0.0151884 0.908645  0.329867 -0.0228953 0.844752  0.373462 -0.0352427 1.01305  0.0899356 0.0263587 1.0146  0.0363515 0.0179165 0.845078  0.198465 -0.0202709 0.80494  0.222435 -0.0300062 0.959445  0.275597 -0.00598276 0.959567  0.138296 -0.0018006 0.903713  -0.254378 0.0398697 0.8192  -0.103088 0.00867885 0.588249  -0.0176945 0.0454777 0.981191  -0.0951226 0.0210779 0.778609  0.0943286 0.0062086 0.720468  -0.133885 0.0471732 0.895391  -0.178158 0.0215155 0.697461  0.000377506 0.00730962 0.666577  0.0340915 0.0219486 0.846463  -0.0687262 0.0236712 0.774869  -0.484416 0.00104666 0.634357  -0.312248 0.00176084 0.419585  -0.296261 0.0251353 0.842319  -0.352949 0.00363946 0.62592  -0.154306 0.00659418 0.576895  -0.371737 0.0230827 0.730803  -0.393196 0.00150353 0.524938  -0.207287 0.00613666 0.505452  -0.224714 0.013966 0.704212  -0.286592 0.0129739 0.613095  -0.688617 -0.0404654 0.439398  -0.52624 -0.00685942 0.250735  -0.563256 -0.0188079 0.671414  -0.604887 -0.0187549 0.469707  -0.407776 -0.00132042 0.423916  -0.589853 -0.0218323 0.534889  -0.603104 -0.0205853 0.350447  -0.419325 -0.00305384 0.333892  -0.480524 -0.00802672 0.547143  -0.499441 -0.0105231 0.436528  -0.870942 -0.0471612 0.281158  -0.73975 -0.000480175 0.100362  -0.798369 -0.0514972 0.500148  -0.844761 -0.0228916 0.329886  -0.660969 -0.00680465 0.278245  -0.779106 -0.0488074 0.354456  -0.804959 -0.0202673 0.198484  -0.63269 -0.00700414 0.172158  -0.725149 -0.0246406 0.39592  -0.703662 -0.0244693 0.270226  -1.0616 -0.00193006 0.178407  -0.962303 0.0446458 -0.0193318  -1.01305 -0.0352377 0.373483  -1.08186 0.0219615 0.237061  -0.908656 0.0151954 0.157949  -0.959459 -0.0299966 0.222451  -1.01461 0.0263665 0.0899491  -0.845085 0.0179183 0.0363684  -0.959571 -0.00597638 0.275616  -0.903725 -0.00179487 0.138313  0.512012 -0.0159845 1.14722  0.261671 0.0343946 1.07971  0.338014 -0.00394171 0.802172  0.587557 -0.0556204 0.904972  0.562489 0.00437903 1.09885  0.429962 0.00348127 0.933682  0.611023 -0.0181337 0.819178  0.708276 -0.0421793 0.991458  0.398852 0.0135334 1.11132  0.293177 0.00998425 0.939175  0.47023 -0.0242028 0.849908  0.538177 -0.0432629 1.02362  0.578984 -0.0122257 0.959364  0.4259 -0.0113947 0.978693  -0.0432362 0.0374309 0.987389  0.0581378 0.00661647 0.690553  0.246199 0.0278242 1.05988  0.113876 0.0103225 0.863961  0.308447 0.00156313 0.745401  0.112449 0.0404938 1.03655  0.00507247 0.0178819 0.835026  0.199916 0.00383621 0.747498  0.273833 0.00913984 0.900673  0.151696 0.0173084 0.889221  -0.354668 0.00771344 0.863027  -0.229619 0.0036869 0.569116  -0.0897363 0.019531 0.987404  -0.207488 0.0031364 0.778329  -0.00617254 0.00415766 0.664085  -0.200526 0.0254032 0.928942  -0.289793 0.00469148 0.712134  -0.0853318 0.00590891 0.630637  -0.0471308 0.00784272 0.822629  -0.142787 0.0128779 0.775372  -0.645983 -0.033698 0.721402  -0.518289 -0.00335211 0.447857  -0.415702 -0.00597823 0.890549  -0.521794 -0.00964373 0.68977  -0.321938 0.00123799 0.579922  -0.503901 -0.013122 0.792578  -0.577554 -0.0154263 0.58519  -0.374497 0.000303268 0.507887  -0.36641 -0.00289047 0.733972  -0.435604 -0.00531787 0.648329  -0.90498 -0.0556121 0.587576  -0.802178 -0.00393164 0.338033  -0.715541 -0.032436 0.790897  -0.819177 -0.0181314 0.611026  -0.632059 -0.00374693 0.498979  -0.776661 -0.0486366 0.64963  -0.849914 -0.0241999 0.47024  -0.660992 -0.00602281 0.390159  -0.672247 -0.015091 0.647323  -0.714769 -0.0226117 0.524157  -1.14722 -0.0159858 0.512024  -1.07971 0.0344034 0.261688  -0.991458 -0.0421726 0.708287  -1.09885 0.00438249 0.562501  -0.933683 0.00348473 0.42997  -1.02363 -0.0432599 0.538191  -1.11132 0.0135405 0.398868  -0.939179 0.00998956 0.29319  -0.959366 -0.012221 0.578992  -0.978699 -0.011389 0.425914  0.855613 -0.0106325 1.07236  0.545969 0.00841022 1.05964  0.572743 -0.00106162 0.73473  0.884464 -0.0151617 0.774986  0.833333 0 1  0.666667 0 0.833333  0.833333 0 0.666666  1 0 0.833333  0.708707 0.00301868 1.06523  0.552074 0.00060761 0.895665  0.733423 -0.00573575 0.750747  0.860079 -0.0149814 0.923378  0.833333 0 0.833333  0.712086 -0.00390118 0.906911  0.207886 0.010702 1.02952  0.243934 0.00173676 0.69711  0.5 0 1  0.333333 0 0.833333  0.5 0 0.666666  0.378819 0.0108741 1.04664  0.22258 0.00276315 0.861772  0.408692 0.000654399 0.716073  0.5 0 0.833333  0.388326 0.00233591 0.879673  -0.134691 0.0041343 0.988193  -0.0862232 0.00173068 0.65609  0.166667 0 1  0 0 0.833333  0.166667 0 0.666666  0.0358054 0.00844598 1.01066  -0.108911 0.000857532 0.820985  0.0787236 0.00193959 0.676762  0.166667 0 0.833333  0.0564354 0.00218505 0.841982  -0.464322 -0.00669497 0.937805  -0.412833 0.000199616 0.613943  -0.166667 0 1  -0.333333 0 0.833333  -0.166667 0 0.666666  -0.301913 -0.00116378 0.96402  -0.434196 -0.00299925 0.77741  -0.250243 0.00111181 0.635151  -0.166667 0 0.833333  -0.272674 -0.000862658 0.799672  -0.774984 -0.0151573 0.884479  -0.734728 -0.00105625 0.572757  -0.5 0 1  -0.666667 0 0.833333  -0.5 0 0.666666  -0.620975 -0.0112692 0.909688  -0.750747 -0.0057351 0.733434  -0.574109 -0.000748515 0.59234  -0.5 0 0.833333  -0.592966 -0.00463223 0.754192  -1.07236 -0.0106323 0.855615  -1.05964 0.00841361 0.545973  -0.833333 0 1  -1 0 0.833333  -0.833333 0 0.666666  -0.92338 -0.0149801 0.860085  -1.06523 0.00302017 0.70871  -0.895666 0.000608504 0.552077  -0.833334 0 0.833333  -0.906911 -0.00390017 0.712091  1.49012e-08 0 0  7.45058e-09 0 0  0 0 0  -0.030437 -0.00173884 0.0894066  -0.0295108 -0.0107026 0.125453  -0.0787233 -0.00156398 0.191569  -0.0306097 -0.0103223 0.219471  -0.059873 -0.0278272 0.253809  7.45058e-09 0 0  -0.0494031 -0.000654712 0.091316  -0.0284306 -0.00276349 0.11076  -0.0466326 -0.0108746 0.121188  -0.067329 -0.00914109 0.22618  -0.0463359 -0.00233611 0.111681  0 0 0  0 0 0  -0.0365059 -0.00103665 0.0481023  -0.101849 -0.000546783 0.115651  -0.050079 -0.0019892 0.143534  0 0 0  -0.0575021 -0.000453271 0.0507973  -0.033541 -0.000942379 0.069315  -0.0907712 0.00011383 0.154942  -0.053516 -0.000144355 0.0719278  0 0 0  0 0 0  -0.0424972 -0.00111954 0.00542831  -0.122997 -0.00199075 0.0331098  -0.0712548 -0.00200322 0.063264  0 0 0  -0.0642492 -0.000953168 0.00812265  -0.0394484 -0.0011061 0.0267595  -0.112623 -0.00139308 0.0747519  -0.0610866 -0.000775233 0.0294555  0 0 0  0 0 0  -0.0481042 -0.00103638 -0.0364998  -0.143534 -0.00198922 -0.0500743  -0.0929683 -0.00228012 -0.0191479  0 0 0  -0.0693138 -0.000942715 -0.0335367  -0.0453475 -0.00117268 -0.0155649  -0.133038 -0.00233418 -0.00854664  -0.0668701 -0.00106317 -0.0127921  0 0 0  0 0 0  -0.0527417 -0.00019832 -0.0794988  -0.167721 0.00375111 -0.132056  -0.115657 -0.000546411 -0.10184  0 0 0  -0.0743423 0.000749774 -0.074108  -0.0508007 -0.000453658 -0.0574962  -0.154945 0.000114679 -0.0907647  -0.0719284 -0.000144131 -0.0535124  0 0 0  0 0 0  -0.0622128 0.00669558 -0.130992  -0.209141 0.0324394 -0.215539  -0.143601 0.0096457 -0.188457  0 0 0  -0.0903306 0.011271 -0.120976  -0.0559425 0.00300024 -0.100863  -0.186047 0.0150952 -0.172245  -0.0791594 0.00463362 -0.0929654  -0.0238728 -0.00662185 0.275207  0.0126338 -0.0374284 0.376601  -0.0537892 -0.00620902 0.405688  0.0547495 -0.0210778 0.428476  0.0188298 -0.0454839 0.517711  -0.0808225 -0.00383741 0.300101  -0.00167419 -0.0178819 0.32828  -0.0365354 -0.0405004 0.387574  -0.0131092 -0.0219516 0.465927  -0.0558739 -0.0173114 0.348322  -0.0681266 -0.0024168 0.164971  -0.130764 0.00030154 0.270637  -0.0213012 -0.00337732 0.295493  -0.126264 -0.000359207 0.191227  -0.0457965 -0.00300263 0.221198  -0.091738 -0.000440955 0.340334  -0.103531 -9.23276e-05 0.247666  -0.115749 -0.0026463 0.0485427  -0.211291 -0.00229523 0.124757  -0.100377 -0.00203905 0.155007  -0.172943 -0.0025565 0.0728928  -0.0916667 -0.00243296 0.107059  -0.170786 -0.0008021 0.198367  -0.149561 -0.00145619 0.132573  -0.164975 -0.00241381 -0.0681137  -0.295499 -0.00337544 -0.0212868  -0.183255 -0.00275508 0.0112779  -0.221202 -0.00300136 -0.0457855  -0.14 -0.00294872 -0.00995106  -0.25273 -0.00345451 0.0510411  -0.196606 -0.00328206 0.0131727  -0.218854 0.00336328 -0.184948  -0.388478 0.00681359 -0.160941  -0.270647 0.000302792 -0.130748  -0.276552 0.00603023 -0.160977  -0.191233 -0.000357345 -0.126251  -0.340346 -0.000440001 -0.0917227  -0.247672 -9.12249e-05 -0.103519  -0.278656 0.0337075 -0.312654  -0.499931 0.0514991 -0.298355  -0.36369 0.0187618 -0.271538  -0.350426 0.0486413 -0.276656  -0.248192 0.0154318 -0.244216  -0.437478 0.0246459 -0.225127  -0.309228 0.0226176 -0.214759  0.0784326 -0.00868082 0.436422  0.180834 -0.0398706 0.587719  0.0764833 -0.00723183 0.577414  0.236061 -0.0213659 0.570502  0.218537 -0.0474196 0.721642  0.000105396 -0.00730693 0.499634  0.135902 -0.0215124 0.511497  0.104641 -0.0471775 0.633898  0.154425 -0.0241179 0.649383  0.0584904 -0.0236717 0.568735  -0.0363597 -0.00121677 0.283006  -0.0796346 0.00224108 0.419345  0.0806703 -0.00223255 0.412963  -0.115027 0.00123054 0.348304  0.02196 -0.0030745 0.3608  -0.000201046 3.51667e-06 0.500211  -0.0565591 -0.000452131 0.426045  -0.157711 -0.00141281 0.123443  -0.243312 9.11951e-06 0.250015  -0.0803038 0.000456989 0.249835  -0.235425 -0.00136983 0.185282  -0.0965303 -0.000978738 0.203672  -0.160836 0.0016858 0.335592  -0.174801 0.000327379 0.267628  -0.283016 -0.00121152 -0.0363453  -0.41298 -0.00222838 0.0806817  -0.246976 -0.000445098 0.0835205  -0.360811 -0.0030714 0.0219729  -0.21977 -0.00183094 0.0431391  -0.327507 -0.00167015 0.164436  -0.297439 -0.00287107 0.102803  -0.415988 0.00687703 -0.19288  -0.590216 0.00723839 -0.0773925  -0.419359 0.00224292 -0.0796158  -0.494563 0.00701553 -0.132654  -0.348315 0.00123096 -0.115011  -0.500228 6.67572e-06 -0.000185773  -0.426058 -0.000450581 -0.056544  -0.560668 0.0404647 -0.35526  -0.781505 0.0474173 -0.221623  -0.597312 0.0213718 -0.237161  -0.645615 0.0488073 -0.279077  -0.482948 0.0205938 -0.269747  -0.678947 0.0241205 -0.149365  -0.56317 0.0244754 -0.203629  0.250715 -0.00687081 0.526218  0.439382 -0.0404616 0.688591  0.278229 -0.0068109 0.660951  0.469687 -0.0187539 0.604868  0.500127 -0.0514984 0.798352  0.172139 -0.007011 0.63267  0.350428 -0.0205867 0.603081  0.354434 -0.0488102 0.779087  0.395902 -0.0246419 0.725132  0.270206 -0.0244719 0.703642  0.0503347 0.00121999 0.369694  0.0378584 0.00338089 0.521305  0.229381 -0.000292122 0.46409  -0.0274591 0.00308001 0.478051  0.151715 -0.00122082 0.448356  0.159683 0.000445962 0.591742  0.0739701 0.00045836 0.556565  -0.157707 0.00142944 0.209913  -0.211285 0.00230789 0.37527  -0.0165748 0.00276864 0.322076  -0.23542 0.00138706 0.314748  -0.053092 0.00184429 0.290214  -0.0860482 0.00346434 0.448983  -0.13076 0.00288415 0.397224  -0.369706 0.0012275 0.0503501  -0.464104 -0.00028795 0.229392  -0.267042 0.00204885 0.178351  -0.448371 -0.00121623 0.151727  -0.263201 0.00098902 0.129683  -0.337451 0.000816405 0.30166  -0.341471 -0.000310838 0.232402  -0.588265 0.00868446 -0.103068  -0.720481 0.0062148 0.0943466  -0.521317 0.00338542 0.0378689  -0.666591 0.00731254 0.000395715  -0.478064 0.0030846 -0.0274427  -0.591754 0.000450909 0.159698  -0.556581 0.000463188 0.0739867  -0.819206 0.03987 -0.254361  -0.981201 0.0454826 -0.0176792  -0.778616 0.0210794 -0.095112  -0.895395 0.0471749 -0.13387  -0.697468 0.0215153 -0.178142  -0.846473 0.021953 0.0341067  -0.774877 0.0236729 -0.0687085  0.447848 -0.00335401 0.518284  0.721402 -0.0336921 0.645973  0.498968 -0.00374925 0.632064  0.689765 -0.00964171 0.521793  0.790892 -0.0324359 0.715539  0.390148 -0.00602728 0.660985  0.585183 -0.0154238 0.577547  0.649622 -0.0486377 0.776653  0.647314 -0.0150922 0.672249  0.524146 -0.0226138 0.714763  0.168371 0.00241828 0.401459  0.189812 0.0019908 0.550091  0.384366 0.000551581 0.435184  0.112151 0.00300497 0.545805  0.308792 0.000367284 0.459593  0.345075 -0.000112057 0.590777  0.252354 9.58443e-05 0.603535  -0.115743 0.00265914 0.28481  -0.122984 0.00199378 0.466903  0.0737067 0.00228751 0.35249  -0.172934 0.00256419 0.427131  0.0266792 0.0029611 0.343299  0.0336419 0.00233674 0.50856  -0.0299239 0.00328803 0.486849  -0.401463 0.00242603 0.168384  -0.435181 0.00055325 0.384377  -0.237923 0.00200915 0.270082  -0.459596 0.000370324 0.308802  -0.258332 0.00244182 0.226294  -0.279282 0.00139832 0.425269  -0.316223 0.00146586 0.367453  -0.690556 0.00662416 0.0581523  -0.745398 0.00156879 0.30846  -0.550088 0.00199115 0.189818  -0.747502 0.0038439 0.199934  -0.545807 0.00300771 0.112159  -0.590774 -0.000109971 0.345084  -0.603538 9.95398e-05 0.252366  -0.98739 0.0374316 -0.0432315  -1.05988 0.0278281 0.246211  -0.863954 0.010325 0.113886  -1.03655 0.0405 0.112462  -0.835027 0.0178846 0.00508216  -0.900672 0.00914282 0.273843  -0.889223 0.0173132 0.151708  0.613937 0.000200093 0.412832  0.9378 -0.00669056 0.464318  0.666667 0 0.5  0.833333 0 0.333333  1 0 0.5  0.592333 -0.000749528 0.57411  0.777402 -0.00299913 0.434195  0.909681 -0.0112697 0.620978  0.833333 0 0.5  0.754185 -0.00463235 0.592967  0.285235 0.00103581 0.369841  0.333333 0 0.5  0.5 0 0.333333  0.264026 0.000943065 0.533545  0.449208 0.000454545 0.390834  0.5 0 0.5  0.42808 0.000144899 0.553518  -0.0424935 0.00112212 0.327911  0 0 0.5  0.166667 0 0.333333  -0.0642431 0.000953734 0.491885  0.121325 0.00117481 0.348904  0.166667 0 0.5  0.0998038 0.001064 0.512799  -0.36984 0.00103861 0.285239  -0.333333 0 0.5  -0.166667 0 0.333333  -0.390832 0.00045532 0.449214  -0.206114 0.00110805 0.30658  -0.166667 0 0.5  -0.227749 0.00077647 0.470553  -0.697106 0.00173813 0.243937  -0.666667 0 0.5  -0.5 0 0.333333  -0.71607 0.000656128 0.408698  -0.533543 0.000943303 0.26403  -0.5 0 0.5  -0.553515 0.000145376 0.428086  -1.02952 0.0106999 0.207883  -1 0 0.5  -0.833333 0 0.333333  -1.04663 0.0108755 0.37882  -0.861767 0.0027647 0.222585  -0.833334 0 0.5  -0.87967 0.00233656 0.38833  1.49012e-08 0 0  7.45058e-09 0 0  0 0 0  0.0105847 -0.00172741 0.086237  0.0118147 -0.00413608 0.134697  0.00259806 -0.00415793 0.172858  0.0550224 -0.00313111 0.20751  0.0126128 -0.0195285 0.256422  7.45058e-09 0 0  -0.0100882 -0.00193968 0.0879551  0.0123562 -0.000856303 0.108921  -0.0106509 -0.00844464 0.130871  0.0107217 -0.00784145 0.213816  -0.00864144 -0.00218479 0.110241  0 0 0  0 0 0  0.00542575 -0.00111967 0.042497  -0.0191525 -0.00228043 0.0929698  0.0331072 -0.00198916 0.123001  0 0 0  -0.0155678 -0.00117232 0.0453466  0.00812137 -0.000952467 0.0642504  -0.00854921 -0.0023347 0.133039  -0.0127941 -0.00106317 0.066871  0 0 0  0 0 0  -1.66893e-06 -0.00110887 4.47035e-06  -0.0410399 -0.00213607 0.0110057  0.0110035 -0.00213453 0.0410417  0 0 0  -0.0212204 -0.0011609 0.00279725  0.0027934 -0.00116061 0.0212215  -0.0300196 -0.00224845 0.0520295  -0.0183088 -0.00120094 0.0240516  0 0 0  0 0 0  -0.00542909 -0.0011211 -0.0424899  -0.0632657 -0.00200039 -0.0712441  -0.011004 -0.00213447 -0.0410304  0 0 0  -0.0267608 -0.00110518 -0.0394424  -0.00279784 -0.00116011 -0.0212152  -0.0520283 -0.00224838 -0.0300123  -0.0240518 -0.00120099 -0.0183048  0 0 0  0 0 0  -0.0105832 -0.00172934 -0.086229  -0.0867752 -0.00123501 -0.155273  -0.0331114 -0.00199103 -0.122986  0 0 0  -0.0315284 -0.00111048 -0.0835776  -0.0081225 -0.000953197 -0.0642441  -0.0747564 -0.00139245 -0.112614  -0.0294577 -0.000775002 -0.0610805  0 0 0  0 0 0  -0.0118152 -0.00413484 -0.134701  -0.109487 0.00598329 -0.249048  -0.0550248 -0.00313485 -0.2075  0 0 0  -0.0359944 0.00116534 -0.135257  -0.0123547 -0.000857249 -0.108918  -0.0993933 0.00289266 -0.199746  -0.0336743 0.000863522 -0.106013  0.0975732 -0.00367951 0.229633  0.137007 -0.0077045 0.354692  0.0897938 -0.00658715 0.320983  0.207447 -0.00363034 0.352963  0.15772 -0.0251292 0.462953  0.0360499 -0.00590707 0.252013  0.121226 -0.00468318 0.289814  0.0710855 -0.0253989 0.367218  0.129154 -0.0139606 0.391398  0.0579847 -0.0128749 0.309471  0.0485369 -0.00264467 0.115747  0.0112653 -0.00275761 0.183248  0.124752 -0.00229576 0.211281  -0.00995952 -0.00295049 0.139996  0.0728878 -0.00255558 0.172941  0.051032 -0.00345588 0.252723  0.0131654 -0.00328289 0.196603  -1.13249e-06 -0.00242017 8.04663e-06  -0.0709619 -0.00236547 0.0415972  0.0415907 -0.00236368 0.0709611  -0.0579735 -0.00263757 0.0243001  0.0242935 -0.00263579 0.0579754  -0.0295909 -0.00249025 0.112682  -0.033769 -0.00278524 0.0823222  -0.0485415 -0.00264703 -0.115737  -0.155012 -0.00203449 -0.100361  -0.0415961 -0.00236511 -0.0709482  -0.107061 -0.00242937 -0.0916538  -0.0242982 -0.00263667 -0.0579629  -0.112684 -0.00248951 -0.0295765  -0.0823237 -0.00278464 -0.0337596  -0.0975757 -0.00368519 -0.229621  -0.242791 0.00133175 -0.241101  -0.124755 -0.00229773 -0.211283  -0.158815 -0.000296324 -0.207826  -0.0728914 -0.00255768 -0.172933  -0.198371 -0.000801921 -0.170772  -0.132576 -0.00145517 -0.149549  -0.13702 -0.00770524 -0.354688  -0.328656 0.0188143 -0.396591  -0.207456 -0.00363564 -0.352955  -0.207473 0.0131292 -0.337245  -0.121233 -0.00468904 -0.289802  -0.286244 0.0080339 -0.313854  -0.185048 0.00532249 -0.268939  0.247111 -0.00174594 0.312247  0.365692 -0.00103432 0.484421  0.243992 -0.00472513 0.40707  0.416682 6.07967e-06 0.406489  0.397096 -0.0227194 0.582475  0.161242 -0.00612488 0.373958  0.308431 -0.00149375 0.393197  0.26924 -0.0230743 0.538412  0.324772 -0.0119864 0.489638  0.220273 -0.0129659 0.453263  0.123438 -0.00140998 0.157707  0.0835132 -0.000447661 0.24697  0.250012 8.64267e-06 0.243309  0.0431291 -0.00183353 0.219764  0.185275 -0.00137132 0.23542  0.164429 -0.00167316 0.327498  0.102794 -0.00287327 0.297431  -2.29478e-06 -0.00128826 6.19888e-06  -0.0818312 9.95398e-06 0.0833434  0.0833377 9.59635e-06 0.0818368  -0.0791035 -0.00140792 0.0617279  0.061721 -0.00140738 0.0791009  0.0012002 7.09295e-06 0.165475  -0.017674 -0.00147903 0.141047  -0.123445 -0.00141561 -0.157696  -0.24984 0.000458181 -0.0802912  -0.0833409 8.28505e-06 -0.081821  -0.203678 -0.0009754 -0.0965154  -0.0617265 -0.0014084 -0.079089  -0.165476 8.34465e-06 0.00120953  -0.14105 -0.00147805 -0.0176615  -0.247121 -0.00175205 -0.312241  -0.422715 0.00473487 -0.240394  -0.25002 3.93391e-06 -0.2433  -0.332821 0.00306627 -0.252643  -0.185286 -0.00137407 -0.235412  -0.335603 0.0016852 -0.160821  -0.267636 0.000326186 -0.174787  -0.365698 -0.00104567 -0.484415  -0.602949 0.0227231 -0.415803  -0.416692 -6.85453e-07 -0.406486  -0.465172 0.0218337 -0.423174  -0.308444 -0.00149846 -0.39319  -0.508602 0.0119931 -0.322965  -0.396859 0.0105305 -0.332761  0.419583 0.00176299 0.312233  0.634349 0.00105035 0.484399  0.423913 -0.00132 0.407762  0.625909 0.00364244 0.352938  0.671393 -0.0188075 0.563246  0.333885 -0.00305605 0.41931  0.524932 0.00150597 0.393182  0.534875 -0.0218289 0.589834  0.547128 -0.00802559 0.480515  0.436518 -0.0105224 0.499425  0.209912 0.00143057 0.157699  0.178346 0.00204659 0.267034  0.375269 0.00231266 0.211271  0.129674 0.00098604 0.263192  0.314746 0.00138891 0.235406  0.301656 0.000814795 0.337439  0.232396 -0.000313282 0.341458  -1.3113e-06 0.00129926 4.47035e-06  -0.0709619 0.00238073 0.125089  0.125083 0.00238025 0.0709601  -0.0791005 0.0014264 0.104956  0.104952 0.00142562 0.0790991  0.0539936 0.00250268 0.196261  0.0256274 0.00149298 0.184343  -0.209916 0.00142527 -0.157696  -0.322082 0.00276619 -0.0165665  -0.12509 0.00237697 -0.0709529  -0.290221 0.00184357 -0.0530817  -0.104956 0.00142378 -0.0790912  -0.196262 0.00250286 0.0540001  -0.184347 0.00149363 0.0256358  -0.419593 0.0017553 -0.312237  -0.576905 0.00659347 -0.154294  -0.375277 0.00230294 -0.211281  -0.505463 0.00613433 -0.207273  -0.314753 0.00138116 -0.23541  -0.448991 0.00346529 -0.0860383  -0.397233 0.00288415 -0.130748  -0.634353 0.00103545 -0.484409  -0.84232 0.0251315 -0.296254  -0.62592 0.00363362 -0.352945  -0.730807 0.0230772 -0.371726  -0.52494 0.00149697 -0.393187  -0.704216 0.0139648 -0.224707  -0.6131 0.0129715 -0.286579  0.569113 0.0036912 0.229614  0.863016 0.00771171 0.354662  0.579916 0.00123906 0.321942  0.778336 0.00313944 0.207486  0.890544 -0.00597984 0.415699  0.50788 0.000305533 0.37449  0.712129 0.00469548 0.289787  0.792568 -0.013123 0.503896  0.733969 -0.00288862 0.366408  0.648322 -0.00531489 0.435598  0.284809 0.00266105 0.115738  0.270076 0.00200862 0.237927  0.466906 0.00199819 0.122987  0.226288 0.00244093 0.258328  0.427129 0.00256968 0.172929  0.425262 0.00139934 0.279285  0.367445 0.00146651 0.316219  -2.68221e-06 0.00242233 2.14577e-06  -0.0410355 0.00214058 0.155663  0.155669 0.00213927 0.041039  -0.0579706 0.0026477 0.14238  0.142376 0.00264657 0.0579693  0.114645 0.00225335 0.196688  0.0843533 0.00279444 0.200438  -0.28481 0.00264776 -0.115738  -0.352495 0.00228393 0.0737104  -0.155673 0.00214005 -0.0410365  -0.343302 0.00295687 0.0266846  -0.142381 0.00264466 -0.0579654  -0.19669 0.00225365 0.114645  -0.20044 0.00279409 0.0843582  -0.569119 0.00368607 -0.229615  -0.664085 0.00415909 -0.00617185  -0.466906 0.00199252 -0.122987  -0.630638 0.00590956 -0.085327  -0.427132 0.00256073 -0.17293  -0.508561 0.00233823 0.0336445  -0.486851 0.00328922 -0.0299186  -0.863019 0.00770384 -0.35467  -0.987401 0.0195296 -0.0897417  -0.778332 0.00313383 -0.207493  -0.92894 0.0254003 -0.200526  -0.712134 0.00468749 -0.289792  -0.822627 0.00784266 -0.0471319  -0.775373 0.0128773 -0.142781  0.656088 0.00173032 0.0862241  0.988194 0.0041365 0.13469  0.666667 0 0.166666  0.833333 0 -2.98023e-07  1 0 0.166666  0.635148 0.00111204 0.250242  0.820985 0.000858188 0.10891  0.964014 -0.00116485 0.301915  0.833333 0 0.166666  0.799669 -0.000862539 0.272674  0.327908 0.00111908 0.0424948  0.333333 0 0.166666  0.5 0 -2.98023e-07  0.306577 0.00110775 0.206115  0.491882 0.000955164 0.0642416  0.5 0 0.166666  0.47055 0.000776887 0.227749  0 0.00110847 -2.98023e-08  0 0 0.166666  0.166667 0 -2.98023e-07  -0.0212193 0.00116241 0.163873  0.163874 0.00116152 0.0212182  0.166667 0 0.166666  0.142618 0.00120264 0.184975  -0.327912 0.00112033 -0.0424921  -0.333333 0 0.166666  -0.166667 0 -2.98023e-07  -0.348904 0.00117368 0.121325  -0.163874 0.00116253 -0.0212182  -0.166667 0 0.166666  -0.184976 0.00120234 0.142619  -0.656089 0.00172979 -0.086227  -0.666667 0 0.166666  -0.5 0 -2.98023e-07  -0.67676 0.00194061 0.0787225  -0.491885 0.000953794 -0.064243  -0.5 0 0.166666  -0.512799 0.0010643 0.0998049  -0.988193 0.00413632 -0.134687  -1 0 0.166666  -0.833333 0 -2.98023e-07  -1.01066 0.00844502 0.0358059  -0.820986 0.000857472 -0.108911  -0.833334 0 0.166666  -0.84198 0.00218511 0.0564354  1.49012e-08 0 0  7.45058e-09 0 0  0 0 0  0.0527356 -0.000197187 0.0795038  0.0622082 0.00669596 0.130995  0.0867735 -0.00123206 0.155292  0.143586 0.0096489 0.188472  0.109476 0.00598422 0.249047  7.45058e-09 0 0  0.031526 -0.00111037 0.0835834  0.0559361 0.00300123 0.100868  0.0359919 0.00116574 0.135257  0.0993871 0.00289515 0.199757  0.0336712 0.00086429 0.106016  0 0 0  0 0 0  0.0481023 -0.0010354 0.0365062  0.0632623 -0.00200059 0.0712545  0.115649 -0.000544831 0.101849  0 0 0  0.0267595 -0.00110516 0.039449  0.0507967 -0.000452973 0.0575007  0.0747519 -0.00139064 0.112625  0.029456 -0.000774629 0.0610864  0 0 0  0 0 0  0.042495 -0.00111988 -0.00542068  0.0410419 -0.00213391 -0.0109923  0.0929619 -0.00227819 0.0191571  0 0 0  0.0212194 -0.00116024 -0.00278938  0.0453447 -0.00117211 0.0155696  0.0520275 -0.00224699 0.0300219  0.0240503 -0.00120042 0.0183102  0 0 0  0 0 0  0.0365044 -0.00103774 -0.0480971  0.0191541 -0.0022822 -0.0929576  0.0712533 -0.00200272 -0.063256  0 0 0  0.0155669 -0.00117277 -0.0453417  0.0394464 -0.0011057 -0.026755  0.0300184 -0.00224805 -0.0520186  0.018307 -0.00120089 -0.0240462  0 0 0  0 0 0  0.0304358 -0.00174021 -0.0893983  -0.00259304 -0.00415538 -0.172847  0.050088 -0.00198902 -0.143528  0 0 0  0.0100885 -0.00193899 -0.0879493  0.0335405 -0.000941925 -0.0693098  0.00855362 -0.00233571 -0.133028  0.0127944 -0.00106356 -0.0668657  0 0 0  0 0 0  0.0295111 -0.0107012 -0.125457  -0.0126175 -0.0195304 -0.256427  0.0306098 -0.0103233 -0.219465  0 0 0  0.0106497 -0.00844542 -0.130871  0.0284297 -0.00276484 -0.110756  -0.0107229 -0.00784206 -0.213812  0.00864023 -0.00218506 -0.110238  0.218843 0.00336814 0.184955  0.278638 0.0337088 0.312658  0.242779 0.00133857 0.241106  0.363673 0.0187687 0.271546  0.328643 0.0188237 0.396601  0.158808 -0.00029023 0.207838  0.248179 0.0154356 0.244224  0.207461 0.0131333 0.337252  0.286229 0.00803956 0.313861  0.185037 0.00532702 0.26895  0.164971 -0.00240782 0.0681239  0.155006 -0.00203413 0.100371  0.270633 0.000305325 0.130762  0.107055 -0.00242843 0.0916646  0.191224 -0.000355452 0.126262  0.198364 -0.000799894 0.170779  0.13257 -0.0014527 0.14956  0.115748 -0.00264376 -0.0485305  0.0709664 -0.0023641 -0.0415841  0.183252 -0.00275514 -0.0112677  0.057973 -0.00263493 -0.0242864  0.139997 -0.00294606 0.0099619  0.112683 -0.00248864 0.0295897  0.0823199 -0.00278264 0.0337716  0.0681199 -0.00241995 -0.164965  -0.0112752 -0.00275925 -0.183247  0.100374 -0.00203669 -0.155007  0.00995487 -0.00295289 -0.139989  0.0916619 -0.00243251 -0.107051  0.0295848 -0.00248963 -0.112677  0.0337654 -0.00278449 -0.0823128  0.0238695 -0.00661877 -0.275201  -0.0897996 -0.00658876 -0.32098  0.0212883 -0.00337654 -0.295486  -0.0360518 -0.00590558 -0.252007  0.045793 -0.00300232 -0.221192  -0.0510386 -0.00345814 -0.25272  -0.013168 -0.00328495 -0.196595  -0.0126417 -0.0374281 -0.376595  -0.157717 -0.0251357 -0.462941  -0.0547554 -0.0210793 -0.428471  -0.0710925 -0.0254011 -0.367214  0.00166774 -0.017881 -0.328274  -0.129157 -0.0139653 -0.391393  -0.0579882 -0.0128771 -0.309465  0.415978 0.00688487 0.192885  0.560661 0.0404768 0.355267  0.4227 0.00474167 0.240392  0.597303 0.0213752 0.237156  0.602938 0.0227322 0.415801  0.332811 0.00307307 0.252646  0.482936 0.0206017 0.269753  0.465166 0.0218455 0.423178  0.508595 0.0119999 0.322963  0.396849 0.0105377 0.332765  0.283006 -0.00121343 0.0363507  0.249844 0.000463545 0.0802917  0.419348 0.00224477 0.0796145  0.203671 -0.00097391 0.0965222  0.348303 0.0012334 0.115017  0.335593 0.00168842 0.16082  0.267626 0.000328988 0.174792  0.157708 -0.00141338 -0.123441  0.0818332 9.17912e-06 -0.0833367  0.246972 -0.000444323 -0.0835199  0.0790997 -0.00140911 -0.0617191  0.219765 -0.00183329 -0.0431347  0.165474 1.01328e-05 -0.00120533  0.141045 -0.00147775 0.0176706  0.0363462 -0.00121117 -0.283011  -0.0835203 -0.000446945 -0.246967  0.0802957 0.000461459 -0.249838  -0.0431397 -0.00183392 -0.21976  0.0965238 -0.000974268 -0.203675  -0.00120473 8.22544e-06 -0.165469  0.017668 -0.00147849 -0.141041  -0.0784456 -0.00867802 -0.436429  -0.244005 -0.00473103 -0.407071  -0.0806837 -0.00223395 -0.412973  -0.161249 -0.00612909 -0.373955  -0.0219731 -0.00307414 -0.360801  -0.164439 -0.00167632 -0.327496  -0.102805 -0.00287539 -0.297429  -0.18084 -0.0398765 -0.587723  -0.397104 -0.0227322 -0.582479  -0.236074 -0.0213735 -0.570516  -0.269247 -0.0230825 -0.538411  -0.13591 -0.0215173 -0.511502  -0.324783 -0.0119939 -0.489642  -0.220282 -0.0129719 -0.453261  0.588251 0.00868487 0.103072  0.819191 0.0398707 0.254363  0.576897 0.00660193 0.154293  0.778606 0.0210816 0.0951114  0.842313 0.0251352 0.296246  0.505453 0.0061419 0.207273  0.697457 0.0215177 0.178143  0.730796 0.0230837 0.371723  0.704206 0.0139696 0.224704  0.613089 0.0129763 0.286578  0.369703 0.00123018 -0.0503496  0.322086 0.00277376 0.016564  0.521316 0.00339019 -0.0378655  0.29022 0.0018521 0.0530821  0.478057 0.00308782 0.0274442  0.448987 0.00347054 0.0860382  0.397227 0.00288892 0.130749  0.1577 0.00143147 -0.209914  0.0709481 0.00237769 -0.125079  0.267037 0.00205129 -0.178349  0.079096 0.00142556 -0.104951  0.263195 0.000993133 -0.129683  0.196258 0.002505 -0.0539969  0.184344 0.00149691 -0.0256319  -0.050348 0.00122207 -0.369698  -0.178351 0.0020442 -0.267036  0.0165614 0.00276834 -0.322078  -0.129685 0.000987411 -0.263192  0.0530821 0.00184751 -0.290215  -0.0540041 0.0025003 -0.196255  -0.025635 0.00149304 -0.184341  -0.250734 -0.00687426 -0.526229  -0.423918 -0.00133038 -0.407767  -0.229389 -0.000298321 -0.464091  -0.333896 -0.00306439 -0.419314  -0.151729 -0.00122452 -0.448363  -0.301663 0.000807643 -0.337443  -0.232405 -0.000318587 -0.34146  -0.439388 -0.040477 -0.688604  -0.6714 -0.0188221 -0.563254  -0.4697 -0.0187653 -0.604879  -0.534882 -0.0218443 -0.589842  -0.350441 -0.0205957 -0.603094  -0.547139 -0.00803494 -0.480518  -0.436528 -0.0105312 -0.499431  0.69055 0.00662428 -0.0581529  0.987385 0.0374343 0.0432242  0.664079 0.00416237 0.00616801  0.863954 0.0103276 -0.11389  0.987406 0.0195325 0.0897343  0.630634 0.00591594 0.0853215  0.835021 0.017887 -0.00508565  0.928935 0.0254022 0.200521  0.822629 0.0078457 0.0471237  0.775368 0.0128818 0.142778  0.401459 0.00242174 -0.168384  0.352487 0.00228828 -0.0737152  0.550082 0.00199366 -0.189825  0.343299 0.00296235 -0.0266883  0.545802 0.0030123 -0.112163  0.508554 0.00234073 -0.0336494  0.486845 0.00329483 0.0299153  0.11573 0.00265408 -0.284808  0.0410306 0.0021382 -0.155667  0.237914 0.00200468 -0.270083  0.0579636 0.00264347 -0.142376  0.258324 0.00243956 -0.226294  0.196683 0.00225335 -0.114647  0.200434 0.00279433 -0.0843564  -0.168387 0.00241745 -0.401461  -0.270085 0.00200289 -0.237918  -0.0737215 0.00228333 -0.35249  -0.226296 0.00243473 -0.258327  -0.0266928 0.00295705 -0.343301  -0.114652 0.00225121 -0.196686  -0.0843611 0.00279069 -0.200435  -0.447851 -0.00336456 -0.518286  -0.579918 0.00123525 -0.321939  -0.384374 0.00054723 -0.435181  -0.507885 0.000296891 -0.374492  -0.3088 0.000359893 -0.459594  -0.425267 0.00139499 -0.279283  -0.367453 0.00145918 -0.316218  -0.721399 -0.0337108 -0.645978  -0.890545 -0.00598329 -0.415699  -0.689768 -0.00964797 -0.521791  -0.792573 -0.0131325 -0.503898  -0.585186 -0.0154348 -0.577549  -0.733968 -0.00289363 -0.366408  -0.648325 -0.00532401 -0.4356  0.697104 0.00174028 -0.243943  1.02951 0.0107026 -0.207891  0.666667 0 -0.166667  0.833333 0 -0.333334  1 0 -0.166667  0.676758 0.00194085 -0.0787259  0.861765 0.00276482 -0.222588  1.01066 0.00844663 -0.035807  0.833333 0 -0.166667  0.841979 0.00218588 -0.056438  0.369834 0.00103736 -0.285241  0.333333 0 -0.166667  0.5 0 -0.333334  0.3489 0.00117499 -0.121327  0.533538 0.000943303 -0.264031  0.5 0 -0.166667  0.512796 0.00106478 -0.0998069  0.0424896 0.00112092 -0.32791  0 0 -0.166667  0.166667 0 -0.333334  0.021215 0.00116158 -0.163873  0.20611 0.00110584 -0.30658  0.166667 0 -0.166667  0.184972 0.00120229 -0.142621  -0.285242 0.00103867 -0.369836  -0.333333 0 -0.166667  -0.166667 0 -0.333334  -0.306582 0.00110584 -0.206111  -0.121328 0.00117338 -0.348903  -0.166667 0 -0.166667  -0.142622 0.00120205 -0.184976  -0.613941 0.000197709 -0.412833  -0.666667 0 -0.166667  -0.5 0 -0.333334  -0.63515 0.00111133 -0.250244  -0.449214 0.00045377 -0.390833  -0.5 0 -0.166667  -0.470553 0.000775874 -0.227748  -0.937799 -0.0066973 -0.464322  -1 0 -0.166667  -0.833333 0 -0.333334  -0.964017 -0.00116497 -0.301915  -0.777407 -0.00300062 -0.434195  -0.833334 0 -0.166667  -0.799672 -0.000863433 -0.272674  1.49012e-08 0 0  7.45058e-09 0 0  0 0 0  0.0939244 0.00106017 0.0680593  0.115541 0.0151609 0.108318  0.167712 0.00375295 0.132059  0.222328 0.018136 0.152509  0.209131 0.0324432 0.215548  7.45058e-09 0 0  0.074338 0.000749916 0.0741088  0.0999154 0.00573675 0.08408  0.0903267 0.0112713 0.12098  0.186036 0.0150977 0.172253  0.0791549 0.00463395 0.092968  0 0 0  0 0 0  0.0894018 -0.00173821 0.0304391  0.143532 -0.00198728 0.050079  0.191563 -0.00156367 0.07872  0 0 0  0.0693121 -0.000942297 0.0335413  0.0913115 -0.000654235 0.049402  0.15494 0.000115395 0.090768  0.0719254 -0.000144027 0.0535142  0 0 0  0 0 0  0.0862288 -0.00172976 -0.0105793  0.122998 -0.00198948 -0.0331013  0.172852 -0.00415549 -0.00259304  0 0 0  0.0642484 -0.000952654 -0.00811684  0.0879486 -0.00193886 0.0100901  0.133035 -0.00233324 0.00855112  0.0668681 -0.00106284 0.0127957  0 0 0  0 0 0  0.0794991 -0.000198722 -0.0527306  0.101849 -0.000546932 -0.115646  0.155281 -0.00123246 -0.0867652  0 0 0  0.0575006 -0.000453487 -0.0507927  0.0835794 -0.00110991 -0.0315213  0.112622 -0.00139266 -0.0747472  0.0610851 -0.0007753 -0.0294514  0 0 0  0 0 0  0.0680583 0.00106074 -0.093925  0.07873 -0.00156163 -0.191556  0.13206 0.00375538 -0.167712  0 0 0  0.0494031 -0.000653841 -0.0913102  0.0741076 0.000751592 -0.0743374  0.0907726 0.00011462 -0.154933  0.0535153 -0.000144064 -0.0719225  0 0 0  0 0 0  0.0596344 -0.0084134 -0.120703  0.0598679 -0.0278262 -0.253815  0.100341 -0.00347987 -0.236717  0 0 0  0.0466309 -0.0108746 -0.121191  0.0623277 -0.000607356 -0.1146  0.0673306 -0.00913994 -0.226178  0.0463349 -0.00233562 -0.11168  0.328672 0.00394499 0.135492  0.412482 0.0556248 0.238307  0.388454 0.00682017 0.160945  0.503499 0.0229007 0.17807  0.499917 0.0515079 0.298363  0.27654 0.00603446 0.160981  0.363131 0.0242068 0.183236  0.350416 0.0486477 0.276662  0.437462 0.0246537 0.225137  0.309216 0.0226222 0.214766  0.275206 -0.00661728 0.0238664  0.295496 -0.00337294 0.0212973  0.405686 -0.00620279 0.0537775  0.221195 -0.00299862 0.0457928  0.300098 -0.00383525 0.080815  0.340333 -0.000436664 0.0917314  0.247663 -8.89152e-05 0.103527  0.229633 -0.00368018 -0.0975726  0.211295 -0.0022957 -0.124748  0.320986 -0.00658289 -0.0897999  0.172943 -0.00255571 -0.0728834  0.252015 -0.00590284 -0.0360523  0.252726 -0.0034529 -0.0510351  0.196602 -0.00328057 -0.0131641  0.184954 0.00336304 -0.218843  0.130755 0.000301421 -0.270639  0.24111 0.00133529 -0.242785  0.126258 -0.000359178 -0.191225  0.207835 -0.000293434 -0.158809  0.170783 -0.000801355 -0.198365  0.149558 -0.00145493 -0.13257  0.135501 0.00394318 -0.328673  0.053783 -0.006208 -0.405687  0.160951 0.00681531 -0.388467  0.0808207 -0.00383547 -0.300097  0.160984 0.00603396 -0.276543  0.0917307 -0.000440866 -0.340335  0.103528 -9.121e-05 -0.247662  0.0796895 -0.0343999 -0.405016  -0.0188362 -0.0454827 -0.517717  0.0752908 -0.0151942 -0.50876  0.0365301 -0.0404973 -0.38757  0.105831 -0.00998443 -0.373511  0.0131009 -0.0219502 -0.465929  0.055871 -0.0173095 -0.34832  0.566349 0.000494331 0.0730458  0.718907 0.0471699 0.204242  0.5902 0.00724 0.0773975  0.752071 0.0189359 0.0644049  0.781494 0.0474216 0.221627  0.494549 0.00702068 0.132661  0.634901 0.0202781 0.13826  0.645603 0.0488154 0.279082  0.678936 0.024123 0.14937  0.563156 0.024481 0.203636  0.43643 -0.00866568 -0.0784473  0.41297 -0.00222889 -0.0806791  0.577423 -0.0072251 -0.0764945  0.360801 -0.00307053 -0.0219679  0.499639 -0.00729755 -0.000116348  0.500216 7.86781e-06 0.0001899  0.426045 -0.000447243 0.0565501  0.312247 -0.00174108 -0.247125  0.243307 1.00732e-05 -0.25002  0.407071 -0.00472158 -0.244004  0.235421 -0.00137013 -0.185283  0.373958 -0.00612089 -0.161248  0.3275 -0.00166976 -0.164438  0.297433 -0.00287023 -0.102801  0.192886 0.00687623 -0.415981  0.0796198 0.0022409 -0.419354  0.240395 0.00473779 -0.422717  0.115016 0.00122958 -0.348308  0.252649 0.0030705 -0.33282  0.160824 0.00168705 -0.3356  0.174794 0.000327289 -0.267632  0.0730429 0.000485569 -0.566353  -0.0765037 -0.0072363 -0.577427  0.0773935 0.00723296 -0.590213  -0.000116587 -0.00730854 -0.499641  0.132658 0.00701296 -0.494556  0.000184894 1.43051e-06 -0.500221  0.0565466 -0.000453353 -0.42605  -0.0377495 -0.0446413 -0.686048  -0.218545 -0.0474222 -0.721652  -0.0813103 -0.0189315 -0.731102  -0.104652 -0.0471767 -0.633908  0.0117086 -0.0179184 -0.63034  -0.15444 -0.024123 -0.649396  -0.0585006 -0.0236737 -0.568744  0.739738 -0.000486732 -0.100352  0.962289 0.0446445 0.019336  0.720473 0.00621212 -0.0943494  0.908641 0.0151945 -0.157958  0.981185 0.0454797 0.0176793  0.66658 0.00731134 -0.000391483  0.845075 0.0179198 -0.0363684  0.895381 0.0471739 0.133874  0.846457 0.021951 -0.0341101  0.774865 0.023673 0.0687102  0.526229 -0.00686562 -0.250732  0.464102 -0.00029254 -0.229397  0.66096 -0.00680995 -0.278242  0.448364 -0.00121778 -0.151726  0.632679 -0.00700659 -0.172154  0.591745 0.00044924 -0.159697  0.556571 0.000462949 -0.0739832  0.312233 0.00176626 -0.4196  0.211266 0.00231135 -0.375278  0.407761 -0.00132412 -0.423924  0.23541 0.00138968 -0.314756  0.419314 -0.00305474 -0.333899  0.33744 0.000813603 -0.301667  0.341462 -0.000311732 -0.232405  0.103064 0.00868219 -0.588264  -0.0378661 0.0033834 -0.521318  0.154289 0.0065949 -0.576907  0.0274423 0.0030815 -0.47806  0.20727 0.00613558 -0.505464  0.0860329 0.00346649 -0.448991  0.130747 0.00288647 -0.397232  -0.100364 -0.000486434 -0.739743  -0.278248 -0.00681633 -0.660957  -0.0943548 0.00621015 -0.720476  -0.172158 -0.00701565 -0.63268  -0.000399351 0.00730765 -0.666587  -0.159699 0.000443399 -0.591747  -0.0739876 0.000455379 -0.556574  -0.281147 -0.047167 -0.870932  -0.500138 -0.0515108 -0.798364  -0.329885 -0.0229009 -0.844757  -0.354446 -0.0488161 -0.779096  -0.198482 -0.0202728 -0.804952  -0.395917 -0.0246512 -0.725142  -0.270221 -0.0244781 -0.703653  0.802167 -0.00394177 -0.33803  1.0797 0.0344058 -0.261691  0.745386 0.0015654 -0.308459  0.933669 0.00348175 -0.429975  1.05987 0.0278287 -0.246205  0.747492 0.00384021 -0.199933  0.939164 0.00998801 -0.293195  1.03655 0.0404993 -0.112464  0.90066 0.00914216 -0.273845  0.889213 0.0173129 -0.151712  0.51828 -0.00335968 -0.447855  0.435174 0.000549614 -0.384374  0.632052 -0.00375313 -0.49898  0.459591 0.000363886 -0.308802  0.660982 -0.00602925 -0.390159  0.590767 -0.000113189 -0.345088  0.60353 9.64403e-05 -0.252365  0.229601 0.0036903 -0.569122  0.122974 0.0019955 -0.466902  0.321925 0.00123423 -0.579921  0.172918 0.0025667 -0.427132  0.374486 0.000298262 -0.507886  0.279275 0.00139612 -0.425267  0.316214 0.00146246 -0.367453  -0.0581648 0.00662994 -0.690557  -0.189827 0.00199032 -0.550084  0.00615829 0.00415963 -0.664085  -0.112166 0.00300634 -0.545805  0.0853153 0.00591183 -0.630641  -0.0336547 0.00233787 -0.508557  0.0299096 0.00328994 -0.48685  -0.338034 -0.00394207 -0.802171  -0.498981 -0.00375307 -0.632056  -0.308466 0.00156462 -0.745395  -0.390157 -0.00603253 -0.660986  -0.199937 0.00383943 -0.747495  -0.345087 -0.000113845 -0.590771  -0.252367 9.27448e-05 -0.603534  -0.587567 -0.0556284 -0.904976  -0.790897 -0.032445 -0.715536  -0.611031 -0.0181385 -0.819174  -0.649627 -0.04865 -0.776654  -0.470244 -0.0242093 -0.84991  -0.647322 -0.0150985 -0.672246  -0.524155 -0.0226218 -0.714764  0.73472 -0.00106114 -0.572753  1.05963 0.00841296 -0.54598  0.666667 0 -0.5  0.833333 0 -0.666667  1 0 -0.5  0.716065 0.000655055 -0.408701  0.895657 0.000607252 -0.552082  1.04663 0.0108752 -0.378827  0.833333 0 -0.5  0.879665 0.00233626 -0.388336  0.412826 0.00019908 -0.613945  0.333333 0 -0.5  0.5 0 -0.666667  0.390828 0.000454247 -0.449215  0.574102 -0.000751019 -0.592339  0.5 0 -0.5  0.55351 0.000144482 -0.428086  0.0862212 0.00172895 -0.656089  0 0 -0.5  0.166667 0 -0.666667  0.0642382 0.000954032 -0.491884  0.250238 0.00111026 -0.635151  0.166667 0 -0.5  0.227745 0.000775933 -0.470553  -0.243945 0.00174153 -0.697105  -0.333333 0 -0.5  -0.166667 0 -0.666667  -0.264033 0.000942469 -0.53354  -0.078727 0.00194007 -0.67676  -0.166667 0 -0.5  -0.0998096 0.00106406 -0.512798  -0.572753 -0.00106031 -0.734726  -0.666667 0 -0.5  -0.5 0 -0.666667  -0.592339 -0.000750184 -0.574108  -0.4087 0.000654817 -0.716071  -0.5 0 -0.5  -0.428086 0.000144243 -0.553515  -0.884471 -0.0151625 -0.774978  -1 0 -0.5  -0.833333 0 -0.666667  -0.909684 -0.0112718 -0.620973  -0.733429 -0.00573689 -0.750744  -0.833334 0 -0.5  -0.754188 -0.00463444 -0.592965  1.49012e-08 0 0  7.45058e-09 0 0  0 0 0  0.120704 -0.00841077 0.0596329  0.144401 0.0106353 0.0723604  0.236718 -0.00347869 0.100328  0.270855 -0.00437601 0.0988376  0.291744 0.0421804 0.158122  7.45058e-09 0 0  0.114599 -0.000606887 0.0623273  0.124634 -0.00301784 0.0652274  0.13993 0.014982 0.090044  0.254367 0.0122278 0.126025  0.121254 0.00390173 0.0735763  0 0 0  0 0 0  0.125459 -0.0106997 0.0295143  0.21947 -0.0103236 0.030613  0.25382 -0.027824 0.059864  0 0 0  0.110759 -0.00276404 0.0284331  0.121191 -0.0108733 0.0466291  0.226181 -0.00913997 0.067324  0.11168 -0.00233568 0.0463339  0 0 0  0 0 0  0.134699 -0.00413436 -0.011814  0.207507 -0.00313205 -0.0550153  0.256427 -0.0195291 -0.0126119  0 0 0  0.10892 -0.000856154 -0.0123523  0.130869 -0.00844546 0.0106521  0.213814 -0.0078408 -0.0107182  0.110239 -0.00218471 0.00864202  0 0 0  0 0 0  0.130996 0.00669567 -0.0622056  0.188466 0.00964852 -0.143586  0.249047 0.00598533 -0.109473  0 0 0  0.100867 0.00300125 -0.0559329  0.135257 0.0011657 -0.0359895  0.199752 0.00289443 -0.0993821  0.106015 0.000864029 -0.0336677  0 0 0  0 0 0  0.108318 0.0151589 -0.115541  0.152508 0.0181344 -0.222331  0.215538 0.0324432 -0.209133  0 0 0  0.08408 0.00573578 -0.0999166  0.120981 0.0112714 -0.0903285  0.172248 0.0150966 -0.186036  0.0929682 0.00463422 -0.0791551  0 0 0  0 0 0  0.0723553 0.010634 -0.144394  0.0988473 -0.00437738 -0.270856  0.158124 0.0421804 -0.291743  0 0 0  0.0652267 -0.00301916 -0.124633  0.0900458 0.0149831 -0.139932  0.126032 0.0122262 -0.254364  0.0735778 0.00390157 -0.121257  0.405019 -0.0343965 0.0796796  0.488028 0.0159862 0.147203  0.508754 -0.0151857 0.0752769  0.596329 -0.0219625 0.0818148  0.626583 0.0352356 0.179694  0.373512 -0.00998202 0.105818  0.434508 -0.0135393 0.111299  0.461859 0.0432636 0.190281  0.55777 0.00597998 0.126202  0.407462 0.0113945 0.145346  0.376593 -0.0374288 -0.0126352  0.428473 -0.0210735 -0.0547551  0.517715 -0.0454775 -0.018837  0.328277 -0.0178804 0.00166732  0.387571 -0.0404948 0.0365285  0.465926 -0.0219436 0.0130972  0.348323 -0.0173073 0.0558636  0.354693 -0.00769991 -0.137011  0.352965 -0.00362894 -0.207456  0.462941 -0.0251268 -0.157723  0.289811 -0.004684 -0.121228  0.367218 -0.0253962 -0.071088  0.391396 -0.0139579 -0.12916  0.309471 -0.0128732 -0.057987  0.312656 0.033708 -0.278636  0.271549 0.0187674 -0.36368  0.396602 0.0188222 -0.328651  0.244222 0.0154358 -0.248181  0.337251 0.0131351 -0.207462  0.313865 0.00803864 -0.28624  0.268946 0.00532532 -0.185037  0.238306 0.055622 -0.412476  0.178075 0.0228975 -0.503499  0.298363 0.0515088 -0.49992  0.183238 0.0242067 -0.363129  0.276661 0.0486487 -0.350416  0.225135 0.0246506 -0.437465  0.214764 0.0226215 -0.309215  0.147212 0.0159858 -0.488033  0.081829 -0.0219598 -0.596321  0.1797 0.0352339 -0.626572  0.111307 -0.0135374 -0.434508  0.190284 0.0432602 -0.46185  0.126213 0.00597697 -0.557766  0.145352 0.0113932 -0.407455  0.686049 -0.0446394 -0.0377522  0.821653 0.00192529 0.061547  0.731102 -0.0189253 -0.0813125  0.866071 -0.027435 -0.090104  0.909957 0.0274267 0.0326906  0.630341 -0.0179114 0.0117046  0.743439 -0.0263661 0.0145576  0.777611 0.0299981 0.126081  0.812958 1.78814e-07 -0.020423  0.695072 0.00179911 0.0703464  0.587716 -0.0398692 -0.180845  0.570511 -0.0213619 -0.236077  0.721657 -0.0474143 -0.218564  0.511499 -0.0215062 -0.135915  0.633906 -0.0471697 -0.10466  0.649393 -0.0241116 -0.154443  0.568742 -0.0236633 -0.0585056  0.484415 -0.00103572 -0.365703  0.406481 7.56979e-06 -0.416697  0.582477 -0.0227192 -0.397114  0.393192 -0.00149199 -0.308444  0.53841 -0.0230726 -0.269251  0.489639 -0.0119839 -0.324787  0.453262 -0.0129623 -0.220286  0.355264 0.0404719 -0.560664  0.237159 0.0213743 -0.597314  0.415799 0.0227317 -0.602954  0.269753 0.0205969 -0.482944  0.423177 0.0218426 -0.465175  0.322964 0.0119986 -0.508608  0.332765 0.0105357 -0.396858  0.20424 0.0471682 -0.718907  0.0643907 0.0189292 -0.752069  0.221622 0.0474216 -0.781502  0.138256 0.0202716 -0.634902  0.27908 0.0488137 -0.645608  0.149363 0.0241209 -0.678944  0.203633 0.024477 -0.563164  0.0615582 0.0019252 -0.821633  -0.090088 -0.0274271 -0.866065  0.0326875 0.0274323 -0.909952  0.0145618 -0.0263661 -0.743432  0.126083 0.029999 -0.777604  -0.0204237 2.38419e-07 -0.812953  0.0703489 0.00179625 -0.695069  0.870936 -0.0471626 -0.281153  1.06159 -0.00192606 -0.178407  0.844763 -0.0228962 -0.329888  1.01305 -0.0352297 -0.373484  1.08184 0.0219693 -0.237058  0.804951 -0.0202695 -0.198481  0.959449 -0.0299937 -0.22245  1.01459 0.0263665 -0.0899457  0.959563 -0.00597495 -0.275616  0.903714 -0.0017944 -0.138311  0.688603 -0.0404606 -0.439405  0.60488 -0.0187572 -0.469707  0.798368 -0.0515015 -0.500144  0.603094 -0.0205851 -0.350449  0.779097 -0.0488061 -0.354455  0.725144 -0.0246448 -0.395918  0.703652 -0.0244697 -0.270224  0.484398 0.00104898 -0.634366  0.352933 0.00364178 -0.625925  0.563245 -0.0188107 -0.671409  0.39318 0.00150722 -0.524949  0.589839 -0.0218302 -0.534897  0.480514 -0.00802803 -0.547143  0.499429 -0.0105226 -0.436534  0.254349 0.0398798 -0.819217  0.0951002 0.0210826 -0.778619  0.29624 0.0251372 -0.842326  0.178134 0.0215187 -0.69747  0.371717 0.0230854 -0.730813  0.224697 0.0139694 -0.70422  0.286573 0.0129766 -0.613104  0.0193219 0.0446501 -0.962302  -0.157962 0.015191 -0.90865  0.0176614 0.0454822 -0.981206  -0.0363746 0.0179183 -0.84508  0.133862 0.0471774 -0.895396  -0.0341192 0.0219511 -0.846471  0.0687017 0.0236728 -0.774874  -0.178407 -0.00193334 -1.06159  -0.373486 -0.0352338 -1.01305  -0.237063 0.0219639 -1.08186  -0.222451 -0.0299958 -0.959452  -0.0899515 0.0263668 -1.0146  -0.27562 -0.00597906 -0.959567  -0.138313 -0.00179589 -0.903717  0.904973 -0.0556133 -0.587573  1.14722 -0.0159782 -0.512027  0.819165 -0.0181305 -0.611032  0.991449 -0.0421696 -0.708293  1.09885 0.00438517 -0.562508  0.849907 -0.0242013 -0.470246  1.02362 -0.0432521 -0.538197  1.11131 0.0135476 -0.398873  0.959358 -0.0122222 -0.578999  0.978689 -0.0113871 -0.425919  0.645974 -0.0337028 -0.721405  0.521783 -0.00964564 -0.689767  0.71553 -0.0324391 -0.790899  0.577544 -0.0154293 -0.585189  0.776651 -0.0486395 -0.649632  0.672239 -0.0150948 -0.647324  0.714762 -0.0226173 -0.524156  0.354654 0.00771362 -0.863028  0.207482 0.00313693 -0.778335  0.41569 -0.00597972 -0.890547  0.28978 0.00469315 -0.712138  0.503891 -0.0131258 -0.792578  0.366399 -0.00289172 -0.733969  0.435593 -0.00531948 -0.648329  0.043225 0.0374278 -0.98739  -0.113894 0.0103244 -0.863955  0.0897282 0.01953 -0.987405  -0.00509143 0.0178859 -0.83503  0.200514 0.0254025 -0.928943  0.0471209 0.00784492 -0.82263  0.142771 0.0128809 -0.775376  -0.261708 0.0344023 -1.07971  -0.42998 0.00347936 -0.933674  -0.246219 0.027823 -1.05988  -0.2932 0.00998312 -0.939171  -0.112474 0.0404961 -1.03655  -0.273853 0.00914043 -0.900668  -0.15172 0.0173109 -0.88922  -0.51203 -0.0159823 -1.14722  -0.708296 -0.0421863 -0.991452  -0.56252 0.0043754 -1.09884  -0.538196 -0.0432634 -1.02362  -0.398879 0.0135394 -1.11132  -0.579002 -0.0122275 -0.959359  -0.425923 -0.0113946 -0.978693  0.774973 -0.0151578 -0.884475  1.07235 -0.0106288 -0.855628  0.666667 0 -0.833334  0.833333 0 -1  1 0 -0.833334  0.75074 -0.00573546 -0.733431  0.92337 -0.0149793 -0.860089  1.06523 0.00302154 -0.708718  0.833333 0 -0.833334  0.906906 -0.00390041 -0.712093  0.46432 -0.0066976 -0.937803  0.333333 0 -0.833334  0.5 0 -1  0.434191 -0.00300062 -0.777411  0.620969 -0.0112707 -0.909685  0.5 0 -0.833334  0.592959 -0.00463343 -0.754189  0.134681 0.00413746 -0.988195  0 0 -0.833334  0.166667 0 -1  0.108905 0.000858009 -0.820986  0.301909 -0.00116408 -0.964019  0.166667 0 -0.833334  0.272669 -0.000862837 -0.799673  -0.207894 0.0107014 -1.02952  -0.333333 0 -0.833334  -0.166667 0 -1  -0.22259 0.00276411 -0.861768  -0.0358104 0.00844455 -1.01066  -0.166667 0 -0.833334  -0.0564418 0.00218576 -0.841981  -0.545981 0.00841123 -1.05964  -0.666667 0 -0.833334  -0.5 0 -1  -0.552083 0.000607371 -0.895663  -0.378826 0.0108731 -1.04663  -0.5 0 -0.833334  -0.388335 0.00233585 -0.879671  -0.855626 -0.010635 -1.07235  -1 0 -0.833334  -0.833333 0 -1  -0.860088 -0.0149838 -0.92337  -0.708719 0.00301754 -1.06523  -0.833334 0 -0.833334  -0.712095 -0.00390172 -0.906908  
SCALARS smooth_stress float 1
LOOKUP_TABLE default
4433.31 4176.7 3729.62 3357.68 3458.58 3959.25 4177.54 4471.75 4314.25 3879.32 3493.07 3522.28 3961.01 4261.71 4307.42 4195.93 3903.54 3660.76 3618.38 3965.77 4293.68 4177.9 3969.08 3733.19 3678.47 3684.97 3976.52 4233.9 4312.73 4008.05 3637.36 3681.47 3858.17 4092.73 4260.69 4450.06 4027.27 3505.05 3513.38 3986.07 4374.99 4398.98 4525.8 4036.54 3423.71 3327.68 3974.95 4548.79 4502.89 3883.2 3604.84 3051.75 2731.07 2952.23 3605.23 3991.11 3951.91 3709.48 3174.62 2817.3 2974.4 3679.65 4162.9 3966.81 3692.4 3212.08 2943.16 3059.94 3723.58 4207.41 4015.93 3654.35 3125.78 2957.71 3093.99 3639.01 4046.66 4186.3 3734.9 3068.24 2913.33 3124.33 3613.37 3951.76 4324.63 3756.89 2981.05 2832.22 3198.72 3682.55 3859.14 4395.52 3782 2950.51 2770.4 3213.46 3723.29 3827.93 3210.12 2806.61 2035.9 1660.33 1944.26 2831.09 3425.62 3256.6 2834.75 2054.84 1688.54 2006.62 2994.41 3655.87 3489.58 2961.93 2097.32 1752.72 2095.55 3118.36 3790.67 3800.79 3177.27 2129.55 1739.99 2074 3043.32 3713.27 3992.34 3283.21 2114.76 1707.08 2043.05 2949.99 3572.6 4003.25 3224.14 2053.96 1694.46 2019.3 2756.13 3199.68 3947.32 3175.45 2016.64 1666.04 1978.37 2619.94 2985.51 3258.06 2635.15 1566.36 1074.7 1394.57 2374.18 2988.15 3284.04 2640.8 1549.86 1124.88 1512.09 2513.46 3150.32 3499 2784.75 1599.12 1156.4 1591.18 2687.87 3378.45 3765.17 2986.31 1702.74 1174.96 1573.86 2798.79 3601.76 3757.03 2974.41 1704.77 1223.6 1616.13 2800.2 3597.6 3538.46 2784.86 1575.39 1143.94 1535.14 2544.28 3186.66 3405.23 2670.46 1481.83 1052.86 1433 2362.74 2937.23 3603.7 2885.77 1803.96 1371.28 1691.96 2550.77 3020.08 3802.97 3026.61 1835.8 1437.55 1770.65 2598.92 3110.27 3831.93 3086.55 1917.8 1504.06 1816.18 2723.52 3328.36 3750.33 3045.49 1968.93 1533.95 1823.28 2879.21 3582.55 3616.95 2973.09 1922.38 1483.34 1831.88 2950.34 3688.06 3315.54 2780.06 1829.07 1402.92 1758.24 2854.13 3584.04 3236.22 2699.25 1783.28 1402.77 1716.26 2766.04 3500.8 4112.65 3482.81 2660.34 2373.32 2629.18 3280.17 3580.91 4248.07 3596.08 2703.88 2451.32 2702.36 3300.62 3635.5 4106.71 3546.97 2764.26 2575.84 2752.81 3291.7 3688.17 3916.33 3468.78 2812.37 2590.93 2715.77 3295.88 3738.55 3854.98 3478.34 2863.26 2542.07 2635.38 3319.66 3827.88 3668.23 3380.62 2840.44 2469.14 2546.41 3347.91 3953.4 3629.25 3357.52 2798 2413.64 2523.53 3385.94 4041.87 4446.87 3884.16 3147.57 2937.29 3220.95 3796.2 4051.42 4377.14 3855.75 3196.13 3041.75 3300.87 3839.79 4103.45 4194.59 3755.35 3217.13 3176.47 3366 3756.78 4016.35 4114.74 3804.28 3351.65 3220.87 3287.71 3645.78 3948.39 4065.29 3854.67 3560.91 3295.71 3143.63 3573.06 3972.48 3975 3809.06 3522.61 3182.46 3019.4 3553.97 4031.98 3967.12 3834.01 3437.12 3008.52 2975.76 3623.2 4138.57 4433.31 4176.7 3883.2 4433.31 4433.31 4176.7 3604.84 3883.2 4471.75 4314.25 3951.91 4471.75 4433.31 4433.31 4176.7 3883.2 4433.31 4471.75 4433.31 3920.08 3729.62 3326.48 3729.62 3051.75 4156.75 3879.32 3467.05 3920.08 3920.08 3729.62 3326.48 4156.75 3920.08 3539.15 3357.68 2777.02 3357.68 2731.07 3601.88 3493.07 2882.2 3539.15 3539.15 3357.68 2777.02 3601.88 3539.15 3176.21 3458.58 2685.12 3458.58 2952.23 3384.25 3522.28 2752.4 3176.21 3176.21 3458.58 2685.12 3384.25 3176.21 3740.96 3959.25 3219.34 3959.25 3605.23 3660.31 3961.01 3196.4 3740.96 3740.96 3959.25 3219.34 3660.31 3740.96 4177.54 4177.54 3991.11 4177.54 3991.11 4261.71 4261.71 4162.9 4177.54 4177.54 4177.54 3991.11 4261.71 4177.54 4510.18 4451.8 3814.11 4020.61 4307.42 4195.93 3966.81 4307.42 4510.18 4451.8 4020.61 4510.18 4307.42 4510.18 4029.01 3297.49 4084.44 3903.54 3417.98 4393.42 4029.01 3607.61 4084.44 4393.42 3628.45 2903.52 3722.63 3660.76 3006.18 3664.61 3628.45 2987.37 3722.63 3664.61 3585.98 2996.57 3598.9 3618.38 2880.14 3592.29 3585.98 2819.68 3598.9 3592.29 3962.78 3754.07 3637.86 3965.77 3239.74 3579.67 3962.78 3173.45 3637.86 3579.67 4345.9 4334.69 4293.68 4293.68 4207.41 4345.9 4345.9 4334.69 4293.68 4345.9 4104.66 3940.06 3570.68 3913.02 4177.9 3969.08 4015.93 4177.9 4104.66 3940.06 3913.02 4104.66 4177.9 4104.66 3778.06 3126.66 3760.25 3733.19 3292.76 3775.46 3778.06 3228.34 3760.25 3775.46 3693.08 2982.79 3706.13 3678.47 2958.8 3780.66 3693.08 3024.99 3706.13 3780.66 3650.78 3123.31 3650.8 3684.97 2956.63 3605.5 3650.78 2940.59 3650.8 3605.5 3968.77 3693.09 3719.14 3976.52 3231.36 3696.06 3968.77 3306.03 3719.14 3696.06 4241.47 4080.14 4233.9 4233.9 4046.66 4241.47 4241.47 4080.14 4233.9 4241.47 4251.14 3998.09 3738.02 4118.85 4312.73 4008.05 4186.3 4312.73 4251.14 3998.09 4118.85 4251.14 4312.73 4251.14 3688.32 3124.9 3703.36 3637.36 3283.5 3745.04 3688.32 3357.19 3703.36 3745.04 3663.85 2932.64 3571.36 3681.47 2852.98 3631.61 3663.85 2892.61 3571.36 3631.61 3719.15 3064.67 3791.57 3858.17 2973.68 3696.1 3719.15 2972.66 3791.57 3696.1 3984.27 3584.92 3924.77 4092.73 3274.97 3742.21 3984.27 3156.68 3924.77 3742.21 4226.32 4013.17 4260.69 4260.69 3951.76 4226.32 4226.32 4013.17 4260.69 4226.32 4374.33 4018 3731.78 4253.75 4450.06 4027.27 4324.63 4450.06 4374.33 4018 4253.75 4374.33 4450.06 4374.33 3586.39 3011.58 3604.48 3505.05 3189.14 3661.68 3586.39 3209.81 3604.48 3661.68 3699.08 2894.03 3405.63 3513.38 2772.95 3511.11 3699.08 2813.36 3405.63 3511.11 3997.19 3183.98 3621.13 3986.07 2891.49 3887.05 3997.19 2974.71 3621.13 3887.05 4201.2 3641.81 4351.01 4374.99 3505.96 4107.33 4201.2 3393.26 4351.01 4107.33 4295.06 3890.35 4398.98 4398.98 3859.14 4295.06 4295.06 3890.35 4398.98 4295.06 4525.8 4036.54 3782 4395.52 4525.8 4036.54 4395.52 4525.8 4525.8 4036.54 4395.52 4525.8 4525.8 4525.8 3423.71 2950.51 3547.28 3423.71 3168.48 3547.28 3423.71 3168.48 3547.28 3547.28 3327.68 2770.4 3300.15 3327.68 2732.54 3300.15 3327.68 2732.54 3300.15 3300.15 3974.95 3213.46 3355.2 3974.95 2808.27 3355.2 3974.95 2808.27 3355.2 3355.2 4548.79 3723.29 4594.69 4548.79 3618.66 4594.69 4548.79 3618.66 4594.69 4594.69 4502.89 3827.93 4502.89 4502.89 3827.93 4502.89 4502.89 3827.93 4502.89 4502.89 3032.98 3210.12 3333.08 2806.61 3210.12 3104.7 3256.6 3432.06 3333.08 3032.98 3210.12 3333.08 3432.06 3333.08 2373.88 2403.1 2035.9 2469.93 2412.9 2732.88 2373.88 2403.1 2777.34 2732.88 2104.46 1668.71 1660.33 2141.53 1696.78 2014.89 2104.46 1668.71 2162.51 2014.89 2445.88 1651.95 1944.26 2426.51 1680.29 2194.02 2445.88 1651.95 2120.54 2194.02 3251.21 2236.56 2831.09 3398.29 2332.95 2697.73 3251.21 2236.56 2732.49 2697.73 3804.69 3425.62 3425.62 4064.08 3655.87 3804.69 3804.69 3425.62 4064.08 3804.69 2862.89 3303.08 3188.86 3489.58 3626.21 3176.43 3303.08 3531.04 3626.21 3531.04 2073.77 2520.62 2434.27 2565.97 2422.7 2751.51 2821.81 1716.74 2225.55 1760.37 2178.6 1724.85 2289.72 2310.13 2068.99 2501.5 1745.06 2407.15 1708.63 2161.37 2047.07 3157.74 3481.38 2446.04 3545.36 2429.35 2841.63 2767.24 3886.13 4121.14 3790.67 4323.47 3886.13 4121.14 4323.47 3060.96 3676.08 3339.62 3800.79 3853.97 3201.29 3676.08 3721.37 3853.97 3721.37 2120.87 2518.37 2553.75 2475.26 2445.84 2825.28 2681.21 1788.69 2236.96 1705.34 2272.5 1795.89 2211.47 2269.32 2122.12 2503.01 1774.64 2595.84 1781.49 2262.45 2275.68 3078.97 3301.5 2373.36 3417.41 2462.74 2743.57 2916.01 3695.2 3859.42 3713.27 3918.81 3695.2 3859.42 3918.81 3293.58 3925.5 3461.75 3992.34 4059.86 3477.95 3925.5 3986.56 4059.86 3986.56 2138.23 2499.12 2574.07 2561.48 2661.66 2863.64 2969.34 1691.29 2145.2 1655.44 2201.42 1614.79 2134.61 2153.61 2025.88 2390.48 1758.72 2410.18 1767.78 2155.8 2249.22 3007.66 3134 2327.38 3185.58 2283.98 2625.16 2571.14 3731.34 3642.83 3572.6 3800.02 3731.34 3642.83 3800.02 3272.83 4059.18 3486.51 4003.25 4199.2 3445.55 4059.18 4133.17 4199.2 4133.17 2091.28 2457.04 2445.03 2436.77 2486.48 2773.81 2757.93 1722.87 2151.06 1662.89 2088.99 1696.08 2140.27 2115.61 2060.23 2411.38 1726.02 2370.78 1749.66 2161.85 2062.37 2892.33 2990.11 2312.58 3082.41 2370.79 2660.9 2679.19 3413.86 3319.31 3199.68 3485.64 3413.86 3319.31 3485.64 3175.45 3947.32 3527.46 3947.32 4265.24 3527.46 3947.32 4265.24 4265.24 4265.24 2016.64 2477.31 2403.59 2477.31 2403.59 2789.68 2789.68 1666.04 2213.13 1629.7 2213.13 1629.7 2164.93 2164.93 1978.37 2451.98 1702.38 2451.98 1702.38 2261.33 2261.33 2619.94 2897.8 2254.37 2897.8 2254.37 2642.62 2642.62 2985.51 3152.98 2985.51 3152.98 2985.51 3152.98 3152.98 2580.24 3258.06 3087.16 2635.15 3258.06 2564.8 3284.04 3081.14 3087.16 2580.24 3258.06 3087.16 3081.14 3087.16 1697.92 2012.24 1566.36 1639.75 1997.55 2073.32 1697.92 2012.24 2048.45 2073.32 1216.2 1120.48 1074.7 1235.54 1102.17 1322.52 1216.2 1120.48 1231.04 1322.52 1442.64 1028.93 1394.57 1586.73 1147.59 1109.89 1442.64 1028.93 1240.04 1109.89 2410.96 1760.22 2374.18 2590.54 1876.59 1775.39 2410.96 1760.22 1933.42 1775.39 3046.54 2988.15 2988.15 3247.66 3150.32 3046.54 3046.54 2988.15 3247.66 3046.54 2646.44 3310.02 2734.99 3499 3352.95 2549.35 3310.02 3075.12 3352.95 3075.12 1533.36 1674.02 2070.5 1581.58 1982.86 2117.03 2023.59 1175.05 1279.88 1127.74 1254.88 1083.85 1231.02 1139.57 1629.61 1689.61 1185.06 1730.83 1266.25 1328.75 1370.2 2652.74 2755.33 1997.29 2770.12 1992.97 2050.46 2091.45 3312.5 3460.19 3378.45 3448.79 3312.5 3460.19 3448.79 2923.05 3687.97 3014.92 3765.17 3747.61 2920.63 3687.97 3630.79 3747.61 3630.79 1664.89 1740.72 2207.44 1766.47 2158.14 2282.23 2210.47 1137.75 1243.02 1198.04 1304.88 1171.63 1199.22 1322.47 1552.74 1644.98 1151.89 1648.39 1103.87 1286.82 1287.3 2723.01 2785.13 1995.83 2740.54 2001.62 2003.14 2009.48 3444.41 3567.12 3601.76 3471.6 3444.41 3567.12 3471.6 3049.56 3842.38 3104.66 3757.03 3924.82 3109.21 3842.38 3864.44 3924.82 3864.44 1740.6 1730.39 2191.8 1714.98 2256.75 2284.51 2353.99 1212.18 1268.96 1217.74 1181.16 1224.45 1176.27 1075.97 1594.97 1695.63 1229.46 1641.58 1199.91 1361.65 1286.34 2874.57 2765.98 2002.8 2829.73 1990.04 2029.6 1996.81 3759.11 3502.37 3597.6 3662.65 3759.11 3502.37 3662.65 2899.26 3671.68 2961.78 3538.46 3807.3 3100.11 3671.68 3985.19 3807.3 3985.19 1668.94 1650.89 2031.27 1745.79 2126.85 2116.26 2215.03 1235.02 1237.85 1119.51 1356.76 1211.04 1185.52 1276.56 1637.29 1627.22 1168.38 1749.67 1259.01 1290.19 1436.96 2725.83 2522.16 1901.91 2702.24 2015.57 1964.25 2062.39 3436.09 3080.06 3186.66 3342.08 3436.09 3080.06 3342.08 2670.46 3405.23 2823.44 3405.23 3629.4 2823.44 3405.23 3629.4 3629.4 3629.4 1481.83 1555.98 1935.68 1555.98 1935.68 2017.49 2017.49 1052.86 1118.95 1027.98 1118.95 1027.98 1094.47 1094.47 1433 1504.77 1077.75 1504.77 1077.75 1143.42 1143.42 2362.74 2342.08 1788.24 2342.08 1788.24 1866.11 1866.11 2937.23 2818.04 2937.23 2818.04 2937.23 2818.04 2818.04 2690.07 3603.7 3428.97 2885.77 3603.7 2716.8 3802.97 3486.95 3428.97 2690.07 3603.7 3428.97 3486.95 3428.97 1434.81 2167.83 1803.96 1459.97 2250.24 1951.17 1434.81 2167.83 1946.65 1951.17 933.205 1440.09 1371.28 1014.21 1421.37 918.446 933.205 1440.09 973.289 918.446 1346.51 1302.46 1691.96 1437.45 1453.74 947.965 1346.51 1302.46 1055.13 947.965 2337.4 2081.46 2550.77 2436.38 2087.57 1745.05 2337.4 2081.46 1819.77 1745.05 2929.75 3020.08 3020.08 3052.99 3110.27 2929.75 2929.75 3020.08 3052.99 2929.75 3167.44 4002.25 2834.5 3831.93 3645.04 2743.53 4002.25 3544.93 3645.04 3544.93 1867.64 1524.22 2341.17 1485.13 2332.64 2023.97 1942.14 1503.83 1032.91 1494.44 1095.22 1402.64 1024.46 1028.13 1849.35 1492.74 1513.69 1528.39 1605.02 1041.37 1162.3 2647.07 2620.42 2118.68 2535.35 2093.68 1944.12 1894.49 3200.46 3296.72 3328.36 3176.22 3200.46 3296.72 3176.22 3005.66 3661.62 2957.7 3750.33 3782.73 2925.48 3661.62 3745.14 3782.73 3745.14 1967.97 1664.76 2340.64 1563.3 2349.7 2132.66 2105.81 1504.3 1106.91 1597.21 970.613 1586.23 1196.86 1020.79 1783.02 1502.73 1470.68 1457.1 1422.37 1016.96 920.434 2799.97 2812.45 2175.88 2705.49 2143.68 1988.51 1993.76 3456.26 3636.39 3582.55 3417.21 3456.26 3636.39 3417.21 3085.31 3839.05 2844.17 3616.95 3589.25 2989.91 3839.05 3820.32 3589.25 3820.32 1969.89 1679.15 2329.23 1766.21 2331.58 2099.09 2159.51 1563.59 1178.24 1515.52 1243.2 1608.2 1259.22 1372.92 1863.53 1536.64 1451.15 1548.37 1518.99 1097.27 1113.49 2958.46 2834.42 2212.61 2919.41 2208.08 1976.01 1983.26 3708.84 3692.83 3688.06 3855.56 3708.84 3692.83 3855.56 2860.87 3394.85 2607.95 3315.54 3269.62 2698.42 3394.85 3358.17 3269.62 3358.17 1874.86 1499.89 2244.58 1592.09 2326.89 1946.27 2038.67 1403.08 1050.03 1413.57 1113.29 1422.84 1053.5 1145.51 1800.23 1443.06 1392.28 1524.91 1383.31 1046.57 1081.06 2942.22 2566.41 2124.21 2749.43 2217.15 1839.56 1968.75 3667.29 3293.26 3584.04 3530.11 3667.29 3293.26 3530.11 2699.25 3236.22 2517.47 3236.22 3181.06 2517.47 3236.22 3181.06 3181.06 3181.06 1783.28 1407.68 2162.28 1407.68 2162.28 1853.88 1853.88 1402.77 986.776 1404.29 986.776 1404.29 961.481 961.481 1716.26 1361.22 1401.24 1361.22 1401.24 1012.07 1012.07 2766.04 2383.4 2031.27 2383.4 2031.27 1710.38 1710.38 3500.8 3056.42 3500.8 3056.42 3500.8 3056.42 3056.42 3081.46 4112.65 3778.43 3482.81 4112.65 3336.41 4248.07 4119 3778.43 3081.46 4112.65 3778.43 4119 3778.43 2173.11 2852.98 2660.34 2211.63 2944.09 2384.5 2173.11 2852.98 2553.82 2384.5 1809.35 2467.71 2373.32 1860.9 2463.66 1961.73 1809.35 2467.71 1869.44 1961.73 2037.42 2278.94 2629.18 2103.86 2438.99 1656.96 2037.42 2278.94 1852.35 1656.96 2764.14 2979.43 3280.17 2761.46 2965.74 2417.87 2764.14 2979.43 2355.37 2417.87 3110.41 3580.91 3580.91 3167.55 3635.5 3110.41 3110.41 3580.91 3167.55 3110.41 3709.35 4383.49 3338.6 4106.71 4018.83 3591.36 4383.49 4459.56 4018.83 4459.56 2747.42 2311.39 2987.24 2250.15 3035.21 2658.37 2723.15 2529.33 1975.21 2541.28 1912.44 2459.62 1964.41 1777.15 2775.55 2139.62 2610.4 2170.3 2599.04 1986.02 2047.74 3321.07 2826.61 2895.22 2758.78 2952.06 2293.23 2292.87 3690.09 3360 3688.17 3224.69 3690.09 3360 3224.69 3384.59 3829.93 3133.28 3916.33 3717.93 3085.84 3829.93 3578.09 3717.93 3578.09 2781.1 2273.09 3021.22 2372.63 2939.26 2548.62 2593.59 2622.36 1960.98 2603.53 2037.98 2622.95 1997.57 2151.67 2730.08 2143.82 2578.32 2108.95 2621.77 1924.4 1924.3 3262.32 2945.98 2853.21 2894.45 2838.39 2363.24 2293.59 3686.25 3528.71 3738.55 3495.3 3686.25 3528.71 3495.3 3552.96 4002.74 3102.02 3854.98 3644.66 3180.71 4002.74 3857.78 3644.66 3857.78 2843.65 2165.6 3101.71 2173.56 3103.18 2559.37 2503.65 2559.49 1788.43 2624.81 1883.99 2584.11 1771.82 1843.47 2701.45 2127.13 2459.33 2178.7 2534.88 1805.03 1924.5 3329.43 3066.26 2811.43 2997.5 2868.03 2449.22 2432.89 3790.84 3683.29 3827.88 3562.11 3790.84 3683.29 3562.11 3403.72 3707.21 2952.17 3668.23 3361.46 3023.32 3707.21 3431.54 3361.46 3431.54 2882.87 2158.26 3093.01 2157.64 3100.23 2542.89 2615.1 2524.64 1755.81 2587.86 1692.87 2665.5 1773.64 1700.18 2569.3 2073.42 2350.41 2075.56 2383.77 1737.99 1685.56 3309.88 3141.84 2742.42 3135.01 2754.83 2408.86 2465.56 3864.93 3874.82 3953.4 3804.47 3864.93 3874.82 3804.47 3357.52 3629.25 2881.03 3629.25 3291.38 2881.03 3629.25 3291.38 3291.38 3291.38 2798 2158.89 3085.78 2158.89 3085.78 2470.68 2470.68 2413.64 1818.76 2510.23 1818.76 2510.23 1847.1 1847.1 2523.53 2071.29 2317.05 2071.29 2317.05 1790.42 1790.42 3385.94 3148.67 2730 3148.67 2730 2352.17 2352.17 4041.87 3945.18 4041.87 3945.18 4041.87 3945.18 3945.18 3884.16 4446.87 4446.87 3884.16 4446.87 3855.75 4377.14 4377.14 4446.87 3884.16 4446.87 4446.87 4377.14 4446.87 3147.57 3321.46 3147.57 3196.13 3334.37 3321.46 3147.57 3321.46 3334.37 3321.46 2937.29 2973.68 2937.29 3041.75 3057.89 2973.68 2937.29 2973.68 3057.89 2973.68 3220.95 2900.91 3220.95 3300.87 3025.62 2900.91 3220.95 2900.91 3025.62 2900.91 3796.2 3540.99 3796.2 3839.79 3576.12 3540.99 3796.2 3540.99 3576.12 3540.99 4051.42 4051.42 4051.42 4103.45 4103.45 4051.42 4051.42 4051.42 4103.45 4051.42 3827.35 4307.41 3755.35 4194.59 4194.59 3827.35 4307.41 4307.41 4194.59 4307.41 3244.68 3217.13 3316.1 3244.68 3347.28 3316.1 3347.28 3146.21 3176.47 3118.16 3146.21 3142.09 3118.16 3142.09 3380.79 3366 3234.79 3380.79 3150.33 3234.79 3150.33 3883.37 3756.78 3497.21 3883.37 3611.25 3497.21 3611.25 4155.49 4016.35 4016.35 4155.49 4155.49 4016.35 4155.49 3683.35 4081.77 3804.28 4114.74 4114.74 3683.35 4081.77 4081.77 4114.74 4081.77 3189.57 3351.65 3493.82 3189.57 3284.92 3493.82 3284.92 3206.73 3220.87 3209.49 3206.73 3094.22 3209.49 3094.22 3351.21 3287.71 3232.25 3351.21 3319.24 3232.25 3319.24 3630.19 3645.78 3343.17 3630.19 3383.18 3343.17 3383.18 3877.21 3948.39 3948.39 3877.21 3877.21 3948.39 3877.21 3925.21 4147.7 3854.67 4065.29 4065.29 3925.21 4147.7 4147.7 4065.29 4147.7 3513.73 3560.91 3644.04 3513.73 3702.72 3644.04 3702.72 3235 3295.71 3477.79 3235 3324.75 3477.79 3324.75 3224.21 3143.63 3113.62 3224.21 3145.26 3113.62 3145.26 3661.37 3573.06 3173.64 3661.37 3303.17 3173.64 3303.17 4019.57 3972.48 3972.48 4019.57 4019.57 3972.48 4019.57 3784.12 3982.89 3809.06 3975 3975 3784.12 3982.89 3982.89 3975 3982.89 3608.09 3522.61 3643.12 3608.09 3585.35 3643.12 3585.35 3356.41 3182.46 3402.09 3356.41 3630.83 3402.09 3630.83 3063.05 3019.4 2962.83 3063.05 3081.99 2962.83 3081.99 3484.75 3553.97 3075.97 3484.75 3044.11 3075.97 3044.11 3925.38 4031.98 4031.98 3925.38 3925.38 4031.98 3925.38 3834.01 3967.12 3834.01 3967.12 3967.12 3834.01 3967.12 3967.12 3967.12 3967.12 3437.12 3437.12 3700.89 3437.12 3700.89 3700.89 3700.89 3008.52 3008.52 3173.36 3008.52 3173.36 3173.36 3173.36 2975.76 2975.76 2843.68 2975.76 2843.68 2843.68 2843.68 3623.2 3623.2 3107.84 3623.2 3107.84 3107.84 3107.84 4138.57 4138.57 4138.57 4138.57 4138.57 4138.57 4138.57 
CELL_DATA 216
SCALARS stress float 1
LOOKUP_TABLE default
760.17 672.168 606.851 544.618 641.453 716.313 773.351 753.329 628.362 615.962 613.798 745.181 703.817 647.37 648.261 618.228 633.755 727.276 728.934 642.153 622.704 633.761 641.669 724.678 750.056 627.86 602.042 666.504 704.275 736.465 776.029 608.244 565.869 575.309 787.841 772.1 571.517 468.6 345.489 376.204 462.574 652.382 605.46 483.849 396.113 351.006 474.493 741.336 638.096 459.742 389.115 390.206 500.002 671.95 683.566 509.146 369.275 385.669 440.867 651.582 708.705 472.897 362.759 353.63 459.394 597.675 731.351 478.341 371.215 387.746 453.125 540.634 529.348 355.508 226.769 190.31 304.422 522.383 527.283 346.98 195.399 234.945 358.617 591.355 622.563 379.024 226.761 220.73 344.56 595.267 662.626 403.633 184.494 220.566 342.389 628.027 683.333 379.805 218.889 246.392 353.634 573.059 622.325 345.934 187.667 196.06 319.978 483.203 587.958 334.562 157.484 162.545 299.22 502.358 607.841 333.014 176.292 199.297 324.843 544.62 642.171 361.079 175.033 157.825 341.865 585.942 655.063 370.286 235.412 190.927 340.065 661.104 575.818 349.566 196.418 185.367 337.577 605.3 545.45 317.881 164.863 173.537 293.274 524.078 647.879 408.864 336.374 284.116 414.587 533.335 764.672 466.932 304.725 351.121 393.153 552.93 613.527 444.717 368.942 329.955 393.277 599.332 661.484 429.295 316.096 329.99 417.163 610.788 588.398 448.406 291.525 289.019 422.763 652.344 564.365 423.642 316.717 306.998 403.321 676.471 762.494 569.523 509.89 497.412 607.165 694.688 738.582 573.951 538.767 540.181 619.213 712.532 699.892 563.258 530.559 569.143 580.106 664.816 711.197 634.897 570.087 539.31 566.387 689.226 682.937 614.773 622.571 528.462 521.966 673.077 680.234 634.583 544.128 487.599 532.894 709.631 
SCALARS volume float 1
LOOKUP_TABLE default
35.1232 34.1121 33.6549 33.7849 34.2017 35.1344 33.9933 33.7612 33.893 33.9594 34.0986 34.0142 34.1199 33.9413 33.8142 33.8453 33.942 34.139 34.1223 33.9249 33.8375 33.8236 33.9619 34.138 33.9899 34.0724 33.9472 33.899 33.7782 34.0104 35.1246 34.1979 33.7854 33.6593 34.1144 35.1371 34.1895 33.7787 33.5957 33.6334 33.781 34.1153 34.0795 33.6139 33.5836 33.5974 33.618 33.7607 33.9238 33.5812 33.5361 33.5415 33.588 33.9511 33.9423 33.5798 33.5395 33.5366 33.5867 33.9307 33.7607 33.6111 33.5945 33.582 33.618 34.0752 34.1116 33.778 33.6324 33.5953 33.7801 34.2063 33.7768 33.6317 33.5314 33.5319 33.5959 33.6521 33.9413 33.5943 33.5125 33.5131 33.5825 33.8826 33.8265 33.538 33.4814 33.4821 33.5361 33.8077 33.8081 33.5328 33.4806 33.4818 33.5402 33.8325 33.8882 33.5794 33.5117 33.5123 33.5959 33.941 33.6594 33.5945 33.531 33.5318 33.634 33.7925 33.655 33.5941 33.531 33.5314 33.6325 33.7802 33.8826 33.5817 33.5121 33.5124 33.5953 33.9488 33.8115 33.5345 33.4809 33.4816 33.5384 33.8322 33.8363 33.5394 33.4808 33.4813 33.534 33.8122 33.9422 33.594 33.5116 33.5117 33.5802 33.8903 33.7889 33.6326 33.531 33.5312 33.595 33.6594 34.1123 33.777 33.6305 33.5946 33.7804 34.1989 33.7665 33.6146 33.5945 33.5824 33.6169 34.0909 33.9529 33.5841 33.539 33.5354 33.5844 33.9354 33.9327 33.5828 33.5338 33.5392 33.5827 33.9549 34.0769 33.6148 33.5802 33.5936 33.6136 33.7699 34.2017 33.7775 33.5936 33.6316 33.7773 34.107 35.1167 34.1883 33.774 33.6527 34.1183 35.1334 34.014 34.0874 33.9491 33.8868 33.7683 34.0184 34.1332 33.9293 33.8327 33.8161 33.9534 34.1398 34.1335 33.9488 33.8163 33.8397 33.9316 34.1419 34.0047 33.7708 33.8938 33.9438 34.0739 34.0094 35.1296 34.1088 33.6577 33.7866 34.1975 35.1212 
SCALARS volume_diff float 1
LOOKUP_TABLE default
35.1185 34.1075 33.6503 33.7803 34.1971 35.1297 33.9886 33.7565 33.8884 33.9548 34.094 34.0096 34.1153 33.9367 33.8096 33.8406 33.9373 34.1343 34.1177 33.9202 33.8329 33.819 33.9573 34.1334 33.9853 34.0678 33.9425 33.8943 33.7735 34.0058 35.12 34.1933 33.7807 33.6547 34.1098 35.1325 34.1849 33.7741 33.5911 33.6287 33.7764 34.1107 34.0749 33.6093 33.5789 33.5927 33.6133 33.7561 33.9191 33.5766 33.5315 33.5368 33.5833 33.9464 33.9377 33.5752 33.5349 33.5319 33.5821 33.9261 33.756 33.6065 33.5899 33.5773 33.6134 34.0705 34.107 33.7734 33.6278 33.5906 33.7754 34.2017 33.7722 33.6271 33.5268 33.5273 33.5912 33.6475 33.9367 33.5897 33.5079 33.5084 33.5778 33.878 33.8219 33.5333 33.4768 33.4775 33.5314 33.8031 33.8035 33.5282 33.476 33.4771 33.5356 33.8279 33.8836 33.5747 33.5071 33.5077 33.5913 33.9364 33.6548 33.5899 33.5263 33.5271 33.6294 33.7879 33.6503 33.5895 33.5264 33.5268 33.6279 33.7755 33.8779 33.5771 33.5074 33.5078 33.5907 33.9442 33.8068 33.5299 33.4763 33.477 33.5338 33.8275 33.8317 33.5347 33.4761 33.4766 33.5294 33.8075 33.9375 33.5894 33.507 33.5071 33.5756 33.8856 33.7842 33.628 33.5264 33.5266 33.5904 33.6548 34.1077 33.7724 33.6258 33.59 33.7758 34.1943 33.7619 33.61 33.5899 33.5778 33.6123 34.0863 33.9482 33.5795 33.5344 33.5308 33.5798 33.9308 33.9281 33.5782 33.5291 33.5346 33.578 33.9503 34.0723 33.6102 33.5756 33.5889 33.6089 33.7652 34.1971 33.7729 33.5889 33.627 33.7727 34.1023 35.1121 34.1837 33.7694 33.648 34.1137 35.1288 34.0094 34.0827 33.9445 33.8822 33.7636 34.0137 34.1286 33.9247 33.8281 33.8115 33.9488 34.1352 34.1289 33.9442 33.8116 33.8351 33.9269 34.1372 34.0001 33.7661 33.8892 33.9392 34.0693 34.0048 35.1249 34.1042 33.6531 33.782 34.1929 35.1166 
