# vtk DataFile Version 5.1
vtk output
ASCII

DATASET UNSTRUCTURED_GRID
POINTS 2673 float
0 0 -0.4
0.125 0 -0.4
0.25 0 -0.4
0.375 0 -0.4
0.5 0 -0.4
0.625 0 -0.4
0.75 0 -0.4
0.875 0 -0.4
1 0 -0.4
1.125 0 -0.4
1.25 0 -0.4
1.375 0 -0.4
1.5 0 -0.4
1.625 0 -0.4
1.75 0 -0.4
1.875 0 -0.4
2 0 -0.4
2.125 0 -0.4
2.25 0 -0.4
2.375 0 -0.4
2.5 0 -0.4
2.625 0 -0.4
2.75 0 -0.4
2.875 0 -0.4
3 0 -0.4
3.125 0 -0.4
3.25 0 -0.4
3.375 0 -0.4
3.5 0 -0.4
3.625 0 -0.4
3.75 0 -0.4
3.875 0 -0.4
4 0 -0.4
0 0.125 -0.4
0.125 0.125 -0.4
0.25 0.125 -0.4
0.375 0.125 -0.4
0.5 0.125 -0.4
0.625 0.125 -0.4
0.75 0.125 -0.4
0.875 0.125 -0.4
1 0.125 -0.4
1.125 0.125 -0.4
1.25 0.125 -0.4
1.375 0.125 -0.4
1.5 0.125 -0.4
1.625 0.125 -0.4
1.75 0.125 -0.4
1.875 0.125 -0.4
2 0.125 -0.4
2.125 0.125 -0.4
2.25 0.125 -0.4
2.375 0.125 -0.4
2.5 0.125 -0.4
2.625 0.125 -0.4
2.75 0.125 -0.4
2.875 0.125 -0.4
3 0.125 -0.4
3.125 0.125 -0.4
3.25 0.125 -0.4
3.375 0.125 -0.4
3.5 0.125 -0.4
3.625 0.125 -0.4
3.75 0.125 -0.4
3.875 0.125 -0.4
4 0.125 -0.4
0 0.25 -0.4
0.125 0.25 -0.4
0.25 0.25 -0.4
0.375 0.25 -0.4
0.5 0.25 -0.4
0.625 0.25 -0.4
0.75 0.25 -0.4
0.875 0.25 -0.4
1 0.25 -0.4
1.125 0.25 -0.4
1.25 0.25 -0.4
1.375 0.25 -0.4
1.5 0.25 -0.4
1.625 0.25 -0.4
1.75 0.25 -0.4
1.875 0.25 -0.4
2 0.25 -0.4
2.125 0.25 -0.4
2.25 0.25 -0.4
2.375 0.25 -0.4
2.5 0.25 -0.4
2.625 0.25 -0.4
2.75 0.25 -0.4
2.875 0.25 -0.4
3 0.25 -0.4
3.125 0.25 -0.4
3.25 0.25 -0.4
3.375 0.25 -0.4
3.5 0.25 -0.4
3.625 0.25 -0.4
3.75 0.25 -0.4
3.875 0.25 -0.4
4 0.25 -0.4
0 0.375 -0.4
0.125 0.375 -0.4
0.25 0.375 -0.4
0.375 0.375 -0.4
0.5 0.375 -0.4
0.625 0.375 -0.4
0.75 0.375 -0.4
0.875 0.375 -0.4
1 0.375 -0.4
1.125 0.375 -0.4
1.25 0.375 -0.4
1.375 0.375 -0.4
1.5 0.375 -0.4
1.625 0.375 -0.4
1.75 0.375 -0.4
1.875 0.375 -0.4
2 0.375 -0.4
2.125 0.375 -0.4
2.25 0.375 -0.4
2.375 0.375 -0.4
2.5 0.375 -0.4
2.625 0.375 -0.4
2.75 0.375 -0.4
2.875 0.375 -0.4
3 0.375 -0.4
3.125 0.375 -0.4
3.25 0.375 -0.4
3.375 0.375 -0.4
3.5 0.375 -0.4
3.625 0.375 -0.4
3.75 0.375 -0.4
3.875 0.375 -0.4
4 0.375 -0.4
0 0.5 -0.4
0.125 0.5 -0.4
0.25 0.5 -0.4
0.375 0.5 -0.4
0.5 0.5 -0.4
0.625 0.5 -0.4
0.75 0.5 -0.4
0.875 0.5 -0.4
1 0.5 -0.4
1.125 0.5 -0.4
1.25 0.5 -0.4
1.375 0.5 -0.4
1.5 0.5 -0.4
1.625 0.5 -0.4
1.75 0.5 -0.4
1.875 0.5 -0.4
2 0.5 -0.4
2.125 0.5 -0.4
2.25 0.5 -0.4
2.375 0.5 -0.4
2.5 0.5 -0.4
2.625 0.5 -0.4
2.75 0.5 -0.4
2.875 0.5 -0.4
3 0.5 -0.4
3.125 0.5 -0.4
3.25 0.5 -0.4
3.375 0.5 -0.4
3.5 0.5 -0.4
3.625 0.5 -0.4
3.75 0.5 -0.4
3.875 0.5 -0.4
4 0.5 -0.4
0 0.625 -0.4
0.125 0.625 -0.4
0.25 0.625 -0.4
0.375 0.625 -0.4
0.5 0.625 -0.4
0.625 0.625 -0.4
0.75 0.625 -0.4
0.875 0.625 -0.4
1 0.625 -0.4
1.125 0.625 -0.4
1.25 0.625 -0.4
1.375 0.625 -0.4
1.5 0.625 -0.4
1.625 0.625 -0.4
1.75 0.625 -0.4
1.875 0.625 -0.4
2 0.625 -0.4
2.125 0.625 -0.4
2.25 0.625 -0.4
2.375 0.625 -0.4
2.5 0.625 -0.4
2.625 0.625 -0.4
2.75 0.625 -0.4
2.875 0.625 -0.4
3 0.625 -0.4
3.125 0.625 -0.4
3.25 0.625 -0.4
3.375 0.625 -0.4
3.5 0.625 -0.4
3.625 0.625 -0.4
3.75 0.625 -0.4
3.875 0.625 -0.4
4 0.625 -0.4
0 0.75 -0.4
0.125 0.75 -0.4
0.25 0.75 -0.4
0.375 0.75 -0.4
0.5 0.75 -0.4
0.625 0.75 -0.4
0.75 0.75 -0.4
0.875 0.75 -0.4
1 0.75 -0.4
1.125 0.75 -0.4
1.25 0.75 -0.4
1.375 0.75 -0.4
1.5 0.75 -0.4
1.625 0.75 -0.4
1.75 0.75 -0.4
1.875 0.75 -0.4
2 0.75 -0.4
2.125 0.75 -0.4
2.25 0.75 -0.4
2.375 0.75 -0.4
2.5 0.75 -0.4
2.625 0.75 -0.4
2.75 0.75 -0.4
2.875 0.75 -0.4
3 0.75 -0.4
3.125 0.75 -0.4
3.25 0.75 -0.4
3.375 0.75 -0.4
3.5 0.75 -0.4
3.625 0.75 -0.4
3.75 0.75 -0.4
3.875 0.75 -0.4
4 0.75 -0.4
0 0.875 -0.4
0.125 0.875 -0.4
0.25 0.875 -0.4
0.375 0.875 -0.4
0.5 0.875 -0.4
0.625 0.875 -0.4
0.75 0.875 -0.4
0.875 0.875 -0.4
1 0.875 -0.4
1.125 0.875 -0.4
1.25 0.875 -0.4
1.375 0.875 -0.4
1.5 0.875 -0.4
1.625 0.875 -0.4
1.75 0.875 -0.4
1.875 0.875 -0.4
2 0.875 -0.4
2.125 0.875 -0.4
2.25 0.875 -0.4
2.375 0.875 -0.4
2.5 0.875 -0.4
2.625 0.875 -0.4
2.75 0.875 -0.4
2.875 0.875 -0.4
3 0.875 -0.4
3.125 0.875 -0.4
3.25 0.875 -0.4
3.375 0.875 -0.4
3.5 0.875 -0.4
3.625 0.875 -0.4
3.75 0.875 -0.4
3.875 0.875 -0.4
4 0.875 -0.4
0 1 -0.4
0.125 1 -0.4
0.25 1 -0.4
0.375 1 -0.4
0.5 1 -0.4
0.625 1 -0.4
0.75 1 -0.4
0.875 1 -0.4
1 1 -0.4
1.125 1 -0.4
1.25 1 -0.4
1.375 1 -0.4
1.5 1 -0.4
1.625 1 -0.4
1.75 1 -0.4
1.875 1 -0.4
2 1 -0.4
2.125 1 -0.4
2.25 1 -0.4
2.375 1 -0.4
2.5 1 -0.4
2.625 1 -0.4
2.75 1 -0.4
2.875 1 -0.4
3 1 -0.4
3.125 1 -0.4
3.25 1 -0.4
3.375 1 -0.4
3.5 1 -0.4
3.625 1 -0.4
3.75 1 -0.4
3.875 1 -0.4
4 1 -0.4
0 0 -0.275
0.125 0 -0.275
0.25 0 -0.275
0.375 0 -0.275
0.5 0 -0.275
0.625 0 -0.275
0.75 0 -0.275
0.875 0 -0.275
1 0 -0.275
1.125 0 -0.275
1.25 0 -0.275
1.375 0 -0.275
1.5 0 -0.275
1.625 0 -0.275
1.75 0 -0.275
1.875 0 -0.275
2 0 -0.275
2.125 0 -0.275
2.25 0 -0.275
2.375 0 -0.275
2.5 0 -0.275
2.625 0 -0.275
2.75 0 -0.275
2.875 0 -0.275
3 0 -0.275
3.125 0 -0.275
3.25 0 -0.275
3.375 0 -0.275
3.5 0 -0.275
3.625 0 -0.275
3.75 0 -0.275
3.875 0 -0.275
4 0 -0.275
0 0.125 -0.275
0.125 0.125 -0.275
0.25 0.125 -0.275
0.375 0.125 -0.275
0.5 0.125 -0.275
0.625 0.125 -0.275
0.75 0.125 -0.275
0.875 0.125 -0.275
1 0.125 -0.275
1.125 0.125 -0.275
1.25 0.125 -0.275
1.375 0.125 -0.275
1.5 0.125 -0.275
1.625 0.125 -0.275
1.75 0.125 -0.275
1.875 0.125 -0.275
2 0.125 -0.275
2.125 0.125 -0.275
2.25 0.125 -0.275
2.375 0.125 -0.275
2.5 0.125 -0.275
2.625 0.125 -0.275
2.75 0.125 -0.275
2.875 0.125 -0.275
3 0.125 -0.275
3.125 0.125 -0.275
3.25 0.125 -0.275
3.375 0.125 -0.275
3.5 0.125 -0.275
3.625 0.125 -0.275
3.75 0.125 -0.275
3.875 0.125 -0.275
4 0.125 -0.275
0 0.25 -0.275
0.125 0.25 -0.275
0.25 0.25 -0.275
0.375 0.25 -0.275
0.5 0.25 -0.275
0.625 0.25 -0.275
0.75 0.25 -0.275
0.875 0.25 -0.275
1 0.25 -0.275
1.125 0.25 -0.275
1.25 0.25 -0.275
1.375 0.25 -0.275
1.5 0.25 -0.275
1.625 0.25 -0.275
1.75 0.25 -0.275
1.875 0.25 -0.275
2 0.25 -0.275
2.125 0.25 -0.275
2.25 0.25 -0.275
2.375 0.25 -0.275
2.5 0.25 -0.275
2.625 0.25 -0.275
2.75 0.25 -0.275
2.875 0.25 -0.275
3 0.25 -0.275
3.125 0.25 -0.275
3.25 0.25 -0.275
3.375 0.25 -0.275
3.5 0.25 -0.275
3.625 0.25 -0.275
3.75 0.25 -0.275
3.875 0.25 -0.275
4 0.25 -0.275
0 0.375 -0.275
0.125 0.375 -0.275
0.25 0.375 -0.275
0.375 0.375 -0.275
0.5 0.375 -0.275
0.625 0.375 -0.275
0.75 0.375 -0.275
0.875 0.375 -0.275
1 0.375 -0.275
1.125 0.375 -0.275
1.25 0.375 -0.275
1.375 0.375 -0.275
1.5 0.375 -0.275
1.625 0.375 -0.275
1.75 0.375 -0.275
1.875 0.375 -0.275
2 0.375 -0.275
2.125 0.375 -0.275
2.25 0.375 -0.275
2.375 0.375 -0.275
2.5 0.375 -0.275
2.625 0.375 -0.275
2.75 0.375 -0.275
2.875 0.375 -0.275
3 0.375 -0.275
3.125 0.375 -0.275
3.25 0.375 -0.275
3.375 0.375 -0.275
3.5 0.375 -0.275
3.625 0.375 -0.275
3.75 0.375 -0.275
3.875 0.375 -0.275
4 0.375 -0.275
0 0.5 -0.275
0.125 0.5 -0.275
0.25 0.5 -0.275
0.375 0.5 -0.275
0.5 0.5 -0.275
0.625 0.5 -0.275
0.75 0.5 -0.275
0.875 0.5 -0.275
1 0.5 -0.275
1.125 0.5 -0.275
1.25 0.5 -0.275
1.375 0.5 -0.275
1.5 0.5 -0.275
1.625 0.5 -0.275
1.75 0.5 -0.275
1.875 0.5 -0.275
2 0.5 -0.275
2.125 0.5 -0.275
2.25 0.5 -0.275
2.375 0.5 -0.275
2.5 0.5 -0.275
2.625 0.5 -0.275
2.75 0.5 -0.275
2.875 0.5 -0.275
3 0.5 -0.275
3.125 0.5 -0.275
3.25 0.5 -0.275
3.375 0.5 -0.275
3.5 0.5 -0.275
3.625 0.5 -0.275
3.75 0.5 -0.275
3.875 0.5 -0.275
4 0.5 -0.275
0 0.625 -0.275
0.125 0.625 -0.275
0.25 0.625 -0.275
0.375 0.625 -0.275
0.5 0.625 -0.275
0.625 0.625 -0.275
0.75 0.625 -0.275
0.875 0.625 -0.275
1 0.625 -0.275
1.125 0.625 -0.275
1.25 0.625 -0.275
1.375 0.625 -0.275
1.5 0.625 -0.275
1.625 0.625 -0.275
1.75 0.625 -0.275
1.875 0.625 -0.275
2 0.625 -0.275
2.125 0.625 -0.275
2.25 0.625 -0.275
2.375 0.625 -0.275
2.5 0.625 -0.275
2.625 0.625 -0.275
2.75 0.625 -0.275
2.875 0.625 -0.275
3 0.625 -0.275
3.125 0.625 -0.275
3.25 0.625 -0.275
3.375 0.625 -0.275
3.5 0.625 -0.275
3.625 0.625 -0.275
3.75 0.625 -0.275
3.875 0.625 -0.275
4 0.625 -0.275
0 0.75 -0.275
0.125 0.75 -0.275
0.25 0.75 -0.275
0.375 0.75 -0.275
0.5 0.75 -0.275
0.625 0.75 -0.275
0.75 0.75 -0.275
0.875 0.75 -0.275
1 0.75 -0.275
1.125 0.75 -0.275
1.25 0.75 -0.275
1.375 0.75 -0.275
1.5 0.75 -0.275
1.625 0.75 -0.275
1.75 0.75 -0.275
1.875 0.75 -0.275
2 0.75 -0.275
2.125 0.75 -0.275
2.25 0.75 -0.275
2.375 0.75 -0.275
2.5 0.75 -0.275
2.625 0.75 -0.275
2.75 0.75 -0.275
2.875 0.75 -0.275
3 0.75 -0.275
3.125 0.75 -0.275
3.25 0.75 -0.275
3.375 0.75 -0.275
3.5 0.75 -0.275
3.625 0.75 -0.275
3.75 0.75 -0.275
3.875 0.75 -0.275
4 0.75 -0.275
0 0.875 -0.275
0.125 0.875 -0.275
0.25 0.875 -0.275
0.375 0.875 -0.275
0.5 0.875 -0.275
0.625 0.875 -0.275
0.75 0.875 -0.275
0.875 0.875 -0.275
1 0.875 -0.275
1.125 0.875 -0.275
1.25 0.875 -0.275
1.375 0.875 -0.275
1.5 0.875 -0.275
1.625 0.875 -0.275
1.75 0.875 -0.275
1.875 0.875 -0.275
2 0.875 -0.275
2.125 0.875 -0.275
2.25 0.875 -0.275
2.375 0.875 -0.275
2.5 0.875 -0.275
2.625 0.875 -0.275
2.75 0.875 -0.275
2.875 0.875 -0.275
3 0.875 -0.275
3.125 0.875 -0.275
3.25 0.875 -0.275
3.375 0.875 -0.275
3.5 0.875 -0.275
3.625 0.875 -0.275
3.75 0.875 -0.275
3.875 0.875 -0.275
4 0.875 -0.275
0 1 -0.275
0.125 1 -0.275
0.25 1 -0.275
0.375 1 -0.275
0.5 1 -0.275
0.625 1 -0.275
0.75 1 -0.275
0.875 1 -0.275
1 1 -0.275
1.125 1 -0.275
1.25 1 -0.275
1.375 1 -0.275
1.5 1 -0.275
1.625 1 -0.275
1.75 1 -0.275
1.875 1 -0.275
2 1 -0.275
2.125 1 -0.275
2.25 1 -0.275
2.375 1 -0.275
2.5 1 -0.275
2.625 1 -0.275
2.75 1 -0.275
2.875 1 -0.275
3 1 -0.275
3.125 1 -0.275
3.25 1 -0.275
3.375 1 -0.275
3.5 1 -0.275
3.625 1 -0.275
3.75 1 -0.275
3.875 1 -0.275
4 1 -0.275
0 0 -0.15
0.125 0 -0.15
0.25 0 -0.15
0.375 0 -0.15
0.5 0 -0.15
0.625 0 -0.15
0.75 0 -0.15
0.875 0 -0.15
1 0 -0.15
1.125 0 -0.15
1.25 0 -0.15
1.375 0 -0.15
1.5 0 -0.15
1.625 0 -0.15
1.75 0 -0.15
1.875 0 -0.15
2 0 -0.15
2.125 0 -0.15
2.25 0 -0.15
2.375 0 -0.15
2.5 0 -0.15
2.625 0 -0.15
2.75 0 -0.15
2.875 0 -0.15
3 0 -0.15
3.125 0 -0.15
3.25 0 -0.15
3.375 0 -0.15
3.5 0 -0.15
3.625 0 -0.15
3.75 0 -0.15
3.875 0 -0.15
4 0 -0.15
0 0.125 -0.15
0.125 0.125 -0.15
0.25 0.125 -0.15
0.375 0.125 -0.15
0.5 0.125 -0.15
0.625 0.125 -0.15
0.75 0.125 -0.15
0.875 0.125 -0.15
1 0.125 -0.15
1.125 0.125 -0.15
1.25 0.125 -0.15
1.375 0.125 -0.15
1.5 0.125 -0.15
1.625 0.125 -0.15
1.75 0.125 -0.15
1.875 0.125 -0.15
2 0.125 -0.15
2.125 0.125 -0.15
2.25 0.125 -0.15
2.375 0.125 -0.15
2.5 0.125 -0.15
2.625 0.125 -0.15
2.75 0.125 -0.15
2.875 0.125 -0.15
3 0.125 -0.15
3.125 0.125 -0.15
3.25 0.125 -0.15
3.375 0.125 -0.15
3.5 0.125 -0.15
3.625 0.125 -0.15
3.75 0.125 -0.15
3.875 0.125 -0.15
4 0.125 -0.15
0 0.25 -0.15
0.125 0.25 -0.15
0.25 0.25 -0.15
0.375 0.25 -0.15
0.5 0.25 -0.15
0.625 0.25 -0.15
0.75 0.25 -0.15
0.875 0.25 -0.15
1 0.25 -0.15
1.125 0.25 -0.15
1.25 0.25 -0.15
1.375 0.25 -0.15
1.5 0.25 -0.15
1.625 0.25 -0.15
1.75 0.25 -0.15
1.875 0.25 -0.15
2 0.25 -0.15
2.125 0.25 -0.15
2.25 0.25 -0.15
2.375 0.25 -0.15
2.5 0.25 -0.15
2.625 0.25 -0.15
2.75 0.25 -0.15
2.875 0.25 -0.15
3 0.25 -0.15
3.125 0.25 -0.15
3.25 0.25 -0.15
3.375 0.25 -0.15
3.5 0.25 -0.15
3.625 0.25 -0.15
3.75 0.25 -0.15
3.875 0.25 -0.15
4 0.25 -0.15
0 0.375 -0.15
0.125 0.375 -0.15
0.25 0.375 -0.15
0.375 0.375 -0.15
0.5 0.375 -0.15
0.625 0.375 -0.15
0.75 0.375 -0.15
0.875 0.375 -0.15
1 0.375 -0.15
1.125 0.375 -0.15
1.25 0.375 -0.15
1.375 0.375 -0.15
1.5 0.375 -0.15
1.625 0.375 -0.15
1.75 0.375 -0.15
1.875 0.375 -0.15
2 0.375 -0.15
2.125 0.375 -0.15
2.25 0.375 -0.15
2.375 0.375 -0.15
2.5 0.375 -0.15
2.625 0.375 -0.15
2.75 0.375 -0.15
2.875 0.375 -0.15
3 0.375 -0.15
3.125 0.375 -0.15
3.25 0.375 -0.15
3.375 0.375 -0.15
3.5 0.375 -0.15
3.625 0.375 -0.15
3.75 0.375 -0.15
3.875 0.375 -0.15
4 0.375 -0.15
0 0.5 -0.15
0.125 0.5 -0.15
0.25 0.5 -0.15
0.375 0.5 -0.15
0.5 0.5 -0.15
0.625 0.5 -0.15
0.75 0.5 -0.15
0.875 0.5 -0.15
1 0.5 -0.15
1.125 0.5 -0.15
1.25 0.5 -0.15
1.375 0.5 -0.15
1.5 0.5 -0.15
1.625 0.5 -0.15
1.75 0.5 -0.15
1.875 0.5 -0.15
2 0.5 -0.15
2.125 0.5 -0.15
2.25 0.5 -0.15
2.375 0.5 -0.15
2.5 0.5 -0.15
2.625 0.5 -0.15
2.75 0.5 -0.15
2.875 0.5 -0.15
3 0.5 -0.15
3.125 0.5 -0.15
3.25 0.5 -0.15
3.375 0.5 -0.15
3.5 0.5 -0.15
3.625 0.5 -0.15
3.75 0.5 -0.15
3.875 0.5 -0.15
4 0.5 -0.15
0 0.625 -0.15
0.125 0.625 -0.15
0.25 0.625 -0.15
0.375 0.625 -0.15
0.5 0.625 -0.15
0.625 0.625 -0.15
0.75 0.625 -0.15
0.875 0.625 -0.15
1 0.625 -0.15
1.125 0.625 -0.15
1.25 0.625 -0.15
1.375 0.625 -0.15
1.5 0.625 -0.15
1.625 0.625 -0.15
1.75 0.625 -0.15
1.875 0.625 -0.15
2 0.625 -0.15
2.125 0.625 -0.15
2.25 0.625 -0.15
2.375 0.625 -0.15
2.5 0.625 -0.15
2.625 0.625 -0.15
2.75 0.625 -0.15
2.875 0.625 -0.15
3 0.625 -0.15
3.125 0.625 -0.15
3.25 0.625 -0.15
3.375 0.625 -0.15
3.5 0.625 -0.15
3.625 0.625 -0.15
3.75 0.625 -0.15
3.875 0.625 -0.15
4 0.625 -0.15
0 0.75 -0.15
0.125 0.75 -0.15
0.25 0.75 -0.15
0.375 0.75 -0.15
0.5 0.75 -0.15
0.625 0.75 -0.15
0.75 0.75 -0.15
0.875 0.75 -0.15
1 0.75 -0.15
1.125 0.75 -0.15
1.25 0.75 -0.15
1.375 0.75 -0.15
1.5 0.75 -0.15
1.625 0.75 -0.15
1.75 0.75 -0.15
1.875 0.75 -0.15
2 0.75 -0.15
2.125 0.75 -0.15
2.25 0.75 -0.15
2.375 0.75 -0.15
2.5 0.75 -0.15
2.625 0.75 -0.15
2.75 0.75 -0.15
2.875 0.75 -0.15
3 0.75 -0.15
3.125 0.75 -0.15
3.25 0.75 -0.15
3.375 0.75 -0.15
3.5 0.75 -0.15
3.625 0.75 -0.15
3.75 0.75 -0.15
3.875 0.75 -0.15
4 0.75 -0.15
0 0.875 -0.15
0.125 0.875 -0.15
0.25 0.875 -0.15
0.375 0.875 -0.15
0.5 0.875 -0.15
0.625 0.875 -0.15
0.75 0.875 -0.15
0.875 0.875 -0.15
1 0.875 -0.15
1.125 0.875 -0.15
1.25 0.875 -0.15
1.375 0.875 -0.15
1.5 0.875 -0.15
1.625 0.875 -0.15
1.75 0.875 -0.15
1.875 0.875 -0.15
2 0.875 -0.15
2.125 0.875 -0.15
2.25 0.875 -0.15
2.375 0.875 -0.15
2.5 0.875 -0.15
2.625 0.875 -0.15
2.75 0.875 -0.15
2.875 0.875 -0.15
3 0.875 -0.15
3.125 0.875 -0.15
3.25 0.875 -0.15
3.375 0.875 -0.15
3.5 0.875 -0.15
3.625 0.875 -0.15
3.75 0.875 -0.15
3.875 0.875 -0.15
4 0.875 -0.15
0 1 -0.15
0.125 1 -0.15
0.25 1 -0.15
0.375 1 -0.15
0.5 1 -0.15
0.625 1 -0.15
0.75 1 -0.15
0.875 1 -0.15
1 1 -0.15
1.125 1 -0.15
1.25 1 -0.15
1.375 1 -0.15
1.5 1 -0.15
1.625 1 -0.15
1.75 1 -0.15
1.875 1 -0.15
2 1 -0.15
2.125 1 -0.15
2.25 1 -0.15
2.375 1 -0.15
2.5 1 -0.15
2.625 1 -0.15
2.75 1 -0.15
2.875 1 -0.15
3 1 -0.15
3.125 1 -0.15
3.25 1 -0.15
3.375 1 -0.15
3.5 1 -0.15
3.625 1 -0.15
3.75 1 -0.15
3.875 1 -0.15
4 1 -0.15
0 0 -0.025
0.125 0 -0.025
0.25 0 -0.025
0.375 0 -0.025
0.5 0 -0.025
0.625 0 -0.025
0.75 0 -0.025
0.875 0 -0.025
1 0 -0.025
1.125 0 -0.025
1.25 0 -0.025
1.375 0 -0.025
1.5 0 -0.025
1.625 0 -0.025
1.75 0 -0.025
1.875 0 -0.025
2 0 -0.025
2.125 0 -0.025
2.25 0 -0.025
2.375 0 -0.025
2.5 0 -0.025
2.625 0 -0.025
2.75 0 -0.025
2.875 0 -0.025
3 0 -0.025
3.125 0 -0.025
3.25 0 -0.025
3.375 0 -0.025
3.5 0 -0.025
3.625 0 -0.025
3.75 0 -0.025
3.875 0 -0.025
4 0 -0.025
0 0.125 -0.025
0.125 0.125 -0.025
0.25 0.125 -0.025
0.375 0.125 -0.025
0.5 0.125 -0.025
0.625 0.125 -0.025
0.75 0.125 -0.025
0.875 0.125 -0.025
1 0.125 -0.025
1.125 0.125 -0.025
1.25 0.125 -0.025
1.375 0.125 -0.025
1.5 0.125 -0.025
1.625 0.125 -0.025
1.75 0.125 -0.025
1.875 0.125 -0.025
2 0.125 -0.025
2.125 0.125 -0.025
2.25 0.125 -0.025
2.375 0.125 -0.025
2.5 0.125 -0.025
2.625 0.125 -0.025
2.75 0.125 -0.025
2.875 0.125 -0.025
3 0.125 -0.025
3.125 0.125 -0.025
3.25 0.125 -0.025
3.375 0.125 -0.025
3.5 0.125 -0.025
3.625 0.125 -0.025
3.75 0.125 -0.025
3.875 0.125 -0.025
4 0.125 -0.025
0 0.25 -0.025
0.125 0.25 -0.025
0.25 0.25 -0.025
0.375 0.25 -0.025
0.5 0.25 -0.025
0.625 0.25 -0.025
0.75 0.25 -0.025
0.875 0.25 -0.025
1 0.25 -0.025
1.125 0.25 -0.025
1.25 0.25 -0.025
1.375 0.25 -0.025
1.5 0.25 -0.025
1.625 0.25 -0.025
1.75 0.25 -0.025
1.875 0.25 -0.025
2 0.25 -0.025
2.125 0.25 -0.025
2.25 0.25 -0.025
2.375 0.25 -0.025
2.5 0.25 -0.025
2.625 0.25 -0.025
2.75 0.25 -0.025
2.875 0.25 -0.025
3 0.25 -0.025
3.125 0.25 -0.025
3.25 0.25 -0.025
3.375 0.25 -0.025
3.5 0.25 -0.025
3.625 0.25 -0.025
3.75 0.25 -0.025
3.875 0.25 -0.025
4 0.25 -0.025
0 0.375 -0.025
0.125 0.375 -0.025
0.25 0.375 -0.025
0.375 0.375 -0.025
0.5 0.375 -0.025
0.625 0.375 -0.025
0.75 0.375 -0.025
0.875 0.375 -0.025
1 0.375 -0.025
1.125 0.375 -0.025
1.25 0.375 -0.025
1.375 0.375 -0.025
1.5 0.375 -0.025
1.625 0.375 -0.025
1.75 0.375 -0.025
1.875 0.375 -0.025
2 0.375 -0.025
2.125 0.375 -0.025
2.25 0.375 -0.025
2.375 0.375 -0.025
2.5 0.375 -0.025
2.625 0.375 -0.025
2.75 0.375 -0.025
2.875 0.375 -0.025
3 0.375 -0.025
3.125 0.375 -0.025
3.25 0.375 -0.025
3.375 0.375 -0.025
3.5 0.375 -0.025
3.625 0.375 -0.025
3.75 0.375 -0.025
3.875 0.375 -0.025
4 0.375 -0.025
0 0.5 -0.025
0.125 0.5 -0.025
0.25 0.5 -0.025
0.375 0.5 -0.025
0.5 0.5 -0.025
0.625 0.5 -0.025
0.75 0.5 -0.025
0.875 0.5 -0.025
1 0.5 -0.025
1.125 0.5 -0.025
1.25 0.5 -0.025
1.375 0.5 -0.025
1.5 0.5 -0.025
1.625 0.5 -0.025
1.75 0.5 -0.025
1.875 0.5 -0.025
2 0.5 -0.025
2.125 0.5 -0.025
2.25 0.5 -0.025
2.375 0.5 -0.025
2.5 0.5 -0.025
2.625 0.5 -0.025
2.75 0.5 -0.025
2.875 0.5 -0.025
3 0.5 -0.025
3.125 0.5 -0.025
3.25 0.5 -0.025
3.375 0.5 -0.025
3.5 0.5 -0.025
3.625 0.5 -0.025
3.75 0.5 -0.025
3.875 0.5 -0.025
4 0.5 -0.025
0 0.625 -0.025
0.125 0.625 -0.025
0.25 0.625 -0.025
0.375 0.625 -0.025
0.5 0.625 -0.025
0.625 0.625 -0.025
0.75 0.625 -0.025
0.875 0.625 -0.025
1 0.625 -0.025
1.125 0.625 -0.025
1.25 0.625 -0.025
1.375 0.625 -0.025
1.5 0.625 -0.025
1.625 0.625 -0.025
1.75 0.625 -0.025
1.875 0.625 -0.025
2 0.625 -0.025
2.125 0.625 -0.025
2.25 0.625 -0.025
2.375 0.625 -0.025
2.5 0.625 -0.025
2.625 0.625 -0.025
2.75 0.625 -0.025
2.875 0.625 -0.025
3 0.625 -0.025
3.125 0.625 -0.025
3.25 0.625 -0.025
3.375 0.625 -0.025
3.5 0.625 -0.025
3.625 0.625 -0.025
3.75 0.625 -0.025
3.875 0.625 -0.025
4 0.625 -0.025
0 0.75 -0.025
0.125 0.75 -0.025
0.25 0.75 -0.025
0.375 0.75 -0.025
0.5 0.75 -0.025
0.625 0.75 -0.025
0.75 0.75 -0.025
0.875 0.75 -0.025
1 0.75 -0.025
1.125 0.75 -0.025
1.25 0.75 -0.025
1.375 0.75 -0.025
1.5 0.75 -0.025
1.625 0.75 -0.025
1.75 0.75 -0.025
1.875 0.75 -0.025
2 0.75 -0.025
2.125 0.75 -0.025
2.25 0.75 -0.025
2.375 0.75 -0.025
2.5 0.75 -0.025
2.625 0.75 -0.025
2.75 0.75 -0.025
2.875 0.75 -0.025
3 0.75 -0.025
3.125 0.75 -0.025
3.25 0.75 -0.025
3.375 0.75 -0.025
3.5 0.75 -0.025
3.625 0.75 -0.025
3.75 0.75 -0.025
3.875 0.75 -0.025
4 0.75 -0.025
0 0.875 -0.025
0.125 0.875 -0.025
0.25 0.875 -0.025
0.375 0.875 -0.025
0.5 0.875 -0.025
0.625 0.875 -0.025
0.75 0.875 -0.025
0.875 0.875 -0.025
1 0.875 -0.025
1.125 0.875 -0.025
1.25 0.875 -0.025
1.375 0.875 -0.025
1.5 0.875 -0.025
1.625 0.875 -0.025
1.75 0.875 -0.025
1.875 0.875 -0.025
2 0.875 -0.025
2.125 0.875 -0.025
2.25 0.875 -0.025
2.375 0.875 -0.025
2.5 0.875 -0.025
2.625 0.875 -0.025
2.75 0.875 -0.025
2.875 0.875 -0.025
3 0.875 -0.025
3.125 0.875 -0.025
3.25 0.875 -0.025
3.375 0.875 -0.025
3.5 0.875 -0.025
3.625 0.875 -0.025
3.75 0.875 -0.025
3.875 0.875 -0.025
4 0.875 -0.025
0 1 -0.025
0.125 1 -0.025
0.25 1 -0.025
0.375 1 -0.025
0.5 1 -0.025
0.625 1 -0.025
0.75 1 -0.025
0.875 1 -0.025
1 1 -0.025
1.125 1 -0.025
1.25 1 -0.025
1.375 1 -0.025
1.5 1 -0.025
1.625 1 -0.025
1.75 1 -0.025
1.875 1 -0.025
2 1 -0.025
2.125 1 -0.025
2.25 1 -0.025
2.375 1 -0.025
2.5 1 -0.025
2.625 1 -0.025
2.75 1 -0.025
2.875 1 -0.025
3 1 -0.025
3.125 1 -0.025
3.25 1 -0.025
3.375 1 -0.025
3.5 1 -0.025
3.625 1 -0.025
3.75 1 -0.025
3.875 1 -0.025
4 1 -0.025
0 0 0.1
0.125 0 0.1
0.25 0 0.1
0.375 0 0.1
0.5 0 0.1
0.625 0 0.1
0.75 0 0.1
0.875 0 0.1
1 0 0.1
1.125 0 0.1
1.25 0 0.1
1.375 0 0.1
1.5 0 0.1
1.625 0 0.1
1.75 0 0.1
1.875 0 0.1
2 0 0.1
2.125 0 0.1
2.25 0 0.1
2.375 0 0.1
2.5 0 0.1
2.625 0 0.1
2.75 0 0.1
2.875 0 0.1
3 0 0.1
3.125 0 0.1
3.25 0 0.1
3.375 0 0.1
3.5 0 0.1
3.625 0 0.1
3.75 0 0.1
3.875 0 0.1
4 0 0.1
0 0.125 0.1
0.125 0.125 0.1
0.25 0.125 0.1
0.375 0.125 0.1
0.5 0.125 0.1
0.625 0.125 0.1
0.75 0.125 0.1
0.875 0.125 0.1
1 0.125 0.1
1.125 0.125 0.1
1.25 0.125 0.1
1.375 0.125 0.1
1.5 0.125 0.1
1.625 0.125 0.1
1.75 0.125 0.1
1.875 0.125 0.1
2 0.125 0.1
2.125 0.125 0.1
2.25 0.125 0.1
2.375 0.125 0.1
2.5 0.125 0.1
2.625 0.125 0.1
2.75 0.125 0.1
2.875 0.125 0.1
3 0.125 0.1
3.125 0.125 0.1
3.25 0.125 0.1
3.375 0.125 0.1
3.5 0.125 0.1
3.625 0.125 0.1
3.75 0.125 0.1
3.875 0.125 0.1
4 0.125 0.1
0 0.25 0.1
0.125 0.25 0.1
0.25 0.25 0.1
0.375 0.25 0.1
0.5 0.25 0.1
0.625 0.25 0.1
0.75 0.25 0.1
0.875 0.25 0.1
1 0.25 0.1
1.125 0.25 0.1
1.25 0.25 0.1
1.375 0.25 0.1
1.5 0.25 0.1
1.625 0.25 0.1
1.75 0.25 0.1
1.875 0.25 0.1
2 0.25 0.1
2.125 0.25 0.1
2.25 0.25 0.1
2.375 0.25 0.1
2.5 0.25 0.1
2.625 0.25 0.1
2.75 0.25 0.1
2.875 0.25 0.1
3 0.25 0.1
3.125 0.25 0.1
3.25 0.25 0.1
3.375 0.25 0.1
3.5 0.25 0.1
3.625 0.25 0.1
3.75 0.25 0.1
3.875 0.25 0.1
4 0.25 0.1
0 0.375 0.1
0.125 0.375 0.1
0.25 0.375 0.1
0.375 0.375 0.1
0.5 0.375 0.1
0.625 0.375 0.1
0.75 0.375 0.1
0.875 0.375 0.1
1 0.375 0.1
1.125 0.375 0.1
1.25 0.375 0.1
1.375 0.375 0.1
1.5 0.375 0.1
1.625 0.375 0.1
1.75 0.375 0.1
1.875 0.375 0.1
2 0.375 0.1
2.125 0.375 0.1
2.25 0.375 0.1
2.375 0.375 0.1
2.5 0.375 0.1
2.625 0.375 0.1
2.75 0.375 0.1
2.875 0.375 0.1
3 0.375 0.1
3.125 0.375 0.1
3.25 0.375 0.1
3.375 0.375 0.1
3.5 0.375 0.1
3.625 0.375 0.1
3.75 0.375 0.1
3.875 0.375 0.1
4 0.375 0.1
0 0.5 0.1
0.125 0.5 0.1
0.25 0.5 0.1
0.375 0.5 0.1
0.5 0.5 0.1
0.625 0.5 0.1
0.75 0.5 0.1
0.875 0.5 0.1
1 0.5 0.1
1.125 0.5 0.1
1.25 0.5 0.1
1.375 0.5 0.1
1.5 0.5 0.1
1.625 0.5 0.1
1.75 0.5 0.1
1.875 0.5 0.1
2 0.5 0.1
2.125 0.5 0.1
2.25 0.5 0.1
2.375 0.5 0.1
2.5 0.5 0.1
2.625 0.5 0.1
2.75 0.5 0.1
2.875 0.5 0.1
3 0.5 0.1
3.125 0.5 0.1
3.25 0.5 0.1
3.375 0.5 0.1
3.5 0.5 0.1
3.625 0.5 0.1
3.75 0.5 0.1
3.875 0.5 0.1
4 0.5 0.1
0 0.625 0.1
0.125 0.625 0.1
0.25 0.625 0.1
0.375 0.625 0.1
0.5 0.625 0.1
0.625 0.625 0.1
0.75 0.625 0.1
0.875 0.625 0.1
1 0.625 0.1
1.125 0.625 0.1
1.25 0.625 0.1
1.375 0.625 0.1
1.5 0.625 0.1
1.625 0.625 0.1
1.75 0.625 0.1
1.875 0.625 0.1
2 0.625 0.1
2.125 0.625 0.1
2.25 0.625 0.1
2.375 0.625 0.1
2.5 0.625 0.1
2.625 0.625 0.1
2.75 0.625 0.1
2.875 0.625 0.1
3 0.625 0.1
3.125 0.625 0.1
3.25 0.625 0.1
3.375 0.625 0.1
3.5 0.625 0.1
3.625 0.625 0.1
3.75 0.625 0.1
3.875 0.625 0.1
4 0.625 0.1
0 0.75 0.1
0.125 0.75 0.1
0.25 0.75 0.1
0.375 0.75 0.1
0.5 0.75 0.1
0.625 0.75 0.1
0.75 0.75 0.1
0.875 0.75 0.1
1 0.75 0.1
1.125 0.75 0.1
1.25 0.75 0.1
1.375 0.75 0.1
1.5 0.75 0.1
1.625 0.75 0.1
1.75 0.75 0.1
1.875 0.75 0.1
2 0.75 0.1
2.125 0.75 0.1
2.25 0.75 0.1
2.375 0.75 0.1
2.5 0.75 0.1
2.625 0.75 0.1
2.75 0.75 0.1
2.875 0.75 0.1
3 0.75 0.1
3.125 0.75 0.1
3.25 0.75 0.1
3.375 0.75 0.1
3.5 0.75 0.1
3.625 0.75 0.1
3.75 0.75 0.1
3.875 0.75 0.1
4 0.75 0.1
0 0.875 0.1
0.125 0.875 0.1
0.25 0.875 0.1
0.375 0.875 0.1
0.5 0.875 0.1
0.625 0.875 0.1
0.75 0.875 0.1
0.875 0.875 0.1
1 0.875 0.1
1.125 0.875 0.1
1.25 0.875 0.1
1.375 0.875 0.1
1.5 0.875 0.1
1.625 0.875 0.1
1.75 0.875 0.1
1.875 0.875 0.1
2 0.875 0.1
2.125 0.875 0.1
2.25 0.875 0.1
2.375 0.875 0.1
2.5 0.875 0.1
2.625 0.875 0.1
2.75 0.875 0.1
2.875 0.875 0.1
3 0.875 0.1
3.125 0.875 0.1
3.25 0.875 0.1
3.375 0.875 0.1
3.5 0.875 0.1
3.625 0.875 0.1
3.75 0.875 0.1
3.875 0.875 0.1
4 0.875 0.1
0 1 0.1
0.125 1 0.1
0.25 1 0.1
0.375 1 0.1
0.5 1 0.1
0.625 1 0.1
0.75 1 0.1
0.875 1 0.1
1 1 0.1
1.125 1 0.1
1.25 1 0.1
1.375 1 0.1
1.5 1 0.1
1.625 1 0.1
1.75 1 0.1
1.875 1 0.1
2 1 0.1
2.125 1 0.1
2.25 1 0.1
2.375 1 0.1
2.5 1 0.1
2.625 1 0.1
2.75 1 0.1
2.875 1 0.1
3 1 0.1
3.125 1 0.1
3.25 1 0.1
3.375 1 0.1
3.5 1 0.1
3.625 1 0.1
3.75 1 0.1
3.875 1 0.1
4 1 0.1
0 0 0.225
0.125 0 0.225
0.25 0 0.225
0.375 0 0.225
0.5 0 0.225
0.625 0 0.225
0.75 0 0.225
0.875 0 0.225
1 0 0.225
1.125 0 0.225
1.25 0 0.225
1.375 0 0.225
1.5 0 0.225
1.625 0 0.225
1.75 0 0.225
1.875 0 0.225
2 0 0.225
2.125 0 0.225
2.25 0 0.225
2.375 0 0.225
2.5 0 0.225
2.625 0 0.225
2.75 0 0.225
2.875 0 0.225
3 0 0.225
3.125 0 0.225
3.25 0 0.225
3.375 0 0.225
3.5 0 0.225
3.625 0 0.225
3.75 0 0.225
3.875 0 0.225
4 0 0.225
0 0.125 0.225
0.125 0.125 0.225
0.25 0.125 0.225
0.375 0.125 0.225
0.5 0.125 0.225
0.625 0.125 0.225
0.75 0.125 0.225
0.875 0.125 0.225
1 0.125 0.225
1.125 0.125 0.225
1.25 0.125 0.225
1.375 0.125 0.225
1.5 0.125 0.225
1.625 0.125 0.225
1.75 0.125 0.225
1.875 0.125 0.225
2 0.125 0.225
2.125 0.125 0.225
2.25 0.125 0.225
2.375 0.125 0.225
2.5 0.125 0.225
2.625 0.125 0.225
2.75 0.125 0.225
2.875 0.125 0.225
3 0.125 0.225
3.125 0.125 0.225
3.25 0.125 0.225
3.375 0.125 0.225
3.5 0.125 0.225
3.625 0.125 0.225
3.75 0.125 0.225
3.875 0.125 0.225
4 0.125 0.225
0 0.25 0.225
0.125 0.25 0.225
0.25 0.25 0.225
0.375 0.25 0.225
0.5 0.25 0.225
0.625 0.25 0.225
0.75 0.25 0.225
0.875 0.25 0.225
1 0.25 0.225
1.125 0.25 0.225
1.25 0.25 0.225
1.375 0.25 0.225
1.5 0.25 0.225
1.625 0.25 0.225
1.75 0.25 0.225
1.875 0.25 0.225
2 0.25 0.225
2.125 0.25 0.225
2.25 0.25 0.225
2.375 0.25 0.225
2.5 0.25 0.225
2.625 0.25 0.225
2.75 0.25 0.225
2.875 0.25 0.225
3 0.25 0.225
3.125 0.25 0.225
3.25 0.25 0.225
3.375 0.25 0.225
3.5 0.25 0.225
3.625 0.25 0.225
3.75 0.25 0.225
3.875 0.25 0.225
4 0.25 0.225
0 0.375 0.225
0.125 0.375 0.225
0.25 0.375 0.225
0.375 0.375 0.225
0.5 0.375 0.225
0.625 0.375 0.225
0.75 0.375 0.225
0.875 0.375 0.225
1 0.375 0.225
1.125 0.375 0.225
1.25 0.375 0.225
1.375 0.375 0.225
1.5 0.375 0.225
1.625 0.375 0.225
1.75 0.375 0.225
1.875 0.375 0.225
2 0.375 0.225
2.125 0.375 0.225
2.25 0.375 0.225
2.375 0.375 0.225
2.5 0.375 0.225
2.625 0.375 0.225
2.75 0.375 0.225
2.875 0.375 0.225
3 0.375 0.225
3.125 0.375 0.225
3.25 0.375 0.225
3.375 0.375 0.225
3.5 0.375 0.225
3.625 0.375 0.225
3.75 0.375 0.225
3.875 0.375 0.225
4 0.375 0.225
0 0.5 0.225
0.125 0.5 0.225
0.25 0.5 0.225
0.375 0.5 0.225
0.5 0.5 0.225
0.625 0.5 0.225
0.75 0.5 0.225
0.875 0.5 0.225
1 0.5 0.225
1.125 0.5 0.225
1.25 0.5 0.225
1.375 0.5 0.225
1.5 0.5 0.225
1.625 0.5 0.225
1.75 0.5 0.225
1.875 0.5 0.225
2 0.5 0.225
2.125 0.5 0.225
2.25 0.5 0.225
2.375 0.5 0.225
2.5 0.5 0.225
2.625 0.5 0.225
2.75 0.5 0.225
2.875 0.5 0.225
3 0.5 0.225
3.125 0.5 0.225
3.25 0.5 0.225
3.375 0.5 0.225
3.5 0.5 0.225
3.625 0.5 0.225
3.75 0.5 0.225
3.875 0.5 0.225
4 0.5 0.225
0 0.625 0.225
0.125 0.625 0.225
0.25 0.625 0.225
0.375 0.625 0.225
0.5 0.625 0.225
0.625 0.625 0.225
0.75 0.625 0.225
0.875 0.625 0.225
1 0.625 0.225
1.125 0.625 0.225
1.25 0.625 0.225
1.375 0.625 0.225
1.5 0.625 0.225
1.625 0.625 0.225
1.75 0.625 0.225
1.875 0.625 0.225
2 0.625 0.225
2.125 0.625 0.225
2.25 0.625 0.225
2.375 0.625 0.225
2.5 0.625 0.225
2.625 0.625 0.225
2.75 0.625 0.225
2.875 0.625 0.225
3 0.625 0.225
3.125 0.625 0.225
3.25 0.625 0.225
3.375 0.625 0.225
3.5 0.625 0.225
3.625 0.625 0.225
3.75 0.625 0.225
3.875 0.625 0.225
4 0.625 0.225
0 0.75 0.225
0.125 0.75 0.225
0.25 0.75 0.225
0.375 0.75 0.225
0.5 0.75 0.225
0.625 0.75 0.225
0.75 0.75 0.225
0.875 0.75 0.225
1 0.75 0.225
1.125 0.75 0.225
1.25 0.75 0.225
1.375 0.75 0.225
1.5 0.75 0.225
1.625 0.75 0.225
1.75 0.75 0.225
1.875 0.75 0.225
2 0.75 0.225
2.125 0.75 0.225
2.25 0.75 0.225
2.375 0.75 0.225
2.5 0.75 0.225
2.625 0.75 0.225
2.75 0.75 0.225
2.875 0.75 0.225
3 0.75 0.225
3.125 0.75 0.225
3.25 0.75 0.225
3.375 0.75 0.225
3.5 0.75 0.225
3.625 0.75 0.225
3.75 0.75 0.225
3.875 0.75 0.225
4 0.75 0.225
0 0.875 0.225
0.125 0.875 0.225
0.25 0.875 0.225
0.375 0.875 0.225
0.5 0.875 0.225
0.625 0.875 0.225
0.75 0.875 0.225
0.875 0.875 0.225
1 0.875 0.225
1.125 0.875 0.225
1.25 0.875 0.225
1.375 0.875 0.225
1.5 0.875 0.225
1.625 0.875 0.225
1.75 0.875 0.225
1.875 0.875 0.225
2 0.875 0.225
2.125 0.875 0.225
2.25 0.875 0.225
2.375 0.875 0.225
2.5 0.875 0.225
2.625 0.875 0.225
2.75 0.875 0.225
2.875 0.875 0.225
3 0.875 0.225
3.125 0.875 0.225
3.25 0.875 0.225
3.375 0.875 0.225
3.5 0.875 0.225
3.625 0.875 0.225
3.75 0.875 0.225
3.875 0.875 0.225
4 0.875 0.225
0 1 0.225
0.125 1 0.225
0.25 1 0.225
0.375 1 0.225
0.5 1 0.225
0.625 1 0.225
0.75 1 0.225
0.875 1 0.225
1 1 0.225
1.125 1 0.225
1.25 1 0.225
1.375 1 0.225
1.5 1 0.225
1.625 1 0.225
1.75 1 0.225
1.875 1 0.225
2 1 0.225
2.125 1 0.225
2.25 1 0.225
2.375 1 0.225
2.5 1 0.225
2.625 1 0.225
2.75 1 0.225
2.875 1 0.225
3 1 0.225
3.125 1 0.225
3.25 1 0.225
3.375 1 0.225
3.5 1 0.225
3.625 1 0.225
3.75 1 0.225
3.875 1 0.225
4 1 0.225
0 0 0.35
0.125 0 0.35
0.25 0 0.35
0.375 0 0.35
0.5 0 0.35
0.625 0 0.35
0.75 0 0.35
0.875 0 0.35
1 0 0.35
1.125 0 0.35
1.25 0 0.35
1.375 0 0.35
1.5 0 0.35
1.625 0 0.35
1.75 0 0.35
1.875 0 0.35
2 0 0.35
2.125 0 0.35
2.25 0 0.35
2.375 0 0.35
2.5 0 0.35
2.625 0 0.35
2.75 0 0.35
2.875 0 0.35
3 0 0.35
3.125 0 0.35
3.25 0 0.35
3.375 0 0.35
3.5 0 0.35
3.625 0 0.35
3.75 0 0.35
3.875 0 0.35
4 0 0.35
0 0.125 0.35
0.125 0.125 0.35
0.25 0.125 0.35
0.375 0.125 0.35
0.5 0.125 0.35
0.625 0.125 0.35
0.75 0.125 0.35
0.875 0.125 0.35
1 0.125 0.35
1.125 0.125 0.35
1.25 0.125 0.35
1.375 0.125 0.35
1.5 0.125 0.35
1.625 0.125 0.35
1.75 0.125 0.35
1.875 0.125 0.35
2 0.125 0.35
2.125 0.125 0.35
2.25 0.125 0.35
2.375 0.125 0.35
2.5 0.125 0.35
2.625 0.125 0.35
2.75 0.125 0.35
2.875 0.125 0.35
3 0.125 0.35
3.125 0.125 0.35
3.25 0.125 0.35
3.375 0.125 0.35
3.5 0.125 0.35
3.625 0.125 0.35
3.75 0.125 0.35
3.875 0.125 0.35
4 0.125 0.35
0 0.25 0.35
0.125 0.25 0.35
0.25 0.25 0.35
0.375 0.25 0.35
0.5 0.25 0.35
0.625 0.25 0.35
0.75 0.25 0.35
0.875 0.25 0.35
1 0.25 0.35
1.125 0.25 0.35
1.25 0.25 0.35
1.375 0.25 0.35
1.5 0.25 0.35
1.625 0.25 0.35
1.75 0.25 0.35
1.875 0.25 0.35
2 0.25 0.35
2.125 0.25 0.35
2.25 0.25 0.35
2.375 0.25 0.35
2.5 0.25 0.35
2.625 0.25 0.35
2.75 0.25 0.35
2.875 0.25 0.35
3 0.25 0.35
3.125 0.25 0.35
3.25 0.25 0.35
3.375 0.25 0.35
3.5 0.25 0.35
3.625 0.25 0.35
3.75 0.25 0.35
3.875 0.25 0.35
4 0.25 0.35
0 0.375 0.35
0.125 0.375 0.35
0.25 0.375 0.35
0.375 0.375 0.35
0.5 0.375 0.35
0.625 0.375 0.35
0.75 0.375 0.35
0.875 0.375 0.35
1 0.375 0.35
1.125 0.375 0.35
1.25 0.375 0.35
1.375 0.375 0.35
1.5 0.375 0.35
1.625 0.375 0.35
1.75 0.375 0.35
1.875 0.375 0.35
2 0.375 0.35
2.125 0.375 0.35
2.25 0.375 0.35
2.375 0.375 0.35
2.5 0.375 0.35
2.625 0.375 0.35
2.75 0.375 0.35
2.875 0.375 0.35
3 0.375 0.35
3.125 0.375 0.35
3.25 0.375 0.35
3.375 0.375 0.35
3.5 0.375 0.35
3.625 0.375 0.35
3.75 0.375 0.35
3.875 0.375 0.35
4 0.375 0.35
0 0.5 0.35
0.125 0.5 0.35
0.25 0.5 0.35
0.375 0.5 0.35
0.5 0.5 0.35
0.625 0.5 0.35
0.75 0.5 0.35
0.875 0.5 0.35
1 0.5 0.35
1.125 0.5 0.35
1.25 0.5 0.35
1.375 0.5 0.35
1.5 0.5 0.35
1.625 0.5 0.35
1.75 0.5 0.35
1.875 0.5 0.35
2 0.5 0.35
2.125 0.5 0.35
2.25 0.5 0.35
2.375 0.5 0.35
2.5 0.5 0.35
2.625 0.5 0.35
2.75 0.5 0.35
2.875 0.5 0.35
3 0.5 0.35
3.125 0.5 0.35
3.25 0.5 0.35
3.375 0.5 0.35
3.5 0.5 0.35
3.625 0.5 0.35
3.75 0.5 0.35
3.875 0.5 0.35
4 0.5 0.35
0 0.625 0.35
0.125 0.625 0.35
0.25 0.625 0.35
0.375 0.625 0.35
0.5 0.625 0.35
0.625 0.625 0.35
0.75 0.625 0.35
0.875 0.625 0.35
1 0.625 0.35
1.125 0.625 0.35
1.25 0.625 0.35
1.375 0.625 0.35
1.5 0.625 0.35
1.625 0.625 0.35
1.75 0.625 0.35
1.875 0.625 0.35
2 0.625 0.35
2.125 0.625 0.35
2.25 0.625 0.35
2.375 0.625 0.35
2.5 0.625 0.35
2.625 0.625 0.35
2.75 0.625 0.35
2.875 0.625 0.35
3 0.625 0.35
3.125 0.625 0.35
3.25 0.625 0.35
3.375 0.625 0.35
3.5 0.625 0.35
3.625 0.625 0.35
3.75 0.625 0.35
3.875 0.625 0.35
4 0.625 0.35
0 0.75 0.35
0.125 0.75 0.35
0.25 0.75 0.35
0.375 0.75 0.35
0.5 0.75 0.35
0.625 0.75 0.35
0.75 0.75 0.35
0.875 0.75 0.35
1 0.75 0.35
1.125 0.75 0.35
1.25 0.75 0.35
1.375 0.75 0.35
1.5 0.75 0.35
1.625 0.75 0.35
1.75 0.75 0.35
1.875 0.75 0.35
2 0.75 0.35
2.125 0.75 0.35
2.25 0.75 0.35
2.375 0.75 0.35
2.5 0.75 0.35
2.625 0.75 0.35
2.75 0.75 0.35
2.875 0.75 0.35
3 0.75 0.35
3.125 0.75 0.35
3.25 0.75 0.35
3.375 0.75 0.35
3.5 0.75 0.35
3.625 0.75 0.35
3.75 0.75 0.35
3.875 0.75 0.35
4 0.75 0.35
0 0.875 0.35
0.125 0.875 0.35
0.25 0.875 0.35
0.375 0.875 0.35
0.5 0.875 0.35
0.625 0.875 0.35
0.75 0.875 0.35
0.875 0.875 0.35
1 0.875 0.35
1.125 0.875 0.35
1.25 0.875 0.35
1.375 0.875 0.35
1.5 0.875 0.35
1.625 0.875 0.35
1.75 0.875 0.35
1.875 0.875 0.35
2 0.875 0.35
2.125 0.875 0.35
2.25 0.875 0.35
2.375 0.875 0.35
2.5 0.875 0.35
2.625 0.875 0.35
2.75 0.875 0.35
2.875 0.875 0.35
3 0.875 0.35
3.125 0.875 0.35
3.25 0.875 0.35
3.375 0.875 0.35
3.5 0.875 0.35
3.625 0.875 0.35
3.75 0.875 0.35
3.875 0.875 0.35
4 0.875 0.35
0 1 0.35
0.125 1 0.35
0.25 1 0.35
0.375 1 0.35
0.5 1 0.35
0.625 1 0.35
0.75 1 0.35
0.875 1 0.35
1 1 0.35
1.125 1 0.35
1.25 1 0.35
1.375 1 0.35
1.5 1 0.35
1.625 1 0.35
1.75 1 0.35
1.875 1 0.35
2 1 0.35
2.125 1 0.35
2.25 1 0.35
2.375 1 0.35
2.5 1 0.35
2.625 1 0.35
2.75 1 0.35
2.875 1 0.35
3 1 0.35
3.125 1 0.35
3.25 1 0.35
3.375 1 0.35
3.5 1 0.35
3.625 1 0.35
3.75 1 0.35
3.875 1 0.35
4 1 0.35
0 0 0.475
0.125 0 0.475
0.25 0 0.475
0.375 0 0.475
0.5 0 0.475
0.625 0 0.475
0.75 0 0.475
0.875 0 0.475
1 0 0.475
1.125 0 0.475
1.25 0 0.475
1.375 0 0.475
1.5 0 0.475
1.625 0 0.475
1.75 0 0.475
1.875 0 0.475
2 0 0.475
2.125 0 0.475
2.25 0 0.475
2.375 0 0.475
2.5 0 0.475
2.625 0 0.475
2.75 0 0.475
2.875 0 0.475
3 0 0.475
3.125 0 0.475
3.25 0 0.475
3.375 0 0.475
3.5 0 0.475
3.625 0 0.475
3.75 0 0.475
3.875 0 0.475
4 0 0.475
0 0.125 0.475
0.125 0.125 0.475
0.25 0.125 0.475
0.375 0.125 0.475
0.5 0.125 0.475
0.625 0.125 0.475
0.75 0.125 0.475
0.875 0.125 0.475
1 0.125 0.475
1.125 0.125 0.475
1.25 0.125 0.475
1.375 0.125 0.475
1.5 0.125 0.475
1.625 0.125 0.475
1.75 0.125 0.475
1.875 0.125 0.475
2 0.125 0.475
2.125 0.125 0.475
2.25 0.125 0.475
2.375 0.125 0.475
2.5 0.125 0.475
2.625 0.125 0.475
2.75 0.125 0.475
2.875 0.125 0.475
3 0.125 0.475
3.125 0.125 0.475
3.25 0.125 0.475
3.375 0.125 0.475
3.5 0.125 0.475
3.625 0.125 0.475
3.75 0.125 0.475
3.875 0.125 0.475
4 0.125 0.475
0 0.25 0.475
0.125 0.25 0.475
0.25 0.25 0.475
0.375 0.25 0.475
0.5 0.25 0.475
0.625 0.25 0.475
0.75 0.25 0.475
0.875 0.25 0.475
1 0.25 0.475
1.125 0.25 0.475
1.25 0.25 0.475
1.375 0.25 0.475
1.5 0.25 0.475
1.625 0.25 0.475
1.75 0.25 0.475
1.875 0.25 0.475
2 0.25 0.475
2.125 0.25 0.475
2.25 0.25 0.475
2.375 0.25 0.475
2.5 0.25 0.475
2.625 0.25 0.475
2.75 0.25 0.475
2.875 0.25 0.475
3 0.25 0.475
3.125 0.25 0.475
3.25 0.25 0.475
3.375 0.25 0.475
3.5 0.25 0.475
3.625 0.25 0.475
3.75 0.25 0.475
3.875 0.25 0.475
4 0.25 0.475
0 0.375 0.475
0.125 0.375 0.475
0.25 0.375 0.475
0.375 0.375 0.475
0.5 0.375 0.475
0.625 0.375 0.475
0.75 0.375 0.475
0.875 0.375 0.475
1 0.375 0.475
1.125 0.375 0.475
1.25 0.375 0.475
1.375 0.375 0.475
1.5 0.375 0.475
1.625 0.375 0.475
1.75 0.375 0.475
1.875 0.375 0.475
2 0.375 0.475
2.125 0.375 0.475
2.25 0.375 0.475
2.375 0.375 0.475
2.5 0.375 0.475
2.625 0.375 0.475
2.75 0.375 0.475
2.875 0.375 0.475
3 0.375 0.475
3.125 0.375 0.475
3.25 0.375 0.475
3.375 0.375 0.475
3.5 0.375 0.475
3.625 0.375 0.475
3.75 0.375 0.475
3.875 0.375 0.475
4 0.375 0.475
0 0.5 0.475
0.125 0.5 0.475
0.25 0.5 0.475
0.375 0.5 0.475
0.5 0.5 0.475
0.625 0.5 0.475
0.75 0.5 0.475
0.875 0.5 0.475
1 0.5 0.475
1.125 0.5 0.475
1.25 0.5 0.475
1.375 0.5 0.475
1.5 0.5 0.475
1.625 0.5 0.475
1.75 0.5 0.475
1.875 0.5 0.475
2 0.5 0.475
2.125 0.5 0.475
2.25 0.5 0.475
2.375 0.5 0.475
2.5 0.5 0.475
2.625 0.5 0.475
2.75 0.5 0.475
2.875 0.5 0.475
3 0.5 0.475
3.125 0.5 0.475
3.25 0.5 0.475
3.375 0.5 0.475
3.5 0.5 0.475
3.625 0.5 0.475
3.75 0.5 0.475
3.875 0.5 0.475
4 0.5 0.475
0 0.625 0.475
0.125 0.625 0.475
0.25 0.625 0.475
0.375 0.625 0.475
0.5 0.625 0.475
0.625 0.625 0.475
0.75 0.625 0.475
0.875 0.625 0.475
1 0.625 0.475
1.125 0.625 0.475
1.25 0.625 0.475
1.375 0.625 0.475
1.5 0.625 0.475
1.625 0.625 0.475
1.75 0.625 0.475
1.875 0.625 0.475
2 0.625 0.475
2.125 0.625 0.475
2.25 0.625 0.475
2.375 0.625 0.475
2.5 0.625 0.475
2.625 0.625 0.475
2.75 0.625 0.475
2.875 0.625 0.475
3 0.625 0.475
3.125 0.625 0.475
3.25 0.625 0.475
3.375 0.625 0.475
3.5 0.625 0.475
3.625 0.625 0.475
3.75 0.625 0.475
3.875 0.625 0.475
4 0.625 0.475
0 0.75 0.475
0.125 0.75 0.475
0.25 0.75 0.475
0.375 0.75 0.475
0.5 0.75 0.475
0.625 0.75 0.475
0.75 0.75 0.475
0.875 0.75 0.475
1 0.75 0.475
1.125 0.75 0.475
1.25 0.75 0.475
1.375 0.75 0.475
1.5 0.75 0.475
1.625 0.75 0.475
1.75 0.75 0.475
1.875 0.75 0.475
2 0.75 0.475
2.125 0.75 0.475
2.25 0.75 0.475
2.375 0.75 0.475
2.5 0.75 0.475
2.625 0.75 0.475
2.75 0.75 0.475
2.875 0.75 0.475
3 0.75 0.475
3.125 0.75 0.475
3.25 0.75 0.475
3.375 0.75 0.475
3.5 0.75 0.475
3.625 0.75 0.475
3.75 0.75 0.475
3.875 0.75 0.475
4 0.75 0.475
0 0.875 0.475
0.125 0.875 0.475
0.25 0.875 0.475
0.375 0.875 0.475
0.5 0.875 0.475
0.625 0.875 0.475
0.75 0.875 0.475
0.875 0.875 0.475
1 0.875 0.475
1.125 0.875 0.475
1.25 0.875 0.475
1.375 0.875 0.475
1.5 0.875 0.475
1.625 0.875 0.475
1.75 0.875 0.475
1.875 0.875 0.475
2 0.875 0.475
2.125 0.875 0.475
2.25 0.875 0.475
2.375 0.875 0.475
2.5 0.875 0.475
2.625 0.875 0.475
2.75 0.875 0.475
2.875 0.875 0.475
3 0.875 0.475
3.125 0.875 0.475
3.25 0.875 0.475
3.375 0.875 0.475
3.5 0.875 0.475
3.625 0.875 0.475
3.75 0.875 0.475
3.875 0.875 0.475
4 0.875 0.475
0 1 0.475
0.125 1 0.475
0.25 1 0.475
0.375 1 0.475
0.5 1 0.475
0.625 1 0.475
0.75 1 0.475
0.875 1 0.475
1 1 0.475
1.125 1 0.475
1.25 1 0.475
1.375 1 0.475
1.5 1 0.475
1.625 1 0.475
1.75 1 0.475
1.875 1 0.475
2 1 0.475
2.125 1 0.475
2.25 1 0.475
2.375 1 0.475
2.5 1 0.475
2.625 1 0.475
2.75 1 0.475
2.875 1 0.475
3 1 0.475
3.125 1 0.475
3.25 1 0.475
3.375 1 0.475
3.5 1 0.475
3.625 1 0.475
3.75 1 0.475
3.875 1 0.475
4 1 0.475
0 0 0.6
0.125 0 0.6
0.25 0 0.6
0.375 0 0.6
0.5 0 0.6
0.625 0 0.6
0.75 0 0.6
0.875 0 0.6
1 0 0.6
1.125 0 0.6
1.25 0 0.6
1.375 0 0.6
1.5 0 0.6
1.625 0 0.6
1.75 0 0.6
1.875 0 0.6
2 0 0.6
2.125 0 0.6
2.25 0 0.6
2.375 0 0.6
2.5 0 0.6
2.625 0 0.6
2.75 0 0.6
2.875 0 0.6
3 0 0.6
3.125 0 0.6
3.25 0 0.6
3.375 0 0.6
3.5 0 0.6
3.625 0 0.6
3.75 0 0.6
3.875 0 0.6
4 0 0.6
0 0.125 0.6
0.125 0.125 0.6
0.25 0.125 0.6
0.375 0.125 0.6
0.5 0.125 0.6
0.625 0.125 0.6
0.75 0.125 0.6
0.875 0.125 0.6
1 0.125 0.6
1.125 0.125 0.6
1.25 0.125 0.6
1.375 0.125 0.6
1.5 0.125 0.6
1.625 0.125 0.6
1.75 0.125 0.6
1.875 0.125 0.6
2 0.125 0.6
2.125 0.125 0.6
2.25 0.125 0.6
2.375 0.125 0.6
2.5 0.125 0.6
2.625 0.125 0.6
2.75 0.125 0.6
2.875 0.125 0.6
3 0.125 0.6
3.125 0.125 0.6
3.25 0.125 0.6
3.375 0.125 0.6
3.5 0.125 0.6
3.625 0.125 0.6
3.75 0.125 0.6
3.875 0.125 0.6
4 0.125 0.6
0 0.25 0.6
0.125 0.25 0.6
0.25 0.25 0.6
0.375 0.25 0.6
0.5 0.25 0.6
0.625 0.25 0.6
0.75 0.25 0.6
0.875 0.25 0.6
1 0.25 0.6
1.125 0.25 0.6
1.25 0.25 0.6
1.375 0.25 0.6
1.5 0.25 0.6
1.625 0.25 0.6
1.75 0.25 0.6
1.875 0.25 0.6
2 0.25 0.6
2.125 0.25 0.6
2.25 0.25 0.6
2.375 0.25 0.6
2.5 0.25 0.6
2.625 0.25 0.6
2.75 0.25 0.6
2.875 0.25 0.6
3 0.25 0.6
3.125 0.25 0.6
3.25 0.25 0.6
3.375 0.25 0.6
3.5 0.25 0.6
3.625 0.25 0.6
3.75 0.25 0.6
3.875 0.25 0.6
4 0.25 0.6
0 0.375 0.6
0.125 0.375 0.6
0.25 0.375 0.6
0.375 0.375 0.6
0.5 0.375 0.6
0.625 0.375 0.6
0.75 0.375 0.6
0.875 0.375 0.6
1 0.375 0.6
1.125 0.375 0.6
1.25 0.375 0.6
1.375 0.375 0.6
1.5 0.375 0.6
1.625 0.375 0.6
1.75 0.375 0.6
1.875 0.375 0.6
2 0.375 0.6
2.125 0.375 0.6
2.25 0.375 0.6
2.375 0.375 0.6
2.5 0.375 0.6
2.625 0.375 0.6
2.75 0.375 0.6
2.875 0.375 0.6
3 0.375 0.6
3.125 0.375 0.6
3.25 0.375 0.6
3.375 0.375 0.6
3.5 0.375 0.6
3.625 0.375 0.6
3.75 0.375 0.6
3.875 0.375 0.6
4 0.375 0.6
0 0.5 0.6
0.125 0.5 0.6
0.25 0.5 0.6
0.375 0.5 0.6
0.5 0.5 0.6
0.625 0.5 0.6
0.75 0.5 0.6
0.875 0.5 0.6
1 0.5 0.6
1.125 0.5 0.6
1.25 0.5 0.6
1.375 0.5 0.6
1.5 0.5 0.6
1.625 0.5 0.6
1.75 0.5 0.6
1.875 0.5 0.6
2 0.5 0.6
2.125 0.5 0.6
2.25 0.5 0.6
2.375 0.5 0.6
2.5 0.5 0.6
2.625 0.5 0.6
2.75 0.5 0.6
2.875 0.5 0.6
3 0.5 0.6
3.125 0.5 0.6
3.25 0.5 0.6
3.375 0.5 0.6
3.5 0.5 0.6
3.625 0.5 0.6
3.75 0.5 0.6
3.875 0.5 0.6
4 0.5 0.6
0 0.625 0.6
0.125 0.625 0.6
0.25 0.625 0.6
0.375 0.625 0.6
0.5 0.625 0.6
0.625 0.625 0.6
0.75 0.625 0.6
0.875 0.625 0.6
1 0.625 0.6
1.125 0.625 0.6
1.25 0.625 0.6
1.375 0.625 0.6
1.5 0.625 0.6
1.625 0.625 0.6
1.75 0.625 0.6
1.875 0.625 0.6
2 0.625 0.6
2.125 0.625 0.6
2.25 0.625 0.6
2.375 0.625 0.6
2.5 0.625 0.6
2.625 0.625 0.6
2.75 0.625 0.6
2.875 0.625 0.6
3 0.625 0.6
3.125 0.625 0.6
3.25 0.625 0.6
3.375 0.625 0.6
3.5 0.625 0.6
3.625 0.625 0.6
3.75 0.625 0.6
3.875 0.625 0.6
4 0.625 0.6
0 0.75 0.6
0.125 0.75 0.6
0.25 0.75 0.6
0.375 0.75 0.6
0.5 0.75 0.6
0.625 0.75 0.6
0.75 0.75 0.6
0.875 0.75 0.6
1 0.75 0.6
1.125 0.75 0.6
1.25 0.75 0.6
1.375 0.75 0.6
1.5 0.75 0.6
1.625 0.75 0.6
1.75 0.75 0.6
1.875 0.75 0.6
2 0.75 0.6
2.125 0.75 0.6
2.25 0.75 0.6
2.375 0.75 0.6
2.5 0.75 0.6
2.625 0.75 0.6
2.75 0.75 0.6
2.875 0.75 0.6
3 0.75 0.6
3.125 0.75 0.6
3.25 0.75 0.6
3.375 0.75 0.6
3.5 0.75 0.6
3.625 0.75 0.6
3.75 0.75 0.6
3.875 0.75 0.6
4 0.75 0.6
0 0.875 0.6
0.125 0.875 0.6
0.25 0.875 0.6
0.375 0.875 0.6
0.5 0.875 0.6
0.625 0.875 0.6
0.75 0.875 0.6
0.875 0.875 0.6
1 0.875 0.6
1.125 0.875 0.6
1.25 0.875 0.6
1.375 0.875 0.6
1.5 0.875 0.6
1.625 0.875 0.6
1.75 0.875 0.6
1.875 0.875 0.6
2 0.875 0.6
2.125 0.875 0.6
2.25 0.875 0.6
2.375 0.875 0.6
2.5 0.875 0.6
2.625 0.875 0.6
2.75 0.875 0.6
2.875 0.875 0.6
3 0.875 0.6
3.125 0.875 0.6
3.25 0.875 0.6
3.375 0.875 0.6
3.5 0.875 0.6
3.625 0.875 0.6
3.75 0.875 0.6
3.875 0.875 0.6
4 0.875 0.6
0 1 0.6
0.125 1 0.6
0.25 1 0.6
0.375 1 0.6
0.5 1 0.6
0.625 1 0.6
0.75 1 0.6
0.875 1 0.6
1 1 0.6
1.125 1 0.6
1.25 1 0.6
1.375 1 0.6
1.5 1 0.6
1.625 1 0.6
1.75 1 0.6
1.875 1 0.6
2 1 0.6
2.125 1 0.6
2.25 1 0.6
2.375 1 0.6
2.5 1 0.6
2.625 1 0.6
2.75 1 0.6
2.875 1 0.6
3 1 0.6
3.125 1 0.6
3.25 1 0.6
3.375 1 0.6
3.5 1 0.6
3.625 1 0.6
3.75 1 0.6
3.875 1 0.6
4 1 0.6

CELLS 12289 49152
OFFSETS vtktypeint64
0 4 8 12 16 20 24 28 32 36 40 44 48 52 56 60 64 68 72 76 80 84 88 92 96 100 104 108 112 116 120 124 128 132 136 140 144 148 152 156 160 164 168 172 176 180 184 188 192 196 200 204 208 212 216 220 224 228 232 236 240 244 248 252 256 260 264 268 272 276 280 284 288 292 296 300 304 308 312 316 320 324 328 332 336 340 344 348 352 356 360 364 368 372 376 380 384 388 392 396 400 404 408 412 416 420 424 428 432 436 440 444 448 452 456 460 464 468 472 476 480 484 488 492 496 500 504 508 512 516 520 524 528 532 536 540 544 548 552 556 560 564 568 572 576 580 584 588 592 596 600 604 608 612 616 620 624 628 632 636 640 644 648 652 656 660 664 668 672 676 680 684 688 692 696 700 704 708 712 716 720 724 728 732 736 740 744 748 752 756 760 764 768 772 776 780 784 788 792 796 800 804 808 812 816 820 824 828 832 836 840 844 848 852 856 860 864 868 872 876 880 884 888 892 896 900 904 908 912 916 920 924 928 932 936 940 944 948 952 956 960 964 968 972 976 980 984 988 992 996 1000 1004 1008 1012 1016 1020 1024 1028 1032 1036 1040 1044 1048 1052 1056 1060 1064 1068 1072 1076 1080 1084 1088 1092 1096 1100 1104 1108 1112 1116 1120 1124 1128 1132 1136 1140 1144 1148 1152 1156 1160 1164 1168 1172 1176 1180 1184 1188 1192 1196 1200 1204 1208 1212 1216 1220 1224 1228 1232 1236 1240 1244 1248 1252 1256 1260 1264 1268 1272 1276 1280 1284 1288 1292 1296 1300 1304 1308 1312 1316 1320 1324 1328 1332 1336 1340 1344 1348 1352 1356 1360 1364 1368 1372 1376 1380 1384 1388 1392 1396 1400 1404 1408 1412 1416 1420 1424 1428 1432 1436 1440 1444 1448 1452 1456 1460 1464 1468 1472 1476 1480 1484 1488 1492 1496 1500 1504 1508 1512 1516 1520 1524 1528 1532 1536 1540 1544 1548 1552 1556 1560 1564 1568 1572 1576 1580 1584 1588 1592 1596 1600 1604 1608 1612 1616 1620 1624 1628 1632 1636 1640 1644 1648 1652 1656 1660 1664 1668 1672 1676 1680 1684 1688 1692 1696 1700 1704 1708 1712 1716 1720 1724 1728 1732 1736 1740 1744 1748 1752 1756 1760 1764 1768 1772 1776 1780 1784 1788 1792 1796 1800 1804 1808 1812 1816 1820 1824 1828 1832 1836 1840 1844 1848 1852 1856 1860 1864 1868 1872 1876 1880 1884 1888 1892 1896 1900 1904 1908 1912 1916 1920 1924 1928 1932 1936 1940 1944 1948 1952 1956 1960 1964 1968 1972 1976 1980 1984 1988 1992 1996 2000 2004 2008 2012 2016 2020 2024 2028 2032 2036 2040 2044 2048 2052 2056 2060 2064 2068 2072 2076 2080 2084 2088 2092 2096 2100 2104 2108 2112 2116 2120 2124 2128 2132 2136 2140 2144 2148 2152 2156 2160 2164 2168 2172 2176 2180 2184 2188 2192 2196 2200 2204 2208 2212 2216 2220 2224 2228 2232 2236 2240 2244 2248 2252 2256 2260 2264 2268 2272 2276 2280 2284 2288 2292 2296 2300 2304 2308 2312 2316 2320 2324 2328 2332 2336 2340 2344 2348 2352 2356 2360 2364 2368 2372 2376 2380 2384 2388 2392 2396 2400 2404 2408 2412 2416 2420 2424 2428 2432 2436 2440 2444 2448 2452 2456 2460 2464 2468 2472 2476 2480 2484 2488 2492 2496 2500 2504 2508 2512 2516 2520 2524 2528 2532 2536 2540 2544 2548 2552 2556 2560 2564 2568 2572 2576 2580 2584 2588 2592 2596 2600 2604 2608 2612 2616 2620 2624 2628 2632 2636 2640 2644 2648 2652 2656 2660 2664 2668 2672 2676 2680 2684 2688 2692 2696 2700 2704 2708 2712 2716 2720 2724 2728 2732 2736 2740 2744 2748 2752 2756 2760 2764 2768 2772 2776 2780 2784 2788 2792 2796 2800 2804 2808 2812 2816 2820 2824 2828 2832 2836 2840 2844 2848 2852 2856 2860 2864 2868 2872 2876 2880 2884 2888 2892 2896 2900 2904 2908 2912 2916 2920 2924 2928 2932 2936 2940 2944 2948 2952 2956 2960 2964 2968 2972 2976 2980 2984 2988 2992 2996 3000 3004 3008 3012 3016 3020 3024 3028 3032 3036 3040 3044 3048 3052 3056 3060 3064 3068 3072 3076 3080 3084 3088 3092 3096 3100 3104 3108 3112 3116 3120 3124 3128 3132 3136 3140 3144 3148 3152 3156 3160 3164 3168 3172 3176 3180 3184 3188 3192 3196 3200 3204 3208 3212 3216 3220 3224 3228 3232 3236 3240 3244 3248 3252 3256 3260 3264 3268 3272 3276 3280 3284 3288 3292 3296 3300 3304 3308 3312 3316 3320 3324 3328 3332 3336 3340 3344 3348 3352 3356 3360 3364 3368 3372 3376 3380 3384 3388 3392 3396 3400 3404 3408 3412 3416 3420 3424 3428 3432 3436 3440 3444 3448 3452 3456 3460 3464 3468 3472 3476 3480 3484 3488 3492 3496 3500 3504 3508 3512 3516 3520 3524 3528 3532 3536 3540 3544 3548 3552 3556 3560 3564 3568 3572 3576 3580 3584 3588 3592 3596 3600 3604 3608 3612 3616 3620 3624 3628 3632 3636 3640 3644 3648 3652 3656 3660 3664 3668 3672 3676 3680 3684 3688 3692 3696 3700 3704 3708 3712 3716 3720 3724 3728 3732 3736 3740 3744 3748 3752 3756 3760 3764 3768 3772 3776 3780 3784 3788 3792 3796 3800 3804 3808 3812 3816 3820 3824 3828 3832 3836 3840 3844 3848 3852 3856 3860 3864 3868 3872 3876 3880 3884 3888 3892 3896 3900 3904 3908 3912 3916 3920 3924 3928 3932 3936 3940 3944 3948 3952 3956 3960 3964 3968 3972 3976 3980 3984 3988 3992 3996 4000 4004 4008 4012 4016 4020 4024 4028 4032 4036 4040 4044 4048 4052 4056 4060 4064 4068 4072 4076 4080 4084 4088 4092 4096 4100 4104 4108 4112 4116 4120 4124 4128 4132 4136 4140 4144 4148 4152 4156 4160 4164 4168 4172 4176 4180 4184 4188 4192 4196 4200 4204 4208 4212 4216 4220 4224 4228 4232 4236 4240 4244 4248 4252 4256 4260 4264 4268 4272 4276 4280 4284 4288 4292 4296 4300 4304 4308 4312 4316 4320 4324 4328 4332 4336 4340 4344 4348 4352 4356 4360 4364 4368 4372 4376 4380 4384 4388 4392 4396 4400 4404 4408 4412 4416 4420 4424 4428 4432 4436 4440 4444 4448 4452 4456 4460 4464 4468 4472 4476 4480 4484 4488 4492 4496 4500 4504 4508 4512 4516 4520 4524 4528 4532 4536 4540 4544 4548 4552 4556 4560 4564 4568 4572 4576 4580 4584 4588 4592 4596 4600 4604 4608 4612 4616 4620 4624 4628 4632 4636 4640 4644 4648 4652 4656 4660 4664 4668 4672 4676 4680 4684 4688 4692 4696 4700 4704 4708 4712 4716 4720 4724 4728 4732 4736 4740 4744 4748 4752 4756 4760 4764 4768 4772 4776 4780 4784 4788 4792 4796 4800 4804 4808 4812 4816 4820 4824 4828 4832 4836 4840 4844 4848 4852 4856 4860 4864 4868 4872 4876 4880 4884 4888 4892 4896 4900 4904 4908 4912 4916 4920 4924 4928 4932 4936 4940 4944 4948 4952 4956 4960 4964 4968 4972 4976 4980 4984 4988 4992 4996 5000 5004 5008 5012 5016 5020 5024 5028 5032 5036 5040 5044 5048 5052 5056 5060 5064 5068 5072 5076 5080 5084 5088 5092 5096 5100 5104 5108 5112 5116 5120 5124 5128 5132 5136 5140 5144 5148 5152 5156 5160 5164 5168 5172 5176 5180 5184 5188 5192 5196 5200 5204 5208 5212 5216 5220 5224 5228 5232 5236 5240 5244 5248 5252 5256 5260 5264 5268 5272 5276 5280 5284 5288 5292 5296 5300 5304 5308 5312 5316 5320 5324 5328 5332 5336 5340 5344 5348 5352 5356 5360 5364 5368 5372 5376 5380 5384 5388 5392 5396 5400 5404 5408 5412 5416 5420 5424 5428 5432 5436 5440 5444 5448 5452 5456 5460 5464 5468 5472 5476 5480 5484 5488 5492 5496 5500 5504 5508 5512 5516 5520 5524 5528 5532 5536 5540 5544 5548 5552 5556 5560 5564 5568 5572 5576 5580 5584 5588 5592 5596 5600 5604 5608 5612 5616 5620 5624 5628 5632 5636 5640 5644 5648 5652 5656 5660 5664 5668 5672 5676 5680 5684 5688 5692 5696 5700 5704 5708 5712 5716 5720 5724 5728 5732 5736 5740 5744 5748 5752 5756 5760 5764 5768 5772 5776 5780 5784 5788 5792 5796 5800 5804 5808 5812 5816 5820 5824 5828 5832 5836 5840 5844 5848 5852 5856 5860 5864 5868 5872 5876 5880 5884 5888 5892 5896 5900 5904 5908 5912 5916 5920 5924 5928 5932 5936 5940 5944 5948 5952 5956 5960 5964 5968 5972 5976 5980 5984 5988 5992 5996 6000 6004 6008 6012 6016 6020 6024 6028 6032 6036 6040 6044 6048 6052 6056 6060 6064 6068 6072 6076 6080 6084 6088 6092 6096 6100 6104 6108 6112 6116 6120 6124 6128 6132 6136 6140 6144 6148 6152 6156 6160 6164 6168 6172 6176 6180 6184 6188 6192 6196 6200 6204 6208 6212 6216 6220 6224 6228 6232 6236 6240 6244 6248 6252 6256 6260 6264 6268 6272 6276 6280 6284 6288 6292 6296 6300 6304 6308 6312 6316 6320 6324 6328 6332 6336 6340 6344 6348 6352 6356 6360 6364 6368 6372 6376 6380 6384 6388 6392 6396 6400 6404 6408 6412 6416 6420 6424 6428 6432 6436 6440 6444 6448 6452 6456 6460 6464 6468 6472 6476 6480 6484 6488 6492 6496 6500 6504 6508 6512 6516 6520 6524 6528 6532 6536 6540 6544 6548 6552 6556 6560 6564 6568 6572 6576 6580 6584 6588 6592 6596 6600 6604 6608 6612 6616 6620 6624 6628 6632 6636 6640 6644 6648 6652 6656 6660 6664 6668 6672 6676 6680 6684 6688 6692 6696 6700 6704 6708 6712 6716 6720 6724 6728 6732 6736 6740 6744 6748 6752 6756 6760 6764 6768 6772 6776 6780 6784 6788 6792 6796 6800 6804 6808 6812 6816 6820 6824 6828 6832 6836 6840 6844 6848 6852 6856 6860 6864 6868 6872 6876 6880 6884 6888 6892 6896 6900 6904 6908 6912 6916 6920 6924 6928 6932 6936 6940 6944 6948 6952 6956 6960 6964 6968 6972 6976 6980 6984 6988 6992 6996 7000 7004 7008 7012 7016 7020 7024 7028 7032 7036 7040 7044 7048 7052 7056 7060 7064 7068 7072 7076 7080 7084 7088 7092 7096 7100 7104 7108 7112 7116 7120 7124 7128 7132 7136 7140 7144 7148 7152 7156 7160 7164 7168 7172 7176 7180 7184 7188 7192 7196 7200 7204 7208 7212 7216 7220 7224 7228 7232 7236 7240 7244 7248 7252 7256 7260 7264 7268 7272 7276 7280 7284 7288 7292 7296 7300 7304 7308 7312 7316 7320 7324 7328 7332 7336 7340 7344 7348 7352 7356 7360 7364 7368 7372 7376 7380 7384 7388 7392 7396 7400 7404 7408 7412 7416 7420 7424 7428 7432 7436 7440 7444 7448 7452 7456 7460 7464 7468 7472 7476 7480 7484 7488 7492 7496 7500 7504 7508 7512 7516 7520 7524 7528 7532 7536 7540 7544 7548 7552 7556 7560 7564 7568 7572 7576 7580 7584 7588 7592 7596 7600 7604 7608 7612 7616 7620 7624 7628 7632 7636 7640 7644 7648 7652 7656 7660 7664 7668 7672 7676 7680 7684 7688 7692 7696 7700 7704 7708 7712 7716 7720 7724 7728 7732 7736 7740 7744 7748 7752 7756 7760 7764 7768 7772 7776 7780 7784 7788 7792 7796 7800 7804 7808 7812 7816 7820 7824 7828 7832 7836 7840 7844 7848 7852 7856 7860 7864 7868 7872 7876 7880 7884 7888 7892 7896 7900 7904 7908 7912 7916 7920 7924 7928 7932 7936 7940 7944 7948 7952 7956 7960 7964 7968 7972 7976 7980 7984 7988 7992 7996 8000 8004 8008 8012 8016 8020 8024 8028 8032 8036 8040 8044 8048 8052 8056 8060 8064 8068 8072 8076 8080 8084 8088 8092 8096 8100 8104 8108 8112 8116 8120 8124 8128 8132 8136 8140 8144 8148 8152 8156 8160 8164 8168 8172 8176 8180 8184 8188 8192 8196 8200 8204 8208 8212 8216 8220 8224 8228 8232 8236 8240 8244 8248 8252 8256 8260 8264 8268 8272 8276 8280 8284 8288 8292 8296 8300 8304 8308 8312 8316 8320 8324 8328 8332 8336 8340 8344 8348 8352 8356 8360 8364 8368 8372 8376 8380 8384 8388 8392 8396 8400 8404 8408 8412 8416 8420 8424 8428 8432 8436 8440 8444 8448 8452 8456 8460 8464 8468 8472 8476 8480 8484 8488 8492 8496 8500 8504 8508 8512 8516 8520 8524 8528 8532 8536 8540 8544 8548 8552 8556 8560 8564 8568 8572 8576 8580 8584 8588 8592 8596 8600 8604 8608 8612 8616 8620 8624 8628 8632 8636 8640 8644 8648 8652 8656 8660 8664 8668 8672 8676 8680 8684 8688 8692 8696 8700 8704 8708 8712 8716 8720 8724 8728 8732 8736 8740 8744 8748 8752 8756 8760 8764 8768 8772 8776 8780 8784 8788 8792 8796 8800 8804 8808 8812 8816 8820 8824 8828 8832 8836 8840 8844 8848 8852 8856 8860 8864 8868 8872 8876 8880 8884 8888 8892 8896 8900 8904 8908 8912 8916 8920 8924 8928 8932 8936 8940 8944 8948 8952 8956 8960 8964 8968 8972 8976 8980 8984 8988 8992 8996 9000 9004 9008 9012 9016 9020 9024 9028 9032 9036 9040 9044 9048 9052 9056 9060 9064 9068 9072 9076 9080 9084 9088 9092 9096 9100 9104 9108 9112 9116 9120 9124 9128 9132 9136 9140 9144 9148 9152 9156 9160 9164 9168 9172 9176 9180 9184 9188 9192 9196 9200 9204 9208 9212 9216 9220 9224 9228 9232 9236 9240 9244 9248 9252 9256 9260 9264 9268 9272 9276 9280 9284 9288 9292 9296 9300 9304 9308 9312 9316 9320 9324 9328 9332 9336 9340 9344 9348 9352 9356 9360 9364 9368 9372 9376 9380 9384 9388 9392 9396 9400 9404 9408 9412 9416 9420 9424 9428 9432 9436 9440 9444 9448 9452 9456 9460 9464 9468 9472 9476 9480 9484 9488 9492 9496 9500 9504 9508 9512 9516 9520 9524 9528 9532 9536 9540 9544 9548 9552 9556 9560 9564 9568 9572 9576 9580 9584 9588 9592 9596 9600 9604 9608 9612 9616 9620 9624 9628 9632 9636 9640 9644 9648 9652 9656 9660 9664 9668 9672 9676 9680 9684 9688 9692 9696 9700 9704 9708 9712 9716 9720 9724 9728 9732 9736 9740 9744 9748 9752 9756 9760 9764 9768 9772 9776 9780 9784 9788 9792 9796 9800 9804 9808 9812 9816 9820 9824 9828 9832 9836 9840 9844 9848 9852 9856 9860 9864 9868 9872 9876 9880 9884 9888 9892 9896 9900 9904 9908 9912 9916 9920 9924 9928 9932 9936 9940 9944 9948 9952 9956 9960 9964 9968 9972 9976 9980 9984 9988 9992 9996 10000 10004 10008 10012 10016 10020 10024 10028 10032 10036 10040 10044 10048 10052 10056 10060 10064 10068 10072 10076 10080 10084 10088 10092 10096 10100 10104 10108 10112 10116 10120 10124 10128 10132 10136 10140 10144 10148 10152 10156 10160 10164 10168 10172 10176 10180 10184 10188 10192 10196 10200 10204 10208 10212 10216 10220 10224 10228 10232 10236 10240 10244 10248 10252 10256 10260 10264 10268 10272 10276 10280 10284 10288 10292 10296 10300 10304 10308 10312 10316 10320 10324 10328 10332 10336 10340 10344 10348 10352 10356 10360 10364 10368 10372 10376 10380 10384 10388 10392 10396 10400 10404 10408 10412 10416 10420 10424 10428 10432 10436 10440 10444 10448 10452 10456 10460 10464 10468 10472 10476 10480 10484 10488 10492 10496 10500 10504 10508 10512 10516 10520 10524 10528 10532 10536 10540 10544 10548 10552 10556 10560 10564 10568 10572 10576 10580 10584 10588 10592 10596 10600 10604 10608 10612 10616 10620 10624 10628 10632 10636 10640 10644 10648 10652 10656 10660 10664 10668 10672 10676 10680 10684 10688 10692 10696 10700 10704 10708 10712 10716 10720 10724 10728 10732 10736 10740 10744 10748 10752 10756 10760 10764 10768 10772 10776 10780 10784 10788 10792 10796 10800 10804 10808 10812 10816 10820 10824 10828 10832 10836 10840 10844 10848 10852 10856 10860 10864 10868 10872 10876 10880 10884 10888 10892 10896 10900 10904 10908 10912 10916 10920 10924 10928 10932 10936 10940 10944 10948 10952 10956 10960 10964 10968 10972 10976 10980 10984 10988 10992 10996 11000 11004 11008 11012 11016 11020 11024 11028 11032 11036 11040 11044 11048 11052 11056 11060 11064 11068 11072 11076 11080 11084 11088 11092 11096 11100 11104 11108 11112 11116 11120 11124 11128 11132 11136 11140 11144 11148 11152 11156 11160 11164 11168 11172 11176 11180 11184 11188 11192 11196 11200 11204 11208 11212 11216 11220 11224 11228 11232 11236 11240 11244 11248 11252 11256 11260 11264 11268 11272 11276 11280 11284 11288 11292 11296 11300 11304 11308 11312 11316 11320 11324 11328 11332 11336 11340 11344 11348 11352 11356 11360 11364 11368 11372 11376 11380 11384 11388 11392 11396 11400 11404 11408 11412 11416 11420 11424 11428 11432 11436 11440 11444 11448 11452 11456 11460 11464 11468 11472 11476 11480 11484 11488 11492 11496 11500 11504 11508 11512 11516 11520 11524 11528 11532 11536 11540 11544 11548 11552 11556 11560 11564 11568 11572 11576 11580 11584 11588 11592 11596 11600 11604 11608 11612 11616 11620 11624 11628 11632 11636 11640 11644 11648 11652 11656 11660 11664 11668 11672 11676 11680 11684 11688 11692 11696 11700 11704 11708 11712 11716 11720 11724 11728 11732 11736 11740 11744 11748 11752 11756 11760 11764 11768 11772 11776 11780 11784 11788 11792 11796 11800 11804 11808 11812 11816 11820 11824 11828 11832 11836 11840 11844 11848 11852 11856 11860 11864 11868 11872 11876 11880 11884 11888 11892 11896 11900 11904 11908 11912 11916 11920 11924 11928 11932 11936 11940 11944 11948 11952 11956 11960 11964 11968 11972 11976 11980 11984 11988 11992 11996 12000 12004 12008 12012 12016 12020 12024 12028 12032 12036 12040 12044 12048 12052 12056 12060 12064 12068 12072 12076 12080 12084 12088 12092 12096 12100 12104 12108 12112 12116 12120 12124 12128 12132 12136 12140 12144 12148 12152 12156 12160 12164 12168 12172 12176 12180 12184 12188 12192 12196 12200 12204 12208 12212 12216 12220 12224 12228 12232 12236 12240 12244 12248 12252 12256 12260 12264 12268 12272 12276 12280 12284 12288 12292 12296 12300 12304 12308 12312 12316 12320 12324 12328 12332 12336 12340 12344 12348 12352 12356 12360 12364 12368 12372 12376 12380 12384 12388 12392 12396 12400 12404 12408 12412 12416 12420 12424 12428 12432 12436 12440 12444 12448 12452 12456 12460 12464 12468 12472 12476 12480 12484 12488 12492 12496 12500 12504 12508 12512 12516 12520 12524 12528 12532 12536 12540 12544 12548 12552 12556 12560 12564 12568 12572 12576 12580 12584 12588 12592 12596 12600 12604 12608 12612 12616 12620 12624 12628 12632 12636 12640 12644 12648 12652 12656 12660 12664 12668 12672 12676 12680 12684 12688 12692 12696 12700 12704 12708 12712 12716 12720 12724 12728 12732 12736 12740 12744 12748 12752 12756 12760 12764 12768 12772 12776 12780 12784 12788 12792 12796 12800 12804 12808 12812 12816 12820 12824 12828 12832 12836 12840 12844 12848 12852 12856 12860 12864 12868 12872 12876 12880 12884 12888 12892 12896 12900 12904 12908 12912 12916 12920 12924 12928 12932 12936 12940 12944 12948 12952 12956 12960 12964 12968 12972 12976 12980 12984 12988 12992 12996 13000 13004 13008 13012 13016 13020 13024 13028 13032 13036 13040 13044 13048 13052 13056 13060 13064 13068 13072 13076 13080 13084 13088 13092 13096 13100 13104 13108 13112 13116 13120 13124 13128 13132 13136 13140 13144 13148 13152 13156 13160 13164 13168 13172 13176 13180 13184 13188 13192 13196 13200 13204 13208 13212 13216 13220 13224 13228 13232 13236 13240 13244 13248 13252 13256 13260 13264 13268 13272 13276 13280 13284 13288 13292 13296 13300 13304 13308 13312 13316 13320 13324 13328 13332 13336 13340 13344 13348 13352 13356 13360 13364 13368 13372 13376 13380 13384 13388 13392 13396 13400 13404 13408 13412 13416 13420 13424 13428 13432 13436 13440 13444 13448 13452 13456 13460 13464 13468 13472 13476 13480 13484 13488 13492 13496 13500 13504 13508 13512 13516 13520 13524 13528 13532 13536 13540 13544 13548 13552 13556 13560 13564 13568 13572 13576 13580 13584 13588 13592 13596 13600 13604 13608 13612 13616 13620 13624 13628 13632 13636 13640 13644 13648 13652 13656 13660 13664 13668 13672 13676 13680 13684 13688 13692 13696 13700 13704 13708 13712 13716 13720 13724 13728 13732 13736 13740 13744 13748 13752 13756 13760 13764 13768 13772 13776 13780 13784 13788 13792 13796 13800 13804 13808 13812 13816 13820 13824 13828 13832 13836 13840 13844 13848 13852 13856 13860 13864 13868 13872 13876 13880 13884 13888 13892 13896 13900 13904 13908 13912 13916 13920 13924 13928 13932 13936 13940 13944 13948 13952 13956 13960 13964 13968 13972 13976 13980 13984 13988 13992 13996 14000 14004 14008 14012 14016 14020 14024 14028 14032 14036 14040 14044 14048 14052 14056 14060 14064 14068 14072 14076 14080 14084 14088 14092 14096 14100 14104 14108 14112 14116 14120 14124 14128 14132 14136 14140 14144 14148 14152 14156 14160 14164 14168 14172 14176 14180 14184 14188 14192 14196 14200 14204 14208 14212 14216 14220 14224 14228 14232 14236 14240 14244 14248 14252 14256 14260 14264 14268 14272 14276 14280 14284 14288 14292 14296 14300 14304 14308 14312 14316 14320 14324 14328 14332 14336 14340 14344 14348 14352 14356 14360 14364 14368 14372 14376 14380 14384 14388 14392 14396 14400 14404 14408 14412 14416 14420 14424 14428 14432 14436 14440 14444 14448 14452 14456 14460 14464 14468 14472 14476 14480 14484 14488 14492 14496 14500 14504 14508 14512 14516 14520 14524 14528 14532 14536 14540 14544 14548 14552 14556 14560 14564 14568 14572 14576 14580 14584 14588 14592 14596 14600 14604 14608 14612 14616 14620 14624 14628 14632 14636 14640 14644 14648 14652 14656 14660 14664 14668 14672 14676 14680 14684 14688 14692 14696 14700 14704 14708 14712 14716 14720 14724 14728 14732 14736 14740 14744 14748 14752 14756 14760 14764 14768 14772 14776 14780 14784 14788 14792 14796 14800 14804 14808 14812 14816 14820 14824 14828 14832 14836 14840 14844 14848 14852 14856 14860 14864 14868 14872 14876 14880 14884 14888 14892 14896 14900 14904 14908 14912 14916 14920 14924 14928 14932 14936 14940 14944 14948 14952 14956 14960 14964 14968 14972 14976 14980 14984 14988 14992 14996 15000 15004 15008 15012 15016 15020 15024 15028 15032 15036 15040 15044 15048 15052 15056 15060 15064 15068 15072 15076 15080 15084 15088 15092 15096 15100 15104 15108 15112 15116 15120 15124 15128 15132 15136 15140 15144 15148 15152 15156 15160 15164 15168 15172 15176 15180 15184 15188 15192 15196 15200 15204 15208 15212 15216 15220 15224 15228 15232 15236 15240 15244 15248 15252 15256 15260 15264 15268 15272 15276 15280 15284 15288 15292 15296 15300 15304 15308 15312 15316 15320 15324 15328 15332 15336 15340 15344 15348 15352 15356 15360 15364 15368 15372 15376 15380 15384 15388 15392 15396 15400 15404 15408 15412 15416 15420 15424 15428 15432 15436 15440 15444 15448 15452 15456 15460 15464 15468 15472 15476 15480 15484 15488 15492 15496 15500 15504 15508 15512 15516 15520 15524 15528 15532 15536 15540 15544 15548 15552 15556 15560 15564 15568 15572 15576 15580 15584 15588 15592 15596 15600 15604 15608 15612 15616 15620 15624 15628 15632 15636 15640 15644 15648 15652 15656 15660 15664 15668 15672 15676 15680 15684 15688 15692 15696 15700 15704 15708 15712 15716 15720 15724 15728 15732 15736 15740 15744 15748 15752 15756 15760 15764 15768 15772 15776 15780 15784 15788 15792 15796 15800 15804 15808 15812 15816 15820 15824 15828 15832 15836 15840 15844 15848 15852 15856 15860 15864 15868 15872 15876 15880 15884 15888 15892 15896 15900 15904 15908 15912 15916 15920 15924 15928 15932 15936 15940 15944 15948 15952 15956 15960 15964 15968 15972 15976 15980 15984 15988 15992 15996 16000 16004 16008 16012 16016 16020 16024 16028 16032 16036 16040 16044 16048 16052 16056 16060 16064 16068 16072 16076 16080 16084 16088 16092 16096 16100 16104 16108 16112 16116 16120 16124 16128 16132 16136 16140 16144 16148 16152 16156 16160 16164 16168 16172 16176 16180 16184 16188 16192 16196 16200 16204 16208 16212 16216 16220 16224 16228 16232 16236 16240 16244 16248 16252 16256 16260 16264 16268 16272 16276 16280 16284 16288 16292 16296 16300 16304 16308 16312 16316 16320 16324 16328 16332 16336 16340 16344 16348 16352 16356 16360 16364 16368 16372 16376 16380 16384 16388 16392 16396 16400 16404 16408 16412 16416 16420 16424 16428 16432 16436 16440 16444 16448 16452 16456 16460 16464 16468 16472 16476 16480 16484 16488 16492 16496 16500 16504 16508 16512 16516 16520 16524 16528 16532 16536 16540 16544 16548 16552 16556 16560 16564 16568 16572 16576 16580 16584 16588 16592 16596 16600 16604 16608 16612 16616 16620 16624 16628 16632 16636 16640 16644 16648 16652 16656 16660 16664 16668 16672 16676 16680 16684 16688 16692 16696 16700 16704 16708 16712 16716 16720 16724 16728 16732 16736 16740 16744 16748 16752 16756 16760 16764 16768 16772 16776 16780 16784 16788 16792 16796 16800 16804 16808 16812 16816 16820 16824 16828 16832 16836 16840 16844 16848 16852 16856 16860 16864 16868 16872 16876 16880 16884 16888 16892 16896 16900 16904 16908 16912 16916 16920 16924 16928 16932 16936 16940 16944 16948 16952 16956 16960 16964 16968 16972 16976 16980 16984 16988 16992 16996 17000 17004 17008 17012 17016 17020 17024 17028 17032 17036 17040 17044 17048 17052 17056 17060 17064 17068 17072 17076 17080 17084 17088 17092 17096 17100 17104 17108 17112 17116 17120 17124 17128 17132 17136 17140 17144 17148 17152 17156 17160 17164 17168 17172 17176 17180 17184 17188 17192 17196 17200 17204 17208 17212 17216 17220 17224 17228 17232 17236 17240 17244 17248 17252 17256 17260 17264 17268 17272 17276 17280 17284 17288 17292 17296 17300 17304 17308 17312 17316 17320 17324 17328 17332 17336 17340 17344 17348 17352 17356 17360 17364 17368 17372 17376 17380 17384 17388 17392 17396 17400 17404 17408 17412 17416 17420 17424 17428 17432 17436 17440 17444 17448 17452 17456 17460 17464 17468 17472 17476 17480 17484 17488 17492 17496 17500 17504 17508 17512 17516 17520 17524 17528 17532 17536 17540 17544 17548 17552 17556 17560 17564 17568 17572 17576 17580 17584 17588 17592 17596 17600 17604 17608 17612 17616 17620 17624 17628 17632 17636 17640 17644 17648 17652 17656 17660 17664 17668 17672 17676 17680 17684 17688 17692 17696 17700 17704 17708 17712 17716 17720 17724 17728 17732 17736 17740 17744 17748 17752 17756 17760 17764 17768 17772 17776 17780 17784 17788 17792 17796 17800 17804 17808 17812 17816 17820 17824 17828 17832 17836 17840 17844 17848 17852 17856 17860 17864 17868 17872 17876 17880 17884 17888 17892 17896 17900 17904 17908 17912 17916 17920 17924 17928 17932 17936 17940 17944 17948 17952 17956 17960 17964 17968 17972 17976 17980 17984 17988 17992 17996 18000 18004 18008 18012 18016 18020 18024 18028 18032 18036 18040 18044 18048 18052 18056 18060 18064 18068 18072 18076 18080 18084 18088 18092 18096 18100 18104 18108 18112 18116 18120 18124 18128 18132 18136 18140 18144 18148 18152 18156 18160 18164 18168 18172 18176 18180 18184 18188 18192 18196 18200 18204 18208 18212 18216 18220 18224 18228 18232 18236 18240 18244 18248 18252 18256 18260 18264 18268 18272 18276 18280 18284 18288 18292 18296 18300 18304 18308 18312 18316 18320 18324 18328 18332 18336 18340 18344 18348 18352 18356 18360 18364 18368 18372 18376 18380 18384 18388 18392 18396 18400 18404 18408 18412 18416 18420 18424 18428 18432 18436 18440 18444 18448 18452 18456 18460 18464 18468 18472 18476 18480 18484 18488 18492 18496 18500 18504 18508 18512 18516 18520 18524 18528 18532 18536 18540 18544 18548 18552 18556 18560 18564 18568 18572 18576 18580 18584 18588 18592 18596 18600 18604 18608 18612 18616 18620 18624 18628 18632 18636 18640 18644 18648 18652 18656 18660 18664 18668 18672 18676 18680 18684 18688 18692 18696 18700 18704 18708 18712 18716 18720 18724 18728 18732 18736 18740 18744 18748 18752 18756 18760 18764 18768 18772 18776 18780 18784 18788 18792 18796 18800 18804 18808 18812 18816 18820 18824 18828 18832 18836 18840 18844 18848 18852 18856 18860 18864 18868 18872 18876 18880 18884 18888 18892 18896 18900 18904 18908 18912 18916 18920 18924 18928 18932 18936 18940 18944 18948 18952 18956 18960 18964 18968 18972 18976 18980 18984 18988 18992 18996 19000 19004 19008 19012 19016 19020 19024 19028 19032 19036 19040 19044 19048 19052 19056 19060 19064 19068 19072 19076 19080 19084 19088 19092 19096 19100 19104 19108 19112 19116 19120 19124 19128 19132 19136 19140 19144 19148 19152 19156 19160 19164 19168 19172 19176 19180 19184 19188 19192 19196 19200 19204 19208 19212 19216 19220 19224 19228 19232 19236 19240 19244 19248 19252 19256 19260 19264 19268 19272 19276 19280 19284 19288 19292 19296 19300 19304 19308 19312 19316 19320 19324 19328 19332 19336 19340 19344 19348 19352 19356 19360 19364 19368 19372 19376 19380 19384 19388 19392 19396 19400 19404 19408 19412 19416 19420 19424 19428 19432 19436 19440 19444 19448 19452 19456 19460 19464 19468 19472 19476 19480 19484 19488 19492 19496 19500 19504 19508 19512 19516 19520 19524 19528 19532 19536 19540 19544 19548 19552 19556 19560 19564 19568 19572 19576 19580 19584 19588 19592 19596 19600 19604 19608 19612 19616 19620 19624 19628 19632 19636 19640 19644 19648 19652 19656 19660 19664 19668 19672 19676 19680 19684 19688 19692 19696 19700 19704 19708 19712 19716 19720 19724 19728 19732 19736 19740 19744 19748 19752 19756 19760 19764 19768 19772 19776 19780 19784 19788 19792 19796 19800 19804 19808 19812 19816 19820 19824 19828 19832 19836 19840 19844 19848 19852 19856 19860 19864 19868 19872 19876 19880 19884 19888 19892 19896 19900 19904 19908 19912 19916 19920 19924 19928 19932 19936 19940 19944 19948 19952 19956 19960 19964 19968 19972 19976 19980 19984 19988 19992 19996 20000 20004 20008 20012 20016 20020 20024 20028 20032 20036 20040 20044 20048 20052 20056 20060 20064 20068 20072 20076 20080 20084 20088 20092 20096 20100 20104 20108 20112 20116 20120 20124 20128 20132 20136 20140 20144 20148 20152 20156 20160 20164 20168 20172 20176 20180 20184 20188 20192 20196 20200 20204 20208 20212 20216 20220 20224 20228 20232 20236 20240 20244 20248 20252 20256 20260 20264 20268 20272 20276 20280 20284 20288 20292 20296 20300 20304 20308 20312 20316 20320 20324 20328 20332 20336 20340 20344 20348 20352 20356 20360 20364 20368 20372 20376 20380 20384 20388 20392 20396 20400 20404 20408 20412 20416 20420 20424 20428 20432 20436 20440 20444 20448 20452 20456 20460 20464 20468 20472 20476 20480 20484 20488 20492 20496 20500 20504 20508 20512 20516 20520 20524 20528 20532 20536 20540 20544 20548 20552 20556 20560 20564 20568 20572 20576 20580 20584 20588 20592 20596 20600 20604 20608 20612 20616 20620 20624 20628 20632 20636 20640 20644 20648 20652 20656 20660 20664 20668 20672 20676 20680 20684 20688 20692 20696 20700 20704 20708 20712 20716 20720 20724 20728 20732 20736 20740 20744 20748 20752 20756 20760 20764 20768 20772 20776 20780 20784 20788 20792 20796 20800 20804 20808 20812 20816 20820 20824 20828 20832 20836 20840 20844 20848 20852 20856 20860 20864 20868 20872 20876 20880 20884 20888 20892 20896 20900 20904 20908 20912 20916 20920 20924 20928 20932 20936 20940 20944 20948 20952 20956 20960 20964 20968 20972 20976 20980 20984 20988 20992 20996 21000 21004 21008 21012 21016 21020 21024 21028 21032 21036 21040 21044 21048 21052 21056 21060 21064 21068 21072 21076 21080 21084 21088 21092 21096 21100 21104 21108 21112 21116 21120 21124 21128 21132 21136 21140 21144 21148 21152 21156 21160 21164 21168 21172 21176 21180 21184 21188 21192 21196 21200 21204 21208 21212 21216 21220 21224 21228 21232 21236 21240 21244 21248 21252 21256 21260 21264 21268 21272 21276 21280 21284 21288 21292 21296 21300 21304 21308 21312 21316 21320 21324 21328 21332 21336 21340 21344 21348 21352 21356 21360 21364 21368 21372 21376 21380 21384 21388 21392 21396 21400 21404 21408 21412 21416 21420 21424 21428 21432 21436 21440 21444 21448 21452 21456 21460 21464 21468 21472 21476 21480 21484 21488 21492 21496 21500 21504 21508 21512 21516 21520 21524 21528 21532 21536 21540 21544 21548 21552 21556 21560 21564 21568 21572 21576 21580 21584 21588 21592 21596 21600 21604 21608 21612 21616 21620 21624 21628 21632 21636 21640 21644 21648 21652 21656 21660 21664 21668 21672 21676 21680 21684 21688 21692 21696 21700 21704 21708 21712 21716 21720 21724 21728 21732 21736 21740 21744 21748 21752 21756 21760 21764 21768 21772 21776 21780 21784 21788 21792 21796 21800 21804 21808 21812 21816 21820 21824 21828 21832 21836 21840 21844 21848 21852 21856 21860 21864 21868 21872 21876 21880 21884 21888 21892 21896 21900 21904 21908 21912 21916 21920 21924 21928 21932 21936 21940 21944 21948 21952 21956 21960 21964 21968 21972 21976 21980 21984 21988 21992 21996 22000 22004 22008 22012 22016 22020 22024 22028 22032 22036 22040 22044 22048 22052 22056 22060 22064 22068 22072 22076 22080 22084 22088 22092 22096 22100 22104 22108 22112 22116 22120 22124 22128 22132 22136 22140 22144 22148 22152 22156 22160 22164 22168 22172 22176 22180 22184 22188 22192 22196 22200 22204 22208 22212 22216 22220 22224 22228 22232 22236 22240 22244 22248 22252 22256 22260 22264 22268 22272 22276 22280 22284 22288 22292 22296 22300 22304 22308 22312 22316 22320 22324 22328 22332 22336 22340 22344 22348 22352 22356 22360 22364 22368 22372 22376 22380 22384 22388 22392 22396 22400 22404 22408 22412 22416 22420 22424 22428 22432 22436 22440 22444 22448 22452 22456 22460 22464 22468 22472 22476 22480 22484 22488 22492 22496 22500 22504 22508 22512 22516 22520 22524 22528 22532 22536 22540 22544 22548 22552 22556 22560 22564 22568 22572 22576 22580 22584 22588 22592 22596 22600 22604 22608 22612 22616 22620 22624 22628 22632 22636 22640 22644 22648 22652 22656 22660 22664 22668 22672 22676 22680 22684 22688 22692 22696 22700 22704 22708 22712 22716 22720 22724 22728 22732 22736 22740 22744 22748 22752 22756 22760 22764 22768 22772 22776 22780 22784 22788 22792 22796 22800 22804 22808 22812 22816 22820 22824 22828 22832 22836 22840 22844 22848 22852 22856 22860 22864 22868 22872 22876 22880 22884 22888 22892 22896 22900 22904 22908 22912 22916 22920 22924 22928 22932 22936 22940 22944 22948 22952 22956 22960 22964 22968 22972 22976 22980 22984 22988 22992 22996 23000 23004 23008 23012 23016 23020 23024 23028 23032 23036 23040 23044 23048 23052 23056 23060 23064 23068 23072 23076 23080 23084 23088 23092 23096 23100 23104 23108 23112 23116 23120 23124 23128 23132 23136 23140 23144 23148 23152 23156 23160 23164 23168 23172 23176 23180 23184 23188 23192 23196 23200 23204 23208 23212 23216 23220 23224 23228 23232 23236 23240 23244 23248 23252 23256 23260 23264 23268 23272 23276 23280 23284 23288 23292 23296 23300 23304 23308 23312 23316 23320 23324 23328 23332 23336 23340 23344 23348 23352 23356 23360 23364 23368 23372 23376 23380 23384 23388 23392 23396 23400 23404 23408 23412 23416 23420 23424 23428 23432 23436 23440 23444 23448 23452 23456 23460 23464 23468 23472 23476 23480 23484 23488 23492 23496 23500 23504 23508 23512 23516 23520 23524 23528 23532 23536 23540 23544 23548 23552 23556 23560 23564 23568 23572 23576 23580 23584 23588 23592 23596 23600 23604 23608 23612 23616 23620 23624 23628 23632 23636 23640 23644 23648 23652 23656 23660 23664 23668 23672 23676 23680 23684 23688 23692 23696 23700 23704 23708 23712 23716 23720 23724 23728 23732 23736 23740 23744 23748 23752 23756 23760 23764 23768 23772 23776 23780 23784 23788 23792 23796 23800 23804 23808 23812 23816 23820 23824 23828 23832 23836 23840 23844 23848 23852 23856 23860 23864 23868 23872 23876 23880 23884 23888 23892 23896 23900 23904 23908 23912 23916 23920 23924 23928 23932 23936 23940 23944 23948 23952 23956 23960 23964 23968 23972 23976 23980 23984 23988 23992 23996 24000 24004 24008 24012 24016 24020 24024 24028 24032 24036 24040 24044 24048 24052 24056 24060 24064 24068 24072 24076 24080 24084 24088 24092 24096 24100 24104 24108 24112 24116 24120 24124 24128 24132 24136 24140 24144 24148 24152 24156 24160 24164 24168 24172 24176 24180 24184 24188 24192 24196 24200 24204 24208 24212 24216 24220 24224 24228 24232 24236 24240 24244 24248 24252 24256 24260 24264 24268 24272 24276 24280 24284 24288 24292 24296 24300 24304 24308 24312 24316 24320 24324 24328 24332 24336 24340 24344 24348 24352 24356 24360 24364 24368 24372 24376 24380 24384 24388 24392 24396 24400 24404 24408 24412 24416 24420 24424 24428 24432 24436 24440 24444 24448 24452 24456 24460 24464 24468 24472 24476 24480 24484 24488 24492 24496 24500 24504 24508 24512 24516 24520 24524 24528 24532 24536 24540 24544 24548 24552 24556 24560 24564 24568 24572 24576 24580 24584 24588 24592 24596 24600 24604 24608 24612 24616 24620 24624 24628 24632 24636 24640 24644 24648 24652 24656 24660 24664 24668 24672 24676 24680 24684 24688 24692 24696 24700 24704 24708 24712 24716 24720 24724 24728 24732 24736 24740 24744 24748 24752 24756 24760 24764 24768 24772 24776 24780 24784 24788 24792 24796 24800 24804 24808 24812 24816 24820 24824 24828 24832 24836 24840 24844 24848 24852 24856 24860 24864 24868 24872 24876 24880 24884 24888 24892 24896 24900 24904 24908 24912 24916 24920 24924 24928 24932 24936 24940 24944 24948 24952 24956 24960 24964 24968 24972 24976 24980 24984 24988 24992 24996 25000 25004 25008 25012 25016 25020 25024 25028 25032 25036 25040 25044 25048 25052 25056 25060 25064 25068 25072 25076 25080 25084 25088 25092 25096 25100 25104 25108 25112 25116 25120 25124 25128 25132 25136 25140 25144 25148 25152 25156 25160 25164 25168 25172 25176 25180 25184 25188 25192 25196 25200 25204 25208 25212 25216 25220 25224 25228 25232 25236 25240 25244 25248 25252 25256 25260 25264 25268 25272 25276 25280 25284 25288 25292 25296 25300 25304 25308 25312 25316 25320 25324 25328 25332 25336 25340 25344 25348 25352 25356 25360 25364 25368 25372 25376 25380 25384 25388 25392 25396 25400 25404 25408 25412 25416 25420 25424 25428 25432 25436 25440 25444 25448 25452 25456 25460 25464 25468 25472 25476 25480 25484 25488 25492 25496 25500 25504 25508 25512 25516 25520 25524 25528 25532 25536 25540 25544 25548 25552 25556 25560 25564 25568 25572 25576 25580 25584 25588 25592 25596 25600 25604 25608 25612 25616 25620 25624 25628 25632 25636 25640 25644 25648 25652 25656 25660 25664 25668 25672 25676 25680 25684 25688 25692 25696 25700 25704 25708 25712 25716 25720 25724 25728 25732 25736 25740 25744 25748 25752 25756 25760 25764 25768 25772 25776 25780 25784 25788 25792 25796 25800 25804 25808 25812 25816 25820 25824 25828 25832 25836 25840 25844 25848 25852 25856 25860 25864 25868 25872 25876 25880 25884 25888 25892 25896 25900 25904 25908 25912 25916 25920 25924 25928 25932 25936 25940 25944 25948 25952 25956 25960 25964 25968 25972 25976 25980 25984 25988 25992 25996 26000 26004 26008 26012 26016 26020 26024 26028 26032 26036 26040 26044 26048 26052 26056 26060 26064 26068 26072 26076 26080 26084 26088 26092 26096 26100 26104 26108 26112 26116 26120 26124 26128 26132 26136 26140 26144 26148 26152 26156 26160 26164 26168 26172 26176 26180 26184 26188 26192 26196 26200 26204 26208 26212 26216 26220 26224 26228 26232 26236 26240 26244 26248 26252 26256 26260 26264 26268 26272 26276 26280 26284 26288 26292 26296 26300 26304 26308 26312 26316 26320 26324 26328 26332 26336 26340 26344 26348 26352 26356 26360 26364 26368 26372 26376 26380 26384 26388 26392 26396 26400 26404 26408 26412 26416 26420 26424 26428 26432 26436 26440 26444 26448 26452 26456 26460 26464 26468 26472 26476 26480 26484 26488 26492 26496 26500 26504 26508 26512 26516 26520 26524 26528 26532 26536 26540 26544 26548 26552 26556 26560 26564 26568 26572 26576 26580 26584 26588 26592 26596 26600 26604 26608 26612 26616 26620 26624 26628 26632 26636 26640 26644 26648 26652 26656 26660 26664 26668 26672 26676 26680 26684 26688 26692 26696 26700 26704 26708 26712 26716 26720 26724 26728 26732 26736 26740 26744 26748 26752 26756 26760 26764 26768 26772 26776 26780 26784 26788 26792 26796 26800 26804 26808 26812 26816 26820 26824 26828 26832 26836 26840 26844 26848 26852 26856 26860 26864 26868 26872 26876 26880 26884 26888 26892 26896 26900 26904 26908 26912 26916 26920 26924 26928 26932 26936 26940 26944 26948 26952 26956 26960 26964 26968 26972 26976 26980 26984 26988 26992 26996 27000 27004 27008 27012 27016 27020 27024 27028 27032 27036 27040 27044 27048 27052 27056 27060 27064 27068 27072 27076 27080 27084 27088 27092 27096 27100 27104 27108 27112 27116 27120 27124 27128 27132 27136 27140 27144 27148 27152 27156 27160 27164 27168 27172 27176 27180 27184 27188 27192 27196 27200 27204 27208 27212 27216 27220 27224 27228 27232 27236 27240 27244 27248 27252 27256 27260 27264 27268 27272 27276 27280 27284 27288 27292 27296 27300 27304 27308 27312 27316 27320 27324 27328 27332 27336 27340 27344 27348 27352 27356 27360 27364 27368 27372 27376 27380 27384 27388 27392 27396 27400 27404 27408 27412 27416 27420 27424 27428 27432 27436 27440 27444 27448 27452 27456 27460 27464 27468 27472 27476 27480 27484 27488 27492 27496 27500 27504 27508 27512 27516 27520 27524 27528 27532 27536 27540 27544 27548 27552 27556 27560 27564 27568 27572 27576 27580 27584 27588 27592 27596 27600 27604 27608 27612 27616 27620 27624 27628 27632 27636 27640 27644 27648 27652 27656 27660 27664 27668 27672 27676 27680 27684 27688 27692 27696 27700 27704 27708 27712 27716 27720 27724 27728 27732 27736 27740 27744 27748 27752 27756 27760 27764 27768 27772 27776 27780 27784 27788 27792 27796 27800 27804 27808 27812 27816 27820 27824 27828 27832 27836 27840 27844 27848 27852 27856 27860 27864 27868 27872 27876 27880 27884 27888 27892 27896 27900 27904 27908 27912 27916 27920 27924 27928 27932 27936 27940 27944 27948 27952 27956 27960 27964 27968 27972 27976 27980 27984 27988 27992 27996 28000 28004 28008 28012 28016 28020 28024 28028 28032 28036 28040 28044 28048 28052 28056 28060 28064 28068 28072 28076 28080 28084 28088 28092 28096 28100 28104 28108 28112 28116 28120 28124 28128 28132 28136 28140 28144 28148 28152 28156 28160 28164 28168 28172 28176 28180 28184 28188 28192 28196 28200 28204 28208 28212 28216 28220 28224 28228 28232 28236 28240 28244 28248 28252 28256 28260 28264 28268 28272 28276 28280 28284 28288 28292 28296 28300 28304 28308 28312 28316 28320 28324 28328 28332 28336 28340 28344 28348 28352 28356 28360 28364 28368 28372 28376 28380 28384 28388 28392 28396 28400 28404 28408 28412 28416 28420 28424 28428 28432 28436 28440 28444 28448 28452 28456 28460 28464 28468 28472 28476 28480 28484 28488 28492 28496 28500 28504 28508 28512 28516 28520 28524 28528 28532 28536 28540 28544 28548 28552 28556 28560 28564 28568 28572 28576 28580 28584 28588 28592 28596 28600 28604 28608 28612 28616 28620 28624 28628 28632 28636 28640 28644 28648 28652 28656 28660 28664 28668 28672 28676 28680 28684 28688 28692 28696 28700 28704 28708 28712 28716 28720 28724 28728 28732 28736 28740 28744 28748 28752 28756 28760 28764 28768 28772 28776 28780 28784 28788 28792 28796 28800 28804 28808 28812 28816 28820 28824 28828 28832 28836 28840 28844 28848 28852 28856 28860 28864 28868 28872 28876 28880 28884 28888 28892 28896 28900 28904 28908 28912 28916 28920 28924 28928 28932 28936 28940 28944 28948 28952 28956 28960 28964 28968 28972 28976 28980 28984 28988 28992 28996 29000 29004 29008 29012 29016 29020 29024 29028 29032 29036 29040 29044 29048 29052 29056 29060 29064 29068 29072 29076 29080 29084 29088 29092 29096 29100 29104 29108 29112 29116 29120 29124 29128 29132 29136 29140 29144 29148 29152 29156 29160 29164 29168 29172 29176 29180 29184 29188 29192 29196 29200 29204 29208 29212 29216 29220 29224 29228 29232 29236 29240 29244 29248 29252 29256 29260 29264 29268 29272 29276 29280 29284 29288 29292 29296 29300 29304 29308 29312 29316 29320 29324 29328 29332 29336 29340 29344 29348 29352 29356 29360 29364 29368 29372 29376 29380 29384 29388 29392 29396 29400 29404 29408 29412 29416 29420 29424 29428 29432 29436 29440 29444 29448 29452 29456 29460 29464 29468 29472 29476 29480 29484 29488 29492 29496 29500 29504 29508 29512 29516 29520 29524 29528 29532 29536 29540 29544 29548 29552 29556 29560 29564 29568 29572 29576 29580 29584 29588 29592 29596 29600 29604 29608 29612 29616 29620 29624 29628 29632 29636 29640 29644 29648 29652 29656 29660 29664 29668 29672 29676 29680 29684 29688 29692 29696 29700 29704 29708 29712 29716 29720 29724 29728 29732 29736 29740 29744 29748 29752 29756 29760 29764 29768 29772 29776 29780 29784 29788 29792 29796 29800 29804 29808 29812 29816 29820 29824 29828 29832 29836 29840 29844 29848 29852 29856 29860 29864 29868 29872 29876 29880 29884 29888 29892 29896 29900 29904 29908 29912 29916 29920 29924 29928 29932 29936 29940 29944 29948 29952 29956 29960 29964 29968 29972 29976 29980 29984 29988 29992 29996 30000 30004 30008 30012 30016 30020 30024 30028 30032 30036 30040 30044 30048 30052 30056 30060 30064 30068 30072 30076 30080 30084 30088 30092 30096 30100 30104 30108 30112 30116 30120 30124 30128 30132 30136 30140 30144 30148 30152 30156 30160 30164 30168 30172 30176 30180 30184 30188 30192 30196 30200 30204 30208 30212 30216 30220 30224 30228 30232 30236 30240 30244 30248 30252 30256 30260 30264 30268 30272 30276 30280 30284 30288 30292 30296 30300 30304 30308 30312 30316 30320 30324 30328 30332 30336 30340 30344 30348 30352 30356 30360 30364 30368 30372 30376 30380 30384 30388 30392 30396 30400 30404 30408 30412 30416 30420 30424 30428 30432 30436 30440 30444 30448 30452 30456 30460 30464 30468 30472 30476 30480 30484 30488 30492 30496 30500 30504 30508 30512 30516 30520 30524 30528 30532 30536 30540 30544 30548 30552 30556 30560 30564 30568 30572 30576 30580 30584 30588 30592 30596 30600 30604 30608 30612 30616 30620 30624 30628 30632 30636 30640 30644 30648 30652 30656 30660 30664 30668 30672 30676 30680 30684 30688 30692 30696 30700 30704 30708 30712 30716 30720 30724 30728 30732 30736 30740 30744 30748 30752 30756 30760 30764 30768 30772 30776 30780 30784 30788 30792 30796 30800 30804 30808 30812 30816 30820 30824 30828 30832 30836 30840 30844 30848 30852 30856 30860 30864 30868 30872 30876 30880 30884 30888 30892 30896 30900 30904 30908 30912 30916 30920 30924 30928 30932 30936 30940 30944 30948 30952 30956 30960 30964 30968 30972 30976 30980 30984 30988 30992 30996 31000 31004 31008 31012 31016 31020 31024 31028 31032 31036 31040 31044 31048 31052 31056 31060 31064 31068 31072 31076 31080 31084 31088 31092 31096 31100 31104 31108 31112 31116 31120 31124 31128 31132 31136 31140 31144 31148 31152 31156 31160 31164 31168 31172 31176 31180 31184 31188 31192 31196 31200 31204 31208 31212 31216 31220 31224 31228 31232 31236 31240 31244 31248 31252 31256 31260 31264 31268 31272 31276 31280 31284 31288 31292 31296 31300 31304 31308 31312 31316 31320 31324 31328 31332 31336 31340 31344 31348 31352 31356 31360 31364 31368 31372 31376 31380 31384 31388 31392 31396 31400 31404 31408 31412 31416 31420 31424 31428 31432 31436 31440 31444 31448 31452 31456 31460 31464 31468 31472 31476 31480 31484 31488 31492 31496 31500 31504 31508 31512 31516 31520 31524 31528 31532 31536 31540 31544 31548 31552 31556 31560 31564 31568 31572 31576 31580 31584 31588 31592 31596 31600 31604 31608 31612 31616 31620 31624 31628 31632 31636 31640 31644 31648 31652 31656 31660 31664 31668 31672 31676 31680 31684 31688 31692 31696 31700 31704 31708 31712 31716 31720 31724 31728 31732 31736 31740 31744 31748 31752 31756 31760 31764 31768 31772 31776 31780 31784 31788 31792 31796 31800 31804 31808 31812 31816 31820 31824 31828 31832 31836 31840 31844 31848 31852 31856 31860 31864 31868 31872 31876 31880 31884 31888 31892 31896 31900 31904 31908 31912 31916 31920 31924 31928 31932 31936 31940 31944 31948 31952 31956 31960 31964 31968 31972 31976 31980 31984 31988 31992 31996 32000 32004 32008 32012 32016 32020 32024 32028 32032 32036 32040 32044 32048 32052 32056 32060 32064 32068 32072 32076 32080 32084 32088 32092 32096 32100 32104 32108 32112 32116 32120 32124 32128 32132 32136 32140 32144 32148 32152 32156 32160 32164 32168 32172 32176 32180 32184 32188 32192 32196 32200 32204 32208 32212 32216 32220 32224 32228 32232 32236 32240 32244 32248 32252 32256 32260 32264 32268 32272 32276 32280 32284 32288 32292 32296 32300 32304 32308 32312 32316 32320 32324 32328 32332 32336 32340 32344 32348 32352 32356 32360 32364 32368 32372 32376 32380 32384 32388 32392 32396 32400 32404 32408 32412 32416 32420 32424 32428 32432 32436 32440 32444 32448 32452 32456 32460 32464 32468 32472 32476 32480 32484 32488 32492 32496 32500 32504 32508 32512 32516 32520 32524 32528 32532 32536 32540 32544 32548 32552 32556 32560 32564 32568 32572 32576 32580 32584 32588 32592 32596 32600 32604 32608 32612 32616 32620 32624 32628 32632 32636 32640 32644 32648 32652 32656 32660 32664 32668 32672 32676 32680 32684 32688 32692 32696 32700 32704 32708 32712 32716 32720 32724 32728 32732 32736 32740 32744 32748 32752 32756 32760 32764 32768 32772 32776 32780 32784 32788 32792 32796 32800 32804 32808 32812 32816 32820 32824 32828 32832 32836 32840 32844 32848 32852 32856 32860 32864 32868 32872 32876 32880 32884 32888 32892 32896 32900 32904 32908 32912 32916 32920 32924 32928 32932 32936 32940 32944 32948 32952 32956 32960 32964 32968 32972 32976 32980 32984 32988 32992 32996 33000 33004 33008 33012 33016 33020 33024 33028 33032 33036 33040 33044 33048 33052 33056 33060 33064 33068 33072 33076 33080 33084 33088 33092 33096 33100 33104 33108 33112 33116 33120 33124 33128 33132 33136 33140 33144 33148 33152 33156 33160 33164 33168 33172 33176 33180 33184 33188 33192 33196 33200 33204 33208 33212 33216 33220 33224 33228 33232 33236 33240 33244 33248 33252 33256 33260 33264 33268 33272 33276 33280 33284 33288 33292 33296 33300 33304 33308 33312 33316 33320 33324 33328 33332 33336 33340 33344 33348 33352 33356 33360 33364 33368 33372 33376 33380 33384 33388 33392 33396 33400 33404 33408 33412 33416 33420 33424 33428 33432 33436 33440 33444 33448 33452 33456 33460 33464 33468 33472 33476 33480 33484 33488 33492 33496 33500 33504 33508 33512 33516 33520 33524 33528 33532 33536 33540 33544 33548 33552 33556 33560 33564 33568 33572 33576 33580 33584 33588 33592 33596 33600 33604 33608 33612 33616 33620 33624 33628 33632 33636 33640 33644 33648 33652 33656 33660 33664 33668 33672 33676 33680 33684 33688 33692 33696 33700 33704 33708 33712 33716 33720 33724 33728 33732 33736 33740 33744 33748 33752 33756 33760 33764 33768 33772 33776 33780 33784 33788 33792 33796 33800 33804 33808 33812 33816 33820 33824 33828 33832 33836 33840 33844 33848 33852 33856 33860 33864 33868 33872 33876 33880 33884 33888 33892 33896 33900 33904 33908 33912 33916 33920 33924 33928 33932 33936 33940 33944 33948 33952 33956 33960 33964 33968 33972 33976 33980 33984 33988 33992 33996 34000 34004 34008 34012 34016 34020 34024 34028 34032 34036 34040 34044 34048 34052 34056 34060 34064 34068 34072 34076 34080 34084 34088 34092 34096 34100 34104 34108 34112 34116 34120 34124 34128 34132 34136 34140 34144 34148 34152 34156 34160 34164 34168 34172 34176 34180 34184 34188 34192 34196 34200 34204 34208 34212 34216 34220 34224 34228 34232 34236 34240 34244 34248 34252 34256 34260 34264 34268 34272 34276 34280 34284 34288 34292 34296 34300 34304 34308 34312 34316 34320 34324 34328 34332 34336 34340 34344 34348 34352 34356 34360 34364 34368 34372 34376 34380 34384 34388 34392 34396 34400 34404 34408 34412 34416 34420 34424 34428 34432 34436 34440 34444 34448 34452 34456 34460 34464 34468 34472 34476 34480 34484 34488 34492 34496 34500 34504 34508 34512 34516 34520 34524 34528 34532 34536 34540 34544 34548 34552 34556 34560 34564 34568 34572 34576 34580 34584 34588 34592 34596 34600 34604 34608 34612 34616 34620 34624 34628 34632 34636 34640 34644 34648 34652 34656 34660 34664 34668 34672 34676 34680 34684 34688 34692 34696 34700 34704 34708 34712 34716 34720 34724 34728 34732 34736 34740 34744 34748 34752 34756 34760 34764 34768 34772 34776 34780 34784 34788 34792 34796 34800 34804 34808 34812 34816 34820 34824 34828 34832 34836 34840 34844 34848 34852 34856 34860 34864 34868 34872 34876 34880 34884 34888 34892 34896 34900 34904 34908 34912 34916 34920 34924 34928 34932 34936 34940 34944 34948 34952 34956 34960 34964 34968 34972 34976 34980 34984 34988 34992 34996 35000 35004 35008 35012 35016 35020 35024 35028 35032 35036 35040 35044 35048 35052 35056 35060 35064 35068 35072 35076 35080 35084 35088 35092 35096 35100 35104 35108 35112 35116 35120 35124 35128 35132 35136 35140 35144 35148 35152 35156 35160 35164 35168 35172 35176 35180 35184 35188 35192 35196 35200 35204 35208 35212 35216 35220 35224 35228 35232 35236 35240 35244 35248 35252 35256 35260 35264 35268 35272 35276 35280 35284 35288 35292 35296 35300 35304 35308 35312 35316 35320 35324 35328 35332 35336 35340 35344 35348 35352 35356 35360 35364 35368 35372 35376 35380 35384 35388 35392 35396 35400 35404 35408 35412 35416 35420 35424 35428 35432 35436 35440 35444 35448 35452 35456 35460 35464 35468 35472 35476 35480 35484 35488 35492 35496 35500 35504 35508 35512 35516 35520 35524 35528 35532 35536 35540 35544 35548 35552 35556 35560 35564 35568 35572 35576 35580 35584 35588 35592 35596 35600 35604 35608 35612 35616 35620 35624 35628 35632 35636 35640 35644 35648 35652 35656 35660 35664 35668 35672 35676 35680 35684 35688 35692 35696 35700 35704 35708 35712 35716 35720 35724 35728 35732 35736 35740 35744 35748 35752 35756 35760 35764 35768 35772 35776 35780 35784 35788 35792 35796 35800 35804 35808 35812 35816 35820 35824 35828 35832 35836 35840 35844 35848 35852 35856 35860 35864 35868 35872 35876 35880 35884 35888 35892 35896 35900 35904 35908 35912 35916 35920 35924 35928 35932 35936 35940 35944 35948 35952 35956 35960 35964 35968 35972 35976 35980 35984 35988 35992 35996 36000 36004 36008 36012 36016 36020 36024 36028 36032 36036 36040 36044 36048 36052 36056 36060 36064 36068 36072 36076 36080 36084 36088 36092 36096 36100 36104 36108 36112 36116 36120 36124 36128 36132 36136 36140 36144 36148 36152 36156 36160 36164 36168 36172 36176 36180 36184 36188 36192 36196 36200 36204 36208 36212 36216 36220 36224 36228 36232 36236 36240 36244 36248 36252 36256 36260 36264 36268 36272 36276 36280 36284 36288 36292 36296 36300 36304 36308 36312 36316 36320 36324 36328 36332 36336 36340 36344 36348 36352 36356 36360 36364 36368 36372 36376 36380 36384 36388 36392 36396 36400 36404 36408 36412 36416 36420 36424 36428 36432 36436 36440 36444 36448 36452 36456 36460 36464 36468 36472 36476 36480 36484 36488 36492 36496 36500 36504 36508 36512 36516 36520 36524 36528 36532 36536 36540 36544 36548 36552 36556 36560 36564 36568 36572 36576 36580 36584 36588 36592 36596 36600 36604 36608 36612 36616 36620 36624 36628 36632 36636 36640 36644 36648 36652 36656 36660 36664 36668 36672 36676 36680 36684 36688 36692 36696 36700 36704 36708 36712 36716 36720 36724 36728 36732 36736 36740 36744 36748 36752 36756 36760 36764 36768 36772 36776 36780 36784 36788 36792 36796 36800 36804 36808 36812 36816 36820 36824 36828 36832 36836 36840 36844 36848 36852 36856 36860 36864 36868 36872 36876 36880 36884 36888 36892 36896 36900 36904 36908 36912 36916 36920 36924 36928 36932 36936 36940 36944 36948 36952 36956 36960 36964 36968 36972 36976 36980 36984 36988 36992 36996 37000 37004 37008 37012 37016 37020 37024 37028 37032 37036 37040 37044 37048 37052 37056 37060 37064 37068 37072 37076 37080 37084 37088 37092 37096 37100 37104 37108 37112 37116 37120 37124 37128 37132 37136 37140 37144 37148 37152 37156 37160 37164 37168 37172 37176 37180 37184 37188 37192 37196 37200 37204 37208 37212 37216 37220 37224 37228 37232 37236 37240 37244 37248 37252 37256 37260 37264 37268 37272 37276 37280 37284 37288 37292 37296 37300 37304 37308 37312 37316 37320 37324 37328 37332 37336 37340 37344 37348 37352 37356 37360 37364 37368 37372 37376 37380 37384 37388 37392 37396 37400 37404 37408 37412 37416 37420 37424 37428 37432 37436 37440 37444 37448 37452 37456 37460 37464 37468 37472 37476 37480 37484 37488 37492 37496 37500 37504 37508 37512 37516 37520 37524 37528 37532 37536 37540 37544 37548 37552 37556 37560 37564 37568 37572 37576 37580 37584 37588 37592 37596 37600 37604 37608 37612 37616 37620 37624 37628 37632 37636 37640 37644 37648 37652 37656 37660 37664 37668 37672 37676 37680 37684 37688 37692 37696 37700 37704 37708 37712 37716 37720 37724 37728 37732 37736 37740 37744 37748 37752 37756 37760 37764 37768 37772 37776 37780 37784 37788 37792 37796 37800 37804 37808 37812 37816 37820 37824 37828 37832 37836 37840 37844 37848 37852 37856 37860 37864 37868 37872 37876 37880 37884 37888 37892 37896 37900 37904 37908 37912 37916 37920 37924 37928 37932 37936 37940 37944 37948 37952 37956 37960 37964 37968 37972 37976 37980 37984 37988 37992 37996 38000 38004 38008 38012 38016 38020 38024 38028 38032 38036 38040 38044 38048 38052 38056 38060 38064 38068 38072 38076 38080 38084 38088 38092 38096 38100 38104 38108 38112 38116 38120 38124 38128 38132 38136 38140 38144 38148 38152 38156 38160 38164 38168 38172 38176 38180 38184 38188 38192 38196 38200 38204 38208 38212 38216 38220 38224 38228 38232 38236 38240 38244 38248 38252 38256 38260 38264 38268 38272 38276 38280 38284 38288 38292 38296 38300 38304 38308 38312 38316 38320 38324 38328 38332 38336 38340 38344 38348 38352 38356 38360 38364 38368 38372 38376 38380 38384 38388 38392 38396 38400 38404 38408 38412 38416 38420 38424 38428 38432 38436 38440 38444 38448 38452 38456 38460 38464 38468 38472 38476 38480 38484 38488 38492 38496 38500 38504 38508 38512 38516 38520 38524 38528 38532 38536 38540 38544 38548 38552 38556 38560 38564 38568 38572 38576 38580 38584 38588 38592 38596 38600 38604 38608 38612 38616 38620 38624 38628 38632 38636 38640 38644 38648 38652 38656 38660 38664 38668 38672 38676 38680 38684 38688 38692 38696 38700 38704 38708 38712 38716 38720 38724 38728 38732 38736 38740 38744 38748 38752 38756 38760 38764 38768 38772 38776 38780 38784 38788 38792 38796 38800 38804 38808 38812 38816 38820 38824 38828 38832 38836 38840 38844 38848 38852 38856 38860 38864 38868 38872 38876 38880 38884 38888 38892 38896 38900 38904 38908 38912 38916 38920 38924 38928 38932 38936 38940 38944 38948 38952 38956 38960 38964 38968 38972 38976 38980 38984 38988 38992 38996 39000 39004 39008 39012 39016 39020 39024 39028 39032 39036 39040 39044 39048 39052 39056 39060 39064 39068 39072 39076 39080 39084 39088 39092 39096 39100 39104 39108 39112 39116 39120 39124 39128 39132 39136 39140 39144 39148 39152 39156 39160 39164 39168 39172 39176 39180 39184 39188 39192 39196 39200 39204 39208 39212 39216 39220 39224 39228 39232 39236 39240 39244 39248 39252 39256 39260 39264 39268 39272 39276 39280 39284 39288 39292 39296 39300 39304 39308 39312 39316 39320 39324 39328 39332 39336 39340 39344 39348 39352 39356 39360 39364 39368 39372 39376 39380 39384 39388 39392 39396 39400 39404 39408 39412 39416 39420 39424 39428 39432 39436 39440 39444 39448 39452 39456 39460 39464 39468 39472 39476 39480 39484 39488 39492 39496 39500 39504 39508 39512 39516 39520 39524 39528 39532 39536 39540 39544 39548 39552 39556 39560 39564 39568 39572 39576 39580 39584 39588 39592 39596 39600 39604 39608 39612 39616 39620 39624 39628 39632 39636 39640 39644 39648 39652 39656 39660 39664 39668 39672 39676 39680 39684 39688 39692 39696 39700 39704 39708 39712 39716 39720 39724 39728 39732 39736 39740 39744 39748 39752 39756 39760 39764 39768 39772 39776 39780 39784 39788 39792 39796 39800 39804 39808 39812 39816 39820 39824 39828 39832 39836 39840 39844 39848 39852 39856 39860 39864 39868 39872 39876 39880 39884 39888 39892 39896 39900 39904 39908 39912 39916 39920 39924 39928 39932 39936 39940 39944 39948 39952 39956 39960 39964 39968 39972 39976 39980 39984 39988 39992 39996 40000 40004 40008 40012 40016 40020 40024 40028 40032 40036 40040 40044 40048 40052 40056 40060 40064 40068 40072 40076 40080 40084 40088 40092 40096 40100 40104 40108 40112 40116 40120 40124 40128 40132 40136 40140 40144 40148 40152 40156 40160 40164 40168 40172 40176 40180 40184 40188 40192 40196 40200 40204 40208 40212 40216 40220 40224 40228 40232 40236 40240 40244 40248 40252 40256 40260 40264 40268 40272 40276 40280 40284 40288 40292 40296 40300 40304 40308 40312 40316 40320 40324 40328 40332 40336 40340 40344 40348 40352 40356 40360 40364 40368 40372 40376 40380 40384 40388 40392 40396 40400 40404 40408 40412 40416 40420 40424 40428 40432 40436 40440 40444 40448 40452 40456 40460 40464 40468 40472 40476 40480 40484 40488 40492 40496 40500 40504 40508 40512 40516 40520 40524 40528 40532 40536 40540 40544 40548 40552 40556 40560 40564 40568 40572 40576 40580 40584 40588 40592 40596 40600 40604 40608 40612 40616 40620 40624 40628 40632 40636 40640 40644 40648 40652 40656 40660 40664 40668 40672 40676 40680 40684 40688 40692 40696 40700 40704 40708 40712 40716 40720 40724 40728 40732 40736 40740 40744 40748 40752 40756 40760 40764 40768 40772 40776 40780 40784 40788 40792 40796 40800 40804 40808 40812 40816 40820 40824 40828 40832 40836 40840 40844 40848 40852 40856 40860 40864 40868 40872 40876 40880 40884 40888 40892 40896 40900 40904 40908 40912 40916 40920 40924 40928 40932 40936 40940 40944 40948 40952 40956 40960 40964 40968 40972 40976 40980 40984 40988 40992 40996 41000 41004 41008 41012 41016 41020 41024 41028 41032 41036 41040 41044 41048 41052 41056 41060 41064 41068 41072 41076 41080 41084 41088 41092 41096 41100 41104 41108 41112 41116 41120 41124 41128 41132 41136 41140 41144 41148 41152 41156 41160 41164 41168 41172 41176 41180 41184 41188 41192 41196 41200 41204 41208 41212 41216 41220 41224 41228 41232 41236 41240 41244 41248 41252 41256 41260 41264 41268 41272 41276 41280 41284 41288 41292 41296 41300 41304 41308 41312 41316 41320 41324 41328 41332 41336 41340 41344 41348 41352 41356 41360 41364 41368 41372 41376 41380 41384 41388 41392 41396 41400 41404 41408 41412 41416 41420 41424 41428 41432 41436 41440 41444 41448 41452 41456 41460 41464 41468 41472 41476 41480 41484 41488 41492 41496 41500 41504 41508 41512 41516 41520 41524 41528 41532 41536 41540 41544 41548 41552 41556 41560 41564 41568 41572 41576 41580 41584 41588 41592 41596 41600 41604 41608 41612 41616 41620 41624 41628 41632 41636 41640 41644 41648 41652 41656 41660 41664 41668 41672 41676 41680 41684 41688 41692 41696 41700 41704 41708 41712 41716 41720 41724 41728 41732 41736 41740 41744 41748 41752 41756 41760 41764 41768 41772 41776 41780 41784 41788 41792 41796 41800 41804 41808 41812 41816 41820 41824 41828 41832 41836 41840 41844 41848 41852 41856 41860 41864 41868 41872 41876 41880 41884 41888 41892 41896 41900 41904 41908 41912 41916 41920 41924 41928 41932 41936 41940 41944 41948 41952 41956 41960 41964 41968 41972 41976 41980 41984 41988 41992 41996 42000 42004 42008 42012 42016 42020 42024 42028 42032 42036 42040 42044 42048 42052 42056 42060 42064 42068 42072 42076 42080 42084 42088 42092 42096 42100 42104 42108 42112 42116 42120 42124 42128 42132 42136 42140 42144 42148 42152 42156 42160 42164 42168 42172 42176 42180 42184 42188 42192 42196 42200 42204 42208 42212 42216 42220 42224 42228 42232 42236 42240 42244 42248 42252 42256 42260 42264 42268 42272 42276 42280 42284 42288 42292 42296 42300 42304 42308 42312 42316 42320 42324 42328 42332 42336 42340 42344 42348 42352 42356 42360 42364 42368 42372 42376 42380 42384 42388 42392 42396 42400 42404 42408 42412 42416 42420 42424 42428 42432 42436 42440 42444 42448 42452 42456 42460 42464 42468 42472 42476 42480 42484 42488 42492 42496 42500 42504 42508 42512 42516 42520 42524 42528 42532 42536 42540 42544 42548 42552 42556 42560 42564 42568 42572 42576 42580 42584 42588 42592 42596 42600 42604 42608 42612 42616 42620 42624 42628 42632 42636 42640 42644 42648 42652 42656 42660 42664 42668 42672 42676 42680 42684 42688 42692 42696 42700 42704 42708 42712 42716 42720 42724 42728 42732 42736 42740 42744 42748 42752 42756 42760 42764 42768 42772 42776 42780 42784 42788 42792 42796 42800 42804 42808 42812 42816 42820 42824 42828 42832 42836 42840 42844 42848 42852 42856 42860 42864 42868 42872 42876 42880 42884 42888 42892 42896 42900 42904 42908 42912 42916 42920 42924 42928 42932 42936 42940 42944 42948 42952 42956 42960 42964 42968 42972 42976 42980 42984 42988 42992 42996 43000 43004 43008 43012 43016 43020 43024 43028 43032 43036 43040 43044 43048 43052 43056 43060 43064 43068 43072 43076 43080 43084 43088 43092 43096 43100 43104 43108 43112 43116 43120 43124 43128 43132 43136 43140 43144 43148 43152 43156 43160 43164 43168 43172 43176 43180 43184 43188 43192 43196 43200 43204 43208 43212 43216 43220 43224 43228 43232 43236 43240 43244 43248 43252 43256 43260 43264 43268 43272 43276 43280 43284 43288 43292 43296 43300 43304 43308 43312 43316 43320 43324 43328 43332 43336 43340 43344 43348 43352 43356 43360 43364 43368 43372 43376 43380 43384 43388 43392 43396 43400 43404 43408 43412 43416 43420 43424 43428 43432 43436 43440 43444 43448 43452 43456 43460 43464 43468 43472 43476 43480 43484 43488 43492 43496 43500 43504 43508 43512 43516 43520 43524 43528 43532 43536 43540 43544 43548 43552 43556 43560 43564 43568 43572 43576 43580 43584 43588 43592 43596 43600 43604 43608 43612 43616 43620 43624 43628 43632 43636 43640 43644 43648 43652 43656 43660 43664 43668 43672 43676 43680 43684 43688 43692 43696 43700 43704 43708 43712 43716 43720 43724 43728 43732 43736 43740 43744 43748 43752 43756 43760 43764 43768 43772 43776 43780 43784 43788 43792 43796 43800 43804 43808 43812 43816 43820 43824 43828 43832 43836 43840 43844 43848 43852 43856 43860 43864 43868 43872 43876 43880 43884 43888 43892 43896 43900 43904 43908 43912 43916 43920 43924 43928 43932 43936 43940 43944 43948 43952 43956 43960 43964 43968 43972 43976 43980 43984 43988 43992 43996 44000 44004 44008 44012 44016 44020 44024 44028 44032 44036 44040 44044 44048 44052 44056 44060 44064 44068 44072 44076 44080 44084 44088 44092 44096 44100 44104 44108 44112 44116 44120 44124 44128 44132 44136 44140 44144 44148 44152 44156 44160 44164 44168 44172 44176 44180 44184 44188 44192 44196 44200 44204 44208 44212 44216 44220 44224 44228 44232 44236 44240 44244 44248 44252 44256 44260 44264 44268 44272 44276 44280 44284 44288 44292 44296 44300 44304 44308 44312 44316 44320 44324 44328 44332 44336 44340 44344 44348 44352 44356 44360 44364 44368 44372 44376 44380 44384 44388 44392 44396 44400 44404 44408 44412 44416 44420 44424 44428 44432 44436 44440 44444 44448 44452 44456 44460 44464 44468 44472 44476 44480 44484 44488 44492 44496 44500 44504 44508 44512 44516 44520 44524 44528 44532 44536 44540 44544 44548 44552 44556 44560 44564 44568 44572 44576 44580 44584 44588 44592 44596 44600 44604 44608 44612 44616 44620 44624 44628 44632 44636 44640 44644 44648 44652 44656 44660 44664 44668 44672 44676 44680 44684 44688 44692 44696 44700 44704 44708 44712 44716 44720 44724 44728 44732 44736 44740 44744 44748 44752 44756 44760 44764 44768 44772 44776 44780 44784 44788 44792 44796 44800 44804 44808 44812 44816 44820 44824 44828 44832 44836 44840 44844 44848 44852 44856 44860 44864 44868 44872 44876 44880 44884 44888 44892 44896 44900 44904 44908 44912 44916 44920 44924 44928 44932 44936 44940 44944 44948 44952 44956 44960 44964 44968 44972 44976 44980 44984 44988 44992 44996 45000 45004 45008 45012 45016 45020 45024 45028 45032 45036 45040 45044 45048 45052 45056 45060 45064 45068 45072 45076 45080 45084 45088 45092 45096 45100 45104 45108 45112 45116 45120 45124 45128 45132 45136 45140 45144 45148 45152 45156 45160 45164 45168 45172 45176 45180 45184 45188 45192 45196 45200 45204 45208 45212 45216 45220 45224 45228 45232 45236 45240 45244 45248 45252 45256 45260 45264 45268 45272 45276 45280 45284 45288 45292 45296 45300 45304 45308 45312 45316 45320 45324 45328 45332 45336 45340 45344 45348 45352 45356 45360 45364 45368 45372 45376 45380 45384 45388 45392 45396 45400 45404 45408 45412 45416 45420 45424 45428 45432 45436 45440 45444 45448 45452 45456 45460 45464 45468 45472 45476 45480 45484 45488 45492 45496 45500 45504 45508 45512 45516 45520 45524 45528 45532 45536 45540 45544 45548 45552 45556 45560 45564 45568 45572 45576 45580 45584 45588 45592 45596 45600 45604 45608 45612 45616 45620 45624 45628 45632 45636 45640 45644 45648 45652 45656 45660 45664 45668 45672 45676 45680 45684 45688 45692 45696 45700 45704 45708 45712 45716 45720 45724 45728 45732 45736 45740 45744 45748 45752 45756 45760 45764 45768 45772 45776 45780 45784 45788 45792 45796 45800 45804 45808 45812 45816 45820 45824 45828 45832 45836 45840 45844 45848 45852 45856 45860 45864 45868 45872 45876 45880 45884 45888 45892 45896 45900 45904 45908 45912 45916 45920 45924 45928 45932 45936 45940 45944 45948 45952 45956 45960 45964 45968 45972 45976 45980 45984 45988 45992 45996 46000 46004 46008 46012 46016 46020 46024 46028 46032 46036 46040 46044 46048 46052 46056 46060 46064 46068 46072 46076 46080 46084 46088 46092 46096 46100 46104 46108 46112 46116 46120 46124 46128 46132 46136 46140 46144 46148 46152 46156 46160 46164 46168 46172 46176 46180 46184 46188 46192 46196 46200 46204 46208 46212 46216 46220 46224 46228 46232 46236 46240 46244 46248 46252 46256 46260 46264 46268 46272 46276 46280 46284 46288 46292 46296 46300 46304 46308 46312 46316 46320 46324 46328 46332 46336 46340 46344 46348 46352 46356 46360 46364 46368 46372 46376 46380 46384 46388 46392 46396 46400 46404 46408 46412 46416 46420 46424 46428 46432 46436 46440 46444 46448 46452 46456 46460 46464 46468 46472 46476 46480 46484 46488 46492 46496 46500 46504 46508 46512 46516 46520 46524 46528 46532 46536 46540 46544 46548 46552 46556 46560 46564 46568 46572 46576 46580 46584 46588 46592 46596 46600 46604 46608 46612 46616 46620 46624 46628 46632 46636 46640 46644 46648 46652 46656 46660 46664 46668 46672 46676 46680 46684 46688 46692 46696 46700 46704 46708 46712 46716 46720 46724 46728 46732 46736 46740 46744 46748 46752 46756 46760 46764 46768 46772 46776 46780 46784 46788 46792 46796 46800 46804 46808 46812 46816 46820 46824 46828 46832 46836 46840 46844 46848 46852 46856 46860 46864 46868 46872 46876 46880 46884 46888 46892 46896 46900 46904 46908 46912 46916 46920 46924 46928 46932 46936 46940 46944 46948 46952 46956 46960 46964 46968 46972 46976 46980 46984 46988 46992 46996 47000 47004 47008 47012 47016 47020 47024 47028 47032 47036 47040 47044 47048 47052 47056 47060 47064 47068 47072 47076 47080 47084 47088 47092 47096 47100 47104 47108 47112 47116 47120 47124 47128 47132 47136 47140 47144 47148 47152 47156 47160 47164 47168 47172 47176 47180 47184 47188 47192 47196 47200 47204 47208 47212 47216 47220 47224 47228 47232 47236 47240 47244 47248 47252 47256 47260 47264 47268 47272 47276 47280 47284 47288 47292 47296 47300 47304 47308 47312 47316 47320 47324 47328 47332 47336 47340 47344 47348 47352 47356 47360 47364 47368 47372 47376 47380 47384 47388 47392 47396 47400 47404 47408 47412 47416 47420 47424 47428 47432 47436 47440 47444 47448 47452 47456 47460 47464 47468 47472 47476 47480 47484 47488 47492 47496 47500 47504 47508 47512 47516 47520 47524 47528 47532 47536 47540 47544 47548 47552 47556 47560 47564 47568 47572 47576 47580 47584 47588 47592 47596 47600 47604 47608 47612 47616 47620 47624 47628 47632 47636 47640 47644 47648 47652 47656 47660 47664 47668 47672 47676 47680 47684 47688 47692 47696 47700 47704 47708 47712 47716 47720 47724 47728 47732 47736 47740 47744 47748 47752 47756 47760 47764 47768 47772 47776 47780 47784 47788 47792 47796 47800 47804 47808 47812 47816 47820 47824 47828 47832 47836 47840 47844 47848 47852 47856 47860 47864 47868 47872 47876 47880 47884 47888 47892 47896 47900 47904 47908 47912 47916 47920 47924 47928 47932 47936 47940 47944 47948 47952 47956 47960 47964 47968 47972 47976 47980 47984 47988 47992 47996 48000 48004 48008 48012 48016 48020 48024 48028 48032 48036 48040 48044 48048 48052 48056 48060 48064 48068 48072 48076 48080 48084 48088 48092 48096 48100 48104 48108 48112 48116 48120 48124 48128 48132 48136 48140 48144 48148 48152 48156 48160 48164 48168 48172 48176 48180 48184 48188 48192 48196 48200 48204 48208 48212 48216 48220 48224 48228 48232 48236 48240 48244 48248 48252 48256 48260 48264 48268 48272 48276 48280 48284 48288 48292 48296 48300 48304 48308 48312 48316 48320 48324 48328 48332 48336 48340 48344 48348 48352 48356 48360 48364 48368 48372 48376 48380 48384 48388 48392 48396 48400 48404 48408 48412 48416 48420 48424 48428 48432 48436 48440 48444 48448 48452 48456 48460 48464 48468 48472 48476 48480 48484 48488 48492 48496 48500 48504 48508 48512 48516 48520 48524 48528 48532 48536 48540 48544 48548 48552 48556 48560 48564 48568 48572 48576 48580 48584 48588 48592 48596 48600 48604 48608 48612 48616 48620 48624 48628 48632 48636 48640 48644 48648 48652 48656 48660 48664 48668 48672 48676 48680 48684 48688 48692 48696 48700 48704 48708 48712 48716 48720 48724 48728 48732 48736 48740 48744 48748 48752 48756 48760 48764 48768 48772 48776 48780 48784 48788 48792 48796 48800 48804 48808 48812 48816 48820 48824 48828 48832 48836 48840 48844 48848 48852 48856 48860 48864 48868 48872 48876 48880 48884 48888 48892 48896 48900 48904 48908 48912 48916 48920 48924 48928 48932 48936 48940 48944 48948 48952 48956 48960 48964 48968 48972 48976 48980 48984 48988 48992 48996 49000 49004 49008 49012 49016 49020 49024 49028 49032 49036 49040 49044 49048 49052 49056 49060 49064 49068 49072 49076 49080 49084 49088 49092 49096 49100 49104 49108 49112 49116 49120 49124 49128 49132 49136 49140 49144 49148 49152 
CONNECTIVITY vtktypeint64
0 33 331 34 
297 331 298 0 
0 33 330 331 
297 331 0 330 
298 0 331 1 
331 0 34 1 
1 34 332 35 
298 332 299 1 
1 34 331 332 
298 332 1 331 
299 1 332 2 
332 1 35 2 
2 35 333 36 
299 333 300 2 
2 35 332 333 
299 333 2 332 
300 2 333 3 
333 2 36 3 
3 36 334 37 
300 334 301 3 
3 36 333 334 
300 334 3 333 
301 3 334 4 
334 3 37 4 
4 37 335 38 
301 335 302 4 
4 37 334 335 
301 335 4 334 
302 4 335 5 
335 4 38 5 
5 38 336 39 
302 336 303 5 
5 38 335 336 
302 336 5 335 
303 5 336 6 
336 5 39 6 
6 39 337 40 
303 337 304 6 
6 39 336 337 
303 337 6 336 
304 6 337 7 
337 6 40 7 
7 40 338 41 
304 338 305 7 
7 40 337 338 
304 338 7 337 
305 7 338 8 
338 7 41 8 
8 41 339 42 
305 339 306 8 
8 41 338 339 
305 339 8 338 
306 8 339 9 
339 8 42 9 
9 42 340 43 
306 340 307 9 
9 42 339 340 
306 340 9 339 
307 9 340 10 
340 9 43 10 
10 43 341 44 
307 341 308 10 
10 43 340 341 
307 341 10 340 
308 10 341 11 
341 10 44 11 
11 44 342 45 
308 342 309 11 
11 44 341 342 
308 342 11 341 
309 11 342 12 
342 11 45 12 
12 45 343 46 
309 343 310 12 
12 45 342 343 
309 343 12 342 
310 12 343 13 
343 12 46 13 
13 46 344 47 
310 344 311 13 
13 46 343 344 
310 344 13 343 
311 13 344 14 
344 13 47 14 
14 47 345 48 
311 345 312 14 
14 47 344 345 
311 345 14 344 
312 14 345 15 
345 14 48 15 
15 48 346 49 
312 346 313 15 
15 48 345 346 
312 346 15 345 
313 15 346 16 
346 15 49 16 
16 49 347 50 
313 347 314 16 
16 49 346 347 
313 347 16 346 
314 16 347 17 
347 16 50 17 
17 50 348 51 
314 348 315 17 
17 50 347 348 
314 348 17 347 
315 17 348 18 
348 17 51 18 
18 51 349 52 
315 349 316 18 
18 51 348 349 
315 349 18 348 
316 18 349 19 
349 18 52 19 
19 52 350 53 
316 350 317 19 
19 52 349 350 
316 350 19 349 
317 19 350 20 
350 19 53 20 
20 53 351 54 
317 351 318 20 
20 53 350 351 
317 351 20 350 
318 20 351 21 
351 20 54 21 
21 54 352 55 
318 352 319 21 
21 54 351 352 
318 352 21 351 
319 21 352 22 
352 21 55 22 
22 55 353 56 
319 353 320 22 
22 55 352 353 
319 353 22 352 
320 22 353 23 
353 22 56 23 
23 56 354 57 
320 354 321 23 
23 56 353 354 
320 354 23 353 
321 23 354 24 
354 23 57 24 
24 57 355 58 
321 355 322 24 
24 57 354 355 
321 355 24 354 
322 24 355 25 
355 24 58 25 
25 58 356 59 
322 356 323 25 
25 58 355 356 
322 356 25 355 
323 25 356 26 
356 25 59 26 
26 59 357 60 
323 357 324 26 
26 59 356 357 
323 357 26 356 
324 26 357 27 
357 26 60 27 
27 60 358 61 
324 358 325 27 
27 60 357 358 
324 358 27 357 
325 27 358 28 
358 27 61 28 
28 61 359 62 
325 359 326 28 
28 61 358 359 
325 359 28 358 
326 28 359 29 
359 28 62 29 
29 62 360 63 
326 360 327 29 
29 62 359 360 
326 360 29 359 
327 29 360 30 
360 29 63 30 
30 63 361 64 
327 361 328 30 
30 63 360 361 
327 361 30 360 
328 30 361 31 
361 30 64 31 
31 64 362 65 
328 362 329 31 
31 64 361 362 
328 362 31 361 
329 31 362 32 
362 31 65 32 
33 66 364 67 
330 364 331 33 
33 66 363 364 
330 364 33 363 
331 33 364 34 
364 33 67 34 
34 67 365 68 
331 365 332 34 
34 67 364 365 
331 365 34 364 
332 34 365 35 
365 34 68 35 
35 68 366 69 
332 366 333 35 
35 68 365 366 
332 366 35 365 
333 35 366 36 
366 35 69 36 
36 69 367 70 
333 367 334 36 
36 69 366 367 
333 367 36 366 
334 36 367 37 
367 36 70 37 
37 70 368 71 
334 368 335 37 
37 70 367 368 
334 368 37 367 
335 37 368 38 
368 37 71 38 
38 71 369 72 
335 369 336 38 
38 71 368 369 
335 369 38 368 
336 38 369 39 
369 38 72 39 
39 72 370 73 
336 370 337 39 
39 72 369 370 
336 370 39 369 
337 39 370 40 
370 39 73 40 
40 73 371 74 
337 371 338 40 
40 73 370 371 
337 371 40 370 
338 40 371 41 
371 40 74 41 
41 74 372 75 
338 372 339 41 
41 74 371 372 
338 372 41 371 
339 41 372 42 
372 41 75 42 
42 75 373 76 
339 373 340 42 
42 75 372 373 
339 373 42 372 
340 42 373 43 
373 42 76 43 
43 76 374 77 
340 374 341 43 
43 76 373 374 
340 374 43 373 
341 43 374 44 
374 43 77 44 
44 77 375 78 
341 375 342 44 
44 77 374 375 
341 375 44 374 
342 44 375 45 
375 44 78 45 
45 78 376 79 
342 376 343 45 
45 78 375 376 
342 376 45 375 
343 45 376 46 
376 45 79 46 
46 79 377 80 
343 377 344 46 
46 79 376 377 
343 377 46 376 
344 46 377 47 
377 46 80 47 
47 80 378 81 
344 378 345 47 
47 80 377 378 
344 378 47 377 
345 47 378 48 
378 47 81 48 
48 81 379 82 
345 379 346 48 
48 81 378 379 
345 379 48 378 
346 48 379 49 
379 48 82 49 
49 82 380 83 
346 380 347 49 
49 82 379 380 
346 380 49 379 
347 49 380 50 
380 49 83 50 
50 83 381 84 
347 381 348 50 
50 83 380 381 
347 381 50 380 
348 50 381 51 
381 50 84 51 
51 84 382 85 
348 382 349 51 
51 84 381 382 
348 382 51 381 
349 51 382 52 
382 51 85 52 
52 85 383 86 
349 383 350 52 
52 85 382 383 
349 383 52 382 
350 52 383 53 
383 52 86 53 
53 86 384 87 
350 384 351 53 
53 86 383 384 
350 384 53 383 
351 53 384 54 
384 53 87 54 
54 87 385 88 
351 385 352 54 
54 87 384 385 
351 385 54 384 
352 54 385 55 
385 54 88 55 
55 88 386 89 
352 386 353 55 
55 88 385 386 
352 386 55 385 
353 55 386 56 
386 55 89 56 
56 89 387 90 
353 387 354 56 
56 89 386 387 
353 387 56 386 
354 56 387 57 
387 56 90 57 
57 90 388 91 
354 388 355 57 
57 90 387 388 
354 388 57 387 
355 57 388 58 
388 57 91 58 
58 91 389 92 
355 389 356 58 
58 91 388 389 
355 389 58 388 
356 58 389 59 
389 58 92 59 
59 92 390 93 
356 390 357 59 
59 92 389 390 
356 390 59 389 
357 59 390 60 
390 59 93 60 
60 93 391 94 
357 391 358 60 
60 93 390 391 
357 391 60 390 
358 60 391 61 
391 60 94 61 
61 94 392 95 
358 392 359 61 
61 94 391 392 
358 392 61 391 
359 61 392 62 
392 61 95 62 
62 95 393 96 
359 393 360 62 
62 95 392 393 
359 393 62 392 
360 62 393 63 
393 62 96 63 
63 96 394 97 
360 394 361 63 
63 96 393 394 
360 394 63 393 
361 63 394 64 
394 63 97 64 
64 97 395 98 
361 395 362 64 
64 97 394 395 
361 395 64 394 
362 64 395 65 
395 64 98 65 
66 99 397 100 
363 397 364 66 
66 99 396 397 
363 397 66 396 
364 66 397 67 
397 66 100 67 
67 100 398 101 
364 398 365 67 
67 100 397 398 
364 398 67 397 
365 67 398 68 
398 67 101 68 
68 101 399 102 
365 399 366 68 
68 101 398 399 
365 399 68 398 
366 68 399 69 
399 68 102 69 
69 102 400 103 
366 400 367 69 
69 102 399 400 
366 400 69 399 
367 69 400 70 
400 69 103 70 
70 103 401 104 
367 401 368 70 
70 103 400 401 
367 401 70 400 
368 70 401 71 
401 70 104 71 
71 104 402 105 
368 402 369 71 
71 104 401 402 
368 402 71 401 
369 71 402 72 
402 71 105 72 
72 105 403 106 
369 403 370 72 
72 105 402 403 
369 403 72 402 
370 72 403 73 
403 72 106 73 
73 106 404 107 
370 404 371 73 
73 106 403 404 
370 404 73 403 
371 73 404 74 
404 73 107 74 
74 107 405 108 
371 405 372 74 
74 107 404 405 
371 405 74 404 
372 74 405 75 
405 74 108 75 
75 108 406 109 
372 406 373 75 
75 108 405 406 
372 406 75 405 
373 75 406 76 
406 75 109 76 
76 109 407 110 
373 407 374 76 
76 109 406 407 
373 407 76 406 
374 76 407 77 
407 76 110 77 
77 110 408 111 
374 408 375 77 
77 110 407 408 
374 408 77 407 
375 77 408 78 
408 77 111 78 
78 111 409 112 
375 409 376 78 
78 111 408 409 
375 409 78 408 
376 78 409 79 
409 78 112 79 
79 112 410 113 
376 410 377 79 
79 112 409 410 
376 410 79 409 
377 79 410 80 
410 79 113 80 
80 113 411 114 
377 411 378 80 
80 113 410 411 
377 411 80 410 
378 80 411 81 
411 80 114 81 
81 114 412 115 
378 412 379 81 
81 114 411 412 
378 412 81 411 
379 81 412 82 
412 81 115 82 
82 115 413 116 
379 413 380 82 
82 115 412 413 
379 413 82 412 
380 82 413 83 
413 82 116 83 
83 116 414 117 
380 414 381 83 
83 116 413 414 
380 414 83 413 
381 83 414 84 
414 83 117 84 
84 117 415 118 
381 415 382 84 
84 117 414 415 
381 415 84 414 
382 84 415 85 
415 84 118 85 
85 118 416 119 
382 416 383 85 
85 118 415 416 
382 416 85 415 
383 85 416 86 
416 85 119 86 
86 119 417 120 
383 417 384 86 
86 119 416 417 
383 417 86 416 
384 86 417 87 
417 86 120 87 
87 120 418 121 
384 418 385 87 
87 120 417 418 
384 418 87 417 
385 87 418 88 
418 87 121 88 
88 121 419 122 
385 419 386 88 
88 121 418 419 
385 419 88 418 
386 88 419 89 
419 88 122 89 
89 122 420 123 
386 420 387 89 
89 122 419 420 
386 420 89 419 
387 89 420 90 
420 89 123 90 
90 123 421 124 
387 421 388 90 
90 123 420 421 
387 421 90 420 
388 90 421 91 
421 90 124 91 
91 124 422 125 
388 422 389 91 
91 124 421 422 
388 422 91 421 
389 91 422 92 
422 91 125 92 
92 125 423 126 
389 423 390 92 
92 125 422 423 
389 423 92 422 
390 92 423 93 
423 92 126 93 
93 126 424 127 
390 424 391 93 
93 126 423 424 
390 424 93 423 
391 93 424 94 
424 93 127 94 
94 127 425 128 
391 425 392 94 
94 127 424 425 
391 425 94 424 
392 94 425 95 
425 94 128 95 
95 128 426 129 
392 426 393 95 
95 128 425 426 
392 426 95 425 
393 95 426 96 
426 95 129 96 
96 129 427 130 
393 427 394 96 
96 129 426 427 
393 427 96 426 
394 96 427 97 
427 96 130 97 
97 130 428 131 
394 428 395 97 
97 130 427 428 
394 428 97 427 
395 97 428 98 
428 97 131 98 
99 132 430 133 
396 430 397 99 
99 132 429 430 
396 430 99 429 
397 99 430 100 
430 99 133 100 
100 133 431 134 
397 431 398 100 
100 133 430 431 
397 431 100 430 
398 100 431 101 
431 100 134 101 
101 134 432 135 
398 432 399 101 
101 134 431 432 
398 432 101 431 
399 101 432 102 
432 101 135 102 
102 135 433 136 
399 433 400 102 
102 135 432 433 
399 433 102 432 
400 102 433 103 
433 102 136 103 
103 136 434 137 
400 434 401 103 
103 136 433 434 
400 434 103 433 
401 103 434 104 
434 103 137 104 
104 137 435 138 
401 435 402 104 
104 137 434 435 
401 435 104 434 
402 104 435 105 
435 104 138 105 
105 138 436 139 
402 436 403 105 
105 138 435 436 
402 436 105 435 
403 105 436 106 
436 105 139 106 
106 139 437 140 
403 437 404 106 
106 139 436 437 
403 437 106 436 
404 106 437 107 
437 106 140 107 
107 140 438 141 
404 438 405 107 
107 140 437 438 
404 438 107 437 
405 107 438 108 
438 107 141 108 
108 141 439 142 
405 439 406 108 
108 141 438 439 
405 439 108 438 
406 108 439 109 
439 108 142 109 
109 142 440 143 
406 440 407 109 
109 142 439 440 
406 440 109 439 
407 109 440 110 
440 109 143 110 
110 143 441 144 
407 441 408 110 
110 143 440 441 
407 441 110 440 
408 110 441 111 
441 110 144 111 
111 144 442 145 
408 442 409 111 
111 144 441 442 
408 442 111 441 
409 111 442 112 
442 111 145 112 
112 145 443 146 
409 443 410 112 
112 145 442 443 
409 443 112 442 
410 112 443 113 
443 112 146 113 
113 146 444 147 
410 444 411 113 
113 146 443 444 
410 444 113 443 
411 113 444 114 
444 113 147 114 
114 147 445 148 
411 445 412 114 
114 147 444 445 
411 445 114 444 
412 114 445 115 
445 114 148 115 
115 148 446 149 
412 446 413 115 
115 148 445 446 
412 446 115 445 
413 115 446 116 
446 115 149 116 
116 149 447 150 
413 447 414 116 
116 149 446 447 
413 447 116 446 
414 116 447 117 
447 116 150 117 
117 150 448 151 
414 448 415 117 
117 150 447 448 
414 448 117 447 
415 117 448 118 
448 117 151 118 
118 151 449 152 
415 449 416 118 
118 151 448 449 
415 449 118 448 
416 118 449 119 
449 118 152 119 
119 152 450 153 
416 450 417 119 
119 152 449 450 
416 450 119 449 
417 119 450 120 
450 119 153 120 
120 153 451 154 
417 451 418 120 
120 153 450 451 
417 451 120 450 
418 120 451 121 
451 120 154 121 
121 154 452 155 
418 452 419 121 
121 154 451 452 
418 452 121 451 
419 121 452 122 
452 121 155 122 
122 155 453 156 
419 453 420 122 
122 155 452 453 
419 453 122 452 
420 122 453 123 
453 122 156 123 
123 156 454 157 
420 454 421 123 
123 156 453 454 
420 454 123 453 
421 123 454 124 
454 123 157 124 
124 157 455 158 
421 455 422 124 
124 157 454 455 
421 455 124 454 
422 124 455 125 
455 124 158 125 
125 158 456 159 
422 456 423 125 
125 158 455 456 
422 456 125 455 
423 125 456 126 
456 125 159 126 
126 159 457 160 
423 457 424 126 
126 159 456 457 
423 457 126 456 
424 126 457 127 
457 126 160 127 
127 160 458 161 
424 458 425 127 
127 160 457 458 
424 458 127 457 
425 127 458 128 
458 127 161 128 
128 161 459 162 
425 459 426 128 
128 161 458 459 
425 459 128 458 
426 128 459 129 
459 128 162 129 
129 162 460 163 
426 460 427 129 
129 162 459 460 
426 460 129 459 
427 129 460 130 
460 129 163 130 
130 163 461 164 
427 461 428 130 
130 163 460 461 
427 461 130 460 
428 130 461 131 
461 130 164 131 
132 165 463 166 
429 463 430 132 
132 165 462 463 
429 463 132 462 
430 132 463 133 
463 132 166 133 
133 166 464 167 
430 464 431 133 
133 166 463 464 
430 464 133 463 
431 133 464 134 
464 133 167 134 
134 167 465 168 
431 465 432 134 
134 167 464 465 
431 465 134 464 
432 134 465 135 
465 134 168 135 
135 168 466 169 
432 466 433 135 
135 168 465 466 
432 466 135 465 
433 135 466 136 
466 135 169 136 
136 169 467 170 
433 467 434 136 
136 169 466 467 
433 467 136 466 
434 136 467 137 
467 136 170 137 
137 170 468 171 
434 468 435 137 
137 170 467 468 
434 468 137 467 
435 137 468 138 
468 137 171 138 
138 171 469 172 
435 469 436 138 
138 171 468 469 
435 469 138 468 
436 138 469 139 
469 138 172 139 
139 172 470 173 
436 470 437 139 
139 172 469 470 
436 470 139 469 
437 139 470 140 
470 139 173 140 
140 173 471 174 
437 471 438 140 
140 173 470 471 
437 471 140 470 
438 140 471 141 
471 140 174 141 
141 174 472 175 
438 472 439 141 
141 174 471 472 
438 472 141 471 
439 141 472 142 
472 141 175 142 
142 175 473 176 
439 473 440 142 
142 175 472 473 
439 473 142 472 
440 142 473 143 
473 142 176 143 
143 176 474 177 
440 474 441 143 
143 176 473 474 
440 474 143 473 
441 143 474 144 
474 143 177 144 
144 177 475 178 
441 475 442 144 
144 177 474 475 
441 475 144 474 
442 144 475 145 
475 144 178 145 
145 178 476 179 
442 476 443 145 
145 178 475 476 
442 476 145 475 
443 145 476 146 
476 145 179 146 
146 179 477 180 
443 477 444 146 
146 179 476 477 
443 477 146 476 
444 146 477 147 
477 146 180 147 
147 180 478 181 
444 478 445 147 
147 180 477 478 
444 478 147 477 
445 147 478 148 
478 147 181 148 
148 181 479 182 
445 479 446 148 
148 181 478 479 
445 479 148 478 
446 148 479 149 
479 148 182 149 
149 182 480 183 
446 480 447 149 
149 182 479 480 
446 480 149 479 
447 149 480 150 
480 149 183 150 
150 183 481 184 
447 481 448 150 
150 183 480 481 
447 481 150 480 
448 150 481 151 
481 150 184 151 
151 184 482 185 
448 482 449 151 
151 184 481 482 
448 482 151 481 
449 151 482 152 
482 151 185 152 
152 185 483 186 
449 483 450 152 
152 185 482 483 
449 483 152 482 
450 152 483 153 
483 152 186 153 
153 186 484 187 
450 484 451 153 
153 186 483 484 
450 484 153 483 
451 153 484 154 
484 153 187 154 
154 187 485 188 
451 485 452 154 
154 187 484 485 
451 485 154 484 
452 154 485 155 
485 154 188 155 
155 188 486 189 
452 486 453 155 
155 188 485 486 
452 486 155 485 
453 155 486 156 
486 155 189 156 
156 189 487 190 
453 487 454 156 
156 189 486 487 
453 487 156 486 
454 156 487 157 
487 156 190 157 
157 190 488 191 
454 488 455 157 
157 190 487 488 
454 488 157 487 
455 157 488 158 
488 157 191 158 
158 191 489 192 
455 489 456 158 
158 191 488 489 
455 489 158 488 
456 158 489 159 
489 158 192 159 
159 192 490 193 
456 490 457 159 
159 192 489 490 
456 490 159 489 
457 159 490 160 
490 159 193 160 
160 193 491 194 
457 491 458 160 
160 193 490 491 
457 491 160 490 
458 160 491 161 
491 160 194 161 
161 194 492 195 
458 492 459 161 
161 194 491 492 
458 492 161 491 
459 161 492 162 
492 161 195 162 
162 195 493 196 
459 493 460 162 
162 195 492 493 
459 493 162 492 
460 162 493 163 
493 162 196 163 
163 196 494 197 
460 494 461 163 
163 196 493 494 
460 494 163 493 
461 163 494 164 
494 163 197 164 
165 198 496 199 
462 496 463 165 
165 198 495 496 
462 496 165 495 
463 165 496 166 
496 165 199 166 
166 199 497 200 
463 497 464 166 
166 199 496 497 
463 497 166 496 
464 166 497 167 
497 166 200 167 
167 200 498 201 
464 498 465 167 
167 200 497 498 
464 498 167 497 
465 167 498 168 
498 167 201 168 
168 201 499 202 
465 499 466 168 
168 201 498 499 
465 499 168 498 
466 168 499 169 
499 168 202 169 
169 202 500 203 
466 500 467 169 
169 202 499 500 
466 500 169 499 
467 169 500 170 
500 169 203 170 
170 203 501 204 
467 501 468 170 
170 203 500 501 
467 501 170 500 
468 170 501 171 
501 170 204 171 
171 204 502 205 
468 502 469 171 
171 204 501 502 
468 502 171 501 
469 171 502 172 
502 171 205 172 
172 205 503 206 
469 503 470 172 
172 205 502 503 
469 503 172 502 
470 172 503 173 
503 172 206 173 
173 206 504 207 
470 504 471 173 
173 206 503 504 
470 504 173 503 
471 173 504 174 
504 173 207 174 
174 207 505 208 
471 505 472 174 
174 207 504 505 
471 505 174 504 
472 174 505 175 
505 174 208 175 
175 208 506 209 
472 506 473 175 
175 208 505 506 
472 506 175 505 
473 175 506 176 
506 175 209 176 
176 209 507 210 
473 507 474 176 
176 209 506 507 
473 507 176 506 
474 176 507 177 
507 176 210 177 
177 210 508 211 
474 508 475 177 
177 210 507 508 
474 508 177 507 
475 177 508 178 
508 177 211 178 
178 211 509 212 
475 509 476 178 
178 211 508 509 
475 509 178 508 
476 178 509 179 
509 178 212 179 
179 212 510 213 
476 510 477 179 
179 212 509 510 
476 510 179 509 
477 179 510 180 
510 179 213 180 
180 213 511 214 
477 511 478 180 
180 213 510 511 
477 511 180 510 
478 180 511 181 
511 180 214 181 
181 214 512 215 
478 512 479 181 
181 214 511 512 
478 512 181 511 
479 181 512 182 
512 181 215 182 
182 215 513 216 
479 513 480 182 
182 215 512 513 
479 513 182 512 
480 182 513 183 
513 182 216 183 
183 216 514 217 
480 514 481 183 
183 216 513 514 
480 514 183 513 
481 183 514 184 
514 183 217 184 
184 217 515 218 
481 515 482 184 
184 217 514 515 
481 515 184 514 
482 184 515 185 
515 184 218 185 
185 218 516 219 
482 516 483 185 
185 218 515 516 
482 516 185 515 
483 185 516 186 
516 185 219 186 
186 219 517 220 
483 517 484 186 
186 219 516 517 
483 517 186 516 
484 186 517 187 
517 186 220 187 
187 220 518 221 
484 518 485 187 
187 220 517 518 
484 518 187 517 
485 187 518 188 
518 187 221 188 
188 221 519 222 
485 519 486 188 
188 221 518 519 
485 519 188 518 
486 188 519 189 
519 188 222 189 
189 222 520 223 
486 520 487 189 
189 222 519 520 
486 520 189 519 
487 189 520 190 
520 189 223 190 
190 223 521 224 
487 521 488 190 
190 223 520 521 
487 521 190 520 
488 190 521 191 
521 190 224 191 
191 224 522 225 
488 522 489 191 
191 224 521 522 
488 522 191 521 
489 191 522 192 
522 191 225 192 
192 225 523 226 
489 523 490 192 
192 225 522 523 
489 523 192 522 
490 192 523 193 
523 192 226 193 
193 226 524 227 
490 524 491 193 
193 226 523 524 
490 524 193 523 
491 193 524 194 
524 193 227 194 
194 227 525 228 
491 525 492 194 
194 227 524 525 
491 525 194 524 
492 194 525 195 
525 194 228 195 
195 228 526 229 
492 526 493 195 
195 228 525 526 
492 526 195 525 
493 195 526 196 
526 195 229 196 
196 229 527 230 
493 527 494 196 
196 229 526 527 
493 527 196 526 
494 196 527 197 
527 196 230 197 
198 231 529 232 
495 529 496 198 
198 231 528 529 
495 529 198 528 
496 198 529 199 
529 198 232 199 
199 232 530 233 
496 530 497 199 
199 232 529 530 
496 530 199 529 
497 199 530 200 
530 199 233 200 
200 233 531 234 
497 531 498 200 
200 233 530 531 
497 531 200 530 
498 200 531 201 
531 200 234 201 
201 234 532 235 
498 532 499 201 
201 234 531 532 
498 532 201 531 
499 201 532 202 
532 201 235 202 
202 235 533 236 
499 533 500 202 
202 235 532 533 
499 533 202 532 
500 202 533 203 
533 202 236 203 
203 236 534 237 
500 534 501 203 
203 236 533 534 
500 534 203 533 
501 203 534 204 
534 203 237 204 
204 237 535 238 
501 535 502 204 
204 237 534 535 
501 535 204 534 
502 204 535 205 
535 204 238 205 
205 238 536 239 
502 536 503 205 
205 238 535 536 
502 536 205 535 
503 205 536 206 
536 205 239 206 
206 239 537 240 
503 537 504 206 
206 239 536 537 
503 537 206 536 
504 206 537 207 
537 206 240 207 
207 240 538 241 
504 538 505 207 
207 240 537 538 
504 538 207 537 
505 207 538 208 
538 207 241 208 
208 241 539 242 
505 539 506 208 
208 241 538 539 
505 539 208 538 
506 208 539 209 
539 208 242 209 
209 242 540 243 
506 540 507 209 
209 242 539 540 
506 540 209 539 
507 209 540 210 
540 209 243 210 
210 243 541 244 
507 541 508 210 
210 243 540 541 
507 541 210 540 
508 210 541 211 
541 210 244 211 
211 244 542 245 
508 542 509 211 
211 244 541 542 
508 542 211 541 
509 211 542 212 
542 211 245 212 
212 245 543 246 
509 543 510 212 
212 245 542 543 
509 543 212 542 
510 212 543 213 
543 212 246 213 
213 246 544 247 
510 544 511 213 
213 246 543 544 
510 544 213 543 
511 213 544 214 
544 213 247 214 
214 247 545 248 
511 545 512 214 
214 247 544 545 
511 545 214 544 
512 214 545 215 
545 214 248 215 
215 248 546 249 
512 546 513 215 
215 248 545 546 
512 546 215 545 
513 215 546 216 
546 215 249 216 
216 249 547 250 
513 547 514 216 
216 249 546 547 
513 547 216 546 
514 216 547 217 
547 216 250 217 
217 250 548 251 
514 548 515 217 
217 250 547 548 
514 548 217 547 
515 217 548 218 
548 217 251 218 
218 251 549 252 
515 549 516 218 
218 251 548 549 
515 549 218 548 
516 218 549 219 
549 218 252 219 
219 252 550 253 
516 550 517 219 
219 252 549 550 
516 550 219 549 
517 219 550 220 
550 219 253 220 
220 253 551 254 
517 551 518 220 
220 253 550 551 
517 551 220 550 
518 220 551 221 
551 220 254 221 
221 254 552 255 
518 552 519 221 
221 254 551 552 
518 552 221 551 
519 221 552 222 
552 221 255 222 
222 255 553 256 
519 553 520 222 
222 255 552 553 
519 553 222 552 
520 222 553 223 
553 222 256 223 
223 256 554 257 
520 554 521 223 
223 256 553 554 
520 554 223 553 
521 223 554 224 
554 223 257 224 
224 257 555 258 
521 555 522 224 
224 257 554 555 
521 555 224 554 
522 224 555 225 
555 224 258 225 
225 258 556 259 
522 556 523 225 
225 258 555 556 
522 556 225 555 
523 225 556 226 
556 225 259 226 
226 259 557 260 
523 557 524 226 
226 259 556 557 
523 557 226 556 
524 226 557 227 
557 226 260 227 
227 260 558 261 
524 558 525 227 
227 260 557 558 
524 558 227 557 
525 227 558 228 
558 227 261 228 
228 261 559 262 
525 559 526 228 
228 261 558 559 
525 559 228 558 
526 228 559 229 
559 228 262 229 
229 262 560 263 
526 560 527 229 
229 262 559 560 
526 560 229 559 
527 229 560 230 
560 229 263 230 
231 264 562 265 
528 562 529 231 
231 264 561 562 
528 562 231 561 
529 231 562 232 
562 231 265 232 
232 265 563 266 
529 563 530 232 
232 265 562 563 
529 563 232 562 
530 232 563 233 
563 232 266 233 
233 266 564 267 
530 564 531 233 
233 266 563 564 
530 564 233 563 
531 233 564 234 
564 233 267 234 
234 267 565 268 
531 565 532 234 
234 267 564 565 
531 565 234 564 
532 234 565 235 
565 234 268 235 
235 268 566 269 
532 566 533 235 
235 268 565 566 
532 566 235 565 
533 235 566 236 
566 235 269 236 
236 269 567 270 
533 567 534 236 
236 269 566 567 
533 567 236 566 
534 236 567 237 
567 236 270 237 
237 270 568 271 
534 568 535 237 
237 270 567 568 
534 568 237 567 
535 237 568 238 
568 237 271 238 
238 271 569 272 
535 569 536 238 
238 271 568 569 
535 569 238 568 
536 238 569 239 
569 238 272 239 
239 272 570 273 
536 570 537 239 
239 272 569 570 
536 570 239 569 
537 239 570 240 
570 239 273 240 
240 273 571 274 
537 571 538 240 
240 273 570 571 
537 571 240 570 
538 240 571 241 
571 240 274 241 
241 274 572 275 
538 572 539 241 
241 274 571 572 
538 572 241 571 
539 241 572 242 
572 241 275 242 
242 275 573 276 
539 573 540 242 
242 275 572 573 
539 573 242 572 
540 242 573 243 
573 242 276 243 
243 276 574 277 
540 574 541 243 
243 276 573 574 
540 574 243 573 
541 243 574 244 
574 243 277 244 
244 277 575 278 
541 575 542 244 
244 277 574 575 
541 575 244 574 
542 244 575 245 
575 244 278 245 
245 278 576 279 
542 576 543 245 
245 278 575 576 
542 576 245 575 
543 245 576 246 
576 245 279 246 
246 279 577 280 
543 577 544 246 
246 279 576 577 
543 577 246 576 
544 246 577 247 
577 246 280 247 
247 280 578 281 
544 578 545 247 
247 280 577 578 
544 578 247 577 
545 247 578 248 
578 247 281 248 
248 281 579 282 
545 579 546 248 
248 281 578 579 
545 579 248 578 
546 248 579 249 
579 248 282 249 
249 282 580 283 
546 580 547 249 
249 282 579 580 
546 580 249 579 
547 249 580 250 
580 249 283 250 
250 283 581 284 
547 581 548 250 
250 283 580 581 
547 581 250 580 
548 250 581 251 
581 250 284 251 
251 284 582 285 
548 582 549 251 
251 284 581 582 
548 582 251 581 
549 251 582 252 
582 251 285 252 
252 285 583 286 
549 583 550 252 
252 285 582 583 
549 583 252 582 
550 252 583 253 
583 252 286 253 
253 286 584 287 
550 584 551 253 
253 286 583 584 
550 584 253 583 
551 253 584 254 
584 253 287 254 
254 287 585 288 
551 585 552 254 
254 287 584 585 
551 585 254 584 
552 254 585 255 
585 254 288 255 
255 288 586 289 
552 586 553 255 
255 288 585 586 
552 586 255 585 
553 255 586 256 
586 255 289 256 
256 289 587 290 
553 587 554 256 
256 289 586 587 
553 587 256 586 
554 256 587 257 
587 256 290 257 
257 290 588 291 
554 588 555 257 
257 290 587 588 
554 588 257 587 
555 257 588 258 
588 257 291 258 
258 291 589 292 
555 589 556 258 
258 291 588 589 
555 589 258 588 
556 258 589 259 
589 258 292 259 
259 292 590 293 
556 590 557 259 
259 292 589 590 
556 590 259 589 
557 259 590 260 
590 259 293 260 
260 293 591 294 
557 591 558 260 
260 293 590 591 
557 591 260 590 
558 260 591 261 
591 260 294 261 
261 294 592 295 
558 592 559 261 
261 294 591 592 
558 592 261 591 
559 261 592 262 
592 261 295 262 
262 295 593 296 
559 593 560 262 
262 295 592 593 
559 593 262 592 
560 262 593 263 
593 262 296 263 
297 330 628 331 
594 628 595 297 
297 330 627 628 
594 628 297 627 
595 297 628 298 
628 297 331 298 
298 331 629 332 
595 629 596 298 
298 331 628 629 
595 629 298 628 
596 298 629 299 
629 298 332 299 
299 332 630 333 
596 630 597 299 
299 332 629 630 
596 630 299 629 
597 299 630 300 
630 299 333 300 
300 333 631 334 
597 631 598 300 
300 333 630 631 
597 631 300 630 
598 300 631 301 
631 300 334 301 
301 334 632 335 
598 632 599 301 
301 334 631 632 
598 632 301 631 
599 301 632 302 
632 301 335 302 
302 335 633 336 
599 633 600 302 
302 335 632 633 
599 633 302 632 
600 302 633 303 
633 302 336 303 
303 336 634 337 
600 634 601 303 
303 336 633 634 
600 634 303 633 
601 303 634 304 
634 303 337 304 
304 337 635 338 
601 635 602 304 
304 337 634 635 
601 635 304 634 
602 304 635 305 
635 304 338 305 
305 338 636 339 
602 636 603 305 
305 338 635 636 
602 636 305 635 
603 305 636 306 
636 305 339 306 
306 339 637 340 
603 637 604 306 
306 339 636 637 
603 637 306 636 
604 306 637 307 
637 306 340 307 
307 340 638 341 
604 638 605 307 
307 340 637 638 
604 638 307 637 
605 307 638 308 
638 307 341 308 
308 341 639 342 
605 639 606 308 
308 341 638 639 
605 639 308 638 
606 308 639 309 
639 308 342 309 
309 342 640 343 
606 640 607 309 
309 342 639 640 
606 640 309 639 
607 309 640 310 
640 309 343 310 
310 343 641 344 
607 641 608 310 
310 343 640 641 
607 641 310 640 
608 310 641 311 
641 310 344 311 
311 344 642 345 
608 642 609 311 
311 344 641 642 
608 642 311 641 
609 311 642 312 
642 311 345 312 
312 345 643 346 
609 643 610 312 
312 345 642 643 
609 643 312 642 
610 312 643 313 
643 312 346 313 
313 346 644 347 
610 644 611 313 
313 346 643 644 
610 644 313 643 
611 313 644 314 
644 313 347 314 
314 347 645 348 
611 645 612 314 
314 347 644 645 
611 645 314 644 
612 314 645 315 
645 314 348 315 
315 348 646 349 
612 646 613 315 
315 348 645 646 
612 646 315 645 
613 315 646 316 
646 315 349 316 
316 349 647 350 
613 647 614 316 
316 349 646 647 
613 647 316 646 
614 316 647 317 
647 316 350 317 
317 350 648 351 
614 648 615 317 
317 350 647 648 
614 648 317 647 
615 317 648 318 
648 317 351 318 
318 351 649 352 
615 649 616 318 
318 351 648 649 
615 649 318 648 
616 318 649 319 
649 318 352 319 
319 352 650 353 
616 650 617 319 
319 352 649 650 
616 650 319 649 
617 319 650 320 
650 319 353 320 
320 353 651 354 
617 651 618 320 
320 353 650 651 
617 651 320 650 
618 320 651 321 
651 320 354 321 
321 354 652 355 
618 652 619 321 
321 354 651 652 
618 652 321 651 
619 321 652 322 
652 321 355 322 
322 355 653 356 
619 653 620 322 
322 355 652 653 
619 653 322 652 
620 322 653 323 
653 322 356 323 
323 356 654 357 
620 654 621 323 
323 356 653 654 
620 654 323 653 
621 323 654 324 
654 323 357 324 
324 357 655 358 
621 655 622 324 
324 357 654 655 
621 655 324 654 
622 324 655 325 
655 324 358 325 
325 358 656 359 
622 656 623 325 
325 358 655 656 
622 656 325 655 
623 325 656 326 
656 325 359 326 
326 359 657 360 
623 657 624 326 
326 359 656 657 
623 657 326 656 
624 326 657 327 
657 326 360 327 
327 360 658 361 
624 658 625 327 
327 360 657 658 
624 658 327 657 
625 327 658 328 
658 327 361 328 
328 361 659 362 
625 659 626 328 
328 361 658 659 
625 659 328 658 
626 328 659 329 
659 328 362 329 
330 363 661 364 
627 661 628 330 
330 363 660 661 
627 661 330 660 
628 330 661 331 
661 330 364 331 
331 364 662 365 
628 662 629 331 
331 364 661 662 
628 662 331 661 
629 331 662 332 
662 331 365 332 
332 365 663 366 
629 663 630 332 
332 365 662 663 
629 663 332 662 
630 332 663 333 
663 332 366 333 
333 366 664 367 
630 664 631 333 
333 366 663 664 
630 664 333 663 
631 333 664 334 
664 333 367 334 
334 367 665 368 
631 665 632 334 
334 367 664 665 
631 665 334 664 
632 334 665 335 
665 334 368 335 
335 368 666 369 
632 666 633 335 
335 368 665 666 
632 666 335 665 
633 335 666 336 
666 335 369 336 
336 369 667 370 
633 667 634 336 
336 369 666 667 
633 667 336 666 
634 336 667 337 
667 336 370 337 
337 370 668 371 
634 668 635 337 
337 370 667 668 
634 668 337 667 
635 337 668 338 
668 337 371 338 
338 371 669 372 
635 669 636 338 
338 371 668 669 
635 669 338 668 
636 338 669 339 
669 338 372 339 
339 372 670 373 
636 670 637 339 
339 372 669 670 
636 670 339 669 
637 339 670 340 
670 339 373 340 
340 373 671 374 
637 671 638 340 
340 373 670 671 
637 671 340 670 
638 340 671 341 
671 340 374 341 
341 374 672 375 
638 672 639 341 
341 374 671 672 
638 672 341 671 
639 341 672 342 
672 341 375 342 
342 375 673 376 
639 673 640 342 
342 375 672 673 
639 673 342 672 
640 342 673 343 
673 342 376 343 
343 376 674 377 
640 674 641 343 
343 376 673 674 
640 674 343 673 
641 343 674 344 
674 343 377 344 
344 377 675 378 
641 675 642 344 
344 377 674 675 
641 675 344 674 
642 344 675 345 
675 344 378 345 
345 378 676 379 
642 676 643 345 
345 378 675 676 
642 676 345 675 
643 345 676 346 
676 345 379 346 
346 379 677 380 
643 677 644 346 
346 379 676 677 
643 677 346 676 
644 346 677 347 
677 346 380 347 
347 380 678 381 
644 678 645 347 
347 380 677 678 
644 678 347 677 
645 347 678 348 
678 347 381 348 
348 381 679 382 
645 679 646 348 
348 381 678 679 
645 679 348 678 
646 348 679 349 
679 348 382 349 
349 382 680 383 
646 680 647 349 
349 382 679 680 
646 680 349 679 
647 349 680 350 
680 349 383 350 
350 383 681 384 
647 681 648 350 
350 383 680 681 
647 681 350 680 
648 350 681 351 
681 350 384 351 
351 384 682 385 
648 682 649 351 
351 384 681 682 
648 682 351 681 
649 351 682 352 
682 351 385 352 
352 385 683 386 
649 683 650 352 
352 385 682 683 
649 683 352 682 
650 352 683 353 
683 352 386 353 
353 386 684 387 
650 684 651 353 
353 386 683 684 
650 684 353 683 
651 353 684 354 
684 353 387 354 
354 387 685 388 
651 685 652 354 
354 387 684 685 
651 685 354 684 
652 354 685 355 
685 354 388 355 
355 388 686 389 
652 686 653 355 
355 388 685 686 
652 686 355 685 
653 355 686 356 
686 355 389 356 
356 389 687 390 
653 687 654 356 
356 389 686 687 
653 687 356 686 
654 356 687 357 
687 356 390 357 
357 390 688 391 
654 688 655 357 
357 390 687 688 
654 688 357 687 
655 357 688 358 
688 357 391 358 
358 391 689 392 
655 689 656 358 
358 391 688 689 
655 689 358 688 
656 358 689 359 
689 358 392 359 
359 392 690 393 
656 690 657 359 
359 392 689 690 
656 690 359 689 
657 359 690 360 
690 359 393 360 
360 393 691 394 
657 691 658 360 
360 393 690 691 
657 691 360 690 
658 360 691 361 
691 360 394 361 
361 394 692 395 
658 692 659 361 
361 394 691 692 
658 692 361 691 
659 361 692 362 
692 361 395 362 
363 396 694 397 
660 694 661 363 
363 396 693 694 
660 694 363 693 
661 363 694 364 
694 363 397 364 
364 397 695 398 
661 695 662 364 
364 397 694 695 
661 695 364 694 
662 364 695 365 
695 364 398 365 
365 398 696 399 
662 696 663 365 
365 398 695 696 
662 696 365 695 
663 365 696 366 
696 365 399 366 
366 399 697 400 
663 697 664 366 
366 399 696 697 
663 697 366 696 
664 366 697 367 
697 366 400 367 
367 400 698 401 
664 698 665 367 
367 400 697 698 
664 698 367 697 
665 367 698 368 
698 367 401 368 
368 401 699 402 
665 699 666 368 
368 401 698 699 
665 699 368 698 
666 368 699 369 
699 368 402 369 
369 402 700 403 
666 700 667 369 
369 402 699 700 
666 700 369 699 
667 369 700 370 
700 369 403 370 
370 403 701 404 
667 701 668 370 
370 403 700 701 
667 701 370 700 
668 370 701 371 
701 370 404 371 
371 404 702 405 
668 702 669 371 
371 404 701 702 
668 702 371 701 
669 371 702 372 
702 371 405 372 
372 405 703 406 
669 703 670 372 
372 405 702 703 
669 703 372 702 
670 372 703 373 
703 372 406 373 
373 406 704 407 
670 704 671 373 
373 406 703 704 
670 704 373 703 
671 373 704 374 
704 373 407 374 
374 407 705 408 
671 705 672 374 
374 407 704 705 
671 705 374 704 
672 374 705 375 
705 374 408 375 
375 408 706 409 
672 706 673 375 
375 408 705 706 
672 706 375 705 
673 375 706 376 
706 375 409 376 
376 409 707 410 
673 707 674 376 
376 409 706 707 
673 707 376 706 
674 376 707 377 
707 376 410 377 
377 410 708 411 
674 708 675 377 
377 410 707 708 
674 708 377 707 
675 377 708 378 
708 377 411 378 
378 411 709 412 
675 709 676 378 
378 411 708 709 
675 709 378 708 
676 378 709 379 
709 378 412 379 
379 412 710 413 
676 710 677 379 
379 412 709 710 
676 710 379 709 
677 379 710 380 
710 379 413 380 
380 413 711 414 
677 711 678 380 
380 413 710 711 
677 711 380 710 
678 380 711 381 
711 380 414 381 
381 414 712 415 
678 712 679 381 
381 414 711 712 
678 712 381 711 
679 381 712 382 
712 381 415 382 
382 415 713 416 
679 713 680 382 
382 415 712 713 
679 713 382 712 
680 382 713 383 
713 382 416 383 
383 416 714 417 
680 714 681 383 
383 416 713 714 
680 714 383 713 
681 383 714 384 
714 383 417 384 
384 417 715 418 
681 715 682 384 
384 417 714 715 
681 715 384 714 
682 384 715 385 
715 384 418 385 
385 418 716 419 
682 716 683 385 
385 418 715 716 
682 716 385 715 
683 385 716 386 
716 385 419 386 
386 419 717 420 
683 717 684 386 
386 419 716 717 
683 717 386 716 
684 386 717 387 
717 386 420 387 
387 420 718 421 
684 718 685 387 
387 420 717 718 
684 718 387 717 
685 387 718 388 
718 387 421 388 
388 421 719 422 
685 719 686 388 
388 421 718 719 
685 719 388 718 
686 388 719 389 
719 388 422 389 
389 422 720 423 
686 720 687 389 
389 422 719 720 
686 720 389 719 
687 389 720 390 
720 389 423 390 
390 423 721 424 
687 721 688 390 
390 423 720 721 
687 721 390 720 
688 390 721 391 
721 390 424 391 
391 424 722 425 
688 722 689 391 
391 424 721 722 
688 722 391 721 
689 391 722 392 
722 391 425 392 
392 425 723 426 
689 723 690 392 
392 425 722 723 
689 723 392 722 
690 392 723 393 
723 392 426 393 
393 426 724 427 
690 724 691 393 
393 426 723 724 
690 724 393 723 
691 393 724 394 
724 393 427 394 
394 427 725 428 
691 725 692 394 
394 427 724 725 
691 725 394 724 
692 394 725 395 
725 394 428 395 
396 429 727 430 
693 727 694 396 
396 429 726 727 
693 727 396 726 
694 396 727 397 
727 396 430 397 
397 430 728 431 
694 728 695 397 
397 430 727 728 
694 728 397 727 
695 397 728 398 
728 397 431 398 
398 431 729 432 
695 729 696 398 
398 431 728 729 
695 729 398 728 
696 398 729 399 
729 398 432 399 
399 432 730 433 
696 730 697 399 
399 432 729 730 
696 730 399 729 
697 399 730 400 
730 399 433 400 
400 433 731 434 
697 731 698 400 
400 433 730 731 
697 731 400 730 
698 400 731 401 
731 400 434 401 
401 434 732 435 
698 732 699 401 
401 434 731 732 
698 732 401 731 
699 401 732 402 
732 401 435 402 
402 435 733 436 
699 733 700 402 
402 435 732 733 
699 733 402 732 
700 402 733 403 
733 402 436 403 
403 436 734 437 
700 734 701 403 
403 436 733 734 
700 734 403 733 
701 403 734 404 
734 403 437 404 
404 437 735 438 
701 735 702 404 
404 437 734 735 
701 735 404 734 
702 404 735 405 
735 404 438 405 
405 438 736 439 
702 736 703 405 
405 438 735 736 
702 736 405 735 
703 405 736 406 
736 405 439 406 
406 439 737 440 
703 737 704 406 
406 439 736 737 
703 737 406 736 
704 406 737 407 
737 406 440 407 
407 440 738 441 
704 738 705 407 
407 440 737 738 
704 738 407 737 
705 407 738 408 
738 407 441 408 
408 441 739 442 
705 739 706 408 
408 441 738 739 
705 739 408 738 
706 408 739 409 
739 408 442 409 
409 442 740 443 
706 740 707 409 
409 442 739 740 
706 740 409 739 
707 409 740 410 
740 409 443 410 
410 443 741 444 
707 741 708 410 
410 443 740 741 
707 741 410 740 
708 410 741 411 
741 410 444 411 
411 444 742 445 
708 742 709 411 
411 444 741 742 
708 742 411 741 
709 411 742 412 
742 411 445 412 
412 445 743 446 
709 743 710 412 
412 445 742 743 
709 743 412 742 
710 412 743 413 
743 412 446 413 
413 446 744 447 
710 744 711 413 
413 446 743 744 
710 744 413 743 
711 413 744 414 
744 413 447 414 
414 447 745 448 
711 745 712 414 
414 447 744 745 
711 745 414 744 
712 414 745 415 
745 414 448 415 
415 448 746 449 
712 746 713 415 
415 448 745 746 
712 746 415 745 
713 415 746 416 
746 415 449 416 
416 449 747 450 
713 747 714 416 
416 449 746 747 
713 747 416 746 
714 416 747 417 
747 416 450 417 
417 450 748 451 
714 748 715 417 
417 450 747 748 
714 748 417 747 
715 417 748 418 
748 417 451 418 
418 451 749 452 
715 749 716 418 
418 451 748 749 
715 749 418 748 
716 418 749 419 
749 418 452 419 
419 452 750 453 
716 750 717 419 
419 452 749 750 
716 750 419 749 
717 419 750 420 
750 419 453 420 
420 453 751 454 
717 751 718 420 
420 453 750 751 
717 751 420 750 
718 420 751 421 
751 420 454 421 
421 454 752 455 
718 752 719 421 
421 454 751 752 
718 752 421 751 
719 421 752 422 
752 421 455 422 
422 455 753 456 
719 753 720 422 
422 455 752 753 
719 753 422 752 
720 422 753 423 
753 422 456 423 
423 456 754 457 
720 754 721 423 
423 456 753 754 
720 754 423 753 
721 423 754 424 
754 423 457 424 
424 457 755 458 
721 755 722 424 
424 457 754 755 
721 755 424 754 
722 424 755 425 
755 424 458 425 
425 458 756 459 
722 756 723 425 
425 458 755 756 
722 756 425 755 
723 425 756 426 
756 425 459 426 
426 459 757 460 
723 757 724 426 
426 459 756 757 
723 757 426 756 
724 426 757 427 
757 426 460 427 
427 460 758 461 
724 758 725 427 
427 460 757 758 
724 758 427 757 
725 427 758 428 
758 427 461 428 
429 462 760 463 
726 760 727 429 
429 462 759 760 
726 760 429 759 
727 429 760 430 
760 429 463 430 
430 463 761 464 
727 761 728 430 
430 463 760 761 
727 761 430 760 
728 430 761 431 
761 430 464 431 
431 464 762 465 
728 762 729 431 
431 464 761 762 
728 762 431 761 
729 431 762 432 
762 431 465 432 
432 465 763 466 
729 763 730 432 
432 465 762 763 
729 763 432 762 
730 432 763 433 
763 432 466 433 
433 466 764 467 
730 764 731 433 
433 466 763 764 
730 764 433 763 
731 433 764 434 
764 433 467 434 
434 467 765 468 
731 765 732 434 
434 467 764 765 
731 765 434 764 
732 434 765 435 
765 434 468 435 
435 468 766 469 
732 766 733 435 
435 468 765 766 
732 766 435 765 
733 435 766 436 
766 435 469 436 
436 469 767 470 
733 767 734 436 
436 469 766 767 
733 767 436 766 
734 436 767 437 
767 436 470 437 
437 470 768 471 
734 768 735 437 
437 470 767 768 
734 768 437 767 
735 437 768 438 
768 437 471 438 
438 471 769 472 
735 769 736 438 
438 471 768 769 
735 769 438 768 
736 438 769 439 
769 438 472 439 
439 472 770 473 
736 770 737 439 
439 472 769 770 
736 770 439 769 
737 439 770 440 
770 439 473 440 
440 473 771 474 
737 771 738 440 
440 473 770 771 
737 771 440 770 
738 440 771 441 
771 440 474 441 
441 474 772 475 
738 772 739 441 
441 474 771 772 
738 772 441 771 
739 441 772 442 
772 441 475 442 
442 475 773 476 
739 773 740 442 
442 475 772 773 
739 773 442 772 
740 442 773 443 
773 442 476 443 
443 476 774 477 
740 774 741 443 
443 476 773 774 
740 774 443 773 
741 443 774 444 
774 443 477 444 
444 477 775 478 
741 775 742 444 
444 477 774 775 
741 775 444 774 
742 444 775 445 
775 444 478 445 
445 478 776 479 
742 776 743 445 
445 478 775 776 
742 776 445 775 
743 445 776 446 
776 445 479 446 
446 479 777 480 
743 777 744 446 
446 479 776 777 
743 777 446 776 
744 446 777 447 
777 446 480 447 
447 480 778 481 
744 778 745 447 
447 480 777 778 
744 778 447 777 
745 447 778 448 
778 447 481 448 
448 481 779 482 
745 779 746 448 
448 481 778 779 
745 779 448 778 
746 448 779 449 
779 448 482 449 
449 482 780 483 
746 780 747 449 
449 482 779 780 
746 780 449 779 
747 449 780 450 
780 449 483 450 
450 483 781 484 
747 781 748 450 
450 483 780 781 
747 781 450 780 
748 450 781 451 
781 450 484 451 
451 484 782 485 
748 782 749 451 
451 484 781 782 
748 782 451 781 
749 451 782 452 
782 451 485 452 
452 485 783 486 
749 783 750 452 
452 485 782 783 
749 783 452 782 
750 452 783 453 
783 452 486 453 
453 486 784 487 
750 784 751 453 
453 486 783 784 
750 784 453 783 
751 453 784 454 
784 453 487 454 
454 487 785 488 
751 785 752 454 
454 487 784 785 
751 785 454 784 
752 454 785 455 
785 454 488 455 
455 488 786 489 
752 786 753 455 
455 488 785 786 
752 786 455 785 
753 455 786 456 
786 455 489 456 
456 489 787 490 
753 787 754 456 
456 489 786 787 
753 787 456 786 
754 456 787 457 
787 456 490 457 
457 490 788 491 
754 788 755 457 
457 490 787 788 
754 788 457 787 
755 457 788 458 
788 457 491 458 
458 491 789 492 
755 789 756 458 
458 491 788 789 
755 789 458 788 
756 458 789 459 
789 458 492 459 
459 492 790 493 
756 790 757 459 
459 492 789 790 
756 790 459 789 
757 459 790 460 
790 459 493 460 
460 493 791 494 
757 791 758 460 
460 493 790 791 
757 791 460 790 
758 460 791 461 
791 460 494 461 
462 495 793 496 
759 793 760 462 
462 495 792 793 
759 793 462 792 
760 462 793 463 
793 462 496 463 
463 496 794 497 
760 794 761 463 
463 496 793 794 
760 794 463 793 
761 463 794 464 
794 463 497 464 
464 497 795 498 
761 795 762 464 
464 497 794 795 
761 795 464 794 
762 464 795 465 
795 464 498 465 
465 498 796 499 
762 796 763 465 
465 498 795 796 
762 796 465 795 
763 465 796 466 
796 465 499 466 
466 499 797 500 
763 797 764 466 
466 499 796 797 
763 797 466 796 
764 466 797 467 
797 466 500 467 
467 500 798 501 
764 798 765 467 
467 500 797 798 
764 798 467 797 
765 467 798 468 
798 467 501 468 
468 501 799 502 
765 799 766 468 
468 501 798 799 
765 799 468 798 
766 468 799 469 
799 468 502 469 
469 502 800 503 
766 800 767 469 
469 502 799 800 
766 800 469 799 
767 469 800 470 
800 469 503 470 
470 503 801 504 
767 801 768 470 
470 503 800 801 
767 801 470 800 
768 470 801 471 
801 470 504 471 
471 504 802 505 
768 802 769 471 
471 504 801 802 
768 802 471 801 
769 471 802 472 
802 471 505 472 
472 505 803 506 
769 803 770 472 
472 505 802 803 
769 803 472 802 
770 472 803 473 
803 472 506 473 
473 506 804 507 
770 804 771 473 
473 506 803 804 
770 804 473 803 
771 473 804 474 
804 473 507 474 
474 507 805 508 
771 805 772 474 
474 507 804 805 
771 805 474 804 
772 474 805 475 
805 474 508 475 
475 508 806 509 
772 806 773 475 
475 508 805 806 
772 806 475 805 
773 475 806 476 
806 475 509 476 
476 509 807 510 
773 807 774 476 
476 509 806 807 
773 807 476 806 
774 476 807 477 
807 476 510 477 
477 510 808 511 
774 808 775 477 
477 510 807 808 
774 808 477 807 
775 477 808 478 
808 477 511 478 
478 511 809 512 
775 809 776 478 
478 511 808 809 
775 809 478 808 
776 478 809 479 
809 478 512 479 
479 512 810 513 
776 810 777 479 
479 512 809 810 
776 810 479 809 
777 479 810 480 
810 479 513 480 
480 513 811 514 
777 811 778 480 
480 513 810 811 
777 811 480 810 
778 480 811 481 
811 480 514 481 
481 514 812 515 
778 812 779 481 
481 514 811 812 
778 812 481 811 
779 481 812 482 
812 481 515 482 
482 515 813 516 
779 813 780 482 
482 515 812 813 
779 813 482 812 
780 482 813 483 
813 482 516 483 
483 516 814 517 
780 814 781 483 
483 516 813 814 
780 814 483 813 
781 483 814 484 
814 483 517 484 
484 517 815 518 
781 815 782 484 
484 517 814 815 
781 815 484 814 
782 484 815 485 
815 484 518 485 
485 518 816 519 
782 816 783 485 
485 518 815 816 
782 816 485 815 
783 485 816 486 
816 485 519 486 
486 519 817 520 
783 817 784 486 
486 519 816 817 
783 817 486 816 
784 486 817 487 
817 486 520 487 
487 520 818 521 
784 818 785 487 
487 520 817 818 
784 818 487 817 
785 487 818 488 
818 487 521 488 
488 521 819 522 
785 819 786 488 
488 521 818 819 
785 819 488 818 
786 488 819 489 
819 488 522 489 
489 522 820 523 
786 820 787 489 
489 522 819 820 
786 820 489 819 
787 489 820 490 
820 489 523 490 
490 523 821 524 
787 821 788 490 
490 523 820 821 
787 821 490 820 
788 490 821 491 
821 490 524 491 
491 524 822 525 
788 822 789 491 
491 524 821 822 
788 822 491 821 
789 491 822 492 
822 491 525 492 
492 525 823 526 
789 823 790 492 
492 525 822 823 
789 823 492 822 
790 492 823 493 
823 492 526 493 
493 526 824 527 
790 824 791 493 
493 526 823 824 
790 824 493 823 
791 493 824 494 
824 493 527 494 
495 528 826 529 
792 826 793 495 
495 528 825 826 
792 826 495 825 
793 495 826 496 
826 495 529 496 
496 529 827 530 
793 827 794 496 
496 529 826 827 
793 827 496 826 
794 496 827 497 
827 496 530 497 
497 530 828 531 
794 828 795 497 
497 530 827 828 
794 828 497 827 
795 497 828 498 
828 497 531 498 
498 531 829 532 
795 829 796 498 
498 531 828 829 
795 829 498 828 
796 498 829 499 
829 498 532 499 
499 532 830 533 
796 830 797 499 
499 532 829 830 
796 830 499 829 
797 499 830 500 
830 499 533 500 
500 533 831 534 
797 831 798 500 
500 533 830 831 
797 831 500 830 
798 500 831 501 
831 500 534 501 
501 534 832 535 
798 832 799 501 
501 534 831 832 
798 832 501 831 
799 501 832 502 
832 501 535 502 
502 535 833 536 
799 833 800 502 
502 535 832 833 
799 833 502 832 
800 502 833 503 
833 502 536 503 
503 536 834 537 
800 834 801 503 
503 536 833 834 
800 834 503 833 
801 503 834 504 
834 503 537 504 
504 537 835 538 
801 835 802 504 
504 537 834 835 
801 835 504 834 
802 504 835 505 
835 504 538 505 
505 538 836 539 
802 836 803 505 
505 538 835 836 
802 836 505 835 
803 505 836 506 
836 505 539 506 
506 539 837 540 
803 837 804 506 
506 539 836 837 
803 837 506 836 
804 506 837 507 
837 506 540 507 
507 540 838 541 
804 838 805 507 
507 540 837 838 
804 838 507 837 
805 507 838 508 
838 507 541 508 
508 541 839 542 
805 839 806 508 
508 541 838 839 
805 839 508 838 
806 508 839 509 
839 508 542 509 
509 542 840 543 
806 840 807 509 
509 542 839 840 
806 840 509 839 
807 509 840 510 
840 509 543 510 
510 543 841 544 
807 841 808 510 
510 543 840 841 
807 841 510 840 
808 510 841 511 
841 510 544 511 
511 544 842 545 
808 842 809 511 
511 544 841 842 
808 842 511 841 
809 511 842 512 
842 511 545 512 
512 545 843 546 
809 843 810 512 
512 545 842 843 
809 843 512 842 
810 512 843 513 
843 512 546 513 
513 546 844 547 
810 844 811 513 
513 546 843 844 
810 844 513 843 
811 513 844 514 
844 513 547 514 
514 547 845 548 
811 845 812 514 
514 547 844 845 
811 845 514 844 
812 514 845 515 
845 514 548 515 
515 548 846 549 
812 846 813 515 
515 548 845 846 
812 846 515 845 
813 515 846 516 
846 515 549 516 
516 549 847 550 
813 847 814 516 
516 549 846 847 
813 847 516 846 
814 516 847 517 
847 516 550 517 
517 550 848 551 
814 848 815 517 
517 550 847 848 
814 848 517 847 
815 517 848 518 
848 517 551 518 
518 551 849 552 
815 849 816 518 
518 551 848 849 
815 849 518 848 
816 518 849 519 
849 518 552 519 
519 552 850 553 
816 850 817 519 
519 552 849 850 
816 850 519 849 
817 519 850 520 
850 519 553 520 
520 553 851 554 
817 851 818 520 
520 553 850 851 
817 851 520 850 
818 520 851 521 
851 520 554 521 
521 554 852 555 
818 852 819 521 
521 554 851 852 
818 852 521 851 
819 521 852 522 
852 521 555 522 
522 555 853 556 
819 853 820 522 
522 555 852 853 
819 853 522 852 
820 522 853 523 
853 522 556 523 
523 556 854 557 
820 854 821 523 
523 556 853 854 
820 854 523 853 
821 523 854 524 
854 523 557 524 
524 557 855 558 
821 855 822 524 
524 557 854 855 
821 855 524 854 
822 524 855 525 
855 524 558 525 
525 558 856 559 
822 856 823 525 
525 558 855 856 
822 856 525 855 
823 525 856 526 
856 525 559 526 
526 559 857 560 
823 857 824 526 
526 559 856 857 
823 857 526 856 
824 526 857 527 
857 526 560 527 
528 561 859 562 
825 859 826 528 
528 561 858 859 
825 859 528 858 
826 528 859 529 
859 528 562 529 
529 562 860 563 
826 860 827 529 
529 562 859 860 
826 860 529 859 
827 529 860 530 
860 529 563 530 
530 563 861 564 
827 861 828 530 
530 563 860 861 
827 861 530 860 
828 530 861 531 
861 530 564 531 
531 564 862 565 
828 862 829 531 
531 564 861 862 
828 862 531 861 
829 531 862 532 
862 531 565 532 
532 565 863 566 
829 863 830 532 
532 565 862 863 
829 863 532 862 
830 532 863 533 
863 532 566 533 
533 566 864 567 
830 864 831 533 
533 566 863 864 
830 864 533 863 
831 533 864 534 
864 533 567 534 
534 567 865 568 
831 865 832 534 
534 567 864 865 
831 865 534 864 
832 534 865 535 
865 534 568 535 
535 568 866 569 
832 866 833 535 
535 568 865 866 
832 866 535 865 
833 535 866 536 
866 535 569 536 
536 569 867 570 
833 867 834 536 
536 569 866 867 
833 867 536 866 
834 536 867 537 
867 536 570 537 
537 570 868 571 
834 868 835 537 
537 570 867 868 
834 868 537 867 
835 537 868 538 
868 537 571 538 
538 571 869 572 
835 869 836 538 
538 571 868 869 
835 869 538 868 
836 538 869 539 
869 538 572 539 
539 572 870 573 
836 870 837 539 
539 572 869 870 
836 870 539 869 
837 539 870 540 
870 539 573 540 
540 573 871 574 
837 871 838 540 
540 573 870 871 
837 871 540 870 
838 540 871 541 
871 540 574 541 
541 574 872 575 
838 872 839 541 
541 574 871 872 
838 872 541 871 
839 541 872 542 
872 541 575 542 
542 575 873 576 
839 873 840 542 
542 575 872 873 
839 873 542 872 
840 542 873 543 
873 542 576 543 
543 576 874 577 
840 874 841 543 
543 576 873 874 
840 874 543 873 
841 543 874 544 
874 543 577 544 
544 577 875 578 
841 875 842 544 
544 577 874 875 
841 875 544 874 
842 544 875 545 
875 544 578 545 
545 578 876 579 
842 876 843 545 
545 578 875 876 
842 876 545 875 
843 545 876 546 
876 545 579 546 
546 579 877 580 
843 877 844 546 
546 579 876 877 
843 877 546 876 
844 546 877 547 
877 546 580 547 
547 580 878 581 
844 878 845 547 
547 580 877 878 
844 878 547 877 
845 547 878 548 
878 547 581 548 
548 581 879 582 
845 879 846 548 
548 581 878 879 
845 879 548 878 
846 548 879 549 
879 548 582 549 
549 582 880 583 
846 880 847 549 
549 582 879 880 
846 880 549 879 
847 549 880 550 
880 549 583 550 
550 583 881 584 
847 881 848 550 
550 583 880 881 
847 881 550 880 
848 550 881 551 
881 550 584 551 
551 584 882 585 
848 882 849 551 
551 584 881 882 
848 882 551 881 
849 551 882 552 
882 551 585 552 
552 585 883 586 
849 883 850 552 
552 585 882 883 
849 883 552 882 
850 552 883 553 
883 552 586 553 
553 586 884 587 
850 884 851 553 
553 586 883 884 
850 884 553 883 
851 553 884 554 
884 553 587 554 
554 587 885 588 
851 885 852 554 
554 587 884 885 
851 885 554 884 
852 554 885 555 
885 554 588 555 
555 588 886 589 
852 886 853 555 
555 588 885 886 
852 886 555 885 
853 555 886 556 
886 555 589 556 
556 589 887 590 
853 887 854 556 
556 589 886 887 
853 887 556 886 
854 556 887 557 
887 556 590 557 
557 590 888 591 
854 888 855 557 
557 590 887 888 
854 888 557 887 
855 557 888 558 
888 557 591 558 
558 591 889 592 
855 889 856 558 
558 591 888 889 
855 889 558 888 
856 558 889 559 
889 558 592 559 
559 592 890 593 
856 890 857 559 
559 592 889 890 
856 890 559 889 
857 559 890 560 
890 559 593 560 
594 627 925 628 
891 925 892 594 
594 627 924 925 
891 925 594 924 
892 594 925 595 
925 594 628 595 
595 628 926 629 
892 926 893 595 
595 628 925 926 
892 926 595 925 
893 595 926 596 
926 595 629 596 
596 629 927 630 
893 927 894 596 
596 629 926 927 
893 927 596 926 
894 596 927 597 
927 596 630 597 
597 630 928 631 
894 928 895 597 
597 630 927 928 
894 928 597 927 
895 597 928 598 
928 597 631 598 
598 631 929 632 
895 929 896 598 
598 631 928 929 
895 929 598 928 
896 598 929 599 
929 598 632 599 
599 632 930 633 
896 930 897 599 
599 632 929 930 
896 930 599 929 
897 599 930 600 
930 599 633 600 
600 633 931 634 
897 931 898 600 
600 633 930 931 
897 931 600 930 
898 600 931 601 
931 600 634 601 
601 634 932 635 
898 932 899 601 
601 634 931 932 
898 932 601 931 
899 601 932 602 
932 601 635 602 
602 635 933 636 
899 933 900 602 
602 635 932 933 
899 933 602 932 
900 602 933 603 
933 602 636 603 
603 636 934 637 
900 934 901 603 
603 636 933 934 
900 934 603 933 
901 603 934 604 
934 603 637 604 
604 637 935 638 
901 935 902 604 
604 637 934 935 
901 935 604 934 
902 604 935 605 
935 604 638 605 
605 638 936 639 
902 936 903 605 
605 638 935 936 
902 936 605 935 
903 605 936 606 
936 605 639 606 
606 639 937 640 
903 937 904 606 
606 639 936 937 
903 937 606 936 
904 606 937 607 
937 606 640 607 
607 640 938 641 
904 938 905 607 
607 640 937 938 
904 938 607 937 
905 607 938 608 
938 607 641 608 
608 641 939 642 
905 939 906 608 
608 641 938 939 
905 939 608 938 
906 608 939 609 
939 608 642 609 
609 642 940 643 
906 940 907 609 
609 642 939 940 
906 940 609 939 
907 609 940 610 
940 609 643 610 
610 643 941 644 
907 941 908 610 
610 643 940 941 
907 941 610 940 
908 610 941 611 
941 610 644 611 
611 644 942 645 
908 942 909 611 
611 644 941 942 
908 942 611 941 
909 611 942 612 
942 611 645 612 
612 645 943 646 
909 943 910 612 
612 645 942 943 
909 943 612 942 
910 612 943 613 
943 612 646 613 
613 646 944 647 
910 944 911 613 
613 646 943 944 
910 944 613 943 
911 613 944 614 
944 613 647 614 
614 647 945 648 
911 945 912 614 
614 647 944 945 
911 945 614 944 
912 614 945 615 
945 614 648 615 
615 648 946 649 
912 946 913 615 
615 648 945 946 
912 946 615 945 
913 615 946 616 
946 615 649 616 
616 649 947 650 
913 947 914 616 
616 649 946 947 
913 947 616 946 
914 616 947 617 
947 616 650 617 
617 650 948 651 
914 948 915 617 
617 650 947 948 
914 948 617 947 
915 617 948 618 
948 617 651 618 
618 651 949 652 
915 949 916 618 
618 651 948 949 
915 949 618 948 
916 618 949 619 
949 618 652 619 
619 652 950 653 
916 950 917 619 
619 652 949 950 
916 950 619 949 
917 619 950 620 
950 619 653 620 
620 653 951 654 
917 951 918 620 
620 653 950 951 
917 951 620 950 
918 620 951 621 
951 620 654 621 
621 654 952 655 
918 952 919 621 
621 654 951 952 
918 952 621 951 
919 621 952 622 
952 621 655 622 
622 655 953 656 
919 953 920 622 
622 655 952 953 
919 953 622 952 
920 622 953 623 
953 622 656 623 
623 656 954 657 
920 954 921 623 
623 656 953 954 
920 954 623 953 
921 623 954 624 
954 623 657 624 
624 657 955 658 
921 955 922 624 
624 657 954 955 
921 955 624 954 
922 624 955 625 
955 624 658 625 
625 658 956 659 
922 956 923 625 
625 658 955 956 
922 956 625 955 
923 625 956 626 
956 625 659 626 
627 660 958 661 
924 958 925 627 
627 660 957 958 
924 958 627 957 
925 627 958 628 
958 627 661 628 
628 661 959 662 
925 959 926 628 
628 661 958 959 
925 959 628 958 
926 628 959 629 
959 628 662 629 
629 662 960 663 
926 960 927 629 
629 662 959 960 
926 960 629 959 
927 629 960 630 
960 629 663 630 
630 663 961 664 
927 961 928 630 
630 663 960 961 
927 961 630 960 
928 630 961 631 
961 630 664 631 
631 664 962 665 
928 962 929 631 
631 664 961 962 
928 962 631 961 
929 631 962 632 
962 631 665 632 
632 665 963 666 
929 963 930 632 
632 665 962 963 
929 963 632 962 
930 632 963 633 
963 632 666 633 
633 666 964 667 
930 964 931 633 
633 666 963 964 
930 964 633 963 
931 633 964 634 
964 633 667 634 
634 667 965 668 
931 965 932 634 
634 667 964 965 
931 965 634 964 
932 634 965 635 
965 634 668 635 
635 668 966 669 
932 966 933 635 
635 668 965 966 
932 966 635 965 
933 635 966 636 
966 635 669 636 
636 669 967 670 
933 967 934 636 
636 669 966 967 
933 967 636 966 
934 636 967 637 
967 636 670 637 
637 670 968 671 
934 968 935 637 
637 670 967 968 
934 968 637 967 
935 637 968 638 
968 637 671 638 
638 671 969 672 
935 969 936 638 
638 671 968 969 
935 969 638 968 
936 638 969 639 
969 638 672 639 
639 672 970 673 
936 970 937 639 
639 672 969 970 
936 970 639 969 
937 639 970 640 
970 639 673 640 
640 673 971 674 
937 971 938 640 
640 673 970 971 
937 971 640 970 
938 640 971 641 
971 640 674 641 
641 674 972 675 
938 972 939 641 
641 674 971 972 
938 972 641 971 
939 641 972 642 
972 641 675 642 
642 675 973 676 
939 973 940 642 
642 675 972 973 
939 973 642 972 
940 642 973 643 
973 642 676 643 
643 676 974 677 
940 974 941 643 
643 676 973 974 
940 974 643 973 
941 643 974 644 
974 643 677 644 
644 677 975 678 
941 975 942 644 
644 677 974 975 
941 975 644 974 
942 644 975 645 
975 644 678 645 
645 678 976 679 
942 976 943 645 
645 678 975 976 
942 976 645 975 
943 645 976 646 
976 645 679 646 
646 679 977 680 
943 977 944 646 
646 679 976 977 
943 977 646 976 
944 646 977 647 
977 646 680 647 
647 680 978 681 
944 978 945 647 
647 680 977 978 
944 978 647 977 
945 647 978 648 
978 647 681 648 
648 681 979 682 
945 979 946 648 
648 681 978 979 
945 979 648 978 
946 648 979 649 
979 648 682 649 
649 682 980 683 
946 980 947 649 
649 682 979 980 
946 980 649 979 
947 649 980 650 
980 649 683 650 
650 683 981 684 
947 981 948 650 
650 683 980 981 
947 981 650 980 
948 650 981 651 
981 650 684 651 
651 684 982 685 
948 982 949 651 
651 684 981 982 
948 982 651 981 
949 651 982 652 
982 651 685 652 
652 685 983 686 
949 983 950 652 
652 685 982 983 
949 983 652 982 
950 652 983 653 
983 652 686 653 
653 686 984 687 
950 984 951 653 
653 686 983 984 
950 984 653 983 
951 653 984 654 
984 653 687 654 
654 687 985 688 
951 985 952 654 
654 687 984 985 
951 985 654 984 
952 654 985 655 
985 654 688 655 
655 688 986 689 
952 986 953 655 
655 688 985 986 
952 986 655 985 
953 655 986 656 
986 655 689 656 
656 689 987 690 
953 987 954 656 
656 689 986 987 
953 987 656 986 
954 656 987 657 
987 656 690 657 
657 690 988 691 
954 988 955 657 
657 690 987 988 
954 988 657 987 
955 657 988 658 
988 657 691 658 
658 691 989 692 
955 989 956 658 
658 691 988 989 
955 989 658 988 
956 658 989 659 
989 658 692 659 
660 693 991 694 
957 991 958 660 
660 693 990 991 
957 991 660 990 
958 660 991 661 
991 660 694 661 
661 694 992 695 
958 992 959 661 
661 694 991 992 
958 992 661 991 
959 661 992 662 
992 661 695 662 
662 695 993 696 
959 993 960 662 
662 695 992 993 
959 993 662 992 
960 662 993 663 
993 662 696 663 
663 696 994 697 
960 994 961 663 
663 696 993 994 
960 994 663 993 
961 663 994 664 
994 663 697 664 
664 697 995 698 
961 995 962 664 
664 697 994 995 
961 995 664 994 
962 664 995 665 
995 664 698 665 
665 698 996 699 
962 996 963 665 
665 698 995 996 
962 996 665 995 
963 665 996 666 
996 665 699 666 
666 699 997 700 
963 997 964 666 
666 699 996 997 
963 997 666 996 
964 666 997 667 
997 666 700 667 
667 700 998 701 
964 998 965 667 
667 700 997 998 
964 998 667 997 
965 667 998 668 
998 667 701 668 
668 701 999 702 
965 999 966 668 
668 701 998 999 
965 999 668 998 
966 668 999 669 
999 668 702 669 
669 702 1000 703 
966 1000 967 669 
669 702 999 1000 
966 1000 669 999 
967 669 1000 670 
1000 669 703 670 
670 703 1001 704 
967 1001 968 670 
670 703 1000 1001 
967 1001 670 1000 
968 670 1001 671 
1001 670 704 671 
671 704 1002 705 
968 1002 969 671 
671 704 1001 1002 
968 1002 671 1001 
969 671 1002 672 
1002 671 705 672 
672 705 1003 706 
969 1003 970 672 
672 705 1002 1003 
969 1003 672 1002 
970 672 1003 673 
1003 672 706 673 
673 706 1004 707 
970 1004 971 673 
673 706 1003 1004 
970 1004 673 1003 
971 673 1004 674 
1004 673 707 674 
674 707 1005 708 
971 1005 972 674 
674 707 1004 1005 
971 1005 674 1004 
972 674 1005 675 
1005 674 708 675 
675 708 1006 709 
972 1006 973 675 
675 708 1005 1006 
972 1006 675 1005 
973 675 1006 676 
1006 675 709 676 
676 709 1007 710 
973 1007 974 676 
676 709 1006 1007 
973 1007 676 1006 
974 676 1007 677 
1007 676 710 677 
677 710 1008 711 
974 1008 975 677 
677 710 1007 1008 
974 1008 677 1007 
975 677 1008 678 
1008 677 711 678 
678 711 1009 712 
975 1009 976 678 
678 711 1008 1009 
975 1009 678 1008 
976 678 1009 679 
1009 678 712 679 
679 712 1010 713 
976 1010 977 679 
679 712 1009 1010 
976 1010 679 1009 
977 679 1010 680 
1010 679 713 680 
680 713 1011 714 
977 1011 978 680 
680 713 1010 1011 
977 1011 680 1010 
978 680 1011 681 
1011 680 714 681 
681 714 1012 715 
978 1012 979 681 
681 714 1011 1012 
978 1012 681 1011 
979 681 1012 682 
1012 681 715 682 
682 715 1013 716 
979 1013 980 682 
682 715 1012 1013 
979 1013 682 1012 
980 682 1013 683 
1013 682 716 683 
683 716 1014 717 
980 1014 981 683 
683 716 1013 1014 
980 1014 683 1013 
981 683 1014 684 
1014 683 717 684 
684 717 1015 718 
981 1015 982 684 
684 717 1014 1015 
981 1015 684 1014 
982 684 1015 685 
1015 684 718 685 
685 718 1016 719 
982 1016 983 685 
685 718 1015 1016 
982 1016 685 1015 
983 685 1016 686 
1016 685 719 686 
686 719 1017 720 
983 1017 984 686 
686 719 1016 1017 
983 1017 686 1016 
984 686 1017 687 
1017 686 720 687 
687 720 1018 721 
984 1018 985 687 
687 720 1017 1018 
984 1018 687 1017 
985 687 1018 688 
1018 687 721 688 
688 721 1019 722 
985 1019 986 688 
688 721 1018 1019 
985 1019 688 1018 
986 688 1019 689 
1019 688 722 689 
689 722 1020 723 
986 1020 987 689 
689 722 1019 1020 
986 1020 689 1019 
987 689 1020 690 
1020 689 723 690 
690 723 1021 724 
987 1021 988 690 
690 723 1020 1021 
987 1021 690 1020 
988 690 1021 691 
1021 690 724 691 
691 724 1022 725 
988 1022 989 691 
691 724 1021 1022 
988 1022 691 1021 
989 691 1022 692 
1022 691 725 692 
693 726 1024 727 
990 1024 991 693 
693 726 1023 1024 
990 1024 693 1023 
991 693 1024 694 
1024 693 727 694 
694 727 1025 728 
991 1025 992 694 
694 727 1024 1025 
991 1025 694 1024 
992 694 1025 695 
1025 694 728 695 
695 728 1026 729 
992 1026 993 695 
695 728 1025 1026 
992 1026 695 1025 
993 695 1026 696 
1026 695 729 696 
696 729 1027 730 
993 1027 994 696 
696 729 1026 1027 
993 1027 696 1026 
994 696 1027 697 
1027 696 730 697 
697 730 1028 731 
994 1028 995 697 
697 730 1027 1028 
994 1028 697 1027 
995 697 1028 698 
1028 697 731 698 
698 731 1029 732 
995 1029 996 698 
698 731 1028 1029 
995 1029 698 1028 
996 698 1029 699 
1029 698 732 699 
699 732 1030 733 
996 1030 997 699 
699 732 1029 1030 
996 1030 699 1029 
997 699 1030 700 
1030 699 733 700 
700 733 1031 734 
997 1031 998 700 
700 733 1030 1031 
997 1031 700 1030 
998 700 1031 701 
1031 700 734 701 
701 734 1032 735 
998 1032 999 701 
701 734 1031 1032 
998 1032 701 1031 
999 701 1032 702 
1032 701 735 702 
702 735 1033 736 
999 1033 1000 702 
702 735 1032 1033 
999 1033 702 1032 
1000 702 1033 703 
1033 702 736 703 
703 736 1034 737 
1000 1034 1001 703 
703 736 1033 1034 
1000 1034 703 1033 
1001 703 1034 704 
1034 703 737 704 
704 737 1035 738 
1001 1035 1002 704 
704 737 1034 1035 
1001 1035 704 1034 
1002 704 1035 705 
1035 704 738 705 
705 738 1036 739 
1002 1036 1003 705 
705 738 1035 1036 
1002 1036 705 1035 
1003 705 1036 706 
1036 705 739 706 
706 739 1037 740 
1003 1037 1004 706 
706 739 1036 1037 
1003 1037 706 1036 
1004 706 1037 707 
1037 706 740 707 
707 740 1038 741 
1004 1038 1005 707 
707 740 1037 1038 
1004 1038 707 1037 
1005 707 1038 708 
1038 707 741 708 
708 741 1039 742 
1005 1039 1006 708 
708 741 1038 1039 
1005 1039 708 1038 
1006 708 1039 709 
1039 708 742 709 
709 742 1040 743 
1006 1040 1007 709 
709 742 1039 1040 
1006 1040 709 1039 
1007 709 1040 710 
1040 709 743 710 
710 743 1041 744 
1007 1041 1008 710 
710 743 1040 1041 
1007 1041 710 1040 
1008 710 1041 711 
1041 710 744 711 
711 744 1042 745 
1008 1042 1009 711 
711 744 1041 1042 
1008 1042 711 1041 
1009 711 1042 712 
1042 711 745 712 
712 745 1043 746 
1009 1043 1010 712 
712 745 1042 1043 
1009 1043 712 1042 
1010 712 1043 713 
1043 712 746 713 
713 746 1044 747 
1010 1044 1011 713 
713 746 1043 1044 
1010 1044 713 1043 
1011 713 1044 714 
1044 713 747 714 
714 747 1045 748 
1011 1045 1012 714 
714 747 1044 1045 
1011 1045 714 1044 
1012 714 1045 715 
1045 714 748 715 
715 748 1046 749 
1012 1046 1013 715 
715 748 1045 1046 
1012 1046 715 1045 
1013 715 1046 716 
1046 715 749 716 
716 749 1047 750 
1013 1047 1014 716 
716 749 1046 1047 
1013 1047 716 1046 
1014 716 1047 717 
1047 716 750 717 
717 750 1048 751 
1014 1048 1015 717 
717 750 1047 1048 
1014 1048 717 1047 
1015 717 1048 718 
1048 717 751 718 
718 751 1049 752 
1015 1049 1016 718 
718 751 1048 1049 
1015 1049 718 1048 
1016 718 1049 719 
1049 718 752 719 
719 752 1050 753 
1016 1050 1017 719 
719 752 1049 1050 
1016 1050 719 1049 
1017 719 1050 720 
1050 719 753 720 
720 753 1051 754 
1017 1051 1018 720 
720 753 1050 1051 
1017 1051 720 1050 
1018 720 1051 721 
1051 720 754 721 
721 754 1052 755 
1018 1052 1019 721 
721 754 1051 1052 
1018 1052 721 1051 
1019 721 1052 722 
1052 721 755 722 
722 755 1053 756 
1019 1053 1020 722 
722 755 1052 1053 
1019 1053 722 1052 
1020 722 1053 723 
1053 722 756 723 
723 756 1054 757 
1020 1054 1021 723 
723 756 1053 1054 
1020 1054 723 1053 
1021 723 1054 724 
1054 723 757 724 
724 757 1055 758 
1021 1055 1022 724 
724 757 1054 1055 
1021 1055 724 1054 
1022 724 1055 725 
1055 724 758 725 
726 759 1057 760 
1023 1057 1024 726 
726 759 1056 1057 
1023 1057 726 1056 
1024 726 1057 727 
1057 726 760 727 
727 760 1058 761 
1024 1058 1025 727 
727 760 1057 1058 
1024 1058 727 1057 
1025 727 1058 728 
1058 727 761 728 
728 761 1059 762 
1025 1059 1026 728 
728 761 1058 1059 
1025 1059 728 1058 
1026 728 1059 729 
1059 728 762 729 
729 762 1060 763 
1026 1060 1027 729 
729 762 1059 1060 
1026 1060 729 1059 
1027 729 1060 730 
1060 729 763 730 
730 763 1061 764 
1027 1061 1028 730 
730 763 1060 1061 
1027 1061 730 1060 
1028 730 1061 731 
1061 730 764 731 
731 764 1062 765 
1028 1062 1029 731 
731 764 1061 1062 
1028 1062 731 1061 
1029 731 1062 732 
1062 731 765 732 
732 765 1063 766 
1029 1063 1030 732 
732 765 1062 1063 
1029 1063 732 1062 
1030 732 1063 733 
1063 732 766 733 
733 766 1064 767 
1030 1064 1031 733 
733 766 1063 1064 
1030 1064 733 1063 
1031 733 1064 734 
1064 733 767 734 
734 767 1065 768 
1031 1065 1032 734 
734 767 1064 1065 
1031 1065 734 1064 
1032 734 1065 735 
1065 734 768 735 
735 768 1066 769 
1032 1066 1033 735 
735 768 1065 1066 
1032 1066 735 1065 
1033 735 1066 736 
1066 735 769 736 
736 769 1067 770 
1033 1067 1034 736 
736 769 1066 1067 
1033 1067 736 1066 
1034 736 1067 737 
1067 736 770 737 
737 770 1068 771 
1034 1068 1035 737 
737 770 1067 1068 
1034 1068 737 1067 
1035 737 1068 738 
1068 737 771 738 
738 771 1069 772 
1035 1069 1036 738 
738 771 1068 1069 
1035 1069 738 1068 
1036 738 1069 739 
1069 738 772 739 
739 772 1070 773 
1036 1070 1037 739 
739 772 1069 1070 
1036 1070 739 1069 
1037 739 1070 740 
1070 739 773 740 
740 773 1071 774 
1037 1071 1038 740 
740 773 1070 1071 
1037 1071 740 1070 
1038 740 1071 741 
1071 740 774 741 
741 774 1072 775 
1038 1072 1039 741 
741 774 1071 1072 
1038 1072 741 1071 
1039 741 1072 742 
1072 741 775 742 
742 775 1073 776 
1039 1073 1040 742 
742 775 1072 1073 
1039 1073 742 1072 
1040 742 1073 743 
1073 742 776 743 
743 776 1074 777 
1040 1074 1041 743 
743 776 1073 1074 
1040 1074 743 1073 
1041 743 1074 744 
1074 743 777 744 
744 777 1075 778 
1041 1075 1042 744 
744 777 1074 1075 
1041 1075 744 1074 
1042 744 1075 745 
1075 744 778 745 
745 778 1076 779 
1042 1076 1043 745 
745 778 1075 1076 
1042 1076 745 1075 
1043 745 1076 746 
1076 745 779 746 
746 779 1077 780 
1043 1077 1044 746 
746 779 1076 1077 
1043 1077 746 1076 
1044 746 1077 747 
1077 746 780 747 
747 780 1078 781 
1044 1078 1045 747 
747 780 1077 1078 
1044 1078 747 1077 
1045 747 1078 748 
1078 747 781 748 
748 781 1079 782 
1045 1079 1046 748 
748 781 1078 1079 
1045 1079 748 1078 
1046 748 1079 749 
1079 748 782 749 
749 782 1080 783 
1046 1080 1047 749 
749 782 1079 1080 
1046 1080 749 1079 
1047 749 1080 750 
1080 749 783 750 
750 783 1081 784 
1047 1081 1048 750 
750 783 1080 1081 
1047 1081 750 1080 
1048 750 1081 751 
1081 750 784 751 
751 784 1082 785 
1048 1082 1049 751 
751 784 1081 1082 
1048 1082 751 1081 
1049 751 1082 752 
1082 751 785 752 
752 785 1083 786 
1049 1083 1050 752 
752 785 1082 1083 
1049 1083 752 1082 
1050 752 1083 753 
1083 752 786 753 
753 786 1084 787 
1050 1084 1051 753 
753 786 1083 1084 
1050 1084 753 1083 
1051 753 1084 754 
1084 753 787 754 
754 787 1085 788 
1051 1085 1052 754 
754 787 1084 1085 
1051 1085 754 1084 
1052 754 1085 755 
1085 754 788 755 
755 788 1086 789 
1052 1086 1053 755 
755 788 1085 1086 
1052 1086 755 1085 
1053 755 1086 756 
1086 755 789 756 
756 789 1087 790 
1053 1087 1054 756 
756 789 1086 1087 
1053 1087 756 1086 
1054 756 1087 757 
1087 756 790 757 
757 790 1088 791 
1054 1088 1055 757 
757 790 1087 1088 
1054 1088 757 1087 
1055 757 1088 758 
1088 757 791 758 
759 792 1090 793 
1056 1090 1057 759 
759 792 1089 1090 
1056 1090 759 1089 
1057 759 1090 760 
1090 759 793 760 
760 793 1091 794 
1057 1091 1058 760 
760 793 1090 1091 
1057 1091 760 1090 
1058 760 1091 761 
1091 760 794 761 
761 794 1092 795 
1058 1092 1059 761 
761 794 1091 1092 
1058 1092 761 1091 
1059 761 1092 762 
1092 761 795 762 
762 795 1093 796 
1059 1093 1060 762 
762 795 1092 1093 
1059 1093 762 1092 
1060 762 1093 763 
1093 762 796 763 
763 796 1094 797 
1060 1094 1061 763 
763 796 1093 1094 
1060 1094 763 1093 
1061 763 1094 764 
1094 763 797 764 
764 797 1095 798 
1061 1095 1062 764 
764 797 1094 1095 
1061 1095 764 1094 
1062 764 1095 765 
1095 764 798 765 
765 798 1096 799 
1062 1096 1063 765 
765 798 1095 1096 
1062 1096 765 1095 
1063 765 1096 766 
1096 765 799 766 
766 799 1097 800 
1063 1097 1064 766 
766 799 1096 1097 
1063 1097 766 1096 
1064 766 1097 767 
1097 766 800 767 
767 800 1098 801 
1064 1098 1065 767 
767 800 1097 1098 
1064 1098 767 1097 
1065 767 1098 768 
1098 767 801 768 
768 801 1099 802 
1065 1099 1066 768 
768 801 1098 1099 
1065 1099 768 1098 
1066 768 1099 769 
1099 768 802 769 
769 802 1100 803 
1066 1100 1067 769 
769 802 1099 1100 
1066 1100 769 1099 
1067 769 1100 770 
1100 769 803 770 
770 803 1101 804 
1067 1101 1068 770 
770 803 1100 1101 
1067 1101 770 1100 
1068 770 1101 771 
1101 770 804 771 
771 804 1102 805 
1068 1102 1069 771 
771 804 1101 1102 
1068 1102 771 1101 
1069 771 1102 772 
1102 771 805 772 
772 805 1103 806 
1069 1103 1070 772 
772 805 1102 1103 
1069 1103 772 1102 
1070 772 1103 773 
1103 772 806 773 
773 806 1104 807 
1070 1104 1071 773 
773 806 1103 1104 
1070 1104 773 1103 
1071 773 1104 774 
1104 773 807 774 
774 807 1105 808 
1071 1105 1072 774 
774 807 1104 1105 
1071 1105 774 1104 
1072 774 1105 775 
1105 774 808 775 
775 808 1106 809 
1072 1106 1073 775 
775 808 1105 1106 
1072 1106 775 1105 
1073 775 1106 776 
1106 775 809 776 
776 809 1107 810 
1073 1107 1074 776 
776 809 1106 1107 
1073 1107 776 1106 
1074 776 1107 777 
1107 776 810 777 
777 810 1108 811 
1074 1108 1075 777 
777 810 1107 1108 
1074 1108 777 1107 
1075 777 1108 778 
1108 777 811 778 
778 811 1109 812 
1075 1109 1076 778 
778 811 1108 1109 
1075 1109 778 1108 
1076 778 1109 779 
1109 778 812 779 
779 812 1110 813 
1076 1110 1077 779 
779 812 1109 1110 
1076 1110 779 1109 
1077 779 1110 780 
1110 779 813 780 
780 813 1111 814 
1077 1111 1078 780 
780 813 1110 1111 
1077 1111 780 1110 
1078 780 1111 781 
1111 780 814 781 
781 814 1112 815 
1078 1112 1079 781 
781 814 1111 1112 
1078 1112 781 1111 
1079 781 1112 782 
1112 781 815 782 
782 815 1113 816 
1079 1113 1080 782 
782 815 1112 1113 
1079 1113 782 1112 
1080 782 1113 783 
1113 782 816 783 
783 816 1114 817 
1080 1114 1081 783 
783 816 1113 1114 
1080 1114 783 1113 
1081 783 1114 784 
1114 783 817 784 
784 817 1115 818 
1081 1115 1082 784 
784 817 1114 1115 
1081 1115 784 1114 
1082 784 1115 785 
1115 784 818 785 
785 818 1116 819 
1082 1116 1083 785 
785 818 1115 1116 
1082 1116 785 1115 
1083 785 1116 786 
1116 785 819 786 
786 819 1117 820 
1083 1117 1084 786 
786 819 1116 1117 
1083 1117 786 1116 
1084 786 1117 787 
1117 786 820 787 
787 820 1118 821 
1084 1118 1085 787 
787 820 1117 1118 
1084 1118 787 1117 
1085 787 1118 788 
1118 787 821 788 
788 821 1119 822 
1085 1119 1086 788 
788 821 1118 1119 
1085 1119 788 1118 
1086 788 1119 789 
1119 788 822 789 
789 822 1120 823 
1086 1120 1087 789 
789 822 1119 1120 
1086 1120 789 1119 
1087 789 1120 790 
1120 789 823 790 
790 823 1121 824 
1087 1121 1088 790 
790 823 1120 1121 
1087 1121 790 1120 
1088 790 1121 791 
1121 790 824 791 
792 825 1123 826 
1089 1123 1090 792 
792 825 1122 1123 
1089 1123 792 1122 
1090 792 1123 793 
1123 792 826 793 
793 826 1124 827 
1090 1124 1091 793 
793 826 1123 1124 
1090 1124 793 1123 
1091 793 1124 794 
1124 793 827 794 
794 827 1125 828 
1091 1125 1092 794 
794 827 1124 1125 
1091 1125 794 1124 
1092 794 1125 795 
1125 794 828 795 
795 828 1126 829 
1092 1126 1093 795 
795 828 1125 1126 
1092 1126 795 1125 
1093 795 1126 796 
1126 795 829 796 
796 829 1127 830 
1093 1127 1094 796 
796 829 1126 1127 
1093 1127 796 1126 
1094 796 1127 797 
1127 796 830 797 
797 830 1128 831 
1094 1128 1095 797 
797 830 1127 1128 
1094 1128 797 1127 
1095 797 1128 798 
1128 797 831 798 
798 831 1129 832 
1095 1129 1096 798 
798 831 1128 1129 
1095 1129 798 1128 
1096 798 1129 799 
1129 798 832 799 
799 832 1130 833 
1096 1130 1097 799 
799 832 1129 1130 
1096 1130 799 1129 
1097 799 1130 800 
1130 799 833 800 
800 833 1131 834 
1097 1131 1098 800 
800 833 1130 1131 
1097 1131 800 1130 
1098 800 1131 801 
1131 800 834 801 
801 834 1132 835 
1098 1132 1099 801 
801 834 1131 1132 
1098 1132 801 1131 
1099 801 1132 802 
1132 801 835 802 
802 835 1133 836 
1099 1133 1100 802 
802 835 1132 1133 
1099 1133 802 1132 
1100 802 1133 803 
1133 802 836 803 
803 836 1134 837 
1100 1134 1101 803 
803 836 1133 1134 
1100 1134 803 1133 
1101 803 1134 804 
1134 803 837 804 
804 837 1135 838 
1101 1135 1102 804 
804 837 1134 1135 
1101 1135 804 1134 
1102 804 1135 805 
1135 804 838 805 
805 838 1136 839 
1102 1136 1103 805 
805 838 1135 1136 
1102 1136 805 1135 
1103 805 1136 806 
1136 805 839 806 
806 839 1137 840 
1103 1137 1104 806 
806 839 1136 1137 
1103 1137 806 1136 
1104 806 1137 807 
1137 806 840 807 
807 840 1138 841 
1104 1138 1105 807 
807 840 1137 1138 
1104 1138 807 1137 
1105 807 1138 808 
1138 807 841 808 
808 841 1139 842 
1105 1139 1106 808 
808 841 1138 1139 
1105 1139 808 1138 
1106 808 1139 809 
1139 808 842 809 
809 842 1140 843 
1106 1140 1107 809 
809 842 1139 1140 
1106 1140 809 1139 
1107 809 1140 810 
1140 809 843 810 
810 843 1141 844 
1107 1141 1108 810 
810 843 1140 1141 
1107 1141 810 1140 
1108 810 1141 811 
1141 810 844 811 
811 844 1142 845 
1108 1142 1109 811 
811 844 1141 1142 
1108 1142 811 1141 
1109 811 1142 812 
1142 811 845 812 
812 845 1143 846 
1109 1143 1110 812 
812 845 1142 1143 
1109 1143 812 1142 
1110 812 1143 813 
1143 812 846 813 
813 846 1144 847 
1110 1144 1111 813 
813 846 1143 1144 
1110 1144 813 1143 
1111 813 1144 814 
1144 813 847 814 
814 847 1145 848 
1111 1145 1112 814 
814 847 1144 1145 
1111 1145 814 1144 
1112 814 1145 815 
1145 814 848 815 
815 848 1146 849 
1112 1146 1113 815 
815 848 1145 1146 
1112 1146 815 1145 
1113 815 1146 816 
1146 815 849 816 
816 849 1147 850 
1113 1147 1114 816 
816 849 1146 1147 
1113 1147 816 1146 
1114 816 1147 817 
1147 816 850 817 
817 850 1148 851 
1114 1148 1115 817 
817 850 1147 1148 
1114 1148 817 1147 
1115 817 1148 818 
1148 817 851 818 
818 851 1149 852 
1115 1149 1116 818 
818 851 1148 1149 
1115 1149 818 1148 
1116 818 1149 819 
1149 818 852 819 
819 852 1150 853 
1116 1150 1117 819 
819 852 1149 1150 
1116 1150 819 1149 
1117 819 1150 820 
1150 819 853 820 
820 853 1151 854 
1117 1151 1118 820 
820 853 1150 1151 
1117 1151 820 1150 
1118 820 1151 821 
1151 820 854 821 
821 854 1152 855 
1118 1152 1119 821 
821 854 1151 1152 
1118 1152 821 1151 
1119 821 1152 822 
1152 821 855 822 
822 855 1153 856 
1119 1153 1120 822 
822 855 1152 1153 
1119 1153 822 1152 
1120 822 1153 823 
1153 822 856 823 
823 856 1154 857 
1120 1154 1121 823 
823 856 1153 1154 
1120 1154 823 1153 
1121 823 1154 824 
1154 823 857 824 
825 858 1156 859 
1122 1156 1123 825 
825 858 1155 1156 
1122 1156 825 1155 
1123 825 1156 826 
1156 825 859 826 
826 859 1157 860 
1123 1157 1124 826 
826 859 1156 1157 
1123 1157 826 1156 
1124 826 1157 827 
1157 826 860 827 
827 860 1158 861 
1124 1158 1125 827 
827 860 1157 1158 
1124 1158 827 1157 
1125 827 1158 828 
1158 827 861 828 
828 861 1159 862 
1125 1159 1126 828 
828 861 1158 1159 
1125 1159 828 1158 
1126 828 1159 829 
1159 828 862 829 
829 862 1160 863 
1126 1160 1127 829 
829 862 1159 1160 
1126 1160 829 1159 
1127 829 1160 830 
1160 829 863 830 
830 863 1161 864 
1127 1161 1128 830 
830 863 1160 1161 
1127 1161 830 1160 
1128 830 1161 831 
1161 830 864 831 
831 864 1162 865 
1128 1162 1129 831 
831 864 1161 1162 
1128 1162 831 1161 
1129 831 1162 832 
1162 831 865 832 
832 865 1163 866 
1129 1163 1130 832 
832 865 1162 1163 
1129 1163 832 1162 
1130 832 1163 833 
1163 832 866 833 
833 866 1164 867 
1130 1164 1131 833 
833 866 1163 1164 
1130 1164 833 1163 
1131 833 1164 834 
1164 833 867 834 
834 867 1165 868 
1131 1165 1132 834 
834 867 1164 1165 
1131 1165 834 1164 
1132 834 1165 835 
1165 834 868 835 
835 868 1166 869 
1132 1166 1133 835 
835 868 1165 1166 
1132 1166 835 1165 
1133 835 1166 836 
1166 835 869 836 
836 869 1167 870 
1133 1167 1134 836 
836 869 1166 1167 
1133 1167 836 1166 
1134 836 1167 837 
1167 836 870 837 
837 870 1168 871 
1134 1168 1135 837 
837 870 1167 1168 
1134 1168 837 1167 
1135 837 1168 838 
1168 837 871 838 
838 871 1169 872 
1135 1169 1136 838 
838 871 1168 1169 
1135 1169 838 1168 
1136 838 1169 839 
1169 838 872 839 
839 872 1170 873 
1136 1170 1137 839 
839 872 1169 1170 
1136 1170 839 1169 
1137 839 1170 840 
1170 839 873 840 
840 873 1171 874 
1137 1171 1138 840 
840 873 1170 1171 
1137 1171 840 1170 
1138 840 1171 841 
1171 840 874 841 
841 874 1172 875 
1138 1172 1139 841 
841 874 1171 1172 
1138 1172 841 1171 
1139 841 1172 842 
1172 841 875 842 
842 875 1173 876 
1139 1173 1140 842 
842 875 1172 1173 
1139 1173 842 1172 
1140 842 1173 843 
1173 842 876 843 
843 876 1174 877 
1140 1174 1141 843 
843 876 1173 1174 
1140 1174 843 1173 
1141 843 1174 844 
1174 843 877 844 
844 877 1175 878 
1141 1175 1142 844 
844 877 1174 1175 
1141 1175 844 1174 
1142 844 1175 845 
1175 844 878 845 
845 878 1176 879 
1142 1176 1143 845 
845 878 1175 1176 
1142 1176 845 1175 
1143 845 1176 846 
1176 845 879 846 
846 879 1177 880 
1143 1177 1144 846 
846 879 1176 1177 
1143 1177 846 1176 
1144 846 1177 847 
1177 846 880 847 
847 880 1178 881 
1144 1178 1145 847 
847 880 1177 1178 
1144 1178 847 1177 
1145 847 1178 848 
1178 847 881 848 
848 881 1179 882 
1145 1179 1146 848 
848 881 1178 1179 
1145 1179 848 1178 
1146 848 1179 849 
1179 848 882 849 
849 882 1180 883 
1146 1180 1147 849 
849 882 1179 1180 
1146 1180 849 1179 
1147 849 1180 850 
1180 849 883 850 
850 883 1181 884 
1147 1181 1148 850 
850 883 1180 1181 
1147 1181 850 1180 
1148 850 1181 851 
1181 850 884 851 
851 884 1182 885 
1148 1182 1149 851 
851 884 1181 1182 
1148 1182 851 1181 
1149 851 1182 852 
1182 851 885 852 
852 885 1183 886 
1149 1183 1150 852 
852 885 1182 1183 
1149 1183 852 1182 
1150 852 1183 853 
1183 852 886 853 
853 886 1184 887 
1150 1184 1151 853 
853 886 1183 1184 
1150 1184 853 1183 
1151 853 1184 854 
1184 853 887 854 
854 887 1185 888 
1151 1185 1152 854 
854 887 1184 1185 
1151 1185 854 1184 
1152 854 1185 855 
1185 854 888 855 
855 888 1186 889 
1152 1186 1153 855 
855 888 1185 1186 
1152 1186 855 1185 
1153 855 1186 856 
1186 855 889 856 
856 889 1187 890 
1153 1187 1154 856 
856 889 1186 1187 
1153 1187 856 1186 
1154 856 1187 857 
1187 856 890 857 
891 924 1222 925 
1188 1222 1189 891 
891 924 1221 1222 
1188 1222 891 1221 
1189 891 1222 892 
1222 891 925 892 
892 925 1223 926 
1189 1223 1190 892 
892 925 1222 1223 
1189 1223 892 1222 
1190 892 1223 893 
1223 892 926 893 
893 926 1224 927 
1190 1224 1191 893 
893 926 1223 1224 
1190 1224 893 1223 
1191 893 1224 894 
1224 893 927 894 
894 927 1225 928 
1191 1225 1192 894 
894 927 1224 1225 
1191 1225 894 1224 
1192 894 1225 895 
1225 894 928 895 
895 928 1226 929 
1192 1226 1193 895 
895 928 1225 1226 
1192 1226 895 1225 
1193 895 1226 896 
1226 895 929 896 
896 929 1227 930 
1193 1227 1194 896 
896 929 1226 1227 
1193 1227 896 1226 
1194 896 1227 897 
1227 896 930 897 
897 930 1228 931 
1194 1228 1195 897 
897 930 1227 1228 
1194 1228 897 1227 
1195 897 1228 898 
1228 897 931 898 
898 931 1229 932 
1195 1229 1196 898 
898 931 1228 1229 
1195 1229 898 1228 
1196 898 1229 899 
1229 898 932 899 
899 932 1230 933 
1196 1230 1197 899 
899 932 1229 1230 
1196 1230 899 1229 
1197 899 1230 900 
1230 899 933 900 
900 933 1231 934 
1197 1231 1198 900 
900 933 1230 1231 
1197 1231 900 1230 
1198 900 1231 901 
1231 900 934 901 
901 934 1232 935 
1198 1232 1199 901 
901 934 1231 1232 
1198 1232 901 1231 
1199 901 1232 902 
1232 901 935 902 
902 935 1233 936 
1199 1233 1200 902 
902 935 1232 1233 
1199 1233 902 1232 
1200 902 1233 903 
1233 902 936 903 
903 936 1234 937 
1200 1234 1201 903 
903 936 1233 1234 
1200 1234 903 1233 
1201 903 1234 904 
1234 903 937 904 
904 937 1235 938 
1201 1235 1202 904 
904 937 1234 1235 
1201 1235 904 1234 
1202 904 1235 905 
1235 904 938 905 
905 938 1236 939 
1202 1236 1203 905 
905 938 1235 1236 
1202 1236 905 1235 
1203 905 1236 906 
1236 905 939 906 
906 939 1237 940 
1203 1237 1204 906 
906 939 1236 1237 
1203 1237 906 1236 
1204 906 1237 907 
1237 906 940 907 
907 940 1238 941 
1204 1238 1205 907 
907 940 1237 1238 
1204 1238 907 1237 
1205 907 1238 908 
1238 907 941 908 
908 941 1239 942 
1205 1239 1206 908 
908 941 1238 1239 
1205 1239 908 1238 
1206 908 1239 909 
1239 908 942 909 
909 942 1240 943 
1206 1240 1207 909 
909 942 1239 1240 
1206 1240 909 1239 
1207 909 1240 910 
1240 909 943 910 
910 943 1241 944 
1207 1241 1208 910 
910 943 1240 1241 
1207 1241 910 1240 
1208 910 1241 911 
1241 910 944 911 
911 944 1242 945 
1208 1242 1209 911 
911 944 1241 1242 
1208 1242 911 1241 
1209 911 1242 912 
1242 911 945 912 
912 945 1243 946 
1209 1243 1210 912 
912 945 1242 1243 
1209 1243 912 1242 
1210 912 1243 913 
1243 912 946 913 
913 946 1244 947 
1210 1244 1211 913 
913 946 1243 1244 
1210 1244 913 1243 
1211 913 1244 914 
1244 913 947 914 
914 947 1245 948 
1211 1245 1212 914 
914 947 1244 1245 
1211 1245 914 1244 
1212 914 1245 915 
1245 914 948 915 
915 948 1246 949 
1212 1246 1213 915 
915 948 1245 1246 
1212 1246 915 1245 
1213 915 1246 916 
1246 915 949 916 
916 949 1247 950 
1213 1247 1214 916 
916 949 1246 1247 
1213 1247 916 1246 
1214 916 1247 917 
1247 916 950 917 
917 950 1248 951 
1214 1248 1215 917 
917 950 1247 1248 
1214 1248 917 1247 
1215 917 1248 918 
1248 917 951 918 
918 951 1249 952 
1215 1249 1216 918 
918 951 1248 1249 
1215 1249 918 1248 
1216 918 1249 919 
1249 918 952 919 
919 952 1250 953 
1216 1250 1217 919 
919 952 1249 1250 
1216 1250 919 1249 
1217 919 1250 920 
1250 919 953 920 
920 953 1251 954 
1217 1251 1218 920 
920 953 1250 1251 
1217 1251 920 1250 
1218 920 1251 921 
1251 920 954 921 
921 954 1252 955 
1218 1252 1219 921 
921 954 1251 1252 
1218 1252 921 1251 
1219 921 1252 922 
1252 921 955 922 
922 955 1253 956 
1219 1253 1220 922 
922 955 1252 1253 
1219 1253 922 1252 
1220 922 1253 923 
1253 922 956 923 
924 957 1255 958 
1221 1255 1222 924 
924 957 1254 1255 
1221 1255 924 1254 
1222 924 1255 925 
1255 924 958 925 
925 958 1256 959 
1222 1256 1223 925 
925 958 1255 1256 
1222 1256 925 1255 
1223 925 1256 926 
1256 925 959 926 
926 959 1257 960 
1223 1257 1224 926 
926 959 1256 1257 
1223 1257 926 1256 
1224 926 1257 927 
1257 926 960 927 
927 960 1258 961 
1224 1258 1225 927 
927 960 1257 1258 
1224 1258 927 1257 
1225 927 1258 928 
1258 927 961 928 
928 961 1259 962 
1225 1259 1226 928 
928 961 1258 1259 
1225 1259 928 1258 
1226 928 1259 929 
1259 928 962 929 
929 962 1260 963 
1226 1260 1227 929 
929 962 1259 1260 
1226 1260 929 1259 
1227 929 1260 930 
1260 929 963 930 
930 963 1261 964 
1227 1261 1228 930 
930 963 1260 1261 
1227 1261 930 1260 
1228 930 1261 931 
1261 930 964 931 
931 964 1262 965 
1228 1262 1229 931 
931 964 1261 1262 
1228 1262 931 1261 
1229 931 1262 932 
1262 931 965 932 
932 965 1263 966 
1229 1263 1230 932 
932 965 1262 1263 
1229 1263 932 1262 
1230 932 1263 933 
1263 932 966 933 
933 966 1264 967 
1230 1264 1231 933 
933 966 1263 1264 
1230 1264 933 1263 
1231 933 1264 934 
1264 933 967 934 
934 967 1265 968 
1231 1265 1232 934 
934 967 1264 1265 
1231 1265 934 1264 
1232 934 1265 935 
1265 934 968 935 
935 968 1266 969 
1232 1266 1233 935 
935 968 1265 1266 
1232 1266 935 1265 
1233 935 1266 936 
1266 935 969 936 
936 969 1267 970 
1233 1267 1234 936 
936 969 1266 1267 
1233 1267 936 1266 
1234 936 1267 937 
1267 936 970 937 
937 970 1268 971 
1234 1268 1235 937 
937 970 1267 1268 
1234 1268 937 1267 
1235 937 1268 938 
1268 937 971 938 
938 971 1269 972 
1235 1269 1236 938 
938 971 1268 1269 
1235 1269 938 1268 
1236 938 1269 939 
1269 938 972 939 
939 972 1270 973 
1236 1270 1237 939 
939 972 1269 1270 
1236 1270 939 1269 
1237 939 1270 940 
1270 939 973 940 
940 973 1271 974 
1237 1271 1238 940 
940 973 1270 1271 
1237 1271 940 1270 
1238 940 1271 941 
1271 940 974 941 
941 974 1272 975 
1238 1272 1239 941 
941 974 1271 1272 
1238 1272 941 1271 
1239 941 1272 942 
1272 941 975 942 
942 975 1273 976 
1239 1273 1240 942 
942 975 1272 1273 
1239 1273 942 1272 
1240 942 1273 943 
1273 942 976 943 
943 976 1274 977 
1240 1274 1241 943 
943 976 1273 1274 
1240 1274 943 1273 
1241 943 1274 944 
1274 943 977 944 
944 977 1275 978 
1241 1275 1242 944 
944 977 1274 1275 
1241 1275 944 1274 
1242 944 1275 945 
1275 944 978 945 
945 978 1276 979 
1242 1276 1243 945 
945 978 1275 1276 
1242 1276 945 1275 
1243 945 1276 946 
1276 945 979 946 
946 979 1277 980 
1243 1277 1244 946 
946 979 1276 1277 
1243 1277 946 1276 
1244 946 1277 947 
1277 946 980 947 
947 980 1278 981 
1244 1278 1245 947 
947 980 1277 1278 
1244 1278 947 1277 
1245 947 1278 948 
1278 947 981 948 
948 981 1279 982 
1245 1279 1246 948 
948 981 1278 1279 
1245 1279 948 1278 
1246 948 1279 949 
1279 948 982 949 
949 982 1280 983 
1246 1280 1247 949 
949 982 1279 1280 
1246 1280 949 1279 
1247 949 1280 950 
1280 949 983 950 
950 983 1281 984 
1247 1281 1248 950 
950 983 1280 1281 
1247 1281 950 1280 
1248 950 1281 951 
1281 950 984 951 
951 984 1282 985 
1248 1282 1249 951 
951 984 1281 1282 
1248 1282 951 1281 
1249 951 1282 952 
1282 951 985 952 
952 985 1283 986 
1249 1283 1250 952 
952 985 1282 1283 
1249 1283 952 1282 
1250 952 1283 953 
1283 952 986 953 
953 986 1284 987 
1250 1284 1251 953 
953 986 1283 1284 
1250 1284 953 1283 
1251 953 1284 954 
1284 953 987 954 
954 987 1285 988 
1251 1285 1252 954 
954 987 1284 1285 
1251 1285 954 1284 
1252 954 1285 955 
1285 954 988 955 
955 988 1286 989 
1252 1286 1253 955 
955 988 1285 1286 
1252 1286 955 1285 
1253 955 1286 956 
1286 955 989 956 
957 990 1288 991 
1254 1288 1255 957 
957 990 1287 1288 
1254 1288 957 1287 
1255 957 1288 958 
1288 957 991 958 
958 991 1289 992 
1255 1289 1256 958 
958 991 1288 1289 
1255 1289 958 1288 
1256 958 1289 959 
1289 958 992 959 
959 992 1290 993 
1256 1290 1257 959 
959 992 1289 1290 
1256 1290 959 1289 
1257 959 1290 960 
1290 959 993 960 
960 993 1291 994 
1257 1291 1258 960 
960 993 1290 1291 
1257 1291 960 1290 
1258 960 1291 961 
1291 960 994 961 
961 994 1292 995 
1258 1292 1259 961 
961 994 1291 1292 
1258 1292 961 1291 
1259 961 1292 962 
1292 961 995 962 
962 995 1293 996 
1259 1293 1260 962 
962 995 1292 1293 
1259 1293 962 1292 
1260 962 1293 963 
1293 962 996 963 
963 996 1294 997 
1260 1294 1261 963 
963 996 1293 1294 
1260 1294 963 1293 
1261 963 1294 964 
1294 963 997 964 
964 997 1295 998 
1261 1295 1262 964 
964 997 1294 1295 
1261 1295 964 1294 
1262 964 1295 965 
1295 964 998 965 
965 998 1296 999 
1262 1296 1263 965 
965 998 1295 1296 
1262 1296 965 1295 
1263 965 1296 966 
1296 965 999 966 
966 999 1297 1000 
1263 1297 1264 966 
966 999 1296 1297 
1263 1297 966 1296 
1264 966 1297 967 
1297 966 1000 967 
967 1000 1298 1001 
1264 1298 1265 967 
967 1000 1297 1298 
1264 1298 967 1297 
1265 967 1298 968 
1298 967 1001 968 
968 1001 1299 1002 
1265 1299 1266 968 
968 1001 1298 1299 
1265 1299 968 1298 
1266 968 1299 969 
1299 968 1002 969 
969 1002 1300 1003 
1266 1300 1267 969 
969 1002 1299 1300 
1266 1300 969 1299 
1267 969 1300 970 
1300 969 1003 970 
970 1003 1301 1004 
1267 1301 1268 970 
970 1003 1300 1301 
1267 1301 970 1300 
1268 970 1301 971 
1301 970 1004 971 
971 1004 1302 1005 
1268 1302 1269 971 
971 1004 1301 1302 
1268 1302 971 1301 
1269 971 1302 972 
1302 971 1005 972 
972 1005 1303 1006 
1269 1303 1270 972 
972 1005 1302 1303 
1269 1303 972 1302 
1270 972 1303 973 
1303 972 1006 973 
973 1006 1304 1007 
1270 1304 1271 973 
973 1006 1303 1304 
1270 1304 973 1303 
1271 973 1304 974 
1304 973 1007 974 
974 1007 1305 1008 
1271 1305 1272 974 
974 1007 1304 1305 
1271 1305 974 1304 
1272 974 1305 975 
1305 974 1008 975 
975 1008 1306 1009 
1272 1306 1273 975 
975 1008 1305 1306 
1272 1306 975 1305 
1273 975 1306 976 
1306 975 1009 976 
976 1009 1307 1010 
1273 1307 1274 976 
976 1009 1306 1307 
1273 1307 976 1306 
1274 976 1307 977 
1307 976 1010 977 
977 1010 1308 1011 
1274 1308 1275 977 
977 1010 1307 1308 
1274 1308 977 1307 
1275 977 1308 978 
1308 977 1011 978 
978 1011 1309 1012 
1275 1309 1276 978 
978 1011 1308 1309 
1275 1309 978 1308 
1276 978 1309 979 
1309 978 1012 979 
979 1012 1310 1013 
1276 1310 1277 979 
979 1012 1309 1310 
1276 1310 979 1309 
1277 979 1310 980 
1310 979 1013 980 
980 1013 1311 1014 
1277 1311 1278 980 
980 1013 1310 1311 
1277 1311 980 1310 
1278 980 1311 981 
1311 980 1014 981 
981 1014 1312 1015 
1278 1312 1279 981 
981 1014 1311 1312 
1278 1312 981 1311 
1279 981 1312 982 
1312 981 1015 982 
982 1015 1313 1016 
1279 1313 1280 982 
982 1015 1312 1313 
1279 1313 982 1312 
1280 982 1313 983 
1313 982 1016 983 
983 1016 1314 1017 
1280 1314 1281 983 
983 1016 1313 1314 
1280 1314 983 1313 
1281 983 1314 984 
1314 983 1017 984 
984 1017 1315 1018 
1281 1315 1282 984 
984 1017 1314 1315 
1281 1315 984 1314 
1282 984 1315 985 
1315 984 1018 985 
985 1018 1316 1019 
1282 1316 1283 985 
985 1018 1315 1316 
1282 1316 985 1315 
1283 985 1316 986 
1316 985 1019 986 
986 1019 1317 1020 
1283 1317 1284 986 
986 1019 1316 1317 
1283 1317 986 1316 
1284 986 1317 987 
1317 986 1020 987 
987 1020 1318 1021 
1284 1318 1285 987 
987 1020 1317 1318 
1284 1318 987 1317 
1285 987 1318 988 
1318 987 1021 988 
988 1021 1319 1022 
1285 1319 1286 988 
988 1021 1318 1319 
1285 1319 988 1318 
1286 988 1319 989 
1319 988 1022 989 
990 1023 1321 1024 
1287 1321 1288 990 
990 1023 1320 1321 
1287 1321 990 1320 
1288 990 1321 991 
1321 990 1024 991 
991 1024 1322 1025 
1288 1322 1289 991 
991 1024 1321 1322 
1288 1322 991 1321 
1289 991 1322 992 
1322 991 1025 992 
992 1025 1323 1026 
1289 1323 1290 992 
992 1025 1322 1323 
1289 1323 992 1322 
1290 992 1323 993 
1323 992 1026 993 
993 1026 1324 1027 
1290 1324 1291 993 
993 1026 1323 1324 
1290 1324 993 1323 
1291 993 1324 994 
1324 993 1027 994 
994 1027 1325 1028 
1291 1325 1292 994 
994 1027 1324 1325 
1291 1325 994 1324 
1292 994 1325 995 
1325 994 1028 995 
995 1028 1326 1029 
1292 1326 1293 995 
995 1028 1325 1326 
1292 1326 995 1325 
1293 995 1326 996 
1326 995 1029 996 
996 1029 1327 1030 
1293 1327 1294 996 
996 1029 1326 1327 
1293 1327 996 1326 
1294 996 1327 997 
1327 996 1030 997 
997 1030 1328 1031 
1294 1328 1295 997 
997 1030 1327 1328 
1294 1328 997 1327 
1295 997 1328 998 
1328 997 1031 998 
998 1031 1329 1032 
1295 1329 1296 998 
998 1031 1328 1329 
1295 1329 998 1328 
1296 998 1329 999 
1329 998 1032 999 
999 1032 1330 1033 
1296 1330 1297 999 
999 1032 1329 1330 
1296 1330 999 1329 
1297 999 1330 1000 
1330 999 1033 1000 
1000 1033 1331 1034 
1297 1331 1298 1000 
1000 1033 1330 1331 
1297 1331 1000 1330 
1298 1000 1331 1001 
1331 1000 1034 1001 
1001 1034 1332 1035 
1298 1332 1299 1001 
1001 1034 1331 1332 
1298 1332 1001 1331 
1299 1001 1332 1002 
1332 1001 1035 1002 
1002 1035 1333 1036 
1299 1333 1300 1002 
1002 1035 1332 1333 
1299 1333 1002 1332 
1300 1002 1333 1003 
1333 1002 1036 1003 
1003 1036 1334 1037 
1300 1334 1301 1003 
1003 1036 1333 1334 
1300 1334 1003 1333 
1301 1003 1334 1004 
1334 1003 1037 1004 
1004 1037 1335 1038 
1301 1335 1302 1004 
1004 1037 1334 1335 
1301 1335 1004 1334 
1302 1004 1335 1005 
1335 1004 1038 1005 
1005 1038 1336 1039 
1302 1336 1303 1005 
1005 1038 1335 1336 
1302 1336 1005 1335 
1303 1005 1336 1006 
1336 1005 1039 1006 
1006 1039 1337 1040 
1303 1337 1304 1006 
1006 1039 1336 1337 
1303 1337 1006 1336 
1304 1006 1337 1007 
1337 1006 1040 1007 
1007 1040 1338 1041 
1304 1338 1305 1007 
1007 1040 1337 1338 
1304 1338 1007 1337 
1305 1007 1338 1008 
1338 1007 1041 1008 
1008 1041 1339 1042 
1305 1339 1306 1008 
1008 1041 1338 1339 
1305 1339 1008 1338 
1306 1008 1339 1009 
1339 1008 1042 1009 
1009 1042 1340 1043 
1306 1340 1307 1009 
1009 1042 1339 1340 
1306 1340 1009 1339 
1307 1009 1340 1010 
1340 1009 1043 1010 
1010 1043 1341 1044 
1307 1341 1308 1010 
1010 1043 1340 1341 
1307 1341 1010 1340 
1308 1010 1341 1011 
1341 1010 1044 1011 
1011 1044 1342 1045 
1308 1342 1309 1011 
1011 1044 1341 1342 
1308 1342 1011 1341 
1309 1011 1342 1012 
1342 1011 1045 1012 
1012 1045 1343 1046 
1309 1343 1310 1012 
1012 1045 1342 1343 
1309 1343 1012 1342 
1310 1012 1343 1013 
1343 1012 1046 1013 
1013 1046 1344 1047 
1310 1344 1311 1013 
1013 1046 1343 1344 
1310 1344 1013 1343 
1311 1013 1344 1014 
1344 1013 1047 1014 
1014 1047 1345 1048 
1311 1345 1312 1014 
1014 1047 1344 1345 
1311 1345 1014 1344 
1312 1014 1345 1015 
1345 1014 1048 1015 
1015 1048 1346 1049 
1312 1346 1313 1015 
1015 1048 1345 1346 
1312 1346 1015 1345 
1313 1015 1346 1016 
1346 1015 1049 1016 
1016 1049 1347 1050 
1313 1347 1314 1016 
1016 1049 1346 1347 
1313 1347 1016 1346 
1314 1016 1347 1017 
1347 1016 1050 1017 
1017 1050 1348 1051 
1314 1348 1315 1017 
1017 1050 1347 1348 
1314 1348 1017 1347 
1315 1017 1348 1018 
1348 1017 1051 1018 
1018 1051 1349 1052 
1315 1349 1316 1018 
1018 1051 1348 1349 
1315 1349 1018 1348 
1316 1018 1349 1019 
1349 1018 1052 1019 
1019 1052 1350 1053 
1316 1350 1317 1019 
1019 1052 1349 1350 
1316 1350 1019 1349 
1317 1019 1350 1020 
1350 1019 1053 1020 
1020 1053 1351 1054 
1317 1351 1318 1020 
1020 1053 1350 1351 
1317 1351 1020 1350 
1318 1020 1351 1021 
1351 1020 1054 1021 
1021 1054 1352 1055 
1318 1352 1319 1021 
1021 1054 1351 1352 
1318 1352 1021 1351 
1319 1021 1352 1022 
1352 1021 1055 1022 
1023 1056 1354 1057 
1320 1354 1321 1023 
1023 1056 1353 1354 
1320 1354 1023 1353 
1321 1023 1354 1024 
1354 1023 1057 1024 
1024 1057 1355 1058 
1321 1355 1322 1024 
1024 1057 1354 1355 
1321 1355 1024 1354 
1322 1024 1355 1025 
1355 1024 1058 1025 
1025 1058 1356 1059 
1322 1356 1323 1025 
1025 1058 1355 1356 
1322 1356 1025 1355 
1323 1025 1356 1026 
1356 1025 1059 1026 
1026 1059 1357 1060 
1323 1357 1324 1026 
1026 1059 1356 1357 
1323 1357 1026 1356 
1324 1026 1357 1027 
1357 1026 1060 1027 
1027 1060 1358 1061 
1324 1358 1325 1027 
1027 1060 1357 1358 
1324 1358 1027 1357 
1325 1027 1358 1028 
1358 1027 1061 1028 
1028 1061 1359 1062 
1325 1359 1326 1028 
1028 1061 1358 1359 
1325 1359 1028 1358 
1326 1028 1359 1029 
1359 1028 1062 1029 
1029 1062 1360 1063 
1326 1360 1327 1029 
1029 1062 1359 1360 
1326 1360 1029 1359 
1327 1029 1360 1030 
1360 1029 1063 1030 
1030 1063 1361 1064 
1327 1361 1328 1030 
1030 1063 1360 1361 
1327 1361 1030 1360 
1328 1030 1361 1031 
1361 1030 1064 1031 
1031 1064 1362 1065 
1328 1362 1329 1031 
1031 1064 1361 1362 
1328 1362 1031 1361 
1329 1031 1362 1032 
1362 1031 1065 1032 
1032 1065 1363 1066 
1329 1363 1330 1032 
1032 1065 1362 1363 
1329 1363 1032 1362 
1330 1032 1363 1033 
1363 1032 1066 1033 
1033 1066 1364 1067 
1330 1364 1331 1033 
1033 1066 1363 1364 
1330 1364 1033 1363 
1331 1033 1364 1034 
1364 1033 1067 1034 
1034 1067 1365 1068 
1331 1365 1332 1034 
1034 1067 1364 1365 
1331 1365 1034 1364 
1332 1034 1365 1035 
1365 1034 1068 1035 
1035 1068 1366 1069 
1332 1366 1333 1035 
1035 1068 1365 1366 
1332 1366 1035 1365 
1333 1035 1366 1036 
1366 1035 1069 1036 
1036 1069 1367 1070 
1333 1367 1334 1036 
1036 1069 1366 1367 
1333 1367 1036 1366 
1334 1036 1367 1037 
1367 1036 1070 1037 
1037 1070 1368 1071 
1334 1368 1335 1037 
1037 1070 1367 1368 
1334 1368 1037 1367 
1335 1037 1368 1038 
1368 1037 1071 1038 
1038 1071 1369 1072 
1335 1369 1336 1038 
1038 1071 1368 1369 
1335 1369 1038 1368 
1336 1038 1369 1039 
1369 1038 1072 1039 
1039 1072 1370 1073 
1336 1370 1337 1039 
1039 1072 1369 1370 
1336 1370 1039 1369 
1337 1039 1370 1040 
1370 1039 1073 1040 
1040 1073 1371 1074 
1337 1371 1338 1040 
1040 1073 1370 1371 
1337 1371 1040 1370 
1338 1040 1371 1041 
1371 1040 1074 1041 
1041 1074 1372 1075 
1338 1372 1339 1041 
1041 1074 1371 1372 
1338 1372 1041 1371 
1339 1041 1372 1042 
1372 1041 1075 1042 
1042 1075 1373 1076 
1339 1373 1340 1042 
1042 1075 1372 1373 
1339 1373 1042 1372 
1340 1042 1373 1043 
1373 1042 1076 1043 
1043 1076 1374 1077 
1340 1374 1341 1043 
1043 1076 1373 1374 
1340 1374 1043 1373 
1341 1043 1374 1044 
1374 1043 1077 1044 
1044 1077 1375 1078 
1341 1375 1342 1044 
1044 1077 1374 1375 
1341 1375 1044 1374 
1342 1044 1375 1045 
1375 1044 1078 1045 
1045 1078 1376 1079 
1342 1376 1343 1045 
1045 1078 1375 1376 
1342 1376 1045 1375 
1343 1045 1376 1046 
1376 1045 1079 1046 
1046 1079 1377 1080 
1343 1377 1344 1046 
1046 1079 1376 1377 
1343 1377 1046 1376 
1344 1046 1377 1047 
1377 1046 1080 1047 
1047 1080 1378 1081 
1344 1378 1345 1047 
1047 1080 1377 1378 
1344 1378 1047 1377 
1345 1047 1378 1048 
1378 1047 1081 1048 
1048 1081 1379 1082 
1345 1379 1346 1048 
1048 1081 1378 1379 
1345 1379 1048 1378 
1346 1048 1379 1049 
1379 1048 1082 1049 
1049 1082 1380 1083 
1346 1380 1347 1049 
1049 1082 1379 1380 
1346 1380 1049 1379 
1347 1049 1380 1050 
1380 1049 1083 1050 
1050 1083 1381 1084 
1347 1381 1348 1050 
1050 1083 1380 1381 
1347 1381 1050 1380 
1348 1050 1381 1051 
1381 1050 1084 1051 
1051 1084 1382 1085 
1348 1382 1349 1051 
1051 1084 1381 1382 
1348 1382 1051 1381 
1349 1051 1382 1052 
1382 1051 1085 1052 
1052 1085 1383 1086 
1349 1383 1350 1052 
1052 1085 1382 1383 
1349 1383 1052 1382 
1350 1052 1383 1053 
1383 1052 1086 1053 
1053 1086 1384 1087 
1350 1384 1351 1053 
1053 1086 1383 1384 
1350 1384 1053 1383 
1351 1053 1384 1054 
1384 1053 1087 1054 
1054 1087 1385 1088 
1351 1385 1352 1054 
1054 1087 1384 1385 
1351 1385 1054 1384 
1352 1054 1385 1055 
1385 1054 1088 1055 
1056 1089 1387 1090 
1353 1387 1354 1056 
1056 1089 1386 1387 
1353 1387 1056 1386 
1354 1056 1387 1057 
1387 1056 1090 1057 
1057 1090 1388 1091 
1354 1388 1355 1057 
1057 1090 1387 1388 
1354 1388 1057 1387 
1355 1057 1388 1058 
1388 1057 1091 1058 
1058 1091 1389 1092 
1355 1389 1356 1058 
1058 1091 1388 1389 
1355 1389 1058 1388 
1356 1058 1389 1059 
1389 1058 1092 1059 
1059 1092 1390 1093 
1356 1390 1357 1059 
1059 1092 1389 1390 
1356 1390 1059 1389 
1357 1059 1390 1060 
1390 1059 1093 1060 
1060 1093 1391 1094 
1357 1391 1358 1060 
1060 1093 1390 1391 
1357 1391 1060 1390 
1358 1060 1391 1061 
1391 1060 1094 1061 
1061 1094 1392 1095 
1358 1392 1359 1061 
1061 1094 1391 1392 
1358 1392 1061 1391 
1359 1061 1392 1062 
1392 1061 1095 1062 
1062 1095 1393 1096 
1359 1393 1360 1062 
1062 1095 1392 1393 
1359 1393 1062 1392 
1360 1062 1393 1063 
1393 1062 1096 1063 
1063 1096 1394 1097 
1360 1394 1361 1063 
1063 1096 1393 1394 
1360 1394 1063 1393 
1361 1063 1394 1064 
1394 1063 1097 1064 
1064 1097 1395 1098 
1361 1395 1362 1064 
1064 1097 1394 1395 
1361 1395 1064 1394 
1362 1064 1395 1065 
1395 1064 1098 1065 
1065 1098 1396 1099 
1362 1396 1363 1065 
1065 1098 1395 1396 
1362 1396 1065 1395 
1363 1065 1396 1066 
1396 1065 1099 1066 
1066 1099 1397 1100 
1363 1397 1364 1066 
1066 1099 1396 1397 
1363 1397 1066 1396 
1364 1066 1397 1067 
1397 1066 1100 1067 
1067 1100 1398 1101 
1364 1398 1365 1067 
1067 1100 1397 1398 
1364 1398 1067 1397 
1365 1067 1398 1068 
1398 1067 1101 1068 
1068 1101 1399 1102 
1365 1399 1366 1068 
1068 1101 1398 1399 
1365 1399 1068 1398 
1366 1068 1399 1069 
1399 1068 1102 1069 
1069 1102 1400 1103 
1366 1400 1367 1069 
1069 1102 1399 1400 
1366 1400 1069 1399 
1367 1069 1400 1070 
1400 1069 1103 1070 
1070 1103 1401 1104 
1367 1401 1368 1070 
1070 1103 1400 1401 
1367 1401 1070 1400 
1368 1070 1401 1071 
1401 1070 1104 1071 
1071 1104 1402 1105 
1368 1402 1369 1071 
1071 1104 1401 1402 
1368 1402 1071 1401 
1369 1071 1402 1072 
1402 1071 1105 1072 
1072 1105 1403 1106 
1369 1403 1370 1072 
1072 1105 1402 1403 
1369 1403 1072 1402 
1370 1072 1403 1073 
1403 1072 1106 1073 
1073 1106 1404 1107 
1370 1404 1371 1073 
1073 1106 1403 1404 
1370 1404 1073 1403 
1371 1073 1404 1074 
1404 1073 1107 1074 
1074 1107 1405 1108 
1371 1405 1372 1074 
1074 1107 1404 1405 
1371 1405 1074 1404 
1372 1074 1405 1075 
1405 1074 1108 1075 
1075 1108 1406 1109 
1372 1406 1373 1075 
1075 1108 1405 1406 
1372 1406 1075 1405 
1373 1075 1406 1076 
1406 1075 1109 1076 
1076 1109 1407 1110 
1373 1407 1374 1076 
1076 1109 1406 1407 
1373 1407 1076 1406 
1374 1076 1407 1077 
1407 1076 1110 1077 
1077 1110 1408 1111 
1374 1408 1375 1077 
1077 1110 1407 1408 
1374 1408 1077 1407 
1375 1077 1408 1078 
1408 1077 1111 1078 
1078 1111 1409 1112 
1375 1409 1376 1078 
1078 1111 1408 1409 
1375 1409 1078 1408 
1376 1078 1409 1079 
1409 1078 1112 1079 
1079 1112 1410 1113 
1376 1410 1377 1079 
1079 1112 1409 1410 
1376 1410 1079 1409 
1377 1079 1410 1080 
1410 1079 1113 1080 
1080 1113 1411 1114 
1377 1411 1378 1080 
1080 1113 1410 1411 
1377 1411 1080 1410 
1378 1080 1411 1081 
1411 1080 1114 1081 
1081 1114 1412 1115 
1378 1412 1379 1081 
1081 1114 1411 1412 
1378 1412 1081 1411 
1379 1081 1412 1082 
1412 1081 1115 1082 
1082 1115 1413 1116 
1379 1413 1380 1082 
1082 1115 1412 1413 
1379 1413 1082 1412 
1380 1082 1413 1083 
1413 1082 1116 1083 
1083 1116 1414 1117 
1380 1414 1381 1083 
1083 1116 1413 1414 
1380 1414 1083 1413 
1381 1083 1414 1084 
1414 1083 1117 1084 
1084 1117 1415 1118 
1381 1415 1382 1084 
1084 1117 1414 1415 
1381 1415 1084 1414 
1382 1084 1415 1085 
1415 1084 1118 1085 
1085 1118 1416 1119 
1382 1416 1383 1085 
1085 1118 1415 1416 
1382 1416 1085 1415 
1383 1085 1416 1086 
1416 1085 1119 1086 
1086 1119 1417 1120 
1383 1417 1384 1086 
1086 1119 1416 1417 
1383 1417 1086 1416 
1384 1086 1417 1087 
1417 1086 1120 1087 
1087 1120 1418 1121 
1384 1418 1385 1087 
1087 1120 1417 1418 
1384 1418 1087 1417 
1385 1087 1418 1088 
1418 1087 1121 1088 
1089 1122 1420 1123 
1386 1420 1387 1089 
1089 1122 1419 1420 
1386 1420 1089 1419 
1387 1089 1420 1090 
1420 1089 1123 1090 
1090 1123 1421 1124 
1387 1421 1388 1090 
1090 1123 1420 1421 
1387 1421 1090 1420 
1388 1090 1421 1091 
1421 1090 1124 1091 
1091 1124 1422 1125 
1388 1422 1389 1091 
1091 1124 1421 1422 
1388 1422 1091 1421 
1389 1091 1422 1092 
1422 1091 1125 1092 
1092 1125 1423 1126 
1389 1423 1390 1092 
1092 1125 1422 1423 
1389 1423 1092 1422 
1390 1092 1423 1093 
1423 1092 1126 1093 
1093 1126 1424 1127 
1390 1424 1391 1093 
1093 1126 1423 1424 
1390 1424 1093 1423 
1391 1093 1424 1094 
1424 1093 1127 1094 
1094 1127 1425 1128 
1391 1425 1392 1094 
1094 1127 1424 1425 
1391 1425 1094 1424 
1392 1094 1425 1095 
1425 1094 1128 1095 
1095 1128 1426 1129 
1392 1426 1393 1095 
1095 1128 1425 1426 
1392 1426 1095 1425 
1393 1095 1426 1096 
1426 1095 1129 1096 
1096 1129 1427 1130 
1393 1427 1394 1096 
1096 1129 1426 1427 
1393 1427 1096 1426 
1394 1096 1427 1097 
1427 1096 1130 1097 
1097 1130 1428 1131 
1394 1428 1395 1097 
1097 1130 1427 1428 
1394 1428 1097 1427 
1395 1097 1428 1098 
1428 1097 1131 1098 
1098 1131 1429 1132 
1395 1429 1396 1098 
1098 1131 1428 1429 
1395 1429 1098 1428 
1396 1098 1429 1099 
1429 1098 1132 1099 
1099 1132 1430 1133 
1396 1430 1397 1099 
1099 1132 1429 1430 
1396 1430 1099 1429 
1397 1099 1430 1100 
1430 1099 1133 1100 
1100 1133 1431 1134 
1397 1431 1398 1100 
1100 1133 1430 1431 
1397 1431 1100 1430 
1398 1100 1431 1101 
1431 1100 1134 1101 
1101 1134 1432 1135 
1398 1432 1399 1101 
1101 1134 1431 1432 
1398 1432 1101 1431 
1399 1101 1432 1102 
1432 1101 1135 1102 
1102 1135 1433 1136 
1399 1433 1400 1102 
1102 1135 1432 1433 
1399 1433 1102 1432 
1400 1102 1433 1103 
1433 1102 1136 1103 
1103 1136 1434 1137 
1400 1434 1401 1103 
1103 1136 1433 1434 
1400 1434 1103 1433 
1401 1103 1434 1104 
1434 1103 1137 1104 
1104 1137 1435 1138 
1401 1435 1402 1104 
1104 1137 1434 1435 
1401 1435 1104 1434 
1402 1104 1435 1105 
1435 1104 1138 1105 
1105 1138 1436 1139 
1402 1436 1403 1105 
1105 1138 1435 1436 
1402 1436 1105 1435 
1403 1105 1436 1106 
1436 1105 1139 1106 
1106 1139 1437 1140 
1403 1437 1404 1106 
1106 1139 1436 1437 
1403 1437 1106 1436 
1404 1106 1437 1107 
1437 1106 1140 1107 
1107 1140 1438 1141 
1404 1438 1405 1107 
1107 1140 1437 1438 
1404 1438 1107 1437 
1405 1107 1438 1108 
1438 1107 1141 1108 
1108 1141 1439 1142 
1405 1439 1406 1108 
1108 1141 1438 1439 
1405 1439 1108 1438 
1406 1108 1439 1109 
1439 1108 1142 1109 
1109 1142 1440 1143 
1406 1440 1407 1109 
1109 1142 1439 1440 
1406 1440 1109 1439 
1407 1109 1440 1110 
1440 1109 1143 1110 
1110 1143 1441 1144 
1407 1441 1408 1110 
1110 1143 1440 1441 
1407 1441 1110 1440 
1408 1110 1441 1111 
1441 1110 1144 1111 
1111 1144 1442 1145 
1408 1442 1409 1111 
1111 1144 1441 1442 
1408 1442 1111 1441 
1409 1111 1442 1112 
1442 1111 1145 1112 
1112 1145 1443 1146 
1409 1443 1410 1112 
1112 1145 1442 1443 
1409 1443 1112 1442 
1410 1112 1443 1113 
1443 1112 1146 1113 
1113 1146 1444 1147 
1410 1444 1411 1113 
1113 1146 1443 1444 
1410 1444 1113 1443 
1411 1113 1444 1114 
1444 1113 1147 1114 
1114 1147 1445 1148 
1411 1445 1412 1114 
1114 1147 1444 1445 
1411 1445 1114 1444 
1412 1114 1445 1115 
1445 1114 1148 1115 
1115 1148 1446 1149 
1412 1446 1413 1115 
1115 1148 1445 1446 
1412 1446 1115 1445 
1413 1115 1446 1116 
1446 1115 1149 1116 
1116 1149 1447 1150 
1413 1447 1414 1116 
1116 1149 1446 1447 
1413 1447 1116 1446 
1414 1116 1447 1117 
1447 1116 1150 1117 
1117 1150 1448 1151 
1414 1448 1415 1117 
1117 1150 1447 1448 
1414 1448 1117 1447 
1415 1117 1448 1118 
1448 1117 1151 1118 
1118 1151 1449 1152 
1415 1449 1416 1118 
1118 1151 1448 1449 
1415 1449 1118 1448 
1416 1118 1449 1119 
1449 1118 1152 1119 
1119 1152 1450 1153 
1416 1450 1417 1119 
1119 1152 1449 1450 
1416 1450 1119 1449 
1417 1119 1450 1120 
1450 1119 1153 1120 
1120 1153 1451 1154 
1417 1451 1418 1120 
1120 1153 1450 1451 
1417 1451 1120 1450 
1418 1120 1451 1121 
1451 1120 1154 1121 
1122 1155 1453 1156 
1419 1453 1420 1122 
1122 1155 1452 1453 
1419 1453 1122 1452 
1420 1122 1453 1123 
1453 1122 1156 1123 
1123 1156 1454 1157 
1420 1454 1421 1123 
1123 1156 1453 1454 
1420 1454 1123 1453 
1421 1123 1454 1124 
1454 1123 1157 1124 
1124 1157 1455 1158 
1421 1455 1422 1124 
1124 1157 1454 1455 
1421 1455 1124 1454 
1422 1124 1455 1125 
1455 1124 1158 1125 
1125 1158 1456 1159 
1422 1456 1423 1125 
1125 1158 1455 1456 
1422 1456 1125 1455 
1423 1125 1456 1126 
1456 1125 1159 1126 
1126 1159 1457 1160 
1423 1457 1424 1126 
1126 1159 1456 1457 
1423 1457 1126 1456 
1424 1126 1457 1127 
1457 1126 1160 1127 
1127 1160 1458 1161 
1424 1458 1425 1127 
1127 1160 1457 1458 
1424 1458 1127 1457 
1425 1127 1458 1128 
1458 1127 1161 1128 
1128 1161 1459 1162 
1425 1459 1426 1128 
1128 1161 1458 1459 
1425 1459 1128 1458 
1426 1128 1459 1129 
1459 1128 1162 1129 
1129 1162 1460 1163 
1426 1460 1427 1129 
1129 1162 1459 1460 
1426 1460 1129 1459 
1427 1129 1460 1130 
1460 1129 1163 1130 
1130 1163 1461 1164 
1427 1461 1428 1130 
1130 1163 1460 1461 
1427 1461 1130 1460 
1428 1130 1461 1131 
1461 1130 1164 1131 
1131 1164 1462 1165 
1428 1462 1429 1131 
1131 1164 1461 1462 
1428 1462 1131 1461 
1429 1131 1462 1132 
1462 1131 1165 1132 
1132 1165 1463 1166 
1429 1463 1430 1132 
1132 1165 1462 1463 
1429 1463 1132 1462 
1430 1132 1463 1133 
1463 1132 1166 1133 
1133 1166 1464 1167 
1430 1464 1431 1133 
1133 1166 1463 1464 
1430 1464 1133 1463 
1431 1133 1464 1134 
1464 1133 1167 1134 
1134 1167 1465 1168 
1431 1465 1432 1134 
1134 1167 1464 1465 
1431 1465 1134 1464 
1432 1134 1465 1135 
1465 1134 1168 1135 
1135 1168 1466 1169 
1432 1466 1433 1135 
1135 1168 1465 1466 
1432 1466 1135 1465 
1433 1135 1466 1136 
1466 1135 1169 1136 
1136 1169 1467 1170 
1433 1467 1434 1136 
1136 1169 1466 1467 
1433 1467 1136 1466 
1434 1136 1467 1137 
1467 1136 1170 1137 
1137 1170 1468 1171 
1434 1468 1435 1137 
1137 1170 1467 1468 
1434 1468 1137 1467 
1435 1137 1468 1138 
1468 1137 1171 1138 
1138 1171 1469 1172 
1435 1469 1436 1138 
1138 1171 1468 1469 
1435 1469 1138 1468 
1436 1138 1469 1139 
1469 1138 1172 1139 
1139 1172 1470 1173 
1436 1470 1437 1139 
1139 1172 1469 1470 
1436 1470 1139 1469 
1437 1139 1470 1140 
1470 1139 1173 1140 
1140 1173 1471 1174 
1437 1471 1438 1140 
1140 1173 1470 1471 
1437 1471 1140 1470 
1438 1140 1471 1141 
1471 1140 1174 1141 
1141 1174 1472 1175 
1438 1472 1439 1141 
1141 1174 1471 1472 
1438 1472 1141 1471 
1439 1141 1472 1142 
1472 1141 1175 1142 
1142 1175 1473 1176 
1439 1473 1440 1142 
1142 1175 1472 1473 
1439 1473 1142 1472 
1440 1142 1473 1143 
1473 1142 1176 1143 
1143 1176 1474 1177 
1440 1474 1441 1143 
1143 1176 1473 1474 
1440 1474 1143 1473 
1441 1143 1474 1144 
1474 1143 1177 1144 
1144 1177 1475 1178 
1441 1475 1442 1144 
1144 1177 1474 1475 
1441 1475 1144 1474 
1442 1144 1475 1145 
1475 1144 1178 1145 
1145 1178 1476 1179 
1442 1476 1443 1145 
1145 1178 1475 1476 
1442 1476 1145 1475 
1443 1145 1476 1146 
1476 1145 1179 1146 
1146 1179 1477 1180 
1443 1477 1444 1146 
1146 1179 1476 1477 
1443 1477 1146 1476 
1444 1146 1477 1147 
1477 1146 1180 1147 
1147 1180 1478 1181 
1444 1478 1445 1147 
1147 1180 1477 1478 
1444 1478 1147 1477 
1445 1147 1478 1148 
1478 1147 1181 1148 
1148 1181 1479 1182 
1445 1479 1446 1148 
1148 1181 1478 1479 
1445 1479 1148 1478 
1446 1148 1479 1149 
1479 1148 1182 1149 
1149 1182 1480 1183 
1446 1480 1447 1149 
1149 1182 1479 1480 
1446 1480 1149 1479 
1447 1149 1480 1150 
1480 1149 1183 1150 
1150 1183 1481 1184 
1447 1481 1448 1150 
1150 1183 1480 1481 
1447 1481 1150 1480 
1448 1150 1481 1151 
1481 1150 1184 1151 
1151 1184 1482 1185 
1448 1482 1449 1151 
1151 1184 1481 1482 
1448 1482 1151 1481 
1449 1151 1482 1152 
1482 1151 1185 1152 
1152 1185 1483 1186 
1449 1483 1450 1152 
1152 1185 1482 1483 
1449 1483 1152 1482 
1450 1152 1483 1153 
1483 1152 1186 1153 
1153 1186 1484 1187 
1450 1484 1451 1153 
1153 1186 1483 1484 
1450 1484 1153 1483 
1451 1153 1484 1154 
1484 1153 1187 1154 
1188 1221 1519 1222 
1485 1519 1486 1188 
1188 1221 1518 1519 
1485 1519 1188 1518 
1486 1188 1519 1189 
1519 1188 1222 1189 
1189 1222 1520 1223 
1486 1520 1487 1189 
1189 1222 1519 1520 
1486 1520 1189 1519 
1487 1189 1520 1190 
1520 1189 1223 1190 
1190 1223 1521 1224 
1487 1521 1488 1190 
1190 1223 1520 1521 
1487 1521 1190 1520 
1488 1190 1521 1191 
1521 1190 1224 1191 
1191 1224 1522 1225 
1488 1522 1489 1191 
1191 1224 1521 1522 
1488 1522 1191 1521 
1489 1191 1522 1192 
1522 1191 1225 1192 
1192 1225 1523 1226 
1489 1523 1490 1192 
1192 1225 1522 1523 
1489 1523 1192 1522 
1490 1192 1523 1193 
1523 1192 1226 1193 
1193 1226 1524 1227 
1490 1524 1491 1193 
1193 1226 1523 1524 
1490 1524 1193 1523 
1491 1193 1524 1194 
1524 1193 1227 1194 
1194 1227 1525 1228 
1491 1525 1492 1194 
1194 1227 1524 1525 
1491 1525 1194 1524 
1492 1194 1525 1195 
1525 1194 1228 1195 
1195 1228 1526 1229 
1492 1526 1493 1195 
1195 1228 1525 1526 
1492 1526 1195 1525 
1493 1195 1526 1196 
1526 1195 1229 1196 
1196 1229 1527 1230 
1493 1527 1494 1196 
1196 1229 1526 1527 
1493 1527 1196 1526 
1494 1196 1527 1197 
1527 1196 1230 1197 
1197 1230 1528 1231 
1494 1528 1495 1197 
1197 1230 1527 1528 
1494 1528 1197 1527 
1495 1197 1528 1198 
1528 1197 1231 1198 
1198 1231 1529 1232 
1495 1529 1496 1198 
1198 1231 1528 1529 
1495 1529 1198 1528 
1496 1198 1529 1199 
1529 1198 1232 1199 
1199 1232 1530 1233 
1496 1530 1497 1199 
1199 1232 1529 1530 
1496 1530 1199 1529 
1497 1199 1530 1200 
1530 1199 1233 1200 
1200 1233 1531 1234 
1497 1531 1498 1200 
1200 1233 1530 1531 
1497 1531 1200 1530 
1498 1200 1531 1201 
1531 1200 1234 1201 
1201 1234 1532 1235 
1498 1532 1499 1201 
1201 1234 1531 1532 
1498 1532 1201 1531 
1499 1201 1532 1202 
1532 1201 1235 1202 
1202 1235 1533 1236 
1499 1533 1500 1202 
1202 1235 1532 1533 
1499 1533 1202 1532 
1500 1202 1533 1203 
1533 1202 1236 1203 
1203 1236 1534 1237 
1500 1534 1501 1203 
1203 1236 1533 1534 
1500 1534 1203 1533 
1501 1203 1534 1204 
1534 1203 1237 1204 
1204 1237 1535 1238 
1501 1535 1502 1204 
1204 1237 1534 1535 
1501 1535 1204 1534 
1502 1204 1535 1205 
1535 1204 1238 1205 
1205 1238 1536 1239 
1502 1536 1503 1205 
1205 1238 1535 1536 
1502 1536 1205 1535 
1503 1205 1536 1206 
1536 1205 1239 1206 
1206 1239 1537 1240 
1503 1537 1504 1206 
1206 1239 1536 1537 
1503 1537 1206 1536 
1504 1206 1537 1207 
1537 1206 1240 1207 
1207 1240 1538 1241 
1504 1538 1505 1207 
1207 1240 1537 1538 
1504 1538 1207 1537 
1505 1207 1538 1208 
1538 1207 1241 1208 
1208 1241 1539 1242 
1505 1539 1506 1208 
1208 1241 1538 1539 
1505 1539 1208 1538 
1506 1208 1539 1209 
1539 1208 1242 1209 
1209 1242 1540 1243 
1506 1540 1507 1209 
1209 1242 1539 1540 
1506 1540 1209 1539 
1507 1209 1540 1210 
1540 1209 1243 1210 
1210 1243 1541 1244 
1507 1541 1508 1210 
1210 1243 1540 1541 
1507 1541 1210 1540 
1508 1210 1541 1211 
1541 1210 1244 1211 
1211 1244 1542 1245 
1508 1542 1509 1211 
1211 1244 1541 1542 
1508 1542 1211 1541 
1509 1211 1542 1212 
1542 1211 1245 1212 
1212 1245 1543 1246 
1509 1543 1510 1212 
1212 1245 1542 1543 
1509 1543 1212 1542 
1510 1212 1543 1213 
1543 1212 1246 1213 
1213 1246 1544 1247 
1510 1544 1511 1213 
1213 1246 1543 1544 
1510 1544 1213 1543 
1511 1213 1544 1214 
1544 1213 1247 1214 
1214 1247 1545 1248 
1511 1545 1512 1214 
1214 1247 1544 1545 
1511 1545 1214 1544 
1512 1214 1545 1215 
1545 1214 1248 1215 
1215 1248 1546 1249 
1512 1546 1513 1215 
1215 1248 1545 1546 
1512 1546 1215 1545 
1513 1215 1546 1216 
1546 1215 1249 1216 
1216 1249 1547 1250 
1513 1547 1514 1216 
1216 1249 1546 1547 
1513 1547 1216 1546 
1514 1216 1547 1217 
1547 1216 1250 1217 
1217 1250 1548 1251 
1514 1548 1515 1217 
1217 1250 1547 1548 
1514 1548 1217 1547 
1515 1217 1548 1218 
1548 1217 1251 1218 
1218 1251 1549 1252 
1515 1549 1516 1218 
1218 1251 1548 1549 
1515 1549 1218 1548 
1516 1218 1549 1219 
1549 1218 1252 1219 
1219 1252 1550 1253 
1516 1550 1517 1219 
1219 1252 1549 1550 
1516 1550 1219 1549 
1517 1219 1550 1220 
1550 1219 1253 1220 
1221 1254 1552 1255 
1518 1552 1519 1221 
1221 1254 1551 1552 
1518 1552 1221 1551 
1519 1221 1552 1222 
1552 1221 1255 1222 
1222 1255 1553 1256 
1519 1553 1520 1222 
1222 1255 1552 1553 
1519 1553 1222 1552 
1520 1222 1553 1223 
1553 1222 1256 1223 
1223 1256 1554 1257 
1520 1554 1521 1223 
1223 1256 1553 1554 
1520 1554 1223 1553 
1521 1223 1554 1224 
1554 1223 1257 1224 
1224 1257 1555 1258 
1521 1555 1522 1224 
1224 1257 1554 1555 
1521 1555 1224 1554 
1522 1224 1555 1225 
1555 1224 1258 1225 
1225 1258 1556 1259 
1522 1556 1523 1225 
1225 1258 1555 1556 
1522 1556 1225 1555 
1523 1225 1556 1226 
1556 1225 1259 1226 
1226 1259 1557 1260 
1523 1557 1524 1226 
1226 1259 1556 1557 
1523 1557 1226 1556 
1524 1226 1557 1227 
1557 1226 1260 1227 
1227 1260 1558 1261 
1524 1558 1525 1227 
1227 1260 1557 1558 
1524 1558 1227 1557 
1525 1227 1558 1228 
1558 1227 1261 1228 
1228 1261 1559 1262 
1525 1559 1526 1228 
1228 1261 1558 1559 
1525 1559 1228 1558 
1526 1228 1559 1229 
1559 1228 1262 1229 
1229 1262 1560 1263 
1526 1560 1527 1229 
1229 1262 1559 1560 
1526 1560 1229 1559 
1527 1229 1560 1230 
1560 1229 1263 1230 
1230 1263 1561 1264 
1527 1561 1528 1230 
1230 1263 1560 1561 
1527 1561 1230 1560 
1528 1230 1561 1231 
1561 1230 1264 1231 
1231 1264 1562 1265 
1528 1562 1529 1231 
1231 1264 1561 1562 
1528 1562 1231 1561 
1529 1231 1562 1232 
1562 1231 1265 1232 
1232 1265 1563 1266 
1529 1563 1530 1232 
1232 1265 1562 1563 
1529 1563 1232 1562 
1530 1232 1563 1233 
1563 1232 1266 1233 
1233 1266 1564 1267 
1530 1564 1531 1233 
1233 1266 1563 1564 
1530 1564 1233 1563 
1531 1233 1564 1234 
1564 1233 1267 1234 
1234 1267 1565 1268 
1531 1565 1532 1234 
1234 1267 1564 1565 
1531 1565 1234 1564 
1532 1234 1565 1235 
1565 1234 1268 1235 
1235 1268 1566 1269 
1532 1566 1533 1235 
1235 1268 1565 1566 
1532 1566 1235 1565 
1533 1235 1566 1236 
1566 1235 1269 1236 
1236 1269 1567 1270 
1533 1567 1534 1236 
1236 1269 1566 1567 
1533 1567 1236 1566 
1534 1236 1567 1237 
1567 1236 1270 1237 
1237 1270 1568 1271 
1534 1568 1535 1237 
1237 1270 1567 1568 
1534 1568 1237 1567 
1535 1237 1568 1238 
1568 1237 1271 1238 
1238 1271 1569 1272 
1535 1569 1536 1238 
1238 1271 1568 1569 
1535 1569 1238 1568 
1536 1238 1569 1239 
1569 1238 1272 1239 
1239 1272 1570 1273 
1536 1570 1537 1239 
1239 1272 1569 1570 
1536 1570 1239 1569 
1537 1239 1570 1240 
1570 1239 1273 1240 
1240 1273 1571 1274 
1537 1571 1538 1240 
1240 1273 1570 1571 
1537 1571 1240 1570 
1538 1240 1571 1241 
1571 1240 1274 1241 
1241 1274 1572 1275 
1538 1572 1539 1241 
1241 1274 1571 1572 
1538 1572 1241 1571 
1539 1241 1572 1242 
1572 1241 1275 1242 
1242 1275 1573 1276 
1539 1573 1540 1242 
1242 1275 1572 1573 
1539 1573 1242 1572 
1540 1242 1573 1243 
1573 1242 1276 1243 
1243 1276 1574 1277 
1540 1574 1541 1243 
1243 1276 1573 1574 
1540 1574 1243 1573 
1541 1243 1574 1244 
1574 1243 1277 1244 
1244 1277 1575 1278 
1541 1575 1542 1244 
1244 1277 1574 1575 
1541 1575 1244 1574 
1542 1244 1575 1245 
1575 1244 1278 1245 
1245 1278 1576 1279 
1542 1576 1543 1245 
1245 1278 1575 1576 
1542 1576 1245 1575 
1543 1245 1576 1246 
1576 1245 1279 1246 
1246 1279 1577 1280 
1543 1577 1544 1246 
1246 1279 1576 1577 
1543 1577 1246 1576 
1544 1246 1577 1247 
1577 1246 1280 1247 
1247 1280 1578 1281 
1544 1578 1545 1247 
1247 1280 1577 1578 
1544 1578 1247 1577 
1545 1247 1578 1248 
1578 1247 1281 1248 
1248 1281 1579 1282 
1545 1579 1546 1248 
1248 1281 1578 1579 
1545 1579 1248 1578 
1546 1248 1579 1249 
1579 1248 1282 1249 
1249 1282 1580 1283 
1546 1580 1547 1249 
1249 1282 1579 1580 
1546 1580 1249 1579 
1547 1249 1580 1250 
1580 1249 1283 1250 
1250 1283 1581 1284 
1547 1581 1548 1250 
1250 1283 1580 1581 
1547 1581 1250 1580 
1548 1250 1581 1251 
1581 1250 1284 1251 
1251 1284 1582 1285 
1548 1582 1549 1251 
1251 1284 1581 1582 
1548 1582 1251 1581 
1549 1251 1582 1252 
1582 1251 1285 1252 
1252 1285 1583 1286 
1549 1583 1550 1252 
1252 1285 1582 1583 
1549 1583 1252 1582 
1550 1252 1583 1253 
1583 1252 1286 1253 
1254 1287 1585 1288 
1551 1585 1552 1254 
1254 1287 1584 1585 
1551 1585 1254 1584 
1552 1254 1585 1255 
1585 1254 1288 1255 
1255 1288 1586 1289 
1552 1586 1553 1255 
1255 1288 1585 1586 
1552 1586 1255 1585 
1553 1255 1586 1256 
1586 1255 1289 1256 
1256 1289 1587 1290 
1553 1587 1554 1256 
1256 1289 1586 1587 
1553 1587 1256 1586 
1554 1256 1587 1257 
1587 1256 1290 1257 
1257 1290 1588 1291 
1554 1588 1555 1257 
1257 1290 1587 1588 
1554 1588 1257 1587 
1555 1257 1588 1258 
1588 1257 1291 1258 
1258 1291 1589 1292 
1555 1589 1556 1258 
1258 1291 1588 1589 
1555 1589 1258 1588 
1556 1258 1589 1259 
1589 1258 1292 1259 
1259 1292 1590 1293 
1556 1590 1557 1259 
1259 1292 1589 1590 
1556 1590 1259 1589 
1557 1259 1590 1260 
1590 1259 1293 1260 
1260 1293 1591 1294 
1557 1591 1558 1260 
1260 1293 1590 1591 
1557 1591 1260 1590 
1558 1260 1591 1261 
1591 1260 1294 1261 
1261 1294 1592 1295 
1558 1592 1559 1261 
1261 1294 1591 1592 
1558 1592 1261 1591 
1559 1261 1592 1262 
1592 1261 1295 1262 
1262 1295 1593 1296 
1559 1593 1560 1262 
1262 1295 1592 1593 
1559 1593 1262 1592 
1560 1262 1593 1263 
1593 1262 1296 1263 
1263 1296 1594 1297 
1560 1594 1561 1263 
1263 1296 1593 1594 
1560 1594 1263 1593 
1561 1263 1594 1264 
1594 1263 1297 1264 
1264 1297 1595 1298 
1561 1595 1562 1264 
1264 1297 1594 1595 
1561 1595 1264 1594 
1562 1264 1595 1265 
1595 1264 1298 1265 
1265 1298 1596 1299 
1562 1596 1563 1265 
1265 1298 1595 1596 
1562 1596 1265 1595 
1563 1265 1596 1266 
1596 1265 1299 1266 
1266 1299 1597 1300 
1563 1597 1564 1266 
1266 1299 1596 1597 
1563 1597 1266 1596 
1564 1266 1597 1267 
1597 1266 1300 1267 
1267 1300 1598 1301 
1564 1598 1565 1267 
1267 1300 1597 1598 
1564 1598 1267 1597 
1565 1267 1598 1268 
1598 1267 1301 1268 
1268 1301 1599 1302 
1565 1599 1566 1268 
1268 1301 1598 1599 
1565 1599 1268 1598 
1566 1268 1599 1269 
1599 1268 1302 1269 
1269 1302 1600 1303 
1566 1600 1567 1269 
1269 1302 1599 1600 
1566 1600 1269 1599 
1567 1269 1600 1270 
1600 1269 1303 1270 
1270 1303 1601 1304 
1567 1601 1568 1270 
1270 1303 1600 1601 
1567 1601 1270 1600 
1568 1270 1601 1271 
1601 1270 1304 1271 
1271 1304 1602 1305 
1568 1602 1569 1271 
1271 1304 1601 1602 
1568 1602 1271 1601 
1569 1271 1602 1272 
1602 1271 1305 1272 
1272 1305 1603 1306 
1569 1603 1570 1272 
1272 1305 1602 1603 
1569 1603 1272 1602 
1570 1272 1603 1273 
1603 1272 1306 1273 
1273 1306 1604 1307 
1570 1604 1571 1273 
1273 1306 1603 1604 
1570 1604 1273 1603 
1571 1273 1604 1274 
1604 1273 1307 1274 
1274 1307 1605 1308 
1571 1605 1572 1274 
1274 1307 1604 1605 
1571 1605 1274 1604 
1572 1274 1605 1275 
1605 1274 1308 1275 
1275 1308 1606 1309 
1572 1606 1573 1275 
1275 1308 1605 1606 
1572 1606 1275 1605 
1573 1275 1606 1276 
1606 1275 1309 1276 
1276 1309 1607 1310 
1573 1607 1574 1276 
1276 1309 1606 1607 
1573 1607 1276 1606 
1574 1276 1607 1277 
1607 1276 1310 1277 
1277 1310 1608 1311 
1574 1608 1575 1277 
1277 1310 1607 1608 
1574 1608 1277 1607 
1575 1277 1608 1278 
1608 1277 1311 1278 
1278 1311 1609 1312 
1575 1609 1576 1278 
1278 1311 1608 1609 
1575 1609 1278 1608 
1576 1278 1609 1279 
1609 1278 1312 1279 
1279 1312 1610 1313 
1576 1610 1577 1279 
1279 1312 1609 1610 
1576 1610 1279 1609 
1577 1279 1610 1280 
1610 1279 1313 1280 
1280 1313 1611 1314 
1577 1611 1578 1280 
1280 1313 1610 1611 
1577 1611 1280 1610 
1578 1280 1611 1281 
1611 1280 1314 1281 
1281 1314 1612 1315 
1578 1612 1579 1281 
1281 1314 1611 1612 
1578 1612 1281 1611 
1579 1281 1612 1282 
1612 1281 1315 1282 
1282 1315 1613 1316 
1579 1613 1580 1282 
1282 1315 1612 1613 
1579 1613 1282 1612 
1580 1282 1613 1283 
1613 1282 1316 1283 
1283 1316 1614 1317 
1580 1614 1581 1283 
1283 1316 1613 1614 
1580 1614 1283 1613 
1581 1283 1614 1284 
1614 1283 1317 1284 
1284 1317 1615 1318 
1581 1615 1582 1284 
1284 1317 1614 1615 
1581 1615 1284 1614 
1582 1284 1615 1285 
1615 1284 1318 1285 
1285 1318 1616 1319 
1582 1616 1583 1285 
1285 1318 1615 1616 
1582 1616 1285 1615 
1583 1285 1616 1286 
1616 1285 1319 1286 
1287 1320 1618 1321 
1584 1618 1585 1287 
1287 1320 1617 1618 
1584 1618 1287 1617 
1585 1287 1618 1288 
1618 1287 1321 1288 
1288 1321 1619 1322 
1585 1619 1586 1288 
1288 1321 1618 1619 
1585 1619 1288 1618 
1586 1288 1619 1289 
1619 1288 1322 1289 
1289 1322 1620 1323 
1586 1620 1587 1289 
1289 1322 1619 1620 
1586 1620 1289 1619 
1587 1289 1620 1290 
1620 1289 1323 1290 
1290 1323 1621 1324 
1587 1621 1588 1290 
1290 1323 1620 1621 
1587 1621 1290 1620 
1588 1290 1621 1291 
1621 1290 1324 1291 
1291 1324 1622 1325 
1588 1622 1589 1291 
1291 1324 1621 1622 
1588 1622 1291 1621 
1589 1291 1622 1292 
1622 1291 1325 1292 
1292 1325 1623 1326 
1589 1623 1590 1292 
1292 1325 1622 1623 
1589 1623 1292 1622 
1590 1292 1623 1293 
1623 1292 1326 1293 
1293 1326 1624 1327 
1590 1624 1591 1293 
1293 1326 1623 1624 
1590 1624 1293 1623 
1591 1293 1624 1294 
1624 1293 1327 1294 
1294 1327 1625 1328 
1591 1625 1592 1294 
1294 1327 1624 1625 
1591 1625 1294 1624 
1592 1294 1625 1295 
1625 1294 1328 1295 
1295 1328 1626 1329 
1592 1626 1593 1295 
1295 1328 1625 1626 
1592 1626 1295 1625 
1593 1295 1626 1296 
1626 1295 1329 1296 
1296 1329 1627 1330 
1593 1627 1594 1296 
1296 1329 1626 1627 
1593 1627 1296 1626 
1594 1296 1627 1297 
1627 1296 1330 1297 
1297 1330 1628 1331 
1594 1628 1595 1297 
1297 1330 1627 1628 
1594 1628 1297 1627 
1595 1297 1628 1298 
1628 1297 1331 1298 
1298 1331 1629 1332 
1595 1629 1596 1298 
1298 1331 1628 1629 
1595 1629 1298 1628 
1596 1298 1629 1299 
1629 1298 1332 1299 
1299 1332 1630 1333 
1596 1630 1597 1299 
1299 1332 1629 1630 
1596 1630 1299 1629 
1597 1299 1630 1300 
1630 1299 1333 1300 
1300 1333 1631 1334 
1597 1631 1598 1300 
1300 1333 1630 1631 
1597 1631 1300 1630 
1598 1300 1631 1301 
1631 1300 1334 1301 
1301 1334 1632 1335 
1598 1632 1599 1301 
1301 1334 1631 1632 
1598 1632 1301 1631 
1599 1301 1632 1302 
1632 1301 1335 1302 
1302 1335 1633 1336 
1599 1633 1600 1302 
1302 1335 1632 1633 
1599 1633 1302 1632 
1600 1302 1633 1303 
1633 1302 1336 1303 
1303 1336 1634 1337 
1600 1634 1601 1303 
1303 1336 1633 1634 
1600 1634 1303 1633 
1601 1303 1634 1304 
1634 1303 1337 1304 
1304 1337 1635 1338 
1601 1635 1602 1304 
1304 1337 1634 1635 
1601 1635 1304 1634 
1602 1304 1635 1305 
1635 1304 1338 1305 
1305 1338 1636 1339 
1602 1636 1603 1305 
1305 1338 1635 1636 
1602 1636 1305 1635 
1603 1305 1636 1306 
1636 1305 1339 1306 
1306 1339 1637 1340 
1603 1637 1604 1306 
1306 1339 1636 1637 
1603 1637 1306 1636 
1604 1306 1637 1307 
1637 1306 1340 1307 
1307 1340 1638 1341 
1604 1638 1605 1307 
1307 1340 1637 1638 
1604 1638 1307 1637 
1605 1307 1638 1308 
1638 1307 1341 1308 
1308 1341 1639 1342 
1605 1639 1606 1308 
1308 1341 1638 1639 
1605 1639 1308 1638 
1606 1308 1639 1309 
1639 1308 1342 1309 
1309 1342 1640 1343 
1606 1640 1607 1309 
1309 1342 1639 1640 
1606 1640 1309 1639 
1607 1309 1640 1310 
1640 1309 1343 1310 
1310 1343 1641 1344 
1607 1641 1608 1310 
1310 1343 1640 1641 
1607 1641 1310 1640 
1608 1310 1641 1311 
1641 1310 1344 1311 
1311 1344 1642 1345 
1608 1642 1609 1311 
1311 1344 1641 1642 
1608 1642 1311 1641 
1609 1311 1642 1312 
1642 1311 1345 1312 
1312 1345 1643 1346 
1609 1643 1610 1312 
1312 1345 1642 1643 
1609 1643 1312 1642 
1610 1312 1643 1313 
1643 1312 1346 1313 
1313 1346 1644 1347 
1610 1644 1611 1313 
1313 1346 1643 1644 
1610 1644 1313 1643 
1611 1313 1644 1314 
1644 1313 1347 1314 
1314 1347 1645 1348 
1611 1645 1612 1314 
1314 1347 1644 1645 
1611 1645 1314 1644 
1612 1314 1645 1315 
1645 1314 1348 1315 
1315 1348 1646 1349 
1612 1646 1613 1315 
1315 1348 1645 1646 
1612 1646 1315 1645 
1613 1315 1646 1316 
1646 1315 1349 1316 
1316 1349 1647 1350 
1613 1647 1614 1316 
1316 1349 1646 1647 
1613 1647 1316 1646 
1614 1316 1647 1317 
1647 1316 1350 1317 
1317 1350 1648 1351 
1614 1648 1615 1317 
1317 1350 1647 1648 
1614 1648 1317 1647 
1615 1317 1648 1318 
1648 1317 1351 1318 
1318 1351 1649 1352 
1615 1649 1616 1318 
1318 1351 1648 1649 
1615 1649 1318 1648 
1616 1318 1649 1319 
1649 1318 1352 1319 
1320 1353 1651 1354 
1617 1651 1618 1320 
1320 1353 1650 1651 
1617 1651 1320 1650 
1618 1320 1651 1321 
1651 1320 1354 1321 
1321 1354 1652 1355 
1618 1652 1619 1321 
1321 1354 1651 1652 
1618 1652 1321 1651 
1619 1321 1652 1322 
1652 1321 1355 1322 
1322 1355 1653 1356 
1619 1653 1620 1322 
1322 1355 1652 1653 
1619 1653 1322 1652 
1620 1322 1653 1323 
1653 1322 1356 1323 
1323 1356 1654 1357 
1620 1654 1621 1323 
1323 1356 1653 1654 
1620 1654 1323 1653 
1621 1323 1654 1324 
1654 1323 1357 1324 
1324 1357 1655 1358 
1621 1655 1622 1324 
1324 1357 1654 1655 
1621 1655 1324 1654 
1622 1324 1655 1325 
1655 1324 1358 1325 
1325 1358 1656 1359 
1622 1656 1623 1325 
1325 1358 1655 1656 
1622 1656 1325 1655 
1623 1325 1656 1326 
1656 1325 1359 1326 
1326 1359 1657 1360 
1623 1657 1624 1326 
1326 1359 1656 1657 
1623 1657 1326 1656 
1624 1326 1657 1327 
1657 1326 1360 1327 
1327 1360 1658 1361 
1624 1658 1625 1327 
1327 1360 1657 1658 
1624 1658 1327 1657 
1625 1327 1658 1328 
1658 1327 1361 1328 
1328 1361 1659 1362 
1625 1659 1626 1328 
1328 1361 1658 1659 
1625 1659 1328 1658 
1626 1328 1659 1329 
1659 1328 1362 1329 
1329 1362 1660 1363 
1626 1660 1627 1329 
1329 1362 1659 1660 
1626 1660 1329 1659 
1627 1329 1660 1330 
1660 1329 1363 1330 
1330 1363 1661 1364 
1627 1661 1628 1330 
1330 1363 1660 1661 
1627 1661 1330 1660 
1628 1330 1661 1331 
1661 1330 1364 1331 
1331 1364 1662 1365 
1628 1662 1629 1331 
1331 1364 1661 1662 
1628 1662 1331 1661 
1629 1331 1662 1332 
1662 1331 1365 1332 
1332 1365 1663 1366 
1629 1663 1630 1332 
1332 1365 1662 1663 
1629 1663 1332 1662 
1630 1332 1663 1333 
1663 1332 1366 1333 
1333 1366 1664 1367 
1630 1664 1631 1333 
1333 1366 1663 1664 
1630 1664 1333 1663 
1631 1333 1664 1334 
1664 1333 1367 1334 
1334 1367 1665 1368 
1631 1665 1632 1334 
1334 1367 1664 1665 
1631 1665 1334 1664 
1632 1334 1665 1335 
1665 1334 1368 1335 
1335 1368 1666 1369 
1632 1666 1633 1335 
1335 1368 1665 1666 
1632 1666 1335 1665 
1633 1335 1666 1336 
1666 1335 1369 1336 
1336 1369 1667 1370 
1633 1667 1634 1336 
1336 1369 1666 1667 
1633 1667 1336 1666 
1634 1336 1667 1337 
1667 1336 1370 1337 
1337 1370 1668 1371 
1634 1668 1635 1337 
1337 1370 1667 1668 
1634 1668 1337 1667 
1635 1337 1668 1338 
1668 1337 1371 1338 
1338 1371 1669 1372 
1635 1669 1636 1338 
1338 1371 1668 1669 
1635 1669 1338 1668 
1636 1338 1669 1339 
1669 1338 1372 1339 
1339 1372 1670 1373 
1636 1670 1637 1339 
1339 1372 1669 1670 
1636 1670 1339 1669 
1637 1339 1670 1340 
1670 1339 1373 1340 
1340 1373 1671 1374 
1637 1671 1638 1340 
1340 1373 1670 1671 
1637 1671 1340 1670 
1638 1340 1671 1341 
1671 1340 1374 1341 
1341 1374 1672 1375 
1638 1672 1639 1341 
1341 1374 1671 1672 
1638 1672 1341 1671 
1639 1341 1672 1342 
1672 1341 1375 1342 
1342 1375 1673 1376 
1639 1673 1640 1342 
1342 1375 1672 1673 
1639 1673 1342 1672 
1640 1342 1673 1343 
1673 1342 1376 1343 
1343 1376 1674 1377 
1640 1674 1641 1343 
1343 1376 1673 1674 
1640 1674 1343 1673 
1641 1343 1674 1344 
1674 1343 1377 1344 
1344 1377 1675 1378 
1641 1675 1642 1344 
1344 1377 1674 1675 
1641 1675 1344 1674 
1642 1344 1675 1345 
1675 1344 1378 1345 
1345 1378 1676 1379 
1642 1676 1643 1345 
1345 1378 1675 1676 
1642 1676 1345 1675 
1643 1345 1676 1346 
1676 1345 1379 1346 
1346 1379 1677 1380 
1643 1677 1644 1346 
1346 1379 1676 1677 
1643 1677 1346 1676 
1644 1346 1677 1347 
1677 1346 1380 1347 
1347 1380 1678 1381 
1644 1678 1645 1347 
1347 1380 1677 1678 
1644 1678 1347 1677 
1645 1347 1678 1348 
1678 1347 1381 1348 
1348 1381 1679 1382 
1645 1679 1646 1348 
1348 1381 1678 1679 
1645 1679 1348 1678 
1646 1348 1679 1349 
1679 1348 1382 1349 
1349 1382 1680 1383 
1646 1680 1647 1349 
1349 1382 1679 1680 
1646 1680 1349 1679 
1647 1349 1680 1350 
1680 1349 1383 1350 
1350 1383 1681 1384 
1647 1681 1648 1350 
1350 1383 1680 1681 
1647 1681 1350 1680 
1648 1350 1681 1351 
1681 1350 1384 1351 
1351 1384 1682 1385 
1648 1682 1649 1351 
1351 1384 1681 1682 
1648 1682 1351 1681 
1649 1351 1682 1352 
1682 1351 1385 1352 
1353 1386 1684 1387 
1650 1684 1651 1353 
1353 1386 1683 1684 
1650 1684 1353 1683 
1651 1353 1684 1354 
1684 1353 1387 1354 
1354 1387 1685 1388 
1651 1685 1652 1354 
1354 1387 1684 1685 
1651 1685 1354 1684 
1652 1354 1685 1355 
1685 1354 1388 1355 
1355 1388 1686 1389 
1652 1686 1653 1355 
1355 1388 1685 1686 
1652 1686 1355 1685 
1653 1355 1686 1356 
1686 1355 1389 1356 
1356 1389 1687 1390 
1653 1687 1654 1356 
1356 1389 1686 1687 
1653 1687 1356 1686 
1654 1356 1687 1357 
1687 1356 1390 1357 
1357 1390 1688 1391 
1654 1688 1655 1357 
1357 1390 1687 1688 
1654 1688 1357 1687 
1655 1357 1688 1358 
1688 1357 1391 1358 
1358 1391 1689 1392 
1655 1689 1656 1358 
1358 1391 1688 1689 
1655 1689 1358 1688 
1656 1358 1689 1359 
1689 1358 1392 1359 
1359 1392 1690 1393 
1656 1690 1657 1359 
1359 1392 1689 1690 
1656 1690 1359 1689 
1657 1359 1690 1360 
1690 1359 1393 1360 
1360 1393 1691 1394 
1657 1691 1658 1360 
1360 1393 1690 1691 
1657 1691 1360 1690 
1658 1360 1691 1361 
1691 1360 1394 1361 
1361 1394 1692 1395 
1658 1692 1659 1361 
1361 1394 1691 1692 
1658 1692 1361 1691 
1659 1361 1692 1362 
1692 1361 1395 1362 
1362 1395 1693 1396 
1659 1693 1660 1362 
1362 1395 1692 1693 
1659 1693 1362 1692 
1660 1362 1693 1363 
1693 1362 1396 1363 
1363 1396 1694 1397 
1660 1694 1661 1363 
1363 1396 1693 1694 
1660 1694 1363 1693 
1661 1363 1694 1364 
1694 1363 1397 1364 
1364 1397 1695 1398 
1661 1695 1662 1364 
1364 1397 1694 1695 
1661 1695 1364 1694 
1662 1364 1695 1365 
1695 1364 1398 1365 
1365 1398 1696 1399 
1662 1696 1663 1365 
1365 1398 1695 1696 
1662 1696 1365 1695 
1663 1365 1696 1366 
1696 1365 1399 1366 
1366 1399 1697 1400 
1663 1697 1664 1366 
1366 1399 1696 1697 
1663 1697 1366 1696 
1664 1366 1697 1367 
1697 1366 1400 1367 
1367 1400 1698 1401 
1664 1698 1665 1367 
1367 1400 1697 1698 
1664 1698 1367 1697 
1665 1367 1698 1368 
1698 1367 1401 1368 
1368 1401 1699 1402 
1665 1699 1666 1368 
1368 1401 1698 1699 
1665 1699 1368 1698 
1666 1368 1699 1369 
1699 1368 1402 1369 
1369 1402 1700 1403 
1666 1700 1667 1369 
1369 1402 1699 1700 
1666 1700 1369 1699 
1667 1369 1700 1370 
1700 1369 1403 1370 
1370 1403 1701 1404 
1667 1701 1668 1370 
1370 1403 1700 1701 
1667 1701 1370 1700 
1668 1370 1701 1371 
1701 1370 1404 1371 
1371 1404 1702 1405 
1668 1702 1669 1371 
1371 1404 1701 1702 
1668 1702 1371 1701 
1669 1371 1702 1372 
1702 1371 1405 1372 
1372 1405 1703 1406 
1669 1703 1670 1372 
1372 1405 1702 1703 
1669 1703 1372 1702 
1670 1372 1703 1373 
1703 1372 1406 1373 
1373 1406 1704 1407 
1670 1704 1671 1373 
1373 1406 1703 1704 
1670 1704 1373 1703 
1671 1373 1704 1374 
1704 1373 1407 1374 
1374 1407 1705 1408 
1671 1705 1672 1374 
1374 1407 1704 1705 
1671 1705 1374 1704 
1672 1374 1705 1375 
1705 1374 1408 1375 
1375 1408 1706 1409 
1672 1706 1673 1375 
1375 1408 1705 1706 
1672 1706 1375 1705 
1673 1375 1706 1376 
1706 1375 1409 1376 
1376 1409 1707 1410 
1673 1707 1674 1376 
1376 1409 1706 1707 
1673 1707 1376 1706 
1674 1376 1707 1377 
1707 1376 1410 1377 
1377 1410 1708 1411 
1674 1708 1675 1377 
1377 1410 1707 1708 
1674 1708 1377 1707 
1675 1377 1708 1378 
1708 1377 1411 1378 
1378 1411 1709 1412 
1675 1709 1676 1378 
1378 1411 1708 1709 
1675 1709 1378 1708 
1676 1378 1709 1379 
1709 1378 1412 1379 
1379 1412 1710 1413 
1676 1710 1677 1379 
1379 1412 1709 1710 
1676 1710 1379 1709 
1677 1379 1710 1380 
1710 1379 1413 1380 
1380 1413 1711 1414 
1677 1711 1678 1380 
1380 1413 1710 1711 
1677 1711 1380 1710 
1678 1380 1711 1381 
1711 1380 1414 1381 
1381 1414 1712 1415 
1678 1712 1679 1381 
1381 1414 1711 1712 
1678 1712 1381 1711 
1679 1381 1712 1382 
1712 1381 1415 1382 
1382 1415 1713 1416 
1679 1713 1680 1382 
1382 1415 1712 1713 
1679 1713 1382 1712 
1680 1382 1713 1383 
1713 1382 1416 1383 
1383 1416 1714 1417 
1680 1714 1681 1383 
1383 1416 1713 1714 
1680 1714 1383 1713 
1681 1383 1714 1384 
1714 1383 1417 1384 
1384 1417 1715 1418 
1681 1715 1682 1384 
1384 1417 1714 1715 
1681 1715 1384 1714 
1682 1384 1715 1385 
1715 1384 1418 1385 
1386 1419 1717 1420 
1683 1717 1684 1386 
1386 1419 1716 1717 
1683 1717 1386 1716 
1684 1386 1717 1387 
1717 1386 1420 1387 
1387 1420 1718 1421 
1684 1718 1685 1387 
1387 1420 1717 1718 
1684 1718 1387 1717 
1685 1387 1718 1388 
1718 1387 1421 1388 
1388 1421 1719 1422 
1685 1719 1686 1388 
1388 1421 1718 1719 
1685 1719 1388 1718 
1686 1388 1719 1389 
1719 1388 1422 1389 
1389 1422 1720 1423 
1686 1720 1687 1389 
1389 1422 1719 1720 
1686 1720 1389 1719 
1687 1389 1720 1390 
1720 1389 1423 1390 
1390 1423 1721 1424 
1687 1721 1688 1390 
1390 1423 1720 1721 
1687 1721 1390 1720 
1688 1390 1721 1391 
1721 1390 1424 1391 
1391 1424 1722 1425 
1688 1722 1689 1391 
1391 1424 1721 1722 
1688 1722 1391 1721 
1689 1391 1722 1392 
1722 1391 1425 1392 
1392 1425 1723 1426 
1689 1723 1690 1392 
1392 1425 1722 1723 
1689 1723 1392 1722 
1690 1392 1723 1393 
1723 1392 1426 1393 
1393 1426 1724 1427 
1690 1724 1691 1393 
1393 1426 1723 1724 
1690 1724 1393 1723 
1691 1393 1724 1394 
1724 1393 1427 1394 
1394 1427 1725 1428 
1691 1725 1692 1394 
1394 1427 1724 1725 
1691 1725 1394 1724 
1692 1394 1725 1395 
1725 1394 1428 1395 
1395 1428 1726 1429 
1692 1726 1693 1395 
1395 1428 1725 1726 
1692 1726 1395 1725 
1693 1395 1726 1396 
1726 1395 1429 1396 
1396 1429 1727 1430 
1693 1727 1694 1396 
1396 1429 1726 1727 
1693 1727 1396 1726 
1694 1396 1727 1397 
1727 1396 1430 1397 
1397 1430 1728 1431 
1694 1728 1695 1397 
1397 1430 1727 1728 
1694 1728 1397 1727 
1695 1397 1728 1398 
1728 1397 1431 1398 
1398 1431 1729 1432 
1695 1729 1696 1398 
1398 1431 1728 1729 
1695 1729 1398 1728 
1696 1398 1729 1399 
1729 1398 1432 1399 
1399 1432 1730 1433 
1696 1730 1697 1399 
1399 1432 1729 1730 
1696 1730 1399 1729 
1697 1399 1730 1400 
1730 1399 1433 1400 
1400 1433 1731 1434 
1697 1731 1698 1400 
1400 1433 1730 1731 
1697 1731 1400 1730 
1698 1400 1731 1401 
1731 1400 1434 1401 
1401 1434 1732 1435 
1698 1732 1699 1401 
1401 1434 1731 1732 
1698 1732 1401 1731 
1699 1401 1732 1402 
1732 1401 1435 1402 
1402 1435 1733 1436 
1699 1733 1700 1402 
1402 1435 1732 1733 
1699 1733 1402 1732 
1700 1402 1733 1403 
1733 1402 1436 1403 
1403 1436 1734 1437 
1700 1734 1701 1403 
1403 1436 1733 1734 
1700 1734 1403 1733 
1701 1403 1734 1404 
1734 1403 1437 1404 
1404 1437 1735 1438 
1701 1735 1702 1404 
1404 1437 1734 1735 
1701 1735 1404 1734 
1702 1404 1735 1405 
1735 1404 1438 1405 
1405 1438 1736 1439 
1702 1736 1703 1405 
1405 1438 1735 1736 
1702 1736 1405 1735 
1703 1405 1736 1406 
1736 1405 1439 1406 
1406 1439 1737 1440 
1703 1737 1704 1406 
1406 1439 1736 1737 
1703 1737 1406 1736 
1704 1406 1737 1407 
1737 1406 1440 1407 
1407 1440 1738 1441 
1704 1738 1705 1407 
1407 1440 1737 1738 
1704 1738 1407 1737 
1705 1407 1738 1408 
1738 1407 1441 1408 
1408 1441 1739 1442 
1705 1739 1706 1408 
1408 1441 1738 1739 
1705 1739 1408 1738 
1706 1408 1739 1409 
1739 1408 1442 1409 
1409 1442 1740 1443 
1706 1740 1707 1409 
1409 1442 1739 1740 
1706 1740 1409 1739 
1707 1409 1740 1410 
1740 1409 1443 1410 
1410 1443 1741 1444 
1707 1741 1708 1410 
1410 1443 1740 1741 
1707 1741 1410 1740 
1708 1410 1741 1411 
1741 1410 1444 1411 
1411 1444 1742 1445 
1708 1742 1709 1411 
1411 1444 1741 1742 
1708 1742 1411 1741 
1709 1411 1742 1412 
1742 1411 1445 1412 
1412 1445 1743 1446 
1709 1743 1710 1412 
1412 1445 1742 1743 
1709 1743 1412 1742 
1710 1412 1743 1413 
1743 1412 1446 1413 
1413 1446 1744 1447 
1710 1744 1711 1413 
1413 1446 1743 1744 
1710 1744 1413 1743 
1711 1413 1744 1414 
1744 1413 1447 1414 
1414 1447 1745 1448 
1711 1745 1712 1414 
1414 1447 1744 1745 
1711 1745 1414 1744 
1712 1414 1745 1415 
1745 1414 1448 1415 
1415 1448 1746 1449 
1712 1746 1713 1415 
1415 1448 1745 1746 
1712 1746 1415 1745 
1713 1415 1746 1416 
1746 1415 1449 1416 
1416 1449 1747 1450 
1713 1747 1714 1416 
1416 1449 1746 1747 
1713 1747 1416 1746 
1714 1416 1747 1417 
1747 1416 1450 1417 
1417 1450 1748 1451 
1714 1748 1715 1417 
1417 1450 1747 1748 
1714 1748 1417 1747 
1715 1417 1748 1418 
1748 1417 1451 1418 
1419 1452 1750 1453 
1716 1750 1717 1419 
1419 1452 1749 1750 
1716 1750 1419 1749 
1717 1419 1750 1420 
1750 1419 1453 1420 
1420 1453 1751 1454 
1717 1751 1718 1420 
1420 1453 1750 1751 
1717 1751 1420 1750 
1718 1420 1751 1421 
1751 1420 1454 1421 
1421 1454 1752 1455 
1718 1752 1719 1421 
1421 1454 1751 1752 
1718 1752 1421 1751 
1719 1421 1752 1422 
1752 1421 1455 1422 
1422 1455 1753 1456 
1719 1753 1720 1422 
1422 1455 1752 1753 
1719 1753 1422 1752 
1720 1422 1753 1423 
1753 1422 1456 1423 
1423 1456 1754 1457 
1720 1754 1721 1423 
1423 1456 1753 1754 
1720 1754 1423 1753 
1721 1423 1754 1424 
1754 1423 1457 1424 
1424 1457 1755 1458 
1721 1755 1722 1424 
1424 1457 1754 1755 
1721 1755 1424 1754 
1722 1424 1755 1425 
1755 1424 1458 1425 
1425 1458 1756 1459 
1722 1756 1723 1425 
1425 1458 1755 1756 
1722 1756 1425 1755 
1723 1425 1756 1426 
1756 1425 1459 1426 
1426 1459 1757 1460 
1723 1757 1724 1426 
1426 1459 1756 1757 
1723 1757 1426 1756 
1724 1426 1757 1427 
1757 1426 1460 1427 
1427 1460 1758 1461 
1724 1758 1725 1427 
1427 1460 1757 1758 
1724 1758 1427 1757 
1725 1427 1758 1428 
1758 1427 1461 1428 
1428 1461 1759 1462 
1725 1759 1726 1428 
1428 1461 1758 1759 
1725 1759 1428 1758 
1726 1428 1759 1429 
1759 1428 1462 1429 
1429 1462 1760 1463 
1726 1760 1727 1429 
1429 1462 1759 1760 
1726 1760 1429 1759 
1727 1429 1760 1430 
1760 1429 1463 1430 
1430 1463 1761 1464 
1727 1761 1728 1430 
1430 1463 1760 1761 
1727 1761 1430 1760 
1728 1430 1761 1431 
1761 1430 1464 1431 
1431 1464 1762 1465 
1728 1762 1729 1431 
1431 1464 1761 1762 
1728 1762 1431 1761 
1729 1431 1762 1432 
1762 1431 1465 1432 
1432 1465 1763 1466 
1729 1763 1730 1432 
1432 1465 1762 1763 
1729 1763 1432 1762 
1730 1432 1763 1433 
1763 1432 1466 1433 
1433 1466 1764 1467 
1730 1764 1731 1433 
1433 1466 1763 1764 
1730 1764 1433 1763 
1731 1433 1764 1434 
1764 1433 1467 1434 
1434 1467 1765 1468 
1731 1765 1732 1434 
1434 1467 1764 1765 
1731 1765 1434 1764 
1732 1434 1765 1435 
1765 1434 1468 1435 
1435 1468 1766 1469 
1732 1766 1733 1435 
1435 1468 1765 1766 
1732 1766 1435 1765 
1733 1435 1766 1436 
1766 1435 1469 1436 
1436 1469 1767 1470 
1733 1767 1734 1436 
1436 1469 1766 1767 
1733 1767 1436 1766 
1734 1436 1767 1437 
1767 1436 1470 1437 
1437 1470 1768 1471 
1734 1768 1735 1437 
1437 1470 1767 1768 
1734 1768 1437 1767 
1735 1437 1768 1438 
1768 1437 1471 1438 
1438 1471 1769 1472 
1735 1769 1736 1438 
1438 1471 1768 1769 
1735 1769 1438 1768 
1736 1438 1769 1439 
1769 1438 1472 1439 
1439 1472 1770 1473 
1736 1770 1737 1439 
1439 1472 1769 1770 
1736 1770 1439 1769 
1737 1439 1770 1440 
1770 1439 1473 1440 
1440 1473 1771 1474 
1737 1771 1738 1440 
1440 1473 1770 1771 
1737 1771 1440 1770 
1738 1440 1771 1441 
1771 1440 1474 1441 
1441 1474 1772 1475 
1738 1772 1739 1441 
1441 1474 1771 1772 
1738 1772 1441 1771 
1739 1441 1772 1442 
1772 1441 1475 1442 
1442 1475 1773 1476 
1739 1773 1740 1442 
1442 1475 1772 1773 
1739 1773 1442 1772 
1740 1442 1773 1443 
1773 1442 1476 1443 
1443 1476 1774 1477 
1740 1774 1741 1443 
1443 1476 1773 1774 
1740 1774 1443 1773 
1741 1443 1774 1444 
1774 1443 1477 1444 
1444 1477 1775 1478 
1741 1775 1742 1444 
1444 1477 1774 1775 
1741 1775 1444 1774 
1742 1444 1775 1445 
1775 1444 1478 1445 
1445 1478 1776 1479 
1742 1776 1743 1445 
1445 1478 1775 1776 
1742 1776 1445 1775 
1743 1445 1776 1446 
1776 1445 1479 1446 
1446 1479 1777 1480 
1743 1777 1744 1446 
1446 1479 1776 1777 
1743 1777 1446 1776 
1744 1446 1777 1447 
1777 1446 1480 1447 
1447 1480 1778 1481 
1744 1778 1745 1447 
1447 1480 1777 1778 
1744 1778 1447 1777 
1745 1447 1778 1448 
1778 1447 1481 1448 
1448 1481 1779 1482 
1745 1779 1746 1448 
1448 1481 1778 1779 
1745 1779 1448 1778 
1746 1448 1779 1449 
1779 1448 1482 1449 
1449 1482 1780 1483 
1746 1780 1747 1449 
1449 1482 1779 1780 
1746 1780 1449 1779 
1747 1449 1780 1450 
1780 1449 1483 1450 
1450 1483 1781 1484 
1747 1781 1748 1450 
1450 1483 1780 1781 
1747 1781 1450 1780 
1748 1450 1781 1451 
1781 1450 1484 1451 
1485 1518 1816 1519 
1782 1816 1783 1485 
1485 1518 1815 1816 
1782 1816 1485 1815 
1783 1485 1816 1486 
1816 1485 1519 1486 
1486 1519 1817 1520 
1783 1817 1784 1486 
1486 1519 1816 1817 
1783 1817 1486 1816 
1784 1486 1817 1487 
1817 1486 1520 1487 
1487 1520 1818 1521 
1784 1818 1785 1487 
1487 1520 1817 1818 
1784 1818 1487 1817 
1785 1487 1818 1488 
1818 1487 1521 1488 
1488 1521 1819 1522 
1785 1819 1786 1488 
1488 1521 1818 1819 
1785 1819 1488 1818 
1786 1488 1819 1489 
1819 1488 1522 1489 
1489 1522 1820 1523 
1786 1820 1787 1489 
1489 1522 1819 1820 
1786 1820 1489 1819 
1787 1489 1820 1490 
1820 1489 1523 1490 
1490 1523 1821 1524 
1787 1821 1788 1490 
1490 1523 1820 1821 
1787 1821 1490 1820 
1788 1490 1821 1491 
1821 1490 1524 1491 
1491 1524 1822 1525 
1788 1822 1789 1491 
1491 1524 1821 1822 
1788 1822 1491 1821 
1789 1491 1822 1492 
1822 1491 1525 1492 
1492 1525 1823 1526 
1789 1823 1790 1492 
1492 1525 1822 1823 
1789 1823 1492 1822 
1790 1492 1823 1493 
1823 1492 1526 1493 
1493 1526 1824 1527 
1790 1824 1791 1493 
1493 1526 1823 1824 
1790 1824 1493 1823 
1791 1493 1824 1494 
1824 1493 1527 1494 
1494 1527 1825 1528 
1791 1825 1792 1494 
1494 1527 1824 1825 
1791 1825 1494 1824 
1792 1494 1825 1495 
1825 1494 1528 1495 
1495 1528 1826 1529 
1792 1826 1793 1495 
1495 1528 1825 1826 
1792 1826 1495 1825 
1793 1495 1826 1496 
1826 1495 1529 1496 
1496 1529 1827 1530 
1793 1827 1794 1496 
1496 1529 1826 1827 
1793 1827 1496 1826 
1794 1496 1827 1497 
1827 1496 1530 1497 
1497 1530 1828 1531 
1794 1828 1795 1497 
1497 1530 1827 1828 
1794 1828 1497 1827 
1795 1497 1828 1498 
1828 1497 1531 1498 
1498 1531 1829 1532 
1795 1829 1796 1498 
1498 1531 1828 1829 
1795 1829 1498 1828 
1796 1498 1829 1499 
1829 1498 1532 1499 
1499 1532 1830 1533 
1796 1830 1797 1499 
1499 1532 1829 1830 
1796 1830 1499 1829 
1797 1499 1830 1500 
1830 1499 1533 1500 
1500 1533 1831 1534 
1797 1831 1798 1500 
1500 1533 1830 1831 
1797 1831 1500 1830 
1798 1500 1831 1501 
1831 1500 1534 1501 
1501 1534 1832 1535 
1798 1832 1799 1501 
1501 1534 1831 1832 
1798 1832 1501 1831 
1799 1501 1832 1502 
1832 1501 1535 1502 
1502 1535 1833 1536 
1799 1833 1800 1502 
1502 1535 1832 1833 
1799 1833 1502 1832 
1800 1502 1833 1503 
1833 1502 1536 1503 
1503 1536 1834 1537 
1800 1834 1801 1503 
1503 1536 1833 1834 
1800 1834 1503 1833 
1801 1503 1834 1504 
1834 1503 1537 1504 
1504 1537 1835 1538 
1801 1835 1802 1504 
1504 1537 1834 1835 
1801 1835 1504 1834 
1802 1504 1835 1505 
1835 1504 1538 1505 
1505 1538 1836 1539 
1802 1836 1803 1505 
1505 1538 1835 1836 
1802 1836 1505 1835 
1803 1505 1836 1506 
1836 1505 1539 1506 
1506 1539 1837 1540 
1803 1837 1804 1506 
1506 1539 1836 1837 
1803 1837 1506 1836 
1804 1506 1837 1507 
1837 1506 1540 1507 
1507 1540 1838 1541 
1804 1838 1805 1507 
1507 1540 1837 1838 
1804 1838 1507 1837 
1805 1507 1838 1508 
1838 1507 1541 1508 
1508 1541 1839 1542 
1805 1839 1806 1508 
1508 1541 1838 1839 
1805 1839 1508 1838 
1806 1508 1839 1509 
1839 1508 1542 1509 
1509 1542 1840 1543 
1806 1840 1807 1509 
1509 1542 1839 1840 
1806 1840 1509 1839 
1807 1509 1840 1510 
1840 1509 1543 1510 
1510 1543 1841 1544 
1807 1841 1808 1510 
1510 1543 1840 1841 
1807 1841 1510 1840 
1808 1510 1841 1511 
1841 1510 1544 1511 
1511 1544 1842 1545 
1808 1842 1809 1511 
1511 1544 1841 1842 
1808 1842 1511 1841 
1809 1511 1842 1512 
1842 1511 1545 1512 
1512 1545 1843 1546 
1809 1843 1810 1512 
1512 1545 1842 1843 
1809 1843 1512 1842 
1810 1512 1843 1513 
1843 1512 1546 1513 
1513 1546 1844 1547 
1810 1844 1811 1513 
1513 1546 1843 1844 
1810 1844 1513 1843 
1811 1513 1844 1514 
1844 1513 1547 1514 
1514 1547 1845 1548 
1811 1845 1812 1514 
1514 1547 1844 1845 
1811 1845 1514 1844 
1812 1514 1845 1515 
1845 1514 1548 1515 
1515 1548 1846 1549 
1812 1846 1813 1515 
1515 1548 1845 1846 
1812 1846 1515 1845 
1813 1515 1846 1516 
1846 1515 1549 1516 
1516 1549 1847 1550 
1813 1847 1814 1516 
1516 1549 1846 1847 
1813 1847 1516 1846 
1814 1516 1847 1517 
1847 1516 1550 1517 
1518 1551 1849 1552 
1815 1849 1816 1518 
1518 1551 1848 1849 
1815 1849 1518 1848 
1816 1518 1849 1519 
1849 1518 1552 1519 
1519 1552 1850 1553 
1816 1850 1817 1519 
1519 1552 1849 1850 
1816 1850 1519 1849 
1817 1519 1850 1520 
1850 1519 1553 1520 
1520 1553 1851 1554 
1817 1851 1818 1520 
1520 1553 1850 1851 
1817 1851 1520 1850 
1818 1520 1851 1521 
1851 1520 1554 1521 
1521 1554 1852 1555 
1818 1852 1819 1521 
1521 1554 1851 1852 
1818 1852 1521 1851 
1819 1521 1852 1522 
1852 1521 1555 1522 
1522 1555 1853 1556 
1819 1853 1820 1522 
1522 1555 1852 1853 
1819 1853 1522 1852 
1820 1522 1853 1523 
1853 1522 1556 1523 
1523 1556 1854 1557 
1820 1854 1821 1523 
1523 1556 1853 1854 
1820 1854 1523 1853 
1821 1523 1854 1524 
1854 1523 1557 1524 
1524 1557 1855 1558 
1821 1855 1822 1524 
1524 1557 1854 1855 
1821 1855 1524 1854 
1822 1524 1855 1525 
1855 1524 1558 1525 
1525 1558 1856 1559 
1822 1856 1823 1525 
1525 1558 1855 1856 
1822 1856 1525 1855 
1823 1525 1856 1526 
1856 1525 1559 1526 
1526 1559 1857 1560 
1823 1857 1824 1526 
1526 1559 1856 1857 
1823 1857 1526 1856 
1824 1526 1857 1527 
1857 1526 1560 1527 
1527 1560 1858 1561 
1824 1858 1825 1527 
1527 1560 1857 1858 
1824 1858 1527 1857 
1825 1527 1858 1528 
1858 1527 1561 1528 
1528 1561 1859 1562 
1825 1859 1826 1528 
1528 1561 1858 1859 
1825 1859 1528 1858 
1826 1528 1859 1529 
1859 1528 1562 1529 
1529 1562 1860 1563 
1826 1860 1827 1529 
1529 1562 1859 1860 
1826 1860 1529 1859 
1827 1529 1860 1530 
1860 1529 1563 1530 
1530 1563 1861 1564 
1827 1861 1828 1530 
1530 1563 1860 1861 
1827 1861 1530 1860 
1828 1530 1861 1531 
1861 1530 1564 1531 
1531 1564 1862 1565 
1828 1862 1829 1531 
1531 1564 1861 1862 
1828 1862 1531 1861 
1829 1531 1862 1532 
1862 1531 1565 1532 
1532 1565 1863 1566 
1829 1863 1830 1532 
1532 1565 1862 1863 
1829 1863 1532 1862 
1830 1532 1863 1533 
1863 1532 1566 1533 
1533 1566 1864 1567 
1830 1864 1831 1533 
1533 1566 1863 1864 
1830 1864 1533 1863 
1831 1533 1864 1534 
1864 1533 1567 1534 
1534 1567 1865 1568 
1831 1865 1832 1534 
1534 1567 1864 1865 
1831 1865 1534 1864 
1832 1534 1865 1535 
1865 1534 1568 1535 
1535 1568 1866 1569 
1832 1866 1833 1535 
1535 1568 1865 1866 
1832 1866 1535 1865 
1833 1535 1866 1536 
1866 1535 1569 1536 
1536 1569 1867 1570 
1833 1867 1834 1536 
1536 1569 1866 1867 
1833 1867 1536 1866 
1834 1536 1867 1537 
1867 1536 1570 1537 
1537 1570 1868 1571 
1834 1868 1835 1537 
1537 1570 1867 1868 
1834 1868 1537 1867 
1835 1537 1868 1538 
1868 1537 1571 1538 
1538 1571 1869 1572 
1835 1869 1836 1538 
1538 1571 1868 1869 
1835 1869 1538 1868 
1836 1538 1869 1539 
1869 1538 1572 1539 
1539 1572 1870 1573 
1836 1870 1837 1539 
1539 1572 1869 1870 
1836 1870 1539 1869 
1837 1539 1870 1540 
1870 1539 1573 1540 
1540 1573 1871 1574 
1837 1871 1838 1540 
1540 1573 1870 1871 
1837 1871 1540 1870 
1838 1540 1871 1541 
1871 1540 1574 1541 
1541 1574 1872 1575 
1838 1872 1839 1541 
1541 1574 1871 1872 
1838 1872 1541 1871 
1839 1541 1872 1542 
1872 1541 1575 1542 
1542 1575 1873 1576 
1839 1873 1840 1542 
1542 1575 1872 1873 
1839 1873 1542 1872 
1840 1542 1873 1543 
1873 1542 1576 1543 
1543 1576 1874 1577 
1840 1874 1841 1543 
1543 1576 1873 1874 
1840 1874 1543 1873 
1841 1543 1874 1544 
1874 1543 1577 1544 
1544 1577 1875 1578 
1841 1875 1842 1544 
1544 1577 1874 1875 
1841 1875 1544 1874 
1842 1544 1875 1545 
1875 1544 1578 1545 
1545 1578 1876 1579 
1842 1876 1843 1545 
1545 1578 1875 1876 
1842 1876 1545 1875 
1843 1545 1876 1546 
1876 1545 1579 1546 
1546 1579 1877 1580 
1843 1877 1844 1546 
1546 1579 1876 1877 
1843 1877 1546 1876 
1844 1546 1877 1547 
1877 1546 1580 1547 
1547 1580 1878 1581 
1844 1878 1845 1547 
1547 1580 1877 1878 
1844 1878 1547 1877 
1845 1547 1878 1548 
1878 1547 1581 1548 
1548 1581 1879 1582 
1845 1879 1846 1548 
1548 1581 1878 1879 
1845 1879 1548 1878 
1846 1548 1879 1549 
1879 1548 1582 1549 
1549 1582 1880 1583 
1846 1880 1847 1549 
1549 1582 1879 1880 
1846 1880 1549 1879 
1847 1549 1880 1550 
1880 1549 1583 1550 
1551 1584 1882 1585 
1848 1882 1849 1551 
1551 1584 1881 1882 
1848 1882 1551 1881 
1849 1551 1882 1552 
1882 1551 1585 1552 
1552 1585 1883 1586 
1849 1883 1850 1552 
1552 1585 1882 1883 
1849 1883 1552 1882 
1850 1552 1883 1553 
1883 1552 1586 1553 
1553 1586 1884 1587 
1850 1884 1851 1553 
1553 1586 1883 1884 
1850 1884 1553 1883 
1851 1553 1884 1554 
1884 1553 1587 1554 
1554 1587 1885 1588 
1851 1885 1852 1554 
1554 1587 1884 1885 
1851 1885 1554 1884 
1852 1554 1885 1555 
1885 1554 1588 1555 
1555 1588 1886 1589 
1852 1886 1853 1555 
1555 1588 1885 1886 
1852 1886 1555 1885 
1853 1555 1886 1556 
1886 1555 1589 1556 
1556 1589 1887 1590 
1853 1887 1854 1556 
1556 1589 1886 1887 
1853 1887 1556 1886 
1854 1556 1887 1557 
1887 1556 1590 1557 
1557 1590 1888 1591 
1854 1888 1855 1557 
1557 1590 1887 1888 
1854 1888 1557 1887 
1855 1557 1888 1558 
1888 1557 1591 1558 
1558 1591 1889 1592 
1855 1889 1856 1558 
1558 1591 1888 1889 
1855 1889 1558 1888 
1856 1558 1889 1559 
1889 1558 1592 1559 
1559 1592 1890 1593 
1856 1890 1857 1559 
1559 1592 1889 1890 
1856 1890 1559 1889 
1857 1559 1890 1560 
1890 1559 1593 1560 
1560 1593 1891 1594 
1857 1891 1858 1560 
1560 1593 1890 1891 
1857 1891 1560 1890 
1858 1560 1891 1561 
1891 1560 1594 1561 
1561 1594 1892 1595 
1858 1892 1859 1561 
1561 1594 1891 1892 
1858 1892 1561 1891 
1859 1561 1892 1562 
1892 1561 1595 1562 
1562 1595 1893 1596 
1859 1893 1860 1562 
1562 1595 1892 1893 
1859 1893 1562 1892 
1860 1562 1893 1563 
1893 1562 1596 1563 
1563 1596 1894 1597 
1860 1894 1861 1563 
1563 1596 1893 1894 
1860 1894 1563 1893 
1861 1563 1894 1564 
1894 1563 1597 1564 
1564 1597 1895 1598 
1861 1895 1862 1564 
1564 1597 1894 1895 
1861 1895 1564 1894 
1862 1564 1895 1565 
1895 1564 1598 1565 
1565 1598 1896 1599 
1862 1896 1863 1565 
1565 1598 1895 1896 
1862 1896 1565 1895 
1863 1565 1896 1566 
1896 1565 1599 1566 
1566 1599 1897 1600 
1863 1897 1864 1566 
1566 1599 1896 1897 
1863 1897 1566 1896 
1864 1566 1897 1567 
1897 1566 1600 1567 
1567 1600 1898 1601 
1864 1898 1865 1567 
1567 1600 1897 1898 
1864 1898 1567 1897 
1865 1567 1898 1568 
1898 1567 1601 1568 
1568 1601 1899 1602 
1865 1899 1866 1568 
1568 1601 1898 1899 
1865 1899 1568 1898 
1866 1568 1899 1569 
1899 1568 1602 1569 
1569 1602 1900 1603 
1866 1900 1867 1569 
1569 1602 1899 1900 
1866 1900 1569 1899 
1867 1569 1900 1570 
1900 1569 1603 1570 
1570 1603 1901 1604 
1867 1901 1868 1570 
1570 1603 1900 1901 
1867 1901 1570 1900 
1868 1570 1901 1571 
1901 1570 1604 1571 
1571 1604 1902 1605 
1868 1902 1869 1571 
1571 1604 1901 1902 
1868 1902 1571 1901 
1869 1571 1902 1572 
1902 1571 1605 1572 
1572 1605 1903 1606 
1869 1903 1870 1572 
1572 1605 1902 1903 
1869 1903 1572 1902 
1870 1572 1903 1573 
1903 1572 1606 1573 
1573 1606 1904 1607 
1870 1904 1871 1573 
1573 1606 1903 1904 
1870 1904 1573 1903 
1871 1573 1904 1574 
1904 1573 1607 1574 
1574 1607 1905 1608 
1871 1905 1872 1574 
1574 1607 1904 1905 
1871 1905 1574 1904 
1872 1574 1905 1575 
1905 1574 1608 1575 
1575 1608 1906 1609 
1872 1906 1873 1575 
1575 1608 1905 1906 
1872 1906 1575 1905 
1873 1575 1906 1576 
1906 1575 1609 1576 
1576 1609 1907 1610 
1873 1907 1874 1576 
1576 1609 1906 1907 
1873 1907 1576 1906 
1874 1576 1907 1577 
1907 1576 1610 1577 
1577 1610 1908 1611 
1874 1908 1875 1577 
1577 1610 1907 1908 
1874 1908 1577 1907 
1875 1577 1908 1578 
1908 1577 1611 1578 
1578 1611 1909 1612 
1875 1909 1876 1578 
1578 1611 1908 1909 
1875 1909 1578 1908 
1876 1578 1909 1579 
1909 1578 1612 1579 
1579 1612 1910 1613 
1876 1910 1877 1579 
1579 1612 1909 1910 
1876 1910 1579 1909 
1877 1579 1910 1580 
1910 1579 1613 1580 
1580 1613 1911 1614 
1877 1911 1878 1580 
1580 1613 1910 1911 
1877 1911 1580 1910 
1878 1580 1911 1581 
1911 1580 1614 1581 
1581 1614 1912 1615 
1878 1912 1879 1581 
1581 1614 1911 1912 
1878 1912 1581 1911 
1879 1581 1912 1582 
1912 1581 1615 1582 
1582 1615 1913 1616 
1879 1913 1880 1582 
1582 1615 1912 1913 
1879 1913 1582 1912 
1880 1582 1913 1583 
1913 1582 1616 1583 
1584 1617 1915 1618 
1881 1915 1882 1584 
1584 1617 1914 1915 
1881 1915 1584 1914 
1882 1584 1915 1585 
1915 1584 1618 1585 
1585 1618 1916 1619 
1882 1916 1883 1585 
1585 1618 1915 1916 
1882 1916 1585 1915 
1883 1585 1916 1586 
1916 1585 1619 1586 
1586 1619 1917 1620 
1883 1917 1884 1586 
1586 1619 1916 1917 
1883 1917 1586 1916 
1884 1586 1917 1587 
1917 1586 1620 1587 
1587 1620 1918 1621 
1884 1918 1885 1587 
1587 1620 1917 1918 
1884 1918 1587 1917 
1885 1587 1918 1588 
1918 1587 1621 1588 
1588 1621 1919 1622 
1885 1919 1886 1588 
1588 1621 1918 1919 
1885 1919 1588 1918 
1886 1588 1919 1589 
1919 1588 1622 1589 
1589 1622 1920 1623 
1886 1920 1887 1589 
1589 1622 1919 1920 
1886 1920 1589 1919 
1887 1589 1920 1590 
1920 1589 1623 1590 
1590 1623 1921 1624 
1887 1921 1888 1590 
1590 1623 1920 1921 
1887 1921 1590 1920 
1888 1590 1921 1591 
1921 1590 1624 1591 
1591 1624 1922 1625 
1888 1922 1889 1591 
1591 1624 1921 1922 
1888 1922 1591 1921 
1889 1591 1922 1592 
1922 1591 1625 1592 
1592 1625 1923 1626 
1889 1923 1890 1592 
1592 1625 1922 1923 
1889 1923 1592 1922 
1890 1592 1923 1593 
1923 1592 1626 1593 
1593 1626 1924 1627 
1890 1924 1891 1593 
1593 1626 1923 1924 
1890 1924 1593 1923 
1891 1593 1924 1594 
1924 1593 1627 1594 
1594 1627 1925 1628 
1891 1925 1892 1594 
1594 1627 1924 1925 
1891 1925 1594 1924 
1892 1594 1925 1595 
1925 1594 1628 1595 
1595 1628 1926 1629 
1892 1926 1893 1595 
1595 1628 1925 1926 
1892 1926 1595 1925 
1893 1595 1926 1596 
1926 1595 1629 1596 
1596 1629 1927 1630 
1893 1927 1894 1596 
1596 1629 1926 1927 
1893 1927 1596 1926 
1894 1596 1927 1597 
1927 1596 1630 1597 
1597 1630 1928 1631 
1894 1928 1895 1597 
1597 1630 1927 1928 
1894 1928 1597 1927 
1895 1597 1928 1598 
1928 1597 1631 1598 
1598 1631 1929 1632 
1895 1929 1896 1598 
1598 1631 1928 1929 
1895 1929 1598 1928 
1896 1598 1929 1599 
1929 1598 1632 1599 
1599 1632 1930 1633 
1896 1930 1897 1599 
1599 1632 1929 1930 
1896 1930 1599 1929 
1897 1599 1930 1600 
1930 1599 1633 1600 
1600 1633 1931 1634 
1897 1931 1898 1600 
1600 1633 1930 1931 
1897 1931 1600 1930 
1898 1600 1931 1601 
1931 1600 1634 1601 
1601 1634 1932 1635 
1898 1932 1899 1601 
1601 1634 1931 1932 
1898 1932 1601 1931 
1899 1601 1932 1602 
1932 1601 1635 1602 
1602 1635 1933 1636 
1899 1933 1900 1602 
1602 1635 1932 1933 
1899 1933 1602 1932 
1900 1602 1933 1603 
1933 1602 1636 1603 
1603 1636 1934 1637 
1900 1934 1901 1603 
1603 1636 1933 1934 
1900 1934 1603 1933 
1901 1603 1934 1604 
1934 1603 1637 1604 
1604 1637 1935 1638 
1901 1935 1902 1604 
1604 1637 1934 1935 
1901 1935 1604 1934 
1902 1604 1935 1605 
1935 1604 1638 1605 
1605 1638 1936 1639 
1902 1936 1903 1605 
1605 1638 1935 1936 
1902 1936 1605 1935 
1903 1605 1936 1606 
1936 1605 1639 1606 
1606 1639 1937 1640 
1903 1937 1904 1606 
1606 1639 1936 1937 
1903 1937 1606 1936 
1904 1606 1937 1607 
1937 1606 1640 1607 
1607 1640 1938 1641 
1904 1938 1905 1607 
1607 1640 1937 1938 
1904 1938 1607 1937 
1905 1607 1938 1608 
1938 1607 1641 1608 
1608 1641 1939 1642 
1905 1939 1906 1608 
1608 1641 1938 1939 
1905 1939 1608 1938 
1906 1608 1939 1609 
1939 1608 1642 1609 
1609 1642 1940 1643 
1906 1940 1907 1609 
1609 1642 1939 1940 
1906 1940 1609 1939 
1907 1609 1940 1610 
1940 1609 1643 1610 
1610 1643 1941 1644 
1907 1941 1908 1610 
1610 1643 1940 1941 
1907 1941 1610 1940 
1908 1610 1941 1611 
1941 1610 1644 1611 
1611 1644 1942 1645 
1908 1942 1909 1611 
1611 1644 1941 1942 
1908 1942 1611 1941 
1909 1611 1942 1612 
1942 1611 1645 1612 
1612 1645 1943 1646 
1909 1943 1910 1612 
1612 1645 1942 1943 
1909 1943 1612 1942 
1910 1612 1943 1613 
1943 1612 1646 1613 
1613 1646 1944 1647 
1910 1944 1911 1613 
1613 1646 1943 1944 
1910 1944 1613 1943 
1911 1613 1944 1614 
1944 1613 1647 1614 
1614 1647 1945 1648 
1911 1945 1912 1614 
1614 1647 1944 1945 
1911 1945 1614 1944 
1912 1614 1945 1615 
1945 1614 1648 1615 
1615 1648 1946 1649 
1912 1946 1913 1615 
1615 1648 1945 1946 
1912 1946 1615 1945 
1913 1615 1946 1616 
1946 1615 1649 1616 
1617 1650 1948 1651 
1914 1948 1915 1617 
1617 1650 1947 1948 
1914 1948 1617 1947 
1915 1617 1948 1618 
1948 1617 1651 1618 
1618 1651 1949 1652 
1915 1949 1916 1618 
1618 1651 1948 1949 
1915 1949 1618 1948 
1916 1618 1949 1619 
1949 1618 1652 1619 
1619 1652 1950 1653 
1916 1950 1917 1619 
1619 1652 1949 1950 
1916 1950 1619 1949 
1917 1619 1950 1620 
1950 1619 1653 1620 
1620 1653 1951 1654 
1917 1951 1918 1620 
1620 1653 1950 1951 
1917 1951 1620 1950 
1918 1620 1951 1621 
1951 1620 1654 1621 
1621 1654 1952 1655 
1918 1952 1919 1621 
1621 1654 1951 1952 
1918 1952 1621 1951 
1919 1621 1952 1622 
1952 1621 1655 1622 
1622 1655 1953 1656 
1919 1953 1920 1622 
1622 1655 1952 1953 
1919 1953 1622 1952 
1920 1622 1953 1623 
1953 1622 1656 1623 
1623 1656 1954 1657 
1920 1954 1921 1623 
1623 1656 1953 1954 
1920 1954 1623 1953 
1921 1623 1954 1624 
1954 1623 1657 1624 
1624 1657 1955 1658 
1921 1955 1922 1624 
1624 1657 1954 1955 
1921 1955 1624 1954 
1922 1624 1955 1625 
1955 1624 1658 1625 
1625 1658 1956 1659 
1922 1956 1923 1625 
1625 1658 1955 1956 
1922 1956 1625 1955 
1923 1625 1956 1626 
1956 1625 1659 1626 
1626 1659 1957 1660 
1923 1957 1924 1626 
1626 1659 1956 1957 
1923 1957 1626 1956 
1924 1626 1957 1627 
1957 1626 1660 1627 
1627 1660 1958 1661 
1924 1958 1925 1627 
1627 1660 1957 1958 
1924 1958 1627 1957 
1925 1627 1958 1628 
1958 1627 1661 1628 
1628 1661 1959 1662 
1925 1959 1926 1628 
1628 1661 1958 1959 
1925 1959 1628 1958 
1926 1628 1959 1629 
1959 1628 1662 1629 
1629 1662 1960 1663 
1926 1960 1927 1629 
1629 1662 1959 1960 
1926 1960 1629 1959 
1927 1629 1960 1630 
1960 1629 1663 1630 
1630 1663 1961 1664 
1927 1961 1928 1630 
1630 1663 1960 1961 
1927 1961 1630 1960 
1928 1630 1961 1631 
1961 1630 1664 1631 
1631 1664 1962 1665 
1928 1962 1929 1631 
1631 1664 1961 1962 
1928 1962 1631 1961 
1929 1631 1962 1632 
1962 1631 1665 1632 
1632 1665 1963 1666 
1929 1963 1930 1632 
1632 1665 1962 1963 
1929 1963 1632 1962 
1930 1632 1963 1633 
1963 1632 1666 1633 
1633 1666 1964 1667 
1930 1964 1931 1633 
1633 1666 1963 1964 
1930 1964 1633 1963 
1931 1633 1964 1634 
1964 1633 1667 1634 
1634 1667 1965 1668 
1931 1965 1932 1634 
1634 1667 1964 1965 
1931 1965 1634 1964 
1932 1634 1965 1635 
1965 1634 1668 1635 
1635 1668 1966 1669 
1932 1966 1933 1635 
1635 1668 1965 1966 
1932 1966 1635 1965 
1933 1635 1966 1636 
1966 1635 1669 1636 
1636 1669 1967 1670 
1933 1967 1934 1636 
1636 1669 1966 1967 
1933 1967 1636 1966 
1934 1636 1967 1637 
1967 1636 1670 1637 
1637 1670 1968 1671 
1934 1968 1935 1637 
1637 1670 1967 1968 
1934 1968 1637 1967 
1935 1637 1968 1638 
1968 1637 1671 1638 
1638 1671 1969 1672 
1935 1969 1936 1638 
1638 1671 1968 1969 
1935 1969 1638 1968 
1936 1638 1969 1639 
1969 1638 1672 1639 
1639 1672 1970 1673 
1936 1970 1937 1639 
1639 1672 1969 1970 
1936 1970 1639 1969 
1937 1639 1970 1640 
1970 1639 1673 1640 
1640 1673 1971 1674 
1937 1971 1938 1640 
1640 1673 1970 1971 
1937 1971 1640 1970 
1938 1640 1971 1641 
1971 1640 1674 1641 
1641 1674 1972 1675 
1938 1972 1939 1641 
1641 1674 1971 1972 
1938 1972 1641 1971 
1939 1641 1972 1642 
1972 1641 1675 1642 
1642 1675 1973 1676 
1939 1973 1940 1642 
1642 1675 1972 1973 
1939 1973 1642 1972 
1940 1642 1973 1643 
1973 1642 1676 1643 
1643 1676 1974 1677 
1940 1974 1941 1643 
1643 1676 1973 1974 
1940 1974 1643 1973 
1941 1643 1974 1644 
1974 1643 1677 1644 
1644 1677 1975 1678 
1941 1975 1942 1644 
1644 1677 1974 1975 
1941 1975 1644 1974 
1942 1644 1975 1645 
1975 1644 1678 1645 
1645 1678 1976 1679 
1942 1976 1943 1645 
1645 1678 1975 1976 
1942 1976 1645 1975 
1943 1645 1976 1646 
1976 1645 1679 1646 
1646 1679 1977 1680 
1943 1977 1944 1646 
1646 1679 1976 1977 
1943 1977 1646 1976 
1944 1646 1977 1647 
1977 1646 1680 1647 
1647 1680 1978 1681 
1944 1978 1945 1647 
1647 1680 1977 1978 
1944 1978 1647 1977 
1945 1647 1978 1648 
1978 1647 1681 1648 
1648 1681 1979 1682 
1945 1979 1946 1648 
1648 1681 1978 1979 
1945 1979 1648 1978 
1946 1648 1979 1649 
1979 1648 1682 1649 
1650 1683 1981 1684 
1947 1981 1948 1650 
1650 1683 1980 1981 
1947 1981 1650 1980 
1948 1650 1981 1651 
1981 1650 1684 1651 
1651 1684 1982 1685 
1948 1982 1949 1651 
1651 1684 1981 1982 
1948 1982 1651 1981 
1949 1651 1982 1652 
1982 1651 1685 1652 
1652 1685 1983 1686 
1949 1983 1950 1652 
1652 1685 1982 1983 
1949 1983 1652 1982 
1950 1652 1983 1653 
1983 1652 1686 1653 
1653 1686 1984 1687 
1950 1984 1951 1653 
1653 1686 1983 1984 
1950 1984 1653 1983 
1951 1653 1984 1654 
1984 1653 1687 1654 
1654 1687 1985 1688 
1951 1985 1952 1654 
1654 1687 1984 1985 
1951 1985 1654 1984 
1952 1654 1985 1655 
1985 1654 1688 1655 
1655 1688 1986 1689 
1952 1986 1953 1655 
1655 1688 1985 1986 
1952 1986 1655 1985 
1953 1655 1986 1656 
1986 1655 1689 1656 
1656 1689 1987 1690 
1953 1987 1954 1656 
1656 1689 1986 1987 
1953 1987 1656 1986 
1954 1656 1987 1657 
1987 1656 1690 1657 
1657 1690 1988 1691 
1954 1988 1955 1657 
1657 1690 1987 1988 
1954 1988 1657 1987 
1955 1657 1988 1658 
1988 1657 1691 1658 
1658 1691 1989 1692 
1955 1989 1956 1658 
1658 1691 1988 1989 
1955 1989 1658 1988 
1956 1658 1989 1659 
1989 1658 1692 1659 
1659 1692 1990 1693 
1956 1990 1957 1659 
1659 1692 1989 1990 
1956 1990 1659 1989 
1957 1659 1990 1660 
1990 1659 1693 1660 
1660 1693 1991 1694 
1957 1991 1958 1660 
1660 1693 1990 1991 
1957 1991 1660 1990 
1958 1660 1991 1661 
1991 1660 1694 1661 
1661 1694 1992 1695 
1958 1992 1959 1661 
1661 1694 1991 1992 
1958 1992 1661 1991 
1959 1661 1992 1662 
1992 1661 1695 1662 
1662 1695 1993 1696 
1959 1993 1960 1662 
1662 1695 1992 1993 
1959 1993 1662 1992 
1960 1662 1993 1663 
1993 1662 1696 1663 
1663 1696 1994 1697 
1960 1994 1961 1663 
1663 1696 1993 1994 
1960 1994 1663 1993 
1961 1663 1994 1664 
1994 1663 1697 1664 
1664 1697 1995 1698 
1961 1995 1962 1664 
1664 1697 1994 1995 
1961 1995 1664 1994 
1962 1664 1995 1665 
1995 1664 1698 1665 
1665 1698 1996 1699 
1962 1996 1963 1665 
1665 1698 1995 1996 
1962 1996 1665 1995 
1963 1665 1996 1666 
1996 1665 1699 1666 
1666 1699 1997 1700 
1963 1997 1964 1666 
1666 1699 1996 1997 
1963 1997 1666 1996 
1964 1666 1997 1667 
1997 1666 1700 1667 
1667 1700 1998 1701 
1964 1998 1965 1667 
1667 1700 1997 1998 
1964 1998 1667 1997 
1965 1667 1998 1668 
1998 1667 1701 1668 
1668 1701 1999 1702 
1965 1999 1966 1668 
1668 1701 1998 1999 
1965 1999 1668 1998 
1966 1668 1999 1669 
1999 1668 1702 1669 
1669 1702 2000 1703 
1966 2000 1967 1669 
1669 1702 1999 2000 
1966 2000 1669 1999 
1967 1669 2000 1670 
2000 1669 1703 1670 
1670 1703 2001 1704 
1967 2001 1968 1670 
1670 1703 2000 2001 
1967 2001 1670 2000 
1968 1670 2001 1671 
2001 1670 1704 1671 
1671 1704 2002 1705 
1968 2002 1969 1671 
1671 1704 2001 2002 
1968 2002 1671 2001 
1969 1671 2002 1672 
2002 1671 1705 1672 
1672 1705 2003 1706 
1969 2003 1970 1672 
1672 1705 2002 2003 
1969 2003 1672 2002 
1970 1672 2003 1673 
2003 1672 1706 1673 
1673 1706 2004 1707 
1970 2004 1971 1673 
1673 1706 2003 2004 
1970 2004 1673 2003 
1971 1673 2004 1674 
2004 1673 1707 1674 
1674 1707 2005 1708 
1971 2005 1972 1674 
1674 1707 2004 2005 
1971 2005 1674 2004 
1972 1674 2005 1675 
2005 1674 1708 1675 
1675 1708 2006 1709 
1972 2006 1973 1675 
1675 1708 2005 2006 
1972 2006 1675 2005 
1973 1675 2006 1676 
2006 1675 1709 1676 
1676 1709 2007 1710 
1973 2007 1974 1676 
1676 1709 2006 2007 
1973 2007 1676 2006 
1974 1676 2007 1677 
2007 1676 1710 1677 
1677 1710 2008 1711 
1974 2008 1975 1677 
1677 1710 2007 2008 
1974 2008 1677 2007 
1975 1677 2008 1678 
2008 1677 1711 1678 
1678 1711 2009 1712 
1975 2009 1976 1678 
1678 1711 2008 2009 
1975 2009 1678 2008 
1976 1678 2009 1679 
2009 1678 1712 1679 
1679 1712 2010 1713 
1976 2010 1977 1679 
1679 1712 2009 2010 
1976 2010 1679 2009 
1977 1679 2010 1680 
2010 1679 1713 1680 
1680 1713 2011 1714 
1977 2011 1978 1680 
1680 1713 2010 2011 
1977 2011 1680 2010 
1978 1680 2011 1681 
2011 1680 1714 1681 
1681 1714 2012 1715 
1978 2012 1979 1681 
1681 1714 2011 2012 
1978 2012 1681 2011 
1979 1681 2012 1682 
2012 1681 1715 1682 
1683 1716 2014 1717 
1980 2014 1981 1683 
1683 1716 2013 2014 
1980 2014 1683 2013 
1981 1683 2014 1684 
2014 1683 1717 1684 
1684 1717 2015 1718 
1981 2015 1982 1684 
1684 1717 2014 2015 
1981 2015 1684 2014 
1982 1684 2015 1685 
2015 1684 1718 1685 
1685 1718 2016 1719 
1982 2016 1983 1685 
1685 1718 2015 2016 
1982 2016 1685 2015 
1983 1685 2016 1686 
2016 1685 1719 1686 
1686 1719 2017 1720 
1983 2017 1984 1686 
1686 1719 2016 2017 
1983 2017 1686 2016 
1984 1686 2017 1687 
2017 1686 1720 1687 
1687 1720 2018 1721 
1984 2018 1985 1687 
1687 1720 2017 2018 
1984 2018 1687 2017 
1985 1687 2018 1688 
2018 1687 1721 1688 
1688 1721 2019 1722 
1985 2019 1986 1688 
1688 1721 2018 2019 
1985 2019 1688 2018 
1986 1688 2019 1689 
2019 1688 1722 1689 
1689 1722 2020 1723 
1986 2020 1987 1689 
1689 1722 2019 2020 
1986 2020 1689 2019 
1987 1689 2020 1690 
2020 1689 1723 1690 
1690 1723 2021 1724 
1987 2021 1988 1690 
1690 1723 2020 2021 
1987 2021 1690 2020 
1988 1690 2021 1691 
2021 1690 1724 1691 
1691 1724 2022 1725 
1988 2022 1989 1691 
1691 1724 2021 2022 
1988 2022 1691 2021 
1989 1691 2022 1692 
2022 1691 1725 1692 
1692 1725 2023 1726 
1989 2023 1990 1692 
1692 1725 2022 2023 
1989 2023 1692 2022 
1990 1692 2023 1693 
2023 1692 1726 1693 
1693 1726 2024 1727 
1990 2024 1991 1693 
1693 1726 2023 2024 
1990 2024 1693 2023 
1991 1693 2024 1694 
2024 1693 1727 1694 
1694 1727 2025 1728 
1991 2025 1992 1694 
1694 1727 2024 2025 
1991 2025 1694 2024 
1992 1694 2025 1695 
2025 1694 1728 1695 
1695 1728 2026 1729 
1992 2026 1993 1695 
1695 1728 2025 2026 
1992 2026 1695 2025 
1993 1695 2026 1696 
2026 1695 1729 1696 
1696 1729 2027 1730 
1993 2027 1994 1696 
1696 1729 2026 2027 
1993 2027 1696 2026 
1994 1696 2027 1697 
2027 1696 1730 1697 
1697 1730 2028 1731 
1994 2028 1995 1697 
1697 1730 2027 2028 
1994 2028 1697 2027 
1995 1697 2028 1698 
2028 1697 1731 1698 
1698 1731 2029 1732 
1995 2029 1996 1698 
1698 1731 2028 2029 
1995 2029 1698 2028 
1996 1698 2029 1699 
2029 1698 1732 1699 
1699 1732 2030 1733 
1996 2030 1997 1699 
1699 1732 2029 2030 
1996 2030 1699 2029 
1997 1699 2030 1700 
2030 1699 1733 1700 
1700 1733 2031 1734 
1997 2031 1998 1700 
1700 1733 2030 2031 
1997 2031 1700 2030 
1998 1700 2031 1701 
2031 1700 1734 1701 
1701 1734 2032 1735 
1998 2032 1999 1701 
1701 1734 2031 2032 
1998 2032 1701 2031 
1999 1701 2032 1702 
2032 1701 1735 1702 
1702 1735 2033 1736 
1999 2033 2000 1702 
1702 1735 2032 2033 
1999 2033 1702 2032 
2000 1702 2033 1703 
2033 1702 1736 1703 
1703 1736 2034 1737 
2000 2034 2001 1703 
1703 1736 2033 2034 
2000 2034 1703 2033 
2001 1703 2034 1704 
2034 1703 1737 1704 
1704 1737 2035 1738 
2001 2035 2002 1704 
1704 1737 2034 2035 
2001 2035 1704 2034 
2002 1704 2035 1705 
2035 1704 1738 1705 
1705 1738 2036 1739 
2002 2036 2003 1705 
1705 1738 2035 2036 
2002 2036 1705 2035 
2003 1705 2036 1706 
2036 1705 1739 1706 
1706 1739 2037 1740 
2003 2037 2004 1706 
1706 1739 2036 2037 
2003 2037 1706 2036 
2004 1706 2037 1707 
2037 1706 1740 1707 
1707 1740 2038 1741 
2004 2038 2005 1707 
1707 1740 2037 2038 
2004 2038 1707 2037 
2005 1707 2038 1708 
2038 1707 1741 1708 
1708 1741 2039 1742 
2005 2039 2006 1708 
1708 1741 2038 2039 
2005 2039 1708 2038 
2006 1708 2039 1709 
2039 1708 1742 1709 
1709 1742 2040 1743 
2006 2040 2007 1709 
1709 1742 2039 2040 
2006 2040 1709 2039 
2007 1709 2040 1710 
2040 1709 1743 1710 
1710 1743 2041 1744 
2007 2041 2008 1710 
1710 1743 2040 2041 
2007 2041 1710 2040 
2008 1710 2041 1711 
2041 1710 1744 1711 
1711 1744 2042 1745 
2008 2042 2009 1711 
1711 1744 2041 2042 
2008 2042 1711 2041 
2009 1711 2042 1712 
2042 1711 1745 1712 
1712 1745 2043 1746 
2009 2043 2010 1712 
1712 1745 2042 2043 
2009 2043 1712 2042 
2010 1712 2043 1713 
2043 1712 1746 1713 
1713 1746 2044 1747 
2010 2044 2011 1713 
1713 1746 2043 2044 
2010 2044 1713 2043 
2011 1713 2044 1714 
2044 1713 1747 1714 
1714 1747 2045 1748 
2011 2045 2012 1714 
1714 1747 2044 2045 
2011 2045 1714 2044 
2012 1714 2045 1715 
2045 1714 1748 1715 
1716 1749 2047 1750 
2013 2047 2014 1716 
1716 1749 2046 2047 
2013 2047 1716 2046 
2014 1716 2047 1717 
2047 1716 1750 1717 
1717 1750 2048 1751 
2014 2048 2015 1717 
1717 1750 2047 2048 
2014 2048 1717 2047 
2015 1717 2048 1718 
2048 1717 1751 1718 
1718 1751 2049 1752 
2015 2049 2016 1718 
1718 1751 2048 2049 
2015 2049 1718 2048 
2016 1718 2049 1719 
2049 1718 1752 1719 
1719 1752 2050 1753 
2016 2050 2017 1719 
1719 1752 2049 2050 
2016 2050 1719 2049 
2017 1719 2050 1720 
2050 1719 1753 1720 
1720 1753 2051 1754 
2017 2051 2018 1720 
1720 1753 2050 2051 
2017 2051 1720 2050 
2018 1720 2051 1721 
2051 1720 1754 1721 
1721 1754 2052 1755 
2018 2052 2019 1721 
1721 1754 2051 2052 
2018 2052 1721 2051 
2019 1721 2052 1722 
2052 1721 1755 1722 
1722 1755 2053 1756 
2019 2053 2020 1722 
1722 1755 2052 2053 
2019 2053 1722 2052 
2020 1722 2053 1723 
2053 1722 1756 1723 
1723 1756 2054 1757 
2020 2054 2021 1723 
1723 1756 2053 2054 
2020 2054 1723 2053 
2021 1723 2054 1724 
2054 1723 1757 1724 
1724 1757 2055 1758 
2021 2055 2022 1724 
1724 1757 2054 2055 
2021 2055 1724 2054 
2022 1724 2055 1725 
2055 1724 1758 1725 
1725 1758 2056 1759 
2022 2056 2023 1725 
1725 1758 2055 2056 
2022 2056 1725 2055 
2023 1725 2056 1726 
2056 1725 1759 1726 
1726 1759 2057 1760 
2023 2057 2024 1726 
1726 1759 2056 2057 
2023 2057 1726 2056 
2024 1726 2057 1727 
2057 1726 1760 1727 
1727 1760 2058 1761 
2024 2058 2025 1727 
1727 1760 2057 2058 
2024 2058 1727 2057 
2025 1727 2058 1728 
2058 1727 1761 1728 
1728 1761 2059 1762 
2025 2059 2026 1728 
1728 1761 2058 2059 
2025 2059 1728 2058 
2026 1728 2059 1729 
2059 1728 1762 1729 
1729 1762 2060 1763 
2026 2060 2027 1729 
1729 1762 2059 2060 
2026 2060 1729 2059 
2027 1729 2060 1730 
2060 1729 1763 1730 
1730 1763 2061 1764 
2027 2061 2028 1730 
1730 1763 2060 2061 
2027 2061 1730 2060 
2028 1730 2061 1731 
2061 1730 1764 1731 
1731 1764 2062 1765 
2028 2062 2029 1731 
1731 1764 2061 2062 
2028 2062 1731 2061 
2029 1731 2062 1732 
2062 1731 1765 1732 
1732 1765 2063 1766 
2029 2063 2030 1732 
1732 1765 2062 2063 
2029 2063 1732 2062 
2030 1732 2063 1733 
2063 1732 1766 1733 
1733 1766 2064 1767 
2030 2064 2031 1733 
1733 1766 2063 2064 
2030 2064 1733 2063 
2031 1733 2064 1734 
2064 1733 1767 1734 
1734 1767 2065 1768 
2031 2065 2032 1734 
1734 1767 2064 2065 
2031 2065 1734 2064 
2032 1734 2065 1735 
2065 1734 1768 1735 
1735 1768 2066 1769 
2032 2066 2033 1735 
1735 1768 2065 2066 
2032 2066 1735 2065 
2033 1735 2066 1736 
2066 1735 1769 1736 
1736 1769 2067 1770 
2033 2067 2034 1736 
1736 1769 2066 2067 
2033 2067 1736 2066 
2034 1736 2067 1737 
2067 1736 1770 1737 
1737 1770 2068 1771 
2034 2068 2035 1737 
1737 1770 2067 2068 
2034 2068 1737 2067 
2035 1737 2068 1738 
2068 1737 1771 1738 
1738 1771 2069 1772 
2035 2069 2036 1738 
1738 1771 2068 2069 
2035 2069 1738 2068 
2036 1738 2069 1739 
2069 1738 1772 1739 
1739 1772 2070 1773 
2036 2070 2037 1739 
1739 1772 2069 2070 
2036 2070 1739 2069 
2037 1739 2070 1740 
2070 1739 1773 1740 
1740 1773 2071 1774 
2037 2071 2038 1740 
1740 1773 2070 2071 
2037 2071 1740 2070 
2038 1740 2071 1741 
2071 1740 1774 1741 
1741 1774 2072 1775 
2038 2072 2039 1741 
1741 1774 2071 2072 
2038 2072 1741 2071 
2039 1741 2072 1742 
2072 1741 1775 1742 
1742 1775 2073 1776 
2039 2073 2040 1742 
1742 1775 2072 2073 
2039 2073 1742 2072 
2040 1742 2073 1743 
2073 1742 1776 1743 
1743 1776 2074 1777 
2040 2074 2041 1743 
1743 1776 2073 2074 
2040 2074 1743 2073 
2041 1743 2074 1744 
2074 1743 1777 1744 
1744 1777 2075 1778 
2041 2075 2042 1744 
1744 1777 2074 2075 
2041 2075 1744 2074 
2042 1744 2075 1745 
2075 1744 1778 1745 
1745 1778 2076 1779 
2042 2076 2043 1745 
1745 1778 2075 2076 
2042 2076 1745 2075 
2043 1745 2076 1746 
2076 1745 1779 1746 
1746 1779 2077 1780 
2043 2077 2044 1746 
1746 1779 2076 2077 
2043 2077 1746 2076 
2044 1746 2077 1747 
2077 1746 1780 1747 
1747 1780 2078 1781 
2044 2078 2045 1747 
1747 1780 2077 2078 
2044 2078 1747 2077 
2045 1747 2078 1748 
2078 1747 1781 1748 
1782 1815 2113 1816 
2079 2113 2080 1782 
1782 1815 2112 2113 
2079 2113 1782 2112 
2080 1782 2113 1783 
2113 1782 1816 1783 
1783 1816 2114 1817 
2080 2114 2081 1783 
1783 1816 2113 2114 
2080 2114 1783 2113 
2081 1783 2114 1784 
2114 1783 1817 1784 
1784 1817 2115 1818 
2081 2115 2082 1784 
1784 1817 2114 2115 
2081 2115 1784 2114 
2082 1784 2115 1785 
2115 1784 1818 1785 
1785 1818 2116 1819 
2082 2116 2083 1785 
1785 1818 2115 2116 
2082 2116 1785 2115 
2083 1785 2116 1786 
2116 1785 1819 1786 
1786 1819 2117 1820 
2083 2117 2084 1786 
1786 1819 2116 2117 
2083 2117 1786 2116 
2084 1786 2117 1787 
2117 1786 1820 1787 
1787 1820 2118 1821 
2084 2118 2085 1787 
1787 1820 2117 2118 
2084 2118 1787 2117 
2085 1787 2118 1788 
2118 1787 1821 1788 
1788 1821 2119 1822 
2085 2119 2086 1788 
1788 1821 2118 2119 
2085 2119 1788 2118 
2086 1788 2119 1789 
2119 1788 1822 1789 
1789 1822 2120 1823 
2086 2120 2087 1789 
1789 1822 2119 2120 
2086 2120 1789 2119 
2087 1789 2120 1790 
2120 1789 1823 1790 
1790 1823 2121 1824 
2087 2121 2088 1790 
1790 1823 2120 2121 
2087 2121 1790 2120 
2088 1790 2121 1791 
2121 1790 1824 1791 
1791 1824 2122 1825 
2088 2122 2089 1791 
1791 1824 2121 2122 
2088 2122 1791 2121 
2089 1791 2122 1792 
2122 1791 1825 1792 
1792 1825 2123 1826 
2089 2123 2090 1792 
1792 1825 2122 2123 
2089 2123 1792 2122 
2090 1792 2123 1793 
2123 1792 1826 1793 
1793 1826 2124 1827 
2090 2124 2091 1793 
1793 1826 2123 2124 
2090 2124 1793 2123 
2091 1793 2124 1794 
2124 1793 1827 1794 
1794 1827 2125 1828 
2091 2125 2092 1794 
1794 1827 2124 2125 
2091 2125 1794 2124 
2092 1794 2125 1795 
2125 1794 1828 1795 
1795 1828 2126 1829 
2092 2126 2093 1795 
1795 1828 2125 2126 
2092 2126 1795 2125 
2093 1795 2126 1796 
2126 1795 1829 1796 
1796 1829 2127 1830 
2093 2127 2094 1796 
1796 1829 2126 2127 
2093 2127 1796 2126 
2094 1796 2127 1797 
2127 1796 1830 1797 
1797 1830 2128 1831 
2094 2128 2095 1797 
1797 1830 2127 2128 
2094 2128 1797 2127 
2095 1797 2128 1798 
2128 1797 1831 1798 
1798 1831 2129 1832 
2095 2129 2096 1798 
1798 1831 2128 2129 
2095 2129 1798 2128 
2096 1798 2129 1799 
2129 1798 1832 1799 
1799 1832 2130 1833 
2096 2130 2097 1799 
1799 1832 2129 2130 
2096 2130 1799 2129 
2097 1799 2130 1800 
2130 1799 1833 1800 
1800 1833 2131 1834 
2097 2131 2098 1800 
1800 1833 2130 2131 
2097 2131 1800 2130 
2098 1800 2131 1801 
2131 1800 1834 1801 
1801 1834 2132 1835 
2098 2132 2099 1801 
1801 1834 2131 2132 
2098 2132 1801 2131 
2099 1801 2132 1802 
2132 1801 1835 1802 
1802 1835 2133 1836 
2099 2133 2100 1802 
1802 1835 2132 2133 
2099 2133 1802 2132 
2100 1802 2133 1803 
2133 1802 1836 1803 
1803 1836 2134 1837 
2100 2134 2101 1803 
1803 1836 2133 2134 
2100 2134 1803 2133 
2101 1803 2134 1804 
2134 1803 1837 1804 
1804 1837 2135 1838 
2101 2135 2102 1804 
1804 1837 2134 2135 
2101 2135 1804 2134 
2102 1804 2135 1805 
2135 1804 1838 1805 
1805 1838 2136 1839 
2102 2136 2103 1805 
1805 1838 2135 2136 
2102 2136 1805 2135 
2103 1805 2136 1806 
2136 1805 1839 1806 
1806 1839 2137 1840 
2103 2137 2104 1806 
1806 1839 2136 2137 
2103 2137 1806 2136 
2104 1806 2137 1807 
2137 1806 1840 1807 
1807 1840 2138 1841 
2104 2138 2105 1807 
1807 1840 2137 2138 
2104 2138 1807 2137 
2105 1807 2138 1808 
2138 1807 1841 1808 
1808 1841 2139 1842 
2105 2139 2106 1808 
1808 1841 2138 2139 
2105 2139 1808 2138 
2106 1808 2139 1809 
2139 1808 1842 1809 
1809 1842 2140 1843 
2106 2140 2107 1809 
1809 1842 2139 2140 
2106 2140 1809 2139 
2107 1809 2140 1810 
2140 1809 1843 1810 
1810 1843 2141 1844 
2107 2141 2108 1810 
1810 1843 2140 2141 
2107 2141 1810 2140 
2108 1810 2141 1811 
2141 1810 1844 1811 
1811 1844 2142 1845 
2108 2142 2109 1811 
1811 1844 2141 2142 
2108 2142 1811 2141 
2109 1811 2142 1812 
2142 1811 1845 1812 
1812 1845 2143 1846 
2109 2143 2110 1812 
1812 1845 2142 2143 
2109 2143 1812 2142 
2110 1812 2143 1813 
2143 1812 1846 1813 
1813 1846 2144 1847 
2110 2144 2111 1813 
1813 1846 2143 2144 
2110 2144 1813 2143 
2111 1813 2144 1814 
2144 1813 1847 1814 
1815 1848 2146 1849 
2112 2146 2113 1815 
1815 1848 2145 2146 
2112 2146 1815 2145 
2113 1815 2146 1816 
2146 1815 1849 1816 
1816 1849 2147 1850 
2113 2147 2114 1816 
1816 1849 2146 2147 
2113 2147 1816 2146 
2114 1816 2147 1817 
2147 1816 1850 1817 
1817 1850 2148 1851 
2114 2148 2115 1817 
1817 1850 2147 2148 
2114 2148 1817 2147 
2115 1817 2148 1818 
2148 1817 1851 1818 
1818 1851 2149 1852 
2115 2149 2116 1818 
1818 1851 2148 2149 
2115 2149 1818 2148 
2116 1818 2149 1819 
2149 1818 1852 1819 
1819 1852 2150 1853 
2116 2150 2117 1819 
1819 1852 2149 2150 
2116 2150 1819 2149 
2117 1819 2150 1820 
2150 1819 1853 1820 
1820 1853 2151 1854 
2117 2151 2118 1820 
1820 1853 2150 2151 
2117 2151 1820 2150 
2118 1820 2151 1821 
2151 1820 1854 1821 
1821 1854 2152 1855 
2118 2152 2119 1821 
1821 1854 2151 2152 
2118 2152 1821 2151 
2119 1821 2152 1822 
2152 1821 1855 1822 
1822 1855 2153 1856 
2119 2153 2120 1822 
1822 1855 2152 2153 
2119 2153 1822 2152 
2120 1822 2153 1823 
2153 1822 1856 1823 
1823 1856 2154 1857 
2120 2154 2121 1823 
1823 1856 2153 2154 
2120 2154 1823 2153 
2121 1823 2154 1824 
2154 1823 1857 1824 
1824 1857 2155 1858 
2121 2155 2122 1824 
1824 1857 2154 2155 
2121 2155 1824 2154 
2122 1824 2155 1825 
2155 1824 1858 1825 
1825 1858 2156 1859 
2122 2156 2123 1825 
1825 1858 2155 2156 
2122 2156 1825 2155 
2123 1825 2156 1826 
2156 1825 1859 1826 
1826 1859 2157 1860 
2123 2157 2124 1826 
1826 1859 2156 2157 
2123 2157 1826 2156 
2124 1826 2157 1827 
2157 1826 1860 1827 
1827 1860 2158 1861 
2124 2158 2125 1827 
1827 1860 2157 2158 
2124 2158 1827 2157 
2125 1827 2158 1828 
2158 1827 1861 1828 
1828 1861 2159 1862 
2125 2159 2126 1828 
1828 1861 2158 2159 
2125 2159 1828 2158 
2126 1828 2159 1829 
2159 1828 1862 1829 
1829 1862 2160 1863 
2126 2160 2127 1829 
1829 1862 2159 2160 
2126 2160 1829 2159 
2127 1829 2160 1830 
2160 1829 1863 1830 
1830 1863 2161 1864 
2127 2161 2128 1830 
1830 1863 2160 2161 
2127 2161 1830 2160 
2128 1830 2161 1831 
2161 1830 1864 1831 
1831 1864 2162 1865 
2128 2162 2129 1831 
1831 1864 2161 2162 
2128 2162 1831 2161 
2129 1831 2162 1832 
2162 1831 1865 1832 
1832 1865 2163 1866 
2129 2163 2130 1832 
1832 1865 2162 2163 
2129 2163 1832 2162 
2130 1832 2163 1833 
2163 1832 1866 1833 
1833 1866 2164 1867 
2130 2164 2131 1833 
1833 1866 2163 2164 
2130 2164 1833 2163 
2131 1833 2164 1834 
2164 1833 1867 1834 
1834 1867 2165 1868 
2131 2165 2132 1834 
1834 1867 2164 2165 
2131 2165 1834 2164 
2132 1834 2165 1835 
2165 1834 1868 1835 
1835 1868 2166 1869 
2132 2166 2133 1835 
1835 1868 2165 2166 
2132 2166 1835 2165 
2133 1835 2166 1836 
2166 1835 1869 1836 
1836 1869 2167 1870 
2133 2167 2134 1836 
1836 1869 2166 2167 
2133 2167 1836 2166 
2134 1836 2167 1837 
2167 1836 1870 1837 
1837 1870 2168 1871 
2134 2168 2135 1837 
1837 1870 2167 2168 
2134 2168 1837 2167 
2135 1837 2168 1838 
2168 1837 1871 1838 
1838 1871 2169 1872 
2135 2169 2136 1838 
1838 1871 2168 2169 
2135 2169 1838 2168 
2136 1838 2169 1839 
2169 1838 1872 1839 
1839 1872 2170 1873 
2136 2170 2137 1839 
1839 1872 2169 2170 
2136 2170 1839 2169 
2137 1839 2170 1840 
2170 1839 1873 1840 
1840 1873 2171 1874 
2137 2171 2138 1840 
1840 1873 2170 2171 
2137 2171 1840 2170 
2138 1840 2171 1841 
2171 1840 1874 1841 
1841 1874 2172 1875 
2138 2172 2139 1841 
1841 1874 2171 2172 
2138 2172 1841 2171 
2139 1841 2172 1842 
2172 1841 1875 1842 
1842 1875 2173 1876 
2139 2173 2140 1842 
1842 1875 2172 2173 
2139 2173 1842 2172 
2140 1842 2173 1843 
2173 1842 1876 1843 
1843 1876 2174 1877 
2140 2174 2141 1843 
1843 1876 2173 2174 
2140 2174 1843 2173 
2141 1843 2174 1844 
2174 1843 1877 1844 
1844 1877 2175 1878 
2141 2175 2142 1844 
1844 1877 2174 2175 
2141 2175 1844 2174 
2142 1844 2175 1845 
2175 1844 1878 1845 
1845 1878 2176 1879 
2142 2176 2143 1845 
1845 1878 2175 2176 
2142 2176 1845 2175 
2143 1845 2176 1846 
2176 1845 1879 1846 
1846 1879 2177 1880 
2143 2177 2144 1846 
1846 1879 2176 2177 
2143 2177 1846 2176 
2144 1846 2177 1847 
2177 1846 1880 1847 
1848 1881 2179 1882 
2145 2179 2146 1848 
1848 1881 2178 2179 
2145 2179 1848 2178 
2146 1848 2179 1849 
2179 1848 1882 1849 
1849 1882 2180 1883 
2146 2180 2147 1849 
1849 1882 2179 2180 
2146 2180 1849 2179 
2147 1849 2180 1850 
2180 1849 1883 1850 
1850 1883 2181 1884 
2147 2181 2148 1850 
1850 1883 2180 2181 
2147 2181 1850 2180 
2148 1850 2181 1851 
2181 1850 1884 1851 
1851 1884 2182 1885 
2148 2182 2149 1851 
1851 1884 2181 2182 
2148 2182 1851 2181 
2149 1851 2182 1852 
2182 1851 1885 1852 
1852 1885 2183 1886 
2149 2183 2150 1852 
1852 1885 2182 2183 
2149 2183 1852 2182 
2150 1852 2183 1853 
2183 1852 1886 1853 
1853 1886 2184 1887 
2150 2184 2151 1853 
1853 1886 2183 2184 
2150 2184 1853 2183 
2151 1853 2184 1854 
2184 1853 1887 1854 
1854 1887 2185 1888 
2151 2185 2152 1854 
1854 1887 2184 2185 
2151 2185 1854 2184 
2152 1854 2185 1855 
2185 1854 1888 1855 
1855 1888 2186 1889 
2152 2186 2153 1855 
1855 1888 2185 2186 
2152 2186 1855 2185 
2153 1855 2186 1856 
2186 1855 1889 1856 
1856 1889 2187 1890 
2153 2187 2154 1856 
1856 1889 2186 2187 
2153 2187 1856 2186 
2154 1856 2187 1857 
2187 1856 1890 1857 
1857 1890 2188 1891 
2154 2188 2155 1857 
1857 1890 2187 2188 
2154 2188 1857 2187 
2155 1857 2188 1858 
2188 1857 1891 1858 
1858 1891 2189 1892 
2155 2189 2156 1858 
1858 1891 2188 2189 
2155 2189 1858 2188 
2156 1858 2189 1859 
2189 1858 1892 1859 
1859 1892 2190 1893 
2156 2190 2157 1859 
1859 1892 2189 2190 
2156 2190 1859 2189 
2157 1859 2190 1860 
2190 1859 1893 1860 
1860 1893 2191 1894 
2157 2191 2158 1860 
1860 1893 2190 2191 
2157 2191 1860 2190 
2158 1860 2191 1861 
2191 1860 1894 1861 
1861 1894 2192 1895 
2158 2192 2159 1861 
1861 1894 2191 2192 
2158 2192 1861 2191 
2159 1861 2192 1862 
2192 1861 1895 1862 
1862 1895 2193 1896 
2159 2193 2160 1862 
1862 1895 2192 2193 
2159 2193 1862 2192 
2160 1862 2193 1863 
2193 1862 1896 1863 
1863 1896 2194 1897 
2160 2194 2161 1863 
1863 1896 2193 2194 
2160 2194 1863 2193 
2161 1863 2194 1864 
2194 1863 1897 1864 
1864 1897 2195 1898 
2161 2195 2162 1864 
1864 1897 2194 2195 
2161 2195 1864 2194 
2162 1864 2195 1865 
2195 1864 1898 1865 
1865 1898 2196 1899 
2162 2196 2163 1865 
1865 1898 2195 2196 
2162 2196 1865 2195 
2163 1865 2196 1866 
2196 1865 1899 1866 
1866 1899 2197 1900 
2163 2197 2164 1866 
1866 1899 2196 2197 
2163 2197 1866 2196 
2164 1866 2197 1867 
2197 1866 1900 1867 
1867 1900 2198 1901 
2164 2198 2165 1867 
1867 1900 2197 2198 
2164 2198 1867 2197 
2165 1867 2198 1868 
2198 1867 1901 1868 
1868 1901 2199 1902 
2165 2199 2166 1868 
1868 1901 2198 2199 
2165 2199 1868 2198 
2166 1868 2199 1869 
2199 1868 1902 1869 
1869 1902 2200 1903 
2166 2200 2167 1869 
1869 1902 2199 2200 
2166 2200 1869 2199 
2167 1869 2200 1870 
2200 1869 1903 1870 
1870 1903 2201 1904 
2167 2201 2168 1870 
1870 1903 2200 2201 
2167 2201 1870 2200 
2168 1870 2201 1871 
2201 1870 1904 1871 
1871 1904 2202 1905 
2168 2202 2169 1871 
1871 1904 2201 2202 
2168 2202 1871 2201 
2169 1871 2202 1872 
2202 1871 1905 1872 
1872 1905 2203 1906 
2169 2203 2170 1872 
1872 1905 2202 2203 
2169 2203 1872 2202 
2170 1872 2203 1873 
2203 1872 1906 1873 
1873 1906 2204 1907 
2170 2204 2171 1873 
1873 1906 2203 2204 
2170 2204 1873 2203 
2171 1873 2204 1874 
2204 1873 1907 1874 
1874 1907 2205 1908 
2171 2205 2172 1874 
1874 1907 2204 2205 
2171 2205 1874 2204 
2172 1874 2205 1875 
2205 1874 1908 1875 
1875 1908 2206 1909 
2172 2206 2173 1875 
1875 1908 2205 2206 
2172 2206 1875 2205 
2173 1875 2206 1876 
2206 1875 1909 1876 
1876 1909 2207 1910 
2173 2207 2174 1876 
1876 1909 2206 2207 
2173 2207 1876 2206 
2174 1876 2207 1877 
2207 1876 1910 1877 
1877 1910 2208 1911 
2174 2208 2175 1877 
1877 1910 2207 2208 
2174 2208 1877 2207 
2175 1877 2208 1878 
2208 1877 1911 1878 
1878 1911 2209 1912 
2175 2209 2176 1878 
1878 1911 2208 2209 
2175 2209 1878 2208 
2176 1878 2209 1879 
2209 1878 1912 1879 
1879 1912 2210 1913 
2176 2210 2177 1879 
1879 1912 2209 2210 
2176 2210 1879 2209 
2177 1879 2210 1880 
2210 1879 1913 1880 
1881 1914 2212 1915 
2178 2212 2179 1881 
1881 1914 2211 2212 
2178 2212 1881 2211 
2179 1881 2212 1882 
2212 1881 1915 1882 
1882 1915 2213 1916 
2179 2213 2180 1882 
1882 1915 2212 2213 
2179 2213 1882 2212 
2180 1882 2213 1883 
2213 1882 1916 1883 
1883 1916 2214 1917 
2180 2214 2181 1883 
1883 1916 2213 2214 
2180 2214 1883 2213 
2181 1883 2214 1884 
2214 1883 1917 1884 
1884 1917 2215 1918 
2181 2215 2182 1884 
1884 1917 2214 2215 
2181 2215 1884 2214 
2182 1884 2215 1885 
2215 1884 1918 1885 
1885 1918 2216 1919 
2182 2216 2183 1885 
1885 1918 2215 2216 
2182 2216 1885 2215 
2183 1885 2216 1886 
2216 1885 1919 1886 
1886 1919 2217 1920 
2183 2217 2184 1886 
1886 1919 2216 2217 
2183 2217 1886 2216 
2184 1886 2217 1887 
2217 1886 1920 1887 
1887 1920 2218 1921 
2184 2218 2185 1887 
1887 1920 2217 2218 
2184 2218 1887 2217 
2185 1887 2218 1888 
2218 1887 1921 1888 
1888 1921 2219 1922 
2185 2219 2186 1888 
1888 1921 2218 2219 
2185 2219 1888 2218 
2186 1888 2219 1889 
2219 1888 1922 1889 
1889 1922 2220 1923 
2186 2220 2187 1889 
1889 1922 2219 2220 
2186 2220 1889 2219 
2187 1889 2220 1890 
2220 1889 1923 1890 
1890 1923 2221 1924 
2187 2221 2188 1890 
1890 1923 2220 2221 
2187 2221 1890 2220 
2188 1890 2221 1891 
2221 1890 1924 1891 
1891 1924 2222 1925 
2188 2222 2189 1891 
1891 1924 2221 2222 
2188 2222 1891 2221 
2189 1891 2222 1892 
2222 1891 1925 1892 
1892 1925 2223 1926 
2189 2223 2190 1892 
1892 1925 2222 2223 
2189 2223 1892 2222 
2190 1892 2223 1893 
2223 1892 1926 1893 
1893 1926 2224 1927 
2190 2224 2191 1893 
1893 1926 2223 2224 
2190 2224 1893 2223 
2191 1893 2224 1894 
2224 1893 1927 1894 
1894 1927 2225 1928 
2191 2225 2192 1894 
1894 1927 2224 2225 
2191 2225 1894 2224 
2192 1894 2225 1895 
2225 1894 1928 1895 
1895 1928 2226 1929 
2192 2226 2193 1895 
1895 1928 2225 2226 
2192 2226 1895 2225 
2193 1895 2226 1896 
2226 1895 1929 1896 
1896 1929 2227 1930 
2193 2227 2194 1896 
1896 1929 2226 2227 
2193 2227 1896 2226 
2194 1896 2227 1897 
2227 1896 1930 1897 
1897 1930 2228 1931 
2194 2228 2195 1897 
1897 1930 2227 2228 
2194 2228 1897 2227 
2195 1897 2228 1898 
2228 1897 1931 1898 
1898 1931 2229 1932 
2195 2229 2196 1898 
1898 1931 2228 2229 
2195 2229 1898 2228 
2196 1898 2229 1899 
2229 1898 1932 1899 
1899 1932 2230 1933 
2196 2230 2197 1899 
1899 1932 2229 2230 
2196 2230 1899 2229 
2197 1899 2230 1900 
2230 1899 1933 1900 
1900 1933 2231 1934 
2197 2231 2198 1900 
1900 1933 2230 2231 
2197 2231 1900 2230 
2198 1900 2231 1901 
2231 1900 1934 1901 
1901 1934 2232 1935 
2198 2232 2199 1901 
1901 1934 2231 2232 
2198 2232 1901 2231 
2199 1901 2232 1902 
2232 1901 1935 1902 
1902 1935 2233 1936 
2199 2233 2200 1902 
1902 1935 2232 2233 
2199 2233 1902 2232 
2200 1902 2233 1903 
2233 1902 1936 1903 
1903 1936 2234 1937 
2200 2234 2201 1903 
1903 1936 2233 2234 
2200 2234 1903 2233 
2201 1903 2234 1904 
2234 1903 1937 1904 
1904 1937 2235 1938 
2201 2235 2202 1904 
1904 1937 2234 2235 
2201 2235 1904 2234 
2202 1904 2235 1905 
2235 1904 1938 1905 
1905 1938 2236 1939 
2202 2236 2203 1905 
1905 1938 2235 2236 
2202 2236 1905 2235 
2203 1905 2236 1906 
2236 1905 1939 1906 
1906 1939 2237 1940 
2203 2237 2204 1906 
1906 1939 2236 2237 
2203 2237 1906 2236 
2204 1906 2237 1907 
2237 1906 1940 1907 
1907 1940 2238 1941 
2204 2238 2205 1907 
1907 1940 2237 2238 
2204 2238 1907 2237 
2205 1907 2238 1908 
2238 1907 1941 1908 
1908 1941 2239 1942 
2205 2239 2206 1908 
1908 1941 2238 2239 
2205 2239 1908 2238 
2206 1908 2239 1909 
2239 1908 1942 1909 
1909 1942 2240 1943 
2206 2240 2207 1909 
1909 1942 2239 2240 
2206 2240 1909 2239 
2207 1909 2240 1910 
2240 1909 1943 1910 
1910 1943 2241 1944 
2207 2241 2208 1910 
1910 1943 2240 2241 
2207 2241 1910 2240 
2208 1910 2241 1911 
2241 1910 1944 1911 
1911 1944 2242 1945 
2208 2242 2209 1911 
1911 1944 2241 2242 
2208 2242 1911 2241 
2209 1911 2242 1912 
2242 1911 1945 1912 
1912 1945 2243 1946 
2209 2243 2210 1912 
1912 1945 2242 2243 
2209 2243 1912 2242 
2210 1912 2243 1913 
2243 1912 1946 1913 
1914 1947 2245 1948 
2211 2245 2212 1914 
1914 1947 2244 2245 
2211 2245 1914 2244 
2212 1914 2245 1915 
2245 1914 1948 1915 
1915 1948 2246 1949 
2212 2246 2213 1915 
1915 1948 2245 2246 
2212 2246 1915 2245 
2213 1915 2246 1916 
2246 1915 1949 1916 
1916 1949 2247 1950 
2213 2247 2214 1916 
1916 1949 2246 2247 
2213 2247 1916 2246 
2214 1916 2247 1917 
2247 1916 1950 1917 
1917 1950 2248 1951 
2214 2248 2215 1917 
1917 1950 2247 2248 
2214 2248 1917 2247 
2215 1917 2248 1918 
2248 1917 1951 1918 
1918 1951 2249 1952 
2215 2249 2216 1918 
1918 1951 2248 2249 
2215 2249 1918 2248 
2216 1918 2249 1919 
2249 1918 1952 1919 
1919 1952 2250 1953 
2216 2250 2217 1919 
1919 1952 2249 2250 
2216 2250 1919 2249 
2217 1919 2250 1920 
2250 1919 1953 1920 
1920 1953 2251 1954 
2217 2251 2218 1920 
1920 1953 2250 2251 
2217 2251 1920 2250 
2218 1920 2251 1921 
2251 1920 1954 1921 
1921 1954 2252 1955 
2218 2252 2219 1921 
1921 1954 2251 2252 
2218 2252 1921 2251 
2219 1921 2252 1922 
2252 1921 1955 1922 
1922 1955 2253 1956 
2219 2253 2220 1922 
1922 1955 2252 2253 
2219 2253 1922 2252 
2220 1922 2253 1923 
2253 1922 1956 1923 
1923 1956 2254 1957 
2220 2254 2221 1923 
1923 1956 2253 2254 
2220 2254 1923 2253 
2221 1923 2254 1924 
2254 1923 1957 1924 
1924 1957 2255 1958 
2221 2255 2222 1924 
1924 1957 2254 2255 
2221 2255 1924 2254 
2222 1924 2255 1925 
2255 1924 1958 1925 
1925 1958 2256 1959 
2222 2256 2223 1925 
1925 1958 2255 2256 
2222 2256 1925 2255 
2223 1925 2256 1926 
2256 1925 1959 1926 
1926 1959 2257 1960 
2223 2257 2224 1926 
1926 1959 2256 2257 
2223 2257 1926 2256 
2224 1926 2257 1927 
2257 1926 1960 1927 
1927 1960 2258 1961 
2224 2258 2225 1927 
1927 1960 2257 2258 
2224 2258 1927 2257 
2225 1927 2258 1928 
2258 1927 1961 1928 
1928 1961 2259 1962 
2225 2259 2226 1928 
1928 1961 2258 2259 
2225 2259 1928 2258 
2226 1928 2259 1929 
2259 1928 1962 1929 
1929 1962 2260 1963 
2226 2260 2227 1929 
1929 1962 2259 2260 
2226 2260 1929 2259 
2227 1929 2260 1930 
2260 1929 1963 1930 
1930 1963 2261 1964 
2227 2261 2228 1930 
1930 1963 2260 2261 
2227 2261 1930 2260 
2228 1930 2261 1931 
2261 1930 1964 1931 
1931 1964 2262 1965 
2228 2262 2229 1931 
1931 1964 2261 2262 
2228 2262 1931 2261 
2229 1931 2262 1932 
2262 1931 1965 1932 
1932 1965 2263 1966 
2229 2263 2230 1932 
1932 1965 2262 2263 
2229 2263 1932 2262 
2230 1932 2263 1933 
2263 1932 1966 1933 
1933 1966 2264 1967 
2230 2264 2231 1933 
1933 1966 2263 2264 
2230 2264 1933 2263 
2231 1933 2264 1934 
2264 1933 1967 1934 
1934 1967 2265 1968 
2231 2265 2232 1934 
1934 1967 2264 2265 
2231 2265 1934 2264 
2232 1934 2265 1935 
2265 1934 1968 1935 
1935 1968 2266 1969 
2232 2266 2233 1935 
1935 1968 2265 2266 
2232 2266 1935 2265 
2233 1935 2266 1936 
2266 1935 1969 1936 
1936 1969 2267 1970 
2233 2267 2234 1936 
1936 1969 2266 2267 
2233 2267 1936 2266 
2234 1936 2267 1937 
2267 1936 1970 1937 
1937 1970 2268 1971 
2234 2268 2235 1937 
1937 1970 2267 2268 
2234 2268 1937 2267 
2235 1937 2268 1938 
2268 1937 1971 1938 
1938 1971 2269 1972 
2235 2269 2236 1938 
1938 1971 2268 2269 
2235 2269 1938 2268 
2236 1938 2269 1939 
2269 1938 1972 1939 
1939 1972 2270 1973 
2236 2270 2237 1939 
1939 1972 2269 2270 
2236 2270 1939 2269 
2237 1939 2270 1940 
2270 1939 1973 1940 
1940 1973 2271 1974 
2237 2271 2238 1940 
1940 1973 2270 2271 
2237 2271 1940 2270 
2238 1940 2271 1941 
2271 1940 1974 1941 
1941 1974 2272 1975 
2238 2272 2239 1941 
1941 1974 2271 2272 
2238 2272 1941 2271 
2239 1941 2272 1942 
2272 1941 1975 1942 
1942 1975 2273 1976 
2239 2273 2240 1942 
1942 1975 2272 2273 
2239 2273 1942 2272 
2240 1942 2273 1943 
2273 1942 1976 1943 
1943 1976 2274 1977 
2240 2274 2241 1943 
1943 1976 2273 2274 
2240 2274 1943 2273 
2241 1943 2274 1944 
2274 1943 1977 1944 
1944 1977 2275 1978 
2241 2275 2242 1944 
1944 1977 2274 2275 
2241 2275 1944 2274 
2242 1944 2275 1945 
2275 1944 1978 1945 
1945 1978 2276 1979 
2242 2276 2243 1945 
1945 1978 2275 2276 
2242 2276 1945 2275 
2243 1945 2276 1946 
2276 1945 1979 1946 
1947 1980 2278 1981 
2244 2278 2245 1947 
1947 1980 2277 2278 
2244 2278 1947 2277 
2245 1947 2278 1948 
2278 1947 1981 1948 
1948 1981 2279 1982 
2245 2279 2246 1948 
1948 1981 2278 2279 
2245 2279 1948 2278 
2246 1948 2279 1949 
2279 1948 1982 1949 
1949 1982 2280 1983 
2246 2280 2247 1949 
1949 1982 2279 2280 
2246 2280 1949 2279 
2247 1949 2280 1950 
2280 1949 1983 1950 
1950 1983 2281 1984 
2247 2281 2248 1950 
1950 1983 2280 2281 
2247 2281 1950 2280 
2248 1950 2281 1951 
2281 1950 1984 1951 
1951 1984 2282 1985 
2248 2282 2249 1951 
1951 1984 2281 2282 
2248 2282 1951 2281 
2249 1951 2282 1952 
2282 1951 1985 1952 
1952 1985 2283 1986 
2249 2283 2250 1952 
1952 1985 2282 2283 
2249 2283 1952 2282 
2250 1952 2283 1953 
2283 1952 1986 1953 
1953 1986 2284 1987 
2250 2284 2251 1953 
1953 1986 2283 2284 
2250 2284 1953 2283 
2251 1953 2284 1954 
2284 1953 1987 1954 
1954 1987 2285 1988 
2251 2285 2252 1954 
1954 1987 2284 2285 
2251 2285 1954 2284 
2252 1954 2285 1955 
2285 1954 1988 1955 
1955 1988 2286 1989 
2252 2286 2253 1955 
1955 1988 2285 2286 
2252 2286 1955 2285 
2253 1955 2286 1956 
2286 1955 1989 1956 
1956 1989 2287 1990 
2253 2287 2254 1956 
1956 1989 2286 2287 
2253 2287 1956 2286 
2254 1956 2287 1957 
2287 1956 1990 1957 
1957 1990 2288 1991 
2254 2288 2255 1957 
1957 1990 2287 2288 
2254 2288 1957 2287 
2255 1957 2288 1958 
2288 1957 1991 1958 
1958 1991 2289 1992 
2255 2289 2256 1958 
1958 1991 2288 2289 
2255 2289 1958 2288 
2256 1958 2289 1959 
2289 1958 1992 1959 
1959 1992 2290 1993 
2256 2290 2257 1959 
1959 1992 2289 2290 
2256 2290 1959 2289 
2257 1959 2290 1960 
2290 1959 1993 1960 
1960 1993 2291 1994 
2257 2291 2258 1960 
1960 1993 2290 2291 
2257 2291 1960 2290 
2258 1960 2291 1961 
2291 1960 1994 1961 
1961 1994 2292 1995 
2258 2292 2259 1961 
1961 1994 2291 2292 
2258 2292 1961 2291 
2259 1961 2292 1962 
2292 1961 1995 1962 
1962 1995 2293 1996 
2259 2293 2260 1962 
1962 1995 2292 2293 
2259 2293 1962 2292 
2260 1962 2293 1963 
2293 1962 1996 1963 
1963 1996 2294 1997 
2260 2294 2261 1963 
1963 1996 2293 2294 
2260 2294 1963 2293 
2261 1963 2294 1964 
2294 1963 1997 1964 
1964 1997 2295 1998 
2261 2295 2262 1964 
1964 1997 2294 2295 
2261 2295 1964 2294 
2262 1964 2295 1965 
2295 1964 1998 1965 
1965 1998 2296 1999 
2262 2296 2263 1965 
1965 1998 2295 2296 
2262 2296 1965 2295 
2263 1965 2296 1966 
2296 1965 1999 1966 
1966 1999 2297 2000 
2263 2297 2264 1966 
1966 1999 2296 2297 
2263 2297 1966 2296 
2264 1966 2297 1967 
2297 1966 2000 1967 
1967 2000 2298 2001 
2264 2298 2265 1967 
1967 2000 2297 2298 
2264 2298 1967 2297 
2265 1967 2298 1968 
2298 1967 2001 1968 
1968 2001 2299 2002 
2265 2299 2266 1968 
1968 2001 2298 2299 
2265 2299 1968 2298 
2266 1968 2299 1969 
2299 1968 2002 1969 
1969 2002 2300 2003 
2266 2300 2267 1969 
1969 2002 2299 2300 
2266 2300 1969 2299 
2267 1969 2300 1970 
2300 1969 2003 1970 
1970 2003 2301 2004 
2267 2301 2268 1970 
1970 2003 2300 2301 
2267 2301 1970 2300 
2268 1970 2301 1971 
2301 1970 2004 1971 
1971 2004 2302 2005 
2268 2302 2269 1971 
1971 2004 2301 2302 
2268 2302 1971 2301 
2269 1971 2302 1972 
2302 1971 2005 1972 
1972 2005 2303 2006 
2269 2303 2270 1972 
1972 2005 2302 2303 
2269 2303 1972 2302 
2270 1972 2303 1973 
2303 1972 2006 1973 
1973 2006 2304 2007 
2270 2304 2271 1973 
1973 2006 2303 2304 
2270 2304 1973 2303 
2271 1973 2304 1974 
2304 1973 2007 1974 
1974 2007 2305 2008 
2271 2305 2272 1974 
1974 2007 2304 2305 
2271 2305 1974 2304 
2272 1974 2305 1975 
2305 1974 2008 1975 
1975 2008 2306 2009 
2272 2306 2273 1975 
1975 2008 2305 2306 
2272 2306 1975 2305 
2273 1975 2306 1976 
2306 1975 2009 1976 
1976 2009 2307 2010 
2273 2307 2274 1976 
1976 2009 2306 2307 
2273 2307 1976 2306 
2274 1976 2307 1977 
2307 1976 2010 1977 
1977 2010 2308 2011 
2274 2308 2275 1977 
1977 2010 2307 2308 
2274 2308 1977 2307 
2275 1977 2308 1978 
2308 1977 2011 1978 
1978 2011 2309 2012 
2275 2309 2276 1978 
1978 2011 2308 2309 
2275 2309 1978 2308 
2276 1978 2309 1979 
2309 1978 2012 1979 
1980 2013 2311 2014 
2277 2311 2278 1980 
1980 2013 2310 2311 
2277 2311 1980 2310 
2278 1980 2311 1981 
2311 1980 2014 1981 
1981 2014 2312 2015 
2278 2312 2279 1981 
1981 2014 2311 2312 
2278 2312 1981 2311 
2279 1981 2312 1982 
2312 1981 2015 1982 
1982 2015 2313 2016 
2279 2313 2280 1982 
1982 2015 2312 2313 
2279 2313 1982 2312 
2280 1982 2313 1983 
2313 1982 2016 1983 
1983 2016 2314 2017 
2280 2314 2281 1983 
1983 2016 2313 2314 
2280 2314 1983 2313 
2281 1983 2314 1984 
2314 1983 2017 1984 
1984 2017 2315 2018 
2281 2315 2282 1984 
1984 2017 2314 2315 
2281 2315 1984 2314 
2282 1984 2315 1985 
2315 1984 2018 1985 
1985 2018 2316 2019 
2282 2316 2283 1985 
1985 2018 2315 2316 
2282 2316 1985 2315 
2283 1985 2316 1986 
2316 1985 2019 1986 
1986 2019 2317 2020 
2283 2317 2284 1986 
1986 2019 2316 2317 
2283 2317 1986 2316 
2284 1986 2317 1987 
2317 1986 2020 1987 
1987 2020 2318 2021 
2284 2318 2285 1987 
1987 2020 2317 2318 
2284 2318 1987 2317 
2285 1987 2318 1988 
2318 1987 2021 1988 
1988 2021 2319 2022 
2285 2319 2286 1988 
1988 2021 2318 2319 
2285 2319 1988 2318 
2286 1988 2319 1989 
2319 1988 2022 1989 
1989 2022 2320 2023 
2286 2320 2287 1989 
1989 2022 2319 2320 
2286 2320 1989 2319 
2287 1989 2320 1990 
2320 1989 2023 1990 
1990 2023 2321 2024 
2287 2321 2288 1990 
1990 2023 2320 2321 
2287 2321 1990 2320 
2288 1990 2321 1991 
2321 1990 2024 1991 
1991 2024 2322 2025 
2288 2322 2289 1991 
1991 2024 2321 2322 
2288 2322 1991 2321 
2289 1991 2322 1992 
2322 1991 2025 1992 
1992 2025 2323 2026 
2289 2323 2290 1992 
1992 2025 2322 2323 
2289 2323 1992 2322 
2290 1992 2323 1993 
2323 1992 2026 1993 
1993 2026 2324 2027 
2290 2324 2291 1993 
1993 2026 2323 2324 
2290 2324 1993 2323 
2291 1993 2324 1994 
2324 1993 2027 1994 
1994 2027 2325 2028 
2291 2325 2292 1994 
1994 2027 2324 2325 
2291 2325 1994 2324 
2292 1994 2325 1995 
2325 1994 2028 1995 
1995 2028 2326 2029 
2292 2326 2293 1995 
1995 2028 2325 2326 
2292 2326 1995 2325 
2293 1995 2326 1996 
2326 1995 2029 1996 
1996 2029 2327 2030 
2293 2327 2294 1996 
1996 2029 2326 2327 
2293 2327 1996 2326 
2294 1996 2327 1997 
2327 1996 2030 1997 
1997 2030 2328 2031 
2294 2328 2295 1997 
1997 2030 2327 2328 
2294 2328 1997 2327 
2295 1997 2328 1998 
2328 1997 2031 1998 
1998 2031 2329 2032 
2295 2329 2296 1998 
1998 2031 2328 2329 
2295 2329 1998 2328 
2296 1998 2329 1999 
2329 1998 2032 1999 
1999 2032 2330 2033 
2296 2330 2297 1999 
1999 2032 2329 2330 
2296 2330 1999 2329 
2297 1999 2330 2000 
2330 1999 2033 2000 
2000 2033 2331 2034 
2297 2331 2298 2000 
2000 2033 2330 2331 
2297 2331 2000 2330 
2298 2000 2331 2001 
2331 2000 2034 2001 
2001 2034 2332 2035 
2298 2332 2299 2001 
2001 2034 2331 2332 
2298 2332 2001 2331 
2299 2001 2332 2002 
2332 2001 2035 2002 
2002 2035 2333 2036 
2299 2333 2300 2002 
2002 2035 2332 2333 
2299 2333 2002 2332 
2300 2002 2333 2003 
2333 2002 2036 2003 
2003 2036 2334 2037 
2300 2334 2301 2003 
2003 2036 2333 2334 
2300 2334 2003 2333 
2301 2003 2334 2004 
2334 2003 2037 2004 
2004 2037 2335 2038 
2301 2335 2302 2004 
2004 2037 2334 2335 
2301 2335 2004 2334 
2302 2004 2335 2005 
2335 2004 2038 2005 
2005 2038 2336 2039 
2302 2336 2303 2005 
2005 2038 2335 2336 
2302 2336 2005 2335 
2303 2005 2336 2006 
2336 2005 2039 2006 
2006 2039 2337 2040 
2303 2337 2304 2006 
2006 2039 2336 2337 
2303 2337 2006 2336 
2304 2006 2337 2007 
2337 2006 2040 2007 
2007 2040 2338 2041 
2304 2338 2305 2007 
2007 2040 2337 2338 
2304 2338 2007 2337 
2305 2007 2338 2008 
2338 2007 2041 2008 
2008 2041 2339 2042 
2305 2339 2306 2008 
2008 2041 2338 2339 
2305 2339 2008 2338 
2306 2008 2339 2009 
2339 2008 2042 2009 
2009 2042 2340 2043 
2306 2340 2307 2009 
2009 2042 2339 2340 
2306 2340 2009 2339 
2307 2009 2340 2010 
2340 2009 2043 2010 
2010 2043 2341 2044 
2307 2341 2308 2010 
2010 2043 2340 2341 
2307 2341 2010 2340 
2308 2010 2341 2011 
2341 2010 2044 2011 
2011 2044 2342 2045 
2308 2342 2309 2011 
2011 2044 2341 2342 
2308 2342 2011 2341 
2309 2011 2342 2012 
2342 2011 2045 2012 
2013 2046 2344 2047 
2310 2344 2311 2013 
2013 2046 2343 2344 
2310 2344 2013 2343 
2311 2013 2344 2014 
2344 2013 2047 2014 
2014 2047 2345 2048 
2311 2345 2312 2014 
2014 2047 2344 2345 
2311 2345 2014 2344 
2312 2014 2345 2015 
2345 2014 2048 2015 
2015 2048 2346 2049 
2312 2346 2313 2015 
2015 2048 2345 2346 
2312 2346 2015 2345 
2313 2015 2346 2016 
2346 2015 2049 2016 
2016 2049 2347 2050 
2313 2347 2314 2016 
2016 2049 2346 2347 
2313 2347 2016 2346 
2314 2016 2347 2017 
2347 2016 2050 2017 
2017 2050 2348 2051 
2314 2348 2315 2017 
2017 2050 2347 2348 
2314 2348 2017 2347 
2315 2017 2348 2018 
2348 2017 2051 2018 
2018 2051 2349 2052 
2315 2349 2316 2018 
2018 2051 2348 2349 
2315 2349 2018 2348 
2316 2018 2349 2019 
2349 2018 2052 2019 
2019 2052 2350 2053 
2316 2350 2317 2019 
2019 2052 2349 2350 
2316 2350 2019 2349 
2317 2019 2350 2020 
2350 2019 2053 2020 
2020 2053 2351 2054 
2317 2351 2318 2020 
2020 2053 2350 2351 
2317 2351 2020 2350 
2318 2020 2351 2021 
2351 2020 2054 2021 
2021 2054 2352 2055 
2318 2352 2319 2021 
2021 2054 2351 2352 
2318 2352 2021 2351 
2319 2021 2352 2022 
2352 2021 2055 2022 
2022 2055 2353 2056 
2319 2353 2320 2022 
2022 2055 2352 2353 
2319 2353 2022 2352 
2320 2022 2353 2023 
2353 2022 2056 2023 
2023 2056 2354 2057 
2320 2354 2321 2023 
2023 2056 2353 2354 
2320 2354 2023 2353 
2321 2023 2354 2024 
2354 2023 2057 2024 
2024 2057 2355 2058 
2321 2355 2322 2024 
2024 2057 2354 2355 
2321 2355 2024 2354 
2322 2024 2355 2025 
2355 2024 2058 2025 
2025 2058 2356 2059 
2322 2356 2323 2025 
2025 2058 2355 2356 
2322 2356 2025 2355 
2323 2025 2356 2026 
2356 2025 2059 2026 
2026 2059 2357 2060 
2323 2357 2324 2026 
2026 2059 2356 2357 
2323 2357 2026 2356 
2324 2026 2357 2027 
2357 2026 2060 2027 
2027 2060 2358 2061 
2324 2358 2325 2027 
2027 2060 2357 2358 
2324 2358 2027 2357 
2325 2027 2358 2028 
2358 2027 2061 2028 
2028 2061 2359 2062 
2325 2359 2326 2028 
2028 2061 2358 2359 
2325 2359 2028 2358 
2326 2028 2359 2029 
2359 2028 2062 2029 
2029 2062 2360 2063 
2326 2360 2327 2029 
2029 2062 2359 2360 
2326 2360 2029 2359 
2327 2029 2360 2030 
2360 2029 2063 2030 
2030 2063 2361 2064 
2327 2361 2328 2030 
2030 2063 2360 2361 
2327 2361 2030 2360 
2328 2030 2361 2031 
2361 2030 2064 2031 
2031 2064 2362 2065 
2328 2362 2329 2031 
2031 2064 2361 2362 
2328 2362 2031 2361 
2329 2031 2362 2032 
2362 2031 2065 2032 
2032 2065 2363 2066 
2329 2363 2330 2032 
2032 2065 2362 2363 
2329 2363 2032 2362 
2330 2032 2363 2033 
2363 2032 2066 2033 
2033 2066 2364 2067 
2330 2364 2331 2033 
2033 2066 2363 2364 
2330 2364 2033 2363 
2331 2033 2364 2034 
2364 2033 2067 2034 
2034 2067 2365 2068 
2331 2365 2332 2034 
2034 2067 2364 2365 
2331 2365 2034 2364 
2332 2034 2365 2035 
2365 2034 2068 2035 
2035 2068 2366 2069 
2332 2366 2333 2035 
2035 2068 2365 2366 
2332 2366 2035 2365 
2333 2035 2366 2036 
2366 2035 2069 2036 
2036 2069 2367 2070 
2333 2367 2334 2036 
2036 2069 2366 2367 
2333 2367 2036 2366 
2334 2036 2367 2037 
2367 2036 2070 2037 
2037 2070 2368 2071 
2334 2368 2335 2037 
2037 2070 2367 2368 
2334 2368 2037 2367 
2335 2037 2368 2038 
2368 2037 2071 2038 
2038 2071 2369 2072 
2335 2369 2336 2038 
2038 2071 2368 2369 
2335 2369 2038 2368 
2336 2038 2369 2039 
2369 2038 2072 2039 
2039 2072 2370 2073 
2336 2370 2337 2039 
2039 2072 2369 2370 
2336 2370 2039 2369 
2337 2039 2370 2040 
2370 2039 2073 2040 
2040 2073 2371 2074 
2337 2371 2338 2040 
2040 2073 2370 2371 
2337 2371 2040 2370 
2338 2040 2371 2041 
2371 2040 2074 2041 
2041 2074 2372 2075 
2338 2372 2339 2041 
2041 2074 2371 2372 
2338 2372 2041 2371 
2339 2041 2372 2042 
2372 2041 2075 2042 
2042 2075 2373 2076 
2339 2373 2340 2042 
2042 2075 2372 2373 
2339 2373 2042 2372 
2340 2042 2373 2043 
2373 2042 2076 2043 
2043 2076 2374 2077 
2340 2374 2341 2043 
2043 2076 2373 2374 
2340 2374 2043 2373 
2341 2043 2374 2044 
2374 2043 2077 2044 
2044 2077 2375 2078 
2341 2375 2342 2044 
2044 2077 2374 2375 
2341 2375 2044 2374 
2342 2044 2375 2045 
2375 2044 2078 2045 
2079 2112 2410 2113 
2376 2410 2377 2079 
2079 2112 2409 2410 
2376 2410 2079 2409 
2377 2079 2410 2080 
2410 2079 2113 2080 
2080 2113 2411 2114 
2377 2411 2378 2080 
2080 2113 2410 2411 
2377 2411 2080 2410 
2378 2080 2411 2081 
2411 2080 2114 2081 
2081 2114 2412 2115 
2378 2412 2379 2081 
2081 2114 2411 2412 
2378 2412 2081 2411 
2379 2081 2412 2082 
2412 2081 2115 2082 
2082 2115 2413 2116 
2379 2413 2380 2082 
2082 2115 2412 2413 
2379 2413 2082 2412 
2380 2082 2413 2083 
2413 2082 2116 2083 
2083 2116 2414 2117 
2380 2414 2381 2083 
2083 2116 2413 2414 
2380 2414 2083 2413 
2381 2083 2414 2084 
2414 2083 2117 2084 
2084 2117 2415 2118 
2381 2415 2382 2084 
2084 2117 2414 2415 
2381 2415 2084 2414 
2382 2084 2415 2085 
2415 2084 2118 2085 
2085 2118 2416 2119 
2382 2416 2383 2085 
2085 2118 2415 2416 
2382 2416 2085 2415 
2383 2085 2416 2086 
2416 2085 2119 2086 
2086 2119 2417 2120 
2383 2417 2384 2086 
2086 2119 2416 2417 
2383 2417 2086 2416 
2384 2086 2417 2087 
2417 2086 2120 2087 
2087 2120 2418 2121 
2384 2418 2385 2087 
2087 2120 2417 2418 
2384 2418 2087 2417 
2385 2087 2418 2088 
2418 2087 2121 2088 
2088 2121 2419 2122 
2385 2419 2386 2088 
2088 2121 2418 2419 
2385 2419 2088 2418 
2386 2088 2419 2089 
2419 2088 2122 2089 
2089 2122 2420 2123 
2386 2420 2387 2089 
2089 2122 2419 2420 
2386 2420 2089 2419 
2387 2089 2420 2090 
2420 2089 2123 2090 
2090 2123 2421 2124 
2387 2421 2388 2090 
2090 2123 2420 2421 
2387 2421 2090 2420 
2388 2090 2421 2091 
2421 2090 2124 2091 
2091 2124 2422 2125 
2388 2422 2389 2091 
2091 2124 2421 2422 
2388 2422 2091 2421 
2389 2091 2422 2092 
2422 2091 2125 2092 
2092 2125 2423 2126 
2389 2423 2390 2092 
2092 2125 2422 2423 
2389 2423 2092 2422 
2390 2092 2423 2093 
2423 2092 2126 2093 
2093 2126 2424 2127 
2390 2424 2391 2093 
2093 2126 2423 2424 
2390 2424 2093 2423 
2391 2093 2424 2094 
2424 2093 2127 2094 
2094 2127 2425 2128 
2391 2425 2392 2094 
2094 2127 2424 2425 
2391 2425 2094 2424 
2392 2094 2425 2095 
2425 2094 2128 2095 
2095 2128 2426 2129 
2392 2426 2393 2095 
2095 2128 2425 2426 
2392 2426 2095 2425 
2393 2095 2426 2096 
2426 2095 2129 2096 
2096 2129 2427 2130 
2393 2427 2394 2096 
2096 2129 2426 2427 
2393 2427 2096 2426 
2394 2096 2427 2097 
2427 2096 2130 2097 
2097 2130 2428 2131 
2394 2428 2395 2097 
2097 2130 2427 2428 
2394 2428 2097 2427 
2395 2097 2428 2098 
2428 2097 2131 2098 
2098 2131 2429 2132 
2395 2429 2396 2098 
2098 2131 2428 2429 
2395 2429 2098 2428 
2396 2098 2429 2099 
2429 2098 2132 2099 
2099 2132 2430 2133 
2396 2430 2397 2099 
2099 2132 2429 2430 
2396 2430 2099 2429 
2397 2099 2430 2100 
2430 2099 2133 2100 
2100 2133 2431 2134 
2397 2431 2398 2100 
2100 2133 2430 2431 
2397 2431 2100 2430 
2398 2100 2431 2101 
2431 2100 2134 2101 
2101 2134 2432 2135 
2398 2432 2399 2101 
2101 2134 2431 2432 
2398 2432 2101 2431 
2399 2101 2432 2102 
2432 2101 2135 2102 
2102 2135 2433 2136 
2399 2433 2400 2102 
2102 2135 2432 2433 
2399 2433 2102 2432 
2400 2102 2433 2103 
2433 2102 2136 2103 
2103 2136 2434 2137 
2400 2434 2401 2103 
2103 2136 2433 2434 
2400 2434 2103 2433 
2401 2103 2434 2104 
2434 2103 2137 2104 
2104 2137 2435 2138 
2401 2435 2402 2104 
2104 2137 2434 2435 
2401 2435 2104 2434 
2402 2104 2435 2105 
2435 2104 2138 2105 
2105 2138 2436 2139 
2402 2436 2403 2105 
2105 2138 2435 2436 
2402 2436 2105 2435 
2403 2105 2436 2106 
2436 2105 2139 2106 
2106 2139 2437 2140 
2403 2437 2404 2106 
2106 2139 2436 2437 
2403 2437 2106 2436 
2404 2106 2437 2107 
2437 2106 2140 2107 
2107 2140 2438 2141 
2404 2438 2405 2107 
2107 2140 2437 2438 
2404 2438 2107 2437 
2405 2107 2438 2108 
2438 2107 2141 2108 
2108 2141 2439 2142 
2405 2439 2406 2108 
2108 2141 2438 2439 
2405 2439 2108 2438 
2406 2108 2439 2109 
2439 2108 2142 2109 
2109 2142 2440 2143 
2406 2440 2407 2109 
2109 2142 2439 2440 
2406 2440 2109 2439 
2407 2109 2440 2110 
2440 2109 2143 2110 
2110 2143 2441 2144 
2407 2441 2408 2110 
2110 2143 2440 2441 
2407 2441 2110 2440 
2408 2110 2441 2111 
2441 2110 2144 2111 
2112 2145 2443 2146 
2409 2443 2410 2112 
2112 2145 2442 2443 
2409 2443 2112 2442 
2410 2112 2443 2113 
2443 2112 2146 2113 
2113 2146 2444 2147 
2410 2444 2411 2113 
2113 2146 2443 2444 
2410 2444 2113 2443 
2411 2113 2444 2114 
2444 2113 2147 2114 
2114 2147 2445 2148 
2411 2445 2412 2114 
2114 2147 2444 2445 
2411 2445 2114 2444 
2412 2114 2445 2115 
2445 2114 2148 2115 
2115 2148 2446 2149 
2412 2446 2413 2115 
2115 2148 2445 2446 
2412 2446 2115 2445 
2413 2115 2446 2116 
2446 2115 2149 2116 
2116 2149 2447 2150 
2413 2447 2414 2116 
2116 2149 2446 2447 
2413 2447 2116 2446 
2414 2116 2447 2117 
2447 2116 2150 2117 
2117 2150 2448 2151 
2414 2448 2415 2117 
2117 2150 2447 2448 
2414 2448 2117 2447 
2415 2117 2448 2118 
2448 2117 2151 2118 
2118 2151 2449 2152 
2415 2449 2416 2118 
2118 2151 2448 2449 
2415 2449 2118 2448 
2416 2118 2449 2119 
2449 2118 2152 2119 
2119 2152 2450 2153 
2416 2450 2417 2119 
2119 2152 2449 2450 
2416 2450 2119 2449 
2417 2119 2450 2120 
2450 2119 2153 2120 
2120 2153 2451 2154 
2417 2451 2418 2120 
2120 2153 2450 2451 
2417 2451 2120 2450 
2418 2120 2451 2121 
2451 2120 2154 2121 
2121 2154 2452 2155 
2418 2452 2419 2121 
2121 2154 2451 2452 
2418 2452 2121 2451 
2419 2121 2452 2122 
2452 2121 2155 2122 
2122 2155 2453 2156 
2419 2453 2420 2122 
2122 2155 2452 2453 
2419 2453 2122 2452 
2420 2122 2453 2123 
2453 2122 2156 2123 
2123 2156 2454 2157 
2420 2454 2421 2123 
2123 2156 2453 2454 
2420 2454 2123 2453 
2421 2123 2454 2124 
2454 2123 2157 2124 
2124 2157 2455 2158 
2421 2455 2422 2124 
2124 2157 2454 2455 
2421 2455 2124 2454 
2422 2124 2455 2125 
2455 2124 2158 2125 
2125 2158 2456 2159 
2422 2456 2423 2125 
2125 2158 2455 2456 
2422 2456 2125 2455 
2423 2125 2456 2126 
2456 2125 2159 2126 
2126 2159 2457 2160 
2423 2457 2424 2126 
2126 2159 2456 2457 
2423 2457 2126 2456 
2424 2126 2457 2127 
2457 2126 2160 2127 
2127 2160 2458 2161 
2424 2458 2425 2127 
2127 2160 2457 2458 
2424 2458 2127 2457 
2425 2127 2458 2128 
2458 2127 2161 2128 
2128 2161 2459 2162 
2425 2459 2426 2128 
2128 2161 2458 2459 
2425 2459 2128 2458 
2426 2128 2459 2129 
2459 2128 2162 2129 
2129 2162 2460 2163 
2426 2460 2427 2129 
2129 2162 2459 2460 
2426 2460 2129 2459 
2427 2129 2460 2130 
2460 2129 2163 2130 
2130 2163 2461 2164 
2427 2461 2428 2130 
2130 2163 2460 2461 
2427 2461 2130 2460 
2428 2130 2461 2131 
2461 2130 2164 2131 
2131 2164 2462 2165 
2428 2462 2429 2131 
2131 2164 2461 2462 
2428 2462 2131 2461 
2429 2131 2462 2132 
2462 2131 2165 2132 
2132 2165 2463 2166 
2429 2463 2430 2132 
2132 2165 2462 2463 
2429 2463 2132 2462 
2430 2132 2463 2133 
2463 2132 2166 2133 
2133 2166 2464 2167 
2430 2464 2431 2133 
2133 2166 2463 2464 
2430 2464 2133 2463 
2431 2133 2464 2134 
2464 2133 2167 2134 
2134 2167 2465 2168 
2431 2465 2432 2134 
2134 2167 2464 2465 
2431 2465 2134 2464 
2432 2134 2465 2135 
2465 2134 2168 2135 
2135 2168 2466 2169 
2432 2466 2433 2135 
2135 2168 2465 2466 
2432 2466 2135 2465 
2433 2135 2466 2136 
2466 2135 2169 2136 
2136 2169 2467 2170 
2433 2467 2434 2136 
2136 2169 2466 2467 
2433 2467 2136 2466 
2434 2136 2467 2137 
2467 2136 2170 2137 
2137 2170 2468 2171 
2434 2468 2435 2137 
2137 2170 2467 2468 
2434 2468 2137 2467 
2435 2137 2468 2138 
2468 2137 2171 2138 
2138 2171 2469 2172 
2435 2469 2436 2138 
2138 2171 2468 2469 
2435 2469 2138 2468 
2436 2138 2469 2139 
2469 2138 2172 2139 
2139 2172 2470 2173 
2436 2470 2437 2139 
2139 2172 2469 2470 
2436 2470 2139 2469 
2437 2139 2470 2140 
2470 2139 2173 2140 
2140 2173 2471 2174 
2437 2471 2438 2140 
2140 2173 2470 2471 
2437 2471 2140 2470 
2438 2140 2471 2141 
2471 2140 2174 2141 
2141 2174 2472 2175 
2438 2472 2439 2141 
2141 2174 2471 2472 
2438 2472 2141 2471 
2439 2141 2472 2142 
2472 2141 2175 2142 
2142 2175 2473 2176 
2439 2473 2440 2142 
2142 2175 2472 2473 
2439 2473 2142 2472 
2440 2142 2473 2143 
2473 2142 2176 2143 
2143 2176 2474 2177 
2440 2474 2441 2143 
2143 2176 2473 2474 
2440 2474 2143 2473 
2441 2143 2474 2144 
2474 2143 2177 2144 
2145 2178 2476 2179 
2442 2476 2443 2145 
2145 2178 2475 2476 
2442 2476 2145 2475 
2443 2145 2476 2146 
2476 2145 2179 2146 
2146 2179 2477 2180 
2443 2477 2444 2146 
2146 2179 2476 2477 
2443 2477 2146 2476 
2444 2146 2477 2147 
2477 2146 2180 2147 
2147 2180 2478 2181 
2444 2478 2445 2147 
2147 2180 2477 2478 
2444 2478 2147 2477 
2445 2147 2478 2148 
2478 2147 2181 2148 
2148 2181 2479 2182 
2445 2479 2446 2148 
2148 2181 2478 2479 
2445 2479 2148 2478 
2446 2148 2479 2149 
2479 2148 2182 2149 
2149 2182 2480 2183 
2446 2480 2447 2149 
2149 2182 2479 2480 
2446 2480 2149 2479 
2447 2149 2480 2150 
2480 2149 2183 2150 
2150 2183 2481 2184 
2447 2481 2448 2150 
2150 2183 2480 2481 
2447 2481 2150 2480 
2448 2150 2481 2151 
2481 2150 2184 2151 
2151 2184 2482 2185 
2448 2482 2449 2151 
2151 2184 2481 2482 
2448 2482 2151 2481 
2449 2151 2482 2152 
2482 2151 2185 2152 
2152 2185 2483 2186 
2449 2483 2450 2152 
2152 2185 2482 2483 
2449 2483 2152 2482 
2450 2152 2483 2153 
2483 2152 2186 2153 
2153 2186 2484 2187 
2450 2484 2451 2153 
2153 2186 2483 2484 
2450 2484 2153 2483 
2451 2153 2484 2154 
2484 2153 2187 2154 
2154 2187 2485 2188 
2451 2485 2452 2154 
2154 2187 2484 2485 
2451 2485 2154 2484 
2452 2154 2485 2155 
2485 2154 2188 2155 
2155 2188 2486 2189 
2452 2486 2453 2155 
2155 2188 2485 2486 
2452 2486 2155 2485 
2453 2155 2486 2156 
2486 2155 2189 2156 
2156 2189 2487 2190 
2453 2487 2454 2156 
2156 2189 2486 2487 
2453 2487 2156 2486 
2454 2156 2487 2157 
2487 2156 2190 2157 
2157 2190 2488 2191 
2454 2488 2455 2157 
2157 2190 2487 2488 
2454 2488 2157 2487 
2455 2157 2488 2158 
2488 2157 2191 2158 
2158 2191 2489 2192 
2455 2489 2456 2158 
2158 2191 2488 2489 
2455 2489 2158 2488 
2456 2158 2489 2159 
2489 2158 2192 2159 
2159 2192 2490 2193 
2456 2490 2457 2159 
2159 2192 2489 2490 
2456 2490 2159 2489 
2457 2159 2490 2160 
2490 2159 2193 2160 
2160 2193 2491 2194 
2457 2491 2458 2160 
2160 2193 2490 2491 
2457 2491 2160 2490 
2458 2160 2491 2161 
2491 2160 2194 2161 
2161 2194 2492 2195 
2458 2492 2459 2161 
2161 2194 2491 2492 
2458 2492 2161 2491 
2459 2161 2492 2162 
2492 2161 2195 2162 
2162 2195 2493 2196 
2459 2493 2460 2162 
2162 2195 2492 2493 
2459 2493 2162 2492 
2460 2162 2493 2163 
2493 2162 2196 2163 
2163 2196 2494 2197 
2460 2494 2461 2163 
2163 2196 2493 2494 
2460 2494 2163 2493 
2461 2163 2494 2164 
2494 2163 2197 2164 
2164 2197 2495 2198 
2461 2495 2462 2164 
2164 2197 2494 2495 
2461 2495 2164 2494 
2462 2164 2495 2165 
2495 2164 2198 2165 
2165 2198 2496 2199 
2462 2496 2463 2165 
2165 2198 2495 2496 
2462 2496 2165 2495 
2463 2165 2496 2166 
2496 2165 2199 2166 
2166 2199 2497 2200 
2463 2497 2464 2166 
2166 2199 2496 2497 
2463 2497 2166 2496 
2464 2166 2497 2167 
2497 2166 2200 2167 
2167 2200 2498 2201 
2464 2498 2465 2167 
2167 2200 2497 2498 
2464 2498 2167 2497 
2465 2167 2498 2168 
2498 2167 2201 2168 
2168 2201 2499 2202 
2465 2499 2466 2168 
2168 2201 2498 2499 
2465 2499 2168 2498 
2466 2168 2499 2169 
2499 2168 2202 2169 
2169 2202 2500 2203 
2466 2500 2467 2169 
2169 2202 2499 2500 
2466 2500 2169 2499 
2467 2169 2500 2170 
2500 2169 2203 2170 
2170 2203 2501 2204 
2467 2501 2468 2170 
2170 2203 2500 2501 
2467 2501 2170 2500 
2468 2170 2501 2171 
2501 2170 2204 2171 
2171 2204 2502 2205 
2468 2502 2469 2171 
2171 2204 2501 2502 
2468 2502 2171 2501 
2469 2171 2502 2172 
2502 2171 2205 2172 
2172 2205 2503 2206 
2469 2503 2470 2172 
2172 2205 2502 2503 
2469 2503 2172 2502 
2470 2172 2503 2173 
2503 2172 2206 2173 
2173 2206 2504 2207 
2470 2504 2471 2173 
2173 2206 2503 2504 
2470 2504 2173 2503 
2471 2173 2504 2174 
2504 2173 2207 2174 
2174 2207 2505 2208 
2471 2505 2472 2174 
2174 2207 2504 2505 
2471 2505 2174 2504 
2472 2174 2505 2175 
2505 2174 2208 2175 
2175 2208 2506 2209 
2472 2506 2473 2175 
2175 2208 2505 2506 
2472 2506 2175 2505 
2473 2175 2506 2176 
2506 2175 2209 2176 
2176 2209 2507 2210 
2473 2507 2474 2176 
2176 2209 2506 2507 
2473 2507 2176 2506 
2474 2176 2507 2177 
2507 2176 2210 2177 
2178 2211 2509 2212 
2475 2509 2476 2178 
2178 2211 2508 2509 
2475 2509 2178 2508 
2476 2178 2509 2179 
2509 2178 2212 2179 
2179 2212 2510 2213 
2476 2510 2477 2179 
2179 2212 2509 2510 
2476 2510 2179 2509 
2477 2179 2510 2180 
2510 2179 2213 2180 
2180 2213 2511 2214 
2477 2511 2478 2180 
2180 2213 2510 2511 
2477 2511 2180 2510 
2478 2180 2511 2181 
2511 2180 2214 2181 
2181 2214 2512 2215 
2478 2512 2479 2181 
2181 2214 2511 2512 
2478 2512 2181 2511 
2479 2181 2512 2182 
2512 2181 2215 2182 
2182 2215 2513 2216 
2479 2513 2480 2182 
2182 2215 2512 2513 
2479 2513 2182 2512 
2480 2182 2513 2183 
2513 2182 2216 2183 
2183 2216 2514 2217 
2480 2514 2481 2183 
2183 2216 2513 2514 
2480 2514 2183 2513 
2481 2183 2514 2184 
2514 2183 2217 2184 
2184 2217 2515 2218 
2481 2515 2482 2184 
2184 2217 2514 2515 
2481 2515 2184 2514 
2482 2184 2515 2185 
2515 2184 2218 2185 
2185 2218 2516 2219 
2482 2516 2483 2185 
2185 2218 2515 2516 
2482 2516 2185 2515 
2483 2185 2516 2186 
2516 2185 2219 2186 
2186 2219 2517 2220 
2483 2517 2484 2186 
2186 2219 2516 2517 
2483 2517 2186 2516 
2484 2186 2517 2187 
2517 2186 2220 2187 
2187 2220 2518 2221 
2484 2518 2485 2187 
2187 2220 2517 2518 
2484 2518 2187 2517 
2485 2187 2518 2188 
2518 2187 2221 2188 
2188 2221 2519 2222 
2485 2519 2486 2188 
2188 2221 2518 2519 
2485 2519 2188 2518 
2486 2188 2519 2189 
2519 2188 2222 2189 
2189 2222 2520 2223 
2486 2520 2487 2189 
2189 2222 2519 2520 
2486 2520 2189 2519 
2487 2189 2520 2190 
2520 2189 2223 2190 
2190 2223 2521 2224 
2487 2521 2488 2190 
2190 2223 2520 2521 
2487 2521 2190 2520 
2488 2190 2521 2191 
2521 2190 2224 2191 
2191 2224 2522 2225 
2488 2522 2489 2191 
2191 2224 2521 2522 
2488 2522 2191 2521 
2489 2191 2522 2192 
2522 2191 2225 2192 
2192 2225 2523 2226 
2489 2523 2490 2192 
2192 2225 2522 2523 
2489 2523 2192 2522 
2490 2192 2523 2193 
2523 2192 2226 2193 
2193 2226 2524 2227 
2490 2524 2491 2193 
2193 2226 2523 2524 
2490 2524 2193 2523 
2491 2193 2524 2194 
2524 2193 2227 2194 
2194 2227 2525 2228 
2491 2525 2492 2194 
2194 2227 2524 2525 
2491 2525 2194 2524 
2492 2194 2525 2195 
2525 2194 2228 2195 
2195 2228 2526 2229 
2492 2526 2493 2195 
2195 2228 2525 2526 
2492 2526 2195 2525 
2493 2195 2526 2196 
2526 2195 2229 2196 
2196 2229 2527 2230 
2493 2527 2494 2196 
2196 2229 2526 2527 
2493 2527 2196 2526 
2494 2196 2527 2197 
2527 2196 2230 2197 
2197 2230 2528 2231 
2494 2528 2495 2197 
2197 2230 2527 2528 
2494 2528 2197 2527 
2495 2197 2528 2198 
2528 2197 2231 2198 
2198 2231 2529 2232 
2495 2529 2496 2198 
2198 2231 2528 2529 
2495 2529 2198 2528 
2496 2198 2529 2199 
2529 2198 2232 2199 
2199 2232 2530 2233 
2496 2530 2497 2199 
2199 2232 2529 2530 
2496 2530 2199 2529 
2497 2199 2530 2200 
2530 2199 2233 2200 
2200 2233 2531 2234 
2497 2531 2498 2200 
2200 2233 2530 2531 
2497 2531 2200 2530 
2498 2200 2531 2201 
2531 2200 2234 2201 
2201 2234 2532 2235 
2498 2532 2499 2201 
2201 2234 2531 2532 
2498 2532 2201 2531 
2499 2201 2532 2202 
2532 2201 2235 2202 
2202 2235 2533 2236 
2499 2533 2500 2202 
2202 2235 2532 2533 
2499 2533 2202 2532 
2500 2202 2533 2203 
2533 2202 2236 2203 
2203 2236 2534 2237 
2500 2534 2501 2203 
2203 2236 2533 2534 
2500 2534 2203 2533 
2501 2203 2534 2204 
2534 2203 2237 2204 
2204 2237 2535 2238 
2501 2535 2502 2204 
2204 2237 2534 2535 
2501 2535 2204 2534 
2502 2204 2535 2205 
2535 2204 2238 2205 
2205 2238 2536 2239 
2502 2536 2503 2205 
2205 2238 2535 2536 
2502 2536 2205 2535 
2503 2205 2536 2206 
2536 2205 2239 2206 
2206 2239 2537 2240 
2503 2537 2504 2206 
2206 2239 2536 2537 
2503 2537 2206 2536 
2504 2206 2537 2207 
2537 2206 2240 2207 
2207 2240 2538 2241 
2504 2538 2505 2207 
2207 2240 2537 2538 
2504 2538 2207 2537 
2505 2207 2538 2208 
2538 2207 2241 2208 
2208 2241 2539 2242 
2505 2539 2506 2208 
2208 2241 2538 2539 
2505 2539 2208 2538 
2506 2208 2539 2209 
2539 2208 2242 2209 
2209 2242 2540 2243 
2506 2540 2507 2209 
2209 2242 2539 2540 
2506 2540 2209 2539 
2507 2209 2540 2210 
2540 2209 2243 2210 
2211 2244 2542 2245 
2508 2542 2509 2211 
2211 2244 2541 2542 
2508 2542 2211 2541 
2509 2211 2542 2212 
2542 2211 2245 2212 
2212 2245 2543 2246 
2509 2543 2510 2212 
2212 2245 2542 2543 
2509 2543 2212 2542 
2510 2212 2543 2213 
2543 2212 2246 2213 
2213 2246 2544 2247 
2510 2544 2511 2213 
2213 2246 2543 2544 
2510 2544 2213 2543 
2511 2213 2544 2214 
2544 2213 2247 2214 
2214 2247 2545 2248 
2511 2545 2512 2214 
2214 2247 2544 2545 
2511 2545 2214 2544 
2512 2214 2545 2215 
2545 2214 2248 2215 
2215 2248 2546 2249 
2512 2546 2513 2215 
2215 2248 2545 2546 
2512 2546 2215 2545 
2513 2215 2546 2216 
2546 2215 2249 2216 
2216 2249 2547 2250 
2513 2547 2514 2216 
2216 2249 2546 2547 
2513 2547 2216 2546 
2514 2216 2547 2217 
2547 2216 2250 2217 
2217 2250 2548 2251 
2514 2548 2515 2217 
2217 2250 2547 2548 
2514 2548 2217 2547 
2515 2217 2548 2218 
2548 2217 2251 2218 
2218 2251 2549 2252 
2515 2549 2516 2218 
2218 2251 2548 2549 
2515 2549 2218 2548 
2516 2218 2549 2219 
2549 2218 2252 2219 
2219 2252 2550 2253 
2516 2550 2517 2219 
2219 2252 2549 2550 
2516 2550 2219 2549 
2517 2219 2550 2220 
2550 2219 2253 2220 
2220 2253 2551 2254 
2517 2551 2518 2220 
2220 2253 2550 2551 
2517 2551 2220 2550 
2518 2220 2551 2221 
2551 2220 2254 2221 
2221 2254 2552 2255 
2518 2552 2519 2221 
2221 2254 2551 2552 
2518 2552 2221 2551 
2519 2221 2552 2222 
2552 2221 2255 2222 
2222 2255 2553 2256 
2519 2553 2520 2222 
2222 2255 2552 2553 
2519 2553 2222 2552 
2520 2222 2553 2223 
2553 2222 2256 2223 
2223 2256 2554 2257 
2520 2554 2521 2223 
2223 2256 2553 2554 
2520 2554 2223 2553 
2521 2223 2554 2224 
2554 2223 2257 2224 
2224 2257 2555 2258 
2521 2555 2522 2224 
2224 2257 2554 2555 
2521 2555 2224 2554 
2522 2224 2555 2225 
2555 2224 2258 2225 
2225 2258 2556 2259 
2522 2556 2523 2225 
2225 2258 2555 2556 
2522 2556 2225 2555 
2523 2225 2556 2226 
2556 2225 2259 2226 
2226 2259 2557 2260 
2523 2557 2524 2226 
2226 2259 2556 2557 
2523 2557 2226 2556 
2524 2226 2557 2227 
2557 2226 2260 2227 
2227 2260 2558 2261 
2524 2558 2525 2227 
2227 2260 2557 2558 
2524 2558 2227 2557 
2525 2227 2558 2228 
2558 2227 2261 2228 
2228 2261 2559 2262 
2525 2559 2526 2228 
2228 2261 2558 2559 
2525 2559 2228 2558 
2526 2228 2559 2229 
2559 2228 2262 2229 
2229 2262 2560 2263 
2526 2560 2527 2229 
2229 2262 2559 2560 
2526 2560 2229 2559 
2527 2229 2560 2230 
2560 2229 2263 2230 
2230 2263 2561 2264 
2527 2561 2528 2230 
2230 2263 2560 2561 
2527 2561 2230 2560 
2528 2230 2561 2231 
2561 2230 2264 2231 
2231 2264 2562 2265 
2528 2562 2529 2231 
2231 2264 2561 2562 
2528 2562 2231 2561 
2529 2231 2562 2232 
2562 2231 2265 2232 
2232 2265 2563 2266 
2529 2563 2530 2232 
2232 2265 2562 2563 
2529 2563 2232 2562 
2530 2232 2563 2233 
2563 2232 2266 2233 
2233 2266 2564 2267 
2530 2564 2531 2233 
2233 2266 2563 2564 
2530 2564 2233 2563 
2531 2233 2564 2234 
2564 2233 2267 2234 
2234 2267 2565 2268 
2531 2565 2532 2234 
2234 2267 2564 2565 
2531 2565 2234 2564 
2532 2234 2565 2235 
2565 2234 2268 2235 
2235 2268 2566 2269 
2532 2566 2533 2235 
2235 2268 2565 2566 
2532 2566 2235 2565 
2533 2235 2566 2236 
2566 2235 2269 2236 
2236 2269 2567 2270 
2533 2567 2534 2236 
2236 2269 2566 2567 
2533 2567 2236 2566 
2534 2236 2567 2237 
2567 2236 2270 2237 
2237 2270 2568 2271 
2534 2568 2535 2237 
2237 2270 2567 2568 
2534 2568 2237 2567 
2535 2237 2568 2238 
2568 2237 2271 2238 
2238 2271 2569 2272 
2535 2569 2536 2238 
2238 2271 2568 2569 
2535 2569 2238 2568 
2536 2238 2569 2239 
2569 2238 2272 2239 
2239 2272 2570 2273 
2536 2570 2537 2239 
2239 2272 2569 2570 
2536 2570 2239 2569 
2537 2239 2570 2240 
2570 2239 2273 2240 
2240 2273 2571 2274 
2537 2571 2538 2240 
2240 2273 2570 2571 
2537 2571 2240 2570 
2538 2240 2571 2241 
2571 2240 2274 2241 
2241 2274 2572 2275 
2538 2572 2539 2241 
2241 2274 2571 2572 
2538 2572 2241 2571 
2539 2241 2572 2242 
2572 2241 2275 2242 
2242 2275 2573 2276 
2539 2573 2540 2242 
2242 2275 2572 2573 
2539 2573 2242 2572 
2540 2242 2573 2243 
2573 2242 2276 2243 
2244 2277 2575 2278 
2541 2575 2542 2244 
2244 2277 2574 2575 
2541 2575 2244 2574 
2542 2244 2575 2245 
2575 2244 2278 2245 
2245 2278 2576 2279 
2542 2576 2543 2245 
2245 2278 2575 2576 
2542 2576 2245 2575 
2543 2245 2576 2246 
2576 2245 2279 2246 
2246 2279 2577 2280 
2543 2577 2544 2246 
2246 2279 2576 2577 
2543 2577 2246 2576 
2544 2246 2577 2247 
2577 2246 2280 2247 
2247 2280 2578 2281 
2544 2578 2545 2247 
2247 2280 2577 2578 
2544 2578 2247 2577 
2545 2247 2578 2248 
2578 2247 2281 2248 
2248 2281 2579 2282 
2545 2579 2546 2248 
2248 2281 2578 2579 
2545 2579 2248 2578 
2546 2248 2579 2249 
2579 2248 2282 2249 
2249 2282 2580 2283 
2546 2580 2547 2249 
2249 2282 2579 2580 
2546 2580 2249 2579 
2547 2249 2580 2250 
2580 2249 2283 2250 
2250 2283 2581 2284 
2547 2581 2548 2250 
2250 2283 2580 2581 
2547 2581 2250 2580 
2548 2250 2581 2251 
2581 2250 2284 2251 
2251 2284 2582 2285 
2548 2582 2549 2251 
2251 2284 2581 2582 
2548 2582 2251 2581 
2549 2251 2582 2252 
2582 2251 2285 2252 
2252 2285 2583 2286 
2549 2583 2550 2252 
2252 2285 2582 2583 
2549 2583 2252 2582 
2550 2252 2583 2253 
2583 2252 2286 2253 
2253 2286 2584 2287 
2550 2584 2551 2253 
2253 2286 2583 2584 
2550 2584 2253 2583 
2551 2253 2584 2254 
2584 2253 2287 2254 
2254 2287 2585 2288 
2551 2585 2552 2254 
2254 2287 2584 2585 
2551 2585 2254 2584 
2552 2254 2585 2255 
2585 2254 2288 2255 
2255 2288 2586 2289 
2552 2586 2553 2255 
2255 2288 2585 2586 
2552 2586 2255 2585 
2553 2255 2586 2256 
2586 2255 2289 2256 
2256 2289 2587 2290 
2553 2587 2554 2256 
2256 2289 2586 2587 
2553 2587 2256 2586 
2554 2256 2587 2257 
2587 2256 2290 2257 
2257 2290 2588 2291 
2554 2588 2555 2257 
2257 2290 2587 2588 
2554 2588 2257 2587 
2555 2257 2588 2258 
2588 2257 2291 2258 
2258 2291 2589 2292 
2555 2589 2556 2258 
2258 2291 2588 2589 
2555 2589 2258 2588 
2556 2258 2589 2259 
2589 2258 2292 2259 
2259 2292 2590 2293 
2556 2590 2557 2259 
2259 2292 2589 2590 
2556 2590 2259 2589 
2557 2259 2590 2260 
2590 2259 2293 2260 
2260 2293 2591 2294 
2557 2591 2558 2260 
2260 2293 2590 2591 
2557 2591 2260 2590 
2558 2260 2591 2261 
2591 2260 2294 2261 
2261 2294 2592 2295 
2558 2592 2559 2261 
2261 2294 2591 2592 
2558 2592 2261 2591 
2559 2261 2592 2262 
2592 2261 2295 2262 
2262 2295 2593 2296 
2559 2593 2560 2262 
2262 2295 2592 2593 
2559 2593 2262 2592 
2560 2262 2593 2263 
2593 2262 2296 2263 
2263 2296 2594 2297 
2560 2594 2561 2263 
2263 2296 2593 2594 
2560 2594 2263 2593 
2561 2263 2594 2264 
2594 2263 2297 2264 
2264 2297 2595 2298 
2561 2595 2562 2264 
2264 2297 2594 2595 
2561 2595 2264 2594 
2562 2264 2595 2265 
2595 2264 2298 2265 
2265 2298 2596 2299 
2562 2596 2563 2265 
2265 2298 2595 2596 
2562 2596 2265 2595 
2563 2265 2596 2266 
2596 2265 2299 2266 
2266 2299 2597 2300 
2563 2597 2564 2266 
2266 2299 2596 2597 
2563 2597 2266 2596 
2564 2266 2597 2267 
2597 2266 2300 2267 
2267 2300 2598 2301 
2564 2598 2565 2267 
2267 2300 2597 2598 
2564 2598 2267 2597 
2565 2267 2598 2268 
2598 2267 2301 2268 
2268 2301 2599 2302 
2565 2599 2566 2268 
2268 2301 2598 2599 
2565 2599 2268 2598 
2566 2268 2599 2269 
2599 2268 2302 2269 
2269 2302 2600 2303 
2566 2600 2567 2269 
2269 2302 2599 2600 
2566 2600 2269 2599 
2567 2269 2600 2270 
2600 2269 2303 2270 
2270 2303 2601 2304 
2567 2601 2568 2270 
2270 2303 2600 2601 
2567 2601 2270 2600 
2568 2270 2601 2271 
2601 2270 2304 2271 
2271 2304 2602 2305 
2568 2602 2569 2271 
2271 2304 2601 2602 
2568 2602 2271 2601 
2569 2271 2602 2272 
2602 2271 2305 2272 
2272 2305 2603 2306 
2569 2603 2570 2272 
2272 2305 2602 2603 
2569 2603 2272 2602 
2570 2272 2603 2273 
2603 2272 2306 2273 
2273 2306 2604 2307 
2570 2604 2571 2273 
2273 2306 2603 2604 
2570 2604 2273 2603 
2571 2273 2604 2274 
2604 2273 2307 2274 
2274 2307 2605 2308 
2571 2605 2572 2274 
2274 2307 2604 2605 
2571 2605 2274 2604 
2572 2274 2605 2275 
2605 2274 2308 2275 
2275 2308 2606 2309 
2572 2606 2573 2275 
2275 2308 2605 2606 
2572 2606 2275 2605 
2573 2275 2606 2276 
2606 2275 2309 2276 
2277 2310 2608 2311 
2574 2608 2575 2277 
2277 2310 2607 2608 
2574 2608 2277 2607 
2575 2277 2608 2278 
2608 2277 2311 2278 
2278 2311 2609 2312 
2575 2609 2576 2278 
2278 2311 2608 2609 
2575 2609 2278 2608 
2576 2278 2609 2279 
2609 2278 2312 2279 
2279 2312 2610 2313 
2576 2610 2577 2279 
2279 2312 2609 2610 
2576 2610 2279 2609 
2577 2279 2610 2280 
2610 2279 2313 2280 
2280 2313 2611 2314 
2577 2611 2578 2280 
2280 2313 2610 2611 
2577 2611 2280 2610 
2578 2280 2611 2281 
2611 2280 2314 2281 
2281 2314 2612 2315 
2578 2612 2579 2281 
2281 2314 2611 2612 
2578 2612 2281 2611 
2579 2281 2612 2282 
2612 2281 2315 2282 
2282 2315 2613 2316 
2579 2613 2580 2282 
2282 2315 2612 2613 
2579 2613 2282 2612 
2580 2282 2613 2283 
2613 2282 2316 2283 
2283 2316 2614 2317 
2580 2614 2581 2283 
2283 2316 2613 2614 
2580 2614 2283 2613 
2581 2283 2614 2284 
2614 2283 2317 2284 
2284 2317 2615 2318 
2581 2615 2582 2284 
2284 2317 2614 2615 
2581 2615 2284 2614 
2582 2284 2615 2285 
2615 2284 2318 2285 
2285 2318 2616 2319 
2582 2616 2583 2285 
2285 2318 2615 2616 
2582 2616 2285 2615 
2583 2285 2616 2286 
2616 2285 2319 2286 
2286 2319 2617 2320 
2583 2617 2584 2286 
2286 2319 2616 2617 
2583 2617 2286 2616 
2584 2286 2617 2287 
2617 2286 2320 2287 
2287 2320 2618 2321 
2584 2618 2585 2287 
2287 2320 2617 2618 
2584 2618 2287 2617 
2585 2287 2618 2288 
2618 2287 2321 2288 
2288 2321 2619 2322 
2585 2619 2586 2288 
2288 2321 2618 2619 
2585 2619 2288 2618 
2586 2288 2619 2289 
2619 2288 2322 2289 
2289 2322 2620 2323 
2586 2620 2587 2289 
2289 2322 2619 2620 
2586 2620 2289 2619 
2587 2289 2620 2290 
2620 2289 2323 2290 
2290 2323 2621 2324 
2587 2621 2588 2290 
2290 2323 2620 2621 
2587 2621 2290 2620 
2588 2290 2621 2291 
2621 2290 2324 2291 
2291 2324 2622 2325 
2588 2622 2589 2291 
2291 2324 2621 2622 
2588 2622 2291 2621 
2589 2291 2622 2292 
2622 2291 2325 2292 
2292 2325 2623 2326 
2589 2623 2590 2292 
2292 2325 2622 2623 
2589 2623 2292 2622 
2590 2292 2623 2293 
2623 2292 2326 2293 
2293 2326 2624 2327 
2590 2624 2591 2293 
2293 2326 2623 2624 
2590 2624 2293 2623 
2591 2293 2624 2294 
2624 2293 2327 2294 
2294 2327 2625 2328 
2591 2625 2592 2294 
2294 2327 2624 2625 
2591 2625 2294 2624 
2592 2294 2625 2295 
2625 2294 2328 2295 
2295 2328 2626 2329 
2592 2626 2593 2295 
2295 2328 2625 2626 
2592 2626 2295 2625 
2593 2295 2626 2296 
2626 2295 2329 2296 
2296 2329 2627 2330 
2593 2627 2594 2296 
2296 2329 2626 2627 
2593 2627 2296 2626 
2594 2296 2627 2297 
2627 2296 2330 2297 
2297 2330 2628 2331 
2594 2628 2595 2297 
2297 2330 2627 2628 
2594 2628 2297 2627 
2595 2297 2628 2298 
2628 2297 2331 2298 
2298 2331 2629 2332 
2595 2629 2596 2298 
2298 2331 2628 2629 
2595 2629 2298 2628 
2596 2298 2629 2299 
2629 2298 2332 2299 
2299 2332 2630 2333 
2596 2630 2597 2299 
2299 2332 2629 2630 
2596 2630 2299 2629 
2597 2299 2630 2300 
2630 2299 2333 2300 
2300 2333 2631 2334 
2597 2631 2598 2300 
2300 2333 2630 2631 
2597 2631 2300 2630 
2598 2300 2631 2301 
2631 2300 2334 2301 
2301 2334 2632 2335 
2598 2632 2599 2301 
2301 2334 2631 2632 
2598 2632 2301 2631 
2599 2301 2632 2302 
2632 2301 2335 2302 
2302 2335 2633 2336 
2599 2633 2600 2302 
2302 2335 2632 2633 
2599 2633 2302 2632 
2600 2302 2633 2303 
2633 2302 2336 2303 
2303 2336 2634 2337 
2600 2634 2601 2303 
2303 2336 2633 2634 
2600 2634 2303 2633 
2601 2303 2634 2304 
2634 2303 2337 2304 
2304 2337 2635 2338 
2601 2635 2602 2304 
2304 2337 2634 2635 
2601 2635 2304 2634 
2602 2304 2635 2305 
2635 2304 2338 2305 
2305 2338 2636 2339 
2602 2636 2603 2305 
2305 2338 2635 2636 
2602 2636 2305 2635 
2603 2305 2636 2306 
2636 2305 2339 2306 
2306 2339 2637 2340 
2603 2637 2604 2306 
2306 2339 2636 2637 
2603 2637 2306 2636 
2604 2306 2637 2307 
2637 2306 2340 2307 
2307 2340 2638 2341 
2604 2638 2605 2307 
2307 2340 2637 2638 
2604 2638 2307 2637 
2605 2307 2638 2308 
2638 2307 2341 2308 
2308 2341 2639 2342 
2605 2639 2606 2308 
2308 2341 2638 2639 
2605 2639 2308 2638 
2606 2308 2639 2309 
2639 2308 2342 2309 
2310 2343 2641 2344 
2607 2641 2608 2310 
2310 2343 2640 2641 
2607 2641 2310 2640 
2608 2310 2641 2311 
2641 2310 2344 2311 
2311 2344 2642 2345 
2608 2642 2609 2311 
2311 2344 2641 2642 
2608 2642 2311 2641 
2609 2311 2642 2312 
2642 2311 2345 2312 
2312 2345 2643 2346 
2609 2643 2610 2312 
2312 2345 2642 2643 
2609 2643 2312 2642 
2610 2312 2643 2313 
2643 2312 2346 2313 
2313 2346 2644 2347 
2610 2644 2611 2313 
2313 2346 2643 2644 
2610 2644 2313 2643 
2611 2313 2644 2314 
2644 2313 2347 2314 
2314 2347 2645 2348 
2611 2645 2612 2314 
2314 2347 2644 2645 
2611 2645 2314 2644 
2612 2314 2645 2315 
2645 2314 2348 2315 
2315 2348 2646 2349 
2612 2646 2613 2315 
2315 2348 2645 2646 
2612 2646 2315 2645 
2613 2315 2646 2316 
2646 2315 2349 2316 
2316 2349 2647 2350 
2613 2647 2614 2316 
2316 2349 2646 2647 
2613 2647 2316 2646 
2614 2316 2647 2317 
2647 2316 2350 2317 
2317 2350 2648 2351 
2614 2648 2615 2317 
2317 2350 2647 2648 
2614 2648 2317 2647 
2615 2317 2648 2318 
2648 2317 2351 2318 
2318 2351 2649 2352 
2615 2649 2616 2318 
2318 2351 2648 2649 
2615 2649 2318 2648 
2616 2318 2649 2319 
2649 2318 2352 2319 
2319 2352 2650 2353 
2616 2650 2617 2319 
2319 2352 2649 2650 
2616 2650 2319 2649 
2617 2319 2650 2320 
2650 2319 2353 2320 
2320 2353 2651 2354 
2617 2651 2618 2320 
2320 2353 2650 2651 
2617 2651 2320 2650 
2618 2320 2651 2321 
2651 2320 2354 2321 
2321 2354 2652 2355 
2618 2652 2619 2321 
2321 2354 2651 2652 
2618 2652 2321 2651 
2619 2321 2652 2322 
2652 2321 2355 2322 
2322 2355 2653 2356 
2619 2653 2620 2322 
2322 2355 2652 2653 
2619 2653 2322 2652 
2620 2322 2653 2323 
2653 2322 2356 2323 
2323 2356 2654 2357 
2620 2654 2621 2323 
2323 2356 2653 2654 
2620 2654 2323 2653 
2621 2323 2654 2324 
2654 2323 2357 2324 
2324 2357 2655 2358 
2621 2655 2622 2324 
2324 2357 2654 2655 
2621 2655 2324 2654 
2622 2324 2655 2325 
2655 2324 2358 2325 
2325 2358 2656 2359 
2622 2656 2623 2325 
2325 2358 2655 2656 
2622 2656 2325 2655 
2623 2325 2656 2326 
2656 2325 2359 2326 
2326 2359 2657 2360 
2623 2657 2624 2326 
2326 2359 2656 2657 
2623 2657 2326 2656 
2624 2326 2657 2327 
2657 2326 2360 2327 
2327 2360 2658 2361 
2624 2658 2625 2327 
2327 2360 2657 2658 
2624 2658 2327 2657 
2625 2327 2658 2328 
2658 2327 2361 2328 
2328 2361 2659 2362 
2625 2659 2626 2328 
2328 2361 2658 2659 
2625 2659 2328 2658 
2626 2328 2659 2329 
2659 2328 2362 2329 
2329 2362 2660 2363 
2626 2660 2627 2329 
2329 2362 2659 2660 
2626 2660 2329 2659 
2627 2329 2660 2330 
2660 2329 2363 2330 
2330 2363 2661 2364 
2627 2661 2628 2330 
2330 2363 2660 2661 
2627 2661 2330 2660 
2628 2330 2661 2331 
2661 2330 2364 2331 
2331 2364 2662 2365 
2628 2662 2629 2331 
2331 2364 2661 2662 
2628 2662 2331 2661 
2629 2331 2662 2332 
2662 2331 2365 2332 
2332 2365 2663 2366 
2629 2663 2630 2332 
2332 2365 2662 2663 
2629 2663 2332 2662 
2630 2332 2663 2333 
2663 2332 2366 2333 
2333 2366 2664 2367 
2630 2664 2631 2333 
2333 2366 2663 2664 
2630 2664 2333 2663 
2631 2333 2664 2334 
2664 2333 2367 2334 
2334 2367 2665 2368 
2631 2665 2632 2334 
2334 2367 2664 2665 
2631 2665 2334 2664 
2632 2334 2665 2335 
2665 2334 2368 2335 
2335 2368 2666 2369 
2632 2666 2633 2335 
2335 2368 2665 2666 
2632 2666 2335 2665 
2633 2335 2666 2336 
2666 2335 2369 2336 
2336 2369 2667 2370 
2633 2667 2634 2336 
2336 2369 2666 2667 
2633 2667 2336 2666 
2634 2336 2667 2337 
2667 2336 2370 2337 
2337 2370 2668 2371 
2634 2668 2635 2337 
2337 2370 2667 2668 
2634 2668 2337 2667 
2635 2337 2668 2338 
2668 2337 2371 2338 
2338 2371 2669 2372 
2635 2669 2636 2338 
2338 2371 2668 2669 
2635 2669 2338 2668 
2636 2338 2669 2339 
2669 2338 2372 2339 
2339 2372 2670 2373 
2636 2670 2637 2339 
2339 2372 2669 2670 
2636 2670 2339 2669 
2637 2339 2670 2340 
2670 2339 2373 2340 
2340 2373 2671 2374 
2637 2671 2638 2340 
2340 2373 2670 2671 
2637 2671 2340 2670 
2638 2340 2671 2341 
2671 2340 2374 2341 
2341 2374 2672 2375 
2638 2672 2639 2341 
2341 2374 2671 2672 
2638 2672 2341 2671 
2639 2341 2672 2342 
2672 2341 2375 2342 
CELL_TYPES 12288
10 10 10 10 10 10 10 10 10 10 10 10 10 10 10 10 10 10 10 10 10 10 10 10 10 10 10 10 10 10 10 10 10 10 10 10 10 10 10 10 10 10 10 10 10 10 10 10 10 10 10 10 10 10 10 10 10 10 10 10 10 10 10 10 10 10 10 10 10 10 10 10 10 10 10 10 10 10 10 10 10 10 10 10 10 10 10 10 10 10 10 10 10 10 10 10 10 10 10 10 10 10 10 10 10 10 10 10 10 10 10 10 10 10 10 10 10 10 10 10 10 10 10 10 10 10 10 10 10 10 10 10 10 10 10 10 10 10 10 10 10 10 10 10 10 10 10 10 10 10 10 10 10 10 10 10 10 10 10 10 10 10 10 10 10 10 10 10 10 10 10 10 10 10 10 10 10 10 10 10 10 10 10 10 10 10 10 10 10 10 10 10 10 10 10 10 10 10 10 10 10 10 10 10 10 10 10 10 10 10 10 10 10 10 10 10 10 10 10 10 10 10 10 10 10 10 10 10 10 10 10 10 10 10 10 10 10 10 10 10 10 10 10 10 10 10 10 10 10 10 10 10 10 10 10 10 10 10 10 10 10 10 10 10 10 10 10 10 10 10 10 10 10 10 10 10 10 10 10 10 10 10 10 10 10 10 10 10 10 10 10 10 10 10 10 10 10 10 10 10 10 10 10 10 10 10 10 10 10 10 10 10 10 10 10 10 10 10 10 10 10 10 10 10 10 10 10 10 10 10 10 10 10 10 10 10 10 10 10 10 10 10 10 10 10 10 10 10 10 10 10 10 10 10 10 10 10 10 10 10 10 10 10 10 10 10 10 10 10 10 10 10 10 10 10 10 10 10 10 10 10 10 10 10 10 10 10 10 10 10 10 10 10 10 10 10 10 10 10 10 10 10 10 10 10 10 10 10 10 10 10 10 10 10 10 10 10 10 10 10 10 10 10 10 10 10 10 10 10 10 10 10 10 10 10 10 10 10 10 10 10 10 10 10 10 10 10 10 10 10 10 10 10 10 10 10 10 10 10 10 10 10 10 10 10 10 10 10 10 10 10 10 10 10 10 10 10 10 10 10 10 10 10 10 10 10 10 10 10 10 10 10 10 10 10 10 10 10 10 10 10 10 10 10 10 10 10 10 10 10 10 10 10 10 10 10 10 10 10 10 10 10 10 10 10 10 10 10 10 10 10 10 10 10 10 10 10 10 10 10 10 10 10 10 10 10 10 10 10 10 10 10 10 10 10 10 10 10 10 10 10 10 10 10 10 10 10 10 10 10 10 10 10 10 10 10 10 10 10 10 10 10 10 10 10 10 10 10 10 10 10 10 10 10 10 10 10 10 10 10 10 10 10 10 10 10 10 10 10 10 10 10 10 10 10 10 10 10 10 10 10 10 10 10 10 10 10 10 10 10 10 10 10 10 10 10 10 10 10 10 10 10 10 10 10 10 10 10 10 10 10 10 10 10 10 10 10 10 10 10 10 10 10 10 10 10 10 10 10 10 10 10 10 10 10 10 10 10 10 10 10 10 10 10 10 10 10 10 10 10 10 10 10 10 10 10 10 10 10 10 10 10 10 10 10 10 10 10 10 10 10 10 10 10 10 10 10 10 10 10 10 10 10 10 10 10 10 10 10 10 10 10 10 10 10 10 10 10 10 10 10 10 10 10 10 10 10 10 10 10 10 10 10 10 10 10 10 10 10 10 10 10 10 10 10 10 10 10 10 10 10 10 10 10 10 10 10 10 10 10 10 10 10 10 10 10 10 10 10 10 10 10 10 10 10 10 10 10 10 10 10 10 10 10 10 10 10 10 10 10 10 10 10 10 10 10 10 10 10 10 10 10 10 10 10 10 10 10 10 10 10 10 10 10 10 10 10 10 10 10 10 10 10 10 10 10 10 10 10 10 10 10 10 10 10 10 10 10 10 10 10 10 10 10 10 10 10 10 10 10 10 10 10 10 10 10 10 10 10 10 10 10 10 10 10 10 10 10 10 10 10 10 10 10 10 10 10 10 10 10 10 10 10 10 10 10 10 10 10 10 10 10 10 10 10 10 10 10 10 10 10 10 10 10 10 10 10 10 10 10 10 10 10 10 10 10 10 10 10 10 10 10 10 10 10 10 10 10 10 10 10 10 10 10 10 10 10 10 10 10 10 10 10 10 10 10 10 10 10 10 10 10 10 10 10 10 10 10 10 10 10 10 10 10 10 10 10 10 10 10 10 10 10 10 10 10 10 10 10 10 10 10 10 10 10 10 10 10 10 10 10 10 10 10 10 10 10 10 10 10 10 10 10 10 10 10 10 10 10 10 10 10 10 10 10 10 10 10 10 10 10 10 10 10 10 10 10 10 10 10 10 10 10 10 10 10 10 10 10 10 10 10 10 10 10 10 10 10 10 10 10 10 10 10 10 10 10 10 10 10 10 10 10 10 10 10 10 10 10 10 10 10 10 10 10 10 10 10 10 10 10 10 10 10 10 10 10 10 10 10 10 10 10 10 10 10 10 10 10 10 10 10 10 10 10 10 10 10 10 10 10 10 10 10 10 10 10 10 10 10 10 10 10 10 10 10 10 10 10 10 10 10 10 10 10 10 10 10 10 10 10 10 10 10 10 10 10 10 10 10 10 10 10 10 10 10 10 10 10 10 10 10 10 10 10 10 10 10 10 10 10 10 10 10 10 10 10 10 10 10 10 10 10 10 10 10 10 10 10 10 10 10 10 10 10 10 10 10 10 10 10 10 10 10 10 10 10 10 10 10 10 10 10 10 10 10 10 10 10 10 10 10 10 10 10 10 10 10 10 10 10 10 10 10 10 10 10 10 10 10 10 10 10 10 10 10 10 10 10 10 10 10 10 10 10 10 10 10 10 10 10 10 10 10 10 10 10 10 10 10 10 10 10 10 10 10 10 10 10 10 10 10 10 10 10 10 10 10 10 10 10 10 10 10 10 10 10 10 10 10 10 10 10 10 10 10 10 10 10 10 10 10 10 10 10 10 10 10 10 10 10 10 10 10 10 10 10 10 10 10 10 10 10 10 10 10 10 10 10 10 10 10 10 10 10 10 10 10 10 10 10 10 10 10 10 10 10 10 10 10 10 10 10 10 10 10 10 10 10 10 10 10 10 10 10 10 10 10 10 10 10 10 10 10 10 10 10 10 10 10 10 10 10 10 10 10 10 10 10 10 10 10 10 10 10 10 10 10 10 10 10 10 10 10 10 10 10 10 10 10 10 10 10 10 10 10 10 10 10 10 10 10 10 10 10 10 10 10 10 10 10 10 10 10 10 10 10 10 10 10 10 10 10 10 10 10 10 10 10 10 10 10 10 10 10 10 10 10 10 10 10 10 10 10 10 10 10 10 10 10 10 10 10 10 10 10 10 10 10 10 10 10 10 10 10 10 10 10 10 10 10 10 10 10 10 10 10 10 10 10 10 10 10 10 10 10 10 10 10 10 10 10 10 10 10 10 10 10 10 10 10 10 10 10 10 10 10 10 10 10 10 10 10 10 10 10 10 10 10 10 10 10 10 10 10 10 10 10 10 10 10 10 10 10 10 10 10 10 10 10 10 10 10 10 10 10 10 10 10 10 10 10 10 10 10 10 10 10 10 10 10 10 10 10 10 10 10 10 10 10 10 10 10 10 10 10 10 10 10 10 10 10 10 10 10 10 10 10 10 10 10 10 10 10 10 10 10 10 10 10 10 10 10 10 10 10 10 10 10 10 10 10 10 10 10 10 10 10 10 10 10 10 10 10 10 10 10 10 10 10 10 10 10 10 10 10 10 10 10 10 10 10 10 10 10 10 10 10 10 10 10 10 10 10 10 10 10 10 10 10 10 10 10 10 10 10 10 10 10 10 10 10 10 10 10 10 10 10 10 10 10 10 10 10 10 10 10 10 10 10 10 10 10 10 10 10 10 10 10 10 10 10 10 10 10 10 10 10 10 10 10 10 10 10 10 10 10 10 10 10 10 10 10 10 10 10 10 10 10 10 10 10 10 10 10 10 10 10 10 10 10 10 10 10 10 10 10 10 10 10 10 10 10 10 10 10 10 10 10 10 10 10 10 10 10 10 10 10 10 10 10 10 10 10 10 10 10 10 10 10 10 10 10 10 10 10 10 10 10 10 10 10 10 10 10 10 10 10 10 10 10 10 10 10 10 10 10 10 10 10 10 10 10 10 10 10 10 10 10 10 10 10 10 10 10 10 10 10 10 10 10 10 10 10 10 10 10 10 10 10 10 10 10 10 10 10 10 10 10 10 10 10 10 10 10 10 10 10 10 10 10 10 10 10 10 10 10 10 10 10 10 10 10 10 10 10 10 10 10 10 10 10 10 10 10 10 10 10 10 10 10 10 10 10 10 10 10 10 10 10 10 10 10 10 10 10 10 10 10 10 10 10 10 10 10 10 10 10 10 10 10 10 10 10 10 10 10 10 10 10 10 10 10 10 10 10 10 10 10 10 10 10 10 10 10 10 10 10 10 10 10 10 10 10 10 10 10 10 10 10 10 10 10 10 10 10 10 10 10 10 10 10 10 10 10 10 10 10 10 10 10 10 10 10 10 10 10 10 10 10 10 10 10 10 10 10 10 10 10 10 10 10 10 10 10 10 10 10 10 10 10 10 10 10 10 10 10 10 10 10 10 10 10 10 10 10 10 10 10 10 10 10 10 10 10 10 10 10 10 10 10 10 10 10 10 10 10 10 10 10 10 10 10 10 10 10 10 10 10 10 10 10 10 10 10 10 10 10 10 10 10 10 10 10 10 10 10 10 10 10 10 10 10 10 10 10 10 10 10 10 10 10 10 10 10 10 10 10 10 10 10 10 10 10 10 10 10 10 10 10 10 10 10 10 10 10 10 10 10 10 10 10 10 10 10 10 10 10 10 10 10 10 10 10 10 10 10 10 10 10 10 10 10 10 10 10 10 10 10 10 10 10 10 10 10 10 10 10 10 10 10 10 10 10 10 10 10 10 10 10 10 10 10 10 10 10 10 10 10 10 10 10 10 10 10 10 10 10 10 10 10 10 10 10 10 10 10 10 10 10 10 10 10 10 10 10 10 10 10 10 10 10 10 10 10 10 10 10 10 10 10 10 10 10 10 10 10 10 10 10 10 10 10 10 10 10 10 10 10 10 10 10 10 10 10 10 10 10 10 10 10 10 10 10 10 10 10 10 10 10 10 10 10 10 10 10 10 10 10 10 10 10 10 10 10 10 10 10 10 10 10 10 10 10 10 10 10 10 10 10 10 10 10 10 10 10 10 10 10 10 10 10 10 10 10 10 10 10 10 10 10 10 10 10 10 10 10 10 10 10 10 10 10 10 10 10 10 10 10 10 10 10 10 10 10 10 10 10 10 10 10 10 10 10 10 10 10 10 10 10 10 10 10 10 10 10 10 10 10 10 10 10 10 10 10 10 10 10 10 10 10 10 10 10 10 10 10 10 10 10 10 10 10 10 10 10 10 10 10 10 10 10 10 10 10 10 10 10 10 10 10 10 10 10 10 10 10 10 10 10 10 10 10 10 10 10 10 10 10 10 10 10 10 10 10 10 10 10 10 10 10 10 10 10 10 10 10 10 10 10 10 10 10 10 10 10 10 10 10 10 10 10 10 10 10 10 10 10 10 10 10 10 10 10 10 10 10 10 10 10 10 10 10 10 10 10 10 10 10 10 10 10 10 10 10 10 10 10 10 10 10 10 10 10 10 10 10 10 10 10 10 10 10 10 10 10 10 10 10 10 10 10 10 10 10 10 10 10 10 10 10 10 10 10 10 10 10 10 10 10 10 10 10 10 10 10 10 10 10 10 10 10 10 10 10 10 10 10 10 10 10 10 10 10 10 10 10 10 10 10 10 10 10 10 10 10 10 10 10 10 10 10 10 10 10 10 10 10 10 10 10 10 10 10 10 10 10 10 10 10 10 10 10 10 10 10 10 10 10 10 10 10 10 10 10 10 10 10 10 10 10 10 10 10 10 10 10 10 10 10 10 10 10 10 10 10 10 10 10 10 10 10 10 10 10 10 10 10 10 10 10 10 10 10 10 10 10 10 10 10 10 10 10 10 10 10 10 10 10 10 10 10 10 10 10 10 10 10 10 10 10 10 10 10 10 10 10 10 10 10 10 10 10 10 10 10 10 10 10 10 10 10 10 10 10 10 10 10 10 10 10 10 10 10 10 10 10 10 10 10 10 10 10 10 10 10 10 10 10 10 10 10 10 10 10 10 10 10 10 10 10 10 10 10 10 10 10 10 10 10 10 10 10 10 10 10 10 10 10 10 10 10 10 10 10 10 10 10 10 10 10 10 10 10 10 10 10 10 10 10 10 10 10 10 10 10 10 10 10 10 10 10 10 10 10 10 10 10 10 10 10 10 10 10 10 10 10 10 10 10 10 10 10 10 10 10 10 10 10 10 10 10 10 10 10 10 10 10 10 10 10 10 10 10 10 10 10 10 10 10 10 10 10 10 10 10 10 10 10 10 10 10 10 10 10 10 10 10 10 10 10 10 10 10 10 10 10 10 10 10 10 10 10 10 10 10 10 10 10 10 10 10 10 10 10 10 10 10 10 10 10 10 10 10 10 10 10 10 10 10 10 10 10 10 10 10 10 10 10 10 10 10 10 10 10 10 10 10 10 10 10 10 10 10 10 10 10 10 10 10 10 10 10 10 10 10 10 10 10 10 10 10 10 10 10 10 10 10 10 10 10 10 10 10 10 10 10 10 10 10 10 10 10 10 10 10 10 10 10 10 10 10 10 10 10 10 10 10 10 10 10 10 10 10 10 10 10 10 10 10 10 10 10 10 10 10 10 10 10 10 10 10 10 10 10 10 10 10 10 10 10 10 10 10 10 10 10 10 10 10 10 10 10 10 10 10 10 10 10 10 10 10 10 10 10 10 10 10 10 10 10 10 10 10 10 10 10 10 10 10 10 10 10 10 10 10 10 10 10 10 10 10 10 10 10 10 10 10 10 10 10 10 10 10 10 10 10 10 10 10 10 10 10 10 10 10 10 10 10 10 10 10 10 10 10 10 10 10 10 10 10 10 10 10 10 10 10 10 10 10 10 10 10 10 10 10 10 10 10 10 10 10 10 10 10 10 10 10 10 10 10 10 10 10 10 10 10 10 10 10 10 10 10 10 10 10 10 10 10 10 10 10 10 10 10 10 10 10 10 10 10 10 10 10 10 10 10 10 10 10 10 10 10 10 10 10 10 10 10 10 10 10 10 10 10 10 10 10 10 10 10 10 10 10 10 10 10 10 10 10 10 10 10 10 10 10 10 10 10 10 10 10 10 10 10 10 10 10 10 10 10 10 10 10 10 10 10 10 10 10 10 10 10 10 10 10 10 10 10 10 10 10 10 10 10 10 10 10 10 10 10 10 10 10 10 10 10 10 10 10 10 10 10 10 10 10 10 10 10 10 10 10 10 10 10 10 10 10 10 10 10 10 10 10 10 10 10 10 10 10 10 10 10 10 10 10 10 10 10 10 10 10 10 10 10 10 10 10 10 10 10 10 10 10 10 10 10 10 10 10 10 10 10 10 10 10 10 10 10 10 10 10 10 10 10 10 10 10 10 10 10 10 10 10 10 10 10 10 10 10 10 10 10 10 10 10 10 10 10 10 10 10 10 10 10 10 10 10 10 10 10 10 10 10 10 10 10 10 10 10 10 10 10 10 10 10 10 10 10 10 10 10 10 10 10 10 10 10 10 10 10 10 10 10 10 10 10 10 10 10 10 10 10 10 10 10 10 10 10 10 10 10 10 10 10 10 10 10 10 10 10 10 10 10 10 10 10 10 10 10 10 10 10 10 10 10 10 10 10 10 10 10 10 10 10 10 10 10 10 10 10 10 10 10 10 10 10 10 10 10 10 10 10 10 10 10 10 10 10 10 10 10 10 10 10 10 10 10 10 10 10 10 10 10 10 10 10 10 10 10 10 10 10 10 10 10 10 10 10 10 10 10 10 10 10 10 10 10 10 10 10 10 10 10 10 10 10 10 10 10 10 10 10 10 10 10 10 10 10 10 10 10 10 10 10 10 10 10 10 10 10 10 10 10 10 10 10 10 10 10 10 10 10 10 10 10 10 10 10 10 10 10 10 10 10 10 10 10 10 10 10 10 10 10 10 10 10 10 10 10 10 10 10 10 10 10 10 10 10 10 10 10 10 10 10 10 10 10 10 10 10 10 10 10 10 10 10 10 10 10 10 10 10 10 10 10 10 10 10 10 10 10 10 10 10 10 10 10 10 10 10 10 10 10 10 10 10 10 10 10 10 10 10 10 10 10 10 10 10 10 10 10 10 10 10 10 10 10 10 10 10 10 10 10 10 10 10 10 10 10 10 10 10 10 10 10 10 10 10 10 10 10 10 10 10 10 10 10 10 10 10 10 10 10 10 10 10 10 10 10 10 10 10 10 10 10 10 10 10 10 10 10 10 10 10 10 10 10 10 10 10 10 10 10 10 10 10 10 10 10 10 10 10 10 10 10 10 10 10 10 10 10 10 10 10 10 10 10 10 10 10 10 10 10 10 10 10 10 10 10 10 10 10 10 10 10 10 10 10 10 10 10 10 10 10 10 10 10 10 10 10 10 10 10 10 10 10 10 10 10 10 10 10 10 10 10 10 10 10 10 10 10 10 10 10 10 10 10 10 10 10 10 10 10 10 10 10 10 10 10 10 10 10 10 10 10 10 10 10 10 10 10 10 10 10 10 10 10 10 10 10 10 10 10 10 10 10 10 10 10 10 10 10 10 10 10 10 10 10 10 10 10 10 10 10 10 10 10 10 10 10 10 10 10 10 10 10 10 10 10 10 10 10 10 10 10 10 10 10 10 10 10 10 10 10 10 10 10 10 10 10 10 10 10 10 10 10 10 10 10 10 10 10 10 10 10 10 10 10 10 10 10 10 10 10 10 10 10 10 10 10 10 10 10 10 10 10 10 10 10 10 10 10 10 10 10 10 10 10 10 10 10 10 10 10 10 10 10 10 10 10 10 10 10 10 10 10 10 10 10 10 10 10 10 10 10 10 10 10 10 10 10 10 10 10 10 10 10 10 10 10 10 10 10 10 10 10 10 10 10 10 10 10 10 10 10 10 10 10 10 10 10 10 10 10 10 10 10 10 10 10 10 10 10 10 10 10 10 10 10 10 10 10 10 10 10 10 10 10 10 10 10 10 10 10 10 10 10 10 10 10 10 10 10 10 10 10 10 10 10 10 10 10 10 10 10 10 10 10 10 10 10 10 10 10 10 10 10 10 10 10 10 10 10 10 10 10 10 10 10 10 10 10 10 10 10 10 10 10 10 10 10 10 10 10 10 10 10 10 10 10 10 10 10 10 10 10 10 10 10 10 10 10 10 10 10 10 10 10 10 10 10 10 10 10 10 10 10 10 10 10 10 10 10 10 10 10 10 10 10 10 10 10 10 10 10 10 10 10 10 10 10 10 10 10 10 10 10 10 10 10 10 10 10 10 10 10 10 10 10 10 10 10 10 10 10 10 10 10 10 10 10 10 10 10 10 10 10 10 10 10 10 10 10 10 10 10 10 10 10 10 10 10 10 10 10 10 10 10 10 10 10 10 10 10 10 10 10 10 10 10 10 10 10 10 10 10 10 10 10 10 10 10 10 10 10 10 10 10 10 10 10 10 10 10 10 10 10 10 10 10 10 10 10 10 10 10 10 10 10 10 10 10 10 10 10 10 10 10 10 10 10 10 10 10 10 10 10 10 10 10 10 10 10 10 10 10 10 10 10 10 10 10 10 10 10 10 10 10 10 10 10 10 10 10 10 10 10 10 10 10 10 10 10 10 10 10 10 10 10 10 10 10 10 10 10 10 10 10 10 10 10 10 10 10 10 10 10 10 10 10 10 10 10 10 10 10 10 10 10 10 10 10 10 10 10 10 10 10 10 10 10 10 10 10 10 10 10 10 10 10 10 10 10 10 10 10 10 10 10 10 10 10 10 10 10 10 10 10 10 10 10 10 10 10 10 10 10 10 10 10 10 10 10 10 10 10 10 10 10 10 10 10 10 10 10 10 10 10 10 10 10 10 10 10 10 10 10 10 10 10 10 10 10 10 10 10 10 10 10 10 10 10 10 10 10 10 10 10 10 10 10 10 10 10 10 10 10 10 10 10 10 10 10 10 10 10 10 10 10 10 10 10 10 10 10 10 10 10 10 10 10 10 10 10 10 10 10 10 10 10 10 10 10 10 10 10 10 10 10 10 10 10 10 10 10 10 10 10 10 10 10 10 10 10 10 10 10 10 10 10 10 10 10 10 10 10 10 10 10 10 10 10 10 10 10 10 10 10 10 10 10 10 10 10 10 10 10 10 10 10 10 10 10 10 10 10 10 10 10 10 10 10 10 10 10 10 10 10 10 10 10 10 10 10 10 10 10 10 10 10 10 10 10 10 10 10 10 10 10 10 10 10 10 10 10 10 10 10 10 10 10 10 10 10 10 10 10 10 10 10 10 10 10 10 10 10 10 10 10 10 10 10 10 10 10 10 10 10 10 10 10 10 10 10 10 10 10 10 10 10 10 10 10 10 10 10 10 10 10 10 10 10 10 10 10 10 10 10 10 10 10 10 10 10 10 10 10 10 10 10 10 10 10 10 10 10 10 10 10 10 10 10 10 10 10 10 10 10 10 10 10 10 10 10 10 10 10 10 10 10 10 10 10 10 10 10 10 10 10 10 10 10 10 10 10 10 10 10 10 10 10 10 10 10 10 10 10 10 10 10 10 10 10 10 10 10 10 10 10 10 10 10 10 10 10 10 10 10 10 10 10 10 10 10 10 10 10 10 10 10 10 10 10 10 10 10 10 10 10 10 10 10 10 10 10 10 10 10 10 10 10 10 10 10 10 10 10 10 10 10 10 10 10 10 10 10 10 10 10 10 10 10 10 10 10 10 10 10 10 10 10 10 10 10 10 10 10 10 10 10 10 10 10 10 10 10 10 10 10 10 10 10 10 10 10 10 10 10 10 10 10 10 10 10 10 10 10 10 10 10 10 10 10 10 10 10 10 10 10 10 10 10 10 10 10 10 10 10 10 10 10 10 10 10 10 10 10 10 10 10 10 10 10 10 10 10 10 10 10 10 10 10 10 10 10 10 10 10 10 10 10 10 10 10 10 10 10 10 10 10 10 10 10 10 10 10 10 10 10 10 10 10 10 10 10 10 10 10 10 10 10 10 10 10 10 10 10 10 10 10 10 10 10 10 10 10 10 10 10 10 10 10 10 10 10 10 10 10 10 10 10 10 10 10 10 10 10 10 10 10 10 10 10 10 10 10 10 10 10 10 10 10 10 10 10 10 10 10 10 10 10 10 10 10 10 10 10 10 10 10 10 10 10 10 10 10 10 10 10 10 10 10 10 10 10 10 10 10 10 10 10 10 10 10 10 10 10 10 10 10 10 10 10 10 10 10 10 10 10 10 10 10 10 10 10 10 10 10 10 10 10 10 10 10 10 10 10 10 10 10 10 10 10 10 10 10 10 10 10 10 10 10 10 10 10 10 10 10 10 10 10 10 10 10 10 10 10 10 10 10 10 10 10 10 10 10 10 10 10 10 10 10 10 10 10 10 10 10 10 10 10 10 10 10 10 10 10 10 10 10 10 10 10 10 10 10 10 10 10 10 10 10 10 10 10 10 10 10 10 10 10 10 10 10 10 10 10 10 10 10 10 10 10 10 10 10 10 10 10 10 10 10 10 10 10 10 10 10 10 10 10 10 10 10 10 10 10 10 10 10 10 10 10 10 10 10 10 10 10 10 10 10 10 10 10 10 10 10 10 10 10 10 10 10 10 10 10 10 10 10 10 10 10 10 10 10 10 10 10 10 10 10 10 10 10 10 10 10 10 10 10 10 10 10 10 10 10 10 10 10 10 10 10 10 10 10 10 10 10 10 10 10 10 10 10 10 10 10 10 10 10 10 10 10 10 10 10 10 10 10 10 10 10 10 10 10 10 10 10 10 10 10 10 10 10 10 10 10 10 10 10 10 10 10 10 10 10 10 10 10 10 10 10 10 10 10 10 10 10 10 10 10 10 10 10 10 10 10 10 10 10 10 10 10 10 10 10 10 10 10 10 10 10 10 10 10 10 10 10 10 10 10 10 10 10 10 10 10 10 10 10 10 10 10 10 10 10 10 10 10 10 10 10 10 10 10 10 10 10 10 10 10 10 10 10 10 10 10 10 10 10 10 10 10 10 10 10 10 10 10 10 10 10 10 10 10 10 10 10 10 10 10 10 10 10 10 10 10 10 10 10 10 10 10 10 10 10 10 10 10 10 10 10 10 10 10 10 10 10 10 10 10 10 10 10 10 10 10 10 10 10 10 10 10 10 10 10 10 10 10 10 10 10 10 10 10 10 10 10 10 10 10 10 10 10 10 10 10 10 10 10 10 10 10 10 10 10 10 10 10 10 10 10 10 10 10 10 10 10 10 10 10 10 10 10 10 10 10 10 10 10 10 10 10 10 10 10 10 10 10 10 10 10 10 10 10 10 10 10 10 10 10 10 10 10 10 10 10 10 10 10 10 10 10 10 10 10 10 10 10 10 10 10 10 10 10 10 10 10 10 10 10 10 10 10 10 10 10 10 10 10 10 10 10 10 10 10 10 10 10 10 10 10 10 10 10 10 10 10 10 10 10 10 10 10 10 10 10 10 10 10 10 10 10 10 10 10 10 10 10 10 10 10 10 10 10 10 10 10 10 10 10 10 10 10 10 10 10 10 10 10 10 10 10 10 10 10 10 10 10 10 10 10 10 10 10 10 10 10 10 10 10 10 10 10 10 10 10 10 10 10 10 10 10 10 10 10 10 10 10 10 10 10 10 10 10 10 10 10 10 10 10 10 10 10 10 10 10 10 10 10 10 10 10 10 10 10 10 10 10 10 10 10 10 10 10 10 10 10 10 10 10 10 10 10 10 10 10 10 10 10 10 10 10 10 10 10 10 10 10 10 10 10 10 10 10 10 10 10 10 10 10 10 10 10 10 10 10 10 10 10 10 10 10 10 10 10 10 10 10 10 10 10 10 10 10 10 10 10 10 10 10 10 10 10 10 10 10 10 10 10 10 10 10 10 10 10 10 10 10 10 10 10 10 10 10 10 10 10 10 10 10 10 10 10 10 10 10 10 10 10 10 10 10 10 10 10 10 10 10 10 10 10 10 10 10 10 10 10 10 10 10 10 10 10 10 10 10 10 10 10 10 10 10 10 10 10 10 10 10 10 10 10 10 10 10 10 10 10 10 10 10 10 10 10 10 10 10 10 10 10 10 10 10 10 10 10 10 10 10 10 10 10 10 10 10 10 10 10 10 10 10 10 10 10 10 10 10 10 10 10 10 10 10 10 10 10 10 10 10 10 10 10 10 10 10 10 10 10 10 10 10 10 10 10 10 10 10 10 10 10 10 10 10 10 10 10 10 10 10 10 10 10 10 10 10 10 10 10 10 10 10 10 10 10 10 10 10 10 10 10 10 10 10 10 10 10 10 10 10 10 10 10 10 10 10 10 10 10 10 10 10 10 10 10 10 10 10 10 10 10 10 10 10 10 10 10 10 10 10 10 10 10 10 10 10 10 10 10 10 10 10 10 10 10 10 10 10 10 10 10 10 10 10 10 10 10 10 10 10 10 10 10 10 10 10 10 10 10 10 10 10 10 10 10 10 10 10 10 10 10 10 10 10 10 10 10 10 10 10 10 10 10 10 10 10 10 10 10 10 10 10 10 10 10 10 10 10 10 10 10 10 10 10 10 10 10 10 10 10 10 10 10 10 10 10 10 10 10 10 10 10 10 10 10 10 10 10 10 10 10 10 10 10 10 10 10 10 10 10 10 10 10 10 10 10 10 10 10 10 10 10 10 10 10 10 10 10 10 10 10 10 10 10 10 10 10 10 10 10 10 10 10 10 10 10 10 10 10 10 10 10 10 10 10 10 10 10 10 10 10 10 10 10 10 10 10 10 10 10 10 10 10 10 10 10 10 10 10 10 10 10 10 10 10 10 10 10 10 10 10 10 10 10 10 10 10 10 10 10 10 10 10 10 10 10 10 10 10 10 10 10 10 10 10 10 10 10 10 10 10 10 10 10 10 10 10 10 10 10 10 10 10 10 10 10 10 10 10 10 10 10 10 10 10 10 10 10 10 10 10 10 10 10 10 10 10 10 10 10 10 10 10 10 10 10 10 10 10 10 10 10 10 10 10 10 10 10 10 10 10 10 10 10 10 10 10 10 10 10 10 10 10 10 10 10 10 10 10 10 10 10 10 10 10 10 10 10 10 10 10 10 10 10 10 10 10 10 10 10 10 10 10 10 10 10 10 10 10 10 10 10 10 10 10 10 10 10 10 10 10 10 10 10 10 10 10 10 10 10 10 10 10 10 10 10 10 10 10 10 10 10 10 10 10 10 10 10 10 10 10 10 10 10 10 10 10 10 10 10 10 10 10 10 10 10 10 10 10 10 10 10 10 10 10 10 10 10 10 10 10 10 10 10 10 10 10 10 10 10 10 10 10 10 10 10 10 10 10 10 10 10 10 10 10 10 10 10 10 10 10 10 10 10 10 10 10 10 10 10 10 10 10 10 10 10 10 10 10 10 10 10 10 10 10 10 10 10 10 10 10 10 10 10 10 10 10 10 10 10 10 10 10 10 10 10 10 10 10 10 10 10 10 10 10 10 10 10 10 10 10 10 10 10 10 10 10 10 10 10 10 10 10 10 10 10 10 10 10 10 10 10 10 10 10 10 10 10 10 10 10 10 10 10 10 10 10 10 10 10 10 10 10 10 10 10 10 10 10 10 10 10 10 10 10 10 10 10 10 10 10 10 10 10 10 10 10 10 10 10 10 10 10 10 10 10 10 10 10 10 10 10 10 10 10 10 10 10 10 10 10 10 10 10 10 10 10 10 10 10 10 10 10 10 10 10 10 10 10 10 10 10 10 10 10 10 10 10 10 10 10 10 10 10 10 10 10 10 10 10 10 10 10 10 10 10 10 10 10 10 10 10 10 10 10 10 10 10 10 10 10 10 10 10 10 10 10 10 10 10 10 10 10 10 10 10 10 10 10 10 10 10 10 10 10 10 10 10 10 10 10 10 10 10 10 10 10 10 10 10 10 10 10 10 10 10 10 10 10 10 10 10 10 10 10 10 10 10 10 10 10 10 10 10 10 10 10 10 10 10 10 10 10 10 10 10 10 10 10 10 10 10 10 10 10 10 10 10 10 10 10 10 10 10 10 10 10 10 10 10 10 10 10 10 10 10 10 10 10 10 10 10 10 10 10 10 10 10 10 10 10 10 10 10 10 10 10 10 10 10 10 10 10 10 10 10 10 10 10 10 10 10 10 10 10 10 10 10 10 10 10 10 10 10 10 10 10 10 10 10 10 10 10 10 10 10 10 10 10 10 10 10 10 10 10 10 10 10 10 10 10 10 10 10 10 10 10 10 10 10 10 10 10 10 10 10 10 10 10 10 10 10 10 10 10 10 10 10 10 10 10 10 10 10 10 10 10 10 10 10 10 10 10 10 10 10 10 10 10 10 10 10 10 10 10 10 10 10 10 10 10 10 10 10 10 10 10 10 10 10 10 10 10 10 10 10 10 10 10 10 10 10 10 10 10 10 10 10 10 10 10 10 10 10 10 10 10 10 10 10 10 10 10 10 10 10 10 10 10 10 10 10 10 10 10 10 10 10 10 10 10 10 10 10 10 10 10 10 10 10 10 10 10 10 10 10 10 10 10 10 10 10 10 10 10 10 10 10 10 10 10 10 10 10 10 10 10 10 10 10 10 10 10 10 10 10 10 10 10 10 10 10 10 10 10 10 10 10 10 10 10 10 10 10 10 10 10 10 10 10 10 10 10 10 10 10 10 10 10 10 10 10 10 10 10 10 10 10 10 10 10 10 10 10 10 10 10 10 10 10 10 10 10 10 10 10 10 10 10 10 10 10 10 10 10 10 10 10 10 10 10 10 10 10 10 10 10 10 10 10 10 10 10 10 10 10 10 10 10 10 10 10 10 10 10 10 10 10 10 10 10 10 10 10 10 10 10 10 10 10 10 10 10 10 10 10 10 10 10 10 10 10 10 10 10 10 10 10 10 10 10 10 10 10 10 10 10 10 10 10 10 10 10 10 10 10 10 10 10 10 10 10 10 10 10 10 10 10 10 10 10 10 10 10 10 10 10 10 10 10 10 10 10 10 10 10 10 10 10 10 10 10 10 10 10 10 10 10 10 10 10 10 10 10 10 10 10 10 10 10 10 10 10 10 10 10 10 10 10 10 10 10 10 10 10 10 10 10 10 10 10 10 10 10 10 10 10 10 10 10 10 10 10 10 10 10 10 10 10 10 10 10 10 10 10 10 10 10 10 10 10 10 10 10 10 10 10 10 10 10 10 10 10 10 10 10 10 10 10 10 10 10 10 10 10 10 10 10 10 10 10 10 10 10 10 10 10 10 10 10 10 10 10 10 10 10 10 10 10 10 10 10 10 10 10 10 10 10 10 10 10 10 10 10 10 10 10 10 10 10 10 10 10 10 10 10 10 10 10 10 10 10 10 10 10 10 10 10 10 10 10 10 10 10 10 10 10 10 10 10 10 10 10 10 10 10 10 10 10 10 10 10 10 10 10 10 10 10 10 10 10 10 10 10 10 10 10 10 10 10 10 10 10 10 10 10 10 10 10 10 10 10 10 10 10 10 10 10 10 10 10 10 10 10 10 10 10 10 10 10 10 10 10 10 10 10 10 10 10 10 10 10 10 10 10 10 10 10 10 10 10 10 10 10 10 10 10 10 10 10 10 10 10 10 10 10 10 10 10 10 10 10 10 10 10 10 10 10 10 10 10 10 10 10 10 10 10 10 10 10 10 10 10 10 10 10 10 10 10 10 10 10 10 10 10 10 10 10 10 10 10 10 10 10 10 10 10 10 10 10 10 10 10 10 10 10 10 10 10 10 10 10 10 10 10 10 10 10 10 10 10 10 10 10 10 10 10 10 10 10 10 10 10 10 10 10 10 10 10 10 10 10 10 10 10 10 10 10 10 10 10 10 10 10 10 10 10 10 10 10 10 10 10 10 10 10 10 10 10 10 10 10 10 10 10 10 10 10 10 10 10 10 10 10 10 10 10 10 10 10 10 10 10 10 10 10 10 10 10 10 10 10 10 10 10 10 10 10 10 10 10 10 10 10 10 10 10 10 10 10 10 10 10 10 10 10 10 10 10 10 10 10 10 10 10 10 10 10 10 10 10 10 10 10 10 10 10 10 10 10 10 10 10 10 10 10 10 10 10 10 10 10 10 10 10 10 10 10 10 10 10 10 10 10 10 10 10 10 10 10 10 10 10 10 10 10 10 10 10 10 10 10 10 10 10 10 10 10 10 10 10 10 10 10 10 10 10 10 10 10 10 10 10 10 10 10 10 10 10 10 10 10 10 10 10 10 10 10 10 10 10 10 10 10 10 10 10 10 10 10 10 10 10 10 10 10 10 10 10 10 10 10 10 10 10 10 10 10 10 10 10 10 10 10 10 10 10 10 10 10 10 10 10 10 10 10 10 10 10 10 10 10 10 10 10 10 10 10 10 10 10 10 10 10 10 10 10 10 10 10 10 10 10 10 10 10 10 10 10 10 10 10 10 10 10 10 10 10 10 10 10 10 10 10 10 10 10 10 10 10 10 10 10 10 10 10 10 10 10 10 10 10 10 10 10 10 10 10 10 10 10 10 10 10 10 10 10 10 10 10 10 10 10 10 10 10 10 10 10 10 10 10 10 10 10 10 10 10 10 10 10 10 10 10 10 10 10 10 10 10 10 10 10 10 10 10 10 10 10 10 10 10 10 10 10 10 10 10 10 10 10 10 10 10 10 10 10 10 10 10 10 10 10 10 10 10 10 10 10 10 10 10 10 10 10 10 10 10 10 10 10 10 10 10 10 10 10 10 10 10 10 10 10 10 10 10 10 10 10 10 10 10 10 10 10 10 10 10 10 10 10 10 10 10 10 10 10 10 10 10 10 10 10 10 10 10 10 10 10 10 10 10 10 10 10 10 10 10 10 10 10 10 10 10 10 10 10 10 10 10 10 10 10 10 10 10 10 10 10 10 10 10 10 10 10 10 10 10 10 10 10 10 10 10 10 10 10 10 10 10 10 10 10 10 10 10 10 10 10 10 10 10 10 10 10 10 10 10 10 10 10 10 10 10 10 10 10 10 10 10 10 10 10 10 10 10 10 10 10 10 10 10 10 10 10 10 10 10 10 10 10 10 10 10 10 10 10 10 10 10 10 10 10 10 10 10 10 10 10 10 10 10 10 10 10 10 10 10 10 10 10 10 10 10 10 10 10 10 10 10 10 10 10 10 10 10 10 10 10 10 10 10 10 10 10 10 10 10 10 10 10 10 10 10 10 10 10 10 10 10 10 10 10 10 10 10 10 10 10 10 10 10 10 10 10 10 10 10 10 10 10 10 10 10 10 10 10 10 10 10 10 10 10 10 10 10 10 10 10 10 10 10 10 10 10 10 10 10 10 10 10 10 10 10 10 10 10 10 10 10 10 10 10 10 10 10 10 10 10 10 10 10 10 10 10 10 10 10 10 10 10 10 10 10 10 10 10 10 10 10 10 10 10 10 10 10 10 10 10 10 10 10 10 10 10 10 10 10 10 10 10 10 10 10 10 10 10 10 10 10 10 10 10 10 10 10 10 10 10 10 10 10 10 10 10 10 10 10 10 10 10 10 10 10 10 10 10 10 10 10 10 10 10 10 10 10 10 10 10 10 10 10 10 10 10 10 10 10 10 10 10 10 10 10 10 10 10 10 10 10 10 10 10 10 10 10 10 10 10 10 10 10 10 10 10 10 10 10 10 10 10 10 10 10 10 10 10 10 10 10 10 10 10 10 10 10 10 10 10 10 10 10 10 10 10 10 10 10 10 10 10 10 10 10 10 10 10 10 10 10 10 10 10 10 10 10 10 10 10 10 10 10 10 10 10 10 10 10 10 10 10 10 10 10 10 10 10 10 10 10 10 10 10 10 10 10 10 10 10 10 10 10 10 10 10 10 10 10 10 10 10 10 10 10 10 10 10 10 10 10 10 10 10 10 10 10 10 10 10 10 10 10 10 10 10 10 10 10 10 10 10 10 10 10 10 10 10 10 10 10 10 10 10 10 10 10 10 10 10 10 10 10 10 10 10 10 10 10 10 10 10 10 10 10 10 10 10 10 10 10 10 10 10 10 10 10 10 10 10 10 10 10 10 10 10 10 10 10 10 10 10 10 10 10 10 10 10 10 10 10 10 10 10 10 10 10 10 10 10 10 10 10 10 10 10 10 10 10 10 10 10 10 10 10 10 10 10 10 10 10 10 10 10 10 10 10 10 10 10 10 10 10 10 10 10 10 10 10 10 10 10 10 10 10 10 10 10 10 10 10 10 10 10 10 10 10 10 10 10 10 10 10 10 10 10 10 10 10 10 10 10 10 10 10 10 10 10 10 10 10 10 10 10 10 10 10 10 10 10 10 10 10 10 10 10 10 10 10 10 10 10 10 10 10 10 10 10 10 10 10 10 10 10 10 10 10 10 10 10 10 10 10 10 10 10 10 10 10 10 10 10 10 10 10 10 10 10 10 10 10 10 10 10 10 10 10 10 10 10 10 10 10 10 10 10 10 10 10 10 10 10 10 10 10 10 10 10 10 10 10 10 10 10 10 10 10 10 10 10 10 10 10 10 10 10 10 10 10 10 10 10 10 10 10 10 10 10 10 10 10 10 10 10 10 10 10 10 10 10 10 10 10 10 10 10 10 10 10 10 10 10 10 10 10 10 10 10 10 10 10 10 10 10 10 10 10 10 10 10 10 10 10 10 10 10 10 10 10 10 10 10 10 10 10 10 10 10 10 10 10 10 10 10 10 10 10 10 10 10 10 10 10 10 10 10 10 10 10 10 10 10 10 10 10 10 10 10 10 10 10 10 10 10 10 10 10 10 10 10 10 10 10 10 10 10 10 10 10 10 10 10 10 10 10 10 10 10 10 10 10 10 10 10 10 10 10 10 10 10 10 10 10 10 10 10 10 10 10 10 10 10 10 10 10 10 10 10 10 10 10 10 10 10 10 10 10 10 10 10 10 10 10 10 10 10 10 10 10 10 10 10 10 10 10 10 10 10 10 10 10 10 10 10 10 10 10 10 10 10 10 10 10 10 10 10 10 10 10 10 10 10 10 10 10 10 10 10 10 10 10 10 10 10 10 10 10 10 10 10 10 10 10 10 10 10 10 10 10 10 10 10 10 10 10 10 10 10 10 10 10 10 10 10 10 10 10 10 10 10 10 10 10 10 10 10 10 10 10 10 10 10 10 10 10 10 10 10 10 10 10 10 10 10 10 10 10 10 10 10 10 10 10 10 10 10 10 10 10 10 10 10 10 10 10 10 10 10 10 10 10 10 10 10 10 10 10 10 10 10 10 10 10 10 10 10 10 10 10 10 10 10 10 10 10 10 10 10 10 10 10 10 10 10 10 10 10 10 10 10 10 10 10 10 10 10 10 10 10 10 10 10 10 10 10 10 10 10 10 10 10 10 10 10 10 10 10 10 10 10 10 10 10 10 10 10 10 10 10 10 10 10 10 10 10 10 10 10 10 10 10 10 10 10 10 10 10 10 10 10 10 10 10 10 10 10 10 10 10 10 10 10 10 10 10 10 10 10 10 10 10 10 10 10 10 10 10 10 10 10 10 10 10 10 10 10 10 10 10 10 10 10 10 10 10 10 10 10 10 10 10 10 10 10 10 10 10 10 10 10 10 10 10 10 10 10 10 10 10 10 10 10 10 10 10 10 10 10 10 10 10 10 10 10 10 10 10 10 10 10 10 10 10 10 10 10 10 10 10 10 10 10 10 10 10 10 10 10 10 10 10 10 10 10 10 10 10 10 10 10 10 10 10 10 10 10 10 10 10 10 10 10 10 10 10 10 10 10 10 10 10 10 10 10 10 10 10 10 10 10 10 10 10 10 10 10 10 10 10 10 10 10 10 10 10 10 10 10 10 10 10 10 10 10 10 10 10 10 10 10 10 10 10 10 10 10 10 10 10 10 10 10 10 10 10 10 10 10 10 10 10 10 10 10 10 10 10 10 10 10 10 10 10 10 10 10 10 10 10 10 10 10 10 10 10 10 10 10 10 10 10 10 10 10 10 10 10 10 10 10 10 10 10 10 10 10 10 10 10 10 10 10 10 10 10 10 10 10 10 10 10 10 10 10 10 10 10 10 10 10 10 10 10 10 10 10 10 10 10 10 10 10 10 10 10 10 10 10 10 10 10 10 10 10 10 10 10 10 10 10 10 10 10 10 10 10 10 10 10 10 10 10 10 10 10 10 10 10 10 10 10 10 10 10 10 10 10 10 10 10 10 10 10 10 10 10 10 10 10 10 10 10 10 10 10 10 10 10 10 10 10 10 10 10 10 10 10 10 10 10 10 10 10 10 10 10 10 10 10 10 10 10 10 10 10 10 10 10 10 10 10 10 10 10 10 10 10 10 10 10 10 10 10 10 10 10 10 10 10 10 10 10 10 10 10 10 10 10 10 10 10 10 10 10 10 10 10 10 10 10 10 10 10 10 10 10 10 10 10 10 10 10 10 10 10 10 10 10 10 10 10 10 10 10 10 10 10 10 10 10 10 10 10 10 10 10 10 10 10 10 10 10 10 10 10 10 10 10 10 10 10 10 10 10 10 10 10 10 10 10 10 10 10 10 10 10 10 10 10 10 10 10 10 10 10 10 10 10 10 10 10 10 10 10 10 10 10 10 10 10 10 10 10 10 10 10 10 10 10 10 10 10 10 10 10 10 10 10 10 10 10 10 10 10 10 10 10 10 10 10 10 10 10 10 10 10 10 10 10 10 10 10 10 10 10 10 10 10 10 10 10 10 10 10 10 10 10 10 10 10 10 10 10 10 10 10 10 10 10 10 10 10 10 10 10 10 10 10 10 10 10 10 10 10 10 10 10 10 10 10 10 10 10 10 10 10 10 10 10 10 10 10 10 10 10 10 10 10 10 10 10 10 10 10 10 10 10 10 10 10 10 10 10 10 10 10 10 10 10 10 10 10 10 10 10 10 10 10 10 10 10 10 10 10 10 10 10 10 10 10 10 10 10 10 10 10 10 10 10 10 10 10 10 10 10 10 10 10 10 10 10 10 10 10 10 10 10 10 10 10 10 10 10 10 10 10 10 10 10 10 10 10 10 10 10 10 10 10 10 10 10 10 10 10 10 10 10 10 10 10 10 10 10 10 10 10 10 10 10 10 10 10 10 10 10 10 10 10 10 10 10 10 10 10 10 10 10 10 10 10 10 10 10 10 10 10 10 10 10 10 10 10 10 10 10 10 10 10 10 10 10 10 10 10 10 10 10 10 10 10 10 10 10 10 10 10 10 10 10 10 10 10 10 10 10 10 10 10 10 10 10 10 10 10 10 10 10 10 10 10 10 10 10 10 10 10 10 10 10 10 10 10 10 10 10 10 10 10 10 10 10 10 10 10 10 10 10 10 10 10 10 10 10 10 10 10 10 10 10 10 10 10 10 10 10 10 10 10 10 10 10 10 10 10 10 10 10 10 10 10 10 10 10 10 10 10 10 10 10 10 10 10 10 10 10 10 10 10 10 10 10 10 10 10 10 10 10 10 10 10 10 10 10 10 10 10 10 10 10 10 10 10 10 10 10 10 10 10 10 10 10 10 10 10 10 10 10 10 10 10 10 10 10 10 10 10 10 10 10 10 10 10 10 10 10 10 10 10 10 10 10 10 10 10 10 10 10 10 10 10 10 10 10 10 10 10 10 10 10 10 10 10 10 10 10 10 10 10 10 10 10 10 10 10 10 10 10 10 10 10 10 10 10 10 10 10 10 10 10 10 10 10 10 10 10 10 10 10 10 10 10 10 10 10 10 10 10 10 10 10 10 10 10 10 10 10 10 10 10 10 10 10 10 10 10 10 10 10 10 10 10 10 10 10 10 10 10 10 10 10 10 10 10 10 10 10 10 10 10 10 10 10 10 10 10 10 10 10 10 10 10 10 10 10 10 10 10 10 10 10 10 10 10 10 10 10 10 10 10 10 10 10 10 10 10 10 10 10 10 10 10 10 10 10 10 10 10 10 10 10 10 10 10 10 10 10 10 10 10 10 10 10 10 10 10 10 10 10 10 10 10 10 10 10 10 10 10 10 10 10 10 10 10 10 10 10 10 10 10 10 10 10 10 10 10 10 10 10 10 10 10 10 10 10 10 10 10 10 10 10 10 10 10 10 10 10 10 10 10 10 10 10 10 10 10 10 10 10 10 10 10 10 10 10 10 10 10 10 10 10 10 10 10 10 10 10 10 10 10 10 10 10 10 10 10 10 10 10 10 10 10 10 10 10 10 10 10 10 10 10 10 10 10 10 10 10 10 10 10 10 10 10 10 10 10 10 10 10 10 10 10 10 10 10 10 10 10 10 10 10 10 10 10 10 10 10 10 10 10 10 10 10 10 10 10 10 10 10 10 10 10 10 10 10 10 10 10 10 10 10 10 10 10 10 10 10 10 10 10 10 10 10 10 10 10 10 10 10 10 10 10 10 10 10 10 10 10 10 10 10 10 10 10 10 10 10 10 10 10 10 10 10 10 10 10 10 10 10 10 10 10 10 10 10 10 10 10 10 10 10 10 10 10 10 10 10 10 10 10 10 10 10 10 10 10 10 10 10 10 10 10 10 10 10 10 10 10 10 10 10 10 10 10 10 10 10 10 10 10 10 10 10 10 10 10 10 10 10 10 10 10 10 10 10 10 10 10 10 10 10 10 10 10 10 10 10 10 10 10 10 10 10 10 10 10 10 10 10 10 10 10 10 10 10 10 10 10 10 10 10 10 10 10 10 10 10 10 10 10 10 10 10 10 10 10 10 10 10 10 10 10 10 10 10 10 10 10 10 10 10 10 10 10 10 10 10 10 10 10 10 10 10 10 10 10 10 10 10 10 10 10 10 10 10 10 10 10 10 10 10 10 10 10 10 10 10 10 10 10 10 10 10 10 10 10 10 10 10 10 10 10 10 10 10 10 10 10 10 10 10 10 10 10 10 10 10 10 10 10 10 10 10 10 10 10 10 10 10 10 10 10 10 10 10 10 10 10 10 10 10 10 10 10 10 10 10 10 10 10 10 10 10 10 10 10 10 10 10 10 10 10 10 10 10 10 10 10 10 10 10 10 10 10 10 10 10 10 10 10 10 10 10 10 10 10 10 10 10 10 10 10 10 10 10 10 10 10 10 10 10 10 10 10 10 10 10 10 10 10 10 10 10 10 10 10 10 10 10 10 10 10 10 10 10 10 10 10 10 10 10 10 10 10 10 10 10 10 10 10 10 10 10 10 10 10 10 10 10 10 10 10 10 10 10 10 10 10 10 10 10 10 10 10 10 10 10 10 10 10 10 10 10 10 10 10 10 10 10 10 10 10 10 10 10 10 10 10 10 10 10 10 10 10 10 10 10 10 10 10 10 10 10 10 10 10 10 10 10 10 10 10 10 10 10 10 10 10 10 10 10 10 10 10 10 10 10 10 10 10 10 10 10 10 10 10 10 10 10 10 10 10 10 10 10 10 10 10 10 10 10 10 10 10 10 10 10 10 10 10 10 10 10 10 10 10 10 10 10 10 10 10 10 10 10 10 10 10 10 10 10 10 10 10 10 10 10 10 10 10 10 10 10 10 10 10 10 10 10 10 10 10 10 10 10 10 10 10 10 10 10 10 10 10 10 10 10 10 10 10 10 10 10 10 10 10 10 10 10 10 10 10 10 10 10 10 10 10 10 10 10 10 10 10 10 10 10 10 10 10 10 10 10 10 10 10 10 10 10 10 10 10 10 10 10 10 10 10 10 10 10 10 10 10 10 10 10 10 10 10 10 10 10 10 10 10 10 10 10 10 10 10 10 10 10 10 10 10 10 10 10 10 10 10 10 10 10 10 10 10 10 10 10 10 10 10 10 10 10 10 10 10 10 10 10 10 10 10 10 10 10 10 10 10 10 10 10 10 10 10 10 10 10 10 10 10 10 10 10 10 10 10 10 10 10 10 10 10 10 10 10 10 10 10 10 10 10 10 10 10 10 10 10 10 10 10 10 10 10 10 10 10 10 10 10 10 10 10 10 10 10 10 10 10 10 10 10 10 10 10 10 10 10 10 10 10 10 10 10 10 10 10 10 10 10 10 10 10 10 10 10 10 10 10 10 10 10 10 10 10 10 10 10 10 10 10 10 10 10 10 10 10 10 10 10 10 10 10 10 10 10 10 10 10 10 10 10 10 10 10 10 10 10 10 10 10 10 10 10 10 10 10 10 10 10 10 10 10 10 10 10 10 10 10 10 10 10 10 10 10 10 10 10 10 10 10 10 10 10 10 10 10 10 10 10 10 10 10 10 10 10 10 10 10 10 10 10 10 10 10 10 10 10 10 10 10 10 10 10 10 10 10 10 10 10 10 10 10 10 10 10 10 10 10 10 10 10 10 10 10 10 10 10 10 10 10 10 10 10 10 10 10 10 10 10 10 10 10 10 10 10 10 10 10 10 10 10 10 10 10 10 10 10 10 10 10 10 10 10 10 10 10 10 10 10 10 10 10 10 10 10 10 10 10 10 10 10 10 10 10 10 10 10 10 10 10 10 10 10 10 10 10 10 10 10 10 10 10 10 10 10 10 10 10 10 10 10 10 10 10 10 10 10 10 10 10 10 10 10 10 10 10 10 10 10 10 10 10 10 10 10 10 10 10 10 10 10 10 10 10 10 10 10 10 10 10 10 10 10 10 10 10 10 10 10 10 10 10 10 10 10 10 10 10 10 10 10 10 10 10 10 10 10 10 10 10 10 10 10 10 10 10 10 10 10 10 10 10 10 10 10 10 10 10 10 10 10 10 10 10 10 10 10 10 10 10 10 10 10 10 10 10 10 10 10 10 10 10 10 10 10 10 10 10 10 10 10 10 10 10 10 10 10 10 10 10 10 10 10 10 10 10 10 10 10 10 10 10 10 10 10 10 10 10 10 10 10 10 10 10 10 10 10 10 10 10 10 10 10 10 10 10 10 10 10 10 10 10 10 10 10 10 10 10 10 10 10 10 10 10 10 10 10 10 10 10 10 10 10 10 10 10 10 10 10 10 10 10 10 10 10 10 10 10 10 10 10 10 10 10 10 10 10 10 10 10 10 10 10 10 10 10 10 10 10 10 10 10 10 10 10 10 10 10 10 10 10 10 10 10 10 10 10 10 10 10 10 10 10 10 10 10 10 10 10 10 10 10 10 10 10 10 10 10 10 10 10 10 10 10 10 10 10 10 10 10 10 10 10 10 10 10 10 10 10 10 10 10 10 10 10 10 10 10 10 10 10 10 10 10 10 10 10 10 10 10 10 10 10 10 10 10 10 10 10 10 10 10 10 10 10 10 10 10 10 10 10 10 10 10 10 10 10 10 10 10 10 10 10 10 10 10 10 10 10 10 10 10 10 10 10 10 10 10 10 10 10 10 10 10 10 10 10 10 10 10 10 10 10 10 10 10 10 10 10 10 10 10 10 10 10 10 10 10 10 10 10 10 10 10 10 10 10 10 10 10 10 10 10 10 10 10 10 10 10 10 10 10 10 10 10 10 10 10 10 10 10 10 10 10 10 10 10 10 10 10 10 10 10 10 10 10 10 10 10 10 10 10 10 10 10 10 10 10 10 10 10 10 10 10 10 10 10 10 10 10 10 10 10 10 10 10 10 10 10 10 10 10 10 10 10 10 10 10 10 10 10 10 10 10 10 10 10 10 10 10 10 10 10 10 10 10 10 10 10 10 10 10 10 10 10 10 10 10 10 10 10 10 10 10 10 10 10 10 10 10 10 10 10 10 10 10 10 10 10 10 10 10 10 10 10 10 10 10 10 10 10 10 10 10 10 10 10 10 10 10 10 10 10 10 10 10 10 10 10 10 10 10 10 10 10 10 10 10 10 10 10 10 10 10 10 10 10 10 10 10 10 10 10 10 10 10 10 10 10 10 10 10 10 10 10 10 10 10 10 10 10 10 10 10 10 10 10 10 10 10 10 10 10 10 10 10 10 10 10 10 10 10 10 10 10 10 10 10 10 10 10 10 10 10 10 10 10 10 10 10 10 10 10 10 10 10 10 10 10 10 10 10 10 10 10 10 10 10 10 10 10 10 10 10 10 10 10 10 10 10 10 10 10 10 10 10 10 10 10 10 10 10 10 10 10 10 10 10 10 10 10 10 10 10 10 10 10 10 10 10 10 10 10 10 10 10 10 10 10 10 10 10 10 10 10 10 10 10 10 10 10 10 10 10 10 10 10 10 10 10 10 10 10 10 10 10 10 10 10 10 10 10 10 10 10 10 10 10 10 10 10 10 10 10 10 10 10 10 10 10 10 10 10 10 10 10 10 10 10 10 10 10 10 10 10 10 10 10 10 10 10 10 10 10 10 10 10 10 10 10 10 10 10 10 10 10 10 10 10 10 10 10 10 10 10 10 10 10 10 10 10 10 10 10 10 10 10 10 10 10 10 10 10 

POINT_DATA 2673
SCALARS weights float 1
LOOKUP_TABLE default
0.488281 0.651042 0.651042 0.651042 0.651042 0.651042 0.651042 0.651042 0.651042 0.651042 0.651042 0.651042 0.651042 0.651042 0.651042 0.651042 0.651042 0.651042 0.651042 0.651042 0.651042 0.651042 0.651042 0.651042 0.651042 0.651042 0.651042 0.651042 0.651042 0.651042 0.651042 0.651042 0.16276 0.651042 0.976562 0.976562 0.976562 0.976562 0.976562 0.976562 0.976562 0.976562 0.976562 0.976562 0.976562 0.976562 0.976562 0.976562 0.976562 0.976562 0.976562 0.976562 0.976562 0.976562 0.976562 0.976562 0.976562 0.976562 0.976562 0.976562 0.976562 0.976562 0.976562 0.976562 0.976562 0.325521 0.651042 0.976562 0.976562 0.976562 0.976562 0.976562 0.976562 0.976562 0.976562 0.976562 0.976562 0.976562 0.976562 0.976562 0.976562 0.976562 0.976562 0.976562 0.976562 0.976562 0.976562 0.976562 0.976562 0.976562 0.976562 0.976562 0.976562 0.976562 0.976562 0.976562 0.976562 0.976562 0.325521 0.651042 0.976562 0.976562 0.976562 0.976562 0.976562 0.976562 0.976562 0.976562 0.976562 0.976562 0.976562 0.976562 0.976562 0.976562 0.976562 0.976562 0.976562 0.976562 0.976562 0.976562 0.976562 0.976562 0.976562 0.976562 0.976562 0.976562 0.976562 0.976562 0.976562 0.976562 0.976562 0.325521 0.651042 0.976562 0.976562 0.976562 0.976562 0.976562 0.976562 0.976562 0.976562 0.976562 0.976562 0.976562 0.976562 0.976562 0.976562 0.976562 0.976562 0.976562 0.976562 0.976562 0.976562 0.976562 0.976562 0.976562 0.976562 0.976562 0.976562 0.976562 0.976562 0.976562 0.976562 0.976562 0.325521 0.651042 0.976562 0.976562 0.976562 0.976562 0.976562 0.976562 0.976562 0.976562 0.976562 0.976562 0.976562 0.976562 0.976562 0.976562 0.976562 0.976562 0.976562 0.976562 0.976562 0.976562 0.976562 0.976562 0.976562 0.976562 0.976562 0.976562 0.976562 0.976562 0.976562 0.976562 0.976562 0.325521 0.651042 0.976562 0.976562 0.976562 0.976562 0.976562 0.976562 0.976562 0.976562 0.976562 0.976562 0.976562 0.976562 0.976562 0.976562 0.976562 0.976562 0.976562 0.976562 0.976562 0.976562 0.976562 0.976562 0.976562 0.976562 0.976562 0.976562 0.976562 0.976562 0.976562 0.976562 0.976562 0.325521 0.651042 0.976562 0.976562 0.976562 0.976562 0.976562 0.976562 0.976562 0.976562 0.976562 0.976562 0.976562 0.976562 0.976562 0.976562 0.976562 0.976562 0.976562 0.976562 0.976562 0.976562 0.976562 0.976562 0.976562 0.976562 0.976562 0.976562 0.976562 0.976562 0.976562 0.976562 0.976562 0.325521 0.16276 0.325521 0.325521 0.325521 0.325521 0.325521 0.325521 0.325521 0.325521 0.325521 0.325521 0.325521 0.325521 0.325521 0.325521 0.325521 0.325521 0.325521 0.325521 0.325521 0.325521 0.325521 0.325521 0.325521 0.325521 0.325521 0.325521 0.325521 0.325521 0.325521 0.325521 0.325521 0.16276 0.651042 0.976562 0.976562 0.976562 0.976562 0.976562 0.976562 0.976562 0.976562 0.976562 0.976562 0.976562 0.976562 0.976562 0.976562 0.976562 0.976562 0.976562 0.976562 0.976562 0.976562 0.976562 0.976562 0.976562 0.976562 0.976562 0.976562 0.976562 0.976562 0.976562 0.976562 0.976562 0.325521 0.976562 1.95313 1.95313 1.95313 1.95313 1.95313 1.95313 1.95313 1.95313 1.95313 1.95313 1.95313 1.95313 1.95313 1.95313 1.95313 1.95313 1.95313 1.95313 1.95313 1.95313 1.95313 1.95313 1.95313 1.95313 1.95313 1.95313 1.95313 1.95313 1.95313 1.95313 1.95313 0.976562 0.976562 1.95313 1.95313 1.95313 1.95313 1.95313 1.95313 1.95313 1.95313 1.95313 1.95313 1.95313 1.95313 1.95313 1.95313 1.95313 1.95313 1.95313 1.95313 1.95313 1.95313 1.95313 1.95313 1.95313 1.95313 1.95313 1.95313 1.95313 1.95313 1.95313 1.95313 1.95313 0.976562 0.976562 1.95313 1.95313 1.95313 1.95313 1.95313 1.95313 1.95313 1.95313 1.95313 1.95313 1.95313 1.95313 1.95313 1.95313 1.95313 1.95313 1.95313 1.95313 1.95313 1.95313 1.95313 1.95313 1.95313 1.95313 1.95313 1.95313 1.95313 1.95313 1.95313 1.95313 1.95313 0.976562 0.976562 1.95313 1.95313 1.95313 1.95313 1.95313 1.95313 1.95313 1.95313 1.95313 1.95313 1.95313 1.95313 1.95313 1.95313 1.95313 1.95313 1.95313 1.95313 1.95313 1.95313 1.95313 1.95313 1.95313 1.95313 1.95313 1.95313 1.95313 1.95313 1.95313 1.95313 1.95313 0.976562 0.976562 1.95313 1.95313 1.95313 1.95313 1.95313 1.95313 1.95313 1.95313 1.95313 1.95313 1.95313 1.95313 1.95313 1.95313 1.95313 1.95313 1.95313 1.95313 1.95313 1.95313 1.95313 1.95313 1.95313 1.95313 1.95313 1.95313 1.95313 1.95313 1.95313 1.95313 1.95313 0.976562 0.976562 1.95313 1.95313 1.95313 1.95313 1.95313 1.95313 1.95313 1.95313 1.95313 1.95313 1.95313 1.95313 1.95313 1.95313 1.95313 1.95313 1.95313 1.95313 1.95313 1.95313 1.95313 1.95313 1.95313 1.95313 1.95313 1.95313 1.95313 1.95313 1.95313 1.95313 1.95313 0.976562 0.976562 1.95313 1.95313 1.95313 1.95313 1.95313 1.95313 1.95313 1.95313 1.95313 1.95313 1.95313 1.95313 1.95313 1.95313 1.95313 1.95313 1.95313 1.95313 1.95313 1.95313 1.95313 1.95313 1.95313 1.95313 1.95313 1.95313 1.95313 1.95313 1.95313 1.95313 1.95313 0.976562 0.325521 0.976562 0.976562 0.976562 0.976562 0.976562 0.976562 0.976562 0.976562 0.976562 0.976562 0.976562 0.976562 0.976562 0.976562 0.976562 0.976562 0.976562 0.976562 0.976562 0.976562 0.976562 0.976562 0.976562 0.976562 0.976562 0.976562 0.976562 0.976562 0.976562 0.976562 0.976562 0.651042 0.651042 0.976562 0.976562 0.976562 0.976562 0.976562 0.976562 0.976562 0.976562 0.976562 0.976562 0.976562 0.976562 0.976562 0.976562 0.976562 0.976562 0.976562 0.976562 0.976562 0.976562 0.976562 0.976562 0.976562 0.976562 0.976562 0.976562 0.976562 0.976562 0.976562 0.976562 0.976562 0.325521 0.976562 1.95313 1.95313 1.95313 1.95313 1.95313 1.95313 1.95313 1.95313 1.95313 1.95313 1.95313 1.95313 1.95313 1.95313 1.95313 1.95313 1.95313 1.95313 1.95313 1.95313 1.95313 1.95313 1.95313 1.95313 1.95313 1.95313 1.95313 1.95313 1.95313 1.95313 1.95313 0.976562 0.976562 1.95313 1.95313 1.95313 1.95313 1.95313 1.95313 1.95313 1.95313 1.95313 1.95313 1.95313 1.95313 1.95313 1.95313 1.95313 1.95313 1.95313 1.95313 1.95313 1.95313 1.95313 1.95313 1.95313 1.95313 1.95313 1.95313 1.95313 1.95313 1.95313 1.95313 1.95313 0.976562 0.976562 1.95313 1.95313 1.95313 1.95313 1.95313 1.95313 1.95313 1.95313 1.95313 1.95313 1.95313 1.95313 1.95313 1.95313 1.95313 1.95313 1.95313 1.95313 1.95313 1.95313 1.95313 1.95313 1.95313 1.95313 1.95313 1.95313 1.95313 1.95313 1.95313 1.95313 1.95313 0.976562 0.976562 1.95313 1.95313 1.95313 1.95313 1.95313 1.95313 1.95313 1.95313 1.95313 1.95313 1.95313 1.95313 1.95313 1.95313 1.95313 1.95313 1.95313 1.95313 1.95313 1.95313 1.95313 1.95313 1.95313 1.95313 1.95313 1.95313 1.95313 1.95313 1.95313 1.95313 1.95313 0.976562 0.976562 1.95313 1.95313 1.95313 1.95313 1.95313 1.95313 1.95313 1.95313 1.95313 1.95313 1.95313 1.95313 1.95313 1.95313 1.95313 1.95313 1.95313 1.95313 1.95313 1.95313 1.95313 1.95313 1.95313 1.95313 1.95313 1.95313 1.95313 1.95313 1.95313 1.95313 1.95313 0.976562 0.976562 1.95313 1.95313 1.95313 1.95313 1.95313 1.95313 1.95313 1.95313 1.95313 1.95313 1.95313 1.95313 1.95313 1.95313 1.95313 1.95313 1.95313 1.95313 1.95313 1.95313 1.95313 1.95313 1.95313 1.95313 1.95313 1.95313 1.95313 1.95313 1.95313 1.95313 1.95313 0.976562 0.976562 1.95313 1.95313 1.95313 1.95313 1.95313 1.95313 1.95313 1.95313 1.95313 1.95313 1.95313 1.95313 1.95313 1.95313 1.95313 1.95313 1.95313 1.95313 1.95313 1.95313 1.95313 1.95313 1.95313 1.95313 1.95313 1.95313 1.95313 1.95313 1.95313 1.95313 1.95313 0.976562 0.325521 0.976562 0.976562 0.976562 0.976562 0.976562 0.976562 0.976562 0.976562 0.976562 0.976562 0.976562 0.976562 0.976562 0.976562 0.976562 0.976562 0.976562 0.976562 0.976562 0.976562 0.976562 0.976562 0.976562 0.976562 0.976562 0.976562 0.976562 0.976562 0.976562 0.976562 0.976562 0.651042 0.651042 0.976562 0.976562 0.976562 0.976562 0.976562 0.976562 0.976562 0.976562 0.976562 0.976562 0.976562 0.976562 0.976562 0.976562 0.976562 0.976562 0.976562 0.976562 0.976562 0.976562 0.976562 0.976562 0.976562 0.976562 0.976562 0.976562 0.976562 0.976562 0.976562 0.976562 0.976562 0.325521 0.976562 1.95313 1.95313 1.95313 1.95313 1.95313 1.95313 1.95313 1.95313 1.95313 1.95313 1.95313 1.95313 1.95313 1.95313 1.95313 1.95313 1.95313 1.95313 1.95313 1.95313 1.95313 1.95313 1.95313 1.95313 1.95313 1.95313 1.95313 1.95313 1.95313 1.95313 1.95313 0.976562 0.976562 1.95313 1.95313 1.95313 1.95313 1.95313 1.95313 1.95313 1.95313 1.95313 1.95313 1.95313 1.95313 1.95313 1.95313 1.95313 1.95313 1.95313 1.95313 1.95313 1.95313 1.95313 1.95313 1.95313 1.95313 1.95313 1.95313 1.95313 1.95313 1.95313 1.95313 1.95313 0.976562 0.976562 1.95313 1.95313 1.95313 1.95313 1.95313 1.95313 1.95313 1.95313 1.95313 1.95313 1.95313 1.95313 1.95313 1.95313 1.95313 1.95313 1.95313 1.95313 1.95313 1.95313 1.95313 1.95313 1.95313 1.95313 1.95313 1.95313 1.95313 1.95313 1.95313 1.95313 1.95313 0.976562 0.976562 1.95313 1.95313 1.95313 1.95313 1.95313 1.95313 1.95313 1.95313 1.95313 1.95313 1.95313 1.95313 1.95313 1.95313 1.95313 1.95313 1.95313 1.95313 1.95313 1.95313 1.95313 1.95313 1.95313 1.95313 1.95313 1.95313 1.95313 1.95313 1.95313 1.95313 1.95313 0.976562 0.976562 1.95313 1.95313 1.95313 1.95313 1.95313 1.95313 1.95313 1.95313 1.95313 1.95313 1.95313 1.95313 1.95313 1.95313 1.95313 1.95313 1.95313 1.95313 1.95313 1.95313 1.95313 1.95313 1.95313 1.95313 1.95313 1.95313 1.95313 1.95313 1.95313 1.95313 1.95313 0.976562 0.976562 1.95313 1.95313 1.95313 1.95313 1.95313 1.95313 1.95313 1.95313 1.95313 1.95313 1.95313 1.95313 1.95313 1.95313 1.95313 1.95313 1.95313 1.95313 1.95313 1.95313 1.95313 1.95313 1.95313 1.95313 1.95313 1.95313 1.95313 1.95313 1.95313 1.95313 1.95313 0.976562 0.976562 1.95313 1.95313 1.95313 1.95313 1.95313 1.95313 1.95313 1.95313 1.95313 1.95313 1.95313 1.95313 1.95313 1.95313 1.95313 1.95313 1.95313 1.95313 1.95313 1.95313 1.95313 1.95313 1.95313 1.95313 1.95313 1.95313 1.95313 1.95313 1.95313 1.95313 1.95313 0.976562 0.325521 0.976562 0.976562 0.976562 0.976562 0.976562 0.976562 0.976562 0.976562 0.976562 0.976562 0.976562 0.976562 0.976562 0.976562 0.976562 0.976562 0.976562 0.976562 0.976562 0.976562 0.976562 0.976562 0.976562 0.976562 0.976562 0.976562 0.976562 0.976562 0.976562 0.976562 0.976562 0.651042 0.651042 0.976562 0.976562 0.976562 0.976562 0.976562 0.976562 0.976562 0.976562 0.976562 0.976562 0.976562 0.976562 0.976562 0.976562 0.976562 0.976562 0.976562 0.976562 0.976562 0.976562 0.976562 0.976562 0.976562 0.976562 0.976562 0.976562 0.976562 0.976562 0.976562 0.976562 0.976562 0.325521 0.976562 1.95313 1.95313 1.95313 1.95313 1.95313 1.95313 1.95313 1.95313 1.95313 1.95313 1.95313 1.95313 1.95313 1.95313 1.95313 1.95313 1.95313 1.95313 1.95313 1.95313 1.95313 1.95313 1.95313 1.95313 1.95313 1.95313 1.95313 1.95313 1.95313 1.95313 1.95313 0.976562 0.976562 1.95313 1.95313 1.95313 1.95313 1.95313 1.95313 1.95313 1.95313 1.95313 1.95313 1.95313 1.95313 1.95313 1.95313 1.95313 1.95313 1.95313 1.95313 1.95313 1.95313 1.95313 1.95313 1.95313 1.95313 1.95313 1.95313 1.95313 1.95313 1.95313 1.95313 1.95313 0.976562 0.976562 1.95313 1.95313 1.95313 1.95313 1.95313 1.95313 1.95313 1.95313 1.95313 1.95313 1.95313 1.95313 1.95313 1.95313 1.95313 1.95313 1.95313 1.95313 1.95313 1.95313 1.95313 1.95313 1.95313 1.95313 1.95313 1.95313 1.95313 1.95313 1.95313 1.95313 1.95313 0.976562 0.976562 1.95313 1.95313 1.95313 1.95313 1.95313 1.95313 1.95313 1.95313 1.95313 1.95313 1.95313 1.95313 1.95313 1.95313 1.95313 1.95313 1.95313 1.95313 1.95313 1.95313 1.95313 1.95313 1.95313 1.95313 1.95313 1.95313 1.95313 1.95313 1.95313 1.95313 1.95313 0.976562 0.976562 1.95313 1.95313 1.95313 1.95313 1.95313 1.95313 1.95313 1.95313 1.95313 1.95313 1.95313 1.95313 1.95313 1.95313 1.95313 1.95313 1.95313 1.95313 1.95313 1.95313 1.95313 1.95313 1.95313 1.95313 1.95313 1.95313 1.95313 1.95313 1.95313 1.95313 1.95313 0.976562 0.976562 1.95313 1.95313 1.95313 1.95313 1.95313 1.95313 1.95313 1.95313 1.95313 1.95313 1.95313 1.95313 1.95313 1.95313 1.95313 1.95313 1.95313 1.95313 1.95313 1.95313 1.95313 1.95313 1.95313 1.95313 1.95313 1.95313 1.95313 1.95313 1.95313 1.95313 1.95313 0.976562 0.976562 1.95313 1.95313 1.95313 1.95313 1.95313 1.95313 1.95313 1.95313 1.95313 1.95313 1.95313 1.95313 1.95313 1.95313 1.95313 1.95313 1.95313 1.95313 1.95313 1.95313 1.95313 1.95313 1.95313 1.95313 1.95313 1.95313 1.95313 1.95313 1.95313 1.95313 1.95313 0.976562 0.325521 0.976562 0.976562 0.976562 0.976562 0.976562 0.976562 0.976562 0.976562 0.976562 0.976562 0.976562 0.976562 0.976562 0.976562 0.976562 0.976562 0.976562 0.976562 0.976562 0.976562 0.976562 0.976562 0.976562 0.976562 0.976562 0.976562 0.976562 0.976562 0.976562 0.976562 0.976562 0.651042 0.651042 0.976562 0.976562 0.976562 0.976562 0.976562 0.976562 0.976562 0.976562 0.976562 0.976562 0.976562 0.976562 0.976562 0.976562 0.976562 0.976562 0.976562 0.976562 0.976562 0.976562 0.976562 0.976562 0.976562 0.976562 0.976562 0.976562 0.976562 0.976562 0.976562 0.976562 0.976562 0.325521 0.976562 1.95313 1.95313 1.95313 1.95313 1.95313 1.95313 1.95313 1.95313 1.95313 1.95313 1.95313 1.95313 1.95313 1.95313 1.95313 1.95313 1.95313 1.95313 1.95313 1.95313 1.95313 1.95313 1.95313 1.95313 1.95313 1.95313 1.95313 1.95313 1.95313 1.95313 1.95313 0.976562 0.976562 1.95313 1.95313 1.95313 1.95313 1.95313 1.95313 1.95313 1.95313 1.95313 1.95313 1.95313 1.95313 1.95313 1.95313 1.95313 1.95313 1.95313 1.95313 1.95313 1.95313 1.95313 1.95313 1.95313 1.95313 1.95313 1.95313 1.95313 1.95313 1.95313 1.95313 1.95313 0.976562 0.976562 1.95313 1.95313 1.95313 1.95313 1.95313 1.95313 1.95313 1.95313 1.95313 1.95313 1.95313 1.95313 1.95313 1.95313 1.95313 1.95313 1.95313 1.95313 1.95313 1.95313 1.95313 1.95313 1.95313 1.95313 1.95313 1.95313 1.95313 1.95313 1.95313 1.95313 1.95313 0.976562 0.976562 1.95313 1.95313 1.95313 1.95313 1.95313 1.95313 1.95313 1.95313 1.95313 1.95313 1.95313 1.95313 1.95313 1.95313 1.95313 1.95313 1.95313 1.95313 1.95313 1.95313 1.95313 1.95313 1.95313 1.95313 1.95313 1.95313 1.95313 1.95313 1.95313 1.95313 1.95313 0.976562 0.976562 1.95313 1.95313 1.95313 1.95313 1.95313 1.95313 1.95313 1.95313 1.95313 1.95313 1.95313 1.95313 1.95313 1.95313 1.95313 1.95313 1.95313 1.95313 1.95313 1.95313 1.95313 1.95313 1.95313 1.95313 1.95313 1.95313 1.95313 1.95313 1.95313 1.95313 1.95313 0.976562 0.976562 1.95313 1.95313 1.95313 1.95313 1.95313 1.95313 1.95313 1.95313 1.95313 1.95313 1.95313 1.95313 1.95313 1.95313 1.95313 1.95313 1.95313 1.95313 1.95313 1.95313 1.95313 1.95313 1.95313 1.95313 1.95313 1.95313 1.95313 1.95313 1.95313 1.95313 1.95313 0.976562 0.976562 1.95313 1.95313 1.95313 1.95313 1.95313 1.95313 1.95313 1.95313 1.95313 1.95313 1.95313 1.95313 1.95313 1.95313 1.95313 1.95313 1.95313 1.95313 1.95313 1.95313 1.95313 1.95313 1.95313 1.95313 1.95313 1.95313 1.95313 1.95313 1.95313 1.95313 1.95313 0.976562 0.325521 0.976562 0.976562 0.976562 0.976562 0.976562 0.976562 0.976562 0.976562 0.976562 0.976562 0.976562 0.976562 0.976562 0.976562 0.976562 0.976562 0.976562 0.976562 0.976562 0.976562 0.976562 0.976562 0.976562 0.976562 0.976562 0.976562 0.976562 0.976562 0.976562 0.976562 0.976562 0.651042 0.651042 0.976562 0.976562 0.976562 0.976562 0.976562 0.976562 0.976562 0.976562 0.976562 0.976562 0.976562 0.976562 0.976562 0.976562 0.976562 0.976562 0.976562 0.976562 0.976562 0.976562 0.976562 0.976562 0.976562 0.976562 0.976562 0.976562 0.976562 0.976562 0.976562 0.976562 0.976562 0.325521 0.976562 1.95313 1.95313 1.95313 1.95313 1.95313 1.95313 1.95313 1.95313 1.95313 1.95313 1.95313 1.95313 1.95313 1.95313 1.95313 1.95313 1.95313 1.95313 1.95313 1.95313 1.95313 1.95313 1.95313 1.95313 1.95313 1.95313 1.95313 1.95313 1.95313 1.95313 1.95313 0.976562 0.976562 1.95313 1.95313 1.95313 1.95313 1.95313 1.95313 1.95313 1.95313 1.95313 1.95313 1.95313 1.95313 1.95313 1.95313 1.95313 1.95313 1.95313 1.95313 1.95313 1.95313 1.95313 1.95313 1.95313 1.95313 1.95313 1.95313 1.95313 1.95313 1.95313 1.95313 1.95313 0.976562 0.976562 1.95313 1.95313 1.95313 1.95313 1.95313 1.95313 1.95313 1.95313 1.95313 1.95313 1.95313 1.95313 1.95313 1.95313 1.95313 1.95313 1.95313 1.95313 1.95313 1.95313 1.95313 1.95313 1.95313 1.95313 1.95313 1.95313 1.95313 1.95313 1.95313 1.95313 1.95313 0.976562 0.976562 1.95313 1.95313 1.95313 1.95313 1.95313 1.95313 1.95313 1.95313 1.95313 1.95313 1.95313 1.95313 1.95313 1.95313 1.95313 1.95313 1.95313 1.95313 1.95313 1.95313 1.95313 1.95313 1.95313 1.95313 1.95313 1.95313 1.95313 1.95313 1.95313 1.95313 1.95313 0.976562 0.976562 1.95313 1.95313 1.95313 1.95313 1.95313 1.95313 1.95313 1.95313 1.95313 1.95313 1.95313 1.95313 1.95313 1.95313 1.95313 1.95313 1.95313 1.95313 1.95313 1.95313 1.95313 1.95313 1.95313 1.95313 1.95313 1.95313 1.95313 1.95313 1.95313 1.95313 1.95313 0.976562 0.976562 1.95313 1.95313 1.95313 1.95313 1.95313 1.95313 1.95313 1.95313 1.95313 1.95313 1.95313 1.95313 1.95313 1.95313 1.95313 1.95313 1.95313 1.95313 1.95313 1.95313 1.95313 1.95313 1.95313 1.95313 1.95313 1.95313 1.95313 1.95313 1.95313 1.95313 1.95313 0.976562 0.976562 1.95313 1.95313 1.95313 1.95313 1.95313 1.95313 1.95313 1.95313 1.95313 1.95313 1.95313 1.95313 1.95313 1.95313 1.95313 1.95313 1.95313 1.95313 1.95313 1.95313 1.95313 1.95313 1.95313 1.95313 1.95313 1.95313 1.95313 1.95313 1.95313 1.95313 1.95313 0.976562 0.325521 0.976562 0.976562 0.976562 0.976562 0.976562 0.976562 0.976562 0.976562 0.976562 0.976562 0.976562 0.976562 0.976562 0.976562 0.976562 0.976562 0.976562 0.976562 0.976562 0.976562 0.976562 0.976562 0.976562 0.976562 0.976562 0.976562 0.976562 0.976562 0.976562 0.976562 0.976562 0.651042 0.651042 0.976563 0.976563 0.976563 0.976563 0.976563 0.976563 0.976563 0.976563 0.976563 0.976563 0.976563 0.976563 0.976563 0.976563 0.976563 0.976563 0.976563 0.976563 0.976563 0.976563 0.976563 0.976563 0.976563 0.976563 0.976563 0.976563 0.976563 0.976563 0.976563 0.976563 0.976563 0.325521 0.976563 1.95313 1.95313 1.95313 1.95313 1.95313 1.95313 1.95313 1.95313 1.95313 1.95313 1.95313 1.95313 1.95313 1.95313 1.95313 1.95313 1.95313 1.95313 1.95313 1.95313 1.95313 1.95313 1.95313 1.95313 1.95313 1.95313 1.95313 1.95313 1.95313 1.95313 1.95313 0.976563 0.976563 1.95313 1.95313 1.95313 1.95313 1.95313 1.95313 1.95313 1.95313 1.95313 1.95313 1.95313 1.95313 1.95313 1.95313 1.95313 1.95313 1.95313 1.95313 1.95313 1.95313 1.95313 1.95313 1.95313 1.95313 1.95313 1.95313 1.95313 1.95313 1.95313 1.95313 1.95313 0.976563 0.976563 1.95313 1.95313 1.95313 1.95313 1.95313 1.95313 1.95313 1.95313 1.95313 1.95313 1.95313 1.95313 1.95313 1.95313 1.95313 1.95313 1.95313 1.95313 1.95313 1.95313 1.95313 1.95313 1.95313 1.95313 1.95313 1.95313 1.95313 1.95313 1.95313 1.95313 1.95313 0.976563 0.976563 1.95313 1.95313 1.95313 1.95313 1.95313 1.95313 1.95313 1.95313 1.95313 1.95313 1.95313 1.95313 1.95313 1.95313 1.95313 1.95313 1.95313 1.95313 1.95313 1.95313 1.95313 1.95313 1.95313 1.95313 1.95313 1.95313 1.95313 1.95313 1.95313 1.95313 1.95313 0.976563 0.976563 1.95313 1.95313 1.95313 1.95313 1.95313 1.95313 1.95313 1.95313 1.95313 1.95313 1.95313 1.95313 1.95313 1.95313 1.95313 1.95313 1.95313 1.95313 1.95313 1.95313 1.95313 1.95313 1.95313 1.95313 1.95313 1.95313 1.95313 1.95313 1.95313 1.95313 1.95313 0.976563 0.976563 1.95313 1.95313 1.95313 1.95313 1.95313 1.95313 1.95313 1.95313 1.95313 1.95313 1.95313 1.95313 1.95313 1.95313 1.95313 1.95313 1.95313 1.95313 1.95313 1.95313 1.95313 1.95313 1.95313 1.95313 1.95313 1.95313 1.95313 1.95313 1.95313 1.95313 1.95313 0.976563 0.976563 1.95313 1.95313 1.95313 1.95313 1.95313 1.95313 1.95313 1.95313 1.95313 1.95313 1.95313 1.95313 1.95313 1.95313 1.95313 1.95313 1.95313 1.95313 1.95313 1.95313 1.95313 1.95313 1.95313 1.95313 1.95313 1.95313 1.95313 1.95313 1.95313 1.95313 1.95313 0.976563 0.325521 0.976563 0.976563 0.976563 0.976563 0.976563 0.976563 0.976563 0.976563 0.976563 0.976563 0.976563 0.976563 0.976563 0.976563 0.976563 0.976563 0.976563 0.976563 0.976563 0.976563 0.976563 0.976563 0.976563 0.976563 0.976563 0.976563 0.976563 0.976563 0.976563 0.976563 0.976563 0.651042 0.16276 0.325521 0.325521 0.325521 0.325521 0.325521 0.325521 0.325521 0.325521 0.325521 0.325521 0.325521 0.325521 0.325521 0.325521 0.325521 0.325521 0.325521 0.325521 0.325521 0.325521 0.325521 0.325521 0.325521 0.325521 0.325521 0.325521 0.325521 0.325521 0.325521 0.325521 0.325521 0.16276 0.325521 0.976563 0.976563 0.976563 0.976563 0.976563 0.976563 0.976563 0.976563 0.976563 0.976563 0.976563 0.976563 0.976563 0.976563 0.976563 0.976563 0.976563 0.976563 0.976563 0.976563 0.976563 0.976563 0.976563 0.976563 0.976563 0.976563 0.976563 0.976563 0.976563 0.976563 0.976563 0.651042 0.325521 0.976563 0.976563 0.976563 0.976563 0.976563 0.976563 0.976563 0.976563 0.976563 0.976563 0.976563 0.976563 0.976563 0.976563 0.976563 0.976563 0.976563 0.976563 0.976563 0.976563 0.976563 0.976563 0.976563 0.976563 0.976563 0.976563 0.976563 0.976563 0.976563 0.976563 0.976563 0.651042 0.325521 0.976563 0.976563 0.976563 0.976563 0.976563 0.976563 0.976563 0.976563 0.976563 0.976563 0.976563 0.976563 0.976563 0.976563 0.976563 0.976563 0.976563 0.976563 0.976563 0.976563 0.976563 0.976563 0.976563 0.976563 0.976563 0.976563 0.976563 0.976563 0.976563 0.976563 0.976563 0.651042 0.325521 0.976563 0.976563 0.976563 0.976563 0.976563 0.976563 0.976563 0.976563 0.976563 0.976563 0.976563 0.976563 0.976563 0.976563 0.976563 0.976563 0.976563 0.976563 0.976563 0.976563 0.976563 0.976563 0.976563 0.976563 0.976563 0.976563 0.976563 0.976563 0.976563 0.976563 0.976563 0.651042 0.325521 0.976563 0.976563 0.976563 0.976563 0.976563 0.976563 0.976563 0.976563 0.976563 0.976563 0.976563 0.976563 0.976563 0.976563 0.976563 0.976563 0.976563 0.976563 0.976563 0.976563 0.976563 0.976563 0.976563 0.976563 0.976563 0.976563 0.976563 0.976563 0.976563 0.976563 0.976563 0.651042 0.325521 0.976563 0.976563 0.976563 0.976563 0.976563 0.976563 0.976563 0.976563 0.976563 0.976563 0.976563 0.976563 0.976563 0.976563 0.976563 0.976563 0.976563 0.976563 0.976563 0.976563 0.976563 0.976563 0.976563 0.976563 0.976563 0.976563 0.976563 0.976563 0.976563 0.976563 0.976563 0.651042 0.325521 0.976563 0.976563 0.976563 0.976563 0.976563 0.976563 0.976563 0.976563 0.976563 0.976563 0.976563 0.976563 0.976563 0.976563 0.976563 0.976563 0.976563 0.976563 0.976563 0.976563 0.976563 0.976563 0.976563 0.976563 0.976563 0.976563 0.976563 0.976563 0.976563 0.976563 0.976563 0.651042 0.16276 0.651042 0.651042 0.651042 0.651042 0.651042 0.651042 0.651042 0.651042 0.651042 0.651042 0.651042 0.651042 0.651042 0.651042 0.651042 0.651042 0.651042 0.651042 0.651042 0.651042 0.651042 0.651042 0.651042 0.651042 0.651042 0.651042 0.651042 0.651042 0.651042 0.651042 0.651042 0.488281 
VECTORS u float
0 0 -2.98023e-08  -0.0230045 -0.00925144 -0.030513  -0.0420463 -0.0245792 -0.0423945  -0.0606448 -0.0476359 -0.0469257  -0.0796353 -0.0774893 -0.0473806  -0.0993628 -0.113272 -0.0452193  -0.119988 -0.15427 -0.0412255  -0.14157 -0.199895 -0.0358779  -0.164116 -0.249642 -0.0294702  -0.187603 -0.303076 -0.022213  -0.21198 -0.35981 -0.0142605  -0.237186 -0.419507 -0.00572398  -0.263148 -0.481849 0.0033018  -0.289779 -0.546551 0.0127344  -0.316997 -0.613354 0.0225199  -0.344712 -0.682012 0.0325953  -0.372836 -0.752309 0.0429059  -0.401288 -0.824034 0.0534143  -0.429988 -0.897003 0.0640866  -0.458854 -0.971037 0.0748794  -0.487812 -1.04596 0.0857765  -0.516801 -1.12163 0.0967395  -0.545755 -1.1979 0.107755  -0.574621 -1.27464 0.118786  -0.603352 -1.35173 0.129833  -0.631916 -1.42906 0.140867  -0.660261 -1.5065 0.151888  -0.68836 -1.58399 0.162879  -0.716203 -1.66143 0.173832  -0.743775 -1.73874 0.184768  -0.771083 -1.81585 0.19569  -0.798139 -1.89272 0.206615  -0.824916 -1.96923 0.217641  0 0 -2.98023e-08  -0.0103889 -0.000771694 -0.0251473  -0.0227717 -0.0173987 -0.0307814  -0.0352131 -0.0422174 -0.0328167  -0.0483998 -0.0739922 -0.0320544  -0.0627229 -0.111815 -0.0292956  -0.0783684 -0.154925 -0.0250489  -0.0954148 -0.202701 -0.0196519  -0.11387 -0.254596 -0.0133273  -0.133676 -0.310134 -0.00623056  -0.154777 -0.368912 0.00150961  -0.177074 -0.430562 0.00980055  -0.200471 -0.494751 0.0185559  -0.224858 -0.561178 0.0277052  -0.250114 -0.629577 0.0372024  -0.276138 -0.699704 0.0469836  -0.302807 -0.771333 0.0570134  -0.330021 -0.844255 0.0672369  -0.357675 -0.918283 0.0776312  -0.385672 -0.993251 0.0881688  -0.41392 -1.06899 0.0988154  -0.442335 -1.14535 0.109545  -0.470843 -1.22221 0.120335  -0.499369 -1.29943 0.131164  -0.52786 -1.37692 0.142024  -0.556259 -1.45455 0.152892  -0.58452 -1.53223 0.163757  -0.612589 -1.60989 0.174621  -0.640444 -1.68744 0.185468  -0.668047 -1.76482 0.196326  -0.695382 -1.84198 0.207197  -0.722456 -1.91885 0.218105  -0.74926 -1.99536 0.229095  0 0 -2.98023e-08  -0.00301314 0.000917554 -0.0122866  -0.00643358 -0.0137977 -0.0200147  -0.0126686 -0.0399729 -0.0190425  -0.0202127 -0.0733065 -0.0168272  -0.029309 -0.112776 -0.0133668  -0.0401107 -0.157598 -0.0088225  -0.0526906 -0.207131 -0.00336558  -0.0670458 -0.260804 0.00288019  -0.0831295 -0.318123 0.0098069  -0.100852 -0.378648 0.0173294  -0.120115 -0.441998 0.0253642  -0.140793 -0.507817 0.0338418  -0.162761 -0.575791 0.0427057  -0.185888 -0.645643 0.0519027  -0.210033 -0.717116 0.0613945  -0.235063 -0.789981 0.0711326  -0.260853 -0.864029 0.0810794  -0.287283 -0.939072 0.0912025  -0.314236 -1.01494 0.101476  -0.3416 -1.09147 0.111866  -0.36928 -1.16853 0.12236  -0.397186 -1.24598 0.132929  -0.425226 -1.32371 0.143557  -0.453333 -1.4016 0.154224  -0.481438 -1.47957 0.164925  -0.509482 -1.55752 0.175638  -0.537417 -1.63539 0.186362  -0.565184 -1.7131 0.197102  -0.592743 -1.79059 0.207853  -0.620052 -1.86782 0.218646  -0.64709 -1.94473 0.2295  -0.673845 -2.02125 0.240446  0 0 -2.98023e-08  0.00275877 0.000119656 -0.00185636  0.00560063 -0.0149501 -0.00475812  0.00685209 -0.0407271 -0.00536028  0.00512642 -0.0752054 -0.0018543  0.00134665 -0.11601 0.00229064  -0.00454307 -0.162267 0.00714546  -0.0125806 -0.213297 0.0126888  -0.0227578 -0.268505 0.0188748  -0.0350119 -0.327373 0.0256538  -0.0492501 -0.389439 0.0329719  -0.0653602 -0.454296 0.0407632  -0.0832005 -0.521576 0.0489793  -0.102623 -0.590945 0.0575744  -0.123477 -0.662115 0.066497  -0.145611 -0.73482 0.0757101  -0.16887 -0.808827 0.0851731  -0.193107 -0.883917 0.0948496  -0.218187 -0.959903 0.104711  -0.243973 -1.03662 0.114731  -0.270341 -1.1139 0.124886  -0.297179 -1.19161 0.135149  -0.324374 -1.26962 0.145504  -0.351829 -1.34783 0.155931  -0.379458 -1.42613 0.166418  -0.407177 -1.50442 0.176951  -0.434928 -1.58264 0.187514  -0.462641 -1.66072 0.198099  -0.490261 -1.73859 0.208715  -0.517725 -1.8162 0.219352  -0.544979 -1.89352 0.230037  -0.571975 -1.97048 0.24079  -0.598653 -2.04702 0.251649  0 0 -2.98023e-08  0.0077772 -0.00252506 0.00728342  0.0161758 -0.0187535 0.00901371  0.0233744 -0.0450577 0.010409  0.0282179 -0.0797575 0.0129889  0.0299438 -0.121593 0.0176458  0.0291055 -0.169054 0.0227697  0.0257217 -0.221382 0.0283901  0.0198264 -0.277939 0.0345291  0.0114952 -0.338183 0.0411839  0.000834823 -0.401621 0.0483202  -0.0120246 -0.467831 0.0559021  -0.026931 -0.536426 0.0638861  -0.0437138 -0.607055 0.0722355  -0.0622076 -0.679419 0.0809058  -0.082242 -0.753242 0.0898575  -0.103642 -0.828282 0.0990656  -0.126248 -0.90432 0.108494  -0.149891 -0.981163 0.118113  -0.174436 -1.05864 0.127898  -0.199726 -1.13661 0.137823  -0.225641 -1.21491 0.147877  -0.252058 -1.29344 0.15803  -0.278862 -1.37208 0.168268  -0.305949 -1.45074 0.178587  -0.333233 -1.52934 0.188958  -0.360634 -1.6078 0.199374  -0.388076 -1.68606 0.209832  -0.415499 -1.76408 0.22032  -0.442846 -1.84181 0.230834  -0.470029 -1.9192 0.241397  -0.496983 -1.99623 0.252019  -0.523608 -2.07281 0.262741  0 0 -2.98023e-08  0.0123978 -0.00683093 0.0155331  0.0261184 -0.0248328 0.0215865  0.0389269 -0.0519947 0.025178  0.0495528 -0.0872788 0.0286349  0.0572496 -0.129658 0.0327492  0.0616272 -0.178117 0.0380177  0.0630172 -0.231577 0.0436778  0.0615041 -0.289335 0.0497721  0.0571761 -0.350814 0.0563132  0.0501662 -0.415488 0.0632985  0.0406214 -0.482918 0.0707003  0.0287092 -0.552698 0.0784834  0.0146202 -0.624464 0.0866218  -0.00146091 -0.697901 0.0950695  -0.0193441 -0.772727 0.103797  -0.0388356 -0.848692 0.112778  -0.0597546 -0.925573 0.121982  -0.0819247 -1.00318 0.131378  -0.105172 -1.08134 0.140951  -0.129352 -1.1599 0.150672  -0.154306 -1.23872 0.160529  -0.179905 -1.31769 0.170493  -0.206021 -1.3967 0.180564  -0.232541 -1.47567 0.190711  -0.259356 -1.55452 0.200936  -0.28638 -1.63317 0.211218  -0.313527 -1.71159 0.221556  -0.340722 -1.78971 0.231931  -0.367919 -1.86753 0.242333  -0.395038 -1.94499 0.252764  -0.421961 -2.02207 0.263245  -0.448563 -2.09871 0.273812  0 0 -2.98023e-08  0.0167989 -0.012761 0.0230527  0.035832 -0.033031 0.0332334  0.0542251 -0.0613139 0.0390033  0.0705236 -0.0973433 0.0435017  0.0838643 -0.140402 0.0479507  0.093784 -0.189599 0.0528524  0.100094 -0.244059 0.0584818  0.103059 -0.302906 0.0645128  0.10281 -0.365505 0.0709605  0.0994973 -0.431308 0.0778221  0.093298 -0.499847 0.0850795  0.08441 -0.570695 0.0927042  0.0730315 -0.64348 0.100664  0.0593828 -0.717874 0.108932  0.0436653 -0.793588 0.117474  0.0260963 -0.870364 0.126264  0.00687408 -0.947978 0.135271  -0.0138056 -1.02624 0.14448  -0.035754 -1.10498 0.153864  -0.0588062 -1.18404 0.163403  -0.0827949 -1.26329 0.173085  -0.107566 -1.34261 0.182887  -0.132988 -1.42192 0.192797  -0.158931 -1.50112 0.2028  -0.185274 -1.58015 0.212886  -0.211921 -1.65894 0.223045  -0.23877 -1.73745 0.233271  -0.265744 -1.81565 0.243548  -0.29277 -1.8935 0.253859  -0.319798 -1.971 0.264187  -0.346728 -2.04813 0.27453  -0.373365 -2.12483 0.284928  0 0 -2.98023e-08  0.0208094 -0.0201645 0.0301178  0.0451623 -0.0431998 0.0443814  0.0693529 -0.0728713 0.0521469  0.0915533 -0.109811 0.0575859  0.110679 -0.153657 0.0624005  0.126139 -0.203661 0.0673271  0.13767 -0.258994 0.0726819  0.145249 -0.318854 0.0786236  0.149145 -0.382499 0.0849878  0.149574 -0.449342 0.0917673  0.146738 -0.518896 0.0989294  0.140867 -0.590713 0.106447  0.13219 -0.664412 0.114283  0.120955 -0.739649 0.122418  0.107386 -0.816134 0.130819  0.0917215 -0.893606 0.139464  0.0741737 -0.971838 0.148321  0.0549605 -1.05064 0.157371  0.0342927 -1.12984 0.166604  0.0123429 -1.20929 0.175992  -0.0106993 -1.28885 0.185523  -0.0346699 -1.36844 0.195185  -0.0594168 -1.44794 0.204962  -0.0848045 -1.52729 0.214841  -0.110703 -1.60641 0.224807  -0.136993 -1.68526 0.234859  -0.16357 -1.7638 0.244989  -0.190338 -1.842 0.255181  -0.217222 -1.91986 0.265422  -0.244146 -1.99735 0.275685  -0.271059 -2.07448 0.285942  -0.297826 -2.15124 0.296181  0 0 -2.98023e-08  0.0225656 -0.0286033 0.0376678  0.0519835 -0.0553711 0.0556371  0.0828324 -0.086767 0.0648618  0.111911 -0.12478 0.0708367  0.137628 -0.169531 0.0758216  0.159165 -0.220437 0.0807302  0.176222 -0.276698 0.0859912  0.188772 -0.337519 0.0917571  0.19697 -0.402165 0.0980922  0.201195 -0.469991 0.104854  0.201732 -0.540483 0.112  0.198863 -0.613175 0.119488  0.192854 -0.687679 0.127284  0.183988 -0.763646 0.135364  0.172515 -0.840782 0.143692  0.158691 -0.918819 0.152254  0.142773 -0.997532 0.161025  0.124976 -1.07674 0.169981  0.105531 -1.15626 0.179111  0.0846288 -1.23597 0.188385  0.0624785 -1.31573 0.197813  0.0392582 -1.39544 0.207368  0.0151348 -1.47501 0.217045  -0.00976372 -1.55439 0.226815  -0.0352654 -1.63351 0.23669  -0.0612497 -1.71233 0.246669  -0.087604 -1.79081 0.256721  -0.114225 -1.86894 0.266846  -0.141019 -1.94673 0.27703  -0.167891 -2.02416 0.287264  -0.194774 -2.10126 0.297502  -0.221619 -2.17804 0.307681  0 0 -2.98023e-08  -0.0201909 -0.0177769 -0.0225234  -0.0420951 -0.0364648 -0.0351642  -0.0636269 -0.0611394 -0.0406378  -0.085223 -0.0914025 -0.041916  -0.107199 -0.12694 -0.0404721  -0.12973 -0.167334 -0.037116  -0.152905 -0.212163 -0.0323382  -0.176775 -0.261033 -0.0264527  -0.20134 -0.313554 -0.0196681  -0.226587 -0.369391 -0.0121447  -0.252483 -0.428219 -0.00400564  -0.278977 -0.489741 0.00466159  -0.306011 -0.553678 0.0137698  -0.333527 -0.619782 0.0232566  -0.361446 -0.68781 0.0330649  -0.389703 -0.757535 0.0431354  -0.418226 -0.828753 0.053429  -0.446945 -0.90127 0.0639089  -0.475791 -0.974905 0.0745331  -0.504701 -1.0495 0.0852809  -0.533617 -1.12487 0.0961151  -0.562483 -1.2009 0.107016  -0.591248 -1.27743 0.117962  -0.619872 -1.35436 0.128932  -0.64832 -1.43155 0.139911  -0.676555 -1.5089 0.15089  -0.704563 -1.58631 0.161846  -0.732307 -1.66369 0.172789  -0.759814 -1.74097 0.18371  -0.787073 -1.81806 0.194625  -0.814095 -1.89492 0.205555  -0.84089 -1.97149 0.216579  0 0 -2.98023e-08  -0.00277665 -0.00490681 -0.0159547  -0.0211884 -0.0279461 -0.0255314  -0.0372569 -0.0547989 -0.028925  -0.0533301 -0.0871111 -0.0289613  -0.0700408 -0.124758 -0.0267769  -0.0876738 -0.167331 -0.0229912  -0.106366 -0.21438 -0.0179858  -0.12617 -0.265463 -0.0120026  -0.147081 -0.320161 -0.00521517  -0.169072 -0.378109 0.00224859  -0.192079 -0.438952 0.0102871  -0.216028 -0.502378 0.0188165  -0.240834 -0.568093 0.0277665  -0.266408 -0.635842 0.0370744  -0.292653 -0.705374 0.0466939  -0.319474 -0.776465 0.0565768  -0.346775 -0.84891 0.0666766  -0.374465 -0.922514 0.0769614  -0.402461 -0.997107 0.0873972  -0.430676 -1.07252 0.0979642  -0.459033 -1.14861 0.108623  -0.487464 -1.22524 0.119356  -0.515901 -1.30227 0.13015  -0.544297 -1.37959 0.140975  -0.572592 -1.45709 0.151821  -0.600749 -1.53468 0.16268  -0.628729 -1.61226 0.173538  -0.656492 -1.68976 0.184395  -0.684027 -1.76711 0.195253  -0.711313 -1.84424 0.206129  -0.738358 -1.92111 0.217043  -0.765168 -1.99767 0.228041  0 0 -2.98023e-08  -6.24731e-05 -0.00484319 -0.00851384  -0.00643755 -0.0235162 -0.0179254  -0.0158471 -0.0517574 -0.0180919  -0.0258915 -0.0856932 -0.0164714  -0.0370492 -0.125085 -0.0133773  -0.0495812 -0.169486 -0.00909311  -0.0636073 -0.218407 -0.00383228  -0.0791737 -0.271382 0.00225398  -0.0962626 -0.327961 0.00904691  -0.114811 -0.387743 0.0164554  -0.134742 -0.450359 0.024391  -0.155955 -0.515476 0.0327888  -0.178341 -0.582786 0.0415876  -0.201789 -0.652021 0.0507268  -0.226168 -0.722926 0.0601764  -0.251367 -0.795273 0.069878  -0.277269 -0.868856 0.0797971  -0.303759 -0.943482 0.0899049  -0.330733 -1.01898 0.10017  -0.358089 -1.09519 0.110559  -0.385737 -1.17196 0.121057  -0.413583 -1.24917 0.13164  -0.441557 -1.32669 0.142287  -0.469587 -1.40442 0.152976  -0.49761 -1.48225 0.163702  -0.525566 -1.56009 0.174449  -0.553419 -1.63787 0.185206  -0.581109 -1.71552 0.195982  -0.608606 -1.79297 0.206765  -0.635876 -1.87016 0.217578  -0.662901 -1.94706 0.228439  -0.689688 -2.02363 0.23938  0 0 -2.98023e-08  0.00186779 -0.00659817 -0.0025124  0.0028086 -0.0247933 -0.0061757  0.00225461 -0.0518957 -0.00718781  -0.001488 -0.0870042 -0.00406578  -0.00694996 -0.127797 -9.4682e-05  -0.0142725 -0.17372 0.00467986  -0.0235357 -0.224237 0.0101966  -0.0347552 -0.278842 0.0163874  -0.0478961 -0.33706 0.0231879  -0.0628825 -0.398463 0.0305378  -0.0796064 -0.462656 0.0383758  -0.0979488 -0.529289 0.0466475  -0.117774 -0.59804 0.0553028  -0.138949 -0.668627 0.0642892  -0.16133 -0.740791 0.0735686  -0.184773 -0.814295 0.083101  -0.209141 -0.88893 0.0928512  -0.234303 -0.964505 0.10279  -0.260138 -1.04085 0.112883  -0.286521 -1.1178 0.123115  -0.313345 -1.19522 0.133457  -0.340504 -1.27299 0.143892  -0.367915 -1.35099 0.154398  -0.395488 -1.4291 0.16496  -0.423148 -1.50725 0.175563  -0.450828 -1.58535 0.186199  -0.47847 -1.66333 0.19686  -0.506025 -1.74113 0.20754  -0.533432 -1.81869 0.21824  -0.560649 -1.89597 0.228972  -0.587629 -1.97291 0.239756  -0.614354 -2.0495 0.250613  0 0 -2.98023e-08  0.00360176 -0.00979912 0.00270373  0.0108957 -0.0286877 0.0044153  0.0169475 -0.0560992 0.00572643  0.0206345 -0.0911576 0.00832644  0.021067 -0.133009 0.0129819  0.0190871 -0.180186 0.0181855  0.0146972 -0.232069 0.0239352  0.00792205 -0.288094 0.0302307  -0.00117743 -0.347756 0.0370528  -0.0124991 -0.410596 0.0443628  -0.0259174 -0.476199 0.0521252  -0.0412928 -0.544194 0.0602912  -0.0584651 -0.614244 0.068821  -0.077273 -0.686056 0.0776702  -0.0975546 -0.75936 0.0868028  -0.119147 -0.833917 0.0961862  -0.141892 -0.90951 0.105785  -0.16564 -0.985949 0.115569  -0.190248 -1.06306 0.125513  -0.215577 -1.14069 0.135593  -0.241504 -1.21871 0.145793  -0.26791 -1.29699 0.156091  -0.294688 -1.37541 0.166464  -0.321742 -1.45389 0.176907  -0.34898 -1.53233 0.187399  -0.376327 -1.61066 0.197932  -0.403713 -1.68882 0.208497  -0.431079 -1.76675 0.219086  -0.458366 -1.84442 0.229698  -0.485504 -1.92177 0.24034  -0.512434 -1.99878 0.251022  -0.539104 -2.0754 0.261765  0 0 -2.98023e-08  0.00525495 -0.0144549 0.00733092  0.0185691 -0.0348206 0.0140113  0.0308174 -0.0629854 0.0178371  0.0407819 -0.0985596 0.0214932  0.0477514 -0.140846 0.0258609  0.0512813 -0.189039 0.0313608  0.0518854 -0.242091 0.0373003  0.0496492 -0.299366 0.0436927  0.0446727 -0.360312 0.0505443  0.0370839 -0.424438 0.0578406  0.0270324 -0.491304 0.0655501  0.0146892 -0.560523 0.0736414  0.000232577 -0.63174 0.0820797  -0.0161515 -0.70465 0.0908228  -0.0342821 -0.778979 0.0998377  -0.0539732 -0.854474 0.109092  -0.075042 -0.930921 0.118563  -0.0973263 -1.00813 0.128214  -0.120656 -1.08592 0.138028  -0.14489 -1.16416 0.14798  -0.169873 -1.24269 0.158054  -0.195479 -1.3214 0.168226  -0.221591 -1.4002 0.178488  -0.248088 -1.47897 0.188817  -0.274874 -1.55766 0.199209  -0.301857 -1.63618 0.209647  -0.328961 -1.71449 0.220127  -0.356111 -1.79253 0.230631  -0.383247 -1.87028 0.241162  -0.410307 -1.9477 0.251711  -0.437191 -2.02476 0.262286  -0.463825 -2.10143 0.272895  0 0 -2.98023e-08  0.0067731 -0.0207012 0.0113613  0.0261382 -0.0431129 0.0227682  0.0445359 -0.0723464 0.029075  0.0606301 -0.108614 0.0339692  0.0736149 -0.151541 0.038821  0.0830624 -0.200423 0.0441486  0.0888037 -0.254483 0.0502051  0.0912002 -0.312869 0.0566787  0.0904117 -0.37497 0.0635753  0.0865984 -0.440254 0.0708832  0.0799533 -0.508258 0.0785824  0.0706671 -0.578576 0.0866376  0.0589477 -0.650835 0.0950173  0.0450042 -0.724722 0.10369  0.0290444 -0.799955 0.112626  0.011276 -0.876274 0.121789  -0.00810385 -0.953465 0.131158  -0.0289049 -1.03133 0.14071  -0.0509489 -1.10971 0.150415  -0.0740647 -1.18844 0.160263  -0.0980971 -1.2674 0.17023  -0.122892 -1.34647 0.180301  -0.148322 -1.42556 0.190462  -0.174258 -1.50457 0.200696  -0.200586 -1.58343 0.210995  -0.2272 -1.66208 0.221352  -0.254014 -1.74049 0.231755  -0.280946 -1.8186 0.242191  -0.307919 -1.89639 0.252649  -0.334882 -1.97384 0.263121  -0.361751 -2.05095 0.273589  -0.388392 -2.12768 0.284063  0 0 -2.98023e-08  0.00773518 -0.0286362 0.0147414  0.0334499 -0.0535319 0.0309432  0.0582448 -0.0840747 0.0396173  0.080639 -0.121195 0.0456738  0.0997125 -0.164857 0.0510606  0.114947 -0.214504 0.0565722  0.126139 -0.269401 0.0625312  0.133293 -0.328793 0.0690679  0.136755 -0.391948 0.0760306  0.136755 -0.458288 0.0833953  0.133521 -0.527322 0.0911252  0.127288 -0.598625 0.0991945  0.118299 -0.671811 0.107572  0.106783 -0.746556 0.116221  0.0929773 -0.822572 0.125116  0.0771148 -0.899594 0.13423  0.0594106 -0.97741 0.143541  0.0400712 -1.05582 0.153019  0.0193028 -1.13467 0.162653  -0.00271773 -1.2138 0.172421  -0.0258095 -1.29308 0.182307  -0.0498135 -1.3724 0.192298  -0.0745776 -1.45168 0.202377  -0.0999651 -1.53084 0.212538  -0.125853 -1.6098 0.222763  -0.152122 -1.68851 0.233048  -0.178666 -1.76695 0.243388  -0.205396 -1.84507 0.253766  -0.232228 -1.92286 0.264175  -0.25909 -2.00031 0.274594  -0.285927 -2.07743 0.284995  -0.312636 -2.15422 0.295365  0 0 -2.98023e-08  0.00682966 -0.0375704 0.0184496  0.0388935 -0.0657367 0.0394568  0.0707444 -0.0979959 0.0499786  0.100202 -0.136177 0.0567668  0.125982 -0.180709 0.0624695  0.147413 -0.231209 0.0681185  0.164243 -0.286994 0.0741341  0.176489 -0.347309 0.0806621  0.184335 -0.411454 0.0877409  0.188187 -0.478773 0.0952188  0.188366 -0.548745 0.103052  0.185166 -0.62093 0.111203  0.178869 -0.694931 0.119639  0.169735 -0.770418 0.128325  0.158042 -0.847094 0.137241  0.144037 -0.924697 0.146359  0.127968 -1.00301 0.155656  0.110049 -1.08185 0.165108  0.0905087 -1.16103 0.174704  0.0695481 -1.24043 0.18443  0.0473492 -1.31991 0.194266  0.0241001 -1.39938 0.204202  -4.05312e-05 -1.47875 0.214229  -0.0249269 -1.55794 0.224332  -0.0504103 -1.6369 0.234507  -0.0763752 -1.71559 0.244743  -0.102692 -1.79398 0.255035  -0.129267 -1.87204 0.265374  -0.156 -1.94977 0.275746  -0.18281 -2.02717 0.286139  -0.209623 -2.10426 0.296521  -0.236388 -2.18106 0.306847  0 0 0  -0.0220683 -0.023207 -0.0172261  -0.0447043 -0.0462559 -0.0273109  -0.0678342 -0.0719284 -0.0329213  -0.0911846 -0.102728 -0.0348296  -0.114805 -0.138331 -0.0341227  -0.138808 -0.178481 -0.0315104  -0.163277 -0.222875 -0.0274426  -0.188257 -0.271185 -0.0222148  -0.213773 -0.323089 -0.0160415  -0.239819 -0.378276 -0.00907761  -0.266379 -0.436448 -0.00144282  -0.293418 -0.497327 0.0067618  -0.320894 -0.560652 0.0154519  -0.34876 -0.626176 0.0245567  -0.376956 -0.69366 0.0340201  -0.40542 -0.762886 0.0437854  -0.434092 -0.833649 0.0538034  -0.462915 -0.905755 0.0640381  -0.491829 -0.979025 0.0744431  -0.520772 -1.05329 0.084998  -0.549696 -1.12838 0.095667  -0.578544 -1.20416 0.106429  -0.607287 -1.28048 0.117254  -0.635872 -1.35722 0.128126  -0.664277 -1.43427 0.139025  -0.692469 -1.5115 0.149939  -0.72043 -1.58882 0.160859  -0.748145 -1.66613 0.171769  -0.775623 -1.74336 0.182674  -0.802872 -1.82043 0.193577  -0.829909 -1.8973 0.204496  -0.856754 -1.97392 0.215496  0 0 0  -0.00317309 -0.00967317 -0.0123567  -0.0210366 -0.0359156 -0.0187824  -0.0395925 -0.0644426 -0.0229821  -0.0579822 -0.0975728 -0.0238661  -0.0767064 -0.135413 -0.0224301  -0.0960673 -0.17781 -0.0193028  -0.116227 -0.224463 -0.0148758  -0.137269 -0.275028 -0.0094083  -0.159221 -0.329148 -0.00308451  -0.182077 -0.386483 0.00396629  -0.205798 -0.446713 0.011632  -0.23033 -0.509538 0.0198256  -0.255609 -0.574683 0.0284734  -0.281559 -0.641893 0.0375096  -0.308096 -0.710923 0.0468887  -0.335138 -0.781551 0.0565574  -0.362604 -0.853574 0.066467  -0.390413 -0.926802 0.0765843  -0.418481 -1.00106 0.0868773  -0.446739 -1.07618 0.097315  -0.475109 -1.152 0.107867  -0.503531 -1.2284 0.118514  -0.531948 -1.30524 0.129232  -0.560307 -1.3824 0.140003  -0.588557 -1.45977 0.150808  -0.616668 -1.53725 0.161639  -0.644602 -1.61476 0.172482  -0.672329 -1.6922 0.183329  -0.699827 -1.76951 0.194192  -0.727098 -1.84662 0.205071  -0.754149 -1.9235 0.215983  -0.780989 -2.00012 0.226982  0 0 0  -0.00076215 -0.00934131 -0.00696152  -0.00410794 -0.0286741 -0.0117872  -0.017466 -0.0600789 -0.0143944  -0.0301343 -0.0951916 -0.0137954  -0.0433913 -0.134933 -0.0113591  -0.0576651 -0.17926 -0.00757189  -0.0731581 -0.227879 -0.00271539  -0.0899599 -0.280417 0.00302795  -0.108084 -0.33649 0.00952916  -0.127499 -0.395731 0.0166785  -0.148152 -0.457797 0.02439  -0.169958 -0.522369 0.0325893  -0.192829 -0.589159 0.0412169  -0.216666 -0.657899 0.0502063  -0.241357 -0.728341 0.059521  -0.266796 -0.800258 0.069113  -0.292882 -0.873448 0.0789355  -0.319508 -0.947719 0.0889651  -0.346573 -1.0229 0.0991633  -0.373991 -1.09883 0.109502  -0.401669 -1.17535 0.119957  -0.429524 -1.25235 0.13051  -0.457491 -1.32969 0.141137  -0.485497 -1.40727 0.151821  -0.513487 -1.48497 0.162545  -0.541407 -1.56271 0.173299  -0.569216 -1.64042 0.184072  -0.596873 -1.71801 0.194866  -0.624339 -1.79542 0.205674  -0.651595 -1.8726 0.216507  -0.678626 -1.94951 0.22738  -0.705451 -2.02614 0.238321  0 0 0  0.00119668 -0.0108227 -0.00265127  0.00269762 -0.0301827 -0.00452283  3.14713e-05 -0.0593847 -0.00655663  -0.00606799 -0.0958002 -0.00418076  -0.0134434 -0.137039 -0.000656933  -0.022364 -0.182973 0.00382622  -0.0329816 -0.233269 0.00913535  -0.045354 -0.287517 0.0151726  -0.059474 -0.345303 0.0218583  -0.0752901 -0.40623 0.029117  -0.0927104 -0.46993 0.0368892  -0.111637 -0.536069 0.0451092  -0.13195 -0.604342 0.0537277  -0.15352 -0.674469 0.0626939  -0.176225 -0.746198 0.0719611  -0.199922 -0.819296 0.0814947  -0.22449 -0.893557 0.0912519  -0.249807 -0.968794 0.101205  -0.27575 -1.04483 0.111322  -0.302211 -1.12151 0.121581  -0.329083 -1.19869 0.131957  -0.35627 -1.27625 0.142429  -0.383686 -1.35407 0.152978  -0.411249 -1.43204 0.163588  -0.438889 -1.51006 0.174237  -0.466542 -1.58806 0.184926  -0.494156 -1.66596 0.195636  -0.521678 -1.74369 0.206368  -0.549058 -1.82121 0.217118  -0.576258 -1.89847 0.227892  -0.603253 -1.97543 0.238704  -0.630032 -2.05208 0.249571  0 0 0  0.0028953 -0.0137108 0.00114602  0.00856605 -0.0342649 0.00212578  0.0130749 -0.0633647 0.00310239  0.0153553 -0.0993561 0.00549084  0.0141861 -0.141719 0.00993933  0.0108279 -0.188978 0.015047  0.00524503 -0.240708 0.0207746  -0.00256586 -0.296449 0.0270936  -0.0125613 -0.355747 0.0339627  -0.0246562 -0.418174 0.0413419  -0.0387367 -0.483337 0.0491841  -0.0546753 -0.550888 0.0574394  -0.0723226 -0.6205 0.0660662  -0.0915262 -0.691884 0.0750195  -0.112136 -0.764781 0.084257  -0.133995 -0.838952 0.093747  -0.156957 -0.914191 0.103453  -0.180873 -0.990305 0.113347  -0.205607 -1.06712 0.123401  -0.231036 -1.14449 0.133588  -0.257026 -1.22227 0.143894  -0.283476 -1.30034 0.154294  -0.310276 -1.37858 0.164773  -0.337334 -1.45691 0.175316  -0.364567 -1.53522 0.185902  -0.391898 -1.61345 0.196527  -0.419266 -1.69153 0.207179  -0.446605 -1.7694 0.217851  -0.473868 -1.84703 0.22854  -0.500989 -1.92436 0.239254  -0.527927 -2.00138 0.249989  -0.554649 -2.07806 0.26076  0 0 0  0.00448306 -0.0179922 0.00454071  0.0141895 -0.0405708 0.00823756  0.025356 -0.0701761 0.012146  0.0343411 -0.106507 0.0159128  0.0403308 -0.14915 0.0204071  0.042749 -0.197464 0.0260124  0.0423443 -0.250413 0.0321051  0.0392036 -0.307456 0.0386835  0.0334269 -0.368092 0.0457449  0.0251307 -0.431857 0.0532582  0.0144614 -0.498332 0.0611912  0.00158226 -0.567144 0.069509  -0.0133362 -0.637958 0.0781689  -0.0301129 -0.71047 0.0871328  -0.0485737 -0.784415 0.0963667  -0.0685341 -0.859545 0.105837  -0.0898318 -0.935655 0.115512  -0.112297 -1.01255 0.125364  -0.135772 -1.09005 0.135374  -0.160116 -1.16803 0.14551  -0.185181 -1.24633 0.155762  -0.210848 -1.32484 0.166103  -0.236993 -1.40346 0.176527  -0.263511 -1.48209 0.187008  -0.290303 -1.56065 0.19754  -0.317284 -1.63907 0.208111  -0.344374 -1.71729 0.218712  -0.371505 -1.79527 0.229331  -0.39862 -1.87297 0.239965  -0.425657 -1.95037 0.250614  -0.452542 -2.02745 0.26127  -0.479224 -2.10418 0.27193  0 0 0  0.00593251 -0.0237715 0.00755586  0.0197176 -0.0491492 0.0137753  0.0375333 -0.0795937 0.020492  0.0530774 -0.116481 0.025756  0.0654364 -0.159671 0.0309643  0.0741864 -0.208605 0.0366442  0.079118 -0.262584 0.0430306  0.0807501 -0.32077 0.0498552  0.0792526 -0.382594 0.0571128  0.0748011 -0.447553 0.0647867  0.0675792 -0.515197 0.0728462  0.0577828 -0.585139 0.0812578  0.04562 -0.657019 0.0899864  0.0312916 -0.730529 0.0989968  0.0150023 -0.805396 0.10826  -0.0030427 -0.881367 0.117739  -0.0226552 -0.958233 0.12741  -0.0436511 -1.0358 0.13725  -0.0658484 -1.1139 0.147233  -0.0890901 -1.19238 0.15734  -0.113216 -1.27111 0.167557  -0.138082 -1.34998 0.17786  -0.163561 -1.42889 0.188238  -0.18953 -1.50776 0.198676  -0.215875 -1.58649 0.209161  -0.242495 -1.66505 0.21969  -0.269306 -1.74337 0.230247  -0.296221 -1.82142 0.240826  -0.323176 -1.89917 0.251413  -0.350117 -1.9766 0.262003  -0.376968 -2.05372 0.272583  -0.403639 -2.13051 0.283139  0 0 0  0.00696394 -0.0310571 0.0103103  0.0247103 -0.0601658 0.0186601  0.0497135 -0.0915871 0.028168  0.0720663 -0.129161 0.034894  0.0908595 -0.172994 0.0408652  0.105652 -0.222633 0.0469342  0.116294 -0.277405 0.0534327  0.122811 -0.3366 0.0604889  0.125649 -0.399484 0.0679678  0.125061 -0.465512 0.0758417  0.121285 -0.534201 0.0840711  0.114566 -0.605141 0.0926254  0.105139 -0.67796 0.101468  0.093244 -0.75234 0.110569  0.0791097 -0.827999 0.119896  0.0629654 -0.904684 0.129424  0.0450194 -0.982183 0.139128  0.0254817 -1.0603 0.148981  0.00454903 -1.13887 0.15897  -0.0176029 -1.21775 0.169074  -0.0407994 -1.29681 0.179276  -0.0648851 -1.37594 0.189558  -0.0897081 -1.45505 0.199909  -0.115137 -1.53407 0.210319  -0.141048 -1.61291 0.220776  -0.167326 -1.69153 0.231273  -0.193871 -1.76988 0.241801  -0.22059 -1.84794 0.252346  -0.247406 -1.9257 0.262901  -0.274245 -2.00313 0.273455  -0.301062 -2.08026 0.28398  -0.327781 -2.1571 0.294453  0 0 0  0.00718306 -0.0390803 0.0138633  0.0273001 -0.0735512 0.0230015  0.060876 -0.106032 0.0354842  0.0909014 -0.144458 0.0434236  0.116704 -0.189056 0.0499958  0.137874 -0.239474 0.0564267  0.154281 -0.295072 0.0631841  0.166009 -0.355137 0.0704277  0.173275 -0.418983 0.0781845  0.176568 -0.485969 0.0863228  0.176218 -0.555584 0.0947897  0.172525 -0.627398 0.103542  0.165785 -0.701026 0.112556  0.156269 -0.776142 0.121802  0.144237 -0.852459 0.131245  0.129941 -0.929724 0.140867  0.113621 -1.00772 0.150641  0.0954955 -1.08626 0.160547  0.0757833 -1.16518 0.170573  0.0546799 -1.24433 0.180697  0.0323751 -1.3236 0.19091  0.00904036 -1.40288 0.201197  -0.015166 -1.48209 0.211543  -0.0400949 -1.56114 0.221944  -0.0656052 -1.63999 0.232388  -0.091578 -1.71859 0.242867  -0.1179 -1.79691 0.253373  -0.144461 -1.87492 0.263902  -0.171174 -1.95261 0.274437  -0.197961 -2.03 0.284973  -0.224748 -2.10711 0.295483  -0.251506 -2.18397 0.30592  0 0 0  -0.0241109 -0.0273323 -0.0119522  -0.0481416 -0.0526366 -0.0197612  -0.0724648 -0.0804178 -0.024475  -0.097098 -0.111681 -0.0266731  -0.122031 -0.14747 -0.0266123  -0.147276 -0.187579 -0.0247547  -0.172874 -0.231762 -0.0214567  -0.198866 -0.279753 -0.0169705  -0.225272 -0.331263 -0.0114922  -0.252092 -0.386009 -0.00517469  -0.279316 -0.443715 0.00186593  -0.306923 -0.504123 0.00952473  -0.334876 -0.566979 0.0177227  -0.363132 -0.632043 0.0263807  -0.391652 -0.699096 0.0354383  -0.420385 -0.767918 0.0448361  -0.449269 -0.838302 0.0545246  -0.478257 -0.91006 0.0644666  -0.507295 -0.983014 0.0746127  -0.536332 -1.057 0.0849373  -0.565321 -1.13184 0.095402  -0.594216 -1.2074 0.105988  -0.622978 -1.28354 0.11667  -0.651576 -1.36012 0.127416  -0.679979 -1.43702 0.138217  -0.708169 -1.51414 0.14905  -0.736122 -1.59138 0.159916  -0.763835 -1.66863 0.170787  -0.791306 -1.74581 0.181669  -0.81856 -1.82286 0.192567  -0.845626 -1.89973 0.203476  -0.872523 -1.97637 0.21444  0 0 0  -0.00355364 -0.0127473 -0.00839223  -0.0229359 -0.0415599 -0.0133096  -0.0425217 -0.0721043 -0.0164766  -0.062539 -0.105859 -0.0177361  -0.0828732 -0.143977 -0.016924  -0.103704 -0.18638 -0.0144638  -0.125176 -0.232857 -0.0106854  -0.14737 -0.283127 -0.00582457  -0.170321 -0.336878 -5.64177e-05  -0.194037 -0.393797 0.00648476  -0.21849 -0.453587 0.0136889  -0.243642 -0.515966 0.0214642  -0.269439 -0.580673 0.0297392  -0.295816 -0.647451 0.0384388  -0.322708 -0.716077 0.0475136  -0.350042 -0.786327 0.0569087  -0.377738 -0.858 0.0665787  -0.405727 -0.930908 0.0764856  -0.433933 -1.00487 0.0865921  -0.462294 -1.07973 0.0968648  -0.490739 -1.15533 0.107276  -0.519212 -1.23153 0.117805  -0.547652 -1.3082 0.128429  -0.576024 -1.38522 0.139118  -0.604275 -1.46247 0.149864  -0.63238 -1.53986 0.160648  -0.660304 -1.61729 0.171461  -0.688021 -1.69468 0.182295  -0.715514 -1.77195 0.193151  -0.742794 -1.84906 0.20403  -0.769863 -1.92594 0.214943  -0.796743 -2.00259 0.225922  0 0 0  -0.00118051 -0.012165 -0.0049067  -0.00533162 -0.0334576 -0.00836904  -0.0191089 -0.066371 -0.00962926  -0.0337779 -0.102427 -0.00974196  -0.0488837 -0.142651 -0.00798811  -0.0647756 -0.187111 -0.00480062  -0.0816694 -0.235643 -0.000466431  -0.0996789 -0.287958 0.00482127  -0.118843 -0.343727 0.0109191  -0.139149 -0.402609 0.0177121  -0.160559 -0.464288 0.0251072  -0.183009 -0.528463 0.0330253  -0.206423 -0.594858 0.0414035  -0.230708 -0.66321 0.0501762  -0.255776 -0.733285 0.0592954  -0.28152 -0.804858 0.068719  -0.307853 -0.877727 0.0783989  -0.334679 -0.951706 0.0882996  -0.3619 -1.02662 0.0983865  -0.389433 -1.10231 0.108639  -0.4172 -1.17863 0.119019  -0.445118 -1.25545 0.129511  -0.473122 -1.33263 0.140093  -0.501149 -1.41007 0.150747  -0.529151 -1.48767 0.161449  -0.557069 -1.56533 0.172197  -0.584874 -1.64296 0.182969  -0.612526 -1.7205 0.193772  -0.63999 -1.79789 0.204594  -0.66725 -1.87506 0.215446  -0.694306 -1.95199 0.226329  -0.721168 -2.02865 0.237271  0 0 0  0.000731215 -0.0133096 -0.00214808  0.00116387 -0.0344929 -0.00352043  -0.000568032 -0.0639293 -0.0034787  -0.00935861 -0.101994 -0.00250822  -0.0186984 -0.143939 0.000325814  -0.0292475 -0.190133 0.00434033  -0.0412499 -0.240437 0.00929393  -0.0548112 -0.29454 0.0150488  -0.0699564 -0.352092 0.0215023  -0.0866536 -0.412725 0.0285709  -0.104834 -0.476099 0.0361785  -0.124408 -0.541893 0.0442619  -0.145269 -0.609816 0.0527682  -0.167302 -0.679597 0.0616398  -0.190393 -0.750994 0.0708301  -0.214414 -0.82378 0.080302  -0.239246 -0.89775 0.0900113  -0.264779 -0.972717 0.0999294  -0.290893 -1.04851 0.110025  -0.317487 -1.12497 0.12027  -0.344464 -1.20196 0.130641  -0.371729 -1.27935 0.141116  -0.399195 -1.35702 0.151678  -0.426796 -1.43487 0.162304  -0.454454 -1.51279 0.172982  -0.482119 -1.5907 0.183698  -0.509733 -1.66854 0.194446  -0.537254 -1.74623 0.205212  -0.564637 -1.82373 0.216  -0.591847 -1.90098 0.226809  -0.618863 -1.97796 0.237653  -0.645684 -2.05465 0.248533  0 0 0  0.00245148 -0.0159054 0.000265902  0.00697657 -0.0381744 0.000871422  0.0110842 -0.0677457 0.00250791  0.0117464 -0.104848 0.00430075  0.00879306 -0.148002 0.00832294  0.00393057 -0.195597 0.0131736  -0.00294852 -0.247406 0.0187435  -0.011882 -0.30307 0.0249679  -0.022854 -0.362193 0.0317838  -0.0357987 -0.424383 0.0391404  -0.0506183 -0.489271 0.0469766  -0.067193 -0.55652 0.0552453  -0.0853873 -0.625822 0.0638969  -0.105058 -0.696895 0.0728839  -0.126063 -0.76949 0.0821655  -0.148259 -0.843377 0.0917028  -0.171498 -0.918343 0.101467  -0.195646 -0.994206 0.11142  -0.220567 -1.0708 0.121539  -0.24614 -1.14796 0.131798  -0.27225 -1.22555 0.142172  -0.29879 -1.30347 0.152644  -0.325657 -1.38157 0.163193  -0.352761 -1.45978 0.17381  -0.380022 -1.538 0.18447  -0.407373 -1.61615 0.195164  -0.434746 -1.69417 0.20589  -0.462092 -1.772 0.216629  -0.489358 -1.8496 0.227383  -0.516488 -1.92693 0.238154  -0.543449 -2.00397 0.248942  -0.570218 -2.0807 0.259742  0 0 0  0.0040459 -0.0198929 0.00247766  0.0124954 -0.0441064 0.00495552  0.0220312 -0.0744805 0.00818479  0.0297391 -0.111705 0.011791  0.0345649 -0.15493 0.0162428  0.0356852 -0.203628 0.0218226  0.0341262 -0.256709 0.027957  0.0299598 -0.313732 0.0346233  0.0232733 -0.374245 0.0418004  0.0141737 -0.437822 0.0494526  0.00279546 -0.504063 0.0575346  -0.0107037 -0.572615 0.0660055  -0.0261629 -0.643153 0.0748235  -0.0434073 -0.715384 0.0839456  -0.0622665 -0.789052 0.0933404  -0.0825709 -0.86392 0.102968  -0.104156 -0.939778 0.1128  -0.126865 -1.01644 0.122807  -0.150542 -1.09373 0.132967  -0.175048 -1.17151 0.14325  -0.200247 -1.24964 0.153641  -0.226017 -1.328 0.164122  -0.252243 -1.40649 0.174673  -0.278818 -1.485 0.185281  -0.30565 -1.56347 0.195933  -0.332657 -1.64182 0.206618  -0.359764 -1.71998 0.217324  -0.386902 -1.79792 0.22804  -0.414022 -1.8756 0.238764  -0.441067 -1.953 0.249494  -0.467976 -2.03009 0.26022  -0.494701 -2.10687 0.270937  0 0 0  0.0055252 -0.0253626 0.00451094  0.0179089 -0.0523204 0.00870246  0.0329311 -0.0839389 0.0134756  0.047498 -0.121571 0.01884  0.0589947 -0.16523 0.0242767  0.0668697 -0.214452 0.030213  0.0708179 -0.26859 0.036844  0.0715336 -0.326789 0.043933  0.0692023 -0.388526 0.0514749  0.0639951 -0.45333 0.0594407  0.0560983 -0.520774 0.0677929  0.0457006 -0.590481 0.0764958  0.0330051 -0.662113 0.0855093  0.0182104 -0.735366 0.0947979  0.00151646 -0.809975 0.104331  -0.0168821 -0.8857 0.114071  -0.0367906 -0.962328 0.123997  -0.058038 -1.03967 0.13408  -0.0804522 -1.11757 0.144297  -0.103869 -1.19586 0.154625  -0.128143 -1.27443 0.165054  -0.153127 -1.35316 0.175557  -0.178696 -1.43195 0.186123  -0.204732 -1.5107 0.196738  -0.231125 -1.58936 0.20739  -0.25778 -1.66784 0.218069  -0.284615 -1.74611 0.228764  -0.311544 -1.82412 0.239466  -0.338508 -1.90185 0.250165  -0.365452 -1.97927 0.260858  -0.392317 -2.05641 0.271531  -0.419026 -2.13325 0.282164  0 0 0  0.00669716 -0.0323394 0.00647745  0.0229451 -0.0629571 0.0120865  0.0437626 -0.0962229 0.0182118  0.0655566 -0.134373 0.0252862  0.0838246 -0.178556 0.0317484  0.0979967 -0.228406 0.0383162  0.107933 -0.283282 0.045296  0.113644 -0.342494 0.0528003  0.115714 -0.405301 0.0607256  0.114408 -0.471186 0.0690403  0.10998 -0.539684 0.0777044  0.102665 -0.610403 0.0866787  0.0927088 -0.682984 0.095927  0.0803424 -0.757117 0.105419  0.0657974 -0.832526 0.115124  0.0492878 -0.908975 0.125009  0.0310345 -0.986244 0.13506  0.0112336 -1.06415 0.145242  -0.00992775 -1.14252 0.155539  -0.0322685 -1.22122 0.165936  -0.0556231 -1.30013 0.176416  -0.0798361 -1.37912 0.186959  -0.10476 -1.45811 0.197551  -0.130266 -1.53702 0.208187  -0.156239 -1.61578 0.21885  -0.182559 -1.69433 0.229531  -0.20913 -1.77264 0.240228  -0.235865 -1.85067 0.250925  -0.262689 -1.9284 0.261613  -0.289535 -2.00583 0.272283  -0.316355 -2.08298 0.282916  -0.343096 -2.15988 0.293487  0 0 0  0.00727919 -0.040282 0.00899913  0.0265492 -0.0758668 0.0153572  0.0533101 -0.111487 0.0221423  0.0836542 -0.150129 0.031086  0.109355 -0.194912 0.0385387  0.130131 -0.245442 0.0457423  0.14597 -0.301071 0.0532062  0.157029 -0.361094 0.0611074  0.163553 -0.424831 0.0694745  0.166129 -0.491654 0.0781977  0.165112 -0.561061 0.0872283  0.160813 -0.632642 0.0965233  0.153526 -0.706022 0.106057  0.143521 -0.780883 0.115795  0.131058 -0.856948 0.125708  0.116383 -0.933973 0.13578  0.0997376 -1.01174 0.145981  0.081332 -1.09007 0.156294  0.0613787 -1.16879 0.166699  0.0400753 -1.24777 0.177187  0.0176036 -1.32688 0.187738  -0.00586796 -1.40603 0.198337  -0.0301847 -1.48512 0.208975  -0.0551982 -1.56408 0.219643  -0.0807767 -1.64285 0.23033  -0.106797 -1.72139 0.241031  -0.133149 -1.79966 0.251734  -0.159728 -1.87764 0.262432  -0.18645 -1.95532 0.273117  -0.213238 -2.03271 0.283779  -0.240026 -2.10984 0.294402  -0.266795 -2.18675 0.304945  0 0 0  -0.0258981 -0.0301419 -0.00623463  -0.0513633 -0.0571167 -0.0117129  -0.0769241 -0.0859959 -0.0155734  -0.102726 -0.118292 -0.0176944  -0.128791 -0.154363 -0.0181667  -0.155144 -0.194576 -0.017047  -0.181793 -0.238737 -0.0145507  -0.20875 -0.286605 -0.0108624  -0.236024 -0.337911 -0.00614386  -0.263618 -0.392397 -0.000538468  -0.291521 -0.449806 0.00584295  -0.319722 -0.509893 0.0128931  -0.348189 -0.572416 0.0205318  -0.376887 -0.637148 0.0286822  -0.405783 -0.703879 0.0372768  -0.434823 -0.772387 0.0462643  -0.463969 -0.842481 0.055576  -0.493171 -0.913968 0.0651786  -0.522382 -0.986676 0.0750259  -0.551563 -1.06043 0.0850821  -0.580657 -1.13508 0.0953165  -0.609637 -1.21046 0.105693  -0.63846 -1.28645 0.116204  -0.667104 -1.3629 0.126803  -0.695538 -1.43969 0.137485  -0.723749 -1.51673 0.148224  -0.751719 -1.59389 0.159018  -0.779444 -1.67109 0.169842  -0.806928 -1.74824 0.180699  -0.8342 -1.82528 0.191581  -0.861279 -1.90215 0.202494  -0.888199 -1.97881 0.213459  0 0 0  -0.00390296 -0.01468 -0.00405188  -0.0249066 -0.045495 -0.00744984  -0.0457947 -0.0772092 -0.00985204  -0.0669806 -0.11199 -0.0108897  -0.0886176 -0.150434 -0.0105247  -0.110721 -0.192972 -0.00868937  -0.133382 -0.239447 -0.00557839  -0.156662 -0.289611 -0.00137494  -0.180585 -0.343173 0.00377073  -0.205158 -0.399852 0.00973606  -0.230363 -0.459364 0.0164109  -0.256169 -0.521444 0.0237023  -0.282527 -0.585837 0.0315348  -0.309388 -0.652307 0.0398373  -0.336688 -0.72063 0.0485553  -0.364362 -0.790593 0.0576297  -0.392345 -0.861995 0.067009  -0.420566 -0.93465 0.076662  -0.448964 -1.00839 0.0865439  -0.477478 -1.08305 0.0966188  -0.506043 -1.15847 0.10686  -0.53461 -1.23451 0.11724  -0.563126 -1.31104 0.127734  -0.591545 -1.38794 0.138326  -0.619832 -1.46509 0.148988  -0.647959 -1.5424 0.159714  -0.6759 -1.61978 0.170486  -0.703632 -1.69712 0.181294  -0.731143 -1.77437 0.192136  -0.758438 -1.85147 0.203013  -0.785529 -1.92837 0.213931  -0.812445 -2.00504 0.224902  0 0 0  -0.00150458 -0.0139425 -0.0024732  -0.00636911 -0.0366113 -0.00439496  -0.0215411 -0.0707818 -0.00520074  -0.0373176 -0.107822 -0.00503474  -0.0538813 -0.148451 -0.00374274  -0.0711814 -0.193123 -0.00110372  -0.0893663 -0.241711 0.0026828  -0.108535 -0.29397 0.00745966  -0.128728 -0.349596 0.0130851  -0.149939 -0.408282 0.0194518  -0.172139 -0.469722 0.0264594  -0.195277 -0.533637 0.0340307  -0.21928 -0.599754 0.0420991  -0.244071 -0.667828 0.0505958  -0.269567 -0.737631 0.0594716  -0.295678 -0.808945 0.0686748  -0.322317 -0.88157 0.0781597  -0.349393 -0.955322 0.0878945  -0.376821 -1.03003 0.09784  -0.404527 -1.10554 0.107964  -0.432425 -1.18169 0.11824  -0.460448 -1.25836 0.128645  -0.488535 -1.33542 0.139156  -0.516621 -1.41276 0.149756  -0.544663 -1.49027 0.160421  -0.57261 -1.56787 0.171145  -0.600436 -1.64545 0.181907  -0.628106 -1.72296 0.192707  -0.655591 -1.80032 0.203535  -0.682868 -1.87749 0.2144  -0.70995 -1.95443 0.225299  -0.736846 -2.03112 0.236245  0 0 0  0.000395909 -0.0149007 -0.00130892  5.82933e-05 -0.0373411 -0.00190214  -0.00262615 -0.06761 -0.00142236  -0.0122322 -0.106452 3.7618e-05  -0.0231973 -0.148955 0.00232545  -0.035256 -0.195481 0.00584542  -0.0486069 -0.24593 0.0103752  -0.06336 -0.300052 0.0157672  -0.0795535 -0.357523 0.0219099  -0.0971682 -0.418012 0.0287115  -0.116149 -0.481195 0.0360885  -0.136421 -0.546772 0.0439735  -0.157886 -0.61446 0.0523045  -0.180441 -0.684001 0.0610267  -0.203979 -0.75516 0.0700863  -0.22838 -0.827717 0.0794467  -0.253533 -0.901468 0.0890682  -0.279332 -0.976231 0.098912  -0.30567 -1.05184 0.108947  -0.332452 -1.12813 0.119144  -0.359575 -1.20498 0.12948  -0.386957 -1.28224 0.139932  -0.414519 -1.35979 0.150481  -0.442189 -1.43755 0.161103  -0.469898 -1.51539 0.171788  -0.497601 -1.59325 0.182519  -0.525239 -1.67105 0.193289  -0.552783 -1.74871 0.20408  -0.58019 -1.82619 0.214896  -0.607422 -1.90345 0.225738  -0.634466 -1.98044 0.236608  -0.661324 -2.05716 0.247509  0 0 0  0.00210825 -0.0172158 -0.000265412  0.00579697 -0.0405996 0.000333183  0.00877151 -0.0709417 0.00199679  0.00938821 -0.108202 0.00468647  0.00448209 -0.152248 0.00791971  -0.00192797 -0.200307 0.0123649  -0.0101389 -0.252348 0.0176698  -0.020242 -0.308097 0.0237056  -0.0322397 -0.367201 0.0303884  -0.04609 -0.429302 0.0376435  -0.0617028 -0.494049 0.045408  -0.078974 -0.561126 0.0536244  -0.0977761 -0.630235 0.0622401  -0.117974 -0.701105 0.0712078  -0.139436 -0.773496 0.0804818  -0.162023 -0.847179 0.0900206  -0.185598 -0.921954 0.0997934  -0.210028 -0.997637 0.109768  -0.235189 -1.07406 0.119912  -0.260961 -1.15107 0.130204  -0.287233 -1.22854 0.140616  -0.313903 -1.30633 0.151131  -0.340872 -1.38434 0.161729  -0.368058 -1.46247 0.172392  -0.395384 -1.54062 0.183102  -0.422779 -1.61872 0.193854  -0.450187 -1.6967 0.204632  -0.477559 -1.77451 0.215427  -0.504849 -1.8521 0.226235  -0.532006 -1.92943 0.237054  -0.559 -2.00649 0.247886  -0.585806 -2.08325 0.258727  0 0 0  0.00374013 -0.0208951 0.000767916  0.0113261 -0.0461093 0.00246499  0.0196344 -0.077238 0.00525805  0.0265769 -0.11476 0.00907046  0.0300825 -0.158609 0.0132374  0.0297803 -0.207823 0.0186458  0.0269735 -0.261193 0.024717  0.0217004 -0.318353 0.0313852  0.0140269 -0.378897 0.0386043  0.00404942 -0.442429 0.0463232  -0.00810254 -0.508573 0.0544913  -0.0222896 -0.576992 0.0630555  -0.0383525 -0.647371 0.0719753  -0.0561267 -0.719431 0.0812063  -0.0754491 -0.792922 0.09071  -0.0961562 -0.867612 0.100448  -0.118087 -0.943299 0.110394  -0.14109 -1.0198 0.120514  -0.165019 -1.09695 0.130783  -0.189734 -1.17459 0.14118  -0.215107 -1.25261 0.151684  -0.241022 -1.33086 0.162272  -0.26736 -1.40926 0.172929  -0.294027 -1.4877 0.18364  -0.320933 -1.56611 0.194389  -0.347994 -1.64442 0.205169  -0.375139 -1.72255 0.215965  -0.402307 -1.80047 0.226768  -0.429455 -1.87814 0.237569  -0.456523 -1.95554 0.248368  -0.483458 -2.03265 0.25916  -0.510222 -2.10948 0.269934  0 0 0  0.00527087 -0.0260758 0.00180205  0.0167834 -0.0539228 0.00450381  0.0304566 -0.0863222 0.00834912  0.0435663 -0.124462 0.013236  0.0539576 -0.168642 0.0186798  0.060809 -0.21827 0.0247501  0.0636438 -0.272727 0.0315319  0.0633397 -0.331099 0.0388131  0.060076 -0.392904 0.0465693  0.0540284 -0.457699 0.0547622  0.0453755 -0.525076 0.0633482  0.0343008 -0.594678 0.0722831  0.0210035 -0.666177 0.0815289  0.00567651 -0.739282 0.0910461  -0.0114857 -0.813736 0.1008  -0.0302924 -0.8893 0.110759  -0.0505614 -0.965777 0.120891  -0.0721157 -1.04298 0.131179  -0.0947919 -1.12074 0.141591  -0.118431 -1.19891 0.152107  -0.142892 -1.27738 0.162714  -0.168032 -1.35601 0.173388  -0.193727 -1.43472 0.184115  -0.219865 -1.51341 0.194882  -0.246339 -1.59201 0.205677  -0.273056 -1.67046 0.216489  -0.299931 -1.7487 0.227307  -0.326897 -1.82669 0.238124  -0.353889 -1.90441 0.248923  -0.380856 -1.98185 0.259706  -0.407746 -2.059 0.27046  -0.434494 -2.13589 0.281162  0 0 0  0.00655816 -0.0328326 0.00288898  0.0220325 -0.0642055 0.00642225  0.0413493 -0.0983254 0.0111356  0.0609319 -0.13731 0.0170192  0.078308 -0.181935 0.0237051  0.0916715 -0.232124 0.0306523  0.100767 -0.287256 0.0380366  0.105552 -0.346648 0.0459231  0.106743 -0.409538 0.0542295  0.104625 -0.475425 0.0629241  0.0994524 -0.543873 0.0719605  0.091466 -0.614496 0.0812997  0.080904 -0.686956 0.0908996  0.0679973 -0.760951 0.100732  0.0529697 -0.836217 0.11076  0.0360417 -0.912515 0.120959  0.0174158 -0.989644 0.131306  -0.0027051 -1.06741 0.141778  -0.0241435 -1.14566 0.152348  -0.0467217 -1.22425 0.163001  -0.0702765 -1.30305 0.173725  -0.0946543 -1.38196 0.184498  -0.119717 -1.46088 0.195304  -0.145337 -1.53973 0.206139  -0.171398 -1.61844 0.216987  -0.197787 -1.69696 0.227837  -0.224408 -1.77525 0.238685  -0.251182 -1.85326 0.249516  -0.278035 -1.93099 0.260325  -0.304904 -2.00843 0.2711  -0.331748 -2.0856 0.281826  -0.358514 -2.16253 0.292482  0 0 0  0.00731546 -0.0407777 0.00428491  0.0262773 -0.0769019 0.00830048  0.0515155 -0.113427 0.0134316  0.07833 -0.153518 0.0201251  0.103537 -0.198599 0.0281608  0.123756 -0.249369 0.0360371  0.138916 -0.305185 0.044146  0.149208 -0.365324 0.0526488  0.154876 -0.429119 0.0615579  0.156636 -0.495925 0.0708034  0.154863 -0.565265 0.0803374  0.149869 -0.636737 0.0901138  0.141952 -0.709987 0.100104  0.131382 -0.784704 0.11028  0.118416 -0.860619 0.120611  0.1033 -0.937492 0.131083  0.0862591 -1.01512 0.141659  0.0675178 -1.09331 0.152335  0.0472715 -1.17191 0.163082  0.0257146 -1.25077 0.173889  0.0030272 -1.32979 0.184741  -0.0206261 -1.40885 0.19562  -0.0450928 -1.48787 0.20652  -0.0702262 -1.56678 0.217429  -0.0959048 -1.64551 0.228337  -0.122006 -1.72402 0.239234  -0.148411 -1.80226 0.250117  -0.175031 -1.88023 0.260974  -0.201784 -1.95791 0.271793  -0.228594 -2.03531 0.28257  -0.255404 -2.11246 0.293292  -0.282192 -2.18942 0.303926  0 0 0  -0.0273103 -0.0316836 0.000222221  -0.0540665 -0.0597019 -0.00284193  -0.0808312 -0.0893725 -0.00589927  -0.107774 -0.122315 -0.00801025  -0.134952 -0.159006 -0.00890093  -0.162373 -0.199487 -0.00850689  -0.190046 -0.243793 -0.00683343  -0.217963 -0.291704 -0.00398447  -0.24612 -0.342977 -7.82609e-05  -0.27451 -0.397364 0.00475942  -0.303128 -0.454626 0.0104193  -0.331959 -0.514531 0.0168077  -0.36098 -0.576852 0.0238403  -0.390161 -0.641369 0.0314307  -0.419476 -0.707879 0.0395178  -0.448877 -0.776172 0.0480377  -0.478325 -0.846058 0.0569349  -0.507786 -0.917354 0.0661575  -0.537217 -0.989885 0.0756623  -0.566572 -1.06348 0.0854227  -0.595815 -1.13798 0.0953901  -0.624913 -1.21324 0.105536  -0.653833 -1.28912 0.11584  -0.682544 -1.36548 0.126276  -0.711037 -1.44221 0.136815  -0.739289 -1.51918 0.147442  -0.767295 -1.59631 0.15815  -0.795044 -1.67347 0.168918  -0.822552 -1.75061 0.17974  -0.849833 -1.82764 0.190616  -0.876927 -1.90451 0.201535  -0.903871 -1.98118 0.212507  0 0 0  -0.00414637 -0.0156229 0.000798792  -0.0266177 -0.0477625 -0.000919431  -0.0487553 -0.0803017 -0.00257593  -0.0711044 -0.115717 -0.00348628  -0.0938615 -0.154766 -0.00335343  -0.117118 -0.19758 -0.00209388  -0.140895 -0.24421 0.000344351  -0.165223 -0.294431 0.00385611  -0.190111 -0.347975 0.00833227  -0.215559 -0.40457 0.0136633  -0.241545 -0.463948 0.019751  -0.268042 -0.525863 0.0265033  -0.295009 -0.59007 0.0338413  -0.322401 -0.65634 0.0416926  -0.350163 -0.724463 0.0499994  -0.378231 -0.794225 0.0587044  -0.406545 -0.865434 0.0677567  -0.435052 -0.937913 0.0771106  -0.463691 -1.01149 0.0867273  -0.492404 -1.086 0.0965704  -0.521134 -1.16129 0.106605  -0.549831 -1.23722 0.116812  -0.578452 -1.31365 0.127157  -0.606953 -1.39047 0.137623  -0.635307 -1.46756 0.148185  -0.663481 -1.54482 0.158831  -0.691462 -1.62216 0.169544  -0.719221 -1.69948 0.180321  -0.746763 -1.77673 0.19114  -0.774078 -1.85382 0.202015  -0.801192 -1.93073 0.212938  -0.828131 -2.00741 0.22392  0 0 0  -0.00171743 -0.014928 0.000337601  -0.00716294 -0.0383123 0.000224352  -0.0237316 -0.0734385 -0.000178471  -0.0407395 -0.11111 6.80983e-05  -0.0584388 -0.152329 0.00123248  -0.0769743 -0.197296 0.00339092  -0.0963515 -0.246067 0.00664006  -0.116636 -0.298414 0.0108733  -0.13785 -0.35405 0.0159804  -0.159984 -0.412679 0.0218628  -0.183005 -0.474015 0.0284296  -0.206871 -0.537792 0.0355976  -0.231515 -0.603752 0.0432995  -0.256865 -0.671653 0.0514663  -0.282849 -0.741281 0.060041  -0.309376 -0.812416 0.0689788  -0.33637 -0.884872 0.0782298  -0.363752 -0.958466 0.0877556  -0.391437 -1.03303 0.0975168  -0.419353 -1.10841 0.107485  -0.447431 -1.18445 0.117625  -0.475599 -1.26102 0.127916  -0.503802 -1.338 0.13833  -0.53198 -1.41526 0.148853  -0.560094 -1.49272 0.159459  -0.588099 -1.57027 0.17014  -0.615965 -1.64783 0.180881  -0.643668 -1.72532 0.191668  -0.67118 -1.80268 0.2025  -0.69849 -1.87985 0.213372  -0.725601 -1.95681 0.224282  -0.752525 -2.03352 0.235244  0 0 0  0.000159353 -0.015831 -0.00015375  -0.000766367 -0.038941 0.000292823  -0.00427961 -0.0697279 0.00132881  -0.015185 -0.109201 0.0027875  -0.0272692 -0.152276 0.00503631  -0.0406397 -0.199134 0.00814342  -0.0552461 -0.249817 0.0122508  -0.0711558 -0.30407 0.0172487  -0.0883999 -0.361592 0.0230323  -0.106957 -0.422065 0.029508  -0.126778 -0.485182 0.0365964  -0.147796 -0.550658 0.044223  -0.169919 -0.618221 0.0523235  -0.193046 -0.68762 0.0608438  -0.217083 -0.75863 0.0697267  -0.241915 -0.831035 0.0789334  -0.267442 -0.90464 0.0884205  -0.293559 -0.979267 0.0981499  -0.320167 -1.05475 0.108087  -0.347173 -1.13093 0.118205  -0.374488 -1.20767 0.128475  -0.402027 -1.28485 0.138877  -0.429715 -1.36234 0.149387  -0.457482 -1.44003 0.159987  -0.485271 -1.51783 0.170657  -0.513036 -1.59566 0.181385  -0.540723 -1.67344 0.192164  -0.568301 -1.75109 0.202974  -0.595742 -1.82857 0.213814  -0.623009 -1.90583 0.224679  -0.650085 -1.98284 0.235577  -0.676979 -2.05959 0.246504  0 0 0  0.00182484 -0.0180065 -0.000586018  0.00487292 -0.0420012 0.000231341  0.00696716 -0.0728154 0.00211515  0.00660646 -0.110427 0.00491248  0.000725329 -0.154953 0.00827983  -0.00706935 -0.203412 0.0123679  -0.0165763 -0.255751 0.017374  -0.0278544 -0.311689 0.0231684  -0.040908 -0.370892 0.0296567  -0.0557027 -0.433019 0.0367567  -0.0721569 -0.497741 0.0443912  -0.0901737 -0.564752 0.0525041  -0.109634 -0.633766 0.0610341  -0.130414 -0.704525 0.0699325  -0.152382 -0.776794 0.079154  -0.17541 -0.850354 0.088653  -0.199366 -0.925008 0.098398  -0.224124 -1.00058 0.108355  -0.249563 -1.07689 0.118495  -0.275571 -1.15381 0.128788  -0.302046 -1.23119 0.139207  -0.32888 -1.30892 0.149739  -0.355989 -1.38687 0.16036  -0.383285 -1.46494 0.17105  -0.410697 -1.54306 0.181794  -0.438158 -1.62114 0.192586  -0.465618 -1.69911 0.203408  -0.493029 -1.77691 0.21425  -0.520356 -1.8545 0.225103  -0.547549 -1.93184 0.235966  -0.574579 -2.00891 0.246839  -0.601428 -2.08571 0.257716  0 0 0  0.00344592 -0.0213966 -0.000806898  0.0103433 -0.0471228 0.000341296  0.0177034 -0.0786936 0.00294806  0.02355 -0.116566 0.00668819  0.0265514 -0.160597 0.0113005  0.0247193 -0.210367 0.0163327  0.020613 -0.264111 0.0222439  0.0141864 -0.321516 0.0288442  0.00547981 -0.382207 0.036045  -0.005422 -0.445809 0.0437773  -0.0184064 -0.511967 0.0519754  -0.033331 -0.580355 0.0605871  -0.0500479 -0.650675 0.0695632  -0.0684028 -0.722655 0.0788566  -0.0882366 -0.796053 0.0884269  -0.109392 -0.870646 0.0982394  -0.131714 -0.946235 0.10826  -0.155057 -1.02264 0.118457  -0.179275 -1.0997 0.12881  -0.204238 -1.17727 0.139287  -0.229822 -1.25521 0.149874  -0.255909 -1.33341 0.160547  -0.282398 -1.41176 0.171286  -0.309182 -1.49017 0.182078  -0.33618 -1.56855 0.192908  -0.363316 -1.64684 0.203765  -0.390517 -1.72497 0.214639  -0.417732 -1.80289 0.225517  -0.444918 -1.88056 0.236387  -0.472023 -1.95797 0.24725  -0.498998 -2.03511 0.258097  -0.525803 -2.11196 0.268919  0 0 0  0.00503914 -0.0262108 -0.00078851  0.015877 -0.0544439 0.000684455  0.0285424 -0.08729 0.00391509  0.0404624 -0.125835 0.00849992  0.0499685 -0.170301 0.0140972  0.0556703 -0.220365 0.0201494  0.057294 -0.27523 0.0269822  0.0558927 -0.33389 0.0343818  0.0516387 -0.39588 0.0422947  0.0446901 -0.460782 0.0506622  0.0352223 -0.528208 0.0594304  0.0234199 -0.597813 0.0685531  0.0094676 -0.669279 0.077984  -0.006441 -0.74233 0.0876857  -0.0241203 -0.816714 0.0976208  -0.0433831 -0.892205 0.107757  -0.0640533 -0.968603 0.11806  -0.0859571 -1.04573 0.128517  -0.108935 -1.12342 0.139091  -0.132836 -1.20153 0.149762  -0.157516 -1.27994 0.160522  -0.182841 -1.35853 0.171341  -0.208693 -1.4372 0.182207  -0.234957 -1.51587 0.193107  -0.261533 -1.59445 0.204026  -0.288334 -1.67289 0.214954  -0.315275 -1.75113 0.225879  -0.342285 -1.82913 0.2368  -0.369314 -1.90686 0.247692  -0.396317 -1.98431 0.258554  -0.423243 -2.06149 0.269379  -0.45002 -2.13841 0.280148  0 0 0  0.00642186 -0.0326867 -0.000602245  0.0213349 -0.0643064 0.00112967  0.0396259 -0.0988857 0.0048601  0.0578871 -0.138375 0.0101973  0.0739592 -0.183462 0.0167165  0.0863132 -0.234049 0.0238739  0.0944545 -0.289538 0.0315701  0.0982232 -0.349232 0.0397657  0.0984645 -0.412327 0.0483958  0.0954695 -0.47834 0.0574147  0.0894926 -0.546854 0.0667718  0.0807791 -0.617495 0.0764272  0.0695567 -0.689938 0.0863308  0.0560585 -0.763893 0.0964565  0.0405047 -0.839103 0.106769  0.0231082 -0.915339 0.117239  0.00406909 -0.992399 0.127845  -0.0164187 -1.0701 0.138563  -0.0381711 -1.14829 0.149373  -0.0610218 -1.22683 0.160253  -0.0848122 -1.30559 0.171188  -0.109388 -1.38446 0.182164  -0.134619 -1.46336 0.19316  -0.160376 -1.54219 0.204172  -0.186548 -1.62089 0.215185  -0.213025 -1.69941 0.226188  -0.23972 -1.7777 0.237171  -0.266546 -1.85572 0.248126  -0.293439 -1.93346 0.259044  -0.32034 -2.01091 0.269916  -0.347215 -2.08811 0.280725  -0.374004 -2.16507 0.291456  0 0 0  0.00729637 -0.0405643 -0.000301525  0.0260202 -0.0767893 0.0015419  0.0503908 -0.11375 0.0055763  0.0757138 -0.154487 0.0115562  0.0989891 -0.200326 0.0189949  0.118369 -0.251456 0.0273103  0.132728 -0.30758 0.0359576  0.142174 -0.367972 0.0449882  0.146923 -0.431953 0.0543781  0.147802 -0.498872 0.064084  0.14521 -0.568267 0.0740578  0.139471 -0.639749 0.0842642  0.130871 -0.712976 0.0946603  0.119686 -0.787648 0.105225  0.106167 -0.863504 0.115925  0.0905597 -0.940311 0.126748  0.0730853 -1.01787 0.13766  0.0539546 -1.09599 0.148651  0.0333784 -1.17453 0.159705  0.0115297 -1.25335 0.170795  -0.0114093 -1.33233 0.181916  -0.0352755 -1.41135 0.193048  -0.0599275 -1.49035 0.20418  -0.0852113 -1.56924 0.215306  -0.111015 -1.64796 0.226413  -0.137214 -1.72646 0.237491  -0.163703 -1.80472 0.248531  -0.190382 -1.8827 0.25953  -0.217177 -1.96039 0.270473  -0.244018 -2.03781 0.281359  -0.270859 -2.11498 0.292168  -0.297667 -2.19196 0.302881  0 0 -2.98023e-08  -0.0282078 -0.0318857 0.0076035  -0.0559802 -0.0603428 0.0070098  -0.083835 -0.0905814 0.00468445  -0.111904 -0.124115 0.00250211  -0.140214 -0.161369 0.00112578  -0.168753 -0.202375 0.000812888  -0.197495 -0.246997 0.00163844  -0.226422 -0.29512 0.00361022  -0.255516 -0.346509 0.00665432  -0.284764 -0.400942 0.0106736  -0.314154 -0.458184 0.0155664  -0.343673 -0.51803 0.0212413  -0.373304 -0.580261 0.0276142  -0.403022 -0.644665 0.0345991  -0.432803 -0.71105 0.0421301  -0.462611 -0.779216 0.0501429  -0.492416 -0.84898 0.0585774  -0.522175 -0.920157 0.067383  -0.551865 -0.99258 0.0765131  -0.581437 -1.06608 0.0859385  -0.610858 -1.1405 0.0956106  -0.640104 -1.21568 0.105498  -0.66915 -1.2915 0.115575  -0.697963 -1.36782 0.125816  -0.726533 -1.44451 0.136198  -0.754848 -1.52146 0.146696  -0.782901 -1.59856 0.157304  -0.810687 -1.67573 0.168  -0.838223 -1.75287 0.178779  -0.865523 -1.82991 0.189638  -0.89262 -1.9068 0.200574  -0.919552 -1.98348 0.211582  0 0 -2.98023e-08  -0.00409188 -0.0154845 0.00629216  -0.0278006 -0.0482855 0.00641656  -0.0510428 -0.0813773 0.00550923  -0.0744855 -0.117342 0.00468567  -0.0983489 -0.156921 0.00452575  -0.122712 -0.200247 0.00528431  -0.147596 -0.247196 0.00704437  -0.17299 -0.297638 0.00983647  -0.198878 -0.351309 0.0135998  -0.225248 -0.407963 0.0182482  -0.252067 -0.467339 0.0236959  -0.279316 -0.52921 0.0298487  -0.306949 -0.59334 0.0366403  -0.334924 -0.659509 0.0439931  -0.363199 -0.727519 0.0518424  -0.391714 -0.797166 0.0601315  -0.42042 -0.868265 0.0688048  -0.44926 -0.940636 0.0778224  -0.478184 -1.01411 0.0871378  -0.507138 -1.08853 0.0967116  -0.53607 -1.16375 0.106515  -0.564935 -1.23961 0.116515  -0.593697 -1.31599 0.126682  -0.622312 -1.39277 0.136999  -0.650752 -1.46984 0.147442  -0.679003 -1.54708 0.15799  -0.707034 -1.6244 0.168631  -0.734838 -1.70173 0.179355  -0.762408 -1.77898 0.190153  -0.789752 -1.85609 0.201017  -0.816885 -1.93301 0.211954  -0.843833 -2.0097 0.222959  0 0 -2.98023e-08  -0.00171988 -0.0151552 0.00351927  -0.00745223 -0.0384794 0.00563872  -0.0253482 -0.0742524 0.00562266  -0.0435544 -0.112465 0.00589219  -0.062405 -0.154186 0.00684309  -0.0820575 -0.199643 0.00865158  -0.102585 -0.248734 0.01137  -0.123977 -0.301311 0.0150404  -0.146229 -0.35709 0.0195916  -0.169319 -0.415798 0.024942  -0.193215 -0.477155 0.0310116  -0.217861 -0.540907 0.0377216  -0.243201 -0.60681 0.045005  -0.269167 -0.674635 0.0527864  -0.29569 -0.744172 0.0610154  -0.322689 -0.815213 0.0696388  -0.350094 -0.887573 0.0786083  -0.377826 -0.961077 0.0878861  -0.405813 -1.03556 0.0974279  -0.43399 -1.11086 0.107199  -0.46228 -1.18684 0.117171  -0.490632 -1.26336 0.127318  -0.518982 -1.3403 0.137611  -0.547283 -1.41754 0.148035  -0.575495 -1.49497 0.15856  -0.603577 -1.57251 0.169182  -0.631502 -1.65007 0.17988  -0.659244 -1.72756 0.190647  -0.686796 -1.80493 0.201472  -0.714141 -1.88212 0.212347  -0.741279 -1.95909 0.223275  -0.768226 -2.03582 0.234261  0 0 -2.98023e-08  4.92036e-05 -0.0161717 0.00126421  -0.00120902 -0.0393028 0.00308558  -0.00535244 -0.0701726 0.00491813  -0.0175952 -0.110196 0.00627911  -0.0309104 -0.15375 0.00833055  -0.0454257 -0.201091 0.0111971  -0.061223 -0.252098 0.0148979  -0.0782721 -0.3066 0.0194816  -0.0965767 -0.364288 0.0248643  -0.116108 -0.424865 0.0309677  -0.136815 -0.48803 0.0377108  -0.158623 -0.553509 0.0450263  -0.181452 -0.621043 0.0528445  -0.205206 -0.690391 0.0611105  -0.229791 -0.761338 0.0697675  -0.255108 -0.833672 0.0787701  -0.281053 -0.907204 0.0880792  -0.307532 -0.981763 0.0976534  -0.334454 -1.05718 0.107455  -0.361727 -1.13331 0.117456  -0.389264 -1.21001 0.127633  -0.416993 -1.28714 0.137953  -0.444838 -1.3646 0.148402  -0.472736 -1.44228 0.15895  -0.500627 -1.52007 0.169586  -0.528471 -1.59789 0.180296  -0.556222 -1.67567 0.191066  -0.583846 -1.75333 0.201884  -0.611323 -1.83083 0.212742  -0.638627 -1.90811 0.223631  -0.66574 -1.98514 0.234552  -0.692663 -2.06191 0.24551  0 0 -2.98023e-08  0.00159779 -0.0182931 -0.000675589  0.00418174 -0.0423531 0.00061965  0.00560483 -0.0732576 0.00295112  0.00437886 -0.111058 0.00597078  -0.00277752 -0.156027 0.00917113  -0.0117167 -0.204956 0.0131341  -0.0224496 -0.257638 0.0178471  -0.0348855 -0.313854 0.0233747  -0.0490056 -0.373251 0.0296246  -0.0647712 -0.435512 0.0365151  -0.0821044 -0.50031 0.0439696  -0.100909 -0.567352 0.0519229  -0.121074 -0.636366 0.060314  -0.14248 -0.707101 0.0690911  -0.164999 -0.779331 0.07821  -0.188511 -0.852842 0.0876256  -0.212891 -0.927443 0.0972991  -0.238017 -1.00296 0.1072  -0.263773 -1.07924 0.117296  -0.290056 -1.15612 0.127553  -0.316759 -1.23347 0.137955  -0.343789 -1.31116 0.148471  -0.371058 -1.3891 0.159091  -0.398486 -1.46717 0.169787  -0.426001 -1.54529 0.180547  -0.453548 -1.62337 0.19136  -0.481076 -1.70135 0.202207  -0.508535 -1.77916 0.213088  -0.535897 -1.85677 0.223987  -0.56313 -1.93414 0.234889  -0.590204 -2.01124 0.245799  -0.617082 -2.08806 0.256718  0 0 -2.98023e-08  0.00310434 -0.0215124 -0.00228634  0.00939289 -0.0473149 -0.00152594  0.015983 -0.0790104 0.00109008  0.0209348 -0.117077 0.0049274  0.0229707 -0.161347 0.00962701  0.0200894 -0.211532 0.0147149  0.0147434 -0.265643 0.0204639  0.00715733 -0.323358 0.026955  -0.00260556 -0.384277 0.0340903  -0.0144639 -0.44804 0.0417865  -0.0283098 -0.514302 0.0499711  -0.0440099 -0.582745 0.058581  -0.0614227 -0.653089 0.0675671  -0.0803959 -0.725065 0.0768786  -0.100777 -0.798446 0.0864783  -0.122411 -0.873009 0.0963265  -0.145159 -0.948565 0.106385  -0.168875 -1.02494 0.116628  -0.193414 -1.10197 0.127029  -0.218652 -1.17951 0.137561  -0.244474 -1.25744 0.148201  -0.270761 -1.33563 0.158929  -0.297412 -1.41398 0.169734  -0.324334 -1.49239 0.180584  -0.351443 -1.57078 0.191477  -0.378666 -1.64908 0.202396  -0.405932 -1.72722 0.213337  -0.433197 -1.80516 0.224283  -0.460421 -1.88287 0.235221  -0.487564 -1.9603 0.246142  -0.514578 -2.03746 0.257036  -0.541418 -2.11434 0.267914  0 0 -2.98023e-08  0.00467609 -0.0259323 -0.00340262  0.0148176 -0.0541826 -0.00306374  0.0266217 -0.0871933 -0.000256151  0.0375738 -0.125985 0.00423127  0.0460481 -0.170731 0.00987631  0.0510492 -0.221065 0.0163044  0.051391 -0.27637 0.0230672  0.0488511 -0.335383 0.0305208  0.0435674 -0.397637 0.0385395  0.0356907 -0.46273 0.0470397  0.0253814 -0.530291 0.0559535  0.012816 -0.599979 0.0652235  -0.00181854 -0.671494 0.0748042  -0.01834 -0.744567 0.0846543  -0.0365623 -0.818955 0.0947376  -0.0563114 -0.894439 0.105018  -0.0774062 -0.970823 0.115465  -0.0996885 -1.04794 0.126056  -0.122997 -1.12562 0.136764  -0.147178 -1.20372 0.14757  -0.172097 -1.28212 0.158459  -0.197631 -1.36071 0.169399  -0.223655 -1.4394 0.180385  -0.250064 -1.51808 0.191397  -0.276753 -1.59668 0.202425  -0.303645 -1.67514 0.213457  -0.330655 -1.7534 0.224482  -0.357719 -1.83143 0.235493  -0.384789 -1.90919 0.246474  -0.411827 -1.98667 0.257413  -0.438785 -2.06387 0.268302  -0.465595 -2.14081 0.279129  0 0 -2.98023e-08  0.00617497 -0.031929 -0.00408739  0.0204447 -0.0634308 -0.00406957  0.0378411 -0.0982055 -0.00110835  0.0550442 -0.138035 0.00393644  0.0699878 -0.183503 0.0104212  0.0814444 -0.234456 0.0178708  0.0885483 -0.290345 0.0257832  0.0912424 -0.350422 0.0342154  0.0904965 -0.413809 0.0431124  0.0865946 -0.480044 0.0524121  0.0797886 -0.548718 0.0620502  0.0703179 -0.619467 0.0719751  0.058416 -0.69198 0.0821498  0.044302 -0.765978 0.09253  0.0281982 -0.841212 0.103089  0.0103092 -0.917459 0.113798  -0.00916672 -0.994522 0.124632  -0.0300417 -1.07223 0.135566  -0.0521345 -1.15042 0.146583  -0.0752769 -1.22896 0.157663  -0.0993192 -1.30773 0.168787  -0.124114 -1.38662 0.179941  -0.149527 -1.46553 0.191105  -0.175437 -1.54438 0.202277  -0.201731 -1.62311 0.213436  -0.228306 -1.70166 0.224578  -0.255077 -1.77998 0.235684  -0.281964 -1.85803 0.246752  -0.308898 -1.93581 0.257775  -0.335835 -2.01329 0.268737  -0.362735 -2.0905 0.27962  -0.38955 -2.16749 0.290414  0 0 -2.98023e-08  0.00718929 -0.0395802 -0.0048151  0.0255439 -0.0755407 -0.00506362  0.0491533 -0.112689 -0.00190833  0.0733567 -0.153866 0.00371769  0.0953295 -0.200229 0.0110539  0.113507 -0.251888 0.0195219  0.126918 -0.308414 0.0285614  0.135462 -0.369157 0.0380414  0.139253 -0.433429 0.0478439  0.139231 -0.50057 0.0579576  0.1358 -0.570126 0.068322  0.129286 -0.641714 0.0789036  0.119991 -0.715009 0.0896648  0.108168 -0.789723 0.100571  0.0940777 -0.865604 0.111602  0.0779564 -0.942424 0.122736  0.0600259 -1.01999 0.133945  0.0404906 -1.09812 0.145221  0.0195508 -1.17666 0.156538  -0.00260854 -1.25549 0.167884  -0.0258152 -1.33447 0.179245  -0.0499191 -1.41352 0.190598  -0.0747645 -1.49254 0.201943  -0.100217 -1.57145 0.213264  -0.126157 -1.6502 0.224551  -0.152465 -1.72873 0.235791  -0.179037 -1.80702 0.24698  -0.205786 -1.88503 0.258106  -0.232632 -1.96275 0.269167  -0.259506 -2.04019 0.28015  -0.286368 -2.11739 0.291038  -0.313196 -2.19439 0.30182  0 0 -2.98023e-08  -0.0282327 -0.0306146 0.0157467  -0.056481 -0.0590398 0.017751  -0.0852264 -0.0897534 0.0161672  -0.114421 -0.123952 0.0138768  -0.143958 -0.161888 0.011964  -0.173745 -0.203505 0.0108991  -0.203706 -0.248646 0.010866  -0.233794 -0.297121 0.0119178  -0.263956 -0.348741 0.0140559  -0.294184 -0.403318 0.0172018  -0.324454 -0.460641 0.0212772  -0.354762 -0.520511 0.0261838  -0.385094 -0.582732 0.0318426  -0.415424 -0.647099 0.0381745  -0.445747 -0.71343 0.0451009  -0.476031 -0.781541 0.0525597  -0.506243 -0.851247 0.060492  -0.536358 -0.92237 0.0688438  -0.566347 -0.994743 0.0775663  -0.596184 -1.0682 0.0866182  -0.625829 -1.14259 0.0959611  -0.655256 -1.21775 0.105563  -0.684451 -1.29356 0.115393  -0.713393 -1.36987 0.125415  -0.742063 -1.44656 0.135619  -0.770456 -1.52353 0.145971  -0.798568 -1.60064 0.156468  -0.826397 -1.67783 0.167082  -0.853967 -1.755 0.177806  -0.881289 -1.83206 0.188643  -0.908389 -1.90897 0.199588  -0.935314 -1.98568 0.210639  0 0 -2.98023e-08  -0.00324412 -0.0138931 0.0124248  -0.027923 -0.0469104 0.0144964  -0.0520421 -0.0804555 0.0144098  -0.0764984 -0.11702 0.0136922  -0.101486 -0.157237 0.0132287  -0.12703 -0.201155 0.0134479  -0.153103 -0.248625 0.0145478  -0.179665 -0.29943 0.0165929  -0.206659 -0.353353 0.0195991  -0.234053 -0.41017 0.0235129  -0.261811 -0.469647 0.0282646  -0.289904 -0.531558 0.0337666  -0.318292 -0.595694 0.0399536  -0.346937 -0.66184 0.0467489  -0.375798 -0.72981 0.0540905  -0.40483 -0.799414 0.061912  -0.433985 -0.870467 0.0701647  -0.463216 -0.942795 0.0788011  -0.492473 -1.01623 0.0877768  -0.521716 -1.09062 0.0970424  -0.550892 -1.16581 0.106578  -0.579964 -1.24166 0.116342  -0.608893 -1.31804 0.126307  -0.637653 -1.39482 0.136448  -0.666208 -1.47189 0.146749  -0.694546 -1.54915 0.157185  -0.722649 -1.62649 0.167737  -0.750508 -1.70383 0.178398  -0.778121 -1.78111 0.189158  -0.805494 -1.85824 0.200006  -0.832644 -1.93519 0.210951  -0.859596 -2.01191 0.22199  0 0 -2.98023e-08  -0.00128217 -0.0144541 0.00689921  -0.00656293 -0.0367115 0.0120058  -0.025847 -0.0730821 0.012248  -0.0452435 -0.111914 0.0125195  -0.0652642 -0.154236 0.0132482  -0.0861028 -0.20025 0.0146709  -0.107807 -0.24984 0.0169094  -0.130372 -0.302775 0.0199988  -0.153741 -0.358816 0.0239539  -0.177873 -0.417706 0.0287209  -0.202724 -0.479186 0.0342378  -0.228232 -0.543006 0.0404324  -0.254348 -0.60894 0.0472322  -0.280999 -0.676765 0.0545781  -0.308125 -0.746284 0.0624081  -0.335661 -0.817306 0.0706663  -0.363528 -0.889642 0.0793094  -0.391666 -0.963121 0.0882897  -0.420004 -1.03758 0.0975716  -0.448477 -1.11287 0.10711  -0.477024 -1.18884 0.11688  -0.505592 -1.26536 0.126851  -0.534122 -1.3423 0.136996  -0.562574 -1.41955 0.147292  -0.590904 -1.497 0.157719  -0.619081 -1.57456 0.16826  -0.647085 -1.65214 0.178901  -0.674886 -1.72966 0.189629  -0.702482 -1.80705 0.200436  -0.729856 -1.88427 0.211314  -0.757019 -1.96127 0.222257  -0.783983 -2.03803 0.233276  0 0 -2.98023e-08  0.000111178 -0.0157481 0.00279373  -0.000999168 -0.0381685 0.00643137  -0.00533292 -0.0685998 0.00954047  -0.0190659 -0.109277 0.0106556  -0.0336989 -0.153443 0.0124351  -0.0494488 -0.201325 0.0149947  -0.0664251 -0.252824 0.0183561  -0.0846495 -0.307688 0.0225089  -0.104065 -0.365652 0.0274546  -0.124632 -0.426432 0.03313  -0.146283 -0.489742 0.0394751  -0.168951 -0.555316 0.0464167  -0.192548 -0.622909 0.0538935  -0.216983 -0.692287 0.0618494  -0.242172 -0.763246 0.0702242  -0.268023 -0.835585 0.0789753  -0.294437 -0.909117 0.0880566  -0.321325 -0.983671 0.0974273  -0.348597 -1.05909 0.107056  -0.376171 -1.13522 0.116904  -0.40397 -1.21192 0.126949  -0.431915 -1.28907 0.137161  -0.459946 -1.36655 0.147517  -0.487995 -1.44425 0.157991  -0.51601 -1.52207 0.168571  -0.543952 -1.59992 0.179239  -0.571779 -1.67773 0.189987  -0.59946 -1.75542 0.200797  -0.626976 -1.83295 0.211665  -0.654311 -1.91026 0.222574  -0.681454 -1.98733 0.23352  -0.708402 -2.06412 0.244515  0 0 -2.98023e-08  0.00138459 -0.0178638 -0.000597298  0.00372604 -0.0413906 0.00143933  0.00480586 -0.0719911 0.00456238  0.00296116 -0.109781 0.0080846  -0.00564778 -0.155344 0.0109594  -0.0158888 -0.204813 0.0146564  -0.0278048 -0.257993 0.0191494  -0.0414134 -0.314579 0.0243807  -0.0566294 -0.374272 0.0303478  -0.0734036 -0.436755 0.0369753  -0.0916568 -0.501725 0.04419  -0.111296 -0.568889 0.0519226  -0.132208 -0.637988 0.0601173  -0.154281 -0.70878 0.0687188  -0.177394 -0.781048 0.0776784  -0.201427 -0.854587 0.0869592  -0.226266 -0.929211 0.096516  -0.251792 -1.00475 0.106315  -0.277898 -1.08104 0.116325  -0.304484 -1.15794 0.126513  -0.331443 -1.23531 0.136857  -0.35869 -1.31304 0.147334  -0.386142 -1.39101 0.15792  -0.413721 -1.46911 0.168597  -0.441362 -1.54727 0.179348  -0.469006 -1.62539 0.190161  -0.496604 -1.70341 0.201024  -0.524116 -1.78126 0.211928  -0.551515 -1.85891 0.222861  -0.578777 -1.93631 0.233807  -0.605879 -2.01344 0.244759  -0.632793 -2.09029 0.255718  0 0 -2.98023e-08  0.00266507 -0.0209228 -0.00351831  0.00836655 -0.0462909 -0.00296527  0.0143574 -0.0778019 -0.000105232  0.0186298 -0.115918 0.00405633  0.0198218 -0.160404 0.00897136  0.0156309 -0.211094 0.013869  0.0091241 -0.265702 0.0195271  0.000382066 -0.3238 0.025866  -0.010447 -0.38503 0.0328831  -0.0232806 -0.449035 0.0404821  -0.0380106 -0.515486 0.048593  -0.05451 -0.584074 0.0571438  -0.0726404 -0.654522 0.0660812  -0.0922556 -0.726578 0.0753587  -0.11321 -0.800016 0.0849295  -0.135352 -0.874627 0.0947625  -0.158548 -0.950222 0.104816  -0.182655 -1.02663 0.115059  -0.207536 -1.10369 0.125469  -0.233071 -1.18127 0.136017  -0.259146 -1.25923 0.146678  -0.285648 -1.33746 0.157436  -0.31248 -1.41586 0.168272  -0.339551 -1.49431 0.179161  -0.366782 -1.57275 0.190093  -0.394094 -1.6511 0.201059  -0.421433 -1.72929 0.212046  -0.44875 -1.80728 0.223046  -0.476003 -1.88502 0.234045  -0.503162 -1.96249 0.245036  -0.530204 -2.03968 0.255985  -0.557085 -2.1166 0.266903  0 0 -2.98023e-08  0.00401993 -0.0250622 -0.00593209  0.0132858 -0.0529665 -0.00667885  0.0242658 -0.0859295 -0.00414324  0.0344045 -0.124866 0.000423998  0.0420455 -0.169865 0.0062764  0.0461569 -0.220504 0.0129294  0.0454508 -0.276264 0.0198057  0.0417973 -0.335665 0.0272755  0.0354909 -0.398242 0.0353534  0.0266821 -0.463589 0.0439366  0.0155294 -0.53135 0.0529495  0.00220251 -0.601192 0.0623268  -0.0131193 -0.672824 0.0720133  -0.0302589 -0.745985 0.0819716  -0.0490353 -0.820443 0.0921604  -0.0692735 -0.895983 0.10255  -0.0908029 -0.972416 0.113106  -0.113469 -1.04957 0.1238  -0.137111 -1.12729 0.134615  -0.161586 -1.20544 0.145523  -0.186759 -1.28389 0.156512  -0.212504 -1.36253 0.167552  -0.238707 -1.44127 0.178634  -0.265257 -1.52 0.189743  -0.292068 -1.59866 0.200863  -0.319048 -1.67717 0.211981  -0.346125 -1.75549 0.223093  -0.373236 -1.83357 0.234189  -0.400336 -1.91137 0.245252  -0.42739 -1.98889 0.256276  -0.454369 -2.06613 0.267232  -0.481216 -2.1431 0.278108  0 0 -2.98023e-08  0.00552613 -0.030444 -0.00759834  0.0187522 -0.0616069 -0.00937173  0.0351503 -0.0964763 -0.00711665  0.0514106 -0.136585 -0.00220776  0.0654424 -0.182404 0.00441661  0.0759993 -0.233726 0.0121354  0.0824031 -0.289977 0.0205211  0.0840122 -0.350477 0.0291149  0.0822895 -0.414213 0.0382328  0.0775033 -0.480723 0.0477768  0.0698897 -0.549616 0.0576653  0.0596876 -0.620537 0.0678393  0.0471178 -0.693183 0.0782495  0.0324033 -0.767284 0.0888608  0.0157561 -0.8426 0.0996407  -0.00261784 -0.918916 0.110562  -0.0225279 -0.996041 0.121598  -0.0437834 -1.0738 0.132729  -0.0662141 -1.15205 0.143929  -0.0896518 -1.23065 0.155182  -0.113946 -1.30947 0.166478  -0.138955 -1.38842 0.177794  -0.16455 -1.46739 0.18911  -0.190609 -1.54631 0.200424  -0.217023 -1.6251 0.211719  -0.243688 -1.70371 0.222986  -0.270527 -1.78209 0.23421  -0.297457 -1.8602 0.245388  -0.324421 -1.93802 0.25651  -0.351379 -2.01555 0.267563  -0.37829 -2.0928 0.278528  -0.405131 -2.16981 0.289372  0 0 -2.98023e-08  0.00685976 -0.0375394 -0.00922725  0.0243729 -0.0730115 -0.0116008  0.0469601 -0.11031 -0.0092991  0.0700886 -0.151896 -0.00387636  0.0909811 -0.198749 0.00356519  0.108108 -0.250901 0.0122849  0.120715 -0.307885 0.0218029  0.128343 -0.369047 0.0316546  0.131198 -0.433687 0.0418085  0.130308 -0.501119 0.0522832  0.126079 -0.570913 0.0630005  0.118834 -0.642688 0.073925  0.108866 -0.716127 0.0850079  0.096437 -0.790957 0.096228  0.081792 -0.866933 0.107555  0.0651782 -0.943832 0.118974  0.0467987 -1.02147 0.130448  0.0268679 -1.09966 0.141977  0.00557947 -1.17827 0.153533  -0.0168869 -1.25716 0.16511  -0.04036 -1.33621 0.176689  -0.0646942 -1.41532 0.188248  -0.08973 -1.49441 0.199781  -0.115348 -1.57339 0.211277  -0.141416 -1.65221 0.222732  -0.167825 -1.73081 0.234121  -0.194473 -1.80915 0.245447  -0.221275 -1.88722 0.256693  -0.248156 -1.96499 0.267864  -0.275056 -2.04248 0.278941  -0.301928 -2.1197 0.289905  -0.328764 -2.19672 0.300754  0 0 0  -0.0263608 -0.0284641 0.0233619  -0.0540614 -0.0565422 0.0286122  -0.0834 -0.0878277 0.0280868  -0.113784 -0.122893 0.0258202  -0.144779 -0.161686 0.0234236  -0.176108 -0.204032 0.0216209  -0.20761 -0.249744 0.0207196  -0.239163 -0.298627 0.0208569  -0.270699 -0.350501 0.0220511  -0.302177 -0.405219 0.0242777  -0.33357 -0.462611 0.0274805  -0.364878 -0.5225 0.0315632  -0.39608 -0.584695 0.0364609  -0.427182 -0.649028 0.0420833  -0.458169 -0.715314 0.0483631  -0.489028 -0.78338 0.0552292  -0.519747 -0.853042 0.0626121  -0.550297 -0.924138 0.0704722  -0.580652 -0.996488 0.0787596  -0.610806 -1.06994 0.0874128  -0.640718 -1.14432 0.096402  -0.670376 -1.2195 0.105696  -0.699755 -1.29532 0.115259  -0.728854 -1.37166 0.125049  -0.757652 -1.44839 0.135057  -0.786144 -1.52538 0.145248  -0.814329 -1.60255 0.155622  -0.842211 -1.67976 0.166143  -0.869812 -1.75697 0.176813  -0.897147 -1.83407 0.187626  -0.924257 -1.91101 0.198575  -0.951195 -1.98776 0.209647  0 0 0  -0.000728831 -0.0104362 0.0184096  -0.0257739 -0.0437888 0.0227247  -0.0503826 -0.0779188 0.0239272  -0.0758091 -0.115281 0.0235319  -0.102067 -0.156316 0.0228427  -0.129025 -0.200965 0.022539  -0.156551 -0.249035 0.0229564  -0.184534 -0.300298 0.0242433  -0.212888 -0.354535 0.0264388  -0.241538 -0.411558 0.0295568  -0.270444 -0.471165 0.0335399  -0.29956 -0.533154 0.0383248  -0.328856 -0.597321 0.0438354  -0.358305 -0.663486 0.0500079  -0.387865 -0.731453 0.056778  -0.417512 -0.801053 0.0640758  -0.4472 -0.872096 0.0718518  -0.476891 -0.944424 0.0800594  -0.506549 -1.01787 0.0886496  -0.536131 -1.09227 0.0975741  -0.565605 -1.16748 0.106798  -0.594923 -1.24337 0.116294  -0.624057 -1.31978 0.126028  -0.65299 -1.3966 0.135974  -0.681688 -1.47371 0.146106  -0.710139 -1.55101 0.156406  -0.738333 -1.6284 0.166854  -0.766255 -1.70578 0.17744  -0.793914 -1.7831 0.188153  -0.821318 -1.86027 0.198977  -0.848485 -1.93725 0.209922  -0.87545 -2.01401 0.220989  0 0 0  -0.000353888 -0.0122565 0.00966543  -0.00314473 -0.0322517 0.0191932  -0.0241567 -0.0699816 0.0194713  -0.0447981 -0.109718 0.019941  -0.0661207 -0.152824 0.0205607  -0.0883351 -0.199521 0.0216362  -0.111438 -0.249685 0.0233746  -0.13537 -0.303082 0.0258817  -0.160056 -0.359455 0.0291891  -0.185412 -0.418588 0.0333115  -0.211378 -0.48024 0.0382025  -0.237895 -0.544185 0.043804  -0.264903 -0.610201 0.0500531  -0.292346 -0.678087 0.0568923  -0.320168 -0.747646 0.0642557  -0.348311 -0.8187 0.0720906  -0.37671 -0.891064 0.08035  -0.405308 -0.964574 0.0889841  -0.434045 -1.03907 0.0979601  -0.462859 -1.1144 0.107226  -0.491705 -1.19041 0.11675  -0.520521 -1.26698 0.126516  -0.549263 -1.34397 0.136478  -0.577888 -1.42128 0.146628  -0.606362 -1.49879 0.156926  -0.634653 -1.5764 0.167369  -0.662746 -1.65403 0.177937  -0.690614 -1.7316 0.188611  -0.718256 -1.80904 0.199388  -0.745659 -1.8863 0.210258  -0.772845 -1.96333 0.221211  -0.799828 -2.04013 0.232263  0 0 0  0.000302181 -0.0137883 0.00406647  0.000134766 -0.0348085 0.0098865  -0.00313845 -0.06437 0.0153491  -0.0188677 -0.106394 0.0159262  -0.0350289 -0.151467 0.0174637  -0.0521947 -0.200052 0.0197326  -0.0705366 -0.252126 0.0227262  -0.0900625 -0.307458 0.0264601  -0.110734 -0.365776 0.0309178  -0.132463 -0.426831 0.0361034  -0.155179 -0.490356 0.0419729  -0.178803 -0.556098 0.0484695  -0.203252 -0.623813 0.0555326  -0.228453 -0.693294 0.063105  -0.254309 -0.764331 0.0711336  -0.280743 -0.836739 0.079574  -0.307671 -0.910335 0.0883709  -0.335001 -0.98495 0.0974964  -0.362666 -1.06043 0.1069  -0.390578 -1.13662 0.116551  -0.418662 -1.21339 0.126429  -0.446854 -1.29061 0.136495  -0.475089 -1.36816 0.146729  -0.503312 -1.44593 0.157102  -0.531467 -1.52381 0.167601  -0.559516 -1.60173 0.178212  -0.58743 -1.67961 0.188919  -0.615175 -1.75735 0.199704  -0.642734 -1.83493 0.210567  -0.670097 -1.91228 0.221488  -0.697254 -1.98939 0.232463  -0.724227 -2.06623 0.243495  0 0 0  0.00110866 -0.0158569 -0.000423908  0.00341347 -0.0382861 0.00247622  0.00470689 -0.0683739 0.00682592  0.00293738 -0.106099 0.0115016  -0.00754505 -0.152772 0.013795  -0.0192999 -0.203027 0.0171567  -0.0325646 -0.256812 0.0213625  -0.0474076 -0.313892 0.0263148  -0.0638075 -0.37396 0.0319437  -0.0816743 -0.436751 0.0382372  -0.100922 -0.501968 0.0451335  -0.121453 -0.569335 0.0525771  -0.143163 -0.638593 0.0604988  -0.165945 -0.709521 0.0688577  -0.189686 -0.7819 0.0775997  -0.214276 -0.855539 0.0866841  -0.239603 -0.930252 0.0960671  -0.265556 -1.00587 0.105713  -0.292037 -1.08225 0.115589  -0.31894 -1.15923 0.125669  -0.346177 -1.23669 0.135919  -0.373662 -1.3145 0.146315  -0.401305 -1.39255 0.156841  -0.429052 -1.47075 0.167473  -0.456824 -1.54898 0.178193  -0.48457 -1.62718 0.188988  -0.512253 -1.70527 0.199842  -0.539818 -1.78319 0.210754  -0.567252 -1.86089 0.221707  -0.594523 -1.93834 0.232692  -0.621634 -2.01551 0.243693  -0.648573 -2.0924 0.254694  0 0 0  0.00201157 -0.0187217 -0.00436634  0.00696829 -0.0431711 -0.00396186  0.012536 -0.0743761 -0.000637949  0.0164813 -0.112565 0.00415111  0.0172365 -0.157355 0.00963759  0.011436 -0.208911 0.0141094  0.00359601 -0.264166 0.0195363  -0.00630802 -0.322786 0.0257227  -0.01824 -0.384412 0.032548  -0.0320784 -0.448749 0.0399752  -0.0477151 -0.515472 0.0479336  -0.0650342 -0.584287 0.056352  -0.0838971 -0.654916 0.0651693  -0.104168 -0.72713 0.0743442  -0.125707 -0.800703 0.0838258  -0.14837 -0.875436 0.0935817  -0.172018 -0.951139 0.103576  -0.196524 -1.02765 0.113773  -0.221758 -1.10481 0.124146  -0.247596 -1.18249 0.134667  -0.273935 -1.26055 0.145309  -0.300659 -1.33888 0.156061  -0.327678 -1.41736 0.166897  -0.354902 -1.49592 0.177796  -0.382251 -1.57444 0.18875  -0.409659 -1.65288 0.199734  -0.437069 -1.73116 0.210752  -0.464428 -1.80922 0.221793  -0.491699 -1.88702 0.232843  -0.518865 -1.96455 0.24389  -0.545902 -2.04178 0.254908  -0.572797 -2.11874 0.265887  0 0 0  0.00299999 -0.0225204 -0.00782901  0.0109067 -0.0497122 -0.00964338  0.0209745 -0.0825872 -0.00727361  0.0304686 -0.121726 -0.00244683  0.0375347 -0.167083 0.00378519  0.0410194 -0.218158 0.0108075  0.0390423 -0.274576 0.0175255  0.0343301 -0.334507 0.0249906  0.027022 -0.39749 0.0330372  0.0173086 -0.463179 0.0416212  0.00534117 -0.531218 0.0506522  -0.00872588 -0.601298 0.0600595  -0.0247093 -0.673124 0.0697856  -0.0424458 -0.746451 0.0797871  -0.0617558 -0.821053 0.0900244  -0.0824748 -0.896723 0.100461  -0.104427 -0.973273 0.11107  -0.127465 -1.05054 0.121823  -0.151436 -1.12837 0.132694  -0.176197 -1.20662 0.143664  -0.201612 -1.28518 0.154715  -0.227565 -1.36393 0.16582  -0.253936 -1.44276 0.176968  -0.280628 -1.5216 0.188145  -0.307546 -1.60036 0.199333  -0.33461 -1.67897 0.210516  -0.361741 -1.75738 0.221698  -0.388887 -1.83554 0.232861  -0.415999 -1.91342 0.243998  -0.443042 -1.99099 0.2551  -0.469993 -2.06827 0.26615  -0.49685 -2.14528 0.277088  0 0 0  0.00409818 -0.0273816 -0.0106719  0.0153989 -0.0581405 -0.0144029  0.0304942 -0.0932226 -0.0128804  0.0458872 -0.133719 -0.00801051  0.0592436 -0.179974 -0.00111771  0.0691977 -0.231742 0.00699079  0.075 -0.288421 0.0158006  0.0757416 -0.349416 0.024611  0.0731424 -0.413541 0.033891  0.0675589 -0.480382 0.043626  0.0592265 -0.549543 0.0537151  0.0483677 -0.620691 0.0640937  0.0352024 -0.693523 0.0747005  0.0199478 -0.767784 0.0855032  0.00281107 -0.843238 0.0964663  -0.0160029 -0.919682 0.107563  -0.0363016 -0.996919 0.118769  -0.0579035 -1.07479 0.130063  -0.0806403 -1.15314 0.141419  -0.104346 -1.23185 0.152824  -0.12887 -1.31078 0.16426  -0.154072 -1.38983 0.175714  -0.179823 -1.46891 0.187162  -0.206011 -1.54794 0.198598  -0.232515 -1.62684 0.210017  -0.25925 -1.70555 0.221393  -0.28613 -1.78402 0.232724  -0.31308 -1.86222 0.244002  -0.340044 -1.94012 0.25522  -0.366978 -2.01771 0.266366  -0.393858 -2.095 0.277427  -0.420688 -2.17205 0.288341  0 0 0  0.00563188 -0.0335402 -0.0132267  0.0210005 -0.0687765 -0.0180451  0.0419066 -0.106604 -0.0168459  0.0638728 -0.148807 -0.0116609  0.0839073 -0.196234 -0.00402325  0.100336 -0.248903 0.00509501  0.112316 -0.30635 0.0150879  0.119498 -0.367912 0.0255563  0.121559 -0.432947 0.0360068  0.119956 -0.500714 0.0468122  0.115077 -0.570775 0.0578612  0.107237 -0.642781 0.069115  0.0967208 -0.716409 0.0805088  0.0837888 -0.791401 0.0920243  0.0686896 -0.867517 0.103634  0.0516558 -0.94455 0.115315  0.0329094 -1.0223 0.127045  0.0126503 -1.10061 0.138811  -0.00892639 -1.17933 0.150597  -0.031651 -1.25834 0.162385  -0.0553472 -1.3375 0.174161  -0.0798616 -1.41673 0.185915  -0.105048 -1.49593 0.197627  -0.130786 -1.57503 0.209292  -0.156944 -1.65396 0.220903  -0.183413 -1.73267 0.232437  -0.210094 -1.81112 0.243898  -0.236912 -1.88927 0.255261  -0.263784 -1.96712 0.266543  -0.290656 -2.04467 0.27772  -0.317498 -2.12193 0.288773  -0.344315 -2.19899 0.299696  
SCALARS smooth_stress float 1
LOOKUP_TABLE default
287.593 411.662 337.631 308.753 288.353 270.145 252.593 235.326 218.292 201.689 185.484 169.844 154.813 140.462 126.811 113.877 101.744 90.4147 79.9107 70.1774 61.2832 53.1938 45.8316 39.3025 33.4783 28.2486 23.5197 19.229 15.2638 11.3413 7.47388 3.82331 0.693788 227.556 452.746 376.285 349.048 331.558 316.517 301.684 286.488 270.697 254.639 238.483 222.356 206.477 190.971 175.896 161.37 147.448 134.21 121.686 109.844 98.7052 88.3232 78.5846 69.5295 61.0596 53.083 45.4997 38.1919 31.1037 23.9713 16.7369 9.45658 2.02627 127.757 273.783 256.332 250.933 251.734 250.602 247.216 241.761 234.47 225.777 216.18 205.914 195.158 184.213 173.12 162.086 151.15 140.43 129.981 119.773 109.838 100.198 90.8722 81.807 73.0349 64.4408 56.0861 47.8523 39.6704 31.3969 22.9023 14.2059 3.49555 119.706 242.205 274.028 279.643 275.505 274.775 270.746 264.129 255.563 245.661 234.863 223.556 211.869 200.076 188.25 176.488 164.876 153.48 142.34 131.45 120.784 110.41 100.241 90.3084 80.6491 71.195 61.9838 52.9679 44.1377 35.3193 26.3126 17.1156 4.54019 196.098 359.214 394.788 405.895 391.094 372.26 356.841 340.129 322.494 304.435 286.327 268.436 250.845 233.775 217.291 201.378 186.082 171.433 157.384 143.964 131.066 118.701 106.813 95.3839 84.4464 73.876 63.7567 53.9988 44.636 35.6341 26.6653 17.7076 4.95269 300.583 532.995 557.011 560.044 541.61 508.924 475.448 445.092 415.224 385.964 357.674 330.494 304.421 279.672 256.182 233.946 212.997 193.282 174.768 157.384 141.033 125.714 111.265 97.7225 85.0373 73.0829 61.8539 51.328 41.4552 32.2219 23.6614 16.0624 4.80439 420.279 732.3 739.678 732.418 704.37 663.014 614.39 566.874 523.028 481.126 441.267 403.524 367.724 334.038 302.386 272.662 244.89 219.014 194.958 172.617 151.858 132.698 114.98 98.6258 83.596 69.8639 57.2815 45.7879 35.3986 25.9657 17.7519 12.7158 4.28633 554.135 955.133 948.007 930.287 889.284 833.301 770.17 704.984 643.468 587.089 534.466 485.16 438.853 395.5 355.033 317.205 282.029 249.262 219.047 191.072 165.275 141.643 120.055 100.339 82.485 66.4556 52.205 39.5972 28.809 19.9644 13.8509 12.2306 4.08886 153.556 354.827 354.134 352.133 338.468 317.647 293.537 268.53 244.037 221.657 201.215 182.231 164.483 147.922 132.513 118.106 104.763 92.3259 80.845 70.2484 60.4539 51.5253 43.3761 35.9341 29.2308 23.244 17.9668 13.3069 9.39085 6.29011 4.27121 3.78982 2.11751 349.447 668.303 579.979 527.255 488.575 454.553 422.321 391.14 360.857 331.56 303.317 276.268 250.458 226.015 202.875 181.133 160.843 141.966 124.523 108.476 93.8612 80.6584 68.754 58.1835 48.8716 40.7097 33.5229 27.0155 21.1476 15.5188 9.87633 4.89312 1.31093 278.168 993.421 996.392 867.927 801.117 748.529 700.612 654.721 609.982 566.314 523.938 482.827 443.278 405.508 369.449 335.231 302.938 272.606 244.272 217.947 193.464 170.979 150.283 131.303 113.974 98.0415 83.2799 69.3301 56.0489 43.054 29.9671 17.5571 5.33377 187.498 597.525 707.902 635.538 593.601 565.1 540.15 515.843 491.111 465.748 440.172 414.5 388.964 363.879 339.29 315.31 292.12 269.738 248.171 227.573 207.716 188.671 170.561 153.125 136.389 120.13 104.41 89.0141 73.7015 58.3316 42.7186 27.4688 9.43364 183.851 478.233 592.988 588.842 558.379 541.14 524.467 506.474 486.778 465.693 443.623 421.143 398.401 375.659 353.171 330.881 309.062 287.711 266.861 246.617 226.782 207.493 188.656 170.213 152.223 134.544 117.233 100.253 83.4904 66.7223 49.7009 33.139 12.2872 262.284 615.523 754.055 773.01 737.701 692.592 660.264 627.909 594.89 561.626 528.51 495.968 464.143 433.282 403.545 374.8 347.175 320.621 295.108 270.691 247.122 224.497 202.685 181.566 161.143 141.34 122.216 103.645 85.6638 68.178 50.8164 34.2683 13.2754 382.25 896.077 1065.9 1067.14 1027.32 957.615 888.553 830.12 773.807 719.281 666.762 616.57 568.634 523.129 480.135 439.398 401.041 364.912 330.867 298.895 268.731 240.391 213.619 188.361 164.512 141.942 120.521 100.28 81.0609 62.9211 45.9069 31.1374 12.6788 527.997 1240.44 1443.48 1415.4 1353.94 1268.86 1169.74 1075.48 991.075 911.334 835.787 764.589 697.322 634.051 574.841 519.274 467.356 418.982 373.977 332.163 293.285 257.275 223.959 193.086 164.564 138.343 114.181 91.9011 71.4803 52.8009 36.1549 24.9587 11.2603 696.108 1635.81 1884.31 1816.86 1725.15 1611.08 1485.31 1356.27 1236.01 1127.28 1026.05 931.661 843.402 760.786 683.804 611.974 545.192 483.042 425.666 372.6 323.625 278.61 237.441 199.898 165.723 134.796 107.296 82.7793 61.3878 43.4561 29.7377 23.0359 10.98 261.521 931.251 1087.49 1057.09 1008.68 943.915 870.818 795.595 722.022 654.989 594.1 537.88 485.626 436.876 391.564 349.365 310.191 273.774 240.075 209.058 180.409 154.162 130.21 108.435 88.7442 71.0489 55.4389 41.7546 30.0804 20.7091 14.2137 11.7885 8.86116 349.294 675.134 623.363 579.169 538.212 500.225 463.897 428.736 394.672 361.792 330.163 299.942 271.185 243.979 218.357 194.304 171.853 151.052 131.849 114.278 98.2231 83.7448 70.806 59.3481 49.2104 40.486 32.8436 26.1326 20.0738 14.5104 8.99616 3.96138 0.907835 271.867 947.449 1107 1000.41 915.633 846.928 785.59 728.127 673.311 620.697 570.275 522.01 476.07 432.487 391.325 352.466 316.172 282.35 250.892 221.928 195.214 170.811 148.614 128.513 110.25 93.7645 78.7765 64.899 51.688 39.1159 26.6766 15.0337 4.24252 217.882 558.644 821.825 805.521 709.901 651.738 606.38 566.652 529.878 494.838 461.347 429.144 398.268 368.746 340.65 313.684 288.167 264.005 241.013 219.408 198.954 179.553 161.309 144.042 127.546 111.745 96.5996 81.8613 67.2252 52.7343 38.2136 24.5593 8.69536 231.753 522.19 689.737 721.038 634.835 584.067 547.647 516.825 488.393 461.057 434.545 408.856 383.947 359.772 336.454 313.799 291.97 270.958 250.56 230.924 211.923 193.443 175.524 158.142 141.039 124.34 107.971 91.8992 75.9879 60.1183 44.2727 29.3927 11.1901 299.756 632.273 800.059 822.776 761.984 690.464 644.534 604.811 567.801 532.37 498.296 465.656 434.445 404.567 376.091 348.796 322.714 297.856 274.044 251.269 229.39 208.322 188.049 168.414 149.263 130.678 112.649 95.0131 77.9017 61.2204 44.9199 29.9829 11.8015 403.662 840.716 1051.45 1081.95 1026.41 939.513 856.902 793.38 735.071 680.207 628.24 579.223 533.028 489.486 448.653 410.245 374.139 340.258 308.433 278.541 250.441 223.944 198.949 175.392 152.974 131.673 111.475 92.2023 73.8215 56.4722 40.3694 27.0116 11.1243 535.786 1109.95 1381.11 1429.06 1349.82 1250.68 1138.92 1036.87 950.308 870.436 795.814 726.087 660.91 599.964 543.159 490.181 440.829 394.937 352.298 312.72 276.059 242.039 210.592 181.473 154.51 129.658 106.723 85.4856 65.9066 48.0273 32.4608 22.35 10.1013 691.064 1422.13 1782.97 1852.24 1730.61 1597.21 1459.06 1321.08 1196.28 1086.96 986.573 893.744 807.648 727.553 653.169 584.089 519.999 460.526 405.615 355.003 308.337 265.399 226.156 190.434 157.91 128.475 102.232 78.8926 58.4414 41.3712 28.4755 21.9183 10.4188 259.761 794.565 1019.23 1095.65 1020.25 941.467 860.498 780.595 703.931 635.872 575.086 519.396 468.15 420.679 376.656 335.848 298.037 262.99 230.578 200.802 173.381 148.223 125.233 104.389 85.5922 68.691 53.7041 40.694 29.5698 20.6323 14.5201 11.9516 8.65514 358.49 705.217 647.886 612.608 576.052 537.602 499.312 461.614 424.836 389.227 354.938 322.178 290.983 261.432 233.66 207.656 183.369 160.808 140.002 120.995 103.64 88.0184 73.9746 61.632 50.749 41.3876 33.2775 26.236 20.0306 14.4886 9.20511 4.19409 0.832325 272.089 981.237 1162.76 1077.7 1001.37 928.397 860.349 795.793 733.982 674.719 618.029 563.945 512.584 463.972 418.228 375.315 335.19 297.831 263.297 231.559 202.465 175.944 151.863 130.252 110.859 93.4444 77.8574 63.6214 50.3802 37.9 25.9975 14.7412 4.0579 241.844 591.188 852.894 887 801.828 731.447 673.847 623.53 577.668 534.774 494.385 456.219 420.126 386.028 353.922 323.598 295.041 268.34 243.281 219.841 197.996 177.514 158.375 140.474 123.679 107.756 92.6347 78.1101 63.8593 49.7753 36.0225 23.084 8.22546 263.07 573.58 710.735 795.044 715.601 638.92 586.078 543.852 507.061 473.453 442.025 412.486 384.502 357.963 332.787 308.834 285.975 264.263 243.449 223.492 204.427 186.053 168.292 151.187 134.506 118.209 102.298 86.7545 71.4281 56.1679 41.1458 27.0901 10.3277 324.627 676.597 815.287 863.91 802.797 704.557 644.493 596.813 555.145 517.014 481.353 447.936 416.497 386.848 358.863 332.343 307.129 283.231 260.496 238.723 217.895 197.849 178.502 159.78 141.57 123.759 106.397 89.4726 72.977 56.9449 41.4496 27.3967 10.6823 417.957 862.464 1023.25 1081.52 1029.79 929.264 833.228 764.634 704.251 648.964 597.469 549.458 504.705 462.857 423.876 387.447 353.324 321.316 291.344 263.292 236.927 212.029 188.507 166.225 145.055 124.78 105.44 86.9764 69.2896 52.5726 37.1902 24.7929 10.1284 540.371 1108.16 1298.11 1392.07 1339.58 1233.22 1110.53 1000.77 912.558 832.864 759.465 691.378 628.31 569.655 515.22 464.729 417.923 374.413 333.964 296.565 261.962 229.846 200.143 172.594 147.121 123.451 101.559 81.2496 62.4246 45.2718 30.5121 21.1245 9.46201 688.599 1403.51 1632.37 1785.02 1724.9 1580.54 1432.6 1285.73 1156.27 1046.82 947.757 856.859 773.132 695.671 624 557.679 496.334 439.638 387.145 338.836 294.471 253.634 216.323 182.333 151.368 123.337 98.3705 76.0887 56.5157 40.1516 28.0048 21.9053 10.374 258.323 784.279 912.043 1047.84 1028.73 938.147 849.578 764.901 684.709 615.534 555.159 500.407 450.335 404.205 361.604 322.272 285.894 252.278 221.178 192.641 166.445 142.397 120.418 100.494 82.5454 66.3734 52.101 39.6875 29.0887 20.5613 14.7683 12.2587 8.56629 370.96 736.663 675.389 640.052 606.58 569.862 530.983 491.733 452.895 415.051 378.486 343.474 310.154 278.561 248.785 220.865 194.805 170.67 148.379 127.975 109.348 92.5544 77.5446 64.232 52.647 42.5929 34.0579 26.6564 20.3462 14.7506 9.59822 4.74865 1.00061 277.462 1022.27 1231.5 1135.55 1065.44 996.331 926.313 857.85 791.233 726.829 664.984 605.965 549.878 496.801 446.819 399.961 356.233 315.571 277.968 243.495 211.942 183.187 157.337 133.96 113.257 94.7293 78.3932 63.6373 50.2443 37.7425 26.099 15.0725 4.2038 259.513 618.718 914.137 945.311 865.413 798.083 736.442 680.343 628.276 579.293 533.099 489.636 448.622 409.999 373.845 339.927 308.187 278.56 250.967 225.453 201.784 179.694 159.337 140.348 122.774 106.394 90.9518 76.322 62.2437 48.3796 34.9634 22.3173 7.81554 283.648 611.627 746.62 827.442 763.075 689.123 629.607 580.178 536.916 497.676 461.415 427.761 396.245 366.673 338.95 312.86 288.247 265.019 243.032 222.204 202.431 183.499 165.389 148.029 131.274 115.078 99.2535 83.8909 68.9163 53.9769 39.3659 25.7094 9.55671 339.975 705.732 826.362 872.758 829.938 723.439 654.98 601.156 555.194 514.092 476.385 441.554 409.172 378.937 350.701 324.156 299.124 275.55 253.176 231.846 211.454 191.854 172.976 154.649 136.95 119.664 102.707 86.0994 70.0546 54.4304 39.3486 25.6271 9.74397 425.25 874.88 1011.05 1062.76 1030.82 922.479 815.801 743.402 681.273 625.514 574.378 527.172 483.51 443.003 405.451 370.531 337.949 307.556 279.099 252.461 227.456 203.762 181.352 160.044 139.797 120.393 101.703 83.719 66.5096 50.1845 35.2454 23.1849 9.24571 540.232 1104.95 1266.93 1338.99 1313.33 1211.99 1082.86 967.03 877.995 798.832 726.764 660.495 599.419 543.03 490.882 442.689 398.087 356.905 318.601 283.189 250.513 220.11 191.939 165.82 141.628 119.077 97.9894 78.3907 60.1928 43.5191 29.2346 20.2619 8.90441 683.559 1390.72 1585.41 1689.91 1676.46 1555 1403.9 1250.18 1116.62 1007.59 910.129 821.444 740.12 665.352 596.37 532.793 474.08 420.037 370.064 323.973 281.78 242.981 207.493 175.16 145.733 119.089 95.1637 73.7972 54.9756 39.1805 27.4016 21.7146 10.2153 256.278 778.446 888.692 977.821 995.856 929.614 837.184 748.842 665.114 594.885 535.124 481.455 432.633 387.949 346.802 308.936 273.993 241.801 212.11 184.729 159.675 136.717 115.749 96.7625 79.6118 64.1675 50.5321 38.6668 28.4937 20.3207 14.7043 12.3009 8.46711 386.09 764.923 701.61 667.503 634.642 599.15 560.628 520.449 480.024 440.268 401.667 364.596 329.202 295.659 264.038 234.316 206.547 180.822 157.125 135.329 115.461 97.5558 81.5652 67.2931 54.9296 44.2857 35.1937 27.4161 20.8752 15.1394 9.99254 5.24084 1.22911 290.459 1063.84 1293.36 1192.25 1121.79 1055.6 986.974 916.633 846.661 778.226 711.994 648.517 588.064 530.83 476.93 426.242 378.887 334.977 294.451 257.21 223.125 192.12 164.26 139.189 116.975 97.352 80.0301 64.6493 50.871 38.3054 26.5973 15.6278 4.56996 273.412 642.546 965.484 1004.93 920.767 855.679 795.241 736.621 680.537 626.914 575.837 527.495 481.928 438.946 398.751 361.062 325.843 293.196 262.883 234.848 209.022 185.141 163.172 142.907 124.212 107.046 90.9834 75.9983 61.7723 48.0431 34.6894 22.0476 7.63073 296.168 638.062 774.318 868.515 806.873 733.816 674.635 622.26 574.742 530.984 490.252 452.366 417.082 384.007 353.181 324.353 297.294 272.032 248.251 225.887 204.904 184.967 166.031 148.003 130.695 114.195 98.1988 82.6641 67.6597 52.9917 38.5384 24.8778 9.05764 348.983 723.979 836.39 881.992 846.122 740.763 671.815 615.69 566.695 522.78 482.667 445.822 411.807 380.197 350.905 323.572 297.925 273.957 251.297 229.753 209.337 189.708 170.83 152.579 134.89 117.755 100.941 84.4219 68.4863 53.054 38.1508 24.4716 9.07973 428.031 878.11 999.718 1044.29 1022.27 918.872 802.814 729.971 667.015 610.789 559.656 512.781 469.727 429.993 393.322 359.438 327.914 298.62 271.278 245.615 221.525 198.754 177.13 156.485 136.756 117.878 99.6956 82.0547 65.0033 48.7977 33.9928 21.9628 8.47264 535.825 1094.16 1238.79 1299.13 1277.84 1191.34 1055.22 935.992 847.369 769.189 698.538 633.988 574.787 520.416 470.397 424.273 381.684 342.467 306.205 272.557 241.509 212.744 185.948 160.974 137.765 116.152 95.8142 76.8164 59.0118 42.4904 28.3303 19.5581 8.40065 674.453 1372.49 1548.07 1633.46 1613.85 1516.83 1370.84 1214.11 1077.86 969.989 874.392 787.997 709.191 636.928 570.685 509.72 453.525 401.856 354.387 310.575 270.384 233.551 199.832 169.055 140.935 115.605 92.6322 72.0239 53.8279 38.4196 26.8368 21.3765 10.0344 253.145 770.52 872.583 946.174 951.319 904.874 821.26 731.969 645.5 574.462 515.443 462.971 415.494 372.167 332.495 296.056 262.532 231.649 203.304 177.183 153.221 131.315 111.308 93.2096 76.7923 62.0687 49.0476 37.6631 27.8719 19.9512 14.4766 12.1145 8.35277 405.34 789.866 724.866 693.665 662.697 627.932 589.793 549.242 507.546 466.102 425.538 386.446 348.996 313.459 279.948 248.444 219.008 191.665 166.473 143.384 122.195 103.157 86.1802 71.0927 57.8138 46.5272 36.8465 28.6604 21.7914 15.8685 10.5314 5.57165 1.3513 314.836 1109.65 1346.13 1245.27 1177.54 1113 1045.87 975.381 903.07 831.209 761 693.285 628.556 567.061 509.139 454.755 403.85 356.619 312.978 272.979 236.249 202.977 173.045 146.255 122.299 101.429 83.013 66.7469 52.3571 39.5125 27.5503 16.359 4.93944 284.934 668.743 1009.41 1061.88 977.872 913.479 854.244 795.414 736.589 679.117 623.715 570.701 520.497 473.062 428.626 387.066 348.196 312.205 278.872 248.16 219.847 193.819 169.988 148.174 128.138 109.867 92.9347 77.2022 62.4941 48.6121 35.1722 22.355 7.67723 300.581 656.406 797.459 910.684 856.675 784.152 725.427 672.262 621.746 574.018 528.972 486.62 447.013 409.985 375.482 343.351 313.251 285.288 259.195 234.799 211.97 190.494 170.314 151.163 132.936 115.673 99.084 83.0911 67.7436 52.9555 38.556 24.7592 8.83773 349.875 732.147 845.975 897.89 872.058 769.275 699.845 642.452 591.326 544.614 501.679 461.97 425.402 391.564 360.282 331.259 304.151 278.992 255.386 232.98 211.789 191.626 172.265 153.606 135.543 118.067 101.024 84.271 68.1043 52.5571 37.6196 23.8728 8.63471 425.93 874.586 990.941 1037.29 1019.25 922.006 801.435 727.363 664.2 607.298 555.62 508.261 464.97 425.198 388.668 355.049 323.906 295.05 268.244 243.105 219.421 197.068 175.856 155.551 135.992 117.256 99.1939 81.577 64.5142 48.3001 33.3068 21.1644 7.95185 527.104 1075.92 1210.65 1268.58 1248.66 1173.67 1036.88 910.068 823.36 746.401 677.059 613.797 556.041 503.227 454.853 410.394 369.542 331.949 297.265 265.188 235.447 207.87 182.206 158.293 135.818 114.773 94.9627 76.3511 58.7708 42.3268 27.9308 18.9833 8.00553 658.606 1342.65 1506.5 1584.39 1563.3 1475.27 1340.51 1178.23 1041.14 935.248 841.896 757.743 681.341 611.533 547.736 489.248 435.403 386.042 340.733 299.127 260.851 225.763 193.697 164.367 137.546 113.246 91.1442 71.1599 53.4963 38.3216 26.6775 21.1091 9.87763 248.049 757.598 854.331 919.903 920.219 875.267 801.542 713.798 625.968 554.671 496.66 445.359 399.244 357.306 318.996 283.976 251.779 222.197 195.044 170.156 147.318 126.377 107.33 90.0606 74.3922 60.3132 47.8685 36.8449 27.4041 19.7131 14.3217 11.9934 8.26685 430.031 815.132 744.723 719.164 692.34 659.591 621.987 581.188 538.491 495.2 452.512 411.08 371.336 333.541 297.825 264.351 233.011 203.894 177.055 152.547 130.092 109.741 91.59 75.661 61.5514 49.4575 39.194 30.5161 23.3291 17.1668 11.6 6.49905 1.53712 350.489 1171.32 1395.51 1296.77 1235.97 1175.93 1110.44 1040 966.072 890.711 816.309 743.873 674.417 608.277 545.81 487.286 432.482 381.614 334.623 291.556 252.181 216.305 184.085 155.425 129.819 107.264 87.6863 70.3663 55.2578 41.7854 29.4422 17.9069 5.46187 287.994 706.239 1061.78 1125.89 1042.98 980.961 922.472 863.115 802.218 740.774 680.617 622.454 567.012 514.53 465.195 419.205 376.274 336.473 299.762 265.9 234.855 206.347 180.359 156.629 134.956 115.162 97.16 80.3795 64.884 50.3666 36.6272 23.5865 8.09785 289.724 667.853 827.642 969.773 922.04 850.116 790.893 736.048 682.701 630.567 580.549 533.009 488.18 446.239 407.091 370.835 337.083 305.685 276.6 249.512 224.347 200.82 178.8 158.133 138.549 120.075 102.55 85.6214 69.5045 54.1038 39.3763 25.4774 9.05896 334.048 726.702 859.641 931.91 921.032 817.163 748.266 688.769 634.6 584.111 537.125 493.375 452.814 415.435 380.94 349.137 319.572 292.157 266.605 242.603 220.021 198.592 178.113 158.542 139.557 121.228 103.436 86.0304 69.2157 53.0956 37.7684 23.8993 8.57867 408.761 858.601 986.026 1048.64 1041.93 946.138 821.426 745.528 679.874 621.099 567.505 518.419 473.389 432.291 394.648 360.191 328.401 299.04 271.859 246.472 222.609 200.065 178.575 158.049 138.196 119.152 100.682 82.6815 65.2714 48.7032 33.283 20.8167 7.62985 507.05 1050.07 1187.67 1256.32 1245.02 1174.96 1037.29 902.178 813.767 737.053 667.843 604.925 547.472 495.204 447.492 403.939 364.023 327.388 293.596 262.453 233.648 206.876 181.815 158.496 136.407 115.484 95.8085 77.1753 59.5045 43.0797 28.6749 19.1343 7.76041 628.925 1298.98 1461.13 1545.85 1531.68 1449.17 1323.93 1156.93 1012.89 909.196 817.637 735.315 660.503 592.546 530.568 474.025 422.101 374.686 331.171 291.252 254.676 221.15 190.38 162.175 136.496 112.909 91.436 71.917 54.5559 39.52 27.8635 21.5411 9.75834 238.506 735.661 829.028 893.319 894.524 851.754 783.52 699.29 607.949 536.959 480.136 430.079 385.094 344.398 307.318 273.536 242.538 214.113 188.134 164.281 142.482 122.501 104.306 87.7704 72.8233 59.3483 47.3832 36.7144 27.5617 20.0618 14.6828 12.1887 8.23945 109.842 283.881 255.069 249.291 242.462 232.534 220.265 206.476 191.842 176.753 161.721 147.019 132.883 119.411 106.654 94.7027 83.5314 73.1324 63.5258 54.7359 46.7487 39.4459 32.9176 27.1806 22.1371 17.7702 14.0711 10.947 8.37387 6.22191 4.3084 2.59741 0.885885 124.404 625.642 736.18 687.645 663.049 636.314 604.479 568.526 529.96 489.797 449.471 409.842 371.613 335.093 300.52 268.055 237.701 209.444 183.353 159.371 137.583 117.636 99.668 83.7192 69.6447 57.1661 46.4382 37.0681 28.9977 22.0232 15.7309 9.96091 4.04527 94.4829 361.874 561.555 608.602 565.994 536.95 508.49 478.108 446.065 412.884 379.637 347.165 315.889 286.204 258.237 232.085 207.759 185.136 164.331 145.196 127.711 111.693 97.1231 83.9189 72.0056 61.1554 51.4149 42.497 34.2954 26.7617 19.7175 13.1296 5.79122 90.0566 317.153 421.183 521.414 505.069 467.49 437.463 408.964 380.573 352.123 324.177 297.251 271.61 247.56 225.019 204.117 184.783 166.81 150.28 134.973 120.788 107.693 95.501 84.1855 73.5781 63.6095 54.3139 45.4684 36.9887 28.9952 21.3887 14.3181 6.45046 101.778 332.115 420.206 479.475 491.239 439.701 404.271 373.581 345.007 317.919 292.249 268.071 245.5 224.604 205.332 187.596 171.22 156.04 141.992 128.887 116.618 105.111 94.1463 83.7606 73.7478 64.0861 54.838 45.8288 37.0485 28.6695 20.7355 13.4976 5.98997 124.546 387.922 467.705 518.732 530.82 488.52 422.842 385.249 351.667 321.409 293.755 268.313 244.92 223.527 204.046 186.216 169.849 154.752 140.819 127.843 115.679 104.197 93.2472 82.7909 72.6952 62.9016 53.4361 44.1715 35.2007 26.5883 18.5481 11.6573 5.17889 154.845 474.24 553.699 605.311 613.501 587.737 518.407 448.035 403.913 365.709 331.574 300.541 272.238 246.479 223.079 201.773 182.312 164.488 148.085 132.96 118.978 105.959 93.7077 82.1999 71.2732 60.7933 50.8737 41.3831 32.3328 23.8121 16.2241 10.4336 5.2481 191.202 584.998 672.806 732.015 739.486 708.322 652.138 568.923 493.908 442.975 398.608 358.703 322.455 289.554 259.658 232.457 207.606 184.894 164.123 145.061 127.603 111.612 96.8747 83.294 70.8592 59.2696 48.5679 38.738 29.8406 21.8711 15.3918 11.197 6.6536 110.683 456.428 522.629 573.453 582.1 558.901 516.737 464.003 400.861 351.449 314.119 281.255 251.75 225.043 200.842 178.8 158.705 140.266 123.465 108.045 93.9625 81.1174 69.4077 58.723 49.0524 40.3394 32.5073 25.5106 19.4647 14.4273 10.6942 8.72159 6.37396 
CELL_DATA 12288
SCALARS stress float 1
LOOKUP_TABLE default
40.6708 62.0578 26.0034 26.0034 69.2746 63.5835 34.4352 52.6419 47.7103 49.2009 48.7295 46.0863 31.9918 47.749 39.2384 40.3047 42.7132 40.8181 30.6046 44.3273 36.0416 37.1023 39.3697 37.7762 29.3909 41.3262 33.6845 34.7273 36.7499 35.3289 28.1004 38.4427 31.5449 32.5486 34.357 33.0721 26.7237 35.6143 29.4871 30.4294 32.0362 30.8731 25.2687 32.8668 27.4746 28.3409 29.7598 28.7062 23.7286 30.1912 25.4964 26.2808 27.5354 26.5939 22.1976 27.6153 23.5886 24.2839 25.3569 24.5172 20.6419 25.1549 21.7225 22.3329 23.2494 22.5083 19.112 22.8017 19.9272 20.4551 21.2194 20.5714 17.6149 20.5725 18.2039 18.6534 19.2672 18.71 16.1455 18.4771 16.5728 16.9431 17.4085 16.9373 14.7526 16.491 15.0162 15.3139 15.646 15.2458 13.3911 14.6461 13.5392 13.7791 13.9804 13.6496 12.1124 12.9269 12.1527 12.3365 12.4253 12.1605 10.8968 11.3371 10.8539 10.9854 10.9779 10.7778 9.75883 9.87075 9.65727 9.73845 9.63527 9.4944 8.69138 8.53394 8.53912 8.57522 8.40122 8.30688 7.69818 7.33263 7.50726 7.51184 7.28742 7.23779 6.78481 6.24561 6.56823 6.54253 6.26789 6.25954 5.92474 5.27586 5.69981 5.6479 5.36544 5.39044 5.14945 4.43843 4.92659 4.85622 4.56117 4.61479 4.43487 3.71147 4.21277 4.12915 3.87031 3.94373 3.76858 3.07768 3.56434 3.47356 3.23441 3.31599 3.13477 2.54153 2.96998 2.88271 2.67344 2.76683 2.55258 2.04949 2.40799 2.32006 2.18161 2.277 1.98248 1.63123 1.88548 1.80392 1.70475 1.79734 1.41885 1.20376 1.36278 1.29557 1.24003 1.3182 0.859051 0.784996 0.841894 0.810028 0.789434 0.830256 0.327792 0.39713 0.355446 0.429468 0.396545 0.297243 19.6931 27.8493 14.8438 14.8438 40.498 43.1542 18.7665 45.2235 27.836 33.254 29.975 27.6392 21.196 34.7781 27.5089 30.9577 27.2667 25.2111 21.968 31.3019 25.9615 28.4017 25.6219 23.859 22.3873 29.0049 25.0492 26.7501 24.416 23.0132 22.4344 27.07 24.2662 25.3683 23.317 22.2668 22.1915 25.2944 23.4337 24.0637 22.2375 21.4965 21.6863 23.6077 22.5308 22.7974 21.1389 20.6522 20.9912 21.9766 21.5301 21.5305 19.979 19.6983 20.1537 20.4199 20.4625 20.264 18.8349 18.7183 19.2329 18.9079 19.3536 19.0131 17.6638 17.6793 18.2381 17.456 18.2197 17.7767 16.5075 16.6254 17.202 16.0664 17.0743 16.565 15.3715 15.563 16.1516 14.7549 15.9468 15.4028 14.2441 14.4934 15.0928 13.4986 14.8204 14.2568 13.1726 13.4656 14.038 12.3112 13.7306 13.1617 12.117 12.4451 13.0064 11.1959 12.6747 12.1092 11.1241 11.4701 11.9996 10.1484 11.6467 11.0979 10.1701 10.5292 11.0226 9.18024 10.6598 10.1317 9.26836 9.63339 10.0678 8.27029 9.7171 9.21583 8.41429 8.77298 9.15254 7.43011 8.81035 8.34303 7.61524 7.96298 8.27618 6.65431 7.94017 7.50941 6.86653 7.20939 7.4243 5.93095 7.1302 6.72689 6.15166 6.4758 6.62445 5.27408 6.3452 5.97913 5.49121 5.79676 5.84155 4.64933 5.59473 5.26393 4.86385 5.14635 5.09084 4.05935 4.86838 4.57358 4.2554 4.51373 4.36795 3.50313 4.18455 3.92393 3.66057 3.90112 3.65941 2.9481 3.50623 3.27224 3.08605 3.29597 2.95577 2.40333 2.839 2.64082 2.4966 2.68865 2.24557 1.84343 2.17236 2.00104 1.89873 2.06347 1.51288 1.26684 1.49287 1.35673 1.28666 1.42078 0.749097 0.696102 0.808121 0.722044 0.660019 0.741215 12.0326 17.0416 11.1224 11.1224 18.6048 23.2962 17.2443 24.975 20.9169 25.261 16.1765 17.859 22.5585 23.0681 24.485 26.8517 16.1494 14.0732 22.8427 20.9047 24.2537 25.9769 16.7937 15.6021 23.6295 19.8089 24.1128 24.9239 17.091 16.5085 23.8637 19.0179 23.8605 24.0292 17.1315 16.9988 23.7097 18.2944 23.4289 23.1408 16.995 17.1909 23.2486 17.5837 22.8183 22.217 16.6838 17.1182 22.5761 16.8429 22.0529 21.2353 16.2511 16.8495 21.7439 16.0787 21.1767 20.2234 15.7212 16.4267 20.8216 15.3033 20.2128 19.1844 15.1371 15.9147 19.8253 14.5168 19.2067 18.1386 14.4948 15.3104 18.7805 13.7238 18.1611 17.0866 13.815 14.6457 17.7149 12.9487 17.1096 16.0505 13.1205 13.945 16.6337 12.1663 16.0497 15.0262 12.4085 13.2113 15.5596 11.4092 14.996 14.0233 11.6897 12.4614 14.488 10.6662 13.9573 13.0415 10.9736 11.7075 13.4383 9.93798 12.9391 12.0847 10.268 10.9585 12.4163 9.23237 11.9459 11.1569 9.57309 10.2185 11.4066 8.54548 10.9805 10.2558 8.87645 9.47582 10.4408 7.87215 10.0409 9.37892 8.19572 8.75361 9.48984 7.20979 9.12751 8.52184 7.52715 8.04112 8.5588 6.58037 8.24542 7.69677 6.85831 7.32418 7.66782 5.9521 7.38354 6.89361 6.21576 6.64192 6.79267 5.33635 6.55463 6.1138 5.56889 5.95338 5.95754 4.71889 5.74107 5.35011 4.92833 5.27543 5.14028 4.12021 4.95624 4.60787 4.29277 4.60789 4.34634 3.50423 4.19641 3.8856 3.64819 3.93618 3.56872 2.88787 3.44875 3.1705 2.9966 3.26344 2.78277 2.25017 2.70183 2.4493 2.3175 2.57297 1.98584 1.58809 1.9487 1.71673 1.60545 1.85221 1.12721 0.934676 1.1963 0.993926 0.899998 1.10524 22.278 13.9195 16.4741 16.4741 10.4615 16.9432 27.4015 19.0688 29.0927 30.6887 16.3247 18.7338 31.8333 20.2361 32.2201 32.9109 19.2573 20.365 33.0466 19.5379 32.7409 32.9315 18.7853 19.2504 31.6012 19.0439 30.9761 30.6237 19.1135 19.924 30.8717 18.6102 30.0047 29.223 19.0581 20.1076 29.9034 18.1284 28.9429 27.873 18.7659 19.9651 28.7303 17.5797 27.7483 26.4987 18.2955 19.5781 27.4329 16.9581 26.4547 25.1047 17.7103 19.0324 26.0431 16.2954 25.1057 23.7079 17.0448 18.3749 24.6271 15.5907 23.7219 22.313 16.3386 17.647 23.1889 14.8765 22.3273 20.941 15.6009 16.8681 21.7482 14.1442 20.9402 19.5982 14.8414 16.0507 20.3371 13.4145 19.5807 18.302 14.0755 15.2229 18.9485 12.6834 18.2501 17.0388 13.3045 14.3833 17.5955 11.9514 16.9523 15.8156 12.5373 13.5471 16.2834 11.2303 15.6933 14.6325 11.772 12.7137 15.0174 10.5187 14.4847 13.4983 11.0191 11.8836 13.7984 9.81273 13.3069 12.4039 10.2784 11.0777 12.6199 9.11968 12.1842 11.353 9.53587 10.2591 11.4817 8.42995 11.0882 10.3382 8.81573 9.47154 10.3843 7.74874 10.0382 9.36084 8.09469 8.68457 9.32417 7.07407 9.02671 8.42093 7.37183 7.90917 8.31167 6.40134 8.05247 7.50314 6.66983 7.15456 7.3368 5.73388 7.11549 6.62339 5.95789 6.40023 6.40836 5.06723 6.21143 5.76595 5.26962 5.66967 5.50875 4.40263 5.34515 4.94479 4.5742 4.93948 4.64842 3.74423 4.51203 4.14876 3.88383 4.22601 3.8313 3.08465 3.71164 3.37595 3.19596 3.52834 3.02529 2.40169 2.94167 2.61915 2.47613 2.81429 2.20695 1.69869 2.16589 1.84625 1.73122 2.08286 1.33243 1.01492 1.39861 1.08628 0.985209 1.32254 36.9954 19.3072 25.8853 25.8853 23.0005 26.2721 40.7431 28.962 43.1333 43.1713 28.03 30.186 44.0639 30.3741 44.7439 44.2855 30.6541 32.2617 44.651 29.6827 44.4413 43.7472 30.5165 31.955 43.3652 27.408 42.7102 41.7563 28.5268 29.9819 40.7285 26.0695 39.8131 38.5219 27.327 28.8895 38.587 24.7661 37.606 36.1384 26.0434 27.6584 36.3986 23.4439 35.4062 33.8436 24.6851 26.3023 34.1772 22.1154 33.2021 31.6106 23.307 24.8986 31.9575 20.8078 31.0274 29.4435 21.9194 23.4593 29.7917 19.5296 28.8949 27.3517 20.5707 22.0428 27.6726 18.2813 26.8328 25.3511 19.2478 20.6464 25.625 17.0744 24.8377 23.4255 17.962 19.2807 23.6591 15.9224 22.9327 21.5987 16.7347 17.9684 21.7767 14.8194 21.1149 19.8653 15.5535 16.6994 19.9858 13.7624 19.3748 18.2128 14.4259 15.4838 18.2753 12.7414 17.7292 16.6558 13.3383 14.3127 16.6617 11.7707 16.1692 15.1805 12.3023 13.1982 15.1352 10.8325 14.689 13.7795 11.313 12.1278 13.676 9.94243 13.2899 12.463 10.3641 11.1078 12.3147 9.07575 11.9657 11.2109 9.45065 10.1271 11.0086 8.24533 10.7131 10.0279 8.56917 9.1837 9.78052 7.44094 9.52864 8.90648 7.7161 8.26812 8.62088 6.65242 8.39975 7.84187 6.89062 7.39663 7.52794 5.89009 7.34573 6.83598 6.09008 6.55082 6.49092 5.13689 6.33182 5.86836 5.31305 5.73727 5.5144 4.40903 5.38637 4.9603 4.55448 4.94987 4.59886 3.69561 4.4933 4.09863 3.8152 4.18411 3.74134 2.99364 3.64624 3.27832 3.09792 3.4619 2.93529 2.30874 2.85967 2.49871 2.38036 2.76487 2.15323 1.60632 2.11206 1.73771 1.63834 2.06001 1.33323 0.958596 1.39371 1.00514 0.940342 1.35739 53.1306 29.2309 37.1693 37.1693 39.6822 41.3201 55.388 44.4061 59.3162 58.672 42.5162 44.5501 57.7541 44.5473 59.3536 58.2167 44.2514 46.0849 57.5851 43.0873 58.0171 56.7688 43.5527 45.2789 55.6041 40.5494 55.4169 54.0436 41.385 43.0983 52.4861 37.2275 51.9693 50.4592 38.3324 40.0776 48.7151 34.7115 48.0202 46.3618 35.8373 37.5815 45.3304 32.2994 44.5861 42.8892 33.4083 35.1092 42.0446 29.9718 41.2953 39.6168 31.0356 32.6622 38.8498 27.7362 38.1124 36.4924 28.7365 30.2787 35.8029 25.5919 35.0877 33.542 26.5377 27.9927 32.8849 23.5652 32.2084 30.7431 24.4333 25.7885 30.0968 21.6355 29.459 28.0904 22.4365 23.699 27.4728 19.8228 26.8804 25.6027 20.5476 21.7126 24.9802 18.1128 24.446 23.2656 18.7623 19.8357 22.6428 16.4969 22.1491 21.0607 17.0871 18.0746 20.438 14.9962 20.0031 19.0012 15.5116 16.411 18.3876 13.5815 17.9926 17.0797 14.0392 14.8598 16.4613 12.2587 16.111 15.2781 12.6659 13.4103 14.6662 11.0208 14.3685 13.6129 11.3663 12.044 12.9899 9.8601 12.7258 12.0377 10.1659 10.779 11.4318 8.77203 11.2124 10.5903 9.02341 9.57569 9.97726 7.74549 9.79373 9.2331 7.95649 8.458 8.63339 6.7803 8.48095 7.9728 6.95878 7.41255 7.38412 5.8752 7.26302 6.80301 6.0181 6.43137 6.23589 5.00363 6.13827 5.71999 5.12385 5.51032 5.17081 4.18606 5.10156 4.71027 4.27805 4.64398 4.19747 3.40879 4.14592 3.77643 3.4816 3.83928 3.31509 2.66267 3.27456 2.91356 2.72125 3.07664 2.50121 1.96044 2.4717 2.11174 2.00172 2.379 1.77651 1.32027 1.75234 1.37315 1.33131 1.76161 1.11094 0.858992 1.16966 0.775891 0.848541 1.26524 70.8297 41.9496 50.0582 50.0582 58.2409 58.8425 71.1937 62.0237 77.5049 76.5749 58.3616 60.4033 72.9709 60.5081 75.8813 74.2215 59.1244 61.1605 72.1314 58.0785 73.3797 71.6711 57.7469 59.684 69.21 54.6607 69.637 67.9227 54.8744 56.7489 65.0572 50.6502 65.0483 63.3167 51.1678 52.9926 60.2762 46.3736 60.0443 58.3065 47.0795 48.8505 55.3075 42.7077 54.9269 53.1966 43.4528 45.1397 50.7719 39.2603 50.356 48.6896 40 41.5779 46.5066 35.9767 46.0602 44.4883 36.6945 38.1529 42.4733 32.8892 42.0083 40.5471 33.5694 34.9129 38.6615 29.9696 38.2154 36.8642 30.6045 31.8374 35.0656 27.212 34.651 33.407 27.7958 28.9215 31.7036 24.636 31.3061 30.1666 25.1694 26.19 28.5413 22.2281 28.1839 27.1487 22.6954 23.6174 25.5893 19.9657 25.2585 24.3218 20.3874 21.2188 22.818 17.8679 22.5424 21.6968 18.2265 18.9738 20.2623 15.9212 20.0117 19.2503 16.2355 16.904 17.8825 14.1042 17.6729 16.9912 14.3765 14.9719 15.6761 12.4413 15.5034 14.8951 12.6576 13.1892 13.6408 10.8822 13.5 12.9563 11.0667 11.5394 11.7658 9.46041 11.6561 11.1721 9.60183 10.0221 10.0533 8.142 9.97082 9.53999 8.24749 8.62366 8.47184 6.9264 8.42375 8.03794 7.00302 7.34215 7.03179 5.8154 7.01067 6.66279 5.86342 6.17369 5.74593 4.80169 5.73951 5.42112 4.82257 5.10629 4.5734 3.86336 4.59845 4.30744 3.85952 4.13189 3.53386 3.00207 3.57555 3.29709 2.97971 3.24998 2.61794 2.21899 2.67447 2.39861 2.17655 2.45593 1.81299 1.49845 1.88997 1.60717 1.42797 1.73201 1.14047 0.915028 1.21204 0.915545 0.826199 1.17361 0.743533 0.847468 0.813288 0.582826 0.815841 1.09431 89.1452 57.4975 64.4104 64.4104 78.6196 79.1635 88.3714 82.1392 98.1466 96.3378 75.7642 78.2197 91.6569 78.6787 95.8863 93.3156 75.8316 78.2041 90.1942 74.9568 92.0778 89.7595 73.7151 75.9053 85.7551 70.3524 86.6133 84.5105 69.8674 71.9022 79.7833 65.1582 80.2068 78.2687 65.0788 66.9716 73.3037 59.7528 73.4786 71.6782 59.8906 61.6456 66.7754 54.3859 66.8053 65.1335 54.6863 56.3008 60.5106 49.6345 60.4499 58.904 49.9703 51.4365 54.9286 45.209 54.781 53.374 45.5754 46.8983 49.7935 41.0667 49.5947 48.3244 41.4429 42.6295 45.0037 37.1959 44.8047 43.6652 37.5499 38.6052 40.5323 33.5724 40.3419 39.3284 33.8838 34.8232 36.3822 30.1764 36.1838 35.2815 30.4724 31.2995 32.4941 27.013 32.337 31.5434 27.2648 27.9902 28.8769 24.0668 28.7447 28.0483 24.2875 24.9195 25.5336 21.3303 25.4335 24.8253 21.4924 22.0383 22.4189 18.7879 22.3351 21.8094 18.9229 19.3911 19.5446 16.4474 19.4905 19.0388 16.5445 16.9453 16.8772 14.2831 16.8814 16.494 14.3395 14.6733 14.4463 12.2983 14.4572 14.1327 12.3231 12.5982 12.2226 10.477 12.2583 11.9895 10.4729 10.6995 10.1986 8.82176 10.2554 10.0325 8.79053 8.97117 8.32958 7.32574 8.43473 8.25565 7.25758 7.40172 6.685 5.95978 6.81449 6.66982 5.86373 5.9764 5.23096 4.74825 5.35162 5.23704 4.63316 4.72347 3.91677 3.68155 4.09556 4.00237 3.52878 3.59932 2.7929 2.74604 2.99796 2.9248 2.56794 2.62479 1.86418 1.96678 2.10898 2.05226 1.74707 1.80071 1.17749 1.36668 1.44774 1.40375 1.09942 1.14472 0.851 1.05478 1.09799 1.08168 0.808267 0.815519 1.01064 1.22687 1.11266 1.13471 1.14415 1.10687 28.2892 62.2941 24.6735 24.6735 61.3988 60.0566 49.8489 55.26 49.3749 49.4536 56.3452 53.39 40.0307 52.119 45.0366 46.1132 49.7317 47.7873 36.5204 48.7794 41.1428 41.9446 45.5233 43.9341 34.0967 45.509 38.0198 38.8653 42.1503 40.7263 31.9679 42.3105 35.2762 36.1873 39.0971 37.7696 29.9302 39.1697 32.7067 33.6637 36.2005 34.9397 27.9222 36.098 30.2502 31.2326 33.415 32.2234 25.9334 33.1232 27.8897 28.866 30.7165 29.5911 23.9969 30.2495 25.6212 26.5749 28.1193 27.0646 22.0928 27.4986 23.4418 24.356 25.6321 24.6517 20.2567 24.8794 21.3637 22.2264 23.2497 22.3468 18.4866 22.3951 19.3907 20.1925 20.9879 20.1618 16.8024 20.0577 17.523 18.2605 18.8547 18.1067 15.1955 17.857 15.7538 16.424 16.8308 16.1614 13.6785 15.7991 14.1003 14.6982 14.9486 14.3535 12.2518 13.8875 12.5602 13.0888 13.1939 12.6684 10.9129 12.1264 11.1235 11.5889 11.5672 11.1106 9.67759 10.5093 9.79278 10.1946 10.0705 9.6764 8.52446 9.02575 8.57602 8.91924 8.6995 8.36945 7.46781 7.68896 7.45582 7.73909 7.46733 7.19361 6.50423 6.48242 6.44175 6.67363 6.35595 6.13126 5.6131 5.43389 5.52475 5.71324 5.36086 5.18365 4.82033 4.48827 4.69912 4.84404 4.4906 4.36067 4.08986 3.69259 3.95574 4.05892 3.73689 3.64612 3.42864 3.00321 3.2986 3.36828 3.07553 3.01939 2.82672 2.41814 2.70617 2.74721 2.51352 2.47993 2.24588 1.90933 2.14916 2.17223 1.98428 1.97661 1.71214 1.46121 1.63567 1.63778 1.52886 1.5448 1.17136 1.03306 1.13702 1.12029 1.06149 1.08663 0.631822 0.592161 0.646851 0.625399 0.579957 0.613208 0.218539 0.18916 0.191672 0.182299 0.270789 0.24647 17.0842 24.5375 17.7458 17.7458 26.6436 26.7482 32.0623 43.8627 27.8614 28.0554 45.3529 43.9352 29.7442 41.1609 39.2477 38.8869 36.0946 34.3819 27.5838 37.1216 32.8415 33.5396 32.389 30.7861 26.236 33.9832 29.8482 30.6664 29.882 28.4431 25.0848 31.3333 27.7286 28.488 27.8072 26.5345 23.9431 28.9361 25.9451 26.6008 25.9284 24.8155 22.7859 26.7147 24.3103 24.858 24.1598 23.1897 21.5857 24.6208 22.7459 23.1974 22.4527 21.6138 20.3591 22.6433 21.2348 21.5959 20.8265 20.1075 19.1292 20.7663 19.7773 20.0596 19.2476 18.6366 17.9012 18.9887 18.3607 18.5741 17.7345 17.2221 16.6883 17.3109 17.001 17.1535 16.2834 15.8646 15.5202 15.7352 15.705 15.7993 14.9131 14.5797 14.3655 14.2473 14.4572 14.5007 13.6086 13.3499 13.2606 12.8602 13.262 13.265 12.3766 12.1847 12.1958 11.5736 12.1383 12.1071 11.2202 11.0895 11.1724 10.3789 11.0664 11.0045 10.1385 10.0588 10.1951 9.27203 10.0484 9.96402 9.13893 9.10744 9.2666 8.26271 9.10248 8.99664 8.20189 8.21221 8.38178 7.33147 8.19627 8.07563 7.34105 7.38187 7.53748 6.48561 7.34695 7.21731 6.54998 6.61651 6.74369 5.71722 6.55613 6.42101 5.80933 5.90055 5.9837 5.01987 5.80131 5.6599 5.14374 5.24542 5.25686 4.37276 5.08395 4.94692 4.5085 4.62163 4.55491 3.78288 4.40855 4.27251 3.91241 4.03054 3.89338 3.22829 3.76026 3.62891 3.34658 3.46956 3.22926 2.68586 3.12905 2.9998 2.78029 2.90668 2.58569 2.1601 2.51395 2.38729 2.23329 2.35493 1.93025 1.63133 1.89983 1.78175 1.66415 1.78522 1.27158 1.09891 1.28877 1.1755 1.08463 1.20487 0.665116 0.621651 0.726192 0.618215 0.596874 0.712138 13.03 17.2693 16.9627 16.9627 15.3088 15.2824 25.4644 22.1603 27.2946 26.6572 27.856 25.8905 27.6501 34.9434 32.0259 35.009 24.5824 22.7229 25.9068 27.6479 29.435 30.3152 22.1431 20.8521 25.1438 24.5136 27.1001 27.4805 20.7217 19.8477 24.4311 22.4839 25.552 25.5881 19.6672 19.1135 23.6387 20.9035 24.2778 24.0706 18.7371 18.4298 22.755 19.5396 23.0828 22.7042 17.8624 17.7418 21.7746 18.2902 21.902 21.4094 16.9943 17.0098 20.7442 17.1232 20.7214 20.1602 16.1268 16.2466 19.6716 16.0187 19.5477 18.9456 15.2672 15.4669 18.5865 14.9619 18.392 17.7678 14.4139 14.6731 17.4925 13.96 17.2561 16.6273 13.5746 13.8694 16.4138 13.0075 16.1375 15.522 12.7618 13.0842 15.348 12.0927 15.0523 14.4553 11.951 12.2892 14.3038 11.2134 13.9934 13.4222 11.1719 11.5202 13.2834 10.3881 12.9741 12.4298 10.4135 10.7654 12.2903 9.5934 11.9893 11.4748 9.6741 10.0252 11.3289 8.83835 11.0322 10.5482 8.964 9.30704 10.3969 8.12653 10.1185 9.66839 8.27445 8.60993 9.49321 7.43272 9.22724 8.80641 7.60428 7.92597 8.61051 6.76903 8.36867 7.98063 6.94787 7.25301 7.7628 6.14712 7.54281 7.18824 6.3246 6.61391 6.93891 5.53011 6.74351 6.41805 5.70357 5.97492 6.14105 4.9317 5.96521 5.66858 5.09615 5.34994 5.35948 4.34574 5.2121 4.94175 4.48518 4.72191 4.60372 3.77384 4.48582 4.23981 3.90057 4.11512 3.86878 3.19059 3.76829 3.54941 3.28604 3.49158 3.14123 2.60626 3.07321 2.86839 2.67397 2.86669 2.40931 2.00402 2.37836 2.18929 2.03254 2.22515 1.66944 1.40117 1.69751 1.51306 1.38684 1.57039 0.983518 0.873418 1.06018 0.892536 0.841092 1.00402 18.2092 16.9207 21.3054 21.3054 11.3909 12.0879 31.5901 22.8187 32.2289 31.3187 21.3217 20.8681 34.168 26.1266 35.7737 36.8714 22.2515 22.2662 34.2503 23.5719 35.12 35.4436 20.3493 20.4951 31.4878 21.0164 31.9092 31.3695 19.3998 19.9477 30.1045 19.4821 30.0053 29.1379 18.6684 19.4655 28.7468 18.3612 28.3926 27.3224 17.9857 18.9224 27.3357 17.4055 26.863 25.6843 17.2989 18.3046 25.8909 16.5287 25.3547 24.132 16.5845 17.6145 24.4313 15.6869 23.8669 22.6399 15.8586 16.881 22.9698 14.8739 22.3949 21.1949 15.1172 16.1109 21.5326 14.0908 20.9728 19.8196 14.3803 15.3355 20.1258 13.3263 19.5889 18.4916 13.6375 14.5465 18.7665 12.5787 18.2509 17.2154 12.9108 13.764 17.4445 11.8487 16.9605 15.9956 12.186 12.9851 16.1667 11.1332 15.71 14.8133 11.4721 12.2105 14.9328 10.4413 14.5183 13.6956 10.7701 11.4506 13.7516 9.76353 13.3715 12.6191 10.0765 10.7029 12.6163 9.09314 12.2688 11.5816 9.39473 9.96714 11.5248 8.44935 11.2189 10.5957 8.72855 9.24368 10.4764 7.79844 10.1944 9.63776 8.06118 8.52991 9.47037 7.16665 9.22481 8.72266 7.40365 7.82848 8.50262 6.53814 8.29101 7.83987 6.75137 7.13366 7.56242 5.91015 7.3822 6.97955 6.09814 6.44529 6.66363 5.28316 6.50376 6.14179 5.45123 5.76451 5.78733 4.65844 5.66264 5.33867 4.79858 5.08423 4.9524 4.03664 4.85229 4.55991 4.14842 4.41027 4.14671 3.4066 4.06302 3.79778 3.50098 3.74598 3.36303 2.78057 3.31067 3.06511 2.84406 3.08033 2.59875 2.13825 2.57387 2.33969 2.1663 2.397 1.82264 1.49257 1.85099 1.62777 1.46957 1.70992 1.11387 0.932269 1.19334 0.975974 0.908478 1.13373 27.988 22.091 28.908 28.908 17.9363 18.7974 44.2633 29.6823 40.4539 39.3828 29.6028 30.5154 45.6671 31.7473 46.5468 46.2669 30.9742 32.2422 45.1834 30.2383 45.4428 44.6985 30.0739 31.3995 43.1256 26.9152 42.9687 41.9518 27.1659 28.702 39.6241 24.9293 39.1383 37.6646 25.5786 27.207 37.1444 23.3252 36.4909 34.9013 24.1339 25.7805 34.7636 21.881 34.0515 32.4271 22.7323 24.3486 32.4423 20.5118 31.7271 30.12 21.3628 22.9147 30.189 19.2134 29.4831 27.9301 20.0377 21.511 28.0141 17.9715 27.3321 25.8508 18.7589 20.1413 25.9351 16.7931 25.2868 23.8914 17.525 18.8112 23.9395 15.6703 23.3342 22.0318 16.3444 17.5335 22.0462 14.6019 21.4856 20.2785 15.2237 16.3154 20.2496 13.5895 19.7361 18.6256 14.1552 15.1509 18.5423 12.6143 18.0748 17.0596 13.1311 14.0412 16.9355 11.6943 16.518 15.5886 12.1525 12.9744 15.4138 10.8134 15.0394 14.1988 11.2214 11.9613 13.9694 9.9632 13.6413 12.8832 10.3267 10.9846 12.6162 9.15504 12.3284 11.6538 9.47023 10.063 11.3321 8.36139 11.0802 10.4715 8.6435 9.16913 10.1186 7.60496 9.90727 9.36779 7.84706 8.31291 8.97346 6.86653 8.79455 8.31643 7.07029 7.49063 7.88796 6.14243 7.74671 7.31571 6.31257 6.68497 6.86384 5.42517 6.73911 6.35801 5.57414 5.9089 5.88288 4.73091 5.79302 5.4512 4.84459 5.14607 4.96677 4.0435 4.8983 4.5914 4.13317 4.41406 4.09653 3.36185 4.04413 3.75956 3.43444 3.6956 3.27348 2.70253 3.24054 2.97741 2.74519 2.99459 2.49217 2.04412 2.48595 2.23587 2.06069 2.31575 1.73635 1.39838 1.77697 1.52779 1.37085 1.63675 1.06566 0.885253 1.14534 0.91063 0.877793 1.11113 39.9162 30.7698 38.7719 38.7719 29.0627 29.8908 59.741 39.7672 50.7971 49.6313 44.4306 45.612 59.6824 44.7474 60.8348 59.9728 44.4853 46.2051 58.2615 42.636 58.7729 57.4402 42.868 44.7063 55.4219 39.5419 55.4425 53.8875 40.1118 41.9745 51.6931 35.5537 51.4097 49.7311 36.4532 38.3936 47.3735 32.8164 46.8367 44.9778 33.8075 35.701 43.7661 30.3474 43.1607 41.321 31.3391 33.1501 40.3759 28.0519 39.7488 37.9729 28.9974 30.7003 37.1472 25.8726 36.5356 34.8555 26.7693 28.3564 34.1055 23.8158 33.5015 31.9277 24.6525 26.1185 31.2219 21.8881 30.6513 29.1929 22.6602 24.0043 28.4964 20.0676 27.9678 26.6271 20.7717 21.9997 25.9432 18.3692 25.4535 24.2257 19.005 20.1218 23.5498 16.7763 23.1041 21.9854 17.3447 18.3562 21.2954 15.281 20.8968 19.8818 15.7837 16.6913 19.19 13.8857 18.8393 17.9272 14.3291 15.1457 17.2298 12.5846 16.9223 16.1 12.9704 13.6955 15.3929 11.3602 15.128 14.3965 11.6907 12.3384 13.6971 10.221 13.4691 12.8144 10.5034 11.0737 12.0955 9.14565 11.9102 11.3323 9.38518 9.88916 10.6249 8.13821 10.4739 9.96235 8.3342 8.78177 9.25153 7.19372 9.13175 8.67643 7.35094 7.74206 7.97432 6.30086 7.88568 7.48736 6.42036 6.76357 6.79554 5.447 6.72912 6.37887 5.54823 5.85252 5.70376 4.63616 5.66376 5.35311 4.70232 4.97611 4.69266 3.86837 4.67233 4.39277 3.91279 4.1608 3.75797 3.12205 3.75314 3.50046 3.14903 3.38609 2.89609 2.40979 2.90808 2.66701 2.41749 2.64426 2.10247 1.7518 2.13397 1.90526 1.72989 1.95591 1.37746 1.15224 1.44805 1.22612 1.09667 1.34636 0.852769 0.792099 0.933075 0.733269 0.809027 0.997042 53.4796 42.1151 50.5963 50.5963 42.5712 43.6039 77.7303 52.2213 62.7598 61.4208 62.1616 63.1435 75.8641 61.0341 78.2019 77.2397 60.2639 62.1651 73.2404 57.7919 74.555 72.8766 57.566 59.6421 69.2865 53.7194 69.8553 67.9606 53.9223 55.9969 64.4586 49.2541 64.5881 62.6366 49.7304 51.7456 59.244 44.5301 59.0966 57.1599 45.267 47.235 53.9314 40.7855 53.5942 51.6595 41.5526 43.3938 49.2788 37.3409 48.8704 47.0467 38.0994 39.8067 44.9597 34.1311 44.5338 42.8351 34.845 36.4079 40.9193 31.1179 40.49 38.9314 31.8011 33.2206 37.1544 28.3031 36.7406 35.3221 28.9318 30.2193 33.6303 25.6713 33.2341 31.9454 26.2386 27.3945 30.3326 23.2114 29.9716 28.8143 23.7247 24.7601 27.2658 20.9222 26.9368 25.8995 21.3772 22.3026 24.4002 18.7871 24.1144 23.1868 19.1823 20.0021 21.7392 16.8085 21.4897 20.6673 17.1481 17.869 19.2666 14.9696 19.0557 18.3322 15.259 15.8952 16.9839 13.2671 16.8112 16.1717 13.504 14.0574 14.8635 11.6926 14.7305 14.1733 11.8898 12.3706 12.9096 10.2386 12.8111 12.3256 10.3858 10.7982 11.1124 8.90273 11.0435 10.6261 9.01372 9.36617 9.47132 7.66398 9.42749 9.06957 7.74017 8.04009 7.96579 6.52293 7.95273 7.64714 6.56708 6.82495 6.58539 5.47211 6.60069 6.3368 5.49123 5.71071 5.34154 4.51452 5.37837 5.15283 4.50572 4.69766 4.23217 3.6265 4.28376 4.08605 3.59809 3.76716 3.22715 2.81366 3.29628 3.12287 2.76205 2.91412 2.33525 2.06577 2.41855 2.26389 1.99436 2.14108 1.55036 1.38702 1.66811 1.52323 1.28283 1.42874 0.86576 0.877363 1.01921 0.892974 0.733672 0.862156 0.582826 0.832566 0.665294 0.622337 0.849138 0.868743 68.8345 55.3214 63.8658 63.8658 57.4924 60.6275 98.5909 67.3926 75.4668 72.5797 83.2223 84.2088 95.3846 80.6099 101.121 99.7405 78.3937 80.6265 91.4485 75.4314 94.2228 92.0087 74.2276 76.5281 85.8061 69.8306 87.161 84.8954 69.3499 71.545 79.2172 64.0218 79.8703 77.693 63.9648 66.0206 72.349 58.2237 72.6065 70.5567 58.4375 60.3501 65.5899 52.5847 65.6182 63.7046 52.9953 54.7724 59.1873 47.7919 59.031 57.2432 48.2541 49.8703 53.5363 43.4076 53.3339 51.7092 43.8711 45.3299 48.3939 39.3399 48.1544 46.6896 39.7895 41.0976 43.6683 35.577 43.3989 42.088 35.9951 37.161 39.2783 32.0576 39.0235 37.8601 32.4482 33.4833 35.1937 28.7923 34.9735 33.9441 29.134 30.0487 31.4268 25.7523 31.2182 30.311 26.0521 26.8558 27.9085 22.9347 27.7381 26.9438 23.1848 23.885 24.6675 20.3155 24.5269 23.837 20.524 21.1289 21.6431 17.895 21.5367 20.9422 18.0568 18.5775 18.8627 15.6685 18.7973 18.2867 15.7878 16.2265 16.3129 13.6142 16.2697 15.8402 13.6896 14.0569 13.9491 11.7243 13.9521 13.5931 11.7627 12.0699 11.8054 9.99233 11.834 11.5332 9.99944 10.2476 9.85021 8.42286 9.89885 9.65528 8.39993 8.59557 8.07178 7.00193 8.15665 7.96403 6.94793 7.09773 6.49113 5.71373 6.59431 6.44562 5.62528 5.73942 5.0646 4.56244 5.19582 5.08136 4.44864 4.5354 3.83605 3.54761 3.98045 3.89218 3.41599 3.47594 2.75975 2.6602 2.93576 2.87344 2.50292 2.54469 1.88529 1.9118 2.07498 2.03125 1.73334 1.76408 1.22628 1.35687 1.44199 1.41255 1.14251 1.15979 0.910082 1.04685 1.09805 1.08815 0.86752 0.862016 1.01495 1.14708 1.04479 1.05974 1.14984 1.1103 26.4594 64.8578 24.2221 24.2221 61.9145 60.6502 49.4445 57.3727 52.6293 52.9898 56.4841 55.2425 45.9044 54.413 47.8702 48.1946 53.5448 51.8722 41.4584 51.9044 44.5687 45.3229 49.6789 48.2444 38.2563 48.783 41.4323 42.199 46.1243 44.8162 35.5537 45.4882 38.4794 39.286 42.7741 41.5462 33.0531 42.1584 35.6736 36.5141 39.5481 38.3881 30.665 38.8721 32.9726 33.8285 36.4334 35.3276 28.3473 35.6681 30.3589 31.2221 33.4302 32.3819 26.1055 32.5699 27.8504 28.7028 30.5398 29.5477 23.9364 29.5979 25.4344 26.2667 27.7741 26.8424 21.8511 26.7675 23.1325 23.9322 25.1376 24.2681 19.8619 24.0767 20.9452 21.7042 22.6397 21.8353 17.9713 21.5402 18.8735 19.5845 20.2854 19.5474 16.1731 19.1671 16.9321 17.5906 18.0704 17.3972 14.4838 16.9521 15.1105 15.7156 16.0004 15.3889 12.9087 14.8785 13.4024 13.9548 14.071 13.5245 11.4409 12.9699 11.8263 12.3205 12.2917 11.8104 10.0755 11.2115 10.3645 10.7987 10.6598 10.2395 8.8281 9.61165 9.03633 9.4145 9.16503 8.79844 7.67308 8.16459 7.81061 8.13878 7.81545 7.50383 6.62839 6.85978 6.70747 6.98501 6.59775 6.3348 5.68674 5.70389 5.70033 5.93253 5.54158 5.32289 4.83221 4.69878 4.81873 5.01033 4.58814 4.40835 4.05784 3.82109 4.01422 4.17014 3.77888 3.64141 3.37425 3.08459 3.31944 3.4376 3.07364 2.97522 2.75539 2.44676 2.69322 2.77626 2.47307 2.40595 2.17705 1.91354 2.1244 2.18018 1.9413 1.90386 1.63649 1.43957 1.59726 1.62804 1.47767 1.45699 1.11107 1.0231 1.10956 1.12701 1.03665 1.02491 0.607965 0.594447 0.634111 0.644019 0.566182 0.575767 0.226353 0.188456 0.21193 0.201225 0.212231 0.235655 18.6457 22.3976 20.062 20.062 24.343 24.0448 28.3355 47.7045 30.7959 30.8315 44.8118 44.0854 38.6815 43.4421 40.381 40.4171 41.9888 40.647 32.9309 40.8446 36.9969 37.2597 37.7417 36.3735 30.0835 37.7926 33.5836 34.078 34.5181 33.1809 28.0107 34.8948 30.8627 31.4736 31.8166 30.5475 26.2321 32.1803 28.5513 29.1992 29.3824 28.1972 24.5778 29.6185 26.4711 27.1115 27.1255 26.0333 22.9853 27.1917 24.5404 25.1475 24.9986 24.0002 21.4385 24.9043 22.7049 23.2686 22.9858 22.0825 19.9439 22.7318 20.9692 21.4812 21.0733 20.263 18.4918 20.6876 19.3161 19.7737 19.2615 18.5406 17.098 18.7656 17.7545 18.1576 17.5558 16.9168 15.7677 16.9583 16.2633 16.6175 15.9453 15.3936 14.4871 15.2774 14.8708 15.1685 14.4262 13.953 13.2663 13.7082 13.5404 13.7873 13.0064 12.6111 12.1208 12.2441 12.3036 12.498 11.6917 11.3678 11.0278 10.9016 11.143 11.2917 10.4727 10.2127 9.99565 9.66112 10.0489 10.1574 9.3418 9.14074 9.03386 8.53775 9.03046 9.10278 8.31044 8.16354 8.1152 7.50496 8.08463 8.12437 7.35814 7.26122 7.25792 6.57451 7.20068 7.21036 6.49336 6.43878 6.46127 5.72741 6.37563 6.36038 5.71573 5.69012 5.69668 4.98123 5.60485 5.57694 4.99967 5.00862 4.97869 4.29625 4.89258 4.84506 4.34486 4.37048 4.2976 3.68365 4.20764 4.15449 3.74238 3.78679 3.64587 3.1146 3.56954 3.50752 3.17917 3.23299 3.00802 2.57676 2.95561 2.89105 2.63059 2.68842 2.38523 2.0537 2.35162 2.28748 2.09342 2.15834 1.77193 1.54891 1.76716 1.69987 1.55184 1.6261 1.16307 1.05048 1.20171 1.12797 1.02735 1.09808 0.635952 0.607922 0.681535 0.611024 0.586879 0.67618 17.3413 18.11 20.4456 20.4456 16.562 16.5463 26.9113 24.7842 29.5434 29.1392 22.9778 22.5397 34.5584 34.8589 34.5585 34.4625 33.7104 33.4421 30.0354 32.0706 34.9084 33.8873 27.8923 26.9324 27.4633 28.6113 30.3042 30.1751 24.9777 24.0121 25.7441 25.9506 27.6522 27.6312 22.9444 22.1053 24.3339 23.7902 25.672 25.6204 21.3096 20.6152 23.0253 21.9334 23.9855 23.8806 19.8829 19.3196 21.7539 20.273 22.4539 22.3027 18.571 18.1205 20.5055 18.7427 21.0028 20.8179 17.3421 16.9918 19.2793 17.3309 19.6282 19.4166 16.1862 15.9196 18.0842 16.0111 18.3075 18.0812 15.083 14.8891 16.9216 14.7821 17.0483 16.8117 14.0373 13.9105 15.7931 13.6199 15.8435 15.5966 13.0501 12.9786 14.7038 12.5437 14.6981 14.4489 12.0997 12.0799 13.6458 11.5175 13.601 13.3469 11.1958 11.2148 12.6307 10.567 12.5498 12.3001 10.3474 10.4015 11.6536 9.67636 11.5497 11.3028 9.53303 9.61563 10.705 8.83272 10.5856 10.3442 8.75871 8.86711 9.80455 8.04716 9.67373 9.43738 8.03577 8.16029 8.92368 7.31219 8.79765 8.57134 7.33288 7.46887 8.0795 6.61264 7.95617 7.74024 6.66306 6.80567 7.26985 5.95328 7.14348 6.94004 6.0336 6.1831 6.48407 5.32767 6.37335 6.17904 5.41572 5.56323 5.71891 4.72608 5.61904 5.43894 4.80949 4.95945 4.97858 4.1419 4.89458 4.7224 4.2291 4.36853 4.26259 3.57351 4.19386 4.0393 3.64802 3.78933 3.56171 3.01051 3.51329 3.36339 3.06194 3.20034 2.86926 2.4413 2.84774 2.70462 2.47438 2.60889 2.18287 1.87148 2.18923 2.05336 1.87709 2.00398 1.50495 1.30546 1.54794 1.42181 1.27337 1.40859 0.91369 0.820367 0.970863 0.842661 0.795739 0.93279 21.9441 19.1326 24.3598 24.3598 15.7534 16.2652 31.8726 24.638 33.5742 32.6975 22.4676 23.3622 37.765 27.4581 38.6725 37.381 27.7908 26.7759 36.5124 28.839 37.882 38.4472 23.905 23.8638 32.1933 24.0104 33.4502 32.6852 21.2737 21.5307 30.0044 21.4071 30.6119 29.682 19.6263 20.0751 28.1924 19.6221 28.4489 27.4334 18.4081 18.9674 26.5239 18.2178 26.5726 25.5317 17.3717 17.9912 24.9206 17.0284 24.8472 23.8142 16.4305 17.0742 23.3653 15.9508 23.2131 22.2111 15.5422 16.1847 21.8537 14.9641 21.6533 20.6991 14.6913 15.3217 20.4118 14.0413 20.1743 19.2737 13.882 14.4904 19.0183 13.1748 18.7663 17.9234 13.1012 13.68 17.6814 12.3495 17.4213 16.6398 12.3423 12.8906 16.4046 11.5706 16.1467 15.4251 11.6113 12.1215 15.1695 10.8216 14.9256 14.2673 10.895 11.3708 14.0021 10.1056 13.7645 13.164 10.2086 10.6466 12.882 9.41775 12.6593 12.1168 9.53859 9.94037 11.8025 8.74241 11.6027 11.1138 8.87438 9.24266 10.7792 8.09285 10.5896 10.1502 8.23228 8.57406 9.78805 7.45608 9.62666 9.2275 7.58836 7.90183 8.84331 6.83577 8.70147 8.34227 6.96302 7.25054 7.93493 6.22144 7.80786 7.4845 6.34874 6.60523 7.05245 5.61388 6.94402 6.65968 5.72501 5.96259 6.19534 5.0043 6.11127 5.85288 5.10325 5.32264 5.37603 4.40178 5.30491 5.07016 4.48468 4.68661 4.58315 3.79854 4.53068 4.31776 3.86556 4.05508 3.80893 3.19723 3.77797 3.58105 3.24422 3.41621 3.06685 2.59603 3.05541 2.87905 2.61729 2.78427 2.33563 1.98017 2.35205 2.18311 1.97513 2.14044 1.62389 1.37554 1.68051 1.51708 1.33976 1.5065 1.00047 0.866591 1.06192 0.909805 0.846823 1.00127 30.2389 24.1598 30.9449 30.9449 21.4045 22.1493 40.5211 30.4185 40.7177 39.684 29.1818 30.6805 47.6364 33.1852 46.7794 45.0822 32.5167 33.2338 46.199 31.4892 46.4368 45.6936 30.7674 31.8248 43.4075 27.331 43.5309 42.4818 26.7197 28.2133 38.8989 24.6107 38.8184 37.2008 24.5665 26.1466 36.0354 22.625 35.7459 34.0825 22.8564 24.4419 33.4621 20.9876 33.0804 31.434 21.3578 22.8891 31.0577 19.5328 30.6288 29.0476 19.9643 21.416 28.7662 18.1974 28.3273 26.8324 18.6537 20.0094 26.5927 16.9589 26.1534 24.758 17.4163 18.6684 24.545 15.8013 24.1163 22.8269 16.2516 17.4002 22.6036 14.7219 22.1945 21.0106 15.1495 16.1939 20.7763 13.7048 20.3912 19.3132 14.1077 15.0512 19.0555 12.7476 18.7025 17.727 13.1202 13.9729 17.4271 11.8374 17.1139 16.2307 12.1734 12.9368 15.8983 10.9726 15.6136 14.8215 11.2802 11.9623 14.4562 10.1498 14.2044 13.4953 10.4269 11.0322 13.0947 9.36683 12.8811 12.2508 9.60627 10.1407 11.8247 8.61255 11.6342 11.0771 8.8284 9.29574 10.6082 7.88184 10.4549 9.96664 8.06288 8.47179 9.47107 7.17528 9.3474 8.92028 7.32917 7.68611 8.39377 6.47921 8.28794 7.91482 6.61286 6.92634 7.3722 5.80005 7.29257 6.96522 5.91009 6.18434 6.39579 5.12928 6.34072 6.05482 5.21233 5.45241 5.47281 4.45877 5.43458 5.18458 4.52764 4.74541 4.60127 3.80903 4.57838 4.35286 3.857 4.04882 3.76145 3.152 3.75357 3.55584 3.17908 3.36141 2.97259 2.51742 2.98736 2.80061 2.52453 2.69822 2.22807 1.89189 2.25831 2.0822 1.87309 2.04023 1.5243 1.30013 1.59123 1.42704 1.25085 1.40898 0.942631 0.822332 1.00677 0.871665 0.819517 0.959519 40.9327 31.9892 39.8424 39.8424 30.8506 31.6634 51.4768 39.4276 50.0365 48.9196 39.6583 41.36 61.385 43.3256 57.7024 55.7969 44.7258 46.2475 59.0168 42.135 59.0371 57.5894 42.4986 44.2972 55.4182 38.8166 55.4235 53.7536 39.2332 41.1135 51.1191 34.2058 50.9787 49.2027 34.8518 36.8993 46.1499 31.2486 45.7964 43.7889 32.0147 33.9904 42.3434 28.7201 41.9034 39.9617 29.5077 31.3716 38.8609 26.4312 38.3955 36.5601 27.2053 28.9382 35.627 24.3123 35.157 33.4475 25.0441 26.6393 32.5936 22.3238 32.1377 30.5616 23.0116 24.4734 29.7649 20.4833 29.3252 27.8786 21.1202 22.4477 27.1164 18.7617 26.7084 25.393 19.3442 20.5418 24.6387 17.1615 24.2585 23.0702 17.6894 18.7647 22.332 15.6779 21.9877 20.9194 16.1447 17.1036 20.171 14.2935 19.8707 18.9168 14.7004 15.5493 18.1637 12.9935 17.9023 17.0564 13.3495 14.1003 16.2887 11.7801 16.0639 15.3138 12.0872 12.7518 14.543 10.6549 14.3601 13.6944 10.9091 11.4845 12.9274 9.59672 12.7715 12.1935 9.81337 10.3133 11.4115 8.60515 11.2975 10.7934 8.77747 9.2052 10.0149 7.67561 9.93006 9.49737 7.80767 8.17287 8.70755 6.78557 8.64676 8.27559 6.89396 7.20809 7.5001 5.95435 7.46749 7.14709 6.02959 6.29941 6.37641 5.15227 6.36681 6.09028 5.19965 5.43193 5.33954 4.3855 5.33816 5.09935 4.41261 4.61253 4.37315 3.65475 4.39356 4.18752 3.66478 3.84041 3.47611 2.94132 3.50746 3.32638 2.935 3.09113 2.64282 2.26835 2.69261 2.5322 2.23795 2.38067 1.88037 1.62563 1.9453 1.80001 1.58051 1.72468 1.20979 1.06926 1.2988 1.1593 1.0024 1.14151 0.766099 0.758177 0.827961 0.730173 0.775684 0.849552 53.6826 42.381 50.912 50.912 42.947 43.9211 64.0708 50.8188 61.1323 59.8913 52.6038 54.5105 78.6445 56.3306 71.3013 69.1524 60.7604 62.4396 74.4454 56.8946 74.8617 73.2015 57.2996 59.3625 69.4166 52.6741 69.8177 67.8443 53.0319 55.1686 63.904 47.9275 64.0593 61.9974 48.4068 50.5046 58.2262 42.771 58.164 56.1172 43.4786 45.5592 52.5205 38.9542 52.2365 50.1696 39.6974 41.6314 47.7538 35.5393 47.4067 45.4785 36.2596 38.0376 43.4155 32.3973 43.044 41.2685 33.0832 34.7025 39.4055 29.4792 39.0376 37.4194 30.1156 31.5822 35.7053 26.7701 35.3389 33.8735 27.3593 28.6751 32.2541 24.2531 31.9135 30.5999 24.7859 25.9668 29.0586 21.9096 28.7446 27.5667 22.3903 23.4407 26.0861 19.7367 25.8063 24.7593 20.1603 21.091 23.3277 17.7245 23.0802 22.1529 18.09 18.9092 20.7656 15.8641 20.5647 19.7492 16.1707 16.8871 18.3923 14.1304 18.2301 17.5169 14.3876 15.0074 16.2021 12.5306 16.0686 15.4511 12.7373 13.2757 14.1805 11.0524 14.0807 13.5437 11.2187 11.6778 12.3085 9.68964 12.2495 11.791 9.80799 10.1985 10.5916 8.43567 10.5622 10.1711 8.51666 8.84596 9.02094 7.27166 9.0195 8.6883 7.32029 7.5932 7.58574 6.20285 7.60644 7.3305 6.21675 6.44067 6.26902 5.22021 6.30887 6.08126 5.20618 5.38497 5.08239 4.30462 5.1366 4.95375 4.27952 4.4255 4.01438 3.46402 4.0926 3.94221 3.41422 3.53835 3.04873 2.68343 3.13788 3.00939 2.61863 2.72336 2.19205 1.97071 2.29678 2.18901 1.88491 1.97932 1.45397 1.3347 1.56975 1.47623 1.22449 1.30239 0.829033 0.860433 0.975291 0.910269 0.747259 0.804302 0.622354 0.81675 0.677447 0.670659 0.850095 0.83657 68.4406 54.8637 63.5885 63.5885 57.0438 58.5647 76.3385 64.4659 73.1674 71.44 67.6249 70.7507 101.666 72.4328 88.152 84.8965 80.6706 82.4047 93.6285 74.9184 95.8473 94.0238 74.7429 76.9642 86.1827 69.0423 87.5477 85.3168 68.8439 71.0548 78.6809 62.8258 79.3978 77.1619 62.8677 64.9643 71.2982 56.7133 71.6038 69.469 56.9721 58.931 64.2432 50.7573 64.2767 62.2744 51.2484 53.0928 57.6175 45.9553 57.4381 55.5405 46.4762 48.1512 51.9653 41.6278 51.7171 49.9965 42.1448 43.6526 46.8547 37.6594 46.5816 45.0379 38.1442 39.4946 42.1819 33.9914 41.913 40.5369 34.454 35.6588 37.8974 30.5976 37.6401 36.4166 31.0135 32.0815 33.938 27.4518 33.6931 32.6132 27.8238 28.771 30.2733 24.5435 30.0585 29.1049 24.8643 25.6973 26.8765 21.8391 26.7024 25.8676 22.1198 22.8485 23.7469 19.354 23.6065 22.8782 19.5719 20.2039 20.8308 17.0486 20.7298 20.1006 17.2185 17.7606 18.164 14.9204 18.087 17.5491 15.0563 15.5212 15.7039 12.972 15.673 15.213 13.0636 13.4514 13.4493 11.1829 13.4483 13.0649 11.2285 11.5536 11.3866 9.5416 11.4147 11.0934 9.55 9.81837 9.50211 8.05278 9.55984 9.29434 8.0276 8.2417 7.81081 6.70539 7.89071 7.67863 6.6507 6.82095 6.29158 5.47573 6.38889 6.21945 5.39998 5.53145 4.93038 4.38629 5.05093 4.91922 4.28929 4.38352 3.7456 3.43437 3.88373 3.78842 3.30713 3.37329 2.73348 2.58773 2.88417 2.81646 2.44577 2.49513 1.89487 1.87634 2.06328 2.0127 1.71795 1.74974 1.282 1.34215 1.45043 1.42006 1.18357 1.20544 0.987614 1.05982 1.11888 1.10617 0.934337 0.932145 1.02106 1.11712 1.03356 1.04493 1.13471 1.10737 25.8346 67.7713 24.3675 24.3675 63.8578 63.2118 52.8906 59.6538 56.3037 56.4322 58.3044 57.4274 48.109 56.7674 50.4364 50.689 55.4033 54.2847 44.8749 54.2761 47.0094 47.5515 52.6599 51.3636 41.5886 51.5078 44.1326 44.8894 49.2828 48.0616 38.6219 48.2487 41.1951 41.9755 45.8429 44.6924 35.8539 44.8348 38.2971 39.0824 42.4311 41.3431 33.1981 41.3916 35.4497 36.2312 39.0965 38.0659 30.6303 38.0029 32.6609 33.4347 35.8639 34.8857 28.1522 34.7153 29.9561 30.7188 32.7428 31.8211 25.7597 31.5478 27.3555 28.0942 29.7537 28.8885 23.4679 28.5366 24.8695 25.5795 26.9091 26.1016 21.282 25.671 22.4988 23.174 24.2049 23.4559 19.202 22.958 20.2597 20.894 21.6521 20.9643 17.248 20.4226 18.1474 18.7361 19.2669 18.6397 15.412 18.0369 16.1715 16.7123 17.0378 16.4736 13.6885 15.8328 14.3307 14.8193 14.9534 14.447 12.092 13.7881 12.612 13.052 13.0365 12.5867 10.605 11.9046 11.0303 11.4214 11.2693 10.877 9.25438 10.1982 9.58819 9.92857 9.65961 9.32191 8.00978 8.62854 8.26182 8.55212 8.2061 7.92005 6.88559 7.24207 7.07033 7.31507 6.89549 6.65883 5.8579 5.99513 5.99545 6.19556 5.74181 5.54053 4.95761 4.91499 5.02481 5.19576 4.72946 4.57248 4.13659 3.97135 4.17476 4.30553 3.85217 3.72846 3.41907 3.17919 3.4238 3.52587 3.11403 3.02284 2.76843 2.50725 2.76347 2.83829 2.47352 2.40846 2.17709 1.94171 2.17001 2.22353 1.93527 1.89284 1.62641 1.46282 1.63228 1.66773 1.46215 1.42865 1.12533 1.04845 1.13611 1.16622 1.0363 1.01806 0.642302 0.633628 0.674698 0.693152 0.616367 0.592392 0.21131 0.260615 0.249353 0.282108 0.235072 0.196566 20.5384 21.3683 21.7287 21.7287 23.1118 22.5072 31.0064 51.3861 32.7285 32.8888 48.3087 47.8376 40.426 46.2735 43.4903 43.3183 44.2623 43.3728 36.8835 43.328 39.2763 39.4505 41.4066 40.2192 33.5337 40.7801 36.3028 36.7326 38.1971 36.9727 30.9158 37.9059 33.5362 34.0909 35.2267 34.029 28.687 35.0562 31.0293 31.64 32.4781 31.3312 26.6607 32.2925 28.7086 29.3381 29.894 28.8153 24.7573 29.6299 26.5273 27.147 27.4485 26.4441 22.9319 27.0918 24.4508 25.0457 25.1416 24.2148 21.1933 24.6872 22.4837 23.0455 22.9523 22.102 19.5284 22.4181 20.6243 21.1471 20.887 20.1171 17.9513 20.2783 18.8577 19.3352 18.9421 18.254 16.4448 18.2758 17.1982 17.6248 17.1134 16.5016 15.0281 16.4032 15.6399 16.0163 15.4124 14.8764 13.6744 14.6617 14.1767 14.5025 13.8246 13.3598 12.4118 13.0479 12.8044 13.0839 12.3409 11.9463 11.229 11.5497 11.5244 11.7556 10.9785 10.6515 10.1147 10.1872 10.3357 10.5202 9.72404 9.45509 9.0763 8.94694 9.24169 9.38814 8.58632 8.37253 8.11385 7.80824 8.21328 8.32422 7.53936 7.3787 7.21179 6.79174 7.26751 7.34277 6.59819 6.48133 6.36995 5.8736 6.39858 6.44634 5.73382 5.66175 5.59164 5.04954 5.58748 5.6054 4.98452 4.93884 4.86375 4.31921 4.84245 4.84692 4.28536 4.27322 4.17281 3.66384 4.15069 4.13302 3.66399 3.67373 3.52308 3.07468 3.49956 3.46965 3.08434 3.1122 2.90239 2.52757 2.88913 2.84845 2.53832 2.57822 2.29373 2.01288 2.29851 2.25103 2.01047 2.05431 1.70109 1.51256 1.71588 1.66775 1.50438 1.54859 1.12535 1.02939 1.16709 1.12061 1.00202 1.05001 0.615137 0.593136 0.661517 0.612197 0.559782 0.619591 20.4558 18.9989 22.6811 22.6811 18.1793 17.9007 29.2693 26.6567 31.2245 30.9728 25.5246 24.9017 34.6347 38.1613 36.2401 36.1047 35.3363 34.784 33.8333 34.2067 35.7379 35.4394 32.0632 31.299 30.0211 31.5677 32.5398 32.2495 28.7476 27.843 27.5486 28.8958 29.6773 29.5956 26.1737 25.2634 25.6205 26.5142 27.3482 27.3605 24.0478 23.1952 23.9415 24.3715 25.3433 25.389 22.1948 21.4208 22.4028 22.4141 23.5291 23.5822 20.5149 19.8314 20.9393 20.6001 21.8479 21.8906 18.9608 18.3632 19.5492 18.9211 20.2735 20.3021 17.5184 17.0061 18.2164 17.3637 18.7952 18.8056 16.1683 15.7357 16.9461 15.9043 17.3972 17.3885 14.9093 14.5509 15.7276 14.5484 16.0778 16.0517 13.7198 13.4299 14.5756 13.2932 14.8378 14.7955 12.6189 12.3893 13.4677 12.1213 13.659 13.6035 11.5687 11.3957 12.4129 11.0264 12.5438 12.4735 10.5939 10.4739 11.4078 10.0106 11.4885 11.4053 9.68563 9.60827 10.4407 9.07001 10.4894 10.3982 8.82845 8.78771 9.5253 8.20884 9.54732 9.45077 8.02959 8.01995 8.6506 7.39109 8.64594 8.54519 7.28312 7.30034 7.81099 6.63347 7.78786 7.68368 6.57303 6.6124 7.001 5.93565 6.9754 6.86913 5.90544 5.96075 6.23117 5.26585 6.1947 6.0894 5.26967 5.33994 5.48159 4.64375 5.44708 5.34005 4.66533 4.74099 4.75475 4.05149 4.73235 4.6306 4.07461 4.15572 4.06277 3.47756 4.03597 3.93764 3.50238 3.5855 3.3779 2.91959 3.37435 3.27929 2.93425 3.01831 2.71052 2.3599 2.72251 2.63136 2.35753 2.4441 2.05198 1.79696 2.07895 1.98817 1.78497 1.87027 1.41855 1.25877 1.46666 1.37985 1.22403 1.30598 0.843351 0.768615 0.896173 0.815603 0.740579 0.834553 24.6649 20.7468 26.2533 26.2533 18.6739 18.9572 33.1486 26.0043 34.4721 33.7742 24.4583 24.8859 38.066 28.9714 38.9121 37.9508 27.6935 27.8896 39.1334 29.4578 39.7622 39.0031 27.8214 28.372 33.3121 26.3472 35.0541 33.5383 23.8573 23.9605 30.3712 23.5318 31.4636 30.4776 21.4371 21.5301 28.1419 21.3726 28.8811 28.0076 19.6832 19.8346 26.225 19.6314 26.7393 25.9094 18.2707 18.4705 24.4701 18.1394 24.821 24.0337 17.0532 17.2925 22.8181 16.8215 23.0573 22.3112 15.9519 16.2095 21.2533 15.629 21.3991 20.7033 14.9408 15.2098 19.7721 14.5416 19.8573 19.2113 13.9967 14.2697 18.3689 13.5315 18.4022 17.8048 13.1108 13.3839 17.0341 12.5918 17.0318 16.482 12.2699 12.5389 15.7707 11.714 15.7463 15.2421 11.4771 11.7411 14.5691 10.8889 14.5203 14.0588 10.7207 10.9734 13.4252 10.111 13.3705 12.9528 10.0011 10.2422 12.3401 9.37031 12.2808 11.9026 9.30761 9.53676 11.3036 8.66297 11.2411 10.8999 8.63065 8.84698 10.309 7.98401 10.2521 9.94493 7.97623 8.18287 9.35877 7.32738 9.30316 9.02407 7.34335 7.53274 8.4488 6.68717 8.39637 8.14972 6.71953 6.90007 7.56837 6.06713 7.52154 7.29672 6.10054 6.27318 6.72524 5.45545 6.68939 6.48285 5.49738 5.65607 5.9018 4.85276 5.87873 5.69446 4.89143 5.03619 5.10403 4.26014 5.09612 4.9326 4.28601 4.42414 4.3391 3.65856 4.33093 4.1793 3.68733 3.81258 3.59234 3.08002 3.60028 3.46581 3.08584 3.20408 2.88061 2.49196 2.90142 2.77676 2.48265 2.59548 2.17882 1.89314 2.21898 2.10231 1.86972 1.97586 1.50967 1.31344 1.56781 1.46046 1.27357 1.37214 0.908583 0.803686 0.965666 0.874793 0.780331 0.879982 31.9599 25.4159 32.1372 32.1372 23.7728 24.4619 40.7207 30.7877 40.9416 39.9206 29.8189 31.1771 46.2817 33.0379 46.1293 44.4526 32.6198 34.2238 47.151 32.5629 47.289 45.4112 32.0448 32.699 43.8725 28.2772 43.9864 43.018 27.0314 28.3422 38.4189 24.8868 38.6106 36.9473 24.2635 25.6491 35.2122 22.5568 35.2397 33.599 22.2491 23.6257 32.4672 20.7165 32.3967 30.828 20.5927 21.9168 29.9797 19.1443 29.8438 28.3692 19.1383 20.3771 27.6658 17.744 27.493 26.1317 17.8078 18.9523 25.4972 16.4615 25.3051 24.0578 16.5766 17.6271 23.4771 15.2939 23.2768 22.1386 15.4328 16.3856 21.5793 14.2117 21.3787 20.3496 14.3682 15.2295 19.8052 13.207 19.6123 18.684 13.3683 14.14 18.1494 12.2751 17.9686 17.1377 12.4314 13.1186 16.5927 11.3882 16.4223 15.6825 11.545 12.1523 15.1251 10.5535 14.9783 14.3242 10.6964 11.2332 13.749 9.76617 13.625 13.047 9.89506 10.3657 12.4601 9.01111 12.3554 11.8484 9.12932 9.54341 11.2466 8.28828 11.1635 10.7178 8.38823 8.75304 10.1001 7.58506 10.0403 9.64791 7.67316 7.99099 9.02226 6.90971 8.9711 8.62982 6.98551 7.2572 7.99144 6.23731 7.95824 7.66626 6.30051 6.53954 7.01798 5.5849 7.00058 6.74456 5.63272 5.83952 6.0891 4.94305 6.08995 5.86951 4.97426 5.15374 5.20335 4.3056 5.21838 5.02763 4.31762 4.4705 4.35967 3.66001 4.37549 4.21313 3.67071 3.81043 3.553 3.02587 3.58388 3.43691 3.01868 3.1452 2.79103 2.40773 2.83301 2.70106 2.38749 2.50521 2.06889 1.79802 2.12248 2.00122 1.7603 1.8773 1.41195 1.21556 1.47883 1.36262 1.16756 1.28708 0.86641 0.746736 0.924471 0.823359 0.73578 0.829227 41.7277 32.6166 40.3275 40.3275 32.1643 32.975 50.6629 39.0376 49.641 48.5231 39.1095 40.8347 57.4901 42.1264 56.24 54.2607 42.7345 44.8683 59.2458 41.8779 58.02 55.7103 42.0294 43.7436 55.3383 38.0795 55.0601 53.293 38.5456 40.3614 50.6318 33.0706 50.5014 48.6828 33.511 35.5539 45.0183 29.9679 44.803 42.7351 30.4942 32.4588 41.0365 27.3908 40.7684 38.7999 27.9469 29.7898 37.4973 25.1085 37.1958 35.3599 25.669 27.3696 34.2603 23.0295 33.9525 32.2639 23.5718 25.1283 31.2661 21.114 30.9589 29.4159 21.623 23.0314 28.4875 19.3482 28.1892 26.7953 19.8231 21.094 25.9128 17.711 25.6348 24.378 18.1447 19.2808 23.5106 16.1978 23.2585 22.1352 16.588 17.5995 21.2896 14.7993 21.0626 20.0622 15.1463 16.0433 19.2245 13.4936 19.0228 18.1348 13.802 14.5942 17.3088 12.2902 17.1407 16.3551 12.5492 13.2372 15.5155 11.1615 15.3854 14.7017 11.376 11.9724 13.853 10.1102 13.7467 13.1524 10.2876 10.8023 12.3134 9.12961 12.2408 11.7261 9.26698 9.70554 10.8812 8.20801 10.8354 10.395 8.30854 8.68304 9.55494 7.32612 9.52555 9.14772 7.4067 7.72234 8.31192 6.49941 8.3089 7.98868 6.55114 6.81178 7.16151 5.71066 7.17677 6.91084 5.73977 5.9596 6.08995 4.95256 6.12663 5.90099 4.95839 5.14373 5.08645 4.22304 5.14013 4.9487 4.20893 4.36518 4.16646 3.50899 4.21576 4.05353 3.48963 3.62692 3.29752 2.82821 3.36408 3.2211 2.7912 2.90674 2.49933 2.17058 2.56978 2.44965 2.12248 2.22937 1.76427 1.54891 1.84221 1.73235 1.48866 1.58359 1.12572 1.01413 1.21199 1.12009 0.950288 1.03202 0.717895 0.715074 0.76148 0.708778 0.725822 0.750656 53.7986 42.3451 50.844 50.844 43.2937 44.2124 62.4393 49.7492 60.3015 59.1042 50.975 52.9638 71.3579 54.2694 68.9899 66.7523 55.9534 58.34 74.8042 54.6688 71.7205 69.1402 56.3675 58.4538 69.3397 51.2625 69.1386 67.0263 51.9971 54.141 63.3087 46.5422 63.3144 61.186 47.1113 49.2173 57.2262 41.0512 57.1718 55.0846 41.7376 43.8532 51.0811 37.2237 50.8578 48.7381 37.9045 39.8636 46.2326 33.8455 45.9576 43.9951 34.5083 36.2987 41.8948 30.7846 41.5963 39.8035 31.4052 33.0323 37.939 27.9652 37.6403 36.0131 28.5425 30.0082 34.3 25.3571 34.0117 32.548 25.8883 27.2047 30.949 22.9541 30.6771 29.3646 23.4314 24.6083 27.8465 20.7246 27.6015 26.4301 21.1467 22.1935 24.982 18.6675 24.7616 23.7216 19.0383 19.9607 22.3232 16.7606 22.1396 21.2249 17.0809 17.8935 19.8761 15.0064 19.7252 18.9199 15.2767 15.9883 17.6038 13.3832 17.494 16.7889 13.5945 14.2116 15.5018 11.8756 15.4225 14.8111 12.0457 12.5734 13.5683 10.4955 13.5172 12.9939 10.6179 11.0686 11.789 9.21607 11.7737 11.3264 9.29876 9.67719 10.1493 8.03102 10.1562 9.77973 8.0844 8.40309 8.65119 6.94302 8.68257 8.3642 6.96077 7.22256 7.27949 5.93828 7.33405 7.07128 5.92822 6.14008 6.01942 5.01272 6.0998 5.88583 4.97523 5.14619 4.88667 4.14808 4.97824 4.80405 4.08722 4.22528 3.87202 3.34067 3.96253 3.82068 3.27497 3.38267 2.93846 2.59277 3.04437 2.9328 2.5084 2.60114 2.11588 1.90163 2.23018 2.13406 1.81012 1.88588 1.40166 1.28373 1.51834 1.44227 1.18228 1.2459 0.840912 0.833513 0.953242 0.900029 0.747623 0.778525 0.64807 0.788379 0.684471 0.687105 0.82335 0.795613 67.9682 54.4479 63.1776 63.1776 56.8635 58.0449 75.119 62.8833 72.4494 70.9882 65.1246 67.6912 87.711 69.427 84.686 81.9031 72.1935 74.9858 95.6231 70.6608 89.4261 86.3878 74.3605 76.4257 86.565 67.5858 87.1311 85.003 68.1096 70.2381 78.1322 61.4282 78.6642 76.4902 61.7238 63.7662 70.2116 55.1628 70.4966 68.4005 55.5207 57.4401 62.8286 48.9283 62.8822 60.9022 49.4697 51.3025 55.9441 44.1424 55.7622 53.8557 44.6981 46.3629 50.2867 39.8879 50.0477 48.3178 40.4266 41.9253 45.2382 36.0162 44.9847 43.4318 36.5228 37.8673 40.6698 32.4662 40.409 39.0204 32.9301 34.1303 36.497 29.1933 36.2455 35.0116 29.6155 30.6824 32.6489 26.1711 32.4233 31.3315 26.5433 27.4892 29.1039 23.3784 28.908 27.9445 23.708 24.5411 25.8375 20.8062 25.6779 24.8326 21.0768 21.8066 22.8238 18.4312 22.687 21.9494 18.6584 19.2933 20.0246 16.2459 19.9446 19.3059 16.4147 16.9646 17.4562 14.2209 17.4077 16.8557 14.3471 14.8173 15.1045 12.365 15.0788 14.6075 12.4524 12.8516 12.9452 10.6733 12.9537 12.5543 10.7137 11.0491 10.967 9.11852 11.0002 10.6652 9.12447 9.39949 9.1632 7.70723 9.22962 8.9554 7.68265 7.90551 7.54423 6.42869 7.63334 7.41064 6.37248 6.55324 6.08401 5.274 6.19838 6.01712 5.1837 5.32217 4.78535 4.23857 4.90461 4.76518 4.13045 4.23485 3.65508 3.31914 3.79399 3.68844 3.20439 3.28214 2.68509 2.51542 2.832 2.75278 2.38312 2.43748 1.88953 1.83822 2.03783 1.98289 1.69633 1.7349 1.30744 1.32063 1.44402 1.40803 1.19025 1.213 1.02592 1.0448 1.11324 1.09879 0.968915 0.969405 1.01823 1.09787 1.02767 1.03567 1.11535 1.08931 25.9818 70.588 25.1227 25.1227 66.0498 65.9561 56.2896 61.8075 59.4221 59.2752 60.3891 59.7581 50.6029 59.1185 52.8003 53.0115 57.6298 56.6645 47.1882 56.712 49.281 49.8232 54.9252 53.8299 44.2796 53.933 46.4243 47.1205 51.9401 50.7946 41.2918 50.7979 43.6367 44.4019 48.5379 47.446 38.3946 47.3429 40.7216 41.4756 45.043 44.0122 35.5706 43.787 37.7851 38.5167 41.5493 40.5804 32.8122 40.2455 34.8641 35.5685 38.1309 37.2181 30.1355 36.782 32.0101 32.6892 34.8215 33.9632 27.5521 33.4497 29.2383 29.8921 31.6361 30.833 25.078 30.2541 26.58 27.2032 28.609 27.8632 22.7133 27.22 24.0486 24.6361 25.7321 25.041 20.4745 24.3529 21.6498 22.2021 23.0075 22.3735 18.3543 21.6582 19.3858 19.8973 20.457 19.8832 16.371 19.1332 17.2563 17.7225 18.0604 17.5432 14.5145 16.7761 15.2657 15.687 15.8465 15.3848 12.7835 14.6112 13.4319 13.8083 13.7921 13.3858 11.1898 12.613 11.7333 12.064 11.9017 11.5489 9.73161 10.7768 10.1771 10.4627 10.189 9.88671 8.38861 9.12124 8.75089 8.99508 8.61751 8.36025 7.18166 7.63344 7.45996 7.66607 7.22684 7.01683 6.09412 6.31142 6.30719 6.47263 5.97563 5.81168 5.11763 5.13724 5.27291 5.39842 4.9015 4.76934 4.25112 4.14912 4.36616 4.46682 3.96119 3.86046 3.48883 3.293 3.55627 3.63253 3.17162 3.10044 2.81524 2.58758 2.86853 2.9212 2.50197 2.45251 2.20996 1.98578 2.23501 2.27155 1.94422 1.90939 1.65862 1.50013 1.69545 1.72264 1.46576 1.44244 1.1573 1.06618 1.18228 1.20203 1.05971 1.0353 0.681618 0.674167 0.715211 0.740219 0.657766 0.622701 0.248587 0.306487 0.283532 0.331932 0.277011 0.227914 22.04 21.7383 22.961 22.961 22.9442 21.8813 33.0351 54.4404 33.8629 34.3055 51.7561 51.4956 43.3007 48.8707 46.1527 45.9197 46.945 46.1891 39.1962 45.8697 41.558 41.7233 43.8999 42.8723 36.2068 43.2419 38.4615 38.8944 41.1467 39.9903 33.4862 40.5886 35.8719 36.446 38.1747 37.0169 31.0439 37.7073 33.3327 33.9591 35.2768 34.1628 28.7822 34.8199 30.9012 31.5366 32.4866 31.4335 26.6434 31.9849 28.5543 29.1791 29.8103 28.8218 24.5951 29.2579 26.2963 26.9009 27.2599 26.3413 22.6452 26.6461 24.1338 24.709 24.8409 23.9964 20.7931 24.1735 22.0913 22.6274 22.5595 21.7867 19.0237 21.8433 20.1502 20.6468 20.4037 19.7058 17.3563 19.6576 18.3185 18.7688 18.3868 17.7638 15.7846 17.6133 16.6092 17.0102 16.497 15.9444 14.3061 15.6992 14.9876 15.3418 14.7389 14.2568 12.9204 13.925 13.4863 13.7917 13.1108 12.6959 11.6232 12.301 12.0941 12.353 11.5999 11.2483 10.4147 10.8063 10.7919 11.0072 10.2208 9.93234 9.30759 9.44523 9.59767 9.7674 8.96842 8.73712 8.26536 8.20396 8.49604 8.62483 7.81919 7.63916 7.30214 7.08762 7.47644 7.57046 6.79556 6.65968 6.42168 6.09075 6.54449 6.61032 5.87051 5.77548 5.59374 5.196 5.67931 5.71853 5.03863 4.98195 4.84412 4.41663 4.90229 4.9162 4.30342 4.27401 4.13565 3.71166 4.17302 4.17041 3.64759 3.63686 3.47409 3.10232 3.49987 3.48868 3.0527 3.05934 2.85252 2.52289 2.87428 2.85324 2.50192 2.51975 2.25263 2.00853 2.28097 2.2537 1.9753 2.00785 1.66577 1.50445 1.70534 1.66764 1.48236 1.50712 1.11578 1.02695 1.15951 1.13235 0.998488 1.02173 0.603403 0.583272 0.64624 0.622824 0.558252 0.581107 22.526 20.0924 24.0183 24.0183 19.6601 19.0594 31.0128 28.0157 32.1695 32.1583 27.7096 26.7051 36.118 41.0715 37.2607 37.4132 38.4441 38.0185 35.4524 36.796 37.6679 37.3162 34.5751 33.7836 32.0594 33.9285 34.0627 33.9985 31.7708 30.8107 29.3737 31.5422 31.3942 31.472 29.1064 28.1053 27.1686 29.1115 29.034 29.2091 26.7428 25.7661 25.2423 26.82 26.8838 27.1087 24.6062 23.6919 23.4742 24.6542 24.9009 25.139 22.6447 21.8055 21.8156 22.6152 23.0361 23.2715 20.8155 20.0616 20.2522 20.7012 21.2903 21.5061 19.1196 18.4475 18.7755 18.9258 19.6551 19.8505 17.541 16.9514 17.3741 17.2625 18.1134 18.283 16.0585 15.5453 16.0499 15.7089 16.6563 16.8006 14.678 14.2417 14.8043 14.2802 15.3056 15.4197 13.3968 13.0328 13.6199 12.9301 14.0218 14.1068 12.1995 11.9042 12.4962 11.6935 12.8252 12.8817 11.089 10.8503 11.4337 10.5534 11.6935 11.7304 10.053 9.87107 10.43 9.4923 10.6329 10.6453 9.09365 8.96158 9.48474 8.523 9.637 9.62917 8.2189 8.12799 8.57995 7.6273 8.69963 8.67706 7.38826 7.33456 7.71751 6.79823 7.8068 7.77038 6.62031 6.59572 6.90152 6.03332 6.96531 6.91932 5.90957 5.91415 6.11917 5.31486 6.15983 6.10177 5.23028 5.25522 5.36581 4.65711 5.39946 5.33482 4.60128 4.64187 4.65169 4.03145 4.67715 4.60792 3.99688 4.05313 3.95201 3.44277 3.98414 3.90797 3.41976 3.48006 3.28823 2.87496 3.30817 3.23454 2.85587 2.92031 2.63287 2.32785 2.66791 2.59491 2.30254 2.35681 1.9844 1.77092 2.03001 1.97041 1.73585 1.78991 1.37197 1.23109 1.42087 1.36418 1.194 1.2489 0.805147 0.733199 0.853729 0.799459 0.705163 0.755317 26.4175 21.9534 27.4146 27.4146 20.7863 20.755 34.1327 27.0621 34.9405 34.4709 26.2777 26.1412 38.4663 30.2228 39.109 38.5335 29.3661 29.1274 39.5994 31.622 40.187 39.6809 29.5729 29.4652 34.0595 28.0527 35.2911 34.498 26.1973 26.0467 30.9593 25.5267 32.1387 31.3272 23.5299 23.3037 28.4912 23.3111 29.526 28.8614 21.4602 21.2293 26.386 21.3862 27.2456 26.6814 19.7573 19.5555 24.4896 19.6869 25.1915 24.696 18.2727 18.1101 22.7367 18.154 23.3048 22.8601 16.9454 16.8223 21.0936 16.7585 21.5557 21.1538 15.7338 15.6492 19.5642 15.4885 19.9359 19.5681 14.6231 14.5733 18.1217 14.3137 18.4157 18.0774 13.5896 13.5709 16.7634 13.224 17.0004 16.6878 12.6332 12.6363 15.4909 12.2203 15.6732 15.3899 11.7354 11.7629 14.2767 11.2776 14.4244 14.1615 10.8922 10.939 13.1415 10.4042 13.2534 13.0116 10.0924 10.161 12.0658 9.58102 12.1571 11.9274 9.33844 9.41943 11.0389 8.80398 11.1072 10.8947 8.61754 8.70997 10.0625 8.06812 10.1177 9.91931 7.93113 8.02931 9.12251 7.37031 9.17465 8.99228 7.26522 7.36908 8.22975 6.69343 8.26767 8.09823 6.61716 6.72385 7.36036 6.04839 7.40328 7.24548 5.99566 6.09872 6.53262 5.41728 6.56292 6.42156 5.38575 5.48213 5.73089 4.80476 5.76307 5.63798 4.77885 4.87251 4.95696 4.20137 4.98581 4.87119 4.18205 4.27375 4.19314 3.60345 4.23432 4.12719 3.57649 3.66499 3.47057 3.00967 3.50933 3.41001 2.99365 3.08058 2.77392 2.43348 2.81924 2.72495 2.40276 2.48628 2.09303 1.84141 2.14616 2.05753 1.80113 1.88144 1.44748 1.26614 1.50353 1.42116 1.2255 1.29776 0.8609 0.749515 0.909371 0.842142 0.726995 0.78636 33.0457 26.2518 32.8154 32.8154 25.3216 25.8336 40.9223 31.0175 40.8256 39.9251 30.4853 31.4631 45.5954 33.0772 45.4828 44.0796 32.752 33.8737 46.6399 32.7876 46.4925 44.9628 32.5079 33.4814 44.3148 28.5408 44.7315 43.3738 27.6097 28.918 38.0712 25.3924 38.3754 36.5409 24.5499 25.6232 34.6382 22.9896 34.8993 33.389 22.2981 23.3064 31.776 21.0125 31.9679 30.6058 20.4808 21.4367 29.222 19.3154 29.3532 28.1099 18.9166 19.8132 26.8925 17.8129 26.9698 25.8373 17.5184 18.3528 24.7306 16.4644 24.773 23.742 16.2457 17.0066 22.7293 15.2407 22.7416 21.8154 15.0823 15.7751 20.8637 14.1117 20.8594 20.0261 14.0026 14.6325 19.1284 13.0778 19.1151 18.3659 13.0006 13.5709 17.5207 12.1269 17.4985 16.8267 12.0794 12.5889 16.0074 11.2344 15.9927 15.3966 11.2006 11.6539 14.5981 10.3974 14.584 14.0568 10.3796 10.7775 13.2752 9.61553 13.2668 12.8064 9.60256 9.95192 12.0343 8.86269 12.0382 11.6359 8.85743 9.16204 10.8679 8.14881 10.8735 10.5247 8.14462 8.40946 9.76594 7.45923 9.78639 9.48484 7.44845 7.68057 8.71952 6.78373 8.75158 8.48899 6.77719 6.98155 7.73113 6.13233 7.77231 7.54335 6.11442 6.28795 6.79051 5.4771 6.83287 6.63914 5.46509 5.62057 5.89713 4.84397 5.94381 5.77211 4.82502 4.96361 5.04088 4.21243 5.09344 4.94167 4.19252 4.3138 4.2157 3.58417 4.27832 4.14662 3.54926 3.65882 3.42866 2.95505 3.49254 3.37463 2.92012 3.01493 2.68623 2.3443 2.74649 2.64567 2.30258 2.39011 1.98153 1.74333 2.04509 1.95335 1.69504 1.77542 1.34006 1.1649 1.40831 1.32705 1.11975 1.18901 0.803623 0.68179 0.841222 0.784237 0.679542 0.721613 42.1218 32.7892 40.3905 40.3905 32.8146 33.6641 50.243 38.3742 49.0882 47.9149 38.6758 40.3896 55.9503 41.0329 55.0108 53.0072 41.4757 43.5654 57.3418 40.6585 56.5148 54.1928 41.195 43.3248 54.9206 38.112 54.7541 52.4573 37.9022 39.548 50.1042 32.0802 49.8634 48.0968 32.4136 34.3273 43.9556 28.9717 43.8152 41.7934 29.2808 31.1122 39.8664 26.3878 39.7353 37.8454 26.7107 28.4152 36.2877 24.1134 36.149 34.4147 24.4434 26.0144 33.0684 22.0676 32.9178 31.3344 22.3986 23.8239 30.1109 20.1967 29.9577 28.53 20.5174 21.8053 27.3929 18.4867 27.245 25.9604 18.789 19.9458 24.8887 16.9177 24.7405 23.5896 17.1942 18.2231 22.568 15.4702 22.4384 21.4169 15.7185 16.632 20.4273 14.1394 20.3123 19.4063 14.3615 15.1654 18.4364 12.9088 18.3495 17.5521 13.092 13.7958 16.6025 11.7687 16.5292 15.8303 11.9241 12.5361 14.8998 10.7056 14.8535 14.2447 10.8304 11.3586 13.3082 9.72322 13.2891 12.7624 9.81206 10.2639 11.8435 8.79214 11.8381 11.386 8.86127 9.24371 10.4781 7.92592 10.5024 10.1184 7.9639 8.28777 9.20502 7.09767 9.24956 8.92243 7.10907 7.37974 8.02128 6.30529 8.07988 7.80489 6.29848 6.52822 6.92247 5.55049 6.9885 6.75358 5.5308 5.71845 5.89797 4.82466 5.97206 5.77878 4.79246 4.9463 4.93243 4.12262 5.01647 4.85683 4.07931 4.20322 4.02886 3.44134 4.12085 3.99137 3.38261 3.48077 3.1883 2.76309 3.28072 3.17719 2.70021 2.79221 2.41383 2.10701 2.50191 2.40521 2.04557 2.13011 1.6938 1.48942 1.77811 1.69032 1.426 1.50468 1.08196 0.95589 1.16731 1.09037 0.903268 0.969159 0.684559 0.640267 0.718444 0.682016 0.668892 0.684703 53.6505 41.9573 50.41 50.41 43.2522 44.1958 61.6169 48.5648 59.4851 58.2491 49.8323 51.8413 68.9484 52.4859 67.2488 64.9795 53.7337 56.2074 71.005 52.6414 69.4994 66.8117 53.8668 56.3729 68.5785 50.1003 67.5397 64.8893 50.5978 52.7382 62.511 45.0184 62.222 60.0417 45.7576 47.8183 56.1903 39.3507 56.0849 54.0167 40.0413 42.118 49.6491 35.5822 49.4647 47.3718 36.2085 38.1281 44.7529 32.2865 44.5491 42.6219 32.863 34.6098 40.4345 29.3078 40.2205 38.4726 29.8473 31.4298 36.5377 26.5842 36.3229 34.7436 27.0814 28.5068 32.9812 24.0849 32.7795 31.3605 24.5319 25.8086 29.7197 21.7794 29.5244 28.2569 22.1898 23.3262 26.7192 19.6646 26.5455 25.4199 20.0213 21.0295 23.9525 17.71 23.8088 22.8127 18.0215 18.9114 21.4031 15.9113 21.2861 20.408 16.1674 16.9495 19.0551 14.2491 18.9603 18.1898 14.4662 15.1506 16.8848 12.7296 16.8251 16.1517 12.8963 13.4853 14.8728 11.3162 14.8507 14.2715 11.4351 11.9412 13.0255 10.0129 13.0302 12.5323 10.0996 10.5288 11.3343 8.82457 11.3627 10.9394 8.8634 9.22383 9.76492 7.71232 9.82028 9.46399 7.71629 8.01458 8.33212 6.68548 8.41278 8.11728 6.6632 6.9073 7.02364 5.73202 7.11432 6.87102 5.68941 5.88623 5.82809 4.85424 5.93057 5.73308 4.79338 4.94991 4.73738 4.0259 4.85573 4.6972 3.94832 4.07485 3.74953 3.25473 3.87108 3.74145 3.16311 3.26262 2.85909 2.53771 2.97905 2.87608 2.43613 2.51053 2.06165 1.86101 2.17855 2.10109 1.76147 1.82095 1.36912 1.24203 1.4845 1.4235 1.15012 1.19802 0.835844 0.800478 0.929535 0.888768 0.735111 0.757306 0.657364 0.763617 0.682305 0.687244 0.785942 0.757773 67.4156 53.7504 62.5069 62.5069 56.4428 57.5623 74.5618 61.4936 71.7892 70.3732 63.6468 65.9805 84.6415 67.1525 82.6636 80.0722 69.1155 71.8697 88.3355 67.9504 86.2536 83.2491 69.8501 72.4327 86.2315 65.2036 83.8387 81.0469 66.6752 68.7529 77.418 59.6937 77.4241 75.2711 60.3702 62.3257 69.0995 53.5211 69.2383 67.2201 54.0151 55.8501 61.4232 47.0943 61.4528 59.553 47.6891 49.448 54.2392 42.3666 54.0723 52.2344 42.9364 44.538 48.5976 38.2045 48.3789 46.7047 38.7417 40.1841 43.635 34.4409 43.3985 41.8938 34.9403 36.2368 39.1558 31.0098 38.9374 37.5889 31.4588 32.6178 35.0976 27.8483 34.8792 33.6776 28.2607 29.2939 31.3748 24.9489 31.1824 30.115 25.3115 26.2264 27.9552 22.2832 27.7863 26.8443 22.5906 23.3988 24.8129 19.8216 24.6742 23.8454 20.0811 20.7943 21.907 17.5543 21.8045 21.0762 17.7701 18.393 19.2406 15.4768 19.1666 18.532 15.6434 16.1825 16.7732 13.5627 16.7499 16.2023 13.6721 14.138 14.5137 11.8033 14.5132 14.0406 11.8713 12.269 12.446 10.1947 12.4788 12.0763 10.2264 10.5596 10.5484 8.72577 10.6081 10.2709 8.71639 8.9942 8.8326 7.39607 8.91377 8.63247 7.35061 7.57608 7.28214 6.17691 7.38412 7.15604 6.10857 6.28937 5.8853 5.08091 5.99692 5.81366 4.98999 5.13027 4.63412 4.10339 4.76861 4.62637 3.98748 4.09516 3.56147 3.22523 3.69994 3.59039 3.10275 3.17908 2.62817 2.45226 2.77015 2.69229 2.32237 2.37739 1.86258 1.79186 1.99888 1.94339 1.66435 1.70314 1.30017 1.28886 1.42304 1.38713 1.17704 1.19901 1.02522 1.00918 1.08453 1.07128 0.958371 0.962498 1.01114 1.07737 1.01764 1.02211 1.08806 1.07186 26.9465 73.3222 26.6771 26.6771 68.2396 68.5171 59.1081 63.6663 61.8181 61.4773 62.4584 61.9174 52.8698 61.3295 54.801 55.0661 59.879 58.9627 49.3993 59.1284 51.3815 51.9881 57.2594 56.2211 46.5069 56.421 48.6491 49.3701 54.2904 53.2328 43.6892 53.268 45.9248 46.6661 51.021 49.9847 40.7599 49.8196 43.0792 43.8052 47.4911 46.5127 37.8323 46.1742 40.0964 40.7847 43.8941 42.9739 34.9272 42.5 37.0659 37.7198 40.3273 39.4656 32.0913 38.8804 34.075 34.6944 36.8472 36.0397 29.3375 35.3745 31.1433 31.7311 33.4995 32.7491 26.6918 32.0061 28.3333 28.8846 30.2924 29.5961 24.1657 28.8054 25.6272 26.1457 27.2459 26.6042 21.7708 25.7746 23.0635 23.5459 24.3665 23.7801 19.5059 22.9276 20.6536 21.0962 21.662 21.1305 17.3683 20.2541 18.3765 18.7796 19.1252 18.6487 15.3719 17.7708 16.2573 16.6188 16.7602 16.3379 13.5297 15.4604 14.2861 14.605 14.5832 14.2169 11.8237 13.3534 12.4724 12.7473 12.5814 12.2665 10.2606 11.4047 10.8067 11.0398 10.7404 10.475 8.82625 9.64151 9.27951 9.47212 9.0822 8.86216 7.52911 8.06574 7.90334 8.0606 7.59687 7.41749 6.36623 6.66769 6.67013 6.79549 6.27309 6.13391 5.32177 5.42338 5.56031 5.65307 5.10341 5.00148 4.4136 4.35593 4.5847 4.64793 4.11987 4.04803 3.59942 3.45586 3.74466 3.78548 3.27142 3.22514 2.90551 2.69381 2.99298 3.01659 2.56822 2.54662 2.26502 2.06344 2.34154 2.34721 1.97153 1.96559 1.72314 1.54762 1.76885 1.76464 1.48838 1.49272 1.20253 1.10104 1.2522 1.2427 1.06179 1.06396 0.736573 0.694161 0.771366 0.767494 0.684648 0.672266 0.313263 0.306326 0.314451 0.333923 0.351206 0.294404 23.2459 24.0699 23.9138 23.9138 24.2667 22.4809 34.4369 56.8036 34.1782 35.1799 54.6287 54.5242 45.8523 51.1582 48.4131 48.1385 49.4701 48.7343 41.4093 48.2901 43.6864 43.935 46.397 45.3724 38.3751 45.7554 40.6244 41.156 43.626 42.4924 35.7951 43.1014 38.0453 38.704 40.8433 39.688 33.2966 40.3043 35.5969 36.2984 37.9056 36.7882 30.9072 37.3501 33.1125 33.813 34.9901 33.9325 28.6013 34.3825 30.6468 31.3254 32.1405 31.1508 26.3758 31.4896 28.2437 28.8893 29.4023 28.482 24.2372 28.6888 25.923 26.5311 26.7809 25.9319 22.2062 26.0353 23.6971 24.2654 24.2956 23.5202 20.2721 23.5066 21.5844 22.1061 21.9536 21.2496 18.4382 21.1334 19.5909 20.0663 19.7559 19.1211 16.7233 18.9199 17.715 18.1451 17.6944 17.1341 15.0944 16.8447 15.954 16.3308 15.7677 15.2751 13.5824 14.9276 14.3146 14.6434 13.9821 13.5536 12.1775 13.1503 12.7895 13.0716 12.3428 11.9792 10.8652 11.5275 11.3821 11.6154 10.8366 10.5349 9.65507 10.0472 10.0868 10.2746 9.46705 9.21997 8.53994 8.69398 8.88137 9.03109 8.21554 8.02211 7.5099 7.48333 7.79118 7.90047 7.09038 6.94584 6.56936 6.40442 6.78519 6.86067 6.08867 5.98384 5.69381 5.43207 5.86686 5.91483 5.18705 5.12008 4.90486 4.57923 5.03456 5.05713 4.4061 4.36741 4.16782 3.83935 4.26867 4.27398 3.69466 3.68251 3.49192 3.16702 3.56518 3.55252 3.08139 3.08913 2.85839 2.56889 2.91015 2.88584 2.49443 2.51766 2.2583 2.03208 2.311 2.27677 1.98862 2.00852 1.67012 1.52716 1.72871 1.70215 1.48045 1.50378 1.13201 1.04225 1.17644 1.14999 1.01046 1.02314 0.61684 0.577893 0.645579 0.633412 0.574311 0.570993 23.7792 21.6659 24.618 24.618 21.3024 20.2365 32.1 29.0615 32.4121 32.7896 29.6965 27.9855 37.2538 43.6763 37.7515 38.5196 41.3195 40.8774 37.2158 39.367 39.4419 39.2159 37.2009 36.3253 33.7729 36.5192 35.8437 35.979 34.3259 33.2455 31.1356 34.0762 33.1522 33.4965 31.857 30.7087 28.8728 31.7604 30.8356 31.2792 29.4197 28.2861 26.7999 29.3862 28.6353 29.1199 27.1218 26.0445 24.8691 27.0644 26.5242 27.0152 24.9496 23.9473 23.04 24.8369 24.5204 24.9955 22.8968 21.9793 21.3102 22.7224 22.6157 23.0628 20.9648 20.1347 19.6862 20.7243 20.8131 21.223 19.1642 18.4252 18.1474 18.8535 19.1238 19.4893 17.4771 16.8232 16.6896 17.1077 17.5294 17.8528 15.8964 15.3282 15.3322 15.4823 16.0424 16.3198 14.4397 13.9549 14.0402 13.9696 14.6485 14.8795 13.0662 12.6559 12.8336 12.5721 13.3369 13.5274 11.8038 11.467 11.6982 11.2809 12.1215 12.2688 10.6408 10.369 10.6269 10.0993 10.9799 11.0917 9.56208 9.34661 9.62209 9.01631 9.91003 9.99173 8.5698 8.41122 8.67849 8.00846 8.90795 8.9558 7.65781 7.54524 7.77878 7.09833 7.97015 7.9938 6.81257 6.74138 6.93212 6.25508 7.08366 7.08404 6.03757 5.99733 6.11778 5.48416 6.2465 6.23237 5.31199 5.29448 5.35143 4.77211 5.44752 5.424 4.64412 4.64893 4.62327 4.10718 4.70591 4.67093 4.00892 4.03004 3.92062 3.48472 3.98613 3.94329 3.41389 3.44549 3.24345 2.89152 3.3022 3.25576 2.84215 2.87768 2.59864 2.33076 2.65028 2.60502 2.28125 2.32826 1.96994 1.77696 2.03008 1.97702 1.72271 1.76752 1.36011 1.22904 1.41706 1.369 1.19042 1.2246 0.791639 0.710216 0.82817 0.793944 0.691532 0.717902 27.4637 22.9068 27.8268 27.8268 22.3555 21.9863 34.6799 27.979 34.8898 34.7113 27.916 27.0413 38.822 31.4227 39.092 39.1239 31.1449 30.1238 40.0056 33.9172 40.4646 40.6115 31.8266 31.4298 34.8318 30.3241 36.1363 35.6637 28.3516 27.7531 31.5943 27.7179 32.9477 32.645 25.791 25.1089 29.1142 25.5619 30.3402 30.1429 23.6247 22.9323 26.9261 23.5412 28.0526 27.9403 21.7223 21.0632 24.931 21.665 25.9121 25.8536 20.0186 19.4195 23.0817 19.9363 23.9421 23.9098 18.4638 17.9352 21.3597 18.3349 22.0983 22.0749 17.0353 16.5814 19.7572 16.8546 20.3828 20.3581 15.7336 15.3475 18.2499 15.4935 18.7877 18.7612 14.5239 14.2037 16.8444 14.232 17.2979 17.2655 13.4007 13.1401 15.5312 13.0695 15.9147 15.8745 12.3693 12.1602 14.2885 11.9887 14.6119 14.568 11.392 11.2362 13.1249 10.9844 13.3987 13.3434 10.494 10.3789 12.0275 10.0578 12.2648 12.2055 9.64906 9.56953 10.9822 9.18405 11.1872 11.1244 8.84607 8.80355 9.99629 8.36874 10.168 10.0966 8.09538 8.07617 9.05822 7.59562 9.2036 9.13205 7.38052 7.38366 8.15433 6.87076 8.28238 8.20822 6.69261 6.71062 7.29141 6.17061 7.40331 7.3303 6.03116 6.06663 6.45813 5.50099 6.56239 6.48508 5.38292 5.43459 5.66605 4.84635 5.74834 5.66521 4.75891 4.81999 4.89013 4.22546 4.97569 4.89111 4.14992 4.21293 4.13978 3.60708 4.213 4.13309 3.54747 3.61106 3.41409 3.00312 3.48142 3.40559 2.94905 3.01149 2.72201 2.41097 2.78398 2.71276 2.36346 2.42925 2.05088 1.82928 2.11843 2.04713 1.77445 1.83344 1.41238 1.25444 1.4769 1.41515 1.20645 1.25415 0.832102 0.704664 0.866558 0.822231 0.689153 0.730426 33.6729 26.7706 33.0761 33.0761 26.4971 26.7036 40.8552 31.3327 40.3435 39.6886 31.2892 31.5806 45.0819 33.5212 44.83 43.97 33.4595 33.6952 45.99 33.4679 45.9224 45.0968 33.2569 33.4149 44.3694 29.6488 44.4695 43.7394 28.6368 29.0566 37.4949 26.4472 38.0819 37.013 25.3813 25.8294 34.2487 23.9787 34.6587 33.6036 23.0264 23.4364 31.3826 21.9338 31.7872 30.854 21.0775 21.4551 28.8049 20.108 29.1502 28.3291 19.3815 19.7383 26.4536 18.4935 26.7499 26.0201 17.8688 18.2057 24.2855 17.0237 24.5327 23.8815 16.4998 16.8238 22.2918 15.6932 22.4916 21.903 15.2586 15.5644 20.4415 14.4816 20.6127 20.0845 14.1136 14.4007 18.7264 13.3678 18.867 18.3934 13.063 13.3336 17.1352 12.352 17.265 16.8383 12.0973 12.3497 15.659 11.4017 15.7706 15.3886 11.1889 11.4282 14.2796 10.5238 14.384 14.0374 10.3443 10.5645 12.9906 9.71294 13.0991 12.7908 9.55555 9.75496 11.7871 8.93905 11.8889 11.6173 8.80077 8.97961 10.6465 8.19359 10.7481 10.5105 8.07713 8.24374 9.58087 7.49349 9.67953 9.46604 7.39228 7.53687 8.56337 6.80348 8.65979 8.47747 6.71156 6.8446 7.59609 6.13554 7.70114 7.53823 6.05167 6.17591 6.67645 5.48184 6.77719 6.62942 5.39936 5.50878 5.79491 4.83405 5.89026 5.76224 4.76772 4.86392 4.95368 4.20656 5.04898 4.93852 4.13332 4.22257 4.14783 3.55856 4.23835 4.13747 3.49427 3.58481 3.36722 2.9241 3.45647 3.35686 2.86224 2.94758 2.63119 2.31088 2.71498 2.62273 2.2526 2.32939 1.93494 1.712 2.01194 1.93047 1.6504 1.72377 1.30998 1.12604 1.37296 1.29878 1.07595 1.14364 0.769271 0.621567 0.80376 0.747879 0.622793 0.657794 42.2337 32.7481 40.1977 40.1977 33.1729 33.9217 49.6924 37.7066 48.1764 47.0565 38.342 39.7391 54.7131 40.3072 53.764 52.0139 40.7827 42.4164 55.8049 40.0261 55.2186 53.2854 40.3917 42.0012 53.9396 37.6871 53.5725 51.7206 37.9397 39.3749 49.5056 31.7158 49.7892 48.1594 31.571 33.2172 42.9737 28.4118 42.8258 40.9644 28.5194 29.9984 38.8666 25.8503 38.8356 37.208 25.9489 27.309 35.299 23.5699 35.2831 33.8215 23.6891 24.9329 32.0977 21.5278 32.0849 30.7717 21.6534 22.789 29.1861 19.671 29.1715 27.9883 19.8011 20.8267 26.5227 17.9797 26.4937 25.4351 18.1147 19.0339 24.0704 16.4396 24.0468 23.1051 16.5633 17.3898 21.8245 15.0245 21.8041 20.9618 15.1395 15.874 19.7478 13.7374 19.7417 18.9957 13.8274 14.4803 17.8352 12.5537 17.8377 17.1763 12.6274 13.1931 16.0622 11.4513 16.084 15.5115 11.5055 12.002 14.4311 10.4417 14.4685 13.9662 10.4654 10.8958 12.9084 9.49775 12.9673 12.5314 9.5047 9.87153 11.4969 8.60714 11.5728 11.2003 8.59254 8.90546 10.1961 7.76352 10.2778 9.95895 7.7351 8.00687 8.97574 6.97018 9.07288 8.79503 6.92824 7.1533 7.83513 6.21773 7.94814 7.71688 6.15249 6.33777 6.76637 5.48158 6.88714 6.69547 5.41195 5.56543 5.77588 4.76654 5.89168 5.73189 4.6924 4.82362 4.84228 4.08062 4.96455 4.82712 3.9995 4.1093 3.9667 3.4072 4.08554 3.96963 3.32408 3.41687 3.14594 2.7379 3.26189 3.16346 2.652 2.73198 2.37026 2.08441 2.48183 2.397 2.00081 2.07047 1.65368 1.4591 1.74935 1.67638 1.38494 1.44932 1.05649 0.908497 1.12277 1.06021 0.862069 0.916081 0.658703 0.589189 0.678897 0.65089 0.616327 0.608064 53.2492 41.1687 49.5967 49.5967 42.7726 43.8613 60.7985 46.9965 58.3324 56.9369 48.5765 50.6655 67.1853 50.7388 65.6006 63.245 51.9123 54.392 68.6819 50.9171 67.613 64.9222 51.8178 54.3008 66.4523 48.4797 65.7055 63.0769 49.2248 51.5235 61.3937 44.3125 61.3154 58.9345 44.3353 46.2817 55.108 37.6858 54.9053 52.9364 38.4263 40.3774 48.262 34.0866 48.0863 46.1162 34.6577 36.4498 43.3594 30.8845 43.21 41.4174 31.3878 33.0216 39.0835 28.011 38.9514 37.3275 28.459 29.9284 35.2494 25.3851 35.124 33.6707 25.7889 27.1066 31.7818 22.9713 31.6504 30.3524 23.3465 24.5267 28.6006 20.7666 28.495 27.3363 21.0943 22.1443 25.6998 18.7465 25.6035 24.5753 19.0347 19.9658 23.0365 16.895 22.9645 22.0546 17.1335 17.9538 20.5822 15.1833 20.5336 19.7336 15.3843 16.1037 18.3205 13.6224 18.299 17.598 13.7732 14.397 16.2443 12.184 16.2468 15.6396 12.2965 12.8362 14.3322 10.8594 14.365 13.8395 10.9264 11.3892 12.5623 9.63539 12.6258 12.1746 9.66046 10.0532 10.9438 8.51048 11.0209 10.6375 8.50883 8.83583 9.44933 7.46228 9.55439 9.23433 7.43155 7.70346 8.08599 6.50034 8.20439 7.93667 6.43583 6.65745 6.824 5.59429 6.96342 6.74409 5.50993 5.68673 5.67788 4.75153 5.81712 5.64062 4.65816 4.79959 4.63367 3.9592 4.78495 4.64217 3.85033 3.96108 3.67559 3.21606 3.81948 3.7062 3.10152 3.18658 2.807 2.51704 2.95048 2.86239 2.40069 2.46396 2.03162 1.85119 2.16749 2.10154 1.73415 1.78633 1.35716 1.22616 1.47078 1.41733 1.12764 1.16698 0.831507 0.763835 0.911987 0.878275 0.714491 0.731929 0.662937 0.730203 0.669598 0.67846 0.769663 0.735779 66.7018 52.5452 61.4295 61.4295 55.5978 56.826 73.8724 59.6604 70.7727 69.2448 62.1053 64.495 82.7217 64.9391 80.9129 78.2549 66.7204 69.4876 85.1382 65.6136 83.8091 80.7926 66.9997 69.641 82.3505 62.9495 81.2321 78.3816 64.083 66.3994 76.1556 58.1937 75.5248 73.0616 58.6345 60.5383 67.8638 51.7647 67.7408 65.7721 52.4131 54.1483 60.0161 45.2359 59.9906 58.2011 45.891 47.5552 52.5696 40.6287 52.3923 50.6594 41.2089 42.7146 46.9448 36.5897 46.7622 45.1933 37.1077 38.463 42.063 32.9446 41.8679 40.4563 33.4134 34.6305 37.7022 29.6221 37.5042 36.2391 30.0579 31.1435 33.7444 26.5905 33.5783 32.4528 26.9628 27.9348 30.1465 23.8005 29.9866 28.9812 24.1348 24.9983 26.8426 21.2547 26.7184 25.8282 21.5354 22.297 23.8193 18.9057 23.7196 22.9366 19.1388 19.8095 21.0295 16.7464 20.9632 20.2755 16.9293 17.5184 18.4636 14.7669 18.434 17.8313 14.9058 15.4168 16.12 12.9565 16.1095 15.5872 13.0469 13.4864 13.9447 11.2982 13.9803 13.5324 11.3368 11.7107 11.9699 9.76653 12.0299 11.6495 9.77411 10.0895 10.1559 8.38273 10.2388 9.91776 8.3497 8.60887 8.51023 7.11866 8.62279 8.35908 7.05607 7.27054 7.02926 5.97088 7.15784 6.93883 5.87367 6.04428 5.68419 4.92765 5.82679 5.65241 4.8159 4.94411 4.49822 4.00299 4.65019 4.51872 3.8689 3.96675 3.46497 3.15199 3.61225 3.5117 3.01683 3.09061 2.57154 2.40998 2.71467 2.63916 2.26979 2.32154 1.82777 1.77168 1.96616 1.91401 1.63443 1.66431 1.28774 1.25961 1.39697 1.36878 1.15855 1.17839 1.01018 0.985016 1.06927 1.05699 0.938437 0.940357 1.00559 1.05391 1.00753 1.01505 1.07701 1.05899 29.2026 75.9739 29.1451 29.1451 70.7751 71.0987 61.3212 64.8669 63.6277 63.3492 64.395 63.7267 54.8008 63.1927 56.352 56.8533 62.0027 61.0222 51.4259 61.4803 53.2906 54.0725 59.5519 58.4945 48.6509 59.0015 50.8526 51.6812 56.6645 55.6204 45.8937 55.916 48.2942 49.0879 53.4076 52.4022 43.0368 52.4364 45.4999 46.2446 49.9034 48.9478 40.0616 48.7508 42.5217 43.2164 46.2337 45.3369 37.0503 44.9295 39.4019 40.0481 42.5475 41.7096 34.0799 41.154 36.2722 36.8746 38.9216 38.1406 31.1655 37.4539 33.1849 33.7467 35.4092 34.6828 28.3664 33.9113 30.1964 30.7221 32.0319 31.3609 25.6702 30.529 27.3196 27.8072 28.8218 28.2056 23.1123 27.3139 24.5902 25.0398 25.7828 25.2203 20.7042 24.31 22.0053 22.4176 22.9238 22.4191 18.4269 21.4821 19.5857 19.9533 20.2401 19.7896 16.3065 18.8409 17.3183 17.6438 17.7475 17.3526 14.3317 16.4015 15.2164 15.499 15.431 15.0886 12.5141 14.1615 13.2721 13.5124 13.3196 13.0298 10.8441 12.1176 11.5037 11.7024 11.3645 11.1228 9.31205 10.2422 9.86666 10.0259 9.59742 9.40506 7.93447 8.5583 8.4011 8.51935 8.01956 7.8717 6.70234 7.07529 7.08005 7.16289 6.62795 6.51463 5.58877 5.77148 5.91055 5.96795 5.38503 5.30912 4.6111 4.62621 4.8592 4.88838 4.32361 4.28056 3.77081 3.66651 3.95906 3.96447 3.4312 3.41385 3.02027 2.85722 3.16868 3.15773 2.68048 2.67939 2.36393 2.19055 2.47809 2.45946 2.06251 2.0733 1.79042 1.65725 1.87544 1.85268 1.55886 1.57374 1.2732 1.17909 1.33585 1.31485 1.11877 1.13444 0.796881 0.750487 0.837905 0.818941 0.72186 0.727605 0.360062 0.331395 0.361435 0.356469 0.359534 0.334229 24.3576 28.8984 24.4976 24.4976 28.0008 24.898 35.4202 58.6972 33.6468 35.8895 56.9335 56.9205 48.0179 53.1129 50.738 50.4371 51.79 50.9422 43.5194 50.6308 45.871 46.3229 48.8432 47.6838 40.5423 48.3725 42.8948 43.6761 46.1783 44.9273 38.0022 45.8569 40.4168 41.3134 43.4251 42.1775 35.572 43.0735 37.9844 38.9014 40.5588 39.3553 33.1235 40.1192 35.5108 36.4038 37.5792 36.4411 30.6902 37.037 32.9513 33.8036 34.5955 33.5325 28.3127 33.9745 30.4056 31.2058 31.6893 30.7043 26.0115 30.9854 27.918 28.6631 28.8753 27.9676 23.8003 28.1231 25.5058 26.1937 26.2048 25.3798 21.6934 25.3949 23.2234 23.8473 23.6621 22.9129 19.7037 22.8253 21.0402 21.6063 21.2694 20.5998 17.8279 20.4118 18.9993 19.5005 19.0396 18.4431 16.0565 18.1675 17.0902 17.5338 16.9443 16.4225 14.4107 16.0772 15.2946 15.678 15.0088 14.5604 12.8785 14.1544 13.6463 13.9686 13.2202 12.835 11.4591 12.3836 12.1096 12.3815 11.5835 11.2622 10.1516 10.7818 10.6973 10.919 10.0866 9.82846 8.9396 9.31004 9.40212 9.57114 8.72767 8.52004 7.83481 7.99585 8.21936 8.34991 7.50725 7.34795 6.81942 6.81524 7.13292 7.227 6.4215 6.30801 5.89399 5.77897 6.15067 6.21129 5.44602 5.36827 5.05245 4.84361 5.25101 5.28603 4.58897 4.54307 4.28002 4.03818 4.43737 4.45004 3.84669 3.82474 3.56713 3.32379 3.69507 3.69246 3.17446 3.16992 2.90516 2.6893 3.00217 2.99001 2.57568 2.58294 2.29714 2.1189 2.37541 2.35679 2.03539 2.05173 1.72194 1.58861 1.77984 1.7563 1.52773 1.54746 1.16809 1.08392 1.21867 1.1951 1.04516 1.0588 0.649667 0.597818 0.678744 0.664608 0.59135 0.588022 24.3726 23.8617 24.2681 24.2681 23.4996 21.6971 32.6174 30.3394 32.0459 33.1284 32.1542 28.8698 38.1755 46.5344 37.8493 40.0585 43.9596 43.4524 38.9984 42.1808 41.6332 41.575 39.9322 38.8268 35.6351 39.4265 38.0264 38.5292 37.1385 35.7803 33.0827 37.0523 35.3198 36.1058 34.67 33.245 30.8275 34.6968 32.9689 33.8637 32.2958 30.8953 28.6911 32.3131 30.7401 31.6523 29.8969 28.566 26.6246 29.8492 28.5192 29.4081 27.5441 26.3096 24.6483 27.4288 26.3737 27.2078 25.2843 24.1529 22.7594 25.0949 24.3026 25.0728 23.1351 22.1114 20.9608 22.8628 22.3361 23.0334 21.1035 20.183 19.2663 20.772 20.4691 21.0977 19.1893 18.3773 17.6651 18.7898 18.7096 19.2596 17.4053 16.6952 16.1673 16.9587 17.0736 17.5494 15.7433 15.1305 14.7574 15.2671 15.5446 15.95 14.1958 13.6723 13.4328 13.6875 14.1121 14.4523 12.7721 12.3265 12.1999 12.2468 12.7764 13.0634 11.4524 11.0817 11.0443 10.9125 11.5293 11.7633 10.2423 9.94284 9.96255 9.69358 10.372 10.5544 9.13252 8.89768 8.94221 8.57961 9.29508 9.43256 8.10707 7.92472 7.9931 7.56715 8.27868 8.38141 7.1761 7.0429 7.09251 6.63446 7.34019 7.40859 6.31739 6.22354 6.24883 5.78764 6.44885 6.49211 5.52955 5.47074 5.44411 5.00419 5.61304 5.6326 4.80584 4.77321 4.69347 4.28869 4.82685 4.83051 4.13191 4.11768 3.96509 3.62231 4.07586 4.06914 3.49593 3.501 3.27548 2.98613 3.36556 3.34497 2.8906 2.90916 2.62062 2.39411 2.69562 2.66634 2.31775 2.34666 1.9894 1.81368 2.05474 2.0186 1.75849 1.79001 1.37984 1.25884 1.43771 1.40233 1.21311 1.23916 0.806749 0.722133 0.844729 0.818177 0.702355 0.716413 27.8231 23.4852 27.1526 27.1526 23.566 22.7907 34.7111 29.1228 34.2783 34.5136 29.6698 27.6466 39.1194 33.0689 39.0557 40.1233 33.5019 31.0039 40.6176 36.8853 40.9242 42.4146 34.3559 33.5688 35.7629 33.2853 37.5039 37.5174 30.9924 29.88 32.7265 30.629 34.3564 34.6709 28.4778 27.2278 30.1865 28.3704 31.7261 32.2131 26.3042 25.0425 27.9791 26.2858 29.3634 29.9177 24.2727 23.0649 25.8915 24.2311 27.1417 27.7109 22.359 21.2438 23.9508 22.2855 25.0569 25.6035 20.5726 19.5744 22.118 20.444 23.1037 23.6007 18.9103 18.0276 20.4043 18.7345 21.2693 21.7129 17.3652 16.5986 18.8102 17.1386 19.5596 19.944 15.9411 15.2839 17.3168 15.6615 17.9696 18.2964 14.6224 14.0638 15.9284 14.3082 16.4956 16.7708 13.4083 12.9399 14.6227 13.0556 15.1162 15.3447 12.2769 11.892 13.3984 11.8937 13.8299 14.0123 11.2239 10.9164 12.2604 10.8174 12.6286 12.7674 10.2512 10.0148 11.1782 9.82159 11.5 11.5975 9.34811 9.16237 10.1486 8.90152 10.4359 10.5093 8.50373 8.36367 9.18125 8.03976 9.42762 9.47855 7.69879 7.60242 8.25371 7.22311 8.47214 8.49747 6.94876 6.88641 7.37181 6.4612 7.5634 7.57091 6.22389 6.19188 6.52267 5.72704 6.68795 6.67725 5.53582 5.52621 5.69753 5.02772 5.85065 5.82822 4.86632 4.87206 4.91846 4.35799 5.04108 5.01172 4.2305 4.25017 4.15378 3.69795 4.26325 4.22592 3.59211 3.62704 3.41929 3.05899 3.5138 3.46565 2.97295 3.0188 2.72077 2.44179 2.80444 2.74865 2.37028 2.42106 2.05097 1.84454 2.1227 2.06487 1.78314 1.83437 1.41811 1.2594 1.47525 1.42056 1.20846 1.25614 0.831966 0.698016 0.8756 0.830998 0.680927 0.706423 33.8451 26.5688 32.37 32.37 27.1601 27.0844 40.3929 31.6853 39.3304 38.9796 32.0909 31.5644 44.6524 34.6336 44.2764 44.1655 34.7665 33.7459 45.7574 35.0818 45.7959 46.0895 34.948 33.6892 44.3552 31.6834 44.607 45.1315 30.2085 29.8135 37.6512 28.4574 38.3118 37.9916 27.0874 26.6284 34.1951 25.9055 34.9648 34.7454 24.6192 24.1341 31.3882 23.7165 31.9998 31.8618 22.5612 22.0979 28.8049 21.7272 29.3569 29.2736 20.6924 20.2753 26.443 19.9291 26.924 26.8686 19.0218 18.6618 24.2534 18.2913 24.6816 24.6374 17.4879 17.1872 22.2311 16.7887 22.6079 22.5646 16.0885 15.8503 20.373 15.4199 20.7 20.6478 14.8173 14.6322 18.6453 14.1698 18.9404 18.8816 13.6471 13.5098 17.059 13.0328 17.3188 17.2531 12.5798 12.4862 15.5795 11.982 15.8221 15.7483 11.5883 11.5263 14.2023 11.0196 14.4272 14.3522 10.6746 10.6381 12.9321 10.1279 13.1365 13.0617 9.8332 9.81707 11.7366 9.28754 11.9295 11.8564 9.02883 9.0327 10.6096 8.4927 10.7972 10.7225 8.25837 8.27675 9.54705 7.73803 9.72739 9.65271 7.53503 7.56516 8.54269 7.01128 8.71646 8.64257 6.828 6.86465 7.58824 6.30967 7.74891 7.67816 6.14563 6.18549 6.6677 5.62072 6.81988 6.75388 5.47732 5.52206 5.78961 4.95187 5.93684 5.87217 4.81574 4.86524 4.95626 4.27657 5.0886 5.0231 4.16621 4.22802 4.14759 3.61702 4.26831 4.19399 3.51585 3.57389 3.35858 2.95842 3.47372 3.40527 2.8695 2.92963 2.61925 2.32281 2.71669 2.64872 2.24311 2.30989 1.9215 1.69321 2.01145 1.93848 1.62517 1.70487 1.2906 1.09293 1.3569 1.27617 1.04549 1.11585 0.748016 0.587838 0.781325 0.725954 0.592862 0.613971 42.1035 32.2284 39.4535 39.4535 33.4617 33.9166 48.8226 37.2387 46.7738 45.9297 38.3029 38.975 53.599 40.4377 52.5723 51.4785 40.926 41.5033 54.7191 40.6155 54.325 53.351 40.7847 41.1386 52.9899 38.4396 52.922 52.2028 38.4908 38.6893 49.2624 32.1706 49.3382 48.8016 32.0053 32.5988 41.9883 28.8925 42.2184 41.2838 28.6035 29.2321 38.0949 26.132 38.1608 37.2493 25.9961 26.5938 34.5861 23.7785 34.6745 33.8534 23.6748 24.2351 31.4314 21.6641 31.5124 30.7764 21.5962 22.1197 28.5543 19.7582 28.6345 27.9732 19.7053 20.1923 25.9192 18.0224 25.9956 25.3997 17.9826 18.4362 23.5189 16.448 23.5868 23.0471 16.4192 16.8379 21.313 15.0201 21.3812 20.8946 14.9869 15.37 19.2928 13.7194 19.3643 18.9278 13.6872 14.0352 17.4243 12.5359 17.5111 17.1215 12.4891 12.8064 15.7158 11.4372 15.8141 15.4637 11.3785 11.6637 14.1321 10.4294 14.2394 13.9278 10.3644 10.6178 12.6638 9.49305 12.7802 12.5058 9.41572 9.64115 11.3012 8.61872 11.4338 11.1917 8.52573 8.71987 10.0352 7.79291 10.1829 9.97525 7.68786 7.85281 8.84797 7.00519 9.00191 8.82569 6.89069 7.03434 7.74935 6.25053 7.9054 7.7521 6.13588 6.26023 6.71306 5.51122 6.87371 6.74067 5.39334 5.50937 5.7337 4.79861 5.89704 5.77294 4.67619 4.77689 4.8208 4.10894 4.97059 4.86254 3.99158 4.08168 3.95335 3.41913 4.10193 4.00478 3.30894 3.39592 3.14152 2.74747 3.27922 3.18602 2.63694 2.71988 2.37213 2.0848 2.49656 2.4084 1.98633 2.06151 1.64895 1.45735 1.77181 1.6934 1.36218 1.43164 1.0358 0.880593 1.11639 1.05083 0.825455 0.882068 0.643604 0.543036 0.65237 0.631124 0.588642 0.572644 52.6301 39.9163 48.2304 48.2304 42.138 43.2405 59.6775 45.3218 56.5835 55.1339 47.4007 49.2329 65.558 49.5032 63.8245 61.7029 50.7031 52.7114 66.8527 50.0543 66.0124 63.7955 50.7052 52.6027 64.6756 47.8489 64.3182 62.2891 48.2367 49.9047 60.2425 43.7687 60.1294 58.3902 44.0734 45.5075 54.0542 36.9004 54.4096 52.9443 37.1846 38.7186 47.0104 33.0773 46.8151 45.2358 33.5545 34.9431 42.1544 29.9313 42.0509 40.6496 30.3489 31.609 37.9377 27.0996 37.8641 36.6092 27.4794 28.6257 34.1762 24.5377 34.1217 32.9903 24.8727 25.9053 30.77 22.1853 30.7271 29.7141 22.4804 23.4099 27.6821 20.0427 27.6386 26.7308 20.306 21.1375 24.8574 18.0873 24.8329 24.0245 18.3124 19.0547 22.2816 16.3048 22.2714 21.5515 16.4918 17.1483 19.9115 14.6751 19.925 19.29 14.8117 15.3871 17.7342 13.1881 17.7705 17.2155 13.2835 13.7837 15.7386 11.8145 15.805 15.3235 11.8731 12.3057 13.9055 10.5565 13.9878 13.571 10.5783 10.9465 12.2154 9.39499 12.3215 11.9665 9.37935 9.69534 10.6536 8.32719 10.7926 10.4874 8.27542 8.54152 9.22934 7.33063 9.38493 9.12637 7.25048 7.47096 7.91426 6.40587 8.07834 7.86257 6.3072 6.48796 6.71002 5.54599 6.88212 6.70364 5.42491 5.5694 5.59472 4.72549 5.7811 5.63717 4.59212 4.71185 4.5902 3.94847 4.76921 4.64798 3.81522 3.91156 3.64905 3.22317 3.82594 3.72685 3.08211 3.16074 2.80386 2.52554 2.97613 2.89435 2.38804 2.45798 2.04338 1.86258 2.19789 2.12575 1.73145 1.79123 1.36379 1.26245 1.51373 1.4552 1.1275 1.1677 0.832517 0.765353 0.936106 0.908449 0.698209 0.710515 0.669194 0.712522 0.660862 0.687954 0.769002 0.71834 65.6717 50.2539 59.5177 59.5177 54.0058 55.6107 72.7445 56.86 69.0233 67.1128 59.9657 62.6338 80.8643 62.4255 78.7703 75.8321 64.3709 67.2282 82.6475 63.4867 81.5245 78.4319 64.6243 67.2652 79.6648 61.1254 79.033 76.2184 61.8276 64.1139 73.9423 56.5951 73.5635 71.1734 57.0849 59.0157 66.3881 50.7525 66.5744 64.5986 50.74 52.3605 58.625 43.4231 58.5297 56.9035 44.1344 45.6572 50.9584 38.9974 50.7862 49.2445 39.5662 40.9406 45.399 35.0992 45.2436 43.8528 35.5856 36.8154 40.5975 31.5825 40.4629 39.22 32.0083 33.1082 36.3288 28.3825 36.2055 35.0938 28.755 29.7356 32.5028 25.4487 32.3766 31.3862 25.7882 26.6636 29.0009 22.7791 28.9076 28.0247 23.0659 23.8423 25.8187 20.3368 25.7399 24.9573 20.5817 21.2656 22.9011 18.0921 22.8585 22.1699 18.2859 18.8891 20.2227 16.0359 20.198 19.5905 16.1846 16.7094 17.7632 14.1633 17.7736 17.2457 14.2573 14.7131 15.5056 12.4349 15.5469 15.0889 12.4936 12.8863 13.436 10.8634 13.5091 13.1138 10.8794 11.2106 11.543 9.42635 11.6461 11.3121 9.38836 9.66648 9.80206 8.11719 9.92917 9.6486 8.0444 8.26977 8.23859 6.91104 8.3843 8.15678 6.81324 6.99978 6.81499 5.82566 6.97325 6.78392 5.70386 5.84543 5.52701 4.84151 5.71076 5.56664 4.69134 4.79949 4.39533 3.95354 4.57142 4.46045 3.79608 3.87459 3.39294 3.13944 3.57594 3.49521 2.97316 3.02744 2.52698 2.42554 2.69539 2.63972 2.25471 2.29087 1.81087 1.79673 1.96848 1.93234 1.6424 1.66071 1.2849 1.29287 1.41246 1.39641 1.15804 1.16674 1.01054 1.00092 1.08322 1.07847 0.930369 0.932593 1.00523 1.03609 1.02218 1.02456 1.06899 1.04354 33.33 77.5692 32.2731 32.2731 75.1561 74.3105 63.3801 65.2855 64.9228 65.8707 66.3036 64.9376 56.502 64.7252 57.4238 58.7545 64.0678 62.7006 53.3818 63.9592 55.1793 56.5387 61.9386 60.6495 50.8497 61.9808 53.3361 54.5833 59.2471 58.0403 48.235 59.0964 51.0805 52.21 56.073 54.9389 45.4246 55.6721 48.3902 49.4239 52.5645 51.4948 42.4527 51.9022 45.3829 46.3368 48.878 47.8693 39.3498 47.9828 42.193 43.079 45.0625 44.1141 36.2388 44.0021 38.8823 39.7059 41.2857 40.4032 33.1679 40.0717 35.6024 36.361 37.5819 36.7617 30.1944 36.2855 32.3803 33.0801 34.026 33.2732 27.3268 32.6451 29.2903 29.9262 30.6275 29.9418 24.6056 29.2112 26.3533 26.9272 27.3938 26.7758 22.0256 25.9728 23.5662 24.0762 24.3718 23.8185 19.6045 22.9427 20.9648 21.4153 21.5261 21.0376 17.3371 20.1414 18.5292 18.9212 18.8681 18.4435 15.2331 17.5234 16.268 16.5995 16.4187 16.0506 13.2854 15.1133 14.1916 14.4705 14.1626 13.8557 11.5152 12.9512 12.2842 12.5087 12.1119 11.8566 9.87619 10.9518 10.5563 10.7338 10.2286 10.0264 8.40627 9.16413 8.96991 9.10139 8.54125 8.38575 7.083 7.57012 7.55326 7.64215 7.05451 6.94394 5.91929 6.19246 6.31302 6.36354 5.75085 5.68078 4.86959 4.97927 5.19641 5.21455 4.6135 4.57538 3.97009 3.95512 4.22837 4.22227 3.66079 3.6512 3.1851 3.08762 3.39284 3.36756 2.86398 2.87227 2.50316 2.37789 2.64961 2.61756 2.21096 2.23293 1.90761 1.80274 2.02041 1.98228 1.6911 1.71805 1.3797 1.30271 1.45943 1.42535 1.229 1.25136 0.889424 0.855279 0.945468 0.921407 0.813189 0.827555 0.443554 0.457672 0.479399 0.471273 0.428212 0.417981 25.2651 36.1395 23.718 23.718 35.1011 29.2576 36.8256 60.599 32.9802 38.0969 59.522 59.1948 50.354 54.8139 54.3216 54.3661 54.1677 52.8537 45.8418 53.2397 48.4777 49.5314 51.5394 49.9143 42.9893 51.5955 45.6561 47.1078 49.1239 47.4572 40.5567 49.3722 43.3568 44.8948 46.4992 44.8863 38.1472 46.6651 40.9887 42.4948 43.6466 42.1194 35.6832 43.6383 38.4543 39.8863 40.6399 39.2121 33.1391 40.4466 35.8033 37.1413 37.5197 36.1954 30.6045 37.1523 33.0722 34.3093 34.4217 33.205 28.1224 33.9155 30.3675 31.4996 31.3941 30.2841 25.7086 30.7634 27.7365 28.7615 28.4953 27.4866 23.4177 27.7652 25.2061 26.1329 25.7216 24.8205 21.229 24.9355 22.8124 23.6324 23.1144 22.312 19.1735 22.2737 20.5644 21.287 20.6655 19.9567 17.2541 19.8093 18.464 19.0954 18.388 17.7681 15.4442 17.5158 16.5012 17.0461 16.2685 15.7343 13.7762 15.4015 14.6872 15.15 14.3185 13.8618 12.2288 13.4731 13.0159 13.4048 12.5257 12.1414 10.8028 11.7075 11.4726 11.7923 10.9033 10.5872 9.48888 10.1243 10.0727 10.3297 9.41411 9.15886 8.29719 8.67369 8.7778 8.97926 8.08575 7.88653 7.20071 7.38502 7.60703 7.75943 6.89603 6.74358 6.20721 6.26029 6.54158 6.65433 5.85226 5.74161 5.30123 5.24606 5.57742 5.65518 4.90946 4.83508 4.47907 4.36446 4.69902 4.74677 4.0999 4.05332 3.73055 3.58921 3.90998 3.93635 3.37802 3.35625 3.03482 2.88619 3.1715 3.17811 2.73825 2.73417 2.40402 2.2778 2.50686 2.50069 2.16516 2.17013 1.80408 1.71035 1.87521 1.86291 1.63181 1.64269 1.24596 1.18358 1.30611 1.29072 1.12956 1.13741 0.72157 0.691645 0.762511 0.753136 0.655532 0.652514 24.2086 25.2514 21.7954 21.7954 25.5614 23.2734 32.7974 33.6361 31.443 33.1486 36.8505 29.6844 39.6761 51.0451 38.3238 44.117 47.149 46.4666 41.3123 45.7765 45.5303 45.745 43.2862 41.6114 38.1085 43.2058 41.1464 42.417 40.6381 38.6517 35.6105 40.9769 38.2905 39.9477 38.2347 36.2069 33.349 38.6164 35.8626 37.6122 35.8007 33.85 31.1442 36.0836 33.4972 35.205 33.3145 31.4981 28.9383 33.4527 31.1592 32.7559 30.7642 29.0973 26.7868 30.7611 28.8142 30.2791 28.2592 26.7498 24.7024 28.1272 26.5367 27.8574 25.8412 24.4894 22.7133 25.5952 24.3439 25.5201 23.5249 22.3282 20.8253 23.1904 22.2567 23.2879 21.3593 20.3063 19.0338 20.9392 20.3073 21.2063 19.3161 18.3905 17.3661 18.8478 18.4627 19.2467 17.4195 16.6192 15.8052 16.9112 16.7567 17.4263 15.6674 14.9861 14.343 15.1193 15.1731 15.7351 14.033 13.459 12.9854 13.4777 13.6936 14.1586 12.5414 12.0676 11.7136 11.9807 12.339 12.7154 11.1742 10.7781 10.5287 10.612 11.0632 11.3742 9.92687 9.59845 9.42698 9.3701 9.8772 10.1337 8.77339 8.5202 8.39214 8.22434 8.78772 8.97908 7.73541 7.53666 7.43263 7.19003 7.75861 7.90662 6.77679 6.62933 6.52603 6.24563 6.81261 6.91877 5.90757 5.80116 5.67351 5.38391 5.90459 5.97864 5.10469 5.03379 4.87467 4.5899 5.06038 5.10667 4.36822 4.32788 4.11339 3.86683 4.27985 4.30111 3.68615 3.66705 3.38925 3.17425 3.51486 3.51976 3.03703 3.0337 2.70714 2.53548 2.80517 2.79805 2.43252 2.44047 2.05837 1.91908 2.12729 2.11183 1.84901 1.85893 1.44137 1.34151 1.49885 1.48406 1.28467 1.301 0.866115 0.792999 0.918485 0.901393 0.761309 0.767757 27.2959 22.3855 24.0804 24.0804 23.8642 22.8394 34.2422 30.6955 33.1211 33.7309 31.6728 28.1352 39.755 36.6295 39.6399 42.1846 37.9191 32.1767 42.0881 41.8849 42.4165 46.9278 37.7598 36.506 37.4358 37.5633 40.3833 41.0361 34.6685 32.7623 34.5737 34.7223 36.8262 38.1299 32.1632 30.0691 32.1007 32.2978 34.0049 35.5374 29.878 27.8148 29.7909 29.9623 31.481 33.0326 27.6793 25.7507 27.5942 27.6905 29.1171 30.5833 25.5085 23.7507 25.505 25.4438 26.8785 28.2194 23.441 21.8681 23.5252 23.2953 24.7509 25.952 21.4763 20.0903 21.6584 21.2636 22.7422 23.7976 19.6433 18.441 19.9112 19.3634 20.8596 21.7699 17.9376 16.9019 18.2829 17.6178 19.1223 19.9011 16.349 15.4754 16.7747 15.9965 17.5051 18.1531 14.9038 14.1699 15.3632 14.5215 16.0107 16.5506 13.5747 12.9588 14.0438 13.1661 14.6091 15.06 12.3405 11.8327 12.8092 11.9124 13.3078 13.6768 11.2109 10.788 11.6474 10.7766 12.0931 12.4011 10.1579 9.81841 10.5643 9.70772 10.9475 11.1927 9.17946 8.91865 9.53695 8.72113 9.8811 10.0652 8.27778 8.07202 8.55745 7.81357 8.86751 9.01241 7.42472 7.26681 7.63032 6.94263 7.88957 7.99949 6.6226 6.51174 6.73426 6.1398 6.98206 7.05506 5.85832 5.78204 5.88239 5.35577 6.08142 6.12922 5.1285 5.08385 5.06113 4.61654 5.23971 5.26249 4.43352 4.41252 4.27146 3.92068 4.42964 4.43444 3.75666 3.74923 3.50506 3.21429 3.63339 3.62779 3.09058 3.10525 2.78281 2.55222 2.88439 2.8595 2.45613 2.48213 2.0925 1.89702 2.16631 2.13188 1.8309 1.87772 1.44496 1.29425 1.51134 1.45913 1.24076 1.28714 0.867578 0.73647 0.916788 0.875278 0.705931 0.729656 33.233 24.3527 29.265 29.265 26.8078 26.504 39.4292 31.9321 37.6201 37.6244 32.7987 31.3306 44.4349 37.0383 44.133 45.0142 37.1135 34.3091 46.3169 38.9283 46.7291 48.7461 38.7077 34.84 45.3035 35.6297 46.0076 48.9703 32.9389 31.5888 38.3388 31.9954 39.6449 40.332 30.0004 28.4161 35.0892 29.1575 36.159 37.0915 27.4916 25.8893 32.1708 26.6859 33.1007 34.0991 25.2135 23.7038 29.5542 24.4355 30.3101 31.2745 23.1014 21.739 27.125 22.3581 27.8019 28.6817 21.1561 19.9634 24.8721 20.4339 25.4702 26.2426 19.3629 18.3466 22.7797 18.6713 23.3186 23.9734 17.7268 16.861 20.8463 17.055 21.3143 21.8715 16.2285 15.5074 19.0644 15.5984 19.4941 19.9553 14.8679 14.2687 17.4223 14.2666 17.8112 18.1928 13.6317 13.1408 15.9038 13.0597 16.2627 16.5741 12.4958 12.0952 14.4939 11.9416 14.8205 15.0743 11.4484 11.1345 13.19 10.9219 13.4958 13.6913 10.4854 10.2418 11.9712 9.97691 12.2585 12.4083 9.58413 9.39817 10.8262 9.0815 11.0984 11.2101 8.74252 8.5997 9.74611 8.251 10.0008 10.0859 7.94381 7.8391 8.72362 7.45342 8.9683 9.02863 7.17282 7.10361 7.7498 6.67959 7.97371 8.00897 6.44272 6.3949 6.81502 5.94868 7.03381 7.05611 5.71862 5.69506 5.9225 5.19894 6.11598 6.1194 5.01305 5.01536 5.0668 4.48615 5.24265 5.22461 4.3169 4.33252 4.22908 3.77946 4.39398 4.36551 3.62811 3.66264 3.43301 3.07128 3.57211 3.5267 2.94652 2.99479 2.66743 2.38 2.78811 2.73046 2.28059 2.34827 1.95146 1.72108 2.04706 1.97244 1.64626 1.71249 1.28707 1.10129 1.36781 1.30005 1.03807 1.10498 0.743783 0.582816 0.793933 0.745736 0.575449 0.601362 41.3659 29.6266 36.3889 36.3889 32.9179 33.1531 47.499 36.5518 44.6472 44.1539 38.2384 38.0868 52.6774 41.5852 51.63 51.4473 41.9372 41.1529 54.3395 42.9667 54.3144 54.7247 42.6958 41.2607 53.0353 41.4441 53.4362 54.4674 40.9629 39.0152 49.4682 34.191 50.0024 51.506 33.4036 32.7078 41.998 30.7298 42.2553 42.5398 30.1341 29.4643 37.8971 27.7738 38.2235 38.5333 27.2795 26.6695 34.4253 25.1439 34.6132 34.9111 24.7978 24.2785 31.2785 22.848 31.4634 31.7206 22.5515 22.1243 28.4118 20.77 28.5768 28.786 20.518 20.177 25.7836 18.8971 25.946 26.1072 18.6722 18.404 23.3814 17.1845 23.5295 23.6496 16.9945 16.7925 21.1837 15.6617 21.3316 21.4138 15.4777 15.3292 19.1778 14.2738 19.3277 19.3795 14.0991 13.9963 17.3368 13.0233 17.4916 17.5179 12.8503 12.7821 15.6485 11.8729 15.8083 15.8159 11.7023 11.6555 14.0843 10.8213 14.2549 14.2547 10.6475 10.6206 12.6371 9.8462 12.8203 12.811 9.66947 9.65864 11.3006 8.94536 11.4934 11.4767 8.76309 8.76047 10.0633 8.08337 10.2601 10.242 7.90108 7.9131 8.896 7.27209 9.10506 9.07698 7.08393 7.10371 7.80681 6.47867 8.01189 7.97938 6.29833 6.33007 6.78087 5.72312 6.99358 6.95118 5.53624 5.574 5.8024 4.97375 6.0062 5.95944 4.80188 4.84699 4.88303 4.24984 5.07684 5.02361 4.08931 4.14408 4.017 3.53055 4.19927 4.13723 3.37411 3.443 3.19166 2.82532 3.35983 3.28389 2.68827 2.76144 2.40816 2.14087 2.56192 2.48328 2.01597 2.08999 1.68844 1.4748 1.81821 1.74226 1.37172 1.45536 1.04092 0.887356 1.16905 1.09564 0.793329 0.872055 0.62667 0.56623 0.688628 0.671485 0.569581 0.533484 51.5565 37.1087 44.9584 44.9584 41.4396 42.2195 58.148 43.971 54.1408 53.0786 46.8416 47.7351 64.0701 49.6065 62.1424 61.0251 50.8303 51.5034 65.6688 51.1125 65.1156 64.293 51.3679 51.6999 63.7926 49.3546 63.8833 63.4607 49.2269 49.2108 59.5923 45.3753 59.9507 59.9102 45.1651 44.8909 53.8846 37.2604 54.306 54.5316 37.6089 37.8502 46.0803 33.4125 46.194 45.8751 33.6228 33.9244 41.3576 30.0303 41.3028 40.9463 30.3463 30.6637 37.2018 27.1396 37.1885 36.8393 27.4167 27.7309 33.4871 24.5184 33.4812 33.1503 24.7707 25.0808 30.129 22.1335 30.1426 29.8257 22.3506 22.6507 27.0804 19.9719 27.0929 26.7923 20.1606 20.4449 24.314 18.0086 24.3405 24.0605 18.1622 18.4291 21.7907 16.2341 21.8287 21.5692 16.3499 16.5957 19.484 14.612 19.5494 19.3137 14.6929 14.9183 17.3709 13.1421 17.4534 17.2386 13.1845 13.3903 15.4455 11.7953 15.548 15.3532 11.7969 11.9812 13.6619 10.5614 13.7904 13.6172 10.5252 10.6876 12.0306 9.42593 12.1868 12.0349 9.35559 9.49512 10.5308 8.38449 10.7008 10.5702 8.28551 8.40289 9.14812 7.41257 9.3415 9.23146 7.28151 7.38129 7.86897 6.4992 8.07967 7.98535 6.35235 6.43574 6.69832 5.65543 6.92323 6.84298 5.48632 5.56 5.61885 4.82858 5.85132 5.77827 4.65326 4.72192 4.62462 4.04529 4.84541 4.77503 3.86957 3.93667 3.69699 3.30847 3.91719 3.84713 3.13261 3.19995 2.86317 2.59622 3.07108 3.00093 2.4279 2.4975 2.09479 1.92559 2.29681 2.22747 1.76126 1.83212 1.42647 1.32147 1.6037 1.54314 1.16796 1.23218 0.88201 0.885541 1.06199 1.03364 0.725457 0.736041 0.663821 0.796157 0.750562 0.807952 0.795866 0.69145 64.1292 45.9433 55.3415 55.3415 51.8177 53.6038 71.0218 53.7187 66.193 64.0575 57.9099 60.262 78.7719 60.6587 76.0296 73.436 62.9068 65.1001 80.5647 62.7478 79.4351 77.115 63.6231 65.4724 77.7527 60.8736 77.503 75.6393 61.1019 62.5868 72.2646 56.5434 72.43 71.0137 56.5072 57.6636 65.3688 50.7266 65.6755 64.6389 50.6389 51.5378 57.4515 42.7145 58.0845 57.3321 43.0678 44.0149 49.6543 38.0965 49.5252 48.6706 38.5992 39.4555 44.1551 34.2618 44.1049 43.3425 34.6805 35.4519 39.4463 30.7986 39.4038 38.7186 31.1635 31.8576 35.2554 27.6589 35.2409 34.6254 27.9703 28.5916 31.5029 24.7807 31.4799 30.928 25.0581 25.6101 28.0997 22.174 28.0866 27.5971 22.408 22.8966 24.9982 19.7899 25.006 24.5736 19.9855 20.4169 22.1862 17.6262 22.2061 21.8241 17.7709 18.1449 19.5832 15.6382 19.6383 19.3087 15.7391 16.0606 17.2181 13.8282 17.2905 17.0078 13.8881 14.1652 15.0437 12.167 15.1552 14.9118 12.1812 12.4157 13.0537 10.6657 13.1884 12.9821 10.6329 10.8265 11.2392 9.28335 11.3918 11.2215 9.21718 9.37213 9.56511 8.03561 9.76412 9.62815 7.92673 8.04791 8.06695 6.88476 8.27404 8.16608 6.73962 6.83284 6.68863 5.8444 6.92103 6.83771 5.67057 5.73781 5.4657 4.90279 5.70669 5.64554 4.70094 4.74497 4.36223 4.02719 4.60674 4.56603 3.82707 3.85626 3.39702 3.23609 3.64509 3.61667 3.02313 3.03946 2.55381 2.53622 2.7849 2.76824 2.32819 2.33561 1.85601 1.91966 2.08224 2.07544 1.71247 1.71513 1.33809 1.41994 1.53213 1.53418 1.2331 1.22828 1.04633 1.13665 1.19696 1.21153 0.979239 0.963596 1.01302 1.09353 1.08288 1.10442 1.05426 1.02585 
SCALARS volume float 1
LOOKUP_TABLE default
0.000324404 0.000307492 0.00031829 0.00031829 0.000318908 0.000312848 0.000332238 0.000316259 0.000326644 0.000336394 0.00032135 0.000313385 0.000332716 0.000316515 0.000326181 0.000335125 0.000322004 0.000313995 0.000332429 0.000316875 0.000326205 0.000334749 0.000322254 0.000314631 0.000331976 0.000317393 0.000326355 0.000334353 0.000322379 0.000315268 0.000331463 0.000317995 0.00032651 0.000333914 0.000322451 0.000315915 0.000330956 0.000318618 0.000326662 0.000333438 0.000322526 0.000316567 0.000330449 0.000319254 0.000326775 0.000332932 0.00032262 0.000317212 0.000329982 0.000319863 0.000326852 0.000332428 0.000322721 0.000317855 0.00032955 0.000320434 0.00032691 0.000331916 0.000322842 0.00031847 0.000329138 0.000320987 0.000326927 0.000331415 0.00032297 0.000319066 0.000328754 0.00032149 0.000326922 0.000330922 0.000323109 0.00031964 0.000328401 0.000321957 0.0003269 0.000330448 0.000323265 0.000320199 0.000328078 0.000322392 0.000326865 0.000329997 0.000323419 0.000320724 0.000327785 0.000322794 0.000326811 0.000329559 0.000323575 0.00032121 0.000327508 0.000323151 0.000326736 0.000329142 0.000323744 0.000321682 0.000327254 0.00032348 0.00032666 0.000328755 0.000323895 0.000322122 0.000327018 0.000323788 0.000326583 0.000328382 0.000324054 0.00032255 0.000326809 0.000324054 0.000326507 0.000328031 0.000324206 0.000322937 0.00032662 0.000324316 0.000326421 0.000327706 0.000324353 0.000323295 0.000326437 0.000324532 0.000326334 0.000327402 0.000324499 0.000323626 0.00032628 0.000324727 0.000326243 0.000327124 0.000324628 0.00032393 0.000326142 0.000324901 0.000326157 0.00032686 0.000324764 0.000324221 0.000326013 0.000325062 0.000326076 0.000326622 0.000324884 0.000324479 0.00032589 0.000325191 0.000325992 0.000326398 0.000324993 0.0003247 0.000325802 0.000325309 0.00032591 0.000326204 0.000325103 0.0003249 0.000325713 0.000325391 0.000325832 0.000326035 0.00032521 0.000325081 0.000325642 0.000325463 0.000325757 0.000325885 0.000325289 0.000325232 0.000325594 0.000325513 0.000325702 0.000325758 0.000325373 0.000325347 0.000325558 0.000325542 0.000325634 0.000325659 0.000325439 0.000325436 0.000325527 0.000325557 0.000325575 0.000325578 0.000325495 0.000325501 0.000325501 0.00032555 0.000325545 0.000325538 0.000325515 0.000325526 0.000328018 0.000318729 0.000325358 0.000325358 0.000325244 0.000314907 0.000331179 0.000318154 0.000327499 0.000334883 0.000323556 0.000314632 0.000332286 0.000317503 0.000326659 0.000335317 0.000323667 0.000315578 0.000331892 0.00031785 0.000326511 0.000334537 0.000323797 0.000316342 0.000331396 0.000318395 0.000326471 0.00033397 0.000323821 0.000316955 0.00033092 0.00031898 0.000326495 0.000333461 0.000323796 0.000317489 0.000330477 0.000319576 0.000326549 0.000332981 0.000323773 0.000317989 0.000330063 0.000320137 0.000326598 0.000332516 0.000323744 0.000318469 0.000329682 0.000320663 0.000326647 0.000332052 0.000323747 0.000318951 0.000329314 0.00032116 0.000326675 0.000331592 0.000323768 0.000319421 0.000328977 0.000321622 0.000326697 0.000331152 0.000323813 0.000319887 0.000328662 0.000322044 0.000326692 0.000330714 0.000323864 0.000320344 0.000328366 0.000322434 0.000326677 0.000330279 0.000323929 0.000320786 0.000328078 0.000322799 0.000326651 0.000329862 0.000324008 0.000321213 0.00032781 0.000323124 0.000326606 0.000329458 0.000324096 0.000321623 0.00032757 0.000323427 0.000326563 0.000329082 0.000324199 0.000322031 0.000327335 0.0003237 0.000326503 0.000328708 0.000324295 0.000322397 0.000327122 0.000323956 0.000326444 0.00032837 0.000324391 0.000322752 0.000326928 0.000324192 0.000326373 0.000328034 0.000324494 0.000323097 0.00032674 0.000324393 0.000326307 0.000327721 0.000324592 0.000323404 0.000326566 0.000324581 0.000326227 0.000327427 0.000324683 0.000323696 0.000326403 0.000324749 0.000326159 0.000327155 0.000324786 0.000323979 0.000326266 0.000324899 0.000326092 0.000326905 0.000324884 0.000324228 0.000326142 0.000325036 0.000326017 0.000326677 0.000324973 0.00032446 0.000326013 0.000325153 0.000325948 0.000326463 0.00032505 0.000324663 0.000325919 0.000325246 0.000325881 0.000326267 0.000325137 0.000324851 0.000325826 0.000325332 0.000325819 0.000326105 0.000325213 0.000325013 0.000325752 0.000325392 0.000325752 0.00032595 0.000325277 0.000325138 0.000325695 0.000325452 0.000325699 0.000325837 0.000325344 0.00032527 0.000325647 0.000325481 0.000325648 0.000325721 0.000325404 0.000325362 0.000325594 0.00032551 0.000325594 0.000325635 0.000325462 0.00032545 0.000325556 0.000325555 0.000325558 0.000325569 0.000325512 0.000325508 0.000330925 0.000320985 0.000330385 0.000330385 0.000324103 0.000315156 0.000330957 0.000320584 0.000327799 0.000334781 0.000323928 0.000316639 0.000331198 0.000318584 0.000327436 0.00033382 0.000323962 0.000316769 0.000331401 0.000318913 0.00032699 0.00033406 0.000324071 0.000317383 0.000330989 0.000319412 0.000326832 0.000333513 0.000324174 0.000317935 0.000330568 0.000319924 0.000326727 0.000333024 0.000324235 0.000318413 0.000330178 0.000320413 0.000326649 0.000332561 0.000324264 0.000318864 0.000329818 0.000320876 0.000326614 0.000332117 0.000324288 0.000319296 0.000329485 0.000321302 0.00032658 0.000331679 0.000324304 0.000319711 0.000329172 0.000321708 0.000326559 0.000331254 0.000324326 0.000320126 0.000328867 0.000322078 0.000326532 0.000330826 0.000324347 0.00032053 0.000328593 0.000322422 0.000326509 0.000330411 0.000324389 0.000320928 0.000328325 0.000322743 0.000326481 0.000330016 0.000324434 0.000321307 0.000328071 0.000323051 0.000326441 0.000329631 0.000324482 0.000321679 0.00032783 0.000323328 0.000326405 0.00032926 0.000324538 0.000322042 0.000327605 0.000323584 0.000326358 0.000328897 0.000324598 0.000322384 0.000327385 0.000323823 0.000326302 0.000328551 0.000324662 0.000322717 0.000327181 0.000324042 0.00032625 0.000328222 0.000324726 0.000323033 0.000326987 0.000324238 0.000326194 0.000327908 0.000324797 0.000323332 0.000326808 0.000324427 0.000326138 0.000327619 0.000324864 0.000323611 0.000326641 0.000324588 0.00032608 0.000327344 0.00032493 0.000323867 0.00032648 0.000324745 0.000326023 0.000327094 0.000324991 0.000324108 0.000326344 0.000324885 0.000325961 0.000326849 0.000325062 0.000324333 0.000326209 0.000325006 0.000325903 0.000326635 0.000325133 0.000324544 0.000326086 0.000325116 0.000325848 0.000326438 0.000325182 0.000324729 0.000325983 0.000325195 0.000325797 0.000326251 0.000325234 0.000324882 0.000325893 0.000325285 0.00032574 0.000326091 0.000325293 0.000325036 0.000325811 0.00032534 0.000325701 0.000325958 0.00032534 0.000325154 0.00032575 0.000325389 0.000325654 0.000325839 0.000325385 0.000325263 0.000325698 0.000325427 0.000325617 0.000325738 0.000325427 0.000325362 0.000325653 0.00032546 0.000325592 0.000325655 0.00032546 0.000325424 0.000325593 0.00032549 0.000325558 0.000325592 0.000325488 0.000325489 0.000333739 0.000322163 0.0003349 0.0003349 0.000323196 0.00031499 0.000331488 0.000320624 0.000328495 0.000335425 0.000323572 0.000316954 0.000330759 0.000320597 0.000327978 0.000333933 0.000324104 0.00031808 0.000330638 0.000320054 0.000327593 0.000333303 0.000324268 0.000318269 0.00033063 0.000320396 0.000327221 0.0003332 0.000324415 0.000318704 0.000330311 0.00032081 0.000326996 0.000332748 0.000324557 0.000319134 0.000329982 0.00032119 0.000326802 0.000332297 0.000324658 0.00031956 0.000329662 0.000321563 0.000326659 0.000331842 0.000324729 0.000319967 0.000329369 0.000321901 0.000326555 0.000331406 0.000324783 0.000320362 0.000329076 0.000322225 0.00032647 0.000330979 0.000324827 0.000320748 0.000328812 0.000322522 0.000326406 0.000330566 0.000324856 0.000321116 0.000328556 0.000322805 0.000326346 0.000330159 0.000324893 0.000321475 0.000328306 0.000323071 0.00032629 0.000329773 0.000324922 0.000321826 0.000328069 0.000323314 0.000326245 0.000329396 0.000324953 0.000322156 0.00032784 0.000323547 0.000326191 0.000329034 0.000324983 0.000322478 0.000327623 0.000323762 0.000326147 0.00032869 0.00032502 0.000322795 0.000327408 0.000323966 0.000326097 0.000328353 0.000325058 0.000323082 0.000327211 0.000324155 0.000326039 0.00032804 0.000325095 0.000323362 0.000327019 0.00032433 0.000325994 0.000327746 0.000325132 0.000323624 0.000326852 0.000324491 0.000325941 0.000327463 0.000325168 0.000323867 0.000326676 0.00032464 0.000325894 0.000327205 0.000325208 0.000324098 0.000326528 0.00032478 0.000325851 0.000326968 0.000325242 0.000324314 0.000326375 0.000324896 0.000325809 0.00032674 0.000325283 0.000324505 0.000326239 0.000325012 0.000325756 0.000326536 0.000325321 0.00032469 0.000326127 0.00032511 0.00032572 0.000326352 0.000325351 0.000324849 0.000326011 0.000325189 0.000325671 0.000326173 0.000325376 0.000324986 0.000325916 0.000325258 0.000325644 0.000326033 0.000325412 0.000325109 0.000325833 0.000325323 0.000325608 0.000325909 0.000325434 0.000325219 0.000325764 0.000325361 0.000325579 0.000325792 0.000325458 0.000325305 0.000325707 0.000325387 0.000325564 0.000325716 0.000325469 0.000325368 0.000325661 0.000325411 0.000325547 0.000325646 0.000325471 0.000325421 0.000325641 0.000325436 0.000325547 0.000325595 0.000325471 0.000325466 0.00033664 0.000322764 0.000339206 0.000339206 0.000322131 0.000314603 0.000332262 0.000320309 0.000329367 0.000336135 0.00032311 0.000316905 0.000330815 0.000321272 0.000328735 0.000334485 0.00032386 0.000318373 0.000330335 0.000321475 0.00032816 0.0003334 0.000324378 0.000319127 0.000330196 0.000321352 0.000327684 0.000332834 0.000324648 0.000319391 0.000330115 0.00032161 0.000327277 0.000332558 0.000324853 0.000319784 0.00032986 0.00032189 0.00032697 0.000332094 0.000325026 0.000320194 0.000329587 0.000322168 0.000326732 0.000331635 0.000325147 0.000320589 0.000329319 0.000322435 0.000326549 0.000331182 0.000325239 0.000320978 0.000329051 0.000322695 0.000326403 0.000330738 0.000325299 0.000321349 0.000328798 0.000322932 0.000326289 0.000330308 0.000325345 0.0003217 0.000328552 0.000323156 0.000326198 0.000329904 0.000325376 0.000322038 0.000328318 0.000323372 0.000326121 0.000329513 0.000325401 0.000322356 0.000328081 0.000323581 0.000326048 0.00032914 0.00032542 0.000322665 0.000327854 0.000323766 0.000325985 0.00032878 0.00032543 0.000322954 0.000327637 0.000323958 0.000325929 0.000328437 0.000325449 0.00032323 0.000327424 0.000324135 0.000325881 0.000328126 0.00032546 0.000323493 0.000327234 0.000324291 0.000325835 0.000327823 0.000325475 0.000323734 0.000327038 0.000324449 0.000325778 0.000327535 0.000325486 0.000323969 0.000326865 0.000324579 0.00032574 0.000327268 0.0003255 0.000324192 0.000326695 0.000324718 0.000325701 0.000327017 0.000325508 0.000324389 0.000326533 0.000324838 0.000325662 0.000326787 0.000325521 0.000324581 0.000326392 0.000324947 0.000325633 0.000326577 0.00032552 0.000324741 0.000326261 0.000325045 0.000325603 0.000326384 0.000325533 0.000324895 0.000326131 0.000325126 0.00032557 0.000326209 0.000325536 0.000325021 0.000326014 0.000325204 0.00032554 0.000326054 0.000325546 0.00032514 0.000325917 0.000325275 0.000325524 0.000325929 0.000325549 0.000325242 0.000325835 0.000325323 0.000325508 0.000325814 0.00032555 0.000325322 0.000325759 0.000325359 0.000325497 0.000325724 0.000325545 0.000325383 0.000325704 0.000325383 0.000325497 0.000325658 0.000325526 0.000325425 0.000325674 0.000325384 0.000325511 0.00032561 0.000325498 0.000325448 0.000325665 0.000325382 0.000325547 0.000325595 0.000325475 0.000325439 0.000339545 0.000322713 0.000343159 0.000343159 0.000320726 0.000313975 0.000333031 0.000319847 0.000330405 0.000336828 0.000322546 0.000316733 0.000331071 0.00032161 0.00032959 0.000335119 0.000323531 0.00031839 0.00033039 0.000322184 0.000328845 0.000333808 0.00032426 0.0003194 0.000330111 0.000322328 0.000328165 0.000332942 0.000324784 0.000320019 0.000329972 0.00032232 0.00032762 0.00033237 0.000325112 0.000320381 0.000329843 0.00032249 0.000327172 0.000331943 0.000325357 0.000320789 0.000329608 0.000322695 0.000326829 0.000331452 0.00032554 0.000321197 0.000329353 0.000322895 0.000326563 0.000330966 0.000325666 0.000321597 0.000329103 0.000323096 0.000326361 0.000330488 0.000325752 0.00032196 0.000328851 0.000323291 0.000326203 0.000330049 0.000325814 0.000322303 0.000328598 0.000323472 0.000326065 0.000329626 0.000325843 0.00032263 0.000328359 0.000323652 0.000325964 0.000329221 0.000325868 0.000322932 0.000328123 0.000323821 0.000325871 0.000328843 0.000325873 0.000323215 0.000327895 0.000323984 0.0003258 0.000328489 0.000325872 0.000323479 0.000327668 0.000324145 0.000325736 0.000328155 0.000325871 0.000323727 0.000327454 0.000324294 0.000325674 0.000327838 0.000325855 0.000323957 0.000327262 0.000324442 0.000325629 0.000327542 0.000325856 0.000324177 0.000327058 0.000324569 0.000325581 0.000327273 0.000325843 0.00032438 0.000326875 0.000324692 0.000325539 0.00032701 0.00032583 0.00032456 0.000326695 0.000324812 0.0003255 0.000326776 0.000325816 0.000324734 0.000326531 0.000324916 0.000325468 0.000326554 0.000325797 0.000324884 0.000326385 0.000325019 0.000325444 0.000326359 0.000325785 0.000325023 0.000326239 0.0003251 0.000325421 0.000326184 0.000325763 0.000325143 0.000326115 0.000325185 0.000325405 0.000326026 0.00032575 0.000325256 0.000326002 0.000325243 0.000325403 0.000325897 0.000325721 0.000325335 0.000325894 0.000325304 0.000325394 0.00032578 0.000325699 0.000325411 0.000325805 0.000325345 0.000325397 0.000325683 0.000325674 0.000325465 0.00032573 0.000325378 0.000325407 0.000325614 0.000325641 0.000325495 0.000325676 0.000325395 0.000325427 0.000325571 0.000325603 0.000325509 0.000325643 0.000325381 0.000325458 0.00032555 0.000325546 0.000325484 0.000325648 0.00032535 0.000325508 0.000325567 0.000325468 0.000325427 0.000341207 0.00032179 0.000345665 0.000345665 0.0003189 0.000312986 0.000333595 0.000319418 0.00033159 0.000337608 0.000321871 0.00031637 0.000331558 0.00032176 0.000330475 0.000335862 0.000323113 0.0003182 0.000330792 0.000322554 0.00032958 0.000334402 0.000324035 0.000319415 0.000330424 0.000322825 0.000328743 0.000333317 0.000324752 0.000320269 0.000330194 0.000322922 0.000328014 0.000332489 0.000325274 0.000320892 0.000330002 0.000322964 0.000327435 0.000331836 0.000325636 0.000321363 0.000329792 0.0003231 0.000326976 0.000331287 0.000325889 0.000321806 0.00032952 0.000323254 0.000326618 0.000330742 0.000326059 0.000322226 0.000329254 0.000323408 0.00032635 0.000330224 0.000326169 0.000322611 0.000328988 0.000323574 0.000326151 0.000329746 0.000326245 0.000322953 0.000328715 0.000323733 0.000325979 0.000329304 0.00032629 0.000323263 0.000328457 0.000323885 0.000325839 0.000328894 0.000326306 0.000323545 0.000328205 0.000324035 0.000325725 0.00032851 0.000326312 0.000323816 0.000327953 0.000324177 0.000325631 0.000328147 0.000326296 0.000324051 0.000327719 0.000324326 0.000325555 0.000327816 0.000326281 0.000324273 0.000327488 0.000324453 0.000325486 0.000327507 0.000326255 0.000324474 0.000327275 0.000324578 0.000325427 0.000327218 0.000326231 0.000324665 0.000327064 0.000324704 0.000325383 0.000326956 0.000326197 0.000324842 0.000326867 0.000324812 0.000325339 0.000326699 0.000326162 0.00032499 0.000326683 0.000324919 0.000325302 0.000326477 0.000326127 0.000325134 0.000326512 0.000325016 0.000325277 0.000326272 0.00032609 0.000325256 0.000326347 0.000325099 0.000325256 0.00032609 0.000326049 0.000325355 0.000326203 0.000325184 0.000325244 0.000325938 0.00032601 0.000325449 0.000326065 0.00032525 0.000325233 0.000325793 0.000325966 0.000325524 0.000325947 0.00032531 0.000325234 0.000325676 0.000325913 0.000325576 0.000325845 0.000325359 0.000325259 0.000325595 0.000325863 0.000325613 0.00032575 0.000325396 0.000325273 0.000325522 0.000325806 0.000325631 0.000325683 0.000325418 0.000325309 0.000325482 0.000325743 0.000325625 0.000325624 0.000325427 0.000325345 0.000325462 0.000325678 0.000325606 0.000325598 0.000325415 0.000325403 0.000325473 0.0003256 0.000325556 0.000325603 0.000325346 0.000325472 0.000325515 0.000325486 0.000325442 0.000337552 0.000320418 0.000343306 0.000343306 0.000317451 0.000311437 0.000334267 0.000319206 0.000332337 0.000338992 0.000321145 0.000315288 0.000332624 0.000321463 0.000331268 0.000337278 0.000322465 0.000317404 0.000331777 0.000322411 0.000330399 0.000335513 0.000323589 0.000318969 0.000331285 0.000322837 0.00032944 0.000334082 0.000324528 0.000320175 0.000330911 0.000323048 0.000328559 0.000332919 0.000325258 0.000321117 0.000330558 0.000323185 0.000327822 0.000331966 0.000325788 0.000321847 0.00033024 0.0003233 0.000327238 0.000331182 0.000326146 0.000322417 0.000329889 0.000323447 0.000326783 0.000330517 0.00032638 0.000322907 0.000329567 0.000323602 0.000326442 0.000329919 0.000326536 0.000323324 0.000329229 0.000323753 0.000326171 0.000329386 0.000326623 0.000323671 0.000328918 0.000323902 0.000325964 0.000328916 0.000326669 0.000323983 0.000328615 0.000324044 0.0003258 0.000328487 0.000326695 0.000324251 0.000328333 0.000324185 0.000325651 0.000328095 0.000326695 0.000324496 0.000328058 0.000324329 0.000325537 0.000327735 0.00032668 0.00032471 0.00032777 0.000324455 0.000325437 0.000327404 0.000326646 0.000324898 0.000327514 0.000324585 0.000325355 0.000327102 0.000326612 0.000325075 0.000327282 0.000324704 0.000325286 0.000326821 0.000326575 0.000325235 0.000327056 0.000324829 0.000325229 0.000326567 0.00032653 0.000325363 0.000326836 0.000324933 0.000325172 0.000326336 0.000326478 0.000325495 0.000326633 0.000325023 0.000325138 0.000326119 0.00032642 0.000325602 0.000326455 0.00032512 0.000325114 0.000325931 0.000326368 0.00032569 0.000326288 0.00032521 0.000325093 0.00032577 0.000326312 0.000325771 0.000326128 0.000325273 0.000325079 0.000325618 0.000326241 0.000325812 0.000325987 0.000325336 0.000325084 0.000325511 0.000326175 0.000325856 0.000325863 0.000325386 0.000325096 0.000325414 0.000326104 0.000325862 0.000325749 0.000325441 0.000325115 0.000325356 0.000326031 0.00032587 0.000325671 0.000325469 0.00032515 0.000325311 0.000325949 0.000325849 0.000325591 0.00032548 0.000325204 0.000325303 0.000325857 0.000325802 0.000325545 0.000325479 0.000325264 0.000325319 0.00032576 0.000325732 0.000325539 0.000325457 0.000325336 0.000325364 0.000325654 0.000325634 0.000325535 0.0003254 0.000325416 0.000325435 0.00032553 0.000325513 0.00032732 0.000306209 0.000317258 0.000317258 0.000322503 0.000317004 0.000332673 0.000313343 0.000326981 0.000333425 0.000319993 0.000312546 0.000331391 0.000316591 0.000326657 0.000335437 0.000320419 0.000312789 0.000331192 0.000317446 0.000326799 0.000335218 0.000320787 0.000313389 0.000330935 0.00031804 0.000326942 0.000334877 0.000321082 0.000314089 0.000330618 0.000318587 0.00032705 0.000334438 0.000321334 0.000314833 0.000330278 0.000319127 0.000327124 0.00033393 0.00032159 0.000315597 0.00032991 0.000319648 0.000327161 0.000333394 0.000321834 0.000316363 0.000329559 0.000320168 0.000327177 0.000332838 0.000322079 0.000317115 0.000329211 0.000320659 0.000327156 0.000332274 0.000322315 0.000317836 0.000328868 0.000321129 0.000327114 0.000331716 0.000322561 0.000318532 0.000328552 0.000321592 0.000327064 0.000331191 0.000322798 0.000319198 0.000328248 0.000322016 0.000326994 0.000330673 0.000323025 0.000319822 0.000327958 0.000322416 0.000326916 0.000330183 0.000323234 0.000320407 0.000327696 0.000322787 0.000326837 0.000329713 0.000323458 0.000320976 0.000327444 0.00032313 0.000326747 0.000329269 0.000323664 0.000321488 0.000327214 0.000323455 0.00032665 0.000328857 0.000323851 0.000321967 0.000326994 0.000323739 0.000326551 0.000328459 0.000324035 0.000322421 0.000326801 0.000324013 0.000326464 0.000328095 0.000324216 0.00032284 0.000326608 0.000324253 0.000326365 0.000327755 0.000324382 0.00032323 0.000326444 0.000324471 0.000326272 0.000327434 0.000324534 0.000323582 0.000326302 0.00032467 0.000326185 0.000327144 0.00032468 0.000323911 0.000326167 0.000324839 0.000326101 0.000326875 0.000324834 0.000324212 0.000326032 0.000325 0.000326011 0.000326637 0.00032495 0.000324475 0.000325927 0.000325135 0.000325924 0.000326402 0.000325077 0.000324721 0.000325827 0.000325254 0.000325844 0.000326202 0.000325181 0.000324932 0.000325749 0.000325336 0.00032577 0.00032602 0.000325279 0.000325105 0.000325685 0.000325412 0.000325701 0.000325874 0.000325376 0.000325263 0.000325617 0.000325463 0.000325636 0.000325749 0.000325432 0.000325372 0.000325585 0.000325512 0.000325585 0.000325645 0.000325492 0.000325467 0.000325537 0.000325516 0.00032554 0.000325565 0.000325521 0.000325516 0.000325508 0.000325538 0.000325522 0.000325527 0.000325512 0.00032552 0.000329275 0.000318586 0.000323536 0.000323536 0.000328999 0.000323173 0.000326545 0.00031382 0.000322647 0.000328289 0.000319307 0.000310183 0.000331115 0.000317569 0.000326746 0.000336956 0.000322046 0.000313204 0.000330996 0.000318357 0.00032643 0.000335768 0.000322524 0.000314326 0.000330677 0.000318912 0.000326475 0.00033502 0.000322734 0.000315185 0.00033031 0.000319435 0.000326555 0.000334382 0.000322877 0.000315941 0.000329949 0.000319933 0.000326613 0.000333784 0.000322996 0.000316664 0.000329602 0.000320421 0.000326662 0.000333193 0.000323105 0.000317341 0.00032927 0.000320883 0.00032669 0.000332624 0.000323218 0.00031799 0.00032895 0.00032132 0.000326699 0.00033207 0.000323343 0.000318614 0.00032866 0.000321738 0.000326692 0.000331543 0.00032347 0.000319214 0.000328381 0.000322128 0.000326677 0.000331034 0.000323601 0.000319784 0.000328113 0.000322489 0.000326644 0.000330546 0.000323733 0.000320329 0.000327853 0.000322827 0.000326597 0.00033007 0.000323863 0.00032084 0.000327617 0.000323139 0.000326548 0.000329627 0.000323994 0.000321324 0.000327406 0.000323431 0.000326491 0.000329207 0.000324126 0.000321784 0.000327193 0.00032369 0.000326427 0.000328804 0.000324252 0.000322211 0.000327005 0.000323935 0.000326359 0.000328428 0.000324376 0.000322611 0.000326811 0.000324165 0.000326296 0.000328083 0.000324501 0.000322985 0.000326661 0.000324369 0.000326227 0.00032776 0.000324611 0.000323344 0.000326493 0.000324551 0.000326159 0.000327438 0.000324722 0.000323654 0.000326354 0.000324718 0.000326087 0.000327164 0.000324835 0.000323954 0.000326229 0.000324869 0.000326025 0.000326912 0.000324934 0.000324227 0.000326105 0.000325002 0.000325948 0.000326659 0.000325022 0.000324468 0.000326002 0.000325116 0.000325892 0.000326448 0.000325118 0.000324693 0.000325903 0.00032521 0.000325823 0.00032625 0.000325193 0.000324883 0.000325821 0.000325298 0.000325768 0.000326079 0.000325276 0.000325048 0.00032575 0.000325361 0.000325702 0.00032593 0.000325344 0.000325191 0.000325693 0.00032542 0.000325655 0.000325807 0.000325401 0.000325308 0.00032565 0.000325452 0.000325609 0.000325702 0.000325453 0.00032541 0.000325602 0.000325491 0.000325578 0.000325621 0.000325487 0.000325477 0.000325546 0.000325523 0.000325549 0.000325559 0.00032551 0.000325532 0.000329983 0.000320083 0.000328637 0.000328637 0.000325991 0.000321054 0.000329062 0.00032028 0.000325745 0.000330762 0.000324149 0.000314763 0.000329542 0.000319538 0.000326502 0.000335323 0.000323556 0.000314589 0.000330808 0.000319432 0.00032648 0.000335626 0.000323724 0.000315696 0.000330507 0.000319837 0.000326506 0.000334714 0.000323846 0.000316479 0.000330154 0.0003203 0.000326497 0.00033404 0.00032392 0.00031715 0.000329813 0.000320742 0.000326501 0.000333439 0.000323983 0.000317766 0.000329489 0.000321158 0.000326497 0.000332869 0.000324032 0.000318348 0.000329188 0.000321548 0.0003265 0.000332323 0.000324083 0.000318904 0.0003289 0.000321921 0.000326496 0.000331798 0.000324141 0.000319437 0.000328627 0.000322263 0.000326477 0.000331289 0.000324211 0.000319951 0.000328368 0.000322586 0.000326456 0.000330809 0.000324278 0.000320442 0.00032812 0.000322884 0.000326423 0.000330338 0.000324345 0.0003209 0.000327887 0.000323171 0.000326387 0.000329898 0.000324424 0.00032135 0.000327671 0.000323433 0.000326349 0.000329476 0.000324502 0.000321774 0.000327455 0.000323664 0.0003263 0.000329071 0.000324579 0.000322171 0.000327256 0.000323892 0.000326249 0.000328692 0.000324659 0.000322551 0.00032707 0.000324092 0.000326199 0.000328335 0.00032474 0.000322907 0.00032689 0.00032429 0.000326144 0.000327998 0.000324807 0.000323233 0.000326725 0.000324461 0.000326091 0.000327681 0.000324896 0.000323543 0.000326569 0.000324621 0.000326028 0.000327392 0.000324956 0.000323819 0.000326433 0.000324762 0.000325975 0.000327121 0.00032503 0.000324089 0.000326291 0.000324893 0.000325912 0.000326859 0.000325098 0.000324331 0.000326177 0.000325007 0.000325864 0.000326635 0.000325166 0.00032455 0.000326065 0.000325113 0.000325813 0.000326431 0.000325223 0.000324744 0.000325971 0.000325201 0.000325761 0.000326242 0.000325281 0.000324916 0.000325874 0.000325273 0.000325704 0.00032607 0.000325325 0.000325067 0.000325806 0.000325325 0.00032567 0.000325928 0.000325373 0.000325188 0.000325741 0.000325378 0.000325627 0.000325811 0.000325416 0.000325291 0.000325684 0.000325416 0.000325597 0.000325721 0.000325456 0.000325373 0.000325641 0.000325448 0.000325561 0.000325643 0.000325472 0.000325446 0.00032561 0.000325479 0.000325551 0.000325576 0.000325476 0.000325508 0.000330767 0.000321427 0.000333061 0.000333061 0.000322937 0.00031855 0.000330972 0.00032127 0.000328646 0.000333154 0.000324475 0.000316112 0.000330186 0.000321639 0.000327016 0.000334941 0.000324314 0.000316839 0.000329888 0.000320292 0.000326809 0.000334087 0.000324334 0.000316845 0.000330273 0.000320631 0.000326668 0.000334245 0.000324436 0.000317551 0.000329994 0.000321006 0.000326603 0.000333599 0.000324528 0.000318145 0.000329703 0.000321385 0.000326519 0.000333022 0.000324602 0.000318687 0.00032941 0.000321732 0.000326444 0.000332478 0.000324659 0.000319218 0.000329124 0.000322058 0.000326396 0.000331949 0.000324701 0.000319699 0.000328865 0.000322365 0.000326344 0.000331448 0.000324739 0.000320182 0.000328618 0.000322658 0.000326314 0.000330962 0.000324789 0.000320637 0.000328369 0.000322921 0.000326269 0.0003305 0.000324822 0.000321068 0.000328135 0.000323171 0.000326228 0.00033005 0.000324863 0.000321478 0.000327915 0.000323409 0.000326185 0.000329627 0.000324907 0.000321871 0.000327701 0.000323627 0.000326147 0.000329231 0.00032495 0.000322245 0.0003275 0.000323842 0.000326105 0.000328848 0.000324999 0.000322597 0.000327299 0.000324031 0.000326055 0.000328488 0.00032504 0.000322931 0.000327116 0.000324213 0.000326011 0.000328145 0.000325088 0.000323246 0.000326935 0.000324379 0.000325966 0.000327827 0.000325129 0.000323531 0.000326775 0.000324534 0.000325914 0.000327527 0.000325171 0.000323812 0.00032662 0.000324672 0.000325877 0.000327247 0.000325216 0.00032406 0.000326473 0.000324797 0.000325827 0.00032699 0.000325258 0.000324289 0.00032634 0.000324911 0.000325777 0.000326752 0.000325292 0.000324499 0.000326213 0.000325019 0.000325744 0.00032654 0.000325333 0.00032469 0.000326098 0.000325116 0.0003257 0.000326344 0.000325369 0.000324858 0.000325996 0.000325192 0.000325662 0.000326174 0.000325404 0.000325012 0.000325912 0.000325259 0.000325629 0.000326021 0.000325429 0.000325137 0.000325825 0.000325311 0.000325597 0.000325888 0.000325447 0.000325239 0.000325756 0.000325347 0.00032557 0.000325778 0.000325462 0.000325325 0.000325716 0.00032538 0.000325556 0.000325692 0.000325466 0.000325388 0.000325679 0.000325395 0.00032555 0.000325627 0.000325475 0.000325443 0.000325647 0.000325417 0.000325553 0.000325584 0.000325475 0.000325487 0.000331752 0.000322107 0.000337196 0.000337196 0.000320044 0.000315955 0.000332687 0.000322019 0.000331388 0.000335654 0.000324182 0.000316845 0.000330908 0.000321578 0.000327911 0.000334953 0.000324452 0.000317681 0.000330126 0.00032185 0.000327394 0.000333992 0.000324693 0.00031826 0.000329795 0.00032144 0.000327027 0.0003334 0.000324852 0.000318467 0.000329869 0.000321725 0.00032678 0.000333232 0.000324986 0.000319011 0.000329639 0.000322 0.00032661 0.00033267 0.000325095 0.000319519 0.000329382 0.000322277 0.00032646 0.000332126 0.000325181 0.000319993 0.000329128 0.000322547 0.000326345 0.000331621 0.000325232 0.000320451 0.000328873 0.000322789 0.000326253 0.000331115 0.000325283 0.000320892 0.000328629 0.000323022 0.000326172 0.000330637 0.00032531 0.000321306 0.0003284 0.000323246 0.000326107 0.000330176 0.000325336 0.000321696 0.000328164 0.000323456 0.000326051 0.000329747 0.000325359 0.000322061 0.000327945 0.000323655 0.000325994 0.00032934 0.000325385 0.000322417 0.000327734 0.000323842 0.000325942 0.000328949 0.000325399 0.000322746 0.000327523 0.000324022 0.000325898 0.000328583 0.000325421 0.000323064 0.000327329 0.000324184 0.00032585 0.000328234 0.000325432 0.000323354 0.000327142 0.000324338 0.000325808 0.000327907 0.000325448 0.000323622 0.000326965 0.000324489 0.000325761 0.000327602 0.000325463 0.000323889 0.000326795 0.000324614 0.000325733 0.000327319 0.000325479 0.000324114 0.000326632 0.000324747 0.000325684 0.000327057 0.000325494 0.000324338 0.000326489 0.000324855 0.000325651 0.000326812 0.000325504 0.000324544 0.000326348 0.000324961 0.000325627 0.000326591 0.000325527 0.000324721 0.000326221 0.000325061 0.000325592 0.000326401 0.000325533 0.000324885 0.000326107 0.000325141 0.00032557 0.000326219 0.000325542 0.000325026 0.000326 0.000325212 0.000325539 0.000326055 0.000325547 0.00032515 0.000325905 0.000325271 0.000325527 0.000325924 0.000325554 0.00032525 0.000325828 0.000325323 0.000325505 0.000325809 0.000325552 0.000325337 0.000325752 0.00032536 0.000325495 0.000325709 0.000325547 0.000325387 0.000325707 0.000325372 0.00032549 0.000325649 0.000325532 0.000325432 0.00032568 0.000325373 0.000325504 0.000325603 0.000325502 0.000325453 0.000325673 0.000325368 0.000325531 0.000325578 0.000325461 0.000325459 0.000332911 0.000322149 0.00034097 0.00034097 0.000317071 0.000313281 0.000334241 0.000322472 0.000334084 0.000338111 0.000323564 0.000317277 0.000331629 0.000321457 0.000329048 0.000335153 0.000324196 0.00031813 0.000330483 0.000322211 0.000328176 0.000334112 0.000324748 0.000318906 0.000329989 0.000322484 0.000327549 0.000333335 0.000325109 0.000319458 0.00032973 0.000322375 0.000327095 0.000332748 0.000325344 0.000319799 0.000329667 0.000322569 0.000326763 0.000332367 0.000325517 0.000320293 0.000329444 0.000322771 0.00032653 0.00033182 0.000325637 0.000320756 0.000329202 0.000322976 0.000326337 0.000331285 0.000325721 0.00032119 0.000328944 0.000323179 0.000326187 0.000330782 0.000325775 0.000321602 0.000328701 0.000323368 0.000326062 0.000330293 0.000325811 0.000321985 0.000328467 0.000323546 0.000325968 0.000329845 0.000325833 0.000322348 0.000328226 0.000323731 0.000325887 0.000329415 0.000325843 0.000322686 0.000327998 0.000323895 0.000325818 0.000329011 0.000325847 0.000323 0.000327777 0.000324051 0.000325752 0.000328629 0.000325847 0.000323291 0.000327562 0.000324208 0.000325698 0.000328278 0.000325839 0.000323568 0.000327359 0.000324353 0.000325656 0.000327946 0.000325838 0.000323827 0.000327158 0.000324482 0.0003256 0.000327626 0.000325822 0.000324067 0.000326981 0.000324608 0.000325569 0.000327336 0.000325818 0.000324285 0.000326798 0.000324734 0.000325525 0.000327067 0.000325803 0.000324485 0.000326637 0.000324837 0.000325498 0.000326821 0.000325792 0.000324676 0.00032648 0.000324943 0.000325471 0.000326591 0.000325785 0.000324845 0.000326332 0.000325041 0.000325444 0.000326386 0.000325766 0.000324993 0.000326208 0.000325123 0.000325427 0.000326201 0.000325756 0.000325125 0.000326081 0.000325192 0.00032541 0.000326041 0.000325733 0.000325241 0.000325983 0.00032525 0.000325407 0.000325899 0.000325713 0.00032533 0.000325876 0.000325307 0.000325399 0.000325781 0.000325687 0.0003254 0.000325793 0.000325345 0.000325401 0.000325687 0.000325668 0.000325454 0.000325735 0.000325383 0.000325404 0.000325617 0.00032564 0.000325499 0.000325679 0.000325387 0.000325418 0.000325559 0.000325604 0.000325503 0.000325659 0.000325375 0.000325449 0.00032555 0.000325551 0.00032549 0.000325672 0.000325342 0.000325496 0.000325555 0.000325483 0.000325454 0.000333648 0.000321608 0.000343656 0.000343656 0.000314126 0.000310739 0.000335333 0.00032254 0.000336689 0.000340364 0.000322478 0.000317213 0.000332273 0.000321295 0.000330443 0.000335626 0.00032366 0.000318222 0.000331008 0.000322396 0.000329102 0.000334464 0.00032455 0.000319225 0.000330413 0.000322836 0.000328195 0.000333491 0.000325168 0.000319998 0.000330069 0.000323013 0.000327522 0.0003327 0.000325568 0.000320583 0.000329825 0.000323029 0.000327025 0.000332041 0.000325863 0.000321039 0.000329642 0.00032317 0.000326639 0.000331515 0.000326038 0.000321514 0.000329388 0.000323332 0.000326363 0.000330938 0.000326165 0.000321946 0.000329114 0.000323493 0.000326147 0.000330413 0.000326231 0.000322335 0.000328851 0.000323647 0.000325976 0.000329913 0.000326275 0.000322709 0.000328591 0.000323807 0.000325853 0.000329455 0.000326303 0.000323045 0.000328335 0.000323956 0.000325741 0.000329028 0.000326296 0.000323346 0.000328089 0.000324104 0.000325654 0.000328628 0.00032629 0.000323631 0.000327848 0.000324247 0.000325578 0.000328256 0.000326279 0.00032389 0.000327613 0.000324383 0.000325514 0.000327917 0.000326255 0.000324133 0.000327399 0.000324511 0.000325458 0.000327591 0.000326223 0.000324353 0.000327181 0.000324631 0.000325406 0.000327285 0.000326197 0.000324548 0.000326983 0.000324746 0.000325361 0.000327015 0.000326166 0.000324736 0.000326796 0.000324858 0.00032533 0.000326764 0.000326138 0.000324913 0.000326619 0.000324952 0.000325299 0.000326528 0.000326098 0.000325063 0.000326451 0.000325046 0.000325281 0.000326318 0.00032606 0.000325198 0.0003263 0.000325128 0.000325258 0.000326121 0.000326021 0.00032531 0.000326158 0.000325198 0.000325254 0.000325965 0.000325983 0.000325405 0.000326033 0.000325264 0.000325242 0.000325821 0.000325938 0.000325491 0.000325925 0.000325322 0.000325254 0.0003257 0.000325901 0.00032556 0.000325833 0.000325368 0.000325266 0.000325606 0.000325847 0.000325598 0.000325745 0.000325398 0.000325285 0.000325533 0.000325791 0.000325619 0.000325683 0.000325412 0.000325312 0.000325484 0.000325744 0.000325619 0.000325642 0.000325419 0.000325348 0.000325472 0.000325681 0.000325607 0.000325621 0.000325404 0.000325389 0.000325462 0.000325614 0.000325563 0.000325634 0.000325339 0.000325448 0.000325499 0.000325514 0.000325465 0.000330575 0.00032174 0.000344227 0.000344227 0.000312561 0.000308682 0.000335025 0.000322054 0.000337465 0.000341628 0.0003207 0.00031549 0.000333194 0.000321094 0.000331706 0.000337044 0.000322797 0.000317521 0.000332038 0.000322241 0.000330122 0.00033543 0.000324046 0.000319051 0.000331352 0.000322805 0.000329008 0.000334044 0.000324951 0.000320201 0.000330876 0.000323107 0.00032811 0.000332909 0.000325602 0.00032108 0.000330478 0.000323293 0.000327413 0.000331983 0.000326054 0.000321757 0.000330122 0.000323398 0.000326867 0.00033121 0.000326367 0.000322288 0.000329795 0.000323546 0.000326446 0.000330568 0.000326548 0.000322754 0.000329455 0.000323704 0.000326156 0.000329985 0.000326659 0.000323158 0.00032913 0.000323849 0.000325935 0.000329464 0.000326719 0.000323511 0.000328819 0.000323998 0.000325764 0.000328992 0.000326737 0.000323815 0.000328524 0.000324138 0.000325627 0.000328564 0.000326737 0.00032409 0.000328236 0.000324273 0.000325517 0.000328174 0.000326717 0.000324333 0.000327959 0.000324411 0.000325426 0.000327816 0.000326691 0.000324559 0.000327701 0.000324536 0.000325348 0.000327483 0.000326646 0.000324756 0.000327459 0.000324657 0.000325288 0.00032718 0.000326608 0.000324946 0.000327214 0.00032477 0.000325223 0.000326885 0.000326556 0.000325101 0.000326999 0.000324877 0.00032518 0.000326634 0.000326509 0.000325264 0.000326792 0.000324978 0.000325149 0.000326393 0.000326453 0.00032539 0.00032659 0.000325069 0.000325123 0.000326184 0.000326396 0.000325496 0.000326409 0.000325163 0.000325091 0.00032599 0.00032634 0.000325601 0.000326245 0.000325231 0.00032508 0.000325818 0.000326279 0.000325687 0.000326097 0.000325304 0.000325079 0.000325669 0.000326213 0.000325753 0.000325969 0.000325354 0.000325091 0.000325549 0.000326149 0.000325795 0.000325842 0.000325409 0.000325104 0.000325457 0.000326084 0.000325815 0.000325748 0.000325445 0.000325122 0.00032539 0.000326015 0.000325833 0.000325661 0.000325475 0.000325159 0.000325341 0.000325936 0.000325819 0.000325602 0.000325484 0.000325206 0.000325323 0.000325856 0.000325779 0.000325563 0.000325473 0.000325259 0.000325336 0.000325767 0.000325724 0.000325552 0.000325445 0.000325333 0.000325376 0.000325677 0.000325645 0.000325562 0.000325382 0.000325407 0.000325439 0.000325567 0.000325526 0.000327222 0.000305093 0.000316267 0.000316267 0.00032202 0.0003162 0.000333893 0.000312444 0.000326472 0.000333087 0.000320828 0.0003138 0.000331674 0.000315655 0.000326821 0.000334574 0.000320117 0.000312955 0.000330795 0.00031743 0.0003272 0.000335077 0.000320221 0.000313191 0.000330409 0.000318248 0.000327332 0.000334906 0.000320463 0.000313751 0.00033011 0.000318846 0.000327409 0.000334545 0.000320753 0.000314437 0.000329827 0.00031937 0.000327433 0.000334085 0.000321048 0.000315194 0.000329553 0.00031986 0.000327434 0.000333558 0.000321356 0.000315961 0.000329269 0.000320331 0.000327402 0.000333013 0.000321663 0.000316737 0.00032898 0.000320799 0.000327347 0.000332447 0.000321964 0.000317486 0.000328694 0.000321241 0.000327275 0.000331893 0.000322255 0.000318211 0.000328412 0.000321666 0.000327189 0.000331345 0.000322537 0.000318902 0.00032815 0.000322066 0.000327094 0.000330817 0.000322813 0.000319567 0.000327892 0.000322453 0.000327 0.000330316 0.000323069 0.000320187 0.000327649 0.000322811 0.000326896 0.000329833 0.000323318 0.000320773 0.000327414 0.000323144 0.000326785 0.000329373 0.000323556 0.000321315 0.000327196 0.000323454 0.000326681 0.000328955 0.000323775 0.000321826 0.000326991 0.000323722 0.000326571 0.000328545 0.000323972 0.000322296 0.000326802 0.000323996 0.000326473 0.000328169 0.000324171 0.000322739 0.000326624 0.000324239 0.000326374 0.000327821 0.000324356 0.000323136 0.00032646 0.000324454 0.000326267 0.000327497 0.000324519 0.000323507 0.000326313 0.000324645 0.000326169 0.000327188 0.000324678 0.000323847 0.00032618 0.000324825 0.000326089 0.000326926 0.000324822 0.000324149 0.000326058 0.00032498 0.000325993 0.00032667 0.000324966 0.000324425 0.000325943 0.000325112 0.000325901 0.000326445 0.000325085 0.000324678 0.000325843 0.000325225 0.000325823 0.000326232 0.000325201 0.000324896 0.000325764 0.000325311 0.000325742 0.000326047 0.000325302 0.000325081 0.000325695 0.00032539 0.00032567 0.000325892 0.000325385 0.000325233 0.000325646 0.00032545 0.000325617 0.000325769 0.000325454 0.00032536 0.000325595 0.000325484 0.000325557 0.000325651 0.000325515 0.000325462 0.000325559 0.000325504 0.000325532 0.000325586 0.000325543 0.00032551 0.000325509 0.000325519 0.000325507 0.000325539 0.000325522 0.00032552 0.000328794 0.00031837 0.000322447 0.000322447 0.000329474 0.000324042 0.000327763 0.000313344 0.000322109 0.000327488 0.000320513 0.000313292 0.000331631 0.000315912 0.000327377 0.000335056 0.000320523 0.000312437 0.000330648 0.000317966 0.000327017 0.000335722 0.000321393 0.000313397 0.000330227 0.000318873 0.000326842 0.000335301 0.000321812 0.000314285 0.000329904 0.000319504 0.000326842 0.000334728 0.000322096 0.000315123 0.000329616 0.000320026 0.00032687 0.000334131 0.000322336 0.000315924 0.000329325 0.000320501 0.000326872 0.000333519 0.000322555 0.000316699 0.000329045 0.000320942 0.000326869 0.000332919 0.00032276 0.000317434 0.000328776 0.000321361 0.000326847 0.000332333 0.000322957 0.000318139 0.000328512 0.000321755 0.000326816 0.000331766 0.000323147 0.000318805 0.000328259 0.000322128 0.00032677 0.00033122 0.000323333 0.000319436 0.000328018 0.000322477 0.000326711 0.000330696 0.00032352 0.00032003 0.000327784 0.000322809 0.00032665 0.000330212 0.000323692 0.000320598 0.000327563 0.000323112 0.000326586 0.000329738 0.000323859 0.000321121 0.000327355 0.000323399 0.000326516 0.0003293 0.000324023 0.000321616 0.000327164 0.000323661 0.00032644 0.000328884 0.000324174 0.000322078 0.000326971 0.000323902 0.000326368 0.000328491 0.000324321 0.000322501 0.000326797 0.000324132 0.000326295 0.000328137 0.000324459 0.000322896 0.000326643 0.00032434 0.000326218 0.000327797 0.000324589 0.000323265 0.000326486 0.00032452 0.000326141 0.000327477 0.000324713 0.000323608 0.000326351 0.000324684 0.000326076 0.000327189 0.000324829 0.000323913 0.000326228 0.00032485 0.000326007 0.000326929 0.000324941 0.000324191 0.000326112 0.00032498 0.000325932 0.000326686 0.000325045 0.000324458 0.000326005 0.000325091 0.000325865 0.000326454 0.000325133 0.000324675 0.000325916 0.0003252 0.000325805 0.000326265 0.000325219 0.000324878 0.000325832 0.00032528 0.000325739 0.000326081 0.000325302 0.000325051 0.00032576 0.000325344 0.000325678 0.000325929 0.000325368 0.00032519 0.000325712 0.000325403 0.000325637 0.000325815 0.000325432 0.000325325 0.000325658 0.000325437 0.000325593 0.0003257 0.000325475 0.000325409 0.000325608 0.000325471 0.000325547 0.000325614 0.000325498 0.000325478 0.000325563 0.000325494 0.000325532 0.000325552 0.000325496 0.000325527 0.000329934 0.000319979 0.000327425 0.000327425 0.000326331 0.000321536 0.000329289 0.000320427 0.000325163 0.000329991 0.000325856 0.000318799 0.000327405 0.000317009 0.000324586 0.000331656 0.000321039 0.000311967 0.000330214 0.000319257 0.000326739 0.000336394 0.000322668 0.000314168 0.000329992 0.000319907 0.000326546 0.0003354 0.00032311 0.000315262 0.000329717 0.000320404 0.000326517 0.000334641 0.000323329 0.000316123 0.000329438 0.000320837 0.000326521 0.000333957 0.00032348 0.00031688 0.000329166 0.000321235 0.000326519 0.000333313 0.000323611 0.000317583 0.000328908 0.000321616 0.000326517 0.000332711 0.000323735 0.000318248 0.000328658 0.000321963 0.000326498 0.000332125 0.00032385 0.000318881 0.000328414 0.000322287 0.000326479 0.000331566 0.000323955 0.000319474 0.000328182 0.000322595 0.000326448 0.000331028 0.000324063 0.000320033 0.00032796 0.000322887 0.000326412 0.000330524 0.000324179 0.000320567 0.000327744 0.000323161 0.00032637 0.000330049 0.000324285 0.000321067 0.000327538 0.000323422 0.000326328 0.000329601 0.000324392 0.000321536 0.000327349 0.000323655 0.000326277 0.000329178 0.000324491 0.000321975 0.000327158 0.000323872 0.000326225 0.000328776 0.000324594 0.000322384 0.000326986 0.000324082 0.000326167 0.000328404 0.000324684 0.000322764 0.000326821 0.000324273 0.000326112 0.000328053 0.000324774 0.000323128 0.000326667 0.000324439 0.000326057 0.000327719 0.000324864 0.000323458 0.000326519 0.000324598 0.000325998 0.000327417 0.000324943 0.000323757 0.000326391 0.000324746 0.000325947 0.000327142 0.000325022 0.000324038 0.00032626 0.000324879 0.000325893 0.000326883 0.0003251 0.000324299 0.000326149 0.000324989 0.000325839 0.000326645 0.00032517 0.000324524 0.000326052 0.000325097 0.000325788 0.000326436 0.000325237 0.000324736 0.000325953 0.000325188 0.000325738 0.000326241 0.0003253 0.000324913 0.000325875 0.000325257 0.000325691 0.000326078 0.00032535 0.000325078 0.000325797 0.000325315 0.000325651 0.000325924 0.000325396 0.000325194 0.000325745 0.000325366 0.000325609 0.000325811 0.000325442 0.000325312 0.000325698 0.000325402 0.000325582 0.000325711 0.000325468 0.000325392 0.000325662 0.00032543 0.000325564 0.000325639 0.00032549 0.000325466 0.000325611 0.000325456 0.000325548 0.000325572 0.000325486 0.000325514 0.000330726 0.000321103 0.000331905 0.000331905 0.000323602 0.00031932 0.000330185 0.000321105 0.000328165 0.00033257 0.000325025 0.000318346 0.000328965 0.000321485 0.000326211 0.000333026 0.000324285 0.000315759 0.000329017 0.000320771 0.000326413 0.000334892 0.00032392 0.000315454 0.000329922 0.000320897 0.000326472 0.000335157 0.000324123 0.00031644 0.000329688 0.000321231 0.000326462 0.00033434 0.000324274 0.00031722 0.000329428 0.000321569 0.000326417 0.000333643 0.000324371 0.000317909 0.000329174 0.000321883 0.000326387 0.000333002 0.000324446 0.000318536 0.000328919 0.000322189 0.000326349 0.000332393 0.000324518 0.000319124 0.000328681 0.000322471 0.000326314 0.000331824 0.000324585 0.000319681 0.000328445 0.000322753 0.000326285 0.000331289 0.000324655 0.000320213 0.000328219 0.000323 0.000326244 0.00033077 0.00032471 0.000320701 0.000327999 0.000323243 0.000326207 0.000330287 0.000324774 0.000321171 0.000327789 0.000323471 0.00032617 0.000329832 0.000324833 0.000321613 0.00032759 0.000323681 0.000326125 0.000329394 0.000324884 0.000322021 0.000327393 0.000323878 0.000326084 0.000328986 0.000324946 0.000322414 0.000327212 0.000324067 0.000326032 0.000328594 0.000324997 0.000322776 0.000327029 0.000324235 0.000325984 0.00032823 0.000325053 0.000323114 0.000326871 0.000324397 0.000325945 0.000327903 0.000325106 0.000323436 0.000326719 0.000324552 0.000325905 0.00032759 0.000325162 0.000323736 0.000326569 0.000324686 0.000325862 0.000327299 0.000325207 0.000324 0.000326433 0.000324808 0.000325814 0.000327029 0.000325252 0.000324245 0.000326302 0.00032492 0.000325768 0.00032678 0.000325287 0.000324465 0.000326188 0.000325022 0.000325733 0.000326559 0.000325332 0.000324669 0.000326078 0.000325111 0.000325694 0.00032636 0.000325376 0.000324851 0.000325985 0.000325192 0.000325654 0.000326179 0.000325408 0.000325004 0.0003259 0.00032526 0.000325624 0.000326028 0.000325444 0.000325138 0.000325825 0.000325315 0.000325584 0.00032589 0.000325461 0.000325248 0.000325763 0.000325345 0.000325564 0.000325777 0.000325481 0.000325332 0.000325712 0.000325376 0.000325544 0.000325693 0.000325492 0.000325399 0.000325688 0.000325389 0.000325543 0.000325635 0.000325487 0.000325455 0.000325662 0.000325408 0.000325552 0.000325583 0.000325471 0.000325494 0.000331672 0.000321846 0.000336057 0.000336057 0.000320733 0.000316941 0.000331029 0.000321782 0.00033104 0.000335001 0.000323624 0.000317518 0.000330339 0.000322149 0.000328044 0.000334317 0.000324801 0.00031703 0.00032962 0.000322492 0.000326881 0.000334601 0.000324824 0.000317574 0.000329365 0.000321588 0.000326617 0.000333877 0.000324797 0.000317574 0.000329658 0.000321857 0.000326517 0.000333867 0.000324914 0.000318264 0.000329446 0.000322125 0.000326429 0.000333203 0.000325013 0.000318877 0.000329206 0.000322382 0.000326333 0.000332585 0.000325079 0.000319446 0.000328968 0.000322634 0.00032626 0.000331997 0.000325136 0.000319973 0.000328737 0.000322869 0.000326188 0.000331444 0.000325187 0.000320479 0.000328503 0.000323099 0.000326125 0.000330914 0.000325222 0.000320946 0.000328271 0.000323308 0.000326074 0.000330418 0.000325257 0.000321389 0.000328058 0.000323516 0.000326023 0.000329949 0.000325291 0.000321807 0.000327845 0.000323708 0.000325979 0.000329511 0.000325315 0.000322193 0.000327637 0.000323886 0.000325932 0.000329093 0.000325343 0.000322556 0.00032744 0.000324061 0.000325888 0.000328708 0.000325365 0.0003229 0.000327254 0.000324214 0.000325846 0.000328337 0.000325392 0.000323221 0.000327078 0.000324368 0.000325803 0.000327994 0.000325412 0.000323522 0.000326906 0.000324513 0.000325766 0.000327671 0.000325438 0.000323802 0.000326747 0.00032464 0.00032573 0.000327378 0.000325454 0.000324049 0.000326589 0.000324767 0.000325693 0.000327107 0.000325474 0.000324284 0.000326454 0.00032487 0.000325655 0.000326851 0.000325489 0.000324499 0.000326318 0.000324974 0.000325628 0.000326622 0.000325509 0.000324691 0.0003262 0.000325064 0.000325597 0.000326418 0.00032552 0.000324862 0.000326085 0.000325145 0.000325571 0.000326231 0.00032553 0.000325007 0.000325986 0.000325207 0.000325545 0.000326068 0.000325539 0.000325143 0.000325904 0.000325268 0.000325527 0.000325923 0.000325545 0.000325251 0.000325823 0.000325315 0.000325514 0.000325808 0.000325556 0.000325338 0.000325756 0.000325354 0.000325494 0.000325713 0.000325552 0.000325407 0.000325716 0.000325369 0.000325494 0.000325638 0.000325538 0.000325439 0.000325686 0.000325368 0.000325493 0.000325591 0.000325512 0.000325456 0.00032568 0.000325352 0.000325523 0.000325579 0.000325461 0.00032547 0.000332728 0.000321965 0.000339909 0.000339909 0.000317788 0.000314444 0.000331919 0.000322197 0.000333859 0.000337413 0.000322052 0.00031651 0.000331533 0.000322606 0.000329944 0.000335692 0.000324715 0.000317893 0.000330334 0.000322565 0.000327732 0.000334524 0.00032507 0.000318504 0.000329771 0.00032274 0.000327132 0.000333695 0.000325294 0.000319014 0.000329514 0.000322445 0.000326764 0.000333077 0.000325413 0.000319261 0.000329537 0.000322641 0.000326524 0.000332762 0.000325532 0.000319826 0.000329319 0.000322838 0.000326362 0.000332155 0.000325617 0.000320343 0.000329085 0.000323043 0.000326222 0.000331576 0.000325682 0.000320837 0.000328841 0.00032323 0.000326102 0.000331018 0.000325728 0.00032129 0.000328594 0.000323421 0.00032601 0.00033051 0.000325761 0.000321712 0.000328366 0.000323607 0.000325928 0.00033003 0.000325777 0.000322103 0.00032813 0.000323771 0.000325856 0.000329575 0.000325787 0.000322477 0.000327913 0.000323939 0.000325799 0.000329147 0.000325792 0.000322821 0.000327696 0.000324094 0.000325744 0.000328746 0.000325791 0.000323137 0.000327489 0.000324241 0.000325694 0.000328372 0.000325788 0.000323434 0.000327293 0.000324383 0.000325654 0.000328027 0.000325788 0.000323712 0.000327099 0.000324515 0.000325612 0.000327703 0.000325789 0.000323964 0.000326924 0.000324637 0.000325565 0.0003274 0.000325777 0.000324202 0.000326745 0.000324754 0.000325534 0.000327117 0.000325772 0.000324417 0.000326596 0.000324858 0.000325502 0.000326862 0.000325754 0.000324615 0.000326443 0.000324951 0.000325477 0.00032662 0.000325751 0.000324797 0.000326304 0.00032505 0.000325459 0.000326416 0.000325741 0.00032496 0.000326176 0.000325125 0.000325439 0.000326221 0.000325728 0.000325099 0.000326067 0.000325198 0.000325427 0.000326057 0.000325713 0.000325219 0.000325965 0.000325263 0.000325416 0.000325909 0.000325705 0.000325317 0.000325871 0.000325308 0.000325408 0.000325796 0.000325685 0.000325397 0.000325796 0.00032535 0.000325409 0.000325697 0.000325659 0.000325454 0.000325727 0.000325375 0.000325409 0.000325614 0.000325638 0.000325493 0.000325681 0.000325384 0.000325422 0.000325567 0.000325606 0.000325509 0.000325668 0.00032537 0.000325439 0.000325535 0.000325562 0.000325493 0.000325676 0.000325328 0.000325491 0.000325559 0.000325485 0.000325462 0.000333176 0.000321557 0.000342961 0.000342961 0.000314793 0.000311864 0.000332743 0.000322269 0.000336525 0.000339693 0.000320272 0.000315282 0.000332599 0.000322839 0.000331905 0.000337159 0.000324155 0.000318329 0.000331099 0.000322512 0.000328868 0.000334684 0.000324908 0.000319102 0.00033038 0.000322949 0.000327871 0.000333681 0.000325423 0.000319801 0.000329974 0.000323129 0.000327222 0.000332874 0.000325742 0.000320365 0.000329705 0.000323067 0.000326779 0.000332204 0.000325956 0.000320772 0.000329558 0.00032322 0.000326449 0.000331702 0.000326083 0.000321268 0.000329289 0.000323382 0.000326221 0.0003311 0.000326175 0.000321726 0.000329028 0.00032354 0.000326048 0.000330553 0.000326228 0.000322142 0.000328759 0.000323706 0.000325908 0.000330041 0.000326252 0.000322519 0.000328505 0.000323852 0.000325791 0.000329564 0.000326263 0.000322878 0.000328249 0.000324007 0.000325709 0.000329127 0.000326262 0.000323194 0.000328001 0.000324144 0.000325621 0.000328714 0.000326245 0.000323492 0.000327772 0.000324289 0.00032556 0.000328334 0.000326233 0.000323774 0.000327546 0.000324414 0.000325503 0.000327978 0.000326205 0.00032402 0.00032733 0.000324543 0.000325455 0.000327652 0.00032618 0.000324257 0.000327126 0.000324661 0.000325413 0.000327345 0.000326147 0.000324477 0.000326934 0.000324767 0.00032538 0.000327056 0.000326126 0.000324668 0.000326747 0.000324876 0.000325339 0.000326801 0.000326088 0.000324844 0.00032658 0.000324966 0.000325312 0.000326559 0.000326062 0.000325006 0.000326419 0.000325063 0.00032529 0.000326347 0.000326032 0.000325149 0.000326264 0.000325142 0.000325274 0.000326157 0.000325988 0.000325272 0.000326145 0.000325217 0.00032527 0.000325987 0.000325956 0.000325379 0.000326019 0.000325274 0.00032526 0.000325837 0.000325915 0.000325463 0.000325906 0.000325323 0.000325264 0.000325715 0.000325873 0.000325529 0.000325814 0.000325369 0.000325276 0.00032562 0.000325834 0.000325576 0.000325746 0.000325403 0.000325293 0.00032555 0.000325791 0.000325611 0.000325678 0.000325417 0.000325318 0.000325497 0.000325736 0.000325607 0.000325644 0.000325422 0.000325343 0.000325471 0.000325681 0.000325591 0.000325619 0.000325401 0.000325385 0.000325473 0.000325629 0.000325561 0.000325632 0.000325336 0.000325436 0.000325505 0.000325521 0.000325473 0.000330804 0.000321562 0.000344477 0.000344477 0.000312444 0.000309292 0.00033252 0.000322086 0.000338151 0.000341575 0.00031839 0.000313467 0.000333476 0.000322577 0.000333475 0.000338769 0.000322914 0.00031766 0.00033226 0.000322262 0.000330178 0.000335461 0.000324332 0.000319169 0.000331448 0.000322834 0.000328801 0.000334013 0.000325214 0.000320287 0.000330867 0.000323169 0.000327876 0.00033287 0.000325809 0.000321126 0.000330409 0.000323376 0.000327193 0.000331947 0.000326204 0.000321766 0.000330025 0.000323461 0.000326677 0.000331182 0.000326482 0.000322251 0.000329695 0.000323617 0.00032627 0.000330565 0.000326619 0.000322695 0.000329355 0.000323767 0.000326011 0.000329988 0.000326698 0.000323088 0.00032903 0.000323913 0.000325819 0.000329469 0.000326728 0.000323425 0.000328721 0.00032405 0.000325675 0.000329008 0.000326738 0.000323734 0.000328427 0.000324196 0.000325561 0.000328588 0.000326719 0.000324006 0.000328146 0.000324327 0.00032547 0.000328198 0.000326696 0.000324249 0.000327872 0.000324453 0.000325385 0.000327844 0.000326659 0.00032447 0.000327621 0.000324579 0.000325318 0.000327514 0.000326617 0.000324676 0.000327385 0.000324697 0.00032527 0.000327215 0.000326572 0.000324863 0.000327152 0.000324811 0.000325212 0.000326924 0.000326525 0.000325038 0.000326937 0.000324918 0.000325178 0.000326665 0.000326473 0.000325182 0.00032674 0.000325003 0.000325138 0.000326429 0.000326414 0.000325325 0.000326555 0.000325094 0.000325124 0.000326212 0.000326364 0.000325441 0.000326371 0.000325182 0.000325102 0.000326023 0.000326313 0.000325545 0.000326218 0.00032526 0.000325087 0.000325855 0.000326252 0.000325632 0.000326068 0.000325321 0.000325088 0.000325707 0.000326199 0.000325703 0.000325946 0.000325375 0.000325087 0.000325582 0.000326136 0.000325751 0.000325838 0.00032542 0.0003251 0.000325484 0.000326065 0.00032579 0.000325743 0.000325454 0.000325133 0.000325407 0.000325993 0.000325799 0.000325653 0.000325472 0.000325165 0.000325359 0.000325926 0.000325787 0.000325599 0.000325484 0.000325201 0.000325339 0.000325846 0.000325761 0.000325568 0.00032547 0.000325265 0.00032535 0.000325772 0.000325705 0.00032556 0.000325445 0.000325326 0.000325393 0.000325679 0.000325629 0.00032559 0.000325385 0.000325394 0.000325444 0.00032558 0.000325533 0.000327187 0.000303813 0.000315357 0.000315357 0.000321576 0.000315791 0.000334576 0.000311889 0.000326701 0.000333029 0.000320698 0.000313831 0.000332088 0.000315266 0.000326861 0.000334293 0.000320213 0.000313267 0.000330727 0.000317094 0.000327266 0.000334748 0.000319993 0.000313258 0.00033012 0.000318243 0.000327557 0.000334792 0.000320112 0.000313659 0.000329779 0.000318929 0.000327645 0.000334514 0.000320371 0.000314273 0.00032952 0.000319472 0.000327657 0.000334099 0.000320683 0.000314986 0.000329274 0.000319965 0.000327622 0.000333603 0.00032101 0.00031574 0.000329035 0.000320423 0.000327566 0.000333069 0.000321346 0.000316498 0.000328782 0.000320868 0.00032749 0.000332526 0.000321683 0.00031726 0.000328541 0.0003213 0.000327401 0.000331977 0.000322008 0.000317998 0.000328294 0.000321711 0.000327297 0.000331429 0.000322323 0.000318706 0.000328049 0.000322104 0.000327194 0.000330908 0.000322625 0.000319374 0.000327813 0.000322466 0.000327065 0.000330393 0.000322906 0.000320013 0.000327585 0.000322824 0.000326954 0.000329908 0.000323178 0.000320614 0.000327364 0.000323143 0.000326842 0.000329453 0.000323431 0.000321176 0.000327163 0.000323456 0.000326731 0.000329022 0.00032367 0.000321695 0.000326966 0.000323736 0.000326613 0.000328617 0.000323881 0.000322169 0.000326784 0.000323994 0.000326502 0.000328236 0.000324099 0.000322631 0.000326612 0.000324231 0.000326394 0.000327878 0.000324297 0.000323046 0.000326458 0.000324449 0.000326293 0.000327555 0.000324473 0.000323427 0.000326309 0.000324647 0.00032619 0.000327244 0.000324635 0.000323774 0.000326182 0.000324816 0.000326089 0.000326956 0.000324794 0.000324087 0.000326059 0.000324966 0.000325998 0.000326709 0.000324933 0.000324372 0.000325951 0.000325101 0.000325913 0.000326477 0.000325065 0.00032462 0.000325855 0.000325223 0.000325821 0.000326267 0.000325186 0.00032485 0.000325783 0.000325315 0.000325747 0.000326083 0.000325293 0.000325048 0.000325709 0.000325381 0.000325676 0.000325921 0.000325379 0.000325207 0.000325661 0.000325441 0.000325615 0.000325787 0.000325458 0.000325342 0.000325606 0.000325485 0.000325563 0.000325679 0.000325515 0.000325439 0.000325575 0.000325502 0.000325525 0.0003256 0.00032554 0.000325493 0.000325536 0.000325504 0.000325502 0.000325549 0.000325541 0.000325517 0.000328691 0.000317951 0.000321603 0.000321603 0.000329846 0.000324645 0.000327478 0.000312559 0.000321688 0.000326848 0.000320137 0.00031332 0.00033226 0.000315506 0.000327466 0.000334742 0.000320512 0.000313208 0.000330883 0.000317382 0.000327387 0.000335153 0.000320675 0.000313314 0.000330202 0.000318697 0.000327361 0.000335175 0.000321143 0.00031397 0.000329779 0.000319462 0.000327232 0.000334785 0.0003215 0.000314744 0.00032946 0.000320028 0.000327176 0.000334245 0.000321813 0.00031553 0.000329187 0.000320519 0.000327128 0.000333667 0.000322106 0.000316326 0.000328927 0.000320955 0.000327079 0.00033307 0.000322373 0.000317087 0.000328678 0.000321368 0.000327024 0.000332482 0.000322621 0.000317824 0.000328432 0.000321759 0.000326965 0.000331904 0.000322869 0.000318523 0.000328197 0.00032212 0.000326886 0.000331348 0.000323094 0.000319191 0.000327968 0.000322469 0.000326815 0.000330812 0.000323307 0.00031982 0.000327751 0.000322785 0.000326738 0.0003303 0.000323521 0.000320406 0.000327537 0.000323097 0.000326654 0.00032983 0.00032372 0.000320959 0.000327336 0.000323385 0.000326576 0.000329385 0.000323902 0.000321473 0.000327142 0.000323647 0.000326493 0.000328959 0.000324075 0.000321949 0.000326959 0.000323883 0.000326405 0.00032856 0.000324233 0.000322393 0.000326801 0.000324119 0.000326324 0.000328187 0.0003244 0.000322814 0.000326632 0.000324318 0.000326243 0.000327844 0.000324536 0.000323189 0.000326487 0.000324508 0.000326168 0.000327528 0.000324672 0.00032354 0.000326355 0.000324678 0.000326088 0.000327229 0.000324797 0.000323857 0.00032623 0.000324828 0.000326013 0.00032696 0.000324921 0.000324156 0.00032611 0.000324965 0.000325932 0.000326701 0.000325025 0.000324407 0.000326004 0.000325086 0.00032587 0.000326491 0.000325123 0.000324643 0.000325916 0.000325181 0.000325804 0.000326285 0.000325215 0.000324852 0.000325841 0.000325269 0.000325737 0.000326101 0.000325306 0.000325041 0.000325772 0.00032534 0.000325686 0.000325951 0.000325374 0.000325186 0.000325718 0.000325387 0.000325623 0.000325811 0.000325433 0.000325306 0.000325663 0.000325438 0.000325583 0.000325709 0.000325482 0.0003254 0.000325625 0.000325468 0.000325552 0.000325633 0.000325518 0.000325483 0.00032558 0.000325488 0.000325526 0.000325561 0.000325522 0.000325522 0.000329608 0.000319689 0.000326552 0.000326552 0.000326708 0.000322188 0.000328846 0.000320258 0.000324819 0.000329371 0.000325867 0.000319292 0.000328055 0.000316716 0.000324449 0.000331102 0.000321255 0.000313529 0.000330516 0.000318276 0.00032723 0.000335331 0.000321568 0.000313618 0.000329894 0.000319586 0.000326984 0.000335344 0.000322274 0.000314598 0.000329552 0.000320253 0.000326783 0.000334792 0.000322673 0.000315493 0.000329278 0.00032076 0.000326712 0.000334161 0.00032294 0.000316319 0.000329025 0.00032118 0.000326677 0.00033352 0.000323156 0.00031709 0.00032879 0.000321558 0.000326645 0.000332896 0.000323341 0.00031782 0.000328558 0.000321916 0.000326614 0.000332288 0.000323519 0.000318503 0.000328332 0.000322244 0.000326573 0.000331716 0.000323674 0.000319145 0.000328113 0.000322552 0.000326522 0.000331155 0.000323834 0.000319756 0.000327899 0.000322844 0.000326479 0.000330642 0.000323976 0.000320325 0.000327701 0.000323119 0.000326428 0.000330148 0.000324116 0.000320865 0.000327496 0.000323374 0.000326371 0.000329678 0.000324246 0.000321359 0.00032731 0.000323623 0.000326317 0.000329249 0.000324375 0.000321821 0.000327137 0.00032384 0.00032625 0.000328838 0.000324484 0.00032226 0.000326962 0.000324045 0.000326195 0.000328446 0.000324595 0.00032266 0.000326808 0.000324239 0.000326135 0.000328091 0.000324714 0.000323044 0.000326655 0.000324423 0.000326074 0.00032776 0.000324811 0.000323387 0.000326508 0.000324582 0.000326019 0.000327456 0.0003249 0.000323698 0.000326381 0.000324727 0.000325958 0.000327169 0.000324993 0.000323991 0.000326261 0.000324863 0.000325898 0.000326906 0.000325079 0.000324262 0.000326144 0.000324971 0.000325847 0.000326669 0.000325149 0.000324491 0.000326043 0.000325085 0.000325792 0.000326452 0.00032522 0.000324706 0.000325958 0.000325178 0.000325746 0.000326261 0.00032529 0.000324907 0.000325878 0.00032525 0.000325699 0.000326083 0.000325354 0.000325058 0.000325804 0.000325315 0.000325649 0.000325946 0.0003254 0.000325196 0.000325752 0.000325351 0.00032561 0.000325815 0.000325445 0.000325307 0.000325707 0.000325392 0.000325579 0.000325717 0.000325472 0.000325398 0.000325666 0.000325418 0.00032556 0.000325633 0.000325491 0.000325457 0.000325633 0.000325438 0.000325547 0.00032558 0.000325492 0.000325516 0.000330496 0.000321036 0.000331011 0.000331011 0.000324018 0.000319792 0.000329824 0.000321076 0.000327682 0.000332009 0.000324931 0.000318428 0.000328971 0.00032156 0.000326006 0.000332637 0.000324994 0.000317517 0.000327849 0.000319389 0.000325446 0.000333039 0.000322491 0.000313999 0.000329576 0.000320713 0.000326665 0.000335542 0.000323439 0.0003155 0.000329407 0.00032117 0.000326508 0.000334717 0.000323784 0.000316458 0.000329192 0.000321541 0.000326442 0.000333985 0.000323984 0.000317259 0.000328966 0.000321873 0.000326392 0.000333299 0.000324124 0.000317972 0.000328743 0.000322174 0.000326354 0.000332659 0.000324243 0.000318646 0.00032852 0.000322452 0.000326323 0.000332049 0.000324338 0.00031926 0.000328307 0.000322727 0.000326286 0.000331472 0.000324441 0.000319849 0.000328096 0.000322975 0.000326251 0.000330933 0.000324531 0.00032039 0.000327893 0.00032322 0.000326213 0.000330428 0.000324614 0.000320903 0.0003277 0.000323445 0.000326171 0.000329944 0.000324699 0.000321383 0.00032751 0.000323657 0.000326132 0.000329498 0.000324768 0.000321833 0.000327327 0.00032386 0.000326087 0.000329062 0.000324843 0.000322248 0.000327138 0.00032404 0.000326033 0.00032866 0.00032492 0.000322633 0.000326976 0.000324218 0.000325986 0.000328297 0.00032498 0.000322999 0.000326824 0.000324378 0.000325949 0.00032795 0.000325048 0.000323332 0.000326674 0.00032453 0.000325899 0.00032763 0.000325108 0.000323647 0.000326536 0.000324675 0.000325861 0.000327333 0.000325163 0.000323929 0.000326403 0.00032479 0.000325821 0.000327063 0.000325212 0.000324187 0.000326286 0.000324913 0.000325776 0.000326806 0.000325276 0.000324429 0.000326167 0.000325016 0.000325736 0.000326586 0.000325313 0.000324633 0.000326068 0.000325103 0.000325699 0.000326382 0.000325354 0.000324821 0.000325975 0.000325182 0.000325662 0.000326196 0.000325394 0.000324989 0.000325901 0.000325251 0.000325632 0.000326037 0.00032543 0.000325133 0.000325821 0.000325307 0.000325591 0.000325889 0.000325462 0.000325247 0.000325767 0.000325345 0.000325564 0.000325779 0.000325486 0.000325336 0.000325717 0.00032537 0.000325547 0.000325698 0.000325499 0.000325401 0.000325693 0.000325386 0.000325538 0.000325636 0.000325492 0.000325447 0.000325669 0.000325396 0.000325544 0.000325589 0.000325482 0.000325494 0.000331476 0.000321853 0.000335261 0.000335261 0.000321336 0.000317494 0.00033069 0.000321742 0.000330578 0.000334585 0.000323737 0.000317613 0.000329771 0.000322175 0.000327868 0.000334184 0.000324969 0.000317714 0.000328862 0.000322438 0.000326423 0.000333845 0.000324798 0.00031689 0.000328856 0.000321864 0.000326373 0.000334365 0.000324519 0.00031675 0.00032946 0.000321985 0.000326439 0.000334399 0.0003247 0.000317585 0.00032927 0.000322218 0.000326365 0.000333644 0.000324828 0.000318309 0.000329061 0.000322456 0.000326296 0.000332957 0.00032492 0.00031896 0.000328839 0.000322693 0.000326226 0.000332308 0.000324997 0.000319562 0.000328616 0.000322923 0.000326172 0.000331709 0.000325055 0.000320113 0.000328389 0.000323138 0.00032612 0.000331148 0.000325108 0.000320635 0.000328175 0.000323345 0.000326074 0.00033062 0.000325151 0.000321115 0.00032796 0.000323542 0.000326025 0.000330122 0.000325193 0.000321569 0.000327765 0.000323728 0.000325981 0.000329655 0.000325235 0.000321996 0.000327568 0.000323911 0.000325943 0.000329222 0.000325273 0.000322387 0.000327377 0.000324074 0.000325895 0.000328813 0.000325303 0.000322752 0.000327201 0.000324235 0.000325859 0.000328436 0.000325332 0.000323095 0.000327024 0.000324379 0.000325818 0.000328075 0.000325363 0.000323411 0.000326853 0.00032452 0.00032578 0.000327748 0.000325392 0.000323704 0.000326701 0.000324648 0.000325739 0.000327438 0.00032542 0.00032397 0.000326558 0.000324767 0.000325699 0.000327158 0.000325439 0.000324223 0.00032642 0.000324877 0.000325665 0.000326888 0.000325458 0.000324443 0.000326291 0.000324973 0.000325641 0.00032666 0.000325483 0.000324645 0.000326186 0.000325071 0.000325608 0.000326448 0.000325501 0.000324833 0.000326073 0.00032514 0.00032558 0.00032625 0.000325509 0.000324988 0.000325977 0.00032521 0.000325558 0.00032608 0.000325523 0.000325117 0.000325892 0.00032527 0.000325537 0.000325943 0.000325539 0.000325237 0.000325823 0.000325315 0.000325515 0.000325817 0.000325545 0.00032533 0.000325761 0.000325344 0.000325503 0.000325717 0.000325548 0.000325402 0.000325707 0.000325366 0.000325495 0.000325641 0.000325535 0.000325439 0.000325686 0.000325366 0.000325499 0.000325596 0.000325521 0.000325464 0.000325693 0.000325348 0.00032553 0.000325586 0.000325472 0.000325466 0.000332567 0.000322032 0.000339247 0.000339247 0.000318386 0.000315033 0.000331604 0.00032215 0.000333467 0.000337023 0.000322161 0.000316622 0.000330604 0.000322601 0.000329836 0.000335607 0.000324335 0.000317665 0.000329919 0.00032294 0.000327703 0.000334557 0.000325271 0.000318064 0.00032945 0.00032311 0.000326834 0.000334101 0.000325385 0.000318603 0.000329269 0.000322539 0.000326526 0.000333377 0.000325358 0.000318762 0.000329419 0.000322707 0.000326412 0.000333124 0.000325458 0.000319391 0.000329217 0.000322895 0.000326286 0.000332458 0.00032554 0.000319978 0.00032899 0.000323081 0.00032617 0.000331824 0.000325601 0.000320521 0.000328748 0.000323269 0.000326078 0.000331238 0.00032564 0.000321014 0.000328516 0.000323453 0.000325994 0.000330688 0.000325666 0.00032147 0.00032828 0.000323634 0.000325925 0.000330178 0.000325691 0.000321892 0.000328059 0.000323799 0.000325862 0.000329707 0.000325701 0.000322284 0.000327841 0.000323957 0.000325807 0.000329262 0.000325716 0.000322656 0.00032763 0.000324118 0.000325761 0.000328851 0.000325725 0.000322996 0.00032743 0.000324261 0.000325707 0.000328459 0.00032573 0.000323313 0.000327237 0.000324393 0.000325667 0.000328103 0.000325725 0.000323604 0.000327058 0.000324525 0.000325633 0.000327769 0.000325724 0.000323878 0.000326883 0.000324655 0.000325596 0.000327453 0.000325723 0.000324126 0.000326713 0.000324762 0.00032556 0.000327166 0.00032572 0.000324355 0.000326556 0.000324864 0.000325531 0.000326902 0.00032572 0.000324555 0.000326414 0.000324968 0.000325493 0.000326662 0.000325721 0.000324747 0.000326277 0.000325058 0.000325475 0.000326451 0.000325707 0.000324913 0.000326159 0.000325128 0.000325457 0.000326252 0.000325706 0.000325063 0.000326046 0.0003252 0.000325441 0.000326084 0.000325692 0.000325188 0.000325944 0.000325262 0.000325428 0.000325934 0.000325681 0.000325298 0.000325864 0.000325313 0.000325428 0.000325811 0.000325668 0.000325376 0.000325796 0.000325345 0.000325413 0.000325704 0.000325653 0.000325449 0.000325731 0.000325378 0.000325423 0.000325627 0.000325635 0.000325492 0.000325691 0.00032539 0.000325426 0.000325569 0.000325601 0.000325508 0.000325665 0.000325372 0.000325451 0.000325543 0.000325559 0.000325499 0.000325691 0.000325331 0.000325496 0.000325555 0.000325493 0.000325461 0.000333134 0.000321609 0.000342599 0.000342599 0.000315273 0.00031236 0.000332445 0.000322211 0.000336262 0.000339405 0.000320324 0.000315373 0.000331534 0.000322781 0.000331878 0.000337111 0.000323382 0.000317415 0.000331008 0.000323152 0.000329154 0.000335341 0.000325181 0.000318921 0.00033027 0.000323176 0.000327656 0.000333975 0.000325601 0.000319619 0.000329853 0.000323268 0.00032703 0.000333069 0.00032584 0.000320185 0.000329596 0.000323109 0.000326632 0.000332351 0.000325954 0.000320533 0.000329488 0.000323254 0.000326362 0.000331866 0.000326057 0.000321059 0.000329225 0.000323408 0.000326174 0.000331246 0.000326128 0.000321548 0.000328961 0.000323577 0.000326024 0.000330668 0.00032617 0.000321979 0.000328691 0.000323728 0.000325898 0.000330142 0.00032619 0.00032238 0.000328433 0.000323882 0.000325798 0.000329651 0.000326192 0.000322741 0.000328183 0.000324031 0.000325716 0.000329201 0.000326193 0.000323078 0.000327942 0.000324173 0.000325642 0.000328784 0.000326181 0.000323383 0.000327706 0.000324314 0.000325579 0.000328398 0.000326163 0.00032367 0.000327489 0.000324435 0.000325529 0.000328038 0.000326144 0.000323932 0.000327276 0.00032456 0.000325484 0.000327707 0.000326119 0.000324171 0.00032708 0.000324682 0.000325432 0.00032739 0.0003261 0.000324399 0.000326892 0.000324786 0.000325397 0.000327105 0.000326067 0.000324605 0.000326708 0.000324893 0.000325369 0.000326836 0.000326043 0.000324785 0.000326546 0.000324989 0.00032534 0.0003266 0.000326011 0.000324953 0.000326392 0.000325072 0.000325318 0.000326378 0.000325992 0.000325109 0.000326249 0.000325154 0.000325302 0.000326186 0.000325955 0.000325234 0.00032612 0.000325221 0.00032529 0.000326012 0.000325923 0.00032535 0.000326004 0.000325279 0.000325285 0.000325858 0.000325884 0.000325441 0.000325897 0.00032533 0.000325285 0.000325728 0.000325845 0.000325505 0.00032581 0.000325369 0.000325292 0.000325633 0.000325806 0.000325559 0.000325738 0.000325394 0.00032531 0.000325557 0.000325777 0.000325591 0.000325685 0.000325422 0.000325324 0.00032551 0.000325729 0.000325604 0.000325648 0.000325423 0.000325356 0.000325481 0.000325688 0.000325599 0.000325631 0.000325407 0.000325389 0.000325479 0.000325621 0.000325558 0.000325646 0.000325332 0.000325444 0.000325506 0.000325527 0.000325477 0.000331479 0.000321341 0.000344572 0.000344572 0.000312471 0.000309456 0.000332475 0.000321953 0.000338287 0.000341575 0.000318237 0.000313502 0.000332601 0.000322496 0.000333733 0.000338814 0.000322 0.000316696 0.000332317 0.000322905 0.000330746 0.000336351 0.000324466 0.000319207 0.000331484 0.000322935 0.000328808 0.000334131 0.000325371 0.000320371 0.000330848 0.000323245 0.000327809 0.000332881 0.000325913 0.000321196 0.00033035 0.000323434 0.000327127 0.000331921 0.000326258 0.000321816 0.000329945 0.000323497 0.000326625 0.000331142 0.000326493 0.000322252 0.000329617 0.000323659 0.000326226 0.000330542 0.000326606 0.000322684 0.000329275 0.000323806 0.000325984 0.000329968 0.000326662 0.000323063 0.000328952 0.000323958 0.000325812 0.00032946 0.000326688 0.000323401 0.000328644 0.000324089 0.000325672 0.000328997 0.000326677 0.00032369 0.000328349 0.000324228 0.000325568 0.000328584 0.000326659 0.000323958 0.00032807 0.000324358 0.000325477 0.000328199 0.000326632 0.0003242 0.000327812 0.000324485 0.000325403 0.00032785 0.000326592 0.000324421 0.000327559 0.000324601 0.000325345 0.000327526 0.000326547 0.000324624 0.00032733 0.000324725 0.000325289 0.000327219 0.000326506 0.000324811 0.000327099 0.000324826 0.000325243 0.000326942 0.000326466 0.000324986 0.000326891 0.000324926 0.0003252 0.000326682 0.000326416 0.000325143 0.0003267 0.000325025 0.000325172 0.000326447 0.000326361 0.000325274 0.000326518 0.000325115 0.000325144 0.000326231 0.000326319 0.000325399 0.000326349 0.000325193 0.000325119 0.000326038 0.000326266 0.000325507 0.000326193 0.000325264 0.000325112 0.00032587 0.000326211 0.000325597 0.000326053 0.000325333 0.000325109 0.000325721 0.000326162 0.000325667 0.000325926 0.000325379 0.000325104 0.000325598 0.000326097 0.00032572 0.000325816 0.000325427 0.000325112 0.000325489 0.000326039 0.000325752 0.000325731 0.000325466 0.000325143 0.000325429 0.000325984 0.000325778 0.000325661 0.000325487 0.000325168 0.000325374 0.000325915 0.000325774 0.000325602 0.000325483 0.000325216 0.000325356 0.000325843 0.000325747 0.000325575 0.000325472 0.000325263 0.000325359 0.000325764 0.000325695 0.000325577 0.000325445 0.000325327 0.000325395 0.000325686 0.000325629 0.00032559 0.000325383 0.000325394 0.00032545 0.000325586 0.000325531 0.000327574 0.000302377 0.000314723 0.000314723 0.000321427 0.000315625 0.000335078 0.000311592 0.000327005 0.000333156 0.000320468 0.000313784 0.000332245 0.000315135 0.000327101 0.000334241 0.000320017 0.000313294 0.000330813 0.000316964 0.000327427 0.000334612 0.000319858 0.000313325 0.000330008 0.000318098 0.000327672 0.00033464 0.000319879 0.000313655 0.000329591 0.000318897 0.000327804 0.000334427 0.000320093 0.000314203 0.000329317 0.000319475 0.000327816 0.000334049 0.000320396 0.000314874 0.000329084 0.000319974 0.000327773 0.000333585 0.000320737 0.000315611 0.000328867 0.00032044 0.000327703 0.000333071 0.000321095 0.000316368 0.000328645 0.000320887 0.000327607 0.000332534 0.000321446 0.000317114 0.00032842 0.000321315 0.000327498 0.000331994 0.000321794 0.000317852 0.00032819 0.000321716 0.000327383 0.000331457 0.000322127 0.000318564 0.000327974 0.00032211 0.00032727 0.00033094 0.000322456 0.000319246 0.00032775 0.000322481 0.000327146 0.000330442 0.000322755 0.000319886 0.000327528 0.00032282 0.000327018 0.000329954 0.000323042 0.000320496 0.000327329 0.000323154 0.000326903 0.000329502 0.000323307 0.00032106 0.000327128 0.000323459 0.000326778 0.000329065 0.000323568 0.000321595 0.000326939 0.000323745 0.000326665 0.000328669 0.000323797 0.000322084 0.000326765 0.000324003 0.000326546 0.000328282 0.000324016 0.000322543 0.000326595 0.00032423 0.000326428 0.00032792 0.000324215 0.000322963 0.000326446 0.000324456 0.000326329 0.000327595 0.000324412 0.000323351 0.000326295 0.000324649 0.000326217 0.000327287 0.000324584 0.000323706 0.000326172 0.000324825 0.000326121 0.000327006 0.000324744 0.000324037 0.000326054 0.000324971 0.000326026 0.000326737 0.000324891 0.000324316 0.000325953 0.000325111 0.000325933 0.000326511 0.000325025 0.00032458 0.000325853 0.000325223 0.000325848 0.000326295 0.00032515 0.00032481 0.000325769 0.000325315 0.000325766 0.000326107 0.000325257 0.000325001 0.000325717 0.000325391 0.000325685 0.000325942 0.000325361 0.000325177 0.000325654 0.000325437 0.000325624 0.000325809 0.000325437 0.000325308 0.000325609 0.000325479 0.000325567 0.000325696 0.000325499 0.000325414 0.000325587 0.000325503 0.000325527 0.000325612 0.000325546 0.000325489 0.000325556 0.000325502 0.000325501 0.000325558 0.000325556 0.000325511 0.000328823 0.000317263 0.000321048 0.000321048 0.000330159 0.000325116 0.000327531 0.00031188 0.000321446 0.000326439 0.000319609 0.000313191 0.000332526 0.00031526 0.000327788 0.000334615 0.000320196 0.000313366 0.000331137 0.000317221 0.000327665 0.000334912 0.000320463 0.000313527 0.000330215 0.000318472 0.000327593 0.000334927 0.000320692 0.000313934 0.000329713 0.000319365 0.000327554 0.000334679 0.000321063 0.000314585 0.000329374 0.000319981 0.000327442 0.000334236 0.000321407 0.000315337 0.000329097 0.000320482 0.000327356 0.000333691 0.000321729 0.000316108 0.000328846 0.000320928 0.000327272 0.000333113 0.000322039 0.000316871 0.00032861 0.000321338 0.000327183 0.000332533 0.000322333 0.000317616 0.000328381 0.000321725 0.000327097 0.000331962 0.000322613 0.000318338 0.000328156 0.000322092 0.000327012 0.000331408 0.000322873 0.000319013 0.000327932 0.000322438 0.000326918 0.000330876 0.000323122 0.000319659 0.000327722 0.000322764 0.000326827 0.000330369 0.000323353 0.000320265 0.000327512 0.000323073 0.000326736 0.000329887 0.000323573 0.000320827 0.000327317 0.00032336 0.000326641 0.000329437 0.000323778 0.000321355 0.000327129 0.000323624 0.000326549 0.000329012 0.000323969 0.000321847 0.000326956 0.000323873 0.000326459 0.000328612 0.000324143 0.000322302 0.000326779 0.000324097 0.000326368 0.000328232 0.000324314 0.000322728 0.000326628 0.000324308 0.000326284 0.000327886 0.000324474 0.000323115 0.000326483 0.000324502 0.000326196 0.000327568 0.000324617 0.000323473 0.000326344 0.000324672 0.000326114 0.000327267 0.00032475 0.0003238 0.000326222 0.000324824 0.000326039 0.000326996 0.000324875 0.000324096 0.000326104 0.000324966 0.000325964 0.000326747 0.000324995 0.000324372 0.000326009 0.000325083 0.000325887 0.000326513 0.000325103 0.000324606 0.00032592 0.000325187 0.000325815 0.000326314 0.000325192 0.000324817 0.000325837 0.000325282 0.000325753 0.000326129 0.000325285 0.000325005 0.000325767 0.000325332 0.000325689 0.000325969 0.000325364 0.000325157 0.000325712 0.0003254 0.000325638 0.000325845 0.00032543 0.000325288 0.00032567 0.000325444 0.000325583 0.000325725 0.000325486 0.000325398 0.000325634 0.000325457 0.000325555 0.000325643 0.000325516 0.000325468 0.000325593 0.000325474 0.000325523 0.00032557 0.000325529 0.00032552 0.000329563 0.000319313 0.000325936 0.000325936 0.000326996 0.000322655 0.000328746 0.000319927 0.000324545 0.000328904 0.000325889 0.000319635 0.000327926 0.00031631 0.00032435 0.000330685 0.000320798 0.000313643 0.000330903 0.000318033 0.000327498 0.000335027 0.000321323 0.00031402 0.000330059 0.000319193 0.000327307 0.000334964 0.000321663 0.000314502 0.000329605 0.00032008 0.000327191 0.000334681 0.000322119 0.000315252 0.000329273 0.000320635 0.000327021 0.000334166 0.000322464 0.000316039 0.000329009 0.000321092 0.000326921 0.000333579 0.000322746 0.000316815 0.000328766 0.00032148 0.000326844 0.000332967 0.000322982 0.000317555 0.000328533 0.000321841 0.000326782 0.000332368 0.00032321 0.000318268 0.000328317 0.000322173 0.000326715 0.000331787 0.000323412 0.000318937 0.000328097 0.00032249 0.000326651 0.000331232 0.000323599 0.00031957 0.000327893 0.000322786 0.000326591 0.000330707 0.000323772 0.000320158 0.000327689 0.000323067 0.000326525 0.00033021 0.000323942 0.000320712 0.000327489 0.000323332 0.000326446 0.000329733 0.000324092 0.000321227 0.000327306 0.000323573 0.000326385 0.000329296 0.000324237 0.000321713 0.000327132 0.0003238 0.000326316 0.000328876 0.000324371 0.00032216 0.000326962 0.000324018 0.000326254 0.000328494 0.000324508 0.000322581 0.000326799 0.000324219 0.000326188 0.000328137 0.000324625 0.000322962 0.000326643 0.0003244 0.000326114 0.000327793 0.000324741 0.000323318 0.000326511 0.000324563 0.000326056 0.000327492 0.000324848 0.000323646 0.000326377 0.000324717 0.000325991 0.000327202 0.000324946 0.000323941 0.000326252 0.000324852 0.000325933 0.000326945 0.000325034 0.000324214 0.000326151 0.000324976 0.000325881 0.000326705 0.000325116 0.000324456 0.000326045 0.000325083 0.00032582 0.000326483 0.000325205 0.00032468 0.000325954 0.000325169 0.000325762 0.000326289 0.000325274 0.000324872 0.000325871 0.000325249 0.000325707 0.00032611 0.000325332 0.000325039 0.000325812 0.000325316 0.000325664 0.000325958 0.000325394 0.000325181 0.000325759 0.000325369 0.000325616 0.000325828 0.000325444 0.000325295 0.000325711 0.000325395 0.000325585 0.000325734 0.000325482 0.000325386 0.000325669 0.000325425 0.000325558 0.000325653 0.000325503 0.000325454 0.000325648 0.000325436 0.000325539 0.000325588 0.000325507 0.000325506 0.00033016 0.000320812 0.000330273 0.000330273 0.000324341 0.000320223 0.000329532 0.000320853 0.00032732 0.000331518 0.000324926 0.000318665 0.000328686 0.000321359 0.000325875 0.000332252 0.000324803 0.000317705 0.000328206 0.000319144 0.000325433 0.000332664 0.000322352 0.000314715 0.000329749 0.000320104 0.000326974 0.000334912 0.000322689 0.000315137 0.000329386 0.000320918 0.000326787 0.000334633 0.000323189 0.000316018 0.000329132 0.000321371 0.000326611 0.000334024 0.000323498 0.000316842 0.000328901 0.000321734 0.000326524 0.000333378 0.000323717 0.000317607 0.000328689 0.000322062 0.000326469 0.000332742 0.000323898 0.000318317 0.000328482 0.000322359 0.000326416 0.000332131 0.000324041 0.00031898 0.000328266 0.00032263 0.000326374 0.000331546 0.000324177 0.000319599 0.000328065 0.000322891 0.000326326 0.000330995 0.000324294 0.000320172 0.000327863 0.000323146 0.000326281 0.000330478 0.000324414 0.000320708 0.000327667 0.000323375 0.000326228 0.000329994 0.000324513 0.000321212 0.000327485 0.000323594 0.000326188 0.000329539 0.000324617 0.000321679 0.000327299 0.000323803 0.000326134 0.000329112 0.00032471 0.000322125 0.000327127 0.000323996 0.00032609 0.000328706 0.0003248 0.000322528 0.000326962 0.000324177 0.000326037 0.000328334 0.000324877 0.0003229 0.000326808 0.000324353 0.00032599 0.000327986 0.000324957 0.000323249 0.000326658 0.000324506 0.000325942 0.000327664 0.00032503 0.000323568 0.00032652 0.000324648 0.000325893 0.000327366 0.0003251 0.000323869 0.000326395 0.000324778 0.000325851 0.000327089 0.000325162 0.000324127 0.000326268 0.0003249 0.000325798 0.000326838 0.000325218 0.000324378 0.000326164 0.000325004 0.000325761 0.000326604 0.000325273 0.000324596 0.000326069 0.000325096 0.000325726 0.000326405 0.00032532 0.000324791 0.000325976 0.000325178 0.000325685 0.000326215 0.00032537 0.000324962 0.000325898 0.000325255 0.000325651 0.00032606 0.000325418 0.000325112 0.00032582 0.000325303 0.000325608 0.000325915 0.00032545 0.000325238 0.000325767 0.00032534 0.000325575 0.000325788 0.000325483 0.000325332 0.000325733 0.000325375 0.000325559 0.000325709 0.000325501 0.000325406 0.000325699 0.000325389 0.000325548 0.000325642 0.0003255 0.000325449 0.000325681 0.000325386 0.000325539 0.000325589 0.000325495 0.000325488 0.000331042 0.000321924 0.000334495 0.000334495 0.000321782 0.000317809 0.000330323 0.000321709 0.000330056 0.000334179 0.000323811 0.000317626 0.000329436 0.000322098 0.000327579 0.00033394 0.000324784 0.000317564 0.000328811 0.000322397 0.000326292 0.000333674 0.000325045 0.000317539 0.000328204 0.000321083 0.000325813 0.000333456 0.0003237 0.000315906 0.000329253 0.000321827 0.000326525 0.000334583 0.000324262 0.000316997 0.000329108 0.000322121 0.000326379 0.000333841 0.000324498 0.000317814 0.000328924 0.000322387 0.000326294 0.000333138 0.000324644 0.000318534 0.000328717 0.000322631 0.000326231 0.000332472 0.000324754 0.000319196 0.000328507 0.000322856 0.000326176 0.000331843 0.000324844 0.000319798 0.000328299 0.00032308 0.000326126 0.000331263 0.000324909 0.000320353 0.000328094 0.000323291 0.000326084 0.000330715 0.00032498 0.000320871 0.000327891 0.000323495 0.000326047 0.000330218 0.000325039 0.000321354 0.000327695 0.000323685 0.000326003 0.000329738 0.000325094 0.000321801 0.0003275 0.000323871 0.000325956 0.00032929 0.000325145 0.000322216 0.00032732 0.00032404 0.000325912 0.000328874 0.000325187 0.000322602 0.000327147 0.000324204 0.000325879 0.000328489 0.000325227 0.000322963 0.000326977 0.000324356 0.000325839 0.000328123 0.000325271 0.000323294 0.000326825 0.000324496 0.0003258 0.000327793 0.000325306 0.000323606 0.00032667 0.000324633 0.000325765 0.000327476 0.000325344 0.000323887 0.00032653 0.000324755 0.000325726 0.000327192 0.000325379 0.000324143 0.000326391 0.000324866 0.000325691 0.000326933 0.000325406 0.000324383 0.000326278 0.000324964 0.000325656 0.000326684 0.000325432 0.000324594 0.000326158 0.000325053 0.000325634 0.000326475 0.000325455 0.000324782 0.000326058 0.000325141 0.000325604 0.00032628 0.000325484 0.000324949 0.000325965 0.000325213 0.000325578 0.000326114 0.000325503 0.000325095 0.000325885 0.000325274 0.000325559 0.000325968 0.00032552 0.000325213 0.000325824 0.000325322 0.000325535 0.000325842 0.000325534 0.000325322 0.000325764 0.000325348 0.000325517 0.000325729 0.000325539 0.000325392 0.000325717 0.000325368 0.000325499 0.000325646 0.000325542 0.000325442 0.000325697 0.000325364 0.000325508 0.000325608 0.000325516 0.000325467 0.0003257 0.000325345 0.000325534 0.000325582 0.000325487 0.000325461 0.000332225 0.000322322 0.000338644 0.000338644 0.000318977 0.000315365 0.000331281 0.00032223 0.000332949 0.00033677 0.000322429 0.000316643 0.000330305 0.000322609 0.000329535 0.000335564 0.000324346 0.000317473 0.000329599 0.00032295 0.000327571 0.000334652 0.000325337 0.000318119 0.000329025 0.000323077 0.000326525 0.000333903 0.00032539 0.00031816 0.000328986 0.000322675 0.000326363 0.000333694 0.000325194 0.000318279 0.000329309 0.000322758 0.000326382 0.000333439 0.000325321 0.000318993 0.00032912 0.000322915 0.00032627 0.000332719 0.000325409 0.000319638 0.000328898 0.000323103 0.000326175 0.000332047 0.000325481 0.000320223 0.000328672 0.00032328 0.000326085 0.000331427 0.000325524 0.000320757 0.00032844 0.000323457 0.000326011 0.000330848 0.000325559 0.000321248 0.000328211 0.000323631 0.00032595 0.000330319 0.000325586 0.000321702 0.000327996 0.000323805 0.000325892 0.000329823 0.000325606 0.000322116 0.000327782 0.000323965 0.000325843 0.000329371 0.000325623 0.000322499 0.000327575 0.000324117 0.000325788 0.000328942 0.000325634 0.000322859 0.000327379 0.000324259 0.000325745 0.000328543 0.000325647 0.000323194 0.000327194 0.000324401 0.000325706 0.000328178 0.000325654 0.000323495 0.000327015 0.000324529 0.000325664 0.000327837 0.000325656 0.000323779 0.000326838 0.000324653 0.000325627 0.000327515 0.000325669 0.000324046 0.000326682 0.000324769 0.000325594 0.000327226 0.000325667 0.000324282 0.000326534 0.000324866 0.000325564 0.000326955 0.000325666 0.000324498 0.000326385 0.000324968 0.000325537 0.000326708 0.000325664 0.000324693 0.000326267 0.000325053 0.000325514 0.000326487 0.000325673 0.000324874 0.000326148 0.00032514 0.00032549 0.000326291 0.000325662 0.000325024 0.000326041 0.000325205 0.000325475 0.000326114 0.000325657 0.000325157 0.000325946 0.000325261 0.000325457 0.000325958 0.000325647 0.000325274 0.000325859 0.000325308 0.000325452 0.000325825 0.000325633 0.000325361 0.000325793 0.000325346 0.000325452 0.000325724 0.000325635 0.000325434 0.000325735 0.000325375 0.00032544 0.000325641 0.000325621 0.000325486 0.000325686 0.000325382 0.00032544 0.000325576 0.000325601 0.000325507 0.000325669 0.000325364 0.000325457 0.000325551 0.000325552 0.000325499 0.000325686 0.000325329 0.000325499 0.000325553 0.000325495 0.000325462 0.000333039 0.000321855 0.000342244 0.000342244 0.00031575 0.000312628 0.000332254 0.000322233 0.000335862 0.000339221 0.00032057 0.000315406 0.000331335 0.00032273 0.000331641 0.000337093 0.000323385 0.000317228 0.000330603 0.000323119 0.000329068 0.000335473 0.000324992 0.000318558 0.000330079 0.000323339 0.000327581 0.000334192 0.000325709 0.000319371 0.000329709 0.000323441 0.000326906 0.000333328 0.000325881 0.000319986 0.000329477 0.000323147 0.000326553 0.000332524 0.00032589 0.000320306 0.000329425 0.000323277 0.000326369 0.000332044 0.000325976 0.000320865 0.000329167 0.000323425 0.000326193 0.000331384 0.000326028 0.000321369 0.000328895 0.000323584 0.000326055 0.000330781 0.000326075 0.000321834 0.000328633 0.000323739 0.00032594 0.000330236 0.00032609 0.000322242 0.000328374 0.000323899 0.000325844 0.000329737 0.000326099 0.000322623 0.000328129 0.000324039 0.000325763 0.000329275 0.000326095 0.000322972 0.000327887 0.000324182 0.000325693 0.000328844 0.000326085 0.000323286 0.00032766 0.000324314 0.000325633 0.000328454 0.000326072 0.000323583 0.000327447 0.000324447 0.000325582 0.000328088 0.000326058 0.000323849 0.000327239 0.000324572 0.000325528 0.00032775 0.000326042 0.000324095 0.000327036 0.000324686 0.00032548 0.000327437 0.000326024 0.000324331 0.000326853 0.000324796 0.000325446 0.000327146 0.000325998 0.000324535 0.000326676 0.000324892 0.000325409 0.000326876 0.000325972 0.000324734 0.000326512 0.000324983 0.000325383 0.000326624 0.000325948 0.000324901 0.000326363 0.000325084 0.000325356 0.000326405 0.000325928 0.000325057 0.000326229 0.000325154 0.000325342 0.000326215 0.000325904 0.000325198 0.000326107 0.000325222 0.000325328 0.000326035 0.000325878 0.000325316 0.000325988 0.000325281 0.000325317 0.000325879 0.000325845 0.000325409 0.000325891 0.000325332 0.000325315 0.000325751 0.00032582 0.000325493 0.000325807 0.000325375 0.000325324 0.000325651 0.000325781 0.000325543 0.000325738 0.000325404 0.000325331 0.000325568 0.000325745 0.000325576 0.000325681 0.00032542 0.000325345 0.000325513 0.000325714 0.000325593 0.000325647 0.000325422 0.00032537 0.00032549 0.000325667 0.000325589 0.000325626 0.000325406 0.000325396 0.000325474 0.000325618 0.000325554 0.00032564 0.000325341 0.000325449 0.000325513 0.000325527 0.000325466 0.00033193 0.000321271 0.000344522 0.000344522 0.000312631 0.000309546 0.000332647 0.000321815 0.000338175 0.000341544 0.000318326 0.000313531 0.000332579 0.000322337 0.00033369 0.000338826 0.000321938 0.000316555 0.000332074 0.000322794 0.000330785 0.000336477 0.000324142 0.000318783 0.000331486 0.000323134 0.000328973 0.000334555 0.000325425 0.000320349 0.000330823 0.000323309 0.000327856 0.000333019 0.00032593 0.000321229 0.000330309 0.00032348 0.000327174 0.000331954 0.000326234 0.000321851 0.000329881 0.00032351 0.000326676 0.000331136 0.000326406 0.000322257 0.000329561 0.000323671 0.000326295 0.000330522 0.000326515 0.000322689 0.000329214 0.000323822 0.000326054 0.000329945 0.000326558 0.000323057 0.00032888 0.000323968 0.00032588 0.000329433 0.000326579 0.00032338 0.000328583 0.000324111 0.000325746 0.000328986 0.000326575 0.000323675 0.000328292 0.000324241 0.000325636 0.000328569 0.000326556 0.000323936 0.00032802 0.000324371 0.000325548 0.000328193 0.000326525 0.000324178 0.000327759 0.000324493 0.000325473 0.000327838 0.00032649 0.000324392 0.00032752 0.00032462 0.000325412 0.000327523 0.000326461 0.000324593 0.000327281 0.000324732 0.000325348 0.000327224 0.000326424 0.000324784 0.000327068 0.000324837 0.000325299 0.000326945 0.000326379 0.000324951 0.000326862 0.000324943 0.000325261 0.000326693 0.00032634 0.000325105 0.000326662 0.000325034 0.000325219 0.000326457 0.000326293 0.000325239 0.000326492 0.00032513 0.000325191 0.000326247 0.000326254 0.000325374 0.000326325 0.000325205 0.000325169 0.00032605 0.000326208 0.000325479 0.000326173 0.000325273 0.000325146 0.000325875 0.000326157 0.000325566 0.000326041 0.000325343 0.000325141 0.000325732 0.00032612 0.000325652 0.000325923 0.000325395 0.000325136 0.000325603 0.000326065 0.000325704 0.000325805 0.000325441 0.000325141 0.000325502 0.000326016 0.000325743 0.000325721 0.000325463 0.000325168 0.000325441 0.000325946 0.000325759 0.000325649 0.000325482 0.00032519 0.000325377 0.000325889 0.000325762 0.000325608 0.000325487 0.00032523 0.000325357 0.000325823 0.000325734 0.000325578 0.00032548 0.000325274 0.000325363 0.000325756 0.000325691 0.000325571 0.000325456 0.000325327 0.000325392 0.000325685 0.000325621 0.000325589 0.000325394 0.000325394 0.000325459 0.000325585 0.000325522 0.000328553 0.000301156 0.000314865 0.000314865 0.000321626 0.000315664 0.000335376 0.00031169 0.000327276 0.000333454 0.000320239 0.000313643 0.00033223 0.000315228 0.000327384 0.000334364 0.000319743 0.0003132 0.000330774 0.000316939 0.000327668 0.00033462 0.000319617 0.00031329 0.000330002 0.000317992 0.000327834 0.00033456 0.000319694 0.000313653 0.00032953 0.000318758 0.000327915 0.000334328 0.000319879 0.000314196 0.000329236 0.000319377 0.000327937 0.000333956 0.000320175 0.000314845 0.000329006 0.000319897 0.000327881 0.000333503 0.000320522 0.000315559 0.000328794 0.000320377 0.000327795 0.000333005 0.000320888 0.000316308 0.000328578 0.000320824 0.00032769 0.000332477 0.000321263 0.000317056 0.00032836 0.000321258 0.000327577 0.000331955 0.000321623 0.000317788 0.000328139 0.00032168 0.000327457 0.000331433 0.000321966 0.000318486 0.000327924 0.000322081 0.000327331 0.000330925 0.000322303 0.000319168 0.000327709 0.000322457 0.00032721 0.000330436 0.00032262 0.00031981 0.000327495 0.00032281 0.000327078 0.00032996 0.000322912 0.00032041 0.000327289 0.000323144 0.000326953 0.000329513 0.000323192 0.000320981 0.000327093 0.000323452 0.000326829 0.000329085 0.000323462 0.000321519 0.000326911 0.000323736 0.000326705 0.000328682 0.000323691 0.000322013 0.00032674 0.000323993 0.000326591 0.000328295 0.000323927 0.000322479 0.000326576 0.000324234 0.000326483 0.000327951 0.000324137 0.000322901 0.000326429 0.000324459 0.00032636 0.00032761 0.000324336 0.000323301 0.000326286 0.000324655 0.000326262 0.000327307 0.000324521 0.000323655 0.000326152 0.000324822 0.000326155 0.000327027 0.000324684 0.000323977 0.000326042 0.000324983 0.000326059 0.000326771 0.000324843 0.000324279 0.00032594 0.000325117 0.000325962 0.000326529 0.000324989 0.000324542 0.000325848 0.000325232 0.000325872 0.000326322 0.000325114 0.000324776 0.000325768 0.000325322 0.000325795 0.000326134 0.00032523 0.000324977 0.000325695 0.000325403 0.000325715 0.000325968 0.000325326 0.000325144 0.000325655 0.000325455 0.000325646 0.000325827 0.000325411 0.000325284 0.000325608 0.000325493 0.000325585 0.000325712 0.000325477 0.000325392 0.000325577 0.000325501 0.000325531 0.000325617 0.000325526 0.000325467 0.000325569 0.000325503 0.000325505 0.000325564 0.000325553 0.000325513 0.00032922 0.00031646 0.000321042 0.000321042 0.000330233 0.000325337 0.000327863 0.000311493 0.000321477 0.000326306 0.000319217 0.000313212 0.000332728 0.000315271 0.00032813 0.000334493 0.000319926 0.000313445 0.000331162 0.000317239 0.000327908 0.000334769 0.000320218 0.000313628 0.000330282 0.000318418 0.000327802 0.000334757 0.000320483 0.000314016 0.000329702 0.000319239 0.000327717 0.00033452 0.000320764 0.00031458 0.00032935 0.000319885 0.000327642 0.000334127 0.000321109 0.000315272 0.000329065 0.000320389 0.000327528 0.000333623 0.000321448 0.000316014 0.000328819 0.000320842 0.000327421 0.000333073 0.000321785 0.000316772 0.000328583 0.000321263 0.000327322 0.000332518 0.000322104 0.000317506 0.000328361 0.000321654 0.000327211 0.00033196 0.0003224 0.000318223 0.000328139 0.000322033 0.000327115 0.000331415 0.000322684 0.000318906 0.000327921 0.000322384 0.000327012 0.00033089 0.000322954 0.000319552 0.000327701 0.000322714 0.000326908 0.000330391 0.000323197 0.000320153 0.000327499 0.000323026 0.000326811 0.000329919 0.00032343 0.000320731 0.000327307 0.000323324 0.000326715 0.000329465 0.00032365 0.000321266 0.00032712 0.0003236 0.000326615 0.000329039 0.000323857 0.00032176 0.000326934 0.000323845 0.000326516 0.000328643 0.000324047 0.000322218 0.000326771 0.000324081 0.00032642 0.000328273 0.000324227 0.000322653 0.000326611 0.000324297 0.000326328 0.00032792 0.000324388 0.000323046 0.000326467 0.000324485 0.000326247 0.000327602 0.000324553 0.000323411 0.000326337 0.000324667 0.000326153 0.000327305 0.00032469 0.000323749 0.000326211 0.000324826 0.000326075 0.000327023 0.000324823 0.000324044 0.000326101 0.000324967 0.000325999 0.000326783 0.00032495 0.000324324 0.000325989 0.00032508 0.000325913 0.000326543 0.000325058 0.000324561 0.000325905 0.000325194 0.000325845 0.000326344 0.000325169 0.000324779 0.000325819 0.000325285 0.000325772 0.000326164 0.000325258 0.000324973 0.000325762 0.000325362 0.00032572 0.000326006 0.000325341 0.000325125 0.000325705 0.000325409 0.000325639 0.000325856 0.000325419 0.000325261 0.000325656 0.000325451 0.000325595 0.000325753 0.000325475 0.000325375 0.000325628 0.00032547 0.000325554 0.000325653 0.000325515 0.000325442 0.000325603 0.000325477 0.000325517 0.00032559 0.000325541 0.000325506 0.000329633 0.00031899 0.000325649 0.000325649 0.000327096 0.000322932 0.000328866 0.000319499 0.00032446 0.000328623 0.000325847 0.00031988 0.000328063 0.00031604 0.000324367 0.000330388 0.000320404 0.000313761 0.000331054 0.000317942 0.000327775 0.000334767 0.000321028 0.000314217 0.000330252 0.000319083 0.000327564 0.000334703 0.000321423 0.00031466 0.000329659 0.000319872 0.000327387 0.000334447 0.000321734 0.000315239 0.000329317 0.000320494 0.000327281 0.000334037 0.000322098 0.00031595 0.000329032 0.000320959 0.000327144 0.000333514 0.000322406 0.00031669 0.000328777 0.000321362 0.000327037 0.000332939 0.000322683 0.000317414 0.000328549 0.000321738 0.000326948 0.000332371 0.000322934 0.000318126 0.000328324 0.00032207 0.000326861 0.000331796 0.000323168 0.000318798 0.000328104 0.000322401 0.000326782 0.000331257 0.000323384 0.000319435 0.000327894 0.000322707 0.000326701 0.000330735 0.000323584 0.000320033 0.000327692 0.000322999 0.000326624 0.000330244 0.000323767 0.000320599 0.00032749 0.000323273 0.000326552 0.000329777 0.000323942 0.000321128 0.000327311 0.000323524 0.000326478 0.000329336 0.000324102 0.000321619 0.000327126 0.000323761 0.000326402 0.00032892 0.000324255 0.000322074 0.000326956 0.000323983 0.000326329 0.000328538 0.000324394 0.000322499 0.000326799 0.00032419 0.000326257 0.000328172 0.000324535 0.000322895 0.000326637 0.000324379 0.000326182 0.000327838 0.000324658 0.000323254 0.000326507 0.00032455 0.000326113 0.000327529 0.000324768 0.000323586 0.000326367 0.000324699 0.000326045 0.000327235 0.00032488 0.000323889 0.000326253 0.000324842 0.000325976 0.000326974 0.000324977 0.000324165 0.000326139 0.000324973 0.000325918 0.000326735 0.000325074 0.000324413 0.000326036 0.000325088 0.000325854 0.000326519 0.000325163 0.000324638 0.000325948 0.000325179 0.0003258 0.000326327 0.000325239 0.000324829 0.000325864 0.000325262 0.000325734 0.000326145 0.00032531 0.000325004 0.000325792 0.000325323 0.000325681 0.000325987 0.000325364 0.00032515 0.000325743 0.00032537 0.000325636 0.000325851 0.000325435 0.000325285 0.000325704 0.000325405 0.000325594 0.000325745 0.000325465 0.000325366 0.000325671 0.000325424 0.000325562 0.000325661 0.000325498 0.000325443 0.000325655 0.000325433 0.000325542 0.000325597 0.000325519 0.000325502 0.000330034 0.000320644 0.000329682 0.000329682 0.000324541 0.000320579 0.000329515 0.000320559 0.00032707 0.000331089 0.000324903 0.000318908 0.000328726 0.000321022 0.000325838 0.000331913 0.000324647 0.000317923 0.000328276 0.000318859 0.00032548 0.000332309 0.000321947 0.000314889 0.000330041 0.000319883 0.000327236 0.000334579 0.00032241 0.000315405 0.000329531 0.00032059 0.000327042 0.000334303 0.000322716 0.000315986 0.000329222 0.000321158 0.000326917 0.000333873 0.000323068 0.000316718 0.00032897 0.000321557 0.000326776 0.000333315 0.000323335 0.000317454 0.000328731 0.000321904 0.000326678 0.000332715 0.00032355 0.000318159 0.000328504 0.000322215 0.000326608 0.000332127 0.000323738 0.000318823 0.000328297 0.000322505 0.000326535 0.000331555 0.000323904 0.000319456 0.000328082 0.000322784 0.000326478 0.000331012 0.000324055 0.00032004 0.000327878 0.000323043 0.000326415 0.000330501 0.000324195 0.000320596 0.000327682 0.000323288 0.000326359 0.000330016 0.000324324 0.000321104 0.00032749 0.000323529 0.000326302 0.000329569 0.000324442 0.000321579 0.000327312 0.000323745 0.000326242 0.000329143 0.000324559 0.000322029 0.000327127 0.000323948 0.000326178 0.000328738 0.000324657 0.000322438 0.000326964 0.000324139 0.000326125 0.000328368 0.000324755 0.000322823 0.000326809 0.000324316 0.000326077 0.000328026 0.000324849 0.000323187 0.000326655 0.00032448 0.000326016 0.000327692 0.000324928 0.000323505 0.00032652 0.000324624 0.000325965 0.000327398 0.000325013 0.000323808 0.000326384 0.000324768 0.000325908 0.000327121 0.000325087 0.000324076 0.000326266 0.000324886 0.000325857 0.000326873 0.000325162 0.000324331 0.000326151 0.000325002 0.000325814 0.000326649 0.000325222 0.000324553 0.000326056 0.0003251 0.000325767 0.000326439 0.00032528 0.000324748 0.000325964 0.000325188 0.000325721 0.000326255 0.000325335 0.000324927 0.000325883 0.000325254 0.000325678 0.000326086 0.000325385 0.000325079 0.000325819 0.000325314 0.000325634 0.00032594 0.000325425 0.000325206 0.000325764 0.000325355 0.000325603 0.000325821 0.000325462 0.000325317 0.000325727 0.000325381 0.000325574 0.000325719 0.00032549 0.000325392 0.000325698 0.000325385 0.000325545 0.000325643 0.000325494 0.000325445 0.000325683 0.000325386 0.000325549 0.000325599 0.000325499 0.00032548 0.00033053 0.000321765 0.000333605 0.000333605 0.000322087 0.000318109 0.000330052 0.000321434 0.000329553 0.000333654 0.000323819 0.000317729 0.000329287 0.000321763 0.000327341 0.000333565 0.00032458 0.000317588 0.000328714 0.000322045 0.00032624 0.000333353 0.000324743 0.000317572 0.00032845 0.000320786 0.000325842 0.000333128 0.000323419 0.000316222 0.00032936 0.000321364 0.000326714 0.000334123 0.000323692 0.000316771 0.000329126 0.000321859 0.00032657 0.000333685 0.00032402 0.000317543 0.000328915 0.000322172 0.000326433 0.00033307 0.000324239 0.000318277 0.000328707 0.000322446 0.000326352 0.000332444 0.000324392 0.000318958 0.000328492 0.000322707 0.000326291 0.00033183 0.000324514 0.000319581 0.000328283 0.000322938 0.000326235 0.000331255 0.000324627 0.000320162 0.000328073 0.000323174 0.000326183 0.000330719 0.00032472 0.000320699 0.000327877 0.000323386 0.000326136 0.000330215 0.000324802 0.000321195 0.000327673 0.000323591 0.000326085 0.000329739 0.000324877 0.000321653 0.000327487 0.000323791 0.00032604 0.000329303 0.000324949 0.000322093 0.000327306 0.000323974 0.000326003 0.00032889 0.000325022 0.000322491 0.000327127 0.000324148 0.000325951 0.000328506 0.000325079 0.000322857 0.000326963 0.00032431 0.000325903 0.000328144 0.000325136 0.000323208 0.000326807 0.00032447 0.000325873 0.000327815 0.000325191 0.000323518 0.000326652 0.000324605 0.000325822 0.000327506 0.000325236 0.000323815 0.000326509 0.000324731 0.000325782 0.000327212 0.000325281 0.000324077 0.000326381 0.00032485 0.00032575 0.000326959 0.000325321 0.000324316 0.00032626 0.000324952 0.000325712 0.000326722 0.000325357 0.000324542 0.000326148 0.000325056 0.000325687 0.000326505 0.00032539 0.000324727 0.000326048 0.000325136 0.000325644 0.000326309 0.000325423 0.00032491 0.000325955 0.000325214 0.000325623 0.000326137 0.000325456 0.000325054 0.000325884 0.000325277 0.000325598 0.000326 0.000325482 0.00032519 0.000325819 0.000325321 0.000325574 0.000325866 0.000325505 0.000325299 0.000325762 0.000325356 0.000325547 0.000325754 0.000325517 0.000325381 0.000325717 0.000325375 0.000325524 0.00032566 0.000325528 0.000325439 0.000325687 0.000325366 0.000325521 0.00032561 0.000325518 0.000325443 0.0003257 0.000325353 0.000325526 0.000325601 0.000325486 0.000325463 0.000331556 0.000322514 0.000337698 0.000337698 0.000319531 0.000315576 0.000330862 0.000322169 0.000332221 0.000336381 0.000322635 0.00031657 0.000330029 0.000322421 0.000329088 0.00033537 0.000324293 0.000317269 0.000329386 0.000322738 0.000327338 0.000334541 0.000325112 0.00031784 0.000328977 0.000322896 0.00032641 0.000333819 0.000325386 0.000318278 0.000328632 0.000322172 0.000326036 0.000333249 0.000324658 0.000317753 0.000329174 0.000322586 0.000326424 0.000333495 0.000324983 0.000318603 0.000329018 0.000322792 0.000326292 0.000332798 0.000325132 0.000319302 0.000328807 0.000322993 0.000326189 0.00033212 0.000325229 0.000319934 0.000328589 0.000323197 0.000326122 0.0003315 0.0003253 0.000320497 0.000328362 0.00032338 0.000326048 0.000330918 0.000325348 0.000321016 0.000328146 0.000323562 0.000325987 0.000330375 0.000325388 0.000321493 0.000327924 0.000323741 0.000325934 0.000329873 0.000325431 0.000321934 0.00032772 0.000323903 0.000325883 0.000329416 0.00032545 0.000322335 0.00032752 0.000324071 0.000325841 0.000328986 0.000325485 0.000322711 0.000327329 0.000324222 0.00032579 0.000328587 0.0003255 0.000323057 0.000327149 0.000324362 0.000325756 0.000328216 0.000325519 0.000323381 0.000326972 0.000324497 0.000325717 0.000327869 0.000325542 0.00032367 0.000326804 0.000324631 0.000325678 0.00032756 0.000325553 0.000323947 0.00032665 0.000324744 0.000325644 0.000327258 0.000325565 0.000324196 0.00032651 0.000324865 0.000325619 0.000326994 0.000325585 0.000324423 0.000326366 0.000324957 0.000325579 0.000326746 0.000325583 0.000324627 0.000326242 0.000325049 0.000325559 0.000326518 0.000325593 0.000324808 0.000326125 0.000325133 0.000325539 0.000326326 0.000325591 0.000324975 0.000326024 0.000325199 0.00032552 0.000326138 0.000325601 0.000325115 0.000325927 0.000325262 0.0003255 0.000325986 0.000325593 0.00032523 0.000325852 0.000325314 0.000325491 0.000325854 0.000325599 0.000325335 0.000325787 0.000325352 0.000325486 0.00032575 0.000325596 0.000325408 0.000325738 0.000325378 0.000325476 0.000325663 0.000325593 0.000325471 0.000325692 0.000325386 0.000325467 0.000325589 0.000325578 0.000325499 0.00032567 0.000325376 0.000325474 0.000325553 0.000325542 0.000325482 0.000325676 0.000325334 0.000325506 0.000325565 0.000325507 0.000325452 0.000332699 0.000322307 0.000341601 0.000341601 0.000316454 0.000312874 0.000332012 0.000322327 0.000335183 0.000339028 0.000320992 0.000315378 0.000331172 0.000322676 0.000331195 0.000337108 0.000323543 0.000317047 0.000330476 0.000323045 0.000328856 0.000335602 0.000324978 0.000318283 0.000329954 0.000323286 0.000327507 0.000334385 0.000325717 0.000319211 0.000329502 0.000323385 0.000326754 0.000333384 0.000325866 0.000319696 0.000329338 0.000323199 0.000326514 0.000332761 0.00032576 0.000320031 0.000329358 0.000323283 0.000326424 0.000332245 0.00032585 0.000320643 0.000329099 0.000323427 0.000326267 0.000331549 0.000325915 0.000321179 0.000328832 0.000323585 0.000326126 0.000330925 0.000325945 0.000321664 0.000328573 0.000323738 0.000326022 0.000330354 0.000325966 0.000322098 0.00032831 0.00032389 0.000325926 0.000329835 0.000325979 0.000322488 0.000328072 0.000324042 0.000325843 0.000329366 0.000325976 0.000322848 0.000327829 0.00032418 0.000325774 0.000328929 0.000325972 0.000323175 0.000327608 0.000324319 0.000325713 0.000328531 0.000325962 0.000323474 0.000327395 0.000324444 0.000325653 0.000328157 0.000325955 0.000323758 0.000327193 0.000324569 0.000325602 0.000327811 0.00032594 0.000324017 0.000327004 0.000324692 0.00032556 0.000327492 0.000325929 0.000324254 0.000326817 0.0003248 0.000325517 0.000327198 0.000325913 0.000324467 0.000326651 0.000324904 0.000325483 0.000326933 0.0003259 0.000324667 0.00032649 0.000325 0.000325448 0.000326684 0.000325883 0.000324849 0.000326337 0.000325085 0.000325419 0.000326455 0.000325865 0.000325015 0.000326209 0.000325165 0.000325401 0.000326252 0.000325843 0.000325147 0.000326087 0.000325237 0.00032538 0.000326077 0.00032582 0.000325274 0.000325968 0.000325289 0.000325371 0.000325917 0.000325791 0.00032537 0.000325878 0.00032534 0.000325364 0.000325786 0.000325766 0.000325458 0.000325794 0.000325381 0.000325367 0.000325675 0.00032574 0.000325518 0.000325728 0.000325411 0.000325367 0.00032559 0.000325712 0.000325563 0.000325675 0.000325427 0.000325378 0.000325526 0.000325688 0.000325581 0.000325643 0.000325425 0.000325388 0.000325495 0.00032565 0.000325574 0.000325614 0.000325413 0.000325412 0.000325488 0.000325607 0.000325546 0.000325627 0.000325357 0.000325456 0.000325518 0.000325527 0.000325456 0.000332081 0.000321367 0.000344243 0.000344243 0.000313017 0.000309663 0.000332795 0.000321683 0.000337786 0.000341447 0.000318637 0.000313569 0.000332656 0.000322141 0.000333402 0.000338827 0.000322057 0.000316463 0.000332114 0.000322623 0.000330654 0.000336564 0.000324098 0.000318594 0.000331467 0.000323015 0.000328971 0.000334712 0.000325282 0.000320131 0.000330832 0.000323306 0.00032792 0.000333229 0.000325888 0.00032116 0.000330273 0.000323505 0.000327277 0.000332088 0.000326145 0.000321823 0.000329837 0.000323516 0.000326808 0.0003312 0.000326274 0.000322226 0.000329507 0.000323673 0.000326434 0.000330555 0.00032636 0.000322662 0.000329158 0.000323821 0.000326201 0.00032996 0.000326407 0.000323037 0.000328826 0.000323973 0.00032602 0.00032944 0.000326429 0.00032336 0.000328526 0.000324112 0.000325872 0.00032898 0.00032642 0.000323649 0.000328239 0.000324247 0.000325768 0.00032857 0.000326416 0.00032391 0.000327966 0.000324385 0.000325668 0.000328199 0.000326391 0.000324142 0.000327713 0.000324507 0.000325584 0.000327852 0.000326364 0.000324365 0.000327472 0.000324625 0.000325518 0.000327531 0.000326337 0.000324566 0.000327242 0.00032474 0.000325454 0.000327235 0.000326307 0.000324747 0.000327034 0.000324851 0.000325395 0.000326963 0.000326275 0.000324923 0.000326828 0.000324956 0.000325348 0.000326705 0.000326241 0.000325075 0.000326638 0.000325046 0.000325302 0.000326472 0.000326203 0.000325213 0.000326465 0.000325138 0.000325273 0.000326264 0.000326172 0.000325346 0.000326297 0.000325214 0.000325237 0.000326064 0.000326126 0.000325451 0.000326149 0.000325287 0.000325216 0.000325891 0.00032609 0.000325545 0.000326019 0.000325353 0.000325198 0.000325743 0.000326056 0.00032563 0.000325899 0.000325405 0.000325193 0.000325619 0.000326 0.000325691 0.000325794 0.000325447 0.000325204 0.000325513 0.000325959 0.000325732 0.000325721 0.000325486 0.000325208 0.000325435 0.000325912 0.000325743 0.000325636 0.000325498 0.000325222 0.00032539 0.000325858 0.000325742 0.0003256 0.000325501 0.000325249 0.000325365 0.000325797 0.000325729 0.000325572 0.000325491 0.000325306 0.000325374 0.000325745 0.000325689 0.000325551 0.000325469 0.000325347 0.000325404 0.000325671 0.000325615 0.000325579 0.000325405 0.000325399 0.000325455 0.000325575 0.000325514 0.000330201 0.000301646 0.000317073 0.000317073 0.000322193 0.000315868 0.000335253 0.000312506 0.000327446 0.000333888 0.00032007 0.000313359 0.000332036 0.000315511 0.00032765 0.000334702 0.000319522 0.000313007 0.000330712 0.000316939 0.000327859 0.000334734 0.000319446 0.000313212 0.000330027 0.000317847 0.000327951 0.000334544 0.000319566 0.00031366 0.000329606 0.000318539 0.000327973 0.000334222 0.000319806 0.000314233 0.000329296 0.000319143 0.000327937 0.000333826 0.000320102 0.0003149 0.000329055 0.000319685 0.000327878 0.000333363 0.00032045 0.000315612 0.00032883 0.000320187 0.000327788 0.000332872 0.00032081 0.000316343 0.000328604 0.000320665 0.000327688 0.000332363 0.000321172 0.000317073 0.000328384 0.000321124 0.000327577 0.000331852 0.000321529 0.00031779 0.000328154 0.000321564 0.00032746 0.000331343 0.000321876 0.000318487 0.000327926 0.000321988 0.000327345 0.000330851 0.000322208 0.000319155 0.000327705 0.000322376 0.00032722 0.000330369 0.000322522 0.000319785 0.000327487 0.00032274 0.000327105 0.000329918 0.000322816 0.000320385 0.000327278 0.000323085 0.000326988 0.000329478 0.000323099 0.000320948 0.000327083 0.000323409 0.000326864 0.000329061 0.000323359 0.000321481 0.000326901 0.000323696 0.000326752 0.000328666 0.000323614 0.000321978 0.000326724 0.000323975 0.000326632 0.000328295 0.000323845 0.00032244 0.000326562 0.000324212 0.000326519 0.000327945 0.000324056 0.000322859 0.000326406 0.000324443 0.000326405 0.000327618 0.000324265 0.000323266 0.000326266 0.000324636 0.000326301 0.000327311 0.000324446 0.000323621 0.000326142 0.000324827 0.000326198 0.000327031 0.000324624 0.000323942 0.000326025 0.000324978 0.000326095 0.000326783 0.000324779 0.000324241 0.000325927 0.000325113 0.000326001 0.000326543 0.000324931 0.000324516 0.000325838 0.000325234 0.000325912 0.000326329 0.000325061 0.00032475 0.000325759 0.000325326 0.000325824 0.000326136 0.000325181 0.000324948 0.000325694 0.000325406 0.000325741 0.000325975 0.000325289 0.000325129 0.000325644 0.000325466 0.000325669 0.00032583 0.000325381 0.000325271 0.0003256 0.000325496 0.000325607 0.000325717 0.000325461 0.000325381 0.000325572 0.000325523 0.000325554 0.000325635 0.000325511 0.000325456 0.000325563 0.000325518 0.000325512 0.000325567 0.000325558 0.000325502 0.000329691 0.000316217 0.000322182 0.000322182 0.000329576 0.000325003 0.000328554 0.000311896 0.00032217 0.000326657 0.00031934 0.000313601 0.000332723 0.000315728 0.000328251 0.000334303 0.000319951 0.000313581 0.000331097 0.000317429 0.000327983 0.000334697 0.000320169 0.00031373 0.000330277 0.000318432 0.000327858 0.00033462 0.000320413 0.000314126 0.000329771 0.00031914 0.000327755 0.000334336 0.000320687 0.000314678 0.000329399 0.000319706 0.000327665 0.000333936 0.000320987 0.000315331 0.000329116 0.000320213 0.000327579 0.000333466 0.000321322 0.000316036 0.000328862 0.000320666 0.000327473 0.000332956 0.000321648 0.000316763 0.000328624 0.000321093 0.000327375 0.000332427 0.00032196 0.000317482 0.00032839 0.000321495 0.000327274 0.000331892 0.00032226 0.000318179 0.000328162 0.000321888 0.000327175 0.000331371 0.000322549 0.000318859 0.000327934 0.000322265 0.000327077 0.000330862 0.000322821 0.000319493 0.000327721 0.00032261 0.000326973 0.000330377 0.000323075 0.000320099 0.000327511 0.000322946 0.000326875 0.000329914 0.000323313 0.000320661 0.000327302 0.000323252 0.000326775 0.000329477 0.000323531 0.000321196 0.000327113 0.000323537 0.000326684 0.000329058 0.00032375 0.000321702 0.000326935 0.000323806 0.000326584 0.000328662 0.00032395 0.000322158 0.000326769 0.000324044 0.000326482 0.000328297 0.000324132 0.000322594 0.0003266 0.000324263 0.000326392 0.000327948 0.000324304 0.000322989 0.000326465 0.000324472 0.000326303 0.00032763 0.000324472 0.000323357 0.000326319 0.000324652 0.000326207 0.000327332 0.000324617 0.000323687 0.000326194 0.000324811 0.000326119 0.000327056 0.000324755 0.000324002 0.000326091 0.000324961 0.000326044 0.000326802 0.000324891 0.000324278 0.000325986 0.000325085 0.00032596 0.000326576 0.000325011 0.000324526 0.00032589 0.000325195 0.000325883 0.00032637 0.000325122 0.000324741 0.000325819 0.000325284 0.000325801 0.000326183 0.000325219 0.00032494 0.000325751 0.000325366 0.000325742 0.000326022 0.000325319 0.000325107 0.000325691 0.00032542 0.00032567 0.000325882 0.000325395 0.000325245 0.000325652 0.00032546 0.000325616 0.000325767 0.000325453 0.00032535 0.000325619 0.000325482 0.000325567 0.00032567 0.000325501 0.000325436 0.000325606 0.000325482 0.000325532 0.000325598 0.000325533 0.000325493 0.000329632 0.000319266 0.00032581 0.00032581 0.000326794 0.000322909 0.000329101 0.000319161 0.000324774 0.000328625 0.00032563 0.000319973 0.000328466 0.000316131 0.000324636 0.00033027 0.000320379 0.000314144 0.000331148 0.000318031 0.000327878 0.000334429 0.000320985 0.000314468 0.000330307 0.000319039 0.000327659 0.000334464 0.000321322 0.000314854 0.000329793 0.000319729 0.000327499 0.000334218 0.000321622 0.000315385 0.000329396 0.00032027 0.00032737 0.000333826 0.000321894 0.000316008 0.000329116 0.000320749 0.000327279 0.000333354 0.000322191 0.000316697 0.000328854 0.000321156 0.000327178 0.000332831 0.000322463 0.000317393 0.000328608 0.000321541 0.000327084 0.000332287 0.000322722 0.000318073 0.000328373 0.000321904 0.000326991 0.000331751 0.000322964 0.000318729 0.000328148 0.000322249 0.000326904 0.000331231 0.00032319 0.000319361 0.000327926 0.000322572 0.000326823 0.000330728 0.000323392 0.000319954 0.000327715 0.000322873 0.000326744 0.000330245 0.000323593 0.000320516 0.000327515 0.000323168 0.000326666 0.000329793 0.000323781 0.000321048 0.000327322 0.000323446 0.000326581 0.000329354 0.000323955 0.000321539 0.000327133 0.000323701 0.000326501 0.000328949 0.000324118 0.000321997 0.000326957 0.00032393 0.000326418 0.000328564 0.000324271 0.00032242 0.000326788 0.000324143 0.000326335 0.000328205 0.000324423 0.00032282 0.000326632 0.000324344 0.000326259 0.000327877 0.000324547 0.000323183 0.000326496 0.000324521 0.000326184 0.000327559 0.000324679 0.000323524 0.000326361 0.00032469 0.000326112 0.000327275 0.0003248 0.00032383 0.000326237 0.000324833 0.000326039 0.000327015 0.000324907 0.00032411 0.000326122 0.000324965 0.000325967 0.000326769 0.000325012 0.000324362 0.000326022 0.000325081 0.000325902 0.000326554 0.000325107 0.000324593 0.000325934 0.000325185 0.000325842 0.000326357 0.000325191 0.000324788 0.000325847 0.000325259 0.000325767 0.000326171 0.000325276 0.000324964 0.000325783 0.000325336 0.000325713 0.000326026 0.000325345 0.000325119 0.000325726 0.000325383 0.000325657 0.000325884 0.000325404 0.000325244 0.00032569 0.000325418 0.000325617 0.000325776 0.000325454 0.000325349 0.000325658 0.000325438 0.000325577 0.000325682 0.00032549 0.000325422 0.000325647 0.000325448 0.000325547 0.000325615 0.000325522 0.000325484 0.000329885 0.000320714 0.000329127 0.000329127 0.000324518 0.000320867 0.000329583 0.000320435 0.000326979 0.000330655 0.000324793 0.00031912 0.000328945 0.000320604 0.000325956 0.000331638 0.000324438 0.000318134 0.000328593 0.0003187 0.000325678 0.000332 0.00032177 0.000315228 0.000330205 0.000319736 0.000327415 0.000334205 0.000322214 0.000315656 0.000329741 0.000320369 0.000327249 0.00033402 0.000322512 0.000316173 0.000329361 0.000320864 0.000327109 0.000333627 0.000322755 0.000316781 0.000329086 0.000321303 0.000327013 0.00033314 0.000323023 0.000317445 0.000328823 0.000321671 0.000326901 0.000332605 0.000323247 0.000318111 0.000328589 0.000322012 0.000326816 0.000332058 0.000323452 0.000318759 0.000328357 0.000322321 0.000326737 0.000331518 0.000323632 0.000319374 0.000328134 0.000322619 0.000326659 0.00033099 0.000323806 0.000319962 0.000327918 0.000322905 0.00032659 0.000330494 0.000323962 0.000320506 0.000327708 0.00032317 0.000326517 0.000330023 0.000324104 0.000321018 0.000327508 0.000323418 0.000326448 0.000329574 0.000324239 0.000321497 0.000327318 0.000323653 0.000326378 0.000329152 0.000324371 0.000321944 0.00032714 0.00032388 0.000326314 0.000328767 0.000324494 0.000322368 0.000326967 0.000324081 0.000326252 0.000328399 0.000324606 0.000322752 0.000326809 0.000324272 0.000326177 0.000328048 0.000324716 0.000323109 0.000326647 0.000324442 0.000326108 0.000327727 0.000324808 0.000323443 0.000326512 0.000324604 0.000326061 0.000327436 0.00032491 0.000323744 0.000326373 0.000324746 0.000325989 0.000327162 0.000324992 0.000324023 0.000326251 0.00032488 0.000325942 0.000326916 0.000325076 0.000324266 0.000326142 0.000324998 0.000325873 0.000326686 0.00032515 0.000324497 0.00032604 0.0003251 0.000325824 0.000326479 0.000325219 0.000324702 0.000325946 0.00032519 0.00032577 0.000326289 0.000325282 0.000324879 0.000325868 0.000325259 0.000325722 0.000326126 0.000325338 0.000325037 0.000325801 0.000325327 0.00032568 0.000325982 0.000325397 0.000325175 0.000325748 0.000325373 0.000325637 0.00032586 0.000325441 0.000325282 0.000325711 0.000325403 0.000325591 0.000325751 0.000325475 0.000325373 0.000325681 0.000325409 0.000325561 0.000325663 0.00032549 0.000325424 0.000325678 0.000325397 0.000325551 0.000325617 0.000325497 0.000325465 0.000330296 0.000321549 0.000332461 0.000332461 0.000322325 0.000318605 0.000330102 0.00032114 0.000329145 0.000332951 0.000323754 0.000318035 0.000329468 0.000321369 0.000327289 0.000333075 0.000324345 0.000317802 0.000328968 0.000321548 0.000326417 0.000332996 0.000324398 0.000317775 0.000328734 0.000320461 0.000326108 0.000332761 0.000323054 0.000316496 0.000329638 0.000321058 0.000327019 0.000333746 0.000323376 0.000317007 0.000329298 0.000321487 0.000326865 0.000333379 0.000323583 0.00031759 0.000329056 0.00032188 0.000326762 0.000332877 0.000323819 0.000318257 0.000328819 0.000322194 0.000326654 0.000332315 0.000324001 0.000318904 0.000328574 0.000322481 0.000326561 0.000331741 0.000324157 0.000319517 0.000328352 0.000322755 0.000326488 0.000331196 0.000324294 0.000320088 0.000328127 0.000323006 0.000326418 0.00033068 0.000324415 0.000320627 0.00032791 0.000323245 0.000326356 0.00033019 0.00032452 0.000321117 0.000327705 0.00032347 0.000326288 0.00032973 0.000324619 0.000321585 0.000327506 0.000323689 0.000326233 0.000329298 0.000324714 0.000322016 0.000327319 0.00032389 0.00032617 0.000328893 0.000324803 0.000322421 0.000327138 0.000324081 0.000326109 0.000328512 0.000324885 0.000322793 0.00032696 0.000324259 0.000326052 0.000328161 0.000324957 0.000323136 0.000326801 0.000324417 0.000325995 0.000327828 0.000325035 0.000323462 0.000326647 0.000324571 0.000325943 0.000327526 0.000325101 0.00032375 0.000326498 0.000324716 0.000325897 0.000327255 0.00032516 0.000324021 0.00032637 0.000324835 0.000325847 0.000326991 0.000325213 0.000324263 0.000326254 0.000324959 0.000325808 0.000326762 0.000325264 0.000324485 0.000326139 0.000325051 0.000325758 0.00032654 0.000325317 0.000324691 0.000326028 0.000325143 0.00032572 0.000326348 0.000325357 0.000324855 0.000325937 0.000325219 0.000325686 0.00032619 0.000325393 0.000325013 0.000325861 0.000325285 0.000325648 0.000326029 0.000325431 0.000325137 0.0003258 0.000325339 0.000325623 0.000325916 0.000325459 0.000325255 0.000325737 0.000325377 0.000325589 0.000325793 0.000325488 0.00032534 0.000325702 0.000325394 0.000325561 0.000325708 0.000325513 0.000325417 0.000325688 0.000325387 0.000325542 0.000325638 0.000325507 0.000325444 0.000325689 0.000325366 0.000325547 0.000325609 0.000325493 0.00032544 0.000330818 0.000322042 0.000335989 0.000335989 0.000319986 0.000315975 0.0003306 0.000321636 0.000331366 0.00033554 0.000322608 0.000316654 0.00032999 0.00032183 0.000328706 0.000334801 0.000323978 0.000317244 0.000329416 0.000322168 0.000327258 0.000334077 0.000324645 0.000317769 0.000329028 0.000322347 0.000326532 0.000333452 0.000324861 0.000318227 0.000328848 0.000321779 0.000326214 0.000332881 0.000324209 0.00031787 0.000329253 0.000322145 0.000326641 0.000333087 0.000324406 0.00031845 0.000329041 0.000322464 0.000326518 0.00033257 0.000324608 0.000319119 0.000328813 0.000322721 0.000326394 0.000331962 0.000324758 0.000319752 0.000328586 0.000322963 0.000326305 0.000331375 0.000324869 0.000320336 0.000328359 0.000323183 0.000326231 0.000330817 0.000324957 0.000320863 0.000328132 0.000323396 0.000326159 0.000330297 0.000325032 0.000321351 0.000327908 0.000323601 0.000326098 0.000329816 0.000325097 0.000321802 0.000327705 0.000323787 0.000326038 0.000329362 0.000325156 0.000322211 0.000327499 0.000323973 0.000325982 0.000328951 0.000325208 0.000322599 0.000327307 0.00032414 0.00032593 0.000328559 0.000325259 0.000322953 0.000327123 0.000324297 0.000325879 0.0003282 0.000325302 0.000323277 0.000326945 0.000324447 0.000325834 0.000327871 0.000325337 0.000323579 0.000326787 0.000324589 0.000325787 0.000327554 0.00032538 0.000323862 0.000326628 0.000324718 0.000325741 0.000327266 0.00032541 0.000324116 0.000326475 0.000324838 0.000325708 0.000327006 0.00032543 0.000324348 0.000326348 0.000324945 0.000325678 0.000326764 0.000325462 0.00032456 0.000326223 0.000325046 0.000325644 0.000326549 0.000325487 0.000324753 0.000326107 0.000325127 0.000325621 0.000326357 0.000325505 0.000324915 0.000326005 0.00032521 0.000325585 0.000326177 0.000325515 0.000325067 0.000325907 0.000325282 0.000325576 0.000326025 0.00032553 0.000325182 0.000325837 0.00032533 0.000325552 0.0003259 0.000325542 0.000325297 0.000325773 0.000325373 0.00032554 0.000325784 0.000325549 0.000325374 0.000325719 0.000325401 0.000325523 0.000325698 0.000325549 0.000325434 0.000325682 0.000325408 0.000325516 0.000325631 0.000325549 0.000325479 0.000325662 0.000325391 0.000325504 0.000325574 0.000325537 0.000325485 0.000325679 0.000325352 0.000325521 0.000325572 0.000325493 0.000325448 0.000331951 0.00032231 0.000339912 0.000339912 0.000317398 0.00031323 0.000331602 0.000322043 0.000334013 0.000338457 0.000321319 0.000315286 0.000330948 0.000322254 0.000330543 0.000336837 0.00032349 0.000316778 0.00033032 0.000322635 0.000328544 0.000335439 0.0003247 0.000317941 0.000329813 0.000322946 0.000327418 0.000334287 0.000325323 0.000318837 0.00032945 0.000323091 0.000326783 0.00033333 0.000325589 0.000319537 0.000329131 0.00032283 0.000326438 0.000332527 0.000325271 0.00031964 0.00032924 0.000323097 0.000326526 0.000332233 0.000325462 0.000320333 0.000328994 0.000323276 0.00032637 0.000331558 0.00032556 0.000320914 0.000328739 0.000323462 0.000326245 0.000330938 0.000325632 0.000321429 0.000328478 0.000323633 0.000326127 0.000330368 0.000325669 0.000321885 0.000328228 0.000323806 0.000326034 0.000329849 0.000325703 0.0003223 0.000327987 0.000323975 0.000325953 0.000329383 0.000325724 0.000322674 0.000327757 0.000324122 0.000325875 0.000328946 0.000325739 0.000323017 0.000327543 0.000324272 0.000325809 0.000328548 0.000325749 0.000323337 0.000327336 0.000324409 0.000325749 0.000328173 0.000325754 0.000323626 0.000327135 0.000324542 0.000325697 0.000327835 0.000325761 0.000323895 0.00032695 0.000324671 0.000325649 0.000327522 0.000325762 0.00032415 0.000326777 0.000324776 0.000325609 0.000327227 0.00032576 0.000324378 0.000326606 0.000324886 0.000325575 0.000326961 0.00032576 0.000324577 0.000326451 0.000324996 0.000325528 0.000326715 0.000325754 0.000324767 0.000326306 0.00032508 0.000325502 0.000326491 0.000325742 0.000324934 0.000326179 0.000325166 0.000325477 0.000326287 0.000325739 0.00032509 0.000326052 0.000325242 0.000325458 0.000326107 0.000325723 0.000325211 0.000325949 0.000325295 0.000325441 0.000325953 0.000325712 0.00032532 0.000325853 0.000325358 0.000325437 0.000325829 0.000325687 0.000325407 0.000325777 0.000325395 0.000325424 0.000325704 0.000325679 0.000325482 0.000325711 0.000325432 0.000325436 0.000325633 0.000325664 0.000325532 0.000325659 0.000325451 0.000325431 0.000325563 0.000325645 0.00032556 0.000325629 0.000325443 0.000325441 0.000325527 0.000325608 0.000325559 0.000325626 0.00032543 0.000325455 0.000325503 0.000325587 0.00032555 0.000325615 0.000325363 0.000325474 0.000325511 0.000325521 0.000325455 0.000332059 0.000321463 0.000343385 0.000343385 0.000314017 0.000310027 0.000332894 0.000321525 0.000336854 0.000341207 0.000319219 0.00031364 0.000332741 0.000321947 0.00033282 0.000338797 0.00032229 0.000316352 0.000332155 0.000322453 0.000330389 0.00033665 0.000324099 0.00031838 0.000331485 0.00032291 0.000328934 0.000334879 0.000325151 0.000319876 0.000330838 0.000323243 0.000328015 0.000333431 0.00032575 0.000320959 0.000330231 0.000323458 0.000327402 0.000332276 0.000326008 0.000321669 0.000329778 0.000323532 0.000326996 0.000331383 0.000326068 0.000322104 0.00032944 0.000323687 0.000326671 0.000330687 0.000326163 0.000322562 0.000329093 0.000323837 0.000326418 0.000330063 0.000326211 0.000322954 0.000328758 0.000323982 0.000326242 0.000329535 0.000326235 0.000323288 0.000328453 0.000324123 0.000326083 0.000329058 0.000326238 0.000323582 0.000328171 0.000324269 0.000325961 0.000328639 0.000326238 0.000323844 0.000327902 0.000324393 0.000325845 0.000328257 0.000326223 0.000324084 0.000327655 0.000324512 0.000325748 0.000327901 0.000326205 0.000324307 0.000327426 0.000324639 0.000325676 0.000327585 0.000326193 0.000324516 0.000327196 0.000324752 0.000325596 0.000327281 0.000326164 0.000324698 0.000326981 0.000324862 0.000325534 0.000327006 0.000326142 0.000324865 0.000326778 0.000324969 0.000325471 0.000326752 0.00032612 0.000325025 0.0003266 0.000325067 0.000325418 0.000326516 0.000326085 0.000325171 0.000326431 0.000325152 0.000325379 0.000326295 0.000326065 0.000325303 0.00032627 0.000325236 0.00032534 0.000326103 0.000326033 0.000325418 0.000326119 0.000325313 0.000325323 0.000325938 0.000326009 0.000325514 0.000325987 0.000325373 0.000325285 0.00032578 0.000325964 0.000325596 0.000325874 0.000325421 0.000325281 0.000325649 0.000325926 0.000325659 0.000325767 0.000325472 0.000325276 0.000325543 0.000325885 0.000325701 0.00032568 0.000325492 0.000325274 0.000325457 0.000325843 0.000325731 0.000325621 0.000325527 0.000325296 0.000325408 0.000325802 0.000325729 0.000325578 0.00032552 0.000325311 0.000325384 0.000325747 0.000325713 0.000325556 0.00032551 0.000325347 0.000325381 0.000325698 0.000325672 0.000325543 0.000325482 0.000325383 0.000325409 0.000325652 0.000325609 0.000325568 0.000325422 0.000325422 0.000325465 0.000325563 0.000325518 0.000331602 0.00030912 0.000323623 0.000323623 0.000322913 0.000315608 0.000334154 0.000313887 0.000327488 0.000334957 0.000320215 0.000312755 0.000331795 0.000315857 0.000327495 0.000335279 0.000319687 0.000312786 0.000330784 0.000316873 0.000327704 0.000334891 0.000319682 0.000313219 0.000330247 0.000317563 0.000327747 0.000334487 0.000319865 0.000313782 0.000329886 0.000318146 0.000327712 0.000334064 0.000320123 0.000314416 0.000329592 0.000318682 0.000327657 0.000333616 0.000320427 0.000315098 0.000329319 0.000319219 0.00032759 0.000333148 0.000320745 0.000315804 0.000329058 0.000319747 0.00032753 0.000332674 0.000321068 0.000316512 0.000328798 0.000320261 0.000327459 0.000332191 0.000321378 0.000317217 0.000328536 0.000320764 0.000327388 0.000331699 0.000321695 0.000317907 0.000328276 0.000321255 0.000327316 0.000331231 0.000321992 0.000318579 0.000328019 0.000321718 0.000327243 0.000330762 0.000322287 0.000319223 0.000327774 0.000322148 0.000327157 0.000330308 0.000322563 0.000319837 0.000327541 0.000322549 0.000327066 0.000329862 0.000322827 0.000320408 0.000327318 0.00032293 0.000326971 0.000329447 0.000323087 0.000320962 0.000327109 0.00032327 0.000326866 0.000329035 0.000323336 0.000321485 0.000326913 0.000323596 0.000326767 0.000328653 0.000323579 0.000321966 0.000326729 0.000323873 0.000326651 0.000328291 0.0003238 0.000322427 0.000326562 0.000324149 0.00032655 0.000327944 0.00032401 0.000322842 0.000326403 0.000324377 0.00032644 0.000327623 0.000324208 0.000323237 0.000326262 0.000324581 0.000326343 0.000327324 0.000324401 0.000323594 0.00032613 0.000324784 0.000326229 0.000327044 0.000324582 0.000323931 0.000326026 0.000324946 0.000326136 0.000326792 0.000324731 0.000324225 0.00032592 0.000325087 0.000326037 0.000326547 0.00032489 0.000324493 0.000325825 0.000325223 0.000325942 0.000326341 0.000325024 0.000324731 0.000325746 0.000325324 0.000325846 0.00032614 0.000325145 0.000324936 0.00032568 0.000325398 0.000325767 0.000325976 0.000325255 0.000325112 0.000325627 0.000325463 0.000325689 0.000325833 0.00032535 0.000325263 0.000325594 0.000325503 0.000325631 0.000325718 0.000325427 0.000325373 0.000325566 0.000325509 0.000325577 0.000325631 0.000325496 0.000325455 0.000325551 0.000325519 0.000325523 0.000325564 0.000325532 0.000325501 0.000329178 0.000318992 0.000324599 0.000324599 0.000327554 0.000323243 0.000329385 0.000314476 0.000324759 0.000328997 0.00032089 0.00031446 0.000332246 0.00031646 0.000327723 0.000334454 0.000320622 0.000313784 0.000331062 0.00031764 0.000327497 0.000334628 0.000320619 0.000313976 0.000330408 0.00031836 0.000327491 0.000334371 0.000320768 0.000314414 0.000329974 0.000318895 0.000327458 0.000334015 0.000320983 0.000314962 0.000329635 0.000319369 0.000327424 0.000333623 0.000321224 0.00031557 0.000329331 0.000319823 0.000327379 0.000333191 0.000321481 0.000316222 0.000329052 0.00032028 0.000327329 0.000332726 0.000321746 0.000316885 0.000328795 0.000320725 0.000327275 0.000332257 0.000322012 0.000317565 0.00032853 0.000321168 0.000327223 0.000331773 0.000322274 0.00031822 0.000328269 0.0003216 0.00032715 0.000331291 0.000322526 0.000318859 0.000328016 0.000322014 0.000327082 0.000330822 0.000322763 0.000319479 0.000327783 0.000322402 0.000327009 0.000330352 0.000322999 0.000320066 0.000327556 0.00032277 0.000326924 0.000329907 0.00032323 0.000320628 0.00032734 0.00032311 0.000326839 0.000329481 0.000323447 0.000321147 0.000327141 0.000323417 0.000326742 0.000329074 0.000323652 0.000321646 0.00032694 0.000323711 0.000326655 0.000328687 0.000323853 0.000322104 0.000326774 0.000323971 0.00032656 0.000328328 0.000324046 0.000322536 0.000326605 0.000324209 0.000326467 0.000327993 0.000324219 0.000322932 0.000326448 0.000324426 0.000326365 0.000327664 0.000324388 0.000323299 0.000326316 0.000324622 0.000326272 0.000327369 0.000324542 0.000323643 0.000326183 0.00032478 0.000326181 0.000327086 0.000324683 0.000323943 0.000326077 0.000324944 0.000326092 0.000326835 0.000324835 0.000324238 0.000325975 0.000325075 0.000326014 0.000326614 0.000324959 0.000324486 0.000325884 0.000325192 0.000325926 0.000326401 0.000325076 0.00032471 0.000325802 0.000325278 0.000325848 0.000326215 0.000325179 0.000324903 0.000325732 0.000325356 0.000325773 0.000326049 0.00032527 0.000325077 0.000325675 0.000325422 0.000325705 0.000325899 0.00032536 0.000325213 0.000325635 0.000325473 0.000325643 0.00032579 0.000325436 0.000325328 0.000325601 0.000325495 0.000325581 0.000325689 0.000325483 0.000325413 0.000325595 0.000325502 0.000325533 0.000325603 0.00032553 0.000325479 0.000329117 0.000320789 0.000326308 0.000326308 0.000325614 0.000322661 0.000329004 0.000320315 0.000325762 0.000328665 0.000325162 0.000319597 0.000329104 0.000317091 0.000325784 0.000331134 0.000321391 0.000314922 0.000331077 0.000318074 0.000327487 0.000334247 0.000321475 0.000314821 0.000330454 0.000318838 0.000327347 0.000334216 0.000321614 0.000315187 0.000330011 0.000319404 0.000327313 0.000333902 0.000321791 0.000315674 0.000329651 0.000319885 0.00032727 0.00033352 0.00032198 0.000316233 0.000329327 0.000320333 0.000327226 0.000333087 0.000322184 0.000316843 0.000329036 0.000320757 0.000327179 0.000332621 0.000322393 0.000317464 0.000328761 0.000321176 0.000327128 0.000332144 0.000322622 0.000318102 0.000328498 0.000321581 0.000327069 0.000331665 0.000322827 0.000318724 0.000328253 0.00032197 0.000327012 0.00033118 0.00032304 0.000319331 0.000328008 0.000322341 0.000326939 0.000330704 0.000323236 0.000319902 0.000327781 0.000322686 0.000326865 0.000330246 0.00032343 0.000320451 0.000327558 0.000323008 0.000326788 0.000329807 0.000323616 0.000320966 0.000327346 0.000323315 0.000326707 0.000329388 0.000323797 0.000321463 0.000327147 0.000323586 0.000326626 0.000328986 0.000323971 0.00032192 0.000326969 0.000323851 0.000326541 0.000328613 0.000324127 0.000322351 0.000326799 0.000324084 0.000326452 0.000328245 0.000324291 0.000322749 0.000326632 0.000324302 0.000326362 0.000327916 0.000324435 0.000323109 0.000326485 0.000324491 0.000326281 0.000327617 0.000324571 0.000323454 0.000326345 0.000324662 0.000326199 0.000327323 0.000324704 0.000323764 0.000326224 0.00032482 0.000326118 0.000327063 0.000324821 0.000324046 0.000326105 0.000324951 0.000326041 0.00032682 0.000324935 0.000324304 0.000326008 0.000325075 0.000325963 0.000326596 0.000325036 0.000324536 0.000325915 0.000325182 0.000325894 0.000326396 0.00032514 0.000324744 0.000325832 0.000325268 0.000325822 0.00032622 0.000325222 0.000324921 0.000325768 0.000325345 0.000325759 0.000326062 0.000325304 0.000325079 0.000325711 0.000325401 0.000325699 0.000325924 0.000325371 0.00032521 0.000325676 0.000325438 0.000325641 0.000325802 0.000325429 0.000325318 0.000325643 0.000325456 0.000325603 0.000325714 0.000325476 0.0003254 0.00032563 0.000325452 0.000325553 0.000325629 0.000325514 0.000325463 0.00032958 0.000321139 0.000328408 0.000328408 0.000324124 0.000321315 0.000329573 0.000321 0.000327118 0.000329916 0.000324366 0.000319492 0.000329121 0.000320817 0.000326412 0.000331163 0.000324209 0.000318175 0.000329145 0.000318854 0.000326377 0.000332198 0.000322196 0.000315847 0.000330343 0.000319408 0.000327356 0.000333893 0.000322322 0.000315998 0.000329978 0.000319948 0.000327266 0.000333721 0.000322483 0.000316451 0.000329637 0.000320419 0.000327207 0.000333337 0.000322657 0.000316986 0.000329309 0.000320851 0.000327142 0.000332893 0.000322827 0.000317571 0.000329018 0.000321269 0.000327081 0.000332407 0.000323019 0.000318167 0.000328737 0.000321652 0.000327008 0.000331921 0.000323194 0.000318762 0.00032848 0.000322012 0.000326943 0.000331429 0.000323366 0.00031934 0.00032823 0.000322356 0.000326871 0.000330942 0.000323535 0.000319907 0.000327989 0.000322684 0.000326803 0.000330472 0.000323703 0.000320439 0.000327767 0.000322988 0.000326728 0.000330027 0.000323865 0.000320946 0.000327553 0.000323273 0.000326641 0.000329589 0.000324011 0.000321422 0.000327347 0.000323538 0.000326565 0.000329179 0.000324153 0.000321868 0.000327157 0.000323785 0.000326487 0.000328792 0.000324287 0.000322285 0.000326978 0.00032401 0.00032641 0.000328429 0.000324424 0.000322672 0.000326803 0.000324216 0.000326326 0.000328091 0.000324552 0.000323036 0.000326648 0.000324403 0.00032625 0.000327776 0.000324665 0.000323369 0.000326502 0.000324575 0.000326176 0.00032748 0.000324773 0.000323674 0.000326359 0.000324732 0.000326105 0.00032721 0.000324873 0.000323946 0.000326233 0.00032487 0.000326035 0.000326966 0.000324974 0.0003242 0.000326122 0.000324999 0.000325967 0.000326744 0.000325061 0.000324435 0.000326025 0.000325104 0.000325901 0.000326529 0.000325148 0.000324646 0.000325928 0.000325195 0.000325844 0.000326347 0.000325215 0.00032483 0.000325848 0.000325277 0.000325783 0.00032617 0.000325287 0.000324981 0.000325779 0.000325339 0.000325735 0.000326041 0.000325348 0.000325124 0.000325721 0.000325389 0.000325677 0.000325901 0.000325401 0.000325234 0.000325677 0.000325419 0.000325638 0.000325805 0.000325454 0.00032533 0.000325659 0.000325442 0.000325587 0.000325712 0.000325482 0.000325405 0.000325658 0.000325429 0.000325561 0.000325639 0.000325506 0.000325438 0.000330158 0.00032118 0.000330759 0.000330759 0.000322526 0.000319489 0.00033026 0.000320959 0.000328692 0.000331761 0.000323492 0.000318664 0.000329785 0.000321163 0.000327447 0.000332224 0.000323893 0.000318222 0.000329305 0.000321249 0.000326877 0.000332409 0.00032398 0.00031795 0.000329226 0.000320224 0.000326776 0.000332633 0.000322956 0.000316952 0.000329874 0.000320583 0.000327305 0.0003334 0.000323093 0.000317281 0.000329602 0.000320998 0.000327199 0.000333075 0.000323259 0.000317799 0.000329289 0.000321394 0.000327102 0.000332612 0.000323418 0.000318369 0.000329007 0.000321785 0.000327016 0.000332107 0.000323598 0.00031895 0.000328724 0.000322126 0.000326915 0.0003316 0.000323751 0.000319517 0.000328465 0.000322458 0.000326831 0.000331099 0.000323907 0.000320067 0.000328223 0.00032276 0.000326739 0.00033061 0.000324047 0.000320583 0.000327985 0.000323049 0.00032666 0.000330151 0.000324177 0.000321068 0.00032776 0.000323312 0.000326574 0.000329706 0.000324304 0.000321522 0.000327543 0.000323548 0.000326489 0.000329291 0.000324422 0.00032195 0.000327342 0.000323782 0.000326408 0.000328896 0.000324535 0.000322352 0.000327149 0.000323996 0.000326333 0.000328529 0.000324643 0.000322728 0.00032697 0.000324191 0.000326253 0.00032818 0.00032474 0.000323075 0.000326802 0.000324373 0.000326178 0.000327851 0.000324835 0.000323396 0.00032664 0.000324535 0.000326116 0.000327563 0.000324922 0.000323689 0.000326496 0.000324689 0.000326047 0.000327285 0.000325006 0.00032396 0.000326357 0.000324827 0.000325987 0.000327037 0.000325075 0.000324203 0.000326225 0.000324942 0.000325922 0.000326797 0.000325136 0.000324423 0.000326111 0.000325057 0.000325871 0.000326586 0.000325209 0.000324623 0.000326015 0.000325144 0.000325821 0.000326409 0.000325266 0.00032481 0.000325921 0.000325234 0.000325782 0.000326239 0.000325317 0.00032495 0.000325835 0.000325301 0.000325721 0.000326089 0.000325365 0.000325091 0.000325778 0.000325363 0.000325695 0.000325968 0.000325406 0.000325201 0.000325718 0.000325403 0.000325654 0.00032586 0.000325447 0.000325303 0.00032568 0.000325426 0.000325613 0.000325757 0.000325465 0.000325366 0.000325665 0.000325422 0.000325582 0.000325681 0.000325493 0.000325414 0.000325679 0.000325397 0.000325565 0.000325644 0.000325493 0.000325436 0.000330765 0.000321093 0.000333333 0.000333333 0.000320705 0.000317203 0.000330936 0.000320798 0.000330414 0.000334006 0.000322419 0.000317342 0.000330488 0.000321101 0.000328689 0.000333777 0.00032342 0.00031772 0.000329894 0.000321555 0.0003277 0.00033332 0.000323918 0.000318115 0.000329449 0.000321792 0.000327202 0.000332872 0.000324136 0.000318429 0.000329286 0.000321345 0.000327022 0.00033259 0.000323672 0.000318221 0.000329555 0.000321629 0.000327241 0.000332715 0.000323837 0.00031868 0.000329282 0.000321968 0.000327077 0.000332251 0.000323993 0.000319234 0.000329001 0.000322313 0.000326951 0.000331728 0.000324169 0.000319808 0.000328729 0.000322621 0.000326818 0.000331195 0.000324316 0.000320354 0.000328468 0.000322914 0.000326705 0.000330683 0.000324453 0.000320863 0.000328211 0.000323163 0.000326584 0.000330189 0.000324568 0.000321332 0.000327975 0.000323406 0.000326488 0.000329737 0.000324667 0.000321778 0.000327749 0.000323631 0.000326395 0.000329296 0.000324766 0.000322187 0.00032754 0.000323844 0.000326312 0.000328902 0.000324856 0.000322571 0.000327332 0.000324036 0.000326229 0.000328524 0.000324937 0.00032292 0.000327138 0.000324218 0.000326151 0.000328176 0.000325008 0.000323239 0.00032696 0.000324384 0.00032608 0.000327856 0.00032508 0.000323539 0.000326779 0.000324538 0.000326012 0.000327558 0.000325146 0.000323816 0.000326617 0.000324685 0.000325941 0.000327275 0.000325195 0.00032407 0.000326468 0.000324811 0.000325892 0.000327021 0.00032525 0.000324299 0.000326327 0.000324936 0.000325842 0.000326795 0.000325299 0.000324509 0.000326198 0.000325042 0.000325794 0.000326586 0.00032534 0.000324694 0.00032609 0.00032514 0.000325756 0.000326403 0.000325375 0.00032486 0.000325975 0.00032522 0.000325714 0.000326231 0.000325411 0.000325007 0.000325882 0.000325296 0.000325678 0.000326083 0.000325433 0.000325138 0.000325804 0.000325348 0.000325651 0.000325946 0.000325461 0.000325234 0.000325733 0.000325398 0.000325617 0.000325844 0.00032548 0.000325321 0.000325689 0.000325431 0.000325593 0.000325751 0.000325494 0.000325391 0.000325654 0.000325442 0.000325579 0.000325681 0.000325509 0.000325431 0.000325642 0.00032544 0.000325557 0.000325635 0.000325522 0.000325459 0.000325653 0.000325383 0.000325551 0.000325613 0.000325498 0.000325433 0.000331328 0.000320886 0.000336193 0.000336193 0.000318607 0.000314311 0.000331524 0.000320589 0.000332252 0.000336734 0.000321149 0.000315547 0.000331098 0.000321003 0.000330047 0.000335738 0.000322742 0.000316799 0.000330498 0.000321609 0.000328677 0.000334599 0.000323701 0.00031787 0.000329952 0.000322135 0.000327832 0.000333573 0.000324257 0.000318723 0.000329537 0.000322436 0.000327329 0.000332746 0.000324558 0.000319371 0.000329289 0.00032233 0.000327038 0.000332115 0.000324432 0.000319631 0.000329277 0.000322572 0.000327026 0.000331813 0.000324605 0.000320186 0.000329 0.00032287 0.000326824 0.00033124 0.000324778 0.000320752 0.00032873 0.000323121 0.000326653 0.000330679 0.000324913 0.000321278 0.000328461 0.000323359 0.000326514 0.000330152 0.000325024 0.000321743 0.000328208 0.000323575 0.000326381 0.000329666 0.000325122 0.000322177 0.00032796 0.000323776 0.00032627 0.00032922 0.000325198 0.000322561 0.000327731 0.000323962 0.000326169 0.000328811 0.000325263 0.000322912 0.000327511 0.00032414 0.000326074 0.00032843 0.000325325 0.000323238 0.000327301 0.000324302 0.000326 0.000328092 0.00032537 0.000323539 0.000327104 0.000324454 0.000325923 0.000327757 0.000325413 0.000323812 0.000326915 0.000324598 0.000325852 0.000327456 0.000325456 0.000324064 0.000326741 0.000324735 0.000325792 0.000327187 0.000325484 0.00032429 0.000326581 0.000324848 0.000325739 0.000326935 0.00032551 0.000324505 0.000326416 0.000324968 0.000325695 0.000326701 0.000325534 0.000324696 0.00032628 0.000325078 0.000325656 0.000326494 0.000325555 0.000324868 0.000326143 0.000325165 0.000325623 0.000326311 0.000325563 0.000325021 0.000326015 0.000325243 0.000325597 0.000326139 0.000325573 0.000325149 0.000325919 0.000325313 0.000325573 0.000325998 0.000325571 0.00032526 0.000325826 0.000325376 0.000325557 0.000325868 0.000325578 0.000325354 0.000325739 0.000325425 0.00032554 0.000325764 0.000325578 0.000325429 0.000325687 0.000325461 0.000325533 0.000325682 0.000325576 0.000325485 0.000325633 0.000325473 0.00032553 0.00032562 0.000325568 0.000325521 0.000325607 0.000325485 0.000325527 0.000325575 0.00032556 0.000325523 0.000325598 0.000325471 0.000325519 0.000325555 0.000325556 0.000325524 0.000325601 0.0003254 0.000325532 0.000325563 0.000325501 0.000325454 0.000332162 0.000320504 0.000340187 0.000340187 0.000316099 0.000311119 0.000332921 0.000320379 0.00033473 0.000340108 0.000319678 0.000313776 0.000332654 0.000321017 0.00033196 0.000338189 0.000321958 0.000316116 0.000332019 0.000321752 0.000330218 0.000336234 0.000323427 0.000317995 0.000331307 0.000322386 0.00032908 0.000334564 0.000324355 0.000319434 0.000330655 0.000322874 0.000328293 0.000333196 0.000324935 0.000320516 0.000330102 0.000323179 0.000327732 0.000332099 0.00032529 0.000321307 0.000329613 0.000323264 0.000327305 0.000331226 0.000325352 0.000321768 0.000329278 0.000323487 0.000327029 0.000330596 0.000325524 0.000322281 0.000328938 0.000323674 0.000326768 0.000329997 0.000325636 0.000322711 0.000328624 0.000323855 0.000326558 0.000329473 0.000325709 0.000323068 0.000328335 0.000324018 0.000326384 0.000329017 0.000325769 0.000323395 0.000328055 0.000324175 0.000326228 0.000328596 0.000325803 0.00032368 0.000327805 0.000324318 0.000326105 0.000328224 0.00032583 0.000323936 0.000327562 0.000324451 0.000325988 0.000327879 0.000325847 0.000324168 0.00032733 0.000324587 0.000325891 0.000327567 0.000325854 0.000324378 0.000327112 0.000324704 0.000325798 0.000327271 0.000325859 0.000324578 0.000326906 0.000324826 0.000325724 0.000327002 0.000325868 0.000324758 0.000326716 0.000324938 0.000325653 0.000326762 0.00032587 0.000324929 0.000326532 0.000325038 0.000325595 0.000326535 0.000325867 0.00032508 0.000326358 0.000325143 0.000325534 0.000326321 0.000325854 0.000325213 0.000326208 0.000325224 0.000325495 0.000326136 0.00032584 0.000325339 0.000326067 0.000325315 0.000325463 0.000325964 0.000325829 0.000325441 0.000325933 0.00032539 0.000325433 0.000325821 0.000325804 0.000325525 0.000325825 0.000325443 0.000325417 0.000325696 0.000325786 0.000325596 0.000325722 0.000325498 0.000325403 0.000325592 0.000325765 0.000325651 0.000325647 0.000325534 0.000325404 0.000325518 0.000325731 0.000325681 0.000325575 0.00032555 0.000325405 0.000325456 0.000325702 0.000325694 0.000325539 0.000325563 0.000325419 0.000325426 0.000325666 0.000325675 0.000325518 0.000325556 0.000325432 0.000325422 0.000325636 0.000325647 0.000325523 0.000325523 0.000325452 0.000325441 0.000325602 0.000325596 0.00032555 0.000325465 0.000325479 0.000325485 0.000325534 0.000325506 
SCALARS volume_diff float 1
LOOKUP_TABLE default
-1.11683e-06 -1.80288e-05 -7.23085e-06 -7.23085e-06 -6.61235e-06 -1.26731e-05 6.71685e-06 -9.26224e-06 1.1236e-06 1.08732e-05 -4.17054e-06 -1.21357e-05 7.19517e-06 -9.00573e-06 6.59958e-07 9.60403e-06 -3.5171e-06 -1.15262e-05 6.90816e-06 -8.64593e-06 6.84483e-07 9.22805e-06 -3.26735e-06 -1.08897e-05 6.45542e-06 -8.1279e-06 8.34581e-07 8.83189e-06 -3.14178e-06 -1.02528e-05 5.94261e-06 -7.52559e-06 9.89569e-07 8.39351e-06 -3.06966e-06 -9.60628e-06 5.43497e-06 -6.90277e-06 1.1411e-06 7.91667e-06 -2.99515e-06 -8.95344e-06 4.92771e-06 -6.26689e-06 1.2543e-06 7.41123e-06 -2.90078e-06 -8.30911e-06 4.4615e-06 -5.6581e-06 1.33121e-06 6.9068e-06 -2.79979e-06 -7.66568e-06 4.02871e-06 -5.08659e-06 1.38957e-06 6.39516e-06 -2.67909e-06 -7.0506e-06 3.61726e-06 -4.53397e-06 1.40568e-06 5.89403e-06 -2.55132e-06 -6.45473e-06 3.23328e-06 -4.03115e-06 1.40098e-06 5.40128e-06 -2.41185e-06 -5.88084e-06 2.88004e-06 -3.56367e-06 1.37875e-06 4.92743e-06 -2.25557e-06 -5.3222e-06 2.55714e-06 -3.12911e-06 1.34433e-06 4.47613e-06 -2.10172e-06 -4.79651e-06 2.26412e-06 -2.72676e-06 1.29035e-06 4.03767e-06 -1.94592e-06 -4.31063e-06 1.98717e-06 -2.36938e-06 1.21483e-06 3.62156e-06 -1.77725e-06 -3.83916e-06 1.73346e-06 -2.04094e-06 1.13909e-06 3.2341e-06 -1.62574e-06 -3.39857e-06 1.49675e-06 -1.73267e-06 1.06252e-06 2.86098e-06 -1.46652e-06 -2.97115e-06 1.28821e-06 -1.4666e-06 9.86659e-07 2.51061e-06 -1.31466e-06 -2.58434e-06 1.09931e-06 -1.20521e-06 9.00628e-07 2.18477e-06 -1.16809e-06 -2.22557e-06 9.15839e-07 -9.88851e-07 8.13666e-07 1.8815e-06 -1.02158e-06 -1.89478e-06 7.59377e-07 -7.9405e-07 7.22279e-07 1.60281e-06 -8.92673e-07 -1.59035e-06 6.2158e-07 -6.20125e-07 6.36365e-07 1.33882e-06 -7.56952e-07 -1.30007e-06 4.91855e-07 -4.58735e-07 5.5468e-07 1.10075e-06 -6.3716e-07 -1.0418e-06 3.68649e-07 -3.29688e-07 4.71404e-07 8.77616e-07 -5.27614e-07 -8.20689e-07 2.81376e-07 -2.12245e-07 3.89293e-07 6.83009e-07 -4.18241e-07 -6.2127e-07 1.92512e-07 -1.30191e-07 3.10829e-07 5.13935e-07 -3.11236e-07 -4.39817e-07 1.21654e-07 -5.75868e-08 2.36207e-07 3.64458e-07 -2.31861e-07 -2.88458e-07 7.35745e-08 -7.99385e-09 1.80793e-07 2.36905e-07 -1.47692e-07 -1.73653e-07 3.67096e-08 2.08383e-08 1.13389e-07 1.38651e-07 -8.15877e-08 -8.46921e-08 6.36404e-09 3.58171e-08 5.43272e-08 5.67719e-08 -2.60188e-08 -1.9713e-08 -1.9616e-08 2.89098e-08 2.4292e-08 1.74235e-08 -6.24762e-09 4.92825e-09 2.49672e-06 -6.7914e-06 -1.6269e-07 -1.6269e-07 -2.7734e-07 -1.06134e-05 5.65821e-06 -7.3667e-06 1.97852e-06 9.36173e-06 -1.96455e-06 -1.08886e-05 6.76563e-06 -8.01805e-06 1.13769e-06 9.79654e-06 -1.85347e-06 -9.94243e-06 6.37118e-06 -7.67127e-06 9.90462e-07 9.01598e-06 -1.72432e-06 -9.17838e-06 5.87467e-06 -7.1257e-06 9.50648e-07 8.44966e-06 -1.70019e-06 -8.56565e-06 5.39946e-06 -6.54068e-06 9.74241e-07 7.9405e-06 -1.7252e-06 -8.03192e-06 4.95576e-06 -5.94518e-06 1.02783e-06 7.46044e-06 -1.74753e-06 -7.53234e-06 4.54179e-06 -5.38343e-06 1.07715e-06 6.9954e-06 -1.77681e-06 -7.05151e-06 4.1613e-06 -4.85776e-06 1.12655e-06 6.53094e-06 -1.77365e-06 -6.57021e-06 3.79304e-06 -4.36103e-06 1.15434e-06 6.07145e-06 -1.75304e-06 -6.10014e-06 3.45567e-06 -3.89908e-06 1.17583e-06 5.63151e-06 -1.70762e-06 -5.63411e-06 3.14085e-06 -3.47665e-06 1.17094e-06 5.19271e-06 -1.65675e-06 -5.17693e-06 2.84535e-06 -3.08644e-06 1.15581e-06 4.7577e-06 -1.59231e-06 -4.73533e-06 2.55699e-06 -2.72175e-06 1.12973e-06 4.34144e-06 -1.51288e-06 -4.30824e-06 2.28904e-06 -2.39722e-06 1.08522e-06 3.93744e-06 -1.4252e-06 -3.89776e-06 2.04949e-06 -2.09381e-06 1.04184e-06 3.56072e-06 -1.32197e-06 -3.49e-06 1.81418e-06 -1.82058e-06 9.81847e-07 3.18675e-06 -1.22597e-06 -3.1235e-06 1.60125e-06 -1.56491e-06 9.22785e-07 2.84938e-06 -1.13012e-06 -2.7689e-06 1.40669e-06 -1.32875e-06 8.52548e-07 2.5136e-06 -1.02665e-06 -2.4239e-06 1.21937e-06 -1.12785e-06 7.86308e-07 2.20006e-06 -9.28761e-07 -2.11699e-06 1.04525e-06 -9.39976e-07 7.06486e-07 1.90661e-06 -8.37511e-07 -1.825e-06 8.81846e-07 -7.7164e-07 6.3846e-07 1.63416e-06 -7.34542e-07 -1.54229e-06 7.4533e-07 -6.21638e-07 5.70746e-07 1.38383e-06 -6.36598e-07 -1.29293e-06 6.21037e-07 -4.84501e-07 4.96201e-07 1.15573e-06 -5.47695e-07 -1.06111e-06 4.92126e-07 -3.68183e-07 4.26817e-07 9.41761e-07 -4.71346e-07 -8.5736e-07 3.98296e-07 -2.75167e-07 3.60073e-07 7.46416e-07 -3.83569e-07 -6.70028e-07 3.05629e-07 -1.88845e-07 2.97752e-07 5.83823e-07 -3.07627e-07 -5.07454e-07 2.3089e-07 -1.2893e-07 2.30696e-07 4.29611e-07 -2.43968e-07 -3.82832e-07 1.74429e-07 -6.91119e-08 1.78154e-07 3.15951e-07 -1.7668e-07 -2.51321e-07 1.26e-07 -3.95812e-08 1.26854e-07 2.00273e-07 -1.16454e-07 -1.5881e-07 7.28372e-08 -1.11177e-08 7.27984e-08 1.13893e-07 -5.91972e-08 -7.1285e-08 3.49246e-08 3.45365e-08 3.6826e-08 4.78467e-08 -9.23562e-09 -1.2437e-08 5.40369e-06 -4.53591e-06 4.86403e-06 4.86403e-06 -1.41823e-06 -1.03649e-05 5.43613e-06 -4.93729e-06 2.2777e-06 9.25987e-06 -1.59324e-06 -8.8816e-06 5.67672e-06 -6.93641e-06 1.91499e-06 8.29925e-06 -1.55913e-06 -8.75193e-06 5.87971e-06 -6.60764e-06 1.4687e-06 8.53879e-06 -1.45022e-06 -8.13786e-06 5.46818e-06 -6.10856e-06 1.31099e-06 7.99176e-06 -1.34681e-06 -7.58628e-06 5.04672e-06 -5.59667e-06 1.20649e-06 7.50293e-06 -1.28548e-06 -7.10741e-06 4.65669e-06 -5.10786e-06 1.12826e-06 7.04033e-06 -1.25732e-06 -6.65651e-06 4.29685e-06 -4.6452e-06 1.09287e-06 6.5959e-06 -1.23288e-06 -6.22467e-06 3.96425e-06 -4.21843e-06 1.05938e-06 6.15798e-06 -1.21722e-06 -5.80963e-06 3.65086e-06 -3.81313e-06 1.03788e-06 5.73303e-06 -1.19448e-06 -5.3949e-06 3.34589e-06 -3.44327e-06 1.01068e-06 5.30547e-06 -1.17341e-06 -4.99113e-06 3.07263e-06 -3.09855e-06 9.88094e-07 4.89022e-06 -1.13198e-06 -4.59264e-06 2.8039e-06 -2.77769e-06 9.6031e-07 4.49472e-06 -1.08701e-06 -4.21371e-06 2.54973e-06 -2.4702e-06 9.20224e-07 4.11004e-06 -1.03908e-06 -3.84205e-06 2.30906e-06 -2.1928e-06 8.83825e-07 3.73965e-06 -9.83283e-07 -3.47923e-06 2.08376e-06 -1.93641e-06 8.36716e-07 3.37589e-06 -9.22611e-07 -3.13658e-06 1.86369e-06 -1.69757e-06 7.80992e-07 3.02979e-06 -8.59145e-07 -2.80398e-06 1.65973e-06 -1.479e-06 7.29303e-07 2.70161e-06 -7.94612e-07 -2.48758e-06 1.46617e-06 -1.28313e-06 6.73269e-07 2.38733e-06 -7.23599e-07 -2.18886e-06 1.28685e-06 -1.09413e-06 6.16885e-07 2.09796e-06 -6.56582e-07 -1.9097e-06 1.12054e-06 -9.33282e-07 5.58988e-07 1.82357e-06 -5.9075e-07 -1.6537e-06 9.59301e-07 -7.76316e-07 5.02487e-07 1.57339e-06 -5.29767e-07 -1.4127e-06 8.23095e-07 -6.3588e-07 4.39662e-07 1.32768e-06 -4.59006e-07 -1.18827e-06 6.87782e-07 -5.14575e-07 3.82347e-07 1.1146e-06 -3.87973e-07 -9.7688e-07 5.65584e-07 -4.05125e-07 3.26817e-07 9.17081e-07 -3.38594e-07 -7.92148e-07 4.61897e-07 -3.26021e-07 2.76525e-07 7.30235e-07 -2.86983e-07 -6.3879e-07 3.71908e-07 -2.36032e-07 2.19132e-07 5.70396e-07 -2.27611e-07 -4.8518e-07 2.89758e-07 -1.80851e-07 1.80405e-07 4.36868e-07 -1.80347e-07 -3.67193e-07 2.28679e-07 -1.31937e-07 1.32713e-07 3.18124e-07 -1.35449e-07 -2.57938e-07 1.77378e-07 -9.35203e-08 9.58098e-08 2.16727e-07 -9.43158e-08 -1.58752e-07 1.31743e-07 -6.09822e-08 7.11298e-08 1.33761e-07 -6.0924e-08 -9.70904e-08 7.26044e-08 -3.0462e-08 3.68649e-08 7.12074e-08 -3.25187e-08 -3.22276e-08 8.21838e-06 -3.35796e-06 9.37958e-06 9.37958e-06 -2.32512e-06 -1.05305e-05 5.96753e-06 -4.89676e-06 2.97406e-06 9.90419e-06 -1.94871e-06 -8.56685e-06 5.23772e-06 -4.92349e-06 2.45737e-06 8.41225e-06 -1.41658e-06 -7.44076e-06 5.11676e-06 -5.4665e-06 2.0718e-06 7.78186e-06 -1.25247e-06 -7.25151e-06 5.10947e-06 -5.12522e-06 1.70056e-06 7.67941e-06 -1.10598e-06 -6.81699e-06 4.78979e-06 -4.71129e-06 1.47541e-06 7.22706e-06 -9.64074e-07 -6.38705e-06 4.46111e-06 -4.33098e-06 1.28142e-06 6.77634e-06 -8.63317e-07 -5.96101e-06 4.14101e-06 -3.95771e-06 1.13788e-06 6.32162e-06 -7.92012e-07 -5.55338e-06 3.84826e-06 -3.62025e-06 1.034e-06 5.88526e-06 -7.37569e-07 -5.15928e-06 3.55501e-06 -3.29597e-06 9.49406e-07 5.45864e-06 -6.94068e-07 -4.77272e-06 3.2911e-06 -2.99853e-06 8.84679e-07 5.04501e-06 -6.65081e-07 -4.40496e-06 3.03491e-06 -2.71574e-06 8.24841e-07 4.6383e-06 -6.2744e-07 -4.046e-06 2.78562e-06 -2.45025e-06 7.6904e-07 4.25211e-06 -5.99112e-07 -3.69516e-06 2.54783e-06 -2.20663e-06 7.23832e-07 3.87512e-06 -5.6768e-07 -3.36456e-06 2.31938e-06 -1.97371e-06 6.70203e-07 3.51357e-06 -5.3811e-07 -3.04319e-06 2.10246e-06 -1.75859e-06 6.25694e-07 3.16921e-06 -5.00935e-07 -2.72575e-06 1.88729e-06 -1.55519e-06 5.76644e-07 2.83242e-06 -4.62421e-07 -2.43871e-06 1.69031e-06 -1.36613e-06 5.18397e-07 2.51938e-06 -4.26352e-07 -2.15896e-06 1.49799e-06 -1.19042e-06 4.73345e-07 2.22501e-06 -3.89157e-07 -1.89662e-06 1.33156e-06 -1.03006e-06 4.20259e-07 1.942e-06 -3.52952e-07 -1.65387e-06 1.1548e-06 -8.81148e-07 3.73344e-07 1.68461e-06 -3.13215e-07 -1.42302e-06 1.00676e-06 -7.41294e-07 3.3062e-07 1.44755e-06 -2.79145e-07 -1.20635e-06 8.54333e-07 -6.25092e-07 2.87817e-07 1.21945e-06 -2.37545e-07 -1.01537e-06 7.18127e-07 -5.08948e-07 2.35043e-07 1.01545e-06 -2.00215e-07 -8.30798e-07 6.05709e-07 -4.10558e-07 1.99187e-07 8.30817e-07 -1.69404e-07 -6.71833e-07 4.89682e-07 -3.32288e-07 1.50215e-07 6.52586e-07 -1.45015e-07 -5.34773e-07 3.95269e-07 -2.62711e-07 1.22973e-07 5.11956e-07 -1.08518e-07 -4.11528e-07 3.11954e-07 -1.9744e-07 8.67682e-08 3.88517e-07 -8.70981e-08 -3.01904e-07 2.43269e-07 -1.59508e-07 5.82465e-08 2.71403e-07 -6.28837e-08 -2.16125e-07 1.86459e-07 -1.33567e-07 4.33841e-08 1.94685e-07 -5.1669e-08 -1.52737e-07 1.40436e-07 -1.10187e-07 2.63099e-08 1.25146e-07 -4.94571e-08 -1.00156e-07 1.19869e-07 -8.50996e-08 2.62711e-08 7.44282e-08 -4.98258e-08 -5.53361e-08 1.1119e-05 -2.7567e-06 1.36848e-05 1.36848e-05 -3.38998e-06 -1.09174e-05 6.74076e-06 -5.21149e-06 3.84625e-06 1.06146e-05 -2.41094e-06 -8.61607e-06 5.29375e-06 -4.24865e-06 3.21454e-06 8.96429e-06 -1.66072e-06 -7.14835e-06 4.81405e-06 -4.04588e-06 2.63867e-06 7.87887e-06 -1.14314e-06 -6.39394e-06 4.67512e-06 -4.16912e-06 2.16288e-06 7.31352e-06 -8.73076e-07 -6.12948e-06 4.59449e-06 -3.91119e-06 1.75655e-06 7.03731e-06 -6.68127e-07 -5.7365e-06 4.33911e-06 -3.63099e-06 1.44925e-06 6.57347e-06 -4.94862e-07 -5.32697e-06 4.06615e-06 -3.35282e-06 1.2113e-06 6.11382e-06 -3.73984e-07 -4.93151e-06 3.79778e-06 -3.08536e-06 1.02865e-06 5.66089e-06 -2.81822e-07 -4.54332e-06 3.52987e-06 -2.82546e-06 8.81846e-07 5.21688e-06 -2.21577e-07 -4.17223e-06 3.27725e-06 -2.58849e-06 7.68264e-07 4.78762e-06 -1.76214e-07 -3.8206e-06 3.03153e-06 -2.36525e-06 6.77343e-07 4.38362e-06 -1.44743e-07 -3.48235e-06 2.79738e-06 -2.14918e-06 6.0016e-07 3.99231e-06 -1.19675e-07 -3.16456e-06 2.56017e-06 -1.93975e-06 5.27245e-07 3.61904e-06 -1.01204e-07 -2.85608e-06 2.33339e-06 -1.75498e-06 4.64303e-07 3.25866e-06 -9.08816e-08 -2.56661e-06 2.11612e-06 -1.56286e-06 4.08152e-07 2.91636e-06 -7.15954e-08 -2.29047e-06 1.90362e-06 -1.38569e-06 3.60461e-07 2.60557e-06 -6.12539e-08 -2.02834e-06 1.71282e-06 -1.23004e-06 3.13933e-07 2.30176e-06 -4.5887e-08 -1.78657e-06 1.5167e-06 -1.07139e-06 2.57161e-07 2.01391e-06 -3.53321e-08 -1.55153e-06 1.34452e-06 -9.41548e-07 2.19094e-07 1.7472e-06 -2.06249e-08 -1.32855e-06 1.17389e-06 -8.02703e-07 1.79978e-07 1.49644e-06 -1.29415e-08 -1.1321e-06 1.01223e-06 -6.82659e-07 1.40785e-07 1.26567e-06 5.04466e-10 -9.39957e-07 8.71175e-07 -5.73404e-07 1.11798e-07 1.05585e-06 -1.20296e-09 -7.80021e-07 7.39703e-07 -4.75421e-07 8.2034e-08 8.62715e-07 1.2146e-08 -6.25888e-07 6.09745e-07 -3.94687e-07 4.92437e-08 6.87859e-07 1.5328e-08 -4.9981e-07 4.93329e-07 -3.16941e-07 1.88593e-08 5.33648e-07 2.53397e-08 -3.8095e-07 3.95657e-07 -2.4616e-07 3.14321e-09 4.08463e-07 2.82501e-08 -2.7897e-07 3.14632e-07 -1.97479e-07 -1.25535e-08 2.93173e-07 2.92979e-08 -1.99031e-07 2.37759e-07 -1.61779e-07 -2.38845e-08 2.02679e-07 2.44472e-08 -1.38049e-07 1.82927e-07 -1.38204e-07 -2.37099e-08 1.36749e-07 5.62674e-09 -9.62755e-08 1.53552e-07 -1.37098e-07 -9.8953e-09 8.95622e-08 -2.26622e-08 -7.33417e-08 1.44277e-07 -1.38612e-07 2.59994e-08 7.38461e-08 -4.5693e-08 -8.15295e-08 1.40242e-05 -2.80821e-06 1.76383e-05 1.76383e-05 -4.79457e-06 -1.15462e-05 7.51007e-06 -5.6735e-06 4.8837e-06 1.13073e-05 -2.97457e-06 -8.78806e-06 5.55057e-06 -3.91095e-06 4.06953e-06 9.59809e-06 -1.9901e-06 -7.13063e-06 4.86888e-06 -3.33724e-06 3.32428e-06 8.2873e-06 -1.26109e-06 -6.12042e-06 4.59041e-06 -3.19246e-06 2.64391e-06 7.42148e-06 -7.372e-07 -5.50138e-06 4.45118e-06 -3.20088e-06 2.09881e-06 6.84949e-06 -4.08579e-07 -5.13946e-06 4.32204e-06 -3.03078e-06 1.65139e-06 6.42259e-06 -1.64029e-07 -4.73197e-06 4.08692e-06 -2.82625e-06 1.30765e-06 5.93066e-06 1.9519e-08 -4.32382e-06 3.8322e-06 -2.62586e-06 1.04184e-06 5.44482e-06 1.4517e-07 -3.92343e-06 3.58257e-06 -2.42499e-06 8.40363e-07 4.96736e-06 2.31007e-07 -3.56085e-06 3.32967e-06 -2.22984e-06 6.82077e-07 4.5286e-06 2.92901e-07 -3.21817e-06 3.07763e-06 -2.04901e-06 5.4463e-07 4.10523e-06 3.22626e-07 -2.89075e-06 2.83801e-06 -1.86907e-06 4.43193e-07 3.69968e-06 3.4715e-07 -2.58849e-06 2.60227e-06 -1.70021e-06 3.49673e-07 3.32234e-06 3.52583e-07 -2.30537e-06 2.37382e-06 -1.5368e-06 2.79203e-07 2.96805e-06 3.51613e-07 -2.04214e-06 2.14763e-06 -1.37609e-06 2.14825e-07 2.63382e-06 3.50449e-07 -1.794e-06 1.93358e-06 -1.22678e-06 1.52892e-07 2.3176e-06 3.33763e-07 -1.5639e-06 1.74122e-06 -1.07901e-06 1.08072e-07 2.02159e-06 3.3547e-07 -1.34396e-06 1.53676e-06 -9.51656e-07 6.02643e-08 1.75174e-06 3.21966e-07 -1.14054e-06 1.35407e-06 -8.28508e-07 1.82384e-08 1.4895e-06 3.08927e-07 -9.60989e-07 1.1742e-06 -7.09047e-07 -2.07025e-08 1.25538e-06 2.95384e-07 -7.86405e-07 1.01037e-06 -6.0437e-07 -5.24257e-08 1.03338e-06 2.75904e-07 -6.36753e-07 8.64384e-07 -5.02332e-07 -7.68535e-08 8.3819e-07 2.64069e-07 -4.98083e-07 7.18515e-07 -4.21191e-07 -1.00214e-07 6.62908e-07 2.42416e-07 -3.78098e-07 5.94223e-07 -3.35703e-07 -1.15717e-07 5.04854e-07 2.29377e-07 -2.65117e-07 4.80795e-07 -2.77767e-07 -1.18026e-07 3.75827e-07 2.00467e-07 -1.85779e-07 3.73499e-07 -2.17153e-07 -1.26369e-07 2.58752e-07 1.78193e-07 -1.09489e-07 2.83976e-07 -1.76078e-07 -1.23749e-07 1.62438e-07 1.53241e-07 -5.53749e-08 2.09121e-07 -1.42977e-07 -1.13738e-07 9.31323e-08 1.20529e-07 -2.55338e-08 1.55453e-07 -1.25845e-07 -9.39278e-08 5.02526e-08 8.20728e-08 -1.15057e-08 1.21926e-07 -1.39427e-07 -6.24374e-08 2.90262e-08 2.468e-08 -3.70977e-08 1.27397e-07 -1.70354e-07 -1.28057e-08 4.64109e-08 -5.27167e-08 -9.39278e-08 1.56858e-05 -3.73051e-06 2.01437e-05 2.01437e-05 -6.6212e-06 -1.25349e-05 8.07445e-06 -6.10236e-06 6.06939e-06 1.20869e-05 -3.64945e-06 -9.15038e-06 6.03753e-06 -3.76082e-06 4.9546e-06 1.03412e-05 -2.40747e-06 -7.32053e-06 5.2709e-06 -2.96702e-06 4.05929e-06 8.88129e-06 -1.48622e-06 -6.1056e-06 4.90337e-06 -2.69565e-06 3.22168e-06 7.79606e-06 -7.69098e-07 -5.2514e-06 4.67283e-06 -2.59901e-06 2.49296e-06 6.96788e-06 -2.46956e-07 -4.62893e-06 4.48156e-06 -2.55704e-06 1.91433e-06 6.31476e-06 1.15251e-07 -4.15805e-06 4.27124e-06 -2.42062e-06 1.455e-06 5.76586e-06 3.67795e-07 -3.71458e-06 3.99929e-06 -2.2667e-06 1.09725e-06 5.22076e-06 5.38576e-07 -3.29512e-06 3.73321e-06 -2.113e-06 8.29071e-07 4.70333e-06 6.48084e-07 -2.90986e-06 3.46669e-06 -1.94718e-06 6.29807e-07 4.2251e-06 7.23832e-07 -2.56773e-06 3.1942e-06 -1.78808e-06 4.58288e-07 3.78284e-06 7.69156e-07 -2.25735e-06 2.93642e-06 -1.63575e-06 3.1793e-07 3.37294e-06 7.84911e-07 -1.97551e-06 2.68376e-06 -1.486e-06 2.04115e-07 2.98873e-06 7.91624e-07 -1.70459e-06 2.43254e-06 -1.34388e-06 1.10556e-07 2.62656e-06 7.74938e-07 -1.47027e-06 2.19827e-06 -1.19522e-06 3.41873e-08 2.29521e-06 7.60541e-07 -1.24824e-06 1.96738e-06 -1.06761e-06 -3.49246e-08 1.9862e-06 7.34193e-07 -1.04718e-06 1.75415e-06 -9.42576e-07 -9.34815e-08 1.6973e-06 7.10056e-07 -8.56176e-07 1.54297e-06 -8.16789e-07 -1.3803e-07 1.43501e-06 6.76451e-07 -6.7874e-07 1.34634e-06 -7.09299e-07 -1.81899e-07 1.17808e-06 6.41371e-07 -5.31048e-07 1.16225e-06 -6.01809e-07 -2.19113e-07 9.56391e-07 6.05787e-07 -3.87159e-07 9.91315e-07 -5.04719e-07 -2.43774e-07 7.50918e-07 5.6865e-07 -2.65272e-07 8.26626e-07 -4.21579e-07 -2.65078e-07 5.6962e-07 5.28487e-07 -1.66105e-07 6.81689e-07 -3.3679e-07 -2.77088e-07 4.17543e-07 4.89216e-07 -7.18865e-08 5.43931e-07 -2.70452e-07 -2.88186e-07 2.72451e-07 4.45172e-07 3.22082e-09 4.26002e-07 -2.11042e-07 -2.86343e-07 1.54716e-07 3.92552e-07 5.4754e-08 3.24333e-07 -1.6172e-07 -2.62303e-07 7.43894e-08 3.41679e-07 9.17741e-08 2.28795e-07 -1.24855e-07 -2.47712e-07 9.31323e-10 2.85567e-07 1.10439e-07 1.62632e-07 -1.02407e-07 -2.12225e-07 -3.84365e-08 2.22586e-07 1.04541e-07 1.02989e-07 -9.37725e-08 -1.75496e-07 -5.89062e-08 1.57316e-07 8.56429e-08 7.69893e-08 -1.06287e-07 -1.18317e-07 -4.81377e-08 7.91624e-08 3.46918e-08 8.19952e-08 -1.74565e-07 -4.8487e-08 -5.66555e-09 -3.47112e-08 -7.89878e-08 1.20311e-05 -5.10243e-06 1.77856e-05 1.77856e-05 -8.07014e-06 -1.40841e-05 8.74566e-06 -6.31507e-06 6.81585e-06 1.34713e-05 -4.37597e-06 -1.02327e-05 7.10339e-06 -4.0576e-06 5.747e-06 1.17573e-05 -3.05592e-06 -8.11731e-06 6.25663e-06 -3.10936e-06 4.87776e-06 9.99266e-06 -1.93162e-06 -6.55205e-06 5.76442e-06 -2.68409e-06 3.91935e-06 8.5613e-06 -9.92712e-07 -5.34556e-06 5.39053e-06 -2.47299e-06 3.0379e-06 7.39819e-06 -2.62808e-07 -4.40358e-06 5.03756e-06 -2.33554e-06 2.30141e-06 6.44561e-06 2.67057e-07 -3.67432e-06 4.7189e-06 -2.22093e-06 1.71736e-06 5.66167e-06 6.25383e-07 -3.10398e-06 4.36798e-06 -2.07361e-06 1.26171e-06 4.99624e-06 8.58757e-07 -2.61401e-06 4.0457e-06 -1.91862e-06 9.20768e-07 4.39786e-06 1.01553e-06 -2.19701e-06 3.70791e-06 -1.76761e-06 6.50335e-07 3.86549e-06 1.10172e-06 -1.84939e-06 3.397e-06 -1.61918e-06 4.43077e-07 3.39529e-06 1.14848e-06 -1.53767e-06 3.09413e-06 -1.47735e-06 2.79591e-07 2.96568e-06 1.17416e-06 -1.27021e-06 2.8124e-06 -1.3354e-06 1.30657e-07 2.57394e-06 1.17451e-06 -1.02517e-06 2.53708e-06 -1.19178e-06 1.6337e-08 2.21403e-06 1.15895e-06 -8.11124e-07 2.2493e-06 -1.06607e-06 -8.42265e-08 1.88352e-06 1.12523e-06 -6.23113e-07 1.99357e-06 -9.3627e-07 -1.65387e-07 1.58065e-06 1.09104e-06 -4.46142e-07 1.76082e-06 -8.16459e-07 -2.34596e-07 1.30013e-06 1.05387e-06 -2.85916e-07 1.53466e-06 -6.91507e-07 -2.91562e-07 1.0458e-06 1.00905e-06 -1.57413e-07 1.31503e-06 -5.8813e-07 -3.48625e-07 8.15451e-07 9.57555e-07 -2.59412e-08 1.1125e-06 -4.97404e-07 -3.83181e-07 5.98336e-07 8.9892e-07 8.09475e-08 9.34194e-07 -4.00857e-07 -4.06581e-07 4.09666e-07 8.46766e-07 1.68841e-07 7.67604e-07 -3.10712e-07 -4.27613e-07 2.48818e-07 7.9143e-07 2.50565e-07 6.07494e-07 -2.47635e-07 -4.42281e-07 9.7362e-08 7.19796e-07 2.91582e-07 4.657e-07 -1.84538e-07 -4.37256e-07 -1.00117e-08 6.54448e-07 3.35043e-07 3.4261e-07 -1.34654e-07 -4.25285e-07 -1.06578e-07 5.83241e-07 3.40864e-07 2.28135e-07 -8.02102e-08 -4.06309e-07 -1.64456e-07 5.10636e-07 3.49362e-07 1.50641e-07 -5.1863e-08 -3.7088e-07 -2.09974e-07 4.27788e-07 3.2833e-07 6.98104e-08 -4.1017e-08 -3.16805e-07 -2.17677e-07 3.36324e-07 2.81104e-07 2.37099e-08 -4.13468e-08 -2.5687e-07 -2.01981e-07 2.38884e-07 2.10867e-07 1.82384e-08 -6.37568e-08 -1.84848e-07 -1.57122e-07 1.32908e-07 1.13621e-07 1.45519e-08 -1.21324e-07 -1.04483e-07 -8.55265e-08 9.54606e-09 -7.89684e-09 1.79916e-06 -1.93119e-05 -8.26318e-06 -8.26318e-06 -3.01749e-06 -8.51677e-06 7.15256e-06 -1.21778e-05 1.46004e-06 7.90367e-06 -5.52829e-06 -1.29749e-05 5.87036e-06 -8.92937e-06 1.13641e-06 9.91599e-06 -5.10149e-06 -1.27317e-05 5.67164e-06 -8.07478e-06 1.27847e-06 9.69685e-06 -4.73372e-06 -1.21319e-05 5.41417e-06 -7.48083e-06 1.42089e-06 9.35626e-06 -4.43874e-06 -1.14317e-05 5.0967e-06 -6.93337e-06 1.52919e-06 8.91761e-06 -4.18666e-06 -1.06881e-05 4.75754e-06 -6.39372e-06 1.60362e-06 8.40891e-06 -3.93043e-06 -9.92421e-06 4.38925e-06 -5.87317e-06 1.64037e-06 7.87352e-06 -3.68734e-06 -9.15735e-06 4.03841e-06 -5.35307e-06 1.65663e-06 7.31732e-06 -3.44178e-06 -8.40616e-06 3.69048e-06 -4.8616e-06 1.63564e-06 6.75294e-06 -3.20557e-06 -7.68485e-06 3.34745e-06 -4.39136e-06 1.59342e-06 6.19562e-06 -2.95982e-06 -6.98837e-06 3.03138e-06 -3.9288e-06 1.54297e-06 5.67036e-06 -2.72321e-06 -6.32256e-06 2.72672e-06 -3.50497e-06 1.47327e-06 5.15177e-06 -2.49558e-06 -5.69874e-06 2.43754e-06 -3.10443e-06 1.39555e-06 4.66189e-06 -2.287e-06 -5.11337e-06 2.17538e-06 -2.73351e-06 1.31615e-06 4.19246e-06 -2.06241e-06 -4.5452e-06 1.92303e-06 -2.39121e-06 1.22601e-06 3.74807e-06 -1.85657e-06 -4.03288e-06 1.69338e-06 -2.06616e-06 1.12927e-06 3.33639e-06 -1.66965e-06 -3.55397e-06 1.47293e-06 -1.78218e-06 1.03062e-06 2.93856e-06 -1.48626e-06 -3.09934e-06 1.27987e-06 -1.50791e-06 9.43081e-07 2.57402e-06 -1.30439e-06 -2.68126e-06 1.08693e-06 -1.26761e-06 8.44283e-07 2.23463e-06 -1.13862e-06 -2.29117e-06 9.22941e-07 -1.05007e-06 7.51034e-07 1.91344e-06 -9.86484e-07 -1.93897e-06 7.81108e-07 -8.50492e-07 6.63917e-07 1.62349e-06 -8.4081e-07 -1.60993e-06 6.45833e-07 -6.82116e-07 5.80524e-07 1.35461e-06 -6.86656e-07 -1.30932e-06 5.11141e-07 -5.20571e-07 4.90535e-07 1.11662e-06 -5.70901e-07 -1.04605e-06 4.05785e-07 -3.86053e-07 4.03457e-07 8.80798e-07 -4.43387e-07 -8.00317e-07 3.06017e-07 -2.66455e-07 3.22703e-07 6.80991e-07 -3.40224e-07 -5.8879e-07 2.28601e-07 -1.85178e-07 2.49556e-07 4.98878e-07 -2.4226e-07 -4.15409e-07 1.63835e-07 -1.08654e-07 1.79862e-07 3.53437e-07 -1.4517e-07 -2.58326e-07 9.5771e-08 -5.82465e-08 1.14786e-07 2.28096e-07 -8.93294e-08 -1.49303e-07 6.45329e-08 -8.42071e-09 6.39508e-08 1.23905e-07 -2.90262e-08 -5.34734e-08 1.61041e-08 -5.04466e-09 1.94414e-08 4.37722e-08 5.04466e-10 -4.94765e-09 -1.24952e-08 1.67638e-08 7.37297e-10 6.0924e-09 -8.69234e-09 -1.18356e-09 3.75366e-06 -6.93504e-06 -1.98469e-06 -1.98469e-06 3.47783e-06 -2.3474e-06 1.02442e-06 -1.1701e-05 -2.87385e-06 2.76797e-06 -6.21429e-06 -1.53374e-05 5.59383e-06 -7.95188e-06 1.22558e-06 1.14356e-05 -3.47442e-06 -1.23171e-05 5.47513e-06 -7.16397e-06 9.09242e-07 1.02473e-05 -2.99686e-06 -1.11944e-05 5.15666e-06 -6.60861e-06 9.54101e-07 9.49875e-06 -2.78658e-06 -1.03358e-05 4.78886e-06 -6.08588e-06 1.03385e-06 8.86161e-06 -2.64426e-06 -9.57999e-06 4.42856e-06 -5.58768e-06 1.09256e-06 8.26277e-06 -2.52501e-06 -8.85637e-06 4.08144e-06 -5.09944e-06 1.14141e-06 7.67204e-06 -2.41585e-06 -8.17961e-06 3.7495e-06 -4.63787e-06 1.16951e-06 7.10273e-06 -2.30283e-06 -7.53056e-06 3.42878e-06 -4.20042e-06 1.17781e-06 6.5496e-06 -2.17792e-06 -6.90677e-06 3.13957e-06 -3.7829e-06 1.17157e-06 6.02189e-06 -2.05112e-06 -6.30637e-06 2.86005e-06 -3.39316e-06 1.15635e-06 5.5132e-06 -1.91946e-06 -5.73702e-06 2.59179e-06 -3.03136e-06 1.12349e-06 5.02534e-06 -1.78765e-06 -5.19176e-06 2.33195e-06 -2.69397e-06 1.07568e-06 4.54905e-06 -1.65806e-06 -4.68092e-06 2.09656e-06 -2.38219e-06 1.0269e-06 4.10612e-06 -1.52653e-06 -4.19722e-06 1.88484e-06 -2.09024e-06 9.70555e-07 3.68652e-06 -1.39522e-06 -3.73674e-06 1.67192e-06 -1.83133e-06 9.06177e-07 3.28349e-06 -1.26834e-06 -3.30945e-06 1.48383e-06 -1.58624e-06 8.37686e-07 2.90677e-06 -1.1446e-06 -2.91027e-06 1.29054e-06 -1.3562e-06 7.75365e-07 2.56261e-06 -1.01968e-06 -2.53634e-06 1.14017e-06 -1.15187e-06 7.06641e-07 2.23964e-06 -9.09495e-07 -2.1764e-06 9.7199e-07 -9.70225e-07 6.38499e-07 1.91721e-06 -7.98629e-07 -1.86639e-06 8.33534e-07 -8.02839e-07 5.66632e-07 1.64293e-06 -6.86035e-07 -1.56662e-06 7.08154e-07 -6.51421e-07 5.04195e-07 1.39066e-06 -5.86559e-07 -1.29363e-06 5.84599e-07 -5.19154e-07 4.27283e-07 1.13812e-06 -4.99072e-07 -1.05329e-06 4.80757e-07 -4.04582e-07 3.70977e-07 9.27481e-07 -4.02778e-07 -8.2781e-07 3.82618e-07 -3.10751e-07 3.02563e-07 7.28838e-07 -3.27942e-07 -6.38344e-07 2.99731e-07 -2.22974e-07 2.47383e-07 5.5825e-07 -2.44375e-07 -4.72763e-07 2.29261e-07 -1.6011e-07 1.80987e-07 4.09316e-07 -1.76544e-07 -3.29358e-07 1.72295e-07 -1.00583e-07 1.34033e-07 2.86537e-07 -1.19869e-07 -2.12943e-07 1.28794e-07 -6.8685e-08 8.83592e-08 1.80909e-07 -6.82388e-08 -1.11312e-07 8.10251e-08 -3.01322e-08 5.71987e-08 9.96903e-08 -3.345e-08 -4.43154e-08 2.49129e-08 2.63875e-09 2.7668e-08 3.79902e-08 -1.04386e-08 1.10983e-08 4.46185e-06 -5.43776e-06 3.11644e-06 3.11644e-06 4.70124e-07 -4.46715e-06 3.54151e-06 -5.24055e-06 2.24604e-07 5.24125e-06 -1.37143e-06 -1.07578e-05 4.02133e-06 -5.98266e-06 9.80722e-07 9.80194e-06 -1.96466e-06 -1.09314e-05 5.28723e-06 -6.08877e-06 9.59029e-07 1.01053e-05 -1.7971e-06 -9.82526e-06 4.98603e-06 -5.68367e-06 9.84874e-07 9.19281e-06 -1.67456e-06 -9.04142e-06 4.63364e-06 -5.22094e-06 9.75677e-07 8.51889e-06 -1.60075e-06 -8.37125e-06 4.292e-06 -4.77854e-06 9.80644e-07 7.91845e-06 -1.53752e-06 -7.75479e-06 3.9684e-06 -4.36327e-06 9.76531e-07 7.34848e-06 -1.48934e-06 -7.1732e-06 3.6672e-06 -3.97244e-06 9.79053e-07 6.80254e-06 -1.43812e-06 -6.61693e-06 3.37919e-06 -3.59991e-06 9.74668e-07 6.277e-06 -1.37958e-06 -6.08386e-06 3.10608e-06 -3.25798e-06 9.56546e-07 5.76842e-06 -1.31008e-06 -5.57022e-06 2.84748e-06 -2.93436e-06 9.3563e-07 5.28828e-06 -1.24289e-06 -5.07912e-06 2.5994e-06 -2.63655e-06 9.02452e-07 4.81696e-06 -1.17546e-06 -4.62041e-06 2.36606e-06 -2.34975e-06 8.66596e-07 4.37694e-06 -1.09665e-06 -4.17054e-06 2.14969e-06 -2.08779e-06 8.27829e-07 3.95556e-06 -1.01898e-06 -3.74689e-06 1.93389e-06 -1.85698e-06 7.78702e-07 3.55024e-06 -9.41916e-07 -3.34954e-06 1.73467e-06 -1.62906e-06 7.28411e-07 3.17108e-06 -8.61726e-07 -2.96979e-06 1.5491e-06 -1.42882e-06 6.7808e-07 2.81368e-06 -7.80817e-07 -2.61368e-06 1.36928e-06 -1.23127e-06 6.22861e-07 2.47701e-06 -7.13995e-07 -2.28748e-06 1.20428e-06 -1.06035e-06 5.70629e-07 2.16024e-06 -6.25034e-07 -1.97764e-06 1.04778e-06 -8.99716e-07 5.06834e-07 1.87142e-06 -5.64537e-07 -1.70166e-06 9.1258e-07 -7.58873e-07 4.54059e-07 1.59974e-06 -4.90632e-07 -1.43193e-06 7.70126e-07 -6.27634e-07 3.91272e-07 1.33835e-06 -4.22665e-07 -1.19002e-06 6.55729e-07 -5.13372e-07 3.43386e-07 1.11441e-06 -3.55319e-07 -9.71292e-07 5.43698e-07 -4.07706e-07 2.92125e-07 9.10251e-07 -2.97364e-07 -7.77247e-07 4.50527e-07 -3.20162e-07 2.39971e-07 7.20844e-07 -2.39757e-07 -6.05127e-07 3.527e-07 -2.48217e-07 1.83587e-07 5.4917e-07 -1.95655e-07 -4.53574e-07 2.85334e-07 -1.95966e-07 1.49632e-07 4.07221e-07 -1.47595e-07 -3.3254e-07 2.20491e-07 -1.43094e-07 1.05783e-07 2.90029e-07 -1.04832e-07 -2.29765e-07 1.62749e-07 -1.05162e-07 7.65625e-08 2.00622e-07 -6.47269e-08 -1.47867e-07 1.20218e-07 -7.30894e-08 4.03185e-08 1.2243e-07 -4.93019e-08 -7.50103e-08 8.95234e-08 -4.16573e-08 3.03068e-08 5.50644e-08 -4.45677e-08 -1.28833e-08 5.24595e-06 -4.09369e-06 7.53991e-06 7.53991e-06 -2.58417e-06 -6.97037e-06 5.45146e-06 -4.25044e-06 3.12482e-06 7.63277e-06 -1.04621e-06 -9.40849e-06 4.66546e-06 -3.88224e-06 1.49563e-06 9.42029e-06 -1.20678e-06 -8.68212e-06 4.36697e-06 -5.22918e-06 1.28806e-06 8.56634e-06 -1.18656e-06 -8.67628e-06 4.75246e-06 -4.89012e-06 1.147e-06 8.72463e-06 -1.08534e-06 -7.9695e-06 4.4733e-06 -4.51519e-06 1.08196e-06 8.07775e-06 -9.92596e-07 -7.37586e-06 4.18195e-06 -4.13573e-06 9.9799e-07 7.50079e-06 -9.1873e-07 -6.83426e-06 3.88924e-06 -3.78847e-06 9.23096e-07 6.95698e-06 -8.61881e-07 -6.303e-06 3.60294e-06 -3.46316e-06 8.75404e-07 6.42787e-06 -8.19971e-07 -5.82228e-06 3.34415e-06 -3.15627e-06 8.23328e-07 5.92752e-06 -7.81341e-07 -5.33873e-06 3.09754e-06 -2.8624e-06 7.93099e-07 5.44098e-06 -7.31437e-07 -4.88356e-06 2.84775e-06 -2.5994e-06 7.48395e-07 4.97943e-06 -6.98414e-07 -4.4526e-06 2.6138e-06 -2.34953e-06 7.07262e-07 4.52898e-06 -6.58329e-07 -4.0432e-06 2.39408e-06 -2.11166e-06 6.64033e-07 4.10608e-06 -6.13742e-07 -3.65003e-06 2.18054e-06 -1.89373e-06 6.25849e-07 3.70965e-06 -5.71075e-07 -3.27591e-06 1.97922e-06 -1.67912e-06 5.83706e-07 3.32738e-06 -5.21366e-07 -2.92373e-06 1.77813e-06 -1.49017e-06 5.33997e-07 2.96758e-06 -4.80718e-07 -2.58987e-06 1.59516e-06 -1.30775e-06 4.90574e-07 2.62439e-06 -4.33259e-07 -2.27507e-06 1.41386e-06 -1.1418e-06 4.44939e-07 2.30584e-06 -3.91718e-07 -1.98981e-06 1.2541e-06 -9.86853e-07 3.93406e-07 2.00603e-06 -3.49886e-07 -1.70931e-06 1.099e-06 -8.48959e-07 3.56503e-07 1.72644e-06 -3.04969e-07 -1.46047e-06 9.52122e-07 -7.23599e-07 3.05862e-07 1.46889e-06 -2.62575e-07 -1.23222e-06 8.19486e-07 -6.09958e-07 2.56463e-07 1.23117e-06 -2.29008e-07 -1.02215e-06 6.92167e-07 -5.01944e-07 2.23168e-07 1.01945e-06 -1.87972e-07 -8.3039e-07 5.77653e-07 -4.04873e-07 1.79357e-07 8.23522e-07 -1.5198e-07 -6.62675e-07 4.75479e-07 -3.28427e-07 1.41406e-07 6.52857e-07 -1.1692e-07 -5.08968e-07 3.90806e-07 -2.61993e-07 1.08189e-07 5.00237e-07 -9.22591e-08 -3.83763e-07 3.03805e-07 -2.09606e-07 7.63685e-08 3.67329e-07 -7.34387e-08 -2.82249e-07 2.35353e-07 -1.73711e-07 4.90109e-08 2.56967e-07 -5.87121e-08 -1.95772e-07 1.955e-07 -1.41309e-07 3.56231e-08 1.71635e-07 -5.50062e-08 -1.3314e-07 1.58053e-07 -1.25554e-07 2.95307e-08 1.06481e-07 -4.57124e-08 -7.78819e-08 1.26155e-07 -1.04192e-07 3.24799e-08 6.32911e-08 -4.5499e-08 -3.42455e-08 6.23101e-06 -3.41421e-06 1.16747e-05 1.16747e-05 -5.4773e-06 -9.56548e-06 7.16618e-06 -3.50201e-06 5.86737e-06 1.01336e-05 -1.33839e-06 -8.67581e-06 5.38693e-06 -3.94316e-06 2.39055e-06 9.43209e-06 -1.06865e-06 -7.83962e-06 4.60481e-06 -3.67052e-06 1.87355e-06 8.47123e-06 -8.27946e-07 -7.26115e-06 4.27396e-06 -4.08059e-06 1.50572e-06 7.8788e-06 -6.6836e-07 -7.0537e-06 4.34792e-06 -3.7959e-06 1.2588e-06 7.71131e-06 -5.34909e-07 -6.50942e-06 4.11811e-06 -3.52059e-06 1.08907e-06 7.14868e-06 -4.26041e-07 -6.00204e-06 3.86103e-06 -3.24411e-06 9.39316e-07 6.60494e-06 -3.40088e-07 -5.5279e-06 3.60697e-06 -2.97381e-06 8.24415e-07 6.09985e-06 -2.88458e-07 -5.06946e-06 3.35218e-06 -2.73145e-06 7.31903e-07 5.59453e-06 -2.38147e-07 -4.629e-06 3.10856e-06 -2.49845e-06 6.51266e-07 5.11575e-06 -2.10692e-07 -4.21458e-06 2.87922e-06 -2.27476e-06 5.86035e-07 4.65475e-06 -1.84674e-07 -3.82465e-06 2.64348e-06 -2.06484e-06 5.30039e-07 4.22595e-06 -1.62205e-07 -3.46027e-06 2.42373e-06 -1.86602e-06 4.73422e-07 3.81885e-06 -1.35876e-07 -3.10387e-06 2.21337e-06 -1.67883e-06 4.21229e-07 3.42859e-06 -1.21829e-07 -2.77484e-06 2.00172e-06 -1.49918e-06 3.76681e-07 3.06184e-06 -9.95739e-08 -2.45698e-06 1.8082e-06 -1.33705e-06 3.29494e-07 2.71279e-06 -8.83786e-08 -2.16684e-06 1.62081e-06 -1.18249e-06 2.87235e-07 2.38609e-06 -7.2973e-08 -1.8984e-06 1.44436e-06 -1.03138e-06 2.40436e-07 2.08162e-06 -5.74898e-08 -1.63139e-06 1.27459e-06 -9.06972e-07 2.12031e-07 1.79772e-06 -4.20647e-08 -1.40703e-06 1.11149e-06 -7.7389e-07 1.6271e-07 1.53633e-06 -2.71636e-08 -1.18257e-06 9.67993e-07 -6.66342e-07 1.30191e-07 1.29155e-06 -1.66086e-08 -9.76802e-07 8.27325e-07 -5.59395e-07 1.06442e-07 1.07059e-06 6.59687e-09 -7.99618e-07 7.00355e-07 -4.59355e-07 7.10522e-08 8.79712e-07 1.20684e-08 -6.36307e-07 5.86539e-07 -3.79514e-07 4.88944e-08 6.98531e-07 2.07607e-08 -4.95192e-07 4.79165e-07 -3.08986e-07 1.82772e-08 5.34579e-07 2.64651e-08 -3.71035e-07 3.83783e-07 -2.50099e-07 6.0536e-09 4.03263e-07 3.35276e-08 -2.70704e-07 3.06754e-07 -1.97518e-07 -1.56191e-08 2.87934e-07 3.07336e-08 -1.83917e-07 2.3089e-07 -1.61158e-07 -2.57084e-08 1.87933e-07 2.5689e-08 -1.33781e-07 1.86148e-07 -1.48837e-07 -3.04232e-08 1.2794e-07 1.12923e-08 -8.90771e-08 1.5945e-07 -1.47498e-07 -1.69384e-08 8.21116e-08 -1.91115e-08 -6.76761e-08 1.51806e-07 -1.52853e-07 1.02445e-08 5.7354e-08 -5.99539e-08 -6.15643e-08 7.3902e-06 -3.37191e-06 1.54493e-05 1.54493e-05 -8.44962e-06 -1.22397e-05 8.72009e-06 -3.04847e-06 8.56281e-06 1.25902e-05 -1.95638e-06 -8.2436e-06 6.10792e-06 -4.06414e-06 3.52746e-06 9.63228e-06 -1.3251e-06 -7.39121e-06 4.96197e-06 -3.31031e-06 2.65477e-06 8.59137e-06 -7.72901e-07 -6.61439e-06 4.4686e-06 -3.03656e-06 2.02842e-06 7.81415e-06 -4.11761e-07 -6.0625e-06 4.20907e-06 -3.14626e-06 1.57452e-06 7.22722e-06 -1.76971e-07 -5.72199e-06 4.14578e-06 -2.95167e-06 1.24235e-06 6.84611e-06 -4.34617e-09 -5.22765e-06 3.92358e-06 -2.74956e-06 1.00909e-06 6.29958e-06 1.16027e-07 -4.76488e-06 3.68082e-06 -2.54457e-06 8.1611e-07 5.76462e-06 2.00351e-07 -4.33104e-06 3.423e-06 -2.34173e-06 6.66439e-07 5.26124e-06 2.54329e-07 -3.91922e-06 3.17988e-06 -2.15285e-06 5.41292e-07 4.77225e-06 2.90573e-07 -3.53619e-06 2.94597e-06 -1.97462e-06 4.46763e-07 4.32378e-06 3.12032e-07 -3.17274e-06 2.70468e-06 -1.78944e-06 3.65855e-07 3.8937e-06 3.22354e-07 -2.83444e-06 2.47751e-06 -1.62584e-06 2.96975e-07 3.49005e-06 3.26467e-07 -2.5209e-06 2.25597e-06 -1.47033e-06 2.30774e-07 3.10817e-06 3.26157e-07 -2.22943e-06 2.04142e-06 -1.31305e-06 1.77456e-07 2.75741e-06 3.18124e-07 -1.95283e-06 1.83824e-06 -1.16768e-06 1.34654e-07 2.42493e-06 3.17115e-07 -1.6938e-06 1.63703e-06 -1.03879e-06 7.88132e-08 2.10483e-06 3.01283e-07 -1.45422e-06 1.46028e-06 -9.12735e-07 4.85452e-08 1.81538e-06 2.97364e-07 -1.23579e-06 1.27704e-06 -7.86385e-07 4.03573e-09 1.54572e-06 2.81919e-07 -1.03577e-06 1.11572e-06 -6.83358e-07 -2.33219e-08 1.30032e-06 2.70743e-07 -8.44923e-07 9.59068e-07 -5.78274e-07 -4.95347e-08 1.07017e-06 2.63914e-07 -6.76043e-07 8.11066e-07 -4.79748e-07 -7.70669e-08 8.6547e-07 2.45093e-07 -5.27594e-07 6.87316e-07 -3.975e-07 -9.41994e-08 6.79827e-07 2.34849e-07 -3.95637e-07 5.59841e-07 -3.28524e-07 -1.1108e-07 5.19988e-07 2.11759e-07 -2.80018e-07 4.62285e-07 -2.7053e-07 -1.13427e-07 3.78233e-07 1.92318e-07 -1.90902e-07 3.54795e-07 -2.13642e-07 -1.22158e-07 2.60537e-07 1.65659e-07 -1.20975e-07 2.72063e-07 -1.76214e-07 -1.19772e-07 1.66125e-07 1.47382e-07 -6.64343e-08 2.13855e-07 -1.38243e-07 -1.16396e-07 9.65083e-08 1.1917e-07 -2.22547e-08 1.58092e-07 -1.33645e-07 -1.02445e-07 3.79902e-08 8.34698e-08 -1.8122e-08 1.38224e-07 -1.45927e-07 -7.17312e-08 2.87934e-08 3.04232e-08 -3.04814e-08 1.50758e-07 -1.7862e-07 -2.50487e-08 3.46142e-08 -3.8029e-08 -6.65702e-08 8.12734e-06 -3.91324e-06 1.81353e-05 1.81353e-05 -1.13945e-05 -1.47822e-05 9.81257e-06 -2.98047e-06 1.11683e-05 1.48427e-05 -3.04296e-06 -8.30796e-06 6.75174e-06 -4.22628e-06 4.92258e-06 1.01049e-05 -1.86072e-06 -7.29876e-06 5.48762e-06 -3.12455e-06 3.58105e-06 8.94295e-06 -9.71059e-07 -6.2963e-06 4.892e-06 -2.6852e-06 2.67402e-06 7.97041e-06 -3.53165e-07 -5.52305e-06 4.54815e-06 -2.50757e-06 2.00141e-06 7.17914e-06 4.71482e-08 -4.93741e-06 4.30407e-06 -2.49195e-06 1.50444e-06 6.52015e-06 3.42455e-07 -4.48215e-06 4.12161e-06 -2.3507e-06 1.11801e-06 5.99426e-06 5.16845e-07 -4.00669e-06 3.86697e-06 -2.18905e-06 8.4242e-07 5.41735e-06 6.4432e-07 -3.57459e-06 3.59355e-06 -2.02778e-06 6.25888e-07 4.8922e-06 7.09823e-07 -3.18584e-06 3.33002e-06 -1.87405e-06 4.55494e-07 4.39262e-06 7.54565e-07 -2.81197e-06 3.07049e-06 -1.71418e-06 3.32599e-07 3.93449e-06 7.81729e-07 -2.47584e-06 2.81426e-06 -1.56482e-06 2.20103e-07 3.50724e-06 7.75598e-07 -2.17444e-06 2.56835e-06 -1.4165e-06 1.3314e-07 3.10709e-06 7.6869e-07 -1.88996e-06 2.32672e-06 -1.27426e-06 5.69659e-08 2.73475e-06 7.57747e-07 -1.63055e-06 2.09237e-06 -1.13835e-06 -7.33417e-09 2.39591e-06 7.33766e-07 -1.38761e-06 1.87782e-06 -1.00963e-06 -6.24762e-08 2.07029e-06 7.0214e-07 -1.16784e-06 1.66059e-06 -8.90306e-07 -1.14378e-07 1.76396e-06 6.75869e-07 -9.72669e-07 1.46237e-06 -7.74395e-07 -1.60071e-07 1.4945e-06 6.45368e-07 -7.84503e-07 1.27556e-06 -6.62481e-07 -1.9063e-07 1.24343e-06 6.17545e-07 -6.08173e-07 1.0978e-06 -5.68359e-07 -2.21422e-07 1.00699e-06 5.77226e-07 -4.57629e-07 9.30663e-07 -4.74548e-07 -2.39757e-07 7.96708e-07 5.39624e-07 -3.22994e-07 7.78857e-07 -3.92591e-07 -2.6273e-07 6.00625e-07 5.00392e-07 -2.10867e-07 6.37141e-07 -3.22839e-07 -2.6729e-07 4.44086e-07 4.62634e-07 -1.16124e-07 5.12615e-07 -2.56812e-07 -2.78815e-07 2.99731e-07 4.17388e-07 -2.95307e-08 4.04155e-07 -1.98411e-07 -2.6729e-07 1.79202e-07 3.79902e-07 3.88827e-08 3.12536e-07 -1.53047e-07 -2.55144e-07 8.53324e-08 3.25808e-07 7.67953e-08 2.24177e-07 -1.22857e-07 -2.35644e-07 1.26117e-08 2.70472e-07 9.86426e-08 1.61817e-07 -1.08635e-07 -2.08364e-07 -3.71365e-08 2.22664e-07 9.79441e-08 1.21188e-07 -1.01475e-07 -1.72663e-07 -4.86616e-08 1.59761e-07 8.63414e-08 1.00195e-07 -1.16959e-07 -1.31549e-07 -5.88674e-08 9.31323e-08 4.20647e-08 1.12923e-07 -1.81608e-07 -7.24297e-08 -2.20413e-08 -6.59687e-09 -5.61316e-08 5.05367e-06 -3.78067e-06 1.8706e-05 1.8706e-05 -1.296e-05 -1.68385e-05 9.50457e-06 -3.46652e-06 1.1944e-05 1.61075e-05 -4.82115e-06 -1.00304e-05 7.67363e-06 -4.42636e-06 6.18546e-06 1.15229e-05 -2.72433e-06 -7.99981e-06 6.51728e-06 -3.28025e-06 4.60085e-06 9.90958e-06 -1.47454e-06 -6.46992e-06 5.83144e-06 -2.71558e-06 3.48668e-06 8.52354e-06 -5.6964e-07 -5.3196e-06 5.35476e-06 -2.41418e-06 2.58939e-06 7.38795e-06 8.09475e-08 -4.44099e-06 4.95743e-06 -2.22765e-06 1.89171e-06 6.46245e-06 5.32755e-07 -3.76413e-06 4.60108e-06 -2.12281e-06 1.34634e-06 5.68895e-06 8.4568e-07 -3.23274e-06 4.27462e-06 -1.97516e-06 9.24648e-07 5.04668e-06 1.02725e-06 -2.76704e-06 3.93383e-06 -1.81658e-06 6.34852e-07 4.46449e-06 1.13835e-06 -2.36267e-06 3.60903e-06 -1.67182e-06 4.13856e-07 3.94268e-06 1.19791e-06 -2.0096e-06 3.29766e-06 -1.5232e-06 2.43114e-07 3.47162e-06 1.21607e-06 -1.70574e-06 3.00297e-06 -1.38309e-06 1.06481e-07 3.0429e-06 1.21576e-06 -1.43129e-06 2.71484e-06 -1.24766e-06 -4.01633e-09 2.65295e-06 1.19566e-06 -1.18742e-06 2.43797e-06 -1.10981e-06 -9.48203e-08 2.29474e-06 1.16978e-06 -9.62212e-07 2.17968e-06 -9.84427e-07 -1.73168e-07 1.96245e-06 1.12558e-06 -7.65237e-07 1.93785e-06 -8.63879e-07 -2.32831e-07 1.65962e-06 1.08674e-06 -5.75092e-07 1.69345e-06 -7.50568e-07 -2.97965e-07 1.36396e-06 1.03478e-06 -4.19832e-07 1.47789e-06 -6.43544e-07 -3.40728e-07 1.11312e-06 9.88638e-07 -2.56579e-07 1.27075e-06 -5.4331e-07 -3.72102e-07 8.71834e-07 9.31749e-07 -1.30463e-07 1.06869e-06 -4.51362e-07 -3.97752e-07 6.62908e-07 8.75637e-07 -2.50681e-08 8.88404e-07 -3.57841e-07 -4.3029e-07 4.68882e-07 8.19253e-07 7.97057e-08 7.2422e-07 -2.89544e-07 -4.41001e-07 2.97092e-07 7.57941e-07 1.66163e-07 5.76256e-07 -2.1725e-07 -4.42281e-07 1.48197e-07 6.91973e-07 2.32637e-07 4.47695e-07 -1.67114e-07 -4.30116e-07 2.82113e-08 6.28293e-07 2.74158e-07 3.21423e-07 -1.11584e-07 -4.16747e-07 -6.34075e-08 5.62946e-07 2.94337e-07 2.26661e-07 -7.57282e-08 -3.98839e-07 -1.30793e-07 4.94299e-07 3.1176e-07 1.39737e-07 -4.60423e-08 -3.61702e-07 -1.79493e-07 4.15603e-07 2.98567e-07 8.09863e-08 -3.63798e-08 -3.14612e-07 -1.97751e-07 3.35005e-07 2.5817e-07 4.21423e-08 -4.83318e-08 -2.61837e-07 -1.851e-07 2.46218e-07 2.03028e-07 3.10053e-08 -7.54759e-08 -1.87856e-07 -1.44762e-07 1.56501e-07 1.24564e-07 4.12886e-08 -1.39019e-07 -1.13951e-07 -8.21504e-08 4.58288e-08 5.54913e-09 1.70071e-06 -2.04274e-05 -9.25428e-06 -9.25428e-06 -3.50092e-06 -9.3211e-06 8.37244e-06 -1.30773e-05 9.51152e-07 7.56603e-06 -4.69276e-06 -1.17212e-05 6.1534e-06 -9.86573e-06 1.3004e-06 9.05288e-06 -5.40382e-06 -1.25656e-05 5.27455e-06 -8.09127e-06 1.67875e-06 9.55607e-06 -5.29975e-06 -1.23297e-05 4.88832e-06 -7.2733e-06 1.81088e-06 9.38486e-06 -5.05757e-06 -1.17696e-05 4.58925e-06 -6.67525e-06 1.88806e-06 9.02424e-06 -4.76806e-06 -1.10834e-05 4.3064e-06 -6.15073e-06 1.91212e-06 8.56437e-06 -4.47246e-06 -1.03273e-05 4.03185e-06 -5.66044e-06 1.91325e-06 8.03716e-06 -4.16454e-06 -9.55985e-06 3.74811e-06 -5.18968e-06 1.88081e-06 7.49222e-06 -3.85791e-06 -8.78387e-06 3.45905e-06 -4.72192e-06 1.82663e-06 6.92586e-06 -3.55643e-06 -8.03456e-06 3.1729e-06 -4.27974e-06 1.75465e-06 6.37168e-06 -3.26543e-06 -7.30993e-06 2.89156e-06 -3.85488e-06 1.66858e-06 5.82399e-06 -2.98425e-06 -6.61879e-06 2.62877e-06 -3.45476e-06 1.57359e-06 5.29643e-06 -2.70784e-06 -5.95387e-06 2.37076e-06 -3.06791e-06 1.47941e-06 4.79522e-06 -2.45186e-06 -5.33403e-06 2.12776e-06 -2.7098e-06 1.37552e-06 4.31249e-06 -2.20267e-06 -4.74812e-06 1.89307e-06 -2.37697e-06 1.26462e-06 3.85257e-06 -1.96515e-06 -4.20595e-06 1.67506e-06 -2.06686e-06 1.16039e-06 3.43414e-06 -1.7459e-06 -3.69533e-06 1.47056e-06 -1.79906e-06 1.04991e-06 3.02443e-06 -1.54869e-06 -3.22507e-06 1.28084e-06 -1.52516e-06 9.52588e-07 2.64791e-06 -1.34937e-06 -2.78186e-06 1.10292e-06 -1.28181e-06 8.5313e-07 2.29967e-06 -1.16507e-06 -2.38475e-06 9.3889e-07 -1.06706e-06 7.45718e-07 1.97576e-06 -1.00199e-06 -2.01395e-06 7.92439e-07 -8.76103e-07 6.47812e-07 1.66711e-06 -8.42537e-07 -1.67392e-06 6.5957e-07 -6.95698e-07 5.68146e-07 1.40467e-06 -6.98356e-07 -1.37182e-06 5.37451e-07 -5.41273e-07 4.7187e-07 1.14886e-06 -5.54409e-07 -1.09619e-06 4.22044e-07 -4.09239e-07 3.79863e-07 9.24066e-07 -4.35743e-07 -8.42634e-07 3.21733e-07 -2.95637e-07 3.02331e-07 7.10677e-07 -3.20278e-07 -6.24471e-07 2.43192e-07 -2.09742e-07 2.21383e-07 5.26508e-07 -2.18473e-07 -4.40186e-07 1.7408e-07 -1.31064e-07 1.49244e-07 3.7152e-07 -1.3541e-07 -2.8774e-07 1.25379e-07 -7.11104e-08 9.58098e-08 2.48353e-07 -6.66672e-08 -1.60905e-07 7.37685e-08 -3.6826e-08 3.59335e-08 1.30308e-07 -5.37451e-09 -5.85375e-08 3.83783e-08 -1.67056e-08 1.14863e-08 6.47657e-08 2.18473e-08 -1.03804e-08 -1.13505e-08 -1.57161e-09 -1.39892e-08 1.81996e-08 1.24176e-09 -6.79089e-10 3.27302e-06 -7.15079e-06 -3.07426e-06 -3.07426e-06 3.95312e-06 -1.47902e-06 2.24235e-06 -1.21765e-05 -3.41196e-06 1.96668e-06 -5.00745e-06 -1.22285e-05 6.11033e-06 -9.60861e-06 1.85593e-06 9.5348e-06 -4.998e-06 -1.30842e-05 5.12728e-06 -7.55516e-06 1.49633e-06 1.02008e-05 -4.1276e-06 -1.21237e-05 4.70617e-06 -6.6477e-06 1.3212e-06 9.7804e-06 -3.70928e-06 -1.12354e-05 4.38323e-06 -6.01691e-06 1.32093e-06 9.20713e-06 -3.42529e-06 -1.03981e-05 4.09518e-06 -5.49449e-06 1.34871e-06 8.61004e-06 -3.18528e-06 -9.59666e-06 3.80414e-06 -5.01938e-06 1.35135e-06 7.99831e-06 -2.96574e-06 -8.82184e-06 3.5242e-06 -4.5792e-06 1.34801e-06 7.398e-06 -2.76083e-06 -8.08687e-06 3.25486e-06 -4.16018e-06 1.32651e-06 6.81247e-06 -2.5637e-06 -7.38184e-06 2.9916e-06 -3.76615e-06 1.29497e-06 6.24471e-06 -2.37375e-06 -6.71575e-06 2.7384e-06 -3.39267e-06 1.24949e-06 5.69946e-06 -2.18797e-06 -6.08522e-06 2.49668e-06 -3.04341e-06 1.19e-06 5.17528e-06 -2.00095e-06 -5.49104e-06 2.2628e-06 -2.71219e-06 1.12958e-06 4.69103e-06 -1.8289e-06 -4.92332e-06 2.042e-06 -2.40875e-06 1.06547e-06 4.21707e-06 -1.66206e-06 -4.3999e-06 1.83432e-06 -2.12217e-06 9.95429e-07 3.7788e-06 -1.49735e-06 -3.90502e-06 1.64274e-06 -1.85952e-06 9.19487e-07 3.3632e-06 -1.34694e-06 -3.44258e-06 1.45042e-06 -1.61916e-06 8.4696e-07 2.97053e-06 -1.19983e-06 -3.01956e-06 1.27626e-06 -1.38928e-06 7.74666e-07 2.61593e-06 -1.06173e-06 -2.6247e-06 1.12217e-06 -1.18111e-06 6.96823e-07 2.27596e-06 -9.31749e-07 -2.25593e-06 9.64967e-07 -1.00092e-06 6.19873e-07 1.95601e-06 -8.08116e-07 -1.91268e-06 8.30468e-07 -8.36386e-07 5.55301e-07 1.66846e-06 -6.9207e-07 -1.6082e-06 7.06951e-07 -6.7127e-07 4.85724e-07 1.40789e-06 -5.80117e-07 -1.33022e-06 5.91467e-07 -5.41254e-07 4.11218e-07 1.1654e-06 -4.75983e-07 -1.06262e-06 4.84133e-07 -4.2965e-07 3.44434e-07 9.33612e-07 -3.87838e-07 -8.45893e-07 3.95385e-07 -3.20705e-07 2.84131e-07 7.43739e-07 -3.01613e-07 -6.43059e-07 3.10945e-07 -2.40689e-07 2.17774e-07 5.60035e-07 -2.19191e-07 -4.69697e-07 2.3869e-07 -1.77281e-07 1.57588e-07 4.08385e-07 -1.52698e-07 -3.30484e-07 1.91193e-07 -1.17871e-07 1.15872e-07 2.93677e-07 -8.8495e-08 -1.95888e-07 1.37486e-07 -8.3625e-08 7.1673e-08 1.78892e-07 -4.58482e-08 -1.12224e-07 8.73891e-08 -4.99228e-08 2.66203e-08 9.26666e-08 -2.29726e-08 -4.25692e-08 4.21812e-08 -2.72412e-08 1.14087e-08 3.07336e-08 -2.44666e-08 6.59687e-09 4.41358e-06 -5.54234e-06 1.90421e-06 1.90421e-06 8.09824e-07 -3.9853e-06 3.76794e-06 -5.09369e-06 -3.58016e-07 4.46996e-06 3.34733e-07 -6.72155e-06 1.88383e-06 -8.51192e-06 -9.35087e-07 6.13548e-06 -4.48224e-06 -1.35543e-05 4.69321e-06 -6.26363e-06 1.21809e-06 1.08733e-05 -2.85247e-06 -1.1353e-05 4.47136e-06 -5.61417e-06 1.0255e-06 9.87951e-06 -2.4105e-06 -1.02591e-05 4.19569e-06 -5.11649e-06 9.95856e-07 9.12013e-06 -2.19181e-06 -9.39809e-06 3.91687e-06 -4.68413e-06 1.0004e-06 8.43611e-06 -2.04055e-06 -8.64035e-06 3.64508e-06 -4.28571e-06 9.97835e-07 7.79226e-06 -1.90939e-06 -7.93792e-06 3.38734e-06 -3.90523e-06 9.96127e-07 7.19051e-06 -1.78583e-06 -7.27247e-06 3.13673e-06 -3.5581e-06 9.77035e-07 6.60436e-06 -1.67101e-06 -6.63944e-06 2.89292e-06 -3.23336e-06 9.58098e-07 6.04506e-06 -1.56625e-06 -6.04704e-06 2.66145e-06 -2.92606e-06 9.27597e-07 5.5073e-06 -1.45793e-06 -5.48776e-06 2.43867e-06 -2.63419e-06 8.91159e-07 5.00306e-06 -1.342e-06 -4.95359e-06 2.22268e-06 -2.35958e-06 8.49327e-07 4.52852e-06 -1.23561e-06 -4.45349e-06 2.01697e-06 -2.0993e-06 8.0734e-07 4.0802e-06 -1.12892e-06 -3.98499e-06 1.8283e-06 -1.86546e-06 7.56428e-07 3.65692e-06 -1.0302e-06 -3.5458e-06 1.63684e-06 -1.64838e-06 7.0408e-07 3.25497e-06 -9.2719e-07 -3.13699e-06 1.46544e-06 -1.43924e-06 6.45989e-07 2.88353e-06 -8.36716e-07 -2.75644e-06 1.30009e-06 -1.24786e-06 5.90769e-07 2.53203e-06 -7.46552e-07 -2.39239e-06 1.14584e-06 -1.08212e-06 5.3617e-07 2.19823e-06 -6.56641e-07 -2.06298e-06 9.9865e-07 -9.22824e-07 4.77652e-07 1.89598e-06 -5.77556e-07 -1.76371e-06 8.69972e-07 -7.74783e-07 4.26352e-07 1.62132e-06 -4.99325e-07 -1.48243e-06 7.39431e-07 -6.42147e-07 3.72529e-07 1.36171e-06 -4.20589e-07 -1.22228e-06 6.27711e-07 -5.3163e-07 3.18163e-07 1.12391e-06 -3.51186e-07 -9.97233e-07 5.31009e-07 -4.23635e-07 2.66824e-07 9.15412e-07 -2.8384e-07 -7.85183e-07 4.31978e-07 -3.32618e-07 2.16998e-07 7.19718e-07 -2.21286e-07 -6.07998e-07 3.54019e-07 -2.63506e-07 1.7016e-07 5.57552e-07 -1.70335e-07 -4.42863e-07 2.76292e-07 -2.05648e-07 1.30502e-07 4.03146e-07 -1.24526e-07 -3.2672e-07 2.24565e-07 -1.54406e-07 8.85921e-08 2.90534e-07 -7.9143e-08 -2.08558e-07 1.77339e-07 -1.18782e-07 6.14285e-08 1.90417e-07 -5.2969e-08 -1.28523e-07 1.40863e-07 -9.11532e-08 4.26856e-08 1.17735e-07 -3.04426e-08 -5.48316e-08 9.01831e-08 -6.51344e-08 2.728e-08 5.11451e-08 -3.44589e-08 -6.8297e-09 5.20536e-06 -4.41835e-06 6.38406e-06 6.38406e-06 -1.91845e-06 -6.2009e-06 4.66406e-06 -4.4161e-06 2.64437e-06 7.04941e-06 -4.95968e-07 -7.17505e-06 3.44465e-06 -4.03616e-06 6.89838e-07 7.50561e-06 -1.23577e-06 -9.76197e-06 3.49638e-06 -4.75027e-06 8.92246e-07 9.37151e-06 -1.60075e-06 -1.00669e-05 4.40139e-06 -4.62342e-06 9.51152e-07 9.63651e-06 -1.39739e-06 -9.08131e-06 4.16724e-06 -4.28938e-06 9.41179e-07 8.81897e-06 -1.24683e-06 -8.30072e-06 3.90725e-06 -3.9518e-06 8.95855e-07 8.12261e-06 -1.14962e-06 -7.61166e-06 3.65327e-06 -3.63788e-06 8.6613e-07 7.48096e-06 -1.07469e-06 -6.98469e-06 3.39847e-06 -3.33183e-06 8.28644e-07 6.87262e-06 -1.00296e-06 -6.39658e-06 3.16029e-06 -3.05012e-06 7.92944e-07 6.30292e-06 -9.3594e-07 -5.83986e-06 2.92389e-06 -2.76768e-06 7.64616e-07 5.76838e-06 -8.65994e-07 -5.3077e-06 2.6982e-06 -2.52128e-06 7.23327e-07 5.24963e-06 -8.10755e-07 -4.81977e-06 2.4779e-06 -2.27829e-06 6.85764e-07 4.76597e-06 -7.46766e-07 -4.34988e-06 2.26769e-06 -2.05019e-06 6.48783e-07 4.31101e-06 -6.8751e-07 -3.90826e-06 2.06963e-06 -1.83963e-06 6.04234e-07 3.87345e-06 -6.3685e-07 -3.4996e-06 1.87235e-06 -1.64283e-06 5.63334e-07 3.46533e-06 -5.75305e-07 -3.10678e-06 1.6914e-06 -1.45426e-06 5.10753e-07 3.07348e-06 -5.23811e-07 -2.74469e-06 1.50867e-06 -1.28587e-06 4.63643e-07 2.70902e-06 -4.67485e-07 -2.40658e-06 1.35026e-06 -1.1237e-06 4.24256e-07 2.38236e-06 -4.14613e-07 -2.08451e-06 1.19819e-06 -9.68867e-07 3.84597e-07 2.06878e-06 -3.58889e-07 -1.78507e-06 1.04785e-06 -8.35319e-07 3.41252e-07 1.77813e-06 -3.13875e-07 -1.52054e-06 9.11765e-07 -7.13296e-07 2.93405e-07 1.50773e-06 -2.6923e-07 -1.27572e-06 7.81651e-07 -6.01014e-07 2.47577e-07 1.25942e-06 -2.33471e-07 -1.05612e-06 6.67487e-07 -4.9849e-07 2.11876e-07 1.03804e-06 -1.88457e-07 -8.51694e-07 5.57474e-07 -4.09704e-07 1.73498e-07 8.38889e-07 -1.45073e-07 -6.69582e-07 4.63682e-07 -3.28349e-07 1.32675e-07 6.58329e-07 -1.1302e-07 -5.16845e-07 3.79204e-07 -2.61236e-07 1.02911e-07 5.07183e-07 -7.7164e-08 -3.82657e-07 3.04232e-07 -2.05667e-07 6.32911e-08 3.68687e-07 -5.97599e-08 -2.72548e-07 2.41717e-07 -1.75651e-07 4.33453e-08 2.55803e-07 -3.96782e-08 -1.89039e-07 1.91426e-07 -1.44724e-07 2.32443e-08 1.72062e-07 -2.88516e-08 -1.21635e-07 1.66707e-07 -1.31899e-07 2.20413e-08 1.14126e-07 -3.38575e-08 -6.55224e-08 1.40669e-07 -1.12574e-07 3.08501e-08 6.17001e-08 -5.00198e-08 -2.71636e-08 6.15076e-06 -3.67527e-06 1.05362e-05 1.05362e-05 -4.78741e-06 -8.58004e-06 5.5078e-06 -3.7385e-06 5.51944e-06 9.48048e-06 -1.89691e-06 -8.00247e-06 4.81777e-06 -3.37185e-06 2.52299e-06 8.79588e-06 -7.19757e-07 -8.49046e-06 4.09941e-06 -3.02882e-06 1.36035e-06 9.07974e-06 -6.9725e-07 -7.94705e-06 3.84396e-06 -3.93313e-06 1.09628e-06 8.35637e-06 -7.23657e-07 -7.94727e-06 4.13728e-06 -3.66392e-06 9.95817e-07 8.34663e-06 -6.07048e-07 -7.25704e-06 3.92506e-06 -3.39603e-06 9.08272e-07 7.68236e-06 -5.0759e-07 -6.64338e-06 3.6847e-06 -3.13881e-06 8.1223e-07 7.06389e-06 -4.4199e-07 -6.07453e-06 3.44729e-06 -2.88733e-06 7.3881e-07 6.47611e-06 -3.84462e-07 -5.54769e-06 3.21597e-06 -2.65214e-06 6.67137e-07 5.9231e-06 -3.34054e-07 -5.04228e-06 2.98194e-06 -2.42192e-06 6.04467e-07 5.39321e-06 -2.98838e-07 -4.5745e-06 2.74969e-06 -2.21306e-06 5.52895e-07 4.89752e-06 -2.63642e-07 -4.13148e-06 2.53696e-06 -2.00463e-06 5.02293e-07 4.42832e-06 -2.30231e-07 -3.71371e-06 2.32443e-06 -1.81235e-06 4.58211e-07 3.99006e-06 -2.05434e-07 -3.32742e-06 2.11577e-06 -1.63505e-06 4.10985e-07 3.57263e-06 -1.77436e-07 -2.965e-06 1.91922e-06 -1.45973e-06 3.67096e-07 3.18691e-06 -1.55783e-07 -2.62045e-06 1.73327e-06 -1.30686e-06 3.25381e-07 2.81578e-06 -1.28736e-07 -2.29988e-06 1.55678e-06 -1.15263e-06 2.82113e-07 2.4734e-06 -1.08829e-07 -1.99885e-06 1.38472e-06 -1.00833e-06 2.44821e-07 2.15039e-06 -8.26161e-08 -1.71862e-06 1.22581e-06 -8.80954e-07 2.09276e-07 1.85694e-06 -6.67642e-08 -1.47166e-06 1.06854e-06 -7.53847e-07 1.72605e-07 1.58612e-06 -4.67019e-08 -1.23645e-06 9.32952e-07 -6.50529e-07 1.3411e-07 1.32997e-06 -3.13933e-08 -1.02143e-06 7.97523e-07 -5.46706e-07 1.0749e-07 1.1016e-06 -1.17191e-08 -8.30002e-07 6.79012e-07 -4.56853e-07 7.64461e-08 8.97407e-07 -4.07454e-10 -6.58426e-07 5.63722e-07 -3.75847e-07 5.0175e-08 7.09707e-07 8.73115e-09 -5.13411e-07 4.65545e-07 -3.13448e-07 2.44084e-08 5.47307e-07 1.8122e-08 -3.77496e-07 3.832e-07 -2.52893e-07 6.55806e-09 4.02409e-07 2.38651e-08 -2.69948e-07 3.0202e-07 -2.05628e-07 -6.8685e-09 2.86692e-07 3.56231e-08 -1.83335e-07 2.35663e-07 -1.67153e-07 -2.66591e-08 1.91891e-07 3.13157e-08 -1.13505e-07 1.95461e-07 -1.51398e-07 -2.72024e-08 1.16997e-07 1.66862e-08 -8.13549e-08 1.64999e-07 -1.52737e-07 -2.76098e-08 6.9694e-08 -8.3625e-09 -6.47657e-08 1.59411e-07 -1.68802e-07 2.32831e-09 5.7936e-08 -5.9527e-08 -5.11451e-08 7.20754e-06 -3.55571e-06 1.43885e-05 1.43885e-05 -7.73302e-06 -1.10771e-05 6.39784e-06 -3.32391e-06 8.33786e-06 1.18919e-05 -3.46898e-06 -9.01055e-06 6.01262e-06 -2.91479e-06 4.42347e-06 1.0171e-05 -8.06001e-07 -7.62745e-06 4.813e-06 -2.95571e-06 2.21096e-06 9.00279e-06 -4.50877e-07 -7.01722e-06 4.24997e-06 -2.78116e-06 1.61111e-06 8.17371e-06 -2.26855e-07 -6.50667e-06 3.99285e-06 -3.07581e-06 1.24312e-06 7.5557e-06 -1.07917e-07 -6.25944e-06 4.0159e-06 -2.88006e-06 1.003e-06 7.2415e-06 1.07102e-08 -5.69508e-06 3.79821e-06 -2.68264e-06 8.41566e-07 6.63373e-06 9.62367e-08 -5.17788e-06 3.56378e-06 -2.47763e-06 7.01169e-07 6.05534e-06 1.61429e-07 -4.68368e-06 3.3202e-06 -2.29047e-06 5.80835e-07 5.49733e-06 2.07025e-07 -4.231e-06 3.07325e-06 -2.09982e-06 4.88983e-07 4.98925e-06 2.40126e-07 -3.80874e-06 2.84488e-06 -1.91398e-06 4.0726e-07 4.50962e-06 2.56075e-07 -3.41784e-06 2.6096e-06 -1.74947e-06 3.35548e-07 4.05432e-06 2.66475e-07 -3.04422e-06 2.39237e-06 -1.58214e-06 2.78116e-07 3.62595e-06 2.71519e-07 -2.69981e-06 2.17549e-06 -1.42683e-06 2.23634e-07 3.22517e-06 2.70084e-07 -2.38409e-06 1.96827e-06 -1.27968e-06 1.73032e-07 2.85128e-06 2.67173e-07 -2.08711e-06 1.772e-06 -1.13786e-06 1.33024e-07 2.50623e-06 2.67561e-07 -1.80882e-06 1.5784e-06 -1.00594e-06 9.14636e-08 2.18248e-06 2.67678e-07 -1.55636e-06 1.40296e-06 -8.83476e-07 4.41602e-08 1.87933e-06 2.56269e-07 -1.31848e-06 1.22368e-06 -7.66537e-07 1.28833e-08 1.59578e-06 2.50836e-07 -1.10358e-06 1.07482e-06 -6.63238e-07 -1.91115e-08 1.3411e-06 2.33452e-07 -9.05459e-07 9.22553e-07 -5.69504e-07 -4.4005e-08 1.09884e-06 2.30386e-07 -7.23502e-07 7.83165e-07 -4.7057e-07 -6.16807e-08 8.94807e-07 2.20607e-07 -5.60443e-07 6.54991e-07 -3.96317e-07 -8.2228e-08 7.00355e-07 2.07336e-07 -4.21404e-07 5.46454e-07 -3.22548e-07 -9.35397e-08 5.35976e-07 1.9193e-07 -3.01399e-07 4.44551e-07 -2.5755e-07 -1.05104e-07 3.88478e-07 1.84324e-07 -2.03979e-07 3.50061e-07 -2.13001e-07 -1.13253e-07 2.74934e-07 1.64223e-07 -1.23924e-07 2.74934e-07 -1.71189e-07 -1.1205e-07 1.75748e-07 1.38185e-07 -6.73269e-08 2.0656e-07 -1.45519e-07 -1.11545e-07 9.35203e-08 1.16959e-07 -2.81337e-08 1.60032e-07 -1.37079e-07 -9.8565e-08 4.59841e-08 8.56429e-08 -1.16415e-08 1.46839e-07 -1.5134e-07 -8.20534e-08 1.45907e-08 4.09782e-08 -2.79397e-08 1.54988e-07 -1.92648e-07 -3.02098e-08 3.79902e-08 -3.62246e-08 -5.84793e-08 7.65505e-06 -3.96416e-06 1.74405e-05 1.74405e-05 -1.07282e-05 -1.36569e-05 7.22233e-06 -3.2521e-06 1.10046e-05 1.41721e-05 -5.24839e-06 -1.02391e-05 7.07778e-06 -2.6818e-06 6.38379e-06 1.16384e-05 -1.36575e-06 -7.1915e-06 5.57847e-06 -3.00897e-06 3.34725e-06 9.16297e-06 -6.13237e-07 -6.41864e-06 4.85914e-06 -2.572e-06 2.34988e-06 8.15971e-06 -9.77695e-08 -5.71937e-06 4.453e-06 -2.39154e-06 1.70129e-06 7.35318e-06 2.2115e-07 -5.15559e-06 4.18404e-06 -2.45392e-06 1.25845e-06 6.6834e-06 4.35238e-07 -4.74897e-06 4.03682e-06 -2.30126e-06 9.27714e-07 6.18076e-06 5.61898e-07 -4.25267e-06 3.76852e-06 -2.13894e-06 7.00044e-07 5.57882e-06 6.54332e-07 -3.7946e-06 3.50724e-06 -1.98119e-06 5.26896e-07 5.03244e-06 7.0668e-07 -3.37845e-06 3.23778e-06 -1.81523e-06 3.86771e-07 4.5201e-06 7.31554e-07 -3.00142e-06 2.98369e-06 -1.6685e-06 2.702e-07 4.0433e-06 7.42536e-07 -2.64307e-06 2.72808e-06 -1.51404e-06 1.87856e-07 3.60589e-06 7.41216e-07 -2.32639e-06 2.48062e-06 -1.37733e-06 9.98067e-08 3.19331e-06 7.24647e-07 -2.02898e-06 2.25105e-06 -1.232e-06 3.93096e-08 2.81318e-06 7.12307e-07 -1.74689e-06 2.02473e-06 -1.10635e-06 -1.73459e-08 2.45745e-06 6.8394e-07 -1.50098e-06 1.80937e-06 -9.78277e-07 -6.57941e-08 2.13083e-06 6.58872e-07 -1.26415e-06 1.6056e-06 -8.60232e-07 -1.07626e-07 1.82388e-06 6.26392e-07 -1.0437e-06 1.41286e-06 -7.5408e-07 -1.40843e-07 1.53532e-06 6.05049e-07 -8.52548e-07 1.22609e-06 -6.44844e-07 -1.81957e-07 1.27971e-06 5.67408e-07 -6.77266e-07 1.05888e-06 -5.54583e-07 -2.08655e-07 1.03858e-06 5.4071e-07 -5.14556e-07 8.97989e-07 -4.57396e-07 -2.30483e-07 8.26316e-07 5.10753e-07 -3.72005e-07 7.43079e-07 -3.78951e-07 -2.47033e-07 6.3652e-07 4.67524e-07 -2.49303e-07 6.24335e-07 -3.04038e-07 -2.51069e-07 4.66049e-07 4.34772e-07 -1.42066e-07 4.98374e-07 -2.4713e-07 -2.6079e-07 3.15951e-07 3.94221e-07 -5.78584e-08 3.85645e-07 -1.98158e-07 -2.57336e-07 1.94452e-07 3.52622e-07 8.3431e-09 2.93289e-07 -1.51437e-07 -2.44511e-07 9.93799e-08 3.1273e-07 5.51421e-08 2.25147e-07 -1.17618e-07 -2.27883e-07 2.92591e-08 2.70006e-07 8.9795e-08 1.57626e-07 -1.0361e-07 -2.03164e-07 -2.33607e-08 2.14825e-07 8.62638e-08 1.23206e-07 -9.905e-08 -1.77572e-07 -4.93795e-08 1.59761e-07 7.04701e-08 9.77501e-08 -1.20102e-07 -1.36284e-07 -4.73422e-08 1.08615e-07 3.96588e-08 1.11603e-07 -1.84751e-07 -8.45175e-08 -1.59295e-08 -2.71636e-10 -4.80019e-08 5.28304e-06 -3.95925e-06 1.89562e-05 1.89562e-05 -1.30768e-05 -1.62284e-05 6.99932e-06 -3.43518e-06 1.26305e-05 1.6054e-05 -7.13042e-06 -1.20536e-05 7.95528e-06 -2.94356e-06 7.95439e-06 1.32477e-05 -2.60697e-06 -7.86052e-06 6.73955e-06 -3.25918e-06 4.65712e-06 9.93973e-06 -1.18905e-06 -6.35181e-06 5.9276e-06 -2.68692e-06 3.27977e-06 8.49188e-06 -3.07104e-07 -5.23363e-06 5.34661e-06 -2.35196e-06 2.35551e-06 7.34961e-06 2.88283e-07 -4.39464e-06 4.88851e-06 -2.14511e-06 1.6718e-06 6.42616e-06 6.8328e-07 -3.75453e-06 4.50446e-06 -2.05972e-06 1.15589e-06 5.66104e-06 9.60659e-07 -3.27009e-06 4.17438e-06 -1.90417e-06 7.48822e-07 5.04432e-06 1.09772e-06 -2.82631e-06 3.83429e-06 -1.75347e-06 4.9038e-07 4.46717e-06 1.17708e-06 -2.43269e-06 3.50915e-06 -1.60832e-06 2.97868e-07 3.9485e-06 1.20719e-06 -2.09571e-06 3.20049e-06 -1.47081e-06 1.53901e-07 3.48745e-06 1.21708e-06 -1.78721e-06 2.90631e-06 -1.32525e-06 4.02409e-08 3.06743e-06 1.19768e-06 -1.51472e-06 2.62489e-06 -1.19411e-06 -5.13198e-08 2.6774e-06 1.17564e-06 -1.27219e-06 2.35093e-06 -1.06788e-06 -1.35585e-07 2.32342e-06 1.1378e-06 -1.05092e-06 2.10002e-06 -9.42052e-07 -2.02912e-07 1.99307e-06 1.09617e-06 -8.44962e-07 1.86385e-06 -8.23735e-07 -2.51224e-07 1.69446e-06 1.05073e-06 -6.58135e-07 1.63086e-06 -7.10192e-07 -3.08481e-07 1.40273e-06 1.00381e-06 -4.82716e-07 1.41658e-06 -6.02915e-07 -3.43018e-07 1.14429e-06 9.52122e-07 -3.39292e-07 1.21891e-06 -5.17505e-07 -3.82929e-07 9.08272e-07 8.92867e-07 -1.9552e-07 1.03377e-06 -4.27147e-07 -3.96588e-07 6.9108e-07 8.42692e-07 -7.99967e-08 8.49987e-07 -3.3871e-07 -4.19115e-07 5.02526e-07 7.92245e-07 2.37099e-08 6.97328e-07 -2.61197e-07 -4.3355e-07 3.3384e-07 7.31205e-07 1.11138e-07 5.47501e-07 -1.99633e-07 -4.33143e-07 1.85876e-07 6.78003e-07 1.82462e-07 4.2542e-07 -1.45713e-07 -4.33802e-07 6.06912e-08 6.15139e-07 2.3058e-07 3.16688e-07 -1.00641e-07 -4.20764e-07 -3.69425e-08 5.43931e-07 2.68919e-07 2.22586e-07 -6.63955e-08 -3.88206e-07 -1.13777e-07 4.72607e-07 2.78077e-07 1.32558e-07 -4.8972e-08 -3.56231e-07 -1.62011e-07 4.04931e-07 2.66436e-07 7.81923e-08 -3.63992e-08 -3.19793e-07 -1.81511e-07 3.24915e-07 2.39893e-07 4.70706e-08 -5.04078e-08 -2.55726e-07 -1.70898e-07 2.50681e-07 1.84014e-07 3.91932e-08 -7.56118e-08 -1.94763e-07 -1.28231e-07 1.58364e-07 1.08577e-07 6.91507e-08 -1.36264e-07 -1.26485e-07 -7.68147e-08 5.9333e-08 1.23012e-08 1.66633e-06 -2.17079e-05 -1.0164e-05 -1.0164e-05 -3.94481e-06 -9.73034e-06 9.05537e-06 -1.36319e-05 1.18002e-06 7.50813e-06 -4.82326e-06 -1.16895e-05 6.5673e-06 -1.02552e-05 1.34002e-06 8.7724e-06 -5.3079e-06 -1.22535e-05 5.20648e-06 -8.42672e-06 1.74491e-06 9.22723e-06 -5.52833e-06 -1.22628e-05 4.59899e-06 -7.27823e-06 2.03634e-06 9.27112e-06 -5.40914e-06 -1.18617e-05 4.25816e-06 -6.59173e-06 2.12373e-06 8.99336e-06 -5.15021e-06 -1.12474e-05 3.9996e-06 -6.04844e-06 2.13622e-06 8.57822e-06 -4.83766e-06 -1.05346e-05 3.75296e-06 -5.5558e-06 2.10165e-06 8.08244e-06 -4.51047e-06 -9.78085e-06 3.5138e-06 -5.0982e-06 2.04561e-06 7.54779e-06 -4.17533e-06 -9.02283e-06 3.26134e-06 -4.65298e-06 1.96897e-06 7.00494e-06 -3.83751e-06 -8.26042e-06 3.0204e-06 -4.22068e-06 1.88057e-06 6.45585e-06 -3.5131e-06 -7.52286e-06 2.77297e-06 -3.80946e-06 1.7763e-06 5.90827e-06 -3.19824e-06 -6.81437e-06 2.52811e-06 -3.41722e-06 1.67363e-06 5.38731e-06 -2.89589e-06 -6.1465e-06 2.29202e-06 -3.0547e-06 1.54425e-06 4.87233e-06 -2.61436e-06 -5.50755e-06 2.06389e-06 -2.69639e-06 1.43268e-06 4.38672e-06 -2.34249e-06 -4.90661e-06 1.84355e-06 -2.37815e-06 1.32081e-06 3.93239e-06 -2.09018e-06 -4.34437e-06 1.64173e-06 -2.06474e-06 1.20998e-06 3.5008e-06 -1.8505e-06 -3.82603e-06 1.44522e-06 -1.78507e-06 1.0926e-06 3.09614e-06 -1.63994e-06 -3.35218e-06 1.26353e-06 -1.52731e-06 9.81342e-07 2.71465e-06 -1.42159e-06 -2.88954e-06 1.09155e-06 -1.2901e-06 8.73581e-07 2.35714e-06 -1.22385e-06 -2.47468e-06 9.37299e-07 -1.07151e-06 7.71989e-07 2.03428e-06 -1.04747e-06 -2.09425e-06 7.88132e-07 -8.73697e-07 6.68651e-07 1.72361e-06 -8.85862e-07 -1.74697e-06 6.60967e-07 -7.04992e-07 5.68611e-07 1.4354e-06 -7.268e-07 -1.43367e-06 5.378e-07 -5.54758e-07 4.76992e-07 1.18767e-06 -5.87859e-07 -1.14851e-06 4.29999e-07 -4.20279e-07 3.92552e-07 9.55731e-07 -4.55494e-07 -9.00783e-07 3.34073e-07 -2.98159e-07 2.99692e-07 7.46571e-07 -3.35102e-07 -6.70766e-07 2.624e-07 -2.06327e-07 2.25807e-07 5.62402e-07 -2.27902e-07 -4.73034e-07 1.88593e-07 -1.39834e-07 1.54755e-07 4.00469e-07 -1.41774e-07 -3.13565e-07 1.40552e-07 -7.97639e-08 9.44516e-08 2.66552e-07 -6.29225e-08 -1.78775e-07 8.55265e-08 -3.6244e-08 4.19095e-08 1.57937e-07 -6.18941e-09 -8.15295e-08 5.38615e-08 -1.86459e-08 3.72529e-09 7.91624e-08 1.90921e-08 -2.7571e-08 1.55997e-08 -1.70742e-08 -1.89175e-08 2.78233e-08 2.00622e-08 -4.21035e-09 3.17003e-06 -7.56981e-06 -3.91817e-06 -3.91817e-06 4.32526e-06 -8.75948e-07 1.95748e-06 -1.29621e-05 -3.83251e-06 1.32764e-06 -5.38425e-06 -1.2201e-05 6.73948e-06 -1.00152e-05 1.94472e-06 9.22068e-06 -5.00842e-06 -1.23133e-05 5.36193e-06 -8.13929e-06 1.86645e-06 9.63244e-06 -4.84625e-06 -1.2207e-05 4.68094e-06 -6.82423e-06 1.84002e-06 9.65397e-06 -4.37782e-06 -1.15513e-05 4.25843e-06 -6.05926e-06 1.71084e-06 9.26398e-06 -4.02042e-06 -1.0777e-05 3.93938e-06 -5.49238e-06 1.65558e-06 8.72459e-06 -3.70804e-06 -9.99049e-06 3.66638e-06 -5.00209e-06 1.607e-06 8.14663e-06 -3.41502e-06 -9.19479e-06 3.40616e-06 -4.56573e-06 1.55799e-06 7.54907e-06 -3.14822e-06 -8.43348e-06 3.15672e-06 -4.15265e-06 1.50273e-06 6.96148e-06 -2.89967e-06 -7.69682e-06 2.91151e-06 -3.76153e-06 1.44413e-06 6.38297e-06 -2.65159e-06 -6.9978e-06 2.67643e-06 -3.40117e-06 1.36559e-06 5.82725e-06 -2.42672e-06 -6.33022e-06 2.44689e-06 -3.05208e-06 1.29454e-06 5.29127e-06 -2.21348e-06 -5.70068e-06 2.22974e-06 -2.7358e-06 1.21736e-06 4.77947e-06 -1.99963e-06 -5.11482e-06 2.01635e-06 -2.42365e-06 1.1335e-06 4.30869e-06 -1.80038e-06 -4.56175e-06 1.81491e-06 -2.1362e-06 1.05523e-06 3.86429e-06 -1.61874e-06 -4.0478e-06 1.62093e-06 -1.87398e-06 9.72301e-07 3.43856e-06 -1.4458e-06 -3.57137e-06 1.43777e-06 -1.63798e-06 8.84368e-07 3.03879e-06 -1.28753e-06 -3.12808e-06 1.28034e-06 -1.40215e-06 8.0346e-07 2.66599e-06 -1.12133e-06 -2.7066e-06 1.11115e-06 -1.20236e-06 7.21659e-07 2.32342e-06 -9.85223e-07 -2.33209e-06 9.6617e-07 -1.01328e-06 6.47618e-07 2.00673e-06 -8.48415e-07 -1.98059e-06 8.34077e-07 -8.4275e-07 5.67253e-07 1.70828e-06 -7.23541e-07 -1.66338e-06 7.08969e-07 -6.924e-07 4.92592e-07 1.4387e-06 -6.00296e-07 -1.36505e-06 5.89023e-07 -5.56019e-07 4.10868e-07 1.17991e-06 -4.95425e-07 -1.11411e-06 4.8355e-07 -4.35258e-07 3.48742e-07 9.70283e-07 -3.98024e-07 -8.7748e-07 3.94726e-07 -3.39816e-07 2.82734e-07 7.63917e-07 -3.0559e-07 -6.68399e-07 3.20569e-07 -2.51574e-07 2.16532e-07 5.80369e-07 -2.15155e-07 -4.7936e-07 2.50914e-07 -1.80754e-07 1.65155e-07 4.29844e-07 -1.47052e-07 -3.34403e-07 1.96781e-07 -1.33897e-07 1.02484e-07 2.90029e-07 -8.78354e-08 -2.14612e-07 1.41755e-07 -8.28683e-08 6.17001e-08 1.88476e-07 -3.92708e-08 -1.20723e-07 1.04347e-07 -5.3066e-08 3.12381e-08 1.12612e-07 -2.91038e-09 -3.832e-08 5.9139e-08 -3.31202e-08 5.3551e-09 4.05901e-08 1.47459e-09 1.08654e-09 4.0873e-06 -5.83142e-06 1.03101e-06 1.03101e-06 1.18763e-06 -3.33324e-06 3.32537e-06 -5.26254e-06 -7.01829e-07 3.85044e-06 3.46064e-07 -6.22861e-06 2.53452e-06 -8.80529e-06 -1.07205e-06 5.5813e-06 -4.26608e-06 -1.19919e-05 4.9948e-06 -7.2452e-06 1.70886e-06 9.8097e-06 -3.95275e-06 -1.19024e-05 4.37287e-06 -5.93489e-06 1.46319e-06 9.82293e-06 -3.24655e-06 -1.09233e-05 4.03096e-06 -5.26779e-06 1.26245e-06 9.27151e-06 -2.84822e-06 -1.00274e-05 3.75758e-06 -4.76088e-06 1.19066e-06 8.64058e-06 -2.58097e-06 -9.20176e-06 3.50398e-06 -4.34076e-06 1.15577e-06 7.99921e-06 -2.36451e-06 -8.43082e-06 3.26898e-06 -3.9628e-06 1.12422e-06 7.37491e-06 -2.17957e-06 -7.70134e-06 3.03693e-06 -3.60513e-06 1.09279e-06 6.76726e-06 -2.00165e-06 -7.01761e-06 2.811e-06 -3.27641e-06 1.05208e-06 6.19473e-06 -1.84728e-06 -6.3757e-06 2.59218e-06 -2.96838e-06 1.0016e-06 5.63442e-06 -1.68661e-06 -5.76436e-06 2.37798e-06 -2.6768e-06 9.57943e-07 5.1215e-06 -1.54534e-06 -5.1955e-06 2.18019e-06 -2.40192e-06 9.06759e-07 4.62666e-06 -1.40492e-06 -4.6558e-06 1.97506e-06 -2.14689e-06 8.49677e-07 4.15673e-06 -1.27486e-06 -4.16189e-06 1.78876e-06 -1.89813e-06 7.95699e-07 3.7277e-06 -1.14624e-06 -3.69941e-06 1.61588e-06 -1.68047e-06 7.28721e-07 3.3176e-06 -1.03711e-06 -3.26048e-06 1.44103e-06 -1.47603e-06 6.74122e-07 2.92532e-06 -9.26026e-07 -2.8606e-06 1.28697e-06 -1.28156e-06 6.14362e-07 2.57033e-06 -8.06991e-07 -2.47687e-06 1.13412e-06 -1.09735e-06 5.53167e-07 2.23925e-06 -7.09357e-07 -2.13415e-06 9.86853e-07 -9.3887e-07 4.98102e-07 1.93494e-06 -6.21231e-07 -1.82299e-06 8.60038e-07 -7.94244e-07 4.37528e-07 1.64809e-06 -5.27924e-07 -1.5297e-06 7.40363e-07 -6.57417e-07 3.77108e-07 1.38503e-06 -4.41447e-07 -1.25909e-06 6.23094e-07 -5.50218e-07 3.25846e-07 1.1477e-06 -3.72238e-07 -1.02946e-06 5.22356e-07 -4.35975e-07 2.71054e-07 9.30935e-07 -3.01225e-07 -8.14791e-07 4.37295e-07 -3.4263e-07 2.25264e-07 7.40479e-07 -2.30716e-07 -6.13936e-07 3.57317e-07 -2.70801e-07 1.77844e-07 5.61898e-07 -1.66843e-07 -4.6312e-07 2.83238e-07 -2.06269e-07 1.28057e-07 4.24683e-07 -1.20529e-07 -3.25264e-07 2.31007e-07 -1.69675e-07 8.93682e-08 2.94182e-07 -7.54759e-08 -2.13836e-07 1.86575e-07 -1.29085e-07 5.77808e-08 1.96005e-07 -4.90885e-08 -1.22624e-07 1.45558e-07 -1.02834e-07 3.91155e-08 1.12341e-07 -2.98023e-08 -6.33881e-08 1.11914e-07 -8.26937e-08 2.59218e-08 5.92166e-08 -2.89874e-08 -4.44318e-09 4.9752e-06 -4.48527e-06 5.49022e-06 5.49022e-06 -1.50263e-06 -5.72932e-06 4.3029e-06 -4.44476e-06 2.16121e-06 6.4881e-06 -5.89411e-07 -7.09326e-06 3.45024e-06 -3.96064e-06 4.85646e-07 7.11647e-06 -5.26876e-07 -8.00427e-06 2.32819e-06 -6.1321e-06 -7.48939e-08 7.51853e-06 -3.0295e-06 -1.15221e-05 4.05533e-06 -4.80741e-06 1.14421e-06 1.0021e-05 -2.08226e-06 -1.00211e-05 3.88575e-06 -4.35102e-06 9.87357e-07 9.19623e-06 -1.73707e-06 -9.06274e-06 3.67092e-06 -3.97995e-06 9.20923e-07 8.46421e-06 -1.5366e-06 -8.2618e-06 3.44516e-06 -3.64785e-06 8.71563e-07 7.77848e-06 -1.39731e-06 -7.54911e-06 3.2221e-06 -3.34647e-06 8.33417e-07 7.13839e-06 -1.27752e-06 -6.8744e-06 2.99944e-06 -3.06848e-06 8.02296e-07 6.52818e-06 -1.18293e-06 -6.26118e-06 2.78566e-06 -2.79418e-06 7.65276e-07 5.95166e-06 -1.07997e-06 -5.6721e-06 2.57499e-06 -2.54598e-06 7.29963e-07 5.41215e-06 -9.89414e-07 -5.13071e-06 2.37196e-06 -2.30122e-06 6.91779e-07 4.90764e-06 -9.06468e-07 -4.61816e-06 2.17937e-06 -2.07596e-06 6.50296e-07 4.42316e-06 -8.21407e-07 -4.13763e-06 1.98938e-06 -1.86414e-06 6.11336e-07 3.97733e-06 -7.5245e-07 -3.68806e-06 1.8063e-06 -1.66066e-06 5.6605e-07 3.54151e-06 -6.77479e-07 -3.27327e-06 1.61747e-06 -1.48133e-06 5.11684e-07 3.1391e-06 -6.01188e-07 -2.88793e-06 1.45527e-06 -1.30265e-06 4.65079e-07 2.77666e-06 -5.40478e-07 -2.52233e-06 1.30354e-06 -1.14244e-06 4.27749e-07 2.4287e-06 -4.73151e-07 -2.18929e-06 1.15364e-06 -9.91044e-07 3.78311e-07 2.10898e-06 -4.12459e-07 -1.87421e-06 1.01475e-06 -8.4566e-07 3.39894e-07 1.81247e-06 -3.58268e-07 -1.59155e-06 8.82583e-07 -7.30487e-07 3.00623e-07 1.54165e-06 -3.08869e-07 -1.33338e-06 7.64849e-07 -6.08018e-07 2.54717e-07 1.28472e-06 -2.45306e-07 -1.09211e-06 6.45989e-07 -5.04563e-07 2.1498e-07 1.06547e-06 -2.07607e-07 -8.88268e-07 5.47191e-07 -4.18203e-07 1.78077e-07 8.61163e-07 -1.67037e-07 -6.99986e-07 4.54253e-07 -3.39118e-07 1.41173e-07 6.75558e-07 -1.27223e-07 -5.31572e-07 3.79786e-07 -2.69812e-07 1.11603e-07 5.16612e-07 -9.03965e-08 -3.88168e-07 3.00002e-07 -2.13874e-07 6.99656e-08 3.67989e-07 -5.87897e-08 -2.74158e-07 2.46218e-07 -1.7635e-07 4.28796e-08 2.5817e-07 -3.48276e-08 -1.85178e-07 1.96587e-07 -1.507e-07 2.66203e-08 1.7668e-07 -2.20219e-08 -1.20238e-07 1.72139e-07 -1.34751e-07 1.73071e-08 1.15212e-07 -2.85218e-08 -7.39431e-08 1.47692e-07 -1.24661e-07 2.32443e-08 6.81806e-08 -3.89215e-08 -2.67561e-08 5.95542e-06 -3.66761e-06 9.73993e-06 9.73993e-06 -4.1847e-06 -8.02703e-06 5.16911e-06 -3.77886e-06 5.05693e-06 9.06398e-06 -1.78387e-06 -7.908e-06 4.25056e-06 -3.34634e-06 2.34682e-06 8.66297e-06 -5.52022e-07 -7.80662e-06 3.34073e-06 -3.08235e-06 9.02529e-07 8.32366e-06 -7.23153e-07 -8.63126e-06 3.33476e-06 -3.65723e-06 8.52393e-07 8.84438e-06 -1.00173e-06 -8.77108e-06 3.93884e-06 -3.53559e-06 9.18284e-07 8.87787e-06 -8.20747e-07 -7.93617e-06 3.7495e-06 -3.30263e-06 8.44089e-07 8.12342e-06 -6.93001e-07 -7.21208e-06 3.54062e-06 -3.0645e-06 7.75598e-07 7.43568e-06 -6.00373e-07 -6.56109e-06 3.31861e-06 -2.82757e-06 7.0505e-07 6.78678e-06 -5.23597e-07 -5.95883e-06 3.09498e-06 -2.59744e-06 6.50684e-07 6.1886e-06 -4.6634e-07 -5.40734e-06 2.86812e-06 -2.38265e-06 5.99228e-07 5.62693e-06 -4.12576e-07 -4.88605e-06 2.65392e-06 -2.17609e-06 5.534e-07 5.09953e-06 -3.69851e-07 -4.40607e-06 2.43913e-06 -1.97883e-06 5.04622e-07 4.60108e-06 -3.27806e-07 -3.95226e-06 2.24387e-06 -1.79316e-06 4.60151e-07 4.13406e-06 -2.85994e-07 -3.52488e-06 2.04681e-06 -1.61e-06 4.22083e-07 3.70111e-06 -2.48314e-07 -3.13396e-06 1.85655e-06 -1.44648e-06 3.74198e-07 3.29199e-06 -2.17988e-07 -2.76867e-06 1.68014e-06 -1.28573e-06 3.38458e-07 2.91465e-06 -1.88535e-07 -2.42588e-06 1.50315e-06 -1.14155e-06 2.97286e-07 2.5545e-06 -1.57413e-07 -2.11016e-06 1.33233e-06 -1.00082e-06 2.58869e-07 2.22695e-06 -1.29299e-07 -1.81691e-06 1.17968e-06 -8.73115e-07 2.17891e-07 1.91701e-06 -1.00796e-07 -1.55116e-06 1.03687e-06 -7.54294e-07 1.78271e-07 1.63719e-06 -8.14131e-08 -1.29807e-06 8.98804e-07 -6.44048e-07 1.44471e-07 1.36722e-06 -6.32523e-08 -1.07824e-06 7.7001e-07 -5.47443e-07 1.20218e-07 1.1394e-06 -3.80096e-08 -8.75948e-07 6.64693e-07 -4.50159e-07 8.67294e-08 9.27481e-07 -1.95772e-08 -6.88092e-07 5.51731e-07 -3.80601e-07 5.93718e-08 7.29614e-07 -1.1855e-08 -5.33008e-07 4.56542e-07 -3.11004e-07 3.67096e-08 5.58832e-07 1.86265e-09 -4.0369e-07 3.7121e-07 -2.50351e-07 1.59489e-08 4.21928e-07 1.77339e-08 -2.8384e-07 3.01787e-07 -2.06036e-07 -5.84017e-09 2.95773e-07 2.39039e-08 -1.90417e-07 2.39971e-07 -1.76389e-07 -1.7928e-08 1.96237e-07 2.68143e-08 -1.19054e-07 1.86187e-07 -1.55085e-07 -2.53979e-08 1.20141e-07 1.46295e-08 -8.22086e-08 1.65349e-07 -1.54716e-07 -2.15562e-08 7.48939e-08 -2.13428e-10 -5.71405e-08 1.71674e-07 -1.73304e-07 9.1192e-09 6.55418e-08 -4.93019e-08 -5.52003e-08 7.04627e-06 -3.48885e-06 1.37262e-05 1.37262e-05 -7.13444e-06 -1.0488e-05 6.08293e-06 -3.37115e-06 7.94601e-06 1.15023e-05 -3.36008e-06 -8.8984e-06 5.08351e-06 -2.9195e-06 4.31521e-06 1.00864e-05 -1.18583e-06 -7.85563e-06 4.39802e-06 -2.58071e-06 2.18209e-06 9.0362e-06 -2.50293e-07 -7.45669e-06 3.92937e-06 -2.41061e-06 1.31293e-06 8.57969e-06 -1.35954e-07 -6.91771e-06 3.74807e-06 -2.98194e-06 1.00513e-06 7.8559e-06 -1.62671e-07 -6.7589e-06 3.89809e-06 -2.81428e-06 8.90771e-07 7.60351e-06 -6.31747e-08 -6.12971e-06 3.69588e-06 -2.62633e-06 7.65353e-07 6.93758e-06 1.87041e-08 -5.54284e-06 3.46894e-06 -2.43956e-06 6.48899e-07 6.30315e-06 8.05982e-08 -4.99986e-06 3.22765e-06 -2.252e-06 5.5697e-07 5.71708e-06 1.19597e-07 -4.50729e-06 2.99467e-06 -2.06781e-06 4.72957e-07 5.16748e-06 1.45364e-07 -4.05094e-06 2.75963e-06 -1.88723e-06 4.04155e-07 4.65677e-06 1.70083e-07 -3.62845e-06 2.5384e-06 -1.72196e-06 3.41136e-07 4.18618e-06 1.79823e-07 -3.2367e-06 2.32055e-06 -1.56408e-06 2.86537e-07 3.74093e-06 1.95034e-07 -2.86467e-06 2.10956e-06 -1.4024e-06 2.40514e-07 3.3306e-06 2.03804e-07 -2.52439e-06 1.90886e-06 -1.25963e-06 1.85876e-07 2.93821e-06 2.09198e-07 -2.20799e-06 1.71639e-06 -1.12737e-06 1.45674e-07 2.58182e-06 2.04425e-07 -1.91691e-06 1.53742e-06 -9.95894e-07 1.11914e-07 2.24771e-06 2.02834e-07 -1.64305e-06 1.36175e-06 -8.66091e-07 7.49715e-08 1.93168e-06 2.02213e-07 -1.39512e-06 1.19248e-06 -7.58892e-07 3.93872e-08 1.64472e-06 1.99458e-07 -1.16565e-06 1.03524e-06 -6.57203e-07 1.00505e-08 1.38088e-06 1.98993e-07 -9.66286e-07 8.92673e-07 -5.52915e-07 -2.83083e-08 1.14091e-06 2.00002e-07 -7.73754e-07 7.55962e-07 -4.63236e-07 -4.58094e-08 9.30546e-07 1.8576e-07 -6.08192e-07 6.37878e-07 -3.92747e-07 -6.38732e-08 7.31632e-07 1.84674e-07 -4.58075e-07 5.24917e-07 -3.20375e-07 -8.01326e-08 5.63528e-07 1.71596e-07 -3.332e-07 4.23131e-07 -2.59063e-07 -9.23368e-08 4.12886e-07 1.60576e-07 -2.22683e-07 3.4327e-07 -2.0817e-07 -9.32875e-08 2.90029e-07 1.47071e-07 -1.44588e-07 2.75206e-07 -1.75729e-07 -1.07898e-07 1.83626e-07 1.31821e-07 -7.17118e-08 2.10285e-07 -1.43249e-07 -9.74978e-08 1.05783e-07 1.14475e-07 -2.87158e-08 1.70626e-07 -1.31316e-07 -9.50531e-08 4.78079e-08 8.00549e-08 -1.24564e-08 1.44122e-07 -1.48507e-07 -7.00626e-08 2.21189e-08 3.81066e-08 -2.18085e-08 1.70393e-07 -1.89776e-07 -2.53009e-08 3.42261e-08 -2.78621e-08 -6.03225e-08 7.61364e-06 -3.91221e-06 1.70786e-05 1.70786e-05 -1.02476e-05 -1.31611e-05 6.92431e-06 -3.30977e-06 1.07415e-05 1.38845e-05 -5.19672e-06 -1.01476e-05 6.01355e-06 -2.7396e-06 6.3569e-06 1.15898e-05 -2.13907e-06 -8.10579e-06 5.48669e-06 -2.36876e-06 3.63282e-06 9.81983e-06 -3.40321e-07 -6.59964e-06 4.74905e-06 -2.34505e-06 2.13564e-06 8.4542e-06 8.04818e-08 -5.90166e-06 4.33244e-06 -2.25287e-06 1.50913e-06 7.54825e-06 3.19327e-07 -5.33595e-06 4.07504e-06 -2.41228e-06 1.11072e-06 6.83024e-06 4.33104e-07 -4.98809e-06 3.9672e-06 -2.26729e-06 8.41062e-07 6.34514e-06 5.36093e-07 -4.4615e-06 3.7041e-06 -2.11292e-06 6.53323e-07 5.72503e-06 6.073e-07 -3.97267e-06 3.43976e-06 -1.94417e-06 5.0338e-07 5.14699e-06 6.48977e-07 -3.54199e-06 3.16987e-06 -1.79278e-06 3.77224e-07 4.62138e-06 6.69078e-07 -3.14048e-06 2.91252e-06 -1.63868e-06 2.76758e-07 4.12976e-06 6.70746e-07 -2.77977e-06 2.66199e-06 -1.49014e-06 1.94879e-07 3.68059e-06 6.72104e-07 -2.44265e-06 2.42136e-06 -1.34758e-06 1.20878e-07 3.26347e-06 6.5992e-07 -2.13764e-06 2.1855e-06 -1.20729e-06 5.79748e-08 2.87724e-06 6.41992e-07 -1.85069e-06 1.96858e-06 -1.08598e-06 8.07146e-09 2.51721e-06 6.22861e-07 -1.58855e-06 1.75477e-06 -9.61261e-07 -3.72917e-08 2.18651e-06 5.9853e-07 -1.34953e-06 1.55868e-06 -8.38443e-07 -8.8495e-08 1.8687e-06 5.79399e-07 -1.12197e-06 1.37106e-06 -7.35085e-07 -1.23711e-07 1.58414e-06 5.46492e-07 -9.15995e-07 1.18751e-06 -6.27692e-07 -1.51941e-07 1.31495e-06 5.21773e-07 -7.35551e-07 1.02473e-06 -5.32173e-07 -1.81297e-07 1.07894e-06 4.90613e-07 -5.67564e-07 8.71524e-07 -4.48451e-07 -2.02621e-07 8.57244e-07 4.71288e-07 -4.11722e-07 7.28217e-07 -3.66902e-07 -2.19055e-07 6.64848e-07 4.34035e-07 -2.86983e-07 5.98802e-07 -2.99614e-07 -2.30425e-07 4.90962e-07 4.01749e-07 -1.7115e-07 4.82891e-07 -2.42027e-07 -2.35625e-07 3.37333e-07 3.62711e-07 -8.01908e-08 3.76487e-07 -1.90688e-07 -2.35586e-07 2.07142e-07 3.24644e-07 -1.60653e-08 2.88788e-07 -1.51534e-07 -2.28446e-07 1.12069e-07 2.85179e-07 3.79902e-08 2.16765e-07 -1.26505e-07 -2.11003e-07 3.59335e-08 2.56618e-07 6.9888e-08 1.63796e-07 -9.90694e-08 -1.96761e-07 -1.0361e-08 2.08655e-07 8.35086e-08 1.2732e-07 -9.78665e-08 -1.64766e-07 -3.99111e-08 1.67638e-07 7.77266e-08 1.09741e-07 -1.13874e-07 -1.31511e-07 -4.19095e-08 1.00001e-07 3.70589e-08 1.25341e-07 -1.89214e-07 -7.72998e-08 -1.45713e-08 5.89838e-09 -4.34811e-08 5.9579e-06 -4.17956e-06 1.90507e-05 1.90507e-05 -1.30495e-05 -1.60645e-05 6.95465e-06 -3.56801e-06 1.27658e-05 1.6054e-05 -7.2838e-06 -1.20191e-05 7.08054e-06 -3.02457e-06 8.21229e-06 1.32935e-05 -3.52085e-06 -8.82504e-06 6.79594e-06 -2.61632e-06 5.22526e-06 1.08302e-05 -1.05441e-06 -6.31423e-06 5.96326e-06 -2.58619e-06 3.28703e-06 8.61035e-06 -1.50059e-07 -5.15029e-06 5.32666e-06 -2.27594e-06 2.2883e-06 7.36032e-06 3.92009e-07 -4.32529e-06 4.82895e-06 -2.0868e-06 1.60649e-06 6.40063e-06 7.36831e-07 -3.70507e-06 4.42402e-06 -2.02433e-06 1.10412e-06 5.62108e-06 9.71952e-07 -3.26857e-06 4.09635e-06 -1.86181e-06 7.05322e-07 5.02076e-06 1.08557e-06 -2.83679e-06 3.75385e-06 -1.71507e-06 4.63605e-07 4.44757e-06 1.14145e-06 -2.45741e-06 3.43154e-06 -1.56284e-06 2.91116e-07 3.9388e-06 1.16765e-06 -2.11963e-06 3.12362e-06 -1.43212e-06 1.51495e-07 3.47659e-06 1.15655e-06 -1.83114e-06 2.82796e-06 -1.29287e-06 4.66825e-08 3.06293e-06 1.13831e-06 -1.56284e-06 2.54957e-06 -1.16268e-06 -4.40244e-08 2.67806e-06 1.11087e-06 -1.321e-06 2.29117e-06 -1.03625e-06 -1.17541e-07 2.32932e-06 1.0709e-06 -1.09979e-06 2.03859e-06 -9.19817e-07 -1.75981e-07 2.00525e-06 1.02659e-06 -8.96883e-07 1.80874e-06 -7.96223e-07 -2.32113e-07 1.69831e-06 9.85068e-07 -7.09823e-07 1.57851e-06 -6.95097e-07 -2.78233e-07 1.42081e-06 9.44827e-07 -5.35006e-07 1.36978e-06 -5.94378e-07 -3.20821e-07 1.1614e-06 8.95505e-07 -3.7802e-07 1.17944e-06 -4.95619e-07 -3.48645e-07 9.26006e-07 8.40635e-07 -2.47033e-07 9.97175e-07 -4.05921e-07 -3.77341e-07 7.10522e-07 7.98143e-07 -1.21635e-07 8.28295e-07 -3.27651e-07 -4.01827e-07 5.17505e-07 7.4564e-07 -1.33684e-08 6.71949e-07 -2.56599e-07 -4.09239e-07 3.49013e-07 6.90265e-07 7.66013e-08 5.31979e-07 -1.87759e-07 -4.12188e-07 2.00622e-07 6.4141e-07 1.46373e-07 4.05591e-07 -1.41988e-07 -4.16767e-07 7.7455e-08 5.76644e-07 1.99187e-07 2.95074e-07 -9.41218e-08 -4.08734e-07 -3.19366e-08 5.18165e-07 2.31434e-07 2.09703e-07 -5.44824e-08 -3.78311e-07 -9.21621e-08 4.631e-07 2.57317e-07 1.40125e-07 -3.36828e-08 -3.52622e-07 -1.47188e-07 3.9426e-07 2.53397e-07 8.12579e-08 -3.82424e-08 -3.05066e-07 -1.64417e-07 3.22393e-07 2.26583e-07 5.37451e-08 -4.90303e-08 -2.57627e-07 -1.61992e-07 2.43075e-07 1.74429e-07 5.59182e-08 -7.59998e-08 -1.94336e-07 -1.25787e-07 1.65038e-07 1.08577e-07 6.93835e-08 -1.37486e-07 -1.26873e-07 -7.05283e-08 6.47269e-08 9.97291e-09 2.05302e-06 -2.31438e-05 -1.07979e-05 -1.07979e-05 -4.09367e-06 -9.89571e-06 9.55677e-06 -1.3929e-05 1.48371e-06 7.63471e-06 -5.0527e-06 -1.17364e-05 6.72461e-06 -1.03863e-05 1.57987e-06 8.7204e-06 -5.50416e-06 -1.22273e-05 5.29236e-06 -8.5567e-06 1.90626e-06 9.09099e-06 -5.66269e-06 -1.21955e-05 4.48676e-06 -7.42276e-06 2.15139e-06 9.11951e-06 -5.64162e-06 -1.18654e-05 4.07046e-06 -6.62353e-06 2.28356e-06 8.90604e-06 -5.42757e-06 -1.13175e-05 3.7963e-06 -6.04549e-06 2.29482e-06 8.52808e-06 -5.12449e-06 -1.06464e-05 3.5627e-06 -5.54674e-06 2.25229e-06 8.06456e-06 -4.7843e-06 -9.90954e-06 3.34644e-06 -5.08091e-06 2.18263e-06 7.55015e-06 -4.42613e-06 -9.15317e-06 3.12385e-06 -4.63366e-06 2.0862e-06 7.01352e-06 -4.07475e-06 -8.4072e-06 2.89921e-06 -4.20566e-06 1.97693e-06 6.47304e-06 -3.72675e-06 -7.66876e-06 2.66902e-06 -3.80511e-06 1.86179e-06 5.93652e-06 -3.39355e-06 -6.95725e-06 2.45299e-06 -3.41076e-06 1.74926e-06 5.4196e-06 -3.06442e-06 -6.27521e-06 2.22939e-06 -3.03937e-06 1.62543e-06 4.92119e-06 -2.76543e-06 -5.63475e-06 2.00747e-06 -2.70091e-06 1.4971e-06 4.43356e-06 -2.47866e-06 -5.02447e-06 1.80828e-06 -2.36721e-06 1.38251e-06 3.98074e-06 -2.21408e-06 -4.46082e-06 1.60727e-06 -2.06168e-06 1.2567e-06 3.54411e-06 -1.95331e-06 -3.92541e-06 1.41844e-06 -1.77578e-06 1.14452e-06 3.14779e-06 -1.72388e-06 -3.43699e-06 1.2439e-06 -1.51831e-06 1.02484e-06 2.76149e-06 -1.50438e-06 -2.97825e-06 1.07393e-06 -1.29058e-06 9.0738e-07 2.3987e-06 -1.3055e-06 -2.55825e-06 9.24648e-07 -1.06516e-06 8.08427e-07 2.07382e-06 -1.10888e-06 -2.16996e-06 7.74278e-07 -8.72145e-07 6.96125e-07 1.76621e-06 -9.36406e-07 -1.81499e-06 6.51072e-07 -6.96261e-07 5.99849e-07 1.48468e-06 -7.76548e-07 -1.48362e-06 5.3357e-07 -5.4983e-07 5.0532e-07 1.21662e-06 -6.30311e-07 -1.20513e-06 4.32367e-07 -4.10189e-07 4.12265e-07 9.89802e-07 -4.95696e-07 -9.41198e-07 3.32521e-07 -2.98275e-07 3.27476e-07 7.74666e-07 -3.70608e-07 -7.10735e-07 2.47887e-07 -2.05667e-07 2.45054e-07 5.86151e-07 -2.63506e-07 -5.19988e-07 1.96005e-07 -1.29881e-07 1.64184e-07 4.21191e-07 -1.59838e-07 -3.43871e-07 1.3314e-07 -8.35668e-08 1.03571e-07 2.87934e-07 -8.40713e-08 -2.1304e-07 8.77383e-08 -4.17349e-08 4.56736e-08 1.74739e-07 -2.14204e-08 -1.06384e-07 6.56971e-08 -1.80444e-08 6.40284e-09 9.14636e-08 2.52233e-08 -3.21306e-08 3.5235e-08 -1.92085e-08 -2.00428e-08 3.73693e-08 3.54679e-08 -9.68187e-09 3.30255e-06 -8.25759e-06 -4.47246e-06 -4.47246e-06 4.63834e-06 -4.04524e-07 2.00972e-06 -1.36412e-05 -4.07531e-06 9.18284e-07 -5.91217e-06 -1.23296e-05 7.00494e-06 -1.02611e-05 2.26696e-06 9.09398e-06 -5.32486e-06 -1.21544e-05 5.61611e-06 -8.29944e-06 2.14449e-06 9.39154e-06 -5.05763e-06 -1.19934e-05 4.69387e-06 -7.04837e-06 2.07219e-06 9.4064e-06 -4.82879e-06 -1.15865e-05 4.19219e-06 -6.15595e-06 2.0335e-06 9.15836e-06 -4.45758e-06 -1.09362e-05 3.85331e-06 -5.53986e-06 1.92116e-06 8.71551e-06 -4.11367e-06 -1.01841e-05 3.57628e-06 -5.03865e-06 1.83471e-06 8.17034e-06 -3.79184e-06 -9.41243e-06 3.32529e-06 -4.59293e-06 1.75147e-06 7.5923e-06 -3.48202e-06 -8.64979e-06 3.08939e-06 -4.18292e-06 1.66245e-06 7.01201e-06 -3.18798e-06 -7.90454e-06 2.86032e-06 -3.79595e-06 1.57611e-06 6.44161e-06 -2.90741e-06 -7.18236e-06 2.63491e-06 -3.42888e-06 1.49089e-06 5.88712e-06 -2.64771e-06 -6.50818e-06 2.41096e-06 -3.08289e-06 1.39671e-06 5.35542e-06 -2.39895e-06 -5.86176e-06 2.20153e-06 -2.75695e-06 1.30637e-06 4.84808e-06 -2.16756e-06 -5.25592e-06 1.9914e-06 -2.44759e-06 1.21538e-06 4.36662e-06 -1.94794e-06 -4.69371e-06 1.7964e-06 -2.16086e-06 1.12061e-06 3.91617e-06 -1.74249e-06 -4.16617e-06 1.60863e-06 -1.89699e-06 1.02853e-06 3.49122e-06 -1.55143e-06 -3.67391e-06 1.43494e-06 -1.64796e-06 9.38502e-07 3.0911e-06 -1.37746e-06 -3.2184e-06 1.25775e-06 -1.42366e-06 8.47581e-07 2.71147e-06 -1.20684e-06 -2.79238e-06 1.10672e-06 -1.21243e-06 7.62676e-07 2.36548e-06 -1.04725e-06 -2.40545e-06 9.62367e-07 -1.01929e-06 6.75636e-07 2.0467e-06 -9.03887e-07 -2.04759e-06 8.23212e-07 -8.48357e-07 5.93485e-07 1.74654e-06 -7.70611e-07 -1.72056e-06 7.00859e-07 -6.9727e-07 5.18436e-07 1.47494e-06 -6.46221e-07 -1.4252e-06 5.8328e-07 -5.5437e-07 4.42922e-07 1.22636e-06 -5.26236e-07 -1.14921e-06 4.88479e-07 -4.37722e-07 3.66437e-07 9.92441e-07 -4.17659e-07 -9.1483e-07 3.99033e-07 -3.33976e-07 2.94376e-07 7.93448e-07 -3.28951e-07 -7.03343e-07 3.15718e-07 -2.39117e-07 2.32171e-07 6.07649e-07 -2.36265e-07 -5.1539e-07 2.46296e-07 -1.88884e-07 1.68531e-07 4.48277e-07 -1.57102e-07 -3.63914e-07 1.9127e-07 -1.20529e-07 1.16842e-07 3.23945e-07 -9.09398e-08 -2.32423e-07 1.48856e-07 -7.68923e-08 6.2321e-08 2.03843e-07 -3.475e-08 -1.2245e-07 1.13272e-07 -6.40672e-08 3.45754e-08 1.22197e-07 -4.73422e-09 -5.23869e-08 7.25656e-08 -4.72064e-08 1.66862e-09 4.92437e-08 8.11027e-09 -1.12535e-09 4.04233e-06 -6.20804e-06 4.14982e-07 4.14982e-07 1.4751e-06 -2.8655e-06 3.22564e-06 -5.59393e-06 -9.75502e-07 3.38353e-06 3.68454e-07 -5.88633e-06 2.40533e-06 -9.21107e-06 -1.17118e-06 5.16434e-06 -4.72248e-06 -1.18777e-05 5.38215e-06 -7.48748e-06 1.97731e-06 9.50574e-06 -4.19767e-06 -1.15009e-05 4.53806e-06 -6.32777e-06 1.7862e-06 9.44349e-06 -3.85833e-06 -1.1019e-05 4.08435e-06 -5.44096e-06 1.67048e-06 9.1601e-06 -3.4023e-06 -1.02687e-05 3.75203e-06 -4.88582e-06 1.49993e-06 8.64527e-06 -3.05697e-06 -9.48226e-06 3.48769e-06 -4.42923e-06 1.40017e-06 8.05769e-06 -2.7747e-06 -8.70536e-06 3.24481e-06 -4.04066e-06 1.32279e-06 7.44581e-06 -2.53849e-06 -7.96595e-06 3.01174e-06 -3.68012e-06 1.2612e-06 6.84747e-06 -2.31094e-06 -7.25252e-06 2.79622e-06 -3.34758e-06 1.19427e-06 6.2666e-06 -2.10906e-06 -6.58379e-06 2.57631e-06 -3.03054e-06 1.12977e-06 5.71161e-06 -1.92219e-06 -5.95072e-06 2.37254e-06 -2.73522e-06 1.0704e-06 5.18615e-06 -1.74862e-06 -5.36292e-06 2.16808e-06 -2.45359e-06 1.00408e-06 4.68902e-06 -1.57923e-06 -4.80927e-06 1.96796e-06 -2.18872e-06 9.25579e-07 4.21249e-06 -1.4284e-06 -4.294e-06 1.78488e-06 -1.94804e-06 8.63918e-07 3.775e-06 -1.28352e-06 -3.80773e-06 1.61092e-06 -1.72122e-06 7.95466e-07 3.3554e-06 -1.14937e-06 -3.36108e-06 1.44091e-06 -1.50319e-06 7.33339e-07 2.9729e-06 -1.01279e-06 -2.94017e-06 1.27781e-06 -1.30185e-06 6.67448e-07 2.61636e-06 -8.95835e-07 -2.55861e-06 1.12178e-06 -1.12102e-06 5.93524e-07 2.27258e-06 -7.79789e-07 -2.20306e-06 9.905e-07 -9.57419e-07 5.35394e-07 1.97083e-06 -6.72687e-07 -1.87477e-06 8.56002e-07 -8.03634e-07 4.69969e-07 1.68088e-06 -5.75228e-07 -1.58024e-06 7.31554e-07 -6.6867e-07 4.12537e-07 1.42388e-06 -4.87082e-07 -1.30668e-06 6.3004e-07 -5.44979e-07 3.59879e-07 1.18383e-06 -4.05145e-07 -1.06501e-06 5.23791e-07 -4.37683e-07 2.98993e-07 9.61746e-07 -3.16029e-07 -8.41334e-07 4.33259e-07 -3.51477e-07 2.40863e-07 7.67992e-07 -2.47111e-07 -6.48724e-07 3.50061e-07 -2.71907e-07 1.86614e-07 5.89256e-07 -1.88496e-07 -4.82037e-07 2.91232e-07 -2.0493e-07 1.43346e-07 4.37411e-07 -1.27261e-07 -3.39409e-07 2.38147e-07 -1.51398e-07 9.53053e-08 3.07647e-07 -7.70281e-08 -2.25535e-07 1.90533e-07 -1.25554e-07 6.43389e-08 2.12807e-07 -3.90573e-08 -1.3444e-07 1.48391e-07 -9.6062e-08 3.72917e-08 1.32558e-07 -1.74041e-08 -6.6803e-08 1.26854e-07 -8.50608e-08 1.78504e-08 6.70164e-08 -1.42415e-08 -1.5037e-08 4.63966e-06 -4.7085e-06 4.75219e-06 4.75219e-06 -1.18008e-06 -5.298e-06 4.01109e-06 -4.6674e-06 1.79963e-06 5.99698e-06 -5.94436e-07 -6.8562e-06 3.16479e-06 -4.162e-06 3.54252e-07 6.73071e-06 -7.17953e-07 -7.81537e-06 2.68473e-06 -6.37731e-06 -8.77966e-08 7.14317e-06 -3.16914e-06 -1.08058e-05 4.2282e-06 -5.41723e-06 1.45306e-06 9.39115e-06 -2.83233e-06 -1.03837e-05 3.86518e-06 -4.60331e-06 1.26633e-06 9.11187e-06 -2.33151e-06 -9.50302e-06 3.61147e-06 -4.15028e-06 1.09011e-06 8.50329e-06 -2.02277e-06 -8.6789e-06 3.38062e-06 -3.78684e-06 1.00342e-06 7.85765e-06 -1.80382e-06 -7.91391e-06 3.16855e-06 -3.45934e-06 9.48009e-07 7.22117e-06 -1.62333e-06 -7.20413e-06 2.96122e-06 -3.16167e-06 8.94807e-07 6.61037e-06 -1.48026e-06 -6.54072e-06 2.74492e-06 -2.89092e-06 8.53169e-07 6.02473e-06 -1.34411e-06 -5.92183e-06 2.54414e-06 -2.62941e-06 8.05478e-07 5.47455e-06 -1.22651e-06 -5.34845e-06 2.34251e-06 -2.37522e-06 7.60231e-07 4.95712e-06 -1.10709e-06 -4.81247e-06 2.14627e-06 -2.14561e-06 7.06835e-07 4.47341e-06 -1.0075e-06 -4.30913e-06 1.96443e-06 -1.92656e-06 6.66982e-07 4.0178e-06 -9.04004e-07 -3.84198e-06 1.77844e-06 -1.71746e-06 6.1347e-07 3.59099e-06 -8.11298e-07 -3.39599e-06 1.60599e-06 -1.52459e-06 5.69193e-07 3.18501e-06 -7.20359e-07 -2.99277e-06 1.44122e-06 -1.34341e-06 5.15759e-07 2.81267e-06 -6.44107e-07 -2.62132e-06 1.28689e-06 -1.16799e-06 4.68999e-07 2.46517e-06 -5.63683e-07 -2.27157e-06 1.13753e-06 -1.01473e-06 4.21152e-07 2.14352e-06 -4.90729e-07 -1.95316e-06 9.99309e-07 -8.73251e-07 3.72025e-07 1.84518e-06 -4.21268e-07 -1.65199e-06 8.73969e-07 -7.43098e-07 3.30076e-07 1.56862e-06 -3.59277e-07 -1.39341e-06 7.47037e-07 -6.2063e-07 2.76874e-07 1.31666e-06 -3.03126e-07 -1.14238e-06 6.43389e-07 -5.16845e-07 2.40087e-07 1.08309e-06 -2.47654e-07 -9.24551e-07 5.48471e-07 -4.24955e-07 2.04658e-07 8.8398e-07 -2.00816e-07 -7.29594e-07 4.54873e-07 -3.43173e-07 1.6399e-07 6.94301e-07 -1.51224e-07 -5.59046e-07 3.76875e-07 -2.65485e-07 1.30657e-07 5.39352e-07 -1.02348e-07 -4.09161e-07 2.98877e-07 -2.18318e-07 8.68846e-08 3.94105e-07 -7.06447e-08 -2.82812e-07 2.45908e-07 -1.80599e-07 5.45988e-08 2.66824e-07 -3.79514e-08 -1.88554e-07 2.12497e-07 -1.46218e-07 3.7835e-08 1.88321e-07 -2.01593e-08 -1.14824e-07 1.78542e-07 -1.31802e-07 2.67755e-08 1.21227e-07 -2.08966e-08 -7.14014e-08 1.60459e-07 -1.34673e-07 1.78115e-08 6.80254e-08 -2.5883e-08 -3.24023e-08 5.52084e-06 -3.59696e-06 8.97376e-06 8.97376e-06 -3.73846e-06 -7.71219e-06 4.80213e-06 -3.81153e-06 4.53477e-06 8.65823e-06 -1.70997e-06 -7.89467e-06 3.91513e-06 -3.42234e-06 2.05811e-06 8.41865e-06 -7.37181e-07 -7.95689e-06 3.2906e-06 -3.12397e-06 7.71096e-07 8.15307e-06 -4.76177e-07 -7.98147e-06 2.68302e-06 -4.43771e-06 2.9228e-07 7.93514e-06 -1.82039e-06 -9.61474e-06 3.73193e-06 -3.69341e-06 1.00459e-06 9.06251e-06 -1.25882e-06 -8.52366e-06 3.58742e-06 -3.39991e-06 8.5802e-07 8.3197e-06 -1.02269e-06 -7.70654e-06 3.4027e-06 -3.13406e-06 7.73619e-07 7.6169e-06 -8.76898e-07 -6.98647e-06 3.19665e-06 -2.88993e-06 7.10017e-07 6.95131e-06 -7.67196e-07 -6.32506e-06 2.98621e-06 -2.66486e-06 6.55108e-07 6.32213e-06 -6.77052e-07 -5.72284e-06 2.77794e-06 -2.44109e-06 6.05515e-07 5.74211e-06 -6.12131e-07 -5.16804e-06 2.57321e-06 -2.23027e-06 5.63528e-07 5.19414e-06 -5.41195e-07 -4.65021e-06 2.37053e-06 -2.02553e-06 5.26352e-07 4.69693e-06 -4.81959e-07 -4.16707e-06 2.1739e-06 -1.83562e-06 4.81959e-07 4.21734e-06 -4.26546e-07 -3.71935e-06 1.97906e-06 -1.64976e-06 4.35432e-07 3.76891e-06 -3.75459e-07 -3.30505e-06 1.79904e-06 -1.48111e-06 3.91311e-07 3.35338e-06 -3.34034e-07 -2.91836e-06 1.62659e-06 -1.31714e-06 3.58132e-07 2.9682e-06 -2.93735e-07 -2.55747e-06 1.45655e-06 -1.16475e-06 3.18124e-07 2.6018e-06 -2.49517e-07 -2.22704e-06 1.30412e-06 -1.02515e-06 2.79125e-07 2.27204e-06 -2.14709e-07 -1.91443e-06 1.14929e-06 -8.87473e-07 2.44162e-07 1.95535e-06 -1.76621e-07 -1.63418e-06 1.00901e-06 -7.65353e-07 2.04736e-07 1.67075e-06 -1.4226e-07 -1.37783e-06 8.70088e-07 -6.55321e-07 1.70626e-07 1.41239e-06 -1.14339e-07 -1.13794e-06 7.57514e-07 -5.57144e-07 1.35119e-07 1.16299e-06 -8.91935e-08 -9.27306e-07 6.37413e-07 -4.67505e-07 1.13505e-07 9.54489e-07 -6.56e-08 -7.38888e-07 5.37102e-07 -3.79708e-07 8.35862e-08 7.58795e-07 -3.69425e-08 -5.72337e-07 4.43775e-07 -3.08016e-07 5.66555e-08 5.93175e-07 -1.78115e-08 -4.25673e-07 3.64225e-07 -2.46432e-07 3.84947e-08 4.46957e-07 -7.37297e-10 -3.07899e-07 3.03378e-07 -1.98721e-07 1.38922e-08 3.21267e-07 1.28833e-08 -1.98411e-07 2.43463e-07 -1.73148e-07 -3.55067e-09 2.07724e-07 1.78504e-08 -1.29182e-07 1.96625e-07 -1.53009e-07 -2.17309e-08 1.25108e-07 2.13428e-08 -7.8658e-08 1.76098e-07 -1.5654e-07 -1.27281e-08 8.70399e-08 -5.06407e-09 -5.35122e-08 1.79435e-07 -1.76001e-07 1.29609e-08 6.1118e-08 -3.37798e-08 -5.94494e-08 6.7042e-06 -3.19849e-06 1.31228e-05 1.31228e-05 -6.54371e-06 -1.01555e-05 5.76058e-06 -3.29054e-06 7.42792e-06 1.12489e-05 -3.09209e-06 -8.87832e-06 4.78424e-06 -2.91147e-06 4.01431e-06 1.00429e-05 -1.17484e-06 -8.04767e-06 4.07842e-06 -2.57037e-06 2.05011e-06 9.13146e-06 -1.83839e-07 -7.40205e-06 3.50453e-06 -2.44418e-06 1.0042e-06 8.38237e-06 -1.31278e-07 -7.361e-06 3.46514e-06 -2.84571e-06 8.41722e-07 8.17282e-06 -3.27146e-07 -7.24208e-06 3.78796e-06 -2.7632e-06 8.61124e-07 7.91853e-06 -2.00234e-07 -6.52826e-06 3.59886e-06 -2.60596e-06 7.49249e-07 7.1978e-06 -1.11759e-07 -5.88249e-06 3.37764e-06 -2.41785e-06 6.54409e-07 6.5262e-06 -4.01633e-08 -5.29812e-06 3.15132e-06 -2.24099e-06 5.63993e-07 5.90656e-06 3.0656e-09 -4.76348e-06 2.91876e-06 -2.06418e-06 4.90497e-07 5.32693e-06 3.81842e-08 -4.27275e-06 2.68989e-06 -1.88989e-06 4.29495e-07 4.79802e-06 6.48433e-08 -3.81902e-06 2.47491e-06 -1.71546e-06 3.70938e-07 4.30193e-06 8.55653e-08 -3.4053e-06 2.2616e-06 -1.55591e-06 3.21772e-07 3.85063e-06 1.02135e-07 -3.02137e-06 2.05434e-06 -1.4042e-06 2.67018e-07 3.4209e-06 1.13272e-07 -2.66143e-06 1.85768e-06 -1.26159e-06 2.23905e-07 3.02257e-06 1.25767e-07 -2.3271e-06 1.67347e-06 -1.11972e-06 1.85644e-07 2.65726e-06 1.3314e-07 -2.0258e-06 1.49435e-06 -9.91451e-07 1.43268e-07 2.31659e-06 1.35158e-07 -1.74212e-06 1.31763e-06 -8.67624e-07 1.06093e-07 1.99419e-06 1.48546e-07 -1.47502e-06 1.16105e-06 -7.52179e-07 7.36133e-08 1.7051e-06 1.4645e-07 -1.23901e-06 1.01328e-06 -6.54623e-07 4.2802e-08 1.43393e-06 1.44782e-07 -1.02253e-06 8.64461e-07 -5.53031e-07 1.56773e-08 1.18693e-06 1.42958e-07 -8.27888e-07 7.46416e-07 -4.67563e-07 -7.19835e-09 9.66325e-07 1.52155e-07 -6.46532e-07 6.2744e-07 -3.80833e-07 -3.04038e-08 7.7001e-07 1.41328e-07 -4.96589e-07 5.19756e-07 -3.15951e-07 -4.55572e-08 5.9333e-07 1.36439e-07 -3.63973e-07 4.25071e-07 -2.60305e-07 -6.39702e-08 4.36946e-07 1.25961e-07 -2.46839e-07 3.38109e-07 -2.13098e-07 -6.91313e-08 3.03883e-07 1.11992e-07 -1.60071e-07 2.72489e-07 -1.74933e-07 -6.8588e-08 2.03572e-07 1.14126e-07 -8.69817e-08 2.13816e-07 -1.46159e-07 -8.04818e-08 1.20451e-07 1.00505e-07 -3.52544e-08 1.64883e-07 -1.3836e-07 -8.06952e-08 5.48316e-08 7.96669e-08 -1.42609e-08 1.48391e-07 -1.57025e-07 -6.35434e-08 3.01516e-08 3.13545e-08 -2.22353e-08 1.64999e-07 -1.91658e-07 -2.1401e-08 3.18978e-08 -2.56308e-08 -5.90032e-08 7.51802e-06 -3.66629e-06 1.67236e-05 1.67236e-05 -9.77111e-06 -1.28926e-05 6.73276e-06 -3.28751e-06 1.03407e-05 1.37005e-05 -4.9512e-06 -1.01147e-05 5.81405e-06 -2.79117e-06 6.11984e-06 1.15717e-05 -2.13587e-06 -8.29306e-06 5.08262e-06 -2.40223e-06 3.54741e-06 9.9525e-06 -5.2872e-07 -6.96296e-06 4.55836e-06 -2.18217e-06 2.06012e-06 8.67085e-06 1.88244e-07 -6.15034e-06 4.18855e-06 -2.08019e-06 1.38476e-06 7.80743e-06 3.6015e-07 -5.53501e-06 3.95661e-06 -2.37415e-06 1.03222e-06 7.00304e-06 3.69425e-07 -5.21455e-06 3.90457e-06 -2.24429e-06 8.47736e-07 6.52322e-06 4.5565e-07 -4.65566e-06 3.64605e-06 -2.09606e-06 6.7257e-07 5.86337e-06 5.07105e-07 -4.15215e-06 3.37407e-06 -1.93694e-06 5.34308e-07 5.26015e-06 5.53904e-07 -3.68689e-06 3.11186e-06 -1.78226e-06 4.19134e-07 4.7149e-06 5.68844e-07 -3.27921e-06 2.85272e-06 -1.62178e-06 3.23518e-07 4.21641e-06 5.7808e-07 -2.89824e-06 2.60805e-06 -1.48224e-06 2.4195e-07 3.75416e-06 5.74005e-07 -2.54928e-06 2.36606e-06 -1.33845e-06 1.71945e-07 3.32358e-06 5.64032e-07 -2.23502e-06 2.13964e-06 -1.20682e-06 1.12263e-07 2.93336e-06 5.51459e-07 -1.93746e-06 1.92617e-06 -1.07368e-06 6.15061e-08 2.56742e-06 5.37412e-07 -1.67176e-06 1.71798e-06 -9.49057e-07 7.6058e-09 2.22963e-06 5.21502e-07 -1.42628e-06 1.51476e-06 -8.34717e-07 -4.07648e-08 1.91639e-06 5.03263e-07 -1.19011e-06 1.33214e-06 -7.2486e-07 -7.47968e-08 1.6252e-06 4.76721e-07 -9.85708e-07 1.15538e-06 -6.28759e-07 -1.12011e-07 1.355e-06 4.51381e-07 -7.86618e-07 9.91044e-07 -5.37567e-07 -1.38069e-07 1.10296e-06 4.27477e-07 -6.19815e-07 8.41877e-07 -4.37295e-07 -1.65096e-07 8.84019e-07 4.07531e-07 -4.63915e-07 7.08581e-07 -3.67193e-07 -1.78484e-07 6.93952e-07 3.83511e-07 -3.23324e-07 5.85802e-07 -2.98508e-07 -1.93288e-07 5.14012e-07 3.57434e-07 -2.05066e-07 4.6764e-07 -2.39525e-07 -2.04076e-07 3.5852e-07 3.24527e-07 -1.12011e-07 3.70084e-07 -1.88826e-07 -2.0588e-07 2.30541e-07 2.99304e-07 -2.79397e-08 2.86382e-07 -1.46004e-07 -1.96897e-07 1.30191e-07 2.60537e-07 2.26234e-08 2.17309e-07 -1.16842e-07 -1.903e-07 4.74198e-08 2.23828e-07 5.48316e-08 1.60653e-07 -1.01146e-07 -1.76156e-07 -7.35357e-09 1.92823e-07 7.19059e-08 1.25729e-07 -9.93217e-08 -1.51165e-07 -3.04232e-08 1.45946e-07 6.78313e-08 1.04851e-07 -1.14572e-07 -1.24739e-07 -4.67796e-08 9.69352e-08 3.28679e-08 1.19597e-07 -1.79668e-07 -7.20805e-08 -8.24609e-09 6.36404e-09 -5.5045e-08 6.40952e-06 -4.24953e-06 1.9001e-05 1.9001e-05 -1.28897e-05 -1.59753e-05 7.12633e-06 -3.70624e-06 1.26543e-05 1.60232e-05 -7.19517e-06 -1.19897e-05 7.05814e-06 -3.18345e-06 8.16933e-06 1.33051e-05 -3.58264e-06 -8.96559e-06 6.55341e-06 -2.72728e-06 5.26399e-06 1.09566e-05 -1.37863e-06 -6.73765e-06 5.96563e-06 -2.38649e-06 3.45265e-06 9.03429e-06 -9.63337e-08 -5.17154e-06 5.30241e-06 -2.21139e-06 2.33541e-06 7.49831e-06 4.08812e-07 -4.29216e-06 4.78781e-06 -2.04053e-06 1.65283e-06 6.43315e-06 7.13432e-07 -3.67025e-06 4.36018e-06 -2.01135e-06 1.15527e-06 5.61487e-06 8.85416e-07 -3.26425e-06 4.03981e-06 -1.84992e-06 7.74317e-07 5.00132e-06 9.94187e-07 -2.83202e-06 3.693e-06 -1.69871e-06 5.33337e-07 4.42444e-06 1.03745e-06 -2.46414e-06 3.35874e-06 -1.55253e-06 3.5887e-07 3.91256e-06 1.05767e-06 -2.14043e-06 3.06227e-06 -1.40993e-06 2.25652e-07 3.46483e-06 1.05453e-06 -1.84588e-06 2.77165e-06 -1.2795e-06 1.15562e-07 3.04771e-06 1.03559e-06 -1.58476e-06 2.49889e-06 -1.14983e-06 2.73964e-08 2.67181e-06 1.00459e-06 -1.34306e-06 2.23808e-06 -1.02762e-06 -4.79825e-08 2.31756e-06 9.68925e-07 -1.12915e-06 1.99908e-06 -9.01093e-07 -1.08732e-07 2.00223e-06 9.39782e-07 -9.27947e-07 1.75985e-06 -7.88869e-07 -1.73342e-07 1.70339e-06 9.03655e-07 -7.36482e-07 1.54751e-06 -6.83377e-07 -2.22062e-07 1.42423e-06 8.58097e-07 -5.70299e-07 1.34134e-06 -5.7808e-07 -2.59723e-07 1.17254e-06 8.18671e-07 -4.16165e-07 1.14079e-06 -4.87237e-07 -3.0138e-07 9.35746e-07 7.72648e-07 -2.82307e-07 9.70749e-07 -3.90573e-07 -3.29999e-07 7.26044e-07 7.33029e-07 -1.46955e-07 8.04003e-07 -3.15757e-07 -3.51594e-07 5.28681e-07 6.87355e-07 -4.21812e-08 6.51732e-07 -2.47926e-07 -3.7476e-07 3.54601e-07 6.36326e-07 4.52468e-08 5.20493e-07 -1.7798e-07 -3.79921e-07 2.10712e-07 5.99384e-07 1.31588e-07 4.02525e-07 -1.26194e-07 -3.85218e-07 8.2034e-08 5.44436e-07 1.82694e-07 2.84131e-07 -7.99773e-08 -3.79553e-07 -1.83742e-08 4.95308e-07 2.21849e-07 2.0004e-07 -5.79748e-08 -3.52777e-07 -7.98027e-08 4.24761e-07 2.3772e-07 1.27669e-07 -3.89797e-08 -3.30736e-07 -1.44083e-07 3.68338e-07 2.4129e-07 8.70399e-08 -3.41291e-08 -2.90514e-07 -1.63661e-07 3.02525e-07 2.1335e-07 5.7548e-08 -4.11722e-08 -2.46645e-07 -1.57646e-07 2.35508e-07 1.70587e-07 5.02526e-08 -6.49015e-08 -1.94123e-07 -1.29337e-07 1.64378e-07 1.00078e-07 6.77537e-08 -1.27106e-07 -1.26466e-07 -6.22046e-08 6.43389e-08 8.14907e-10 3.03239e-06 -2.43648e-05 -1.0656e-05 -1.0656e-05 -3.89479e-06 -9.85689e-06 9.85475e-06 -1.38307e-05 1.75527e-06 7.93351e-06 -5.28153e-06 -1.18774e-05 6.70894e-06 -1.02927e-05 1.86319e-06 8.84295e-06 -5.778e-06 -1.2321e-05 5.25328e-06 -8.58158e-06 2.14709e-06 9.09871e-06 -5.9034e-06 -1.22306e-05 4.48067e-06 -7.52904e-06 2.31309e-06 9.0388e-06 -5.8267e-06 -1.1868e-05 4.00919e-06 -6.76321e-06 2.39396e-06 8.80725e-06 -5.64218e-06 -1.13252e-05 3.71493e-06 -6.14351e-06 2.41573e-06 8.43468e-06 -5.34581e-06 -1.0676e-05 3.48509e-06 -5.62346e-06 2.36032e-06 7.98209e-06 -4.9993e-06 -9.9616e-06 3.27337e-06 -5.14397e-06 2.27417e-06 7.48434e-06 -4.63333e-06 -9.21303e-06 3.05714e-06 -4.69734e-06 2.1689e-06 6.95593e-06 -4.2581e-06 -8.46522e-06 2.83964e-06 -4.26239e-06 2.05566e-06 6.43447e-06 -3.89795e-06 -7.73287e-06 2.61768e-06 -3.8411e-06 1.93634e-06 5.912e-06 -3.55464e-06 -7.03442e-06 2.4027e-06 -3.43984e-06 1.81014e-06 5.40384e-06 -3.21774e-06 -6.35292e-06 2.18857e-06 -3.06397e-06 1.6888e-06 4.91537e-06 -2.90078e-06 -5.71044e-06 1.97371e-06 -2.71079e-06 1.55694e-06 4.43942e-06 -2.60848e-06 -5.11063e-06 1.76792e-06 -2.37697e-06 1.43234e-06 3.9918e-06 -2.32875e-06 -4.53956e-06 1.57203e-06 -2.06934e-06 1.30851e-06 3.56386e-06 -2.0589e-06 -4.0017e-06 1.39039e-06 -1.78492e-06 1.18456e-06 3.16165e-06 -1.82958e-06 -3.50798e-06 1.21891e-06 -1.52756e-06 1.06978e-06 2.77398e-06 -1.5934e-06 -3.04172e-06 1.05519e-06 -1.28699e-06 9.62483e-07 2.43001e-06 -1.38358e-06 -2.61946e-06 9.08389e-07 -1.06173e-06 8.39122e-07 2.08907e-06 -1.18503e-06 -2.21977e-06 7.6512e-07 -8.66343e-07 7.4141e-07 1.78608e-06 -1.00026e-06 -1.86556e-06 6.31398e-07 -6.99132e-07 6.33804e-07 1.50607e-06 -8.3658e-07 -1.54406e-06 5.20881e-07 -5.37625e-07 5.38149e-07 1.25034e-06 -6.77479e-07 -1.24192e-06 4.18668e-07 -4.04175e-07 4.41059e-07 1.00854e-06 -5.31339e-07 -9.78995e-07 3.26855e-07 -2.89117e-07 3.51341e-07 8.00937e-07 -4.06387e-07 -7.44728e-07 2.47615e-07 -1.98372e-07 2.74003e-07 6.13431e-07 -2.90767e-07 -5.43427e-07 1.73847e-07 -1.17929e-07 1.94414e-07 4.47656e-07 -1.95287e-07 -3.76856e-07 1.34382e-07 -6.63179e-08 1.24758e-07 3.06599e-07 -1.09605e-07 -2.36963e-07 8.71563e-08 -2.81531e-08 6.3718e-08 1.91154e-07 -4.36752e-08 -1.2926e-07 5.61122e-08 -2.00234e-08 1.05162e-08 9.61203e-08 5.62674e-09 -5.34346e-08 4.82736e-08 -1.82384e-08 -1.56967e-08 4.33453e-08 3.18202e-08 -8.3237e-09 3.69929e-06 -9.06134e-06 -4.47894e-06 -4.47894e-06 4.71207e-06 -1.84324e-07 2.34232e-06 -1.40283e-05 -4.04355e-06 7.84989e-07 -6.30395e-06 -1.23084e-05 7.20723e-06 -1.02498e-05 2.60922e-06 8.97174e-06 -5.59511e-06 -1.20762e-05 5.6411e-06 -8.28153e-06 2.38729e-06 9.24865e-06 -5.30282e-06 -1.18932e-05 4.76127e-06 -7.10287e-06 2.28143e-06 9.23659e-06 -5.03749e-06 -1.15048e-05 4.1816e-06 -6.28171e-06 2.19625e-06 8.99902e-06 -4.75638e-06 -1.09407e-05 3.82874e-06 -5.63623e-06 2.1207e-06 8.60581e-06 -4.41204e-06 -1.02485e-05 3.54415e-06 -5.13176e-06 2.00685e-06 8.10185e-06 -4.07246e-06 -9.5064e-06 3.29832e-06 -4.67906e-06 1.90044e-06 7.5526e-06 -3.73544e-06 -8.74927e-06 3.06184e-06 -4.25816e-06 1.80141e-06 6.99734e-06 -3.4164e-06 -8.01519e-06 2.84026e-06 -3.8672e-06 1.68977e-06 6.43944e-06 -3.12071e-06 -7.29779e-06 2.61826e-06 -3.48792e-06 1.59427e-06 5.89453e-06 -2.83638e-06 -6.61462e-06 2.40056e-06 -3.13687e-06 1.49089e-06 5.36935e-06 -2.56733e-06 -5.96914e-06 2.18058e-06 -2.80644e-06 1.38717e-06 4.86981e-06 -2.32394e-06 -5.36807e-06 1.97848e-06 -2.49484e-06 1.28984e-06 4.39844e-06 -2.0909e-06 -4.79002e-06 1.78608e-06 -2.19687e-06 1.19368e-06 3.94384e-06 -1.87058e-06 -4.25444e-06 1.59881e-06 -1.92045e-06 1.09395e-06 3.51768e-06 -1.66354e-06 -3.76039e-06 1.41351e-06 -1.67566e-06 9.9473e-07 3.12261e-06 -1.47434e-06 -3.30288e-06 1.25003e-06 -1.43971e-06 8.99386e-07 2.75179e-06 -1.29359e-06 -2.86783e-06 1.09e-06 -1.22341e-06 8.07107e-07 2.39932e-06 -1.13249e-06 -2.47487e-06 9.46612e-07 -1.03571e-06 7.25888e-07 2.08147e-06 -9.67528e-07 -2.10974e-06 8.15839e-07 -8.54178e-07 6.32368e-07 1.78426e-06 -8.30992e-07 -1.77209e-06 6.90265e-07 -6.94902e-07 5.53865e-07 1.50176e-06 -6.97522e-07 -1.47708e-06 5.80486e-07 -5.53613e-07 4.78118e-07 1.26245e-06 -5.70881e-07 -1.19702e-06 4.68455e-07 -4.40457e-07 3.9263e-07 1.02189e-06 -4.6277e-07 -9.59553e-07 3.84132e-07 -3.27011e-07 3.23984e-07 8.22746e-07 -3.5138e-07 -7.41973e-07 2.98489e-07 -2.3611e-07 2.50953e-07 6.42845e-07 -2.624e-07 -5.4754e-07 2.41057e-07 -1.59198e-07 1.99419e-07 4.85219e-07 -1.79609e-07 -3.95715e-07 1.84285e-07 -1.11662e-07 1.18278e-07 3.34733e-07 -1.02019e-07 -2.59975e-07 1.34925e-07 -6.9791e-08 7.43894e-08 2.32481e-07 -4.62363e-08 -1.45752e-07 1.06986e-07 -5.12227e-08 3.31396e-08 1.32636e-07 -5.54913e-09 -7.92788e-08 8.18788e-08 -4.36946e-08 -4.01633e-09 6.96164e-08 2.02563e-08 -1.45325e-08 4.11194e-06 -6.53119e-06 1.28057e-07 1.28057e-07 1.5756e-06 -2.58867e-06 3.34523e-06 -6.02139e-06 -1.0605e-06 3.10189e-06 3.26196e-07 -5.6405e-06 2.54251e-06 -9.48096e-06 -1.1543e-06 4.86674e-06 -5.11721e-06 -1.17599e-05 5.53279e-06 -7.57897e-06 2.25462e-06 9.24598e-06 -4.49295e-06 -1.1304e-05 4.73135e-06 -6.438e-06 2.04317e-06 9.18191e-06 -4.09735e-06 -1.08611e-05 4.13845e-06 -5.64849e-06 1.86656e-06 8.92638e-06 -3.7873e-06 -1.0282e-05 3.79599e-06 -5.02648e-06 1.75981e-06 8.51625e-06 -3.42312e-06 -9.57103e-06 3.51159e-06 -4.5614e-06 1.62283e-06 7.99312e-06 -3.1151e-06 -8.83125e-06 3.25602e-06 -4.15859e-06 1.51639e-06 7.41841e-06 -2.83749e-06 -8.10646e-06 3.02773e-06 -3.78303e-06 1.4271e-06 6.8505e-06 -2.58652e-06 -7.3948e-06 2.80316e-06 -3.45102e-06 1.34025e-06 6.2756e-06 -2.35289e-06 -6.72287e-06 2.58306e-06 -3.11968e-06 1.26136e-06 5.73574e-06 -2.13717e-06 -6.08588e-06 2.37328e-06 -2.81426e-06 1.18045e-06 5.21444e-06 -1.93725e-06 -5.48774e-06 2.17134e-06 -2.52142e-06 1.10362e-06 4.72324e-06 -1.75341e-06 -4.92229e-06 1.9692e-06 -2.24782e-06 1.03163e-06 4.25603e-06 -1.57848e-06 -4.39256e-06 1.78992e-06 -1.99639e-06 9.56818e-07 3.81524e-06 -1.4186e-06 -3.90178e-06 1.60479e-06 -1.76014e-06 8.80915e-07 3.39902e-06 -1.26617e-06 -3.44723e-06 1.43556e-06 -1.5381e-06 8.08466e-07 3.01694e-06 -1.12719e-06 -3.0214e-06 1.27781e-06 -1.33076e-06 7.36133e-07 2.65144e-06 -9.85921e-07 -2.62577e-06 1.11588e-06 -1.14192e-06 6.61511e-07 2.31736e-06 -8.63161e-07 -2.26674e-06 9.8565e-07 -9.71272e-07 5.92205e-07 2.00782e-06 -7.53265e-07 -1.93459e-06 8.46456e-07 -8.22106e-07 5.23985e-07 1.7141e-06 -6.40575e-07 -1.63228e-06 7.32485e-07 -6.7876e-07 4.54718e-07 1.45279e-06 -5.43582e-07 -1.3561e-06 6.17855e-07 -5.48142e-07 3.96976e-07 1.21386e-06 -4.46569e-07 -1.10827e-06 5.15293e-07 -4.32929e-07 3.33297e-07 9.98029e-07 -3.5755e-07 -8.82467e-07 4.26817e-07 -3.41349e-07 2.78931e-07 8.0571e-07 -2.81512e-07 -6.91662e-07 3.4358e-07 -2.585e-07 2.12846e-07 6.2418e-07 -2.11158e-07 -5.17039e-07 2.70898e-07 -1.98081e-07 1.60149e-07 4.66631e-07 -1.56559e-07 -3.71151e-07 2.22625e-07 -1.51282e-07 1.15368e-07 3.30309e-07 -8.53712e-08 -2.36284e-07 1.83354e-07 -1.16163e-07 7.33029e-08 2.24255e-07 -5.57241e-08 -1.54949e-07 1.50331e-07 -9.65083e-08 4.09782e-08 1.40164e-07 -2.27398e-08 -7.82893e-08 1.33684e-07 -8.73891e-08 2.08771e-08 7.63296e-08 -1.5134e-09 -1.8413e-08 4.51276e-06 -4.87674e-06 4.16084e-06 4.16084e-06 -9.80023e-07 -4.94193e-06 3.99405e-06 -4.96158e-06 1.54957e-06 5.56842e-06 -6.1803e-07 -6.6128e-06 3.20507e-06 -4.49872e-06 3.17077e-07 6.39225e-06 -8.73891e-07 -7.59777e-06 2.75555e-06 -6.6616e-06 -4.05901e-08 6.78818e-06 -3.57426e-06 -1.06314e-05 4.52017e-06 -5.63759e-06 1.71538e-06 9.05839e-06 -3.11064e-06 -1.01159e-05 4.00965e-06 -4.93073e-06 1.52069e-06 8.78253e-06 -2.80532e-06 -9.53488e-06 3.70131e-06 -4.36309e-06 1.39598e-06 8.35187e-06 -2.45281e-06 -8.80296e-06 3.44962e-06 -3.96353e-06 1.25542e-06 7.79439e-06 -2.18537e-06 -8.06694e-06 3.21015e-06 -3.61706e-06 1.15709e-06 7.19447e-06 -1.97064e-06 -7.36207e-06 2.98365e-06 -3.30536e-06 1.08674e-06 6.60661e-06 -1.78273e-06 -6.69763e-06 2.77596e-06 -3.01619e-06 1.01367e-06 6.03447e-06 -1.61709e-06 -6.0644e-06 2.56133e-06 -2.73694e-06 9.56934e-07 5.49131e-06 -1.46621e-06 -5.48081e-06 2.35733e-06 -2.47796e-06 8.94341e-07 4.98013e-06 -1.32576e-06 -4.92462e-06 2.16113e-06 -2.23257e-06 8.38035e-07 4.49472e-06 -1.1969e-06 -4.41707e-06 1.96963e-06 -1.99144e-06 7.81341e-07 4.04838e-06 -1.07859e-06 -3.94223e-06 1.79093e-06 -1.77539e-06 7.20727e-07 3.62184e-06 -9.61649e-07 -3.49176e-06 1.60626e-06 -1.57318e-06 6.57048e-07 3.2169e-06 -8.63899e-07 -3.08326e-06 1.44328e-06 -1.3822e-06 6.04196e-07 2.84686e-06 -7.66246e-07 -2.69754e-06 1.28767e-06 -1.20496e-06 5.55689e-07 2.50491e-06 -6.71658e-07 -2.33399e-06 1.13377e-06 -1.04132e-06 4.94688e-07 2.17076e-06 -5.9302e-07 -2.01593e-06 9.99503e-07 -8.96514e-07 4.43969e-07 1.87712e-06 -5.07474e-07 -1.71282e-06 8.62948e-07 -7.53324e-07 3.87314e-07 1.60021e-06 -4.34074e-07 -1.44446e-06 7.4467e-07 -6.34658e-07 3.36596e-07 1.35244e-06 -3.59122e-07 -1.18971e-06 6.30001e-07 -5.18436e-07 2.93561e-07 1.12795e-06 -2.99187e-07 -9.68149e-07 5.35045e-07 -4.21249e-07 2.46412e-07 9.17935e-07 -2.40359e-07 -7.72726e-07 4.43271e-07 -3.33316e-07 2.00079e-07 7.34115e-07 -1.86129e-07 -5.93563e-07 3.62401e-07 -2.66572e-07 1.56695e-07 5.65119e-07 -1.36322e-07 -4.42087e-07 2.97868e-07 -2.06618e-07 1.13233e-07 4.19522e-07 -9.61785e-08 -3.14399e-07 2.43347e-07 -1.6595e-07 8.21892e-08 3.00546e-07 -5.8945e-08 -2.04057e-07 2.059e-07 -1.40319e-07 5.29302e-08 1.97984e-07 -3.05008e-08 -1.28581e-07 1.76757e-07 -1.35527e-07 2.38263e-08 1.21809e-07 -2.64069e-08 -7.62908e-08 1.61662e-07 -1.34751e-07 2.86382e-08 7.83087e-08 -2.21189e-08 -4.09782e-08 5.00908e-06 -3.756e-06 8.08415e-06 8.08415e-06 -3.43338e-06 -7.41191e-06 4.53081e-06 -4.08725e-06 4.03255e-06 8.13316e-06 -1.70184e-06 -7.79195e-06 3.76584e-06 -3.75742e-06 1.82039e-06 8.04407e-06 -9.40946e-07 -7.93273e-06 3.19292e-06 -3.47546e-06 7.18942e-07 7.832e-06 -7.78178e-07 -7.94897e-06 2.92889e-06 -4.73434e-06 3.20724e-07 7.60677e-06 -2.10213e-06 -9.29865e-06 3.83961e-06 -4.15684e-06 1.19357e-06 8.60255e-06 -1.8285e-06 -8.74995e-06 3.60546e-06 -3.66181e-06 1.04871e-06 8.1644e-06 -1.50042e-06 -7.97831e-06 3.39421e-06 -3.34855e-06 9.12619e-07 7.54911e-06 -1.28167e-06 -7.24431e-06 3.18609e-06 -3.07455e-06 8.31244e-07 6.92295e-06 -1.12859e-06 -6.56253e-06 2.97088e-06 -2.81426e-06 7.69777e-07 6.30909e-06 -1.00672e-06 -5.94015e-06 2.76242e-06 -2.58329e-06 7.14596e-07 5.7345e-06 -8.94147e-07 -5.35879e-06 2.55221e-06 -2.34658e-06 6.61899e-07 5.19767e-06 -8.00879e-07 -4.82192e-06 2.35609e-06 -2.1348e-06 6.14945e-07 4.69414e-06 -7.19136e-07 -4.32576e-06 2.15229e-06 -1.92949e-06 5.64343e-07 4.21823e-06 -6.43854e-07 -3.86823e-06 1.96583e-06 -1.73024e-06 5.19096e-07 3.78179e-06 -5.71425e-07 -3.42744e-06 1.78507e-06 -1.54648e-06 4.82192e-07 3.36883e-06 -4.99247e-07 -3.02983e-06 1.60638e-06 -1.37312e-06 4.30116e-07 2.98512e-06 -4.41699e-07 -2.66387e-06 1.44215e-06 -1.21045e-06 3.81842e-07 2.62307e-06 -3.8518e-07 -2.31309e-06 1.28569e-06 -1.05127e-06 3.51652e-07 2.29424e-06 -3.29805e-07 -2.00318e-06 1.13121e-06 -9.15781e-07 3.01128e-07 1.98558e-06 -2.84655e-07 -1.70566e-06 9.88327e-07 -7.89568e-07 2.61352e-07 1.69066e-06 -2.39874e-07 -1.44371e-06 8.59805e-07 -6.70649e-07 2.28717e-07 1.43851e-06 -1.994e-07 -1.20511e-06 7.3947e-07 -5.68786e-07 1.91464e-07 1.20145e-06 -1.63855e-07 -9.78956e-07 6.27129e-07 -4.65196e-07 1.66241e-07 9.8433e-07 -1.31084e-07 -7.93817e-07 5.26779e-07 -3.85199e-07 1.23633e-07 7.88287e-07 -9.80799e-08 -6.1118e-07 4.3454e-07 -3.06735e-07 1.02213e-07 6.16536e-07 -6.47269e-08 -4.66399e-07 3.62789e-07 -2.43871e-07 7.70669e-08 4.79398e-07 -3.89409e-08 -3.30464e-07 2.97946e-07 -1.99555e-07 5.3163e-08 3.45016e-07 -1.54444e-08 -2.22062e-07 2.41523e-07 -1.64475e-07 2.61158e-08 2.32792e-07 -3.68649e-09 -1.39388e-07 1.96005e-07 -1.45345e-07 3.41485e-09 1.39039e-07 7.29536e-09 -8.21698e-08 1.66125e-07 -1.54891e-07 -3.10441e-10 8.89801e-08 -2.38651e-09 -7.74744e-08 1.78853e-07 -1.67832e-07 5.51033e-09 8.03266e-08 -3.50992e-08 -5.82465e-08 6.03478e-06 -3.00734e-06 1.21772e-05 1.21772e-05 -5.98986e-06 -9.94521e-06 5.34152e-06 -3.35195e-06 6.70028e-06 1.086e-05 -2.88611e-06 -8.95106e-06 4.50811e-06 -3.09991e-06 3.56751e-06 9.84901e-06 -1.22764e-06 -8.25231e-06 3.86538e-06 -2.78304e-06 1.81666e-06 9.01982e-06 -4.08346e-07 -7.68056e-06 3.45606e-06 -2.6246e-06 8.89141e-07 8.29793e-06 -1.34964e-07 -7.24237e-06 3.11163e-06 -3.34933e-06 5.15293e-07 7.7278e-06 -8.62541e-07 -7.7682e-06 3.65338e-06 -2.93442e-06 9.03577e-07 7.97441e-06 -5.37451e-07 -6.91831e-06 3.49677e-06 -2.72879e-06 7.70786e-07 7.27732e-06 -3.89099e-07 -6.21896e-06 3.28656e-06 -2.52819e-06 6.6834e-07 6.59916e-06 -2.9195e-07 -5.58724e-06 3.06797e-06 -2.32431e-06 6.01518e-07 5.97901e-06 -2.21267e-07 -5.02338e-06 2.84154e-06 -2.14057e-06 5.27284e-07 5.39686e-06 -1.72586e-07 -4.50496e-06 2.62505e-06 -1.95921e-06 4.66554e-07 4.85405e-06 -1.33276e-07 -4.02768e-06 2.40281e-06 -1.77935e-06 4.12925e-07 4.35195e-06 -9.01249e-08 -3.58683e-06 2.19897e-06 -1.61749e-06 3.62323e-07 3.8953e-06 -7.05865e-08 -3.18598e-06 1.99885e-06 -1.44972e-06 3.20414e-07 3.46495e-06 -3.56231e-08 -2.80978e-06 1.80777e-06 -1.29881e-06 2.69269e-07 3.06661e-06 -2.12458e-08 -2.46407e-06 1.6278e-06 -1.15845e-06 2.34654e-07 2.6954e-06 -2.2895e-09 -2.13997e-06 1.45088e-06 -1.02337e-06 1.96199e-07 2.34775e-06 2.111e-08 -1.85065e-06 1.28344e-06 -8.89452e-07 1.56734e-07 2.03909e-06 3.24799e-08 -1.5738e-06 1.12931e-06 -7.76665e-07 1.22935e-07 1.73699e-06 4.42766e-08 -1.3249e-06 9.89026e-07 -6.55418e-07 9.81769e-08 1.47296e-06 6.46105e-08 -1.09774e-06 8.4471e-07 -5.63683e-07 5.84405e-08 1.22492e-06 6.22822e-08 -8.94225e-07 7.20921e-07 -4.72045e-07 3.83394e-08 9.97641e-07 7.21775e-08 -7.12442e-07 6.04467e-07 -3.87391e-07 1.83548e-08 8.04779e-07 7.05865e-08 -5.46201e-07 5.03263e-07 -3.21384e-07 -1.24176e-09 6.16691e-07 7.98221e-08 -4.06037e-07 4.06328e-07 -2.5916e-07 -2.11294e-08 4.65351e-07 7.17118e-08 -2.91e-07 3.31124e-07 -2.06598e-07 -2.97635e-08 3.33297e-07 7.81923e-08 -1.85935e-07 2.66203e-07 -1.6888e-07 -3.49828e-08 2.29222e-07 7.52431e-08 -1.12438e-07 2.16765e-07 -1.4257e-07 -4.51497e-08 1.42415e-07 7.22939e-08 -4.99228e-08 1.71325e-07 -1.35022e-07 -5.39585e-08 6.8103e-08 5.71211e-08 -2.18861e-08 1.4874e-07 -1.44918e-07 -4.65855e-08 3.22082e-08 2.111e-08 -3.84559e-08 1.54988e-07 -1.86691e-07 -1.49206e-08 4.4393e-08 -1.37952e-08 -6.85686e-08 7.17832e-06 -3.21359e-06 1.60806e-05 1.60806e-05 -9.06679e-06 -1.26468e-05 6.49078e-06 -3.19337e-06 9.66236e-06 1.3507e-05 -4.52883e-06 -1.01433e-05 5.65115e-06 -2.84511e-06 5.67385e-06 1.15867e-05 -1.97745e-06 -8.47416e-06 4.95553e-06 -2.47584e-06 3.33511e-06 1.00813e-05 -5.42612e-07 -7.23826e-06 4.43286e-06 -2.23486e-06 1.98643e-06 8.86437e-06 1.95888e-07 -6.30975e-06 3.98078e-06 -2.13564e-06 1.23311e-06 7.86354e-06 3.44745e-07 -5.82472e-06 3.81679e-06 -2.32216e-06 9.931e-07 7.24049e-06 2.3935e-07 -5.48968e-06 3.83763e-06 -2.23787e-06 9.03189e-07 6.72392e-06 3.29261e-07 -4.87739e-06 3.57795e-06 -2.09346e-06 7.45757e-07 6.02849e-06 3.93872e-07 -4.34218e-06 3.31074e-06 -1.93552e-06 6.05593e-07 5.40454e-06 4.24334e-07 -3.85707e-06 3.05245e-06 -1.78269e-06 5.0078e-07 4.83329e-06 4.44784e-07 -3.42288e-06 2.78947e-06 -1.63059e-06 4.04931e-07 4.31385e-06 4.58055e-07 -3.03248e-06 2.55124e-06 -1.47927e-06 3.2185e-07 3.84543e-06 4.54873e-07 -2.67311e-06 2.30797e-06 -1.34079e-06 2.53475e-07 3.40775e-06 4.51342e-07 -2.34536e-06 2.08729e-06 -1.20201e-06 1.92473e-07 3.00976e-06 4.41214e-07 -2.04679e-06 1.87448e-06 -1.07674e-06 1.32597e-07 2.6365e-06 4.33763e-07 -1.76255e-06 1.67227e-06 -9.52064e-07 8.13355e-08 2.2897e-06 4.19289e-07 -1.50393e-06 1.48282e-06 -8.29304e-07 3.93484e-08 1.97149e-06 4.07997e-07 -1.26685e-06 1.29578e-06 -7.21077e-07 -3.97752e-09 1.67739e-06 3.92126e-07 -1.05371e-06 1.13008e-06 -6.17292e-07 -3.82618e-08 1.4122e-06 3.78971e-07 -8.53771e-07 9.68692e-07 -5.20842e-07 -7.29148e-08 1.16295e-06 3.62595e-07 -6.72202e-07 8.16033e-07 -4.36305e-07 -1.02116e-07 9.34543e-07 3.44046e-07 -5.05922e-07 6.87665e-07 -3.56212e-07 -1.19617e-07 7.31515e-07 3.22082e-07 -3.74062e-07 5.66205e-07 -2.83995e-07 -1.40649e-07 5.56116e-07 2.98916e-07 -2.46917e-07 4.47268e-07 -2.31919e-07 -1.49691e-07 3.96394e-07 2.70433e-07 -1.51282e-07 3.57085e-07 -1.80347e-07 -1.56947e-07 2.64845e-07 2.45559e-07 -6.26314e-08 2.73266e-07 -1.4028e-07 -1.53688e-07 1.54444e-07 2.19559e-07 -3.22082e-09 2.06948e-07 -1.09644e-07 -1.53338e-07 6.93059e-08 1.90805e-07 4.25692e-08 1.54289e-07 -9.40054e-08 -1.42997e-07 5.04466e-09 1.67405e-07 6.03807e-08 1.22042e-07 -9.57322e-08 -1.3281e-07 -2.59218e-08 1.29143e-07 5.3163e-08 9.31711e-08 -1.08305e-07 -1.08421e-07 -3.25575e-08 8.66518e-08 2.53785e-08 1.06481e-07 -1.63583e-07 -6.44165e-08 -3.29843e-09 5.85957e-09 -6.49404e-08 6.56008e-06 -4.15387e-06 1.8722e-05 1.8722e-05 -1.25034e-05 -1.58578e-05 7.27464e-06 -3.83815e-06 1.22651e-05 1.59261e-05 -6.88385e-06 -1.19516e-05 7.13552e-06 -3.37948e-06 7.88101e-06 1.33065e-05 -3.4638e-06 -9.05795e-06 6.59353e-06 -2.89767e-06 5.13357e-06 1.10434e-05 -1.42285e-06 -6.927e-06 5.94646e-06 -2.50627e-06 3.4497e-06 9.19157e-06 -2.38438e-07 -5.39022e-06 5.31133e-06 -2.21515e-06 2.39897e-06 7.70832e-06 3.66941e-07 -4.36109e-06 4.75215e-06 -2.016e-06 1.75628e-06 6.56668e-06 6.24452e-07 -3.69768e-06 4.31602e-06 -2.00444e-06 1.28689e-06 5.67952e-06 7.52819e-07 -3.29502e-06 3.98587e-06 -1.84763e-06 9.13045e-07 5.03399e-06 8.39471e-07 -2.85854e-06 3.63747e-06 -1.7003e-06 6.79827e-07 4.43911e-06 8.86425e-07 -2.48345e-06 3.30499e-06 -1.54832e-06 4.99305e-07 3.9192e-06 9.07651e-07 -2.16036e-06 3.00491e-06 -1.40839e-06 3.51225e-07 3.45916e-06 8.9958e-07 -1.87163e-06 2.71861e-06 -1.27345e-06 2.46917e-07 3.04927e-06 8.95234e-07 -1.6113e-06 2.44561e-06 -1.13602e-06 1.46839e-07 2.67767e-06 8.69855e-07 -1.37909e-06 2.19261e-06 -1.01336e-06 6.3524e-08 2.33079e-06 8.43119e-07 -1.15591e-06 1.95159e-06 -8.95874e-07 -2.56114e-09 2.01003e-06 8.15683e-07 -9.55091e-07 1.72093e-06 -7.80604e-07 -6.69194e-08 1.71367e-06 7.86541e-07 -7.74298e-07 1.51286e-06 -6.70261e-07 -1.25729e-07 1.44211e-06 7.54643e-07 -5.97637e-07 1.30707e-06 -5.64983e-07 -1.72372e-07 1.1846e-06 7.203e-07 -4.46123e-07 1.11743e-06 -4.75285e-07 -2.18609e-07 9.50686e-07 6.82194e-07 -3.07783e-07 9.43934e-07 -3.82521e-07 -2.48353e-07 7.43234e-07 6.51072e-07 -1.74584e-07 7.76296e-07 -3.06716e-07 -2.83452e-07 5.42961e-07 6.05166e-07 -6.95776e-08 6.28061e-07 -2.33393e-07 -3.04368e-07 3.7055e-07 5.69465e-07 2.43696e-08 4.98296e-07 -1.67987e-07 -3.22975e-07 2.22004e-07 5.35588e-07 1.08848e-07 3.78389e-07 -1.15562e-07 -3.28233e-07 9.82157e-08 4.79282e-07 1.69695e-07 2.73304e-07 -7.38461e-08 -3.17212e-07 -7.91624e-09 4.38653e-07 2.11449e-07 2.00622e-07 -3.5041e-08 -3.12633e-07 -8.57593e-08 3.90923e-07 2.22314e-07 1.156e-07 -2.28368e-08 -2.99013e-07 -1.30696e-07 3.36751e-07 2.20685e-07 7.9046e-08 -2.02369e-08 -2.71364e-07 -1.55511e-07 2.76642e-07 2.08616e-07 5.1378e-08 -3.01904e-08 -2.14592e-07 -1.46683e-07 2.24332e-07 1.67832e-07 2.96859e-08 -5.15914e-08 -1.73575e-07 -1.17191e-07 1.49749e-07 9.41412e-08 5.7936e-08 -1.16318e-07 -1.21596e-07 -6.60851e-08 5.42883e-08 -6.90731e-09 4.68059e-06 -2.38746e-05 -8.44824e-06 -8.44824e-06 -3.32798e-06 -9.65333e-06 9.73224e-06 -1.30145e-05 1.92543e-06 8.36743e-06 -5.45051e-06 -1.21622e-05 6.51507e-06 -1.00101e-05 2.12893e-06 9.1809e-06 -5.99923e-06 -1.25137e-05 5.19108e-06 -8.58154e-06 2.33859e-06 9.21354e-06 -6.07438e-06 -1.23084e-05 4.50624e-06 -7.67352e-06 2.42986e-06 9.02308e-06 -5.95495e-06 -1.1861e-05 4.0849e-06 -6.98187e-06 2.45213e-06 8.70111e-06 -5.71512e-06 -1.12879e-05 3.77512e-06 -6.37834e-06 2.41581e-06 8.30519e-06 -5.4188e-06 -1.06208e-05 3.53445e-06 -5.83582e-06 2.35694e-06 7.84185e-06 -5.07045e-06 -9.90867e-06 3.30887e-06 -5.33353e-06 2.26765e-06 7.35147e-06 -4.71127e-06 -9.1778e-06 3.08361e-06 -4.85609e-06 2.16688e-06 6.84204e-06 -4.34848e-06 -8.44822e-06 2.86277e-06 -4.39674e-06 2.0564e-06 6.33105e-06 -3.99163e-06 -7.7312e-06 2.63308e-06 -3.95676e-06 1.9387e-06 5.82251e-06 -3.64475e-06 -7.03343e-06 2.40549e-06 -3.53307e-06 1.82427e-06 5.33062e-06 -3.31279e-06 -6.36625e-06 2.18449e-06 -3.14525e-06 1.69924e-06 4.84769e-06 -2.99899e-06 -5.73572e-06 1.9666e-06 -2.78107e-06 1.58453e-06 4.39705e-06 -2.70483e-06 -5.13543e-06 1.7569e-06 -2.43537e-06 1.46687e-06 3.9575e-06 -2.42221e-06 -4.57297e-06 1.56257e-06 -2.11181e-06 1.34273e-06 3.54066e-06 -2.16179e-06 -4.03981e-06 1.38003e-06 -1.82473e-06 1.23078e-06 3.14508e-06 -1.90733e-06 -3.54256e-06 1.20288e-06 -1.54559e-06 1.11142e-06 2.77437e-06 -1.67553e-06 -3.08041e-06 1.04075e-06 -1.30861e-06 9.98572e-07 2.42404e-06 -1.4647e-06 -2.66219e-06 8.85416e-07 -1.0782e-06 8.8464e-07 2.09734e-06 -1.25602e-06 -2.25508e-06 7.45563e-07 -8.85086e-07 7.80099e-07 1.7902e-06 -1.0744e-06 -1.89953e-06 6.20921e-07 -6.94301e-07 6.7711e-07 1.50991e-06 -8.96553e-07 -1.57906e-06 5.04428e-07 -5.4236e-07 5.74005e-07 1.26175e-06 -7.42012e-07 -1.28001e-06 4.06018e-07 -4.07822e-07 4.80407e-07 1.02182e-06 -5.89624e-07 -1.00451e-06 3.17426e-07 -2.86867e-07 3.90884e-07 8.07884e-07 -4.59879e-07 -7.7129e-07 2.37837e-07 -1.95054e-07 3.0268e-07 6.15333e-07 -3.40243e-07 -5.73229e-07 1.73187e-07 -1.14359e-07 2.20491e-07 4.54136e-07 -2.31531e-07 -3.92067e-07 1.23245e-07 -5.50644e-08 1.4843e-07 3.09238e-07 -1.40009e-07 -2.49556e-07 7.90072e-08 -2.50681e-08 8.63414e-08 1.95966e-07 -5.95658e-08 -1.403e-07 5.14944e-08 2.52233e-09 3.30231e-08 1.13738e-07 -9.58486e-09 -6.46105e-08 4.22976e-08 -2.81337e-09 -8.71175e-09 4.62945e-08 3.72917e-08 -1.92667e-08 4.16988e-06 -9.30354e-06 -3.33899e-06 -3.33899e-06 4.05506e-06 -5.17738e-07 3.03305e-06 -1.36249e-05 -3.3507e-06 1.13586e-06 -6.18051e-06 -1.19194e-05 7.20238e-06 -9.7927e-06 2.73013e-06 8.7821e-06 -5.57024e-06 -1.19394e-05 5.57629e-06 -8.09201e-06 2.46199e-06 9.17636e-06 -5.35138e-06 -1.17905e-05 4.75595e-06 -7.08915e-06 2.33677e-06 9.09879e-06 -5.10776e-06 -1.13952e-05 4.25021e-06 -6.38063e-06 2.23405e-06 8.81563e-06 -4.83407e-06 -1.08432e-05 3.87845e-06 -5.81448e-06 2.14375e-06 8.41547e-06 -4.53424e-06 -1.01901e-05 3.59537e-06 -5.30801e-06 2.05838e-06 7.94515e-06 -4.1992e-06 -9.48469e-06 3.34081e-06 -4.85531e-06 1.95174e-06 7.43549e-06 -3.8732e-06 -8.75804e-06 3.1029e-06 -4.42823e-06 1.85372e-06 6.90611e-06 -3.56114e-06 -8.03925e-06 2.86948e-06 -4.02605e-06 1.75306e-06 6.37091e-06 -3.26081e-06 -7.34164e-06 2.641e-06 -3.63321e-06 1.65407e-06 5.85045e-06 -2.97156e-06 -6.66214e-06 2.41325e-06 -3.25567e-06 1.55589e-06 5.34117e-06 -2.70004e-06 -6.0274e-06 2.2006e-06 -2.91118e-06 1.45205e-06 4.85623e-06 -2.44554e-06 -5.42197e-06 1.99004e-06 -2.57503e-06 1.35441e-06 4.39289e-06 -2.20745e-06 -4.85972e-06 1.78104e-06 -2.2688e-06 1.2541e-06 3.95583e-06 -1.9894e-06 -4.32473e-06 1.59206e-06 -1.98343e-06 1.1633e-06 3.53755e-06 -1.77116e-06 -3.81862e-06 1.41402e-06 -1.71493e-06 1.06353e-06 3.14135e-06 -1.57089e-06 -3.36277e-06 1.24813e-06 -1.47659e-06 9.61241e-07 2.77662e-06 -1.38854e-06 -2.92689e-06 1.07882e-06 -1.2574e-06 8.7133e-07 2.4273e-06 -1.21728e-06 -2.53149e-06 9.43857e-07 -1.04859e-06 7.81729e-07 2.10921e-06 -1.0489e-06 -2.16414e-06 7.9826e-07 -8.68749e-07 6.86074e-07 1.811e-06 -9.03752e-07 -1.83352e-06 6.72958e-07 -7.0961e-07 5.98026e-07 1.53474e-06 -7.65896e-07 -1.51912e-06 5.70241e-07 -5.60268e-07 5.22938e-07 1.28088e-06 -6.29613e-07 -1.24269e-06 4.65506e-07 -4.35937e-07 4.39002e-07 1.0553e-06 -5.10016e-07 -9.94827e-07 3.68649e-07 -3.25846e-07 3.62517e-07 8.49405e-07 -3.99033e-07 -7.79866e-07 2.97713e-07 -2.36944e-07 2.80212e-07 6.62364e-07 -3.01496e-07 -5.80583e-07 2.30386e-07 -1.54677e-07 2.21073e-07 5.00896e-07 -2.01709e-07 -4.13662e-07 1.70005e-07 -1.00466e-07 1.49322e-07 3.61625e-07 -1.25476e-07 -2.76254e-07 1.31627e-07 -6.0827e-08 9.54218e-08 2.46374e-07 -6.80642e-08 -1.70607e-07 9.84874e-08 -3.86111e-08 4.66049e-08 1.49089e-07 -2.01204e-08 -8.5313e-08 8.56429e-08 -3.86693e-08 1.14863e-08 7.66789e-08 1.24176e-08 -2.76292e-08 4.11117e-06 -6.25449e-06 2.89525e-07 2.89525e-07 1.27312e-06 -2.61205e-06 3.58055e-06 -6.36027e-06 -7.47173e-07 3.10453e-06 1.08965e-07 -5.54742e-06 2.94539e-06 -9.38971e-06 -8.85028e-07 4.74947e-06 -5.14187e-06 -1.13771e-05 5.62721e-06 -7.48956e-06 2.35679e-06 8.90826e-06 -4.5356e-06 -1.10529e-05 4.78587e-06 -6.4816e-06 2.13828e-06 8.94337e-06 -4.19904e-06 -1.06667e-05 4.27194e-06 -5.79174e-06 1.9784e-06 8.69665e-06 -3.89854e-06 -1.01363e-05 3.87508e-06 -5.25062e-06 1.84945e-06 8.30468e-06 -3.62698e-06 -9.51296e-06 3.59483e-06 -4.77142e-06 1.75857e-06 7.83269e-06 -3.32983e-06 -8.82384e-06 3.33293e-06 -4.36486e-06 1.65713e-06 7.31057e-06 -3.05771e-06 -8.12746e-06 3.08683e-06 -3.97939e-06 1.5628e-06 6.7666e-06 -2.79913e-06 -7.44784e-06 2.85175e-06 -3.61666e-06 1.47002e-06 6.23059e-06 -2.5573e-06 -6.79223e-06 2.62672e-06 -3.27232e-06 1.38266e-06 5.71056e-06 -2.33122e-06 -6.16023e-06 2.40545e-06 -2.94923e-06 1.30203e-06 5.20714e-06 -2.12854e-06 -5.56685e-06 2.19427e-06 -2.6475e-06 1.22329e-06 4.72394e-06 -1.92751e-06 -5.00471e-06 1.99447e-06 -2.35308e-06 1.14479e-06 4.27256e-06 -1.73952e-06 -4.47264e-06 1.80079e-06 -2.07522e-06 1.05992e-06 3.83356e-06 -1.56534e-06 -3.98154e-06 1.61212e-06 -1.81947e-06 9.79945e-07 3.42843e-06 -1.40333e-06 -3.52414e-06 1.43587e-06 -1.59132e-06 8.97135e-07 3.04306e-06 -1.25022e-06 -3.10125e-06 1.26757e-06 -1.37776e-06 8.13976e-07 2.68458e-06 -1.09774e-06 -2.70095e-06 1.11165e-06 -1.17663e-06 7.38228e-07 2.35644e-06 -9.73892e-07 -2.33741e-06 9.75134e-07 -1.00022e-06 6.6349e-07 2.03828e-06 -8.41508e-07 -1.99656e-06 8.40053e-07 -8.31167e-07 5.90653e-07 1.75399e-06 -7.21232e-07 -1.69086e-06 7.16575e-07 -6.8751e-07 5.18203e-07 1.49392e-06 -6.14013e-07 -1.41132e-06 6.00664e-07 -5.55709e-07 4.4653e-07 1.24809e-06 -5.09298e-07 -1.15886e-06 5.01517e-07 -4.39875e-07 3.80795e-07 1.0333e-06 -4.13934e-07 -9.27811e-07 4.13352e-07 -3.358e-07 3.20685e-07 8.36444e-07 -3.29921e-07 -7.32737e-07 3.25691e-07 -2.61721e-07 2.45986e-07 6.49986e-07 -2.44375e-07 -5.56485e-07 2.62517e-07 -1.84751e-07 1.92124e-07 5.04971e-07 -1.75535e-07 -4.02002e-07 2.04775e-07 -1.37972e-07 1.36322e-07 3.63138e-07 -1.17308e-07 -2.767e-07 1.6888e-07 -1.03008e-07 9.60038e-08 2.55532e-07 -6.68612e-08 -1.71538e-07 1.37564e-07 -8.25191e-08 5.62286e-08 1.60847e-07 -3.0656e-08 -9.905e-08 1.26505e-07 -7.25073e-08 2.59994e-08 9.4374e-08 1.59101e-09 -3.71365e-08 4.36441e-06 -4.80724e-06 3.60569e-06 3.60569e-06 -1.00315e-06 -4.65395e-06 4.06208e-06 -5.08634e-06 1.45853e-06 5.13442e-06 -7.27421e-07 -6.40081e-06 3.42389e-06 -4.91692e-06 4.35316e-07 6.1172e-06 -1.08237e-06 -7.38712e-06 3.07173e-06 -6.82087e-06 1.57199e-07 6.47948e-06 -3.75131e-06 -1.02926e-05 4.68413e-06 -5.78485e-06 1.89431e-06 8.68385e-06 -3.30728e-06 -9.86449e-06 4.22006e-06 -5.15208e-06 1.72838e-06 8.49871e-06 -3.00842e-06 -9.34736e-06 3.84015e-06 -4.65652e-06 1.58829e-06 8.10658e-06 -2.76574e-06 -8.73988e-06 3.56553e-06 -4.21749e-06 1.49264e-06 7.61872e-06 -2.49771e-06 -8.07538e-06 3.3022e-06 -3.84951e-06 1.37972e-06 7.08438e-06 -2.27377e-06 -7.41026e-06 3.06797e-06 -3.50839e-06 1.29481e-06 6.53699e-06 -2.06866e-06 -6.76134e-06 2.83572e-06 -3.20022e-06 1.2165e-06 5.99717e-06 -1.88847e-06 -6.14655e-06 2.61321e-06 -2.90152e-06 1.13796e-06 5.46892e-06 -1.71478e-06 -5.55895e-06 2.39753e-06 -2.61603e-06 1.06896e-06 4.97342e-06 -1.55857e-06 -5.0149e-06 2.18756e-06 -2.3513e-06 9.95856e-07 4.5017e-06 -1.4167e-06 -4.50287e-06 1.98682e-06 -2.1024e-06 9.27132e-07 4.05358e-06 -1.28142e-06 -4.02355e-06 1.79761e-06 -1.86773e-06 8.57166e-07 3.63161e-06 -1.14948e-06 -3.57647e-06 1.61914e-06 -1.64115e-06 7.93293e-07 3.24628e-06 -1.02647e-06 -3.15299e-06 1.44642e-06 -1.43998e-06 7.31243e-07 2.87833e-06 -9.14539e-07 -2.76894e-06 1.28794e-06 -1.24834e-06 6.56621e-07 2.52718e-06 -8.0476e-07 -2.41174e-06 1.12636e-06 -1.079e-06 5.87082e-07 2.20642e-06 -7.12986e-07 -2.07819e-06 9.91121e-07 -9.17178e-07 5.40322e-07 1.91476e-06 -6.11103e-07 -1.7771e-06 8.52393e-07 -7.74802e-07 4.68533e-07 1.64153e-06 -5.29321e-07 -1.49735e-06 7.3004e-07 -6.40537e-07 4.21618e-07 1.39469e-06 -4.45075e-07 -1.25449e-06 6.20843e-07 -5.23151e-07 3.51768e-07 1.16489e-06 -3.70996e-07 -1.02389e-06 5.19368e-07 -4.20997e-07 3.03145e-07 9.58641e-07 -3.01613e-07 -8.18846e-07 4.24877e-07 -3.3062e-07 2.49245e-07 7.68147e-07 -2.38768e-07 -6.42011e-07 3.47655e-07 -2.61566e-07 2.01088e-07 6.05398e-07 -1.82403e-07 -4.83725e-07 2.80018e-07 -1.93793e-07 1.59489e-07 4.61354e-07 -1.23808e-07 -3.46025e-07 2.27165e-07 -1.48333e-07 1.16454e-07 3.3904e-07 -8.01519e-08 -2.39311e-07 1.90184e-07 -1.18065e-07 7.04701e-08 2.29726e-07 -4.54408e-08 -1.48138e-07 1.60537e-07 -1.11642e-07 3.98917e-08 1.42492e-07 -3.05008e-08 -9.67411e-08 1.57432e-07 -1.2406e-07 3.03844e-08 9.64307e-08 -2.37487e-08 -5.56077e-08 4.7754e-06 -3.9723e-06 6.94029e-06 6.94029e-06 -3.19591e-06 -6.9154e-06 4.5809e-06 -4.38133e-06 3.62424e-06 7.43021e-06 -1.76641e-06 -7.48562e-06 3.94667e-06 -4.15232e-06 1.76796e-06 7.55438e-06 -1.17612e-06 -7.71929e-06 3.44671e-06 -3.97331e-06 8.96282e-07 7.47476e-06 -1.12281e-06 -7.74534e-06 3.21364e-06 -5.06017e-06 5.86694e-07 7.24037e-06 -2.46678e-06 -9.02442e-06 4.11668e-06 -4.46253e-06 1.49795e-06 8.2256e-06 -2.14509e-06 -8.51402e-06 3.77675e-06 -4.03385e-06 1.34425e-06 7.85768e-06 -1.93754e-06 -7.93126e-06 3.53491e-06 -3.64052e-06 1.24068e-06 7.3564e-06 -1.70195e-06 -7.2634e-06 3.29828e-06 -3.32699e-06 1.13311e-06 6.79462e-06 -1.51994e-06 -6.61732e-06 3.05284e-06 -3.03999e-06 1.04021e-06 6.21972e-06 -1.36371e-06 -6.00358e-06 2.83079e-06 -2.76552e-06 9.67644e-07 5.67525e-06 -1.22719e-06 -5.43281e-06 2.60662e-06 -2.51498e-06 8.97407e-07 5.1591e-06 -1.10604e-06 -4.89383e-06 2.38962e-06 -2.27547e-06 8.35086e-07 4.66934e-06 -1.00042e-06 -4.4043e-06 2.18407e-06 -2.05068e-06 7.67293e-07 4.20954e-06 -9.01928e-07 -3.93602e-06 1.98558e-06 -1.83197e-06 7.11957e-07 3.77737e-06 -8.06603e-07 -3.50474e-06 1.79846e-06 -1.63065e-06 6.4886e-07 3.3724e-06 -7.17371e-07 -3.10014e-06 1.61744e-06 -1.43986e-06 5.88518e-07 2.99152e-06 -6.35472e-07 -2.72804e-06 1.43955e-06 -1.26216e-06 5.31397e-07 2.63995e-06 -5.6347e-07 -2.38444e-06 1.27995e-06 -1.10387e-06 4.73694e-07 2.30708e-06 -4.85394e-07 -2.05867e-06 1.1257e-06 -9.49561e-07 4.21928e-07 2.00479e-06 -4.20201e-07 -1.77091e-06 9.7719e-07 -8.04488e-07 3.7606e-07 1.73405e-06 -3.61004e-07 -1.49982e-06 8.49211e-07 -6.85803e-07 3.26041e-07 1.47021e-06 -3.07453e-07 -1.25785e-06 7.33145e-07 -5.61374e-07 2.86731e-07 1.24106e-06 -2.56967e-07 -1.03581e-06 6.18476e-07 -4.70201e-07 2.37254e-07 1.01879e-06 -2.04037e-07 -8.30313e-07 5.07028e-07 -3.78136e-07 1.98993e-07 8.2717e-07 -1.64068e-07 -6.66128e-07 4.15719e-07 -3.0171e-07 1.65465e-07 6.68845e-07 -1.27475e-07 -5.07416e-07 3.39894e-07 -2.35954e-07 1.27281e-07 5.07959e-07 -9.03383e-08 -3.83433e-07 2.79242e-07 -1.81394e-07 1.02057e-07 3.95579e-07 -6.15061e-08 -2.65408e-07 2.16455e-07 -1.43579e-07 6.79089e-08 2.71946e-07 -3.33142e-08 -1.80851e-07 1.80754e-07 -1.26932e-07 3.9814e-08 1.87273e-07 -7.5864e-09 -1.03668e-07 1.67522e-07 -1.33858e-07 2.14592e-08 1.17347e-07 -1.34848e-08 -7.63879e-08 1.67677e-07 -1.54891e-07 2.59994e-08 8.86309e-08 -2.82307e-08 -8.0443e-08 5.29721e-06 -3.47855e-06 1.04686e-05 1.04686e-05 -5.53483e-06 -9.54613e-06 5.07943e-06 -3.88511e-06 5.84475e-06 1.00192e-05 -2.9124e-06 -8.86656e-06 4.4688e-06 -3.6911e-06 3.18563e-06 9.28055e-06 -1.54322e-06 -8.27697e-06 3.8953e-06 -3.3533e-06 1.73703e-06 8.55575e-06 -8.7554e-07 -7.75204e-06 3.50732e-06 -3.17387e-06 1.01134e-06 7.93149e-06 -6.5957e-07 -7.29394e-06 3.3268e-06 -3.742e-06 6.92904e-07 7.36017e-06 -1.31179e-06 -7.65064e-06 3.73247e-06 -3.37581e-06 1.11995e-06 7.5663e-06 -1.11483e-06 -7.07047e-06 3.52063e-06 -3.05714e-06 9.96903e-07 7.04914e-06 -9.12444e-07 -6.40135e-06 3.29242e-06 -2.79967e-06 8.73387e-07 6.44083e-06 -7.62501e-07 -5.76846e-06 3.06564e-06 -2.55745e-06 7.84018e-07 5.85398e-06 -6.51771e-07 -5.18508e-06 2.83836e-06 -2.33814e-06 7.10172e-07 5.29585e-06 -5.63722e-07 -4.65776e-06 2.61085e-06 -2.12508e-06 6.38616e-07 4.77586e-06 -4.88653e-07 -4.17031e-06 2.3876e-06 -1.91951e-06 5.7742e-07 4.29472e-06 -4.2381e-07 -3.71873e-06 2.18395e-06 -1.73348e-06 5.16923e-07 3.84105e-06 -3.6438e-07 -3.30973e-06 1.97859e-06 -1.54801e-06 4.61587e-07 3.43064e-06 -3.12459e-07 -2.92168e-06 1.78635e-06 -1.38111e-06 4.09627e-07 3.03774e-06 -2.62012e-07 -2.56834e-06 1.60215e-06 -1.22409e-06 3.58171e-07 2.67957e-06 -2.19307e-07 -2.24396e-06 1.42403e-06 -1.07347e-06 3.13196e-07 2.34977e-06 -1.84169e-07 -1.94177e-06 1.26586e-06 -9.3206e-07 2.66009e-07 2.03277e-06 -1.40552e-07 -1.65905e-06 1.10707e-06 -8.03072e-07 2.20064e-07 1.74549e-06 -1.10789e-07 -1.40436e-06 9.54334e-07 -6.83319e-07 1.86924e-07 1.48558e-06 -9.09592e-08 -1.17287e-06 8.26898e-07 -5.75383e-07 1.57161e-07 1.24269e-06 -5.88479e-08 -9.61125e-07 7.0179e-07 -4.75091e-07 1.234e-07 1.02822e-06 -3.36052e-08 -7.6774e-07 5.86035e-07 -3.93367e-07 1.00389e-07 8.36289e-07 -1.57161e-08 -6.06291e-07 4.84133e-07 -3.10945e-07 6.46105e-08 6.56388e-07 -5.58794e-09 -4.54156e-07 3.86111e-07 -2.39233e-07 5.52197e-08 5.04583e-07 9.19681e-09 -3.38672e-07 3.16611e-07 -1.90533e-07 3.11217e-08 3.79475e-07 2.07995e-08 -2.23498e-07 2.51768e-07 -1.48003e-07 1.88205e-08 2.63331e-07 2.82501e-08 -1.46547e-07 1.97906e-07 -1.20141e-07 2.63875e-09 1.77417e-07 2.78233e-08 -8.72339e-08 1.60925e-07 -1.12612e-07 -4.40438e-09 1.10556e-07 2.79397e-08 -4.22782e-08 1.41134e-07 -1.29861e-07 -1.6822e-08 5.31242e-08 1.57937e-08 -3.60499e-08 1.57898e-07 -1.68666e-07 -1.74623e-10 5.13392e-08 -2.74546e-08 -7.31282e-08 6.43063e-06 -3.21089e-06 1.4391e-05 1.4391e-05 -8.12288e-06 -1.22913e-05 6.08103e-06 -3.47793e-06 8.49211e-06 1.29365e-05 -4.20197e-06 -1.02348e-05 5.42705e-06 -3.26636e-06 5.02165e-06 1.13161e-05 -2.03059e-06 -8.74302e-06 4.79883e-06 -2.88627e-06 3.02269e-06 9.91793e-06 -8.21291e-07 -7.57996e-06 4.29216e-06 -2.57452e-06 1.89691e-06 8.76576e-06 -1.98255e-07 -6.68393e-06 3.92964e-06 -2.42953e-06 1.2619e-06 7.80906e-06 6.77537e-08 -5.98348e-06 3.60977e-06 -2.69071e-06 9.1743e-07 7.00595e-06 -2.49963e-07 -5.88105e-06 3.71877e-06 -2.42348e-06 1.00486e-06 6.71235e-06 -5.87897e-08 -5.18793e-06 3.4736e-06 -2.24447e-06 8.49638e-07 6.03691e-06 3.89215e-08 -4.60733e-06 3.21784e-06 -2.05836e-06 7.24026e-07 5.417e-06 1.10789e-07 -4.09196e-06 2.95745e-06 -1.88793e-06 6.06563e-07 4.84765e-06 1.47692e-07 -3.63623e-06 2.70693e-06 -1.71441e-06 5.13159e-07 4.32863e-06 1.82229e-07 -3.22121e-06 2.46614e-06 -1.54553e-06 4.32599e-07 3.86188e-06 2.03455e-07 -2.84688e-06 2.23642e-06 -1.39898e-06 3.54368e-07 3.42552e-06 2.18628e-07 -2.50384e-06 2.02241e-06 -1.24931e-06 2.88244e-07 3.02738e-06 2.27864e-07 -2.18378e-06 1.81499e-06 -1.11173e-06 2.27708e-07 2.65245e-06 2.33296e-07 -1.89472e-06 1.61433e-06 -9.78781e-07 1.7571e-07 2.31368e-06 2.39893e-07 -1.62549e-06 1.42873e-06 -8.49851e-07 1.27902e-07 2.00079e-06 2.40941e-07 -1.37129e-06 1.25589e-06 -7.44825e-07 8.79324e-08 1.70568e-06 2.39544e-07 -1.14258e-06 1.08561e-06 -6.35065e-07 5.39779e-08 1.44006e-06 2.39622e-07 -9.44322e-07 9.30275e-07 -5.24393e-07 7.21775e-09 1.19392e-06 2.33374e-07 -7.5408e-07 7.84833e-07 -4.41214e-07 -1.90145e-08 9.70322e-07 2.21383e-07 -5.86927e-07 6.57979e-07 -3.54912e-07 -4.35975e-08 7.65935e-07 2.18085e-07 -4.30562e-07 5.31281e-07 -2.79319e-07 -6.29613e-08 5.86384e-07 2.02485e-07 -3.09645e-07 4.28486e-07 -2.25652e-07 -7.98221e-08 4.32638e-07 1.90921e-07 -2.00487e-07 3.31667e-07 -1.62593e-07 -8.35474e-08 3.08035e-07 1.66396e-07 -1.14048e-07 2.56075e-07 -1.26136e-07 -9.68575e-08 1.83587e-07 1.57937e-07 -3.89603e-08 1.90339e-07 -8.88637e-08 -8.47504e-08 1.12108e-07 1.43152e-07 1.11759e-08 1.37875e-07 -7.01984e-08 -8.9601e-08 4.21812e-08 1.24487e-07 3.86887e-08 1.08421e-07 -7.76296e-08 -7.93759e-08 6.17001e-09 8.72339e-08 3.85723e-08 1.05239e-07 -9.11144e-08 -6.58135e-08 -1.73653e-08 6.6512e-08 2.94919e-08 9.44516e-08 -1.57355e-07 -4.69542e-08 -1.02251e-08 2.71636e-10 -6.58329e-08 6.53827e-06 -4.05766e-06 1.7864e-05 1.7864e-05 -1.15039e-05 -1.54937e-05 7.3727e-06 -3.9959e-06 1.13336e-05 1.56864e-05 -6.30207e-06 -1.18808e-05 7.21996e-06 -3.57337e-06 7.29924e-06 1.32762e-05 -3.23062e-06 -9.16926e-06 6.63455e-06 -3.06801e-06 4.86845e-06 1.11296e-05 -1.42168e-06 -7.14076e-06 5.9645e-06 -2.61065e-06 3.41357e-06 9.35793e-06 -3.6991e-07 -5.64498e-06 5.31704e-06 -2.27796e-06 2.49416e-06 7.91058e-06 2.28795e-07 -4.56222e-06 4.71055e-06 -2.06251e-06 1.88162e-06 6.75492e-06 4.87315e-07 -3.85168e-06 4.25684e-06 -1.98878e-06 1.47502e-06 5.86225e-06 5.46958e-07 -3.41663e-06 3.91904e-06 -1.83385e-06 1.15011e-06 5.16612e-06 6.4238e-07 -2.9585e-06 3.57244e-06 -1.68381e-06 8.97368e-07 4.54194e-06 6.90188e-07 -2.56727e-06 3.2372e-06 -1.53886e-06 7.21115e-07 4.01396e-06 7.13781e-07 -2.23261e-06 2.932e-06 -1.39778e-06 5.6248e-07 3.53763e-06 7.16692e-07 -1.93921e-06 2.65043e-06 -1.25195e-06 4.39817e-07 3.11865e-06 7.17312e-07 -1.67646e-06 2.38131e-06 -1.1282e-06 3.2445e-07 2.73619e-06 7.02295e-07 -1.4367e-06 2.13447e-06 -1.00849e-06 2.27282e-07 2.38019e-06 6.84056e-07 -1.21402e-06 1.90525e-06 -8.8204e-07 1.55337e-07 2.06401e-06 6.72104e-07 -1.00497e-06 1.67491e-06 -7.68865e-07 7.52431e-08 1.76024e-06 6.43156e-07 -8.23192e-07 1.45981e-06 -6.59085e-07 1.31549e-08 1.48515e-06 6.20804e-07 -6.56175e-07 1.25686e-06 -5.52216e-07 -4.94765e-08 1.23136e-06 5.9919e-07 -4.95832e-07 1.0787e-06 -4.54e-07 -1.02775e-07 9.94847e-07 5.64653e-07 -3.50022e-07 9.10096e-07 -3.68513e-07 -1.41774e-07 7.74511e-07 5.4463e-07 -2.17988e-07 7.48939e-07 -2.84441e-07 -1.81142e-07 5.82309e-07 5.11917e-07 -1.02445e-07 5.98064e-07 -2.07976e-07 -1.97499e-07 4.17233e-07 4.88052e-07 -7.29536e-09 4.65739e-07 -1.47421e-07 -2.35896e-07 2.59529e-07 4.42727e-07 7.46998e-08 3.53049e-07 -1.00001e-07 -2.39369e-07 1.28484e-07 4.05397e-07 1.38612e-07 2.46568e-07 -4.91079e-08 -2.44705e-07 2.18861e-08 3.64186e-07 1.80289e-07 1.59217e-07 -2.92591e-08 -2.47266e-07 -6.36016e-08 3.22393e-07 2.09742e-07 9.98455e-08 6.63567e-09 -2.25225e-07 -1.12709e-07 2.80871e-07 2.07724e-07 5.70047e-08 -5.23869e-10 -2.10304e-07 -1.37215e-07 2.26428e-07 1.92279e-07 3.46918e-08 -1.06132e-08 -1.73478e-07 -1.39407e-07 1.76796e-07 1.51301e-07 2.2507e-08 -3.9329e-08 -1.37564e-07 -1.12108e-07 1.31588e-07 8.81652e-08 4.71482e-08 -9.905e-08 -9.90306e-08 -5.56271e-08 4.20647e-08 -3.0462e-09 6.08157e-06 -1.6401e-05 -1.89793e-06 -1.89793e-06 -2.60746e-06 -9.91332e-06 8.63277e-06 -1.1634e-05 1.9671e-06 9.4358e-06 -5.30639e-06 -1.27662e-05 6.27443e-06 -9.66376e-06 1.97362e-06 9.75765e-06 -5.83352e-06 -1.27347e-05 5.26262e-06 -8.64819e-06 2.1827e-06 9.37007e-06 -5.83901e-06 -1.23015e-05 4.72579e-06 -7.9583e-06 2.22585e-06 8.96614e-06 -5.6555e-06 -1.17392e-05 4.36483e-06 -7.375e-06 2.19066e-06 8.54321e-06 -5.39784e-06 -1.11049e-05 4.07138e-06 -6.839e-06 2.13644e-06 8.09493e-06 -5.09442e-06 -1.04231e-05 3.79816e-06 -6.30233e-06 2.06896e-06 7.62686e-06 -4.77587e-06 -9.71654e-06 3.53715e-06 -5.7738e-06 2.00897e-06 7.1529e-06 -4.45268e-06 -9.00881e-06 3.27673e-06 -5.26031e-06 1.93768e-06 6.67032e-06 -4.143e-06 -8.30388e-06 3.01542e-06 -4.75738e-06 1.86702e-06 6.17842e-06 -3.82544e-06 -7.61371e-06 2.7555e-06 -4.2658e-06 1.795e-06 5.70985e-06 -3.52854e-06 -6.94162e-06 2.49788e-06 -3.80326e-06 1.72232e-06 5.2407e-06 -3.23343e-06 -6.29775e-06 2.25294e-06 -3.37343e-06 1.63648e-06 4.78718e-06 -2.95812e-06 -5.68422e-06 2.01956e-06 -2.97225e-06 1.54502e-06 4.34143e-06 -2.69367e-06 -5.11299e-06 1.79733e-06 -2.59101e-06 1.44987e-06 3.92575e-06 -2.43439e-06 -4.55885e-06 1.58786e-06 -2.25102e-06 1.34509e-06 3.51422e-06 -2.18466e-06 -4.03545e-06 1.3922e-06 -1.92531e-06 1.24567e-06 3.13168e-06 -1.94188e-06 -3.55479e-06 1.20858e-06 -1.64841e-06 1.13011e-06 2.77052e-06 -1.72104e-06 -3.09381e-06 1.04059e-06 -1.37163e-06 1.02918e-06 2.42271e-06 -1.51133e-06 -2.67867e-06 8.81992e-07 -1.1436e-06 9.18973e-07 2.10191e-06 -1.31341e-06 -2.28371e-06 7.41556e-07 -9.39501e-07 8.21572e-07 1.80322e-06 -1.11977e-06 -1.92659e-06 6.09308e-07 -7.36725e-07 7.0764e-07 1.52274e-06 -9.39074e-07 -1.58989e-06 5.04806e-07 -5.75354e-07 6.1478e-07 1.27132e-06 -7.90101e-07 -1.29602e-06 3.99489e-07 -4.34045e-07 5.16292e-07 1.026e-06 -6.31369e-07 -1.028e-06 3.03912e-07 -2.98343e-07 4.20793e-07 8.19865e-07 -4.97375e-07 -7.89635e-07 2.25099e-07 -1.97392e-07 3.25255e-07 6.19009e-07 -3.76148e-07 -5.84589e-07 1.5913e-07 -1.23235e-07 2.45627e-07 4.54747e-07 -2.66077e-07 -4.09035e-07 1.05889e-07 -5.80039e-08 1.68366e-07 3.11673e-07 -1.71237e-07 -2.58277e-07 7.27499e-08 -1.80153e-08 1.09654e-07 1.96771e-07 -9.43449e-08 -1.48265e-07 4.5043e-08 -1.18259e-08 5.62965e-08 1.10236e-07 -2.50196e-08 -6.61336e-08 2.96374e-08 -1.71713e-09 1.69772e-09 4.27147e-08 1.08945e-08 -1.94511e-08 3.65737e-06 -6.52909e-06 -9.21515e-07 -9.21515e-07 2.03342e-06 -2.27768e-06 3.86389e-06 -1.10451e-05 -7.61851e-07 3.47588e-06 -4.63101e-06 -1.10609e-05 6.72526e-06 -9.06092e-06 2.20226e-06 8.93351e-06 -4.89849e-06 -1.17373e-05 5.5412e-06 -7.88055e-06 1.97602e-06 9.10658e-06 -4.90226e-06 -1.15453e-05 4.88703e-06 -7.16138e-06 1.96993e-06 8.84961e-06 -4.75315e-06 -1.11068e-05 4.4528e-06 -6.62621e-06 1.93741e-06 8.49373e-06 -4.53842e-06 -1.05594e-05 4.11403e-06 -6.15165e-06 1.90295e-06 8.10254e-06 -4.29655e-06 -9.95057e-06 3.81054e-06 -5.69771e-06 1.85771e-06 7.66963e-06 -4.0402e-06 -9.29855e-06 3.53094e-06 -5.24062e-06 1.80804e-06 7.20509e-06 -3.77449e-06 -8.6363e-06 3.27386e-06 -4.79566e-06 1.75402e-06 6.73632e-06 -3.50883e-06 -7.95605e-06 3.00871e-06 -4.35257e-06 1.70175e-06 6.25173e-06 -3.24724e-06 -7.30047e-06 2.7484e-06 -3.92078e-06 1.6293e-06 5.77004e-06 -2.99472e-06 -6.66219e-06 2.49473e-06 -3.50714e-06 1.56104e-06 5.30151e-06 -2.7581e-06 -6.04152e-06 2.26241e-06 -3.11854e-06 1.48762e-06 4.83142e-06 -2.52244e-06 -5.45543e-06 2.03497e-06 -2.7505e-06 1.40334e-06 4.3859e-06 -2.29095e-06 -4.89265e-06 1.81859e-06 -2.41101e-06 1.31832e-06 3.96001e-06 -2.07436e-06 -4.3736e-06 1.62006e-06 -2.10396e-06 1.22138e-06 3.55279e-06 -1.86863e-06 -3.87534e-06 1.41936e-06 -1.81005e-06 1.13426e-06 3.16622e-06 -1.66838e-06 -3.41682e-06 1.25289e-06 -1.54998e-06 1.03888e-06 2.80707e-06 -1.47458e-06 -2.98484e-06 1.08386e-06 -1.31187e-06 9.46098e-07 2.47168e-06 -1.30206e-06 -2.58922e-06 9.27432e-07 -1.0949e-06 8.44312e-07 2.143e-06 -1.13248e-06 -2.2216e-06 7.95495e-07 -8.99124e-07 7.50714e-07 1.84832e-06 -9.79101e-07 -1.87802e-06 6.62277e-07 -7.4045e-07 6.59716e-07 1.56477e-06 -8.38375e-07 -1.57773e-06 5.55641e-07 -5.76479e-07 5.70658e-07 1.31428e-06 -6.85812e-07 -1.28263e-06 4.54126e-07 -4.45803e-07 4.92815e-07 1.09259e-06 -5.61908e-07 -1.03517e-06 3.62934e-07 -3.28708e-07 4.04766e-07 8.79974e-07 -4.44949e-07 -8.11269e-07 2.81172e-07 -2.42425e-07 3.26729e-07 6.94252e-07 -3.42077e-07 -6.17515e-07 2.11051e-07 -1.64757e-07 2.51874e-07 5.28089e-07 -2.50865e-07 -4.44212e-07 1.54318e-07 -9.92732e-08 1.84431e-07 3.78107e-07 -1.6142e-07 -3.07637e-07 1.14271e-07 -4.81474e-08 1.22498e-07 2.6891e-07 -8.48765e-08 -1.92929e-07 7.96572e-08 -2.63972e-08 5.96337e-08 1.67706e-07 -3.75536e-08 -1.08043e-07 7.36036e-08 -1.8869e-08 1.16706e-08 8.22183e-08 9.18711e-09 -4.16864e-08 3.59575e-06 -4.73175e-06 7.86997e-07 7.86997e-07 9.33554e-08 -2.86002e-06 3.4831e-06 -5.20597e-06 2.40854e-07 3.14429e-06 -3.58724e-07 -5.92384e-06 3.58267e-06 -8.42968e-06 2.62817e-07 5.61319e-06 -4.1298e-06 -1.05991e-05 5.55556e-06 -7.44655e-06 1.96566e-06 8.72621e-06 -4.04583e-06 -1.06998e-05 4.93324e-06 -6.6825e-06 1.82651e-06 8.69478e-06 -3.90689e-06 -1.03338e-05 4.49009e-06 -6.11682e-06 1.79201e-06 8.38081e-06 -3.72945e-06 -9.84663e-06 4.1301e-06 -5.63624e-06 1.74913e-06 7.999e-06 -3.54065e-06 -9.2877e-06 3.80561e-06 -5.18752e-06 1.70532e-06 7.56644e-06 -3.33643e-06 -8.67792e-06 3.51535e-06 -4.76417e-06 1.65813e-06 7.09973e-06 -3.12832e-06 -8.05677e-06 3.23963e-06 -4.34469e-06 1.60749e-06 6.62321e-06 -2.89854e-06 -7.41898e-06 2.97743e-06 -3.93993e-06 1.548e-06 6.14427e-06 -2.69359e-06 -6.79659e-06 2.73175e-06 -3.55058e-06 1.49108e-06 5.65898e-06 -2.48092e-06 -6.19028e-06 2.48736e-06 -3.17949e-06 1.41832e-06 5.18319e-06 -2.28466e-06 -5.61901e-06 2.26031e-06 -2.83453e-06 1.34393e-06 4.72486e-06 -2.09048e-06 -5.07034e-06 2.03737e-06 -2.51328e-06 1.26756e-06 4.28578e-06 -1.90528e-06 -4.55505e-06 1.82484e-06 -2.20591e-06 1.18556e-06 3.86692e-06 -1.72348e-06 -4.05761e-06 1.626e-06 -1.93541e-06 1.1052e-06 3.46494e-06 -1.55018e-06 -3.60103e-06 1.44835e-06 -1.66948e-06 1.02029e-06 3.09179e-06 -1.39416e-06 -3.16994e-06 1.27835e-06 -1.43702e-06 9.31546e-07 2.7236e-06 -1.23017e-06 -2.77168e-06 1.11156e-06 -1.21863e-06 8.40858e-07 2.395e-06 -1.08578e-06 -2.41219e-06 9.64453e-07 -1.03011e-06 7.59872e-07 2.09585e-06 -9.50327e-07 -2.06735e-06 8.2359e-07 -8.5931e-07 6.78187e-07 1.80237e-06 -8.16741e-07 -1.75674e-06 7.03216e-07 -7.00752e-07 5.96696e-07 1.54203e-06 -6.99491e-07 -1.4748e-06 5.84473e-07 -5.70387e-07 5.20212e-07 1.29942e-06 -5.8618e-07 -1.217e-06 4.87033e-07 -4.4588e-07 4.41592e-07 1.07512e-06 -4.84938e-07 -9.84709e-07 3.94289e-07 -3.38526e-07 3.73179e-07 8.74735e-07 -3.80513e-07 -7.77082e-07 3.10936e-07 -2.53058e-07 3.01079e-07 6.9887e-07 -2.98634e-07 -6.00286e-07 2.47567e-07 -1.76224e-07 2.38176e-07 5.40584e-07 -2.17027e-07 -4.41922e-07 1.90174e-07 -1.19917e-07 1.78106e-07 4.03408e-07 -1.49953e-07 -3.10877e-07 1.55366e-07 -8.32661e-08 1.19588e-07 2.80745e-07 -9.15121e-08 -2.03193e-07 1.22459e-07 -6.52023e-08 8.17139e-08 1.93473e-07 -4.51982e-08 -1.20907e-07 1.09227e-07 -6.90634e-08 3.20433e-08 1.07713e-07 -7.20805e-09 -5.75577e-08 4.05877e-06 -4.38144e-06 2.88721e-06 2.88721e-06 -1.39703e-06 -4.20594e-06 4.0519e-06 -4.52098e-06 1.59732e-06 4.39537e-06 -1.15524e-06 -6.0291e-06 3.59994e-06 -4.7036e-06 8.9146e-07 5.64252e-06 -1.31228e-06 -7.34615e-06 3.62369e-06 -6.66646e-06 8.56341e-07 6.67687e-06 -3.32473e-06 -9.6742e-06 4.82184e-06 -6.11298e-06 1.83539e-06 8.37184e-06 -3.19871e-06 -9.52253e-06 4.45749e-06 -5.57289e-06 1.74502e-06 8.19974e-06 -3.03796e-06 -9.07035e-06 4.11636e-06 -5.10176e-06 1.68615e-06 7.81615e-06 -2.86406e-06 -8.53488e-06 3.78826e-06 -4.66966e-06 1.62072e-06 7.37191e-06 -2.69407e-06 -7.95013e-06 3.49664e-06 -4.25237e-06 1.56034e-06 6.88623e-06 -2.5021e-06 -7.35416e-06 3.21635e-06 -3.86865e-06 1.48716e-06 6.40019e-06 -2.32665e-06 -6.75941e-06 2.95876e-06 -3.50941e-06 1.422e-06 5.90776e-06 -2.15528e-06 -6.18067e-06 2.70859e-06 -3.1648e-06 1.34975e-06 5.42118e-06 -1.98576e-06 -5.61433e-06 2.46838e-06 -2.83705e-06 1.28215e-06 4.95059e-06 -1.81747e-06 -5.08216e-06 2.24615e-06 -2.53259e-06 1.20691e-06 4.50565e-06 -1.65625e-06 -4.57538e-06 2.03167e-06 -2.24811e-06 1.12018e-06 4.0684e-06 -1.50943e-06 -4.09928e-06 1.82651e-06 -1.98266e-06 1.04404e-06 3.65799e-06 -1.3677e-06 -3.65324e-06 1.63632e-06 -1.73549e-06 9.65927e-07 3.27118e-06 -1.23351e-06 -3.23579e-06 1.45724e-06 -1.51091e-06 8.89481e-07 2.90758e-06 -1.0972e-06 -2.84935e-06 1.28188e-06 -1.30493e-06 8.05196e-07 2.56974e-06 -9.69187e-07 -2.48497e-06 1.12685e-06 -1.11804e-06 7.29177e-07 2.25468e-06 -8.55507e-07 -2.15218e-06 9.80673e-07 -9.46253e-07 6.55176e-07 1.95945e-06 -7.4761e-07 -1.84665e-06 8.38491e-07 -7.88995e-07 5.83852e-07 1.68859e-06 -6.47939e-07 -1.57457e-06 7.12336e-07 -6.50733e-07 5.1408e-07 1.44498e-06 -5.4722e-07 -1.32064e-06 6.00926e-07 -5.22326e-07 4.46094e-07 1.2227e-06 -4.60238e-07 -1.08572e-06 5.04069e-07 -4.17339e-07 3.80203e-07 1.00799e-06 -3.73295e-07 -8.74716e-07 4.07133e-07 -3.26128e-07 3.22965e-07 8.25996e-07 -3.05891e-07 -6.91226e-07 3.2669e-07 -2.43589e-07 2.6239e-07 6.48695e-07 -2.34354e-07 -5.40002e-07 2.58005e-07 -1.82122e-07 2.14311e-07 5.20561e-07 -1.731e-07 -3.97083e-07 2.0038e-07 -1.32005e-07 1.55987e-07 3.80358e-07 -1.20209e-07 -2.86915e-07 1.56491e-07 -1.02145e-07 1.17143e-07 2.84005e-07 -6.65993e-08 -1.91338e-07 1.3802e-07 -7.91721e-08 6.63858e-08 1.91067e-07 -3.8582e-08 -1.16095e-07 1.37399e-07 -9.23077e-08 4.03476e-08 1.17686e-07 -1.53571e-08 -8.30526e-08 4.63689e-06 -4.34106e-06 5.23852e-06 5.23852e-06 -2.99487e-06 -6.03222e-06 4.73937e-06 -4.56163e-06 3.17099e-06 6.24047e-06 -2.02926e-06 -6.85712e-06 4.26432e-06 -4.35808e-06 1.92589e-06 6.70299e-06 -1.62761e-06 -7.29929e-06 3.78368e-06 -4.27235e-06 1.35565e-06 6.88825e-06 -1.54127e-06 -7.5712e-06 3.70502e-06 -5.29689e-06 1.25514e-06 7.11242e-06 -2.5647e-06 -8.5688e-06 4.35295e-06 -4.93784e-06 1.78378e-06 7.87952e-06 -2.42764e-06 -8.23967e-06 4.08136e-06 -4.52278e-06 1.67835e-06 7.55457e-06 -2.26171e-06 -7.72155e-06 3.76773e-06 -4.12647e-06 1.58145e-06 7.09061e-06 -2.10319e-06 -7.15208e-06 3.48651e-06 -3.7363e-06 1.49542e-06 6.58642e-06 -1.92273e-06 -6.57121e-06 3.20296e-06 -3.39447e-06 1.39387e-06 6.07904e-06 -1.76952e-06 -6.00411e-06 2.94371e-06 -3.06334e-06 1.31009e-06 5.5776e-06 -1.61364e-06 -5.45436e-06 2.70164e-06 -2.76092e-06 1.2182e-06 5.0887e-06 -1.47369e-06 -4.938e-06 2.46396e-06 -2.47232e-06 1.13931e-06 4.62994e-06 -1.34393e-06 -4.45334e-06 2.23912e-06 -2.20901e-06 1.0532e-06 4.18555e-06 -1.21671e-06 -3.99936e-06 2.02185e-06 -1.97313e-06 9.67596e-07 3.76987e-06 -1.09909e-06 -3.57047e-06 1.8215e-06 -1.7385e-06 8.87036e-07 3.37491e-06 -9.85931e-07 -3.16856e-06 1.62841e-06 -1.52528e-06 8.11793e-07 3.00801e-06 -8.78363e-07 -2.79322e-06 1.44952e-06 -1.33015e-06 7.32553e-07 2.65857e-06 -7.80749e-07 -2.44545e-06 1.28075e-06 -1.14794e-06 6.56689e-07 2.33031e-06 -6.85677e-07 -2.12515e-06 1.11886e-06 -9.86028e-07 5.95532e-07 2.04219e-06 -5.99199e-07 -1.832e-06 9.74891e-07 -8.32418e-07 5.26071e-07 1.76438e-06 -5.15283e-07 -1.56129e-06 8.36512e-07 -6.94291e-07 4.65729e-07 1.51587e-06 -4.45939e-07 -1.31803e-06 7.03954e-07 -5.79098e-07 4.00925e-07 1.27617e-06 -3.85228e-07 -1.09769e-06 5.90371e-07 -4.63731e-07 3.50245e-07 1.06496e-06 -3.12294e-07 -8.98154e-07 4.9429e-07 -3.76691e-07 3.00303e-07 8.87812e-07 -2.55114e-07 -7.10842e-07 3.99877e-07 -2.86682e-07 2.60761e-07 7.17652e-07 -2.04163e-07 -5.70658e-07 3.14467e-07 -2.19491e-07 2.00496e-07 5.67748e-07 -1.56355e-07 -4.29505e-07 2.56764e-07 -1.58121e-07 1.7376e-07 4.47452e-07 -1.15144e-07 -3.20229e-07 1.97159e-07 -1.18152e-07 1.33402e-07 3.38759e-07 -7.42827e-08 -2.18424e-07 1.59402e-07 -9.51986e-08 9.21136e-08 2.36236e-07 -5.61219e-08 -1.54842e-07 1.43957e-07 -9.90015e-08 6.14188e-08 1.60023e-07 -2.76583e-08 -1.07189e-07 1.58354e-07 -1.24341e-07 4.36848e-08 1.22964e-07 -2.76971e-08 -8.50899e-08 5.24376e-06 -4.42765e-06 7.81254e-06 7.81254e-06 -4.81559e-06 -8.318e-06 5.41501e-06 -4.72337e-06 4.89281e-06 8.4855e-06 -3.10145e-06 -8.17939e-06 4.96708e-06 -4.4197e-06 3.16773e-06 8.25624e-06 -2.10088e-06 -7.80044e-06 4.37274e-06 -3.9657e-06 2.17886e-06 7.79892e-06 -1.60322e-06 -7.40569e-06 3.92823e-06 -3.72856e-06 1.68122e-06 7.35061e-06 -1.38444e-06 -7.09149e-06 3.76494e-06 -4.1755e-06 1.50144e-06 7.06877e-06 -1.84843e-06 -7.29956e-06 4.03394e-06 -3.8921e-06 1.72022e-06 7.19399e-06 -1.68374e-06 -6.84057e-06 3.76063e-06 -3.55258e-06 1.55588e-06 6.73031e-06 -1.52757e-06 -6.28698e-06 3.48042e-06 -3.20783e-06 1.4305e-06 6.20663e-06 -1.35198e-06 -5.71323e-06 3.20762e-06 -2.89943e-06 1.29713e-06 5.67403e-06 -1.20454e-06 -5.16693e-06 2.94677e-06 -2.60663e-06 1.18397e-06 5.16165e-06 -1.06754e-06 -4.65837e-06 2.68988e-06 -2.35798e-06 1.06286e-06 4.66836e-06 -9.53024e-07 -4.18875e-06 2.45457e-06 -2.11539e-06 9.66897e-07 4.21651e-06 -8.54071e-07 -3.74267e-06 2.22818e-06 -1.88951e-06 8.73959e-07 3.77511e-06 -7.55429e-07 -3.3337e-06 2.01921e-06 -1.67719e-06 7.9142e-07 3.38081e-06 -6.64644e-07 -2.95019e-06 1.81099e-06 -1.48465e-06 7.08067e-07 3.00323e-06 -5.83833e-07 -2.60127e-06 1.617e-06 -1.30328e-06 6.29603e-07 2.65515e-06 -5.13052e-07 -2.28214e-06 1.43881e-06 -1.13661e-06 5.59211e-07 2.33482e-06 -4.40681e-07 -1.98155e-06 1.25828e-06 -9.8271e-07 4.90875e-07 2.03699e-06 -3.75294e-07 -1.70482e-06 1.09627e-06 -8.36105e-07 4.20094e-07 1.75375e-06 -3.2572e-07 -1.45142e-06 9.47068e-07 -7.09891e-07 3.71006e-07 1.49977e-06 -2.71083e-07 -1.22167e-06 8.06283e-07 -5.84861e-07 3.21413e-07 1.27443e-06 -2.21723e-07 -1.01187e-06 6.76945e-07 -4.78632e-07 2.72984e-07 1.06496e-06 -1.81307e-07 -8.26636e-07 5.69028e-07 -3.8125e-07 2.35033e-07 8.81836e-07 -1.45432e-07 -6.61055e-07 4.54088e-07 -3.01079e-07 1.9289e-07 7.0958e-07 -1.1008e-07 -5.13615e-07 3.61382e-07 -2.2506e-07 1.57345e-07 5.61617e-07 -8.81361e-08 -3.82725e-07 2.83423e-07 -1.72498e-07 1.29561e-07 4.24596e-07 -6.00606e-08 -2.86799e-07 2.11827e-07 -1.23274e-07 9.57225e-08 3.22694e-07 -4.12595e-08 -1.99662e-07 1.67706e-07 -9.0251e-08 7.20514e-08 2.30493e-07 -2.71151e-08 -1.29987e-07 1.32975e-07 -7.89781e-08 5.77711e-08 1.60488e-07 -1.20975e-08 -9.0251e-08 1.21567e-07 -8.08989e-08 3.64283e-08 1.1431e-07 1.34848e-09 -6.14576e-08 1.31617e-07 -1.37477e-07 3.01419e-08 9.24629e-08 -2.31569e-08 -8.83883e-08 5.8071e-06 -4.63536e-06 1.06724e-05 1.06724e-05 -6.91427e-06 -1.12096e-05 6.00271e-06 -4.93187e-06 6.73116e-06 1.12127e-05 -4.37177e-06 -9.97382e-06 5.57698e-06 -4.51815e-06 4.52637e-06 1.02174e-05 -2.77941e-06 -8.72154e-06 4.97663e-06 -3.91155e-06 3.15613e-06 9.07771e-06 -1.81981e-06 -7.65067e-06 4.43068e-06 -3.38591e-06 2.31076e-06 8.05221e-06 -1.26374e-06 -6.79742e-06 4.01632e-06 -3.08484e-06 1.80796e-06 7.22484e-06 -9.62687e-07 -6.14963e-06 3.76808e-06 -3.19059e-06 1.51661e-06 6.59387e-06 -1.08894e-06 -5.89033e-06 3.75617e-06 -2.94902e-06 1.50516e-06 6.29216e-06 -9.15771e-07 -5.33472e-06 3.47918e-06 -2.6509e-06 1.30338e-06 5.71955e-06 -7.43011e-07 -4.76887e-06 3.20859e-06 -2.39974e-06 1.13197e-06 5.15835e-06 -6.07872e-07 -4.24269e-06 2.94049e-06 -2.16237e-06 9.93091e-07 4.6306e-06 -4.96909e-07 -3.77776e-06 2.68713e-06 -1.9455e-06 8.59601e-07 4.14476e-06 -3.99178e-07 -3.34375e-06 2.43901e-06 -1.74537e-06 7.49278e-07 3.69913e-06 -3.22829e-07 -2.96002e-06 2.20979e-06 -1.55899e-06 6.47725e-07 3.29024e-06 -2.58122e-07 -2.60919e-06 1.99042e-06 -1.38052e-06 5.53235e-07 2.90929e-06 -1.9584e-07 -2.28305e-06 1.7801e-06 -1.21907e-06 4.79311e-07 2.57083e-06 -1.5133e-07 -1.98237e-06 1.58297e-06 -1.0674e-06 4.01584e-07 2.23633e-06 -1.07888e-07 -1.70906e-06 1.39383e-06 -9.22465e-07 3.31075e-07 1.93528e-06 -6.50083e-08 -1.45718e-06 1.2201e-06 -7.86376e-07 2.71277e-07 1.66585e-06 -3.66999e-08 -1.23133e-06 1.06046e-06 -6.72754e-07 2.1792e-07 1.41428e-06 -1.06229e-08 -1.01581e-06 8.9503e-07 -5.52459e-07 1.73798e-07 1.18033e-06 1.29512e-08 -8.24599e-07 7.59561e-07 -4.42601e-07 1.3476e-07 9.73145e-07 3.39448e-08 -6.53294e-07 6.22153e-07 -3.56105e-07 1.02319e-07 7.9014e-07 4.17446e-08 -4.9982e-07 4.94523e-07 -2.77583e-07 7.59319e-08 6.17884e-07 5.16787e-08 -3.72092e-07 3.98208e-07 -2.08024e-07 5.24936e-08 4.76595e-07 4.98161e-08 -2.60838e-07 3.04688e-07 -1.45044e-07 3.60791e-08 3.46986e-07 5.6607e-08 -1.66484e-07 2.18153e-07 -9.56061e-08 1.94317e-08 2.42639e-07 5.6607e-08 -9.19196e-08 1.65688e-07 -6.04099e-08 1.22527e-08 1.6076e-07 5.45891e-08 -3.54582e-08 1.1237e-07 -4.75072e-08 8.99308e-09 9.89045e-08 4.74101e-08 -1.45519e-10 8.61764e-08 -3.59238e-08 6.50956e-09 5.37354e-08 3.89894e-08 2.31861e-09 7.66304e-08 -5.03787e-08 -2.2604e-09 3.39836e-08 3.46045e-08 2.86188e-09 8.03169e-08 -1.2081e-07 1.11274e-08 4.23267e-08 -1.97227e-08 -6.68321e-08 6.64098e-06 -5.01652e-06 1.46664e-05 1.46664e-05 -9.42241e-06 -1.44017e-05 7.39993e-06 -5.14215e-06 9.20875e-06 1.45871e-05 -5.84274e-06 -1.17446e-05 7.1328e-06 -4.50414e-06 6.43923e-06 1.26677e-05 -3.56294e-06 -9.40501e-06 6.49798e-06 -3.76911e-06 4.69731e-06 1.07128e-05 -2.09426e-06 -7.52558e-06 5.7863e-06 -3.13474e-06 3.55935e-06 9.04321e-06 -1.16562e-06 -6.08727e-06 5.13367e-06 -2.64689e-06 2.77227e-06 7.67483e-06 -5.85501e-07 -5.00538e-06 4.58152e-06 -2.34207e-06 2.21079e-06 6.57781e-06 -2.31075e-07 -4.21364e-06 4.09249e-06 -2.25705e-06 1.7844e-06 5.70481e-06 -1.69316e-07 -3.75244e-06 3.75714e-06 -2.03419e-06 1.50827e-06 5.07519e-06 3.24993e-09 -3.24024e-06 3.41662e-06 -1.84673e-06 1.24684e-06 4.47612e-06 1.15009e-07 -2.81041e-06 3.10323e-06 -1.66628e-06 1.03717e-06 3.95214e-06 1.88467e-07 -2.45271e-06 2.81375e-06 -1.50336e-06 8.62938e-07 3.49641e-06 2.47683e-07 -2.12624e-06 2.53431e-06 -1.3456e-06 7.06748e-07 3.07522e-06 2.82297e-07 -1.84122e-06 2.28429e-06 -1.20264e-06 5.83774e-07 2.70315e-06 3.09034e-07 -1.58535e-06 2.0411e-06 -1.07029e-06 4.67165e-07 2.35818e-06 3.26031e-07 -1.35289e-06 1.80866e-06 -9.34301e-07 3.69919e-07 2.0463e-06 3.33055e-07 -1.14245e-06 1.59119e-06 -8.1709e-07 2.76632e-07 1.74979e-06 3.37828e-07 -9.42469e-07 1.38526e-06 -6.94641e-07 2.03213e-07 1.48157e-06 3.46908e-07 -7.63248e-07 1.19507e-06 -5.8294e-07 1.3251e-07 1.24094e-06 3.48809e-07 -5.92253e-07 1.0109e-06 -4.82512e-07 7.39916e-08 1.01366e-06 3.46442e-07 -4.41224e-07 8.37405e-07 -3.77816e-07 1.33393e-08 7.99841e-07 3.32899e-07 -3.08297e-07 6.86685e-07 -2.97373e-07 -2.5427e-08 6.1478e-07 3.19356e-07 -1.8218e-07 5.46444e-07 -2.06162e-07 -5.78293e-08 4.42989e-07 3.07637e-07 -8.03751e-08 4.11907e-07 -1.3088e-07 -8.76316e-08 2.99876e-07 2.83112e-07 3.7932e-09 3.04533e-07 -7.75035e-08 -1.04298e-07 1.74613e-07 2.65029e-07 7.51946e-08 2.00962e-07 -2.27883e-08 -1.18094e-07 7.15081e-08 2.4357e-07 1.29561e-07 1.25641e-07 1.29124e-08 -1.17298e-07 -3.40515e-09 2.1012e-07 1.59712e-07 5.41234e-08 2.87061e-08 -1.15785e-07 -6.54157e-08 1.81171e-07 1.7341e-07 1.78406e-08 4.24431e-08 -1.02378e-07 -9.46942e-08 1.45277e-07 1.54551e-07 -2.76486e-09 3.54194e-08 -8.93779e-08 -9.87299e-08 1.14931e-07 1.26068e-07 2.55144e-09 1.89175e-09 -6.89082e-08 -8.01617e-08 8.07049e-08 7.53886e-08 2.85897e-08 -5.62189e-08 -4.1473e-08 -3.62149e-08 1.28348e-08 -1.48527e-08 
