# vtk DataFile Version 5.1
vtk output
ASCII

DATASET UNSTRUCTURED_GRID
POINTS 2673 float
0 0 -0.4
0.125 0 -0.4
0.25 0 -0.4
0.375 0 -0.4
0.5 0 -0.4
0.625 0 -0.4
0.75 0 -0.4
0.875 0 -0.4
1 0 -0.4
1.125 0 -0.4
1.25 0 -0.4
1.375 0 -0.4
1.5 0 -0.4
1.625 0 -0.4
1.75 0 -0.4
1.875 0 -0.4
2 0 -0.4
2.125 0 -0.4
2.25 0 -0.4
2.375 0 -0.4
2.5 0 -0.4
2.625 0 -0.4
2.75 0 -0.4
2.875 0 -0.4
3 0 -0.4
3.125 0 -0.4
3.25 0 -0.4
3.375 0 -0.4
3.5 0 -0.4
3.625 0 -0.4
3.75 0 -0.4
3.875 0 -0.4
4 0 -0.4
0 0.125 -0.4
0.125 0.125 -0.4
0.25 0.125 -0.4
0.375 0.125 -0.4
0.5 0.125 -0.4
0.625 0.125 -0.4
0.75 0.125 -0.4
0.875 0.125 -0.4
1 0.125 -0.4
1.125 0.125 -0.4
1.25 0.125 -0.4
1.375 0.125 -0.4
1.5 0.125 -0.4
1.625 0.125 -0.4
1.75 0.125 -0.4
1.875 0.125 -0.4
2 0.125 -0.4
2.125 0.125 -0.4
2.25 0.125 -0.4
2.375 0.125 -0.4
2.5 0.125 -0.4
2.625 0.125 -0.4
2.75 0.125 -0.4
2.875 0.125 -0.4
3 0.125 -0.4
3.125 0.125 -0.4
3.25 0.125 -0.4
3.375 0.125 -0.4
3.5 0.125 -0.4
3.625 0.125 -0.4
3.75 0.125 -0.4
3.875 0.125 -0.4
4 0.125 -0.4
0 0.25 -0.4
0.125 0.25 -0.4
0.25 0.25 -0.4
0.375 0.25 -0.4
0.5 0.25 -0.4
0.625 0.25 -0.4
0.75 0.25 -0.4
0.875 0.25 -0.4
1 0.25 -0.4
1.125 0.25 -0.4
1.25 0.25 -0.4
1.375 0.25 -0.4
1.5 0.25 -0.4
1.625 0.25 -0.4
1.75 0.25 -0.4
1.875 0.25 -0.4
2 0.25 -0.4
2.125 0.25 -0.4
2.25 0.25 -0.4
2.375 0.25 -0.4
2.5 0.25 -0.4
2.625 0.25 -0.4
2.75 0.25 -0.4
2.875 0.25 -0.4
3 0.25 -0.4
3.125 0.25 -0.4
3.25 0.25 -0.4
3.375 0.25 -0.4
3.5 0.25 -0.4
3.625 0.25 -0.4
3.75 0.25 -0.4
3.875 0.25 -0.4
4 0.25 -0.4
0 0.375 -0.4
0.125 0.375 -0.4
0.25 0.375 -0.4
0.375 0.375 -0.4
0.5 0.375 -0.4
0.625 0.375 -0.4
0.75 0.375 -0.4
0.875 0.375 -0.4
1 0.375 -0.4
1.125 0.375 -0.4
1.25 0.375 -0.4
1.375 0.375 -0.4
1.5 0.375 -0.4
1.625 0.375 -0.4
1.75 0.375 -0.4
1.875 0.375 -0.4
2 0.375 -0.4
2.125 0.375 -0.4
2.25 0.375 -0.4
2.375 0.375 -0.4
2.5 0.375 -0.4
2.625 0.375 -0.4
2.75 0.375 -0.4
2.875 0.375 -0.4
3 0.375 -0.4
3.125 0.375 -0.4
3.25 0.375 -0.4
3.375 0.375 -0.4
3.5 0.375 -0.4
3.625 0.375 -0.4
3.75 0.375 -0.4
3.875 0.375 -0.4
4 0.375 -0.4
0 0.5 -0.4
0.125 0.5 -0.4
0.25 0.5 -0.4
0.375 0.5 -0.4
0.5 0.5 -0.4
0.625 0.5 -0.4
0.75 0.5 -0.4
0.875 0.5 -0.4
1 0.5 -0.4
1.125 0.5 -0.4
1.25 0.5 -0.4
1.375 0.5 -0.4
1.5 0.5 -0.4
1.625 0.5 -0.4
1.75 0.5 -0.4
1.875 0.5 -0.4
2 0.5 -0.4
2.125 0.5 -0.4
2.25 0.5 -0.4
2.375 0.5 -0.4
2.5 0.5 -0.4
2.625 0.5 -0.4
2.75 0.5 -0.4
2.875 0.5 -0.4
3 0.5 -0.4
3.125 0.5 -0.4
3.25 0.5 -0.4
3.375 0.5 -0.4
3.5 0.5 -0.4
3.625 0.5 -0.4
3.75 0.5 -0.4
3.875 0.5 -0.4
4 0.5 -0.4
0 0.625 -0.4
0.125 0.625 -0.4
0.25 0.625 -0.4
0.375 0.625 -0.4
0.5 0.625 -0.4
0.625 0.625 -0.4
0.75 0.625 -0.4
0.875 0.625 -0.4
1 0.625 -0.4
1.125 0.625 -0.4
1.25 0.625 -0.4
1.375 0.625 -0.4
1.5 0.625 -0.4
1.625 0.625 -0.4
1.75 0.625 -0.4
1.875 0.625 -0.4
2 0.625 -0.4
2.125 0.625 -0.4
2.25 0.625 -0.4
2.375 0.625 -0.4
2.5 0.625 -0.4
2.625 0.625 -0.4
2.75 0.625 -0.4
2.875 0.625 -0.4
3 0.625 -0.4
3.125 0.625 -0.4
3.25 0.625 -0.4
3.375 0.625 -0.4
3.5 0.625 -0.4
3.625 0.625 -0.4
3.75 0.625 -0.4
3.875 0.625 -0.4
4 0.625 -0.4
0 0.75 -0.4
0.125 0.75 -0.4
0.25 0.75 -0.4
0.375 0.75 -0.4
0.5 0.75 -0.4
0.625 0.75 -0.4
0.75 0.75 -0.4
0.875 0.75 -0.4
1 0.75 -0.4
1.125 0.75 -0.4
1.25 0.75 -0.4
1.375 0.75 -0.4
1.5 0.75 -0.4
1.625 0.75 -0.4
1.75 0.75 -0.4
1.875 0.75 -0.4
2 0.75 -0.4
2.125 0.75 -0.4
2.25 0.75 -0.4
2.375 0.75 -0.4
2.5 0.75 -0.4
2.625 0.75 -0.4
2.75 0.75 -0.4
2.875 0.75 -0.4
3 0.75 -0.4
3.125 0.75 -0.4
3.25 0.75 -0.4
3.375 0.75 -0.4
3.5 0.75 -0.4
3.625 0.75 -0.4
3.75 0.75 -0.4
3.875 0.75 -0.4
4 0.75 -0.4
0 0.875 -0.4
0.125 0.875 -0.4
0.25 0.875 -0.4
0.375 0.875 -0.4
0.5 0.875 -0.4
0.625 0.875 -0.4
0.75 0.875 -0.4
0.875 0.875 -0.4
1 0.875 -0.4
1.125 0.875 -0.4
1.25 0.875 -0.4
1.375 0.875 -0.4
1.5 0.875 -0.4
1.625 0.875 -0.4
1.75 0.875 -0.4
1.875 0.875 -0.4
2 0.875 -0.4
2.125 0.875 -0.4
2.25 0.875 -0.4
2.375 0.875 -0.4
2.5 0.875 -0.4
2.625 0.875 -0.4
2.75 0.875 -0.4
2.875 0.875 -0.4
3 0.875 -0.4
3.125 0.875 -0.4
3.25 0.875 -0.4
3.375 0.875 -0.4
3.5 0.875 -0.4
3.625 0.875 -0.4
3.75 0.875 -0.4
3.875 0.875 -0.4
4 0.875 -0.4
0 1 -0.4
0.125 1 -0.4
0.25 1 -0.4
0.375 1 -0.4
0.5 1 -0.4
0.625 1 -0.4
0.75 1 -0.4
0.875 1 -0.4
1 1 -0.4
1.125 1 -0.4
1.25 1 -0.4
1.375 1 -0.4
1.5 1 -0.4
1.625 1 -0.4
1.75 1 -0.4
1.875 1 -0.4
2 1 -0.4
2.125 1 -0.4
2.25 1 -0.4
2.375 1 -0.4
2.5 1 -0.4
2.625 1 -0.4
2.75 1 -0.4
2.875 1 -0.4
3 1 -0.4
3.125 1 -0.4
3.25 1 -0.4
3.375 1 -0.4
3.5 1 -0.4
3.625 1 -0.4
3.75 1 -0.4
3.875 1 -0.4
4 1 -0.4
0 0 -0.275
0.125 0 -0.275
0.25 0 -0.275
0.375 0 -0.275
0.5 0 -0.275
0.625 0 -0.275
0.75 0 -0.275
0.875 0 -0.275
1 0 -0.275
1.125 0 -0.275
1.25 0 -0.275
1.375 0 -0.275
1.5 0 -0.275
1.625 0 -0.275
1.75 0 -0.275
1.875 0 -0.275
2 0 -0.275
2.125 0 -0.275
2.25 0 -0.275
2.375 0 -0.275
2.5 0 -0.275
2.625 0 -0.275
2.75 0 -0.275
2.875 0 -0.275
3 0 -0.275
3.125 0 -0.275
3.25 0 -0.275
3.375 0 -0.275
3.5 0 -0.275
3.625 0 -0.275
3.75 0 -0.275
3.875 0 -0.275
4 0 -0.275
0 0.125 -0.275
0.125 0.125 -0.275
0.25 0.125 -0.275
0.375 0.125 -0.275
0.5 0.125 -0.275
0.625 0.125 -0.275
0.75 0.125 -0.275
0.875 0.125 -0.275
1 0.125 -0.275
1.125 0.125 -0.275
1.25 0.125 -0.275
1.375 0.125 -0.275
1.5 0.125 -0.275
1.625 0.125 -0.275
1.75 0.125 -0.275
1.875 0.125 -0.275
2 0.125 -0.275
2.125 0.125 -0.275
2.25 0.125 -0.275
2.375 0.125 -0.275
2.5 0.125 -0.275
2.625 0.125 -0.275
2.75 0.125 -0.275
2.875 0.125 -0.275
3 0.125 -0.275
3.125 0.125 -0.275
3.25 0.125 -0.275
3.375 0.125 -0.275
3.5 0.125 -0.275
3.625 0.125 -0.275
3.75 0.125 -0.275
3.875 0.125 -0.275
4 0.125 -0.275
0 0.25 -0.275
0.125 0.25 -0.275
0.25 0.25 -0.275
0.375 0.25 -0.275
0.5 0.25 -0.275
0.625 0.25 -0.275
0.75 0.25 -0.275
0.875 0.25 -0.275
1 0.25 -0.275
1.125 0.25 -0.275
1.25 0.25 -0.275
1.375 0.25 -0.275
1.5 0.25 -0.275
1.625 0.25 -0.275
1.75 0.25 -0.275
1.875 0.25 -0.275
2 0.25 -0.275
2.125 0.25 -0.275
2.25 0.25 -0.275
2.375 0.25 -0.275
2.5 0.25 -0.275
2.625 0.25 -0.275
2.75 0.25 -0.275
2.875 0.25 -0.275
3 0.25 -0.275
3.125 0.25 -0.275
3.25 0.25 -0.275
3.375 0.25 -0.275
3.5 0.25 -0.275
3.625 0.25 -0.275
3.75 0.25 -0.275
3.875 0.25 -0.275
4 0.25 -0.275
0 0.375 -0.275
0.125 0.375 -0.275
0.25 0.375 -0.275
0.375 0.375 -0.275
0.5 0.375 -0.275
0.625 0.375 -0.275
0.75 0.375 -0.275
0.875 0.375 -0.275
1 0.375 -0.275
1.125 0.375 -0.275
1.25 0.375 -0.275
1.375 0.375 -0.275
1.5 0.375 -0.275
1.625 0.375 -0.275
1.75 0.375 -0.275
1.875 0.375 -0.275
2 0.375 -0.275
2.125 0.375 -0.275
2.25 0.375 -0.275
2.375 0.375 -0.275
2.5 0.375 -0.275
2.625 0.375 -0.275
2.75 0.375 -0.275
2.875 0.375 -0.275
3 0.375 -0.275
3.125 0.375 -0.275
3.25 0.375 -0.275
3.375 0.375 -0.275
3.5 0.375 -0.275
3.625 0.375 -0.275
3.75 0.375 -0.275
3.875 0.375 -0.275
4 0.375 -0.275
0 0.5 -0.275
0.125 0.5 -0.275
0.25 0.5 -0.275
0.375 0.5 -0.275
0.5 0.5 -0.275
0.625 0.5 -0.275
0.75 0.5 -0.275
0.875 0.5 -0.275
1 0.5 -0.275
1.125 0.5 -0.275
1.25 0.5 -0.275
1.375 0.5 -0.275
1.5 0.5 -0.275
1.625 0.5 -0.275
1.75 0.5 -0.275
1.875 0.5 -0.275
2 0.5 -0.275
2.125 0.5 -0.275
2.25 0.5 -0.275
2.375 0.5 -0.275
2.5 0.5 -0.275
2.625 0.5 -0.275
2.75 0.5 -0.275
2.875 0.5 -0.275
3 0.5 -0.275
3.125 0.5 -0.275
3.25 0.5 -0.275
3.375 0.5 -0.275
3.5 0.5 -0.275
3.625 0.5 -0.275
3.75 0.5 -0.275
3.875 0.5 -0.275
4 0.5 -0.275
0 0.625 -0.275
0.125 0.625 -0.275
0.25 0.625 -0.275
0.375 0.625 -0.275
0.5 0.625 -0.275
0.625 0.625 -0.275
0.75 0.625 -0.275
0.875 0.625 -0.275
1 0.625 -0.275
1.125 0.625 -0.275
1.25 0.625 -0.275
1.375 0.625 -0.275
1.5 0.625 -0.275
1.625 0.625 -0.275
1.75 0.625 -0.275
1.875 0.625 -0.275
2 0.625 -0.275
2.125 0.625 -0.275
2.25 0.625 -0.275
2.375 0.625 -0.275
2.5 0.625 -0.275
2.625 0.625 -0.275
2.75 0.625 -0.275
2.875 0.625 -0.275
3 0.625 -0.275
3.125 0.625 -0.275
3.25 0.625 -0.275
3.375 0.625 -0.275
3.5 0.625 -0.275
3.625 0.625 -0.275
3.75 0.625 -0.275
3.875 0.625 -0.275
4 0.625 -0.275
0 0.75 -0.275
0.125 0.75 -0.275
0.25 0.75 -0.275
0.375 0.75 -0.275
0.5 0.75 -0.275
0.625 0.75 -0.275
0.75 0.75 -0.275
0.875 0.75 -0.275
1 0.75 -0.275
1.125 0.75 -0.275
1.25 0.75 -0.275
1.375 0.75 -0.275
1.5 0.75 -0.275
1.625 0.75 -0.275
1.75 0.75 -0.275
1.875 0.75 -0.275
2 0.75 -0.275
2.125 0.75 -0.275
2.25 0.75 -0.275
2.375 0.75 -0.275
2.5 0.75 -0.275
2.625 0.75 -0.275
2.75 0.75 -0.275
2.875 0.75 -0.275
3 0.75 -0.275
3.125 0.75 -0.275
3.25 0.75 -0.275
3.375 0.75 -0.275
3.5 0.75 -0.275
3.625 0.75 -0.275
3.75 0.75 -0.275
3.875 0.75 -0.275
4 0.75 -0.275
0 0.875 -0.275
0.125 0.875 -0.275
0.25 0.875 -0.275
0.375 0.875 -0.275
0.5 0.875 -0.275
0.625 0.875 -0.275
0.75 0.875 -0.275
0.875 0.875 -0.275
1 0.875 -0.275
1.125 0.875 -0.275
1.25 0.875 -0.275
1.375 0.875 -0.275
1.5 0.875 -0.275
1.625 0.875 -0.275
1.75 0.875 -0.275
1.875 0.875 -0.275
2 0.875 -0.275
2.125 0.875 -0.275
2.25 0.875 -0.275
2.375 0.875 -0.275
2.5 0.875 -0.275
2.625 0.875 -0.275
2.75 0.875 -0.275
2.875 0.875 -0.275
3 0.875 -0.275
3.125 0.875 -0.275
3.25 0.875 -0.275
3.375 0.875 -0.275
3.5 0.875 -0.275
3.625 0.875 -0.275
3.75 0.875 -0.275
3.875 0.875 -0.275
4 0.875 -0.275
0 1 -0.275
0.125 1 -0.275
0.25 1 -0.275
0.375 1 -0.275
0.5 1 -0.275
0.625 1 -0.275
0.75 1 -0.275
0.875 1 -0.275
1 1 -0.275
1.125 1 -0.275
1.25 1 -0.275
1.375 1 -0.275
1.5 1 -0.275
1.625 1 -0.275
1.75 1 -0.275
1.875 1 -0.275
2 1 -0.275
2.125 1 -0.275
2.25 1 -0.275
2.375 1 -0.275
2.5 1 -0.275
2.625 1 -0.275
2.75 1 -0.275
2.875 1 -0.275
3 1 -0.275
3.125 1 -0.275
3.25 1 -0.275
3.375 1 -0.275
3.5 1 -0.275
3.625 1 -0.275
3.75 1 -0.275
3.875 1 -0.275
4 1 -0.275
0 0 -0.15
0.125 0 -0.15
0.25 0 -0.15
0.375 0 -0.15
0.5 0 -0.15
0.625 0 -0.15
0.75 0 -0.15
0.875 0 -0.15
1 0 -0.15
1.125 0 -0.15
1.25 0 -0.15
1.375 0 -0.15
1.5 0 -0.15
1.625 0 -0.15
1.75 0 -0.15
1.875 0 -0.15
2 0 -0.15
2.125 0 -0.15
2.25 0 -0.15
2.375 0 -0.15
2.5 0 -0.15
2.625 0 -0.15
2.75 0 -0.15
2.875 0 -0.15
3 0 -0.15
3.125 0 -0.15
3.25 0 -0.15
3.375 0 -0.15
3.5 0 -0.15
3.625 0 -0.15
3.75 0 -0.15
3.875 0 -0.15
4 0 -0.15
0 0.125 -0.15
0.125 0.125 -0.15
0.25 0.125 -0.15
0.375 0.125 -0.15
0.5 0.125 -0.15
0.625 0.125 -0.15
0.75 0.125 -0.15
0.875 0.125 -0.15
1 0.125 -0.15
1.125 0.125 -0.15
1.25 0.125 -0.15
1.375 0.125 -0.15
1.5 0.125 -0.15
1.625 0.125 -0.15
1.75 0.125 -0.15
1.875 0.125 -0.15
2 0.125 -0.15
2.125 0.125 -0.15
2.25 0.125 -0.15
2.375 0.125 -0.15
2.5 0.125 -0.15
2.625 0.125 -0.15
2.75 0.125 -0.15
2.875 0.125 -0.15
3 0.125 -0.15
3.125 0.125 -0.15
3.25 0.125 -0.15
3.375 0.125 -0.15
3.5 0.125 -0.15
3.625 0.125 -0.15
3.75 0.125 -0.15
3.875 0.125 -0.15
4 0.125 -0.15
0 0.25 -0.15
0.125 0.25 -0.15
0.25 0.25 -0.15
0.375 0.25 -0.15
0.5 0.25 -0.15
0.625 0.25 -0.15
0.75 0.25 -0.15
0.875 0.25 -0.15
1 0.25 -0.15
1.125 0.25 -0.15
1.25 0.25 -0.15
1.375 0.25 -0.15
1.5 0.25 -0.15
1.625 0.25 -0.15
1.75 0.25 -0.15
1.875 0.25 -0.15
2 0.25 -0.15
2.125 0.25 -0.15
2.25 0.25 -0.15
2.375 0.25 -0.15
2.5 0.25 -0.15
2.625 0.25 -0.15
2.75 0.25 -0.15
2.875 0.25 -0.15
3 0.25 -0.15
3.125 0.25 -0.15
3.25 0.25 -0.15
3.375 0.25 -0.15
3.5 0.25 -0.15
3.625 0.25 -0.15
3.75 0.25 -0.15
3.875 0.25 -0.15
4 0.25 -0.15
0 0.375 -0.15
0.125 0.375 -0.15
0.25 0.375 -0.15
0.375 0.375 -0.15
0.5 0.375 -0.15
0.625 0.375 -0.15
0.75 0.375 -0.15
0.875 0.375 -0.15
1 0.375 -0.15
1.125 0.375 -0.15
1.25 0.375 -0.15
1.375 0.375 -0.15
1.5 0.375 -0.15
1.625 0.375 -0.15
1.75 0.375 -0.15
1.875 0.375 -0.15
2 0.375 -0.15
2.125 0.375 -0.15
2.25 0.375 -0.15
2.375 0.375 -0.15
2.5 0.375 -0.15
2.625 0.375 -0.15
2.75 0.375 -0.15
2.875 0.375 -0.15
3 0.375 -0.15
3.125 0.375 -0.15
3.25 0.375 -0.15
3.375 0.375 -0.15
3.5 0.375 -0.15
3.625 0.375 -0.15
3.75 0.375 -0.15
3.875 0.375 -0.15
4 0.375 -0.15
0 0.5 -0.15
0.125 0.5 -0.15
0.25 0.5 -0.15
0.375 0.5 -0.15
0.5 0.5 -0.15
0.625 0.5 -0.15
0.75 0.5 -0.15
0.875 0.5 -0.15
1 0.5 -0.15
1.125 0.5 -0.15
1.25 0.5 -0.15
1.375 0.5 -0.15
1.5 0.5 -0.15
1.625 0.5 -0.15
1.75 0.5 -0.15
1.875 0.5 -0.15
2 0.5 -0.15
2.125 0.5 -0.15
2.25 0.5 -0.15
2.375 0.5 -0.15
2.5 0.5 -0.15
2.625 0.5 -0.15
2.75 0.5 -0.15
2.875 0.5 -0.15
3 0.5 -0.15
3.125 0.5 -0.15
3.25 0.5 -0.15
3.375 0.5 -0.15
3.5 0.5 -0.15
3.625 0.5 -0.15
3.75 0.5 -0.15
3.875 0.5 -0.15
4 0.5 -0.15
0 0.625 -0.15
0.125 0.625 -0.15
0.25 0.625 -0.15
0.375 0.625 -0.15
0.5 0.625 -0.15
0.625 0.625 -0.15
0.75 0.625 -0.15
0.875 0.625 -0.15
1 0.625 -0.15
1.125 0.625 -0.15
1.25 0.625 -0.15
1.375 0.625 -0.15
1.5 0.625 -0.15
1.625 0.625 -0.15
1.75 0.625 -0.15
1.875 0.625 -0.15
2 0.625 -0.15
2.125 0.625 -0.15
2.25 0.625 -0.15
2.375 0.625 -0.15
2.5 0.625 -0.15
2.625 0.625 -0.15
2.75 0.625 -0.15
2.875 0.625 -0.15
3 0.625 -0.15
3.125 0.625 -0.15
3.25 0.625 -0.15
3.375 0.625 -0.15
3.5 0.625 -0.15
3.625 0.625 -0.15
3.75 0.625 -0.15
3.875 0.625 -0.15
4 0.625 -0.15
0 0.75 -0.15
0.125 0.75 -0.15
0.25 0.75 -0.15
0.375 0.75 -0.15
0.5 0.75 -0.15
0.625 0.75 -0.15
0.75 0.75 -0.15
0.875 0.75 -0.15
1 0.75 -0.15
1.125 0.75 -0.15
1.25 0.75 -0.15
1.375 0.75 -0.15
1.5 0.75 -0.15
1.625 0.75 -0.15
1.75 0.75 -0.15
1.875 0.75 -0.15
2 0.75 -0.15
2.125 0.75 -0.15
2.25 0.75 -0.15
2.375 0.75 -0.15
2.5 0.75 -0.15
2.625 0.75 -0.15
2.75 0.75 -0.15
2.875 0.75 -0.15
3 0.75 -0.15
3.125 0.75 -0.15
3.25 0.75 -0.15
3.375 0.75 -0.15
3.5 0.75 -0.15
3.625 0.75 -0.15
3.75 0.75 -0.15
3.875 0.75 -0.15
4 0.75 -0.15
0 0.875 -0.15
0.125 0.875 -0.15
0.25 0.875 -0.15
0.375 0.875 -0.15
0.5 0.875 -0.15
0.625 0.875 -0.15
0.75 0.875 -0.15
0.875 0.875 -0.15
1 0.875 -0.15
1.125 0.875 -0.15
1.25 0.875 -0.15
1.375 0.875 -0.15
1.5 0.875 -0.15
1.625 0.875 -0.15
1.75 0.875 -0.15
1.875 0.875 -0.15
2 0.875 -0.15
2.125 0.875 -0.15
2.25 0.875 -0.15
2.375 0.875 -0.15
2.5 0.875 -0.15
2.625 0.875 -0.15
2.75 0.875 -0.15
2.875 0.875 -0.15
3 0.875 -0.15
3.125 0.875 -0.15
3.25 0.875 -0.15
3.375 0.875 -0.15
3.5 0.875 -0.15
3.625 0.875 -0.15
3.75 0.875 -0.15
3.875 0.875 -0.15
4 0.875 -0.15
0 1 -0.15
0.125 1 -0.15
0.25 1 -0.15
0.375 1 -0.15
0.5 1 -0.15
0.625 1 -0.15
0.75 1 -0.15
0.875 1 -0.15
1 1 -0.15
1.125 1 -0.15
1.25 1 -0.15
1.375 1 -0.15
1.5 1 -0.15
1.625 1 -0.15
1.75 1 -0.15
1.875 1 -0.15
2 1 -0.15
2.125 1 -0.15
2.25 1 -0.15
2.375 1 -0.15
2.5 1 -0.15
2.625 1 -0.15
2.75 1 -0.15
2.875 1 -0.15
3 1 -0.15
3.125 1 -0.15
3.25 1 -0.15
3.375 1 -0.15
3.5 1 -0.15
3.625 1 -0.15
3.75 1 -0.15
3.875 1 -0.15
4 1 -0.15
0 0 -0.025
0.125 0 -0.025
0.25 0 -0.025
0.375 0 -0.025
0.5 0 -0.025
0.625 0 -0.025
0.75 0 -0.025
0.875 0 -0.025
1 0 -0.025
1.125 0 -0.025
1.25 0 -0.025
1.375 0 -0.025
1.5 0 -0.025
1.625 0 -0.025
1.75 0 -0.025
1.875 0 -0.025
2 0 -0.025
2.125 0 -0.025
2.25 0 -0.025
2.375 0 -0.025
2.5 0 -0.025
2.625 0 -0.025
2.75 0 -0.025
2.875 0 -0.025
3 0 -0.025
3.125 0 -0.025
3.25 0 -0.025
3.375 0 -0.025
3.5 0 -0.025
3.625 0 -0.025
3.75 0 -0.025
3.875 0 -0.025
4 0 -0.025
0 0.125 -0.025
0.125 0.125 -0.025
0.25 0.125 -0.025
0.375 0.125 -0.025
0.5 0.125 -0.025
0.625 0.125 -0.025
0.75 0.125 -0.025
0.875 0.125 -0.025
1 0.125 -0.025
1.125 0.125 -0.025
1.25 0.125 -0.025
1.375 0.125 -0.025
1.5 0.125 -0.025
1.625 0.125 -0.025
1.75 0.125 -0.025
1.875 0.125 -0.025
2 0.125 -0.025
2.125 0.125 -0.025
2.25 0.125 -0.025
2.375 0.125 -0.025
2.5 0.125 -0.025
2.625 0.125 -0.025
2.75 0.125 -0.025
2.875 0.125 -0.025
3 0.125 -0.025
3.125 0.125 -0.025
3.25 0.125 -0.025
3.375 0.125 -0.025
3.5 0.125 -0.025
3.625 0.125 -0.025
3.75 0.125 -0.025
3.875 0.125 -0.025
4 0.125 -0.025
0 0.25 -0.025
0.125 0.25 -0.025
0.25 0.25 -0.025
0.375 0.25 -0.025
0.5 0.25 -0.025
0.625 0.25 -0.025
0.75 0.25 -0.025
0.875 0.25 -0.025
1 0.25 -0.025
1.125 0.25 -0.025
1.25 0.25 -0.025
1.375 0.25 -0.025
1.5 0.25 -0.025
1.625 0.25 -0.025
1.75 0.25 -0.025
1.875 0.25 -0.025
2 0.25 -0.025
2.125 0.25 -0.025
2.25 0.25 -0.025
2.375 0.25 -0.025
2.5 0.25 -0.025
2.625 0.25 -0.025
2.75 0.25 -0.025
2.875 0.25 -0.025
3 0.25 -0.025
3.125 0.25 -0.025
3.25 0.25 -0.025
3.375 0.25 -0.025
3.5 0.25 -0.025
3.625 0.25 -0.025
3.75 0.25 -0.025
3.875 0.25 -0.025
4 0.25 -0.025
0 0.375 -0.025
0.125 0.375 -0.025
0.25 0.375 -0.025
0.375 0.375 -0.025
0.5 0.375 -0.025
0.625 0.375 -0.025
0.75 0.375 -0.025
0.875 0.375 -0.025
1 0.375 -0.025
1.125 0.375 -0.025
1.25 0.375 -0.025
1.375 0.375 -0.025
1.5 0.375 -0.025
1.625 0.375 -0.025
1.75 0.375 -0.025
1.875 0.375 -0.025
2 0.375 -0.025
2.125 0.375 -0.025
2.25 0.375 -0.025
2.375 0.375 -0.025
2.5 0.375 -0.025
2.625 0.375 -0.025
2.75 0.375 -0.025
2.875 0.375 -0.025
3 0.375 -0.025
3.125 0.375 -0.025
3.25 0.375 -0.025
3.375 0.375 -0.025
3.5 0.375 -0.025
3.625 0.375 -0.025
3.75 0.375 -0.025
3.875 0.375 -0.025
4 0.375 -0.025
0 0.5 -0.025
0.125 0.5 -0.025
0.25 0.5 -0.025
0.375 0.5 -0.025
0.5 0.5 -0.025
0.625 0.5 -0.025
0.75 0.5 -0.025
0.875 0.5 -0.025
1 0.5 -0.025
1.125 0.5 -0.025
1.25 0.5 -0.025
1.375 0.5 -0.025
1.5 0.5 -0.025
1.625 0.5 -0.025
1.75 0.5 -0.025
1.875 0.5 -0.025
2 0.5 -0.025
2.125 0.5 -0.025
2.25 0.5 -0.025
2.375 0.5 -0.025
2.5 0.5 -0.025
2.625 0.5 -0.025
2.75 0.5 -0.025
2.875 0.5 -0.025
3 0.5 -0.025
3.125 0.5 -0.025
3.25 0.5 -0.025
3.375 0.5 -0.025
3.5 0.5 -0.025
3.625 0.5 -0.025
3.75 0.5 -0.025
3.875 0.5 -0.025
4 0.5 -0.025
0 0.625 -0.025
0.125 0.625 -0.025
0.25 0.625 -0.025
0.375 0.625 -0.025
0.5 0.625 -0.025
0.625 0.625 -0.025
0.75 0.625 -0.025
0.875 0.625 -0.025
1 0.625 -0.025
1.125 0.625 -0.025
1.25 0.625 -0.025
1.375 0.625 -0.025
1.5 0.625 -0.025
1.625 0.625 -0.025
1.75 0.625 -0.025
1.875 0.625 -0.025
2 0.625 -0.025
2.125 0.625 -0.025
2.25 0.625 -0.025
2.375 0.625 -0.025
2.5 0.625 -0.025
2.625 0.625 -0.025
2.75 0.625 -0.025
2.875 0.625 -0.025
3 0.625 -0.025
3.125 0.625 -0.025
3.25 0.625 -0.025
3.375 0.625 -0.025
3.5 0.625 -0.025
3.625 0.625 -0.025
3.75 0.625 -0.025
3.875 0.625 -0.025
4 0.625 -0.025
0 0.75 -0.025
0.125 0.75 -0.025
0.25 0.75 -0.025
0.375 0.75 -0.025
0.5 0.75 -0.025
0.625 0.75 -0.025
0.75 0.75 -0.025
0.875 0.75 -0.025
1 0.75 -0.025
1.125 0.75 -0.025
1.25 0.75 -0.025
1.375 0.75 -0.025
1.5 0.75 -0.025
1.625 0.75 -0.025
1.75 0.75 -0.025
1.875 0.75 -0.025
2 0.75 -0.025
2.125 0.75 -0.025
2.25 0.75 -0.025
2.375 0.75 -0.025
2.5 0.75 -0.025
2.625 0.75 -0.025
2.75 0.75 -0.025
2.875 0.75 -0.025
3 0.75 -0.025
3.125 0.75 -0.025
3.25 0.75 -0.025
3.375 0.75 -0.025
3.5 0.75 -0.025
3.625 0.75 -0.025
3.75 0.75 -0.025
3.875 0.75 -0.025
4 0.75 -0.025
0 0.875 -0.025
0.125 0.875 -0.025
0.25 0.875 -0.025
0.375 0.875 -0.025
0.5 0.875 -0.025
0.625 0.875 -0.025
0.75 0.875 -0.025
0.875 0.875 -0.025
1 0.875 -0.025
1.125 0.875 -0.025
1.25 0.875 -0.025
1.375 0.875 -0.025
1.5 0.875 -0.025
1.625 0.875 -0.025
1.75 0.875 -0.025
1.875 0.875 -0.025
2 0.875 -0.025
2.125 0.875 -0.025
2.25 0.875 -0.025
2.375 0.875 -0.025
2.5 0.875 -0.025
2.625 0.875 -0.025
2.75 0.875 -0.025
2.875 0.875 -0.025
3 0.875 -0.025
3.125 0.875 -0.025
3.25 0.875 -0.025
3.375 0.875 -0.025
3.5 0.875 -0.025
3.625 0.875 -0.025
3.75 0.875 -0.025
3.875 0.875 -0.025
4 0.875 -0.025
0 1 -0.025
0.125 1 -0.025
0.25 1 -0.025
0.375 1 -0.025
0.5 1 -0.025
0.625 1 -0.025
0.75 1 -0.025
0.875 1 -0.025
1 1 -0.025
1.125 1 -0.025
1.25 1 -0.025
1.375 1 -0.025
1.5 1 -0.025
1.625 1 -0.025
1.75 1 -0.025
1.875 1 -0.025
2 1 -0.025
2.125 1 -0.025
2.25 1 -0.025
2.375 1 -0.025
2.5 1 -0.025
2.625 1 -0.025
2.75 1 -0.025
2.875 1 -0.025
3 1 -0.025
3.125 1 -0.025
3.25 1 -0.025
3.375 1 -0.025
3.5 1 -0.025
3.625 1 -0.025
3.75 1 -0.025
3.875 1 -0.025
4 1 -0.025
0 0 0.1
0.125 0 0.1
0.25 0 0.1
0.375 0 0.1
0.5 0 0.1
0.625 0 0.1
0.75 0 0.1
0.875 0 0.1
1 0 0.1
1.125 0 0.1
1.25 0 0.1
1.375 0 0.1
1.5 0 0.1
1.625 0 0.1
1.75 0 0.1
1.875 0 0.1
2 0 0.1
2.125 0 0.1
2.25 0 0.1
2.375 0 0.1
2.5 0 0.1
2.625 0 0.1
2.75 0 0.1
2.875 0 0.1
3 0 0.1
3.125 0 0.1
3.25 0 0.1
3.375 0 0.1
3.5 0 0.1
3.625 0 0.1
3.75 0 0.1
3.875 0 0.1
4 0 0.1
0 0.125 0.1
0.125 0.125 0.1
0.25 0.125 0.1
0.375 0.125 0.1
0.5 0.125 0.1
0.625 0.125 0.1
0.75 0.125 0.1
0.875 0.125 0.1
1 0.125 0.1
1.125 0.125 0.1
1.25 0.125 0.1
1.375 0.125 0.1
1.5 0.125 0.1
1.625 0.125 0.1
1.75 0.125 0.1
1.875 0.125 0.1
2 0.125 0.1
2.125 0.125 0.1
2.25 0.125 0.1
2.375 0.125 0.1
2.5 0.125 0.1
2.625 0.125 0.1
2.75 0.125 0.1
2.875 0.125 0.1
3 0.125 0.1
3.125 0.125 0.1
3.25 0.125 0.1
3.375 0.125 0.1
3.5 0.125 0.1
3.625 0.125 0.1
3.75 0.125 0.1
3.875 0.125 0.1
4 0.125 0.1
0 0.25 0.1
0.125 0.25 0.1
0.25 0.25 0.1
0.375 0.25 0.1
0.5 0.25 0.1
0.625 0.25 0.1
0.75 0.25 0.1
0.875 0.25 0.1
1 0.25 0.1
1.125 0.25 0.1
1.25 0.25 0.1
1.375 0.25 0.1
1.5 0.25 0.1
1.625 0.25 0.1
1.75 0.25 0.1
1.875 0.25 0.1
2 0.25 0.1
2.125 0.25 0.1
2.25 0.25 0.1
2.375 0.25 0.1
2.5 0.25 0.1
2.625 0.25 0.1
2.75 0.25 0.1
2.875 0.25 0.1
3 0.25 0.1
3.125 0.25 0.1
3.25 0.25 0.1
3.375 0.25 0.1
3.5 0.25 0.1
3.625 0.25 0.1
3.75 0.25 0.1
3.875 0.25 0.1
4 0.25 0.1
0 0.375 0.1
0.125 0.375 0.1
0.25 0.375 0.1
0.375 0.375 0.1
0.5 0.375 0.1
0.625 0.375 0.1
0.75 0.375 0.1
0.875 0.375 0.1
1 0.375 0.1
1.125 0.375 0.1
1.25 0.375 0.1
1.375 0.375 0.1
1.5 0.375 0.1
1.625 0.375 0.1
1.75 0.375 0.1
1.875 0.375 0.1
2 0.375 0.1
2.125 0.375 0.1
2.25 0.375 0.1
2.375 0.375 0.1
2.5 0.375 0.1
2.625 0.375 0.1
2.75 0.375 0.1
2.875 0.375 0.1
3 0.375 0.1
3.125 0.375 0.1
3.25 0.375 0.1
3.375 0.375 0.1
3.5 0.375 0.1
3.625 0.375 0.1
3.75 0.375 0.1
3.875 0.375 0.1
4 0.375 0.1
0 0.5 0.1
0.125 0.5 0.1
0.25 0.5 0.1
0.375 0.5 0.1
0.5 0.5 0.1
0.625 0.5 0.1
0.75 0.5 0.1
0.875 0.5 0.1
1 0.5 0.1
1.125 0.5 0.1
1.25 0.5 0.1
1.375 0.5 0.1
1.5 0.5 0.1
1.625 0.5 0.1
1.75 0.5 0.1
1.875 0.5 0.1
2 0.5 0.1
2.125 0.5 0.1
2.25 0.5 0.1
2.375 0.5 0.1
2.5 0.5 0.1
2.625 0.5 0.1
2.75 0.5 0.1
2.875 0.5 0.1
3 0.5 0.1
3.125 0.5 0.1
3.25 0.5 0.1
3.375 0.5 0.1
3.5 0.5 0.1
3.625 0.5 0.1
3.75 0.5 0.1
3.875 0.5 0.1
4 0.5 0.1
0 0.625 0.1
0.125 0.625 0.1
0.25 0.625 0.1
0.375 0.625 0.1
0.5 0.625 0.1
0.625 0.625 0.1
0.75 0.625 0.1
0.875 0.625 0.1
1 0.625 0.1
1.125 0.625 0.1
1.25 0.625 0.1
1.375 0.625 0.1
1.5 0.625 0.1
1.625 0.625 0.1
1.75 0.625 0.1
1.875 0.625 0.1
2 0.625 0.1
2.125 0.625 0.1
2.25 0.625 0.1
2.375 0.625 0.1
2.5 0.625 0.1
2.625 0.625 0.1
2.75 0.625 0.1
2.875 0.625 0.1
3 0.625 0.1
3.125 0.625 0.1
3.25 0.625 0.1
3.375 0.625 0.1
3.5 0.625 0.1
3.625 0.625 0.1
3.75 0.625 0.1
3.875 0.625 0.1
4 0.625 0.1
0 0.75 0.1
0.125 0.75 0.1
0.25 0.75 0.1
0.375 0.75 0.1
0.5 0.75 0.1
0.625 0.75 0.1
0.75 0.75 0.1
0.875 0.75 0.1
1 0.75 0.1
1.125 0.75 0.1
1.25 0.75 0.1
1.375 0.75 0.1
1.5 0.75 0.1
1.625 0.75 0.1
1.75 0.75 0.1
1.875 0.75 0.1
2 0.75 0.1
2.125 0.75 0.1
2.25 0.75 0.1
2.375 0.75 0.1
2.5 0.75 0.1
2.625 0.75 0.1
2.75 0.75 0.1
2.875 0.75 0.1
3 0.75 0.1
3.125 0.75 0.1
3.25 0.75 0.1
3.375 0.75 0.1
3.5 0.75 0.1
3.625 0.75 0.1
3.75 0.75 0.1
3.875 0.75 0.1
4 0.75 0.1
0 0.875 0.1
0.125 0.875 0.1
0.25 0.875 0.1
0.375 0.875 0.1
0.5 0.875 0.1
0.625 0.875 0.1
0.75 0.875 0.1
0.875 0.875 0.1
1 0.875 0.1
1.125 0.875 0.1
1.25 0.875 0.1
1.375 0.875 0.1
1.5 0.875 0.1
1.625 0.875 0.1
1.75 0.875 0.1
1.875 0.875 0.1
2 0.875 0.1
2.125 0.875 0.1
2.25 0.875 0.1
2.375 0.875 0.1
2.5 0.875 0.1
2.625 0.875 0.1
2.75 0.875 0.1
2.875 0.875 0.1
3 0.875 0.1
3.125 0.875 0.1
3.25 0.875 0.1
3.375 0.875 0.1
3.5 0.875 0.1
3.625 0.875 0.1
3.75 0.875 0.1
3.875 0.875 0.1
4 0.875 0.1
0 1 0.1
0.125 1 0.1
0.25 1 0.1
0.375 1 0.1
0.5 1 0.1
0.625 1 0.1
0.75 1 0.1
0.875 1 0.1
1 1 0.1
1.125 1 0.1
1.25 1 0.1
1.375 1 0.1
1.5 1 0.1
1.625 1 0.1
1.75 1 0.1
1.875 1 0.1
2 1 0.1
2.125 1 0.1
2.25 1 0.1
2.375 1 0.1
2.5 1 0.1
2.625 1 0.1
2.75 1 0.1
2.875 1 0.1
3 1 0.1
3.125 1 0.1
3.25 1 0.1
3.375 1 0.1
3.5 1 0.1
3.625 1 0.1
3.75 1 0.1
3.875 1 0.1
4 1 0.1
0 0 0.225
0.125 0 0.225
0.25 0 0.225
0.375 0 0.225
0.5 0 0.225
0.625 0 0.225
0.75 0 0.225
0.875 0 0.225
1 0 0.225
1.125 0 0.225
1.25 0 0.225
1.375 0 0.225
1.5 0 0.225
1.625 0 0.225
1.75 0 0.225
1.875 0 0.225
2 0 0.225
2.125 0 0.225
2.25 0 0.225
2.375 0 0.225
2.5 0 0.225
2.625 0 0.225
2.75 0 0.225
2.875 0 0.225
3 0 0.225
3.125 0 0.225
3.25 0 0.225
3.375 0 0.225
3.5 0 0.225
3.625 0 0.225
3.75 0 0.225
3.875 0 0.225
4 0 0.225
0 0.125 0.225
0.125 0.125 0.225
0.25 0.125 0.225
0.375 0.125 0.225
0.5 0.125 0.225
0.625 0.125 0.225
0.75 0.125 0.225
0.875 0.125 0.225
1 0.125 0.225
1.125 0.125 0.225
1.25 0.125 0.225
1.375 0.125 0.225
1.5 0.125 0.225
1.625 0.125 0.225
1.75 0.125 0.225
1.875 0.125 0.225
2 0.125 0.225
2.125 0.125 0.225
2.25 0.125 0.225
2.375 0.125 0.225
2.5 0.125 0.225
2.625 0.125 0.225
2.75 0.125 0.225
2.875 0.125 0.225
3 0.125 0.225
3.125 0.125 0.225
3.25 0.125 0.225
3.375 0.125 0.225
3.5 0.125 0.225
3.625 0.125 0.225
3.75 0.125 0.225
3.875 0.125 0.225
4 0.125 0.225
0 0.25 0.225
0.125 0.25 0.225
0.25 0.25 0.225
0.375 0.25 0.225
0.5 0.25 0.225
0.625 0.25 0.225
0.75 0.25 0.225
0.875 0.25 0.225
1 0.25 0.225
1.125 0.25 0.225
1.25 0.25 0.225
1.375 0.25 0.225
1.5 0.25 0.225
1.625 0.25 0.225
1.75 0.25 0.225
1.875 0.25 0.225
2 0.25 0.225
2.125 0.25 0.225
2.25 0.25 0.225
2.375 0.25 0.225
2.5 0.25 0.225
2.625 0.25 0.225
2.75 0.25 0.225
2.875 0.25 0.225
3 0.25 0.225
3.125 0.25 0.225
3.25 0.25 0.225
3.375 0.25 0.225
3.5 0.25 0.225
3.625 0.25 0.225
3.75 0.25 0.225
3.875 0.25 0.225
4 0.25 0.225
0 0.375 0.225
0.125 0.375 0.225
0.25 0.375 0.225
0.375 0.375 0.225
0.5 0.375 0.225
0.625 0.375 0.225
0.75 0.375 0.225
0.875 0.375 0.225
1 0.375 0.225
1.125 0.375 0.225
1.25 0.375 0.225
1.375 0.375 0.225
1.5 0.375 0.225
1.625 0.375 0.225
1.75 0.375 0.225
1.875 0.375 0.225
2 0.375 0.225
2.125 0.375 0.225
2.25 0.375 0.225
2.375 0.375 0.225
2.5 0.375 0.225
2.625 0.375 0.225
2.75 0.375 0.225
2.875 0.375 0.225
3 0.375 0.225
3.125 0.375 0.225
3.25 0.375 0.225
3.375 0.375 0.225
3.5 0.375 0.225
3.625 0.375 0.225
3.75 0.375 0.225
3.875 0.375 0.225
4 0.375 0.225
0 0.5 0.225
0.125 0.5 0.225
0.25 0.5 0.225
0.375 0.5 0.225
0.5 0.5 0.225
0.625 0.5 0.225
0.75 0.5 0.225
0.875 0.5 0.225
1 0.5 0.225
1.125 0.5 0.225
1.25 0.5 0.225
1.375 0.5 0.225
1.5 0.5 0.225
1.625 0.5 0.225
1.75 0.5 0.225
1.875 0.5 0.225
2 0.5 0.225
2.125 0.5 0.225
2.25 0.5 0.225
2.375 0.5 0.225
2.5 0.5 0.225
2.625 0.5 0.225
2.75 0.5 0.225
2.875 0.5 0.225
3 0.5 0.225
3.125 0.5 0.225
3.25 0.5 0.225
3.375 0.5 0.225
3.5 0.5 0.225
3.625 0.5 0.225
3.75 0.5 0.225
3.875 0.5 0.225
4 0.5 0.225
0 0.625 0.225
0.125 0.625 0.225
0.25 0.625 0.225
0.375 0.625 0.225
0.5 0.625 0.225
0.625 0.625 0.225
0.75 0.625 0.225
0.875 0.625 0.225
1 0.625 0.225
1.125 0.625 0.225
1.25 0.625 0.225
1.375 0.625 0.225
1.5 0.625 0.225
1.625 0.625 0.225
1.75 0.625 0.225
1.875 0.625 0.225
2 0.625 0.225
2.125 0.625 0.225
2.25 0.625 0.225
2.375 0.625 0.225
2.5 0.625 0.225
2.625 0.625 0.225
2.75 0.625 0.225
2.875 0.625 0.225
3 0.625 0.225
3.125 0.625 0.225
3.25 0.625 0.225
3.375 0.625 0.225
3.5 0.625 0.225
3.625 0.625 0.225
3.75 0.625 0.225
3.875 0.625 0.225
4 0.625 0.225
0 0.75 0.225
0.125 0.75 0.225
0.25 0.75 0.225
0.375 0.75 0.225
0.5 0.75 0.225
0.625 0.75 0.225
0.75 0.75 0.225
0.875 0.75 0.225
1 0.75 0.225
1.125 0.75 0.225
1.25 0.75 0.225
1.375 0.75 0.225
1.5 0.75 0.225
1.625 0.75 0.225
1.75 0.75 0.225
1.875 0.75 0.225
2 0.75 0.225
2.125 0.75 0.225
2.25 0.75 0.225
2.375 0.75 0.225
2.5 0.75 0.225
2.625 0.75 0.225
2.75 0.75 0.225
2.875 0.75 0.225
3 0.75 0.225
3.125 0.75 0.225
3.25 0.75 0.225
3.375 0.75 0.225
3.5 0.75 0.225
3.625 0.75 0.225
3.75 0.75 0.225
3.875 0.75 0.225
4 0.75 0.225
0 0.875 0.225
0.125 0.875 0.225
0.25 0.875 0.225
0.375 0.875 0.225
0.5 0.875 0.225
0.625 0.875 0.225
0.75 0.875 0.225
0.875 0.875 0.225
1 0.875 0.225
1.125 0.875 0.225
1.25 0.875 0.225
1.375 0.875 0.225
1.5 0.875 0.225
1.625 0.875 0.225
1.75 0.875 0.225
1.875 0.875 0.225
2 0.875 0.225
2.125 0.875 0.225
2.25 0.875 0.225
2.375 0.875 0.225
2.5 0.875 0.225
2.625 0.875 0.225
2.75 0.875 0.225
2.875 0.875 0.225
3 0.875 0.225
3.125 0.875 0.225
3.25 0.875 0.225
3.375 0.875 0.225
3.5 0.875 0.225
3.625 0.875 0.225
3.75 0.875 0.225
3.875 0.875 0.225
4 0.875 0.225
0 1 0.225
0.125 1 0.225
0.25 1 0.225
0.375 1 0.225
0.5 1 0.225
0.625 1 0.225
0.75 1 0.225
0.875 1 0.225
1 1 0.225
1.125 1 0.225
1.25 1 0.225
1.375 1 0.225
1.5 1 0.225
1.625 1 0.225
1.75 1 0.225
1.875 1 0.225
2 1 0.225
2.125 1 0.225
2.25 1 0.225
2.375 1 0.225
2.5 1 0.225
2.625 1 0.225
2.75 1 0.225
2.875 1 0.225
3 1 0.225
3.125 1 0.225
3.25 1 0.225
3.375 1 0.225
3.5 1 0.225
3.625 1 0.225
3.75 1 0.225
3.875 1 0.225
4 1 0.225
0 0 0.35
0.125 0 0.35
0.25 0 0.35
0.375 0 0.35
0.5 0 0.35
0.625 0 0.35
0.75 0 0.35
0.875 0 0.35
1 0 0.35
1.125 0 0.35
1.25 0 0.35
1.375 0 0.35
1.5 0 0.35
1.625 0 0.35
1.75 0 0.35
1.875 0 0.35
2 0 0.35
2.125 0 0.35
2.25 0 0.35
2.375 0 0.35
2.5 0 0.35
2.625 0 0.35
2.75 0 0.35
2.875 0 0.35
3 0 0.35
3.125 0 0.35
3.25 0 0.35
3.375 0 0.35
3.5 0 0.35
3.625 0 0.35
3.75 0 0.35
3.875 0 0.35
4 0 0.35
0 0.125 0.35
0.125 0.125 0.35
0.25 0.125 0.35
0.375 0.125 0.35
0.5 0.125 0.35
0.625 0.125 0.35
0.75 0.125 0.35
0.875 0.125 0.35
1 0.125 0.35
1.125 0.125 0.35
1.25 0.125 0.35
1.375 0.125 0.35
1.5 0.125 0.35
1.625 0.125 0.35
1.75 0.125 0.35
1.875 0.125 0.35
2 0.125 0.35
2.125 0.125 0.35
2.25 0.125 0.35
2.375 0.125 0.35
2.5 0.125 0.35
2.625 0.125 0.35
2.75 0.125 0.35
2.875 0.125 0.35
3 0.125 0.35
3.125 0.125 0.35
3.25 0.125 0.35
3.375 0.125 0.35
3.5 0.125 0.35
3.625 0.125 0.35
3.75 0.125 0.35
3.875 0.125 0.35
4 0.125 0.35
0 0.25 0.35
0.125 0.25 0.35
0.25 0.25 0.35
0.375 0.25 0.35
0.5 0.25 0.35
0.625 0.25 0.35
0.75 0.25 0.35
0.875 0.25 0.35
1 0.25 0.35
1.125 0.25 0.35
1.25 0.25 0.35
1.375 0.25 0.35
1.5 0.25 0.35
1.625 0.25 0.35
1.75 0.25 0.35
1.875 0.25 0.35
2 0.25 0.35
2.125 0.25 0.35
2.25 0.25 0.35
2.375 0.25 0.35
2.5 0.25 0.35
2.625 0.25 0.35
2.75 0.25 0.35
2.875 0.25 0.35
3 0.25 0.35
3.125 0.25 0.35
3.25 0.25 0.35
3.375 0.25 0.35
3.5 0.25 0.35
3.625 0.25 0.35
3.75 0.25 0.35
3.875 0.25 0.35
4 0.25 0.35
0 0.375 0.35
0.125 0.375 0.35
0.25 0.375 0.35
0.375 0.375 0.35
0.5 0.375 0.35
0.625 0.375 0.35
0.75 0.375 0.35
0.875 0.375 0.35
1 0.375 0.35
1.125 0.375 0.35
1.25 0.375 0.35
1.375 0.375 0.35
1.5 0.375 0.35
1.625 0.375 0.35
1.75 0.375 0.35
1.875 0.375 0.35
2 0.375 0.35
2.125 0.375 0.35
2.25 0.375 0.35
2.375 0.375 0.35
2.5 0.375 0.35
2.625 0.375 0.35
2.75 0.375 0.35
2.875 0.375 0.35
3 0.375 0.35
3.125 0.375 0.35
3.25 0.375 0.35
3.375 0.375 0.35
3.5 0.375 0.35
3.625 0.375 0.35
3.75 0.375 0.35
3.875 0.375 0.35
4 0.375 0.35
0 0.5 0.35
0.125 0.5 0.35
0.25 0.5 0.35
0.375 0.5 0.35
0.5 0.5 0.35
0.625 0.5 0.35
0.75 0.5 0.35
0.875 0.5 0.35
1 0.5 0.35
1.125 0.5 0.35
1.25 0.5 0.35
1.375 0.5 0.35
1.5 0.5 0.35
1.625 0.5 0.35
1.75 0.5 0.35
1.875 0.5 0.35
2 0.5 0.35
2.125 0.5 0.35
2.25 0.5 0.35
2.375 0.5 0.35
2.5 0.5 0.35
2.625 0.5 0.35
2.75 0.5 0.35
2.875 0.5 0.35
3 0.5 0.35
3.125 0.5 0.35
3.25 0.5 0.35
3.375 0.5 0.35
3.5 0.5 0.35
3.625 0.5 0.35
3.75 0.5 0.35
3.875 0.5 0.35
4 0.5 0.35
0 0.625 0.35
0.125 0.625 0.35
0.25 0.625 0.35
0.375 0.625 0.35
0.5 0.625 0.35
0.625 0.625 0.35
0.75 0.625 0.35
0.875 0.625 0.35
1 0.625 0.35
1.125 0.625 0.35
1.25 0.625 0.35
1.375 0.625 0.35
1.5 0.625 0.35
1.625 0.625 0.35
1.75 0.625 0.35
1.875 0.625 0.35
2 0.625 0.35
2.125 0.625 0.35
2.25 0.625 0.35
2.375 0.625 0.35
2.5 0.625 0.35
2.625 0.625 0.35
2.75 0.625 0.35
2.875 0.625 0.35
3 0.625 0.35
3.125 0.625 0.35
3.25 0.625 0.35
3.375 0.625 0.35
3.5 0.625 0.35
3.625 0.625 0.35
3.75 0.625 0.35
3.875 0.625 0.35
4 0.625 0.35
0 0.75 0.35
0.125 0.75 0.35
0.25 0.75 0.35
0.375 0.75 0.35
0.5 0.75 0.35
0.625 0.75 0.35
0.75 0.75 0.35
0.875 0.75 0.35
1 0.75 0.35
1.125 0.75 0.35
1.25 0.75 0.35
1.375 0.75 0.35
1.5 0.75 0.35
1.625 0.75 0.35
1.75 0.75 0.35
1.875 0.75 0.35
2 0.75 0.35
2.125 0.75 0.35
2.25 0.75 0.35
2.375 0.75 0.35
2.5 0.75 0.35
2.625 0.75 0.35
2.75 0.75 0.35
2.875 0.75 0.35
3 0.75 0.35
3.125 0.75 0.35
3.25 0.75 0.35
3.375 0.75 0.35
3.5 0.75 0.35
3.625 0.75 0.35
3.75 0.75 0.35
3.875 0.75 0.35
4 0.75 0.35
0 0.875 0.35
0.125 0.875 0.35
0.25 0.875 0.35
0.375 0.875 0.35
0.5 0.875 0.35
0.625 0.875 0.35
0.75 0.875 0.35
0.875 0.875 0.35
1 0.875 0.35
1.125 0.875 0.35
1.25 0.875 0.35
1.375 0.875 0.35
1.5 0.875 0.35
1.625 0.875 0.35
1.75 0.875 0.35
1.875 0.875 0.35
2 0.875 0.35
2.125 0.875 0.35
2.25 0.875 0.35
2.375 0.875 0.35
2.5 0.875 0.35
2.625 0.875 0.35
2.75 0.875 0.35
2.875 0.875 0.35
3 0.875 0.35
3.125 0.875 0.35
3.25 0.875 0.35
3.375 0.875 0.35
3.5 0.875 0.35
3.625 0.875 0.35
3.75 0.875 0.35
3.875 0.875 0.35
4 0.875 0.35
0 1 0.35
0.125 1 0.35
0.25 1 0.35
0.375 1 0.35
0.5 1 0.35
0.625 1 0.35
0.75 1 0.35
0.875 1 0.35
1 1 0.35
1.125 1 0.35
1.25 1 0.35
1.375 1 0.35
1.5 1 0.35
1.625 1 0.35
1.75 1 0.35
1.875 1 0.35
2 1 0.35
2.125 1 0.35
2.25 1 0.35
2.375 1 0.35
2.5 1 0.35
2.625 1 0.35
2.75 1 0.35
2.875 1 0.35
3 1 0.35
3.125 1 0.35
3.25 1 0.35
3.375 1 0.35
3.5 1 0.35
3.625 1 0.35
3.75 1 0.35
3.875 1 0.35
4 1 0.35
0 0 0.475
0.125 0 0.475
0.25 0 0.475
0.375 0 0.475
0.5 0 0.475
0.625 0 0.475
0.75 0 0.475
0.875 0 0.475
1 0 0.475
1.125 0 0.475
1.25 0 0.475
1.375 0 0.475
1.5 0 0.475
1.625 0 0.475
1.75 0 0.475
1.875 0 0.475
2 0 0.475
2.125 0 0.475
2.25 0 0.475
2.375 0 0.475
2.5 0 0.475
2.625 0 0.475
2.75 0 0.475
2.875 0 0.475
3 0 0.475
3.125 0 0.475
3.25 0 0.475
3.375 0 0.475
3.5 0 0.475
3.625 0 0.475
3.75 0 0.475
3.875 0 0.475
4 0 0.475
0 0.125 0.475
0.125 0.125 0.475
0.25 0.125 0.475
0.375 0.125 0.475
0.5 0.125 0.475
0.625 0.125 0.475
0.75 0.125 0.475
0.875 0.125 0.475
1 0.125 0.475
1.125 0.125 0.475
1.25 0.125 0.475
1.375 0.125 0.475
1.5 0.125 0.475
1.625 0.125 0.475
1.75 0.125 0.475
1.875 0.125 0.475
2 0.125 0.475
2.125 0.125 0.475
2.25 0.125 0.475
2.375 0.125 0.475
2.5 0.125 0.475
2.625 0.125 0.475
2.75 0.125 0.475
2.875 0.125 0.475
3 0.125 0.475
3.125 0.125 0.475
3.25 0.125 0.475
3.375 0.125 0.475
3.5 0.125 0.475
3.625 0.125 0.475
3.75 0.125 0.475
3.875 0.125 0.475
4 0.125 0.475
0 0.25 0.475
0.125 0.25 0.475
0.25 0.25 0.475
0.375 0.25 0.475
0.5 0.25 0.475
0.625 0.25 0.475
0.75 0.25 0.475
0.875 0.25 0.475
1 0.25 0.475
1.125 0.25 0.475
1.25 0.25 0.475
1.375 0.25 0.475
1.5 0.25 0.475
1.625 0.25 0.475
1.75 0.25 0.475
1.875 0.25 0.475
2 0.25 0.475
2.125 0.25 0.475
2.25 0.25 0.475
2.375 0.25 0.475
2.5 0.25 0.475
2.625 0.25 0.475
2.75 0.25 0.475
2.875 0.25 0.475
3 0.25 0.475
3.125 0.25 0.475
3.25 0.25 0.475
3.375 0.25 0.475
3.5 0.25 0.475
3.625 0.25 0.475
3.75 0.25 0.475
3.875 0.25 0.475
4 0.25 0.475
0 0.375 0.475
0.125 0.375 0.475
0.25 0.375 0.475
0.375 0.375 0.475
0.5 0.375 0.475
0.625 0.375 0.475
0.75 0.375 0.475
0.875 0.375 0.475
1 0.375 0.475
1.125 0.375 0.475
1.25 0.375 0.475
1.375 0.375 0.475
1.5 0.375 0.475
1.625 0.375 0.475
1.75 0.375 0.475
1.875 0.375 0.475
2 0.375 0.475
2.125 0.375 0.475
2.25 0.375 0.475
2.375 0.375 0.475
2.5 0.375 0.475
2.625 0.375 0.475
2.75 0.375 0.475
2.875 0.375 0.475
3 0.375 0.475
3.125 0.375 0.475
3.25 0.375 0.475
3.375 0.375 0.475
3.5 0.375 0.475
3.625 0.375 0.475
3.75 0.375 0.475
3.875 0.375 0.475
4 0.375 0.475
0 0.5 0.475
0.125 0.5 0.475
0.25 0.5 0.475
0.375 0.5 0.475
0.5 0.5 0.475
0.625 0.5 0.475
0.75 0.5 0.475
0.875 0.5 0.475
1 0.5 0.475
1.125 0.5 0.475
1.25 0.5 0.475
1.375 0.5 0.475
1.5 0.5 0.475
1.625 0.5 0.475
1.75 0.5 0.475
1.875 0.5 0.475
2 0.5 0.475
2.125 0.5 0.475
2.25 0.5 0.475
2.375 0.5 0.475
2.5 0.5 0.475
2.625 0.5 0.475
2.75 0.5 0.475
2.875 0.5 0.475
3 0.5 0.475
3.125 0.5 0.475
3.25 0.5 0.475
3.375 0.5 0.475
3.5 0.5 0.475
3.625 0.5 0.475
3.75 0.5 0.475
3.875 0.5 0.475
4 0.5 0.475
0 0.625 0.475
0.125 0.625 0.475
0.25 0.625 0.475
0.375 0.625 0.475
0.5 0.625 0.475
0.625 0.625 0.475
0.75 0.625 0.475
0.875 0.625 0.475
1 0.625 0.475
1.125 0.625 0.475
1.25 0.625 0.475
1.375 0.625 0.475
1.5 0.625 0.475
1.625 0.625 0.475
1.75 0.625 0.475
1.875 0.625 0.475
2 0.625 0.475
2.125 0.625 0.475
2.25 0.625 0.475
2.375 0.625 0.475
2.5 0.625 0.475
2.625 0.625 0.475
2.75 0.625 0.475
2.875 0.625 0.475
3 0.625 0.475
3.125 0.625 0.475
3.25 0.625 0.475
3.375 0.625 0.475
3.5 0.625 0.475
3.625 0.625 0.475
3.75 0.625 0.475
3.875 0.625 0.475
4 0.625 0.475
0 0.75 0.475
0.125 0.75 0.475
0.25 0.75 0.475
0.375 0.75 0.475
0.5 0.75 0.475
0.625 0.75 0.475
0.75 0.75 0.475
0.875 0.75 0.475
1 0.75 0.475
1.125 0.75 0.475
1.25 0.75 0.475
1.375 0.75 0.475
1.5 0.75 0.475
1.625 0.75 0.475
1.75 0.75 0.475
1.875 0.75 0.475
2 0.75 0.475
2.125 0.75 0.475
2.25 0.75 0.475
2.375 0.75 0.475
2.5 0.75 0.475
2.625 0.75 0.475
2.75 0.75 0.475
2.875 0.75 0.475
3 0.75 0.475
3.125 0.75 0.475
3.25 0.75 0.475
3.375 0.75 0.475
3.5 0.75 0.475
3.625 0.75 0.475
3.75 0.75 0.475
3.875 0.75 0.475
4 0.75 0.475
0 0.875 0.475
0.125 0.875 0.475
0.25 0.875 0.475
0.375 0.875 0.475
0.5 0.875 0.475
0.625 0.875 0.475
0.75 0.875 0.475
0.875 0.875 0.475
1 0.875 0.475
1.125 0.875 0.475
1.25 0.875 0.475
1.375 0.875 0.475
1.5 0.875 0.475
1.625 0.875 0.475
1.75 0.875 0.475
1.875 0.875 0.475
2 0.875 0.475
2.125 0.875 0.475
2.25 0.875 0.475
2.375 0.875 0.475
2.5 0.875 0.475
2.625 0.875 0.475
2.75 0.875 0.475
2.875 0.875 0.475
3 0.875 0.475
3.125 0.875 0.475
3.25 0.875 0.475
3.375 0.875 0.475
3.5 0.875 0.475
3.625 0.875 0.475
3.75 0.875 0.475
3.875 0.875 0.475
4 0.875 0.475
0 1 0.475
0.125 1 0.475
0.25 1 0.475
0.375 1 0.475
0.5 1 0.475
0.625 1 0.475
0.75 1 0.475
0.875 1 0.475
1 1 0.475
1.125 1 0.475
1.25 1 0.475
1.375 1 0.475
1.5 1 0.475
1.625 1 0.475
1.75 1 0.475
1.875 1 0.475
2 1 0.475
2.125 1 0.475
2.25 1 0.475
2.375 1 0.475
2.5 1 0.475
2.625 1 0.475
2.75 1 0.475
2.875 1 0.475
3 1 0.475
3.125 1 0.475
3.25 1 0.475
3.375 1 0.475
3.5 1 0.475
3.625 1 0.475
3.75 1 0.475
3.875 1 0.475
4 1 0.475
0 0 0.6
0.125 0 0.6
0.25 0 0.6
0.375 0 0.6
0.5 0 0.6
0.625 0 0.6
0.75 0 0.6
0.875 0 0.6
1 0 0.6
1.125 0 0.6
1.25 0 0.6
1.375 0 0.6
1.5 0 0.6
1.625 0 0.6
1.75 0 0.6
1.875 0 0.6
2 0 0.6
2.125 0 0.6
2.25 0 0.6
2.375 0 0.6
2.5 0 0.6
2.625 0 0.6
2.75 0 0.6
2.875 0 0.6
3 0 0.6
3.125 0 0.6
3.25 0 0.6
3.375 0 0.6
3.5 0 0.6
3.625 0 0.6
3.75 0 0.6
3.875 0 0.6
4 0 0.6
0 0.125 0.6
0.125 0.125 0.6
0.25 0.125 0.6
0.375 0.125 0.6
0.5 0.125 0.6
0.625 0.125 0.6
0.75 0.125 0.6
0.875 0.125 0.6
1 0.125 0.6
1.125 0.125 0.6
1.25 0.125 0.6
1.375 0.125 0.6
1.5 0.125 0.6
1.625 0.125 0.6
1.75 0.125 0.6
1.875 0.125 0.6
2 0.125 0.6
2.125 0.125 0.6
2.25 0.125 0.6
2.375 0.125 0.6
2.5 0.125 0.6
2.625 0.125 0.6
2.75 0.125 0.6
2.875 0.125 0.6
3 0.125 0.6
3.125 0.125 0.6
3.25 0.125 0.6
3.375 0.125 0.6
3.5 0.125 0.6
3.625 0.125 0.6
3.75 0.125 0.6
3.875 0.125 0.6
4 0.125 0.6
0 0.25 0.6
0.125 0.25 0.6
0.25 0.25 0.6
0.375 0.25 0.6
0.5 0.25 0.6
0.625 0.25 0.6
0.75 0.25 0.6
0.875 0.25 0.6
1 0.25 0.6
1.125 0.25 0.6
1.25 0.25 0.6
1.375 0.25 0.6
1.5 0.25 0.6
1.625 0.25 0.6
1.75 0.25 0.6
1.875 0.25 0.6
2 0.25 0.6
2.125 0.25 0.6
2.25 0.25 0.6
2.375 0.25 0.6
2.5 0.25 0.6
2.625 0.25 0.6
2.75 0.25 0.6
2.875 0.25 0.6
3 0.25 0.6
3.125 0.25 0.6
3.25 0.25 0.6
3.375 0.25 0.6
3.5 0.25 0.6
3.625 0.25 0.6
3.75 0.25 0.6
3.875 0.25 0.6
4 0.25 0.6
0 0.375 0.6
0.125 0.375 0.6
0.25 0.375 0.6
0.375 0.375 0.6
0.5 0.375 0.6
0.625 0.375 0.6
0.75 0.375 0.6
0.875 0.375 0.6
1 0.375 0.6
1.125 0.375 0.6
1.25 0.375 0.6
1.375 0.375 0.6
1.5 0.375 0.6
1.625 0.375 0.6
1.75 0.375 0.6
1.875 0.375 0.6
2 0.375 0.6
2.125 0.375 0.6
2.25 0.375 0.6
2.375 0.375 0.6
2.5 0.375 0.6
2.625 0.375 0.6
2.75 0.375 0.6
2.875 0.375 0.6
3 0.375 0.6
3.125 0.375 0.6
3.25 0.375 0.6
3.375 0.375 0.6
3.5 0.375 0.6
3.625 0.375 0.6
3.75 0.375 0.6
3.875 0.375 0.6
4 0.375 0.6
0 0.5 0.6
0.125 0.5 0.6
0.25 0.5 0.6
0.375 0.5 0.6
0.5 0.5 0.6
0.625 0.5 0.6
0.75 0.5 0.6
0.875 0.5 0.6
1 0.5 0.6
1.125 0.5 0.6
1.25 0.5 0.6
1.375 0.5 0.6
1.5 0.5 0.6
1.625 0.5 0.6
1.75 0.5 0.6
1.875 0.5 0.6
2 0.5 0.6
2.125 0.5 0.6
2.25 0.5 0.6
2.375 0.5 0.6
2.5 0.5 0.6
2.625 0.5 0.6
2.75 0.5 0.6
2.875 0.5 0.6
3 0.5 0.6
3.125 0.5 0.6
3.25 0.5 0.6
3.375 0.5 0.6
3.5 0.5 0.6
3.625 0.5 0.6
3.75 0.5 0.6
3.875 0.5 0.6
4 0.5 0.6
0 0.625 0.6
0.125 0.625 0.6
0.25 0.625 0.6
0.375 0.625 0.6
0.5 0.625 0.6
0.625 0.625 0.6
0.75 0.625 0.6
0.875 0.625 0.6
1 0.625 0.6
1.125 0.625 0.6
1.25 0.625 0.6
1.375 0.625 0.6
1.5 0.625 0.6
1.625 0.625 0.6
1.75 0.625 0.6
1.875 0.625 0.6
2 0.625 0.6
2.125 0.625 0.6
2.25 0.625 0.6
2.375 0.625 0.6
2.5 0.625 0.6
2.625 0.625 0.6
2.75 0.625 0.6
2.875 0.625 0.6
3 0.625 0.6
3.125 0.625 0.6
3.25 0.625 0.6
3.375 0.625 0.6
3.5 0.625 0.6
3.625 0.625 0.6
3.75 0.625 0.6
3.875 0.625 0.6
4 0.625 0.6
0 0.75 0.6
0.125 0.75 0.6
0.25 0.75 0.6
0.375 0.75 0.6
0.5 0.75 0.6
0.625 0.75 0.6
0.75 0.75 0.6
0.875 0.75 0.6
1 0.75 0.6
1.125 0.75 0.6
1.25 0.75 0.6
1.375 0.75 0.6
1.5 0.75 0.6
1.625 0.75 0.6
1.75 0.75 0.6
1.875 0.75 0.6
2 0.75 0.6
2.125 0.75 0.6
2.25 0.75 0.6
2.375 0.75 0.6
2.5 0.75 0.6
2.625 0.75 0.6
2.75 0.75 0.6
2.875 0.75 0.6
3 0.75 0.6
3.125 0.75 0.6
3.25 0.75 0.6
3.375 0.75 0.6
3.5 0.75 0.6
3.625 0.75 0.6
3.75 0.75 0.6
3.875 0.75 0.6
4 0.75 0.6
0 0.875 0.6
0.125 0.875 0.6
0.25 0.875 0.6
0.375 0.875 0.6
0.5 0.875 0.6
0.625 0.875 0.6
0.75 0.875 0.6
0.875 0.875 0.6
1 0.875 0.6
1.125 0.875 0.6
1.25 0.875 0.6
1.375 0.875 0.6
1.5 0.875 0.6
1.625 0.875 0.6
1.75 0.875 0.6
1.875 0.875 0.6
2 0.875 0.6
2.125 0.875 0.6
2.25 0.875 0.6
2.375 0.875 0.6
2.5 0.875 0.6
2.625 0.875 0.6
2.75 0.875 0.6
2.875 0.875 0.6
3 0.875 0.6
3.125 0.875 0.6
3.25 0.875 0.6
3.375 0.875 0.6
3.5 0.875 0.6
3.625 0.875 0.6
3.75 0.875 0.6
3.875 0.875 0.6
4 0.875 0.6
0 1 0.6
0.125 1 0.6
0.25 1 0.6
0.375 1 0.6
0.5 1 0.6
0.625 1 0.6
0.75 1 0.6
0.875 1 0.6
1 1 0.6
1.125 1 0.6
1.25 1 0.6
1.375 1 0.6
1.5 1 0.6
1.625 1 0.6
1.75 1 0.6
1.875 1 0.6
2 1 0.6
2.125 1 0.6
2.25 1 0.6
2.375 1 0.6
2.5 1 0.6
2.625 1 0.6
2.75 1 0.6
2.875 1 0.6
3 1 0.6
3.125 1 0.6
3.25 1 0.6
3.375 1 0.6
3.5 1 0.6
3.625 1 0.6
3.75 1 0.6
3.875 1 0.6
4 1 0.6

CELLS 12289 49152
OFFSETS vtktypeint64
0 4 8 12 16 20 24 28 32 36 40 44 48 52 56 60 64 68 72 76 80 84 88 92 96 100 104 108 112 116 120 124 128 132 136 140 144 148 152 156 160 164 168 172 176 180 184 188 192 196 200 204 208 212 216 220 224 228 232 236 240 244 248 252 256 260 264 268 272 276 280 284 288 292 296 300 304 308 312 316 320 324 328 332 336 340 344 348 352 356 360 364 368 372 376 380 384 388 392 396 400 404 408 412 416 420 424 428 432 436 440 444 448 452 456 460 464 468 472 476 480 484 488 492 496 500 504 508 512 516 520 524 528 532 536 540 544 548 552 556 560 564 568 572 576 580 584 588 592 596 600 604 608 612 616 620 624 628 632 636 640 644 648 652 656 660 664 668 672 676 680 684 688 692 696 700 704 708 712 716 720 724 728 732 736 740 744 748 752 756 760 764 768 772 776 780 784 788 792 796 800 804 808 812 816 820 824 828 832 836 840 844 848 852 856 860 864 868 872 876 880 884 888 892 896 900 904 908 912 916 920 924 928 932 936 940 944 948 952 956 960 964 968 972 976 980 984 988 992 996 1000 1004 1008 1012 1016 1020 1024 1028 1032 1036 1040 1044 1048 1052 1056 1060 1064 1068 1072 1076 1080 1084 1088 1092 1096 1100 1104 1108 1112 1116 1120 1124 1128 1132 1136 1140 1144 1148 1152 1156 1160 1164 1168 1172 1176 1180 1184 1188 1192 1196 1200 1204 1208 1212 1216 1220 1224 1228 1232 1236 1240 1244 1248 1252 1256 1260 1264 1268 1272 1276 1280 1284 1288 1292 1296 1300 1304 1308 1312 1316 1320 1324 1328 1332 1336 1340 1344 1348 1352 1356 1360 1364 1368 1372 1376 1380 1384 1388 1392 1396 1400 1404 1408 1412 1416 1420 1424 1428 1432 1436 1440 1444 1448 1452 1456 1460 1464 1468 1472 1476 1480 1484 1488 1492 1496 1500 1504 1508 1512 1516 1520 1524 1528 1532 1536 1540 1544 1548 1552 1556 1560 1564 1568 1572 1576 1580 1584 1588 1592 1596 1600 1604 1608 1612 1616 1620 1624 1628 1632 1636 1640 1644 1648 1652 1656 1660 1664 1668 1672 1676 1680 1684 1688 1692 1696 1700 1704 1708 1712 1716 1720 1724 1728 1732 1736 1740 1744 1748 1752 1756 1760 1764 1768 1772 1776 1780 1784 1788 1792 1796 1800 1804 1808 1812 1816 1820 1824 1828 1832 1836 1840 1844 1848 1852 1856 1860 1864 1868 1872 1876 1880 1884 1888 1892 1896 1900 1904 1908 1912 1916 1920 1924 1928 1932 1936 1940 1944 1948 1952 1956 1960 1964 1968 1972 1976 1980 1984 1988 1992 1996 2000 2004 2008 2012 2016 2020 2024 2028 2032 2036 2040 2044 2048 2052 2056 2060 2064 2068 2072 2076 2080 2084 2088 2092 2096 2100 2104 2108 2112 2116 2120 2124 2128 2132 2136 2140 2144 2148 2152 2156 2160 2164 2168 2172 2176 2180 2184 2188 2192 2196 2200 2204 2208 2212 2216 2220 2224 2228 2232 2236 2240 2244 2248 2252 2256 2260 2264 2268 2272 2276 2280 2284 2288 2292 2296 2300 2304 2308 2312 2316 2320 2324 2328 2332 2336 2340 2344 2348 2352 2356 2360 2364 2368 2372 2376 2380 2384 2388 2392 2396 2400 2404 2408 2412 2416 2420 2424 2428 2432 2436 2440 2444 2448 2452 2456 2460 2464 2468 2472 2476 2480 2484 2488 2492 2496 2500 2504 2508 2512 2516 2520 2524 2528 2532 2536 2540 2544 2548 2552 2556 2560 2564 2568 2572 2576 2580 2584 2588 2592 2596 2600 2604 2608 2612 2616 2620 2624 2628 2632 2636 2640 2644 2648 2652 2656 2660 2664 2668 2672 2676 2680 2684 2688 2692 2696 2700 2704 2708 2712 2716 2720 2724 2728 2732 2736 2740 2744 2748 2752 2756 2760 2764 2768 2772 2776 2780 2784 2788 2792 2796 2800 2804 2808 2812 2816 2820 2824 2828 2832 2836 2840 2844 2848 2852 2856 2860 2864 2868 2872 2876 2880 2884 2888 2892 2896 2900 2904 2908 2912 2916 2920 2924 2928 2932 2936 2940 2944 2948 2952 2956 2960 2964 2968 2972 2976 2980 2984 2988 2992 2996 3000 3004 3008 3012 3016 3020 3024 3028 3032 3036 3040 3044 3048 3052 3056 3060 3064 3068 3072 3076 3080 3084 3088 3092 3096 3100 3104 3108 3112 3116 3120 3124 3128 3132 3136 3140 3144 3148 3152 3156 3160 3164 3168 3172 3176 3180 3184 3188 3192 3196 3200 3204 3208 3212 3216 3220 3224 3228 3232 3236 3240 3244 3248 3252 3256 3260 3264 3268 3272 3276 3280 3284 3288 3292 3296 3300 3304 3308 3312 3316 3320 3324 3328 3332 3336 3340 3344 3348 3352 3356 3360 3364 3368 3372 3376 3380 3384 3388 3392 3396 3400 3404 3408 3412 3416 3420 3424 3428 3432 3436 3440 3444 3448 3452 3456 3460 3464 3468 3472 3476 3480 3484 3488 3492 3496 3500 3504 3508 3512 3516 3520 3524 3528 3532 3536 3540 3544 3548 3552 3556 3560 3564 3568 3572 3576 3580 3584 3588 3592 3596 3600 3604 3608 3612 3616 3620 3624 3628 3632 3636 3640 3644 3648 3652 3656 3660 3664 3668 3672 3676 3680 3684 3688 3692 3696 3700 3704 3708 3712 3716 3720 3724 3728 3732 3736 3740 3744 3748 3752 3756 3760 3764 3768 3772 3776 3780 3784 3788 3792 3796 3800 3804 3808 3812 3816 3820 3824 3828 3832 3836 3840 3844 3848 3852 3856 3860 3864 3868 3872 3876 3880 3884 3888 3892 3896 3900 3904 3908 3912 3916 3920 3924 3928 3932 3936 3940 3944 3948 3952 3956 3960 3964 3968 3972 3976 3980 3984 3988 3992 3996 4000 4004 4008 4012 4016 4020 4024 4028 4032 4036 4040 4044 4048 4052 4056 4060 4064 4068 4072 4076 4080 4084 4088 4092 4096 4100 4104 4108 4112 4116 4120 4124 4128 4132 4136 4140 4144 4148 4152 4156 4160 4164 4168 4172 4176 4180 4184 4188 4192 4196 4200 4204 4208 4212 4216 4220 4224 4228 4232 4236 4240 4244 4248 4252 4256 4260 4264 4268 4272 4276 4280 4284 4288 4292 4296 4300 4304 4308 4312 4316 4320 4324 4328 4332 4336 4340 4344 4348 4352 4356 4360 4364 4368 4372 4376 4380 4384 4388 4392 4396 4400 4404 4408 4412 4416 4420 4424 4428 4432 4436 4440 4444 4448 4452 4456 4460 4464 4468 4472 4476 4480 4484 4488 4492 4496 4500 4504 4508 4512 4516 4520 4524 4528 4532 4536 4540 4544 4548 4552 4556 4560 4564 4568 4572 4576 4580 4584 4588 4592 4596 4600 4604 4608 4612 4616 4620 4624 4628 4632 4636 4640 4644 4648 4652 4656 4660 4664 4668 4672 4676 4680 4684 4688 4692 4696 4700 4704 4708 4712 4716 4720 4724 4728 4732 4736 4740 4744 4748 4752 4756 4760 4764 4768 4772 4776 4780 4784 4788 4792 4796 4800 4804 4808 4812 4816 4820 4824 4828 4832 4836 4840 4844 4848 4852 4856 4860 4864 4868 4872 4876 4880 4884 4888 4892 4896 4900 4904 4908 4912 4916 4920 4924 4928 4932 4936 4940 4944 4948 4952 4956 4960 4964 4968 4972 4976 4980 4984 4988 4992 4996 5000 5004 5008 5012 5016 5020 5024 5028 5032 5036 5040 5044 5048 5052 5056 5060 5064 5068 5072 5076 5080 5084 5088 5092 5096 5100 5104 5108 5112 5116 5120 5124 5128 5132 5136 5140 5144 5148 5152 5156 5160 5164 5168 5172 5176 5180 5184 5188 5192 5196 5200 5204 5208 5212 5216 5220 5224 5228 5232 5236 5240 5244 5248 5252 5256 5260 5264 5268 5272 5276 5280 5284 5288 5292 5296 5300 5304 5308 5312 5316 5320 5324 5328 5332 5336 5340 5344 5348 5352 5356 5360 5364 5368 5372 5376 5380 5384 5388 5392 5396 5400 5404 5408 5412 5416 5420 5424 5428 5432 5436 5440 5444 5448 5452 5456 5460 5464 5468 5472 5476 5480 5484 5488 5492 5496 5500 5504 5508 5512 5516 5520 5524 5528 5532 5536 5540 5544 5548 5552 5556 5560 5564 5568 5572 5576 5580 5584 5588 5592 5596 5600 5604 5608 5612 5616 5620 5624 5628 5632 5636 5640 5644 5648 5652 5656 5660 5664 5668 5672 5676 5680 5684 5688 5692 5696 5700 5704 5708 5712 5716 5720 5724 5728 5732 5736 5740 5744 5748 5752 5756 5760 5764 5768 5772 5776 5780 5784 5788 5792 5796 5800 5804 5808 5812 5816 5820 5824 5828 5832 5836 5840 5844 5848 5852 5856 5860 5864 5868 5872 5876 5880 5884 5888 5892 5896 5900 5904 5908 5912 5916 5920 5924 5928 5932 5936 5940 5944 5948 5952 5956 5960 5964 5968 5972 5976 5980 5984 5988 5992 5996 6000 6004 6008 6012 6016 6020 6024 6028 6032 6036 6040 6044 6048 6052 6056 6060 6064 6068 6072 6076 6080 6084 6088 6092 6096 6100 6104 6108 6112 6116 6120 6124 6128 6132 6136 6140 6144 6148 6152 6156 6160 6164 6168 6172 6176 6180 6184 6188 6192 6196 6200 6204 6208 6212 6216 6220 6224 6228 6232 6236 6240 6244 6248 6252 6256 6260 6264 6268 6272 6276 6280 6284 6288 6292 6296 6300 6304 6308 6312 6316 6320 6324 6328 6332 6336 6340 6344 6348 6352 6356 6360 6364 6368 6372 6376 6380 6384 6388 6392 6396 6400 6404 6408 6412 6416 6420 6424 6428 6432 6436 6440 6444 6448 6452 6456 6460 6464 6468 6472 6476 6480 6484 6488 6492 6496 6500 6504 6508 6512 6516 6520 6524 6528 6532 6536 6540 6544 6548 6552 6556 6560 6564 6568 6572 6576 6580 6584 6588 6592 6596 6600 6604 6608 6612 6616 6620 6624 6628 6632 6636 6640 6644 6648 6652 6656 6660 6664 6668 6672 6676 6680 6684 6688 6692 6696 6700 6704 6708 6712 6716 6720 6724 6728 6732 6736 6740 6744 6748 6752 6756 6760 6764 6768 6772 6776 6780 6784 6788 6792 6796 6800 6804 6808 6812 6816 6820 6824 6828 6832 6836 6840 6844 6848 6852 6856 6860 6864 6868 6872 6876 6880 6884 6888 6892 6896 6900 6904 6908 6912 6916 6920 6924 6928 6932 6936 6940 6944 6948 6952 6956 6960 6964 6968 6972 6976 6980 6984 6988 6992 6996 7000 7004 7008 7012 7016 7020 7024 7028 7032 7036 7040 7044 7048 7052 7056 7060 7064 7068 7072 7076 7080 7084 7088 7092 7096 7100 7104 7108 7112 7116 7120 7124 7128 7132 7136 7140 7144 7148 7152 7156 7160 7164 7168 7172 7176 7180 7184 7188 7192 7196 7200 7204 7208 7212 7216 7220 7224 7228 7232 7236 7240 7244 7248 7252 7256 7260 7264 7268 7272 7276 7280 7284 7288 7292 7296 7300 7304 7308 7312 7316 7320 7324 7328 7332 7336 7340 7344 7348 7352 7356 7360 7364 7368 7372 7376 7380 7384 7388 7392 7396 7400 7404 7408 7412 7416 7420 7424 7428 7432 7436 7440 7444 7448 7452 7456 7460 7464 7468 7472 7476 7480 7484 7488 7492 7496 7500 7504 7508 7512 7516 7520 7524 7528 7532 7536 7540 7544 7548 7552 7556 7560 7564 7568 7572 7576 7580 7584 7588 7592 7596 7600 7604 7608 7612 7616 7620 7624 7628 7632 7636 7640 7644 7648 7652 7656 7660 7664 7668 7672 7676 7680 7684 7688 7692 7696 7700 7704 7708 7712 7716 7720 7724 7728 7732 7736 7740 7744 7748 7752 7756 7760 7764 7768 7772 7776 7780 7784 7788 7792 7796 7800 7804 7808 7812 7816 7820 7824 7828 7832 7836 7840 7844 7848 7852 7856 7860 7864 7868 7872 7876 7880 7884 7888 7892 7896 7900 7904 7908 7912 7916 7920 7924 7928 7932 7936 7940 7944 7948 7952 7956 7960 7964 7968 7972 7976 7980 7984 7988 7992 7996 8000 8004 8008 8012 8016 8020 8024 8028 8032 8036 8040 8044 8048 8052 8056 8060 8064 8068 8072 8076 8080 8084 8088 8092 8096 8100 8104 8108 8112 8116 8120 8124 8128 8132 8136 8140 8144 8148 8152 8156 8160 8164 8168 8172 8176 8180 8184 8188 8192 8196 8200 8204 8208 8212 8216 8220 8224 8228 8232 8236 8240 8244 8248 8252 8256 8260 8264 8268 8272 8276 8280 8284 8288 8292 8296 8300 8304 8308 8312 8316 8320 8324 8328 8332 8336 8340 8344 8348 8352 8356 8360 8364 8368 8372 8376 8380 8384 8388 8392 8396 8400 8404 8408 8412 8416 8420 8424 8428 8432 8436 8440 8444 8448 8452 8456 8460 8464 8468 8472 8476 8480 8484 8488 8492 8496 8500 8504 8508 8512 8516 8520 8524 8528 8532 8536 8540 8544 8548 8552 8556 8560 8564 8568 8572 8576 8580 8584 8588 8592 8596 8600 8604 8608 8612 8616 8620 8624 8628 8632 8636 8640 8644 8648 8652 8656 8660 8664 8668 8672 8676 8680 8684 8688 8692 8696 8700 8704 8708 8712 8716 8720 8724 8728 8732 8736 8740 8744 8748 8752 8756 8760 8764 8768 8772 8776 8780 8784 8788 8792 8796 8800 8804 8808 8812 8816 8820 8824 8828 8832 8836 8840 8844 8848 8852 8856 8860 8864 8868 8872 8876 8880 8884 8888 8892 8896 8900 8904 8908 8912 8916 8920 8924 8928 8932 8936 8940 8944 8948 8952 8956 8960 8964 8968 8972 8976 8980 8984 8988 8992 8996 9000 9004 9008 9012 9016 9020 9024 9028 9032 9036 9040 9044 9048 9052 9056 9060 9064 9068 9072 9076 9080 9084 9088 9092 9096 9100 9104 9108 9112 9116 9120 9124 9128 9132 9136 9140 9144 9148 9152 9156 9160 9164 9168 9172 9176 9180 9184 9188 9192 9196 9200 9204 9208 9212 9216 9220 9224 9228 9232 9236 9240 9244 9248 9252 9256 9260 9264 9268 9272 9276 9280 9284 9288 9292 9296 9300 9304 9308 9312 9316 9320 9324 9328 9332 9336 9340 9344 9348 9352 9356 9360 9364 9368 9372 9376 9380 9384 9388 9392 9396 9400 9404 9408 9412 9416 9420 9424 9428 9432 9436 9440 9444 9448 9452 9456 9460 9464 9468 9472 9476 9480 9484 9488 9492 9496 9500 9504 9508 9512 9516 9520 9524 9528 9532 9536 9540 9544 9548 9552 9556 9560 9564 9568 9572 9576 9580 9584 9588 9592 9596 9600 9604 9608 9612 9616 9620 9624 9628 9632 9636 9640 9644 9648 9652 9656 9660 9664 9668 9672 9676 9680 9684 9688 9692 9696 9700 9704 9708 9712 9716 9720 9724 9728 9732 9736 9740 9744 9748 9752 9756 9760 9764 9768 9772 9776 9780 9784 9788 9792 9796 9800 9804 9808 9812 9816 9820 9824 9828 9832 9836 9840 9844 9848 9852 9856 9860 9864 9868 9872 9876 9880 9884 9888 9892 9896 9900 9904 9908 9912 9916 9920 9924 9928 9932 9936 9940 9944 9948 9952 9956 9960 9964 9968 9972 9976 9980 9984 9988 9992 9996 10000 10004 10008 10012 10016 10020 10024 10028 10032 10036 10040 10044 10048 10052 10056 10060 10064 10068 10072 10076 10080 10084 10088 10092 10096 10100 10104 10108 10112 10116 10120 10124 10128 10132 10136 10140 10144 10148 10152 10156 10160 10164 10168 10172 10176 10180 10184 10188 10192 10196 10200 10204 10208 10212 10216 10220 10224 10228 10232 10236 10240 10244 10248 10252 10256 10260 10264 10268 10272 10276 10280 10284 10288 10292 10296 10300 10304 10308 10312 10316 10320 10324 10328 10332 10336 10340 10344 10348 10352 10356 10360 10364 10368 10372 10376 10380 10384 10388 10392 10396 10400 10404 10408 10412 10416 10420 10424 10428 10432 10436 10440 10444 10448 10452 10456 10460 10464 10468 10472 10476 10480 10484 10488 10492 10496 10500 10504 10508 10512 10516 10520 10524 10528 10532 10536 10540 10544 10548 10552 10556 10560 10564 10568 10572 10576 10580 10584 10588 10592 10596 10600 10604 10608 10612 10616 10620 10624 10628 10632 10636 10640 10644 10648 10652 10656 10660 10664 10668 10672 10676 10680 10684 10688 10692 10696 10700 10704 10708 10712 10716 10720 10724 10728 10732 10736 10740 10744 10748 10752 10756 10760 10764 10768 10772 10776 10780 10784 10788 10792 10796 10800 10804 10808 10812 10816 10820 10824 10828 10832 10836 10840 10844 10848 10852 10856 10860 10864 10868 10872 10876 10880 10884 10888 10892 10896 10900 10904 10908 10912 10916 10920 10924 10928 10932 10936 10940 10944 10948 10952 10956 10960 10964 10968 10972 10976 10980 10984 10988 10992 10996 11000 11004 11008 11012 11016 11020 11024 11028 11032 11036 11040 11044 11048 11052 11056 11060 11064 11068 11072 11076 11080 11084 11088 11092 11096 11100 11104 11108 11112 11116 11120 11124 11128 11132 11136 11140 11144 11148 11152 11156 11160 11164 11168 11172 11176 11180 11184 11188 11192 11196 11200 11204 11208 11212 11216 11220 11224 11228 11232 11236 11240 11244 11248 11252 11256 11260 11264 11268 11272 11276 11280 11284 11288 11292 11296 11300 11304 11308 11312 11316 11320 11324 11328 11332 11336 11340 11344 11348 11352 11356 11360 11364 11368 11372 11376 11380 11384 11388 11392 11396 11400 11404 11408 11412 11416 11420 11424 11428 11432 11436 11440 11444 11448 11452 11456 11460 11464 11468 11472 11476 11480 11484 11488 11492 11496 11500 11504 11508 11512 11516 11520 11524 11528 11532 11536 11540 11544 11548 11552 11556 11560 11564 11568 11572 11576 11580 11584 11588 11592 11596 11600 11604 11608 11612 11616 11620 11624 11628 11632 11636 11640 11644 11648 11652 11656 11660 11664 11668 11672 11676 11680 11684 11688 11692 11696 11700 11704 11708 11712 11716 11720 11724 11728 11732 11736 11740 11744 11748 11752 11756 11760 11764 11768 11772 11776 11780 11784 11788 11792 11796 11800 11804 11808 11812 11816 11820 11824 11828 11832 11836 11840 11844 11848 11852 11856 11860 11864 11868 11872 11876 11880 11884 11888 11892 11896 11900 11904 11908 11912 11916 11920 11924 11928 11932 11936 11940 11944 11948 11952 11956 11960 11964 11968 11972 11976 11980 11984 11988 11992 11996 12000 12004 12008 12012 12016 12020 12024 12028 12032 12036 12040 12044 12048 12052 12056 12060 12064 12068 12072 12076 12080 12084 12088 12092 12096 12100 12104 12108 12112 12116 12120 12124 12128 12132 12136 12140 12144 12148 12152 12156 12160 12164 12168 12172 12176 12180 12184 12188 12192 12196 12200 12204 12208 12212 12216 12220 12224 12228 12232 12236 12240 12244 12248 12252 12256 12260 12264 12268 12272 12276 12280 12284 12288 12292 12296 12300 12304 12308 12312 12316 12320 12324 12328 12332 12336 12340 12344 12348 12352 12356 12360 12364 12368 12372 12376 12380 12384 12388 12392 12396 12400 12404 12408 12412 12416 12420 12424 12428 12432 12436 12440 12444 12448 12452 12456 12460 12464 12468 12472 12476 12480 12484 12488 12492 12496 12500 12504 12508 12512 12516 12520 12524 12528 12532 12536 12540 12544 12548 12552 12556 12560 12564 12568 12572 12576 12580 12584 12588 12592 12596 12600 12604 12608 12612 12616 12620 12624 12628 12632 12636 12640 12644 12648 12652 12656 12660 12664 12668 12672 12676 12680 12684 12688 12692 12696 12700 12704 12708 12712 12716 12720 12724 12728 12732 12736 12740 12744 12748 12752 12756 12760 12764 12768 12772 12776 12780 12784 12788 12792 12796 12800 12804 12808 12812 12816 12820 12824 12828 12832 12836 12840 12844 12848 12852 12856 12860 12864 12868 12872 12876 12880 12884 12888 12892 12896 12900 12904 12908 12912 12916 12920 12924 12928 12932 12936 12940 12944 12948 12952 12956 12960 12964 12968 12972 12976 12980 12984 12988 12992 12996 13000 13004 13008 13012 13016 13020 13024 13028 13032 13036 13040 13044 13048 13052 13056 13060 13064 13068 13072 13076 13080 13084 13088 13092 13096 13100 13104 13108 13112 13116 13120 13124 13128 13132 13136 13140 13144 13148 13152 13156 13160 13164 13168 13172 13176 13180 13184 13188 13192 13196 13200 13204 13208 13212 13216 13220 13224 13228 13232 13236 13240 13244 13248 13252 13256 13260 13264 13268 13272 13276 13280 13284 13288 13292 13296 13300 13304 13308 13312 13316 13320 13324 13328 13332 13336 13340 13344 13348 13352 13356 13360 13364 13368 13372 13376 13380 13384 13388 13392 13396 13400 13404 13408 13412 13416 13420 13424 13428 13432 13436 13440 13444 13448 13452 13456 13460 13464 13468 13472 13476 13480 13484 13488 13492 13496 13500 13504 13508 13512 13516 13520 13524 13528 13532 13536 13540 13544 13548 13552 13556 13560 13564 13568 13572 13576 13580 13584 13588 13592 13596 13600 13604 13608 13612 13616 13620 13624 13628 13632 13636 13640 13644 13648 13652 13656 13660 13664 13668 13672 13676 13680 13684 13688 13692 13696 13700 13704 13708 13712 13716 13720 13724 13728 13732 13736 13740 13744 13748 13752 13756 13760 13764 13768 13772 13776 13780 13784 13788 13792 13796 13800 13804 13808 13812 13816 13820 13824 13828 13832 13836 13840 13844 13848 13852 13856 13860 13864 13868 13872 13876 13880 13884 13888 13892 13896 13900 13904 13908 13912 13916 13920 13924 13928 13932 13936 13940 13944 13948 13952 13956 13960 13964 13968 13972 13976 13980 13984 13988 13992 13996 14000 14004 14008 14012 14016 14020 14024 14028 14032 14036 14040 14044 14048 14052 14056 14060 14064 14068 14072 14076 14080 14084 14088 14092 14096 14100 14104 14108 14112 14116 14120 14124 14128 14132 14136 14140 14144 14148 14152 14156 14160 14164 14168 14172 14176 14180 14184 14188 14192 14196 14200 14204 14208 14212 14216 14220 14224 14228 14232 14236 14240 14244 14248 14252 14256 14260 14264 14268 14272 14276 14280 14284 14288 14292 14296 14300 14304 14308 14312 14316 14320 14324 14328 14332 14336 14340 14344 14348 14352 14356 14360 14364 14368 14372 14376 14380 14384 14388 14392 14396 14400 14404 14408 14412 14416 14420 14424 14428 14432 14436 14440 14444 14448 14452 14456 14460 14464 14468 14472 14476 14480 14484 14488 14492 14496 14500 14504 14508 14512 14516 14520 14524 14528 14532 14536 14540 14544 14548 14552 14556 14560 14564 14568 14572 14576 14580 14584 14588 14592 14596 14600 14604 14608 14612 14616 14620 14624 14628 14632 14636 14640 14644 14648 14652 14656 14660 14664 14668 14672 14676 14680 14684 14688 14692 14696 14700 14704 14708 14712 14716 14720 14724 14728 14732 14736 14740 14744 14748 14752 14756 14760 14764 14768 14772 14776 14780 14784 14788 14792 14796 14800 14804 14808 14812 14816 14820 14824 14828 14832 14836 14840 14844 14848 14852 14856 14860 14864 14868 14872 14876 14880 14884 14888 14892 14896 14900 14904 14908 14912 14916 14920 14924 14928 14932 14936 14940 14944 14948 14952 14956 14960 14964 14968 14972 14976 14980 14984 14988 14992 14996 15000 15004 15008 15012 15016 15020 15024 15028 15032 15036 15040 15044 15048 15052 15056 15060 15064 15068 15072 15076 15080 15084 15088 15092 15096 15100 15104 15108 15112 15116 15120 15124 15128 15132 15136 15140 15144 15148 15152 15156 15160 15164 15168 15172 15176 15180 15184 15188 15192 15196 15200 15204 15208 15212 15216 15220 15224 15228 15232 15236 15240 15244 15248 15252 15256 15260 15264 15268 15272 15276 15280 15284 15288 15292 15296 15300 15304 15308 15312 15316 15320 15324 15328 15332 15336 15340 15344 15348 15352 15356 15360 15364 15368 15372 15376 15380 15384 15388 15392 15396 15400 15404 15408 15412 15416 15420 15424 15428 15432 15436 15440 15444 15448 15452 15456 15460 15464 15468 15472 15476 15480 15484 15488 15492 15496 15500 15504 15508 15512 15516 15520 15524 15528 15532 15536 15540 15544 15548 15552 15556 15560 15564 15568 15572 15576 15580 15584 15588 15592 15596 15600 15604 15608 15612 15616 15620 15624 15628 15632 15636 15640 15644 15648 15652 15656 15660 15664 15668 15672 15676 15680 15684 15688 15692 15696 15700 15704 15708 15712 15716 15720 15724 15728 15732 15736 15740 15744 15748 15752 15756 15760 15764 15768 15772 15776 15780 15784 15788 15792 15796 15800 15804 15808 15812 15816 15820 15824 15828 15832 15836 15840 15844 15848 15852 15856 15860 15864 15868 15872 15876 15880 15884 15888 15892 15896 15900 15904 15908 15912 15916 15920 15924 15928 15932 15936 15940 15944 15948 15952 15956 15960 15964 15968 15972 15976 15980 15984 15988 15992 15996 16000 16004 16008 16012 16016 16020 16024 16028 16032 16036 16040 16044 16048 16052 16056 16060 16064 16068 16072 16076 16080 16084 16088 16092 16096 16100 16104 16108 16112 16116 16120 16124 16128 16132 16136 16140 16144 16148 16152 16156 16160 16164 16168 16172 16176 16180 16184 16188 16192 16196 16200 16204 16208 16212 16216 16220 16224 16228 16232 16236 16240 16244 16248 16252 16256 16260 16264 16268 16272 16276 16280 16284 16288 16292 16296 16300 16304 16308 16312 16316 16320 16324 16328 16332 16336 16340 16344 16348 16352 16356 16360 16364 16368 16372 16376 16380 16384 16388 16392 16396 16400 16404 16408 16412 16416 16420 16424 16428 16432 16436 16440 16444 16448 16452 16456 16460 16464 16468 16472 16476 16480 16484 16488 16492 16496 16500 16504 16508 16512 16516 16520 16524 16528 16532 16536 16540 16544 16548 16552 16556 16560 16564 16568 16572 16576 16580 16584 16588 16592 16596 16600 16604 16608 16612 16616 16620 16624 16628 16632 16636 16640 16644 16648 16652 16656 16660 16664 16668 16672 16676 16680 16684 16688 16692 16696 16700 16704 16708 16712 16716 16720 16724 16728 16732 16736 16740 16744 16748 16752 16756 16760 16764 16768 16772 16776 16780 16784 16788 16792 16796 16800 16804 16808 16812 16816 16820 16824 16828 16832 16836 16840 16844 16848 16852 16856 16860 16864 16868 16872 16876 16880 16884 16888 16892 16896 16900 16904 16908 16912 16916 16920 16924 16928 16932 16936 16940 16944 16948 16952 16956 16960 16964 16968 16972 16976 16980 16984 16988 16992 16996 17000 17004 17008 17012 17016 17020 17024 17028 17032 17036 17040 17044 17048 17052 17056 17060 17064 17068 17072 17076 17080 17084 17088 17092 17096 17100 17104 17108 17112 17116 17120 17124 17128 17132 17136 17140 17144 17148 17152 17156 17160 17164 17168 17172 17176 17180 17184 17188 17192 17196 17200 17204 17208 17212 17216 17220 17224 17228 17232 17236 17240 17244 17248 17252 17256 17260 17264 17268 17272 17276 17280 17284 17288 17292 17296 17300 17304 17308 17312 17316 17320 17324 17328 17332 17336 17340 17344 17348 17352 17356 17360 17364 17368 17372 17376 17380 17384 17388 17392 17396 17400 17404 17408 17412 17416 17420 17424 17428 17432 17436 17440 17444 17448 17452 17456 17460 17464 17468 17472 17476 17480 17484 17488 17492 17496 17500 17504 17508 17512 17516 17520 17524 17528 17532 17536 17540 17544 17548 17552 17556 17560 17564 17568 17572 17576 17580 17584 17588 17592 17596 17600 17604 17608 17612 17616 17620 17624 17628 17632 17636 17640 17644 17648 17652 17656 17660 17664 17668 17672 17676 17680 17684 17688 17692 17696 17700 17704 17708 17712 17716 17720 17724 17728 17732 17736 17740 17744 17748 17752 17756 17760 17764 17768 17772 17776 17780 17784 17788 17792 17796 17800 17804 17808 17812 17816 17820 17824 17828 17832 17836 17840 17844 17848 17852 17856 17860 17864 17868 17872 17876 17880 17884 17888 17892 17896 17900 17904 17908 17912 17916 17920 17924 17928 17932 17936 17940 17944 17948 17952 17956 17960 17964 17968 17972 17976 17980 17984 17988 17992 17996 18000 18004 18008 18012 18016 18020 18024 18028 18032 18036 18040 18044 18048 18052 18056 18060 18064 18068 18072 18076 18080 18084 18088 18092 18096 18100 18104 18108 18112 18116 18120 18124 18128 18132 18136 18140 18144 18148 18152 18156 18160 18164 18168 18172 18176 18180 18184 18188 18192 18196 18200 18204 18208 18212 18216 18220 18224 18228 18232 18236 18240 18244 18248 18252 18256 18260 18264 18268 18272 18276 18280 18284 18288 18292 18296 18300 18304 18308 18312 18316 18320 18324 18328 18332 18336 18340 18344 18348 18352 18356 18360 18364 18368 18372 18376 18380 18384 18388 18392 18396 18400 18404 18408 18412 18416 18420 18424 18428 18432 18436 18440 18444 18448 18452 18456 18460 18464 18468 18472 18476 18480 18484 18488 18492 18496 18500 18504 18508 18512 18516 18520 18524 18528 18532 18536 18540 18544 18548 18552 18556 18560 18564 18568 18572 18576 18580 18584 18588 18592 18596 18600 18604 18608 18612 18616 18620 18624 18628 18632 18636 18640 18644 18648 18652 18656 18660 18664 18668 18672 18676 18680 18684 18688 18692 18696 18700 18704 18708 18712 18716 18720 18724 18728 18732 18736 18740 18744 18748 18752 18756 18760 18764 18768 18772 18776 18780 18784 18788 18792 18796 18800 18804 18808 18812 18816 18820 18824 18828 18832 18836 18840 18844 18848 18852 18856 18860 18864 18868 18872 18876 18880 18884 18888 18892 18896 18900 18904 18908 18912 18916 18920 18924 18928 18932 18936 18940 18944 18948 18952 18956 18960 18964 18968 18972 18976 18980 18984 18988 18992 18996 19000 19004 19008 19012 19016 19020 19024 19028 19032 19036 19040 19044 19048 19052 19056 19060 19064 19068 19072 19076 19080 19084 19088 19092 19096 19100 19104 19108 19112 19116 19120 19124 19128 19132 19136 19140 19144 19148 19152 19156 19160 19164 19168 19172 19176 19180 19184 19188 19192 19196 19200 19204 19208 19212 19216 19220 19224 19228 19232 19236 19240 19244 19248 19252 19256 19260 19264 19268 19272 19276 19280 19284 19288 19292 19296 19300 19304 19308 19312 19316 19320 19324 19328 19332 19336 19340 19344 19348 19352 19356 19360 19364 19368 19372 19376 19380 19384 19388 19392 19396 19400 19404 19408 19412 19416 19420 19424 19428 19432 19436 19440 19444 19448 19452 19456 19460 19464 19468 19472 19476 19480 19484 19488 19492 19496 19500 19504 19508 19512 19516 19520 19524 19528 19532 19536 19540 19544 19548 19552 19556 19560 19564 19568 19572 19576 19580 19584 19588 19592 19596 19600 19604 19608 19612 19616 19620 19624 19628 19632 19636 19640 19644 19648 19652 19656 19660 19664 19668 19672 19676 19680 19684 19688 19692 19696 19700 19704 19708 19712 19716 19720 19724 19728 19732 19736 19740 19744 19748 19752 19756 19760 19764 19768 19772 19776 19780 19784 19788 19792 19796 19800 19804 19808 19812 19816 19820 19824 19828 19832 19836 19840 19844 19848 19852 19856 19860 19864 19868 19872 19876 19880 19884 19888 19892 19896 19900 19904 19908 19912 19916 19920 19924 19928 19932 19936 19940 19944 19948 19952 19956 19960 19964 19968 19972 19976 19980 19984 19988 19992 19996 20000 20004 20008 20012 20016 20020 20024 20028 20032 20036 20040 20044 20048 20052 20056 20060 20064 20068 20072 20076 20080 20084 20088 20092 20096 20100 20104 20108 20112 20116 20120 20124 20128 20132 20136 20140 20144 20148 20152 20156 20160 20164 20168 20172 20176 20180 20184 20188 20192 20196 20200 20204 20208 20212 20216 20220 20224 20228 20232 20236 20240 20244 20248 20252 20256 20260 20264 20268 20272 20276 20280 20284 20288 20292 20296 20300 20304 20308 20312 20316 20320 20324 20328 20332 20336 20340 20344 20348 20352 20356 20360 20364 20368 20372 20376 20380 20384 20388 20392 20396 20400 20404 20408 20412 20416 20420 20424 20428 20432 20436 20440 20444 20448 20452 20456 20460 20464 20468 20472 20476 20480 20484 20488 20492 20496 20500 20504 20508 20512 20516 20520 20524 20528 20532 20536 20540 20544 20548 20552 20556 20560 20564 20568 20572 20576 20580 20584 20588 20592 20596 20600 20604 20608 20612 20616 20620 20624 20628 20632 20636 20640 20644 20648 20652 20656 20660 20664 20668 20672 20676 20680 20684 20688 20692 20696 20700 20704 20708 20712 20716 20720 20724 20728 20732 20736 20740 20744 20748 20752 20756 20760 20764 20768 20772 20776 20780 20784 20788 20792 20796 20800 20804 20808 20812 20816 20820 20824 20828 20832 20836 20840 20844 20848 20852 20856 20860 20864 20868 20872 20876 20880 20884 20888 20892 20896 20900 20904 20908 20912 20916 20920 20924 20928 20932 20936 20940 20944 20948 20952 20956 20960 20964 20968 20972 20976 20980 20984 20988 20992 20996 21000 21004 21008 21012 21016 21020 21024 21028 21032 21036 21040 21044 21048 21052 21056 21060 21064 21068 21072 21076 21080 21084 21088 21092 21096 21100 21104 21108 21112 21116 21120 21124 21128 21132 21136 21140 21144 21148 21152 21156 21160 21164 21168 21172 21176 21180 21184 21188 21192 21196 21200 21204 21208 21212 21216 21220 21224 21228 21232 21236 21240 21244 21248 21252 21256 21260 21264 21268 21272 21276 21280 21284 21288 21292 21296 21300 21304 21308 21312 21316 21320 21324 21328 21332 21336 21340 21344 21348 21352 21356 21360 21364 21368 21372 21376 21380 21384 21388 21392 21396 21400 21404 21408 21412 21416 21420 21424 21428 21432 21436 21440 21444 21448 21452 21456 21460 21464 21468 21472 21476 21480 21484 21488 21492 21496 21500 21504 21508 21512 21516 21520 21524 21528 21532 21536 21540 21544 21548 21552 21556 21560 21564 21568 21572 21576 21580 21584 21588 21592 21596 21600 21604 21608 21612 21616 21620 21624 21628 21632 21636 21640 21644 21648 21652 21656 21660 21664 21668 21672 21676 21680 21684 21688 21692 21696 21700 21704 21708 21712 21716 21720 21724 21728 21732 21736 21740 21744 21748 21752 21756 21760 21764 21768 21772 21776 21780 21784 21788 21792 21796 21800 21804 21808 21812 21816 21820 21824 21828 21832 21836 21840 21844 21848 21852 21856 21860 21864 21868 21872 21876 21880 21884 21888 21892 21896 21900 21904 21908 21912 21916 21920 21924 21928 21932 21936 21940 21944 21948 21952 21956 21960 21964 21968 21972 21976 21980 21984 21988 21992 21996 22000 22004 22008 22012 22016 22020 22024 22028 22032 22036 22040 22044 22048 22052 22056 22060 22064 22068 22072 22076 22080 22084 22088 22092 22096 22100 22104 22108 22112 22116 22120 22124 22128 22132 22136 22140 22144 22148 22152 22156 22160 22164 22168 22172 22176 22180 22184 22188 22192 22196 22200 22204 22208 22212 22216 22220 22224 22228 22232 22236 22240 22244 22248 22252 22256 22260 22264 22268 22272 22276 22280 22284 22288 22292 22296 22300 22304 22308 22312 22316 22320 22324 22328 22332 22336 22340 22344 22348 22352 22356 22360 22364 22368 22372 22376 22380 22384 22388 22392 22396 22400 22404 22408 22412 22416 22420 22424 22428 22432 22436 22440 22444 22448 22452 22456 22460 22464 22468 22472 22476 22480 22484 22488 22492 22496 22500 22504 22508 22512 22516 22520 22524 22528 22532 22536 22540 22544 22548 22552 22556 22560 22564 22568 22572 22576 22580 22584 22588 22592 22596 22600 22604 22608 22612 22616 22620 22624 22628 22632 22636 22640 22644 22648 22652 22656 22660 22664 22668 22672 22676 22680 22684 22688 22692 22696 22700 22704 22708 22712 22716 22720 22724 22728 22732 22736 22740 22744 22748 22752 22756 22760 22764 22768 22772 22776 22780 22784 22788 22792 22796 22800 22804 22808 22812 22816 22820 22824 22828 22832 22836 22840 22844 22848 22852 22856 22860 22864 22868 22872 22876 22880 22884 22888 22892 22896 22900 22904 22908 22912 22916 22920 22924 22928 22932 22936 22940 22944 22948 22952 22956 22960 22964 22968 22972 22976 22980 22984 22988 22992 22996 23000 23004 23008 23012 23016 23020 23024 23028 23032 23036 23040 23044 23048 23052 23056 23060 23064 23068 23072 23076 23080 23084 23088 23092 23096 23100 23104 23108 23112 23116 23120 23124 23128 23132 23136 23140 23144 23148 23152 23156 23160 23164 23168 23172 23176 23180 23184 23188 23192 23196 23200 23204 23208 23212 23216 23220 23224 23228 23232 23236 23240 23244 23248 23252 23256 23260 23264 23268 23272 23276 23280 23284 23288 23292 23296 23300 23304 23308 23312 23316 23320 23324 23328 23332 23336 23340 23344 23348 23352 23356 23360 23364 23368 23372 23376 23380 23384 23388 23392 23396 23400 23404 23408 23412 23416 23420 23424 23428 23432 23436 23440 23444 23448 23452 23456 23460 23464 23468 23472 23476 23480 23484 23488 23492 23496 23500 23504 23508 23512 23516 23520 23524 23528 23532 23536 23540 23544 23548 23552 23556 23560 23564 23568 23572 23576 23580 23584 23588 23592 23596 23600 23604 23608 23612 23616 23620 23624 23628 23632 23636 23640 23644 23648 23652 23656 23660 23664 23668 23672 23676 23680 23684 23688 23692 23696 23700 23704 23708 23712 23716 23720 23724 23728 23732 23736 23740 23744 23748 23752 23756 23760 23764 23768 23772 23776 23780 23784 23788 23792 23796 23800 23804 23808 23812 23816 23820 23824 23828 23832 23836 23840 23844 23848 23852 23856 23860 23864 23868 23872 23876 23880 23884 23888 23892 23896 23900 23904 23908 23912 23916 23920 23924 23928 23932 23936 23940 23944 23948 23952 23956 23960 23964 23968 23972 23976 23980 23984 23988 23992 23996 24000 24004 24008 24012 24016 24020 24024 24028 24032 24036 24040 24044 24048 24052 24056 24060 24064 24068 24072 24076 24080 24084 24088 24092 24096 24100 24104 24108 24112 24116 24120 24124 24128 24132 24136 24140 24144 24148 24152 24156 24160 24164 24168 24172 24176 24180 24184 24188 24192 24196 24200 24204 24208 24212 24216 24220 24224 24228 24232 24236 24240 24244 24248 24252 24256 24260 24264 24268 24272 24276 24280 24284 24288 24292 24296 24300 24304 24308 24312 24316 24320 24324 24328 24332 24336 24340 24344 24348 24352 24356 24360 24364 24368 24372 24376 24380 24384 24388 24392 24396 24400 24404 24408 24412 24416 24420 24424 24428 24432 24436 24440 24444 24448 24452 24456 24460 24464 24468 24472 24476 24480 24484 24488 24492 24496 24500 24504 24508 24512 24516 24520 24524 24528 24532 24536 24540 24544 24548 24552 24556 24560 24564 24568 24572 24576 24580 24584 24588 24592 24596 24600 24604 24608 24612 24616 24620 24624 24628 24632 24636 24640 24644 24648 24652 24656 24660 24664 24668 24672 24676 24680 24684 24688 24692 24696 24700 24704 24708 24712 24716 24720 24724 24728 24732 24736 24740 24744 24748 24752 24756 24760 24764 24768 24772 24776 24780 24784 24788 24792 24796 24800 24804 24808 24812 24816 24820 24824 24828 24832 24836 24840 24844 24848 24852 24856 24860 24864 24868 24872 24876 24880 24884 24888 24892 24896 24900 24904 24908 24912 24916 24920 24924 24928 24932 24936 24940 24944 24948 24952 24956 24960 24964 24968 24972 24976 24980 24984 24988 24992 24996 25000 25004 25008 25012 25016 25020 25024 25028 25032 25036 25040 25044 25048 25052 25056 25060 25064 25068 25072 25076 25080 25084 25088 25092 25096 25100 25104 25108 25112 25116 25120 25124 25128 25132 25136 25140 25144 25148 25152 25156 25160 25164 25168 25172 25176 25180 25184 25188 25192 25196 25200 25204 25208 25212 25216 25220 25224 25228 25232 25236 25240 25244 25248 25252 25256 25260 25264 25268 25272 25276 25280 25284 25288 25292 25296 25300 25304 25308 25312 25316 25320 25324 25328 25332 25336 25340 25344 25348 25352 25356 25360 25364 25368 25372 25376 25380 25384 25388 25392 25396 25400 25404 25408 25412 25416 25420 25424 25428 25432 25436 25440 25444 25448 25452 25456 25460 25464 25468 25472 25476 25480 25484 25488 25492 25496 25500 25504 25508 25512 25516 25520 25524 25528 25532 25536 25540 25544 25548 25552 25556 25560 25564 25568 25572 25576 25580 25584 25588 25592 25596 25600 25604 25608 25612 25616 25620 25624 25628 25632 25636 25640 25644 25648 25652 25656 25660 25664 25668 25672 25676 25680 25684 25688 25692 25696 25700 25704 25708 25712 25716 25720 25724 25728 25732 25736 25740 25744 25748 25752 25756 25760 25764 25768 25772 25776 25780 25784 25788 25792 25796 25800 25804 25808 25812 25816 25820 25824 25828 25832 25836 25840 25844 25848 25852 25856 25860 25864 25868 25872 25876 25880 25884 25888 25892 25896 25900 25904 25908 25912 25916 25920 25924 25928 25932 25936 25940 25944 25948 25952 25956 25960 25964 25968 25972 25976 25980 25984 25988 25992 25996 26000 26004 26008 26012 26016 26020 26024 26028 26032 26036 26040 26044 26048 26052 26056 26060 26064 26068 26072 26076 26080 26084 26088 26092 26096 26100 26104 26108 26112 26116 26120 26124 26128 26132 26136 26140 26144 26148 26152 26156 26160 26164 26168 26172 26176 26180 26184 26188 26192 26196 26200 26204 26208 26212 26216 26220 26224 26228 26232 26236 26240 26244 26248 26252 26256 26260 26264 26268 26272 26276 26280 26284 26288 26292 26296 26300 26304 26308 26312 26316 26320 26324 26328 26332 26336 26340 26344 26348 26352 26356 26360 26364 26368 26372 26376 26380 26384 26388 26392 26396 26400 26404 26408 26412 26416 26420 26424 26428 26432 26436 26440 26444 26448 26452 26456 26460 26464 26468 26472 26476 26480 26484 26488 26492 26496 26500 26504 26508 26512 26516 26520 26524 26528 26532 26536 26540 26544 26548 26552 26556 26560 26564 26568 26572 26576 26580 26584 26588 26592 26596 26600 26604 26608 26612 26616 26620 26624 26628 26632 26636 26640 26644 26648 26652 26656 26660 26664 26668 26672 26676 26680 26684 26688 26692 26696 26700 26704 26708 26712 26716 26720 26724 26728 26732 26736 26740 26744 26748 26752 26756 26760 26764 26768 26772 26776 26780 26784 26788 26792 26796 26800 26804 26808 26812 26816 26820 26824 26828 26832 26836 26840 26844 26848 26852 26856 26860 26864 26868 26872 26876 26880 26884 26888 26892 26896 26900 26904 26908 26912 26916 26920 26924 26928 26932 26936 26940 26944 26948 26952 26956 26960 26964 26968 26972 26976 26980 26984 26988 26992 26996 27000 27004 27008 27012 27016 27020 27024 27028 27032 27036 27040 27044 27048 27052 27056 27060 27064 27068 27072 27076 27080 27084 27088 27092 27096 27100 27104 27108 27112 27116 27120 27124 27128 27132 27136 27140 27144 27148 27152 27156 27160 27164 27168 27172 27176 27180 27184 27188 27192 27196 27200 27204 27208 27212 27216 27220 27224 27228 27232 27236 27240 27244 27248 27252 27256 27260 27264 27268 27272 27276 27280 27284 27288 27292 27296 27300 27304 27308 27312 27316 27320 27324 27328 27332 27336 27340 27344 27348 27352 27356 27360 27364 27368 27372 27376 27380 27384 27388 27392 27396 27400 27404 27408 27412 27416 27420 27424 27428 27432 27436 27440 27444 27448 27452 27456 27460 27464 27468 27472 27476 27480 27484 27488 27492 27496 27500 27504 27508 27512 27516 27520 27524 27528 27532 27536 27540 27544 27548 27552 27556 27560 27564 27568 27572 27576 27580 27584 27588 27592 27596 27600 27604 27608 27612 27616 27620 27624 27628 27632 27636 27640 27644 27648 27652 27656 27660 27664 27668 27672 27676 27680 27684 27688 27692 27696 27700 27704 27708 27712 27716 27720 27724 27728 27732 27736 27740 27744 27748 27752 27756 27760 27764 27768 27772 27776 27780 27784 27788 27792 27796 27800 27804 27808 27812 27816 27820 27824 27828 27832 27836 27840 27844 27848 27852 27856 27860 27864 27868 27872 27876 27880 27884 27888 27892 27896 27900 27904 27908 27912 27916 27920 27924 27928 27932 27936 27940 27944 27948 27952 27956 27960 27964 27968 27972 27976 27980 27984 27988 27992 27996 28000 28004 28008 28012 28016 28020 28024 28028 28032 28036 28040 28044 28048 28052 28056 28060 28064 28068 28072 28076 28080 28084 28088 28092 28096 28100 28104 28108 28112 28116 28120 28124 28128 28132 28136 28140 28144 28148 28152 28156 28160 28164 28168 28172 28176 28180 28184 28188 28192 28196 28200 28204 28208 28212 28216 28220 28224 28228 28232 28236 28240 28244 28248 28252 28256 28260 28264 28268 28272 28276 28280 28284 28288 28292 28296 28300 28304 28308 28312 28316 28320 28324 28328 28332 28336 28340 28344 28348 28352 28356 28360 28364 28368 28372 28376 28380 28384 28388 28392 28396 28400 28404 28408 28412 28416 28420 28424 28428 28432 28436 28440 28444 28448 28452 28456 28460 28464 28468 28472 28476 28480 28484 28488 28492 28496 28500 28504 28508 28512 28516 28520 28524 28528 28532 28536 28540 28544 28548 28552 28556 28560 28564 28568 28572 28576 28580 28584 28588 28592 28596 28600 28604 28608 28612 28616 28620 28624 28628 28632 28636 28640 28644 28648 28652 28656 28660 28664 28668 28672 28676 28680 28684 28688 28692 28696 28700 28704 28708 28712 28716 28720 28724 28728 28732 28736 28740 28744 28748 28752 28756 28760 28764 28768 28772 28776 28780 28784 28788 28792 28796 28800 28804 28808 28812 28816 28820 28824 28828 28832 28836 28840 28844 28848 28852 28856 28860 28864 28868 28872 28876 28880 28884 28888 28892 28896 28900 28904 28908 28912 28916 28920 28924 28928 28932 28936 28940 28944 28948 28952 28956 28960 28964 28968 28972 28976 28980 28984 28988 28992 28996 29000 29004 29008 29012 29016 29020 29024 29028 29032 29036 29040 29044 29048 29052 29056 29060 29064 29068 29072 29076 29080 29084 29088 29092 29096 29100 29104 29108 29112 29116 29120 29124 29128 29132 29136 29140 29144 29148 29152 29156 29160 29164 29168 29172 29176 29180 29184 29188 29192 29196 29200 29204 29208 29212 29216 29220 29224 29228 29232 29236 29240 29244 29248 29252 29256 29260 29264 29268 29272 29276 29280 29284 29288 29292 29296 29300 29304 29308 29312 29316 29320 29324 29328 29332 29336 29340 29344 29348 29352 29356 29360 29364 29368 29372 29376 29380 29384 29388 29392 29396 29400 29404 29408 29412 29416 29420 29424 29428 29432 29436 29440 29444 29448 29452 29456 29460 29464 29468 29472 29476 29480 29484 29488 29492 29496 29500 29504 29508 29512 29516 29520 29524 29528 29532 29536 29540 29544 29548 29552 29556 29560 29564 29568 29572 29576 29580 29584 29588 29592 29596 29600 29604 29608 29612 29616 29620 29624 29628 29632 29636 29640 29644 29648 29652 29656 29660 29664 29668 29672 29676 29680 29684 29688 29692 29696 29700 29704 29708 29712 29716 29720 29724 29728 29732 29736 29740 29744 29748 29752 29756 29760 29764 29768 29772 29776 29780 29784 29788 29792 29796 29800 29804 29808 29812 29816 29820 29824 29828 29832 29836 29840 29844 29848 29852 29856 29860 29864 29868 29872 29876 29880 29884 29888 29892 29896 29900 29904 29908 29912 29916 29920 29924 29928 29932 29936 29940 29944 29948 29952 29956 29960 29964 29968 29972 29976 29980 29984 29988 29992 29996 30000 30004 30008 30012 30016 30020 30024 30028 30032 30036 30040 30044 30048 30052 30056 30060 30064 30068 30072 30076 30080 30084 30088 30092 30096 30100 30104 30108 30112 30116 30120 30124 30128 30132 30136 30140 30144 30148 30152 30156 30160 30164 30168 30172 30176 30180 30184 30188 30192 30196 30200 30204 30208 30212 30216 30220 30224 30228 30232 30236 30240 30244 30248 30252 30256 30260 30264 30268 30272 30276 30280 30284 30288 30292 30296 30300 30304 30308 30312 30316 30320 30324 30328 30332 30336 30340 30344 30348 30352 30356 30360 30364 30368 30372 30376 30380 30384 30388 30392 30396 30400 30404 30408 30412 30416 30420 30424 30428 30432 30436 30440 30444 30448 30452 30456 30460 30464 30468 30472 30476 30480 30484 30488 30492 30496 30500 30504 30508 30512 30516 30520 30524 30528 30532 30536 30540 30544 30548 30552 30556 30560 30564 30568 30572 30576 30580 30584 30588 30592 30596 30600 30604 30608 30612 30616 30620 30624 30628 30632 30636 30640 30644 30648 30652 30656 30660 30664 30668 30672 30676 30680 30684 30688 30692 30696 30700 30704 30708 30712 30716 30720 30724 30728 30732 30736 30740 30744 30748 30752 30756 30760 30764 30768 30772 30776 30780 30784 30788 30792 30796 30800 30804 30808 30812 30816 30820 30824 30828 30832 30836 30840 30844 30848 30852 30856 30860 30864 30868 30872 30876 30880 30884 30888 30892 30896 30900 30904 30908 30912 30916 30920 30924 30928 30932 30936 30940 30944 30948 30952 30956 30960 30964 30968 30972 30976 30980 30984 30988 30992 30996 31000 31004 31008 31012 31016 31020 31024 31028 31032 31036 31040 31044 31048 31052 31056 31060 31064 31068 31072 31076 31080 31084 31088 31092 31096 31100 31104 31108 31112 31116 31120 31124 31128 31132 31136 31140 31144 31148 31152 31156 31160 31164 31168 31172 31176 31180 31184 31188 31192 31196 31200 31204 31208 31212 31216 31220 31224 31228 31232 31236 31240 31244 31248 31252 31256 31260 31264 31268 31272 31276 31280 31284 31288 31292 31296 31300 31304 31308 31312 31316 31320 31324 31328 31332 31336 31340 31344 31348 31352 31356 31360 31364 31368 31372 31376 31380 31384 31388 31392 31396 31400 31404 31408 31412 31416 31420 31424 31428 31432 31436 31440 31444 31448 31452 31456 31460 31464 31468 31472 31476 31480 31484 31488 31492 31496 31500 31504 31508 31512 31516 31520 31524 31528 31532 31536 31540 31544 31548 31552 31556 31560 31564 31568 31572 31576 31580 31584 31588 31592 31596 31600 31604 31608 31612 31616 31620 31624 31628 31632 31636 31640 31644 31648 31652 31656 31660 31664 31668 31672 31676 31680 31684 31688 31692 31696 31700 31704 31708 31712 31716 31720 31724 31728 31732 31736 31740 31744 31748 31752 31756 31760 31764 31768 31772 31776 31780 31784 31788 31792 31796 31800 31804 31808 31812 31816 31820 31824 31828 31832 31836 31840 31844 31848 31852 31856 31860 31864 31868 31872 31876 31880 31884 31888 31892 31896 31900 31904 31908 31912 31916 31920 31924 31928 31932 31936 31940 31944 31948 31952 31956 31960 31964 31968 31972 31976 31980 31984 31988 31992 31996 32000 32004 32008 32012 32016 32020 32024 32028 32032 32036 32040 32044 32048 32052 32056 32060 32064 32068 32072 32076 32080 32084 32088 32092 32096 32100 32104 32108 32112 32116 32120 32124 32128 32132 32136 32140 32144 32148 32152 32156 32160 32164 32168 32172 32176 32180 32184 32188 32192 32196 32200 32204 32208 32212 32216 32220 32224 32228 32232 32236 32240 32244 32248 32252 32256 32260 32264 32268 32272 32276 32280 32284 32288 32292 32296 32300 32304 32308 32312 32316 32320 32324 32328 32332 32336 32340 32344 32348 32352 32356 32360 32364 32368 32372 32376 32380 32384 32388 32392 32396 32400 32404 32408 32412 32416 32420 32424 32428 32432 32436 32440 32444 32448 32452 32456 32460 32464 32468 32472 32476 32480 32484 32488 32492 32496 32500 32504 32508 32512 32516 32520 32524 32528 32532 32536 32540 32544 32548 32552 32556 32560 32564 32568 32572 32576 32580 32584 32588 32592 32596 32600 32604 32608 32612 32616 32620 32624 32628 32632 32636 32640 32644 32648 32652 32656 32660 32664 32668 32672 32676 32680 32684 32688 32692 32696 32700 32704 32708 32712 32716 32720 32724 32728 32732 32736 32740 32744 32748 32752 32756 32760 32764 32768 32772 32776 32780 32784 32788 32792 32796 32800 32804 32808 32812 32816 32820 32824 32828 32832 32836 32840 32844 32848 32852 32856 32860 32864 32868 32872 32876 32880 32884 32888 32892 32896 32900 32904 32908 32912 32916 32920 32924 32928 32932 32936 32940 32944 32948 32952 32956 32960 32964 32968 32972 32976 32980 32984 32988 32992 32996 33000 33004 33008 33012 33016 33020 33024 33028 33032 33036 33040 33044 33048 33052 33056 33060 33064 33068 33072 33076 33080 33084 33088 33092 33096 33100 33104 33108 33112 33116 33120 33124 33128 33132 33136 33140 33144 33148 33152 33156 33160 33164 33168 33172 33176 33180 33184 33188 33192 33196 33200 33204 33208 33212 33216 33220 33224 33228 33232 33236 33240 33244 33248 33252 33256 33260 33264 33268 33272 33276 33280 33284 33288 33292 33296 33300 33304 33308 33312 33316 33320 33324 33328 33332 33336 33340 33344 33348 33352 33356 33360 33364 33368 33372 33376 33380 33384 33388 33392 33396 33400 33404 33408 33412 33416 33420 33424 33428 33432 33436 33440 33444 33448 33452 33456 33460 33464 33468 33472 33476 33480 33484 33488 33492 33496 33500 33504 33508 33512 33516 33520 33524 33528 33532 33536 33540 33544 33548 33552 33556 33560 33564 33568 33572 33576 33580 33584 33588 33592 33596 33600 33604 33608 33612 33616 33620 33624 33628 33632 33636 33640 33644 33648 33652 33656 33660 33664 33668 33672 33676 33680 33684 33688 33692 33696 33700 33704 33708 33712 33716 33720 33724 33728 33732 33736 33740 33744 33748 33752 33756 33760 33764 33768 33772 33776 33780 33784 33788 33792 33796 33800 33804 33808 33812 33816 33820 33824 33828 33832 33836 33840 33844 33848 33852 33856 33860 33864 33868 33872 33876 33880 33884 33888 33892 33896 33900 33904 33908 33912 33916 33920 33924 33928 33932 33936 33940 33944 33948 33952 33956 33960 33964 33968 33972 33976 33980 33984 33988 33992 33996 34000 34004 34008 34012 34016 34020 34024 34028 34032 34036 34040 34044 34048 34052 34056 34060 34064 34068 34072 34076 34080 34084 34088 34092 34096 34100 34104 34108 34112 34116 34120 34124 34128 34132 34136 34140 34144 34148 34152 34156 34160 34164 34168 34172 34176 34180 34184 34188 34192 34196 34200 34204 34208 34212 34216 34220 34224 34228 34232 34236 34240 34244 34248 34252 34256 34260 34264 34268 34272 34276 34280 34284 34288 34292 34296 34300 34304 34308 34312 34316 34320 34324 34328 34332 34336 34340 34344 34348 34352 34356 34360 34364 34368 34372 34376 34380 34384 34388 34392 34396 34400 34404 34408 34412 34416 34420 34424 34428 34432 34436 34440 34444 34448 34452 34456 34460 34464 34468 34472 34476 34480 34484 34488 34492 34496 34500 34504 34508 34512 34516 34520 34524 34528 34532 34536 34540 34544 34548 34552 34556 34560 34564 34568 34572 34576 34580 34584 34588 34592 34596 34600 34604 34608 34612 34616 34620 34624 34628 34632 34636 34640 34644 34648 34652 34656 34660 34664 34668 34672 34676 34680 34684 34688 34692 34696 34700 34704 34708 34712 34716 34720 34724 34728 34732 34736 34740 34744 34748 34752 34756 34760 34764 34768 34772 34776 34780 34784 34788 34792 34796 34800 34804 34808 34812 34816 34820 34824 34828 34832 34836 34840 34844 34848 34852 34856 34860 34864 34868 34872 34876 34880 34884 34888 34892 34896 34900 34904 34908 34912 34916 34920 34924 34928 34932 34936 34940 34944 34948 34952 34956 34960 34964 34968 34972 34976 34980 34984 34988 34992 34996 35000 35004 35008 35012 35016 35020 35024 35028 35032 35036 35040 35044 35048 35052 35056 35060 35064 35068 35072 35076 35080 35084 35088 35092 35096 35100 35104 35108 35112 35116 35120 35124 35128 35132 35136 35140 35144 35148 35152 35156 35160 35164 35168 35172 35176 35180 35184 35188 35192 35196 35200 35204 35208 35212 35216 35220 35224 35228 35232 35236 35240 35244 35248 35252 35256 35260 35264 35268 35272 35276 35280 35284 35288 35292 35296 35300 35304 35308 35312 35316 35320 35324 35328 35332 35336 35340 35344 35348 35352 35356 35360 35364 35368 35372 35376 35380 35384 35388 35392 35396 35400 35404 35408 35412 35416 35420 35424 35428 35432 35436 35440 35444 35448 35452 35456 35460 35464 35468 35472 35476 35480 35484 35488 35492 35496 35500 35504 35508 35512 35516 35520 35524 35528 35532 35536 35540 35544 35548 35552 35556 35560 35564 35568 35572 35576 35580 35584 35588 35592 35596 35600 35604 35608 35612 35616 35620 35624 35628 35632 35636 35640 35644 35648 35652 35656 35660 35664 35668 35672 35676 35680 35684 35688 35692 35696 35700 35704 35708 35712 35716 35720 35724 35728 35732 35736 35740 35744 35748 35752 35756 35760 35764 35768 35772 35776 35780 35784 35788 35792 35796 35800 35804 35808 35812 35816 35820 35824 35828 35832 35836 35840 35844 35848 35852 35856 35860 35864 35868 35872 35876 35880 35884 35888 35892 35896 35900 35904 35908 35912 35916 35920 35924 35928 35932 35936 35940 35944 35948 35952 35956 35960 35964 35968 35972 35976 35980 35984 35988 35992 35996 36000 36004 36008 36012 36016 36020 36024 36028 36032 36036 36040 36044 36048 36052 36056 36060 36064 36068 36072 36076 36080 36084 36088 36092 36096 36100 36104 36108 36112 36116 36120 36124 36128 36132 36136 36140 36144 36148 36152 36156 36160 36164 36168 36172 36176 36180 36184 36188 36192 36196 36200 36204 36208 36212 36216 36220 36224 36228 36232 36236 36240 36244 36248 36252 36256 36260 36264 36268 36272 36276 36280 36284 36288 36292 36296 36300 36304 36308 36312 36316 36320 36324 36328 36332 36336 36340 36344 36348 36352 36356 36360 36364 36368 36372 36376 36380 36384 36388 36392 36396 36400 36404 36408 36412 36416 36420 36424 36428 36432 36436 36440 36444 36448 36452 36456 36460 36464 36468 36472 36476 36480 36484 36488 36492 36496 36500 36504 36508 36512 36516 36520 36524 36528 36532 36536 36540 36544 36548 36552 36556 36560 36564 36568 36572 36576 36580 36584 36588 36592 36596 36600 36604 36608 36612 36616 36620 36624 36628 36632 36636 36640 36644 36648 36652 36656 36660 36664 36668 36672 36676 36680 36684 36688 36692 36696 36700 36704 36708 36712 36716 36720 36724 36728 36732 36736 36740 36744 36748 36752 36756 36760 36764 36768 36772 36776 36780 36784 36788 36792 36796 36800 36804 36808 36812 36816 36820 36824 36828 36832 36836 36840 36844 36848 36852 36856 36860 36864 36868 36872 36876 36880 36884 36888 36892 36896 36900 36904 36908 36912 36916 36920 36924 36928 36932 36936 36940 36944 36948 36952 36956 36960 36964 36968 36972 36976 36980 36984 36988 36992 36996 37000 37004 37008 37012 37016 37020 37024 37028 37032 37036 37040 37044 37048 37052 37056 37060 37064 37068 37072 37076 37080 37084 37088 37092 37096 37100 37104 37108 37112 37116 37120 37124 37128 37132 37136 37140 37144 37148 37152 37156 37160 37164 37168 37172 37176 37180 37184 37188 37192 37196 37200 37204 37208 37212 37216 37220 37224 37228 37232 37236 37240 37244 37248 37252 37256 37260 37264 37268 37272 37276 37280 37284 37288 37292 37296 37300 37304 37308 37312 37316 37320 37324 37328 37332 37336 37340 37344 37348 37352 37356 37360 37364 37368 37372 37376 37380 37384 37388 37392 37396 37400 37404 37408 37412 37416 37420 37424 37428 37432 37436 37440 37444 37448 37452 37456 37460 37464 37468 37472 37476 37480 37484 37488 37492 37496 37500 37504 37508 37512 37516 37520 37524 37528 37532 37536 37540 37544 37548 37552 37556 37560 37564 37568 37572 37576 37580 37584 37588 37592 37596 37600 37604 37608 37612 37616 37620 37624 37628 37632 37636 37640 37644 37648 37652 37656 37660 37664 37668 37672 37676 37680 37684 37688 37692 37696 37700 37704 37708 37712 37716 37720 37724 37728 37732 37736 37740 37744 37748 37752 37756 37760 37764 37768 37772 37776 37780 37784 37788 37792 37796 37800 37804 37808 37812 37816 37820 37824 37828 37832 37836 37840 37844 37848 37852 37856 37860 37864 37868 37872 37876 37880 37884 37888 37892 37896 37900 37904 37908 37912 37916 37920 37924 37928 37932 37936 37940 37944 37948 37952 37956 37960 37964 37968 37972 37976 37980 37984 37988 37992 37996 38000 38004 38008 38012 38016 38020 38024 38028 38032 38036 38040 38044 38048 38052 38056 38060 38064 38068 38072 38076 38080 38084 38088 38092 38096 38100 38104 38108 38112 38116 38120 38124 38128 38132 38136 38140 38144 38148 38152 38156 38160 38164 38168 38172 38176 38180 38184 38188 38192 38196 38200 38204 38208 38212 38216 38220 38224 38228 38232 38236 38240 38244 38248 38252 38256 38260 38264 38268 38272 38276 38280 38284 38288 38292 38296 38300 38304 38308 38312 38316 38320 38324 38328 38332 38336 38340 38344 38348 38352 38356 38360 38364 38368 38372 38376 38380 38384 38388 38392 38396 38400 38404 38408 38412 38416 38420 38424 38428 38432 38436 38440 38444 38448 38452 38456 38460 38464 38468 38472 38476 38480 38484 38488 38492 38496 38500 38504 38508 38512 38516 38520 38524 38528 38532 38536 38540 38544 38548 38552 38556 38560 38564 38568 38572 38576 38580 38584 38588 38592 38596 38600 38604 38608 38612 38616 38620 38624 38628 38632 38636 38640 38644 38648 38652 38656 38660 38664 38668 38672 38676 38680 38684 38688 38692 38696 38700 38704 38708 38712 38716 38720 38724 38728 38732 38736 38740 38744 38748 38752 38756 38760 38764 38768 38772 38776 38780 38784 38788 38792 38796 38800 38804 38808 38812 38816 38820 38824 38828 38832 38836 38840 38844 38848 38852 38856 38860 38864 38868 38872 38876 38880 38884 38888 38892 38896 38900 38904 38908 38912 38916 38920 38924 38928 38932 38936 38940 38944 38948 38952 38956 38960 38964 38968 38972 38976 38980 38984 38988 38992 38996 39000 39004 39008 39012 39016 39020 39024 39028 39032 39036 39040 39044 39048 39052 39056 39060 39064 39068 39072 39076 39080 39084 39088 39092 39096 39100 39104 39108 39112 39116 39120 39124 39128 39132 39136 39140 39144 39148 39152 39156 39160 39164 39168 39172 39176 39180 39184 39188 39192 39196 39200 39204 39208 39212 39216 39220 39224 39228 39232 39236 39240 39244 39248 39252 39256 39260 39264 39268 39272 39276 39280 39284 39288 39292 39296 39300 39304 39308 39312 39316 39320 39324 39328 39332 39336 39340 39344 39348 39352 39356 39360 39364 39368 39372 39376 39380 39384 39388 39392 39396 39400 39404 39408 39412 39416 39420 39424 39428 39432 39436 39440 39444 39448 39452 39456 39460 39464 39468 39472 39476 39480 39484 39488 39492 39496 39500 39504 39508 39512 39516 39520 39524 39528 39532 39536 39540 39544 39548 39552 39556 39560 39564 39568 39572 39576 39580 39584 39588 39592 39596 39600 39604 39608 39612 39616 39620 39624 39628 39632 39636 39640 39644 39648 39652 39656 39660 39664 39668 39672 39676 39680 39684 39688 39692 39696 39700 39704 39708 39712 39716 39720 39724 39728 39732 39736 39740 39744 39748 39752 39756 39760 39764 39768 39772 39776 39780 39784 39788 39792 39796 39800 39804 39808 39812 39816 39820 39824 39828 39832 39836 39840 39844 39848 39852 39856 39860 39864 39868 39872 39876 39880 39884 39888 39892 39896 39900 39904 39908 39912 39916 39920 39924 39928 39932 39936 39940 39944 39948 39952 39956 39960 39964 39968 39972 39976 39980 39984 39988 39992 39996 40000 40004 40008 40012 40016 40020 40024 40028 40032 40036 40040 40044 40048 40052 40056 40060 40064 40068 40072 40076 40080 40084 40088 40092 40096 40100 40104 40108 40112 40116 40120 40124 40128 40132 40136 40140 40144 40148 40152 40156 40160 40164 40168 40172 40176 40180 40184 40188 40192 40196 40200 40204 40208 40212 40216 40220 40224 40228 40232 40236 40240 40244 40248 40252 40256 40260 40264 40268 40272 40276 40280 40284 40288 40292 40296 40300 40304 40308 40312 40316 40320 40324 40328 40332 40336 40340 40344 40348 40352 40356 40360 40364 40368 40372 40376 40380 40384 40388 40392 40396 40400 40404 40408 40412 40416 40420 40424 40428 40432 40436 40440 40444 40448 40452 40456 40460 40464 40468 40472 40476 40480 40484 40488 40492 40496 40500 40504 40508 40512 40516 40520 40524 40528 40532 40536 40540 40544 40548 40552 40556 40560 40564 40568 40572 40576 40580 40584 40588 40592 40596 40600 40604 40608 40612 40616 40620 40624 40628 40632 40636 40640 40644 40648 40652 40656 40660 40664 40668 40672 40676 40680 40684 40688 40692 40696 40700 40704 40708 40712 40716 40720 40724 40728 40732 40736 40740 40744 40748 40752 40756 40760 40764 40768 40772 40776 40780 40784 40788 40792 40796 40800 40804 40808 40812 40816 40820 40824 40828 40832 40836 40840 40844 40848 40852 40856 40860 40864 40868 40872 40876 40880 40884 40888 40892 40896 40900 40904 40908 40912 40916 40920 40924 40928 40932 40936 40940 40944 40948 40952 40956 40960 40964 40968 40972 40976 40980 40984 40988 40992 40996 41000 41004 41008 41012 41016 41020 41024 41028 41032 41036 41040 41044 41048 41052 41056 41060 41064 41068 41072 41076 41080 41084 41088 41092 41096 41100 41104 41108 41112 41116 41120 41124 41128 41132 41136 41140 41144 41148 41152 41156 41160 41164 41168 41172 41176 41180 41184 41188 41192 41196 41200 41204 41208 41212 41216 41220 41224 41228 41232 41236 41240 41244 41248 41252 41256 41260 41264 41268 41272 41276 41280 41284 41288 41292 41296 41300 41304 41308 41312 41316 41320 41324 41328 41332 41336 41340 41344 41348 41352 41356 41360 41364 41368 41372 41376 41380 41384 41388 41392 41396 41400 41404 41408 41412 41416 41420 41424 41428 41432 41436 41440 41444 41448 41452 41456 41460 41464 41468 41472 41476 41480 41484 41488 41492 41496 41500 41504 41508 41512 41516 41520 41524 41528 41532 41536 41540 41544 41548 41552 41556 41560 41564 41568 41572 41576 41580 41584 41588 41592 41596 41600 41604 41608 41612 41616 41620 41624 41628 41632 41636 41640 41644 41648 41652 41656 41660 41664 41668 41672 41676 41680 41684 41688 41692 41696 41700 41704 41708 41712 41716 41720 41724 41728 41732 41736 41740 41744 41748 41752 41756 41760 41764 41768 41772 41776 41780 41784 41788 41792 41796 41800 41804 41808 41812 41816 41820 41824 41828 41832 41836 41840 41844 41848 41852 41856 41860 41864 41868 41872 41876 41880 41884 41888 41892 41896 41900 41904 41908 41912 41916 41920 41924 41928 41932 41936 41940 41944 41948 41952 41956 41960 41964 41968 41972 41976 41980 41984 41988 41992 41996 42000 42004 42008 42012 42016 42020 42024 42028 42032 42036 42040 42044 42048 42052 42056 42060 42064 42068 42072 42076 42080 42084 42088 42092 42096 42100 42104 42108 42112 42116 42120 42124 42128 42132 42136 42140 42144 42148 42152 42156 42160 42164 42168 42172 42176 42180 42184 42188 42192 42196 42200 42204 42208 42212 42216 42220 42224 42228 42232 42236 42240 42244 42248 42252 42256 42260 42264 42268 42272 42276 42280 42284 42288 42292 42296 42300 42304 42308 42312 42316 42320 42324 42328 42332 42336 42340 42344 42348 42352 42356 42360 42364 42368 42372 42376 42380 42384 42388 42392 42396 42400 42404 42408 42412 42416 42420 42424 42428 42432 42436 42440 42444 42448 42452 42456 42460 42464 42468 42472 42476 42480 42484 42488 42492 42496 42500 42504 42508 42512 42516 42520 42524 42528 42532 42536 42540 42544 42548 42552 42556 42560 42564 42568 42572 42576 42580 42584 42588 42592 42596 42600 42604 42608 42612 42616 42620 42624 42628 42632 42636 42640 42644 42648 42652 42656 42660 42664 42668 42672 42676 42680 42684 42688 42692 42696 42700 42704 42708 42712 42716 42720 42724 42728 42732 42736 42740 42744 42748 42752 42756 42760 42764 42768 42772 42776 42780 42784 42788 42792 42796 42800 42804 42808 42812 42816 42820 42824 42828 42832 42836 42840 42844 42848 42852 42856 42860 42864 42868 42872 42876 42880 42884 42888 42892 42896 42900 42904 42908 42912 42916 42920 42924 42928 42932 42936 42940 42944 42948 42952 42956 42960 42964 42968 42972 42976 42980 42984 42988 42992 42996 43000 43004 43008 43012 43016 43020 43024 43028 43032 43036 43040 43044 43048 43052 43056 43060 43064 43068 43072 43076 43080 43084 43088 43092 43096 43100 43104 43108 43112 43116 43120 43124 43128 43132 43136 43140 43144 43148 43152 43156 43160 43164 43168 43172 43176 43180 43184 43188 43192 43196 43200 43204 43208 43212 43216 43220 43224 43228 43232 43236 43240 43244 43248 43252 43256 43260 43264 43268 43272 43276 43280 43284 43288 43292 43296 43300 43304 43308 43312 43316 43320 43324 43328 43332 43336 43340 43344 43348 43352 43356 43360 43364 43368 43372 43376 43380 43384 43388 43392 43396 43400 43404 43408 43412 43416 43420 43424 43428 43432 43436 43440 43444 43448 43452 43456 43460 43464 43468 43472 43476 43480 43484 43488 43492 43496 43500 43504 43508 43512 43516 43520 43524 43528 43532 43536 43540 43544 43548 43552 43556 43560 43564 43568 43572 43576 43580 43584 43588 43592 43596 43600 43604 43608 43612 43616 43620 43624 43628 43632 43636 43640 43644 43648 43652 43656 43660 43664 43668 43672 43676 43680 43684 43688 43692 43696 43700 43704 43708 43712 43716 43720 43724 43728 43732 43736 43740 43744 43748 43752 43756 43760 43764 43768 43772 43776 43780 43784 43788 43792 43796 43800 43804 43808 43812 43816 43820 43824 43828 43832 43836 43840 43844 43848 43852 43856 43860 43864 43868 43872 43876 43880 43884 43888 43892 43896 43900 43904 43908 43912 43916 43920 43924 43928 43932 43936 43940 43944 43948 43952 43956 43960 43964 43968 43972 43976 43980 43984 43988 43992 43996 44000 44004 44008 44012 44016 44020 44024 44028 44032 44036 44040 44044 44048 44052 44056 44060 44064 44068 44072 44076 44080 44084 44088 44092 44096 44100 44104 44108 44112 44116 44120 44124 44128 44132 44136 44140 44144 44148 44152 44156 44160 44164 44168 44172 44176 44180 44184 44188 44192 44196 44200 44204 44208 44212 44216 44220 44224 44228 44232 44236 44240 44244 44248 44252 44256 44260 44264 44268 44272 44276 44280 44284 44288 44292 44296 44300 44304 44308 44312 44316 44320 44324 44328 44332 44336 44340 44344 44348 44352 44356 44360 44364 44368 44372 44376 44380 44384 44388 44392 44396 44400 44404 44408 44412 44416 44420 44424 44428 44432 44436 44440 44444 44448 44452 44456 44460 44464 44468 44472 44476 44480 44484 44488 44492 44496 44500 44504 44508 44512 44516 44520 44524 44528 44532 44536 44540 44544 44548 44552 44556 44560 44564 44568 44572 44576 44580 44584 44588 44592 44596 44600 44604 44608 44612 44616 44620 44624 44628 44632 44636 44640 44644 44648 44652 44656 44660 44664 44668 44672 44676 44680 44684 44688 44692 44696 44700 44704 44708 44712 44716 44720 44724 44728 44732 44736 44740 44744 44748 44752 44756 44760 44764 44768 44772 44776 44780 44784 44788 44792 44796 44800 44804 44808 44812 44816 44820 44824 44828 44832 44836 44840 44844 44848 44852 44856 44860 44864 44868 44872 44876 44880 44884 44888 44892 44896 44900 44904 44908 44912 44916 44920 44924 44928 44932 44936 44940 44944 44948 44952 44956 44960 44964 44968 44972 44976 44980 44984 44988 44992 44996 45000 45004 45008 45012 45016 45020 45024 45028 45032 45036 45040 45044 45048 45052 45056 45060 45064 45068 45072 45076 45080 45084 45088 45092 45096 45100 45104 45108 45112 45116 45120 45124 45128 45132 45136 45140 45144 45148 45152 45156 45160 45164 45168 45172 45176 45180 45184 45188 45192 45196 45200 45204 45208 45212 45216 45220 45224 45228 45232 45236 45240 45244 45248 45252 45256 45260 45264 45268 45272 45276 45280 45284 45288 45292 45296 45300 45304 45308 45312 45316 45320 45324 45328 45332 45336 45340 45344 45348 45352 45356 45360 45364 45368 45372 45376 45380 45384 45388 45392 45396 45400 45404 45408 45412 45416 45420 45424 45428 45432 45436 45440 45444 45448 45452 45456 45460 45464 45468 45472 45476 45480 45484 45488 45492 45496 45500 45504 45508 45512 45516 45520 45524 45528 45532 45536 45540 45544 45548 45552 45556 45560 45564 45568 45572 45576 45580 45584 45588 45592 45596 45600 45604 45608 45612 45616 45620 45624 45628 45632 45636 45640 45644 45648 45652 45656 45660 45664 45668 45672 45676 45680 45684 45688 45692 45696 45700 45704 45708 45712 45716 45720 45724 45728 45732 45736 45740 45744 45748 45752 45756 45760 45764 45768 45772 45776 45780 45784 45788 45792 45796 45800 45804 45808 45812 45816 45820 45824 45828 45832 45836 45840 45844 45848 45852 45856 45860 45864 45868 45872 45876 45880 45884 45888 45892 45896 45900 45904 45908 45912 45916 45920 45924 45928 45932 45936 45940 45944 45948 45952 45956 45960 45964 45968 45972 45976 45980 45984 45988 45992 45996 46000 46004 46008 46012 46016 46020 46024 46028 46032 46036 46040 46044 46048 46052 46056 46060 46064 46068 46072 46076 46080 46084 46088 46092 46096 46100 46104 46108 46112 46116 46120 46124 46128 46132 46136 46140 46144 46148 46152 46156 46160 46164 46168 46172 46176 46180 46184 46188 46192 46196 46200 46204 46208 46212 46216 46220 46224 46228 46232 46236 46240 46244 46248 46252 46256 46260 46264 46268 46272 46276 46280 46284 46288 46292 46296 46300 46304 46308 46312 46316 46320 46324 46328 46332 46336 46340 46344 46348 46352 46356 46360 46364 46368 46372 46376 46380 46384 46388 46392 46396 46400 46404 46408 46412 46416 46420 46424 46428 46432 46436 46440 46444 46448 46452 46456 46460 46464 46468 46472 46476 46480 46484 46488 46492 46496 46500 46504 46508 46512 46516 46520 46524 46528 46532 46536 46540 46544 46548 46552 46556 46560 46564 46568 46572 46576 46580 46584 46588 46592 46596 46600 46604 46608 46612 46616 46620 46624 46628 46632 46636 46640 46644 46648 46652 46656 46660 46664 46668 46672 46676 46680 46684 46688 46692 46696 46700 46704 46708 46712 46716 46720 46724 46728 46732 46736 46740 46744 46748 46752 46756 46760 46764 46768 46772 46776 46780 46784 46788 46792 46796 46800 46804 46808 46812 46816 46820 46824 46828 46832 46836 46840 46844 46848 46852 46856 46860 46864 46868 46872 46876 46880 46884 46888 46892 46896 46900 46904 46908 46912 46916 46920 46924 46928 46932 46936 46940 46944 46948 46952 46956 46960 46964 46968 46972 46976 46980 46984 46988 46992 46996 47000 47004 47008 47012 47016 47020 47024 47028 47032 47036 47040 47044 47048 47052 47056 47060 47064 47068 47072 47076 47080 47084 47088 47092 47096 47100 47104 47108 47112 47116 47120 47124 47128 47132 47136 47140 47144 47148 47152 47156 47160 47164 47168 47172 47176 47180 47184 47188 47192 47196 47200 47204 47208 47212 47216 47220 47224 47228 47232 47236 47240 47244 47248 47252 47256 47260 47264 47268 47272 47276 47280 47284 47288 47292 47296 47300 47304 47308 47312 47316 47320 47324 47328 47332 47336 47340 47344 47348 47352 47356 47360 47364 47368 47372 47376 47380 47384 47388 47392 47396 47400 47404 47408 47412 47416 47420 47424 47428 47432 47436 47440 47444 47448 47452 47456 47460 47464 47468 47472 47476 47480 47484 47488 47492 47496 47500 47504 47508 47512 47516 47520 47524 47528 47532 47536 47540 47544 47548 47552 47556 47560 47564 47568 47572 47576 47580 47584 47588 47592 47596 47600 47604 47608 47612 47616 47620 47624 47628 47632 47636 47640 47644 47648 47652 47656 47660 47664 47668 47672 47676 47680 47684 47688 47692 47696 47700 47704 47708 47712 47716 47720 47724 47728 47732 47736 47740 47744 47748 47752 47756 47760 47764 47768 47772 47776 47780 47784 47788 47792 47796 47800 47804 47808 47812 47816 47820 47824 47828 47832 47836 47840 47844 47848 47852 47856 47860 47864 47868 47872 47876 47880 47884 47888 47892 47896 47900 47904 47908 47912 47916 47920 47924 47928 47932 47936 47940 47944 47948 47952 47956 47960 47964 47968 47972 47976 47980 47984 47988 47992 47996 48000 48004 48008 48012 48016 48020 48024 48028 48032 48036 48040 48044 48048 48052 48056 48060 48064 48068 48072 48076 48080 48084 48088 48092 48096 48100 48104 48108 48112 48116 48120 48124 48128 48132 48136 48140 48144 48148 48152 48156 48160 48164 48168 48172 48176 48180 48184 48188 48192 48196 48200 48204 48208 48212 48216 48220 48224 48228 48232 48236 48240 48244 48248 48252 48256 48260 48264 48268 48272 48276 48280 48284 48288 48292 48296 48300 48304 48308 48312 48316 48320 48324 48328 48332 48336 48340 48344 48348 48352 48356 48360 48364 48368 48372 48376 48380 48384 48388 48392 48396 48400 48404 48408 48412 48416 48420 48424 48428 48432 48436 48440 48444 48448 48452 48456 48460 48464 48468 48472 48476 48480 48484 48488 48492 48496 48500 48504 48508 48512 48516 48520 48524 48528 48532 48536 48540 48544 48548 48552 48556 48560 48564 48568 48572 48576 48580 48584 48588 48592 48596 48600 48604 48608 48612 48616 48620 48624 48628 48632 48636 48640 48644 48648 48652 48656 48660 48664 48668 48672 48676 48680 48684 48688 48692 48696 48700 48704 48708 48712 48716 48720 48724 48728 48732 48736 48740 48744 48748 48752 48756 48760 48764 48768 48772 48776 48780 48784 48788 48792 48796 48800 48804 48808 48812 48816 48820 48824 48828 48832 48836 48840 48844 48848 48852 48856 48860 48864 48868 48872 48876 48880 48884 48888 48892 48896 48900 48904 48908 48912 48916 48920 48924 48928 48932 48936 48940 48944 48948 48952 48956 48960 48964 48968 48972 48976 48980 48984 48988 48992 48996 49000 49004 49008 49012 49016 49020 49024 49028 49032 49036 49040 49044 49048 49052 49056 49060 49064 49068 49072 49076 49080 49084 49088 49092 49096 49100 49104 49108 49112 49116 49120 49124 49128 49132 49136 49140 49144 49148 49152 
CONNECTIVITY vtktypeint64
0 33 331 34 
297 331 298 0 
0 33 330 331 
297 331 0 330 
298 0 331 1 
331 0 34 1 
1 34 332 35 
298 332 299 1 
1 34 331 332 
298 332 1 331 
299 1 332 2 
332 1 35 2 
2 35 333 36 
299 333 300 2 
2 35 332 333 
299 333 2 332 
300 2 333 3 
333 2 36 3 
3 36 334 37 
300 334 301 3 
3 36 333 334 
300 334 3 333 
301 3 334 4 
334 3 37 4 
4 37 335 38 
301 335 302 4 
4 37 334 335 
301 335 4 334 
302 4 335 5 
335 4 38 5 
5 38 336 39 
302 336 303 5 
5 38 335 336 
302 336 5 335 
303 5 336 6 
336 5 39 6 
6 39 337 40 
303 337 304 6 
6 39 336 337 
303 337 6 336 
304 6 337 7 
337 6 40 7 
7 40 338 41 
304 338 305 7 
7 40 337 338 
304 338 7 337 
305 7 338 8 
338 7 41 8 
8 41 339 42 
305 339 306 8 
8 41 338 339 
305 339 8 338 
306 8 339 9 
339 8 42 9 
9 42 340 43 
306 340 307 9 
9 42 339 340 
306 340 9 339 
307 9 340 10 
340 9 43 10 
10 43 341 44 
307 341 308 10 
10 43 340 341 
307 341 10 340 
308 10 341 11 
341 10 44 11 
11 44 342 45 
308 342 309 11 
11 44 341 342 
308 342 11 341 
309 11 342 12 
342 11 45 12 
12 45 343 46 
309 343 310 12 
12 45 342 343 
309 343 12 342 
310 12 343 13 
343 12 46 13 
13 46 344 47 
310 344 311 13 
13 46 343 344 
310 344 13 343 
311 13 344 14 
344 13 47 14 
14 47 345 48 
311 345 312 14 
14 47 344 345 
311 345 14 344 
312 14 345 15 
345 14 48 15 
15 48 346 49 
312 346 313 15 
15 48 345 346 
312 346 15 345 
313 15 346 16 
346 15 49 16 
16 49 347 50 
313 347 314 16 
16 49 346 347 
313 347 16 346 
314 16 347 17 
347 16 50 17 
17 50 348 51 
314 348 315 17 
17 50 347 348 
314 348 17 347 
315 17 348 18 
348 17 51 18 
18 51 349 52 
315 349 316 18 
18 51 348 349 
315 349 18 348 
316 18 349 19 
349 18 52 19 
19 52 350 53 
316 350 317 19 
19 52 349 350 
316 350 19 349 
317 19 350 20 
350 19 53 20 
20 53 351 54 
317 351 318 20 
20 53 350 351 
317 351 20 350 
318 20 351 21 
351 20 54 21 
21 54 352 55 
318 352 319 21 
21 54 351 352 
318 352 21 351 
319 21 352 22 
352 21 55 22 
22 55 353 56 
319 353 320 22 
22 55 352 353 
319 353 22 352 
320 22 353 23 
353 22 56 23 
23 56 354 57 
320 354 321 23 
23 56 353 354 
320 354 23 353 
321 23 354 24 
354 23 57 24 
24 57 355 58 
321 355 322 24 
24 57 354 355 
321 355 24 354 
322 24 355 25 
355 24 58 25 
25 58 356 59 
322 356 323 25 
25 58 355 356 
322 356 25 355 
323 25 356 26 
356 25 59 26 
26 59 357 60 
323 357 324 26 
26 59 356 357 
323 357 26 356 
324 26 357 27 
357 26 60 27 
27 60 358 61 
324 358 325 27 
27 60 357 358 
324 358 27 357 
325 27 358 28 
358 27 61 28 
28 61 359 62 
325 359 326 28 
28 61 358 359 
325 359 28 358 
326 28 359 29 
359 28 62 29 
29 62 360 63 
326 360 327 29 
29 62 359 360 
326 360 29 359 
327 29 360 30 
360 29 63 30 
30 63 361 64 
327 361 328 30 
30 63 360 361 
327 361 30 360 
328 30 361 31 
361 30 64 31 
31 64 362 65 
328 362 329 31 
31 64 361 362 
328 362 31 361 
329 31 362 32 
362 31 65 32 
33 66 364 67 
330 364 331 33 
33 66 363 364 
330 364 33 363 
331 33 364 34 
364 33 67 34 
34 67 365 68 
331 365 332 34 
34 67 364 365 
331 365 34 364 
332 34 365 35 
365 34 68 35 
35 68 366 69 
332 366 333 35 
35 68 365 366 
332 366 35 365 
333 35 366 36 
366 35 69 36 
36 69 367 70 
333 367 334 36 
36 69 366 367 
333 367 36 366 
334 36 367 37 
367 36 70 37 
37 70 368 71 
334 368 335 37 
37 70 367 368 
334 368 37 367 
335 37 368 38 
368 37 71 38 
38 71 369 72 
335 369 336 38 
38 71 368 369 
335 369 38 368 
336 38 369 39 
369 38 72 39 
39 72 370 73 
336 370 337 39 
39 72 369 370 
336 370 39 369 
337 39 370 40 
370 39 73 40 
40 73 371 74 
337 371 338 40 
40 73 370 371 
337 371 40 370 
338 40 371 41 
371 40 74 41 
41 74 372 75 
338 372 339 41 
41 74 371 372 
338 372 41 371 
339 41 372 42 
372 41 75 42 
42 75 373 76 
339 373 340 42 
42 75 372 373 
339 373 42 372 
340 42 373 43 
373 42 76 43 
43 76 374 77 
340 374 341 43 
43 76 373 374 
340 374 43 373 
341 43 374 44 
374 43 77 44 
44 77 375 78 
341 375 342 44 
44 77 374 375 
341 375 44 374 
342 44 375 45 
375 44 78 45 
45 78 376 79 
342 376 343 45 
45 78 375 376 
342 376 45 375 
343 45 376 46 
376 45 79 46 
46 79 377 80 
343 377 344 46 
46 79 376 377 
343 377 46 376 
344 46 377 47 
377 46 80 47 
47 80 378 81 
344 378 345 47 
47 80 377 378 
344 378 47 377 
345 47 378 48 
378 47 81 48 
48 81 379 82 
345 379 346 48 
48 81 378 379 
345 379 48 378 
346 48 379 49 
379 48 82 49 
49 82 380 83 
346 380 347 49 
49 82 379 380 
346 380 49 379 
347 49 380 50 
380 49 83 50 
50 83 381 84 
347 381 348 50 
50 83 380 381 
347 381 50 380 
348 50 381 51 
381 50 84 51 
51 84 382 85 
348 382 349 51 
51 84 381 382 
348 382 51 381 
349 51 382 52 
382 51 85 52 
52 85 383 86 
349 383 350 52 
52 85 382 383 
349 383 52 382 
350 52 383 53 
383 52 86 53 
53 86 384 87 
350 384 351 53 
53 86 383 384 
350 384 53 383 
351 53 384 54 
384 53 87 54 
54 87 385 88 
351 385 352 54 
54 87 384 385 
351 385 54 384 
352 54 385 55 
385 54 88 55 
55 88 386 89 
352 386 353 55 
55 88 385 386 
352 386 55 385 
353 55 386 56 
386 55 89 56 
56 89 387 90 
353 387 354 56 
56 89 386 387 
353 387 56 386 
354 56 387 57 
387 56 90 57 
57 90 388 91 
354 388 355 57 
57 90 387 388 
354 388 57 387 
355 57 388 58 
388 57 91 58 
58 91 389 92 
355 389 356 58 
58 91 388 389 
355 389 58 388 
356 58 389 59 
389 58 92 59 
59 92 390 93 
356 390 357 59 
59 92 389 390 
356 390 59 389 
357 59 390 60 
390 59 93 60 
60 93 391 94 
357 391 358 60 
60 93 390 391 
357 391 60 390 
358 60 391 61 
391 60 94 61 
61 94 392 95 
358 392 359 61 
61 94 391 392 
358 392 61 391 
359 61 392 62 
392 61 95 62 
62 95 393 96 
359 393 360 62 
62 95 392 393 
359 393 62 392 
360 62 393 63 
393 62 96 63 
63 96 394 97 
360 394 361 63 
63 96 393 394 
360 394 63 393 
361 63 394 64 
394 63 97 64 
64 97 395 98 
361 395 362 64 
64 97 394 395 
361 395 64 394 
362 64 395 65 
395 64 98 65 
66 99 397 100 
363 397 364 66 
66 99 396 397 
363 397 66 396 
364 66 397 67 
397 66 100 67 
67 100 398 101 
364 398 365 67 
67 100 397 398 
364 398 67 397 
365 67 398 68 
398 67 101 68 
68 101 399 102 
365 399 366 68 
68 101 398 399 
365 399 68 398 
366 68 399 69 
399 68 102 69 
69 102 400 103 
366 400 367 69 
69 102 399 400 
366 400 69 399 
367 69 400 70 
400 69 103 70 
70 103 401 104 
367 401 368 70 
70 103 400 401 
367 401 70 400 
368 70 401 71 
401 70 104 71 
71 104 402 105 
368 402 369 71 
71 104 401 402 
368 402 71 401 
369 71 402 72 
402 71 105 72 
72 105 403 106 
369 403 370 72 
72 105 402 403 
369 403 72 402 
370 72 403 73 
403 72 106 73 
73 106 404 107 
370 404 371 73 
73 106 403 404 
370 404 73 403 
371 73 404 74 
404 73 107 74 
74 107 405 108 
371 405 372 74 
74 107 404 405 
371 405 74 404 
372 74 405 75 
405 74 108 75 
75 108 406 109 
372 406 373 75 
75 108 405 406 
372 406 75 405 
373 75 406 76 
406 75 109 76 
76 109 407 110 
373 407 374 76 
76 109 406 407 
373 407 76 406 
374 76 407 77 
407 76 110 77 
77 110 408 111 
374 408 375 77 
77 110 407 408 
374 408 77 407 
375 77 408 78 
408 77 111 78 
78 111 409 112 
375 409 376 78 
78 111 408 409 
375 409 78 408 
376 78 409 79 
409 78 112 79 
79 112 410 113 
376 410 377 79 
79 112 409 410 
376 410 79 409 
377 79 410 80 
410 79 113 80 
80 113 411 114 
377 411 378 80 
80 113 410 411 
377 411 80 410 
378 80 411 81 
411 80 114 81 
81 114 412 115 
378 412 379 81 
81 114 411 412 
378 412 81 411 
379 81 412 82 
412 81 115 82 
82 115 413 116 
379 413 380 82 
82 115 412 413 
379 413 82 412 
380 82 413 83 
413 82 116 83 
83 116 414 117 
380 414 381 83 
83 116 413 414 
380 414 83 413 
381 83 414 84 
414 83 117 84 
84 117 415 118 
381 415 382 84 
84 117 414 415 
381 415 84 414 
382 84 415 85 
415 84 118 85 
85 118 416 119 
382 416 383 85 
85 118 415 416 
382 416 85 415 
383 85 416 86 
416 85 119 86 
86 119 417 120 
383 417 384 86 
86 119 416 417 
383 417 86 416 
384 86 417 87 
417 86 120 87 
87 120 418 121 
384 418 385 87 
87 120 417 418 
384 418 87 417 
385 87 418 88 
418 87 121 88 
88 121 419 122 
385 419 386 88 
88 121 418 419 
385 419 88 418 
386 88 419 89 
419 88 122 89 
89 122 420 123 
386 420 387 89 
89 122 419 420 
386 420 89 419 
387 89 420 90 
420 89 123 90 
90 123 421 124 
387 421 388 90 
90 123 420 421 
387 421 90 420 
388 90 421 91 
421 90 124 91 
91 124 422 125 
388 422 389 91 
91 124 421 422 
388 422 91 421 
389 91 422 92 
422 91 125 92 
92 125 423 126 
389 423 390 92 
92 125 422 423 
389 423 92 422 
390 92 423 93 
423 92 126 93 
93 126 424 127 
390 424 391 93 
93 126 423 424 
390 424 93 423 
391 93 424 94 
424 93 127 94 
94 127 425 128 
391 425 392 94 
94 127 424 425 
391 425 94 424 
392 94 425 95 
425 94 128 95 
95 128 426 129 
392 426 393 95 
95 128 425 426 
392 426 95 425 
393 95 426 96 
426 95 129 96 
96 129 427 130 
393 427 394 96 
96 129 426 427 
393 427 96 426 
394 96 427 97 
427 96 130 97 
97 130 428 131 
394 428 395 97 
97 130 427 428 
394 428 97 427 
395 97 428 98 
428 97 131 98 
99 132 430 133 
396 430 397 99 
99 132 429 430 
396 430 99 429 
397 99 430 100 
430 99 133 100 
100 133 431 134 
397 431 398 100 
100 133 430 431 
397 431 100 430 
398 100 431 101 
431 100 134 101 
101 134 432 135 
398 432 399 101 
101 134 431 432 
398 432 101 431 
399 101 432 102 
432 101 135 102 
102 135 433 136 
399 433 400 102 
102 135 432 433 
399 433 102 432 
400 102 433 103 
433 102 136 103 
103 136 434 137 
400 434 401 103 
103 136 433 434 
400 434 103 433 
401 103 434 104 
434 103 137 104 
104 137 435 138 
401 435 402 104 
104 137 434 435 
401 435 104 434 
402 104 435 105 
435 104 138 105 
105 138 436 139 
402 436 403 105 
105 138 435 436 
402 436 105 435 
403 105 436 106 
436 105 139 106 
106 139 437 140 
403 437 404 106 
106 139 436 437 
403 437 106 436 
404 106 437 107 
437 106 140 107 
107 140 438 141 
404 438 405 107 
107 140 437 438 
404 438 107 437 
405 107 438 108 
438 107 141 108 
108 141 439 142 
405 439 406 108 
108 141 438 439 
405 439 108 438 
406 108 439 109 
439 108 142 109 
109 142 440 143 
406 440 407 109 
109 142 439 440 
406 440 109 439 
407 109 440 110 
440 109 143 110 
110 143 441 144 
407 441 408 110 
110 143 440 441 
407 441 110 440 
408 110 441 111 
441 110 144 111 
111 144 442 145 
408 442 409 111 
111 144 441 442 
408 442 111 441 
409 111 442 112 
442 111 145 112 
112 145 443 146 
409 443 410 112 
112 145 442 443 
409 443 112 442 
410 112 443 113 
443 112 146 113 
113 146 444 147 
410 444 411 113 
113 146 443 444 
410 444 113 443 
411 113 444 114 
444 113 147 114 
114 147 445 148 
411 445 412 114 
114 147 444 445 
411 445 114 444 
412 114 445 115 
445 114 148 115 
115 148 446 149 
412 446 413 115 
115 148 445 446 
412 446 115 445 
413 115 446 116 
446 115 149 116 
116 149 447 150 
413 447 414 116 
116 149 446 447 
413 447 116 446 
414 116 447 117 
447 116 150 117 
117 150 448 151 
414 448 415 117 
117 150 447 448 
414 448 117 447 
415 117 448 118 
448 117 151 118 
118 151 449 152 
415 449 416 118 
118 151 448 449 
415 449 118 448 
416 118 449 119 
449 118 152 119 
119 152 450 153 
416 450 417 119 
119 152 449 450 
416 450 119 449 
417 119 450 120 
450 119 153 120 
120 153 451 154 
417 451 418 120 
120 153 450 451 
417 451 120 450 
418 120 451 121 
451 120 154 121 
121 154 452 155 
418 452 419 121 
121 154 451 452 
418 452 121 451 
419 121 452 122 
452 121 155 122 
122 155 453 156 
419 453 420 122 
122 155 452 453 
419 453 122 452 
420 122 453 123 
453 122 156 123 
123 156 454 157 
420 454 421 123 
123 156 453 454 
420 454 123 453 
421 123 454 124 
454 123 157 124 
124 157 455 158 
421 455 422 124 
124 157 454 455 
421 455 124 454 
422 124 455 125 
455 124 158 125 
125 158 456 159 
422 456 423 125 
125 158 455 456 
422 456 125 455 
423 125 456 126 
456 125 159 126 
126 159 457 160 
423 457 424 126 
126 159 456 457 
423 457 126 456 
424 126 457 127 
457 126 160 127 
127 160 458 161 
424 458 425 127 
127 160 457 458 
424 458 127 457 
425 127 458 128 
458 127 161 128 
128 161 459 162 
425 459 426 128 
128 161 458 459 
425 459 128 458 
426 128 459 129 
459 128 162 129 
129 162 460 163 
426 460 427 129 
129 162 459 460 
426 460 129 459 
427 129 460 130 
460 129 163 130 
130 163 461 164 
427 461 428 130 
130 163 460 461 
427 461 130 460 
428 130 461 131 
461 130 164 131 
132 165 463 166 
429 463 430 132 
132 165 462 463 
429 463 132 462 
430 132 463 133 
463 132 166 133 
133 166 464 167 
430 464 431 133 
133 166 463 464 
430 464 133 463 
431 133 464 134 
464 133 167 134 
134 167 465 168 
431 465 432 134 
134 167 464 465 
431 465 134 464 
432 134 465 135 
465 134 168 135 
135 168 466 169 
432 466 433 135 
135 168 465 466 
432 466 135 465 
433 135 466 136 
466 135 169 136 
136 169 467 170 
433 467 434 136 
136 169 466 467 
433 467 136 466 
434 136 467 137 
467 136 170 137 
137 170 468 171 
434 468 435 137 
137 170 467 468 
434 468 137 467 
435 137 468 138 
468 137 171 138 
138 171 469 172 
435 469 436 138 
138 171 468 469 
435 469 138 468 
436 138 469 139 
469 138 172 139 
139 172 470 173 
436 470 437 139 
139 172 469 470 
436 470 139 469 
437 139 470 140 
470 139 173 140 
140 173 471 174 
437 471 438 140 
140 173 470 471 
437 471 140 470 
438 140 471 141 
471 140 174 141 
141 174 472 175 
438 472 439 141 
141 174 471 472 
438 472 141 471 
439 141 472 142 
472 141 175 142 
142 175 473 176 
439 473 440 142 
142 175 472 473 
439 473 142 472 
440 142 473 143 
473 142 176 143 
143 176 474 177 
440 474 441 143 
143 176 473 474 
440 474 143 473 
441 143 474 144 
474 143 177 144 
144 177 475 178 
441 475 442 144 
144 177 474 475 
441 475 144 474 
442 144 475 145 
475 144 178 145 
145 178 476 179 
442 476 443 145 
145 178 475 476 
442 476 145 475 
443 145 476 146 
476 145 179 146 
146 179 477 180 
443 477 444 146 
146 179 476 477 
443 477 146 476 
444 146 477 147 
477 146 180 147 
147 180 478 181 
444 478 445 147 
147 180 477 478 
444 478 147 477 
445 147 478 148 
478 147 181 148 
148 181 479 182 
445 479 446 148 
148 181 478 479 
445 479 148 478 
446 148 479 149 
479 148 182 149 
149 182 480 183 
446 480 447 149 
149 182 479 480 
446 480 149 479 
447 149 480 150 
480 149 183 150 
150 183 481 184 
447 481 448 150 
150 183 480 481 
447 481 150 480 
448 150 481 151 
481 150 184 151 
151 184 482 185 
448 482 449 151 
151 184 481 482 
448 482 151 481 
449 151 482 152 
482 151 185 152 
152 185 483 186 
449 483 450 152 
152 185 482 483 
449 483 152 482 
450 152 483 153 
483 152 186 153 
153 186 484 187 
450 484 451 153 
153 186 483 484 
450 484 153 483 
451 153 484 154 
484 153 187 154 
154 187 485 188 
451 485 452 154 
154 187 484 485 
451 485 154 484 
452 154 485 155 
485 154 188 155 
155 188 486 189 
452 486 453 155 
155 188 485 486 
452 486 155 485 
453 155 486 156 
486 155 189 156 
156 189 487 190 
453 487 454 156 
156 189 486 487 
453 487 156 486 
454 156 487 157 
487 156 190 157 
157 190 488 191 
454 488 455 157 
157 190 487 488 
454 488 157 487 
455 157 488 158 
488 157 191 158 
158 191 489 192 
455 489 456 158 
158 191 488 489 
455 489 158 488 
456 158 489 159 
489 158 192 159 
159 192 490 193 
456 490 457 159 
159 192 489 490 
456 490 159 489 
457 159 490 160 
490 159 193 160 
160 193 491 194 
457 491 458 160 
160 193 490 491 
457 491 160 490 
458 160 491 161 
491 160 194 161 
161 194 492 195 
458 492 459 161 
161 194 491 492 
458 492 161 491 
459 161 492 162 
492 161 195 162 
162 195 493 196 
459 493 460 162 
162 195 492 493 
459 493 162 492 
460 162 493 163 
493 162 196 163 
163 196 494 197 
460 494 461 163 
163 196 493 494 
460 494 163 493 
461 163 494 164 
494 163 197 164 
165 198 496 199 
462 496 463 165 
165 198 495 496 
462 496 165 495 
463 165 496 166 
496 165 199 166 
166 199 497 200 
463 497 464 166 
166 199 496 497 
463 497 166 496 
464 166 497 167 
497 166 200 167 
167 200 498 201 
464 498 465 167 
167 200 497 498 
464 498 167 497 
465 167 498 168 
498 167 201 168 
168 201 499 202 
465 499 466 168 
168 201 498 499 
465 499 168 498 
466 168 499 169 
499 168 202 169 
169 202 500 203 
466 500 467 169 
169 202 499 500 
466 500 169 499 
467 169 500 170 
500 169 203 170 
170 203 501 204 
467 501 468 170 
170 203 500 501 
467 501 170 500 
468 170 501 171 
501 170 204 171 
171 204 502 205 
468 502 469 171 
171 204 501 502 
468 502 171 501 
469 171 502 172 
502 171 205 172 
172 205 503 206 
469 503 470 172 
172 205 502 503 
469 503 172 502 
470 172 503 173 
503 172 206 173 
173 206 504 207 
470 504 471 173 
173 206 503 504 
470 504 173 503 
471 173 504 174 
504 173 207 174 
174 207 505 208 
471 505 472 174 
174 207 504 505 
471 505 174 504 
472 174 505 175 
505 174 208 175 
175 208 506 209 
472 506 473 175 
175 208 505 506 
472 506 175 505 
473 175 506 176 
506 175 209 176 
176 209 507 210 
473 507 474 176 
176 209 506 507 
473 507 176 506 
474 176 507 177 
507 176 210 177 
177 210 508 211 
474 508 475 177 
177 210 507 508 
474 508 177 507 
475 177 508 178 
508 177 211 178 
178 211 509 212 
475 509 476 178 
178 211 508 509 
475 509 178 508 
476 178 509 179 
509 178 212 179 
179 212 510 213 
476 510 477 179 
179 212 509 510 
476 510 179 509 
477 179 510 180 
510 179 213 180 
180 213 511 214 
477 511 478 180 
180 213 510 511 
477 511 180 510 
478 180 511 181 
511 180 214 181 
181 214 512 215 
478 512 479 181 
181 214 511 512 
478 512 181 511 
479 181 512 182 
512 181 215 182 
182 215 513 216 
479 513 480 182 
182 215 512 513 
479 513 182 512 
480 182 513 183 
513 182 216 183 
183 216 514 217 
480 514 481 183 
183 216 513 514 
480 514 183 513 
481 183 514 184 
514 183 217 184 
184 217 515 218 
481 515 482 184 
184 217 514 515 
481 515 184 514 
482 184 515 185 
515 184 218 185 
185 218 516 219 
482 516 483 185 
185 218 515 516 
482 516 185 515 
483 185 516 186 
516 185 219 186 
186 219 517 220 
483 517 484 186 
186 219 516 517 
483 517 186 516 
484 186 517 187 
517 186 220 187 
187 220 518 221 
484 518 485 187 
187 220 517 518 
484 518 187 517 
485 187 518 188 
518 187 221 188 
188 221 519 222 
485 519 486 188 
188 221 518 519 
485 519 188 518 
486 188 519 189 
519 188 222 189 
189 222 520 223 
486 520 487 189 
189 222 519 520 
486 520 189 519 
487 189 520 190 
520 189 223 190 
190 223 521 224 
487 521 488 190 
190 223 520 521 
487 521 190 520 
488 190 521 191 
521 190 224 191 
191 224 522 225 
488 522 489 191 
191 224 521 522 
488 522 191 521 
489 191 522 192 
522 191 225 192 
192 225 523 226 
489 523 490 192 
192 225 522 523 
489 523 192 522 
490 192 523 193 
523 192 226 193 
193 226 524 227 
490 524 491 193 
193 226 523 524 
490 524 193 523 
491 193 524 194 
524 193 227 194 
194 227 525 228 
491 525 492 194 
194 227 524 525 
491 525 194 524 
492 194 525 195 
525 194 228 195 
195 228 526 229 
492 526 493 195 
195 228 525 526 
492 526 195 525 
493 195 526 196 
526 195 229 196 
196 229 527 230 
493 527 494 196 
196 229 526 527 
493 527 196 526 
494 196 527 197 
527 196 230 197 
198 231 529 232 
495 529 496 198 
198 231 528 529 
495 529 198 528 
496 198 529 199 
529 198 232 199 
199 232 530 233 
496 530 497 199 
199 232 529 530 
496 530 199 529 
497 199 530 200 
530 199 233 200 
200 233 531 234 
497 531 498 200 
200 233 530 531 
497 531 200 530 
498 200 531 201 
531 200 234 201 
201 234 532 235 
498 532 499 201 
201 234 531 532 
498 532 201 531 
499 201 532 202 
532 201 235 202 
202 235 533 236 
499 533 500 202 
202 235 532 533 
499 533 202 532 
500 202 533 203 
533 202 236 203 
203 236 534 237 
500 534 501 203 
203 236 533 534 
500 534 203 533 
501 203 534 204 
534 203 237 204 
204 237 535 238 
501 535 502 204 
204 237 534 535 
501 535 204 534 
502 204 535 205 
535 204 238 205 
205 238 536 239 
502 536 503 205 
205 238 535 536 
502 536 205 535 
503 205 536 206 
536 205 239 206 
206 239 537 240 
503 537 504 206 
206 239 536 537 
503 537 206 536 
504 206 537 207 
537 206 240 207 
207 240 538 241 
504 538 505 207 
207 240 537 538 
504 538 207 537 
505 207 538 208 
538 207 241 208 
208 241 539 242 
505 539 506 208 
208 241 538 539 
505 539 208 538 
506 208 539 209 
539 208 242 209 
209 242 540 243 
506 540 507 209 
209 242 539 540 
506 540 209 539 
507 209 540 210 
540 209 243 210 
210 243 541 244 
507 541 508 210 
210 243 540 541 
507 541 210 540 
508 210 541 211 
541 210 244 211 
211 244 542 245 
508 542 509 211 
211 244 541 542 
508 542 211 541 
509 211 542 212 
542 211 245 212 
212 245 543 246 
509 543 510 212 
212 245 542 543 
509 543 212 542 
510 212 543 213 
543 212 246 213 
213 246 544 247 
510 544 511 213 
213 246 543 544 
510 544 213 543 
511 213 544 214 
544 213 247 214 
214 247 545 248 
511 545 512 214 
214 247 544 545 
511 545 214 544 
512 214 545 215 
545 214 248 215 
215 248 546 249 
512 546 513 215 
215 248 545 546 
512 546 215 545 
513 215 546 216 
546 215 249 216 
216 249 547 250 
513 547 514 216 
216 249 546 547 
513 547 216 546 
514 216 547 217 
547 216 250 217 
217 250 548 251 
514 548 515 217 
217 250 547 548 
514 548 217 547 
515 217 548 218 
548 217 251 218 
218 251 549 252 
515 549 516 218 
218 251 548 549 
515 549 218 548 
516 218 549 219 
549 218 252 219 
219 252 550 253 
516 550 517 219 
219 252 549 550 
516 550 219 549 
517 219 550 220 
550 219 253 220 
220 253 551 254 
517 551 518 220 
220 253 550 551 
517 551 220 550 
518 220 551 221 
551 220 254 221 
221 254 552 255 
518 552 519 221 
221 254 551 552 
518 552 221 551 
519 221 552 222 
552 221 255 222 
222 255 553 256 
519 553 520 222 
222 255 552 553 
519 553 222 552 
520 222 553 223 
553 222 256 223 
223 256 554 257 
520 554 521 223 
223 256 553 554 
520 554 223 553 
521 223 554 224 
554 223 257 224 
224 257 555 258 
521 555 522 224 
224 257 554 555 
521 555 224 554 
522 224 555 225 
555 224 258 225 
225 258 556 259 
522 556 523 225 
225 258 555 556 
522 556 225 555 
523 225 556 226 
556 225 259 226 
226 259 557 260 
523 557 524 226 
226 259 556 557 
523 557 226 556 
524 226 557 227 
557 226 260 227 
227 260 558 261 
524 558 525 227 
227 260 557 558 
524 558 227 557 
525 227 558 228 
558 227 261 228 
228 261 559 262 
525 559 526 228 
228 261 558 559 
525 559 228 558 
526 228 559 229 
559 228 262 229 
229 262 560 263 
526 560 527 229 
229 262 559 560 
526 560 229 559 
527 229 560 230 
560 229 263 230 
231 264 562 265 
528 562 529 231 
231 264 561 562 
528 562 231 561 
529 231 562 232 
562 231 265 232 
232 265 563 266 
529 563 530 232 
232 265 562 563 
529 563 232 562 
530 232 563 233 
563 232 266 233 
233 266 564 267 
530 564 531 233 
233 266 563 564 
530 564 233 563 
531 233 564 234 
564 233 267 234 
234 267 565 268 
531 565 532 234 
234 267 564 565 
531 565 234 564 
532 234 565 235 
565 234 268 235 
235 268 566 269 
532 566 533 235 
235 268 565 566 
532 566 235 565 
533 235 566 236 
566 235 269 236 
236 269 567 270 
533 567 534 236 
236 269 566 567 
533 567 236 566 
534 236 567 237 
567 236 270 237 
237 270 568 271 
534 568 535 237 
237 270 567 568 
534 568 237 567 
535 237 568 238 
568 237 271 238 
238 271 569 272 
535 569 536 238 
238 271 568 569 
535 569 238 568 
536 238 569 239 
569 238 272 239 
239 272 570 273 
536 570 537 239 
239 272 569 570 
536 570 239 569 
537 239 570 240 
570 239 273 240 
240 273 571 274 
537 571 538 240 
240 273 570 571 
537 571 240 570 
538 240 571 241 
571 240 274 241 
241 274 572 275 
538 572 539 241 
241 274 571 572 
538 572 241 571 
539 241 572 242 
572 241 275 242 
242 275 573 276 
539 573 540 242 
242 275 572 573 
539 573 242 572 
540 242 573 243 
573 242 276 243 
243 276 574 277 
540 574 541 243 
243 276 573 574 
540 574 243 573 
541 243 574 244 
574 243 277 244 
244 277 575 278 
541 575 542 244 
244 277 574 575 
541 575 244 574 
542 244 575 245 
575 244 278 245 
245 278 576 279 
542 576 543 245 
245 278 575 576 
542 576 245 575 
543 245 576 246 
576 245 279 246 
246 279 577 280 
543 577 544 246 
246 279 576 577 
543 577 246 576 
544 246 577 247 
577 246 280 247 
247 280 578 281 
544 578 545 247 
247 280 577 578 
544 578 247 577 
545 247 578 248 
578 247 281 248 
248 281 579 282 
545 579 546 248 
248 281 578 579 
545 579 248 578 
546 248 579 249 
579 248 282 249 
249 282 580 283 
546 580 547 249 
249 282 579 580 
546 580 249 579 
547 249 580 250 
580 249 283 250 
250 283 581 284 
547 581 548 250 
250 283 580 581 
547 581 250 580 
548 250 581 251 
581 250 284 251 
251 284 582 285 
548 582 549 251 
251 284 581 582 
548 582 251 581 
549 251 582 252 
582 251 285 252 
252 285 583 286 
549 583 550 252 
252 285 582 583 
549 583 252 582 
550 252 583 253 
583 252 286 253 
253 286 584 287 
550 584 551 253 
253 286 583 584 
550 584 253 583 
551 253 584 254 
584 253 287 254 
254 287 585 288 
551 585 552 254 
254 287 584 585 
551 585 254 584 
552 254 585 255 
585 254 288 255 
255 288 586 289 
552 586 553 255 
255 288 585 586 
552 586 255 585 
553 255 586 256 
586 255 289 256 
256 289 587 290 
553 587 554 256 
256 289 586 587 
553 587 256 586 
554 256 587 257 
587 256 290 257 
257 290 588 291 
554 588 555 257 
257 290 587 588 
554 588 257 587 
555 257 588 258 
588 257 291 258 
258 291 589 292 
555 589 556 258 
258 291 588 589 
555 589 258 588 
556 258 589 259 
589 258 292 259 
259 292 590 293 
556 590 557 259 
259 292 589 590 
556 590 259 589 
557 259 590 260 
590 259 293 260 
260 293 591 294 
557 591 558 260 
260 293 590 591 
557 591 260 590 
558 260 591 261 
591 260 294 261 
261 294 592 295 
558 592 559 261 
261 294 591 592 
558 592 261 591 
559 261 592 262 
592 261 295 262 
262 295 593 296 
559 593 560 262 
262 295 592 593 
559 593 262 592 
560 262 593 263 
593 262 296 263 
297 330 628 331 
594 628 595 297 
297 330 627 628 
594 628 297 627 
595 297 628 298 
628 297 331 298 
298 331 629 332 
595 629 596 298 
298 331 628 629 
595 629 298 628 
596 298 629 299 
629 298 332 299 
299 332 630 333 
596 630 597 299 
299 332 629 630 
596 630 299 629 
597 299 630 300 
630 299 333 300 
300 333 631 334 
597 631 598 300 
300 333 630 631 
597 631 300 630 
598 300 631 301 
631 300 334 301 
301 334 632 335 
598 632 599 301 
301 334 631 632 
598 632 301 631 
599 301 632 302 
632 301 335 302 
302 335 633 336 
599 633 600 302 
302 335 632 633 
599 633 302 632 
600 302 633 303 
633 302 336 303 
303 336 634 337 
600 634 601 303 
303 336 633 634 
600 634 303 633 
601 303 634 304 
634 303 337 304 
304 337 635 338 
601 635 602 304 
304 337 634 635 
601 635 304 634 
602 304 635 305 
635 304 338 305 
305 338 636 339 
602 636 603 305 
305 338 635 636 
602 636 305 635 
603 305 636 306 
636 305 339 306 
306 339 637 340 
603 637 604 306 
306 339 636 637 
603 637 306 636 
604 306 637 307 
637 306 340 307 
307 340 638 341 
604 638 605 307 
307 340 637 638 
604 638 307 637 
605 307 638 308 
638 307 341 308 
308 341 639 342 
605 639 606 308 
308 341 638 639 
605 639 308 638 
606 308 639 309 
639 308 342 309 
309 342 640 343 
606 640 607 309 
309 342 639 640 
606 640 309 639 
607 309 640 310 
640 309 343 310 
310 343 641 344 
607 641 608 310 
310 343 640 641 
607 641 310 640 
608 310 641 311 
641 310 344 311 
311 344 642 345 
608 642 609 311 
311 344 641 642 
608 642 311 641 
609 311 642 312 
642 311 345 312 
312 345 643 346 
609 643 610 312 
312 345 642 643 
609 643 312 642 
610 312 643 313 
643 312 346 313 
313 346 644 347 
610 644 611 313 
313 346 643 644 
610 644 313 643 
611 313 644 314 
644 313 347 314 
314 347 645 348 
611 645 612 314 
314 347 644 645 
611 645 314 644 
612 314 645 315 
645 314 348 315 
315 348 646 349 
612 646 613 315 
315 348 645 646 
612 646 315 645 
613 315 646 316 
646 315 349 316 
316 349 647 350 
613 647 614 316 
316 349 646 647 
613 647 316 646 
614 316 647 317 
647 316 350 317 
317 350 648 351 
614 648 615 317 
317 350 647 648 
614 648 317 647 
615 317 648 318 
648 317 351 318 
318 351 649 352 
615 649 616 318 
318 351 648 649 
615 649 318 648 
616 318 649 319 
649 318 352 319 
319 352 650 353 
616 650 617 319 
319 352 649 650 
616 650 319 649 
617 319 650 320 
650 319 353 320 
320 353 651 354 
617 651 618 320 
320 353 650 651 
617 651 320 650 
618 320 651 321 
651 320 354 321 
321 354 652 355 
618 652 619 321 
321 354 651 652 
618 652 321 651 
619 321 652 322 
652 321 355 322 
322 355 653 356 
619 653 620 322 
322 355 652 653 
619 653 322 652 
620 322 653 323 
653 322 356 323 
323 356 654 357 
620 654 621 323 
323 356 653 654 
620 654 323 653 
621 323 654 324 
654 323 357 324 
324 357 655 358 
621 655 622 324 
324 357 654 655 
621 655 324 654 
622 324 655 325 
655 324 358 325 
325 358 656 359 
622 656 623 325 
325 358 655 656 
622 656 325 655 
623 325 656 326 
656 325 359 326 
326 359 657 360 
623 657 624 326 
326 359 656 657 
623 657 326 656 
624 326 657 327 
657 326 360 327 
327 360 658 361 
624 658 625 327 
327 360 657 658 
624 658 327 657 
625 327 658 328 
658 327 361 328 
328 361 659 362 
625 659 626 328 
328 361 658 659 
625 659 328 658 
626 328 659 329 
659 328 362 329 
330 363 661 364 
627 661 628 330 
330 363 660 661 
627 661 330 660 
628 330 661 331 
661 330 364 331 
331 364 662 365 
628 662 629 331 
331 364 661 662 
628 662 331 661 
629 331 662 332 
662 331 365 332 
332 365 663 366 
629 663 630 332 
332 365 662 663 
629 663 332 662 
630 332 663 333 
663 332 366 333 
333 366 664 367 
630 664 631 333 
333 366 663 664 
630 664 333 663 
631 333 664 334 
664 333 367 334 
334 367 665 368 
631 665 632 334 
334 367 664 665 
631 665 334 664 
632 334 665 335 
665 334 368 335 
335 368 666 369 
632 666 633 335 
335 368 665 666 
632 666 335 665 
633 335 666 336 
666 335 369 336 
336 369 667 370 
633 667 634 336 
336 369 666 667 
633 667 336 666 
634 336 667 337 
667 336 370 337 
337 370 668 371 
634 668 635 337 
337 370 667 668 
634 668 337 667 
635 337 668 338 
668 337 371 338 
338 371 669 372 
635 669 636 338 
338 371 668 669 
635 669 338 668 
636 338 669 339 
669 338 372 339 
339 372 670 373 
636 670 637 339 
339 372 669 670 
636 670 339 669 
637 339 670 340 
670 339 373 340 
340 373 671 374 
637 671 638 340 
340 373 670 671 
637 671 340 670 
638 340 671 341 
671 340 374 341 
341 374 672 375 
638 672 639 341 
341 374 671 672 
638 672 341 671 
639 341 672 342 
672 341 375 342 
342 375 673 376 
639 673 640 342 
342 375 672 673 
639 673 342 672 
640 342 673 343 
673 342 376 343 
343 376 674 377 
640 674 641 343 
343 376 673 674 
640 674 343 673 
641 343 674 344 
674 343 377 344 
344 377 675 378 
641 675 642 344 
344 377 674 675 
641 675 344 674 
642 344 675 345 
675 344 378 345 
345 378 676 379 
642 676 643 345 
345 378 675 676 
642 676 345 675 
643 345 676 346 
676 345 379 346 
346 379 677 380 
643 677 644 346 
346 379 676 677 
643 677 346 676 
644 346 677 347 
677 346 380 347 
347 380 678 381 
644 678 645 347 
347 380 677 678 
644 678 347 677 
645 347 678 348 
678 347 381 348 
348 381 679 382 
645 679 646 348 
348 381 678 679 
645 679 348 678 
646 348 679 349 
679 348 382 349 
349 382 680 383 
646 680 647 349 
349 382 679 680 
646 680 349 679 
647 349 680 350 
680 349 383 350 
350 383 681 384 
647 681 648 350 
350 383 680 681 
647 681 350 680 
648 350 681 351 
681 350 384 351 
351 384 682 385 
648 682 649 351 
351 384 681 682 
648 682 351 681 
649 351 682 352 
682 351 385 352 
352 385 683 386 
649 683 650 352 
352 385 682 683 
649 683 352 682 
650 352 683 353 
683 352 386 353 
353 386 684 387 
650 684 651 353 
353 386 683 684 
650 684 353 683 
651 353 684 354 
684 353 387 354 
354 387 685 388 
651 685 652 354 
354 387 684 685 
651 685 354 684 
652 354 685 355 
685 354 388 355 
355 388 686 389 
652 686 653 355 
355 388 685 686 
652 686 355 685 
653 355 686 356 
686 355 389 356 
356 389 687 390 
653 687 654 356 
356 389 686 687 
653 687 356 686 
654 356 687 357 
687 356 390 357 
357 390 688 391 
654 688 655 357 
357 390 687 688 
654 688 357 687 
655 357 688 358 
688 357 391 358 
358 391 689 392 
655 689 656 358 
358 391 688 689 
655 689 358 688 
656 358 689 359 
689 358 392 359 
359 392 690 393 
656 690 657 359 
359 392 689 690 
656 690 359 689 
657 359 690 360 
690 359 393 360 
360 393 691 394 
657 691 658 360 
360 393 690 691 
657 691 360 690 
658 360 691 361 
691 360 394 361 
361 394 692 395 
658 692 659 361 
361 394 691 692 
658 692 361 691 
659 361 692 362 
692 361 395 362 
363 396 694 397 
660 694 661 363 
363 396 693 694 
660 694 363 693 
661 363 694 364 
694 363 397 364 
364 397 695 398 
661 695 662 364 
364 397 694 695 
661 695 364 694 
662 364 695 365 
695 364 398 365 
365 398 696 399 
662 696 663 365 
365 398 695 696 
662 696 365 695 
663 365 696 366 
696 365 399 366 
366 399 697 400 
663 697 664 366 
366 399 696 697 
663 697 366 696 
664 366 697 367 
697 366 400 367 
367 400 698 401 
664 698 665 367 
367 400 697 698 
664 698 367 697 
665 367 698 368 
698 367 401 368 
368 401 699 402 
665 699 666 368 
368 401 698 699 
665 699 368 698 
666 368 699 369 
699 368 402 369 
369 402 700 403 
666 700 667 369 
369 402 699 700 
666 700 369 699 
667 369 700 370 
700 369 403 370 
370 403 701 404 
667 701 668 370 
370 403 700 701 
667 701 370 700 
668 370 701 371 
701 370 404 371 
371 404 702 405 
668 702 669 371 
371 404 701 702 
668 702 371 701 
669 371 702 372 
702 371 405 372 
372 405 703 406 
669 703 670 372 
372 405 702 703 
669 703 372 702 
670 372 703 373 
703 372 406 373 
373 406 704 407 
670 704 671 373 
373 406 703 704 
670 704 373 703 
671 373 704 374 
704 373 407 374 
374 407 705 408 
671 705 672 374 
374 407 704 705 
671 705 374 704 
672 374 705 375 
705 374 408 375 
375 408 706 409 
672 706 673 375 
375 408 705 706 
672 706 375 705 
673 375 706 376 
706 375 409 376 
376 409 707 410 
673 707 674 376 
376 409 706 707 
673 707 376 706 
674 376 707 377 
707 376 410 377 
377 410 708 411 
674 708 675 377 
377 410 707 708 
674 708 377 707 
675 377 708 378 
708 377 411 378 
378 411 709 412 
675 709 676 378 
378 411 708 709 
675 709 378 708 
676 378 709 379 
709 378 412 379 
379 412 710 413 
676 710 677 379 
379 412 709 710 
676 710 379 709 
677 379 710 380 
710 379 413 380 
380 413 711 414 
677 711 678 380 
380 413 710 711 
677 711 380 710 
678 380 711 381 
711 380 414 381 
381 414 712 415 
678 712 679 381 
381 414 711 712 
678 712 381 711 
679 381 712 382 
712 381 415 382 
382 415 713 416 
679 713 680 382 
382 415 712 713 
679 713 382 712 
680 382 713 383 
713 382 416 383 
383 416 714 417 
680 714 681 383 
383 416 713 714 
680 714 383 713 
681 383 714 384 
714 383 417 384 
384 417 715 418 
681 715 682 384 
384 417 714 715 
681 715 384 714 
682 384 715 385 
715 384 418 385 
385 418 716 419 
682 716 683 385 
385 418 715 716 
682 716 385 715 
683 385 716 386 
716 385 419 386 
386 419 717 420 
683 717 684 386 
386 419 716 717 
683 717 386 716 
684 386 717 387 
717 386 420 387 
387 420 718 421 
684 718 685 387 
387 420 717 718 
684 718 387 717 
685 387 718 388 
718 387 421 388 
388 421 719 422 
685 719 686 388 
388 421 718 719 
685 719 388 718 
686 388 719 389 
719 388 422 389 
389 422 720 423 
686 720 687 389 
389 422 719 720 
686 720 389 719 
687 389 720 390 
720 389 423 390 
390 423 721 424 
687 721 688 390 
390 423 720 721 
687 721 390 720 
688 390 721 391 
721 390 424 391 
391 424 722 425 
688 722 689 391 
391 424 721 722 
688 722 391 721 
689 391 722 392 
722 391 425 392 
392 425 723 426 
689 723 690 392 
392 425 722 723 
689 723 392 722 
690 392 723 393 
723 392 426 393 
393 426 724 427 
690 724 691 393 
393 426 723 724 
690 724 393 723 
691 393 724 394 
724 393 427 394 
394 427 725 428 
691 725 692 394 
394 427 724 725 
691 725 394 724 
692 394 725 395 
725 394 428 395 
396 429 727 430 
693 727 694 396 
396 429 726 727 
693 727 396 726 
694 396 727 397 
727 396 430 397 
397 430 728 431 
694 728 695 397 
397 430 727 728 
694 728 397 727 
695 397 728 398 
728 397 431 398 
398 431 729 432 
695 729 696 398 
398 431 728 729 
695 729 398 728 
696 398 729 399 
729 398 432 399 
399 432 730 433 
696 730 697 399 
399 432 729 730 
696 730 399 729 
697 399 730 400 
730 399 433 400 
400 433 731 434 
697 731 698 400 
400 433 730 731 
697 731 400 730 
698 400 731 401 
731 400 434 401 
401 434 732 435 
698 732 699 401 
401 434 731 732 
698 732 401 731 
699 401 732 402 
732 401 435 402 
402 435 733 436 
699 733 700 402 
402 435 732 733 
699 733 402 732 
700 402 733 403 
733 402 436 403 
403 436 734 437 
700 734 701 403 
403 436 733 734 
700 734 403 733 
701 403 734 404 
734 403 437 404 
404 437 735 438 
701 735 702 404 
404 437 734 735 
701 735 404 734 
702 404 735 405 
735 404 438 405 
405 438 736 439 
702 736 703 405 
405 438 735 736 
702 736 405 735 
703 405 736 406 
736 405 439 406 
406 439 737 440 
703 737 704 406 
406 439 736 737 
703 737 406 736 
704 406 737 407 
737 406 440 407 
407 440 738 441 
704 738 705 407 
407 440 737 738 
704 738 407 737 
705 407 738 408 
738 407 441 408 
408 441 739 442 
705 739 706 408 
408 441 738 739 
705 739 408 738 
706 408 739 409 
739 408 442 409 
409 442 740 443 
706 740 707 409 
409 442 739 740 
706 740 409 739 
707 409 740 410 
740 409 443 410 
410 443 741 444 
707 741 708 410 
410 443 740 741 
707 741 410 740 
708 410 741 411 
741 410 444 411 
411 444 742 445 
708 742 709 411 
411 444 741 742 
708 742 411 741 
709 411 742 412 
742 411 445 412 
412 445 743 446 
709 743 710 412 
412 445 742 743 
709 743 412 742 
710 412 743 413 
743 412 446 413 
413 446 744 447 
710 744 711 413 
413 446 743 744 
710 744 413 743 
711 413 744 414 
744 413 447 414 
414 447 745 448 
711 745 712 414 
414 447 744 745 
711 745 414 744 
712 414 745 415 
745 414 448 415 
415 448 746 449 
712 746 713 415 
415 448 745 746 
712 746 415 745 
713 415 746 416 
746 415 449 416 
416 449 747 450 
713 747 714 416 
416 449 746 747 
713 747 416 746 
714 416 747 417 
747 416 450 417 
417 450 748 451 
714 748 715 417 
417 450 747 748 
714 748 417 747 
715 417 748 418 
748 417 451 418 
418 451 749 452 
715 749 716 418 
418 451 748 749 
715 749 418 748 
716 418 749 419 
749 418 452 419 
419 452 750 453 
716 750 717 419 
419 452 749 750 
716 750 419 749 
717 419 750 420 
750 419 453 420 
420 453 751 454 
717 751 718 420 
420 453 750 751 
717 751 420 750 
718 420 751 421 
751 420 454 421 
421 454 752 455 
718 752 719 421 
421 454 751 752 
718 752 421 751 
719 421 752 422 
752 421 455 422 
422 455 753 456 
719 753 720 422 
422 455 752 753 
719 753 422 752 
720 422 753 423 
753 422 456 423 
423 456 754 457 
720 754 721 423 
423 456 753 754 
720 754 423 753 
721 423 754 424 
754 423 457 424 
424 457 755 458 
721 755 722 424 
424 457 754 755 
721 755 424 754 
722 424 755 425 
755 424 458 425 
425 458 756 459 
722 756 723 425 
425 458 755 756 
722 756 425 755 
723 425 756 426 
756 425 459 426 
426 459 757 460 
723 757 724 426 
426 459 756 757 
723 757 426 756 
724 426 757 427 
757 426 460 427 
427 460 758 461 
724 758 725 427 
427 460 757 758 
724 758 427 757 
725 427 758 428 
758 427 461 428 
429 462 760 463 
726 760 727 429 
429 462 759 760 
726 760 429 759 
727 429 760 430 
760 429 463 430 
430 463 761 464 
727 761 728 430 
430 463 760 761 
727 761 430 760 
728 430 761 431 
761 430 464 431 
431 464 762 465 
728 762 729 431 
431 464 761 762 
728 762 431 761 
729 431 762 432 
762 431 465 432 
432 465 763 466 
729 763 730 432 
432 465 762 763 
729 763 432 762 
730 432 763 433 
763 432 466 433 
433 466 764 467 
730 764 731 433 
433 466 763 764 
730 764 433 763 
731 433 764 434 
764 433 467 434 
434 467 765 468 
731 765 732 434 
434 467 764 765 
731 765 434 764 
732 434 765 435 
765 434 468 435 
435 468 766 469 
732 766 733 435 
435 468 765 766 
732 766 435 765 
733 435 766 436 
766 435 469 436 
436 469 767 470 
733 767 734 436 
436 469 766 767 
733 767 436 766 
734 436 767 437 
767 436 470 437 
437 470 768 471 
734 768 735 437 
437 470 767 768 
734 768 437 767 
735 437 768 438 
768 437 471 438 
438 471 769 472 
735 769 736 438 
438 471 768 769 
735 769 438 768 
736 438 769 439 
769 438 472 439 
439 472 770 473 
736 770 737 439 
439 472 769 770 
736 770 439 769 
737 439 770 440 
770 439 473 440 
440 473 771 474 
737 771 738 440 
440 473 770 771 
737 771 440 770 
738 440 771 441 
771 440 474 441 
441 474 772 475 
738 772 739 441 
441 474 771 772 
738 772 441 771 
739 441 772 442 
772 441 475 442 
442 475 773 476 
739 773 740 442 
442 475 772 773 
739 773 442 772 
740 442 773 443 
773 442 476 443 
443 476 774 477 
740 774 741 443 
443 476 773 774 
740 774 443 773 
741 443 774 444 
774 443 477 444 
444 477 775 478 
741 775 742 444 
444 477 774 775 
741 775 444 774 
742 444 775 445 
775 444 478 445 
445 478 776 479 
742 776 743 445 
445 478 775 776 
742 776 445 775 
743 445 776 446 
776 445 479 446 
446 479 777 480 
743 777 744 446 
446 479 776 777 
743 777 446 776 
744 446 777 447 
777 446 480 447 
447 480 778 481 
744 778 745 447 
447 480 777 778 
744 778 447 777 
745 447 778 448 
778 447 481 448 
448 481 779 482 
745 779 746 448 
448 481 778 779 
745 779 448 778 
746 448 779 449 
779 448 482 449 
449 482 780 483 
746 780 747 449 
449 482 779 780 
746 780 449 779 
747 449 780 450 
780 449 483 450 
450 483 781 484 
747 781 748 450 
450 483 780 781 
747 781 450 780 
748 450 781 451 
781 450 484 451 
451 484 782 485 
748 782 749 451 
451 484 781 782 
748 782 451 781 
749 451 782 452 
782 451 485 452 
452 485 783 486 
749 783 750 452 
452 485 782 783 
749 783 452 782 
750 452 783 453 
783 452 486 453 
453 486 784 487 
750 784 751 453 
453 486 783 784 
750 784 453 783 
751 453 784 454 
784 453 487 454 
454 487 785 488 
751 785 752 454 
454 487 784 785 
751 785 454 784 
752 454 785 455 
785 454 488 455 
455 488 786 489 
752 786 753 455 
455 488 785 786 
752 786 455 785 
753 455 786 456 
786 455 489 456 
456 489 787 490 
753 787 754 456 
456 489 786 787 
753 787 456 786 
754 456 787 457 
787 456 490 457 
457 490 788 491 
754 788 755 457 
457 490 787 788 
754 788 457 787 
755 457 788 458 
788 457 491 458 
458 491 789 492 
755 789 756 458 
458 491 788 789 
755 789 458 788 
756 458 789 459 
789 458 492 459 
459 492 790 493 
756 790 757 459 
459 492 789 790 
756 790 459 789 
757 459 790 460 
790 459 493 460 
460 493 791 494 
757 791 758 460 
460 493 790 791 
757 791 460 790 
758 460 791 461 
791 460 494 461 
462 495 793 496 
759 793 760 462 
462 495 792 793 
759 793 462 792 
760 462 793 463 
793 462 496 463 
463 496 794 497 
760 794 761 463 
463 496 793 794 
760 794 463 793 
761 463 794 464 
794 463 497 464 
464 497 795 498 
761 795 762 464 
464 497 794 795 
761 795 464 794 
762 464 795 465 
795 464 498 465 
465 498 796 499 
762 796 763 465 
465 498 795 796 
762 796 465 795 
763 465 796 466 
796 465 499 466 
466 499 797 500 
763 797 764 466 
466 499 796 797 
763 797 466 796 
764 466 797 467 
797 466 500 467 
467 500 798 501 
764 798 765 467 
467 500 797 798 
764 798 467 797 
765 467 798 468 
798 467 501 468 
468 501 799 502 
765 799 766 468 
468 501 798 799 
765 799 468 798 
766 468 799 469 
799 468 502 469 
469 502 800 503 
766 800 767 469 
469 502 799 800 
766 800 469 799 
767 469 800 470 
800 469 503 470 
470 503 801 504 
767 801 768 470 
470 503 800 801 
767 801 470 800 
768 470 801 471 
801 470 504 471 
471 504 802 505 
768 802 769 471 
471 504 801 802 
768 802 471 801 
769 471 802 472 
802 471 505 472 
472 505 803 506 
769 803 770 472 
472 505 802 803 
769 803 472 802 
770 472 803 473 
803 472 506 473 
473 506 804 507 
770 804 771 473 
473 506 803 804 
770 804 473 803 
771 473 804 474 
804 473 507 474 
474 507 805 508 
771 805 772 474 
474 507 804 805 
771 805 474 804 
772 474 805 475 
805 474 508 475 
475 508 806 509 
772 806 773 475 
475 508 805 806 
772 806 475 805 
773 475 806 476 
806 475 509 476 
476 509 807 510 
773 807 774 476 
476 509 806 807 
773 807 476 806 
774 476 807 477 
807 476 510 477 
477 510 808 511 
774 808 775 477 
477 510 807 808 
774 808 477 807 
775 477 808 478 
808 477 511 478 
478 511 809 512 
775 809 776 478 
478 511 808 809 
775 809 478 808 
776 478 809 479 
809 478 512 479 
479 512 810 513 
776 810 777 479 
479 512 809 810 
776 810 479 809 
777 479 810 480 
810 479 513 480 
480 513 811 514 
777 811 778 480 
480 513 810 811 
777 811 480 810 
778 480 811 481 
811 480 514 481 
481 514 812 515 
778 812 779 481 
481 514 811 812 
778 812 481 811 
779 481 812 482 
812 481 515 482 
482 515 813 516 
779 813 780 482 
482 515 812 813 
779 813 482 812 
780 482 813 483 
813 482 516 483 
483 516 814 517 
780 814 781 483 
483 516 813 814 
780 814 483 813 
781 483 814 484 
814 483 517 484 
484 517 815 518 
781 815 782 484 
484 517 814 815 
781 815 484 814 
782 484 815 485 
815 484 518 485 
485 518 816 519 
782 816 783 485 
485 518 815 816 
782 816 485 815 
783 485 816 486 
816 485 519 486 
486 519 817 520 
783 817 784 486 
486 519 816 817 
783 817 486 816 
784 486 817 487 
817 486 520 487 
487 520 818 521 
784 818 785 487 
487 520 817 818 
784 818 487 817 
785 487 818 488 
818 487 521 488 
488 521 819 522 
785 819 786 488 
488 521 818 819 
785 819 488 818 
786 488 819 489 
819 488 522 489 
489 522 820 523 
786 820 787 489 
489 522 819 820 
786 820 489 819 
787 489 820 490 
820 489 523 490 
490 523 821 524 
787 821 788 490 
490 523 820 821 
787 821 490 820 
788 490 821 491 
821 490 524 491 
491 524 822 525 
788 822 789 491 
491 524 821 822 
788 822 491 821 
789 491 822 492 
822 491 525 492 
492 525 823 526 
789 823 790 492 
492 525 822 823 
789 823 492 822 
790 492 823 493 
823 492 526 493 
493 526 824 527 
790 824 791 493 
493 526 823 824 
790 824 493 823 
791 493 824 494 
824 493 527 494 
495 528 826 529 
792 826 793 495 
495 528 825 826 
792 826 495 825 
793 495 826 496 
826 495 529 496 
496 529 827 530 
793 827 794 496 
496 529 826 827 
793 827 496 826 
794 496 827 497 
827 496 530 497 
497 530 828 531 
794 828 795 497 
497 530 827 828 
794 828 497 827 
795 497 828 498 
828 497 531 498 
498 531 829 532 
795 829 796 498 
498 531 828 829 
795 829 498 828 
796 498 829 499 
829 498 532 499 
499 532 830 533 
796 830 797 499 
499 532 829 830 
796 830 499 829 
797 499 830 500 
830 499 533 500 
500 533 831 534 
797 831 798 500 
500 533 830 831 
797 831 500 830 
798 500 831 501 
831 500 534 501 
501 534 832 535 
798 832 799 501 
501 534 831 832 
798 832 501 831 
799 501 832 502 
832 501 535 502 
502 535 833 536 
799 833 800 502 
502 535 832 833 
799 833 502 832 
800 502 833 503 
833 502 536 503 
503 536 834 537 
800 834 801 503 
503 536 833 834 
800 834 503 833 
801 503 834 504 
834 503 537 504 
504 537 835 538 
801 835 802 504 
504 537 834 835 
801 835 504 834 
802 504 835 505 
835 504 538 505 
505 538 836 539 
802 836 803 505 
505 538 835 836 
802 836 505 835 
803 505 836 506 
836 505 539 506 
506 539 837 540 
803 837 804 506 
506 539 836 837 
803 837 506 836 
804 506 837 507 
837 506 540 507 
507 540 838 541 
804 838 805 507 
507 540 837 838 
804 838 507 837 
805 507 838 508 
838 507 541 508 
508 541 839 542 
805 839 806 508 
508 541 838 839 
805 839 508 838 
806 508 839 509 
839 508 542 509 
509 542 840 543 
806 840 807 509 
509 542 839 840 
806 840 509 839 
807 509 840 510 
840 509 543 510 
510 543 841 544 
807 841 808 510 
510 543 840 841 
807 841 510 840 
808 510 841 511 
841 510 544 511 
511 544 842 545 
808 842 809 511 
511 544 841 842 
808 842 511 841 
809 511 842 512 
842 511 545 512 
512 545 843 546 
809 843 810 512 
512 545 842 843 
809 843 512 842 
810 512 843 513 
843 512 546 513 
513 546 844 547 
810 844 811 513 
513 546 843 844 
810 844 513 843 
811 513 844 514 
844 513 547 514 
514 547 845 548 
811 845 812 514 
514 547 844 845 
811 845 514 844 
812 514 845 515 
845 514 548 515 
515 548 846 549 
812 846 813 515 
515 548 845 846 
812 846 515 845 
813 515 846 516 
846 515 549 516 
516 549 847 550 
813 847 814 516 
516 549 846 847 
813 847 516 846 
814 516 847 517 
847 516 550 517 
517 550 848 551 
814 848 815 517 
517 550 847 848 
814 848 517 847 
815 517 848 518 
848 517 551 518 
518 551 849 552 
815 849 816 518 
518 551 848 849 
815 849 518 848 
816 518 849 519 
849 518 552 519 
519 552 850 553 
816 850 817 519 
519 552 849 850 
816 850 519 849 
817 519 850 520 
850 519 553 520 
520 553 851 554 
817 851 818 520 
520 553 850 851 
817 851 520 850 
818 520 851 521 
851 520 554 521 
521 554 852 555 
818 852 819 521 
521 554 851 852 
818 852 521 851 
819 521 852 522 
852 521 555 522 
522 555 853 556 
819 853 820 522 
522 555 852 853 
819 853 522 852 
820 522 853 523 
853 522 556 523 
523 556 854 557 
820 854 821 523 
523 556 853 854 
820 854 523 853 
821 523 854 524 
854 523 557 524 
524 557 855 558 
821 855 822 524 
524 557 854 855 
821 855 524 854 
822 524 855 525 
855 524 558 525 
525 558 856 559 
822 856 823 525 
525 558 855 856 
822 856 525 855 
823 525 856 526 
856 525 559 526 
526 559 857 560 
823 857 824 526 
526 559 856 857 
823 857 526 856 
824 526 857 527 
857 526 560 527 
528 561 859 562 
825 859 826 528 
528 561 858 859 
825 859 528 858 
826 528 859 529 
859 528 562 529 
529 562 860 563 
826 860 827 529 
529 562 859 860 
826 860 529 859 
827 529 860 530 
860 529 563 530 
530 563 861 564 
827 861 828 530 
530 563 860 861 
827 861 530 860 
828 530 861 531 
861 530 564 531 
531 564 862 565 
828 862 829 531 
531 564 861 862 
828 862 531 861 
829 531 862 532 
862 531 565 532 
532 565 863 566 
829 863 830 532 
532 565 862 863 
829 863 532 862 
830 532 863 533 
863 532 566 533 
533 566 864 567 
830 864 831 533 
533 566 863 864 
830 864 533 863 
831 533 864 534 
864 533 567 534 
534 567 865 568 
831 865 832 534 
534 567 864 865 
831 865 534 864 
832 534 865 535 
865 534 568 535 
535 568 866 569 
832 866 833 535 
535 568 865 866 
832 866 535 865 
833 535 866 536 
866 535 569 536 
536 569 867 570 
833 867 834 536 
536 569 866 867 
833 867 536 866 
834 536 867 537 
867 536 570 537 
537 570 868 571 
834 868 835 537 
537 570 867 868 
834 868 537 867 
835 537 868 538 
868 537 571 538 
538 571 869 572 
835 869 836 538 
538 571 868 869 
835 869 538 868 
836 538 869 539 
869 538 572 539 
539 572 870 573 
836 870 837 539 
539 572 869 870 
836 870 539 869 
837 539 870 540 
870 539 573 540 
540 573 871 574 
837 871 838 540 
540 573 870 871 
837 871 540 870 
838 540 871 541 
871 540 574 541 
541 574 872 575 
838 872 839 541 
541 574 871 872 
838 872 541 871 
839 541 872 542 
872 541 575 542 
542 575 873 576 
839 873 840 542 
542 575 872 873 
839 873 542 872 
840 542 873 543 
873 542 576 543 
543 576 874 577 
840 874 841 543 
543 576 873 874 
840 874 543 873 
841 543 874 544 
874 543 577 544 
544 577 875 578 
841 875 842 544 
544 577 874 875 
841 875 544 874 
842 544 875 545 
875 544 578 545 
545 578 876 579 
842 876 843 545 
545 578 875 876 
842 876 545 875 
843 545 876 546 
876 545 579 546 
546 579 877 580 
843 877 844 546 
546 579 876 877 
843 877 546 876 
844 546 877 547 
877 546 580 547 
547 580 878 581 
844 878 845 547 
547 580 877 878 
844 878 547 877 
845 547 878 548 
878 547 581 548 
548 581 879 582 
845 879 846 548 
548 581 878 879 
845 879 548 878 
846 548 879 549 
879 548 582 549 
549 582 880 583 
846 880 847 549 
549 582 879 880 
846 880 549 879 
847 549 880 550 
880 549 583 550 
550 583 881 584 
847 881 848 550 
550 583 880 881 
847 881 550 880 
848 550 881 551 
881 550 584 551 
551 584 882 585 
848 882 849 551 
551 584 881 882 
848 882 551 881 
849 551 882 552 
882 551 585 552 
552 585 883 586 
849 883 850 552 
552 585 882 883 
849 883 552 882 
850 552 883 553 
883 552 586 553 
553 586 884 587 
850 884 851 553 
553 586 883 884 
850 884 553 883 
851 553 884 554 
884 553 587 554 
554 587 885 588 
851 885 852 554 
554 587 884 885 
851 885 554 884 
852 554 885 555 
885 554 588 555 
555 588 886 589 
852 886 853 555 
555 588 885 886 
852 886 555 885 
853 555 886 556 
886 555 589 556 
556 589 887 590 
853 887 854 556 
556 589 886 887 
853 887 556 886 
854 556 887 557 
887 556 590 557 
557 590 888 591 
854 888 855 557 
557 590 887 888 
854 888 557 887 
855 557 888 558 
888 557 591 558 
558 591 889 592 
855 889 856 558 
558 591 888 889 
855 889 558 888 
856 558 889 559 
889 558 592 559 
559 592 890 593 
856 890 857 559 
559 592 889 890 
856 890 559 889 
857 559 890 560 
890 559 593 560 
594 627 925 628 
891 925 892 594 
594 627 924 925 
891 925 594 924 
892 594 925 595 
925 594 628 595 
595 628 926 629 
892 926 893 595 
595 628 925 926 
892 926 595 925 
893 595 926 596 
926 595 629 596 
596 629 927 630 
893 927 894 596 
596 629 926 927 
893 927 596 926 
894 596 927 597 
927 596 630 597 
597 630 928 631 
894 928 895 597 
597 630 927 928 
894 928 597 927 
895 597 928 598 
928 597 631 598 
598 631 929 632 
895 929 896 598 
598 631 928 929 
895 929 598 928 
896 598 929 599 
929 598 632 599 
599 632 930 633 
896 930 897 599 
599 632 929 930 
896 930 599 929 
897 599 930 600 
930 599 633 600 
600 633 931 634 
897 931 898 600 
600 633 930 931 
897 931 600 930 
898 600 931 601 
931 600 634 601 
601 634 932 635 
898 932 899 601 
601 634 931 932 
898 932 601 931 
899 601 932 602 
932 601 635 602 
602 635 933 636 
899 933 900 602 
602 635 932 933 
899 933 602 932 
900 602 933 603 
933 602 636 603 
603 636 934 637 
900 934 901 603 
603 636 933 934 
900 934 603 933 
901 603 934 604 
934 603 637 604 
604 637 935 638 
901 935 902 604 
604 637 934 935 
901 935 604 934 
902 604 935 605 
935 604 638 605 
605 638 936 639 
902 936 903 605 
605 638 935 936 
902 936 605 935 
903 605 936 606 
936 605 639 606 
606 639 937 640 
903 937 904 606 
606 639 936 937 
903 937 606 936 
904 606 937 607 
937 606 640 607 
607 640 938 641 
904 938 905 607 
607 640 937 938 
904 938 607 937 
905 607 938 608 
938 607 641 608 
608 641 939 642 
905 939 906 608 
608 641 938 939 
905 939 608 938 
906 608 939 609 
939 608 642 609 
609 642 940 643 
906 940 907 609 
609 642 939 940 
906 940 609 939 
907 609 940 610 
940 609 643 610 
610 643 941 644 
907 941 908 610 
610 643 940 941 
907 941 610 940 
908 610 941 611 
941 610 644 611 
611 644 942 645 
908 942 909 611 
611 644 941 942 
908 942 611 941 
909 611 942 612 
942 611 645 612 
612 645 943 646 
909 943 910 612 
612 645 942 943 
909 943 612 942 
910 612 943 613 
943 612 646 613 
613 646 944 647 
910 944 911 613 
613 646 943 944 
910 944 613 943 
911 613 944 614 
944 613 647 614 
614 647 945 648 
911 945 912 614 
614 647 944 945 
911 945 614 944 
912 614 945 615 
945 614 648 615 
615 648 946 649 
912 946 913 615 
615 648 945 946 
912 946 615 945 
913 615 946 616 
946 615 649 616 
616 649 947 650 
913 947 914 616 
616 649 946 947 
913 947 616 946 
914 616 947 617 
947 616 650 617 
617 650 948 651 
914 948 915 617 
617 650 947 948 
914 948 617 947 
915 617 948 618 
948 617 651 618 
618 651 949 652 
915 949 916 618 
618 651 948 949 
915 949 618 948 
916 618 949 619 
949 618 652 619 
619 652 950 653 
916 950 917 619 
619 652 949 950 
916 950 619 949 
917 619 950 620 
950 619 653 620 
620 653 951 654 
917 951 918 620 
620 653 950 951 
917 951 620 950 
918 620 951 621 
951 620 654 621 
621 654 952 655 
918 952 919 621 
621 654 951 952 
918 952 621 951 
919 621 952 622 
952 621 655 622 
622 655 953 656 
919 953 920 622 
622 655 952 953 
919 953 622 952 
920 622 953 623 
953 622 656 623 
623 656 954 657 
920 954 921 623 
623 656 953 954 
920 954 623 953 
921 623 954 624 
954 623 657 624 
624 657 955 658 
921 955 922 624 
624 657 954 955 
921 955 624 954 
922 624 955 625 
955 624 658 625 
625 658 956 659 
922 956 923 625 
625 658 955 956 
922 956 625 955 
923 625 956 626 
956 625 659 626 
627 660 958 661 
924 958 925 627 
627 660 957 958 
924 958 627 957 
925 627 958 628 
958 627 661 628 
628 661 959 662 
925 959 926 628 
628 661 958 959 
925 959 628 958 
926 628 959 629 
959 628 662 629 
629 662 960 663 
926 960 927 629 
629 662 959 960 
926 960 629 959 
927 629 960 630 
960 629 663 630 
630 663 961 664 
927 961 928 630 
630 663 960 961 
927 961 630 960 
928 630 961 631 
961 630 664 631 
631 664 962 665 
928 962 929 631 
631 664 961 962 
928 962 631 961 
929 631 962 632 
962 631 665 632 
632 665 963 666 
929 963 930 632 
632 665 962 963 
929 963 632 962 
930 632 963 633 
963 632 666 633 
633 666 964 667 
930 964 931 633 
633 666 963 964 
930 964 633 963 
931 633 964 634 
964 633 667 634 
634 667 965 668 
931 965 932 634 
634 667 964 965 
931 965 634 964 
932 634 965 635 
965 634 668 635 
635 668 966 669 
932 966 933 635 
635 668 965 966 
932 966 635 965 
933 635 966 636 
966 635 669 636 
636 669 967 670 
933 967 934 636 
636 669 966 967 
933 967 636 966 
934 636 967 637 
967 636 670 637 
637 670 968 671 
934 968 935 637 
637 670 967 968 
934 968 637 967 
935 637 968 638 
968 637 671 638 
638 671 969 672 
935 969 936 638 
638 671 968 969 
935 969 638 968 
936 638 969 639 
969 638 672 639 
639 672 970 673 
936 970 937 639 
639 672 969 970 
936 970 639 969 
937 639 970 640 
970 639 673 640 
640 673 971 674 
937 971 938 640 
640 673 970 971 
937 971 640 970 
938 640 971 641 
971 640 674 641 
641 674 972 675 
938 972 939 641 
641 674 971 972 
938 972 641 971 
939 641 972 642 
972 641 675 642 
642 675 973 676 
939 973 940 642 
642 675 972 973 
939 973 642 972 
940 642 973 643 
973 642 676 643 
643 676 974 677 
940 974 941 643 
643 676 973 974 
940 974 643 973 
941 643 974 644 
974 643 677 644 
644 677 975 678 
941 975 942 644 
644 677 974 975 
941 975 644 974 
942 644 975 645 
975 644 678 645 
645 678 976 679 
942 976 943 645 
645 678 975 976 
942 976 645 975 
943 645 976 646 
976 645 679 646 
646 679 977 680 
943 977 944 646 
646 679 976 977 
943 977 646 976 
944 646 977 647 
977 646 680 647 
647 680 978 681 
944 978 945 647 
647 680 977 978 
944 978 647 977 
945 647 978 648 
978 647 681 648 
648 681 979 682 
945 979 946 648 
648 681 978 979 
945 979 648 978 
946 648 979 649 
979 648 682 649 
649 682 980 683 
946 980 947 649 
649 682 979 980 
946 980 649 979 
947 649 980 650 
980 649 683 650 
650 683 981 684 
947 981 948 650 
650 683 980 981 
947 981 650 980 
948 650 981 651 
981 650 684 651 
651 684 982 685 
948 982 949 651 
651 684 981 982 
948 982 651 981 
949 651 982 652 
982 651 685 652 
652 685 983 686 
949 983 950 652 
652 685 982 983 
949 983 652 982 
950 652 983 653 
983 652 686 653 
653 686 984 687 
950 984 951 653 
653 686 983 984 
950 984 653 983 
951 653 984 654 
984 653 687 654 
654 687 985 688 
951 985 952 654 
654 687 984 985 
951 985 654 984 
952 654 985 655 
985 654 688 655 
655 688 986 689 
952 986 953 655 
655 688 985 986 
952 986 655 985 
953 655 986 656 
986 655 689 656 
656 689 987 690 
953 987 954 656 
656 689 986 987 
953 987 656 986 
954 656 987 657 
987 656 690 657 
657 690 988 691 
954 988 955 657 
657 690 987 988 
954 988 657 987 
955 657 988 658 
988 657 691 658 
658 691 989 692 
955 989 956 658 
658 691 988 989 
955 989 658 988 
956 658 989 659 
989 658 692 659 
660 693 991 694 
957 991 958 660 
660 693 990 991 
957 991 660 990 
958 660 991 661 
991 660 694 661 
661 694 992 695 
958 992 959 661 
661 694 991 992 
958 992 661 991 
959 661 992 662 
992 661 695 662 
662 695 993 696 
959 993 960 662 
662 695 992 993 
959 993 662 992 
960 662 993 663 
993 662 696 663 
663 696 994 697 
960 994 961 663 
663 696 993 994 
960 994 663 993 
961 663 994 664 
994 663 697 664 
664 697 995 698 
961 995 962 664 
664 697 994 995 
961 995 664 994 
962 664 995 665 
995 664 698 665 
665 698 996 699 
962 996 963 665 
665 698 995 996 
962 996 665 995 
963 665 996 666 
996 665 699 666 
666 699 997 700 
963 997 964 666 
666 699 996 997 
963 997 666 996 
964 666 997 667 
997 666 700 667 
667 700 998 701 
964 998 965 667 
667 700 997 998 
964 998 667 997 
965 667 998 668 
998 667 701 668 
668 701 999 702 
965 999 966 668 
668 701 998 999 
965 999 668 998 
966 668 999 669 
999 668 702 669 
669 702 1000 703 
966 1000 967 669 
669 702 999 1000 
966 1000 669 999 
967 669 1000 670 
1000 669 703 670 
670 703 1001 704 
967 1001 968 670 
670 703 1000 1001 
967 1001 670 1000 
968 670 1001 671 
1001 670 704 671 
671 704 1002 705 
968 1002 969 671 
671 704 1001 1002 
968 1002 671 1001 
969 671 1002 672 
1002 671 705 672 
672 705 1003 706 
969 1003 970 672 
672 705 1002 1003 
969 1003 672 1002 
970 672 1003 673 
1003 672 706 673 
673 706 1004 707 
970 1004 971 673 
673 706 1003 1004 
970 1004 673 1003 
971 673 1004 674 
1004 673 707 674 
674 707 1005 708 
971 1005 972 674 
674 707 1004 1005 
971 1005 674 1004 
972 674 1005 675 
1005 674 708 675 
675 708 1006 709 
972 1006 973 675 
675 708 1005 1006 
972 1006 675 1005 
973 675 1006 676 
1006 675 709 676 
676 709 1007 710 
973 1007 974 676 
676 709 1006 1007 
973 1007 676 1006 
974 676 1007 677 
1007 676 710 677 
677 710 1008 711 
974 1008 975 677 
677 710 1007 1008 
974 1008 677 1007 
975 677 1008 678 
1008 677 711 678 
678 711 1009 712 
975 1009 976 678 
678 711 1008 1009 
975 1009 678 1008 
976 678 1009 679 
1009 678 712 679 
679 712 1010 713 
976 1010 977 679 
679 712 1009 1010 
976 1010 679 1009 
977 679 1010 680 
1010 679 713 680 
680 713 1011 714 
977 1011 978 680 
680 713 1010 1011 
977 1011 680 1010 
978 680 1011 681 
1011 680 714 681 
681 714 1012 715 
978 1012 979 681 
681 714 1011 1012 
978 1012 681 1011 
979 681 1012 682 
1012 681 715 682 
682 715 1013 716 
979 1013 980 682 
682 715 1012 1013 
979 1013 682 1012 
980 682 1013 683 
1013 682 716 683 
683 716 1014 717 
980 1014 981 683 
683 716 1013 1014 
980 1014 683 1013 
981 683 1014 684 
1014 683 717 684 
684 717 1015 718 
981 1015 982 684 
684 717 1014 1015 
981 1015 684 1014 
982 684 1015 685 
1015 684 718 685 
685 718 1016 719 
982 1016 983 685 
685 718 1015 1016 
982 1016 685 1015 
983 685 1016 686 
1016 685 719 686 
686 719 1017 720 
983 1017 984 686 
686 719 1016 1017 
983 1017 686 1016 
984 686 1017 687 
1017 686 720 687 
687 720 1018 721 
984 1018 985 687 
687 720 1017 1018 
984 1018 687 1017 
985 687 1018 688 
1018 687 721 688 
688 721 1019 722 
985 1019 986 688 
688 721 1018 1019 
985 1019 688 1018 
986 688 1019 689 
1019 688 722 689 
689 722 1020 723 
986 1020 987 689 
689 722 1019 1020 
986 1020 689 1019 
987 689 1020 690 
1020 689 723 690 
690 723 1021 724 
987 1021 988 690 
690 723 1020 1021 
987 1021 690 1020 
988 690 1021 691 
1021 690 724 691 
691 724 1022 725 
988 1022 989 691 
691 724 1021 1022 
988 1022 691 1021 
989 691 1022 692 
1022 691 725 692 
693 726 1024 727 
990 1024 991 693 
693 726 1023 1024 
990 1024 693 1023 
991 693 1024 694 
1024 693 727 694 
694 727 1025 728 
991 1025 992 694 
694 727 1024 1025 
991 1025 694 1024 
992 694 1025 695 
1025 694 728 695 
695 728 1026 729 
992 1026 993 695 
695 728 1025 1026 
992 1026 695 1025 
993 695 1026 696 
1026 695 729 696 
696 729 1027 730 
993 1027 994 696 
696 729 1026 1027 
993 1027 696 1026 
994 696 1027 697 
1027 696 730 697 
697 730 1028 731 
994 1028 995 697 
697 730 1027 1028 
994 1028 697 1027 
995 697 1028 698 
1028 697 731 698 
698 731 1029 732 
995 1029 996 698 
698 731 1028 1029 
995 1029 698 1028 
996 698 1029 699 
1029 698 732 699 
699 732 1030 733 
996 1030 997 699 
699 732 1029 1030 
996 1030 699 1029 
997 699 1030 700 
1030 699 733 700 
700 733 1031 734 
997 1031 998 700 
700 733 1030 1031 
997 1031 700 1030 
998 700 1031 701 
1031 700 734 701 
701 734 1032 735 
998 1032 999 701 
701 734 1031 1032 
998 1032 701 1031 
999 701 1032 702 
1032 701 735 702 
702 735 1033 736 
999 1033 1000 702 
702 735 1032 1033 
999 1033 702 1032 
1000 702 1033 703 
1033 702 736 703 
703 736 1034 737 
1000 1034 1001 703 
703 736 1033 1034 
1000 1034 703 1033 
1001 703 1034 704 
1034 703 737 704 
704 737 1035 738 
1001 1035 1002 704 
704 737 1034 1035 
1001 1035 704 1034 
1002 704 1035 705 
1035 704 738 705 
705 738 1036 739 
1002 1036 1003 705 
705 738 1035 1036 
1002 1036 705 1035 
1003 705 1036 706 
1036 705 739 706 
706 739 1037 740 
1003 1037 1004 706 
706 739 1036 1037 
1003 1037 706 1036 
1004 706 1037 707 
1037 706 740 707 
707 740 1038 741 
1004 1038 1005 707 
707 740 1037 1038 
1004 1038 707 1037 
1005 707 1038 708 
1038 707 741 708 
708 741 1039 742 
1005 1039 1006 708 
708 741 1038 1039 
1005 1039 708 1038 
1006 708 1039 709 
1039 708 742 709 
709 742 1040 743 
1006 1040 1007 709 
709 742 1039 1040 
1006 1040 709 1039 
1007 709 1040 710 
1040 709 743 710 
710 743 1041 744 
1007 1041 1008 710 
710 743 1040 1041 
1007 1041 710 1040 
1008 710 1041 711 
1041 710 744 711 
711 744 1042 745 
1008 1042 1009 711 
711 744 1041 1042 
1008 1042 711 1041 
1009 711 1042 712 
1042 711 745 712 
712 745 1043 746 
1009 1043 1010 712 
712 745 1042 1043 
1009 1043 712 1042 
1010 712 1043 713 
1043 712 746 713 
713 746 1044 747 
1010 1044 1011 713 
713 746 1043 1044 
1010 1044 713 1043 
1011 713 1044 714 
1044 713 747 714 
714 747 1045 748 
1011 1045 1012 714 
714 747 1044 1045 
1011 1045 714 1044 
1012 714 1045 715 
1045 714 748 715 
715 748 1046 749 
1012 1046 1013 715 
715 748 1045 1046 
1012 1046 715 1045 
1013 715 1046 716 
1046 715 749 716 
716 749 1047 750 
1013 1047 1014 716 
716 749 1046 1047 
1013 1047 716 1046 
1014 716 1047 717 
1047 716 750 717 
717 750 1048 751 
1014 1048 1015 717 
717 750 1047 1048 
1014 1048 717 1047 
1015 717 1048 718 
1048 717 751 718 
718 751 1049 752 
1015 1049 1016 718 
718 751 1048 1049 
1015 1049 718 1048 
1016 718 1049 719 
1049 718 752 719 
719 752 1050 753 
1016 1050 1017 719 
719 752 1049 1050 
1016 1050 719 1049 
1017 719 1050 720 
1050 719 753 720 
720 753 1051 754 
1017 1051 1018 720 
720 753 1050 1051 
1017 1051 720 1050 
1018 720 1051 721 
1051 720 754 721 
721 754 1052 755 
1018 1052 1019 721 
721 754 1051 1052 
1018 1052 721 1051 
1019 721 1052 722 
1052 721 755 722 
722 755 1053 756 
1019 1053 1020 722 
722 755 1052 1053 
1019 1053 722 1052 
1020 722 1053 723 
1053 722 756 723 
723 756 1054 757 
1020 1054 1021 723 
723 756 1053 1054 
1020 1054 723 1053 
1021 723 1054 724 
1054 723 757 724 
724 757 1055 758 
1021 1055 1022 724 
724 757 1054 1055 
1021 1055 724 1054 
1022 724 1055 725 
1055 724 758 725 
726 759 1057 760 
1023 1057 1024 726 
726 759 1056 1057 
1023 1057 726 1056 
1024 726 1057 727 
1057 726 760 727 
727 760 1058 761 
1024 1058 1025 727 
727 760 1057 1058 
1024 1058 727 1057 
1025 727 1058 728 
1058 727 761 728 
728 761 1059 762 
1025 1059 1026 728 
728 761 1058 1059 
1025 1059 728 1058 
1026 728 1059 729 
1059 728 762 729 
729 762 1060 763 
1026 1060 1027 729 
729 762 1059 1060 
1026 1060 729 1059 
1027 729 1060 730 
1060 729 763 730 
730 763 1061 764 
1027 1061 1028 730 
730 763 1060 1061 
1027 1061 730 1060 
1028 730 1061 731 
1061 730 764 731 
731 764 1062 765 
1028 1062 1029 731 
731 764 1061 1062 
1028 1062 731 1061 
1029 731 1062 732 
1062 731 765 732 
732 765 1063 766 
1029 1063 1030 732 
732 765 1062 1063 
1029 1063 732 1062 
1030 732 1063 733 
1063 732 766 733 
733 766 1064 767 
1030 1064 1031 733 
733 766 1063 1064 
1030 1064 733 1063 
1031 733 1064 734 
1064 733 767 734 
734 767 1065 768 
1031 1065 1032 734 
734 767 1064 1065 
1031 1065 734 1064 
1032 734 1065 735 
1065 734 768 735 
735 768 1066 769 
1032 1066 1033 735 
735 768 1065 1066 
1032 1066 735 1065 
1033 735 1066 736 
1066 735 769 736 
736 769 1067 770 
1033 1067 1034 736 
736 769 1066 1067 
1033 1067 736 1066 
1034 736 1067 737 
1067 736 770 737 
737 770 1068 771 
1034 1068 1035 737 
737 770 1067 1068 
1034 1068 737 1067 
1035 737 1068 738 
1068 737 771 738 
738 771 1069 772 
1035 1069 1036 738 
738 771 1068 1069 
1035 1069 738 1068 
1036 738 1069 739 
1069 738 772 739 
739 772 1070 773 
1036 1070 1037 739 
739 772 1069 1070 
1036 1070 739 1069 
1037 739 1070 740 
1070 739 773 740 
740 773 1071 774 
1037 1071 1038 740 
740 773 1070 1071 
1037 1071 740 1070 
1038 740 1071 741 
1071 740 774 741 
741 774 1072 775 
1038 1072 1039 741 
741 774 1071 1072 
1038 1072 741 1071 
1039 741 1072 742 
1072 741 775 742 
742 775 1073 776 
1039 1073 1040 742 
742 775 1072 1073 
1039 1073 742 1072 
1040 742 1073 743 
1073 742 776 743 
743 776 1074 777 
1040 1074 1041 743 
743 776 1073 1074 
1040 1074 743 1073 
1041 743 1074 744 
1074 743 777 744 
744 777 1075 778 
1041 1075 1042 744 
744 777 1074 1075 
1041 1075 744 1074 
1042 744 1075 745 
1075 744 778 745 
745 778 1076 779 
1042 1076 1043 745 
745 778 1075 1076 
1042 1076 745 1075 
1043 745 1076 746 
1076 745 779 746 
746 779 1077 780 
1043 1077 1044 746 
746 779 1076 1077 
1043 1077 746 1076 
1044 746 1077 747 
1077 746 780 747 
747 780 1078 781 
1044 1078 1045 747 
747 780 1077 1078 
1044 1078 747 1077 
1045 747 1078 748 
1078 747 781 748 
748 781 1079 782 
1045 1079 1046 748 
748 781 1078 1079 
1045 1079 748 1078 
1046 748 1079 749 
1079 748 782 749 
749 782 1080 783 
1046 1080 1047 749 
749 782 1079 1080 
1046 1080 749 1079 
1047 749 1080 750 
1080 749 783 750 
750 783 1081 784 
1047 1081 1048 750 
750 783 1080 1081 
1047 1081 750 1080 
1048 750 1081 751 
1081 750 784 751 
751 784 1082 785 
1048 1082 1049 751 
751 784 1081 1082 
1048 1082 751 1081 
1049 751 1082 752 
1082 751 785 752 
752 785 1083 786 
1049 1083 1050 752 
752 785 1082 1083 
1049 1083 752 1082 
1050 752 1083 753 
1083 752 786 753 
753 786 1084 787 
1050 1084 1051 753 
753 786 1083 1084 
1050 1084 753 1083 
1051 753 1084 754 
1084 753 787 754 
754 787 1085 788 
1051 1085 1052 754 
754 787 1084 1085 
1051 1085 754 1084 
1052 754 1085 755 
1085 754 788 755 
755 788 1086 789 
1052 1086 1053 755 
755 788 1085 1086 
1052 1086 755 1085 
1053 755 1086 756 
1086 755 789 756 
756 789 1087 790 
1053 1087 1054 756 
756 789 1086 1087 
1053 1087 756 1086 
1054 756 1087 757 
1087 756 790 757 
757 790 1088 791 
1054 1088 1055 757 
757 790 1087 1088 
1054 1088 757 1087 
1055 757 1088 758 
1088 757 791 758 
759 792 1090 793 
1056 1090 1057 759 
759 792 1089 1090 
1056 1090 759 1089 
1057 759 1090 760 
1090 759 793 760 
760 793 1091 794 
1057 1091 1058 760 
760 793 1090 1091 
1057 1091 760 1090 
1058 760 1091 761 
1091 760 794 761 
761 794 1092 795 
1058 1092 1059 761 
761 794 1091 1092 
1058 1092 761 1091 
1059 761 1092 762 
1092 761 795 762 
762 795 1093 796 
1059 1093 1060 762 
762 795 1092 1093 
1059 1093 762 1092 
1060 762 1093 763 
1093 762 796 763 
763 796 1094 797 
1060 1094 1061 763 
763 796 1093 1094 
1060 1094 763 1093 
1061 763 1094 764 
1094 763 797 764 
764 797 1095 798 
1061 1095 1062 764 
764 797 1094 1095 
1061 1095 764 1094 
1062 764 1095 765 
1095 764 798 765 
765 798 1096 799 
1062 1096 1063 765 
765 798 1095 1096 
1062 1096 765 1095 
1063 765 1096 766 
1096 765 799 766 
766 799 1097 800 
1063 1097 1064 766 
766 799 1096 1097 
1063 1097 766 1096 
1064 766 1097 767 
1097 766 800 767 
767 800 1098 801 
1064 1098 1065 767 
767 800 1097 1098 
1064 1098 767 1097 
1065 767 1098 768 
1098 767 801 768 
768 801 1099 802 
1065 1099 1066 768 
768 801 1098 1099 
1065 1099 768 1098 
1066 768 1099 769 
1099 768 802 769 
769 802 1100 803 
1066 1100 1067 769 
769 802 1099 1100 
1066 1100 769 1099 
1067 769 1100 770 
1100 769 803 770 
770 803 1101 804 
1067 1101 1068 770 
770 803 1100 1101 
1067 1101 770 1100 
1068 770 1101 771 
1101 770 804 771 
771 804 1102 805 
1068 1102 1069 771 
771 804 1101 1102 
1068 1102 771 1101 
1069 771 1102 772 
1102 771 805 772 
772 805 1103 806 
1069 1103 1070 772 
772 805 1102 1103 
1069 1103 772 1102 
1070 772 1103 773 
1103 772 806 773 
773 806 1104 807 
1070 1104 1071 773 
773 806 1103 1104 
1070 1104 773 1103 
1071 773 1104 774 
1104 773 807 774 
774 807 1105 808 
1071 1105 1072 774 
774 807 1104 1105 
1071 1105 774 1104 
1072 774 1105 775 
1105 774 808 775 
775 808 1106 809 
1072 1106 1073 775 
775 808 1105 1106 
1072 1106 775 1105 
1073 775 1106 776 
1106 775 809 776 
776 809 1107 810 
1073 1107 1074 776 
776 809 1106 1107 
1073 1107 776 1106 
1074 776 1107 777 
1107 776 810 777 
777 810 1108 811 
1074 1108 1075 777 
777 810 1107 1108 
1074 1108 777 1107 
1075 777 1108 778 
1108 777 811 778 
778 811 1109 812 
1075 1109 1076 778 
778 811 1108 1109 
1075 1109 778 1108 
1076 778 1109 779 
1109 778 812 779 
779 812 1110 813 
1076 1110 1077 779 
779 812 1109 1110 
1076 1110 779 1109 
1077 779 1110 780 
1110 779 813 780 
780 813 1111 814 
1077 1111 1078 780 
780 813 1110 1111 
1077 1111 780 1110 
1078 780 1111 781 
1111 780 814 781 
781 814 1112 815 
1078 1112 1079 781 
781 814 1111 1112 
1078 1112 781 1111 
1079 781 1112 782 
1112 781 815 782 
782 815 1113 816 
1079 1113 1080 782 
782 815 1112 1113 
1079 1113 782 1112 
1080 782 1113 783 
1113 782 816 783 
783 816 1114 817 
1080 1114 1081 783 
783 816 1113 1114 
1080 1114 783 1113 
1081 783 1114 784 
1114 783 817 784 
784 817 1115 818 
1081 1115 1082 784 
784 817 1114 1115 
1081 1115 784 1114 
1082 784 1115 785 
1115 784 818 785 
785 818 1116 819 
1082 1116 1083 785 
785 818 1115 1116 
1082 1116 785 1115 
1083 785 1116 786 
1116 785 819 786 
786 819 1117 820 
1083 1117 1084 786 
786 819 1116 1117 
1083 1117 786 1116 
1084 786 1117 787 
1117 786 820 787 
787 820 1118 821 
1084 1118 1085 787 
787 820 1117 1118 
1084 1118 787 1117 
1085 787 1118 788 
1118 787 821 788 
788 821 1119 822 
1085 1119 1086 788 
788 821 1118 1119 
1085 1119 788 1118 
1086 788 1119 789 
1119 788 822 789 
789 822 1120 823 
1086 1120 1087 789 
789 822 1119 1120 
1086 1120 789 1119 
1087 789 1120 790 
1120 789 823 790 
790 823 1121 824 
1087 1121 1088 790 
790 823 1120 1121 
1087 1121 790 1120 
1088 790 1121 791 
1121 790 824 791 
792 825 1123 826 
1089 1123 1090 792 
792 825 1122 1123 
1089 1123 792 1122 
1090 792 1123 793 
1123 792 826 793 
793 826 1124 827 
1090 1124 1091 793 
793 826 1123 1124 
1090 1124 793 1123 
1091 793 1124 794 
1124 793 827 794 
794 827 1125 828 
1091 1125 1092 794 
794 827 1124 1125 
1091 1125 794 1124 
1092 794 1125 795 
1125 794 828 795 
795 828 1126 829 
1092 1126 1093 795 
795 828 1125 1126 
1092 1126 795 1125 
1093 795 1126 796 
1126 795 829 796 
796 829 1127 830 
1093 1127 1094 796 
796 829 1126 1127 
1093 1127 796 1126 
1094 796 1127 797 
1127 796 830 797 
797 830 1128 831 
1094 1128 1095 797 
797 830 1127 1128 
1094 1128 797 1127 
1095 797 1128 798 
1128 797 831 798 
798 831 1129 832 
1095 1129 1096 798 
798 831 1128 1129 
1095 1129 798 1128 
1096 798 1129 799 
1129 798 832 799 
799 832 1130 833 
1096 1130 1097 799 
799 832 1129 1130 
1096 1130 799 1129 
1097 799 1130 800 
1130 799 833 800 
800 833 1131 834 
1097 1131 1098 800 
800 833 1130 1131 
1097 1131 800 1130 
1098 800 1131 801 
1131 800 834 801 
801 834 1132 835 
1098 1132 1099 801 
801 834 1131 1132 
1098 1132 801 1131 
1099 801 1132 802 
1132 801 835 802 
802 835 1133 836 
1099 1133 1100 802 
802 835 1132 1133 
1099 1133 802 1132 
1100 802 1133 803 
1133 802 836 803 
803 836 1134 837 
1100 1134 1101 803 
803 836 1133 1134 
1100 1134 803 1133 
1101 803 1134 804 
1134 803 837 804 
804 837 1135 838 
1101 1135 1102 804 
804 837 1134 1135 
1101 1135 804 1134 
1102 804 1135 805 
1135 804 838 805 
805 838 1136 839 
1102 1136 1103 805 
805 838 1135 1136 
1102 1136 805 1135 
1103 805 1136 806 
1136 805 839 806 
806 839 1137 840 
1103 1137 1104 806 
806 839 1136 1137 
1103 1137 806 1136 
1104 806 1137 807 
1137 806 840 807 
807 840 1138 841 
1104 1138 1105 807 
807 840 1137 1138 
1104 1138 807 1137 
1105 807 1138 808 
1138 807 841 808 
808 841 1139 842 
1105 1139 1106 808 
808 841 1138 1139 
1105 1139 808 1138 
1106 808 1139 809 
1139 808 842 809 
809 842 1140 843 
1106 1140 1107 809 
809 842 1139 1140 
1106 1140 809 1139 
1107 809 1140 810 
1140 809 843 810 
810 843 1141 844 
1107 1141 1108 810 
810 843 1140 1141 
1107 1141 810 1140 
1108 810 1141 811 
1141 810 844 811 
811 844 1142 845 
1108 1142 1109 811 
811 844 1141 1142 
1108 1142 811 1141 
1109 811 1142 812 
1142 811 845 812 
812 845 1143 846 
1109 1143 1110 812 
812 845 1142 1143 
1109 1143 812 1142 
1110 812 1143 813 
1143 812 846 813 
813 846 1144 847 
1110 1144 1111 813 
813 846 1143 1144 
1110 1144 813 1143 
1111 813 1144 814 
1144 813 847 814 
814 847 1145 848 
1111 1145 1112 814 
814 847 1144 1145 
1111 1145 814 1144 
1112 814 1145 815 
1145 814 848 815 
815 848 1146 849 
1112 1146 1113 815 
815 848 1145 1146 
1112 1146 815 1145 
1113 815 1146 816 
1146 815 849 816 
816 849 1147 850 
1113 1147 1114 816 
816 849 1146 1147 
1113 1147 816 1146 
1114 816 1147 817 
1147 816 850 817 
817 850 1148 851 
1114 1148 1115 817 
817 850 1147 1148 
1114 1148 817 1147 
1115 817 1148 818 
1148 817 851 818 
818 851 1149 852 
1115 1149 1116 818 
818 851 1148 1149 
1115 1149 818 1148 
1116 818 1149 819 
1149 818 852 819 
819 852 1150 853 
1116 1150 1117 819 
819 852 1149 1150 
1116 1150 819 1149 
1117 819 1150 820 
1150 819 853 820 
820 853 1151 854 
1117 1151 1118 820 
820 853 1150 1151 
1117 1151 820 1150 
1118 820 1151 821 
1151 820 854 821 
821 854 1152 855 
1118 1152 1119 821 
821 854 1151 1152 
1118 1152 821 1151 
1119 821 1152 822 
1152 821 855 822 
822 855 1153 856 
1119 1153 1120 822 
822 855 1152 1153 
1119 1153 822 1152 
1120 822 1153 823 
1153 822 856 823 
823 856 1154 857 
1120 1154 1121 823 
823 856 1153 1154 
1120 1154 823 1153 
1121 823 1154 824 
1154 823 857 824 
825 858 1156 859 
1122 1156 1123 825 
825 858 1155 1156 
1122 1156 825 1155 
1123 825 1156 826 
1156 825 859 826 
826 859 1157 860 
1123 1157 1124 826 
826 859 1156 1157 
1123 1157 826 1156 
1124 826 1157 827 
1157 826 860 827 
827 860 1158 861 
1124 1158 1125 827 
827 860 1157 1158 
1124 1158 827 1157 
1125 827 1158 828 
1158 827 861 828 
828 861 1159 862 
1125 1159 1126 828 
828 861 1158 1159 
1125 1159 828 1158 
1126 828 1159 829 
1159 828 862 829 
829 862 1160 863 
1126 1160 1127 829 
829 862 1159 1160 
1126 1160 829 1159 
1127 829 1160 830 
1160 829 863 830 
830 863 1161 864 
1127 1161 1128 830 
830 863 1160 1161 
1127 1161 830 1160 
1128 830 1161 831 
1161 830 864 831 
831 864 1162 865 
1128 1162 1129 831 
831 864 1161 1162 
1128 1162 831 1161 
1129 831 1162 832 
1162 831 865 832 
832 865 1163 866 
1129 1163 1130 832 
832 865 1162 1163 
1129 1163 832 1162 
1130 832 1163 833 
1163 832 866 833 
833 866 1164 867 
1130 1164 1131 833 
833 866 1163 1164 
1130 1164 833 1163 
1131 833 1164 834 
1164 833 867 834 
834 867 1165 868 
1131 1165 1132 834 
834 867 1164 1165 
1131 1165 834 1164 
1132 834 1165 835 
1165 834 868 835 
835 868 1166 869 
1132 1166 1133 835 
835 868 1165 1166 
1132 1166 835 1165 
1133 835 1166 836 
1166 835 869 836 
836 869 1167 870 
1133 1167 1134 836 
836 869 1166 1167 
1133 1167 836 1166 
1134 836 1167 837 
1167 836 870 837 
837 870 1168 871 
1134 1168 1135 837 
837 870 1167 1168 
1134 1168 837 1167 
1135 837 1168 838 
1168 837 871 838 
838 871 1169 872 
1135 1169 1136 838 
838 871 1168 1169 
1135 1169 838 1168 
1136 838 1169 839 
1169 838 872 839 
839 872 1170 873 
1136 1170 1137 839 
839 872 1169 1170 
1136 1170 839 1169 
1137 839 1170 840 
1170 839 873 840 
840 873 1171 874 
1137 1171 1138 840 
840 873 1170 1171 
1137 1171 840 1170 
1138 840 1171 841 
1171 840 874 841 
841 874 1172 875 
1138 1172 1139 841 
841 874 1171 1172 
1138 1172 841 1171 
1139 841 1172 842 
1172 841 875 842 
842 875 1173 876 
1139 1173 1140 842 
842 875 1172 1173 
1139 1173 842 1172 
1140 842 1173 843 
1173 842 876 843 
843 876 1174 877 
1140 1174 1141 843 
843 876 1173 1174 
1140 1174 843 1173 
1141 843 1174 844 
1174 843 877 844 
844 877 1175 878 
1141 1175 1142 844 
844 877 1174 1175 
1141 1175 844 1174 
1142 844 1175 845 
1175 844 878 845 
845 878 1176 879 
1142 1176 1143 845 
845 878 1175 1176 
1142 1176 845 1175 
1143 845 1176 846 
1176 845 879 846 
846 879 1177 880 
1143 1177 1144 846 
846 879 1176 1177 
1143 1177 846 1176 
1144 846 1177 847 
1177 846 880 847 
847 880 1178 881 
1144 1178 1145 847 
847 880 1177 1178 
1144 1178 847 1177 
1145 847 1178 848 
1178 847 881 848 
848 881 1179 882 
1145 1179 1146 848 
848 881 1178 1179 
1145 1179 848 1178 
1146 848 1179 849 
1179 848 882 849 
849 882 1180 883 
1146 1180 1147 849 
849 882 1179 1180 
1146 1180 849 1179 
1147 849 1180 850 
1180 849 883 850 
850 883 1181 884 
1147 1181 1148 850 
850 883 1180 1181 
1147 1181 850 1180 
1148 850 1181 851 
1181 850 884 851 
851 884 1182 885 
1148 1182 1149 851 
851 884 1181 1182 
1148 1182 851 1181 
1149 851 1182 852 
1182 851 885 852 
852 885 1183 886 
1149 1183 1150 852 
852 885 1182 1183 
1149 1183 852 1182 
1150 852 1183 853 
1183 852 886 853 
853 886 1184 887 
1150 1184 1151 853 
853 886 1183 1184 
1150 1184 853 1183 
1151 853 1184 854 
1184 853 887 854 
854 887 1185 888 
1151 1185 1152 854 
854 887 1184 1185 
1151 1185 854 1184 
1152 854 1185 855 
1185 854 888 855 
855 888 1186 889 
1152 1186 1153 855 
855 888 1185 1186 
1152 1186 855 1185 
1153 855 1186 856 
1186 855 889 856 
856 889 1187 890 
1153 1187 1154 856 
856 889 1186 1187 
1153 1187 856 1186 
1154 856 1187 857 
1187 856 890 857 
891 924 1222 925 
1188 1222 1189 891 
891 924 1221 1222 
1188 1222 891 1221 
1189 891 1222 892 
1222 891 925 892 
892 925 1223 926 
1189 1223 1190 892 
892 925 1222 1223 
1189 1223 892 1222 
1190 892 1223 893 
1223 892 926 893 
893 926 1224 927 
1190 1224 1191 893 
893 926 1223 1224 
1190 1224 893 1223 
1191 893 1224 894 
1224 893 927 894 
894 927 1225 928 
1191 1225 1192 894 
894 927 1224 1225 
1191 1225 894 1224 
1192 894 1225 895 
1225 894 928 895 
895 928 1226 929 
1192 1226 1193 895 
895 928 1225 1226 
1192 1226 895 1225 
1193 895 1226 896 
1226 895 929 896 
896 929 1227 930 
1193 1227 1194 896 
896 929 1226 1227 
1193 1227 896 1226 
1194 896 1227 897 
1227 896 930 897 
897 930 1228 931 
1194 1228 1195 897 
897 930 1227 1228 
1194 1228 897 1227 
1195 897 1228 898 
1228 897 931 898 
898 931 1229 932 
1195 1229 1196 898 
898 931 1228 1229 
1195 1229 898 1228 
1196 898 1229 899 
1229 898 932 899 
899 932 1230 933 
1196 1230 1197 899 
899 932 1229 1230 
1196 1230 899 1229 
1197 899 1230 900 
1230 899 933 900 
900 933 1231 934 
1197 1231 1198 900 
900 933 1230 1231 
1197 1231 900 1230 
1198 900 1231 901 
1231 900 934 901 
901 934 1232 935 
1198 1232 1199 901 
901 934 1231 1232 
1198 1232 901 1231 
1199 901 1232 902 
1232 901 935 902 
902 935 1233 936 
1199 1233 1200 902 
902 935 1232 1233 
1199 1233 902 1232 
1200 902 1233 903 
1233 902 936 903 
903 936 1234 937 
1200 1234 1201 903 
903 936 1233 1234 
1200 1234 903 1233 
1201 903 1234 904 
1234 903 937 904 
904 937 1235 938 
1201 1235 1202 904 
904 937 1234 1235 
1201 1235 904 1234 
1202 904 1235 905 
1235 904 938 905 
905 938 1236 939 
1202 1236 1203 905 
905 938 1235 1236 
1202 1236 905 1235 
1203 905 1236 906 
1236 905 939 906 
906 939 1237 940 
1203 1237 1204 906 
906 939 1236 1237 
1203 1237 906 1236 
1204 906 1237 907 
1237 906 940 907 
907 940 1238 941 
1204 1238 1205 907 
907 940 1237 1238 
1204 1238 907 1237 
1205 907 1238 908 
1238 907 941 908 
908 941 1239 942 
1205 1239 1206 908 
908 941 1238 1239 
1205 1239 908 1238 
1206 908 1239 909 
1239 908 942 909 
909 942 1240 943 
1206 1240 1207 909 
909 942 1239 1240 
1206 1240 909 1239 
1207 909 1240 910 
1240 909 943 910 
910 943 1241 944 
1207 1241 1208 910 
910 943 1240 1241 
1207 1241 910 1240 
1208 910 1241 911 
1241 910 944 911 
911 944 1242 945 
1208 1242 1209 911 
911 944 1241 1242 
1208 1242 911 1241 
1209 911 1242 912 
1242 911 945 912 
912 945 1243 946 
1209 1243 1210 912 
912 945 1242 1243 
1209 1243 912 1242 
1210 912 1243 913 
1243 912 946 913 
913 946 1244 947 
1210 1244 1211 913 
913 946 1243 1244 
1210 1244 913 1243 
1211 913 1244 914 
1244 913 947 914 
914 947 1245 948 
1211 1245 1212 914 
914 947 1244 1245 
1211 1245 914 1244 
1212 914 1245 915 
1245 914 948 915 
915 948 1246 949 
1212 1246 1213 915 
915 948 1245 1246 
1212 1246 915 1245 
1213 915 1246 916 
1246 915 949 916 
916 949 1247 950 
1213 1247 1214 916 
916 949 1246 1247 
1213 1247 916 1246 
1214 916 1247 917 
1247 916 950 917 
917 950 1248 951 
1214 1248 1215 917 
917 950 1247 1248 
1214 1248 917 1247 
1215 917 1248 918 
1248 917 951 918 
918 951 1249 952 
1215 1249 1216 918 
918 951 1248 1249 
1215 1249 918 1248 
1216 918 1249 919 
1249 918 952 919 
919 952 1250 953 
1216 1250 1217 919 
919 952 1249 1250 
1216 1250 919 1249 
1217 919 1250 920 
1250 919 953 920 
920 953 1251 954 
1217 1251 1218 920 
920 953 1250 1251 
1217 1251 920 1250 
1218 920 1251 921 
1251 920 954 921 
921 954 1252 955 
1218 1252 1219 921 
921 954 1251 1252 
1218 1252 921 1251 
1219 921 1252 922 
1252 921 955 922 
922 955 1253 956 
1219 1253 1220 922 
922 955 1252 1253 
1219 1253 922 1252 
1220 922 1253 923 
1253 922 956 923 
924 957 1255 958 
1221 1255 1222 924 
924 957 1254 1255 
1221 1255 924 1254 
1222 924 1255 925 
1255 924 958 925 
925 958 1256 959 
1222 1256 1223 925 
925 958 1255 1256 
1222 1256 925 1255 
1223 925 1256 926 
1256 925 959 926 
926 959 1257 960 
1223 1257 1224 926 
926 959 1256 1257 
1223 1257 926 1256 
1224 926 1257 927 
1257 926 960 927 
927 960 1258 961 
1224 1258 1225 927 
927 960 1257 1258 
1224 1258 927 1257 
1225 927 1258 928 
1258 927 961 928 
928 961 1259 962 
1225 1259 1226 928 
928 961 1258 1259 
1225 1259 928 1258 
1226 928 1259 929 
1259 928 962 929 
929 962 1260 963 
1226 1260 1227 929 
929 962 1259 1260 
1226 1260 929 1259 
1227 929 1260 930 
1260 929 963 930 
930 963 1261 964 
1227 1261 1228 930 
930 963 1260 1261 
1227 1261 930 1260 
1228 930 1261 931 
1261 930 964 931 
931 964 1262 965 
1228 1262 1229 931 
931 964 1261 1262 
1228 1262 931 1261 
1229 931 1262 932 
1262 931 965 932 
932 965 1263 966 
1229 1263 1230 932 
932 965 1262 1263 
1229 1263 932 1262 
1230 932 1263 933 
1263 932 966 933 
933 966 1264 967 
1230 1264 1231 933 
933 966 1263 1264 
1230 1264 933 1263 
1231 933 1264 934 
1264 933 967 934 
934 967 1265 968 
1231 1265 1232 934 
934 967 1264 1265 
1231 1265 934 1264 
1232 934 1265 935 
1265 934 968 935 
935 968 1266 969 
1232 1266 1233 935 
935 968 1265 1266 
1232 1266 935 1265 
1233 935 1266 936 
1266 935 969 936 
936 969 1267 970 
1233 1267 1234 936 
936 969 1266 1267 
1233 1267 936 1266 
1234 936 1267 937 
1267 936 970 937 
937 970 1268 971 
1234 1268 1235 937 
937 970 1267 1268 
1234 1268 937 1267 
1235 937 1268 938 
1268 937 971 938 
938 971 1269 972 
1235 1269 1236 938 
938 971 1268 1269 
1235 1269 938 1268 
1236 938 1269 939 
1269 938 972 939 
939 972 1270 973 
1236 1270 1237 939 
939 972 1269 1270 
1236 1270 939 1269 
1237 939 1270 940 
1270 939 973 940 
940 973 1271 974 
1237 1271 1238 940 
940 973 1270 1271 
1237 1271 940 1270 
1238 940 1271 941 
1271 940 974 941 
941 974 1272 975 
1238 1272 1239 941 
941 974 1271 1272 
1238 1272 941 1271 
1239 941 1272 942 
1272 941 975 942 
942 975 1273 976 
1239 1273 1240 942 
942 975 1272 1273 
1239 1273 942 1272 
1240 942 1273 943 
1273 942 976 943 
943 976 1274 977 
1240 1274 1241 943 
943 976 1273 1274 
1240 1274 943 1273 
1241 943 1274 944 
1274 943 977 944 
944 977 1275 978 
1241 1275 1242 944 
944 977 1274 1275 
1241 1275 944 1274 
1242 944 1275 945 
1275 944 978 945 
945 978 1276 979 
1242 1276 1243 945 
945 978 1275 1276 
1242 1276 945 1275 
1243 945 1276 946 
1276 945 979 946 
946 979 1277 980 
1243 1277 1244 946 
946 979 1276 1277 
1243 1277 946 1276 
1244 946 1277 947 
1277 946 980 947 
947 980 1278 981 
1244 1278 1245 947 
947 980 1277 1278 
1244 1278 947 1277 
1245 947 1278 948 
1278 947 981 948 
948 981 1279 982 
1245 1279 1246 948 
948 981 1278 1279 
1245 1279 948 1278 
1246 948 1279 949 
1279 948 982 949 
949 982 1280 983 
1246 1280 1247 949 
949 982 1279 1280 
1246 1280 949 1279 
1247 949 1280 950 
1280 949 983 950 
950 983 1281 984 
1247 1281 1248 950 
950 983 1280 1281 
1247 1281 950 1280 
1248 950 1281 951 
1281 950 984 951 
951 984 1282 985 
1248 1282 1249 951 
951 984 1281 1282 
1248 1282 951 1281 
1249 951 1282 952 
1282 951 985 952 
952 985 1283 986 
1249 1283 1250 952 
952 985 1282 1283 
1249 1283 952 1282 
1250 952 1283 953 
1283 952 986 953 
953 986 1284 987 
1250 1284 1251 953 
953 986 1283 1284 
1250 1284 953 1283 
1251 953 1284 954 
1284 953 987 954 
954 987 1285 988 
1251 1285 1252 954 
954 987 1284 1285 
1251 1285 954 1284 
1252 954 1285 955 
1285 954 988 955 
955 988 1286 989 
1252 1286 1253 955 
955 988 1285 1286 
1252 1286 955 1285 
1253 955 1286 956 
1286 955 989 956 
957 990 1288 991 
1254 1288 1255 957 
957 990 1287 1288 
1254 1288 957 1287 
1255 957 1288 958 
1288 957 991 958 
958 991 1289 992 
1255 1289 1256 958 
958 991 1288 1289 
1255 1289 958 1288 
1256 958 1289 959 
1289 958 992 959 
959 992 1290 993 
1256 1290 1257 959 
959 992 1289 1290 
1256 1290 959 1289 
1257 959 1290 960 
1290 959 993 960 
960 993 1291 994 
1257 1291 1258 960 
960 993 1290 1291 
1257 1291 960 1290 
1258 960 1291 961 
1291 960 994 961 
961 994 1292 995 
1258 1292 1259 961 
961 994 1291 1292 
1258 1292 961 1291 
1259 961 1292 962 
1292 961 995 962 
962 995 1293 996 
1259 1293 1260 962 
962 995 1292 1293 
1259 1293 962 1292 
1260 962 1293 963 
1293 962 996 963 
963 996 1294 997 
1260 1294 1261 963 
963 996 1293 1294 
1260 1294 963 1293 
1261 963 1294 964 
1294 963 997 964 
964 997 1295 998 
1261 1295 1262 964 
964 997 1294 1295 
1261 1295 964 1294 
1262 964 1295 965 
1295 964 998 965 
965 998 1296 999 
1262 1296 1263 965 
965 998 1295 1296 
1262 1296 965 1295 
1263 965 1296 966 
1296 965 999 966 
966 999 1297 1000 
1263 1297 1264 966 
966 999 1296 1297 
1263 1297 966 1296 
1264 966 1297 967 
1297 966 1000 967 
967 1000 1298 1001 
1264 1298 1265 967 
967 1000 1297 1298 
1264 1298 967 1297 
1265 967 1298 968 
1298 967 1001 968 
968 1001 1299 1002 
1265 1299 1266 968 
968 1001 1298 1299 
1265 1299 968 1298 
1266 968 1299 969 
1299 968 1002 969 
969 1002 1300 1003 
1266 1300 1267 969 
969 1002 1299 1300 
1266 1300 969 1299 
1267 969 1300 970 
1300 969 1003 970 
970 1003 1301 1004 
1267 1301 1268 970 
970 1003 1300 1301 
1267 1301 970 1300 
1268 970 1301 971 
1301 970 1004 971 
971 1004 1302 1005 
1268 1302 1269 971 
971 1004 1301 1302 
1268 1302 971 1301 
1269 971 1302 972 
1302 971 1005 972 
972 1005 1303 1006 
1269 1303 1270 972 
972 1005 1302 1303 
1269 1303 972 1302 
1270 972 1303 973 
1303 972 1006 973 
973 1006 1304 1007 
1270 1304 1271 973 
973 1006 1303 1304 
1270 1304 973 1303 
1271 973 1304 974 
1304 973 1007 974 
974 1007 1305 1008 
1271 1305 1272 974 
974 1007 1304 1305 
1271 1305 974 1304 
1272 974 1305 975 
1305 974 1008 975 
975 1008 1306 1009 
1272 1306 1273 975 
975 1008 1305 1306 
1272 1306 975 1305 
1273 975 1306 976 
1306 975 1009 976 
976 1009 1307 1010 
1273 1307 1274 976 
976 1009 1306 1307 
1273 1307 976 1306 
1274 976 1307 977 
1307 976 1010 977 
977 1010 1308 1011 
1274 1308 1275 977 
977 1010 1307 1308 
1274 1308 977 1307 
1275 977 1308 978 
1308 977 1011 978 
978 1011 1309 1012 
1275 1309 1276 978 
978 1011 1308 1309 
1275 1309 978 1308 
1276 978 1309 979 
1309 978 1012 979 
979 1012 1310 1013 
1276 1310 1277 979 
979 1012 1309 1310 
1276 1310 979 1309 
1277 979 1310 980 
1310 979 1013 980 
980 1013 1311 1014 
1277 1311 1278 980 
980 1013 1310 1311 
1277 1311 980 1310 
1278 980 1311 981 
1311 980 1014 981 
981 1014 1312 1015 
1278 1312 1279 981 
981 1014 1311 1312 
1278 1312 981 1311 
1279 981 1312 982 
1312 981 1015 982 
982 1015 1313 1016 
1279 1313 1280 982 
982 1015 1312 1313 
1279 1313 982 1312 
1280 982 1313 983 
1313 982 1016 983 
983 1016 1314 1017 
1280 1314 1281 983 
983 1016 1313 1314 
1280 1314 983 1313 
1281 983 1314 984 
1314 983 1017 984 
984 1017 1315 1018 
1281 1315 1282 984 
984 1017 1314 1315 
1281 1315 984 1314 
1282 984 1315 985 
1315 984 1018 985 
985 1018 1316 1019 
1282 1316 1283 985 
985 1018 1315 1316 
1282 1316 985 1315 
1283 985 1316 986 
1316 985 1019 986 
986 1019 1317 1020 
1283 1317 1284 986 
986 1019 1316 1317 
1283 1317 986 1316 
1284 986 1317 987 
1317 986 1020 987 
987 1020 1318 1021 
1284 1318 1285 987 
987 1020 1317 1318 
1284 1318 987 1317 
1285 987 1318 988 
1318 987 1021 988 
988 1021 1319 1022 
1285 1319 1286 988 
988 1021 1318 1319 
1285 1319 988 1318 
1286 988 1319 989 
1319 988 1022 989 
990 1023 1321 1024 
1287 1321 1288 990 
990 1023 1320 1321 
1287 1321 990 1320 
1288 990 1321 991 
1321 990 1024 991 
991 1024 1322 1025 
1288 1322 1289 991 
991 1024 1321 1322 
1288 1322 991 1321 
1289 991 1322 992 
1322 991 1025 992 
992 1025 1323 1026 
1289 1323 1290 992 
992 1025 1322 1323 
1289 1323 992 1322 
1290 992 1323 993 
1323 992 1026 993 
993 1026 1324 1027 
1290 1324 1291 993 
993 1026 1323 1324 
1290 1324 993 1323 
1291 993 1324 994 
1324 993 1027 994 
994 1027 1325 1028 
1291 1325 1292 994 
994 1027 1324 1325 
1291 1325 994 1324 
1292 994 1325 995 
1325 994 1028 995 
995 1028 1326 1029 
1292 1326 1293 995 
995 1028 1325 1326 
1292 1326 995 1325 
1293 995 1326 996 
1326 995 1029 996 
996 1029 1327 1030 
1293 1327 1294 996 
996 1029 1326 1327 
1293 1327 996 1326 
1294 996 1327 997 
1327 996 1030 997 
997 1030 1328 1031 
1294 1328 1295 997 
997 1030 1327 1328 
1294 1328 997 1327 
1295 997 1328 998 
1328 997 1031 998 
998 1031 1329 1032 
1295 1329 1296 998 
998 1031 1328 1329 
1295 1329 998 1328 
1296 998 1329 999 
1329 998 1032 999 
999 1032 1330 1033 
1296 1330 1297 999 
999 1032 1329 1330 
1296 1330 999 1329 
1297 999 1330 1000 
1330 999 1033 1000 
1000 1033 1331 1034 
1297 1331 1298 1000 
1000 1033 1330 1331 
1297 1331 1000 1330 
1298 1000 1331 1001 
1331 1000 1034 1001 
1001 1034 1332 1035 
1298 1332 1299 1001 
1001 1034 1331 1332 
1298 1332 1001 1331 
1299 1001 1332 1002 
1332 1001 1035 1002 
1002 1035 1333 1036 
1299 1333 1300 1002 
1002 1035 1332 1333 
1299 1333 1002 1332 
1300 1002 1333 1003 
1333 1002 1036 1003 
1003 1036 1334 1037 
1300 1334 1301 1003 
1003 1036 1333 1334 
1300 1334 1003 1333 
1301 1003 1334 1004 
1334 1003 1037 1004 
1004 1037 1335 1038 
1301 1335 1302 1004 
1004 1037 1334 1335 
1301 1335 1004 1334 
1302 1004 1335 1005 
1335 1004 1038 1005 
1005 1038 1336 1039 
1302 1336 1303 1005 
1005 1038 1335 1336 
1302 1336 1005 1335 
1303 1005 1336 1006 
1336 1005 1039 1006 
1006 1039 1337 1040 
1303 1337 1304 1006 
1006 1039 1336 1337 
1303 1337 1006 1336 
1304 1006 1337 1007 
1337 1006 1040 1007 
1007 1040 1338 1041 
1304 1338 1305 1007 
1007 1040 1337 1338 
1304 1338 1007 1337 
1305 1007 1338 1008 
1338 1007 1041 1008 
1008 1041 1339 1042 
1305 1339 1306 1008 
1008 1041 1338 1339 
1305 1339 1008 1338 
1306 1008 1339 1009 
1339 1008 1042 1009 
1009 1042 1340 1043 
1306 1340 1307 1009 
1009 1042 1339 1340 
1306 1340 1009 1339 
1307 1009 1340 1010 
1340 1009 1043 1010 
1010 1043 1341 1044 
1307 1341 1308 1010 
1010 1043 1340 1341 
1307 1341 1010 1340 
1308 1010 1341 1011 
1341 1010 1044 1011 
1011 1044 1342 1045 
1308 1342 1309 1011 
1011 1044 1341 1342 
1308 1342 1011 1341 
1309 1011 1342 1012 
1342 1011 1045 1012 
1012 1045 1343 1046 
1309 1343 1310 1012 
1012 1045 1342 1343 
1309 1343 1012 1342 
1310 1012 1343 1013 
1343 1012 1046 1013 
1013 1046 1344 1047 
1310 1344 1311 1013 
1013 1046 1343 1344 
1310 1344 1013 1343 
1311 1013 1344 1014 
1344 1013 1047 1014 
1014 1047 1345 1048 
1311 1345 1312 1014 
1014 1047 1344 1345 
1311 1345 1014 1344 
1312 1014 1345 1015 
1345 1014 1048 1015 
1015 1048 1346 1049 
1312 1346 1313 1015 
1015 1048 1345 1346 
1312 1346 1015 1345 
1313 1015 1346 1016 
1346 1015 1049 1016 
1016 1049 1347 1050 
1313 1347 1314 1016 
1016 1049 1346 1347 
1313 1347 1016 1346 
1314 1016 1347 1017 
1347 1016 1050 1017 
1017 1050 1348 1051 
1314 1348 1315 1017 
1017 1050 1347 1348 
1314 1348 1017 1347 
1315 1017 1348 1018 
1348 1017 1051 1018 
1018 1051 1349 1052 
1315 1349 1316 1018 
1018 1051 1348 1349 
1315 1349 1018 1348 
1316 1018 1349 1019 
1349 1018 1052 1019 
1019 1052 1350 1053 
1316 1350 1317 1019 
1019 1052 1349 1350 
1316 1350 1019 1349 
1317 1019 1350 1020 
1350 1019 1053 1020 
1020 1053 1351 1054 
1317 1351 1318 1020 
1020 1053 1350 1351 
1317 1351 1020 1350 
1318 1020 1351 1021 
1351 1020 1054 1021 
1021 1054 1352 1055 
1318 1352 1319 1021 
1021 1054 1351 1352 
1318 1352 1021 1351 
1319 1021 1352 1022 
1352 1021 1055 1022 
1023 1056 1354 1057 
1320 1354 1321 1023 
1023 1056 1353 1354 
1320 1354 1023 1353 
1321 1023 1354 1024 
1354 1023 1057 1024 
1024 1057 1355 1058 
1321 1355 1322 1024 
1024 1057 1354 1355 
1321 1355 1024 1354 
1322 1024 1355 1025 
1355 1024 1058 1025 
1025 1058 1356 1059 
1322 1356 1323 1025 
1025 1058 1355 1356 
1322 1356 1025 1355 
1323 1025 1356 1026 
1356 1025 1059 1026 
1026 1059 1357 1060 
1323 1357 1324 1026 
1026 1059 1356 1357 
1323 1357 1026 1356 
1324 1026 1357 1027 
1357 1026 1060 1027 
1027 1060 1358 1061 
1324 1358 1325 1027 
1027 1060 1357 1358 
1324 1358 1027 1357 
1325 1027 1358 1028 
1358 1027 1061 1028 
1028 1061 1359 1062 
1325 1359 1326 1028 
1028 1061 1358 1359 
1325 1359 1028 1358 
1326 1028 1359 1029 
1359 1028 1062 1029 
1029 1062 1360 1063 
1326 1360 1327 1029 
1029 1062 1359 1360 
1326 1360 1029 1359 
1327 1029 1360 1030 
1360 1029 1063 1030 
1030 1063 1361 1064 
1327 1361 1328 1030 
1030 1063 1360 1361 
1327 1361 1030 1360 
1328 1030 1361 1031 
1361 1030 1064 1031 
1031 1064 1362 1065 
1328 1362 1329 1031 
1031 1064 1361 1362 
1328 1362 1031 1361 
1329 1031 1362 1032 
1362 1031 1065 1032 
1032 1065 1363 1066 
1329 1363 1330 1032 
1032 1065 1362 1363 
1329 1363 1032 1362 
1330 1032 1363 1033 
1363 1032 1066 1033 
1033 1066 1364 1067 
1330 1364 1331 1033 
1033 1066 1363 1364 
1330 1364 1033 1363 
1331 1033 1364 1034 
1364 1033 1067 1034 
1034 1067 1365 1068 
1331 1365 1332 1034 
1034 1067 1364 1365 
1331 1365 1034 1364 
1332 1034 1365 1035 
1365 1034 1068 1035 
1035 1068 1366 1069 
1332 1366 1333 1035 
1035 1068 1365 1366 
1332 1366 1035 1365 
1333 1035 1366 1036 
1366 1035 1069 1036 
1036 1069 1367 1070 
1333 1367 1334 1036 
1036 1069 1366 1367 
1333 1367 1036 1366 
1334 1036 1367 1037 
1367 1036 1070 1037 
1037 1070 1368 1071 
1334 1368 1335 1037 
1037 1070 1367 1368 
1334 1368 1037 1367 
1335 1037 1368 1038 
1368 1037 1071 1038 
1038 1071 1369 1072 
1335 1369 1336 1038 
1038 1071 1368 1369 
1335 1369 1038 1368 
1336 1038 1369 1039 
1369 1038 1072 1039 
1039 1072 1370 1073 
1336 1370 1337 1039 
1039 1072 1369 1370 
1336 1370 1039 1369 
1337 1039 1370 1040 
1370 1039 1073 1040 
1040 1073 1371 1074 
1337 1371 1338 1040 
1040 1073 1370 1371 
1337 1371 1040 1370 
1338 1040 1371 1041 
1371 1040 1074 1041 
1041 1074 1372 1075 
1338 1372 1339 1041 
1041 1074 1371 1372 
1338 1372 1041 1371 
1339 1041 1372 1042 
1372 1041 1075 1042 
1042 1075 1373 1076 
1339 1373 1340 1042 
1042 1075 1372 1373 
1339 1373 1042 1372 
1340 1042 1373 1043 
1373 1042 1076 1043 
1043 1076 1374 1077 
1340 1374 1341 1043 
1043 1076 1373 1374 
1340 1374 1043 1373 
1341 1043 1374 1044 
1374 1043 1077 1044 
1044 1077 1375 1078 
1341 1375 1342 1044 
1044 1077 1374 1375 
1341 1375 1044 1374 
1342 1044 1375 1045 
1375 1044 1078 1045 
1045 1078 1376 1079 
1342 1376 1343 1045 
1045 1078 1375 1376 
1342 1376 1045 1375 
1343 1045 1376 1046 
1376 1045 1079 1046 
1046 1079 1377 1080 
1343 1377 1344 1046 
1046 1079 1376 1377 
1343 1377 1046 1376 
1344 1046 1377 1047 
1377 1046 1080 1047 
1047 1080 1378 1081 
1344 1378 1345 1047 
1047 1080 1377 1378 
1344 1378 1047 1377 
1345 1047 1378 1048 
1378 1047 1081 1048 
1048 1081 1379 1082 
1345 1379 1346 1048 
1048 1081 1378 1379 
1345 1379 1048 1378 
1346 1048 1379 1049 
1379 1048 1082 1049 
1049 1082 1380 1083 
1346 1380 1347 1049 
1049 1082 1379 1380 
1346 1380 1049 1379 
1347 1049 1380 1050 
1380 1049 1083 1050 
1050 1083 1381 1084 
1347 1381 1348 1050 
1050 1083 1380 1381 
1347 1381 1050 1380 
1348 1050 1381 1051 
1381 1050 1084 1051 
1051 1084 1382 1085 
1348 1382 1349 1051 
1051 1084 1381 1382 
1348 1382 1051 1381 
1349 1051 1382 1052 
1382 1051 1085 1052 
1052 1085 1383 1086 
1349 1383 1350 1052 
1052 1085 1382 1383 
1349 1383 1052 1382 
1350 1052 1383 1053 
1383 1052 1086 1053 
1053 1086 1384 1087 
1350 1384 1351 1053 
1053 1086 1383 1384 
1350 1384 1053 1383 
1351 1053 1384 1054 
1384 1053 1087 1054 
1054 1087 1385 1088 
1351 1385 1352 1054 
1054 1087 1384 1385 
1351 1385 1054 1384 
1352 1054 1385 1055 
1385 1054 1088 1055 
1056 1089 1387 1090 
1353 1387 1354 1056 
1056 1089 1386 1387 
1353 1387 1056 1386 
1354 1056 1387 1057 
1387 1056 1090 1057 
1057 1090 1388 1091 
1354 1388 1355 1057 
1057 1090 1387 1388 
1354 1388 1057 1387 
1355 1057 1388 1058 
1388 1057 1091 1058 
1058 1091 1389 1092 
1355 1389 1356 1058 
1058 1091 1388 1389 
1355 1389 1058 1388 
1356 1058 1389 1059 
1389 1058 1092 1059 
1059 1092 1390 1093 
1356 1390 1357 1059 
1059 1092 1389 1390 
1356 1390 1059 1389 
1357 1059 1390 1060 
1390 1059 1093 1060 
1060 1093 1391 1094 
1357 1391 1358 1060 
1060 1093 1390 1391 
1357 1391 1060 1390 
1358 1060 1391 1061 
1391 1060 1094 1061 
1061 1094 1392 1095 
1358 1392 1359 1061 
1061 1094 1391 1392 
1358 1392 1061 1391 
1359 1061 1392 1062 
1392 1061 1095 1062 
1062 1095 1393 1096 
1359 1393 1360 1062 
1062 1095 1392 1393 
1359 1393 1062 1392 
1360 1062 1393 1063 
1393 1062 1096 1063 
1063 1096 1394 1097 
1360 1394 1361 1063 
1063 1096 1393 1394 
1360 1394 1063 1393 
1361 1063 1394 1064 
1394 1063 1097 1064 
1064 1097 1395 1098 
1361 1395 1362 1064 
1064 1097 1394 1395 
1361 1395 1064 1394 
1362 1064 1395 1065 
1395 1064 1098 1065 
1065 1098 1396 1099 
1362 1396 1363 1065 
1065 1098 1395 1396 
1362 1396 1065 1395 
1363 1065 1396 1066 
1396 1065 1099 1066 
1066 1099 1397 1100 
1363 1397 1364 1066 
1066 1099 1396 1397 
1363 1397 1066 1396 
1364 1066 1397 1067 
1397 1066 1100 1067 
1067 1100 1398 1101 
1364 1398 1365 1067 
1067 1100 1397 1398 
1364 1398 1067 1397 
1365 1067 1398 1068 
1398 1067 1101 1068 
1068 1101 1399 1102 
1365 1399 1366 1068 
1068 1101 1398 1399 
1365 1399 1068 1398 
1366 1068 1399 1069 
1399 1068 1102 1069 
1069 1102 1400 1103 
1366 1400 1367 1069 
1069 1102 1399 1400 
1366 1400 1069 1399 
1367 1069 1400 1070 
1400 1069 1103 1070 
1070 1103 1401 1104 
1367 1401 1368 1070 
1070 1103 1400 1401 
1367 1401 1070 1400 
1368 1070 1401 1071 
1401 1070 1104 1071 
1071 1104 1402 1105 
1368 1402 1369 1071 
1071 1104 1401 1402 
1368 1402 1071 1401 
1369 1071 1402 1072 
1402 1071 1105 1072 
1072 1105 1403 1106 
1369 1403 1370 1072 
1072 1105 1402 1403 
1369 1403 1072 1402 
1370 1072 1403 1073 
1403 1072 1106 1073 
1073 1106 1404 1107 
1370 1404 1371 1073 
1073 1106 1403 1404 
1370 1404 1073 1403 
1371 1073 1404 1074 
1404 1073 1107 1074 
1074 1107 1405 1108 
1371 1405 1372 1074 
1074 1107 1404 1405 
1371 1405 1074 1404 
1372 1074 1405 1075 
1405 1074 1108 1075 
1075 1108 1406 1109 
1372 1406 1373 1075 
1075 1108 1405 1406 
1372 1406 1075 1405 
1373 1075 1406 1076 
1406 1075 1109 1076 
1076 1109 1407 1110 
1373 1407 1374 1076 
1076 1109 1406 1407 
1373 1407 1076 1406 
1374 1076 1407 1077 
1407 1076 1110 1077 
1077 1110 1408 1111 
1374 1408 1375 1077 
1077 1110 1407 1408 
1374 1408 1077 1407 
1375 1077 1408 1078 
1408 1077 1111 1078 
1078 1111 1409 1112 
1375 1409 1376 1078 
1078 1111 1408 1409 
1375 1409 1078 1408 
1376 1078 1409 1079 
1409 1078 1112 1079 
1079 1112 1410 1113 
1376 1410 1377 1079 
1079 1112 1409 1410 
1376 1410 1079 1409 
1377 1079 1410 1080 
1410 1079 1113 1080 
1080 1113 1411 1114 
1377 1411 1378 1080 
1080 1113 1410 1411 
1377 1411 1080 1410 
1378 1080 1411 1081 
1411 1080 1114 1081 
1081 1114 1412 1115 
1378 1412 1379 1081 
1081 1114 1411 1412 
1378 1412 1081 1411 
1379 1081 1412 1082 
1412 1081 1115 1082 
1082 1115 1413 1116 
1379 1413 1380 1082 
1082 1115 1412 1413 
1379 1413 1082 1412 
1380 1082 1413 1083 
1413 1082 1116 1083 
1083 1116 1414 1117 
1380 1414 1381 1083 
1083 1116 1413 1414 
1380 1414 1083 1413 
1381 1083 1414 1084 
1414 1083 1117 1084 
1084 1117 1415 1118 
1381 1415 1382 1084 
1084 1117 1414 1415 
1381 1415 1084 1414 
1382 1084 1415 1085 
1415 1084 1118 1085 
1085 1118 1416 1119 
1382 1416 1383 1085 
1085 1118 1415 1416 
1382 1416 1085 1415 
1383 1085 1416 1086 
1416 1085 1119 1086 
1086 1119 1417 1120 
1383 1417 1384 1086 
1086 1119 1416 1417 
1383 1417 1086 1416 
1384 1086 1417 1087 
1417 1086 1120 1087 
1087 1120 1418 1121 
1384 1418 1385 1087 
1087 1120 1417 1418 
1384 1418 1087 1417 
1385 1087 1418 1088 
1418 1087 1121 1088 
1089 1122 1420 1123 
1386 1420 1387 1089 
1089 1122 1419 1420 
1386 1420 1089 1419 
1387 1089 1420 1090 
1420 1089 1123 1090 
1090 1123 1421 1124 
1387 1421 1388 1090 
1090 1123 1420 1421 
1387 1421 1090 1420 
1388 1090 1421 1091 
1421 1090 1124 1091 
1091 1124 1422 1125 
1388 1422 1389 1091 
1091 1124 1421 1422 
1388 1422 1091 1421 
1389 1091 1422 1092 
1422 1091 1125 1092 
1092 1125 1423 1126 
1389 1423 1390 1092 
1092 1125 1422 1423 
1389 1423 1092 1422 
1390 1092 1423 1093 
1423 1092 1126 1093 
1093 1126 1424 1127 
1390 1424 1391 1093 
1093 1126 1423 1424 
1390 1424 1093 1423 
1391 1093 1424 1094 
1424 1093 1127 1094 
1094 1127 1425 1128 
1391 1425 1392 1094 
1094 1127 1424 1425 
1391 1425 1094 1424 
1392 1094 1425 1095 
1425 1094 1128 1095 
1095 1128 1426 1129 
1392 1426 1393 1095 
1095 1128 1425 1426 
1392 1426 1095 1425 
1393 1095 1426 1096 
1426 1095 1129 1096 
1096 1129 1427 1130 
1393 1427 1394 1096 
1096 1129 1426 1427 
1393 1427 1096 1426 
1394 1096 1427 1097 
1427 1096 1130 1097 
1097 1130 1428 1131 
1394 1428 1395 1097 
1097 1130 1427 1428 
1394 1428 1097 1427 
1395 1097 1428 1098 
1428 1097 1131 1098 
1098 1131 1429 1132 
1395 1429 1396 1098 
1098 1131 1428 1429 
1395 1429 1098 1428 
1396 1098 1429 1099 
1429 1098 1132 1099 
1099 1132 1430 1133 
1396 1430 1397 1099 
1099 1132 1429 1430 
1396 1430 1099 1429 
1397 1099 1430 1100 
1430 1099 1133 1100 
1100 1133 1431 1134 
1397 1431 1398 1100 
1100 1133 1430 1431 
1397 1431 1100 1430 
1398 1100 1431 1101 
1431 1100 1134 1101 
1101 1134 1432 1135 
1398 1432 1399 1101 
1101 1134 1431 1432 
1398 1432 1101 1431 
1399 1101 1432 1102 
1432 1101 1135 1102 
1102 1135 1433 1136 
1399 1433 1400 1102 
1102 1135 1432 1433 
1399 1433 1102 1432 
1400 1102 1433 1103 
1433 1102 1136 1103 
1103 1136 1434 1137 
1400 1434 1401 1103 
1103 1136 1433 1434 
1400 1434 1103 1433 
1401 1103 1434 1104 
1434 1103 1137 1104 
1104 1137 1435 1138 
1401 1435 1402 1104 
1104 1137 1434 1435 
1401 1435 1104 1434 
1402 1104 1435 1105 
1435 1104 1138 1105 
1105 1138 1436 1139 
1402 1436 1403 1105 
1105 1138 1435 1436 
1402 1436 1105 1435 
1403 1105 1436 1106 
1436 1105 1139 1106 
1106 1139 1437 1140 
1403 1437 1404 1106 
1106 1139 1436 1437 
1403 1437 1106 1436 
1404 1106 1437 1107 
1437 1106 1140 1107 
1107 1140 1438 1141 
1404 1438 1405 1107 
1107 1140 1437 1438 
1404 1438 1107 1437 
1405 1107 1438 1108 
1438 1107 1141 1108 
1108 1141 1439 1142 
1405 1439 1406 1108 
1108 1141 1438 1439 
1405 1439 1108 1438 
1406 1108 1439 1109 
1439 1108 1142 1109 
1109 1142 1440 1143 
1406 1440 1407 1109 
1109 1142 1439 1440 
1406 1440 1109 1439 
1407 1109 1440 1110 
1440 1109 1143 1110 
1110 1143 1441 1144 
1407 1441 1408 1110 
1110 1143 1440 1441 
1407 1441 1110 1440 
1408 1110 1441 1111 
1441 1110 1144 1111 
1111 1144 1442 1145 
1408 1442 1409 1111 
1111 1144 1441 1442 
1408 1442 1111 1441 
1409 1111 1442 1112 
1442 1111 1145 1112 
1112 1145 1443 1146 
1409 1443 1410 1112 
1112 1145 1442 1443 
1409 1443 1112 1442 
1410 1112 1443 1113 
1443 1112 1146 1113 
1113 1146 1444 1147 
1410 1444 1411 1113 
1113 1146 1443 1444 
1410 1444 1113 1443 
1411 1113 1444 1114 
1444 1113 1147 1114 
1114 1147 1445 1148 
1411 1445 1412 1114 
1114 1147 1444 1445 
1411 1445 1114 1444 
1412 1114 1445 1115 
1445 1114 1148 1115 
1115 1148 1446 1149 
1412 1446 1413 1115 
1115 1148 1445 1446 
1412 1446 1115 1445 
1413 1115 1446 1116 
1446 1115 1149 1116 
1116 1149 1447 1150 
1413 1447 1414 1116 
1116 1149 1446 1447 
1413 1447 1116 1446 
1414 1116 1447 1117 
1447 1116 1150 1117 
1117 1150 1448 1151 
1414 1448 1415 1117 
1117 1150 1447 1448 
1414 1448 1117 1447 
1415 1117 1448 1118 
1448 1117 1151 1118 
1118 1151 1449 1152 
1415 1449 1416 1118 
1118 1151 1448 1449 
1415 1449 1118 1448 
1416 1118 1449 1119 
1449 1118 1152 1119 
1119 1152 1450 1153 
1416 1450 1417 1119 
1119 1152 1449 1450 
1416 1450 1119 1449 
1417 1119 1450 1120 
1450 1119 1153 1120 
1120 1153 1451 1154 
1417 1451 1418 1120 
1120 1153 1450 1451 
1417 1451 1120 1450 
1418 1120 1451 1121 
1451 1120 1154 1121 
1122 1155 1453 1156 
1419 1453 1420 1122 
1122 1155 1452 1453 
1419 1453 1122 1452 
1420 1122 1453 1123 
1453 1122 1156 1123 
1123 1156 1454 1157 
1420 1454 1421 1123 
1123 1156 1453 1454 
1420 1454 1123 1453 
1421 1123 1454 1124 
1454 1123 1157 1124 
1124 1157 1455 1158 
1421 1455 1422 1124 
1124 1157 1454 1455 
1421 1455 1124 1454 
1422 1124 1455 1125 
1455 1124 1158 1125 
1125 1158 1456 1159 
1422 1456 1423 1125 
1125 1158 1455 1456 
1422 1456 1125 1455 
1423 1125 1456 1126 
1456 1125 1159 1126 
1126 1159 1457 1160 
1423 1457 1424 1126 
1126 1159 1456 1457 
1423 1457 1126 1456 
1424 1126 1457 1127 
1457 1126 1160 1127 
1127 1160 1458 1161 
1424 1458 1425 1127 
1127 1160 1457 1458 
1424 1458 1127 1457 
1425 1127 1458 1128 
1458 1127 1161 1128 
1128 1161 1459 1162 
1425 1459 1426 1128 
1128 1161 1458 1459 
1425 1459 1128 1458 
1426 1128 1459 1129 
1459 1128 1162 1129 
1129 1162 1460 1163 
1426 1460 1427 1129 
1129 1162 1459 1460 
1426 1460 1129 1459 
1427 1129 1460 1130 
1460 1129 1163 1130 
1130 1163 1461 1164 
1427 1461 1428 1130 
1130 1163 1460 1461 
1427 1461 1130 1460 
1428 1130 1461 1131 
1461 1130 1164 1131 
1131 1164 1462 1165 
1428 1462 1429 1131 
1131 1164 1461 1462 
1428 1462 1131 1461 
1429 1131 1462 1132 
1462 1131 1165 1132 
1132 1165 1463 1166 
1429 1463 1430 1132 
1132 1165 1462 1463 
1429 1463 1132 1462 
1430 1132 1463 1133 
1463 1132 1166 1133 
1133 1166 1464 1167 
1430 1464 1431 1133 
1133 1166 1463 1464 
1430 1464 1133 1463 
1431 1133 1464 1134 
1464 1133 1167 1134 
1134 1167 1465 1168 
1431 1465 1432 1134 
1134 1167 1464 1465 
1431 1465 1134 1464 
1432 1134 1465 1135 
1465 1134 1168 1135 
1135 1168 1466 1169 
1432 1466 1433 1135 
1135 1168 1465 1466 
1432 1466 1135 1465 
1433 1135 1466 1136 
1466 1135 1169 1136 
1136 1169 1467 1170 
1433 1467 1434 1136 
1136 1169 1466 1467 
1433 1467 1136 1466 
1434 1136 1467 1137 
1467 1136 1170 1137 
1137 1170 1468 1171 
1434 1468 1435 1137 
1137 1170 1467 1468 
1434 1468 1137 1467 
1435 1137 1468 1138 
1468 1137 1171 1138 
1138 1171 1469 1172 
1435 1469 1436 1138 
1138 1171 1468 1469 
1435 1469 1138 1468 
1436 1138 1469 1139 
1469 1138 1172 1139 
1139 1172 1470 1173 
1436 1470 1437 1139 
1139 1172 1469 1470 
1436 1470 1139 1469 
1437 1139 1470 1140 
1470 1139 1173 1140 
1140 1173 1471 1174 
1437 1471 1438 1140 
1140 1173 1470 1471 
1437 1471 1140 1470 
1438 1140 1471 1141 
1471 1140 1174 1141 
1141 1174 1472 1175 
1438 1472 1439 1141 
1141 1174 1471 1472 
1438 1472 1141 1471 
1439 1141 1472 1142 
1472 1141 1175 1142 
1142 1175 1473 1176 
1439 1473 1440 1142 
1142 1175 1472 1473 
1439 1473 1142 1472 
1440 1142 1473 1143 
1473 1142 1176 1143 
1143 1176 1474 1177 
1440 1474 1441 1143 
1143 1176 1473 1474 
1440 1474 1143 1473 
1441 1143 1474 1144 
1474 1143 1177 1144 
1144 1177 1475 1178 
1441 1475 1442 1144 
1144 1177 1474 1475 
1441 1475 1144 1474 
1442 1144 1475 1145 
1475 1144 1178 1145 
1145 1178 1476 1179 
1442 1476 1443 1145 
1145 1178 1475 1476 
1442 1476 1145 1475 
1443 1145 1476 1146 
1476 1145 1179 1146 
1146 1179 1477 1180 
1443 1477 1444 1146 
1146 1179 1476 1477 
1443 1477 1146 1476 
1444 1146 1477 1147 
1477 1146 1180 1147 
1147 1180 1478 1181 
1444 1478 1445 1147 
1147 1180 1477 1478 
1444 1478 1147 1477 
1445 1147 1478 1148 
1478 1147 1181 1148 
1148 1181 1479 1182 
1445 1479 1446 1148 
1148 1181 1478 1479 
1445 1479 1148 1478 
1446 1148 1479 1149 
1479 1148 1182 1149 
1149 1182 1480 1183 
1446 1480 1447 1149 
1149 1182 1479 1480 
1446 1480 1149 1479 
1447 1149 1480 1150 
1480 1149 1183 1150 
1150 1183 1481 1184 
1447 1481 1448 1150 
1150 1183 1480 1481 
1447 1481 1150 1480 
1448 1150 1481 1151 
1481 1150 1184 1151 
1151 1184 1482 1185 
1448 1482 1449 1151 
1151 1184 1481 1482 
1448 1482 1151 1481 
1449 1151 1482 1152 
1482 1151 1185 1152 
1152 1185 1483 1186 
1449 1483 1450 1152 
1152 1185 1482 1483 
1449 1483 1152 1482 
1450 1152 1483 1153 
1483 1152 1186 1153 
1153 1186 1484 1187 
1450 1484 1451 1153 
1153 1186 1483 1484 
1450 1484 1153 1483 
1451 1153 1484 1154 
1484 1153 1187 1154 
1188 1221 1519 1222 
1485 1519 1486 1188 
1188 1221 1518 1519 
1485 1519 1188 1518 
1486 1188 1519 1189 
1519 1188 1222 1189 
1189 1222 1520 1223 
1486 1520 1487 1189 
1189 1222 1519 1520 
1486 1520 1189 1519 
1487 1189 1520 1190 
1520 1189 1223 1190 
1190 1223 1521 1224 
1487 1521 1488 1190 
1190 1223 1520 1521 
1487 1521 1190 1520 
1488 1190 1521 1191 
1521 1190 1224 1191 
1191 1224 1522 1225 
1488 1522 1489 1191 
1191 1224 1521 1522 
1488 1522 1191 1521 
1489 1191 1522 1192 
1522 1191 1225 1192 
1192 1225 1523 1226 
1489 1523 1490 1192 
1192 1225 1522 1523 
1489 1523 1192 1522 
1490 1192 1523 1193 
1523 1192 1226 1193 
1193 1226 1524 1227 
1490 1524 1491 1193 
1193 1226 1523 1524 
1490 1524 1193 1523 
1491 1193 1524 1194 
1524 1193 1227 1194 
1194 1227 1525 1228 
1491 1525 1492 1194 
1194 1227 1524 1525 
1491 1525 1194 1524 
1492 1194 1525 1195 
1525 1194 1228 1195 
1195 1228 1526 1229 
1492 1526 1493 1195 
1195 1228 1525 1526 
1492 1526 1195 1525 
1493 1195 1526 1196 
1526 1195 1229 1196 
1196 1229 1527 1230 
1493 1527 1494 1196 
1196 1229 1526 1527 
1493 1527 1196 1526 
1494 1196 1527 1197 
1527 1196 1230 1197 
1197 1230 1528 1231 
1494 1528 1495 1197 
1197 1230 1527 1528 
1494 1528 1197 1527 
1495 1197 1528 1198 
1528 1197 1231 1198 
1198 1231 1529 1232 
1495 1529 1496 1198 
1198 1231 1528 1529 
1495 1529 1198 1528 
1496 1198 1529 1199 
1529 1198 1232 1199 
1199 1232 1530 1233 
1496 1530 1497 1199 
1199 1232 1529 1530 
1496 1530 1199 1529 
1497 1199 1530 1200 
1530 1199 1233 1200 
1200 1233 1531 1234 
1497 1531 1498 1200 
1200 1233 1530 1531 
1497 1531 1200 1530 
1498 1200 1531 1201 
1531 1200 1234 1201 
1201 1234 1532 1235 
1498 1532 1499 1201 
1201 1234 1531 1532 
1498 1532 1201 1531 
1499 1201 1532 1202 
1532 1201 1235 1202 
1202 1235 1533 1236 
1499 1533 1500 1202 
1202 1235 1532 1533 
1499 1533 1202 1532 
1500 1202 1533 1203 
1533 1202 1236 1203 
1203 1236 1534 1237 
1500 1534 1501 1203 
1203 1236 1533 1534 
1500 1534 1203 1533 
1501 1203 1534 1204 
1534 1203 1237 1204 
1204 1237 1535 1238 
1501 1535 1502 1204 
1204 1237 1534 1535 
1501 1535 1204 1534 
1502 1204 1535 1205 
1535 1204 1238 1205 
1205 1238 1536 1239 
1502 1536 1503 1205 
1205 1238 1535 1536 
1502 1536 1205 1535 
1503 1205 1536 1206 
1536 1205 1239 1206 
1206 1239 1537 1240 
1503 1537 1504 1206 
1206 1239 1536 1537 
1503 1537 1206 1536 
1504 1206 1537 1207 
1537 1206 1240 1207 
1207 1240 1538 1241 
1504 1538 1505 1207 
1207 1240 1537 1538 
1504 1538 1207 1537 
1505 1207 1538 1208 
1538 1207 1241 1208 
1208 1241 1539 1242 
1505 1539 1506 1208 
1208 1241 1538 1539 
1505 1539 1208 1538 
1506 1208 1539 1209 
1539 1208 1242 1209 
1209 1242 1540 1243 
1506 1540 1507 1209 
1209 1242 1539 1540 
1506 1540 1209 1539 
1507 1209 1540 1210 
1540 1209 1243 1210 
1210 1243 1541 1244 
1507 1541 1508 1210 
1210 1243 1540 1541 
1507 1541 1210 1540 
1508 1210 1541 1211 
1541 1210 1244 1211 
1211 1244 1542 1245 
1508 1542 1509 1211 
1211 1244 1541 1542 
1508 1542 1211 1541 
1509 1211 1542 1212 
1542 1211 1245 1212 
1212 1245 1543 1246 
1509 1543 1510 1212 
1212 1245 1542 1543 
1509 1543 1212 1542 
1510 1212 1543 1213 
1543 1212 1246 1213 
1213 1246 1544 1247 
1510 1544 1511 1213 
1213 1246 1543 1544 
1510 1544 1213 1543 
1511 1213 1544 1214 
1544 1213 1247 1214 
1214 1247 1545 1248 
1511 1545 1512 1214 
1214 1247 1544 1545 
1511 1545 1214 1544 
1512 1214 1545 1215 
1545 1214 1248 1215 
1215 1248 1546 1249 
1512 1546 1513 1215 
1215 1248 1545 1546 
1512 1546 1215 1545 
1513 1215 1546 1216 
1546 1215 1249 1216 
1216 1249 1547 1250 
1513 1547 1514 1216 
1216 1249 1546 1547 
1513 1547 1216 1546 
1514 1216 1547 1217 
1547 1216 1250 1217 
1217 1250 1548 1251 
1514 1548 1515 1217 
1217 1250 1547 1548 
1514 1548 1217 1547 
1515 1217 1548 1218 
1548 1217 1251 1218 
1218 1251 1549 1252 
1515 1549 1516 1218 
1218 1251 1548 1549 
1515 1549 1218 1548 
1516 1218 1549 1219 
1549 1218 1252 1219 
1219 1252 1550 1253 
1516 1550 1517 1219 
1219 1252 1549 1550 
1516 1550 1219 1549 
1517 1219 1550 1220 
1550 1219 1253 1220 
1221 1254 1552 1255 
1518 1552 1519 1221 
1221 1254 1551 1552 
1518 1552 1221 1551 
1519 1221 1552 1222 
1552 1221 1255 1222 
1222 1255 1553 1256 
1519 1553 1520 1222 
1222 1255 1552 1553 
1519 1553 1222 1552 
1520 1222 1553 1223 
1553 1222 1256 1223 
1223 1256 1554 1257 
1520 1554 1521 1223 
1223 1256 1553 1554 
1520 1554 1223 1553 
1521 1223 1554 1224 
1554 1223 1257 1224 
1224 1257 1555 1258 
1521 1555 1522 1224 
1224 1257 1554 1555 
1521 1555 1224 1554 
1522 1224 1555 1225 
1555 1224 1258 1225 
1225 1258 1556 1259 
1522 1556 1523 1225 
1225 1258 1555 1556 
1522 1556 1225 1555 
1523 1225 1556 1226 
1556 1225 1259 1226 
1226 1259 1557 1260 
1523 1557 1524 1226 
1226 1259 1556 1557 
1523 1557 1226 1556 
1524 1226 1557 1227 
1557 1226 1260 1227 
1227 1260 1558 1261 
1524 1558 1525 1227 
1227 1260 1557 1558 
1524 1558 1227 1557 
1525 1227 1558 1228 
1558 1227 1261 1228 
1228 1261 1559 1262 
1525 1559 1526 1228 
1228 1261 1558 1559 
1525 1559 1228 1558 
1526 1228 1559 1229 
1559 1228 1262 1229 
1229 1262 1560 1263 
1526 1560 1527 1229 
1229 1262 1559 1560 
1526 1560 1229 1559 
1527 1229 1560 1230 
1560 1229 1263 1230 
1230 1263 1561 1264 
1527 1561 1528 1230 
1230 1263 1560 1561 
1527 1561 1230 1560 
1528 1230 1561 1231 
1561 1230 1264 1231 
1231 1264 1562 1265 
1528 1562 1529 1231 
1231 1264 1561 1562 
1528 1562 1231 1561 
1529 1231 1562 1232 
1562 1231 1265 1232 
1232 1265 1563 1266 
1529 1563 1530 1232 
1232 1265 1562 1563 
1529 1563 1232 1562 
1530 1232 1563 1233 
1563 1232 1266 1233 
1233 1266 1564 1267 
1530 1564 1531 1233 
1233 1266 1563 1564 
1530 1564 1233 1563 
1531 1233 1564 1234 
1564 1233 1267 1234 
1234 1267 1565 1268 
1531 1565 1532 1234 
1234 1267 1564 1565 
1531 1565 1234 1564 
1532 1234 1565 1235 
1565 1234 1268 1235 
1235 1268 1566 1269 
1532 1566 1533 1235 
1235 1268 1565 1566 
1532 1566 1235 1565 
1533 1235 1566 1236 
1566 1235 1269 1236 
1236 1269 1567 1270 
1533 1567 1534 1236 
1236 1269 1566 1567 
1533 1567 1236 1566 
1534 1236 1567 1237 
1567 1236 1270 1237 
1237 1270 1568 1271 
1534 1568 1535 1237 
1237 1270 1567 1568 
1534 1568 1237 1567 
1535 1237 1568 1238 
1568 1237 1271 1238 
1238 1271 1569 1272 
1535 1569 1536 1238 
1238 1271 1568 1569 
1535 1569 1238 1568 
1536 1238 1569 1239 
1569 1238 1272 1239 
1239 1272 1570 1273 
1536 1570 1537 1239 
1239 1272 1569 1570 
1536 1570 1239 1569 
1537 1239 1570 1240 
1570 1239 1273 1240 
1240 1273 1571 1274 
1537 1571 1538 1240 
1240 1273 1570 1571 
1537 1571 1240 1570 
1538 1240 1571 1241 
1571 1240 1274 1241 
1241 1274 1572 1275 
1538 1572 1539 1241 
1241 1274 1571 1572 
1538 1572 1241 1571 
1539 1241 1572 1242 
1572 1241 1275 1242 
1242 1275 1573 1276 
1539 1573 1540 1242 
1242 1275 1572 1573 
1539 1573 1242 1572 
1540 1242 1573 1243 
1573 1242 1276 1243 
1243 1276 1574 1277 
1540 1574 1541 1243 
1243 1276 1573 1574 
1540 1574 1243 1573 
1541 1243 1574 1244 
1574 1243 1277 1244 
1244 1277 1575 1278 
1541 1575 1542 1244 
1244 1277 1574 1575 
1541 1575 1244 1574 
1542 1244 1575 1245 
1575 1244 1278 1245 
1245 1278 1576 1279 
1542 1576 1543 1245 
1245 1278 1575 1576 
1542 1576 1245 1575 
1543 1245 1576 1246 
1576 1245 1279 1246 
1246 1279 1577 1280 
1543 1577 1544 1246 
1246 1279 1576 1577 
1543 1577 1246 1576 
1544 1246 1577 1247 
1577 1246 1280 1247 
1247 1280 1578 1281 
1544 1578 1545 1247 
1247 1280 1577 1578 
1544 1578 1247 1577 
1545 1247 1578 1248 
1578 1247 1281 1248 
1248 1281 1579 1282 
1545 1579 1546 1248 
1248 1281 1578 1579 
1545 1579 1248 1578 
1546 1248 1579 1249 
1579 1248 1282 1249 
1249 1282 1580 1283 
1546 1580 1547 1249 
1249 1282 1579 1580 
1546 1580 1249 1579 
1547 1249 1580 1250 
1580 1249 1283 1250 
1250 1283 1581 1284 
1547 1581 1548 1250 
1250 1283 1580 1581 
1547 1581 1250 1580 
1548 1250 1581 1251 
1581 1250 1284 1251 
1251 1284 1582 1285 
1548 1582 1549 1251 
1251 1284 1581 1582 
1548 1582 1251 1581 
1549 1251 1582 1252 
1582 1251 1285 1252 
1252 1285 1583 1286 
1549 1583 1550 1252 
1252 1285 1582 1583 
1549 1583 1252 1582 
1550 1252 1583 1253 
1583 1252 1286 1253 
1254 1287 1585 1288 
1551 1585 1552 1254 
1254 1287 1584 1585 
1551 1585 1254 1584 
1552 1254 1585 1255 
1585 1254 1288 1255 
1255 1288 1586 1289 
1552 1586 1553 1255 
1255 1288 1585 1586 
1552 1586 1255 1585 
1553 1255 1586 1256 
1586 1255 1289 1256 
1256 1289 1587 1290 
1553 1587 1554 1256 
1256 1289 1586 1587 
1553 1587 1256 1586 
1554 1256 1587 1257 
1587 1256 1290 1257 
1257 1290 1588 1291 
1554 1588 1555 1257 
1257 1290 1587 1588 
1554 1588 1257 1587 
1555 1257 1588 1258 
1588 1257 1291 1258 
1258 1291 1589 1292 
1555 1589 1556 1258 
1258 1291 1588 1589 
1555 1589 1258 1588 
1556 1258 1589 1259 
1589 1258 1292 1259 
1259 1292 1590 1293 
1556 1590 1557 1259 
1259 1292 1589 1590 
1556 1590 1259 1589 
1557 1259 1590 1260 
1590 1259 1293 1260 
1260 1293 1591 1294 
1557 1591 1558 1260 
1260 1293 1590 1591 
1557 1591 1260 1590 
1558 1260 1591 1261 
1591 1260 1294 1261 
1261 1294 1592 1295 
1558 1592 1559 1261 
1261 1294 1591 1592 
1558 1592 1261 1591 
1559 1261 1592 1262 
1592 1261 1295 1262 
1262 1295 1593 1296 
1559 1593 1560 1262 
1262 1295 1592 1593 
1559 1593 1262 1592 
1560 1262 1593 1263 
1593 1262 1296 1263 
1263 1296 1594 1297 
1560 1594 1561 1263 
1263 1296 1593 1594 
1560 1594 1263 1593 
1561 1263 1594 1264 
1594 1263 1297 1264 
1264 1297 1595 1298 
1561 1595 1562 1264 
1264 1297 1594 1595 
1561 1595 1264 1594 
1562 1264 1595 1265 
1595 1264 1298 1265 
1265 1298 1596 1299 
1562 1596 1563 1265 
1265 1298 1595 1596 
1562 1596 1265 1595 
1563 1265 1596 1266 
1596 1265 1299 1266 
1266 1299 1597 1300 
1563 1597 1564 1266 
1266 1299 1596 1597 
1563 1597 1266 1596 
1564 1266 1597 1267 
1597 1266 1300 1267 
1267 1300 1598 1301 
1564 1598 1565 1267 
1267 1300 1597 1598 
1564 1598 1267 1597 
1565 1267 1598 1268 
1598 1267 1301 1268 
1268 1301 1599 1302 
1565 1599 1566 1268 
1268 1301 1598 1599 
1565 1599 1268 1598 
1566 1268 1599 1269 
1599 1268 1302 1269 
1269 1302 1600 1303 
1566 1600 1567 1269 
1269 1302 1599 1600 
1566 1600 1269 1599 
1567 1269 1600 1270 
1600 1269 1303 1270 
1270 1303 1601 1304 
1567 1601 1568 1270 
1270 1303 1600 1601 
1567 1601 1270 1600 
1568 1270 1601 1271 
1601 1270 1304 1271 
1271 1304 1602 1305 
1568 1602 1569 1271 
1271 1304 1601 1602 
1568 1602 1271 1601 
1569 1271 1602 1272 
1602 1271 1305 1272 
1272 1305 1603 1306 
1569 1603 1570 1272 
1272 1305 1602 1603 
1569 1603 1272 1602 
1570 1272 1603 1273 
1603 1272 1306 1273 
1273 1306 1604 1307 
1570 1604 1571 1273 
1273 1306 1603 1604 
1570 1604 1273 1603 
1571 1273 1604 1274 
1604 1273 1307 1274 
1274 1307 1605 1308 
1571 1605 1572 1274 
1274 1307 1604 1605 
1571 1605 1274 1604 
1572 1274 1605 1275 
1605 1274 1308 1275 
1275 1308 1606 1309 
1572 1606 1573 1275 
1275 1308 1605 1606 
1572 1606 1275 1605 
1573 1275 1606 1276 
1606 1275 1309 1276 
1276 1309 1607 1310 
1573 1607 1574 1276 
1276 1309 1606 1607 
1573 1607 1276 1606 
1574 1276 1607 1277 
1607 1276 1310 1277 
1277 1310 1608 1311 
1574 1608 1575 1277 
1277 1310 1607 1608 
1574 1608 1277 1607 
1575 1277 1608 1278 
1608 1277 1311 1278 
1278 1311 1609 1312 
1575 1609 1576 1278 
1278 1311 1608 1609 
1575 1609 1278 1608 
1576 1278 1609 1279 
1609 1278 1312 1279 
1279 1312 1610 1313 
1576 1610 1577 1279 
1279 1312 1609 1610 
1576 1610 1279 1609 
1577 1279 1610 1280 
1610 1279 1313 1280 
1280 1313 1611 1314 
1577 1611 1578 1280 
1280 1313 1610 1611 
1577 1611 1280 1610 
1578 1280 1611 1281 
1611 1280 1314 1281 
1281 1314 1612 1315 
1578 1612 1579 1281 
1281 1314 1611 1612 
1578 1612 1281 1611 
1579 1281 1612 1282 
1612 1281 1315 1282 
1282 1315 1613 1316 
1579 1613 1580 1282 
1282 1315 1612 1613 
1579 1613 1282 1612 
1580 1282 1613 1283 
1613 1282 1316 1283 
1283 1316 1614 1317 
1580 1614 1581 1283 
1283 1316 1613 1614 
1580 1614 1283 1613 
1581 1283 1614 1284 
1614 1283 1317 1284 
1284 1317 1615 1318 
1581 1615 1582 1284 
1284 1317 1614 1615 
1581 1615 1284 1614 
1582 1284 1615 1285 
1615 1284 1318 1285 
1285 1318 1616 1319 
1582 1616 1583 1285 
1285 1318 1615 1616 
1582 1616 1285 1615 
1583 1285 1616 1286 
1616 1285 1319 1286 
1287 1320 1618 1321 
1584 1618 1585 1287 
1287 1320 1617 1618 
1584 1618 1287 1617 
1585 1287 1618 1288 
1618 1287 1321 1288 
1288 1321 1619 1322 
1585 1619 1586 1288 
1288 1321 1618 1619 
1585 1619 1288 1618 
1586 1288 1619 1289 
1619 1288 1322 1289 
1289 1322 1620 1323 
1586 1620 1587 1289 
1289 1322 1619 1620 
1586 1620 1289 1619 
1587 1289 1620 1290 
1620 1289 1323 1290 
1290 1323 1621 1324 
1587 1621 1588 1290 
1290 1323 1620 1621 
1587 1621 1290 1620 
1588 1290 1621 1291 
1621 1290 1324 1291 
1291 1324 1622 1325 
1588 1622 1589 1291 
1291 1324 1621 1622 
1588 1622 1291 1621 
1589 1291 1622 1292 
1622 1291 1325 1292 
1292 1325 1623 1326 
1589 1623 1590 1292 
1292 1325 1622 1623 
1589 1623 1292 1622 
1590 1292 1623 1293 
1623 1292 1326 1293 
1293 1326 1624 1327 
1590 1624 1591 1293 
1293 1326 1623 1624 
1590 1624 1293 1623 
1591 1293 1624 1294 
1624 1293 1327 1294 
1294 1327 1625 1328 
1591 1625 1592 1294 
1294 1327 1624 1625 
1591 1625 1294 1624 
1592 1294 1625 1295 
1625 1294 1328 1295 
1295 1328 1626 1329 
1592 1626 1593 1295 
1295 1328 1625 1626 
1592 1626 1295 1625 
1593 1295 1626 1296 
1626 1295 1329 1296 
1296 1329 1627 1330 
1593 1627 1594 1296 
1296 1329 1626 1627 
1593 1627 1296 1626 
1594 1296 1627 1297 
1627 1296 1330 1297 
1297 1330 1628 1331 
1594 1628 1595 1297 
1297 1330 1627 1628 
1594 1628 1297 1627 
1595 1297 1628 1298 
1628 1297 1331 1298 
1298 1331 1629 1332 
1595 1629 1596 1298 
1298 1331 1628 1629 
1595 1629 1298 1628 
1596 1298 1629 1299 
1629 1298 1332 1299 
1299 1332 1630 1333 
1596 1630 1597 1299 
1299 1332 1629 1630 
1596 1630 1299 1629 
1597 1299 1630 1300 
1630 1299 1333 1300 
1300 1333 1631 1334 
1597 1631 1598 1300 
1300 1333 1630 1631 
1597 1631 1300 1630 
1598 1300 1631 1301 
1631 1300 1334 1301 
1301 1334 1632 1335 
1598 1632 1599 1301 
1301 1334 1631 1632 
1598 1632 1301 1631 
1599 1301 1632 1302 
1632 1301 1335 1302 
1302 1335 1633 1336 
1599 1633 1600 1302 
1302 1335 1632 1633 
1599 1633 1302 1632 
1600 1302 1633 1303 
1633 1302 1336 1303 
1303 1336 1634 1337 
1600 1634 1601 1303 
1303 1336 1633 1634 
1600 1634 1303 1633 
1601 1303 1634 1304 
1634 1303 1337 1304 
1304 1337 1635 1338 
1601 1635 1602 1304 
1304 1337 1634 1635 
1601 1635 1304 1634 
1602 1304 1635 1305 
1635 1304 1338 1305 
1305 1338 1636 1339 
1602 1636 1603 1305 
1305 1338 1635 1636 
1602 1636 1305 1635 
1603 1305 1636 1306 
1636 1305 1339 1306 
1306 1339 1637 1340 
1603 1637 1604 1306 
1306 1339 1636 1637 
1603 1637 1306 1636 
1604 1306 1637 1307 
1637 1306 1340 1307 
1307 1340 1638 1341 
1604 1638 1605 1307 
1307 1340 1637 1638 
1604 1638 1307 1637 
1605 1307 1638 1308 
1638 1307 1341 1308 
1308 1341 1639 1342 
1605 1639 1606 1308 
1308 1341 1638 1639 
1605 1639 1308 1638 
1606 1308 1639 1309 
1639 1308 1342 1309 
1309 1342 1640 1343 
1606 1640 1607 1309 
1309 1342 1639 1640 
1606 1640 1309 1639 
1607 1309 1640 1310 
1640 1309 1343 1310 
1310 1343 1641 1344 
1607 1641 1608 1310 
1310 1343 1640 1641 
1607 1641 1310 1640 
1608 1310 1641 1311 
1641 1310 1344 1311 
1311 1344 1642 1345 
1608 1642 1609 1311 
1311 1344 1641 1642 
1608 1642 1311 1641 
1609 1311 1642 1312 
1642 1311 1345 1312 
1312 1345 1643 1346 
1609 1643 1610 1312 
1312 1345 1642 1643 
1609 1643 1312 1642 
1610 1312 1643 1313 
1643 1312 1346 1313 
1313 1346 1644 1347 
1610 1644 1611 1313 
1313 1346 1643 1644 
1610 1644 1313 1643 
1611 1313 1644 1314 
1644 1313 1347 1314 
1314 1347 1645 1348 
1611 1645 1612 1314 
1314 1347 1644 1645 
1611 1645 1314 1644 
1612 1314 1645 1315 
1645 1314 1348 1315 
1315 1348 1646 1349 
1612 1646 1613 1315 
1315 1348 1645 1646 
1612 1646 1315 1645 
1613 1315 1646 1316 
1646 1315 1349 1316 
1316 1349 1647 1350 
1613 1647 1614 1316 
1316 1349 1646 1647 
1613 1647 1316 1646 
1614 1316 1647 1317 
1647 1316 1350 1317 
1317 1350 1648 1351 
1614 1648 1615 1317 
1317 1350 1647 1648 
1614 1648 1317 1647 
1615 1317 1648 1318 
1648 1317 1351 1318 
1318 1351 1649 1352 
1615 1649 1616 1318 
1318 1351 1648 1649 
1615 1649 1318 1648 
1616 1318 1649 1319 
1649 1318 1352 1319 
1320 1353 1651 1354 
1617 1651 1618 1320 
1320 1353 1650 1651 
1617 1651 1320 1650 
1618 1320 1651 1321 
1651 1320 1354 1321 
1321 1354 1652 1355 
1618 1652 1619 1321 
1321 1354 1651 1652 
1618 1652 1321 1651 
1619 1321 1652 1322 
1652 1321 1355 1322 
1322 1355 1653 1356 
1619 1653 1620 1322 
1322 1355 1652 1653 
1619 1653 1322 1652 
1620 1322 1653 1323 
1653 1322 1356 1323 
1323 1356 1654 1357 
1620 1654 1621 1323 
1323 1356 1653 1654 
1620 1654 1323 1653 
1621 1323 1654 1324 
1654 1323 1357 1324 
1324 1357 1655 1358 
1621 1655 1622 1324 
1324 1357 1654 1655 
1621 1655 1324 1654 
1622 1324 1655 1325 
1655 1324 1358 1325 
1325 1358 1656 1359 
1622 1656 1623 1325 
1325 1358 1655 1656 
1622 1656 1325 1655 
1623 1325 1656 1326 
1656 1325 1359 1326 
1326 1359 1657 1360 
1623 1657 1624 1326 
1326 1359 1656 1657 
1623 1657 1326 1656 
1624 1326 1657 1327 
1657 1326 1360 1327 
1327 1360 1658 1361 
1624 1658 1625 1327 
1327 1360 1657 1658 
1624 1658 1327 1657 
1625 1327 1658 1328 
1658 1327 1361 1328 
1328 1361 1659 1362 
1625 1659 1626 1328 
1328 1361 1658 1659 
1625 1659 1328 1658 
1626 1328 1659 1329 
1659 1328 1362 1329 
1329 1362 1660 1363 
1626 1660 1627 1329 
1329 1362 1659 1660 
1626 1660 1329 1659 
1627 1329 1660 1330 
1660 1329 1363 1330 
1330 1363 1661 1364 
1627 1661 1628 1330 
1330 1363 1660 1661 
1627 1661 1330 1660 
1628 1330 1661 1331 
1661 1330 1364 1331 
1331 1364 1662 1365 
1628 1662 1629 1331 
1331 1364 1661 1662 
1628 1662 1331 1661 
1629 1331 1662 1332 
1662 1331 1365 1332 
1332 1365 1663 1366 
1629 1663 1630 1332 
1332 1365 1662 1663 
1629 1663 1332 1662 
1630 1332 1663 1333 
1663 1332 1366 1333 
1333 1366 1664 1367 
1630 1664 1631 1333 
1333 1366 1663 1664 
1630 1664 1333 1663 
1631 1333 1664 1334 
1664 1333 1367 1334 
1334 1367 1665 1368 
1631 1665 1632 1334 
1334 1367 1664 1665 
1631 1665 1334 1664 
1632 1334 1665 1335 
1665 1334 1368 1335 
1335 1368 1666 1369 
1632 1666 1633 1335 
1335 1368 1665 1666 
1632 1666 1335 1665 
1633 1335 1666 1336 
1666 1335 1369 1336 
1336 1369 1667 1370 
1633 1667 1634 1336 
1336 1369 1666 1667 
1633 1667 1336 1666 
1634 1336 1667 1337 
1667 1336 1370 1337 
1337 1370 1668 1371 
1634 1668 1635 1337 
1337 1370 1667 1668 
1634 1668 1337 1667 
1635 1337 1668 1338 
1668 1337 1371 1338 
1338 1371 1669 1372 
1635 1669 1636 1338 
1338 1371 1668 1669 
1635 1669 1338 1668 
1636 1338 1669 1339 
1669 1338 1372 1339 
1339 1372 1670 1373 
1636 1670 1637 1339 
1339 1372 1669 1670 
1636 1670 1339 1669 
1637 1339 1670 1340 
1670 1339 1373 1340 
1340 1373 1671 1374 
1637 1671 1638 1340 
1340 1373 1670 1671 
1637 1671 1340 1670 
1638 1340 1671 1341 
1671 1340 1374 1341 
1341 1374 1672 1375 
1638 1672 1639 1341 
1341 1374 1671 1672 
1638 1672 1341 1671 
1639 1341 1672 1342 
1672 1341 1375 1342 
1342 1375 1673 1376 
1639 1673 1640 1342 
1342 1375 1672 1673 
1639 1673 1342 1672 
1640 1342 1673 1343 
1673 1342 1376 1343 
1343 1376 1674 1377 
1640 1674 1641 1343 
1343 1376 1673 1674 
1640 1674 1343 1673 
1641 1343 1674 1344 
1674 1343 1377 1344 
1344 1377 1675 1378 
1641 1675 1642 1344 
1344 1377 1674 1675 
1641 1675 1344 1674 
1642 1344 1675 1345 
1675 1344 1378 1345 
1345 1378 1676 1379 
1642 1676 1643 1345 
1345 1378 1675 1676 
1642 1676 1345 1675 
1643 1345 1676 1346 
1676 1345 1379 1346 
1346 1379 1677 1380 
1643 1677 1644 1346 
1346 1379 1676 1677 
1643 1677 1346 1676 
1644 1346 1677 1347 
1677 1346 1380 1347 
1347 1380 1678 1381 
1644 1678 1645 1347 
1347 1380 1677 1678 
1644 1678 1347 1677 
1645 1347 1678 1348 
1678 1347 1381 1348 
1348 1381 1679 1382 
1645 1679 1646 1348 
1348 1381 1678 1679 
1645 1679 1348 1678 
1646 1348 1679 1349 
1679 1348 1382 1349 
1349 1382 1680 1383 
1646 1680 1647 1349 
1349 1382 1679 1680 
1646 1680 1349 1679 
1647 1349 1680 1350 
1680 1349 1383 1350 
1350 1383 1681 1384 
1647 1681 1648 1350 
1350 1383 1680 1681 
1647 1681 1350 1680 
1648 1350 1681 1351 
1681 1350 1384 1351 
1351 1384 1682 1385 
1648 1682 1649 1351 
1351 1384 1681 1682 
1648 1682 1351 1681 
1649 1351 1682 1352 
1682 1351 1385 1352 
1353 1386 1684 1387 
1650 1684 1651 1353 
1353 1386 1683 1684 
1650 1684 1353 1683 
1651 1353 1684 1354 
1684 1353 1387 1354 
1354 1387 1685 1388 
1651 1685 1652 1354 
1354 1387 1684 1685 
1651 1685 1354 1684 
1652 1354 1685 1355 
1685 1354 1388 1355 
1355 1388 1686 1389 
1652 1686 1653 1355 
1355 1388 1685 1686 
1652 1686 1355 1685 
1653 1355 1686 1356 
1686 1355 1389 1356 
1356 1389 1687 1390 
1653 1687 1654 1356 
1356 1389 1686 1687 
1653 1687 1356 1686 
1654 1356 1687 1357 
1687 1356 1390 1357 
1357 1390 1688 1391 
1654 1688 1655 1357 
1357 1390 1687 1688 
1654 1688 1357 1687 
1655 1357 1688 1358 
1688 1357 1391 1358 
1358 1391 1689 1392 
1655 1689 1656 1358 
1358 1391 1688 1689 
1655 1689 1358 1688 
1656 1358 1689 1359 
1689 1358 1392 1359 
1359 1392 1690 1393 
1656 1690 1657 1359 
1359 1392 1689 1690 
1656 1690 1359 1689 
1657 1359 1690 1360 
1690 1359 1393 1360 
1360 1393 1691 1394 
1657 1691 1658 1360 
1360 1393 1690 1691 
1657 1691 1360 1690 
1658 1360 1691 1361 
1691 1360 1394 1361 
1361 1394 1692 1395 
1658 1692 1659 1361 
1361 1394 1691 1692 
1658 1692 1361 1691 
1659 1361 1692 1362 
1692 1361 1395 1362 
1362 1395 1693 1396 
1659 1693 1660 1362 
1362 1395 1692 1693 
1659 1693 1362 1692 
1660 1362 1693 1363 
1693 1362 1396 1363 
1363 1396 1694 1397 
1660 1694 1661 1363 
1363 1396 1693 1694 
1660 1694 1363 1693 
1661 1363 1694 1364 
1694 1363 1397 1364 
1364 1397 1695 1398 
1661 1695 1662 1364 
1364 1397 1694 1695 
1661 1695 1364 1694 
1662 1364 1695 1365 
1695 1364 1398 1365 
1365 1398 1696 1399 
1662 1696 1663 1365 
1365 1398 1695 1696 
1662 1696 1365 1695 
1663 1365 1696 1366 
1696 1365 1399 1366 
1366 1399 1697 1400 
1663 1697 1664 1366 
1366 1399 1696 1697 
1663 1697 1366 1696 
1664 1366 1697 1367 
1697 1366 1400 1367 
1367 1400 1698 1401 
1664 1698 1665 1367 
1367 1400 1697 1698 
1664 1698 1367 1697 
1665 1367 1698 1368 
1698 1367 1401 1368 
1368 1401 1699 1402 
1665 1699 1666 1368 
1368 1401 1698 1699 
1665 1699 1368 1698 
1666 1368 1699 1369 
1699 1368 1402 1369 
1369 1402 1700 1403 
1666 1700 1667 1369 
1369 1402 1699 1700 
1666 1700 1369 1699 
1667 1369 1700 1370 
1700 1369 1403 1370 
1370 1403 1701 1404 
1667 1701 1668 1370 
1370 1403 1700 1701 
1667 1701 1370 1700 
1668 1370 1701 1371 
1701 1370 1404 1371 
1371 1404 1702 1405 
1668 1702 1669 1371 
1371 1404 1701 1702 
1668 1702 1371 1701 
1669 1371 1702 1372 
1702 1371 1405 1372 
1372 1405 1703 1406 
1669 1703 1670 1372 
1372 1405 1702 1703 
1669 1703 1372 1702 
1670 1372 1703 1373 
1703 1372 1406 1373 
1373 1406 1704 1407 
1670 1704 1671 1373 
1373 1406 1703 1704 
1670 1704 1373 1703 
1671 1373 1704 1374 
1704 1373 1407 1374 
1374 1407 1705 1408 
1671 1705 1672 1374 
1374 1407 1704 1705 
1671 1705 1374 1704 
1672 1374 1705 1375 
1705 1374 1408 1375 
1375 1408 1706 1409 
1672 1706 1673 1375 
1375 1408 1705 1706 
1672 1706 1375 1705 
1673 1375 1706 1376 
1706 1375 1409 1376 
1376 1409 1707 1410 
1673 1707 1674 1376 
1376 1409 1706 1707 
1673 1707 1376 1706 
1674 1376 1707 1377 
1707 1376 1410 1377 
1377 1410 1708 1411 
1674 1708 1675 1377 
1377 1410 1707 1708 
1674 1708 1377 1707 
1675 1377 1708 1378 
1708 1377 1411 1378 
1378 1411 1709 1412 
1675 1709 1676 1378 
1378 1411 1708 1709 
1675 1709 1378 1708 
1676 1378 1709 1379 
1709 1378 1412 1379 
1379 1412 1710 1413 
1676 1710 1677 1379 
1379 1412 1709 1710 
1676 1710 1379 1709 
1677 1379 1710 1380 
1710 1379 1413 1380 
1380 1413 1711 1414 
1677 1711 1678 1380 
1380 1413 1710 1711 
1677 1711 1380 1710 
1678 1380 1711 1381 
1711 1380 1414 1381 
1381 1414 1712 1415 
1678 1712 1679 1381 
1381 1414 1711 1712 
1678 1712 1381 1711 
1679 1381 1712 1382 
1712 1381 1415 1382 
1382 1415 1713 1416 
1679 1713 1680 1382 
1382 1415 1712 1713 
1679 1713 1382 1712 
1680 1382 1713 1383 
1713 1382 1416 1383 
1383 1416 1714 1417 
1680 1714 1681 1383 
1383 1416 1713 1714 
1680 1714 1383 1713 
1681 1383 1714 1384 
1714 1383 1417 1384 
1384 1417 1715 1418 
1681 1715 1682 1384 
1384 1417 1714 1715 
1681 1715 1384 1714 
1682 1384 1715 1385 
1715 1384 1418 1385 
1386 1419 1717 1420 
1683 1717 1684 1386 
1386 1419 1716 1717 
1683 1717 1386 1716 
1684 1386 1717 1387 
1717 1386 1420 1387 
1387 1420 1718 1421 
1684 1718 1685 1387 
1387 1420 1717 1718 
1684 1718 1387 1717 
1685 1387 1718 1388 
1718 1387 1421 1388 
1388 1421 1719 1422 
1685 1719 1686 1388 
1388 1421 1718 1719 
1685 1719 1388 1718 
1686 1388 1719 1389 
1719 1388 1422 1389 
1389 1422 1720 1423 
1686 1720 1687 1389 
1389 1422 1719 1720 
1686 1720 1389 1719 
1687 1389 1720 1390 
1720 1389 1423 1390 
1390 1423 1721 1424 
1687 1721 1688 1390 
1390 1423 1720 1721 
1687 1721 1390 1720 
1688 1390 1721 1391 
1721 1390 1424 1391 
1391 1424 1722 1425 
1688 1722 1689 1391 
1391 1424 1721 1722 
1688 1722 1391 1721 
1689 1391 1722 1392 
1722 1391 1425 1392 
1392 1425 1723 1426 
1689 1723 1690 1392 
1392 1425 1722 1723 
1689 1723 1392 1722 
1690 1392 1723 1393 
1723 1392 1426 1393 
1393 1426 1724 1427 
1690 1724 1691 1393 
1393 1426 1723 1724 
1690 1724 1393 1723 
1691 1393 1724 1394 
1724 1393 1427 1394 
1394 1427 1725 1428 
1691 1725 1692 1394 
1394 1427 1724 1725 
1691 1725 1394 1724 
1692 1394 1725 1395 
1725 1394 1428 1395 
1395 1428 1726 1429 
1692 1726 1693 1395 
1395 1428 1725 1726 
1692 1726 1395 1725 
1693 1395 1726 1396 
1726 1395 1429 1396 
1396 1429 1727 1430 
1693 1727 1694 1396 
1396 1429 1726 1727 
1693 1727 1396 1726 
1694 1396 1727 1397 
1727 1396 1430 1397 
1397 1430 1728 1431 
1694 1728 1695 1397 
1397 1430 1727 1728 
1694 1728 1397 1727 
1695 1397 1728 1398 
1728 1397 1431 1398 
1398 1431 1729 1432 
1695 1729 1696 1398 
1398 1431 1728 1729 
1695 1729 1398 1728 
1696 1398 1729 1399 
1729 1398 1432 1399 
1399 1432 1730 1433 
1696 1730 1697 1399 
1399 1432 1729 1730 
1696 1730 1399 1729 
1697 1399 1730 1400 
1730 1399 1433 1400 
1400 1433 1731 1434 
1697 1731 1698 1400 
1400 1433 1730 1731 
1697 1731 1400 1730 
1698 1400 1731 1401 
1731 1400 1434 1401 
1401 1434 1732 1435 
1698 1732 1699 1401 
1401 1434 1731 1732 
1698 1732 1401 1731 
1699 1401 1732 1402 
1732 1401 1435 1402 
1402 1435 1733 1436 
1699 1733 1700 1402 
1402 1435 1732 1733 
1699 1733 1402 1732 
1700 1402 1733 1403 
1733 1402 1436 1403 
1403 1436 1734 1437 
1700 1734 1701 1403 
1403 1436 1733 1734 
1700 1734 1403 1733 
1701 1403 1734 1404 
1734 1403 1437 1404 
1404 1437 1735 1438 
1701 1735 1702 1404 
1404 1437 1734 1735 
1701 1735 1404 1734 
1702 1404 1735 1405 
1735 1404 1438 1405 
1405 1438 1736 1439 
1702 1736 1703 1405 
1405 1438 1735 1736 
1702 1736 1405 1735 
1703 1405 1736 1406 
1736 1405 1439 1406 
1406 1439 1737 1440 
1703 1737 1704 1406 
1406 1439 1736 1737 
1703 1737 1406 1736 
1704 1406 1737 1407 
1737 1406 1440 1407 
1407 1440 1738 1441 
1704 1738 1705 1407 
1407 1440 1737 1738 
1704 1738 1407 1737 
1705 1407 1738 1408 
1738 1407 1441 1408 
1408 1441 1739 1442 
1705 1739 1706 1408 
1408 1441 1738 1739 
1705 1739 1408 1738 
1706 1408 1739 1409 
1739 1408 1442 1409 
1409 1442 1740 1443 
1706 1740 1707 1409 
1409 1442 1739 1740 
1706 1740 1409 1739 
1707 1409 1740 1410 
1740 1409 1443 1410 
1410 1443 1741 1444 
1707 1741 1708 1410 
1410 1443 1740 1741 
1707 1741 1410 1740 
1708 1410 1741 1411 
1741 1410 1444 1411 
1411 1444 1742 1445 
1708 1742 1709 1411 
1411 1444 1741 1742 
1708 1742 1411 1741 
1709 1411 1742 1412 
1742 1411 1445 1412 
1412 1445 1743 1446 
1709 1743 1710 1412 
1412 1445 1742 1743 
1709 1743 1412 1742 
1710 1412 1743 1413 
1743 1412 1446 1413 
1413 1446 1744 1447 
1710 1744 1711 1413 
1413 1446 1743 1744 
1710 1744 1413 1743 
1711 1413 1744 1414 
1744 1413 1447 1414 
1414 1447 1745 1448 
1711 1745 1712 1414 
1414 1447 1744 1745 
1711 1745 1414 1744 
1712 1414 1745 1415 
1745 1414 1448 1415 
1415 1448 1746 1449 
1712 1746 1713 1415 
1415 1448 1745 1746 
1712 1746 1415 1745 
1713 1415 1746 1416 
1746 1415 1449 1416 
1416 1449 1747 1450 
1713 1747 1714 1416 
1416 1449 1746 1747 
1713 1747 1416 1746 
1714 1416 1747 1417 
1747 1416 1450 1417 
1417 1450 1748 1451 
1714 1748 1715 1417 
1417 1450 1747 1748 
1714 1748 1417 1747 
1715 1417 1748 1418 
1748 1417 1451 1418 
1419 1452 1750 1453 
1716 1750 1717 1419 
1419 1452 1749 1750 
1716 1750 1419 1749 
1717 1419 1750 1420 
1750 1419 1453 1420 
1420 1453 1751 1454 
1717 1751 1718 1420 
1420 1453 1750 1751 
1717 1751 1420 1750 
1718 1420 1751 1421 
1751 1420 1454 1421 
1421 1454 1752 1455 
1718 1752 1719 1421 
1421 1454 1751 1752 
1718 1752 1421 1751 
1719 1421 1752 1422 
1752 1421 1455 1422 
1422 1455 1753 1456 
1719 1753 1720 1422 
1422 1455 1752 1753 
1719 1753 1422 1752 
1720 1422 1753 1423 
1753 1422 1456 1423 
1423 1456 1754 1457 
1720 1754 1721 1423 
1423 1456 1753 1754 
1720 1754 1423 1753 
1721 1423 1754 1424 
1754 1423 1457 1424 
1424 1457 1755 1458 
1721 1755 1722 1424 
1424 1457 1754 1755 
1721 1755 1424 1754 
1722 1424 1755 1425 
1755 1424 1458 1425 
1425 1458 1756 1459 
1722 1756 1723 1425 
1425 1458 1755 1756 
1722 1756 1425 1755 
1723 1425 1756 1426 
1756 1425 1459 1426 
1426 1459 1757 1460 
1723 1757 1724 1426 
1426 1459 1756 1757 
1723 1757 1426 1756 
1724 1426 1757 1427 
1757 1426 1460 1427 
1427 1460 1758 1461 
1724 1758 1725 1427 
1427 1460 1757 1758 
1724 1758 1427 1757 
1725 1427 1758 1428 
1758 1427 1461 1428 
1428 1461 1759 1462 
1725 1759 1726 1428 
1428 1461 1758 1759 
1725 1759 1428 1758 
1726 1428 1759 1429 
1759 1428 1462 1429 
1429 1462 1760 1463 
1726 1760 1727 1429 
1429 1462 1759 1760 
1726 1760 1429 1759 
1727 1429 1760 1430 
1760 1429 1463 1430 
1430 1463 1761 1464 
1727 1761 1728 1430 
1430 1463 1760 1761 
1727 1761 1430 1760 
1728 1430 1761 1431 
1761 1430 1464 1431 
1431 1464 1762 1465 
1728 1762 1729 1431 
1431 1464 1761 1762 
1728 1762 1431 1761 
1729 1431 1762 1432 
1762 1431 1465 1432 
1432 1465 1763 1466 
1729 1763 1730 1432 
1432 1465 1762 1763 
1729 1763 1432 1762 
1730 1432 1763 1433 
1763 1432 1466 1433 
1433 1466 1764 1467 
1730 1764 1731 1433 
1433 1466 1763 1764 
1730 1764 1433 1763 
1731 1433 1764 1434 
1764 1433 1467 1434 
1434 1467 1765 1468 
1731 1765 1732 1434 
1434 1467 1764 1765 
1731 1765 1434 1764 
1732 1434 1765 1435 
1765 1434 1468 1435 
1435 1468 1766 1469 
1732 1766 1733 1435 
1435 1468 1765 1766 
1732 1766 1435 1765 
1733 1435 1766 1436 
1766 1435 1469 1436 
1436 1469 1767 1470 
1733 1767 1734 1436 
1436 1469 1766 1767 
1733 1767 1436 1766 
1734 1436 1767 1437 
1767 1436 1470 1437 
1437 1470 1768 1471 
1734 1768 1735 1437 
1437 1470 1767 1768 
1734 1768 1437 1767 
1735 1437 1768 1438 
1768 1437 1471 1438 
1438 1471 1769 1472 
1735 1769 1736 1438 
1438 1471 1768 1769 
1735 1769 1438 1768 
1736 1438 1769 1439 
1769 1438 1472 1439 
1439 1472 1770 1473 
1736 1770 1737 1439 
1439 1472 1769 1770 
1736 1770 1439 1769 
1737 1439 1770 1440 
1770 1439 1473 1440 
1440 1473 1771 1474 
1737 1771 1738 1440 
1440 1473 1770 1771 
1737 1771 1440 1770 
1738 1440 1771 1441 
1771 1440 1474 1441 
1441 1474 1772 1475 
1738 1772 1739 1441 
1441 1474 1771 1772 
1738 1772 1441 1771 
1739 1441 1772 1442 
1772 1441 1475 1442 
1442 1475 1773 1476 
1739 1773 1740 1442 
1442 1475 1772 1773 
1739 1773 1442 1772 
1740 1442 1773 1443 
1773 1442 1476 1443 
1443 1476 1774 1477 
1740 1774 1741 1443 
1443 1476 1773 1774 
1740 1774 1443 1773 
1741 1443 1774 1444 
1774 1443 1477 1444 
1444 1477 1775 1478 
1741 1775 1742 1444 
1444 1477 1774 1775 
1741 1775 1444 1774 
1742 1444 1775 1445 
1775 1444 1478 1445 
1445 1478 1776 1479 
1742 1776 1743 1445 
1445 1478 1775 1776 
1742 1776 1445 1775 
1743 1445 1776 1446 
1776 1445 1479 1446 
1446 1479 1777 1480 
1743 1777 1744 1446 
1446 1479 1776 1777 
1743 1777 1446 1776 
1744 1446 1777 1447 
1777 1446 1480 1447 
1447 1480 1778 1481 
1744 1778 1745 1447 
1447 1480 1777 1778 
1744 1778 1447 1777 
1745 1447 1778 1448 
1778 1447 1481 1448 
1448 1481 1779 1482 
1745 1779 1746 1448 
1448 1481 1778 1779 
1745 1779 1448 1778 
1746 1448 1779 1449 
1779 1448 1482 1449 
1449 1482 1780 1483 
1746 1780 1747 1449 
1449 1482 1779 1780 
1746 1780 1449 1779 
1747 1449 1780 1450 
1780 1449 1483 1450 
1450 1483 1781 1484 
1747 1781 1748 1450 
1450 1483 1780 1781 
1747 1781 1450 1780 
1748 1450 1781 1451 
1781 1450 1484 1451 
1485 1518 1816 1519 
1782 1816 1783 1485 
1485 1518 1815 1816 
1782 1816 1485 1815 
1783 1485 1816 1486 
1816 1485 1519 1486 
1486 1519 1817 1520 
1783 1817 1784 1486 
1486 1519 1816 1817 
1783 1817 1486 1816 
1784 1486 1817 1487 
1817 1486 1520 1487 
1487 1520 1818 1521 
1784 1818 1785 1487 
1487 1520 1817 1818 
1784 1818 1487 1817 
1785 1487 1818 1488 
1818 1487 1521 1488 
1488 1521 1819 1522 
1785 1819 1786 1488 
1488 1521 1818 1819 
1785 1819 1488 1818 
1786 1488 1819 1489 
1819 1488 1522 1489 
1489 1522 1820 1523 
1786 1820 1787 1489 
1489 1522 1819 1820 
1786 1820 1489 1819 
1787 1489 1820 1490 
1820 1489 1523 1490 
1490 1523 1821 1524 
1787 1821 1788 1490 
1490 1523 1820 1821 
1787 1821 1490 1820 
1788 1490 1821 1491 
1821 1490 1524 1491 
1491 1524 1822 1525 
1788 1822 1789 1491 
1491 1524 1821 1822 
1788 1822 1491 1821 
1789 1491 1822 1492 
1822 1491 1525 1492 
1492 1525 1823 1526 
1789 1823 1790 1492 
1492 1525 1822 1823 
1789 1823 1492 1822 
1790 1492 1823 1493 
1823 1492 1526 1493 
1493 1526 1824 1527 
1790 1824 1791 1493 
1493 1526 1823 1824 
1790 1824 1493 1823 
1791 1493 1824 1494 
1824 1493 1527 1494 
1494 1527 1825 1528 
1791 1825 1792 1494 
1494 1527 1824 1825 
1791 1825 1494 1824 
1792 1494 1825 1495 
1825 1494 1528 1495 
1495 1528 1826 1529 
1792 1826 1793 1495 
1495 1528 1825 1826 
1792 1826 1495 1825 
1793 1495 1826 1496 
1826 1495 1529 1496 
1496 1529 1827 1530 
1793 1827 1794 1496 
1496 1529 1826 1827 
1793 1827 1496 1826 
1794 1496 1827 1497 
1827 1496 1530 1497 
1497 1530 1828 1531 
1794 1828 1795 1497 
1497 1530 1827 1828 
1794 1828 1497 1827 
1795 1497 1828 1498 
1828 1497 1531 1498 
1498 1531 1829 1532 
1795 1829 1796 1498 
1498 1531 1828 1829 
1795 1829 1498 1828 
1796 1498 1829 1499 
1829 1498 1532 1499 
1499 1532 1830 1533 
1796 1830 1797 1499 
1499 1532 1829 1830 
1796 1830 1499 1829 
1797 1499 1830 1500 
1830 1499 1533 1500 
1500 1533 1831 1534 
1797 1831 1798 1500 
1500 1533 1830 1831 
1797 1831 1500 1830 
1798 1500 1831 1501 
1831 1500 1534 1501 
1501 1534 1832 1535 
1798 1832 1799 1501 
1501 1534 1831 1832 
1798 1832 1501 1831 
1799 1501 1832 1502 
1832 1501 1535 1502 
1502 1535 1833 1536 
1799 1833 1800 1502 
1502 1535 1832 1833 
1799 1833 1502 1832 
1800 1502 1833 1503 
1833 1502 1536 1503 
1503 1536 1834 1537 
1800 1834 1801 1503 
1503 1536 1833 1834 
1800 1834 1503 1833 
1801 1503 1834 1504 
1834 1503 1537 1504 
1504 1537 1835 1538 
1801 1835 1802 1504 
1504 1537 1834 1835 
1801 1835 1504 1834 
1802 1504 1835 1505 
1835 1504 1538 1505 
1505 1538 1836 1539 
1802 1836 1803 1505 
1505 1538 1835 1836 
1802 1836 1505 1835 
1803 1505 1836 1506 
1836 1505 1539 1506 
1506 1539 1837 1540 
1803 1837 1804 1506 
1506 1539 1836 1837 
1803 1837 1506 1836 
1804 1506 1837 1507 
1837 1506 1540 1507 
1507 1540 1838 1541 
1804 1838 1805 1507 
1507 1540 1837 1838 
1804 1838 1507 1837 
1805 1507 1838 1508 
1838 1507 1541 1508 
1508 1541 1839 1542 
1805 1839 1806 1508 
1508 1541 1838 1839 
1805 1839 1508 1838 
1806 1508 1839 1509 
1839 1508 1542 1509 
1509 1542 1840 1543 
1806 1840 1807 1509 
1509 1542 1839 1840 
1806 1840 1509 1839 
1807 1509 1840 1510 
1840 1509 1543 1510 
1510 1543 1841 1544 
1807 1841 1808 1510 
1510 1543 1840 1841 
1807 1841 1510 1840 
1808 1510 1841 1511 
1841 1510 1544 1511 
1511 1544 1842 1545 
1808 1842 1809 1511 
1511 1544 1841 1842 
1808 1842 1511 1841 
1809 1511 1842 1512 
1842 1511 1545 1512 
1512 1545 1843 1546 
1809 1843 1810 1512 
1512 1545 1842 1843 
1809 1843 1512 1842 
1810 1512 1843 1513 
1843 1512 1546 1513 
1513 1546 1844 1547 
1810 1844 1811 1513 
1513 1546 1843 1844 
1810 1844 1513 1843 
1811 1513 1844 1514 
1844 1513 1547 1514 
1514 1547 1845 1548 
1811 1845 1812 1514 
1514 1547 1844 1845 
1811 1845 1514 1844 
1812 1514 1845 1515 
1845 1514 1548 1515 
1515 1548 1846 1549 
1812 1846 1813 1515 
1515 1548 1845 1846 
1812 1846 1515 1845 
1813 1515 1846 1516 
1846 1515 1549 1516 
1516 1549 1847 1550 
1813 1847 1814 1516 
1516 1549 1846 1847 
1813 1847 1516 1846 
1814 1516 1847 1517 
1847 1516 1550 1517 
1518 1551 1849 1552 
1815 1849 1816 1518 
1518 1551 1848 1849 
1815 1849 1518 1848 
1816 1518 1849 1519 
1849 1518 1552 1519 
1519 1552 1850 1553 
1816 1850 1817 1519 
1519 1552 1849 1850 
1816 1850 1519 1849 
1817 1519 1850 1520 
1850 1519 1553 1520 
1520 1553 1851 1554 
1817 1851 1818 1520 
1520 1553 1850 1851 
1817 1851 1520 1850 
1818 1520 1851 1521 
1851 1520 1554 1521 
1521 1554 1852 1555 
1818 1852 1819 1521 
1521 1554 1851 1852 
1818 1852 1521 1851 
1819 1521 1852 1522 
1852 1521 1555 1522 
1522 1555 1853 1556 
1819 1853 1820 1522 
1522 1555 1852 1853 
1819 1853 1522 1852 
1820 1522 1853 1523 
1853 1522 1556 1523 
1523 1556 1854 1557 
1820 1854 1821 1523 
1523 1556 1853 1854 
1820 1854 1523 1853 
1821 1523 1854 1524 
1854 1523 1557 1524 
1524 1557 1855 1558 
1821 1855 1822 1524 
1524 1557 1854 1855 
1821 1855 1524 1854 
1822 1524 1855 1525 
1855 1524 1558 1525 
1525 1558 1856 1559 
1822 1856 1823 1525 
1525 1558 1855 1856 
1822 1856 1525 1855 
1823 1525 1856 1526 
1856 1525 1559 1526 
1526 1559 1857 1560 
1823 1857 1824 1526 
1526 1559 1856 1857 
1823 1857 1526 1856 
1824 1526 1857 1527 
1857 1526 1560 1527 
1527 1560 1858 1561 
1824 1858 1825 1527 
1527 1560 1857 1858 
1824 1858 1527 1857 
1825 1527 1858 1528 
1858 1527 1561 1528 
1528 1561 1859 1562 
1825 1859 1826 1528 
1528 1561 1858 1859 
1825 1859 1528 1858 
1826 1528 1859 1529 
1859 1528 1562 1529 
1529 1562 1860 1563 
1826 1860 1827 1529 
1529 1562 1859 1860 
1826 1860 1529 1859 
1827 1529 1860 1530 
1860 1529 1563 1530 
1530 1563 1861 1564 
1827 1861 1828 1530 
1530 1563 1860 1861 
1827 1861 1530 1860 
1828 1530 1861 1531 
1861 1530 1564 1531 
1531 1564 1862 1565 
1828 1862 1829 1531 
1531 1564 1861 1862 
1828 1862 1531 1861 
1829 1531 1862 1532 
1862 1531 1565 1532 
1532 1565 1863 1566 
1829 1863 1830 1532 
1532 1565 1862 1863 
1829 1863 1532 1862 
1830 1532 1863 1533 
1863 1532 1566 1533 
1533 1566 1864 1567 
1830 1864 1831 1533 
1533 1566 1863 1864 
1830 1864 1533 1863 
1831 1533 1864 1534 
1864 1533 1567 1534 
1534 1567 1865 1568 
1831 1865 1832 1534 
1534 1567 1864 1865 
1831 1865 1534 1864 
1832 1534 1865 1535 
1865 1534 1568 1535 
1535 1568 1866 1569 
1832 1866 1833 1535 
1535 1568 1865 1866 
1832 1866 1535 1865 
1833 1535 1866 1536 
1866 1535 1569 1536 
1536 1569 1867 1570 
1833 1867 1834 1536 
1536 1569 1866 1867 
1833 1867 1536 1866 
1834 1536 1867 1537 
1867 1536 1570 1537 
1537 1570 1868 1571 
1834 1868 1835 1537 
1537 1570 1867 1868 
1834 1868 1537 1867 
1835 1537 1868 1538 
1868 1537 1571 1538 
1538 1571 1869 1572 
1835 1869 1836 1538 
1538 1571 1868 1869 
1835 1869 1538 1868 
1836 1538 1869 1539 
1869 1538 1572 1539 
1539 1572 1870 1573 
1836 1870 1837 1539 
1539 1572 1869 1870 
1836 1870 1539 1869 
1837 1539 1870 1540 
1870 1539 1573 1540 
1540 1573 1871 1574 
1837 1871 1838 1540 
1540 1573 1870 1871 
1837 1871 1540 1870 
1838 1540 1871 1541 
1871 1540 1574 1541 
1541 1574 1872 1575 
1838 1872 1839 1541 
1541 1574 1871 1872 
1838 1872 1541 1871 
1839 1541 1872 1542 
1872 1541 1575 1542 
1542 1575 1873 1576 
1839 1873 1840 1542 
1542 1575 1872 1873 
1839 1873 1542 1872 
1840 1542 1873 1543 
1873 1542 1576 1543 
1543 1576 1874 1577 
1840 1874 1841 1543 
1543 1576 1873 1874 
1840 1874 1543 1873 
1841 1543 1874 1544 
1874 1543 1577 1544 
1544 1577 1875 1578 
1841 1875 1842 1544 
1544 1577 1874 1875 
1841 1875 1544 1874 
1842 1544 1875 1545 
1875 1544 1578 1545 
1545 1578 1876 1579 
1842 1876 1843 1545 
1545 1578 1875 1876 
1842 1876 1545 1875 
1843 1545 1876 1546 
1876 1545 1579 1546 
1546 1579 1877 1580 
1843 1877 1844 1546 
1546 1579 1876 1877 
1843 1877 1546 1876 
1844 1546 1877 1547 
1877 1546 1580 1547 
1547 1580 1878 1581 
1844 1878 1845 1547 
1547 1580 1877 1878 
1844 1878 1547 1877 
1845 1547 1878 1548 
1878 1547 1581 1548 
1548 1581 1879 1582 
1845 1879 1846 1548 
1548 1581 1878 1879 
1845 1879 1548 1878 
1846 1548 1879 1549 
1879 1548 1582 1549 
1549 1582 1880 1583 
1846 1880 1847 1549 
1549 1582 1879 1880 
1846 1880 1549 1879 
1847 1549 1880 1550 
1880 1549 1583 1550 
1551 1584 1882 1585 
1848 1882 1849 1551 
1551 1584 1881 1882 
1848 1882 1551 1881 
1849 1551 1882 1552 
1882 1551 1585 1552 
1552 1585 1883 1586 
1849 1883 1850 1552 
1552 1585 1882 1883 
1849 1883 1552 1882 
1850 1552 1883 1553 
1883 1552 1586 1553 
1553 1586 1884 1587 
1850 1884 1851 1553 
1553 1586 1883 1884 
1850 1884 1553 1883 
1851 1553 1884 1554 
1884 1553 1587 1554 
1554 1587 1885 1588 
1851 1885 1852 1554 
1554 1587 1884 1885 
1851 1885 1554 1884 
1852 1554 1885 1555 
1885 1554 1588 1555 
1555 1588 1886 1589 
1852 1886 1853 1555 
1555 1588 1885 1886 
1852 1886 1555 1885 
1853 1555 1886 1556 
1886 1555 1589 1556 
1556 1589 1887 1590 
1853 1887 1854 1556 
1556 1589 1886 1887 
1853 1887 1556 1886 
1854 1556 1887 1557 
1887 1556 1590 1557 
1557 1590 1888 1591 
1854 1888 1855 1557 
1557 1590 1887 1888 
1854 1888 1557 1887 
1855 1557 1888 1558 
1888 1557 1591 1558 
1558 1591 1889 1592 
1855 1889 1856 1558 
1558 1591 1888 1889 
1855 1889 1558 1888 
1856 1558 1889 1559 
1889 1558 1592 1559 
1559 1592 1890 1593 
1856 1890 1857 1559 
1559 1592 1889 1890 
1856 1890 1559 1889 
1857 1559 1890 1560 
1890 1559 1593 1560 
1560 1593 1891 1594 
1857 1891 1858 1560 
1560 1593 1890 1891 
1857 1891 1560 1890 
1858 1560 1891 1561 
1891 1560 1594 1561 
1561 1594 1892 1595 
1858 1892 1859 1561 
1561 1594 1891 1892 
1858 1892 1561 1891 
1859 1561 1892 1562 
1892 1561 1595 1562 
1562 1595 1893 1596 
1859 1893 1860 1562 
1562 1595 1892 1893 
1859 1893 1562 1892 
1860 1562 1893 1563 
1893 1562 1596 1563 
1563 1596 1894 1597 
1860 1894 1861 1563 
1563 1596 1893 1894 
1860 1894 1563 1893 
1861 1563 1894 1564 
1894 1563 1597 1564 
1564 1597 1895 1598 
1861 1895 1862 1564 
1564 1597 1894 1895 
1861 1895 1564 1894 
1862 1564 1895 1565 
1895 1564 1598 1565 
1565 1598 1896 1599 
1862 1896 1863 1565 
1565 1598 1895 1896 
1862 1896 1565 1895 
1863 1565 1896 1566 
1896 1565 1599 1566 
1566 1599 1897 1600 
1863 1897 1864 1566 
1566 1599 1896 1897 
1863 1897 1566 1896 
1864 1566 1897 1567 
1897 1566 1600 1567 
1567 1600 1898 1601 
1864 1898 1865 1567 
1567 1600 1897 1898 
1864 1898 1567 1897 
1865 1567 1898 1568 
1898 1567 1601 1568 
1568 1601 1899 1602 
1865 1899 1866 1568 
1568 1601 1898 1899 
1865 1899 1568 1898 
1866 1568 1899 1569 
1899 1568 1602 1569 
1569 1602 1900 1603 
1866 1900 1867 1569 
1569 1602 1899 1900 
1866 1900 1569 1899 
1867 1569 1900 1570 
1900 1569 1603 1570 
1570 1603 1901 1604 
1867 1901 1868 1570 
1570 1603 1900 1901 
1867 1901 1570 1900 
1868 1570 1901 1571 
1901 1570 1604 1571 
1571 1604 1902 1605 
1868 1902 1869 1571 
1571 1604 1901 1902 
1868 1902 1571 1901 
1869 1571 1902 1572 
1902 1571 1605 1572 
1572 1605 1903 1606 
1869 1903 1870 1572 
1572 1605 1902 1903 
1869 1903 1572 1902 
1870 1572 1903 1573 
1903 1572 1606 1573 
1573 1606 1904 1607 
1870 1904 1871 1573 
1573 1606 1903 1904 
1870 1904 1573 1903 
1871 1573 1904 1574 
1904 1573 1607 1574 
1574 1607 1905 1608 
1871 1905 1872 1574 
1574 1607 1904 1905 
1871 1905 1574 1904 
1872 1574 1905 1575 
1905 1574 1608 1575 
1575 1608 1906 1609 
1872 1906 1873 1575 
1575 1608 1905 1906 
1872 1906 1575 1905 
1873 1575 1906 1576 
1906 1575 1609 1576 
1576 1609 1907 1610 
1873 1907 1874 1576 
1576 1609 1906 1907 
1873 1907 1576 1906 
1874 1576 1907 1577 
1907 1576 1610 1577 
1577 1610 1908 1611 
1874 1908 1875 1577 
1577 1610 1907 1908 
1874 1908 1577 1907 
1875 1577 1908 1578 
1908 1577 1611 1578 
1578 1611 1909 1612 
1875 1909 1876 1578 
1578 1611 1908 1909 
1875 1909 1578 1908 
1876 1578 1909 1579 
1909 1578 1612 1579 
1579 1612 1910 1613 
1876 1910 1877 1579 
1579 1612 1909 1910 
1876 1910 1579 1909 
1877 1579 1910 1580 
1910 1579 1613 1580 
1580 1613 1911 1614 
1877 1911 1878 1580 
1580 1613 1910 1911 
1877 1911 1580 1910 
1878 1580 1911 1581 
1911 1580 1614 1581 
1581 1614 1912 1615 
1878 1912 1879 1581 
1581 1614 1911 1912 
1878 1912 1581 1911 
1879 1581 1912 1582 
1912 1581 1615 1582 
1582 1615 1913 1616 
1879 1913 1880 1582 
1582 1615 1912 1913 
1879 1913 1582 1912 
1880 1582 1913 1583 
1913 1582 1616 1583 
1584 1617 1915 1618 
1881 1915 1882 1584 
1584 1617 1914 1915 
1881 1915 1584 1914 
1882 1584 1915 1585 
1915 1584 1618 1585 
1585 1618 1916 1619 
1882 1916 1883 1585 
1585 1618 1915 1916 
1882 1916 1585 1915 
1883 1585 1916 1586 
1916 1585 1619 1586 
1586 1619 1917 1620 
1883 1917 1884 1586 
1586 1619 1916 1917 
1883 1917 1586 1916 
1884 1586 1917 1587 
1917 1586 1620 1587 
1587 1620 1918 1621 
1884 1918 1885 1587 
1587 1620 1917 1918 
1884 1918 1587 1917 
1885 1587 1918 1588 
1918 1587 1621 1588 
1588 1621 1919 1622 
1885 1919 1886 1588 
1588 1621 1918 1919 
1885 1919 1588 1918 
1886 1588 1919 1589 
1919 1588 1622 1589 
1589 1622 1920 1623 
1886 1920 1887 1589 
1589 1622 1919 1920 
1886 1920 1589 1919 
1887 1589 1920 1590 
1920 1589 1623 1590 
1590 1623 1921 1624 
1887 1921 1888 1590 
1590 1623 1920 1921 
1887 1921 1590 1920 
1888 1590 1921 1591 
1921 1590 1624 1591 
1591 1624 1922 1625 
1888 1922 1889 1591 
1591 1624 1921 1922 
1888 1922 1591 1921 
1889 1591 1922 1592 
1922 1591 1625 1592 
1592 1625 1923 1626 
1889 1923 1890 1592 
1592 1625 1922 1923 
1889 1923 1592 1922 
1890 1592 1923 1593 
1923 1592 1626 1593 
1593 1626 1924 1627 
1890 1924 1891 1593 
1593 1626 1923 1924 
1890 1924 1593 1923 
1891 1593 1924 1594 
1924 1593 1627 1594 
1594 1627 1925 1628 
1891 1925 1892 1594 
1594 1627 1924 1925 
1891 1925 1594 1924 
1892 1594 1925 1595 
1925 1594 1628 1595 
1595 1628 1926 1629 
1892 1926 1893 1595 
1595 1628 1925 1926 
1892 1926 1595 1925 
1893 1595 1926 1596 
1926 1595 1629 1596 
1596 1629 1927 1630 
1893 1927 1894 1596 
1596 1629 1926 1927 
1893 1927 1596 1926 
1894 1596 1927 1597 
1927 1596 1630 1597 
1597 1630 1928 1631 
1894 1928 1895 1597 
1597 1630 1927 1928 
1894 1928 1597 1927 
1895 1597 1928 1598 
1928 1597 1631 1598 
1598 1631 1929 1632 
1895 1929 1896 1598 
1598 1631 1928 1929 
1895 1929 1598 1928 
1896 1598 1929 1599 
1929 1598 1632 1599 
1599 1632 1930 1633 
1896 1930 1897 1599 
1599 1632 1929 1930 
1896 1930 1599 1929 
1897 1599 1930 1600 
1930 1599 1633 1600 
1600 1633 1931 1634 
1897 1931 1898 1600 
1600 1633 1930 1931 
1897 1931 1600 1930 
1898 1600 1931 1601 
1931 1600 1634 1601 
1601 1634 1932 1635 
1898 1932 1899 1601 
1601 1634 1931 1932 
1898 1932 1601 1931 
1899 1601 1932 1602 
1932 1601 1635 1602 
1602 1635 1933 1636 
1899 1933 1900 1602 
1602 1635 1932 1933 
1899 1933 1602 1932 
1900 1602 1933 1603 
1933 1602 1636 1603 
1603 1636 1934 1637 
1900 1934 1901 1603 
1603 1636 1933 1934 
1900 1934 1603 1933 
1901 1603 1934 1604 
1934 1603 1637 1604 
1604 1637 1935 1638 
1901 1935 1902 1604 
1604 1637 1934 1935 
1901 1935 1604 1934 
1902 1604 1935 1605 
1935 1604 1638 1605 
1605 1638 1936 1639 
1902 1936 1903 1605 
1605 1638 1935 1936 
1902 1936 1605 1935 
1903 1605 1936 1606 
1936 1605 1639 1606 
1606 1639 1937 1640 
1903 1937 1904 1606 
1606 1639 1936 1937 
1903 1937 1606 1936 
1904 1606 1937 1607 
1937 1606 1640 1607 
1607 1640 1938 1641 
1904 1938 1905 1607 
1607 1640 1937 1938 
1904 1938 1607 1937 
1905 1607 1938 1608 
1938 1607 1641 1608 
1608 1641 1939 1642 
1905 1939 1906 1608 
1608 1641 1938 1939 
1905 1939 1608 1938 
1906 1608 1939 1609 
1939 1608 1642 1609 
1609 1642 1940 1643 
1906 1940 1907 1609 
1609 1642 1939 1940 
1906 1940 1609 1939 
1907 1609 1940 1610 
1940 1609 1643 1610 
1610 1643 1941 1644 
1907 1941 1908 1610 
1610 1643 1940 1941 
1907 1941 1610 1940 
1908 1610 1941 1611 
1941 1610 1644 1611 
1611 1644 1942 1645 
1908 1942 1909 1611 
1611 1644 1941 1942 
1908 1942 1611 1941 
1909 1611 1942 1612 
1942 1611 1645 1612 
1612 1645 1943 1646 
1909 1943 1910 1612 
1612 1645 1942 1943 
1909 1943 1612 1942 
1910 1612 1943 1613 
1943 1612 1646 1613 
1613 1646 1944 1647 
1910 1944 1911 1613 
1613 1646 1943 1944 
1910 1944 1613 1943 
1911 1613 1944 1614 
1944 1613 1647 1614 
1614 1647 1945 1648 
1911 1945 1912 1614 
1614 1647 1944 1945 
1911 1945 1614 1944 
1912 1614 1945 1615 
1945 1614 1648 1615 
1615 1648 1946 1649 
1912 1946 1913 1615 
1615 1648 1945 1946 
1912 1946 1615 1945 
1913 1615 1946 1616 
1946 1615 1649 1616 
1617 1650 1948 1651 
1914 1948 1915 1617 
1617 1650 1947 1948 
1914 1948 1617 1947 
1915 1617 1948 1618 
1948 1617 1651 1618 
1618 1651 1949 1652 
1915 1949 1916 1618 
1618 1651 1948 1949 
1915 1949 1618 1948 
1916 1618 1949 1619 
1949 1618 1652 1619 
1619 1652 1950 1653 
1916 1950 1917 1619 
1619 1652 1949 1950 
1916 1950 1619 1949 
1917 1619 1950 1620 
1950 1619 1653 1620 
1620 1653 1951 1654 
1917 1951 1918 1620 
1620 1653 1950 1951 
1917 1951 1620 1950 
1918 1620 1951 1621 
1951 1620 1654 1621 
1621 1654 1952 1655 
1918 1952 1919 1621 
1621 1654 1951 1952 
1918 1952 1621 1951 
1919 1621 1952 1622 
1952 1621 1655 1622 
1622 1655 1953 1656 
1919 1953 1920 1622 
1622 1655 1952 1953 
1919 1953 1622 1952 
1920 1622 1953 1623 
1953 1622 1656 1623 
1623 1656 1954 1657 
1920 1954 1921 1623 
1623 1656 1953 1954 
1920 1954 1623 1953 
1921 1623 1954 1624 
1954 1623 1657 1624 
1624 1657 1955 1658 
1921 1955 1922 1624 
1624 1657 1954 1955 
1921 1955 1624 1954 
1922 1624 1955 1625 
1955 1624 1658 1625 
1625 1658 1956 1659 
1922 1956 1923 1625 
1625 1658 1955 1956 
1922 1956 1625 1955 
1923 1625 1956 1626 
1956 1625 1659 1626 
1626 1659 1957 1660 
1923 1957 1924 1626 
1626 1659 1956 1957 
1923 1957 1626 1956 
1924 1626 1957 1627 
1957 1626 1660 1627 
1627 1660 1958 1661 
1924 1958 1925 1627 
1627 1660 1957 1958 
1924 1958 1627 1957 
1925 1627 1958 1628 
1958 1627 1661 1628 
1628 1661 1959 1662 
1925 1959 1926 1628 
1628 1661 1958 1959 
1925 1959 1628 1958 
1926 1628 1959 1629 
1959 1628 1662 1629 
1629 1662 1960 1663 
1926 1960 1927 1629 
1629 1662 1959 1960 
1926 1960 1629 1959 
1927 1629 1960 1630 
1960 1629 1663 1630 
1630 1663 1961 1664 
1927 1961 1928 1630 
1630 1663 1960 1961 
1927 1961 1630 1960 
1928 1630 1961 1631 
1961 1630 1664 1631 
1631 1664 1962 1665 
1928 1962 1929 1631 
1631 1664 1961 1962 
1928 1962 1631 1961 
1929 1631 1962 1632 
1962 1631 1665 1632 
1632 1665 1963 1666 
1929 1963 1930 1632 
1632 1665 1962 1963 
1929 1963 1632 1962 
1930 1632 1963 1633 
1963 1632 1666 1633 
1633 1666 1964 1667 
1930 1964 1931 1633 
1633 1666 1963 1964 
1930 1964 1633 1963 
1931 1633 1964 1634 
1964 1633 1667 1634 
1634 1667 1965 1668 
1931 1965 1932 1634 
1634 1667 1964 1965 
1931 1965 1634 1964 
1932 1634 1965 1635 
1965 1634 1668 1635 
1635 1668 1966 1669 
1932 1966 1933 1635 
1635 1668 1965 1966 
1932 1966 1635 1965 
1933 1635 1966 1636 
1966 1635 1669 1636 
1636 1669 1967 1670 
1933 1967 1934 1636 
1636 1669 1966 1967 
1933 1967 1636 1966 
1934 1636 1967 1637 
1967 1636 1670 1637 
1637 1670 1968 1671 
1934 1968 1935 1637 
1637 1670 1967 1968 
1934 1968 1637 1967 
1935 1637 1968 1638 
1968 1637 1671 1638 
1638 1671 1969 1672 
1935 1969 1936 1638 
1638 1671 1968 1969 
1935 1969 1638 1968 
1936 1638 1969 1639 
1969 1638 1672 1639 
1639 1672 1970 1673 
1936 1970 1937 1639 
1639 1672 1969 1970 
1936 1970 1639 1969 
1937 1639 1970 1640 
1970 1639 1673 1640 
1640 1673 1971 1674 
1937 1971 1938 1640 
1640 1673 1970 1971 
1937 1971 1640 1970 
1938 1640 1971 1641 
1971 1640 1674 1641 
1641 1674 1972 1675 
1938 1972 1939 1641 
1641 1674 1971 1972 
1938 1972 1641 1971 
1939 1641 1972 1642 
1972 1641 1675 1642 
1642 1675 1973 1676 
1939 1973 1940 1642 
1642 1675 1972 1973 
1939 1973 1642 1972 
1940 1642 1973 1643 
1973 1642 1676 1643 
1643 1676 1974 1677 
1940 1974 1941 1643 
1643 1676 1973 1974 
1940 1974 1643 1973 
1941 1643 1974 1644 
1974 1643 1677 1644 
1644 1677 1975 1678 
1941 1975 1942 1644 
1644 1677 1974 1975 
1941 1975 1644 1974 
1942 1644 1975 1645 
1975 1644 1678 1645 
1645 1678 1976 1679 
1942 1976 1943 1645 
1645 1678 1975 1976 
1942 1976 1645 1975 
1943 1645 1976 1646 
1976 1645 1679 1646 
1646 1679 1977 1680 
1943 1977 1944 1646 
1646 1679 1976 1977 
1943 1977 1646 1976 
1944 1646 1977 1647 
1977 1646 1680 1647 
1647 1680 1978 1681 
1944 1978 1945 1647 
1647 1680 1977 1978 
1944 1978 1647 1977 
1945 1647 1978 1648 
1978 1647 1681 1648 
1648 1681 1979 1682 
1945 1979 1946 1648 
1648 1681 1978 1979 
1945 1979 1648 1978 
1946 1648 1979 1649 
1979 1648 1682 1649 
1650 1683 1981 1684 
1947 1981 1948 1650 
1650 1683 1980 1981 
1947 1981 1650 1980 
1948 1650 1981 1651 
1981 1650 1684 1651 
1651 1684 1982 1685 
1948 1982 1949 1651 
1651 1684 1981 1982 
1948 1982 1651 1981 
1949 1651 1982 1652 
1982 1651 1685 1652 
1652 1685 1983 1686 
1949 1983 1950 1652 
1652 1685 1982 1983 
1949 1983 1652 1982 
1950 1652 1983 1653 
1983 1652 1686 1653 
1653 1686 1984 1687 
1950 1984 1951 1653 
1653 1686 1983 1984 
1950 1984 1653 1983 
1951 1653 1984 1654 
1984 1653 1687 1654 
1654 1687 1985 1688 
1951 1985 1952 1654 
1654 1687 1984 1985 
1951 1985 1654 1984 
1952 1654 1985 1655 
1985 1654 1688 1655 
1655 1688 1986 1689 
1952 1986 1953 1655 
1655 1688 1985 1986 
1952 1986 1655 1985 
1953 1655 1986 1656 
1986 1655 1689 1656 
1656 1689 1987 1690 
1953 1987 1954 1656 
1656 1689 1986 1987 
1953 1987 1656 1986 
1954 1656 1987 1657 
1987 1656 1690 1657 
1657 1690 1988 1691 
1954 1988 1955 1657 
1657 1690 1987 1988 
1954 1988 1657 1987 
1955 1657 1988 1658 
1988 1657 1691 1658 
1658 1691 1989 1692 
1955 1989 1956 1658 
1658 1691 1988 1989 
1955 1989 1658 1988 
1956 1658 1989 1659 
1989 1658 1692 1659 
1659 1692 1990 1693 
1956 1990 1957 1659 
1659 1692 1989 1990 
1956 1990 1659 1989 
1957 1659 1990 1660 
1990 1659 1693 1660 
1660 1693 1991 1694 
1957 1991 1958 1660 
1660 1693 1990 1991 
1957 1991 1660 1990 
1958 1660 1991 1661 
1991 1660 1694 1661 
1661 1694 1992 1695 
1958 1992 1959 1661 
1661 1694 1991 1992 
1958 1992 1661 1991 
1959 1661 1992 1662 
1992 1661 1695 1662 
1662 1695 1993 1696 
1959 1993 1960 1662 
1662 1695 1992 1993 
1959 1993 1662 1992 
1960 1662 1993 1663 
1993 1662 1696 1663 
1663 1696 1994 1697 
1960 1994 1961 1663 
1663 1696 1993 1994 
1960 1994 1663 1993 
1961 1663 1994 1664 
1994 1663 1697 1664 
1664 1697 1995 1698 
1961 1995 1962 1664 
1664 1697 1994 1995 
1961 1995 1664 1994 
1962 1664 1995 1665 
1995 1664 1698 1665 
1665 1698 1996 1699 
1962 1996 1963 1665 
1665 1698 1995 1996 
1962 1996 1665 1995 
1963 1665 1996 1666 
1996 1665 1699 1666 
1666 1699 1997 1700 
1963 1997 1964 1666 
1666 1699 1996 1997 
1963 1997 1666 1996 
1964 1666 1997 1667 
1997 1666 1700 1667 
1667 1700 1998 1701 
1964 1998 1965 1667 
1667 1700 1997 1998 
1964 1998 1667 1997 
1965 1667 1998 1668 
1998 1667 1701 1668 
1668 1701 1999 1702 
1965 1999 1966 1668 
1668 1701 1998 1999 
1965 1999 1668 1998 
1966 1668 1999 1669 
1999 1668 1702 1669 
1669 1702 2000 1703 
1966 2000 1967 1669 
1669 1702 1999 2000 
1966 2000 1669 1999 
1967 1669 2000 1670 
2000 1669 1703 1670 
1670 1703 2001 1704 
1967 2001 1968 1670 
1670 1703 2000 2001 
1967 2001 1670 2000 
1968 1670 2001 1671 
2001 1670 1704 1671 
1671 1704 2002 1705 
1968 2002 1969 1671 
1671 1704 2001 2002 
1968 2002 1671 2001 
1969 1671 2002 1672 
2002 1671 1705 1672 
1672 1705 2003 1706 
1969 2003 1970 1672 
1672 1705 2002 2003 
1969 2003 1672 2002 
1970 1672 2003 1673 
2003 1672 1706 1673 
1673 1706 2004 1707 
1970 2004 1971 1673 
1673 1706 2003 2004 
1970 2004 1673 2003 
1971 1673 2004 1674 
2004 1673 1707 1674 
1674 1707 2005 1708 
1971 2005 1972 1674 
1674 1707 2004 2005 
1971 2005 1674 2004 
1972 1674 2005 1675 
2005 1674 1708 1675 
1675 1708 2006 1709 
1972 2006 1973 1675 
1675 1708 2005 2006 
1972 2006 1675 2005 
1973 1675 2006 1676 
2006 1675 1709 1676 
1676 1709 2007 1710 
1973 2007 1974 1676 
1676 1709 2006 2007 
1973 2007 1676 2006 
1974 1676 2007 1677 
2007 1676 1710 1677 
1677 1710 2008 1711 
1974 2008 1975 1677 
1677 1710 2007 2008 
1974 2008 1677 2007 
1975 1677 2008 1678 
2008 1677 1711 1678 
1678 1711 2009 1712 
1975 2009 1976 1678 
1678 1711 2008 2009 
1975 2009 1678 2008 
1976 1678 2009 1679 
2009 1678 1712 1679 
1679 1712 2010 1713 
1976 2010 1977 1679 
1679 1712 2009 2010 
1976 2010 1679 2009 
1977 1679 2010 1680 
2010 1679 1713 1680 
1680 1713 2011 1714 
1977 2011 1978 1680 
1680 1713 2010 2011 
1977 2011 1680 2010 
1978 1680 2011 1681 
2011 1680 1714 1681 
1681 1714 2012 1715 
1978 2012 1979 1681 
1681 1714 2011 2012 
1978 2012 1681 2011 
1979 1681 2012 1682 
2012 1681 1715 1682 
1683 1716 2014 1717 
1980 2014 1981 1683 
1683 1716 2013 2014 
1980 2014 1683 2013 
1981 1683 2014 1684 
2014 1683 1717 1684 
1684 1717 2015 1718 
1981 2015 1982 1684 
1684 1717 2014 2015 
1981 2015 1684 2014 
1982 1684 2015 1685 
2015 1684 1718 1685 
1685 1718 2016 1719 
1982 2016 1983 1685 
1685 1718 2015 2016 
1982 2016 1685 2015 
1983 1685 2016 1686 
2016 1685 1719 1686 
1686 1719 2017 1720 
1983 2017 1984 1686 
1686 1719 2016 2017 
1983 2017 1686 2016 
1984 1686 2017 1687 
2017 1686 1720 1687 
1687 1720 2018 1721 
1984 2018 1985 1687 
1687 1720 2017 2018 
1984 2018 1687 2017 
1985 1687 2018 1688 
2018 1687 1721 1688 
1688 1721 2019 1722 
1985 2019 1986 1688 
1688 1721 2018 2019 
1985 2019 1688 2018 
1986 1688 2019 1689 
2019 1688 1722 1689 
1689 1722 2020 1723 
1986 2020 1987 1689 
1689 1722 2019 2020 
1986 2020 1689 2019 
1987 1689 2020 1690 
2020 1689 1723 1690 
1690 1723 2021 1724 
1987 2021 1988 1690 
1690 1723 2020 2021 
1987 2021 1690 2020 
1988 1690 2021 1691 
2021 1690 1724 1691 
1691 1724 2022 1725 
1988 2022 1989 1691 
1691 1724 2021 2022 
1988 2022 1691 2021 
1989 1691 2022 1692 
2022 1691 1725 1692 
1692 1725 2023 1726 
1989 2023 1990 1692 
1692 1725 2022 2023 
1989 2023 1692 2022 
1990 1692 2023 1693 
2023 1692 1726 1693 
1693 1726 2024 1727 
1990 2024 1991 1693 
1693 1726 2023 2024 
1990 2024 1693 2023 
1991 1693 2024 1694 
2024 1693 1727 1694 
1694 1727 2025 1728 
1991 2025 1992 1694 
1694 1727 2024 2025 
1991 2025 1694 2024 
1992 1694 2025 1695 
2025 1694 1728 1695 
1695 1728 2026 1729 
1992 2026 1993 1695 
1695 1728 2025 2026 
1992 2026 1695 2025 
1993 1695 2026 1696 
2026 1695 1729 1696 
1696 1729 2027 1730 
1993 2027 1994 1696 
1696 1729 2026 2027 
1993 2027 1696 2026 
1994 1696 2027 1697 
2027 1696 1730 1697 
1697 1730 2028 1731 
1994 2028 1995 1697 
1697 1730 2027 2028 
1994 2028 1697 2027 
1995 1697 2028 1698 
2028 1697 1731 1698 
1698 1731 2029 1732 
1995 2029 1996 1698 
1698 1731 2028 2029 
1995 2029 1698 2028 
1996 1698 2029 1699 
2029 1698 1732 1699 
1699 1732 2030 1733 
1996 2030 1997 1699 
1699 1732 2029 2030 
1996 2030 1699 2029 
1997 1699 2030 1700 
2030 1699 1733 1700 
1700 1733 2031 1734 
1997 2031 1998 1700 
1700 1733 2030 2031 
1997 2031 1700 2030 
1998 1700 2031 1701 
2031 1700 1734 1701 
1701 1734 2032 1735 
1998 2032 1999 1701 
1701 1734 2031 2032 
1998 2032 1701 2031 
1999 1701 2032 1702 
2032 1701 1735 1702 
1702 1735 2033 1736 
1999 2033 2000 1702 
1702 1735 2032 2033 
1999 2033 1702 2032 
2000 1702 2033 1703 
2033 1702 1736 1703 
1703 1736 2034 1737 
2000 2034 2001 1703 
1703 1736 2033 2034 
2000 2034 1703 2033 
2001 1703 2034 1704 
2034 1703 1737 1704 
1704 1737 2035 1738 
2001 2035 2002 1704 
1704 1737 2034 2035 
2001 2035 1704 2034 
2002 1704 2035 1705 
2035 1704 1738 1705 
1705 1738 2036 1739 
2002 2036 2003 1705 
1705 1738 2035 2036 
2002 2036 1705 2035 
2003 1705 2036 1706 
2036 1705 1739 1706 
1706 1739 2037 1740 
2003 2037 2004 1706 
1706 1739 2036 2037 
2003 2037 1706 2036 
2004 1706 2037 1707 
2037 1706 1740 1707 
1707 1740 2038 1741 
2004 2038 2005 1707 
1707 1740 2037 2038 
2004 2038 1707 2037 
2005 1707 2038 1708 
2038 1707 1741 1708 
1708 1741 2039 1742 
2005 2039 2006 1708 
1708 1741 2038 2039 
2005 2039 1708 2038 
2006 1708 2039 1709 
2039 1708 1742 1709 
1709 1742 2040 1743 
2006 2040 2007 1709 
1709 1742 2039 2040 
2006 2040 1709 2039 
2007 1709 2040 1710 
2040 1709 1743 1710 
1710 1743 2041 1744 
2007 2041 2008 1710 
1710 1743 2040 2041 
2007 2041 1710 2040 
2008 1710 2041 1711 
2041 1710 1744 1711 
1711 1744 2042 1745 
2008 2042 2009 1711 
1711 1744 2041 2042 
2008 2042 1711 2041 
2009 1711 2042 1712 
2042 1711 1745 1712 
1712 1745 2043 1746 
2009 2043 2010 1712 
1712 1745 2042 2043 
2009 2043 1712 2042 
2010 1712 2043 1713 
2043 1712 1746 1713 
1713 1746 2044 1747 
2010 2044 2011 1713 
1713 1746 2043 2044 
2010 2044 1713 2043 
2011 1713 2044 1714 
2044 1713 1747 1714 
1714 1747 2045 1748 
2011 2045 2012 1714 
1714 1747 2044 2045 
2011 2045 1714 2044 
2012 1714 2045 1715 
2045 1714 1748 1715 
1716 1749 2047 1750 
2013 2047 2014 1716 
1716 1749 2046 2047 
2013 2047 1716 2046 
2014 1716 2047 1717 
2047 1716 1750 1717 
1717 1750 2048 1751 
2014 2048 2015 1717 
1717 1750 2047 2048 
2014 2048 1717 2047 
2015 1717 2048 1718 
2048 1717 1751 1718 
1718 1751 2049 1752 
2015 2049 2016 1718 
1718 1751 2048 2049 
2015 2049 1718 2048 
2016 1718 2049 1719 
2049 1718 1752 1719 
1719 1752 2050 1753 
2016 2050 2017 1719 
1719 1752 2049 2050 
2016 2050 1719 2049 
2017 1719 2050 1720 
2050 1719 1753 1720 
1720 1753 2051 1754 
2017 2051 2018 1720 
1720 1753 2050 2051 
2017 2051 1720 2050 
2018 1720 2051 1721 
2051 1720 1754 1721 
1721 1754 2052 1755 
2018 2052 2019 1721 
1721 1754 2051 2052 
2018 2052 1721 2051 
2019 1721 2052 1722 
2052 1721 1755 1722 
1722 1755 2053 1756 
2019 2053 2020 1722 
1722 1755 2052 2053 
2019 2053 1722 2052 
2020 1722 2053 1723 
2053 1722 1756 1723 
1723 1756 2054 1757 
2020 2054 2021 1723 
1723 1756 2053 2054 
2020 2054 1723 2053 
2021 1723 2054 1724 
2054 1723 1757 1724 
1724 1757 2055 1758 
2021 2055 2022 1724 
1724 1757 2054 2055 
2021 2055 1724 2054 
2022 1724 2055 1725 
2055 1724 1758 1725 
1725 1758 2056 1759 
2022 2056 2023 1725 
1725 1758 2055 2056 
2022 2056 1725 2055 
2023 1725 2056 1726 
2056 1725 1759 1726 
1726 1759 2057 1760 
2023 2057 2024 1726 
1726 1759 2056 2057 
2023 2057 1726 2056 
2024 1726 2057 1727 
2057 1726 1760 1727 
1727 1760 2058 1761 
2024 2058 2025 1727 
1727 1760 2057 2058 
2024 2058 1727 2057 
2025 1727 2058 1728 
2058 1727 1761 1728 
1728 1761 2059 1762 
2025 2059 2026 1728 
1728 1761 2058 2059 
2025 2059 1728 2058 
2026 1728 2059 1729 
2059 1728 1762 1729 
1729 1762 2060 1763 
2026 2060 2027 1729 
1729 1762 2059 2060 
2026 2060 1729 2059 
2027 1729 2060 1730 
2060 1729 1763 1730 
1730 1763 2061 1764 
2027 2061 2028 1730 
1730 1763 2060 2061 
2027 2061 1730 2060 
2028 1730 2061 1731 
2061 1730 1764 1731 
1731 1764 2062 1765 
2028 2062 2029 1731 
1731 1764 2061 2062 
2028 2062 1731 2061 
2029 1731 2062 1732 
2062 1731 1765 1732 
1732 1765 2063 1766 
2029 2063 2030 1732 
1732 1765 2062 2063 
2029 2063 1732 2062 
2030 1732 2063 1733 
2063 1732 1766 1733 
1733 1766 2064 1767 
2030 2064 2031 1733 
1733 1766 2063 2064 
2030 2064 1733 2063 
2031 1733 2064 1734 
2064 1733 1767 1734 
1734 1767 2065 1768 
2031 2065 2032 1734 
1734 1767 2064 2065 
2031 2065 1734 2064 
2032 1734 2065 1735 
2065 1734 1768 1735 
1735 1768 2066 1769 
2032 2066 2033 1735 
1735 1768 2065 2066 
2032 2066 1735 2065 
2033 1735 2066 1736 
2066 1735 1769 1736 
1736 1769 2067 1770 
2033 2067 2034 1736 
1736 1769 2066 2067 
2033 2067 1736 2066 
2034 1736 2067 1737 
2067 1736 1770 1737 
1737 1770 2068 1771 
2034 2068 2035 1737 
1737 1770 2067 2068 
2034 2068 1737 2067 
2035 1737 2068 1738 
2068 1737 1771 1738 
1738 1771 2069 1772 
2035 2069 2036 1738 
1738 1771 2068 2069 
2035 2069 1738 2068 
2036 1738 2069 1739 
2069 1738 1772 1739 
1739 1772 2070 1773 
2036 2070 2037 1739 
1739 1772 2069 2070 
2036 2070 1739 2069 
2037 1739 2070 1740 
2070 1739 1773 1740 
1740 1773 2071 1774 
2037 2071 2038 1740 
1740 1773 2070 2071 
2037 2071 1740 2070 
2038 1740 2071 1741 
2071 1740 1774 1741 
1741 1774 2072 1775 
2038 2072 2039 1741 
1741 1774 2071 2072 
2038 2072 1741 2071 
2039 1741 2072 1742 
2072 1741 1775 1742 
1742 1775 2073 1776 
2039 2073 2040 1742 
1742 1775 2072 2073 
2039 2073 1742 2072 
2040 1742 2073 1743 
2073 1742 1776 1743 
1743 1776 2074 1777 
2040 2074 2041 1743 
1743 1776 2073 2074 
2040 2074 1743 2073 
2041 1743 2074 1744 
2074 1743 1777 1744 
1744 1777 2075 1778 
2041 2075 2042 1744 
1744 1777 2074 2075 
2041 2075 1744 2074 
2042 1744 2075 1745 
2075 1744 1778 1745 
1745 1778 2076 1779 
2042 2076 2043 1745 
1745 1778 2075 2076 
2042 2076 1745 2075 
2043 1745 2076 1746 
2076 1745 1779 1746 
1746 1779 2077 1780 
2043 2077 2044 1746 
1746 1779 2076 2077 
2043 2077 1746 2076 
2044 1746 2077 1747 
2077 1746 1780 1747 
1747 1780 2078 1781 
2044 2078 2045 1747 
1747 1780 2077 2078 
2044 2078 1747 2077 
2045 1747 2078 1748 
2078 1747 1781 1748 
1782 1815 2113 1816 
2079 2113 2080 1782 
1782 1815 2112 2113 
2079 2113 1782 2112 
2080 1782 2113 1783 
2113 1782 1816 1783 
1783 1816 2114 1817 
2080 2114 2081 1783 
1783 1816 2113 2114 
2080 2114 1783 2113 
2081 1783 2114 1784 
2114 1783 1817 1784 
1784 1817 2115 1818 
2081 2115 2082 1784 
1784 1817 2114 2115 
2081 2115 1784 2114 
2082 1784 2115 1785 
2115 1784 1818 1785 
1785 1818 2116 1819 
2082 2116 2083 1785 
1785 1818 2115 2116 
2082 2116 1785 2115 
2083 1785 2116 1786 
2116 1785 1819 1786 
1786 1819 2117 1820 
2083 2117 2084 1786 
1786 1819 2116 2117 
2083 2117 1786 2116 
2084 1786 2117 1787 
2117 1786 1820 1787 
1787 1820 2118 1821 
2084 2118 2085 1787 
1787 1820 2117 2118 
2084 2118 1787 2117 
2085 1787 2118 1788 
2118 1787 1821 1788 
1788 1821 2119 1822 
2085 2119 2086 1788 
1788 1821 2118 2119 
2085 2119 1788 2118 
2086 1788 2119 1789 
2119 1788 1822 1789 
1789 1822 2120 1823 
2086 2120 2087 1789 
1789 1822 2119 2120 
2086 2120 1789 2119 
2087 1789 2120 1790 
2120 1789 1823 1790 
1790 1823 2121 1824 
2087 2121 2088 1790 
1790 1823 2120 2121 
2087 2121 1790 2120 
2088 1790 2121 1791 
2121 1790 1824 1791 
1791 1824 2122 1825 
2088 2122 2089 1791 
1791 1824 2121 2122 
2088 2122 1791 2121 
2089 1791 2122 1792 
2122 1791 1825 1792 
1792 1825 2123 1826 
2089 2123 2090 1792 
1792 1825 2122 2123 
2089 2123 1792 2122 
2090 1792 2123 1793 
2123 1792 1826 1793 
1793 1826 2124 1827 
2090 2124 2091 1793 
1793 1826 2123 2124 
2090 2124 1793 2123 
2091 1793 2124 1794 
2124 1793 1827 1794 
1794 1827 2125 1828 
2091 2125 2092 1794 
1794 1827 2124 2125 
2091 2125 1794 2124 
2092 1794 2125 1795 
2125 1794 1828 1795 
1795 1828 2126 1829 
2092 2126 2093 1795 
1795 1828 2125 2126 
2092 2126 1795 2125 
2093 1795 2126 1796 
2126 1795 1829 1796 
1796 1829 2127 1830 
2093 2127 2094 1796 
1796 1829 2126 2127 
2093 2127 1796 2126 
2094 1796 2127 1797 
2127 1796 1830 1797 
1797 1830 2128 1831 
2094 2128 2095 1797 
1797 1830 2127 2128 
2094 2128 1797 2127 
2095 1797 2128 1798 
2128 1797 1831 1798 
1798 1831 2129 1832 
2095 2129 2096 1798 
1798 1831 2128 2129 
2095 2129 1798 2128 
2096 1798 2129 1799 
2129 1798 1832 1799 
1799 1832 2130 1833 
2096 2130 2097 1799 
1799 1832 2129 2130 
2096 2130 1799 2129 
2097 1799 2130 1800 
2130 1799 1833 1800 
1800 1833 2131 1834 
2097 2131 2098 1800 
1800 1833 2130 2131 
2097 2131 1800 2130 
2098 1800 2131 1801 
2131 1800 1834 1801 
1801 1834 2132 1835 
2098 2132 2099 1801 
1801 1834 2131 2132 
2098 2132 1801 2131 
2099 1801 2132 1802 
2132 1801 1835 1802 
1802 1835 2133 1836 
2099 2133 2100 1802 
1802 1835 2132 2133 
2099 2133 1802 2132 
2100 1802 2133 1803 
2133 1802 1836 1803 
1803 1836 2134 1837 
2100 2134 2101 1803 
1803 1836 2133 2134 
2100 2134 1803 2133 
2101 1803 2134 1804 
2134 1803 1837 1804 
1804 1837 2135 1838 
2101 2135 2102 1804 
1804 1837 2134 2135 
2101 2135 1804 2134 
2102 1804 2135 1805 
2135 1804 1838 1805 
1805 1838 2136 1839 
2102 2136 2103 1805 
1805 1838 2135 2136 
2102 2136 1805 2135 
2103 1805 2136 1806 
2136 1805 1839 1806 
1806 1839 2137 1840 
2103 2137 2104 1806 
1806 1839 2136 2137 
2103 2137 1806 2136 
2104 1806 2137 1807 
2137 1806 1840 1807 
1807 1840 2138 1841 
2104 2138 2105 1807 
1807 1840 2137 2138 
2104 2138 1807 2137 
2105 1807 2138 1808 
2138 1807 1841 1808 
1808 1841 2139 1842 
2105 2139 2106 1808 
1808 1841 2138 2139 
2105 2139 1808 2138 
2106 1808 2139 1809 
2139 1808 1842 1809 
1809 1842 2140 1843 
2106 2140 2107 1809 
1809 1842 2139 2140 
2106 2140 1809 2139 
2107 1809 2140 1810 
2140 1809 1843 1810 
1810 1843 2141 1844 
2107 2141 2108 1810 
1810 1843 2140 2141 
2107 2141 1810 2140 
2108 1810 2141 1811 
2141 1810 1844 1811 
1811 1844 2142 1845 
2108 2142 2109 1811 
1811 1844 2141 2142 
2108 2142 1811 2141 
2109 1811 2142 1812 
2142 1811 1845 1812 
1812 1845 2143 1846 
2109 2143 2110 1812 
1812 1845 2142 2143 
2109 2143 1812 2142 
2110 1812 2143 1813 
2143 1812 1846 1813 
1813 1846 2144 1847 
2110 2144 2111 1813 
1813 1846 2143 2144 
2110 2144 1813 2143 
2111 1813 2144 1814 
2144 1813 1847 1814 
1815 1848 2146 1849 
2112 2146 2113 1815 
1815 1848 2145 2146 
2112 2146 1815 2145 
2113 1815 2146 1816 
2146 1815 1849 1816 
1816 1849 2147 1850 
2113 2147 2114 1816 
1816 1849 2146 2147 
2113 2147 1816 2146 
2114 1816 2147 1817 
2147 1816 1850 1817 
1817 1850 2148 1851 
2114 2148 2115 1817 
1817 1850 2147 2148 
2114 2148 1817 2147 
2115 1817 2148 1818 
2148 1817 1851 1818 
1818 1851 2149 1852 
2115 2149 2116 1818 
1818 1851 2148 2149 
2115 2149 1818 2148 
2116 1818 2149 1819 
2149 1818 1852 1819 
1819 1852 2150 1853 
2116 2150 2117 1819 
1819 1852 2149 2150 
2116 2150 1819 2149 
2117 1819 2150 1820 
2150 1819 1853 1820 
1820 1853 2151 1854 
2117 2151 2118 1820 
1820 1853 2150 2151 
2117 2151 1820 2150 
2118 1820 2151 1821 
2151 1820 1854 1821 
1821 1854 2152 1855 
2118 2152 2119 1821 
1821 1854 2151 2152 
2118 2152 1821 2151 
2119 1821 2152 1822 
2152 1821 1855 1822 
1822 1855 2153 1856 
2119 2153 2120 1822 
1822 1855 2152 2153 
2119 2153 1822 2152 
2120 1822 2153 1823 
2153 1822 1856 1823 
1823 1856 2154 1857 
2120 2154 2121 1823 
1823 1856 2153 2154 
2120 2154 1823 2153 
2121 1823 2154 1824 
2154 1823 1857 1824 
1824 1857 2155 1858 
2121 2155 2122 1824 
1824 1857 2154 2155 
2121 2155 1824 2154 
2122 1824 2155 1825 
2155 1824 1858 1825 
1825 1858 2156 1859 
2122 2156 2123 1825 
1825 1858 2155 2156 
2122 2156 1825 2155 
2123 1825 2156 1826 
2156 1825 1859 1826 
1826 1859 2157 1860 
2123 2157 2124 1826 
1826 1859 2156 2157 
2123 2157 1826 2156 
2124 1826 2157 1827 
2157 1826 1860 1827 
1827 1860 2158 1861 
2124 2158 2125 1827 
1827 1860 2157 2158 
2124 2158 1827 2157 
2125 1827 2158 1828 
2158 1827 1861 1828 
1828 1861 2159 1862 
2125 2159 2126 1828 
1828 1861 2158 2159 
2125 2159 1828 2158 
2126 1828 2159 1829 
2159 1828 1862 1829 
1829 1862 2160 1863 
2126 2160 2127 1829 
1829 1862 2159 2160 
2126 2160 1829 2159 
2127 1829 2160 1830 
2160 1829 1863 1830 
1830 1863 2161 1864 
2127 2161 2128 1830 
1830 1863 2160 2161 
2127 2161 1830 2160 
2128 1830 2161 1831 
2161 1830 1864 1831 
1831 1864 2162 1865 
2128 2162 2129 1831 
1831 1864 2161 2162 
2128 2162 1831 2161 
2129 1831 2162 1832 
2162 1831 1865 1832 
1832 1865 2163 1866 
2129 2163 2130 1832 
1832 1865 2162 2163 
2129 2163 1832 2162 
2130 1832 2163 1833 
2163 1832 1866 1833 
1833 1866 2164 1867 
2130 2164 2131 1833 
1833 1866 2163 2164 
2130 2164 1833 2163 
2131 1833 2164 1834 
2164 1833 1867 1834 
1834 1867 2165 1868 
2131 2165 2132 1834 
1834 1867 2164 2165 
2131 2165 1834 2164 
2132 1834 2165 1835 
2165 1834 1868 1835 
1835 1868 2166 1869 
2132 2166 2133 1835 
1835 1868 2165 2166 
2132 2166 1835 2165 
2133 1835 2166 1836 
2166 1835 1869 1836 
1836 1869 2167 1870 
2133 2167 2134 1836 
1836 1869 2166 2167 
2133 2167 1836 2166 
2134 1836 2167 1837 
2167 1836 1870 1837 
1837 1870 2168 1871 
2134 2168 2135 1837 
1837 1870 2167 2168 
2134 2168 1837 2167 
2135 1837 2168 1838 
2168 1837 1871 1838 
1838 1871 2169 1872 
2135 2169 2136 1838 
1838 1871 2168 2169 
2135 2169 1838 2168 
2136 1838 2169 1839 
2169 1838 1872 1839 
1839 1872 2170 1873 
2136 2170 2137 1839 
1839 1872 2169 2170 
2136 2170 1839 2169 
2137 1839 2170 1840 
2170 1839 1873 1840 
1840 1873 2171 1874 
2137 2171 2138 1840 
1840 1873 2170 2171 
2137 2171 1840 2170 
2138 1840 2171 1841 
2171 1840 1874 1841 
1841 1874 2172 1875 
2138 2172 2139 1841 
1841 1874 2171 2172 
2138 2172 1841 2171 
2139 1841 2172 1842 
2172 1841 1875 1842 
1842 1875 2173 1876 
2139 2173 2140 1842 
1842 1875 2172 2173 
2139 2173 1842 2172 
2140 1842 2173 1843 
2173 1842 1876 1843 
1843 1876 2174 1877 
2140 2174 2141 1843 
1843 1876 2173 2174 
2140 2174 1843 2173 
2141 1843 2174 1844 
2174 1843 1877 1844 
1844 1877 2175 1878 
2141 2175 2142 1844 
1844 1877 2174 2175 
2141 2175 1844 2174 
2142 1844 2175 1845 
2175 1844 1878 1845 
1845 1878 2176 1879 
2142 2176 2143 1845 
1845 1878 2175 2176 
2142 2176 1845 2175 
2143 1845 2176 1846 
2176 1845 1879 1846 
1846 1879 2177 1880 
2143 2177 2144 1846 
1846 1879 2176 2177 
2143 2177 1846 2176 
2144 1846 2177 1847 
2177 1846 1880 1847 
1848 1881 2179 1882 
2145 2179 2146 1848 
1848 1881 2178 2179 
2145 2179 1848 2178 
2146 1848 2179 1849 
2179 1848 1882 1849 
1849 1882 2180 1883 
2146 2180 2147 1849 
1849 1882 2179 2180 
2146 2180 1849 2179 
2147 1849 2180 1850 
2180 1849 1883 1850 
1850 1883 2181 1884 
2147 2181 2148 1850 
1850 1883 2180 2181 
2147 2181 1850 2180 
2148 1850 2181 1851 
2181 1850 1884 1851 
1851 1884 2182 1885 
2148 2182 2149 1851 
1851 1884 2181 2182 
2148 2182 1851 2181 
2149 1851 2182 1852 
2182 1851 1885 1852 
1852 1885 2183 1886 
2149 2183 2150 1852 
1852 1885 2182 2183 
2149 2183 1852 2182 
2150 1852 2183 1853 
2183 1852 1886 1853 
1853 1886 2184 1887 
2150 2184 2151 1853 
1853 1886 2183 2184 
2150 2184 1853 2183 
2151 1853 2184 1854 
2184 1853 1887 1854 
1854 1887 2185 1888 
2151 2185 2152 1854 
1854 1887 2184 2185 
2151 2185 1854 2184 
2152 1854 2185 1855 
2185 1854 1888 1855 
1855 1888 2186 1889 
2152 2186 2153 1855 
1855 1888 2185 2186 
2152 2186 1855 2185 
2153 1855 2186 1856 
2186 1855 1889 1856 
1856 1889 2187 1890 
2153 2187 2154 1856 
1856 1889 2186 2187 
2153 2187 1856 2186 
2154 1856 2187 1857 
2187 1856 1890 1857 
1857 1890 2188 1891 
2154 2188 2155 1857 
1857 1890 2187 2188 
2154 2188 1857 2187 
2155 1857 2188 1858 
2188 1857 1891 1858 
1858 1891 2189 1892 
2155 2189 2156 1858 
1858 1891 2188 2189 
2155 2189 1858 2188 
2156 1858 2189 1859 
2189 1858 1892 1859 
1859 1892 2190 1893 
2156 2190 2157 1859 
1859 1892 2189 2190 
2156 2190 1859 2189 
2157 1859 2190 1860 
2190 1859 1893 1860 
1860 1893 2191 1894 
2157 2191 2158 1860 
1860 1893 2190 2191 
2157 2191 1860 2190 
2158 1860 2191 1861 
2191 1860 1894 1861 
1861 1894 2192 1895 
2158 2192 2159 1861 
1861 1894 2191 2192 
2158 2192 1861 2191 
2159 1861 2192 1862 
2192 1861 1895 1862 
1862 1895 2193 1896 
2159 2193 2160 1862 
1862 1895 2192 2193 
2159 2193 1862 2192 
2160 1862 2193 1863 
2193 1862 1896 1863 
1863 1896 2194 1897 
2160 2194 2161 1863 
1863 1896 2193 2194 
2160 2194 1863 2193 
2161 1863 2194 1864 
2194 1863 1897 1864 
1864 1897 2195 1898 
2161 2195 2162 1864 
1864 1897 2194 2195 
2161 2195 1864 2194 
2162 1864 2195 1865 
2195 1864 1898 1865 
1865 1898 2196 1899 
2162 2196 2163 1865 
1865 1898 2195 2196 
2162 2196 1865 2195 
2163 1865 2196 1866 
2196 1865 1899 1866 
1866 1899 2197 1900 
2163 2197 2164 1866 
1866 1899 2196 2197 
2163 2197 1866 2196 
2164 1866 2197 1867 
2197 1866 1900 1867 
1867 1900 2198 1901 
2164 2198 2165 1867 
1867 1900 2197 2198 
2164 2198 1867 2197 
2165 1867 2198 1868 
2198 1867 1901 1868 
1868 1901 2199 1902 
2165 2199 2166 1868 
1868 1901 2198 2199 
2165 2199 1868 2198 
2166 1868 2199 1869 
2199 1868 1902 1869 
1869 1902 2200 1903 
2166 2200 2167 1869 
1869 1902 2199 2200 
2166 2200 1869 2199 
2167 1869 2200 1870 
2200 1869 1903 1870 
1870 1903 2201 1904 
2167 2201 2168 1870 
1870 1903 2200 2201 
2167 2201 1870 2200 
2168 1870 2201 1871 
2201 1870 1904 1871 
1871 1904 2202 1905 
2168 2202 2169 1871 
1871 1904 2201 2202 
2168 2202 1871 2201 
2169 1871 2202 1872 
2202 1871 1905 1872 
1872 1905 2203 1906 
2169 2203 2170 1872 
1872 1905 2202 2203 
2169 2203 1872 2202 
2170 1872 2203 1873 
2203 1872 1906 1873 
1873 1906 2204 1907 
2170 2204 2171 1873 
1873 1906 2203 2204 
2170 2204 1873 2203 
2171 1873 2204 1874 
2204 1873 1907 1874 
1874 1907 2205 1908 
2171 2205 2172 1874 
1874 1907 2204 2205 
2171 2205 1874 2204 
2172 1874 2205 1875 
2205 1874 1908 1875 
1875 1908 2206 1909 
2172 2206 2173 1875 
1875 1908 2205 2206 
2172 2206 1875 2205 
2173 1875 2206 1876 
2206 1875 1909 1876 
1876 1909 2207 1910 
2173 2207 2174 1876 
1876 1909 2206 2207 
2173 2207 1876 2206 
2174 1876 2207 1877 
2207 1876 1910 1877 
1877 1910 2208 1911 
2174 2208 2175 1877 
1877 1910 2207 2208 
2174 2208 1877 2207 
2175 1877 2208 1878 
2208 1877 1911 1878 
1878 1911 2209 1912 
2175 2209 2176 1878 
1878 1911 2208 2209 
2175 2209 1878 2208 
2176 1878 2209 1879 
2209 1878 1912 1879 
1879 1912 2210 1913 
2176 2210 2177 1879 
1879 1912 2209 2210 
2176 2210 1879 2209 
2177 1879 2210 1880 
2210 1879 1913 1880 
1881 1914 2212 1915 
2178 2212 2179 1881 
1881 1914 2211 2212 
2178 2212 1881 2211 
2179 1881 2212 1882 
2212 1881 1915 1882 
1882 1915 2213 1916 
2179 2213 2180 1882 
1882 1915 2212 2213 
2179 2213 1882 2212 
2180 1882 2213 1883 
2213 1882 1916 1883 
1883 1916 2214 1917 
2180 2214 2181 1883 
1883 1916 2213 2214 
2180 2214 1883 2213 
2181 1883 2214 1884 
2214 1883 1917 1884 
1884 1917 2215 1918 
2181 2215 2182 1884 
1884 1917 2214 2215 
2181 2215 1884 2214 
2182 1884 2215 1885 
2215 1884 1918 1885 
1885 1918 2216 1919 
2182 2216 2183 1885 
1885 1918 2215 2216 
2182 2216 1885 2215 
2183 1885 2216 1886 
2216 1885 1919 1886 
1886 1919 2217 1920 
2183 2217 2184 1886 
1886 1919 2216 2217 
2183 2217 1886 2216 
2184 1886 2217 1887 
2217 1886 1920 1887 
1887 1920 2218 1921 
2184 2218 2185 1887 
1887 1920 2217 2218 
2184 2218 1887 2217 
2185 1887 2218 1888 
2218 1887 1921 1888 
1888 1921 2219 1922 
2185 2219 2186 1888 
1888 1921 2218 2219 
2185 2219 1888 2218 
2186 1888 2219 1889 
2219 1888 1922 1889 
1889 1922 2220 1923 
2186 2220 2187 1889 
1889 1922 2219 2220 
2186 2220 1889 2219 
2187 1889 2220 1890 
2220 1889 1923 1890 
1890 1923 2221 1924 
2187 2221 2188 1890 
1890 1923 2220 2221 
2187 2221 1890 2220 
2188 1890 2221 1891 
2221 1890 1924 1891 
1891 1924 2222 1925 
2188 2222 2189 1891 
1891 1924 2221 2222 
2188 2222 1891 2221 
2189 1891 2222 1892 
2222 1891 1925 1892 
1892 1925 2223 1926 
2189 2223 2190 1892 
1892 1925 2222 2223 
2189 2223 1892 2222 
2190 1892 2223 1893 
2223 1892 1926 1893 
1893 1926 2224 1927 
2190 2224 2191 1893 
1893 1926 2223 2224 
2190 2224 1893 2223 
2191 1893 2224 1894 
2224 1893 1927 1894 
1894 1927 2225 1928 
2191 2225 2192 1894 
1894 1927 2224 2225 
2191 2225 1894 2224 
2192 1894 2225 1895 
2225 1894 1928 1895 
1895 1928 2226 1929 
2192 2226 2193 1895 
1895 1928 2225 2226 
2192 2226 1895 2225 
2193 1895 2226 1896 
2226 1895 1929 1896 
1896 1929 2227 1930 
2193 2227 2194 1896 
1896 1929 2226 2227 
2193 2227 1896 2226 
2194 1896 2227 1897 
2227 1896 1930 1897 
1897 1930 2228 1931 
2194 2228 2195 1897 
1897 1930 2227 2228 
2194 2228 1897 2227 
2195 1897 2228 1898 
2228 1897 1931 1898 
1898 1931 2229 1932 
2195 2229 2196 1898 
1898 1931 2228 2229 
2195 2229 1898 2228 
2196 1898 2229 1899 
2229 1898 1932 1899 
1899 1932 2230 1933 
2196 2230 2197 1899 
1899 1932 2229 2230 
2196 2230 1899 2229 
2197 1899 2230 1900 
2230 1899 1933 1900 
1900 1933 2231 1934 
2197 2231 2198 1900 
1900 1933 2230 2231 
2197 2231 1900 2230 
2198 1900 2231 1901 
2231 1900 1934 1901 
1901 1934 2232 1935 
2198 2232 2199 1901 
1901 1934 2231 2232 
2198 2232 1901 2231 
2199 1901 2232 1902 
2232 1901 1935 1902 
1902 1935 2233 1936 
2199 2233 2200 1902 
1902 1935 2232 2233 
2199 2233 1902 2232 
2200 1902 2233 1903 
2233 1902 1936 1903 
1903 1936 2234 1937 
2200 2234 2201 1903 
1903 1936 2233 2234 
2200 2234 1903 2233 
2201 1903 2234 1904 
2234 1903 1937 1904 
1904 1937 2235 1938 
2201 2235 2202 1904 
1904 1937 2234 2235 
2201 2235 1904 2234 
2202 1904 2235 1905 
2235 1904 1938 1905 
1905 1938 2236 1939 
2202 2236 2203 1905 
1905 1938 2235 2236 
2202 2236 1905 2235 
2203 1905 2236 1906 
2236 1905 1939 1906 
1906 1939 2237 1940 
2203 2237 2204 1906 
1906 1939 2236 2237 
2203 2237 1906 2236 
2204 1906 2237 1907 
2237 1906 1940 1907 
1907 1940 2238 1941 
2204 2238 2205 1907 
1907 1940 2237 2238 
2204 2238 1907 2237 
2205 1907 2238 1908 
2238 1907 1941 1908 
1908 1941 2239 1942 
2205 2239 2206 1908 
1908 1941 2238 2239 
2205 2239 1908 2238 
2206 1908 2239 1909 
2239 1908 1942 1909 
1909 1942 2240 1943 
2206 2240 2207 1909 
1909 1942 2239 2240 
2206 2240 1909 2239 
2207 1909 2240 1910 
2240 1909 1943 1910 
1910 1943 2241 1944 
2207 2241 2208 1910 
1910 1943 2240 2241 
2207 2241 1910 2240 
2208 1910 2241 1911 
2241 1910 1944 1911 
1911 1944 2242 1945 
2208 2242 2209 1911 
1911 1944 2241 2242 
2208 2242 1911 2241 
2209 1911 2242 1912 
2242 1911 1945 1912 
1912 1945 2243 1946 
2209 2243 2210 1912 
1912 1945 2242 2243 
2209 2243 1912 2242 
2210 1912 2243 1913 
2243 1912 1946 1913 
1914 1947 2245 1948 
2211 2245 2212 1914 
1914 1947 2244 2245 
2211 2245 1914 2244 
2212 1914 2245 1915 
2245 1914 1948 1915 
1915 1948 2246 1949 
2212 2246 2213 1915 
1915 1948 2245 2246 
2212 2246 1915 2245 
2213 1915 2246 1916 
2246 1915 1949 1916 
1916 1949 2247 1950 
2213 2247 2214 1916 
1916 1949 2246 2247 
2213 2247 1916 2246 
2214 1916 2247 1917 
2247 1916 1950 1917 
1917 1950 2248 1951 
2214 2248 2215 1917 
1917 1950 2247 2248 
2214 2248 1917 2247 
2215 1917 2248 1918 
2248 1917 1951 1918 
1918 1951 2249 1952 
2215 2249 2216 1918 
1918 1951 2248 2249 
2215 2249 1918 2248 
2216 1918 2249 1919 
2249 1918 1952 1919 
1919 1952 2250 1953 
2216 2250 2217 1919 
1919 1952 2249 2250 
2216 2250 1919 2249 
2217 1919 2250 1920 
2250 1919 1953 1920 
1920 1953 2251 1954 
2217 2251 2218 1920 
1920 1953 2250 2251 
2217 2251 1920 2250 
2218 1920 2251 1921 
2251 1920 1954 1921 
1921 1954 2252 1955 
2218 2252 2219 1921 
1921 1954 2251 2252 
2218 2252 1921 2251 
2219 1921 2252 1922 
2252 1921 1955 1922 
1922 1955 2253 1956 
2219 2253 2220 1922 
1922 1955 2252 2253 
2219 2253 1922 2252 
2220 1922 2253 1923 
2253 1922 1956 1923 
1923 1956 2254 1957 
2220 2254 2221 1923 
1923 1956 2253 2254 
2220 2254 1923 2253 
2221 1923 2254 1924 
2254 1923 1957 1924 
1924 1957 2255 1958 
2221 2255 2222 1924 
1924 1957 2254 2255 
2221 2255 1924 2254 
2222 1924 2255 1925 
2255 1924 1958 1925 
1925 1958 2256 1959 
2222 2256 2223 1925 
1925 1958 2255 2256 
2222 2256 1925 2255 
2223 1925 2256 1926 
2256 1925 1959 1926 
1926 1959 2257 1960 
2223 2257 2224 1926 
1926 1959 2256 2257 
2223 2257 1926 2256 
2224 1926 2257 1927 
2257 1926 1960 1927 
1927 1960 2258 1961 
2224 2258 2225 1927 
1927 1960 2257 2258 
2224 2258 1927 2257 
2225 1927 2258 1928 
2258 1927 1961 1928 
1928 1961 2259 1962 
2225 2259 2226 1928 
1928 1961 2258 2259 
2225 2259 1928 2258 
2226 1928 2259 1929 
2259 1928 1962 1929 
1929 1962 2260 1963 
2226 2260 2227 1929 
1929 1962 2259 2260 
2226 2260 1929 2259 
2227 1929 2260 1930 
2260 1929 1963 1930 
1930 1963 2261 1964 
2227 2261 2228 1930 
1930 1963 2260 2261 
2227 2261 1930 2260 
2228 1930 2261 1931 
2261 1930 1964 1931 
1931 1964 2262 1965 
2228 2262 2229 1931 
1931 1964 2261 2262 
2228 2262 1931 2261 
2229 1931 2262 1932 
2262 1931 1965 1932 
1932 1965 2263 1966 
2229 2263 2230 1932 
1932 1965 2262 2263 
2229 2263 1932 2262 
2230 1932 2263 1933 
2263 1932 1966 1933 
1933 1966 2264 1967 
2230 2264 2231 1933 
1933 1966 2263 2264 
2230 2264 1933 2263 
2231 1933 2264 1934 
2264 1933 1967 1934 
1934 1967 2265 1968 
2231 2265 2232 1934 
1934 1967 2264 2265 
2231 2265 1934 2264 
2232 1934 2265 1935 
2265 1934 1968 1935 
1935 1968 2266 1969 
2232 2266 2233 1935 
1935 1968 2265 2266 
2232 2266 1935 2265 
2233 1935 2266 1936 
2266 1935 1969 1936 
1936 1969 2267 1970 
2233 2267 2234 1936 
1936 1969 2266 2267 
2233 2267 1936 2266 
2234 1936 2267 1937 
2267 1936 1970 1937 
1937 1970 2268 1971 
2234 2268 2235 1937 
1937 1970 2267 2268 
2234 2268 1937 2267 
2235 1937 2268 1938 
2268 1937 1971 1938 
1938 1971 2269 1972 
2235 2269 2236 1938 
1938 1971 2268 2269 
2235 2269 1938 2268 
2236 1938 2269 1939 
2269 1938 1972 1939 
1939 1972 2270 1973 
2236 2270 2237 1939 
1939 1972 2269 2270 
2236 2270 1939 2269 
2237 1939 2270 1940 
2270 1939 1973 1940 
1940 1973 2271 1974 
2237 2271 2238 1940 
1940 1973 2270 2271 
2237 2271 1940 2270 
2238 1940 2271 1941 
2271 1940 1974 1941 
1941 1974 2272 1975 
2238 2272 2239 1941 
1941 1974 2271 2272 
2238 2272 1941 2271 
2239 1941 2272 1942 
2272 1941 1975 1942 
1942 1975 2273 1976 
2239 2273 2240 1942 
1942 1975 2272 2273 
2239 2273 1942 2272 
2240 1942 2273 1943 
2273 1942 1976 1943 
1943 1976 2274 1977 
2240 2274 2241 1943 
1943 1976 2273 2274 
2240 2274 1943 2273 
2241 1943 2274 1944 
2274 1943 1977 1944 
1944 1977 2275 1978 
2241 2275 2242 1944 
1944 1977 2274 2275 
2241 2275 1944 2274 
2242 1944 2275 1945 
2275 1944 1978 1945 
1945 1978 2276 1979 
2242 2276 2243 1945 
1945 1978 2275 2276 
2242 2276 1945 2275 
2243 1945 2276 1946 
2276 1945 1979 1946 
1947 1980 2278 1981 
2244 2278 2245 1947 
1947 1980 2277 2278 
2244 2278 1947 2277 
2245 1947 2278 1948 
2278 1947 1981 1948 
1948 1981 2279 1982 
2245 2279 2246 1948 
1948 1981 2278 2279 
2245 2279 1948 2278 
2246 1948 2279 1949 
2279 1948 1982 1949 
1949 1982 2280 1983 
2246 2280 2247 1949 
1949 1982 2279 2280 
2246 2280 1949 2279 
2247 1949 2280 1950 
2280 1949 1983 1950 
1950 1983 2281 1984 
2247 2281 2248 1950 
1950 1983 2280 2281 
2247 2281 1950 2280 
2248 1950 2281 1951 
2281 1950 1984 1951 
1951 1984 2282 1985 
2248 2282 2249 1951 
1951 1984 2281 2282 
2248 2282 1951 2281 
2249 1951 2282 1952 
2282 1951 1985 1952 
1952 1985 2283 1986 
2249 2283 2250 1952 
1952 1985 2282 2283 
2249 2283 1952 2282 
2250 1952 2283 1953 
2283 1952 1986 1953 
1953 1986 2284 1987 
2250 2284 2251 1953 
1953 1986 2283 2284 
2250 2284 1953 2283 
2251 1953 2284 1954 
2284 1953 1987 1954 
1954 1987 2285 1988 
2251 2285 2252 1954 
1954 1987 2284 2285 
2251 2285 1954 2284 
2252 1954 2285 1955 
2285 1954 1988 1955 
1955 1988 2286 1989 
2252 2286 2253 1955 
1955 1988 2285 2286 
2252 2286 1955 2285 
2253 1955 2286 1956 
2286 1955 1989 1956 
1956 1989 2287 1990 
2253 2287 2254 1956 
1956 1989 2286 2287 
2253 2287 1956 2286 
2254 1956 2287 1957 
2287 1956 1990 1957 
1957 1990 2288 1991 
2254 2288 2255 1957 
1957 1990 2287 2288 
2254 2288 1957 2287 
2255 1957 2288 1958 
2288 1957 1991 1958 
1958 1991 2289 1992 
2255 2289 2256 1958 
1958 1991 2288 2289 
2255 2289 1958 2288 
2256 1958 2289 1959 
2289 1958 1992 1959 
1959 1992 2290 1993 
2256 2290 2257 1959 
1959 1992 2289 2290 
2256 2290 1959 2289 
2257 1959 2290 1960 
2290 1959 1993 1960 
1960 1993 2291 1994 
2257 2291 2258 1960 
1960 1993 2290 2291 
2257 2291 1960 2290 
2258 1960 2291 1961 
2291 1960 1994 1961 
1961 1994 2292 1995 
2258 2292 2259 1961 
1961 1994 2291 2292 
2258 2292 1961 2291 
2259 1961 2292 1962 
2292 1961 1995 1962 
1962 1995 2293 1996 
2259 2293 2260 1962 
1962 1995 2292 2293 
2259 2293 1962 2292 
2260 1962 2293 1963 
2293 1962 1996 1963 
1963 1996 2294 1997 
2260 2294 2261 1963 
1963 1996 2293 2294 
2260 2294 1963 2293 
2261 1963 2294 1964 
2294 1963 1997 1964 
1964 1997 2295 1998 
2261 2295 2262 1964 
1964 1997 2294 2295 
2261 2295 1964 2294 
2262 1964 2295 1965 
2295 1964 1998 1965 
1965 1998 2296 1999 
2262 2296 2263 1965 
1965 1998 2295 2296 
2262 2296 1965 2295 
2263 1965 2296 1966 
2296 1965 1999 1966 
1966 1999 2297 2000 
2263 2297 2264 1966 
1966 1999 2296 2297 
2263 2297 1966 2296 
2264 1966 2297 1967 
2297 1966 2000 1967 
1967 2000 2298 2001 
2264 2298 2265 1967 
1967 2000 2297 2298 
2264 2298 1967 2297 
2265 1967 2298 1968 
2298 1967 2001 1968 
1968 2001 2299 2002 
2265 2299 2266 1968 
1968 2001 2298 2299 
2265 2299 1968 2298 
2266 1968 2299 1969 
2299 1968 2002 1969 
1969 2002 2300 2003 
2266 2300 2267 1969 
1969 2002 2299 2300 
2266 2300 1969 2299 
2267 1969 2300 1970 
2300 1969 2003 1970 
1970 2003 2301 2004 
2267 2301 2268 1970 
1970 2003 2300 2301 
2267 2301 1970 2300 
2268 1970 2301 1971 
2301 1970 2004 1971 
1971 2004 2302 2005 
2268 2302 2269 1971 
1971 2004 2301 2302 
2268 2302 1971 2301 
2269 1971 2302 1972 
2302 1971 2005 1972 
1972 2005 2303 2006 
2269 2303 2270 1972 
1972 2005 2302 2303 
2269 2303 1972 2302 
2270 1972 2303 1973 
2303 1972 2006 1973 
1973 2006 2304 2007 
2270 2304 2271 1973 
1973 2006 2303 2304 
2270 2304 1973 2303 
2271 1973 2304 1974 
2304 1973 2007 1974 
1974 2007 2305 2008 
2271 2305 2272 1974 
1974 2007 2304 2305 
2271 2305 1974 2304 
2272 1974 2305 1975 
2305 1974 2008 1975 
1975 2008 2306 2009 
2272 2306 2273 1975 
1975 2008 2305 2306 
2272 2306 1975 2305 
2273 1975 2306 1976 
2306 1975 2009 1976 
1976 2009 2307 2010 
2273 2307 2274 1976 
1976 2009 2306 2307 
2273 2307 1976 2306 
2274 1976 2307 1977 
2307 1976 2010 1977 
1977 2010 2308 2011 
2274 2308 2275 1977 
1977 2010 2307 2308 
2274 2308 1977 2307 
2275 1977 2308 1978 
2308 1977 2011 1978 
1978 2011 2309 2012 
2275 2309 2276 1978 
1978 2011 2308 2309 
2275 2309 1978 2308 
2276 1978 2309 1979 
2309 1978 2012 1979 
1980 2013 2311 2014 
2277 2311 2278 1980 
1980 2013 2310 2311 
2277 2311 1980 2310 
2278 1980 2311 1981 
2311 1980 2014 1981 
1981 2014 2312 2015 
2278 2312 2279 1981 
1981 2014 2311 2312 
2278 2312 1981 2311 
2279 1981 2312 1982 
2312 1981 2015 1982 
1982 2015 2313 2016 
2279 2313 2280 1982 
1982 2015 2312 2313 
2279 2313 1982 2312 
2280 1982 2313 1983 
2313 1982 2016 1983 
1983 2016 2314 2017 
2280 2314 2281 1983 
1983 2016 2313 2314 
2280 2314 1983 2313 
2281 1983 2314 1984 
2314 1983 2017 1984 
1984 2017 2315 2018 
2281 2315 2282 1984 
1984 2017 2314 2315 
2281 2315 1984 2314 
2282 1984 2315 1985 
2315 1984 2018 1985 
1985 2018 2316 2019 
2282 2316 2283 1985 
1985 2018 2315 2316 
2282 2316 1985 2315 
2283 1985 2316 1986 
2316 1985 2019 1986 
1986 2019 2317 2020 
2283 2317 2284 1986 
1986 2019 2316 2317 
2283 2317 1986 2316 
2284 1986 2317 1987 
2317 1986 2020 1987 
1987 2020 2318 2021 
2284 2318 2285 1987 
1987 2020 2317 2318 
2284 2318 1987 2317 
2285 1987 2318 1988 
2318 1987 2021 1988 
1988 2021 2319 2022 
2285 2319 2286 1988 
1988 2021 2318 2319 
2285 2319 1988 2318 
2286 1988 2319 1989 
2319 1988 2022 1989 
1989 2022 2320 2023 
2286 2320 2287 1989 
1989 2022 2319 2320 
2286 2320 1989 2319 
2287 1989 2320 1990 
2320 1989 2023 1990 
1990 2023 2321 2024 
2287 2321 2288 1990 
1990 2023 2320 2321 
2287 2321 1990 2320 
2288 1990 2321 1991 
2321 1990 2024 1991 
1991 2024 2322 2025 
2288 2322 2289 1991 
1991 2024 2321 2322 
2288 2322 1991 2321 
2289 1991 2322 1992 
2322 1991 2025 1992 
1992 2025 2323 2026 
2289 2323 2290 1992 
1992 2025 2322 2323 
2289 2323 1992 2322 
2290 1992 2323 1993 
2323 1992 2026 1993 
1993 2026 2324 2027 
2290 2324 2291 1993 
1993 2026 2323 2324 
2290 2324 1993 2323 
2291 1993 2324 1994 
2324 1993 2027 1994 
1994 2027 2325 2028 
2291 2325 2292 1994 
1994 2027 2324 2325 
2291 2325 1994 2324 
2292 1994 2325 1995 
2325 1994 2028 1995 
1995 2028 2326 2029 
2292 2326 2293 1995 
1995 2028 2325 2326 
2292 2326 1995 2325 
2293 1995 2326 1996 
2326 1995 2029 1996 
1996 2029 2327 2030 
2293 2327 2294 1996 
1996 2029 2326 2327 
2293 2327 1996 2326 
2294 1996 2327 1997 
2327 1996 2030 1997 
1997 2030 2328 2031 
2294 2328 2295 1997 
1997 2030 2327 2328 
2294 2328 1997 2327 
2295 1997 2328 1998 
2328 1997 2031 1998 
1998 2031 2329 2032 
2295 2329 2296 1998 
1998 2031 2328 2329 
2295 2329 1998 2328 
2296 1998 2329 1999 
2329 1998 2032 1999 
1999 2032 2330 2033 
2296 2330 2297 1999 
1999 2032 2329 2330 
2296 2330 1999 2329 
2297 1999 2330 2000 
2330 1999 2033 2000 
2000 2033 2331 2034 
2297 2331 2298 2000 
2000 2033 2330 2331 
2297 2331 2000 2330 
2298 2000 2331 2001 
2331 2000 2034 2001 
2001 2034 2332 2035 
2298 2332 2299 2001 
2001 2034 2331 2332 
2298 2332 2001 2331 
2299 2001 2332 2002 
2332 2001 2035 2002 
2002 2035 2333 2036 
2299 2333 2300 2002 
2002 2035 2332 2333 
2299 2333 2002 2332 
2300 2002 2333 2003 
2333 2002 2036 2003 
2003 2036 2334 2037 
2300 2334 2301 2003 
2003 2036 2333 2334 
2300 2334 2003 2333 
2301 2003 2334 2004 
2334 2003 2037 2004 
2004 2037 2335 2038 
2301 2335 2302 2004 
2004 2037 2334 2335 
2301 2335 2004 2334 
2302 2004 2335 2005 
2335 2004 2038 2005 
2005 2038 2336 2039 
2302 2336 2303 2005 
2005 2038 2335 2336 
2302 2336 2005 2335 
2303 2005 2336 2006 
2336 2005 2039 2006 
2006 2039 2337 2040 
2303 2337 2304 2006 
2006 2039 2336 2337 
2303 2337 2006 2336 
2304 2006 2337 2007 
2337 2006 2040 2007 
2007 2040 2338 2041 
2304 2338 2305 2007 
2007 2040 2337 2338 
2304 2338 2007 2337 
2305 2007 2338 2008 
2338 2007 2041 2008 
2008 2041 2339 2042 
2305 2339 2306 2008 
2008 2041 2338 2339 
2305 2339 2008 2338 
2306 2008 2339 2009 
2339 2008 2042 2009 
2009 2042 2340 2043 
2306 2340 2307 2009 
2009 2042 2339 2340 
2306 2340 2009 2339 
2307 2009 2340 2010 
2340 2009 2043 2010 
2010 2043 2341 2044 
2307 2341 2308 2010 
2010 2043 2340 2341 
2307 2341 2010 2340 
2308 2010 2341 2011 
2341 2010 2044 2011 
2011 2044 2342 2045 
2308 2342 2309 2011 
2011 2044 2341 2342 
2308 2342 2011 2341 
2309 2011 2342 2012 
2342 2011 2045 2012 
2013 2046 2344 2047 
2310 2344 2311 2013 
2013 2046 2343 2344 
2310 2344 2013 2343 
2311 2013 2344 2014 
2344 2013 2047 2014 
2014 2047 2345 2048 
2311 2345 2312 2014 
2014 2047 2344 2345 
2311 2345 2014 2344 
2312 2014 2345 2015 
2345 2014 2048 2015 
2015 2048 2346 2049 
2312 2346 2313 2015 
2015 2048 2345 2346 
2312 2346 2015 2345 
2313 2015 2346 2016 
2346 2015 2049 2016 
2016 2049 2347 2050 
2313 2347 2314 2016 
2016 2049 2346 2347 
2313 2347 2016 2346 
2314 2016 2347 2017 
2347 2016 2050 2017 
2017 2050 2348 2051 
2314 2348 2315 2017 
2017 2050 2347 2348 
2314 2348 2017 2347 
2315 2017 2348 2018 
2348 2017 2051 2018 
2018 2051 2349 2052 
2315 2349 2316 2018 
2018 2051 2348 2349 
2315 2349 2018 2348 
2316 2018 2349 2019 
2349 2018 2052 2019 
2019 2052 2350 2053 
2316 2350 2317 2019 
2019 2052 2349 2350 
2316 2350 2019 2349 
2317 2019 2350 2020 
2350 2019 2053 2020 
2020 2053 2351 2054 
2317 2351 2318 2020 
2020 2053 2350 2351 
2317 2351 2020 2350 
2318 2020 2351 2021 
2351 2020 2054 2021 
2021 2054 2352 2055 
2318 2352 2319 2021 
2021 2054 2351 2352 
2318 2352 2021 2351 
2319 2021 2352 2022 
2352 2021 2055 2022 
2022 2055 2353 2056 
2319 2353 2320 2022 
2022 2055 2352 2353 
2319 2353 2022 2352 
2320 2022 2353 2023 
2353 2022 2056 2023 
2023 2056 2354 2057 
2320 2354 2321 2023 
2023 2056 2353 2354 
2320 2354 2023 2353 
2321 2023 2354 2024 
2354 2023 2057 2024 
2024 2057 2355 2058 
2321 2355 2322 2024 
2024 2057 2354 2355 
2321 2355 2024 2354 
2322 2024 2355 2025 
2355 2024 2058 2025 
2025 2058 2356 2059 
2322 2356 2323 2025 
2025 2058 2355 2356 
2322 2356 2025 2355 
2323 2025 2356 2026 
2356 2025 2059 2026 
2026 2059 2357 2060 
2323 2357 2324 2026 
2026 2059 2356 2357 
2323 2357 2026 2356 
2324 2026 2357 2027 
2357 2026 2060 2027 
2027 2060 2358 2061 
2324 2358 2325 2027 
2027 2060 2357 2358 
2324 2358 2027 2357 
2325 2027 2358 2028 
2358 2027 2061 2028 
2028 2061 2359 2062 
2325 2359 2326 2028 
2028 2061 2358 2359 
2325 2359 2028 2358 
2326 2028 2359 2029 
2359 2028 2062 2029 
2029 2062 2360 2063 
2326 2360 2327 2029 
2029 2062 2359 2360 
2326 2360 2029 2359 
2327 2029 2360 2030 
2360 2029 2063 2030 
2030 2063 2361 2064 
2327 2361 2328 2030 
2030 2063 2360 2361 
2327 2361 2030 2360 
2328 2030 2361 2031 
2361 2030 2064 2031 
2031 2064 2362 2065 
2328 2362 2329 2031 
2031 2064 2361 2362 
2328 2362 2031 2361 
2329 2031 2362 2032 
2362 2031 2065 2032 
2032 2065 2363 2066 
2329 2363 2330 2032 
2032 2065 2362 2363 
2329 2363 2032 2362 
2330 2032 2363 2033 
2363 2032 2066 2033 
2033 2066 2364 2067 
2330 2364 2331 2033 
2033 2066 2363 2364 
2330 2364 2033 2363 
2331 2033 2364 2034 
2364 2033 2067 2034 
2034 2067 2365 2068 
2331 2365 2332 2034 
2034 2067 2364 2365 
2331 2365 2034 2364 
2332 2034 2365 2035 
2365 2034 2068 2035 
2035 2068 2366 2069 
2332 2366 2333 2035 
2035 2068 2365 2366 
2332 2366 2035 2365 
2333 2035 2366 2036 
2366 2035 2069 2036 
2036 2069 2367 2070 
2333 2367 2334 2036 
2036 2069 2366 2367 
2333 2367 2036 2366 
2334 2036 2367 2037 
2367 2036 2070 2037 
2037 2070 2368 2071 
2334 2368 2335 2037 
2037 2070 2367 2368 
2334 2368 2037 2367 
2335 2037 2368 2038 
2368 2037 2071 2038 
2038 2071 2369 2072 
2335 2369 2336 2038 
2038 2071 2368 2369 
2335 2369 2038 2368 
2336 2038 2369 2039 
2369 2038 2072 2039 
2039 2072 2370 2073 
2336 2370 2337 2039 
2039 2072 2369 2370 
2336 2370 2039 2369 
2337 2039 2370 2040 
2370 2039 2073 2040 
2040 2073 2371 2074 
2337 2371 2338 2040 
2040 2073 2370 2371 
2337 2371 2040 2370 
2338 2040 2371 2041 
2371 2040 2074 2041 
2041 2074 2372 2075 
2338 2372 2339 2041 
2041 2074 2371 2372 
2338 2372 2041 2371 
2339 2041 2372 2042 
2372 2041 2075 2042 
2042 2075 2373 2076 
2339 2373 2340 2042 
2042 2075 2372 2373 
2339 2373 2042 2372 
2340 2042 2373 2043 
2373 2042 2076 2043 
2043 2076 2374 2077 
2340 2374 2341 2043 
2043 2076 2373 2374 
2340 2374 2043 2373 
2341 2043 2374 2044 
2374 2043 2077 2044 
2044 2077 2375 2078 
2341 2375 2342 2044 
2044 2077 2374 2375 
2341 2375 2044 2374 
2342 2044 2375 2045 
2375 2044 2078 2045 
2079 2112 2410 2113 
2376 2410 2377 2079 
2079 2112 2409 2410 
2376 2410 2079 2409 
2377 2079 2410 2080 
2410 2079 2113 2080 
2080 2113 2411 2114 
2377 2411 2378 2080 
2080 2113 2410 2411 
2377 2411 2080 2410 
2378 2080 2411 2081 
2411 2080 2114 2081 
2081 2114 2412 2115 
2378 2412 2379 2081 
2081 2114 2411 2412 
2378 2412 2081 2411 
2379 2081 2412 2082 
2412 2081 2115 2082 
2082 2115 2413 2116 
2379 2413 2380 2082 
2082 2115 2412 2413 
2379 2413 2082 2412 
2380 2082 2413 2083 
2413 2082 2116 2083 
2083 2116 2414 2117 
2380 2414 2381 2083 
2083 2116 2413 2414 
2380 2414 2083 2413 
2381 2083 2414 2084 
2414 2083 2117 2084 
2084 2117 2415 2118 
2381 2415 2382 2084 
2084 2117 2414 2415 
2381 2415 2084 2414 
2382 2084 2415 2085 
2415 2084 2118 2085 
2085 2118 2416 2119 
2382 2416 2383 2085 
2085 2118 2415 2416 
2382 2416 2085 2415 
2383 2085 2416 2086 
2416 2085 2119 2086 
2086 2119 2417 2120 
2383 2417 2384 2086 
2086 2119 2416 2417 
2383 2417 2086 2416 
2384 2086 2417 2087 
2417 2086 2120 2087 
2087 2120 2418 2121 
2384 2418 2385 2087 
2087 2120 2417 2418 
2384 2418 2087 2417 
2385 2087 2418 2088 
2418 2087 2121 2088 
2088 2121 2419 2122 
2385 2419 2386 2088 
2088 2121 2418 2419 
2385 2419 2088 2418 
2386 2088 2419 2089 
2419 2088 2122 2089 
2089 2122 2420 2123 
2386 2420 2387 2089 
2089 2122 2419 2420 
2386 2420 2089 2419 
2387 2089 2420 2090 
2420 2089 2123 2090 
2090 2123 2421 2124 
2387 2421 2388 2090 
2090 2123 2420 2421 
2387 2421 2090 2420 
2388 2090 2421 2091 
2421 2090 2124 2091 
2091 2124 2422 2125 
2388 2422 2389 2091 
2091 2124 2421 2422 
2388 2422 2091 2421 
2389 2091 2422 2092 
2422 2091 2125 2092 
2092 2125 2423 2126 
2389 2423 2390 2092 
2092 2125 2422 2423 
2389 2423 2092 2422 
2390 2092 2423 2093 
2423 2092 2126 2093 
2093 2126 2424 2127 
2390 2424 2391 2093 
2093 2126 2423 2424 
2390 2424 2093 2423 
2391 2093 2424 2094 
2424 2093 2127 2094 
2094 2127 2425 2128 
2391 2425 2392 2094 
2094 2127 2424 2425 
2391 2425 2094 2424 
2392 2094 2425 2095 
2425 2094 2128 2095 
2095 2128 2426 2129 
2392 2426 2393 2095 
2095 2128 2425 2426 
2392 2426 2095 2425 
2393 2095 2426 2096 
2426 2095 2129 2096 
2096 2129 2427 2130 
2393 2427 2394 2096 
2096 2129 2426 2427 
2393 2427 2096 2426 
2394 2096 2427 2097 
2427 2096 2130 2097 
2097 2130 2428 2131 
2394 2428 2395 2097 
2097 2130 2427 2428 
2394 2428 2097 2427 
2395 2097 2428 2098 
2428 2097 2131 2098 
2098 2131 2429 2132 
2395 2429 2396 2098 
2098 2131 2428 2429 
2395 2429 2098 2428 
2396 2098 2429 2099 
2429 2098 2132 2099 
2099 2132 2430 2133 
2396 2430 2397 2099 
2099 2132 2429 2430 
2396 2430 2099 2429 
2397 2099 2430 2100 
2430 2099 2133 2100 
2100 2133 2431 2134 
2397 2431 2398 2100 
2100 2133 2430 2431 
2397 2431 2100 2430 
2398 2100 2431 2101 
2431 2100 2134 2101 
2101 2134 2432 2135 
2398 2432 2399 2101 
2101 2134 2431 2432 
2398 2432 2101 2431 
2399 2101 2432 2102 
2432 2101 2135 2102 
2102 2135 2433 2136 
2399 2433 2400 2102 
2102 2135 2432 2433 
2399 2433 2102 2432 
2400 2102 2433 2103 
2433 2102 2136 2103 
2103 2136 2434 2137 
2400 2434 2401 2103 
2103 2136 2433 2434 
2400 2434 2103 2433 
2401 2103 2434 2104 
2434 2103 2137 2104 
2104 2137 2435 2138 
2401 2435 2402 2104 
2104 2137 2434 2435 
2401 2435 2104 2434 
2402 2104 2435 2105 
2435 2104 2138 2105 
2105 2138 2436 2139 
2402 2436 2403 2105 
2105 2138 2435 2436 
2402 2436 2105 2435 
2403 2105 2436 2106 
2436 2105 2139 2106 
2106 2139 2437 2140 
2403 2437 2404 2106 
2106 2139 2436 2437 
2403 2437 2106 2436 
2404 2106 2437 2107 
2437 2106 2140 2107 
2107 2140 2438 2141 
2404 2438 2405 2107 
2107 2140 2437 2438 
2404 2438 2107 2437 
2405 2107 2438 2108 
2438 2107 2141 2108 
2108 2141 2439 2142 
2405 2439 2406 2108 
2108 2141 2438 2439 
2405 2439 2108 2438 
2406 2108 2439 2109 
2439 2108 2142 2109 
2109 2142 2440 2143 
2406 2440 2407 2109 
2109 2142 2439 2440 
2406 2440 2109 2439 
2407 2109 2440 2110 
2440 2109 2143 2110 
2110 2143 2441 2144 
2407 2441 2408 2110 
2110 2143 2440 2441 
2407 2441 2110 2440 
2408 2110 2441 2111 
2441 2110 2144 2111 
2112 2145 2443 2146 
2409 2443 2410 2112 
2112 2145 2442 2443 
2409 2443 2112 2442 
2410 2112 2443 2113 
2443 2112 2146 2113 
2113 2146 2444 2147 
2410 2444 2411 2113 
2113 2146 2443 2444 
2410 2444 2113 2443 
2411 2113 2444 2114 
2444 2113 2147 2114 
2114 2147 2445 2148 
2411 2445 2412 2114 
2114 2147 2444 2445 
2411 2445 2114 2444 
2412 2114 2445 2115 
2445 2114 2148 2115 
2115 2148 2446 2149 
2412 2446 2413 2115 
2115 2148 2445 2446 
2412 2446 2115 2445 
2413 2115 2446 2116 
2446 2115 2149 2116 
2116 2149 2447 2150 
2413 2447 2414 2116 
2116 2149 2446 2447 
2413 2447 2116 2446 
2414 2116 2447 2117 
2447 2116 2150 2117 
2117 2150 2448 2151 
2414 2448 2415 2117 
2117 2150 2447 2448 
2414 2448 2117 2447 
2415 2117 2448 2118 
2448 2117 2151 2118 
2118 2151 2449 2152 
2415 2449 2416 2118 
2118 2151 2448 2449 
2415 2449 2118 2448 
2416 2118 2449 2119 
2449 2118 2152 2119 
2119 2152 2450 2153 
2416 2450 2417 2119 
2119 2152 2449 2450 
2416 2450 2119 2449 
2417 2119 2450 2120 
2450 2119 2153 2120 
2120 2153 2451 2154 
2417 2451 2418 2120 
2120 2153 2450 2451 
2417 2451 2120 2450 
2418 2120 2451 2121 
2451 2120 2154 2121 
2121 2154 2452 2155 
2418 2452 2419 2121 
2121 2154 2451 2452 
2418 2452 2121 2451 
2419 2121 2452 2122 
2452 2121 2155 2122 
2122 2155 2453 2156 
2419 2453 2420 2122 
2122 2155 2452 2453 
2419 2453 2122 2452 
2420 2122 2453 2123 
2453 2122 2156 2123 
2123 2156 2454 2157 
2420 2454 2421 2123 
2123 2156 2453 2454 
2420 2454 2123 2453 
2421 2123 2454 2124 
2454 2123 2157 2124 
2124 2157 2455 2158 
2421 2455 2422 2124 
2124 2157 2454 2455 
2421 2455 2124 2454 
2422 2124 2455 2125 
2455 2124 2158 2125 
2125 2158 2456 2159 
2422 2456 2423 2125 
2125 2158 2455 2456 
2422 2456 2125 2455 
2423 2125 2456 2126 
2456 2125 2159 2126 
2126 2159 2457 2160 
2423 2457 2424 2126 
2126 2159 2456 2457 
2423 2457 2126 2456 
2424 2126 2457 2127 
2457 2126 2160 2127 
2127 2160 2458 2161 
2424 2458 2425 2127 
2127 2160 2457 2458 
2424 2458 2127 2457 
2425 2127 2458 2128 
2458 2127 2161 2128 
2128 2161 2459 2162 
2425 2459 2426 2128 
2128 2161 2458 2459 
2425 2459 2128 2458 
2426 2128 2459 2129 
2459 2128 2162 2129 
2129 2162 2460 2163 
2426 2460 2427 2129 
2129 2162 2459 2460 
2426 2460 2129 2459 
2427 2129 2460 2130 
2460 2129 2163 2130 
2130 2163 2461 2164 
2427 2461 2428 2130 
2130 2163 2460 2461 
2427 2461 2130 2460 
2428 2130 2461 2131 
2461 2130 2164 2131 
2131 2164 2462 2165 
2428 2462 2429 2131 
2131 2164 2461 2462 
2428 2462 2131 2461 
2429 2131 2462 2132 
2462 2131 2165 2132 
2132 2165 2463 2166 
2429 2463 2430 2132 
2132 2165 2462 2463 
2429 2463 2132 2462 
2430 2132 2463 2133 
2463 2132 2166 2133 
2133 2166 2464 2167 
2430 2464 2431 2133 
2133 2166 2463 2464 
2430 2464 2133 2463 
2431 2133 2464 2134 
2464 2133 2167 2134 
2134 2167 2465 2168 
2431 2465 2432 2134 
2134 2167 2464 2465 
2431 2465 2134 2464 
2432 2134 2465 2135 
2465 2134 2168 2135 
2135 2168 2466 2169 
2432 2466 2433 2135 
2135 2168 2465 2466 
2432 2466 2135 2465 
2433 2135 2466 2136 
2466 2135 2169 2136 
2136 2169 2467 2170 
2433 2467 2434 2136 
2136 2169 2466 2467 
2433 2467 2136 2466 
2434 2136 2467 2137 
2467 2136 2170 2137 
2137 2170 2468 2171 
2434 2468 2435 2137 
2137 2170 2467 2468 
2434 2468 2137 2467 
2435 2137 2468 2138 
2468 2137 2171 2138 
2138 2171 2469 2172 
2435 2469 2436 2138 
2138 2171 2468 2469 
2435 2469 2138 2468 
2436 2138 2469 2139 
2469 2138 2172 2139 
2139 2172 2470 2173 
2436 2470 2437 2139 
2139 2172 2469 2470 
2436 2470 2139 2469 
2437 2139 2470 2140 
2470 2139 2173 2140 
2140 2173 2471 2174 
2437 2471 2438 2140 
2140 2173 2470 2471 
2437 2471 2140 2470 
2438 2140 2471 2141 
2471 2140 2174 2141 
2141 2174 2472 2175 
2438 2472 2439 2141 
2141 2174 2471 2472 
2438 2472 2141 2471 
2439 2141 2472 2142 
2472 2141 2175 2142 
2142 2175 2473 2176 
2439 2473 2440 2142 
2142 2175 2472 2473 
2439 2473 2142 2472 
2440 2142 2473 2143 
2473 2142 2176 2143 
2143 2176 2474 2177 
2440 2474 2441 2143 
2143 2176 2473 2474 
2440 2474 2143 2473 
2441 2143 2474 2144 
2474 2143 2177 2144 
2145 2178 2476 2179 
2442 2476 2443 2145 
2145 2178 2475 2476 
2442 2476 2145 2475 
2443 2145 2476 2146 
2476 2145 2179 2146 
2146 2179 2477 2180 
2443 2477 2444 2146 
2146 2179 2476 2477 
2443 2477 2146 2476 
2444 2146 2477 2147 
2477 2146 2180 2147 
2147 2180 2478 2181 
2444 2478 2445 2147 
2147 2180 2477 2478 
2444 2478 2147 2477 
2445 2147 2478 2148 
2478 2147 2181 2148 
2148 2181 2479 2182 
2445 2479 2446 2148 
2148 2181 2478 2479 
2445 2479 2148 2478 
2446 2148 2479 2149 
2479 2148 2182 2149 
2149 2182 2480 2183 
2446 2480 2447 2149 
2149 2182 2479 2480 
2446 2480 2149 2479 
2447 2149 2480 2150 
2480 2149 2183 2150 
2150 2183 2481 2184 
2447 2481 2448 2150 
2150 2183 2480 2481 
2447 2481 2150 2480 
2448 2150 2481 2151 
2481 2150 2184 2151 
2151 2184 2482 2185 
2448 2482 2449 2151 
2151 2184 2481 2482 
2448 2482 2151 2481 
2449 2151 2482 2152 
2482 2151 2185 2152 
2152 2185 2483 2186 
2449 2483 2450 2152 
2152 2185 2482 2483 
2449 2483 2152 2482 
2450 2152 2483 2153 
2483 2152 2186 2153 
2153 2186 2484 2187 
2450 2484 2451 2153 
2153 2186 2483 2484 
2450 2484 2153 2483 
2451 2153 2484 2154 
2484 2153 2187 2154 
2154 2187 2485 2188 
2451 2485 2452 2154 
2154 2187 2484 2485 
2451 2485 2154 2484 
2452 2154 2485 2155 
2485 2154 2188 2155 
2155 2188 2486 2189 
2452 2486 2453 2155 
2155 2188 2485 2486 
2452 2486 2155 2485 
2453 2155 2486 2156 
2486 2155 2189 2156 
2156 2189 2487 2190 
2453 2487 2454 2156 
2156 2189 2486 2487 
2453 2487 2156 2486 
2454 2156 2487 2157 
2487 2156 2190 2157 
2157 2190 2488 2191 
2454 2488 2455 2157 
2157 2190 2487 2488 
2454 2488 2157 2487 
2455 2157 2488 2158 
2488 2157 2191 2158 
2158 2191 2489 2192 
2455 2489 2456 2158 
2158 2191 2488 2489 
2455 2489 2158 2488 
2456 2158 2489 2159 
2489 2158 2192 2159 
2159 2192 2490 2193 
2456 2490 2457 2159 
2159 2192 2489 2490 
2456 2490 2159 2489 
2457 2159 2490 2160 
2490 2159 2193 2160 
2160 2193 2491 2194 
2457 2491 2458 2160 
2160 2193 2490 2491 
2457 2491 2160 2490 
2458 2160 2491 2161 
2491 2160 2194 2161 
2161 2194 2492 2195 
2458 2492 2459 2161 
2161 2194 2491 2492 
2458 2492 2161 2491 
2459 2161 2492 2162 
2492 2161 2195 2162 
2162 2195 2493 2196 
2459 2493 2460 2162 
2162 2195 2492 2493 
2459 2493 2162 2492 
2460 2162 2493 2163 
2493 2162 2196 2163 
2163 2196 2494 2197 
2460 2494 2461 2163 
2163 2196 2493 2494 
2460 2494 2163 2493 
2461 2163 2494 2164 
2494 2163 2197 2164 
2164 2197 2495 2198 
2461 2495 2462 2164 
2164 2197 2494 2495 
2461 2495 2164 2494 
2462 2164 2495 2165 
2495 2164 2198 2165 
2165 2198 2496 2199 
2462 2496 2463 2165 
2165 2198 2495 2496 
2462 2496 2165 2495 
2463 2165 2496 2166 
2496 2165 2199 2166 
2166 2199 2497 2200 
2463 2497 2464 2166 
2166 2199 2496 2497 
2463 2497 2166 2496 
2464 2166 2497 2167 
2497 2166 2200 2167 
2167 2200 2498 2201 
2464 2498 2465 2167 
2167 2200 2497 2498 
2464 2498 2167 2497 
2465 2167 2498 2168 
2498 2167 2201 2168 
2168 2201 2499 2202 
2465 2499 2466 2168 
2168 2201 2498 2499 
2465 2499 2168 2498 
2466 2168 2499 2169 
2499 2168 2202 2169 
2169 2202 2500 2203 
2466 2500 2467 2169 
2169 2202 2499 2500 
2466 2500 2169 2499 
2467 2169 2500 2170 
2500 2169 2203 2170 
2170 2203 2501 2204 
2467 2501 2468 2170 
2170 2203 2500 2501 
2467 2501 2170 2500 
2468 2170 2501 2171 
2501 2170 2204 2171 
2171 2204 2502 2205 
2468 2502 2469 2171 
2171 2204 2501 2502 
2468 2502 2171 2501 
2469 2171 2502 2172 
2502 2171 2205 2172 
2172 2205 2503 2206 
2469 2503 2470 2172 
2172 2205 2502 2503 
2469 2503 2172 2502 
2470 2172 2503 2173 
2503 2172 2206 2173 
2173 2206 2504 2207 
2470 2504 2471 2173 
2173 2206 2503 2504 
2470 2504 2173 2503 
2471 2173 2504 2174 
2504 2173 2207 2174 
2174 2207 2505 2208 
2471 2505 2472 2174 
2174 2207 2504 2505 
2471 2505 2174 2504 
2472 2174 2505 2175 
2505 2174 2208 2175 
2175 2208 2506 2209 
2472 2506 2473 2175 
2175 2208 2505 2506 
2472 2506 2175 2505 
2473 2175 2506 2176 
2506 2175 2209 2176 
2176 2209 2507 2210 
2473 2507 2474 2176 
2176 2209 2506 2507 
2473 2507 2176 2506 
2474 2176 2507 2177 
2507 2176 2210 2177 
2178 2211 2509 2212 
2475 2509 2476 2178 
2178 2211 2508 2509 
2475 2509 2178 2508 
2476 2178 2509 2179 
2509 2178 2212 2179 
2179 2212 2510 2213 
2476 2510 2477 2179 
2179 2212 2509 2510 
2476 2510 2179 2509 
2477 2179 2510 2180 
2510 2179 2213 2180 
2180 2213 2511 2214 
2477 2511 2478 2180 
2180 2213 2510 2511 
2477 2511 2180 2510 
2478 2180 2511 2181 
2511 2180 2214 2181 
2181 2214 2512 2215 
2478 2512 2479 2181 
2181 2214 2511 2512 
2478 2512 2181 2511 
2479 2181 2512 2182 
2512 2181 2215 2182 
2182 2215 2513 2216 
2479 2513 2480 2182 
2182 2215 2512 2513 
2479 2513 2182 2512 
2480 2182 2513 2183 
2513 2182 2216 2183 
2183 2216 2514 2217 
2480 2514 2481 2183 
2183 2216 2513 2514 
2480 2514 2183 2513 
2481 2183 2514 2184 
2514 2183 2217 2184 
2184 2217 2515 2218 
2481 2515 2482 2184 
2184 2217 2514 2515 
2481 2515 2184 2514 
2482 2184 2515 2185 
2515 2184 2218 2185 
2185 2218 2516 2219 
2482 2516 2483 2185 
2185 2218 2515 2516 
2482 2516 2185 2515 
2483 2185 2516 2186 
2516 2185 2219 2186 
2186 2219 2517 2220 
2483 2517 2484 2186 
2186 2219 2516 2517 
2483 2517 2186 2516 
2484 2186 2517 2187 
2517 2186 2220 2187 
2187 2220 2518 2221 
2484 2518 2485 2187 
2187 2220 2517 2518 
2484 2518 2187 2517 
2485 2187 2518 2188 
2518 2187 2221 2188 
2188 2221 2519 2222 
2485 2519 2486 2188 
2188 2221 2518 2519 
2485 2519 2188 2518 
2486 2188 2519 2189 
2519 2188 2222 2189 
2189 2222 2520 2223 
2486 2520 2487 2189 
2189 2222 2519 2520 
2486 2520 2189 2519 
2487 2189 2520 2190 
2520 2189 2223 2190 
2190 2223 2521 2224 
2487 2521 2488 2190 
2190 2223 2520 2521 
2487 2521 2190 2520 
2488 2190 2521 2191 
2521 2190 2224 2191 
2191 2224 2522 2225 
2488 2522 2489 2191 
2191 2224 2521 2522 
2488 2522 2191 2521 
2489 2191 2522 2192 
2522 2191 2225 2192 
2192 2225 2523 2226 
2489 2523 2490 2192 
2192 2225 2522 2523 
2489 2523 2192 2522 
2490 2192 2523 2193 
2523 2192 2226 2193 
2193 2226 2524 2227 
2490 2524 2491 2193 
2193 2226 2523 2524 
2490 2524 2193 2523 
2491 2193 2524 2194 
2524 2193 2227 2194 
2194 2227 2525 2228 
2491 2525 2492 2194 
2194 2227 2524 2525 
2491 2525 2194 2524 
2492 2194 2525 2195 
2525 2194 2228 2195 
2195 2228 2526 2229 
2492 2526 2493 2195 
2195 2228 2525 2526 
2492 2526 2195 2525 
2493 2195 2526 2196 
2526 2195 2229 2196 
2196 2229 2527 2230 
2493 2527 2494 2196 
2196 2229 2526 2527 
2493 2527 2196 2526 
2494 2196 2527 2197 
2527 2196 2230 2197 
2197 2230 2528 2231 
2494 2528 2495 2197 
2197 2230 2527 2528 
2494 2528 2197 2527 
2495 2197 2528 2198 
2528 2197 2231 2198 
2198 2231 2529 2232 
2495 2529 2496 2198 
2198 2231 2528 2529 
2495 2529 2198 2528 
2496 2198 2529 2199 
2529 2198 2232 2199 
2199 2232 2530 2233 
2496 2530 2497 2199 
2199 2232 2529 2530 
2496 2530 2199 2529 
2497 2199 2530 2200 
2530 2199 2233 2200 
2200 2233 2531 2234 
2497 2531 2498 2200 
2200 2233 2530 2531 
2497 2531 2200 2530 
2498 2200 2531 2201 
2531 2200 2234 2201 
2201 2234 2532 2235 
2498 2532 2499 2201 
2201 2234 2531 2532 
2498 2532 2201 2531 
2499 2201 2532 2202 
2532 2201 2235 2202 
2202 2235 2533 2236 
2499 2533 2500 2202 
2202 2235 2532 2533 
2499 2533 2202 2532 
2500 2202 2533 2203 
2533 2202 2236 2203 
2203 2236 2534 2237 
2500 2534 2501 2203 
2203 2236 2533 2534 
2500 2534 2203 2533 
2501 2203 2534 2204 
2534 2203 2237 2204 
2204 2237 2535 2238 
2501 2535 2502 2204 
2204 2237 2534 2535 
2501 2535 2204 2534 
2502 2204 2535 2205 
2535 2204 2238 2205 
2205 2238 2536 2239 
2502 2536 2503 2205 
2205 2238 2535 2536 
2502 2536 2205 2535 
2503 2205 2536 2206 
2536 2205 2239 2206 
2206 2239 2537 2240 
2503 2537 2504 2206 
2206 2239 2536 2537 
2503 2537 2206 2536 
2504 2206 2537 2207 
2537 2206 2240 2207 
2207 2240 2538 2241 
2504 2538 2505 2207 
2207 2240 2537 2538 
2504 2538 2207 2537 
2505 2207 2538 2208 
2538 2207 2241 2208 
2208 2241 2539 2242 
2505 2539 2506 2208 
2208 2241 2538 2539 
2505 2539 2208 2538 
2506 2208 2539 2209 
2539 2208 2242 2209 
2209 2242 2540 2243 
2506 2540 2507 2209 
2209 2242 2539 2540 
2506 2540 2209 2539 
2507 2209 2540 2210 
2540 2209 2243 2210 
2211 2244 2542 2245 
2508 2542 2509 2211 
2211 2244 2541 2542 
2508 2542 2211 2541 
2509 2211 2542 2212 
2542 2211 2245 2212 
2212 2245 2543 2246 
2509 2543 2510 2212 
2212 2245 2542 2543 
2509 2543 2212 2542 
2510 2212 2543 2213 
2543 2212 2246 2213 
2213 2246 2544 2247 
2510 2544 2511 2213 
2213 2246 2543 2544 
2510 2544 2213 2543 
2511 2213 2544 2214 
2544 2213 2247 2214 
2214 2247 2545 2248 
2511 2545 2512 2214 
2214 2247 2544 2545 
2511 2545 2214 2544 
2512 2214 2545 2215 
2545 2214 2248 2215 
2215 2248 2546 2249 
2512 2546 2513 2215 
2215 2248 2545 2546 
2512 2546 2215 2545 
2513 2215 2546 2216 
2546 2215 2249 2216 
2216 2249 2547 2250 
2513 2547 2514 2216 
2216 2249 2546 2547 
2513 2547 2216 2546 
2514 2216 2547 2217 
2547 2216 2250 2217 
2217 2250 2548 2251 
2514 2548 2515 2217 
2217 2250 2547 2548 
2514 2548 2217 2547 
2515 2217 2548 2218 
2548 2217 2251 2218 
2218 2251 2549 2252 
2515 2549 2516 2218 
2218 2251 2548 2549 
2515 2549 2218 2548 
2516 2218 2549 2219 
2549 2218 2252 2219 
2219 2252 2550 2253 
2516 2550 2517 2219 
2219 2252 2549 2550 
2516 2550 2219 2549 
2517 2219 2550 2220 
2550 2219 2253 2220 
2220 2253 2551 2254 
2517 2551 2518 2220 
2220 2253 2550 2551 
2517 2551 2220 2550 
2518 2220 2551 2221 
2551 2220 2254 2221 
2221 2254 2552 2255 
2518 2552 2519 2221 
2221 2254 2551 2552 
2518 2552 2221 2551 
2519 2221 2552 2222 
2552 2221 2255 2222 
2222 2255 2553 2256 
2519 2553 2520 2222 
2222 2255 2552 2553 
2519 2553 2222 2552 
2520 2222 2553 2223 
2553 2222 2256 2223 
2223 2256 2554 2257 
2520 2554 2521 2223 
2223 2256 2553 2554 
2520 2554 2223 2553 
2521 2223 2554 2224 
2554 2223 2257 2224 
2224 2257 2555 2258 
2521 2555 2522 2224 
2224 2257 2554 2555 
2521 2555 2224 2554 
2522 2224 2555 2225 
2555 2224 2258 2225 
2225 2258 2556 2259 
2522 2556 2523 2225 
2225 2258 2555 2556 
2522 2556 2225 2555 
2523 2225 2556 2226 
2556 2225 2259 2226 
2226 2259 2557 2260 
2523 2557 2524 2226 
2226 2259 2556 2557 
2523 2557 2226 2556 
2524 2226 2557 2227 
2557 2226 2260 2227 
2227 2260 2558 2261 
2524 2558 2525 2227 
2227 2260 2557 2558 
2524 2558 2227 2557 
2525 2227 2558 2228 
2558 2227 2261 2228 
2228 2261 2559 2262 
2525 2559 2526 2228 
2228 2261 2558 2559 
2525 2559 2228 2558 
2526 2228 2559 2229 
2559 2228 2262 2229 
2229 2262 2560 2263 
2526 2560 2527 2229 
2229 2262 2559 2560 
2526 2560 2229 2559 
2527 2229 2560 2230 
2560 2229 2263 2230 
2230 2263 2561 2264 
2527 2561 2528 2230 
2230 2263 2560 2561 
2527 2561 2230 2560 
2528 2230 2561 2231 
2561 2230 2264 2231 
2231 2264 2562 2265 
2528 2562 2529 2231 
2231 2264 2561 2562 
2528 2562 2231 2561 
2529 2231 2562 2232 
2562 2231 2265 2232 
2232 2265 2563 2266 
2529 2563 2530 2232 
2232 2265 2562 2563 
2529 2563 2232 2562 
2530 2232 2563 2233 
2563 2232 2266 2233 
2233 2266 2564 2267 
2530 2564 2531 2233 
2233 2266 2563 2564 
2530 2564 2233 2563 
2531 2233 2564 2234 
2564 2233 2267 2234 
2234 2267 2565 2268 
2531 2565 2532 2234 
2234 2267 2564 2565 
2531 2565 2234 2564 
2532 2234 2565 2235 
2565 2234 2268 2235 
2235 2268 2566 2269 
2532 2566 2533 2235 
2235 2268 2565 2566 
2532 2566 2235 2565 
2533 2235 2566 2236 
2566 2235 2269 2236 
2236 2269 2567 2270 
2533 2567 2534 2236 
2236 2269 2566 2567 
2533 2567 2236 2566 
2534 2236 2567 2237 
2567 2236 2270 2237 
2237 2270 2568 2271 
2534 2568 2535 2237 
2237 2270 2567 2568 
2534 2568 2237 2567 
2535 2237 2568 2238 
2568 2237 2271 2238 
2238 2271 2569 2272 
2535 2569 2536 2238 
2238 2271 2568 2569 
2535 2569 2238 2568 
2536 2238 2569 2239 
2569 2238 2272 2239 
2239 2272 2570 2273 
2536 2570 2537 2239 
2239 2272 2569 2570 
2536 2570 2239 2569 
2537 2239 2570 2240 
2570 2239 2273 2240 
2240 2273 2571 2274 
2537 2571 2538 2240 
2240 2273 2570 2571 
2537 2571 2240 2570 
2538 2240 2571 2241 
2571 2240 2274 2241 
2241 2274 2572 2275 
2538 2572 2539 2241 
2241 2274 2571 2572 
2538 2572 2241 2571 
2539 2241 2572 2242 
2572 2241 2275 2242 
2242 2275 2573 2276 
2539 2573 2540 2242 
2242 2275 2572 2573 
2539 2573 2242 2572 
2540 2242 2573 2243 
2573 2242 2276 2243 
2244 2277 2575 2278 
2541 2575 2542 2244 
2244 2277 2574 2575 
2541 2575 2244 2574 
2542 2244 2575 2245 
2575 2244 2278 2245 
2245 2278 2576 2279 
2542 2576 2543 2245 
2245 2278 2575 2576 
2542 2576 2245 2575 
2543 2245 2576 2246 
2576 2245 2279 2246 
2246 2279 2577 2280 
2543 2577 2544 2246 
2246 2279 2576 2577 
2543 2577 2246 2576 
2544 2246 2577 2247 
2577 2246 2280 2247 
2247 2280 2578 2281 
2544 2578 2545 2247 
2247 2280 2577 2578 
2544 2578 2247 2577 
2545 2247 2578 2248 
2578 2247 2281 2248 
2248 2281 2579 2282 
2545 2579 2546 2248 
2248 2281 2578 2579 
2545 2579 2248 2578 
2546 2248 2579 2249 
2579 2248 2282 2249 
2249 2282 2580 2283 
2546 2580 2547 2249 
2249 2282 2579 2580 
2546 2580 2249 2579 
2547 2249 2580 2250 
2580 2249 2283 2250 
2250 2283 2581 2284 
2547 2581 2548 2250 
2250 2283 2580 2581 
2547 2581 2250 2580 
2548 2250 2581 2251 
2581 2250 2284 2251 
2251 2284 2582 2285 
2548 2582 2549 2251 
2251 2284 2581 2582 
2548 2582 2251 2581 
2549 2251 2582 2252 
2582 2251 2285 2252 
2252 2285 2583 2286 
2549 2583 2550 2252 
2252 2285 2582 2583 
2549 2583 2252 2582 
2550 2252 2583 2253 
2583 2252 2286 2253 
2253 2286 2584 2287 
2550 2584 2551 2253 
2253 2286 2583 2584 
2550 2584 2253 2583 
2551 2253 2584 2254 
2584 2253 2287 2254 
2254 2287 2585 2288 
2551 2585 2552 2254 
2254 2287 2584 2585 
2551 2585 2254 2584 
2552 2254 2585 2255 
2585 2254 2288 2255 
2255 2288 2586 2289 
2552 2586 2553 2255 
2255 2288 2585 2586 
2552 2586 2255 2585 
2553 2255 2586 2256 
2586 2255 2289 2256 
2256 2289 2587 2290 
2553 2587 2554 2256 
2256 2289 2586 2587 
2553 2587 2256 2586 
2554 2256 2587 2257 
2587 2256 2290 2257 
2257 2290 2588 2291 
2554 2588 2555 2257 
2257 2290 2587 2588 
2554 2588 2257 2587 
2555 2257 2588 2258 
2588 2257 2291 2258 
2258 2291 2589 2292 
2555 2589 2556 2258 
2258 2291 2588 2589 
2555 2589 2258 2588 
2556 2258 2589 2259 
2589 2258 2292 2259 
2259 2292 2590 2293 
2556 2590 2557 2259 
2259 2292 2589 2590 
2556 2590 2259 2589 
2557 2259 2590 2260 
2590 2259 2293 2260 
2260 2293 2591 2294 
2557 2591 2558 2260 
2260 2293 2590 2591 
2557 2591 2260 2590 
2558 2260 2591 2261 
2591 2260 2294 2261 
2261 2294 2592 2295 
2558 2592 2559 2261 
2261 2294 2591 2592 
2558 2592 2261 2591 
2559 2261 2592 2262 
2592 2261 2295 2262 
2262 2295 2593 2296 
2559 2593 2560 2262 
2262 2295 2592 2593 
2559 2593 2262 2592 
2560 2262 2593 2263 
2593 2262 2296 2263 
2263 2296 2594 2297 
2560 2594 2561 2263 
2263 2296 2593 2594 
2560 2594 2263 2593 
2561 2263 2594 2264 
2594 2263 2297 2264 
2264 2297 2595 2298 
2561 2595 2562 2264 
2264 2297 2594 2595 
2561 2595 2264 2594 
2562 2264 2595 2265 
2595 2264 2298 2265 
2265 2298 2596 2299 
2562 2596 2563 2265 
2265 2298 2595 2596 
2562 2596 2265 2595 
2563 2265 2596 2266 
2596 2265 2299 2266 
2266 2299 2597 2300 
2563 2597 2564 2266 
2266 2299 2596 2597 
2563 2597 2266 2596 
2564 2266 2597 2267 
2597 2266 2300 2267 
2267 2300 2598 2301 
2564 2598 2565 2267 
2267 2300 2597 2598 
2564 2598 2267 2597 
2565 2267 2598 2268 
2598 2267 2301 2268 
2268 2301 2599 2302 
2565 2599 2566 2268 
2268 2301 2598 2599 
2565 2599 2268 2598 
2566 2268 2599 2269 
2599 2268 2302 2269 
2269 2302 2600 2303 
2566 2600 2567 2269 
2269 2302 2599 2600 
2566 2600 2269 2599 
2567 2269 2600 2270 
2600 2269 2303 2270 
2270 2303 2601 2304 
2567 2601 2568 2270 
2270 2303 2600 2601 
2567 2601 2270 2600 
2568 2270 2601 2271 
2601 2270 2304 2271 
2271 2304 2602 2305 
2568 2602 2569 2271 
2271 2304 2601 2602 
2568 2602 2271 2601 
2569 2271 2602 2272 
2602 2271 2305 2272 
2272 2305 2603 2306 
2569 2603 2570 2272 
2272 2305 2602 2603 
2569 2603 2272 2602 
2570 2272 2603 2273 
2603 2272 2306 2273 
2273 2306 2604 2307 
2570 2604 2571 2273 
2273 2306 2603 2604 
2570 2604 2273 2603 
2571 2273 2604 2274 
2604 2273 2307 2274 
2274 2307 2605 2308 
2571 2605 2572 2274 
2274 2307 2604 2605 
2571 2605 2274 2604 
2572 2274 2605 2275 
2605 2274 2308 2275 
2275 2308 2606 2309 
2572 2606 2573 2275 
2275 2308 2605 2606 
2572 2606 2275 2605 
2573 2275 2606 2276 
2606 2275 2309 2276 
2277 2310 2608 2311 
2574 2608 2575 2277 
2277 2310 2607 2608 
2574 2608 2277 2607 
2575 2277 2608 2278 
2608 2277 2311 2278 
2278 2311 2609 2312 
2575 2609 2576 2278 
2278 2311 2608 2609 
2575 2609 2278 2608 
2576 2278 2609 2279 
2609 2278 2312 2279 
2279 2312 2610 2313 
2576 2610 2577 2279 
2279 2312 2609 2610 
2576 2610 2279 2609 
2577 2279 2610 2280 
2610 2279 2313 2280 
2280 2313 2611 2314 
2577 2611 2578 2280 
2280 2313 2610 2611 
2577 2611 2280 2610 
2578 2280 2611 2281 
2611 2280 2314 2281 
2281 2314 2612 2315 
2578 2612 2579 2281 
2281 2314 2611 2612 
2578 2612 2281 2611 
2579 2281 2612 2282 
2612 2281 2315 2282 
2282 2315 2613 2316 
2579 2613 2580 2282 
2282 2315 2612 2613 
2579 2613 2282 2612 
2580 2282 2613 2283 
2613 2282 2316 2283 
2283 2316 2614 2317 
2580 2614 2581 2283 
2283 2316 2613 2614 
2580 2614 2283 2613 
2581 2283 2614 2284 
2614 2283 2317 2284 
2284 2317 2615 2318 
2581 2615 2582 2284 
2284 2317 2614 2615 
2581 2615 2284 2614 
2582 2284 2615 2285 
2615 2284 2318 2285 
2285 2318 2616 2319 
2582 2616 2583 2285 
2285 2318 2615 2616 
2582 2616 2285 2615 
2583 2285 2616 2286 
2616 2285 2319 2286 
2286 2319 2617 2320 
2583 2617 2584 2286 
2286 2319 2616 2617 
2583 2617 2286 2616 
2584 2286 2617 2287 
2617 2286 2320 2287 
2287 2320 2618 2321 
2584 2618 2585 2287 
2287 2320 2617 2618 
2584 2618 2287 2617 
2585 2287 2618 2288 
2618 2287 2321 2288 
2288 2321 2619 2322 
2585 2619 2586 2288 
2288 2321 2618 2619 
2585 2619 2288 2618 
2586 2288 2619 2289 
2619 2288 2322 2289 
2289 2322 2620 2323 
2586 2620 2587 2289 
2289 2322 2619 2620 
2586 2620 2289 2619 
2587 2289 2620 2290 
2620 2289 2323 2290 
2290 2323 2621 2324 
2587 2621 2588 2290 
2290 2323 2620 2621 
2587 2621 2290 2620 
2588 2290 2621 2291 
2621 2290 2324 2291 
2291 2324 2622 2325 
2588 2622 2589 2291 
2291 2324 2621 2622 
2588 2622 2291 2621 
2589 2291 2622 2292 
2622 2291 2325 2292 
2292 2325 2623 2326 
2589 2623 2590 2292 
2292 2325 2622 2623 
2589 2623 2292 2622 
2590 2292 2623 2293 
2623 2292 2326 2293 
2293 2326 2624 2327 
2590 2624 2591 2293 
2293 2326 2623 2624 
2590 2624 2293 2623 
2591 2293 2624 2294 
2624 2293 2327 2294 
2294 2327 2625 2328 
2591 2625 2592 2294 
2294 2327 2624 2625 
2591 2625 2294 2624 
2592 2294 2625 2295 
2625 2294 2328 2295 
2295 2328 2626 2329 
2592 2626 2593 2295 
2295 2328 2625 2626 
2592 2626 2295 2625 
2593 2295 2626 2296 
2626 2295 2329 2296 
2296 2329 2627 2330 
2593 2627 2594 2296 
2296 2329 2626 2627 
2593 2627 2296 2626 
2594 2296 2627 2297 
2627 2296 2330 2297 
2297 2330 2628 2331 
2594 2628 2595 2297 
2297 2330 2627 2628 
2594 2628 2297 2627 
2595 2297 2628 2298 
2628 2297 2331 2298 
2298 2331 2629 2332 
2595 2629 2596 2298 
2298 2331 2628 2629 
2595 2629 2298 2628 
2596 2298 2629 2299 
2629 2298 2332 2299 
2299 2332 2630 2333 
2596 2630 2597 2299 
2299 2332 2629 2630 
2596 2630 2299 2629 
2597 2299 2630 2300 
2630 2299 2333 2300 
2300 2333 2631 2334 
2597 2631 2598 2300 
2300 2333 2630 2631 
2597 2631 2300 2630 
2598 2300 2631 2301 
2631 2300 2334 2301 
2301 2334 2632 2335 
2598 2632 2599 2301 
2301 2334 2631 2632 
2598 2632 2301 2631 
2599 2301 2632 2302 
2632 2301 2335 2302 
2302 2335 2633 2336 
2599 2633 2600 2302 
2302 2335 2632 2633 
2599 2633 2302 2632 
2600 2302 2633 2303 
2633 2302 2336 2303 
2303 2336 2634 2337 
2600 2634 2601 2303 
2303 2336 2633 2634 
2600 2634 2303 2633 
2601 2303 2634 2304 
2634 2303 2337 2304 
2304 2337 2635 2338 
2601 2635 2602 2304 
2304 2337 2634 2635 
2601 2635 2304 2634 
2602 2304 2635 2305 
2635 2304 2338 2305 
2305 2338 2636 2339 
2602 2636 2603 2305 
2305 2338 2635 2636 
2602 2636 2305 2635 
2603 2305 2636 2306 
2636 2305 2339 2306 
2306 2339 2637 2340 
2603 2637 2604 2306 
2306 2339 2636 2637 
2603 2637 2306 2636 
2604 2306 2637 2307 
2637 2306 2340 2307 
2307 2340 2638 2341 
2604 2638 2605 2307 
2307 2340 2637 2638 
2604 2638 2307 2637 
2605 2307 2638 2308 
2638 2307 2341 2308 
2308 2341 2639 2342 
2605 2639 2606 2308 
2308 2341 2638 2639 
2605 2639 2308 2638 
2606 2308 2639 2309 
2639 2308 2342 2309 
2310 2343 2641 2344 
2607 2641 2608 2310 
2310 2343 2640 2641 
2607 2641 2310 2640 
2608 2310 2641 2311 
2641 2310 2344 2311 
2311 2344 2642 2345 
2608 2642 2609 2311 
2311 2344 2641 2642 
2608 2642 2311 2641 
2609 2311 2642 2312 
2642 2311 2345 2312 
2312 2345 2643 2346 
2609 2643 2610 2312 
2312 2345 2642 2643 
2609 2643 2312 2642 
2610 2312 2643 2313 
2643 2312 2346 2313 
2313 2346 2644 2347 
2610 2644 2611 2313 
2313 2346 2643 2644 
2610 2644 2313 2643 
2611 2313 2644 2314 
2644 2313 2347 2314 
2314 2347 2645 2348 
2611 2645 2612 2314 
2314 2347 2644 2645 
2611 2645 2314 2644 
2612 2314 2645 2315 
2645 2314 2348 2315 
2315 2348 2646 2349 
2612 2646 2613 2315 
2315 2348 2645 2646 
2612 2646 2315 2645 
2613 2315 2646 2316 
2646 2315 2349 2316 
2316 2349 2647 2350 
2613 2647 2614 2316 
2316 2349 2646 2647 
2613 2647 2316 2646 
2614 2316 2647 2317 
2647 2316 2350 2317 
2317 2350 2648 2351 
2614 2648 2615 2317 
2317 2350 2647 2648 
2614 2648 2317 2647 
2615 2317 2648 2318 
2648 2317 2351 2318 
2318 2351 2649 2352 
2615 2649 2616 2318 
2318 2351 2648 2649 
2615 2649 2318 2648 
2616 2318 2649 2319 
2649 2318 2352 2319 
2319 2352 2650 2353 
2616 2650 2617 2319 
2319 2352 2649 2650 
2616 2650 2319 2649 
2617 2319 2650 2320 
2650 2319 2353 2320 
2320 2353 2651 2354 
2617 2651 2618 2320 
2320 2353 2650 2651 
2617 2651 2320 2650 
2618 2320 2651 2321 
2651 2320 2354 2321 
2321 2354 2652 2355 
2618 2652 2619 2321 
2321 2354 2651 2652 
2618 2652 2321 2651 
2619 2321 2652 2322 
2652 2321 2355 2322 
2322 2355 2653 2356 
2619 2653 2620 2322 
2322 2355 2652 2653 
2619 2653 2322 2652 
2620 2322 2653 2323 
2653 2322 2356 2323 
2323 2356 2654 2357 
2620 2654 2621 2323 
2323 2356 2653 2654 
2620 2654 2323 2653 
2621 2323 2654 2324 
2654 2323 2357 2324 
2324 2357 2655 2358 
2621 2655 2622 2324 
2324 2357 2654 2655 
2621 2655 2324 2654 
2622 2324 2655 2325 
2655 2324 2358 2325 
2325 2358 2656 2359 
2622 2656 2623 2325 
2325 2358 2655 2656 
2622 2656 2325 2655 
2623 2325 2656 2326 
2656 2325 2359 2326 
2326 2359 2657 2360 
2623 2657 2624 2326 
2326 2359 2656 2657 
2623 2657 2326 2656 
2624 2326 2657 2327 
2657 2326 2360 2327 
2327 2360 2658 2361 
2624 2658 2625 2327 
2327 2360 2657 2658 
2624 2658 2327 2657 
2625 2327 2658 2328 
2658 2327 2361 2328 
2328 2361 2659 2362 
2625 2659 2626 2328 
2328 2361 2658 2659 
2625 2659 2328 2658 
2626 2328 2659 2329 
2659 2328 2362 2329 
2329 2362 2660 2363 
2626 2660 2627 2329 
2329 2362 2659 2660 
2626 2660 2329 2659 
2627 2329 2660 2330 
2660 2329 2363 2330 
2330 2363 2661 2364 
2627 2661 2628 2330 
2330 2363 2660 2661 
2627 2661 2330 2660 
2628 2330 2661 2331 
2661 2330 2364 2331 
2331 2364 2662 2365 
2628 2662 2629 2331 
2331 2364 2661 2662 
2628 2662 2331 2661 
2629 2331 2662 2332 
2662 2331 2365 2332 
2332 2365 2663 2366 
2629 2663 2630 2332 
2332 2365 2662 2663 
2629 2663 2332 2662 
2630 2332 2663 2333 
2663 2332 2366 2333 
2333 2366 2664 2367 
2630 2664 2631 2333 
2333 2366 2663 2664 
2630 2664 2333 2663 
2631 2333 2664 2334 
2664 2333 2367 2334 
2334 2367 2665 2368 
2631 2665 2632 2334 
2334 2367 2664 2665 
2631 2665 2334 2664 
2632 2334 2665 2335 
2665 2334 2368 2335 
2335 2368 2666 2369 
2632 2666 2633 2335 
2335 2368 2665 2666 
2632 2666 2335 2665 
2633 2335 2666 2336 
2666 2335 2369 2336 
2336 2369 2667 2370 
2633 2667 2634 2336 
2336 2369 2666 2667 
2633 2667 2336 2666 
2634 2336 2667 2337 
2667 2336 2370 2337 
2337 2370 2668 2371 
2634 2668 2635 2337 
2337 2370 2667 2668 
2634 2668 2337 2667 
2635 2337 2668 2338 
2668 2337 2371 2338 
2338 2371 2669 2372 
2635 2669 2636 2338 
2338 2371 2668 2669 
2635 2669 2338 2668 
2636 2338 2669 2339 
2669 2338 2372 2339 
2339 2372 2670 2373 
2636 2670 2637 2339 
2339 2372 2669 2670 
2636 2670 2339 2669 
2637 2339 2670 2340 
2670 2339 2373 2340 
2340 2373 2671 2374 
2637 2671 2638 2340 
2340 2373 2670 2671 
2637 2671 2340 2670 
2638 2340 2671 2341 
2671 2340 2374 2341 
2341 2374 2672 2375 
2638 2672 2639 2341 
2341 2374 2671 2672 
2638 2672 2341 2671 
2639 2341 2672 2342 
2672 2341 2375 2342 
CELL_TYPES 12288
10 10 10 10 10 10 10 10 10 10 10 10 10 10 10 10 10 10 10 10 10 10 10 10 10 10 10 10 10 10 10 10 10 10 10 10 10 10 10 10 10 10 10 10 10 10 10 10 10 10 10 10 10 10 10 10 10 10 10 10 10 10 10 10 10 10 10 10 10 10 10 10 10 10 10 10 10 10 10 10 10 10 10 10 10 10 10 10 10 10 10 10 10 10 10 10 10 10 10 10 10 10 10 10 10 10 10 10 10 10 10 10 10 10 10 10 10 10 10 10 10 10 10 10 10 10 10 10 10 10 10 10 10 10 10 10 10 10 10 10 10 10 10 10 10 10 10 10 10 10 10 10 10 10 10 10 10 10 10 10 10 10 10 10 10 10 10 10 10 10 10 10 10 10 10 10 10 10 10 10 10 10 10 10 10 10 10 10 10 10 10 10 10 10 10 10 10 10 10 10 10 10 10 10 10 10 10 10 10 10 10 10 10 10 10 10 10 10 10 10 10 10 10 10 10 10 10 10 10 10 10 10 10 10 10 10 10 10 10 10 10 10 10 10 10 10 10 10 10 10 10 10 10 10 10 10 10 10 10 10 10 10 10 10 10 10 10 10 10 10 10 10 10 10 10 10 10 10 10 10 10 10 10 10 10 10 10 10 10 10 10 10 10 10 10 10 10 10 10 10 10 10 10 10 10 10 10 10 10 10 10 10 10 10 10 10 10 10 10 10 10 10 10 10 10 10 10 10 10 10 10 10 10 10 10 10 10 10 10 10 10 10 10 10 10 10 10 10 10 10 10 10 10 10 10 10 10 10 10 10 10 10 10 10 10 10 10 10 10 10 10 10 10 10 10 10 10 10 10 10 10 10 10 10 10 10 10 10 10 10 10 10 10 10 10 10 10 10 10 10 10 10 10 10 10 10 10 10 10 10 10 10 10 10 10 10 10 10 10 10 10 10 10 10 10 10 10 10 10 10 10 10 10 10 10 10 10 10 10 10 10 10 10 10 10 10 10 10 10 10 10 10 10 10 10 10 10 10 10 10 10 10 10 10 10 10 10 10 10 10 10 10 10 10 10 10 10 10 10 10 10 10 10 10 10 10 10 10 10 10 10 10 10 10 10 10 10 10 10 10 10 10 10 10 10 10 10 10 10 10 10 10 10 10 10 10 10 10 10 10 10 10 10 10 10 10 10 10 10 10 10 10 10 10 10 10 10 10 10 10 10 10 10 10 10 10 10 10 10 10 10 10 10 10 10 10 10 10 10 10 10 10 10 10 10 10 10 10 10 10 10 10 10 10 10 10 10 10 10 10 10 10 10 10 10 10 10 10 10 10 10 10 10 10 10 10 10 10 10 10 10 10 10 10 10 10 10 10 10 10 10 10 10 10 10 10 10 10 10 10 10 10 10 10 10 10 10 10 10 10 10 10 10 10 10 10 10 10 10 10 10 10 10 10 10 10 10 10 10 10 10 10 10 10 10 10 10 10 10 10 10 10 10 10 10 10 10 10 10 10 10 10 10 10 10 10 10 10 10 10 10 10 10 10 10 10 10 10 10 10 10 10 10 10 10 10 10 10 10 10 10 10 10 10 10 10 10 10 10 10 10 10 10 10 10 10 10 10 10 10 10 10 10 10 10 10 10 10 10 10 10 10 10 10 10 10 10 10 10 10 10 10 10 10 10 10 10 10 10 10 10 10 10 10 10 10 10 10 10 10 10 10 10 10 10 10 10 10 10 10 10 10 10 10 10 10 10 10 10 10 10 10 10 10 10 10 10 10 10 10 10 10 10 10 10 10 10 10 10 10 10 10 10 10 10 10 10 10 10 10 10 10 10 10 10 10 10 10 10 10 10 10 10 10 10 10 10 10 10 10 10 10 10 10 10 10 10 10 10 10 10 10 10 10 10 10 10 10 10 10 10 10 10 10 10 10 10 10 10 10 10 10 10 10 10 10 10 10 10 10 10 10 10 10 10 10 10 10 10 10 10 10 10 10 10 10 10 10 10 10 10 10 10 10 10 10 10 10 10 10 10 10 10 10 10 10 10 10 10 10 10 10 10 10 10 10 10 10 10 10 10 10 10 10 10 10 10 10 10 10 10 10 10 10 10 10 10 10 10 10 10 10 10 10 10 10 10 10 10 10 10 10 10 10 10 10 10 10 10 10 10 10 10 10 10 10 10 10 10 10 10 10 10 10 10 10 10 10 10 10 10 10 10 10 10 10 10 10 10 10 10 10 10 10 10 10 10 10 10 10 10 10 10 10 10 10 10 10 10 10 10 10 10 10 10 10 10 10 10 10 10 10 10 10 10 10 10 10 10 10 10 10 10 10 10 10 10 10 10 10 10 10 10 10 10 10 10 10 10 10 10 10 10 10 10 10 10 10 10 10 10 10 10 10 10 10 10 10 10 10 10 10 10 10 10 10 10 10 10 10 10 10 10 10 10 10 10 10 10 10 10 10 10 10 10 10 10 10 10 10 10 10 10 10 10 10 10 10 10 10 10 10 10 10 10 10 10 10 10 10 10 10 10 10 10 10 10 10 10 10 10 10 10 10 10 10 10 10 10 10 10 10 10 10 10 10 10 10 10 10 10 10 10 10 10 10 10 10 10 10 10 10 10 10 10 10 10 10 10 10 10 10 10 10 10 10 10 10 10 10 10 10 10 10 10 10 10 10 10 10 10 10 10 10 10 10 10 10 10 10 10 10 10 10 10 10 10 10 10 10 10 10 10 10 10 10 10 10 10 10 10 10 10 10 10 10 10 10 10 10 10 10 10 10 10 10 10 10 10 10 10 10 10 10 10 10 10 10 10 10 10 10 10 10 10 10 10 10 10 10 10 10 10 10 10 10 10 10 10 10 10 10 10 10 10 10 10 10 10 10 10 10 10 10 10 10 10 10 10 10 10 10 10 10 10 10 10 10 10 10 10 10 10 10 10 10 10 10 10 10 10 10 10 10 10 10 10 10 10 10 10 10 10 10 10 10 10 10 10 10 10 10 10 10 10 10 10 10 10 10 10 10 10 10 10 10 10 10 10 10 10 10 10 10 10 10 10 10 10 10 10 10 10 10 10 10 10 10 10 10 10 10 10 10 10 10 10 10 10 10 10 10 10 10 10 10 10 10 10 10 10 10 10 10 10 10 10 10 10 10 10 10 10 10 10 10 10 10 10 10 10 10 10 10 10 10 10 10 10 10 10 10 10 10 10 10 10 10 10 10 10 10 10 10 10 10 10 10 10 10 10 10 10 10 10 10 10 10 10 10 10 10 10 10 10 10 10 10 10 10 10 10 10 10 10 10 10 10 10 10 10 10 10 10 10 10 10 10 10 10 10 10 10 10 10 10 10 10 10 10 10 10 10 10 10 10 10 10 10 10 10 10 10 10 10 10 10 10 10 10 10 10 10 10 10 10 10 10 10 10 10 10 10 10 10 10 10 10 10 10 10 10 10 10 10 10 10 10 10 10 10 10 10 10 10 10 10 10 10 10 10 10 10 10 10 10 10 10 10 10 10 10 10 10 10 10 10 10 10 10 10 10 10 10 10 10 10 10 10 10 10 10 10 10 10 10 10 10 10 10 10 10 10 10 10 10 10 10 10 10 10 10 10 10 10 10 10 10 10 10 10 10 10 10 10 10 10 10 10 10 10 10 10 10 10 10 10 10 10 10 10 10 10 10 10 10 10 10 10 10 10 10 10 10 10 10 10 10 10 10 10 10 10 10 10 10 10 10 10 10 10 10 10 10 10 10 10 10 10 10 10 10 10 10 10 10 10 10 10 10 10 10 10 10 10 10 10 10 10 10 10 10 10 10 10 10 10 10 10 10 10 10 10 10 10 10 10 10 10 10 10 10 10 10 10 10 10 10 10 10 10 10 10 10 10 10 10 10 10 10 10 10 10 10 10 10 10 10 10 10 10 10 10 10 10 10 10 10 10 10 10 10 10 10 10 10 10 10 10 10 10 10 10 10 10 10 10 10 10 10 10 10 10 10 10 10 10 10 10 10 10 10 10 10 10 10 10 10 10 10 10 10 10 10 10 10 10 10 10 10 10 10 10 10 10 10 10 10 10 10 10 10 10 10 10 10 10 10 10 10 10 10 10 10 10 10 10 10 10 10 10 10 10 10 10 10 10 10 10 10 10 10 10 10 10 10 10 10 10 10 10 10 10 10 10 10 10 10 10 10 10 10 10 10 10 10 10 10 10 10 10 10 10 10 10 10 10 10 10 10 10 10 10 10 10 10 10 10 10 10 10 10 10 10 10 10 10 10 10 10 10 10 10 10 10 10 10 10 10 10 10 10 10 10 10 10 10 10 10 10 10 10 10 10 10 10 10 10 10 10 10 10 10 10 10 10 10 10 10 10 10 10 10 10 10 10 10 10 10 10 10 10 10 10 10 10 10 10 10 10 10 10 10 10 10 10 10 10 10 10 10 10 10 10 10 10 10 10 10 10 10 10 10 10 10 10 10 10 10 10 10 10 10 10 10 10 10 10 10 10 10 10 10 10 10 10 10 10 10 10 10 10 10 10 10 10 10 10 10 10 10 10 10 10 10 10 10 10 10 10 10 10 10 10 10 10 10 10 10 10 10 10 10 10 10 10 10 10 10 10 10 10 10 10 10 10 10 10 10 10 10 10 10 10 10 10 10 10 10 10 10 10 10 10 10 10 10 10 10 10 10 10 10 10 10 10 10 10 10 10 10 10 10 10 10 10 10 10 10 10 10 10 10 10 10 10 10 10 10 10 10 10 10 10 10 10 10 10 10 10 10 10 10 10 10 10 10 10 10 10 10 10 10 10 10 10 10 10 10 10 10 10 10 10 10 10 10 10 10 10 10 10 10 10 10 10 10 10 10 10 10 10 10 10 10 10 10 10 10 10 10 10 10 10 10 10 10 10 10 10 10 10 10 10 10 10 10 10 10 10 10 10 10 10 10 10 10 10 10 10 10 10 10 10 10 10 10 10 10 10 10 10 10 10 10 10 10 10 10 10 10 10 10 10 10 10 10 10 10 10 10 10 10 10 10 10 10 10 10 10 10 10 10 10 10 10 10 10 10 10 10 10 10 10 10 10 10 10 10 10 10 10 10 10 10 10 10 10 10 10 10 10 10 10 10 10 10 10 10 10 10 10 10 10 10 10 10 10 10 10 10 10 10 10 10 10 10 10 10 10 10 10 10 10 10 10 10 10 10 10 10 10 10 10 10 10 10 10 10 10 10 10 10 10 10 10 10 10 10 10 10 10 10 10 10 10 10 10 10 10 10 10 10 10 10 10 10 10 10 10 10 10 10 10 10 10 10 10 10 10 10 10 10 10 10 10 10 10 10 10 10 10 10 10 10 10 10 10 10 10 10 10 10 10 10 10 10 10 10 10 10 10 10 10 10 10 10 10 10 10 10 10 10 10 10 10 10 10 10 10 10 10 10 10 10 10 10 10 10 10 10 10 10 10 10 10 10 10 10 10 10 10 10 10 10 10 10 10 10 10 10 10 10 10 10 10 10 10 10 10 10 10 10 10 10 10 10 10 10 10 10 10 10 10 10 10 10 10 10 10 10 10 10 10 10 10 10 10 10 10 10 10 10 10 10 10 10 10 10 10 10 10 10 10 10 10 10 10 10 10 10 10 10 10 10 10 10 10 10 10 10 10 10 10 10 10 10 10 10 10 10 10 10 10 10 10 10 10 10 10 10 10 10 10 10 10 10 10 10 10 10 10 10 10 10 10 10 10 10 10 10 10 10 10 10 10 10 10 10 10 10 10 10 10 10 10 10 10 10 10 10 10 10 10 10 10 10 10 10 10 10 10 10 10 10 10 10 10 10 10 10 10 10 10 10 10 10 10 10 10 10 10 10 10 10 10 10 10 10 10 10 10 10 10 10 10 10 10 10 10 10 10 10 10 10 10 10 10 10 10 10 10 10 10 10 10 10 10 10 10 10 10 10 10 10 10 10 10 10 10 10 10 10 10 10 10 10 10 10 10 10 10 10 10 10 10 10 10 10 10 10 10 10 10 10 10 10 10 10 10 10 10 10 10 10 10 10 10 10 10 10 10 10 10 10 10 10 10 10 10 10 10 10 10 10 10 10 10 10 10 10 10 10 10 10 10 10 10 10 10 10 10 10 10 10 10 10 10 10 10 10 10 10 10 10 10 10 10 10 10 10 10 10 10 10 10 10 10 10 10 10 10 10 10 10 10 10 10 10 10 10 10 10 10 10 10 10 10 10 10 10 10 10 10 10 10 10 10 10 10 10 10 10 10 10 10 10 10 10 10 10 10 10 10 10 10 10 10 10 10 10 10 10 10 10 10 10 10 10 10 10 10 10 10 10 10 10 10 10 10 10 10 10 10 10 10 10 10 10 10 10 10 10 10 10 10 10 10 10 10 10 10 10 10 10 10 10 10 10 10 10 10 10 10 10 10 10 10 10 10 10 10 10 10 10 10 10 10 10 10 10 10 10 10 10 10 10 10 10 10 10 10 10 10 10 10 10 10 10 10 10 10 10 10 10 10 10 10 10 10 10 10 10 10 10 10 10 10 10 10 10 10 10 10 10 10 10 10 10 10 10 10 10 10 10 10 10 10 10 10 10 10 10 10 10 10 10 10 10 10 10 10 10 10 10 10 10 10 10 10 10 10 10 10 10 10 10 10 10 10 10 10 10 10 10 10 10 10 10 10 10 10 10 10 10 10 10 10 10 10 10 10 10 10 10 10 10 10 10 10 10 10 10 10 10 10 10 10 10 10 10 10 10 10 10 10 10 10 10 10 10 10 10 10 10 10 10 10 10 10 10 10 10 10 10 10 10 10 10 10 10 10 10 10 10 10 10 10 10 10 10 10 10 10 10 10 10 10 10 10 10 10 10 10 10 10 10 10 10 10 10 10 10 10 10 10 10 10 10 10 10 10 10 10 10 10 10 10 10 10 10 10 10 10 10 10 10 10 10 10 10 10 10 10 10 10 10 10 10 10 10 10 10 10 10 10 10 10 10 10 10 10 10 10 10 10 10 10 10 10 10 10 10 10 10 10 10 10 10 10 10 10 10 10 10 10 10 10 10 10 10 10 10 10 10 10 10 10 10 10 10 10 10 10 10 10 10 10 10 10 10 10 10 10 10 10 10 10 10 10 10 10 10 10 10 10 10 10 10 10 10 10 10 10 10 10 10 10 10 10 10 10 10 10 10 10 10 10 10 10 10 10 10 10 10 10 10 10 10 10 10 10 10 10 10 10 10 10 10 10 10 10 10 10 10 10 10 10 10 10 10 10 10 10 10 10 10 10 10 10 10 10 10 10 10 10 10 10 10 10 10 10 10 10 10 10 10 10 10 10 10 10 10 10 10 10 10 10 10 10 10 10 10 10 10 10 10 10 10 10 10 10 10 10 10 10 10 10 10 10 10 10 10 10 10 10 10 10 10 10 10 10 10 10 10 10 10 10 10 10 10 10 10 10 10 10 10 10 10 10 10 10 10 10 10 10 10 10 10 10 10 10 10 10 10 10 10 10 10 10 10 10 10 10 10 10 10 10 10 10 10 10 10 10 10 10 10 10 10 10 10 10 10 10 10 10 10 10 10 10 10 10 10 10 10 10 10 10 10 10 10 10 10 10 10 10 10 10 10 10 10 10 10 10 10 10 10 10 10 10 10 10 10 10 10 10 10 10 10 10 10 10 10 10 10 10 10 10 10 10 10 10 10 10 10 10 10 10 10 10 10 10 10 10 10 10 10 10 10 10 10 10 10 10 10 10 10 10 10 10 10 10 10 10 10 10 10 10 10 10 10 10 10 10 10 10 10 10 10 10 10 10 10 10 10 10 10 10 10 10 10 10 10 10 10 10 10 10 10 10 10 10 10 10 10 10 10 10 10 10 10 10 10 10 10 10 10 10 10 10 10 10 10 10 10 10 10 10 10 10 10 10 10 10 10 10 10 10 10 10 10 10 10 10 10 10 10 10 10 10 10 10 10 10 10 10 10 10 10 10 10 10 10 10 10 10 10 10 10 10 10 10 10 10 10 10 10 10 10 10 10 10 10 10 10 10 10 10 10 10 10 10 10 10 10 10 10 10 10 10 10 10 10 10 10 10 10 10 10 10 10 10 10 10 10 10 10 10 10 10 10 10 10 10 10 10 10 10 10 10 10 10 10 10 10 10 10 10 10 10 10 10 10 10 10 10 10 10 10 10 10 10 10 10 10 10 10 10 10 10 10 10 10 10 10 10 10 10 10 10 10 10 10 10 10 10 10 10 10 10 10 10 10 10 10 10 10 10 10 10 10 10 10 10 10 10 10 10 10 10 10 10 10 10 10 10 10 10 10 10 10 10 10 10 10 10 10 10 10 10 10 10 10 10 10 10 10 10 10 10 10 10 10 10 10 10 10 10 10 10 10 10 10 10 10 10 10 10 10 10 10 10 10 10 10 10 10 10 10 10 10 10 10 10 10 10 10 10 10 10 10 10 10 10 10 10 10 10 10 10 10 10 10 10 10 10 10 10 10 10 10 10 10 10 10 10 10 10 10 10 10 10 10 10 10 10 10 10 10 10 10 10 10 10 10 10 10 10 10 10 10 10 10 10 10 10 10 10 10 10 10 10 10 10 10 10 10 10 10 10 10 10 10 10 10 10 10 10 10 10 10 10 10 10 10 10 10 10 10 10 10 10 10 10 10 10 10 10 10 10 10 10 10 10 10 10 10 10 10 10 10 10 10 10 10 10 10 10 10 10 10 10 10 10 10 10 10 10 10 10 10 10 10 10 10 10 10 10 10 10 10 10 10 10 10 10 10 10 10 10 10 10 10 10 10 10 10 10 10 10 10 10 10 10 10 10 10 10 10 10 10 10 10 10 10 10 10 10 10 10 10 10 10 10 10 10 10 10 10 10 10 10 10 10 10 10 10 10 10 10 10 10 10 10 10 10 10 10 10 10 10 10 10 10 10 10 10 10 10 10 10 10 10 10 10 10 10 10 10 10 10 10 10 10 10 10 10 10 10 10 10 10 10 10 10 10 10 10 10 10 10 10 10 10 10 10 10 10 10 10 10 10 10 10 10 10 10 10 10 10 10 10 10 10 10 10 10 10 10 10 10 10 10 10 10 10 10 10 10 10 10 10 10 10 10 10 10 10 10 10 10 10 10 10 10 10 10 10 10 10 10 10 10 10 10 10 10 10 10 10 10 10 10 10 10 10 10 10 10 10 10 10 10 10 10 10 10 10 10 10 10 10 10 10 10 10 10 10 10 10 10 10 10 10 10 10 10 10 10 10 10 10 10 10 10 10 10 10 10 10 10 10 10 10 10 10 10 10 10 10 10 10 10 10 10 10 10 10 10 10 10 10 10 10 10 10 10 10 10 10 10 10 10 10 10 10 10 10 10 10 10 10 10 10 10 10 10 10 10 10 10 10 10 10 10 10 10 10 10 10 10 10 10 10 10 10 10 10 10 10 10 10 10 10 10 10 10 10 10 10 10 10 10 10 10 10 10 10 10 10 10 10 10 10 10 10 10 10 10 10 10 10 10 10 10 10 10 10 10 10 10 10 10 10 10 10 10 10 10 10 10 10 10 10 10 10 10 10 10 10 10 10 10 10 10 10 10 10 10 10 10 10 10 10 10 10 10 10 10 10 10 10 10 10 10 10 10 10 10 10 10 10 10 10 10 10 10 10 10 10 10 10 10 10 10 10 10 10 10 10 10 10 10 10 10 10 10 10 10 10 10 10 10 10 10 10 10 10 10 10 10 10 10 10 10 10 10 10 10 10 10 10 10 10 10 10 10 10 10 10 10 10 10 10 10 10 10 10 10 10 10 10 10 10 10 10 10 10 10 10 10 10 10 10 10 10 10 10 10 10 10 10 10 10 10 10 10 10 10 10 10 10 10 10 10 10 10 10 10 10 10 10 10 10 10 10 10 10 10 10 10 10 10 10 10 10 10 10 10 10 10 10 10 10 10 10 10 10 10 10 10 10 10 10 10 10 10 10 10 10 10 10 10 10 10 10 10 10 10 10 10 10 10 10 10 10 10 10 10 10 10 10 10 10 10 10 10 10 10 10 10 10 10 10 10 10 10 10 10 10 10 10 10 10 10 10 10 10 10 10 10 10 10 10 10 10 10 10 10 10 10 10 10 10 10 10 10 10 10 10 10 10 10 10 10 10 10 10 10 10 10 10 10 10 10 10 10 10 10 10 10 10 10 10 10 10 10 10 10 10 10 10 10 10 10 10 10 10 10 10 10 10 10 10 10 10 10 10 10 10 10 10 10 10 10 10 10 10 10 10 10 10 10 10 10 10 10 10 10 10 10 10 10 10 10 10 10 10 10 10 10 10 10 10 10 10 10 10 10 10 10 10 10 10 10 10 10 10 10 10 10 10 10 10 10 10 10 10 10 10 10 10 10 10 10 10 10 10 10 10 10 10 10 10 10 10 10 10 10 10 10 10 10 10 10 10 10 10 10 10 10 10 10 10 10 10 10 10 10 10 10 10 10 10 10 10 10 10 10 10 10 10 10 10 10 10 10 10 10 10 10 10 10 10 10 10 10 10 10 10 10 10 10 10 10 10 10 10 10 10 10 10 10 10 10 10 10 10 10 10 10 10 10 10 10 10 10 10 10 10 10 10 10 10 10 10 10 10 10 10 10 10 10 10 10 10 10 10 10 10 10 10 10 10 10 10 10 10 10 10 10 10 10 10 10 10 10 10 10 10 10 10 10 10 10 10 10 10 10 10 10 10 10 10 10 10 10 10 10 10 10 10 10 10 10 10 10 10 10 10 10 10 10 10 10 10 10 10 10 10 10 10 10 10 10 10 10 10 10 10 10 10 10 10 10 10 10 10 10 10 10 10 10 10 10 10 10 10 10 10 10 10 10 10 10 10 10 10 10 10 10 10 10 10 10 10 10 10 10 10 10 10 10 10 10 10 10 10 10 10 10 10 10 10 10 10 10 10 10 10 10 10 10 10 10 10 10 10 10 10 10 10 10 10 10 10 10 10 10 10 10 10 10 10 10 10 10 10 10 10 10 10 10 10 10 10 10 10 10 10 10 10 10 10 10 10 10 10 10 10 10 10 10 10 10 10 10 10 10 10 10 10 10 10 10 10 10 10 10 10 10 10 10 10 10 10 10 10 10 10 10 10 10 10 10 10 10 10 10 10 10 10 10 10 10 10 10 10 10 10 10 10 10 10 10 10 10 10 10 10 10 10 10 10 10 10 10 10 10 10 10 10 10 10 10 10 10 10 10 10 10 10 10 10 10 10 10 10 10 10 10 10 10 10 10 10 10 10 10 10 10 10 10 10 10 10 10 10 10 10 10 10 10 10 10 10 10 10 10 10 10 10 10 10 10 10 10 10 10 10 10 10 10 10 10 10 10 10 10 10 10 10 10 10 10 10 10 10 10 10 10 10 10 10 10 10 10 10 10 10 10 10 10 10 10 10 10 10 10 10 10 10 10 10 10 10 10 10 10 10 10 10 10 10 10 10 10 10 10 10 10 10 10 10 10 10 10 10 10 10 10 10 10 10 10 10 10 10 10 10 10 10 10 10 10 10 10 10 10 10 10 10 10 10 10 10 10 10 10 10 10 10 10 10 10 10 10 10 10 10 10 10 10 10 10 10 10 10 10 10 10 10 10 10 10 10 10 10 10 10 10 10 10 10 10 10 10 10 10 10 10 10 10 10 10 10 10 10 10 10 10 10 10 10 10 10 10 10 10 10 10 10 10 10 10 10 10 10 10 10 10 10 10 10 10 10 10 10 10 10 10 10 10 10 10 10 10 10 10 10 10 10 10 10 10 10 10 10 10 10 10 10 10 10 10 10 10 10 10 10 10 10 10 10 10 10 10 10 10 10 10 10 10 10 10 10 10 10 10 10 10 10 10 10 10 10 10 10 10 10 10 10 10 10 10 10 10 10 10 10 10 10 10 10 10 10 10 10 10 10 10 10 10 10 10 10 10 10 10 10 10 10 10 10 10 10 10 10 10 10 10 10 10 10 10 10 10 10 10 10 10 10 10 10 10 10 10 10 10 10 10 10 10 10 10 10 10 10 10 10 10 10 10 10 10 10 10 10 10 10 10 10 10 10 10 10 10 10 10 10 10 10 10 10 10 10 10 10 10 10 10 10 10 10 10 10 10 10 10 10 10 10 10 10 10 10 10 10 10 10 10 10 10 10 10 10 10 10 10 10 10 10 10 10 10 10 10 10 10 10 10 10 10 10 10 10 10 10 10 10 10 10 10 10 10 10 10 10 10 10 10 10 10 10 10 10 10 10 10 10 10 10 10 10 10 10 10 10 10 10 10 10 10 10 10 10 10 10 10 10 10 10 10 10 10 10 10 10 10 10 10 10 10 10 10 10 10 10 10 10 10 10 10 10 10 10 10 10 10 10 10 10 10 10 10 10 10 10 10 10 10 10 10 10 10 10 10 10 10 10 10 10 10 10 10 10 10 10 10 10 10 10 10 10 10 10 10 10 10 10 10 10 10 10 10 10 10 10 10 10 10 10 10 10 10 10 10 10 10 10 10 10 10 10 10 10 10 10 10 10 10 10 10 10 10 10 10 10 10 10 10 10 10 10 10 10 10 10 10 10 10 10 10 10 10 10 10 10 10 10 10 10 10 10 10 10 10 10 10 10 10 10 10 10 10 10 10 10 10 10 10 10 10 10 10 10 10 10 10 10 10 10 10 10 10 10 10 10 10 10 10 10 10 10 10 10 10 10 10 10 10 10 10 10 10 10 10 10 10 10 10 10 10 10 10 10 10 10 10 10 10 10 10 10 10 10 10 10 10 10 10 10 10 10 10 10 10 10 10 10 10 10 10 10 10 10 10 10 10 10 10 10 10 10 10 10 10 10 10 10 10 10 10 10 10 10 10 10 10 10 10 10 10 10 10 10 10 10 10 10 10 10 10 10 10 10 10 10 10 10 10 10 10 10 10 10 10 10 10 10 10 10 10 10 10 10 10 10 10 10 10 10 10 10 10 10 10 10 10 10 10 10 10 10 10 10 10 10 10 10 10 10 10 10 10 10 10 10 10 10 10 10 10 10 10 10 10 10 10 10 10 10 10 10 10 10 10 10 10 10 10 10 10 10 10 10 10 10 10 10 10 10 10 10 10 10 10 10 10 10 10 10 10 10 10 10 10 10 10 10 10 10 10 10 10 10 10 10 10 10 10 10 10 10 10 10 10 10 10 10 10 10 10 10 10 10 10 10 10 10 10 10 10 10 10 10 10 10 10 10 10 10 10 10 10 10 10 10 10 10 10 10 10 10 10 10 10 10 10 10 10 10 10 10 10 10 10 10 10 10 10 10 10 10 10 10 10 10 10 10 10 10 10 10 10 10 10 10 10 10 10 10 10 10 10 10 10 10 10 10 10 10 10 10 10 10 10 10 10 10 10 10 10 10 10 10 10 10 10 10 10 10 10 10 10 10 10 10 10 10 10 10 10 10 10 10 10 10 10 10 10 10 10 10 10 10 10 10 10 10 10 10 10 10 10 10 10 10 10 10 10 10 10 10 10 10 10 10 10 10 10 10 10 10 10 10 10 10 10 10 10 10 10 10 10 10 10 10 10 10 10 10 10 10 10 10 10 10 10 10 10 10 10 10 10 10 10 10 10 10 10 10 10 10 10 10 10 10 10 10 10 10 10 10 10 10 10 10 10 10 10 10 10 10 10 10 10 10 10 10 10 10 10 10 10 10 10 10 10 10 10 10 10 10 10 10 10 10 10 10 10 10 10 10 10 10 10 10 10 10 10 10 10 10 10 10 10 10 10 10 10 10 10 10 10 10 10 10 10 10 10 10 10 10 10 10 10 10 10 10 10 10 10 10 10 10 10 10 10 10 10 10 10 10 10 10 10 10 10 10 10 10 10 10 10 10 10 10 10 10 10 10 10 10 10 10 10 10 10 10 10 10 10 10 10 10 10 10 10 10 10 10 10 10 10 10 10 10 10 10 10 10 10 10 10 10 10 10 10 10 10 10 10 10 10 10 10 10 10 10 10 10 10 10 10 10 10 10 10 10 10 10 10 10 10 10 10 10 10 10 10 10 10 10 10 10 10 10 10 10 10 10 10 10 10 10 10 10 10 10 10 10 10 10 10 10 10 10 10 10 10 10 10 10 10 10 10 10 10 10 10 10 10 10 10 10 10 10 10 10 10 10 10 10 10 10 10 10 10 10 10 10 10 10 10 10 10 10 10 10 10 10 10 10 10 10 10 10 10 10 10 10 10 10 10 10 10 10 10 10 10 10 10 10 10 10 10 10 10 10 10 10 10 10 10 10 10 10 10 10 10 10 10 10 10 10 10 10 10 10 10 10 10 10 10 10 10 10 10 10 10 10 10 10 10 10 10 10 10 10 10 10 10 10 10 10 10 10 10 10 10 10 10 10 10 10 10 10 10 10 10 10 10 10 10 10 10 10 10 10 10 10 10 10 10 10 10 10 10 10 10 10 10 10 10 10 10 10 10 10 10 10 10 10 10 10 10 10 10 10 10 10 10 10 10 10 10 10 10 10 10 10 10 10 10 10 10 10 10 10 10 10 10 10 10 10 10 10 10 10 10 10 10 10 10 10 10 10 10 10 10 10 10 10 10 10 10 10 10 10 10 10 10 10 10 10 10 10 10 10 10 10 10 10 10 10 10 10 10 10 10 10 10 10 10 10 10 10 10 10 10 10 10 10 10 10 10 10 10 10 10 10 10 10 10 10 10 10 10 10 10 10 10 10 10 10 10 10 10 10 10 10 10 10 10 10 10 10 10 10 10 10 10 10 10 10 10 10 10 10 10 10 10 10 10 10 10 10 10 10 10 10 10 10 10 10 10 10 10 10 10 10 10 10 10 10 10 10 10 10 10 10 10 10 10 10 10 10 10 10 10 10 10 10 10 10 10 10 10 10 10 10 10 10 10 10 10 10 10 10 10 10 10 10 10 10 10 10 10 10 10 10 10 10 10 10 10 10 10 10 10 10 10 10 10 10 10 10 10 10 10 10 10 10 10 10 10 10 10 10 10 10 10 10 10 10 10 10 10 10 10 10 10 10 10 10 10 10 10 10 10 10 10 10 10 10 10 10 10 10 10 10 10 10 10 10 10 10 10 10 10 10 10 10 10 10 10 10 10 10 10 10 10 10 10 10 10 10 10 10 10 10 10 10 10 10 10 10 10 10 10 10 10 10 10 10 10 10 10 10 10 10 10 10 10 10 10 10 10 10 10 10 10 10 10 10 10 10 10 10 10 10 10 10 10 10 10 10 10 10 10 10 10 10 10 10 10 10 10 10 10 10 10 10 10 10 10 10 10 10 10 10 10 10 10 10 10 10 10 10 10 10 10 10 10 10 10 10 10 10 10 10 10 10 10 10 10 10 10 10 10 10 10 10 10 10 10 10 10 10 10 10 10 10 10 10 10 10 10 10 10 10 10 10 10 10 10 10 10 10 10 10 10 10 10 10 10 10 10 10 10 10 10 10 10 10 10 10 10 10 10 10 10 10 10 10 10 10 10 10 10 10 10 10 10 10 10 10 10 10 10 10 10 10 10 10 10 10 10 10 10 10 10 10 10 10 10 10 10 10 10 10 10 10 10 10 10 10 10 10 10 10 10 10 10 10 10 10 10 10 10 10 10 10 10 10 10 10 10 10 10 10 10 10 10 10 10 10 10 10 10 10 10 10 10 10 10 10 10 10 10 10 10 10 10 10 10 10 10 10 10 10 10 10 10 10 10 10 10 10 10 10 10 10 10 10 10 10 10 10 10 10 10 10 10 10 10 10 10 10 10 10 10 10 10 10 10 10 10 10 10 10 10 10 10 10 10 10 10 10 10 10 10 10 10 10 10 10 10 10 10 10 10 10 10 10 10 10 10 10 10 10 10 10 10 10 10 10 10 10 10 10 10 10 10 10 10 10 10 10 10 10 10 10 10 10 10 10 10 10 10 10 10 10 10 10 10 10 10 10 10 10 10 10 10 10 10 10 10 10 10 10 10 10 10 10 10 10 10 10 10 10 10 10 10 10 10 10 10 10 10 10 10 10 10 10 10 10 10 10 10 10 10 10 10 10 10 10 10 10 10 10 10 10 10 10 10 10 10 10 10 10 10 10 10 10 10 10 10 10 10 10 10 10 10 10 10 10 10 10 10 10 10 10 10 10 10 10 10 10 10 10 10 10 10 10 10 10 10 10 10 10 10 10 10 10 10 10 10 10 10 10 10 10 10 10 10 10 10 10 10 10 10 10 10 10 10 10 10 10 10 10 10 10 10 10 10 10 10 10 10 10 10 10 10 10 10 10 10 10 10 10 10 10 10 10 10 10 10 10 10 10 10 10 10 10 10 10 10 10 10 10 10 10 10 10 10 10 10 10 10 10 10 10 10 10 10 10 10 10 10 10 10 10 10 10 10 10 10 10 10 10 10 10 10 10 10 10 10 10 10 10 10 10 10 10 10 10 10 10 10 10 10 10 10 10 10 10 10 10 10 10 10 10 10 10 10 10 10 10 10 10 10 10 10 10 10 10 10 10 10 10 10 10 10 10 10 10 10 10 10 10 10 10 10 10 10 10 10 10 10 10 10 10 10 10 10 10 10 10 10 10 10 10 10 10 10 10 10 10 10 10 10 10 10 10 10 10 10 10 10 10 10 10 10 10 10 10 10 10 10 10 10 10 10 10 10 10 10 10 10 10 10 10 10 10 10 10 10 10 10 10 10 10 10 10 10 10 10 10 10 10 10 10 10 10 10 10 10 10 10 10 10 10 10 10 10 10 10 10 10 10 10 10 10 10 10 10 10 10 10 10 10 10 10 10 10 10 10 10 10 10 10 10 10 10 10 10 10 10 10 10 10 10 10 10 10 10 10 10 10 10 10 10 10 10 10 10 10 10 10 10 10 10 10 10 10 10 10 10 10 10 10 10 10 10 10 10 10 10 10 10 10 10 10 10 10 10 10 10 10 10 10 10 10 10 10 10 10 10 10 10 10 10 10 10 10 10 10 10 10 10 10 10 10 10 10 10 10 10 10 10 10 10 10 10 10 10 10 10 10 10 10 10 10 10 10 10 10 10 10 10 10 10 10 10 10 10 10 10 10 10 10 10 10 10 10 10 10 10 10 10 10 10 10 10 10 10 10 10 10 10 10 10 10 10 10 10 10 10 10 10 10 10 10 10 10 10 10 10 10 10 10 10 10 10 10 10 10 10 10 10 10 10 10 10 10 10 10 10 10 10 10 10 10 10 10 10 10 10 10 10 10 10 10 10 10 10 10 10 10 10 10 10 10 10 10 10 10 10 10 10 10 10 10 10 10 10 10 10 10 10 10 10 10 10 10 10 10 10 10 10 10 10 10 10 10 10 10 10 10 10 10 10 10 10 10 10 10 10 10 10 10 10 10 10 10 10 10 10 10 10 10 10 10 10 10 10 10 10 10 10 10 10 10 10 10 10 10 10 10 10 10 10 10 10 10 10 10 10 10 10 10 10 10 10 10 10 10 10 10 10 10 10 10 10 10 10 10 10 10 10 10 10 10 10 10 10 10 10 10 10 10 10 10 10 10 10 10 10 10 10 10 10 10 10 10 10 10 10 10 10 10 10 10 10 10 10 10 10 10 10 10 10 10 10 10 10 10 10 10 10 10 10 10 10 10 10 10 10 10 10 10 10 10 10 10 10 10 10 10 10 10 10 10 10 10 10 10 10 10 10 10 10 10 10 10 10 10 10 10 10 10 10 10 10 10 10 10 10 10 10 10 10 10 10 10 10 10 10 10 10 10 10 10 10 10 10 10 10 10 10 10 10 10 10 10 10 10 10 10 10 10 10 10 10 10 10 10 10 10 10 10 10 10 10 10 10 10 10 10 10 10 10 10 10 10 10 10 10 10 10 10 10 10 10 10 10 10 10 10 10 10 10 10 10 10 10 10 10 10 10 10 10 10 10 10 10 10 10 10 10 10 10 10 10 10 10 10 10 10 10 10 10 10 10 10 10 10 10 10 10 10 10 10 10 10 10 10 10 10 10 10 10 10 10 10 10 10 10 10 10 10 10 10 10 10 10 10 10 10 10 10 10 10 10 10 10 10 10 10 10 10 10 10 10 10 10 10 10 10 10 10 10 10 10 10 10 10 10 10 10 10 10 10 10 10 10 10 10 10 10 10 10 10 10 10 10 10 10 10 10 10 10 10 10 10 10 10 10 10 10 10 10 10 10 10 10 10 10 10 10 10 10 10 10 10 10 10 10 10 10 10 10 10 10 10 10 10 10 10 10 10 10 10 10 10 10 10 10 10 10 10 10 10 10 10 10 10 10 10 10 10 10 10 10 10 10 10 10 10 10 10 10 10 10 10 10 10 10 10 10 10 10 10 10 10 10 10 10 10 10 10 10 10 10 10 10 10 10 10 10 10 10 10 10 10 10 10 10 10 10 10 10 10 10 10 10 10 10 10 10 10 10 10 10 10 10 10 10 10 10 10 10 10 10 10 10 10 10 10 10 10 10 10 10 10 10 10 10 10 10 10 10 10 10 10 10 10 10 10 10 10 10 10 10 10 10 10 10 10 10 10 10 10 10 10 10 10 10 10 10 10 10 10 10 10 10 10 10 10 10 10 10 10 10 10 10 10 10 10 10 10 10 10 10 10 10 10 10 10 10 10 10 10 10 10 10 10 10 10 10 10 10 10 10 10 10 10 10 10 10 10 10 10 10 10 10 10 10 10 10 10 10 10 10 10 10 10 10 10 10 10 10 10 10 10 10 10 10 10 10 10 10 10 10 10 10 10 10 10 10 10 10 10 10 10 10 10 10 10 10 10 10 10 10 10 10 10 10 10 10 10 10 10 10 10 10 10 10 10 10 10 10 10 10 10 10 10 10 10 10 10 10 10 10 10 10 10 10 10 10 10 10 10 10 10 10 10 10 10 10 10 10 10 10 10 10 10 10 10 10 10 10 10 10 10 10 10 10 10 10 10 10 10 10 10 10 10 10 10 10 10 10 10 10 10 10 10 10 10 10 10 10 10 10 10 10 10 10 10 10 10 10 10 10 10 10 10 10 10 10 10 10 10 10 10 10 10 10 10 10 10 10 10 10 10 10 10 10 10 10 10 10 10 10 10 10 10 10 10 10 10 10 10 10 10 10 10 10 10 10 10 10 10 10 10 10 10 10 10 10 10 10 10 10 10 10 10 10 10 10 10 10 10 10 10 10 10 10 10 10 10 10 10 10 10 10 10 10 10 10 10 10 10 10 10 10 10 10 10 10 10 10 10 10 10 10 10 10 10 10 10 10 10 10 10 10 10 10 10 10 10 10 10 10 10 10 10 10 10 10 10 10 10 10 10 10 10 10 10 10 10 10 10 10 10 10 10 10 10 10 10 10 10 10 10 10 10 10 10 10 10 10 10 10 10 10 10 10 10 10 10 10 10 10 10 10 10 10 10 10 10 10 10 10 10 10 10 10 10 10 10 10 10 10 10 10 10 10 10 10 10 10 10 10 10 10 10 10 10 10 10 10 10 10 10 10 10 10 10 10 10 10 10 10 10 10 10 10 10 10 10 10 10 10 10 10 10 10 10 10 10 10 10 10 10 10 10 10 10 10 10 10 10 10 10 10 10 10 10 10 10 10 10 10 10 10 10 10 10 10 10 10 10 10 10 10 10 10 10 10 10 10 10 10 10 10 10 10 10 10 10 10 10 10 10 10 10 10 10 10 10 10 10 10 10 10 10 10 10 10 10 10 10 10 10 10 10 10 10 10 10 10 10 10 10 10 10 10 10 10 10 10 10 10 10 10 10 10 10 10 10 10 10 10 10 10 10 10 10 10 10 10 10 10 10 10 10 10 10 10 10 10 10 10 10 10 10 10 10 10 10 10 10 10 10 10 10 10 10 10 10 10 10 10 10 10 10 10 10 10 10 10 10 10 10 10 10 10 10 10 10 10 10 10 10 10 10 10 10 10 10 10 10 10 10 10 10 10 10 10 10 10 10 10 10 10 10 10 10 10 10 10 10 10 10 10 10 10 10 10 10 10 10 10 10 10 10 10 10 10 10 10 10 10 10 10 10 10 10 10 10 10 10 10 10 10 10 10 10 10 10 10 10 10 10 10 10 10 10 10 10 10 10 10 10 10 10 10 10 10 10 10 10 10 10 10 10 10 10 10 10 10 10 10 10 10 10 10 10 10 10 10 10 10 10 10 10 10 10 10 10 10 10 10 10 10 10 10 10 10 10 10 10 10 10 10 10 10 10 10 10 10 10 10 10 10 10 10 10 10 10 10 10 10 10 10 10 10 10 10 10 10 10 10 10 10 10 10 10 10 10 10 10 10 10 10 10 10 10 10 10 10 10 10 10 10 10 10 10 10 10 10 10 10 10 10 10 10 10 10 10 10 10 10 10 10 10 10 10 10 10 10 10 10 10 10 10 10 10 10 10 10 10 10 10 10 10 10 10 10 10 10 10 10 10 10 10 10 10 10 10 10 10 10 10 10 10 10 10 10 10 10 10 10 10 10 10 10 10 10 10 10 10 10 10 10 10 10 10 10 10 10 10 10 10 10 10 10 10 10 10 10 10 10 10 10 10 10 10 10 10 10 10 10 10 10 10 10 10 10 10 10 10 10 10 10 10 10 10 10 10 10 10 10 10 10 10 10 10 10 10 10 10 10 10 10 10 10 10 10 10 10 10 10 10 10 10 10 10 10 10 10 10 10 10 10 10 10 10 10 10 10 10 10 10 10 10 10 10 10 10 10 10 10 10 10 10 10 10 10 10 10 10 10 10 10 10 10 10 10 10 10 10 10 10 10 10 10 10 10 10 10 10 10 10 10 10 10 10 10 10 10 10 10 10 10 10 10 10 10 10 10 10 10 10 10 10 10 10 10 10 10 10 10 10 10 10 10 10 10 10 10 10 10 10 10 10 10 10 10 10 10 10 10 10 10 10 10 10 10 10 10 10 10 10 10 10 10 10 10 10 10 10 10 10 10 10 10 10 10 10 10 10 10 10 10 10 10 10 10 10 10 10 10 10 10 10 10 10 10 10 10 10 10 10 10 10 10 10 10 10 10 10 10 10 10 10 10 10 10 10 10 10 10 10 10 10 10 10 10 10 10 10 10 10 10 10 10 10 10 10 10 10 10 10 10 10 10 10 10 10 10 10 10 10 10 10 10 10 10 10 10 10 10 10 10 10 10 10 10 10 10 10 10 10 10 10 10 10 10 10 10 10 10 10 10 10 10 10 10 10 10 10 10 10 10 10 10 10 10 10 10 10 10 10 10 10 10 10 10 10 10 10 10 10 10 10 10 10 10 10 10 10 10 10 10 10 10 10 10 10 10 10 10 10 10 10 10 10 10 10 10 10 10 10 10 10 10 10 10 10 10 10 10 10 10 10 10 10 10 10 10 10 10 10 10 10 10 10 10 10 10 10 10 10 10 10 10 10 10 10 10 10 10 10 10 10 10 10 10 10 10 10 10 10 10 10 10 10 10 10 10 10 10 10 10 10 10 10 10 10 10 10 10 10 10 10 10 10 10 10 10 10 10 10 10 10 10 10 10 10 10 10 10 10 10 10 10 10 10 10 10 10 10 10 10 10 10 10 10 10 10 10 10 10 10 10 10 10 10 10 10 10 10 10 10 10 10 10 10 10 10 10 10 10 10 10 10 10 10 10 10 10 10 10 10 10 10 10 10 10 10 10 10 10 10 10 10 10 10 10 10 10 10 10 10 10 10 10 10 10 10 10 10 10 10 10 10 10 10 10 10 10 10 10 10 10 10 10 10 10 10 10 10 10 10 10 10 10 10 10 10 10 10 10 10 10 10 10 10 10 10 10 10 10 10 10 10 10 10 10 10 10 10 10 10 10 10 10 10 10 10 10 10 10 10 10 10 10 10 10 10 10 10 10 10 10 10 10 10 10 10 10 10 10 10 10 10 10 10 10 10 10 10 10 10 10 10 10 10 10 10 10 10 10 10 10 10 10 10 10 10 10 10 10 10 10 10 10 10 10 10 10 10 10 10 10 10 10 10 10 10 10 10 10 10 10 10 10 10 10 10 10 10 10 10 10 10 10 10 10 10 10 10 10 10 10 10 10 10 10 10 10 10 10 10 10 10 10 10 10 10 10 10 10 10 10 10 10 10 10 10 10 10 10 10 10 10 10 10 10 10 10 10 10 10 10 10 10 10 10 10 10 10 10 10 10 10 10 10 10 10 10 10 10 10 10 10 10 10 10 10 10 10 10 10 10 10 10 10 10 10 10 10 10 10 10 10 10 10 10 10 10 10 10 10 10 10 10 10 10 10 10 10 10 10 10 10 10 10 10 10 10 10 10 10 10 10 10 10 10 10 10 10 10 10 10 10 10 10 10 10 10 10 10 10 10 10 10 10 10 10 10 10 10 10 10 10 10 10 10 10 10 10 10 10 10 10 10 10 10 10 10 10 10 10 10 10 10 10 10 10 10 10 10 10 10 10 10 10 10 10 10 10 10 10 10 10 10 10 10 10 10 10 10 10 10 10 10 10 10 10 10 10 10 10 10 10 10 10 10 10 10 10 10 10 10 10 10 10 10 10 10 10 10 10 10 10 10 10 10 10 10 10 10 10 10 10 10 10 10 10 10 10 10 10 10 10 10 10 10 10 10 10 10 10 10 10 10 10 10 10 10 10 10 10 10 10 10 10 10 10 10 10 10 10 10 10 10 10 10 10 10 10 10 10 10 10 10 10 10 10 10 10 10 10 10 10 10 10 10 10 10 10 10 10 10 10 10 10 10 10 10 10 10 10 10 10 10 10 10 10 10 10 10 10 10 10 10 10 10 10 10 10 10 10 10 10 10 10 10 10 10 10 10 10 10 10 10 10 10 10 10 10 10 10 10 10 10 10 10 10 10 10 10 10 10 10 10 10 10 10 10 10 10 10 10 10 10 10 10 10 10 10 10 10 10 10 10 10 10 10 10 10 10 10 10 10 10 10 10 10 10 10 10 10 10 10 10 10 10 10 10 10 10 10 10 10 10 10 10 10 10 10 10 10 10 10 10 10 10 10 10 10 10 10 10 10 10 10 10 10 10 10 10 10 10 10 10 10 10 10 10 10 10 10 10 10 10 10 10 10 10 10 10 10 10 10 10 10 10 10 10 10 10 10 10 10 10 10 10 10 10 10 10 10 10 10 10 10 10 10 10 10 10 10 10 10 10 10 10 10 10 10 10 10 10 10 10 10 10 10 10 10 10 10 10 10 10 10 10 10 10 10 10 10 10 10 10 10 10 10 10 10 10 10 10 10 10 10 10 10 10 10 10 10 10 10 10 10 10 10 10 10 10 10 10 10 10 10 10 10 10 10 10 10 10 10 10 10 10 10 10 10 10 10 10 10 10 10 10 10 10 10 10 10 10 10 10 10 10 10 10 10 10 10 10 10 10 10 10 10 10 10 10 10 10 10 10 10 10 10 10 10 10 10 10 10 10 10 10 10 10 10 10 10 10 10 10 10 10 10 10 10 10 10 10 10 10 10 10 10 10 10 10 10 10 10 10 10 10 10 10 10 10 10 10 10 10 10 10 10 10 10 10 10 10 10 10 10 10 10 10 10 10 10 10 10 10 10 10 10 10 10 10 10 10 10 10 10 10 10 10 10 10 10 10 10 10 10 10 10 10 10 10 10 10 10 10 10 10 10 10 10 10 10 10 10 10 10 10 10 10 10 10 10 10 10 10 10 10 10 10 10 10 10 10 10 10 10 10 10 10 10 10 10 10 10 10 10 10 10 10 10 10 10 10 10 10 10 10 10 10 10 10 10 10 10 10 10 10 10 10 10 10 10 10 10 10 10 10 10 10 10 10 10 10 10 10 10 10 10 10 10 10 10 10 10 10 10 10 10 10 10 10 10 10 10 10 10 10 10 10 10 10 10 10 10 10 10 10 10 10 10 10 10 10 10 10 10 10 10 10 10 10 10 10 10 10 10 10 10 10 10 10 10 10 10 10 10 10 10 10 10 10 10 10 10 10 10 10 10 10 10 10 10 10 10 10 10 10 10 10 10 10 10 10 10 10 10 10 10 10 10 10 10 10 10 10 10 10 10 10 10 10 10 10 10 10 10 10 10 10 10 10 10 10 10 10 10 10 10 10 10 10 10 10 10 10 10 10 10 10 10 10 10 10 10 10 10 10 10 10 10 10 10 10 10 10 10 10 10 10 10 10 10 10 10 10 10 10 10 10 10 10 10 10 10 10 10 10 10 10 10 10 10 10 10 10 10 10 10 10 10 10 10 10 10 10 10 10 10 10 10 10 10 10 10 10 10 10 10 10 10 10 10 10 10 10 10 10 10 10 10 10 10 10 10 10 10 10 10 10 10 10 10 10 10 10 10 10 10 10 10 10 10 10 10 10 10 10 10 10 10 10 10 10 10 10 10 10 10 10 10 10 10 10 10 10 10 10 10 10 10 10 10 10 10 10 10 10 10 10 10 10 10 10 10 10 10 10 10 10 10 10 10 10 10 10 10 10 10 10 10 10 10 10 10 10 10 10 10 10 10 10 10 10 10 10 10 10 10 10 10 10 10 10 10 10 10 10 10 10 10 10 10 10 10 10 10 10 10 10 10 10 10 10 10 10 10 10 10 10 10 10 10 10 10 10 10 10 10 10 10 10 10 10 10 10 10 10 10 10 10 10 10 10 10 10 10 10 10 10 10 10 10 10 10 10 10 10 10 10 10 10 10 10 10 10 10 10 10 10 10 10 10 10 10 10 10 10 10 10 10 10 10 10 10 10 10 10 10 10 10 10 10 10 10 10 10 10 10 10 10 10 10 10 10 10 10 10 10 10 10 10 10 10 10 10 10 10 10 10 10 10 10 10 10 10 10 10 10 10 10 10 10 10 10 10 10 10 10 10 10 10 10 10 10 10 10 10 10 10 10 10 10 10 10 10 10 10 10 10 10 10 10 10 10 10 10 10 10 10 10 10 10 10 10 10 10 10 10 10 10 10 10 10 10 10 10 10 10 10 10 10 10 10 10 10 10 10 10 10 10 10 10 10 10 10 10 10 10 10 10 10 10 10 10 10 10 10 10 10 10 10 10 10 10 10 10 10 10 10 10 10 10 10 10 10 10 10 10 10 10 10 10 10 10 10 10 10 10 10 10 10 10 10 10 10 10 10 10 10 10 10 10 10 10 10 10 10 10 10 10 10 10 10 10 10 10 10 10 10 10 10 10 10 10 10 10 10 10 10 10 10 10 10 10 10 10 10 10 10 10 10 10 10 10 10 10 10 10 10 10 10 10 10 10 10 10 10 10 10 10 10 10 10 10 10 10 10 10 10 10 10 10 10 10 10 10 10 10 10 10 10 10 10 10 10 10 10 10 10 10 10 10 10 10 10 10 10 10 10 10 10 10 10 10 10 10 10 10 10 10 10 10 10 10 10 10 10 10 10 10 10 10 10 10 10 10 10 10 10 10 10 10 10 10 10 10 10 10 10 10 10 10 10 10 10 10 10 10 10 10 10 10 10 10 10 10 10 10 10 10 10 10 10 10 10 10 10 10 10 10 10 10 10 10 10 10 10 10 10 10 10 10 10 10 10 10 10 10 10 10 10 10 10 10 10 10 10 10 10 10 10 10 10 10 10 10 10 10 10 10 10 10 10 10 10 10 10 10 10 10 10 10 10 10 10 10 10 10 10 10 10 10 10 10 10 10 10 10 10 10 10 10 10 10 10 10 10 10 10 10 10 10 10 10 10 10 10 10 10 10 10 10 10 10 10 10 10 10 10 10 10 10 10 10 10 10 10 10 10 10 10 10 10 10 10 10 10 10 10 10 10 10 10 10 10 10 10 10 10 10 10 10 10 10 10 10 10 10 10 10 10 10 10 10 10 10 10 10 10 10 10 10 10 10 10 10 10 10 10 10 10 10 10 10 10 10 10 10 10 10 10 10 10 10 10 10 10 10 10 10 10 10 10 10 10 10 10 10 10 10 10 10 10 10 10 10 10 10 10 10 10 10 10 10 10 10 10 10 10 10 10 10 10 10 10 10 10 10 10 10 10 10 10 10 10 10 10 10 10 10 10 10 10 10 10 10 10 10 10 10 10 10 10 10 10 10 10 10 10 10 10 10 10 10 10 10 10 10 10 10 10 10 10 10 10 10 10 10 10 10 10 10 10 10 10 10 10 10 10 10 10 10 10 10 10 10 10 10 10 10 10 10 10 10 10 10 10 10 10 10 10 10 10 10 10 10 10 10 10 10 10 10 10 10 10 10 10 10 10 10 10 10 10 10 10 10 10 10 10 10 10 10 10 10 10 10 10 10 10 10 10 10 10 10 10 10 10 10 10 10 10 10 10 10 10 10 10 10 10 10 10 10 10 10 10 10 10 10 10 10 10 10 10 10 10 10 10 10 10 10 10 10 10 10 10 10 10 10 10 10 10 10 10 10 10 10 10 10 10 10 10 10 10 10 10 10 10 10 10 10 10 10 10 10 10 10 10 10 10 10 10 10 10 10 10 10 10 10 10 10 10 10 10 10 10 10 10 10 10 10 10 10 10 10 10 10 10 10 10 10 10 10 10 10 10 10 10 10 10 10 10 10 10 10 10 10 10 10 10 10 10 10 10 10 10 10 10 10 10 10 10 10 10 10 10 10 10 10 10 10 10 10 10 10 10 10 10 10 10 10 10 10 10 10 10 10 10 10 10 10 10 10 10 10 10 10 10 10 10 10 10 10 10 10 10 10 10 10 10 10 10 10 10 10 10 10 10 10 10 10 10 10 10 10 10 10 10 10 10 10 10 10 10 10 10 10 10 10 10 10 10 10 10 10 10 10 10 10 10 10 10 10 10 10 10 10 10 10 10 10 10 10 10 10 10 10 10 10 10 10 10 10 10 10 10 10 10 10 10 10 10 10 10 10 10 10 10 10 10 10 10 10 10 10 10 10 10 10 10 10 10 10 10 10 10 10 10 10 10 10 10 10 10 10 10 10 10 10 10 10 10 10 10 10 10 10 10 10 10 10 10 10 10 10 10 10 10 10 10 10 10 10 10 10 10 10 10 10 10 10 10 10 10 10 10 10 10 10 10 10 10 10 10 10 10 10 10 10 10 10 10 10 10 10 10 10 10 10 10 10 10 10 10 10 10 10 10 10 10 10 10 10 10 10 10 10 10 10 10 10 10 10 10 10 10 10 10 10 10 10 10 10 10 10 10 10 10 10 10 10 10 10 10 10 10 10 10 10 10 10 10 10 10 10 10 10 10 10 10 10 10 10 10 10 10 10 10 10 10 10 10 10 10 10 10 10 10 10 10 10 10 10 10 10 10 10 10 10 10 10 10 10 10 10 10 10 10 10 10 10 10 10 10 10 10 10 10 10 10 10 10 10 10 10 10 10 10 10 10 10 10 10 10 10 10 10 10 10 10 10 10 10 10 10 10 10 10 10 10 10 10 10 10 10 10 10 10 10 10 10 10 10 10 10 10 10 10 10 10 10 10 10 10 10 10 10 10 10 10 10 10 10 10 10 10 10 10 10 10 10 10 10 10 10 10 10 10 10 10 10 10 10 10 10 10 10 10 10 10 10 10 10 10 10 10 10 10 10 10 10 10 10 10 10 10 10 10 10 10 10 10 10 10 10 10 10 10 10 10 10 10 10 

POINT_DATA 2673
SCALARS weights float 1
LOOKUP_TABLE default
0.488281 0.651042 0.651042 0.651042 0.651042 0.651042 0.651042 0.651042 0.651042 0.651042 0.651042 0.651042 0.651042 0.651042 0.651042 0.651042 0.651042 0.651042 0.651042 0.651042 0.651042 0.651042 0.651042 0.651042 0.651042 0.651042 0.651042 0.651042 0.651042 0.651042 0.651042 0.651042 0.16276 0.651042 0.976562 0.976562 0.976562 0.976562 0.976562 0.976562 0.976562 0.976562 0.976562 0.976562 0.976562 0.976562 0.976562 0.976562 0.976562 0.976562 0.976562 0.976562 0.976562 0.976562 0.976562 0.976562 0.976562 0.976562 0.976562 0.976562 0.976562 0.976562 0.976562 0.976562 0.976562 0.325521 0.651042 0.976562 0.976562 0.976562 0.976562 0.976562 0.976562 0.976562 0.976562 0.976562 0.976562 0.976562 0.976562 0.976562 0.976562 0.976562 0.976562 0.976562 0.976562 0.976562 0.976562 0.976562 0.976562 0.976562 0.976562 0.976562 0.976562 0.976562 0.976562 0.976562 0.976562 0.976562 0.325521 0.651042 0.976562 0.976562 0.976562 0.976562 0.976562 0.976562 0.976562 0.976562 0.976562 0.976562 0.976562 0.976562 0.976562 0.976562 0.976562 0.976562 0.976562 0.976562 0.976562 0.976562 0.976562 0.976562 0.976562 0.976562 0.976562 0.976562 0.976562 0.976562 0.976562 0.976562 0.976562 0.325521 0.651042 0.976562 0.976562 0.976562 0.976562 0.976562 0.976562 0.976562 0.976562 0.976562 0.976562 0.976562 0.976562 0.976562 0.976562 0.976562 0.976562 0.976562 0.976562 0.976562 0.976562 0.976562 0.976562 0.976562 0.976562 0.976562 0.976562 0.976562 0.976562 0.976562 0.976562 0.976562 0.325521 0.651042 0.976562 0.976562 0.976562 0.976562 0.976562 0.976562 0.976562 0.976562 0.976562 0.976562 0.976562 0.976562 0.976562 0.976562 0.976562 0.976562 0.976562 0.976562 0.976562 0.976562 0.976562 0.976562 0.976562 0.976562 0.976562 0.976562 0.976562 0.976562 0.976562 0.976562 0.976562 0.325521 0.651042 0.976562 0.976562 0.976562 0.976562 0.976562 0.976562 0.976562 0.976562 0.976562 0.976562 0.976562 0.976562 0.976562 0.976562 0.976562 0.976562 0.976562 0.976562 0.976562 0.976562 0.976562 0.976562 0.976562 0.976562 0.976562 0.976562 0.976562 0.976562 0.976562 0.976562 0.976562 0.325521 0.651042 0.976562 0.976562 0.976562 0.976562 0.976562 0.976562 0.976562 0.976562 0.976562 0.976562 0.976562 0.976562 0.976562 0.976562 0.976562 0.976562 0.976562 0.976562 0.976562 0.976562 0.976562 0.976562 0.976562 0.976562 0.976562 0.976562 0.976562 0.976562 0.976562 0.976562 0.976562 0.325521 0.16276 0.325521 0.325521 0.325521 0.325521 0.325521 0.325521 0.325521 0.325521 0.325521 0.325521 0.325521 0.325521 0.325521 0.325521 0.325521 0.325521 0.325521 0.325521 0.325521 0.325521 0.325521 0.325521 0.325521 0.325521 0.325521 0.325521 0.325521 0.325521 0.325521 0.325521 0.325521 0.16276 0.651042 0.976562 0.976562 0.976562 0.976562 0.976562 0.976562 0.976562 0.976562 0.976562 0.976562 0.976562 0.976562 0.976562 0.976562 0.976562 0.976562 0.976562 0.976562 0.976562 0.976562 0.976562 0.976562 0.976562 0.976562 0.976562 0.976562 0.976562 0.976562 0.976562 0.976562 0.976562 0.325521 0.976562 1.95313 1.95313 1.95313 1.95313 1.95313 1.95313 1.95313 1.95313 1.95313 1.95313 1.95313 1.95313 1.95313 1.95313 1.95313 1.95313 1.95313 1.95313 1.95313 1.95313 1.95313 1.95313 1.95313 1.95313 1.95313 1.95313 1.95313 1.95313 1.95313 1.95313 1.95313 0.976562 0.976562 1.95313 1.95313 1.95313 1.95313 1.95313 1.95313 1.95313 1.95313 1.95313 1.95313 1.95313 1.95313 1.95313 1.95313 1.95313 1.95313 1.95313 1.95313 1.95313 1.95313 1.95313 1.95313 1.95313 1.95313 1.95313 1.95313 1.95313 1.95313 1.95313 1.95313 1.95313 0.976562 0.976562 1.95313 1.95313 1.95313 1.95313 1.95313 1.95313 1.95313 1.95313 1.95313 1.95313 1.95313 1.95313 1.95313 1.95313 1.95313 1.95313 1.95313 1.95313 1.95313 1.95313 1.95313 1.95313 1.95313 1.95313 1.95313 1.95313 1.95313 1.95313 1.95313 1.95313 1.95313 0.976562 0.976562 1.95313 1.95313 1.95313 1.95313 1.95313 1.95313 1.95313 1.95313 1.95313 1.95313 1.95313 1.95313 1.95313 1.95313 1.95313 1.95313 1.95313 1.95313 1.95313 1.95313 1.95313 1.95313 1.95313 1.95313 1.95313 1.95313 1.95313 1.95313 1.95313 1.95313 1.95313 0.976562 0.976562 1.95313 1.95313 1.95313 1.95313 1.95313 1.95313 1.95313 1.95313 1.95313 1.95313 1.95313 1.95313 1.95313 1.95313 1.95313 1.95313 1.95313 1.95313 1.95313 1.95313 1.95313 1.95313 1.95313 1.95313 1.95313 1.95313 1.95313 1.95313 1.95313 1.95313 1.95313 0.976562 0.976562 1.95313 1.95313 1.95313 1.95313 1.95313 1.95313 1.95313 1.95313 1.95313 1.95313 1.95313 1.95313 1.95313 1.95313 1.95313 1.95313 1.95313 1.95313 1.95313 1.95313 1.95313 1.95313 1.95313 1.95313 1.95313 1.95313 1.95313 1.95313 1.95313 1.95313 1.95313 0.976562 0.976562 1.95313 1.95313 1.95313 1.95313 1.95313 1.95313 1.95313 1.95313 1.95313 1.95313 1.95313 1.95313 1.95313 1.95313 1.95313 1.95313 1.95313 1.95313 1.95313 1.95313 1.95313 1.95313 1.95313 1.95313 1.95313 1.95313 1.95313 1.95313 1.95313 1.95313 1.95313 0.976562 0.325521 0.976562 0.976562 0.976562 0.976562 0.976562 0.976562 0.976562 0.976562 0.976562 0.976562 0.976562 0.976562 0.976562 0.976562 0.976562 0.976562 0.976562 0.976562 0.976562 0.976562 0.976562 0.976562 0.976562 0.976562 0.976562 0.976562 0.976562 0.976562 0.976562 0.976562 0.976562 0.651042 0.651042 0.976562 0.976562 0.976562 0.976562 0.976562 0.976562 0.976562 0.976562 0.976562 0.976562 0.976562 0.976562 0.976562 0.976562 0.976562 0.976562 0.976562 0.976562 0.976562 0.976562 0.976562 0.976562 0.976562 0.976562 0.976562 0.976562 0.976562 0.976562 0.976562 0.976562 0.976562 0.325521 0.976562 1.95313 1.95313 1.95313 1.95313 1.95313 1.95313 1.95313 1.95313 1.95313 1.95313 1.95313 1.95313 1.95313 1.95313 1.95313 1.95313 1.95313 1.95313 1.95313 1.95313 1.95313 1.95313 1.95313 1.95313 1.95313 1.95313 1.95313 1.95313 1.95313 1.95313 1.95313 0.976562 0.976562 1.95313 1.95313 1.95313 1.95313 1.95313 1.95313 1.95313 1.95313 1.95313 1.95313 1.95313 1.95313 1.95313 1.95313 1.95313 1.95313 1.95313 1.95313 1.95313 1.95313 1.95313 1.95313 1.95313 1.95313 1.95313 1.95313 1.95313 1.95313 1.95313 1.95313 1.95313 0.976562 0.976562 1.95313 1.95313 1.95313 1.95313 1.95313 1.95313 1.95313 1.95313 1.95313 1.95313 1.95313 1.95313 1.95313 1.95313 1.95313 1.95313 1.95313 1.95313 1.95313 1.95313 1.95313 1.95313 1.95313 1.95313 1.95313 1.95313 1.95313 1.95313 1.95313 1.95313 1.95313 0.976562 0.976562 1.95313 1.95313 1.95313 1.95313 1.95313 1.95313 1.95313 1.95313 1.95313 1.95313 1.95313 1.95313 1.95313 1.95313 1.95313 1.95313 1.95313 1.95313 1.95313 1.95313 1.95313 1.95313 1.95313 1.95313 1.95313 1.95313 1.95313 1.95313 1.95313 1.95313 1.95313 0.976562 0.976562 1.95313 1.95313 1.95313 1.95313 1.95313 1.95313 1.95313 1.95313 1.95313 1.95313 1.95313 1.95313 1.95313 1.95313 1.95313 1.95313 1.95313 1.95313 1.95313 1.95313 1.95313 1.95313 1.95313 1.95313 1.95313 1.95313 1.95313 1.95313 1.95313 1.95313 1.95313 0.976562 0.976562 1.95313 1.95313 1.95313 1.95313 1.95313 1.95313 1.95313 1.95313 1.95313 1.95313 1.95313 1.95313 1.95313 1.95313 1.95313 1.95313 1.95313 1.95313 1.95313 1.95313 1.95313 1.95313 1.95313 1.95313 1.95313 1.95313 1.95313 1.95313 1.95313 1.95313 1.95313 0.976562 0.976562 1.95313 1.95313 1.95313 1.95313 1.95313 1.95313 1.95313 1.95313 1.95313 1.95313 1.95313 1.95313 1.95313 1.95313 1.95313 1.95313 1.95313 1.95313 1.95313 1.95313 1.95313 1.95313 1.95313 1.95313 1.95313 1.95313 1.95313 1.95313 1.95313 1.95313 1.95313 0.976562 0.325521 0.976562 0.976562 0.976562 0.976562 0.976562 0.976562 0.976562 0.976562 0.976562 0.976562 0.976562 0.976562 0.976562 0.976562 0.976562 0.976562 0.976562 0.976562 0.976562 0.976562 0.976562 0.976562 0.976562 0.976562 0.976562 0.976562 0.976562 0.976562 0.976562 0.976562 0.976562 0.651042 0.651042 0.976562 0.976562 0.976562 0.976562 0.976562 0.976562 0.976562 0.976562 0.976562 0.976562 0.976562 0.976562 0.976562 0.976562 0.976562 0.976562 0.976562 0.976562 0.976562 0.976562 0.976562 0.976562 0.976562 0.976562 0.976562 0.976562 0.976562 0.976562 0.976562 0.976562 0.976562 0.325521 0.976562 1.95313 1.95313 1.95313 1.95313 1.95313 1.95313 1.95313 1.95313 1.95313 1.95313 1.95313 1.95313 1.95313 1.95313 1.95313 1.95313 1.95313 1.95313 1.95313 1.95313 1.95313 1.95313 1.95313 1.95313 1.95313 1.95313 1.95313 1.95313 1.95313 1.95313 1.95313 0.976562 0.976562 1.95313 1.95313 1.95313 1.95313 1.95313 1.95313 1.95313 1.95313 1.95313 1.95313 1.95313 1.95313 1.95313 1.95313 1.95313 1.95313 1.95313 1.95313 1.95313 1.95313 1.95313 1.95313 1.95313 1.95313 1.95313 1.95313 1.95313 1.95313 1.95313 1.95313 1.95313 0.976562 0.976562 1.95313 1.95313 1.95313 1.95313 1.95313 1.95313 1.95313 1.95313 1.95313 1.95313 1.95313 1.95313 1.95313 1.95313 1.95313 1.95313 1.95313 1.95313 1.95313 1.95313 1.95313 1.95313 1.95313 1.95313 1.95313 1.95313 1.95313 1.95313 1.95313 1.95313 1.95313 0.976562 0.976562 1.95313 1.95313 1.95313 1.95313 1.95313 1.95313 1.95313 1.95313 1.95313 1.95313 1.95313 1.95313 1.95313 1.95313 1.95313 1.95313 1.95313 1.95313 1.95313 1.95313 1.95313 1.95313 1.95313 1.95313 1.95313 1.95313 1.95313 1.95313 1.95313 1.95313 1.95313 0.976562 0.976562 1.95313 1.95313 1.95313 1.95313 1.95313 1.95313 1.95313 1.95313 1.95313 1.95313 1.95313 1.95313 1.95313 1.95313 1.95313 1.95313 1.95313 1.95313 1.95313 1.95313 1.95313 1.95313 1.95313 1.95313 1.95313 1.95313 1.95313 1.95313 1.95313 1.95313 1.95313 0.976562 0.976562 1.95313 1.95313 1.95313 1.95313 1.95313 1.95313 1.95313 1.95313 1.95313 1.95313 1.95313 1.95313 1.95313 1.95313 1.95313 1.95313 1.95313 1.95313 1.95313 1.95313 1.95313 1.95313 1.95313 1.95313 1.95313 1.95313 1.95313 1.95313 1.95313 1.95313 1.95313 0.976562 0.976562 1.95313 1.95313 1.95313 1.95313 1.95313 1.95313 1.95313 1.95313 1.95313 1.95313 1.95313 1.95313 1.95313 1.95313 1.95313 1.95313 1.95313 1.95313 1.95313 1.95313 1.95313 1.95313 1.95313 1.95313 1.95313 1.95313 1.95313 1.95313 1.95313 1.95313 1.95313 0.976562 0.325521 0.976562 0.976562 0.976562 0.976562 0.976562 0.976562 0.976562 0.976562 0.976562 0.976562 0.976562 0.976562 0.976562 0.976562 0.976562 0.976562 0.976562 0.976562 0.976562 0.976562 0.976562 0.976562 0.976562 0.976562 0.976562 0.976562 0.976562 0.976562 0.976562 0.976562 0.976562 0.651042 0.651042 0.976562 0.976562 0.976562 0.976562 0.976562 0.976562 0.976562 0.976562 0.976562 0.976562 0.976562 0.976562 0.976562 0.976562 0.976562 0.976562 0.976562 0.976562 0.976562 0.976562 0.976562 0.976562 0.976562 0.976562 0.976562 0.976562 0.976562 0.976562 0.976562 0.976562 0.976562 0.325521 0.976562 1.95313 1.95313 1.95313 1.95313 1.95313 1.95313 1.95313 1.95313 1.95313 1.95313 1.95313 1.95313 1.95313 1.95313 1.95313 1.95313 1.95313 1.95313 1.95313 1.95313 1.95313 1.95313 1.95313 1.95313 1.95313 1.95313 1.95313 1.95313 1.95313 1.95313 1.95313 0.976562 0.976562 1.95313 1.95313 1.95313 1.95313 1.95313 1.95313 1.95313 1.95313 1.95313 1.95313 1.95313 1.95313 1.95313 1.95313 1.95313 1.95313 1.95313 1.95313 1.95313 1.95313 1.95313 1.95313 1.95313 1.95313 1.95313 1.95313 1.95313 1.95313 1.95313 1.95313 1.95313 0.976562 0.976562 1.95313 1.95313 1.95313 1.95313 1.95313 1.95313 1.95313 1.95313 1.95313 1.95313 1.95313 1.95313 1.95313 1.95313 1.95313 1.95313 1.95313 1.95313 1.95313 1.95313 1.95313 1.95313 1.95313 1.95313 1.95313 1.95313 1.95313 1.95313 1.95313 1.95313 1.95313 0.976562 0.976562 1.95313 1.95313 1.95313 1.95313 1.95313 1.95313 1.95313 1.95313 1.95313 1.95313 1.95313 1.95313 1.95313 1.95313 1.95313 1.95313 1.95313 1.95313 1.95313 1.95313 1.95313 1.95313 1.95313 1.95313 1.95313 1.95313 1.95313 1.95313 1.95313 1.95313 1.95313 0.976562 0.976562 1.95313 1.95313 1.95313 1.95313 1.95313 1.95313 1.95313 1.95313 1.95313 1.95313 1.95313 1.95313 1.95313 1.95313 1.95313 1.95313 1.95313 1.95313 1.95313 1.95313 1.95313 1.95313 1.95313 1.95313 1.95313 1.95313 1.95313 1.95313 1.95313 1.95313 1.95313 0.976562 0.976562 1.95313 1.95313 1.95313 1.95313 1.95313 1.95313 1.95313 1.95313 1.95313 1.95313 1.95313 1.95313 1.95313 1.95313 1.95313 1.95313 1.95313 1.95313 1.95313 1.95313 1.95313 1.95313 1.95313 1.95313 1.95313 1.95313 1.95313 1.95313 1.95313 1.95313 1.95313 0.976562 0.976562 1.95313 1.95313 1.95313 1.95313 1.95313 1.95313 1.95313 1.95313 1.95313 1.95313 1.95313 1.95313 1.95313 1.95313 1.95313 1.95313 1.95313 1.95313 1.95313 1.95313 1.95313 1.95313 1.95313 1.95313 1.95313 1.95313 1.95313 1.95313 1.95313 1.95313 1.95313 0.976562 0.325521 0.976562 0.976562 0.976562 0.976562 0.976562 0.976562 0.976562 0.976562 0.976562 0.976562 0.976562 0.976562 0.976562 0.976562 0.976562 0.976562 0.976562 0.976562 0.976562 0.976562 0.976562 0.976562 0.976562 0.976562 0.976562 0.976562 0.976562 0.976562 0.976562 0.976562 0.976562 0.651042 0.651042 0.976562 0.976562 0.976562 0.976562 0.976562 0.976562 0.976562 0.976562 0.976562 0.976562 0.976562 0.976562 0.976562 0.976562 0.976562 0.976562 0.976562 0.976562 0.976562 0.976562 0.976562 0.976562 0.976562 0.976562 0.976562 0.976562 0.976562 0.976562 0.976562 0.976562 0.976562 0.325521 0.976562 1.95313 1.95313 1.95313 1.95313 1.95313 1.95313 1.95313 1.95313 1.95313 1.95313 1.95313 1.95313 1.95313 1.95313 1.95313 1.95313 1.95313 1.95313 1.95313 1.95313 1.95313 1.95313 1.95313 1.95313 1.95313 1.95313 1.95313 1.95313 1.95313 1.95313 1.95313 0.976562 0.976562 1.95313 1.95313 1.95313 1.95313 1.95313 1.95313 1.95313 1.95313 1.95313 1.95313 1.95313 1.95313 1.95313 1.95313 1.95313 1.95313 1.95313 1.95313 1.95313 1.95313 1.95313 1.95313 1.95313 1.95313 1.95313 1.95313 1.95313 1.95313 1.95313 1.95313 1.95313 0.976562 0.976562 1.95313 1.95313 1.95313 1.95313 1.95313 1.95313 1.95313 1.95313 1.95313 1.95313 1.95313 1.95313 1.95313 1.95313 1.95313 1.95313 1.95313 1.95313 1.95313 1.95313 1.95313 1.95313 1.95313 1.95313 1.95313 1.95313 1.95313 1.95313 1.95313 1.95313 1.95313 0.976562 0.976562 1.95313 1.95313 1.95313 1.95313 1.95313 1.95313 1.95313 1.95313 1.95313 1.95313 1.95313 1.95313 1.95313 1.95313 1.95313 1.95313 1.95313 1.95313 1.95313 1.95313 1.95313 1.95313 1.95313 1.95313 1.95313 1.95313 1.95313 1.95313 1.95313 1.95313 1.95313 0.976562 0.976562 1.95313 1.95313 1.95313 1.95313 1.95313 1.95313 1.95313 1.95313 1.95313 1.95313 1.95313 1.95313 1.95313 1.95313 1.95313 1.95313 1.95313 1.95313 1.95313 1.95313 1.95313 1.95313 1.95313 1.95313 1.95313 1.95313 1.95313 1.95313 1.95313 1.95313 1.95313 0.976562 0.976562 1.95313 1.95313 1.95313 1.95313 1.95313 1.95313 1.95313 1.95313 1.95313 1.95313 1.95313 1.95313 1.95313 1.95313 1.95313 1.95313 1.95313 1.95313 1.95313 1.95313 1.95313 1.95313 1.95313 1.95313 1.95313 1.95313 1.95313 1.95313 1.95313 1.95313 1.95313 0.976562 0.976562 1.95313 1.95313 1.95313 1.95313 1.95313 1.95313 1.95313 1.95313 1.95313 1.95313 1.95313 1.95313 1.95313 1.95313 1.95313 1.95313 1.95313 1.95313 1.95313 1.95313 1.95313 1.95313 1.95313 1.95313 1.95313 1.95313 1.95313 1.95313 1.95313 1.95313 1.95313 0.976562 0.325521 0.976562 0.976562 0.976562 0.976562 0.976562 0.976562 0.976562 0.976562 0.976562 0.976562 0.976562 0.976562 0.976562 0.976562 0.976562 0.976562 0.976562 0.976562 0.976562 0.976562 0.976562 0.976562 0.976562 0.976562 0.976562 0.976562 0.976562 0.976562 0.976562 0.976562 0.976562 0.651042 0.651042 0.976562 0.976562 0.976562 0.976562 0.976562 0.976562 0.976562 0.976562 0.976562 0.976562 0.976562 0.976562 0.976562 0.976562 0.976562 0.976562 0.976562 0.976562 0.976562 0.976562 0.976562 0.976562 0.976562 0.976562 0.976562 0.976562 0.976562 0.976562 0.976562 0.976562 0.976562 0.325521 0.976562 1.95313 1.95313 1.95313 1.95313 1.95313 1.95313 1.95313 1.95313 1.95313 1.95313 1.95313 1.95313 1.95313 1.95313 1.95313 1.95313 1.95313 1.95313 1.95313 1.95313 1.95313 1.95313 1.95313 1.95313 1.95313 1.95313 1.95313 1.95313 1.95313 1.95313 1.95313 0.976562 0.976562 1.95313 1.95313 1.95313 1.95313 1.95313 1.95313 1.95313 1.95313 1.95313 1.95313 1.95313 1.95313 1.95313 1.95313 1.95313 1.95313 1.95313 1.95313 1.95313 1.95313 1.95313 1.95313 1.95313 1.95313 1.95313 1.95313 1.95313 1.95313 1.95313 1.95313 1.95313 0.976562 0.976562 1.95313 1.95313 1.95313 1.95313 1.95313 1.95313 1.95313 1.95313 1.95313 1.95313 1.95313 1.95313 1.95313 1.95313 1.95313 1.95313 1.95313 1.95313 1.95313 1.95313 1.95313 1.95313 1.95313 1.95313 1.95313 1.95313 1.95313 1.95313 1.95313 1.95313 1.95313 0.976562 0.976562 1.95313 1.95313 1.95313 1.95313 1.95313 1.95313 1.95313 1.95313 1.95313 1.95313 1.95313 1.95313 1.95313 1.95313 1.95313 1.95313 1.95313 1.95313 1.95313 1.95313 1.95313 1.95313 1.95313 1.95313 1.95313 1.95313 1.95313 1.95313 1.95313 1.95313 1.95313 0.976562 0.976562 1.95313 1.95313 1.95313 1.95313 1.95313 1.95313 1.95313 1.95313 1.95313 1.95313 1.95313 1.95313 1.95313 1.95313 1.95313 1.95313 1.95313 1.95313 1.95313 1.95313 1.95313 1.95313 1.95313 1.95313 1.95313 1.95313 1.95313 1.95313 1.95313 1.95313 1.95313 0.976562 0.976562 1.95313 1.95313 1.95313 1.95313 1.95313 1.95313 1.95313 1.95313 1.95313 1.95313 1.95313 1.95313 1.95313 1.95313 1.95313 1.95313 1.95313 1.95313 1.95313 1.95313 1.95313 1.95313 1.95313 1.95313 1.95313 1.95313 1.95313 1.95313 1.95313 1.95313 1.95313 0.976562 0.976562 1.95313 1.95313 1.95313 1.95313 1.95313 1.95313 1.95313 1.95313 1.95313 1.95313 1.95313 1.95313 1.95313 1.95313 1.95313 1.95313 1.95313 1.95313 1.95313 1.95313 1.95313 1.95313 1.95313 1.95313 1.95313 1.95313 1.95313 1.95313 1.95313 1.95313 1.95313 0.976562 0.325521 0.976562 0.976562 0.976562 0.976562 0.976562 0.976562 0.976562 0.976562 0.976562 0.976562 0.976562 0.976562 0.976562 0.976562 0.976562 0.976562 0.976562 0.976562 0.976562 0.976562 0.976562 0.976562 0.976562 0.976562 0.976562 0.976562 0.976562 0.976562 0.976562 0.976562 0.976562 0.651042 0.651042 0.976563 0.976563 0.976563 0.976563 0.976563 0.976563 0.976563 0.976563 0.976563 0.976563 0.976563 0.976563 0.976563 0.976563 0.976563 0.976563 0.976563 0.976563 0.976563 0.976563 0.976563 0.976563 0.976563 0.976563 0.976563 0.976563 0.976563 0.976563 0.976563 0.976563 0.976563 0.325521 0.976563 1.95313 1.95313 1.95313 1.95313 1.95313 1.95313 1.95313 1.95313 1.95313 1.95313 1.95313 1.95313 1.95313 1.95313 1.95313 1.95313 1.95313 1.95313 1.95313 1.95313 1.95313 1.95313 1.95313 1.95313 1.95313 1.95313 1.95313 1.95313 1.95313 1.95313 1.95313 0.976563 0.976563 1.95313 1.95313 1.95313 1.95313 1.95313 1.95313 1.95313 1.95313 1.95313 1.95313 1.95313 1.95313 1.95313 1.95313 1.95313 1.95313 1.95313 1.95313 1.95313 1.95313 1.95313 1.95313 1.95313 1.95313 1.95313 1.95313 1.95313 1.95313 1.95313 1.95313 1.95313 0.976563 0.976563 1.95313 1.95313 1.95313 1.95313 1.95313 1.95313 1.95313 1.95313 1.95313 1.95313 1.95313 1.95313 1.95313 1.95313 1.95313 1.95313 1.95313 1.95313 1.95313 1.95313 1.95313 1.95313 1.95313 1.95313 1.95313 1.95313 1.95313 1.95313 1.95313 1.95313 1.95313 0.976563 0.976563 1.95313 1.95313 1.95313 1.95313 1.95313 1.95313 1.95313 1.95313 1.95313 1.95313 1.95313 1.95313 1.95313 1.95313 1.95313 1.95313 1.95313 1.95313 1.95313 1.95313 1.95313 1.95313 1.95313 1.95313 1.95313 1.95313 1.95313 1.95313 1.95313 1.95313 1.95313 0.976563 0.976563 1.95313 1.95313 1.95313 1.95313 1.95313 1.95313 1.95313 1.95313 1.95313 1.95313 1.95313 1.95313 1.95313 1.95313 1.95313 1.95313 1.95313 1.95313 1.95313 1.95313 1.95313 1.95313 1.95313 1.95313 1.95313 1.95313 1.95313 1.95313 1.95313 1.95313 1.95313 0.976563 0.976563 1.95313 1.95313 1.95313 1.95313 1.95313 1.95313 1.95313 1.95313 1.95313 1.95313 1.95313 1.95313 1.95313 1.95313 1.95313 1.95313 1.95313 1.95313 1.95313 1.95313 1.95313 1.95313 1.95313 1.95313 1.95313 1.95313 1.95313 1.95313 1.95313 1.95313 1.95313 0.976563 0.976563 1.95313 1.95313 1.95313 1.95313 1.95313 1.95313 1.95313 1.95313 1.95313 1.95313 1.95313 1.95313 1.95313 1.95313 1.95313 1.95313 1.95313 1.95313 1.95313 1.95313 1.95313 1.95313 1.95313 1.95313 1.95313 1.95313 1.95313 1.95313 1.95313 1.95313 1.95313 0.976563 0.325521 0.976563 0.976563 0.976563 0.976563 0.976563 0.976563 0.976563 0.976563 0.976563 0.976563 0.976563 0.976563 0.976563 0.976563 0.976563 0.976563 0.976563 0.976563 0.976563 0.976563 0.976563 0.976563 0.976563 0.976563 0.976563 0.976563 0.976563 0.976563 0.976563 0.976563 0.976563 0.651042 0.16276 0.325521 0.325521 0.325521 0.325521 0.325521 0.325521 0.325521 0.325521 0.325521 0.325521 0.325521 0.325521 0.325521 0.325521 0.325521 0.325521 0.325521 0.325521 0.325521 0.325521 0.325521 0.325521 0.325521 0.325521 0.325521 0.325521 0.325521 0.325521 0.325521 0.325521 0.325521 0.16276 0.325521 0.976563 0.976563 0.976563 0.976563 0.976563 0.976563 0.976563 0.976563 0.976563 0.976563 0.976563 0.976563 0.976563 0.976563 0.976563 0.976563 0.976563 0.976563 0.976563 0.976563 0.976563 0.976563 0.976563 0.976563 0.976563 0.976563 0.976563 0.976563 0.976563 0.976563 0.976563 0.651042 0.325521 0.976563 0.976563 0.976563 0.976563 0.976563 0.976563 0.976563 0.976563 0.976563 0.976563 0.976563 0.976563 0.976563 0.976563 0.976563 0.976563 0.976563 0.976563 0.976563 0.976563 0.976563 0.976563 0.976563 0.976563 0.976563 0.976563 0.976563 0.976563 0.976563 0.976563 0.976563 0.651042 0.325521 0.976563 0.976563 0.976563 0.976563 0.976563 0.976563 0.976563 0.976563 0.976563 0.976563 0.976563 0.976563 0.976563 0.976563 0.976563 0.976563 0.976563 0.976563 0.976563 0.976563 0.976563 0.976563 0.976563 0.976563 0.976563 0.976563 0.976563 0.976563 0.976563 0.976563 0.976563 0.651042 0.325521 0.976563 0.976563 0.976563 0.976563 0.976563 0.976563 0.976563 0.976563 0.976563 0.976563 0.976563 0.976563 0.976563 0.976563 0.976563 0.976563 0.976563 0.976563 0.976563 0.976563 0.976563 0.976563 0.976563 0.976563 0.976563 0.976563 0.976563 0.976563 0.976563 0.976563 0.976563 0.651042 0.325521 0.976563 0.976563 0.976563 0.976563 0.976563 0.976563 0.976563 0.976563 0.976563 0.976563 0.976563 0.976563 0.976563 0.976563 0.976563 0.976563 0.976563 0.976563 0.976563 0.976563 0.976563 0.976563 0.976563 0.976563 0.976563 0.976563 0.976563 0.976563 0.976563 0.976563 0.976563 0.651042 0.325521 0.976563 0.976563 0.976563 0.976563 0.976563 0.976563 0.976563 0.976563 0.976563 0.976563 0.976563 0.976563 0.976563 0.976563 0.976563 0.976563 0.976563 0.976563 0.976563 0.976563 0.976563 0.976563 0.976563 0.976563 0.976563 0.976563 0.976563 0.976563 0.976563 0.976563 0.976563 0.651042 0.325521 0.976563 0.976563 0.976563 0.976563 0.976563 0.976563 0.976563 0.976563 0.976563 0.976563 0.976563 0.976563 0.976563 0.976563 0.976563 0.976563 0.976563 0.976563 0.976563 0.976563 0.976563 0.976563 0.976563 0.976563 0.976563 0.976563 0.976563 0.976563 0.976563 0.976563 0.976563 0.651042 0.16276 0.651042 0.651042 0.651042 0.651042 0.651042 0.651042 0.651042 0.651042 0.651042 0.651042 0.651042 0.651042 0.651042 0.651042 0.651042 0.651042 0.651042 0.651042 0.651042 0.651042 0.651042 0.651042 0.651042 0.651042 0.651042 0.651042 0.651042 0.651042 0.651042 0.651042 0.651042 0.488281 
VECTORS u float
0 0 -2.98023e-08  -0.00273115 -0.002008 -0.00270092  -0.00503576 -0.00407058 -0.00351238  -0.00717846 -0.00673213 -0.00364381  -0.00921893 -0.010035 -0.00341329  -0.0111652 -0.0139468 -0.0029344  -0.0130276 -0.0184398 -0.00227714  -0.0148077 -0.0234678 -0.00147325  -0.0165007 -0.0289907 -0.000547856  -0.0181108 -0.0349662 0.000477582  -0.0196368 -0.0413492 0.00159928  -0.0210788 -0.0481091 0.00279972  -0.0224383 -0.0552073 0.0040707  -0.023717 -0.0626102 0.00540712  -0.0249139 -0.0702808 0.00679842  -0.0260364 -0.078194 0.0082359  -0.0270785 -0.0863088 0.00971666  -0.0280533 -0.0946089 0.0112326  -0.028955 -0.103059 0.0127795  -0.0297885 -0.111636 0.0143512  -0.0305572 -0.120321 0.015942  -0.0312684 -0.129086 0.0175476  -0.0319209 -0.13792 0.0191616  -0.0325191 -0.146792 0.0207879  -0.033067 -0.155693 0.022418  -0.0335732 -0.164609 0.024047  -0.0340347 -0.173519 0.0256754  -0.0344598 -0.18242 0.027302  -0.0348473 -0.191293 0.028928  -0.0352161 -0.200141 0.0305382  -0.0355585 -0.208948 0.0321512  -0.0358844 -0.217712 0.0337581  -0.0361967 -0.226421 0.0353771  0 0 -2.98023e-08  -0.00123546 -0.000815473 -0.00239989  -0.00286542 -0.00286669 -0.002691  -0.00441107 -0.00558674 -0.0026691  -0.00588387 -0.00895914 -0.00238395  -0.00729287 -0.0129484 -0.00190082  -0.00864625 -0.0175198 -0.0012635  -0.0099467 -0.022628 -0.000493854  -0.0111943 -0.0282312 0.000389129  -0.0123849 -0.0342821 0.00137448  -0.0135243 -0.0407447 0.00244868  -0.0146123 -0.0475822 0.00360006  -0.0156494 -0.0547552 0.00482249  -0.0166359 -0.0622286 0.00610998  -0.0175724 -0.0699691 0.00745454  -0.0184563 -0.0779441 0.0088512  -0.0192927 -0.0861236 0.0102868  -0.0200827 -0.0944821 0.0117622  -0.0208275 -0.102987 0.0132713  -0.0215278 -0.111615 0.014804  -0.0221829 -0.120345 0.0163625  -0.0228012 -0.129155 0.0179357  -0.0233779 -0.138027 0.0195207  -0.0239179 -0.146935 0.0211206  -0.0244212 -0.155866 0.022727  -0.0248938 -0.164809 0.0243359  -0.0253367 -0.173748 0.0259453  -0.0257514 -0.182671 0.0275551  -0.0261416 -0.191563 0.029163  -0.0265062 -0.20042 0.0307722  -0.0268538 -0.20924 0.0323781  -0.0271826 -0.218006 0.0339836  -0.0275033 -0.226718 0.035597  0 0 -2.98023e-08  -0.000515506 -0.000382036 -0.00122517  -0.00118388 -0.00203572 -0.00189364  -0.00206482 -0.00474444 -0.00163192  -0.00294346 -0.00815858 -0.00126272  -0.00379956 -0.0122047 -0.000765353  -0.00463551 -0.0168355 -0.000147015  -0.00544757 -0.022006 0.00058642  -0.0062362 -0.027671 0.00142163  -0.0070039 -0.0337874 0.00235265  -0.00774693 -0.0403133 0.00337374  -0.00846708 -0.0472083 0.00447094  -0.00916922 -0.0544433 0.0056386  -0.00984776 -0.0619721 0.006872  -0.0105047 -0.0697666 0.00816557  -0.0111415 -0.0777962 0.00951198  -0.0117542 -0.0860245 0.0108984  -0.0123463 -0.0944272 0.0123287  -0.0129187 -0.102976 0.0137936  -0.013468 -0.111645 0.0152874  -0.0139956 -0.120412 0.0168068  -0.0145061 -0.129258 0.0183439  -0.0149915 -0.138158 0.0199002  -0.0154567 -0.147094 0.0214702  -0.015902 -0.156053 0.0230488  -0.0163293 -0.165018 0.0246342  -0.0167382 -0.173976 0.0262239  -0.0171273 -0.182915 0.0278193  -0.0174994 -0.191824 0.0294118  -0.0178554 -0.200699 0.0310056  -0.018198 -0.209529 0.0326019  -0.0185232 -0.218301 0.0342015  -0.0188389 -0.227016 0.0358053  0 0 -2.98023e-08  6.70105e-05 -0.000236154 -0.000266284  5.91874e-05 -0.00173283 -0.000555217  -5.16772e-05 -0.00425947 -0.000545144  -0.00030598 -0.00766498 -0.000105768  -0.000589669 -0.0117392 0.000409186  -0.000891685 -0.0164101 0.00100991  -0.0012036 -0.0216253 0.0017035  -0.00152111 -0.0273368 0.00249115  -0.00184834 -0.0334994 0.00336659  -0.00218642 -0.0400746 0.00432521  -0.00253189 -0.0470159 0.0053668  -0.00288749 -0.0542911 0.00648025  -0.00324976 -0.0618617 0.00765792  -0.00361979 -0.0696958 0.00889507  -0.00399733 -0.077761 0.0101877  -0.00437891 -0.0860299 0.011527  -0.00476122 -0.0944641 0.0129099  -0.00514913 -0.103043 0.0143292  -0.00553679 -0.111743 0.0157817  -0.00592637 -0.120537 0.0172612  -0.0063138 -0.129406 0.0187657  -0.00669813 -0.138328 0.0202889  -0.00707889 -0.147284 0.0218273  -0.00745773 -0.156263 0.0233767  -0.00782681 -0.165245 0.0249402  -0.00819182 -0.17422 0.0265077  -0.00854969 -0.183171 0.0280824  -0.00890279 -0.192095 0.0296582  -0.00924492 -0.200979 0.0312405  -0.00957346 -0.209816 0.0328249  -0.00990033 -0.218601 0.0344101  -0.0102055 -0.22731 0.036008  0 0 -2.98023e-08  0.000605553 -0.000306338 0.000594348  0.00119543 -0.0017519 0.000691503  0.00171486 -0.00419694 0.000811249  0.00213331 -0.00750861 0.00109357  0.00244015 -0.0115753 0.00159976  0.00268763 -0.0162637 0.00217572  0.00289214 -0.0215028 0.00282845  0.0030508 -0.0272431 0.00356513  0.00317192 -0.033436 0.00438431  0.00325155 -0.0400364 0.00528717  0.00329089 -0.0470104 0.0062677  0.0032897 -0.0543142 0.00731876  0.00325465 -0.0619102 0.00844461  0.00317931 -0.0697708 0.00962707  0.00306916 -0.0778597 0.010865  0.00292826 -0.0861471 0.0121573  0.00275946 -0.0946024 0.0134946  0.00256109 -0.103201 0.0148674  0.00234079 -0.111917 0.0162812  0.00209498 -0.12073 0.017718  0.00183272 -0.129613 0.0191867  0.00155306 -0.13855 0.0206739  0.00126243 -0.147519 0.0221841  0.000958443 -0.156507 0.0237073  0.000645876 -0.165497 0.0252466  0.000328779 -0.174482 0.0267939  4.76837e-06 -0.183442 0.0283468  -0.00032115 -0.192374 0.0299073  -0.000647068 -0.201267 0.0314733  -0.000965118 -0.210112 0.0330428  -0.00128269 -0.218902 0.0346115  -0.00159049 -0.227624 0.0361915  0 0 -2.98023e-08  0.00114202 -0.000581026 0.00139028  0.00231209 -0.00206232 0.00186011  0.00343245 -0.00446635 0.00212389  0.00446361 -0.00772274 0.0024173  0.00538963 -0.011735 0.00280923  0.00620478 -0.0164101 0.00333861  0.00693208 -0.0216559 0.00394359  0.00758421 -0.0274051 0.00462362  0.00816262 -0.0336102 0.00538796  0.00866652 -0.0402223 0.00622931  0.00909793 -0.0472071 0.00715196  0.00945807 -0.0545202 0.00814876  0.00974977 -0.0621279 0.00921601  0.00997579 -0.0699975 0.010346  0.0101392 -0.0780931 0.0115364  0.0102398 -0.0863883 0.0127774  0.0102854 -0.0948523 0.0140683  0.0102808 -0.103458 0.0153999  0.0102272 -0.112181 0.0167672  0.0101304 -0.120994 0.0181704  0.00999331 -0.129883 0.0196044  0.00981975 -0.138823 0.0210633  0.00961757 -0.147797 0.0225386  0.00938869 -0.156789 0.0240345  0.00913835 -0.165783 0.0255492  0.00886631 -0.174767 0.0270751  0.0085783 -0.183731 0.0286126  0.00827861 -0.192668 0.0301545  0.00797296 -0.201563 0.0317057  0.00765824 -0.210419 0.0332552  0.00734973 -0.219215 0.0348139  0.00705099 -0.227939 0.0363756  0 0 -2.98023e-08  0.00169592 -0.00106514 0.00213999  0.00345626 -0.00265354 0.00296375  0.00517917 -0.00505579 0.00338081  0.00681973 -0.0082708 0.00370675  0.0083456 -0.0122375 0.00405958  0.0097484 -0.0168703 0.00449416  0.0110205 -0.0220942 0.00503632  0.012176 -0.0278342 0.00565386  0.0132196 -0.0340289 0.006358  0.0141546 -0.0406354 0.00714287  0.0149806 -0.047613 0.00800687  0.0157038 -0.0549204 0.00894877  0.0163246 -0.0625209 0.00996223  0.0168502 -0.0703846 0.0110404  0.0172824 -0.0784724 0.012181  0.017627 -0.0867592 0.013377  0.0178876 -0.0952168 0.0146227  0.0180717 -0.103815 0.0159139  0.0181854 -0.11253 0.0172451  0.0182304 -0.12134 0.0186082  0.0182173 -0.130223 0.0200079  0.0181499 -0.139155 0.0214342  0.0180349 -0.148122 0.0228858  0.017874 -0.15711 0.0243571  0.0176764 -0.1661 0.0258477  0.0174527 -0.175079 0.0273553  0.0172002 -0.184039 0.0288739  0.0169206 -0.192975 0.0303991  0.0166278 -0.201873 0.0319349  0.0163257 -0.210728 0.0334734  0.0160155 -0.219534 0.0350168  0.0157132 -0.228272 0.036558  0 0 -2.98023e-08  0.00225231 -0.00176746 0.00286999  0.00461584 -0.00353706 0.0040445  0.00697017 -0.00597048 0.00459865  0.00924605 -0.00916159 0.00494871  0.0113986 -0.0130795 0.00526789  0.0134028 -0.0176586 0.00563747  0.0152411 -0.0228364 0.00608632  0.0169181 -0.0285393 0.00663882  0.0184408 -0.0347062 0.00727817  0.0198123 -0.0412858 0.0080035  0.0210402 -0.0482379 0.0088127  0.0221255 -0.0555198 0.00970054  0.023077 -0.0630977 0.0106631  0.0239027 -0.0709351 0.0116981  0.0245985 -0.0790011 0.0127903  0.0251808 -0.0872656 0.0139424  0.0256505 -0.0956988 0.0151477  0.0260179 -0.104276 0.0164007  0.0262876 -0.112974 0.017692  0.0264709 -0.121763 0.0190264  0.0265722 -0.130627 0.0203927  0.0266008 -0.139543 0.0217936  0.0265646 -0.148496 0.0232203  0.0264688 -0.157467 0.0246659  0.0263178 -0.166445 0.026135  0.0261292 -0.175416 0.0276261  0.0259013 -0.18437 0.0291266  0.0256436 -0.193296 0.0306411  0.0253561 -0.202192 0.0321625  0.0250614 -0.211045 0.0336953  0.0247505 -0.219854 0.0352255  0.0244355 -0.228612 0.0367513  0 0 -2.98023e-08  0.00260438 -0.00266838 0.00369933  0.00556481 -0.00477374 0.00518271  0.008636 -0.00729197 0.00580961  0.0116503 -0.0104637 0.00613469  0.0145169 -0.0143225 0.00639287  0.0171905 -0.0188316 0.00668073  0.0196554 -0.0239313 0.00705564  0.0218971 -0.0295665 0.00752455  0.0239232 -0.0356762 0.00810105  0.0257454 -0.0422052 0.00876772  0.0273862 -0.0491055 0.00953308  0.0288383 -0.0563371 0.0103769  0.0301199 -0.0638722 0.0112949  0.0312356 -0.0716649 0.0122846  0.0321907 -0.0796914 0.0133346  0.033006 -0.0879094 0.0144553  0.0336688 -0.0963066 0.0156243  0.0342062 -0.104847 0.016844  0.0346229 -0.113509 0.0181055  0.0349259 -0.122266 0.019408  0.035131 -0.131096 0.0207553  0.0352395 -0.139984 0.0221284  0.0352707 -0.148911 0.0235303  0.0352273 -0.157857 0.0249614  0.0351133 -0.166818 0.0264078  0.0349462 -0.175773 0.0278807  0.0347314 -0.184712 0.02937  0.0344777 -0.193629 0.0308717  0.0341969 -0.20251 0.0323888  0.0338957 -0.21136 0.0339195  0.0335789 -0.220171 0.0354509  0.0332508 -0.228941 0.0369624  0 0 -2.98023e-08  -0.00240298 -0.00254533 -0.00187042  -0.00491606 -0.00486265 -0.00270143  -0.00727952 -0.00767186 -0.00288659  -0.00951669 -0.0110277 -0.00270233  -0.0116448 -0.0149443 -0.00226864  -0.0136703 -0.0194114 -0.00165394  -0.0155923 -0.0243975 -0.000892013  -0.0174145 -0.0298682 -1.21593e-05  -0.019137 -0.035785 0.00097692  -0.020764 -0.0421154 0.00205639  -0.0222964 -0.048822 0.0032163  -0.0237361 -0.0558636 0.00445142  -0.0250841 -0.0632152 0.00575063  -0.0263433 -0.0708364 0.00710347  -0.0275146 -0.0786981 0.00850809  -0.0286039 -0.0867683 0.00995737  -0.0296152 -0.0950241 0.0114424  -0.0305462 -0.103436 0.0129605  -0.0314057 -0.111978 0.0145024  -0.0321951 -0.120626 0.0160709  -0.0329173 -0.129359 0.0176544  -0.0335808 -0.138161 0.0192485  -0.0341852 -0.147008 0.0208537  -0.0347381 -0.155889 0.0224673  -0.0352416 -0.164782 0.0240837  -0.0357039 -0.173677 0.0256995  -0.0361271 -0.182563 0.027314  -0.0365171 -0.191428 0.028927  -0.0368764 -0.200264 0.0305363  -0.0372167 -0.209064 0.0321445  -0.0375428 -0.217826 0.0337449  -0.0378554 -0.22654 0.0353599  0 0 -2.98023e-08  -0.000423387 -0.000839435 -0.00133559  -0.00261252 -0.00353188 -0.0020408  -0.00445506 -0.0064671 -0.00212809  -0.0061563 -0.00991093 -0.00189692  -0.00776052 -0.0139125 -0.00145298  -0.00927955 -0.0184596 -0.000846088  -0.0107259 -0.0235283 -0.000105143  -0.012103 -0.0290817 0.000750601  -0.0134099 -0.0350821 0.00170678  -0.0146512 -0.0414918 0.00275251  -0.0158285 -0.0482771 0.00387874  -0.016942 -0.0553975 0.00507593  -0.0179946 -0.0628197 0.00633991  -0.0189903 -0.070512 0.00766015  -0.019925 -0.0784407 0.0090324  -0.0208073 -0.086576 0.0104454  -0.0216334 -0.0948885 0.0119023  -0.0224094 -0.103358 0.0133901  -0.0231333 -0.111951 0.0149063  -0.0238099 -0.120648 0.0164458  -0.0244396 -0.129426 0.0180042  -0.0250275 -0.138268 0.0195754  -0.0255747 -0.147151 0.0211624  -0.0260811 -0.156062 0.0227579  -0.0265555 -0.164984 0.0243575  -0.0270004 -0.173905 0.0259582  -0.0274115 -0.182812 0.0275629  -0.0277967 -0.191693 0.029167  -0.0281615 -0.200546 0.0307686  -0.028507 -0.209357 0.03237  -0.0288365 -0.218122 0.0339708  -0.0291562 -0.226841 0.0355818  0 0 -2.98023e-08  -0.00014025 -0.000648484 -0.00073725  -0.00103496 -0.00266314 -0.00152701  -0.00219464 -0.00560845 -0.00137699  -0.00328189 -0.00910462 -0.00105324  -0.00431317 -0.0131663 -0.000582337  -0.0052979 -0.0177791 1.94311e-05  -0.00624162 -0.022912 0.000737876  -0.00714779 -0.0285298 0.001562  -0.0080198 -0.0345941 0.00248128  -0.00885952 -0.0410674 0.0034897  -0.00966334 -0.0479128 0.00457549  -0.0104386 -0.0550946 0.00573438  -0.0111802 -0.062571 0.00695831  -0.0118965 -0.0703178 0.00824001  -0.0125829 -0.0782997 0.00957635  -0.013237 -0.0864825 0.0109569  -0.0138679 -0.0948434 0.0123769  -0.0144694 -0.103353 0.0138345  -0.0150433 -0.111987 0.0153207  -0.0155926 -0.120719 0.0168326  -0.0161126 -0.129531 0.018367  -0.0166118 -0.138404 0.0199154  -0.017086 -0.147316 0.0214787  -0.0175362 -0.156251 0.0230551  -0.017967 -0.165196 0.0246362  -0.0183768 -0.174135 0.0262235  -0.0187671 -0.183061 0.0278134  -0.019141 -0.19196 0.0294051  -0.0194979 -0.200824 0.0309986  -0.0198379 -0.209643 0.0325945  -0.0201652 -0.218415 0.0341905  -0.020483 -0.227134 0.0357935  0 0 -2.98023e-08  8.20756e-05 -0.00064677 -0.000225931  -5.15729e-05 -0.00244689 -0.000552267  -0.000303596 -0.00511828 -0.000572741  -0.000727743 -0.00860974 -0.000167638  -0.00115788 -0.0126992 0.000334054  -0.00158668 -0.017352 0.000932693  -0.00201219 -0.0225315 0.00162628  -0.0024336 -0.0281964 0.00241661  -0.00285673 -0.0343083 0.00329477  -0.00327909 -0.0408294 0.00426045  -0.00370193 -0.0477207 0.00530455  -0.00412369 -0.0549437 0.00642133  -0.00454986 -0.0624661 0.00760341  -0.00497353 -0.0702503 0.00884426  -0.0053966 -0.0782709 0.0101391  -0.00581956 -0.0864919 0.0114834  -0.00623965 -0.0948838 0.0128684  -0.00665784 -0.103425 0.014294  -0.00707197 -0.112086 0.0157472  -0.00748277 -0.120847 0.0172309  -0.00788832 -0.129685 0.0187359  -0.008286 -0.138578 0.0202606  -0.00867701 -0.147509 0.0218017  -0.00906181 -0.156464 0.0233555  -0.00943899 -0.165425 0.0249196  -0.00980759 -0.174379 0.0264904  -0.0101695 -0.183318 0.0280657  -0.0105193 -0.192229 0.0296466  -0.0108631 -0.201102 0.0312285  -0.0111957 -0.20993 0.0328136  -0.0115199 -0.218711 0.0344021  -0.0118339 -0.227431 0.035995  0 0 -2.98023e-08  0.000292033 -0.00081718 0.000227481  0.00082767 -0.0025436 0.000351757  0.00127491 -0.00510716 0.000477046  0.00160891 -0.00846052 0.000765234  0.00180906 -0.0125388 0.00127271  0.00195587 -0.0172059 0.00185904  0.00206441 -0.0224081 0.00252691  0.00213885 -0.0281011 0.00328019  0.00217712 -0.0342436 0.00411752  0.00218117 -0.0407958 0.00503805  0.00215113 -0.0477163 0.00603735  0.00208843 -0.0549665 0.0071089  0.00199139 -0.062515 0.00824994  0.00186443 -0.0703258 0.00944981  0.00171077 -0.0783685 0.0107062  0.00152898 -0.0866119 0.0120125  0.00132179 -0.095026 0.0133622  0.0010941 -0.103584 0.0147524  0.000843525 -0.112265 0.0161757  0.000578165 -0.121041 0.0176279  0.000296354 -0.129893 0.0191058  2.14577e-06 -0.1388 0.0206064  -0.000301123 -0.147743 0.0221261  -0.000615597 -0.156708 0.0236587  -0.00093317 -0.165679 0.0252048  -0.00125766 -0.174642 0.0267588  -0.00158525 -0.18359 0.0283195  -0.00190926 -0.192507 0.0298882  -0.0022366 -0.201389 0.0314577  -0.00255895 -0.210225 0.0330303  -0.00287414 -0.219009 0.0346055  -0.00318527 -0.227739 0.0361831  0 0 -2.98023e-08  0.000503868 -0.00117344 0.000634581  0.00168991 -0.00291824 0.00119337  0.00280249 -0.00542909 0.00149497  0.00380141 -0.00871217 0.00181264  0.00467777 -0.0127097 0.00223085  0.00542569 -0.0173582 0.00278583  0.00608265 -0.0225595 0.00342003  0.00666583 -0.02826 0.00413266  0.0071739 -0.034415 0.00492647  0.0076139 -0.0409777 0.00580353  0.0079838 -0.0479091 0.0067583  0.00828648 -0.0551707 0.00778776  0.00852263 -0.0627306 0.00888395  0.00869894 -0.0705509 0.0100468  0.00881338 -0.078603 0.0112626  0.00887561 -0.0868523 0.0125325  0.00888491 -0.0952752 0.0138483  0.00884843 -0.10384 0.0152051  0.00876784 -0.112526 0.0165965  0.0086472 -0.121308 0.018022  0.00849056 -0.130164 0.0194746  0.00830293 -0.139074 0.0209505  0.00808501 -0.148023 0.0224425  0.00784612 -0.156989 0.0239582  0.00758648 -0.165963 0.0254866  0.00730801 -0.174929 0.0270239  0.00701761 -0.18388 0.0285723  0.00671506 -0.192802 0.0301251  0.00640821 -0.201686 0.0316848  0.00609636 -0.210529 0.0332443  0.00578952 -0.219318 0.0348105  0.00548792 -0.228052 0.0363719  0 0 -2.98023e-08  0.000718862 -0.00174958 0.000994444  0.00257838 -0.00357693 0.00197363  0.00435698 -0.00607324 0.00246036  0.00601596 -0.00930345 0.00282937  0.00753635 -0.01324 0.00322497  0.00891095 -0.0178288 0.00370407  0.0101378 -0.0230019 0.00428957  0.0112411 -0.02869 0.00495577  0.0122315 -0.0348338 0.00570568  0.0131121 -0.0413892 0.0065383  0.0138857 -0.0483137 0.00745106  0.0145574 -0.0555686 0.00843847  0.0151275 -0.0631232 0.00949565  0.0156062 -0.0709359 0.0106179  0.0159962 -0.0789792 0.0117976  0.0163019 -0.0872229 0.0130349  0.0165274 -0.0956386 0.0143165  0.0166798 -0.104196 0.0156423  0.016763 -0.112876 0.0170062  0.0167847 -0.121652 0.0184035  0.0167494 -0.130501 0.0198312  0.016664 -0.139405 0.0212842  0.0165358 -0.148346 0.0227591  0.0163639 -0.15731 0.0242532  0.0161567 -0.166281 0.0257631  0.0159225 -0.175242 0.0272855  0.0156653 -0.184189 0.0288213  0.0153868 -0.19311 0.0303617  0.0150943 -0.201995 0.0319098  0.014792 -0.210839 0.0334598  0.0144835 -0.219638 0.0350118  0.0141821 -0.22838 0.0365621  0 0 -2.98023e-08  0.00089258 -0.00258452 0.00130326  0.00347897 -0.00454015 0.00272083  0.00595459 -0.00705081 0.00338262  0.0082984 -0.0102403 0.00380051  0.010481 -0.0141174 0.00417873  0.0124876 -0.0186425 0.00460741  0.0143116 -0.0237567 0.00511956  0.0159578 -0.0294023 0.00573543  0.0174388 -0.0355139 0.00643685  0.0187684 -0.0420384 0.00722769  0.0199507 -0.0489369 0.00809932  0.0209904 -0.0561681 0.00904763  0.0218972 -0.0636958 0.0100677  0.0226763 -0.0714856 0.011156  0.0233339 -0.0795056 0.0123032  0.0238771 -0.0877272 0.0135061  0.0243118 -0.0961204 0.0147588  0.024648 -0.104656 0.0160581  0.0248902 -0.113315 0.0173939  0.0250487 -0.122072 0.0187685  0.0251272 -0.130906 0.0201707  0.0251379 -0.139794 0.0216046  0.0250845 -0.148719 0.02306  0.0249789 -0.157668 0.0245385  0.0248194 -0.166628 0.0260325  0.0246212 -0.17558 0.0275413  0.0243914 -0.184517 0.0290652  0.0241323 -0.19343 0.0305981  0.0238483 -0.202313 0.0321351  0.0235491 -0.211157 0.0336769  0.0232444 -0.219958 0.0352215  0.0229368 -0.228714 0.0367594  0 0 -2.98023e-08  0.000887722 -0.00365502 0.00165486  0.00423944 -0.00581908 0.00353998  0.00747836 -0.00839734 0.00432307  0.0105832 -0.0115598 0.00473943  0.013496 -0.0153739 0.00507301  0.0161914 -0.0198166 0.00544035  0.0186495 -0.0248524 0.00588864  0.0208756 -0.0304217 0.00643981  0.0228739 -0.0364727 0.00709641  0.0246634 -0.0429441 0.00784311  0.0262599 -0.0497925 0.00868103  0.0276737 -0.0569757 0.00959808  0.028911 -0.0644599 0.0105858  0.0299859 -0.0722077 0.0116419  0.0309079 -0.0801816 0.0127628  0.0316777 -0.0883666 0.0139371  0.032316 -0.0967216 0.0151668  0.0328262 -0.105221 0.0164422  0.033217 -0.113846 0.0177544  0.0334976 -0.122572 0.0191055  0.0336812 -0.131376 0.0204913  0.0337758 -0.140236 0.0219056  0.0337911 -0.149136 0.0233442  0.0337367 -0.158061 0.0248066  0.0336158 -0.167001 0.0262897  0.0334406 -0.175936 0.0277867  0.0332265 -0.184858 0.0293022  0.0329735 -0.193763 0.0308233  0.0326929 -0.202637 0.032356  0.0323904 -0.211477 0.0338956  0.0320802 -0.220281 0.035439  0.0317659 -0.229046 0.0369707  0 0 0  -0.00245222 -0.00291474 -0.00128791  -0.00496821 -0.00558509 -0.00187133  -0.00745785 -0.00844475 -0.0020455  -0.00983858 -0.0118347 -0.00189395  -0.012107 -0.0157599 -0.00150724  -0.0142617 -0.0202098 -0.000940263  -0.0163054 -0.025166 -0.00022833  -0.0182403 -0.0306005 0.000603676  -0.020066 -0.0364772 0.00154348  -0.0217874 -0.0427665 0.00257492  -0.0234035 -0.049427 0.00368972  -0.0249158 -0.0564285 0.00488013  -0.0263313 -0.0637383 0.00613678  -0.0276498 -0.0713163 0.00744931  -0.0288774 -0.0791393 0.00881281  -0.0300128 -0.0871742 0.0102263  -0.0310621 -0.095394 0.0116785  -0.0320303 -0.103772 0.0131614  -0.032917 -0.11228 0.0146756  -0.0337319 -0.1209 0.0162144  -0.0344751 -0.129609 0.017772  -0.0351558 -0.138386 0.0193438  -0.0357764 -0.147213 0.0209277  -0.0363395 -0.156074 0.022521  -0.0368507 -0.164948 0.0241231  -0.0373175 -0.173829 0.025727  -0.0377464 -0.182702 0.0273295  -0.0381403 -0.191558 0.0289329  -0.0385029 -0.200386 0.0305328  -0.0388446 -0.209188 0.0321348  -0.0391703 -0.217946 0.0337359  -0.0394948 -0.226672 0.0353396  0 0 0  -0.000436448 -0.00117961 -0.000925288  -0.00250581 -0.00408893 -0.00131293  -0.00454229 -0.00713448 -0.00145137  -0.0064269 -0.0106421 -0.00127386  -0.00819647 -0.014664 -0.000879139  -0.0098632 -0.019203 -0.000316381  -0.0114425 -0.0242497 0.000381842  -0.0129355 -0.02977 0.00119893  -0.0143472 -0.0357341 0.00211829  -0.0156834 -0.0421057 0.00312923  -0.0169449 -0.0488484 0.00422125  -0.0181348 -0.0559299 0.00538622  -0.0192562 -0.0633147 0.00661731  -0.0203127 -0.0709687 0.00790748  -0.0213007 -0.0788594 0.00925028  -0.0222274 -0.0869628 0.01064  -0.0230939 -0.0952434 0.0120701  -0.0239022 -0.103679 0.0135329  -0.0246544 -0.112243 0.0150274  -0.0253558 -0.120913 0.0165467  -0.0260057 -0.129668 0.0180868  -0.0266085 -0.138485 0.0196429  -0.0271692 -0.147349 0.0212136  -0.027688 -0.156243 0.0227926  -0.0281692 -0.165147 0.0243829  -0.0286157 -0.174056 0.025975  -0.0290322 -0.182951 0.0275692  -0.0294211 -0.191824 0.0291678  -0.0297871 -0.200669 0.0307641  -0.0301325 -0.209478 0.0323623  -0.0304632 -0.218243 0.0339614  -0.0307851 -0.22697 0.0355657  0 0 0  -0.000186831 -0.0009754 -0.00053066  -0.000740036 -0.00289816 -0.000828326  -0.00224534 -0.0061605 -0.000912011  -0.00355139 -0.00976871 -0.000675306  -0.00475544 -0.0138667 -0.00025022  -0.005889 -0.0184796 0.000318527  -0.00696158 -0.0235939 0.00101157  -0.00798297 -0.0291829 0.00181095  -0.00895786 -0.0352152 0.00270866  -0.00988865 -0.0416524 0.00369641  -0.0107776 -0.0484611 0.00476024  -0.0116256 -0.0556038 0.00590235  -0.0124359 -0.0630471 0.00710617  -0.013209 -0.0707569 0.00837328  -0.0139461 -0.0787044 0.00969161  -0.0146484 -0.0868565 0.0110568  -0.0153182 -0.0951859 0.0124646  -0.0159543 -0.103665 0.0139079  -0.016557 -0.112271 0.0153826  -0.0171282 -0.120979 0.016882  -0.0176721 -0.129768 0.018403  -0.0181854 -0.138618 0.0199452  -0.0186739 -0.14751 0.0215003  -0.0191355 -0.156429 0.0230671  -0.0195708 -0.165357 0.0246446  -0.0199852 -0.174285 0.0262272  -0.0203798 -0.183199 0.0278109  -0.0207551 -0.192089 0.0294008  -0.0211115 -0.200944 0.0309932  -0.0214539 -0.209762 0.032586  -0.0217865 -0.218538 0.0341786  -0.0221059 -0.227266 0.0357792  0 0 0  3.24398e-05 -0.000970542 -0.000206962  -2.5034e-06 -0.00277033 -0.000316322  -0.000422448 -0.00561851 -0.000413641  -0.00104472 -0.00923863 -7.47591e-05  -0.00163478 -0.0133743 0.000391409  -0.00219953 -0.0180341 0.000971168  -0.00274515 -0.0231972 0.00165552  -0.00327665 -0.0288377 0.00243825  -0.00379479 -0.0349179 0.00331233  -0.00430346 -0.0414049 0.00427398  -0.00480461 -0.0482596 0.00531276  -0.00529945 -0.0554493 0.00642614  -0.00578701 -0.0629341 0.00760539  -0.00626814 -0.0706862 0.00884543  -0.00674152 -0.078672 0.0101375  -0.00720894 -0.0868599 0.0114796  -0.00766754 -0.0952229 0.012863  -0.00812197 -0.103735 0.0142852  -0.00856376 -0.11237 0.0157387  -0.00899959 -0.121106 0.0172194  -0.00942373 -0.129918 0.0187243  -0.0098393 -0.138791 0.020248  -0.0102456 -0.147705 0.021788  -0.0106416 -0.156641 0.0233431  -0.0110261 -0.165588 0.0249058  -0.0113997 -0.17453 0.0264768  -0.011764 -0.183455 0.0280524  -0.0121191 -0.192358 0.0296331  -0.0124624 -0.201225 0.0312179  -0.0127974 -0.210052 0.0328006  -0.0131221 -0.218831 0.0343902  -0.0134394 -0.227563 0.0359827  0 0 0  0.000233561 -0.00113454 8.43853e-05  0.000661641 -0.00293323 0.000177205  0.000991136 -0.0056369 0.000289664  0.00121212 -0.00906608 0.000564545  0.00127816 -0.0131934 0.00105882  0.00130844 -0.0178682 0.00164218  0.00131267 -0.0230571 0.00231606  0.00128782 -0.0287294 0.00307739  0.00123966 -0.0348414 0.00392698  0.00116515 -0.0413601 0.00486028  0.00106096 -0.0482458 0.0058718  0.000930071 -0.0554628 0.00695708  0.000774026 -0.0629738 0.00810981  0.000591278 -0.0707542 0.00932041  0.000386715 -0.0787639 0.0105882  0.000159979 -0.0869757 0.0119037  -8.46386e-05 -0.0953606 0.0132656  -0.000347376 -0.103891 0.0146637  -0.000623465 -0.112545 0.0160966  -0.000913858 -0.121296 0.0175587  -0.00121737 -0.130127 0.0190452  -0.00153017 -0.139013 0.020551  -0.00184822 -0.147937 0.0220763  -0.00217152 -0.156885 0.0236173  -0.00250053 -0.165843 0.0251672  -0.00282979 -0.174793 0.0267275  -0.00316024 -0.183728 0.0282952  -0.00348997 -0.192637 0.0298659  -0.0038178 -0.201511 0.0314411  -0.00414038 -0.210345 0.0330166  -0.00445509 -0.21913 0.0345958  -0.00476694 -0.227864 0.0361752  0 0 0  0.000435397 -0.00147247 0.000348985  0.00131959 -0.0033685 0.000640258  0.00235403 -0.00599742 0.00096637  0.00328183 -0.00933528 0.00130464  0.00407916 -0.0133514 0.00174245  0.00473309 -0.0180068 0.00231566  0.00530511 -0.0231962 0.00297149  0.0058037 -0.0288759 0.0037092  0.00623548 -0.0349987 0.00453234  0.00660229 -0.0415303 0.0054387  0.00690258 -0.0484292 0.00642049  0.00714231 -0.0556595 0.00747709  0.00732374 -0.063183 0.00860204  0.00744438 -0.0709723 0.00978889  0.007514 -0.078991 0.0110312  0.00753284 -0.0872114 0.0123211  0.00750518 -0.0956047 0.0136601  0.00743437 -0.104143 0.0150375  0.00732422 -0.112804 0.0164485  0.00717711 -0.121561 0.0178922  0.00699925 -0.130396 0.0193614  0.00679231 -0.139285 0.0208523  0.00656128 -0.148214 0.0223631  0.00630927 -0.157166 0.0238889  0.006037 -0.166126 0.0254268  0.00575495 -0.175078 0.026978  0.00545907 -0.184018 0.0285342  0.00515509 -0.192929 0.0300976  0.00484538 -0.201808 0.0316637  0.00453138 -0.210646 0.0332294  0.00422192 -0.219438 0.0347978  0.00391865 -0.228178 0.0363641  0 0 0  0.000636145 -0.00201142 0.000586599  0.00199538 -0.00409931 0.00105803  0.00373971 -0.00669068 0.00159803  0.00536925 -0.00995535 0.00201724  0.00684738 -0.0138963 0.00245826  0.00816625 -0.0184739 0.00297876  0.00932705 -0.0236323 0.00360568  0.0103631 -0.0292919 0.00431794  0.0112859 -0.0354075 0.00511278  0.0121011 -0.0419315 0.00598978  0.0128133 -0.0488238 0.00694619  0.0134269 -0.0560461 0.00797659  0.0139436 -0.0635656 0.0090753  0.0143722 -0.071349 0.0102358  0.0147164 -0.0793619 0.0114541  0.0149786 -0.0875759 0.0127245  0.0151663 -0.095963 0.0140414  0.0152845 -0.104495 0.0153992  0.0153391 -0.113149 0.0167923  0.0153356 -0.121901 0.0182178  0.0152786 -0.13073 0.0196707  0.0151737 -0.139613 0.021147  0.0150275 -0.148537 0.0226425  0.014842 -0.157485 0.0241565  0.0146284 -0.16644 0.0256851  0.0143874 -0.175391 0.0272234  0.014123 -0.184327 0.0287711  0.0138423 -0.193237 0.030325  0.0135474 -0.202116 0.0318834  0.0132444 -0.210956 0.0334452  0.0129373 -0.219753 0.0350018  0.0126362 -0.228501 0.0365601  0 0 0  0.000812545 -0.00277776 0.000804737  0.00265554 -0.0051803 0.00142428  0.0051716 -0.00773442 0.00218678  0.00753009 -0.0109336 0.00268687  0.00970197 -0.0147991 0.00313313  0.0116801 -0.019299 0.00362797  0.0134622 -0.0243838 0.00420637  0.0150537 -0.0299988 0.00488409  0.016479 -0.0360805 0.00564891  0.0177515 -0.042574 0.00649834  0.0188773 -0.0494384 0.00743151  0.0198628 -0.0566359 0.00843881  0.0207189 -0.0641312 0.00951503  0.0214481 -0.0718911 0.0106549  0.0220604 -0.0798817 0.0118532  0.0225632 -0.0880713 0.0131031  0.0229619 -0.0964366 0.0144033  0.023263 -0.10495 0.0157418  0.0234764 -0.113586 0.0171179  0.0236082 -0.122319 0.018527  0.0236669 -0.13113 0.0199665  0.0236592 -0.139997 0.0214301  0.0235903 -0.148906 0.0229144  0.0234704 -0.157839 0.0244179  0.0233023 -0.166783 0.0259367  0.0230973 -0.175726 0.0274657  0.0228605 -0.184652 0.0290059  0.0225964 -0.193558 0.0305527  0.0223129 -0.202432 0.0321042  0.0220151 -0.211272 0.0336586  0.0217102 -0.220073 0.0352125  0.0214043 -0.228831 0.0367592  0 0 0  0.000902846 -0.0037334 0.00108916  0.00313509 -0.00666958 0.00175591  0.00655356 -0.00916833 0.00277033  0.00972521 -0.0123042 0.00331803  0.0126567 -0.0160859 0.00375345  0.0153404 -0.0204942 0.00421098  0.0177687 -0.0254889 0.00474751  0.0199531 -0.0310185 0.0053843  0.0219004 -0.0370331 0.00612272  0.0236355 -0.0434719 0.00695065  0.0251786 -0.0502836 0.00786576  0.0265379 -0.0574343 0.00885256  0.0277256 -0.0648859 0.00991093  0.028751 -0.0726017 0.0110332  0.0296246 -0.080552 0.0122145  0.0303566 -0.0887043 0.0134497  0.0309579 -0.097033 0.0147344  0.0314345 -0.105509 0.0160609  0.0317981 -0.114112 0.0174226  0.032057 -0.122812 0.01882  0.0322175 -0.131592 0.020249  0.0322921 -0.140436 0.0216998  0.0322933 -0.149318 0.0231734  0.0322225 -0.158232 0.0246658  0.0320964 -0.167156 0.0261795  0.0319166 -0.17608 0.0277016  0.0316916 -0.184994 0.0292331  0.0314364 -0.193889 0.030776  0.0311573 -0.202755 0.0323258  0.0308578 -0.211592 0.0338766  0.0305457 -0.220395 0.0354258  0.0302358 -0.229159 0.0369734  0 0 0  -0.00254826 -0.00321254 -0.000737732  -0.005133 -0.00603844 -0.00107929  -0.00768867 -0.00905346 -0.0011586  -0.0101747 -0.0124472 -0.00101251  -0.0125582 -0.0163677 -0.000663571  -0.0148274 -0.0208053 -0.000146054  -0.0169822 -0.0257449 0.000509327  -0.0190178 -0.0311552 0.00128927  -0.0209415 -0.0370066 0.00217289  -0.0227509 -0.0432658 0.00315305  -0.0244464 -0.0498987 0.00421683  -0.0260351 -0.056869 0.00535635  -0.027518 -0.0641478 0.00656471  -0.0288974 -0.0716999 0.00783433  -0.0301794 -0.0794924 0.00915542  -0.0313635 -0.0875013 0.0105258  -0.032454 -0.0956947 0.0119407  -0.0334616 -0.104049 0.013387  -0.0343823 -0.112537 0.0148664  -0.0352252 -0.121136 0.0163727  -0.0359931 -0.129826 0.0179047  -0.0366919 -0.138583 0.0194533  -0.037329 -0.147391 0.0210159  -0.0379074 -0.156236 0.0225879  -0.0384309 -0.1651 0.0241697  -0.0389068 -0.173972 0.0257555  -0.0393393 -0.182834 0.0273506  -0.0397356 -0.191682 0.0289441  -0.0401042 -0.200508 0.030537  -0.0404506 -0.209303 0.0321313  -0.0407805 -0.218066 0.033729  -0.0411022 -0.226796 0.0353326  0 0 0  -0.000464603 -0.00140388 -0.000506446  -0.00260429 -0.00447524 -0.000707945  -0.00469518 -0.00766087 -0.000739355  -0.00671378 -0.0111927 -0.000584805  -0.00861716 -0.0152206 -0.000231365  -0.0104131 -0.0197544 0.000287816  -0.0121101 -0.0247848 0.000940571  -0.0137138 -0.030286 0.00171276  -0.015228 -0.0362248 0.00258962  -0.0166562 -0.042571 0.00355996  -0.0180018 -0.0492882 0.00461264  -0.019269 -0.0563418 0.00573914  -0.0204573 -0.0636993 0.00693532  -0.0215726 -0.071328 0.0081916  -0.0226159 -0.0791936 0.00950138  -0.0235916 -0.0872699 0.0108595  -0.0244997 -0.0955295 0.0122599  -0.0253458 -0.103943 0.0136965  -0.0261312 -0.112486 0.0151671  -0.0268574 -0.121136 0.0166642  -0.02753 -0.129874 0.0181832  -0.0281532 -0.138674 0.01972  -0.0287297 -0.147523 0.0212735  -0.029264 -0.156403 0.0228359  -0.0297561 -0.165298 0.0244117  -0.0302086 -0.174194 0.0259954  -0.0306299 -0.183081 0.0275821  -0.0310223 -0.19195 0.0291712  -0.0313902 -0.200789 0.0307616  -0.031738 -0.209595 0.0323563  -0.0320737 -0.218366 0.0339509  -0.0323963 -0.227094 0.0355563  0 0 0  -0.000216149 -0.00117932 -0.000296405  -0.000826344 -0.00323303 -0.00043341  -0.00233629 -0.00656652 -0.00038605  -0.00380296 -0.0102274 -0.000198986  -0.00516146 -0.0143528 0.000179565  -0.00643188 -0.0189709 0.000706961  -0.00763112 -0.0240778 0.00136385  -0.00876439 -0.0296531 0.00213183  -0.0098412 -0.0356655 0.00300036  -0.0108632 -0.0420819 0.00395976  -0.0118358 -0.0488672 0.00500069  -0.0127592 -0.0559849 0.00611807  -0.0136353 -0.063404 0.00730081  -0.0144694 -0.0710922 0.00854465  -0.015262 -0.079016 0.00984209  -0.0160099 -0.087145 0.0111888  -0.0167212 -0.0954543 0.0125776  -0.0173926 -0.103915 0.0140043  -0.0180268 -0.112502 0.0154624  -0.0186269 -0.121192 0.0169474  -0.0191922 -0.129965 0.0184567  -0.019727 -0.1388 0.0199856  -0.0202305 -0.147679 0.0215306  -0.0207033 -0.156584 0.0230897  -0.0211515 -0.165503 0.0246557  -0.0215726 -0.174422 0.0262324  -0.0219736 -0.183328 0.027814  -0.0223527 -0.192214 0.0293979  -0.0227115 -0.201066 0.0309869  -0.023056 -0.209882 0.0325771  -0.0233905 -0.218657 0.0341688  -0.0237126 -0.227391 0.0357674  0 0 0  -7.91252e-06 -0.00115162 -0.000134533  -0.000126511 -0.00306976 -0.000169754  -0.000441879 -0.0058344 -5.50523e-05  -0.0012961 -0.00960627 0.000156179  -0.00205255 -0.0137995 0.000565222  -0.00275648 -0.0184755 0.00111271  -0.00342387 -0.0236376 0.00177681  -0.00406343 -0.0292681 0.00254388  -0.00468194 -0.0353348 0.0034046  -0.00527942 -0.0418023 0.0043547  -0.00586021 -0.0486375 0.00538483  -0.00642776 -0.0558051 0.00648906  -0.00698042 -0.0632708 0.00765946  -0.00751925 -0.0710015 0.00889171  -0.00804496 -0.0789647 0.010178  -0.00856078 -0.0871349 0.011512  -0.00906348 -0.0954784 0.0128884  -0.00955224 -0.103974 0.0143044  -0.0100269 -0.11259 0.0157526  -0.0104885 -0.121311 0.0172292  -0.0109363 -0.130108 0.0187307  -0.0113709 -0.138967 0.0202486  -0.0117934 -0.147868 0.0217856  -0.0122008 -0.156794 0.0233383  -0.0125959 -0.16573 0.0248981  -0.0129764 -0.174665 0.0264693  -0.0133471 -0.183584 0.0280432  -0.0137074 -0.192482 0.0296222  -0.0140548 -0.201346 0.0312063  -0.0143905 -0.210168 0.0327934  -0.0147195 -0.218949 0.0343803  -0.0150418 -0.227689 0.0359707  0 0 0  0.000191838 -0.00129211 6.83032e-06  0.000522703 -0.00320998 7.29505e-05  0.000828892 -0.00587761 0.00026089  0.000908673 -0.00938529 0.000488944  0.0008232 -0.0135782 0.000950722  0.000725567 -0.0182773 0.00151904  0.000614822 -0.0234693 0.00218916  0.000490069 -0.029133 0.00295298  0.00034678 -0.0352343 0.0038065  0.000189185 -0.0417361 0.00474592  7.03335e-06 -0.0486044 0.00576502  -0.000192285 -0.0558015 0.0068578  -0.000412822 -0.0632978 0.0080144  -0.000650883 -0.0710567 0.00923397  -0.000906348 -0.0790476 0.0105086  -0.00117958 -0.087241 0.0118304  -0.00146556 -0.0956077 0.0131978  -0.00176358 -0.104122 0.0146018  -0.00207353 -0.112759 0.0160391  -0.0023911 -0.121496 0.0175085  -0.00271773 -0.130312 0.018998  -0.00304651 -0.139185 0.0205113  -0.00338173 -0.148097 0.022041  -0.00372052 -0.157036 0.0235837  -0.00405812 -0.165983 0.0251379  -0.00439525 -0.174925 0.0267022  -0.00473166 -0.183856 0.0282735  -0.00506473 -0.192757 0.0298473  -0.00539732 -0.201632 0.0314244  -0.00572205 -0.210462 0.0330045  -0.00604463 -0.219251 0.0345848  -0.00635886 -0.227992 0.0361664  0 0 0  0.000389814 -0.00160807 0.000134731  0.00116402 -0.00362241 0.000304008  0.00205919 -0.00626457 0.000571549  0.00287616 -0.00965482 0.000904156  0.00357145 -0.0137073 0.00134644  0.00411218 -0.0183879 0.00192681  0.00458205 -0.0235825 0.00259835  0.00498891 -0.0292557 0.00335617  0.00533426 -0.0353711 0.00420104  0.00562084 -0.0418893 0.00512953  0.00585151 -0.0487707 0.00613699  0.00602484 -0.0559831 0.00721858  0.006145 -0.0634904 0.00836479  0.00621223 -0.0712622 0.00957376  0.00623131 -0.079264 0.0108352  0.0062058 -0.0874661 0.012147  0.00613689 -0.0958436 0.0135015  0.00603008 -0.104366 0.0148961  0.00588822 -0.11301 0.0163233  0.00571609 -0.121755 0.0177832  0.0055151 -0.130575 0.0192651  0.00528884 -0.139453 0.0207694  0.00503969 -0.148372 0.0222909  0.00477457 -0.157314 0.0238275  0.00449395 -0.166265 0.0253768  0.00419903 -0.175212 0.0269345  0.00389862 -0.184143 0.0285004  0.00359011 -0.193049 0.0300691  0.0032773 -0.201927 0.031642  0.00296307 -0.210764 0.0332145  0.00265002 -0.219559 0.0347871  0.0023427 -0.228306 0.0363578  0 0 0  0.000589296 -0.00211644 0.000251917  0.00181946 -0.00432342 0.000509715  0.00331426 -0.00698894 0.000858115  0.00485438 -0.0102907 0.0012943  0.00625801 -0.0142485 0.00176904  0.00749964 -0.0188351 0.00232747  0.0085746 -0.023998 0.00299165  0.00952816 -0.0296556 0.00374096  0.0103743 -0.0357606 0.00457653  0.0111182 -0.0422702 0.00549562  0.0117631 -0.0491483 0.00649269  0.0123135 -0.0563567 0.00756081  0.0127714 -0.0638603 0.0086969  0.0131477 -0.0716262 0.00989473  0.0134407 -0.0796245 0.0111467  0.0136585 -0.0878223 0.0124485  0.0138068 -0.0961937 0.0137944  0.0138905 -0.10471 0.0151811  0.0139148 -0.11335 0.0165996  0.0138829 -0.12209 0.0180505  0.0138037 -0.130904 0.0195264  0.0136807 -0.139777 0.0210238  0.0135188 -0.148691 0.022539  0.0133221 -0.15763 0.0240699  0.0130963 -0.166577 0.0256131  0.0128455 -0.175521 0.0271646  0.0125756 -0.184451 0.0287252  0.0122883 -0.193356 0.0302899  0.0119915 -0.202233 0.0318564  0.0116882 -0.211072 0.0334282  0.0113792 -0.219872 0.0349919  0.011076 -0.228627 0.036552  0 0 0  0.000776365 -0.00284612 0.000363953  0.00247699 -0.00535977 0.000689438  0.0046106 -0.00809032 0.00110287  0.00691563 -0.0113026 0.00164549  0.00904113 -0.0151675 0.00215512  0.0109652 -0.0196611 0.00271139  0.0126837 -0.0247406 0.00335062  0.0142055 -0.0303492 0.00408953  0.0155609 -0.0364175 0.00491535  0.016766 -0.0428975 0.00582504  0.017826 -0.0497502 0.0068128  0.0187535 -0.056934 0.00787524  0.0195535 -0.0644126 0.00900463  0.0202303 -0.0721561 0.0101929  0.0207943 -0.0801314 0.0114384  0.021251 -0.0883083 0.0127331  0.02161 -0.0966593 0.014073  0.0218785 -0.105156 0.0154519  0.0220613 -0.11378 0.016865  0.0221677 -0.122498 0.018309  0.0222011 -0.1313 0.0197781  0.0221725 -0.140157 0.0212699  0.0220871 -0.149057 0.0227799  0.0219514 -0.157984 0.024305  0.0217736 -0.166921 0.0258444  0.02156 -0.175854 0.0273924  0.0213175 -0.184776 0.0289479  0.02105 -0.193677 0.0305099  0.0207639 -0.202548 0.0320746  0.0204651 -0.211388 0.0336378  0.0201581 -0.220192 0.0351998  0.0198522 -0.228956 0.0367546  0 0 0  0.000899583 -0.00377381 0.000515634  0.00303659 -0.00676715 0.000860615  0.00584024 -0.0096482 0.00128273  0.00902915 -0.012736 0.0019483  0.0119478 -0.0164862 0.00248639  0.0145931 -0.0208716 0.00303756  0.0169771 -0.025846 0.00366614  0.0190994 -0.0313612 0.00438369  0.0209807 -0.0373603 0.00520147  0.0226505 -0.043785 0.00610841  0.0241275 -0.050585 0.00709212  0.0254294 -0.0577221 0.00815149  0.0265594 -0.0651568 0.00927718  0.0275338 -0.072855 0.0104622  0.0283583 -0.0807921 0.0117019  0.0290453 -0.0889294 0.0129946  0.0296056 -0.0972447 0.0143311  0.0300484 -0.105708 0.0157054  0.0303793 -0.114297 0.0171143  0.0306077 -0.122988 0.0185523  0.0307474 -0.13176 0.0200195  0.030803 -0.140592 0.0215066  0.0307875 -0.149466 0.0230119  0.0307038 -0.158369 0.024536  0.0305638 -0.167285 0.0260742  0.0303757 -0.176205 0.0276209  0.0301464 -0.185116 0.0291688  0.0298886 -0.194005 0.03073  0.0296056 -0.20287 0.0322922  0.0293062 -0.211706 0.0338556  0.0289953 -0.22051 0.0354153  0.0286827 -0.229283 0.0369698  0 0 0  -0.00264705 -0.00340367 -0.000156932  -0.00531396 -0.00632652 -0.000254542  -0.007952 -0.00939613 -0.000236452  -0.0105267 -0.0128464 -6.71744e-05  -0.0130102 -0.0167599 0.000251681  -0.0153862 -0.0211874 0.000721291  -0.0176405 -0.0261138 0.00132074  -0.0197766 -0.0315126 0.0020415  -0.0217936 -0.0373526 0.00286608  -0.0236882 -0.0435962 0.00378974  -0.0254656 -0.0502153 0.00479682  -0.0271282 -0.0571709 0.00588115  -0.0286785 -0.0644326 0.00703767  -0.0301212 -0.0719671 0.00825632  -0.0314542 -0.0797436 0.00953285  -0.0326874 -0.0877368 0.0108584  -0.033824 -0.0959174 0.0122277  -0.0348661 -0.104256 0.0136389  -0.035821 -0.112733 0.0150828  -0.0366936 -0.121318 0.0165547  -0.0374911 -0.129996 0.0180526  -0.0382128 -0.138742 0.0195727  -0.038868 -0.147545 0.0211116  -0.0394614 -0.15638 0.0226619  -0.0399978 -0.165236 0.0242235  -0.0404818 -0.174099 0.0257942  -0.0409231 -0.182957 0.0273722  -0.041328 -0.191803 0.0289554  -0.0417001 -0.200626 0.0305425  -0.0420496 -0.20942 0.0321318  -0.0423853 -0.218182 0.0337269  -0.0427129 -0.226913 0.0353235  0 0 0  -0.000495911 -0.00153279 -6.45146e-05  -0.00273624 -0.00472347 -8.74475e-05  -0.00491589 -0.00796466 -2.92063e-05  -0.00702059 -0.0115461 0.000157312  -0.00903624 -0.0155699 0.000485249  -0.0109488 -0.020097 0.000960447  -0.0127563 -0.0251181 0.00156688  -0.0144636 -0.030609 0.00229072  -0.0160757 -0.0365388 0.00311954  -0.0175949 -0.0428727 0.00404207  -0.0190235 -0.049578 0.0050514  -0.0203642 -0.0566172 0.00613795  -0.0216218 -0.0639601 0.00729349  -0.0228002 -0.0715738 0.00851055  -0.0238979 -0.0794263 0.00978545  -0.024922 -0.0874898 0.0111095  -0.0258746 -0.0957351 0.0124774  -0.0267572 -0.104135 0.0138862  -0.0275784 -0.112671 0.0153262  -0.0283353 -0.12131 0.0167957  -0.0290341 -0.130035 0.0182918  -0.0296774 -0.138826 0.0198097  -0.0302708 -0.147667 0.0213454  -0.030818 -0.156538 0.0228913  -0.0313227 -0.165427 0.0244513  -0.0317869 -0.174319 0.0260198  -0.0322156 -0.1832 0.0275967  -0.0326133 -0.192065 0.0291775  -0.0329845 -0.200905 0.0307657  -0.0333369 -0.209712 0.0323544  -0.033673 -0.218481 0.0339492  -0.0340021 -0.227214 0.0355473  0 0 0  -0.000246875 -0.00129296 -3.34904e-05  -0.000921115 -0.0034239 -4.99189e-06  -0.00252414 -0.00680865 0.000109211  -0.00407612 -0.0105127 0.000326365  -0.00556201 -0.0146443 0.000672594  -0.00695568 -0.0192621 0.00116314  -0.0082705 -0.024368 0.00178147  -0.0095129 -0.0299371 0.00251341  -0.0106889 -0.0359411 0.00334816  -0.011802 -0.0423469 0.004277  -0.0128567 -0.0491233 0.00528946  -0.0138553 -0.056231 0.00637586  -0.014802 -0.0636396 0.00753298  -0.0156986 -0.0713156 0.00874985  -0.0165457 -0.0792288 0.0100237  -0.0173444 -0.087346 0.0113482  -0.0180991 -0.0956462 0.012714  -0.0188084 -0.104095 0.0141212  -0.0194759 -0.112673 0.0155615  -0.020103 -0.121354 0.0170299  -0.0206923 -0.130118 0.0185242  -0.0212471 -0.138944 0.0200386  -0.0217686 -0.147818 0.0215719  -0.0222569 -0.156716 0.0231174  -0.022717 -0.165631 0.0246758  -0.0231504 -0.174544 0.0262436  -0.0235548 -0.183445 0.0278189  -0.0239389 -0.192328 0.0293985  -0.0243049 -0.201181 0.0309826  -0.0246532 -0.209998 0.0325715  -0.0249889 -0.218774 0.0341638  -0.0253158 -0.227513 0.0357576  0 0 0  -3.9041e-05 -0.00124732 -3.0078e-05  -0.000228658 -0.0032317 2.33427e-05  -0.00063026 -0.00602385 0.00019037  -0.00154695 -0.00980809 0.000447854  -0.00244367 -0.0140194 0.000818759  -0.00327957 -0.0187093 0.00133061  -0.00406671 -0.0238785 0.00196788  -0.00481504 -0.0295084 0.00271332  -0.00552964 -0.0355702 0.00355726  -0.00621891 -0.0420337 0.00448973  -0.00688267 -0.048862 0.00550569  -0.00752509 -0.0560223 0.00659595  -0.00814426 -0.0634793 0.00775466  -0.00874531 -0.0712012 0.00897501  -0.0093267 -0.0791573 0.0102499  -0.00988996 -0.0873185 0.011573  -0.0104325 -0.0956531 0.0129414  -0.0109606 -0.104139 0.0143468  -0.0114675 -0.112749 0.0157867  -0.0119581 -0.121463 0.0172553  -0.0124311 -0.130254 0.0187487  -0.0128865 -0.139105 0.0202642  -0.0133259 -0.148001 0.0217948  -0.0137491 -0.156922 0.0233401  -0.0141544 -0.165853 0.024897  -0.0145473 -0.174782 0.0264633  -0.014924 -0.183699 0.0280384  -0.0152891 -0.192594 0.029617  -0.0156407 -0.201458 0.0311975  -0.0159822 -0.210286 0.0327826  -0.0163109 -0.219069 0.0343727  -0.0166352 -0.227812 0.0359629  0 0 0  0.000155658 -0.00136518 -3.54871e-05  0.000408053 -0.00333425 3.48762e-05  0.00060761 -0.00602585 0.000232048  0.000678599 -0.00946781 0.000548854  0.00041914 -0.0137291 0.000940859  0.000183463 -0.0184574 0.00148099  -4.47035e-05 -0.0236649 0.00213796  -0.000276446 -0.0293346 0.00289453  -0.000512123 -0.0354353 0.00374873  -0.000759602 -0.041935 0.00468792  -0.00101852 -0.0488 0.0057104  -0.00129116 -0.0559938 0.00680481  -0.00157607 -0.0634837 0.00796514  -0.00187349 -0.0712364 0.00918717  -0.00218296 -0.079221 0.0104657  -0.00250244 -0.0874067 0.0117906  -0.00283289 -0.0957692 0.0131586  -0.00316715 -0.104276 0.0145656  -0.00350904 -0.112908 0.0160056  -0.00385523 -0.12164 0.0174751  -0.0042038 -0.130449 0.0189699  -0.00455713 -0.139317 0.0204834  -0.00490832 -0.148226 0.0220151  -0.00526118 -0.157159 0.0235604  -0.00561023 -0.166101 0.025116  -0.00595737 -0.175042 0.0266817  -0.00630069 -0.183969 0.0282543  -0.00664139 -0.192872 0.0298317  -0.00697637 -0.201743 0.031412  -0.00730681 -0.210576 0.0329926  -0.00762773 -0.219367 0.0345784  -0.00794435 -0.228113 0.036161  0 0 0  0.000353321 -0.00164843 -4.00469e-05  0.00104043 -0.00370657 4.4629e-05  0.00181973 -0.00637448 0.000268705  0.00255835 -0.00973243 0.000622369  0.00313181 -0.0138113 0.00104618  0.00354582 -0.0185262 0.00162029  0.00390244 -0.0237408 0.00229616  0.00420904 -0.0294241 0.00306886  0.00446415 -0.0355418 0.00393058  0.004668 -0.04206 0.00487819  0.00482333 -0.0489409 0.00590657  0.00492454 -0.0561519 0.00700511  0.00498176 -0.0636564 0.00816986  0.00499213 -0.0714242 0.00939499  0.00496113 -0.0794224 0.0106747  0.00488591 -0.087621 0.0119996  0.00477648 -0.0959936 0.0133701  0.00463367 -0.104511 0.014779  0.00445938 -0.113151 0.01622  0.00425816 -0.12189 0.0176907  0.0040319 -0.130707 0.0191844  0.00378466 -0.139582 0.0206985  0.00351882 -0.148496 0.0222311  0.00323892 -0.157434 0.0237766  0.00294685 -0.166382 0.025333  0.00264597 -0.175325 0.0268973  0.00233746 -0.184255 0.0284696  0.00202394 -0.193163 0.0300442  0.00170732 -0.202038 0.0316228  0.00138855 -0.210875 0.0332002  0.00107217 -0.219677 0.0347778  0.000761509 -0.228425 0.0363546  0 0 0  0.00055559 -0.00212508 -4.38392e-05  0.00169247 -0.00436527 4.8928e-05  0.0030596 -0.00706238 0.000297628  0.00445884 -0.0103674 0.000686139  0.00575256 -0.0143425 0.00116729  0.00689727 -0.0189424 0.00175004  0.00787115 -0.0241237 0.002444  0.0087316 -0.0297934 0.00322745  0.00949252 -0.0359058 0.00409783  0.0101572 -0.0424202 0.00505239  0.0107299 -0.0492992 0.00608616  0.0112134 -0.0565062 0.00719107  0.0116112 -0.0640083 0.00836112  0.0119301 -0.0717726 0.00959146  0.012172 -0.0797678 0.0108746  0.0123451 -0.0879642 0.0122035  0.012455 -0.0963311 0.013576  0.0125012 -0.104845 0.0149875  0.0124927 -0.113481 0.0164305  0.0124314 -0.122217 0.0179014  0.0123274 -0.13103 0.0193974  0.0121858 -0.1399 0.0209149  0.0120046 -0.148811 0.0224449  0.0117922 -0.157747 0.0239906  0.0115547 -0.166692 0.0255486  0.0112953 -0.175634 0.0271128  0.0110173 -0.184562 0.028682  0.0107291 -0.193468 0.0302576  0.0104265 -0.202344 0.0318323  0.0101194 -0.211184 0.0334092  0.00981069 -0.219989 0.0349817  0.00950146 -0.228749 0.0365453  0 0 0  0.000748128 -0.00282347 -4.53666e-05  0.00236154 -0.00535232 4.35337e-05  0.00434846 -0.00812507 0.000303611  0.00644231 -0.0113932 0.000722133  0.00847661 -0.0152611 0.00126188  0.0103196 -0.0197592 0.00186853  0.0119605 -0.0248433 0.00256474  0.0133978 -0.0304648 0.00335705  0.0146731 -0.0365431 0.00423709  0.0158025 -0.0430282 0.005203  0.0167946 -0.049881 0.00624468  0.0176561 -0.0570656 0.00735752  0.0183933 -0.0645455 0.00853549  0.0190161 -0.0722894 0.00976998  0.0195297 -0.0802642 0.0110576  0.0199413 -0.0884402 0.0123941  0.0202603 -0.0967877 0.0137712  0.0204902 -0.105286 0.0151846  0.0206416 -0.113902 0.0166318  0.0207193 -0.12262 0.0181072  0.0207286 -0.13142 0.0196063  0.0206807 -0.140278 0.0211228  0.0205784 -0.149173 0.0226571  0.0204291 -0.158096 0.0242035  0.0202389 -0.167032 0.0257619  0.0200179 -0.175965 0.0273271  0.0197649 -0.184887 0.0288958  0.0194917 -0.193788 0.0304692  0.0192025 -0.202659 0.032044  0.0189002 -0.211499 0.0336183  0.0185952 -0.220304 0.03519  0.0182853 -0.229075 0.0367469  0 0 0  0.000885352 -0.00373423 -3.62396e-05  0.00296423 -0.00671172 2.73883e-05  0.00562471 -0.00963187 0.000269577  0.00848341 -0.0128778 0.000696689  0.0113404 -0.0166077 0.00130484  0.0139278 -0.0209799 0.00193888  0.0162444 -0.0259497 0.00264618  0.0182966 -0.0314655 0.00344484  0.0201024 -0.0374721 0.00434016  0.0217005 -0.0438988 0.00532084  0.023109 -0.0507014 0.00637472  0.0243399 -0.05784 0.00749836  0.0254101 -0.0652755 0.00868648  0.0263267 -0.0729758 0.00993089  0.0270991 -0.0809143 0.0112259  0.0277412 -0.0890509 0.0125713  0.0282588 -0.0973642 0.0139552  0.0286641 -0.105827 0.0153756  0.0289624 -0.114412 0.0168261  0.0291631 -0.123102 0.0183051  0.029279 -0.131873 0.019808  0.0293119 -0.140705 0.0213302  0.0292773 -0.149578 0.0228651  0.0291805 -0.158481 0.0244128  0.0290306 -0.167396 0.0259725  0.0288315 -0.176317 0.027539  0.0285995 -0.185225 0.0291093  0.0283353 -0.194115 0.0306847  0.0280488 -0.202979 0.0322593  0.0277464 -0.211817 0.0338329  0.0274346 -0.220625 0.0354006  0.0271215 -0.229401 0.0369605  0 0 0  -0.00272844 -0.00347568 0.000486523  -0.00548974 -0.00643243 0.000629976  -0.00821587 -0.0095192 0.00074558  -0.0108801 -0.0129821 0.000937134  -0.013458 -0.0169163 0.00123781  -0.0159335 -0.0213439 0.00165975  -0.0182922 -0.0262682 0.00220075  -0.020526 -0.0316647 0.00286023  -0.0226334 -0.0375025 0.00362138  -0.024616 -0.0437493 0.00448181  -0.0264744 -0.0503658 0.00542739  -0.0282115 -0.0573207 0.00645415  -0.0298315 -0.0645813 0.00755298  -0.0313346 -0.0721143 0.0087184  -0.0327231 -0.0798875 0.00994523  -0.0340084 -0.087878 0.0112232  -0.0351887 -0.0960541 0.0125462  -0.0362732 -0.104391 0.0139125  -0.0372622 -0.112859 0.0153196  -0.0381665 -0.121443 0.0167536  -0.0389886 -0.130119 0.0182159  -0.0397291 -0.138863 0.0197081  -0.0404019 -0.147662 0.0212172  -0.0410109 -0.156497 0.0227454  -0.0415611 -0.165349 0.0242841  -0.0420544 -0.174211 0.0258381  -0.0425081 -0.183069 0.0274004  -0.0429187 -0.191914 0.0289677  -0.0432959 -0.200735 0.0305488  -0.0436478 -0.209531 0.0321347  -0.0439849 -0.218294 0.033728  -0.0443082 -0.227021 0.0353287  0 0 0  -0.000522323 -0.00156344 0.000425711  -0.0028732 -0.0048038 0.000586629  -0.00514734 -0.00806145 0.000734314  -0.0073466 -0.0116513 0.000948086  -0.00945723 -0.0156933 0.00126645  -0.0114759 -0.0202186 0.00170122  -0.0133893 -0.0252378 0.00225979  -0.0151985 -0.0307293 0.00293271  -0.0169057 -0.0366611 0.00370903  -0.0185125 -0.0429971 0.00458322  -0.0200235 -0.0497012 0.00554362  -0.0214416 -0.0567432 0.00658314  -0.0227698 -0.0640859 0.00769374  -0.0240095 -0.0716999 0.00887007  -0.0251656 -0.0795513 0.0101028  -0.0262396 -0.0876139 0.0113897  -0.0272374 -0.0958577 0.0127221  -0.0281627 -0.104259 0.0140968  -0.0290165 -0.112788 0.015507  -0.0298042 -0.121424 0.0169474  -0.030529 -0.130149 0.0184183  -0.0311947 -0.138941 0.0199117  -0.0318065 -0.147779 0.0214233  -0.0323691 -0.156651 0.0229529  -0.0328848 -0.165537 0.0244981  -0.0333614 -0.174427 0.0260526  -0.0338018 -0.18331 0.0276156  -0.0342064 -0.192173 0.0291891  -0.0345836 -0.201013 0.0307673  -0.0349374 -0.209821 0.0323545  -0.0352774 -0.218592 0.0339462  -0.0356071 -0.227329 0.0355452  0 0 0  -0.000269942 -0.00132391 0.000267059  -0.00101104 -0.00346231 0.000479251  -0.00272447 -0.0068699 0.000648648  -0.00437957 -0.0105806 0.000885338  -0.00596315 -0.0147242 0.00122721  -0.0074712 -0.0193414 0.0016841  -0.00889748 -0.0244481 0.00226271  -0.0102438 -0.0300212 0.00295752  -0.0115168 -0.0360305 0.00375408  -0.0127209 -0.0424425 0.00464548  -0.0138582 -0.0492197 0.00562364  -0.0149338 -0.0563321 0.00667742  -0.0159492 -0.0637433 0.00780331  -0.0169067 -0.0714207 0.00899281  -0.0178102 -0.0793344 0.010239  -0.0186595 -0.0874537 0.0115367  -0.0194588 -0.0957509 0.0128804  -0.0202093 -0.104203 0.0142624  -0.0209124 -0.112779 0.0156807  -0.0215726 -0.121461 0.017129  -0.0221879 -0.130223 0.0186045  -0.0227637 -0.139053 0.0201049  -0.0233033 -0.147923 0.0216236  -0.0238063 -0.156822 0.023156  -0.0242784 -0.165735 0.024703  -0.0247209 -0.174647 0.0262618  -0.0251379 -0.183551 0.027828  -0.0255284 -0.192432 0.0294018  -0.0258977 -0.201287 0.0309817  -0.0262496 -0.210106 0.0325672  -0.0265889 -0.218887 0.0341591  -0.026917 -0.227627 0.0357545  0 0 0  -6.45593e-05 -0.00127214 0.000105739  -0.000319317 -0.0032557 0.000267655  -0.000810623 -0.00604075 0.000493169  -0.00183648 -0.00982541 0.000761375  -0.0028339 -0.0140469 0.00113198  -0.00379193 -0.0187418 0.00161535  -0.0046947 -0.0239166 0.002223  -0.00554979 -0.0295552 0.00294168  -0.00636327 -0.0356254 0.00376461  -0.00714421 -0.0420958 0.00467652  -0.00788963 -0.0489307 0.00567459  -0.008605 -0.0560962 0.00674804  -0.00929427 -0.0635581 0.00788987  -0.00995791 -0.0712841 0.00909327  -0.0105971 -0.0792455 0.0103534  -0.0112088 -0.0874071 0.0116649  -0.0117972 -0.0957456 0.0130179  -0.012363 -0.104235 0.0144115  -0.0129051 -0.112846 0.0158412  -0.013427 -0.121559 0.017297  -0.0139229 -0.130351 0.0187831  -0.0144007 -0.139206 0.0202899  -0.0148587 -0.148102 0.0218144  -0.0152957 -0.157022 0.0233517  -0.0157154 -0.165954 0.0249029  -0.0161183 -0.174884 0.0264644  -0.016505 -0.183803 0.0280351  -0.0168741 -0.192698 0.0296112  -0.0172298 -0.201563 0.0311916  -0.0175736 -0.210392 0.0327778  -0.0179064 -0.21918 0.0343649  -0.0182319 -0.227928 0.0359586  0 0 0  0.000125065 -0.00137472 -5.24968e-05  0.00030759 -0.00333595 4.296e-05  0.000417709 -0.00601584 0.000262216  0.000386238 -0.00944144 0.000589505  3.43919e-05 -0.0136971 0.000996903  -0.00032872 -0.0184375 0.00151226  -0.00067687 -0.0236589 0.00215171  -0.00101674 -0.0293412 0.00289971  -0.00135422 -0.0354549 0.00374669  -0.00169301 -0.0419646 0.00468242  -0.00203419 -0.0488414 0.00570196  -0.0023787 -0.056043 0.00679629  -0.00273144 -0.0635411 0.00795481  -0.00308967 -0.0712987 0.00917672  -0.00345206 -0.0792891 0.010454  -0.00382113 -0.0874815 0.0117777  -0.00419307 -0.0958463 0.0131451  -0.00456691 -0.104358 0.0145529  -0.00494361 -0.112994 0.0159903  -0.0053196 -0.121727 0.0174601  -0.00569439 -0.130538 0.0189542  -0.00606847 -0.13941 0.0204697  -0.00643873 -0.148321 0.0219985  -0.00680447 -0.157255 0.0235448  -0.00716829 -0.1662 0.0251011  -0.00752401 -0.175141 0.0266671  -0.00787616 -0.184069 0.028241  -0.00822091 -0.192972 0.0298191  -0.0085609 -0.201847 0.0313996  -0.0088954 -0.210684 0.0329821  -0.00922084 -0.219478 0.0345681  -0.0095396 -0.228231 0.0361565  0 0 0  0.000316873 -0.00162977 -0.000195876  0.000928789 -0.0036692 -0.00017181  0.00160649 -0.00632095 3.05176e-05  0.00223249 -0.00966179 0.0003784  0.00274104 -0.0137016 0.000843704  0.00301421 -0.0184507 0.00139134  0.00325179 -0.0236889 0.00206122  0.00345206 -0.0293909 0.00284238  0.0036099 -0.0355278 0.00371371  0.00372791 -0.0420594 0.0046777  0.00380254 -0.0489549 0.0057205  0.00383461 -0.0561785 0.0068334  0.00382423 -0.0636929 0.00801355  0.00377488 -0.0714683 0.00925171  0.00368845 -0.0794731 0.0105457  0.00356746 -0.0876781 0.0118839  0.00341463 -0.0960571 0.0132658  0.00323296 -0.104581 0.0146846  0.00302696 -0.113226 0.0161371  0.00279522 -0.12197 0.0176153  0.00254679 -0.13079 0.0191208  0.00228 -0.139666 0.0206435  0.00199437 -0.148585 0.022181  0.00170064 -0.157525 0.0237345  0.00139737 -0.166476 0.0252959  0.00108647 -0.175423 0.0268671  0.000769615 -0.184355 0.0284423  0.000449657 -0.193264 0.0300227  0.000128984 -0.20214 0.0316049  -0.000191689 -0.210981 0.0331897  -0.000510693 -0.219785 0.0347697  -0.000822306 -0.228543 0.0363509  0 0 0  0.000520527 -0.00206548 -0.000321344  0.00158027 -0.00427389 -0.000367016  0.00283697 -0.00695306 -0.000189185  0.00411409 -0.0102507 0.000166297  0.00530767 -0.0142069 0.000664502  0.00633627 -0.0188218 0.00125344  0.00719607 -0.0240315 0.00196391  0.00795567 -0.0297233 0.00277306  0.00862539 -0.0358558 0.00367576  0.00920498 -0.0423895 0.00466177  0.00969923 -0.0492854 0.00572723  0.0101137 -0.0565065 0.00686474  0.0104482 -0.0640222 0.00806373  0.0107085 -0.0717974 0.00932227  0.0108991 -0.0798013 0.0106325  0.0110252 -0.0880063 0.0119868  0.0110908 -0.0963835 0.0133826  0.0111012 -0.104903 0.0148164  0.0110593 -0.113547 0.0162785  0.0109723 -0.122287 0.0177704  0.0108442 -0.131106 0.0192851  0.0106797 -0.139981 0.0208148  0.0104823 -0.148896 0.0223613  0.0102582 -0.157837 0.0239231  0.0100102 -0.166783 0.0254919  0.00974178 -0.175729 0.0270653  0.00945711 -0.18466 0.0286447  0.00916147 -0.19357 0.0302261  0.00885606 -0.202446 0.0318099  0.00854659 -0.211291 0.0333924  0.00823522 -0.220098 0.034971  0.00792646 -0.228865 0.0365425  0 0 0  0.00072211 -0.00272226 -0.000434652  0.00225955 -0.00520188 -0.000555933  0.00413349 -0.00795811 -0.000411868  0.00609046 -0.0112311 -5.39571e-05  0.00798869 -0.0151097 0.000469491  0.00972331 -0.0196193 0.0011054  0.0112692 -0.0247195 0.00184606  0.0126107 -0.030364 0.00268687  0.0137993 -0.0364655 0.00361834  0.0148467 -0.0429724 0.00463185  0.0157627 -0.0498447 0.00572391  0.0165547 -0.057046 0.00688273  0.0172318 -0.0645396 0.00810711  0.017796 -0.0722965 0.00938441  0.0182596 -0.0802814 0.0107124  0.0186241 -0.0884686 0.0120849  0.0189025 -0.0968276 0.0134973  0.0190966 -0.105331 0.0149448  0.0192134 -0.113958 0.0164234  0.0192611 -0.122684 0.0179235  0.0192482 -0.131489 0.0194484  0.0191777 -0.140353 0.0209896  0.0190611 -0.149253 0.0225451  0.0188966 -0.158184 0.0241104  0.0186949 -0.167123 0.0256864  0.0184627 -0.176059 0.0272659  0.0182045 -0.184984 0.0288485  0.0179253 -0.193888 0.0304319  0.0176337 -0.202762 0.032017  0.0173311 -0.211605 0.0335986  0.0170236 -0.220415 0.0351754  0.0167141 -0.22919 0.036744  0 0 0  0.000868112 -0.003609 -0.000565886  0.00289124 -0.00651038 -0.000763938  0.00544754 -0.00940633 -0.000656039  0.00815928 -0.0126686 -0.000305787  0.0108232 -0.0164627 0.000240073  0.0133188 -0.0208361 0.000928029  0.0155517 -0.0258152 0.00170387  0.0175223 -0.0313463 0.00257528  0.0192425 -0.0373757 0.00354058  0.0207582 -0.0438254 0.00458747  0.0220926 -0.0506484 0.00570565  0.0232587 -0.0578007 0.00689431  0.0242641 -0.0652545 0.0081398  0.0251222 -0.0729704 0.00943832  0.0258429 -0.0809193 0.0107875  0.0264375 -0.0890701 0.0121809  0.0269127 -0.0973953 0.0136101  0.0272787 -0.105865 0.0150709  0.0275419 -0.114463 0.0165626  0.0277133 -0.123159 0.0180767  0.0278027 -0.131937 0.0196124  0.0278149 -0.140777 0.0211639  0.0277622 -0.149657 0.0227278  0.0276523 -0.158565 0.024302  0.027488 -0.167488 0.0258812  0.0272822 -0.176408 0.0274674  0.0270407 -0.18532 0.0290554  0.0267696 -0.194214 0.030642  0.0264797 -0.203082 0.0322274  0.0261736 -0.211923 0.0338106  0.0258634 -0.220732 0.0353863  0.0255499 -0.229512 0.0369549  0 0 -2.98023e-08  -0.00279526 -0.00341402 0.00120464  -0.00563589 -0.00633603 0.00160125  -0.00845596 -0.00940506 0.00180706  -0.0112152 -0.0128671 0.00201505  -0.0138907 -0.0168081 0.00229418  -0.0164666 -0.0212524 0.00266901  -0.0189282 -0.0261896 0.00315213  -0.0212617 -0.0316007 0.00374261  -0.0234666 -0.0374553 0.00443843  -0.0255389 -0.0437148 0.00522885  -0.0274786 -0.0503447 0.00611269  -0.0292913 -0.057314 0.00707683  -0.03098 -0.0645857 0.00811434  -0.032545 -0.0721298 0.00922194  -0.0339953 -0.0799165 0.0103905  -0.0353285 -0.0879127 0.0116183  -0.0365584 -0.0961013 0.0128911  -0.037683 -0.104445 0.014212  -0.0387065 -0.112921 0.0155742  -0.0396392 -0.121511 0.0169716  -0.0404868 -0.130192 0.0183989  -0.0412519 -0.138942 0.0198557  -0.0419428 -0.147745 0.0213346  -0.0425704 -0.156587 0.0228338  -0.0431325 -0.165443 0.0243504  -0.0436413 -0.174308 0.0258846  -0.0441022 -0.18317 0.0274309  -0.0445182 -0.192016 0.0289857  -0.0449002 -0.20084 0.0305551  -0.0452561 -0.209634 0.0321366  -0.0455897 -0.2184 0.0337304  -0.0459177 -0.227131 0.0353308  0 0 -2.98023e-08  -0.000530019 -0.00147504 0.000977159  -0.00298703 -0.00469632 0.00133589  -0.00536373 -0.00793447 0.00156879  -0.00766149 -0.0115175 0.0018045  -0.00987005 -0.0155606 0.00211141  -0.0119876 -0.0200997 0.00251323  -0.0140061 -0.0251314 0.00302196  -0.0159178 -0.0306356 0.00364086  -0.0177202 -0.0365835 0.00436303  -0.0194188 -0.0429352 0.00518253  -0.0210145 -0.0496563 0.00608915  -0.0225112 -0.0567142 0.00707737  -0.023908 -0.0640706 0.00813988  -0.0252149 -0.071698 0.00926763  -0.0264286 -0.0795628 0.0104567  -0.0275561 -0.0876343 0.0117041  -0.0285997 -0.0958898 0.0129959  -0.029566 -0.104299 0.0143336  -0.0304551 -0.112836 0.0157104  -0.0312726 -0.121482 0.0171199  -0.0320261 -0.130215 0.0185596  -0.0327165 -0.139013 0.0200275  -0.0333476 -0.147857 0.0215153  -0.0339265 -0.156732 0.0230245  -0.034457 -0.165623 0.0245499  -0.0349426 -0.174518 0.0260899  -0.035388 -0.183403 0.0276418  -0.0358026 -0.192273 0.0292013  -0.0361869 -0.201115 0.0307713  -0.036545 -0.209925 0.0323538  -0.0368843 -0.218698 0.0339469  -0.0372157 -0.227437 0.0355451  0 0 -2.98023e-08  -0.000279874 -0.0012605 0.000609487  -0.00107057 -0.00331849 0.00104555  -0.00290924 -0.00671655 0.00125834  -0.00467154 -0.010416 0.00151014  -0.0063625 -0.014561 0.00184152  -0.00797331 -0.0191914 0.00227517  -0.00950706 -0.0243093 0.00281459  -0.0109579 -0.0298973 0.00346708  -0.0123299 -0.0359254 0.00422227  -0.013626 -0.0423547 0.00507149  -0.0148487 -0.0491516 0.00601122  -0.0160024 -0.0562801 0.00702956  -0.0170907 -0.0637075 0.00811973  -0.0181121 -0.0714006 0.00927463  -0.0190734 -0.0793279 0.0104899  -0.0199757 -0.0874608 0.011756  -0.0208199 -0.0957709 0.0130716  -0.0216112 -0.104231 0.0144282  -0.022351 -0.11282 0.0158208  -0.023041 -0.121509 0.0172478  -0.023684 -0.130281 0.0187034  -0.0242848 -0.139117 0.020183  -0.0248437 -0.147996 0.0216861  -0.0253632 -0.156899 0.0232034  -0.0258486 -0.165817 0.0247371  -0.0263016 -0.174736 0.0262843  -0.0267255 -0.183644 0.0278415  -0.0271239 -0.192528 0.0294075  -0.0274987 -0.201386 0.0309826  -0.027854 -0.210209 0.032565  -0.028194 -0.218991 0.0341569  -0.0285265 -0.227736 0.0357531  0 0 -2.98023e-08  -8.29995e-05 -0.00121754 0.000275433  -0.00038521 -0.0031248 0.000577509  -0.000962228 -0.00584862 0.000875711  -0.00211558 -0.00962594 0.00114232  -0.0032298 -0.0138478 0.00150096  -0.00429517 -0.0185546 0.00196993  -0.00530946 -0.0237419 0.0025472  -0.00627351 -0.0294001 0.00323734  -0.00718749 -0.0354906 0.00403258  -0.00805879 -0.0419813 0.00492087  -0.00888991 -0.048837 0.00589457  -0.00968301 -0.0560217 0.00694504  -0.0104423 -0.0635021 0.00806665  -0.01117 -0.0712468 0.00925112  -0.0118631 -0.0792218 0.0104938  -0.0125287 -0.087401 0.0117845  -0.0131626 -0.0957512 0.0131236  -0.0137665 -0.10425 0.0145027  -0.0143459 -0.112876 0.0159155  -0.0148959 -0.121597 0.0173615  -0.0154228 -0.130402 0.0188322  -0.0159223 -0.139264 0.0203275  -0.016398 -0.148169 0.0218439  -0.0168512 -0.157095 0.0233728  -0.017282 -0.166034 0.0249158  -0.0176926 -0.174969 0.0264729  -0.0180874 -0.183891 0.0280375  -0.0184639 -0.192791 0.0296105  -0.0188255 -0.201659 0.0311877  -0.0191743 -0.210494 0.0327727  -0.0195105 -0.219286 0.0343614  -0.0198386 -0.228035 0.035956  0 0 -2.98023e-08  9.60678e-05 -0.0013172 -4.11868e-05  0.000221997 -0.00320193 0.000104606  0.000244468 -0.00581485 0.000363559  0.0001086 -0.00920379 0.000710428  -0.000365555 -0.0134566 0.00110781  -0.000840366 -0.0182098 0.00161725  -0.00130862 -0.023449 0.00223491  -0.00175786 -0.029154 0.00296921  -0.00219452 -0.0352916 0.00380591  -0.00262213 -0.041826 0.00473431  -0.00304723 -0.0487242 0.00574568  -0.00346947 -0.055948 0.00683376  -0.00388896 -0.0634645 0.00798905  -0.00430918 -0.0712428 0.00920588  -0.00472975 -0.0792523 0.0104755  -0.00514781 -0.0874605 0.0117961  -0.00556397 -0.0958397 0.0131593  -0.00597692 -0.104367 0.0145619  -0.00638652 -0.113013 0.0159973  -0.00679445 -0.12176 0.0174617  -0.00719404 -0.130582 0.0189529  -0.00758767 -0.139462 0.020467  -0.00797725 -0.148382 0.0219939  -0.00835705 -0.157325 0.0235366  -0.00873065 -0.166277 0.0250934  -0.00909615 -0.175222 0.0266587  -0.0094564 -0.184155 0.0282298  -0.00980616 -0.193065 0.0298077  -0.0101488 -0.201943 0.0313896  -0.0104852 -0.210785 0.0329761  -0.0108163 -0.219584 0.034563  -0.0111394 -0.22834 0.0361536  0 0 -2.98023e-08  0.000279576 -0.00155169 -0.000334442  0.000817448 -0.00351757 -0.000352204  0.00140527 -0.0061056 -0.000152826  0.00192678 -0.00940818 0.000199378  0.00232339 -0.0134271 0.000673026  0.00248623 -0.0181841 0.00122911  0.0026018 -0.0234422 0.00189367  0.0026921 -0.0291722 0.00267521  0.0027498 -0.0353364 0.00355592  0.00277627 -0.0418963 0.00452721  0.00276887 -0.0488158 0.00558099  0.00272584 -0.056064 0.00670508  0.00264966 -0.0636011 0.00789541  0.00254118 -0.0713984 0.00914454  0.00240219 -0.0794219 0.0104484  0.00223279 -0.0876466 0.011797  0.00203729 -0.0960395 0.0131866  0.00181913 -0.104578 0.0146146  0.00157857 -0.113239 0.016072  0.00131917 -0.121995 0.0175578  0.00104642 -0.130827 0.0190696  0.000759602 -0.139716 0.0205978  0.000459194 -0.148642 0.0221422  0.000150442 -0.157592 0.0236983  -0.000163317 -0.16655 0.0252665  -0.000484705 -0.175503 0.0268411  -0.000808239 -0.184439 0.0284206  -0.00113273 -0.193352 0.0300045  -0.00145745 -0.202235 0.0315903  -0.00178242 -0.211082 0.0331778  -0.00210357 -0.219889 0.0347621  -0.00241828 -0.22865 0.0363475  0 0 -2.98023e-08  0.000478193 -0.0019443 -0.000591576  0.00145414 -0.00406897 -0.000761151  0.00260913 -0.00669295 -0.000635326  0.00377154 -0.00995469 -0.000295013  0.00484997 -0.013895 0.000208974  0.00579089 -0.0184965 0.000835419  0.00652492 -0.0237415 0.00154877  0.00717437 -0.0294684 0.00237575  0.00774431 -0.0356338 0.00330347  0.00823581 -0.042196 0.00431836  0.00865233 -0.0491199 0.00541246  0.0089947 -0.0563709 0.00657627  0.00926459 -0.0639115 0.00780222  0.00946581 -0.071709 0.0090858  0.0096041 -0.0797352 0.0104191  0.00968432 -0.0879596 0.011797  0.00970817 -0.0963528 0.0132159  0.00968099 -0.104892 0.0146658  0.00961065 -0.11355 0.016149  0.00949597 -0.122306 0.0176559  0.00934124 -0.131139 0.0191836  0.00915933 -0.140024 0.0207307  0.0089457 -0.148949 0.0222911  0.00870514 -0.157899 0.0238603  0.00844836 -0.166855 0.0254397  0.00817275 -0.175808 0.0270248  0.0078814 -0.184744 0.0286115  0.0075798 -0.193657 0.0301997  0.00726986 -0.202541 0.0317903  0.00695753 -0.211389 0.0333776  0.00664449 -0.220198 0.0349617  0.00633144 -0.228973 0.0365382  0 0 -2.98023e-08  0.000683039 -0.00254452 -0.000819743  0.00213677 -0.0049215 -0.00113437  0.00390437 -0.00762415 -0.00108084  0.00573969 -0.0108697 -0.000760674  0.00751251 -0.0147461 -0.000241488  0.00914377 -0.0192587 0.000427216  0.0105779 -0.0243872 0.00119773  0.0118136 -0.0300714 0.00207639  0.0129076 -0.0362058 0.00305292  0.0138694 -0.0427467 0.004114  0.0147084 -0.0496528 0.00524944  0.0154306 -0.0568837 0.00645232  0.0160435 -0.0644057 0.007716  0.0165515 -0.0721878 0.00903189  0.0169621 -0.0801973 0.0103964  0.0172827 -0.0884071 0.0118043  0.017518 -0.0967849 0.0132481  0.0176749 -0.105309 0.0147238  0.0177631 -0.113953 0.0162314  0.0177834 -0.122696 0.0177574  0.0177457 -0.131514 0.0193036  0.0176578 -0.140391 0.0208689  0.0175221 -0.149305 0.0224402  0.0173461 -0.158244 0.0240252  0.017134 -0.167192 0.0256172  0.0168955 -0.176136 0.0272112  0.0166323 -0.185066 0.0288062  0.0163488 -0.193977 0.0303991  0.0160525 -0.202857 0.0319921  0.0157475 -0.211704 0.0335815  0.0154371 -0.220518 0.0351617  0.0151272 -0.229296 0.0367363  0 0 -2.98023e-08  0.00084129 -0.00338572 -0.00108275  0.00280026 -0.00616044 -0.00152487  0.00525165 -0.00900018 -0.00153321  0.0078398 -0.0122426 -0.00122631  0.0103653 -0.0160515 -0.000693917  0.0127302 -0.0204571 1.2368e-05  0.0148592 -0.0254636 0.000840902  0.0167373 -0.0310234 0.00177619  0.0183648 -0.0370917 0.00280264  0.0197979 -0.0435776 0.0039129  0.0210538 -0.0504363 0.00508952  0.0221477 -0.0576239 0.00633371  0.0230873 -0.0651053 0.00763422  0.0238922 -0.0728452 0.00898701  0.0245595 -0.0808213 0.0103836  0.0251057 -0.0889972 0.0118219  0.0255377 -0.0973439 0.0132912  0.0258684 -0.105834 0.0147922  0.0261016 -0.114452 0.0163201  0.0262463 -0.123165 0.0178698  0.0263102 -0.131958 0.0194329  0.0263047 -0.14081 0.0210132  0.0262325 -0.149705 0.0226029  0.026108 -0.158624 0.0241982  0.0259352 -0.167555 0.0258002  0.0257177 -0.176484 0.0274008  0.0254703 -0.185403 0.0290047  0.0251937 -0.194305 0.0306041  0.0249 -0.203178 0.0321993  0.0245895 -0.212023 0.0337887  0.0242758 -0.220838 0.0353702  0.0239635 -0.22962 0.0369441  0 0 -2.98023e-08  -0.00281781 -0.00318905 0.00198996  -0.00571011 -0.00601109 0.00265229  -0.00861013 -0.00903513 0.00295353  -0.0114712 -0.012482 0.00317717  -0.0142578 -0.0164346 0.00342765  -0.0169463 -0.0209019 0.00375465  -0.0195186 -0.0258727 0.00417614  -0.0219628 -0.0313117 0.00469625  -0.0242716 -0.0371974 0.0053201  -0.0264406 -0.0434864 0.00603732  -0.0284706 -0.050148 0.00685021  -0.030364 -0.0571434 0.00774834  -0.0321255 -0.0644453 0.00871968  -0.0337578 -0.0720146 0.00976413  -0.0352671 -0.0798267 0.0108711  -0.0366572 -0.0878477 0.01204  -0.0379293 -0.0960523 0.0132639  -0.0390983 -0.104417 0.0145341  -0.0401571 -0.112913 0.01585  -0.0411208 -0.121521 0.0172056  -0.0419991 -0.130217 0.0185931  -0.0427876 -0.13898 0.0200118  -0.043498 -0.147794 0.0214609  -0.0441408 -0.156646 0.0229326  -0.0447168 -0.165512 0.0244236  -0.0452363 -0.174388 0.0259363  -0.0457056 -0.183256 0.0274647  -0.0461309 -0.192109 0.0290064  -0.0465198 -0.200938 0.0305634  -0.046876 -0.209738 0.0321378  -0.0472107 -0.218504 0.0337286  -0.0475383 -0.227241 0.0353277  0 0 -2.98023e-08  -0.000469945 -0.00121151 0.00160232  -0.00303935 -0.00435737 0.00216216  -0.00551063 -0.00755165 0.00248668  -0.00790861 -0.0111154 0.0027473  -0.0102248 -0.0151641 0.00303909  -0.0124515 -0.0197225 0.0034031  -0.0145779 -0.0247844 0.00386402  -0.0165975 -0.0303189 0.00442365  -0.0185052 -0.0362973 0.00508508  -0.0203017 -0.0426826 0.00584322  -0.0219871 -0.049435 0.00669229  -0.0235655 -0.0565225 0.00762507  -0.0250382 -0.0639102 0.00863224  -0.0264114 -0.071563 0.00970978  -0.0276842 -0.0794531 0.0108511  -0.0288672 -0.0875504 0.0120507  -0.0299597 -0.0958277 0.0133002  -0.0309694 -0.10426 0.0145966  -0.0318978 -0.112819 0.0159333  -0.032747 -0.121481 0.0173103  -0.03353 -0.13023 0.0187188  -0.034245 -0.139041 0.0201578  -0.0348959 -0.147899 0.0216178  -0.0354908 -0.156786 0.0231054  -0.0360367 -0.165688 0.0246079  -0.0365348 -0.174594 0.0261298  -0.0369897 -0.183488 0.0276673  -0.0374103 -0.192363 0.029216  -0.0378001 -0.201209 0.0307788  -0.0381627 -0.210025 0.0323543  -0.0385036 -0.218801 0.0339434  -0.0388315 -0.22754 0.0355454  0 0 -2.98023e-08  -0.000247344 -0.00107703 0.000988036  -0.00103578 -0.00293 0.00171304  -0.0030221 -0.00630113 0.00195944  -0.00491038 -0.00999142 0.00221497  -0.00671721 -0.0141425 0.0025335  -0.00844169 -0.0187913 0.00293869  -0.0100847 -0.0239386 0.00344309  -0.0116465 -0.0295559 0.00405031  -0.0131215 -0.0356145 0.00476012  -0.014514 -0.042077 0.00556561  -0.0158273 -0.0489075 0.00646096  -0.0170645 -0.0560684 0.00743628  -0.0182264 -0.0635278 0.00848457  -0.0193151 -0.0712485 0.00960237  -0.0203357 -0.0792044 0.0107795  -0.0212932 -0.087364 0.0120119  -0.0221856 -0.0956959 0.0132955  -0.0230188 -0.10418 0.01462  -0.0237966 -0.11279 0.0159851  -0.0245163 -0.121499 0.0173852  -0.0251873 -0.130288 0.0188184  -0.0258131 -0.139139 0.0202774  -0.026391 -0.148032 0.0217576  -0.0269282 -0.156947 0.0232602  -0.0274293 -0.165878 0.0247769  -0.0278919 -0.174806 0.026312  -0.0283237 -0.183721 0.0278597  -0.0287275 -0.192615 0.0294184  -0.0291102 -0.201478 0.0309851  -0.0294709 -0.210306 0.0325631  -0.0298111 -0.219092 0.0341531  -0.0301425 -0.22784 0.0357542  0 0 -2.98023e-08  -8.16509e-05 -0.00106424 0.000468075  -0.000398412 -0.00278842 0.000959218  -0.00103506 -0.00538594 0.00137138  -0.00234592 -0.00916305 0.00161409  -0.00359291 -0.0133958 0.00195262  -0.00478071 -0.0181246 0.00239739  -0.00591022 -0.0233431 0.00294977  -0.00698507 -0.0290309 0.00360793  -0.00800502 -0.0351562 0.00437078  -0.00897217 -0.0416834 0.00522926  -0.00989282 -0.0485741 0.00617349  -0.0107682 -0.0557941 0.00719562  -0.0115999 -0.0633076 0.00829169  -0.0123914 -0.0710826 0.00945249  -0.0131434 -0.0790861 0.0106703  -0.0138606 -0.0872908 0.0119412  -0.0145402 -0.0956672 0.0132584  -0.0151851 -0.10419 0.0146172  -0.0157979 -0.112836 0.0160148  -0.0163808 -0.121582 0.0174414  -0.0169325 -0.130402 0.0188996  -0.0174551 -0.139281 0.0203823  -0.0179508 -0.1482 0.0218837  -0.0184188 -0.15714 0.0234016  -0.0188615 -0.166089 0.0249379  -0.0192852 -0.175034 0.0264858  -0.0196869 -0.183967 0.0280447  -0.0200698 -0.192875 0.0296102  -0.0204353 -0.201749 0.0311867  -0.0207872 -0.210588 0.0327677  -0.0211265 -0.219384 0.034356  -0.0214539 -0.228137 0.0359539  0 0 -2.98023e-08  7.56979e-05 -0.00116387 -2.41399e-06  0.000158817 -0.00288695 0.000226974  0.000115097 -0.00537974 0.000557601  -0.000122607 -0.0087032 0.000937581  -0.000749171 -0.0129695 0.00130755  -0.00135595 -0.0177483 0.00179544  -0.00193965 -0.023021 0.0024018  -0.00250387 -0.0287601 0.00311503  -0.00304544 -0.0349348 0.00393406  -0.00356889 -0.0415084 0.00485  -0.00408137 -0.0484426 0.00584835  -0.00458181 -0.0557032 0.00692511  -0.00507164 -0.0632547 0.00806919  -0.00555515 -0.0710667 0.00927565  -0.00602996 -0.0791044 0.010536  -0.00649703 -0.0873402 0.0118485  -0.00695825 -0.0957473 0.0132045  -0.00740933 -0.104297 0.0145984  -0.00785303 -0.112968 0.0160256  -0.008286 -0.121734 0.0174863  -0.0087111 -0.130575 0.0189703  -0.00912666 -0.139474 0.0204765  -0.00953221 -0.148411 0.0219994  -0.00992775 -0.157367 0.0235379  -0.0103114 -0.16633 0.0250919  -0.0106883 -0.175287 0.0266544  -0.0110543 -0.184229 0.0282236  -0.0114105 -0.193146 0.0297989  -0.0117574 -0.20203 0.0313827  -0.0120974 -0.210875 0.032968  -0.0124304 -0.21968 0.0345579  -0.012753 -0.22844 0.0361529  0 0 -2.98023e-08  0.000235647 -0.00138724 -0.000443548  0.000706524 -0.00319946 -0.000474066  0.00120771 -0.00567967 -0.000255197  0.00162774 -0.0089159 0.000118315  0.00191039 -0.0129107 0.000604779  0.00193709 -0.0176922 0.00115031  0.00193375 -0.0229884 0.0018127  0.00190449 -0.028758 0.00258571  0.0018611 -0.034961 0.00346979  0.00179303 -0.041561 0.00444272  0.00170171 -0.0485225 0.00549918  0.00158322 -0.0558078 0.00663027  0.00144029 -0.0633805 0.00782731  0.0012728 -0.0712102 0.009083  0.0010792 -0.0792654 0.0103896  0.00086236 -0.087519 0.0117437  0.000625372 -0.0959427 0.0131365  0.000370502 -0.104507 0.0145663  0.000100613 -0.113187 0.0160307  -0.000184774 -0.121966 0.0175214  -0.000483274 -0.130818 0.0190324  -0.000789404 -0.139725 0.0205649  -0.00110126 -0.148668 0.0221139  -0.00142241 -0.157632 0.0236723  -0.00174713 -0.166602 0.0252425  -0.00207472 -0.175564 0.0268203  -0.0024035 -0.184512 0.0284027  -0.00273275 -0.193434 0.0299869  -0.0030601 -0.202323 0.0315746  -0.00338554 -0.211173 0.0331674  -0.00370812 -0.219983 0.034755  -0.00402856 -0.228752 0.0363441  0 0 -2.98023e-08  0.000410631 -0.00175005 -0.000848383  0.00129285 -0.00373244 -0.00112706  0.00234446 -0.00626051 -0.00103366  0.0034008 -0.00946522 -0.000690877  0.0043686 -0.0133832 -0.000172377  0.00519586 -0.0179912 0.000473589  0.00581563 -0.0232674 0.00120586  0.00634933 -0.0290364 0.00204551  0.00681734 -0.0352463 0.00299272  0.00721955 -0.0418525 0.0040291  0.0075556 -0.0488181 0.0051457  0.00782585 -0.0561071 0.00633228  0.00803268 -0.0636851 0.00758147  0.00817597 -0.0715187 0.00888565  0.00826466 -0.0795745 0.0102393  0.00829959 -0.0878305 0.011635  0.00828457 -0.0962523 0.0130707  0.00822353 -0.104818 0.0145372  0.00812244 -0.113497 0.0160351  0.00798273 -0.122275 0.0175572  0.00780845 -0.131127 0.0190983  0.00760746 -0.140032 0.0206557  0.00738072 -0.148975 0.0222267  0.00713062 -0.157939 0.0238067  0.0068624 -0.166908 0.0253936  0.00658154 -0.175869 0.0269871  0.00628662 -0.184817 0.0285806  0.00598288 -0.193739 0.0301766  0.00567174 -0.202628 0.0317724  0.00535893 -0.211479 0.0333634  0.00504351 -0.220295 0.0349515  0.00473118 -0.22907 0.0365357  0 0 -2.98023e-08  0.000609159 -0.00228244 -0.0012019  0.00195125 -0.00451601 -0.00170597  0.00359866 -0.00713307 -0.00173044  0.00531703 -0.0103395 -0.00143024  0.00697273 -0.0142047 -0.00090152  0.00849015 -0.0187289 -0.000204384  0.00983322 -0.023876 0.000618219  0.0109566 -0.0296074 0.00152567  0.0119513 -0.0357939 0.00253853  0.0128255 -0.0423826 0.00363779  0.0135871 -0.0493332 0.00481287  0.0142424 -0.0566043 0.0060575  0.0147934 -0.0641671 0.0073576  0.0152472 -0.0719855 0.00870758  0.0156102 -0.0800294 0.0101084  0.0158875 -0.0882696 0.0115463  0.0160868 -0.0966769 0.0130204  0.0162137 -0.105227 0.0145257  0.0162709 -0.113896 0.0160543  0.0162704 -0.12266 0.0176065  0.0162115 -0.1315 0.0191747  0.0161049 -0.140397 0.0207547  0.0159581 -0.149328 0.0223466  0.0157733 -0.15828 0.0239488  0.0155511 -0.167246 0.0255528  0.0153062 -0.1762 0.0271598  0.0150404 -0.18514 0.0287645  0.0147567 -0.194058 0.030369  0.0144579 -0.202945 0.0319702  0.0141513 -0.211796 0.0335646  0.0138407 -0.220613 0.0351512  0.0135312 -0.229394 0.036732  0 0 -2.98023e-08  0.000792488 -0.00304586 -0.00158605  0.00264525 -0.00565737 -0.00227016  0.00497741 -0.00841242 -0.00237709  0.00743663 -0.0116296 -0.00210166  0.00983644 -0.0154416 -0.001562  0.0120772 -0.0198767 -0.000825912  0.0141039 -0.0249175 5.86808e-05  0.0158793 -0.030525 0.0010426  0.0174118 -0.0366469 0.00212342  0.0187614 -0.0431823 0.00328806  0.0199426 -0.0500883 0.00452247  0.0209692 -0.0573211 0.00582045  0.0218499 -0.0648469 0.00717086  0.0225971 -0.0726275 0.0085693  0.0232147 -0.0806404 0.0100116  0.0237176 -0.0888472 0.0114891  0.0241153 -0.0972228 0.0129989  0.02441 -0.105746 0.014535  0.0246127 -0.114387 0.0160944  0.0247369 -0.123124 0.0176757  0.02478 -0.131941 0.0192678  0.024756 -0.140813 0.0208734  0.0246723 -0.149726 0.0224854  0.0245347 -0.15866 0.0241027  0.0243535 -0.167607 0.0257215  0.0241318 -0.176549 0.0273416  0.0238788 -0.185479 0.0289587  0.023602 -0.194387 0.030569  0.0233054 -0.203269 0.0321731  0.0229986 -0.212115 0.0337704  0.0226855 -0.220933 0.0353586  0.0223722 -0.229718 0.0369367  0 0 0  -0.00265449 -0.00281936 0.00274783  -0.00553001 -0.00546206 0.00374699  -0.00851223 -0.0084132 0.00417042  -0.0114989 -0.0118471 0.00441605  -0.0144281 -0.0158165 0.00463599  -0.0172573 -0.0203169 0.00491118  -0.0199702 -0.0253284 0.00526351  -0.0225466 -0.03082 0.00571185  -0.0249829 -0.0367493 0.00625759  -0.0272658 -0.0430824 0.00689667  -0.0294005 -0.0497869 0.00763535  -0.0313913 -0.0568289 0.00845754  -0.0332369 -0.064171 0.00935894  -0.0349464 -0.0717845 0.0103318  -0.0365199 -0.0796291 0.01138  -0.037966 -0.0876867 0.0124887  -0.0392983 -0.0959241 0.0136529  -0.040508 -0.104319 0.0148713  -0.0416105 -0.11284 0.0161415  -0.0426109 -0.121471 0.0174484  -0.0435154 -0.130194 0.0187983  -0.0443299 -0.138976 0.0201794  -0.0450666 -0.14781 0.0215915  -0.0457261 -0.156682 0.0230349  -0.0463178 -0.165565 0.0244998  -0.0468478 -0.17445 0.0259907  -0.0473268 -0.183333 0.0275019  -0.0477607 -0.192194 0.0290279  -0.048156 -0.201028 0.0305749  -0.0485172 -0.209837 0.032137  -0.0488527 -0.218603 0.0337254  -0.0491774 -0.227341 0.0353283  0 0 0  -0.000246435 -0.000727139 0.002235  -0.00289023 -0.00376444 0.00303245  -0.00544834 -0.00689235 0.0034855  -0.00796202 -0.0104361 0.00378716  -0.0104122 -0.0144951 0.00406611  -0.0127748 -0.019087 0.00439119  -0.0150355 -0.024188 0.00479621  -0.0171832 -0.0297738 0.00529432  -0.0192144 -0.0357997 0.005889  -0.0211232 -0.0422318 0.00658065  -0.0229117 -0.0490339 0.00736368  -0.0245836 -0.0561689 0.0082323  -0.0261399 -0.0635995 0.00917834  -0.0275865 -0.0712975 0.0101992  -0.0289286 -0.0792266 0.0112851  -0.0301706 -0.0873631 0.0124331  -0.0313158 -0.095674 0.0136352  -0.0323706 -0.104139 0.0148869  -0.0333383 -0.112726 0.0161836  -0.0342245 -0.121417 0.0175206  -0.0350361 -0.130193 0.0188947  -0.035778 -0.139028 0.0203009  -0.0364499 -0.147903 0.0217333  -0.0370638 -0.156813 0.0231946  -0.0376246 -0.165732 0.0246743  -0.0381362 -0.174651 0.0261787  -0.0386024 -0.18356 0.0276968  -0.0390313 -0.192442 0.0292358  -0.0394282 -0.201297 0.0307884  -0.0397985 -0.210121 0.0323551  -0.0401423 -0.2189 0.0339394  -0.0404685 -0.227643 0.0355425  0 0 0  -0.00016363 -0.000717178 0.00133497  -0.000767425 -0.00218013 0.00249445  -0.00295624 -0.00558746 0.00273943  -0.00499353 -0.00928424 0.00301474  -0.00694066 -0.013451 0.00332451  -0.00880575 -0.0181317 0.00370157  -0.0105836 -0.0233174 0.00416684  -0.0122713 -0.0289848 0.00472707  -0.0138696 -0.0350926 0.00538337  -0.015373 -0.0416066 0.00613612  -0.0167886 -0.0484874 0.00697744  -0.0181141 -0.0556951 0.00790358  -0.0193565 -0.0631998 0.00890547  -0.02052 -0.0709658 0.0099768  -0.0216044 -0.0789626 0.0111122  -0.0226154 -0.087158 0.0123087  -0.0235622 -0.095531 0.0135511  -0.0244381 -0.10405 0.0148395  -0.0252533 -0.112688 0.016175  -0.0260074 -0.121428 0.0175428  -0.0267057 -0.130243 0.0189515  -0.0273528 -0.139117 0.020386  -0.0279524 -0.148033 0.0218421  -0.0285053 -0.156972 0.0233249  -0.0290167 -0.165916 0.0248294  -0.0294969 -0.17486 0.0263463  -0.0299406 -0.183791 0.0278778  -0.0303507 -0.192693 0.0294278  -0.0307367 -0.201563 0.0309909  -0.0311038 -0.210398 0.0325615  -0.0314507 -0.21919 0.0341441  -0.0317824 -0.227942 0.0357496  0 0 0  -5.80698e-05 -0.000734746 0.000654459  -0.000310317 -0.00215825 0.0013907  -0.000919998 -0.00454968 0.00200516  -0.00244817 -0.0083949 0.00219148  -0.00386572 -0.0126693 0.00250316  -0.00520247 -0.0174383 0.00292307  -0.00646943 -0.0227025 0.00344616  -0.00767243 -0.0284414 0.00407058  -0.00881207 -0.0346184 0.00479335  -0.00988579 -0.0411964 0.00561261  -0.0109016 -0.0481364 0.00652438  -0.0118613 -0.055404 0.00751245  -0.0127722 -0.0629663 0.00857258  -0.0136318 -0.070786 0.00970346  -0.0144432 -0.0788329 0.0108925  -0.0152129 -0.0870799 0.0121356  -0.01594 -0.0954927 0.0134286  -0.0166266 -0.104052 0.0147634  -0.0172756 -0.11273 0.016136  -0.0178881 -0.121503 0.0175444  -0.0184639 -0.130352 0.0189848  -0.0190077 -0.139254 0.0204515  -0.0195217 -0.148197 0.0219352  -0.0200045 -0.157159 0.0234421  -0.0204616 -0.166125 0.0249641  -0.0208931 -0.175088 0.0265016  -0.021301 -0.18403 0.0280541  -0.0216911 -0.192949 0.0296121  -0.0220611 -0.201831 0.0311866  -0.0224214 -0.210676 0.0327628  -0.0227637 -0.219477 0.0343483  -0.0230925 -0.228236 0.0359492  0 0 0  5.59986e-05 -0.000837892 5.14388e-05  0.000124812 -0.00229964 0.000399292  5.40018e-05 -0.00461915 0.000848651  -0.000245422 -0.00785285 0.00131226  -0.001073 -0.0121955 0.00162107  -0.00184417 -0.0170314 0.0020774  -0.00256991 -0.0223586 0.00266069  -0.00325644 -0.0281522 0.00335389  -0.00391626 -0.0343817 0.00414872  -0.00454378 -0.0410093 0.00504184  -0.00514448 -0.0479954 0.0060215  -0.00572801 -0.0553102 0.00707722  -0.00629008 -0.0629077 0.00820374  -0.00683546 -0.0707632 0.00939542  -0.00736809 -0.0788473 0.0106397  -0.00788403 -0.0871239 0.0119409  -0.00838709 -0.0955689 0.0132822  -0.00887489 -0.104155 0.0146633  -0.00935006 -0.112857 0.0160803  -0.00981283 -0.121655 0.0175272  -0.0102601 -0.130524 0.0190031  -0.0106945 -0.139447 0.0204999  -0.0111136 -0.148404 0.0220174  -0.0115218 -0.157382 0.0235486  -0.0119159 -0.166363 0.0250954  -0.0122993 -0.175337 0.0266557  -0.0126698 -0.18429 0.0282222  -0.0130324 -0.193219 0.0297925  -0.0133817 -0.202112 0.0313749  -0.0137212 -0.21096 0.0329608  -0.0140564 -0.219769 0.0345499  -0.01438 -0.228535 0.0361472  0 0 0  0.000180542 -0.00104743 -0.000513315  0.000575781 -0.0026232 -0.000534356  0.00100574 -0.00495398 -0.000263393  0.00134516 -0.00811416 0.000162005  0.00151879 -0.0120921 0.000676692  0.00137103 -0.0169484 0.00118113  0.00122756 -0.0223069 0.00182801  0.00107622 -0.028137 0.00259382  0.000917912 -0.0343996 0.00346845  0.000753284 -0.0410572 0.0044378  0.000574946 -0.0480717 0.00549048  0.0003829 -0.0554075 0.00662011  0.000174522 -0.0630288 0.007815  -5.17368e-05 -0.0709069 0.00906855  -0.000295162 -0.0790066 0.0103755  -0.000557542 -0.0873026 0.0117283  -0.000832796 -0.0957623 0.0131217  -0.00112081 -0.104362 0.0145506  -0.00142026 -0.113076 0.0160139  -0.00172949 -0.121885 0.0175026  -0.00204587 -0.130764 0.0190156  -0.00236893 -0.139697 0.020547  -0.00269318 -0.148663 0.0220949  -0.00302482 -0.157647 0.0236544  -0.00335717 -0.166636 0.0252243  -0.00368786 -0.175614 0.0268038  -0.00402093 -0.184574 0.0283871  -0.00435185 -0.193505 0.0299712  -0.0046804 -0.202402 0.0315616  -0.00500679 -0.211258 0.0331541  -0.00532818 -0.220069 0.0347483  -0.00564694 -0.228844 0.0363398  0 0 0  0.000313044 -0.00138336 -0.00104833  0.00106901 -0.00314969 -0.00141698  0.00201029 -0.00555384 -0.00133204  0.00296158 -0.00870216 -0.000969946  0.00381964 -0.0126076 -0.000427604  0.00454092 -0.0172327 0.000244379  0.00501871 -0.0225801 0.000966191  0.00543833 -0.0284125 0.00181466  0.00580049 -0.0346863 0.00276929  0.00611293 -0.041351 0.00381958  0.00636864 -0.048374 0.00495017  0.00656915 -0.0557137 0.00615257  0.00671601 -0.0633395 0.00741601  0.00680876 -0.0712206 0.00873655  0.0068543 -0.0793207 0.0101041  0.0068469 -0.0876148 0.0115132  0.00679612 -0.0960781 0.0129606  0.00670576 -0.104674 0.014439  0.00657749 -0.113393 0.015945  0.00641894 -0.122197 0.0174809  0.00623012 -0.131077 0.0190305  0.00601459 -0.140008 0.020594  0.00577497 -0.148974 0.0221707  0.00552106 -0.157955 0.0237617  0.00524902 -0.166943 0.0253558  0.00496364 -0.175921 0.0269538  0.004668 -0.184879 0.028555  0.00436425 -0.193811 0.0301536  0.00405669 -0.202707 0.0317541  0.00374341 -0.211564 0.0333462  0.00343204 -0.220381 0.0349421  0.00311947 -0.22916 0.0365312  0 0 0  0.000464827 -0.0018611 -0.00154173  0.00162452 -0.00391531 -0.00223941  0.00313219 -0.00644135 -0.00232822  0.00472856 -0.00961226 -0.00203502  0.00627625 -0.0134723 -0.00148439  0.00769264 -0.0180185 -0.000753284  0.00893837 -0.023205 0.000109315  0.00995958 -0.0289972 0.00104666  0.0108584 -0.0352486 0.00208724  0.0116525 -0.0418963 0.00322086  0.0123441 -0.0489031 0.00442982  0.0129371 -0.0562261 0.00570834  0.0134352 -0.0638364 0.0070399  0.0138429 -0.0716987 0.00842214  0.0141641 -0.0797885 0.00985134  0.0144081 -0.0880669 0.0113191  0.0145757 -0.0965114 0.0128187  0.0146716 -0.105094 0.0143431  0.0147066 -0.113798 0.0158966  0.0146892 -0.122591 0.0174683  0.0146186 -0.131457 0.0190561  0.0145009 -0.140377 0.020654  0.0143478 -0.14933 0.0222598  0.0141582 -0.158303 0.0238726  0.013936 -0.167285 0.025493  0.0136907 -0.176256 0.0271117  0.0134275 -0.185206 0.0287269  0.0131419 -0.194135 0.0303383  0.0128481 -0.203026 0.0319491  0.0125451 -0.21188 0.0335484  0.0122378 -0.2207 0.0351416  0.0119286 -0.229483 0.036724  0 0 0  0.000663742 -0.00251561 -0.00205088  0.00230706 -0.00495875 -0.00299168  0.00446481 -0.00765693 -0.00320482  0.00677961 -0.0108666 -0.0029543  0.00905854 -0.0146925 -0.00239623  0.0111912 -0.019161 -0.00161833  0.0131215 -0.0242495 -0.000681937  0.0148232 -0.0299021 0.000368178  0.0162657 -0.0360904 0.00149256  0.0175369 -0.0426934 0.00270385  0.0186517 -0.0496562 0.00398868  0.0196199 -0.0569423 0.00533432  0.020454 -0.0645142 0.00673348  0.0211587 -0.0723448 0.0081768  0.0217403 -0.0803992 0.0096612  0.0222149 -0.0886474 0.0111769  0.0225816 -0.0970619 0.0127212  0.0228531 -0.105612 0.0142936  0.0230396 -0.114289 0.0158853  0.0231421 -0.123059 0.017491  0.0231762 -0.1319 0.0191129  0.0231452 -0.1408 0.0207408  0.0230556 -0.149732 0.022375  0.0229177 -0.158686 0.0240126  0.0227354 -0.167649 0.0256492  0.022512 -0.176609 0.0272837  0.0222619 -0.18555 0.0289149  0.0219889 -0.194468 0.0305334  0.0216994 -0.203354 0.0321481  0.0213971 -0.212204 0.033752  0.0210869 -0.221022 0.0353456  0.0207744 -0.229809 0.0369282  
SCALARS smooth_stress float 1
LOOKUP_TABLE default
316.302 503.106 430.897 401.149 378.488 357.374 337.214 316.955 296.536 276.76 256.98 237.455 218.603 200.302 182.35 165.357 149.024 133.626 118.698 104.819 92.0209 80.2169 68.9705 58.6428 49.6714 41.3835 33.5193 26.4886 20.8147 15.3199 10.0555 5.39522 0.987798 234.878 554.255 512.724 482.296 457.699 435.097 413.915 392.738 371.015 349.444 328.007 306.954 285.724 265.54 245.12 225.444 206.603 188.724 171.009 154.349 138.739 124.131 109.814 96.1802 83.9677 72.4391 61.0692 50.3894 40.3367 30.7634 21.1472 12.0555 2.72231 123.937 306.454 334.355 341.709 335.345 326.803 317.614 307.263 296.223 284.253 271.49 259.215 246.238 232.997 219.886 206.351 192.99 179.943 166.911 153.928 141.66 129.418 117.074 105.261 93.8229 82.5103 71.4134 60.5279 49.8398 39.2065 28.4345 17.4495 4.25822 93.5635 198.789 237.95 263.717 270.738 273.357 272.453 269.106 264.141 257.626 249.756 240.862 231.81 221.725 211.652 201.216 190.027 178.691 167.631 156.194 144.815 133.24 121.598 110.408 99.0199 87.8535 76.6433 65.4155 54.5274 43.5866 32.383 20.8503 5.42344 163.404 281.209 299.129 311.543 311.378 306.407 302.078 296.064 288.452 279.202 268.898 257.614 245.842 233.81 221.568 209.074 196.744 184.19 171.697 159.34 147.006 134.838 122.865 110.893 98.9226 87.487 76.4703 65.0872 54.0316 43.0495 31.9412 20.3105 5.54785 267.073 449.457 447.56 445.574 434.4 415.761 396.196 378.935 361.033 342.622 323.493 304.526 285.495 267.074 248.526 230.397 212.874 196.154 179.941 164.106 149.043 134.587 120.668 107.433 94.805 82.3855 70.7865 59.412 48.5865 38.0919 28.0047 18.1653 5.20889 388.542 647.656 628.501 616.351 593.972 564.169 529.801 496.276 464.393 433.434 402.892 373.027 344.157 316.318 289.282 263.584 238.727 215.248 193.187 172.286 152.498 134.335 117.205 101.372 86.4411 73.3148 60.948 49.0087 38.3902 28.8233 19.6251 13.7958 4.77248 528.616 869.679 835.08 816.754 783.573 739.76 690.326 639.215 590.219 544.202 500.476 457.992 417.637 379.488 342.368 307.1 273.883 242.501 213.068 185.681 160.373 136.939 115.608 96.1512 77.508 61.8347 48.5109 36.0369 25.2222 17.3585 13.3747 13.5188 4.73463 150.705 332.29 316.616 314.062 303.471 287.265 268.22 248.076 227.935 209.15 191.71 175.104 159.001 144.034 129.612 115.777 102.913 90.5177 79.2505 68.5229 58.7852 49.7489 41.4992 34.078 27.0491 20.726 15.7287 11.053 7.35699 4.46682 3.50202 3.98834 2.51029 379.346 792.328 708.668 656.457 616.804 580.358 545.739 511.314 477.144 443.885 411.338 379.24 348.127 318.229 288.716 260.953 234.408 209.521 185.276 163.061 141.961 122.908 105.289 88.9172 74.2186 61.4097 49.5267 38.8164 29.4007 21.4465 13.8772 7.4834 1.83409 267.69 1141.75 1263.78 1123.82 1047.38 984.92 928.4 874.355 820.921 768.273 716.948 666.359 616.504 569.154 522.283 477.223 434.06 393.383 353.938 316.574 281.47 248.805 218.461 189.291 162.734 138.985 115.961 94.5304 74.9693 57.132 39.4212 23.4141 7.37123 175.613 626.306 872.91 832.327 779.122 738.966 703.924 671.146 638.923 606.814 574.503 542.754 511.012 479.667 449.428 418.147 388.246 359.469 331.154 303.562 276.817 251.574 226.924 202.489 179.426 157.466 135.806 114.843 93.8497 73.7093 53.6006 33.9672 11.7735 154.117 419.377 567.836 606.124 596.574 579.869 564.767 549.233 532.275 514.613 495.456 475.318 455.252 434.052 412.767 390.936 368.166 345.648 323.159 300.704 278.173 256.001 233.414 211.286 189.665 167.58 146.354 124.927 103.517 82.4877 61.0253 40.3847 14.9365 214.735 489.387 593.832 611.786 606.697 586.375 571.938 557.389 541.051 523.543 503.961 483.052 461.361 439.566 417.235 395.015 372.145 348.677 326.128 303.357 280.484 257.665 234.917 212.742 190.868 168.331 147.351 125.415 104.062 82.6093 61.1573 40.2816 15.2794 324.278 750.114 862.431 849.021 819.923 777.273 734.852 700.209 666.937 633.291 598.672 564.248 529.885 496.591 463.423 431.021 399.917 369.421 340.184 311.702 284.021 257.393 231.769 206.936 183.112 159.712 137.75 115.803 94.4783 73.3577 53.4011 35.0312 13.4462 467.73 1090.26 1233.48 1191.02 1136.86 1072.04 1000.09 931.986 871.061 812.595 755.463 699.821 646.195 594.398 545.061 497.219 451.702 408.239 367.582 329.328 292.821 258.965 227.208 197.61 169.595 144.279 120.459 97.9126 76.3648 56.6852 38.6804 26.5733 12.2418 645.668 1492.42 1671.14 1596.82 1517.47 1424.9 1324.16 1222.07 1125.74 1037.06 953.397 872.85 796.299 723.42 654.241 587.734 525.859 466.476 411.367 359.813 311.882 267.697 227.182 190.748 156.555 125.576 99.6324 76.068 54.4683 36.9389 26.6947 23.6141 11.9011 250.811 875.224 983.908 946.387 906.098 853.83 794.341 732.82 672.055 615.416 563.019 513.951 466.641 422.39 380.617 339.907 302.572 266.761 233.518 202.275 173.566 147.269 123.077 101.199 81.262 62.5895 47.5856 34.5003 23.0859 14.0044 10.1263 11.6679 10.2842 375.621 784.834 743.034 702.103 660.859 621.596 583.673 545.959 509.141 472.815 437.383 402.643 369.017 336.727 305.298 275.349 246.467 219.75 193.865 169.959 147.733 127.222 108.689 91.4808 75.6317 61.615 49.3347 38.5365 28.7241 20.5181 13.0801 6.51553 1.59033 264.352 1064.77 1353.26 1239.54 1148.07 1073.54 1006.42 943.007 881.567 821.77 764.041 707.454 652.552 600.04 548.455 498.759 452.022 407.202 364.667 324.412 287.153 251.87 219.648 189.544 161.205 135.452 112.562 90.9888 70.6979 52.7036 36.3196 20.8698 6.33821 199.097 543.408 946.654 993.085 887.052 821.724 769.867 724.918 683.11 642.951 604.211 566.268 529.336 493.553 458.847 424.549 391.99 360.324 329.75 300.371 272.298 245.493 219.916 195.313 171.685 149.113 127.845 107.134 86.7029 67.3704 48.7469 30.9706 10.8022 192.072 442.314 637.735 745.642 687.017 637.293 602.478 574.238 548.358 523.525 499.256 475.462 451.574 427.919 404.486 381.107 357.176 333.936 310.546 287.661 265.056 242.735 221.075 199.179 177.663 156.572 135.837 115.262 94.8744 74.3375 54.2484 35.1102 13.2155 241.929 503.129 640.433 674.994 647.504 601.476 571.03 546.807 524.5 502.934 481.314 459.304 437.029 415.355 393.677 371.608 349.558 327.337 305.554 283.977 262.286 240.613 219.24 198.134 177.249 156.254 135.463 114.817 94.4002 73.884 53.8763 34.7212 13.3507 335.229 688.433 851.21 868.653 824.126 764.953 709.584 668.171 631.07 595.624 561.205 527.078 493.828 461.727 430.38 400.051 370.992 342.579 315.16 289.051 263.303 238.539 214.321 191.326 169.235 147.16 125.932 105.331 85.0803 65.1132 46.0058 29.7153 11.8611 465.021 950.563 1175.48 1204.82 1135.45 1056.28 972.11 895.999 831.549 771.734 714.659 659.851 607.23 557.338 509.798 463.918 420.772 380.008 341.696 305.727 271.664 239.622 209.88 182.369 156.452 132.553 109.811 88.6472 68.2796 49.4041 32.092 22.1815 10.4988 629.265 1273.16 1580.12 1628.68 1524.37 1414.23 1301.85 1190.32 1088.91 998.391 914.376 834.782 759.438 687.981 620.525 556.983 497.131 440.468 387.678 338.489 292.999 250.917 212.589 177.376 145.667 116.808 91.5651 69.5 49.28 32.5787 22.4033 20.4607 10.9086 244.431 735.064 927.213 982.178 918.472 853.916 787.255 720.482 656.537 598.032 545.227 496.072 449.4 405.785 364.459 325.604 289.182 254.947 222.68 192.778 164.899 139.335 116.572 95.2672 76.7171 59.4445 44.229 32.1649 21.6338 13.0578 8.78901 10.9708 10.0267 383.09 803.825 762.681 732.316 696.117 657.048 617.373 577.854 538.831 500.337 462.425 425.594 389.808 355.271 321.729 290.05 259.493 230.798 204.076 178.388 154.868 132.707 113 94.9912 78.4615 63.5301 50.4404 39.0517 29.2009 20.7426 13.2549 6.94363 1.60763 269.939 1087.22 1388.7 1308.15 1228.22 1150.26 1077.46 1008.53 941.43 876.235 813.005 751.416 691.801 634.468 578.937 525.649 474.987 426.395 381.156 337.387 297.454 260.191 225.846 193.949 164.488 136.875 112.348 90.6822 70.4338 52.131 35.9896 21.2737 6.40161 217.411 572.926 953.051 1067.75 975.887 899.709 838.027 784.224 734.605 687.772 643.094 599.86 557.781 517.783 479.063 440.94 404.963 370.719 337.381 305.868 275.611 247.486 220.51 194.492 169.965 146.404 124.261 104.037 84.0929 64.3891 46.3832 30.0315 10.5738 214.15 484.361 630.842 807.498 779.889 702.867 651.97 612.805 579.189 548.086 518.334 490.244 462.644 435.714 409.326 383.642 358.324 333.484 308.724 284.955 261.492 238.31 215.835 193.904 172.191 151.012 130.425 109.858 90.1065 69.8763 50.7585 33.213 12.5243 256.992 533.638 641.686 705.406 699.102 629.729 584.028 550.72 523.272 497.944 473.744 450.118 427.471 404.826 382.682 360.427 338.694 316.516 294.999 273.54 252.452 231.302 210.372 189.857 169.24 148.761 129.069 108.602 88.6768 68.674 49.3484 31.1856 11.8528 339.972 693.53 814.724 859.516 824.026 755.558 689.109 642.803 603.59 567.05 532.897 499.33 467.298 436.752 407.117 378.414 350.686 323.762 297.885 273.47 249.429 225.866 203.01 181.06 159.701 138.895 118.695 98.8591 79.4501 60.2751 41.6318 26.0874 10.6378 460.352 931.619 1086.75 1159.88 1116.54 1032.78 940.131 858.439 792.591 732.921 676.774 623.679 572.71 524.924 479.595 436.126 395.714 357.498 321.242 287.26 255.288 225.721 197.633 171.671 147.342 124.297 102.501 82.3657 62.9271 45.2628 28.7321 19.0157 9.08027 617.086 1236.37 1431.01 1556.95 1507.98 1390.71 1270.9 1152.5 1047.53 956.909 873.603 796.11 723.075 653.575 588.488 527.383 469.856 416.565 366.222 319.685 276.333 236.291 200.019 166.992 137.094 110.204 86.372 65.0701 45.6765 30.0972 20.3804 18.6092 10.3646 239.635 713.796 823.692 935.637 919.999 846.785 774.704 704.068 637.009 577.721 525.002 476.575 431.207 388.563 348.226 310.697 275.458 242.838 211.964 183.135 156.864 132.484 110.507 90.3664 72.2068 56.2821 42.3083 30.5219 20.5346 12.5962 8.57893 10.1291 9.28615 395.669 828.658 786.173 757.576 725.652 689.085 649.035 608.188 567.49 526.989 487.094 448.241 410.583 374.054 338.38 304.681 272.79 242.352 213.876 187.175 162.439 139.047 117.895 98.9163 81.4391 65.7506 52.3417 40.383 30.0403 21.2298 13.6361 7.70483 1.85836 281.867 1124.8 1442.37 1359.2 1289.37 1216.93 1142.94 1070.03 999.251 930.14 862.206 796.059 732.302 670.761 611.211 553.738 500.026 448.18 399.924 354.251 310.787 270.918 233.807 200.165 169.445 140.942 114.973 91.5306 71.2017 52.8825 36.1259 21.7547 6.79603 230.662 600.567 1000.82 1115.86 1038.11 967.243 901.943 843.025 788.088 736.232 686.292 638.56 592.205 547.84 505.327 463.597 424.21 386.706 350.262 316.42 283.398 253.261 224.843 197.4 171.659 147.478 124.384 102.821 83.2717 64.0939 45.8459 29.4374 10.4939 225.312 511.597 661.414 828.066 831.405 761.515 704.556 658.681 618.563 582.453 548.286 515.724 484.32 453.763 424.389 395.576 367.616 340.892 314.499 288.934 263.966 239.757 216.591 193.736 171.152 149.411 128.173 107.543 88.201 68.7557 49.5522 31.7941 11.9998 262.197 546.116 644.245 697.706 724.452 662.02 606.802 567.21 534.877 506.05 479.454 453.912 429.63 405.723 382.429 359.291 337.319 314.816 292.786 271.022 249.729 228.374 207.381 186.714 166.035 145.435 125.461 105.497 85.3899 65.9252 46.969 29.4608 11.0902 337.769 686.427 788.168 826.218 811.285 747.104 673.273 624.352 583.87 547.37 513.646 481.124 449.98 420.756 392.434 364.869 338.312 312.476 287.825 264.259 241.572 219.108 196.921 175.78 155.046 134.625 114.942 95.9004 75.9432 57.3221 39.1487 24.1413 9.57584 451.64 908.742 1039.42 1094.52 1074.91 998.925 904.641 820.007 755.113 696.916 642.612 591.582 542.87 497.484 454.614 414.075 375.911 339.471 305.254 273.168 243.666 215.919 189.142 163.982 140.785 119.103 98.2713 79.3086 60.5142 42.8712 26.9634 16.9547 8.00359 603.835 1203.73 1369.2 1454.74 1446.7 1351.33 1231.45 1109.8 1003.19 913.9 833.067 757.558 687.087 620.484 558.481 500.113 445.418 394.647 346.787 302.656 261.904 224.114 190.114 158.556 130.049 104.509 81.6017 60.7487 43.1008 28.0886 19.2234 17.2973 9.32433 234.881 697.481 792.545 866.192 882.468 831.142 757.029 684.652 615.404 555.791 503.839 456.143 412.215 370.954 332.164 296.175 262.23 230.925 201.479 174.036 149.182 125.875 104.765 85.8035 68.646 53.2932 40.4574 28.7922 19.142 11.7146 8.18197 9.77496 8.78047 412.751 855.207 811.948 784.156 753.576 718.971 680.218 638.634 596.167 553.917 512.156 471.51 431.77 393.319 355.817 320.143 286.703 254.782 224.221 196.081 170.29 145.599 123.188 103.574 85.1244 68.6281 54.6756 42.3698 31.4767 22.1246 14.5772 8.51219 2.138 300.341 1167.91 1497.59 1412 1344.34 1276.69 1205.55 1131.07 1057.09 984.002 912.136 842.482 774.515 708.79 645.354 584.092 526.652 472.209 420.054 371.26 325.956 283.831 243.995 208.52 175.81 145.839 119.204 95.0542 73.1888 53.8182 37.0309 22.6884 7.5266 240.272 624.862 1044.67 1169.01 1091.59 1025.81 963.049 901.981 843.391 787.681 733.413 681.112 630.794 582.094 535.656 490.627 447.544 407.174 368.062 331.106 295.992 263.211 232.342 203.021 176.017 150.669 127.111 104.422 83.3246 64.2235 46.0712 29.3273 10.3445 227.191 524.943 681.249 862.337 873.598 810.627 756.054 707.638 663.808 623.553 585.695 548.669 513.716 479.907 447.41 415.504 384.296 354.982 326.452 298.426 271.64 245.743 221.474 196.963 173.431 150.941 129.328 108.012 87.5295 68.2328 49.2344 31.4987 11.5265 258.875 544.09 639.893 697.957 733.006 685.205 633.535 591.933 557.073 525.624 496.92 469.241 442.642 417.112 392.02 367.803 343.784 320.492 297.815 274.946 252.278 230.097 208.826 187.518 166.293 145.102 124.507 104.338 84.597 65.4931 46.4169 28.3116 10.4838 330.116 667.723 756.564 792.195 785.303 735.968 662.049 613.965 573.929 537.488 504.043 472.769 442.194 413.431 385.848 359.465 333.63 309.031 284.936 261.72 239.167 217.015 195.348 174.488 153.857 133.212 112.986 93.6886 74.3394 55.6214 37.4396 22.1413 8.51105 439.138 877.118 989.574 1035.59 1020.69 959.656 866.284 782.704 720.605 664.706 613.049 564.896 519.103 475.547 435.078 396.867 360.741 326.298 294.183 264.183 236.036 209.617 184.409 160.316 137.972 116.912 96.6608 77.6893 59.0966 41.0033 25.242 15.7133 7.10964 587.897 1165.12 1310.49 1381.3 1368.42 1294.94 1182.55 1062.4 956.697 870.645 792.64 720.365 652.944 589.748 530.426 475.125 423.398 375.15 329.739 287.622 249.328 214.287 181.877 152.175 124.751 100.352 78.6313 58.687 41.7135 26.7313 17.5562 16.0989 8.4642 229.614 680.027 765.115 827.35 832.745 798.759 733.276 661.719 591.666 532.504 481.869 436.053 393.081 353.534 316.295 281.968 249.567 219.595 191.408 165.25 141.467 119.814 99.7161 81.9778 65.5107 50.7494 38.2637 27.0654 17.7435 10.6966 7.41732 9.3306 8.26181 437.209 883.726 838.079 812.363 783.32 749.681 711.751 670.11 626.48 582.518 538.455 495.594 453.836 413.442 374.287 336.734 301.205 268.041 235.708 205.819 178.982 153.282 129.557 109.021 90.0488 72.661 57.4648 44.6064 33.1341 23.3298 14.9556 8.76186 2.12004 328.904 1218.75 1553.3 1467.82 1402.16 1336.17 1267.4 1193.82 1117.18 1040.83 965.274 891.395 819.356 749.618 682.215 617.574 555.891 498.349 443.201 390.466 343.239 298.808 256.588 218.669 184.949 152.89 124.18 99.6421 77.0229 56.5317 38.0578 23.6871 8.07625 248.217 647.521 1084.92 1225.94 1148.7 1084.51 1023.93 963.692 902.688 843.377 785.403 728.813 674.408 621.348 570.436 522.028 475.074 431 389.469 349.028 311.732 276.958 243.754 211.893 183.159 156.088 131.197 107.835 85.8984 65.8505 46.6212 29.9621 10.865 219.179 525.695 691.766 899.407 923.975 863.012 810.748 763.124 717.098 672.932 631.149 590.383 551.121 513.679 477.097 442.251 407.989 375.077 344.296 313.99 284.829 256.888 230.103 203.734 178.553 154.839 132.097 110.367 88.5269 68.6756 49.4569 31.1692 11.318 244.796 526.105 627.903 698.487 752.426 714.86 667.315 627.214 591.137 557.734 526.594 496.542 467.138 439.338 411.991 385.523 359.377 333.961 309.353 285.29 261.284 237.657 214.707 192.182 169.676 147.826 126.558 105.952 85.2922 65.4963 46.412 28.0979 10.1352 316.303 637.821 721.927 762.251 763.862 727.222 658.658 613.354 575.377 540.126 507.123 476.039 445.725 417.198 389.796 363.496 337.495 312.634 288.825 265.443 242.448 220.207 198.025 176.776 156.005 134.891 114.066 94.2094 75.0323 56.3182 38.0145 21.5886 7.74713 423.381 837.372 935.764 979.857 968.903 920.048 832.695 748.943 691.644 639.336 591.001 545.674 502.366 460.812 422.407 386.585 352.054 319.35 289.152 260.578 232.917 207.798 183.485 160.013 138.152 117.392 96.7134 77.0244 58.5167 40.6591 24.4134 14.9696 6.45369 567.887 1117.11 1245.44 1309.44 1295.9 1231.51 1131.36 1011.91 909.614 828.298 754.259 686.007 622.045 562.32 505.623 453.576 404.646 358.683 316.132 277.138 239.859 206.695 176.047 147.826 121.723 98.2082 77.4334 57.9495 40.671 25.4407 15.9774 15.007 8.12571 223.207 658.797 734.496 790.254 792.494 759.935 703.773 635.349 566.006 508.552 459.784 415.638 374.649 336.995 301.296 268.329 237.746 209.217 182.449 157.95 134.755 114.147 95.1985 78.1666 62.8407 48.4451 36.4337 25.9603 16.9213 9.76492 6.19361 8.13073 7.8194 471 918.563 865.53 844.005 818.355 785.676 747.674 705.453 660.607 614.367 567.898 522.474 478.041 435.498 394.15 355.122 317.269 281.998 248.429 216.882 188.714 161.96 136.893 115.015 95.3646 77.2205 61.4859 47.6853 35.7803 25.7606 16.4652 9.54377 2.43824 369.922 1288.66 1617 1529.39 1467.78 1404.75 1336.61 1262.97 1184.77 1104.75 1024.65 945.701 869.044 794.67 722.955 654.683 589.388 527.816 469.741 413.644 363.018 316.412 271.648 231.334 195.786 162.675 132.575 105.258 81.6285 60.789 41.5314 25.053 8.32053 252.899 673.218 1134.36 1298.36 1217.78 1154.13 1093.49 1033.29 970.743 907.28 845.302 784.144 725.057 667.207 611.686 559.189 508.838 460.503 415.602 372.222 331.178 294.11 258.701 224.497 193.664 165.293 138.137 113.259 90.6555 69.7253 49.7174 31.6318 11.3986 197.32 514.501 698.359 952.421 993.58 931.232 878.383 829.622 782.039 734.177 687.783 643.235 599.144 556.684 515.876 476.821 439.278 402.746 368.285 335.553 303.113 272.791 243.753 215.226 187.639 162.239 137.838 115.143 92.4343 71.1195 51.4423 32.3383 11.7457 212.578 487.532 610.171 708.706 794.818 766.69 719.929 679.633 642.771 606.351 571.706 538.287 505.166 473.744 443.174 413.394 385.002 356.591 329.292 303.096 276.742 251.542 226.283 201.632 177.27 153.894 131.122 109.331 87.6277 66.3584 46.734 28.2179 9.84917 288.705 590.999 683.719 742.522 761.142 739.69 676.536 633.611 596.378 561.269 528.095 496.016 464.874 435.248 406.694 379.035 352.633 326.454 301.2 276.834 253.136 229.73 206.845 184.154 161.79 139.697 118.081 97.251 76.6354 56.7284 37.6227 21.2177 7.31392 400.334 789.956 883.359 935.872 934.663 894.999 815.115 731.439 677.215 628.87 583.137 539.513 497.992 458.238 421.204 386.353 353.056 320.967 291.427 263.378 236.499 211.282 187.243 163.801 141.668 120.125 99.1265 79.0184 59.3913 41.0787 24.6086 15.1328 5.92187 541.155 1059.7 1176.03 1241.84 1234.55 1176.94 1088.18 971.104 868.875 793.192 723.909 659.936 599.558 542.685 489.028 439.511 392.885 348.83 308.378 271.162 236.088 203.581 174.537 147.392 122.175 98.6607 78.3054 59.193 41.0527 25.4395 16.1938 15.2896 8.25776 214.799 631.899 698.281 750.912 754.083 723.694 672.928 609.399 540.255 485.148 438.958 396.93 358.21 322.091 288.183 256.831 227.852 200.472 175.184 151.935 130.306 110.055 92.0963 75.8296 61.2941 47.5949 35.7701 25.7742 16.9531 9.65302 5.99238 8.0744 7.86358 119.437 317.761 296.572 292.345 285.887 275.797 263.224 248.966 233.639 217.531 201.151 185.186 169.492 154.452 139.811 125.925 112.839 100.193 88.3501 77.2746 67.0968 57.7887 48.948 41.1635 34.1637 27.7091 22.1269 17.2916 13.1029 9.56888 6.28033 3.61604 1.33898 132.948 689.359 854.139 812.733 787.175 758.343 724.378 686.331 645.359 602.533 558.919 515.833 473.802 432.95 393.917 356.256 320.798 286.716 254.816 224.508 196.54 171.234 146.703 124.73 105.15 87.2981 71.2539 56.5405 43.8294 32.8829 23.0492 13.9937 5.99678 85.8905 350.463 600.018 707.338 663.167 631.549 600.924 569.215 536.222 501.766 467.235 432.964 399.745 367.634 336.522 306.643 278.966 252.111 226.695 202.835 179.903 159.133 139.739 121.162 104.058 89.0081 74.6123 60.9975 48.4859 37.6095 27.7078 18.0063 8.0526 59.1407 246.891 352.093 517.987 554.409 518.461 490.024 463.614 437.699 410.93 384.188 358.508 333.403 309.027 285.373 262.989 241.63 220.896 201.319 182.617 164.7 147.697 131.823 116.39 101.367 87.5284 74.1707 61.8442 50.0143 38.7986 28.6372 18.7359 8.47545 57.8463 211.131 291.121 363.945 434.952 427.905 401.442 378.847 358.344 338.075 317.837 298.727 279.78 261.226 243.855 226.877 210.595 194.653 179.234 164.611 150.064 135.829 122.126 108.815 95.7551 82.9564 70.7541 59.1235 47.9226 36.4209 25.965 16.469 6.83634 82.1657 250.118 308.611 357.33 384.023 388.003 358.037 336.299 317.24 299.186 281.659 264.934 248.66 232.859 217.806 202.977 189.059 175.385 161.943 148.947 136.288 123.831 111.755 99.565 87.6409 75.8518 64.3162 53.1333 42.286 31.6549 21.2875 12.398 4.94208 119.345 343.891 393.079 433.457 445.914 435.927 401.276 360.665 335.215 312.683 291.299 270.708 251.024 232.451 214.922 198.002 181.967 166.495 152.239 138.444 125.204 112.524 100.317 88.477 77.1331 65.8401 54.6914 44.1302 33.9075 23.9546 14.926 8.41657 3.85539 164.346 469.946 523.74 568.309 576.259 556.456 519.196 464.215 413.978 379.484 348.15 318.706 290.83 264.608 239.787 216.898 194.911 174.037 155.209 137.651 121.435 105.846 91.7914 78.5254 66.1282 54.5053 43.8082 33.7474 24.1556 15.4038 9.12294 6.7569 5.46493 100.784 391.862 430.952 471.353 479.217 463.362 432.928 394.507 348.409 311.767 282.801 256.193 231.758 208.853 187.292 167.272 148.63 131.018 114.784 99.7447 86.1433 73.308 61.5888 51.1057 41.6856 32.7882 24.9291 18.4224 12.3719 7.17529 4.43116 5.59069 6.16118 
CELL_DATA 12288
SCALARS stress float 1
LOOKUP_TABLE default
44.0818 69.6221 25.0271 25.0271 79.1147 73.4287 46.2002 63.4318 60.5157 62.5894 60.2333 57.5922 44.0049 58.8941 50.319 52.0418 54.9122 52.8997 41.9714 55.4052 46.381 47.9848 51.701 49.8936 40.0334 52.2869 43.5864 45.1501 48.7626 47.0741 38.1745 49.2797 41.0085 42.5113 46.079 44.4838 36.306 46.2235 38.6913 40.1115 43.4036 41.9149 34.3887 43.2179 36.4011 37.7308 40.6211 39.2767 32.345 40.1846 34.1001 35.2909 37.963 36.7544 30.4223 37.3251 31.8864 32.9522 35.2922 34.1645 28.4506 34.4642 29.6654 30.657 32.6525 31.634 26.4827 31.649 27.4602 28.3472 30.0647 29.1649 24.5513 28.9811 25.3426 26.1042 27.5981 26.7957 22.6692 26.3574 23.3474 24.0118 25.106 24.4164 20.7661 23.7975 21.3021 21.8536 22.8424 22.2665 19.0019 21.4136 19.4463 19.8983 20.5002 19.9878 17.2991 19.2047 17.5439 17.9359 18.5004 18.0524 15.5937 16.9837 15.8418 16.1794 16.4215 16.0536 14.0208 14.9867 14.1239 14.3953 14.4857 14.211 12.4954 13.0615 12.5702 12.7586 12.7246 12.5121 11.1566 11.2884 11.0733 11.2079 11.1118 10.9462 9.80327 9.73299 9.71079 9.80911 9.60016 9.50261 8.52014 8.22447 8.41597 8.4588 8.14548 8.10287 7.33467 6.91582 7.19225 7.1932 6.8781 6.88036 6.30514 5.70124 6.13473 6.10322 5.82872 5.83987 5.29925 4.69233 5.15638 5.12802 4.72406 4.71488 4.34927 3.7504 4.13892 4.13486 3.83915 3.86773 3.41185 2.90665 3.27 3.24401 2.90509 3.04411 2.65568 2.2169 2.6348 2.53505 2.38221 2.44091 1.92126 1.60334 1.82985 1.78313 1.65568 1.70353 1.13023 1.10738 1.15725 1.1417 1.06565 1.09408 0.536875 0.53173 0.577947 0.601136 0.494534 0.493263 21.1079 25.5717 15.068 15.068 44.1595 44.7942 26.0501 57.9467 34.262 40.3805 42.3817 40.0534 30.6157 46.4815 37.1184 39.828 39.9868 38.1424 30.8428 42.4094 34.7469 36.7559 37.8725 36.2821 30.3161 39.6525 33.0247 34.5879 35.9495 34.5289 29.6297 37.1883 31.5532 32.8048 34.1859 32.9658 28.8057 35.0276 30.2237 31.1841 32.4676 31.3993 27.8345 32.925 28.8897 29.6343 30.7383 29.8386 26.7845 30.8304 27.56 28.1022 28.9079 28.1429 25.6036 28.8119 26.2241 26.6053 27.1941 26.5464 24.3489 26.8586 24.7918 25.056 25.511 24.9972 23.2216 24.9152 23.4586 23.5979 23.8204 23.4044 21.8564 23.0824 21.9548 22.0141 22.19 21.8595 20.5702 21.3435 20.659 20.6541 20.5783 20.3222 19.3049 19.5649 19.2581 19.2069 18.9561 18.7753 17.9677 17.9302 17.8277 17.7293 17.4272 17.3497 16.7068 16.2972 16.5753 16.3997 16.0092 16.0055 15.483 14.8796 15.265 15.0511 14.5993 14.6446 14.2249 13.3771 14.0083 13.7677 13.2544 13.3406 13.0212 12.0687 12.761 12.508 11.98 12.1174 11.9399 10.7476 11.5741 11.299 10.8225 11.0209 10.764 9.5978 10.5034 10.1933 9.69096 9.92101 9.65138 8.46103 9.3943 9.07867 8.5658 8.80882 8.59469 7.4023 8.3136 8.00465 7.54627 7.79418 7.59376 6.46461 7.33474 7.04809 6.63886 6.89223 6.60268 5.56783 6.3509 6.07315 5.7167 5.99608 5.61771 4.66308 5.43346 5.14457 4.87247 5.12282 4.66658 3.85742 4.52985 4.28066 3.99493 4.16582 3.75512 3.14792 3.60082 3.43368 3.17428 3.3177 2.83343 2.34114 2.67949 2.55397 2.43579 2.57994 1.83575 1.58277 1.83808 1.73097 1.56375 1.66787 0.944657 0.893414 0.996291 0.958174 0.839298 0.852876 8.16859 15.2635 10.466 10.466 20.3997 22.9978 15.7427 29.8124 21.1988 26.0294 21.8383 22.2213 22.0512 32.379 25.128 27.8138 25.4218 23.6644 24.184 29.4867 26.6407 28.3878 25.3853 24.1902 25.1378 27.7236 26.3611 27.3168 24.8143 23.9502 25.4301 26.3482 25.9846 26.4543 24.2149 23.5784 25.3609 25.1193 25.5183 25.6702 23.4761 23.051 25.0257 23.949 24.9198 24.8213 22.6773 22.4138 24.4823 22.8442 24.2359 23.9699 21.8633 21.7191 23.8254 21.7318 23.449 23.0832 20.9172 20.9087 22.9712 20.6083 22.5948 22.1132 20.0032 20.0827 22.1487 19.5776 21.6685 21.1273 19.1948 19.3856 21.2072 18.4345 20.7692 20.1492 18.209 18.4511 20.2384 17.4717 19.7156 19.1048 17.2712 17.59 19.2321 16.3943 18.748 18.094 16.3436 16.7577 18.2512 15.2965 17.6966 16.9896 15.3612 15.7786 17.0878 14.3603 16.5922 15.914 14.4213 14.8752 15.9912 13.3336 15.5378 14.8601 13.4967 13.9672 14.9331 12.3834 14.4367 13.7872 12.554 12.9917 13.7905 11.4017 13.3604 12.7664 11.6205 12.095 12.7376 10.476 12.3317 11.7376 10.808 11.2013 11.592 9.6078 11.1897 10.6975 9.83893 10.2547 10.5117 8.67744 10.1615 9.67345 8.90934 9.31674 9.50414 7.80051 9.15327 8.69546 8.0622 8.45136 8.43148 6.96456 8.13754 7.71183 7.20552 7.54105 7.414 6.09306 7.11093 6.75096 6.32961 6.6256 6.32603 5.30054 6.13923 5.83052 5.47123 5.74069 5.38525 4.44212 5.17756 4.90726 4.57205 4.8948 4.42494 3.64098 4.27245 3.96023 3.78661 4.0994 3.47096 2.78827 3.3415 3.04716 2.93049 3.15638 2.46682 1.98663 2.38229 2.18034 1.98361 2.26071 1.36371 1.19129 1.47729 1.26766 1.15508 1.30561 17.8782 10.8573 13.8052 13.8052 5.51663 13.0663 20.3727 16.7309 23.5403 25.4982 11.5663 14.3899 24.7377 17.961 25.9238 27.0749 15.144 16.009 26.9728 19.7685 27.1045 27.6652 17.3012 17.2113 27.0482 19.2682 26.7903 26.7842 18.0714 18.3901 27.3173 18.9419 26.6563 26.1421 18.4006 18.9346 27.1688 18.6431 26.3106 25.5075 18.476 19.1245 26.7408 18.2772 25.7751 24.8305 18.3604 19.1637 26.1988 17.8832 25.2047 24.0963 18.1014 18.9749 25.3818 17.4426 24.4553 23.2801 17.7898 18.7242 24.5509 16.9461 23.573 22.3551 17.291 18.2263 23.5275 16.4013 22.586 21.3776 16.8389 17.7423 22.4419 15.8551 21.587 20.4303 16.2612 17.1421 21.3647 15.2044 20.5131 19.4011 15.6879 16.5386 20.2228 14.6115 19.4566 18.3958 15.0593 15.8711 19.0728 13.916 18.3422 17.3446 14.4332 15.2391 17.9042 13.1879 17.2228 16.2593 13.6487 14.4216 16.7459 12.502 16.1028 15.1967 12.9265 13.655 15.5904 11.7712 15.0319 14.1831 12.2342 12.9102 14.4552 11.0205 13.8853 13.1154 11.423 12.0741 13.2945 10.2755 12.8037 12.0701 10.6529 11.2666 12.1565 9.46499 11.7035 11.0234 9.84003 10.4118 11.0118 8.68061 10.6073 9.98537 9.00983 9.53159 9.90587 7.92998 9.5649 9.00584 8.26095 8.71282 8.77888 7.0685 8.48345 7.99931 7.34609 7.84538 7.83059 6.28084 7.49915 6.98836 6.56736 6.99828 6.70796 5.48109 6.53802 6.09657 5.65821 6.09099 5.74639 4.62988 5.51784 5.08341 4.82804 5.23117 4.72516 3.79423 4.5443 4.14484 3.93784 4.3444 3.72672 2.92908 3.60089 3.21247 3.05088 3.44752 2.72727 2.07481 2.6402 2.27793 2.14829 2.53963 1.59871 1.20231 1.68648 1.35226 1.17394 1.58017 33.4957 15.1705 21.9976 21.9976 17.5904 21.4684 32.6961 21.3768 35.8683 35.8801 19.2267 22.2449 34.8966 21.4031 36.1616 35.8558 20.959 22.9568 35.8907 21.0844 35.917 35.4116 21.4674 23.0322 35.735 20.3043 35.0845 34.3059 21.0106 22.4153 34.4792 19.8672 33.5427 32.4425 20.8624 22.3752 33.4665 19.5044 32.3089 30.9808 20.6245 22.2237 32.3772 19.0851 31.2122 29.7158 20.2293 21.7872 31.1171 18.6146 29.9114 28.4016 19.7662 21.317 29.6705 18.0644 28.591 27.0537 19.1197 20.6084 28.2575 17.4491 27.1352 25.6302 18.5147 19.9538 26.7134 16.7715 25.6701 24.1932 17.7711 19.1358 25.192 16.0947 24.2039 22.7941 17.0165 18.3348 23.7014 15.3796 22.7746 21.4058 16.2618 17.4736 22.1462 14.7324 21.2752 20.007 15.5108 16.5786 20.6059 13.9758 19.8006 18.6721 14.7127 15.7091 19.1531 13.2084 18.4221 17.3687 13.896 14.8354 17.7539 12.4362 17.0568 16.0638 13.0661 13.9068 16.2957 11.6698 15.6901 14.7935 12.2242 13.0271 14.9038 10.8705 14.3958 13.5467 11.4154 12.1152 13.5975 10.0833 13.0683 12.3241 10.5581 11.2167 12.2934 9.27551 11.8533 11.1601 9.70848 10.3515 11.102 8.49086 10.6922 10.0184 8.87516 9.43902 9.8942 7.67694 9.5275 8.9365 8.00153 8.52754 8.68929 6.85905 8.39877 7.84931 7.13616 7.57996 7.53037 6.04093 7.27137 6.81577 6.35468 6.80372 6.51418 5.24762 6.33021 5.87285 5.41015 5.86203 5.50935 4.43542 5.29592 4.83796 4.64775 5.02546 4.46156 3.56959 4.30231 3.92023 3.73902 4.11864 3.54785 2.72929 3.35202 2.98172 2.8486 3.33514 2.5803 1.82317 2.49848 2.02225 1.90333 2.38827 1.44841 0.967315 1.56183 1.12029 0.941126 1.42785 50.4754 24.4968 32.8841 32.8841 34.4723 36.3666 47.1611 35.8509 51.6867 50.981 33.4688 35.9412 48.1053 34.6598 50.2802 49.2621 33.8714 35.9726 48.1112 33.0169 48.8663 47.7588 33.2216 35.0946 46.9736 31.1436 46.914 45.6747 31.9058 33.7299 45.1428 29.029 44.593 43.1755 30.0966 31.9163 42.7499 27.4378 41.8852 40.3132 28.6659 30.5015 40.4876 26.1178 39.553 37.8954 27.3317 29.103 38.1999 24.7054 37.2467 35.6046 25.9619 27.6874 35.9221 23.3884 34.9724 33.3354 24.4967 26.1627 33.6135 21.987 32.6816 31.0771 23.1162 24.6862 31.3661 20.6178 30.4284 28.8951 21.6628 23.159 29.1034 19.3039 28.2473 26.7744 20.3055 21.6937 26.9854 18.0319 26.117 24.7377 18.9445 20.2551 24.8271 16.6869 24.0627 22.7506 17.5682 18.8351 22.7941 15.4859 22.1018 20.8239 16.2557 17.4012 20.8127 14.3005 20.1409 18.9816 15.01 16.081 18.9277 13.1688 18.2962 17.2081 13.8315 14.8317 17.1452 12.0989 16.5894 15.5698 12.6709 13.5569 15.3895 11.0535 14.9177 14.0109 11.537 12.3465 13.8226 10.0366 13.3367 12.506 10.5276 11.2453 12.2422 9.07983 11.8494 11.1126 9.47999 10.0888 10.791 8.08809 10.4299 9.804 8.4708 9.07652 9.41861 7.20846 9.13739 8.51167 7.5371 8.11022 8.18569 6.3715 7.92824 7.33843 6.6389 7.18512 7.05191 5.48312 6.79983 6.2427 5.71912 6.19383 5.86613 4.70001 5.73608 5.2463 4.86284 5.2837 4.83299 3.83605 4.65997 4.23305 4.02512 4.49675 3.91035 3.01866 3.75188 3.26714 3.15813 3.65975 3.02145 2.22574 2.90064 2.39604 2.39726 2.8528 2.10445 1.49859 2.02692 1.55362 1.56363 2.04566 1.22328 0.899773 1.28102 0.840514 0.901068 1.43157 69.0853 37.062 46.3941 46.3941 52.7886 53.4585 62.8384 53.2289 69.9114 69.0043 49.2876 51.4481 63.3522 50.8047 66.8063 65.3926 48.9358 50.9862 62.645 48.2915 64.3741 62.9358 47.6073 49.5204 60.6008 45.4154 61.3083 59.8252 45.3854 47.2164 57.6181 42.3082 57.7241 56.2001 42.7392 44.5378 54.0961 39.1097 53.8624 52.2836 39.8587 41.6193 50.4544 36.4206 50.0076 48.3919 37.2506 38.9813 46.981 33.9048 46.3576 44.7288 34.756 36.3956 43.5337 31.4645 42.9454 41.3814 32.3139 33.8621 40.2737 29.0833 39.6169 38.1182 29.8974 31.3468 37.0125 26.7989 36.3631 34.9472 27.6207 28.9459 33.9623 24.5454 33.3098 32.0047 25.3176 26.5746 31.0532 22.4489 30.3607 29.1114 23.1968 24.3557 28.0578 20.4281 27.5153 26.3608 21.0936 22.1439 25.4103 18.5331 24.8473 23.7941 19.1227 20.0814 22.7747 16.6803 22.2663 21.3017 17.2493 18.1021 20.3194 14.9375 19.8474 18.9854 15.4636 16.2258 18.0099 13.3202 17.5686 16.7963 13.7967 14.5123 15.8628 11.8063 15.5172 14.786 12.1773 12.8175 13.8349 10.3725 13.4804 12.8243 10.7681 11.3279 11.9608 9.06321 11.6838 11.1085 9.37556 9.88815 10.2975 7.89486 9.96714 9.43918 8.17254 8.61792 8.64497 6.72176 8.50178 8.04104 6.92853 7.3204 7.14962 5.67677 7.01166 6.60482 5.86906 6.23754 5.95425 4.70361 5.76053 5.37887 4.90849 5.2799 4.7716 3.86511 4.69531 4.30815 3.93749 4.33395 3.74042 2.96006 3.66554 3.25055 3.05703 3.42088 2.74935 2.18678 2.68842 2.30256 2.27867 2.71453 2.00733 1.46608 1.94805 1.48228 1.52361 1.91057 1.25035 0.792151 1.22381 0.802384 0.797477 1.31913 0.808898 0.866472 0.79726 0.434515 0.889783 1.22785 88.1672 53.3343 62.5382 62.5382 73.0583 73.501 79.7955 73.0666 90.8262 89.2912 66.3583 68.4878 81.8807 69.1326 86.4521 84.5056 65.8917 67.9256 80.9872 65.7927 83.2688 81.4715 64.0795 65.9799 77.6683 61.8884 78.8352 77.1451 61.0587 62.8431 73.0559 57.5704 73.6975 72.0926 57.2842 58.9983 68.0349 53.1844 68.1309 66.5649 53.193 54.8211 62.604 48.8783 62.6155 61.1225 49.1336 50.6698 57.4134 44.949 57.2474 55.8221 45.3943 46.8149 52.5784 41.3629 52.343 51.0099 41.764 43.0789 48.2565 37.8574 47.7966 46.5546 38.3333 39.5485 43.8106 34.4746 43.4884 42.3428 34.9502 36.0476 39.8054 31.3433 39.3372 38.2968 31.8167 32.809 35.9094 28.3355 35.5096 34.5713 28.8607 29.7246 32.1222 25.4302 31.8556 31.033 25.7889 26.5713 28.803 22.7344 28.2807 27.5335 23.1316 23.7979 25.2305 20.1243 25.082 24.4562 20.4689 21.0593 22.2299 17.7235 21.998 21.4305 18.0126 18.5347 19.3612 15.45 19.1246 18.6186 15.6981 16.1442 16.5913 13.3842 16.4262 15.9921 13.5812 13.9613 14.2078 11.4031 14.0249 13.6535 11.6082 11.9377 11.8284 9.66762 11.775 11.4489 9.79379 10.0718 9.8632 8.013 9.73591 9.45618 8.1744 8.38574 7.93521 6.62416 7.89388 7.67826 6.5908 6.80663 6.11285 5.19535 6.19439 5.97342 5.18937 5.31858 4.66906 4.07414 4.62549 4.49027 4.1334 4.23249 3.33786 3.131 3.48927 3.38554 2.99792 3.10237 2.23348 2.22879 2.3793 2.26991 2.09993 2.21371 1.36034 1.42531 1.54945 1.43376 1.22978 1.31087 0.806324 0.961037 0.98929 0.916449 0.804103 0.921389 0.793564 0.985369 0.980746 0.943531 0.771692 0.782274 1.19623 1.40759 1.21627 1.27124 1.38382 1.31406 27.5988 68.2789 23.9699 23.9699 70.9014 69.9774 62.5284 64.2757 59.9161 60.6014 66.0849 63.2851 51.3372 62.39 55.1739 57.1676 60.4471 58.1814 47.1142 59.2025 50.7334 52.5477 56.5309 54.5037 44.2351 55.9728 47.4009 49.1495 53.1912 51.277 41.6187 52.6882 44.3516 46.0836 50.0529 48.2542 39.2579 49.4053 41.6587 43.3373 46.8793 45.2 36.9311 46.1734 38.9507 40.5452 43.8229 42.2355 34.5807 42.9271 36.3651 37.8737 40.7471 39.2773 32.2774 39.8033 33.8528 35.2499 37.8013 36.4507 30.048 36.6762 31.3932 32.674 34.8981 33.6579 27.799 33.6291 29.002 30.1742 32.0634 30.903 25.5819 30.7717 26.6502 27.7588 29.3269 28.2724 23.5376 27.9113 24.4376 25.4469 26.6433 25.7046 21.4378 25.2636 22.1913 23.0921 24.0551 23.2141 19.5338 22.6061 20.1383 20.9364 21.6224 20.8946 17.5946 20.1814 18.1335 18.8216 19.3782 18.7271 15.8798 17.8954 16.2451 16.8645 17.1095 16.5532 14.1294 15.6272 14.4333 14.9498 15.0809 14.6052 12.5379 13.6598 12.782 13.2243 13.1376 12.7407 10.9993 11.7535 11.1732 11.5414 11.3409 10.9922 9.62872 10.0636 9.68733 10.011 9.76224 9.47977 8.29977 8.50574 8.36577 8.62481 8.23051 8.00425 7.05735 7.07011 7.11055 7.31184 6.92281 6.73081 5.98194 5.74399 5.91537 6.08988 5.69059 5.54487 5.01642 4.63054 4.92673 5.05751 4.63323 4.55946 4.02639 3.68672 3.98272 4.04522 3.67164 3.61964 3.13974 2.8028 3.09491 3.13791 2.8146 2.79498 2.39611 2.04259 2.31638 2.33062 2.0652 2.07656 1.64193 1.49859 1.63018 1.62009 1.45599 1.4724 0.940784 0.829118 0.949187 0.946874 0.880509 0.894261 0.39 0.37904 0.42072 0.405146 0.416346 0.391483 16.9853 23.0131 17.1304 17.1304 25.8188 25.3493 37.0522 54.6109 28.8336 29.9092 57.6551 55.0392 38.3689 51.5573 47.5048 48.8061 47.6434 45.3166 35.7489 47.2166 40.387 42.1723 43.5196 41.3758 33.8142 43.9103 36.9121 38.6916 40.6376 38.6687 32.1815 40.935 34.5166 36.1608 38.0704 36.2584 30.6582 38.3424 32.4566 33.9539 35.7955 34.1496 29.1764 35.7698 30.6345 31.9591 33.6003 32.0935 27.6971 33.3416 28.8982 30.0925 31.4103 30.0523 26.2502 31.0414 27.2067 28.2618 29.3277 28.1024 24.7419 28.769 25.5713 26.4926 27.2881 26.2 23.316 26.6044 23.9128 24.7204 25.2832 24.3136 21.7512 24.5341 22.3341 23.0297 23.3598 22.5172 20.4185 22.5304 20.7674 21.3585 21.5379 20.8329 18.9929 20.5051 19.277 19.7405 19.6695 19.0992 17.5397 18.714 17.8044 18.149 18.0521 17.5179 16.2364 16.9621 16.3533 16.6892 16.3714 15.939 14.8956 15.3003 14.9633 15.2203 14.8955 14.5562 13.6371 13.7054 13.6297 13.8239 13.3763 13.1016 12.3821 12.2587 12.3362 12.487 11.9982 11.8187 11.1891 10.8787 11.1684 11.2374 10.6991 10.5303 10.0977 9.56843 9.96262 10.0396 9.51287 9.42162 8.99448 8.43055 8.87948 8.89996 8.37162 8.31438 7.92698 7.32364 7.81883 7.822 7.28038 7.27475 6.97404 6.22396 6.78773 6.75305 6.30371 6.35734 5.99886 5.33183 5.88274 5.79961 5.4268 5.47236 5.06587 4.43909 4.9427 4.87898 4.49372 4.57529 4.19864 3.60839 4.07967 3.99041 3.66171 3.77397 3.35082 2.8349 3.22181 3.10863 2.92023 3.06448 2.45326 2.1145 2.45276 2.31645 2.12735 2.24233 1.61079 1.40435 1.6851 1.58681 1.39911 1.47467 0.836781 0.815503 0.907796 0.839421 0.759086 0.86246 11.7724 15.2046 15.03 15.03 14.5002 14.0942 25.0157 22.6915 24.1761 24.3002 32.2129 29.1785 27.6606 43.1619 31.9046 36.2782 33.5368 31.1465 28.0111 35.5112 31.7871 33.6426 30.6807 28.8384 27.2495 32.0295 29.3878 30.6655 28.7534 27.2316 26.5574 29.7279 27.8533 28.7781 27.1881 25.9376 25.8567 27.8363 26.6251 27.2577 25.8262 24.7534 25.0331 26.2002 25.5559 26.0152 24.5264 23.6197 24.1837 24.7012 24.448 24.7747 23.3017 22.5392 23.2825 23.2306 23.4189 23.6194 22.0848 21.4509 22.297 21.8526 22.317 22.4262 20.8434 20.3615 21.2894 20.4799 21.3012 21.2925 19.7296 19.3497 20.2939 19.213 20.1501 20.0984 18.4943 18.2247 19.2234 17.9321 19.119 18.9794 17.4685 17.2812 18.1965 16.7383 17.9952 17.8288 16.3498 16.2251 17.0712 15.546 16.8527 16.6718 15.1965 15.1508 15.9764 14.3947 15.7714 15.5406 14.2072 14.2227 14.9115 13.2923 14.6943 14.4409 13.1624 13.2179 13.8232 12.2 13.5729 13.3187 12.1584 12.2822 12.7908 11.1808 12.5656 12.2821 11.1882 11.3094 11.7514 10.2033 11.4508 11.1985 10.1923 10.3996 10.7043 9.2368 10.498 10.1853 9.35019 9.5381 9.67187 8.31272 9.48057 9.20789 8.40841 8.62038 8.68601 7.43103 8.46111 8.1869 7.52473 7.75444 7.69396 6.53017 7.51483 7.2455 6.70417 6.91738 6.72676 5.73598 6.55329 6.30913 5.8437 6.05195 5.79957 4.90701 5.61471 5.38679 5.02151 5.26172 4.87025 4.09685 4.76255 4.51259 4.21013 4.40227 3.90249 3.26046 3.80389 3.60445 3.3829 3.5927 2.97423 2.52468 2.96632 2.76335 2.52402 2.73382 2.10466 1.7496 2.09962 1.89825 1.68459 1.93602 1.20761 1.04978 1.31694 1.09621 1.01055 1.23266 15.0963 13.2414 17.6861 17.6861 8.83158 9.17842 26.1129 17.7648 26.2353 25.8517 19.0612 17.6897 28.2184 24.5051 29.8826 31.9624 20.2855 19.3534 28.9433 24.9819 29.7889 30.8909 21.0454 20.2039 27.6647 22.4426 28.2501 28.4467 20.1877 19.7713 27.0353 20.9806 27.0015 26.8138 19.5781 19.4424 26.3788 19.9107 26.0473 25.5951 19.0329 19.1129 25.6501 19.1096 25.2118 24.5815 18.4828 18.689 24.8378 18.3213 24.2732 23.5544 17.9616 18.2405 23.9383 17.6259 23.3441 22.5835 17.3996 17.7411 22.9453 16.9338 22.3424 21.5606 16.8285 17.2005 21.8802 16.2848 21.3235 20.5601 16.2035 16.6029 20.8669 15.5459 20.2525 19.5016 15.6201 16.0293 19.7773 14.8801 19.2855 18.5625 14.9312 15.3424 18.7178 14.1851 18.1947 17.5054 14.3329 14.7277 17.6226 13.4598 17.1238 16.495 13.6327 14.0092 16.4873 12.7219 16.0488 15.4681 12.8906 13.2615 15.3872 11.998 14.963 14.4204 12.1789 12.559 14.3401 11.1971 13.9289 13.4026 11.4185 11.8147 13.2335 10.466 12.8825 12.3591 10.6646 11.0491 12.1581 9.66667 11.8448 11.3612 9.94106 10.2918 11.0907 8.95501 10.7883 10.365 9.14386 9.4761 10.0359 8.18023 9.77208 9.37821 8.35658 8.68938 9.03542 7.35652 8.78446 8.40135 7.5667 7.93125 8.02433 6.59589 7.84511 7.44517 6.76297 7.06932 6.99112 5.80449 6.80694 6.47405 5.96767 6.27428 6.08805 5.00083 5.89381 5.56934 5.17621 5.47143 5.06703 4.22423 4.95466 4.64978 4.32694 4.61665 4.12164 3.41473 4.02712 3.73505 3.50817 3.77943 3.17488 2.60561 3.13946 2.86946 2.61203 2.91607 2.22076 1.74022 2.23207 1.9378 1.74513 2.07886 1.33366 1.05073 1.38365 1.08501 1.03362 1.32575 23.6039 17.1072 24.107 24.107 13.7785 14.4707 37.1892 21.9398 33.333 32.6427 22.2685 23.1568 37.4641 23.4594 38.1056 38.2286 22.5462 23.7396 37.1307 22.3562 37.1471 36.7467 22.0765 23.2613 35.9588 20.7603 35.4797 34.7288 20.6582 21.9513 33.8008 19.5155 33.1049 31.9046 19.9178 21.2734 32.2164 18.6895 31.3898 30.0749 19.3112 20.7355 30.8405 18.0401 29.9345 28.5224 18.7324 20.153 29.3973 17.4082 28.4458 27.0036 18.1581 19.5227 27.9242 16.8304 27.0332 25.6166 17.5708 18.8328 26.3975 16.2012 25.5152 24.1875 16.9256 18.0977 24.8623 15.5538 24.0704 22.8221 16.214 17.3224 23.3782 14.8456 22.5974 21.4041 15.5246 16.5499 21.8947 14.277 21.1746 20.0642 14.8357 15.7582 20.4191 13.567 19.7628 18.751 14.1343 15.0319 19.045 12.8721 18.4417 17.4592 13.4006 14.2435 17.6689 12.1863 17.1239 16.2001 12.6427 13.415 16.3001 11.4408 15.8078 14.9567 11.8776 12.5886 14.9978 10.7957 14.5605 13.7828 11.2033 11.797 13.6916 10.0766 13.2787 12.6233 10.427 10.9557 12.4528 9.35383 12.1131 11.5303 9.66488 10.1606 11.2557 8.58454 10.9188 10.375 8.88115 9.32836 10.0803 7.83727 9.80346 9.31635 8.09368 8.51546 8.98249 7.11151 8.75866 8.30894 7.34966 7.70024 7.88987 6.39054 7.69117 7.31618 6.56468 6.87981 6.82891 5.5578 6.65376 6.3176 5.73187 6.0438 5.87993 4.79859 5.7131 5.38731 4.98101 5.25286 4.83565 4.00546 4.69538 4.40957 4.11257 4.436 3.92051 3.20094 3.86151 3.53592 3.28894 3.57463 2.97041 2.45113 2.92483 2.63939 2.4833 2.73748 2.02186 1.66414 2.0674 1.8164 1.65528 1.85864 1.15448 0.979243 1.20641 1.03197 0.977597 1.14004 34.7791 25.0961 33.5473 33.5473 23.7906 24.431 52.4641 31.6001 43.5768 42.762 36.1712 37.4519 50.9746 34.9137 51.7116 51.0449 34.9375 36.758 49.5209 32.7523 49.7705 48.6237 33.199 35.1095 47.3486 30.2691 47.0875 45.6919 31.1097 33.0266 44.7243 27.5688 44.0983 42.5526 28.6449 30.6374 41.6427 25.7926 40.8747 39.1263 26.8957 28.8218 39.0495 24.2645 38.1652 36.4273 25.4119 27.2926 36.6187 22.8626 35.7375 33.9987 23.9757 25.7229 34.1979 21.5433 33.3169 31.6766 22.5869 24.2295 31.843 20.1623 31.0112 29.448 21.1789 22.72 29.5497 18.8942 28.7607 27.2729 19.7975 21.2265 27.3363 17.6766 26.5695 25.1759 18.5155 19.8151 25.2035 16.4187 24.5341 23.2548 17.2223 18.4345 23.1483 15.2667 22.5235 21.3185 15.9554 17.0256 21.1481 14.1384 20.5291 19.4567 14.7889 15.753 19.2492 13.1027 18.7241 17.7543 13.6672 14.5056 17.4093 12.0553 16.9367 16.0851 12.5674 13.3115 15.7318 11.0855 15.3099 14.5506 11.5332 12.2109 14.1382 10.0996 13.7645 13.0668 10.5157 11.1306 12.6016 9.2076 12.2917 11.6562 9.54379 10.0877 11.175 8.2897 10.8665 10.3014 8.61834 9.10459 9.84067 7.44731 9.59565 9.08981 7.70248 8.09791 8.53067 6.6423 8.31133 7.89441 6.86065 7.19868 7.35842 5.79288 7.18292 6.82844 5.98719 6.37157 6.24535 5.00351 6.14327 5.74479 5.15359 5.47487 5.24832 4.25856 5.10483 4.76961 4.41053 4.69525 4.22583 3.44202 4.1363 3.84099 3.56054 3.82488 3.26566 2.70562 3.22284 2.9474 2.75524 3.02112 2.39158 1.91144 2.3678 2.09368 1.94827 2.23456 1.57856 1.22938 1.57123 1.28529 1.19837 1.56769 0.958682 0.759728 1.01834 0.702522 0.794405 1.08964 48.4409 36.252 45.9192 45.9192 36.3476 37.3007 70.6716 44.4211 56.2791 55.1264 53.7402 54.7925 67.162 51.1399 69.0117 68.1589 50.811 52.7117 64.6393 48.1221 65.6191 64.1157 48.0961 50.1349 61.4005 44.6301 61.6615 59.9679 45.0223 47.081 57.6231 41.0288 57.466 55.6831 41.7497 43.7735 53.5191 37.4714 53.1222 51.3079 38.351 40.3272 49.4284 34.631 48.7966 46.973 35.5664 37.4504 45.6159 32.0715 44.9993 43.2381 33.0083 34.7684 42.1353 29.6245 41.4582 39.7903 30.5399 32.1937 38.7403 27.2975 38.0805 36.4978 28.1486 29.6665 35.4685 25.088 34.8331 33.3708 25.8856 27.2743 32.4224 22.9162 31.8301 30.4838 23.6662 24.9135 29.4485 20.9359 28.8566 27.6404 21.6092 22.7324 26.6335 19.0348 26.1127 25.0157 19.6467 20.6469 23.9949 17.1523 23.4895 22.508 17.7579 18.6666 21.4389 15.4508 21.0413 20.1435 15.9489 16.7566 19.0899 13.8257 18.6892 17.8856 14.2741 14.985 16.8524 12.336 16.5519 15.8432 12.7226 13.3138 14.82 10.929 14.4855 13.8919 11.263 11.7874 12.8365 9.59306 12.6183 12.0895 9.86812 10.3247 11.101 8.32337 10.8666 10.4016 8.59028 9.00971 9.4149 7.23009 9.27103 8.8412 7.45 7.82544 8.0029 6.14077 7.84737 7.45887 6.31841 6.64658 6.55649 5.21444 6.44484 6.10259 5.3277 5.5909 5.3217 4.31978 5.27835 5.00286 4.38358 4.61683 4.24259 3.45655 4.16803 3.92195 3.56221 3.77533 3.20243 2.69154 3.18611 2.96246 2.72941 2.89607 2.26879 1.9309 2.25383 2.07352 1.93133 2.13236 1.45324 1.2314 1.50521 1.29096 1.18912 1.42898 0.79784 0.622763 0.884186 0.638248 0.585365 0.799241 0.50825 0.841947 0.544425 0.505785 0.908371 0.951595 64.9334 50.4169 60.8016 60.8016 51.4687 54.2252 91.9444 60.2558 70.8668 68.3124 74.3835 75.4242 86.4627 70.7292 91.2936 90.0933 69.0627 71.0677 83.1076 66.2253 85.2201 83.3685 65.3349 67.4211 78.5262 61.4527 79.4828 77.5486 61.2084 63.245 73.2593 56.6396 73.5702 71.6524 56.7654 58.7012 67.5162 51.8627 67.4696 65.6282 52.2189 54.0856 61.9003 47.241 61.6509 59.8602 47.8375 49.5946 56.4348 43.2723 56.0321 54.3291 43.8556 45.5125 51.4554 39.6398 51.0189 49.408 40.2768 41.7473 46.8948 36.1871 46.4335 45.0017 36.7857 38.1457 42.6249 32.8841 42.1077 40.7806 33.4526 34.7053 38.4923 29.8331 38.0698 36.8495 30.3551 31.4779 34.6927 26.8488 34.2375 33.1434 27.3809 28.3896 31.0876 24.1024 30.6472 29.6647 24.5541 25.425 27.5419 21.5029 27.2375 26.3956 21.912 22.6724 24.4206 19.0371 24.1178 23.3796 19.3491 20.0249 21.3648 16.6644 21.1009 20.4467 17.0079 17.5885 18.5274 14.5674 18.3648 17.8022 14.7929 15.2887 15.8836 12.5309 15.7599 15.2763 12.7742 13.2032 13.5147 10.7286 13.3496 12.9243 10.8302 11.2013 11.3079 9.05368 11.1856 10.8211 9.18686 9.4532 9.29117 7.48692 9.24675 8.98469 7.54284 7.77595 7.501 6.16995 7.43032 7.20139 6.2378 6.37689 5.80572 4.87179 5.88166 5.74508 4.85639 4.96995 4.31078 3.79196 4.40331 4.28623 3.74164 3.83058 3.19911 2.8686 3.14544 3.05291 2.8424 2.88938 2.08876 2.03832 2.22985 2.17641 1.96326 1.97783 1.20383 1.33284 1.4071 1.39127 1.14984 1.14793 0.612105 0.870501 0.825248 0.828629 0.623223 0.63858 0.741006 0.875242 0.811746 0.815532 0.781786 0.785181 1.17947 1.30448 1.21751 1.21792 1.30947 1.31555 26.5203 69.5444 24.0369 24.0369 70.275 68.9584 60.7559 65.7359 61.6595 62.6973 66.215 64.4794 56.6177 64.1186 57.3492 58.7621 63.8295 61.744 51.6505 61.9864 54.1035 55.8439 60.1517 58.2064 48.1263 58.9697 50.6628 52.3704 56.6833 54.8327 45.0515 55.6449 47.4955 49.1673 53.263 51.522 42.3236 52.2788 44.531 46.1385 49.8994 48.2327 39.5727 48.778 41.637 43.189 46.6102 45.037 36.9566 45.4588 38.8244 40.312 43.3159 41.8288 34.4021 42.0746 36.0615 37.4777 40.1499 38.777 31.8995 38.762 33.4031 34.7167 37.0013 35.7189 29.4607 35.5929 30.8138 32.0537 33.896 32.7281 27.1104 32.4895 28.2581 29.3878 30.9817 29.9427 24.8613 29.4738 25.8657 26.8684 28.1237 27.1525 22.5639 26.64 23.4898 24.4208 25.4247 24.5725 20.4833 23.8849 21.2686 22.0861 22.778 21.9895 18.4073 21.2258 19.0808 19.8392 20.2999 19.6152 16.4953 18.8542 17.0746 17.733 17.9766 17.3817 14.6525 16.497 15.1356 15.7062 15.7331 15.1998 12.9652 14.3564 13.2927 13.8043 13.7364 13.2791 11.3328 12.3286 11.6359 12.0687 11.8182 11.4411 9.83922 10.4989 10.0866 10.4374 10.1327 9.7986 8.48563 8.86642 8.64552 8.96133 8.55631 8.28633 7.20208 7.37578 7.34905 7.60124 7.10364 6.88813 6.00955 6.00641 6.10656 6.30856 5.77607 5.60598 5.00332 4.81037 4.9746 5.13216 4.65986 4.53003 4.00209 3.70753 3.98954 4.11077 3.72571 3.61344 3.10835 2.83838 3.12124 3.22644 2.84961 2.75431 2.3058 2.12138 2.27049 2.35824 2.06446 2.00916 1.60104 1.43932 1.58799 1.64067 1.46403 1.48496 0.910783 0.898492 1.01323 0.989307 0.793569 0.795135 0.39669 0.416934 0.414484 0.40997 0.433858 0.361081 18.4079 22.1095 18.8005 18.8005 24.2371 23.3559 30.0168 56.8349 31.1181 31.9426 56.1274 54.6809 47.9846 53.1749 48.1021 49.2616 52.6519 50.4093 41.0896 50.6058 44.1827 45.8825 48.1158 45.9205 37.6338 47.2959 40.4468 42.2047 44.675 42.6109 35.1936 44.1856 37.5219 39.2382 41.635 39.6735 33.0745 41.3061 35.0967 36.7406 38.9728 37.1462 31.1842 38.5354 32.8778 34.4287 36.3405 34.6549 29.3932 35.839 30.8437 32.2675 33.8356 32.3004 27.6258 33.2575 28.8767 30.157 31.4697 30.0692 25.9314 30.7742 27.0018 28.1556 29.1485 27.8759 24.214 28.3958 25.1308 26.1718 26.9247 25.7941 22.5908 26.0578 23.3404 24.2463 24.8057 23.8034 20.9695 23.8764 21.6645 22.4567 22.7793 21.8751 19.4059 21.7373 19.975 20.6922 20.7269 19.9166 17.867 19.7261 18.2782 18.9168 18.8641 18.2088 16.4294 17.7982 16.8026 17.2977 17.0657 16.4899 15.0053 15.9868 15.2843 15.7145 15.3602 14.9031 13.6532 14.2556 13.8718 14.1937 13.7363 13.3724 12.3472 12.6448 12.5183 12.7589 12.2896 11.9752 11.1263 11.2125 11.2033 11.4209 10.893 10.6496 9.94923 9.83306 10.0221 10.1843 9.57854 9.37597 8.82812 8.56355 8.84313 8.97729 8.40311 8.27378 7.77494 7.38344 7.72642 7.80072 7.24222 7.21573 6.72251 6.25616 6.74001 6.72371 6.16474 6.14377 5.77403 5.22149 5.71322 5.70026 5.25862 5.27198 4.85976 4.36029 4.80693 4.77212 4.38207 4.39634 3.97512 3.56226 3.9606 3.93355 3.55399 3.583 3.0897 2.72524 3.06087 3.02527 2.76546 2.80988 2.29541 2.02714 2.2714 2.22419 2.04445 2.09783 1.55311 1.3982 1.56452 1.51209 1.30817 1.38297 0.832117 0.785205 0.891045 0.825127 0.772763 0.830353 15.4269 16.0906 17.5507 17.5507 15.7088 15.0654 24.314 25.0097 25.9819 26.3944 24.4237 22.7442 34.3756 42.4123 31.794 32.9896 42.6288 40.7457 32.6983 39.4484 37.5347 38.3454 36.2445 34.164 30.101 35.8528 32.7456 34.0869 32.895 30.9611 28.4062 33.0506 30.1225 31.3907 30.5491 28.788 27.0066 30.7602 28.2513 29.3866 28.55 26.9943 25.8294 28.6952 26.771 27.7177 26.8203 25.4295 24.6362 26.8589 25.4135 26.2206 25.2276 24.001 23.5106 25.1066 24.0673 24.7541 23.6861 22.5885 22.3367 23.452 22.784 23.3766 22.2272 21.2834 21.2306 21.8501 21.5623 22.0354 20.785 19.9777 20.039 20.3221 20.3261 20.7019 19.4467 18.7629 18.941 18.9158 19.1207 19.4177 18.1065 17.5424 17.7975 17.5042 17.9008 18.1122 16.8322 16.3948 16.6463 16.1135 16.7774 16.9015 15.6186 15.2537 15.525 14.9094 15.5845 15.6877 14.4659 14.1403 14.4233 13.6499 14.4379 14.5419 13.315 13.0704 13.3127 12.4938 13.2815 13.3366 12.2273 12.0206 12.2773 11.3495 12.2303 12.2808 11.141 11.0351 11.1987 10.2752 11.1492 11.1242 10.1722 10.0934 10.1925 9.25527 10.1089 10.0853 9.15854 9.15659 9.21213 8.26913 9.11583 9.03659 8.23803 8.24278 8.19139 7.29931 8.10999 8.03776 7.33593 7.38434 7.25119 6.42781 7.15476 7.05941 6.40098 6.49892 6.30999 5.53412 6.24208 6.10936 5.58941 5.7127 5.38311 4.70117 5.32125 5.17928 4.75198 4.8861 4.50755 3.95456 4.46837 4.31895 3.96564 4.08491 3.59775 3.12347 3.56705 3.43964 3.15007 3.25061 2.74777 2.37147 2.68662 2.58289 2.39355 2.5195 1.88351 1.65927 1.91865 1.79857 1.64939 1.73843 1.07885 1.03076 1.17534 1.09203 0.990276 1.06806 18.0317 14.9073 19.8331 19.8331 12.7273 12.7746 26.1336 19.5685 27.2766 26.9446 18.2801 18.0237 32.0459 23.6065 31.4981 31.2666 26.577 24.1583 31.4246 31.0233 32.5173 34.4185 25.906 24.4816 28.9505 26.1449 30.1548 30.6108 23.3175 22.3005 27.4315 23.5922 27.9373 28.0638 21.7024 20.9831 26.2426 21.9216 26.3972 26.3014 20.5164 19.9713 25.2152 20.6734 25.1697 24.9671 19.5822 19.1807 24.1419 19.6023 24.0553 23.7668 18.6877 18.3914 23.1209 18.5579 22.9254 22.5922 17.8731 17.6818 22.0332 17.682 21.8368 21.4688 17.1306 16.9798 20.9755 16.8234 20.7355 20.3857 16.3928 16.327 19.8683 15.9723 19.7027 19.3286 15.6049 15.5777 18.8804 15.142 18.6165 18.2614 14.8908 14.9006 17.7752 14.306 17.5504 17.2069 14.1418 14.2029 16.7282 13.5602 16.5098 16.1684 13.3798 13.4692 15.6657 12.6892 15.4455 15.111 12.5865 12.7359 14.5877 11.9075 14.4042 14.0472 11.8595 12.0024 13.5432 11.0579 13.33 13.0133 11.0586 11.2055 12.4717 10.3104 12.3054 12.017 10.3359 10.4714 11.4555 9.49309 11.2823 11.035 9.52539 9.67202 10.4364 8.69357 10.2647 10.0218 8.76017 8.96076 9.43322 7.90436 9.28912 9.01769 7.98857 8.18598 8.44617 7.1441 8.34316 8.09295 7.21663 7.3603 7.47905 6.33814 7.33876 7.15413 6.42589 6.59976 6.49673 5.58822 6.39917 6.19429 5.65161 5.80852 5.58343 4.77325 5.5364 5.35601 4.83188 5.004 4.66013 4.00265 4.55997 4.37285 4.03884 4.22951 3.73621 3.19658 3.75343 3.55415 3.22553 3.41898 2.86413 2.37691 2.82535 2.62953 2.43518 2.60465 1.92721 1.6451 1.99885 1.82887 1.61318 1.74602 1.10653 0.985058 1.16391 1.04192 0.948622 1.12188 24.9724 18.3974 25.3311 25.3311 16.4841 16.9617 33.4813 22.422 33.203 32.5572 21.7845 22.7439 39.3488 24.2323 37.7484 36.7418 24.8344 24.8402 38.168 24.0846 37.7787 37.7653 23.4233 23.9573 36.1962 22.0563 35.8338 35.2786 21.202 22.0718 33.2239 19.9957 32.7491 31.641 19.7778 20.7782 31.2968 18.6722 30.6795 29.4805 18.7646 19.8344 29.6422 17.7674 28.9695 27.7258 18.0115 19.0583 28.0043 16.9924 27.3839 26.1667 17.2626 18.2902 26.5174 16.3286 25.8717 24.6854 16.6679 17.6009 24.9742 15.6178 24.3806 23.2902 15.9392 16.8447 23.4944 14.9444 22.9296 21.8643 15.2804 16.0857 21.9951 14.3022 21.4848 20.5258 14.5591 15.2962 20.5633 13.6573 20.1031 19.2215 13.9812 14.6547 19.1842 13.0018 18.7469 17.936 13.277 13.8792 17.8146 12.3117 17.4182 16.6907 12.5696 13.1161 16.5011 11.6456 16.1368 15.4772 11.8944 12.3893 15.214 10.9782 14.8909 14.2956 11.1836 11.6094 13.9881 10.2843 13.6858 13.1688 10.5135 10.9218 12.7812 9.59422 12.5703 12.0844 9.77256 10.171 11.6674 8.89293 11.4067 10.9414 9.07076 9.43397 10.4812 8.18481 10.321 9.89787 8.35418 8.64588 9.39458 7.47565 9.25076 8.911 7.62027 7.8801 8.36322 6.76288 8.22087 7.92367 6.8675 7.13732 7.35406 6.01605 7.22738 6.92811 6.15207 6.40865 6.34147 5.29413 6.27507 5.9957 5.38968 5.56822 5.40118 4.57508 5.30977 5.11389 4.62127 4.80132 4.42394 3.75506 4.36968 4.17715 3.84921 4.01314 3.53763 3.03994 3.53512 3.3614 3.02473 3.20338 2.63733 2.20723 2.63696 2.45498 2.24314 2.45616 1.81671 1.45518 1.86628 1.654 1.40643 1.68124 1.08475 0.850644 1.14047 0.906808 0.873937 1.07911 34.9636 25.4583 33.8111 33.8111 24.6843 25.3393 44.1761 30.8188 42.4141 41.5632 31.55 32.8703 52.3944 33.2895 48.3351 47.0061 35.276 36.572 50.2444 32.0868 49.4875 48.4627 33.0247 34.6984 47.3494 29.4517 46.7373 45.3816 30.315 32.1731 44.1042 26.2679 43.4403 41.8624 27.2628 29.2396 40.4871 24.2914 39.7043 37.9173 25.3275 27.2614 37.6392 22.7296 36.8434 35.0733 23.739 25.5607 35.0643 21.306 34.2864 32.6022 22.2393 23.9737 32.6105 19.9676 31.8795 30.2536 20.8754 22.4972 30.2591 18.7247 29.5815 28.039 19.5191 20.9842 27.9761 17.5062 27.3427 25.9367 18.2532 19.591 25.7767 16.3761 25.184 23.8897 17.0526 18.2539 23.7684 15.2519 23.2389 22.0641 15.8371 16.8986 21.7382 14.1864 21.2443 20.1939 14.7392 15.6484 19.8226 13.1855 19.372 18.4659 13.666 14.4714 18.0479 12.1923 17.6484 16.8377 12.6366 13.3526 16.3247 11.2379 15.9881 15.2593 11.6187 12.2538 14.7482 10.3248 14.4409 13.789 10.6689 11.2445 13.2158 9.51747 12.9751 12.3799 9.75603 10.208 11.7683 8.61165 11.5297 11.0545 8.88875 9.28413 10.3776 7.80416 10.236 9.81853 7.97892 8.33549 9.13486 6.97081 9.0029 8.62461 7.12797 7.46442 7.94236 6.1978 7.84001 7.48362 6.34127 6.66958 6.85114 5.43111 6.75699 6.40972 5.54913 5.80104 5.74916 4.6504 5.67647 5.40718 4.72334 4.99205 4.77358 3.93385 4.74166 4.46017 4.014 4.25291 3.83283 3.18789 3.78309 3.53127 3.2372 3.42564 2.94752 2.50326 2.95097 2.75574 2.5008 2.70169 2.0893 1.71814 2.13359 1.92108 1.71024 1.9104 1.28882 1.06394 1.35426 1.15241 1.02875 1.25579 0.762399 0.695741 0.776121 0.607903 0.798638 0.854725 47.7834 35.6562 45.4062 45.4063 35.9474 36.7811 57.0591 42.5012 54.1263 53.0906 44.4577 46.0286 69.5096 46.6097 62.3235 60.6875 51.1707 52.6704 65.6607 46.7851 65.2576 63.9236 47.8736 49.8531 61.4982 43.3456 61.2508 59.5087 44.2148 46.3038 57.1213 39.5099 56.6934 54.8217 40.4237 42.5767 52.5874 35.6239 52.0304 50.063 36.6757 38.809 48.0533 32.7096 47.4206 45.4298 33.7437 35.7532 44.1697 30.2002 43.4901 41.5949 31.1608 33.0314 40.569 27.8311 39.9294 38.1518 28.7106 30.418 37.1681 25.6066 36.5323 34.9035 26.4232 27.9781 33.9283 23.4624 33.4069 31.9191 24.2255 25.6433 30.9432 21.3732 30.4133 29.0453 22.0734 23.3648 28.0328 19.536 27.5259 26.2734 20.1424 21.3151 25.3233 17.6649 24.8835 23.7437 18.2493 19.321 22.7568 15.9499 22.3545 21.3059 16.4611 17.373 20.3283 14.3594 19.9704 19.0768 14.8056 15.6097 18.028 12.8459 17.7572 16.9662 13.2134 13.9329 15.9369 11.4615 15.7021 14.9897 11.7917 12.395 13.9377 10.1076 13.7358 13.1332 10.3725 10.9374 12.1162 8.91223 11.9504 11.382 9.14579 9.58815 10.4043 7.79182 10.2524 9.8046 7.93308 8.29313 8.82497 6.76701 8.73712 8.37274 6.89011 7.1856 7.43108 5.8149 7.36189 7.06057 5.89835 6.08563 6.06979 4.9045 6.04744 5.85381 4.98834 5.15882 4.96974 4.053 4.91713 4.73915 4.1109 4.26425 3.88689 3.26745 3.89691 3.73393 3.27079 3.40141 2.90993 2.4456 2.94375 2.80258 2.47048 2.62304 2.02147 1.77394 2.08288 1.91828 1.74285 1.86348 1.24389 1.1553 1.32612 1.19919 1.06419 1.17306 0.62221 0.59916 0.72485 0.622279 0.550405 0.60765 0.575299 0.773744 0.523076 0.552899 0.899468 0.908565 63.2095 49.027 59.6184 59.6184 50.1541 51.3906 70.874 56.911 67.7633 66.3425 59.6915 62.2452 91.7207 63.3845 79.799 77.2583 71.0019 72.4395 84.8277 65.2744 85.8918 84.4731 65.8099 67.7462 78.8662 60.4039 79.3231 77.4847 60.7456 62.8129 72.787 55.273 72.7633 70.7866 55.7813 57.7939 66.5493 50.1868 66.4389 64.5047 50.8449 52.7873 60.6554 45.4183 60.1971 58.306 46.1618 48.03 54.9612 41.4063 54.4442 52.6158 42.1621 43.9005 49.8983 37.8319 49.4084 47.7024 38.5418 40.1203 45.3995 34.4056 44.8275 43.2759 35.1181 36.5739 41.08 31.2948 40.6818 39.252 31.8657 33.1615 37.0728 28.3079 36.6107 35.3375 28.867 30.0329 33.3077 25.3993 32.9134 31.771 25.9281 26.9855 29.7651 22.7792 29.3963 28.359 23.2374 24.1711 26.4375 20.2395 26.1166 25.2016 20.669 21.5117 23.3831 17.9174 23.0895 22.2624 18.2799 19.0034 20.4441 15.7587 20.2396 19.5312 16.005 16.6309 17.7334 13.6972 17.5316 16.9208 13.9181 14.4549 15.1997 11.8344 15.0106 14.49 11.9973 12.4138 12.8115 10.0503 12.7723 12.3778 10.2161 10.5751 10.7215 8.49221 10.6711 10.3238 8.61405 8.90991 8.86462 7.03383 8.83606 8.54592 7.08609 7.32232 7.05197 5.72356 7.06822 6.83647 5.77227 5.97151 5.58985 4.574 5.55966 5.36066 4.53978 4.67795 4.13774 3.56728 4.21879 4.08357 3.54195 3.60111 2.92112 2.72077 3.00616 2.94656 2.64886 2.69257 2.00598 1.93401 2.1411 2.09519 1.80593 1.83346 1.20004 1.26056 1.3215 1.29128 1.09585 1.113 0.627213 0.79134 0.830907 0.803218 0.647311 0.646239 0.709396 0.77718 0.780598 0.770039 0.751609 0.751073 1.1952 1.1776 1.06918 1.08017 1.26334 1.28706 26.5805 71.4874 24.8214 24.8214 71.443 70.3553 62.9371 67.5212 64.348 65.2521 67.5972 66.1186 58.4238 66.1041 59.5955 60.8528 65.4332 63.7237 54.9998 64.1751 56.395 57.8991 62.8863 61.0254 51.3261 61.5726 53.3789 55.0361 59.6088 57.8045 48.0489 58.372 50.2867 51.924 56.1393 54.399 45.0323 54.8409 47.1671 48.7642 52.6686 51.0361 42.1385 51.3409 44.1507 45.6693 49.1259 47.5787 39.2914 47.8174 41.1985 42.6379 45.7348 44.2871 36.5264 44.2448 38.288 39.6403 42.3249 40.9637 33.8275 40.8184 35.4163 36.6981 38.962 37.7107 31.2418 37.4582 32.6277 33.8046 35.7607 34.618 28.6515 34.1885 29.959 31.0295 32.6383 31.5963 26.2021 31.048 27.3799 28.3583 29.5833 28.6513 23.8085 27.9205 24.8169 25.6877 26.7237 25.8783 21.5369 25.0883 22.4331 23.2305 23.9313 23.1921 19.3649 22.3694 20.1673 20.8604 21.271 20.6095 17.3182 19.7268 17.9556 18.5731 18.9143 18.3163 15.3381 17.3455 16.0061 16.5678 16.5407 16.0131 13.4918 15.088 14.0246 14.5224 14.3827 13.9337 11.819 13.0359 12.2328 12.658 12.3451 11.9704 10.2253 11.0037 10.5301 10.8789 10.4795 10.191 8.78025 9.28375 9.03877 9.30142 8.86474 8.60099 7.45365 7.67409 7.62707 7.86606 7.35209 7.15281 6.19522 6.23253 6.37902 6.55421 5.96644 5.83476 5.05072 4.94216 5.20444 5.3177 4.8036 4.68531 4.07017 3.88689 4.12844 4.23516 3.71386 3.62847 3.18342 2.95009 3.212 3.28953 2.81504 2.76124 2.33464 2.1277 2.38715 2.43392 2.0886 2.08503 1.62341 1.45643 1.6925 1.69604 1.42222 1.41257 1.00145 0.889436 0.987303 0.998635 0.834226 0.917909 0.428638 0.444769 0.556853 0.485433 0.324349 0.432487 19.9318 22.5481 20.0606 20.0606 24.024 22.9281 32.0897 59.5126 32.6881 33.6215 58.3261 56.9519 48.8676 55.4816 50.3774 51.4478 54.4587 52.6622 44.9259 52.7645 46.4055 47.8573 51.4451 49.4093 41.1138 50.0962 43.304 44.9783 47.9857 45.964 38.1662 47.1033 40.2703 41.9788 44.771 42.847 35.7057 44.0318 37.6788 39.312 41.7909 39.9987 33.4761 41.0967 35.2756 36.7967 38.9711 37.2931 31.3971 38.27 32.9946 34.4282 36.251 34.675 29.3713 35.4964 30.7901 32.1323 33.6182 32.1835 27.4466 32.7829 28.7157 29.9279 31.0875 29.7888 25.5224 30.1672 26.6668 27.753 28.6796 27.4838 23.6831 27.7044 24.7141 25.7119 26.2975 25.2406 21.9462 25.3312 22.8281 23.7094 24.0606 23.1239 20.241 22.9807 20.9929 21.7642 21.8945 21.0591 18.5277 20.8522 19.1926 19.8763 19.8865 19.1296 16.963 18.7711 17.5365 18.1628 17.9053 17.2745 15.4354 16.7841 15.8798 16.3916 16.0967 15.5384 13.9624 15.0617 14.3463 14.801 14.3508 13.8666 12.5636 13.246 12.8503 13.2378 12.6766 12.3112 11.2604 11.6324 11.4923 11.7678 11.193 10.9365 10.0568 10.1294 10.2321 10.4106 9.80976 9.60574 8.88237 8.80216 9.05117 9.18539 8.53522 8.38612 7.72753 7.55642 7.8299 7.92584 7.37945 7.24345 6.68247 6.42344 6.77013 6.86372 6.24039 6.16325 5.67317 5.36748 5.72899 5.77835 5.21911 5.15653 4.75225 4.34927 4.72952 4.7729 4.29747 4.31349 3.92137 3.51051 3.91128 3.88014 3.48866 3.53026 3.01744 2.76783 3.0954 3.04685 2.72102 2.70606 2.22148 2.06909 2.26927 2.2779 2.00895 2.02141 1.51391 1.37672 1.5292 1.51676 1.39196 1.40354 0.828824 0.842045 0.911098 0.900187 0.747467 0.802031 17.7511 17.1168 18.8996 18.8996 17.1697 16.3396 26.3378 26.8711 27.2767 27.7325 26.6185 24.967 32.5109 44.8904 33.2348 34.2621 43.5387 41.8222 37.5794 41.4587 38.3355 39.5206 40.0716 38.0805 33.2839 38.818 35.2375 36.5332 36.512 34.5158 30.6755 35.9365 32.4554 33.7942 33.6877 31.8011 28.784 33.4849 30.2928 31.5686 31.3605 29.6182 27.218 31.2009 28.4591 29.6358 29.2428 27.6664 25.7993 29.0844 26.8105 27.852 27.3332 25.9278 24.3862 27.0833 25.3373 26.2327 25.5191 24.259 23.0638 25.2502 23.8534 24.6473 23.8532 22.6961 21.756 23.4458 22.4364 23.1679 22.1748 21.1507 20.4625 21.7324 21.0204 21.6597 20.5915 19.7088 19.2054 20.1034 19.7027 20.2255 19.1161 18.3635 17.9341 18.5238 18.3738 18.8085 17.6855 17.0262 16.7563 16.9749 17.081 17.4638 16.2312 15.7001 15.5654 15.6021 15.8081 16.0871 14.9626 14.5585 14.4433 14.1906 14.6697 14.8511 13.6904 13.3511 13.2549 12.9119 13.4487 13.5972 12.4848 12.245 12.221 11.6695 12.3589 12.438 11.3493 11.1476 11.0805 10.5269 11.1883 11.2592 10.269 10.1152 10.0573 9.43522 10.1028 10.1515 9.23889 9.13014 9.01727 8.42534 9.0822 9.11269 8.24428 8.17946 8.02621 7.36618 8.05503 8.05574 7.25076 7.22781 7.05317 6.45485 7.05533 7.03042 6.36352 6.37605 6.11197 5.52814 6.10884 6.057 5.46852 5.50523 5.18138 4.63699 5.18109 5.11501 4.65508 4.68388 4.31835 3.88364 4.3039 4.26048 3.89287 3.94206 3.43939 3.1002 3.46614 3.40933 3.02509 3.11539 2.58168 2.33393 2.67779 2.58405 2.29076 2.36623 1.80083 1.57242 1.82876 1.74896 1.55968 1.66961 1.11378 0.968964 1.16018 1.04992 0.905843 1.07946 19.953 16.048 20.8405 20.8405 15.1417 14.8336 27.0756 20.9229 27.5162 27.4525 20.2939 19.5025 31.383 25.2543 31.4447 31.5745 24.6456 23.3199 34.0561 31.5681 33.0488 33.5923 30.9163 29.6511 30.6104 28.8801 32.2496 32.3388 26.756 25.3527 28.2665 26.2669 29.1479 29.5311 24.3069 23.034 26.5842 24.2614 27.1723 27.5205 22.5863 21.4888 25.2844 22.6648 25.6775 25.9283 21.266 20.3134 24.0766 21.264 24.3275 24.5113 20.113 19.3011 22.8903 20.0912 23.0975 23.2166 19.0106 18.2962 21.7305 18.92 21.8939 21.9886 18.0173 17.4585 20.6205 17.8686 20.766 20.7715 17.0894 16.6208 19.5379 16.8243 19.6173 19.5998 16.1836 15.7957 18.4392 15.8527 18.5079 18.471 15.2813 14.986 17.356 14.898 17.4146 17.3407 14.4001 14.1704 16.2972 13.9884 16.311 16.2228 13.6141 13.4434 15.2207 13.0592 15.2799 15.1802 12.7802 12.5927 14.1455 12.1943 14.1424 14.105 11.931 11.8327 13.0917 11.2817 13.11 13.0257 11.0647 10.9938 12.0855 10.4548 12.0833 12.0035 10.2962 10.2663 11.0929 9.54568 11.0549 10.9609 9.42066 9.45539 10.0666 8.71275 10.0816 9.95094 8.65858 8.66699 9.05698 7.92411 9.05096 8.96487 7.85111 7.88936 8.12593 7.09301 8.09074 7.99349 7.05588 7.13398 7.17896 6.27416 7.13979 7.02 6.26822 6.33201 6.2139 5.46358 6.22111 6.12376 5.46216 5.58648 5.3717 4.66534 5.3489 5.2049 4.66661 4.77199 4.38052 3.90763 4.42761 4.30334 3.92145 4.00079 3.55701 3.12379 3.51867 3.42892 3.09632 3.19476 2.62636 2.37284 2.69608 2.59444 2.28167 2.37288 1.8331 1.55946 1.86233 1.7693 1.53779 1.65942 1.06118 0.946172 1.10882 0.992779 0.922354 1.03968 25.9325 18.9256 25.6865 25.6865 18.1152 18.458 33.2407 22.3782 32.6651 32.0583 22.2721 22.8835 37.5357 23.9751 36.5921 35.7199 24.2347 24.8953 38.6932 24.2876 37.6696 36.7192 25.275 24.8189 36.3822 23.9417 35.7977 35.7545 22.4483 22.7363 32.721 20.9905 32.4531 31.5585 20.2647 20.8035 30.5333 19.3223 30.188 29.1607 18.8829 19.4799 28.7005 18.1362 28.3461 27.3301 17.8787 18.5134 27.056 17.2075 26.6615 25.6656 17.0739 17.6648 25.4762 16.3974 25.118 24.1981 16.302 16.9166 23.9743 15.6471 23.6757 22.7692 15.576 16.1105 22.4727 14.9554 22.1736 21.3704 14.894 15.3722 21.0539 14.2509 20.7983 20.0755 14.2388 14.6669 19.6709 13.5644 19.4339 18.7859 13.553 13.9593 18.3203 12.8566 18.1421 17.5383 12.847 13.2445 17.0234 12.1942 16.8375 16.2677 12.2157 12.5197 15.7533 11.5226 15.6104 15.1519 11.4979 11.805 14.5167 10.8048 14.3969 13.9552 10.8314 11.1072 13.3476 10.1492 13.2358 12.8473 10.1516 10.3817 12.2307 9.46126 12.1159 11.7868 9.47719 9.67298 11.0587 8.78017 11.0133 10.7367 8.82737 8.95569 9.98691 8.06956 9.93466 9.74076 8.06514 8.22863 8.97874 7.36508 8.92722 8.71356 7.37749 7.50452 7.97203 6.63792 7.9369 7.76728 6.67634 6.78369 6.96016 5.88432 6.93478 6.79432 5.92572 6.03086 6.02259 5.15635 5.98073 5.85239 5.1522 5.30676 5.13079 4.42574 5.13592 4.96101 4.44928 4.58243 4.18524 3.6331 4.22662 4.08047 3.59017 3.75687 3.36415 2.858 3.3581 3.17959 2.89526 3.04056 2.44753 2.1086 2.47545 2.32288 2.04499 2.19791 1.65623 1.41396 1.75405 1.60124 1.39445 1.46794 0.887387 0.797067 0.897165 0.835528 0.793897 0.865561 35.0168 25.2768 33.5557 33.5557 25.2085 25.8084 42.8411 29.7193 41.1732 40.3337 30.5517 31.835 48.2878 31.6059 46.3622 44.9729 32.9414 34.5682 49.8323 31.1722 47.731 46.0864 32.3189 33.6667 46.8642 28.4614 45.698 44.4148 29.55 31.1255 43.3116 25.1306 42.4406 40.9792 25.973 27.8296 39.2279 23.0176 38.4724 36.7021 23.8647 25.7103 36.2491 21.463 35.5606 33.8165 22.2423 23.9917 33.6532 20.0565 33.0178 31.3604 20.8109 22.424 31.1822 18.7967 30.6074 29.0715 19.4737 20.9456 28.8415 17.6343 28.3235 26.9144 18.2152 19.5565 26.635 16.4308 26.1629 24.8697 16.9918 18.2095 24.4952 15.4142 24.0896 22.9006 15.8836 16.9818 22.5701 14.3928 22.1962 21.1124 14.8111 15.7454 20.6188 13.4695 20.2936 19.363 13.7962 14.5939 18.8197 12.4472 18.566 17.7625 12.778 13.5142 17.1461 11.557 16.9201 16.1681 11.8029 12.4761 15.4971 10.6847 15.3139 14.6187 10.888 11.4513 13.9746 9.83406 13.8116 13.225 10.0125 10.4835 12.5331 9.07953 12.3913 11.8969 9.24685 9.64284 11.1726 8.27486 11.1016 10.6807 8.36493 8.70742 9.89335 7.45943 9.85787 9.48883 7.54333 7.85929 8.68591 6.69908 8.61689 8.2783 6.76762 7.01309 7.52134 5.97281 7.48094 7.21316 6.02155 6.21989 6.42464 5.2409 6.42158 6.20345 5.27484 5.43255 5.41277 4.51179 5.42509 5.2518 4.55333 4.64373 4.45646 3.84447 4.44143 4.34006 3.84182 3.92144 3.52492 3.09202 3.58867 3.4984 3.05235 3.17805 2.73795 2.39216 2.75755 2.62394 2.39391 2.48109 1.90235 1.63053 1.94648 1.85318 1.60332 1.69913 1.14083 0.988752 1.23499 1.13558 0.917397 1.05524 0.620864 0.701831 0.593359 0.511825 0.740352 0.714353 47.1389 34.9134 44.6082 44.6082 35.5733 36.253 54.9117 40.6358 52.4175 51.4794 42.3245 43.9442 62.317 44.0873 59.4974 57.7783 46.2881 48.1935 65.293 44.1546 61.6324 59.705 46.5434 48.3358 60.92 41.3561 59.788 58.1143 42.8707 44.9184 56.173 37.7029 55.3734 53.4868 38.9087 40.9966 51.2882 33.6331 50.6189 48.691 34.7892 36.9442 46.508 30.7877 45.813 43.7917 31.8357 33.877 42.5193 28.3669 41.8837 39.9606 29.3194 31.1942 38.9329 26.1019 38.3503 36.5773 26.964 28.6654 35.5727 23.9801 35.0489 33.4345 24.7441 26.3157 32.4917 21.9532 31.9825 30.4825 22.6423 24.0729 29.519 20.0237 29.0542 27.6866 20.6224 21.8733 26.6663 18.2534 26.3073 25.1157 18.8113 19.9394 24.0827 16.5272 23.7414 22.6586 17.0069 18.0152 21.5723 14.9574 21.3102 20.3379 15.3502 16.219 19.2921 13.498 19.0395 18.1994 13.8226 14.5759 17.1323 12.0859 16.9284 16.202 12.3741 13.0037 15.1133 10.7629 14.929 14.3196 11.0037 11.5785 13.2057 9.4898 13.1144 12.5537 9.70032 10.1665 11.4169 8.41408 11.3571 10.8992 8.54188 8.93071 9.82131 7.41895 9.82007 9.43431 7.48194 7.79469 8.36515 6.36132 8.3195 8.00561 6.46223 6.74467 7.04132 5.46157 7.03391 6.74666 5.51836 5.77921 5.81363 4.63038 5.84129 5.57162 4.63596 4.85074 4.68498 3.80571 4.75258 4.52774 3.78908 3.98705 3.67717 3.05195 3.71139 3.50289 3.06519 3.19593 2.74676 2.4113 2.80582 2.6665 2.32634 2.37946 1.87073 1.67167 1.93533 1.87506 1.63703 1.72013 1.12317 1.04401 1.21445 1.12148 0.993154 1.05562 0.540732 0.529777 0.649738 0.594238 0.443088 0.518096 0.542041 0.681086 0.406512 0.434063 0.820129 0.756182 61.9277 47.8406 58.4702 58.4702 49.174 49.9986 68.7958 54.6324 65.9505 64.8202 56.8461 58.7991 79.176 59.9477 76.0363 73.9866 62.8953 65.1349 85.752 60.9354 79.6055 77.2901 64.947 66.6686 78.641 58.4276 78.1062 76.4192 59.711 61.6385 71.8306 53.4208 71.4883 69.6226 54.3888 56.3741 65.424 48.3436 64.9465 63.012 49.1911 51.1583 59.0607 43.3509 58.6095 56.6882 44.2872 46.2004 53.2144 39.4181 52.7044 50.8166 40.2771 42.0315 48.1851 35.9174 47.6886 45.9498 36.6928 38.3386 43.6694 32.6627 43.2021 41.5631 33.3376 34.8159 39.5574 29.6163 38.9982 37.5255 30.2767 31.6115 35.5755 26.7115 35.1787 33.858 27.3243 28.5512 31.9513 24.0187 31.572 30.3513 24.5005 25.5824 28.4786 21.4973 28.1538 27.0845 21.9508 22.8923 25.2682 19.0962 25.031 24.1019 19.4552 20.3023 22.3063 16.8935 22.053 21.2166 17.2168 17.953 19.5208 14.7879 19.3519 18.6293 15.083 15.7331 16.8994 12.8918 16.7486 16.1075 13.1032 13.6604 14.4334 11.1328 14.385 13.8368 11.28 11.7556 12.3094 9.45028 12.2695 11.7991 9.54026 9.96599 10.21 7.99252 10.2007 9.77752 8.02806 8.35256 8.41848 6.61519 8.41153 8.09292 6.64865 6.876 6.71772 5.40365 6.76061 6.53925 5.39634 5.58435 5.24008 4.28333 5.32032 5.13358 4.24388 4.43288 3.96242 3.39795 4.04251 3.85044 3.3007 3.42798 2.80723 2.46007 3.00752 2.87756 2.4191 2.5497 1.9368 1.75214 2.05579 1.9163 1.65793 1.75416 1.13682 1.14615 1.27834 1.18231 1.01432 1.08586 0.655689 0.750392 0.801478 0.75269 0.594283 0.634874 0.687379 0.779025 0.704126 0.726636 0.708656 0.681402 1.05677 1.10844 1.01434 1.05074 1.23557 1.15685 27.5501 73.6975 26.2094 26.2094 73.2617 72.4318 65.5385 69.6775 66.9752 67.7325 69.3547 67.9824 60.5675 68.2482 61.7616 62.9789 67.4164 65.7885 57.1628 66.4414 58.6273 60.1024 65.078 63.3476 53.9953 63.9311 55.7167 57.3084 62.1783 60.4263 50.7882 60.9421 52.8457 54.461 58.8456 57.1205 47.6185 57.4952 49.7192 51.3214 55.2217 53.5767 44.5588 53.8229 46.612 48.1322 51.6429 50.1017 41.5754 50.1177 43.5167 44.9419 48.0468 46.6249 38.6536 46.4714 40.4363 41.7523 44.4475 43.1186 35.7642 42.8549 37.439 38.6625 40.9713 39.7502 32.9417 39.3162 34.5295 35.6493 37.5769 36.4623 30.2429 35.9346 31.6789 32.7023 34.2819 33.2661 27.6488 32.571 28.8998 29.8293 31.118 30.206 25.0438 29.3263 26.2378 27.0703 27.9916 27.1471 22.6366 26.3727 23.6549 24.4296 25.1159 24.3699 20.3328 23.458 21.2508 21.9247 22.3636 21.7252 18.1225 20.7616 18.9973 19.5722 19.7026 19.1667 16.1594 18.1205 16.7916 17.2705 17.2847 16.8259 14.1558 15.8307 14.7713 15.1722 15.0196 14.6183 12.3525 13.6055 12.8748 13.2187 12.9458 12.6392 10.6386 11.4572 11.1036 11.3647 10.9521 10.682 9.0979 9.70817 9.45722 9.69453 9.23051 9.00464 7.7046 8.02228 7.9974 8.19639 7.6289 7.44291 6.43026 6.50938 6.61654 6.78094 6.16311 6.05412 5.22927 5.15274 5.4337 5.52368 4.92494 4.81023 4.15697 4.11097 4.37578 4.47953 3.84479 3.7707 3.25419 3.09819 3.33544 3.40059 2.94755 2.89121 2.40245 2.20244 2.49405 2.54968 2.14508 2.08106 1.67684 1.56417 1.71056 1.77273 1.48491 1.42571 0.974953 0.990573 1.0588 1.12047 0.956191 0.857738 0.481029 0.528336 0.51471 0.623716 0.647935 0.441307 21.2335 24.1083 20.9957 20.9957 24.9285 23.5947 33.8477 62.0354 33.6956 34.8035 60.88 59.7061 51.0958 57.7333 52.7321 53.6503 56.6742 55.0558 47.1011 55.0901 48.6605 49.9917 53.6634 51.8286 43.9051 52.4704 45.5471 47.103 50.7439 48.8018 40.8297 49.7572 42.8103 44.4759 47.6263 45.7232 38.1934 46.6898 40.1584 41.8092 44.5007 42.6744 35.7426 43.6438 37.5858 39.1754 41.4977 39.8022 33.4493 40.6477 35.1819 36.6505 38.6112 37.0514 31.23 37.6818 32.8574 34.2028 35.81 34.36 29.126 34.8395 30.5467 31.8009 33.0702 31.7498 27.0239 32.0836 28.3687 29.502 30.4098 29.2099 25.039 29.3997 26.22 27.2421 27.8785 26.8148 23.122 26.8236 24.1456 25.0361 25.4983 24.5402 21.2513 24.3732 22.1864 22.9817 23.103 22.2767 19.4126 22.0198 20.2588 20.9297 20.9383 20.2141 17.7742 19.8302 18.4559 19.0395 18.8545 18.217 16.0467 17.762 16.7334 17.2407 16.8368 16.2879 14.4959 15.7499 15.0361 15.4618 15.0721 14.6213 12.9933 13.9118 13.4982 13.8498 13.2581 12.879 11.5727 12.2186 11.9504 12.25 11.6688 11.331 10.2592 10.6228 10.5896 10.8548 10.1349 9.88774 9.05837 9.16397 9.2703 9.45924 8.78661 8.59515 7.82128 7.83933 8.03183 8.17635 7.53939 7.38761 6.78603 6.60374 6.91851 7.02883 6.41444 6.29008 5.72533 5.52552 5.82571 5.91858 5.3241 5.27702 4.74298 4.53536 4.90723 4.92782 4.32034 4.29 3.86102 3.54548 3.91917 3.93197 3.47109 3.4723 3.03621 2.76382 3.08056 3.06737 2.67788 2.74434 2.26019 2.03357 2.32011 2.25084 2.00258 2.0407 1.50657 1.36856 1.59716 1.55558 1.29742 1.36046 0.891254 0.814102 0.916119 0.853065 0.784049 0.827608 19.08 18.3522 19.3582 19.3582 18.6342 17.5127 27.6258 28.3205 27.6336 28.3567 28.6025 26.7565 33.6739 47.3733 34.0019 35.2409 45.8495 44.2785 38.8812 43.844 40.1567 41.2319 42.3019 40.4381 35.6534 41.1016 37.0108 38.3342 39.4362 37.477 32.9278 38.61 34.584 35.9916 36.5117 34.6056 30.76 36.1016 32.3226 33.7066 34.0059 32.2192 28.9136 33.6618 30.3693 31.6602 31.6996 30.0274 27.2202 31.399 28.5398 29.744 29.5492 28.0204 25.6759 29.2589 26.8672 27.9699 27.5212 26.1089 24.1479 27.1365 25.195 26.2105 25.6053 24.3686 22.7227 25.1785 23.6341 24.5108 23.739 22.646 21.2771 23.2825 22.1345 22.8825 22.0124 21.0269 19.8835 21.4699 20.6323 21.3124 20.3702 19.4684 18.5203 19.7661 19.2165 19.846 18.7588 17.9721 17.2212 18.0916 17.7362 18.2914 17.183 16.4942 15.8716 16.5116 16.3983 16.8765 15.7745 15.1842 14.6795 15.0444 15.1006 15.5131 14.3105 13.8372 13.4558 13.5805 13.8082 14.1219 12.999 12.6193 12.3199 12.2669 12.6139 12.8641 11.7309 11.4167 11.166 10.9312 11.3811 11.5747 10.5271 10.3247 10.076 9.79405 10.3265 10.4292 9.4513 9.27182 9.0609 8.64102 9.21754 9.31567 8.41373 8.3018 8.01455 7.56902 8.11699 8.1717 7.34966 7.26664 7.00663 6.59936 7.12041 7.15407 6.46018 6.39019 6.0385 5.63902 6.10982 6.14844 5.53519 5.47571 5.1046 4.77225 5.20918 5.24632 4.60873 4.60455 4.25372 3.87921 4.2738 4.2621 3.82129 3.86179 3.40549 3.08757 3.44991 3.39721 3.04311 3.08476 2.57982 2.31985 2.61118 2.56271 2.26071 2.32586 1.74031 1.59307 1.82821 1.76219 1.51234 1.55846 1.04819 0.916864 1.1046 1.05963 0.900251 0.968308 20.8832 16.7187 20.9309 20.9309 16.6726 16.0497 27.4486 21.7773 27.1565 27.3289 21.9268 20.6336 31.4241 26.46 31.1419 31.6573 26.1463 24.6198 33.3731 33.6012 33.1836 33.8375 32.302 30.8362 32.1438 30.7693 32.5388 33.1078 29.363 27.8399 29.3856 28.608 30.2123 30.7424 26.7894 25.3479 27.4609 26.5122 28.2565 28.7452 24.7826 23.4777 25.9215 24.7599 26.6241 27.0619 23.16 21.9869 24.5274 23.1988 25.1869 25.5784 21.7594 20.672 23.2441 21.8368 23.8022 24.192 20.5344 19.5657 22.0183 20.4689 22.554 22.8975 19.3303 18.4609 20.8025 19.2245 21.2326 21.552 18.2327 17.4696 19.6304 18.0524 20.0418 20.3244 17.1218 16.4731 18.4939 16.9073 18.8227 19.0521 16.0942 15.5433 17.3592 15.8107 17.6675 17.8516 15.0646 14.6374 16.242 14.6843 16.5475 16.6476 14.1283 13.7681 15.1996 13.6891 15.4068 15.4962 13.1257 12.8722 14.1149 12.7104 14.3368 14.354 12.2653 12.0339 13.0389 11.6975 13.2467 13.2839 11.3248 11.1526 12.0122 10.7624 12.1594 12.1722 10.4467 10.3511 10.9708 9.80204 11.1045 11.075 9.57743 9.46546 9.95877 8.98136 10.0832 10.0974 8.72473 8.65177 8.97209 8.08618 9.08399 9.07787 7.92474 7.87258 8.00055 7.17585 8.06118 8.04891 7.06683 7.05705 7.02592 6.35889 7.13233 7.09719 6.24311 6.25198 6.12767 5.48156 6.15853 6.11944 5.40855 5.44592 5.20835 4.70698 5.25284 5.1918 4.60275 4.65575 4.30446 3.85729 4.33069 4.2609 3.83623 3.8978 3.42867 3.10103 3.50327 3.43065 3.05865 3.11522 2.59164 2.35546 2.66021 2.59675 2.32727 2.36451 1.75536 1.59577 1.81436 1.77275 1.51377 1.5388 0.987232 0.932052 1.06544 1.04203 0.900959 0.9357 26.2142 18.9867 25.4343 25.4343 19.001 19.0197 32.6374 22.0538 31.5241 31.1438 22.5066 22.5885 36.313 23.8343 35.1515 34.6208 24.267 24.1869 37.3533 24.4834 36.235 35.7884 24.7761 24.5358 36.3984 24.3774 35.5904 35.2426 24.0589 23.9004 32.3184 22.18 32.1518 31.4006 21.3809 21.2413 29.9586 20.4371 29.7998 29.1792 19.6897 19.6798 28.0808 19.1001 27.9717 27.3335 18.4593 18.5205 26.3647 18.0314 26.313 25.6939 17.4408 17.5699 24.815 17.026 24.7642 24.149 16.5347 16.7204 23.3145 16.2238 23.3036 22.6897 15.7545 15.9297 21.8498 15.3846 21.8653 21.3117 15.0142 15.1925 20.4843 14.6591 20.4833 19.9691 14.3017 14.4516 19.1437 13.8773 19.1335 18.6913 13.5936 13.7328 17.8382 13.1895 17.8465 17.4503 12.9201 12.9882 16.5187 12.4752 16.555 16.2649 12.2062 12.2977 15.3573 11.7373 15.4036 15.1174 11.5563 11.6055 14.1242 11.019 14.1809 13.9686 10.8239 10.8731 12.9801 10.3067 13.0585 12.8724 10.1197 10.1984 11.8968 9.56554 11.9646 11.7755 9.43574 9.49971 10.8112 8.8088 10.8703 10.7133 8.68932 8.80126 9.79973 8.08285 9.8353 9.65052 7.97062 8.08528 8.75974 7.37989 8.83709 8.6595 7.27598 7.37983 7.79692 6.6136 7.86078 7.70801 6.55907 6.64426 6.81817 5.85333 6.88796 6.76529 5.75489 5.89078 5.86408 5.06591 5.94596 5.77806 5.0384 5.15585 4.9683 4.33978 5.0082 4.8716 4.29911 4.42463 4.07962 3.56443 4.1283 3.98649 3.54017 3.62566 3.17672 2.83073 3.20967 3.11386 2.7594 2.84973 2.31627 2.04101 2.39502 2.29584 1.97639 2.10102 1.58688 1.281 1.62459 1.49816 1.23331 1.39712 0.850772 0.671106 0.923099 0.769187 0.686435 0.818909 34.7081 24.6877 32.8755 32.8755 25.1242 25.6438 41.5596 28.2548 39.5934 38.7776 29.4277 30.5849 46.1613 29.8077 44.1848 42.8403 31.1821 32.6294 47.2685 29.4019 45.4787 43.9149 30.7946 32.3122 45.6555 27.7354 44.3623 42.7712 28.6193 29.7736 42.2224 24.1793 41.1305 39.8991 24.9053 26.4118 37.8829 22.1003 37.1302 35.5512 22.7485 24.2616 34.8966 20.5714 34.2919 32.7674 21.1217 22.5971 32.3229 19.2064 31.8591 30.3944 19.6719 21.0633 29.9212 18.0391 29.5182 28.1434 18.4406 19.6781 27.6605 16.9522 27.3134 26.0868 17.2913 18.3971 25.5159 15.8856 25.2512 24.147 16.1408 17.0886 23.4557 14.8529 23.2323 22.2756 15.1029 15.9721 21.5882 13.8992 21.3868 20.5038 14.1169 14.8654 19.7586 12.9905 19.605 18.8348 13.1631 13.8541 18.0997 12.0959 17.9858 17.2675 12.2023 12.7707 16.4339 11.271 16.3661 15.764 11.3509 11.8047 14.8369 10.4207 14.7855 14.298 10.4688 10.8855 13.4056 9.67224 13.4054 12.9564 9.67301 9.99507 12.0318 8.87661 12.0445 11.6883 8.87768 9.19272 10.7684 8.1331 10.8144 10.465 8.11609 8.35026 9.57061 7.3779 9.58502 9.31911 7.37508 7.53092 8.33 6.62442 8.40088 8.21822 6.57927 6.73371 7.23506 5.8833 7.34128 7.16269 5.83802 5.98633 6.21798 5.16941 6.27417 6.10633 5.11289 5.25178 5.26003 4.44841 5.32703 5.17194 4.37608 4.51573 4.33205 3.71977 4.41107 4.25598 3.68653 3.83046 3.48844 2.99766 3.57406 3.41911 2.95346 3.0809 2.60587 2.26444 2.65658 2.51766 2.23356 2.36846 1.83593 1.56864 1.92414 1.78171 1.49486 1.6133 1.1224 0.889672 1.18641 1.06212 0.864078 0.976235 0.498114 0.555096 0.516073 0.446102 0.6745 0.712876 46.2997 33.7994 43.5096 43.5096 34.7863 35.5188 53.2655 38.6041 50.5714 49.5617 40.4083 41.991 59.3722 41.4711 56.8518 55.1364 43.5494 45.5361 61.1186 41.4748 58.741 56.6962 43.4976 45.58 59.4062 39.3826 57.3888 55.3112 40.854 42.7986 54.7242 35.5692 53.4727 51.6171 37.0771 39.0795 49.8282 31.5185 48.9624 47.0804 32.7827 34.8907 44.8028 28.8657 44.0588 42.0687 29.9257 31.9053 40.834 26.6216 40.2613 38.3993 27.5047 29.3333 37.3389 24.4589 36.8003 35.0787 25.2586 26.9499 34.0706 22.4552 33.6285 32.0336 23.1634 24.6837 31.0334 20.6183 30.6303 29.1931 21.1954 22.5621 28.1517 18.7903 27.8662 26.5744 19.302 20.5393 25.5037 17.1336 25.2113 24.0359 17.5914 18.6755 22.9775 15.5398 22.7626 21.7297 15.91 16.8751 20.609 14.1006 20.4206 19.4976 14.4112 15.2598 18.4051 12.696 18.3128 17.4988 12.9531 13.7228 16.3475 11.3883 16.2601 15.5135 11.5749 12.238 14.4067 10.1884 14.3739 13.7272 10.3214 10.8577 12.6371 9.08208 12.574 12.0492 9.14894 9.58148 10.9438 8.04031 10.9791 10.5571 8.07028 8.46169 9.44565 7.07244 9.48377 9.0985 7.13138 7.42255 8.0025 6.12566 8.10047 7.8089 6.09111 6.36149 6.72147 5.33632 6.81916 6.54524 5.24855 5.43189 5.52951 4.50751 5.6272 5.44026 4.46661 4.58367 4.48853 3.76632 4.55703 4.43595 3.70975 3.76363 3.4598 3.03785 3.5735 3.51676 2.95682 3.00465 2.61561 2.38431 2.69364 2.64154 2.30533 2.35401 1.81465 1.63262 1.92959 1.87614 1.56262 1.60718 1.07469 1.01417 1.17897 1.12754 0.920262 0.990949 0.543414 0.494282 0.621055 0.552069 0.440886 0.475676 0.435344 0.608043 0.38519 0.421954 0.719736 0.689059 60.7317 46.5329 57.2088 57.2088 48.0449 48.7719 67.2051 52.3622 64.1201 63.0387 54.6373 56.4374 75.8517 56.9478 73.1837 71.2373 59.4249 61.6003 78.6953 57.5841 75.9723 73.7072 60.1177 62.3049 77.4451 55.4424 74.2991 72.0496 57.6964 59.5543 70.5524 50.9693 69.5365 67.7031 52.4705 54.4319 63.8347 46.1487 63.1263 61.1984 47.291 49.2353 57.3943 41.1243 56.8144 54.901 42.2019 44.1191 51.3844 37.3671 50.7886 48.8836 38.2622 40.0446 46.4147 33.9671 45.847 44.0759 34.8146 36.4327 41.9582 30.8744 41.496 39.8889 31.6038 33.0992 37.826 27.9077 37.4855 35.9938 28.5697 29.951 34.0942 25.2466 33.7213 32.3325 25.7532 26.9766 30.5388 22.6196 30.2224 28.9986 23.1281 24.2323 27.2054 20.2673 26.9732 25.8655 20.66 21.6351 24.1669 17.9603 23.9778 23.0007 18.3271 19.1768 21.2532 15.9338 21.109 20.2553 16.1884 16.9399 18.638 13.9279 18.4739 17.7203 14.1316 14.8057 16.0591 12.104 16.0144 15.3449 12.2754 12.8399 13.7782 10.4069 13.7257 13.1636 10.5805 11.0705 11.7263 8.94565 11.7143 11.2227 8.98163 9.37201 9.70795 7.52972 9.75638 9.37027 7.56381 7.92282 7.9873 6.30281 8.08141 7.72048 6.24474 6.49449 6.41486 5.09914 6.54419 6.29711 5.04767 5.26358 5.01329 4.08171 5.09844 4.87925 3.99822 4.14618 3.72534 3.15198 3.86133 3.71107 3.09438 3.26184 2.73746 2.35296 2.86566 2.68839 2.2153 2.30257 1.7805 1.63906 1.8784 1.7863 1.5421 1.60636 1.03347 1.09622 1.18788 1.11728 0.935729 0.982854 0.584597 0.684477 0.71574 0.666247 0.56136 0.572686 0.676742 0.6892 0.727775 0.688037 0.714269 0.717043 1.04627 1.03219 0.982603 0.986324 1.10442 1.11149 29.3399 76.525 28.3812 28.3812 75.4231 74.7942 68.0541 71.675 69.2882 69.9412 71.4978 70.1641 62.7032 70.584 64.0128 65.2352 69.5355 67.9558 59.3689 68.8435 60.9111 62.3772 67.3185 65.6374 56.3218 66.4116 58.0695 59.6419 64.5588 62.8575 53.3361 63.473 55.2765 56.8669 61.3691 59.7208 50.1705 60.0839 52.3251 53.8543 57.8424 56.2476 47.0163 56.3792 49.1515 50.6269 54.1004 52.5976 43.8742 52.5819 45.8954 47.2832 50.3687 48.9399 40.7474 48.7575 42.7074 44.0126 46.6399 45.3553 37.7249 44.9094 39.5563 40.7234 43.0036 41.8076 34.7885 41.2603 36.4925 37.5787 39.4449 38.342 31.9074 37.6906 33.4075 34.4108 36.0077 35.0292 29.103 34.1684 30.5742 31.4557 32.6306 31.7331 26.4087 30.8811 27.6856 28.5032 29.339 28.5498 23.8325 27.5908 24.9863 25.6882 26.3633 25.6728 21.3786 24.6964 22.4261 23.0488 23.4323 22.813 19.0948 21.7868 20.0164 20.5604 20.7339 20.1893 16.8705 19.0426 17.6703 18.1456 18.0872 17.6269 14.8107 16.5563 15.5139 15.9126 15.7781 15.3874 12.9076 14.2798 13.5709 13.9077 13.5646 13.2192 11.1234 12.1076 11.6793 11.981 11.4108 11.1401 9.47852 10.175 9.93739 10.1724 9.63482 9.42724 8.03772 8.53221 8.40621 8.58709 7.98423 7.80677 6.63899 6.83728 6.98432 7.13482 6.47502 6.32149 5.43069 5.47588 5.66828 5.80319 5.0837 5.02093 4.41352 4.29688 4.54422 4.58372 4.05082 4.01367 3.34778 3.20884 3.60083 3.61696 3.04564 3.03071 2.53707 2.3493 2.67504 2.68024 2.19071 2.17014 1.75734 1.56636 1.8286 1.84612 1.53826 1.54265 1.10899 1.01546 1.11993 1.11424 1.00758 0.969924 0.585644 0.579419 0.634253 0.674832 0.490668 0.471063 22.3938 27.0258 21.7668 21.7668 26.9108 25.2336 35.1391 64.306 33.8593 35.3274 63.3929 62.3234 53.3115 60.1019 55.0628 55.9372 58.9041 57.3221 49.2324 57.5138 50.8019 52.1417 55.9901 54.1794 46.0749 54.9041 47.8573 49.424 53.134 51.2648 43.3157 52.2299 45.1687 46.8134 50.2501 48.4097 40.6574 49.3449 42.6584 44.2826 47.1232 45.3418 38.0652 46.2224 40.0513 41.6196 44.0114 42.3402 35.6142 43.0703 37.5237 38.9876 40.9765 39.4178 33.2469 40.0116 35.0244 36.3934 37.9769 36.5297 30.9126 36.976 32.5753 33.836 35.0711 33.7613 28.7102 34.0691 30.2026 31.3379 32.2941 31.1061 26.5252 31.1669 27.9281 28.9493 29.5989 28.5084 24.3925 28.5025 25.6386 26.5863 26.9615 26.0136 22.4035 25.8277 23.5133 24.3183 24.4908 23.6371 20.4251 23.3232 21.4552 22.1763 22.1129 21.367 18.5933 20.9869 19.4721 20.0929 19.8859 19.2479 16.8634 18.7728 17.6226 18.1446 17.8027 17.2541 15.1348 16.6119 15.8546 16.2983 15.7706 15.3061 13.5766 14.6797 14.137 14.5121 13.9417 13.5342 12.0293 12.9098 12.5586 12.8861 12.2133 11.907 10.6647 11.1941 11.1233 11.3631 10.6154 10.3505 9.31213 9.62485 9.6878 9.8934 9.14639 8.95463 8.07937 8.21978 8.3721 8.5172 7.83783 7.69026 6.94829 6.93263 7.18412 7.29487 6.57731 6.4752 5.85178 5.74101 6.08457 6.1552 5.49789 5.42241 4.88387 4.66269 5.01972 5.07366 4.52856 4.46334 3.90964 3.79767 4.03503 4.08728 3.54684 3.50218 3.05114 2.86961 3.15207 3.18639 2.73705 2.73424 2.24708 2.05621 2.32753 2.32455 1.99054 2.02368 1.54694 1.36536 1.56319 1.52815 1.35357 1.3561 0.853709 0.865729 0.94701 0.948475 0.826023 0.808682 19.631 19.9833 18.9547 18.9547 20.1755 18.7104 28.2057 29.2512 27.1721 28.2495 30.3533 28.0996 34.5202 49.9292 34.1862 35.8843 48.2307 46.7459 40.5239 46.2453 42.0794 43.1241 44.6605 42.8433 37.4562 43.6395 39.0163 40.3892 41.8079 39.8674 35.024 41.1151 36.598 38.1003 39.209 37.264 32.7706 38.76 34.4511 35.9698 36.6672 34.7964 30.8109 36.2678 32.5066 33.9667 34.1892 32.4438 28.9585 33.8847 30.5289 31.9003 31.8924 30.2661 27.2759 31.5463 28.6887 29.9637 29.6827 28.2333 25.5923 29.2802 26.9357 28.0558 27.5451 26.2063 23.9611 27.1171 25.1662 26.1979 25.5544 24.3419 22.3994 25.0659 23.4816 24.4111 23.5952 22.533 20.8895 23.0423 21.8894 22.6865 21.7353 20.8053 19.4714 21.1398 20.2749 20.9723 19.9761 19.1715 17.9559 19.3344 18.8041 19.3864 18.2535 17.5551 16.6009 17.5977 17.2542 17.7606 16.6775 16.0555 15.2723 15.9651 15.8068 16.2632 15.1678 14.6497 13.9191 14.4327 14.515 14.8821 13.6807 13.2455 12.7113 12.935 13.1105 13.4186 12.3491 12.0049 11.4464 11.5776 11.9218 12.1584 11.0296 10.7111 10.333 10.3169 10.6431 10.8772 9.83808 9.62044 9.23648 9.04543 9.50287 9.6484 8.659 8.49577 8.11534 7.8785 8.33859 8.44023 7.5756 7.46256 7.11069 6.80037 7.30605 7.37166 6.55621 6.51656 6.11967 5.80945 6.25943 6.26168 5.57106 5.58228 5.22508 4.86329 5.32637 5.28573 4.72356 4.73128 4.25225 3.93946 4.37421 4.34279 3.81235 3.85748 3.39198 3.13348 3.46536 3.40796 3.03339 3.07338 2.55793 2.35292 2.6781 2.62909 2.27373 2.31056 1.76282 1.58746 1.81916 1.77929 1.57281 1.58792 1.04389 0.956382 1.08131 1.06563 0.881273 0.897495 20.9588 17.0488 20.0128 20.0128 17.6102 16.5954 27.1439 22.2744 25.992 26.5076 23.1596 21.1568 31.217 27.5025 30.2704 31.4243 27.6682 25.4779 33.2938 35.9361 32.9696 34.2884 34.3054 32.6762 32.7125 33.123 33.457 34.2996 31.4629 29.7431 30.3259 30.9026 31.2525 32.1516 29.2453 27.526 28.391 28.9841 29.4376 30.3576 27.1744 25.5138 26.7763 27.2079 27.7991 28.7277 25.4045 23.8879 25.345 25.4539 26.3025 27.1439 23.7861 22.429 23.9884 23.8508 24.8788 25.6202 22.3601 21.1538 22.7274 22.3585 23.5281 24.1809 20.9423 19.862 21.3994 20.9144 22.1642 22.744 19.6452 18.6875 20.193 19.5459 20.8321 21.3544 18.413 17.5794 18.9321 18.2612 19.5759 20.0195 17.22 16.5003 17.7532 16.9753 18.3435 18.719 16.1343 15.4607 16.5676 15.8104 17.056 17.4472 14.9267 14.3832 15.423 14.5676 15.8598 16.1555 13.8906 13.4327 14.2955 13.4404 14.7223 14.967 12.8828 12.5059 13.2409 12.428 13.5589 13.769 11.8146 11.5232 12.1304 11.3139 12.4815 12.6271 10.9068 10.6223 11.0512 10.3503 11.3205 11.4898 9.86239 9.69764 10.075 9.30694 10.2992 10.3646 8.98795 8.89757 9.06414 8.38006 9.2769 9.29056 8.11143 8.0206 8.03649 7.38282 8.21887 8.24876 7.15564 7.12708 7.09016 6.5175 7.22902 7.20936 6.31839 6.32694 6.11638 5.61551 6.23689 6.19203 5.47497 5.46126 5.1905 4.78883 5.30167 5.28942 4.68434 4.69228 4.26152 3.92022 4.37023 4.34326 3.79917 3.84918 3.43004 3.06324 3.48823 3.42381 2.9894 3.09518 2.59441 2.31624 2.6745 2.55752 2.19963 2.35069 1.76981 1.52403 1.86208 1.70838 1.47606 1.59143 1.03771 0.851346 1.09389 0.975578 0.825957 0.928328 25.9454 18.4711 24.4997 24.4997 19.2439 18.9607 31.5825 21.654 29.8682 29.6997 22.6418 21.8929 34.9465 23.6002 33.4085 33.5057 24.4661 23.5564 36.0768 24.7928 34.894 35.0605 25.119 24.1901 35.5577 25.6629 34.7226 34.8627 24.9245 24.1668 31.8552 23.5636 31.7285 31.5699 22.6632 21.9653 29.6518 21.9685 29.6413 29.4492 20.9171 20.3337 27.7932 20.567 27.9577 27.7513 19.5697 19.0815 26.1287 19.4071 26.3448 26.1422 18.4894 18.0337 24.5408 18.3557 24.7878 24.639 17.514 17.0583 23.0452 17.4162 23.27 23.1963 16.6559 16.2653 21.6229 16.4777 21.8823 21.8209 15.7601 15.4142 20.2317 15.5985 20.4861 20.4385 15.0045 14.6891 18.9162 14.7682 19.1864 19.1606 14.1678 13.8914 17.6367 13.9393 17.8745 17.8533 13.3829 13.2015 16.4154 13.0995 16.6876 16.6171 12.6461 12.4792 15.2414 12.2888 15.4303 15.3861 11.8798 11.7417 14.0646 11.5168 14.2845 14.2409 11.1149 11.0133 12.9534 10.7125 13.1868 13.137 10.417 10.3107 11.839 9.94134 12.0318 12.0171 9.60787 9.56154 10.7589 9.08865 10.9724 10.915 8.83481 8.80714 9.68833 8.3193 9.89045 9.83818 8.10813 8.07996 8.68589 7.54214 8.82784 8.7959 7.33997 7.38011 7.72768 6.75895 7.8796 7.78947 6.58289 6.61395 6.77547 5.9619 6.91765 6.84806 5.83006 5.84949 5.78464 5.1673 5.89536 5.84846 5.05209 5.06414 4.87387 4.41243 4.96281 4.93156 4.30364 4.33429 3.98624 3.63479 4.05955 4.01499 3.52965 3.56053 3.10934 2.86277 3.22207 3.18066 2.80754 2.82504 2.28748 2.13332 2.37639 2.35388 2.05921 2.03473 1.49152 1.33154 1.55173 1.57245 1.24914 1.27012 0.756762 0.649678 0.780228 0.763168 0.636031 0.660726 34.09 23.7635 31.8358 31.8358 24.6858 25.0283 40.0055 26.6424 37.4829 36.7683 28.1863 28.9645 43.9452 28.2219 41.805 40.7411 29.7333 30.5797 44.9491 28.0428 43.0979 42.0166 29.3778 30.221 43.763 26.6858 42.3158 41.2735 27.7857 28.6253 40.9161 23.5285 40.0673 39.0427 24.0189 25.1217 36.5542 21.5273 35.8235 34.4518 21.9733 23.0765 33.6924 20.1698 33.2232 31.9508 20.434 21.4717 31.2302 18.9063 30.8955 29.7399 19.0899 20.0468 28.8728 17.7568 28.6297 27.5799 17.8776 18.7556 26.7243 16.6804 26.5855 25.6283 16.7766 17.5798 24.7007 15.6803 24.6365 23.758 15.7134 16.439 22.7481 14.6968 22.7073 21.911 14.69 15.3083 20.9081 13.8249 20.8842 20.1964 13.7692 14.2938 19.1763 12.9476 19.2121 18.6196 12.8877 13.313 17.5515 12.1039 17.6179 17.1258 11.9904 12.3637 15.9862 11.2414 16.0484 15.6092 11.1763 11.4761 14.4869 10.4893 14.5962 14.237 10.3718 10.5981 13.0916 9.69292 13.2345 12.9526 9.5479 9.79001 11.7937 8.90679 11.9482 11.6577 8.77904 8.97574 10.5465 8.23851 10.6886 10.45 8.07976 8.20305 9.37322 7.46762 9.52768 9.36625 7.30679 7.42006 8.24457 6.70317 8.3931 8.24741 6.58668 6.64766 7.1805 6.00181 7.30103 7.2133 5.87387 5.89957 6.11623 5.27121 6.27582 6.22823 5.14418 5.18001 5.16243 4.47233 5.29774 5.24418 4.37325 4.43626 4.24359 3.73694 4.34721 4.27155 3.65477 3.70916 3.39958 3.02481 3.46403 3.39908 2.95574 2.97797 2.49471 2.34549 2.62735 2.59816 2.23689 2.24355 1.75859 1.60315 1.82455 1.81377 1.52184 1.54151 1.0389 0.884256 1.07214 1.05048 0.843162 0.858283 0.496297 0.512346 0.462326 0.45747 0.579528 0.564934 45.3178 32.4569 42.1112 42.1112 33.7202 34.4347 51.4176 36.1593 48.2552 47.2035 38.3524 39.9309 56.7062 38.8066 54.1244 52.3884 40.8988 42.8025 58.0499 38.7666 55.7979 53.8256 40.7352 42.7549 56.5046 36.9373 54.6625 52.6332 38.632 40.6077 52.7422 33.9298 51.563 49.6271 34.9928 36.82 48.117 29.4239 47.0655 45.3244 30.7619 32.6877 42.9994 27.0533 42.2519 40.4269 28.0922 29.9144 39.2023 24.9412 38.6158 36.9038 25.8035 27.5303 35.7663 22.9788 35.3453 33.727 23.688 25.2441 32.6264 21.1849 32.2974 30.8398 21.7456 23.1372 29.6929 19.4632 29.4347 28.1324 19.9313 21.188 27.0108 17.7832 26.7904 25.6118 18.1743 19.3032 24.4027 16.2091 24.2612 23.2024 16.546 17.5555 22.0279 14.7741 21.919 20.9653 15.0195 15.886 19.7304 13.4459 19.722 18.9044 13.6159 14.377 17.6858 12.1324 17.6284 16.9033 12.2694 12.9207 15.6649 10.9368 15.6844 15.0651 11.0188 11.5677 13.8269 9.88195 13.9399 13.4159 9.86542 10.3193 12.1079 8.82597 12.224 11.7884 8.79628 9.15079 10.6028 7.80574 10.6633 10.3201 7.77476 8.09855 9.11011 6.94248 9.29059 8.97212 6.84587 7.09939 7.80101 6.04887 7.92044 7.66814 5.95118 6.12715 6.52103 5.21012 6.68326 6.50877 5.14052 5.31118 5.40686 4.50617 5.55198 5.37655 4.36564 4.48141 4.38602 3.74894 4.57101 4.45021 3.62169 3.72225 3.45516 2.97422 3.57725 3.46905 2.87654 2.97818 2.58361 2.28273 2.7313 2.62209 2.22188 2.32705 1.80348 1.59476 1.92897 1.81399 1.46194 1.55861 1.05747 0.911325 1.16287 1.05692 0.846778 0.936604 0.473545 0.389018 0.517287 0.435608 0.3889 0.395198 0.412631 0.523224 0.354767 0.436624 0.724954 0.592917 59.5419 44.8405 55.6548 55.6548 46.5909 47.4245 65.4132 49.6328 61.9898 60.7792 52.2224 54.1062 73.0809 53.9045 70.2932 68.2489 56.3298 58.5457 75.076 54.3377 72.7221 70.4053 56.6296 58.8774 73.1093 52.3425 70.9517 68.6349 54.3791 56.5211 68.5488 48.5952 66.8536 64.6756 49.9952 51.9109 61.9254 43.6481 60.9023 59.0095 45.0888 46.9604 55.5006 38.6998 54.783 52.9403 39.9126 41.8072 49.3926 35.2153 48.7384 46.8628 36.2183 37.9534 44.4924 32.0224 44.0124 42.2914 32.8495 34.4556 40.2212 29.0904 39.7625 38.1622 29.8083 31.2629 36.2767 26.3448 35.8927 34.4448 26.9534 28.2514 32.548 23.7897 32.2173 30.928 24.3394 25.5047 29.1486 21.3126 28.9875 27.8326 21.746 22.8101 25.9744 19.0792 25.7834 24.721 19.4687 20.4138 23.0689 16.9942 22.9259 21.9801 17.2431 18.0628 20.2927 14.9944 20.1688 19.3569 15.2733 15.9971 17.7179 13.1157 17.7138 16.9942 13.3074 13.9423 15.3215 11.4947 15.3697 14.7322 11.5461 12.094 13.111 9.84525 13.196 12.646 9.88955 10.3679 11.1505 8.41043 11.1753 10.6908 8.47483 8.87934 9.27424 7.16049 9.42061 9.00878 7.06816 7.43656 7.61698 5.93135 7.73547 7.35884 5.91901 6.19873 6.18567 4.8816 6.30387 6.01334 4.75579 4.98612 4.74456 3.85736 4.95013 4.71264 3.74118 3.93434 3.58672 3.05999 3.69426 3.48941 2.88451 3.02518 2.55558 2.26012 2.73621 2.59071 2.12355 2.21565 1.64579 1.59593 1.82137 1.72297 1.44285 1.49243 0.958669 1.00753 1.10876 1.05274 0.885622 0.926953 0.506041 0.593551 0.569551 0.528163 0.494067 0.532966 0.615402 0.52908 0.561994 0.534439 0.593234 0.607292 0.975486 0.982996 0.950425 0.934104 1.03968 1.02303 32.5649 80.1952 31.5375 31.5375 78.4862 77.982 70.3292 73.493 71.6873 72.3885 73.6152 72.1803 64.9169 72.7306 66.0788 67.4426 71.8752 70.2473 61.6573 71.4278 63.2234 64.7854 69.7337 68.0728 58.6971 69.2089 60.6739 62.2635 67.0491 65.4057 55.8009 66.2927 57.9854 59.5455 63.9544 62.3371 52.7736 62.9032 55.0375 56.5559 60.4832 58.9261 49.5354 59.1581 51.8807 53.3274 56.6604 55.2065 46.2576 55.2402 48.5638 49.8945 52.8438 51.4687 43.0152 51.207 45.208 46.4611 48.9219 47.6717 39.8199 47.2286 41.837 42.9669 45.0678 43.9106 36.7173 43.3049 38.5746 39.6105 41.3519 40.3042 33.6014 39.574 35.3647 36.294 37.7502 36.7883 30.7277 35.9109 32.268 33.1226 34.2072 33.3443 27.8426 32.4434 29.2451 29.9997 30.8921 30.1296 25.0981 29.0739 26.443 27.1017 27.5824 26.9142 22.5179 25.8057 23.6908 24.2546 24.6563 24.0842 20.0911 22.937 21.1729 21.6626 21.7235 21.2371 17.7172 19.9854 18.7185 19.1238 18.9611 18.5324 15.5676 17.421 16.3656 16.7268 16.5076 16.1384 13.6008 15.0951 14.3463 14.6563 14.2108 13.905 11.7176 12.7612 12.3559 12.6037 12.0149 11.78 9.96106 10.6995 10.5233 10.7099 10.0953 9.90677 8.42764 8.97223 8.87909 9.02241 8.45661 8.33142 7.02225 7.27094 7.45645 7.54645 6.78956 6.68658 5.71965 5.84289 6.0819 6.15453 5.43832 5.35619 4.52707 4.55885 4.80649 4.86704 4.25513 4.21552 3.59102 3.45159 3.77352 3.80079 3.17761 3.16768 2.67901 2.54421 2.81488 2.81187 2.31765 2.33723 1.85845 1.71261 2.01144 1.98452 1.57968 1.57569 1.11497 1.03707 1.19772 1.19954 1.00346 1.01316 0.662767 0.572527 0.594286 0.588418 0.499208 0.550745 23.7325 31.556 22.5569 22.5569 30.6182 28.2256 36.0418 66.7823 33.0201 35.2808 65.7248 64.8539 55.6791 62.4255 57.8325 58.5556 61.3639 59.7521 51.3818 60.0208 53.3904 54.7932 58.467 56.6252 48.4189 57.6407 50.423 52.0905 55.6426 53.7555 45.6808 55.0269 47.8025 49.5326 52.8045 50.9504 43.1257 52.1237 45.2787 46.9856 49.82 48.035 40.4987 49.0454 42.7302 44.3725 46.6424 44.9489 37.9369 45.8024 40.0388 41.5987 43.4346 41.8674 35.4212 42.5739 37.4183 38.8451 40.3207 38.8857 32.9385 39.3245 34.8416 36.1367 37.2482 35.934 30.523 36.2303 32.2876 33.4708 34.3148 33.114 28.2074 33.1894 29.8024 30.8844 31.3681 30.2835 25.9225 30.2725 27.35 28.3148 28.6761 27.7069 23.7296 27.4366 25.042 25.9041 25.9809 25.1156 21.6598 24.8363 22.8627 23.6292 23.4381 22.6787 19.6255 22.3033 20.6666 21.3374 21.0839 20.4112 17.7408 19.9791 18.7002 19.2897 18.8533 18.262 15.9574 17.7067 16.8172 17.3278 16.6618 16.168 14.2106 15.5417 14.9177 15.338 14.7101 14.2908 12.6393 13.692 13.2754 13.6228 12.9149 12.5858 11.1797 11.869 11.7396 12.0031 11.2024 10.9437 9.73058 10.196 10.2184 10.4234 9.6074 9.40445 8.40594 8.70645 8.79525 8.95089 8.23803 8.05871 7.20834 7.37563 7.60125 7.74521 6.92305 6.80294 6.101 6.11321 6.3395 6.43458 5.74075 5.65551 5.03929 4.93888 5.24462 5.30557 4.65439 4.60554 4.06565 3.95267 4.24983 4.27903 3.76662 3.76442 3.1877 3.01307 3.34663 3.33803 2.87997 2.86737 2.33753 2.22983 2.45803 2.46351 2.08141 2.0633 1.53475 1.43438 1.60072 1.61645 1.35862 1.36758 0.956946 0.81213 0.950145 0.94302 0.865114 0.869996 19.4794 22.3182 17.6597 17.6597 22.2126 20.1266 28.133 29.8755 25.6739 27.4432 32.1845 28.9075 35.1056 52.9854 33.7594 36.572 50.8328 49.3984 42.3962 49.1914 44.6588 45.7218 47.1482 45.2785 39.4685 46.502 41.4838 42.991 44.4591 42.4418 37.1018 44.0111 39.0891 40.7797 41.8434 39.8266 34.9587 41.6177 36.9271 38.647 39.4271 37.4615 33.0201 39.1821 34.9233 36.6218 36.8913 35.0341 31.0274 36.633 32.9006 34.4955 34.4736 32.7459 29.1766 34.1405 30.9055 32.398 32.0923 30.506 27.3601 31.7508 28.9721 30.3383 29.7965 28.3405 25.5705 29.3883 27.0701 28.3185 27.5745 26.2582 23.8458 27.1065 25.1763 26.3022 25.4651 24.2863 22.1938 24.8591 23.3688 24.3762 23.3886 22.3554 20.541 22.815 21.629 22.499 21.4618 20.5285 19.0183 20.8598 19.9578 20.7461 19.6237 18.8052 17.4436 18.9057 18.3215 19.0013 17.8303 17.1414 15.9935 17.148 16.7846 17.3474 16.1572 15.5701 14.6637 15.4765 15.2925 15.7718 14.5925 14.1067 13.2345 13.8124 13.9087 14.2901 13.0804 12.6566 12.0139 12.3474 12.4882 12.837 11.6937 11.3522 10.7619 10.9811 11.2069 11.4805 10.4062 10.1397 9.56371 9.63894 9.97231 10.1807 9.1321 8.90688 8.37587 8.32177 8.70485 8.88718 7.9257 7.77051 7.33216 7.22459 7.5724 7.68904 6.8205 6.72855 6.2368 6.11097 6.48481 6.54409 5.86522 5.76574 5.27477 5.11054 5.47125 5.55141 4.90056 4.84135 4.33974 4.18609 4.50532 4.5517 3.99945 3.92751 3.41481 3.29678 3.52604 3.58683 3.13569 3.13653 2.63482 2.45055 2.71451 2.70843 2.33168 2.3562 1.78933 1.65564 1.87323 1.84503 1.59183 1.58759 1.07215 0.977861 1.08803 1.09336 0.991382 0.959379 20.1346 17.1188 17.6627 17.6627 17.9521 16.5383 26.1064 22.4632 23.883 24.7952 24.1365 21.1352 30.644 28.3951 29.0727 31.2009 29.3727 26.1404 33.432 39.0602 32.8673 35.2844 36.6782 34.9176 33.687 36.1109 35.1351 36.2474 34.0059 32.0201 31.5617 33.8708 32.9932 34.3462 31.8094 29.7891 29.7884 31.8427 31.1698 32.5918 29.8203 27.9011 28.2202 30.0231 29.5923 30.9439 28.0469 26.2301 26.7022 28.1781 28.0093 29.3113 26.2433 24.5705 25.2394 26.3857 26.4795 27.6747 24.6104 23.0785 23.8443 24.7093 24.9642 26.0748 23.0535 21.6672 22.4508 23.0708 23.5029 24.5081 21.5335 20.3166 21.1068 21.4748 22.0669 22.9389 20.1152 19.0259 19.8036 19.9829 20.6904 21.4736 18.7838 17.8075 18.5357 18.5253 19.2762 19.9908 17.4111 16.5765 17.2841 17.148 17.9773 18.5783 16.1917 15.4744 16.0295 15.8149 16.6967 17.2116 14.9194 14.2974 14.8583 14.5446 15.4054 15.8628 13.739 13.2048 13.6793 13.3458 14.2152 14.6049 12.7106 12.2342 12.5601 12.189 12.9816 13.3425 11.5031 11.1677 11.4305 11.003 11.8398 12.0693 10.5239 10.2278 10.326 9.9057 10.7169 10.9274 9.45519 9.22099 9.26892 8.87049 9.5855 9.75015 8.45314 8.31563 8.23303 7.7943 8.5075 8.59151 7.46059 7.33711 7.19836 6.80885 7.40093 7.48475 6.56671 6.49042 6.19023 5.88118 6.41334 6.4589 5.62875 5.60117 5.28969 4.98766 5.44141 5.44732 4.78971 4.77881 4.34843 4.09112 4.47831 4.46994 3.92165 3.91855 3.43034 3.18574 3.53323 3.52367 3.07716 3.07018 2.56585 2.41614 2.62459 2.6241 2.33464 2.32317 1.72093 1.59777 1.80835 1.81698 1.51912 1.53325 0.985501 0.830617 1.00572 0.991214 0.830093 0.853146 25.0634 17.2567 22.412 22.412 18.7905 18.0676 29.8725 20.9425 27.2652 27.4925 22.4156 20.7886 33.4083 23.7157 31.4682 32.3045 24.9148 22.598 34.8968 25.7573 33.5199 34.8896 26.1953 23.8934 34.73 27.9199 34.006 35.3795 26.4344 25.0325 31.6513 25.8399 31.881 32.3893 24.3991 23.0475 29.5643 24.1893 30.0508 30.5534 22.8408 21.5173 27.9025 22.8399 28.3892 28.9271 21.4778 20.2282 26.2919 21.5071 26.8045 27.3627 20.227 19.1402 24.7849 20.3371 25.3144 25.7991 19.1447 18.1445 23.3296 19.189 23.8998 24.3628 18.1117 17.2421 21.9441 18.1204 22.4617 22.8695 17.1169 16.3325 20.54 17.0793 21.0417 21.4229 16.1649 15.4824 19.2464 16.0965 19.7106 20.0481 15.2524 14.6654 17.9259 15.1079 18.3805 18.6676 14.4024 13.8654 16.6826 14.1862 17.1122 17.4029 13.5258 13.0435 15.4428 13.2785 15.9044 16.1811 12.6472 12.2421 14.2922 12.3523 14.6735 14.9046 11.8296 11.4838 13.1745 11.4691 13.4832 13.6896 10.9534 10.6894 12.0431 10.5827 12.3918 12.5384 10.1815 9.92325 10.9419 9.71725 11.2528 11.4191 9.32141 9.08306 9.86123 8.88105 10.156 10.322 8.50137 8.3134 8.80694 7.96222 9.06304 9.19567 7.6557 7.54272 7.80242 7.08362 8.04269 8.11121 6.81516 6.76172 6.85526 6.22302 7.04115 7.06052 6.02496 5.96493 5.85186 5.37458 6.01413 6.04924 5.15673 5.16873 4.93316 4.537 5.11089 5.07534 4.3873 4.41494 4.01672 3.70622 4.16659 4.12281 3.57741 3.63819 3.18117 2.88448 3.2682 3.19637 2.78749 2.86481 2.34879 2.06415 2.40806 2.31722 2.00616 2.12927 1.57143 1.29015 1.61064 1.48725 1.22007 1.31874 0.78272 0.622352 0.853252 0.762564 0.651464 0.646562 33.2401 22.4106 30.2666 30.2666 24.0304 24.0148 37.993 25.1822 34.7773 34.3635 27.1056 27.0375 41.6643 27.1569 39.1777 38.8459 28.8072 28.5491 42.7666 27.387 40.9212 40.7953 28.7608 28.3887 41.9385 26.4801 40.5815 40.5675 27.4275 27.0924 39.6986 23.8421 38.782 38.7339 24.0165 24.0956 35.1992 22.022 34.7373 34.2371 21.9429 22.1311 32.6535 20.5935 32.3116 31.7688 20.5158 20.7714 30.3603 19.4069 30.2195 29.6825 19.267 19.4689 28.1494 18.2422 28.1292 27.6869 18.0648 18.2806 26.1243 17.1954 26.1631 25.7462 16.9453 17.1401 24.1942 16.1551 24.2672 23.8963 15.921 16.0951 22.2864 15.1583 22.4405 22.1062 14.9036 15.0509 20.5133 14.2904 20.6895 20.4018 14.0361 14.1296 18.8886 13.3666 19.0528 18.8323 13.0939 13.198 17.3513 12.5144 17.5755 17.359 12.2415 12.3185 15.7993 11.6836 16.0356 15.8572 11.353 11.4269 14.3938 10.8441 14.6457 14.4827 10.5683 10.6313 13.0771 10.0296 13.2685 13.1292 9.80095 9.82049 11.7451 9.28214 12.0049 11.9223 8.99981 8.99723 10.5135 8.50194 10.7597 10.7094 8.24558 8.29937 9.41124 7.73323 9.65649 9.55832 7.48088 7.52165 8.27541 6.97244 8.52696 8.44925 6.74191 6.73877 7.22945 6.22201 7.45078 7.42517 6.00391 6.02352 6.2305 5.44613 6.4155 6.37232 5.27696 5.28197 5.2416 4.62376 5.39735 5.37512 4.47068 4.47898 4.26647 3.88474 4.45511 4.43265 3.71436 3.73771 3.38791 3.11337 3.53298 3.49813 2.96742 3.01738 2.58254 2.3542 2.67273 2.6152 2.2696 2.33627 1.80306 1.58162 1.86986 1.79823 1.5288 1.59092 1.0438 0.863755 1.12094 1.05601 0.842786 0.878467 0.468654 0.332028 0.432252 0.421727 0.489979 0.489397 44.2379 30.8232 40.4047 40.4047 32.5518 33.2127 49.2982 33.6491 45.43 44.3656 36.2541 37.5554 54.05 36.3933 51.03 49.5416 38.6458 40.1182 55.1628 36.6866 52.9764 51.4401 38.5416 39.9467 53.7688 35.1353 52.0607 50.656 36.714 38.038 50.6198 32.3839 49.3425 48.0635 33.7027 34.987 46.2385 27.9793 45.5679 44.3574 29.0082 30.4817 41.2475 25.5917 40.4596 39.0459 26.5668 27.9997 37.6189 23.7309 37.1266 35.7825 24.4673 25.7789 34.3645 21.9776 34.006 32.7897 22.5424 23.7327 31.408 20.3294 31.1718 30.078 20.7879 21.8555 28.6057 18.704 28.4889 27.5071 19.0718 20.0318 26.0133 17.1965 25.9383 25.0512 17.4365 18.2751 23.5567 15.6909 23.5306 22.7561 15.8774 16.637 21.2387 14.3559 21.3066 20.599 14.4907 15.1143 19.1294 13.1248 19.1715 18.5881 13.1759 13.7327 17.0827 11.8895 17.2216 16.6974 11.8833 12.3583 15.2005 10.7525 15.3791 14.9257 10.6921 11.1179 13.5178 9.70491 13.6231 13.2102 9.66965 10.026 11.8598 8.73151 12.0938 11.7475 8.59873 8.92629 10.3471 7.78307 10.5685 10.2416 7.62819 7.8604 8.99061 6.94389 9.18069 8.94669 6.7839 6.98705 7.67522 6.09502 7.92024 7.71429 5.89893 6.06724 6.49179 5.26208 6.71656 6.54027 5.07097 5.2151 5.34305 4.51645 5.59944 5.44832 4.36493 4.48751 4.40774 3.7797 4.57529 4.4444 3.63475 3.7179 3.43838 3.05233 3.63856 3.54796 2.86926 2.95329 2.58165 2.29937 2.75331 2.65968 2.15306 2.24785 1.77183 1.58294 1.90095 1.7953 1.48993 1.55418 1.02546 0.913365 1.10717 1.0378 0.846499 0.883592 0.422378 0.327496 0.470815 0.43957 0.332812 0.362743 0.461124 0.562425 0.397608 0.450373 0.627405 0.54715 58.216 42.5397 53.6816 53.6816 44.6763 45.7313 63.2989 46.2464 59.0745 57.6068 49.4024 51.4367 70.1032 50.3745 66.9715 64.7599 53.1431 55.473 71.7845 51.1435 69.3628 66.9369 53.3417 55.6225 69.6769 49.3346 67.775 65.4458 51.2142 53.3766 65.4712 45.8911 63.9423 61.7645 47.4738 49.4466 59.6469 41.6009 58.7168 56.7604 42.5974 44.3908 53.4706 36.2374 52.5828 50.8409 37.5818 39.347 47.2962 33.0368 46.6472 44.9307 34.0903 35.7429 42.6606 30.0696 42.1677 40.5569 30.9424 32.4829 38.4635 27.3783 38.129 36.621 28.0863 29.4674 34.6634 24.8666 34.399 33.0398 25.4031 26.6364 31.1035 22.4388 30.9369 29.7229 22.9262 24.0278 27.9586 20.1547 27.7576 26.6624 20.5452 21.5005 24.7946 18.1003 24.7007 23.7584 18.362 19.2027 22.0355 16.0783 21.9498 21.1237 16.3312 17.0979 19.3771 14.2327 19.4349 18.6808 14.3558 15.0529 16.9864 12.5439 17.0096 16.3198 12.5841 13.1425 14.7011 10.8945 14.7254 14.1842 11.0078 11.4893 12.5926 9.47492 12.7672 12.2983 9.39329 9.82339 10.6197 8.06902 10.7981 10.3791 8.00602 8.35638 8.90773 6.84233 9.05265 8.70761 6.79137 7.06962 7.26816 5.79324 7.48989 7.21401 5.61867 5.86069 5.88779 4.78647 6.07239 5.83027 4.60737 4.75714 4.59788 3.78514 4.80876 4.66463 3.59855 3.74376 3.35495 2.98212 3.62465 3.4799 2.83205 2.92082 2.45 2.28532 2.64098 2.54541 2.09284 2.12165 1.59341 1.62767 1.76907 1.73769 1.42445 1.4697 0.909226 0.976119 1.0661 1.01397 0.838513 0.859948 0.400341 0.492589 0.557423 0.530561 0.43954 0.466771 0.497796 0.557425 0.507926 0.556518 0.578977 0.49422 0.93222 1.01883 0.880522 0.97841 1.06819 0.981451 37.7657 83.5771 35.8601 35.8601 83.7052 82.4991 73.068 75.0213 73.9452 75.4577 76.0885 74.2156 67.2845 75.3173 68.2868 70.1446 74.373 72.5385 64.1997 74.741 66.0534 67.9133 72.5677 70.7995 61.4418 72.8364 63.9536 65.742 70.0369 68.3432 58.6309 69.8417 61.3879 63.0822 66.9302 65.3268 55.5756 66.4335 58.4285 60.0185 63.3886 61.8665 52.3401 62.4974 55.1583 56.6467 59.576 58.1075 48.9341 58.4539 51.6904 53.1118 55.5681 54.2121 45.5426 54.1156 48.0983 49.3939 51.4658 50.2189 42.101 49.8824 44.5065 45.6876 47.4222 46.2894 38.7941 45.81 41.0092 42.0714 43.4549 42.4104 35.5138 41.7443 37.5194 38.4831 39.6728 38.7176 32.4093 37.9381 34.2234 35.0964 35.9613 35.1209 29.3465 34.1071 31.0534 31.8049 32.4773 31.7175 26.5227 30.6242 28.0313 28.7166 29.1001 28.4214 23.758 27.3911 25.1083 25.7235 25.8128 25.2373 21.1961 24.0922 22.4014 22.8964 22.8996 22.4001 18.7308 21.1365 19.7872 20.2218 19.9584 19.5248 16.3794 18.4234 17.3976 17.7564 17.3341 17.0139 14.36 15.8805 15.2071 15.4589 15.0357 14.7437 12.3555 13.5017 13.1385 13.3709 12.6809 12.4619 10.5366 11.447 11.1521 11.3183 10.6326 10.4776 8.86732 9.50268 9.48751 9.58123 8.89691 8.77952 7.43003 7.77345 7.92005 7.99062 7.21215 7.11565 6.08781 6.1842 6.49175 6.53924 5.7824 5.7494 4.82562 4.92733 5.22918 5.23292 4.53597 4.49595 3.80771 3.79032 4.02251 4.03799 3.47576 3.4527 2.83345 2.75912 3.0719 3.07773 2.55755 2.56685 2.03898 2.0144 2.2573 2.23781 1.75783 1.77085 1.28688 1.14752 1.36881 1.36058 1.11743 1.12638 0.673505 0.647454 0.707386 0.703634 0.691528 0.674975 25.24 38.102 23.1258 23.1258 37.0657 32.4496 37.3866 69.9897 30.7941 35.5311 69.3765 68.1678 58.5517 65.0612 62.354 63.4841 64.1762 62.2714 54.1533 63.1156 56.691 58.4688 61.2895 59.2447 51.1415 61.1261 53.6757 55.6731 58.6002 56.5731 48.459 58.6158 51.172 53.1768 55.8339 53.8456 45.8995 55.6979 48.6 50.5841 52.8025 50.9303 43.2899 52.4881 45.9553 47.8262 49.6297 47.8577 40.5732 49.1341 43.214 44.9784 46.3261 44.6721 37.8919 45.6319 40.331 41.9781 43.0203 41.5151 35.2532 42.1993 37.541 39.0384 39.74 38.3321 32.6584 38.8605 34.6643 36.0636 36.5908 35.3084 30.1467 35.5458 31.9928 33.2525 33.4842 32.3436 27.648 32.4351 29.3989 30.5142 30.5711 29.5027 25.3071 29.4276 26.8242 27.8755 27.6669 26.7349 23.1116 26.6061 24.3953 25.3004 25.0473 24.222 20.8726 23.8723 22.2378 23.0244 22.4746 21.7531 18.8798 21.3549 19.9912 20.686 20.1054 19.4772 16.9935 18.9394 17.9191 18.5215 17.8427 17.2951 15.0591 16.701 15.991 16.512 15.6425 15.1892 13.3907 14.6795 14.1173 14.5462 13.7965 13.3998 11.8118 12.7466 12.4415 12.8158 11.9305 11.6194 10.2705 10.8811 10.8865 11.1647 10.2395 9.9928 8.8391 9.36907 9.38292 9.60726 8.72304 8.5529 7.67559 7.90173 7.98227 8.13016 7.38964 7.27642 6.40183 6.58977 6.85416 6.94397 6.17621 6.06239 5.29751 5.42342 5.66717 5.76763 5.00926 4.91436 4.29279 4.22969 4.48351 4.57066 4.01496 3.9616 3.37069 3.29611 3.50629 3.55199 3.05696 3.04482 2.50906 2.50006 2.66114 2.66811 2.2891 2.27602 1.68962 1.60816 1.8325 1.84528 1.53429 1.50919 1.02231 0.968453 1.03676 1.06422 0.929841 0.897017 18.854 24.7087 14.9303 14.9303 24.1852 21.833 27.564 30.4896 23.3937 25.6453 35.4857 29.3547 36.1503 58.2967 32.8395 38.6617 54.4727 52.9295 45.1164 53.0346 49.2776 50.4758 50.5064 48.3535 42.1157 50.2516 45.1428 47.0627 47.7049 45.4023 39.8021 47.8323 42.4436 44.6215 45.1015 42.8205 37.6639 45.3324 40.1741 42.3703 42.6065 40.4363 35.6605 42.7904 38.0837 40.1898 40.1037 38.0232 33.5937 40.1497 35.9068 37.9391 37.4739 35.5406 31.5657 37.3948 33.6636 35.5404 34.925 33.1196 29.594 34.7554 31.4722 33.2116 32.43 30.828 27.6564 32.0497 29.3729 30.8968 30.0106 28.5557 25.7018 29.561 27.3566 28.7327 27.6839 26.3499 23.8605 27.1531 25.2928 26.5576 25.3693 24.1962 22.0436 24.7956 23.3408 24.4344 23.2495 22.2243 20.357 22.5675 21.5502 22.4983 21.2596 20.35 18.6743 20.6346 19.7118 20.559 19.2406 18.4649 17.071 18.5888 18.0316 18.7353 17.4498 16.7754 15.543 16.7046 16.3983 17.0164 15.7568 15.1647 14.1141 15.0104 14.8061 15.3492 14.0543 13.5611 12.698 13.2971 13.339 13.7833 12.5531 12.151 11.3731 11.8197 11.9199 12.2762 11.1706 10.8272 10.0969 10.4075 10.6157 10.9245 9.77356 9.51114 8.84739 9.03582 9.28827 9.52022 8.47943 8.24962 7.65775 7.72209 8.02828 8.23436 7.40827 7.17143 6.53196 6.63566 6.86332 7.08812 6.17421 6.08117 5.55447 5.51941 5.74506 5.81995 5.13818 5.10256 4.56899 4.41202 4.77769 4.79437 4.21705 4.19356 3.61145 3.49021 3.74443 3.75509 3.35364 3.32665 2.76083 2.69484 2.89388 2.91475 2.54291 2.50635 1.90891 1.86161 1.99353 2.02716 1.72061 1.71541 1.17184 1.06976 1.22498 1.23427 1.06423 1.04849 18.322 16.5381 12.7421 12.7421 17.4081 15.6826 24.266 22.4884 20.6642 21.9759 25.0031 20.466 30.166 29.6791 27.8145 31.4882 32.4276 26.6615 34.2507 44.482 33.2189 38.2943 40.2431 38.222 35.5471 40.4702 38.711 40.2435 37.4035 35.0444 33.6319 37.8794 36.0158 37.9632 35.2121 32.7689 31.9054 35.7009 33.965 36.0659 33.1702 30.7937 30.3028 33.681 32.1317 34.2052 31.2391 29.0393 28.7412 31.6696 30.5093 32.4119 29.3262 27.2904 27.1739 29.5839 28.7756 30.5423 27.4577 25.602 25.641 27.5812 27.0563 28.6724 25.6901 24.0214 24.1324 25.7141 25.5257 26.9618 23.9802 22.4696 22.6277 23.9579 23.8024 25.1194 22.2824 20.9576 21.2083 22.1509 22.2577 23.3995 20.7075 19.5414 19.7671 20.4957 20.822 21.8142 19.1907 18.1439 18.3993 18.9648 19.2946 20.2012 17.7621 16.8483 17.06 17.3814 17.875 18.6683 16.3361 15.5536 15.7459 15.9642 16.4927 17.1619 14.9948 14.3372 14.5192 14.5865 15.1499 15.7068 13.7172 13.1861 13.2686 13.2263 13.9019 14.3473 12.5287 12.0578 12.0266 11.96 12.5615 12.9671 11.3128 10.9144 10.8966 10.7253 11.3339 11.6812 10.173 9.83231 9.73202 9.59539 10.1063 10.4019 9.06537 8.82293 8.58893 8.42149 8.96325 9.17 7.97864 7.77574 7.48928 7.30183 7.81066 7.98116 6.92055 6.80199 6.46852 6.30958 6.72854 6.82279 5.96967 5.88082 5.46263 5.24583 5.63624 5.7062 5.05083 4.99771 4.49362 4.35483 4.70122 4.74103 4.1418 4.11257 3.54766 3.34105 3.69384 3.71338 3.20865 3.21198 2.64658 2.48996 2.68081 2.66883 2.35586 2.44121 1.84591 1.63479 1.91131 1.82236 1.55085 1.63046 1.02587 0.839704 1.10094 1.0241 0.822182 0.860315 23.4213 14.4355 17.9267 17.9267 16.8387 15.9713 27.5051 19.7251 23.6277 24.0565 21.6707 18.9725 31.786 24.258 29.4614 31.3014 25.9677 21.8694 34.2425 27.9724 32.9667 35.997 28.8542 24.2844 34.8072 32.4885 34.3972 37.9716 29.2988 27.1105 32.1706 29.7526 33.4969 34.9666 27.3873 25.1385 30.4155 27.7476 31.4779 33.052 25.7278 23.5978 28.8164 26.114 29.8148 31.3195 24.3407 22.3215 27.2901 24.6699 28.2367 29.6993 22.9462 21.1094 25.7652 23.1919 26.6563 28.0005 21.6379 20.0228 24.3482 21.8054 25.1531 26.3382 20.4463 18.9401 22.8675 20.5628 23.6288 24.7623 19.2186 17.925 21.4312 19.1744 22.1613 23.1183 18.044 16.9329 20.0682 17.9849 20.7953 21.6188 16.9797 15.9873 18.6925 16.8732 19.3616 20.1161 15.8571 15.0342 17.4335 15.7234 18.0751 18.6938 14.8694 14.1317 16.2147 14.6699 16.7582 17.3183 13.882 13.2414 14.9348 13.5993 15.4792 15.9726 12.8786 12.3305 13.719 12.5562 14.2157 14.6463 11.9464 11.4717 12.5728 11.5743 13.0369 13.4194 10.9513 10.5896 11.4498 10.5327 11.8628 12.1468 10.0135 9.7269 10.3508 9.55607 10.7485 10.9691 9.12473 8.90016 9.22422 8.54694 9.57142 9.74795 8.1792 7.99298 8.14211 7.6354 8.44518 8.59642 7.26176 7.11627 7.0886 6.66752 7.38204 7.50057 6.34509 6.25129 6.07216 5.70462 6.30855 6.38234 5.44742 5.40007 5.0981 4.77055 5.28081 5.3092 4.5969 4.56466 4.14658 3.92272 4.27204 4.29169 3.71182 3.73329 3.21605 3.0152 3.35767 3.32054 2.87005 2.90603 2.33517 2.09377 2.42068 2.37565 2.06112 2.08658 1.50936 1.32184 1.50499 1.47131 1.25928 1.31303 0.772425 0.585921 0.821417 0.781277 0.577312 0.615563 32.0845 19.4989 26.8135 26.8135 22.4083 22.2368 35.5682 23.0704 31.0954 30.9362 25.5888 24.8227 39.4272 26.5895 36.619 37.042 28.3581 26.7063 41.08 28.2176 39.3411 40.5576 29.4082 27.0237 40.7668 28.2401 39.6214 41.4711 28.8602 26.2862 38.9199 26.0746 38.3056 40.2905 25.1697 23.9422 34.6512 24.1391 34.5185 35.2109 23.4752 22.297 32.1923 22.575 32.2462 32.9564 21.9518 20.9135 30.0851 21.2195 30.2051 30.8305 20.6331 19.7444 28.068 19.9423 28.2535 28.7833 19.3798 18.5936 26.0991 18.7491 26.3471 26.822 18.2377 17.5417 24.2087 17.635 24.4566 24.8896 17.1275 16.4764 22.3967 16.5499 22.6809 23.1033 16.0433 15.4613 20.6534 15.5745 21.0253 21.4154 15.0461 14.5571 19.0547 14.521 19.4319 19.7526 14.0208 13.6072 17.5508 13.6017 17.8595 18.1295 13.1041 12.7273 16.0248 12.6645 16.4322 16.6849 12.2371 11.8844 14.6231 11.7706 14.921 15.176 11.318 11.0165 13.2495 10.8814 13.6968 13.9162 10.4635 10.1781 12.0154 10.0333 12.333 12.557 9.62521 9.40362 10.7886 9.15952 11.1437 11.3157 8.7905 8.6078 9.6242 8.33744 9.95266 10.0934 7.97352 7.82156 8.5125 7.53699 8.81756 8.93807 7.2145 7.05367 7.46265 6.64568 7.72397 7.86356 6.36115 6.28295 6.39766 5.80393 6.69291 6.75037 5.52077 5.48824 5.39704 4.94453 5.64013 5.65655 4.71337 4.66021 4.44662 4.10091 4.60953 4.65221 3.92212 3.91148 3.51115 3.25209 3.67295 3.67425 3.12619 3.14081 2.61862 2.44096 2.73239 2.71039 2.29913 2.37067 1.81419 1.60674 1.90473 1.8262 1.52351 1.59385 1.06727 0.781939 1.09921 1.026 0.811639 0.881434 0.46752 0.374025 0.459589 0.447888 0.41414 0.370867 43.2382 28.2922 37.426 37.426 31.4327 31.86 46.9817 31.2778 41.7716 41.0012 34.6832 35.2035 51.3172 34.9891 47.9789 47.3859 37.4129 37.6301 52.7174 36.0885 50.5138 50.3256 37.8403 37.7059 51.6417 34.928 50.1512 50.3368 36.3399 36.0396 48.8671 32.6122 47.8639 48.2055 33.6441 33.248 45.051 27.7943 44.3712 44.7931 28.7046 28.9103 39.7895 25.5887 39.2727 39.0831 26.2191 26.509 36.4581 23.7185 36.0691 35.8178 24.261 24.5779 33.3861 22.0297 33.189 32.9189 22.4283 22.7408 30.602 20.4026 30.5128 30.2492 20.6953 21.008 27.9585 18.8075 27.9322 27.6593 19.0289 19.3112 25.4583 17.3559 25.5022 25.2531 17.4826 17.7385 23.1075 15.9526 23.215 22.9843 15.9414 16.1622 20.8933 14.7011 21.069 20.8707 14.6326 14.7678 18.8265 13.3628 19.0421 18.9278 13.3301 13.4653 16.8879 12.2106 17.0993 16.9732 12.0438 12.1707 15.1033 11.0829 15.2525 15.1324 10.967 11.0262 13.3426 10.1349 13.6613 13.6161 9.86142 9.90766 11.8485 9.08629 12.127 12.0855 8.8823 8.89641 10.3177 8.18252 10.6394 10.6261 7.915 7.91275 9.00025 7.29508 9.2776 9.27961 7.04241 7.03998 7.74728 6.3611 8.06112 8.05978 6.11644 6.16392 6.56873 5.53987 6.8543 6.79874 5.30271 5.32675 5.45099 4.77917 5.7567 5.72809 4.50342 4.5435 4.43383 3.94211 4.71423 4.66482 3.71405 3.78437 3.53325 3.10326 3.7388 3.65844 2.94264 3.04827 2.64502 2.39194 2.81961 2.70226 2.22854 2.29514 1.77635 1.62589 1.91561 1.84092 1.49775 1.5723 1.02811 0.895976 1.10219 1.03192 0.806281 0.913252 0.438358 0.362298 0.52686 0.466966 0.313314 0.330404 0.443091 0.610964 0.411689 0.555013 0.710395 0.549222 57.0434 39.1017 50.3921 50.3921 42.6978 43.8331 60.7965 42.3147 55.0181 53.3838 46.705 48.6004 67.0006 47.3893 63.086 61.0474 50.4821 52.3274 68.536 48.7868 65.9229 64.0971 51.0479 52.6718 66.6225 47.4299 64.8397 63.315 49.1312 50.5373 62.6329 44.274 61.3716 60.1148 45.6305 46.8525 57.4312 40.1802 56.5447 55.5067 41.3217 42.4204 51.4084 34.6336 51.0022 50.0994 35.7753 37.0047 45.4292 31.5094 44.7741 43.7109 32.5357 33.7032 40.9931 28.879 40.5541 39.55 29.644 30.6668 36.9797 26.3467 36.6885 35.8257 26.9589 27.8828 33.3431 23.9688 33.1404 32.3704 24.4735 25.2999 29.976 21.6959 29.923 29.2388 22.0756 22.8147 26.8541 19.5882 26.8705 26.2583 19.8629 20.462 23.8888 17.5772 23.9404 23.4557 17.7708 18.3251 21.238 15.7192 21.3873 20.9268 15.8035 16.2812 18.7641 13.9237 18.8369 18.4376 14.0006 14.3941 16.3593 12.1729 16.4908 16.1699 12.2865 12.6513 14.1957 10.7359 14.4819 14.1718 10.645 10.9684 12.2861 9.40423 12.4172 12.1288 9.29968 9.51869 10.3416 8.08366 10.6329 10.4558 7.89457 8.07508 8.66434 6.87841 8.98579 8.83859 6.71291 6.84211 7.12551 5.8668 7.38915 7.27747 5.63174 5.73431 5.7394 4.86645 6.08303 5.99769 4.63819 4.711 4.57013 3.95661 4.85877 4.79106 3.65534 3.7031 3.37022 3.14736 3.64814 3.60503 2.8783 2.88559 2.43526 2.43556 2.69818 2.6963 2.20868 2.18606 1.6407 1.66351 1.86924 1.89311 1.49792 1.53136 0.92341 1.0347 1.15556 1.12046 0.837096 0.886702 0.472512 0.570211 0.618541 0.598816 0.468496 0.430318 0.544634 0.633649 0.593246 0.679022 0.619981 0.547499 0.983247 1.07294 0.947222 1.02544 1.11162 1.02071 
SCALARS volume float 1
LOOKUP_TABLE default
0.000325088 0.000323725 0.000324418 0.000324418 0.000325007 0.000324292 0.000326098 0.000324639 0.000325717 0.000326461 0.000325128 0.000324384 0.000326135 0.000324715 0.000325641 0.000326393 0.000325153 0.000324442 0.000326114 0.000324757 0.000325652 0.000326368 0.000325156 0.000324473 0.000326088 0.000324793 0.000325674 0.000326359 0.000325158 0.000324511 0.000326051 0.000324837 0.000325689 0.000326339 0.000325161 0.000324549 0.000326013 0.000324887 0.000325699 0.000326313 0.000325159 0.000324588 0.000325979 0.000324932 0.000325702 0.000326275 0.000325163 0.000324644 0.000325949 0.000324965 0.000325712 0.000326232 0.000325176 0.000324697 0.000325919 0.000325021 0.000325717 0.000326198 0.000325186 0.000324742 0.000325885 0.000325057 0.000325708 0.000326154 0.000325199 0.000324797 0.00032585 0.000325088 0.000325707 0.00032611 0.000325216 0.000324851 0.000325821 0.000325145 0.0003257 0.000326067 0.00032524 0.00032491 0.000325793 0.000325182 0.000325693 0.000326024 0.000325255 0.000324963 0.000325766 0.000325217 0.000325688 0.000325981 0.00032527 0.000325013 0.000325745 0.000325248 0.000325675 0.000325932 0.000325299 0.000325066 0.000325716 0.000325287 0.000325662 0.000325895 0.000325311 0.000325106 0.000325685 0.000325322 0.000325652 0.000325858 0.000325332 0.000325155 0.000325668 0.000325348 0.000325642 0.000325819 0.000325347 0.000325203 0.000325645 0.000325367 0.000325632 0.000325775 0.000325371 0.000325245 0.00032562 0.000325401 0.000325623 0.000325749 0.000325379 0.000325272 0.000325605 0.000325419 0.000325605 0.000325712 0.000325402 0.000325317 0.000325589 0.000325446 0.000325599 0.000325684 0.000325412 0.00032535 0.000325579 0.000325462 0.000325595 0.000325657 0.000325437 0.000325387 0.000325565 0.000325481 0.00032558 0.00032563 0.000325446 0.000325411 0.000325556 0.000325492 0.00032557 0.000325605 0.000325464 0.000325431 0.000325541 0.000325508 0.000325561 0.000325594 0.000325474 0.000325454 0.000325532 0.000325516 0.000325553 0.000325573 0.000325491 0.000325489 0.000325526 0.000325512 0.000325544 0.000325545 0.000325486 0.000325488 0.000325526 0.000325525 0.000325541 0.00032554 0.000325508 0.000325506 0.000325521 0.000325531 0.000325531 0.000325533 0.000325515 0.00032552 0.000325518 0.000325527 0.000325528 0.000325523 0.000325517 0.00032553 0.000325453 0.000324919 0.000325156 0.000325156 0.00032559 0.000324721 0.000325898 0.000324886 0.00032562 0.000326466 0.000325268 0.000324444 0.000326149 0.000324755 0.00032571 0.000326535 0.000325247 0.000324474 0.000326146 0.000324783 0.000325717 0.000326491 0.000325243 0.000324519 0.000326114 0.000324829 0.000325722 0.000326447 0.000325242 0.000324559 0.000326069 0.000324876 0.000325719 0.000326404 0.000325236 0.000324603 0.000326037 0.000324922 0.000325726 0.00032636 0.000325236 0.000324642 0.000326009 0.000324966 0.000325724 0.00032632 0.000325242 0.000324694 0.000325976 0.000325017 0.000325727 0.000326276 0.000325255 0.000324746 0.00032594 0.000325052 0.000325712 0.000326223 0.000325254 0.000324785 0.000325906 0.000325092 0.00032571 0.00032618 0.000325269 0.000324841 0.00032588 0.000325131 0.000325703 0.000326132 0.000325274 0.000324886 0.000325848 0.000325176 0.0003257 0.000326088 0.000325297 0.000324941 0.000325817 0.000325208 0.000325685 0.000326042 0.000325308 0.000324986 0.000325785 0.000325245 0.000325674 0.000325997 0.000325323 0.000325033 0.000325765 0.000325268 0.000325664 0.000325954 0.000325337 0.000325086 0.000325732 0.000325294 0.00032565 0.000325902 0.000325349 0.00032513 0.000325709 0.00032533 0.000325645 0.000325864 0.000325363 0.00032517 0.000325686 0.000325353 0.000325636 0.00032583 0.000325379 0.000325209 0.000325662 0.000325383 0.000325619 0.000325789 0.000325397 0.000325253 0.000325641 0.000325403 0.000325618 0.000325762 0.000325401 0.000325283 0.000325624 0.000325421 0.000325603 0.000325721 0.00032542 0.000325323 0.000325607 0.00032544 0.000325597 0.000325694 0.00032543 0.000325349 0.000325598 0.000325463 0.000325587 0.000325668 0.000325447 0.000325385 0.000325577 0.000325469 0.000325575 0.000325637 0.000325454 0.000325405 0.000325566 0.00032548 0.000325567 0.000325615 0.000325465 0.00032543 0.000325556 0.000325498 0.000325564 0.000325599 0.000325479 0.000325452 0.000325557 0.000325504 0.000325553 0.00032558 0.000325483 0.000325465 0.00032555 0.000325513 0.000325547 0.000325564 0.000325495 0.000325481 0.000325531 0.000325515 0.000325537 0.000325552 0.0003255 0.000325491 0.000325531 0.000325521 0.000325535 0.000325543 0.000325511 0.000325505 0.000325528 0.000325524 0.000325525 0.000325531 0.000325515 0.00032551 0.000325801 0.000325163 0.000325735 0.000325735 0.000325462 0.000324675 0.00032592 0.000325067 0.000325688 0.00032646 0.00032534 0.000324634 0.000326038 0.000324841 0.000325749 0.000326449 0.000325278 0.000324543 0.000326126 0.000324831 0.000325771 0.000326506 0.000325258 0.000324562 0.000326122 0.000324873 0.000325772 0.00032647 0.000325264 0.0003246 0.000326087 0.000324916 0.000325758 0.000326424 0.000325266 0.000324637 0.000326053 0.000324958 0.000325752 0.000326383 0.000325269 0.000324681 0.000326029 0.000324998 0.000325746 0.000326335 0.000325282 0.00032473 0.000325992 0.000325038 0.000325729 0.000326283 0.000325287 0.000324774 0.000325964 0.000325071 0.000325719 0.000326234 0.000325298 0.00032483 0.000325923 0.000325113 0.000325708 0.000326177 0.000325309 0.000324875 0.000325882 0.000325148 0.000325694 0.00032613 0.000325325 0.000324922 0.000325864 0.000325184 0.000325679 0.000326083 0.000325333 0.000324977 0.000325833 0.000325215 0.000325676 0.000326033 0.000325348 0.000325025 0.000325798 0.000325242 0.000325666 0.00032599 0.000325353 0.000325069 0.000325783 0.000325272 0.000325655 0.000325939 0.000325373 0.00032511 0.000325748 0.000325303 0.000325637 0.0003259 0.000325385 0.000325153 0.000325728 0.000325329 0.000325627 0.00032586 0.000325393 0.0003252 0.000325707 0.000325361 0.00032563 0.000325823 0.000325412 0.00032523 0.000325677 0.000325375 0.000325606 0.000325788 0.000325418 0.000325271 0.000325654 0.000325398 0.0003256 0.000325748 0.000325421 0.000325292 0.000325636 0.000325422 0.000325593 0.000325722 0.000325442 0.000325335 0.000325623 0.000325438 0.000325585 0.000325693 0.000325449 0.000325364 0.000325607 0.00032545 0.000325576 0.000325661 0.000325461 0.000325389 0.000325593 0.000325466 0.000325566 0.000325638 0.000325468 0.000325409 0.000325581 0.000325477 0.000325559 0.000325618 0.000325476 0.000325428 0.000325561 0.000325488 0.000325546 0.000325594 0.00032548 0.000325451 0.000325554 0.000325487 0.000325548 0.000325577 0.000325491 0.000325468 0.000325541 0.000325501 0.000325535 0.000325558 0.000325504 0.000325484 0.00032555 0.000325514 0.000325536 0.000325556 0.000325508 0.000325496 0.000325536 0.000325516 0.000325534 0.000325546 0.000325512 0.000325505 0.000325533 0.000325521 0.000325525 0.000325531 0.000325523 0.000325522 0.000326142 0.000325293 0.000326281 0.000326281 0.000325361 0.000324567 0.000326016 0.000325067 0.000325803 0.000326587 0.000325297 0.00032462 0.000326033 0.000325005 0.00032583 0.000326501 0.000325291 0.000324644 0.000326068 0.000324921 0.000325833 0.000326478 0.000325273 0.000324612 0.000326111 0.000324932 0.000325829 0.000326491 0.00032528 0.000324644 0.000326093 0.000324957 0.000325802 0.00032644 0.000325285 0.000324671 0.000326072 0.000325 0.000325779 0.000326395 0.0003253 0.00032472 0.000326033 0.000325039 0.000325767 0.000326348 0.000325322 0.000324774 0.000326009 0.000325065 0.000325741 0.000326291 0.000325328 0.000324819 0.00032597 0.000325097 0.000325722 0.000326233 0.000325341 0.000324873 0.000325949 0.000325138 0.000325714 0.000326184 0.000325353 0.000324916 0.000325909 0.000325173 0.000325689 0.000326128 0.000325362 0.000324964 0.00032588 0.000325195 0.000325672 0.000326071 0.00032538 0.000325012 0.000325843 0.00032523 0.000325657 0.000326026 0.000325387 0.000325053 0.000325814 0.000325264 0.000325646 0.00032598 0.000325396 0.000325099 0.000325784 0.000325285 0.000325635 0.000325932 0.000325413 0.00032515 0.000325765 0.000325313 0.000325626 0.00032589 0.000325424 0.00032519 0.000325739 0.000325339 0.000325611 0.000325846 0.00032544 0.000325226 0.000325709 0.000325363 0.0003256 0.000325814 0.000325441 0.000325262 0.000325689 0.000325379 0.000325592 0.000325771 0.000325451 0.000325291 0.000325661 0.000325405 0.000325581 0.000325741 0.000325459 0.00032532 0.000325646 0.000325419 0.000325569 0.000325707 0.000325462 0.000325353 0.000325629 0.000325435 0.000325567 0.000325677 0.000325473 0.000325378 0.000325607 0.000325448 0.000325551 0.000325647 0.000325479 0.000325402 0.000325594 0.000325466 0.00032556 0.000325637 0.000325492 0.000325434 0.000325587 0.000325476 0.000325546 0.000325604 0.000325497 0.000325445 0.000325569 0.000325479 0.000325537 0.000325589 0.000325494 0.000325464 0.000325564 0.000325495 0.000325545 0.000325575 0.000325502 0.000325475 0.000325549 0.0003255 0.000325534 0.000325561 0.000325505 0.000325485 0.000325548 0.000325501 0.000325527 0.000325548 0.000325515 0.000325501 0.000325538 0.000325507 0.000325526 0.00032554 0.000325509 0.000325503 0.000325535 0.000325507 0.000325534 0.00032554 0.000325515 0.000325506 0.000326527 0.000325355 0.000326833 0.000326833 0.000325218 0.000324427 0.000326134 0.00032502 0.000325942 0.000326727 0.000325231 0.00032456 0.000326057 0.000325058 0.000325938 0.000326605 0.000325258 0.000324643 0.000326062 0.000325038 0.000325916 0.000326529 0.000325272 0.000324666 0.000326083 0.000325009 0.000325885 0.000326492 0.000325289 0.000324676 0.000326097 0.000325017 0.000325854 0.000326469 0.000325308 0.000324717 0.000326078 0.000325047 0.000325816 0.000326408 0.000325339 0.000324762 0.00032605 0.000325081 0.000325783 0.000326361 0.000325347 0.000324807 0.000326016 0.000325101 0.000325752 0.000326294 0.000325369 0.000324856 0.000325986 0.000325136 0.000325722 0.000326236 0.000325384 0.000324913 0.000325952 0.000325166 0.000325703 0.000326176 0.000325402 0.000324964 0.000325923 0.000325197 0.000325683 0.000326122 0.000325418 0.000325016 0.000325891 0.000325225 0.000325665 0.000326068 0.000325432 0.000325064 0.000325864 0.000325249 0.000325643 0.000326012 0.000325435 0.000325108 0.000325827 0.00032528 0.000325628 0.000325956 0.000325448 0.000325146 0.000325799 0.000325313 0.000325618 0.00032592 0.000325463 0.000325194 0.00032577 0.000325326 0.000325605 0.000325874 0.000325465 0.000325228 0.000325744 0.000325344 0.000325589 0.000325826 0.000325472 0.000325255 0.000325714 0.000325372 0.000325576 0.000325793 0.000325481 0.000325296 0.000325691 0.000325384 0.000325566 0.000325751 0.000325481 0.000325329 0.000325673 0.000325409 0.000325569 0.000325721 0.000325489 0.000325357 0.000325641 0.000325422 0.000325555 0.000325688 0.0003255 0.000325379 0.00032563 0.000325441 0.000325541 0.000325662 0.000325503 0.000325402 0.000325618 0.000325453 0.000325536 0.000325637 0.000325508 0.000325426 0.000325602 0.000325473 0.000325539 0.000325621 0.000325507 0.000325443 0.000325576 0.000325472 0.000325527 0.000325591 0.000325513 0.000325471 0.000325571 0.000325479 0.000325535 0.000325576 0.000325511 0.000325472 0.000325559 0.000325495 0.000325521 0.000325559 0.000325514 0.000325484 0.000325551 0.000325498 0.000325525 0.000325555 0.000325512 0.000325496 0.000325544 0.000325498 0.000325524 0.00032554 0.000325518 0.000325506 0.000325541 0.000325504 0.000325525 0.000325537 0.000325515 0.000325504 0.000325541 0.000325512 0.000325536 0.000325547 0.000325513 0.000325514 0.000326957 0.000325332 0.000327393 0.000327393 0.000325029 0.000324269 0.00032627 0.000324951 0.00032612 0.000326878 0.000325141 0.000324489 0.000326116 0.000325085 0.000326078 0.000326728 0.000325203 0.000324601 0.000326084 0.000325103 0.000326019 0.000326619 0.000325248 0.000324666 0.000326087 0.000325097 0.00032596 0.000326543 0.000325295 0.000324712 0.000326095 0.000325089 0.000325905 0.000326488 0.000325332 0.00032475 0.000326081 0.000325097 0.000325849 0.000326432 0.000325358 0.000324794 0.000326068 0.000325119 0.000325803 0.000326368 0.000325386 0.000324854 0.000326027 0.000325145 0.000325766 0.0003263 0.000325409 0.000324914 0.000326002 0.000325169 0.000325732 0.000326228 0.000325433 0.000324963 0.000325965 0.0003252 0.000325697 0.000326168 0.000325449 0.000325022 0.000325935 0.000325225 0.000325677 0.000326106 0.000325466 0.000325068 0.000325894 0.000325245 0.000325643 0.000326042 0.000325471 0.000325115 0.000325871 0.000325272 0.000325628 0.000325984 0.000325493 0.000325162 0.000325829 0.000325301 0.000325612 0.000325944 0.000325501 0.000325201 0.000325807 0.00032532 0.000325592 0.000325893 0.000325502 0.000325241 0.000325774 0.000325343 0.000325584 0.000325845 0.000325508 0.000325274 0.000325745 0.000325366 0.000325566 0.000325801 0.000325521 0.000325311 0.000325721 0.000325383 0.000325551 0.000325762 0.000325521 0.000325339 0.000325699 0.000325402 0.000325544 0.000325727 0.000325527 0.000325368 0.00032567 0.00032542 0.000325534 0.000325694 0.000325524 0.00032539 0.000325648 0.000325434 0.000325528 0.000325662 0.000325519 0.000325413 0.00032563 0.000325444 0.000325531 0.000325637 0.000325533 0.00032544 0.000325609 0.000325454 0.000325518 0.00032561 0.000325536 0.00032546 0.000325591 0.000325472 0.000325513 0.000325589 0.000325535 0.000325473 0.000325578 0.00032548 0.000325509 0.000325572 0.000325529 0.000325476 0.000325567 0.000325493 0.000325508 0.000325562 0.000325529 0.000325496 0.000325551 0.000325492 0.000325512 0.000325546 0.000325531 0.000325505 0.000325548 0.000325503 0.000325515 0.00032554 0.00032553 0.000325508 0.00032554 0.000325503 0.000325508 0.000325529 0.000325523 0.000325514 0.000325539 0.000325505 0.00032552 0.000325529 0.000325521 0.000325512 0.000325541 0.000325508 0.000325521 0.000325529 0.000325513 0.000325514 0.000327314 0.000325212 0.000327845 0.000327845 0.000324782 0.000324056 0.000326383 0.000324878 0.000326324 0.000327053 0.000325026 0.000324381 0.000326199 0.000325085 0.00032623 0.000326874 0.000325122 0.000324532 0.000326153 0.000325138 0.00032615 0.000326741 0.000325203 0.000324631 0.000326132 0.000325138 0.000326054 0.000326626 0.000325265 0.000324707 0.000326127 0.000325142 0.000325977 0.000326535 0.000325333 0.000324785 0.00032611 0.00032514 0.000325904 0.000326453 0.000325373 0.00032484 0.000326088 0.000325155 0.00032584 0.000326374 0.000325421 0.00032491 0.000326058 0.000325183 0.000325784 0.000326297 0.000325445 0.000324963 0.00032602 0.000325207 0.000325736 0.000326219 0.000325477 0.000325029 0.000325988 0.000325227 0.000325702 0.000326151 0.000325496 0.000325081 0.000325946 0.000325251 0.000325665 0.000326081 0.00032551 0.000325138 0.000325914 0.000325273 0.000325642 0.000326015 0.000325524 0.000325175 0.000325877 0.000325297 0.000325612 0.000325961 0.000325541 0.000325224 0.000325838 0.000325324 0.00032559 0.000325906 0.000325542 0.000325262 0.00032581 0.000325338 0.000325571 0.000325851 0.000325553 0.000325299 0.00032577 0.000325363 0.00032555 0.000325804 0.000325553 0.000325334 0.000325751 0.000325381 0.000325543 0.000325763 0.00032556 0.00032537 0.000325725 0.000325399 0.000325532 0.000325722 0.000325569 0.000325395 0.000325693 0.000325415 0.000325519 0.000325693 0.00032557 0.00032542 0.000325669 0.000325432 0.000325512 0.000325662 0.000325568 0.000325446 0.000325646 0.000325443 0.00032551 0.000325632 0.000325564 0.000325461 0.000325621 0.000325464 0.000325497 0.0003256 0.000325563 0.000325471 0.000325607 0.000325471 0.000325492 0.000325585 0.000325563 0.000325496 0.000325585 0.000325476 0.000325496 0.000325562 0.000325555 0.000325507 0.000325574 0.000325484 0.0003255 0.000325547 0.000325553 0.000325512 0.000325557 0.000325494 0.000325489 0.000325529 0.000325553 0.000325517 0.000325545 0.000325503 0.000325491 0.000325528 0.000325542 0.000325518 0.000325531 0.000325505 0.000325498 0.000325521 0.000325538 0.000325526 0.000325536 0.000325505 0.000325499 0.000325512 0.000325537 0.000325523 0.000325529 0.000325508 0.000325507 0.000325521 0.000325527 0.000325523 0.000325532 0.000325498 0.00032552 0.000325525 0.000325518 0.000325506 0.000327 0.000325037 0.000327833 0.000327833 0.000324517 0.000323749 0.000326556 0.00032482 0.000326513 0.000327292 0.000324879 0.000324171 0.000326383 0.000325029 0.000326404 0.000327115 0.000324998 0.000324369 0.000326309 0.000325113 0.000326302 0.000326933 0.000325116 0.000324528 0.000326262 0.000325133 0.000326181 0.000326771 0.000325212 0.000324656 0.000326231 0.000325158 0.000326076 0.000326633 0.000325309 0.000324773 0.000326182 0.000325162 0.00032597 0.000326507 0.000325369 0.000324859 0.000326148 0.000325188 0.000325888 0.000326399 0.000325437 0.000324952 0.000326099 0.000325202 0.000325813 0.000326299 0.000325477 0.000325029 0.000326048 0.000325224 0.000325749 0.000326198 0.000325509 0.000325091 0.000326013 0.000325254 0.000325704 0.000326122 0.000325541 0.000325154 0.00032596 0.000325277 0.000325664 0.000326051 0.000325559 0.000325211 0.000325934 0.000325301 0.000325632 0.00032598 0.000325574 0.000325255 0.000325884 0.00032532 0.0003256 0.000325918 0.000325586 0.000325308 0.000325856 0.000325346 0.000325579 0.000325857 0.000325595 0.000325341 0.000325815 0.000325363 0.000325553 0.000325807 0.000325603 0.000325383 0.000325771 0.000325379 0.000325544 0.000325764 0.0003256 0.000325407 0.000325746 0.000325401 0.000325525 0.000325717 0.000325609 0.000325439 0.000325714 0.000325414 0.000325509 0.000325679 0.000325608 0.000325463 0.000325687 0.000325437 0.000325498 0.000325642 0.000325611 0.000325486 0.00032565 0.000325444 0.000325491 0.000325616 0.000325602 0.000325498 0.000325629 0.000325463 0.000325482 0.000325585 0.0003256 0.000325515 0.00032562 0.000325469 0.000325478 0.000325563 0.000325593 0.000325532 0.000325594 0.000325484 0.000325481 0.000325542 0.000325598 0.000325535 0.000325582 0.000325492 0.000325466 0.000325529 0.000325582 0.000325544 0.000325561 0.000325506 0.000325474 0.000325511 0.00032558 0.000325552 0.000325546 0.00032551 0.000325478 0.000325505 0.000325578 0.000325556 0.000325533 0.000325509 0.000325482 0.000325505 0.000325563 0.00032555 0.000325523 0.000325513 0.000325482 0.000325494 0.000325546 0.000325548 0.000325527 0.000325518 0.000325499 0.000325497 0.000325555 0.00032555 0.000325516 0.00032551 0.000325501 0.000325506 0.000325533 0.000325525 0.000325525 0.000325507 0.000325509 0.000325516 0.000325519 0.000325526 0.000325483 0.000323687 0.000324384 0.000324384 0.000325312 0.000324791 0.000326192 0.000324432 0.00032569 0.000326213 0.000325065 0.000324371 0.000326042 0.000324706 0.000325666 0.000326368 0.000325066 0.000324366 0.000326018 0.00032479 0.000325674 0.000326378 0.000325084 0.000324408 0.000326001 0.000324836 0.000325691 0.00032637 0.000325086 0.000324436 0.000325983 0.000324876 0.000325705 0.000326358 0.000325098 0.000324482 0.000325956 0.000324911 0.000325712 0.00032633 0.000325108 0.000324532 0.000325927 0.00032495 0.000325717 0.000326295 0.00032513 0.000324586 0.000325907 0.000324992 0.00032572 0.000326266 0.000325143 0.000324641 0.000325877 0.000325029 0.000325711 0.000326214 0.000325161 0.000324701 0.000325853 0.000325069 0.000325713 0.000326175 0.000325181 0.000324758 0.000325831 0.000325115 0.000325707 0.000326131 0.000325198 0.00032481 0.000325795 0.00032515 0.000325693 0.000326081 0.000325226 0.000324874 0.000325771 0.000325182 0.000325682 0.000326034 0.000325242 0.00032493 0.000325751 0.000325219 0.00032568 0.000325993 0.000325269 0.000324988 0.000325728 0.000325247 0.000325665 0.000325946 0.000325283 0.000325043 0.000325702 0.000325286 0.000325659 0.000325899 0.000325308 0.000325095 0.000325681 0.000325318 0.000325654 0.000325868 0.000325331 0.000325145 0.000325661 0.000325343 0.000325637 0.000325823 0.000325349 0.00032519 0.000325642 0.000325368 0.000325624 0.000325783 0.000325364 0.000325234 0.000325625 0.000325395 0.000325615 0.000325745 0.000325388 0.000325278 0.000325607 0.000325412 0.000325603 0.000325713 0.000325405 0.000325314 0.000325589 0.000325436 0.000325592 0.000325683 0.000325428 0.00032535 0.000325574 0.000325461 0.000325581 0.000325658 0.000325439 0.000325379 0.000325566 0.000325474 0.000325569 0.000325629 0.000325461 0.000325416 0.000325551 0.000325483 0.000325567 0.000325611 0.000325467 0.000325438 0.000325546 0.000325497 0.000325556 0.000325586 0.000325483 0.00032546 0.000325543 0.000325507 0.000325546 0.00032557 0.000325494 0.000325485 0.000325534 0.000325517 0.000325544 0.000325552 0.000325503 0.000325501 0.000325524 0.000325523 0.000325532 0.000325534 0.000325511 0.000325508 0.000325525 0.00032552 0.000325526 0.000325529 0.000325521 0.000325523 0.000325515 0.000325515 0.000325528 0.000325526 0.000325515 0.000325518 0.000325692 0.00032492 0.000325034 0.000325034 0.000326022 0.000325459 0.000325513 0.000324353 0.000325127 0.000325688 0.000324854 0.000323939 0.000326053 0.000324745 0.000325757 0.000326681 0.00032512 0.000324274 0.000326066 0.000324821 0.000325718 0.000326568 0.000325163 0.000324359 0.000326041 0.000324871 0.000325706 0.000326514 0.000325179 0.000324425 0.000326014 0.000324914 0.000325707 0.000326464 0.000325192 0.000324488 0.000325983 0.000324955 0.000325708 0.000326414 0.000325198 0.000324547 0.000325953 0.000324996 0.000325711 0.000326364 0.000325205 0.0003246 0.000325924 0.000325036 0.000325705 0.000326312 0.000325222 0.000324667 0.000325892 0.000325072 0.000325702 0.000326259 0.000325238 0.000324723 0.000325866 0.000325108 0.000325694 0.00032621 0.000325247 0.00032478 0.000325841 0.000325145 0.000325687 0.000326156 0.000325269 0.00032484 0.000325811 0.000325181 0.000325677 0.000326107 0.000325284 0.000324899 0.000325787 0.000325208 0.00032567 0.000326056 0.000325297 0.000324954 0.000325759 0.000325241 0.000325667 0.00032601 0.000325312 0.000325007 0.00032574 0.000325271 0.000325648 0.000325953 0.000325333 0.000325054 0.000325715 0.000325306 0.000325639 0.000325919 0.000325348 0.000325107 0.000325688 0.000325332 0.000325629 0.000325871 0.000325358 0.000325154 0.000325679 0.000325354 0.000325628 0.000325832 0.000325378 0.000325202 0.000325648 0.000325376 0.000325619 0.000325795 0.000325394 0.000325243 0.000325636 0.000325403 0.000325604 0.000325756 0.000325414 0.000325278 0.000325618 0.000325421 0.000325593 0.000325729 0.000325425 0.000325318 0.000325605 0.00032544 0.000325585 0.000325692 0.000325438 0.000325351 0.000325588 0.000325459 0.00032558 0.000325666 0.000325452 0.000325384 0.000325576 0.000325463 0.000325571 0.000325639 0.000325459 0.000325408 0.000325567 0.000325484 0.000325565 0.000325616 0.000325469 0.000325431 0.000325558 0.000325494 0.00032556 0.000325598 0.000325483 0.000325457 0.000325547 0.000325495 0.000325546 0.000325573 0.000325492 0.000325471 0.000325538 0.000325508 0.000325541 0.000325562 0.000325499 0.000325488 0.000325538 0.000325518 0.000325539 0.000325551 0.00032551 0.000325501 0.000325532 0.000325512 0.000325528 0.000325537 0.000325511 0.00032551 0.000325526 0.000325523 0.000325529 0.00032553 0.00032551 0.000325519 0.000325784 0.000325051 0.000325605 0.000325605 0.00032571 0.000325215 0.000325803 0.000324981 0.000325495 0.000325991 0.000325368 0.00032441 0.000325906 0.000324928 0.000325667 0.000326621 0.000325222 0.000324302 0.000326081 0.000324885 0.000325736 0.000326659 0.000325231 0.000324408 0.00032607 0.000324912 0.000325744 0.000326569 0.000325246 0.000324475 0.000326043 0.000324949 0.000325735 0.000326509 0.000325255 0.000324537 0.000326021 0.000324995 0.000325728 0.000326449 0.00032527 0.000324598 0.000325993 0.000325032 0.000325721 0.000326395 0.000325274 0.000324657 0.000325959 0.000325069 0.000325717 0.000326335 0.000325288 0.000324716 0.00032593 0.000325103 0.00032571 0.000326284 0.000325293 0.000324768 0.000325893 0.00032514 0.000325697 0.000326223 0.000325312 0.00032483 0.000325866 0.000325166 0.000325679 0.000326163 0.000325319 0.000324886 0.000325835 0.000325206 0.000325676 0.000326111 0.000325339 0.000324937 0.000325808 0.000325228 0.000325655 0.000326058 0.000325345 0.000324991 0.000325789 0.000325265 0.000325659 0.000326013 0.000325357 0.000325041 0.000325759 0.000325289 0.000325643 0.000325959 0.000325381 0.000325092 0.00032573 0.000325313 0.000325629 0.000325918 0.000325389 0.000325134 0.000325708 0.000325342 0.000325617 0.000325873 0.000325401 0.000325178 0.000325692 0.000325367 0.000325614 0.000325837 0.000325418 0.00032523 0.000325668 0.000325388 0.000325606 0.000325795 0.000325417 0.000325256 0.000325648 0.000325404 0.000325595 0.000325756 0.000325436 0.000325298 0.000325627 0.00032542 0.00032558 0.000325718 0.000325445 0.000325327 0.000325616 0.000325435 0.000325576 0.000325694 0.000325454 0.000325361 0.000325605 0.000325455 0.000325568 0.000325662 0.000325464 0.000325394 0.000325584 0.000325462 0.000325566 0.000325636 0.000325468 0.000325412 0.000325575 0.00032548 0.000325559 0.000325616 0.000325482 0.000325434 0.000325559 0.000325491 0.00032555 0.000325597 0.000325488 0.000325453 0.000325555 0.000325492 0.000325541 0.000325575 0.000325493 0.000325465 0.000325546 0.000325502 0.000325539 0.000325566 0.0003255 0.000325489 0.000325539 0.000325507 0.000325539 0.00032555 0.000325506 0.000325497 0.000325533 0.000325509 0.000325529 0.000325538 0.000325513 0.000325502 0.000325527 0.000325518 0.000325521 0.000325532 0.000325515 0.000325516 0.000325908 0.000325182 0.000326129 0.000326129 0.000325361 0.000324924 0.000326026 0.000325083 0.000325828 0.000326266 0.000325391 0.000324507 0.000326001 0.000325081 0.000325728 0.000326609 0.000325316 0.000324506 0.000326022 0.000324938 0.000325762 0.000326573 0.000325281 0.000324467 0.00032609 0.000324957 0.000325775 0.000326591 0.000325282 0.000324532 0.000326065 0.000324985 0.000325768 0.00032652 0.000325292 0.000324584 0.000326041 0.000325018 0.000325751 0.000326462 0.00032531 0.000324648 0.000326016 0.000325051 0.000325733 0.000326398 0.000325322 0.000324708 0.000325984 0.000325087 0.000325723 0.000326339 0.000325329 0.00032476 0.000325952 0.000325123 0.00032571 0.000326282 0.000325343 0.000324817 0.000325917 0.000325153 0.000325687 0.000326215 0.000325349 0.000324873 0.000325891 0.000325183 0.000325673 0.000326151 0.00032537 0.000324937 0.000325856 0.000325218 0.000325666 0.000326101 0.000325377 0.000324981 0.000325828 0.000325241 0.00032565 0.000326047 0.000325394 0.000325032 0.000325802 0.000325278 0.000325635 0.000325998 0.000325407 0.000325087 0.000325772 0.000325297 0.000325626 0.000325947 0.000325413 0.000325126 0.000325749 0.000325324 0.000325615 0.000325903 0.000325425 0.000325173 0.00032572 0.000325344 0.000325604 0.000325857 0.000325435 0.000325214 0.000325698 0.000325368 0.000325602 0.000325823 0.000325446 0.000325247 0.000325679 0.00032539 0.000325584 0.000325783 0.000325452 0.000325287 0.00032566 0.000325401 0.000325578 0.000325743 0.000325454 0.000325324 0.000325639 0.000325419 0.000325573 0.000325704 0.000325467 0.00032535 0.000325619 0.000325438 0.000325563 0.000325679 0.000325478 0.000325378 0.000325604 0.00032545 0.000325556 0.000325657 0.000325487 0.000325406 0.000325593 0.000325467 0.000325551 0.000325632 0.000325485 0.000325422 0.000325575 0.000325478 0.000325544 0.000325608 0.000325494 0.000325447 0.00032557 0.000325483 0.000325542 0.00032559 0.000325492 0.00032546 0.00032556 0.00032549 0.000325538 0.00032557 0.000325505 0.00032548 0.000325547 0.000325497 0.00032553 0.000325555 0.000325505 0.000325486 0.000325543 0.000325505 0.000325534 0.000325552 0.000325505 0.000325495 0.000325542 0.000325505 0.000325534 0.000325543 0.000325509 0.000325509 0.000325539 0.000325511 0.000325533 0.000325533 0.000325517 0.000325506 0.000326087 0.000325252 0.000326655 0.000326655 0.000325032 0.000324615 0.000326239 0.000325153 0.000326154 0.000326573 0.00032535 0.000324533 0.000326107 0.000325066 0.000325841 0.000326656 0.000325336 0.000324561 0.000326068 0.000325064 0.000325831 0.000326605 0.000325321 0.000324579 0.000326066 0.000325012 0.00032581 0.000326553 0.000325325 0.000324586 0.000326089 0.000325031 0.000325797 0.000326538 0.000325327 0.000324639 0.000326058 0.000325055 0.00032578 0.000326469 0.000325344 0.000324698 0.000326037 0.00032508 0.00032575 0.000326397 0.000325362 0.000324759 0.000326004 0.000325117 0.000325726 0.000326331 0.000325377 0.000324813 0.000325976 0.000325151 0.000325706 0.000326272 0.000325393 0.000324877 0.000325941 0.000325175 0.000325686 0.000326203 0.000325405 0.000324932 0.000325909 0.000325201 0.00032567 0.000326144 0.000325419 0.000324985 0.000325877 0.000325233 0.000325655 0.00032609 0.000325422 0.000325034 0.000325845 0.000325259 0.000325633 0.000326022 0.000325437 0.000325082 0.000325813 0.000325288 0.000325622 0.000325978 0.000325455 0.000325137 0.000325781 0.000325311 0.000325611 0.00032593 0.000325458 0.000325174 0.000325759 0.000325334 0.000325598 0.000325882 0.000325468 0.000325211 0.000325733 0.000325356 0.000325586 0.000325843 0.000325472 0.000325251 0.000325705 0.000325376 0.000325573 0.000325795 0.000325473 0.000325285 0.000325687 0.000325392 0.000325566 0.000325755 0.000325487 0.00032532 0.000325659 0.00032541 0.000325557 0.000325725 0.000325493 0.000325348 0.000325642 0.000325431 0.000325549 0.000325694 0.000325496 0.000325376 0.00032563 0.000325443 0.000325544 0.000325664 0.0003255 0.000325408 0.000325607 0.000325452 0.000325543 0.000325635 0.0003255 0.000325422 0.000325591 0.000325465 0.000325531 0.000325609 0.000325507 0.000325443 0.000325579 0.000325476 0.000325532 0.000325596 0.000325508 0.000325461 0.000325567 0.000325482 0.000325531 0.000325578 0.00032551 0.00032547 0.000325558 0.000325498 0.000325525 0.000325565 0.00032552 0.000325494 0.000325549 0.000325494 0.000325524 0.00032555 0.000325511 0.000325492 0.000325541 0.000325504 0.000325518 0.000325538 0.000325512 0.000325499 0.000325536 0.000325505 0.000325524 0.000325538 0.000325513 0.000325502 0.000325541 0.000325503 0.000325525 0.000325536 0.000325509 0.000325507 0.000326326 0.000325253 0.000327178 0.000327178 0.000324688 0.000324273 0.000326456 0.000325192 0.000326487 0.000326904 0.000325275 0.000324531 0.00032621 0.000325034 0.000325982 0.000326726 0.000325298 0.000324569 0.000326132 0.000325087 0.000325925 0.000326654 0.000325323 0.000324617 0.000326111 0.000325088 0.000325883 0.000326589 0.000325344 0.000324667 0.000326096 0.000325075 0.000325843 0.000326521 0.000325366 0.0003247 0.000326083 0.000325095 0.000325803 0.000326471 0.000325373 0.000324749 0.000326064 0.000325121 0.000325767 0.000326393 0.000325407 0.000324816 0.000326028 0.000325138 0.000325733 0.000326327 0.000325416 0.000324874 0.000325996 0.000325173 0.000325708 0.000326251 0.000325443 0.000324938 0.000325957 0.000325197 0.000325681 0.000326187 0.000325452 0.000324991 0.000325924 0.000325231 0.000325658 0.000326121 0.000325469 0.000325045 0.000325885 0.000325254 0.000325633 0.000326059 0.000325476 0.000325088 0.000325851 0.000325276 0.000325618 0.000326007 0.000325488 0.00032514 0.000325827 0.000325303 0.000325603 0.000325952 0.000325493 0.000325184 0.000325796 0.000325331 0.000325593 0.000325902 0.0003255 0.000325223 0.000325765 0.000325345 0.00032557 0.000325848 0.000325506 0.000325263 0.00032574 0.000325369 0.000325564 0.000325807 0.000325517 0.000325305 0.000325711 0.000325388 0.000325557 0.000325769 0.00032552 0.000325332 0.000325687 0.000325402 0.000325544 0.000325732 0.000325523 0.000325362 0.000325661 0.000325422 0.000325536 0.000325697 0.000325523 0.000325387 0.000325642 0.000325435 0.000325527 0.000325663 0.000325527 0.000325414 0.000325627 0.000325446 0.000325524 0.000325638 0.000325533 0.000325434 0.000325609 0.000325468 0.000325519 0.000325617 0.000325531 0.000325452 0.000325584 0.000325471 0.000325516 0.000325595 0.000325531 0.000325467 0.000325573 0.00032548 0.000325512 0.000325575 0.000325528 0.000325481 0.000325563 0.000325494 0.000325512 0.000325559 0.00032553 0.000325495 0.000325555 0.000325492 0.000325513 0.000325548 0.000325526 0.000325501 0.000325547 0.000325502 0.000325513 0.000325538 0.000325527 0.00032551 0.000325545 0.000325501 0.000325512 0.000325529 0.000325523 0.000325518 0.000325531 0.000325506 0.000325523 0.000325527 0.000325518 0.000325507 0.000325532 0.000325496 0.000325514 0.000325525 0.000325513 0.000325512 0.00032654 0.000325179 0.000327637 0.000327637 0.000324333 0.000323918 0.000326649 0.000325182 0.000326816 0.000327235 0.000325148 0.000324478 0.000326327 0.000325 0.000326167 0.000326838 0.000325225 0.000324541 0.000326225 0.000325087 0.000326048 0.000326733 0.000325292 0.000324625 0.000326176 0.000325115 0.00032597 0.000326638 0.000325342 0.000324691 0.000326148 0.000325129 0.0003259 0.000326553 0.000325382 0.000324756 0.000326123 0.000325133 0.000325841 0.000326467 0.000325413 0.000324812 0.000326094 0.000325147 0.000325789 0.000326391 0.000325443 0.000324877 0.000326057 0.000325174 0.000325745 0.000326313 0.000325468 0.000324944 0.000326014 0.000325201 0.00032571 0.000326235 0.000325489 0.000325002 0.000325982 0.000325229 0.000325672 0.00032616 0.000325506 0.000325059 0.000325939 0.000325253 0.000325642 0.000326089 0.000325519 0.000325111 0.000325902 0.000325273 0.000325621 0.00032603 0.000325524 0.000325161 0.00032587 0.000325303 0.000325602 0.000325966 0.000325536 0.000325206 0.000325833 0.000325323 0.000325579 0.00032591 0.000325547 0.000325251 0.000325799 0.000325349 0.000325567 0.000325863 0.000325553 0.000325287 0.000325769 0.000325365 0.000325548 0.000325814 0.00032556 0.000325327 0.000325737 0.000325384 0.00032554 0.000325773 0.00032556 0.000325355 0.00032571 0.000325401 0.000325527 0.000325732 0.000325555 0.000325387 0.000325687 0.000325417 0.000325524 0.000325692 0.00032556 0.000325408 0.000325663 0.000325437 0.000325511 0.000325663 0.000325562 0.000325433 0.000325637 0.000325447 0.000325509 0.000325638 0.000325562 0.000325449 0.000325612 0.000325462 0.000325494 0.000325607 0.000325565 0.000325475 0.000325601 0.000325471 0.000325496 0.000325586 0.000325561 0.000325487 0.000325583 0.000325488 0.000325494 0.000325568 0.000325556 0.000325498 0.000325571 0.000325493 0.000325499 0.000325557 0.000325554 0.000325507 0.000325557 0.000325501 0.000325495 0.000325541 0.000325553 0.000325521 0.000325546 0.000325501 0.000325496 0.000325528 0.000325543 0.000325521 0.000325538 0.000325509 0.0003255 0.000325522 0.000325543 0.000325522 0.00032553 0.000325507 0.0003255 0.000325521 0.00032554 0.000325523 0.000325532 0.000325512 0.000325508 0.000325525 0.000325521 0.00032552 0.000325538 0.000325503 0.000325519 0.00032552 0.000325522 0.000325511 0.000326348 0.000325137 0.000327872 0.000327872 0.000324049 0.000323566 0.000326706 0.000325109 0.00032701 0.000327497 0.00032494 0.000324241 0.000326502 0.000324953 0.000326355 0.000327058 0.000325111 0.000324419 0.000326382 0.00032505 0.000326208 0.000326902 0.000325227 0.000324565 0.000326311 0.000325099 0.000326091 0.000326754 0.000325305 0.000324676 0.000326256 0.000325128 0.000325988 0.00032662 0.000325375 0.000324783 0.000326208 0.000325149 0.000325898 0.000326491 0.000325431 0.000324865 0.00032616 0.000325175 0.000325826 0.000326394 0.00032548 0.000324951 0.00032611 0.000325201 0.000325761 0.000326292 0.000325513 0.000325014 0.000326061 0.000325228 0.000325705 0.000326204 0.000325532 0.000325087 0.000326016 0.000325249 0.000325673 0.000326118 0.000325559 0.000325149 0.000325965 0.000325273 0.000325639 0.00032605 0.00032557 0.000325191 0.000325922 0.000325303 0.000325605 0.000325985 0.000325584 0.000325243 0.000325883 0.000325325 0.000325578 0.00032592 0.000325594 0.000325285 0.00032584 0.000325345 0.000325555 0.000325864 0.000325599 0.00032533 0.000325806 0.000325365 0.000325545 0.000325814 0.000325597 0.000325362 0.000325774 0.00032538 0.000325531 0.000325767 0.000325601 0.00032539 0.000325738 0.000325406 0.000325514 0.000325725 0.000325603 0.000325421 0.000325708 0.000325417 0.000325505 0.000325687 0.0003256 0.000325443 0.000325676 0.000325441 0.000325495 0.000325652 0.000325604 0.000325471 0.000325658 0.000325453 0.000325481 0.000325614 0.000325605 0.000325486 0.000325629 0.000325466 0.000325479 0.000325599 0.000325595 0.000325506 0.000325611 0.000325478 0.000325481 0.00032557 0.000325596 0.000325517 0.000325594 0.000325483 0.000325471 0.000325551 0.000325588 0.000325535 0.000325574 0.000325487 0.000325479 0.000325531 0.000325577 0.000325537 0.000325557 0.000325509 0.000325479 0.000325519 0.000325581 0.000325552 0.000325547 0.000325512 0.000325475 0.000325504 0.000325573 0.000325551 0.000325542 0.000325508 0.000325479 0.000325501 0.000325559 0.000325547 0.000325528 0.000325512 0.000325487 0.000325498 0.00032555 0.000325547 0.00032552 0.000325514 0.000325499 0.000325502 0.000325543 0.000325541 0.00032552 0.000325513 0.0003255 0.000325502 0.000325537 0.000325525 0.000325534 0.000325508 0.000325504 0.000325517 0.000325526 0.000325526 0.000325471 0.000323638 0.000324311 0.000324311 0.000325303 0.000324773 0.000326271 0.000324348 0.000325608 0.000326142 0.000325147 0.00032449 0.000326059 0.000324654 0.000325643 0.000326304 0.000325065 0.000324399 0.000325982 0.000324788 0.000325687 0.000326358 0.000325052 0.000324395 0.000325951 0.000324848 0.000325703 0.000326365 0.000325057 0.000324419 0.000325948 0.000324895 0.000325717 0.000326359 0.000325073 0.000324468 0.000325926 0.000324932 0.00032573 0.000326337 0.000325083 0.000324509 0.000325904 0.000324966 0.000325724 0.000326301 0.000325102 0.000324561 0.000325889 0.000325004 0.000325725 0.000326268 0.000325123 0.000324616 0.00032586 0.000325038 0.000325718 0.000326226 0.000325143 0.000324676 0.000325843 0.000325086 0.000325718 0.000326186 0.000325169 0.000324739 0.000325817 0.000325115 0.000325708 0.000326139 0.000325191 0.000324801 0.000325792 0.000325149 0.000325702 0.000326092 0.000325208 0.000324862 0.000325768 0.000325183 0.000325696 0.000326043 0.000325238 0.000324916 0.000325745 0.000325216 0.00032568 0.000326003 0.000325256 0.000324972 0.000325724 0.000325259 0.000325671 0.000325955 0.000325282 0.000325026 0.000325693 0.000325285 0.000325656 0.000325912 0.000325302 0.00032508 0.000325678 0.000325307 0.000325642 0.000325864 0.000325321 0.000325129 0.000325663 0.000325346 0.000325634 0.000325826 0.00032535 0.000325183 0.000325637 0.000325371 0.000325626 0.000325792 0.000325365 0.000325223 0.000325622 0.00032539 0.000325614 0.000325756 0.000325393 0.000325272 0.000325607 0.000325417 0.0003256 0.000325721 0.000325408 0.000325306 0.00032559 0.000325434 0.00032559 0.000325692 0.000325426 0.000325343 0.000325577 0.000325456 0.000325577 0.00032566 0.000325444 0.00032538 0.000325564 0.000325475 0.00032557 0.000325634 0.000325457 0.000325409 0.000325561 0.000325489 0.000325565 0.000325613 0.000325468 0.000325433 0.000325547 0.000325491 0.000325552 0.000325587 0.000325484 0.000325458 0.000325537 0.000325507 0.000325551 0.000325577 0.00032549 0.000325475 0.00032553 0.000325515 0.000325539 0.000325554 0.000325513 0.000325495 0.000325527 0.000325519 0.000325529 0.000325548 0.000325514 0.000325516 0.000325526 0.000325517 0.000325526 0.000325523 0.000325519 0.000325517 0.000325524 0.000325527 0.00032552 0.000325522 0.000325519 0.000325513 0.000325643 0.000324901 0.000324958 0.000324958 0.000326062 0.00032553 0.000325647 0.000324326 0.000325081 0.000325613 0.000324988 0.000324313 0.000326155 0.000324601 0.000325804 0.000326483 0.000325015 0.000324221 0.000326046 0.000324796 0.000325753 0.000326552 0.000325089 0.000324301 0.00032601 0.000324867 0.000325724 0.000326516 0.000325114 0.000324369 0.00032598 0.000324915 0.000325725 0.000326474 0.000325145 0.000324433 0.000325951 0.000324963 0.000325709 0.000326425 0.000325158 0.000324493 0.00032593 0.000325 0.000325715 0.000326382 0.00032518 0.000324563 0.000325903 0.000325032 0.000325707 0.000326325 0.000325196 0.000324628 0.000325871 0.00032507 0.000325702 0.000326271 0.000325211 0.000324686 0.000325854 0.000325105 0.000325689 0.000326216 0.00032523 0.000324753 0.000325825 0.00032514 0.000325687 0.000326165 0.000325249 0.000324815 0.000325805 0.00032518 0.000325682 0.000326118 0.000325271 0.00032488 0.000325779 0.000325213 0.000325675 0.000326067 0.000325285 0.000324932 0.000325757 0.000325242 0.000325661 0.000326015 0.000325307 0.000324988 0.000325728 0.00032527 0.000325652 0.000325971 0.000325322 0.000325047 0.000325705 0.000325301 0.000325641 0.000325917 0.000325338 0.000325092 0.000325684 0.000325322 0.00032563 0.000325876 0.000325358 0.000325145 0.000325667 0.000325348 0.000325623 0.000325837 0.000325377 0.000325189 0.000325649 0.000325377 0.000325607 0.000325795 0.000325389 0.000325231 0.000325632 0.000325405 0.000325602 0.000325761 0.000325413 0.000325279 0.000325618 0.000325419 0.000325593 0.000325727 0.000325426 0.00032531 0.000325594 0.000325434 0.000325578 0.000325695 0.000325434 0.000325343 0.00032559 0.000325451 0.000325579 0.00032567 0.000325452 0.000325383 0.000325577 0.000325466 0.000325571 0.00032564 0.000325459 0.0003254 0.000325563 0.000325479 0.000325559 0.000325617 0.000325475 0.000325431 0.000325561 0.000325492 0.000325548 0.000325593 0.000325486 0.000325457 0.000325548 0.000325503 0.000325553 0.000325582 0.000325489 0.00032547 0.000325543 0.000325505 0.000325544 0.000325563 0.000325496 0.000325489 0.000325539 0.000325512 0.000325539 0.000325547 0.00032551 0.000325506 0.000325531 0.000325514 0.000325528 0.000325532 0.000325514 0.000325506 0.000325524 0.000325517 0.000325523 0.000325531 0.000325521 0.000325516 0.000325794 0.000325035 0.0003255 0.0003255 0.00032572 0.000325241 0.000325834 0.000324994 0.000325423 0.000325903 0.000325558 0.000324824 0.000325737 0.000324629 0.000325459 0.000326193 0.000324977 0.000324048 0.000326049 0.000324856 0.000325776 0.000326711 0.000325148 0.000324278 0.000326036 0.000324915 0.000325749 0.000326623 0.0003252 0.000324381 0.000326011 0.000324965 0.00032573 0.000326551 0.000325218 0.000324453 0.000325984 0.000324999 0.000325716 0.000326484 0.00032524 0.000324531 0.000325955 0.000325037 0.00032571 0.000326422 0.000325253 0.000324594 0.000325925 0.000325067 0.000325695 0.000326355 0.000325262 0.000324661 0.0003259 0.000325106 0.000325694 0.000326298 0.000325276 0.000324721 0.000325871 0.000325134 0.000325682 0.000326239 0.000325299 0.000324789 0.000325844 0.000325172 0.000325674 0.000326184 0.00032531 0.000324848 0.000325813 0.000325204 0.000325662 0.000326125 0.000325326 0.000324908 0.000325791 0.000325236 0.000325657 0.000326075 0.00032534 0.000324962 0.000325771 0.000325263 0.000325644 0.000326023 0.000325359 0.000325022 0.000325742 0.000325291 0.000325633 0.00032597 0.000325367 0.000325072 0.000325723 0.000325316 0.000325622 0.000325918 0.00032538 0.000325118 0.000325693 0.000325339 0.000325616 0.000325878 0.000325392 0.000325162 0.000325681 0.000325369 0.000325605 0.000325835 0.000325412 0.000325211 0.000325658 0.000325379 0.000325598 0.000325799 0.000325421 0.000325251 0.000325644 0.000325404 0.000325588 0.000325758 0.000325433 0.000325291 0.000325625 0.000325421 0.000325587 0.000325729 0.000325446 0.000325326 0.000325609 0.000325436 0.000325571 0.000325691 0.000325452 0.00032535 0.000325592 0.000325453 0.000325566 0.000325668 0.000325465 0.000325385 0.000325583 0.000325465 0.000325561 0.00032564 0.000325472 0.00032541 0.000325573 0.000325473 0.000325554 0.000325615 0.000325477 0.000325438 0.000325563 0.000325478 0.000325549 0.000325589 0.000325491 0.000325456 0.000325553 0.0003255 0.000325542 0.000325577 0.000325495 0.00032547 0.000325547 0.000325502 0.000325537 0.000325562 0.000325501 0.000325483 0.000325544 0.000325508 0.000325531 0.000325549 0.000325507 0.000325502 0.000325534 0.000325507 0.00032553 0.000325535 0.00032551 0.000325505 0.000325531 0.000325513 0.000325525 0.00032553 0.000325514 0.000325517 0.000325927 0.000325139 0.00032602 0.00032602 0.000325432 0.000324981 0.000325945 0.000325062 0.000325761 0.000326213 0.000325472 0.000324762 0.000325919 0.000325043 0.000325661 0.000326372 0.000325322 0.000324392 0.000325959 0.000324972 0.000325713 0.000326645 0.000325243 0.000324328 0.000326064 0.000324979 0.000325755 0.000326673 0.000325265 0.000324433 0.000326046 0.000325 0.000325752 0.000326586 0.00032528 0.000324514 0.000326028 0.000325032 0.000325736 0.000326506 0.000325299 0.000324586 0.000325994 0.000325069 0.000325725 0.000326441 0.000325313 0.000324649 0.000325965 0.000325098 0.000325705 0.000326371 0.000325329 0.000324716 0.000325935 0.000325134 0.0003257 0.000326315 0.00032534 0.000324778 0.000325899 0.000325164 0.000325673 0.000326236 0.000325353 0.000324839 0.000325868 0.000325198 0.000325667 0.000326183 0.000325368 0.000324902 0.000325838 0.000325227 0.000325657 0.000326124 0.000325378 0.000324956 0.000325815 0.000325254 0.000325644 0.000326066 0.000325389 0.00032501 0.000325785 0.000325277 0.000325632 0.000326012 0.000325404 0.000325066 0.000325759 0.000325303 0.000325618 0.000325956 0.000325411 0.00032511 0.000325735 0.000325322 0.000325609 0.000325912 0.000325423 0.000325156 0.000325708 0.000325351 0.000325598 0.000325865 0.000325428 0.000325196 0.000325695 0.000325368 0.000325592 0.000325824 0.000325444 0.00032524 0.000325673 0.000325392 0.00032558 0.000325785 0.000325452 0.000325281 0.000325649 0.000325405 0.000325578 0.00032575 0.000325461 0.000325307 0.00032563 0.000325427 0.000325566 0.00032572 0.000325464 0.000325345 0.000325619 0.000325437 0.000325561 0.00032568 0.000325474 0.000325378 0.000325605 0.000325454 0.000325558 0.000325654 0.000325479 0.000325398 0.000325587 0.000325464 0.000325551 0.000325633 0.000325486 0.000325422 0.000325577 0.000325484 0.000325545 0.000325609 0.000325503 0.000325447 0.000325568 0.000325484 0.000325542 0.000325598 0.000325498 0.000325461 0.000325555 0.000325499 0.000325537 0.000325575 0.000325509 0.000325475 0.000325546 0.000325497 0.000325529 0.000325562 0.000325506 0.000325488 0.000325548 0.0003255 0.00032553 0.000325547 0.000325514 0.0003255 0.000325548 0.000325503 0.000325525 0.000325539 0.000325507 0.00032551 0.000325541 0.000325503 0.00032553 0.000325527 0.00032551 0.000325518 0.000326095 0.000325202 0.000326536 0.000326536 0.000325108 0.000324696 0.000326068 0.00032513 0.000326101 0.000326515 0.000325312 0.00032465 0.000326079 0.000325107 0.000325871 0.000326535 0.000325365 0.000324491 0.000326046 0.000325098 0.000325773 0.000326648 0.000325341 0.000324506 0.000326039 0.000325011 0.000325763 0.0003266 0.000325319 0.000324501 0.000326077 0.000325038 0.000325765 0.000326586 0.000325331 0.000324573 0.000326058 0.000325058 0.000325751 0.000326512 0.000325349 0.000324645 0.000326023 0.000325092 0.000325731 0.000326436 0.00032536 0.000324707 0.000325993 0.000325119 0.00032571 0.000326365 0.00032538 0.00032478 0.00032596 0.000325155 0.000325692 0.000326293 0.00032539 0.000324841 0.000325925 0.000325176 0.000325675 0.000326225 0.000325402 0.000324898 0.0003259 0.000325211 0.000325659 0.000326164 0.000325412 0.000324958 0.000325866 0.000325241 0.000325648 0.000326103 0.000325422 0.000325009 0.000325825 0.00032526 0.000325625 0.000326039 0.000325431 0.000325063 0.000325803 0.000325291 0.000325619 0.000325989 0.000325445 0.000325113 0.000325783 0.000325315 0.000325607 0.00032594 0.000325456 0.000325164 0.000325751 0.000325337 0.000325601 0.000325893 0.000325463 0.000325203 0.000325725 0.000325359 0.000325584 0.000325844 0.00032547 0.000325238 0.000325699 0.000325376 0.000325571 0.000325803 0.000325479 0.000325281 0.000325676 0.000325391 0.000325566 0.000325765 0.000325484 0.000325313 0.000325653 0.000325417 0.000325557 0.000325728 0.000325488 0.000325339 0.000325635 0.000325433 0.000325548 0.000325698 0.000325497 0.000325372 0.00032562 0.000325442 0.000325543 0.000325669 0.000325501 0.000325399 0.000325604 0.000325457 0.00032554 0.000325642 0.000325504 0.000325421 0.000325586 0.000325468 0.000325533 0.000325615 0.000325504 0.000325442 0.00032558 0.000325475 0.000325529 0.000325591 0.000325508 0.000325461 0.000325571 0.00032549 0.000325532 0.00032558 0.000325516 0.000325475 0.000325553 0.000325496 0.000325527 0.000325567 0.000325514 0.000325487 0.000325551 0.000325497 0.000325525 0.000325552 0.000325514 0.000325495 0.000325541 0.000325498 0.000325523 0.000325542 0.000325516 0.000325508 0.000325545 0.000325494 0.000325525 0.000325534 0.000325517 0.000325512 0.000325545 0.000325495 0.000325524 0.000325529 0.000325506 0.000325512 0.000326302 0.000325215 0.000327055 0.000327055 0.000324775 0.000324382 0.000326216 0.00032517 0.000326441 0.000326836 0.000325136 0.000324507 0.000326235 0.000325147 0.000326092 0.000326724 0.000325354 0.000324545 0.000326142 0.000325095 0.000325867 0.000326677 0.000325366 0.000324576 0.000326111 0.000325103 0.00032583 0.000326621 0.000325377 0.000324612 0.00032609 0.000325066 0.000325792 0.000326559 0.000325377 0.000324647 0.000326091 0.000325088 0.000325771 0.000326503 0.000325394 0.000324717 0.000326053 0.000325113 0.000325742 0.000326422 0.000325405 0.000324783 0.000326029 0.000325142 0.000325723 0.000326346 0.000325424 0.000324842 0.000325987 0.000325176 0.000325691 0.000326274 0.000325444 0.00032491 0.000325953 0.000325201 0.00032567 0.000326205 0.000325451 0.000324964 0.000325915 0.00032523 0.000325651 0.000326139 0.00032547 0.000325026 0.000325881 0.000325261 0.000325628 0.000326073 0.000325478 0.000325077 0.000325852 0.000325284 0.000325616 0.000326018 0.000325483 0.000325121 0.000325822 0.000325307 0.000325599 0.000325962 0.000325491 0.000325173 0.000325785 0.000325326 0.000325585 0.000325904 0.000325502 0.000325214 0.000325754 0.000325354 0.000325574 0.000325863 0.000325504 0.000325251 0.000325729 0.000325371 0.000325561 0.000325814 0.000325512 0.000325291 0.000325703 0.000325389 0.000325555 0.000325776 0.000325516 0.000325322 0.000325681 0.00032541 0.000325539 0.000325734 0.00032552 0.000325352 0.000325659 0.000325427 0.000325539 0.000325706 0.000325523 0.000325384 0.000325637 0.000325439 0.000325533 0.000325673 0.000325526 0.000325408 0.000325624 0.000325452 0.00032553 0.000325648 0.000325529 0.000325432 0.000325599 0.000325463 0.000325524 0.00032562 0.000325527 0.000325449 0.000325587 0.000325473 0.000325516 0.000325594 0.000325526 0.000325463 0.000325578 0.000325482 0.000325517 0.000325579 0.000325533 0.000325483 0.000325559 0.000325491 0.000325511 0.000325561 0.000325529 0.000325493 0.000325556 0.000325498 0.00032551 0.000325545 0.000325524 0.0003255 0.000325539 0.000325499 0.000325513 0.000325537 0.000325525 0.000325503 0.000325539 0.000325505 0.000325513 0.000325535 0.000325523 0.000325511 0.00032554 0.000325504 0.000325517 0.000325529 0.000325523 0.000325519 0.000325537 0.000325501 0.000325528 0.000325532 0.000325522 0.000325508 0.000326482 0.000325155 0.000327543 0.000327543 0.000324405 0.000324033 0.000326377 0.000325157 0.00032678 0.000327156 0.000324932 0.000324329 0.000326393 0.000325153 0.000326325 0.000326932 0.000325295 0.000324557 0.000326259 0.000325076 0.00032601 0.00032675 0.00032535 0.000324614 0.000326198 0.000325102 0.000325913 0.00032665 0.000325382 0.000324677 0.000326155 0.00032512 0.000325855 0.000326561 0.000325418 0.000324733 0.000326121 0.000325121 0.000325798 0.000326484 0.000325439 0.000324789 0.000326098 0.000325145 0.000325757 0.000326409 0.000325455 0.000324855 0.000326059 0.000325171 0.000325718 0.00032632 0.000325477 0.000324921 0.000326022 0.000325199 0.00032569 0.000326246 0.000325496 0.000324989 0.000325975 0.000325225 0.000325661 0.000326168 0.000325508 0.000325045 0.000325934 0.000325252 0.000325639 0.000326103 0.000325517 0.000325098 0.000325902 0.000325273 0.000325616 0.000326035 0.000325525 0.000325145 0.000325857 0.000325306 0.000325592 0.000325972 0.000325542 0.000325194 0.000325824 0.00032533 0.000325574 0.000325922 0.000325553 0.000325237 0.000325793 0.000325351 0.000325555 0.000325871 0.000325551 0.00032528 0.000325762 0.000325373 0.000325554 0.000325825 0.000325553 0.000325314 0.000325735 0.000325389 0.000325542 0.000325781 0.000325556 0.000325345 0.000325707 0.000325404 0.000325529 0.000325741 0.000325551 0.000325375 0.000325681 0.000325424 0.000325522 0.000325698 0.000325566 0.000325406 0.000325656 0.000325434 0.000325512 0.000325671 0.000325555 0.00032543 0.000325639 0.000325454 0.000325509 0.000325634 0.000325558 0.000325448 0.000325614 0.000325466 0.000325503 0.000325613 0.00032556 0.000325469 0.000325596 0.000325474 0.000325498 0.000325589 0.000325549 0.000325481 0.000325579 0.00032548 0.000325499 0.000325567 0.000325551 0.000325499 0.000325569 0.000325488 0.000325496 0.000325548 0.000325549 0.000325505 0.000325552 0.0003255 0.000325497 0.000325541 0.000325548 0.000325512 0.000325547 0.000325497 0.000325498 0.000325534 0.000325543 0.00032552 0.00032554 0.000325512 0.000325499 0.000325522 0.000325538 0.000325527 0.000325535 0.000325506 0.00032551 0.000325521 0.000325533 0.000325521 0.00032553 0.000325502 0.000325504 0.000325516 0.000325524 0.000325518 0.000325534 0.000325503 0.000325514 0.000325521 0.000325512 0.000325517 0.000326368 0.000325119 0.000327863 0.000327863 0.000324066 0.000323646 0.000326453 0.000325114 0.000327053 0.000327478 0.000324712 0.000324073 0.000326549 0.000325101 0.000326531 0.000327176 0.000325166 0.000324447 0.000326439 0.000325029 0.000326172 0.000326894 0.000325277 0.000324589 0.000326345 0.000325076 0.000326042 0.000326731 0.00032536 0.000324692 0.000326278 0.000325117 0.000325933 0.000326603 0.000325416 0.000324788 0.000326219 0.000325143 0.000325863 0.000326493 0.000325465 0.000324878 0.000326161 0.000325161 0.000325789 0.000326378 0.000325501 0.000324943 0.000326106 0.00032519 0.000325727 0.000326286 0.000325531 0.000325015 0.00032606 0.000325219 0.000325684 0.0003262 0.000325552 0.000325084 0.000326 0.000325249 0.000325649 0.000326118 0.000325563 0.000325132 0.000325962 0.000325275 0.000325622 0.000326055 0.00032557 0.000325185 0.000325919 0.0003253 0.000325592 0.000325978 0.000325586 0.000325237 0.000325871 0.000325328 0.000325574 0.000325923 0.000325593 0.000325277 0.000325833 0.000325344 0.000325552 0.000325868 0.000325594 0.000325314 0.000325801 0.000325367 0.000325533 0.000325813 0.000325605 0.000325352 0.000325766 0.00032539 0.000325523 0.000325776 0.000325598 0.000325379 0.000325726 0.000325404 0.000325512 0.000325731 0.000325597 0.000325407 0.000325708 0.000325427 0.000325499 0.000325689 0.000325605 0.000325438 0.000325674 0.000325439 0.000325488 0.000325655 0.000325598 0.000325463 0.000325646 0.000325454 0.000325492 0.000325627 0.000325598 0.000325485 0.000325628 0.000325459 0.000325482 0.000325595 0.000325589 0.000325496 0.000325605 0.000325478 0.000325478 0.000325571 0.000325588 0.000325513 0.000325592 0.000325492 0.000325475 0.00032555 0.00032559 0.000325525 0.000325571 0.000325503 0.000325471 0.000325536 0.000325583 0.000325528 0.000325558 0.000325503 0.000325472 0.000325528 0.000325576 0.000325549 0.000325534 0.000325506 0.00032548 0.000325508 0.000325562 0.000325542 0.000325536 0.000325511 0.000325481 0.000325501 0.000325559 0.000325544 0.00032553 0.000325513 0.000325488 0.000325504 0.000325554 0.000325543 0.000325528 0.000325518 0.000325495 0.000325506 0.000325543 0.00032554 0.000325523 0.000325513 0.000325499 0.000325503 0.000325539 0.000325534 0.000325532 0.000325506 0.000325509 0.000325514 0.000325526 0.000325523 0.000325457 0.000323549 0.000324229 0.000324229 0.000325305 0.000324783 0.000326324 0.000324319 0.000325598 0.000326123 0.000325161 0.000324529 0.000326091 0.000324623 0.000325626 0.00032626 0.000325089 0.000324441 0.00032598 0.000324765 0.000325672 0.000326324 0.000325056 0.000324412 0.000325936 0.000324857 0.000325703 0.000326351 0.000325046 0.000324421 0.000325914 0.000324896 0.000325717 0.000326345 0.000325058 0.000324452 0.000325901 0.000324946 0.000325726 0.000326334 0.000325068 0.000324498 0.000325886 0.000324976 0.000325735 0.000326307 0.000325092 0.000324553 0.000325864 0.000325008 0.000325727 0.000326268 0.000325105 0.000324601 0.000325843 0.000325046 0.000325724 0.00032623 0.000325129 0.000324656 0.000325824 0.000325085 0.000325715 0.000326189 0.000325159 0.000324725 0.000325806 0.00032512 0.000325712 0.000326147 0.000325177 0.000324783 0.000325785 0.000325154 0.000325704 0.000326099 0.000325201 0.000324843 0.000325759 0.000325182 0.000325691 0.00032605 0.000325222 0.0003249 0.00032574 0.000325219 0.000325684 0.000326006 0.000325242 0.000324954 0.000325714 0.000325255 0.000325672 0.00032596 0.000325272 0.000325019 0.000325699 0.000325288 0.000325663 0.000325916 0.000325295 0.000325072 0.000325676 0.000325314 0.000325649 0.000325873 0.000325318 0.000325119 0.000325653 0.000325347 0.000325636 0.000325836 0.000325348 0.000325173 0.000325638 0.000325373 0.000325626 0.000325801 0.000325365 0.000325217 0.000325626 0.000325392 0.000325614 0.000325763 0.000325384 0.00032526 0.000325609 0.000325413 0.000325603 0.000325727 0.000325402 0.000325304 0.000325594 0.000325436 0.000325593 0.000325691 0.000325424 0.000325337 0.000325574 0.000325455 0.000325581 0.000325669 0.000325441 0.00032537 0.000325563 0.000325471 0.00032557 0.00032564 0.000325455 0.000325404 0.000325555 0.000325487 0.000325563 0.000325614 0.000325471 0.000325431 0.00032555 0.000325501 0.000325555 0.000325595 0.000325481 0.000325455 0.000325539 0.000325501 0.000325545 0.000325572 0.000325497 0.000325469 0.000325535 0.000325513 0.000325532 0.000325561 0.000325508 0.000325497 0.000325532 0.000325515 0.000325535 0.000325546 0.000325511 0.000325503 0.000325527 0.000325515 0.000325525 0.000325533 0.000325524 0.000325522 0.000325517 0.000325519 0.000325519 0.000325521 0.000325516 0.000325522 0.000325641 0.000324859 0.000324878 0.000324878 0.000326089 0.000325584 0.000325637 0.000324274 0.00032504 0.000325544 0.000324996 0.000324351 0.000326197 0.000324568 0.000325779 0.000326428 0.000325031 0.000324316 0.000326066 0.000324742 0.000325764 0.000326483 0.000325049 0.000324312 0.000326006 0.000324855 0.000325753 0.000326494 0.000325087 0.000324359 0.000325976 0.000324915 0.000325745 0.000326476 0.000325111 0.000324419 0.000325939 0.000324956 0.000325733 0.000326428 0.00032513 0.000324479 0.000325921 0.000324999 0.000325725 0.000326378 0.000325149 0.000324541 0.000325893 0.000325035 0.000325717 0.000326327 0.000325171 0.000324601 0.00032587 0.000325072 0.000325707 0.000326279 0.000325191 0.00032467 0.000325846 0.000325103 0.000325701 0.000326224 0.000325212 0.000324737 0.000325817 0.000325141 0.000325697 0.000326174 0.000325234 0.000324794 0.000325803 0.000325177 0.000325681 0.000326123 0.000325258 0.000324867 0.000325773 0.000325205 0.000325676 0.000326068 0.000325273 0.00032492 0.000325749 0.000325236 0.000325664 0.000326017 0.000325292 0.000324976 0.000325732 0.000325272 0.000325654 0.000325971 0.000325314 0.000325031 0.0003257 0.000325294 0.000325644 0.000325927 0.00032533 0.000325085 0.000325686 0.000325322 0.000325634 0.00032588 0.00032535 0.000325132 0.000325669 0.000325354 0.000325625 0.000325843 0.000325371 0.00032518 0.000325646 0.000325375 0.000325616 0.000325807 0.000325388 0.000325228 0.00032563 0.000325393 0.000325604 0.000325764 0.000325405 0.000325275 0.000325614 0.000325414 0.000325597 0.000325727 0.00032542 0.000325306 0.000325602 0.000325432 0.000325584 0.000325698 0.000325432 0.000325341 0.000325586 0.000325454 0.000325579 0.00032567 0.000325447 0.000325367 0.000325579 0.000325466 0.000325566 0.000325646 0.00032546 0.000325405 0.000325571 0.000325482 0.00032556 0.000325615 0.000325475 0.000325433 0.000325552 0.000325486 0.000325558 0.0003256 0.000325482 0.000325451 0.00032555 0.000325498 0.000325547 0.000325578 0.000325491 0.000325471 0.000325543 0.000325506 0.000325537 0.000325556 0.000325509 0.000325485 0.000325538 0.000325518 0.000325532 0.000325556 0.000325514 0.000325504 0.000325535 0.000325517 0.00032553 0.000325541 0.000325519 0.000325516 0.000325532 0.000325519 0.000325533 0.000325537 0.000325517 0.000325519 0.000325772 0.000325002 0.000325419 0.000325419 0.000325765 0.000325307 0.000325795 0.000324976 0.00032538 0.000325838 0.000325571 0.000324887 0.000325804 0.000324607 0.000325443 0.000326129 0.000325023 0.000324241 0.0003261 0.00032477 0.000325816 0.000326602 0.00032507 0.000324249 0.000326043 0.00032489 0.000325773 0.000326599 0.000325142 0.000324337 0.000325999 0.00032495 0.000325745 0.000326553 0.00032518 0.000324415 0.00032597 0.000324995 0.000325725 0.000326492 0.0003252 0.000324487 0.000325945 0.000325029 0.000325714 0.00032643 0.000325225 0.000324563 0.000325917 0.000325064 0.000325707 0.000326371 0.000325239 0.00032463 0.00032589 0.000325095 0.000325693 0.000326304 0.000325258 0.000324699 0.000325867 0.000325136 0.000325684 0.000326245 0.000325281 0.000324764 0.000325836 0.000325171 0.000325674 0.000326192 0.00032529 0.000324825 0.000325811 0.000325194 0.000325665 0.000326131 0.000325316 0.00032489 0.000325785 0.000325227 0.000325651 0.000326077 0.000325324 0.000324947 0.000325763 0.000325257 0.000325645 0.000326024 0.000325341 0.000325004 0.000325736 0.000325281 0.000325638 0.000325976 0.00032536 0.000325058 0.000325712 0.000325317 0.000325626 0.000325928 0.000325373 0.000325111 0.000325694 0.000325336 0.000325617 0.000325879 0.000325388 0.000325155 0.000325672 0.000325362 0.000325608 0.000325841 0.000325406 0.000325207 0.000325659 0.000325381 0.000325602 0.000325801 0.000325411 0.000325239 0.000325634 0.000325402 0.000325587 0.00032576 0.000325429 0.00032528 0.00032563 0.00032542 0.00032558 0.000325729 0.000325437 0.000325322 0.000325609 0.000325437 0.00032558 0.000325696 0.000325454 0.000325354 0.000325594 0.000325451 0.00032557 0.000325671 0.000325458 0.000325378 0.000325578 0.000325461 0.000325558 0.000325638 0.000325473 0.000325403 0.00032557 0.000325475 0.000325549 0.000325619 0.000325486 0.000325428 0.000325563 0.000325491 0.000325543 0.000325601 0.000325484 0.000325451 0.000325555 0.000325495 0.000325543 0.000325576 0.000325498 0.000325478 0.000325547 0.000325501 0.000325545 0.000325565 0.000325507 0.000325487 0.000325537 0.000325501 0.000325528 0.000325547 0.000325508 0.000325496 0.000325538 0.000325508 0.000325531 0.000325543 0.000325512 0.00032551 0.000325535 0.000325513 0.000325531 0.000325533 0.000325512 0.000325518 0.00032591 0.000325117 0.000325926 0.000325926 0.00032547 0.000325029 0.000325925 0.000325058 0.00032571 0.000326151 0.000325473 0.000324775 0.000325915 0.000325044 0.000325613 0.000326312 0.000325404 0.000324587 0.000325867 0.000324827 0.000325612 0.00032643 0.00032511 0.000324198 0.000326045 0.000324946 0.000325774 0.00032669 0.000325215 0.000324354 0.000326033 0.000324997 0.000325746 0.00032661 0.00032525 0.000324449 0.000326002 0.00032503 0.000325729 0.000326533 0.000325275 0.000324531 0.000325972 0.000325061 0.00032571 0.000326457 0.000325291 0.000324602 0.000325945 0.000325097 0.0003257 0.000326392 0.000325307 0.000324673 0.000325922 0.000325131 0.000325687 0.000326322 0.000325327 0.000324743 0.000325882 0.000325159 0.000325672 0.000326257 0.000325341 0.000324812 0.000325856 0.00032519 0.000325659 0.00032619 0.000325352 0.000324873 0.000325831 0.000325223 0.000325651 0.000326132 0.000325369 0.000324935 0.000325803 0.000325248 0.00032564 0.000326075 0.000325382 0.000324992 0.000325779 0.000325276 0.000325626 0.000326017 0.000325394 0.000325045 0.000325747 0.000325304 0.000325616 0.000325965 0.000325403 0.000325093 0.000325725 0.000325324 0.000325606 0.000325916 0.00032541 0.000325135 0.000325705 0.000325347 0.0003256 0.000325875 0.000325425 0.00032519 0.000325687 0.00032537 0.000325595 0.00032583 0.000325435 0.000325231 0.000325661 0.000325389 0.000325585 0.000325789 0.000325446 0.000325269 0.00032565 0.000325405 0.000325578 0.000325756 0.000325452 0.000325306 0.00032563 0.000325414 0.000325564 0.00032571 0.000325464 0.000325337 0.000325611 0.000325443 0.000325563 0.00032569 0.000325472 0.000325368 0.000325599 0.000325453 0.000325555 0.000325659 0.000325477 0.000325399 0.000325588 0.000325467 0.000325553 0.000325631 0.000325487 0.000325419 0.000325575 0.000325471 0.000325544 0.000325612 0.000325492 0.00032545 0.000325568 0.000325478 0.000325545 0.000325588 0.000325497 0.000325454 0.000325558 0.000325492 0.000325529 0.000325572 0.000325504 0.000325482 0.000325558 0.000325505 0.000325543 0.000325565 0.000325507 0.000325492 0.000325546 0.000325502 0.000325531 0.000325546 0.000325512 0.000325499 0.000325541 0.000325504 0.000325532 0.000325544 0.000325511 0.000325505 0.000325538 0.000325512 0.00032553 0.000325537 0.000325516 0.000325515 0.00032608 0.000325193 0.000326441 0.000326441 0.000325177 0.000324747 0.00032604 0.000325122 0.000326035 0.000326467 0.000325337 0.000324657 0.000326016 0.000325101 0.000325829 0.000326511 0.000325401 0.00032459 0.000325987 0.000325078 0.000325728 0.000326542 0.000325333 0.000324439 0.000326012 0.00032503 0.000325744 0.00032664 0.0003253 0.000324427 0.000326066 0.000325039 0.000325754 0.00032663 0.000325325 0.000324521 0.000326043 0.000325067 0.000325737 0.000326544 0.000325338 0.000324591 0.000326016 0.000325092 0.000325717 0.000326466 0.000325353 0.000324673 0.000325983 0.000325125 0.000325704 0.000326385 0.000325369 0.000324739 0.000325951 0.000325154 0.000325685 0.000326317 0.000325389 0.000324814 0.000325922 0.000325186 0.00032567 0.000326247 0.000325396 0.000324874 0.000325886 0.000325213 0.000325653 0.000326177 0.00032541 0.000324933 0.000325853 0.000325243 0.00032564 0.000326119 0.000325422 0.000324992 0.000325822 0.000325269 0.00032563 0.000326061 0.000325432 0.000325043 0.000325796 0.000325292 0.000325616 0.000326006 0.000325445 0.000325099 0.000325763 0.000325317 0.000325599 0.000325945 0.000325447 0.000325139 0.000325741 0.000325338 0.000325593 0.000325902 0.000325457 0.000325186 0.000325715 0.000325362 0.000325583 0.000325854 0.000325466 0.000325231 0.000325695 0.000325382 0.000325574 0.000325809 0.000325474 0.000325268 0.000325673 0.000325403 0.000325568 0.000325774 0.000325479 0.0003253 0.000325649 0.000325414 0.000325551 0.00032573 0.000325487 0.000325338 0.000325636 0.00032543 0.000325555 0.000325704 0.000325496 0.000325372 0.000325616 0.000325445 0.000325543 0.000325667 0.000325492 0.00032539 0.000325601 0.000325452 0.000325539 0.000325641 0.000325497 0.000325416 0.000325589 0.000325467 0.00032554 0.00032562 0.000325502 0.000325442 0.00032557 0.000325478 0.000325537 0.000325597 0.000325508 0.000325455 0.000325565 0.000325489 0.000325527 0.000325581 0.000325511 0.000325476 0.000325559 0.000325488 0.000325531 0.000325566 0.000325517 0.000325488 0.000325551 0.000325499 0.000325526 0.000325555 0.000325514 0.000325495 0.000325549 0.000325504 0.000325524 0.000325543 0.00032552 0.000325504 0.000325541 0.000325497 0.00032552 0.000325536 0.000325506 0.000325501 0.000325549 0.000325507 0.000325525 0.00032553 0.000325515 0.000325515 0.000326282 0.000325203 0.000326968 0.000326968 0.000324843 0.000324445 0.000326191 0.000325158 0.000326381 0.000326781 0.000325163 0.000324528 0.000326136 0.000325141 0.000326067 0.000326705 0.000325327 0.000324561 0.000326118 0.000325126 0.000325878 0.000326647 0.000325385 0.000324538 0.000326093 0.000325116 0.000325792 0.000326642 0.000325382 0.000324576 0.000326082 0.000325064 0.000325768 0.000326576 0.000325375 0.000324592 0.000326086 0.00032509 0.000325747 0.000326532 0.000325394 0.000324673 0.000326053 0.000325114 0.000325723 0.000326447 0.000325413 0.000324747 0.000326017 0.000325142 0.000325705 0.000326374 0.000325421 0.000324814 0.000325981 0.00032517 0.000325683 0.000326292 0.000325436 0.000324883 0.000325951 0.000325204 0.000325667 0.00032622 0.000325455 0.000324947 0.000325913 0.000325229 0.000325643 0.000326152 0.000325462 0.000325005 0.000325871 0.00032526 0.000325626 0.000326084 0.000325473 0.000325059 0.000325846 0.000325286 0.000325611 0.000326026 0.000325477 0.000325112 0.000325813 0.00032531 0.000325598 0.000325964 0.000325489 0.000325158 0.000325776 0.000325323 0.000325589 0.000325919 0.000325488 0.000325199 0.000325747 0.000325351 0.000325577 0.000325866 0.0003255 0.000325239 0.000325723 0.000325375 0.000325561 0.000325822 0.000325507 0.00032528 0.000325705 0.000325393 0.000325554 0.000325782 0.000325514 0.000325317 0.000325672 0.00032541 0.000325543 0.00032574 0.000325515 0.000325348 0.000325654 0.000325421 0.000325537 0.000325705 0.000325518 0.000325375 0.00032564 0.00032544 0.000325539 0.000325682 0.000325521 0.000325406 0.000325619 0.00032545 0.000325529 0.000325644 0.000325523 0.000325423 0.000325602 0.000325465 0.000325522 0.000325622 0.000325528 0.000325444 0.000325587 0.000325478 0.000325517 0.000325601 0.000325527 0.000325465 0.000325575 0.000325482 0.000325519 0.000325581 0.000325516 0.000325477 0.000325562 0.000325489 0.000325518 0.000325557 0.000325527 0.000325491 0.000325549 0.000325499 0.000325519 0.000325554 0.000325527 0.000325502 0.000325548 0.000325501 0.000325512 0.000325537 0.000325526 0.000325511 0.000325542 0.0003255 0.000325519 0.000325534 0.000325524 0.000325512 0.000325541 0.000325504 0.00032552 0.000325532 0.000325524 0.000325516 0.000325543 0.000325492 0.000325519 0.000325528 0.000325516 0.000325512 0.00032647 0.000325149 0.000327469 0.000327469 0.000324467 0.00032409 0.000326339 0.000325148 0.000326734 0.000327115 0.000324958 0.000324345 0.000326272 0.000325153 0.000326297 0.000326914 0.000325222 0.000324497 0.000326267 0.000325138 0.00032605 0.000326778 0.000325377 0.000324595 0.000326201 0.000325113 0.000325888 0.000326671 0.000325413 0.000324655 0.000326156 0.000325117 0.000325816 0.000326575 0.00032543 0.000324717 0.00032613 0.00032511 0.00032578 0.000326495 0.000325448 0.000324768 0.000326098 0.000325134 0.000325741 0.000326423 0.000325463 0.000324834 0.000326054 0.000325166 0.000325706 0.000326336 0.000325477 0.000324906 0.000326021 0.000325194 0.000325679 0.000326251 0.000325492 0.000324975 0.000325974 0.000325223 0.000325658 0.000326175 0.000325506 0.000325032 0.000325935 0.000325248 0.000325632 0.000326107 0.000325518 0.000325085 0.000325895 0.000325276 0.000325606 0.00032604 0.000325521 0.000325134 0.000325856 0.000325302 0.000325596 0.000325983 0.000325537 0.00032519 0.000325818 0.000325323 0.000325578 0.000325925 0.000325537 0.000325226 0.000325789 0.000325353 0.000325563 0.000325874 0.00032554 0.000325269 0.000325758 0.000325377 0.000325557 0.000325828 0.000325547 0.000325306 0.000325729 0.000325382 0.000325539 0.00032578 0.000325544 0.000325336 0.000325701 0.000325405 0.00032553 0.000325738 0.000325555 0.000325365 0.000325675 0.000325424 0.000325518 0.000325709 0.000325552 0.0003254 0.00032566 0.000325434 0.000325519 0.000325671 0.000325551 0.000325423 0.000325627 0.000325451 0.000325513 0.000325641 0.000325552 0.000325447 0.000325614 0.000325465 0.000325506 0.000325611 0.000325555 0.000325468 0.000325594 0.000325472 0.000325503 0.00032559 0.000325552 0.00032548 0.000325578 0.000325479 0.000325497 0.000325569 0.000325549 0.000325491 0.000325566 0.000325494 0.000325502 0.000325559 0.000325549 0.000325506 0.000325558 0.000325497 0.000325497 0.00032554 0.000325541 0.000325517 0.000325548 0.000325502 0.000325504 0.000325528 0.000325533 0.000325511 0.000325534 0.000325504 0.0003255 0.000325522 0.00032554 0.000325524 0.000325541 0.000325508 0.000325503 0.00032552 0.000325531 0.000325526 0.000325535 0.00032551 0.000325516 0.00032552 0.000325531 0.000325521 0.000325527 0.000325497 0.000325512 0.000325523 0.000325521 0.000325509 0.000326416 0.000325091 0.000327826 0.000327826 0.0003241 0.000323684 0.000326446 0.0003251 0.000327036 0.000327456 0.000324707 0.000324089 0.000326443 0.000325095 0.000326549 0.000327172 0.000325069 0.000324372 0.00032645 0.000325092 0.000326235 0.000326936 0.000325307 0.000324588 0.00032636 0.000325072 0.000326018 0.000326739 0.000325384 0.000324706 0.000326284 0.0003251 0.000325917 0.000326597 0.00032544 0.000324799 0.00032622 0.000325131 0.00032584 0.000326483 0.000325479 0.00032487 0.000326158 0.000325156 0.000325766 0.000326376 0.000325512 0.000324942 0.00032611 0.000325184 0.000325713 0.000326285 0.000325531 0.000325015 0.000326058 0.000325215 0.000325681 0.000326198 0.000325557 0.000325078 0.000326002 0.000325247 0.000325642 0.000326122 0.000325563 0.000325134 0.000325964 0.000325273 0.000325614 0.000326044 0.000325576 0.000325185 0.000325907 0.000325296 0.00032559 0.000325981 0.000325585 0.000325229 0.000325869 0.000325331 0.000325564 0.000325921 0.00032559 0.000325274 0.000325832 0.000325345 0.000325553 0.00032587 0.000325585 0.000325308 0.000325791 0.000325367 0.000325537 0.000325815 0.000325593 0.000325345 0.000325761 0.000325391 0.000325527 0.000325775 0.000325592 0.000325375 0.000325733 0.000325407 0.000325515 0.000325733 0.000325597 0.000325406 0.000325694 0.000325423 0.0003255 0.000325691 0.000325595 0.000325432 0.00032567 0.000325437 0.000325492 0.000325655 0.000325593 0.000325454 0.000325645 0.000325454 0.00032549 0.000325628 0.000325594 0.000325472 0.000325627 0.000325476 0.000325478 0.0003256 0.00032559 0.000325491 0.000325607 0.000325478 0.00032548 0.000325579 0.000325585 0.000325513 0.00032558 0.000325488 0.000325485 0.000325557 0.000325579 0.000325522 0.000325566 0.000325502 0.000325484 0.00032554 0.000325583 0.000325533 0.000325556 0.000325507 0.000325476 0.000325526 0.000325571 0.000325531 0.000325544 0.000325507 0.000325479 0.000325519 0.000325568 0.000325542 0.000325534 0.000325515 0.000325481 0.000325507 0.00032556 0.000325544 0.00032553 0.000325518 0.000325488 0.000325504 0.000325552 0.000325539 0.000325524 0.00032551 0.000325491 0.000325504 0.000325548 0.000325537 0.000325519 0.000325517 0.000325497 0.000325508 0.000325536 0.000325529 0.000325523 0.000325508 0.000325508 0.000325515 0.000325523 0.000325515 0.000325501 0.000323446 0.000324161 0.000324161 0.000325324 0.000324818 0.000326365 0.0003243 0.000325596 0.000326104 0.00032517 0.000324559 0.000326101 0.000324614 0.000325619 0.000326233 0.000325097 0.000324465 0.000325982 0.000324762 0.000325661 0.000326297 0.000325056 0.000324426 0.000325925 0.000324846 0.000325699 0.000326332 0.000325048 0.000324433 0.000325892 0.000324905 0.000325715 0.000326333 0.000325047 0.000324446 0.000325882 0.000324942 0.000325724 0.000326328 0.000325069 0.000324495 0.000325868 0.000324976 0.000325729 0.000326305 0.000325078 0.000324538 0.000325846 0.00032501 0.00032573 0.000326271 0.000325088 0.000324588 0.000325835 0.000325048 0.000325728 0.00032623 0.000325118 0.000324653 0.000325814 0.000325084 0.000325722 0.000326189 0.000325141 0.000324712 0.000325798 0.000325115 0.000325714 0.000326144 0.000325165 0.000324772 0.000325776 0.000325152 0.000325705 0.000326099 0.000325189 0.000324832 0.000325756 0.000325186 0.000325699 0.000326057 0.000325209 0.000324889 0.000325735 0.000325224 0.000325688 0.00032601 0.000325244 0.000324949 0.000325709 0.000325251 0.000325672 0.000325968 0.000325268 0.000325004 0.000325688 0.000325292 0.00032566 0.000325925 0.000325289 0.000325061 0.000325675 0.000325313 0.00032565 0.000325878 0.00032531 0.000325117 0.000325652 0.000325337 0.000325641 0.000325834 0.000325334 0.000325164 0.000325634 0.000325369 0.000325627 0.000325798 0.000325356 0.000325206 0.000325619 0.000325392 0.000325615 0.000325766 0.000325366 0.000325249 0.000325608 0.000325416 0.000325612 0.00032573 0.000325394 0.000325294 0.000325583 0.000325442 0.000325597 0.000325697 0.000325412 0.000325329 0.00032558 0.00032545 0.000325581 0.000325665 0.000325435 0.000325367 0.00032557 0.000325469 0.000325578 0.000325646 0.000325447 0.000325401 0.000325559 0.00032549 0.000325562 0.000325609 0.000325472 0.000325432 0.000325544 0.000325487 0.000325549 0.000325589 0.000325479 0.00032545 0.000325546 0.000325511 0.000325546 0.000325575 0.000325485 0.000325475 0.000325536 0.000325503 0.000325545 0.000325556 0.000325502 0.000325488 0.000325533 0.000325519 0.000325533 0.000325547 0.000325516 0.000325501 0.000325524 0.00032552 0.000325522 0.000325536 0.000325519 0.000325506 0.000325521 0.000325517 0.000325518 0.00032553 0.000325517 0.000325519 0.000325659 0.00032479 0.000324818 0.000324818 0.000326133 0.000325641 0.000325654 0.000324219 0.000325003 0.000325494 0.000324984 0.000324383 0.000326217 0.000324551 0.000325783 0.000326387 0.000325031 0.000324358 0.00032609 0.000324727 0.000325767 0.000326443 0.000325047 0.000324351 0.000326007 0.000324844 0.000325761 0.000326461 0.000325069 0.000324371 0.000325968 0.000324911 0.000325752 0.000326454 0.000325087 0.00032441 0.000325932 0.000324953 0.000325739 0.00032642 0.000325111 0.000324461 0.000325905 0.000324994 0.000325727 0.000326379 0.000325133 0.000324528 0.000325881 0.000325033 0.000325723 0.000326331 0.00032515 0.00032459 0.00032586 0.000325068 0.000325716 0.000326278 0.000325175 0.000324654 0.00032584 0.000325106 0.000325711 0.000326233 0.000325198 0.00032472 0.000325817 0.000325138 0.000325699 0.000326178 0.000325222 0.000324786 0.00032579 0.000325167 0.000325689 0.000326126 0.000325238 0.000324845 0.000325769 0.000325206 0.000325679 0.000326073 0.000325263 0.000324906 0.000325748 0.000325237 0.00032567 0.000326028 0.000325283 0.000324968 0.000325723 0.000325269 0.000325659 0.000325975 0.000325306 0.000325024 0.00032571 0.000325299 0.000325649 0.000325931 0.000325327 0.000325077 0.000325682 0.000325323 0.000325638 0.000325889 0.000325348 0.000325125 0.00032566 0.000325349 0.000325622 0.000325846 0.00032536 0.000325172 0.000325651 0.00032537 0.000325616 0.000325804 0.000325377 0.00032522 0.00032563 0.000325398 0.00032561 0.000325768 0.000325402 0.00032526 0.000325618 0.000325419 0.000325599 0.000325741 0.000325415 0.000325304 0.000325599 0.000325435 0.000325588 0.000325699 0.000325422 0.000325333 0.000325584 0.000325447 0.000325578 0.000325667 0.000325446 0.000325368 0.000325573 0.000325468 0.00032557 0.000325649 0.000325459 0.000325393 0.00032556 0.000325481 0.000325559 0.000325625 0.000325478 0.000325426 0.000325561 0.00032549 0.000325551 0.000325602 0.000325484 0.000325447 0.000325548 0.000325498 0.000325546 0.000325584 0.000325497 0.000325468 0.000325538 0.000325509 0.00032554 0.000325569 0.0003255 0.000325487 0.000325534 0.000325511 0.000325534 0.000325546 0.000325511 0.000325496 0.000325533 0.000325511 0.000325526 0.00032554 0.000325512 0.00032551 0.000325533 0.000325516 0.000325526 0.000325528 0.00032552 0.000325516 0.000325773 0.000324958 0.000325353 0.000325353 0.000325799 0.000325355 0.00032579 0.000324936 0.000325338 0.000325782 0.000325587 0.000324928 0.000325802 0.000324577 0.000325415 0.000326076 0.00032501 0.000324281 0.000326129 0.000324744 0.000325814 0.000326546 0.000325066 0.000324299 0.000326047 0.000324857 0.000325784 0.000326554 0.000325102 0.000324341 0.000326012 0.000324929 0.000325764 0.000326528 0.000325144 0.000324411 0.00032597 0.000324977 0.000325742 0.000326478 0.000325168 0.000324474 0.000325938 0.000325016 0.000325727 0.000326423 0.000325194 0.000324539 0.000325918 0.000325058 0.000325713 0.00032637 0.000325215 0.000324613 0.000325886 0.000325092 0.000325698 0.000326302 0.000325235 0.000324678 0.000325859 0.000325122 0.000325691 0.000326249 0.000325251 0.000324752 0.000325837 0.000325156 0.000325689 0.000326189 0.000325274 0.000324817 0.000325813 0.00032519 0.000325673 0.000326131 0.000325291 0.000324877 0.000325781 0.000325222 0.000325661 0.000326076 0.000325312 0.000324932 0.00032576 0.000325249 0.000325646 0.000326027 0.000325327 0.000324993 0.000325743 0.000325284 0.000325646 0.00032598 0.000325348 0.000325049 0.000325713 0.000325304 0.000325632 0.000325932 0.000325366 0.000325101 0.000325693 0.000325336 0.000325625 0.00032589 0.000325379 0.00032515 0.00032568 0.000325356 0.000325613 0.000325842 0.000325394 0.000325201 0.000325653 0.000325373 0.000325603 0.000325796 0.000325409 0.000325233 0.000325635 0.0003254 0.000325593 0.000325769 0.00032542 0.000325278 0.00032562 0.000325418 0.000325584 0.000325726 0.000325437 0.000325312 0.000325609 0.000325432 0.000325576 0.000325702 0.000325443 0.00032535 0.000325593 0.000325452 0.000325577 0.000325671 0.000325458 0.000325374 0.000325581 0.000325464 0.000325558 0.000325642 0.000325466 0.000325404 0.000325569 0.000325474 0.000325555 0.000325618 0.000325475 0.000325426 0.000325564 0.00032548 0.000325549 0.000325598 0.000325489 0.000325453 0.000325548 0.000325492 0.000325544 0.00032558 0.000325494 0.000325467 0.000325548 0.000325501 0.000325538 0.000325565 0.000325499 0.000325484 0.000325546 0.000325506 0.000325537 0.000325553 0.000325507 0.0003255 0.000325537 0.000325507 0.000325535 0.000325541 0.000325514 0.000325502 0.000325535 0.000325508 0.000325523 0.000325536 0.000325515 0.000325515 0.000325882 0.000325091 0.000325847 0.000325847 0.00032551 0.000325073 0.0003259 0.000325027 0.000325652 0.00032609 0.000325479 0.000324808 0.000325888 0.000325012 0.000325597 0.00032627 0.000325398 0.000324621 0.000325897 0.000324802 0.000325602 0.000326381 0.000325116 0.000324296 0.000326076 0.000324894 0.000325794 0.000326618 0.000325157 0.000324336 0.000326031 0.000324967 0.000325762 0.000326587 0.000325214 0.00032442 0.000326002 0.000325014 0.000325733 0.00032653 0.000325241 0.000324501 0.000325973 0.000325051 0.000325713 0.000326455 0.000325262 0.000324579 0.000325946 0.000325083 0.000325698 0.000326383 0.000325287 0.000324652 0.00032591 0.000325116 0.000325681 0.000326317 0.000325303 0.000324721 0.000325884 0.000325149 0.000325677 0.00032626 0.000325317 0.000324787 0.000325854 0.000325186 0.000325666 0.000326197 0.000325334 0.000324855 0.000325827 0.000325211 0.000325655 0.000326135 0.000325351 0.000324919 0.0003258 0.000325241 0.000325641 0.000326074 0.000325361 0.000324974 0.000325771 0.000325268 0.000325635 0.000326023 0.000325381 0.00032503 0.000325745 0.000325295 0.000325619 0.000325971 0.000325393 0.000325085 0.000325722 0.000325325 0.000325615 0.000325924 0.000325405 0.000325131 0.000325705 0.000325348 0.000325599 0.000325873 0.000325416 0.000325177 0.00032568 0.000325364 0.000325596 0.000325835 0.000325431 0.000325221 0.000325661 0.000325384 0.000325582 0.000325793 0.000325433 0.000325262 0.000325648 0.000325405 0.000325581 0.000325752 0.000325446 0.000325297 0.000325628 0.000325422 0.000325569 0.000325718 0.000325458 0.000325332 0.000325607 0.000325437 0.000325564 0.00032569 0.00032547 0.00032536 0.000325595 0.000325457 0.000325558 0.000325669 0.000325473 0.000325389 0.000325588 0.000325461 0.000325548 0.000325632 0.000325484 0.000325423 0.000325577 0.00032547 0.000325554 0.000325614 0.000325484 0.000325436 0.000325569 0.000325483 0.000325542 0.00032559 0.000325497 0.000325459 0.000325552 0.000325495 0.00032554 0.000325578 0.000325499 0.000325472 0.000325546 0.000325497 0.000325533 0.000325561 0.000325507 0.000325487 0.000325541 0.000325501 0.000325526 0.000325547 0.00032551 0.000325498 0.000325545 0.000325512 0.000325533 0.000325546 0.000325514 0.000325505 0.000325545 0.000325505 0.000325526 0.000325534 0.000325516 0.00032552 0.000326034 0.000325187 0.000326346 0.000326346 0.000325222 0.000324788 0.000326012 0.000325108 0.000325975 0.000326411 0.000325355 0.00032467 0.000325988 0.0003251 0.000325781 0.000326469 0.000325391 0.00032458 0.000325981 0.000325077 0.000325703 0.000326515 0.000325372 0.000324518 0.000325956 0.000324941 0.000325678 0.000326533 0.000325223 0.000324349 0.000326059 0.000325021 0.000325762 0.000326639 0.000325289 0.00032447 0.00032603 0.000325052 0.000325737 0.000326559 0.000325319 0.000324555 0.000326009 0.000325081 0.00032571 0.000326477 0.000325341 0.000324637 0.000325972 0.000325111 0.000325695 0.000326401 0.000325358 0.000324714 0.000325945 0.000325139 0.000325679 0.000326325 0.000325368 0.000324783 0.000325914 0.000325179 0.000325667 0.000326253 0.000325386 0.000324854 0.000325872 0.000325205 0.000325655 0.000326188 0.000325393 0.00032491 0.00032585 0.000325236 0.000325634 0.000326118 0.000325409 0.000324975 0.000325817 0.00032526 0.000325627 0.000326062 0.000325418 0.000325026 0.000325793 0.000325293 0.000325612 0.000326005 0.000325428 0.000325079 0.000325756 0.000325315 0.000325602 0.000325953 0.000325441 0.000325128 0.000325735 0.000325335 0.000325592 0.000325906 0.000325442 0.000325171 0.000325711 0.000325355 0.000325584 0.000325856 0.000325461 0.000325219 0.000325688 0.000325381 0.000325576 0.000325818 0.000325465 0.000325261 0.000325666 0.000325391 0.000325567 0.000325771 0.00032547 0.000325294 0.000325652 0.000325412 0.000325564 0.00032574 0.000325479 0.000325336 0.000325634 0.000325431 0.000325561 0.000325704 0.00032549 0.00032536 0.000325609 0.00032545 0.000325545 0.000325675 0.000325493 0.000325387 0.000325599 0.000325456 0.000325543 0.000325648 0.000325493 0.00032541 0.000325584 0.000325463 0.000325543 0.000325625 0.000325503 0.000325431 0.000325575 0.000325478 0.000325532 0.000325604 0.000325502 0.000325456 0.000325563 0.000325483 0.000325534 0.000325579 0.00032551 0.000325471 0.00032556 0.000325492 0.000325529 0.000325567 0.000325505 0.000325482 0.000325549 0.000325501 0.00032553 0.000325552 0.000325514 0.000325493 0.000325548 0.0003255 0.000325525 0.000325546 0.000325515 0.000325509 0.000325546 0.000325498 0.000325533 0.000325539 0.00032551 0.000325506 0.000325537 0.000325495 0.000325524 0.000325528 0.000325514 0.000325514 0.000326242 0.000325215 0.000326876 0.000326876 0.000324905 0.000324481 0.00032615 0.000325154 0.000326312 0.000326738 0.000325191 0.00032453 0.00032611 0.000325135 0.000326009 0.000326673 0.000325342 0.000324549 0.00032608 0.000325122 0.00032585 0.000326646 0.0003254 0.000324561 0.000326064 0.000325108 0.000325759 0.000326601 0.000325386 0.00032454 0.000326063 0.00032507 0.000325746 0.000326595 0.000325365 0.000324553 0.000326079 0.000325087 0.000325741 0.000326556 0.00032538 0.000324638 0.000326049 0.000325109 0.000325722 0.000326465 0.000325406 0.000324718 0.000326022 0.000325142 0.000325702 0.000326392 0.000325418 0.000324791 0.000325978 0.000325165 0.000325677 0.000326305 0.00032543 0.000324858 0.00032594 0.000325199 0.000325655 0.000326229 0.000325446 0.000324924 0.000325903 0.000325234 0.000325639 0.000326162 0.00032545 0.000324981 0.000325866 0.000325253 0.000325627 0.000326097 0.000325468 0.000325043 0.000325833 0.000325281 0.000325608 0.000326034 0.00032547 0.000325093 0.0003258 0.000325304 0.000325597 0.000325974 0.000325485 0.000325146 0.000325773 0.000325326 0.000325586 0.000325926 0.00032548 0.000325178 0.000325748 0.000325351 0.000325573 0.000325875 0.000325493 0.000325233 0.000325719 0.000325376 0.000325569 0.000325829 0.000325502 0.000325273 0.000325692 0.000325392 0.000325556 0.000325786 0.000325504 0.000325302 0.000325668 0.000325412 0.000325547 0.000325749 0.00032551 0.000325338 0.000325654 0.000325427 0.000325543 0.000325715 0.000325515 0.00032537 0.000325632 0.000325442 0.000325541 0.000325687 0.000325515 0.00032539 0.000325612 0.00032545 0.000325527 0.000325652 0.000325514 0.000325417 0.000325602 0.000325461 0.000325531 0.000325628 0.000325517 0.000325446 0.000325586 0.00032548 0.000325531 0.000325602 0.000325522 0.000325463 0.000325571 0.000325484 0.000325524 0.000325583 0.000325527 0.000325473 0.000325557 0.000325492 0.000325513 0.000325568 0.000325522 0.000325489 0.000325552 0.00032549 0.000325519 0.000325552 0.000325521 0.000325497 0.000325544 0.0003255 0.000325513 0.000325537 0.00032552 0.000325508 0.00032554 0.000325498 0.000325521 0.000325533 0.000325522 0.000325506 0.000325542 0.000325504 0.00032552 0.000325535 0.000325517 0.000325513 0.000325544 0.000325501 0.000325527 0.00032553 0.000325513 0.000325509 0.000326449 0.000325168 0.000327401 0.000327401 0.000324537 0.000324137 0.000326318 0.000325151 0.000326673 0.000327076 0.00032499 0.000324356 0.000326246 0.000325138 0.000326258 0.000326896 0.000325238 0.000324489 0.000326213 0.000325134 0.000326019 0.000326772 0.000325364 0.000324575 0.000326188 0.000325123 0.00032588 0.000326672 0.000325427 0.000324632 0.000326152 0.000325124 0.000325796 0.000326594 0.000325439 0.000324696 0.000326125 0.00032511 0.000325765 0.00032651 0.000325446 0.000324742 0.000326102 0.00032513 0.00032573 0.000326436 0.000325457 0.000324814 0.000326061 0.000325158 0.000325704 0.000326348 0.000325477 0.000324892 0.00032601 0.000325189 0.000325675 0.000326262 0.00032549 0.000324954 0.000325973 0.000325218 0.000325647 0.000326184 0.000325503 0.000325022 0.000325929 0.000325247 0.000325631 0.000326113 0.00032551 0.000325071 0.000325887 0.000325279 0.000325612 0.000326052 0.000325517 0.000325124 0.000325854 0.000325299 0.000325592 0.000325986 0.000325524 0.000325174 0.000325816 0.000325324 0.000325583 0.000325933 0.000325527 0.000325214 0.000325778 0.000325348 0.000325563 0.000325876 0.000325535 0.000325258 0.000325754 0.000325371 0.000325558 0.000325836 0.000325546 0.000325302 0.000325725 0.000325389 0.000325544 0.000325788 0.000325539 0.000325327 0.0003257 0.000325407 0.00032553 0.000325743 0.000325542 0.000325367 0.000325671 0.000325421 0.00032553 0.000325705 0.000325542 0.000325386 0.000325649 0.000325439 0.000325525 0.000325681 0.00032555 0.000325412 0.000325631 0.000325453 0.000325509 0.000325647 0.000325544 0.000325442 0.000325604 0.00032546 0.000325513 0.000325615 0.000325544 0.000325458 0.000325594 0.000325476 0.000325506 0.000325592 0.000325548 0.000325475 0.00032558 0.000325486 0.000325505 0.000325577 0.00032554 0.00032549 0.000325568 0.000325493 0.000325503 0.000325553 0.000325539 0.000325503 0.000325553 0.000325493 0.000325503 0.00032554 0.000325536 0.000325509 0.000325543 0.000325507 0.000325502 0.000325529 0.00032554 0.000325518 0.000325536 0.0003255 0.000325504 0.000325526 0.000325531 0.000325518 0.000325531 0.000325512 0.000325512 0.000325525 0.000325531 0.000325519 0.000325532 0.00032551 0.000325513 0.000325525 0.000325532 0.000325522 0.000325542 0.000325502 0.000325514 0.000325524 0.00032552 0.000325516 0.000326437 0.000325087 0.000327782 0.000327782 0.000324142 0.000323714 0.000326452 0.000325093 0.000326996 0.000327429 0.00032474 0.000324104 0.000326436 0.000325083 0.000326522 0.000327163 0.00032507 0.000324364 0.000326402 0.000325087 0.000326228 0.000326939 0.00032528 0.000324561 0.000326368 0.00032509 0.000326039 0.000326762 0.000325396 0.000324702 0.000326288 0.000325096 0.000325911 0.000326608 0.000325451 0.000324792 0.000326222 0.000325126 0.000325828 0.000326488 0.000325485 0.000324871 0.000326157 0.000325139 0.000325758 0.000326373 0.00032551 0.000324938 0.000326109 0.000325178 0.000325708 0.000326282 0.000325533 0.000325009 0.000326054 0.000325211 0.000325671 0.000326197 0.000325544 0.000325072 0.000326 0.000325233 0.000325643 0.000326116 0.000325559 0.000325125 0.000325951 0.000325275 0.000325615 0.00032605 0.000325573 0.00032518 0.000325906 0.000325298 0.000325591 0.000325985 0.000325573 0.000325222 0.000325861 0.000325323 0.00032557 0.000325922 0.000325585 0.00032527 0.00032583 0.000325349 0.000325557 0.000325872 0.000325582 0.000325305 0.000325791 0.000325367 0.000325545 0.000325822 0.000325582 0.000325343 0.00032576 0.000325391 0.000325534 0.000325773 0.000325587 0.000325376 0.000325726 0.00032541 0.00032552 0.000325731 0.00032559 0.0003254 0.000325702 0.000325424 0.000325506 0.000325696 0.000325593 0.000325434 0.000325668 0.000325443 0.000325502 0.000325661 0.000325584 0.00032545 0.000325645 0.000325456 0.000325493 0.000325627 0.00032558 0.00032547 0.000325615 0.000325465 0.000325486 0.000325596 0.000325587 0.000325491 0.000325605 0.000325483 0.000325484 0.00032558 0.000325574 0.000325504 0.000325589 0.000325488 0.000325488 0.000325558 0.000325576 0.000325519 0.000325568 0.000325494 0.000325481 0.000325538 0.000325569 0.000325529 0.000325555 0.000325506 0.000325487 0.000325526 0.000325571 0.000325536 0.000325549 0.00032551 0.000325479 0.000325515 0.000325559 0.000325537 0.000325532 0.000325514 0.000325485 0.000325507 0.000325555 0.00032554 0.000325527 0.00032552 0.000325491 0.000325506 0.000325552 0.000325541 0.000325526 0.000325518 0.000325492 0.000325503 0.000325537 0.000325532 0.000325522 0.000325518 0.000325506 0.000325511 0.000325537 0.000325531 0.000325526 0.000325506 0.000325503 0.00032551 0.000325534 0.000325519 0.000325591 0.000323339 0.000324141 0.000324141 0.000325378 0.000324873 0.000326379 0.000324311 0.000325583 0.000326088 0.000325177 0.000324573 0.000326104 0.000324622 0.000325609 0.000326216 0.000325105 0.000324485 0.000325972 0.000324765 0.000325653 0.000326276 0.00032506 0.000324438 0.00032592 0.000324842 0.000325689 0.000326313 0.000325046 0.000324435 0.000325883 0.000324894 0.000325706 0.000326319 0.000325038 0.000324457 0.000325872 0.000324926 0.000325722 0.000326307 0.00032505 0.000324488 0.000325861 0.000324975 0.000325729 0.000326294 0.000325061 0.000324533 0.000325845 0.000324999 0.000325734 0.000326264 0.000325088 0.000324586 0.000325827 0.000325043 0.000325726 0.00032623 0.0003251 0.000324646 0.000325809 0.000325076 0.000325726 0.000326182 0.000325131 0.000324706 0.000325792 0.000325117 0.000325717 0.000326144 0.000325155 0.000324763 0.00032577 0.000325153 0.000325715 0.000326107 0.000325176 0.000324825 0.000325753 0.000325188 0.000325702 0.000326053 0.000325202 0.000324882 0.00032573 0.000325216 0.000325692 0.000326013 0.000325228 0.000324945 0.000325714 0.000325248 0.000325676 0.00032596 0.000325245 0.000324998 0.000325689 0.000325281 0.000325674 0.000325922 0.000325281 0.000325056 0.000325667 0.000325313 0.000325655 0.00032588 0.000325301 0.000325102 0.000325653 0.00032535 0.000325647 0.000325847 0.000325324 0.000325155 0.000325631 0.000325368 0.000325634 0.000325802 0.000325348 0.000325203 0.000325617 0.000325396 0.000325623 0.000325768 0.000325372 0.000325243 0.000325607 0.000325422 0.000325608 0.000325737 0.000325395 0.000325293 0.000325585 0.000325439 0.000325596 0.000325697 0.000325409 0.00032533 0.000325577 0.000325457 0.000325588 0.000325667 0.00032543 0.000325362 0.000325564 0.000325469 0.000325577 0.000325644 0.000325443 0.000325387 0.000325549 0.00032548 0.000325563 0.000325619 0.00032547 0.00032543 0.000325543 0.000325499 0.000325558 0.000325598 0.000325476 0.000325441 0.000325534 0.000325509 0.000325545 0.00032558 0.000325491 0.00032547 0.000325534 0.000325514 0.000325537 0.000325559 0.000325496 0.000325482 0.000325529 0.000325505 0.00032553 0.000325543 0.000325505 0.000325501 0.000325531 0.000325528 0.000325529 0.000325533 0.000325519 0.000325515 0.000325528 0.000325515 0.000325526 0.00032553 0.000325526 0.000325514 0.000325708 0.000324705 0.000324792 0.000324792 0.000326158 0.00032568 0.000325692 0.000324193 0.000324981 0.000325458 0.000324986 0.000324416 0.000326221 0.000324543 0.000325776 0.000326349 0.000325036 0.000324385 0.000326083 0.000324731 0.00032576 0.000326414 0.000325049 0.00032437 0.000326003 0.000324835 0.000325746 0.000326429 0.000325065 0.000324389 0.000325962 0.000324897 0.000325751 0.00032643 0.000325073 0.00032442 0.000325931 0.000324945 0.000325749 0.000326404 0.000325094 0.000324466 0.000325904 0.000324983 0.000325738 0.000326369 0.000325114 0.000324521 0.000325881 0.000325026 0.000325728 0.000326322 0.000325137 0.000324585 0.000325855 0.000325061 0.000325723 0.000326277 0.000325161 0.000324646 0.000325836 0.000325095 0.000325711 0.000326228 0.000325178 0.00032471 0.000325815 0.00032513 0.000325702 0.000326173 0.000325204 0.000324777 0.000325793 0.000325168 0.000325694 0.000326123 0.000325223 0.000324835 0.000325766 0.000325196 0.000325689 0.000326079 0.000325247 0.0003249 0.000325746 0.000325232 0.000325675 0.000326023 0.00032527 0.000324956 0.000325721 0.000325258 0.000325664 0.000325978 0.000325296 0.000325016 0.0003257 0.0003253 0.000325656 0.000325937 0.000325315 0.000325069 0.000325684 0.000325322 0.000325644 0.00032589 0.000325334 0.000325119 0.000325663 0.000325345 0.000325634 0.00032585 0.000325351 0.000325166 0.000325644 0.000325376 0.000325621 0.000325806 0.000325373 0.00032521 0.000325631 0.000325398 0.000325611 0.000325775 0.000325392 0.000325262 0.000325616 0.000325411 0.000325604 0.000325734 0.00032541 0.000325294 0.000325597 0.000325434 0.000325588 0.000325704 0.000325423 0.000325333 0.000325589 0.000325452 0.000325585 0.000325675 0.000325441 0.000325368 0.000325578 0.000325468 0.000325577 0.000325651 0.000325456 0.000325396 0.000325562 0.000325477 0.000325566 0.000325625 0.000325462 0.000325418 0.000325553 0.000325489 0.000325558 0.000325603 0.000325473 0.00032544 0.000325549 0.000325503 0.00032555 0.000325583 0.000325492 0.000325463 0.000325541 0.000325502 0.00032554 0.000325569 0.000325499 0.000325482 0.000325536 0.000325509 0.000325536 0.000325553 0.000325508 0.000325501 0.000325534 0.000325516 0.000325533 0.000325539 0.000325517 0.000325505 0.000325532 0.000325519 0.000325519 0.000325532 0.000325521 0.00032552 0.000325794 0.000324909 0.000325305 0.000325305 0.000325826 0.0003254 0.000325807 0.000324881 0.000325318 0.000325744 0.000325593 0.000324961 0.000325813 0.000324563 0.000325399 0.000326031 0.000325006 0.000324315 0.000326135 0.000324735 0.000325803 0.000326497 0.000325058 0.000324335 0.000326061 0.000324839 0.000325785 0.00032651 0.000325095 0.000324366 0.00032601 0.000324911 0.000325765 0.000326497 0.000325122 0.000324413 0.000325968 0.00032497 0.000325754 0.000326465 0.000325151 0.000324469 0.000325942 0.000325005 0.000325731 0.000326416 0.000325171 0.000324537 0.000325913 0.000325045 0.000325722 0.000326358 0.000325198 0.000324603 0.000325883 0.000325082 0.000325708 0.000326305 0.000325214 0.000324675 0.000325865 0.000325114 0.000325704 0.000326244 0.000325238 0.000324739 0.000325834 0.000325148 0.000325691 0.000326192 0.00032526 0.000324802 0.000325808 0.000325183 0.000325678 0.000326138 0.000325281 0.000324868 0.000325785 0.000325219 0.000325667 0.000326081 0.000325297 0.000324932 0.000325762 0.000325245 0.000325667 0.000326032 0.000325315 0.000324985 0.000325732 0.000325272 0.000325647 0.000325978 0.000325329 0.000325037 0.000325718 0.000325305 0.000325635 0.000325928 0.000325349 0.000325091 0.000325695 0.000325331 0.000325633 0.000325892 0.000325372 0.000325142 0.000325669 0.000325353 0.000325617 0.000325847 0.000325382 0.000325184 0.000325655 0.000325377 0.000325607 0.000325806 0.0003254 0.000325232 0.00032564 0.000325398 0.0003256 0.000325768 0.000325418 0.00032527 0.000325616 0.000325418 0.00032559 0.000325737 0.000325429 0.000325308 0.000325607 0.00032543 0.000325582 0.000325704 0.00032544 0.000325337 0.000325592 0.000325452 0.000325572 0.000325674 0.000325455 0.000325373 0.000325576 0.000325459 0.000325569 0.000325651 0.000325459 0.000325398 0.000325569 0.000325478 0.000325562 0.000325623 0.000325474 0.000325426 0.000325557 0.000325487 0.000325552 0.0003256 0.000325482 0.000325439 0.000325554 0.000325492 0.000325544 0.000325587 0.000325491 0.000325467 0.000325547 0.000325504 0.000325539 0.000325564 0.000325505 0.000325483 0.000325542 0.000325506 0.000325533 0.000325555 0.000325506 0.000325496 0.000325544 0.000325508 0.000325532 0.000325542 0.000325509 0.000325509 0.000325542 0.000325508 0.000325533 0.000325533 0.000325521 0.000325513 0.000325876 0.00032505 0.000325771 0.000325771 0.00032554 0.00032512 0.000325898 0.000324999 0.000325619 0.000326038 0.000325488 0.000324836 0.000325899 0.00032498 0.000325566 0.00032622 0.000325395 0.000324642 0.000325909 0.000324775 0.000325584 0.000326339 0.000325106 0.000324332 0.000326092 0.000324872 0.000325797 0.000326575 0.000325148 0.000324371 0.000326047 0.000324937 0.00032577 0.00032655 0.000325181 0.000324429 0.000326007 0.000324995 0.000325749 0.000326504 0.000325209 0.000324494 0.000325974 0.000325029 0.000325724 0.000326441 0.00032524 0.000324572 0.000325944 0.000325068 0.000325713 0.000326383 0.000325259 0.000324645 0.000325914 0.0003251 0.000325702 0.000326318 0.000325274 0.000324714 0.000325889 0.000325136 0.000325692 0.000326254 0.000325296 0.000324779 0.000325857 0.00032517 0.000325671 0.000326189 0.000325312 0.000324847 0.00032583 0.000325199 0.000325665 0.000326132 0.000325329 0.000324907 0.0003258 0.000325231 0.000325653 0.000326076 0.000325348 0.000324967 0.000325772 0.000325264 0.000325642 0.000326024 0.000325359 0.000325018 0.000325751 0.00032529 0.000325632 0.000325973 0.000325376 0.000325075 0.000325723 0.00032531 0.000325619 0.00032592 0.000325393 0.000325124 0.000325699 0.000325339 0.000325612 0.000325881 0.0003254 0.000325173 0.000325686 0.000325364 0.000325606 0.000325834 0.000325415 0.000325215 0.000325656 0.000325375 0.000325588 0.000325788 0.000325423 0.000325247 0.000325641 0.000325404 0.000325585 0.00032576 0.000325443 0.000325294 0.000325622 0.00032542 0.000325576 0.000325726 0.000325446 0.000325326 0.000325612 0.000325436 0.000325568 0.000325688 0.00032546 0.000325359 0.000325597 0.000325449 0.00032557 0.000325672 0.000325469 0.000325385 0.000325582 0.000325467 0.000325556 0.00032564 0.000325474 0.000325411 0.000325577 0.000325479 0.000325554 0.000325618 0.000325487 0.000325433 0.000325558 0.000325485 0.000325545 0.000325599 0.00032549 0.000325451 0.000325557 0.000325493 0.000325545 0.000325585 0.000325504 0.000325474 0.00032555 0.000325496 0.00032554 0.00032557 0.000325504 0.000325486 0.000325547 0.000325501 0.000325532 0.00032555 0.00032551 0.000325501 0.000325545 0.000325504 0.000325529 0.000325538 0.000325516 0.000325511 0.000325547 0.000325506 0.000325531 0.000325536 0.000325515 0.000325518 0.000325984 0.000325165 0.000326249 0.000326249 0.00032527 0.000324827 0.000325984 0.000325079 0.000325901 0.000326346 0.000325359 0.000324684 0.00032597 0.000325047 0.000325744 0.00032642 0.000325381 0.000324604 0.000325971 0.00032503 0.000325687 0.000326466 0.000325355 0.000324535 0.000325984 0.000324919 0.00032567 0.000326493 0.000325213 0.000324394 0.000326072 0.000324975 0.000325762 0.000326584 0.000325251 0.000324456 0.000326042 0.000325027 0.000325739 0.000326536 0.000325283 0.000324537 0.000326007 0.00032506 0.000325721 0.000326469 0.000325309 0.000324613 0.000325978 0.000325094 0.000325694 0.000326391 0.000325325 0.00032469 0.00032594 0.000325131 0.000325684 0.000326321 0.000325342 0.000324755 0.000325905 0.000325167 0.000325665 0.000326253 0.000325363 0.000324833 0.000325878 0.00032519 0.000325655 0.000326187 0.000325375 0.000324896 0.000325835 0.000325222 0.000325639 0.000326118 0.000325386 0.000324953 0.000325812 0.000325251 0.000325631 0.000326065 0.000325398 0.00032501 0.00032578 0.000325284 0.000325619 0.000326008 0.000325414 0.000325069 0.000325758 0.000325302 0.000325607 0.000325952 0.00032542 0.000325121 0.000325734 0.000325331 0.000325605 0.000325904 0.000325434 0.000325164 0.00032571 0.000325359 0.000325593 0.000325863 0.000325446 0.00032521 0.000325683 0.00032537 0.000325582 0.000325818 0.00032545 0.000325245 0.000325662 0.00032539 0.000325572 0.000325776 0.000325458 0.000325282 0.000325646 0.000325408 0.000325568 0.000325744 0.000325464 0.000325319 0.000325627 0.000325426 0.000325562 0.000325707 0.000325472 0.000325353 0.000325611 0.00032544 0.000325555 0.000325674 0.000325485 0.000325386 0.000325598 0.000325461 0.000325553 0.000325652 0.000325487 0.000325406 0.00032559 0.000325464 0.000325546 0.000325627 0.00032549 0.000325428 0.000325575 0.000325476 0.00032554 0.000325602 0.000325499 0.00032545 0.000325561 0.000325485 0.000325533 0.000325583 0.000325498 0.000325465 0.000325555 0.000325497 0.000325534 0.000325567 0.000325509 0.00032548 0.000325547 0.0003255 0.000325528 0.000325557 0.00032551 0.000325496 0.000325547 0.000325504 0.00032553 0.000325544 0.000325518 0.000325502 0.000325547 0.000325501 0.000325531 0.000325547 0.000325518 0.000325506 0.000325547 0.000325505 0.000325528 0.00032554 0.000325521 0.000325513 0.000326169 0.000325231 0.000326766 0.000326766 0.000324967 0.000324512 0.000326115 0.000325145 0.000326221 0.000326679 0.00032523 0.000324534 0.000326073 0.000325112 0.000325945 0.000326644 0.000325339 0.000324538 0.000326064 0.000325103 0.000325806 0.00032661 0.000325387 0.000324542 0.00032605 0.000325082 0.000325735 0.000326583 0.000325396 0.000324558 0.000326033 0.00032502 0.000325707 0.000326547 0.000325329 0.000324511 0.000326072 0.000325058 0.000325739 0.000326561 0.000325361 0.000324604 0.000326043 0.000325095 0.000325713 0.000326471 0.00032538 0.000324688 0.000326013 0.000325117 0.000325691 0.000326385 0.0003254 0.000324764 0.000325977 0.000325162 0.000325675 0.000326313 0.000325417 0.000324838 0.000325933 0.000325187 0.000325658 0.000326239 0.000325427 0.000324904 0.000325897 0.000325218 0.000325644 0.000326168 0.00032544 0.000324969 0.000325865 0.000325247 0.00032563 0.000326101 0.000325442 0.000325021 0.000325827 0.000325278 0.000325611 0.000326033 0.000325458 0.000325075 0.000325793 0.000325302 0.0003256 0.000325984 0.000325463 0.000325123 0.000325769 0.000325325 0.000325591 0.00032593 0.000325476 0.00032517 0.000325743 0.000325351 0.000325577 0.000325883 0.00032548 0.00032522 0.00032571 0.00032537 0.000325573 0.000325834 0.000325487 0.000325257 0.000325696 0.000325396 0.00032557 0.0003258 0.000325497 0.000325302 0.000325668 0.000325405 0.00032556 0.000325754 0.000325495 0.00032533 0.000325648 0.000325425 0.000325547 0.000325712 0.000325503 0.00032536 0.000325634 0.000325443 0.000325545 0.000325688 0.000325507 0.00032539 0.000325614 0.00032545 0.000325537 0.000325655 0.000325505 0.000325412 0.000325596 0.000325462 0.000325535 0.000325629 0.000325507 0.000325428 0.000325577 0.000325476 0.000325528 0.000325606 0.000325519 0.000325455 0.000325575 0.000325482 0.000325527 0.000325592 0.000325518 0.000325475 0.00032556 0.000325489 0.000325525 0.000325567 0.000325517 0.000325485 0.000325554 0.000325498 0.000325522 0.000325553 0.000325518 0.000325493 0.000325543 0.000325501 0.000325514 0.00032554 0.00032552 0.000325505 0.000325541 0.000325503 0.000325522 0.000325537 0.00032552 0.000325507 0.000325539 0.000325507 0.000325521 0.000325534 0.000325523 0.000325508 0.000325541 0.000325494 0.000325518 0.000325533 0.000325512 0.000325512 0.000326392 0.000325205 0.0003273 0.0003273 0.000324613 0.000324166 0.000326287 0.000325151 0.000326577 0.000327027 0.000325046 0.000324368 0.000326234 0.000325126 0.000326196 0.000326879 0.000325255 0.000324479 0.000326197 0.000325116 0.000325981 0.000326761 0.000325375 0.000324562 0.000326173 0.000325114 0.00032586 0.000326676 0.000325428 0.000324626 0.000326136 0.000325112 0.000325784 0.000326589 0.000325438 0.000324668 0.000326115 0.000325104 0.00032575 0.000326522 0.000325434 0.000324716 0.000326096 0.000325117 0.000325727 0.000326448 0.000325446 0.000324792 0.00032606 0.000325152 0.0003257 0.000326356 0.000325472 0.000324871 0.000326014 0.000325179 0.000325671 0.000326274 0.00032548 0.000324942 0.000325967 0.000325214 0.000325658 0.000326197 0.000325487 0.000325002 0.000325929 0.00032525 0.000325636 0.000326122 0.000325502 0.000325063 0.000325885 0.000325275 0.000325619 0.000326059 0.00032551 0.000325112 0.000325845 0.000325297 0.000325601 0.000326 0.000325513 0.000325157 0.000325813 0.000325325 0.000325583 0.000325939 0.000325518 0.000325204 0.000325777 0.000325347 0.000325575 0.000325889 0.000325525 0.000325249 0.000325753 0.000325368 0.000325562 0.000325837 0.000325534 0.000325288 0.000325718 0.000325393 0.000325551 0.000325797 0.00032553 0.000325319 0.00032569 0.000325409 0.000325543 0.000325754 0.000325535 0.000325354 0.000325669 0.000325426 0.000325534 0.000325715 0.000325535 0.000325386 0.000325647 0.000325437 0.000325529 0.000325678 0.000325538 0.000325405 0.000325626 0.000325451 0.000325521 0.000325654 0.00032554 0.000325432 0.000325604 0.000325464 0.000325515 0.000325623 0.000325541 0.000325448 0.000325589 0.000325477 0.00032551 0.000325602 0.000325538 0.000325473 0.000325573 0.000325487 0.000325506 0.000325571 0.000325536 0.000325482 0.000325559 0.000325491 0.000325507 0.000325561 0.000325539 0.000325498 0.000325554 0.000325502 0.00032551 0.00032555 0.000325538 0.000325507 0.000325541 0.000325499 0.000325507 0.000325537 0.000325532 0.000325519 0.000325544 0.000325502 0.000325512 0.000325525 0.000325531 0.000325517 0.000325539 0.000325511 0.000325513 0.000325527 0.00032553 0.000325526 0.000325533 0.000325503 0.000325518 0.000325522 0.000325521 0.000325518 0.000325532 0.000325501 0.000325516 0.000325519 0.000325524 0.00032551 0.000326426 0.000325105 0.000327712 0.000327712 0.000324206 0.000323743 0.000326453 0.000325072 0.000326928 0.000327395 0.000324785 0.000324124 0.000326434 0.000325057 0.00032647 0.000327136 0.000325096 0.000324359 0.000326402 0.00032507 0.000326198 0.00032694 0.000325286 0.000324553 0.000326349 0.000325079 0.00032603 0.000326766 0.000325391 0.000324679 0.000326287 0.000325095 0.000325905 0.00032662 0.000325446 0.000324776 0.000326228 0.000325116 0.000325825 0.000326497 0.00032548 0.000324867 0.000326165 0.000325138 0.000325762 0.000326377 0.000325506 0.000324931 0.000326106 0.000325162 0.000325711 0.000326287 0.00032552 0.000325003 0.000326052 0.000325196 0.000325678 0.000326197 0.000325538 0.000325067 0.000326001 0.000325236 0.000325649 0.000326121 0.000325544 0.000325118 0.000325948 0.000325262 0.00032562 0.000326047 0.000325554 0.000325173 0.000325906 0.000325296 0.000325596 0.000325977 0.000325561 0.00032522 0.000325864 0.000325327 0.000325588 0.00032593 0.000325569 0.000325265 0.000325826 0.000325343 0.000325568 0.000325872 0.000325572 0.000325303 0.000325788 0.000325367 0.00032555 0.000325819 0.000325569 0.000325333 0.000325749 0.000325383 0.000325536 0.000325772 0.000325574 0.000325368 0.00032572 0.000325407 0.000325527 0.000325734 0.000325574 0.000325399 0.00032569 0.000325423 0.000325522 0.000325697 0.000325569 0.000325418 0.000325666 0.00032544 0.000325507 0.000325659 0.000325575 0.000325448 0.000325639 0.000325454 0.000325504 0.000325631 0.000325572 0.000325469 0.000325616 0.000325471 0.000325498 0.000325601 0.000325576 0.000325485 0.000325602 0.000325481 0.000325487 0.000325579 0.00032557 0.000325505 0.00032558 0.000325485 0.000325489 0.000325554 0.000325564 0.00032551 0.00032557 0.000325495 0.00032549 0.000325544 0.000325562 0.000325526 0.00032555 0.000325512 0.000325484 0.00032552 0.000325564 0.000325529 0.000325543 0.000325514 0.000325487 0.000325522 0.000325558 0.000325538 0.000325532 0.000325516 0.000325486 0.000325507 0.00032555 0.000325539 0.000325531 0.000325519 0.000325496 0.000325507 0.00032555 0.000325545 0.000325517 0.000325516 0.00032549 0.000325496 0.000325542 0.000325532 0.000325521 0.000325514 0.000325497 0.000325508 0.00032553 0.000325528 0.00032552 0.000325507 0.00032551 0.000325512 0.000325523 0.000325516 0.000325761 0.000323373 0.000324297 0.000324297 0.000325478 0.000324956 0.00032637 0.000324381 0.000325544 0.000326065 0.00032521 0.000324591 0.000326079 0.000324648 0.000325587 0.000326208 0.00032511 0.000324486 0.000325971 0.000324759 0.000325638 0.000326265 0.000325072 0.00032446 0.000325926 0.000324828 0.000325679 0.000326293 0.000325048 0.000324456 0.000325889 0.000324868 0.000325698 0.000326293 0.000325042 0.000324466 0.000325875 0.000324914 0.000325715 0.000326293 0.000325046 0.000324496 0.000325858 0.000324947 0.000325727 0.000326279 0.000325057 0.000324542 0.00032585 0.000324987 0.00032573 0.000326248 0.000325075 0.000324586 0.000325826 0.000325023 0.000325728 0.000326219 0.000325088 0.000324641 0.00032581 0.000325066 0.000325724 0.000326173 0.000325119 0.000324705 0.000325788 0.000325099 0.000325718 0.000326134 0.00032514 0.000324762 0.00032577 0.000325145 0.000325716 0.000326095 0.000325164 0.000324817 0.000325745 0.000325181 0.000325702 0.000326051 0.000325194 0.000324881 0.000325731 0.000325218 0.000325701 0.000326015 0.000325212 0.000324934 0.000325705 0.000325245 0.000325685 0.000325963 0.00032524 0.000324993 0.000325686 0.000325277 0.00032567 0.000325917 0.00032526 0.000325047 0.000325668 0.000325303 0.000325663 0.000325878 0.000325287 0.000325101 0.000325648 0.000325343 0.000325651 0.000325837 0.000325315 0.000325151 0.000325636 0.000325373 0.000325639 0.000325803 0.000325344 0.000325203 0.000325616 0.000325387 0.000325621 0.000325762 0.000325364 0.000325244 0.000325601 0.000325419 0.000325613 0.000325733 0.00032538 0.000325286 0.000325581 0.000325431 0.000325603 0.000325697 0.000325404 0.000325323 0.000325573 0.000325456 0.000325588 0.00032567 0.000325424 0.000325363 0.000325566 0.000325474 0.000325586 0.000325647 0.000325443 0.000325391 0.000325551 0.000325483 0.000325567 0.000325619 0.000325454 0.000325412 0.000325544 0.000325495 0.000325558 0.000325599 0.00032547 0.000325445 0.000325539 0.000325501 0.000325552 0.000325577 0.000325491 0.000325469 0.000325532 0.000325514 0.000325537 0.000325559 0.0003255 0.000325487 0.000325529 0.000325519 0.000325536 0.000325548 0.000325501 0.00032549 0.00032552 0.000325524 0.000325526 0.000325537 0.000325519 0.000325514 0.000325525 0.000325525 0.000325525 0.000325529 0.000325519 0.00032551 0.000325775 0.000324652 0.000324877 0.000324877 0.000326121 0.000325689 0.000325761 0.000324217 0.000325015 0.000325446 0.000325039 0.000324494 0.000326226 0.000324578 0.000325746 0.000326293 0.000325068 0.000324421 0.00032608 0.000324742 0.000325736 0.000326386 0.000325073 0.000324399 0.000326005 0.000324833 0.000325732 0.000326409 0.000325079 0.000324412 0.000325961 0.000324884 0.000325735 0.000326405 0.000325075 0.00032443 0.00032593 0.000324927 0.000325734 0.000326381 0.000325087 0.000324473 0.000325907 0.000324971 0.000325733 0.000326349 0.000325101 0.000324522 0.000325882 0.000325008 0.00032573 0.000326311 0.000325128 0.000324588 0.000325864 0.000325048 0.000325725 0.000326267 0.000325145 0.000324649 0.000325842 0.000325079 0.000325721 0.000326218 0.000325165 0.00032471 0.000325814 0.000325119 0.000325708 0.000326165 0.000325188 0.000324772 0.000325789 0.000325159 0.000325706 0.000326123 0.000325213 0.000324834 0.000325773 0.000325188 0.000325694 0.000326074 0.00032523 0.000324891 0.000325744 0.00032523 0.00032569 0.000326031 0.00032526 0.000324954 0.000325725 0.000325253 0.00032567 0.000325977 0.000325273 0.000325005 0.000325703 0.00032529 0.000325662 0.00032593 0.000325307 0.000325066 0.000325678 0.000325321 0.000325654 0.000325895 0.000325326 0.000325111 0.000325663 0.000325343 0.000325637 0.000325852 0.00032534 0.000325158 0.000325636 0.000325371 0.00032563 0.000325811 0.000325368 0.000325206 0.000325626 0.000325389 0.000325613 0.000325776 0.000325385 0.000325249 0.000325613 0.000325412 0.000325603 0.000325738 0.0003254 0.00032529 0.000325589 0.000325436 0.000325601 0.00032571 0.000325414 0.00032532 0.000325584 0.000325455 0.000325577 0.000325672 0.000325439 0.000325361 0.000325569 0.000325462 0.000325573 0.000325652 0.000325442 0.000325386 0.000325563 0.000325479 0.00032557 0.000325626 0.000325463 0.000325415 0.000325553 0.000325492 0.000325559 0.000325607 0.000325478 0.00032544 0.000325543 0.000325497 0.000325549 0.000325588 0.000325484 0.000325464 0.000325544 0.000325501 0.000325546 0.000325567 0.000325497 0.000325478 0.000325539 0.000325516 0.000325537 0.000325556 0.000325509 0.000325494 0.000325532 0.000325522 0.000325536 0.000325551 0.000325516 0.000325508 0.000325533 0.000325517 0.000325524 0.000325532 0.000325517 0.00032552 0.000325806 0.000324914 0.000325308 0.000325308 0.000325815 0.000325411 0.000325848 0.000324842 0.000325316 0.00032572 0.000325591 0.000324985 0.000325851 0.000324562 0.000325396 0.000326002 0.00032504 0.000324383 0.000326141 0.000324742 0.000325788 0.000326448 0.000325085 0.000324381 0.000326063 0.00032483 0.000325766 0.000326473 0.000325103 0.000324394 0.000326014 0.000324893 0.000325755 0.000326467 0.000325118 0.000324431 0.000325978 0.000324945 0.000325741 0.000326431 0.00032514 0.000324484 0.000325947 0.000324986 0.00032574 0.000326398 0.000325159 0.000324539 0.000325915 0.000325027 0.000325723 0.000326345 0.000325179 0.000324604 0.000325892 0.000325062 0.00032572 0.000326297 0.0003252 0.00032467 0.000325865 0.000325102 0.000325709 0.00032624 0.000325223 0.000324735 0.000325838 0.000325132 0.000325698 0.000326188 0.000325238 0.000324795 0.00032581 0.000325171 0.000325689 0.000326133 0.000325254 0.000324856 0.000325784 0.000325201 0.000325681 0.00032608 0.000325279 0.000324923 0.00032576 0.000325241 0.000325673 0.00032603 0.000325295 0.000324973 0.000325735 0.000325264 0.000325653 0.000325976 0.000325319 0.00032503 0.00032571 0.000325298 0.00032565 0.00032594 0.00032534 0.000325087 0.000325694 0.000325328 0.000325642 0.000325895 0.000325352 0.000325133 0.000325676 0.000325351 0.00032563 0.000325849 0.000325376 0.000325182 0.000325651 0.000325377 0.000325618 0.000325812 0.000325383 0.000325222 0.000325636 0.000325391 0.000325605 0.000325766 0.000325403 0.000325265 0.000325624 0.00032541 0.000325598 0.000325736 0.00032542 0.000325305 0.000325605 0.000325437 0.000325593 0.000325709 0.000325426 0.000325332 0.000325588 0.000325437 0.000325579 0.000325673 0.000325444 0.000325365 0.000325586 0.00032546 0.000325574 0.000325652 0.000325456 0.000325393 0.000325569 0.00032548 0.000325559 0.000325622 0.000325472 0.000325423 0.000325561 0.000325487 0.000325559 0.000325608 0.000325482 0.000325448 0.000325551 0.000325498 0.000325555 0.000325589 0.000325492 0.000325456 0.000325547 0.000325503 0.00032554 0.000325576 0.000325502 0.000325487 0.000325541 0.000325506 0.000325543 0.000325558 0.000325508 0.000325491 0.000325534 0.000325515 0.000325528 0.000325545 0.00032551 0.0003255 0.000325534 0.000325514 0.000325527 0.000325538 0.000325523 0.000325509 0.000325872 0.000325052 0.000325718 0.000325718 0.000325552 0.000325152 0.000325917 0.000324962 0.000325586 0.000325986 0.000325496 0.000324879 0.000325922 0.000324936 0.00032556 0.000326178 0.000325393 0.000324683 0.000325938 0.000324757 0.000325583 0.000326295 0.000325109 0.000324376 0.000326106 0.000324852 0.000325778 0.000326514 0.000325149 0.000324405 0.000326056 0.000324914 0.000325767 0.000326514 0.000325172 0.000324446 0.000326019 0.00032496 0.000325748 0.000326476 0.000325196 0.000324511 0.00032598 0.000325007 0.000325736 0.000326423 0.000325213 0.000324569 0.00032595 0.000325045 0.000325724 0.00032637 0.000325236 0.000324637 0.000325925 0.000325083 0.000325709 0.00032631 0.000325255 0.000324707 0.000325888 0.000325118 0.000325696 0.000326245 0.000325273 0.000324771 0.000325857 0.000325153 0.000325686 0.000326188 0.000325292 0.000324839 0.000325831 0.00032519 0.000325679 0.000326134 0.00032531 0.000324899 0.0003258 0.000325221 0.000325665 0.000326077 0.000325323 0.000324955 0.000325773 0.000325256 0.000325658 0.000326027 0.000325342 0.000325013 0.000325747 0.000325277 0.000325643 0.000325972 0.000325358 0.000325064 0.000325729 0.000325311 0.000325633 0.000325927 0.00032537 0.000325119 0.000325703 0.000325335 0.000325628 0.00032588 0.000325387 0.000325161 0.000325672 0.000325354 0.000325607 0.000325834 0.000325399 0.000325202 0.00032566 0.000325383 0.000325607 0.000325805 0.000325416 0.000325247 0.000325639 0.0003254 0.000325594 0.000325762 0.000325431 0.000325283 0.000325624 0.00032542 0.00032559 0.000325738 0.000325446 0.000325318 0.000325605 0.000325439 0.000325576 0.000325704 0.00032545 0.000325354 0.0003256 0.000325447 0.000325572 0.000325669 0.000325456 0.000325376 0.000325582 0.000325464 0.000325565 0.000325644 0.000325476 0.000325409 0.000325574 0.000325472 0.000325553 0.00032562 0.000325482 0.000325435 0.000325562 0.000325486 0.000325553 0.000325599 0.000325488 0.000325448 0.000325556 0.000325498 0.000325547 0.000325587 0.000325494 0.000325465 0.000325554 0.000325497 0.000325539 0.000325569 0.000325503 0.000325481 0.000325539 0.000325511 0.000325533 0.000325556 0.000325508 0.000325491 0.000325538 0.000325503 0.000325526 0.000325544 0.000325509 0.000325504 0.000325543 0.000325508 0.000325534 0.000325539 0.000325514 0.000325513 0.000325964 0.00032514 0.000326134 0.000326134 0.000325296 0.000324882 0.000326 0.000325046 0.000325857 0.000326272 0.000325379 0.000324736 0.000325996 0.000325007 0.000325717 0.000326361 0.00032537 0.000324625 0.000325994 0.000324982 0.000325672 0.000326419 0.000325338 0.00032456 0.000326003 0.000324876 0.000325672 0.00032645 0.000325203 0.000324431 0.000326093 0.000324943 0.000325766 0.000326541 0.000325231 0.000324486 0.000326055 0.000324985 0.000325752 0.0003265 0.000325256 0.000324547 0.000326023 0.000325032 0.000325735 0.000326446 0.000325275 0.000324615 0.000325989 0.000325069 0.000325719 0.000326381 0.000325295 0.000324693 0.00032595 0.000325108 0.000325702 0.000326305 0.000325322 0.000324761 0.000325908 0.000325137 0.000325686 0.000326249 0.000325328 0.000324823 0.000325881 0.000325171 0.00032567 0.000326176 0.000325342 0.000324885 0.000325847 0.000325209 0.000325659 0.000326116 0.000325359 0.00032495 0.000325818 0.00032524 0.000325651 0.000326061 0.000325374 0.000325005 0.000325782 0.000325272 0.000325636 0.000326006 0.000325386 0.000325058 0.00032576 0.000325297 0.000325626 0.000325955 0.0003254 0.00032511 0.000325729 0.000325316 0.000325616 0.000325906 0.000325411 0.000325155 0.000325703 0.000325346 0.000325606 0.000325862 0.00032542 0.000325199 0.000325689 0.000325371 0.000325597 0.000325819 0.000325435 0.000325241 0.000325665 0.000325391 0.000325588 0.000325782 0.000325444 0.000325278 0.000325645 0.000325408 0.000325582 0.000325748 0.000325454 0.000325308 0.000325626 0.000325427 0.000325567 0.000325713 0.000325461 0.000325345 0.000325609 0.000325441 0.000325569 0.000325685 0.00032547 0.000325375 0.000325597 0.000325455 0.000325562 0.000325657 0.000325483 0.000325406 0.000325587 0.000325468 0.000325555 0.000325631 0.000325486 0.000325424 0.000325569 0.000325475 0.000325546 0.000325608 0.000325495 0.000325443 0.000325559 0.000325486 0.000325539 0.000325592 0.000325495 0.000325461 0.000325552 0.000325493 0.00032554 0.000325574 0.000325502 0.000325481 0.000325547 0.000325497 0.000325536 0.000325557 0.000325512 0.000325489 0.000325543 0.000325503 0.000325529 0.000325552 0.000325509 0.000325503 0.000325545 0.000325501 0.000325533 0.000325539 0.000325513 0.000325499 0.000325545 0.000325503 0.000325522 0.000325536 0.000325512 0.00032551 0.000326094 0.000325193 0.00032659 0.00032659 0.000325025 0.000324563 0.000326085 0.000325094 0.000326126 0.00032659 0.000325239 0.000324555 0.000326076 0.000325055 0.000325891 0.000326576 0.000325334 0.000324548 0.000326058 0.000325041 0.000325774 0.000326563 0.000325364 0.000324553 0.000326058 0.000325028 0.000325732 0.000326544 0.00032536 0.000324559 0.000326052 0.00032497 0.000325706 0.000326508 0.000325296 0.000324527 0.000326093 0.000325023 0.000325748 0.00032652 0.000325324 0.000324592 0.00032605 0.000325059 0.000325719 0.000326453 0.000325345 0.000324675 0.000326014 0.000325091 0.000325701 0.000326373 0.00032536 0.000324747 0.000325973 0.000325128 0.000325689 0.000326303 0.000325375 0.000324824 0.000325939 0.000325167 0.000325676 0.000326227 0.000325388 0.000324888 0.000325899 0.000325195 0.000325656 0.000326157 0.000325406 0.000324949 0.000325863 0.000325231 0.000325643 0.0003261 0.000325418 0.000325009 0.000325822 0.000325264 0.000325622 0.000326032 0.000325431 0.000325068 0.000325797 0.000325294 0.000325619 0.000325982 0.000325439 0.000325116 0.000325765 0.00032531 0.000325605 0.000325928 0.000325444 0.000325159 0.000325734 0.000325344 0.000325593 0.000325878 0.000325457 0.000325202 0.000325708 0.000325361 0.00032558 0.000325836 0.000325458 0.000325244 0.000325688 0.000325383 0.000325573 0.000325787 0.000325474 0.000325284 0.000325669 0.000325406 0.000325567 0.000325758 0.000325483 0.000325319 0.000325641 0.000325422 0.000325558 0.000325722 0.000325484 0.000325354 0.000325628 0.000325436 0.000325554 0.000325685 0.000325494 0.000325382 0.000325608 0.000325455 0.000325549 0.000325661 0.000325495 0.000325402 0.000325591 0.000325462 0.000325541 0.000325633 0.000325497 0.000325425 0.000325581 0.000325473 0.000325534 0.000325607 0.000325506 0.000325451 0.000325571 0.000325482 0.000325537 0.000325592 0.000325505 0.000325462 0.000325555 0.000325491 0.00032553 0.000325574 0.00032551 0.000325477 0.000325551 0.0003255 0.000325526 0.000325559 0.000325511 0.000325495 0.000325541 0.000325501 0.000325525 0.000325542 0.000325512 0.000325503 0.000325538 0.000325502 0.000325528 0.000325537 0.000325517 0.000325504 0.000325539 0.000325503 0.000325523 0.000325536 0.000325514 0.000325511 0.000325546 0.000325497 0.000325528 0.000325532 0.00032552 0.000325507 0.000326298 0.000325206 0.000327107 0.000327107 0.000324715 0.000324211 0.000326237 0.000325123 0.000326445 0.000326951 0.000325084 0.000324368 0.000326211 0.000325085 0.000326104 0.000326824 0.000325271 0.000324462 0.000326178 0.000325073 0.000325928 0.000326739 0.000325357 0.000324537 0.00032616 0.000325077 0.000325832 0.000326654 0.000325402 0.0003246 0.000326132 0.000325077 0.000325764 0.000326568 0.000325422 0.000324657 0.000326103 0.000325055 0.000325733 0.0003265 0.000325398 0.000324687 0.000326097 0.000325094 0.000325735 0.000326448 0.000325424 0.000324768 0.000326053 0.000325132 0.000325706 0.000326364 0.000325442 0.00032485 0.000326006 0.000325168 0.000325685 0.000326278 0.000325451 0.000324912 0.000325958 0.000325198 0.000325659 0.000326198 0.000325461 0.000324975 0.000325916 0.000325235 0.000325639 0.000326126 0.000325477 0.000325045 0.00032588 0.000325265 0.00032563 0.000326062 0.000325485 0.000325096 0.000325839 0.00032529 0.000325615 0.000326003 0.000325489 0.000325137 0.000325808 0.000325314 0.000325595 0.000325947 0.000325492 0.000325193 0.000325775 0.000325344 0.000325589 0.000325888 0.000325503 0.000325233 0.000325741 0.000325364 0.000325573 0.000325844 0.000325505 0.000325272 0.000325717 0.000325388 0.000325566 0.0003258 0.000325515 0.000325313 0.000325688 0.000325403 0.000325556 0.000325758 0.000325518 0.000325342 0.000325662 0.000325421 0.000325543 0.000325719 0.000325522 0.000325373 0.000325642 0.000325439 0.000325533 0.000325683 0.000325521 0.000325401 0.000325623 0.000325452 0.000325539 0.000325659 0.000325525 0.00032542 0.0003256 0.000325467 0.00032552 0.000325626 0.000325525 0.000325441 0.000325587 0.000325481 0.000325522 0.000325606 0.000325532 0.000325462 0.000325568 0.000325481 0.000325514 0.000325583 0.000325528 0.000325484 0.000325564 0.000325492 0.000325515 0.000325559 0.000325526 0.000325494 0.000325548 0.000325501 0.000325518 0.00032555 0.000325525 0.0003255 0.000325546 0.000325503 0.000325517 0.000325542 0.000325527 0.000325508 0.000325537 0.000325507 0.000325511 0.00032553 0.000325523 0.000325515 0.000325534 0.000325511 0.000325517 0.000325526 0.000325521 0.000325518 0.000325533 0.000325503 0.000325517 0.00032552 0.000325519 0.000325514 0.000325532 0.000325502 0.000325518 0.000325523 0.000325519 0.000325515 0.000326391 0.000325118 0.000327585 0.000327585 0.000324317 0.000323797 0.00032645 0.000325049 0.000326811 0.000327335 0.000324845 0.000324134 0.00032644 0.000325023 0.000326392 0.000327108 0.000325131 0.000324367 0.000326401 0.000325042 0.000326152 0.000326921 0.000325293 0.000324535 0.000326347 0.000325061 0.000326005 0.000326767 0.000325388 0.000324661 0.00032629 0.000325074 0.000325894 0.000326624 0.000325441 0.000324766 0.000326229 0.000325101 0.000325821 0.000326499 0.00032547 0.000324848 0.000326158 0.000325128 0.00032577 0.000326393 0.000325489 0.000324919 0.000326111 0.000325159 0.00032573 0.000326301 0.000325505 0.000324986 0.000326045 0.000325196 0.000325693 0.000326212 0.000325517 0.000325045 0.000325996 0.00032523 0.000325658 0.000326131 0.000325528 0.000325111 0.000325949 0.00032526 0.000325641 0.000326059 0.000325537 0.000325164 0.000325894 0.000325292 0.000325618 0.000325991 0.000325542 0.000325213 0.000325864 0.000325323 0.000325601 0.00032593 0.000325546 0.00032526 0.000325824 0.000325337 0.000325582 0.000325868 0.00032555 0.000325295 0.000325778 0.000325369 0.000325568 0.000325823 0.000325555 0.000325326 0.000325744 0.000325392 0.000325555 0.000325784 0.00032556 0.000325355 0.000325715 0.00032541 0.000325536 0.00032574 0.000325561 0.000325389 0.000325687 0.000325427 0.00032553 0.000325702 0.000325558 0.000325412 0.000325655 0.000325445 0.000325524 0.000325669 0.000325563 0.000325436 0.000325635 0.000325452 0.00032551 0.000325638 0.000325561 0.000325458 0.000325615 0.00032548 0.000325505 0.000325607 0.000325563 0.000325485 0.000325589 0.000325478 0.000325504 0.000325582 0.000325557 0.000325491 0.000325579 0.000325493 0.000325491 0.000325557 0.000325558 0.000325511 0.000325562 0.000325502 0.0003255 0.000325547 0.000325555 0.000325513 0.000325548 0.000325507 0.000325489 0.000325531 0.000325555 0.000325539 0.000325545 0.000325513 0.000325499 0.000325516 0.000325543 0.000325537 0.000325526 0.000325517 0.000325498 0.000325504 0.000325546 0.000325535 0.000325525 0.000325514 0.000325496 0.000325507 0.00032554 0.000325536 0.000325514 0.000325521 0.000325503 0.000325506 0.000325538 0.000325534 0.000325522 0.000325515 0.000325507 0.000325511 0.000325532 0.000325529 0.000325529 0.000325516 0.000325516 0.000325519 0.000325531 0.000325524 0.000325931 0.000324082 0.000324879 0.000324879 0.000325628 0.000325004 0.000326287 0.000324455 0.000325465 0.000326088 0.000325292 0.000324601 0.000326076 0.000324634 0.000325507 0.0003262 0.000325174 0.000324516 0.000325992 0.000324721 0.000325576 0.000326235 0.000325113 0.000324487 0.000325946 0.00032478 0.000325623 0.000326252 0.00032508 0.000324482 0.000325919 0.000324821 0.000325661 0.000326261 0.000325059 0.000324495 0.000325898 0.000324863 0.000325689 0.000326255 0.000325054 0.00032452 0.000325884 0.000324904 0.000325708 0.000326244 0.000325065 0.000324553 0.000325862 0.000324943 0.000325712 0.000326226 0.000325076 0.000324602 0.000325846 0.000324993 0.000325725 0.0003262 0.000325088 0.000324652 0.000325819 0.00032503 0.000325722 0.00032616 0.000325111 0.000324713 0.000325797 0.000325073 0.000325721 0.00032612 0.00032513 0.000324763 0.000325771 0.000325121 0.000325713 0.000326081 0.000325159 0.000324822 0.000325751 0.000325165 0.000325709 0.000326047 0.000325179 0.000324882 0.000325735 0.000325196 0.0003257 0.000325998 0.00032521 0.000324939 0.000325709 0.000325245 0.000325692 0.000325964 0.000325232 0.000324991 0.000325693 0.000325261 0.00032568 0.000325922 0.000325261 0.000325053 0.000325664 0.000325302 0.000325666 0.000325874 0.000325271 0.00032509 0.000325651 0.000325327 0.000325655 0.000325836 0.00032532 0.000325158 0.000325633 0.00032536 0.000325643 0.000325805 0.000325329 0.000325203 0.000325612 0.000325384 0.00032563 0.000325756 0.000325352 0.000325237 0.0003256 0.000325409 0.000325618 0.000325732 0.000325378 0.000325286 0.000325592 0.000325428 0.000325611 0.000325703 0.000325399 0.000325326 0.000325574 0.000325451 0.000325595 0.000325668 0.000325419 0.00032536 0.000325563 0.000325472 0.000325586 0.000325645 0.000325443 0.00032539 0.000325556 0.000325479 0.000325568 0.00032562 0.000325449 0.00032542 0.000325542 0.000325492 0.000325565 0.000325595 0.000325471 0.000325438 0.000325541 0.000325508 0.000325545 0.000325579 0.000325489 0.000325465 0.000325531 0.000325509 0.00032554 0.000325564 0.000325499 0.000325486 0.00032553 0.000325524 0.000325534 0.000325547 0.000325504 0.000325501 0.000325524 0.000325519 0.000325529 0.000325533 0.000325514 0.000325511 0.000325527 0.000325522 0.000325529 0.000325533 0.000325525 0.000325522 0.000325777 0.000324906 0.000325095 0.000325095 0.000325968 0.000325555 0.000325854 0.000324445 0.000325207 0.00032562 0.000325264 0.000324622 0.000326176 0.000324602 0.000325644 0.000326287 0.000325169 0.000324462 0.000326083 0.000324718 0.000325637 0.000326347 0.000325132 0.00032444 0.000326019 0.00032479 0.000325671 0.000326365 0.000325111 0.000324445 0.000325981 0.000324847 0.000325684 0.000326352 0.000325104 0.000324462 0.000325953 0.000324892 0.0003257 0.000326344 0.0003251 0.000324501 0.000325923 0.000324936 0.000325715 0.000326317 0.000325111 0.000324546 0.0003259 0.000324975 0.000325717 0.000326283 0.000325124 0.000324599 0.000325876 0.000325016 0.000325725 0.000326251 0.000325136 0.000324658 0.000325846 0.000325057 0.000325721 0.0003262 0.000325154 0.000324709 0.000325815 0.000325102 0.000325714 0.00032616 0.000325178 0.00032477 0.000325796 0.00032514 0.000325709 0.000326119 0.000325198 0.000324833 0.00032577 0.00032518 0.000325699 0.000326064 0.000325222 0.000324885 0.000325748 0.000325212 0.000325693 0.000326031 0.000325247 0.000324949 0.000325725 0.000325252 0.000325682 0.00032598 0.000325269 0.000325002 0.000325695 0.000325275 0.000325664 0.000325932 0.000325288 0.000325056 0.000325676 0.000325307 0.000325662 0.000325894 0.000325306 0.000325103 0.000325664 0.000325336 0.000325646 0.000325849 0.000325332 0.000325155 0.000325643 0.000325362 0.000325641 0.000325819 0.000325352 0.000325202 0.000325628 0.00032539 0.000325623 0.000325773 0.000325372 0.000325242 0.000325608 0.000325409 0.000325619 0.000325749 0.000325392 0.000325281 0.000325592 0.000325425 0.000325601 0.000325711 0.000325406 0.000325318 0.000325574 0.000325446 0.000325588 0.000325677 0.000325425 0.000325358 0.000325579 0.000325465 0.000325585 0.000325653 0.000325442 0.000325389 0.000325565 0.000325475 0.000325568 0.000325621 0.000325463 0.000325418 0.000325551 0.000325494 0.000325564 0.00032561 0.000325471 0.000325436 0.000325547 0.000325488 0.000325554 0.00032559 0.000325484 0.000325456 0.000325544 0.000325504 0.000325546 0.000325573 0.000325495 0.000325479 0.000325533 0.000325516 0.000325536 0.000325552 0.000325512 0.000325493 0.000325527 0.000325519 0.00032553 0.000325549 0.000325514 0.000325498 0.00032553 0.000325524 0.000325518 0.000325534 0.000325522 0.000325515 0.000325793 0.000325051 0.00032537 0.00032537 0.000325738 0.000325401 0.000325862 0.000324925 0.00032539 0.000325727 0.000325578 0.000324985 0.000325921 0.000324648 0.00032546 0.000326052 0.000325178 0.00032448 0.000326131 0.000324715 0.000325707 0.000326409 0.00032516 0.000324427 0.000326076 0.000324799 0.000325698 0.000326434 0.000325146 0.000324436 0.000326039 0.000324849 0.000325713 0.000326426 0.000325146 0.000324467 0.000326001 0.000324898 0.000325718 0.000326398 0.00032515 0.000324516 0.000325971 0.000324949 0.000325725 0.00032636 0.000325156 0.000324561 0.000325932 0.000324987 0.000325725 0.000326321 0.000325169 0.000324615 0.000325899 0.000325036 0.000325725 0.00032628 0.000325187 0.000324666 0.000325871 0.000325078 0.00032571 0.000326232 0.000325203 0.000324735 0.000325846 0.000325118 0.000325717 0.000326186 0.000325218 0.000324791 0.000325809 0.000325152 0.0003257 0.000326127 0.000325239 0.000324848 0.000325787 0.000325188 0.000325691 0.000326082 0.000325259 0.000324909 0.000325759 0.000325226 0.000325682 0.000326033 0.000325281 0.00032497 0.000325731 0.000325249 0.00032567 0.000325982 0.000325293 0.00032502 0.000325719 0.000325289 0.000325662 0.000325935 0.00032532 0.000325078 0.000325695 0.000325323 0.000325653 0.000325895 0.000325337 0.000325128 0.000325667 0.000325337 0.000325642 0.000325851 0.000325355 0.000325169 0.000325655 0.000325378 0.000325628 0.000325814 0.00032538 0.000325219 0.000325632 0.000325388 0.000325619 0.00032578 0.000325393 0.000325256 0.000325619 0.000325417 0.000325608 0.000325744 0.000325406 0.000325293 0.000325599 0.00032543 0.0003256 0.000325713 0.000325421 0.000325327 0.000325594 0.000325449 0.000325587 0.000325681 0.000325435 0.000325358 0.000325574 0.000325459 0.000325576 0.000325653 0.000325452 0.000325382 0.00032556 0.00032547 0.000325569 0.00032564 0.000325466 0.000325418 0.000325561 0.000325492 0.000325563 0.000325611 0.000325479 0.00032544 0.000325547 0.000325494 0.000325549 0.000325589 0.000325486 0.000325456 0.000325548 0.000325502 0.000325543 0.000325573 0.000325501 0.000325476 0.00032554 0.000325508 0.000325531 0.000325556 0.000325505 0.000325487 0.000325531 0.000325514 0.00032553 0.000325548 0.000325512 0.000325501 0.000325536 0.00032551 0.000325526 0.000325537 0.000325521 0.000325512 0.000325858 0.000325103 0.000325667 0.000325667 0.000325531 0.000325196 0.000325938 0.000325 0.000325589 0.000325924 0.000325476 0.000324917 0.000325949 0.000324933 0.000325564 0.000326124 0.000325396 0.000324709 0.000325987 0.000324765 0.000325605 0.000326291 0.000325187 0.000324449 0.000326108 0.000324806 0.000325743 0.000326483 0.000325182 0.000324447 0.000326077 0.000324861 0.000325731 0.000326467 0.000325186 0.000324479 0.000326042 0.000324912 0.000325733 0.000326441 0.000325194 0.000324528 0.000326001 0.000324964 0.000325736 0.000326404 0.000325209 0.000324587 0.000325968 0.00032501 0.000325725 0.000326348 0.000325216 0.000324645 0.000325934 0.000325055 0.000325725 0.000326297 0.000325228 0.000324708 0.000325897 0.000325088 0.000325719 0.000326241 0.000325249 0.000324771 0.000325862 0.000325127 0.000325705 0.000326184 0.000325255 0.000324828 0.000325836 0.000325171 0.000325697 0.000326125 0.00032528 0.000324893 0.000325807 0.000325207 0.000325688 0.000326076 0.000325303 0.000324951 0.000325776 0.000325241 0.000325672 0.000326025 0.000325316 0.000325006 0.000325757 0.000325274 0.000325663 0.000325974 0.000325334 0.000325061 0.000325725 0.000325296 0.000325658 0.000325931 0.000325353 0.000325108 0.000325701 0.00032533 0.000325643 0.000325888 0.000325372 0.000325156 0.00032568 0.000325357 0.000325629 0.000325845 0.000325383 0.000325201 0.000325656 0.000325367 0.000325618 0.0003258 0.000325393 0.000325234 0.000325642 0.0003254 0.000325609 0.000325769 0.000325412 0.00032528 0.000325625 0.000325414 0.000325604 0.000325736 0.000325425 0.000325307 0.00032561 0.000325438 0.000325591 0.000325709 0.000325437 0.000325345 0.000325594 0.000325451 0.000325583 0.000325676 0.000325457 0.000325373 0.000325579 0.000325463 0.000325573 0.000325658 0.000325461 0.000325399 0.000325567 0.000325475 0.000325559 0.000325621 0.000325466 0.000325419 0.000325563 0.000325487 0.000325559 0.000325606 0.000325485 0.000325449 0.000325552 0.000325491 0.000325551 0.000325586 0.000325489 0.000325463 0.00032555 0.000325492 0.000325549 0.000325574 0.000325497 0.000325478 0.000325541 0.000325503 0.000325541 0.00032556 0.000325512 0.000325495 0.000325536 0.000325509 0.000325534 0.00032555 0.000325509 0.000325496 0.000325539 0.000325511 0.000325532 0.000325545 0.000325521 0.000325508 0.000325952 0.000325123 0.000325991 0.000325991 0.000325319 0.000324962 0.000326017 0.000325017 0.000325793 0.000326151 0.00032537 0.000324795 0.000326027 0.000324972 0.000325703 0.000326278 0.000325359 0.000324675 0.000326034 0.000324943 0.000325686 0.000326369 0.000325326 0.0003246 0.000326053 0.000324856 0.000325694 0.000326421 0.000325219 0.00032448 0.000326106 0.000324882 0.000325762 0.000326503 0.000325226 0.00032451 0.00032608 0.000324936 0.000325759 0.000326477 0.000325243 0.000324568 0.000326037 0.000324986 0.000325742 0.000326419 0.00032525 0.000324624 0.000326003 0.000325024 0.000325732 0.000326359 0.000325266 0.000324692 0.000325963 0.000325074 0.000325726 0.000326301 0.000325282 0.000324767 0.00032593 0.000325114 0.000325717 0.000326233 0.000325291 0.000324818 0.000325887 0.000325158 0.000325704 0.000326177 0.000325314 0.000324882 0.000325851 0.000325192 0.000325691 0.000326124 0.00032533 0.000324943 0.000325818 0.00032522 0.000325676 0.000326063 0.000325339 0.000324998 0.000325791 0.000325258 0.000325666 0.000326007 0.000325362 0.000325057 0.000325761 0.000325284 0.000325651 0.000325955 0.000325377 0.000325103 0.000325735 0.000325318 0.000325638 0.000325913 0.000325384 0.000325144 0.000325706 0.000325343 0.000325627 0.000325867 0.0003254 0.00032519 0.000325683 0.000325365 0.000325613 0.000325823 0.000325416 0.000325235 0.000325662 0.000325389 0.000325609 0.000325791 0.000325426 0.000325271 0.000325642 0.000325405 0.000325595 0.00032575 0.000325437 0.000325303 0.000325623 0.000325421 0.000325586 0.00032572 0.000325442 0.000325337 0.000325613 0.000325441 0.000325587 0.000325692 0.000325459 0.000325369 0.000325598 0.000325457 0.000325571 0.000325661 0.000325468 0.000325395 0.000325582 0.000325467 0.000325566 0.000325639 0.000325473 0.000325419 0.00032557 0.000325474 0.00032556 0.000325614 0.000325482 0.000325437 0.000325563 0.000325487 0.000325552 0.000325597 0.00032549 0.000325458 0.00032555 0.000325498 0.000325548 0.000325579 0.0003255 0.000325469 0.000325546 0.000325507 0.000325538 0.000325569 0.000325508 0.000325487 0.000325536 0.000325501 0.000325535 0.000325556 0.000325501 0.000325487 0.000325543 0.000325507 0.000325529 0.000325544 0.00032551 0.000325505 0.000325538 0.000325507 0.000325537 0.000325542 0.000325514 0.000325505 0.000326066 0.000325118 0.000326336 0.000326336 0.000325084 0.000324675 0.00032612 0.000325016 0.000326026 0.000326435 0.000325243 0.000324629 0.000326121 0.000324979 0.000325854 0.000326469 0.000325305 0.000324602 0.000326108 0.000324973 0.000325783 0.000326486 0.000325322 0.000324589 0.000326096 0.000324954 0.000325748 0.000326481 0.000325313 0.000324582 0.000326094 0.000324924 0.000325752 0.000326483 0.000325267 0.000324558 0.000326106 0.000324961 0.000325769 0.000326478 0.000325281 0.00032461 0.000326068 0.000325002 0.000325753 0.000326425 0.000325296 0.000324675 0.000326029 0.000325045 0.00032574 0.000326362 0.000325314 0.000324748 0.000325987 0.000325094 0.000325722 0.000326289 0.000325331 0.000324812 0.000325943 0.000325133 0.000325704 0.000326222 0.000325344 0.000324883 0.000325907 0.000325178 0.00032569 0.000326151 0.00032536 0.000324945 0.000325869 0.000325216 0.000325682 0.000326097 0.000325375 0.000325 0.000325825 0.000325246 0.000325657 0.000326032 0.000325387 0.000325057 0.000325795 0.000325277 0.000325652 0.000325982 0.000325402 0.000325106 0.000325768 0.000325309 0.000325628 0.000325924 0.000325419 0.00032515 0.000325733 0.00032533 0.000325616 0.000325885 0.000325426 0.0003252 0.000325714 0.000325369 0.000325611 0.000325837 0.000325448 0.00032524 0.000325682 0.000325374 0.000325596 0.000325804 0.000325443 0.000325277 0.00032567 0.000325403 0.000325589 0.000325755 0.000325455 0.000325317 0.000325642 0.000325416 0.000325587 0.000325725 0.000325463 0.000325343 0.000325623 0.00032544 0.000325574 0.000325694 0.000325478 0.000325374 0.000325603 0.000325456 0.000325559 0.000325662 0.000325481 0.000325397 0.000325591 0.00032546 0.000325556 0.00032564 0.000325487 0.00032542 0.000325578 0.000325476 0.000325553 0.00032562 0.000325492 0.000325444 0.000325569 0.000325487 0.000325549 0.000325597 0.000325497 0.000325459 0.000325562 0.000325493 0.000325542 0.00032558 0.000325505 0.000325479 0.000325546 0.000325498 0.000325542 0.000325568 0.000325501 0.000325487 0.000325541 0.000325508 0.000325539 0.000325553 0.000325516 0.0003255 0.000325534 0.000325511 0.000325531 0.000325547 0.000325512 0.000325499 0.000325539 0.000325501 0.00032553 0.000325542 0.000325515 0.000325506 0.000325539 0.000325507 0.000325526 0.000325535 0.000325508 0.000325504 0.000326214 0.000325093 0.000326731 0.000326731 0.000324829 0.000324323 0.000326227 0.000324989 0.000326262 0.000326771 0.000325086 0.000324406 0.00032622 0.000324957 0.000326026 0.000326709 0.000325225 0.000324486 0.000326204 0.000324967 0.000325907 0.000326647 0.000325292 0.000324541 0.000326171 0.000324983 0.000325834 0.000326585 0.00032533 0.000324596 0.000326137 0.000325004 0.000325788 0.000326522 0.000325345 0.000324647 0.000326122 0.000324995 0.000325769 0.000326467 0.00032533 0.000324678 0.000326099 0.000325036 0.000325761 0.000326413 0.000325348 0.000324746 0.000326054 0.000325082 0.000325739 0.000326342 0.000325369 0.000324822 0.000326006 0.000325127 0.000325715 0.000326263 0.00032539 0.000324897 0.000325959 0.000325166 0.000325696 0.000326189 0.000325404 0.000324959 0.000325916 0.000325204 0.000325673 0.000326118 0.00032542 0.000325026 0.000325875 0.000325243 0.000325662 0.000326057 0.00032543 0.000325078 0.000325839 0.000325279 0.000325642 0.000325993 0.000325446 0.000325126 0.000325803 0.000325306 0.000325628 0.000325948 0.000325448 0.00032517 0.000325768 0.000325321 0.00032561 0.000325888 0.00032546 0.000325225 0.000325744 0.00032536 0.000325601 0.000325837 0.000325477 0.000325265 0.000325706 0.000325377 0.000325581 0.000325793 0.000325479 0.000325294 0.000325686 0.000325401 0.000325569 0.000325754 0.000325486 0.000325331 0.000325659 0.000325415 0.000325569 0.000325725 0.000325496 0.000325361 0.000325634 0.000325443 0.000325558 0.000325692 0.000325498 0.000325389 0.000325621 0.000325453 0.00032555 0.000325659 0.000325502 0.000325415 0.000325597 0.000325462 0.000325549 0.000325636 0.000325506 0.000325438 0.000325577 0.000325477 0.000325541 0.00032561 0.000325512 0.000325452 0.000325569 0.000325487 0.000325529 0.000325589 0.000325512 0.000325466 0.000325555 0.000325496 0.000325527 0.000325573 0.000325517 0.000325488 0.000325551 0.000325504 0.000325533 0.000325561 0.000325524 0.000325502 0.000325544 0.000325509 0.000325523 0.000325545 0.000325514 0.000325504 0.000325536 0.000325513 0.000325525 0.000325535 0.000325515 0.000325513 0.00032553 0.000325516 0.000325528 0.00032553 0.000325519 0.000325516 0.000325532 0.000325509 0.000325524 0.000325528 0.000325518 0.000325516 0.000325529 0.000325509 0.000325526 0.000325528 0.000325522 0.000325508 0.000326362 0.000325028 0.000327249 0.000327249 0.00032452 0.00032391 0.000326444 0.000324946 0.000326578 0.000327193 0.000324915 0.000324167 0.000326438 0.000324931 0.000326268 0.000327021 0.000325127 0.000324358 0.000326393 0.00032496 0.000326087 0.000326859 0.000325258 0.000324518 0.000326341 0.000324999 0.000325983 0.000326726 0.000325334 0.000324637 0.000326284 0.000325033 0.000325899 0.000326597 0.00032538 0.000324736 0.00032622 0.000325062 0.00032584 0.000326485 0.000325414 0.000324824 0.000326152 0.00032509 0.000325794 0.000326384 0.000325425 0.000324887 0.000326098 0.000325136 0.000325759 0.000326298 0.000325449 0.000324957 0.000326036 0.000325168 0.00032572 0.000326213 0.000325458 0.000325021 0.000325987 0.000325217 0.000325691 0.000326129 0.000325478 0.000325086 0.000325935 0.000325247 0.000325668 0.00032606 0.00032549 0.000325137 0.000325886 0.000325286 0.000325645 0.000325998 0.000325498 0.000325187 0.000325846 0.000325305 0.000325627 0.000325938 0.000325502 0.000325239 0.000325805 0.000325338 0.000325609 0.000325872 0.000325513 0.000325274 0.000325765 0.000325363 0.000325598 0.000325837 0.00032552 0.000325311 0.000325737 0.000325385 0.000325574 0.000325783 0.000325527 0.000325345 0.000325709 0.000325407 0.000325559 0.000325741 0.000325532 0.000325378 0.000325677 0.000325418 0.000325557 0.000325711 0.000325534 0.000325402 0.000325653 0.000325447 0.000325539 0.000325672 0.000325536 0.000325429 0.000325631 0.000325459 0.000325534 0.000325642 0.000325535 0.000325445 0.000325601 0.000325465 0.00032553 0.00032562 0.000325536 0.000325473 0.000325594 0.000325494 0.000325525 0.000325588 0.000325542 0.000325489 0.000325568 0.000325499 0.000325519 0.000325571 0.000325535 0.000325504 0.00032556 0.0003255 0.000325514 0.000325544 0.00032554 0.000325514 0.000325549 0.000325512 0.000325511 0.000325536 0.00032554 0.000325525 0.000325536 0.00032552 0.00032551 0.000325525 0.000325538 0.000325534 0.000325521 0.000325515 0.000325512 0.000325516 0.000325536 0.000325533 0.000325521 0.00032552 0.000325513 0.000325515 0.000325531 0.000325527 0.000325516 0.00032552 0.000325512 0.000325515 0.000325523 0.00032553 0.000325521 0.000325521 0.000325515 0.000325508 0.000325529 0.000325526 0.000325524 0.000325515 0.000325515 0.000325518 0.000325518 0.000325522 
SCALARS volume_diff float 1
LOOKUP_TABLE default
-4.32522e-07 -1.79575e-06 -1.10257e-06 -1.10257e-06 -5.14265e-07 -1.22843e-06 5.77381e-07 -8.8171e-07 1.96043e-07 9.40287e-07 -3.92339e-07 -1.13687e-06 6.14479e-07 -8.0571e-07 1.19947e-07 8.71796e-07 -3.67562e-07 -1.07927e-06 5.9302e-07 -7.63568e-07 1.31472e-07 8.47193e-07 -3.64962e-07 -1.04749e-06 5.67447e-07 -7.28023e-07 1.52776e-07 8.3819e-07 -3.62808e-07 -1.00981e-06 5.29845e-07 -6.84076e-07 1.68453e-07 8.17973e-07 -3.59471e-07 -9.71467e-07 4.92631e-07 -6.33726e-07 1.77689e-07 7.91896e-07 -3.61702e-07 -9.33011e-07 4.57745e-07 -5.88809e-07 1.81065e-07 7.54371e-07 -3.58152e-07 -8.77092e-07 4.28564e-07 -5.5598e-07 1.90921e-07 7.11569e-07 -3.44997e-07 -8.24026e-07 3.98606e-07 -5.00023e-07 1.96625e-07 6.77149e-07 -3.34791e-07 -7.79071e-07 3.64613e-07 -4.63702e-07 1.87157e-07 6.32756e-07 -3.21791e-07 -7.2389e-07 3.29533e-07 -4.32502e-07 1.85876e-07 5.89139e-07 -3.04581e-07 -6.6999e-07 3.00507e-07 -3.7575e-07 1.79435e-07 5.45794e-07 -2.80794e-07 -6.11161e-07 2.72489e-07 -3.39001e-07 1.72139e-07 5.03341e-07 -2.65543e-07 -5.57358e-07 2.45209e-07 -3.03514e-07 1.67172e-07 4.59724e-07 -2.51147e-07 -5.07493e-07 2.24371e-07 -2.73246e-07 1.546e-07 4.11528e-07 -2.22237e-07 -4.54815e-07 1.95461e-07 -2.3351e-07 1.40669e-07 3.73654e-07 -2.09373e-07 -4.14982e-07 1.64184e-07 -1.98585e-07 1.3089e-07 3.36906e-07 -1.88826e-07 -3.65738e-07 1.47149e-07 -1.72392e-07 1.21382e-07 2.98605e-07 -1.74313e-07 -3.17368e-07 1.24409e-07 -1.53435e-07 1.11254e-07 2.54523e-07 -1.49574e-07 -2.75691e-07 9.94575e-08 -1.19869e-07 1.01669e-07 2.27902e-07 -1.42318e-07 -2.48915e-07 8.37026e-08 -1.02251e-07 8.43623e-08 1.91076e-07 -1.18841e-07 -2.04037e-07 6.80642e-08 -7.50685e-08 7.83087e-08 1.63564e-07 -1.0846e-07 -1.70393e-07 5.80524e-08 -5.87897e-08 7.42342e-08 1.36284e-07 -8.43235e-08 -1.3413e-07 4.45871e-08 -4.00857e-08 5.96435e-08 1.0943e-07 -7.52237e-08 -1.10071e-07 3.47694e-08 -2.8871e-08 4.92437e-08 8.40907e-08 -5.70823e-08 -9.02219e-08 2.04503e-08 -1.32519e-08 3.9814e-08 7.29924e-08 -4.65467e-08 -6.68806e-08 1.09818e-08 -5.14168e-09 3.23247e-08 5.26585e-08 -3.00158e-08 -3.13351e-08 4.81183e-09 -9.0804e-09 2.28562e-08 2.41756e-08 -3.43813e-08 -3.32172e-08 5.00586e-09 3.84171e-09 2.05279e-08 1.94026e-08 -1.28833e-08 -1.52892e-08 3.88051e-11 1.01669e-08 1.01281e-08 1.24952e-08 -5.60734e-09 -7.76102e-10 -2.40592e-09 6.0536e-09 7.41178e-09 2.59994e-09 -4.32677e-09 8.84756e-09 -6.74821e-08 -6.02022e-07 -3.65234e-07 -3.65234e-07 6.91507e-08 -7.99754e-07 3.77341e-07 -6.34774e-07 9.95351e-08 9.45215e-07 -2.52718e-07 -1.07707e-06 6.28255e-07 -7.65896e-07 1.89369e-07 1.01394e-06 -2.73498e-07 -1.04692e-06 6.25461e-07 -7.37937e-07 1.9616e-07 9.70593e-07 -2.78058e-07 -1.00179e-06 5.93485e-07 -6.91876e-07 2.00972e-07 9.26162e-07 -2.78368e-07 -9.61823e-07 5.48316e-07 -6.45232e-07 1.98022e-07 8.83204e-07 -2.84635e-07 -9.17392e-07 5.1572e-07 -5.99073e-07 2.04891e-07 8.3951e-07 -2.84713e-07 -8.79033e-07 4.8778e-07 -5.55301e-07 2.02912e-07 7.99075e-07 -2.78951e-07 -8.26491e-07 4.54951e-07 -5.03419e-07 2.05706e-07 7.54837e-07 -2.66106e-07 -7.74783e-07 4.18785e-07 -4.68727e-07 1.91426e-07 7.01674e-07 -2.6696e-07 -7.35454e-07 3.85257e-07 -4.29087e-07 1.88709e-07 6.58678e-07 -2.51787e-07 -6.79555e-07 3.58753e-07 -3.90147e-07 1.82539e-07 6.11607e-07 -2.46645e-07 -6.34367e-07 3.27127e-07 -3.44842e-07 1.78853e-07 5.67641e-07 -2.23789e-07 -5.79535e-07 2.96665e-07 -3.12692e-07 1.64456e-07 5.21153e-07 -2.12361e-07 -5.34831e-07 2.64651e-07 -2.76021e-07 1.5328e-07 4.76566e-07 -1.97925e-07 -4.87567e-07 2.43929e-07 -2.53145e-07 1.4323e-07 4.33492e-07 -1.83412e-07 -4.34578e-07 2.11255e-07 -2.2701e-07 1.29376e-07 3.81066e-07 -1.72178e-07 -3.90554e-07 1.88321e-07 -1.90766e-07 1.24487e-07 3.4327e-07 -1.57452e-07 -3.51147e-07 1.65581e-07 -1.67774e-07 1.14902e-07 3.08927e-07 -1.41988e-07 -3.12148e-07 1.41406e-07 -1.37506e-07 9.77501e-08 2.68182e-07 -1.24312e-07 -2.68182e-07 1.20141e-07 -1.1756e-07 9.68575e-08 2.40902e-07 -1.19791e-07 -2.3739e-07 1.02989e-07 -9.96515e-08 8.21504e-08 1.99885e-07 -1.0035e-07 -1.97402e-07 8.63414e-08 -8.08116e-08 7.567e-08 1.72799e-07 -9.1095e-08 -1.71984e-07 7.70669e-08 -5.7451e-08 6.58911e-08 1.46877e-07 -7.36715e-08 -1.36031e-07 5.58406e-08 -5.20765e-08 5.39391e-08 1.16338e-07 -6.71522e-08 -1.15775e-07 4.53632e-08 -4.08812e-08 4.59452e-08 9.46069e-08 -5.53749e-08 -9.05711e-08 3.5041e-08 -2.23905e-08 4.33065e-08 7.85027e-08 -4.17349e-08 -6.88985e-08 3.62052e-08 -1.66862e-08 3.2053e-08 5.91778e-08 -3.8029e-08 -5.55883e-08 2.91814e-08 -7.52819e-09 2.57278e-08 4.32677e-08 -2.55726e-08 -4.01245e-08 1.04386e-08 -5.72375e-09 1.6337e-08 3.08889e-08 -2.1207e-08 -2.94919e-08 1.04774e-08 3.88051e-11 1.42027e-08 2.24294e-08 -1.00311e-08 -1.58519e-08 7.06253e-09 3.49246e-09 4.19095e-09 9.97291e-09 -6.28643e-09 -1.07296e-08 2.79746e-07 -3.57783e-07 2.13739e-07 2.13739e-07 -5.84211e-08 -8.46107e-07 3.98994e-07 -4.54253e-07 1.66707e-07 9.39394e-07 -1.80386e-07 -8.87085e-07 5.16962e-07 -6.79497e-07 2.2767e-07 9.27791e-07 -2.42842e-07 -9.77404e-07 6.04816e-07 -6.90071e-07 2.50177e-07 9.85145e-07 -2.62652e-07 -9.58855e-07 6.00936e-07 -6.47618e-07 2.51457e-07 9.4894e-07 -2.56347e-07 -9.20554e-07 5.65778e-07 -6.04836e-07 2.37526e-07 9.03305e-07 -2.55279e-07 -8.84252e-07 5.3194e-07 -5.62519e-07 2.3155e-07 8.6225e-07 -2.52117e-07 -8.39432e-07 5.08192e-07 -5.23093e-07 2.25108e-07 8.1417e-07 -2.38477e-07 -7.90887e-07 4.70784e-07 -4.82871e-07 2.07685e-07 7.61783e-07 -2.33704e-07 -7.46552e-07 4.43271e-07 -4.50159e-07 1.98605e-07 7.13005e-07 -2.22819e-07 -6.90906e-07 4.01905e-07 -4.08016e-07 1.87002e-07 6.56505e-07 -2.11468e-07 -6.46183e-07 3.61043e-07 -3.72587e-07 1.72799e-07 6.08697e-07 -1.96315e-07 -5.98918e-07 3.43425e-07 -3.36693e-07 1.58325e-07 5.62053e-07 -1.88302e-07 -5.44261e-07 3.11954e-07 -3.05629e-07 1.55104e-07 5.11995e-07 -1.73323e-07 -4.96182e-07 2.76874e-07 -2.78951e-07 1.45519e-07 4.69154e-07 -1.67502e-07 -4.51594e-07 2.62167e-07 -2.48741e-07 1.33722e-07 4.18513e-07 -1.47906e-07 -4.10383e-07 2.26699e-07 -2.18104e-07 1.15911e-07 3.78932e-07 -1.36148e-07 -3.68319e-07 2.07569e-07 -1.92143e-07 1.06093e-07 3.38691e-07 -1.28212e-07 -3.20666e-07 1.86653e-07 -1.59547e-07 1.09159e-07 3.01943e-07 -1.0879e-07 -2.90495e-07 1.56617e-07 -1.46218e-07 8.47116e-08 2.66669e-07 -1.02445e-07 -2.49983e-07 1.32908e-07 -1.22935e-07 7.9046e-08 2.26777e-07 -9.95545e-08 -2.29047e-07 1.15639e-07 -9.92053e-08 7.18283e-08 2.01437e-07 -7.83475e-08 -1.86148e-07 1.02484e-07 -8.27131e-08 6.42225e-08 1.72062e-07 -7.20223e-08 -1.56967e-07 8.57205e-08 -7.1188e-08 5.46764e-08 1.39698e-07 -5.99539e-08 -1.31608e-07 7.18283e-08 -5.5045e-08 4.55184e-08 1.1723e-07 -5.3163e-08 -1.1172e-07 5.98763e-08 -4.41408e-08 3.83394e-08 9.68964e-08 -4.47423e-08 -9.25308e-08 4.00469e-08 -3.25187e-08 2.55726e-08 7.33805e-08 -4.07454e-08 -6.97522e-08 3.36052e-08 -3.41291e-08 2.69307e-08 5.59182e-08 -3.00158e-08 -5.23675e-08 1.96742e-08 -2.0101e-08 1.46295e-08 3.69425e-08 -1.66474e-08 -3.73305e-08 2.8871e-08 -7.21775e-09 1.46683e-08 3.53515e-08 -1.31161e-08 -2.52233e-08 1.56385e-08 -5.19988e-09 1.33102e-08 2.53397e-08 -8.92518e-09 -1.5522e-08 1.23012e-08 -3.29843e-10 3.95812e-09 1.05938e-08 2.52233e-09 1.00893e-09 6.20843e-07 -2.27495e-07 7.60503e-07 7.60503e-07 -1.59508e-07 -9.53616e-07 4.95308e-07 -4.53903e-07 2.81803e-07 1.06602e-06 -2.24274e-07 -9.00764e-07 5.11762e-07 -5.16302e-07 3.09354e-07 9.8045e-07 -2.2959e-07 -8.77228e-07 5.46725e-07 -6.00276e-07 3.11721e-07 9.574e-07 -2.47499e-07 -9.08893e-07 5.89682e-07 -5.88926e-07 3.07957e-07 9.70205e-07 -2.4063e-07 -8.76375e-07 5.72569e-07 -5.63819e-07 2.81609e-07 9.18789e-07 -2.36226e-07 -8.49871e-07 5.50683e-07 -5.21153e-07 2.58481e-07 8.73736e-07 -2.21053e-07 -8.00724e-07 5.12266e-07 -4.8163e-07 2.45792e-07 8.27092e-07 -1.98643e-07 -7.46688e-07 4.88129e-07 -4.55514e-07 2.20374e-07 7.70049e-07 -1.92435e-07 -7.01907e-07 4.48975e-07 -4.24217e-07 2.01088e-07 7.12074e-07 -1.79474e-07 -6.47851e-07 4.28564e-07 -3.82657e-07 1.93017e-07 6.62714e-07 -1.67657e-07 -6.04797e-07 3.88284e-07 -3.47461e-07 1.68414e-07 6.06795e-07 -1.59004e-07 -5.56446e-07 3.58792e-07 -3.25614e-07 1.51495e-07 5.50024e-07 -1.40377e-07 -5.08987e-07 3.22199e-07 -2.90883e-07 1.35779e-07 5.0532e-07 -1.33819e-07 -4.67369e-07 2.92785e-07 -2.56599e-07 1.24991e-07 4.59336e-07 -1.25049e-07 -4.2152e-07 2.63448e-07 -2.36013e-07 1.13815e-07 4.10868e-07 -1.07374e-07 -3.70434e-07 2.43774e-07 -2.07937e-07 1.05201e-07 3.68765e-07 -9.6974e-08 -3.3093e-07 2.18473e-07 -1.82151e-07 9.04159e-08 3.2476e-07 -8.054e-08 -2.94395e-07 1.88166e-07 -1.57762e-07 7.91624e-08 2.93328e-07 -8.01326e-08 -2.59179e-07 1.67871e-07 -1.41697e-07 7.09357e-08 2.50215e-07 -6.97134e-08 -2.29687e-07 1.40125e-07 -1.15988e-07 5.99927e-08 2.2018e-07 -6.20494e-08 -2.00836e-07 1.25341e-07 -1.0229e-07 4.76915e-08 1.86575e-07 -5.83629e-08 -1.68104e-07 1.08033e-07 -8.58369e-08 4.59841e-08 1.55803e-07 -4.7478e-08 -1.43055e-07 8.61473e-08 -7.25462e-08 3.05396e-08 1.26155e-07 -4.14051e-08 -1.18511e-07 7.29536e-08 -5.50062e-08 3.90767e-08 1.16182e-07 -2.8677e-08 -8.68652e-08 6.58523e-08 -4.52662e-08 2.54562e-08 8.3625e-08 -2.36905e-08 -7.61162e-08 4.77691e-08 -4.14439e-08 1.62205e-08 6.86074e-08 -2.6989e-08 -5.71405e-08 4.31513e-08 -2.53591e-08 2.45248e-08 5.45988e-08 -1.86653e-08 -4.59841e-08 2.79785e-08 -2.04503e-08 1.31549e-08 4.03961e-08 -1.54056e-08 -3.63022e-08 2.69307e-08 -1.99458e-08 6.32523e-09 2.72024e-08 -5.78196e-09 -1.95772e-08 1.71519e-08 -1.41251e-08 5.3551e-09 1.91309e-08 -1.17968e-08 -1.74235e-08 1.44355e-08 -1.37176e-08 1.31549e-08 1.88205e-08 -5.3551e-09 -1.51728e-08 1.00657e-06 -1.65814e-07 1.31216e-06 1.31216e-06 -3.0299e-07 -1.09382e-06 6.13276e-07 -5.00741e-07 4.21074e-07 1.20614e-06 -2.89719e-07 -9.60407e-07 5.36558e-07 -4.62984e-07 4.17621e-07 1.08445e-06 -2.62614e-07 -8.77539e-07 5.41409e-07 -4.82736e-07 3.94764e-07 1.00804e-06 -2.48974e-07 -8.55323e-07 5.62247e-07 -5.12189e-07 3.64496e-07 9.70826e-07 -2.31375e-07 -8.4469e-07 5.76178e-07 -5.03438e-07 3.33608e-07 9.48125e-07 -2.12943e-07 -8.03421e-07 5.56814e-07 -4.74101e-07 2.95462e-07 8.87395e-07 -1.82054e-07 -7.58776e-07 5.29302e-07 -4.40089e-07 2.61857e-07 8.40131e-07 -1.73536e-07 -7.14324e-07 4.94688e-07 -4.19503e-07 2.31007e-07 7.73308e-07 -1.51592e-07 -6.64343e-07 4.65002e-07 -3.84636e-07 2.01437e-07 7.15566e-07 -1.36594e-07 -6.08057e-07 4.3159e-07 -3.54601e-07 1.82617e-07 6.55341e-07 -1.18782e-07 -5.5662e-07 4.01943e-07 -3.23402e-07 1.61779e-07 6.00742e-07 -1.03202e-07 -5.04932e-07 3.69929e-07 -2.96219e-07 1.44316e-07 5.46958e-07 -8.86697e-08 -4.56988e-07 3.43231e-07 -2.72218e-07 1.22275e-07 4.91428e-07 -8.54488e-08 -4.13313e-07 3.06638e-07 -2.41057e-07 1.06792e-07 4.35316e-07 -7.30118e-08 -3.74353e-07 2.78582e-07 -2.07995e-07 9.7168e-08 3.99072e-07 -5.81107e-08 -3.27108e-07 2.48702e-07 -1.94724e-07 8.37802e-08 3.53243e-07 -5.5957e-08 -2.92901e-07 2.23013e-07 -1.77029e-07 6.81418e-08 3.05396e-07 -4.87392e-08 -2.65466e-07 1.93055e-07 -1.4874e-07 5.46764e-08 2.71675e-07 -3.95812e-08 -2.24779e-07 1.70199e-07 -1.3671e-07 4.49751e-08 2.30425e-07 -3.962e-08 -1.91503e-07 1.52271e-07 -1.11603e-07 4.76915e-08 1.9973e-07 -3.13739e-08 -1.64146e-07 1.19791e-07 -9.88948e-08 3.43425e-08 1.6725e-07 -2.11682e-08 -1.42143e-07 1.08887e-07 -8.00743e-08 2.03339e-08 1.41367e-07 -1.79668e-08 -1.18938e-07 9.68187e-08 -6.8103e-08 1.5134e-08 1.16144e-07 -1.24176e-08 -9.50531e-08 8.09086e-08 -4.78855e-08 1.77727e-08 1.00428e-07 -1.39504e-08 -7.79595e-08 5.55301e-08 -4.86228e-08 6.28643e-09 7.03149e-08 -8.18788e-09 -4.94183e-08 5.06019e-08 -4.19289e-08 1.40474e-08 5.52973e-08 -1.03416e-08 -4.91467e-08 3.81066e-08 -2.56114e-08 -2.71636e-10 3.84947e-08 -6.98492e-09 -3.71753e-08 3.05396e-08 -2.33219e-08 3.7641e-09 3.38769e-08 -8.47892e-09 -2.4486e-08 2.35159e-08 -2.32249e-08 2.83277e-09 1.87817e-08 -2.65815e-09 -1.47459e-08 2.00622e-08 -1.72101e-08 4.26856e-09 1.6337e-08 -5.41331e-09 -1.64728e-08 1.96742e-08 -8.59533e-09 1.47459e-08 2.57278e-08 -7.37297e-09 -6.92671e-09 1.43637e-06 -1.89e-07 1.87204e-06 1.87204e-06 -4.91389e-07 -1.25139e-06 7.49055e-07 -5.69834e-07 5.98957e-07 1.3574e-06 -3.80212e-07 -1.03208e-06 5.9527e-07 -4.35471e-07 5.57241e-07 1.2068e-06 -3.1826e-07 -9.19662e-07 5.62713e-07 -4.18183e-07 4.97986e-07 1.09826e-06 -2.72354e-07 -8.55284e-07 5.6574e-07 -4.23713e-07 4.39313e-07 1.02228e-06 -2.26214e-07 -8.0864e-07 5.74548e-07 -4.31455e-07 3.83938e-07 9.67178e-07 -1.89078e-07 -7.71096e-07 5.60617e-07 -4.24023e-07 3.27942e-07 9.1126e-07 -1.62555e-07 -7.26606e-07 5.47501e-07 -4.02196e-07 2.8188e-07 8.47387e-07 -1.3446e-07 -6.67079e-07 5.05786e-07 -3.76313e-07 2.44821e-07 7.78819e-07 -1.12341e-07 -6.07242e-07 4.80951e-07 -3.52156e-07 2.11139e-07 7.07301e-07 -8.82816e-08 -5.57882e-07 4.43969e-07 -3.20821e-07 1.76059e-07 6.46765e-07 -7.14014e-08 -4.98762e-07 4.14516e-07 -2.95579e-07 1.56423e-07 5.84754e-07 -5.5045e-08 -4.53244e-07 3.73266e-07 -2.76118e-07 1.22508e-07 5.21579e-07 -5.01556e-08 -4.0563e-07 3.50177e-07 -2.48838e-07 1.07141e-07 4.63333e-07 -2.75516e-08 -3.59219e-07 3.08268e-07 -2.1954e-07 9.12696e-08 4.23558e-07 -1.94026e-08 -3.20103e-07 2.85722e-07 -2.00758e-07 7.12462e-08 3.72413e-07 -1.90339e-08 -2.80231e-07 2.53359e-07 -1.77514e-07 6.28255e-08 3.24411e-07 -1.23594e-08 -2.47208e-07 2.23673e-07 -1.54658e-07 4.52468e-08 2.80406e-07 5.04466e-10 -2.09761e-07 2.00234e-07 -1.37972e-07 3.0462e-08 2.40902e-07 5.82077e-10 -1.82112e-07 1.77999e-07 -1.18821e-07 2.2895e-08 2.05745e-07 6.51926e-09 -1.52931e-07 1.4874e-07 -1.01262e-07 1.3349e-08 1.72916e-07 3.49246e-09 -1.30599e-07 1.2732e-07 -8.71757e-08 6.67448e-09 1.40863e-07 -1.62981e-09 -1.08266e-07 1.09469e-07 -7.64655e-08 9.93411e-09 1.16609e-07 1.21848e-08 -8.054e-08 8.82428e-08 -6.65896e-08 -3.12381e-09 8.96398e-08 1.52116e-08 -6.08464e-08 7.02761e-08 -4.8681e-08 -7.93565e-09 6.80642e-08 1.45519e-08 -4.80213e-08 5.70823e-08 -4.08424e-08 -1.14863e-08 5.10287e-08 8.45951e-09 -4.50527e-08 4.63333e-08 -2.80949e-08 -1.28445e-08 4.06678e-08 8.53712e-09 -2.52815e-08 3.04232e-08 -2.86188e-08 -8.42071e-09 2.53785e-08 9.77889e-09 -1.56191e-08 2.69696e-08 -1.75593e-08 -6.15061e-09 1.92085e-08 9.27442e-09 -1.24176e-08 1.92085e-08 -1.8316e-08 -1.30385e-08 8.65354e-09 2.40592e-09 -7.21775e-09 1.76951e-08 -1.58713e-08 -1.18356e-09 8.3819e-09 -7.76102e-11 -8.49832e-09 2.03339e-08 -1.2437e-08 7.76102e-11 8.45951e-09 -7.48939e-09 -7.15954e-09 1.79315e-06 -3.08462e-07 2.32443e-06 2.32443e-06 -7.39276e-07 -1.46443e-06 8.62638e-07 -6.42729e-07 8.02761e-07 1.53175e-06 -4.94882e-07 -1.13949e-06 6.78274e-07 -4.35432e-07 7.09047e-07 1.35321e-06 -3.98703e-07 -9.89336e-07 6.32329e-07 -3.82618e-07 6.29535e-07 1.21999e-06 -3.18299e-07 -8.89491e-07 6.11452e-07 -3.82386e-07 5.3357e-07 1.10517e-06 -2.55687e-07 -8.13607e-07 6.06058e-07 -3.78874e-07 4.55921e-07 1.01464e-06 -1.87817e-07 -7.35842e-07 5.88674e-07 -3.81047e-07 3.82812e-07 9.31827e-07 -1.47886e-07 -6.80836e-07 5.66826e-07 -3.65952e-07 3.18668e-07 8.52781e-07 -9.99038e-08 -6.11297e-07 5.37606e-07 -3.3774e-07 2.63331e-07 7.75869e-07 -7.62714e-08 -5.57998e-07 4.99305e-07 -3.13895e-07 2.15485e-07 6.98182e-07 -4.36169e-08 -4.91603e-07 4.67136e-07 -2.9358e-07 1.81297e-07 6.30234e-07 -2.51457e-08 -4.39972e-07 4.25343e-07 -2.6954e-07 1.44122e-07 5.59725e-07 -1.09624e-08 -3.82968e-07 3.93135e-07 -2.47984e-07 1.21499e-07 4.94183e-07 3.14321e-09 -3.45559e-07 3.56347e-07 -2.23867e-07 9.11532e-08 4.40438e-07 1.96742e-08 -2.96549e-07 3.17154e-07 -1.96606e-07 6.87238e-08 3.85296e-07 2.07995e-08 -2.59005e-07 2.8937e-07 -1.82442e-07 4.99422e-08 3.30037e-07 3.24411e-08 -2.21771e-07 2.49012e-07 -1.58189e-07 2.90262e-08 2.83471e-07 3.26351e-08 -1.87351e-07 2.29881e-07 -1.39582e-07 2.22353e-08 2.42377e-07 3.91932e-08 -1.50603e-07 2.03804e-07 -1.22023e-07 1.10207e-08 2.00933e-07 4.80019e-08 -1.26272e-07 1.72023e-07 -1.06132e-07 -1.80444e-09 1.72528e-07 4.91661e-08 -1.00913e-07 1.48585e-07 -8.87085e-08 -9.23562e-09 1.40863e-07 4.69154e-08 -7.49909e-08 1.25224e-07 -7.73968e-08 -1.11371e-08 1.10789e-07 4.34229e-08 -5.943e-08 1.00583e-07 -5.71405e-08 -2.34383e-08 7.94341e-08 4.25304e-08 -4.99422e-08 8.58757e-08 -4.96123e-08 -2.84247e-08 6.40672e-08 4.18319e-08 -2.46412e-08 6.46105e-08 -4.45095e-08 -2.50681e-08 4.14051e-08 3.37604e-08 -1.34266e-08 5.29302e-08 -3.69619e-08 -2.09548e-08 2.61934e-08 3.1665e-08 -8.69234e-09 3.63216e-08 -2.6989e-08 -3.18784e-08 8.45951e-09 3.2247e-08 -4.13274e-09 2.39428e-08 -1.80638e-08 -2.96083e-08 6.75209e-09 2.08383e-08 -2.44472e-09 1.01281e-08 -1.59489e-08 -2.27786e-08 4.65661e-10 1.72295e-08 4.96705e-09 1.5328e-08 -1.60071e-08 -2.14592e-08 -9.23562e-09 1.62593e-08 2.2895e-09 8.11027e-09 -1.23594e-08 -1.41251e-08 -1.74623e-10 6.51926e-09 1.74623e-09 1.12147e-08 -2.28562e-08 -6.59687e-10 4.11334e-09 -2.59994e-09 -1.51534e-08 1.47948e-06 -4.83492e-07 2.31178e-06 2.31178e-06 -1.00393e-06 -1.77178e-06 1.0347e-06 -7.0115e-07 9.92324e-07 1.77141e-06 -6.41953e-07 -1.34995e-06 8.62638e-07 -4.91894e-07 8.8301e-07 1.59423e-06 -5.23287e-07 -1.1521e-06 7.88559e-07 -4.08152e-07 7.80875e-07 1.41169e-06 -4.053e-07 -9.93159e-07 7.40906e-07 -3.87547e-07 6.60579e-07 1.24991e-06 -3.09083e-07 -8.64714e-07 7.10017e-07 -3.6277e-07 5.55262e-07 1.11215e-06 -2.11837e-07 -7.47871e-07 6.61627e-07 -3.58753e-07 4.48703e-07 9.85727e-07 -1.51961e-07 -6.62015e-07 6.26819e-07 -3.32715e-07 3.67368e-07 8.78276e-07 -8.3819e-08 -5.68689e-07 5.77692e-07 -3.18842e-07 2.92202e-07 7.77771e-07 -4.3908e-08 -4.92165e-07 5.26818e-07 -2.96568e-07 2.28484e-07 6.77343e-07 -1.20684e-08 -4.29514e-07 4.92243e-07 -2.66669e-07 1.83121e-07 6.01052e-07 1.98294e-08 -3.66864e-07 4.38847e-07 -2.43754e-07 1.43618e-07 5.3066e-07 3.8029e-08 -3.10247e-07 4.13352e-07 -2.19462e-07 1.10983e-07 4.5953e-07 5.26973e-08 -2.65796e-07 3.62867e-07 -2.00778e-07 7.88132e-08 3.97481e-07 6.48821e-08 -2.13176e-07 3.35548e-07 -1.7441e-07 5.78584e-08 3.36013e-07 7.45446e-08 -1.79687e-07 2.93949e-07 -1.58053e-07 3.20142e-08 2.86382e-07 8.18012e-08 -1.38127e-07 2.50293e-07 -1.41348e-07 2.29338e-08 2.42842e-07 7.9046e-08 -1.13893e-07 2.2538e-07 -1.19985e-07 3.68649e-09 1.96587e-07 8.80488e-08 -8.22862e-08 1.92706e-07 -1.06365e-07 -1.20296e-08 1.58325e-07 8.67294e-08 -5.80524e-08 1.65892e-07 -8.37996e-08 -2.32831e-08 1.21499e-07 9.02607e-08 -3.51768e-08 1.29609e-07 -7.68341e-08 -3.02292e-08 9.52277e-08 8.12191e-08 -2.26234e-08 1.07956e-07 -5.77808e-08 -3.91932e-08 6.46493e-08 7.87744e-08 -6.0924e-09 9.90306e-08 -5.1863e-08 -4.2511e-08 4.23752e-08 7.23327e-08 1.10983e-08 7.307e-08 -3.70589e-08 -3.99693e-08 2.12652e-08 7.73774e-08 1.43579e-08 6.15449e-08 -2.89874e-08 -5.49674e-08 8.03266e-09 6.07688e-08 2.33607e-08 4.03185e-08 -1.51534e-08 -4.6799e-08 -9.42964e-09 5.87897e-08 3.12769e-08 2.52233e-08 -1.10983e-08 -4.31901e-08 -1.57161e-08 5.71987e-08 3.47306e-08 1.17191e-08 -1.14863e-08 -3.83977e-08 -1.59295e-08 4.21423e-08 2.94919e-08 1.82384e-09 -7.83863e-09 -3.90379e-08 -2.64263e-08 2.51069e-08 2.68143e-08 6.55806e-09 -2.98799e-09 -2.20219e-08 -2.37099e-08 3.37992e-08 2.94531e-08 -4.94765e-09 -1.04968e-08 -1.9519e-08 -1.51728e-08 1.17579e-08 4.579e-09 4.15215e-09 -1.35236e-08 -1.20878e-08 -4.94765e-09 -1.62981e-09 4.85064e-09 -3.80484e-08 -1.83358e-06 -1.1365e-06 -1.1365e-06 -2.0916e-07 -7.2973e-07 6.71018e-07 -1.0887e-06 1.69113e-07 6.92516e-07 -4.55688e-07 -1.15003e-06 5.21579e-07 -8.14868e-07 1.45131e-07 8.46844e-07 -4.55145e-07 -1.15482e-06 4.96705e-07 -7.31166e-07 1.52892e-07 8.57438e-07 -4.37062e-07 -1.11268e-06 4.7967e-07 -6.8524e-07 1.70083e-07 8.49289e-07 -4.34889e-07 -1.08491e-06 4.61897e-07 -6.44378e-07 1.84014e-07 8.36949e-07 -4.22665e-07 -1.03844e-06 4.35316e-07 -6.09764e-07 1.91348e-07 8.09513e-07 -4.12828e-07 -9.88638e-07 4.06251e-07 -5.71134e-07 1.96199e-07 7.74007e-07 -3.91311e-07 -9.353e-07 3.86033e-07 -5.2934e-07 1.99652e-07 7.45446e-07 -3.78059e-07 -8.8008e-07 3.55726e-07 -4.91835e-07 1.8999e-07 6.93564e-07 -3.59995e-07 -8.20127e-07 3.32016e-07 -4.51556e-07 1.92357e-07 6.53788e-07 -3.39816e-07 -7.63277e-07 3.09936e-07 -4.06115e-07 1.8576e-07 6.10443e-07 -3.23266e-07 -7.10677e-07 2.74274e-07 -3.7055e-07 1.71984e-07 5.60346e-07 -2.95268e-07 -6.46396e-07 2.50409e-07 -3.39001e-07 1.61623e-07 5.13547e-07 -2.79339e-07 -5.91254e-07 2.30075e-07 -3.01884e-07 1.59411e-07 4.71909e-07 -2.5233e-07 -5.32542e-07 2.06754e-07 -2.73401e-07 1.44433e-07 4.25265e-07 -2.3772e-07 -4.77516e-07 1.81142e-07 -2.34907e-07 1.38185e-07 3.78389e-07 -2.12788e-07 -4.2575e-07 1.59722e-07 -2.02737e-07 1.33528e-07 3.46762e-07 -1.89388e-07 -3.75401e-07 1.39815e-07 -1.78057e-07 1.16144e-07 3.02447e-07 -1.71635e-07 -3.30872e-07 1.20878e-07 -1.52582e-07 1.02756e-07 2.62167e-07 -1.56947e-07 -2.86886e-07 1.04619e-07 -1.2569e-07 9.42964e-08 2.24371e-07 -1.32655e-07 -2.43036e-07 8.63414e-08 -1.0879e-07 8.2034e-08 1.92512e-07 -1.16318e-07 -2.06948e-07 6.82194e-08 -8.47892e-08 7.10133e-08 1.61701e-07 -9.33457e-08 -1.70374e-07 5.32794e-08 -6.02061e-08 5.98763e-08 1.36904e-07 -8.18012e-08 -1.41736e-07 4.50915e-08 -4.66049e-08 4.839e-08 1.08383e-07 -5.99927e-08 -1.04444e-07 3.03068e-08 -3.76604e-08 4.57512e-08 9.02219e-08 -5.34928e-08 -8.26549e-08 2.51845e-08 -2.43308e-08 3.55843e-08 6.47269e-08 -3.77962e-08 -6.1021e-08 2.21577e-08 -1.34654e-08 2.54173e-08 4.86616e-08 -2.67561e-08 -3.56231e-08 1.35042e-08 -3.70589e-09 2.26622e-08 3.15486e-08 -1.75399e-08 -1.97324e-08 3.0268e-09 2.52233e-09 1.09818e-08 1.31549e-08 -9.95351e-09 -1.25341e-08 4.26856e-09 -1.20296e-09 5.54913e-09 8.11027e-09 7.76102e-11 1.94026e-09 -5.91778e-09 -5.82077e-09 6.98492e-09 5.16108e-09 -5.74316e-09 -2.46412e-09 1.71441e-07 -6.00451e-07 -4.86461e-07 -4.86461e-07 5.00819e-07 -6.22628e-08 -7.39237e-09 -1.16782e-06 -3.94027e-07 1.67056e-07 -6.67293e-07 -1.5823e-06 5.32484e-07 -7.76025e-07 2.35857e-07 1.16058e-06 -4.00934e-07 -1.24679e-06 5.44863e-07 -6.99986e-07 1.97246e-07 1.04758e-06 -3.57414e-07 -1.16229e-06 5.20648e-07 -6.50335e-07 1.85139e-07 9.93372e-07 -3.41621e-07 -1.0956e-06 4.93174e-07 -6.06388e-07 1.85876e-07 9.4277e-07 -3.29164e-07 -1.03332e-06 4.62363e-07 -5.66225e-07 1.86691e-07 8.93332e-07 -3.22761e-07 -9.74319e-07 4.3225e-07 -5.25305e-07 1.89757e-07 8.43623e-07 -3.15621e-07 -9.2038e-07 4.02836e-07 -4.85006e-07 1.84091e-07 7.90887e-07 -2.98858e-07 -8.53887e-07 3.71637e-07 -4.48742e-07 1.80987e-07 7.37802e-07 -2.83161e-07 -7.97406e-07 3.45598e-07 -4.13274e-07 1.73614e-07 6.89334e-07 -2.73654e-07 -7.40945e-07 3.20181e-07 -3.75633e-07 1.66629e-07 6.35201e-07 -2.51574e-07 -6.80506e-07 2.89835e-07 -3.39351e-07 1.56268e-07 5.86345e-07 -2.37119e-07 -6.21794e-07 2.66513e-07 -3.12789e-07 1.49516e-07 5.35122e-07 -2.24119e-07 -5.66555e-07 2.3838e-07 -2.79921e-07 1.46295e-07 4.89526e-07 -2.09315e-07 -5.13586e-07 2.189e-07 -2.49769e-07 1.26737e-07 4.31668e-07 -1.87409e-07 -4.67214e-07 1.93676e-07 -2.15291e-07 1.17657e-07 3.98024e-07 -1.72431e-07 -4.14031e-07 1.66978e-07 -1.89194e-07 1.07956e-07 3.50022e-07 -1.62943e-07 -3.66708e-07 1.57976e-07 -1.66416e-07 1.07141e-07 3.11217e-07 -1.42764e-07 -3.18454e-07 1.27436e-07 -1.44549e-07 9.77889e-08 2.73731e-07 -1.26408e-07 -2.78097e-07 1.1529e-07 -1.17638e-07 8.29265e-08 2.34771e-07 -1.07277e-07 -2.43056e-07 9.67799e-08 -1.00137e-07 7.17895e-08 2.07724e-07 -9.58098e-08 -2.02698e-07 8.41683e-08 -8.04624e-08 6.43389e-08 1.71325e-07 -8.32176e-08 -1.69384e-07 6.71328e-08 -6.22434e-08 5.88285e-08 1.45015e-07 -6.88403e-08 -1.37079e-07 5.55689e-08 -5.81883e-08 5.01362e-08 1.18472e-07 -6.14867e-08 -1.12806e-07 4.59452e-08 -3.66514e-08 4.39662e-08 9.53441e-08 -5.20765e-08 -8.95622e-08 3.66708e-08 -2.72218e-08 3.93096e-08 7.67953e-08 -3.7641e-08 -6.42225e-08 2.59606e-08 -2.54562e-08 2.51845e-08 5.1766e-08 -2.87352e-08 -4.99616e-08 1.75011e-08 -1.23594e-08 1.98682e-08 4.10558e-08 -2.14592e-08 -3.32948e-08 1.68802e-08 -2.44472e-09 1.84324e-08 3.02292e-08 -1.04192e-08 -1.97518e-08 1.15251e-08 -8.44011e-09 7.10133e-09 1.64146e-08 -9.70128e-09 -1.08848e-08 4.96705e-09 2.32831e-09 8.3819e-09 9.50725e-09 -1.06326e-08 -1.47459e-09 2.62943e-07 -4.69367e-07 8.45563e-08 8.45563e-08 1.89253e-07 -3.05726e-07 2.82346e-07 -5.40303e-07 -2.54562e-08 4.69852e-07 -1.52718e-07 -1.11109e-06 3.8483e-07 -5.92826e-07 1.46179e-07 1.10044e-06 -2.98741e-07 -1.21836e-06 5.60501e-07 -6.35725e-07 2.15524e-07 1.13796e-06 -2.89971e-07 -1.11322e-06 5.48898e-07 -6.08639e-07 2.22703e-07 1.04855e-06 -2.74372e-07 -1.04595e-06 5.22511e-07 -5.72046e-07 2.14553e-07 9.88599e-07 -2.65505e-07 -9.83826e-07 5.00431e-07 -5.26294e-07 2.07607e-07 9.28296e-07 -2.51069e-07 -9.22591e-07 4.71831e-07 -4.89255e-07 2.00196e-07 8.73891e-07 -2.47072e-07 -8.63821e-07 4.37877e-07 -4.51808e-07 1.95888e-07 8.14597e-07 -2.33238e-07 -8.05245e-07 4.09433e-07 -4.1797e-07 1.89602e-07 7.63296e-07 -2.27398e-07 -7.52431e-07 3.7218e-07 -3.80348e-07 1.76059e-07 7.02566e-07 -2.08364e-07 -6.91216e-07 3.45482e-07 -3.55144e-07 1.58208e-07 6.42341e-07 -2.01593e-07 -6.3489e-07 3.1436e-07 -3.15156e-07 1.5557e-07 5.89993e-07 -1.81589e-07 -5.83551e-07 2.87158e-07 -2.93134e-07 1.33878e-07 5.36791e-07 -1.76078e-07 -5.29767e-07 2.67794e-07 -2.56172e-07 1.3803e-07 4.92553e-07 -1.6401e-07 -4.79748e-07 2.37992e-07 -2.32326e-07 1.21732e-07 4.3811e-07 -1.40145e-07 -4.28777e-07 2.09625e-07 -2.07976e-07 1.08227e-07 3.97442e-07 -1.31879e-07 -3.87042e-07 1.87545e-07 -1.79144e-07 9.63531e-08 3.51924e-07 -1.20082e-07 -3.42979e-07 1.7082e-07 -1.53435e-07 9.2977e-08 3.16184e-07 -1.02543e-07 -2.90476e-07 1.47576e-07 -1.33218e-07 8.55653e-08 2.73692e-07 -1.0359e-07 -2.65136e-07 1.2666e-07 -1.17017e-07 7.37297e-08 2.35469e-07 -8.46533e-08 -2.22897e-07 1.06636e-07 -1.00971e-07 5.88285e-08 1.97246e-07 -7.59804e-08 -1.93948e-07 9.49173e-08 -8.6322e-08 5.4754e-08 1.72838e-07 -6.64731e-08 -1.59819e-07 8.36638e-08 -6.56e-08 4.75363e-08 1.4094e-07 -5.72375e-08 -1.27126e-07 6.29807e-08 -5.84987e-08 4.47811e-08 1.14708e-07 -5.3066e-08 -1.09275e-07 5.46376e-08 -4.08618e-08 3.85723e-08 9.48009e-08 -3.89215e-08 -8.63802e-08 3.84171e-08 -3.00158e-08 2.91038e-08 7.66013e-08 -3.26351e-08 -6.74821e-08 3.44201e-08 -2.85412e-08 1.97906e-08 5.46376e-08 -2.78427e-08 -5.56465e-08 2.51457e-08 -1.85488e-08 1.76563e-08 4.54796e-08 -2.08771e-08 -3.18784e-08 1.82384e-08 -1.35236e-08 1.8122e-08 2.91038e-08 -1.51146e-08 -2.43114e-08 1.2146e-08 -1.20684e-08 7.91624e-09 1.71519e-08 -7.6058e-09 -1.84324e-08 6.13121e-09 -2.69696e-09 1.5522e-10 1.09818e-08 -6.0924e-09 -4.73422e-09 3.87275e-07 -3.38594e-07 6.08309e-07 6.08309e-07 -1.59819e-07 -5.97152e-07 5.0501e-07 -4.37625e-07 3.07065e-07 7.45369e-07 -1.30211e-07 -1.01415e-06 4.8033e-07 -4.40205e-07 2.07413e-07 1.08864e-06 -2.046e-07 -1.01516e-06 5.00702e-07 -5.82659e-07 2.41562e-07 1.05166e-06 -2.4001e-07 -1.05385e-06 5.6865e-07 -5.63547e-07 2.53863e-07 1.06982e-06 -2.38787e-07 -9.88657e-07 5.43776e-07 -5.3584e-07 2.46956e-07 9.98921e-07 -2.28717e-07 -9.37027e-07 5.1995e-07 -5.03011e-07 2.3058e-07 9.41024e-07 -2.1077e-07 -8.73251e-07 4.94688e-07 -4.70143e-07 2.12342e-07 8.76801e-07 -1.98896e-07 -8.12463e-07 4.63023e-07 -4.33356e-07 2.0233e-07 8.17701e-07 -1.91503e-07 -7.61123e-07 4.3159e-07 -3.97539e-07 1.89563e-07 7.60852e-07 -1.77805e-07 -7.03478e-07 3.96123e-07 -3.6764e-07 1.6659e-07 6.9368e-07 -1.71519e-07 -6.48162e-07 3.69813e-07 -3.37643e-07 1.51767e-07 6.2969e-07 -1.5035e-07 -5.83551e-07 3.35043e-07 -3.0266e-07 1.45597e-07 5.79826e-07 -1.43773e-07 -5.39798e-07 3.07065e-07 -2.79921e-07 1.29066e-07 5.26003e-07 -1.26582e-07 -4.88518e-07 2.81453e-07 -2.43289e-07 1.13971e-07 4.76682e-07 -1.13466e-07 -4.33938e-07 2.51496e-07 -2.23789e-07 1.05356e-07 4.26429e-07 -1.07432e-07 -3.94978e-07 2.28329e-07 -1.97266e-07 9.42188e-08 3.82269e-07 -9.57904e-08 -3.47985e-07 1.99575e-07 -1.77281e-07 8.31205e-08 3.35703e-07 -8.60309e-08 -3.07104e-07 1.7699e-07 -1.52834e-07 8.07146e-08 3.02059e-07 -7.49715e-08 -2.73906e-07 1.5782e-07 -1.30482e-07 6.27479e-08 2.61973e-07 -6.8394e-08 -2.33956e-07 1.39543e-07 -1.1952e-07 5.66943e-08 2.22392e-07 -6.64731e-08 -1.96528e-07 1.18123e-07 -1.01786e-07 5.26197e-08 1.82811e-07 -5.39585e-08 -1.70665e-07 9.82545e-08 -8.26549e-08 4.17543e-08 1.58558e-07 -4.2511e-08 -1.43288e-07 8.33534e-08 -7.04895e-08 3.55067e-08 1.36361e-07 -3.43425e-08 -1.15271e-07 7.19835e-08 -5.40555e-08 3.00352e-08 1.11021e-07 -3.58171e-08 -9.90888e-08 5.45988e-08 -4.26662e-08 2.33995e-08 8.67294e-08 -2.66009e-08 -7.43118e-08 4.88944e-08 -3.83006e-08 2.11876e-08 6.88791e-08 -2.89486e-08 -6.11569e-08 3.88439e-08 -3.06366e-08 1.69966e-08 4.92049e-08 -1.60459e-08 -4.11334e-08 2.61934e-08 -2.36711e-08 9.15801e-09 3.42649e-08 -1.61429e-08 -3.46724e-08 2.17309e-08 -1.61041e-08 1.31161e-08 3.16262e-08 -1.59877e-08 -2.53979e-08 2.16144e-08 -1.58519e-08 1.30385e-08 2.24294e-08 -1.16027e-08 -1.16609e-08 1.78892e-08 -1.01087e-08 1.19908e-08 1.20684e-08 -4.15215e-09 -1.46489e-08 5.66322e-07 -2.6859e-07 1.13392e-06 1.13392e-06 -4.88634e-07 -9.06293e-07 7.18011e-07 -3.67387e-07 6.32717e-07 1.05212e-06 -1.70548e-07 -9.87338e-07 5.86268e-07 -4.55106e-07 3.19754e-07 1.1352e-06 -1.84848e-07 -9.59883e-07 5.47307e-07 -4.57085e-07 3.09665e-07 1.08441e-06 -1.99846e-07 -9.41528e-07 5.45561e-07 -5.08754e-07 2.89564e-07 1.03206e-06 -1.955e-07 -9.34718e-07 5.67874e-07 -4.89973e-07 2.75982e-07 1.01708e-06 -1.94045e-07 -8.8173e-07 5.37063e-07 -4.66127e-07 2.58791e-07 9.48319e-07 -1.77242e-07 -8.22688e-07 5.16341e-07 -4.41175e-07 2.29183e-07 8.76452e-07 -1.5914e-07 -7.62307e-07 4.83395e-07 -4.04e-07 2.05628e-07 8.10445e-07 -1.43443e-07 -7.08057e-07 4.55378e-07 -3.69463e-07 1.85411e-07 7.51577e-07 -1.27455e-07 -6.4366e-07 4.20065e-07 -3.45618e-07 1.64844e-07 6.82349e-07 -1.16027e-07 -5.88887e-07 3.87818e-07 -3.19463e-07 1.49516e-07 6.2352e-07 -1.01378e-07 -5.35472e-07 3.56076e-07 -2.8805e-07 1.34188e-07 5.69232e-07 -9.84292e-08 -4.86403e-07 3.23945e-07 -2.61799e-07 1.12069e-07 5.00819e-07 -8.3722e-08 -4.39157e-07 2.91698e-07 -2.33258e-07 1.01475e-07 4.57551e-07 -6.56582e-08 -3.84248e-07 2.59917e-07 -2.09412e-07 9.04159e-08 4.09627e-07 -6.31359e-08 -3.46762e-07 2.38147e-07 -1.86982e-07 7.69893e-08 3.61082e-07 -5.27167e-08 -3.09548e-07 2.11992e-07 -1.65213e-07 6.46881e-08 3.21927e-07 -4.87004e-08 -2.70239e-07 1.84014e-07 -1.44588e-07 5.19988e-08 2.73886e-07 -4.82153e-08 -2.36226e-07 1.65737e-07 -1.29163e-07 4.54796e-08 2.33684e-07 -3.39933e-08 -2.01263e-07 1.38185e-07 -1.11021e-07 3.63216e-08 2.03766e-07 -2.81143e-08 -1.73013e-07 1.208e-07 -9.01831e-08 2.80173e-08 1.73071e-07 -2.46218e-08 -1.45286e-07 1.09042e-07 -7.7746e-08 2.28174e-08 1.4354e-07 -2.11876e-08 -1.1238e-07 8.57205e-08 -6.86268e-08 2.25458e-08 1.13777e-07 -2.07025e-08 -9.8468e-08 7.02372e-08 -5.62286e-08 1.03998e-08 8.8204e-08 -1.42221e-08 -7.80953e-08 5.86345e-08 -4.44124e-08 1.10595e-08 7.49327e-08 -1.32131e-08 -6.02449e-08 4.64109e-08 -3.85529e-08 9.93411e-09 5.70047e-08 -1.08266e-08 -5.07765e-08 3.68649e-08 -2.28756e-08 3.8029e-09 4.37334e-08 -1.00893e-09 -2.72994e-08 2.79785e-08 -2.7183e-08 2.91038e-09 2.91814e-08 -1.01475e-08 -2.92785e-08 1.97906e-08 -1.69578e-08 -2.36711e-09 1.6725e-08 -8.3431e-09 -2.22159e-08 1.5134e-08 -1.60071e-08 3.10441e-09 1.69578e-08 -7.45058e-09 -1.84712e-08 2.02563e-08 -1.80056e-08 4.03573e-09 1.50176e-08 -1.21654e-08 -1.40669e-08 8.05555e-07 -2.68299e-07 1.65671e-06 1.65671e-06 -8.33243e-07 -1.24741e-06 9.35087e-07 -3.2899e-07 9.66441e-07 1.38321e-06 -2.45403e-07 -9.89821e-07 6.88868e-07 -4.86635e-07 4.61238e-07 1.20529e-06 -2.22606e-07 -9.51676e-07 6.11025e-07 -4.3419e-07 4.04233e-07 1.1333e-06 -1.981e-07 -9.03558e-07 5.9007e-07 -4.32367e-07 3.62362e-07 1.06846e-06 -1.77339e-07 -8.53829e-07 5.75169e-07 -4.45696e-07 3.2247e-07 1.00016e-06 -1.54658e-07 -8.21194e-07 5.61782e-07 -4.25867e-07 2.81764e-07 9.49949e-07 -1.48022e-07 -7.71737e-07 5.42845e-07 -4.00333e-07 2.46451e-07 8.71757e-07 -1.13466e-07 -7.05166e-07 5.07377e-07 -3.82366e-07 2.12613e-07 8.05866e-07 -1.04619e-07 -6.46396e-07 4.75634e-07 -3.48237e-07 1.87196e-07 7.30273e-07 -7.82699e-08 -5.82814e-07 4.36596e-07 -3.23673e-07 1.6011e-07 6.65779e-07 -6.84328e-08 -5.30117e-07 4.03573e-07 -2.89758e-07 1.37098e-07 5.99811e-07 -5.1378e-08 -4.76061e-07 3.64031e-07 -2.66591e-07 1.12535e-07 5.38072e-07 -4.45289e-08 -4.33084e-07 3.30387e-07 -2.45015e-07 9.72844e-08 4.86577e-07 -3.30426e-08 -3.81299e-07 3.06211e-07 -2.18046e-07 8.21504e-08 4.31008e-07 -2.7668e-08 -3.3646e-07 2.75089e-07 -1.90281e-07 7.18671e-08 3.81144e-07 -2.06831e-08 -2.97829e-07 2.44201e-07 -1.76117e-07 4.95541e-08 3.27088e-07 -1.48624e-08 -2.57472e-07 2.19171e-07 -1.51534e-07 4.32289e-08 2.86188e-07 -4.09394e-09 -2.15718e-07 1.90184e-07 -1.32655e-07 3.59335e-08 2.47771e-07 -5.82077e-10 -1.88632e-07 1.65698e-07 -1.18511e-07 2.3089e-08 2.11255e-07 1.82384e-09 -1.5879e-07 1.40358e-07 -9.93411e-08 1.50564e-08 1.75787e-07 2.59994e-09 -1.33722e-07 1.20723e-07 -8.62638e-08 5.85957e-09 1.42298e-07 6.55806e-09 -1.07316e-07 1.06016e-07 -7.44476e-08 3.29843e-09 1.17191e-07 1.18356e-08 -8.70593e-08 8.76995e-08 -5.33182e-08 -2.2507e-09 9.66635e-08 9.8953e-09 -6.85104e-08 6.31747e-08 -4.99616e-08 -4.67602e-09 7.37685e-08 9.8565e-09 -5.36093e-08 5.1766e-08 -4.05707e-08 -9.1192e-09 5.43272e-08 7.06253e-09 -4.01633e-08 4.26468e-08 -2.728e-08 -8.67294e-09 3.84947e-08 9.23562e-09 -2.61158e-08 3.42261e-08 -2.83471e-08 -7.93565e-09 2.74352e-08 4.73422e-09 -1.97712e-08 2.64263e-08 -1.89563e-08 -7.46998e-09 1.70354e-08 6.13121e-09 -1.0361e-08 2.45636e-08 -1.98488e-08 -8.49832e-09 7.91624e-09 2.32831e-09 -2.40592e-09 1.02445e-08 -1.45131e-08 1.78504e-09 6.48045e-09 -2.50293e-09 -1.4028e-08 1.16415e-08 -2.43502e-08 -6.96552e-09 4.50139e-09 -8.12967e-09 -9.25502e-09 1.0191e-06 -3.41718e-07 2.11608e-06 2.11608e-06 -1.18746e-06 -1.60255e-06 1.12822e-06 -3.38924e-07 1.29547e-06 1.71429e-06 -3.72607e-07 -1.04265e-06 8.05905e-07 -5.21114e-07 6.46299e-07 1.31732e-06 -2.95617e-07 -9.80314e-07 7.04507e-07 -4.34093e-07 5.27206e-07 1.21262e-06 -2.28484e-07 -8.95835e-07 6.55147e-07 -4.05746e-07 4.49286e-07 1.11763e-06 -1.78698e-07 -8.30216e-07 6.26858e-07 -3.91641e-07 3.79436e-07 1.03214e-06 -1.3931e-07 -7.64616e-07 6.02255e-07 -3.87469e-07 3.19871e-07 9.46534e-07 -1.07781e-07 -7.08736e-07 5.73074e-07 -3.7412e-07 2.68221e-07 8.70554e-07 -7.77848e-08 -6.44223e-07 5.35821e-07 -3.47112e-07 2.24099e-07 7.91779e-07 -5.23481e-08 -5.76625e-07 4.9267e-07 -3.19948e-07 1.88981e-07 7.14286e-07 -3.14515e-08 -5.18533e-07 4.61587e-07 -2.91582e-07 1.5134e-07 6.39353e-07 -1.49788e-08 -4.61548e-07 4.18552e-07 -2.6826e-07 1.20878e-07 5.68184e-07 -1.64922e-09 -4.10092e-07 3.81338e-07 -2.48159e-07 9.9962e-08 5.09045e-07 3.49246e-09 -3.60305e-07 3.48819e-07 -2.17774e-07 8.09475e-08 4.4525e-07 1.54832e-08 -3.15136e-07 3.12226e-07 -1.98003e-07 5.79748e-08 3.88982e-07 2.62323e-08 -2.69443e-07 2.78155e-07 -1.71538e-07 4.61005e-08 3.42067e-07 3.18202e-08 -2.34072e-07 2.48003e-07 -1.55414e-07 2.71248e-08 2.9325e-07 3.94648e-08 -1.93521e-07 2.15834e-07 -1.37215e-07 1.93249e-08 2.52505e-07 3.88439e-08 -1.66028e-07 1.89563e-07 -1.20005e-07 6.36404e-09 2.11333e-07 3.44201e-08 -1.33354e-07 1.65659e-07 -1.04056e-07 2.94919e-09 1.70781e-07 3.87275e-08 -1.12981e-07 1.41833e-07 -8.42459e-08 -1.00505e-08 1.41716e-07 4.11722e-08 -8.77189e-08 1.16377e-07 -7.35163e-08 -1.18162e-08 1.17114e-07 4.14439e-08 -7.177e-08 9.07651e-08 -5.85375e-08 -2.72412e-08 8.59921e-08 4.4199e-08 -4.57706e-08 7.99385e-08 -5.01362e-08 -2.45442e-08 6.54254e-08 3.98528e-08 -3.37022e-08 6.26314e-08 -3.3062e-08 -2.68143e-08 4.67214e-08 3.48858e-08 -2.33219e-08 4.96705e-08 -2.81143e-08 -2.21771e-08 3.60499e-08 3.27903e-08 -1.3543e-08 3.57783e-08 -1.93443e-08 -2.60382e-08 2.02951e-08 3.2053e-08 3.49246e-10 2.53785e-08 -2.02563e-08 -2.47771e-08 6.98492e-09 2.18861e-08 5.43272e-10 1.72683e-08 -1.22236e-08 -2.05473e-08 7.76102e-10 2.16921e-08 8.53712e-10 8.76995e-09 -1.39698e-08 -2.08577e-08 -1.94026e-11 1.91309e-08 2.01787e-09 1.16415e-08 -8.40131e-09 -1.26117e-08 4.50139e-09 3.88051e-11 -5.62674e-10 1.68026e-08 -1.77727e-08 -1.47459e-09 -9.31323e-10 8.14907e-10 -1.01669e-08 8.27597e-07 -3.83511e-07 2.35124e-06 2.35124e-06 -1.47133e-06 -1.95434e-06 1.1855e-06 -4.11431e-07 1.48899e-06 1.9765e-06 -5.80524e-07 -1.27993e-06 9.80954e-07 -5.68204e-07 8.33689e-07 1.53692e-06 -4.09763e-07 -1.10141e-06 8.61163e-07 -4.70784e-07 6.87044e-07 1.381e-06 -2.94182e-07 -9.55595e-07 7.89723e-07 -4.21462e-07 5.69737e-07 1.23315e-06 -2.15912e-07 -8.45175e-07 7.35202e-07 -3.93348e-07 4.6764e-07 1.09869e-06 -1.45946e-07 -7.37588e-07 6.8685e-07 -3.71947e-07 3.77263e-07 9.70399e-07 -8.95428e-08 -6.55981e-07 6.39508e-07 -3.45851e-07 3.05551e-07 8.73309e-07 -4.09394e-08 -5.70086e-07 5.8879e-07 -3.20123e-07 2.4063e-07 7.70902e-07 -8.3237e-09 -5.06853e-07 5.39701e-07 -2.9294e-07 1.84091e-07 6.83552e-07 1.08654e-08 -4.33492e-07 4.94998e-07 -2.72179e-07 1.51883e-07 5.96939e-07 3.8223e-08 -3.72199e-07 4.44513e-07 -2.48294e-07 1.18123e-07 5.29108e-07 4.95929e-08 -3.29436e-07 4.0074e-07 -2.18201e-07 8.44011e-08 4.63837e-07 6.34075e-08 -2.7798e-07 3.61858e-07 -1.95364e-07 5.72375e-08 3.98878e-07 7.2682e-08 -2.36148e-07 3.19444e-07 -1.76233e-07 3.37604e-08 3.42804e-07 7.81535e-08 -1.90785e-07 2.85373e-07 -1.55997e-07 2.44472e-08 2.93522e-07 7.63296e-08 -1.58868e-07 2.53514e-07 -1.40727e-07 1.04774e-08 2.45792e-07 8.03266e-08 -1.3054e-07 2.16921e-07 -1.14514e-07 -6.36404e-09 2.04581e-07 8.21116e-08 -9.95739e-08 1.87157e-07 -1.04231e-07 -1.54444e-08 1.66241e-07 7.91236e-08 -7.74744e-08 1.55414e-07 -8.00549e-08 -2.54173e-08 1.312e-07 8.28489e-08 -4.98646e-08 1.36788e-07 -6.77537e-08 -3.93484e-08 9.33651e-08 8.42847e-08 -3.52544e-08 1.07684e-07 -5.4366e-08 -4.18319e-08 7.76878e-08 7.39237e-08 -1.47071e-08 9.04935e-08 -4.2705e-08 -3.94842e-08 4.91661e-08 7.54371e-08 -3.72529e-09 7.27984e-08 -3.78932e-08 -4.94571e-08 2.96859e-08 6.6706e-08 1.45131e-08 5.33182e-08 -3.3547e-08 -4.21618e-08 9.97291e-09 5.5957e-08 1.62981e-08 3.65932e-08 -1.20878e-08 -4.19289e-08 -2.3089e-09 5.97599e-08 3.08889e-08 2.60382e-08 -9.33263e-09 -4.54408e-08 -1.65892e-08 5.25033e-08 3.0656e-08 2.14204e-08 -1.24176e-08 -4.18901e-08 -2.0004e-08 3.77574e-08 2.59218e-08 7.64461e-09 -8.67294e-09 -3.42843e-08 -2.23905e-08 2.91426e-08 2.62323e-08 -1.02834e-09 -7.33417e-09 -2.21577e-08 -1.92667e-08 2.22741e-08 1.9713e-08 -9.1192e-10 -7.85803e-09 -2.1013e-08 -1.84712e-08 1.6337e-08 3.68649e-09 1.33102e-08 -1.30579e-08 -1.6434e-08 -3.8029e-09 5.19988e-09 4.73422e-09 -5.01944e-08 -1.88263e-06 -1.2099e-06 -1.2099e-06 -2.17347e-07 -7.48027e-07 7.50646e-07 -1.17255e-06 8.70787e-08 6.20882e-07 -3.73674e-07 -1.03103e-06 5.3811e-07 -8.67158e-07 1.22353e-07 7.83475e-07 -4.56173e-07 -1.12226e-06 4.60811e-07 -7.33242e-07 1.66396e-07 8.36716e-07 -4.68397e-07 -1.12605e-06 4.30349e-07 -6.72667e-07 1.82617e-07 8.43778e-07 -4.63779e-07 -1.10226e-06 4.2674e-07 -6.25907e-07 1.96276e-07 8.37725e-07 -4.48257e-07 -1.05261e-06 4.05281e-07 -5.88441e-07 2.0947e-07 8.16421e-07 -4.37353e-07 -1.01221e-06 3.83123e-07 -5.54428e-07 2.03416e-07 7.80448e-07 -4.18513e-07 -9.60329e-07 3.68454e-07 -5.16768e-07 2.03766e-07 7.47503e-07 -3.98199e-07 -9.04683e-07 3.39195e-07 -4.83162e-07 1.97479e-07 7.05554e-07 -3.77942e-07 -8.44787e-07 3.22044e-07 -4.34772e-07 1.97402e-07 6.65624e-07 -3.51788e-07 -7.82078e-07 2.96044e-07 -4.05746e-07 1.87041e-07 6.18476e-07 -3.29669e-07 -7.19408e-07 2.71597e-07 -3.71559e-07 1.80715e-07 5.71483e-07 -3.12439e-07 -6.58426e-07 2.47227e-07 -3.38031e-07 1.75127e-07 5.21812e-07 -2.83141e-07 -6.04564e-07 2.24643e-07 -3.04795e-07 1.59644e-07 4.81688e-07 -2.65175e-07 -5.48452e-07 2.02873e-07 -2.61449e-07 1.50253e-07 4.34074e-07 -2.39331e-07 -4.95211e-07 1.71713e-07 -2.36284e-07 1.35313e-07 3.91621e-07 -2.18958e-07 -4.41175e-07 1.57122e-07 -2.1401e-07 1.21033e-07 3.4358e-07 -2.00002e-07 -3.92029e-07 1.42531e-07 -1.7503e-07 1.12845e-07 3.05125e-07 -1.71111e-07 -3.37663e-07 1.1626e-07 -1.50176e-07 1.04657e-07 2.71403e-07 -1.56268e-07 -2.98295e-07 1.01048e-07 -1.31161e-07 9.27054e-08 2.34887e-07 -1.27921e-07 -2.48818e-07 8.64578e-08 -1.04269e-07 7.90072e-08 2.00079e-07 -1.12845e-07 -2.14747e-07 6.87627e-08 -8.63414e-08 6.88015e-08 1.70781e-07 -9.4374e-08 -1.77592e-07 5.64614e-08 -6.51732e-08 5.58017e-08 1.39078e-07 -7.67177e-08 -1.4061e-07 4.29573e-08 -4.56736e-08 4.95929e-08 1.13544e-07 -6.34075e-08 -1.11992e-07 4.03961e-08 -3.19366e-08 4.39274e-08 9.25502e-08 -5.31436e-08 -8.74667e-08 2.59606e-08 -2.96471e-08 3.16262e-08 6.59687e-08 -3.72335e-08 -6.30971e-08 1.63758e-08 -1.34654e-08 3.05784e-08 5.64226e-08 -3.11993e-08 -4.57318e-08 9.39084e-09 -5.39391e-09 1.83548e-08 3.28679e-08 -7.35357e-09 -2.58442e-08 6.0924e-09 -1.41639e-09 8.3431e-09 2.68143e-08 -7.31476e-09 -4.65661e-09 5.51033e-09 -3.37604e-09 4.81183e-09 2.13428e-09 -1.88205e-09 -3.8029e-09 3.45365e-09 6.63567e-09 -8.53712e-10 1.08654e-09 -1.90145e-09 -7.48939e-09 1.22275e-07 -6.20028e-07 -5.62888e-07 -5.62888e-07 5.41603e-07 9.54606e-09 1.26582e-07 -1.19454e-06 -4.39507e-07 9.17741e-08 -5.33105e-07 -1.20831e-06 6.34114e-07 -9.20069e-07 2.8351e-07 9.6194e-07 -5.05999e-07 -1.29976e-06 5.25421e-07 -7.25132e-07 2.3221e-07 1.03082e-06 -4.3161e-07 -1.2198e-06 4.89294e-07 -6.53556e-07 2.033e-07 9.95506e-07 -4.06522e-07 -1.15207e-06 4.58754e-07 -6.05593e-07 2.04619e-07 9.5348e-07 -3.75653e-07 -1.0881e-06 4.29999e-07 -5.58192e-07 1.88399e-07 9.03693e-07 -3.62808e-07 -1.02738e-06 4.09627e-07 -5.2059e-07 1.94181e-07 8.61202e-07 -3.41213e-07 -9.57361e-07 3.81687e-07 -4.88983e-07 1.85915e-07 8.04119e-07 -3.24488e-07 -8.9244e-07 3.50643e-07 -4.51226e-07 1.80793e-07 7.50607e-07 -3.09645e-07 -8.34368e-07 3.33181e-07 -4.15467e-07 1.68647e-07 6.94922e-07 -2.91e-07 -7.6805e-07 3.03922e-07 -3.80484e-07 1.65698e-07 6.44087e-07 -2.71578e-07 -7.05807e-07 2.83898e-07 -3.40476e-07 1.6139e-07 5.96823e-07 -2.49672e-07 -6.40789e-07 2.57782e-07 -3.07647e-07 1.53668e-07 5.45716e-07 -2.35547e-07 -5.89314e-07 2.3609e-07 -2.78834e-07 1.3997e-07 4.94532e-07 -2.13874e-07 -5.32639e-07 2.06715e-07 -2.51244e-07 1.30734e-07 4.50217e-07 -1.98663e-07 -4.74198e-07 1.84324e-07 -2.19462e-07 1.20373e-07 3.96394e-07 -1.83083e-07 -4.28544e-07 1.62826e-07 -1.98818e-07 1.0943e-07 3.55338e-07 -1.62787e-07 -3.76041e-07 1.45946e-07 -1.73284e-07 1.0264e-07 3.16184e-07 -1.43579e-07 -3.31357e-07 1.27785e-07 -1.43812e-07 8.59921e-08 2.74042e-07 -1.32248e-07 -2.90301e-07 1.10672e-07 -1.15988e-07 8.14907e-08 2.39699e-07 -1.07684e-07 -2.41581e-07 9.67023e-08 -1.02057e-07 7.17895e-08 2.05822e-07 -9.45681e-08 -2.11003e-07 7.36133e-08 -8.63996e-08 5.75868e-08 1.74119e-07 -8.6419e-08 -1.78115e-07 6.94611e-08 -6.94029e-08 5.7742e-08 1.49477e-07 -6.87627e-08 -1.37758e-07 5.61122e-08 -5.52391e-08 4.98258e-08 1.18899e-07 -6.18941e-08 -1.20451e-07 4.19483e-08 -4.19677e-08 3.79902e-08 9.65471e-08 -4.55184e-08 -9.00084e-08 4.02797e-08 -2.88128e-08 2.75128e-08 7.19835e-08 -3.44395e-08 -6.36792e-08 2.67755e-08 -1.73459e-08 3.1665e-08 6.0924e-08 -3.15097e-08 -5.04466e-08 2.16921e-08 -1.56579e-08 2.33607e-08 4.23364e-08 -2.46218e-08 -3.17038e-08 1.80056e-08 -8.3625e-09 1.86653e-08 2.57666e-08 -1.06326e-08 -1.46683e-08 1.0361e-08 -7.29536e-09 7.567e-09 1.16415e-08 -6.57747e-09 -1.45325e-08 2.71636e-09 -3.72529e-09 2.01787e-09 9.8953e-09 6.20882e-10 -4.5208e-09 2.72955e-07 -4.85762e-07 -2.06055e-08 -2.06055e-08 1.99342e-07 -2.80309e-07 3.13235e-07 -5.27032e-07 -9.77695e-08 3.81842e-07 3.72917e-08 -6.96843e-07 2.1595e-07 -8.92323e-07 -6.21076e-08 6.72493e-07 -5.43369e-07 -1.47263e-06 5.28254e-07 -6.65158e-07 2.54678e-07 1.19e-06 -3.73208e-07 -1.24295e-06 5.15448e-07 -6.06272e-07 2.28601e-07 1.10226e-06 -3.21267e-07 -1.13936e-06 4.90225e-07 -5.55903e-07 2.08694e-07 1.03e-06 -3.02466e-07 -1.06811e-06 4.62984e-07 -5.21676e-07 1.95034e-07 9.63337e-07 -2.80503e-07 -9.89472e-07 4.33958e-07 -4.83415e-07 1.8933e-07 9.00744e-07 -2.68337e-07 -9.27248e-07 4.04427e-07 -4.53962e-07 1.73653e-07 8.3462e-07 -2.58442e-07 -8.60154e-07 3.79436e-07 -4.14613e-07 1.73575e-07 7.77189e-07 -2.44938e-07 -8.00336e-07 3.50138e-07 -3.86635e-07 1.60731e-07 7.17739e-07 -2.22217e-07 -7.31515e-07 3.23324e-07 -3.49033e-07 1.52931e-07 6.63606e-07 -2.10886e-07 -6.73113e-07 2.91737e-07 -3.17232e-07 1.40785e-07 6.04157e-07 -1.94763e-07 -6.1248e-07 2.70588e-07 -2.84927e-07 1.35934e-07 5.54603e-07 -1.80851e-07 -5.58503e-07 2.49672e-07 -2.58248e-07 1.23439e-07 5.01905e-07 -1.62147e-07 -4.98355e-07 2.20801e-07 -2.29668e-07 1.1203e-07 4.48897e-07 -1.53726e-07 -4.49169e-07 2.02252e-07 -2.04872e-07 1.00971e-07 3.96937e-07 -1.4096e-07 -4.02739e-07 1.72139e-07 -1.8219e-07 9.51889e-08 3.57434e-07 -1.28775e-07 -3.58617e-07 1.59761e-07 -1.51728e-07 8.39743e-08 3.14166e-07 -1.08383e-07 -3.09665e-07 1.36866e-07 -1.41755e-07 7.69505e-08 2.78465e-07 -9.99426e-08 -2.69909e-07 1.22702e-07 -1.16629e-07 6.67448e-08 2.36905e-07 -8.74279e-08 -2.2961e-07 1.03726e-07 -9.99232e-08 6.63179e-08 2.08655e-07 -7.50297e-08 -1.94394e-07 8.78936e-08 -8.51966e-08 5.0369e-08 1.6985e-07 -6.92089e-08 -1.71228e-07 7.09357e-08 -6.79865e-08 4.55184e-08 1.47576e-07 -5.62286e-08 -1.35566e-07 6.24762e-08 -5.55883e-08 4.02021e-08 1.1952e-07 -4.93213e-08 -1.1075e-07 5.24257e-08 -4.7381e-08 3.27903e-08 9.42188e-08 -4.34035e-08 -8.3237e-08 4.19483e-08 -4.2899e-08 2.82501e-08 6.81418e-08 -3.0074e-08 -6.46493e-08 3.21694e-08 -2.11294e-08 2.15756e-08 5.61122e-08 -2.598e-08 -5.10093e-08 2.58442e-08 -1.84324e-08 1.6531e-08 4.15991e-08 -2.01204e-08 -3.81648e-08 2.36323e-08 -1.30773e-08 9.70128e-09 2.77845e-08 -1.3737e-08 -1.89951e-08 1.28833e-08 -1.35624e-08 8.80876e-09 1.40863e-08 -1.0749e-08 -1.63175e-08 1.01669e-08 -7.6058e-09 3.72529e-09 9.23562e-09 -6.8685e-09 -3.53126e-09 4.0594e-07 -3.81648e-07 4.99577e-07 4.99577e-07 -8.85921e-08 -5.39624e-07 4.23674e-07 -4.5856e-07 2.40204e-07 6.92283e-07 -4.92825e-08 -7.58717e-07 3.97985e-07 -4.7738e-07 1.4063e-07 8.51617e-07 -1.98411e-07 -1.12888e-06 4.3776e-07 -5.48607e-07 1.92512e-07 1.12387e-06 -2.77515e-07 -1.19299e-06 5.43388e-07 -5.41622e-07 2.33762e-07 1.15247e-06 -2.5625e-07 -1.08749e-06 5.25382e-07 -5.21133e-07 2.30735e-07 1.06489e-06 -2.40533e-07 -1.00719e-06 5.06834e-07 -4.88789e-07 2.15524e-07 9.84718e-07 -2.21461e-07 -9.35145e-07 4.73345e-07 -4.51517e-07 2.04425e-07 9.2038e-07 -2.07355e-07 -8.71815e-07 4.44551e-07 -4.22529e-07 1.84053e-07 8.5053e-07 -1.92066e-07 -8.04896e-07 4.14477e-07 -3.86771e-07 1.79086e-07 7.93758e-07 -1.81142e-07 -7.42458e-07 3.78001e-07 -3.57143e-07 1.51961e-07 7.1479e-07 -1.67929e-07 -6.82174e-07 3.47577e-07 -3.22975e-07 1.46295e-07 6.6186e-07 -1.52659e-07 -6.18728e-07 3.16921e-07 -2.94026e-07 1.3574e-07 6.02876e-07 -1.43191e-07 -5.6477e-07 2.93988e-07 -2.6663e-07 1.22741e-07 5.45212e-07 -1.31957e-07 -5.11238e-07 2.64573e-07 -2.43483e-07 1.1075e-07 4.90768e-07 -1.1723e-07 -4.54815e-07 2.38457e-07 -2.18259e-07 9.73232e-08 4.35549e-07 -1.09527e-07 -4.11276e-07 2.14243e-07 -1.99109e-07 8.86309e-08 3.90923e-07 -9.78277e-08 -3.64904e-07 1.87467e-07 -1.69986e-07 7.70669e-08 3.44589e-07 -9.30547e-08 -3.25206e-07 1.74041e-07 -1.5264e-07 7.10133e-08 3.03456e-07 -7.68729e-08 -2.80677e-07 1.52155e-07 -1.28969e-07 5.96435e-08 2.63681e-07 -6.90731e-08 -2.40165e-07 1.28367e-07 -1.15523e-07 5.74316e-08 2.28679e-07 -5.95076e-08 -2.13447e-07 1.08848e-07 -9.40248e-08 4.49751e-08 1.9907e-07 -5.66167e-08 -1.75632e-07 9.84098e-08 -8.38966e-08 4.01245e-08 1.59256e-07 -4.64109e-08 -1.42725e-07 8.38578e-08 -6.72105e-08 3.70977e-08 1.3349e-07 -4.17737e-08 -1.23012e-07 6.62015e-08 -5.71017e-08 3.06172e-08 1.11875e-07 -3.48276e-08 -9.88948e-08 5.5957e-08 -3.70977e-08 2.36711e-08 8.77383e-08 -1.74623e-08 -7.33611e-08 4.69542e-08 -3.6632e-08 2.12652e-08 7.71834e-08 -2.29338e-08 -6.02449e-08 3.44977e-08 -2.22547e-08 1.6531e-08 5.38227e-08 -1.16803e-08 -4.53438e-08 2.51845e-08 -2.42144e-08 7.76102e-09 4.14439e-08 -1.49594e-08 -3.27321e-08 2.70084e-08 -2.06443e-08 8.80876e-09 2.65815e-08 -6.67448e-09 -2.07219e-08 2.73964e-08 -1.80832e-08 4.46259e-09 1.84712e-08 -1.39892e-08 -1.0846e-08 1.97906e-08 -1.73847e-08 9.19681e-09 6.0536e-09 -1.0943e-08 -2.34771e-09 5.74277e-07 -3.19172e-07 1.01514e-06 1.01514e-06 -4.12789e-07 -8.25326e-07 5.47191e-07 -3.9067e-07 5.80175e-07 9.9442e-07 -2.08849e-07 -8.70806e-07 5.58444e-07 -4.13449e-07 3.50177e-07 1.01429e-06 -1.55958e-07 -1.03012e-06 5.24684e-07 -4.22782e-07 2.52505e-07 1.12764e-06 -1.79454e-07 -1.01452e-06 5.18203e-07 -5.09453e-07 2.4226e-07 1.0789e-06 -2.01593e-07 -1.01968e-06 5.56582e-07 -4.83046e-07 2.44123e-07 1.0647e-06 -1.89505e-07 -9.483e-07 5.36752e-07 -4.62673e-07 2.29765e-07 9.90811e-07 -1.72139e-07 -8.75773e-07 5.02099e-07 -4.29165e-07 2.09936e-07 9.15568e-07 -1.60731e-07 -8.1384e-07 4.72181e-07 -4.01458e-07 1.89369e-07 8.44322e-07 -1.41309e-07 -7.40867e-07 4.39468e-07 -3.66184e-07 1.71131e-07 7.7226e-07 -1.31045e-07 -6.80273e-07 4.0431e-07 -3.44783e-07 1.53901e-07 7.04507e-07 -1.18918e-07 -6.22628e-07 3.79165e-07 -3.1015e-07 1.38573e-07 6.43505e-07 -1.08984e-07 -5.62984e-07 3.44745e-07 -2.79785e-07 1.27358e-07 5.82309e-07 -9.87202e-08 -5.11781e-07 3.03922e-07 -2.60557e-07 1.04502e-07 5.18359e-07 -8.93488e-08 -4.58172e-07 2.82501e-07 -2.29649e-07 9.84486e-08 4.67951e-07 -7.58446e-08 -4.07842e-07 2.62284e-07 -2.05822e-07 8.6613e-08 4.19095e-07 -6.47075e-08 -3.56367e-07 2.30153e-07 -1.83354e-07 7.97833e-08 3.71908e-07 -5.77032e-08 -3.176e-07 2.04154e-07 -1.61546e-07 6.27479e-08 3.22936e-07 -5.11257e-08 -2.82773e-07 1.78038e-07 -1.45248e-07 5.04466e-08 2.82307e-07 -4.21812e-08 -2.40223e-07 1.55065e-07 -1.29551e-07 4.54796e-08 2.43696e-07 -3.70783e-08 -2.07646e-07 1.32403e-07 -1.03474e-07 3.65156e-08 2.07258e-07 -3.25381e-08 -1.82306e-07 1.14281e-07 -8.75249e-08 2.7086e-08 1.76951e-07 -2.35935e-08 -1.48953e-07 9.95351e-08 -7.83475e-08 2.25846e-08 1.47964e-07 -2.00816e-08 -1.21732e-07 8.28877e-08 -6.38926e-08 1.90921e-08 1.208e-07 -1.71325e-08 -9.94769e-08 6.52314e-08 -5.24063e-08 1.21072e-08 9.44516e-08 -1.68414e-08 -7.9143e-08 5.90614e-08 -4.5402e-08 7.72222e-09 7.0082e-08 -1.30967e-08 -6.02643e-08 4.98258e-08 -3.09471e-08 1.15251e-08 5.87509e-08 -5.23869e-09 -4.57512e-08 3.23635e-08 -2.49517e-08 6.0924e-09 4.65661e-08 -6.94611e-09 -3.42649e-08 2.99964e-08 -2.42338e-08 4.03573e-09 3.13545e-08 -6.8297e-09 -2.63487e-08 2.05667e-08 -2.28756e-08 2.13428e-09 2.16532e-08 -4.67602e-09 -1.31355e-08 2.42532e-08 -2.68531e-08 4.50139e-09 1.29221e-08 -3.88051e-09 -8.73115e-09 2.37875e-08 -2.5689e-08 3.45365e-09 8.26549e-09 -1.50758e-08 -9.27442e-09 7.81186e-07 -3.06172e-07 1.53463e-06 1.53463e-06 -7.45485e-07 -1.13837e-06 6.95232e-07 -3.50759e-07 9.19875e-07 1.31522e-06 -3.84927e-07 -1.014e-06 7.14208e-07 -3.74236e-07 5.70901e-07 1.20269e-06 -1.66707e-07 -9.76104e-07 6.20843e-07 -4.25459e-07 3.46025e-07 1.15663e-06 -1.54871e-07 -9.4471e-07 5.89721e-07 -4.18241e-07 3.09432e-07 1.10063e-06 -1.43618e-07 -9.08913e-07 5.6962e-07 -4.5497e-07 2.70898e-07 1.03784e-06 -1.43734e-07 -8.7391e-07 5.69775e-07 -4.32832e-07 2.50215e-07 9.82312e-07 -1.2664e-07 -8.04158e-07 5.32523e-07 -4.07415e-07 2.21616e-07 9.00899e-07 -1.15756e-07 -7.38015e-07 5.08075e-07 -3.79048e-07 2.01864e-07 8.25656e-07 -9.67217e-08 -6.78857e-07 4.66437e-07 -3.45133e-07 1.70083e-07 7.53634e-07 -7.70475e-08 -6.10986e-07 4.32095e-07 -3.19968e-07 1.49516e-07 6.84639e-07 -6.97134e-08 -5.56523e-07 3.94493e-07 -2.91135e-07 1.3023e-07 6.18049e-07 -5.07183e-08 -4.94377e-07 3.59879e-07 -2.60033e-07 1.07607e-07 5.5208e-07 -4.2705e-08 -4.44221e-07 3.31008e-07 -2.37177e-07 9.53441e-08 4.97598e-07 -3.78156e-08 -4.00119e-07 3.00856e-07 -2.13913e-07 7.79983e-08 4.40826e-07 -2.98993e-08 -3.47771e-07 2.64263e-07 -1.94608e-07 6.43777e-08 3.82696e-07 -1.89369e-08 -3.06851e-07 2.33452e-07 -1.66901e-07 5.34734e-08 3.41718e-07 -1.65116e-08 -2.69501e-07 2.07763e-07 -1.50312e-07 3.99693e-08 2.9325e-07 -8.88637e-09 -2.29746e-07 1.81724e-07 -1.31996e-07 3.45754e-08 2.55648e-07 -4.36557e-09 -1.98546e-07 1.60653e-07 -1.10866e-07 1.86265e-08 2.13001e-07 -1.29997e-09 -1.69054e-07 1.37797e-07 -9.41606e-08 1.77727e-08 1.85644e-07 1.78504e-09 -1.37215e-07 1.15988e-07 -8.23444e-08 1.25341e-08 1.5165e-07 4.81183e-09 -1.12496e-07 1.03222e-07 -6.90731e-08 9.46845e-09 1.26893e-07 7.91624e-09 -8.8398e-08 7.76878e-08 -5.79554e-08 3.18202e-09 9.95351e-08 5.89838e-09 -7.22745e-08 6.61627e-08 -4.78855e-08 -4.5596e-09 7.36133e-08 5.27749e-09 -5.75092e-08 5.67331e-08 -3.90767e-08 -4.34617e-09 5.84793e-08 1.22624e-08 -3.82036e-08 3.82618e-08 -3.0171e-08 -1.02057e-08 4.02797e-08 8.07146e-09 -2.7474e-08 3.52738e-08 -2.30308e-08 -1.11953e-08 2.44084e-08 3.25963e-09 -2.04697e-08 1.81996e-08 -2.17115e-08 -7.89684e-09 1.57937e-08 4.22976e-09 -1.77339e-08 1.8316e-08 -1.62205e-08 -8.18788e-09 1.3737e-08 2.21189e-09 -9.42964e-09 1.93637e-08 -1.72101e-08 -3.41485e-09 8.22668e-09 2.52233e-09 -1.62981e-09 1.64922e-08 -1.94026e-08 7.45058e-09 1.16415e-08 9.31323e-10 -1.24176e-08 9.61241e-07 -3.66301e-07 2.02178e-06 2.02178e-06 -1.11549e-06 -1.48771e-06 8.56274e-07 -3.63856e-07 1.2593e-06 1.6347e-06 -5.88906e-07 -1.19205e-06 8.72378e-07 -3.67931e-07 8.03925e-07 1.41076e-06 -2.2635e-07 -9.64229e-07 7.38267e-07 -4.44551e-07 4.89643e-07 1.22907e-06 -1.71189e-07 -9.06449e-07 6.77537e-07 -4.18435e-07 3.92358e-07 1.12911e-06 -1.39175e-07 -8.43856e-07 6.34386e-07 -4.00818e-07 3.3419e-07 1.04044e-06 -1.02989e-07 -7.87472e-07 6.00393e-07 -4.00139e-07 2.77224e-07 9.63376e-07 -8.13355e-08 -7.31767e-07 5.77148e-07 -3.76157e-07 2.36401e-07 8.88443e-07 -6.58329e-08 -6.66167e-07 5.38266e-07 -3.49983e-07 1.97246e-07 7.99036e-07 -4.41602e-08 -5.9952e-07 5.01595e-07 -3.21364e-07 1.68725e-07 7.25306e-07 -2.52815e-08 -5.31785e-07 4.53981e-07 -2.95346e-07 1.39892e-07 6.47424e-07 -1.29609e-08 -4.76274e-07 4.13236e-07 -2.68454e-07 1.17812e-07 5.8196e-07 -4.34617e-09 -4.22588e-07 3.81144e-07 -2.481e-07 9.49561e-08 5.13896e-07 4.07454e-09 -3.75653e-07 3.35703e-07 -2.14941e-07 7.13626e-08 4.51614e-07 2.06831e-08 -3.26991e-07 3.03301e-07 -1.91212e-07 5.28526e-08 4.00934e-07 3.1665e-08 -2.83433e-07 2.72412e-07 -1.69734e-07 3.44201e-08 3.49867e-07 3.01516e-08 -2.41019e-07 2.41329e-07 -1.48236e-07 3.27903e-08 3.04193e-07 3.17814e-08 -2.07239e-07 2.13777e-07 -1.32209e-07 2.14592e-08 2.60654e-07 3.56231e-08 -1.75807e-07 1.85721e-07 -1.16648e-07 8.22668e-09 2.19792e-07 3.05396e-08 -1.45558e-07 1.6011e-07 -9.73038e-08 7.76102e-10 1.76951e-07 4.47423e-08 -1.14669e-07 1.34848e-07 -8.63802e-08 -9.02219e-09 1.50486e-07 3.37216e-08 -9.1095e-08 1.18084e-07 -6.65508e-08 -1.16221e-08 1.13195e-07 3.69037e-08 -7.25267e-08 9.30935e-08 -5.45988e-08 -1.77145e-08 9.16965e-08 3.91932e-08 -5.14362e-08 7.54371e-08 -4.64885e-08 -2.2701e-08 6.79477e-08 2.80173e-08 -4.01051e-08 5.81689e-08 -4.0823e-08 -2.16144e-08 4.65661e-08 2.99575e-08 -2.15756e-08 4.839e-08 -3.29455e-08 -2.47965e-08 2.67755e-08 2.81725e-08 -1.57355e-08 3.11605e-08 -2.10906e-08 -2.42144e-08 1.9713e-08 2.74352e-08 -8.47892e-09 2.63099e-08 -2.41756e-08 -2.23905e-08 1.35042e-08 2.23129e-08 -8.92518e-10 1.94026e-08 -9.02219e-09 -2.19249e-08 1.24176e-09 1.70742e-08 6.40284e-09 1.43579e-08 -1.44937e-08 -1.0555e-08 1.5522e-10 1.20296e-08 4.26856e-10 9.62367e-09 -1.92473e-08 -1.64922e-08 -4.92825e-09 3.49246e-09 -3.27903e-09 1.32325e-08 -1.73847e-08 -6.44165e-09 3.10441e-10 -8.3819e-09 -3.62828e-09 8.46921e-07 -4.01769e-07 2.34266e-06 2.34266e-06 -1.4544e-06 -1.8751e-06 9.32487e-07 -4.0691e-07 1.53234e-06 1.95729e-06 -8.08892e-07 -1.44797e-06 1.02841e-06 -4.20298e-07 1.0106e-06 1.65496e-06 -3.55009e-07 -1.0738e-06 9.17741e-07 -4.91855e-07 6.51577e-07 1.37281e-06 -2.44239e-07 -9.31536e-07 8.24065e-07 -4.45133e-07 5.20959e-07 1.21037e-06 -1.60673e-07 -8.28411e-07 7.57631e-07 -4.04291e-07 4.12537e-07 1.08224e-06 -1.04696e-07 -7.3264e-07 6.98259e-07 -3.78136e-07 3.42571e-07 9.72184e-07 -5.55301e-08 -6.42671e-07 6.40362e-07 -3.60034e-07 2.68143e-07 8.56778e-07 -1.981e-08 -5.77692e-07 5.84715e-07 -3.30445e-07 2.0621e-07 7.65353e-07 1.02445e-08 -5.05475e-07 5.39042e-07 -3.01457e-07 1.62904e-07 6.79633e-07 3.11605e-08 -4.36829e-07 4.7936e-07 -2.71461e-07 1.28523e-07 5.97327e-07 4.23752e-08 -3.89312e-07 4.40904e-07 -2.4585e-07 1.01631e-07 5.33958e-07 4.94377e-08 -3.36188e-07 3.97946e-07 -2.21092e-07 7.10522e-08 4.57163e-07 6.50374e-08 -2.83879e-07 3.50488e-07 -1.92648e-07 5.27361e-08 4.01982e-07 7.1673e-08 -2.43541e-07 3.12536e-07 -1.76796e-07 3.16262e-08 3.47112e-07 7.36133e-08 -2.06366e-07 2.80406e-07 -1.54076e-07 1.19132e-08 2.92086e-07 8.38966e-08 -1.69054e-07 2.44977e-07 -1.31142e-07 1.97906e-09 2.55066e-07 7.74162e-08 -1.41445e-07 2.04969e-07 -1.16609e-07 -9.1386e-09 2.09819e-07 7.57864e-08 -1.14087e-07 1.87467e-07 -9.37725e-08 -2.21577e-08 1.67716e-07 8.37414e-08 -8.29653e-08 1.53241e-07 -8.21116e-08 -3.28485e-08 1.33878e-07 7.72998e-08 -5.79748e-08 1.25108e-07 -6.67448e-08 -2.9065e-08 1.0621e-07 7.71058e-08 -3.59529e-08 1.07102e-07 -6.14091e-08 -3.86499e-08 7.4467e-08 6.83358e-08 -2.49323e-08 8.37802e-08 -4.33259e-08 -4.29379e-08 5.02914e-08 6.75597e-08 -8.11027e-09 7.16342e-08 -2.89292e-08 -4.62363e-08 2.94143e-08 6.92671e-08 4.07454e-09 5.05631e-08 -1.73847e-08 -4.99616e-08 1.52116e-08 6.24762e-08 7.06253e-09 3.75633e-08 -1.75399e-08 -4.83706e-08 7.06253e-09 5.56465e-08 2.77457e-08 1.36594e-08 -1.45907e-08 -4.06289e-08 -1.27087e-08 4.07454e-08 2.0916e-08 1.52892e-08 -1.00505e-08 -3.9717e-08 -1.98488e-08 3.86499e-08 2.2895e-08 8.73115e-09 -8.11027e-09 -3.30426e-08 -1.72683e-08 3.32172e-08 2.2507e-08 7.14014e-09 -2.52233e-09 -2.56114e-08 -1.48624e-08 2.23905e-08 1.90921e-08 2.48353e-09 -8.16848e-09 -2.13816e-08 -1.80832e-08 1.7928e-08 1.30385e-08 1.09818e-08 -1.47847e-08 -1.19132e-08 -7.02372e-09 4.88944e-09 1.66862e-09 -6.36404e-08 -1.97192e-06 -1.29143e-06 -1.29143e-06 -2.15989e-07 -7.3819e-07 8.03188e-07 -1.20214e-06 7.7649e-08 6.02139e-07 -3.59956e-07 -9.91529e-07 5.69853e-07 -8.97485e-07 1.0489e-07 7.3947e-07 -4.31377e-07 -1.07989e-06 4.59452e-07 -7.55652e-07 1.51068e-07 8.02761e-07 -4.64478e-07 -1.10872e-06 4.14827e-07 -6.63451e-07 1.82617e-07 8.30119e-07 -4.74722e-07 -1.09966e-06 3.92824e-07 -6.24452e-07 1.96393e-07 8.24259e-07 -4.63217e-07 -1.06873e-06 3.79786e-07 -5.75072e-07 2.05163e-07 8.13394e-07 -4.53108e-07 -1.02314e-06 3.65156e-07 -5.44882e-07 2.14282e-07 7.8658e-07 -4.2868e-07 -9.67955e-07 3.42804e-07 -5.12907e-07 2.06172e-07 7.47464e-07 -4.1568e-07 -9.19778e-07 3.22626e-07 -4.74936e-07 2.0299e-07 7.08853e-07 -3.9199e-07 -8.64597e-07 3.03417e-07 -4.35704e-07 1.93754e-07 6.67875e-07 -3.62265e-07 -7.95679e-07 2.85024e-07 -4.00566e-07 1.91503e-07 6.26198e-07 -3.44298e-07 -7.38015e-07 2.64651e-07 -3.67174e-07 1.83587e-07 5.78351e-07 -3.19385e-07 -6.77421e-07 2.38651e-07 -3.38691e-07 1.70548e-07 5.29418e-07 -2.99284e-07 -6.20377e-07 2.19365e-07 -3.01555e-07 1.63331e-07 4.85141e-07 -2.78504e-07 -5.66458e-07 1.93211e-07 -2.65951e-07 1.51068e-07 4.39584e-07 -2.48818e-07 -5.01731e-07 1.78387e-07 -2.32501e-07 1.41755e-07 3.95191e-07 -2.25535e-07 -4.49092e-07 1.55259e-07 -2.06366e-07 1.28057e-07 3.52001e-07 -2.02621e-07 -4.01943e-07 1.32131e-07 -1.73498e-07 1.15329e-07 3.14942e-07 -1.72586e-07 -3.47713e-07 1.17463e-07 -1.47828e-07 1.05201e-07 2.80522e-07 -1.55414e-07 -3.03941e-07 1.05433e-07 -1.28678e-07 9.31711e-08 2.41872e-07 -1.36361e-07 -2.60421e-07 8.76995e-08 -1.08033e-07 8.18788e-08 2.06094e-07 -1.18744e-07 -2.16513e-07 7.27984e-08 -8.46921e-08 7.24103e-08 1.70277e-07 -9.6877e-08 -1.84208e-07 5.35122e-08 -6.5503e-08 6.04196e-08 1.47847e-07 -7.97833e-08 -1.50661e-07 4.22588e-08 -4.94377e-08 4.86616e-08 1.19559e-07 -6.59881e-08 -1.16997e-07 3.43813e-08 -3.39933e-08 4.19095e-08 9.29382e-08 -4.99034e-08 -9.01055e-08 2.96083e-08 -1.93637e-08 3.40709e-08 7.4273e-08 -3.93872e-08 -6.59687e-08 1.77727e-08 -2.0101e-08 2.46024e-08 5.12227e-08 -2.34771e-08 -5.21347e-08 1.41639e-08 -7.95505e-09 1.12923e-08 3.99305e-08 -1.31161e-08 -2.40786e-08 1.0749e-08 -5.78196e-09 1.45519e-08 2.54562e-08 -1.02057e-08 -1.75011e-08 6.40284e-09 -5.58794e-09 4.38498e-09 1.16803e-08 3.10441e-09 9.31323e-10 -4.34617e-09 -2.05667e-09 -1.92085e-09 2.71636e-10 -4.69542e-09 1.20296e-09 1.20412e-07 -6.61394e-07 -6.42904e-07 -6.42904e-07 5.68223e-07 6.35628e-08 1.16377e-07 -1.24727e-06 -4.80407e-07 2.34383e-08 -5.24432e-07 -1.17023e-06 6.76024e-07 -9.52685e-07 2.58287e-07 9.07457e-07 -4.89371e-07 -1.20474e-06 5.44707e-07 -7.79168e-07 2.43075e-07 9.62173e-07 -4.7187e-07 -1.20882e-06 4.85258e-07 -6.65566e-07 2.32598e-07 9.73387e-07 -4.33996e-07 -1.16144e-06 4.54679e-07 -6.05437e-07 2.24216e-07 9.54994e-07 -4.09452e-07 -1.10199e-06 4.1797e-07 -5.65119e-07 2.1207e-07 9.07613e-07 -3.90903e-07 -1.04176e-06 4.00003e-07 -5.22317e-07 2.04115e-07 8.57476e-07 -3.71714e-07 -9.79771e-07 3.71869e-07 -4.85976e-07 1.96121e-07 8.0637e-07 -3.49595e-07 -9.19468e-07 3.49401e-07 -4.49169e-07 1.86459e-07 7.58213e-07 -3.29708e-07 -8.50899e-07 3.25303e-07 -4.17989e-07 1.80638e-07 7.03381e-07 -3.08501e-07 -7.83747e-07 2.96161e-07 -3.7996e-07 1.76098e-07 6.52741e-07 -2.86576e-07 -7.27247e-07 2.82424e-07 -3.43639e-07 1.60653e-07 6.02449e-07 -2.62691e-07 -6.53905e-07 2.51962e-07 -3.1632e-07 1.54794e-07 5.47036e-07 -2.48217e-07 -6.00567e-07 2.27747e-07 -2.84519e-07 1.43036e-07 4.96162e-07 -2.28523e-07 -5.44901e-07 2.11449e-07 -2.48799e-07 1.32869e-07 4.49984e-07 -2.06754e-07 -4.89488e-07 1.79629e-07 -2.27165e-07 1.23051e-07 4.06212e-07 -1.90572e-07 -4.3582e-07 1.65193e-07 -1.9843e-07 1.13544e-07 3.59102e-07 -1.71325e-07 -3.88614e-07 1.48041e-07 -1.66571e-07 1.04347e-07 3.21888e-07 -1.49788e-07 -3.41155e-07 1.24681e-07 -1.45577e-07 9.46845e-08 2.86304e-07 -1.33296e-07 -2.92901e-07 1.09586e-07 -1.2763e-07 8.30817e-08 2.42881e-07 -1.15368e-07 -2.45966e-07 9.27442e-08 -1.06675e-07 7.59028e-08 2.06637e-07 -1.00835e-07 -2.15e-07 8.06758e-08 -8.91741e-08 6.27091e-08 1.76951e-07 -8.87473e-08 -1.79784e-07 6.52702e-08 -6.69776e-08 5.82465e-08 1.49283e-07 -7.39043e-08 -1.53513e-07 5.78584e-08 -5.45018e-08 4.55184e-08 1.25146e-07 -6.09434e-08 -1.1628e-07 5.03302e-08 -3.87275e-08 3.93096e-08 9.46457e-08 -4.62751e-08 -8.81264e-08 3.08889e-08 -3.43813e-08 3.7641e-08 7.95505e-08 -3.88633e-08 -6.98686e-08 2.87934e-08 -2.33413e-08 2.57278e-08 5.67331e-08 -3.01904e-08 -4.94183e-08 2.18861e-08 -1.48236e-08 1.61817e-08 3.54679e-08 -1.18938e-08 -3.60693e-08 1.72683e-08 -2.59994e-09 1.0749e-08 3.49246e-08 -6.42225e-09 -1.6919e-08 1.3737e-08 -3.47306e-09 9.19681e-09 1.9713e-08 -1.41639e-09 -5.16108e-09 1.14475e-08 -1.70742e-09 1.1952e-08 1.57161e-08 -4.17155e-09 -2.15368e-09 2.51302e-07 -5.18669e-07 -1.01669e-07 -1.01669e-07 2.44433e-07 -2.1401e-07 2.74546e-07 -5.45095e-07 -1.41115e-07 3.17387e-07 5.05242e-08 -6.34289e-07 2.83083e-07 -9.14151e-07 -7.81147e-08 6.07727e-07 -4.98316e-07 -1.28014e-06 5.79515e-07 -7.51131e-07 2.95501e-07 1.08123e-06 -4.50818e-07 -1.27226e-06 5.2189e-07 -6.30758e-07 2.52582e-07 1.07824e-06 -3.78893e-07 -1.18385e-06 4.77846e-07 -5.70474e-07 2.23673e-07 1.03218e-06 -3.40592e-07 -1.10554e-06 4.48975e-07 -5.2612e-07 2.03688e-07 9.71641e-07 -3.20744e-07 -1.03383e-06 4.23985e-07 -4.91855e-07 1.93521e-07 9.09165e-07 -2.96335e-07 -9.58137e-07 3.96006e-07 -4.56814e-07 1.85876e-07 8.49987e-07 -2.81453e-07 -8.9081e-07 3.68726e-07 -4.25711e-07 1.72023e-07 7.83359e-07 -2.62982e-07 -8.21543e-07 3.46219e-07 -3.84733e-07 1.63486e-07 7.23676e-07 -2.4032e-07 -7.56797e-07 3.15369e-07 -3.50313e-07 1.53319e-07 6.71251e-07 -2.30367e-07 -6.96047e-07 2.89952e-07 -3.26642e-07 1.43773e-07 6.10637e-07 -2.05007e-07 -6.30486e-07 2.6434e-07 -2.93696e-07 1.29958e-07 5.56426e-07 -1.96625e-07 -5.74335e-07 2.42454e-07 -2.64224e-07 1.24332e-07 5.02875e-07 -1.79571e-07 -5.17078e-07 2.1564e-07 -2.39486e-07 1.17153e-07 4.55378e-07 -1.61022e-07 -4.62479e-07 1.90999e-07 -2.04348e-07 1.05239e-07 4.0726e-07 -1.47809e-07 -4.10345e-07 1.73226e-07 -1.84712e-07 9.56546e-08 3.58559e-07 -1.33063e-07 -3.6601e-07 1.51612e-07 -1.58383e-07 8.71951e-08 3.20453e-07 -1.1463e-07 -3.13992e-07 1.38069e-07 -1.39369e-07 8.09863e-08 2.806e-07 -1.09392e-07 -2.81958e-07 1.12962e-07 -1.1855e-07 6.61239e-08 2.38845e-07 -9.20263e-08 -2.40417e-07 1.0912e-07 -1.00447e-07 5.92166e-08 2.07685e-07 -8.35862e-08 -1.99322e-07 8.82428e-08 -8.43041e-08 5.94882e-08 1.75283e-07 -6.63567e-08 -1.66726e-07 7.30312e-08 -6.9985e-08 4.95153e-08 1.49943e-07 -6.29031e-08 -1.42531e-07 5.76256e-08 -6.03031e-08 3.74469e-08 1.17153e-07 -4.79631e-08 -1.17521e-07 4.90885e-08 -4.54796e-08 2.80949e-08 9.76725e-08 -3.44977e-08 -9.24726e-08 4.16767e-08 -2.99381e-08 2.23905e-08 8.03654e-08 -3.67096e-08 -6.93641e-08 3.39545e-08 -2.62711e-08 2.21965e-08 5.48316e-08 -2.32249e-08 -4.33453e-08 2.59994e-08 -1.99458e-08 2.38263e-08 4.38886e-08 -1.42803e-08 -3.40321e-08 1.59489e-08 -1.9422e-08 6.71328e-09 2.64651e-08 -1.29221e-08 -2.48741e-08 1.72295e-08 -1.30191e-08 1.00893e-08 2.20801e-08 -8.49832e-09 -1.03804e-08 1.38922e-08 -7.83863e-09 1.02834e-08 1.22236e-08 -8.3625e-09 -2.94919e-09 3.89215e-07 -4.03476e-07 4.05358e-07 4.05358e-07 -5.12033e-08 -4.91603e-07 4.04e-07 -4.62634e-07 1.88864e-07 6.3004e-07 -4.82736e-08 -7.46125e-07 3.93794e-07 -4.77206e-07 9.22397e-08 7.91624e-07 -1.169e-07 -9.33709e-07 3.45831e-07 -6.94204e-07 9.07263e-08 9.09475e-07 -4.11198e-07 -1.32285e-06 5.24373e-07 -5.74568e-07 2.52893e-07 1.16916e-06 -3.06192e-07 -1.16687e-06 5.11723e-07 -5.24315e-07 2.24798e-07 1.08891e-06 -2.71015e-07 -1.0717e-06 4.81339e-07 -4.904e-07 2.08655e-07 1.01223e-06 -2.45811e-07 -9.89938e-07 4.50993e-07 -4.59685e-07 1.89602e-07 9.36212e-07 -2.29687e-07 -9.18924e-07 4.23752e-07 -4.23926e-07 1.79474e-07 8.70864e-07 -2.14185e-07 -8.47581e-07 4.01322e-07 -3.90127e-07 1.65775e-07 8.00976e-07 -1.93832e-07 -7.77635e-07 3.6147e-07 -3.62032e-07 1.50758e-07 7.36172e-07 -1.79551e-07 -7.0926e-07 3.35509e-07 -3.3093e-07 1.38263e-07 6.69349e-07 -1.69113e-07 -6.48298e-07 3.10169e-07 -2.98023e-07 1.30618e-07 6.10948e-07 -1.52e-07 -5.8586e-07 2.82113e-07 -2.72858e-07 1.18899e-07 5.53749e-07 -1.38573e-07 -5.29049e-07 2.5817e-07 -2.44938e-07 1.05278e-07 4.96511e-07 -1.26932e-07 -4.7546e-07 2.25846e-07 -2.1661e-07 9.51889e-08 4.44318e-07 -1.1822e-07 -4.27419e-07 2.0427e-07 -1.96606e-07 8.5216e-08 3.94958e-07 -1.10905e-07 -3.85374e-07 1.83703e-07 -1.73808e-07 7.95117e-08 3.54291e-07 -9.62173e-08 -3.30561e-07 1.66125e-07 -1.50603e-07 7.41178e-08 3.08772e-07 -8.61861e-08 -2.89797e-07 1.40474e-07 -1.31433e-07 6.40672e-08 2.67949e-07 -7.43506e-08 -2.52059e-07 1.29609e-07 -1.15853e-07 5.71987e-08 2.35043e-07 -6.90537e-08 -2.14515e-07 1.09314e-07 -1.06598e-07 4.34229e-08 1.8902e-07 -5.66361e-08 -1.83703e-07 9.00667e-08 -7.77848e-08 4.222e-08 1.69384e-07 -4.90109e-08 -1.53009e-07 7.84251e-08 -6.75791e-08 3.39545e-08 1.38069e-07 -4.40826e-08 -1.22236e-07 6.70552e-08 -5.42883e-08 3.24411e-08 1.10595e-07 -3.41485e-08 -1.01863e-07 5.37451e-08 -4.97481e-08 2.35547e-08 9.1386e-08 -2.87158e-08 -7.10522e-08 4.6799e-08 -4.30931e-08 2.43308e-08 6.66672e-08 -2.38069e-08 -6.70164e-08 3.70201e-08 -2.89486e-08 8.14907e-09 5.1378e-08 -1.71713e-08 -3.90185e-08 3.70589e-08 -1.59295e-08 2.18473e-08 4.36946e-08 -1.37176e-08 -2.86382e-08 2.5495e-08 -1.8413e-08 9.8565e-09 2.47189e-08 -9.17741e-09 -2.17503e-08 2.03339e-08 -1.67832e-08 1.08654e-08 2.33607e-08 -9.66247e-09 -1.62011e-08 1.75011e-08 -8.51772e-09 9.42964e-09 1.59489e-08 -4.92825e-09 -5.93718e-09 5.58677e-07 -3.27554e-07 9.20108e-07 9.20108e-07 -3.43949e-07 -7.73754e-07 5.1929e-07 -3.98354e-07 5.14129e-07 9.4568e-07 -1.84169e-07 -8.64132e-07 4.94843e-07 -4.20182e-07 3.07841e-07 9.90035e-07 -1.195e-07 -9.31012e-07 4.6636e-07 -4.43174e-07 2.07336e-07 1.02143e-06 -1.8737e-07 -1.08161e-06 4.9104e-07 -4.90613e-07 2.23013e-07 1.11949e-06 -2.20898e-07 -1.0943e-06 5.45251e-07 -4.81921e-07 2.32792e-07 1.10932e-06 -1.96102e-07 -1.00012e-06 5.22045e-07 -4.54272e-07 2.16455e-07 1.02314e-06 -1.82423e-07 -9.29382e-07 4.95619e-07 -4.28486e-07 1.95849e-07 9.45137e-07 -1.67832e-07 -8.47348e-07 4.62169e-07 -3.95618e-07 1.82694e-07 8.6419e-07 -1.51825e-07 -7.82098e-07 4.29883e-07 -3.67058e-07 1.63874e-07 7.95854e-07 -1.31899e-07 -7.07339e-07 4.01012e-07 -3.34791e-07 1.49555e-07 7.26432e-07 -1.24467e-07 -6.47192e-07 3.6469e-07 -3.07395e-07 1.31743e-07 6.5569e-07 -1.10459e-07 -5.88053e-07 3.3256e-07 -2.78e-07 1.19287e-07 5.97909e-07 -9.86232e-08 -5.28855e-07 3.00701e-07 -2.51457e-07 1.09314e-07 5.40361e-07 -8.8398e-08 -4.77672e-07 2.74818e-07 -2.29086e-07 9.5577e-08 4.8553e-07 -7.62908e-08 -4.22335e-07 2.4226e-07 -2.04134e-07 7.7843e-08 4.24411e-07 -7.35357e-08 -3.82327e-07 2.20529e-07 -1.8285e-07 7.17895e-08 3.81066e-07 -6.38926e-08 -3.34384e-07 1.94452e-07 -1.59198e-07 6.23986e-08 3.33258e-07 -5.50256e-08 -2.89797e-07 1.74196e-07 -1.38864e-07 5.28526e-08 2.87895e-07 -4.69154e-08 -2.53281e-07 1.52465e-07 -1.18239e-07 4.70318e-08 2.53591e-07 -4.18901e-08 -2.20665e-07 1.27863e-07 -1.06598e-07 3.0656e-08 2.09586e-07 -3.42067e-08 -1.82811e-07 1.15329e-07 -9.1192e-08 3.42261e-08 1.82888e-07 -2.53009e-08 -1.49089e-07 9.52665e-08 -7.62908e-08 2.23129e-08 1.4614e-07 -2.84441e-08 -1.30987e-07 8.0249e-08 -6.84716e-08 1.76951e-08 1.20335e-07 -2.39622e-08 -1.04425e-07 6.78313e-08 -5.36093e-08 1.88981e-08 9.93799e-08 -1.89757e-08 -7.90072e-08 4.92825e-08 -4.27826e-08 1.59489e-08 7.60192e-08 -1.25923e-08 -6.61821e-08 4.4393e-08 -3.2247e-08 6.28643e-09 5.98763e-08 -9.79829e-09 -4.52468e-08 3.8223e-08 -3.25769e-08 1.01281e-08 4.5596e-08 -3.68649e-09 -3.32754e-08 2.98799e-08 -2.20801e-08 4.85064e-09 3.44201e-08 -6.8491e-09 -2.57472e-08 2.78621e-08 -1.6628e-08 3.57007e-09 2.24294e-08 -9.8953e-10 -1.67444e-08 2.03339e-08 -2.43308e-08 -3.68649e-10 1.5328e-08 -1.48624e-08 -1.94802e-08 2.83277e-08 -1.40669e-08 4.11334e-09 8.69234e-09 -5.97599e-09 -5.64614e-09 7.60968e-07 -3.17756e-07 1.44685e-06 1.44685e-06 -6.77983e-07 -1.07556e-06 6.69737e-07 -3.62692e-07 8.60038e-07 1.26e-06 -3.58113e-07 -9.93294e-07 6.14945e-07 -3.79669e-07 5.45949e-07 1.18406e-06 -1.93521e-07 -9.59611e-07 5.97133e-07 -3.9459e-07 3.5755e-07 1.12647e-06 -1.35488e-07 -9.82856e-07 5.72259e-07 -4.05319e-07 2.71558e-07 1.121e-06 -1.38418e-07 -9.444e-07 5.61394e-07 -4.57144e-07 2.47266e-07 1.05527e-06 -1.46062e-07 -9.29033e-07 5.65313e-07 -4.30989e-07 2.26311e-07 1.01161e-06 -1.26505e-07 -8.4793e-07 5.32484e-07 -4.066e-07 2.02407e-07 9.25851e-07 -1.07587e-07 -7.7424e-07 4.96046e-07 -3.79106e-07 1.84247e-07 8.52703e-07 -1.00272e-07 -7.0732e-07 4.60306e-07 -3.50701e-07 1.62322e-07 7.70902e-07 -8.5216e-08 -6.37393e-07 4.2965e-07 -3.1729e-07 1.46062e-07 6.99462e-07 -6.62209e-08 -5.74102e-07 3.92436e-07 -2.91446e-07 1.22275e-07 6.31204e-07 -5.88479e-08 -5.1603e-07 3.50061e-07 -2.60363e-07 1.04929e-07 5.62984e-07 -4.7381e-08 -4.6147e-07 3.25187e-07 -2.35062e-07 9.05323e-08 5.0532e-07 -4.38886e-08 -4.09161e-07 2.92008e-07 -2.11158e-07 7.72998e-08 4.43077e-07 -3.20918e-08 -3.62362e-07 2.55105e-07 -1.97363e-07 6.76761e-08 3.98373e-07 -3.30814e-08 -3.21888e-07 2.26234e-07 -1.69637e-07 5.62674e-08 3.45404e-07 -2.09936e-08 -2.82191e-07 2.02213e-07 -1.455e-07 3.97364e-08 3.01205e-07 -1.34848e-08 -2.41135e-07 1.83781e-07 -1.28193e-07 3.345e-08 2.61352e-07 -6.96552e-09 -2.03785e-07 1.50719e-07 -1.11312e-07 2.18861e-08 2.18861e-07 -5.89838e-09 -1.73032e-07 1.33567e-07 -1.00156e-07 1.64146e-08 1.83665e-07 -3.0074e-09 -1.4614e-07 1.18782e-07 -8.12579e-08 1.78504e-08 1.6108e-07 -1.5522e-10 -1.15154e-07 9.77501e-08 -7.10716e-08 8.22668e-09 1.23284e-07 1.90145e-09 -9.81575e-08 8.07534e-08 -5.56271e-08 8.92518e-10 1.00971e-07 6.90731e-09 -7.66983e-08 6.57747e-08 -4.29185e-08 -3.74469e-09 7.98997e-08 6.01479e-09 -5.57047e-08 5.37839e-08 -3.85723e-08 -1.5522e-09 6.01867e-08 -5.21929e-09 -4.3714e-08 4.10558e-08 -3.18978e-08 -2.81337e-09 3.57007e-08 6.20882e-09 -2.93755e-08 2.81337e-08 -2.22547e-08 -2.23129e-09 3.33336e-08 5.82077e-09 -1.92279e-08 2.72412e-08 -1.99458e-08 -9.02219e-09 1.60265e-08 5.08347e-09 -1.0264e-08 2.08771e-08 -2.11294e-08 -2.07607e-09 1.32325e-08 3.18202e-09 -9.1192e-09 2.02951e-08 -1.71519e-08 -7.567e-10 1.15639e-08 3.49246e-09 -5.16108e-09 2.21577e-08 -2.8968e-08 -1.78504e-09 6.8297e-09 -4.73422e-09 -8.86697e-09 9.49445e-07 -3.71423e-07 1.94825e-06 1.94825e-06 -1.05354e-06 -1.43092e-06 8.18167e-07 -3.73053e-07 1.21328e-06 1.59376e-06 -5.63082e-07 -1.17564e-06 7.51577e-07 -3.67426e-07 7.76335e-07 1.39272e-06 -2.99226e-07 -1.02387e-06 7.46222e-07 -3.83123e-07 5.29108e-07 1.25709e-06 -1.44239e-07 -9.25463e-07 6.80331e-07 -4.07589e-07 3.66747e-07 1.15007e-06 -1.07995e-07 -8.65335e-07 6.35472e-07 -4.04116e-07 2.94919e-07 1.05418e-06 -9.10174e-08 -8.03964e-07 6.08736e-07 -4.10674e-07 2.59567e-07 9.7428e-07 -7.2779e-08 -7.53071e-07 5.76683e-07 -3.87294e-07 2.19947e-07 9.02025e-07 -5.80912e-08 -6.86656e-07 5.32755e-07 -3.5497e-07 1.84674e-07 8.14713e-07 -4.39274e-08 -6.15255e-07 5.00043e-07 -3.26681e-07 1.57743e-07 7.3039e-07 -2.92785e-08 -5.45833e-07 4.53438e-07 -2.97635e-07 1.36672e-07 6.54293e-07 -1.45131e-08 -4.88692e-07 4.13779e-07 -2.72819e-07 1.11099e-07 5.86151e-07 -3.0268e-09 -4.36131e-07 3.74353e-07 -2.45151e-07 8.48668e-08 5.18669e-07 -2.91038e-10 -3.87197e-07 3.35315e-07 -2.18609e-07 7.51267e-08 4.62596e-07 1.57549e-08 -3.3093e-07 2.97519e-07 -1.97964e-07 5.66555e-08 4.03767e-07 1.65698e-08 -2.94376e-07 2.67833e-07 -1.67774e-07 4.16767e-08 3.52932e-07 1.95578e-08 -2.51612e-07 2.37216e-07 -1.442e-07 3.58559e-08 3.07259e-07 2.5689e-08 -2.15155e-07 2.08112e-07 -1.39116e-07 1.82772e-08 2.59335e-07 2.32831e-08 -1.84635e-07 1.80638e-07 -1.15853e-07 9.04159e-09 2.17115e-07 3.44201e-08 -1.55705e-07 1.53746e-07 -9.72262e-08 -2.36711e-09 1.87856e-07 3.15486e-08 -1.20509e-07 1.39039e-07 -8.68458e-08 -1.84324e-09 1.50253e-07 3.03068e-08 -9.78665e-08 1.06132e-07 -6.93447e-08 -8.07146e-09 1.20102e-07 3.15874e-08 -7.36133e-08 9.30158e-08 -5.55301e-08 -1.48818e-08 9.03383e-08 3.39933e-08 -5.32988e-08 7.34193e-08 -4.8778e-08 -1.78115e-08 6.94999e-08 3.11217e-08 -4.09588e-08 5.76256e-08 -4.14439e-08 -2.40204e-08 4.81183e-08 2.80561e-08 -2.97247e-08 4.47035e-08 -2.67367e-08 -1.91503e-08 3.86111e-08 2.85994e-08 -1.5037e-08 3.74081e-08 -2.34771e-08 -2.4001e-08 1.95966e-08 2.03727e-08 -3.39545e-09 2.73964e-08 -1.84324e-08 -1.68996e-08 6.79089e-09 1.19908e-08 -1.03222e-08 1.31161e-08 -1.6628e-08 -2.11488e-08 1.16415e-09 1.96354e-08 2.83277e-09 2.02563e-08 -1.31549e-08 -1.78698e-08 -1.08654e-09 9.81769e-09 5.58794e-09 1.40086e-08 -1.04774e-08 -4.85064e-09 -6.40284e-10 1.0555e-08 -2.52233e-10 6.28643e-09 -2.39039e-08 -8.49832e-09 2.32831e-09 3.88051e-11 -1.14087e-08 8.95311e-07 -4.2965e-07 2.30561e-06 2.30561e-06 -1.42114e-06 -1.83719e-06 9.25385e-07 -4.20473e-07 1.51499e-06 1.93529e-06 -8.13782e-07 -1.43144e-06 9.21854e-07 -4.26294e-07 1.02814e-06 1.65081e-06 -4.5175e-07 -1.14881e-06 9.2946e-07 -4.28932e-07 7.13975e-07 1.41549e-06 -2.137e-07 -9.33243e-07 8.39277e-07 -4.49092e-07 4.96705e-07 1.21856e-06 -1.36478e-07 -8.14422e-07 7.62753e-07 -4.20706e-07 3.96588e-07 1.07649e-06 -8.10833e-08 -7.2226e-07 6.98686e-07 -3.89933e-07 3.18978e-07 9.61979e-07 -4.15797e-08 -6.50374e-07 6.37102e-07 -3.64516e-07 2.44821e-07 8.55148e-07 -8.80876e-09 -5.7872e-07 5.89217e-07 -3.371e-07 1.92435e-07 7.63723e-07 1.01281e-08 -5.0596e-07 5.37296e-07 -3.05784e-07 1.60032e-07 6.77266e-07 3.58559e-08 -4.43329e-07 4.813e-07 -2.73809e-07 1.21382e-07 6.01479e-07 4.24916e-08 -3.87159e-07 4.4362e-07 -2.47363e-07 9.26666e-08 5.23015e-07 5.48704e-08 -3.35936e-07 3.86227e-07 -2.24546e-07 6.87627e-08 4.60073e-07 6.45717e-08 -2.91892e-07 3.47733e-07 -1.90281e-07 4.34229e-08 4.00352e-07 6.96164e-08 -2.4682e-07 3.10829e-07 -1.7635e-07 3.22082e-08 3.48936e-07 6.43777e-08 -2.12962e-07 2.70278e-07 -1.53532e-07 1.64534e-08 2.94026e-07 7.24491e-08 -1.75826e-07 2.40281e-07 -1.29939e-07 5.93718e-09 2.54367e-07 7.13238e-08 -1.4581e-07 2.11721e-07 -1.1399e-07 -5.52973e-09 2.11721e-07 7.57476e-08 -1.14669e-07 1.72877e-07 -9.74978e-08 -2.06055e-08 1.6985e-07 7.4079e-08 -8.86309e-08 1.49283e-07 -8.41295e-08 -2.88322e-08 1.33878e-07 7.19059e-08 -6.66284e-08 1.23944e-07 -6.72687e-08 -3.11411e-08 1.07413e-07 7.35357e-08 -4.8972e-08 1.06326e-07 -4.46647e-08 -4.32483e-08 7.93176e-08 6.94999e-08 -2.95307e-08 8.59921e-08 -4.33453e-08 -4.06678e-08 5.83629e-08 6.45717e-08 -7.6058e-09 5.9333e-08 -3.33336e-08 -3.55649e-08 3.6632e-08 5.78584e-08 1.04774e-09 4.47035e-08 -1.91503e-08 -3.72529e-08 1.95578e-08 6.24762e-08 1.21072e-08 3.4653e-08 -1.41639e-08 -4.49751e-08 5.39391e-09 4.96705e-08 1.00505e-08 2.33607e-08 -1.38534e-08 -4.15215e-08 -1.88205e-09 4.75751e-08 2.1498e-08 1.35818e-08 -5.3551e-09 -3.98722e-08 -1.38146e-08 3.89215e-08 2.33607e-08 8.76995e-09 -2.73576e-09 -3.27515e-08 -1.71519e-08 3.15097e-08 1.80056e-08 3.41485e-09 -1.11177e-08 -2.99381e-08 -1.64146e-08 2.70084e-08 1.57161e-08 -1.86265e-09 -3.93872e-09 -2.40398e-08 -1.27475e-08 1.49788e-08 8.07146e-09 2.13428e-09 -1.29803e-08 -1.27087e-08 -5.80136e-09 1.78504e-09 -5.60734e-09 -1.9907e-08 -2.0745e-06 -1.36022e-06 -1.36022e-06 -1.96878e-07 -7.03071e-07 8.44166e-07 -1.22114e-06 7.56312e-08 5.8328e-07 -3.50662e-07 -9.61765e-07 5.80098e-07 -9.07263e-07 9.86038e-08 7.12113e-07 -4.23344e-07 -1.05626e-06 4.61587e-07 -7.58815e-07 1.4063e-07 7.76335e-07 -4.64633e-07 -1.09531e-06 4.04078e-07 -6.7486e-07 1.77921e-07 8.11492e-07 -4.72472e-07 -1.08757e-06 3.71598e-07 -6.1574e-07 1.94297e-07 8.12191e-07 -4.73888e-07 -1.07519e-06 3.60926e-07 -5.79011e-07 2.03106e-07 8.06991e-07 -4.51536e-07 -1.0256e-06 3.47306e-07 -5.45057e-07 2.08073e-07 7.84601e-07 -4.42863e-07 -9.82429e-07 3.2542e-07 -5.10365e-07 2.08733e-07 7.50413e-07 -4.32696e-07 -9.33321e-07 3.14632e-07 -4.73112e-07 2.07064e-07 7.09474e-07 -4.0239e-07 -8.6776e-07 2.93289e-07 -4.36868e-07 2.00816e-07 6.67758e-07 -3.79727e-07 -8.0899e-07 2.76719e-07 -4.06134e-07 1.92823e-07 6.23482e-07 -3.5625e-07 -7.48997e-07 2.55415e-07 -3.68357e-07 1.8413e-07 5.78002e-07 -3.31512e-07 -6.89159e-07 2.35314e-07 -3.35121e-07 1.7796e-07 5.36558e-07 -3.11469e-07 -6.31999e-07 2.13971e-07 -2.96587e-07 1.67638e-07 4.88983e-07 -2.76933e-07 -5.72143e-07 1.87817e-07 -2.69501e-07 1.51029e-07 4.46841e-07 -2.53281e-07 -5.17233e-07 1.67638e-07 -2.29067e-07 1.39349e-07 4.03806e-07 -2.31744e-07 -4.59511e-07 1.5394e-07 -2.08151e-07 1.29105e-07 3.57395e-07 -2.10867e-07 -4.04078e-07 1.30851e-07 -1.83956e-07 1.20024e-07 3.13506e-07 -1.86982e-07 -3.57337e-07 1.12806e-07 -1.51456e-07 1.06093e-07 2.76719e-07 -1.64592e-07 -3.15292e-07 9.84486e-08 -1.28658e-07 9.44904e-08 2.45365e-07 -1.54871e-07 -2.71985e-07 8.73891e-08 -1.04774e-07 9.15024e-08 2.08694e-07 -1.26796e-07 -2.26602e-07 6.25926e-08 -7.90072e-08 7.58252e-08 1.7571e-07 -1.08344e-07 -1.9226e-07 5.9527e-08 -7.04701e-08 6.0536e-08 1.44549e-07 -8.62055e-08 -1.53785e-07 4.90109e-08 -5.1572e-08 5.75868e-08 1.25224e-07 -7.33611e-08 -1.19966e-07 3.84947e-08 -3.10635e-08 4.15991e-08 8.8204e-08 -4.91079e-08 -8.83786e-08 2.30114e-08 -3.42261e-08 2.84829e-08 6.77537e-08 -4.20065e-08 -7.05865e-08 2.52621e-08 -1.00893e-08 2.5495e-08 5.41719e-08 -3.57977e-08 -4.60229e-08 1.47459e-08 -1.74041e-08 2.45636e-08 3.48082e-08 -1.90921e-08 -3.3159e-08 1.17968e-08 -2.07607e-09 1.18356e-08 2.5883e-08 -5.27749e-09 -1.94608e-08 2.83277e-09 -5.23869e-10 1.35818e-09 1.55608e-08 -1.59101e-09 -1.44549e-08 0 -3.93872e-09 -3.31784e-09 9.54606e-09 -3.84171e-09 -2.2895e-09 1.38224e-07 -7.30797e-07 -7.02974e-07 -7.02974e-07 6.11801e-07 1.19714e-07 1.33218e-07 -1.30205e-06 -5.183e-07 -2.7086e-08 -5.36694e-07 -1.13808e-06 6.96629e-07 -9.70225e-07 2.62245e-07 8.66634e-07 -4.90283e-07 -1.16256e-06 5.69271e-07 -7.93778e-07 2.46257e-07 9.21893e-07 -4.73752e-07 -1.17013e-06 4.86344e-07 -6.76936e-07 2.39893e-07 9.39666e-07 -4.51439e-07 -1.15028e-06 4.46996e-07 -6.10191e-07 2.31434e-07 9.33534e-07 -4.33356e-07 -1.11115e-06 4.10713e-07 -5.67816e-07 2.18628e-07 8.9927e-07 -4.10345e-07 -1.05988e-06 3.8452e-07 -5.26585e-07 2.05861e-07 8.5802e-07 -3.8776e-07 -9.93353e-07 3.5984e-07 -4.87334e-07 2.02485e-07 8.10328e-07 -3.70919e-07 -9.30838e-07 3.39157e-07 -4.53244e-07 1.95617e-07 7.57437e-07 -3.45928e-07 -8.66673e-07 3.19366e-07 -4.14962e-07 1.89873e-07 7.12268e-07 -3.22664e-07 -8.00724e-07 2.96587e-07 -3.82754e-07 1.77727e-07 6.57087e-07 -2.98993e-07 -7.34988e-07 2.68958e-07 -3.53728e-07 1.67987e-07 6.05127e-07 -2.82598e-07 -6.76198e-07 2.47926e-07 -3.15194e-07 1.57704e-07 5.52236e-07 -2.57957e-07 -6.14615e-07 2.27126e-07 -2.83782e-07 1.49438e-07 5.06872e-07 -2.37565e-07 -5.52895e-07 2.01864e-07 -2.51923e-07 1.37719e-07 4.53748e-07 -2.15174e-07 -4.96376e-07 1.89485e-07 -2.21926e-07 1.28173e-07 4.09937e-07 -1.93637e-07 -4.43484e-07 1.61041e-07 -1.97887e-07 1.17618e-07 3.67911e-07 -1.73148e-07 -3.96103e-07 1.39e-07 -1.71907e-07 1.01631e-07 3.24993e-07 -1.61119e-07 -3.49168e-07 1.30502e-07 -1.50506e-07 9.51889e-08 2.8351e-07 -1.43773e-07 -3.01108e-07 1.09586e-07 -1.22469e-07 8.92906e-08 2.46839e-07 -1.1855e-07 -2.6079e-07 9.67799e-08 -1.01475e-07 7.77654e-08 2.20103e-07 -1.05589e-07 -2.16416e-07 7.83863e-08 -8.55071e-08 6.75985e-08 1.78503e-07 -9.87008e-08 -1.877e-07 6.29419e-08 -7.4079e-08 5.76644e-08 1.46645e-07 -7.51461e-08 -1.53261e-07 5.20765e-08 -5.32406e-08 4.96317e-08 1.27824e-07 -6.17971e-08 -1.27533e-07 3.88827e-08 -4.02021e-08 3.83006e-08 1.04075e-07 -4.32871e-08 -9.44904e-08 3.98917e-08 -3.09665e-08 3.03068e-08 8.14907e-08 -3.64574e-08 -7.40013e-08 2.73188e-08 -2.33413e-08 2.51457e-08 6.26703e-08 -2.36129e-08 -5.27555e-08 1.6919e-08 -1.13893e-08 1.90145e-08 4.81571e-08 -2.12264e-08 -3.33724e-08 1.31161e-08 -9.93411e-09 1.30385e-08 2.51845e-08 -9.95351e-09 -2.44084e-08 1.25729e-08 -1.03416e-08 5.08347e-09 1.95578e-08 -8.88637e-09 -1.05744e-08 1.23012e-08 -4.59841e-09 5.27749e-09 7.02372e-09 -1.26117e-09 -5.14168e-09 2.51884e-07 -5.6279e-07 -1.68123e-07 -1.68123e-07 2.78543e-07 -1.65581e-07 2.69075e-07 -5.84871e-07 -1.83024e-07 2.60964e-07 6.63567e-08 -5.9335e-07 2.81298e-07 -9.43818e-07 -1.05511e-07 5.55223e-07 -5.11219e-07 -1.23936e-06 6.08425e-07 -7.76665e-07 2.93211e-07 1.025e-06 -4.54757e-07 -1.22153e-06 5.26585e-07 -6.64188e-07 2.62711e-07 1.03311e-06 -4.1861e-07 -1.17968e-06 4.90691e-07 -5.91623e-07 2.43114e-07 1.00761e-06 -3.76701e-07 -1.1095e-06 4.49053e-07 -5.4397e-07 2.21461e-07 9.57283e-07 -3.5237e-07 -1.04644e-06 4.17233e-07 -5.05146e-07 2.05939e-07 9.02646e-07 -3.26952e-07 -9.81633e-07 3.9717e-07 -4.62829e-07 1.91697e-07 8.48707e-07 -3.05939e-07 -9.07807e-07 3.6504e-07 -4.28932e-07 1.77301e-07 7.81108e-07 -2.85761e-07 -8.42478e-07 3.38342e-07 -3.988e-07 1.70122e-07 7.28488e-07 -2.69579e-07 -7.68846e-07 3.16184e-07 -3.65137e-07 1.6791e-07 6.68496e-07 -2.46548e-07 -7.04293e-07 2.92241e-07 -3.30542e-07 1.5165e-07 6.1056e-07 -2.29823e-07 -6.44107e-07 2.60537e-07 -2.98528e-07 1.39815e-07 5.55068e-07 -2.0848e-07 -5.88848e-07 2.38807e-07 -2.71422e-07 1.25146e-07 5.06329e-07 -1.93851e-07 -5.27633e-07 2.22392e-07 -2.36905e-07 1.24681e-07 4.59103e-07 -1.72857e-07 -4.71967e-07 1.91736e-07 -2.16377e-07 1.11409e-07 4.10985e-07 -1.55123e-07 -4.19522e-07 1.72489e-07 -1.84926e-07 1.03881e-07 3.68649e-07 -1.41522e-07 -3.70569e-07 1.58674e-07 -1.64378e-07 9.18905e-08 3.21306e-07 -1.2699e-07 -3.19948e-07 1.31782e-07 -1.47615e-07 8.2422e-08 2.75633e-07 -1.12302e-07 -2.88012e-07 1.13971e-07 -1.21305e-07 7.26044e-08 2.48547e-07 -1.01068e-07 -2.43327e-07 9.90306e-08 -1.02504e-07 6.30971e-08 2.05512e-07 -8.35474e-08 -2.09043e-07 8.8398e-08 -8.89025e-08 5.52973e-08 1.80832e-07 -7.80759e-08 -1.71111e-07 7.25656e-08 -6.8588e-08 5.65778e-08 1.49671e-07 -6.32523e-08 -1.47304e-07 6.04972e-08 -5.68301e-08 3.74857e-08 1.21538e-07 -5.43854e-08 -1.16959e-07 4.85452e-08 -4.64109e-08 3.44201e-08 9.70128e-08 -4.59064e-08 -9.45874e-08 4.26856e-08 -4.12498e-08 2.81337e-08 7.68729e-08 -3.16456e-08 -6.76567e-08 2.728e-08 -2.85994e-08 2.2895e-08 5.89062e-08 -2.63875e-08 -5.38615e-08 2.69307e-08 -1.95384e-08 1.68802e-08 4.43154e-08 -2.16144e-08 -3.69231e-08 2.51457e-08 -1.44161e-08 1.6337e-08 3.1665e-08 -1.43191e-08 -2.07219e-08 1.61429e-08 -1.37952e-08 1.42415e-08 2.06443e-08 -6.34464e-09 -1.89369e-08 1.42027e-08 -1.32131e-08 2.56114e-09 1.5134e-08 -6.22822e-09 -5.82077e-09 3.60965e-07 -4.30096e-07 3.25691e-07 3.25691e-07 -1.06326e-08 -4.47714e-07 3.78932e-07 -4.93407e-07 1.31627e-07 5.69426e-07 -4.16379e-08 -7.13024e-07 3.6729e-07 -5.09239e-07 7.65237e-08 7.49327e-07 -1.22857e-07 -9.00026e-07 3.76293e-07 -7.18729e-07 8.10639e-08 8.60387e-07 -4.04504e-07 -1.22514e-06 5.55456e-07 -6.26547e-07 2.73072e-07 1.09745e-06 -3.63546e-07 -1.18517e-06 5.10171e-07 -5.53691e-07 2.41019e-07 1.06633e-06 -3.06871e-07 -1.10044e-06 4.80718e-07 -5.06465e-07 2.12342e-07 1.00905e-06 -2.79513e-07 -1.01958e-06 4.52351e-07 -4.69561e-07 1.91814e-07 9.34505e-07 -2.58811e-07 -9.4149e-07 4.24683e-07 -4.38343e-07 1.77223e-07 8.6225e-07 -2.33452e-07 -8.68361e-07 3.89642e-07 -4.053e-07 1.59761e-07 7.96591e-07 -2.17988e-07 -7.99948e-07 3.63138e-07 -3.71714e-07 1.5588e-07 7.3947e-07 -2.03882e-07 -7.33824e-07 3.32948e-07 -3.34519e-07 1.45209e-07 6.76451e-07 -1.86536e-07 -6.66264e-07 3.06289e-07 -3.09781e-07 1.33684e-07 6.14479e-07 -1.69443e-07 -6.0179e-07 2.79203e-07 -2.80328e-07 1.20335e-07 5.53555e-07 -1.59858e-07 -5.46648e-07 2.49788e-07 -2.52854e-07 1.14514e-07 5.02061e-07 -1.39388e-07 -4.91098e-07 2.24371e-07 -2.25458e-07 9.79441e-08 4.50294e-07 -1.27902e-07 -4.36131e-07 2.01476e-07 -1.95869e-07 9.42964e-08 4.02991e-07 -1.15639e-07 -3.89739e-07 1.83665e-07 -1.73342e-07 7.81535e-08 3.52661e-07 -1.04813e-07 -3.44201e-07 1.59023e-07 -1.5687e-07 7.48939e-08 3.14593e-07 -9.01831e-08 -3.00177e-07 1.40552e-07 -1.36904e-07 6.15837e-08 2.71752e-07 -8.76413e-08 -2.58636e-07 1.26815e-07 -1.15717e-07 5.99539e-08 2.31123e-07 -7.44282e-08 -2.23944e-07 1.06753e-07 -9.86426e-08 4.77303e-08 1.97363e-07 -6.27673e-08 -1.88767e-07 8.59145e-08 -8.39743e-08 4.34229e-08 1.69501e-07 -5.08929e-08 -1.61196e-07 7.37685e-08 -6.38538e-08 3.74469e-08 1.47809e-07 -4.78855e-08 -1.31802e-07 6.72105e-08 -6.03225e-08 2.72024e-08 1.11138e-07 -3.73305e-08 -9.76142e-08 5.66167e-08 -5.10481e-08 3.31008e-08 9.34039e-08 -3.69037e-08 -8.45175e-08 4.77303e-08 -3.80096e-08 2.14592e-08 6.90731e-08 -2.34965e-08 -6.19718e-08 3.12381e-08 -2.59412e-08 1.87041e-08 5.71987e-08 -2.1595e-08 -4.90691e-08 2.52621e-08 -2.37293e-08 1.23788e-08 3.98917e-08 -1.36982e-08 -3.43425e-08 2.03339e-08 -1.94026e-08 5.51033e-09 2.61546e-08 -1.05938e-08 -2.28368e-08 2.44472e-08 -9.21621e-09 1.26117e-08 2.48353e-08 -7.29536e-09 -1.57355e-08 2.40592e-08 -1.62787e-08 4.69542e-09 1.31549e-08 -4.63721e-09 -4.26856e-10 5.1312e-07 -3.33666e-07 8.25191e-07 8.25191e-07 -2.98508e-07 -7.3297e-07 4.90885e-07 -4.12634e-07 4.53826e-07 8.89801e-07 -1.65678e-07 -8.51306e-07 4.67563e-07 -4.20686e-07 2.60343e-07 9.48125e-07 -1.30191e-07 -9.40519e-07 4.59918e-07 -4.44183e-07 1.81841e-07 9.94536e-07 -1.49147e-07 -1.00237e-06 4.35316e-07 -5.79651e-07 1.5685e-07 1.01262e-06 -2.97984e-07 -1.17162e-06 5.37878e-07 -4.99771e-07 2.41057e-07 1.11844e-06 -2.31511e-07 -1.05078e-06 5.09589e-07 -4.6896e-07 2.15834e-07 1.03804e-06 -2.01437e-07 -9.65588e-07 4.88129e-07 -4.3939e-07 1.89641e-07 9.56274e-07 -1.7959e-07 -8.83651e-07 4.51303e-07 -4.09569e-07 1.73692e-07 8.79867e-07 -1.62826e-07 -8.06875e-07 4.24179e-07 -3.8223e-07 1.58364e-07 8.04158e-07 -1.52912e-07 -7.37472e-07 3.92979e-07 -3.4166e-07 1.45907e-07 7.31942e-07 -1.34945e-07 -6.67157e-07 3.5107e-07 -3.15447e-07 1.34188e-07 6.67603e-07 -1.28076e-07 -6.11122e-07 3.29223e-07 -2.84422e-07 1.13466e-07 5.9756e-07 -1.12147e-07 -5.45988e-07 2.96005e-07 -2.61178e-07 1.06636e-07 5.4137e-07 -1.02523e-07 -4.95192e-07 2.71869e-07 -2.27747e-07 9.06875e-08 4.84016e-07 -9.27054e-08 -4.42223e-07 2.35469e-07 -2.05783e-07 8.1646e-08 4.31668e-07 -7.95505e-08 -3.92688e-07 2.137e-07 -1.85624e-07 7.1479e-08 3.85063e-07 -7.85803e-08 -3.49964e-07 1.90106e-07 -1.65465e-07 6.34852e-08 3.35199e-07 -6.00509e-08 -3.02137e-07 1.67017e-07 -1.4028e-07 5.46764e-08 2.97014e-07 -5.6248e-08 -2.59567e-07 1.44898e-07 -1.29997e-07 4.64109e-08 2.49944e-07 -5.10287e-08 -2.26855e-07 1.31355e-07 -1.08577e-07 4.29573e-08 2.18938e-07 -4.17349e-08 -1.84771e-07 1.13156e-07 -9.01637e-08 4.00469e-08 1.83199e-07 -3.11799e-08 -1.60867e-07 8.85145e-08 -7.07029e-08 2.44472e-08 1.5425e-07 -2.82501e-08 -1.338e-07 7.82699e-08 -6.43389e-08 2.18085e-08 1.27397e-07 -2.80367e-08 -1.10498e-07 6.35628e-08 -5.74316e-08 2.19249e-08 1.04463e-07 -1.74041e-08 -8.93876e-08 5.44048e-08 -4.26274e-08 1.09818e-08 8.30041e-08 -1.91309e-08 -6.43583e-08 4.23752e-08 -3.74081e-08 1.31161e-08 5.82853e-08 -1.10789e-08 -4.97481e-08 3.95036e-08 -2.84247e-08 7.83863e-09 4.65273e-08 -1.59101e-08 -3.86693e-08 2.83665e-08 -2.0004e-08 8.76995e-09 3.15097e-08 -7.12074e-09 -2.81337e-08 2.73576e-08 -2.03727e-08 3.84171e-09 2.48353e-08 -5.52973e-09 -1.16609e-08 2.51845e-08 -2.24876e-08 1.24952e-08 1.86265e-08 -1.06326e-08 -1.45131e-08 1.56773e-08 -2.57278e-08 3.60887e-09 7.52819e-09 -6.38344e-09 -7.10133e-09 7.20921e-07 -3.05435e-07 1.35554e-06 1.35554e-06 -6.16303e-07 -1.03974e-06 6.28798e-07 -3.66961e-07 7.91159e-07 1.21704e-06 -3.29805e-07 -9.90791e-07 5.88868e-07 -3.85509e-07 4.8844e-07 1.15243e-06 -1.78465e-07 -9.72165e-07 5.58794e-07 -3.99052e-07 3.28912e-07 1.12562e-06 -1.21188e-07 -9.59903e-07 5.43272e-07 -4.13333e-07 2.38613e-07 1.0801e-06 -1.34615e-07 -9.8078e-07 5.4203e-07 -4.51109e-07 2.2538e-07 1.07389e-06 -1.55628e-07 -9.68013e-07 5.58134e-07 -4.33725e-07 2.20413e-07 1.0354e-06 -1.41057e-07 -8.82583e-07 5.28409e-07 -4.12227e-07 2.00816e-07 9.44516e-07 -1.14727e-07 -8.02431e-07 5.01052e-07 -3.79262e-07 1.8122e-07 8.70748e-07 -1.02465e-07 -7.29439e-07 4.57629e-07 -3.5561e-07 1.55958e-07 7.84484e-07 -9.05129e-08 -6.62869e-07 4.19328e-07 -3.21636e-07 1.34227e-07 7.07844e-07 -7.51461e-08 -5.96551e-07 3.81726e-07 -2.87138e-07 1.1855e-07 6.40983e-07 -7.07417e-08 -5.40264e-07 3.44822e-07 -2.68124e-07 1.06093e-07 5.7645e-07 -5.27555e-08 -4.78001e-07 3.12459e-07 -2.39505e-07 8.75443e-08 5.1343e-07 -5.0466e-08 -4.27458e-07 2.78815e-07 -2.16998e-07 7.58252e-08 4.5336e-07 -3.60305e-08 -3.7511e-07 2.52466e-07 -1.94879e-07 6.5115e-08 4.0466e-07 -4.1211e-08 -3.42979e-07 2.26699e-07 -1.70102e-07 5.16496e-08 3.53786e-07 -2.80367e-08 -2.88147e-07 1.98411e-07 -1.45034e-07 4.81183e-08 3.08501e-07 -1.85294e-08 -2.48159e-07 1.71014e-07 -1.28542e-07 3.56231e-08 2.65466e-07 -1.63564e-08 -2.18376e-07 1.47615e-07 -1.09256e-07 2.63487e-08 2.28523e-07 -1.09042e-08 -1.82462e-07 1.32713e-07 -9.4083e-08 2.21965e-08 1.93909e-07 -5.76256e-09 -1.51146e-07 1.11177e-07 -7.89878e-08 2.04503e-08 1.65853e-07 -5.93718e-09 -1.31122e-07 9.06487e-08 -7.08387e-08 6.17001e-09 1.31394e-07 -6.8103e-09 -1.03668e-07 8.15683e-08 -6.03225e-08 1.01669e-08 1.07024e-07 -3.86111e-09 -7.50103e-08 6.49986e-08 -4.0726e-08 1.02057e-08 8.13743e-08 8.92518e-10 -5.78196e-08 5.06407e-08 -3.71947e-08 3.64768e-09 6.23598e-08 6.20882e-09 -4.81183e-08 3.57395e-08 -2.858e-08 -7.68341e-09 4.66825e-08 6.98492e-10 -3.18784e-08 3.15486e-08 -3.10247e-08 -1.82384e-09 3.07336e-08 6.20882e-10 -2.40592e-08 2.26622e-08 -2.08966e-08 -8.26549e-09 1.63758e-08 -1.29997e-09 -1.32907e-08 1.94026e-08 -2.2701e-08 -2.91038e-10 1.17579e-08 8.53712e-10 -1.49594e-08 2.10712e-08 -1.64146e-08 -1.16415e-09 1.46295e-08 -3.7641e-09 -7.64461e-09 2.35547e-08 -1.94802e-08 5.66555e-09 9.50725e-09 -7.43118e-09 -1.22624e-08 9.28412e-07 -3.53301e-07 1.8805e-06 1.8805e-06 -9.84175e-07 -1.38406e-06 7.97251e-07 -3.69366e-07 1.15201e-06 1.55508e-06 -5.30737e-07 -1.16475e-06 7.24685e-07 -3.83278e-07 7.37607e-07 1.37552e-06 -2.8285e-07 -1.03198e-06 6.9174e-07 -3.86751e-07 4.9818e-07 1.25092e-06 -1.57297e-07 -9.45816e-07 6.67137e-07 -3.98024e-07 3.59491e-07 1.15104e-06 -9.36367e-08 -8.88559e-07 6.31243e-07 -3.96976e-07 2.75633e-07 1.07281e-06 -8.13743e-08 -8.25268e-07 6.04428e-07 -4.11218e-07 2.43774e-07 9.89647e-07 -7.48162e-08 -7.78935e-07 5.81611e-07 -3.90476e-07 2.08694e-07 9.14753e-07 -6.39702e-08 -7.06447e-07 5.39818e-07 -3.62808e-07 1.83199e-07 8.27286e-07 -4.39856e-08 -6.28895e-07 4.89255e-07 -3.31842e-07 1.546e-07 7.40828e-07 -3.09859e-08 -5.67059e-07 4.52351e-07 -3.02486e-07 1.25806e-07 6.62985e-07 -1.81026e-08 -4.98995e-07 4.08657e-07 -2.73518e-07 1.10439e-07 5.92166e-07 -1.09624e-08 -4.49868e-07 3.66398e-07 -2.41736e-07 9.12308e-08 5.30776e-07 -3.51186e-09 -3.97034e-07 3.33646e-07 -2.2181e-07 7.1479e-08 4.65545e-07 2.75516e-09 -3.47306e-07 2.95113e-07 -1.96975e-07 6.18165e-08 4.12265e-07 5.74316e-09 -3.06444e-07 2.57278e-07 -1.73071e-07 4.22976e-08 3.54756e-07 1.40086e-08 -2.63293e-07 2.32792e-07 -1.49827e-07 3.73693e-08 3.14942e-07 2.49905e-08 -2.18628e-07 2.04503e-07 -1.31899e-07 2.35935e-08 2.67406e-07 1.82384e-08 -1.93851e-07 1.79396e-07 -1.14029e-07 9.62367e-09 2.21888e-07 2.11876e-08 -1.53494e-07 1.50603e-07 -9.96709e-08 9.19681e-09 1.84014e-07 2.1498e-08 -1.3446e-07 1.28173e-07 -8.14131e-08 4.50139e-09 1.60537e-07 2.90262e-08 -1.08868e-07 1.10168e-07 -6.77925e-08 -1.19908e-08 1.25923e-07 2.29338e-08 -7.92982e-08 8.30817e-08 -6.1021e-08 -7.89684e-09 9.43352e-08 2.34383e-08 -6.27867e-08 7.2682e-08 -4.45677e-08 -1.494e-08 7.13238e-08 2.68143e-08 -4.55572e-08 5.86733e-08 -3.51574e-08 -1.61429e-08 5.62674e-08 1.95966e-08 -3.08695e-08 4.75363e-08 -2.83277e-08 -1.8122e-08 3.23635e-08 1.86265e-08 -1.78504e-08 3.1665e-08 -2.79979e-08 -1.73459e-08 1.91309e-08 1.54444e-08 -1.14669e-08 2.2507e-08 -1.41445e-08 -1.85488e-08 8.30429e-09 1.92085e-08 -2.71636e-09 1.52892e-08 -2.11488e-08 -1.68026e-08 5.16108e-09 9.77889e-09 -2.50293e-09 1.0555e-08 -9.23562e-09 -8.3625e-09 3.95812e-09 1.04386e-08 -1.5522e-09 1.0943e-08 -1.12341e-08 -8.28489e-09 3.72529e-09 1.09818e-08 1.08654e-09 2.15756e-08 -1.85294e-08 -6.34464e-09 3.53126e-09 -6.20882e-10 -4.67602e-09 9.16538e-07 -4.33783e-07 2.26071e-06 2.26071e-06 -1.37857e-06 -1.80715e-06 9.31284e-07 -4.28292e-07 1.47518e-06 1.90809e-06 -7.80701e-07 -1.41708e-06 9.15257e-07 -4.37877e-07 1.00086e-06 1.64223e-06 -4.50508e-07 -1.15705e-06 8.81303e-07 -4.33686e-07 7.07223e-07 1.41825e-06 -2.40844e-07 -9.60135e-07 8.46883e-07 -4.31086e-07 5.18203e-07 1.2411e-06 -1.24487e-07 -8.19253e-07 7.67449e-07 -4.24411e-07 3.90418e-07 1.0874e-06 -6.99656e-08 -7.28449e-07 7.00898e-07 -3.95249e-07 3.06793e-07 9.67178e-07 -3.57589e-08 -6.49966e-07 6.35822e-07 -3.82153e-07 2.36866e-07 8.52665e-07 -1.04774e-08 -5.83008e-07 5.88285e-07 -3.42979e-07 1.86847e-07 7.60813e-07 1.24952e-08 -5.11975e-07 5.33493e-07 -3.10344e-07 1.49982e-07 6.75675e-07 2.32831e-08 -4.49169e-07 4.79049e-07 -2.8774e-07 1.22236e-07 5.9562e-07 3.79514e-08 -3.95967e-07 4.29805e-07 -2.45423e-07 9.42188e-08 5.28875e-07 5.22317e-08 -3.40437e-07 3.85218e-07 -2.22858e-07 7.04313e-08 4.63721e-07 5.18436e-08 -2.99304e-07 3.39972e-07 -1.97576e-07 4.95153e-08 4.0109e-07 6.41448e-08 -2.50603e-07 3.09432e-07 -1.71538e-07 3.58171e-08 3.50953e-07 6.14673e-08 -2.15873e-07 2.69928e-07 -1.53959e-07 2.38263e-08 3.01399e-07 6.08076e-08 -1.77553e-07 2.39078e-07 -1.29454e-07 1.32325e-08 2.51845e-07 6.56971e-08 -1.45267e-07 2.04969e-07 -1.11215e-07 -1.14475e-09 2.09936e-07 6.95388e-08 -1.20761e-07 1.80715e-07 -9.71098e-08 -1.51728e-08 1.75205e-07 7.24879e-08 -8.66712e-08 1.47498e-07 -7.77654e-08 -1.90145e-08 1.40164e-07 6.3524e-08 -7.05477e-08 1.24254e-07 -6.43389e-08 -2.80561e-08 1.06054e-07 5.92942e-08 -5.04272e-08 9.44128e-08 -5.60152e-08 -3.43619e-08 7.53595e-08 6.60851e-08 -2.96277e-08 8.45563e-08 -3.78156e-08 -3.64574e-08 5.92942e-08 5.31242e-08 -1.71519e-08 6.85686e-08 -3.27709e-08 -3.33336e-08 3.69813e-08 5.47928e-08 -1.37758e-09 4.67214e-08 -2.71442e-08 -3.94842e-08 1.66862e-08 4.77303e-08 7.99385e-09 3.43425e-08 -1.51146e-08 -3.41873e-08 5.54913e-09 5.04854e-08 1.47847e-08 2.81725e-08 -1.09624e-08 -4.14439e-08 -5.76256e-09 3.8029e-08 1.62205e-08 1.08654e-08 -6.49986e-09 -3.54097e-08 -1.3543e-08 3.45365e-08 1.93249e-08 6.20882e-09 -4.46259e-10 -2.98799e-08 -1.46877e-08 3.16262e-08 2.05667e-08 5.51033e-09 -2.91038e-09 -2.86576e-08 -1.76369e-08 1.59877e-08 1.08654e-08 8.14907e-10 -3.29843e-09 -1.5134e-08 -1.00117e-08 1.59101e-08 9.70128e-09 5.51033e-09 -1.46295e-08 -1.74041e-08 -1.11371e-08 1.33102e-08 -1.64922e-09 6.99268e-08 -2.18178e-06 -1.38034e-06 -1.38034e-06 -1.42512e-07 -6.47366e-07 8.58175e-07 -1.20977e-06 6.17001e-08 5.67214e-07 -3.43794e-07 -9.47795e-07 5.82775e-07 -8.9894e-07 8.85533e-08 6.94689e-07 -4.1568e-07 -1.03615e-06 4.51303e-07 -7.56098e-07 1.32481e-07 7.55458e-07 -4.61179e-07 -1.08247e-06 3.99149e-07 -6.7876e-07 1.68647e-07 7.92633e-07 -4.75149e-07 -1.08542e-06 3.61702e-07 -6.26994e-07 1.85062e-07 7.98027e-07 -4.82639e-07 -1.06431e-06 3.50876e-07 -5.94669e-07 2.01515e-07 7.85765e-07 -4.71249e-07 -1.03326e-06 3.39894e-07 -5.45425e-07 2.08383e-07 7.72765e-07 -4.59472e-07 -9.88017e-07 3.24139e-07 -5.21929e-07 2.12652e-07 7.43273e-07 -4.32852e-07 -9.35067e-07 3.05823e-07 -4.77536e-07 2.05046e-07 7.09163e-07 -4.2055e-07 -8.75327e-07 2.88594e-07 -4.4525e-07 2.04775e-07 6.612e-07 -3.89797e-07 -8.14868e-07 2.70666e-07 -4.03922e-07 1.96315e-07 6.22744e-07 -3.66262e-07 -7.57922e-07 2.49594e-07 -3.68105e-07 1.93676e-07 5.86539e-07 -3.45152e-07 -6.95853e-07 2.31822e-07 -3.3254e-07 1.80715e-07 5.32367e-07 -3.18784e-07 -6.39101e-07 2.08849e-07 -3.0464e-07 1.70937e-07 4.92088e-07 -2.92552e-07 -5.76023e-07 1.93249e-07 -2.72625e-07 1.5491e-07 4.39119e-07 -2.75458e-07 -5.22569e-07 1.68026e-07 -2.3968e-07 1.5297e-07 4.00663e-07 -2.39466e-07 -4.64439e-07 1.46101e-07 -2.07549e-07 1.34072e-07 3.59491e-07 -2.19462e-07 -4.19076e-07 1.31782e-07 -1.71305e-07 1.25806e-07 3.2573e-07 -1.96858e-07 -3.65428e-07 1.10012e-07 -1.52426e-07 1.12651e-07 2.81492e-07 -1.72411e-07 -3.17911e-07 9.5965e-08 -1.25205e-07 1.01747e-07 2.4746e-07 -1.48915e-07 -2.77903e-07 8.57205e-08 -9.92829e-08 8.69234e-08 2.16028e-07 -1.26155e-07 -2.2767e-07 6.38732e-08 -8.15489e-08 7.50879e-08 1.76641e-07 -1.11914e-07 -1.90766e-07 5.65778e-08 -6.35046e-08 6.73269e-08 1.46256e-07 -9.07457e-08 -1.58364e-07 4.33065e-08 -5.16108e-08 5.5957e-08 1.23633e-07 -7.7358e-08 -1.33412e-07 2.79009e-08 -4.05319e-08 4.22976e-08 9.84098e-08 -5.12809e-08 -9.13278e-08 2.19249e-08 -2.18279e-08 3.74857e-08 7.75714e-08 -4.49363e-08 -7.99773e-08 1.29609e-08 -1.14863e-08 2.37099e-08 5.87897e-08 -2.94337e-08 -5.12615e-08 1.34654e-08 -7.12074e-09 1.64534e-08 3.82618e-08 -2.50487e-08 -3.87663e-08 7.76102e-09 -1.60847e-08 8.76995e-09 2.24682e-08 -1.61623e-08 -2.01981e-08 1.00505e-08 7.17894e-09 8.61473e-09 1.26117e-08 -1.59101e-09 -6.01479e-09 6.67448e-09 -5.80136e-09 4.69542e-09 9.1192e-09 5.43272e-09 -6.79089e-09 1.86885e-07 -8.16343e-07 -7.28915e-07 -7.28915e-07 6.37568e-07 1.59256e-07 1.70975e-07 -1.32776e-06 -5.40342e-07 -6.30389e-08 -5.34676e-07 -1.10494e-06 7.00199e-07 -9.77423e-07 2.55532e-07 8.2845e-07 -4.84753e-07 -1.13594e-06 5.62596e-07 -7.89451e-07 2.39117e-07 8.93332e-07 -4.71501e-07 -1.15131e-06 4.8258e-07 -6.85822e-07 2.25652e-07 9.08583e-07 -4.55979e-07 -1.13189e-06 4.41175e-07 -6.24219e-07 2.3027e-07 9.09165e-07 -4.48102e-07 -1.10044e-06 4.1017e-07 -5.75499e-07 2.2798e-07 8.83049e-07 -4.26565e-07 -1.05486e-06 3.832e-07 -5.38246e-07 2.17425e-07 8.4828e-07 -4.07163e-07 -9.99464e-07 3.60228e-07 -4.94707e-07 2.0687e-07 8.01481e-07 -3.83569e-07 -9.35708e-07 3.34112e-07 -4.59957e-07 2.01748e-07 7.55807e-07 -3.59491e-07 -8.75094e-07 3.14671e-07 -4.25944e-07 1.90067e-07 7.07378e-07 -3.42377e-07 -8.11298e-07 2.94531e-07 -3.90864e-07 1.81453e-07 6.51809e-07 -3.16727e-07 -7.44263e-07 2.71869e-07 -3.53204e-07 1.73536e-07 6.02255e-07 -2.97461e-07 -6.86152e-07 2.45636e-07 -3.24993e-07 1.68143e-07 5.57785e-07 -2.74061e-07 -6.20959e-07 2.25613e-07 -2.88574e-07 1.546e-07 5.02332e-07 -2.50778e-07 -5.6442e-07 1.99885e-07 -2.62827e-07 1.43113e-07 4.57435e-07 -2.24585e-07 -5.0532e-07 1.79202e-07 -2.2115e-07 1.35003e-07 4.16262e-07 -2.06152e-07 -4.52177e-07 1.63486e-07 -1.98779e-07 1.22663e-07 3.69075e-07 -1.86769e-07 -4.0206e-07 1.42298e-07 -1.75418e-07 1.13505e-07 3.29106e-07 -1.69404e-07 -3.54388e-07 1.23012e-07 -1.44762e-07 1.00272e-07 2.85489e-07 -1.47401e-07 -3.10712e-07 1.10284e-07 -1.23342e-07 9.00667e-08 2.53669e-07 -1.29124e-07 -2.58888e-07 9.46845e-08 -1.09372e-07 8.35862e-08 2.13428e-07 -1.10536e-07 -2.26816e-07 7.62132e-08 -8.64384e-08 6.67836e-08 1.83238e-07 -9.76725e-08 -1.87759e-07 6.78313e-08 -6.88015e-08 6.41837e-08 1.54289e-07 -7.95699e-08 -1.52873e-07 5.66943e-08 -5.26197e-08 5.64614e-08 1.29881e-07 -6.52508e-08 -1.24351e-07 4.13274e-08 -4.41602e-08 4.48199e-08 1.0392e-07 -5.85569e-08 -1.02931e-07 3.18202e-08 -3.19172e-08 3.72529e-08 8.16848e-08 -4.7478e-08 -8.0637e-08 2.85994e-08 -1.8025e-08 2.87934e-08 6.19718e-08 -2.8774e-08 -5.74122e-08 2.05279e-08 -1.84906e-08 1.91309e-08 4.78079e-08 -2.1498e-08 -3.89797e-08 1.5522e-08 -1.19908e-08 1.5134e-08 3.25963e-08 -1.29997e-08 -1.95384e-08 1.3543e-08 -5.19988e-09 1.17579e-08 1.8316e-08 -3.72529e-09 -1.6337e-08 1.10983e-08 -1.95966e-09 -1.76563e-09 1.08654e-08 0 -4.85064e-10 2.73615e-07 -6.12112e-07 -2.16222e-07 -2.16222e-07 3.04698e-07 -1.21324e-07 2.85877e-07 -6.40265e-07 -2.03048e-07 2.22819e-07 7.20223e-08 -5.59861e-07 2.92241e-07 -9.58215e-07 -1.22217e-07 5.10481e-07 -5.15177e-07 -1.20587e-06 6.14013e-07 -7.85532e-07 2.8188e-07 9.76104e-07 -4.62984e-07 -1.18559e-06 5.40439e-07 -6.81942e-07 2.6372e-07 9.89647e-07 -4.25789e-07 -1.15451e-06 4.89022e-07 -6.09473e-07 2.44162e-07 9.76065e-07 -3.99246e-07 -1.10787e-06 4.47229e-07 -5.51304e-07 2.32908e-07 9.44439e-07 -3.69696e-07 -1.05189e-06 4.21656e-07 -5.15584e-07 2.09974e-07 8.94691e-07 -3.50333e-07 -9.84195e-07 3.92281e-07 -4.76022e-07 2.00855e-07 8.3691e-07 -3.2315e-07 -9.17586e-07 3.62479e-07 -4.39177e-07 1.87467e-07 7.83786e-07 -3.0722e-07 -8.46048e-07 3.43852e-07 -4.07027e-07 1.8316e-07 7.23521e-07 -2.82831e-07 -7.82233e-07 3.13235e-07 -3.73189e-07 1.70005e-07 6.70669e-07 -2.60479e-07 -7.1933e-07 2.87507e-07 -3.37391e-07 1.57549e-07 6.17583e-07 -2.3935e-07 -6.5278e-07 2.63914e-07 -3.01477e-07 1.46218e-07 5.60579e-07 -2.24158e-07 -5.88945e-07 2.4098e-07 -2.76273e-07 1.45713e-07 5.11257e-07 -2.05473e-07 -5.36131e-07 2.1141e-07 -2.4843e-07 1.25729e-07 4.57085e-07 -1.91794e-07 -4.84133e-07 1.96858e-07 -2.16047e-07 1.1432e-07 4.07143e-07 -1.71945e-07 -4.30096e-07 1.74157e-07 -1.89932e-07 1.12341e-07 3.70899e-07 -1.49128e-07 -3.79145e-07 1.4808e-07 -1.67386e-07 9.62755e-08 3.26545e-07 -1.38651e-07 -3.37313e-07 1.33994e-07 -1.44025e-07 8.64578e-08 2.85334e-07 -1.21305e-07 -2.89059e-07 1.19248e-07 -1.23167e-07 7.94341e-08 2.47383e-07 -1.03028e-07 -2.50487e-07 9.52665e-08 -1.02601e-07 6.88791e-08 2.16494e-07 -9.15024e-08 -2.12691e-07 8.57981e-08 -9.06099e-08 6.13897e-08 1.82694e-07 -8.11803e-08 -1.83897e-07 7.07029e-08 -6.90149e-08 5.07571e-08 1.53513e-07 -6.54254e-08 -1.47537e-07 5.50256e-08 -6.2224e-08 4.78467e-08 1.29997e-07 -6.203e-08 -1.23264e-07 4.84288e-08 -4.32871e-08 4.0823e-08 1.02096e-07 -4.67602e-08 -9.49949e-08 3.60499e-08 -3.37022e-08 3.10053e-08 7.92788e-08 -3.91738e-08 -8.20534e-08 3.34112e-08 -2.92979e-08 2.28562e-08 6.57747e-08 -2.94531e-08 -5.40943e-08 2.57666e-08 -1.6822e-08 1.84712e-08 4.31513e-08 -1.5425e-08 -3.81066e-08 2.07995e-08 -1.51922e-08 1.1952e-08 3.46142e-08 -1.48236e-08 -2.52233e-08 2.3089e-08 -1.32713e-08 1.06714e-08 2.111e-08 -1.14475e-08 -1.13505e-08 2.07607e-08 -1.28445e-08 1.2146e-08 1.20684e-08 0 -7.64461e-09 3.55144e-07 -4.71036e-07 2.50099e-07 2.50099e-07 1.89757e-08 -4.0043e-07 3.76759e-07 -5.21987e-07 9.77113e-08 5.17621e-07 -3.24799e-08 -6.85104e-07 3.78311e-07 -5.41273e-07 4.51691e-08 6.98958e-07 -1.2633e-07 -8.788e-07 3.88556e-07 -7.45873e-07 6.36404e-08 8.17973e-07 -4.1473e-07 -1.18866e-06 5.71211e-07 -6.49248e-07 2.76331e-07 1.05371e-06 -3.73325e-07 -1.15026e-06 5.25693e-07 -5.83803e-07 2.48741e-07 1.02888e-06 -3.39797e-07 -1.09182e-06 4.85995e-07 -5.25867e-07 2.28523e-07 9.83516e-07 -3.12226e-07 -1.02729e-06 4.52933e-07 -4.91952e-07 2.03106e-07 9.20612e-07 -2.81027e-07 -9.49251e-07 4.23558e-07 -4.52603e-07 1.91852e-07 8.62211e-07 -2.61818e-07 -8.75404e-07 3.93523e-07 -4.21346e-07 1.81647e-07 7.97018e-07 -2.46859e-07 -8.06991e-07 3.6861e-07 -3.84772e-07 1.71519e-07 7.33184e-07 -2.24585e-07 -7.41372e-07 3.36013e-07 -3.51206e-07 1.50447e-07 6.68534e-07 -2.08403e-07 -6.73987e-07 3.09354e-07 -3.2152e-07 1.4451e-07 6.11142e-07 -1.9193e-07 -6.1411e-07 2.79048e-07 -2.90243e-07 1.31899e-07 5.54991e-07 -1.72896e-07 -5.54215e-07 2.51535e-07 -2.57103e-07 1.21072e-07 5.03186e-07 -1.62011e-07 -5.02837e-07 2.29881e-07 -2.30444e-07 1.11293e-07 4.52662e-07 -1.44995e-07 -4.45424e-07 2.01942e-07 -2.10537e-07 9.84098e-08 3.99305e-07 -1.28134e-07 -3.96569e-07 1.78193e-07 -1.8219e-07 9.13472e-08 3.6015e-07 -1.2049e-07 -3.47539e-07 1.65349e-07 -1.57161e-07 8.55653e-08 3.12924e-07 -1.05414e-07 -3.05862e-07 1.34964e-07 -1.455e-07 6.69e-08 2.67561e-07 -9.80217e-08 -2.73576e-07 1.1983e-07 -1.17153e-07 6.38732e-08 2.39622e-07 -7.74162e-08 -2.26893e-07 1.01475e-07 -1.00932e-07 5.51421e-08 2.04775e-07 -7.45834e-08 -1.94394e-07 9.11144e-08 -8.48862e-08 4.68766e-08 1.66784e-07 -6.05554e-08 -1.62322e-07 7.60968e-08 -7.19059e-08 4.96317e-08 1.51456e-07 -5.19988e-08 -1.35507e-07 6.15061e-08 -5.37839e-08 3.55455e-08 1.19132e-07 -4.65661e-08 -1.09954e-07 5.65778e-08 -4.13468e-08 3.35664e-08 9.6974e-08 -3.3741e-08 -8.78936e-08 3.70977e-08 -3.57589e-08 2.40592e-08 7.82311e-08 -3.06948e-08 -6.99656e-08 3.59335e-08 -2.75516e-08 2.44472e-08 6.3718e-08 -1.7016e-08 -4.71676e-08 2.8871e-08 -2.45248e-08 1.87041e-08 4.88944e-08 -1.72683e-08 -3.47112e-08 2.58442e-08 -1.95578e-08 1.14087e-08 2.8871e-08 -1.07102e-08 -1.96936e-08 2.41368e-08 -1.70742e-08 7.76102e-09 1.6725e-08 -4.61781e-09 -9.91471e-09 2.61158e-08 -1.47459e-08 9.81769e-09 1.5134e-08 -6.15061e-09 -3.29843e-09 4.63294e-07 -3.55979e-07 7.27984e-07 7.27984e-07 -2.50565e-07 -6.93952e-07 4.63605e-07 -4.41447e-07 3.80057e-07 8.24841e-07 -1.61701e-07 -8.36774e-07 4.49596e-07 -4.73481e-07 2.22741e-07 8.9958e-07 -1.39737e-07 -9.16984e-07 4.50294e-07 -4.90477e-07 1.66125e-07 9.45486e-07 -1.65504e-07 -9.86174e-07 4.63061e-07 -6.01809e-07 1.48779e-07 9.71835e-07 -3.07705e-07 -1.12696e-06 5.50722e-07 -5.46221e-07 2.41057e-07 1.06349e-06 -2.70181e-07 -1.06485e-06 5.21347e-07 -4.94144e-07 2.17658e-07 1.01518e-06 -2.37545e-07 -9.83477e-07 4.86383e-07 -4.61005e-07 2.0004e-07 9.48358e-07 -2.12051e-07 -9.07516e-07 4.56853e-07 -4.26623e-07 1.72916e-07 8.70437e-07 -1.95772e-07 -8.31031e-07 4.19095e-07 -3.90108e-07 1.63331e-07 8.00317e-07 -1.78989e-07 -7.66052e-07 3.8452e-07 -3.54038e-07 1.43889e-07 7.3233e-07 -1.57588e-07 -6.88053e-07 3.57046e-07 -3.31182e-07 1.34188e-07 6.65779e-07 -1.46198e-07 -6.25189e-07 3.13817e-07 -2.99149e-07 1.17774e-07 5.97637e-07 -1.34751e-07 -5.67486e-07 2.90805e-07 -2.69637e-07 1.10284e-07 5.43776e-07 -1.22915e-07 -5.11199e-07 2.59412e-07 -2.37293e-07 9.8565e-08 4.8747e-07 -1.0718e-07 -4.51905e-07 2.37254e-07 -2.18764e-07 8.63414e-08 4.31552e-07 -1.00428e-07 -3.99906e-07 2.13661e-07 -1.89932e-07 8.37802e-08 3.83627e-07 -8.65742e-08 -3.56735e-07 1.8933e-07 -1.61759e-07 7.20611e-08 3.42533e-07 -7.50491e-08 -3.11101e-07 1.61779e-07 -1.50816e-07 6.08852e-08 2.97247e-07 -7.11492e-08 -2.75419e-07 1.41212e-07 -1.31064e-07 5.07571e-08 2.55182e-07 -6.31165e-08 -2.38574e-07 1.25535e-07 -1.13078e-07 4.76527e-08 2.23246e-07 -5.71793e-08 -2.01864e-07 1.05822e-07 -9.51889e-08 4.1017e-08 1.85799e-07 -4.8875e-08 -1.67444e-07 8.98338e-08 -8.04624e-08 3.44201e-08 1.53086e-07 -3.62634e-08 -1.35061e-07 7.68729e-08 -6.00509e-08 3.23247e-08 1.31161e-07 -3.36246e-08 -1.14824e-07 6.90343e-08 -5.69659e-08 2.51845e-08 1.06442e-07 -3.10635e-08 -9.2783e-08 5.45212e-08 -4.46065e-08 1.93249e-08 8.10639e-08 -2.1595e-08 -7.10716e-08 4.00081e-08 -3.57783e-08 1.23012e-08 6.18165e-08 -2.27592e-08 -5.57241e-08 3.39545e-08 -2.36711e-08 1.36594e-08 4.66437e-08 -1.21654e-08 -4.09976e-08 2.64263e-08 -2.11682e-08 7.567e-09 3.63992e-08 -1.10012e-08 -2.51069e-08 2.62711e-08 -1.70742e-08 9.0804e-09 2.31666e-08 -2.65815e-09 -1.89563e-08 2.62323e-08 -1.95384e-08 1.03222e-08 2.66203e-08 -3.16262e-09 -1.49012e-08 2.57278e-08 -1.60265e-08 7.10133e-09 1.88205e-08 2.71636e-10 -7.48939e-09 6.48589e-07 -2.9032e-07 1.24522e-06 1.24522e-06 -5.53458e-07 -1.00837e-06 5.93718e-07 -3.75517e-07 7.00432e-07 1.15767e-06 -2.91077e-07 -9.86833e-07 5.5243e-07 -4.08928e-07 4.24334e-07 1.12286e-06 -1.81375e-07 -9.82526e-07 5.43543e-07 -4.17989e-07 2.85101e-07 1.08895e-06 -1.33625e-07 -9.78451e-07 5.2872e-07 -4.38769e-07 2.14398e-07 1.06175e-06 -1.24739e-07 -9.62405e-07 5.12577e-07 -5.00353e-07 1.86381e-07 1.02643e-06 -1.916e-07 -1.0101e-06 5.50839e-07 -4.62732e-07 2.18589e-07 1.03994e-06 -1.6011e-07 -9.16383e-07 5.22356e-07 -4.26041e-07 1.9193e-07 9.50454e-07 -1.40824e-07 -8.32796e-07 4.92088e-07 -4.03612e-07 1.70005e-07 8.63841e-07 -1.20684e-07 -7.5668e-07 4.5627e-07 -3.58346e-07 1.54328e-07 7.91818e-07 -1.03454e-07 -6.82834e-07 4.11683e-07 -3.33705e-07 1.37603e-07 7.18244e-07 -9.37725e-08 -6.16962e-07 3.75905e-07 -3.03223e-07 1.22896e-07 6.47114e-07 -8.10445e-08 -5.51595e-07 3.44279e-07 -2.74119e-07 1.08732e-07 5.80136e-07 -7.86192e-08 -4.99771e-07 3.06405e-07 -2.42823e-07 9.02219e-08 5.12033e-07 -6.27673e-08 -4.46123e-07 2.72412e-07 -2.18647e-07 7.89296e-08 4.62829e-07 -5.81495e-08 -3.97597e-07 2.4812e-07 -1.95694e-07 6.9694e-08 4.09627e-07 -4.51109e-08 -3.51186e-07 2.22353e-07 -1.7018e-07 5.59182e-08 3.62284e-07 -4.05319e-08 -3.01322e-07 1.89485e-07 -1.50564e-07 5.20765e-08 3.13157e-07 -3.35276e-08 -2.63914e-07 1.75438e-07 -1.24817e-07 4.88168e-08 2.79397e-07 -2.41174e-08 -2.18434e-07 1.47382e-07 -1.16241e-07 3.87275e-08 2.33219e-07 -2.5883e-08 -1.90358e-07 1.27048e-07 -9.60426e-08 2.60382e-08 1.9065e-07 -1.82384e-08 -1.60867e-07 1.13583e-07 -7.82311e-08 2.45636e-08 1.67289e-07 -1.34848e-08 -1.31219e-07 9.2977e-08 -7.1188e-08 1.64534e-08 1.34266e-07 -1.58131e-08 -1.09314e-07 7.47386e-08 -5.87121e-08 1.42803e-08 1.07762e-07 -1.42027e-08 -9.26472e-08 5.59182e-08 -4.5305e-08 6.8685e-09 8.53712e-08 -1.5328e-09 -6.62015e-08 5.42107e-08 -3.83588e-08 6.59687e-09 7.13238e-08 -3.20142e-09 -4.53438e-08 3.95036e-08 -3.16844e-08 4.15215e-09 4.63333e-08 -3.97752e-09 -3.57589e-08 3.34888e-08 -2.33413e-08 8.53712e-10 3.25963e-08 -3.0656e-09 -2.82307e-08 2.16921e-08 -1.9713e-08 -6.44165e-09 1.87429e-08 -8.73115e-10 -1.55997e-08 2.04891e-08 -1.80444e-08 1.04774e-09 1.57549e-08 -8.53712e-10 -1.3931e-08 1.82384e-08 -1.41833e-08 7.76102e-11 1.31549e-08 1.74623e-09 -1.28251e-08 1.99458e-08 -2.72994e-08 -2.71636e-09 1.18356e-08 -8.71175e-09 -9.04159e-09 8.71524e-07 -3.15544e-07 1.77867e-06 1.77867e-06 -9.08214e-07 -1.35488e-06 7.66207e-07 -3.69366e-07 1.05643e-06 1.50641e-06 -4.74451e-07 -1.15311e-06 7.12889e-07 -3.94978e-07 6.75364e-07 1.35787e-06 -2.66203e-07 -1.04205e-06 6.75946e-07 -4.04485e-07 4.605e-07 1.23994e-06 -1.45946e-07 -9.58855e-07 6.52042e-07 -4.06445e-07 3.39583e-07 1.15558e-06 -9.24532e-08 -8.94826e-07 6.15449e-07 -4.08676e-07 2.62866e-07 1.0678e-06 -8.28489e-08 -8.52626e-07 5.94455e-07 -4.17174e-07 2.29183e-07 1.00098e-06 -8.6419e-08 -8.04876e-07 5.75596e-07 -4.03593e-07 2.06288e-07 9.26705e-07 -7.45252e-08 -7.28449e-07 5.39081e-07 -3.69231e-07 1.79163e-07 8.34659e-07 -4.83706e-08 -6.50141e-07 4.9267e-07 -3.41563e-07 1.50098e-07 7.53246e-07 -4.06678e-08 -5.79283e-07 4.46065e-07 -3.07201e-07 1.36904e-07 6.76606e-07 -3.39933e-08 -5.18883e-07 4.07648e-07 -2.70666e-07 1.1498e-07 6.00703e-07 -1.84324e-08 -4.57706e-07 3.63759e-07 -2.45617e-07 9.84098e-08 5.38343e-07 -1.07102e-08 -4.08482e-07 3.23673e-07 -2.23983e-07 8.03654e-08 4.787e-07 -8.30429e-09 -3.63468e-07 2.92241e-07 -1.96296e-07 6.25926e-08 4.18164e-07 -3.24023e-09 -3.16844e-07 2.56114e-07 -1.74274e-07 5.38615e-08 3.67795e-07 3.8029e-09 -2.71616e-07 2.32132e-07 -1.53028e-07 4.08618e-08 3.16494e-07 1.31161e-08 -2.3252e-07 1.97052e-07 -1.27902e-07 3.01128e-08 2.75943e-07 9.23562e-09 -2.02213e-07 1.68957e-07 -1.12069e-07 2.20801e-08 2.33607e-07 1.43967e-08 -1.66959e-07 1.48624e-07 -9.45874e-08 1.29997e-08 1.94491e-07 1.38922e-08 -1.34984e-07 1.26078e-07 -8.3431e-08 7.95505e-09 1.56928e-07 1.75011e-08 -1.15814e-07 1.05123e-07 -6.94611e-08 -7.76102e-11 1.33257e-07 1.94802e-08 -8.85921e-08 8.30041e-08 -5.66167e-08 -5.58794e-09 1.02562e-07 1.97906e-08 -7.23909e-08 6.77537e-08 -4.36752e-08 -1.12341e-08 8.09863e-08 1.6725e-08 -4.81183e-08 5.24257e-08 -3.39933e-08 -1.49788e-08 4.99034e-08 1.49788e-08 -3.90379e-08 3.83006e-08 -2.94531e-08 -1.37952e-08 4.02021e-08 1.8122e-08 -2.23711e-08 3.32948e-08 -1.86459e-08 -1.09624e-08 2.94919e-08 1.66862e-08 -1.38728e-08 2.04503e-08 -2.16532e-08 -1.39892e-08 1.65698e-08 1.09818e-08 -2.03727e-09 2.28174e-08 -1.83548e-08 -8.94458e-09 4.07454e-09 9.77889e-09 -3.47306e-09 1.80444e-08 -1.0264e-08 -7.43118e-09 5.78196e-09 9.19681e-09 4.88944e-09 1.23788e-08 -1.78115e-08 -3.10441e-09 1.16415e-09 3.10441e-10 -2.56114e-09 1.16415e-08 -1.94026e-08 -4.40438e-09 -1.5522e-09 3.25963e-09 -1.04192e-08 9.05052e-07 -4.15544e-07 2.19078e-06 2.19078e-06 -1.31507e-06 -1.77762e-06 9.31982e-07 -4.48665e-07 1.40746e-06 1.87456e-06 -7.35997e-07 -1.39695e-06 9.13239e-07 -4.63469e-07 9.48824e-07 1.61484e-06 -4.25052e-07 -1.162e-06 8.80954e-07 -4.50469e-07 6.77382e-07 1.41887e-06 -2.35101e-07 -9.67838e-07 8.28295e-07 -4.41719e-07 5.09045e-07 1.24553e-06 -1.30036e-07 -8.41857e-07 7.65858e-07 -4.26196e-07 3.84015e-07 1.09881e-06 -7.45446e-08 -7.44786e-07 7.07262e-07 -4.04776e-07 3.03999e-07 9.76337e-07 -4.092e-08 -6.54312e-07 6.43932e-07 -3.82987e-07 2.4098e-07 8.55924e-07 -1.5328e-08 -5.90265e-07 5.85375e-07 -3.58947e-07 1.90029e-07 7.66478e-07 -4.07454e-10 -5.18009e-07 5.31591e-07 -3.24566e-07 1.56967e-07 6.75791e-07 1.68026e-08 -4.54175e-07 4.7998e-07 -2.85295e-07 1.28561e-07 6.00509e-07 2.28174e-08 -4.03204e-07 4.2674e-07 -2.58636e-07 9.94187e-08 5.26197e-07 3.31008e-08 -3.47442e-07 3.85218e-07 -2.24643e-07 7.50879e-08 4.56193e-07 3.99693e-08 -3.01244e-07 3.43037e-07 -1.94142e-07 6.74045e-08 4.09083e-07 4.8584e-08 -2.5559e-07 3.04969e-07 -1.77902e-07 4.69542e-08 3.51458e-07 5.12615e-08 -2.17522e-07 2.67134e-07 -1.53959e-07 2.8871e-08 2.97946e-07 4.78467e-08 -1.88224e-07 2.28407e-07 -1.37428e-07 1.49788e-08 2.51263e-07 5.3551e-08 -1.52892e-07 1.99031e-07 -1.13563e-07 6.51926e-09 2.13118e-07 5.30854e-08 -1.22178e-07 1.69578e-07 -9.83515e-08 6.59687e-10 1.7602e-07 4.82736e-08 -1.02756e-07 1.45248e-07 -8.12773e-08 -1.33878e-08 1.37719e-07 5.41719e-08 -7.27402e-08 1.18045e-07 -6.69388e-08 -1.6919e-08 1.10051e-07 5.11063e-08 -5.23287e-08 9.50725e-08 -4.99422e-08 -2.31084e-08 8.03266e-08 5.51809e-08 -3.63216e-08 8.14907e-08 -3.96394e-08 -3.36052e-08 5.78972e-08 4.88556e-08 -1.55997e-08 5.91002e-08 -3.55843e-08 -3.14515e-08 3.29843e-08 4.33453e-08 -1.06132e-08 4.88944e-08 -2.58636e-08 -3.10053e-08 2.29338e-08 4.14827e-08 5.08347e-09 2.91814e-08 -8.94458e-09 -3.67678e-08 -3.49246e-10 4.31125e-08 8.49832e-09 2.22353e-08 -7.02372e-09 -3.34694e-08 1.12535e-09 3.72141e-08 1.70354e-08 1.13699e-08 -5.3357e-09 -3.43813e-08 -1.42027e-08 2.91038e-08 1.84712e-08 9.66247e-09 -2.3089e-09 -2.44472e-08 -1.37952e-08 2.94531e-08 2.38651e-08 -3.88051e-09 -4.579e-09 -3.03456e-08 -2.47771e-08 2.09548e-08 1.08266e-08 3.88051e-11 -6.8103e-09 -2.34577e-08 -1.33296e-08 8.73115e-09 6.75209e-09 -1.00893e-09 -1.35818e-08 -1.09042e-08 -8.90577e-09 2.44472e-09 -4.46259e-09 2.3966e-07 -2.14829e-06 -1.22382e-06 -1.22382e-06 -4.31125e-08 -5.6475e-07 8.48939e-07 -1.14029e-06 2.35935e-08 5.44591e-07 -3.10635e-07 -9.29344e-07 5.57979e-07 -8.72727e-07 6.65896e-08 6.87277e-07 -4.1081e-07 -1.03511e-06 4.49751e-07 -7.61977e-07 1.17502e-07 7.44088e-07 -4.49286e-07 -1.06056e-06 4.05164e-07 -6.93311e-07 1.58519e-07 7.72183e-07 -4.72685e-07 -1.0646e-06 3.68299e-07 -6.53148e-07 1.77533e-07 7.71872e-07 -4.78719e-07 -1.05496e-06 3.54097e-07 -6.07242e-07 1.93832e-07 7.72454e-07 -4.74936e-07 -1.02463e-06 3.3741e-07 -5.73772e-07 2.06521e-07 7.58485e-07 -4.63352e-07 -9.79208e-07 3.29145e-07 -5.33609e-07 2.09625e-07 7.27596e-07 -4.4622e-07 -9.34602e-07 3.05125e-07 -4.97656e-07 2.0753e-07 6.97832e-07 -4.32696e-07 -8.80255e-07 2.89214e-07 -4.55009e-07 2.03339e-07 6.52624e-07 -4.01691e-07 -8.16033e-07 2.67057e-07 -4.21734e-07 1.97285e-07 6.13121e-07 -3.80853e-07 -7.5864e-07 2.49594e-07 -3.75614e-07 1.9519e-07 5.74238e-07 -3.57123e-07 -7.04196e-07 2.24099e-07 -3.39506e-07 1.8153e-07 5.29651e-07 -3.2703e-07 -6.4009e-07 2.09742e-07 -3.02544e-07 1.79978e-07 4.93911e-07 -3.0852e-07 -5.86403e-07 1.83742e-07 -2.76176e-07 1.63758e-07 4.42339e-07 -2.8093e-07 -5.27478e-07 1.65581e-07 -2.44123e-07 1.48973e-07 3.96123e-07 -2.60635e-07 -4.74334e-07 1.47265e-07 -2.17347e-07 1.42531e-07 3.56658e-07 -2.33995e-07 -4.19444e-07 1.27203e-07 -1.77495e-07 1.30114e-07 3.15912e-07 -2.06172e-07 -3.69619e-07 1.15445e-07 -1.48236e-07 1.18045e-07 2.81764e-07 -1.77262e-07 -3.18299e-07 9.5383e-08 -1.33645e-07 1.00234e-07 2.41445e-07 -1.57141e-07 -2.77088e-07 7.99385e-08 -1.02038e-07 9.18905e-08 2.12031e-07 -1.40746e-07 -2.35295e-07 5.98763e-08 -8.96592e-08 8.17236e-08 1.76369e-07 -1.16512e-07 -1.98255e-07 5.196e-08 -6.51926e-08 6.72493e-08 1.4905e-07 -9.72262e-08 -1.57762e-07 4.5208e-08 -4.6896e-08 6.53866e-08 1.26e-07 -7.83087e-08 -1.29978e-07 3.0462e-08 -3.81842e-08 4.61393e-08 9.78665e-08 -6.72105e-08 -1.0848e-07 2.32443e-08 -2.61352e-08 3.69425e-08 7.82699e-08 -5.10869e-08 -7.61356e-08 1.80832e-08 -1.99264e-08 3.10441e-08 5.61122e-08 -3.01904e-08 -5.21929e-08 1.16027e-08 -6.51926e-09 1.62593e-08 3.8223e-08 -2.12846e-08 -3.3741e-08 7.79983e-09 -1.43579e-09 1.5134e-08 2.76292e-08 -1.98488e-08 -3.07919e-08 -1.04774e-09 2.79397e-09 5.39391e-09 1.6337e-08 -1.90145e-09 -6.49986e-09 4.30737e-09 4.03573e-09 3.68649e-09 8.30429e-09 -1.80444e-09 -1.0652e-08 2.54329e-07 -8.69312e-07 -6.44126e-07 -6.44126e-07 6.00393e-07 1.67832e-07 2.39699e-07 -1.30393e-06 -5.06193e-07 -7.46222e-08 -4.81998e-07 -1.02665e-06 7.05322e-07 -9.42421e-07 2.25302e-07 7.72105e-07 -4.52429e-07 -1.09972e-06 5.59065e-07 -7.7909e-07 2.15136e-07 8.65315e-07 -4.47675e-07 -1.12215e-06 4.84171e-07 -6.87646e-07 2.10906e-07 8.88249e-07 -4.41641e-07 -1.10835e-06 4.40593e-07 -6.36462e-07 2.14631e-07 8.84097e-07 -4.46298e-07 -1.09079e-06 4.09045e-07 -5.93912e-07 2.12691e-07 8.59688e-07 -4.34229e-07 -1.0476e-06 3.85994e-07 -5.50004e-07 2.12109e-07 8.27674e-07 -4.1958e-07 -9.98727e-07 3.61392e-07 -5.12383e-07 2.09354e-07 7.90499e-07 -3.93329e-07 -9.33185e-07 3.42727e-07 -4.73189e-07 2.04115e-07 7.45757e-07 -3.75983e-07 -8.71621e-07 3.20918e-07 -4.41525e-07 1.99808e-07 6.97056e-07 -3.5594e-07 -8.11221e-07 2.93095e-07 -4.01982e-07 1.87506e-07 6.44087e-07 -3.32482e-07 -7.48551e-07 2.67872e-07 -3.61605e-07 1.85333e-07 6.02488e-07 -3.07453e-07 -6.86715e-07 2.51884e-07 -3.32948e-07 1.73342e-07 5.53594e-07 -2.90553e-07 -6.30234e-07 2.23362e-07 -2.9065e-07 1.6919e-07 5.09666e-07 -2.61003e-07 -5.66981e-07 2.04348e-07 -2.67716e-07 1.49322e-07 4.55999e-07 -2.47887e-07 -5.15409e-07 1.82578e-07 -2.30405e-07 1.41134e-07 4.09161e-07 -2.13894e-07 -4.54447e-07 1.57394e-07 -1.99788e-07 1.32985e-07 3.73965e-07 -1.95093e-07 -4.10189e-07 1.41755e-07 -1.77941e-07 1.16182e-07 3.31551e-07 -1.8089e-07 -3.62498e-07 1.14824e-07 -1.50215e-07 1.08693e-07 2.90495e-07 -1.52815e-07 -3.15272e-07 1.05084e-07 -1.31336e-07 9.22397e-08 2.54872e-07 -1.36128e-07 -2.71791e-07 9.23174e-08 -1.09062e-07 8.17236e-08 2.17541e-07 -1.21014e-07 -2.30425e-07 6.85298e-08 -8.5022e-08 7.97833e-08 1.89291e-07 -1.0685e-07 -2.0101e-07 6.30971e-08 -6.61045e-08 5.64614e-08 1.50719e-07 -8.13937e-08 -1.59974e-07 4.80407e-08 -5.85957e-08 5.25421e-08 1.31161e-07 -7.87356e-08 -1.34363e-07 4.18319e-08 -4.20453e-08 4.92437e-08 1.0489e-07 -5.77032e-08 -1.06229e-07 3.24799e-08 -2.91814e-08 3.77574e-08 8.63026e-08 -4.28408e-08 -8.11221e-08 2.26234e-08 -2.33995e-08 2.84829e-08 6.68224e-08 -3.6341e-08 -5.73345e-08 2.30502e-08 -1.94608e-08 2.468e-08 4.57124e-08 -2.4098e-08 -4.32289e-08 1.76951e-08 -4.83124e-09 1.58325e-08 3.49634e-08 -1.21654e-08 -2.69501e-08 1.07102e-08 1.35818e-09 1.56385e-08 3.03456e-08 -5.10287e-09 -1.27863e-08 1.22624e-08 -4.03573e-09 3.25963e-09 1.0943e-08 -3.41485e-09 -5.43272e-10 2.85179e-07 -6.07164e-07 -2.12633e-07 -2.12633e-07 2.94026e-07 -1.10245e-07 3.26817e-07 -6.79089e-07 -2.046e-07 1.99381e-07 6.9694e-08 -5.35743e-07 3.30231e-07 -9.59301e-07 -1.25049e-07 4.80679e-07 -4.80853e-07 -1.13821e-06 6.20261e-07 -7.78644e-07 2.66863e-07 9.27326e-07 -4.35723e-07 -1.13953e-06 5.4234e-07 -6.90556e-07 2.45015e-07 9.5185e-07 -4.18164e-07 -1.12711e-06 4.93174e-07 -6.27673e-07 2.34538e-07 9.4634e-07 -4.02467e-07 -1.09021e-06 4.57241e-07 -5.76023e-07 2.20335e-07 9.10601e-07 -3.80445e-07 -1.0365e-06 4.26235e-07 -5.3487e-07 2.19365e-07 8.77578e-07 -3.61664e-07 -9.82293e-07 3.94182e-07 -4.93582e-07 2.01864e-07 8.24415e-07 -3.42106e-07 -9.17217e-07 3.70938e-07 -4.58521e-07 1.99109e-07 7.75869e-07 -3.20472e-07 -8.50666e-07 3.43658e-07 -4.18358e-07 1.87739e-07 7.19292e-07 -2.97732e-07 -7.85784e-07 3.16921e-07 -3.88459e-07 1.77533e-07 6.66749e-07 -2.83316e-07 -7.25966e-07 2.8937e-07 -3.49362e-07 1.68492e-07 6.12151e-07 -2.67154e-07 -6.6477e-07 2.63525e-07 -3.19793e-07 1.60537e-07 5.58949e-07 -2.41601e-07 -5.9789e-07 2.39156e-07 -2.79707e-07 1.5231e-07 5.09239e-07 -2.25749e-07 -5.47792e-07 2.13971e-07 -2.56405e-07 1.32636e-07 4.55223e-07 -2.01554e-07 -4.91098e-07 1.89058e-07 -2.22586e-07 1.29066e-07 4.19056e-07 -1.81278e-07 -4.33763e-07 1.73032e-07 -1.93036e-07 1.2115e-07 3.74004e-07 -1.68744e-07 -3.87508e-07 1.55143e-07 -1.70219e-07 1.09392e-07 3.28446e-07 -1.44743e-07 -3.38613e-07 1.29997e-07 -1.43967e-07 9.7362e-08 2.91504e-07 -1.37855e-07 -2.99187e-07 1.14747e-07 -1.30288e-07 8.40907e-08 2.45598e-07 -1.17521e-07 -2.55648e-07 1.02678e-07 -1.10963e-07 7.69117e-08 2.15174e-07 -1.00369e-07 -2.1628e-07 8.41295e-08 -8.37996e-08 7.26044e-08 1.88593e-07 -9.50531e-08 -1.89078e-07 6.68224e-08 -8.37026e-08 5.85569e-08 1.5262e-07 -7.70669e-08 -1.55667e-07 6.47657e-08 -6.07688e-08 5.26973e-08 1.31316e-07 -6.52314e-08 -1.27417e-07 4.78467e-08 -4.1017e-08 3.84559e-08 1.00699e-07 -4.84676e-08 -9.74978e-08 4.02021e-08 -3.39739e-08 3.84559e-08 8.75055e-08 -3.92514e-08 -7.27984e-08 3.03456e-08 -2.30114e-08 3.42261e-08 6.77537e-08 -2.88516e-08 -6.47075e-08 2.61546e-08 -1.73459e-08 1.92861e-08 5.51421e-08 -1.89563e-08 -3.38381e-08 1.9713e-08 -1.4843e-08 2.2507e-08 3.73693e-08 -1.29803e-08 -3.01128e-08 1.29997e-08 -5.68495e-09 6.71328e-09 2.38651e-08 -1.06132e-08 -2.13428e-08 1.26505e-08 -7.15954e-09 6.32523e-09 1.70742e-08 1.82384e-09 -1.22624e-08 3.51225e-07 -4.68416e-07 1.9713e-07 1.9713e-07 3.09665e-08 -3.68998e-07 3.962e-07 -5.58444e-07 6.52314e-08 4.65622e-07 -2.46995e-08 -6.42011e-07 4.00779e-07 -5.84618e-07 3.88051e-08 6.56815e-07 -1.27882e-07 -8.38016e-07 4.17388e-07 -7.64267e-07 6.25538e-08 7.73851e-07 -4.11994e-07 -1.14516e-06 5.85181e-07 -6.68515e-07 2.57045e-07 9.93294e-07 -3.7216e-07 -1.11563e-06 5.35394e-07 -6.06737e-07 2.46451e-07 9.92751e-07 -3.49052e-07 -1.07519e-06 4.98102e-07 -5.60617e-07 2.26661e-07 9.55304e-07 -3.24663e-07 -1.00936e-06 4.59491e-07 -5.13527e-07 2.14941e-07 9.01753e-07 -3.07472e-07 -9.51365e-07 4.2934e-07 -4.761e-07 2.02951e-07 8.48707e-07 -2.84597e-07 -8.84e-07 4.03728e-07 -4.3745e-07 1.88127e-07 7.89063e-07 -2.66339e-07 -8.13433e-07 3.67484e-07 -4.03107e-07 1.75516e-07 7.23909e-07 -2.47809e-07 -7.49462e-07 3.36634e-07 -3.67387e-07 1.64766e-07 6.67448e-07 -2.28601e-07 -6.82271e-07 3.09704e-07 -3.30891e-07 1.58208e-07 6.1281e-07 -2.1046e-07 -6.22221e-07 2.79048e-07 -2.99944e-07 1.43889e-07 5.56388e-07 -1.97382e-07 -5.65565e-07 2.5235e-07 -2.64903e-07 1.37409e-07 5.0629e-07 -1.78348e-07 -5.07396e-07 2.25846e-07 -2.44201e-07 1.21964e-07 4.51575e-07 -1.63117e-07 -4.56853e-07 2.07763e-07 -2.10304e-07 1.12069e-07 4.06251e-07 -1.50506e-07 -4.01749e-07 1.82035e-07 -1.85508e-07 1.0749e-07 3.59025e-07 -1.33839e-07 -3.60073e-07 1.50719e-07 -1.66998e-07 8.63026e-08 3.12769e-07 -1.21363e-07 -3.19172e-07 1.39582e-07 -1.37448e-07 8.65354e-08 2.84558e-07 -1.04948e-07 -2.73343e-07 1.18356e-07 -1.20839e-07 7.28372e-08 2.41407e-07 -9.02413e-08 -2.38263e-07 1.02989e-07 -1.00796e-07 6.87627e-08 2.16882e-07 -7.51073e-08 -2.02621e-07 8.43623e-08 -8.18982e-08 5.53749e-08 1.82966e-07 -7.03731e-08 -1.67211e-07 7.8852e-08 -7.35939e-08 5.09123e-08 1.47809e-07 -6.53284e-08 -1.44491e-07 6.10792e-08 -5.67525e-08 4.37334e-08 1.22973e-07 -4.46841e-08 -1.11856e-07 5.28526e-08 -4.8681e-08 3.20918e-08 9.92247e-08 -3.93096e-08 -8.54877e-08 4.07842e-08 -3.50216e-08 3.2053e-08 7.82699e-08 -3.32754e-08 -7.31476e-08 3.55843e-08 -2.27398e-08 2.65039e-08 6.64343e-08 -2.66203e-08 -5.57435e-08 3.35664e-08 -2.42144e-08 1.85876e-08 4.77303e-08 -1.73847e-08 -3.98917e-08 1.8316e-08 -1.00699e-08 1.26117e-08 3.51186e-08 -1.28833e-08 -3.01128e-08 1.72683e-08 -1.76369e-08 5.47152e-09 2.2701e-08 -1.13893e-08 -1.65892e-08 2.2507e-08 -1.29609e-08 1.32713e-08 1.83936e-08 -6.67448e-09 -7.39237e-09 4.42999e-07 -3.81047e-07 6.13664e-07 6.13664e-07 -2.25322e-07 -6.38751e-07 4.78739e-07 -4.7511e-07 3.36518e-07 7.50956e-07 -1.42201e-07 -7.84969e-07 4.74742e-07 -5.14304e-07 1.96354e-07 8.4048e-07 -1.50894e-07 -8.9601e-07 4.73539e-07 -5.38576e-07 1.51573e-07 8.98105e-07 -1.83277e-07 -9.60407e-07 4.8258e-07 -6.44436e-07 1.50835e-07 9.29538e-07 -3.17465e-07 -1.08941e-06 5.72337e-07 -5.78157e-07 2.45403e-07 1.02011e-06 -2.9034e-07 -1.03532e-06 5.33881e-07 -5.35433e-07 2.31317e-07 9.78704e-07 -2.65194e-07 -9.7362e-07 5.0175e-07 -4.89313e-07 2.14282e-07 9.24765e-07 -2.45792e-07 -9.0606e-07 4.68261e-07 -4.5173e-07 1.98527e-07 8.60464e-07 -2.2635e-07 -8.27519e-07 4.29223e-07 -4.13158e-07 1.8153e-07 7.84096e-07 -1.98488e-07 -7.60076e-07 3.87353e-07 -3.83996e-07 1.65232e-07 7.28023e-07 -1.92823e-07 -6.98104e-07 3.60228e-07 -3.50294e-07 1.48818e-07 6.55108e-07 -1.79144e-07 -6.35958e-07 3.25769e-07 -3.12284e-07 1.37913e-07 5.95503e-07 -1.61371e-07 -5.70493e-07 2.97247e-07 -2.81182e-07 1.29881e-07 5.39663e-07 -1.46528e-07 -5.157e-07 2.61352e-07 -2.49148e-07 1.15329e-07 4.84986e-07 -1.34576e-07 -4.63023e-07 2.39428e-07 -2.24061e-07 1.05123e-07 4.33996e-07 -1.20567e-07 -4.10616e-07 2.07801e-07 -2.05279e-07 9.52665e-08 3.85645e-07 -1.09838e-07 -3.65525e-07 1.81918e-07 -1.74933e-07 8.48668e-08 3.40825e-07 -1.00622e-07 -3.22179e-07 1.68298e-07 -1.49924e-07 7.63685e-08 2.98101e-07 -8.56623e-08 -2.79591e-07 1.43851e-07 -1.29822e-07 6.67448e-08 2.60848e-07 -7.69311e-08 -2.42338e-07 1.23749e-07 -1.12457e-07 6.13509e-08 2.26855e-07 -6.6997e-08 -2.12497e-07 1.05045e-07 -9.42576e-08 4.63333e-08 1.91891e-07 -6.00897e-08 -1.75904e-07 8.76607e-08 -7.94341e-08 4.85064e-08 1.6434e-07 -5.0466e-08 -1.45888e-07 7.65237e-08 -6.62209e-08 4.07454e-08 1.36206e-07 -3.83006e-08 -1.14611e-07 6.63567e-08 -5.24645e-08 3.42261e-08 1.10595e-07 -3.51574e-08 -9.70904e-08 4.79631e-08 -4.61975e-08 2.50681e-08 8.70011e-08 -2.54756e-08 -7.76878e-08 3.77186e-08 -3.45559e-08 1.85876e-08 7.08581e-08 -2.58054e-08 -5.98763e-08 3.06948e-08 -2.7668e-08 1.90921e-08 5.31242e-08 -1.86265e-08 -3.96394e-08 2.59606e-08 -2.34771e-08 1.5134e-08 3.61276e-08 -8.55653e-09 -3.16456e-08 2.26234e-08 -1.78309e-08 8.3431e-09 3.14321e-08 -1.21266e-08 -1.75981e-08 2.42144e-08 -1.94608e-08 1.24952e-08 1.79668e-08 -7.70281e-09 -2.19249e-08 2.37099e-08 -1.8316e-08 6.98492e-10 1.494e-08 -9.0804e-09 -1.11177e-08 5.73151e-07 -3.27884e-07 1.06935e-06 1.06935e-06 -4.96085e-07 -9.57846e-07 5.63799e-07 -4.26623e-07 6.05282e-07 1.069e-06 -2.82327e-07 -9.65413e-07 5.5534e-07 -4.66302e-07 3.70472e-07 1.05565e-06 -1.86614e-07 -9.73135e-07 5.3683e-07 -4.79651e-07 2.53591e-07 1.04203e-06 -1.57083e-07 -9.67489e-07 5.36869e-07 -4.92689e-07 2.10867e-07 1.02306e-06 -1.61216e-07 -9.61455e-07 5.30932e-07 -5.50373e-07 1.85062e-07 9.87086e-07 -2.24759e-07 -9.9409e-07 5.71754e-07 -4.98258e-07 2.27282e-07 9.98805e-07 -1.97111e-07 -9.2913e-07 5.29418e-07 -4.61761e-07 1.98411e-07 9.32409e-07 -1.75593e-07 -8.4566e-07 4.92825e-07 -4.29708e-07 1.80638e-07 8.52315e-07 -1.61119e-07 -7.73483e-07 4.5239e-07 -3.92921e-07 1.6822e-07 7.81845e-07 -1.46276e-07 -6.96843e-07 4.18435e-07 -3.53883e-07 1.54716e-07 7.06331e-07 -1.32752e-07 -6.32756e-07 3.78039e-07 -3.25788e-07 1.35236e-07 6.36055e-07 -1.15154e-07 -5.71735e-07 3.42377e-07 -2.89603e-07 1.22158e-07 5.79438e-07 -1.02465e-07 -5.11413e-07 3.01322e-07 -2.57123e-07 1.01398e-07 5.10908e-07 -9.03189e-08 -4.53185e-07 2.76564e-07 -2.27029e-07 9.82545e-08 4.61548e-07 -8.14713e-08 -4.04679e-07 2.43735e-07 -2.1108e-07 8.39354e-08 4.07415e-07 -7.71834e-08 -3.61353e-07 2.1304e-07 -1.76408e-07 7.22163e-08 3.56697e-07 -6.42225e-08 -3.19288e-07 1.86847e-07 -1.59373e-07 5.94494e-08 3.14748e-07 -6.25732e-08 -2.76777e-07 1.6725e-07 -1.38185e-07 5.21153e-08 2.66475e-07 -4.64303e-08 -2.36886e-07 1.47847e-07 -1.15154e-07 4.65273e-08 2.37138e-07 -3.82424e-08 -2.01534e-07 1.19908e-07 -9.86232e-08 3.74081e-08 2.00816e-07 -3.6341e-08 -1.66746e-07 1.06753e-07 -8.50026e-08 3.36052e-08 1.64029e-07 -2.63681e-08 -1.38709e-07 8.68458e-08 -6.5406e-08 2.80561e-08 1.40474e-07 -2.63293e-08 -1.18608e-07 7.03149e-08 -5.92166e-08 1.98682e-08 1.12186e-07 -2.34577e-08 -9.61785e-08 6.04972e-08 -4.7381e-08 1.35042e-08 8.63026e-08 -1.52892e-08 -7.01402e-08 5.05631e-08 -3.86305e-08 1.66474e-08 7.1479e-08 -1.57549e-08 -5.91196e-08 3.43425e-08 -3.02874e-08 9.46845e-09 5.28138e-08 -1.12147e-08 -4.36169e-08 2.97635e-08 -2.11682e-08 5.54913e-09 3.79514e-08 -9.58486e-09 -2.61934e-08 2.0101e-08 -2.00428e-08 4.579e-09 2.12264e-08 -9.21621e-09 -1.83354e-08 1.6919e-08 -1.84324e-08 7.10133e-09 1.62593e-08 -4.09394e-09 -1.68996e-08 1.78504e-08 -1.81026e-08 2.2507e-09 1.49788e-08 -6.40284e-09 -9.50725e-09 2.52621e-08 -2.38845e-08 7.64461e-09 1.07102e-08 -8.73115e-10 -1.38922e-08 7.76839e-07 -3.1438e-07 1.58635e-06 1.58635e-06 -8.06273e-07 -1.30934e-06 7.16653e-07 -3.97655e-07 9.24105e-07 1.43059e-06 -4.36693e-07 -1.15333e-06 6.9011e-07 -4.35975e-07 5.82969e-07 1.30308e-06 -2.49788e-07 -1.05843e-06 6.57591e-07 -4.4785e-07 4.06988e-07 1.2186e-06 -1.64126e-07 -9.83709e-07 6.38849e-07 -4.4426e-07 3.10984e-07 1.13299e-06 -1.1853e-07 -9.20845e-07 6.10909e-07 -4.44105e-07 2.42998e-07 1.04723e-06 -9.90888e-08 -8.63841e-07 5.82542e-07 -4.65467e-07 2.1238e-07 9.7882e-07 -1.2243e-07 -8.34232e-07 5.76217e-07 -4.26371e-07 2.13816e-07 9.27442e-07 -9.68381e-08 -7.53013e-07 5.32639e-07 -3.89293e-07 1.85333e-07 8.42925e-07 -7.84639e-08 -6.70455e-07 4.85568e-07 -3.53068e-07 1.63719e-07 7.56855e-07 -7.01596e-08 -6.08581e-07 4.37101e-07 -3.22917e-07 1.38069e-07 6.77343e-07 -6.02449e-08 -5.4624e-07 3.95385e-07 -2.86091e-07 1.17929e-07 6.04661e-07 -4.41602e-08 -4.75634e-07 3.59335e-07 -2.55726e-07 1.08771e-07 5.40827e-07 -3.62634e-08 -4.24353e-07 3.18163e-07 -2.3122e-07 9.37531e-08 4.8227e-07 -3.1956e-08 -3.84287e-07 2.86809e-07 -2.06695e-07 7.37297e-08 4.26429e-07 -2.89292e-08 -3.27476e-07 2.54251e-07 -1.76854e-07 6.79865e-08 3.66825e-07 -1.74817e-08 -2.8774e-07 2.2018e-07 -1.56637e-07 5.23481e-08 3.2282e-07 -1.61429e-08 -2.49303e-07 1.96393e-07 -1.32849e-07 4.55572e-08 2.78854e-07 -5.74316e-09 -2.07452e-07 1.66707e-07 -1.17871e-07 3.52738e-08 2.37099e-07 -2.96859e-09 -1.7893e-07 1.40669e-07 -9.95351e-08 2.23517e-08 1.98411e-07 1.59101e-09 -1.48352e-07 1.20994e-07 -8.22086e-08 1.26117e-08 1.62632e-07 1.5522e-10 -1.19345e-07 1.01863e-07 -6.8394e-08 1.85488e-08 1.38107e-07 4.61781e-09 -1.00796e-07 7.89684e-08 -5.43272e-08 -5.43272e-10 1.0489e-07 4.38498e-09 -8.02102e-08 6.60851e-08 -3.94066e-08 8.92518e-10 8.54877e-08 1.0943e-08 -5.85957e-08 4.68766e-08 -4.00663e-08 -7.00432e-09 6.2515e-08 6.8685e-09 -3.70783e-08 4.31513e-08 -2.85412e-08 -5.56853e-09 3.84171e-08 5.3551e-09 -2.65621e-08 2.7086e-08 -2.02951e-08 -2.63875e-09 2.92202e-08 4.579e-09 -2.10906e-08 2.51845e-08 -1.79862e-08 -4.05513e-09 2.16144e-08 6.24762e-09 -1.29997e-08 1.62205e-08 -1.36788e-08 -9.99232e-09 9.23562e-09 1.82384e-09 -6.18941e-09 1.31161e-08 -9.66247e-09 -3.35664e-09 4.69542e-09 1.16415e-10 -2.92979e-09 1.21848e-08 -1.74429e-08 -4.22976e-09 -1.16415e-09 -1.86265e-09 -6.77149e-09 1.16415e-08 -1.92861e-08 -2.96859e-09 1.97906e-09 -1.64922e-09 -6.22822e-09 8.70243e-07 -4.02681e-07 2.06377e-06 2.06377e-06 -1.20418e-06 -1.72343e-06 9.28956e-07 -4.71404e-07 1.29043e-06 1.8146e-06 -6.755e-07 -1.38641e-06 9.19409e-07 -4.97947e-07 8.70864e-07 1.58709e-06 -3.89467e-07 -1.15387e-06 8.79983e-07 -4.78564e-07 6.3101e-07 1.40009e-06 -2.27844e-07 -9.86193e-07 8.25734e-07 -4.60054e-07 4.84016e-07 1.24603e-06 -1.32752e-07 -8.59436e-07 7.68923e-07 -4.46356e-07 3.73344e-07 1.10292e-06 -7.95893e-08 -7.54818e-07 7.07728e-07 -4.19522e-07 3.00546e-07 9.77928e-07 -5.05825e-08 -6.7259e-07 6.36753e-07 -3.92921e-07 2.48896e-07 8.72494e-07 -3.23053e-08 -6.01731e-07 5.90536e-07 -3.61664e-07 2.09004e-07 7.79827e-07 -1.60847e-08 -5.34579e-07 5.24141e-07 -3.24508e-07 1.7179e-07 6.91468e-07 -4.09394e-09 -4.75964e-07 4.75479e-07 -2.90689e-07 1.37564e-07 6.10366e-07 7.10133e-09 -4.10151e-07 4.28331e-07 -2.60421e-07 1.19675e-07 5.37722e-07 1.59877e-08 -3.56464e-07 3.73383e-07 -2.28795e-07 9.70516e-08 4.70085e-07 2.08771e-08 -3.07492e-07 3.42766e-07 -1.98294e-07 8.01326e-08 4.08967e-07 2.54173e-08 -2.6046e-07 3.03572e-07 -1.83665e-07 6.12733e-08 3.47539e-07 2.87934e-08 -2.25826e-07 2.56773e-07 -1.51747e-07 4.7187e-08 3.0202e-07 3.39933e-08 -1.9519e-07 2.23401e-07 -1.2862e-07 3.37992e-08 2.63176e-07 3.88051e-08 -1.65407e-07 1.94414e-07 -1.10789e-07 1.50564e-08 2.19365e-07 3.97364e-08 -1.32287e-07 1.65814e-07 -9.42964e-08 8.73115e-09 1.80793e-07 3.69037e-08 -1.08635e-07 1.34033e-07 -7.5767e-08 2.87158e-09 1.48468e-07 4.23752e-08 -8.49832e-08 1.14397e-07 -6.83552e-08 -1.0458e-08 1.16959e-07 3.98917e-08 -6.25926e-08 9.45681e-08 -4.11722e-08 -1.58713e-08 8.66518e-08 4.20647e-08 -3.57589e-08 6.77149e-08 -4.33259e-08 -1.6628e-08 6.11569e-08 3.60887e-08 -2.98217e-08 5.84017e-08 -2.76486e-08 -2.96859e-08 3.62052e-08 3.74857e-08 -1.02057e-08 4.11722e-08 -1.93249e-08 -2.13234e-08 2.63487e-08 3.44977e-08 -7.6252e-09 2.67367e-08 -1.41639e-08 -3.23441e-08 9.77889e-09 3.45365e-08 1.80832e-08 2.45248e-08 -7.70281e-09 -2.15756e-08 -5.19988e-09 2.20025e-08 1.63758e-08 5.23869e-09 -4.32677e-09 -2.24488e-08 -1.68414e-08 2.49129e-08 1.40863e-08 4.03573e-09 -7.21775e-09 -2.48741e-08 -1.40474e-08 1.89369e-08 1.55608e-08 -7.21775e-09 1.94026e-10 -1.77727e-08 -1.43773e-08 1.66862e-08 1.29609e-08 1.16415e-09 -5.45212e-09 -1.35236e-08 -9.83709e-09 1.09818e-08 7.68341e-09 7.76102e-09 -4.46259e-09 -5.25809e-09 -1.99846e-09 1.01669e-08 3.10441e-09 4.10121e-07 -1.43846e-06 -6.41691e-07 -6.41691e-07 1.07286e-07 -5.16777e-07 7.6577e-07 -1.06639e-06 -5.61025e-08 5.67088e-07 -2.28611e-07 -9.19749e-07 5.54632e-07 -8.8725e-07 -1.40572e-08 6.79041e-07 -3.47277e-07 -1.00479e-06 4.70813e-07 -7.99919e-07 5.52488e-08 7.14548e-07 -4.07502e-07 -1.03411e-06 4.24945e-07 -7.4078e-07 1.02513e-07 7.30923e-07 -4.41282e-07 -1.03917e-06 3.97626e-07 -6.99627e-07 1.39805e-07 7.39577e-07 -4.62101e-07 -1.02592e-06 3.76982e-07 -6.58358e-07 1.68055e-07 7.33756e-07 -4.66719e-07 -1.00122e-06 3.63051e-07 -6.16642e-07 1.86876e-07 7.23279e-07 -4.55853e-07 -9.67809e-07 3.41204e-07 -5.77954e-07 1.9095e-07 7.04652e-07 -4.45182e-07 -9.18701e-07 3.25332e-07 -5.28361e-07 2.04338e-07 6.79507e-07 -4.3257e-07 -8.68914e-07 2.98402e-07 -4.91205e-07 2.01428e-07 6.39227e-07 -4.09966e-07 -8.08048e-07 2.76321e-07 -4.4751e-07 2.00186e-07 5.99568e-07 -3.90932e-07 -7.57524e-07 2.49973e-07 -3.99625e-07 1.91998e-07 5.59754e-07 -3.62139e-07 -6.99045e-07 2.29872e-07 -3.55756e-07 1.87807e-07 5.25683e-07 -3.41766e-07 -6.38548e-07 2.14039e-07 -3.25177e-07 1.79076e-07 4.76672e-07 -3.11304e-07 -5.81834e-07 1.88234e-07 -2.76127e-07 1.7147e-07 4.42718e-07 -2.88623e-07 -5.29874e-07 1.71975e-07 -2.60101e-07 1.59402e-07 4.01119e-07 -2.59499e-07 -4.6798e-07 1.43142e-07 -2.19278e-07 1.44617e-07 3.53505e-07 -2.49507e-07 -4.30552e-07 1.3022e-07 -1.94249e-07 1.33907e-07 3.15282e-07 -2.01195e-07 -3.62934e-07 1.12059e-07 -1.60585e-07 1.22226e-07 2.84238e-07 -1.92367e-07 -3.17707e-07 9.12211e-08 -1.3705e-07 1.09071e-07 2.34606e-07 -1.69297e-07 -2.83714e-07 7.94632e-08 -1.11497e-07 9.69255e-08 2.11517e-07 -1.4289e-07 -2.34567e-07 7.14693e-08 -9.31032e-08 8.98629e-08 1.81676e-07 -1.22401e-07 -1.94443e-07 5.30369e-08 -6.9432e-08 7.45737e-08 1.46712e-07 -1.01951e-07 -1.61148e-07 4.19774e-08 -4.9428e-08 6.46396e-08 1.23934e-07 -7.81632e-08 -1.30899e-07 3.49537e-08 -4.16282e-08 4.66728e-08 9.94478e-08 -7.14693e-08 -1.01039e-07 2.13331e-08 -2.87643e-08 4.40729e-08 7.36036e-08 -4.98937e-08 -8.2975e-08 2.00913e-08 -1.26602e-08 2.45539e-08 5.76547e-08 -3.17523e-08 -5.58891e-08 9.69158e-09 -1.22333e-08 1.87332e-08 4.28699e-08 -2.20704e-08 -3.50701e-08 8.72145e-09 3.48276e-09 1.27184e-08 2.57569e-08 -1.65407e-08 -2.02854e-08 3.32754e-09 -2.35741e-09 8.52742e-09 1.22915e-08 -6.76179e-09 -1.01572e-08 5.77226e-09 1.5425e-09 8.3334e-09 1.17482e-08 3.63798e-09 1.5037e-09 2.55832e-07 -6.14547e-07 -4.26051e-07 -4.26051e-07 4.47258e-07 3.35955e-08 3.33249e-07 -1.07641e-06 -3.14409e-07 9.93702e-08 -2.57171e-07 -8.98581e-07 6.54982e-07 -9.18682e-07 1.22847e-07 7.66042e-07 -3.51468e-07 -1.05854e-06 5.62432e-07 -8.03314e-07 1.16406e-07 8.26035e-07 -3.88779e-07 -1.08048e-06 4.97899e-07 -7.31331e-07 1.49817e-07 8.4373e-07 -4.0983e-07 -1.07621e-06 4.59753e-07 -6.74151e-07 1.62584e-07 8.31002e-07 -4.17203e-07 -1.05902e-06 4.31775e-07 -6.28846e-07 1.79386e-07 8.23047e-07 -4.20657e-07 -1.02016e-06 4.0174e-07 -5.85288e-07 1.94404e-07 7.95573e-07 -4.0983e-07 -9.74464e-07 3.7931e-07 -5.46327e-07 1.96267e-07 7.62355e-07 -3.96656e-07 -9.22213e-07 3.55057e-07 -5.05388e-07 2.03717e-07 7.30535e-07 -3.84859e-07 -8.62589e-07 3.25216e-07 -4.63576e-07 2.00147e-07 6.79002e-07 -3.67009e-07 -8.1222e-07 2.93823e-07 -4.18736e-07 1.93046e-07 6.39227e-07 -3.42911e-07 -7.51374e-07 2.75429e-07 -3.80979e-07 1.88506e-07 5.97744e-07 -3.23237e-07 -6.87811e-07 2.4943e-07 -3.40971e-07 1.78028e-07 5.43339e-07 -2.99119e-07 -6.36413e-07 2.27311e-07 -3.09189e-07 1.72091e-07 5.09967e-07 -2.74362e-07 -5.72424e-07 2.0426e-07 -2.6889e-07 1.60837e-07 4.59365e-07 -2.52224e-07 -5.1897e-07 1.74497e-07 -2.45821e-07 1.43492e-07 4.10626e-07 -2.33345e-07 -4.64643e-07 1.55133e-07 -2.13942e-07 1.41202e-07 3.72869e-07 -2.15397e-07 -4.18271e-07 1.43181e-07 -1.85013e-07 1.24982e-07 3.28126e-07 -1.8868e-07 -3.66116e-07 1.22071e-07 -1.58917e-07 1.20092e-07 2.97703e-07 -1.69045e-07 -3.18464e-07 1.0717e-07 -1.31404e-07 1.02009e-07 2.51603e-07 -1.49196e-07 -2.78883e-07 8.69913e-08 -1.11827e-07 9.79732e-08 2.27776e-07 -1.29308e-07 -2.39495e-07 7.10813e-08 -9.61494e-08 7.99288e-08 1.90213e-07 -1.14524e-07 -2.03193e-07 5.35025e-08 -7.44767e-08 6.70843e-08 1.55793e-07 -9.59941e-08 -1.63302e-07 5.78487e-08 -5.63353e-08 6.44456e-08 1.31772e-07 -7.90169e-08 -1.31869e-07 4.39565e-08 -4.58385e-08 4.73713e-08 1.00263e-07 -5.75383e-08 -1.02998e-07 3.02195e-08 -2.71927e-08 4.31804e-08 8.86212e-08 -4.98549e-08 -8.52451e-08 2.56405e-08 -3.25478e-08 3.31687e-08 6.85977e-08 -3.69716e-08 -6.45426e-08 2.30405e-08 -1.72974e-08 2.4942e-08 5.24936e-08 -2.63584e-08 -4.21715e-08 1.20199e-08 -4.5499e-09 1.48527e-08 3.06851e-08 -8.58563e-09 -2.77942e-08 6.31553e-09 -2.14398e-09 9.18711e-09 2.83956e-08 -7.30506e-09 -2.26913e-08 8.68264e-09 3.32754e-09 -2.59024e-09 1.28348e-08 7.66401e-10 -6.33493e-09 2.72169e-07 -4.70172e-07 -1.51156e-07 -1.51156e-07 2.17493e-07 -1.19626e-07 3.41126e-07 -5.96211e-07 -1.31113e-07 2.0589e-07 5.6801e-08 -5.35772e-07 3.99605e-07 -8.73416e-07 -6.07397e-08 5.31116e-07 -3.43202e-07 -1.04131e-06 6.10317e-07 -8.05837e-07 1.86526e-07 8.87657e-07 -3.6113e-07 -1.09391e-06 5.55175e-07 -7.2225e-07 1.77291e-07 9.12686e-07 -3.75236e-07 -1.08541e-06 5.18271e-07 -6.71532e-07 1.92502e-07 9.04731e-07 -3.75372e-07 -1.0539e-06 4.80204e-07 -6.22715e-07 1.97198e-07 8.77451e-07 -3.71336e-07 -1.00477e-06 4.50479e-07 -5.7159e-07 2.04338e-07 8.39306e-07 -3.65166e-07 -9.60417e-07 4.10704e-07 -5.34259e-07 2.03756e-07 8.00307e-07 -3.51953e-07 -9.05993e-07 3.7803e-07 -4.84957e-07 2.03756e-07 7.58902e-07 -3.34316e-07 -8.55216e-07 3.50556e-07 -4.42563e-07 1.89243e-07 7.11133e-07 -3.18018e-07 -7.86104e-07 3.24595e-07 -4.03214e-07 1.95878e-07 6.64838e-07 -3.02942e-07 -7.29779e-07 2.88235e-07 -3.68503e-07 1.78688e-07 6.06243e-07 -2.81948e-07 -6.72522e-07 2.65922e-07 -3.33132e-07 1.69801e-07 5.61035e-07 -2.62061e-07 -6.12257e-07 2.37594e-07 -2.95084e-07 1.61536e-07 5.12257e-07 -2.40097e-07 -5.50906e-07 2.1012e-07 -2.71568e-07 1.49545e-07 4.60801e-07 -2.2832e-07 -5.01081e-07 1.98517e-07 -2.31676e-07 1.4128e-07 4.14312e-07 -2.00807e-07 -4.42776e-07 1.73837e-07 -1.97896e-07 1.31617e-07 3.73878e-07 -1.84101e-07 -3.93008e-07 1.46518e-07 -1.84334e-07 1.20635e-07 3.29756e-07 -1.66251e-07 -3.51953e-07 1.33752e-07 -1.43084e-07 1.07015e-07 2.92891e-07 -1.41144e-07 -3.01584e-07 1.11322e-07 -1.33092e-07 9.85553e-08 2.5917e-07 -1.2797e-07 -2.64428e-07 9.77404e-08 -1.04376e-07 8.69137e-08 2.23469e-07 -1.15358e-07 -2.28358e-07 7.81826e-08 -9.12793e-08 7.9502e-08 1.92541e-07 -1.00127e-07 -1.94113e-07 7.30215e-08 -7.20126e-08 6.6347e-08 1.60411e-07 -8.5575e-08 -1.63263e-07 5.28817e-08 -6.19038e-08 5.47443e-08 1.32471e-07 -6.84813e-08 -1.39262e-07 3.88342e-08 -5.13489e-08 4.81862e-08 1.18967e-07 -5.48025e-08 -1.02824e-07 4.03088e-08 -2.86867e-08 4.22879e-08 9.03674e-08 -4.16088e-08 -8.11512e-08 2.61837e-08 -2.71345e-08 2.82792e-08 6.78216e-08 -3.46627e-08 -6.45814e-08 2.72315e-08 -1.84421e-08 2.19152e-08 5.17951e-08 -2.03436e-08 -4.52371e-08 1.86944e-08 -1.26408e-08 1.00796e-08 3.49925e-08 -1.54929e-08 -3.35179e-08 9.65277e-09 -6.54836e-09 9.53636e-09 2.75031e-08 -9.40054e-09 -1.99749e-08 1.53183e-08 -1.10498e-08 5.07377e-09 1.559e-08 1.84324e-10 -8.91547e-09 3.3744e-07 -4.17902e-07 1.45898e-07 1.45898e-07 1.00408e-08 -3.24983e-07 4.17106e-07 -5.21104e-07 6.79768e-08 4.03175e-07 -4.48102e-08 -6.04205e-07 4.27739e-07 -5.87422e-07 4.35684e-08 6.02634e-07 -1.24632e-07 -8.12007e-07 4.66234e-07 -7.55817e-07 8.36541e-08 7.70388e-07 -3.34005e-07 -1.07169e-06 5.86607e-07 -7.1513e-07 2.21723e-07 9.62085e-07 -3.38778e-07 -1.07344e-06 5.55873e-07 -6.59541e-07 2.09732e-07 9.46524e-07 -3.35169e-07 -1.04179e-06 5.21298e-07 -6.09036e-07 2.12138e-07 9.20486e-07 -3.27195e-07 -9.93013e-07 4.80281e-07 -5.56979e-07 2.15553e-07 8.82768e-07 -3.12003e-07 -9.33544e-07 4.47413e-07 -5.1051e-07 2.04532e-07 8.27315e-07 -3.04572e-07 -8.76113e-07 4.12605e-07 -4.65826e-07 2.03834e-07 7.76442e-07 -2.92426e-07 -8.1288e-07 3.76128e-07 -4.32531e-07 1.98517e-07 7.19786e-07 -2.71956e-07 -7.49957e-07 3.41475e-07 -3.93668e-07 1.84004e-07 6.6282e-07 -2.65611e-07 -6.92603e-07 3.147e-07 -3.50342e-07 1.7601e-07 6.03681e-07 -2.41358e-07 -6.2842e-07 2.86023e-07 -3.13749e-07 1.67396e-07 5.5502e-07 -2.18114e-07 -5.69805e-07 2.55328e-07 -2.80377e-07 1.51485e-07 5.03681e-07 -2.04687e-07 -5.15439e-07 2.35964e-07 -2.47256e-07 1.42521e-07 4.53544e-07 -1.86992e-07 -4.59501e-07 2.03601e-07 -2.24924e-07 1.37166e-07 4.09966e-07 -1.679e-07 -4.12702e-07 1.7958e-07 -1.90834e-07 1.218e-07 3.66854e-07 -1.48788e-07 -3.64758e-07 1.59557e-07 -1.63825e-07 1.07907e-07 3.24052e-07 -1.38098e-07 -3.20094e-07 1.34683e-07 -1.54279e-07 9.70419e-08 2.79154e-07 -1.27659e-07 -2.87167e-07 1.20985e-07 -1.21295e-07 8.82331e-08 2.47839e-07 -1.08586e-07 -2.41222e-07 1.03949e-07 -1.06801e-07 8.26452e-08 2.1532e-07 -9.60523e-08 -2.1369e-07 8.85824e-08 -8.26452e-08 7.02664e-08 1.8804e-07 -8.3984e-08 -1.76243e-07 7.3332e-08 -7.01111e-08 6.25053e-08 1.54784e-07 -6.35337e-08 -1.4809e-07 5.80427e-08 -5.75189e-08 5.23384e-08 1.36895e-07 -5.94591e-08 -1.21644e-07 4.61684e-08 -4.55863e-08 3.77477e-08 9.99911e-08 -5.49189e-08 -1.01737e-07 4.15894e-08 -3.41e-08 3.84462e-08 8.52839e-08 -3.60791e-08 -7.17021e-08 3.15389e-08 -3.02583e-08 2.96762e-08 6.52605e-08 -3.23344e-08 -5.76547e-08 2.85897e-08 -2.91523e-08 2.76971e-08 5.29981e-08 -2.3836e-08 -4.33356e-08 1.97033e-08 -1.75302e-08 1.97033e-08 3.91835e-08 -8.93488e-09 -2.55241e-08 1.54735e-08 -1.16124e-08 1.26796e-08 2.92882e-08 -1.15154e-08 -2.49226e-08 1.83451e-08 -9.8856e-09 1.08169e-08 2.42047e-08 3.0074e-10 -1.30676e-08 4.31115e-07 -3.97859e-07 4.70231e-07 4.70231e-07 -2.01932e-07 -5.59385e-07 4.96269e-07 -5.037e-07 2.72169e-07 6.30263e-07 -1.51039e-07 -7.25956e-07 5.06513e-07 -5.48559e-07 1.81637e-07 7.56845e-07 -1.62254e-07 -8.45534e-07 5.13421e-07 -5.77857e-07 1.65378e-07 8.48542e-07 -1.94598e-07 -9.21398e-07 5.31892e-07 -6.64819e-07 1.73022e-07 8.99687e-07 -3.0203e-07 -1.04136e-06 5.85327e-07 -6.39421e-07 2.40698e-07 9.81915e-07 -2.94987e-07 -1.01129e-06 5.59482e-07 -5.85113e-07 2.37827e-07 9.55682e-07 -2.77466e-07 -9.5316e-07 5.16176e-07 -5.34472e-07 2.20636e-07 8.97669e-07 -2.71044e-07 -8.96582e-07 4.82183e-07 -4.9654e-07 2.11439e-07 8.38064e-07 -2.54901e-07 -8.28984e-07 4.4233e-07 -4.46792e-07 2.04765e-07 7.7974e-07 -2.39069e-07 -7.53993e-07 4.08763e-07 -4.06435e-07 1.96577e-07 7.12258e-07 -2.29736e-07 -7.02479e-07 3.65728e-07 -3.63187e-07 1.82879e-07 6.56224e-07 -2.06511e-07 -6.39072e-07 3.29834e-07 -3.29096e-07 1.70112e-07 6.03177e-07 -1.91067e-07 -5.77488e-07 2.97354e-07 -3.00497e-07 1.55366e-07 5.42214e-07 -1.82394e-07 -5.23122e-07 2.70268e-07 -2.62546e-07 1.45044e-07 4.86102e-07 -1.59188e-07 -4.63576e-07 2.39767e-07 -2.36876e-07 1.29755e-07 4.34452e-07 -1.43802e-07 -4.18057e-07 2.13729e-07 -2.02941e-07 1.17415e-07 3.91883e-07 -1.36837e-07 -3.76982e-07 1.85129e-07 -1.78183e-07 1.06006e-07 3.46404e-07 -1.20635e-07 -3.30493e-07 1.62002e-07 -1.55909e-07 9.23465e-08 3.0236e-07 -1.04492e-07 -2.85984e-07 1.40892e-07 -1.32025e-07 8.83883e-08 2.69996e-07 -9.45195e-08 -2.49721e-07 1.2145e-07 -1.1625e-07 7.40304e-08 2.29328e-07 -8.36347e-08 -2.17842e-07 1.02125e-07 -1.00224e-07 6.47948e-08 1.99061e-07 -7.89975e-08 -1.83965e-07 9.17644e-08 -8.03557e-08 6.61142e-08 1.7116e-07 -6.21173e-08 -1.5199e-07 7.67468e-08 -6.37859e-08 4.96996e-08 1.39611e-07 -5.30175e-08 -1.25661e-07 6.11471e-08 -5.4007e-08 4.53147e-08 1.18035e-07 -4.83415e-08 -1.01854e-07 4.89623e-08 -4.73713e-08 3.92999e-08 9.28509e-08 -3.90088e-08 -8.42556e-08 4.25595e-08 -3.41582e-08 3.08404e-08 7.60871e-08 -3.1015e-08 -6.28352e-08 2.92105e-08 -2.25943e-08 2.66494e-08 5.84308e-08 -2.0751e-08 -5.15817e-08 2.55629e-08 -1.42318e-08 1.7375e-08 4.8225e-08 -1.33587e-08 -3.40806e-08 1.51243e-08 -1.97227e-08 1.44258e-08 3.51089e-08 -1.97421e-08 -3.41194e-08 2.1954e-08 -1.37661e-08 8.21698e-09 2.25749e-08 -1.10109e-08 -1.54929e-08 1.69869e-08 -1.43482e-08 1.61332e-08 2.05958e-08 -6.87821e-09 -1.62496e-08 5.45202e-07 -4.02962e-07 8.15286e-07 8.15286e-07 -4.37246e-07 -8.45864e-07 5.98676e-07 -5.05213e-07 5.04573e-07 9.14471e-07 -2.77796e-07 -8.91712e-07 5.99723e-07 -5.42292e-07 3.33016e-07 9.47883e-07 -2.15591e-07 -9.18488e-07 5.87189e-07 -5.47492e-07 2.62235e-07 9.65461e-07 -1.98847e-07 -9.31973e-07 5.75198e-07 -5.66564e-07 2.27427e-07 9.60494e-07 -2.08277e-07 -9.38802e-07 5.73491e-07 -5.96832e-07 2.3123e-07 9.61736e-07 -2.54377e-07 -9.62978e-07 5.84822e-07 -5.602e-07 2.47606e-07 9.57506e-07 -2.40369e-07 -9.10979e-07 5.47104e-07 -5.18737e-07 2.32355e-07 9.03955e-07 -2.24788e-07 -8.45942e-07 5.08492e-07 -4.75896e-07 2.19356e-07 8.41401e-07 -2.06647e-07 -7.72619e-07 4.65574e-07 -4.26691e-07 2.01428e-07 7.68137e-07 -1.90368e-07 -7.08533e-07 4.22035e-07 -3.88294e-07 1.82646e-07 7.0147e-07 -1.77174e-07 -6.37636e-07 3.85946e-07 -3.42756e-07 1.69025e-07 6.3003e-07 -1.60837e-07 -5.75528e-07 3.47917e-07 -3.05251e-07 1.60605e-07 5.75664e-07 -1.46247e-07 -5.20774e-07 3.043e-07 -2.75332e-07 1.3639e-07 5.11209e-07 -1.34043e-07 -4.63498e-07 2.7376e-07 -2.4388e-07 1.31268e-07 4.60995e-07 -1.192e-07 -4.14623e-07 2.46985e-07 -2.11827e-07 1.07325e-07 4.02981e-07 -1.02319e-07 -3.71394e-07 2.12293e-07 -1.9095e-07 9.48688e-08 3.64099e-07 -9.49658e-08 -3.20676e-07 1.92619e-07 -1.52184e-07 8.99793e-08 3.15825e-07 -7.33902e-08 -2.81405e-07 1.60721e-07 -1.47159e-07 7.4923e-08 2.83035e-07 -7.77751e-08 -2.439e-07 1.48575e-07 -1.18035e-07 6.80933e-08 2.34334e-07 -6.57262e-08 -2.03659e-07 1.21567e-07 -1.04745e-07 6.61142e-08 2.04066e-07 -5.74995e-08 -1.77834e-07 1.02436e-07 -8.06661e-08 5.28817e-08 1.73255e-07 -4.34326e-08 -1.46654e-07 8.22183e-08 -6.52799e-08 3.78253e-08 1.41047e-07 -3.97073e-08 -1.23604e-07 7.04216e-08 -6.06427e-08 3.50313e-08 1.18967e-07 -3.36537e-08 -1.01019e-07 5.70726e-08 -4.46162e-08 3.19657e-08 9.93314e-08 -2.88225e-08 -7.65528e-08 4.84191e-08 -3.38672e-08 2.79688e-08 7.56991e-08 -2.42629e-08 -6.17292e-08 4.11237e-08 -2.77942e-08 2.12555e-08 5.87412e-08 -1.6075e-08 -4.19968e-08 2.54076e-08 -2.29047e-08 2.06734e-08 4.6634e-08 -2.03242e-08 -3.37507e-08 1.98585e-08 -1.27766e-08 1.83063e-08 3.17329e-08 -4.60811e-09 -2.14107e-08 1.29124e-08 -9.61397e-09 9.69158e-09 2.64554e-08 -8.95428e-09 -2.176e-08 1.78406e-08 -2.00137e-08 8.83786e-09 2.15659e-08 -6.29613e-09 -1.52601e-08 1.78795e-08 -1.36885e-08 5.22899e-09 1.42318e-08 -1.28154e-08 -1.67541e-08 6.93438e-07 -4.27545e-07 1.21055e-06 1.21055e-06 -6.91672e-07 -1.19798e-06 7.05816e-07 -5.31892e-07 7.40819e-07 1.24975e-06 -4.3451e-07 -1.11527e-06 6.9922e-07 -5.6412e-07 5.05116e-07 1.18774e-06 -2.95899e-07 -1.03508e-06 6.83503e-07 -5.54224e-07 3.85635e-07 1.12573e-06 -2.29037e-07 -9.79645e-07 6.49937e-07 -5.38372e-07 3.13419e-07 1.06441e-06 -1.91241e-07 -9.25007e-07 6.15672e-07 -5.17282e-07 2.67125e-07 1.00108e-06 -1.76204e-07 -8.74192e-07 6.00887e-07 -5.26382e-07 2.47606e-07 9.45671e-07 -1.91358e-07 -8.42507e-07 5.78031e-07 -4.85326e-07 2.40466e-07 8.92353e-07 -1.7244e-07 -7.74889e-07 5.32862e-07 -4.39031e-07 2.18385e-07 8.21494e-07 -1.51563e-07 -6.98676e-07 4.85481e-07 -3.93959e-07 1.94559e-07 7.42177e-07 -1.31287e-07 -6.23918e-07 4.38294e-07 -3.55096e-07 1.7504e-07 6.68098e-07 -1.17007e-07 -5.61597e-07 3.95143e-07 -3.16659e-07 1.51602e-07 5.96619e-07 -1.00767e-07 -4.95338e-07 3.53738e-07 -2.77874e-07 1.41008e-07 5.35889e-07 -9.13957e-08 -4.42601e-07 3.18386e-07 -2.42231e-07 1.20868e-07 4.72365e-07 -7.50976e-08 -3.94929e-07 2.82569e-07 -2.14699e-07 1.06782e-07 4.26885e-07 -7.28275e-08 -3.50517e-07 2.4745e-07 -1.99817e-07 8.91644e-08 3.6697e-07 -6.06427e-08 -2.96151e-07 2.23197e-07 -1.61303e-07 8.04333e-08 3.16097e-07 -4.42863e-08 -2.5624e-07 1.85052e-07 -1.4386e-07 6.00218e-08 2.72053e-07 -4.15506e-08 -2.26632e-07 1.64757e-07 -1.19956e-07 4.81474e-08 2.33287e-07 -3.44492e-08 -1.90194e-07 1.38331e-07 -1.05598e-07 4.84967e-08 2.04299e-07 -2.53106e-08 -1.59654e-07 1.13456e-07 -7.78139e-08 3.69716e-08 1.71354e-07 -2.25555e-08 -1.31443e-07 1.00185e-07 -6.83261e-08 2.89389e-08 1.37826e-07 -1.88884e-08 -1.06297e-07 7.63976e-08 -5.87218e-08 2.8124e-08 1.15552e-07 -1.44452e-08 -8.2878e-08 5.64129e-08 -4.39371e-08 2.04794e-08 8.89316e-08 -8.64384e-09 -6.85007e-08 4.76818e-08 -3.4197e-08 8.3722e-09 6.82485e-08 -9.16771e-09 -5.48801e-08 3.42164e-08 -2.46315e-08 5.88868e-09 5.16011e-08 -4.25886e-09 -3.27224e-08 3.04523e-08 -1.67347e-08 1.18259e-08 4.03088e-08 3.0559e-09 -1.91018e-08 2.28077e-08 -1.17871e-08 2.12458e-09 2.43211e-08 -7.11104e-09 -1.68123e-08 1.48915e-08 -7.47968e-09 4.22006e-09 1.39213e-08 -5.96629e-09 -8.06176e-09 9.41994e-09 -4.97676e-09 6.62597e-09 8.72145e-09 -1.73653e-09 -4.99616e-09 1.12438e-08 -1.21945e-08 3.52156e-09 6.74239e-09 -3.17232e-09 -5.05437e-09 7.82893e-09 -1.19811e-08 4.95735e-09 6.82e-09 6.1118e-10 -1.34169e-08 8.41363e-07 -4.92544e-07 1.72856e-06 1.72856e-06 -1.00079e-06 -1.61067e-06 9.22931e-07 -5.74558e-07 1.05739e-06 1.67241e-06 -6.06165e-07 -1.35423e-06 9.17149e-07 -5.89537e-07 7.47105e-07 1.49981e-06 -3.94347e-07 -1.16246e-06 8.71902e-07 -5.60841e-07 5.66273e-07 1.3376e-06 -2.63128e-07 -1.00337e-06 8.20253e-07 -5.22268e-07 4.62198e-07 1.20458e-06 -1.86585e-07 -8.83699e-07 7.62744e-07 -4.88178e-07 3.77836e-07 1.07625e-06 -1.40989e-07 -7.85289e-07 6.99452e-07 -4.58783e-07 3.19512e-07 9.6453e-07 -1.07151e-07 -6.97318e-07 6.31039e-07 -4.31348e-07 2.72751e-07 8.63404e-07 -9.57807e-08 -6.34027e-07 5.77022e-07 -3.84588e-07 2.37904e-07 7.76752e-07 -7.19932e-08 -5.64217e-07 5.15555e-07 -3.52748e-07 1.99061e-07 6.91769e-07 -6.3359e-08 -5.00285e-07 4.6635e-07 -3.04397e-07 1.70384e-07 6.07601e-07 -4.24819e-08 -4.34646e-07 4.14468e-07 -2.7343e-07 1.46674e-07 5.39071e-07 -3.10538e-08 -3.83637e-07 3.64836e-07 -2.34451e-07 1.23934e-07 4.76672e-07 -2.26525e-08 -3.34044e-07 3.25449e-07 -2.16135e-07 1.05967e-07 4.17456e-07 -1.9354e-08 -2.81871e-07 2.84509e-07 -1.82918e-07 8.82719e-08 3.5075e-07 -7.80953e-09 -2.46713e-07 2.43725e-07 -1.58296e-07 7.74453e-08 3.16407e-07 -4.94765e-10 -2.1012e-07 2.16329e-07 -1.36293e-07 5.27652e-08 2.62429e-07 6.00509e-09 -1.75525e-07 1.87691e-07 -1.13592e-07 3.82909e-08 2.19821e-07 1.10886e-08 -1.42599e-07 1.55832e-07 -1.02824e-07 3.61567e-08 1.89864e-07 1.34557e-08 -1.19316e-07 1.32277e-07 -7.40692e-08 1.79959e-08 1.50787e-07 1.55123e-08 -9.2036e-08 1.09615e-07 -6.21755e-08 1.33393e-08 1.20868e-07 1.41542e-08 -7.57379e-08 7.98124e-08 -5.58114e-08 9.38113e-09 9.9215e-08 1.53183e-08 -4.80698e-08 7.30215e-08 -2.71345e-08 3.87081e-09 6.72784e-08 2.10227e-08 -3.15e-08 4.72549e-08 -2.21092e-08 -2.18279e-09 5.03205e-08 1.37273e-08 -1.66377e-08 3.86014e-08 -2.06928e-08 -7.40207e-09 2.30017e-08 1.86168e-08 -7.07223e-09 2.78136e-08 -9.0901e-09 -1.01378e-08 1.55123e-08 1.91988e-08 3.832e-09 1.54735e-08 -1.25146e-09 -1.1399e-08 3.94842e-09 1.73362e-08 1.29512e-08 -1.06714e-10 -5.71405e-09 -9.28412e-09 -4.89915e-09 1.49303e-08 1.24079e-08 -4.17155e-10 -7.46998e-10 -8.08116e-09 -5.55883e-09 9.92441e-09 6.43195e-09 -5.05437e-09 -4.36557e-10 -9.32293e-09 -5.88868e-09 2.35741e-09 9.53636e-09 5.3357e-10 1.84324e-10 -6.00509e-09 -1.3184e-08 7.86774e-09 4.95735e-09 3.32754e-09 -5.79166e-09 -5.67525e-09 -2.72606e-09 -2.93949e-09 8.44011e-10 
