# vtk DataFile Version 5.1
vtk output
ASCII

DATASET UNSTRUCTURED_GRID
POINTS 2673 float
0 0 -0.4
0.125 0 -0.4
0.25 0 -0.4
0.375 0 -0.4
0.5 0 -0.4
0.625 0 -0.4
0.75 0 -0.4
0.875 0 -0.4
1 0 -0.4
1.125 0 -0.4
1.25 0 -0.4
1.375 0 -0.4
1.5 0 -0.4
1.625 0 -0.4
1.75 0 -0.4
1.875 0 -0.4
2 0 -0.4
2.125 0 -0.4
2.25 0 -0.4
2.375 0 -0.4
2.5 0 -0.4
2.625 0 -0.4
2.75 0 -0.4
2.875 0 -0.4
3 0 -0.4
3.125 0 -0.4
3.25 0 -0.4
3.375 0 -0.4
3.5 0 -0.4
3.625 0 -0.4
3.75 0 -0.4
3.875 0 -0.4
4 0 -0.4
0 0.125 -0.4
0.125 0.125 -0.4
0.25 0.125 -0.4
0.375 0.125 -0.4
0.5 0.125 -0.4
0.625 0.125 -0.4
0.75 0.125 -0.4
0.875 0.125 -0.4
1 0.125 -0.4
1.125 0.125 -0.4
1.25 0.125 -0.4
1.375 0.125 -0.4
1.5 0.125 -0.4
1.625 0.125 -0.4
1.75 0.125 -0.4
1.875 0.125 -0.4
2 0.125 -0.4
2.125 0.125 -0.4
2.25 0.125 -0.4
2.375 0.125 -0.4
2.5 0.125 -0.4
2.625 0.125 -0.4
2.75 0.125 -0.4
2.875 0.125 -0.4
3 0.125 -0.4
3.125 0.125 -0.4
3.25 0.125 -0.4
3.375 0.125 -0.4
3.5 0.125 -0.4
3.625 0.125 -0.4
3.75 0.125 -0.4
3.875 0.125 -0.4
4 0.125 -0.4
0 0.25 -0.4
0.125 0.25 -0.4
0.25 0.25 -0.4
0.375 0.25 -0.4
0.5 0.25 -0.4
0.625 0.25 -0.4
0.75 0.25 -0.4
0.875 0.25 -0.4
1 0.25 -0.4
1.125 0.25 -0.4
1.25 0.25 -0.4
1.375 0.25 -0.4
1.5 0.25 -0.4
1.625 0.25 -0.4
1.75 0.25 -0.4
1.875 0.25 -0.4
2 0.25 -0.4
2.125 0.25 -0.4
2.25 0.25 -0.4
2.375 0.25 -0.4
2.5 0.25 -0.4
2.625 0.25 -0.4
2.75 0.25 -0.4
2.875 0.25 -0.4
3 0.25 -0.4
3.125 0.25 -0.4
3.25 0.25 -0.4
3.375 0.25 -0.4
3.5 0.25 -0.4
3.625 0.25 -0.4
3.75 0.25 -0.4
3.875 0.25 -0.4
4 0.25 -0.4
0 0.375 -0.4
0.125 0.375 -0.4
0.25 0.375 -0.4
0.375 0.375 -0.4
0.5 0.375 -0.4
0.625 0.375 -0.4
0.75 0.375 -0.4
0.875 0.375 -0.4
1 0.375 -0.4
1.125 0.375 -0.4
1.25 0.375 -0.4
1.375 0.375 -0.4
1.5 0.375 -0.4
1.625 0.375 -0.4
1.75 0.375 -0.4
1.875 0.375 -0.4
2 0.375 -0.4
2.125 0.375 -0.4
2.25 0.375 -0.4
2.375 0.375 -0.4
2.5 0.375 -0.4
2.625 0.375 -0.4
2.75 0.375 -0.4
2.875 0.375 -0.4
3 0.375 -0.4
3.125 0.375 -0.4
3.25 0.375 -0.4
3.375 0.375 -0.4
3.5 0.375 -0.4
3.625 0.375 -0.4
3.75 0.375 -0.4
3.875 0.375 -0.4
4 0.375 -0.4
0 0.5 -0.4
0.125 0.5 -0.4
0.25 0.5 -0.4
0.375 0.5 -0.4
0.5 0.5 -0.4
0.625 0.5 -0.4
0.75 0.5 -0.4
0.875 0.5 -0.4
1 0.5 -0.4
1.125 0.5 -0.4
1.25 0.5 -0.4
1.375 0.5 -0.4
1.5 0.5 -0.4
1.625 0.5 -0.4
1.75 0.5 -0.4
1.875 0.5 -0.4
2 0.5 -0.4
2.125 0.5 -0.4
2.25 0.5 -0.4
2.375 0.5 -0.4
2.5 0.5 -0.4
2.625 0.5 -0.4
2.75 0.5 -0.4
2.875 0.5 -0.4
3 0.5 -0.4
3.125 0.5 -0.4
3.25 0.5 -0.4
3.375 0.5 -0.4
3.5 0.5 -0.4
3.625 0.5 -0.4
3.75 0.5 -0.4
3.875 0.5 -0.4
4 0.5 -0.4
0 0.625 -0.4
0.125 0.625 -0.4
0.25 0.625 -0.4
0.375 0.625 -0.4
0.5 0.625 -0.4
0.625 0.625 -0.4
0.75 0.625 -0.4
0.875 0.625 -0.4
1 0.625 -0.4
1.125 0.625 -0.4
1.25 0.625 -0.4
1.375 0.625 -0.4
1.5 0.625 -0.4
1.625 0.625 -0.4
1.75 0.625 -0.4
1.875 0.625 -0.4
2 0.625 -0.4
2.125 0.625 -0.4
2.25 0.625 -0.4
2.375 0.625 -0.4
2.5 0.625 -0.4
2.625 0.625 -0.4
2.75 0.625 -0.4
2.875 0.625 -0.4
3 0.625 -0.4
3.125 0.625 -0.4
3.25 0.625 -0.4
3.375 0.625 -0.4
3.5 0.625 -0.4
3.625 0.625 -0.4
3.75 0.625 -0.4
3.875 0.625 -0.4
4 0.625 -0.4
0 0.75 -0.4
0.125 0.75 -0.4
0.25 0.75 -0.4
0.375 0.75 -0.4
0.5 0.75 -0.4
0.625 0.75 -0.4
0.75 0.75 -0.4
0.875 0.75 -0.4
1 0.75 -0.4
1.125 0.75 -0.4
1.25 0.75 -0.4
1.375 0.75 -0.4
1.5 0.75 -0.4
1.625 0.75 -0.4
1.75 0.75 -0.4
1.875 0.75 -0.4
2 0.75 -0.4
2.125 0.75 -0.4
2.25 0.75 -0.4
2.375 0.75 -0.4
2.5 0.75 -0.4
2.625 0.75 -0.4
2.75 0.75 -0.4
2.875 0.75 -0.4
3 0.75 -0.4
3.125 0.75 -0.4
3.25 0.75 -0.4
3.375 0.75 -0.4
3.5 0.75 -0.4
3.625 0.75 -0.4
3.75 0.75 -0.4
3.875 0.75 -0.4
4 0.75 -0.4
0 0.875 -0.4
0.125 0.875 -0.4
0.25 0.875 -0.4
0.375 0.875 -0.4
0.5 0.875 -0.4
0.625 0.875 -0.4
0.75 0.875 -0.4
0.875 0.875 -0.4
1 0.875 -0.4
1.125 0.875 -0.4
1.25 0.875 -0.4
1.375 0.875 -0.4
1.5 0.875 -0.4
1.625 0.875 -0.4
1.75 0.875 -0.4
1.875 0.875 -0.4
2 0.875 -0.4
2.125 0.875 -0.4
2.25 0.875 -0.4
2.375 0.875 -0.4
2.5 0.875 -0.4
2.625 0.875 -0.4
2.75 0.875 -0.4
2.875 0.875 -0.4
3 0.875 -0.4
3.125 0.875 -0.4
3.25 0.875 -0.4
3.375 0.875 -0.4
3.5 0.875 -0.4
3.625 0.875 -0.4
3.75 0.875 -0.4
3.875 0.875 -0.4
4 0.875 -0.4
0 1 -0.4
0.125 1 -0.4
0.25 1 -0.4
0.375 1 -0.4
0.5 1 -0.4
0.625 1 -0.4
0.75 1 -0.4
0.875 1 -0.4
1 1 -0.4
1.125 1 -0.4
1.25 1 -0.4
1.375 1 -0.4
1.5 1 -0.4
1.625 1 -0.4
1.75 1 -0.4
1.875 1 -0.4
2 1 -0.4
2.125 1 -0.4
2.25 1 -0.4
2.375 1 -0.4
2.5 1 -0.4
2.625 1 -0.4
2.75 1 -0.4
2.875 1 -0.4
3 1 -0.4
3.125 1 -0.4
3.25 1 -0.4
3.375 1 -0.4
3.5 1 -0.4
3.625 1 -0.4
3.75 1 -0.4
3.875 1 -0.4
4 1 -0.4
0 0 -0.275
0.125 0 -0.275
0.25 0 -0.275
0.375 0 -0.275
0.5 0 -0.275
0.625 0 -0.275
0.75 0 -0.275
0.875 0 -0.275
1 0 -0.275
1.125 0 -0.275
1.25 0 -0.275
1.375 0 -0.275
1.5 0 -0.275
1.625 0 -0.275
1.75 0 -0.275
1.875 0 -0.275
2 0 -0.275
2.125 0 -0.275
2.25 0 -0.275
2.375 0 -0.275
2.5 0 -0.275
2.625 0 -0.275
2.75 0 -0.275
2.875 0 -0.275
3 0 -0.275
3.125 0 -0.275
3.25 0 -0.275
3.375 0 -0.275
3.5 0 -0.275
3.625 0 -0.275
3.75 0 -0.275
3.875 0 -0.275
4 0 -0.275
0 0.125 -0.275
0.125 0.125 -0.275
0.25 0.125 -0.275
0.375 0.125 -0.275
0.5 0.125 -0.275
0.625 0.125 -0.275
0.75 0.125 -0.275
0.875 0.125 -0.275
1 0.125 -0.275
1.125 0.125 -0.275
1.25 0.125 -0.275
1.375 0.125 -0.275
1.5 0.125 -0.275
1.625 0.125 -0.275
1.75 0.125 -0.275
1.875 0.125 -0.275
2 0.125 -0.275
2.125 0.125 -0.275
2.25 0.125 -0.275
2.375 0.125 -0.275
2.5 0.125 -0.275
2.625 0.125 -0.275
2.75 0.125 -0.275
2.875 0.125 -0.275
3 0.125 -0.275
3.125 0.125 -0.275
3.25 0.125 -0.275
3.375 0.125 -0.275
3.5 0.125 -0.275
3.625 0.125 -0.275
3.75 0.125 -0.275
3.875 0.125 -0.275
4 0.125 -0.275
0 0.25 -0.275
0.125 0.25 -0.275
0.25 0.25 -0.275
0.375 0.25 -0.275
0.5 0.25 -0.275
0.625 0.25 -0.275
0.75 0.25 -0.275
0.875 0.25 -0.275
1 0.25 -0.275
1.125 0.25 -0.275
1.25 0.25 -0.275
1.375 0.25 -0.275
1.5 0.25 -0.275
1.625 0.25 -0.275
1.75 0.25 -0.275
1.875 0.25 -0.275
2 0.25 -0.275
2.125 0.25 -0.275
2.25 0.25 -0.275
2.375 0.25 -0.275
2.5 0.25 -0.275
2.625 0.25 -0.275
2.75 0.25 -0.275
2.875 0.25 -0.275
3 0.25 -0.275
3.125 0.25 -0.275
3.25 0.25 -0.275
3.375 0.25 -0.275
3.5 0.25 -0.275
3.625 0.25 -0.275
3.75 0.25 -0.275
3.875 0.25 -0.275
4 0.25 -0.275
0 0.375 -0.275
0.125 0.375 -0.275
0.25 0.375 -0.275
0.375 0.375 -0.275
0.5 0.375 -0.275
0.625 0.375 -0.275
0.75 0.375 -0.275
0.875 0.375 -0.275
1 0.375 -0.275
1.125 0.375 -0.275
1.25 0.375 -0.275
1.375 0.375 -0.275
1.5 0.375 -0.275
1.625 0.375 -0.275
1.75 0.375 -0.275
1.875 0.375 -0.275
2 0.375 -0.275
2.125 0.375 -0.275
2.25 0.375 -0.275
2.375 0.375 -0.275
2.5 0.375 -0.275
2.625 0.375 -0.275
2.75 0.375 -0.275
2.875 0.375 -0.275
3 0.375 -0.275
3.125 0.375 -0.275
3.25 0.375 -0.275
3.375 0.375 -0.275
3.5 0.375 -0.275
3.625 0.375 -0.275
3.75 0.375 -0.275
3.875 0.375 -0.275
4 0.375 -0.275
0 0.5 -0.275
0.125 0.5 -0.275
0.25 0.5 -0.275
0.375 0.5 -0.275
0.5 0.5 -0.275
0.625 0.5 -0.275
0.75 0.5 -0.275
0.875 0.5 -0.275
1 0.5 -0.275
1.125 0.5 -0.275
1.25 0.5 -0.275
1.375 0.5 -0.275
1.5 0.5 -0.275
1.625 0.5 -0.275
1.75 0.5 -0.275
1.875 0.5 -0.275
2 0.5 -0.275
2.125 0.5 -0.275
2.25 0.5 -0.275
2.375 0.5 -0.275
2.5 0.5 -0.275
2.625 0.5 -0.275
2.75 0.5 -0.275
2.875 0.5 -0.275
3 0.5 -0.275
3.125 0.5 -0.275
3.25 0.5 -0.275
3.375 0.5 -0.275
3.5 0.5 -0.275
3.625 0.5 -0.275
3.75 0.5 -0.275
3.875 0.5 -0.275
4 0.5 -0.275
0 0.625 -0.275
0.125 0.625 -0.275
0.25 0.625 -0.275
0.375 0.625 -0.275
0.5 0.625 -0.275
0.625 0.625 -0.275
0.75 0.625 -0.275
0.875 0.625 -0.275
1 0.625 -0.275
1.125 0.625 -0.275
1.25 0.625 -0.275
1.375 0.625 -0.275
1.5 0.625 -0.275
1.625 0.625 -0.275
1.75 0.625 -0.275
1.875 0.625 -0.275
2 0.625 -0.275
2.125 0.625 -0.275
2.25 0.625 -0.275
2.375 0.625 -0.275
2.5 0.625 -0.275
2.625 0.625 -0.275
2.75 0.625 -0.275
2.875 0.625 -0.275
3 0.625 -0.275
3.125 0.625 -0.275
3.25 0.625 -0.275
3.375 0.625 -0.275
3.5 0.625 -0.275
3.625 0.625 -0.275
3.75 0.625 -0.275
3.875 0.625 -0.275
4 0.625 -0.275
0 0.75 -0.275
0.125 0.75 -0.275
0.25 0.75 -0.275
0.375 0.75 -0.275
0.5 0.75 -0.275
0.625 0.75 -0.275
0.75 0.75 -0.275
0.875 0.75 -0.275
1 0.75 -0.275
1.125 0.75 -0.275
1.25 0.75 -0.275
1.375 0.75 -0.275
1.5 0.75 -0.275
1.625 0.75 -0.275
1.75 0.75 -0.275
1.875 0.75 -0.275
2 0.75 -0.275
2.125 0.75 -0.275
2.25 0.75 -0.275
2.375 0.75 -0.275
2.5 0.75 -0.275
2.625 0.75 -0.275
2.75 0.75 -0.275
2.875 0.75 -0.275
3 0.75 -0.275
3.125 0.75 -0.275
3.25 0.75 -0.275
3.375 0.75 -0.275
3.5 0.75 -0.275
3.625 0.75 -0.275
3.75 0.75 -0.275
3.875 0.75 -0.275
4 0.75 -0.275
0 0.875 -0.275
0.125 0.875 -0.275
0.25 0.875 -0.275
0.375 0.875 -0.275
0.5 0.875 -0.275
0.625 0.875 -0.275
0.75 0.875 -0.275
0.875 0.875 -0.275
1 0.875 -0.275
1.125 0.875 -0.275
1.25 0.875 -0.275
1.375 0.875 -0.275
1.5 0.875 -0.275
1.625 0.875 -0.275
1.75 0.875 -0.275
1.875 0.875 -0.275
2 0.875 -0.275
2.125 0.875 -0.275
2.25 0.875 -0.275
2.375 0.875 -0.275
2.5 0.875 -0.275
2.625 0.875 -0.275
2.75 0.875 -0.275
2.875 0.875 -0.275
3 0.875 -0.275
3.125 0.875 -0.275
3.25 0.875 -0.275
3.375 0.875 -0.275
3.5 0.875 -0.275
3.625 0.875 -0.275
3.75 0.875 -0.275
3.875 0.875 -0.275
4 0.875 -0.275
0 1 -0.275
0.125 1 -0.275
0.25 1 -0.275
0.375 1 -0.275
0.5 1 -0.275
0.625 1 -0.275
0.75 1 -0.275
0.875 1 -0.275
1 1 -0.275
1.125 1 -0.275
1.25 1 -0.275
1.375 1 -0.275
1.5 1 -0.275
1.625 1 -0.275
1.75 1 -0.275
1.875 1 -0.275
2 1 -0.275
2.125 1 -0.275
2.25 1 -0.275
2.375 1 -0.275
2.5 1 -0.275
2.625 1 -0.275
2.75 1 -0.275
2.875 1 -0.275
3 1 -0.275
3.125 1 -0.275
3.25 1 -0.275
3.375 1 -0.275
3.5 1 -0.275
3.625 1 -0.275
3.75 1 -0.275
3.875 1 -0.275
4 1 -0.275
0 0 -0.15
0.125 0 -0.15
0.25 0 -0.15
0.375 0 -0.15
0.5 0 -0.15
0.625 0 -0.15
0.75 0 -0.15
0.875 0 -0.15
1 0 -0.15
1.125 0 -0.15
1.25 0 -0.15
1.375 0 -0.15
1.5 0 -0.15
1.625 0 -0.15
1.75 0 -0.15
1.875 0 -0.15
2 0 -0.15
2.125 0 -0.15
2.25 0 -0.15
2.375 0 -0.15
2.5 0 -0.15
2.625 0 -0.15
2.75 0 -0.15
2.875 0 -0.15
3 0 -0.15
3.125 0 -0.15
3.25 0 -0.15
3.375 0 -0.15
3.5 0 -0.15
3.625 0 -0.15
3.75 0 -0.15
3.875 0 -0.15
4 0 -0.15
0 0.125 -0.15
0.125 0.125 -0.15
0.25 0.125 -0.15
0.375 0.125 -0.15
0.5 0.125 -0.15
0.625 0.125 -0.15
0.75 0.125 -0.15
0.875 0.125 -0.15
1 0.125 -0.15
1.125 0.125 -0.15
1.25 0.125 -0.15
1.375 0.125 -0.15
1.5 0.125 -0.15
1.625 0.125 -0.15
1.75 0.125 -0.15
1.875 0.125 -0.15
2 0.125 -0.15
2.125 0.125 -0.15
2.25 0.125 -0.15
2.375 0.125 -0.15
2.5 0.125 -0.15
2.625 0.125 -0.15
2.75 0.125 -0.15
2.875 0.125 -0.15
3 0.125 -0.15
3.125 0.125 -0.15
3.25 0.125 -0.15
3.375 0.125 -0.15
3.5 0.125 -0.15
3.625 0.125 -0.15
3.75 0.125 -0.15
3.875 0.125 -0.15
4 0.125 -0.15
0 0.25 -0.15
0.125 0.25 -0.15
0.25 0.25 -0.15
0.375 0.25 -0.15
0.5 0.25 -0.15
0.625 0.25 -0.15
0.75 0.25 -0.15
0.875 0.25 -0.15
1 0.25 -0.15
1.125 0.25 -0.15
1.25 0.25 -0.15
1.375 0.25 -0.15
1.5 0.25 -0.15
1.625 0.25 -0.15
1.75 0.25 -0.15
1.875 0.25 -0.15
2 0.25 -0.15
2.125 0.25 -0.15
2.25 0.25 -0.15
2.375 0.25 -0.15
2.5 0.25 -0.15
2.625 0.25 -0.15
2.75 0.25 -0.15
2.875 0.25 -0.15
3 0.25 -0.15
3.125 0.25 -0.15
3.25 0.25 -0.15
3.375 0.25 -0.15
3.5 0.25 -0.15
3.625 0.25 -0.15
3.75 0.25 -0.15
3.875 0.25 -0.15
4 0.25 -0.15
0 0.375 -0.15
0.125 0.375 -0.15
0.25 0.375 -0.15
0.375 0.375 -0.15
0.5 0.375 -0.15
0.625 0.375 -0.15
0.75 0.375 -0.15
0.875 0.375 -0.15
1 0.375 -0.15
1.125 0.375 -0.15
1.25 0.375 -0.15
1.375 0.375 -0.15
1.5 0.375 -0.15
1.625 0.375 -0.15
1.75 0.375 -0.15
1.875 0.375 -0.15
2 0.375 -0.15
2.125 0.375 -0.15
2.25 0.375 -0.15
2.375 0.375 -0.15
2.5 0.375 -0.15
2.625 0.375 -0.15
2.75 0.375 -0.15
2.875 0.375 -0.15
3 0.375 -0.15
3.125 0.375 -0.15
3.25 0.375 -0.15
3.375 0.375 -0.15
3.5 0.375 -0.15
3.625 0.375 -0.15
3.75 0.375 -0.15
3.875 0.375 -0.15
4 0.375 -0.15
0 0.5 -0.15
0.125 0.5 -0.15
0.25 0.5 -0.15
0.375 0.5 -0.15
0.5 0.5 -0.15
0.625 0.5 -0.15
0.75 0.5 -0.15
0.875 0.5 -0.15
1 0.5 -0.15
1.125 0.5 -0.15
1.25 0.5 -0.15
1.375 0.5 -0.15
1.5 0.5 -0.15
1.625 0.5 -0.15
1.75 0.5 -0.15
1.875 0.5 -0.15
2 0.5 -0.15
2.125 0.5 -0.15
2.25 0.5 -0.15
2.375 0.5 -0.15
2.5 0.5 -0.15
2.625 0.5 -0.15
2.75 0.5 -0.15
2.875 0.5 -0.15
3 0.5 -0.15
3.125 0.5 -0.15
3.25 0.5 -0.15
3.375 0.5 -0.15
3.5 0.5 -0.15
3.625 0.5 -0.15
3.75 0.5 -0.15
3.875 0.5 -0.15
4 0.5 -0.15
0 0.625 -0.15
0.125 0.625 -0.15
0.25 0.625 -0.15
0.375 0.625 -0.15
0.5 0.625 -0.15
0.625 0.625 -0.15
0.75 0.625 -0.15
0.875 0.625 -0.15
1 0.625 -0.15
1.125 0.625 -0.15
1.25 0.625 -0.15
1.375 0.625 -0.15
1.5 0.625 -0.15
1.625 0.625 -0.15
1.75 0.625 -0.15
1.875 0.625 -0.15
2 0.625 -0.15
2.125 0.625 -0.15
2.25 0.625 -0.15
2.375 0.625 -0.15
2.5 0.625 -0.15
2.625 0.625 -0.15
2.75 0.625 -0.15
2.875 0.625 -0.15
3 0.625 -0.15
3.125 0.625 -0.15
3.25 0.625 -0.15
3.375 0.625 -0.15
3.5 0.625 -0.15
3.625 0.625 -0.15
3.75 0.625 -0.15
3.875 0.625 -0.15
4 0.625 -0.15
0 0.75 -0.15
0.125 0.75 -0.15
0.25 0.75 -0.15
0.375 0.75 -0.15
0.5 0.75 -0.15
0.625 0.75 -0.15
0.75 0.75 -0.15
0.875 0.75 -0.15
1 0.75 -0.15
1.125 0.75 -0.15
1.25 0.75 -0.15
1.375 0.75 -0.15
1.5 0.75 -0.15
1.625 0.75 -0.15
1.75 0.75 -0.15
1.875 0.75 -0.15
2 0.75 -0.15
2.125 0.75 -0.15
2.25 0.75 -0.15
2.375 0.75 -0.15
2.5 0.75 -0.15
2.625 0.75 -0.15
2.75 0.75 -0.15
2.875 0.75 -0.15
3 0.75 -0.15
3.125 0.75 -0.15
3.25 0.75 -0.15
3.375 0.75 -0.15
3.5 0.75 -0.15
3.625 0.75 -0.15
3.75 0.75 -0.15
3.875 0.75 -0.15
4 0.75 -0.15
0 0.875 -0.15
0.125 0.875 -0.15
0.25 0.875 -0.15
0.375 0.875 -0.15
0.5 0.875 -0.15
0.625 0.875 -0.15
0.75 0.875 -0.15
0.875 0.875 -0.15
1 0.875 -0.15
1.125 0.875 -0.15
1.25 0.875 -0.15
1.375 0.875 -0.15
1.5 0.875 -0.15
1.625 0.875 -0.15
1.75 0.875 -0.15
1.875 0.875 -0.15
2 0.875 -0.15
2.125 0.875 -0.15
2.25 0.875 -0.15
2.375 0.875 -0.15
2.5 0.875 -0.15
2.625 0.875 -0.15
2.75 0.875 -0.15
2.875 0.875 -0.15
3 0.875 -0.15
3.125 0.875 -0.15
3.25 0.875 -0.15
3.375 0.875 -0.15
3.5 0.875 -0.15
3.625 0.875 -0.15
3.75 0.875 -0.15
3.875 0.875 -0.15
4 0.875 -0.15
0 1 -0.15
0.125 1 -0.15
0.25 1 -0.15
0.375 1 -0.15
0.5 1 -0.15
0.625 1 -0.15
0.75 1 -0.15
0.875 1 -0.15
1 1 -0.15
1.125 1 -0.15
1.25 1 -0.15
1.375 1 -0.15
1.5 1 -0.15
1.625 1 -0.15
1.75 1 -0.15
1.875 1 -0.15
2 1 -0.15
2.125 1 -0.15
2.25 1 -0.15
2.375 1 -0.15
2.5 1 -0.15
2.625 1 -0.15
2.75 1 -0.15
2.875 1 -0.15
3 1 -0.15
3.125 1 -0.15
3.25 1 -0.15
3.375 1 -0.15
3.5 1 -0.15
3.625 1 -0.15
3.75 1 -0.15
3.875 1 -0.15
4 1 -0.15
0 0 -0.025
0.125 0 -0.025
0.25 0 -0.025
0.375 0 -0.025
0.5 0 -0.025
0.625 0 -0.025
0.75 0 -0.025
0.875 0 -0.025
1 0 -0.025
1.125 0 -0.025
1.25 0 -0.025
1.375 0 -0.025
1.5 0 -0.025
1.625 0 -0.025
1.75 0 -0.025
1.875 0 -0.025
2 0 -0.025
2.125 0 -0.025
2.25 0 -0.025
2.375 0 -0.025
2.5 0 -0.025
2.625 0 -0.025
2.75 0 -0.025
2.875 0 -0.025
3 0 -0.025
3.125 0 -0.025
3.25 0 -0.025
3.375 0 -0.025
3.5 0 -0.025
3.625 0 -0.025
3.75 0 -0.025
3.875 0 -0.025
4 0 -0.025
0 0.125 -0.025
0.125 0.125 -0.025
0.25 0.125 -0.025
0.375 0.125 -0.025
0.5 0.125 -0.025
0.625 0.125 -0.025
0.75 0.125 -0.025
0.875 0.125 -0.025
1 0.125 -0.025
1.125 0.125 -0.025
1.25 0.125 -0.025
1.375 0.125 -0.025
1.5 0.125 -0.025
1.625 0.125 -0.025
1.75 0.125 -0.025
1.875 0.125 -0.025
2 0.125 -0.025
2.125 0.125 -0.025
2.25 0.125 -0.025
2.375 0.125 -0.025
2.5 0.125 -0.025
2.625 0.125 -0.025
2.75 0.125 -0.025
2.875 0.125 -0.025
3 0.125 -0.025
3.125 0.125 -0.025
3.25 0.125 -0.025
3.375 0.125 -0.025
3.5 0.125 -0.025
3.625 0.125 -0.025
3.75 0.125 -0.025
3.875 0.125 -0.025
4 0.125 -0.025
0 0.25 -0.025
0.125 0.25 -0.025
0.25 0.25 -0.025
0.375 0.25 -0.025
0.5 0.25 -0.025
0.625 0.25 -0.025
0.75 0.25 -0.025
0.875 0.25 -0.025
1 0.25 -0.025
1.125 0.25 -0.025
1.25 0.25 -0.025
1.375 0.25 -0.025
1.5 0.25 -0.025
1.625 0.25 -0.025
1.75 0.25 -0.025
1.875 0.25 -0.025
2 0.25 -0.025
2.125 0.25 -0.025
2.25 0.25 -0.025
2.375 0.25 -0.025
2.5 0.25 -0.025
2.625 0.25 -0.025
2.75 0.25 -0.025
2.875 0.25 -0.025
3 0.25 -0.025
3.125 0.25 -0.025
3.25 0.25 -0.025
3.375 0.25 -0.025
3.5 0.25 -0.025
3.625 0.25 -0.025
3.75 0.25 -0.025
3.875 0.25 -0.025
4 0.25 -0.025
0 0.375 -0.025
0.125 0.375 -0.025
0.25 0.375 -0.025
0.375 0.375 -0.025
0.5 0.375 -0.025
0.625 0.375 -0.025
0.75 0.375 -0.025
0.875 0.375 -0.025
1 0.375 -0.025
1.125 0.375 -0.025
1.25 0.375 -0.025
1.375 0.375 -0.025
1.5 0.375 -0.025
1.625 0.375 -0.025
1.75 0.375 -0.025
1.875 0.375 -0.025
2 0.375 -0.025
2.125 0.375 -0.025
2.25 0.375 -0.025
2.375 0.375 -0.025
2.5 0.375 -0.025
2.625 0.375 -0.025
2.75 0.375 -0.025
2.875 0.375 -0.025
3 0.375 -0.025
3.125 0.375 -0.025
3.25 0.375 -0.025
3.375 0.375 -0.025
3.5 0.375 -0.025
3.625 0.375 -0.025
3.75 0.375 -0.025
3.875 0.375 -0.025
4 0.375 -0.025
0 0.5 -0.025
0.125 0.5 -0.025
0.25 0.5 -0.025
0.375 0.5 -0.025
0.5 0.5 -0.025
0.625 0.5 -0.025
0.75 0.5 -0.025
0.875 0.5 -0.025
1 0.5 -0.025
1.125 0.5 -0.025
1.25 0.5 -0.025
1.375 0.5 -0.025
1.5 0.5 -0.025
1.625 0.5 -0.025
1.75 0.5 -0.025
1.875 0.5 -0.025
2 0.5 -0.025
2.125 0.5 -0.025
2.25 0.5 -0.025
2.375 0.5 -0.025
2.5 0.5 -0.025
2.625 0.5 -0.025
2.75 0.5 -0.025
2.875 0.5 -0.025
3 0.5 -0.025
3.125 0.5 -0.025
3.25 0.5 -0.025
3.375 0.5 -0.025
3.5 0.5 -0.025
3.625 0.5 -0.025
3.75 0.5 -0.025
3.875 0.5 -0.025
4 0.5 -0.025
0 0.625 -0.025
0.125 0.625 -0.025
0.25 0.625 -0.025
0.375 0.625 -0.025
0.5 0.625 -0.025
0.625 0.625 -0.025
0.75 0.625 -0.025
0.875 0.625 -0.025
1 0.625 -0.025
1.125 0.625 -0.025
1.25 0.625 -0.025
1.375 0.625 -0.025
1.5 0.625 -0.025
1.625 0.625 -0.025
1.75 0.625 -0.025
1.875 0.625 -0.025
2 0.625 -0.025
2.125 0.625 -0.025
2.25 0.625 -0.025
2.375 0.625 -0.025
2.5 0.625 -0.025
2.625 0.625 -0.025
2.75 0.625 -0.025
2.875 0.625 -0.025
3 0.625 -0.025
3.125 0.625 -0.025
3.25 0.625 -0.025
3.375 0.625 -0.025
3.5 0.625 -0.025
3.625 0.625 -0.025
3.75 0.625 -0.025
3.875 0.625 -0.025
4 0.625 -0.025
0 0.75 -0.025
0.125 0.75 -0.025
0.25 0.75 -0.025
0.375 0.75 -0.025
0.5 0.75 -0.025
0.625 0.75 -0.025
0.75 0.75 -0.025
0.875 0.75 -0.025
1 0.75 -0.025
1.125 0.75 -0.025
1.25 0.75 -0.025
1.375 0.75 -0.025
1.5 0.75 -0.025
1.625 0.75 -0.025
1.75 0.75 -0.025
1.875 0.75 -0.025
2 0.75 -0.025
2.125 0.75 -0.025
2.25 0.75 -0.025
2.375 0.75 -0.025
2.5 0.75 -0.025
2.625 0.75 -0.025
2.75 0.75 -0.025
2.875 0.75 -0.025
3 0.75 -0.025
3.125 0.75 -0.025
3.25 0.75 -0.025
3.375 0.75 -0.025
3.5 0.75 -0.025
3.625 0.75 -0.025
3.75 0.75 -0.025
3.875 0.75 -0.025
4 0.75 -0.025
0 0.875 -0.025
0.125 0.875 -0.025
0.25 0.875 -0.025
0.375 0.875 -0.025
0.5 0.875 -0.025
0.625 0.875 -0.025
0.75 0.875 -0.025
0.875 0.875 -0.025
1 0.875 -0.025
1.125 0.875 -0.025
1.25 0.875 -0.025
1.375 0.875 -0.025
1.5 0.875 -0.025
1.625 0.875 -0.025
1.75 0.875 -0.025
1.875 0.875 -0.025
2 0.875 -0.025
2.125 0.875 -0.025
2.25 0.875 -0.025
2.375 0.875 -0.025
2.5 0.875 -0.025
2.625 0.875 -0.025
2.75 0.875 -0.025
2.875 0.875 -0.025
3 0.875 -0.025
3.125 0.875 -0.025
3.25 0.875 -0.025
3.375 0.875 -0.025
3.5 0.875 -0.025
3.625 0.875 -0.025
3.75 0.875 -0.025
3.875 0.875 -0.025
4 0.875 -0.025
0 1 -0.025
0.125 1 -0.025
0.25 1 -0.025
0.375 1 -0.025
0.5 1 -0.025
0.625 1 -0.025
0.75 1 -0.025
0.875 1 -0.025
1 1 -0.025
1.125 1 -0.025
1.25 1 -0.025
1.375 1 -0.025
1.5 1 -0.025
1.625 1 -0.025
1.75 1 -0.025
1.875 1 -0.025
2 1 -0.025
2.125 1 -0.025
2.25 1 -0.025
2.375 1 -0.025
2.5 1 -0.025
2.625 1 -0.025
2.75 1 -0.025
2.875 1 -0.025
3 1 -0.025
3.125 1 -0.025
3.25 1 -0.025
3.375 1 -0.025
3.5 1 -0.025
3.625 1 -0.025
3.75 1 -0.025
3.875 1 -0.025
4 1 -0.025
0 0 0.1
0.125 0 0.1
0.25 0 0.1
0.375 0 0.1
0.5 0 0.1
0.625 0 0.1
0.75 0 0.1
0.875 0 0.1
1 0 0.1
1.125 0 0.1
1.25 0 0.1
1.375 0 0.1
1.5 0 0.1
1.625 0 0.1
1.75 0 0.1
1.875 0 0.1
2 0 0.1
2.125 0 0.1
2.25 0 0.1
2.375 0 0.1
2.5 0 0.1
2.625 0 0.1
2.75 0 0.1
2.875 0 0.1
3 0 0.1
3.125 0 0.1
3.25 0 0.1
3.375 0 0.1
3.5 0 0.1
3.625 0 0.1
3.75 0 0.1
3.875 0 0.1
4 0 0.1
0 0.125 0.1
0.125 0.125 0.1
0.25 0.125 0.1
0.375 0.125 0.1
0.5 0.125 0.1
0.625 0.125 0.1
0.75 0.125 0.1
0.875 0.125 0.1
1 0.125 0.1
1.125 0.125 0.1
1.25 0.125 0.1
1.375 0.125 0.1
1.5 0.125 0.1
1.625 0.125 0.1
1.75 0.125 0.1
1.875 0.125 0.1
2 0.125 0.1
2.125 0.125 0.1
2.25 0.125 0.1
2.375 0.125 0.1
2.5 0.125 0.1
2.625 0.125 0.1
2.75 0.125 0.1
2.875 0.125 0.1
3 0.125 0.1
3.125 0.125 0.1
3.25 0.125 0.1
3.375 0.125 0.1
3.5 0.125 0.1
3.625 0.125 0.1
3.75 0.125 0.1
3.875 0.125 0.1
4 0.125 0.1
0 0.25 0.1
0.125 0.25 0.1
0.25 0.25 0.1
0.375 0.25 0.1
0.5 0.25 0.1
0.625 0.25 0.1
0.75 0.25 0.1
0.875 0.25 0.1
1 0.25 0.1
1.125 0.25 0.1
1.25 0.25 0.1
1.375 0.25 0.1
1.5 0.25 0.1
1.625 0.25 0.1
1.75 0.25 0.1
1.875 0.25 0.1
2 0.25 0.1
2.125 0.25 0.1
2.25 0.25 0.1
2.375 0.25 0.1
2.5 0.25 0.1
2.625 0.25 0.1
2.75 0.25 0.1
2.875 0.25 0.1
3 0.25 0.1
3.125 0.25 0.1
3.25 0.25 0.1
3.375 0.25 0.1
3.5 0.25 0.1
3.625 0.25 0.1
3.75 0.25 0.1
3.875 0.25 0.1
4 0.25 0.1
0 0.375 0.1
0.125 0.375 0.1
0.25 0.375 0.1
0.375 0.375 0.1
0.5 0.375 0.1
0.625 0.375 0.1
0.75 0.375 0.1
0.875 0.375 0.1
1 0.375 0.1
1.125 0.375 0.1
1.25 0.375 0.1
1.375 0.375 0.1
1.5 0.375 0.1
1.625 0.375 0.1
1.75 0.375 0.1
1.875 0.375 0.1
2 0.375 0.1
2.125 0.375 0.1
2.25 0.375 0.1
2.375 0.375 0.1
2.5 0.375 0.1
2.625 0.375 0.1
2.75 0.375 0.1
2.875 0.375 0.1
3 0.375 0.1
3.125 0.375 0.1
3.25 0.375 0.1
3.375 0.375 0.1
3.5 0.375 0.1
3.625 0.375 0.1
3.75 0.375 0.1
3.875 0.375 0.1
4 0.375 0.1
0 0.5 0.1
0.125 0.5 0.1
0.25 0.5 0.1
0.375 0.5 0.1
0.5 0.5 0.1
0.625 0.5 0.1
0.75 0.5 0.1
0.875 0.5 0.1
1 0.5 0.1
1.125 0.5 0.1
1.25 0.5 0.1
1.375 0.5 0.1
1.5 0.5 0.1
1.625 0.5 0.1
1.75 0.5 0.1
1.875 0.5 0.1
2 0.5 0.1
2.125 0.5 0.1
2.25 0.5 0.1
2.375 0.5 0.1
2.5 0.5 0.1
2.625 0.5 0.1
2.75 0.5 0.1
2.875 0.5 0.1
3 0.5 0.1
3.125 0.5 0.1
3.25 0.5 0.1
3.375 0.5 0.1
3.5 0.5 0.1
3.625 0.5 0.1
3.75 0.5 0.1
3.875 0.5 0.1
4 0.5 0.1
0 0.625 0.1
0.125 0.625 0.1
0.25 0.625 0.1
0.375 0.625 0.1
0.5 0.625 0.1
0.625 0.625 0.1
0.75 0.625 0.1
0.875 0.625 0.1
1 0.625 0.1
1.125 0.625 0.1
1.25 0.625 0.1
1.375 0.625 0.1
1.5 0.625 0.1
1.625 0.625 0.1
1.75 0.625 0.1
1.875 0.625 0.1
2 0.625 0.1
2.125 0.625 0.1
2.25 0.625 0.1
2.375 0.625 0.1
2.5 0.625 0.1
2.625 0.625 0.1
2.75 0.625 0.1
2.875 0.625 0.1
3 0.625 0.1
3.125 0.625 0.1
3.25 0.625 0.1
3.375 0.625 0.1
3.5 0.625 0.1
3.625 0.625 0.1
3.75 0.625 0.1
3.875 0.625 0.1
4 0.625 0.1
0 0.75 0.1
0.125 0.75 0.1
0.25 0.75 0.1
0.375 0.75 0.1
0.5 0.75 0.1
0.625 0.75 0.1
0.75 0.75 0.1
0.875 0.75 0.1
1 0.75 0.1
1.125 0.75 0.1
1.25 0.75 0.1
1.375 0.75 0.1
1.5 0.75 0.1
1.625 0.75 0.1
1.75 0.75 0.1
1.875 0.75 0.1
2 0.75 0.1
2.125 0.75 0.1
2.25 0.75 0.1
2.375 0.75 0.1
2.5 0.75 0.1
2.625 0.75 0.1
2.75 0.75 0.1
2.875 0.75 0.1
3 0.75 0.1
3.125 0.75 0.1
3.25 0.75 0.1
3.375 0.75 0.1
3.5 0.75 0.1
3.625 0.75 0.1
3.75 0.75 0.1
3.875 0.75 0.1
4 0.75 0.1
0 0.875 0.1
0.125 0.875 0.1
0.25 0.875 0.1
0.375 0.875 0.1
0.5 0.875 0.1
0.625 0.875 0.1
0.75 0.875 0.1
0.875 0.875 0.1
1 0.875 0.1
1.125 0.875 0.1
1.25 0.875 0.1
1.375 0.875 0.1
1.5 0.875 0.1
1.625 0.875 0.1
1.75 0.875 0.1
1.875 0.875 0.1
2 0.875 0.1
2.125 0.875 0.1
2.25 0.875 0.1
2.375 0.875 0.1
2.5 0.875 0.1
2.625 0.875 0.1
2.75 0.875 0.1
2.875 0.875 0.1
3 0.875 0.1
3.125 0.875 0.1
3.25 0.875 0.1
3.375 0.875 0.1
3.5 0.875 0.1
3.625 0.875 0.1
3.75 0.875 0.1
3.875 0.875 0.1
4 0.875 0.1
0 1 0.1
0.125 1 0.1
0.25 1 0.1
0.375 1 0.1
0.5 1 0.1
0.625 1 0.1
0.75 1 0.1
0.875 1 0.1
1 1 0.1
1.125 1 0.1
1.25 1 0.1
1.375 1 0.1
1.5 1 0.1
1.625 1 0.1
1.75 1 0.1
1.875 1 0.1
2 1 0.1
2.125 1 0.1
2.25 1 0.1
2.375 1 0.1
2.5 1 0.1
2.625 1 0.1
2.75 1 0.1
2.875 1 0.1
3 1 0.1
3.125 1 0.1
3.25 1 0.1
3.375 1 0.1
3.5 1 0.1
3.625 1 0.1
3.75 1 0.1
3.875 1 0.1
4 1 0.1
0 0 0.225
0.125 0 0.225
0.25 0 0.225
0.375 0 0.225
0.5 0 0.225
0.625 0 0.225
0.75 0 0.225
0.875 0 0.225
1 0 0.225
1.125 0 0.225
1.25 0 0.225
1.375 0 0.225
1.5 0 0.225
1.625 0 0.225
1.75 0 0.225
1.875 0 0.225
2 0 0.225
2.125 0 0.225
2.25 0 0.225
2.375 0 0.225
2.5 0 0.225
2.625 0 0.225
2.75 0 0.225
2.875 0 0.225
3 0 0.225
3.125 0 0.225
3.25 0 0.225
3.375 0 0.225
3.5 0 0.225
3.625 0 0.225
3.75 0 0.225
3.875 0 0.225
4 0 0.225
0 0.125 0.225
0.125 0.125 0.225
0.25 0.125 0.225
0.375 0.125 0.225
0.5 0.125 0.225
0.625 0.125 0.225
0.75 0.125 0.225
0.875 0.125 0.225
1 0.125 0.225
1.125 0.125 0.225
1.25 0.125 0.225
1.375 0.125 0.225
1.5 0.125 0.225
1.625 0.125 0.225
1.75 0.125 0.225
1.875 0.125 0.225
2 0.125 0.225
2.125 0.125 0.225
2.25 0.125 0.225
2.375 0.125 0.225
2.5 0.125 0.225
2.625 0.125 0.225
2.75 0.125 0.225
2.875 0.125 0.225
3 0.125 0.225
3.125 0.125 0.225
3.25 0.125 0.225
3.375 0.125 0.225
3.5 0.125 0.225
3.625 0.125 0.225
3.75 0.125 0.225
3.875 0.125 0.225
4 0.125 0.225
0 0.25 0.225
0.125 0.25 0.225
0.25 0.25 0.225
0.375 0.25 0.225
0.5 0.25 0.225
0.625 0.25 0.225
0.75 0.25 0.225
0.875 0.25 0.225
1 0.25 0.225
1.125 0.25 0.225
1.25 0.25 0.225
1.375 0.25 0.225
1.5 0.25 0.225
1.625 0.25 0.225
1.75 0.25 0.225
1.875 0.25 0.225
2 0.25 0.225
2.125 0.25 0.225
2.25 0.25 0.225
2.375 0.25 0.225
2.5 0.25 0.225
2.625 0.25 0.225
2.75 0.25 0.225
2.875 0.25 0.225
3 0.25 0.225
3.125 0.25 0.225
3.25 0.25 0.225
3.375 0.25 0.225
3.5 0.25 0.225
3.625 0.25 0.225
3.75 0.25 0.225
3.875 0.25 0.225
4 0.25 0.225
0 0.375 0.225
0.125 0.375 0.225
0.25 0.375 0.225
0.375 0.375 0.225
0.5 0.375 0.225
0.625 0.375 0.225
0.75 0.375 0.225
0.875 0.375 0.225
1 0.375 0.225
1.125 0.375 0.225
1.25 0.375 0.225
1.375 0.375 0.225
1.5 0.375 0.225
1.625 0.375 0.225
1.75 0.375 0.225
1.875 0.375 0.225
2 0.375 0.225
2.125 0.375 0.225
2.25 0.375 0.225
2.375 0.375 0.225
2.5 0.375 0.225
2.625 0.375 0.225
2.75 0.375 0.225
2.875 0.375 0.225
3 0.375 0.225
3.125 0.375 0.225
3.25 0.375 0.225
3.375 0.375 0.225
3.5 0.375 0.225
3.625 0.375 0.225
3.75 0.375 0.225
3.875 0.375 0.225
4 0.375 0.225
0 0.5 0.225
0.125 0.5 0.225
0.25 0.5 0.225
0.375 0.5 0.225
0.5 0.5 0.225
0.625 0.5 0.225
0.75 0.5 0.225
0.875 0.5 0.225
1 0.5 0.225
1.125 0.5 0.225
1.25 0.5 0.225
1.375 0.5 0.225
1.5 0.5 0.225
1.625 0.5 0.225
1.75 0.5 0.225
1.875 0.5 0.225
2 0.5 0.225
2.125 0.5 0.225
2.25 0.5 0.225
2.375 0.5 0.225
2.5 0.5 0.225
2.625 0.5 0.225
2.75 0.5 0.225
2.875 0.5 0.225
3 0.5 0.225
3.125 0.5 0.225
3.25 0.5 0.225
3.375 0.5 0.225
3.5 0.5 0.225
3.625 0.5 0.225
3.75 0.5 0.225
3.875 0.5 0.225
4 0.5 0.225
0 0.625 0.225
0.125 0.625 0.225
0.25 0.625 0.225
0.375 0.625 0.225
0.5 0.625 0.225
0.625 0.625 0.225
0.75 0.625 0.225
0.875 0.625 0.225
1 0.625 0.225
1.125 0.625 0.225
1.25 0.625 0.225
1.375 0.625 0.225
1.5 0.625 0.225
1.625 0.625 0.225
1.75 0.625 0.225
1.875 0.625 0.225
2 0.625 0.225
2.125 0.625 0.225
2.25 0.625 0.225
2.375 0.625 0.225
2.5 0.625 0.225
2.625 0.625 0.225
2.75 0.625 0.225
2.875 0.625 0.225
3 0.625 0.225
3.125 0.625 0.225
3.25 0.625 0.225
3.375 0.625 0.225
3.5 0.625 0.225
3.625 0.625 0.225
3.75 0.625 0.225
3.875 0.625 0.225
4 0.625 0.225
0 0.75 0.225
0.125 0.75 0.225
0.25 0.75 0.225
0.375 0.75 0.225
0.5 0.75 0.225
0.625 0.75 0.225
0.75 0.75 0.225
0.875 0.75 0.225
1 0.75 0.225
1.125 0.75 0.225
1.25 0.75 0.225
1.375 0.75 0.225
1.5 0.75 0.225
1.625 0.75 0.225
1.75 0.75 0.225
1.875 0.75 0.225
2 0.75 0.225
2.125 0.75 0.225
2.25 0.75 0.225
2.375 0.75 0.225
2.5 0.75 0.225
2.625 0.75 0.225
2.75 0.75 0.225
2.875 0.75 0.225
3 0.75 0.225
3.125 0.75 0.225
3.25 0.75 0.225
3.375 0.75 0.225
3.5 0.75 0.225
3.625 0.75 0.225
3.75 0.75 0.225
3.875 0.75 0.225
4 0.75 0.225
0 0.875 0.225
0.125 0.875 0.225
0.25 0.875 0.225
0.375 0.875 0.225
0.5 0.875 0.225
0.625 0.875 0.225
0.75 0.875 0.225
0.875 0.875 0.225
1 0.875 0.225
1.125 0.875 0.225
1.25 0.875 0.225
1.375 0.875 0.225
1.5 0.875 0.225
1.625 0.875 0.225
1.75 0.875 0.225
1.875 0.875 0.225
2 0.875 0.225
2.125 0.875 0.225
2.25 0.875 0.225
2.375 0.875 0.225
2.5 0.875 0.225
2.625 0.875 0.225
2.75 0.875 0.225
2.875 0.875 0.225
3 0.875 0.225
3.125 0.875 0.225
3.25 0.875 0.225
3.375 0.875 0.225
3.5 0.875 0.225
3.625 0.875 0.225
3.75 0.875 0.225
3.875 0.875 0.225
4 0.875 0.225
0 1 0.225
0.125 1 0.225
0.25 1 0.225
0.375 1 0.225
0.5 1 0.225
0.625 1 0.225
0.75 1 0.225
0.875 1 0.225
1 1 0.225
1.125 1 0.225
1.25 1 0.225
1.375 1 0.225
1.5 1 0.225
1.625 1 0.225
1.75 1 0.225
1.875 1 0.225
2 1 0.225
2.125 1 0.225
2.25 1 0.225
2.375 1 0.225
2.5 1 0.225
2.625 1 0.225
2.75 1 0.225
2.875 1 0.225
3 1 0.225
3.125 1 0.225
3.25 1 0.225
3.375 1 0.225
3.5 1 0.225
3.625 1 0.225
3.75 1 0.225
3.875 1 0.225
4 1 0.225
0 0 0.35
0.125 0 0.35
0.25 0 0.35
0.375 0 0.35
0.5 0 0.35
0.625 0 0.35
0.75 0 0.35
0.875 0 0.35
1 0 0.35
1.125 0 0.35
1.25 0 0.35
1.375 0 0.35
1.5 0 0.35
1.625 0 0.35
1.75 0 0.35
1.875 0 0.35
2 0 0.35
2.125 0 0.35
2.25 0 0.35
2.375 0 0.35
2.5 0 0.35
2.625 0 0.35
2.75 0 0.35
2.875 0 0.35
3 0 0.35
3.125 0 0.35
3.25 0 0.35
3.375 0 0.35
3.5 0 0.35
3.625 0 0.35
3.75 0 0.35
3.875 0 0.35
4 0 0.35
0 0.125 0.35
0.125 0.125 0.35
0.25 0.125 0.35
0.375 0.125 0.35
0.5 0.125 0.35
0.625 0.125 0.35
0.75 0.125 0.35
0.875 0.125 0.35
1 0.125 0.35
1.125 0.125 0.35
1.25 0.125 0.35
1.375 0.125 0.35
1.5 0.125 0.35
1.625 0.125 0.35
1.75 0.125 0.35
1.875 0.125 0.35
2 0.125 0.35
2.125 0.125 0.35
2.25 0.125 0.35
2.375 0.125 0.35
2.5 0.125 0.35
2.625 0.125 0.35
2.75 0.125 0.35
2.875 0.125 0.35
3 0.125 0.35
3.125 0.125 0.35
3.25 0.125 0.35
3.375 0.125 0.35
3.5 0.125 0.35
3.625 0.125 0.35
3.75 0.125 0.35
3.875 0.125 0.35
4 0.125 0.35
0 0.25 0.35
0.125 0.25 0.35
0.25 0.25 0.35
0.375 0.25 0.35
0.5 0.25 0.35
0.625 0.25 0.35
0.75 0.25 0.35
0.875 0.25 0.35
1 0.25 0.35
1.125 0.25 0.35
1.25 0.25 0.35
1.375 0.25 0.35
1.5 0.25 0.35
1.625 0.25 0.35
1.75 0.25 0.35
1.875 0.25 0.35
2 0.25 0.35
2.125 0.25 0.35
2.25 0.25 0.35
2.375 0.25 0.35
2.5 0.25 0.35
2.625 0.25 0.35
2.75 0.25 0.35
2.875 0.25 0.35
3 0.25 0.35
3.125 0.25 0.35
3.25 0.25 0.35
3.375 0.25 0.35
3.5 0.25 0.35
3.625 0.25 0.35
3.75 0.25 0.35
3.875 0.25 0.35
4 0.25 0.35
0 0.375 0.35
0.125 0.375 0.35
0.25 0.375 0.35
0.375 0.375 0.35
0.5 0.375 0.35
0.625 0.375 0.35
0.75 0.375 0.35
0.875 0.375 0.35
1 0.375 0.35
1.125 0.375 0.35
1.25 0.375 0.35
1.375 0.375 0.35
1.5 0.375 0.35
1.625 0.375 0.35
1.75 0.375 0.35
1.875 0.375 0.35
2 0.375 0.35
2.125 0.375 0.35
2.25 0.375 0.35
2.375 0.375 0.35
2.5 0.375 0.35
2.625 0.375 0.35
2.75 0.375 0.35
2.875 0.375 0.35
3 0.375 0.35
3.125 0.375 0.35
3.25 0.375 0.35
3.375 0.375 0.35
3.5 0.375 0.35
3.625 0.375 0.35
3.75 0.375 0.35
3.875 0.375 0.35
4 0.375 0.35
0 0.5 0.35
0.125 0.5 0.35
0.25 0.5 0.35
0.375 0.5 0.35
0.5 0.5 0.35
0.625 0.5 0.35
0.75 0.5 0.35
0.875 0.5 0.35
1 0.5 0.35
1.125 0.5 0.35
1.25 0.5 0.35
1.375 0.5 0.35
1.5 0.5 0.35
1.625 0.5 0.35
1.75 0.5 0.35
1.875 0.5 0.35
2 0.5 0.35
2.125 0.5 0.35
2.25 0.5 0.35
2.375 0.5 0.35
2.5 0.5 0.35
2.625 0.5 0.35
2.75 0.5 0.35
2.875 0.5 0.35
3 0.5 0.35
3.125 0.5 0.35
3.25 0.5 0.35
3.375 0.5 0.35
3.5 0.5 0.35
3.625 0.5 0.35
3.75 0.5 0.35
3.875 0.5 0.35
4 0.5 0.35
0 0.625 0.35
0.125 0.625 0.35
0.25 0.625 0.35
0.375 0.625 0.35
0.5 0.625 0.35
0.625 0.625 0.35
0.75 0.625 0.35
0.875 0.625 0.35
1 0.625 0.35
1.125 0.625 0.35
1.25 0.625 0.35
1.375 0.625 0.35
1.5 0.625 0.35
1.625 0.625 0.35
1.75 0.625 0.35
1.875 0.625 0.35
2 0.625 0.35
2.125 0.625 0.35
2.25 0.625 0.35
2.375 0.625 0.35
2.5 0.625 0.35
2.625 0.625 0.35
2.75 0.625 0.35
2.875 0.625 0.35
3 0.625 0.35
3.125 0.625 0.35
3.25 0.625 0.35
3.375 0.625 0.35
3.5 0.625 0.35
3.625 0.625 0.35
3.75 0.625 0.35
3.875 0.625 0.35
4 0.625 0.35
0 0.75 0.35
0.125 0.75 0.35
0.25 0.75 0.35
0.375 0.75 0.35
0.5 0.75 0.35
0.625 0.75 0.35
0.75 0.75 0.35
0.875 0.75 0.35
1 0.75 0.35
1.125 0.75 0.35
1.25 0.75 0.35
1.375 0.75 0.35
1.5 0.75 0.35
1.625 0.75 0.35
1.75 0.75 0.35
1.875 0.75 0.35
2 0.75 0.35
2.125 0.75 0.35
2.25 0.75 0.35
2.375 0.75 0.35
2.5 0.75 0.35
2.625 0.75 0.35
2.75 0.75 0.35
2.875 0.75 0.35
3 0.75 0.35
3.125 0.75 0.35
3.25 0.75 0.35
3.375 0.75 0.35
3.5 0.75 0.35
3.625 0.75 0.35
3.75 0.75 0.35
3.875 0.75 0.35
4 0.75 0.35
0 0.875 0.35
0.125 0.875 0.35
0.25 0.875 0.35
0.375 0.875 0.35
0.5 0.875 0.35
0.625 0.875 0.35
0.75 0.875 0.35
0.875 0.875 0.35
1 0.875 0.35
1.125 0.875 0.35
1.25 0.875 0.35
1.375 0.875 0.35
1.5 0.875 0.35
1.625 0.875 0.35
1.75 0.875 0.35
1.875 0.875 0.35
2 0.875 0.35
2.125 0.875 0.35
2.25 0.875 0.35
2.375 0.875 0.35
2.5 0.875 0.35
2.625 0.875 0.35
2.75 0.875 0.35
2.875 0.875 0.35
3 0.875 0.35
3.125 0.875 0.35
3.25 0.875 0.35
3.375 0.875 0.35
3.5 0.875 0.35
3.625 0.875 0.35
3.75 0.875 0.35
3.875 0.875 0.35
4 0.875 0.35
0 1 0.35
0.125 1 0.35
0.25 1 0.35
0.375 1 0.35
0.5 1 0.35
0.625 1 0.35
0.75 1 0.35
0.875 1 0.35
1 1 0.35
1.125 1 0.35
1.25 1 0.35
1.375 1 0.35
1.5 1 0.35
1.625 1 0.35
1.75 1 0.35
1.875 1 0.35
2 1 0.35
2.125 1 0.35
2.25 1 0.35
2.375 1 0.35
2.5 1 0.35
2.625 1 0.35
2.75 1 0.35
2.875 1 0.35
3 1 0.35
3.125 1 0.35
3.25 1 0.35
3.375 1 0.35
3.5 1 0.35
3.625 1 0.35
3.75 1 0.35
3.875 1 0.35
4 1 0.35
0 0 0.475
0.125 0 0.475
0.25 0 0.475
0.375 0 0.475
0.5 0 0.475
0.625 0 0.475
0.75 0 0.475
0.875 0 0.475
1 0 0.475
1.125 0 0.475
1.25 0 0.475
1.375 0 0.475
1.5 0 0.475
1.625 0 0.475
1.75 0 0.475
1.875 0 0.475
2 0 0.475
2.125 0 0.475
2.25 0 0.475
2.375 0 0.475
2.5 0 0.475
2.625 0 0.475
2.75 0 0.475
2.875 0 0.475
3 0 0.475
3.125 0 0.475
3.25 0 0.475
3.375 0 0.475
3.5 0 0.475
3.625 0 0.475
3.75 0 0.475
3.875 0 0.475
4 0 0.475
0 0.125 0.475
0.125 0.125 0.475
0.25 0.125 0.475
0.375 0.125 0.475
0.5 0.125 0.475
0.625 0.125 0.475
0.75 0.125 0.475
0.875 0.125 0.475
1 0.125 0.475
1.125 0.125 0.475
1.25 0.125 0.475
1.375 0.125 0.475
1.5 0.125 0.475
1.625 0.125 0.475
1.75 0.125 0.475
1.875 0.125 0.475
2 0.125 0.475
2.125 0.125 0.475
2.25 0.125 0.475
2.375 0.125 0.475
2.5 0.125 0.475
2.625 0.125 0.475
2.75 0.125 0.475
2.875 0.125 0.475
3 0.125 0.475
3.125 0.125 0.475
3.25 0.125 0.475
3.375 0.125 0.475
3.5 0.125 0.475
3.625 0.125 0.475
3.75 0.125 0.475
3.875 0.125 0.475
4 0.125 0.475
0 0.25 0.475
0.125 0.25 0.475
0.25 0.25 0.475
0.375 0.25 0.475
0.5 0.25 0.475
0.625 0.25 0.475
0.75 0.25 0.475
0.875 0.25 0.475
1 0.25 0.475
1.125 0.25 0.475
1.25 0.25 0.475
1.375 0.25 0.475
1.5 0.25 0.475
1.625 0.25 0.475
1.75 0.25 0.475
1.875 0.25 0.475
2 0.25 0.475
2.125 0.25 0.475
2.25 0.25 0.475
2.375 0.25 0.475
2.5 0.25 0.475
2.625 0.25 0.475
2.75 0.25 0.475
2.875 0.25 0.475
3 0.25 0.475
3.125 0.25 0.475
3.25 0.25 0.475
3.375 0.25 0.475
3.5 0.25 0.475
3.625 0.25 0.475
3.75 0.25 0.475
3.875 0.25 0.475
4 0.25 0.475
0 0.375 0.475
0.125 0.375 0.475
0.25 0.375 0.475
0.375 0.375 0.475
0.5 0.375 0.475
0.625 0.375 0.475
0.75 0.375 0.475
0.875 0.375 0.475
1 0.375 0.475
1.125 0.375 0.475
1.25 0.375 0.475
1.375 0.375 0.475
1.5 0.375 0.475
1.625 0.375 0.475
1.75 0.375 0.475
1.875 0.375 0.475
2 0.375 0.475
2.125 0.375 0.475
2.25 0.375 0.475
2.375 0.375 0.475
2.5 0.375 0.475
2.625 0.375 0.475
2.75 0.375 0.475
2.875 0.375 0.475
3 0.375 0.475
3.125 0.375 0.475
3.25 0.375 0.475
3.375 0.375 0.475
3.5 0.375 0.475
3.625 0.375 0.475
3.75 0.375 0.475
3.875 0.375 0.475
4 0.375 0.475
0 0.5 0.475
0.125 0.5 0.475
0.25 0.5 0.475
0.375 0.5 0.475
0.5 0.5 0.475
0.625 0.5 0.475
0.75 0.5 0.475
0.875 0.5 0.475
1 0.5 0.475
1.125 0.5 0.475
1.25 0.5 0.475
1.375 0.5 0.475
1.5 0.5 0.475
1.625 0.5 0.475
1.75 0.5 0.475
1.875 0.5 0.475
2 0.5 0.475
2.125 0.5 0.475
2.25 0.5 0.475
2.375 0.5 0.475
2.5 0.5 0.475
2.625 0.5 0.475
2.75 0.5 0.475
2.875 0.5 0.475
3 0.5 0.475
3.125 0.5 0.475
3.25 0.5 0.475
3.375 0.5 0.475
3.5 0.5 0.475
3.625 0.5 0.475
3.75 0.5 0.475
3.875 0.5 0.475
4 0.5 0.475
0 0.625 0.475
0.125 0.625 0.475
0.25 0.625 0.475
0.375 0.625 0.475
0.5 0.625 0.475
0.625 0.625 0.475
0.75 0.625 0.475
0.875 0.625 0.475
1 0.625 0.475
1.125 0.625 0.475
1.25 0.625 0.475
1.375 0.625 0.475
1.5 0.625 0.475
1.625 0.625 0.475
1.75 0.625 0.475
1.875 0.625 0.475
2 0.625 0.475
2.125 0.625 0.475
2.25 0.625 0.475
2.375 0.625 0.475
2.5 0.625 0.475
2.625 0.625 0.475
2.75 0.625 0.475
2.875 0.625 0.475
3 0.625 0.475
3.125 0.625 0.475
3.25 0.625 0.475
3.375 0.625 0.475
3.5 0.625 0.475
3.625 0.625 0.475
3.75 0.625 0.475
3.875 0.625 0.475
4 0.625 0.475
0 0.75 0.475
0.125 0.75 0.475
0.25 0.75 0.475
0.375 0.75 0.475
0.5 0.75 0.475
0.625 0.75 0.475
0.75 0.75 0.475
0.875 0.75 0.475
1 0.75 0.475
1.125 0.75 0.475
1.25 0.75 0.475
1.375 0.75 0.475
1.5 0.75 0.475
1.625 0.75 0.475
1.75 0.75 0.475
1.875 0.75 0.475
2 0.75 0.475
2.125 0.75 0.475
2.25 0.75 0.475
2.375 0.75 0.475
2.5 0.75 0.475
2.625 0.75 0.475
2.75 0.75 0.475
2.875 0.75 0.475
3 0.75 0.475
3.125 0.75 0.475
3.25 0.75 0.475
3.375 0.75 0.475
3.5 0.75 0.475
3.625 0.75 0.475
3.75 0.75 0.475
3.875 0.75 0.475
4 0.75 0.475
0 0.875 0.475
0.125 0.875 0.475
0.25 0.875 0.475
0.375 0.875 0.475
0.5 0.875 0.475
0.625 0.875 0.475
0.75 0.875 0.475
0.875 0.875 0.475
1 0.875 0.475
1.125 0.875 0.475
1.25 0.875 0.475
1.375 0.875 0.475
1.5 0.875 0.475
1.625 0.875 0.475
1.75 0.875 0.475
1.875 0.875 0.475
2 0.875 0.475
2.125 0.875 0.475
2.25 0.875 0.475
2.375 0.875 0.475
2.5 0.875 0.475
2.625 0.875 0.475
2.75 0.875 0.475
2.875 0.875 0.475
3 0.875 0.475
3.125 0.875 0.475
3.25 0.875 0.475
3.375 0.875 0.475
3.5 0.875 0.475
3.625 0.875 0.475
3.75 0.875 0.475
3.875 0.875 0.475
4 0.875 0.475
0 1 0.475
0.125 1 0.475
0.25 1 0.475
0.375 1 0.475
0.5 1 0.475
0.625 1 0.475
0.75 1 0.475
0.875 1 0.475
1 1 0.475
1.125 1 0.475
1.25 1 0.475
1.375 1 0.475
1.5 1 0.475
1.625 1 0.475
1.75 1 0.475
1.875 1 0.475
2 1 0.475
2.125 1 0.475
2.25 1 0.475
2.375 1 0.475
2.5 1 0.475
2.625 1 0.475
2.75 1 0.475
2.875 1 0.475
3 1 0.475
3.125 1 0.475
3.25 1 0.475
3.375 1 0.475
3.5 1 0.475
3.625 1 0.475
3.75 1 0.475
3.875 1 0.475
4 1 0.475
0 0 0.6
0.125 0 0.6
0.25 0 0.6
0.375 0 0.6
0.5 0 0.6
0.625 0 0.6
0.75 0 0.6
0.875 0 0.6
1 0 0.6
1.125 0 0.6
1.25 0 0.6
1.375 0 0.6
1.5 0 0.6
1.625 0 0.6
1.75 0 0.6
1.875 0 0.6
2 0 0.6
2.125 0 0.6
2.25 0 0.6
2.375 0 0.6
2.5 0 0.6
2.625 0 0.6
2.75 0 0.6
2.875 0 0.6
3 0 0.6
3.125 0 0.6
3.25 0 0.6
3.375 0 0.6
3.5 0 0.6
3.625 0 0.6
3.75 0 0.6
3.875 0 0.6
4 0 0.6
0 0.125 0.6
0.125 0.125 0.6
0.25 0.125 0.6
0.375 0.125 0.6
0.5 0.125 0.6
0.625 0.125 0.6
0.75 0.125 0.6
0.875 0.125 0.6
1 0.125 0.6
1.125 0.125 0.6
1.25 0.125 0.6
1.375 0.125 0.6
1.5 0.125 0.6
1.625 0.125 0.6
1.75 0.125 0.6
1.875 0.125 0.6
2 0.125 0.6
2.125 0.125 0.6
2.25 0.125 0.6
2.375 0.125 0.6
2.5 0.125 0.6
2.625 0.125 0.6
2.75 0.125 0.6
2.875 0.125 0.6
3 0.125 0.6
3.125 0.125 0.6
3.25 0.125 0.6
3.375 0.125 0.6
3.5 0.125 0.6
3.625 0.125 0.6
3.75 0.125 0.6
3.875 0.125 0.6
4 0.125 0.6
0 0.25 0.6
0.125 0.25 0.6
0.25 0.25 0.6
0.375 0.25 0.6
0.5 0.25 0.6
0.625 0.25 0.6
0.75 0.25 0.6
0.875 0.25 0.6
1 0.25 0.6
1.125 0.25 0.6
1.25 0.25 0.6
1.375 0.25 0.6
1.5 0.25 0.6
1.625 0.25 0.6
1.75 0.25 0.6
1.875 0.25 0.6
2 0.25 0.6
2.125 0.25 0.6
2.25 0.25 0.6
2.375 0.25 0.6
2.5 0.25 0.6
2.625 0.25 0.6
2.75 0.25 0.6
2.875 0.25 0.6
3 0.25 0.6
3.125 0.25 0.6
3.25 0.25 0.6
3.375 0.25 0.6
3.5 0.25 0.6
3.625 0.25 0.6
3.75 0.25 0.6
3.875 0.25 0.6
4 0.25 0.6
0 0.375 0.6
0.125 0.375 0.6
0.25 0.375 0.6
0.375 0.375 0.6
0.5 0.375 0.6
0.625 0.375 0.6
0.75 0.375 0.6
0.875 0.375 0.6
1 0.375 0.6
1.125 0.375 0.6
1.25 0.375 0.6
1.375 0.375 0.6
1.5 0.375 0.6
1.625 0.375 0.6
1.75 0.375 0.6
1.875 0.375 0.6
2 0.375 0.6
2.125 0.375 0.6
2.25 0.375 0.6
2.375 0.375 0.6
2.5 0.375 0.6
2.625 0.375 0.6
2.75 0.375 0.6
2.875 0.375 0.6
3 0.375 0.6
3.125 0.375 0.6
3.25 0.375 0.6
3.375 0.375 0.6
3.5 0.375 0.6
3.625 0.375 0.6
3.75 0.375 0.6
3.875 0.375 0.6
4 0.375 0.6
0 0.5 0.6
0.125 0.5 0.6
0.25 0.5 0.6
0.375 0.5 0.6
0.5 0.5 0.6
0.625 0.5 0.6
0.75 0.5 0.6
0.875 0.5 0.6
1 0.5 0.6
1.125 0.5 0.6
1.25 0.5 0.6
1.375 0.5 0.6
1.5 0.5 0.6
1.625 0.5 0.6
1.75 0.5 0.6
1.875 0.5 0.6
2 0.5 0.6
2.125 0.5 0.6
2.25 0.5 0.6
2.375 0.5 0.6
2.5 0.5 0.6
2.625 0.5 0.6
2.75 0.5 0.6
2.875 0.5 0.6
3 0.5 0.6
3.125 0.5 0.6
3.25 0.5 0.6
3.375 0.5 0.6
3.5 0.5 0.6
3.625 0.5 0.6
3.75 0.5 0.6
3.875 0.5 0.6
4 0.5 0.6
0 0.625 0.6
0.125 0.625 0.6
0.25 0.625 0.6
0.375 0.625 0.6
0.5 0.625 0.6
0.625 0.625 0.6
0.75 0.625 0.6
0.875 0.625 0.6
1 0.625 0.6
1.125 0.625 0.6
1.25 0.625 0.6
1.375 0.625 0.6
1.5 0.625 0.6
1.625 0.625 0.6
1.75 0.625 0.6
1.875 0.625 0.6
2 0.625 0.6
2.125 0.625 0.6
2.25 0.625 0.6
2.375 0.625 0.6
2.5 0.625 0.6
2.625 0.625 0.6
2.75 0.625 0.6
2.875 0.625 0.6
3 0.625 0.6
3.125 0.625 0.6
3.25 0.625 0.6
3.375 0.625 0.6
3.5 0.625 0.6
3.625 0.625 0.6
3.75 0.625 0.6
3.875 0.625 0.6
4 0.625 0.6
0 0.75 0.6
0.125 0.75 0.6
0.25 0.75 0.6
0.375 0.75 0.6
0.5 0.75 0.6
0.625 0.75 0.6
0.75 0.75 0.6
0.875 0.75 0.6
1 0.75 0.6
1.125 0.75 0.6
1.25 0.75 0.6
1.375 0.75 0.6
1.5 0.75 0.6
1.625 0.75 0.6
1.75 0.75 0.6
1.875 0.75 0.6
2 0.75 0.6
2.125 0.75 0.6
2.25 0.75 0.6
2.375 0.75 0.6
2.5 0.75 0.6
2.625 0.75 0.6
2.75 0.75 0.6
2.875 0.75 0.6
3 0.75 0.6
3.125 0.75 0.6
3.25 0.75 0.6
3.375 0.75 0.6
3.5 0.75 0.6
3.625 0.75 0.6
3.75 0.75 0.6
3.875 0.75 0.6
4 0.75 0.6
0 0.875 0.6
0.125 0.875 0.6
0.25 0.875 0.6
0.375 0.875 0.6
0.5 0.875 0.6
0.625 0.875 0.6
0.75 0.875 0.6
0.875 0.875 0.6
1 0.875 0.6
1.125 0.875 0.6
1.25 0.875 0.6
1.375 0.875 0.6
1.5 0.875 0.6
1.625 0.875 0.6
1.75 0.875 0.6
1.875 0.875 0.6
2 0.875 0.6
2.125 0.875 0.6
2.25 0.875 0.6
2.375 0.875 0.6
2.5 0.875 0.6
2.625 0.875 0.6
2.75 0.875 0.6
2.875 0.875 0.6
3 0.875 0.6
3.125 0.875 0.6
3.25 0.875 0.6
3.375 0.875 0.6
3.5 0.875 0.6
3.625 0.875 0.6
3.75 0.875 0.6
3.875 0.875 0.6
4 0.875 0.6
0 1 0.6
0.125 1 0.6
0.25 1 0.6
0.375 1 0.6
0.5 1 0.6
0.625 1 0.6
0.75 1 0.6
0.875 1 0.6
1 1 0.6
1.125 1 0.6
1.25 1 0.6
1.375 1 0.6
1.5 1 0.6
1.625 1 0.6
1.75 1 0.6
1.875 1 0.6
2 1 0.6
2.125 1 0.6
2.25 1 0.6
2.375 1 0.6
2.5 1 0.6
2.625 1 0.6
2.75 1 0.6
2.875 1 0.6
3 1 0.6
3.125 1 0.6
3.25 1 0.6
3.375 1 0.6
3.5 1 0.6
3.625 1 0.6
3.75 1 0.6
3.875 1 0.6
4 1 0.6

CELLS 12289 49152
OFFSETS vtktypeint64
0 4 8 12 16 20 24 28 32 36 40 44 48 52 56 60 64 68 72 76 80 84 88 92 96 100 104 108 112 116 120 124 128 132 136 140 144 148 152 156 160 164 168 172 176 180 184 188 192 196 200 204 208 212 216 220 224 228 232 236 240 244 248 252 256 260 264 268 272 276 280 284 288 292 296 300 304 308 312 316 320 324 328 332 336 340 344 348 352 356 360 364 368 372 376 380 384 388 392 396 400 404 408 412 416 420 424 428 432 436 440 444 448 452 456 460 464 468 472 476 480 484 488 492 496 500 504 508 512 516 520 524 528 532 536 540 544 548 552 556 560 564 568 572 576 580 584 588 592 596 600 604 608 612 616 620 624 628 632 636 640 644 648 652 656 660 664 668 672 676 680 684 688 692 696 700 704 708 712 716 720 724 728 732 736 740 744 748 752 756 760 764 768 772 776 780 784 788 792 796 800 804 808 812 816 820 824 828 832 836 840 844 848 852 856 860 864 868 872 876 880 884 888 892 896 900 904 908 912 916 920 924 928 932 936 940 944 948 952 956 960 964 968 972 976 980 984 988 992 996 1000 1004 1008 1012 1016 1020 1024 1028 1032 1036 1040 1044 1048 1052 1056 1060 1064 1068 1072 1076 1080 1084 1088 1092 1096 1100 1104 1108 1112 1116 1120 1124 1128 1132 1136 1140 1144 1148 1152 1156 1160 1164 1168 1172 1176 1180 1184 1188 1192 1196 1200 1204 1208 1212 1216 1220 1224 1228 1232 1236 1240 1244 1248 1252 1256 1260 1264 1268 1272 1276 1280 1284 1288 1292 1296 1300 1304 1308 1312 1316 1320 1324 1328 1332 1336 1340 1344 1348 1352 1356 1360 1364 1368 1372 1376 1380 1384 1388 1392 1396 1400 1404 1408 1412 1416 1420 1424 1428 1432 1436 1440 1444 1448 1452 1456 1460 1464 1468 1472 1476 1480 1484 1488 1492 1496 1500 1504 1508 1512 1516 1520 1524 1528 1532 1536 1540 1544 1548 1552 1556 1560 1564 1568 1572 1576 1580 1584 1588 1592 1596 1600 1604 1608 1612 1616 1620 1624 1628 1632 1636 1640 1644 1648 1652 1656 1660 1664 1668 1672 1676 1680 1684 1688 1692 1696 1700 1704 1708 1712 1716 1720 1724 1728 1732 1736 1740 1744 1748 1752 1756 1760 1764 1768 1772 1776 1780 1784 1788 1792 1796 1800 1804 1808 1812 1816 1820 1824 1828 1832 1836 1840 1844 1848 1852 1856 1860 1864 1868 1872 1876 1880 1884 1888 1892 1896 1900 1904 1908 1912 1916 1920 1924 1928 1932 1936 1940 1944 1948 1952 1956 1960 1964 1968 1972 1976 1980 1984 1988 1992 1996 2000 2004 2008 2012 2016 2020 2024 2028 2032 2036 2040 2044 2048 2052 2056 2060 2064 2068 2072 2076 2080 2084 2088 2092 2096 2100 2104 2108 2112 2116 2120 2124 2128 2132 2136 2140 2144 2148 2152 2156 2160 2164 2168 2172 2176 2180 2184 2188 2192 2196 2200 2204 2208 2212 2216 2220 2224 2228 2232 2236 2240 2244 2248 2252 2256 2260 2264 2268 2272 2276 2280 2284 2288 2292 2296 2300 2304 2308 2312 2316 2320 2324 2328 2332 2336 2340 2344 2348 2352 2356 2360 2364 2368 2372 2376 2380 2384 2388 2392 2396 2400 2404 2408 2412 2416 2420 2424 2428 2432 2436 2440 2444 2448 2452 2456 2460 2464 2468 2472 2476 2480 2484 2488 2492 2496 2500 2504 2508 2512 2516 2520 2524 2528 2532 2536 2540 2544 2548 2552 2556 2560 2564 2568 2572 2576 2580 2584 2588 2592 2596 2600 2604 2608 2612 2616 2620 2624 2628 2632 2636 2640 2644 2648 2652 2656 2660 2664 2668 2672 2676 2680 2684 2688 2692 2696 2700 2704 2708 2712 2716 2720 2724 2728 2732 2736 2740 2744 2748 2752 2756 2760 2764 2768 2772 2776 2780 2784 2788 2792 2796 2800 2804 2808 2812 2816 2820 2824 2828 2832 2836 2840 2844 2848 2852 2856 2860 2864 2868 2872 2876 2880 2884 2888 2892 2896 2900 2904 2908 2912 2916 2920 2924 2928 2932 2936 2940 2944 2948 2952 2956 2960 2964 2968 2972 2976 2980 2984 2988 2992 2996 3000 3004 3008 3012 3016 3020 3024 3028 3032 3036 3040 3044 3048 3052 3056 3060 3064 3068 3072 3076 3080 3084 3088 3092 3096 3100 3104 3108 3112 3116 3120 3124 3128 3132 3136 3140 3144 3148 3152 3156 3160 3164 3168 3172 3176 3180 3184 3188 3192 3196 3200 3204 3208 3212 3216 3220 3224 3228 3232 3236 3240 3244 3248 3252 3256 3260 3264 3268 3272 3276 3280 3284 3288 3292 3296 3300 3304 3308 3312 3316 3320 3324 3328 3332 3336 3340 3344 3348 3352 3356 3360 3364 3368 3372 3376 3380 3384 3388 3392 3396 3400 3404 3408 3412 3416 3420 3424 3428 3432 3436 3440 3444 3448 3452 3456 3460 3464 3468 3472 3476 3480 3484 3488 3492 3496 3500 3504 3508 3512 3516 3520 3524 3528 3532 3536 3540 3544 3548 3552 3556 3560 3564 3568 3572 3576 3580 3584 3588 3592 3596 3600 3604 3608 3612 3616 3620 3624 3628 3632 3636 3640 3644 3648 3652 3656 3660 3664 3668 3672 3676 3680 3684 3688 3692 3696 3700 3704 3708 3712 3716 3720 3724 3728 3732 3736 3740 3744 3748 3752 3756 3760 3764 3768 3772 3776 3780 3784 3788 3792 3796 3800 3804 3808 3812 3816 3820 3824 3828 3832 3836 3840 3844 3848 3852 3856 3860 3864 3868 3872 3876 3880 3884 3888 3892 3896 3900 3904 3908 3912 3916 3920 3924 3928 3932 3936 3940 3944 3948 3952 3956 3960 3964 3968 3972 3976 3980 3984 3988 3992 3996 4000 4004 4008 4012 4016 4020 4024 4028 4032 4036 4040 4044 4048 4052 4056 4060 4064 4068 4072 4076 4080 4084 4088 4092 4096 4100 4104 4108 4112 4116 4120 4124 4128 4132 4136 4140 4144 4148 4152 4156 4160 4164 4168 4172 4176 4180 4184 4188 4192 4196 4200 4204 4208 4212 4216 4220 4224 4228 4232 4236 4240 4244 4248 4252 4256 4260 4264 4268 4272 4276 4280 4284 4288 4292 4296 4300 4304 4308 4312 4316 4320 4324 4328 4332 4336 4340 4344 4348 4352 4356 4360 4364 4368 4372 4376 4380 4384 4388 4392 4396 4400 4404 4408 4412 4416 4420 4424 4428 4432 4436 4440 4444 4448 4452 4456 4460 4464 4468 4472 4476 4480 4484 4488 4492 4496 4500 4504 4508 4512 4516 4520 4524 4528 4532 4536 4540 4544 4548 4552 4556 4560 4564 4568 4572 4576 4580 4584 4588 4592 4596 4600 4604 4608 4612 4616 4620 4624 4628 4632 4636 4640 4644 4648 4652 4656 4660 4664 4668 4672 4676 4680 4684 4688 4692 4696 4700 4704 4708 4712 4716 4720 4724 4728 4732 4736 4740 4744 4748 4752 4756 4760 4764 4768 4772 4776 4780 4784 4788 4792 4796 4800 4804 4808 4812 4816 4820 4824 4828 4832 4836 4840 4844 4848 4852 4856 4860 4864 4868 4872 4876 4880 4884 4888 4892 4896 4900 4904 4908 4912 4916 4920 4924 4928 4932 4936 4940 4944 4948 4952 4956 4960 4964 4968 4972 4976 4980 4984 4988 4992 4996 5000 5004 5008 5012 5016 5020 5024 5028 5032 5036 5040 5044 5048 5052 5056 5060 5064 5068 5072 5076 5080 5084 5088 5092 5096 5100 5104 5108 5112 5116 5120 5124 5128 5132 5136 5140 5144 5148 5152 5156 5160 5164 5168 5172 5176 5180 5184 5188 5192 5196 5200 5204 5208 5212 5216 5220 5224 5228 5232 5236 5240 5244 5248 5252 5256 5260 5264 5268 5272 5276 5280 5284 5288 5292 5296 5300 5304 5308 5312 5316 5320 5324 5328 5332 5336 5340 5344 5348 5352 5356 5360 5364 5368 5372 5376 5380 5384 5388 5392 5396 5400 5404 5408 5412 5416 5420 5424 5428 5432 5436 5440 5444 5448 5452 5456 5460 5464 5468 5472 5476 5480 5484 5488 5492 5496 5500 5504 5508 5512 5516 5520 5524 5528 5532 5536 5540 5544 5548 5552 5556 5560 5564 5568 5572 5576 5580 5584 5588 5592 5596 5600 5604 5608 5612 5616 5620 5624 5628 5632 5636 5640 5644 5648 5652 5656 5660 5664 5668 5672 5676 5680 5684 5688 5692 5696 5700 5704 5708 5712 5716 5720 5724 5728 5732 5736 5740 5744 5748 5752 5756 5760 5764 5768 5772 5776 5780 5784 5788 5792 5796 5800 5804 5808 5812 5816 5820 5824 5828 5832 5836 5840 5844 5848 5852 5856 5860 5864 5868 5872 5876 5880 5884 5888 5892 5896 5900 5904 5908 5912 5916 5920 5924 5928 5932 5936 5940 5944 5948 5952 5956 5960 5964 5968 5972 5976 5980 5984 5988 5992 5996 6000 6004 6008 6012 6016 6020 6024 6028 6032 6036 6040 6044 6048 6052 6056 6060 6064 6068 6072 6076 6080 6084 6088 6092 6096 6100 6104 6108 6112 6116 6120 6124 6128 6132 6136 6140 6144 6148 6152 6156 6160 6164 6168 6172 6176 6180 6184 6188 6192 6196 6200 6204 6208 6212 6216 6220 6224 6228 6232 6236 6240 6244 6248 6252 6256 6260 6264 6268 6272 6276 6280 6284 6288 6292 6296 6300 6304 6308 6312 6316 6320 6324 6328 6332 6336 6340 6344 6348 6352 6356 6360 6364 6368 6372 6376 6380 6384 6388 6392 6396 6400 6404 6408 6412 6416 6420 6424 6428 6432 6436 6440 6444 6448 6452 6456 6460 6464 6468 6472 6476 6480 6484 6488 6492 6496 6500 6504 6508 6512 6516 6520 6524 6528 6532 6536 6540 6544 6548 6552 6556 6560 6564 6568 6572 6576 6580 6584 6588 6592 6596 6600 6604 6608 6612 6616 6620 6624 6628 6632 6636 6640 6644 6648 6652 6656 6660 6664 6668 6672 6676 6680 6684 6688 6692 6696 6700 6704 6708 6712 6716 6720 6724 6728 6732 6736 6740 6744 6748 6752 6756 6760 6764 6768 6772 6776 6780 6784 6788 6792 6796 6800 6804 6808 6812 6816 6820 6824 6828 6832 6836 6840 6844 6848 6852 6856 6860 6864 6868 6872 6876 6880 6884 6888 6892 6896 6900 6904 6908 6912 6916 6920 6924 6928 6932 6936 6940 6944 6948 6952 6956 6960 6964 6968 6972 6976 6980 6984 6988 6992 6996 7000 7004 7008 7012 7016 7020 7024 7028 7032 7036 7040 7044 7048 7052 7056 7060 7064 7068 7072 7076 7080 7084 7088 7092 7096 7100 7104 7108 7112 7116 7120 7124 7128 7132 7136 7140 7144 7148 7152 7156 7160 7164 7168 7172 7176 7180 7184 7188 7192 7196 7200 7204 7208 7212 7216 7220 7224 7228 7232 7236 7240 7244 7248 7252 7256 7260 7264 7268 7272 7276 7280 7284 7288 7292 7296 7300 7304 7308 7312 7316 7320 7324 7328 7332 7336 7340 7344 7348 7352 7356 7360 7364 7368 7372 7376 7380 7384 7388 7392 7396 7400 7404 7408 7412 7416 7420 7424 7428 7432 7436 7440 7444 7448 7452 7456 7460 7464 7468 7472 7476 7480 7484 7488 7492 7496 7500 7504 7508 7512 7516 7520 7524 7528 7532 7536 7540 7544 7548 7552 7556 7560 7564 7568 7572 7576 7580 7584 7588 7592 7596 7600 7604 7608 7612 7616 7620 7624 7628 7632 7636 7640 7644 7648 7652 7656 7660 7664 7668 7672 7676 7680 7684 7688 7692 7696 7700 7704 7708 7712 7716 7720 7724 7728 7732 7736 7740 7744 7748 7752 7756 7760 7764 7768 7772 7776 7780 7784 7788 7792 7796 7800 7804 7808 7812 7816 7820 7824 7828 7832 7836 7840 7844 7848 7852 7856 7860 7864 7868 7872 7876 7880 7884 7888 7892 7896 7900 7904 7908 7912 7916 7920 7924 7928 7932 7936 7940 7944 7948 7952 7956 7960 7964 7968 7972 7976 7980 7984 7988 7992 7996 8000 8004 8008 8012 8016 8020 8024 8028 8032 8036 8040 8044 8048 8052 8056 8060 8064 8068 8072 8076 8080 8084 8088 8092 8096 8100 8104 8108 8112 8116 8120 8124 8128 8132 8136 8140 8144 8148 8152 8156 8160 8164 8168 8172 8176 8180 8184 8188 8192 8196 8200 8204 8208 8212 8216 8220 8224 8228 8232 8236 8240 8244 8248 8252 8256 8260 8264 8268 8272 8276 8280 8284 8288 8292 8296 8300 8304 8308 8312 8316 8320 8324 8328 8332 8336 8340 8344 8348 8352 8356 8360 8364 8368 8372 8376 8380 8384 8388 8392 8396 8400 8404 8408 8412 8416 8420 8424 8428 8432 8436 8440 8444 8448 8452 8456 8460 8464 8468 8472 8476 8480 8484 8488 8492 8496 8500 8504 8508 8512 8516 8520 8524 8528 8532 8536 8540 8544 8548 8552 8556 8560 8564 8568 8572 8576 8580 8584 8588 8592 8596 8600 8604 8608 8612 8616 8620 8624 8628 8632 8636 8640 8644 8648 8652 8656 8660 8664 8668 8672 8676 8680 8684 8688 8692 8696 8700 8704 8708 8712 8716 8720 8724 8728 8732 8736 8740 8744 8748 8752 8756 8760 8764 8768 8772 8776 8780 8784 8788 8792 8796 8800 8804 8808 8812 8816 8820 8824 8828 8832 8836 8840 8844 8848 8852 8856 8860 8864 8868 8872 8876 8880 8884 8888 8892 8896 8900 8904 8908 8912 8916 8920 8924 8928 8932 8936 8940 8944 8948 8952 8956 8960 8964 8968 8972 8976 8980 8984 8988 8992 8996 9000 9004 9008 9012 9016 9020 9024 9028 9032 9036 9040 9044 9048 9052 9056 9060 9064 9068 9072 9076 9080 9084 9088 9092 9096 9100 9104 9108 9112 9116 9120 9124 9128 9132 9136 9140 9144 9148 9152 9156 9160 9164 9168 9172 9176 9180 9184 9188 9192 9196 9200 9204 9208 9212 9216 9220 9224 9228 9232 9236 9240 9244 9248 9252 9256 9260 9264 9268 9272 9276 9280 9284 9288 9292 9296 9300 9304 9308 9312 9316 9320 9324 9328 9332 9336 9340 9344 9348 9352 9356 9360 9364 9368 9372 9376 9380 9384 9388 9392 9396 9400 9404 9408 9412 9416 9420 9424 9428 9432 9436 9440 9444 9448 9452 9456 9460 9464 9468 9472 9476 9480 9484 9488 9492 9496 9500 9504 9508 9512 9516 9520 9524 9528 9532 9536 9540 9544 9548 9552 9556 9560 9564 9568 9572 9576 9580 9584 9588 9592 9596 9600 9604 9608 9612 9616 9620 9624 9628 9632 9636 9640 9644 9648 9652 9656 9660 9664 9668 9672 9676 9680 9684 9688 9692 9696 9700 9704 9708 9712 9716 9720 9724 9728 9732 9736 9740 9744 9748 9752 9756 9760 9764 9768 9772 9776 9780 9784 9788 9792 9796 9800 9804 9808 9812 9816 9820 9824 9828 9832 9836 9840 9844 9848 9852 9856 9860 9864 9868 9872 9876 9880 9884 9888 9892 9896 9900 9904 9908 9912 9916 9920 9924 9928 9932 9936 9940 9944 9948 9952 9956 9960 9964 9968 9972 9976 9980 9984 9988 9992 9996 10000 10004 10008 10012 10016 10020 10024 10028 10032 10036 10040 10044 10048 10052 10056 10060 10064 10068 10072 10076 10080 10084 10088 10092 10096 10100 10104 10108 10112 10116 10120 10124 10128 10132 10136 10140 10144 10148 10152 10156 10160 10164 10168 10172 10176 10180 10184 10188 10192 10196 10200 10204 10208 10212 10216 10220 10224 10228 10232 10236 10240 10244 10248 10252 10256 10260 10264 10268 10272 10276 10280 10284 10288 10292 10296 10300 10304 10308 10312 10316 10320 10324 10328 10332 10336 10340 10344 10348 10352 10356 10360 10364 10368 10372 10376 10380 10384 10388 10392 10396 10400 10404 10408 10412 10416 10420 10424 10428 10432 10436 10440 10444 10448 10452 10456 10460 10464 10468 10472 10476 10480 10484 10488 10492 10496 10500 10504 10508 10512 10516 10520 10524 10528 10532 10536 10540 10544 10548 10552 10556 10560 10564 10568 10572 10576 10580 10584 10588 10592 10596 10600 10604 10608 10612 10616 10620 10624 10628 10632 10636 10640 10644 10648 10652 10656 10660 10664 10668 10672 10676 10680 10684 10688 10692 10696 10700 10704 10708 10712 10716 10720 10724 10728 10732 10736 10740 10744 10748 10752 10756 10760 10764 10768 10772 10776 10780 10784 10788 10792 10796 10800 10804 10808 10812 10816 10820 10824 10828 10832 10836 10840 10844 10848 10852 10856 10860 10864 10868 10872 10876 10880 10884 10888 10892 10896 10900 10904 10908 10912 10916 10920 10924 10928 10932 10936 10940 10944 10948 10952 10956 10960 10964 10968 10972 10976 10980 10984 10988 10992 10996 11000 11004 11008 11012 11016 11020 11024 11028 11032 11036 11040 11044 11048 11052 11056 11060 11064 11068 11072 11076 11080 11084 11088 11092 11096 11100 11104 11108 11112 11116 11120 11124 11128 11132 11136 11140 11144 11148 11152 11156 11160 11164 11168 11172 11176 11180 11184 11188 11192 11196 11200 11204 11208 11212 11216 11220 11224 11228 11232 11236 11240 11244 11248 11252 11256 11260 11264 11268 11272 11276 11280 11284 11288 11292 11296 11300 11304 11308 11312 11316 11320 11324 11328 11332 11336 11340 11344 11348 11352 11356 11360 11364 11368 11372 11376 11380 11384 11388 11392 11396 11400 11404 11408 11412 11416 11420 11424 11428 11432 11436 11440 11444 11448 11452 11456 11460 11464 11468 11472 11476 11480 11484 11488 11492 11496 11500 11504 11508 11512 11516 11520 11524 11528 11532 11536 11540 11544 11548 11552 11556 11560 11564 11568 11572 11576 11580 11584 11588 11592 11596 11600 11604 11608 11612 11616 11620 11624 11628 11632 11636 11640 11644 11648 11652 11656 11660 11664 11668 11672 11676 11680 11684 11688 11692 11696 11700 11704 11708 11712 11716 11720 11724 11728 11732 11736 11740 11744 11748 11752 11756 11760 11764 11768 11772 11776 11780 11784 11788 11792 11796 11800 11804 11808 11812 11816 11820 11824 11828 11832 11836 11840 11844 11848 11852 11856 11860 11864 11868 11872 11876 11880 11884 11888 11892 11896 11900 11904 11908 11912 11916 11920 11924 11928 11932 11936 11940 11944 11948 11952 11956 11960 11964 11968 11972 11976 11980 11984 11988 11992 11996 12000 12004 12008 12012 12016 12020 12024 12028 12032 12036 12040 12044 12048 12052 12056 12060 12064 12068 12072 12076 12080 12084 12088 12092 12096 12100 12104 12108 12112 12116 12120 12124 12128 12132 12136 12140 12144 12148 12152 12156 12160 12164 12168 12172 12176 12180 12184 12188 12192 12196 12200 12204 12208 12212 12216 12220 12224 12228 12232 12236 12240 12244 12248 12252 12256 12260 12264 12268 12272 12276 12280 12284 12288 12292 12296 12300 12304 12308 12312 12316 12320 12324 12328 12332 12336 12340 12344 12348 12352 12356 12360 12364 12368 12372 12376 12380 12384 12388 12392 12396 12400 12404 12408 12412 12416 12420 12424 12428 12432 12436 12440 12444 12448 12452 12456 12460 12464 12468 12472 12476 12480 12484 12488 12492 12496 12500 12504 12508 12512 12516 12520 12524 12528 12532 12536 12540 12544 12548 12552 12556 12560 12564 12568 12572 12576 12580 12584 12588 12592 12596 12600 12604 12608 12612 12616 12620 12624 12628 12632 12636 12640 12644 12648 12652 12656 12660 12664 12668 12672 12676 12680 12684 12688 12692 12696 12700 12704 12708 12712 12716 12720 12724 12728 12732 12736 12740 12744 12748 12752 12756 12760 12764 12768 12772 12776 12780 12784 12788 12792 12796 12800 12804 12808 12812 12816 12820 12824 12828 12832 12836 12840 12844 12848 12852 12856 12860 12864 12868 12872 12876 12880 12884 12888 12892 12896 12900 12904 12908 12912 12916 12920 12924 12928 12932 12936 12940 12944 12948 12952 12956 12960 12964 12968 12972 12976 12980 12984 12988 12992 12996 13000 13004 13008 13012 13016 13020 13024 13028 13032 13036 13040 13044 13048 13052 13056 13060 13064 13068 13072 13076 13080 13084 13088 13092 13096 13100 13104 13108 13112 13116 13120 13124 13128 13132 13136 13140 13144 13148 13152 13156 13160 13164 13168 13172 13176 13180 13184 13188 13192 13196 13200 13204 13208 13212 13216 13220 13224 13228 13232 13236 13240 13244 13248 13252 13256 13260 13264 13268 13272 13276 13280 13284 13288 13292 13296 13300 13304 13308 13312 13316 13320 13324 13328 13332 13336 13340 13344 13348 13352 13356 13360 13364 13368 13372 13376 13380 13384 13388 13392 13396 13400 13404 13408 13412 13416 13420 13424 13428 13432 13436 13440 13444 13448 13452 13456 13460 13464 13468 13472 13476 13480 13484 13488 13492 13496 13500 13504 13508 13512 13516 13520 13524 13528 13532 13536 13540 13544 13548 13552 13556 13560 13564 13568 13572 13576 13580 13584 13588 13592 13596 13600 13604 13608 13612 13616 13620 13624 13628 13632 13636 13640 13644 13648 13652 13656 13660 13664 13668 13672 13676 13680 13684 13688 13692 13696 13700 13704 13708 13712 13716 13720 13724 13728 13732 13736 13740 13744 13748 13752 13756 13760 13764 13768 13772 13776 13780 13784 13788 13792 13796 13800 13804 13808 13812 13816 13820 13824 13828 13832 13836 13840 13844 13848 13852 13856 13860 13864 13868 13872 13876 13880 13884 13888 13892 13896 13900 13904 13908 13912 13916 13920 13924 13928 13932 13936 13940 13944 13948 13952 13956 13960 13964 13968 13972 13976 13980 13984 13988 13992 13996 14000 14004 14008 14012 14016 14020 14024 14028 14032 14036 14040 14044 14048 14052 14056 14060 14064 14068 14072 14076 14080 14084 14088 14092 14096 14100 14104 14108 14112 14116 14120 14124 14128 14132 14136 14140 14144 14148 14152 14156 14160 14164 14168 14172 14176 14180 14184 14188 14192 14196 14200 14204 14208 14212 14216 14220 14224 14228 14232 14236 14240 14244 14248 14252 14256 14260 14264 14268 14272 14276 14280 14284 14288 14292 14296 14300 14304 14308 14312 14316 14320 14324 14328 14332 14336 14340 14344 14348 14352 14356 14360 14364 14368 14372 14376 14380 14384 14388 14392 14396 14400 14404 14408 14412 14416 14420 14424 14428 14432 14436 14440 14444 14448 14452 14456 14460 14464 14468 14472 14476 14480 14484 14488 14492 14496 14500 14504 14508 14512 14516 14520 14524 14528 14532 14536 14540 14544 14548 14552 14556 14560 14564 14568 14572 14576 14580 14584 14588 14592 14596 14600 14604 14608 14612 14616 14620 14624 14628 14632 14636 14640 14644 14648 14652 14656 14660 14664 14668 14672 14676 14680 14684 14688 14692 14696 14700 14704 14708 14712 14716 14720 14724 14728 14732 14736 14740 14744 14748 14752 14756 14760 14764 14768 14772 14776 14780 14784 14788 14792 14796 14800 14804 14808 14812 14816 14820 14824 14828 14832 14836 14840 14844 14848 14852 14856 14860 14864 14868 14872 14876 14880 14884 14888 14892 14896 14900 14904 14908 14912 14916 14920 14924 14928 14932 14936 14940 14944 14948 14952 14956 14960 14964 14968 14972 14976 14980 14984 14988 14992 14996 15000 15004 15008 15012 15016 15020 15024 15028 15032 15036 15040 15044 15048 15052 15056 15060 15064 15068 15072 15076 15080 15084 15088 15092 15096 15100 15104 15108 15112 15116 15120 15124 15128 15132 15136 15140 15144 15148 15152 15156 15160 15164 15168 15172 15176 15180 15184 15188 15192 15196 15200 15204 15208 15212 15216 15220 15224 15228 15232 15236 15240 15244 15248 15252 15256 15260 15264 15268 15272 15276 15280 15284 15288 15292 15296 15300 15304 15308 15312 15316 15320 15324 15328 15332 15336 15340 15344 15348 15352 15356 15360 15364 15368 15372 15376 15380 15384 15388 15392 15396 15400 15404 15408 15412 15416 15420 15424 15428 15432 15436 15440 15444 15448 15452 15456 15460 15464 15468 15472 15476 15480 15484 15488 15492 15496 15500 15504 15508 15512 15516 15520 15524 15528 15532 15536 15540 15544 15548 15552 15556 15560 15564 15568 15572 15576 15580 15584 15588 15592 15596 15600 15604 15608 15612 15616 15620 15624 15628 15632 15636 15640 15644 15648 15652 15656 15660 15664 15668 15672 15676 15680 15684 15688 15692 15696 15700 15704 15708 15712 15716 15720 15724 15728 15732 15736 15740 15744 15748 15752 15756 15760 15764 15768 15772 15776 15780 15784 15788 15792 15796 15800 15804 15808 15812 15816 15820 15824 15828 15832 15836 15840 15844 15848 15852 15856 15860 15864 15868 15872 15876 15880 15884 15888 15892 15896 15900 15904 15908 15912 15916 15920 15924 15928 15932 15936 15940 15944 15948 15952 15956 15960 15964 15968 15972 15976 15980 15984 15988 15992 15996 16000 16004 16008 16012 16016 16020 16024 16028 16032 16036 16040 16044 16048 16052 16056 16060 16064 16068 16072 16076 16080 16084 16088 16092 16096 16100 16104 16108 16112 16116 16120 16124 16128 16132 16136 16140 16144 16148 16152 16156 16160 16164 16168 16172 16176 16180 16184 16188 16192 16196 16200 16204 16208 16212 16216 16220 16224 16228 16232 16236 16240 16244 16248 16252 16256 16260 16264 16268 16272 16276 16280 16284 16288 16292 16296 16300 16304 16308 16312 16316 16320 16324 16328 16332 16336 16340 16344 16348 16352 16356 16360 16364 16368 16372 16376 16380 16384 16388 16392 16396 16400 16404 16408 16412 16416 16420 16424 16428 16432 16436 16440 16444 16448 16452 16456 16460 16464 16468 16472 16476 16480 16484 16488 16492 16496 16500 16504 16508 16512 16516 16520 16524 16528 16532 16536 16540 16544 16548 16552 16556 16560 16564 16568 16572 16576 16580 16584 16588 16592 16596 16600 16604 16608 16612 16616 16620 16624 16628 16632 16636 16640 16644 16648 16652 16656 16660 16664 16668 16672 16676 16680 16684 16688 16692 16696 16700 16704 16708 16712 16716 16720 16724 16728 16732 16736 16740 16744 16748 16752 16756 16760 16764 16768 16772 16776 16780 16784 16788 16792 16796 16800 16804 16808 16812 16816 16820 16824 16828 16832 16836 16840 16844 16848 16852 16856 16860 16864 16868 16872 16876 16880 16884 16888 16892 16896 16900 16904 16908 16912 16916 16920 16924 16928 16932 16936 16940 16944 16948 16952 16956 16960 16964 16968 16972 16976 16980 16984 16988 16992 16996 17000 17004 17008 17012 17016 17020 17024 17028 17032 17036 17040 17044 17048 17052 17056 17060 17064 17068 17072 17076 17080 17084 17088 17092 17096 17100 17104 17108 17112 17116 17120 17124 17128 17132 17136 17140 17144 17148 17152 17156 17160 17164 17168 17172 17176 17180 17184 17188 17192 17196 17200 17204 17208 17212 17216 17220 17224 17228 17232 17236 17240 17244 17248 17252 17256 17260 17264 17268 17272 17276 17280 17284 17288 17292 17296 17300 17304 17308 17312 17316 17320 17324 17328 17332 17336 17340 17344 17348 17352 17356 17360 17364 17368 17372 17376 17380 17384 17388 17392 17396 17400 17404 17408 17412 17416 17420 17424 17428 17432 17436 17440 17444 17448 17452 17456 17460 17464 17468 17472 17476 17480 17484 17488 17492 17496 17500 17504 17508 17512 17516 17520 17524 17528 17532 17536 17540 17544 17548 17552 17556 17560 17564 17568 17572 17576 17580 17584 17588 17592 17596 17600 17604 17608 17612 17616 17620 17624 17628 17632 17636 17640 17644 17648 17652 17656 17660 17664 17668 17672 17676 17680 17684 17688 17692 17696 17700 17704 17708 17712 17716 17720 17724 17728 17732 17736 17740 17744 17748 17752 17756 17760 17764 17768 17772 17776 17780 17784 17788 17792 17796 17800 17804 17808 17812 17816 17820 17824 17828 17832 17836 17840 17844 17848 17852 17856 17860 17864 17868 17872 17876 17880 17884 17888 17892 17896 17900 17904 17908 17912 17916 17920 17924 17928 17932 17936 17940 17944 17948 17952 17956 17960 17964 17968 17972 17976 17980 17984 17988 17992 17996 18000 18004 18008 18012 18016 18020 18024 18028 18032 18036 18040 18044 18048 18052 18056 18060 18064 18068 18072 18076 18080 18084 18088 18092 18096 18100 18104 18108 18112 18116 18120 18124 18128 18132 18136 18140 18144 18148 18152 18156 18160 18164 18168 18172 18176 18180 18184 18188 18192 18196 18200 18204 18208 18212 18216 18220 18224 18228 18232 18236 18240 18244 18248 18252 18256 18260 18264 18268 18272 18276 18280 18284 18288 18292 18296 18300 18304 18308 18312 18316 18320 18324 18328 18332 18336 18340 18344 18348 18352 18356 18360 18364 18368 18372 18376 18380 18384 18388 18392 18396 18400 18404 18408 18412 18416 18420 18424 18428 18432 18436 18440 18444 18448 18452 18456 18460 18464 18468 18472 18476 18480 18484 18488 18492 18496 18500 18504 18508 18512 18516 18520 18524 18528 18532 18536 18540 18544 18548 18552 18556 18560 18564 18568 18572 18576 18580 18584 18588 18592 18596 18600 18604 18608 18612 18616 18620 18624 18628 18632 18636 18640 18644 18648 18652 18656 18660 18664 18668 18672 18676 18680 18684 18688 18692 18696 18700 18704 18708 18712 18716 18720 18724 18728 18732 18736 18740 18744 18748 18752 18756 18760 18764 18768 18772 18776 18780 18784 18788 18792 18796 18800 18804 18808 18812 18816 18820 18824 18828 18832 18836 18840 18844 18848 18852 18856 18860 18864 18868 18872 18876 18880 18884 18888 18892 18896 18900 18904 18908 18912 18916 18920 18924 18928 18932 18936 18940 18944 18948 18952 18956 18960 18964 18968 18972 18976 18980 18984 18988 18992 18996 19000 19004 19008 19012 19016 19020 19024 19028 19032 19036 19040 19044 19048 19052 19056 19060 19064 19068 19072 19076 19080 19084 19088 19092 19096 19100 19104 19108 19112 19116 19120 19124 19128 19132 19136 19140 19144 19148 19152 19156 19160 19164 19168 19172 19176 19180 19184 19188 19192 19196 19200 19204 19208 19212 19216 19220 19224 19228 19232 19236 19240 19244 19248 19252 19256 19260 19264 19268 19272 19276 19280 19284 19288 19292 19296 19300 19304 19308 19312 19316 19320 19324 19328 19332 19336 19340 19344 19348 19352 19356 19360 19364 19368 19372 19376 19380 19384 19388 19392 19396 19400 19404 19408 19412 19416 19420 19424 19428 19432 19436 19440 19444 19448 19452 19456 19460 19464 19468 19472 19476 19480 19484 19488 19492 19496 19500 19504 19508 19512 19516 19520 19524 19528 19532 19536 19540 19544 19548 19552 19556 19560 19564 19568 19572 19576 19580 19584 19588 19592 19596 19600 19604 19608 19612 19616 19620 19624 19628 19632 19636 19640 19644 19648 19652 19656 19660 19664 19668 19672 19676 19680 19684 19688 19692 19696 19700 19704 19708 19712 19716 19720 19724 19728 19732 19736 19740 19744 19748 19752 19756 19760 19764 19768 19772 19776 19780 19784 19788 19792 19796 19800 19804 19808 19812 19816 19820 19824 19828 19832 19836 19840 19844 19848 19852 19856 19860 19864 19868 19872 19876 19880 19884 19888 19892 19896 19900 19904 19908 19912 19916 19920 19924 19928 19932 19936 19940 19944 19948 19952 19956 19960 19964 19968 19972 19976 19980 19984 19988 19992 19996 20000 20004 20008 20012 20016 20020 20024 20028 20032 20036 20040 20044 20048 20052 20056 20060 20064 20068 20072 20076 20080 20084 20088 20092 20096 20100 20104 20108 20112 20116 20120 20124 20128 20132 20136 20140 20144 20148 20152 20156 20160 20164 20168 20172 20176 20180 20184 20188 20192 20196 20200 20204 20208 20212 20216 20220 20224 20228 20232 20236 20240 20244 20248 20252 20256 20260 20264 20268 20272 20276 20280 20284 20288 20292 20296 20300 20304 20308 20312 20316 20320 20324 20328 20332 20336 20340 20344 20348 20352 20356 20360 20364 20368 20372 20376 20380 20384 20388 20392 20396 20400 20404 20408 20412 20416 20420 20424 20428 20432 20436 20440 20444 20448 20452 20456 20460 20464 20468 20472 20476 20480 20484 20488 20492 20496 20500 20504 20508 20512 20516 20520 20524 20528 20532 20536 20540 20544 20548 20552 20556 20560 20564 20568 20572 20576 20580 20584 20588 20592 20596 20600 20604 20608 20612 20616 20620 20624 20628 20632 20636 20640 20644 20648 20652 20656 20660 20664 20668 20672 20676 20680 20684 20688 20692 20696 20700 20704 20708 20712 20716 20720 20724 20728 20732 20736 20740 20744 20748 20752 20756 20760 20764 20768 20772 20776 20780 20784 20788 20792 20796 20800 20804 20808 20812 20816 20820 20824 20828 20832 20836 20840 20844 20848 20852 20856 20860 20864 20868 20872 20876 20880 20884 20888 20892 20896 20900 20904 20908 20912 20916 20920 20924 20928 20932 20936 20940 20944 20948 20952 20956 20960 20964 20968 20972 20976 20980 20984 20988 20992 20996 21000 21004 21008 21012 21016 21020 21024 21028 21032 21036 21040 21044 21048 21052 21056 21060 21064 21068 21072 21076 21080 21084 21088 21092 21096 21100 21104 21108 21112 21116 21120 21124 21128 21132 21136 21140 21144 21148 21152 21156 21160 21164 21168 21172 21176 21180 21184 21188 21192 21196 21200 21204 21208 21212 21216 21220 21224 21228 21232 21236 21240 21244 21248 21252 21256 21260 21264 21268 21272 21276 21280 21284 21288 21292 21296 21300 21304 21308 21312 21316 21320 21324 21328 21332 21336 21340 21344 21348 21352 21356 21360 21364 21368 21372 21376 21380 21384 21388 21392 21396 21400 21404 21408 21412 21416 21420 21424 21428 21432 21436 21440 21444 21448 21452 21456 21460 21464 21468 21472 21476 21480 21484 21488 21492 21496 21500 21504 21508 21512 21516 21520 21524 21528 21532 21536 21540 21544 21548 21552 21556 21560 21564 21568 21572 21576 21580 21584 21588 21592 21596 21600 21604 21608 21612 21616 21620 21624 21628 21632 21636 21640 21644 21648 21652 21656 21660 21664 21668 21672 21676 21680 21684 21688 21692 21696 21700 21704 21708 21712 21716 21720 21724 21728 21732 21736 21740 21744 21748 21752 21756 21760 21764 21768 21772 21776 21780 21784 21788 21792 21796 21800 21804 21808 21812 21816 21820 21824 21828 21832 21836 21840 21844 21848 21852 21856 21860 21864 21868 21872 21876 21880 21884 21888 21892 21896 21900 21904 21908 21912 21916 21920 21924 21928 21932 21936 21940 21944 21948 21952 21956 21960 21964 21968 21972 21976 21980 21984 21988 21992 21996 22000 22004 22008 22012 22016 22020 22024 22028 22032 22036 22040 22044 22048 22052 22056 22060 22064 22068 22072 22076 22080 22084 22088 22092 22096 22100 22104 22108 22112 22116 22120 22124 22128 22132 22136 22140 22144 22148 22152 22156 22160 22164 22168 22172 22176 22180 22184 22188 22192 22196 22200 22204 22208 22212 22216 22220 22224 22228 22232 22236 22240 22244 22248 22252 22256 22260 22264 22268 22272 22276 22280 22284 22288 22292 22296 22300 22304 22308 22312 22316 22320 22324 22328 22332 22336 22340 22344 22348 22352 22356 22360 22364 22368 22372 22376 22380 22384 22388 22392 22396 22400 22404 22408 22412 22416 22420 22424 22428 22432 22436 22440 22444 22448 22452 22456 22460 22464 22468 22472 22476 22480 22484 22488 22492 22496 22500 22504 22508 22512 22516 22520 22524 22528 22532 22536 22540 22544 22548 22552 22556 22560 22564 22568 22572 22576 22580 22584 22588 22592 22596 22600 22604 22608 22612 22616 22620 22624 22628 22632 22636 22640 22644 22648 22652 22656 22660 22664 22668 22672 22676 22680 22684 22688 22692 22696 22700 22704 22708 22712 22716 22720 22724 22728 22732 22736 22740 22744 22748 22752 22756 22760 22764 22768 22772 22776 22780 22784 22788 22792 22796 22800 22804 22808 22812 22816 22820 22824 22828 22832 22836 22840 22844 22848 22852 22856 22860 22864 22868 22872 22876 22880 22884 22888 22892 22896 22900 22904 22908 22912 22916 22920 22924 22928 22932 22936 22940 22944 22948 22952 22956 22960 22964 22968 22972 22976 22980 22984 22988 22992 22996 23000 23004 23008 23012 23016 23020 23024 23028 23032 23036 23040 23044 23048 23052 23056 23060 23064 23068 23072 23076 23080 23084 23088 23092 23096 23100 23104 23108 23112 23116 23120 23124 23128 23132 23136 23140 23144 23148 23152 23156 23160 23164 23168 23172 23176 23180 23184 23188 23192 23196 23200 23204 23208 23212 23216 23220 23224 23228 23232 23236 23240 23244 23248 23252 23256 23260 23264 23268 23272 23276 23280 23284 23288 23292 23296 23300 23304 23308 23312 23316 23320 23324 23328 23332 23336 23340 23344 23348 23352 23356 23360 23364 23368 23372 23376 23380 23384 23388 23392 23396 23400 23404 23408 23412 23416 23420 23424 23428 23432 23436 23440 23444 23448 23452 23456 23460 23464 23468 23472 23476 23480 23484 23488 23492 23496 23500 23504 23508 23512 23516 23520 23524 23528 23532 23536 23540 23544 23548 23552 23556 23560 23564 23568 23572 23576 23580 23584 23588 23592 23596 23600 23604 23608 23612 23616 23620 23624 23628 23632 23636 23640 23644 23648 23652 23656 23660 23664 23668 23672 23676 23680 23684 23688 23692 23696 23700 23704 23708 23712 23716 23720 23724 23728 23732 23736 23740 23744 23748 23752 23756 23760 23764 23768 23772 23776 23780 23784 23788 23792 23796 23800 23804 23808 23812 23816 23820 23824 23828 23832 23836 23840 23844 23848 23852 23856 23860 23864 23868 23872 23876 23880 23884 23888 23892 23896 23900 23904 23908 23912 23916 23920 23924 23928 23932 23936 23940 23944 23948 23952 23956 23960 23964 23968 23972 23976 23980 23984 23988 23992 23996 24000 24004 24008 24012 24016 24020 24024 24028 24032 24036 24040 24044 24048 24052 24056 24060 24064 24068 24072 24076 24080 24084 24088 24092 24096 24100 24104 24108 24112 24116 24120 24124 24128 24132 24136 24140 24144 24148 24152 24156 24160 24164 24168 24172 24176 24180 24184 24188 24192 24196 24200 24204 24208 24212 24216 24220 24224 24228 24232 24236 24240 24244 24248 24252 24256 24260 24264 24268 24272 24276 24280 24284 24288 24292 24296 24300 24304 24308 24312 24316 24320 24324 24328 24332 24336 24340 24344 24348 24352 24356 24360 24364 24368 24372 24376 24380 24384 24388 24392 24396 24400 24404 24408 24412 24416 24420 24424 24428 24432 24436 24440 24444 24448 24452 24456 24460 24464 24468 24472 24476 24480 24484 24488 24492 24496 24500 24504 24508 24512 24516 24520 24524 24528 24532 24536 24540 24544 24548 24552 24556 24560 24564 24568 24572 24576 24580 24584 24588 24592 24596 24600 24604 24608 24612 24616 24620 24624 24628 24632 24636 24640 24644 24648 24652 24656 24660 24664 24668 24672 24676 24680 24684 24688 24692 24696 24700 24704 24708 24712 24716 24720 24724 24728 24732 24736 24740 24744 24748 24752 24756 24760 24764 24768 24772 24776 24780 24784 24788 24792 24796 24800 24804 24808 24812 24816 24820 24824 24828 24832 24836 24840 24844 24848 24852 24856 24860 24864 24868 24872 24876 24880 24884 24888 24892 24896 24900 24904 24908 24912 24916 24920 24924 24928 24932 24936 24940 24944 24948 24952 24956 24960 24964 24968 24972 24976 24980 24984 24988 24992 24996 25000 25004 25008 25012 25016 25020 25024 25028 25032 25036 25040 25044 25048 25052 25056 25060 25064 25068 25072 25076 25080 25084 25088 25092 25096 25100 25104 25108 25112 25116 25120 25124 25128 25132 25136 25140 25144 25148 25152 25156 25160 25164 25168 25172 25176 25180 25184 25188 25192 25196 25200 25204 25208 25212 25216 25220 25224 25228 25232 25236 25240 25244 25248 25252 25256 25260 25264 25268 25272 25276 25280 25284 25288 25292 25296 25300 25304 25308 25312 25316 25320 25324 25328 25332 25336 25340 25344 25348 25352 25356 25360 25364 25368 25372 25376 25380 25384 25388 25392 25396 25400 25404 25408 25412 25416 25420 25424 25428 25432 25436 25440 25444 25448 25452 25456 25460 25464 25468 25472 25476 25480 25484 25488 25492 25496 25500 25504 25508 25512 25516 25520 25524 25528 25532 25536 25540 25544 25548 25552 25556 25560 25564 25568 25572 25576 25580 25584 25588 25592 25596 25600 25604 25608 25612 25616 25620 25624 25628 25632 25636 25640 25644 25648 25652 25656 25660 25664 25668 25672 25676 25680 25684 25688 25692 25696 25700 25704 25708 25712 25716 25720 25724 25728 25732 25736 25740 25744 25748 25752 25756 25760 25764 25768 25772 25776 25780 25784 25788 25792 25796 25800 25804 25808 25812 25816 25820 25824 25828 25832 25836 25840 25844 25848 25852 25856 25860 25864 25868 25872 25876 25880 25884 25888 25892 25896 25900 25904 25908 25912 25916 25920 25924 25928 25932 25936 25940 25944 25948 25952 25956 25960 25964 25968 25972 25976 25980 25984 25988 25992 25996 26000 26004 26008 26012 26016 26020 26024 26028 26032 26036 26040 26044 26048 26052 26056 26060 26064 26068 26072 26076 26080 26084 26088 26092 26096 26100 26104 26108 26112 26116 26120 26124 26128 26132 26136 26140 26144 26148 26152 26156 26160 26164 26168 26172 26176 26180 26184 26188 26192 26196 26200 26204 26208 26212 26216 26220 26224 26228 26232 26236 26240 26244 26248 26252 26256 26260 26264 26268 26272 26276 26280 26284 26288 26292 26296 26300 26304 26308 26312 26316 26320 26324 26328 26332 26336 26340 26344 26348 26352 26356 26360 26364 26368 26372 26376 26380 26384 26388 26392 26396 26400 26404 26408 26412 26416 26420 26424 26428 26432 26436 26440 26444 26448 26452 26456 26460 26464 26468 26472 26476 26480 26484 26488 26492 26496 26500 26504 26508 26512 26516 26520 26524 26528 26532 26536 26540 26544 26548 26552 26556 26560 26564 26568 26572 26576 26580 26584 26588 26592 26596 26600 26604 26608 26612 26616 26620 26624 26628 26632 26636 26640 26644 26648 26652 26656 26660 26664 26668 26672 26676 26680 26684 26688 26692 26696 26700 26704 26708 26712 26716 26720 26724 26728 26732 26736 26740 26744 26748 26752 26756 26760 26764 26768 26772 26776 26780 26784 26788 26792 26796 26800 26804 26808 26812 26816 26820 26824 26828 26832 26836 26840 26844 26848 26852 26856 26860 26864 26868 26872 26876 26880 26884 26888 26892 26896 26900 26904 26908 26912 26916 26920 26924 26928 26932 26936 26940 26944 26948 26952 26956 26960 26964 26968 26972 26976 26980 26984 26988 26992 26996 27000 27004 27008 27012 27016 27020 27024 27028 27032 27036 27040 27044 27048 27052 27056 27060 27064 27068 27072 27076 27080 27084 27088 27092 27096 27100 27104 27108 27112 27116 27120 27124 27128 27132 27136 27140 27144 27148 27152 27156 27160 27164 27168 27172 27176 27180 27184 27188 27192 27196 27200 27204 27208 27212 27216 27220 27224 27228 27232 27236 27240 27244 27248 27252 27256 27260 27264 27268 27272 27276 27280 27284 27288 27292 27296 27300 27304 27308 27312 27316 27320 27324 27328 27332 27336 27340 27344 27348 27352 27356 27360 27364 27368 27372 27376 27380 27384 27388 27392 27396 27400 27404 27408 27412 27416 27420 27424 27428 27432 27436 27440 27444 27448 27452 27456 27460 27464 27468 27472 27476 27480 27484 27488 27492 27496 27500 27504 27508 27512 27516 27520 27524 27528 27532 27536 27540 27544 27548 27552 27556 27560 27564 27568 27572 27576 27580 27584 27588 27592 27596 27600 27604 27608 27612 27616 27620 27624 27628 27632 27636 27640 27644 27648 27652 27656 27660 27664 27668 27672 27676 27680 27684 27688 27692 27696 27700 27704 27708 27712 27716 27720 27724 27728 27732 27736 27740 27744 27748 27752 27756 27760 27764 27768 27772 27776 27780 27784 27788 27792 27796 27800 27804 27808 27812 27816 27820 27824 27828 27832 27836 27840 27844 27848 27852 27856 27860 27864 27868 27872 27876 27880 27884 27888 27892 27896 27900 27904 27908 27912 27916 27920 27924 27928 27932 27936 27940 27944 27948 27952 27956 27960 27964 27968 27972 27976 27980 27984 27988 27992 27996 28000 28004 28008 28012 28016 28020 28024 28028 28032 28036 28040 28044 28048 28052 28056 28060 28064 28068 28072 28076 28080 28084 28088 28092 28096 28100 28104 28108 28112 28116 28120 28124 28128 28132 28136 28140 28144 28148 28152 28156 28160 28164 28168 28172 28176 28180 28184 28188 28192 28196 28200 28204 28208 28212 28216 28220 28224 28228 28232 28236 28240 28244 28248 28252 28256 28260 28264 28268 28272 28276 28280 28284 28288 28292 28296 28300 28304 28308 28312 28316 28320 28324 28328 28332 28336 28340 28344 28348 28352 28356 28360 28364 28368 28372 28376 28380 28384 28388 28392 28396 28400 28404 28408 28412 28416 28420 28424 28428 28432 28436 28440 28444 28448 28452 28456 28460 28464 28468 28472 28476 28480 28484 28488 28492 28496 28500 28504 28508 28512 28516 28520 28524 28528 28532 28536 28540 28544 28548 28552 28556 28560 28564 28568 28572 28576 28580 28584 28588 28592 28596 28600 28604 28608 28612 28616 28620 28624 28628 28632 28636 28640 28644 28648 28652 28656 28660 28664 28668 28672 28676 28680 28684 28688 28692 28696 28700 28704 28708 28712 28716 28720 28724 28728 28732 28736 28740 28744 28748 28752 28756 28760 28764 28768 28772 28776 28780 28784 28788 28792 28796 28800 28804 28808 28812 28816 28820 28824 28828 28832 28836 28840 28844 28848 28852 28856 28860 28864 28868 28872 28876 28880 28884 28888 28892 28896 28900 28904 28908 28912 28916 28920 28924 28928 28932 28936 28940 28944 28948 28952 28956 28960 28964 28968 28972 28976 28980 28984 28988 28992 28996 29000 29004 29008 29012 29016 29020 29024 29028 29032 29036 29040 29044 29048 29052 29056 29060 29064 29068 29072 29076 29080 29084 29088 29092 29096 29100 29104 29108 29112 29116 29120 29124 29128 29132 29136 29140 29144 29148 29152 29156 29160 29164 29168 29172 29176 29180 29184 29188 29192 29196 29200 29204 29208 29212 29216 29220 29224 29228 29232 29236 29240 29244 29248 29252 29256 29260 29264 29268 29272 29276 29280 29284 29288 29292 29296 29300 29304 29308 29312 29316 29320 29324 29328 29332 29336 29340 29344 29348 29352 29356 29360 29364 29368 29372 29376 29380 29384 29388 29392 29396 29400 29404 29408 29412 29416 29420 29424 29428 29432 29436 29440 29444 29448 29452 29456 29460 29464 29468 29472 29476 29480 29484 29488 29492 29496 29500 29504 29508 29512 29516 29520 29524 29528 29532 29536 29540 29544 29548 29552 29556 29560 29564 29568 29572 29576 29580 29584 29588 29592 29596 29600 29604 29608 29612 29616 29620 29624 29628 29632 29636 29640 29644 29648 29652 29656 29660 29664 29668 29672 29676 29680 29684 29688 29692 29696 29700 29704 29708 29712 29716 29720 29724 29728 29732 29736 29740 29744 29748 29752 29756 29760 29764 29768 29772 29776 29780 29784 29788 29792 29796 29800 29804 29808 29812 29816 29820 29824 29828 29832 29836 29840 29844 29848 29852 29856 29860 29864 29868 29872 29876 29880 29884 29888 29892 29896 29900 29904 29908 29912 29916 29920 29924 29928 29932 29936 29940 29944 29948 29952 29956 29960 29964 29968 29972 29976 29980 29984 29988 29992 29996 30000 30004 30008 30012 30016 30020 30024 30028 30032 30036 30040 30044 30048 30052 30056 30060 30064 30068 30072 30076 30080 30084 30088 30092 30096 30100 30104 30108 30112 30116 30120 30124 30128 30132 30136 30140 30144 30148 30152 30156 30160 30164 30168 30172 30176 30180 30184 30188 30192 30196 30200 30204 30208 30212 30216 30220 30224 30228 30232 30236 30240 30244 30248 30252 30256 30260 30264 30268 30272 30276 30280 30284 30288 30292 30296 30300 30304 30308 30312 30316 30320 30324 30328 30332 30336 30340 30344 30348 30352 30356 30360 30364 30368 30372 30376 30380 30384 30388 30392 30396 30400 30404 30408 30412 30416 30420 30424 30428 30432 30436 30440 30444 30448 30452 30456 30460 30464 30468 30472 30476 30480 30484 30488 30492 30496 30500 30504 30508 30512 30516 30520 30524 30528 30532 30536 30540 30544 30548 30552 30556 30560 30564 30568 30572 30576 30580 30584 30588 30592 30596 30600 30604 30608 30612 30616 30620 30624 30628 30632 30636 30640 30644 30648 30652 30656 30660 30664 30668 30672 30676 30680 30684 30688 30692 30696 30700 30704 30708 30712 30716 30720 30724 30728 30732 30736 30740 30744 30748 30752 30756 30760 30764 30768 30772 30776 30780 30784 30788 30792 30796 30800 30804 30808 30812 30816 30820 30824 30828 30832 30836 30840 30844 30848 30852 30856 30860 30864 30868 30872 30876 30880 30884 30888 30892 30896 30900 30904 30908 30912 30916 30920 30924 30928 30932 30936 30940 30944 30948 30952 30956 30960 30964 30968 30972 30976 30980 30984 30988 30992 30996 31000 31004 31008 31012 31016 31020 31024 31028 31032 31036 31040 31044 31048 31052 31056 31060 31064 31068 31072 31076 31080 31084 31088 31092 31096 31100 31104 31108 31112 31116 31120 31124 31128 31132 31136 31140 31144 31148 31152 31156 31160 31164 31168 31172 31176 31180 31184 31188 31192 31196 31200 31204 31208 31212 31216 31220 31224 31228 31232 31236 31240 31244 31248 31252 31256 31260 31264 31268 31272 31276 31280 31284 31288 31292 31296 31300 31304 31308 31312 31316 31320 31324 31328 31332 31336 31340 31344 31348 31352 31356 31360 31364 31368 31372 31376 31380 31384 31388 31392 31396 31400 31404 31408 31412 31416 31420 31424 31428 31432 31436 31440 31444 31448 31452 31456 31460 31464 31468 31472 31476 31480 31484 31488 31492 31496 31500 31504 31508 31512 31516 31520 31524 31528 31532 31536 31540 31544 31548 31552 31556 31560 31564 31568 31572 31576 31580 31584 31588 31592 31596 31600 31604 31608 31612 31616 31620 31624 31628 31632 31636 31640 31644 31648 31652 31656 31660 31664 31668 31672 31676 31680 31684 31688 31692 31696 31700 31704 31708 31712 31716 31720 31724 31728 31732 31736 31740 31744 31748 31752 31756 31760 31764 31768 31772 31776 31780 31784 31788 31792 31796 31800 31804 31808 31812 31816 31820 31824 31828 31832 31836 31840 31844 31848 31852 31856 31860 31864 31868 31872 31876 31880 31884 31888 31892 31896 31900 31904 31908 31912 31916 31920 31924 31928 31932 31936 31940 31944 31948 31952 31956 31960 31964 31968 31972 31976 31980 31984 31988 31992 31996 32000 32004 32008 32012 32016 32020 32024 32028 32032 32036 32040 32044 32048 32052 32056 32060 32064 32068 32072 32076 32080 32084 32088 32092 32096 32100 32104 32108 32112 32116 32120 32124 32128 32132 32136 32140 32144 32148 32152 32156 32160 32164 32168 32172 32176 32180 32184 32188 32192 32196 32200 32204 32208 32212 32216 32220 32224 32228 32232 32236 32240 32244 32248 32252 32256 32260 32264 32268 32272 32276 32280 32284 32288 32292 32296 32300 32304 32308 32312 32316 32320 32324 32328 32332 32336 32340 32344 32348 32352 32356 32360 32364 32368 32372 32376 32380 32384 32388 32392 32396 32400 32404 32408 32412 32416 32420 32424 32428 32432 32436 32440 32444 32448 32452 32456 32460 32464 32468 32472 32476 32480 32484 32488 32492 32496 32500 32504 32508 32512 32516 32520 32524 32528 32532 32536 32540 32544 32548 32552 32556 32560 32564 32568 32572 32576 32580 32584 32588 32592 32596 32600 32604 32608 32612 32616 32620 32624 32628 32632 32636 32640 32644 32648 32652 32656 32660 32664 32668 32672 32676 32680 32684 32688 32692 32696 32700 32704 32708 32712 32716 32720 32724 32728 32732 32736 32740 32744 32748 32752 32756 32760 32764 32768 32772 32776 32780 32784 32788 32792 32796 32800 32804 32808 32812 32816 32820 32824 32828 32832 32836 32840 32844 32848 32852 32856 32860 32864 32868 32872 32876 32880 32884 32888 32892 32896 32900 32904 32908 32912 32916 32920 32924 32928 32932 32936 32940 32944 32948 32952 32956 32960 32964 32968 32972 32976 32980 32984 32988 32992 32996 33000 33004 33008 33012 33016 33020 33024 33028 33032 33036 33040 33044 33048 33052 33056 33060 33064 33068 33072 33076 33080 33084 33088 33092 33096 33100 33104 33108 33112 33116 33120 33124 33128 33132 33136 33140 33144 33148 33152 33156 33160 33164 33168 33172 33176 33180 33184 33188 33192 33196 33200 33204 33208 33212 33216 33220 33224 33228 33232 33236 33240 33244 33248 33252 33256 33260 33264 33268 33272 33276 33280 33284 33288 33292 33296 33300 33304 33308 33312 33316 33320 33324 33328 33332 33336 33340 33344 33348 33352 33356 33360 33364 33368 33372 33376 33380 33384 33388 33392 33396 33400 33404 33408 33412 33416 33420 33424 33428 33432 33436 33440 33444 33448 33452 33456 33460 33464 33468 33472 33476 33480 33484 33488 33492 33496 33500 33504 33508 33512 33516 33520 33524 33528 33532 33536 33540 33544 33548 33552 33556 33560 33564 33568 33572 33576 33580 33584 33588 33592 33596 33600 33604 33608 33612 33616 33620 33624 33628 33632 33636 33640 33644 33648 33652 33656 33660 33664 33668 33672 33676 33680 33684 33688 33692 33696 33700 33704 33708 33712 33716 33720 33724 33728 33732 33736 33740 33744 33748 33752 33756 33760 33764 33768 33772 33776 33780 33784 33788 33792 33796 33800 33804 33808 33812 33816 33820 33824 33828 33832 33836 33840 33844 33848 33852 33856 33860 33864 33868 33872 33876 33880 33884 33888 33892 33896 33900 33904 33908 33912 33916 33920 33924 33928 33932 33936 33940 33944 33948 33952 33956 33960 33964 33968 33972 33976 33980 33984 33988 33992 33996 34000 34004 34008 34012 34016 34020 34024 34028 34032 34036 34040 34044 34048 34052 34056 34060 34064 34068 34072 34076 34080 34084 34088 34092 34096 34100 34104 34108 34112 34116 34120 34124 34128 34132 34136 34140 34144 34148 34152 34156 34160 34164 34168 34172 34176 34180 34184 34188 34192 34196 34200 34204 34208 34212 34216 34220 34224 34228 34232 34236 34240 34244 34248 34252 34256 34260 34264 34268 34272 34276 34280 34284 34288 34292 34296 34300 34304 34308 34312 34316 34320 34324 34328 34332 34336 34340 34344 34348 34352 34356 34360 34364 34368 34372 34376 34380 34384 34388 34392 34396 34400 34404 34408 34412 34416 34420 34424 34428 34432 34436 34440 34444 34448 34452 34456 34460 34464 34468 34472 34476 34480 34484 34488 34492 34496 34500 34504 34508 34512 34516 34520 34524 34528 34532 34536 34540 34544 34548 34552 34556 34560 34564 34568 34572 34576 34580 34584 34588 34592 34596 34600 34604 34608 34612 34616 34620 34624 34628 34632 34636 34640 34644 34648 34652 34656 34660 34664 34668 34672 34676 34680 34684 34688 34692 34696 34700 34704 34708 34712 34716 34720 34724 34728 34732 34736 34740 34744 34748 34752 34756 34760 34764 34768 34772 34776 34780 34784 34788 34792 34796 34800 34804 34808 34812 34816 34820 34824 34828 34832 34836 34840 34844 34848 34852 34856 34860 34864 34868 34872 34876 34880 34884 34888 34892 34896 34900 34904 34908 34912 34916 34920 34924 34928 34932 34936 34940 34944 34948 34952 34956 34960 34964 34968 34972 34976 34980 34984 34988 34992 34996 35000 35004 35008 35012 35016 35020 35024 35028 35032 35036 35040 35044 35048 35052 35056 35060 35064 35068 35072 35076 35080 35084 35088 35092 35096 35100 35104 35108 35112 35116 35120 35124 35128 35132 35136 35140 35144 35148 35152 35156 35160 35164 35168 35172 35176 35180 35184 35188 35192 35196 35200 35204 35208 35212 35216 35220 35224 35228 35232 35236 35240 35244 35248 35252 35256 35260 35264 35268 35272 35276 35280 35284 35288 35292 35296 35300 35304 35308 35312 35316 35320 35324 35328 35332 35336 35340 35344 35348 35352 35356 35360 35364 35368 35372 35376 35380 35384 35388 35392 35396 35400 35404 35408 35412 35416 35420 35424 35428 35432 35436 35440 35444 35448 35452 35456 35460 35464 35468 35472 35476 35480 35484 35488 35492 35496 35500 35504 35508 35512 35516 35520 35524 35528 35532 35536 35540 35544 35548 35552 35556 35560 35564 35568 35572 35576 35580 35584 35588 35592 35596 35600 35604 35608 35612 35616 35620 35624 35628 35632 35636 35640 35644 35648 35652 35656 35660 35664 35668 35672 35676 35680 35684 35688 35692 35696 35700 35704 35708 35712 35716 35720 35724 35728 35732 35736 35740 35744 35748 35752 35756 35760 35764 35768 35772 35776 35780 35784 35788 35792 35796 35800 35804 35808 35812 35816 35820 35824 35828 35832 35836 35840 35844 35848 35852 35856 35860 35864 35868 35872 35876 35880 35884 35888 35892 35896 35900 35904 35908 35912 35916 35920 35924 35928 35932 35936 35940 35944 35948 35952 35956 35960 35964 35968 35972 35976 35980 35984 35988 35992 35996 36000 36004 36008 36012 36016 36020 36024 36028 36032 36036 36040 36044 36048 36052 36056 36060 36064 36068 36072 36076 36080 36084 36088 36092 36096 36100 36104 36108 36112 36116 36120 36124 36128 36132 36136 36140 36144 36148 36152 36156 36160 36164 36168 36172 36176 36180 36184 36188 36192 36196 36200 36204 36208 36212 36216 36220 36224 36228 36232 36236 36240 36244 36248 36252 36256 36260 36264 36268 36272 36276 36280 36284 36288 36292 36296 36300 36304 36308 36312 36316 36320 36324 36328 36332 36336 36340 36344 36348 36352 36356 36360 36364 36368 36372 36376 36380 36384 36388 36392 36396 36400 36404 36408 36412 36416 36420 36424 36428 36432 36436 36440 36444 36448 36452 36456 36460 36464 36468 36472 36476 36480 36484 36488 36492 36496 36500 36504 36508 36512 36516 36520 36524 36528 36532 36536 36540 36544 36548 36552 36556 36560 36564 36568 36572 36576 36580 36584 36588 36592 36596 36600 36604 36608 36612 36616 36620 36624 36628 36632 36636 36640 36644 36648 36652 36656 36660 36664 36668 36672 36676 36680 36684 36688 36692 36696 36700 36704 36708 36712 36716 36720 36724 36728 36732 36736 36740 36744 36748 36752 36756 36760 36764 36768 36772 36776 36780 36784 36788 36792 36796 36800 36804 36808 36812 36816 36820 36824 36828 36832 36836 36840 36844 36848 36852 36856 36860 36864 36868 36872 36876 36880 36884 36888 36892 36896 36900 36904 36908 36912 36916 36920 36924 36928 36932 36936 36940 36944 36948 36952 36956 36960 36964 36968 36972 36976 36980 36984 36988 36992 36996 37000 37004 37008 37012 37016 37020 37024 37028 37032 37036 37040 37044 37048 37052 37056 37060 37064 37068 37072 37076 37080 37084 37088 37092 37096 37100 37104 37108 37112 37116 37120 37124 37128 37132 37136 37140 37144 37148 37152 37156 37160 37164 37168 37172 37176 37180 37184 37188 37192 37196 37200 37204 37208 37212 37216 37220 37224 37228 37232 37236 37240 37244 37248 37252 37256 37260 37264 37268 37272 37276 37280 37284 37288 37292 37296 37300 37304 37308 37312 37316 37320 37324 37328 37332 37336 37340 37344 37348 37352 37356 37360 37364 37368 37372 37376 37380 37384 37388 37392 37396 37400 37404 37408 37412 37416 37420 37424 37428 37432 37436 37440 37444 37448 37452 37456 37460 37464 37468 37472 37476 37480 37484 37488 37492 37496 37500 37504 37508 37512 37516 37520 37524 37528 37532 37536 37540 37544 37548 37552 37556 37560 37564 37568 37572 37576 37580 37584 37588 37592 37596 37600 37604 37608 37612 37616 37620 37624 37628 37632 37636 37640 37644 37648 37652 37656 37660 37664 37668 37672 37676 37680 37684 37688 37692 37696 37700 37704 37708 37712 37716 37720 37724 37728 37732 37736 37740 37744 37748 37752 37756 37760 37764 37768 37772 37776 37780 37784 37788 37792 37796 37800 37804 37808 37812 37816 37820 37824 37828 37832 37836 37840 37844 37848 37852 37856 37860 37864 37868 37872 37876 37880 37884 37888 37892 37896 37900 37904 37908 37912 37916 37920 37924 37928 37932 37936 37940 37944 37948 37952 37956 37960 37964 37968 37972 37976 37980 37984 37988 37992 37996 38000 38004 38008 38012 38016 38020 38024 38028 38032 38036 38040 38044 38048 38052 38056 38060 38064 38068 38072 38076 38080 38084 38088 38092 38096 38100 38104 38108 38112 38116 38120 38124 38128 38132 38136 38140 38144 38148 38152 38156 38160 38164 38168 38172 38176 38180 38184 38188 38192 38196 38200 38204 38208 38212 38216 38220 38224 38228 38232 38236 38240 38244 38248 38252 38256 38260 38264 38268 38272 38276 38280 38284 38288 38292 38296 38300 38304 38308 38312 38316 38320 38324 38328 38332 38336 38340 38344 38348 38352 38356 38360 38364 38368 38372 38376 38380 38384 38388 38392 38396 38400 38404 38408 38412 38416 38420 38424 38428 38432 38436 38440 38444 38448 38452 38456 38460 38464 38468 38472 38476 38480 38484 38488 38492 38496 38500 38504 38508 38512 38516 38520 38524 38528 38532 38536 38540 38544 38548 38552 38556 38560 38564 38568 38572 38576 38580 38584 38588 38592 38596 38600 38604 38608 38612 38616 38620 38624 38628 38632 38636 38640 38644 38648 38652 38656 38660 38664 38668 38672 38676 38680 38684 38688 38692 38696 38700 38704 38708 38712 38716 38720 38724 38728 38732 38736 38740 38744 38748 38752 38756 38760 38764 38768 38772 38776 38780 38784 38788 38792 38796 38800 38804 38808 38812 38816 38820 38824 38828 38832 38836 38840 38844 38848 38852 38856 38860 38864 38868 38872 38876 38880 38884 38888 38892 38896 38900 38904 38908 38912 38916 38920 38924 38928 38932 38936 38940 38944 38948 38952 38956 38960 38964 38968 38972 38976 38980 38984 38988 38992 38996 39000 39004 39008 39012 39016 39020 39024 39028 39032 39036 39040 39044 39048 39052 39056 39060 39064 39068 39072 39076 39080 39084 39088 39092 39096 39100 39104 39108 39112 39116 39120 39124 39128 39132 39136 39140 39144 39148 39152 39156 39160 39164 39168 39172 39176 39180 39184 39188 39192 39196 39200 39204 39208 39212 39216 39220 39224 39228 39232 39236 39240 39244 39248 39252 39256 39260 39264 39268 39272 39276 39280 39284 39288 39292 39296 39300 39304 39308 39312 39316 39320 39324 39328 39332 39336 39340 39344 39348 39352 39356 39360 39364 39368 39372 39376 39380 39384 39388 39392 39396 39400 39404 39408 39412 39416 39420 39424 39428 39432 39436 39440 39444 39448 39452 39456 39460 39464 39468 39472 39476 39480 39484 39488 39492 39496 39500 39504 39508 39512 39516 39520 39524 39528 39532 39536 39540 39544 39548 39552 39556 39560 39564 39568 39572 39576 39580 39584 39588 39592 39596 39600 39604 39608 39612 39616 39620 39624 39628 39632 39636 39640 39644 39648 39652 39656 39660 39664 39668 39672 39676 39680 39684 39688 39692 39696 39700 39704 39708 39712 39716 39720 39724 39728 39732 39736 39740 39744 39748 39752 39756 39760 39764 39768 39772 39776 39780 39784 39788 39792 39796 39800 39804 39808 39812 39816 39820 39824 39828 39832 39836 39840 39844 39848 39852 39856 39860 39864 39868 39872 39876 39880 39884 39888 39892 39896 39900 39904 39908 39912 39916 39920 39924 39928 39932 39936 39940 39944 39948 39952 39956 39960 39964 39968 39972 39976 39980 39984 39988 39992 39996 40000 40004 40008 40012 40016 40020 40024 40028 40032 40036 40040 40044 40048 40052 40056 40060 40064 40068 40072 40076 40080 40084 40088 40092 40096 40100 40104 40108 40112 40116 40120 40124 40128 40132 40136 40140 40144 40148 40152 40156 40160 40164 40168 40172 40176 40180 40184 40188 40192 40196 40200 40204 40208 40212 40216 40220 40224 40228 40232 40236 40240 40244 40248 40252 40256 40260 40264 40268 40272 40276 40280 40284 40288 40292 40296 40300 40304 40308 40312 40316 40320 40324 40328 40332 40336 40340 40344 40348 40352 40356 40360 40364 40368 40372 40376 40380 40384 40388 40392 40396 40400 40404 40408 40412 40416 40420 40424 40428 40432 40436 40440 40444 40448 40452 40456 40460 40464 40468 40472 40476 40480 40484 40488 40492 40496 40500 40504 40508 40512 40516 40520 40524 40528 40532 40536 40540 40544 40548 40552 40556 40560 40564 40568 40572 40576 40580 40584 40588 40592 40596 40600 40604 40608 40612 40616 40620 40624 40628 40632 40636 40640 40644 40648 40652 40656 40660 40664 40668 40672 40676 40680 40684 40688 40692 40696 40700 40704 40708 40712 40716 40720 40724 40728 40732 40736 40740 40744 40748 40752 40756 40760 40764 40768 40772 40776 40780 40784 40788 40792 40796 40800 40804 40808 40812 40816 40820 40824 40828 40832 40836 40840 40844 40848 40852 40856 40860 40864 40868 40872 40876 40880 40884 40888 40892 40896 40900 40904 40908 40912 40916 40920 40924 40928 40932 40936 40940 40944 40948 40952 40956 40960 40964 40968 40972 40976 40980 40984 40988 40992 40996 41000 41004 41008 41012 41016 41020 41024 41028 41032 41036 41040 41044 41048 41052 41056 41060 41064 41068 41072 41076 41080 41084 41088 41092 41096 41100 41104 41108 41112 41116 41120 41124 41128 41132 41136 41140 41144 41148 41152 41156 41160 41164 41168 41172 41176 41180 41184 41188 41192 41196 41200 41204 41208 41212 41216 41220 41224 41228 41232 41236 41240 41244 41248 41252 41256 41260 41264 41268 41272 41276 41280 41284 41288 41292 41296 41300 41304 41308 41312 41316 41320 41324 41328 41332 41336 41340 41344 41348 41352 41356 41360 41364 41368 41372 41376 41380 41384 41388 41392 41396 41400 41404 41408 41412 41416 41420 41424 41428 41432 41436 41440 41444 41448 41452 41456 41460 41464 41468 41472 41476 41480 41484 41488 41492 41496 41500 41504 41508 41512 41516 41520 41524 41528 41532 41536 41540 41544 41548 41552 41556 41560 41564 41568 41572 41576 41580 41584 41588 41592 41596 41600 41604 41608 41612 41616 41620 41624 41628 41632 41636 41640 41644 41648 41652 41656 41660 41664 41668 41672 41676 41680 41684 41688 41692 41696 41700 41704 41708 41712 41716 41720 41724 41728 41732 41736 41740 41744 41748 41752 41756 41760 41764 41768 41772 41776 41780 41784 41788 41792 41796 41800 41804 41808 41812 41816 41820 41824 41828 41832 41836 41840 41844 41848 41852 41856 41860 41864 41868 41872 41876 41880 41884 41888 41892 41896 41900 41904 41908 41912 41916 41920 41924 41928 41932 41936 41940 41944 41948 41952 41956 41960 41964 41968 41972 41976 41980 41984 41988 41992 41996 42000 42004 42008 42012 42016 42020 42024 42028 42032 42036 42040 42044 42048 42052 42056 42060 42064 42068 42072 42076 42080 42084 42088 42092 42096 42100 42104 42108 42112 42116 42120 42124 42128 42132 42136 42140 42144 42148 42152 42156 42160 42164 42168 42172 42176 42180 42184 42188 42192 42196 42200 42204 42208 42212 42216 42220 42224 42228 42232 42236 42240 42244 42248 42252 42256 42260 42264 42268 42272 42276 42280 42284 42288 42292 42296 42300 42304 42308 42312 42316 42320 42324 42328 42332 42336 42340 42344 42348 42352 42356 42360 42364 42368 42372 42376 42380 42384 42388 42392 42396 42400 42404 42408 42412 42416 42420 42424 42428 42432 42436 42440 42444 42448 42452 42456 42460 42464 42468 42472 42476 42480 42484 42488 42492 42496 42500 42504 42508 42512 42516 42520 42524 42528 42532 42536 42540 42544 42548 42552 42556 42560 42564 42568 42572 42576 42580 42584 42588 42592 42596 42600 42604 42608 42612 42616 42620 42624 42628 42632 42636 42640 42644 42648 42652 42656 42660 42664 42668 42672 42676 42680 42684 42688 42692 42696 42700 42704 42708 42712 42716 42720 42724 42728 42732 42736 42740 42744 42748 42752 42756 42760 42764 42768 42772 42776 42780 42784 42788 42792 42796 42800 42804 42808 42812 42816 42820 42824 42828 42832 42836 42840 42844 42848 42852 42856 42860 42864 42868 42872 42876 42880 42884 42888 42892 42896 42900 42904 42908 42912 42916 42920 42924 42928 42932 42936 42940 42944 42948 42952 42956 42960 42964 42968 42972 42976 42980 42984 42988 42992 42996 43000 43004 43008 43012 43016 43020 43024 43028 43032 43036 43040 43044 43048 43052 43056 43060 43064 43068 43072 43076 43080 43084 43088 43092 43096 43100 43104 43108 43112 43116 43120 43124 43128 43132 43136 43140 43144 43148 43152 43156 43160 43164 43168 43172 43176 43180 43184 43188 43192 43196 43200 43204 43208 43212 43216 43220 43224 43228 43232 43236 43240 43244 43248 43252 43256 43260 43264 43268 43272 43276 43280 43284 43288 43292 43296 43300 43304 43308 43312 43316 43320 43324 43328 43332 43336 43340 43344 43348 43352 43356 43360 43364 43368 43372 43376 43380 43384 43388 43392 43396 43400 43404 43408 43412 43416 43420 43424 43428 43432 43436 43440 43444 43448 43452 43456 43460 43464 43468 43472 43476 43480 43484 43488 43492 43496 43500 43504 43508 43512 43516 43520 43524 43528 43532 43536 43540 43544 43548 43552 43556 43560 43564 43568 43572 43576 43580 43584 43588 43592 43596 43600 43604 43608 43612 43616 43620 43624 43628 43632 43636 43640 43644 43648 43652 43656 43660 43664 43668 43672 43676 43680 43684 43688 43692 43696 43700 43704 43708 43712 43716 43720 43724 43728 43732 43736 43740 43744 43748 43752 43756 43760 43764 43768 43772 43776 43780 43784 43788 43792 43796 43800 43804 43808 43812 43816 43820 43824 43828 43832 43836 43840 43844 43848 43852 43856 43860 43864 43868 43872 43876 43880 43884 43888 43892 43896 43900 43904 43908 43912 43916 43920 43924 43928 43932 43936 43940 43944 43948 43952 43956 43960 43964 43968 43972 43976 43980 43984 43988 43992 43996 44000 44004 44008 44012 44016 44020 44024 44028 44032 44036 44040 44044 44048 44052 44056 44060 44064 44068 44072 44076 44080 44084 44088 44092 44096 44100 44104 44108 44112 44116 44120 44124 44128 44132 44136 44140 44144 44148 44152 44156 44160 44164 44168 44172 44176 44180 44184 44188 44192 44196 44200 44204 44208 44212 44216 44220 44224 44228 44232 44236 44240 44244 44248 44252 44256 44260 44264 44268 44272 44276 44280 44284 44288 44292 44296 44300 44304 44308 44312 44316 44320 44324 44328 44332 44336 44340 44344 44348 44352 44356 44360 44364 44368 44372 44376 44380 44384 44388 44392 44396 44400 44404 44408 44412 44416 44420 44424 44428 44432 44436 44440 44444 44448 44452 44456 44460 44464 44468 44472 44476 44480 44484 44488 44492 44496 44500 44504 44508 44512 44516 44520 44524 44528 44532 44536 44540 44544 44548 44552 44556 44560 44564 44568 44572 44576 44580 44584 44588 44592 44596 44600 44604 44608 44612 44616 44620 44624 44628 44632 44636 44640 44644 44648 44652 44656 44660 44664 44668 44672 44676 44680 44684 44688 44692 44696 44700 44704 44708 44712 44716 44720 44724 44728 44732 44736 44740 44744 44748 44752 44756 44760 44764 44768 44772 44776 44780 44784 44788 44792 44796 44800 44804 44808 44812 44816 44820 44824 44828 44832 44836 44840 44844 44848 44852 44856 44860 44864 44868 44872 44876 44880 44884 44888 44892 44896 44900 44904 44908 44912 44916 44920 44924 44928 44932 44936 44940 44944 44948 44952 44956 44960 44964 44968 44972 44976 44980 44984 44988 44992 44996 45000 45004 45008 45012 45016 45020 45024 45028 45032 45036 45040 45044 45048 45052 45056 45060 45064 45068 45072 45076 45080 45084 45088 45092 45096 45100 45104 45108 45112 45116 45120 45124 45128 45132 45136 45140 45144 45148 45152 45156 45160 45164 45168 45172 45176 45180 45184 45188 45192 45196 45200 45204 45208 45212 45216 45220 45224 45228 45232 45236 45240 45244 45248 45252 45256 45260 45264 45268 45272 45276 45280 45284 45288 45292 45296 45300 45304 45308 45312 45316 45320 45324 45328 45332 45336 45340 45344 45348 45352 45356 45360 45364 45368 45372 45376 45380 45384 45388 45392 45396 45400 45404 45408 45412 45416 45420 45424 45428 45432 45436 45440 45444 45448 45452 45456 45460 45464 45468 45472 45476 45480 45484 45488 45492 45496 45500 45504 45508 45512 45516 45520 45524 45528 45532 45536 45540 45544 45548 45552 45556 45560 45564 45568 45572 45576 45580 45584 45588 45592 45596 45600 45604 45608 45612 45616 45620 45624 45628 45632 45636 45640 45644 45648 45652 45656 45660 45664 45668 45672 45676 45680 45684 45688 45692 45696 45700 45704 45708 45712 45716 45720 45724 45728 45732 45736 45740 45744 45748 45752 45756 45760 45764 45768 45772 45776 45780 45784 45788 45792 45796 45800 45804 45808 45812 45816 45820 45824 45828 45832 45836 45840 45844 45848 45852 45856 45860 45864 45868 45872 45876 45880 45884 45888 45892 45896 45900 45904 45908 45912 45916 45920 45924 45928 45932 45936 45940 45944 45948 45952 45956 45960 45964 45968 45972 45976 45980 45984 45988 45992 45996 46000 46004 46008 46012 46016 46020 46024 46028 46032 46036 46040 46044 46048 46052 46056 46060 46064 46068 46072 46076 46080 46084 46088 46092 46096 46100 46104 46108 46112 46116 46120 46124 46128 46132 46136 46140 46144 46148 46152 46156 46160 46164 46168 46172 46176 46180 46184 46188 46192 46196 46200 46204 46208 46212 46216 46220 46224 46228 46232 46236 46240 46244 46248 46252 46256 46260 46264 46268 46272 46276 46280 46284 46288 46292 46296 46300 46304 46308 46312 46316 46320 46324 46328 46332 46336 46340 46344 46348 46352 46356 46360 46364 46368 46372 46376 46380 46384 46388 46392 46396 46400 46404 46408 46412 46416 46420 46424 46428 46432 46436 46440 46444 46448 46452 46456 46460 46464 46468 46472 46476 46480 46484 46488 46492 46496 46500 46504 46508 46512 46516 46520 46524 46528 46532 46536 46540 46544 46548 46552 46556 46560 46564 46568 46572 46576 46580 46584 46588 46592 46596 46600 46604 46608 46612 46616 46620 46624 46628 46632 46636 46640 46644 46648 46652 46656 46660 46664 46668 46672 46676 46680 46684 46688 46692 46696 46700 46704 46708 46712 46716 46720 46724 46728 46732 46736 46740 46744 46748 46752 46756 46760 46764 46768 46772 46776 46780 46784 46788 46792 46796 46800 46804 46808 46812 46816 46820 46824 46828 46832 46836 46840 46844 46848 46852 46856 46860 46864 46868 46872 46876 46880 46884 46888 46892 46896 46900 46904 46908 46912 46916 46920 46924 46928 46932 46936 46940 46944 46948 46952 46956 46960 46964 46968 46972 46976 46980 46984 46988 46992 46996 47000 47004 47008 47012 47016 47020 47024 47028 47032 47036 47040 47044 47048 47052 47056 47060 47064 47068 47072 47076 47080 47084 47088 47092 47096 47100 47104 47108 47112 47116 47120 47124 47128 47132 47136 47140 47144 47148 47152 47156 47160 47164 47168 47172 47176 47180 47184 47188 47192 47196 47200 47204 47208 47212 47216 47220 47224 47228 47232 47236 47240 47244 47248 47252 47256 47260 47264 47268 47272 47276 47280 47284 47288 47292 47296 47300 47304 47308 47312 47316 47320 47324 47328 47332 47336 47340 47344 47348 47352 47356 47360 47364 47368 47372 47376 47380 47384 47388 47392 47396 47400 47404 47408 47412 47416 47420 47424 47428 47432 47436 47440 47444 47448 47452 47456 47460 47464 47468 47472 47476 47480 47484 47488 47492 47496 47500 47504 47508 47512 47516 47520 47524 47528 47532 47536 47540 47544 47548 47552 47556 47560 47564 47568 47572 47576 47580 47584 47588 47592 47596 47600 47604 47608 47612 47616 47620 47624 47628 47632 47636 47640 47644 47648 47652 47656 47660 47664 47668 47672 47676 47680 47684 47688 47692 47696 47700 47704 47708 47712 47716 47720 47724 47728 47732 47736 47740 47744 47748 47752 47756 47760 47764 47768 47772 47776 47780 47784 47788 47792 47796 47800 47804 47808 47812 47816 47820 47824 47828 47832 47836 47840 47844 47848 47852 47856 47860 47864 47868 47872 47876 47880 47884 47888 47892 47896 47900 47904 47908 47912 47916 47920 47924 47928 47932 47936 47940 47944 47948 47952 47956 47960 47964 47968 47972 47976 47980 47984 47988 47992 47996 48000 48004 48008 48012 48016 48020 48024 48028 48032 48036 48040 48044 48048 48052 48056 48060 48064 48068 48072 48076 48080 48084 48088 48092 48096 48100 48104 48108 48112 48116 48120 48124 48128 48132 48136 48140 48144 48148 48152 48156 48160 48164 48168 48172 48176 48180 48184 48188 48192 48196 48200 48204 48208 48212 48216 48220 48224 48228 48232 48236 48240 48244 48248 48252 48256 48260 48264 48268 48272 48276 48280 48284 48288 48292 48296 48300 48304 48308 48312 48316 48320 48324 48328 48332 48336 48340 48344 48348 48352 48356 48360 48364 48368 48372 48376 48380 48384 48388 48392 48396 48400 48404 48408 48412 48416 48420 48424 48428 48432 48436 48440 48444 48448 48452 48456 48460 48464 48468 48472 48476 48480 48484 48488 48492 48496 48500 48504 48508 48512 48516 48520 48524 48528 48532 48536 48540 48544 48548 48552 48556 48560 48564 48568 48572 48576 48580 48584 48588 48592 48596 48600 48604 48608 48612 48616 48620 48624 48628 48632 48636 48640 48644 48648 48652 48656 48660 48664 48668 48672 48676 48680 48684 48688 48692 48696 48700 48704 48708 48712 48716 48720 48724 48728 48732 48736 48740 48744 48748 48752 48756 48760 48764 48768 48772 48776 48780 48784 48788 48792 48796 48800 48804 48808 48812 48816 48820 48824 48828 48832 48836 48840 48844 48848 48852 48856 48860 48864 48868 48872 48876 48880 48884 48888 48892 48896 48900 48904 48908 48912 48916 48920 48924 48928 48932 48936 48940 48944 48948 48952 48956 48960 48964 48968 48972 48976 48980 48984 48988 48992 48996 49000 49004 49008 49012 49016 49020 49024 49028 49032 49036 49040 49044 49048 49052 49056 49060 49064 49068 49072 49076 49080 49084 49088 49092 49096 49100 49104 49108 49112 49116 49120 49124 49128 49132 49136 49140 49144 49148 49152 
CONNECTIVITY vtktypeint64
0 33 331 34 
297 331 298 0 
0 33 330 331 
297 331 0 330 
298 0 331 1 
331 0 34 1 
1 34 332 35 
298 332 299 1 
1 34 331 332 
298 332 1 331 
299 1 332 2 
332 1 35 2 
2 35 333 36 
299 333 300 2 
2 35 332 333 
299 333 2 332 
300 2 333 3 
333 2 36 3 
3 36 334 37 
300 334 301 3 
3 36 333 334 
300 334 3 333 
301 3 334 4 
334 3 37 4 
4 37 335 38 
301 335 302 4 
4 37 334 335 
301 335 4 334 
302 4 335 5 
335 4 38 5 
5 38 336 39 
302 336 303 5 
5 38 335 336 
302 336 5 335 
303 5 336 6 
336 5 39 6 
6 39 337 40 
303 337 304 6 
6 39 336 337 
303 337 6 336 
304 6 337 7 
337 6 40 7 
7 40 338 41 
304 338 305 7 
7 40 337 338 
304 338 7 337 
305 7 338 8 
338 7 41 8 
8 41 339 42 
305 339 306 8 
8 41 338 339 
305 339 8 338 
306 8 339 9 
339 8 42 9 
9 42 340 43 
306 340 307 9 
9 42 339 340 
306 340 9 339 
307 9 340 10 
340 9 43 10 
10 43 341 44 
307 341 308 10 
10 43 340 341 
307 341 10 340 
308 10 341 11 
341 10 44 11 
11 44 342 45 
308 342 309 11 
11 44 341 342 
308 342 11 341 
309 11 342 12 
342 11 45 12 
12 45 343 46 
309 343 310 12 
12 45 342 343 
309 343 12 342 
310 12 343 13 
343 12 46 13 
13 46 344 47 
310 344 311 13 
13 46 343 344 
310 344 13 343 
311 13 344 14 
344 13 47 14 
14 47 345 48 
311 345 312 14 
14 47 344 345 
311 345 14 344 
312 14 345 15 
345 14 48 15 
15 48 346 49 
312 346 313 15 
15 48 345 346 
312 346 15 345 
313 15 346 16 
346 15 49 16 
16 49 347 50 
313 347 314 16 
16 49 346 347 
313 347 16 346 
314 16 347 17 
347 16 50 17 
17 50 348 51 
314 348 315 17 
17 50 347 348 
314 348 17 347 
315 17 348 18 
348 17 51 18 
18 51 349 52 
315 349 316 18 
18 51 348 349 
315 349 18 348 
316 18 349 19 
349 18 52 19 
19 52 350 53 
316 350 317 19 
19 52 349 350 
316 350 19 349 
317 19 350 20 
350 19 53 20 
20 53 351 54 
317 351 318 20 
20 53 350 351 
317 351 20 350 
318 20 351 21 
351 20 54 21 
21 54 352 55 
318 352 319 21 
21 54 351 352 
318 352 21 351 
319 21 352 22 
352 21 55 22 
22 55 353 56 
319 353 320 22 
22 55 352 353 
319 353 22 352 
320 22 353 23 
353 22 56 23 
23 56 354 57 
320 354 321 23 
23 56 353 354 
320 354 23 353 
321 23 354 24 
354 23 57 24 
24 57 355 58 
321 355 322 24 
24 57 354 355 
321 355 24 354 
322 24 355 25 
355 24 58 25 
25 58 356 59 
322 356 323 25 
25 58 355 356 
322 356 25 355 
323 25 356 26 
356 25 59 26 
26 59 357 60 
323 357 324 26 
26 59 356 357 
323 357 26 356 
324 26 357 27 
357 26 60 27 
27 60 358 61 
324 358 325 27 
27 60 357 358 
324 358 27 357 
325 27 358 28 
358 27 61 28 
28 61 359 62 
325 359 326 28 
28 61 358 359 
325 359 28 358 
326 28 359 29 
359 28 62 29 
29 62 360 63 
326 360 327 29 
29 62 359 360 
326 360 29 359 
327 29 360 30 
360 29 63 30 
30 63 361 64 
327 361 328 30 
30 63 360 361 
327 361 30 360 
328 30 361 31 
361 30 64 31 
31 64 362 65 
328 362 329 31 
31 64 361 362 
328 362 31 361 
329 31 362 32 
362 31 65 32 
33 66 364 67 
330 364 331 33 
33 66 363 364 
330 364 33 363 
331 33 364 34 
364 33 67 34 
34 67 365 68 
331 365 332 34 
34 67 364 365 
331 365 34 364 
332 34 365 35 
365 34 68 35 
35 68 366 69 
332 366 333 35 
35 68 365 366 
332 366 35 365 
333 35 366 36 
366 35 69 36 
36 69 367 70 
333 367 334 36 
36 69 366 367 
333 367 36 366 
334 36 367 37 
367 36 70 37 
37 70 368 71 
334 368 335 37 
37 70 367 368 
334 368 37 367 
335 37 368 38 
368 37 71 38 
38 71 369 72 
335 369 336 38 
38 71 368 369 
335 369 38 368 
336 38 369 39 
369 38 72 39 
39 72 370 73 
336 370 337 39 
39 72 369 370 
336 370 39 369 
337 39 370 40 
370 39 73 40 
40 73 371 74 
337 371 338 40 
40 73 370 371 
337 371 40 370 
338 40 371 41 
371 40 74 41 
41 74 372 75 
338 372 339 41 
41 74 371 372 
338 372 41 371 
339 41 372 42 
372 41 75 42 
42 75 373 76 
339 373 340 42 
42 75 372 373 
339 373 42 372 
340 42 373 43 
373 42 76 43 
43 76 374 77 
340 374 341 43 
43 76 373 374 
340 374 43 373 
341 43 374 44 
374 43 77 44 
44 77 375 78 
341 375 342 44 
44 77 374 375 
341 375 44 374 
342 44 375 45 
375 44 78 45 
45 78 376 79 
342 376 343 45 
45 78 375 376 
342 376 45 375 
343 45 376 46 
376 45 79 46 
46 79 377 80 
343 377 344 46 
46 79 376 377 
343 377 46 376 
344 46 377 47 
377 46 80 47 
47 80 378 81 
344 378 345 47 
47 80 377 378 
344 378 47 377 
345 47 378 48 
378 47 81 48 
48 81 379 82 
345 379 346 48 
48 81 378 379 
345 379 48 378 
346 48 379 49 
379 48 82 49 
49 82 380 83 
346 380 347 49 
49 82 379 380 
346 380 49 379 
347 49 380 50 
380 49 83 50 
50 83 381 84 
347 381 348 50 
50 83 380 381 
347 381 50 380 
348 50 381 51 
381 50 84 51 
51 84 382 85 
348 382 349 51 
51 84 381 382 
348 382 51 381 
349 51 382 52 
382 51 85 52 
52 85 383 86 
349 383 350 52 
52 85 382 383 
349 383 52 382 
350 52 383 53 
383 52 86 53 
53 86 384 87 
350 384 351 53 
53 86 383 384 
350 384 53 383 
351 53 384 54 
384 53 87 54 
54 87 385 88 
351 385 352 54 
54 87 384 385 
351 385 54 384 
352 54 385 55 
385 54 88 55 
55 88 386 89 
352 386 353 55 
55 88 385 386 
352 386 55 385 
353 55 386 56 
386 55 89 56 
56 89 387 90 
353 387 354 56 
56 89 386 387 
353 387 56 386 
354 56 387 57 
387 56 90 57 
57 90 388 91 
354 388 355 57 
57 90 387 388 
354 388 57 387 
355 57 388 58 
388 57 91 58 
58 91 389 92 
355 389 356 58 
58 91 388 389 
355 389 58 388 
356 58 389 59 
389 58 92 59 
59 92 390 93 
356 390 357 59 
59 92 389 390 
356 390 59 389 
357 59 390 60 
390 59 93 60 
60 93 391 94 
357 391 358 60 
60 93 390 391 
357 391 60 390 
358 60 391 61 
391 60 94 61 
61 94 392 95 
358 392 359 61 
61 94 391 392 
358 392 61 391 
359 61 392 62 
392 61 95 62 
62 95 393 96 
359 393 360 62 
62 95 392 393 
359 393 62 392 
360 62 393 63 
393 62 96 63 
63 96 394 97 
360 394 361 63 
63 96 393 394 
360 394 63 393 
361 63 394 64 
394 63 97 64 
64 97 395 98 
361 395 362 64 
64 97 394 395 
361 395 64 394 
362 64 395 65 
395 64 98 65 
66 99 397 100 
363 397 364 66 
66 99 396 397 
363 397 66 396 
364 66 397 67 
397 66 100 67 
67 100 398 101 
364 398 365 67 
67 100 397 398 
364 398 67 397 
365 67 398 68 
398 67 101 68 
68 101 399 102 
365 399 366 68 
68 101 398 399 
365 399 68 398 
366 68 399 69 
399 68 102 69 
69 102 400 103 
366 400 367 69 
69 102 399 400 
366 400 69 399 
367 69 400 70 
400 69 103 70 
70 103 401 104 
367 401 368 70 
70 103 400 401 
367 401 70 400 
368 70 401 71 
401 70 104 71 
71 104 402 105 
368 402 369 71 
71 104 401 402 
368 402 71 401 
369 71 402 72 
402 71 105 72 
72 105 403 106 
369 403 370 72 
72 105 402 403 
369 403 72 402 
370 72 403 73 
403 72 106 73 
73 106 404 107 
370 404 371 73 
73 106 403 404 
370 404 73 403 
371 73 404 74 
404 73 107 74 
74 107 405 108 
371 405 372 74 
74 107 404 405 
371 405 74 404 
372 74 405 75 
405 74 108 75 
75 108 406 109 
372 406 373 75 
75 108 405 406 
372 406 75 405 
373 75 406 76 
406 75 109 76 
76 109 407 110 
373 407 374 76 
76 109 406 407 
373 407 76 406 
374 76 407 77 
407 76 110 77 
77 110 408 111 
374 408 375 77 
77 110 407 408 
374 408 77 407 
375 77 408 78 
408 77 111 78 
78 111 409 112 
375 409 376 78 
78 111 408 409 
375 409 78 408 
376 78 409 79 
409 78 112 79 
79 112 410 113 
376 410 377 79 
79 112 409 410 
376 410 79 409 
377 79 410 80 
410 79 113 80 
80 113 411 114 
377 411 378 80 
80 113 410 411 
377 411 80 410 
378 80 411 81 
411 80 114 81 
81 114 412 115 
378 412 379 81 
81 114 411 412 
378 412 81 411 
379 81 412 82 
412 81 115 82 
82 115 413 116 
379 413 380 82 
82 115 412 413 
379 413 82 412 
380 82 413 83 
413 82 116 83 
83 116 414 117 
380 414 381 83 
83 116 413 414 
380 414 83 413 
381 83 414 84 
414 83 117 84 
84 117 415 118 
381 415 382 84 
84 117 414 415 
381 415 84 414 
382 84 415 85 
415 84 118 85 
85 118 416 119 
382 416 383 85 
85 118 415 416 
382 416 85 415 
383 85 416 86 
416 85 119 86 
86 119 417 120 
383 417 384 86 
86 119 416 417 
383 417 86 416 
384 86 417 87 
417 86 120 87 
87 120 418 121 
384 418 385 87 
87 120 417 418 
384 418 87 417 
385 87 418 88 
418 87 121 88 
88 121 419 122 
385 419 386 88 
88 121 418 419 
385 419 88 418 
386 88 419 89 
419 88 122 89 
89 122 420 123 
386 420 387 89 
89 122 419 420 
386 420 89 419 
387 89 420 90 
420 89 123 90 
90 123 421 124 
387 421 388 90 
90 123 420 421 
387 421 90 420 
388 90 421 91 
421 90 124 91 
91 124 422 125 
388 422 389 91 
91 124 421 422 
388 422 91 421 
389 91 422 92 
422 91 125 92 
92 125 423 126 
389 423 390 92 
92 125 422 423 
389 423 92 422 
390 92 423 93 
423 92 126 93 
93 126 424 127 
390 424 391 93 
93 126 423 424 
390 424 93 423 
391 93 424 94 
424 93 127 94 
94 127 425 128 
391 425 392 94 
94 127 424 425 
391 425 94 424 
392 94 425 95 
425 94 128 95 
95 128 426 129 
392 426 393 95 
95 128 425 426 
392 426 95 425 
393 95 426 96 
426 95 129 96 
96 129 427 130 
393 427 394 96 
96 129 426 427 
393 427 96 426 
394 96 427 97 
427 96 130 97 
97 130 428 131 
394 428 395 97 
97 130 427 428 
394 428 97 427 
395 97 428 98 
428 97 131 98 
99 132 430 133 
396 430 397 99 
99 132 429 430 
396 430 99 429 
397 99 430 100 
430 99 133 100 
100 133 431 134 
397 431 398 100 
100 133 430 431 
397 431 100 430 
398 100 431 101 
431 100 134 101 
101 134 432 135 
398 432 399 101 
101 134 431 432 
398 432 101 431 
399 101 432 102 
432 101 135 102 
102 135 433 136 
399 433 400 102 
102 135 432 433 
399 433 102 432 
400 102 433 103 
433 102 136 103 
103 136 434 137 
400 434 401 103 
103 136 433 434 
400 434 103 433 
401 103 434 104 
434 103 137 104 
104 137 435 138 
401 435 402 104 
104 137 434 435 
401 435 104 434 
402 104 435 105 
435 104 138 105 
105 138 436 139 
402 436 403 105 
105 138 435 436 
402 436 105 435 
403 105 436 106 
436 105 139 106 
106 139 437 140 
403 437 404 106 
106 139 436 437 
403 437 106 436 
404 106 437 107 
437 106 140 107 
107 140 438 141 
404 438 405 107 
107 140 437 438 
404 438 107 437 
405 107 438 108 
438 107 141 108 
108 141 439 142 
405 439 406 108 
108 141 438 439 
405 439 108 438 
406 108 439 109 
439 108 142 109 
109 142 440 143 
406 440 407 109 
109 142 439 440 
406 440 109 439 
407 109 440 110 
440 109 143 110 
110 143 441 144 
407 441 408 110 
110 143 440 441 
407 441 110 440 
408 110 441 111 
441 110 144 111 
111 144 442 145 
408 442 409 111 
111 144 441 442 
408 442 111 441 
409 111 442 112 
442 111 145 112 
112 145 443 146 
409 443 410 112 
112 145 442 443 
409 443 112 442 
410 112 443 113 
443 112 146 113 
113 146 444 147 
410 444 411 113 
113 146 443 444 
410 444 113 443 
411 113 444 114 
444 113 147 114 
114 147 445 148 
411 445 412 114 
114 147 444 445 
411 445 114 444 
412 114 445 115 
445 114 148 115 
115 148 446 149 
412 446 413 115 
115 148 445 446 
412 446 115 445 
413 115 446 116 
446 115 149 116 
116 149 447 150 
413 447 414 116 
116 149 446 447 
413 447 116 446 
414 116 447 117 
447 116 150 117 
117 150 448 151 
414 448 415 117 
117 150 447 448 
414 448 117 447 
415 117 448 118 
448 117 151 118 
118 151 449 152 
415 449 416 118 
118 151 448 449 
415 449 118 448 
416 118 449 119 
449 118 152 119 
119 152 450 153 
416 450 417 119 
119 152 449 450 
416 450 119 449 
417 119 450 120 
450 119 153 120 
120 153 451 154 
417 451 418 120 
120 153 450 451 
417 451 120 450 
418 120 451 121 
451 120 154 121 
121 154 452 155 
418 452 419 121 
121 154 451 452 
418 452 121 451 
419 121 452 122 
452 121 155 122 
122 155 453 156 
419 453 420 122 
122 155 452 453 
419 453 122 452 
420 122 453 123 
453 122 156 123 
123 156 454 157 
420 454 421 123 
123 156 453 454 
420 454 123 453 
421 123 454 124 
454 123 157 124 
124 157 455 158 
421 455 422 124 
124 157 454 455 
421 455 124 454 
422 124 455 125 
455 124 158 125 
125 158 456 159 
422 456 423 125 
125 158 455 456 
422 456 125 455 
423 125 456 126 
456 125 159 126 
126 159 457 160 
423 457 424 126 
126 159 456 457 
423 457 126 456 
424 126 457 127 
457 126 160 127 
127 160 458 161 
424 458 425 127 
127 160 457 458 
424 458 127 457 
425 127 458 128 
458 127 161 128 
128 161 459 162 
425 459 426 128 
128 161 458 459 
425 459 128 458 
426 128 459 129 
459 128 162 129 
129 162 460 163 
426 460 427 129 
129 162 459 460 
426 460 129 459 
427 129 460 130 
460 129 163 130 
130 163 461 164 
427 461 428 130 
130 163 460 461 
427 461 130 460 
428 130 461 131 
461 130 164 131 
132 165 463 166 
429 463 430 132 
132 165 462 463 
429 463 132 462 
430 132 463 133 
463 132 166 133 
133 166 464 167 
430 464 431 133 
133 166 463 464 
430 464 133 463 
431 133 464 134 
464 133 167 134 
134 167 465 168 
431 465 432 134 
134 167 464 465 
431 465 134 464 
432 134 465 135 
465 134 168 135 
135 168 466 169 
432 466 433 135 
135 168 465 466 
432 466 135 465 
433 135 466 136 
466 135 169 136 
136 169 467 170 
433 467 434 136 
136 169 466 467 
433 467 136 466 
434 136 467 137 
467 136 170 137 
137 170 468 171 
434 468 435 137 
137 170 467 468 
434 468 137 467 
435 137 468 138 
468 137 171 138 
138 171 469 172 
435 469 436 138 
138 171 468 469 
435 469 138 468 
436 138 469 139 
469 138 172 139 
139 172 470 173 
436 470 437 139 
139 172 469 470 
436 470 139 469 
437 139 470 140 
470 139 173 140 
140 173 471 174 
437 471 438 140 
140 173 470 471 
437 471 140 470 
438 140 471 141 
471 140 174 141 
141 174 472 175 
438 472 439 141 
141 174 471 472 
438 472 141 471 
439 141 472 142 
472 141 175 142 
142 175 473 176 
439 473 440 142 
142 175 472 473 
439 473 142 472 
440 142 473 143 
473 142 176 143 
143 176 474 177 
440 474 441 143 
143 176 473 474 
440 474 143 473 
441 143 474 144 
474 143 177 144 
144 177 475 178 
441 475 442 144 
144 177 474 475 
441 475 144 474 
442 144 475 145 
475 144 178 145 
145 178 476 179 
442 476 443 145 
145 178 475 476 
442 476 145 475 
443 145 476 146 
476 145 179 146 
146 179 477 180 
443 477 444 146 
146 179 476 477 
443 477 146 476 
444 146 477 147 
477 146 180 147 
147 180 478 181 
444 478 445 147 
147 180 477 478 
444 478 147 477 
445 147 478 148 
478 147 181 148 
148 181 479 182 
445 479 446 148 
148 181 478 479 
445 479 148 478 
446 148 479 149 
479 148 182 149 
149 182 480 183 
446 480 447 149 
149 182 479 480 
446 480 149 479 
447 149 480 150 
480 149 183 150 
150 183 481 184 
447 481 448 150 
150 183 480 481 
447 481 150 480 
448 150 481 151 
481 150 184 151 
151 184 482 185 
448 482 449 151 
151 184 481 482 
448 482 151 481 
449 151 482 152 
482 151 185 152 
152 185 483 186 
449 483 450 152 
152 185 482 483 
449 483 152 482 
450 152 483 153 
483 152 186 153 
153 186 484 187 
450 484 451 153 
153 186 483 484 
450 484 153 483 
451 153 484 154 
484 153 187 154 
154 187 485 188 
451 485 452 154 
154 187 484 485 
451 485 154 484 
452 154 485 155 
485 154 188 155 
155 188 486 189 
452 486 453 155 
155 188 485 486 
452 486 155 485 
453 155 486 156 
486 155 189 156 
156 189 487 190 
453 487 454 156 
156 189 486 487 
453 487 156 486 
454 156 487 157 
487 156 190 157 
157 190 488 191 
454 488 455 157 
157 190 487 488 
454 488 157 487 
455 157 488 158 
488 157 191 158 
158 191 489 192 
455 489 456 158 
158 191 488 489 
455 489 158 488 
456 158 489 159 
489 158 192 159 
159 192 490 193 
456 490 457 159 
159 192 489 490 
456 490 159 489 
457 159 490 160 
490 159 193 160 
160 193 491 194 
457 491 458 160 
160 193 490 491 
457 491 160 490 
458 160 491 161 
491 160 194 161 
161 194 492 195 
458 492 459 161 
161 194 491 492 
458 492 161 491 
459 161 492 162 
492 161 195 162 
162 195 493 196 
459 493 460 162 
162 195 492 493 
459 493 162 492 
460 162 493 163 
493 162 196 163 
163 196 494 197 
460 494 461 163 
163 196 493 494 
460 494 163 493 
461 163 494 164 
494 163 197 164 
165 198 496 199 
462 496 463 165 
165 198 495 496 
462 496 165 495 
463 165 496 166 
496 165 199 166 
166 199 497 200 
463 497 464 166 
166 199 496 497 
463 497 166 496 
464 166 497 167 
497 166 200 167 
167 200 498 201 
464 498 465 167 
167 200 497 498 
464 498 167 497 
465 167 498 168 
498 167 201 168 
168 201 499 202 
465 499 466 168 
168 201 498 499 
465 499 168 498 
466 168 499 169 
499 168 202 169 
169 202 500 203 
466 500 467 169 
169 202 499 500 
466 500 169 499 
467 169 500 170 
500 169 203 170 
170 203 501 204 
467 501 468 170 
170 203 500 501 
467 501 170 500 
468 170 501 171 
501 170 204 171 
171 204 502 205 
468 502 469 171 
171 204 501 502 
468 502 171 501 
469 171 502 172 
502 171 205 172 
172 205 503 206 
469 503 470 172 
172 205 502 503 
469 503 172 502 
470 172 503 173 
503 172 206 173 
173 206 504 207 
470 504 471 173 
173 206 503 504 
470 504 173 503 
471 173 504 174 
504 173 207 174 
174 207 505 208 
471 505 472 174 
174 207 504 505 
471 505 174 504 
472 174 505 175 
505 174 208 175 
175 208 506 209 
472 506 473 175 
175 208 505 506 
472 506 175 505 
473 175 506 176 
506 175 209 176 
176 209 507 210 
473 507 474 176 
176 209 506 507 
473 507 176 506 
474 176 507 177 
507 176 210 177 
177 210 508 211 
474 508 475 177 
177 210 507 508 
474 508 177 507 
475 177 508 178 
508 177 211 178 
178 211 509 212 
475 509 476 178 
178 211 508 509 
475 509 178 508 
476 178 509 179 
509 178 212 179 
179 212 510 213 
476 510 477 179 
179 212 509 510 
476 510 179 509 
477 179 510 180 
510 179 213 180 
180 213 511 214 
477 511 478 180 
180 213 510 511 
477 511 180 510 
478 180 511 181 
511 180 214 181 
181 214 512 215 
478 512 479 181 
181 214 511 512 
478 512 181 511 
479 181 512 182 
512 181 215 182 
182 215 513 216 
479 513 480 182 
182 215 512 513 
479 513 182 512 
480 182 513 183 
513 182 216 183 
183 216 514 217 
480 514 481 183 
183 216 513 514 
480 514 183 513 
481 183 514 184 
514 183 217 184 
184 217 515 218 
481 515 482 184 
184 217 514 515 
481 515 184 514 
482 184 515 185 
515 184 218 185 
185 218 516 219 
482 516 483 185 
185 218 515 516 
482 516 185 515 
483 185 516 186 
516 185 219 186 
186 219 517 220 
483 517 484 186 
186 219 516 517 
483 517 186 516 
484 186 517 187 
517 186 220 187 
187 220 518 221 
484 518 485 187 
187 220 517 518 
484 518 187 517 
485 187 518 188 
518 187 221 188 
188 221 519 222 
485 519 486 188 
188 221 518 519 
485 519 188 518 
486 188 519 189 
519 188 222 189 
189 222 520 223 
486 520 487 189 
189 222 519 520 
486 520 189 519 
487 189 520 190 
520 189 223 190 
190 223 521 224 
487 521 488 190 
190 223 520 521 
487 521 190 520 
488 190 521 191 
521 190 224 191 
191 224 522 225 
488 522 489 191 
191 224 521 522 
488 522 191 521 
489 191 522 192 
522 191 225 192 
192 225 523 226 
489 523 490 192 
192 225 522 523 
489 523 192 522 
490 192 523 193 
523 192 226 193 
193 226 524 227 
490 524 491 193 
193 226 523 524 
490 524 193 523 
491 193 524 194 
524 193 227 194 
194 227 525 228 
491 525 492 194 
194 227 524 525 
491 525 194 524 
492 194 525 195 
525 194 228 195 
195 228 526 229 
492 526 493 195 
195 228 525 526 
492 526 195 525 
493 195 526 196 
526 195 229 196 
196 229 527 230 
493 527 494 196 
196 229 526 527 
493 527 196 526 
494 196 527 197 
527 196 230 197 
198 231 529 232 
495 529 496 198 
198 231 528 529 
495 529 198 528 
496 198 529 199 
529 198 232 199 
199 232 530 233 
496 530 497 199 
199 232 529 530 
496 530 199 529 
497 199 530 200 
530 199 233 200 
200 233 531 234 
497 531 498 200 
200 233 530 531 
497 531 200 530 
498 200 531 201 
531 200 234 201 
201 234 532 235 
498 532 499 201 
201 234 531 532 
498 532 201 531 
499 201 532 202 
532 201 235 202 
202 235 533 236 
499 533 500 202 
202 235 532 533 
499 533 202 532 
500 202 533 203 
533 202 236 203 
203 236 534 237 
500 534 501 203 
203 236 533 534 
500 534 203 533 
501 203 534 204 
534 203 237 204 
204 237 535 238 
501 535 502 204 
204 237 534 535 
501 535 204 534 
502 204 535 205 
535 204 238 205 
205 238 536 239 
502 536 503 205 
205 238 535 536 
502 536 205 535 
503 205 536 206 
536 205 239 206 
206 239 537 240 
503 537 504 206 
206 239 536 537 
503 537 206 536 
504 206 537 207 
537 206 240 207 
207 240 538 241 
504 538 505 207 
207 240 537 538 
504 538 207 537 
505 207 538 208 
538 207 241 208 
208 241 539 242 
505 539 506 208 
208 241 538 539 
505 539 208 538 
506 208 539 209 
539 208 242 209 
209 242 540 243 
506 540 507 209 
209 242 539 540 
506 540 209 539 
507 209 540 210 
540 209 243 210 
210 243 541 244 
507 541 508 210 
210 243 540 541 
507 541 210 540 
508 210 541 211 
541 210 244 211 
211 244 542 245 
508 542 509 211 
211 244 541 542 
508 542 211 541 
509 211 542 212 
542 211 245 212 
212 245 543 246 
509 543 510 212 
212 245 542 543 
509 543 212 542 
510 212 543 213 
543 212 246 213 
213 246 544 247 
510 544 511 213 
213 246 543 544 
510 544 213 543 
511 213 544 214 
544 213 247 214 
214 247 545 248 
511 545 512 214 
214 247 544 545 
511 545 214 544 
512 214 545 215 
545 214 248 215 
215 248 546 249 
512 546 513 215 
215 248 545 546 
512 546 215 545 
513 215 546 216 
546 215 249 216 
216 249 547 250 
513 547 514 216 
216 249 546 547 
513 547 216 546 
514 216 547 217 
547 216 250 217 
217 250 548 251 
514 548 515 217 
217 250 547 548 
514 548 217 547 
515 217 548 218 
548 217 251 218 
218 251 549 252 
515 549 516 218 
218 251 548 549 
515 549 218 548 
516 218 549 219 
549 218 252 219 
219 252 550 253 
516 550 517 219 
219 252 549 550 
516 550 219 549 
517 219 550 220 
550 219 253 220 
220 253 551 254 
517 551 518 220 
220 253 550 551 
517 551 220 550 
518 220 551 221 
551 220 254 221 
221 254 552 255 
518 552 519 221 
221 254 551 552 
518 552 221 551 
519 221 552 222 
552 221 255 222 
222 255 553 256 
519 553 520 222 
222 255 552 553 
519 553 222 552 
520 222 553 223 
553 222 256 223 
223 256 554 257 
520 554 521 223 
223 256 553 554 
520 554 223 553 
521 223 554 224 
554 223 257 224 
224 257 555 258 
521 555 522 224 
224 257 554 555 
521 555 224 554 
522 224 555 225 
555 224 258 225 
225 258 556 259 
522 556 523 225 
225 258 555 556 
522 556 225 555 
523 225 556 226 
556 225 259 226 
226 259 557 260 
523 557 524 226 
226 259 556 557 
523 557 226 556 
524 226 557 227 
557 226 260 227 
227 260 558 261 
524 558 525 227 
227 260 557 558 
524 558 227 557 
525 227 558 228 
558 227 261 228 
228 261 559 262 
525 559 526 228 
228 261 558 559 
525 559 228 558 
526 228 559 229 
559 228 262 229 
229 262 560 263 
526 560 527 229 
229 262 559 560 
526 560 229 559 
527 229 560 230 
560 229 263 230 
231 264 562 265 
528 562 529 231 
231 264 561 562 
528 562 231 561 
529 231 562 232 
562 231 265 232 
232 265 563 266 
529 563 530 232 
232 265 562 563 
529 563 232 562 
530 232 563 233 
563 232 266 233 
233 266 564 267 
530 564 531 233 
233 266 563 564 
530 564 233 563 
531 233 564 234 
564 233 267 234 
234 267 565 268 
531 565 532 234 
234 267 564 565 
531 565 234 564 
532 234 565 235 
565 234 268 235 
235 268 566 269 
532 566 533 235 
235 268 565 566 
532 566 235 565 
533 235 566 236 
566 235 269 236 
236 269 567 270 
533 567 534 236 
236 269 566 567 
533 567 236 566 
534 236 567 237 
567 236 270 237 
237 270 568 271 
534 568 535 237 
237 270 567 568 
534 568 237 567 
535 237 568 238 
568 237 271 238 
238 271 569 272 
535 569 536 238 
238 271 568 569 
535 569 238 568 
536 238 569 239 
569 238 272 239 
239 272 570 273 
536 570 537 239 
239 272 569 570 
536 570 239 569 
537 239 570 240 
570 239 273 240 
240 273 571 274 
537 571 538 240 
240 273 570 571 
537 571 240 570 
538 240 571 241 
571 240 274 241 
241 274 572 275 
538 572 539 241 
241 274 571 572 
538 572 241 571 
539 241 572 242 
572 241 275 242 
242 275 573 276 
539 573 540 242 
242 275 572 573 
539 573 242 572 
540 242 573 243 
573 242 276 243 
243 276 574 277 
540 574 541 243 
243 276 573 574 
540 574 243 573 
541 243 574 244 
574 243 277 244 
244 277 575 278 
541 575 542 244 
244 277 574 575 
541 575 244 574 
542 244 575 245 
575 244 278 245 
245 278 576 279 
542 576 543 245 
245 278 575 576 
542 576 245 575 
543 245 576 246 
576 245 279 246 
246 279 577 280 
543 577 544 246 
246 279 576 577 
543 577 246 576 
544 246 577 247 
577 246 280 247 
247 280 578 281 
544 578 545 247 
247 280 577 578 
544 578 247 577 
545 247 578 248 
578 247 281 248 
248 281 579 282 
545 579 546 248 
248 281 578 579 
545 579 248 578 
546 248 579 249 
579 248 282 249 
249 282 580 283 
546 580 547 249 
249 282 579 580 
546 580 249 579 
547 249 580 250 
580 249 283 250 
250 283 581 284 
547 581 548 250 
250 283 580 581 
547 581 250 580 
548 250 581 251 
581 250 284 251 
251 284 582 285 
548 582 549 251 
251 284 581 582 
548 582 251 581 
549 251 582 252 
582 251 285 252 
252 285 583 286 
549 583 550 252 
252 285 582 583 
549 583 252 582 
550 252 583 253 
583 252 286 253 
253 286 584 287 
550 584 551 253 
253 286 583 584 
550 584 253 583 
551 253 584 254 
584 253 287 254 
254 287 585 288 
551 585 552 254 
254 287 584 585 
551 585 254 584 
552 254 585 255 
585 254 288 255 
255 288 586 289 
552 586 553 255 
255 288 585 586 
552 586 255 585 
553 255 586 256 
586 255 289 256 
256 289 587 290 
553 587 554 256 
256 289 586 587 
553 587 256 586 
554 256 587 257 
587 256 290 257 
257 290 588 291 
554 588 555 257 
257 290 587 588 
554 588 257 587 
555 257 588 258 
588 257 291 258 
258 291 589 292 
555 589 556 258 
258 291 588 589 
555 589 258 588 
556 258 589 259 
589 258 292 259 
259 292 590 293 
556 590 557 259 
259 292 589 590 
556 590 259 589 
557 259 590 260 
590 259 293 260 
260 293 591 294 
557 591 558 260 
260 293 590 591 
557 591 260 590 
558 260 591 261 
591 260 294 261 
261 294 592 295 
558 592 559 261 
261 294 591 592 
558 592 261 591 
559 261 592 262 
592 261 295 262 
262 295 593 296 
559 593 560 262 
262 295 592 593 
559 593 262 592 
560 262 593 263 
593 262 296 263 
297 330 628 331 
594 628 595 297 
297 330 627 628 
594 628 297 627 
595 297 628 298 
628 297 331 298 
298 331 629 332 
595 629 596 298 
298 331 628 629 
595 629 298 628 
596 298 629 299 
629 298 332 299 
299 332 630 333 
596 630 597 299 
299 332 629 630 
596 630 299 629 
597 299 630 300 
630 299 333 300 
300 333 631 334 
597 631 598 300 
300 333 630 631 
597 631 300 630 
598 300 631 301 
631 300 334 301 
301 334 632 335 
598 632 599 301 
301 334 631 632 
598 632 301 631 
599 301 632 302 
632 301 335 302 
302 335 633 336 
599 633 600 302 
302 335 632 633 
599 633 302 632 
600 302 633 303 
633 302 336 303 
303 336 634 337 
600 634 601 303 
303 336 633 634 
600 634 303 633 
601 303 634 304 
634 303 337 304 
304 337 635 338 
601 635 602 304 
304 337 634 635 
601 635 304 634 
602 304 635 305 
635 304 338 305 
305 338 636 339 
602 636 603 305 
305 338 635 636 
602 636 305 635 
603 305 636 306 
636 305 339 306 
306 339 637 340 
603 637 604 306 
306 339 636 637 
603 637 306 636 
604 306 637 307 
637 306 340 307 
307 340 638 341 
604 638 605 307 
307 340 637 638 
604 638 307 637 
605 307 638 308 
638 307 341 308 
308 341 639 342 
605 639 606 308 
308 341 638 639 
605 639 308 638 
606 308 639 309 
639 308 342 309 
309 342 640 343 
606 640 607 309 
309 342 639 640 
606 640 309 639 
607 309 640 310 
640 309 343 310 
310 343 641 344 
607 641 608 310 
310 343 640 641 
607 641 310 640 
608 310 641 311 
641 310 344 311 
311 344 642 345 
608 642 609 311 
311 344 641 642 
608 642 311 641 
609 311 642 312 
642 311 345 312 
312 345 643 346 
609 643 610 312 
312 345 642 643 
609 643 312 642 
610 312 643 313 
643 312 346 313 
313 346 644 347 
610 644 611 313 
313 346 643 644 
610 644 313 643 
611 313 644 314 
644 313 347 314 
314 347 645 348 
611 645 612 314 
314 347 644 645 
611 645 314 644 
612 314 645 315 
645 314 348 315 
315 348 646 349 
612 646 613 315 
315 348 645 646 
612 646 315 645 
613 315 646 316 
646 315 349 316 
316 349 647 350 
613 647 614 316 
316 349 646 647 
613 647 316 646 
614 316 647 317 
647 316 350 317 
317 350 648 351 
614 648 615 317 
317 350 647 648 
614 648 317 647 
615 317 648 318 
648 317 351 318 
318 351 649 352 
615 649 616 318 
318 351 648 649 
615 649 318 648 
616 318 649 319 
649 318 352 319 
319 352 650 353 
616 650 617 319 
319 352 649 650 
616 650 319 649 
617 319 650 320 
650 319 353 320 
320 353 651 354 
617 651 618 320 
320 353 650 651 
617 651 320 650 
618 320 651 321 
651 320 354 321 
321 354 652 355 
618 652 619 321 
321 354 651 652 
618 652 321 651 
619 321 652 322 
652 321 355 322 
322 355 653 356 
619 653 620 322 
322 355 652 653 
619 653 322 652 
620 322 653 323 
653 322 356 323 
323 356 654 357 
620 654 621 323 
323 356 653 654 
620 654 323 653 
621 323 654 324 
654 323 357 324 
324 357 655 358 
621 655 622 324 
324 357 654 655 
621 655 324 654 
622 324 655 325 
655 324 358 325 
325 358 656 359 
622 656 623 325 
325 358 655 656 
622 656 325 655 
623 325 656 326 
656 325 359 326 
326 359 657 360 
623 657 624 326 
326 359 656 657 
623 657 326 656 
624 326 657 327 
657 326 360 327 
327 360 658 361 
624 658 625 327 
327 360 657 658 
624 658 327 657 
625 327 658 328 
658 327 361 328 
328 361 659 362 
625 659 626 328 
328 361 658 659 
625 659 328 658 
626 328 659 329 
659 328 362 329 
330 363 661 364 
627 661 628 330 
330 363 660 661 
627 661 330 660 
628 330 661 331 
661 330 364 331 
331 364 662 365 
628 662 629 331 
331 364 661 662 
628 662 331 661 
629 331 662 332 
662 331 365 332 
332 365 663 366 
629 663 630 332 
332 365 662 663 
629 663 332 662 
630 332 663 333 
663 332 366 333 
333 366 664 367 
630 664 631 333 
333 366 663 664 
630 664 333 663 
631 333 664 334 
664 333 367 334 
334 367 665 368 
631 665 632 334 
334 367 664 665 
631 665 334 664 
632 334 665 335 
665 334 368 335 
335 368 666 369 
632 666 633 335 
335 368 665 666 
632 666 335 665 
633 335 666 336 
666 335 369 336 
336 369 667 370 
633 667 634 336 
336 369 666 667 
633 667 336 666 
634 336 667 337 
667 336 370 337 
337 370 668 371 
634 668 635 337 
337 370 667 668 
634 668 337 667 
635 337 668 338 
668 337 371 338 
338 371 669 372 
635 669 636 338 
338 371 668 669 
635 669 338 668 
636 338 669 339 
669 338 372 339 
339 372 670 373 
636 670 637 339 
339 372 669 670 
636 670 339 669 
637 339 670 340 
670 339 373 340 
340 373 671 374 
637 671 638 340 
340 373 670 671 
637 671 340 670 
638 340 671 341 
671 340 374 341 
341 374 672 375 
638 672 639 341 
341 374 671 672 
638 672 341 671 
639 341 672 342 
672 341 375 342 
342 375 673 376 
639 673 640 342 
342 375 672 673 
639 673 342 672 
640 342 673 343 
673 342 376 343 
343 376 674 377 
640 674 641 343 
343 376 673 674 
640 674 343 673 
641 343 674 344 
674 343 377 344 
344 377 675 378 
641 675 642 344 
344 377 674 675 
641 675 344 674 
642 344 675 345 
675 344 378 345 
345 378 676 379 
642 676 643 345 
345 378 675 676 
642 676 345 675 
643 345 676 346 
676 345 379 346 
346 379 677 380 
643 677 644 346 
346 379 676 677 
643 677 346 676 
644 346 677 347 
677 346 380 347 
347 380 678 381 
644 678 645 347 
347 380 677 678 
644 678 347 677 
645 347 678 348 
678 347 381 348 
348 381 679 382 
645 679 646 348 
348 381 678 679 
645 679 348 678 
646 348 679 349 
679 348 382 349 
349 382 680 383 
646 680 647 349 
349 382 679 680 
646 680 349 679 
647 349 680 350 
680 349 383 350 
350 383 681 384 
647 681 648 350 
350 383 680 681 
647 681 350 680 
648 350 681 351 
681 350 384 351 
351 384 682 385 
648 682 649 351 
351 384 681 682 
648 682 351 681 
649 351 682 352 
682 351 385 352 
352 385 683 386 
649 683 650 352 
352 385 682 683 
649 683 352 682 
650 352 683 353 
683 352 386 353 
353 386 684 387 
650 684 651 353 
353 386 683 684 
650 684 353 683 
651 353 684 354 
684 353 387 354 
354 387 685 388 
651 685 652 354 
354 387 684 685 
651 685 354 684 
652 354 685 355 
685 354 388 355 
355 388 686 389 
652 686 653 355 
355 388 685 686 
652 686 355 685 
653 355 686 356 
686 355 389 356 
356 389 687 390 
653 687 654 356 
356 389 686 687 
653 687 356 686 
654 356 687 357 
687 356 390 357 
357 390 688 391 
654 688 655 357 
357 390 687 688 
654 688 357 687 
655 357 688 358 
688 357 391 358 
358 391 689 392 
655 689 656 358 
358 391 688 689 
655 689 358 688 
656 358 689 359 
689 358 392 359 
359 392 690 393 
656 690 657 359 
359 392 689 690 
656 690 359 689 
657 359 690 360 
690 359 393 360 
360 393 691 394 
657 691 658 360 
360 393 690 691 
657 691 360 690 
658 360 691 361 
691 360 394 361 
361 394 692 395 
658 692 659 361 
361 394 691 692 
658 692 361 691 
659 361 692 362 
692 361 395 362 
363 396 694 397 
660 694 661 363 
363 396 693 694 
660 694 363 693 
661 363 694 364 
694 363 397 364 
364 397 695 398 
661 695 662 364 
364 397 694 695 
661 695 364 694 
662 364 695 365 
695 364 398 365 
365 398 696 399 
662 696 663 365 
365 398 695 696 
662 696 365 695 
663 365 696 366 
696 365 399 366 
366 399 697 400 
663 697 664 366 
366 399 696 697 
663 697 366 696 
664 366 697 367 
697 366 400 367 
367 400 698 401 
664 698 665 367 
367 400 697 698 
664 698 367 697 
665 367 698 368 
698 367 401 368 
368 401 699 402 
665 699 666 368 
368 401 698 699 
665 699 368 698 
666 368 699 369 
699 368 402 369 
369 402 700 403 
666 700 667 369 
369 402 699 700 
666 700 369 699 
667 369 700 370 
700 369 403 370 
370 403 701 404 
667 701 668 370 
370 403 700 701 
667 701 370 700 
668 370 701 371 
701 370 404 371 
371 404 702 405 
668 702 669 371 
371 404 701 702 
668 702 371 701 
669 371 702 372 
702 371 405 372 
372 405 703 406 
669 703 670 372 
372 405 702 703 
669 703 372 702 
670 372 703 373 
703 372 406 373 
373 406 704 407 
670 704 671 373 
373 406 703 704 
670 704 373 703 
671 373 704 374 
704 373 407 374 
374 407 705 408 
671 705 672 374 
374 407 704 705 
671 705 374 704 
672 374 705 375 
705 374 408 375 
375 408 706 409 
672 706 673 375 
375 408 705 706 
672 706 375 705 
673 375 706 376 
706 375 409 376 
376 409 707 410 
673 707 674 376 
376 409 706 707 
673 707 376 706 
674 376 707 377 
707 376 410 377 
377 410 708 411 
674 708 675 377 
377 410 707 708 
674 708 377 707 
675 377 708 378 
708 377 411 378 
378 411 709 412 
675 709 676 378 
378 411 708 709 
675 709 378 708 
676 378 709 379 
709 378 412 379 
379 412 710 413 
676 710 677 379 
379 412 709 710 
676 710 379 709 
677 379 710 380 
710 379 413 380 
380 413 711 414 
677 711 678 380 
380 413 710 711 
677 711 380 710 
678 380 711 381 
711 380 414 381 
381 414 712 415 
678 712 679 381 
381 414 711 712 
678 712 381 711 
679 381 712 382 
712 381 415 382 
382 415 713 416 
679 713 680 382 
382 415 712 713 
679 713 382 712 
680 382 713 383 
713 382 416 383 
383 416 714 417 
680 714 681 383 
383 416 713 714 
680 714 383 713 
681 383 714 384 
714 383 417 384 
384 417 715 418 
681 715 682 384 
384 417 714 715 
681 715 384 714 
682 384 715 385 
715 384 418 385 
385 418 716 419 
682 716 683 385 
385 418 715 716 
682 716 385 715 
683 385 716 386 
716 385 419 386 
386 419 717 420 
683 717 684 386 
386 419 716 717 
683 717 386 716 
684 386 717 387 
717 386 420 387 
387 420 718 421 
684 718 685 387 
387 420 717 718 
684 718 387 717 
685 387 718 388 
718 387 421 388 
388 421 719 422 
685 719 686 388 
388 421 718 719 
685 719 388 718 
686 388 719 389 
719 388 422 389 
389 422 720 423 
686 720 687 389 
389 422 719 720 
686 720 389 719 
687 389 720 390 
720 389 423 390 
390 423 721 424 
687 721 688 390 
390 423 720 721 
687 721 390 720 
688 390 721 391 
721 390 424 391 
391 424 722 425 
688 722 689 391 
391 424 721 722 
688 722 391 721 
689 391 722 392 
722 391 425 392 
392 425 723 426 
689 723 690 392 
392 425 722 723 
689 723 392 722 
690 392 723 393 
723 392 426 393 
393 426 724 427 
690 724 691 393 
393 426 723 724 
690 724 393 723 
691 393 724 394 
724 393 427 394 
394 427 725 428 
691 725 692 394 
394 427 724 725 
691 725 394 724 
692 394 725 395 
725 394 428 395 
396 429 727 430 
693 727 694 396 
396 429 726 727 
693 727 396 726 
694 396 727 397 
727 396 430 397 
397 430 728 431 
694 728 695 397 
397 430 727 728 
694 728 397 727 
695 397 728 398 
728 397 431 398 
398 431 729 432 
695 729 696 398 
398 431 728 729 
695 729 398 728 
696 398 729 399 
729 398 432 399 
399 432 730 433 
696 730 697 399 
399 432 729 730 
696 730 399 729 
697 399 730 400 
730 399 433 400 
400 433 731 434 
697 731 698 400 
400 433 730 731 
697 731 400 730 
698 400 731 401 
731 400 434 401 
401 434 732 435 
698 732 699 401 
401 434 731 732 
698 732 401 731 
699 401 732 402 
732 401 435 402 
402 435 733 436 
699 733 700 402 
402 435 732 733 
699 733 402 732 
700 402 733 403 
733 402 436 403 
403 436 734 437 
700 734 701 403 
403 436 733 734 
700 734 403 733 
701 403 734 404 
734 403 437 404 
404 437 735 438 
701 735 702 404 
404 437 734 735 
701 735 404 734 
702 404 735 405 
735 404 438 405 
405 438 736 439 
702 736 703 405 
405 438 735 736 
702 736 405 735 
703 405 736 406 
736 405 439 406 
406 439 737 440 
703 737 704 406 
406 439 736 737 
703 737 406 736 
704 406 737 407 
737 406 440 407 
407 440 738 441 
704 738 705 407 
407 440 737 738 
704 738 407 737 
705 407 738 408 
738 407 441 408 
408 441 739 442 
705 739 706 408 
408 441 738 739 
705 739 408 738 
706 408 739 409 
739 408 442 409 
409 442 740 443 
706 740 707 409 
409 442 739 740 
706 740 409 739 
707 409 740 410 
740 409 443 410 
410 443 741 444 
707 741 708 410 
410 443 740 741 
707 741 410 740 
708 410 741 411 
741 410 444 411 
411 444 742 445 
708 742 709 411 
411 444 741 742 
708 742 411 741 
709 411 742 412 
742 411 445 412 
412 445 743 446 
709 743 710 412 
412 445 742 743 
709 743 412 742 
710 412 743 413 
743 412 446 413 
413 446 744 447 
710 744 711 413 
413 446 743 744 
710 744 413 743 
711 413 744 414 
744 413 447 414 
414 447 745 448 
711 745 712 414 
414 447 744 745 
711 745 414 744 
712 414 745 415 
745 414 448 415 
415 448 746 449 
712 746 713 415 
415 448 745 746 
712 746 415 745 
713 415 746 416 
746 415 449 416 
416 449 747 450 
713 747 714 416 
416 449 746 747 
713 747 416 746 
714 416 747 417 
747 416 450 417 
417 450 748 451 
714 748 715 417 
417 450 747 748 
714 748 417 747 
715 417 748 418 
748 417 451 418 
418 451 749 452 
715 749 716 418 
418 451 748 749 
715 749 418 748 
716 418 749 419 
749 418 452 419 
419 452 750 453 
716 750 717 419 
419 452 749 750 
716 750 419 749 
717 419 750 420 
750 419 453 420 
420 453 751 454 
717 751 718 420 
420 453 750 751 
717 751 420 750 
718 420 751 421 
751 420 454 421 
421 454 752 455 
718 752 719 421 
421 454 751 752 
718 752 421 751 
719 421 752 422 
752 421 455 422 
422 455 753 456 
719 753 720 422 
422 455 752 753 
719 753 422 752 
720 422 753 423 
753 422 456 423 
423 456 754 457 
720 754 721 423 
423 456 753 754 
720 754 423 753 
721 423 754 424 
754 423 457 424 
424 457 755 458 
721 755 722 424 
424 457 754 755 
721 755 424 754 
722 424 755 425 
755 424 458 425 
425 458 756 459 
722 756 723 425 
425 458 755 756 
722 756 425 755 
723 425 756 426 
756 425 459 426 
426 459 757 460 
723 757 724 426 
426 459 756 757 
723 757 426 756 
724 426 757 427 
757 426 460 427 
427 460 758 461 
724 758 725 427 
427 460 757 758 
724 758 427 757 
725 427 758 428 
758 427 461 428 
429 462 760 463 
726 760 727 429 
429 462 759 760 
726 760 429 759 
727 429 760 430 
760 429 463 430 
430 463 761 464 
727 761 728 430 
430 463 760 761 
727 761 430 760 
728 430 761 431 
761 430 464 431 
431 464 762 465 
728 762 729 431 
431 464 761 762 
728 762 431 761 
729 431 762 432 
762 431 465 432 
432 465 763 466 
729 763 730 432 
432 465 762 763 
729 763 432 762 
730 432 763 433 
763 432 466 433 
433 466 764 467 
730 764 731 433 
433 466 763 764 
730 764 433 763 
731 433 764 434 
764 433 467 434 
434 467 765 468 
731 765 732 434 
434 467 764 765 
731 765 434 764 
732 434 765 435 
765 434 468 435 
435 468 766 469 
732 766 733 435 
435 468 765 766 
732 766 435 765 
733 435 766 436 
766 435 469 436 
436 469 767 470 
733 767 734 436 
436 469 766 767 
733 767 436 766 
734 436 767 437 
767 436 470 437 
437 470 768 471 
734 768 735 437 
437 470 767 768 
734 768 437 767 
735 437 768 438 
768 437 471 438 
438 471 769 472 
735 769 736 438 
438 471 768 769 
735 769 438 768 
736 438 769 439 
769 438 472 439 
439 472 770 473 
736 770 737 439 
439 472 769 770 
736 770 439 769 
737 439 770 440 
770 439 473 440 
440 473 771 474 
737 771 738 440 
440 473 770 771 
737 771 440 770 
738 440 771 441 
771 440 474 441 
441 474 772 475 
738 772 739 441 
441 474 771 772 
738 772 441 771 
739 441 772 442 
772 441 475 442 
442 475 773 476 
739 773 740 442 
442 475 772 773 
739 773 442 772 
740 442 773 443 
773 442 476 443 
443 476 774 477 
740 774 741 443 
443 476 773 774 
740 774 443 773 
741 443 774 444 
774 443 477 444 
444 477 775 478 
741 775 742 444 
444 477 774 775 
741 775 444 774 
742 444 775 445 
775 444 478 445 
445 478 776 479 
742 776 743 445 
445 478 775 776 
742 776 445 775 
743 445 776 446 
776 445 479 446 
446 479 777 480 
743 777 744 446 
446 479 776 777 
743 777 446 776 
744 446 777 447 
777 446 480 447 
447 480 778 481 
744 778 745 447 
447 480 777 778 
744 778 447 777 
745 447 778 448 
778 447 481 448 
448 481 779 482 
745 779 746 448 
448 481 778 779 
745 779 448 778 
746 448 779 449 
779 448 482 449 
449 482 780 483 
746 780 747 449 
449 482 779 780 
746 780 449 779 
747 449 780 450 
780 449 483 450 
450 483 781 484 
747 781 748 450 
450 483 780 781 
747 781 450 780 
748 450 781 451 
781 450 484 451 
451 484 782 485 
748 782 749 451 
451 484 781 782 
748 782 451 781 
749 451 782 452 
782 451 485 452 
452 485 783 486 
749 783 750 452 
452 485 782 783 
749 783 452 782 
750 452 783 453 
783 452 486 453 
453 486 784 487 
750 784 751 453 
453 486 783 784 
750 784 453 783 
751 453 784 454 
784 453 487 454 
454 487 785 488 
751 785 752 454 
454 487 784 785 
751 785 454 784 
752 454 785 455 
785 454 488 455 
455 488 786 489 
752 786 753 455 
455 488 785 786 
752 786 455 785 
753 455 786 456 
786 455 489 456 
456 489 787 490 
753 787 754 456 
456 489 786 787 
753 787 456 786 
754 456 787 457 
787 456 490 457 
457 490 788 491 
754 788 755 457 
457 490 787 788 
754 788 457 787 
755 457 788 458 
788 457 491 458 
458 491 789 492 
755 789 756 458 
458 491 788 789 
755 789 458 788 
756 458 789 459 
789 458 492 459 
459 492 790 493 
756 790 757 459 
459 492 789 790 
756 790 459 789 
757 459 790 460 
790 459 493 460 
460 493 791 494 
757 791 758 460 
460 493 790 791 
757 791 460 790 
758 460 791 461 
791 460 494 461 
462 495 793 496 
759 793 760 462 
462 495 792 793 
759 793 462 792 
760 462 793 463 
793 462 496 463 
463 496 794 497 
760 794 761 463 
463 496 793 794 
760 794 463 793 
761 463 794 464 
794 463 497 464 
464 497 795 498 
761 795 762 464 
464 497 794 795 
761 795 464 794 
762 464 795 465 
795 464 498 465 
465 498 796 499 
762 796 763 465 
465 498 795 796 
762 796 465 795 
763 465 796 466 
796 465 499 466 
466 499 797 500 
763 797 764 466 
466 499 796 797 
763 797 466 796 
764 466 797 467 
797 466 500 467 
467 500 798 501 
764 798 765 467 
467 500 797 798 
764 798 467 797 
765 467 798 468 
798 467 501 468 
468 501 799 502 
765 799 766 468 
468 501 798 799 
765 799 468 798 
766 468 799 469 
799 468 502 469 
469 502 800 503 
766 800 767 469 
469 502 799 800 
766 800 469 799 
767 469 800 470 
800 469 503 470 
470 503 801 504 
767 801 768 470 
470 503 800 801 
767 801 470 800 
768 470 801 471 
801 470 504 471 
471 504 802 505 
768 802 769 471 
471 504 801 802 
768 802 471 801 
769 471 802 472 
802 471 505 472 
472 505 803 506 
769 803 770 472 
472 505 802 803 
769 803 472 802 
770 472 803 473 
803 472 506 473 
473 506 804 507 
770 804 771 473 
473 506 803 804 
770 804 473 803 
771 473 804 474 
804 473 507 474 
474 507 805 508 
771 805 772 474 
474 507 804 805 
771 805 474 804 
772 474 805 475 
805 474 508 475 
475 508 806 509 
772 806 773 475 
475 508 805 806 
772 806 475 805 
773 475 806 476 
806 475 509 476 
476 509 807 510 
773 807 774 476 
476 509 806 807 
773 807 476 806 
774 476 807 477 
807 476 510 477 
477 510 808 511 
774 808 775 477 
477 510 807 808 
774 808 477 807 
775 477 808 478 
808 477 511 478 
478 511 809 512 
775 809 776 478 
478 511 808 809 
775 809 478 808 
776 478 809 479 
809 478 512 479 
479 512 810 513 
776 810 777 479 
479 512 809 810 
776 810 479 809 
777 479 810 480 
810 479 513 480 
480 513 811 514 
777 811 778 480 
480 513 810 811 
777 811 480 810 
778 480 811 481 
811 480 514 481 
481 514 812 515 
778 812 779 481 
481 514 811 812 
778 812 481 811 
779 481 812 482 
812 481 515 482 
482 515 813 516 
779 813 780 482 
482 515 812 813 
779 813 482 812 
780 482 813 483 
813 482 516 483 
483 516 814 517 
780 814 781 483 
483 516 813 814 
780 814 483 813 
781 483 814 484 
814 483 517 484 
484 517 815 518 
781 815 782 484 
484 517 814 815 
781 815 484 814 
782 484 815 485 
815 484 518 485 
485 518 816 519 
782 816 783 485 
485 518 815 816 
782 816 485 815 
783 485 816 486 
816 485 519 486 
486 519 817 520 
783 817 784 486 
486 519 816 817 
783 817 486 816 
784 486 817 487 
817 486 520 487 
487 520 818 521 
784 818 785 487 
487 520 817 818 
784 818 487 817 
785 487 818 488 
818 487 521 488 
488 521 819 522 
785 819 786 488 
488 521 818 819 
785 819 488 818 
786 488 819 489 
819 488 522 489 
489 522 820 523 
786 820 787 489 
489 522 819 820 
786 820 489 819 
787 489 820 490 
820 489 523 490 
490 523 821 524 
787 821 788 490 
490 523 820 821 
787 821 490 820 
788 490 821 491 
821 490 524 491 
491 524 822 525 
788 822 789 491 
491 524 821 822 
788 822 491 821 
789 491 822 492 
822 491 525 492 
492 525 823 526 
789 823 790 492 
492 525 822 823 
789 823 492 822 
790 492 823 493 
823 492 526 493 
493 526 824 527 
790 824 791 493 
493 526 823 824 
790 824 493 823 
791 493 824 494 
824 493 527 494 
495 528 826 529 
792 826 793 495 
495 528 825 826 
792 826 495 825 
793 495 826 496 
826 495 529 496 
496 529 827 530 
793 827 794 496 
496 529 826 827 
793 827 496 826 
794 496 827 497 
827 496 530 497 
497 530 828 531 
794 828 795 497 
497 530 827 828 
794 828 497 827 
795 497 828 498 
828 497 531 498 
498 531 829 532 
795 829 796 498 
498 531 828 829 
795 829 498 828 
796 498 829 499 
829 498 532 499 
499 532 830 533 
796 830 797 499 
499 532 829 830 
796 830 499 829 
797 499 830 500 
830 499 533 500 
500 533 831 534 
797 831 798 500 
500 533 830 831 
797 831 500 830 
798 500 831 501 
831 500 534 501 
501 534 832 535 
798 832 799 501 
501 534 831 832 
798 832 501 831 
799 501 832 502 
832 501 535 502 
502 535 833 536 
799 833 800 502 
502 535 832 833 
799 833 502 832 
800 502 833 503 
833 502 536 503 
503 536 834 537 
800 834 801 503 
503 536 833 834 
800 834 503 833 
801 503 834 504 
834 503 537 504 
504 537 835 538 
801 835 802 504 
504 537 834 835 
801 835 504 834 
802 504 835 505 
835 504 538 505 
505 538 836 539 
802 836 803 505 
505 538 835 836 
802 836 505 835 
803 505 836 506 
836 505 539 506 
506 539 837 540 
803 837 804 506 
506 539 836 837 
803 837 506 836 
804 506 837 507 
837 506 540 507 
507 540 838 541 
804 838 805 507 
507 540 837 838 
804 838 507 837 
805 507 838 508 
838 507 541 508 
508 541 839 542 
805 839 806 508 
508 541 838 839 
805 839 508 838 
806 508 839 509 
839 508 542 509 
509 542 840 543 
806 840 807 509 
509 542 839 840 
806 840 509 839 
807 509 840 510 
840 509 543 510 
510 543 841 544 
807 841 808 510 
510 543 840 841 
807 841 510 840 
808 510 841 511 
841 510 544 511 
511 544 842 545 
808 842 809 511 
511 544 841 842 
808 842 511 841 
809 511 842 512 
842 511 545 512 
512 545 843 546 
809 843 810 512 
512 545 842 843 
809 843 512 842 
810 512 843 513 
843 512 546 513 
513 546 844 547 
810 844 811 513 
513 546 843 844 
810 844 513 843 
811 513 844 514 
844 513 547 514 
514 547 845 548 
811 845 812 514 
514 547 844 845 
811 845 514 844 
812 514 845 515 
845 514 548 515 
515 548 846 549 
812 846 813 515 
515 548 845 846 
812 846 515 845 
813 515 846 516 
846 515 549 516 
516 549 847 550 
813 847 814 516 
516 549 846 847 
813 847 516 846 
814 516 847 517 
847 516 550 517 
517 550 848 551 
814 848 815 517 
517 550 847 848 
814 848 517 847 
815 517 848 518 
848 517 551 518 
518 551 849 552 
815 849 816 518 
518 551 848 849 
815 849 518 848 
816 518 849 519 
849 518 552 519 
519 552 850 553 
816 850 817 519 
519 552 849 850 
816 850 519 849 
817 519 850 520 
850 519 553 520 
520 553 851 554 
817 851 818 520 
520 553 850 851 
817 851 520 850 
818 520 851 521 
851 520 554 521 
521 554 852 555 
818 852 819 521 
521 554 851 852 
818 852 521 851 
819 521 852 522 
852 521 555 522 
522 555 853 556 
819 853 820 522 
522 555 852 853 
819 853 522 852 
820 522 853 523 
853 522 556 523 
523 556 854 557 
820 854 821 523 
523 556 853 854 
820 854 523 853 
821 523 854 524 
854 523 557 524 
524 557 855 558 
821 855 822 524 
524 557 854 855 
821 855 524 854 
822 524 855 525 
855 524 558 525 
525 558 856 559 
822 856 823 525 
525 558 855 856 
822 856 525 855 
823 525 856 526 
856 525 559 526 
526 559 857 560 
823 857 824 526 
526 559 856 857 
823 857 526 856 
824 526 857 527 
857 526 560 527 
528 561 859 562 
825 859 826 528 
528 561 858 859 
825 859 528 858 
826 528 859 529 
859 528 562 529 
529 562 860 563 
826 860 827 529 
529 562 859 860 
826 860 529 859 
827 529 860 530 
860 529 563 530 
530 563 861 564 
827 861 828 530 
530 563 860 861 
827 861 530 860 
828 530 861 531 
861 530 564 531 
531 564 862 565 
828 862 829 531 
531 564 861 862 
828 862 531 861 
829 531 862 532 
862 531 565 532 
532 565 863 566 
829 863 830 532 
532 565 862 863 
829 863 532 862 
830 532 863 533 
863 532 566 533 
533 566 864 567 
830 864 831 533 
533 566 863 864 
830 864 533 863 
831 533 864 534 
864 533 567 534 
534 567 865 568 
831 865 832 534 
534 567 864 865 
831 865 534 864 
832 534 865 535 
865 534 568 535 
535 568 866 569 
832 866 833 535 
535 568 865 866 
832 866 535 865 
833 535 866 536 
866 535 569 536 
536 569 867 570 
833 867 834 536 
536 569 866 867 
833 867 536 866 
834 536 867 537 
867 536 570 537 
537 570 868 571 
834 868 835 537 
537 570 867 868 
834 868 537 867 
835 537 868 538 
868 537 571 538 
538 571 869 572 
835 869 836 538 
538 571 868 869 
835 869 538 868 
836 538 869 539 
869 538 572 539 
539 572 870 573 
836 870 837 539 
539 572 869 870 
836 870 539 869 
837 539 870 540 
870 539 573 540 
540 573 871 574 
837 871 838 540 
540 573 870 871 
837 871 540 870 
838 540 871 541 
871 540 574 541 
541 574 872 575 
838 872 839 541 
541 574 871 872 
838 872 541 871 
839 541 872 542 
872 541 575 542 
542 575 873 576 
839 873 840 542 
542 575 872 873 
839 873 542 872 
840 542 873 543 
873 542 576 543 
543 576 874 577 
840 874 841 543 
543 576 873 874 
840 874 543 873 
841 543 874 544 
874 543 577 544 
544 577 875 578 
841 875 842 544 
544 577 874 875 
841 875 544 874 
842 544 875 545 
875 544 578 545 
545 578 876 579 
842 876 843 545 
545 578 875 876 
842 876 545 875 
843 545 876 546 
876 545 579 546 
546 579 877 580 
843 877 844 546 
546 579 876 877 
843 877 546 876 
844 546 877 547 
877 546 580 547 
547 580 878 581 
844 878 845 547 
547 580 877 878 
844 878 547 877 
845 547 878 548 
878 547 581 548 
548 581 879 582 
845 879 846 548 
548 581 878 879 
845 879 548 878 
846 548 879 549 
879 548 582 549 
549 582 880 583 
846 880 847 549 
549 582 879 880 
846 880 549 879 
847 549 880 550 
880 549 583 550 
550 583 881 584 
847 881 848 550 
550 583 880 881 
847 881 550 880 
848 550 881 551 
881 550 584 551 
551 584 882 585 
848 882 849 551 
551 584 881 882 
848 882 551 881 
849 551 882 552 
882 551 585 552 
552 585 883 586 
849 883 850 552 
552 585 882 883 
849 883 552 882 
850 552 883 553 
883 552 586 553 
553 586 884 587 
850 884 851 553 
553 586 883 884 
850 884 553 883 
851 553 884 554 
884 553 587 554 
554 587 885 588 
851 885 852 554 
554 587 884 885 
851 885 554 884 
852 554 885 555 
885 554 588 555 
555 588 886 589 
852 886 853 555 
555 588 885 886 
852 886 555 885 
853 555 886 556 
886 555 589 556 
556 589 887 590 
853 887 854 556 
556 589 886 887 
853 887 556 886 
854 556 887 557 
887 556 590 557 
557 590 888 591 
854 888 855 557 
557 590 887 888 
854 888 557 887 
855 557 888 558 
888 557 591 558 
558 591 889 592 
855 889 856 558 
558 591 888 889 
855 889 558 888 
856 558 889 559 
889 558 592 559 
559 592 890 593 
856 890 857 559 
559 592 889 890 
856 890 559 889 
857 559 890 560 
890 559 593 560 
594 627 925 628 
891 925 892 594 
594 627 924 925 
891 925 594 924 
892 594 925 595 
925 594 628 595 
595 628 926 629 
892 926 893 595 
595 628 925 926 
892 926 595 925 
893 595 926 596 
926 595 629 596 
596 629 927 630 
893 927 894 596 
596 629 926 927 
893 927 596 926 
894 596 927 597 
927 596 630 597 
597 630 928 631 
894 928 895 597 
597 630 927 928 
894 928 597 927 
895 597 928 598 
928 597 631 598 
598 631 929 632 
895 929 896 598 
598 631 928 929 
895 929 598 928 
896 598 929 599 
929 598 632 599 
599 632 930 633 
896 930 897 599 
599 632 929 930 
896 930 599 929 
897 599 930 600 
930 599 633 600 
600 633 931 634 
897 931 898 600 
600 633 930 931 
897 931 600 930 
898 600 931 601 
931 600 634 601 
601 634 932 635 
898 932 899 601 
601 634 931 932 
898 932 601 931 
899 601 932 602 
932 601 635 602 
602 635 933 636 
899 933 900 602 
602 635 932 933 
899 933 602 932 
900 602 933 603 
933 602 636 603 
603 636 934 637 
900 934 901 603 
603 636 933 934 
900 934 603 933 
901 603 934 604 
934 603 637 604 
604 637 935 638 
901 935 902 604 
604 637 934 935 
901 935 604 934 
902 604 935 605 
935 604 638 605 
605 638 936 639 
902 936 903 605 
605 638 935 936 
902 936 605 935 
903 605 936 606 
936 605 639 606 
606 639 937 640 
903 937 904 606 
606 639 936 937 
903 937 606 936 
904 606 937 607 
937 606 640 607 
607 640 938 641 
904 938 905 607 
607 640 937 938 
904 938 607 937 
905 607 938 608 
938 607 641 608 
608 641 939 642 
905 939 906 608 
608 641 938 939 
905 939 608 938 
906 608 939 609 
939 608 642 609 
609 642 940 643 
906 940 907 609 
609 642 939 940 
906 940 609 939 
907 609 940 610 
940 609 643 610 
610 643 941 644 
907 941 908 610 
610 643 940 941 
907 941 610 940 
908 610 941 611 
941 610 644 611 
611 644 942 645 
908 942 909 611 
611 644 941 942 
908 942 611 941 
909 611 942 612 
942 611 645 612 
612 645 943 646 
909 943 910 612 
612 645 942 943 
909 943 612 942 
910 612 943 613 
943 612 646 613 
613 646 944 647 
910 944 911 613 
613 646 943 944 
910 944 613 943 
911 613 944 614 
944 613 647 614 
614 647 945 648 
911 945 912 614 
614 647 944 945 
911 945 614 944 
912 614 945 615 
945 614 648 615 
615 648 946 649 
912 946 913 615 
615 648 945 946 
912 946 615 945 
913 615 946 616 
946 615 649 616 
616 649 947 650 
913 947 914 616 
616 649 946 947 
913 947 616 946 
914 616 947 617 
947 616 650 617 
617 650 948 651 
914 948 915 617 
617 650 947 948 
914 948 617 947 
915 617 948 618 
948 617 651 618 
618 651 949 652 
915 949 916 618 
618 651 948 949 
915 949 618 948 
916 618 949 619 
949 618 652 619 
619 652 950 653 
916 950 917 619 
619 652 949 950 
916 950 619 949 
917 619 950 620 
950 619 653 620 
620 653 951 654 
917 951 918 620 
620 653 950 951 
917 951 620 950 
918 620 951 621 
951 620 654 621 
621 654 952 655 
918 952 919 621 
621 654 951 952 
918 952 621 951 
919 621 952 622 
952 621 655 622 
622 655 953 656 
919 953 920 622 
622 655 952 953 
919 953 622 952 
920 622 953 623 
953 622 656 623 
623 656 954 657 
920 954 921 623 
623 656 953 954 
920 954 623 953 
921 623 954 624 
954 623 657 624 
624 657 955 658 
921 955 922 624 
624 657 954 955 
921 955 624 954 
922 624 955 625 
955 624 658 625 
625 658 956 659 
922 956 923 625 
625 658 955 956 
922 956 625 955 
923 625 956 626 
956 625 659 626 
627 660 958 661 
924 958 925 627 
627 660 957 958 
924 958 627 957 
925 627 958 628 
958 627 661 628 
628 661 959 662 
925 959 926 628 
628 661 958 959 
925 959 628 958 
926 628 959 629 
959 628 662 629 
629 662 960 663 
926 960 927 629 
629 662 959 960 
926 960 629 959 
927 629 960 630 
960 629 663 630 
630 663 961 664 
927 961 928 630 
630 663 960 961 
927 961 630 960 
928 630 961 631 
961 630 664 631 
631 664 962 665 
928 962 929 631 
631 664 961 962 
928 962 631 961 
929 631 962 632 
962 631 665 632 
632 665 963 666 
929 963 930 632 
632 665 962 963 
929 963 632 962 
930 632 963 633 
963 632 666 633 
633 666 964 667 
930 964 931 633 
633 666 963 964 
930 964 633 963 
931 633 964 634 
964 633 667 634 
634 667 965 668 
931 965 932 634 
634 667 964 965 
931 965 634 964 
932 634 965 635 
965 634 668 635 
635 668 966 669 
932 966 933 635 
635 668 965 966 
932 966 635 965 
933 635 966 636 
966 635 669 636 
636 669 967 670 
933 967 934 636 
636 669 966 967 
933 967 636 966 
934 636 967 637 
967 636 670 637 
637 670 968 671 
934 968 935 637 
637 670 967 968 
934 968 637 967 
935 637 968 638 
968 637 671 638 
638 671 969 672 
935 969 936 638 
638 671 968 969 
935 969 638 968 
936 638 969 639 
969 638 672 639 
639 672 970 673 
936 970 937 639 
639 672 969 970 
936 970 639 969 
937 639 970 640 
970 639 673 640 
640 673 971 674 
937 971 938 640 
640 673 970 971 
937 971 640 970 
938 640 971 641 
971 640 674 641 
641 674 972 675 
938 972 939 641 
641 674 971 972 
938 972 641 971 
939 641 972 642 
972 641 675 642 
642 675 973 676 
939 973 940 642 
642 675 972 973 
939 973 642 972 
940 642 973 643 
973 642 676 643 
643 676 974 677 
940 974 941 643 
643 676 973 974 
940 974 643 973 
941 643 974 644 
974 643 677 644 
644 677 975 678 
941 975 942 644 
644 677 974 975 
941 975 644 974 
942 644 975 645 
975 644 678 645 
645 678 976 679 
942 976 943 645 
645 678 975 976 
942 976 645 975 
943 645 976 646 
976 645 679 646 
646 679 977 680 
943 977 944 646 
646 679 976 977 
943 977 646 976 
944 646 977 647 
977 646 680 647 
647 680 978 681 
944 978 945 647 
647 680 977 978 
944 978 647 977 
945 647 978 648 
978 647 681 648 
648 681 979 682 
945 979 946 648 
648 681 978 979 
945 979 648 978 
946 648 979 649 
979 648 682 649 
649 682 980 683 
946 980 947 649 
649 682 979 980 
946 980 649 979 
947 649 980 650 
980 649 683 650 
650 683 981 684 
947 981 948 650 
650 683 980 981 
947 981 650 980 
948 650 981 651 
981 650 684 651 
651 684 982 685 
948 982 949 651 
651 684 981 982 
948 982 651 981 
949 651 982 652 
982 651 685 652 
652 685 983 686 
949 983 950 652 
652 685 982 983 
949 983 652 982 
950 652 983 653 
983 652 686 653 
653 686 984 687 
950 984 951 653 
653 686 983 984 
950 984 653 983 
951 653 984 654 
984 653 687 654 
654 687 985 688 
951 985 952 654 
654 687 984 985 
951 985 654 984 
952 654 985 655 
985 654 688 655 
655 688 986 689 
952 986 953 655 
655 688 985 986 
952 986 655 985 
953 655 986 656 
986 655 689 656 
656 689 987 690 
953 987 954 656 
656 689 986 987 
953 987 656 986 
954 656 987 657 
987 656 690 657 
657 690 988 691 
954 988 955 657 
657 690 987 988 
954 988 657 987 
955 657 988 658 
988 657 691 658 
658 691 989 692 
955 989 956 658 
658 691 988 989 
955 989 658 988 
956 658 989 659 
989 658 692 659 
660 693 991 694 
957 991 958 660 
660 693 990 991 
957 991 660 990 
958 660 991 661 
991 660 694 661 
661 694 992 695 
958 992 959 661 
661 694 991 992 
958 992 661 991 
959 661 992 662 
992 661 695 662 
662 695 993 696 
959 993 960 662 
662 695 992 993 
959 993 662 992 
960 662 993 663 
993 662 696 663 
663 696 994 697 
960 994 961 663 
663 696 993 994 
960 994 663 993 
961 663 994 664 
994 663 697 664 
664 697 995 698 
961 995 962 664 
664 697 994 995 
961 995 664 994 
962 664 995 665 
995 664 698 665 
665 698 996 699 
962 996 963 665 
665 698 995 996 
962 996 665 995 
963 665 996 666 
996 665 699 666 
666 699 997 700 
963 997 964 666 
666 699 996 997 
963 997 666 996 
964 666 997 667 
997 666 700 667 
667 700 998 701 
964 998 965 667 
667 700 997 998 
964 998 667 997 
965 667 998 668 
998 667 701 668 
668 701 999 702 
965 999 966 668 
668 701 998 999 
965 999 668 998 
966 668 999 669 
999 668 702 669 
669 702 1000 703 
966 1000 967 669 
669 702 999 1000 
966 1000 669 999 
967 669 1000 670 
1000 669 703 670 
670 703 1001 704 
967 1001 968 670 
670 703 1000 1001 
967 1001 670 1000 
968 670 1001 671 
1001 670 704 671 
671 704 1002 705 
968 1002 969 671 
671 704 1001 1002 
968 1002 671 1001 
969 671 1002 672 
1002 671 705 672 
672 705 1003 706 
969 1003 970 672 
672 705 1002 1003 
969 1003 672 1002 
970 672 1003 673 
1003 672 706 673 
673 706 1004 707 
970 1004 971 673 
673 706 1003 1004 
970 1004 673 1003 
971 673 1004 674 
1004 673 707 674 
674 707 1005 708 
971 1005 972 674 
674 707 1004 1005 
971 1005 674 1004 
972 674 1005 675 
1005 674 708 675 
675 708 1006 709 
972 1006 973 675 
675 708 1005 1006 
972 1006 675 1005 
973 675 1006 676 
1006 675 709 676 
676 709 1007 710 
973 1007 974 676 
676 709 1006 1007 
973 1007 676 1006 
974 676 1007 677 
1007 676 710 677 
677 710 1008 711 
974 1008 975 677 
677 710 1007 1008 
974 1008 677 1007 
975 677 1008 678 
1008 677 711 678 
678 711 1009 712 
975 1009 976 678 
678 711 1008 1009 
975 1009 678 1008 
976 678 1009 679 
1009 678 712 679 
679 712 1010 713 
976 1010 977 679 
679 712 1009 1010 
976 1010 679 1009 
977 679 1010 680 
1010 679 713 680 
680 713 1011 714 
977 1011 978 680 
680 713 1010 1011 
977 1011 680 1010 
978 680 1011 681 
1011 680 714 681 
681 714 1012 715 
978 1012 979 681 
681 714 1011 1012 
978 1012 681 1011 
979 681 1012 682 
1012 681 715 682 
682 715 1013 716 
979 1013 980 682 
682 715 1012 1013 
979 1013 682 1012 
980 682 1013 683 
1013 682 716 683 
683 716 1014 717 
980 1014 981 683 
683 716 1013 1014 
980 1014 683 1013 
981 683 1014 684 
1014 683 717 684 
684 717 1015 718 
981 1015 982 684 
684 717 1014 1015 
981 1015 684 1014 
982 684 1015 685 
1015 684 718 685 
685 718 1016 719 
982 1016 983 685 
685 718 1015 1016 
982 1016 685 1015 
983 685 1016 686 
1016 685 719 686 
686 719 1017 720 
983 1017 984 686 
686 719 1016 1017 
983 1017 686 1016 
984 686 1017 687 
1017 686 720 687 
687 720 1018 721 
984 1018 985 687 
687 720 1017 1018 
984 1018 687 1017 
985 687 1018 688 
1018 687 721 688 
688 721 1019 722 
985 1019 986 688 
688 721 1018 1019 
985 1019 688 1018 
986 688 1019 689 
1019 688 722 689 
689 722 1020 723 
986 1020 987 689 
689 722 1019 1020 
986 1020 689 1019 
987 689 1020 690 
1020 689 723 690 
690 723 1021 724 
987 1021 988 690 
690 723 1020 1021 
987 1021 690 1020 
988 690 1021 691 
1021 690 724 691 
691 724 1022 725 
988 1022 989 691 
691 724 1021 1022 
988 1022 691 1021 
989 691 1022 692 
1022 691 725 692 
693 726 1024 727 
990 1024 991 693 
693 726 1023 1024 
990 1024 693 1023 
991 693 1024 694 
1024 693 727 694 
694 727 1025 728 
991 1025 992 694 
694 727 1024 1025 
991 1025 694 1024 
992 694 1025 695 
1025 694 728 695 
695 728 1026 729 
992 1026 993 695 
695 728 1025 1026 
992 1026 695 1025 
993 695 1026 696 
1026 695 729 696 
696 729 1027 730 
993 1027 994 696 
696 729 1026 1027 
993 1027 696 1026 
994 696 1027 697 
1027 696 730 697 
697 730 1028 731 
994 1028 995 697 
697 730 1027 1028 
994 1028 697 1027 
995 697 1028 698 
1028 697 731 698 
698 731 1029 732 
995 1029 996 698 
698 731 1028 1029 
995 1029 698 1028 
996 698 1029 699 
1029 698 732 699 
699 732 1030 733 
996 1030 997 699 
699 732 1029 1030 
996 1030 699 1029 
997 699 1030 700 
1030 699 733 700 
700 733 1031 734 
997 1031 998 700 
700 733 1030 1031 
997 1031 700 1030 
998 700 1031 701 
1031 700 734 701 
701 734 1032 735 
998 1032 999 701 
701 734 1031 1032 
998 1032 701 1031 
999 701 1032 702 
1032 701 735 702 
702 735 1033 736 
999 1033 1000 702 
702 735 1032 1033 
999 1033 702 1032 
1000 702 1033 703 
1033 702 736 703 
703 736 1034 737 
1000 1034 1001 703 
703 736 1033 1034 
1000 1034 703 1033 
1001 703 1034 704 
1034 703 737 704 
704 737 1035 738 
1001 1035 1002 704 
704 737 1034 1035 
1001 1035 704 1034 
1002 704 1035 705 
1035 704 738 705 
705 738 1036 739 
1002 1036 1003 705 
705 738 1035 1036 
1002 1036 705 1035 
1003 705 1036 706 
1036 705 739 706 
706 739 1037 740 
1003 1037 1004 706 
706 739 1036 1037 
1003 1037 706 1036 
1004 706 1037 707 
1037 706 740 707 
707 740 1038 741 
1004 1038 1005 707 
707 740 1037 1038 
1004 1038 707 1037 
1005 707 1038 708 
1038 707 741 708 
708 741 1039 742 
1005 1039 1006 708 
708 741 1038 1039 
1005 1039 708 1038 
1006 708 1039 709 
1039 708 742 709 
709 742 1040 743 
1006 1040 1007 709 
709 742 1039 1040 
1006 1040 709 1039 
1007 709 1040 710 
1040 709 743 710 
710 743 1041 744 
1007 1041 1008 710 
710 743 1040 1041 
1007 1041 710 1040 
1008 710 1041 711 
1041 710 744 711 
711 744 1042 745 
1008 1042 1009 711 
711 744 1041 1042 
1008 1042 711 1041 
1009 711 1042 712 
1042 711 745 712 
712 745 1043 746 
1009 1043 1010 712 
712 745 1042 1043 
1009 1043 712 1042 
1010 712 1043 713 
1043 712 746 713 
713 746 1044 747 
1010 1044 1011 713 
713 746 1043 1044 
1010 1044 713 1043 
1011 713 1044 714 
1044 713 747 714 
714 747 1045 748 
1011 1045 1012 714 
714 747 1044 1045 
1011 1045 714 1044 
1012 714 1045 715 
1045 714 748 715 
715 748 1046 749 
1012 1046 1013 715 
715 748 1045 1046 
1012 1046 715 1045 
1013 715 1046 716 
1046 715 749 716 
716 749 1047 750 
1013 1047 1014 716 
716 749 1046 1047 
1013 1047 716 1046 
1014 716 1047 717 
1047 716 750 717 
717 750 1048 751 
1014 1048 1015 717 
717 750 1047 1048 
1014 1048 717 1047 
1015 717 1048 718 
1048 717 751 718 
718 751 1049 752 
1015 1049 1016 718 
718 751 1048 1049 
1015 1049 718 1048 
1016 718 1049 719 
1049 718 752 719 
719 752 1050 753 
1016 1050 1017 719 
719 752 1049 1050 
1016 1050 719 1049 
1017 719 1050 720 
1050 719 753 720 
720 753 1051 754 
1017 1051 1018 720 
720 753 1050 1051 
1017 1051 720 1050 
1018 720 1051 721 
1051 720 754 721 
721 754 1052 755 
1018 1052 1019 721 
721 754 1051 1052 
1018 1052 721 1051 
1019 721 1052 722 
1052 721 755 722 
722 755 1053 756 
1019 1053 1020 722 
722 755 1052 1053 
1019 1053 722 1052 
1020 722 1053 723 
1053 722 756 723 
723 756 1054 757 
1020 1054 1021 723 
723 756 1053 1054 
1020 1054 723 1053 
1021 723 1054 724 
1054 723 757 724 
724 757 1055 758 
1021 1055 1022 724 
724 757 1054 1055 
1021 1055 724 1054 
1022 724 1055 725 
1055 724 758 725 
726 759 1057 760 
1023 1057 1024 726 
726 759 1056 1057 
1023 1057 726 1056 
1024 726 1057 727 
1057 726 760 727 
727 760 1058 761 
1024 1058 1025 727 
727 760 1057 1058 
1024 1058 727 1057 
1025 727 1058 728 
1058 727 761 728 
728 761 1059 762 
1025 1059 1026 728 
728 761 1058 1059 
1025 1059 728 1058 
1026 728 1059 729 
1059 728 762 729 
729 762 1060 763 
1026 1060 1027 729 
729 762 1059 1060 
1026 1060 729 1059 
1027 729 1060 730 
1060 729 763 730 
730 763 1061 764 
1027 1061 1028 730 
730 763 1060 1061 
1027 1061 730 1060 
1028 730 1061 731 
1061 730 764 731 
731 764 1062 765 
1028 1062 1029 731 
731 764 1061 1062 
1028 1062 731 1061 
1029 731 1062 732 
1062 731 765 732 
732 765 1063 766 
1029 1063 1030 732 
732 765 1062 1063 
1029 1063 732 1062 
1030 732 1063 733 
1063 732 766 733 
733 766 1064 767 
1030 1064 1031 733 
733 766 1063 1064 
1030 1064 733 1063 
1031 733 1064 734 
1064 733 767 734 
734 767 1065 768 
1031 1065 1032 734 
734 767 1064 1065 
1031 1065 734 1064 
1032 734 1065 735 
1065 734 768 735 
735 768 1066 769 
1032 1066 1033 735 
735 768 1065 1066 
1032 1066 735 1065 
1033 735 1066 736 
1066 735 769 736 
736 769 1067 770 
1033 1067 1034 736 
736 769 1066 1067 
1033 1067 736 1066 
1034 736 1067 737 
1067 736 770 737 
737 770 1068 771 
1034 1068 1035 737 
737 770 1067 1068 
1034 1068 737 1067 
1035 737 1068 738 
1068 737 771 738 
738 771 1069 772 
1035 1069 1036 738 
738 771 1068 1069 
1035 1069 738 1068 
1036 738 1069 739 
1069 738 772 739 
739 772 1070 773 
1036 1070 1037 739 
739 772 1069 1070 
1036 1070 739 1069 
1037 739 1070 740 
1070 739 773 740 
740 773 1071 774 
1037 1071 1038 740 
740 773 1070 1071 
1037 1071 740 1070 
1038 740 1071 741 
1071 740 774 741 
741 774 1072 775 
1038 1072 1039 741 
741 774 1071 1072 
1038 1072 741 1071 
1039 741 1072 742 
1072 741 775 742 
742 775 1073 776 
1039 1073 1040 742 
742 775 1072 1073 
1039 1073 742 1072 
1040 742 1073 743 
1073 742 776 743 
743 776 1074 777 
1040 1074 1041 743 
743 776 1073 1074 
1040 1074 743 1073 
1041 743 1074 744 
1074 743 777 744 
744 777 1075 778 
1041 1075 1042 744 
744 777 1074 1075 
1041 1075 744 1074 
1042 744 1075 745 
1075 744 778 745 
745 778 1076 779 
1042 1076 1043 745 
745 778 1075 1076 
1042 1076 745 1075 
1043 745 1076 746 
1076 745 779 746 
746 779 1077 780 
1043 1077 1044 746 
746 779 1076 1077 
1043 1077 746 1076 
1044 746 1077 747 
1077 746 780 747 
747 780 1078 781 
1044 1078 1045 747 
747 780 1077 1078 
1044 1078 747 1077 
1045 747 1078 748 
1078 747 781 748 
748 781 1079 782 
1045 1079 1046 748 
748 781 1078 1079 
1045 1079 748 1078 
1046 748 1079 749 
1079 748 782 749 
749 782 1080 783 
1046 1080 1047 749 
749 782 1079 1080 
1046 1080 749 1079 
1047 749 1080 750 
1080 749 783 750 
750 783 1081 784 
1047 1081 1048 750 
750 783 1080 1081 
1047 1081 750 1080 
1048 750 1081 751 
1081 750 784 751 
751 784 1082 785 
1048 1082 1049 751 
751 784 1081 1082 
1048 1082 751 1081 
1049 751 1082 752 
1082 751 785 752 
752 785 1083 786 
1049 1083 1050 752 
752 785 1082 1083 
1049 1083 752 1082 
1050 752 1083 753 
1083 752 786 753 
753 786 1084 787 
1050 1084 1051 753 
753 786 1083 1084 
1050 1084 753 1083 
1051 753 1084 754 
1084 753 787 754 
754 787 1085 788 
1051 1085 1052 754 
754 787 1084 1085 
1051 1085 754 1084 
1052 754 1085 755 
1085 754 788 755 
755 788 1086 789 
1052 1086 1053 755 
755 788 1085 1086 
1052 1086 755 1085 
1053 755 1086 756 
1086 755 789 756 
756 789 1087 790 
1053 1087 1054 756 
756 789 1086 1087 
1053 1087 756 1086 
1054 756 1087 757 
1087 756 790 757 
757 790 1088 791 
1054 1088 1055 757 
757 790 1087 1088 
1054 1088 757 1087 
1055 757 1088 758 
1088 757 791 758 
759 792 1090 793 
1056 1090 1057 759 
759 792 1089 1090 
1056 1090 759 1089 
1057 759 1090 760 
1090 759 793 760 
760 793 1091 794 
1057 1091 1058 760 
760 793 1090 1091 
1057 1091 760 1090 
1058 760 1091 761 
1091 760 794 761 
761 794 1092 795 
1058 1092 1059 761 
761 794 1091 1092 
1058 1092 761 1091 
1059 761 1092 762 
1092 761 795 762 
762 795 1093 796 
1059 1093 1060 762 
762 795 1092 1093 
1059 1093 762 1092 
1060 762 1093 763 
1093 762 796 763 
763 796 1094 797 
1060 1094 1061 763 
763 796 1093 1094 
1060 1094 763 1093 
1061 763 1094 764 
1094 763 797 764 
764 797 1095 798 
1061 1095 1062 764 
764 797 1094 1095 
1061 1095 764 1094 
1062 764 1095 765 
1095 764 798 765 
765 798 1096 799 
1062 1096 1063 765 
765 798 1095 1096 
1062 1096 765 1095 
1063 765 1096 766 
1096 765 799 766 
766 799 1097 800 
1063 1097 1064 766 
766 799 1096 1097 
1063 1097 766 1096 
1064 766 1097 767 
1097 766 800 767 
767 800 1098 801 
1064 1098 1065 767 
767 800 1097 1098 
1064 1098 767 1097 
1065 767 1098 768 
1098 767 801 768 
768 801 1099 802 
1065 1099 1066 768 
768 801 1098 1099 
1065 1099 768 1098 
1066 768 1099 769 
1099 768 802 769 
769 802 1100 803 
1066 1100 1067 769 
769 802 1099 1100 
1066 1100 769 1099 
1067 769 1100 770 
1100 769 803 770 
770 803 1101 804 
1067 1101 1068 770 
770 803 1100 1101 
1067 1101 770 1100 
1068 770 1101 771 
1101 770 804 771 
771 804 1102 805 
1068 1102 1069 771 
771 804 1101 1102 
1068 1102 771 1101 
1069 771 1102 772 
1102 771 805 772 
772 805 1103 806 
1069 1103 1070 772 
772 805 1102 1103 
1069 1103 772 1102 
1070 772 1103 773 
1103 772 806 773 
773 806 1104 807 
1070 1104 1071 773 
773 806 1103 1104 
1070 1104 773 1103 
1071 773 1104 774 
1104 773 807 774 
774 807 1105 808 
1071 1105 1072 774 
774 807 1104 1105 
1071 1105 774 1104 
1072 774 1105 775 
1105 774 808 775 
775 808 1106 809 
1072 1106 1073 775 
775 808 1105 1106 
1072 1106 775 1105 
1073 775 1106 776 
1106 775 809 776 
776 809 1107 810 
1073 1107 1074 776 
776 809 1106 1107 
1073 1107 776 1106 
1074 776 1107 777 
1107 776 810 777 
777 810 1108 811 
1074 1108 1075 777 
777 810 1107 1108 
1074 1108 777 1107 
1075 777 1108 778 
1108 777 811 778 
778 811 1109 812 
1075 1109 1076 778 
778 811 1108 1109 
1075 1109 778 1108 
1076 778 1109 779 
1109 778 812 779 
779 812 1110 813 
1076 1110 1077 779 
779 812 1109 1110 
1076 1110 779 1109 
1077 779 1110 780 
1110 779 813 780 
780 813 1111 814 
1077 1111 1078 780 
780 813 1110 1111 
1077 1111 780 1110 
1078 780 1111 781 
1111 780 814 781 
781 814 1112 815 
1078 1112 1079 781 
781 814 1111 1112 
1078 1112 781 1111 
1079 781 1112 782 
1112 781 815 782 
782 815 1113 816 
1079 1113 1080 782 
782 815 1112 1113 
1079 1113 782 1112 
1080 782 1113 783 
1113 782 816 783 
783 816 1114 817 
1080 1114 1081 783 
783 816 1113 1114 
1080 1114 783 1113 
1081 783 1114 784 
1114 783 817 784 
784 817 1115 818 
1081 1115 1082 784 
784 817 1114 1115 
1081 1115 784 1114 
1082 784 1115 785 
1115 784 818 785 
785 818 1116 819 
1082 1116 1083 785 
785 818 1115 1116 
1082 1116 785 1115 
1083 785 1116 786 
1116 785 819 786 
786 819 1117 820 
1083 1117 1084 786 
786 819 1116 1117 
1083 1117 786 1116 
1084 786 1117 787 
1117 786 820 787 
787 820 1118 821 
1084 1118 1085 787 
787 820 1117 1118 
1084 1118 787 1117 
1085 787 1118 788 
1118 787 821 788 
788 821 1119 822 
1085 1119 1086 788 
788 821 1118 1119 
1085 1119 788 1118 
1086 788 1119 789 
1119 788 822 789 
789 822 1120 823 
1086 1120 1087 789 
789 822 1119 1120 
1086 1120 789 1119 
1087 789 1120 790 
1120 789 823 790 
790 823 1121 824 
1087 1121 1088 790 
790 823 1120 1121 
1087 1121 790 1120 
1088 790 1121 791 
1121 790 824 791 
792 825 1123 826 
1089 1123 1090 792 
792 825 1122 1123 
1089 1123 792 1122 
1090 792 1123 793 
1123 792 826 793 
793 826 1124 827 
1090 1124 1091 793 
793 826 1123 1124 
1090 1124 793 1123 
1091 793 1124 794 
1124 793 827 794 
794 827 1125 828 
1091 1125 1092 794 
794 827 1124 1125 
1091 1125 794 1124 
1092 794 1125 795 
1125 794 828 795 
795 828 1126 829 
1092 1126 1093 795 
795 828 1125 1126 
1092 1126 795 1125 
1093 795 1126 796 
1126 795 829 796 
796 829 1127 830 
1093 1127 1094 796 
796 829 1126 1127 
1093 1127 796 1126 
1094 796 1127 797 
1127 796 830 797 
797 830 1128 831 
1094 1128 1095 797 
797 830 1127 1128 
1094 1128 797 1127 
1095 797 1128 798 
1128 797 831 798 
798 831 1129 832 
1095 1129 1096 798 
798 831 1128 1129 
1095 1129 798 1128 
1096 798 1129 799 
1129 798 832 799 
799 832 1130 833 
1096 1130 1097 799 
799 832 1129 1130 
1096 1130 799 1129 
1097 799 1130 800 
1130 799 833 800 
800 833 1131 834 
1097 1131 1098 800 
800 833 1130 1131 
1097 1131 800 1130 
1098 800 1131 801 
1131 800 834 801 
801 834 1132 835 
1098 1132 1099 801 
801 834 1131 1132 
1098 1132 801 1131 
1099 801 1132 802 
1132 801 835 802 
802 835 1133 836 
1099 1133 1100 802 
802 835 1132 1133 
1099 1133 802 1132 
1100 802 1133 803 
1133 802 836 803 
803 836 1134 837 
1100 1134 1101 803 
803 836 1133 1134 
1100 1134 803 1133 
1101 803 1134 804 
1134 803 837 804 
804 837 1135 838 
1101 1135 1102 804 
804 837 1134 1135 
1101 1135 804 1134 
1102 804 1135 805 
1135 804 838 805 
805 838 1136 839 
1102 1136 1103 805 
805 838 1135 1136 
1102 1136 805 1135 
1103 805 1136 806 
1136 805 839 806 
806 839 1137 840 
1103 1137 1104 806 
806 839 1136 1137 
1103 1137 806 1136 
1104 806 1137 807 
1137 806 840 807 
807 840 1138 841 
1104 1138 1105 807 
807 840 1137 1138 
1104 1138 807 1137 
1105 807 1138 808 
1138 807 841 808 
808 841 1139 842 
1105 1139 1106 808 
808 841 1138 1139 
1105 1139 808 1138 
1106 808 1139 809 
1139 808 842 809 
809 842 1140 843 
1106 1140 1107 809 
809 842 1139 1140 
1106 1140 809 1139 
1107 809 1140 810 
1140 809 843 810 
810 843 1141 844 
1107 1141 1108 810 
810 843 1140 1141 
1107 1141 810 1140 
1108 810 1141 811 
1141 810 844 811 
811 844 1142 845 
1108 1142 1109 811 
811 844 1141 1142 
1108 1142 811 1141 
1109 811 1142 812 
1142 811 845 812 
812 845 1143 846 
1109 1143 1110 812 
812 845 1142 1143 
1109 1143 812 1142 
1110 812 1143 813 
1143 812 846 813 
813 846 1144 847 
1110 1144 1111 813 
813 846 1143 1144 
1110 1144 813 1143 
1111 813 1144 814 
1144 813 847 814 
814 847 1145 848 
1111 1145 1112 814 
814 847 1144 1145 
1111 1145 814 1144 
1112 814 1145 815 
1145 814 848 815 
815 848 1146 849 
1112 1146 1113 815 
815 848 1145 1146 
1112 1146 815 1145 
1113 815 1146 816 
1146 815 849 816 
816 849 1147 850 
1113 1147 1114 816 
816 849 1146 1147 
1113 1147 816 1146 
1114 816 1147 817 
1147 816 850 817 
817 850 1148 851 
1114 1148 1115 817 
817 850 1147 1148 
1114 1148 817 1147 
1115 817 1148 818 
1148 817 851 818 
818 851 1149 852 
1115 1149 1116 818 
818 851 1148 1149 
1115 1149 818 1148 
1116 818 1149 819 
1149 818 852 819 
819 852 1150 853 
1116 1150 1117 819 
819 852 1149 1150 
1116 1150 819 1149 
1117 819 1150 820 
1150 819 853 820 
820 853 1151 854 
1117 1151 1118 820 
820 853 1150 1151 
1117 1151 820 1150 
1118 820 1151 821 
1151 820 854 821 
821 854 1152 855 
1118 1152 1119 821 
821 854 1151 1152 
1118 1152 821 1151 
1119 821 1152 822 
1152 821 855 822 
822 855 1153 856 
1119 1153 1120 822 
822 855 1152 1153 
1119 1153 822 1152 
1120 822 1153 823 
1153 822 856 823 
823 856 1154 857 
1120 1154 1121 823 
823 856 1153 1154 
1120 1154 823 1153 
1121 823 1154 824 
1154 823 857 824 
825 858 1156 859 
1122 1156 1123 825 
825 858 1155 1156 
1122 1156 825 1155 
1123 825 1156 826 
1156 825 859 826 
826 859 1157 860 
1123 1157 1124 826 
826 859 1156 1157 
1123 1157 826 1156 
1124 826 1157 827 
1157 826 860 827 
827 860 1158 861 
1124 1158 1125 827 
827 860 1157 1158 
1124 1158 827 1157 
1125 827 1158 828 
1158 827 861 828 
828 861 1159 862 
1125 1159 1126 828 
828 861 1158 1159 
1125 1159 828 1158 
1126 828 1159 829 
1159 828 862 829 
829 862 1160 863 
1126 1160 1127 829 
829 862 1159 1160 
1126 1160 829 1159 
1127 829 1160 830 
1160 829 863 830 
830 863 1161 864 
1127 1161 1128 830 
830 863 1160 1161 
1127 1161 830 1160 
1128 830 1161 831 
1161 830 864 831 
831 864 1162 865 
1128 1162 1129 831 
831 864 1161 1162 
1128 1162 831 1161 
1129 831 1162 832 
1162 831 865 832 
832 865 1163 866 
1129 1163 1130 832 
832 865 1162 1163 
1129 1163 832 1162 
1130 832 1163 833 
1163 832 866 833 
833 866 1164 867 
1130 1164 1131 833 
833 866 1163 1164 
1130 1164 833 1163 
1131 833 1164 834 
1164 833 867 834 
834 867 1165 868 
1131 1165 1132 834 
834 867 1164 1165 
1131 1165 834 1164 
1132 834 1165 835 
1165 834 868 835 
835 868 1166 869 
1132 1166 1133 835 
835 868 1165 1166 
1132 1166 835 1165 
1133 835 1166 836 
1166 835 869 836 
836 869 1167 870 
1133 1167 1134 836 
836 869 1166 1167 
1133 1167 836 1166 
1134 836 1167 837 
1167 836 870 837 
837 870 1168 871 
1134 1168 1135 837 
837 870 1167 1168 
1134 1168 837 1167 
1135 837 1168 838 
1168 837 871 838 
838 871 1169 872 
1135 1169 1136 838 
838 871 1168 1169 
1135 1169 838 1168 
1136 838 1169 839 
1169 838 872 839 
839 872 1170 873 
1136 1170 1137 839 
839 872 1169 1170 
1136 1170 839 1169 
1137 839 1170 840 
1170 839 873 840 
840 873 1171 874 
1137 1171 1138 840 
840 873 1170 1171 
1137 1171 840 1170 
1138 840 1171 841 
1171 840 874 841 
841 874 1172 875 
1138 1172 1139 841 
841 874 1171 1172 
1138 1172 841 1171 
1139 841 1172 842 
1172 841 875 842 
842 875 1173 876 
1139 1173 1140 842 
842 875 1172 1173 
1139 1173 842 1172 
1140 842 1173 843 
1173 842 876 843 
843 876 1174 877 
1140 1174 1141 843 
843 876 1173 1174 
1140 1174 843 1173 
1141 843 1174 844 
1174 843 877 844 
844 877 1175 878 
1141 1175 1142 844 
844 877 1174 1175 
1141 1175 844 1174 
1142 844 1175 845 
1175 844 878 845 
845 878 1176 879 
1142 1176 1143 845 
845 878 1175 1176 
1142 1176 845 1175 
1143 845 1176 846 
1176 845 879 846 
846 879 1177 880 
1143 1177 1144 846 
846 879 1176 1177 
1143 1177 846 1176 
1144 846 1177 847 
1177 846 880 847 
847 880 1178 881 
1144 1178 1145 847 
847 880 1177 1178 
1144 1178 847 1177 
1145 847 1178 848 
1178 847 881 848 
848 881 1179 882 
1145 1179 1146 848 
848 881 1178 1179 
1145 1179 848 1178 
1146 848 1179 849 
1179 848 882 849 
849 882 1180 883 
1146 1180 1147 849 
849 882 1179 1180 
1146 1180 849 1179 
1147 849 1180 850 
1180 849 883 850 
850 883 1181 884 
1147 1181 1148 850 
850 883 1180 1181 
1147 1181 850 1180 
1148 850 1181 851 
1181 850 884 851 
851 884 1182 885 
1148 1182 1149 851 
851 884 1181 1182 
1148 1182 851 1181 
1149 851 1182 852 
1182 851 885 852 
852 885 1183 886 
1149 1183 1150 852 
852 885 1182 1183 
1149 1183 852 1182 
1150 852 1183 853 
1183 852 886 853 
853 886 1184 887 
1150 1184 1151 853 
853 886 1183 1184 
1150 1184 853 1183 
1151 853 1184 854 
1184 853 887 854 
854 887 1185 888 
1151 1185 1152 854 
854 887 1184 1185 
1151 1185 854 1184 
1152 854 1185 855 
1185 854 888 855 
855 888 1186 889 
1152 1186 1153 855 
855 888 1185 1186 
1152 1186 855 1185 
1153 855 1186 856 
1186 855 889 856 
856 889 1187 890 
1153 1187 1154 856 
856 889 1186 1187 
1153 1187 856 1186 
1154 856 1187 857 
1187 856 890 857 
891 924 1222 925 
1188 1222 1189 891 
891 924 1221 1222 
1188 1222 891 1221 
1189 891 1222 892 
1222 891 925 892 
892 925 1223 926 
1189 1223 1190 892 
892 925 1222 1223 
1189 1223 892 1222 
1190 892 1223 893 
1223 892 926 893 
893 926 1224 927 
1190 1224 1191 893 
893 926 1223 1224 
1190 1224 893 1223 
1191 893 1224 894 
1224 893 927 894 
894 927 1225 928 
1191 1225 1192 894 
894 927 1224 1225 
1191 1225 894 1224 
1192 894 1225 895 
1225 894 928 895 
895 928 1226 929 
1192 1226 1193 895 
895 928 1225 1226 
1192 1226 895 1225 
1193 895 1226 896 
1226 895 929 896 
896 929 1227 930 
1193 1227 1194 896 
896 929 1226 1227 
1193 1227 896 1226 
1194 896 1227 897 
1227 896 930 897 
897 930 1228 931 
1194 1228 1195 897 
897 930 1227 1228 
1194 1228 897 1227 
1195 897 1228 898 
1228 897 931 898 
898 931 1229 932 
1195 1229 1196 898 
898 931 1228 1229 
1195 1229 898 1228 
1196 898 1229 899 
1229 898 932 899 
899 932 1230 933 
1196 1230 1197 899 
899 932 1229 1230 
1196 1230 899 1229 
1197 899 1230 900 
1230 899 933 900 
900 933 1231 934 
1197 1231 1198 900 
900 933 1230 1231 
1197 1231 900 1230 
1198 900 1231 901 
1231 900 934 901 
901 934 1232 935 
1198 1232 1199 901 
901 934 1231 1232 
1198 1232 901 1231 
1199 901 1232 902 
1232 901 935 902 
902 935 1233 936 
1199 1233 1200 902 
902 935 1232 1233 
1199 1233 902 1232 
1200 902 1233 903 
1233 902 936 903 
903 936 1234 937 
1200 1234 1201 903 
903 936 1233 1234 
1200 1234 903 1233 
1201 903 1234 904 
1234 903 937 904 
904 937 1235 938 
1201 1235 1202 904 
904 937 1234 1235 
1201 1235 904 1234 
1202 904 1235 905 
1235 904 938 905 
905 938 1236 939 
1202 1236 1203 905 
905 938 1235 1236 
1202 1236 905 1235 
1203 905 1236 906 
1236 905 939 906 
906 939 1237 940 
1203 1237 1204 906 
906 939 1236 1237 
1203 1237 906 1236 
1204 906 1237 907 
1237 906 940 907 
907 940 1238 941 
1204 1238 1205 907 
907 940 1237 1238 
1204 1238 907 1237 
1205 907 1238 908 
1238 907 941 908 
908 941 1239 942 
1205 1239 1206 908 
908 941 1238 1239 
1205 1239 908 1238 
1206 908 1239 909 
1239 908 942 909 
909 942 1240 943 
1206 1240 1207 909 
909 942 1239 1240 
1206 1240 909 1239 
1207 909 1240 910 
1240 909 943 910 
910 943 1241 944 
1207 1241 1208 910 
910 943 1240 1241 
1207 1241 910 1240 
1208 910 1241 911 
1241 910 944 911 
911 944 1242 945 
1208 1242 1209 911 
911 944 1241 1242 
1208 1242 911 1241 
1209 911 1242 912 
1242 911 945 912 
912 945 1243 946 
1209 1243 1210 912 
912 945 1242 1243 
1209 1243 912 1242 
1210 912 1243 913 
1243 912 946 913 
913 946 1244 947 
1210 1244 1211 913 
913 946 1243 1244 
1210 1244 913 1243 
1211 913 1244 914 
1244 913 947 914 
914 947 1245 948 
1211 1245 1212 914 
914 947 1244 1245 
1211 1245 914 1244 
1212 914 1245 915 
1245 914 948 915 
915 948 1246 949 
1212 1246 1213 915 
915 948 1245 1246 
1212 1246 915 1245 
1213 915 1246 916 
1246 915 949 916 
916 949 1247 950 
1213 1247 1214 916 
916 949 1246 1247 
1213 1247 916 1246 
1214 916 1247 917 
1247 916 950 917 
917 950 1248 951 
1214 1248 1215 917 
917 950 1247 1248 
1214 1248 917 1247 
1215 917 1248 918 
1248 917 951 918 
918 951 1249 952 
1215 1249 1216 918 
918 951 1248 1249 
1215 1249 918 1248 
1216 918 1249 919 
1249 918 952 919 
919 952 1250 953 
1216 1250 1217 919 
919 952 1249 1250 
1216 1250 919 1249 
1217 919 1250 920 
1250 919 953 920 
920 953 1251 954 
1217 1251 1218 920 
920 953 1250 1251 
1217 1251 920 1250 
1218 920 1251 921 
1251 920 954 921 
921 954 1252 955 
1218 1252 1219 921 
921 954 1251 1252 
1218 1252 921 1251 
1219 921 1252 922 
1252 921 955 922 
922 955 1253 956 
1219 1253 1220 922 
922 955 1252 1253 
1219 1253 922 1252 
1220 922 1253 923 
1253 922 956 923 
924 957 1255 958 
1221 1255 1222 924 
924 957 1254 1255 
1221 1255 924 1254 
1222 924 1255 925 
1255 924 958 925 
925 958 1256 959 
1222 1256 1223 925 
925 958 1255 1256 
1222 1256 925 1255 
1223 925 1256 926 
1256 925 959 926 
926 959 1257 960 
1223 1257 1224 926 
926 959 1256 1257 
1223 1257 926 1256 
1224 926 1257 927 
1257 926 960 927 
927 960 1258 961 
1224 1258 1225 927 
927 960 1257 1258 
1224 1258 927 1257 
1225 927 1258 928 
1258 927 961 928 
928 961 1259 962 
1225 1259 1226 928 
928 961 1258 1259 
1225 1259 928 1258 
1226 928 1259 929 
1259 928 962 929 
929 962 1260 963 
1226 1260 1227 929 
929 962 1259 1260 
1226 1260 929 1259 
1227 929 1260 930 
1260 929 963 930 
930 963 1261 964 
1227 1261 1228 930 
930 963 1260 1261 
1227 1261 930 1260 
1228 930 1261 931 
1261 930 964 931 
931 964 1262 965 
1228 1262 1229 931 
931 964 1261 1262 
1228 1262 931 1261 
1229 931 1262 932 
1262 931 965 932 
932 965 1263 966 
1229 1263 1230 932 
932 965 1262 1263 
1229 1263 932 1262 
1230 932 1263 933 
1263 932 966 933 
933 966 1264 967 
1230 1264 1231 933 
933 966 1263 1264 
1230 1264 933 1263 
1231 933 1264 934 
1264 933 967 934 
934 967 1265 968 
1231 1265 1232 934 
934 967 1264 1265 
1231 1265 934 1264 
1232 934 1265 935 
1265 934 968 935 
935 968 1266 969 
1232 1266 1233 935 
935 968 1265 1266 
1232 1266 935 1265 
1233 935 1266 936 
1266 935 969 936 
936 969 1267 970 
1233 1267 1234 936 
936 969 1266 1267 
1233 1267 936 1266 
1234 936 1267 937 
1267 936 970 937 
937 970 1268 971 
1234 1268 1235 937 
937 970 1267 1268 
1234 1268 937 1267 
1235 937 1268 938 
1268 937 971 938 
938 971 1269 972 
1235 1269 1236 938 
938 971 1268 1269 
1235 1269 938 1268 
1236 938 1269 939 
1269 938 972 939 
939 972 1270 973 
1236 1270 1237 939 
939 972 1269 1270 
1236 1270 939 1269 
1237 939 1270 940 
1270 939 973 940 
940 973 1271 974 
1237 1271 1238 940 
940 973 1270 1271 
1237 1271 940 1270 
1238 940 1271 941 
1271 940 974 941 
941 974 1272 975 
1238 1272 1239 941 
941 974 1271 1272 
1238 1272 941 1271 
1239 941 1272 942 
1272 941 975 942 
942 975 1273 976 
1239 1273 1240 942 
942 975 1272 1273 
1239 1273 942 1272 
1240 942 1273 943 
1273 942 976 943 
943 976 1274 977 
1240 1274 1241 943 
943 976 1273 1274 
1240 1274 943 1273 
1241 943 1274 944 
1274 943 977 944 
944 977 1275 978 
1241 1275 1242 944 
944 977 1274 1275 
1241 1275 944 1274 
1242 944 1275 945 
1275 944 978 945 
945 978 1276 979 
1242 1276 1243 945 
945 978 1275 1276 
1242 1276 945 1275 
1243 945 1276 946 
1276 945 979 946 
946 979 1277 980 
1243 1277 1244 946 
946 979 1276 1277 
1243 1277 946 1276 
1244 946 1277 947 
1277 946 980 947 
947 980 1278 981 
1244 1278 1245 947 
947 980 1277 1278 
1244 1278 947 1277 
1245 947 1278 948 
1278 947 981 948 
948 981 1279 982 
1245 1279 1246 948 
948 981 1278 1279 
1245 1279 948 1278 
1246 948 1279 949 
1279 948 982 949 
949 982 1280 983 
1246 1280 1247 949 
949 982 1279 1280 
1246 1280 949 1279 
1247 949 1280 950 
1280 949 983 950 
950 983 1281 984 
1247 1281 1248 950 
950 983 1280 1281 
1247 1281 950 1280 
1248 950 1281 951 
1281 950 984 951 
951 984 1282 985 
1248 1282 1249 951 
951 984 1281 1282 
1248 1282 951 1281 
1249 951 1282 952 
1282 951 985 952 
952 985 1283 986 
1249 1283 1250 952 
952 985 1282 1283 
1249 1283 952 1282 
1250 952 1283 953 
1283 952 986 953 
953 986 1284 987 
1250 1284 1251 953 
953 986 1283 1284 
1250 1284 953 1283 
1251 953 1284 954 
1284 953 987 954 
954 987 1285 988 
1251 1285 1252 954 
954 987 1284 1285 
1251 1285 954 1284 
1252 954 1285 955 
1285 954 988 955 
955 988 1286 989 
1252 1286 1253 955 
955 988 1285 1286 
1252 1286 955 1285 
1253 955 1286 956 
1286 955 989 956 
957 990 1288 991 
1254 1288 1255 957 
957 990 1287 1288 
1254 1288 957 1287 
1255 957 1288 958 
1288 957 991 958 
958 991 1289 992 
1255 1289 1256 958 
958 991 1288 1289 
1255 1289 958 1288 
1256 958 1289 959 
1289 958 992 959 
959 992 1290 993 
1256 1290 1257 959 
959 992 1289 1290 
1256 1290 959 1289 
1257 959 1290 960 
1290 959 993 960 
960 993 1291 994 
1257 1291 1258 960 
960 993 1290 1291 
1257 1291 960 1290 
1258 960 1291 961 
1291 960 994 961 
961 994 1292 995 
1258 1292 1259 961 
961 994 1291 1292 
1258 1292 961 1291 
1259 961 1292 962 
1292 961 995 962 
962 995 1293 996 
1259 1293 1260 962 
962 995 1292 1293 
1259 1293 962 1292 
1260 962 1293 963 
1293 962 996 963 
963 996 1294 997 
1260 1294 1261 963 
963 996 1293 1294 
1260 1294 963 1293 
1261 963 1294 964 
1294 963 997 964 
964 997 1295 998 
1261 1295 1262 964 
964 997 1294 1295 
1261 1295 964 1294 
1262 964 1295 965 
1295 964 998 965 
965 998 1296 999 
1262 1296 1263 965 
965 998 1295 1296 
1262 1296 965 1295 
1263 965 1296 966 
1296 965 999 966 
966 999 1297 1000 
1263 1297 1264 966 
966 999 1296 1297 
1263 1297 966 1296 
1264 966 1297 967 
1297 966 1000 967 
967 1000 1298 1001 
1264 1298 1265 967 
967 1000 1297 1298 
1264 1298 967 1297 
1265 967 1298 968 
1298 967 1001 968 
968 1001 1299 1002 
1265 1299 1266 968 
968 1001 1298 1299 
1265 1299 968 1298 
1266 968 1299 969 
1299 968 1002 969 
969 1002 1300 1003 
1266 1300 1267 969 
969 1002 1299 1300 
1266 1300 969 1299 
1267 969 1300 970 
1300 969 1003 970 
970 1003 1301 1004 
1267 1301 1268 970 
970 1003 1300 1301 
1267 1301 970 1300 
1268 970 1301 971 
1301 970 1004 971 
971 1004 1302 1005 
1268 1302 1269 971 
971 1004 1301 1302 
1268 1302 971 1301 
1269 971 1302 972 
1302 971 1005 972 
972 1005 1303 1006 
1269 1303 1270 972 
972 1005 1302 1303 
1269 1303 972 1302 
1270 972 1303 973 
1303 972 1006 973 
973 1006 1304 1007 
1270 1304 1271 973 
973 1006 1303 1304 
1270 1304 973 1303 
1271 973 1304 974 
1304 973 1007 974 
974 1007 1305 1008 
1271 1305 1272 974 
974 1007 1304 1305 
1271 1305 974 1304 
1272 974 1305 975 
1305 974 1008 975 
975 1008 1306 1009 
1272 1306 1273 975 
975 1008 1305 1306 
1272 1306 975 1305 
1273 975 1306 976 
1306 975 1009 976 
976 1009 1307 1010 
1273 1307 1274 976 
976 1009 1306 1307 
1273 1307 976 1306 
1274 976 1307 977 
1307 976 1010 977 
977 1010 1308 1011 
1274 1308 1275 977 
977 1010 1307 1308 
1274 1308 977 1307 
1275 977 1308 978 
1308 977 1011 978 
978 1011 1309 1012 
1275 1309 1276 978 
978 1011 1308 1309 
1275 1309 978 1308 
1276 978 1309 979 
1309 978 1012 979 
979 1012 1310 1013 
1276 1310 1277 979 
979 1012 1309 1310 
1276 1310 979 1309 
1277 979 1310 980 
1310 979 1013 980 
980 1013 1311 1014 
1277 1311 1278 980 
980 1013 1310 1311 
1277 1311 980 1310 
1278 980 1311 981 
1311 980 1014 981 
981 1014 1312 1015 
1278 1312 1279 981 
981 1014 1311 1312 
1278 1312 981 1311 
1279 981 1312 982 
1312 981 1015 982 
982 1015 1313 1016 
1279 1313 1280 982 
982 1015 1312 1313 
1279 1313 982 1312 
1280 982 1313 983 
1313 982 1016 983 
983 1016 1314 1017 
1280 1314 1281 983 
983 1016 1313 1314 
1280 1314 983 1313 
1281 983 1314 984 
1314 983 1017 984 
984 1017 1315 1018 
1281 1315 1282 984 
984 1017 1314 1315 
1281 1315 984 1314 
1282 984 1315 985 
1315 984 1018 985 
985 1018 1316 1019 
1282 1316 1283 985 
985 1018 1315 1316 
1282 1316 985 1315 
1283 985 1316 986 
1316 985 1019 986 
986 1019 1317 1020 
1283 1317 1284 986 
986 1019 1316 1317 
1283 1317 986 1316 
1284 986 1317 987 
1317 986 1020 987 
987 1020 1318 1021 
1284 1318 1285 987 
987 1020 1317 1318 
1284 1318 987 1317 
1285 987 1318 988 
1318 987 1021 988 
988 1021 1319 1022 
1285 1319 1286 988 
988 1021 1318 1319 
1285 1319 988 1318 
1286 988 1319 989 
1319 988 1022 989 
990 1023 1321 1024 
1287 1321 1288 990 
990 1023 1320 1321 
1287 1321 990 1320 
1288 990 1321 991 
1321 990 1024 991 
991 1024 1322 1025 
1288 1322 1289 991 
991 1024 1321 1322 
1288 1322 991 1321 
1289 991 1322 992 
1322 991 1025 992 
992 1025 1323 1026 
1289 1323 1290 992 
992 1025 1322 1323 
1289 1323 992 1322 
1290 992 1323 993 
1323 992 1026 993 
993 1026 1324 1027 
1290 1324 1291 993 
993 1026 1323 1324 
1290 1324 993 1323 
1291 993 1324 994 
1324 993 1027 994 
994 1027 1325 1028 
1291 1325 1292 994 
994 1027 1324 1325 
1291 1325 994 1324 
1292 994 1325 995 
1325 994 1028 995 
995 1028 1326 1029 
1292 1326 1293 995 
995 1028 1325 1326 
1292 1326 995 1325 
1293 995 1326 996 
1326 995 1029 996 
996 1029 1327 1030 
1293 1327 1294 996 
996 1029 1326 1327 
1293 1327 996 1326 
1294 996 1327 997 
1327 996 1030 997 
997 1030 1328 1031 
1294 1328 1295 997 
997 1030 1327 1328 
1294 1328 997 1327 
1295 997 1328 998 
1328 997 1031 998 
998 1031 1329 1032 
1295 1329 1296 998 
998 1031 1328 1329 
1295 1329 998 1328 
1296 998 1329 999 
1329 998 1032 999 
999 1032 1330 1033 
1296 1330 1297 999 
999 1032 1329 1330 
1296 1330 999 1329 
1297 999 1330 1000 
1330 999 1033 1000 
1000 1033 1331 1034 
1297 1331 1298 1000 
1000 1033 1330 1331 
1297 1331 1000 1330 
1298 1000 1331 1001 
1331 1000 1034 1001 
1001 1034 1332 1035 
1298 1332 1299 1001 
1001 1034 1331 1332 
1298 1332 1001 1331 
1299 1001 1332 1002 
1332 1001 1035 1002 
1002 1035 1333 1036 
1299 1333 1300 1002 
1002 1035 1332 1333 
1299 1333 1002 1332 
1300 1002 1333 1003 
1333 1002 1036 1003 
1003 1036 1334 1037 
1300 1334 1301 1003 
1003 1036 1333 1334 
1300 1334 1003 1333 
1301 1003 1334 1004 
1334 1003 1037 1004 
1004 1037 1335 1038 
1301 1335 1302 1004 
1004 1037 1334 1335 
1301 1335 1004 1334 
1302 1004 1335 1005 
1335 1004 1038 1005 
1005 1038 1336 1039 
1302 1336 1303 1005 
1005 1038 1335 1336 
1302 1336 1005 1335 
1303 1005 1336 1006 
1336 1005 1039 1006 
1006 1039 1337 1040 
1303 1337 1304 1006 
1006 1039 1336 1337 
1303 1337 1006 1336 
1304 1006 1337 1007 
1337 1006 1040 1007 
1007 1040 1338 1041 
1304 1338 1305 1007 
1007 1040 1337 1338 
1304 1338 1007 1337 
1305 1007 1338 1008 
1338 1007 1041 1008 
1008 1041 1339 1042 
1305 1339 1306 1008 
1008 1041 1338 1339 
1305 1339 1008 1338 
1306 1008 1339 1009 
1339 1008 1042 1009 
1009 1042 1340 1043 
1306 1340 1307 1009 
1009 1042 1339 1340 
1306 1340 1009 1339 
1307 1009 1340 1010 
1340 1009 1043 1010 
1010 1043 1341 1044 
1307 1341 1308 1010 
1010 1043 1340 1341 
1307 1341 1010 1340 
1308 1010 1341 1011 
1341 1010 1044 1011 
1011 1044 1342 1045 
1308 1342 1309 1011 
1011 1044 1341 1342 
1308 1342 1011 1341 
1309 1011 1342 1012 
1342 1011 1045 1012 
1012 1045 1343 1046 
1309 1343 1310 1012 
1012 1045 1342 1343 
1309 1343 1012 1342 
1310 1012 1343 1013 
1343 1012 1046 1013 
1013 1046 1344 1047 
1310 1344 1311 1013 
1013 1046 1343 1344 
1310 1344 1013 1343 
1311 1013 1344 1014 
1344 1013 1047 1014 
1014 1047 1345 1048 
1311 1345 1312 1014 
1014 1047 1344 1345 
1311 1345 1014 1344 
1312 1014 1345 1015 
1345 1014 1048 1015 
1015 1048 1346 1049 
1312 1346 1313 1015 
1015 1048 1345 1346 
1312 1346 1015 1345 
1313 1015 1346 1016 
1346 1015 1049 1016 
1016 1049 1347 1050 
1313 1347 1314 1016 
1016 1049 1346 1347 
1313 1347 1016 1346 
1314 1016 1347 1017 
1347 1016 1050 1017 
1017 1050 1348 1051 
1314 1348 1315 1017 
1017 1050 1347 1348 
1314 1348 1017 1347 
1315 1017 1348 1018 
1348 1017 1051 1018 
1018 1051 1349 1052 
1315 1349 1316 1018 
1018 1051 1348 1349 
1315 1349 1018 1348 
1316 1018 1349 1019 
1349 1018 1052 1019 
1019 1052 1350 1053 
1316 1350 1317 1019 
1019 1052 1349 1350 
1316 1350 1019 1349 
1317 1019 1350 1020 
1350 1019 1053 1020 
1020 1053 1351 1054 
1317 1351 1318 1020 
1020 1053 1350 1351 
1317 1351 1020 1350 
1318 1020 1351 1021 
1351 1020 1054 1021 
1021 1054 1352 1055 
1318 1352 1319 1021 
1021 1054 1351 1352 
1318 1352 1021 1351 
1319 1021 1352 1022 
1352 1021 1055 1022 
1023 1056 1354 1057 
1320 1354 1321 1023 
1023 1056 1353 1354 
1320 1354 1023 1353 
1321 1023 1354 1024 
1354 1023 1057 1024 
1024 1057 1355 1058 
1321 1355 1322 1024 
1024 1057 1354 1355 
1321 1355 1024 1354 
1322 1024 1355 1025 
1355 1024 1058 1025 
1025 1058 1356 1059 
1322 1356 1323 1025 
1025 1058 1355 1356 
1322 1356 1025 1355 
1323 1025 1356 1026 
1356 1025 1059 1026 
1026 1059 1357 1060 
1323 1357 1324 1026 
1026 1059 1356 1357 
1323 1357 1026 1356 
1324 1026 1357 1027 
1357 1026 1060 1027 
1027 1060 1358 1061 
1324 1358 1325 1027 
1027 1060 1357 1358 
1324 1358 1027 1357 
1325 1027 1358 1028 
1358 1027 1061 1028 
1028 1061 1359 1062 
1325 1359 1326 1028 
1028 1061 1358 1359 
1325 1359 1028 1358 
1326 1028 1359 1029 
1359 1028 1062 1029 
1029 1062 1360 1063 
1326 1360 1327 1029 
1029 1062 1359 1360 
1326 1360 1029 1359 
1327 1029 1360 1030 
1360 1029 1063 1030 
1030 1063 1361 1064 
1327 1361 1328 1030 
1030 1063 1360 1361 
1327 1361 1030 1360 
1328 1030 1361 1031 
1361 1030 1064 1031 
1031 1064 1362 1065 
1328 1362 1329 1031 
1031 1064 1361 1362 
1328 1362 1031 1361 
1329 1031 1362 1032 
1362 1031 1065 1032 
1032 1065 1363 1066 
1329 1363 1330 1032 
1032 1065 1362 1363 
1329 1363 1032 1362 
1330 1032 1363 1033 
1363 1032 1066 1033 
1033 1066 1364 1067 
1330 1364 1331 1033 
1033 1066 1363 1364 
1330 1364 1033 1363 
1331 1033 1364 1034 
1364 1033 1067 1034 
1034 1067 1365 1068 
1331 1365 1332 1034 
1034 1067 1364 1365 
1331 1365 1034 1364 
1332 1034 1365 1035 
1365 1034 1068 1035 
1035 1068 1366 1069 
1332 1366 1333 1035 
1035 1068 1365 1366 
1332 1366 1035 1365 
1333 1035 1366 1036 
1366 1035 1069 1036 
1036 1069 1367 1070 
1333 1367 1334 1036 
1036 1069 1366 1367 
1333 1367 1036 1366 
1334 1036 1367 1037 
1367 1036 1070 1037 
1037 1070 1368 1071 
1334 1368 1335 1037 
1037 1070 1367 1368 
1334 1368 1037 1367 
1335 1037 1368 1038 
1368 1037 1071 1038 
1038 1071 1369 1072 
1335 1369 1336 1038 
1038 1071 1368 1369 
1335 1369 1038 1368 
1336 1038 1369 1039 
1369 1038 1072 1039 
1039 1072 1370 1073 
1336 1370 1337 1039 
1039 1072 1369 1370 
1336 1370 1039 1369 
1337 1039 1370 1040 
1370 1039 1073 1040 
1040 1073 1371 1074 
1337 1371 1338 1040 
1040 1073 1370 1371 
1337 1371 1040 1370 
1338 1040 1371 1041 
1371 1040 1074 1041 
1041 1074 1372 1075 
1338 1372 1339 1041 
1041 1074 1371 1372 
1338 1372 1041 1371 
1339 1041 1372 1042 
1372 1041 1075 1042 
1042 1075 1373 1076 
1339 1373 1340 1042 
1042 1075 1372 1373 
1339 1373 1042 1372 
1340 1042 1373 1043 
1373 1042 1076 1043 
1043 1076 1374 1077 
1340 1374 1341 1043 
1043 1076 1373 1374 
1340 1374 1043 1373 
1341 1043 1374 1044 
1374 1043 1077 1044 
1044 1077 1375 1078 
1341 1375 1342 1044 
1044 1077 1374 1375 
1341 1375 1044 1374 
1342 1044 1375 1045 
1375 1044 1078 1045 
1045 1078 1376 1079 
1342 1376 1343 1045 
1045 1078 1375 1376 
1342 1376 1045 1375 
1343 1045 1376 1046 
1376 1045 1079 1046 
1046 1079 1377 1080 
1343 1377 1344 1046 
1046 1079 1376 1377 
1343 1377 1046 1376 
1344 1046 1377 1047 
1377 1046 1080 1047 
1047 1080 1378 1081 
1344 1378 1345 1047 
1047 1080 1377 1378 
1344 1378 1047 1377 
1345 1047 1378 1048 
1378 1047 1081 1048 
1048 1081 1379 1082 
1345 1379 1346 1048 
1048 1081 1378 1379 
1345 1379 1048 1378 
1346 1048 1379 1049 
1379 1048 1082 1049 
1049 1082 1380 1083 
1346 1380 1347 1049 
1049 1082 1379 1380 
1346 1380 1049 1379 
1347 1049 1380 1050 
1380 1049 1083 1050 
1050 1083 1381 1084 
1347 1381 1348 1050 
1050 1083 1380 1381 
1347 1381 1050 1380 
1348 1050 1381 1051 
1381 1050 1084 1051 
1051 1084 1382 1085 
1348 1382 1349 1051 
1051 1084 1381 1382 
1348 1382 1051 1381 
1349 1051 1382 1052 
1382 1051 1085 1052 
1052 1085 1383 1086 
1349 1383 1350 1052 
1052 1085 1382 1383 
1349 1383 1052 1382 
1350 1052 1383 1053 
1383 1052 1086 1053 
1053 1086 1384 1087 
1350 1384 1351 1053 
1053 1086 1383 1384 
1350 1384 1053 1383 
1351 1053 1384 1054 
1384 1053 1087 1054 
1054 1087 1385 1088 
1351 1385 1352 1054 
1054 1087 1384 1385 
1351 1385 1054 1384 
1352 1054 1385 1055 
1385 1054 1088 1055 
1056 1089 1387 1090 
1353 1387 1354 1056 
1056 1089 1386 1387 
1353 1387 1056 1386 
1354 1056 1387 1057 
1387 1056 1090 1057 
1057 1090 1388 1091 
1354 1388 1355 1057 
1057 1090 1387 1388 
1354 1388 1057 1387 
1355 1057 1388 1058 
1388 1057 1091 1058 
1058 1091 1389 1092 
1355 1389 1356 1058 
1058 1091 1388 1389 
1355 1389 1058 1388 
1356 1058 1389 1059 
1389 1058 1092 1059 
1059 1092 1390 1093 
1356 1390 1357 1059 
1059 1092 1389 1390 
1356 1390 1059 1389 
1357 1059 1390 1060 
1390 1059 1093 1060 
1060 1093 1391 1094 
1357 1391 1358 1060 
1060 1093 1390 1391 
1357 1391 1060 1390 
1358 1060 1391 1061 
1391 1060 1094 1061 
1061 1094 1392 1095 
1358 1392 1359 1061 
1061 1094 1391 1392 
1358 1392 1061 1391 
1359 1061 1392 1062 
1392 1061 1095 1062 
1062 1095 1393 1096 
1359 1393 1360 1062 
1062 1095 1392 1393 
1359 1393 1062 1392 
1360 1062 1393 1063 
1393 1062 1096 1063 
1063 1096 1394 1097 
1360 1394 1361 1063 
1063 1096 1393 1394 
1360 1394 1063 1393 
1361 1063 1394 1064 
1394 1063 1097 1064 
1064 1097 1395 1098 
1361 1395 1362 1064 
1064 1097 1394 1395 
1361 1395 1064 1394 
1362 1064 1395 1065 
1395 1064 1098 1065 
1065 1098 1396 1099 
1362 1396 1363 1065 
1065 1098 1395 1396 
1362 1396 1065 1395 
1363 1065 1396 1066 
1396 1065 1099 1066 
1066 1099 1397 1100 
1363 1397 1364 1066 
1066 1099 1396 1397 
1363 1397 1066 1396 
1364 1066 1397 1067 
1397 1066 1100 1067 
1067 1100 1398 1101 
1364 1398 1365 1067 
1067 1100 1397 1398 
1364 1398 1067 1397 
1365 1067 1398 1068 
1398 1067 1101 1068 
1068 1101 1399 1102 
1365 1399 1366 1068 
1068 1101 1398 1399 
1365 1399 1068 1398 
1366 1068 1399 1069 
1399 1068 1102 1069 
1069 1102 1400 1103 
1366 1400 1367 1069 
1069 1102 1399 1400 
1366 1400 1069 1399 
1367 1069 1400 1070 
1400 1069 1103 1070 
1070 1103 1401 1104 
1367 1401 1368 1070 
1070 1103 1400 1401 
1367 1401 1070 1400 
1368 1070 1401 1071 
1401 1070 1104 1071 
1071 1104 1402 1105 
1368 1402 1369 1071 
1071 1104 1401 1402 
1368 1402 1071 1401 
1369 1071 1402 1072 
1402 1071 1105 1072 
1072 1105 1403 1106 
1369 1403 1370 1072 
1072 1105 1402 1403 
1369 1403 1072 1402 
1370 1072 1403 1073 
1403 1072 1106 1073 
1073 1106 1404 1107 
1370 1404 1371 1073 
1073 1106 1403 1404 
1370 1404 1073 1403 
1371 1073 1404 1074 
1404 1073 1107 1074 
1074 1107 1405 1108 
1371 1405 1372 1074 
1074 1107 1404 1405 
1371 1405 1074 1404 
1372 1074 1405 1075 
1405 1074 1108 1075 
1075 1108 1406 1109 
1372 1406 1373 1075 
1075 1108 1405 1406 
1372 1406 1075 1405 
1373 1075 1406 1076 
1406 1075 1109 1076 
1076 1109 1407 1110 
1373 1407 1374 1076 
1076 1109 1406 1407 
1373 1407 1076 1406 
1374 1076 1407 1077 
1407 1076 1110 1077 
1077 1110 1408 1111 
1374 1408 1375 1077 
1077 1110 1407 1408 
1374 1408 1077 1407 
1375 1077 1408 1078 
1408 1077 1111 1078 
1078 1111 1409 1112 
1375 1409 1376 1078 
1078 1111 1408 1409 
1375 1409 1078 1408 
1376 1078 1409 1079 
1409 1078 1112 1079 
1079 1112 1410 1113 
1376 1410 1377 1079 
1079 1112 1409 1410 
1376 1410 1079 1409 
1377 1079 1410 1080 
1410 1079 1113 1080 
1080 1113 1411 1114 
1377 1411 1378 1080 
1080 1113 1410 1411 
1377 1411 1080 1410 
1378 1080 1411 1081 
1411 1080 1114 1081 
1081 1114 1412 1115 
1378 1412 1379 1081 
1081 1114 1411 1412 
1378 1412 1081 1411 
1379 1081 1412 1082 
1412 1081 1115 1082 
1082 1115 1413 1116 
1379 1413 1380 1082 
1082 1115 1412 1413 
1379 1413 1082 1412 
1380 1082 1413 1083 
1413 1082 1116 1083 
1083 1116 1414 1117 
1380 1414 1381 1083 
1083 1116 1413 1414 
1380 1414 1083 1413 
1381 1083 1414 1084 
1414 1083 1117 1084 
1084 1117 1415 1118 
1381 1415 1382 1084 
1084 1117 1414 1415 
1381 1415 1084 1414 
1382 1084 1415 1085 
1415 1084 1118 1085 
1085 1118 1416 1119 
1382 1416 1383 1085 
1085 1118 1415 1416 
1382 1416 1085 1415 
1383 1085 1416 1086 
1416 1085 1119 1086 
1086 1119 1417 1120 
1383 1417 1384 1086 
1086 1119 1416 1417 
1383 1417 1086 1416 
1384 1086 1417 1087 
1417 1086 1120 1087 
1087 1120 1418 1121 
1384 1418 1385 1087 
1087 1120 1417 1418 
1384 1418 1087 1417 
1385 1087 1418 1088 
1418 1087 1121 1088 
1089 1122 1420 1123 
1386 1420 1387 1089 
1089 1122 1419 1420 
1386 1420 1089 1419 
1387 1089 1420 1090 
1420 1089 1123 1090 
1090 1123 1421 1124 
1387 1421 1388 1090 
1090 1123 1420 1421 
1387 1421 1090 1420 
1388 1090 1421 1091 
1421 1090 1124 1091 
1091 1124 1422 1125 
1388 1422 1389 1091 
1091 1124 1421 1422 
1388 1422 1091 1421 
1389 1091 1422 1092 
1422 1091 1125 1092 
1092 1125 1423 1126 
1389 1423 1390 1092 
1092 1125 1422 1423 
1389 1423 1092 1422 
1390 1092 1423 1093 
1423 1092 1126 1093 
1093 1126 1424 1127 
1390 1424 1391 1093 
1093 1126 1423 1424 
1390 1424 1093 1423 
1391 1093 1424 1094 
1424 1093 1127 1094 
1094 1127 1425 1128 
1391 1425 1392 1094 
1094 1127 1424 1425 
1391 1425 1094 1424 
1392 1094 1425 1095 
1425 1094 1128 1095 
1095 1128 1426 1129 
1392 1426 1393 1095 
1095 1128 1425 1426 
1392 1426 1095 1425 
1393 1095 1426 1096 
1426 1095 1129 1096 
1096 1129 1427 1130 
1393 1427 1394 1096 
1096 1129 1426 1427 
1393 1427 1096 1426 
1394 1096 1427 1097 
1427 1096 1130 1097 
1097 1130 1428 1131 
1394 1428 1395 1097 
1097 1130 1427 1428 
1394 1428 1097 1427 
1395 1097 1428 1098 
1428 1097 1131 1098 
1098 1131 1429 1132 
1395 1429 1396 1098 
1098 1131 1428 1429 
1395 1429 1098 1428 
1396 1098 1429 1099 
1429 1098 1132 1099 
1099 1132 1430 1133 
1396 1430 1397 1099 
1099 1132 1429 1430 
1396 1430 1099 1429 
1397 1099 1430 1100 
1430 1099 1133 1100 
1100 1133 1431 1134 
1397 1431 1398 1100 
1100 1133 1430 1431 
1397 1431 1100 1430 
1398 1100 1431 1101 
1431 1100 1134 1101 
1101 1134 1432 1135 
1398 1432 1399 1101 
1101 1134 1431 1432 
1398 1432 1101 1431 
1399 1101 1432 1102 
1432 1101 1135 1102 
1102 1135 1433 1136 
1399 1433 1400 1102 
1102 1135 1432 1433 
1399 1433 1102 1432 
1400 1102 1433 1103 
1433 1102 1136 1103 
1103 1136 1434 1137 
1400 1434 1401 1103 
1103 1136 1433 1434 
1400 1434 1103 1433 
1401 1103 1434 1104 
1434 1103 1137 1104 
1104 1137 1435 1138 
1401 1435 1402 1104 
1104 1137 1434 1435 
1401 1435 1104 1434 
1402 1104 1435 1105 
1435 1104 1138 1105 
1105 1138 1436 1139 
1402 1436 1403 1105 
1105 1138 1435 1436 
1402 1436 1105 1435 
1403 1105 1436 1106 
1436 1105 1139 1106 
1106 1139 1437 1140 
1403 1437 1404 1106 
1106 1139 1436 1437 
1403 1437 1106 1436 
1404 1106 1437 1107 
1437 1106 1140 1107 
1107 1140 1438 1141 
1404 1438 1405 1107 
1107 1140 1437 1438 
1404 1438 1107 1437 
1405 1107 1438 1108 
1438 1107 1141 1108 
1108 1141 1439 1142 
1405 1439 1406 1108 
1108 1141 1438 1439 
1405 1439 1108 1438 
1406 1108 1439 1109 
1439 1108 1142 1109 
1109 1142 1440 1143 
1406 1440 1407 1109 
1109 1142 1439 1440 
1406 1440 1109 1439 
1407 1109 1440 1110 
1440 1109 1143 1110 
1110 1143 1441 1144 
1407 1441 1408 1110 
1110 1143 1440 1441 
1407 1441 1110 1440 
1408 1110 1441 1111 
1441 1110 1144 1111 
1111 1144 1442 1145 
1408 1442 1409 1111 
1111 1144 1441 1442 
1408 1442 1111 1441 
1409 1111 1442 1112 
1442 1111 1145 1112 
1112 1145 1443 1146 
1409 1443 1410 1112 
1112 1145 1442 1443 
1409 1443 1112 1442 
1410 1112 1443 1113 
1443 1112 1146 1113 
1113 1146 1444 1147 
1410 1444 1411 1113 
1113 1146 1443 1444 
1410 1444 1113 1443 
1411 1113 1444 1114 
1444 1113 1147 1114 
1114 1147 1445 1148 
1411 1445 1412 1114 
1114 1147 1444 1445 
1411 1445 1114 1444 
1412 1114 1445 1115 
1445 1114 1148 1115 
1115 1148 1446 1149 
1412 1446 1413 1115 
1115 1148 1445 1446 
1412 1446 1115 1445 
1413 1115 1446 1116 
1446 1115 1149 1116 
1116 1149 1447 1150 
1413 1447 1414 1116 
1116 1149 1446 1447 
1413 1447 1116 1446 
1414 1116 1447 1117 
1447 1116 1150 1117 
1117 1150 1448 1151 
1414 1448 1415 1117 
1117 1150 1447 1448 
1414 1448 1117 1447 
1415 1117 1448 1118 
1448 1117 1151 1118 
1118 1151 1449 1152 
1415 1449 1416 1118 
1118 1151 1448 1449 
1415 1449 1118 1448 
1416 1118 1449 1119 
1449 1118 1152 1119 
1119 1152 1450 1153 
1416 1450 1417 1119 
1119 1152 1449 1450 
1416 1450 1119 1449 
1417 1119 1450 1120 
1450 1119 1153 1120 
1120 1153 1451 1154 
1417 1451 1418 1120 
1120 1153 1450 1451 
1417 1451 1120 1450 
1418 1120 1451 1121 
1451 1120 1154 1121 
1122 1155 1453 1156 
1419 1453 1420 1122 
1122 1155 1452 1453 
1419 1453 1122 1452 
1420 1122 1453 1123 
1453 1122 1156 1123 
1123 1156 1454 1157 
1420 1454 1421 1123 
1123 1156 1453 1454 
1420 1454 1123 1453 
1421 1123 1454 1124 
1454 1123 1157 1124 
1124 1157 1455 1158 
1421 1455 1422 1124 
1124 1157 1454 1455 
1421 1455 1124 1454 
1422 1124 1455 1125 
1455 1124 1158 1125 
1125 1158 1456 1159 
1422 1456 1423 1125 
1125 1158 1455 1456 
1422 1456 1125 1455 
1423 1125 1456 1126 
1456 1125 1159 1126 
1126 1159 1457 1160 
1423 1457 1424 1126 
1126 1159 1456 1457 
1423 1457 1126 1456 
1424 1126 1457 1127 
1457 1126 1160 1127 
1127 1160 1458 1161 
1424 1458 1425 1127 
1127 1160 1457 1458 
1424 1458 1127 1457 
1425 1127 1458 1128 
1458 1127 1161 1128 
1128 1161 1459 1162 
1425 1459 1426 1128 
1128 1161 1458 1459 
1425 1459 1128 1458 
1426 1128 1459 1129 
1459 1128 1162 1129 
1129 1162 1460 1163 
1426 1460 1427 1129 
1129 1162 1459 1460 
1426 1460 1129 1459 
1427 1129 1460 1130 
1460 1129 1163 1130 
1130 1163 1461 1164 
1427 1461 1428 1130 
1130 1163 1460 1461 
1427 1461 1130 1460 
1428 1130 1461 1131 
1461 1130 1164 1131 
1131 1164 1462 1165 
1428 1462 1429 1131 
1131 1164 1461 1462 
1428 1462 1131 1461 
1429 1131 1462 1132 
1462 1131 1165 1132 
1132 1165 1463 1166 
1429 1463 1430 1132 
1132 1165 1462 1463 
1429 1463 1132 1462 
1430 1132 1463 1133 
1463 1132 1166 1133 
1133 1166 1464 1167 
1430 1464 1431 1133 
1133 1166 1463 1464 
1430 1464 1133 1463 
1431 1133 1464 1134 
1464 1133 1167 1134 
1134 1167 1465 1168 
1431 1465 1432 1134 
1134 1167 1464 1465 
1431 1465 1134 1464 
1432 1134 1465 1135 
1465 1134 1168 1135 
1135 1168 1466 1169 
1432 1466 1433 1135 
1135 1168 1465 1466 
1432 1466 1135 1465 
1433 1135 1466 1136 
1466 1135 1169 1136 
1136 1169 1467 1170 
1433 1467 1434 1136 
1136 1169 1466 1467 
1433 1467 1136 1466 
1434 1136 1467 1137 
1467 1136 1170 1137 
1137 1170 1468 1171 
1434 1468 1435 1137 
1137 1170 1467 1468 
1434 1468 1137 1467 
1435 1137 1468 1138 
1468 1137 1171 1138 
1138 1171 1469 1172 
1435 1469 1436 1138 
1138 1171 1468 1469 
1435 1469 1138 1468 
1436 1138 1469 1139 
1469 1138 1172 1139 
1139 1172 1470 1173 
1436 1470 1437 1139 
1139 1172 1469 1470 
1436 1470 1139 1469 
1437 1139 1470 1140 
1470 1139 1173 1140 
1140 1173 1471 1174 
1437 1471 1438 1140 
1140 1173 1470 1471 
1437 1471 1140 1470 
1438 1140 1471 1141 
1471 1140 1174 1141 
1141 1174 1472 1175 
1438 1472 1439 1141 
1141 1174 1471 1472 
1438 1472 1141 1471 
1439 1141 1472 1142 
1472 1141 1175 1142 
1142 1175 1473 1176 
1439 1473 1440 1142 
1142 1175 1472 1473 
1439 1473 1142 1472 
1440 1142 1473 1143 
1473 1142 1176 1143 
1143 1176 1474 1177 
1440 1474 1441 1143 
1143 1176 1473 1474 
1440 1474 1143 1473 
1441 1143 1474 1144 
1474 1143 1177 1144 
1144 1177 1475 1178 
1441 1475 1442 1144 
1144 1177 1474 1475 
1441 1475 1144 1474 
1442 1144 1475 1145 
1475 1144 1178 1145 
1145 1178 1476 1179 
1442 1476 1443 1145 
1145 1178 1475 1476 
1442 1476 1145 1475 
1443 1145 1476 1146 
1476 1145 1179 1146 
1146 1179 1477 1180 
1443 1477 1444 1146 
1146 1179 1476 1477 
1443 1477 1146 1476 
1444 1146 1477 1147 
1477 1146 1180 1147 
1147 1180 1478 1181 
1444 1478 1445 1147 
1147 1180 1477 1478 
1444 1478 1147 1477 
1445 1147 1478 1148 
1478 1147 1181 1148 
1148 1181 1479 1182 
1445 1479 1446 1148 
1148 1181 1478 1479 
1445 1479 1148 1478 
1446 1148 1479 1149 
1479 1148 1182 1149 
1149 1182 1480 1183 
1446 1480 1447 1149 
1149 1182 1479 1480 
1446 1480 1149 1479 
1447 1149 1480 1150 
1480 1149 1183 1150 
1150 1183 1481 1184 
1447 1481 1448 1150 
1150 1183 1480 1481 
1447 1481 1150 1480 
1448 1150 1481 1151 
1481 1150 1184 1151 
1151 1184 1482 1185 
1448 1482 1449 1151 
1151 1184 1481 1482 
1448 1482 1151 1481 
1449 1151 1482 1152 
1482 1151 1185 1152 
1152 1185 1483 1186 
1449 1483 1450 1152 
1152 1185 1482 1483 
1449 1483 1152 1482 
1450 1152 1483 1153 
1483 1152 1186 1153 
1153 1186 1484 1187 
1450 1484 1451 1153 
1153 1186 1483 1484 
1450 1484 1153 1483 
1451 1153 1484 1154 
1484 1153 1187 1154 
1188 1221 1519 1222 
1485 1519 1486 1188 
1188 1221 1518 1519 
1485 1519 1188 1518 
1486 1188 1519 1189 
1519 1188 1222 1189 
1189 1222 1520 1223 
1486 1520 1487 1189 
1189 1222 1519 1520 
1486 1520 1189 1519 
1487 1189 1520 1190 
1520 1189 1223 1190 
1190 1223 1521 1224 
1487 1521 1488 1190 
1190 1223 1520 1521 
1487 1521 1190 1520 
1488 1190 1521 1191 
1521 1190 1224 1191 
1191 1224 1522 1225 
1488 1522 1489 1191 
1191 1224 1521 1522 
1488 1522 1191 1521 
1489 1191 1522 1192 
1522 1191 1225 1192 
1192 1225 1523 1226 
1489 1523 1490 1192 
1192 1225 1522 1523 
1489 1523 1192 1522 
1490 1192 1523 1193 
1523 1192 1226 1193 
1193 1226 1524 1227 
1490 1524 1491 1193 
1193 1226 1523 1524 
1490 1524 1193 1523 
1491 1193 1524 1194 
1524 1193 1227 1194 
1194 1227 1525 1228 
1491 1525 1492 1194 
1194 1227 1524 1525 
1491 1525 1194 1524 
1492 1194 1525 1195 
1525 1194 1228 1195 
1195 1228 1526 1229 
1492 1526 1493 1195 
1195 1228 1525 1526 
1492 1526 1195 1525 
1493 1195 1526 1196 
1526 1195 1229 1196 
1196 1229 1527 1230 
1493 1527 1494 1196 
1196 1229 1526 1527 
1493 1527 1196 1526 
1494 1196 1527 1197 
1527 1196 1230 1197 
1197 1230 1528 1231 
1494 1528 1495 1197 
1197 1230 1527 1528 
1494 1528 1197 1527 
1495 1197 1528 1198 
1528 1197 1231 1198 
1198 1231 1529 1232 
1495 1529 1496 1198 
1198 1231 1528 1529 
1495 1529 1198 1528 
1496 1198 1529 1199 
1529 1198 1232 1199 
1199 1232 1530 1233 
1496 1530 1497 1199 
1199 1232 1529 1530 
1496 1530 1199 1529 
1497 1199 1530 1200 
1530 1199 1233 1200 
1200 1233 1531 1234 
1497 1531 1498 1200 
1200 1233 1530 1531 
1497 1531 1200 1530 
1498 1200 1531 1201 
1531 1200 1234 1201 
1201 1234 1532 1235 
1498 1532 1499 1201 
1201 1234 1531 1532 
1498 1532 1201 1531 
1499 1201 1532 1202 
1532 1201 1235 1202 
1202 1235 1533 1236 
1499 1533 1500 1202 
1202 1235 1532 1533 
1499 1533 1202 1532 
1500 1202 1533 1203 
1533 1202 1236 1203 
1203 1236 1534 1237 
1500 1534 1501 1203 
1203 1236 1533 1534 
1500 1534 1203 1533 
1501 1203 1534 1204 
1534 1203 1237 1204 
1204 1237 1535 1238 
1501 1535 1502 1204 
1204 1237 1534 1535 
1501 1535 1204 1534 
1502 1204 1535 1205 
1535 1204 1238 1205 
1205 1238 1536 1239 
1502 1536 1503 1205 
1205 1238 1535 1536 
1502 1536 1205 1535 
1503 1205 1536 1206 
1536 1205 1239 1206 
1206 1239 1537 1240 
1503 1537 1504 1206 
1206 1239 1536 1537 
1503 1537 1206 1536 
1504 1206 1537 1207 
1537 1206 1240 1207 
1207 1240 1538 1241 
1504 1538 1505 1207 
1207 1240 1537 1538 
1504 1538 1207 1537 
1505 1207 1538 1208 
1538 1207 1241 1208 
1208 1241 1539 1242 
1505 1539 1506 1208 
1208 1241 1538 1539 
1505 1539 1208 1538 
1506 1208 1539 1209 
1539 1208 1242 1209 
1209 1242 1540 1243 
1506 1540 1507 1209 
1209 1242 1539 1540 
1506 1540 1209 1539 
1507 1209 1540 1210 
1540 1209 1243 1210 
1210 1243 1541 1244 
1507 1541 1508 1210 
1210 1243 1540 1541 
1507 1541 1210 1540 
1508 1210 1541 1211 
1541 1210 1244 1211 
1211 1244 1542 1245 
1508 1542 1509 1211 
1211 1244 1541 1542 
1508 1542 1211 1541 
1509 1211 1542 1212 
1542 1211 1245 1212 
1212 1245 1543 1246 
1509 1543 1510 1212 
1212 1245 1542 1543 
1509 1543 1212 1542 
1510 1212 1543 1213 
1543 1212 1246 1213 
1213 1246 1544 1247 
1510 1544 1511 1213 
1213 1246 1543 1544 
1510 1544 1213 1543 
1511 1213 1544 1214 
1544 1213 1247 1214 
1214 1247 1545 1248 
1511 1545 1512 1214 
1214 1247 1544 1545 
1511 1545 1214 1544 
1512 1214 1545 1215 
1545 1214 1248 1215 
1215 1248 1546 1249 
1512 1546 1513 1215 
1215 1248 1545 1546 
1512 1546 1215 1545 
1513 1215 1546 1216 
1546 1215 1249 1216 
1216 1249 1547 1250 
1513 1547 1514 1216 
1216 1249 1546 1547 
1513 1547 1216 1546 
1514 1216 1547 1217 
1547 1216 1250 1217 
1217 1250 1548 1251 
1514 1548 1515 1217 
1217 1250 1547 1548 
1514 1548 1217 1547 
1515 1217 1548 1218 
1548 1217 1251 1218 
1218 1251 1549 1252 
1515 1549 1516 1218 
1218 1251 1548 1549 
1515 1549 1218 1548 
1516 1218 1549 1219 
1549 1218 1252 1219 
1219 1252 1550 1253 
1516 1550 1517 1219 
1219 1252 1549 1550 
1516 1550 1219 1549 
1517 1219 1550 1220 
1550 1219 1253 1220 
1221 1254 1552 1255 
1518 1552 1519 1221 
1221 1254 1551 1552 
1518 1552 1221 1551 
1519 1221 1552 1222 
1552 1221 1255 1222 
1222 1255 1553 1256 
1519 1553 1520 1222 
1222 1255 1552 1553 
1519 1553 1222 1552 
1520 1222 1553 1223 
1553 1222 1256 1223 
1223 1256 1554 1257 
1520 1554 1521 1223 
1223 1256 1553 1554 
1520 1554 1223 1553 
1521 1223 1554 1224 
1554 1223 1257 1224 
1224 1257 1555 1258 
1521 1555 1522 1224 
1224 1257 1554 1555 
1521 1555 1224 1554 
1522 1224 1555 1225 
1555 1224 1258 1225 
1225 1258 1556 1259 
1522 1556 1523 1225 
1225 1258 1555 1556 
1522 1556 1225 1555 
1523 1225 1556 1226 
1556 1225 1259 1226 
1226 1259 1557 1260 
1523 1557 1524 1226 
1226 1259 1556 1557 
1523 1557 1226 1556 
1524 1226 1557 1227 
1557 1226 1260 1227 
1227 1260 1558 1261 
1524 1558 1525 1227 
1227 1260 1557 1558 
1524 1558 1227 1557 
1525 1227 1558 1228 
1558 1227 1261 1228 
1228 1261 1559 1262 
1525 1559 1526 1228 
1228 1261 1558 1559 
1525 1559 1228 1558 
1526 1228 1559 1229 
1559 1228 1262 1229 
1229 1262 1560 1263 
1526 1560 1527 1229 
1229 1262 1559 1560 
1526 1560 1229 1559 
1527 1229 1560 1230 
1560 1229 1263 1230 
1230 1263 1561 1264 
1527 1561 1528 1230 
1230 1263 1560 1561 
1527 1561 1230 1560 
1528 1230 1561 1231 
1561 1230 1264 1231 
1231 1264 1562 1265 
1528 1562 1529 1231 
1231 1264 1561 1562 
1528 1562 1231 1561 
1529 1231 1562 1232 
1562 1231 1265 1232 
1232 1265 1563 1266 
1529 1563 1530 1232 
1232 1265 1562 1563 
1529 1563 1232 1562 
1530 1232 1563 1233 
1563 1232 1266 1233 
1233 1266 1564 1267 
1530 1564 1531 1233 
1233 1266 1563 1564 
1530 1564 1233 1563 
1531 1233 1564 1234 
1564 1233 1267 1234 
1234 1267 1565 1268 
1531 1565 1532 1234 
1234 1267 1564 1565 
1531 1565 1234 1564 
1532 1234 1565 1235 
1565 1234 1268 1235 
1235 1268 1566 1269 
1532 1566 1533 1235 
1235 1268 1565 1566 
1532 1566 1235 1565 
1533 1235 1566 1236 
1566 1235 1269 1236 
1236 1269 1567 1270 
1533 1567 1534 1236 
1236 1269 1566 1567 
1533 1567 1236 1566 
1534 1236 1567 1237 
1567 1236 1270 1237 
1237 1270 1568 1271 
1534 1568 1535 1237 
1237 1270 1567 1568 
1534 1568 1237 1567 
1535 1237 1568 1238 
1568 1237 1271 1238 
1238 1271 1569 1272 
1535 1569 1536 1238 
1238 1271 1568 1569 
1535 1569 1238 1568 
1536 1238 1569 1239 
1569 1238 1272 1239 
1239 1272 1570 1273 
1536 1570 1537 1239 
1239 1272 1569 1570 
1536 1570 1239 1569 
1537 1239 1570 1240 
1570 1239 1273 1240 
1240 1273 1571 1274 
1537 1571 1538 1240 
1240 1273 1570 1571 
1537 1571 1240 1570 
1538 1240 1571 1241 
1571 1240 1274 1241 
1241 1274 1572 1275 
1538 1572 1539 1241 
1241 1274 1571 1572 
1538 1572 1241 1571 
1539 1241 1572 1242 
1572 1241 1275 1242 
1242 1275 1573 1276 
1539 1573 1540 1242 
1242 1275 1572 1573 
1539 1573 1242 1572 
1540 1242 1573 1243 
1573 1242 1276 1243 
1243 1276 1574 1277 
1540 1574 1541 1243 
1243 1276 1573 1574 
1540 1574 1243 1573 
1541 1243 1574 1244 
1574 1243 1277 1244 
1244 1277 1575 1278 
1541 1575 1542 1244 
1244 1277 1574 1575 
1541 1575 1244 1574 
1542 1244 1575 1245 
1575 1244 1278 1245 
1245 1278 1576 1279 
1542 1576 1543 1245 
1245 1278 1575 1576 
1542 1576 1245 1575 
1543 1245 1576 1246 
1576 1245 1279 1246 
1246 1279 1577 1280 
1543 1577 1544 1246 
1246 1279 1576 1577 
1543 1577 1246 1576 
1544 1246 1577 1247 
1577 1246 1280 1247 
1247 1280 1578 1281 
1544 1578 1545 1247 
1247 1280 1577 1578 
1544 1578 1247 1577 
1545 1247 1578 1248 
1578 1247 1281 1248 
1248 1281 1579 1282 
1545 1579 1546 1248 
1248 1281 1578 1579 
1545 1579 1248 1578 
1546 1248 1579 1249 
1579 1248 1282 1249 
1249 1282 1580 1283 
1546 1580 1547 1249 
1249 1282 1579 1580 
1546 1580 1249 1579 
1547 1249 1580 1250 
1580 1249 1283 1250 
1250 1283 1581 1284 
1547 1581 1548 1250 
1250 1283 1580 1581 
1547 1581 1250 1580 
1548 1250 1581 1251 
1581 1250 1284 1251 
1251 1284 1582 1285 
1548 1582 1549 1251 
1251 1284 1581 1582 
1548 1582 1251 1581 
1549 1251 1582 1252 
1582 1251 1285 1252 
1252 1285 1583 1286 
1549 1583 1550 1252 
1252 1285 1582 1583 
1549 1583 1252 1582 
1550 1252 1583 1253 
1583 1252 1286 1253 
1254 1287 1585 1288 
1551 1585 1552 1254 
1254 1287 1584 1585 
1551 1585 1254 1584 
1552 1254 1585 1255 
1585 1254 1288 1255 
1255 1288 1586 1289 
1552 1586 1553 1255 
1255 1288 1585 1586 
1552 1586 1255 1585 
1553 1255 1586 1256 
1586 1255 1289 1256 
1256 1289 1587 1290 
1553 1587 1554 1256 
1256 1289 1586 1587 
1553 1587 1256 1586 
1554 1256 1587 1257 
1587 1256 1290 1257 
1257 1290 1588 1291 
1554 1588 1555 1257 
1257 1290 1587 1588 
1554 1588 1257 1587 
1555 1257 1588 1258 
1588 1257 1291 1258 
1258 1291 1589 1292 
1555 1589 1556 1258 
1258 1291 1588 1589 
1555 1589 1258 1588 
1556 1258 1589 1259 
1589 1258 1292 1259 
1259 1292 1590 1293 
1556 1590 1557 1259 
1259 1292 1589 1590 
1556 1590 1259 1589 
1557 1259 1590 1260 
1590 1259 1293 1260 
1260 1293 1591 1294 
1557 1591 1558 1260 
1260 1293 1590 1591 
1557 1591 1260 1590 
1558 1260 1591 1261 
1591 1260 1294 1261 
1261 1294 1592 1295 
1558 1592 1559 1261 
1261 1294 1591 1592 
1558 1592 1261 1591 
1559 1261 1592 1262 
1592 1261 1295 1262 
1262 1295 1593 1296 
1559 1593 1560 1262 
1262 1295 1592 1593 
1559 1593 1262 1592 
1560 1262 1593 1263 
1593 1262 1296 1263 
1263 1296 1594 1297 
1560 1594 1561 1263 
1263 1296 1593 1594 
1560 1594 1263 1593 
1561 1263 1594 1264 
1594 1263 1297 1264 
1264 1297 1595 1298 
1561 1595 1562 1264 
1264 1297 1594 1595 
1561 1595 1264 1594 
1562 1264 1595 1265 
1595 1264 1298 1265 
1265 1298 1596 1299 
1562 1596 1563 1265 
1265 1298 1595 1596 
1562 1596 1265 1595 
1563 1265 1596 1266 
1596 1265 1299 1266 
1266 1299 1597 1300 
1563 1597 1564 1266 
1266 1299 1596 1597 
1563 1597 1266 1596 
1564 1266 1597 1267 
1597 1266 1300 1267 
1267 1300 1598 1301 
1564 1598 1565 1267 
1267 1300 1597 1598 
1564 1598 1267 1597 
1565 1267 1598 1268 
1598 1267 1301 1268 
1268 1301 1599 1302 
1565 1599 1566 1268 
1268 1301 1598 1599 
1565 1599 1268 1598 
1566 1268 1599 1269 
1599 1268 1302 1269 
1269 1302 1600 1303 
1566 1600 1567 1269 
1269 1302 1599 1600 
1566 1600 1269 1599 
1567 1269 1600 1270 
1600 1269 1303 1270 
1270 1303 1601 1304 
1567 1601 1568 1270 
1270 1303 1600 1601 
1567 1601 1270 1600 
1568 1270 1601 1271 
1601 1270 1304 1271 
1271 1304 1602 1305 
1568 1602 1569 1271 
1271 1304 1601 1602 
1568 1602 1271 1601 
1569 1271 1602 1272 
1602 1271 1305 1272 
1272 1305 1603 1306 
1569 1603 1570 1272 
1272 1305 1602 1603 
1569 1603 1272 1602 
1570 1272 1603 1273 
1603 1272 1306 1273 
1273 1306 1604 1307 
1570 1604 1571 1273 
1273 1306 1603 1604 
1570 1604 1273 1603 
1571 1273 1604 1274 
1604 1273 1307 1274 
1274 1307 1605 1308 
1571 1605 1572 1274 
1274 1307 1604 1605 
1571 1605 1274 1604 
1572 1274 1605 1275 
1605 1274 1308 1275 
1275 1308 1606 1309 
1572 1606 1573 1275 
1275 1308 1605 1606 
1572 1606 1275 1605 
1573 1275 1606 1276 
1606 1275 1309 1276 
1276 1309 1607 1310 
1573 1607 1574 1276 
1276 1309 1606 1607 
1573 1607 1276 1606 
1574 1276 1607 1277 
1607 1276 1310 1277 
1277 1310 1608 1311 
1574 1608 1575 1277 
1277 1310 1607 1608 
1574 1608 1277 1607 
1575 1277 1608 1278 
1608 1277 1311 1278 
1278 1311 1609 1312 
1575 1609 1576 1278 
1278 1311 1608 1609 
1575 1609 1278 1608 
1576 1278 1609 1279 
1609 1278 1312 1279 
1279 1312 1610 1313 
1576 1610 1577 1279 
1279 1312 1609 1610 
1576 1610 1279 1609 
1577 1279 1610 1280 
1610 1279 1313 1280 
1280 1313 1611 1314 
1577 1611 1578 1280 
1280 1313 1610 1611 
1577 1611 1280 1610 
1578 1280 1611 1281 
1611 1280 1314 1281 
1281 1314 1612 1315 
1578 1612 1579 1281 
1281 1314 1611 1612 
1578 1612 1281 1611 
1579 1281 1612 1282 
1612 1281 1315 1282 
1282 1315 1613 1316 
1579 1613 1580 1282 
1282 1315 1612 1613 
1579 1613 1282 1612 
1580 1282 1613 1283 
1613 1282 1316 1283 
1283 1316 1614 1317 
1580 1614 1581 1283 
1283 1316 1613 1614 
1580 1614 1283 1613 
1581 1283 1614 1284 
1614 1283 1317 1284 
1284 1317 1615 1318 
1581 1615 1582 1284 
1284 1317 1614 1615 
1581 1615 1284 1614 
1582 1284 1615 1285 
1615 1284 1318 1285 
1285 1318 1616 1319 
1582 1616 1583 1285 
1285 1318 1615 1616 
1582 1616 1285 1615 
1583 1285 1616 1286 
1616 1285 1319 1286 
1287 1320 1618 1321 
1584 1618 1585 1287 
1287 1320 1617 1618 
1584 1618 1287 1617 
1585 1287 1618 1288 
1618 1287 1321 1288 
1288 1321 1619 1322 
1585 1619 1586 1288 
1288 1321 1618 1619 
1585 1619 1288 1618 
1586 1288 1619 1289 
1619 1288 1322 1289 
1289 1322 1620 1323 
1586 1620 1587 1289 
1289 1322 1619 1620 
1586 1620 1289 1619 
1587 1289 1620 1290 
1620 1289 1323 1290 
1290 1323 1621 1324 
1587 1621 1588 1290 
1290 1323 1620 1621 
1587 1621 1290 1620 
1588 1290 1621 1291 
1621 1290 1324 1291 
1291 1324 1622 1325 
1588 1622 1589 1291 
1291 1324 1621 1622 
1588 1622 1291 1621 
1589 1291 1622 1292 
1622 1291 1325 1292 
1292 1325 1623 1326 
1589 1623 1590 1292 
1292 1325 1622 1623 
1589 1623 1292 1622 
1590 1292 1623 1293 
1623 1292 1326 1293 
1293 1326 1624 1327 
1590 1624 1591 1293 
1293 1326 1623 1624 
1590 1624 1293 1623 
1591 1293 1624 1294 
1624 1293 1327 1294 
1294 1327 1625 1328 
1591 1625 1592 1294 
1294 1327 1624 1625 
1591 1625 1294 1624 
1592 1294 1625 1295 
1625 1294 1328 1295 
1295 1328 1626 1329 
1592 1626 1593 1295 
1295 1328 1625 1626 
1592 1626 1295 1625 
1593 1295 1626 1296 
1626 1295 1329 1296 
1296 1329 1627 1330 
1593 1627 1594 1296 
1296 1329 1626 1627 
1593 1627 1296 1626 
1594 1296 1627 1297 
1627 1296 1330 1297 
1297 1330 1628 1331 
1594 1628 1595 1297 
1297 1330 1627 1628 
1594 1628 1297 1627 
1595 1297 1628 1298 
1628 1297 1331 1298 
1298 1331 1629 1332 
1595 1629 1596 1298 
1298 1331 1628 1629 
1595 1629 1298 1628 
1596 1298 1629 1299 
1629 1298 1332 1299 
1299 1332 1630 1333 
1596 1630 1597 1299 
1299 1332 1629 1630 
1596 1630 1299 1629 
1597 1299 1630 1300 
1630 1299 1333 1300 
1300 1333 1631 1334 
1597 1631 1598 1300 
1300 1333 1630 1631 
1597 1631 1300 1630 
1598 1300 1631 1301 
1631 1300 1334 1301 
1301 1334 1632 1335 
1598 1632 1599 1301 
1301 1334 1631 1632 
1598 1632 1301 1631 
1599 1301 1632 1302 
1632 1301 1335 1302 
1302 1335 1633 1336 
1599 1633 1600 1302 
1302 1335 1632 1633 
1599 1633 1302 1632 
1600 1302 1633 1303 
1633 1302 1336 1303 
1303 1336 1634 1337 
1600 1634 1601 1303 
1303 1336 1633 1634 
1600 1634 1303 1633 
1601 1303 1634 1304 
1634 1303 1337 1304 
1304 1337 1635 1338 
1601 1635 1602 1304 
1304 1337 1634 1635 
1601 1635 1304 1634 
1602 1304 1635 1305 
1635 1304 1338 1305 
1305 1338 1636 1339 
1602 1636 1603 1305 
1305 1338 1635 1636 
1602 1636 1305 1635 
1603 1305 1636 1306 
1636 1305 1339 1306 
1306 1339 1637 1340 
1603 1637 1604 1306 
1306 1339 1636 1637 
1603 1637 1306 1636 
1604 1306 1637 1307 
1637 1306 1340 1307 
1307 1340 1638 1341 
1604 1638 1605 1307 
1307 1340 1637 1638 
1604 1638 1307 1637 
1605 1307 1638 1308 
1638 1307 1341 1308 
1308 1341 1639 1342 
1605 1639 1606 1308 
1308 1341 1638 1639 
1605 1639 1308 1638 
1606 1308 1639 1309 
1639 1308 1342 1309 
1309 1342 1640 1343 
1606 1640 1607 1309 
1309 1342 1639 1640 
1606 1640 1309 1639 
1607 1309 1640 1310 
1640 1309 1343 1310 
1310 1343 1641 1344 
1607 1641 1608 1310 
1310 1343 1640 1641 
1607 1641 1310 1640 
1608 1310 1641 1311 
1641 1310 1344 1311 
1311 1344 1642 1345 
1608 1642 1609 1311 
1311 1344 1641 1642 
1608 1642 1311 1641 
1609 1311 1642 1312 
1642 1311 1345 1312 
1312 1345 1643 1346 
1609 1643 1610 1312 
1312 1345 1642 1643 
1609 1643 1312 1642 
1610 1312 1643 1313 
1643 1312 1346 1313 
1313 1346 1644 1347 
1610 1644 1611 1313 
1313 1346 1643 1644 
1610 1644 1313 1643 
1611 1313 1644 1314 
1644 1313 1347 1314 
1314 1347 1645 1348 
1611 1645 1612 1314 
1314 1347 1644 1645 
1611 1645 1314 1644 
1612 1314 1645 1315 
1645 1314 1348 1315 
1315 1348 1646 1349 
1612 1646 1613 1315 
1315 1348 1645 1646 
1612 1646 1315 1645 
1613 1315 1646 1316 
1646 1315 1349 1316 
1316 1349 1647 1350 
1613 1647 1614 1316 
1316 1349 1646 1647 
1613 1647 1316 1646 
1614 1316 1647 1317 
1647 1316 1350 1317 
1317 1350 1648 1351 
1614 1648 1615 1317 
1317 1350 1647 1648 
1614 1648 1317 1647 
1615 1317 1648 1318 
1648 1317 1351 1318 
1318 1351 1649 1352 
1615 1649 1616 1318 
1318 1351 1648 1649 
1615 1649 1318 1648 
1616 1318 1649 1319 
1649 1318 1352 1319 
1320 1353 1651 1354 
1617 1651 1618 1320 
1320 1353 1650 1651 
1617 1651 1320 1650 
1618 1320 1651 1321 
1651 1320 1354 1321 
1321 1354 1652 1355 
1618 1652 1619 1321 
1321 1354 1651 1652 
1618 1652 1321 1651 
1619 1321 1652 1322 
1652 1321 1355 1322 
1322 1355 1653 1356 
1619 1653 1620 1322 
1322 1355 1652 1653 
1619 1653 1322 1652 
1620 1322 1653 1323 
1653 1322 1356 1323 
1323 1356 1654 1357 
1620 1654 1621 1323 
1323 1356 1653 1654 
1620 1654 1323 1653 
1621 1323 1654 1324 
1654 1323 1357 1324 
1324 1357 1655 1358 
1621 1655 1622 1324 
1324 1357 1654 1655 
1621 1655 1324 1654 
1622 1324 1655 1325 
1655 1324 1358 1325 
1325 1358 1656 1359 
1622 1656 1623 1325 
1325 1358 1655 1656 
1622 1656 1325 1655 
1623 1325 1656 1326 
1656 1325 1359 1326 
1326 1359 1657 1360 
1623 1657 1624 1326 
1326 1359 1656 1657 
1623 1657 1326 1656 
1624 1326 1657 1327 
1657 1326 1360 1327 
1327 1360 1658 1361 
1624 1658 1625 1327 
1327 1360 1657 1658 
1624 1658 1327 1657 
1625 1327 1658 1328 
1658 1327 1361 1328 
1328 1361 1659 1362 
1625 1659 1626 1328 
1328 1361 1658 1659 
1625 1659 1328 1658 
1626 1328 1659 1329 
1659 1328 1362 1329 
1329 1362 1660 1363 
1626 1660 1627 1329 
1329 1362 1659 1660 
1626 1660 1329 1659 
1627 1329 1660 1330 
1660 1329 1363 1330 
1330 1363 1661 1364 
1627 1661 1628 1330 
1330 1363 1660 1661 
1627 1661 1330 1660 
1628 1330 1661 1331 
1661 1330 1364 1331 
1331 1364 1662 1365 
1628 1662 1629 1331 
1331 1364 1661 1662 
1628 1662 1331 1661 
1629 1331 1662 1332 
1662 1331 1365 1332 
1332 1365 1663 1366 
1629 1663 1630 1332 
1332 1365 1662 1663 
1629 1663 1332 1662 
1630 1332 1663 1333 
1663 1332 1366 1333 
1333 1366 1664 1367 
1630 1664 1631 1333 
1333 1366 1663 1664 
1630 1664 1333 1663 
1631 1333 1664 1334 
1664 1333 1367 1334 
1334 1367 1665 1368 
1631 1665 1632 1334 
1334 1367 1664 1665 
1631 1665 1334 1664 
1632 1334 1665 1335 
1665 1334 1368 1335 
1335 1368 1666 1369 
1632 1666 1633 1335 
1335 1368 1665 1666 
1632 1666 1335 1665 
1633 1335 1666 1336 
1666 1335 1369 1336 
1336 1369 1667 1370 
1633 1667 1634 1336 
1336 1369 1666 1667 
1633 1667 1336 1666 
1634 1336 1667 1337 
1667 1336 1370 1337 
1337 1370 1668 1371 
1634 1668 1635 1337 
1337 1370 1667 1668 
1634 1668 1337 1667 
1635 1337 1668 1338 
1668 1337 1371 1338 
1338 1371 1669 1372 
1635 1669 1636 1338 
1338 1371 1668 1669 
1635 1669 1338 1668 
1636 1338 1669 1339 
1669 1338 1372 1339 
1339 1372 1670 1373 
1636 1670 1637 1339 
1339 1372 1669 1670 
1636 1670 1339 1669 
1637 1339 1670 1340 
1670 1339 1373 1340 
1340 1373 1671 1374 
1637 1671 1638 1340 
1340 1373 1670 1671 
1637 1671 1340 1670 
1638 1340 1671 1341 
1671 1340 1374 1341 
1341 1374 1672 1375 
1638 1672 1639 1341 
1341 1374 1671 1672 
1638 1672 1341 1671 
1639 1341 1672 1342 
1672 1341 1375 1342 
1342 1375 1673 1376 
1639 1673 1640 1342 
1342 1375 1672 1673 
1639 1673 1342 1672 
1640 1342 1673 1343 
1673 1342 1376 1343 
1343 1376 1674 1377 
1640 1674 1641 1343 
1343 1376 1673 1674 
1640 1674 1343 1673 
1641 1343 1674 1344 
1674 1343 1377 1344 
1344 1377 1675 1378 
1641 1675 1642 1344 
1344 1377 1674 1675 
1641 1675 1344 1674 
1642 1344 1675 1345 
1675 1344 1378 1345 
1345 1378 1676 1379 
1642 1676 1643 1345 
1345 1378 1675 1676 
1642 1676 1345 1675 
1643 1345 1676 1346 
1676 1345 1379 1346 
1346 1379 1677 1380 
1643 1677 1644 1346 
1346 1379 1676 1677 
1643 1677 1346 1676 
1644 1346 1677 1347 
1677 1346 1380 1347 
1347 1380 1678 1381 
1644 1678 1645 1347 
1347 1380 1677 1678 
1644 1678 1347 1677 
1645 1347 1678 1348 
1678 1347 1381 1348 
1348 1381 1679 1382 
1645 1679 1646 1348 
1348 1381 1678 1679 
1645 1679 1348 1678 
1646 1348 1679 1349 
1679 1348 1382 1349 
1349 1382 1680 1383 
1646 1680 1647 1349 
1349 1382 1679 1680 
1646 1680 1349 1679 
1647 1349 1680 1350 
1680 1349 1383 1350 
1350 1383 1681 1384 
1647 1681 1648 1350 
1350 1383 1680 1681 
1647 1681 1350 1680 
1648 1350 1681 1351 
1681 1350 1384 1351 
1351 1384 1682 1385 
1648 1682 1649 1351 
1351 1384 1681 1682 
1648 1682 1351 1681 
1649 1351 1682 1352 
1682 1351 1385 1352 
1353 1386 1684 1387 
1650 1684 1651 1353 
1353 1386 1683 1684 
1650 1684 1353 1683 
1651 1353 1684 1354 
1684 1353 1387 1354 
1354 1387 1685 1388 
1651 1685 1652 1354 
1354 1387 1684 1685 
1651 1685 1354 1684 
1652 1354 1685 1355 
1685 1354 1388 1355 
1355 1388 1686 1389 
1652 1686 1653 1355 
1355 1388 1685 1686 
1652 1686 1355 1685 
1653 1355 1686 1356 
1686 1355 1389 1356 
1356 1389 1687 1390 
1653 1687 1654 1356 
1356 1389 1686 1687 
1653 1687 1356 1686 
1654 1356 1687 1357 
1687 1356 1390 1357 
1357 1390 1688 1391 
1654 1688 1655 1357 
1357 1390 1687 1688 
1654 1688 1357 1687 
1655 1357 1688 1358 
1688 1357 1391 1358 
1358 1391 1689 1392 
1655 1689 1656 1358 
1358 1391 1688 1689 
1655 1689 1358 1688 
1656 1358 1689 1359 
1689 1358 1392 1359 
1359 1392 1690 1393 
1656 1690 1657 1359 
1359 1392 1689 1690 
1656 1690 1359 1689 
1657 1359 1690 1360 
1690 1359 1393 1360 
1360 1393 1691 1394 
1657 1691 1658 1360 
1360 1393 1690 1691 
1657 1691 1360 1690 
1658 1360 1691 1361 
1691 1360 1394 1361 
1361 1394 1692 1395 
1658 1692 1659 1361 
1361 1394 1691 1692 
1658 1692 1361 1691 
1659 1361 1692 1362 
1692 1361 1395 1362 
1362 1395 1693 1396 
1659 1693 1660 1362 
1362 1395 1692 1693 
1659 1693 1362 1692 
1660 1362 1693 1363 
1693 1362 1396 1363 
1363 1396 1694 1397 
1660 1694 1661 1363 
1363 1396 1693 1694 
1660 1694 1363 1693 
1661 1363 1694 1364 
1694 1363 1397 1364 
1364 1397 1695 1398 
1661 1695 1662 1364 
1364 1397 1694 1695 
1661 1695 1364 1694 
1662 1364 1695 1365 
1695 1364 1398 1365 
1365 1398 1696 1399 
1662 1696 1663 1365 
1365 1398 1695 1696 
1662 1696 1365 1695 
1663 1365 1696 1366 
1696 1365 1399 1366 
1366 1399 1697 1400 
1663 1697 1664 1366 
1366 1399 1696 1697 
1663 1697 1366 1696 
1664 1366 1697 1367 
1697 1366 1400 1367 
1367 1400 1698 1401 
1664 1698 1665 1367 
1367 1400 1697 1698 
1664 1698 1367 1697 
1665 1367 1698 1368 
1698 1367 1401 1368 
1368 1401 1699 1402 
1665 1699 1666 1368 
1368 1401 1698 1699 
1665 1699 1368 1698 
1666 1368 1699 1369 
1699 1368 1402 1369 
1369 1402 1700 1403 
1666 1700 1667 1369 
1369 1402 1699 1700 
1666 1700 1369 1699 
1667 1369 1700 1370 
1700 1369 1403 1370 
1370 1403 1701 1404 
1667 1701 1668 1370 
1370 1403 1700 1701 
1667 1701 1370 1700 
1668 1370 1701 1371 
1701 1370 1404 1371 
1371 1404 1702 1405 
1668 1702 1669 1371 
1371 1404 1701 1702 
1668 1702 1371 1701 
1669 1371 1702 1372 
1702 1371 1405 1372 
1372 1405 1703 1406 
1669 1703 1670 1372 
1372 1405 1702 1703 
1669 1703 1372 1702 
1670 1372 1703 1373 
1703 1372 1406 1373 
1373 1406 1704 1407 
1670 1704 1671 1373 
1373 1406 1703 1704 
1670 1704 1373 1703 
1671 1373 1704 1374 
1704 1373 1407 1374 
1374 1407 1705 1408 
1671 1705 1672 1374 
1374 1407 1704 1705 
1671 1705 1374 1704 
1672 1374 1705 1375 
1705 1374 1408 1375 
1375 1408 1706 1409 
1672 1706 1673 1375 
1375 1408 1705 1706 
1672 1706 1375 1705 
1673 1375 1706 1376 
1706 1375 1409 1376 
1376 1409 1707 1410 
1673 1707 1674 1376 
1376 1409 1706 1707 
1673 1707 1376 1706 
1674 1376 1707 1377 
1707 1376 1410 1377 
1377 1410 1708 1411 
1674 1708 1675 1377 
1377 1410 1707 1708 
1674 1708 1377 1707 
1675 1377 1708 1378 
1708 1377 1411 1378 
1378 1411 1709 1412 
1675 1709 1676 1378 
1378 1411 1708 1709 
1675 1709 1378 1708 
1676 1378 1709 1379 
1709 1378 1412 1379 
1379 1412 1710 1413 
1676 1710 1677 1379 
1379 1412 1709 1710 
1676 1710 1379 1709 
1677 1379 1710 1380 
1710 1379 1413 1380 
1380 1413 1711 1414 
1677 1711 1678 1380 
1380 1413 1710 1711 
1677 1711 1380 1710 
1678 1380 1711 1381 
1711 1380 1414 1381 
1381 1414 1712 1415 
1678 1712 1679 1381 
1381 1414 1711 1712 
1678 1712 1381 1711 
1679 1381 1712 1382 
1712 1381 1415 1382 
1382 1415 1713 1416 
1679 1713 1680 1382 
1382 1415 1712 1713 
1679 1713 1382 1712 
1680 1382 1713 1383 
1713 1382 1416 1383 
1383 1416 1714 1417 
1680 1714 1681 1383 
1383 1416 1713 1714 
1680 1714 1383 1713 
1681 1383 1714 1384 
1714 1383 1417 1384 
1384 1417 1715 1418 
1681 1715 1682 1384 
1384 1417 1714 1715 
1681 1715 1384 1714 
1682 1384 1715 1385 
1715 1384 1418 1385 
1386 1419 1717 1420 
1683 1717 1684 1386 
1386 1419 1716 1717 
1683 1717 1386 1716 
1684 1386 1717 1387 
1717 1386 1420 1387 
1387 1420 1718 1421 
1684 1718 1685 1387 
1387 1420 1717 1718 
1684 1718 1387 1717 
1685 1387 1718 1388 
1718 1387 1421 1388 
1388 1421 1719 1422 
1685 1719 1686 1388 
1388 1421 1718 1719 
1685 1719 1388 1718 
1686 1388 1719 1389 
1719 1388 1422 1389 
1389 1422 1720 1423 
1686 1720 1687 1389 
1389 1422 1719 1720 
1686 1720 1389 1719 
1687 1389 1720 1390 
1720 1389 1423 1390 
1390 1423 1721 1424 
1687 1721 1688 1390 
1390 1423 1720 1721 
1687 1721 1390 1720 
1688 1390 1721 1391 
1721 1390 1424 1391 
1391 1424 1722 1425 
1688 1722 1689 1391 
1391 1424 1721 1722 
1688 1722 1391 1721 
1689 1391 1722 1392 
1722 1391 1425 1392 
1392 1425 1723 1426 
1689 1723 1690 1392 
1392 1425 1722 1723 
1689 1723 1392 1722 
1690 1392 1723 1393 
1723 1392 1426 1393 
1393 1426 1724 1427 
1690 1724 1691 1393 
1393 1426 1723 1724 
1690 1724 1393 1723 
1691 1393 1724 1394 
1724 1393 1427 1394 
1394 1427 1725 1428 
1691 1725 1692 1394 
1394 1427 1724 1725 
1691 1725 1394 1724 
1692 1394 1725 1395 
1725 1394 1428 1395 
1395 1428 1726 1429 
1692 1726 1693 1395 
1395 1428 1725 1726 
1692 1726 1395 1725 
1693 1395 1726 1396 
1726 1395 1429 1396 
1396 1429 1727 1430 
1693 1727 1694 1396 
1396 1429 1726 1727 
1693 1727 1396 1726 
1694 1396 1727 1397 
1727 1396 1430 1397 
1397 1430 1728 1431 
1694 1728 1695 1397 
1397 1430 1727 1728 
1694 1728 1397 1727 
1695 1397 1728 1398 
1728 1397 1431 1398 
1398 1431 1729 1432 
1695 1729 1696 1398 
1398 1431 1728 1729 
1695 1729 1398 1728 
1696 1398 1729 1399 
1729 1398 1432 1399 
1399 1432 1730 1433 
1696 1730 1697 1399 
1399 1432 1729 1730 
1696 1730 1399 1729 
1697 1399 1730 1400 
1730 1399 1433 1400 
1400 1433 1731 1434 
1697 1731 1698 1400 
1400 1433 1730 1731 
1697 1731 1400 1730 
1698 1400 1731 1401 
1731 1400 1434 1401 
1401 1434 1732 1435 
1698 1732 1699 1401 
1401 1434 1731 1732 
1698 1732 1401 1731 
1699 1401 1732 1402 
1732 1401 1435 1402 
1402 1435 1733 1436 
1699 1733 1700 1402 
1402 1435 1732 1733 
1699 1733 1402 1732 
1700 1402 1733 1403 
1733 1402 1436 1403 
1403 1436 1734 1437 
1700 1734 1701 1403 
1403 1436 1733 1734 
1700 1734 1403 1733 
1701 1403 1734 1404 
1734 1403 1437 1404 
1404 1437 1735 1438 
1701 1735 1702 1404 
1404 1437 1734 1735 
1701 1735 1404 1734 
1702 1404 1735 1405 
1735 1404 1438 1405 
1405 1438 1736 1439 
1702 1736 1703 1405 
1405 1438 1735 1736 
1702 1736 1405 1735 
1703 1405 1736 1406 
1736 1405 1439 1406 
1406 1439 1737 1440 
1703 1737 1704 1406 
1406 1439 1736 1737 
1703 1737 1406 1736 
1704 1406 1737 1407 
1737 1406 1440 1407 
1407 1440 1738 1441 
1704 1738 1705 1407 
1407 1440 1737 1738 
1704 1738 1407 1737 
1705 1407 1738 1408 
1738 1407 1441 1408 
1408 1441 1739 1442 
1705 1739 1706 1408 
1408 1441 1738 1739 
1705 1739 1408 1738 
1706 1408 1739 1409 
1739 1408 1442 1409 
1409 1442 1740 1443 
1706 1740 1707 1409 
1409 1442 1739 1740 
1706 1740 1409 1739 
1707 1409 1740 1410 
1740 1409 1443 1410 
1410 1443 1741 1444 
1707 1741 1708 1410 
1410 1443 1740 1741 
1707 1741 1410 1740 
1708 1410 1741 1411 
1741 1410 1444 1411 
1411 1444 1742 1445 
1708 1742 1709 1411 
1411 1444 1741 1742 
1708 1742 1411 1741 
1709 1411 1742 1412 
1742 1411 1445 1412 
1412 1445 1743 1446 
1709 1743 1710 1412 
1412 1445 1742 1743 
1709 1743 1412 1742 
1710 1412 1743 1413 
1743 1412 1446 1413 
1413 1446 1744 1447 
1710 1744 1711 1413 
1413 1446 1743 1744 
1710 1744 1413 1743 
1711 1413 1744 1414 
1744 1413 1447 1414 
1414 1447 1745 1448 
1711 1745 1712 1414 
1414 1447 1744 1745 
1711 1745 1414 1744 
1712 1414 1745 1415 
1745 1414 1448 1415 
1415 1448 1746 1449 
1712 1746 1713 1415 
1415 1448 1745 1746 
1712 1746 1415 1745 
1713 1415 1746 1416 
1746 1415 1449 1416 
1416 1449 1747 1450 
1713 1747 1714 1416 
1416 1449 1746 1747 
1713 1747 1416 1746 
1714 1416 1747 1417 
1747 1416 1450 1417 
1417 1450 1748 1451 
1714 1748 1715 1417 
1417 1450 1747 1748 
1714 1748 1417 1747 
1715 1417 1748 1418 
1748 1417 1451 1418 
1419 1452 1750 1453 
1716 1750 1717 1419 
1419 1452 1749 1750 
1716 1750 1419 1749 
1717 1419 1750 1420 
1750 1419 1453 1420 
1420 1453 1751 1454 
1717 1751 1718 1420 
1420 1453 1750 1751 
1717 1751 1420 1750 
1718 1420 1751 1421 
1751 1420 1454 1421 
1421 1454 1752 1455 
1718 1752 1719 1421 
1421 1454 1751 1752 
1718 1752 1421 1751 
1719 1421 1752 1422 
1752 1421 1455 1422 
1422 1455 1753 1456 
1719 1753 1720 1422 
1422 1455 1752 1753 
1719 1753 1422 1752 
1720 1422 1753 1423 
1753 1422 1456 1423 
1423 1456 1754 1457 
1720 1754 1721 1423 
1423 1456 1753 1754 
1720 1754 1423 1753 
1721 1423 1754 1424 
1754 1423 1457 1424 
1424 1457 1755 1458 
1721 1755 1722 1424 
1424 1457 1754 1755 
1721 1755 1424 1754 
1722 1424 1755 1425 
1755 1424 1458 1425 
1425 1458 1756 1459 
1722 1756 1723 1425 
1425 1458 1755 1756 
1722 1756 1425 1755 
1723 1425 1756 1426 
1756 1425 1459 1426 
1426 1459 1757 1460 
1723 1757 1724 1426 
1426 1459 1756 1757 
1723 1757 1426 1756 
1724 1426 1757 1427 
1757 1426 1460 1427 
1427 1460 1758 1461 
1724 1758 1725 1427 
1427 1460 1757 1758 
1724 1758 1427 1757 
1725 1427 1758 1428 
1758 1427 1461 1428 
1428 1461 1759 1462 
1725 1759 1726 1428 
1428 1461 1758 1759 
1725 1759 1428 1758 
1726 1428 1759 1429 
1759 1428 1462 1429 
1429 1462 1760 1463 
1726 1760 1727 1429 
1429 1462 1759 1760 
1726 1760 1429 1759 
1727 1429 1760 1430 
1760 1429 1463 1430 
1430 1463 1761 1464 
1727 1761 1728 1430 
1430 1463 1760 1761 
1727 1761 1430 1760 
1728 1430 1761 1431 
1761 1430 1464 1431 
1431 1464 1762 1465 
1728 1762 1729 1431 
1431 1464 1761 1762 
1728 1762 1431 1761 
1729 1431 1762 1432 
1762 1431 1465 1432 
1432 1465 1763 1466 
1729 1763 1730 1432 
1432 1465 1762 1763 
1729 1763 1432 1762 
1730 1432 1763 1433 
1763 1432 1466 1433 
1433 1466 1764 1467 
1730 1764 1731 1433 
1433 1466 1763 1764 
1730 1764 1433 1763 
1731 1433 1764 1434 
1764 1433 1467 1434 
1434 1467 1765 1468 
1731 1765 1732 1434 
1434 1467 1764 1765 
1731 1765 1434 1764 
1732 1434 1765 1435 
1765 1434 1468 1435 
1435 1468 1766 1469 
1732 1766 1733 1435 
1435 1468 1765 1766 
1732 1766 1435 1765 
1733 1435 1766 1436 
1766 1435 1469 1436 
1436 1469 1767 1470 
1733 1767 1734 1436 
1436 1469 1766 1767 
1733 1767 1436 1766 
1734 1436 1767 1437 
1767 1436 1470 1437 
1437 1470 1768 1471 
1734 1768 1735 1437 
1437 1470 1767 1768 
1734 1768 1437 1767 
1735 1437 1768 1438 
1768 1437 1471 1438 
1438 1471 1769 1472 
1735 1769 1736 1438 
1438 1471 1768 1769 
1735 1769 1438 1768 
1736 1438 1769 1439 
1769 1438 1472 1439 
1439 1472 1770 1473 
1736 1770 1737 1439 
1439 1472 1769 1770 
1736 1770 1439 1769 
1737 1439 1770 1440 
1770 1439 1473 1440 
1440 1473 1771 1474 
1737 1771 1738 1440 
1440 1473 1770 1771 
1737 1771 1440 1770 
1738 1440 1771 1441 
1771 1440 1474 1441 
1441 1474 1772 1475 
1738 1772 1739 1441 
1441 1474 1771 1772 
1738 1772 1441 1771 
1739 1441 1772 1442 
1772 1441 1475 1442 
1442 1475 1773 1476 
1739 1773 1740 1442 
1442 1475 1772 1773 
1739 1773 1442 1772 
1740 1442 1773 1443 
1773 1442 1476 1443 
1443 1476 1774 1477 
1740 1774 1741 1443 
1443 1476 1773 1774 
1740 1774 1443 1773 
1741 1443 1774 1444 
1774 1443 1477 1444 
1444 1477 1775 1478 
1741 1775 1742 1444 
1444 1477 1774 1775 
1741 1775 1444 1774 
1742 1444 1775 1445 
1775 1444 1478 1445 
1445 1478 1776 1479 
1742 1776 1743 1445 
1445 1478 1775 1776 
1742 1776 1445 1775 
1743 1445 1776 1446 
1776 1445 1479 1446 
1446 1479 1777 1480 
1743 1777 1744 1446 
1446 1479 1776 1777 
1743 1777 1446 1776 
1744 1446 1777 1447 
1777 1446 1480 1447 
1447 1480 1778 1481 
1744 1778 1745 1447 
1447 1480 1777 1778 
1744 1778 1447 1777 
1745 1447 1778 1448 
1778 1447 1481 1448 
1448 1481 1779 1482 
1745 1779 1746 1448 
1448 1481 1778 1779 
1745 1779 1448 1778 
1746 1448 1779 1449 
1779 1448 1482 1449 
1449 1482 1780 1483 
1746 1780 1747 1449 
1449 1482 1779 1780 
1746 1780 1449 1779 
1747 1449 1780 1450 
1780 1449 1483 1450 
1450 1483 1781 1484 
1747 1781 1748 1450 
1450 1483 1780 1781 
1747 1781 1450 1780 
1748 1450 1781 1451 
1781 1450 1484 1451 
1485 1518 1816 1519 
1782 1816 1783 1485 
1485 1518 1815 1816 
1782 1816 1485 1815 
1783 1485 1816 1486 
1816 1485 1519 1486 
1486 1519 1817 1520 
1783 1817 1784 1486 
1486 1519 1816 1817 
1783 1817 1486 1816 
1784 1486 1817 1487 
1817 1486 1520 1487 
1487 1520 1818 1521 
1784 1818 1785 1487 
1487 1520 1817 1818 
1784 1818 1487 1817 
1785 1487 1818 1488 
1818 1487 1521 1488 
1488 1521 1819 1522 
1785 1819 1786 1488 
1488 1521 1818 1819 
1785 1819 1488 1818 
1786 1488 1819 1489 
1819 1488 1522 1489 
1489 1522 1820 1523 
1786 1820 1787 1489 
1489 1522 1819 1820 
1786 1820 1489 1819 
1787 1489 1820 1490 
1820 1489 1523 1490 
1490 1523 1821 1524 
1787 1821 1788 1490 
1490 1523 1820 1821 
1787 1821 1490 1820 
1788 1490 1821 1491 
1821 1490 1524 1491 
1491 1524 1822 1525 
1788 1822 1789 1491 
1491 1524 1821 1822 
1788 1822 1491 1821 
1789 1491 1822 1492 
1822 1491 1525 1492 
1492 1525 1823 1526 
1789 1823 1790 1492 
1492 1525 1822 1823 
1789 1823 1492 1822 
1790 1492 1823 1493 
1823 1492 1526 1493 
1493 1526 1824 1527 
1790 1824 1791 1493 
1493 1526 1823 1824 
1790 1824 1493 1823 
1791 1493 1824 1494 
1824 1493 1527 1494 
1494 1527 1825 1528 
1791 1825 1792 1494 
1494 1527 1824 1825 
1791 1825 1494 1824 
1792 1494 1825 1495 
1825 1494 1528 1495 
1495 1528 1826 1529 
1792 1826 1793 1495 
1495 1528 1825 1826 
1792 1826 1495 1825 
1793 1495 1826 1496 
1826 1495 1529 1496 
1496 1529 1827 1530 
1793 1827 1794 1496 
1496 1529 1826 1827 
1793 1827 1496 1826 
1794 1496 1827 1497 
1827 1496 1530 1497 
1497 1530 1828 1531 
1794 1828 1795 1497 
1497 1530 1827 1828 
1794 1828 1497 1827 
1795 1497 1828 1498 
1828 1497 1531 1498 
1498 1531 1829 1532 
1795 1829 1796 1498 
1498 1531 1828 1829 
1795 1829 1498 1828 
1796 1498 1829 1499 
1829 1498 1532 1499 
1499 1532 1830 1533 
1796 1830 1797 1499 
1499 1532 1829 1830 
1796 1830 1499 1829 
1797 1499 1830 1500 
1830 1499 1533 1500 
1500 1533 1831 1534 
1797 1831 1798 1500 
1500 1533 1830 1831 
1797 1831 1500 1830 
1798 1500 1831 1501 
1831 1500 1534 1501 
1501 1534 1832 1535 
1798 1832 1799 1501 
1501 1534 1831 1832 
1798 1832 1501 1831 
1799 1501 1832 1502 
1832 1501 1535 1502 
1502 1535 1833 1536 
1799 1833 1800 1502 
1502 1535 1832 1833 
1799 1833 1502 1832 
1800 1502 1833 1503 
1833 1502 1536 1503 
1503 1536 1834 1537 
1800 1834 1801 1503 
1503 1536 1833 1834 
1800 1834 1503 1833 
1801 1503 1834 1504 
1834 1503 1537 1504 
1504 1537 1835 1538 
1801 1835 1802 1504 
1504 1537 1834 1835 
1801 1835 1504 1834 
1802 1504 1835 1505 
1835 1504 1538 1505 
1505 1538 1836 1539 
1802 1836 1803 1505 
1505 1538 1835 1836 
1802 1836 1505 1835 
1803 1505 1836 1506 
1836 1505 1539 1506 
1506 1539 1837 1540 
1803 1837 1804 1506 
1506 1539 1836 1837 
1803 1837 1506 1836 
1804 1506 1837 1507 
1837 1506 1540 1507 
1507 1540 1838 1541 
1804 1838 1805 1507 
1507 1540 1837 1838 
1804 1838 1507 1837 
1805 1507 1838 1508 
1838 1507 1541 1508 
1508 1541 1839 1542 
1805 1839 1806 1508 
1508 1541 1838 1839 
1805 1839 1508 1838 
1806 1508 1839 1509 
1839 1508 1542 1509 
1509 1542 1840 1543 
1806 1840 1807 1509 
1509 1542 1839 1840 
1806 1840 1509 1839 
1807 1509 1840 1510 
1840 1509 1543 1510 
1510 1543 1841 1544 
1807 1841 1808 1510 
1510 1543 1840 1841 
1807 1841 1510 1840 
1808 1510 1841 1511 
1841 1510 1544 1511 
1511 1544 1842 1545 
1808 1842 1809 1511 
1511 1544 1841 1842 
1808 1842 1511 1841 
1809 1511 1842 1512 
1842 1511 1545 1512 
1512 1545 1843 1546 
1809 1843 1810 1512 
1512 1545 1842 1843 
1809 1843 1512 1842 
1810 1512 1843 1513 
1843 1512 1546 1513 
1513 1546 1844 1547 
1810 1844 1811 1513 
1513 1546 1843 1844 
1810 1844 1513 1843 
1811 1513 1844 1514 
1844 1513 1547 1514 
1514 1547 1845 1548 
1811 1845 1812 1514 
1514 1547 1844 1845 
1811 1845 1514 1844 
1812 1514 1845 1515 
1845 1514 1548 1515 
1515 1548 1846 1549 
1812 1846 1813 1515 
1515 1548 1845 1846 
1812 1846 1515 1845 
1813 1515 1846 1516 
1846 1515 1549 1516 
1516 1549 1847 1550 
1813 1847 1814 1516 
1516 1549 1846 1847 
1813 1847 1516 1846 
1814 1516 1847 1517 
1847 1516 1550 1517 
1518 1551 1849 1552 
1815 1849 1816 1518 
1518 1551 1848 1849 
1815 1849 1518 1848 
1816 1518 1849 1519 
1849 1518 1552 1519 
1519 1552 1850 1553 
1816 1850 1817 1519 
1519 1552 1849 1850 
1816 1850 1519 1849 
1817 1519 1850 1520 
1850 1519 1553 1520 
1520 1553 1851 1554 
1817 1851 1818 1520 
1520 1553 1850 1851 
1817 1851 1520 1850 
1818 1520 1851 1521 
1851 1520 1554 1521 
1521 1554 1852 1555 
1818 1852 1819 1521 
1521 1554 1851 1852 
1818 1852 1521 1851 
1819 1521 1852 1522 
1852 1521 1555 1522 
1522 1555 1853 1556 
1819 1853 1820 1522 
1522 1555 1852 1853 
1819 1853 1522 1852 
1820 1522 1853 1523 
1853 1522 1556 1523 
1523 1556 1854 1557 
1820 1854 1821 1523 
1523 1556 1853 1854 
1820 1854 1523 1853 
1821 1523 1854 1524 
1854 1523 1557 1524 
1524 1557 1855 1558 
1821 1855 1822 1524 
1524 1557 1854 1855 
1821 1855 1524 1854 
1822 1524 1855 1525 
1855 1524 1558 1525 
1525 1558 1856 1559 
1822 1856 1823 1525 
1525 1558 1855 1856 
1822 1856 1525 1855 
1823 1525 1856 1526 
1856 1525 1559 1526 
1526 1559 1857 1560 
1823 1857 1824 1526 
1526 1559 1856 1857 
1823 1857 1526 1856 
1824 1526 1857 1527 
1857 1526 1560 1527 
1527 1560 1858 1561 
1824 1858 1825 1527 
1527 1560 1857 1858 
1824 1858 1527 1857 
1825 1527 1858 1528 
1858 1527 1561 1528 
1528 1561 1859 1562 
1825 1859 1826 1528 
1528 1561 1858 1859 
1825 1859 1528 1858 
1826 1528 1859 1529 
1859 1528 1562 1529 
1529 1562 1860 1563 
1826 1860 1827 1529 
1529 1562 1859 1860 
1826 1860 1529 1859 
1827 1529 1860 1530 
1860 1529 1563 1530 
1530 1563 1861 1564 
1827 1861 1828 1530 
1530 1563 1860 1861 
1827 1861 1530 1860 
1828 1530 1861 1531 
1861 1530 1564 1531 
1531 1564 1862 1565 
1828 1862 1829 1531 
1531 1564 1861 1862 
1828 1862 1531 1861 
1829 1531 1862 1532 
1862 1531 1565 1532 
1532 1565 1863 1566 
1829 1863 1830 1532 
1532 1565 1862 1863 
1829 1863 1532 1862 
1830 1532 1863 1533 
1863 1532 1566 1533 
1533 1566 1864 1567 
1830 1864 1831 1533 
1533 1566 1863 1864 
1830 1864 1533 1863 
1831 1533 1864 1534 
1864 1533 1567 1534 
1534 1567 1865 1568 
1831 1865 1832 1534 
1534 1567 1864 1865 
1831 1865 1534 1864 
1832 1534 1865 1535 
1865 1534 1568 1535 
1535 1568 1866 1569 
1832 1866 1833 1535 
1535 1568 1865 1866 
1832 1866 1535 1865 
1833 1535 1866 1536 
1866 1535 1569 1536 
1536 1569 1867 1570 
1833 1867 1834 1536 
1536 1569 1866 1867 
1833 1867 1536 1866 
1834 1536 1867 1537 
1867 1536 1570 1537 
1537 1570 1868 1571 
1834 1868 1835 1537 
1537 1570 1867 1868 
1834 1868 1537 1867 
1835 1537 1868 1538 
1868 1537 1571 1538 
1538 1571 1869 1572 
1835 1869 1836 1538 
1538 1571 1868 1869 
1835 1869 1538 1868 
1836 1538 1869 1539 
1869 1538 1572 1539 
1539 1572 1870 1573 
1836 1870 1837 1539 
1539 1572 1869 1870 
1836 1870 1539 1869 
1837 1539 1870 1540 
1870 1539 1573 1540 
1540 1573 1871 1574 
1837 1871 1838 1540 
1540 1573 1870 1871 
1837 1871 1540 1870 
1838 1540 1871 1541 
1871 1540 1574 1541 
1541 1574 1872 1575 
1838 1872 1839 1541 
1541 1574 1871 1872 
1838 1872 1541 1871 
1839 1541 1872 1542 
1872 1541 1575 1542 
1542 1575 1873 1576 
1839 1873 1840 1542 
1542 1575 1872 1873 
1839 1873 1542 1872 
1840 1542 1873 1543 
1873 1542 1576 1543 
1543 1576 1874 1577 
1840 1874 1841 1543 
1543 1576 1873 1874 
1840 1874 1543 1873 
1841 1543 1874 1544 
1874 1543 1577 1544 
1544 1577 1875 1578 
1841 1875 1842 1544 
1544 1577 1874 1875 
1841 1875 1544 1874 
1842 1544 1875 1545 
1875 1544 1578 1545 
1545 1578 1876 1579 
1842 1876 1843 1545 
1545 1578 1875 1876 
1842 1876 1545 1875 
1843 1545 1876 1546 
1876 1545 1579 1546 
1546 1579 1877 1580 
1843 1877 1844 1546 
1546 1579 1876 1877 
1843 1877 1546 1876 
1844 1546 1877 1547 
1877 1546 1580 1547 
1547 1580 1878 1581 
1844 1878 1845 1547 
1547 1580 1877 1878 
1844 1878 1547 1877 
1845 1547 1878 1548 
1878 1547 1581 1548 
1548 1581 1879 1582 
1845 1879 1846 1548 
1548 1581 1878 1879 
1845 1879 1548 1878 
1846 1548 1879 1549 
1879 1548 1582 1549 
1549 1582 1880 1583 
1846 1880 1847 1549 
1549 1582 1879 1880 
1846 1880 1549 1879 
1847 1549 1880 1550 
1880 1549 1583 1550 
1551 1584 1882 1585 
1848 1882 1849 1551 
1551 1584 1881 1882 
1848 1882 1551 1881 
1849 1551 1882 1552 
1882 1551 1585 1552 
1552 1585 1883 1586 
1849 1883 1850 1552 
1552 1585 1882 1883 
1849 1883 1552 1882 
1850 1552 1883 1553 
1883 1552 1586 1553 
1553 1586 1884 1587 
1850 1884 1851 1553 
1553 1586 1883 1884 
1850 1884 1553 1883 
1851 1553 1884 1554 
1884 1553 1587 1554 
1554 1587 1885 1588 
1851 1885 1852 1554 
1554 1587 1884 1885 
1851 1885 1554 1884 
1852 1554 1885 1555 
1885 1554 1588 1555 
1555 1588 1886 1589 
1852 1886 1853 1555 
1555 1588 1885 1886 
1852 1886 1555 1885 
1853 1555 1886 1556 
1886 1555 1589 1556 
1556 1589 1887 1590 
1853 1887 1854 1556 
1556 1589 1886 1887 
1853 1887 1556 1886 
1854 1556 1887 1557 
1887 1556 1590 1557 
1557 1590 1888 1591 
1854 1888 1855 1557 
1557 1590 1887 1888 
1854 1888 1557 1887 
1855 1557 1888 1558 
1888 1557 1591 1558 
1558 1591 1889 1592 
1855 1889 1856 1558 
1558 1591 1888 1889 
1855 1889 1558 1888 
1856 1558 1889 1559 
1889 1558 1592 1559 
1559 1592 1890 1593 
1856 1890 1857 1559 
1559 1592 1889 1890 
1856 1890 1559 1889 
1857 1559 1890 1560 
1890 1559 1593 1560 
1560 1593 1891 1594 
1857 1891 1858 1560 
1560 1593 1890 1891 
1857 1891 1560 1890 
1858 1560 1891 1561 
1891 1560 1594 1561 
1561 1594 1892 1595 
1858 1892 1859 1561 
1561 1594 1891 1892 
1858 1892 1561 1891 
1859 1561 1892 1562 
1892 1561 1595 1562 
1562 1595 1893 1596 
1859 1893 1860 1562 
1562 1595 1892 1893 
1859 1893 1562 1892 
1860 1562 1893 1563 
1893 1562 1596 1563 
1563 1596 1894 1597 
1860 1894 1861 1563 
1563 1596 1893 1894 
1860 1894 1563 1893 
1861 1563 1894 1564 
1894 1563 1597 1564 
1564 1597 1895 1598 
1861 1895 1862 1564 
1564 1597 1894 1895 
1861 1895 1564 1894 
1862 1564 1895 1565 
1895 1564 1598 1565 
1565 1598 1896 1599 
1862 1896 1863 1565 
1565 1598 1895 1896 
1862 1896 1565 1895 
1863 1565 1896 1566 
1896 1565 1599 1566 
1566 1599 1897 1600 
1863 1897 1864 1566 
1566 1599 1896 1897 
1863 1897 1566 1896 
1864 1566 1897 1567 
1897 1566 1600 1567 
1567 1600 1898 1601 
1864 1898 1865 1567 
1567 1600 1897 1898 
1864 1898 1567 1897 
1865 1567 1898 1568 
1898 1567 1601 1568 
1568 1601 1899 1602 
1865 1899 1866 1568 
1568 1601 1898 1899 
1865 1899 1568 1898 
1866 1568 1899 1569 
1899 1568 1602 1569 
1569 1602 1900 1603 
1866 1900 1867 1569 
1569 1602 1899 1900 
1866 1900 1569 1899 
1867 1569 1900 1570 
1900 1569 1603 1570 
1570 1603 1901 1604 
1867 1901 1868 1570 
1570 1603 1900 1901 
1867 1901 1570 1900 
1868 1570 1901 1571 
1901 1570 1604 1571 
1571 1604 1902 1605 
1868 1902 1869 1571 
1571 1604 1901 1902 
1868 1902 1571 1901 
1869 1571 1902 1572 
1902 1571 1605 1572 
1572 1605 1903 1606 
1869 1903 1870 1572 
1572 1605 1902 1903 
1869 1903 1572 1902 
1870 1572 1903 1573 
1903 1572 1606 1573 
1573 1606 1904 1607 
1870 1904 1871 1573 
1573 1606 1903 1904 
1870 1904 1573 1903 
1871 1573 1904 1574 
1904 1573 1607 1574 
1574 1607 1905 1608 
1871 1905 1872 1574 
1574 1607 1904 1905 
1871 1905 1574 1904 
1872 1574 1905 1575 
1905 1574 1608 1575 
1575 1608 1906 1609 
1872 1906 1873 1575 
1575 1608 1905 1906 
1872 1906 1575 1905 
1873 1575 1906 1576 
1906 1575 1609 1576 
1576 1609 1907 1610 
1873 1907 1874 1576 
1576 1609 1906 1907 
1873 1907 1576 1906 
1874 1576 1907 1577 
1907 1576 1610 1577 
1577 1610 1908 1611 
1874 1908 1875 1577 
1577 1610 1907 1908 
1874 1908 1577 1907 
1875 1577 1908 1578 
1908 1577 1611 1578 
1578 1611 1909 1612 
1875 1909 1876 1578 
1578 1611 1908 1909 
1875 1909 1578 1908 
1876 1578 1909 1579 
1909 1578 1612 1579 
1579 1612 1910 1613 
1876 1910 1877 1579 
1579 1612 1909 1910 
1876 1910 1579 1909 
1877 1579 1910 1580 
1910 1579 1613 1580 
1580 1613 1911 1614 
1877 1911 1878 1580 
1580 1613 1910 1911 
1877 1911 1580 1910 
1878 1580 1911 1581 
1911 1580 1614 1581 
1581 1614 1912 1615 
1878 1912 1879 1581 
1581 1614 1911 1912 
1878 1912 1581 1911 
1879 1581 1912 1582 
1912 1581 1615 1582 
1582 1615 1913 1616 
1879 1913 1880 1582 
1582 1615 1912 1913 
1879 1913 1582 1912 
1880 1582 1913 1583 
1913 1582 1616 1583 
1584 1617 1915 1618 
1881 1915 1882 1584 
1584 1617 1914 1915 
1881 1915 1584 1914 
1882 1584 1915 1585 
1915 1584 1618 1585 
1585 1618 1916 1619 
1882 1916 1883 1585 
1585 1618 1915 1916 
1882 1916 1585 1915 
1883 1585 1916 1586 
1916 1585 1619 1586 
1586 1619 1917 1620 
1883 1917 1884 1586 
1586 1619 1916 1917 
1883 1917 1586 1916 
1884 1586 1917 1587 
1917 1586 1620 1587 
1587 1620 1918 1621 
1884 1918 1885 1587 
1587 1620 1917 1918 
1884 1918 1587 1917 
1885 1587 1918 1588 
1918 1587 1621 1588 
1588 1621 1919 1622 
1885 1919 1886 1588 
1588 1621 1918 1919 
1885 1919 1588 1918 
1886 1588 1919 1589 
1919 1588 1622 1589 
1589 1622 1920 1623 
1886 1920 1887 1589 
1589 1622 1919 1920 
1886 1920 1589 1919 
1887 1589 1920 1590 
1920 1589 1623 1590 
1590 1623 1921 1624 
1887 1921 1888 1590 
1590 1623 1920 1921 
1887 1921 1590 1920 
1888 1590 1921 1591 
1921 1590 1624 1591 
1591 1624 1922 1625 
1888 1922 1889 1591 
1591 1624 1921 1922 
1888 1922 1591 1921 
1889 1591 1922 1592 
1922 1591 1625 1592 
1592 1625 1923 1626 
1889 1923 1890 1592 
1592 1625 1922 1923 
1889 1923 1592 1922 
1890 1592 1923 1593 
1923 1592 1626 1593 
1593 1626 1924 1627 
1890 1924 1891 1593 
1593 1626 1923 1924 
1890 1924 1593 1923 
1891 1593 1924 1594 
1924 1593 1627 1594 
1594 1627 1925 1628 
1891 1925 1892 1594 
1594 1627 1924 1925 
1891 1925 1594 1924 
1892 1594 1925 1595 
1925 1594 1628 1595 
1595 1628 1926 1629 
1892 1926 1893 1595 
1595 1628 1925 1926 
1892 1926 1595 1925 
1893 1595 1926 1596 
1926 1595 1629 1596 
1596 1629 1927 1630 
1893 1927 1894 1596 
1596 1629 1926 1927 
1893 1927 1596 1926 
1894 1596 1927 1597 
1927 1596 1630 1597 
1597 1630 1928 1631 
1894 1928 1895 1597 
1597 1630 1927 1928 
1894 1928 1597 1927 
1895 1597 1928 1598 
1928 1597 1631 1598 
1598 1631 1929 1632 
1895 1929 1896 1598 
1598 1631 1928 1929 
1895 1929 1598 1928 
1896 1598 1929 1599 
1929 1598 1632 1599 
1599 1632 1930 1633 
1896 1930 1897 1599 
1599 1632 1929 1930 
1896 1930 1599 1929 
1897 1599 1930 1600 
1930 1599 1633 1600 
1600 1633 1931 1634 
1897 1931 1898 1600 
1600 1633 1930 1931 
1897 1931 1600 1930 
1898 1600 1931 1601 
1931 1600 1634 1601 
1601 1634 1932 1635 
1898 1932 1899 1601 
1601 1634 1931 1932 
1898 1932 1601 1931 
1899 1601 1932 1602 
1932 1601 1635 1602 
1602 1635 1933 1636 
1899 1933 1900 1602 
1602 1635 1932 1933 
1899 1933 1602 1932 
1900 1602 1933 1603 
1933 1602 1636 1603 
1603 1636 1934 1637 
1900 1934 1901 1603 
1603 1636 1933 1934 
1900 1934 1603 1933 
1901 1603 1934 1604 
1934 1603 1637 1604 
1604 1637 1935 1638 
1901 1935 1902 1604 
1604 1637 1934 1935 
1901 1935 1604 1934 
1902 1604 1935 1605 
1935 1604 1638 1605 
1605 1638 1936 1639 
1902 1936 1903 1605 
1605 1638 1935 1936 
1902 1936 1605 1935 
1903 1605 1936 1606 
1936 1605 1639 1606 
1606 1639 1937 1640 
1903 1937 1904 1606 
1606 1639 1936 1937 
1903 1937 1606 1936 
1904 1606 1937 1607 
1937 1606 1640 1607 
1607 1640 1938 1641 
1904 1938 1905 1607 
1607 1640 1937 1938 
1904 1938 1607 1937 
1905 1607 1938 1608 
1938 1607 1641 1608 
1608 1641 1939 1642 
1905 1939 1906 1608 
1608 1641 1938 1939 
1905 1939 1608 1938 
1906 1608 1939 1609 
1939 1608 1642 1609 
1609 1642 1940 1643 
1906 1940 1907 1609 
1609 1642 1939 1940 
1906 1940 1609 1939 
1907 1609 1940 1610 
1940 1609 1643 1610 
1610 1643 1941 1644 
1907 1941 1908 1610 
1610 1643 1940 1941 
1907 1941 1610 1940 
1908 1610 1941 1611 
1941 1610 1644 1611 
1611 1644 1942 1645 
1908 1942 1909 1611 
1611 1644 1941 1942 
1908 1942 1611 1941 
1909 1611 1942 1612 
1942 1611 1645 1612 
1612 1645 1943 1646 
1909 1943 1910 1612 
1612 1645 1942 1943 
1909 1943 1612 1942 
1910 1612 1943 1613 
1943 1612 1646 1613 
1613 1646 1944 1647 
1910 1944 1911 1613 
1613 1646 1943 1944 
1910 1944 1613 1943 
1911 1613 1944 1614 
1944 1613 1647 1614 
1614 1647 1945 1648 
1911 1945 1912 1614 
1614 1647 1944 1945 
1911 1945 1614 1944 
1912 1614 1945 1615 
1945 1614 1648 1615 
1615 1648 1946 1649 
1912 1946 1913 1615 
1615 1648 1945 1946 
1912 1946 1615 1945 
1913 1615 1946 1616 
1946 1615 1649 1616 
1617 1650 1948 1651 
1914 1948 1915 1617 
1617 1650 1947 1948 
1914 1948 1617 1947 
1915 1617 1948 1618 
1948 1617 1651 1618 
1618 1651 1949 1652 
1915 1949 1916 1618 
1618 1651 1948 1949 
1915 1949 1618 1948 
1916 1618 1949 1619 
1949 1618 1652 1619 
1619 1652 1950 1653 
1916 1950 1917 1619 
1619 1652 1949 1950 
1916 1950 1619 1949 
1917 1619 1950 1620 
1950 1619 1653 1620 
1620 1653 1951 1654 
1917 1951 1918 1620 
1620 1653 1950 1951 
1917 1951 1620 1950 
1918 1620 1951 1621 
1951 1620 1654 1621 
1621 1654 1952 1655 
1918 1952 1919 1621 
1621 1654 1951 1952 
1918 1952 1621 1951 
1919 1621 1952 1622 
1952 1621 1655 1622 
1622 1655 1953 1656 
1919 1953 1920 1622 
1622 1655 1952 1953 
1919 1953 1622 1952 
1920 1622 1953 1623 
1953 1622 1656 1623 
1623 1656 1954 1657 
1920 1954 1921 1623 
1623 1656 1953 1954 
1920 1954 1623 1953 
1921 1623 1954 1624 
1954 1623 1657 1624 
1624 1657 1955 1658 
1921 1955 1922 1624 
1624 1657 1954 1955 
1921 1955 1624 1954 
1922 1624 1955 1625 
1955 1624 1658 1625 
1625 1658 1956 1659 
1922 1956 1923 1625 
1625 1658 1955 1956 
1922 1956 1625 1955 
1923 1625 1956 1626 
1956 1625 1659 1626 
1626 1659 1957 1660 
1923 1957 1924 1626 
1626 1659 1956 1957 
1923 1957 1626 1956 
1924 1626 1957 1627 
1957 1626 1660 1627 
1627 1660 1958 1661 
1924 1958 1925 1627 
1627 1660 1957 1958 
1924 1958 1627 1957 
1925 1627 1958 1628 
1958 1627 1661 1628 
1628 1661 1959 1662 
1925 1959 1926 1628 
1628 1661 1958 1959 
1925 1959 1628 1958 
1926 1628 1959 1629 
1959 1628 1662 1629 
1629 1662 1960 1663 
1926 1960 1927 1629 
1629 1662 1959 1960 
1926 1960 1629 1959 
1927 1629 1960 1630 
1960 1629 1663 1630 
1630 1663 1961 1664 
1927 1961 1928 1630 
1630 1663 1960 1961 
1927 1961 1630 1960 
1928 1630 1961 1631 
1961 1630 1664 1631 
1631 1664 1962 1665 
1928 1962 1929 1631 
1631 1664 1961 1962 
1928 1962 1631 1961 
1929 1631 1962 1632 
1962 1631 1665 1632 
1632 1665 1963 1666 
1929 1963 1930 1632 
1632 1665 1962 1963 
1929 1963 1632 1962 
1930 1632 1963 1633 
1963 1632 1666 1633 
1633 1666 1964 1667 
1930 1964 1931 1633 
1633 1666 1963 1964 
1930 1964 1633 1963 
1931 1633 1964 1634 
1964 1633 1667 1634 
1634 1667 1965 1668 
1931 1965 1932 1634 
1634 1667 1964 1965 
1931 1965 1634 1964 
1932 1634 1965 1635 
1965 1634 1668 1635 
1635 1668 1966 1669 
1932 1966 1933 1635 
1635 1668 1965 1966 
1932 1966 1635 1965 
1933 1635 1966 1636 
1966 1635 1669 1636 
1636 1669 1967 1670 
1933 1967 1934 1636 
1636 1669 1966 1967 
1933 1967 1636 1966 
1934 1636 1967 1637 
1967 1636 1670 1637 
1637 1670 1968 1671 
1934 1968 1935 1637 
1637 1670 1967 1968 
1934 1968 1637 1967 
1935 1637 1968 1638 
1968 1637 1671 1638 
1638 1671 1969 1672 
1935 1969 1936 1638 
1638 1671 1968 1969 
1935 1969 1638 1968 
1936 1638 1969 1639 
1969 1638 1672 1639 
1639 1672 1970 1673 
1936 1970 1937 1639 
1639 1672 1969 1970 
1936 1970 1639 1969 
1937 1639 1970 1640 
1970 1639 1673 1640 
1640 1673 1971 1674 
1937 1971 1938 1640 
1640 1673 1970 1971 
1937 1971 1640 1970 
1938 1640 1971 1641 
1971 1640 1674 1641 
1641 1674 1972 1675 
1938 1972 1939 1641 
1641 1674 1971 1972 
1938 1972 1641 1971 
1939 1641 1972 1642 
1972 1641 1675 1642 
1642 1675 1973 1676 
1939 1973 1940 1642 
1642 1675 1972 1973 
1939 1973 1642 1972 
1940 1642 1973 1643 
1973 1642 1676 1643 
1643 1676 1974 1677 
1940 1974 1941 1643 
1643 1676 1973 1974 
1940 1974 1643 1973 
1941 1643 1974 1644 
1974 1643 1677 1644 
1644 1677 1975 1678 
1941 1975 1942 1644 
1644 1677 1974 1975 
1941 1975 1644 1974 
1942 1644 1975 1645 
1975 1644 1678 1645 
1645 1678 1976 1679 
1942 1976 1943 1645 
1645 1678 1975 1976 
1942 1976 1645 1975 
1943 1645 1976 1646 
1976 1645 1679 1646 
1646 1679 1977 1680 
1943 1977 1944 1646 
1646 1679 1976 1977 
1943 1977 1646 1976 
1944 1646 1977 1647 
1977 1646 1680 1647 
1647 1680 1978 1681 
1944 1978 1945 1647 
1647 1680 1977 1978 
1944 1978 1647 1977 
1945 1647 1978 1648 
1978 1647 1681 1648 
1648 1681 1979 1682 
1945 1979 1946 1648 
1648 1681 1978 1979 
1945 1979 1648 1978 
1946 1648 1979 1649 
1979 1648 1682 1649 
1650 1683 1981 1684 
1947 1981 1948 1650 
1650 1683 1980 1981 
1947 1981 1650 1980 
1948 1650 1981 1651 
1981 1650 1684 1651 
1651 1684 1982 1685 
1948 1982 1949 1651 
1651 1684 1981 1982 
1948 1982 1651 1981 
1949 1651 1982 1652 
1982 1651 1685 1652 
1652 1685 1983 1686 
1949 1983 1950 1652 
1652 1685 1982 1983 
1949 1983 1652 1982 
1950 1652 1983 1653 
1983 1652 1686 1653 
1653 1686 1984 1687 
1950 1984 1951 1653 
1653 1686 1983 1984 
1950 1984 1653 1983 
1951 1653 1984 1654 
1984 1653 1687 1654 
1654 1687 1985 1688 
1951 1985 1952 1654 
1654 1687 1984 1985 
1951 1985 1654 1984 
1952 1654 1985 1655 
1985 1654 1688 1655 
1655 1688 1986 1689 
1952 1986 1953 1655 
1655 1688 1985 1986 
1952 1986 1655 1985 
1953 1655 1986 1656 
1986 1655 1689 1656 
1656 1689 1987 1690 
1953 1987 1954 1656 
1656 1689 1986 1987 
1953 1987 1656 1986 
1954 1656 1987 1657 
1987 1656 1690 1657 
1657 1690 1988 1691 
1954 1988 1955 1657 
1657 1690 1987 1988 
1954 1988 1657 1987 
1955 1657 1988 1658 
1988 1657 1691 1658 
1658 1691 1989 1692 
1955 1989 1956 1658 
1658 1691 1988 1989 
1955 1989 1658 1988 
1956 1658 1989 1659 
1989 1658 1692 1659 
1659 1692 1990 1693 
1956 1990 1957 1659 
1659 1692 1989 1990 
1956 1990 1659 1989 
1957 1659 1990 1660 
1990 1659 1693 1660 
1660 1693 1991 1694 
1957 1991 1958 1660 
1660 1693 1990 1991 
1957 1991 1660 1990 
1958 1660 1991 1661 
1991 1660 1694 1661 
1661 1694 1992 1695 
1958 1992 1959 1661 
1661 1694 1991 1992 
1958 1992 1661 1991 
1959 1661 1992 1662 
1992 1661 1695 1662 
1662 1695 1993 1696 
1959 1993 1960 1662 
1662 1695 1992 1993 
1959 1993 1662 1992 
1960 1662 1993 1663 
1993 1662 1696 1663 
1663 1696 1994 1697 
1960 1994 1961 1663 
1663 1696 1993 1994 
1960 1994 1663 1993 
1961 1663 1994 1664 
1994 1663 1697 1664 
1664 1697 1995 1698 
1961 1995 1962 1664 
1664 1697 1994 1995 
1961 1995 1664 1994 
1962 1664 1995 1665 
1995 1664 1698 1665 
1665 1698 1996 1699 
1962 1996 1963 1665 
1665 1698 1995 1996 
1962 1996 1665 1995 
1963 1665 1996 1666 
1996 1665 1699 1666 
1666 1699 1997 1700 
1963 1997 1964 1666 
1666 1699 1996 1997 
1963 1997 1666 1996 
1964 1666 1997 1667 
1997 1666 1700 1667 
1667 1700 1998 1701 
1964 1998 1965 1667 
1667 1700 1997 1998 
1964 1998 1667 1997 
1965 1667 1998 1668 
1998 1667 1701 1668 
1668 1701 1999 1702 
1965 1999 1966 1668 
1668 1701 1998 1999 
1965 1999 1668 1998 
1966 1668 1999 1669 
1999 1668 1702 1669 
1669 1702 2000 1703 
1966 2000 1967 1669 
1669 1702 1999 2000 
1966 2000 1669 1999 
1967 1669 2000 1670 
2000 1669 1703 1670 
1670 1703 2001 1704 
1967 2001 1968 1670 
1670 1703 2000 2001 
1967 2001 1670 2000 
1968 1670 2001 1671 
2001 1670 1704 1671 
1671 1704 2002 1705 
1968 2002 1969 1671 
1671 1704 2001 2002 
1968 2002 1671 2001 
1969 1671 2002 1672 
2002 1671 1705 1672 
1672 1705 2003 1706 
1969 2003 1970 1672 
1672 1705 2002 2003 
1969 2003 1672 2002 
1970 1672 2003 1673 
2003 1672 1706 1673 
1673 1706 2004 1707 
1970 2004 1971 1673 
1673 1706 2003 2004 
1970 2004 1673 2003 
1971 1673 2004 1674 
2004 1673 1707 1674 
1674 1707 2005 1708 
1971 2005 1972 1674 
1674 1707 2004 2005 
1971 2005 1674 2004 
1972 1674 2005 1675 
2005 1674 1708 1675 
1675 1708 2006 1709 
1972 2006 1973 1675 
1675 1708 2005 2006 
1972 2006 1675 2005 
1973 1675 2006 1676 
2006 1675 1709 1676 
1676 1709 2007 1710 
1973 2007 1974 1676 
1676 1709 2006 2007 
1973 2007 1676 2006 
1974 1676 2007 1677 
2007 1676 1710 1677 
1677 1710 2008 1711 
1974 2008 1975 1677 
1677 1710 2007 2008 
1974 2008 1677 2007 
1975 1677 2008 1678 
2008 1677 1711 1678 
1678 1711 2009 1712 
1975 2009 1976 1678 
1678 1711 2008 2009 
1975 2009 1678 2008 
1976 1678 2009 1679 
2009 1678 1712 1679 
1679 1712 2010 1713 
1976 2010 1977 1679 
1679 1712 2009 2010 
1976 2010 1679 2009 
1977 1679 2010 1680 
2010 1679 1713 1680 
1680 1713 2011 1714 
1977 2011 1978 1680 
1680 1713 2010 2011 
1977 2011 1680 2010 
1978 1680 2011 1681 
2011 1680 1714 1681 
1681 1714 2012 1715 
1978 2012 1979 1681 
1681 1714 2011 2012 
1978 2012 1681 2011 
1979 1681 2012 1682 
2012 1681 1715 1682 
1683 1716 2014 1717 
1980 2014 1981 1683 
1683 1716 2013 2014 
1980 2014 1683 2013 
1981 1683 2014 1684 
2014 1683 1717 1684 
1684 1717 2015 1718 
1981 2015 1982 1684 
1684 1717 2014 2015 
1981 2015 1684 2014 
1982 1684 2015 1685 
2015 1684 1718 1685 
1685 1718 2016 1719 
1982 2016 1983 1685 
1685 1718 2015 2016 
1982 2016 1685 2015 
1983 1685 2016 1686 
2016 1685 1719 1686 
1686 1719 2017 1720 
1983 2017 1984 1686 
1686 1719 2016 2017 
1983 2017 1686 2016 
1984 1686 2017 1687 
2017 1686 1720 1687 
1687 1720 2018 1721 
1984 2018 1985 1687 
1687 1720 2017 2018 
1984 2018 1687 2017 
1985 1687 2018 1688 
2018 1687 1721 1688 
1688 1721 2019 1722 
1985 2019 1986 1688 
1688 1721 2018 2019 
1985 2019 1688 2018 
1986 1688 2019 1689 
2019 1688 1722 1689 
1689 1722 2020 1723 
1986 2020 1987 1689 
1689 1722 2019 2020 
1986 2020 1689 2019 
1987 1689 2020 1690 
2020 1689 1723 1690 
1690 1723 2021 1724 
1987 2021 1988 1690 
1690 1723 2020 2021 
1987 2021 1690 2020 
1988 1690 2021 1691 
2021 1690 1724 1691 
1691 1724 2022 1725 
1988 2022 1989 1691 
1691 1724 2021 2022 
1988 2022 1691 2021 
1989 1691 2022 1692 
2022 1691 1725 1692 
1692 1725 2023 1726 
1989 2023 1990 1692 
1692 1725 2022 2023 
1989 2023 1692 2022 
1990 1692 2023 1693 
2023 1692 1726 1693 
1693 1726 2024 1727 
1990 2024 1991 1693 
1693 1726 2023 2024 
1990 2024 1693 2023 
1991 1693 2024 1694 
2024 1693 1727 1694 
1694 1727 2025 1728 
1991 2025 1992 1694 
1694 1727 2024 2025 
1991 2025 1694 2024 
1992 1694 2025 1695 
2025 1694 1728 1695 
1695 1728 2026 1729 
1992 2026 1993 1695 
1695 1728 2025 2026 
1992 2026 1695 2025 
1993 1695 2026 1696 
2026 1695 1729 1696 
1696 1729 2027 1730 
1993 2027 1994 1696 
1696 1729 2026 2027 
1993 2027 1696 2026 
1994 1696 2027 1697 
2027 1696 1730 1697 
1697 1730 2028 1731 
1994 2028 1995 1697 
1697 1730 2027 2028 
1994 2028 1697 2027 
1995 1697 2028 1698 
2028 1697 1731 1698 
1698 1731 2029 1732 
1995 2029 1996 1698 
1698 1731 2028 2029 
1995 2029 1698 2028 
1996 1698 2029 1699 
2029 1698 1732 1699 
1699 1732 2030 1733 
1996 2030 1997 1699 
1699 1732 2029 2030 
1996 2030 1699 2029 
1997 1699 2030 1700 
2030 1699 1733 1700 
1700 1733 2031 1734 
1997 2031 1998 1700 
1700 1733 2030 2031 
1997 2031 1700 2030 
1998 1700 2031 1701 
2031 1700 1734 1701 
1701 1734 2032 1735 
1998 2032 1999 1701 
1701 1734 2031 2032 
1998 2032 1701 2031 
1999 1701 2032 1702 
2032 1701 1735 1702 
1702 1735 2033 1736 
1999 2033 2000 1702 
1702 1735 2032 2033 
1999 2033 1702 2032 
2000 1702 2033 1703 
2033 1702 1736 1703 
1703 1736 2034 1737 
2000 2034 2001 1703 
1703 1736 2033 2034 
2000 2034 1703 2033 
2001 1703 2034 1704 
2034 1703 1737 1704 
1704 1737 2035 1738 
2001 2035 2002 1704 
1704 1737 2034 2035 
2001 2035 1704 2034 
2002 1704 2035 1705 
2035 1704 1738 1705 
1705 1738 2036 1739 
2002 2036 2003 1705 
1705 1738 2035 2036 
2002 2036 1705 2035 
2003 1705 2036 1706 
2036 1705 1739 1706 
1706 1739 2037 1740 
2003 2037 2004 1706 
1706 1739 2036 2037 
2003 2037 1706 2036 
2004 1706 2037 1707 
2037 1706 1740 1707 
1707 1740 2038 1741 
2004 2038 2005 1707 
1707 1740 2037 2038 
2004 2038 1707 2037 
2005 1707 2038 1708 
2038 1707 1741 1708 
1708 1741 2039 1742 
2005 2039 2006 1708 
1708 1741 2038 2039 
2005 2039 1708 2038 
2006 1708 2039 1709 
2039 1708 1742 1709 
1709 1742 2040 1743 
2006 2040 2007 1709 
1709 1742 2039 2040 
2006 2040 1709 2039 
2007 1709 2040 1710 
2040 1709 1743 1710 
1710 1743 2041 1744 
2007 2041 2008 1710 
1710 1743 2040 2041 
2007 2041 1710 2040 
2008 1710 2041 1711 
2041 1710 1744 1711 
1711 1744 2042 1745 
2008 2042 2009 1711 
1711 1744 2041 2042 
2008 2042 1711 2041 
2009 1711 2042 1712 
2042 1711 1745 1712 
1712 1745 2043 1746 
2009 2043 2010 1712 
1712 1745 2042 2043 
2009 2043 1712 2042 
2010 1712 2043 1713 
2043 1712 1746 1713 
1713 1746 2044 1747 
2010 2044 2011 1713 
1713 1746 2043 2044 
2010 2044 1713 2043 
2011 1713 2044 1714 
2044 1713 1747 1714 
1714 1747 2045 1748 
2011 2045 2012 1714 
1714 1747 2044 2045 
2011 2045 1714 2044 
2012 1714 2045 1715 
2045 1714 1748 1715 
1716 1749 2047 1750 
2013 2047 2014 1716 
1716 1749 2046 2047 
2013 2047 1716 2046 
2014 1716 2047 1717 
2047 1716 1750 1717 
1717 1750 2048 1751 
2014 2048 2015 1717 
1717 1750 2047 2048 
2014 2048 1717 2047 
2015 1717 2048 1718 
2048 1717 1751 1718 
1718 1751 2049 1752 
2015 2049 2016 1718 
1718 1751 2048 2049 
2015 2049 1718 2048 
2016 1718 2049 1719 
2049 1718 1752 1719 
1719 1752 2050 1753 
2016 2050 2017 1719 
1719 1752 2049 2050 
2016 2050 1719 2049 
2017 1719 2050 1720 
2050 1719 1753 1720 
1720 1753 2051 1754 
2017 2051 2018 1720 
1720 1753 2050 2051 
2017 2051 1720 2050 
2018 1720 2051 1721 
2051 1720 1754 1721 
1721 1754 2052 1755 
2018 2052 2019 1721 
1721 1754 2051 2052 
2018 2052 1721 2051 
2019 1721 2052 1722 
2052 1721 1755 1722 
1722 1755 2053 1756 
2019 2053 2020 1722 
1722 1755 2052 2053 
2019 2053 1722 2052 
2020 1722 2053 1723 
2053 1722 1756 1723 
1723 1756 2054 1757 
2020 2054 2021 1723 
1723 1756 2053 2054 
2020 2054 1723 2053 
2021 1723 2054 1724 
2054 1723 1757 1724 
1724 1757 2055 1758 
2021 2055 2022 1724 
1724 1757 2054 2055 
2021 2055 1724 2054 
2022 1724 2055 1725 
2055 1724 1758 1725 
1725 1758 2056 1759 
2022 2056 2023 1725 
1725 1758 2055 2056 
2022 2056 1725 2055 
2023 1725 2056 1726 
2056 1725 1759 1726 
1726 1759 2057 1760 
2023 2057 2024 1726 
1726 1759 2056 2057 
2023 2057 1726 2056 
2024 1726 2057 1727 
2057 1726 1760 1727 
1727 1760 2058 1761 
2024 2058 2025 1727 
1727 1760 2057 2058 
2024 2058 1727 2057 
2025 1727 2058 1728 
2058 1727 1761 1728 
1728 1761 2059 1762 
2025 2059 2026 1728 
1728 1761 2058 2059 
2025 2059 1728 2058 
2026 1728 2059 1729 
2059 1728 1762 1729 
1729 1762 2060 1763 
2026 2060 2027 1729 
1729 1762 2059 2060 
2026 2060 1729 2059 
2027 1729 2060 1730 
2060 1729 1763 1730 
1730 1763 2061 1764 
2027 2061 2028 1730 
1730 1763 2060 2061 
2027 2061 1730 2060 
2028 1730 2061 1731 
2061 1730 1764 1731 
1731 1764 2062 1765 
2028 2062 2029 1731 
1731 1764 2061 2062 
2028 2062 1731 2061 
2029 1731 2062 1732 
2062 1731 1765 1732 
1732 1765 2063 1766 
2029 2063 2030 1732 
1732 1765 2062 2063 
2029 2063 1732 2062 
2030 1732 2063 1733 
2063 1732 1766 1733 
1733 1766 2064 1767 
2030 2064 2031 1733 
1733 1766 2063 2064 
2030 2064 1733 2063 
2031 1733 2064 1734 
2064 1733 1767 1734 
1734 1767 2065 1768 
2031 2065 2032 1734 
1734 1767 2064 2065 
2031 2065 1734 2064 
2032 1734 2065 1735 
2065 1734 1768 1735 
1735 1768 2066 1769 
2032 2066 2033 1735 
1735 1768 2065 2066 
2032 2066 1735 2065 
2033 1735 2066 1736 
2066 1735 1769 1736 
1736 1769 2067 1770 
2033 2067 2034 1736 
1736 1769 2066 2067 
2033 2067 1736 2066 
2034 1736 2067 1737 
2067 1736 1770 1737 
1737 1770 2068 1771 
2034 2068 2035 1737 
1737 1770 2067 2068 
2034 2068 1737 2067 
2035 1737 2068 1738 
2068 1737 1771 1738 
1738 1771 2069 1772 
2035 2069 2036 1738 
1738 1771 2068 2069 
2035 2069 1738 2068 
2036 1738 2069 1739 
2069 1738 1772 1739 
1739 1772 2070 1773 
2036 2070 2037 1739 
1739 1772 2069 2070 
2036 2070 1739 2069 
2037 1739 2070 1740 
2070 1739 1773 1740 
1740 1773 2071 1774 
2037 2071 2038 1740 
1740 1773 2070 2071 
2037 2071 1740 2070 
2038 1740 2071 1741 
2071 1740 1774 1741 
1741 1774 2072 1775 
2038 2072 2039 1741 
1741 1774 2071 2072 
2038 2072 1741 2071 
2039 1741 2072 1742 
2072 1741 1775 1742 
1742 1775 2073 1776 
2039 2073 2040 1742 
1742 1775 2072 2073 
2039 2073 1742 2072 
2040 1742 2073 1743 
2073 1742 1776 1743 
1743 1776 2074 1777 
2040 2074 2041 1743 
1743 1776 2073 2074 
2040 2074 1743 2073 
2041 1743 2074 1744 
2074 1743 1777 1744 
1744 1777 2075 1778 
2041 2075 2042 1744 
1744 1777 2074 2075 
2041 2075 1744 2074 
2042 1744 2075 1745 
2075 1744 1778 1745 
1745 1778 2076 1779 
2042 2076 2043 1745 
1745 1778 2075 2076 
2042 2076 1745 2075 
2043 1745 2076 1746 
2076 1745 1779 1746 
1746 1779 2077 1780 
2043 2077 2044 1746 
1746 1779 2076 2077 
2043 2077 1746 2076 
2044 1746 2077 1747 
2077 1746 1780 1747 
1747 1780 2078 1781 
2044 2078 2045 1747 
1747 1780 2077 2078 
2044 2078 1747 2077 
2045 1747 2078 1748 
2078 1747 1781 1748 
1782 1815 2113 1816 
2079 2113 2080 1782 
1782 1815 2112 2113 
2079 2113 1782 2112 
2080 1782 2113 1783 
2113 1782 1816 1783 
1783 1816 2114 1817 
2080 2114 2081 1783 
1783 1816 2113 2114 
2080 2114 1783 2113 
2081 1783 2114 1784 
2114 1783 1817 1784 
1784 1817 2115 1818 
2081 2115 2082 1784 
1784 1817 2114 2115 
2081 2115 1784 2114 
2082 1784 2115 1785 
2115 1784 1818 1785 
1785 1818 2116 1819 
2082 2116 2083 1785 
1785 1818 2115 2116 
2082 2116 1785 2115 
2083 1785 2116 1786 
2116 1785 1819 1786 
1786 1819 2117 1820 
2083 2117 2084 1786 
1786 1819 2116 2117 
2083 2117 1786 2116 
2084 1786 2117 1787 
2117 1786 1820 1787 
1787 1820 2118 1821 
2084 2118 2085 1787 
1787 1820 2117 2118 
2084 2118 1787 2117 
2085 1787 2118 1788 
2118 1787 1821 1788 
1788 1821 2119 1822 
2085 2119 2086 1788 
1788 1821 2118 2119 
2085 2119 1788 2118 
2086 1788 2119 1789 
2119 1788 1822 1789 
1789 1822 2120 1823 
2086 2120 2087 1789 
1789 1822 2119 2120 
2086 2120 1789 2119 
2087 1789 2120 1790 
2120 1789 1823 1790 
1790 1823 2121 1824 
2087 2121 2088 1790 
1790 1823 2120 2121 
2087 2121 1790 2120 
2088 1790 2121 1791 
2121 1790 1824 1791 
1791 1824 2122 1825 
2088 2122 2089 1791 
1791 1824 2121 2122 
2088 2122 1791 2121 
2089 1791 2122 1792 
2122 1791 1825 1792 
1792 1825 2123 1826 
2089 2123 2090 1792 
1792 1825 2122 2123 
2089 2123 1792 2122 
2090 1792 2123 1793 
2123 1792 1826 1793 
1793 1826 2124 1827 
2090 2124 2091 1793 
1793 1826 2123 2124 
2090 2124 1793 2123 
2091 1793 2124 1794 
2124 1793 1827 1794 
1794 1827 2125 1828 
2091 2125 2092 1794 
1794 1827 2124 2125 
2091 2125 1794 2124 
2092 1794 2125 1795 
2125 1794 1828 1795 
1795 1828 2126 1829 
2092 2126 2093 1795 
1795 1828 2125 2126 
2092 2126 1795 2125 
2093 1795 2126 1796 
2126 1795 1829 1796 
1796 1829 2127 1830 
2093 2127 2094 1796 
1796 1829 2126 2127 
2093 2127 1796 2126 
2094 1796 2127 1797 
2127 1796 1830 1797 
1797 1830 2128 1831 
2094 2128 2095 1797 
1797 1830 2127 2128 
2094 2128 1797 2127 
2095 1797 2128 1798 
2128 1797 1831 1798 
1798 1831 2129 1832 
2095 2129 2096 1798 
1798 1831 2128 2129 
2095 2129 1798 2128 
2096 1798 2129 1799 
2129 1798 1832 1799 
1799 1832 2130 1833 
2096 2130 2097 1799 
1799 1832 2129 2130 
2096 2130 1799 2129 
2097 1799 2130 1800 
2130 1799 1833 1800 
1800 1833 2131 1834 
2097 2131 2098 1800 
1800 1833 2130 2131 
2097 2131 1800 2130 
2098 1800 2131 1801 
2131 1800 1834 1801 
1801 1834 2132 1835 
2098 2132 2099 1801 
1801 1834 2131 2132 
2098 2132 1801 2131 
2099 1801 2132 1802 
2132 1801 1835 1802 
1802 1835 2133 1836 
2099 2133 2100 1802 
1802 1835 2132 2133 
2099 2133 1802 2132 
2100 1802 2133 1803 
2133 1802 1836 1803 
1803 1836 2134 1837 
2100 2134 2101 1803 
1803 1836 2133 2134 
2100 2134 1803 2133 
2101 1803 2134 1804 
2134 1803 1837 1804 
1804 1837 2135 1838 
2101 2135 2102 1804 
1804 1837 2134 2135 
2101 2135 1804 2134 
2102 1804 2135 1805 
2135 1804 1838 1805 
1805 1838 2136 1839 
2102 2136 2103 1805 
1805 1838 2135 2136 
2102 2136 1805 2135 
2103 1805 2136 1806 
2136 1805 1839 1806 
1806 1839 2137 1840 
2103 2137 2104 1806 
1806 1839 2136 2137 
2103 2137 1806 2136 
2104 1806 2137 1807 
2137 1806 1840 1807 
1807 1840 2138 1841 
2104 2138 2105 1807 
1807 1840 2137 2138 
2104 2138 1807 2137 
2105 1807 2138 1808 
2138 1807 1841 1808 
1808 1841 2139 1842 
2105 2139 2106 1808 
1808 1841 2138 2139 
2105 2139 1808 2138 
2106 1808 2139 1809 
2139 1808 1842 1809 
1809 1842 2140 1843 
2106 2140 2107 1809 
1809 1842 2139 2140 
2106 2140 1809 2139 
2107 1809 2140 1810 
2140 1809 1843 1810 
1810 1843 2141 1844 
2107 2141 2108 1810 
1810 1843 2140 2141 
2107 2141 1810 2140 
2108 1810 2141 1811 
2141 1810 1844 1811 
1811 1844 2142 1845 
2108 2142 2109 1811 
1811 1844 2141 2142 
2108 2142 1811 2141 
2109 1811 2142 1812 
2142 1811 1845 1812 
1812 1845 2143 1846 
2109 2143 2110 1812 
1812 1845 2142 2143 
2109 2143 1812 2142 
2110 1812 2143 1813 
2143 1812 1846 1813 
1813 1846 2144 1847 
2110 2144 2111 1813 
1813 1846 2143 2144 
2110 2144 1813 2143 
2111 1813 2144 1814 
2144 1813 1847 1814 
1815 1848 2146 1849 
2112 2146 2113 1815 
1815 1848 2145 2146 
2112 2146 1815 2145 
2113 1815 2146 1816 
2146 1815 1849 1816 
1816 1849 2147 1850 
2113 2147 2114 1816 
1816 1849 2146 2147 
2113 2147 1816 2146 
2114 1816 2147 1817 
2147 1816 1850 1817 
1817 1850 2148 1851 
2114 2148 2115 1817 
1817 1850 2147 2148 
2114 2148 1817 2147 
2115 1817 2148 1818 
2148 1817 1851 1818 
1818 1851 2149 1852 
2115 2149 2116 1818 
1818 1851 2148 2149 
2115 2149 1818 2148 
2116 1818 2149 1819 
2149 1818 1852 1819 
1819 1852 2150 1853 
2116 2150 2117 1819 
1819 1852 2149 2150 
2116 2150 1819 2149 
2117 1819 2150 1820 
2150 1819 1853 1820 
1820 1853 2151 1854 
2117 2151 2118 1820 
1820 1853 2150 2151 
2117 2151 1820 2150 
2118 1820 2151 1821 
2151 1820 1854 1821 
1821 1854 2152 1855 
2118 2152 2119 1821 
1821 1854 2151 2152 
2118 2152 1821 2151 
2119 1821 2152 1822 
2152 1821 1855 1822 
1822 1855 2153 1856 
2119 2153 2120 1822 
1822 1855 2152 2153 
2119 2153 1822 2152 
2120 1822 2153 1823 
2153 1822 1856 1823 
1823 1856 2154 1857 
2120 2154 2121 1823 
1823 1856 2153 2154 
2120 2154 1823 2153 
2121 1823 2154 1824 
2154 1823 1857 1824 
1824 1857 2155 1858 
2121 2155 2122 1824 
1824 1857 2154 2155 
2121 2155 1824 2154 
2122 1824 2155 1825 
2155 1824 1858 1825 
1825 1858 2156 1859 
2122 2156 2123 1825 
1825 1858 2155 2156 
2122 2156 1825 2155 
2123 1825 2156 1826 
2156 1825 1859 1826 
1826 1859 2157 1860 
2123 2157 2124 1826 
1826 1859 2156 2157 
2123 2157 1826 2156 
2124 1826 2157 1827 
2157 1826 1860 1827 
1827 1860 2158 1861 
2124 2158 2125 1827 
1827 1860 2157 2158 
2124 2158 1827 2157 
2125 1827 2158 1828 
2158 1827 1861 1828 
1828 1861 2159 1862 
2125 2159 2126 1828 
1828 1861 2158 2159 
2125 2159 1828 2158 
2126 1828 2159 1829 
2159 1828 1862 1829 
1829 1862 2160 1863 
2126 2160 2127 1829 
1829 1862 2159 2160 
2126 2160 1829 2159 
2127 1829 2160 1830 
2160 1829 1863 1830 
1830 1863 2161 1864 
2127 2161 2128 1830 
1830 1863 2160 2161 
2127 2161 1830 2160 
2128 1830 2161 1831 
2161 1830 1864 1831 
1831 1864 2162 1865 
2128 2162 2129 1831 
1831 1864 2161 2162 
2128 2162 1831 2161 
2129 1831 2162 1832 
2162 1831 1865 1832 
1832 1865 2163 1866 
2129 2163 2130 1832 
1832 1865 2162 2163 
2129 2163 1832 2162 
2130 1832 2163 1833 
2163 1832 1866 1833 
1833 1866 2164 1867 
2130 2164 2131 1833 
1833 1866 2163 2164 
2130 2164 1833 2163 
2131 1833 2164 1834 
2164 1833 1867 1834 
1834 1867 2165 1868 
2131 2165 2132 1834 
1834 1867 2164 2165 
2131 2165 1834 2164 
2132 1834 2165 1835 
2165 1834 1868 1835 
1835 1868 2166 1869 
2132 2166 2133 1835 
1835 1868 2165 2166 
2132 2166 1835 2165 
2133 1835 2166 1836 
2166 1835 1869 1836 
1836 1869 2167 1870 
2133 2167 2134 1836 
1836 1869 2166 2167 
2133 2167 1836 2166 
2134 1836 2167 1837 
2167 1836 1870 1837 
1837 1870 2168 1871 
2134 2168 2135 1837 
1837 1870 2167 2168 
2134 2168 1837 2167 
2135 1837 2168 1838 
2168 1837 1871 1838 
1838 1871 2169 1872 
2135 2169 2136 1838 
1838 1871 2168 2169 
2135 2169 1838 2168 
2136 1838 2169 1839 
2169 1838 1872 1839 
1839 1872 2170 1873 
2136 2170 2137 1839 
1839 1872 2169 2170 
2136 2170 1839 2169 
2137 1839 2170 1840 
2170 1839 1873 1840 
1840 1873 2171 1874 
2137 2171 2138 1840 
1840 1873 2170 2171 
2137 2171 1840 2170 
2138 1840 2171 1841 
2171 1840 1874 1841 
1841 1874 2172 1875 
2138 2172 2139 1841 
1841 1874 2171 2172 
2138 2172 1841 2171 
2139 1841 2172 1842 
2172 1841 1875 1842 
1842 1875 2173 1876 
2139 2173 2140 1842 
1842 1875 2172 2173 
2139 2173 1842 2172 
2140 1842 2173 1843 
2173 1842 1876 1843 
1843 1876 2174 1877 
2140 2174 2141 1843 
1843 1876 2173 2174 
2140 2174 1843 2173 
2141 1843 2174 1844 
2174 1843 1877 1844 
1844 1877 2175 1878 
2141 2175 2142 1844 
1844 1877 2174 2175 
2141 2175 1844 2174 
2142 1844 2175 1845 
2175 1844 1878 1845 
1845 1878 2176 1879 
2142 2176 2143 1845 
1845 1878 2175 2176 
2142 2176 1845 2175 
2143 1845 2176 1846 
2176 1845 1879 1846 
1846 1879 2177 1880 
2143 2177 2144 1846 
1846 1879 2176 2177 
2143 2177 1846 2176 
2144 1846 2177 1847 
2177 1846 1880 1847 
1848 1881 2179 1882 
2145 2179 2146 1848 
1848 1881 2178 2179 
2145 2179 1848 2178 
2146 1848 2179 1849 
2179 1848 1882 1849 
1849 1882 2180 1883 
2146 2180 2147 1849 
1849 1882 2179 2180 
2146 2180 1849 2179 
2147 1849 2180 1850 
2180 1849 1883 1850 
1850 1883 2181 1884 
2147 2181 2148 1850 
1850 1883 2180 2181 
2147 2181 1850 2180 
2148 1850 2181 1851 
2181 1850 1884 1851 
1851 1884 2182 1885 
2148 2182 2149 1851 
1851 1884 2181 2182 
2148 2182 1851 2181 
2149 1851 2182 1852 
2182 1851 1885 1852 
1852 1885 2183 1886 
2149 2183 2150 1852 
1852 1885 2182 2183 
2149 2183 1852 2182 
2150 1852 2183 1853 
2183 1852 1886 1853 
1853 1886 2184 1887 
2150 2184 2151 1853 
1853 1886 2183 2184 
2150 2184 1853 2183 
2151 1853 2184 1854 
2184 1853 1887 1854 
1854 1887 2185 1888 
2151 2185 2152 1854 
1854 1887 2184 2185 
2151 2185 1854 2184 
2152 1854 2185 1855 
2185 1854 1888 1855 
1855 1888 2186 1889 
2152 2186 2153 1855 
1855 1888 2185 2186 
2152 2186 1855 2185 
2153 1855 2186 1856 
2186 1855 1889 1856 
1856 1889 2187 1890 
2153 2187 2154 1856 
1856 1889 2186 2187 
2153 2187 1856 2186 
2154 1856 2187 1857 
2187 1856 1890 1857 
1857 1890 2188 1891 
2154 2188 2155 1857 
1857 1890 2187 2188 
2154 2188 1857 2187 
2155 1857 2188 1858 
2188 1857 1891 1858 
1858 1891 2189 1892 
2155 2189 2156 1858 
1858 1891 2188 2189 
2155 2189 1858 2188 
2156 1858 2189 1859 
2189 1858 1892 1859 
1859 1892 2190 1893 
2156 2190 2157 1859 
1859 1892 2189 2190 
2156 2190 1859 2189 
2157 1859 2190 1860 
2190 1859 1893 1860 
1860 1893 2191 1894 
2157 2191 2158 1860 
1860 1893 2190 2191 
2157 2191 1860 2190 
2158 1860 2191 1861 
2191 1860 1894 1861 
1861 1894 2192 1895 
2158 2192 2159 1861 
1861 1894 2191 2192 
2158 2192 1861 2191 
2159 1861 2192 1862 
2192 1861 1895 1862 
1862 1895 2193 1896 
2159 2193 2160 1862 
1862 1895 2192 2193 
2159 2193 1862 2192 
2160 1862 2193 1863 
2193 1862 1896 1863 
1863 1896 2194 1897 
2160 2194 2161 1863 
1863 1896 2193 2194 
2160 2194 1863 2193 
2161 1863 2194 1864 
2194 1863 1897 1864 
1864 1897 2195 1898 
2161 2195 2162 1864 
1864 1897 2194 2195 
2161 2195 1864 2194 
2162 1864 2195 1865 
2195 1864 1898 1865 
1865 1898 2196 1899 
2162 2196 2163 1865 
1865 1898 2195 2196 
2162 2196 1865 2195 
2163 1865 2196 1866 
2196 1865 1899 1866 
1866 1899 2197 1900 
2163 2197 2164 1866 
1866 1899 2196 2197 
2163 2197 1866 2196 
2164 1866 2197 1867 
2197 1866 1900 1867 
1867 1900 2198 1901 
2164 2198 2165 1867 
1867 1900 2197 2198 
2164 2198 1867 2197 
2165 1867 2198 1868 
2198 1867 1901 1868 
1868 1901 2199 1902 
2165 2199 2166 1868 
1868 1901 2198 2199 
2165 2199 1868 2198 
2166 1868 2199 1869 
2199 1868 1902 1869 
1869 1902 2200 1903 
2166 2200 2167 1869 
1869 1902 2199 2200 
2166 2200 1869 2199 
2167 1869 2200 1870 
2200 1869 1903 1870 
1870 1903 2201 1904 
2167 2201 2168 1870 
1870 1903 2200 2201 
2167 2201 1870 2200 
2168 1870 2201 1871 
2201 1870 1904 1871 
1871 1904 2202 1905 
2168 2202 2169 1871 
1871 1904 2201 2202 
2168 2202 1871 2201 
2169 1871 2202 1872 
2202 1871 1905 1872 
1872 1905 2203 1906 
2169 2203 2170 1872 
1872 1905 2202 2203 
2169 2203 1872 2202 
2170 1872 2203 1873 
2203 1872 1906 1873 
1873 1906 2204 1907 
2170 2204 2171 1873 
1873 1906 2203 2204 
2170 2204 1873 2203 
2171 1873 2204 1874 
2204 1873 1907 1874 
1874 1907 2205 1908 
2171 2205 2172 1874 
1874 1907 2204 2205 
2171 2205 1874 2204 
2172 1874 2205 1875 
2205 1874 1908 1875 
1875 1908 2206 1909 
2172 2206 2173 1875 
1875 1908 2205 2206 
2172 2206 1875 2205 
2173 1875 2206 1876 
2206 1875 1909 1876 
1876 1909 2207 1910 
2173 2207 2174 1876 
1876 1909 2206 2207 
2173 2207 1876 2206 
2174 1876 2207 1877 
2207 1876 1910 1877 
1877 1910 2208 1911 
2174 2208 2175 1877 
1877 1910 2207 2208 
2174 2208 1877 2207 
2175 1877 2208 1878 
2208 1877 1911 1878 
1878 1911 2209 1912 
2175 2209 2176 1878 
1878 1911 2208 2209 
2175 2209 1878 2208 
2176 1878 2209 1879 
2209 1878 1912 1879 
1879 1912 2210 1913 
2176 2210 2177 1879 
1879 1912 2209 2210 
2176 2210 1879 2209 
2177 1879 2210 1880 
2210 1879 1913 1880 
1881 1914 2212 1915 
2178 2212 2179 1881 
1881 1914 2211 2212 
2178 2212 1881 2211 
2179 1881 2212 1882 
2212 1881 1915 1882 
1882 1915 2213 1916 
2179 2213 2180 1882 
1882 1915 2212 2213 
2179 2213 1882 2212 
2180 1882 2213 1883 
2213 1882 1916 1883 
1883 1916 2214 1917 
2180 2214 2181 1883 
1883 1916 2213 2214 
2180 2214 1883 2213 
2181 1883 2214 1884 
2214 1883 1917 1884 
1884 1917 2215 1918 
2181 2215 2182 1884 
1884 1917 2214 2215 
2181 2215 1884 2214 
2182 1884 2215 1885 
2215 1884 1918 1885 
1885 1918 2216 1919 
2182 2216 2183 1885 
1885 1918 2215 2216 
2182 2216 1885 2215 
2183 1885 2216 1886 
2216 1885 1919 1886 
1886 1919 2217 1920 
2183 2217 2184 1886 
1886 1919 2216 2217 
2183 2217 1886 2216 
2184 1886 2217 1887 
2217 1886 1920 1887 
1887 1920 2218 1921 
2184 2218 2185 1887 
1887 1920 2217 2218 
2184 2218 1887 2217 
2185 1887 2218 1888 
2218 1887 1921 1888 
1888 1921 2219 1922 
2185 2219 2186 1888 
1888 1921 2218 2219 
2185 2219 1888 2218 
2186 1888 2219 1889 
2219 1888 1922 1889 
1889 1922 2220 1923 
2186 2220 2187 1889 
1889 1922 2219 2220 
2186 2220 1889 2219 
2187 1889 2220 1890 
2220 1889 1923 1890 
1890 1923 2221 1924 
2187 2221 2188 1890 
1890 1923 2220 2221 
2187 2221 1890 2220 
2188 1890 2221 1891 
2221 1890 1924 1891 
1891 1924 2222 1925 
2188 2222 2189 1891 
1891 1924 2221 2222 
2188 2222 1891 2221 
2189 1891 2222 1892 
2222 1891 1925 1892 
1892 1925 2223 1926 
2189 2223 2190 1892 
1892 1925 2222 2223 
2189 2223 1892 2222 
2190 1892 2223 1893 
2223 1892 1926 1893 
1893 1926 2224 1927 
2190 2224 2191 1893 
1893 1926 2223 2224 
2190 2224 1893 2223 
2191 1893 2224 1894 
2224 1893 1927 1894 
1894 1927 2225 1928 
2191 2225 2192 1894 
1894 1927 2224 2225 
2191 2225 1894 2224 
2192 1894 2225 1895 
2225 1894 1928 1895 
1895 1928 2226 1929 
2192 2226 2193 1895 
1895 1928 2225 2226 
2192 2226 1895 2225 
2193 1895 2226 1896 
2226 1895 1929 1896 
1896 1929 2227 1930 
2193 2227 2194 1896 
1896 1929 2226 2227 
2193 2227 1896 2226 
2194 1896 2227 1897 
2227 1896 1930 1897 
1897 1930 2228 1931 
2194 2228 2195 1897 
1897 1930 2227 2228 
2194 2228 1897 2227 
2195 1897 2228 1898 
2228 1897 1931 1898 
1898 1931 2229 1932 
2195 2229 2196 1898 
1898 1931 2228 2229 
2195 2229 1898 2228 
2196 1898 2229 1899 
2229 1898 1932 1899 
1899 1932 2230 1933 
2196 2230 2197 1899 
1899 1932 2229 2230 
2196 2230 1899 2229 
2197 1899 2230 1900 
2230 1899 1933 1900 
1900 1933 2231 1934 
2197 2231 2198 1900 
1900 1933 2230 2231 
2197 2231 1900 2230 
2198 1900 2231 1901 
2231 1900 1934 1901 
1901 1934 2232 1935 
2198 2232 2199 1901 
1901 1934 2231 2232 
2198 2232 1901 2231 
2199 1901 2232 1902 
2232 1901 1935 1902 
1902 1935 2233 1936 
2199 2233 2200 1902 
1902 1935 2232 2233 
2199 2233 1902 2232 
2200 1902 2233 1903 
2233 1902 1936 1903 
1903 1936 2234 1937 
2200 2234 2201 1903 
1903 1936 2233 2234 
2200 2234 1903 2233 
2201 1903 2234 1904 
2234 1903 1937 1904 
1904 1937 2235 1938 
2201 2235 2202 1904 
1904 1937 2234 2235 
2201 2235 1904 2234 
2202 1904 2235 1905 
2235 1904 1938 1905 
1905 1938 2236 1939 
2202 2236 2203 1905 
1905 1938 2235 2236 
2202 2236 1905 2235 
2203 1905 2236 1906 
2236 1905 1939 1906 
1906 1939 2237 1940 
2203 2237 2204 1906 
1906 1939 2236 2237 
2203 2237 1906 2236 
2204 1906 2237 1907 
2237 1906 1940 1907 
1907 1940 2238 1941 
2204 2238 2205 1907 
1907 1940 2237 2238 
2204 2238 1907 2237 
2205 1907 2238 1908 
2238 1907 1941 1908 
1908 1941 2239 1942 
2205 2239 2206 1908 
1908 1941 2238 2239 
2205 2239 1908 2238 
2206 1908 2239 1909 
2239 1908 1942 1909 
1909 1942 2240 1943 
2206 2240 2207 1909 
1909 1942 2239 2240 
2206 2240 1909 2239 
2207 1909 2240 1910 
2240 1909 1943 1910 
1910 1943 2241 1944 
2207 2241 2208 1910 
1910 1943 2240 2241 
2207 2241 1910 2240 
2208 1910 2241 1911 
2241 1910 1944 1911 
1911 1944 2242 1945 
2208 2242 2209 1911 
1911 1944 2241 2242 
2208 2242 1911 2241 
2209 1911 2242 1912 
2242 1911 1945 1912 
1912 1945 2243 1946 
2209 2243 2210 1912 
1912 1945 2242 2243 
2209 2243 1912 2242 
2210 1912 2243 1913 
2243 1912 1946 1913 
1914 1947 2245 1948 
2211 2245 2212 1914 
1914 1947 2244 2245 
2211 2245 1914 2244 
2212 1914 2245 1915 
2245 1914 1948 1915 
1915 1948 2246 1949 
2212 2246 2213 1915 
1915 1948 2245 2246 
2212 2246 1915 2245 
2213 1915 2246 1916 
2246 1915 1949 1916 
1916 1949 2247 1950 
2213 2247 2214 1916 
1916 1949 2246 2247 
2213 2247 1916 2246 
2214 1916 2247 1917 
2247 1916 1950 1917 
1917 1950 2248 1951 
2214 2248 2215 1917 
1917 1950 2247 2248 
2214 2248 1917 2247 
2215 1917 2248 1918 
2248 1917 1951 1918 
1918 1951 2249 1952 
2215 2249 2216 1918 
1918 1951 2248 2249 
2215 2249 1918 2248 
2216 1918 2249 1919 
2249 1918 1952 1919 
1919 1952 2250 1953 
2216 2250 2217 1919 
1919 1952 2249 2250 
2216 2250 1919 2249 
2217 1919 2250 1920 
2250 1919 1953 1920 
1920 1953 2251 1954 
2217 2251 2218 1920 
1920 1953 2250 2251 
2217 2251 1920 2250 
2218 1920 2251 1921 
2251 1920 1954 1921 
1921 1954 2252 1955 
2218 2252 2219 1921 
1921 1954 2251 2252 
2218 2252 1921 2251 
2219 1921 2252 1922 
2252 1921 1955 1922 
1922 1955 2253 1956 
2219 2253 2220 1922 
1922 1955 2252 2253 
2219 2253 1922 2252 
2220 1922 2253 1923 
2253 1922 1956 1923 
1923 1956 2254 1957 
2220 2254 2221 1923 
1923 1956 2253 2254 
2220 2254 1923 2253 
2221 1923 2254 1924 
2254 1923 1957 1924 
1924 1957 2255 1958 
2221 2255 2222 1924 
1924 1957 2254 2255 
2221 2255 1924 2254 
2222 1924 2255 1925 
2255 1924 1958 1925 
1925 1958 2256 1959 
2222 2256 2223 1925 
1925 1958 2255 2256 
2222 2256 1925 2255 
2223 1925 2256 1926 
2256 1925 1959 1926 
1926 1959 2257 1960 
2223 2257 2224 1926 
1926 1959 2256 2257 
2223 2257 1926 2256 
2224 1926 2257 1927 
2257 1926 1960 1927 
1927 1960 2258 1961 
2224 2258 2225 1927 
1927 1960 2257 2258 
2224 2258 1927 2257 
2225 1927 2258 1928 
2258 1927 1961 1928 
1928 1961 2259 1962 
2225 2259 2226 1928 
1928 1961 2258 2259 
2225 2259 1928 2258 
2226 1928 2259 1929 
2259 1928 1962 1929 
1929 1962 2260 1963 
2226 2260 2227 1929 
1929 1962 2259 2260 
2226 2260 1929 2259 
2227 1929 2260 1930 
2260 1929 1963 1930 
1930 1963 2261 1964 
2227 2261 2228 1930 
1930 1963 2260 2261 
2227 2261 1930 2260 
2228 1930 2261 1931 
2261 1930 1964 1931 
1931 1964 2262 1965 
2228 2262 2229 1931 
1931 1964 2261 2262 
2228 2262 1931 2261 
2229 1931 2262 1932 
2262 1931 1965 1932 
1932 1965 2263 1966 
2229 2263 2230 1932 
1932 1965 2262 2263 
2229 2263 1932 2262 
2230 1932 2263 1933 
2263 1932 1966 1933 
1933 1966 2264 1967 
2230 2264 2231 1933 
1933 1966 2263 2264 
2230 2264 1933 2263 
2231 1933 2264 1934 
2264 1933 1967 1934 
1934 1967 2265 1968 
2231 2265 2232 1934 
1934 1967 2264 2265 
2231 2265 1934 2264 
2232 1934 2265 1935 
2265 1934 1968 1935 
1935 1968 2266 1969 
2232 2266 2233 1935 
1935 1968 2265 2266 
2232 2266 1935 2265 
2233 1935 2266 1936 
2266 1935 1969 1936 
1936 1969 2267 1970 
2233 2267 2234 1936 
1936 1969 2266 2267 
2233 2267 1936 2266 
2234 1936 2267 1937 
2267 1936 1970 1937 
1937 1970 2268 1971 
2234 2268 2235 1937 
1937 1970 2267 2268 
2234 2268 1937 2267 
2235 1937 2268 1938 
2268 1937 1971 1938 
1938 1971 2269 1972 
2235 2269 2236 1938 
1938 1971 2268 2269 
2235 2269 1938 2268 
2236 1938 2269 1939 
2269 1938 1972 1939 
1939 1972 2270 1973 
2236 2270 2237 1939 
1939 1972 2269 2270 
2236 2270 1939 2269 
2237 1939 2270 1940 
2270 1939 1973 1940 
1940 1973 2271 1974 
2237 2271 2238 1940 
1940 1973 2270 2271 
2237 2271 1940 2270 
2238 1940 2271 1941 
2271 1940 1974 1941 
1941 1974 2272 1975 
2238 2272 2239 1941 
1941 1974 2271 2272 
2238 2272 1941 2271 
2239 1941 2272 1942 
2272 1941 1975 1942 
1942 1975 2273 1976 
2239 2273 2240 1942 
1942 1975 2272 2273 
2239 2273 1942 2272 
2240 1942 2273 1943 
2273 1942 1976 1943 
1943 1976 2274 1977 
2240 2274 2241 1943 
1943 1976 2273 2274 
2240 2274 1943 2273 
2241 1943 2274 1944 
2274 1943 1977 1944 
1944 1977 2275 1978 
2241 2275 2242 1944 
1944 1977 2274 2275 
2241 2275 1944 2274 
2242 1944 2275 1945 
2275 1944 1978 1945 
1945 1978 2276 1979 
2242 2276 2243 1945 
1945 1978 2275 2276 
2242 2276 1945 2275 
2243 1945 2276 1946 
2276 1945 1979 1946 
1947 1980 2278 1981 
2244 2278 2245 1947 
1947 1980 2277 2278 
2244 2278 1947 2277 
2245 1947 2278 1948 
2278 1947 1981 1948 
1948 1981 2279 1982 
2245 2279 2246 1948 
1948 1981 2278 2279 
2245 2279 1948 2278 
2246 1948 2279 1949 
2279 1948 1982 1949 
1949 1982 2280 1983 
2246 2280 2247 1949 
1949 1982 2279 2280 
2246 2280 1949 2279 
2247 1949 2280 1950 
2280 1949 1983 1950 
1950 1983 2281 1984 
2247 2281 2248 1950 
1950 1983 2280 2281 
2247 2281 1950 2280 
2248 1950 2281 1951 
2281 1950 1984 1951 
1951 1984 2282 1985 
2248 2282 2249 1951 
1951 1984 2281 2282 
2248 2282 1951 2281 
2249 1951 2282 1952 
2282 1951 1985 1952 
1952 1985 2283 1986 
2249 2283 2250 1952 
1952 1985 2282 2283 
2249 2283 1952 2282 
2250 1952 2283 1953 
2283 1952 1986 1953 
1953 1986 2284 1987 
2250 2284 2251 1953 
1953 1986 2283 2284 
2250 2284 1953 2283 
2251 1953 2284 1954 
2284 1953 1987 1954 
1954 1987 2285 1988 
2251 2285 2252 1954 
1954 1987 2284 2285 
2251 2285 1954 2284 
2252 1954 2285 1955 
2285 1954 1988 1955 
1955 1988 2286 1989 
2252 2286 2253 1955 
1955 1988 2285 2286 
2252 2286 1955 2285 
2253 1955 2286 1956 
2286 1955 1989 1956 
1956 1989 2287 1990 
2253 2287 2254 1956 
1956 1989 2286 2287 
2253 2287 1956 2286 
2254 1956 2287 1957 
2287 1956 1990 1957 
1957 1990 2288 1991 
2254 2288 2255 1957 
1957 1990 2287 2288 
2254 2288 1957 2287 
2255 1957 2288 1958 
2288 1957 1991 1958 
1958 1991 2289 1992 
2255 2289 2256 1958 
1958 1991 2288 2289 
2255 2289 1958 2288 
2256 1958 2289 1959 
2289 1958 1992 1959 
1959 1992 2290 1993 
2256 2290 2257 1959 
1959 1992 2289 2290 
2256 2290 1959 2289 
2257 1959 2290 1960 
2290 1959 1993 1960 
1960 1993 2291 1994 
2257 2291 2258 1960 
1960 1993 2290 2291 
2257 2291 1960 2290 
2258 1960 2291 1961 
2291 1960 1994 1961 
1961 1994 2292 1995 
2258 2292 2259 1961 
1961 1994 2291 2292 
2258 2292 1961 2291 
2259 1961 2292 1962 
2292 1961 1995 1962 
1962 1995 2293 1996 
2259 2293 2260 1962 
1962 1995 2292 2293 
2259 2293 1962 2292 
2260 1962 2293 1963 
2293 1962 1996 1963 
1963 1996 2294 1997 
2260 2294 2261 1963 
1963 1996 2293 2294 
2260 2294 1963 2293 
2261 1963 2294 1964 
2294 1963 1997 1964 
1964 1997 2295 1998 
2261 2295 2262 1964 
1964 1997 2294 2295 
2261 2295 1964 2294 
2262 1964 2295 1965 
2295 1964 1998 1965 
1965 1998 2296 1999 
2262 2296 2263 1965 
1965 1998 2295 2296 
2262 2296 1965 2295 
2263 1965 2296 1966 
2296 1965 1999 1966 
1966 1999 2297 2000 
2263 2297 2264 1966 
1966 1999 2296 2297 
2263 2297 1966 2296 
2264 1966 2297 1967 
2297 1966 2000 1967 
1967 2000 2298 2001 
2264 2298 2265 1967 
1967 2000 2297 2298 
2264 2298 1967 2297 
2265 1967 2298 1968 
2298 1967 2001 1968 
1968 2001 2299 2002 
2265 2299 2266 1968 
1968 2001 2298 2299 
2265 2299 1968 2298 
2266 1968 2299 1969 
2299 1968 2002 1969 
1969 2002 2300 2003 
2266 2300 2267 1969 
1969 2002 2299 2300 
2266 2300 1969 2299 
2267 1969 2300 1970 
2300 1969 2003 1970 
1970 2003 2301 2004 
2267 2301 2268 1970 
1970 2003 2300 2301 
2267 2301 1970 2300 
2268 1970 2301 1971 
2301 1970 2004 1971 
1971 2004 2302 2005 
2268 2302 2269 1971 
1971 2004 2301 2302 
2268 2302 1971 2301 
2269 1971 2302 1972 
2302 1971 2005 1972 
1972 2005 2303 2006 
2269 2303 2270 1972 
1972 2005 2302 2303 
2269 2303 1972 2302 
2270 1972 2303 1973 
2303 1972 2006 1973 
1973 2006 2304 2007 
2270 2304 2271 1973 
1973 2006 2303 2304 
2270 2304 1973 2303 
2271 1973 2304 1974 
2304 1973 2007 1974 
1974 2007 2305 2008 
2271 2305 2272 1974 
1974 2007 2304 2305 
2271 2305 1974 2304 
2272 1974 2305 1975 
2305 1974 2008 1975 
1975 2008 2306 2009 
2272 2306 2273 1975 
1975 2008 2305 2306 
2272 2306 1975 2305 
2273 1975 2306 1976 
2306 1975 2009 1976 
1976 2009 2307 2010 
2273 2307 2274 1976 
1976 2009 2306 2307 
2273 2307 1976 2306 
2274 1976 2307 1977 
2307 1976 2010 1977 
1977 2010 2308 2011 
2274 2308 2275 1977 
1977 2010 2307 2308 
2274 2308 1977 2307 
2275 1977 2308 1978 
2308 1977 2011 1978 
1978 2011 2309 2012 
2275 2309 2276 1978 
1978 2011 2308 2309 
2275 2309 1978 2308 
2276 1978 2309 1979 
2309 1978 2012 1979 
1980 2013 2311 2014 
2277 2311 2278 1980 
1980 2013 2310 2311 
2277 2311 1980 2310 
2278 1980 2311 1981 
2311 1980 2014 1981 
1981 2014 2312 2015 
2278 2312 2279 1981 
1981 2014 2311 2312 
2278 2312 1981 2311 
2279 1981 2312 1982 
2312 1981 2015 1982 
1982 2015 2313 2016 
2279 2313 2280 1982 
1982 2015 2312 2313 
2279 2313 1982 2312 
2280 1982 2313 1983 
2313 1982 2016 1983 
1983 2016 2314 2017 
2280 2314 2281 1983 
1983 2016 2313 2314 
2280 2314 1983 2313 
2281 1983 2314 1984 
2314 1983 2017 1984 
1984 2017 2315 2018 
2281 2315 2282 1984 
1984 2017 2314 2315 
2281 2315 1984 2314 
2282 1984 2315 1985 
2315 1984 2018 1985 
1985 2018 2316 2019 
2282 2316 2283 1985 
1985 2018 2315 2316 
2282 2316 1985 2315 
2283 1985 2316 1986 
2316 1985 2019 1986 
1986 2019 2317 2020 
2283 2317 2284 1986 
1986 2019 2316 2317 
2283 2317 1986 2316 
2284 1986 2317 1987 
2317 1986 2020 1987 
1987 2020 2318 2021 
2284 2318 2285 1987 
1987 2020 2317 2318 
2284 2318 1987 2317 
2285 1987 2318 1988 
2318 1987 2021 1988 
1988 2021 2319 2022 
2285 2319 2286 1988 
1988 2021 2318 2319 
2285 2319 1988 2318 
2286 1988 2319 1989 
2319 1988 2022 1989 
1989 2022 2320 2023 
2286 2320 2287 1989 
1989 2022 2319 2320 
2286 2320 1989 2319 
2287 1989 2320 1990 
2320 1989 2023 1990 
1990 2023 2321 2024 
2287 2321 2288 1990 
1990 2023 2320 2321 
2287 2321 1990 2320 
2288 1990 2321 1991 
2321 1990 2024 1991 
1991 2024 2322 2025 
2288 2322 2289 1991 
1991 2024 2321 2322 
2288 2322 1991 2321 
2289 1991 2322 1992 
2322 1991 2025 1992 
1992 2025 2323 2026 
2289 2323 2290 1992 
1992 2025 2322 2323 
2289 2323 1992 2322 
2290 1992 2323 1993 
2323 1992 2026 1993 
1993 2026 2324 2027 
2290 2324 2291 1993 
1993 2026 2323 2324 
2290 2324 1993 2323 
2291 1993 2324 1994 
2324 1993 2027 1994 
1994 2027 2325 2028 
2291 2325 2292 1994 
1994 2027 2324 2325 
2291 2325 1994 2324 
2292 1994 2325 1995 
2325 1994 2028 1995 
1995 2028 2326 2029 
2292 2326 2293 1995 
1995 2028 2325 2326 
2292 2326 1995 2325 
2293 1995 2326 1996 
2326 1995 2029 1996 
1996 2029 2327 2030 
2293 2327 2294 1996 
1996 2029 2326 2327 
2293 2327 1996 2326 
2294 1996 2327 1997 
2327 1996 2030 1997 
1997 2030 2328 2031 
2294 2328 2295 1997 
1997 2030 2327 2328 
2294 2328 1997 2327 
2295 1997 2328 1998 
2328 1997 2031 1998 
1998 2031 2329 2032 
2295 2329 2296 1998 
1998 2031 2328 2329 
2295 2329 1998 2328 
2296 1998 2329 1999 
2329 1998 2032 1999 
1999 2032 2330 2033 
2296 2330 2297 1999 
1999 2032 2329 2330 
2296 2330 1999 2329 
2297 1999 2330 2000 
2330 1999 2033 2000 
2000 2033 2331 2034 
2297 2331 2298 2000 
2000 2033 2330 2331 
2297 2331 2000 2330 
2298 2000 2331 2001 
2331 2000 2034 2001 
2001 2034 2332 2035 
2298 2332 2299 2001 
2001 2034 2331 2332 
2298 2332 2001 2331 
2299 2001 2332 2002 
2332 2001 2035 2002 
2002 2035 2333 2036 
2299 2333 2300 2002 
2002 2035 2332 2333 
2299 2333 2002 2332 
2300 2002 2333 2003 
2333 2002 2036 2003 
2003 2036 2334 2037 
2300 2334 2301 2003 
2003 2036 2333 2334 
2300 2334 2003 2333 
2301 2003 2334 2004 
2334 2003 2037 2004 
2004 2037 2335 2038 
2301 2335 2302 2004 
2004 2037 2334 2335 
2301 2335 2004 2334 
2302 2004 2335 2005 
2335 2004 2038 2005 
2005 2038 2336 2039 
2302 2336 2303 2005 
2005 2038 2335 2336 
2302 2336 2005 2335 
2303 2005 2336 2006 
2336 2005 2039 2006 
2006 2039 2337 2040 
2303 2337 2304 2006 
2006 2039 2336 2337 
2303 2337 2006 2336 
2304 2006 2337 2007 
2337 2006 2040 2007 
2007 2040 2338 2041 
2304 2338 2305 2007 
2007 2040 2337 2338 
2304 2338 2007 2337 
2305 2007 2338 2008 
2338 2007 2041 2008 
2008 2041 2339 2042 
2305 2339 2306 2008 
2008 2041 2338 2339 
2305 2339 2008 2338 
2306 2008 2339 2009 
2339 2008 2042 2009 
2009 2042 2340 2043 
2306 2340 2307 2009 
2009 2042 2339 2340 
2306 2340 2009 2339 
2307 2009 2340 2010 
2340 2009 2043 2010 
2010 2043 2341 2044 
2307 2341 2308 2010 
2010 2043 2340 2341 
2307 2341 2010 2340 
2308 2010 2341 2011 
2341 2010 2044 2011 
2011 2044 2342 2045 
2308 2342 2309 2011 
2011 2044 2341 2342 
2308 2342 2011 2341 
2309 2011 2342 2012 
2342 2011 2045 2012 
2013 2046 2344 2047 
2310 2344 2311 2013 
2013 2046 2343 2344 
2310 2344 2013 2343 
2311 2013 2344 2014 
2344 2013 2047 2014 
2014 2047 2345 2048 
2311 2345 2312 2014 
2014 2047 2344 2345 
2311 2345 2014 2344 
2312 2014 2345 2015 
2345 2014 2048 2015 
2015 2048 2346 2049 
2312 2346 2313 2015 
2015 2048 2345 2346 
2312 2346 2015 2345 
2313 2015 2346 2016 
2346 2015 2049 2016 
2016 2049 2347 2050 
2313 2347 2314 2016 
2016 2049 2346 2347 
2313 2347 2016 2346 
2314 2016 2347 2017 
2347 2016 2050 2017 
2017 2050 2348 2051 
2314 2348 2315 2017 
2017 2050 2347 2348 
2314 2348 2017 2347 
2315 2017 2348 2018 
2348 2017 2051 2018 
2018 2051 2349 2052 
2315 2349 2316 2018 
2018 2051 2348 2349 
2315 2349 2018 2348 
2316 2018 2349 2019 
2349 2018 2052 2019 
2019 2052 2350 2053 
2316 2350 2317 2019 
2019 2052 2349 2350 
2316 2350 2019 2349 
2317 2019 2350 2020 
2350 2019 2053 2020 
2020 2053 2351 2054 
2317 2351 2318 2020 
2020 2053 2350 2351 
2317 2351 2020 2350 
2318 2020 2351 2021 
2351 2020 2054 2021 
2021 2054 2352 2055 
2318 2352 2319 2021 
2021 2054 2351 2352 
2318 2352 2021 2351 
2319 2021 2352 2022 
2352 2021 2055 2022 
2022 2055 2353 2056 
2319 2353 2320 2022 
2022 2055 2352 2353 
2319 2353 2022 2352 
2320 2022 2353 2023 
2353 2022 2056 2023 
2023 2056 2354 2057 
2320 2354 2321 2023 
2023 2056 2353 2354 
2320 2354 2023 2353 
2321 2023 2354 2024 
2354 2023 2057 2024 
2024 2057 2355 2058 
2321 2355 2322 2024 
2024 2057 2354 2355 
2321 2355 2024 2354 
2322 2024 2355 2025 
2355 2024 2058 2025 
2025 2058 2356 2059 
2322 2356 2323 2025 
2025 2058 2355 2356 
2322 2356 2025 2355 
2323 2025 2356 2026 
2356 2025 2059 2026 
2026 2059 2357 2060 
2323 2357 2324 2026 
2026 2059 2356 2357 
2323 2357 2026 2356 
2324 2026 2357 2027 
2357 2026 2060 2027 
2027 2060 2358 2061 
2324 2358 2325 2027 
2027 2060 2357 2358 
2324 2358 2027 2357 
2325 2027 2358 2028 
2358 2027 2061 2028 
2028 2061 2359 2062 
2325 2359 2326 2028 
2028 2061 2358 2359 
2325 2359 2028 2358 
2326 2028 2359 2029 
2359 2028 2062 2029 
2029 2062 2360 2063 
2326 2360 2327 2029 
2029 2062 2359 2360 
2326 2360 2029 2359 
2327 2029 2360 2030 
2360 2029 2063 2030 
2030 2063 2361 2064 
2327 2361 2328 2030 
2030 2063 2360 2361 
2327 2361 2030 2360 
2328 2030 2361 2031 
2361 2030 2064 2031 
2031 2064 2362 2065 
2328 2362 2329 2031 
2031 2064 2361 2362 
2328 2362 2031 2361 
2329 2031 2362 2032 
2362 2031 2065 2032 
2032 2065 2363 2066 
2329 2363 2330 2032 
2032 2065 2362 2363 
2329 2363 2032 2362 
2330 2032 2363 2033 
2363 2032 2066 2033 
2033 2066 2364 2067 
2330 2364 2331 2033 
2033 2066 2363 2364 
2330 2364 2033 2363 
2331 2033 2364 2034 
2364 2033 2067 2034 
2034 2067 2365 2068 
2331 2365 2332 2034 
2034 2067 2364 2365 
2331 2365 2034 2364 
2332 2034 2365 2035 
2365 2034 2068 2035 
2035 2068 2366 2069 
2332 2366 2333 2035 
2035 2068 2365 2366 
2332 2366 2035 2365 
2333 2035 2366 2036 
2366 2035 2069 2036 
2036 2069 2367 2070 
2333 2367 2334 2036 
2036 2069 2366 2367 
2333 2367 2036 2366 
2334 2036 2367 2037 
2367 2036 2070 2037 
2037 2070 2368 2071 
2334 2368 2335 2037 
2037 2070 2367 2368 
2334 2368 2037 2367 
2335 2037 2368 2038 
2368 2037 2071 2038 
2038 2071 2369 2072 
2335 2369 2336 2038 
2038 2071 2368 2369 
2335 2369 2038 2368 
2336 2038 2369 2039 
2369 2038 2072 2039 
2039 2072 2370 2073 
2336 2370 2337 2039 
2039 2072 2369 2370 
2336 2370 2039 2369 
2337 2039 2370 2040 
2370 2039 2073 2040 
2040 2073 2371 2074 
2337 2371 2338 2040 
2040 2073 2370 2371 
2337 2371 2040 2370 
2338 2040 2371 2041 
2371 2040 2074 2041 
2041 2074 2372 2075 
2338 2372 2339 2041 
2041 2074 2371 2372 
2338 2372 2041 2371 
2339 2041 2372 2042 
2372 2041 2075 2042 
2042 2075 2373 2076 
2339 2373 2340 2042 
2042 2075 2372 2373 
2339 2373 2042 2372 
2340 2042 2373 2043 
2373 2042 2076 2043 
2043 2076 2374 2077 
2340 2374 2341 2043 
2043 2076 2373 2374 
2340 2374 2043 2373 
2341 2043 2374 2044 
2374 2043 2077 2044 
2044 2077 2375 2078 
2341 2375 2342 2044 
2044 2077 2374 2375 
2341 2375 2044 2374 
2342 2044 2375 2045 
2375 2044 2078 2045 
2079 2112 2410 2113 
2376 2410 2377 2079 
2079 2112 2409 2410 
2376 2410 2079 2409 
2377 2079 2410 2080 
2410 2079 2113 2080 
2080 2113 2411 2114 
2377 2411 2378 2080 
2080 2113 2410 2411 
2377 2411 2080 2410 
2378 2080 2411 2081 
2411 2080 2114 2081 
2081 2114 2412 2115 
2378 2412 2379 2081 
2081 2114 2411 2412 
2378 2412 2081 2411 
2379 2081 2412 2082 
2412 2081 2115 2082 
2082 2115 2413 2116 
2379 2413 2380 2082 
2082 2115 2412 2413 
2379 2413 2082 2412 
2380 2082 2413 2083 
2413 2082 2116 2083 
2083 2116 2414 2117 
2380 2414 2381 2083 
2083 2116 2413 2414 
2380 2414 2083 2413 
2381 2083 2414 2084 
2414 2083 2117 2084 
2084 2117 2415 2118 
2381 2415 2382 2084 
2084 2117 2414 2415 
2381 2415 2084 2414 
2382 2084 2415 2085 
2415 2084 2118 2085 
2085 2118 2416 2119 
2382 2416 2383 2085 
2085 2118 2415 2416 
2382 2416 2085 2415 
2383 2085 2416 2086 
2416 2085 2119 2086 
2086 2119 2417 2120 
2383 2417 2384 2086 
2086 2119 2416 2417 
2383 2417 2086 2416 
2384 2086 2417 2087 
2417 2086 2120 2087 
2087 2120 2418 2121 
2384 2418 2385 2087 
2087 2120 2417 2418 
2384 2418 2087 2417 
2385 2087 2418 2088 
2418 2087 2121 2088 
2088 2121 2419 2122 
2385 2419 2386 2088 
2088 2121 2418 2419 
2385 2419 2088 2418 
2386 2088 2419 2089 
2419 2088 2122 2089 
2089 2122 2420 2123 
2386 2420 2387 2089 
2089 2122 2419 2420 
2386 2420 2089 2419 
2387 2089 2420 2090 
2420 2089 2123 2090 
2090 2123 2421 2124 
2387 2421 2388 2090 
2090 2123 2420 2421 
2387 2421 2090 2420 
2388 2090 2421 2091 
2421 2090 2124 2091 
2091 2124 2422 2125 
2388 2422 2389 2091 
2091 2124 2421 2422 
2388 2422 2091 2421 
2389 2091 2422 2092 
2422 2091 2125 2092 
2092 2125 2423 2126 
2389 2423 2390 2092 
2092 2125 2422 2423 
2389 2423 2092 2422 
2390 2092 2423 2093 
2423 2092 2126 2093 
2093 2126 2424 2127 
2390 2424 2391 2093 
2093 2126 2423 2424 
2390 2424 2093 2423 
2391 2093 2424 2094 
2424 2093 2127 2094 
2094 2127 2425 2128 
2391 2425 2392 2094 
2094 2127 2424 2425 
2391 2425 2094 2424 
2392 2094 2425 2095 
2425 2094 2128 2095 
2095 2128 2426 2129 
2392 2426 2393 2095 
2095 2128 2425 2426 
2392 2426 2095 2425 
2393 2095 2426 2096 
2426 2095 2129 2096 
2096 2129 2427 2130 
2393 2427 2394 2096 
2096 2129 2426 2427 
2393 2427 2096 2426 
2394 2096 2427 2097 
2427 2096 2130 2097 
2097 2130 2428 2131 
2394 2428 2395 2097 
2097 2130 2427 2428 
2394 2428 2097 2427 
2395 2097 2428 2098 
2428 2097 2131 2098 
2098 2131 2429 2132 
2395 2429 2396 2098 
2098 2131 2428 2429 
2395 2429 2098 2428 
2396 2098 2429 2099 
2429 2098 2132 2099 
2099 2132 2430 2133 
2396 2430 2397 2099 
2099 2132 2429 2430 
2396 2430 2099 2429 
2397 2099 2430 2100 
2430 2099 2133 2100 
2100 2133 2431 2134 
2397 2431 2398 2100 
2100 2133 2430 2431 
2397 2431 2100 2430 
2398 2100 2431 2101 
2431 2100 2134 2101 
2101 2134 2432 2135 
2398 2432 2399 2101 
2101 2134 2431 2432 
2398 2432 2101 2431 
2399 2101 2432 2102 
2432 2101 2135 2102 
2102 2135 2433 2136 
2399 2433 2400 2102 
2102 2135 2432 2433 
2399 2433 2102 2432 
2400 2102 2433 2103 
2433 2102 2136 2103 
2103 2136 2434 2137 
2400 2434 2401 2103 
2103 2136 2433 2434 
2400 2434 2103 2433 
2401 2103 2434 2104 
2434 2103 2137 2104 
2104 2137 2435 2138 
2401 2435 2402 2104 
2104 2137 2434 2435 
2401 2435 2104 2434 
2402 2104 2435 2105 
2435 2104 2138 2105 
2105 2138 2436 2139 
2402 2436 2403 2105 
2105 2138 2435 2436 
2402 2436 2105 2435 
2403 2105 2436 2106 
2436 2105 2139 2106 
2106 2139 2437 2140 
2403 2437 2404 2106 
2106 2139 2436 2437 
2403 2437 2106 2436 
2404 2106 2437 2107 
2437 2106 2140 2107 
2107 2140 2438 2141 
2404 2438 2405 2107 
2107 2140 2437 2438 
2404 2438 2107 2437 
2405 2107 2438 2108 
2438 2107 2141 2108 
2108 2141 2439 2142 
2405 2439 2406 2108 
2108 2141 2438 2439 
2405 2439 2108 2438 
2406 2108 2439 2109 
2439 2108 2142 2109 
2109 2142 2440 2143 
2406 2440 2407 2109 
2109 2142 2439 2440 
2406 2440 2109 2439 
2407 2109 2440 2110 
2440 2109 2143 2110 
2110 2143 2441 2144 
2407 2441 2408 2110 
2110 2143 2440 2441 
2407 2441 2110 2440 
2408 2110 2441 2111 
2441 2110 2144 2111 
2112 2145 2443 2146 
2409 2443 2410 2112 
2112 2145 2442 2443 
2409 2443 2112 2442 
2410 2112 2443 2113 
2443 2112 2146 2113 
2113 2146 2444 2147 
2410 2444 2411 2113 
2113 2146 2443 2444 
2410 2444 2113 2443 
2411 2113 2444 2114 
2444 2113 2147 2114 
2114 2147 2445 2148 
2411 2445 2412 2114 
2114 2147 2444 2445 
2411 2445 2114 2444 
2412 2114 2445 2115 
2445 2114 2148 2115 
2115 2148 2446 2149 
2412 2446 2413 2115 
2115 2148 2445 2446 
2412 2446 2115 2445 
2413 2115 2446 2116 
2446 2115 2149 2116 
2116 2149 2447 2150 
2413 2447 2414 2116 
2116 2149 2446 2447 
2413 2447 2116 2446 
2414 2116 2447 2117 
2447 2116 2150 2117 
2117 2150 2448 2151 
2414 2448 2415 2117 
2117 2150 2447 2448 
2414 2448 2117 2447 
2415 2117 2448 2118 
2448 2117 2151 2118 
2118 2151 2449 2152 
2415 2449 2416 2118 
2118 2151 2448 2449 
2415 2449 2118 2448 
2416 2118 2449 2119 
2449 2118 2152 2119 
2119 2152 2450 2153 
2416 2450 2417 2119 
2119 2152 2449 2450 
2416 2450 2119 2449 
2417 2119 2450 2120 
2450 2119 2153 2120 
2120 2153 2451 2154 
2417 2451 2418 2120 
2120 2153 2450 2451 
2417 2451 2120 2450 
2418 2120 2451 2121 
2451 2120 2154 2121 
2121 2154 2452 2155 
2418 2452 2419 2121 
2121 2154 2451 2452 
2418 2452 2121 2451 
2419 2121 2452 2122 
2452 2121 2155 2122 
2122 2155 2453 2156 
2419 2453 2420 2122 
2122 2155 2452 2453 
2419 2453 2122 2452 
2420 2122 2453 2123 
2453 2122 2156 2123 
2123 2156 2454 2157 
2420 2454 2421 2123 
2123 2156 2453 2454 
2420 2454 2123 2453 
2421 2123 2454 2124 
2454 2123 2157 2124 
2124 2157 2455 2158 
2421 2455 2422 2124 
2124 2157 2454 2455 
2421 2455 2124 2454 
2422 2124 2455 2125 
2455 2124 2158 2125 
2125 2158 2456 2159 
2422 2456 2423 2125 
2125 2158 2455 2456 
2422 2456 2125 2455 
2423 2125 2456 2126 
2456 2125 2159 2126 
2126 2159 2457 2160 
2423 2457 2424 2126 
2126 2159 2456 2457 
2423 2457 2126 2456 
2424 2126 2457 2127 
2457 2126 2160 2127 
2127 2160 2458 2161 
2424 2458 2425 2127 
2127 2160 2457 2458 
2424 2458 2127 2457 
2425 2127 2458 2128 
2458 2127 2161 2128 
2128 2161 2459 2162 
2425 2459 2426 2128 
2128 2161 2458 2459 
2425 2459 2128 2458 
2426 2128 2459 2129 
2459 2128 2162 2129 
2129 2162 2460 2163 
2426 2460 2427 2129 
2129 2162 2459 2460 
2426 2460 2129 2459 
2427 2129 2460 2130 
2460 2129 2163 2130 
2130 2163 2461 2164 
2427 2461 2428 2130 
2130 2163 2460 2461 
2427 2461 2130 2460 
2428 2130 2461 2131 
2461 2130 2164 2131 
2131 2164 2462 2165 
2428 2462 2429 2131 
2131 2164 2461 2462 
2428 2462 2131 2461 
2429 2131 2462 2132 
2462 2131 2165 2132 
2132 2165 2463 2166 
2429 2463 2430 2132 
2132 2165 2462 2463 
2429 2463 2132 2462 
2430 2132 2463 2133 
2463 2132 2166 2133 
2133 2166 2464 2167 
2430 2464 2431 2133 
2133 2166 2463 2464 
2430 2464 2133 2463 
2431 2133 2464 2134 
2464 2133 2167 2134 
2134 2167 2465 2168 
2431 2465 2432 2134 
2134 2167 2464 2465 
2431 2465 2134 2464 
2432 2134 2465 2135 
2465 2134 2168 2135 
2135 2168 2466 2169 
2432 2466 2433 2135 
2135 2168 2465 2466 
2432 2466 2135 2465 
2433 2135 2466 2136 
2466 2135 2169 2136 
2136 2169 2467 2170 
2433 2467 2434 2136 
2136 2169 2466 2467 
2433 2467 2136 2466 
2434 2136 2467 2137 
2467 2136 2170 2137 
2137 2170 2468 2171 
2434 2468 2435 2137 
2137 2170 2467 2468 
2434 2468 2137 2467 
2435 2137 2468 2138 
2468 2137 2171 2138 
2138 2171 2469 2172 
2435 2469 2436 2138 
2138 2171 2468 2469 
2435 2469 2138 2468 
2436 2138 2469 2139 
2469 2138 2172 2139 
2139 2172 2470 2173 
2436 2470 2437 2139 
2139 2172 2469 2470 
2436 2470 2139 2469 
2437 2139 2470 2140 
2470 2139 2173 2140 
2140 2173 2471 2174 
2437 2471 2438 2140 
2140 2173 2470 2471 
2437 2471 2140 2470 
2438 2140 2471 2141 
2471 2140 2174 2141 
2141 2174 2472 2175 
2438 2472 2439 2141 
2141 2174 2471 2472 
2438 2472 2141 2471 
2439 2141 2472 2142 
2472 2141 2175 2142 
2142 2175 2473 2176 
2439 2473 2440 2142 
2142 2175 2472 2473 
2439 2473 2142 2472 
2440 2142 2473 2143 
2473 2142 2176 2143 
2143 2176 2474 2177 
2440 2474 2441 2143 
2143 2176 2473 2474 
2440 2474 2143 2473 
2441 2143 2474 2144 
2474 2143 2177 2144 
2145 2178 2476 2179 
2442 2476 2443 2145 
2145 2178 2475 2476 
2442 2476 2145 2475 
2443 2145 2476 2146 
2476 2145 2179 2146 
2146 2179 2477 2180 
2443 2477 2444 2146 
2146 2179 2476 2477 
2443 2477 2146 2476 
2444 2146 2477 2147 
2477 2146 2180 2147 
2147 2180 2478 2181 
2444 2478 2445 2147 
2147 2180 2477 2478 
2444 2478 2147 2477 
2445 2147 2478 2148 
2478 2147 2181 2148 
2148 2181 2479 2182 
2445 2479 2446 2148 
2148 2181 2478 2479 
2445 2479 2148 2478 
2446 2148 2479 2149 
2479 2148 2182 2149 
2149 2182 2480 2183 
2446 2480 2447 2149 
2149 2182 2479 2480 
2446 2480 2149 2479 
2447 2149 2480 2150 
2480 2149 2183 2150 
2150 2183 2481 2184 
2447 2481 2448 2150 
2150 2183 2480 2481 
2447 2481 2150 2480 
2448 2150 2481 2151 
2481 2150 2184 2151 
2151 2184 2482 2185 
2448 2482 2449 2151 
2151 2184 2481 2482 
2448 2482 2151 2481 
2449 2151 2482 2152 
2482 2151 2185 2152 
2152 2185 2483 2186 
2449 2483 2450 2152 
2152 2185 2482 2483 
2449 2483 2152 2482 
2450 2152 2483 2153 
2483 2152 2186 2153 
2153 2186 2484 2187 
2450 2484 2451 2153 
2153 2186 2483 2484 
2450 2484 2153 2483 
2451 2153 2484 2154 
2484 2153 2187 2154 
2154 2187 2485 2188 
2451 2485 2452 2154 
2154 2187 2484 2485 
2451 2485 2154 2484 
2452 2154 2485 2155 
2485 2154 2188 2155 
2155 2188 2486 2189 
2452 2486 2453 2155 
2155 2188 2485 2486 
2452 2486 2155 2485 
2453 2155 2486 2156 
2486 2155 2189 2156 
2156 2189 2487 2190 
2453 2487 2454 2156 
2156 2189 2486 2487 
2453 2487 2156 2486 
2454 2156 2487 2157 
2487 2156 2190 2157 
2157 2190 2488 2191 
2454 2488 2455 2157 
2157 2190 2487 2488 
2454 2488 2157 2487 
2455 2157 2488 2158 
2488 2157 2191 2158 
2158 2191 2489 2192 
2455 2489 2456 2158 
2158 2191 2488 2489 
2455 2489 2158 2488 
2456 2158 2489 2159 
2489 2158 2192 2159 
2159 2192 2490 2193 
2456 2490 2457 2159 
2159 2192 2489 2490 
2456 2490 2159 2489 
2457 2159 2490 2160 
2490 2159 2193 2160 
2160 2193 2491 2194 
2457 2491 2458 2160 
2160 2193 2490 2491 
2457 2491 2160 2490 
2458 2160 2491 2161 
2491 2160 2194 2161 
2161 2194 2492 2195 
2458 2492 2459 2161 
2161 2194 2491 2492 
2458 2492 2161 2491 
2459 2161 2492 2162 
2492 2161 2195 2162 
2162 2195 2493 2196 
2459 2493 2460 2162 
2162 2195 2492 2493 
2459 2493 2162 2492 
2460 2162 2493 2163 
2493 2162 2196 2163 
2163 2196 2494 2197 
2460 2494 2461 2163 
2163 2196 2493 2494 
2460 2494 2163 2493 
2461 2163 2494 2164 
2494 2163 2197 2164 
2164 2197 2495 2198 
2461 2495 2462 2164 
2164 2197 2494 2495 
2461 2495 2164 2494 
2462 2164 2495 2165 
2495 2164 2198 2165 
2165 2198 2496 2199 
2462 2496 2463 2165 
2165 2198 2495 2496 
2462 2496 2165 2495 
2463 2165 2496 2166 
2496 2165 2199 2166 
2166 2199 2497 2200 
2463 2497 2464 2166 
2166 2199 2496 2497 
2463 2497 2166 2496 
2464 2166 2497 2167 
2497 2166 2200 2167 
2167 2200 2498 2201 
2464 2498 2465 2167 
2167 2200 2497 2498 
2464 2498 2167 2497 
2465 2167 2498 2168 
2498 2167 2201 2168 
2168 2201 2499 2202 
2465 2499 2466 2168 
2168 2201 2498 2499 
2465 2499 2168 2498 
2466 2168 2499 2169 
2499 2168 2202 2169 
2169 2202 2500 2203 
2466 2500 2467 2169 
2169 2202 2499 2500 
2466 2500 2169 2499 
2467 2169 2500 2170 
2500 2169 2203 2170 
2170 2203 2501 2204 
2467 2501 2468 2170 
2170 2203 2500 2501 
2467 2501 2170 2500 
2468 2170 2501 2171 
2501 2170 2204 2171 
2171 2204 2502 2205 
2468 2502 2469 2171 
2171 2204 2501 2502 
2468 2502 2171 2501 
2469 2171 2502 2172 
2502 2171 2205 2172 
2172 2205 2503 2206 
2469 2503 2470 2172 
2172 2205 2502 2503 
2469 2503 2172 2502 
2470 2172 2503 2173 
2503 2172 2206 2173 
2173 2206 2504 2207 
2470 2504 2471 2173 
2173 2206 2503 2504 
2470 2504 2173 2503 
2471 2173 2504 2174 
2504 2173 2207 2174 
2174 2207 2505 2208 
2471 2505 2472 2174 
2174 2207 2504 2505 
2471 2505 2174 2504 
2472 2174 2505 2175 
2505 2174 2208 2175 
2175 2208 2506 2209 
2472 2506 2473 2175 
2175 2208 2505 2506 
2472 2506 2175 2505 
2473 2175 2506 2176 
2506 2175 2209 2176 
2176 2209 2507 2210 
2473 2507 2474 2176 
2176 2209 2506 2507 
2473 2507 2176 2506 
2474 2176 2507 2177 
2507 2176 2210 2177 
2178 2211 2509 2212 
2475 2509 2476 2178 
2178 2211 2508 2509 
2475 2509 2178 2508 
2476 2178 2509 2179 
2509 2178 2212 2179 
2179 2212 2510 2213 
2476 2510 2477 2179 
2179 2212 2509 2510 
2476 2510 2179 2509 
2477 2179 2510 2180 
2510 2179 2213 2180 
2180 2213 2511 2214 
2477 2511 2478 2180 
2180 2213 2510 2511 
2477 2511 2180 2510 
2478 2180 2511 2181 
2511 2180 2214 2181 
2181 2214 2512 2215 
2478 2512 2479 2181 
2181 2214 2511 2512 
2478 2512 2181 2511 
2479 2181 2512 2182 
2512 2181 2215 2182 
2182 2215 2513 2216 
2479 2513 2480 2182 
2182 2215 2512 2513 
2479 2513 2182 2512 
2480 2182 2513 2183 
2513 2182 2216 2183 
2183 2216 2514 2217 
2480 2514 2481 2183 
2183 2216 2513 2514 
2480 2514 2183 2513 
2481 2183 2514 2184 
2514 2183 2217 2184 
2184 2217 2515 2218 
2481 2515 2482 2184 
2184 2217 2514 2515 
2481 2515 2184 2514 
2482 2184 2515 2185 
2515 2184 2218 2185 
2185 2218 2516 2219 
2482 2516 2483 2185 
2185 2218 2515 2516 
2482 2516 2185 2515 
2483 2185 2516 2186 
2516 2185 2219 2186 
2186 2219 2517 2220 
2483 2517 2484 2186 
2186 2219 2516 2517 
2483 2517 2186 2516 
2484 2186 2517 2187 
2517 2186 2220 2187 
2187 2220 2518 2221 
2484 2518 2485 2187 
2187 2220 2517 2518 
2484 2518 2187 2517 
2485 2187 2518 2188 
2518 2187 2221 2188 
2188 2221 2519 2222 
2485 2519 2486 2188 
2188 2221 2518 2519 
2485 2519 2188 2518 
2486 2188 2519 2189 
2519 2188 2222 2189 
2189 2222 2520 2223 
2486 2520 2487 2189 
2189 2222 2519 2520 
2486 2520 2189 2519 
2487 2189 2520 2190 
2520 2189 2223 2190 
2190 2223 2521 2224 
2487 2521 2488 2190 
2190 2223 2520 2521 
2487 2521 2190 2520 
2488 2190 2521 2191 
2521 2190 2224 2191 
2191 2224 2522 2225 
2488 2522 2489 2191 
2191 2224 2521 2522 
2488 2522 2191 2521 
2489 2191 2522 2192 
2522 2191 2225 2192 
2192 2225 2523 2226 
2489 2523 2490 2192 
2192 2225 2522 2523 
2489 2523 2192 2522 
2490 2192 2523 2193 
2523 2192 2226 2193 
2193 2226 2524 2227 
2490 2524 2491 2193 
2193 2226 2523 2524 
2490 2524 2193 2523 
2491 2193 2524 2194 
2524 2193 2227 2194 
2194 2227 2525 2228 
2491 2525 2492 2194 
2194 2227 2524 2525 
2491 2525 2194 2524 
2492 2194 2525 2195 
2525 2194 2228 2195 
2195 2228 2526 2229 
2492 2526 2493 2195 
2195 2228 2525 2526 
2492 2526 2195 2525 
2493 2195 2526 2196 
2526 2195 2229 2196 
2196 2229 2527 2230 
2493 2527 2494 2196 
2196 2229 2526 2527 
2493 2527 2196 2526 
2494 2196 2527 2197 
2527 2196 2230 2197 
2197 2230 2528 2231 
2494 2528 2495 2197 
2197 2230 2527 2528 
2494 2528 2197 2527 
2495 2197 2528 2198 
2528 2197 2231 2198 
2198 2231 2529 2232 
2495 2529 2496 2198 
2198 2231 2528 2529 
2495 2529 2198 2528 
2496 2198 2529 2199 
2529 2198 2232 2199 
2199 2232 2530 2233 
2496 2530 2497 2199 
2199 2232 2529 2530 
2496 2530 2199 2529 
2497 2199 2530 2200 
2530 2199 2233 2200 
2200 2233 2531 2234 
2497 2531 2498 2200 
2200 2233 2530 2531 
2497 2531 2200 2530 
2498 2200 2531 2201 
2531 2200 2234 2201 
2201 2234 2532 2235 
2498 2532 2499 2201 
2201 2234 2531 2532 
2498 2532 2201 2531 
2499 2201 2532 2202 
2532 2201 2235 2202 
2202 2235 2533 2236 
2499 2533 2500 2202 
2202 2235 2532 2533 
2499 2533 2202 2532 
2500 2202 2533 2203 
2533 2202 2236 2203 
2203 2236 2534 2237 
2500 2534 2501 2203 
2203 2236 2533 2534 
2500 2534 2203 2533 
2501 2203 2534 2204 
2534 2203 2237 2204 
2204 2237 2535 2238 
2501 2535 2502 2204 
2204 2237 2534 2535 
2501 2535 2204 2534 
2502 2204 2535 2205 
2535 2204 2238 2205 
2205 2238 2536 2239 
2502 2536 2503 2205 
2205 2238 2535 2536 
2502 2536 2205 2535 
2503 2205 2536 2206 
2536 2205 2239 2206 
2206 2239 2537 2240 
2503 2537 2504 2206 
2206 2239 2536 2537 
2503 2537 2206 2536 
2504 2206 2537 2207 
2537 2206 2240 2207 
2207 2240 2538 2241 
2504 2538 2505 2207 
2207 2240 2537 2538 
2504 2538 2207 2537 
2505 2207 2538 2208 
2538 2207 2241 2208 
2208 2241 2539 2242 
2505 2539 2506 2208 
2208 2241 2538 2539 
2505 2539 2208 2538 
2506 2208 2539 2209 
2539 2208 2242 2209 
2209 2242 2540 2243 
2506 2540 2507 2209 
2209 2242 2539 2540 
2506 2540 2209 2539 
2507 2209 2540 2210 
2540 2209 2243 2210 
2211 2244 2542 2245 
2508 2542 2509 2211 
2211 2244 2541 2542 
2508 2542 2211 2541 
2509 2211 2542 2212 
2542 2211 2245 2212 
2212 2245 2543 2246 
2509 2543 2510 2212 
2212 2245 2542 2543 
2509 2543 2212 2542 
2510 2212 2543 2213 
2543 2212 2246 2213 
2213 2246 2544 2247 
2510 2544 2511 2213 
2213 2246 2543 2544 
2510 2544 2213 2543 
2511 2213 2544 2214 
2544 2213 2247 2214 
2214 2247 2545 2248 
2511 2545 2512 2214 
2214 2247 2544 2545 
2511 2545 2214 2544 
2512 2214 2545 2215 
2545 2214 2248 2215 
2215 2248 2546 2249 
2512 2546 2513 2215 
2215 2248 2545 2546 
2512 2546 2215 2545 
2513 2215 2546 2216 
2546 2215 2249 2216 
2216 2249 2547 2250 
2513 2547 2514 2216 
2216 2249 2546 2547 
2513 2547 2216 2546 
2514 2216 2547 2217 
2547 2216 2250 2217 
2217 2250 2548 2251 
2514 2548 2515 2217 
2217 2250 2547 2548 
2514 2548 2217 2547 
2515 2217 2548 2218 
2548 2217 2251 2218 
2218 2251 2549 2252 
2515 2549 2516 2218 
2218 2251 2548 2549 
2515 2549 2218 2548 
2516 2218 2549 2219 
2549 2218 2252 2219 
2219 2252 2550 2253 
2516 2550 2517 2219 
2219 2252 2549 2550 
2516 2550 2219 2549 
2517 2219 2550 2220 
2550 2219 2253 2220 
2220 2253 2551 2254 
2517 2551 2518 2220 
2220 2253 2550 2551 
2517 2551 2220 2550 
2518 2220 2551 2221 
2551 2220 2254 2221 
2221 2254 2552 2255 
2518 2552 2519 2221 
2221 2254 2551 2552 
2518 2552 2221 2551 
2519 2221 2552 2222 
2552 2221 2255 2222 
2222 2255 2553 2256 
2519 2553 2520 2222 
2222 2255 2552 2553 
2519 2553 2222 2552 
2520 2222 2553 2223 
2553 2222 2256 2223 
2223 2256 2554 2257 
2520 2554 2521 2223 
2223 2256 2553 2554 
2520 2554 2223 2553 
2521 2223 2554 2224 
2554 2223 2257 2224 
2224 2257 2555 2258 
2521 2555 2522 2224 
2224 2257 2554 2555 
2521 2555 2224 2554 
2522 2224 2555 2225 
2555 2224 2258 2225 
2225 2258 2556 2259 
2522 2556 2523 2225 
2225 2258 2555 2556 
2522 2556 2225 2555 
2523 2225 2556 2226 
2556 2225 2259 2226 
2226 2259 2557 2260 
2523 2557 2524 2226 
2226 2259 2556 2557 
2523 2557 2226 2556 
2524 2226 2557 2227 
2557 2226 2260 2227 
2227 2260 2558 2261 
2524 2558 2525 2227 
2227 2260 2557 2558 
2524 2558 2227 2557 
2525 2227 2558 2228 
2558 2227 2261 2228 
2228 2261 2559 2262 
2525 2559 2526 2228 
2228 2261 2558 2559 
2525 2559 2228 2558 
2526 2228 2559 2229 
2559 2228 2262 2229 
2229 2262 2560 2263 
2526 2560 2527 2229 
2229 2262 2559 2560 
2526 2560 2229 2559 
2527 2229 2560 2230 
2560 2229 2263 2230 
2230 2263 2561 2264 
2527 2561 2528 2230 
2230 2263 2560 2561 
2527 2561 2230 2560 
2528 2230 2561 2231 
2561 2230 2264 2231 
2231 2264 2562 2265 
2528 2562 2529 2231 
2231 2264 2561 2562 
2528 2562 2231 2561 
2529 2231 2562 2232 
2562 2231 2265 2232 
2232 2265 2563 2266 
2529 2563 2530 2232 
2232 2265 2562 2563 
2529 2563 2232 2562 
2530 2232 2563 2233 
2563 2232 2266 2233 
2233 2266 2564 2267 
2530 2564 2531 2233 
2233 2266 2563 2564 
2530 2564 2233 2563 
2531 2233 2564 2234 
2564 2233 2267 2234 
2234 2267 2565 2268 
2531 2565 2532 2234 
2234 2267 2564 2565 
2531 2565 2234 2564 
2532 2234 2565 2235 
2565 2234 2268 2235 
2235 2268 2566 2269 
2532 2566 2533 2235 
2235 2268 2565 2566 
2532 2566 2235 2565 
2533 2235 2566 2236 
2566 2235 2269 2236 
2236 2269 2567 2270 
2533 2567 2534 2236 
2236 2269 2566 2567 
2533 2567 2236 2566 
2534 2236 2567 2237 
2567 2236 2270 2237 
2237 2270 2568 2271 
2534 2568 2535 2237 
2237 2270 2567 2568 
2534 2568 2237 2567 
2535 2237 2568 2238 
2568 2237 2271 2238 
2238 2271 2569 2272 
2535 2569 2536 2238 
2238 2271 2568 2569 
2535 2569 2238 2568 
2536 2238 2569 2239 
2569 2238 2272 2239 
2239 2272 2570 2273 
2536 2570 2537 2239 
2239 2272 2569 2570 
2536 2570 2239 2569 
2537 2239 2570 2240 
2570 2239 2273 2240 
2240 2273 2571 2274 
2537 2571 2538 2240 
2240 2273 2570 2571 
2537 2571 2240 2570 
2538 2240 2571 2241 
2571 2240 2274 2241 
2241 2274 2572 2275 
2538 2572 2539 2241 
2241 2274 2571 2572 
2538 2572 2241 2571 
2539 2241 2572 2242 
2572 2241 2275 2242 
2242 2275 2573 2276 
2539 2573 2540 2242 
2242 2275 2572 2573 
2539 2573 2242 2572 
2540 2242 2573 2243 
2573 2242 2276 2243 
2244 2277 2575 2278 
2541 2575 2542 2244 
2244 2277 2574 2575 
2541 2575 2244 2574 
2542 2244 2575 2245 
2575 2244 2278 2245 
2245 2278 2576 2279 
2542 2576 2543 2245 
2245 2278 2575 2576 
2542 2576 2245 2575 
2543 2245 2576 2246 
2576 2245 2279 2246 
2246 2279 2577 2280 
2543 2577 2544 2246 
2246 2279 2576 2577 
2543 2577 2246 2576 
2544 2246 2577 2247 
2577 2246 2280 2247 
2247 2280 2578 2281 
2544 2578 2545 2247 
2247 2280 2577 2578 
2544 2578 2247 2577 
2545 2247 2578 2248 
2578 2247 2281 2248 
2248 2281 2579 2282 
2545 2579 2546 2248 
2248 2281 2578 2579 
2545 2579 2248 2578 
2546 2248 2579 2249 
2579 2248 2282 2249 
2249 2282 2580 2283 
2546 2580 2547 2249 
2249 2282 2579 2580 
2546 2580 2249 2579 
2547 2249 2580 2250 
2580 2249 2283 2250 
2250 2283 2581 2284 
2547 2581 2548 2250 
2250 2283 2580 2581 
2547 2581 2250 2580 
2548 2250 2581 2251 
2581 2250 2284 2251 
2251 2284 2582 2285 
2548 2582 2549 2251 
2251 2284 2581 2582 
2548 2582 2251 2581 
2549 2251 2582 2252 
2582 2251 2285 2252 
2252 2285 2583 2286 
2549 2583 2550 2252 
2252 2285 2582 2583 
2549 2583 2252 2582 
2550 2252 2583 2253 
2583 2252 2286 2253 
2253 2286 2584 2287 
2550 2584 2551 2253 
2253 2286 2583 2584 
2550 2584 2253 2583 
2551 2253 2584 2254 
2584 2253 2287 2254 
2254 2287 2585 2288 
2551 2585 2552 2254 
2254 2287 2584 2585 
2551 2585 2254 2584 
2552 2254 2585 2255 
2585 2254 2288 2255 
2255 2288 2586 2289 
2552 2586 2553 2255 
2255 2288 2585 2586 
2552 2586 2255 2585 
2553 2255 2586 2256 
2586 2255 2289 2256 
2256 2289 2587 2290 
2553 2587 2554 2256 
2256 2289 2586 2587 
2553 2587 2256 2586 
2554 2256 2587 2257 
2587 2256 2290 2257 
2257 2290 2588 2291 
2554 2588 2555 2257 
2257 2290 2587 2588 
2554 2588 2257 2587 
2555 2257 2588 2258 
2588 2257 2291 2258 
2258 2291 2589 2292 
2555 2589 2556 2258 
2258 2291 2588 2589 
2555 2589 2258 2588 
2556 2258 2589 2259 
2589 2258 2292 2259 
2259 2292 2590 2293 
2556 2590 2557 2259 
2259 2292 2589 2590 
2556 2590 2259 2589 
2557 2259 2590 2260 
2590 2259 2293 2260 
2260 2293 2591 2294 
2557 2591 2558 2260 
2260 2293 2590 2591 
2557 2591 2260 2590 
2558 2260 2591 2261 
2591 2260 2294 2261 
2261 2294 2592 2295 
2558 2592 2559 2261 
2261 2294 2591 2592 
2558 2592 2261 2591 
2559 2261 2592 2262 
2592 2261 2295 2262 
2262 2295 2593 2296 
2559 2593 2560 2262 
2262 2295 2592 2593 
2559 2593 2262 2592 
2560 2262 2593 2263 
2593 2262 2296 2263 
2263 2296 2594 2297 
2560 2594 2561 2263 
2263 2296 2593 2594 
2560 2594 2263 2593 
2561 2263 2594 2264 
2594 2263 2297 2264 
2264 2297 2595 2298 
2561 2595 2562 2264 
2264 2297 2594 2595 
2561 2595 2264 2594 
2562 2264 2595 2265 
2595 2264 2298 2265 
2265 2298 2596 2299 
2562 2596 2563 2265 
2265 2298 2595 2596 
2562 2596 2265 2595 
2563 2265 2596 2266 
2596 2265 2299 2266 
2266 2299 2597 2300 
2563 2597 2564 2266 
2266 2299 2596 2597 
2563 2597 2266 2596 
2564 2266 2597 2267 
2597 2266 2300 2267 
2267 2300 2598 2301 
2564 2598 2565 2267 
2267 2300 2597 2598 
2564 2598 2267 2597 
2565 2267 2598 2268 
2598 2267 2301 2268 
2268 2301 2599 2302 
2565 2599 2566 2268 
2268 2301 2598 2599 
2565 2599 2268 2598 
2566 2268 2599 2269 
2599 2268 2302 2269 
2269 2302 2600 2303 
2566 2600 2567 2269 
2269 2302 2599 2600 
2566 2600 2269 2599 
2567 2269 2600 2270 
2600 2269 2303 2270 
2270 2303 2601 2304 
2567 2601 2568 2270 
2270 2303 2600 2601 
2567 2601 2270 2600 
2568 2270 2601 2271 
2601 2270 2304 2271 
2271 2304 2602 2305 
2568 2602 2569 2271 
2271 2304 2601 2602 
2568 2602 2271 2601 
2569 2271 2602 2272 
2602 2271 2305 2272 
2272 2305 2603 2306 
2569 2603 2570 2272 
2272 2305 2602 2603 
2569 2603 2272 2602 
2570 2272 2603 2273 
2603 2272 2306 2273 
2273 2306 2604 2307 
2570 2604 2571 2273 
2273 2306 2603 2604 
2570 2604 2273 2603 
2571 2273 2604 2274 
2604 2273 2307 2274 
2274 2307 2605 2308 
2571 2605 2572 2274 
2274 2307 2604 2605 
2571 2605 2274 2604 
2572 2274 2605 2275 
2605 2274 2308 2275 
2275 2308 2606 2309 
2572 2606 2573 2275 
2275 2308 2605 2606 
2572 2606 2275 2605 
2573 2275 2606 2276 
2606 2275 2309 2276 
2277 2310 2608 2311 
2574 2608 2575 2277 
2277 2310 2607 2608 
2574 2608 2277 2607 
2575 2277 2608 2278 
2608 2277 2311 2278 
2278 2311 2609 2312 
2575 2609 2576 2278 
2278 2311 2608 2609 
2575 2609 2278 2608 
2576 2278 2609 2279 
2609 2278 2312 2279 
2279 2312 2610 2313 
2576 2610 2577 2279 
2279 2312 2609 2610 
2576 2610 2279 2609 
2577 2279 2610 2280 
2610 2279 2313 2280 
2280 2313 2611 2314 
2577 2611 2578 2280 
2280 2313 2610 2611 
2577 2611 2280 2610 
2578 2280 2611 2281 
2611 2280 2314 2281 
2281 2314 2612 2315 
2578 2612 2579 2281 
2281 2314 2611 2612 
2578 2612 2281 2611 
2579 2281 2612 2282 
2612 2281 2315 2282 
2282 2315 2613 2316 
2579 2613 2580 2282 
2282 2315 2612 2613 
2579 2613 2282 2612 
2580 2282 2613 2283 
2613 2282 2316 2283 
2283 2316 2614 2317 
2580 2614 2581 2283 
2283 2316 2613 2614 
2580 2614 2283 2613 
2581 2283 2614 2284 
2614 2283 2317 2284 
2284 2317 2615 2318 
2581 2615 2582 2284 
2284 2317 2614 2615 
2581 2615 2284 2614 
2582 2284 2615 2285 
2615 2284 2318 2285 
2285 2318 2616 2319 
2582 2616 2583 2285 
2285 2318 2615 2616 
2582 2616 2285 2615 
2583 2285 2616 2286 
2616 2285 2319 2286 
2286 2319 2617 2320 
2583 2617 2584 2286 
2286 2319 2616 2617 
2583 2617 2286 2616 
2584 2286 2617 2287 
2617 2286 2320 2287 
2287 2320 2618 2321 
2584 2618 2585 2287 
2287 2320 2617 2618 
2584 2618 2287 2617 
2585 2287 2618 2288 
2618 2287 2321 2288 
2288 2321 2619 2322 
2585 2619 2586 2288 
2288 2321 2618 2619 
2585 2619 2288 2618 
2586 2288 2619 2289 
2619 2288 2322 2289 
2289 2322 2620 2323 
2586 2620 2587 2289 
2289 2322 2619 2620 
2586 2620 2289 2619 
2587 2289 2620 2290 
2620 2289 2323 2290 
2290 2323 2621 2324 
2587 2621 2588 2290 
2290 2323 2620 2621 
2587 2621 2290 2620 
2588 2290 2621 2291 
2621 2290 2324 2291 
2291 2324 2622 2325 
2588 2622 2589 2291 
2291 2324 2621 2622 
2588 2622 2291 2621 
2589 2291 2622 2292 
2622 2291 2325 2292 
2292 2325 2623 2326 
2589 2623 2590 2292 
2292 2325 2622 2623 
2589 2623 2292 2622 
2590 2292 2623 2293 
2623 2292 2326 2293 
2293 2326 2624 2327 
2590 2624 2591 2293 
2293 2326 2623 2624 
2590 2624 2293 2623 
2591 2293 2624 2294 
2624 2293 2327 2294 
2294 2327 2625 2328 
2591 2625 2592 2294 
2294 2327 2624 2625 
2591 2625 2294 2624 
2592 2294 2625 2295 
2625 2294 2328 2295 
2295 2328 2626 2329 
2592 2626 2593 2295 
2295 2328 2625 2626 
2592 2626 2295 2625 
2593 2295 2626 2296 
2626 2295 2329 2296 
2296 2329 2627 2330 
2593 2627 2594 2296 
2296 2329 2626 2627 
2593 2627 2296 2626 
2594 2296 2627 2297 
2627 2296 2330 2297 
2297 2330 2628 2331 
2594 2628 2595 2297 
2297 2330 2627 2628 
2594 2628 2297 2627 
2595 2297 2628 2298 
2628 2297 2331 2298 
2298 2331 2629 2332 
2595 2629 2596 2298 
2298 2331 2628 2629 
2595 2629 2298 2628 
2596 2298 2629 2299 
2629 2298 2332 2299 
2299 2332 2630 2333 
2596 2630 2597 2299 
2299 2332 2629 2630 
2596 2630 2299 2629 
2597 2299 2630 2300 
2630 2299 2333 2300 
2300 2333 2631 2334 
2597 2631 2598 2300 
2300 2333 2630 2631 
2597 2631 2300 2630 
2598 2300 2631 2301 
2631 2300 2334 2301 
2301 2334 2632 2335 
2598 2632 2599 2301 
2301 2334 2631 2632 
2598 2632 2301 2631 
2599 2301 2632 2302 
2632 2301 2335 2302 
2302 2335 2633 2336 
2599 2633 2600 2302 
2302 2335 2632 2633 
2599 2633 2302 2632 
2600 2302 2633 2303 
2633 2302 2336 2303 
2303 2336 2634 2337 
2600 2634 2601 2303 
2303 2336 2633 2634 
2600 2634 2303 2633 
2601 2303 2634 2304 
2634 2303 2337 2304 
2304 2337 2635 2338 
2601 2635 2602 2304 
2304 2337 2634 2635 
2601 2635 2304 2634 
2602 2304 2635 2305 
2635 2304 2338 2305 
2305 2338 2636 2339 
2602 2636 2603 2305 
2305 2338 2635 2636 
2602 2636 2305 2635 
2603 2305 2636 2306 
2636 2305 2339 2306 
2306 2339 2637 2340 
2603 2637 2604 2306 
2306 2339 2636 2637 
2603 2637 2306 2636 
2604 2306 2637 2307 
2637 2306 2340 2307 
2307 2340 2638 2341 
2604 2638 2605 2307 
2307 2340 2637 2638 
2604 2638 2307 2637 
2605 2307 2638 2308 
2638 2307 2341 2308 
2308 2341 2639 2342 
2605 2639 2606 2308 
2308 2341 2638 2639 
2605 2639 2308 2638 
2606 2308 2639 2309 
2639 2308 2342 2309 
2310 2343 2641 2344 
2607 2641 2608 2310 
2310 2343 2640 2641 
2607 2641 2310 2640 
2608 2310 2641 2311 
2641 2310 2344 2311 
2311 2344 2642 2345 
2608 2642 2609 2311 
2311 2344 2641 2642 
2608 2642 2311 2641 
2609 2311 2642 2312 
2642 2311 2345 2312 
2312 2345 2643 2346 
2609 2643 2610 2312 
2312 2345 2642 2643 
2609 2643 2312 2642 
2610 2312 2643 2313 
2643 2312 2346 2313 
2313 2346 2644 2347 
2610 2644 2611 2313 
2313 2346 2643 2644 
2610 2644 2313 2643 
2611 2313 2644 2314 
2644 2313 2347 2314 
2314 2347 2645 2348 
2611 2645 2612 2314 
2314 2347 2644 2645 
2611 2645 2314 2644 
2612 2314 2645 2315 
2645 2314 2348 2315 
2315 2348 2646 2349 
2612 2646 2613 2315 
2315 2348 2645 2646 
2612 2646 2315 2645 
2613 2315 2646 2316 
2646 2315 2349 2316 
2316 2349 2647 2350 
2613 2647 2614 2316 
2316 2349 2646 2647 
2613 2647 2316 2646 
2614 2316 2647 2317 
2647 2316 2350 2317 
2317 2350 2648 2351 
2614 2648 2615 2317 
2317 2350 2647 2648 
2614 2648 2317 2647 
2615 2317 2648 2318 
2648 2317 2351 2318 
2318 2351 2649 2352 
2615 2649 2616 2318 
2318 2351 2648 2649 
2615 2649 2318 2648 
2616 2318 2649 2319 
2649 2318 2352 2319 
2319 2352 2650 2353 
2616 2650 2617 2319 
2319 2352 2649 2650 
2616 2650 2319 2649 
2617 2319 2650 2320 
2650 2319 2353 2320 
2320 2353 2651 2354 
2617 2651 2618 2320 
2320 2353 2650 2651 
2617 2651 2320 2650 
2618 2320 2651 2321 
2651 2320 2354 2321 
2321 2354 2652 2355 
2618 2652 2619 2321 
2321 2354 2651 2652 
2618 2652 2321 2651 
2619 2321 2652 2322 
2652 2321 2355 2322 
2322 2355 2653 2356 
2619 2653 2620 2322 
2322 2355 2652 2653 
2619 2653 2322 2652 
2620 2322 2653 2323 
2653 2322 2356 2323 
2323 2356 2654 2357 
2620 2654 2621 2323 
2323 2356 2653 2654 
2620 2654 2323 2653 
2621 2323 2654 2324 
2654 2323 2357 2324 
2324 2357 2655 2358 
2621 2655 2622 2324 
2324 2357 2654 2655 
2621 2655 2324 2654 
2622 2324 2655 2325 
2655 2324 2358 2325 
2325 2358 2656 2359 
2622 2656 2623 2325 
2325 2358 2655 2656 
2622 2656 2325 2655 
2623 2325 2656 2326 
2656 2325 2359 2326 
2326 2359 2657 2360 
2623 2657 2624 2326 
2326 2359 2656 2657 
2623 2657 2326 2656 
2624 2326 2657 2327 
2657 2326 2360 2327 
2327 2360 2658 2361 
2624 2658 2625 2327 
2327 2360 2657 2658 
2624 2658 2327 2657 
2625 2327 2658 2328 
2658 2327 2361 2328 
2328 2361 2659 2362 
2625 2659 2626 2328 
2328 2361 2658 2659 
2625 2659 2328 2658 
2626 2328 2659 2329 
2659 2328 2362 2329 
2329 2362 2660 2363 
2626 2660 2627 2329 
2329 2362 2659 2660 
2626 2660 2329 2659 
2627 2329 2660 2330 
2660 2329 2363 2330 
2330 2363 2661 2364 
2627 2661 2628 2330 
2330 2363 2660 2661 
2627 2661 2330 2660 
2628 2330 2661 2331 
2661 2330 2364 2331 
2331 2364 2662 2365 
2628 2662 2629 2331 
2331 2364 2661 2662 
2628 2662 2331 2661 
2629 2331 2662 2332 
2662 2331 2365 2332 
2332 2365 2663 2366 
2629 2663 2630 2332 
2332 2365 2662 2663 
2629 2663 2332 2662 
2630 2332 2663 2333 
2663 2332 2366 2333 
2333 2366 2664 2367 
2630 2664 2631 2333 
2333 2366 2663 2664 
2630 2664 2333 2663 
2631 2333 2664 2334 
2664 2333 2367 2334 
2334 2367 2665 2368 
2631 2665 2632 2334 
2334 2367 2664 2665 
2631 2665 2334 2664 
2632 2334 2665 2335 
2665 2334 2368 2335 
2335 2368 2666 2369 
2632 2666 2633 2335 
2335 2368 2665 2666 
2632 2666 2335 2665 
2633 2335 2666 2336 
2666 2335 2369 2336 
2336 2369 2667 2370 
2633 2667 2634 2336 
2336 2369 2666 2667 
2633 2667 2336 2666 
2634 2336 2667 2337 
2667 2336 2370 2337 
2337 2370 2668 2371 
2634 2668 2635 2337 
2337 2370 2667 2668 
2634 2668 2337 2667 
2635 2337 2668 2338 
2668 2337 2371 2338 
2338 2371 2669 2372 
2635 2669 2636 2338 
2338 2371 2668 2669 
2635 2669 2338 2668 
2636 2338 2669 2339 
2669 2338 2372 2339 
2339 2372 2670 2373 
2636 2670 2637 2339 
2339 2372 2669 2670 
2636 2670 2339 2669 
2637 2339 2670 2340 
2670 2339 2373 2340 
2340 2373 2671 2374 
2637 2671 2638 2340 
2340 2373 2670 2671 
2637 2671 2340 2670 
2638 2340 2671 2341 
2671 2340 2374 2341 
2341 2374 2672 2375 
2638 2672 2639 2341 
2341 2374 2671 2672 
2638 2672 2341 2671 
2639 2341 2672 2342 
2672 2341 2375 2342 
CELL_TYPES 12288
10 10 10 10 10 10 10 10 10 10 10 10 10 10 10 10 10 10 10 10 10 10 10 10 10 10 10 10 10 10 10 10 10 10 10 10 10 10 10 10 10 10 10 10 10 10 10 10 10 10 10 10 10 10 10 10 10 10 10 10 10 10 10 10 10 10 10 10 10 10 10 10 10 10 10 10 10 10 10 10 10 10 10 10 10 10 10 10 10 10 10 10 10 10 10 10 10 10 10 10 10 10 10 10 10 10 10 10 10 10 10 10 10 10 10 10 10 10 10 10 10 10 10 10 10 10 10 10 10 10 10 10 10 10 10 10 10 10 10 10 10 10 10 10 10 10 10 10 10 10 10 10 10 10 10 10 10 10 10 10 10 10 10 10 10 10 10 10 10 10 10 10 10 10 10 10 10 10 10 10 10 10 10 10 10 10 10 10 10 10 10 10 10 10 10 10 10 10 10 10 10 10 10 10 10 10 10 10 10 10 10 10 10 10 10 10 10 10 10 10 10 10 10 10 10 10 10 10 10 10 10 10 10 10 10 10 10 10 10 10 10 10 10 10 10 10 10 10 10 10 10 10 10 10 10 10 10 10 10 10 10 10 10 10 10 10 10 10 10 10 10 10 10 10 10 10 10 10 10 10 10 10 10 10 10 10 10 10 10 10 10 10 10 10 10 10 10 10 10 10 10 10 10 10 10 10 10 10 10 10 10 10 10 10 10 10 10 10 10 10 10 10 10 10 10 10 10 10 10 10 10 10 10 10 10 10 10 10 10 10 10 10 10 10 10 10 10 10 10 10 10 10 10 10 10 10 10 10 10 10 10 10 10 10 10 10 10 10 10 10 10 10 10 10 10 10 10 10 10 10 10 10 10 10 10 10 10 10 10 10 10 10 10 10 10 10 10 10 10 10 10 10 10 10 10 10 10 10 10 10 10 10 10 10 10 10 10 10 10 10 10 10 10 10 10 10 10 10 10 10 10 10 10 10 10 10 10 10 10 10 10 10 10 10 10 10 10 10 10 10 10 10 10 10 10 10 10 10 10 10 10 10 10 10 10 10 10 10 10 10 10 10 10 10 10 10 10 10 10 10 10 10 10 10 10 10 10 10 10 10 10 10 10 10 10 10 10 10 10 10 10 10 10 10 10 10 10 10 10 10 10 10 10 10 10 10 10 10 10 10 10 10 10 10 10 10 10 10 10 10 10 10 10 10 10 10 10 10 10 10 10 10 10 10 10 10 10 10 10 10 10 10 10 10 10 10 10 10 10 10 10 10 10 10 10 10 10 10 10 10 10 10 10 10 10 10 10 10 10 10 10 10 10 10 10 10 10 10 10 10 10 10 10 10 10 10 10 10 10 10 10 10 10 10 10 10 10 10 10 10 10 10 10 10 10 10 10 10 10 10 10 10 10 10 10 10 10 10 10 10 10 10 10 10 10 10 10 10 10 10 10 10 10 10 10 10 10 10 10 10 10 10 10 10 10 10 10 10 10 10 10 10 10 10 10 10 10 10 10 10 10 10 10 10 10 10 10 10 10 10 10 10 10 10 10 10 10 10 10 10 10 10 10 10 10 10 10 10 10 10 10 10 10 10 10 10 10 10 10 10 10 10 10 10 10 10 10 10 10 10 10 10 10 10 10 10 10 10 10 10 10 10 10 10 10 10 10 10 10 10 10 10 10 10 10 10 10 10 10 10 10 10 10 10 10 10 10 10 10 10 10 10 10 10 10 10 10 10 10 10 10 10 10 10 10 10 10 10 10 10 10 10 10 10 10 10 10 10 10 10 10 10 10 10 10 10 10 10 10 10 10 10 10 10 10 10 10 10 10 10 10 10 10 10 10 10 10 10 10 10 10 10 10 10 10 10 10 10 10 10 10 10 10 10 10 10 10 10 10 10 10 10 10 10 10 10 10 10 10 10 10 10 10 10 10 10 10 10 10 10 10 10 10 10 10 10 10 10 10 10 10 10 10 10 10 10 10 10 10 10 10 10 10 10 10 10 10 10 10 10 10 10 10 10 10 10 10 10 10 10 10 10 10 10 10 10 10 10 10 10 10 10 10 10 10 10 10 10 10 10 10 10 10 10 10 10 10 10 10 10 10 10 10 10 10 10 10 10 10 10 10 10 10 10 10 10 10 10 10 10 10 10 10 10 10 10 10 10 10 10 10 10 10 10 10 10 10 10 10 10 10 10 10 10 10 10 10 10 10 10 10 10 10 10 10 10 10 10 10 10 10 10 10 10 10 10 10 10 10 10 10 10 10 10 10 10 10 10 10 10 10 10 10 10 10 10 10 10 10 10 10 10 10 10 10 10 10 10 10 10 10 10 10 10 10 10 10 10 10 10 10 10 10 10 10 10 10 10 10 10 10 10 10 10 10 10 10 10 10 10 10 10 10 10 10 10 10 10 10 10 10 10 10 10 10 10 10 10 10 10 10 10 10 10 10 10 10 10 10 10 10 10 10 10 10 10 10 10 10 10 10 10 10 10 10 10 10 10 10 10 10 10 10 10 10 10 10 10 10 10 10 10 10 10 10 10 10 10 10 10 10 10 10 10 10 10 10 10 10 10 10 10 10 10 10 10 10 10 10 10 10 10 10 10 10 10 10 10 10 10 10 10 10 10 10 10 10 10 10 10 10 10 10 10 10 10 10 10 10 10 10 10 10 10 10 10 10 10 10 10 10 10 10 10 10 10 10 10 10 10 10 10 10 10 10 10 10 10 10 10 10 10 10 10 10 10 10 10 10 10 10 10 10 10 10 10 10 10 10 10 10 10 10 10 10 10 10 10 10 10 10 10 10 10 10 10 10 10 10 10 10 10 10 10 10 10 10 10 10 10 10 10 10 10 10 10 10 10 10 10 10 10 10 10 10 10 10 10 10 10 10 10 10 10 10 10 10 10 10 10 10 10 10 10 10 10 10 10 10 10 10 10 10 10 10 10 10 10 10 10 10 10 10 10 10 10 10 10 10 10 10 10 10 10 10 10 10 10 10 10 10 10 10 10 10 10 10 10 10 10 10 10 10 10 10 10 10 10 10 10 10 10 10 10 10 10 10 10 10 10 10 10 10 10 10 10 10 10 10 10 10 10 10 10 10 10 10 10 10 10 10 10 10 10 10 10 10 10 10 10 10 10 10 10 10 10 10 10 10 10 10 10 10 10 10 10 10 10 10 10 10 10 10 10 10 10 10 10 10 10 10 10 10 10 10 10 10 10 10 10 10 10 10 10 10 10 10 10 10 10 10 10 10 10 10 10 10 10 10 10 10 10 10 10 10 10 10 10 10 10 10 10 10 10 10 10 10 10 10 10 10 10 10 10 10 10 10 10 10 10 10 10 10 10 10 10 10 10 10 10 10 10 10 10 10 10 10 10 10 10 10 10 10 10 10 10 10 10 10 10 10 10 10 10 10 10 10 10 10 10 10 10 10 10 10 10 10 10 10 10 10 10 10 10 10 10 10 10 10 10 10 10 10 10 10 10 10 10 10 10 10 10 10 10 10 10 10 10 10 10 10 10 10 10 10 10 10 10 10 10 10 10 10 10 10 10 10 10 10 10 10 10 10 10 10 10 10 10 10 10 10 10 10 10 10 10 10 10 10 10 10 10 10 10 10 10 10 10 10 10 10 10 10 10 10 10 10 10 10 10 10 10 10 10 10 10 10 10 10 10 10 10 10 10 10 10 10 10 10 10 10 10 10 10 10 10 10 10 10 10 10 10 10 10 10 10 10 10 10 10 10 10 10 10 10 10 10 10 10 10 10 10 10 10 10 10 10 10 10 10 10 10 10 10 10 10 10 10 10 10 10 10 10 10 10 10 10 10 10 10 10 10 10 10 10 10 10 10 10 10 10 10 10 10 10 10 10 10 10 10 10 10 10 10 10 10 10 10 10 10 10 10 10 10 10 10 10 10 10 10 10 10 10 10 10 10 10 10 10 10 10 10 10 10 10 10 10 10 10 10 10 10 10 10 10 10 10 10 10 10 10 10 10 10 10 10 10 10 10 10 10 10 10 10 10 10 10 10 10 10 10 10 10 10 10 10 10 10 10 10 10 10 10 10 10 10 10 10 10 10 10 10 10 10 10 10 10 10 10 10 10 10 10 10 10 10 10 10 10 10 10 10 10 10 10 10 10 10 10 10 10 10 10 10 10 10 10 10 10 10 10 10 10 10 10 10 10 10 10 10 10 10 10 10 10 10 10 10 10 10 10 10 10 10 10 10 10 10 10 10 10 10 10 10 10 10 10 10 10 10 10 10 10 10 10 10 10 10 10 10 10 10 10 10 10 10 10 10 10 10 10 10 10 10 10 10 10 10 10 10 10 10 10 10 10 10 10 10 10 10 10 10 10 10 10 10 10 10 10 10 10 10 10 10 10 10 10 10 10 10 10 10 10 10 10 10 10 10 10 10 10 10 10 10 10 10 10 10 10 10 10 10 10 10 10 10 10 10 10 10 10 10 10 10 10 10 10 10 10 10 10 10 10 10 10 10 10 10 10 10 10 10 10 10 10 10 10 10 10 10 10 10 10 10 10 10 10 10 10 10 10 10 10 10 10 10 10 10 10 10 10 10 10 10 10 10 10 10 10 10 10 10 10 10 10 10 10 10 10 10 10 10 10 10 10 10 10 10 10 10 10 10 10 10 10 10 10 10 10 10 10 10 10 10 10 10 10 10 10 10 10 10 10 10 10 10 10 10 10 10 10 10 10 10 10 10 10 10 10 10 10 10 10 10 10 10 10 10 10 10 10 10 10 10 10 10 10 10 10 10 10 10 10 10 10 10 10 10 10 10 10 10 10 10 10 10 10 10 10 10 10 10 10 10 10 10 10 10 10 10 10 10 10 10 10 10 10 10 10 10 10 10 10 10 10 10 10 10 10 10 10 10 10 10 10 10 10 10 10 10 10 10 10 10 10 10 10 10 10 10 10 10 10 10 10 10 10 10 10 10 10 10 10 10 10 10 10 10 10 10 10 10 10 10 10 10 10 10 10 10 10 10 10 10 10 10 10 10 10 10 10 10 10 10 10 10 10 10 10 10 10 10 10 10 10 10 10 10 10 10 10 10 10 10 10 10 10 10 10 10 10 10 10 10 10 10 10 10 10 10 10 10 10 10 10 10 10 10 10 10 10 10 10 10 10 10 10 10 10 10 10 10 10 10 10 10 10 10 10 10 10 10 10 10 10 10 10 10 10 10 10 10 10 10 10 10 10 10 10 10 10 10 10 10 10 10 10 10 10 10 10 10 10 10 10 10 10 10 10 10 10 10 10 10 10 10 10 10 10 10 10 10 10 10 10 10 10 10 10 10 10 10 10 10 10 10 10 10 10 10 10 10 10 10 10 10 10 10 10 10 10 10 10 10 10 10 10 10 10 10 10 10 10 10 10 10 10 10 10 10 10 10 10 10 10 10 10 10 10 10 10 10 10 10 10 10 10 10 10 10 10 10 10 10 10 10 10 10 10 10 10 10 10 10 10 10 10 10 10 10 10 10 10 10 10 10 10 10 10 10 10 10 10 10 10 10 10 10 10 10 10 10 10 10 10 10 10 10 10 10 10 10 10 10 10 10 10 10 10 10 10 10 10 10 10 10 10 10 10 10 10 10 10 10 10 10 10 10 10 10 10 10 10 10 10 10 10 10 10 10 10 10 10 10 10 10 10 10 10 10 10 10 10 10 10 10 10 10 10 10 10 10 10 10 10 10 10 10 10 10 10 10 10 10 10 10 10 10 10 10 10 10 10 10 10 10 10 10 10 10 10 10 10 10 10 10 10 10 10 10 10 10 10 10 10 10 10 10 10 10 10 10 10 10 10 10 10 10 10 10 10 10 10 10 10 10 10 10 10 10 10 10 10 10 10 10 10 10 10 10 10 10 10 10 10 10 10 10 10 10 10 10 10 10 10 10 10 10 10 10 10 10 10 10 10 10 10 10 10 10 10 10 10 10 10 10 10 10 10 10 10 10 10 10 10 10 10 10 10 10 10 10 10 10 10 10 10 10 10 10 10 10 10 10 10 10 10 10 10 10 10 10 10 10 10 10 10 10 10 10 10 10 10 10 10 10 10 10 10 10 10 10 10 10 10 10 10 10 10 10 10 10 10 10 10 10 10 10 10 10 10 10 10 10 10 10 10 10 10 10 10 10 10 10 10 10 10 10 10 10 10 10 10 10 10 10 10 10 10 10 10 10 10 10 10 10 10 10 10 10 10 10 10 10 10 10 10 10 10 10 10 10 10 10 10 10 10 10 10 10 10 10 10 10 10 10 10 10 10 10 10 10 10 10 10 10 10 10 10 10 10 10 10 10 10 10 10 10 10 10 10 10 10 10 10 10 10 10 10 10 10 10 10 10 10 10 10 10 10 10 10 10 10 10 10 10 10 10 10 10 10 10 10 10 10 10 10 10 10 10 10 10 10 10 10 10 10 10 10 10 10 10 10 10 10 10 10 10 10 10 10 10 10 10 10 10 10 10 10 10 10 10 10 10 10 10 10 10 10 10 10 10 10 10 10 10 10 10 10 10 10 10 10 10 10 10 10 10 10 10 10 10 10 10 10 10 10 10 10 10 10 10 10 10 10 10 10 10 10 10 10 10 10 10 10 10 10 10 10 10 10 10 10 10 10 10 10 10 10 10 10 10 10 10 10 10 10 10 10 10 10 10 10 10 10 10 10 10 10 10 10 10 10 10 10 10 10 10 10 10 10 10 10 10 10 10 10 10 10 10 10 10 10 10 10 10 10 10 10 10 10 10 10 10 10 10 10 10 10 10 10 10 10 10 10 10 10 10 10 10 10 10 10 10 10 10 10 10 10 10 10 10 10 10 10 10 10 10 10 10 10 10 10 10 10 10 10 10 10 10 10 10 10 10 10 10 10 10 10 10 10 10 10 10 10 10 10 10 10 10 10 10 10 10 10 10 10 10 10 10 10 10 10 10 10 10 10 10 10 10 10 10 10 10 10 10 10 10 10 10 10 10 10 10 10 10 10 10 10 10 10 10 10 10 10 10 10 10 10 10 10 10 10 10 10 10 10 10 10 10 10 10 10 10 10 10 10 10 10 10 10 10 10 10 10 10 10 10 10 10 10 10 10 10 10 10 10 10 10 10 10 10 10 10 10 10 10 10 10 10 10 10 10 10 10 10 10 10 10 10 10 10 10 10 10 10 10 10 10 10 10 10 10 10 10 10 10 10 10 10 10 10 10 10 10 10 10 10 10 10 10 10 10 10 10 10 10 10 10 10 10 10 10 10 10 10 10 10 10 10 10 10 10 10 10 10 10 10 10 10 10 10 10 10 10 10 10 10 10 10 10 10 10 10 10 10 10 10 10 10 10 10 10 10 10 10 10 10 10 10 10 10 10 10 10 10 10 10 10 10 10 10 10 10 10 10 10 10 10 10 10 10 10 10 10 10 10 10 10 10 10 10 10 10 10 10 10 10 10 10 10 10 10 10 10 10 10 10 10 10 10 10 10 10 10 10 10 10 10 10 10 10 10 10 10 10 10 10 10 10 10 10 10 10 10 10 10 10 10 10 10 10 10 10 10 10 10 10 10 10 10 10 10 10 10 10 10 10 10 10 10 10 10 10 10 10 10 10 10 10 10 10 10 10 10 10 10 10 10 10 10 10 10 10 10 10 10 10 10 10 10 10 10 10 10 10 10 10 10 10 10 10 10 10 10 10 10 10 10 10 10 10 10 10 10 10 10 10 10 10 10 10 10 10 10 10 10 10 10 10 10 10 10 10 10 10 10 10 10 10 10 10 10 10 10 10 10 10 10 10 10 10 10 10 10 10 10 10 10 10 10 10 10 10 10 10 10 10 10 10 10 10 10 10 10 10 10 10 10 10 10 10 10 10 10 10 10 10 10 10 10 10 10 10 10 10 10 10 10 10 10 10 10 10 10 10 10 10 10 10 10 10 10 10 10 10 10 10 10 10 10 10 10 10 10 10 10 10 10 10 10 10 10 10 10 10 10 10 10 10 10 10 10 10 10 10 10 10 10 10 10 10 10 10 10 10 10 10 10 10 10 10 10 10 10 10 10 10 10 10 10 10 10 10 10 10 10 10 10 10 10 10 10 10 10 10 10 10 10 10 10 10 10 10 10 10 10 10 10 10 10 10 10 10 10 10 10 10 10 10 10 10 10 10 10 10 10 10 10 10 10 10 10 10 10 10 10 10 10 10 10 10 10 10 10 10 10 10 10 10 10 10 10 10 10 10 10 10 10 10 10 10 10 10 10 10 10 10 10 10 10 10 10 10 10 10 10 10 10 10 10 10 10 10 10 10 10 10 10 10 10 10 10 10 10 10 10 10 10 10 10 10 10 10 10 10 10 10 10 10 10 10 10 10 10 10 10 10 10 10 10 10 10 10 10 10 10 10 10 10 10 10 10 10 10 10 10 10 10 10 10 10 10 10 10 10 10 10 10 10 10 10 10 10 10 10 10 10 10 10 10 10 10 10 10 10 10 10 10 10 10 10 10 10 10 10 10 10 10 10 10 10 10 10 10 10 10 10 10 10 10 10 10 10 10 10 10 10 10 10 10 10 10 10 10 10 10 10 10 10 10 10 10 10 10 10 10 10 10 10 10 10 10 10 10 10 10 10 10 10 10 10 10 10 10 10 10 10 10 10 10 10 10 10 10 10 10 10 10 10 10 10 10 10 10 10 10 10 10 10 10 10 10 10 10 10 10 10 10 10 10 10 10 10 10 10 10 10 10 10 10 10 10 10 10 10 10 10 10 10 10 10 10 10 10 10 10 10 10 10 10 10 10 10 10 10 10 10 10 10 10 10 10 10 10 10 10 10 10 10 10 10 10 10 10 10 10 10 10 10 10 10 10 10 10 10 10 10 10 10 10 10 10 10 10 10 10 10 10 10 10 10 10 10 10 10 10 10 10 10 10 10 10 10 10 10 10 10 10 10 10 10 10 10 10 10 10 10 10 10 10 10 10 10 10 10 10 10 10 10 10 10 10 10 10 10 10 10 10 10 10 10 10 10 10 10 10 10 10 10 10 10 10 10 10 10 10 10 10 10 10 10 10 10 10 10 10 10 10 10 10 10 10 10 10 10 10 10 10 10 10 10 10 10 10 10 10 10 10 10 10 10 10 10 10 10 10 10 10 10 10 10 10 10 10 10 10 10 10 10 10 10 10 10 10 10 10 10 10 10 10 10 10 10 10 10 10 10 10 10 10 10 10 10 10 10 10 10 10 10 10 10 10 10 10 10 10 10 10 10 10 10 10 10 10 10 10 10 10 10 10 10 10 10 10 10 10 10 10 10 10 10 10 10 10 10 10 10 10 10 10 10 10 10 10 10 10 10 10 10 10 10 10 10 10 10 10 10 10 10 10 10 10 10 10 10 10 10 10 10 10 10 10 10 10 10 10 10 10 10 10 10 10 10 10 10 10 10 10 10 10 10 10 10 10 10 10 10 10 10 10 10 10 10 10 10 10 10 10 10 10 10 10 10 10 10 10 10 10 10 10 10 10 10 10 10 10 10 10 10 10 10 10 10 10 10 10 10 10 10 10 10 10 10 10 10 10 10 10 10 10 10 10 10 10 10 10 10 10 10 10 10 10 10 10 10 10 10 10 10 10 10 10 10 10 10 10 10 10 10 10 10 10 10 10 10 10 10 10 10 10 10 10 10 10 10 10 10 10 10 10 10 10 10 10 10 10 10 10 10 10 10 10 10 10 10 10 10 10 10 10 10 10 10 10 10 10 10 10 10 10 10 10 10 10 10 10 10 10 10 10 10 10 10 10 10 10 10 10 10 10 10 10 10 10 10 10 10 10 10 10 10 10 10 10 10 10 10 10 10 10 10 10 10 10 10 10 10 10 10 10 10 10 10 10 10 10 10 10 10 10 10 10 10 10 10 10 10 10 10 10 10 10 10 10 10 10 10 10 10 10 10 10 10 10 10 10 10 10 10 10 10 10 10 10 10 10 10 10 10 10 10 10 10 10 10 10 10 10 10 10 10 10 10 10 10 10 10 10 10 10 10 10 10 10 10 10 10 10 10 10 10 10 10 10 10 10 10 10 10 10 10 10 10 10 10 10 10 10 10 10 10 10 10 10 10 10 10 10 10 10 10 10 10 10 10 10 10 10 10 10 10 10 10 10 10 10 10 10 10 10 10 10 10 10 10 10 10 10 10 10 10 10 10 10 10 10 10 10 10 10 10 10 10 10 10 10 10 10 10 10 10 10 10 10 10 10 10 10 10 10 10 10 10 10 10 10 10 10 10 10 10 10 10 10 10 10 10 10 10 10 10 10 10 10 10 10 10 10 10 10 10 10 10 10 10 10 10 10 10 10 10 10 10 10 10 10 10 10 10 10 10 10 10 10 10 10 10 10 10 10 10 10 10 10 10 10 10 10 10 10 10 10 10 10 10 10 10 10 10 10 10 10 10 10 10 10 10 10 10 10 10 10 10 10 10 10 10 10 10 10 10 10 10 10 10 10 10 10 10 10 10 10 10 10 10 10 10 10 10 10 10 10 10 10 10 10 10 10 10 10 10 10 10 10 10 10 10 10 10 10 10 10 10 10 10 10 10 10 10 10 10 10 10 10 10 10 10 10 10 10 10 10 10 10 10 10 10 10 10 10 10 10 10 10 10 10 10 10 10 10 10 10 10 10 10 10 10 10 10 10 10 10 10 10 10 10 10 10 10 10 10 10 10 10 10 10 10 10 10 10 10 10 10 10 10 10 10 10 10 10 10 10 10 10 10 10 10 10 10 10 10 10 10 10 10 10 10 10 10 10 10 10 10 10 10 10 10 10 10 10 10 10 10 10 10 10 10 10 10 10 10 10 10 10 10 10 10 10 10 10 10 10 10 10 10 10 10 10 10 10 10 10 10 10 10 10 10 10 10 10 10 10 10 10 10 10 10 10 10 10 10 10 10 10 10 10 10 10 10 10 10 10 10 10 10 10 10 10 10 10 10 10 10 10 10 10 10 10 10 10 10 10 10 10 10 10 10 10 10 10 10 10 10 10 10 10 10 10 10 10 10 10 10 10 10 10 10 10 10 10 10 10 10 10 10 10 10 10 10 10 10 10 10 10 10 10 10 10 10 10 10 10 10 10 10 10 10 10 10 10 10 10 10 10 10 10 10 10 10 10 10 10 10 10 10 10 10 10 10 10 10 10 10 10 10 10 10 10 10 10 10 10 10 10 10 10 10 10 10 10 10 10 10 10 10 10 10 10 10 10 10 10 10 10 10 10 10 10 10 10 10 10 10 10 10 10 10 10 10 10 10 10 10 10 10 10 10 10 10 10 10 10 10 10 10 10 10 10 10 10 10 10 10 10 10 10 10 10 10 10 10 10 10 10 10 10 10 10 10 10 10 10 10 10 10 10 10 10 10 10 10 10 10 10 10 10 10 10 10 10 10 10 10 10 10 10 10 10 10 10 10 10 10 10 10 10 10 10 10 10 10 10 10 10 10 10 10 10 10 10 10 10 10 10 10 10 10 10 10 10 10 10 10 10 10 10 10 10 10 10 10 10 10 10 10 10 10 10 10 10 10 10 10 10 10 10 10 10 10 10 10 10 10 10 10 10 10 10 10 10 10 10 10 10 10 10 10 10 10 10 10 10 10 10 10 10 10 10 10 10 10 10 10 10 10 10 10 10 10 10 10 10 10 10 10 10 10 10 10 10 10 10 10 10 10 10 10 10 10 10 10 10 10 10 10 10 10 10 10 10 10 10 10 10 10 10 10 10 10 10 10 10 10 10 10 10 10 10 10 10 10 10 10 10 10 10 10 10 10 10 10 10 10 10 10 10 10 10 10 10 10 10 10 10 10 10 10 10 10 10 10 10 10 10 10 10 10 10 10 10 10 10 10 10 10 10 10 10 10 10 10 10 10 10 10 10 10 10 10 10 10 10 10 10 10 10 10 10 10 10 10 10 10 10 10 10 10 10 10 10 10 10 10 10 10 10 10 10 10 10 10 10 10 10 10 10 10 10 10 10 10 10 10 10 10 10 10 10 10 10 10 10 10 10 10 10 10 10 10 10 10 10 10 10 10 10 10 10 10 10 10 10 10 10 10 10 10 10 10 10 10 10 10 10 10 10 10 10 10 10 10 10 10 10 10 10 10 10 10 10 10 10 10 10 10 10 10 10 10 10 10 10 10 10 10 10 10 10 10 10 10 10 10 10 10 10 10 10 10 10 10 10 10 10 10 10 10 10 10 10 10 10 10 10 10 10 10 10 10 10 10 10 10 10 10 10 10 10 10 10 10 10 10 10 10 10 10 10 10 10 10 10 10 10 10 10 10 10 10 10 10 10 10 10 10 10 10 10 10 10 10 10 10 10 10 10 10 10 10 10 10 10 10 10 10 10 10 10 10 10 10 10 10 10 10 10 10 10 10 10 10 10 10 10 10 10 10 10 10 10 10 10 10 10 10 10 10 10 10 10 10 10 10 10 10 10 10 10 10 10 10 10 10 10 10 10 10 10 10 10 10 10 10 10 10 10 10 10 10 10 10 10 10 10 10 10 10 10 10 10 10 10 10 10 10 10 10 10 10 10 10 10 10 10 10 10 10 10 10 10 10 10 10 10 10 10 10 10 10 10 10 10 10 10 10 10 10 10 10 10 10 10 10 10 10 10 10 10 10 10 10 10 10 10 10 10 10 10 10 10 10 10 10 10 10 10 10 10 10 10 10 10 10 10 10 10 10 10 10 10 10 10 10 10 10 10 10 10 10 10 10 10 10 10 10 10 10 10 10 10 10 10 10 10 10 10 10 10 10 10 10 10 10 10 10 10 10 10 10 10 10 10 10 10 10 10 10 10 10 10 10 10 10 10 10 10 10 10 10 10 10 10 10 10 10 10 10 10 10 10 10 10 10 10 10 10 10 10 10 10 10 10 10 10 10 10 10 10 10 10 10 10 10 10 10 10 10 10 10 10 10 10 10 10 10 10 10 10 10 10 10 10 10 10 10 10 10 10 10 10 10 10 10 10 10 10 10 10 10 10 10 10 10 10 10 10 10 10 10 10 10 10 10 10 10 10 10 10 10 10 10 10 10 10 10 10 10 10 10 10 10 10 10 10 10 10 10 10 10 10 10 10 10 10 10 10 10 10 10 10 10 10 10 10 10 10 10 10 10 10 10 10 10 10 10 10 10 10 10 10 10 10 10 10 10 10 10 10 10 10 10 10 10 10 10 10 10 10 10 10 10 10 10 10 10 10 10 10 10 10 10 10 10 10 10 10 10 10 10 10 10 10 10 10 10 10 10 10 10 10 10 10 10 10 10 10 10 10 10 10 10 10 10 10 10 10 10 10 10 10 10 10 10 10 10 10 10 10 10 10 10 10 10 10 10 10 10 10 10 10 10 10 10 10 10 10 10 10 10 10 10 10 10 10 10 10 10 10 10 10 10 10 10 10 10 10 10 10 10 10 10 10 10 10 10 10 10 10 10 10 10 10 10 10 10 10 10 10 10 10 10 10 10 10 10 10 10 10 10 10 10 10 10 10 10 10 10 10 10 10 10 10 10 10 10 10 10 10 10 10 10 10 10 10 10 10 10 10 10 10 10 10 10 10 10 10 10 10 10 10 10 10 10 10 10 10 10 10 10 10 10 10 10 10 10 10 10 10 10 10 10 10 10 10 10 10 10 10 10 10 10 10 10 10 10 10 10 10 10 10 10 10 10 10 10 10 10 10 10 10 10 10 10 10 10 10 10 10 10 10 10 10 10 10 10 10 10 10 10 10 10 10 10 10 10 10 10 10 10 10 10 10 10 10 10 10 10 10 10 10 10 10 10 10 10 10 10 10 10 10 10 10 10 10 10 10 10 10 10 10 10 10 10 10 10 10 10 10 10 10 10 10 10 10 10 10 10 10 10 10 10 10 10 10 10 10 10 10 10 10 10 10 10 10 10 10 10 10 10 10 10 10 10 10 10 10 10 10 10 10 10 10 10 10 10 10 10 10 10 10 10 10 10 10 10 10 10 10 10 10 10 10 10 10 10 10 10 10 10 10 10 10 10 10 10 10 10 10 10 10 10 10 10 10 10 10 10 10 10 10 10 10 10 10 10 10 10 10 10 10 10 10 10 10 10 10 10 10 10 10 10 10 10 10 10 10 10 10 10 10 10 10 10 10 10 10 10 10 10 10 10 10 10 10 10 10 10 10 10 10 10 10 10 10 10 10 10 10 10 10 10 10 10 10 10 10 10 10 10 10 10 10 10 10 10 10 10 10 10 10 10 10 10 10 10 10 10 10 10 10 10 10 10 10 10 10 10 10 10 10 10 10 10 10 10 10 10 10 10 10 10 10 10 10 10 10 10 10 10 10 10 10 10 10 10 10 10 10 10 10 10 10 10 10 10 10 10 10 10 10 10 10 10 10 10 10 10 10 10 10 10 10 10 10 10 10 10 10 10 10 10 10 10 10 10 10 10 10 10 10 10 10 10 10 10 10 10 10 10 10 10 10 10 10 10 10 10 10 10 10 10 10 10 10 10 10 10 10 10 10 10 10 10 10 10 10 10 10 10 10 10 10 10 10 10 10 10 10 10 10 10 10 10 10 10 10 10 10 10 10 10 10 10 10 10 10 10 10 10 10 10 10 10 10 10 10 10 10 10 10 10 10 10 10 10 10 10 10 10 10 10 10 10 10 10 10 10 10 10 10 10 10 10 10 10 10 10 10 10 10 10 10 10 10 10 10 10 10 10 10 10 10 10 10 10 10 10 10 10 10 10 10 10 10 10 10 10 10 10 10 10 10 10 10 10 10 10 10 10 10 10 10 10 10 10 10 10 10 10 10 10 10 10 10 10 10 10 10 10 10 10 10 10 10 10 10 10 10 10 10 10 10 10 10 10 10 10 10 10 10 10 10 10 10 10 10 10 10 10 10 10 10 10 10 10 10 10 10 10 10 10 10 10 10 10 10 10 10 10 10 10 10 10 10 10 10 10 10 10 10 10 10 10 10 10 10 10 10 10 10 10 10 10 10 10 10 10 10 10 10 10 10 10 10 10 10 10 10 10 10 10 10 10 10 10 10 10 10 10 10 10 10 10 10 10 10 10 10 10 10 10 10 10 10 10 10 10 10 10 10 10 10 10 10 10 10 10 10 10 10 10 10 10 10 10 10 10 10 10 10 10 10 10 10 10 10 10 10 10 10 10 10 10 10 10 10 10 10 10 10 10 10 10 10 10 10 10 10 10 10 10 10 10 10 10 10 10 10 10 10 10 10 10 10 10 10 10 10 10 10 10 10 10 10 10 10 10 10 10 10 10 10 10 10 10 10 10 10 10 10 10 10 10 10 10 10 10 10 10 10 10 10 10 10 10 10 10 10 10 10 10 10 10 10 10 10 10 10 10 10 10 10 10 10 10 10 10 10 10 10 10 10 10 10 10 10 10 10 10 10 10 10 10 10 10 10 10 10 10 10 10 10 10 10 10 10 10 10 10 10 10 10 10 10 10 10 10 10 10 10 10 10 10 10 10 10 10 10 10 10 10 10 10 10 10 10 10 10 10 10 10 10 10 10 10 10 10 10 10 10 10 10 10 10 10 10 10 10 10 10 10 10 10 10 10 10 10 10 10 10 10 10 10 10 10 10 10 10 10 10 10 10 10 10 10 10 10 10 10 10 10 10 10 10 10 10 10 10 10 10 10 10 10 10 10 10 10 10 10 10 10 10 10 10 10 10 10 10 10 10 10 10 10 10 10 10 10 10 10 10 10 10 10 10 10 10 10 10 10 10 10 10 10 10 10 10 10 10 10 10 10 10 10 10 10 10 10 10 10 10 10 10 10 10 10 10 10 10 10 10 10 10 10 10 10 10 10 10 10 10 10 10 10 10 10 10 10 10 10 10 10 10 10 10 10 10 10 10 10 10 10 10 10 10 10 10 10 10 10 10 10 10 10 10 10 10 10 10 10 10 10 10 10 10 10 10 10 10 10 10 10 10 10 10 10 10 10 10 10 10 10 10 10 10 10 10 10 10 10 10 10 10 10 10 10 10 10 10 10 10 10 10 10 10 10 10 10 10 10 10 10 10 10 10 10 10 10 10 10 10 10 10 10 10 10 10 10 10 10 10 10 10 10 10 10 10 10 10 10 10 10 10 10 10 10 10 10 10 10 10 10 10 10 10 10 10 10 10 10 10 10 10 10 10 10 10 10 10 10 10 10 10 10 10 10 10 10 10 10 10 10 10 10 10 10 10 10 10 10 10 10 10 10 10 10 10 10 10 10 10 10 10 10 10 10 10 10 10 10 10 10 10 10 10 10 10 10 10 10 10 10 10 10 10 10 10 10 10 10 10 10 10 10 10 10 10 10 10 10 10 10 10 10 10 10 10 10 10 10 10 10 10 10 10 10 10 10 10 10 10 10 10 10 10 10 10 10 10 10 10 10 10 10 10 10 10 10 10 10 10 10 10 10 10 10 10 10 10 10 10 10 10 10 10 10 10 10 10 10 10 10 10 10 10 10 10 10 10 10 10 10 10 10 10 10 10 10 10 10 10 10 10 10 10 10 10 10 10 10 10 10 10 10 10 10 10 10 10 10 10 10 10 10 10 10 10 10 10 10 10 10 10 10 10 10 10 10 10 10 10 10 10 10 10 10 10 10 10 10 10 10 10 10 10 10 10 10 10 10 10 10 10 10 10 10 10 10 10 10 10 10 10 10 10 10 10 10 10 10 10 10 10 10 10 10 10 10 10 10 10 10 10 10 10 10 10 10 10 10 10 10 10 10 10 10 10 10 10 10 10 10 10 10 10 10 10 10 10 10 10 10 10 10 10 10 10 10 10 10 10 10 10 10 10 10 10 10 10 10 10 10 10 10 10 10 10 10 10 10 10 10 10 10 10 10 10 10 10 10 10 10 10 10 10 10 10 10 10 10 10 10 10 10 10 10 10 10 10 10 10 10 10 10 10 10 10 10 10 10 10 10 10 10 10 10 10 10 10 10 10 10 10 10 10 10 10 10 10 10 10 10 10 10 10 10 10 10 10 10 10 10 10 10 10 10 10 10 10 10 10 10 10 10 10 10 10 10 10 10 10 10 10 10 10 10 10 10 10 10 10 10 10 10 10 10 10 10 10 10 10 10 10 10 10 10 10 10 10 10 10 10 10 10 10 10 10 10 10 10 10 10 10 10 10 10 10 10 10 10 10 10 10 10 10 10 10 10 10 10 10 10 10 10 10 10 10 10 10 10 10 10 10 10 10 10 10 10 10 10 10 10 10 10 10 10 10 10 10 10 10 10 10 10 10 10 10 10 10 10 10 10 10 10 10 10 10 10 10 10 10 10 10 10 10 10 10 10 10 10 10 10 10 10 10 10 10 10 10 10 10 10 10 10 10 10 10 10 10 10 10 10 10 10 10 10 10 10 10 10 10 10 10 10 10 10 10 10 10 10 10 10 10 10 10 10 10 10 10 10 10 10 10 10 10 10 10 10 10 10 10 10 10 10 10 10 10 10 10 10 10 10 10 10 10 10 10 10 10 10 10 10 10 10 10 10 10 10 10 10 10 10 10 10 10 10 10 10 10 10 10 10 10 10 10 10 10 10 10 10 10 10 10 10 10 10 10 10 10 10 10 10 10 10 10 10 10 10 10 10 10 10 10 10 10 10 10 10 10 10 10 10 10 10 10 10 10 10 10 10 10 10 10 10 10 10 10 10 10 10 10 10 10 10 10 10 10 10 10 10 10 10 10 10 10 10 10 10 10 10 10 10 10 10 10 10 10 10 10 10 10 10 10 10 10 10 10 10 10 10 10 10 10 10 10 10 10 10 10 10 10 10 10 10 10 10 10 10 10 10 10 10 10 10 10 10 10 10 10 10 10 10 10 10 10 10 10 10 10 10 10 10 10 10 10 10 10 10 10 10 10 10 10 10 10 10 10 10 10 10 10 10 10 10 10 10 10 10 10 10 10 10 10 10 10 10 10 10 10 10 10 10 10 10 10 10 10 10 10 10 10 10 10 10 10 10 10 10 10 10 10 10 10 10 10 10 10 10 10 10 10 10 10 10 10 10 10 10 10 10 10 10 10 10 10 10 10 10 10 10 10 10 10 10 10 10 10 10 10 10 10 10 10 10 10 10 10 10 10 10 10 10 10 10 10 10 10 10 10 10 10 10 10 10 10 10 10 10 10 10 10 10 10 10 10 10 10 10 10 10 10 10 10 10 10 10 10 10 10 10 10 10 10 10 10 10 10 10 10 10 10 10 10 10 10 10 10 10 10 10 10 10 10 10 10 10 10 10 10 10 10 10 10 10 10 10 10 10 10 10 10 10 10 10 10 10 10 10 10 10 10 10 10 10 10 10 10 10 10 10 10 10 10 10 10 10 10 10 10 10 10 10 10 10 10 10 10 10 10 10 10 10 10 10 10 10 10 10 10 10 10 10 10 10 10 10 10 10 10 10 10 10 10 10 10 10 10 10 10 10 10 10 10 10 10 10 10 10 10 10 10 10 10 10 10 10 10 10 10 10 10 10 10 10 10 10 10 10 10 10 10 10 10 10 10 10 10 10 10 10 10 10 10 10 10 10 10 10 10 10 10 10 10 10 10 10 10 10 10 10 10 10 10 10 10 10 10 10 10 10 10 10 10 10 10 10 10 10 10 10 10 10 10 10 10 10 10 10 10 10 10 10 10 10 10 10 10 10 10 10 10 10 10 10 10 10 10 10 10 10 10 10 10 10 10 10 10 10 10 10 10 10 10 10 10 10 10 10 10 10 10 10 10 10 10 10 10 10 10 10 10 10 10 10 10 10 10 10 10 10 10 10 10 10 10 10 10 10 10 10 10 10 10 10 10 10 10 10 10 10 10 10 10 10 10 10 10 10 10 10 10 10 10 10 10 10 10 10 10 10 10 10 10 10 10 10 10 10 10 10 10 10 10 10 10 10 10 10 10 10 10 10 10 10 10 10 10 10 10 10 10 10 10 10 10 10 10 10 10 10 10 10 10 10 10 10 10 10 10 10 10 10 10 10 10 10 10 10 10 10 10 10 10 10 10 10 10 10 10 10 10 10 10 10 10 10 10 10 10 10 10 10 10 10 10 10 10 10 10 10 10 10 10 10 10 10 10 10 10 10 10 10 10 10 10 10 10 10 10 10 10 10 10 10 10 10 10 10 10 10 10 10 10 10 10 10 10 10 10 10 10 10 10 10 10 10 10 10 10 10 10 10 10 10 10 10 10 10 10 10 10 10 10 10 10 10 10 10 10 10 10 10 10 10 10 10 10 10 10 10 10 10 10 10 10 10 10 10 10 10 10 10 10 10 10 10 10 10 10 10 10 10 10 10 10 10 10 10 10 10 10 10 10 10 10 10 10 10 10 10 10 10 10 10 10 10 10 10 10 10 10 10 10 10 10 10 10 10 10 10 10 10 10 10 10 10 10 10 10 10 10 10 10 10 10 10 10 10 10 10 10 10 10 10 10 10 10 10 10 10 10 10 10 10 10 10 10 10 10 10 10 10 10 10 10 10 10 10 10 10 10 10 10 10 10 10 10 10 10 10 10 10 10 10 10 10 10 10 10 10 10 10 10 10 10 10 10 10 10 10 10 10 10 10 10 10 10 10 10 10 10 10 10 10 10 10 10 10 10 10 10 10 10 10 10 10 10 10 10 10 10 10 10 10 10 10 10 10 10 10 10 10 10 10 10 10 10 10 10 10 10 10 10 10 10 10 10 10 10 10 10 10 10 10 10 10 10 10 10 10 10 10 10 10 10 10 10 10 10 10 10 10 10 10 10 10 10 10 10 10 10 10 10 10 10 10 10 10 10 10 10 10 10 10 10 10 10 10 10 10 10 10 10 10 10 10 10 10 10 10 10 10 10 10 10 10 10 10 10 10 10 10 10 10 10 10 10 10 10 10 10 10 10 10 10 10 10 10 10 10 10 10 10 10 10 10 10 10 10 10 10 10 10 10 10 10 10 10 10 10 10 10 10 10 10 10 10 10 10 10 10 10 10 10 10 10 10 10 10 10 10 10 10 10 10 10 10 10 10 10 10 10 10 10 10 10 10 10 10 10 10 10 10 10 10 10 10 10 10 10 10 10 10 10 10 10 10 10 10 10 10 10 10 10 10 10 10 10 10 10 10 10 10 10 10 10 10 10 10 10 10 10 10 10 10 10 10 10 10 10 10 10 10 10 10 10 10 10 10 10 10 10 10 10 10 10 10 10 10 10 10 10 10 10 10 10 10 10 10 10 10 10 10 10 10 10 10 10 10 10 10 10 10 10 10 10 10 10 10 10 10 10 10 10 10 10 10 10 10 10 10 10 10 10 10 10 10 10 10 10 10 10 10 10 10 10 10 10 10 10 10 10 10 10 10 10 10 10 10 10 10 10 10 10 10 10 10 10 10 10 10 10 10 10 10 10 10 10 10 10 10 10 10 10 10 10 10 10 10 10 10 10 10 10 10 10 10 10 10 10 10 10 10 10 10 10 10 10 10 10 10 10 10 10 10 10 10 10 10 10 10 10 10 10 10 10 10 10 10 10 10 10 10 10 10 10 10 10 10 10 10 10 10 10 10 10 10 10 10 10 10 10 10 10 10 10 10 10 10 10 10 10 10 10 10 10 10 10 10 10 10 10 10 10 10 10 10 10 10 10 10 10 10 10 10 10 10 10 10 10 10 10 10 10 10 10 10 10 10 10 10 10 10 10 10 10 10 10 10 10 10 10 10 10 10 10 10 10 10 10 10 10 10 10 10 10 10 10 10 10 10 10 10 10 10 10 10 10 10 10 10 10 10 10 10 10 10 10 10 10 10 10 10 10 10 10 10 10 10 10 10 10 10 10 10 10 10 10 10 10 10 10 10 10 10 10 10 10 10 10 10 10 10 10 10 10 10 10 10 10 10 10 10 10 10 10 10 10 10 10 10 10 10 10 10 10 10 10 10 10 10 10 10 10 10 10 10 10 10 10 10 10 10 10 10 10 10 10 10 10 10 10 10 10 10 10 10 10 10 10 10 10 10 10 10 10 10 10 10 10 10 10 10 10 10 10 10 10 10 10 10 10 10 10 10 10 10 10 10 10 10 10 10 10 10 10 10 10 10 10 10 10 10 10 10 10 10 10 10 10 10 10 10 10 10 10 10 10 10 10 10 10 10 10 10 10 10 10 10 10 10 10 10 10 10 10 10 10 10 10 10 10 10 10 10 10 10 10 10 10 10 10 10 10 10 10 10 10 10 10 10 10 10 10 10 10 10 10 10 10 10 10 10 10 10 10 10 10 10 10 10 10 10 10 10 10 10 10 10 10 10 10 10 10 10 10 10 10 10 10 10 10 10 10 10 10 10 10 10 10 10 10 10 10 10 10 10 10 10 10 10 10 10 10 10 10 10 10 10 10 10 10 10 10 10 10 10 10 10 10 10 10 10 10 10 10 10 10 10 10 10 10 10 10 10 10 10 10 10 10 10 10 10 10 10 10 10 10 10 10 10 10 10 10 10 10 10 10 10 10 10 10 10 10 10 10 10 10 10 10 10 10 10 10 10 10 10 10 10 10 10 10 10 10 10 10 10 10 10 10 10 10 10 10 10 10 10 10 10 10 10 10 10 10 10 10 10 10 10 10 10 10 10 10 10 10 10 10 10 10 10 10 10 10 10 10 10 10 10 10 10 10 10 10 10 10 10 10 10 10 10 10 10 10 10 10 10 10 10 10 10 10 10 10 10 10 10 10 10 10 10 10 10 10 10 10 10 10 10 10 10 10 10 10 10 10 10 10 10 10 10 10 10 10 10 10 10 10 10 10 10 10 10 10 10 10 10 10 10 10 10 10 10 10 10 10 10 10 10 10 10 10 10 10 10 10 10 10 10 10 10 10 10 10 10 10 10 10 10 10 10 10 10 10 10 10 10 10 10 10 10 10 10 10 10 10 10 10 10 10 10 10 10 10 10 10 10 10 10 10 10 10 10 10 10 10 10 10 10 10 10 10 10 10 10 10 10 10 10 10 10 10 10 10 10 10 10 10 10 10 10 10 10 10 10 10 10 10 10 10 10 10 10 10 10 10 10 10 10 10 10 10 10 10 10 10 10 10 10 10 10 10 10 10 10 10 10 10 10 10 10 10 10 10 10 10 10 10 10 10 10 10 10 10 10 10 10 10 10 10 10 10 10 10 10 10 10 10 10 10 10 10 10 10 10 10 10 10 10 10 10 10 10 10 10 10 10 10 10 10 10 10 10 10 10 10 10 10 10 10 10 10 10 10 10 10 10 10 10 10 10 10 10 10 10 10 10 10 10 10 10 10 10 10 10 10 10 10 10 10 10 10 10 10 10 10 10 10 10 10 10 10 10 10 10 10 10 10 10 10 10 10 10 10 10 10 10 10 10 10 10 10 10 10 10 10 10 10 10 10 10 10 10 10 10 10 10 10 10 10 10 10 10 10 10 10 10 10 10 10 10 10 10 10 10 10 10 10 10 10 10 10 10 10 10 10 10 10 10 10 10 10 10 10 10 10 10 10 10 10 10 10 10 10 10 10 10 10 10 10 10 10 10 10 10 10 10 10 10 10 10 10 10 10 10 10 10 10 10 10 10 10 10 10 10 10 10 10 10 10 10 10 10 10 10 10 10 10 10 10 10 10 10 10 10 10 10 10 10 10 10 10 10 10 10 10 10 10 10 10 10 10 10 10 10 10 10 10 10 10 10 10 10 10 10 10 10 10 10 10 10 10 10 10 10 10 10 10 10 10 10 10 10 10 10 10 10 10 10 10 10 10 10 10 10 10 10 10 10 10 10 10 10 10 10 10 10 10 10 10 10 10 10 10 10 10 10 10 10 10 10 10 10 10 10 10 10 10 10 10 10 10 10 10 10 10 10 10 10 10 10 10 10 10 10 10 10 10 10 10 10 10 10 10 10 10 10 10 10 10 10 10 10 10 10 10 10 10 10 10 10 10 10 10 10 10 10 10 10 10 10 10 10 10 10 10 10 10 10 10 10 10 10 10 10 10 10 10 10 10 10 10 10 10 10 10 10 10 10 10 10 10 10 10 10 10 10 10 10 10 10 10 10 10 10 10 10 10 10 10 10 10 10 10 10 10 10 10 10 10 10 10 10 10 10 10 10 10 10 10 10 10 10 10 10 10 10 10 10 10 10 10 10 10 10 10 10 10 10 10 10 10 10 10 10 10 10 10 10 10 10 10 10 10 10 10 10 10 10 10 10 10 10 10 10 10 10 10 10 10 10 10 10 10 10 10 10 10 10 10 10 10 10 10 10 10 10 10 10 10 10 10 10 10 10 10 10 10 10 10 10 10 10 10 10 10 10 10 10 10 10 10 10 10 10 10 10 10 10 10 10 10 10 10 10 10 10 10 10 10 10 10 10 10 10 10 10 10 10 10 10 10 10 10 10 10 10 10 10 10 10 10 10 10 10 10 10 10 10 10 10 10 10 10 10 10 10 10 10 10 10 10 10 10 10 10 10 10 10 10 10 10 10 10 10 10 10 10 10 10 10 10 10 10 10 10 10 10 10 10 10 10 10 10 10 10 10 10 10 10 10 10 10 10 10 10 10 10 10 10 10 10 10 10 10 10 10 10 10 10 10 10 10 10 10 10 10 10 10 10 10 10 10 10 10 10 10 10 10 10 10 10 10 10 10 10 10 10 10 10 10 10 10 10 10 10 10 10 10 10 10 10 10 10 10 10 10 10 10 10 10 10 10 10 10 10 10 10 10 10 10 10 10 10 10 10 10 10 10 10 10 10 10 10 10 10 10 10 10 10 10 10 10 10 10 10 10 10 10 10 10 10 10 10 10 10 10 10 10 10 10 10 10 10 10 10 10 10 10 10 10 10 10 10 10 10 10 10 10 10 10 10 10 10 10 10 10 10 10 10 10 10 10 10 10 10 10 10 10 10 10 10 10 10 10 10 10 10 10 10 10 10 10 10 10 10 10 10 10 10 10 10 10 10 10 10 10 10 10 10 10 10 10 10 10 10 10 10 10 10 10 10 10 10 10 10 10 10 10 10 10 10 10 10 10 10 10 10 10 10 10 10 10 10 10 10 10 10 10 10 10 10 10 10 10 10 10 10 10 10 10 10 10 10 10 10 10 10 10 10 10 10 10 10 10 10 10 10 10 10 10 10 10 10 10 10 10 10 10 10 10 10 10 10 10 10 10 10 10 10 10 10 10 10 10 10 10 10 10 10 10 10 10 10 10 10 10 10 10 10 10 10 10 10 10 10 10 10 10 10 10 10 10 10 10 10 10 10 10 10 10 10 10 10 10 10 10 10 10 10 10 10 10 10 10 10 10 10 10 10 10 10 10 10 10 10 10 10 10 10 10 10 10 10 10 10 10 10 10 10 10 10 10 10 10 10 10 10 10 10 10 10 10 10 10 10 10 10 10 10 10 10 10 10 10 10 10 10 10 10 10 10 10 10 10 10 10 10 10 10 10 10 10 10 10 10 10 10 10 10 10 10 10 10 10 10 10 10 10 10 10 10 10 10 10 10 10 10 10 10 10 10 10 10 10 10 10 10 10 10 10 10 10 10 10 10 10 10 10 10 10 10 10 10 10 10 10 10 10 10 10 10 10 10 10 10 10 10 10 10 10 10 10 10 10 10 10 10 10 10 10 10 10 10 10 10 10 10 10 10 10 10 10 10 10 10 10 10 10 10 10 10 10 10 10 10 10 10 10 10 10 10 10 10 10 10 10 10 10 10 10 10 10 10 10 10 10 10 10 10 10 10 10 10 10 10 10 10 10 10 10 10 10 10 10 10 10 10 10 10 10 10 10 10 10 10 10 10 10 10 10 10 10 10 10 10 10 10 10 10 10 10 10 10 10 10 10 10 10 10 10 10 10 10 10 10 10 10 10 10 10 10 10 10 10 10 10 10 10 10 10 10 10 10 10 10 10 10 10 10 10 10 10 10 10 10 10 10 10 10 10 10 10 10 10 10 10 10 10 10 10 10 10 10 10 10 10 10 10 10 10 10 10 10 10 10 10 10 10 10 10 10 10 10 10 10 10 10 10 10 10 10 10 10 10 10 10 10 10 10 10 10 10 10 10 10 10 10 10 10 10 10 10 10 10 10 10 10 10 10 10 10 10 10 10 10 10 10 10 10 10 10 10 10 10 10 10 10 10 10 10 10 10 10 10 10 10 10 10 10 10 10 10 10 10 10 10 10 10 10 10 10 10 10 10 10 10 10 10 10 10 10 10 10 10 10 10 10 10 10 10 10 10 10 10 10 10 10 10 10 10 10 10 10 10 10 10 10 10 10 10 10 10 10 10 10 10 10 10 10 10 10 10 10 10 10 10 10 10 10 10 10 10 10 10 10 10 10 10 10 10 10 10 10 10 10 10 10 10 10 10 10 10 10 10 10 10 10 10 10 10 10 10 10 10 10 10 10 10 10 10 10 10 10 10 10 10 10 10 10 10 10 10 10 10 10 10 10 10 10 10 10 10 10 10 10 10 10 10 10 10 10 10 10 10 10 10 10 10 10 10 10 10 10 10 10 10 10 10 10 10 10 10 10 10 10 10 10 10 10 10 10 10 10 10 10 10 10 10 10 10 10 10 10 10 10 10 10 10 10 10 10 10 10 10 10 10 10 10 10 10 10 10 10 10 10 10 10 10 10 10 10 10 10 10 10 10 10 10 10 10 10 10 10 10 10 10 10 10 10 10 10 10 10 10 10 10 10 10 10 10 10 10 10 10 10 10 10 10 10 10 10 10 10 10 10 10 10 10 10 10 10 10 10 10 10 10 10 10 10 10 10 10 10 10 10 10 10 10 10 10 10 10 10 10 10 10 10 10 10 10 10 10 10 10 10 10 10 10 10 10 10 10 10 10 10 10 10 10 10 10 10 10 10 10 10 10 10 10 10 10 10 10 10 10 10 10 10 10 10 10 10 10 10 10 10 10 10 10 10 10 10 10 10 10 10 10 10 10 10 10 10 10 10 10 10 10 10 10 10 10 10 10 10 10 10 10 10 10 10 10 10 10 10 10 10 10 10 10 10 10 10 10 10 10 10 10 10 10 10 10 10 10 10 10 10 10 10 10 10 10 10 10 10 10 10 10 10 10 10 10 10 10 10 10 10 10 10 10 10 10 10 10 10 10 10 10 10 10 10 10 10 10 10 10 10 10 10 10 10 10 10 10 10 10 10 10 10 10 10 10 10 10 10 10 10 10 10 10 10 10 10 10 10 10 10 10 10 10 10 10 10 10 10 10 10 10 10 10 10 10 10 10 10 10 10 10 10 10 10 10 10 10 10 10 10 10 10 10 10 10 10 10 10 10 10 10 10 10 10 10 10 10 10 10 10 10 10 10 10 10 10 10 10 10 10 10 10 10 10 10 10 10 10 10 10 10 10 10 10 10 10 10 10 10 10 10 10 10 10 10 10 10 10 10 10 10 10 10 10 10 10 10 10 10 10 10 10 10 10 10 10 10 10 10 10 10 10 10 10 10 10 10 10 10 10 10 10 10 10 10 10 10 10 10 10 10 10 10 10 10 10 10 10 10 10 10 10 10 10 10 10 10 10 10 10 10 10 10 10 10 10 10 10 10 10 10 10 10 10 10 10 10 10 10 10 10 10 10 10 10 10 10 10 10 10 10 10 10 10 10 10 10 10 10 10 10 10 10 10 10 10 10 10 10 10 10 10 10 10 10 10 10 10 10 10 10 10 10 10 10 10 10 10 10 10 10 10 10 10 10 10 10 10 10 10 10 10 10 10 10 10 10 10 10 10 10 10 10 10 10 10 10 10 10 10 10 10 10 10 10 10 10 10 10 10 10 10 10 10 10 10 10 10 10 10 10 10 10 10 10 10 10 10 10 10 10 10 10 10 10 10 10 10 10 10 10 10 10 10 10 10 10 10 10 10 10 10 10 10 10 10 10 10 10 10 10 10 10 10 10 10 10 10 10 10 10 10 10 10 10 10 10 10 10 10 10 10 10 10 10 10 10 10 10 10 10 10 10 10 10 10 10 10 10 10 10 10 10 10 10 10 10 10 10 10 10 10 10 10 10 10 10 10 10 10 10 10 10 10 10 10 10 10 10 10 10 10 10 10 10 10 10 10 10 10 10 10 10 10 10 10 10 10 10 10 10 10 10 10 10 10 10 10 10 10 10 10 10 10 10 10 10 10 10 10 10 10 10 10 10 10 10 10 10 10 10 10 10 10 10 10 10 10 10 10 10 10 10 10 10 10 10 10 10 10 10 10 10 10 10 10 10 10 10 10 10 10 10 10 10 10 10 10 10 10 10 10 10 10 10 10 10 10 10 10 10 10 10 10 10 10 10 10 10 10 10 10 10 10 10 10 10 10 10 10 10 10 10 10 10 10 10 10 10 10 10 10 10 10 10 10 10 10 10 10 10 10 10 10 10 10 10 10 10 10 10 10 10 10 10 10 10 10 10 10 10 10 10 10 10 10 10 10 10 10 10 10 10 10 10 10 10 10 10 10 10 10 10 10 10 10 10 10 10 10 10 10 10 10 10 10 10 10 10 10 10 10 10 10 10 10 10 10 10 10 10 10 10 10 10 10 10 10 10 10 10 10 10 10 10 10 10 10 10 10 10 10 10 10 10 10 10 10 10 10 10 10 10 10 10 10 10 10 10 10 10 10 10 10 10 10 10 10 10 10 10 10 

POINT_DATA 2673
SCALARS weights float 1
LOOKUP_TABLE default
0.488281 0.651042 0.651042 0.651042 0.651042 0.651042 0.651042 0.651042 0.651042 0.651042 0.651042 0.651042 0.651042 0.651042 0.651042 0.651042 0.651042 0.651042 0.651042 0.651042 0.651042 0.651042 0.651042 0.651042 0.651042 0.651042 0.651042 0.651042 0.651042 0.651042 0.651042 0.651042 0.16276 0.651042 0.976562 0.976562 0.976562 0.976562 0.976562 0.976562 0.976562 0.976562 0.976562 0.976562 0.976562 0.976562 0.976562 0.976562 0.976562 0.976562 0.976562 0.976562 0.976562 0.976562 0.976562 0.976562 0.976562 0.976562 0.976562 0.976562 0.976562 0.976562 0.976562 0.976562 0.976562 0.325521 0.651042 0.976562 0.976562 0.976562 0.976562 0.976562 0.976562 0.976562 0.976562 0.976562 0.976562 0.976562 0.976562 0.976562 0.976562 0.976562 0.976562 0.976562 0.976562 0.976562 0.976562 0.976562 0.976562 0.976562 0.976562 0.976562 0.976562 0.976562 0.976562 0.976562 0.976562 0.976562 0.325521 0.651042 0.976562 0.976562 0.976562 0.976562 0.976562 0.976562 0.976562 0.976562 0.976562 0.976562 0.976562 0.976562 0.976562 0.976562 0.976562 0.976562 0.976562 0.976562 0.976562 0.976562 0.976562 0.976562 0.976562 0.976562 0.976562 0.976562 0.976562 0.976562 0.976562 0.976562 0.976562 0.325521 0.651042 0.976562 0.976562 0.976562 0.976562 0.976562 0.976562 0.976562 0.976562 0.976562 0.976562 0.976562 0.976562 0.976562 0.976562 0.976562 0.976562 0.976562 0.976562 0.976562 0.976562 0.976562 0.976562 0.976562 0.976562 0.976562 0.976562 0.976562 0.976562 0.976562 0.976562 0.976562 0.325521 0.651042 0.976562 0.976562 0.976562 0.976562 0.976562 0.976562 0.976562 0.976562 0.976562 0.976562 0.976562 0.976562 0.976562 0.976562 0.976562 0.976562 0.976562 0.976562 0.976562 0.976562 0.976562 0.976562 0.976562 0.976562 0.976562 0.976562 0.976562 0.976562 0.976562 0.976562 0.976562 0.325521 0.651042 0.976562 0.976562 0.976562 0.976562 0.976562 0.976562 0.976562 0.976562 0.976562 0.976562 0.976562 0.976562 0.976562 0.976562 0.976562 0.976562 0.976562 0.976562 0.976562 0.976562 0.976562 0.976562 0.976562 0.976562 0.976562 0.976562 0.976562 0.976562 0.976562 0.976562 0.976562 0.325521 0.651042 0.976562 0.976562 0.976562 0.976562 0.976562 0.976562 0.976562 0.976562 0.976562 0.976562 0.976562 0.976562 0.976562 0.976562 0.976562 0.976562 0.976562 0.976562 0.976562 0.976562 0.976562 0.976562 0.976562 0.976562 0.976562 0.976562 0.976562 0.976562 0.976562 0.976562 0.976562 0.325521 0.16276 0.325521 0.325521 0.325521 0.325521 0.325521 0.325521 0.325521 0.325521 0.325521 0.325521 0.325521 0.325521 0.325521 0.325521 0.325521 0.325521 0.325521 0.325521 0.325521 0.325521 0.325521 0.325521 0.325521 0.325521 0.325521 0.325521 0.325521 0.325521 0.325521 0.325521 0.325521 0.16276 0.651042 0.976562 0.976562 0.976562 0.976562 0.976562 0.976562 0.976562 0.976562 0.976562 0.976562 0.976562 0.976562 0.976562 0.976562 0.976562 0.976562 0.976562 0.976562 0.976562 0.976562 0.976562 0.976562 0.976562 0.976562 0.976562 0.976562 0.976562 0.976562 0.976562 0.976562 0.976562 0.325521 0.976562 1.95313 1.95313 1.95313 1.95313 1.95313 1.95313 1.95313 1.95313 1.95313 1.95313 1.95313 1.95313 1.95313 1.95313 1.95313 1.95313 1.95313 1.95313 1.95313 1.95313 1.95313 1.95313 1.95313 1.95313 1.95313 1.95313 1.95313 1.95313 1.95313 1.95313 1.95313 0.976562 0.976562 1.95313 1.95313 1.95313 1.95313 1.95313 1.95313 1.95313 1.95313 1.95313 1.95313 1.95313 1.95313 1.95313 1.95313 1.95313 1.95313 1.95313 1.95313 1.95313 1.95313 1.95313 1.95313 1.95313 1.95313 1.95313 1.95313 1.95313 1.95313 1.95313 1.95313 1.95313 0.976562 0.976562 1.95313 1.95313 1.95313 1.95313 1.95313 1.95313 1.95313 1.95313 1.95313 1.95313 1.95313 1.95313 1.95313 1.95313 1.95313 1.95313 1.95313 1.95313 1.95313 1.95313 1.95313 1.95313 1.95313 1.95313 1.95313 1.95313 1.95313 1.95313 1.95313 1.95313 1.95313 0.976562 0.976562 1.95313 1.95313 1.95313 1.95313 1.95313 1.95313 1.95313 1.95313 1.95313 1.95313 1.95313 1.95313 1.95313 1.95313 1.95313 1.95313 1.95313 1.95313 1.95313 1.95313 1.95313 1.95313 1.95313 1.95313 1.95313 1.95313 1.95313 1.95313 1.95313 1.95313 1.95313 0.976562 0.976562 1.95313 1.95313 1.95313 1.95313 1.95313 1.95313 1.95313 1.95313 1.95313 1.95313 1.95313 1.95313 1.95313 1.95313 1.95313 1.95313 1.95313 1.95313 1.95313 1.95313 1.95313 1.95313 1.95313 1.95313 1.95313 1.95313 1.95313 1.95313 1.95313 1.95313 1.95313 0.976562 0.976562 1.95313 1.95313 1.95313 1.95313 1.95313 1.95313 1.95313 1.95313 1.95313 1.95313 1.95313 1.95313 1.95313 1.95313 1.95313 1.95313 1.95313 1.95313 1.95313 1.95313 1.95313 1.95313 1.95313 1.95313 1.95313 1.95313 1.95313 1.95313 1.95313 1.95313 1.95313 0.976562 0.976562 1.95313 1.95313 1.95313 1.95313 1.95313 1.95313 1.95313 1.95313 1.95313 1.95313 1.95313 1.95313 1.95313 1.95313 1.95313 1.95313 1.95313 1.95313 1.95313 1.95313 1.95313 1.95313 1.95313 1.95313 1.95313 1.95313 1.95313 1.95313 1.95313 1.95313 1.95313 0.976562 0.325521 0.976562 0.976562 0.976562 0.976562 0.976562 0.976562 0.976562 0.976562 0.976562 0.976562 0.976562 0.976562 0.976562 0.976562 0.976562 0.976562 0.976562 0.976562 0.976562 0.976562 0.976562 0.976562 0.976562 0.976562 0.976562 0.976562 0.976562 0.976562 0.976562 0.976562 0.976562 0.651042 0.651042 0.976562 0.976562 0.976562 0.976562 0.976562 0.976562 0.976562 0.976562 0.976562 0.976562 0.976562 0.976562 0.976562 0.976562 0.976562 0.976562 0.976562 0.976562 0.976562 0.976562 0.976562 0.976562 0.976562 0.976562 0.976562 0.976562 0.976562 0.976562 0.976562 0.976562 0.976562 0.325521 0.976562 1.95313 1.95313 1.95313 1.95313 1.95313 1.95313 1.95313 1.95313 1.95313 1.95313 1.95313 1.95313 1.95313 1.95313 1.95313 1.95313 1.95313 1.95313 1.95313 1.95313 1.95313 1.95313 1.95313 1.95313 1.95313 1.95313 1.95313 1.95313 1.95313 1.95313 1.95313 0.976562 0.976562 1.95313 1.95313 1.95313 1.95313 1.95313 1.95313 1.95313 1.95313 1.95313 1.95313 1.95313 1.95313 1.95313 1.95313 1.95313 1.95313 1.95313 1.95313 1.95313 1.95313 1.95313 1.95313 1.95313 1.95313 1.95313 1.95313 1.95313 1.95313 1.95313 1.95313 1.95313 0.976562 0.976562 1.95313 1.95313 1.95313 1.95313 1.95313 1.95313 1.95313 1.95313 1.95313 1.95313 1.95313 1.95313 1.95313 1.95313 1.95313 1.95313 1.95313 1.95313 1.95313 1.95313 1.95313 1.95313 1.95313 1.95313 1.95313 1.95313 1.95313 1.95313 1.95313 1.95313 1.95313 0.976562 0.976562 1.95313 1.95313 1.95313 1.95313 1.95313 1.95313 1.95313 1.95313 1.95313 1.95313 1.95313 1.95313 1.95313 1.95313 1.95313 1.95313 1.95313 1.95313 1.95313 1.95313 1.95313 1.95313 1.95313 1.95313 1.95313 1.95313 1.95313 1.95313 1.95313 1.95313 1.95313 0.976562 0.976562 1.95313 1.95313 1.95313 1.95313 1.95313 1.95313 1.95313 1.95313 1.95313 1.95313 1.95313 1.95313 1.95313 1.95313 1.95313 1.95313 1.95313 1.95313 1.95313 1.95313 1.95313 1.95313 1.95313 1.95313 1.95313 1.95313 1.95313 1.95313 1.95313 1.95313 1.95313 0.976562 0.976562 1.95313 1.95313 1.95313 1.95313 1.95313 1.95313 1.95313 1.95313 1.95313 1.95313 1.95313 1.95313 1.95313 1.95313 1.95313 1.95313 1.95313 1.95313 1.95313 1.95313 1.95313 1.95313 1.95313 1.95313 1.95313 1.95313 1.95313 1.95313 1.95313 1.95313 1.95313 0.976562 0.976562 1.95313 1.95313 1.95313 1.95313 1.95313 1.95313 1.95313 1.95313 1.95313 1.95313 1.95313 1.95313 1.95313 1.95313 1.95313 1.95313 1.95313 1.95313 1.95313 1.95313 1.95313 1.95313 1.95313 1.95313 1.95313 1.95313 1.95313 1.95313 1.95313 1.95313 1.95313 0.976562 0.325521 0.976562 0.976562 0.976562 0.976562 0.976562 0.976562 0.976562 0.976562 0.976562 0.976562 0.976562 0.976562 0.976562 0.976562 0.976562 0.976562 0.976562 0.976562 0.976562 0.976562 0.976562 0.976562 0.976562 0.976562 0.976562 0.976562 0.976562 0.976562 0.976562 0.976562 0.976562 0.651042 0.651042 0.976562 0.976562 0.976562 0.976562 0.976562 0.976562 0.976562 0.976562 0.976562 0.976562 0.976562 0.976562 0.976562 0.976562 0.976562 0.976562 0.976562 0.976562 0.976562 0.976562 0.976562 0.976562 0.976562 0.976562 0.976562 0.976562 0.976562 0.976562 0.976562 0.976562 0.976562 0.325521 0.976562 1.95313 1.95313 1.95313 1.95313 1.95313 1.95313 1.95313 1.95313 1.95313 1.95313 1.95313 1.95313 1.95313 1.95313 1.95313 1.95313 1.95313 1.95313 1.95313 1.95313 1.95313 1.95313 1.95313 1.95313 1.95313 1.95313 1.95313 1.95313 1.95313 1.95313 1.95313 0.976562 0.976562 1.95313 1.95313 1.95313 1.95313 1.95313 1.95313 1.95313 1.95313 1.95313 1.95313 1.95313 1.95313 1.95313 1.95313 1.95313 1.95313 1.95313 1.95313 1.95313 1.95313 1.95313 1.95313 1.95313 1.95313 1.95313 1.95313 1.95313 1.95313 1.95313 1.95313 1.95313 0.976562 0.976562 1.95313 1.95313 1.95313 1.95313 1.95313 1.95313 1.95313 1.95313 1.95313 1.95313 1.95313 1.95313 1.95313 1.95313 1.95313 1.95313 1.95313 1.95313 1.95313 1.95313 1.95313 1.95313 1.95313 1.95313 1.95313 1.95313 1.95313 1.95313 1.95313 1.95313 1.95313 0.976562 0.976562 1.95313 1.95313 1.95313 1.95313 1.95313 1.95313 1.95313 1.95313 1.95313 1.95313 1.95313 1.95313 1.95313 1.95313 1.95313 1.95313 1.95313 1.95313 1.95313 1.95313 1.95313 1.95313 1.95313 1.95313 1.95313 1.95313 1.95313 1.95313 1.95313 1.95313 1.95313 0.976562 0.976562 1.95313 1.95313 1.95313 1.95313 1.95313 1.95313 1.95313 1.95313 1.95313 1.95313 1.95313 1.95313 1.95313 1.95313 1.95313 1.95313 1.95313 1.95313 1.95313 1.95313 1.95313 1.95313 1.95313 1.95313 1.95313 1.95313 1.95313 1.95313 1.95313 1.95313 1.95313 0.976562 0.976562 1.95313 1.95313 1.95313 1.95313 1.95313 1.95313 1.95313 1.95313 1.95313 1.95313 1.95313 1.95313 1.95313 1.95313 1.95313 1.95313 1.95313 1.95313 1.95313 1.95313 1.95313 1.95313 1.95313 1.95313 1.95313 1.95313 1.95313 1.95313 1.95313 1.95313 1.95313 0.976562 0.976562 1.95313 1.95313 1.95313 1.95313 1.95313 1.95313 1.95313 1.95313 1.95313 1.95313 1.95313 1.95313 1.95313 1.95313 1.95313 1.95313 1.95313 1.95313 1.95313 1.95313 1.95313 1.95313 1.95313 1.95313 1.95313 1.95313 1.95313 1.95313 1.95313 1.95313 1.95313 0.976562 0.325521 0.976562 0.976562 0.976562 0.976562 0.976562 0.976562 0.976562 0.976562 0.976562 0.976562 0.976562 0.976562 0.976562 0.976562 0.976562 0.976562 0.976562 0.976562 0.976562 0.976562 0.976562 0.976562 0.976562 0.976562 0.976562 0.976562 0.976562 0.976562 0.976562 0.976562 0.976562 0.651042 0.651042 0.976562 0.976562 0.976562 0.976562 0.976562 0.976562 0.976562 0.976562 0.976562 0.976562 0.976562 0.976562 0.976562 0.976562 0.976562 0.976562 0.976562 0.976562 0.976562 0.976562 0.976562 0.976562 0.976562 0.976562 0.976562 0.976562 0.976562 0.976562 0.976562 0.976562 0.976562 0.325521 0.976562 1.95313 1.95313 1.95313 1.95313 1.95313 1.95313 1.95313 1.95313 1.95313 1.95313 1.95313 1.95313 1.95313 1.95313 1.95313 1.95313 1.95313 1.95313 1.95313 1.95313 1.95313 1.95313 1.95313 1.95313 1.95313 1.95313 1.95313 1.95313 1.95313 1.95313 1.95313 0.976562 0.976562 1.95313 1.95313 1.95313 1.95313 1.95313 1.95313 1.95313 1.95313 1.95313 1.95313 1.95313 1.95313 1.95313 1.95313 1.95313 1.95313 1.95313 1.95313 1.95313 1.95313 1.95313 1.95313 1.95313 1.95313 1.95313 1.95313 1.95313 1.95313 1.95313 1.95313 1.95313 0.976562 0.976562 1.95313 1.95313 1.95313 1.95313 1.95313 1.95313 1.95313 1.95313 1.95313 1.95313 1.95313 1.95313 1.95313 1.95313 1.95313 1.95313 1.95313 1.95313 1.95313 1.95313 1.95313 1.95313 1.95313 1.95313 1.95313 1.95313 1.95313 1.95313 1.95313 1.95313 1.95313 0.976562 0.976562 1.95313 1.95313 1.95313 1.95313 1.95313 1.95313 1.95313 1.95313 1.95313 1.95313 1.95313 1.95313 1.95313 1.95313 1.95313 1.95313 1.95313 1.95313 1.95313 1.95313 1.95313 1.95313 1.95313 1.95313 1.95313 1.95313 1.95313 1.95313 1.95313 1.95313 1.95313 0.976562 0.976562 1.95313 1.95313 1.95313 1.95313 1.95313 1.95313 1.95313 1.95313 1.95313 1.95313 1.95313 1.95313 1.95313 1.95313 1.95313 1.95313 1.95313 1.95313 1.95313 1.95313 1.95313 1.95313 1.95313 1.95313 1.95313 1.95313 1.95313 1.95313 1.95313 1.95313 1.95313 0.976562 0.976562 1.95313 1.95313 1.95313 1.95313 1.95313 1.95313 1.95313 1.95313 1.95313 1.95313 1.95313 1.95313 1.95313 1.95313 1.95313 1.95313 1.95313 1.95313 1.95313 1.95313 1.95313 1.95313 1.95313 1.95313 1.95313 1.95313 1.95313 1.95313 1.95313 1.95313 1.95313 0.976562 0.976562 1.95313 1.95313 1.95313 1.95313 1.95313 1.95313 1.95313 1.95313 1.95313 1.95313 1.95313 1.95313 1.95313 1.95313 1.95313 1.95313 1.95313 1.95313 1.95313 1.95313 1.95313 1.95313 1.95313 1.95313 1.95313 1.95313 1.95313 1.95313 1.95313 1.95313 1.95313 0.976562 0.325521 0.976562 0.976562 0.976562 0.976562 0.976562 0.976562 0.976562 0.976562 0.976562 0.976562 0.976562 0.976562 0.976562 0.976562 0.976562 0.976562 0.976562 0.976562 0.976562 0.976562 0.976562 0.976562 0.976562 0.976562 0.976562 0.976562 0.976562 0.976562 0.976562 0.976562 0.976562 0.651042 0.651042 0.976562 0.976562 0.976562 0.976562 0.976562 0.976562 0.976562 0.976562 0.976562 0.976562 0.976562 0.976562 0.976562 0.976562 0.976562 0.976562 0.976562 0.976562 0.976562 0.976562 0.976562 0.976562 0.976562 0.976562 0.976562 0.976562 0.976562 0.976562 0.976562 0.976562 0.976562 0.325521 0.976562 1.95313 1.95313 1.95313 1.95313 1.95313 1.95313 1.95313 1.95313 1.95313 1.95313 1.95313 1.95313 1.95313 1.95313 1.95313 1.95313 1.95313 1.95313 1.95313 1.95313 1.95313 1.95313 1.95313 1.95313 1.95313 1.95313 1.95313 1.95313 1.95313 1.95313 1.95313 0.976562 0.976562 1.95313 1.95313 1.95313 1.95313 1.95313 1.95313 1.95313 1.95313 1.95313 1.95313 1.95313 1.95313 1.95313 1.95313 1.95313 1.95313 1.95313 1.95313 1.95313 1.95313 1.95313 1.95313 1.95313 1.95313 1.95313 1.95313 1.95313 1.95313 1.95313 1.95313 1.95313 0.976562 0.976562 1.95313 1.95313 1.95313 1.95313 1.95313 1.95313 1.95313 1.95313 1.95313 1.95313 1.95313 1.95313 1.95313 1.95313 1.95313 1.95313 1.95313 1.95313 1.95313 1.95313 1.95313 1.95313 1.95313 1.95313 1.95313 1.95313 1.95313 1.95313 1.95313 1.95313 1.95313 0.976562 0.976562 1.95313 1.95313 1.95313 1.95313 1.95313 1.95313 1.95313 1.95313 1.95313 1.95313 1.95313 1.95313 1.95313 1.95313 1.95313 1.95313 1.95313 1.95313 1.95313 1.95313 1.95313 1.95313 1.95313 1.95313 1.95313 1.95313 1.95313 1.95313 1.95313 1.95313 1.95313 0.976562 0.976562 1.95313 1.95313 1.95313 1.95313 1.95313 1.95313 1.95313 1.95313 1.95313 1.95313 1.95313 1.95313 1.95313 1.95313 1.95313 1.95313 1.95313 1.95313 1.95313 1.95313 1.95313 1.95313 1.95313 1.95313 1.95313 1.95313 1.95313 1.95313 1.95313 1.95313 1.95313 0.976562 0.976562 1.95313 1.95313 1.95313 1.95313 1.95313 1.95313 1.95313 1.95313 1.95313 1.95313 1.95313 1.95313 1.95313 1.95313 1.95313 1.95313 1.95313 1.95313 1.95313 1.95313 1.95313 1.95313 1.95313 1.95313 1.95313 1.95313 1.95313 1.95313 1.95313 1.95313 1.95313 0.976562 0.976562 1.95313 1.95313 1.95313 1.95313 1.95313 1.95313 1.95313 1.95313 1.95313 1.95313 1.95313 1.95313 1.95313 1.95313 1.95313 1.95313 1.95313 1.95313 1.95313 1.95313 1.95313 1.95313 1.95313 1.95313 1.95313 1.95313 1.95313 1.95313 1.95313 1.95313 1.95313 0.976562 0.325521 0.976562 0.976562 0.976562 0.976562 0.976562 0.976562 0.976562 0.976562 0.976562 0.976562 0.976562 0.976562 0.976562 0.976562 0.976562 0.976562 0.976562 0.976562 0.976562 0.976562 0.976562 0.976562 0.976562 0.976562 0.976562 0.976562 0.976562 0.976562 0.976562 0.976562 0.976562 0.651042 0.651042 0.976562 0.976562 0.976562 0.976562 0.976562 0.976562 0.976562 0.976562 0.976562 0.976562 0.976562 0.976562 0.976562 0.976562 0.976562 0.976562 0.976562 0.976562 0.976562 0.976562 0.976562 0.976562 0.976562 0.976562 0.976562 0.976562 0.976562 0.976562 0.976562 0.976562 0.976562 0.325521 0.976562 1.95313 1.95313 1.95313 1.95313 1.95313 1.95313 1.95313 1.95313 1.95313 1.95313 1.95313 1.95313 1.95313 1.95313 1.95313 1.95313 1.95313 1.95313 1.95313 1.95313 1.95313 1.95313 1.95313 1.95313 1.95313 1.95313 1.95313 1.95313 1.95313 1.95313 1.95313 0.976562 0.976562 1.95313 1.95313 1.95313 1.95313 1.95313 1.95313 1.95313 1.95313 1.95313 1.95313 1.95313 1.95313 1.95313 1.95313 1.95313 1.95313 1.95313 1.95313 1.95313 1.95313 1.95313 1.95313 1.95313 1.95313 1.95313 1.95313 1.95313 1.95313 1.95313 1.95313 1.95313 0.976562 0.976562 1.95313 1.95313 1.95313 1.95313 1.95313 1.95313 1.95313 1.95313 1.95313 1.95313 1.95313 1.95313 1.95313 1.95313 1.95313 1.95313 1.95313 1.95313 1.95313 1.95313 1.95313 1.95313 1.95313 1.95313 1.95313 1.95313 1.95313 1.95313 1.95313 1.95313 1.95313 0.976562 0.976562 1.95313 1.95313 1.95313 1.95313 1.95313 1.95313 1.95313 1.95313 1.95313 1.95313 1.95313 1.95313 1.95313 1.95313 1.95313 1.95313 1.95313 1.95313 1.95313 1.95313 1.95313 1.95313 1.95313 1.95313 1.95313 1.95313 1.95313 1.95313 1.95313 1.95313 1.95313 0.976562 0.976562 1.95313 1.95313 1.95313 1.95313 1.95313 1.95313 1.95313 1.95313 1.95313 1.95313 1.95313 1.95313 1.95313 1.95313 1.95313 1.95313 1.95313 1.95313 1.95313 1.95313 1.95313 1.95313 1.95313 1.95313 1.95313 1.95313 1.95313 1.95313 1.95313 1.95313 1.95313 0.976562 0.976562 1.95313 1.95313 1.95313 1.95313 1.95313 1.95313 1.95313 1.95313 1.95313 1.95313 1.95313 1.95313 1.95313 1.95313 1.95313 1.95313 1.95313 1.95313 1.95313 1.95313 1.95313 1.95313 1.95313 1.95313 1.95313 1.95313 1.95313 1.95313 1.95313 1.95313 1.95313 0.976562 0.976562 1.95313 1.95313 1.95313 1.95313 1.95313 1.95313 1.95313 1.95313 1.95313 1.95313 1.95313 1.95313 1.95313 1.95313 1.95313 1.95313 1.95313 1.95313 1.95313 1.95313 1.95313 1.95313 1.95313 1.95313 1.95313 1.95313 1.95313 1.95313 1.95313 1.95313 1.95313 0.976562 0.325521 0.976562 0.976562 0.976562 0.976562 0.976562 0.976562 0.976562 0.976562 0.976562 0.976562 0.976562 0.976562 0.976562 0.976562 0.976562 0.976562 0.976562 0.976562 0.976562 0.976562 0.976562 0.976562 0.976562 0.976562 0.976562 0.976562 0.976562 0.976562 0.976562 0.976562 0.976562 0.651042 0.651042 0.976563 0.976563 0.976563 0.976563 0.976563 0.976563 0.976563 0.976563 0.976563 0.976563 0.976563 0.976563 0.976563 0.976563 0.976563 0.976563 0.976563 0.976563 0.976563 0.976563 0.976563 0.976563 0.976563 0.976563 0.976563 0.976563 0.976563 0.976563 0.976563 0.976563 0.976563 0.325521 0.976563 1.95313 1.95313 1.95313 1.95313 1.95313 1.95313 1.95313 1.95313 1.95313 1.95313 1.95313 1.95313 1.95313 1.95313 1.95313 1.95313 1.95313 1.95313 1.95313 1.95313 1.95313 1.95313 1.95313 1.95313 1.95313 1.95313 1.95313 1.95313 1.95313 1.95313 1.95313 0.976563 0.976563 1.95313 1.95313 1.95313 1.95313 1.95313 1.95313 1.95313 1.95313 1.95313 1.95313 1.95313 1.95313 1.95313 1.95313 1.95313 1.95313 1.95313 1.95313 1.95313 1.95313 1.95313 1.95313 1.95313 1.95313 1.95313 1.95313 1.95313 1.95313 1.95313 1.95313 1.95313 0.976563 0.976563 1.95313 1.95313 1.95313 1.95313 1.95313 1.95313 1.95313 1.95313 1.95313 1.95313 1.95313 1.95313 1.95313 1.95313 1.95313 1.95313 1.95313 1.95313 1.95313 1.95313 1.95313 1.95313 1.95313 1.95313 1.95313 1.95313 1.95313 1.95313 1.95313 1.95313 1.95313 0.976563 0.976563 1.95313 1.95313 1.95313 1.95313 1.95313 1.95313 1.95313 1.95313 1.95313 1.95313 1.95313 1.95313 1.95313 1.95313 1.95313 1.95313 1.95313 1.95313 1.95313 1.95313 1.95313 1.95313 1.95313 1.95313 1.95313 1.95313 1.95313 1.95313 1.95313 1.95313 1.95313 0.976563 0.976563 1.95313 1.95313 1.95313 1.95313 1.95313 1.95313 1.95313 1.95313 1.95313 1.95313 1.95313 1.95313 1.95313 1.95313 1.95313 1.95313 1.95313 1.95313 1.95313 1.95313 1.95313 1.95313 1.95313 1.95313 1.95313 1.95313 1.95313 1.95313 1.95313 1.95313 1.95313 0.976563 0.976563 1.95313 1.95313 1.95313 1.95313 1.95313 1.95313 1.95313 1.95313 1.95313 1.95313 1.95313 1.95313 1.95313 1.95313 1.95313 1.95313 1.95313 1.95313 1.95313 1.95313 1.95313 1.95313 1.95313 1.95313 1.95313 1.95313 1.95313 1.95313 1.95313 1.95313 1.95313 0.976563 0.976563 1.95313 1.95313 1.95313 1.95313 1.95313 1.95313 1.95313 1.95313 1.95313 1.95313 1.95313 1.95313 1.95313 1.95313 1.95313 1.95313 1.95313 1.95313 1.95313 1.95313 1.95313 1.95313 1.95313 1.95313 1.95313 1.95313 1.95313 1.95313 1.95313 1.95313 1.95313 0.976563 0.325521 0.976563 0.976563 0.976563 0.976563 0.976563 0.976563 0.976563 0.976563 0.976563 0.976563 0.976563 0.976563 0.976563 0.976563 0.976563 0.976563 0.976563 0.976563 0.976563 0.976563 0.976563 0.976563 0.976563 0.976563 0.976563 0.976563 0.976563 0.976563 0.976563 0.976563 0.976563 0.651042 0.16276 0.325521 0.325521 0.325521 0.325521 0.325521 0.325521 0.325521 0.325521 0.325521 0.325521 0.325521 0.325521 0.325521 0.325521 0.325521 0.325521 0.325521 0.325521 0.325521 0.325521 0.325521 0.325521 0.325521 0.325521 0.325521 0.325521 0.325521 0.325521 0.325521 0.325521 0.325521 0.16276 0.325521 0.976563 0.976563 0.976563 0.976563 0.976563 0.976563 0.976563 0.976563 0.976563 0.976563 0.976563 0.976563 0.976563 0.976563 0.976563 0.976563 0.976563 0.976563 0.976563 0.976563 0.976563 0.976563 0.976563 0.976563 0.976563 0.976563 0.976563 0.976563 0.976563 0.976563 0.976563 0.651042 0.325521 0.976563 0.976563 0.976563 0.976563 0.976563 0.976563 0.976563 0.976563 0.976563 0.976563 0.976563 0.976563 0.976563 0.976563 0.976563 0.976563 0.976563 0.976563 0.976563 0.976563 0.976563 0.976563 0.976563 0.976563 0.976563 0.976563 0.976563 0.976563 0.976563 0.976563 0.976563 0.651042 0.325521 0.976563 0.976563 0.976563 0.976563 0.976563 0.976563 0.976563 0.976563 0.976563 0.976563 0.976563 0.976563 0.976563 0.976563 0.976563 0.976563 0.976563 0.976563 0.976563 0.976563 0.976563 0.976563 0.976563 0.976563 0.976563 0.976563 0.976563 0.976563 0.976563 0.976563 0.976563 0.651042 0.325521 0.976563 0.976563 0.976563 0.976563 0.976563 0.976563 0.976563 0.976563 0.976563 0.976563 0.976563 0.976563 0.976563 0.976563 0.976563 0.976563 0.976563 0.976563 0.976563 0.976563 0.976563 0.976563 0.976563 0.976563 0.976563 0.976563 0.976563 0.976563 0.976563 0.976563 0.976563 0.651042 0.325521 0.976563 0.976563 0.976563 0.976563 0.976563 0.976563 0.976563 0.976563 0.976563 0.976563 0.976563 0.976563 0.976563 0.976563 0.976563 0.976563 0.976563 0.976563 0.976563 0.976563 0.976563 0.976563 0.976563 0.976563 0.976563 0.976563 0.976563 0.976563 0.976563 0.976563 0.976563 0.651042 0.325521 0.976563 0.976563 0.976563 0.976563 0.976563 0.976563 0.976563 0.976563 0.976563 0.976563 0.976563 0.976563 0.976563 0.976563 0.976563 0.976563 0.976563 0.976563 0.976563 0.976563 0.976563 0.976563 0.976563 0.976563 0.976563 0.976563 0.976563 0.976563 0.976563 0.976563 0.976563 0.651042 0.325521 0.976563 0.976563 0.976563 0.976563 0.976563 0.976563 0.976563 0.976563 0.976563 0.976563 0.976563 0.976563 0.976563 0.976563 0.976563 0.976563 0.976563 0.976563 0.976563 0.976563 0.976563 0.976563 0.976563 0.976563 0.976563 0.976563 0.976563 0.976563 0.976563 0.976563 0.976563 0.651042 0.16276 0.651042 0.651042 0.651042 0.651042 0.651042 0.651042 0.651042 0.651042 0.651042 0.651042 0.651042 0.651042 0.651042 0.651042 0.651042 0.651042 0.651042 0.651042 0.651042 0.651042 0.651042 0.651042 0.651042 0.651042 0.651042 0.651042 0.651042 0.651042 0.651042 0.651042 0.651042 0.488281 
VECTORS u float
0 0 -2.98023e-08  -0.0368898 -0.0137209 -0.0375751  -0.0662073 -0.0296588 -0.0502712  -0.0948233 -0.0554001 -0.054077  -0.124354 -0.0900477 -0.0533801  -0.155248 -0.132196 -0.0502414  -0.187556 -0.180681 -0.0457937  -0.221196 -0.234618 -0.0406827  -0.256057 -0.29334 -0.0352746  -0.292037 -0.356322 -0.0297737  -0.329048 -0.423139 -0.0242886  -0.367009 -0.493423 -0.0188728  -0.40585 -0.566846 -0.013553  -0.445494 -0.643111 -0.0083364  -0.485867 -0.721939 -0.00322598  -0.526889 -0.80307 0.00177982  -0.568476 -0.886259 0.00668478  -0.610542 -0.971277 0.0114907  -0.653001 -1.05791 0.0161996  -0.695766 -1.14595 0.020815  -0.738753 -1.2352 0.0253347  -0.781881 -1.3255 0.0297624  -0.825075 -1.41666 0.0340948  -0.868266 -1.50854 0.0383342  -0.911391 -1.60099 0.0424796  -0.954394 -1.69387 0.0465257  -0.997233 -1.78707 0.0504752  -1.03987 -1.88045 0.0543282  -1.08227 -1.97392 0.0580822  -1.12443 -2.06739 0.0617462  -1.16635 -2.16076 0.0653276  -1.20807 -2.25396 0.0688543  -1.2496 -2.34692 0.0723985  0 0 -2.98023e-08  -0.0208309 -0.00301488 -0.0305646  -0.0401039 -0.0214906 -0.0378937  -0.0596628 -0.0504234 -0.0398777  -0.080913 -0.0884532 -0.038812  -0.104398 -0.1341 -0.0359969  -0.130196 -0.186127 -0.0321943  -0.158183 -0.243575 -0.0278549  -0.18817 -0.305714 -0.0232436  -0.219965 -0.371971 -0.0185128  -0.25339 -0.441884 -0.0137491  -0.288285 -0.515065 -0.00900102  -0.324507 -0.591174 -0.00429377  -0.361924 -0.669903 0.000360698  -0.400406 -0.750974 0.00495565  -0.43983 -0.834128 0.00948822  -0.480077 -0.919127 0.0139579  -0.521026 -1.00575 0.0183648  -0.562565 -1.09378 0.0227072  -0.604582 -1.18303 0.026985  -0.646971 -1.27333 0.0311983  -0.689633 -1.36449 0.035345  -0.732475 -1.45638 0.0394251  -0.775414 -1.54884 0.0434357  -0.818371 -1.64174 0.0473767  -0.861279 -1.73495 0.0512452  -0.904083 -1.82838 0.0550426  -0.946728 -1.92191 0.0587682  -0.989178 -2.01545 0.0624216  -1.0314 -2.10894 0.0660127  -1.07338 -2.20229 0.0695532  -1.11512 -2.29545 0.0730687  -1.15664 -2.38837 0.0765961  0 0 -2.98023e-08  -0.0102757 -2.32458e-05 -0.018317  -0.0191099 -0.018239 -0.0244482  -0.0302633 -0.0493285 -0.0251661  -0.0438607 -0.0897922 -0.0238832  -0.0602539 -0.138017 -0.021426  -0.0795438 -0.192764 -0.018256  -0.101647 -0.253045 -0.0146607  -0.126383 -0.318069 -0.0108183  -0.153538 -0.387201 -0.00683957  -0.182896 -0.459923 -0.00279024  -0.214249 -0.535799 0.00128803  -0.247398 -0.614455 0.0053716  -0.28216 -0.695562 0.00944695  -0.318358 -0.778829 0.0135046  -0.355826 -0.863987 0.017539  -0.394404 -0.950798 0.0215474  -0.433939 -1.03904 0.0255263  -0.474285 -1.12851 0.0294742  -0.515305 -1.21902 0.0333876  -0.55687 -1.3104 0.0372661  -0.598858 -1.4025 0.0411072  -0.641158 -1.49517 0.0449082  -0.683667 -1.58828 0.0486693  -0.726294 -1.6817 0.0523862  -0.768956 -1.77533 0.0560588  -0.811585 -1.86907 0.0596858  -0.854116 -1.96282 0.063267  -0.896499 -2.05653 0.066804  -0.938689 -2.15011 0.0703047  -0.980652 -2.24352 0.0737808  -1.02236 -2.33669 0.0772584  -1.06382 -2.42957 0.0807684  0 0 -2.98023e-08  -0.0017622 -0.000711679 -0.00694942  -0.00253524 -0.0196681 -0.00992981  -0.00535762 -0.0518156 -0.0103166  -0.0113629 -0.0940504 -0.00902212  -0.0206848 -0.144311 -0.006942  -0.0334078 -0.20129 -0.00437331  -0.0494829 -0.263961 -0.00148124  -0.0687567 -0.331482 0.00162834  -0.0910175 -0.403159 0.00488466  -0.116029 -0.478414 0.0082401  -0.143549 -0.556761 0.0116629  -0.173339 -0.637787 0.0151312  -0.20517 -0.721132 0.018631  -0.238822 -0.806483 0.0221519  -0.274087 -0.893563 0.0256869  -0.310766 -0.982124 0.0292303  -0.348673 -1.07194 0.0327776  -0.38763 -1.16282 0.036325  -0.427473 -1.25457 0.0398689  -0.468046 -1.34704 0.0434069  -0.509206 -1.44007 0.0469359  -0.550821 -1.53353 0.0504541  -0.59277 -1.6273 0.053959  -0.634945 -1.72127 0.0574469  -0.67725 -1.81534 0.0609183  -0.719601 -1.90942 0.0643699  -0.761926 -2.00344 0.0678004  -0.804162 -2.09734 0.0712123  -0.846256 -2.19105 0.0746089  -0.888156 -2.28453 0.0780008  -0.929817 -2.37775 0.0814065  -0.971187 -2.47062 0.0848577  0 0 -2.98023e-08  0.00573687 -0.00375554 0.00369316  0.0121353 -0.0244405 0.00406799  0.0167896 -0.0577838 0.00458363  0.018296 -0.101336 0.00571519  0.0160487 -0.153254 0.00737998  0.00992417 -0.212128 0.00936353  -6.04391e-05 -0.276875 0.0115841  -0.0137759 -0.346601 0.0139933  -0.0310177 -0.420554 0.0165541  -0.0515372 -0.498102 0.0192375  -0.0750659 -0.578708 0.0220212  -0.101331 -0.661918 0.0248869  -0.130064 -0.747342 0.0278207  -0.161006 -0.834643 0.0308116  -0.19391 -0.923528 0.0338511  -0.228539 -1.01374 0.0369325  -0.264675 -1.10505 0.0400501  -0.30211 -1.19727 0.0431982  -0.340648 -1.29021 0.0463737  -0.380113 -1.38371 0.049571  -0.420335 -1.47764 0.0527886  -0.461164 -1.57187 0.0560233  -0.502462 -1.66628 0.0592712  -0.544102 -1.76078 0.0625298  -0.585973 -1.85528 0.065798  -0.627978 -1.9497 0.0690724  -0.670031 -2.04397 0.0723513  -0.712064 -2.13805 0.0756336  -0.754014 -2.23189 0.0789204  -0.795825 -2.32546 0.0822139  -0.837428 -2.41872 0.0855267  -0.878727 -2.5116 0.0888886  0 0 -2.98023e-08  0.0127827 -0.00878322 0.0137338  0.0261821 -0.0319903 0.0173805  0.0380133 -0.0668233 0.0189931  0.0467424 -0.111655 0.0201938  0.0515082 -0.165007 0.0214471  0.0519602 -0.225551 0.0228642  0.048057 -0.292157 0.0244439  0.0399052 -0.363873 0.0261851  0.0277057 -0.439895 0.0280806  0.011719 -0.519535 0.0301185  -0.00776374 -0.602212 0.0322846  -0.0304377 -0.687431 0.0345649  -0.0559992 -0.774773 0.0369467  -0.0841521 -0.863876 0.0394194  -0.114613 -0.954433 0.0419739  -0.147111 -1.04618 0.0446011  -0.181395 -1.13888 0.047296  -0.217228 -1.23234 0.0500512  -0.25439 -1.32637 0.0528614  -0.292675 -1.42083 0.0557237  -0.331895 -1.51559 0.0586329  -0.371879 -1.61052 0.0615859  -0.41247 -1.70552 0.0645792  -0.453524 -1.8005 0.0676103  -0.494916 -1.89538 0.0706769  -0.536533 -1.9901 0.0737764  -0.578279 -2.0846 0.0769056  -0.620073 -2.17884 0.080061  -0.661849 -2.27279 0.083238  -0.703549 -2.36642 0.0864323  -0.745097 -2.45971 0.0896478  -0.786368 -2.55264 0.0929056  0 0 -2.98023e-08  0.0198165 -0.0159456 0.0232258  0.0405425 -0.0421621 0.029995  0.0596356 -0.0786936 0.0327458  0.0755041 -0.124878 0.0341339  0.0871604 -0.179622 0.0350871  0.0941108 -0.241729 0.0359808  0.0962166 -0.310068 0.0369601  0.0935588 -0.383639 0.0380752  0.0863403 -0.461581 0.0393456  0.0748372 -0.543161 0.0407736  0.0593671 -0.62775 0.0423537  0.0402641 -0.714823 0.0440759  0.0178668 -0.803928 0.0459291  -0.00749397 -0.894686 0.0479033  -0.0354999 -0.986773 0.0499897  -0.0658509 -1.07991 0.0521791  -0.0982628 -1.17387 0.0544637  -0.132471 -1.26845 0.0568375  -0.168229 -1.36347 0.0592944  -0.20531 -1.45878 0.0618295  -0.243506 -1.55427 0.064437  -0.282622 -1.6498 0.0671155  -0.322487 -1.7453 0.069861  -0.362941 -1.84068 0.072669  -0.403841 -1.93588 0.0755381  -0.445062 -2.03083 0.0784663  -0.486493 -2.1255 0.0814491  -0.528041 -2.21985 0.0844833  -0.56963 -2.31386 0.0875609  -0.611202 -2.40752 0.0906711  -0.652704 -2.50084 0.0937993  -0.694 -2.59382 0.096962  0 0 -2.98023e-08  0.0274094 -0.0256834 0.0325035  0.0561338 -0.054984 0.0420606  0.0828213 -0.0932701 0.0457558  0.105924 -0.140902 0.0472946  0.124424 -0.197107 0.0480001  0.137763 -0.260796 0.0484449  0.145753 -0.330843 0.0488885  0.148453 -0.406211 0.0494412  0.14608 -0.485991 0.0501476  0.138933 -0.569402 0.0510224  0.12736 -0.655782 0.052067  0.111729 -0.744571 0.0532763  0.092412 -0.835296 0.0546414  0.0697737 -0.927559 0.0561533  0.0441645 -1.02103 0.0578029  0.0159161 -1.11542 0.0595813  -0.0146596 -1.21049 0.061481  -0.0472729 -1.30604 0.0634952  -0.0816536 -1.40191 0.0656171  -0.117553 -1.49794 0.0678417  -0.154741 -1.59402 0.0701639  -0.19301 -1.69004 0.0725802  -0.232169 -1.78592 0.075087  -0.272042 -1.8816 0.0776821  -0.312474 -1.977 0.0803617  -0.353323 -2.07209 0.0831249  -0.394465 -2.16683 0.0859702  -0.435795 -2.26122 0.0888919  -0.477221 -2.35523 0.0918823  -0.518673 -2.44887 0.0949308  -0.560112 -2.54217 0.0980099  -0.601488 -2.63518 0.101103  0 0 -2.98023e-08  0.0346239 -0.0384051 0.0436837  0.0733403 -0.0707191 0.0539155  0.108602 -0.110751 0.0575413  0.139318 -0.159963 0.0589093  0.164733 -0.217789 0.0593458  0.184376 -0.283185 0.0594402  0.198086 -0.35501 0.0594818  0.205949 -0.432189 0.0596088  0.208213 -0.513771 0.0598811  0.205215 -0.59894 0.0603245  0.197344 -0.687003 0.0609451  0.185007 -0.777376 0.0617432  0.168611 -0.86957 0.0627112  0.148554 -0.963176 0.0638433  0.125218 -1.05785 0.0651312  0.0989633 -1.15331 0.0665661  0.0701275 -1.24932 0.0681417  0.0390251 -1.34567 0.0698496  0.0059464 -1.4422 0.0716858  -0.0288389 -1.53878 0.0736445  -0.0650868 -1.63528 0.0757174  -0.102569 -1.73162 0.0779057  -0.141081 -1.82773 0.0802039  -0.180435 -1.92353 0.0826101  -0.22046 -2.01899 0.0851222  -0.261002 -2.11407 0.0877403  -0.301924 -2.20876 0.0904613  -0.343106 -2.30306 0.0932846  -0.384441 -2.39696 0.0962037  -0.425843 -2.49051 0.099208  -0.467251 -2.58375 0.102272  -0.508665 -2.67676 0.105346  0 0 -2.98023e-08  -0.0323728 -0.0239976 -0.0246973  -0.0649105 -0.0424877 -0.0381517  -0.0972153 -0.0689631 -0.0429734  -0.129737 -0.103014 -0.0432403  -0.162771 -0.143921 -0.0410117  -0.196468 -0.190945 -0.0374259  -0.230915 -0.243433 -0.0331297  -0.266164 -0.300825 -0.0284895  -0.302246 -0.36264 -0.0237082  -0.339171 -0.428452 -0.0188941  -0.376933 -0.49788 -0.0141023  -0.415505 -0.570579 -0.00935841  -0.454845 -0.646229 -0.00467426  -0.494896 -0.724535 -5.16772e-05  -0.535594 -0.805222 0.00450781  -0.576862 -0.888032 0.00900468  -0.618619 -0.972726 0.0134406  -0.660782 -1.05908 0.0178146  -0.703266 -1.14688 0.0221281  -0.745988 -1.23594 0.0263789  -0.788868 -1.32607 0.0305669  -0.831831 -1.4171 0.0346897  -0.874809 -1.50887 0.0387461  -0.917737 -1.60123 0.042736  -0.960563 -1.69405 0.0466533  -1.00324 -1.7872 0.0504983  -1.04574 -1.88055 0.0542717  -1.08802 -1.97402 0.0579711  -1.13009 -2.06748 0.0616013  -1.17194 -2.16086 0.065172  -1.21362 -2.25407 0.0687053  -1.25514 -2.34707 0.0722579  0 0 -2.98023e-08  -0.0113259 -0.00928294 -0.0181718  -0.0369407 -0.032577 -0.0287858  -0.0610355 -0.0626647 -0.031976  -0.0855986 -0.100351 -0.0316514  -0.111379 -0.14499 -0.0294469  -0.138661 -0.195766 -0.026211  -0.167523 -0.251941 -0.0224169  -0.197952 -0.31289 -0.0183333  -0.229894 -0.378087 -0.0141098  -0.263273 -0.447077 -0.00983027  -0.298001 -0.519463 -0.00553828  -0.333984 -0.59489 -0.00125769  -0.371119 -0.673036 0.00300056  -0.409301 -0.753608 0.00723025  -0.448419 -0.836334 0.0114285  -0.488361 -0.920966 0.0155931  -0.529015 -1.00727 0.0197228  -0.57027 -1.09503 0.0238152  -0.612015 -1.18405 0.0278698  -0.654148 -1.27415 0.0318833  -0.69657 -1.36515 0.0358543  -0.739189 -1.4569 0.0397808  -0.781919 -1.54925 0.0436608  -0.824685 -1.64206 0.0474912  -0.867421 -1.73521 0.0512701  -0.910069 -1.82858 0.0549965  -0.95258 -1.92208 0.0586688  -0.994915 -2.01561 0.0622885  -1.03705 -2.10909 0.0658604  -1.07896 -2.20244 0.0693954  -1.12066 -2.29561 0.072913  -1.16217 -2.38856 0.0764511  0 0 -2.98023e-08  -0.00482996 -0.00640677 -0.011173  -0.017614 -0.0282054 -0.0194678  -0.0323776 -0.0606687 -0.0210301  -0.0486532 -0.101094 -0.0201704  -0.066943 -0.148612 -0.0180182  -0.0875041 -0.202361 -0.0151294  -0.110397 -0.261557 -0.0118164  -0.135568 -0.325522 -0.00826031  -0.162906 -0.393674 -0.00456563  -0.192272 -0.465516 -0.000792861  -0.223516 -0.540615 0.00302202  -0.256483 -0.618591 0.00685772  -0.291017 -0.699105 0.0107033  -0.326961 -0.781854 0.0145503  -0.364161 -0.866564 0.0183933  -0.402469 -0.952983 0.022229  -0.441736 -1.04088 0.0260535  -0.481823 -1.13006 0.029864  -0.522593 -1.22032 0.033657  -0.56392 -1.31148 0.0374305  -0.605683 -1.40339 0.0411822  -0.647772 -1.4959 0.0449081  -0.690086 -1.58887 0.0486069  -0.732533 -1.68218 0.052275  -0.775032 -1.77573 0.0559116  -0.817514 -1.8694 0.0595142  -0.859918 -1.96311 0.0630827  -0.902192 -2.05677 0.0666176  -0.944294 -2.15033 0.0701245  -0.986195 -2.24372 0.0736108  -1.02787 -2.33689 0.0770965  -1.06935 -2.42981 0.0806068  0 0 -2.98023e-08  -0.00011196 -0.00701252 -0.00458202  -0.00343338 -0.0292085 -0.00877908  -0.00847131 -0.0625687 -0.00956115  -0.0164066 -0.104953 -0.008459  -0.0271687 -0.154728 -0.0064711  -0.0409014 -0.210905 -0.00397062  -0.0576374 -0.272649 -0.00114846  -0.0773029 -0.339224 0.00188336  -0.0997546 -0.409996 0.00505677  -0.124811 -0.484414 0.00832871  -0.152272 -0.562004 0.0116713  -0.181933 -0.642352 0.0150649  -0.213587 -0.725096 0.0184976  -0.247034 -0.809916 0.0219599  -0.282075 -0.896526 0.025445  -0.318524 -0.984673 0.0289469  -0.356198 -1.07413 0.0324613  -0.394927 -1.16468 0.0359835  -0.434546 -1.25616 0.0395096  -0.474905 -1.34838 0.0430369  -0.515861 -1.4412 0.046562  -0.557284 -1.53448 0.0500823  -0.599056 -1.6281 0.0535939  -0.641068 -1.72193 0.0570949  -0.683225 -1.81589 0.0605836  -0.725444 -1.90989 0.0640578  -0.767653 -2.00384 0.067516  -0.809789 -2.09768 0.0709587  -0.8518 -2.19135 0.0743894  -0.89364 -2.28481 0.0778146  -0.93527 -2.37801 0.0812475  -0.976663 -2.47092 0.0847086  0 0 -2.98023e-08  0.00410368 -0.00984886 0.00165519  0.00910622 -0.033662 0.00165465  0.0125579 -0.0682087 0.00210914  0.0129307 -0.111972 0.00327614  0.0097028 -0.163547 0.00502151  0.00283331 -0.221763 0.00711325  -0.00767285 -0.285705 0.00944847  -0.0217217 -0.354579 0.0119689  -0.0391455 -0.427693 0.0146355  -0.0597298 -0.504446 0.0174204  -0.0832359 -0.584319 0.0203016  -0.109415 -0.66686 0.0232619  -0.138017 -0.751681 0.0262888  -0.168797 -0.838441 0.0293717  -0.201519 -0.926843 0.0325017  -0.235956 -1.01662 0.0356728  -0.271894 -1.10756 0.0388784  -0.30913 -1.19943 0.0421138  -0.347474 -1.29207 0.0453742  -0.386749 -1.38531 0.0486558  -0.426792 -1.479 0.0519542  -0.467453 -1.57303 0.0552684  -0.508592 -1.66726 0.0585933  -0.550087 -1.76161 0.0619268  -0.591827 -1.85598 0.0652672  -0.633715 -1.95029 0.0686115  -0.675666 -2.04448 0.0719577  -0.71761 -2.1385 0.0753054  -0.759486 -2.23229 0.0786554  -0.801235 -2.32582 0.08201  -0.842801 -2.41906 0.0853765  -0.884123 -2.51198 0.0887685  0 0 -2.98023e-08  0.00823542 -0.014688 0.00757113  0.0212693 -0.040951 0.0115757  0.0327598 -0.0770059 0.0134125  0.041003 -0.122111 0.0148203  0.0452349 -0.175206 0.0163133  0.0451996 -0.235196 0.0179988  0.0409141 -0.30109 0.0198646  0.0324934 -0.372031 0.0218966  0.0201302 -0.447271 0.0240802  0.00406873 -0.526157 0.0263993  -0.0154165 -0.608125 0.0288375  -0.0380373 -0.692688 0.0313805  -0.063504 -0.779431 0.0340141  -0.0915316 -0.86799 0.0367284  -0.121846 -0.958056 0.0395133  -0.154185 -1.04936 0.0423609  -0.188303 -1.14166 0.045265  -0.223966 -1.23476 0.0482191  -0.260959 -1.32848 0.0512181  -0.299081 -1.42266 0.0542582  -0.338145 -1.51716 0.0573348  -0.37798 -1.61187 0.0604452  -0.418433 -1.70668 0.0635856  -0.459361 -1.80149 0.066754  -0.500639 -1.89622 0.0699473  -0.542156 -1.99082 0.0731633  -0.583813 -2.08522 0.0764009  -0.625532 -2.17938 0.0796554  -0.667241 -2.27327 0.082925  -0.708883 -2.36686 0.0862078  -0.750388 -2.46014 0.0895037  -0.79167 -2.55309 0.0928177  0 0 -2.98023e-08  0.0125256 -0.0218087 0.0131341  0.033904 -0.0510052 0.0209032  0.0534508 -0.0887511 0.0241156  0.0693913 -0.135241 0.0258601  0.0808871 -0.189782 0.0271981  0.0875842 -0.251396 0.0285192  0.0894365 -0.319087 0.0299551  0.0865736 -0.391938 0.0315398  0.0792148 -0.469142 0.0332793  0.0676365 -0.549999 0.0351676  0.0521488 -0.633901 0.0371934  0.0330769 -0.720331 0.0393441  0.0107485 -0.808842 0.041607  -0.0145146 -0.899056 0.0439714  -0.0424024 -0.990647 0.0464274  -0.0726202 -1.08334 0.0489661  -0.104891 -1.17689 0.0515804  -0.138953 -1.2711 0.0542647  -0.174565 -1.36579 0.0570118  -0.211504 -1.46081 0.0598189  -0.249562 -1.55603 0.0626802  -0.28855 -1.65133 0.0655935  -0.328294 -1.74662 0.0685557  -0.368636 -1.84181 0.0715633  -0.409439 -1.93685 0.0746143  -0.450573 -2.03167 0.0777065  -0.49193 -2.12622 0.080838  -0.533414 -2.22049 0.0840035  -0.574948 -2.31443 0.0871997  -0.61647 -2.40805 0.0904194  -0.657923 -2.50135 0.093653  -0.699211 -2.59435 0.0968951  0 0 -2.98023e-08  0.0170611 -0.0319132 0.0183091  0.0478078 -0.0640479 0.0296358  0.0757641 -0.103445 0.0340719  0.0994118 -0.15133 0.0361398  0.118034 -0.207317 0.0373908  0.131292 -0.27052 0.0384336  0.13913 -0.339936 0.0395127  0.141681 -0.414606 0.0407177  0.139194 -0.493668 0.0420749  0.131981 -0.576374 0.0435877  0.12039 -0.662079 0.0452494  0.104783 -0.750233 0.0470497  0.0855243 -0.84037 0.0489781  0.0629716 -0.932092 0.0510239  0.0374681 -1.02506 0.053178  0.00933909 -1.119 0.0554321  -0.0211079 -1.21366 0.0577779  -0.0535882 -1.30884 0.0602103  -0.0878353 -1.40437 0.0627223  -0.123603 -1.5001 0.0653103  -0.160666 -1.59591 0.0679689  -0.198816 -1.69169 0.0706962  -0.237864 -1.78735 0.0734887  -0.277637 -1.88283 0.0763433  -0.317979 -1.97806 0.0792584  -0.358751 -2.07301 0.0822323  -0.399828 -2.16763 0.0852641  -0.441103 -2.26192 0.0883484  -0.482482 -2.35586 0.0914807  -0.523896 -2.44946 0.0946517  -0.565293 -2.54274 0.0978444  -0.606636 -2.63577 0.101036  0 0 -2.98023e-08  0.020096 -0.0460726 0.0232864  0.0636209 -0.0803092 0.0381294  0.100776 -0.121154 0.043166  0.132228 -0.170427 0.0453344  0.157851 -0.22791 0.0465001  0.177475 -0.292739 0.0473572  0.191087 -0.363887 0.0481946  0.198847 -0.440345 0.04913  0.201037 -0.521204 0.0502048  0.19801 -0.605672 0.0514307  0.190153 -0.693071 0.0528059  0.177867 -0.782825 0.0543246  0.161553 -0.874448 0.055978  0.141602 -0.96753 0.0577585  0.118389 -1.06173 0.0596571  0.0922706 -1.15675 0.061667  0.0635765 -1.25237 0.0637809  0.032619 -1.34836 0.0659925  -0.000315189 -1.44458 0.0682975  -0.0349605 -1.54086 0.0706915  -0.0710728 -1.63711 0.073168  -0.108428 -1.73322 0.0757276  -0.146822 -1.82912 0.0783656  -0.186068 -1.92474 0.0810812  -0.225996 -2.02004 0.0838722  -0.266453 -2.11499 0.0867382  -0.307304 -2.20957 0.0896779  -0.348425 -2.30378 0.0926891  -0.389709 -2.39762 0.0957679  -0.431069 -2.49113 0.0989045  -0.47244 -2.58435 0.102079  -0.513818 -2.67738 0.10525  0 0 0  -0.0342321 -0.0288769 -0.0164573  -0.0668167 -0.0517463 -0.0258071  -0.100222 -0.0790474 -0.030423  -0.134068 -0.113009 -0.0313694  -0.168268 -0.153316 -0.0301196  -0.202868 -0.199485 -0.0275942  -0.237956 -0.25103 -0.0243429  -0.273623 -0.307491 -0.0206888  -0.309947 -0.368436 -0.0168165  -0.346981 -0.433463 -0.012831  -0.384755 -0.502196 -0.00879005  -0.42327 -0.574284 -0.00472459  -0.462506 -0.649401 -0.000653461  -0.502423 -0.727243 0.00341579  -0.542967 -0.807527 0.0074764  -0.58407 -0.889986 0.0115233  -0.625658 -0.974376 0.0155537  -0.667651 -1.06047 0.0195644  -0.709969 -1.14804 0.023552  -0.752531 -1.2369 0.0275123  -0.795258 -1.32686 0.0314441  -0.838076 -1.41775 0.0353417  -0.880919 -1.5094 0.0392035  -0.923723 -1.60166 0.0430271  -0.966439 -1.6944 0.046806  -1.00902 -1.78748 0.050541  -1.05143 -1.88079 0.0542286  -1.09365 -1.97422 0.0578683  -1.13567 -2.06766 0.0614628  -1.1775 -2.16102 0.0650187  -1.21917 -2.25424 0.0685514  -1.2607 -2.34725 0.0720975  0 0 0  -0.0113977 -0.0132731 -0.012055  -0.036316 -0.0403619 -0.0187562  -0.0624425 -0.0716395 -0.0222869  -0.089022 -0.109463 -0.0227505  -0.116408 -0.153647 -0.0214106  -0.144854 -0.203679 -0.0190248  -0.174503 -0.259005 -0.0160326  -0.205427 -0.319106 -0.0126899  -0.237646 -0.383507 -0.00914316  -0.271146 -0.451775 -0.00547765  -0.305889 -0.523519 -0.00174169  -0.341812 -0.598381 0.00203702  -0.37884 -0.676032 0.00584175  -0.416883 -0.756171 0.00966227  -0.455843 -0.83852 0.0134917  -0.495619 -0.922822 0.0173239  -0.536101 -1.00884 0.0211553  -0.577184 -1.09635 0.0249805  -0.618762 -1.18516 0.0287964  -0.660733 -1.27507 0.0325987  -0.703 -1.36592 0.0363846  -0.745472 -1.45753 0.0401495  -0.788066 -1.54976 0.043891  -0.830707 -1.64248 0.0476055  -0.873328 -1.73556 0.0512898  -0.915875 -1.82887 0.0549425  -0.958299 -1.92233 0.0585605  -1.00056 -2.01582 0.0621451  -1.04264 -2.10928 0.0656999  -1.08452 -2.20262 0.0692307  -1.1262 -2.2958 0.0727538  -1.16772 -2.38877 0.076295  0 0 0  -0.00527048 -0.010005 -0.00757997  -0.0161794 -0.0340165 -0.0121824  -0.0333734 -0.0682593 -0.0146252  -0.051744 -0.109183 -0.0144943  -0.0716332 -0.156513 -0.0129808  -0.0933459 -0.209729 -0.0106785  -0.117024 -0.268244 -0.0079058  -0.142698 -0.331488 -0.00484416  -0.170331 -0.39894 -0.00159918  -0.199842 -0.470129 0.00176676  -0.231127 -0.544637 0.00521491  -0.264061 -0.622083 0.00872171  -0.298512 -0.702127 0.0122724  -0.334342 -0.784462 0.0158558  -0.371409 -0.868805 0.0194634  -0.40957 -0.954903 0.0230895  -0.448685 -1.04252 0.0267284  -0.488618 -1.13145 0.0303752  -0.529236 -1.22149 0.0340246  -0.570415 -1.31247 0.0376735  -0.612036 -1.40422 0.0413175  -0.653991 -1.49659 0.0449525  -0.696178 -1.58945 0.0485761  -0.738508 -1.68267 0.0521842  -0.780902 -1.77613 0.055775  -0.823288 -1.86974 0.059346  -0.865609 -1.9634 0.0628953  -0.907815 -2.05703 0.0664231  -0.949864 -2.15057 0.0699331  -0.991728 -2.24395 0.0734308  -1.03339 -2.33712 0.076929  -1.07488 -2.43006 0.0804446  0 0 0  -0.000698097 -0.0103452 -0.00340515  -0.00334127 -0.0343997 -0.00560158  -0.0100269 -0.0693002 -0.00692429  -0.0196525 -0.112377 -0.00624523  -0.0317565 -0.162165 -0.00461103  -0.0464829 -0.217985 -0.00241792  -0.0639193 -0.279187 0.000129312  -0.0840528 -0.345149 0.00291452  -0.106796 -0.415298 0.0058675  -0.132012 -0.489119 0.00894451  -0.159538 -0.566154 0.0121158  -0.189195 -0.645996 0.0153614  -0.220798 -0.728283 0.0186665  -0.254159 -0.812693 0.02202  -0.289095 -0.898938 0.0254126  -0.325422 -0.986759 0.0288378  -0.362967 -1.07593 0.0322888  -0.401562 -1.16623 0.0357599  -0.441048 -1.25748 0.0392459  -0.481276 -1.34951 0.042743  -0.522105 -1.44216 0.0462467  -0.563407 -1.53529 0.0497539  -0.605065 -1.62878 0.0532608  -0.646971 -1.72252 0.0567637  -0.689032 -1.81639 0.0602612  -0.731164 -1.91031 0.0637505  -0.773296 -2.00421 0.0672295  -0.815369 -2.098 0.0706985  -0.857329 -2.19165 0.074159  -0.899134 -2.28509 0.0776158  -0.940752 -2.37829 0.0810772  -0.982168 -2.47122 0.0845555  0 0 0  0.00333099 -0.0129662 0.000588983  0.00778502 -0.0384962 0.000877127  0.0100175 -0.0744761 0.00108469  0.00929391 -0.118934 0.00213504  0.00507993 -0.17065 0.00379258  -0.0025658 -0.228639 0.00582732  -0.0136479 -0.292151 0.00812873  -0.0281028 -0.360502 0.0106326  -0.0457962 -0.433061 0.0132964  -0.0665443 -0.509266 0.0160903  -0.0901326 -0.588616 0.0189915  -0.116333 -0.670671 0.0219816  -0.144912 -0.755046 0.0250465  -0.175636 -0.841401 0.0281746  -0.208279 -0.929437 0.0313559  -0.24262 -1.01889 0.0345823  -0.278453 -1.10953 0.0378472  -0.315578 -1.20114 0.0411448  -0.353809 -1.29355 0.0444684  -0.392971 -1.38658 0.047815  -0.432904 -1.4801 0.051179  -0.473458 -1.57396 0.0545586  -0.514497 -1.66806 0.0579491  -0.555899 -1.7623 0.0613471  -0.597553 -1.85657 0.0647507  -0.639364 -1.9508 0.0681577  -0.681248 -2.04493 0.0715659  -0.723134 -2.13889 0.0749738  -0.764962 -2.23264 0.078382  -0.806679 -2.32615 0.0817918  -0.848233 -2.41939 0.0852085  -0.88958 -2.51234 0.0886375  0 0 0  0.00724947 -0.0176393 0.00439228  0.0186173 -0.0455835 0.00713786  0.0292549 -0.083016 0.00891428  0.0368497 -0.128801 0.0104433  0.0404812 -0.182078 0.0120889  0.0399069 -0.241921 0.0139463  0.0351834 -0.307465 0.0159996  0.0264301 -0.377952 0.0182303  0.0138285 -0.452691 0.0206174  -0.00239074 -0.531069 0.0231423  -0.0219681 -0.612543 0.0257864  -0.0446286 -0.696639 0.0285333  -0.0700946 -0.782947 0.0313682  -0.0980904 -0.871107 0.0342796  -0.12835 -0.960808 0.0372571  -0.160617 -1.05178 0.0402918  -0.194652 -1.14379 0.0433769  -0.230225 -1.23662 0.0465051  -0.267124 -1.3301 0.0496711  -0.30515 -1.42407 0.0528706  -0.344119 -1.51838 0.0560992  -0.383863 -1.61292 0.0593533  -0.424229 -1.70758 0.0626292  -0.465076 -1.80227 0.0659243  -0.50628 -1.8969 0.0692368  -0.547729 -1.99141 0.0725629  -0.589329 -2.08574 0.0759015  -0.630996 -2.17984 0.0792498  -0.672664 -2.27369 0.0826056  -0.714274 -2.36725 0.0859682  -0.755765 -2.46053 0.0893372  -0.797069 -2.55351 0.0927116  0 0 0  0.0112943 -0.0246602 0.00796807  0.0299762 -0.0556433 0.0130605  0.0490437 -0.0946897 0.0163358  0.0647345 -0.14181 0.0183866  0.0759456 -0.196526 0.0200821  0.0823261 -0.25802 0.0217847  0.0838718 -0.325404 0.0236156  0.0807472 -0.397842 0.0256015  0.0731833 -0.474583 0.0277412  0.0614572 -0.554961 0.0300241  0.0458734 -0.638392 0.0324355  0.0267497 -0.72437 0.0349596  0.00440633 -0.812458 0.0375831  -0.0208426 -0.902278 0.0402937  -0.0486938 -0.993509 0.0430808  -0.078858 -1.08587 0.0459356  -0.111062 -1.17913 0.0488507  -0.145051 -1.27306 0.0518193  -0.180583 -1.36751 0.0548354  -0.217441 -1.46231 0.057895  -0.255417 -1.55734 0.0609934  -0.294325 -1.65247 0.0641274  -0.333993 -1.7476 0.0672941  -0.374266 -1.84267 0.0704904  -0.415003 -1.9376 0.0737142  -0.456079 -2.03232 0.0769634  -0.497385 -2.1268 0.0802353  -0.538826 -2.221 0.0835267  -0.580323 -2.3149 0.0868353  -0.621816 -2.40849 0.0901559  -0.663252 -2.50178 0.0934822  -0.704555 -2.59481 0.0968064  0 0 0  0.0155866 -0.0347345 0.0112938  0.0425538 -0.0690464 0.0185074  0.0705241 -0.109564 0.0231532  0.0943096 -0.15795 0.0257179  0.112896 -0.214042 0.0275186  0.125996 -0.277094 0.0291379  0.133623 -0.346198 0.0308072  0.135964 -0.420462 0.0326055  0.133298 -0.499073 0.0345503  0.125947 -0.581313 0.0366372  0.114261 -0.66656 0.0388555  0.0985976 -0.754273 0.0411915  0.0793169 -0.843995 0.0436326  0.0567701 -0.935331 0.046168  0.031294 -1.02795 0.0487864  0.00321007 -1.12156 0.0514805  -0.0271804 -1.21592 0.054242  -0.0595949 -1.31084 0.0570654  -0.0937707 -1.40612 0.0599442  -0.129465 -1.50164 0.0628752  -0.166453 -1.59725 0.0658532  -0.20453 -1.69286 0.0688753  -0.243508 -1.78837 0.0719397  -0.283215 -1.88371 0.0750429  -0.323497 -1.97883 0.0781832  -0.364214 -2.07369 0.0813596  -0.405245 -2.16823 0.0845691  -0.446478 -2.26246 0.0878098  -0.487825 -2.35636 0.0910766  -0.529212 -2.44993 0.094364  -0.570594 -2.54321 0.0976605  -0.61194 -2.63626 0.100948  0 0 0  0.0194776 -0.0489034 0.0146535  0.0567976 -0.086441 0.0231733  0.0949679 -0.127821 0.0291808  0.126902 -0.177293 0.0322073  0.152594 -0.234706 0.0341489  0.17209 -0.299276 0.0357725  0.185505 -0.370045 0.0373799  0.193063 -0.446061 0.0390823  0.195079 -0.52645 0.0409119  0.191918 -0.610445 0.0428721  0.183968 -0.697384 0.0449561  0.17163 -0.786701 0.0471545  0.155297 -0.877915 0.0494565  0.135355 -0.97062 0.0518527  0.112172 -1.06447 0.0543344  0.0861001 -1.15918 0.056895  0.0574663 -1.25451 0.0595275  0.0265768 -1.35025 0.0622256  -0.00628328 -1.44623 0.0649859  -0.0408528 -1.54231 0.067803  -0.0768876 -1.63837 0.070674  -0.114167 -1.73432 0.073596  -0.152487 -1.83007 0.0765676  -0.191664 -1.92557 0.0795854  -0.231529 -2.02077 0.0826493  -0.271929 -2.11563 0.0857582  -0.312728 -2.21014 0.088911  -0.353805 -2.3043 0.0921044  -0.395053 -2.39811 0.0953363  -0.436385 -2.4916 0.0985991  -0.477738 -2.58483 0.10188  -0.519117 -2.67788 0.105148  0 0 0  -0.0360327 -0.0320033 -0.00940729  -0.0693533 -0.0567969 -0.0148357  -0.103187 -0.0855004 -0.0177851  -0.137628 -0.11972 -0.0188125  -0.172475 -0.159824 -0.0183311  -0.207669 -0.205558 -0.0168404  -0.243253 -0.256561 -0.0146943  -0.279308 -0.312446 -0.01212  -0.315918 -0.372826 -0.00925888  -0.353151 -0.437322 -0.00619883  -0.391052 -0.505569 -0.00299551  -0.429636 -0.57722 0.000316123  -0.468897 -0.651947 0.00371174  -0.508806 -0.729443 0.00717417  -0.549317 -0.809421 0.0106904  -0.59037 -0.891613 0.0142495  -0.631896 -0.975766 0.0178422  -0.67382 -1.06165 0.0214613  -0.716064 -1.14904 0.0250997  -0.75855 -1.23775 0.0287503  -0.801202 -1.32757 0.0324071  -0.843948 -1.41834 0.0360651  -0.88672 -1.5099 0.0397195  -0.92946 -1.60208 0.0433665  -0.972116 -1.69475 0.0469993  -1.01464 -1.78777 0.050616  -1.05701 -1.88104 0.0542143  -1.0992 -1.97443 0.0577899  -1.1412 -2.06785 0.0613458  -1.18302 -2.1612 0.0648837  -1.2247 -2.25441 0.068413  -1.26625 -2.34744 0.0719543  0 0 0  -0.0117465 -0.0155677 -0.0067062  -0.0374532 -0.0447769 -0.0104823  -0.0641302 -0.0774855 -0.0125878  -0.0917251 -0.115648 -0.0132369  -0.120101 -0.159681 -0.0125826  -0.149374 -0.209316 -0.0110457  -0.179664 -0.264139 -0.00892748  -0.211059 -0.323705 -0.00642142  -0.243611 -0.387582 -0.00364881  -0.277333 -0.45536 -0.000685761  -0.312214 -0.526656 0.00241781  -0.348211 -0.601114 0.00563033  -0.385266 -0.678405 0.0089289  -0.423302 -0.758224 0.0122966  -0.462229 -0.840289 0.0157215  -0.501954 -0.924341 0.0191926  -0.542375 -1.01014 0.0227008  -0.583388 -1.09746 0.0262388  -0.624892 -1.1861 0.0297997  -0.666786 -1.27586 0.0333774  -0.708978 -1.36658 0.036965  -0.751376 -1.45809 0.040559  -0.793899 -1.55023 0.0441535  -0.836472 -1.64287 0.0477452  -0.879032 -1.73589 0.0513297  -0.921524 -1.82915 0.0549035  -0.963901 -1.92257 0.0584648  -1.00613 -2.01604 0.0620124  -1.04818 -2.10947 0.0655477  -1.09004 -2.20281 0.0690739  -1.13173 -2.29599 0.0726003  -1.17326 -2.38898 0.0761418  0 0 0  -0.00561216 -0.0119718 -0.00422197  -0.0168409 -0.0375554 -0.00668749  -0.0344196 -0.0731095 -0.0079168  -0.0539576 -0.11453 -0.00807517  -0.0749688 -0.161888 -0.00714662  -0.0975915 -0.214858 -0.00549487  -0.121959 -0.272987 -0.00336114  -0.148135 -0.33579 -0.000895552  -0.176119 -0.402792 0.00180797  -0.205867 -0.473549 0.00468833  -0.237302 -0.547652 0.00770465  -0.270322 -0.624729 0.0108288  -0.304813 -0.70444 0.014041  -0.340648 -0.786474 0.0173249  -0.377694 -0.870549 0.0206682  -0.415817 -0.956409 0.0240611  -0.454881 -1.04382 0.0274942  -0.494755 -1.13256 0.0309599  -0.535308 -1.22244 0.0344519  -0.57642 -1.31327 0.0379636  -0.617973 -1.4049 0.0414899  -0.65986 -1.49717 0.0450257  -0.701983 -1.58994 0.0485666  -0.744251 -1.68308 0.0521086  -0.786588 -1.77649 0.0556492  -0.828923 -1.87005 0.0591844  -0.871199 -1.96367 0.0627119  -0.913368 -2.05727 0.0662313  -0.955391 -2.15079 0.0697431  -0.99724 -2.24416 0.0732518  -1.03891 -2.33734 0.0767637  -1.08041 -2.4303 0.0802891  0 0 0  -0.00107732 -0.0120472 -0.00199161  -0.00426438 -0.0374317 -0.00310147  -0.0109833 -0.0732141 -0.00346043  -0.0217716 -0.116961 -0.00310577  -0.0349439 -0.166952 -0.00188571  -0.0505294 -0.222676 -0.000104023  -0.0686221 -0.283614 0.00205876  -0.08924 -0.34923 0.00449606  -0.112331 -0.419003 0.00714086  -0.137789 -0.492447 0.00994897  -0.165477 -0.56912 0.0128876  -0.195236 -0.648622 0.0159333  -0.226895 -0.730597 0.0190678  -0.260279 -0.814722 0.0222762  -0.295212 -0.900711 0.0255464  -0.331518 -0.988302 0.0288683  -0.369029 -1.07726 0.0322333  -0.40758 -1.16738 0.0356333  -0.447016 -1.25847 0.0390628  -0.487189 -1.35036 0.0425149  -0.527962 -1.44289 0.0459846  -0.569208 -1.53592 0.0494672  -0.61081 -1.62932 0.0529595  -0.652663 -1.72297 0.0564565  -0.694675 -1.81678 0.0599558  -0.736761 -1.91066 0.0634543  -0.778854 -2.00451 0.0669496  -0.820893 -2.09828 0.0704413  -0.862829 -2.1919 0.0739285  -0.904621 -2.28534 0.0774153  -0.946239 -2.37854 0.0809054  -0.987673 -2.47149 0.0844063  0 0 0  0.00292426 -0.0144901 0.000119228  0.00663218 -0.0412062 0.000387235  0.00850928 -0.0779321 0.000966178  0.00691986 -0.12301 0.00184216  0.00183988 -0.175023 0.00333252  -0.00652778 -0.23302 0.00521861  -0.01818 -0.296362 0.00739559  -0.0330713 -0.364443 0.00979964  -0.0510908 -0.436687 0.0123879  -0.0720764 -0.512559 0.0151284  -0.0958332 -0.591581 0.0179958  -0.122148 -0.673321 0.0209697  -0.150798 -0.757401 0.0240337  -0.181562 -0.843484 0.0271734  -0.21422 -0.931271 0.0303764  -0.248558 -1.0205 0.0336332  -0.284373 -1.11093 0.0369351  -0.321469 -1.20236 0.0402748  -0.359663 -1.29461 0.0436454  -0.398784 -1.3875 0.0470421  -0.438673 -1.48089 0.0504588  -0.479181 -1.57465 0.0538923  -0.520175 -1.66866 0.0573381  -0.561532 -1.76281 0.0607925  -0.603145 -1.85701 0.0642528  -0.644917 -1.95119 0.0677166  -0.686766 -2.04528 0.071181  -0.728623 -2.13921 0.0746447  -0.77043 -2.23294 0.0781069  -0.812134 -2.32644 0.0815688  -0.853689 -2.41968 0.0850332  -0.895056 -2.51265 0.0885037  0 0 0  0.00681598 -0.01903 0.00215298  0.0172106 -0.0480902 0.00379316  0.0271314 -0.086208 0.00533126  0.0340423 -0.132574 0.00681279  0.0370728 -0.186159 0.00852329  0.0359509 -0.24607 0.0104806  0.0307672 -0.311509 0.0126551  0.0216408 -0.381783 0.0150211  0.00874519 -0.456253 0.0175549  -0.00770032 -0.534335 0.0202338  -0.0274471 -0.615508 0.0230375  -0.0502305 -0.699311 0.0259478  -0.0757816 -0.785338 0.0289482  -0.103832 -0.873236 0.0320251  -0.134122 -0.962695 0.0351674  -0.166402 -1.05345 0.0383646  -0.200433 -1.14525 0.0416088  -0.235992 -1.2379 0.0448919  -0.272867 -1.33122 0.0482081  -0.310864 -1.42504 0.0515522  -0.3498 -1.51923 0.0549195  -0.389508 -1.61366 0.0583057  -0.429837 -1.70823 0.0617075  -0.470649 -1.80283 0.0651213  -0.511818 -1.89739 0.0685448  -0.553235 -1.99185 0.0719752  -0.594806 -2.08613 0.0754103  -0.636449 -2.1802 0.0788469  -0.678097 -2.27402 0.0822844  -0.719696 -2.36758 0.0857221  -0.761188 -2.46085 0.089159  -0.802511 -2.55385 0.0925948  0 0 0  0.0108437 -0.0259641 0.00408819  0.0283025 -0.0580627 0.00703829  0.0463291 -0.09778 0.00951472  0.0614959 -0.145438 0.0115998  0.0723146 -0.200442 0.0135541  0.0783245 -0.262015 0.0155798  0.0795202 -0.329323 0.0177564  0.0760864 -0.401581 0.0200952  0.0682619 -0.478082 0.0225894  0.0563231 -0.55819 0.0252227  0.0405718 -0.64134 0.0279779  0.02132 -0.72704 0.0308378  -0.00111806 -0.814859 0.0337873  -0.0264335 -0.904427 0.0368128  -0.0543276 -0.995422 0.0399038  -0.0845157 -1.08757 0.04305  -0.116729 -1.18062 0.0462434  -0.150713 -1.27438 0.0494772  -0.186234 -1.36867 0.0527449  -0.223072 -1.46333 0.0560418  -0.261024 -1.55822 0.0593636  -0.299905 -1.65324 0.0627069  -0.339544 -1.74829 0.0660679  -0.379788 -1.84327 0.0694444  -0.420496 -1.93812 0.0728334  -0.461545 -2.03279 0.0762323  -0.502827 -2.12722 0.0796397  -0.544247 -2.22139 0.083052  -0.585727 -2.31526 0.086468  -0.627209 -2.40884 0.0898834  -0.668645 -2.50214 0.0932963  -0.709964 -2.59518 0.0967005  0 0 0  0.015178 -0.0360259 0.00589421  0.0406522 -0.0715426 0.00998795  0.0672745 -0.112778 0.0133268  0.0907033 -0.161619 0.0159942  0.109072 -0.217934 0.018222  0.121931 -0.281027 0.0203599  0.129294 -0.350043 0.0225751  0.131373 -0.424128 0.0249236  0.12847 -0.502506 0.0274122  0.120917 -0.584485 0.030031  0.109064 -0.669458 0.0327654  0.0932698 -0.756902 0.0355991  0.073889 -0.846363 0.0385185  0.0512687 -0.937452 0.0415109  0.0257423 -1.02984 0.0445657  -0.00237346 -1.12324 0.0476742  -0.0327799 -1.21741 0.0508286  -0.0651982 -1.31215 0.0540227  -0.0993679 -1.40728 0.0572505  -0.135048 -1.50265 0.0605086  -0.172019 -1.59814 0.0637918  -0.210073 -1.69364 0.0670976  -0.249026 -1.78905 0.0704225  -0.288708 -1.88432 0.0737653  -0.328965 -1.97937 0.0771235  -0.369658 -2.07416 0.080494  -0.410666 -2.16867 0.0838768  -0.45188 -2.26286 0.0872683  -0.493211 -2.35673 0.0906654  -0.534586 -2.4503 0.094065  -0.575966 -2.54358 0.0974599  -0.617322 -2.63665 0.10084  0 0 0  0.0194985 -0.0503947 0.00763644  0.0550703 -0.0892875 0.0123468  0.0912803 -0.131571 0.0164557  0.123097 -0.181277 0.0197677  0.148705 -0.23875 0.0223321  0.168018 -0.303258 0.0246561  0.181192 -0.373871 0.0269854  0.188497 -0.449667 0.0294098  0.190275 -0.529799 0.0319508  0.186908 -0.61352 0.0346042  0.178789 -0.700181 0.0373586  0.166315 -0.789227 0.0402005  0.149879 -0.880183 0.0431186  0.129861 -0.972645 0.0461024  0.106625 -1.06627 0.0491426  0.0805187 -1.16078 0.0522314  0.0518665 -1.25592 0.0553623  0.0209718 -1.35148 0.0585304  -0.0118842 -1.44731 0.0617301  -0.0464418 -1.54326 0.0649577  -0.0824587 -1.6392 0.0682109  -0.119717 -1.73505 0.0714859  -0.158013 -1.83071 0.0747813  -0.197165 -1.92614 0.0780952  -0.237003 -2.02127 0.0814253  -0.277379 -2.11608 0.0847718  -0.318154 -2.21055 0.0881326  -0.359209 -2.30468 0.0915048  -0.40044 -2.39848 0.0948869  -0.441757 -2.49196 0.098275  -0.483104 -2.5852 0.101661  -0.524488 -2.67827 0.105027  0 0 0  -0.0372604 -0.0335473 -0.00258224  -0.0712507 -0.0592032 -0.00418831  -0.105536 -0.0885297 -0.00536513  -0.14035 -0.123139 -0.00602587  -0.175599 -0.163287 -0.00608326  -0.21121 -0.208894 -0.00554191  -0.247191 -0.259682 -0.00449396  -0.283602 -0.315309 -0.00303209  -0.320516 -0.375417 -0.00123111  -0.358 -0.439643 0.000849217  -0.396102 -0.507631 0.00316308  -0.434846 -0.57904 0.00567295  -0.474229 -0.653545 0.00834989  -0.514229 -0.730839 0.011168  -0.554806 -0.810634 0.0141069  -0.595904 -0.892661 0.0171497  -0.637459 -0.976669 0.0202802  -0.679399 -1.06242 0.0234864  -0.72165 -1.14971 0.0267556  -0.764135 -1.23831 0.030079  -0.806779 -1.32805 0.0334476  -0.849514 -1.41875 0.0368524  -0.892273 -1.51024 0.0402878  -0.934998 -1.60237 0.0437492  -0.977639 -1.695 0.0472273  -1.02015 -1.78799 0.0507201  -1.06251 -1.88123 0.0542232  -1.10469 -1.9746 0.0577321  -1.14669 -2.06801 0.0612455  -1.18851 -2.16136 0.0647643  -1.2302 -2.25457 0.0682905  -1.27176 -2.3476 0.0718318  0 0 0  -0.0120678 -0.0166363 -0.00152363  -0.0385432 -0.0469038 -0.00249888  -0.0657694 -0.0802801 -0.00323796  -0.0938399 -0.118831 -0.00356573  -0.122777 -0.162912 -0.00335886  -0.152599 -0.212425 -0.00258726  -0.18338 -0.26704 -0.00133787  -0.215195 -0.326363 0.000299178  -0.248091 -0.389986 0.00225106  -0.282093 -0.457515 0.00446087  -0.317194 -0.528573 0.00688465  -0.353364 -0.60281 0.0094874  -0.390552 -0.679896 0.0122413  -0.428687 -0.759528 0.0151238  -0.467688 -0.841424 0.0181152  -0.507465 -0.925323 0.0212002  -0.54792 -1.01099 0.0243652  -0.588955 -1.09819 0.0275974  -0.630469 -1.18672 0.0308874  -0.672366 -1.27639 0.0342257  -0.714554 -1.36703 0.0376046  -0.756943 -1.45847 0.0410166  -0.799454 -1.55055 0.0444559  -0.842014 -1.64315 0.047917  -0.88456 -1.73613 0.0513952  -0.927038 -1.82936 0.0548862  -0.969403 -1.92276 0.0583867  -1.01162 -2.01621 0.061894  -1.05367 -2.10964 0.0654071  -1.09553 -2.20297 0.0689274  -1.13722 -2.29615 0.0724564  -1.17877 -2.38915 0.0759992  0 0 0  -0.00588638 -0.0128847 -0.000885151  -0.0174951 -0.0392506 -0.00137258  -0.0356335 -0.0754553 -0.00160317  -0.0556745 -0.117272 -0.00149896  -0.0773361 -0.164728 -0.000942089  -0.100582 -0.217635 0.000122979  -0.12549 -0.275614 0.00161348  -0.152114 -0.338223 0.00344887  -0.180463 -0.405014 0.00556591  -0.210503 -0.475557 0.00791506  -0.242169 -0.549453 0.0104568  -0.275371 -0.626332 0.0131602  -0.310003 -0.705858 0.0160006  -0.345947 -0.787721 0.0189565  -0.383075 -0.87164 0.0220105  -0.421258 -0.957357 0.0251489  -0.460366 -1.04464 0.0283583  -0.500269 -1.13327 0.0316275  -0.540841 -1.22305 0.0349482  -0.581961 -1.3138 0.0383112  -0.623517 -1.40535 0.0417095  -0.665401 -1.49755 0.0451374  -0.707516 -1.59027 0.0485886  -0.749775 -1.68337 0.0520582  -0.792101 -1.77673 0.0555428  -0.834425 -1.87027 0.0590376  -0.876691 -1.96387 0.0625405  -0.918853 -2.05746 0.0660486  -0.960872 -2.15097 0.0695609  -1.00272 -2.24434 0.0730791  -1.0444 -2.33752 0.0766049  -1.08591 -2.4305 0.0801411  0 0 0  -0.00133078 -0.0128257 -0.000464723  -0.00492747 -0.0388611 -0.000539713  -0.0120544 -0.0750891 -0.000287503  -0.0233039 -0.119211 0.000285693  -0.0371422 -0.169367 0.00123764  -0.0533639 -0.225109 0.00262877  -0.0720023 -0.285971 0.00438251  -0.0930707 -0.351454 0.00643172  -0.116527 -0.421065 0.00872518  -0.14228 -0.494334 0.011223  -0.170204 -0.570828 0.013892  -0.200152 -0.650157 0.016705  -0.231961 -0.731965 0.0196402  -0.265464 -0.815934 0.022679  -0.300489 -0.901777 0.0258049  -0.336866 -0.989235 0.0290054  -0.374429 -1.07808 0.0322686  -0.413019 -1.16809 0.0355837  -0.452482 -1.25908 0.0389436  -0.492673 -1.35089 0.04234  -0.533456 -1.44334 0.0457659  -0.574706 -1.53631 0.0492162  -0.616307 -1.62966 0.0526861  -0.658157 -1.72327 0.056171  -0.700162 -1.81705 0.0596669  -0.742242 -1.9109 0.0631707  -0.784327 -2.00473 0.0666792  -0.826361 -2.09849 0.0701904  -0.868295 -2.1921 0.0737029  -0.91009 -2.28554 0.0772173  -0.951714 -2.37875 0.0807373  -0.993164 -2.47171 0.0842626  0 0 0  0.00268462 -0.0151351 -0.000105552  0.00592721 -0.0423971 0.000209577  0.00730869 -0.0794771 0.000928201  0.00536859 -0.124824 0.00196434  -0.000340581 -0.17706 0.00331342  -0.0092994 -0.235148 0.00502887  -0.021461 -0.298479 0.00704393  -0.0367785 -0.366483 0.00930708  -0.0551494 -0.438608 0.0117798  -0.0764242 -0.51434 0.0144297  -0.100418 -0.59321 0.0172306  -0.126926 -0.674798 0.0201591  -0.155734 -0.758728 0.0231959  -0.186625 -0.844667 0.0263238  -0.219384 -0.932319 0.0295283  -0.253803 -1.02142 0.0327974  -0.289681 -1.11174 0.0361204  -0.326825 -1.20307 0.0394881  -0.365056 -1.29522 0.0428926  -0.404204 -1.38804 0.0463281  -0.444111 -1.48136 0.0497868  -0.48463 -1.57506 0.0532658  -0.52563 -1.66901 0.0567586  -0.566989 -1.76313 0.0602625  -0.608601 -1.8573 0.0637735  -0.650371 -1.95145 0.0672891  -0.692216 -2.04552 0.0708055  -0.734071 -2.13944 0.0743221  -0.775877 -2.23316 0.0778359  -0.817585 -2.32666 0.081347  -0.859149 -2.41991 0.0848582  -0.900533 -2.51289 0.08837  0 0 0  0.0065977 -0.019538 0.000270694  0.0164596 -0.0490763 0.000978753  0.0257851 -0.0875081 0.00216028  0.0322655 -0.134108 0.00365361  0.0347829 -0.187914 0.00537989  0.0331619 -0.247957 0.00739856  0.027534 -0.31343 0.00965808  0.0180233 -0.383668 0.0121251  0.00479949 -0.458054 0.0147719  -0.0119234 -0.536024 0.0175742  -0.0319039 -0.617069 0.0205094  -0.0548829 -0.700736 0.0235569  -0.0805964 -0.786627 0.0266991  -0.108782 -0.874393 0.0299207  -0.139183 -0.963727 0.0332083  -0.171552 -1.05436 0.0365506  -0.205656 -1.14606 0.0399384  -0.241272 -1.23861 0.0433618  -0.278192 -1.33184 0.0468157  -0.316223 -1.42559 0.0502931  -0.355185 -1.51971 0.0537886  -0.394913 -1.61408 0.0572978  -0.435254 -1.7086 0.0608172  -0.476072 -1.80317 0.0643425  -0.517245 -1.8977 0.067872  -0.558665 -1.99213 0.0714005  -0.600235 -2.08639 0.0749276  -0.641878 -2.18045 0.07845  -0.683527 -2.27426 0.0819656  -0.72513 -2.36782 0.0854744  -0.766631 -2.4611 0.0889764  -0.80797 -2.55412 0.092473  0 0 0  0.0106587 -0.0263408 0.000674434  0.0275167 -0.0588805 0.00177085  0.0448365 -0.0989137 0.00340422  0.0594754 -0.1468 0.00533955  0.0698604 -0.202018 0.00744341  0.0754805 -0.26373 0.0097398  0.0763063 -0.331096 0.0122271  0.0725342 -0.403343 0.0148898  0.0644077 -0.479783 0.0177099  0.0522044 -0.559797 0.0206666  0.0362235 -0.642835 0.0237403  0.0167751 -0.728412 0.0269116  -0.00583005 -0.816107 0.0301646  -0.0312861 -0.905552 0.0334845  -0.0592983 -0.996429 0.0368599  -0.089584 -1.08846 0.0402799  -0.121877 -1.18142 0.0437362  -0.155928 -1.27509 0.0472201  -0.191501 -1.36929 0.0507263  -0.22838 -1.46387 0.0542486  -0.266365 -1.55871 0.0577832  -0.30527 -1.65367 0.061326  -0.344927 -1.74867 0.0648734  -0.385183 -1.84361 0.0684222  -0.425899 -1.93844 0.0719702  -0.466954 -2.03308 0.0755137  -0.508238 -2.1275 0.0790523  -0.549659 -2.22165 0.0825818  -0.591142 -2.31552 0.086101  -0.632629 -2.4091 0.0896079  -0.674073 -2.5024 0.0931025  -0.715405 -2.59546 0.0965826  0 0 0  0.0150608 -0.036315 0.0010639  0.0398894 -0.0722718 0.0024915  0.0656766 -0.113871 0.00454371  0.0884845 -0.162953 0.00690988  0.106485 -0.21946 0.00938907  0.119037 -0.282675 0.0119711  0.126096 -0.351742 0.0146906  0.127875 -0.425819 0.0175574  0.12469 -0.504141 0.0205608  0.116881 -0.586032 0.0236836  0.104801 -0.6709 0.0269069  0.0888077 -0.758227 0.0302127  0.0692558 -0.847569 0.033586  0.0464891 -0.938541 0.0370134  0.0208385 -1.03081 0.0404839  -0.00738108 -1.12411 0.0439882  -0.037874 -1.21818 0.0475183  -0.0703638 -1.31283 0.0510676  -0.104592 -1.40788 0.0546304  -0.14032 -1.50319 0.0582024  -0.177327 -1.59861 0.0617793  -0.21541 -1.69406 0.0653583  -0.254386 -1.78943 0.0689362  -0.294084 -1.88466 0.0725096  -0.334352 -1.97969 0.076078  -0.375054 -2.07446 0.0796381  -0.416067 -2.16895 0.0831887  -0.457284 -2.26313 0.0867271  -0.498617 -2.357 0.0902513  -0.539997 -2.45056 0.0937588  -0.581382 -2.54385 0.0972482  -0.622748 -2.63694 0.100716  0 0 0  0.0195703 -0.0507552 0.00132992  0.0545545 -0.0901107 0.0028938  0.0897233 -0.132861 0.00534025  0.12077 -0.182835 0.0081807  0.146077 -0.24043 0.011081  0.165141 -0.304996 0.0139879  0.178045 -0.375616 0.0169754  0.185066 -0.451373 0.020077  0.186566 -0.53143 0.0232917  0.182941 -0.61505 0.0266038  0.17459 -0.701597 0.0299965  0.161912 -0.790522 0.0334536  0.145298 -0.881356 0.0369613  0.125128 -0.9737 0.040508  0.101764 -1.06721 0.0440842  0.0755484 -1.16161 0.0476815  0.0468047 -1.25666 0.0512929  0.0158339 -1.35214 0.0549141  -0.0170848 -1.44789 0.0585389  -0.051693 -1.54377 0.0621649  -0.0877512 -1.63966 0.0657882  -0.125041 -1.73545 0.0694062  -0.163364 -1.83108 0.0730167  -0.202534 -1.92647 0.0766178  -0.242386 -2.02158 0.0802079  -0.28277 -2.11637 0.0837858  -0.323552 -2.21083 0.0873497  -0.364612 -2.30495 0.0908975  -0.405844 -2.39874 0.0944274  -0.447164 -2.49223 0.0979373  -0.488514 -2.58547 0.101426  -0.529902 -2.67856 0.104884  0 0 0  -0.0378411 -0.0335823 0.00468597  -0.0722793 -0.0591795 0.00679943  -0.106924 -0.0885805 0.00725314  -0.142049 -0.123356 0.00692514  -0.177607 -0.163684 0.00640696  -0.213548 -0.209414 0.00604472  -0.249875 -0.260279 0.00600727  -0.286627 -0.315947 0.00634958  -0.323866 -0.376067 0.0070723  -0.361648 -0.440281 0.00815088  -0.400019 -0.508241 0.00955126  -0.438999 -0.57961 0.0112367  -0.478589 -0.654067 0.0131723  -0.518769 -0.731309 0.0153255  -0.5595 -0.811052 0.0176684  -0.600731 -0.893028 0.0201766  -0.6424 -0.976988 0.0228285  -0.684437 -1.0627 0.0256064  -0.726769 -1.14994 0.0284934  -0.769323 -1.23851 0.0314772  -0.812026 -1.32823 0.0345444  -0.854808 -1.4189 0.037687  -0.897607 -1.51037 0.0408948  -0.940365 -1.60249 0.0441609  -0.983032 -1.69511 0.047478  -1.02557 -1.7881 0.0508409  -1.06794 -1.88133 0.0542438  -1.11014 -1.97471 0.0576821  -1.15215 -2.06812 0.0611527  -1.19398 -2.16147 0.064651  -1.23567 -2.2547 0.0681738  -1.27724 -2.34774 0.0717179  0 0 0  -0.0123101 -0.0166047 0.00393894  -0.0393059 -0.0469562 0.00573614  -0.0668843 -0.0803917 0.00623861  -0.0952405 -0.11907 0.00619167  -0.124472 -0.163296 0.00606731  -0.154639 -0.21291 0.00614171  -0.18579 -0.267591 0.00654696  -0.217972 -0.326951 0.00731343  -0.251218 -0.390587 0.00842881  -0.285542 -0.458109 0.00986351  -0.320934 -0.529145 0.0115827  -0.357362 -0.603348 0.0135513  -0.394775 -0.680392 0.015738  -0.433106 -0.759978 0.018113  -0.472278 -0.841826 0.0206521  -0.512201 -0.925678 0.0233331  -0.552782 -1.0113 0.0261379  -0.593924 -1.09846 0.0290498  -0.635529 -1.18695 0.0320553  -0.677504 -1.27659 0.0351423  -0.719757 -1.36721 0.0383008  -0.7622 -1.45862 0.0415216  -0.804757 -1.55069 0.0447964  -0.847354 -1.64327 0.0481199  -0.889931 -1.73624 0.0514852  -0.932433 -1.82948 0.0548868  -0.974819 -1.92287 0.0583221  -1.01705 -2.01633 0.0617858  -1.05911 -2.10976 0.0652751  -1.10099 -2.2031 0.0687867  -1.14269 -2.29629 0.072319  -1.18425 -2.3893 0.0758655  0 0 0  -0.00607257 -0.0129181 0.00264752  -0.0179675 -0.0392578 0.00412458  -0.0364935 -0.0755297 0.00478987  -0.056852 -0.117433 0.00511056  -0.0788293 -0.165004 0.00544071  -0.102451 -0.217999 0.00599167  -0.127752 -0.276044 0.00686364  -0.15476 -0.338697 0.00806738  -0.18347 -0.405512 0.00958349  -0.213841 -0.476061 0.0113804  -0.245805 -0.549946 0.0134251  -0.279272 -0.626803 0.0156848  -0.314139 -0.706297 0.0181318  -0.350286 -0.788122 0.0207393  -0.387593 -0.872001 0.0234861  -0.42593 -0.957679 0.0263528  -0.465171 -1.04492 0.0293228  -0.505187 -1.13351 0.0323823  -0.545857 -1.22326 0.0355184  -0.587061 -1.31398 0.0387216  -0.628687 -1.40551 0.0419818  -0.67063 -1.4977 0.0452926  -0.712796 -1.5904 0.0486454  -0.755096 -1.68349 0.0520357  -0.797455 -1.77685 0.0554584  -0.839806 -1.87038 0.0589078  -0.882095 -1.96399 0.0623815  -0.924275 -2.05758 0.0658758  -0.96631 -2.1511 0.0693865  -1.00818 -2.24447 0.0729122  -1.04986 -2.33767 0.0764508  -1.09138 -2.43065 0.0799985  0 0 0  -0.00147431 -0.0128742 0.00119708  -0.00533354 -0.03886 0.00217412  -0.012751 -0.0750486 0.00297019  -0.0243429 -0.119221 0.00370227  -0.0385209 -0.169473 0.00453424  -0.0551456 -0.225306 0.00559741  -0.0741941 -0.286245 0.0069602  -0.0956545 -0.351789 0.00861703  -0.119474 -0.421438 0.0105444  -0.145558 -0.494727 0.0127128  -0.17378 -0.571225 0.0150913  -0.203993 -0.650543 0.0176516  -0.236038 -0.732331 0.0203684  -0.269748 -0.816272 0.0232193  -0.304954 -0.902084 0.0261845  -0.341489 -0.98951 0.029248  -0.37919 -1.07832 0.0323953  -0.417899 -1.1683 0.0356134  -0.457464 -1.25927 0.0388917  -0.497742 -1.35105 0.0422218  -0.5386 -1.44349 0.0455948  -0.579913 -1.53644 0.0490049  -0.621568 -1.62978 0.0524447  -0.663461 -1.72339 0.0559106  -0.705502 -1.81716 0.0593976  -0.747611 -1.91101 0.0629016  -0.789721 -2.00485 0.0664196  -0.831775 -2.09861 0.0699486  -0.873727 -2.19224 0.0734845  -0.915537 -2.28568 0.0770251  -0.957175 -2.3789 0.0805717  -0.998635 -2.47187 0.0841224  0 0 0  0.00256363 -0.0151467 -0.00025861  0.00555179 -0.0423274 0.000163227  0.00661793 -0.0793249 0.00101963  0.00436246 -0.124655 0.00213774  -0.00169271 -0.176974 0.00347675  -0.0110632 -0.235164 0.00506155  -0.0236363 -0.298592 0.00692029  -0.0393413 -0.366674 0.00903419  -0.0580695 -0.438855 0.0113766  -0.0796688 -0.514621 0.0139192  -0.103955 -0.593508 0.0166363  -0.130726 -0.675096 0.0195024  -0.159768 -0.759016 0.0224959  -0.190866 -0.844936 0.0255973  -0.223808 -0.932565 0.028789  -0.258388 -1.02164 0.0320569  -0.294406 -1.11194 0.0353888  -0.331673 -1.20325 0.0387734  -0.37001 -1.29538 0.0422014  -0.409249 -1.38817 0.0456657  -0.449233 -1.48148 0.0491584  -0.489819 -1.57517 0.0526749  -0.530874 -1.66912 0.0562084  -0.57228 -1.76323 0.0597556  -0.61393 -1.85741 0.063312  -0.655731 -1.95157 0.0668743  -0.697603 -2.04564 0.0704402  -0.739478 -2.13956 0.0740068  -0.781302 -2.2333 0.0775707  -0.823028 -2.32681 0.0811294  -0.864606 -2.42006 0.0846843  -0.906 -2.51305 0.0882377  0 0 0  0.00649907 -0.0194335 -0.00160003  0.0161066 -0.0488546 -0.0017148  0.025079 -0.0871932 -0.000830635  0.0311965 -0.133764 0.000628874  0.0333883 -0.187632 0.00244218  0.0313673 -0.247793 0.0045273  0.0253451 -0.313383 0.00686526  0.0154629 -0.383717 0.00942251  0.0018959 -0.458175 0.0121704  -0.0151421 -0.536193 0.0150821  -0.0354083 -0.617265 0.0181351  -0.058646 -0.700943 0.0213063  -0.0845916 -0.786833 0.024577  -0.112984 -0.87459 0.0279301  -0.143569 -0.963909 0.0313506  -0.176101 -1.05453 0.0348263  -0.210348 -1.14621 0.0383464  -0.24609 -1.23874 0.0419008  -0.283119 -1.33196 0.0454823  -0.321245 -1.4257 0.0490836  -0.360288 -1.51981 0.0527001  -0.400085 -1.61418 0.0563254  -0.440485 -1.7087 0.0599553  -0.481353 -1.80326 0.0635862  -0.522567 -1.8978 0.0672154  -0.564018 -1.99224 0.0708389  -0.605616 -2.08651 0.0744546  -0.64728 -2.18058 0.0780602  -0.688948 -2.27441 0.0816527  -0.730568 -2.36797 0.0852298  -0.772084 -2.46126 0.0887941  -0.813433 -2.55429 0.0923486  0 0 0  0.0105996 -0.0260338 -0.00275663  0.0272057 -0.0584205 -0.00334889  0.0441276 -0.0983872 -0.00244464  0.0583493 -0.146272 -0.000680774  0.0683802 -0.201564 0.00156546  0.0736364 -0.263405 0.00411063  0.0741007 -0.330904 0.00689486  0.0699819 -0.403263 0.00987023  0.0615286 -0.479789 0.013005  0.0490209 -0.559862 0.0162731  0.0327605 -0.642938 0.0196529  0.0130565 -0.728535 0.0231232  -0.00977981 -0.816237 0.0266672  -0.0354444 -0.905681 0.0302689  -0.0636426 -0.996551 0.0339167  -0.0940943 -1.08858 0.0375993  -0.126535 -1.18152 0.0413068  -0.160714 -1.27518 0.0450315  -0.196401 -1.36937 0.0487663  -0.233379 -1.46395 0.0525052  -0.271449 -1.55878 0.0562447  -0.310427 -1.65375 0.0599794  -0.350147 -1.74875 0.0637063  -0.390454 -1.8437 0.0674217  -0.431214 -1.93853 0.0711231  -0.472303 -2.03319 0.0748079  -0.513616 -2.12762 0.0784735  -0.55506 -2.22179 0.0821179  -0.596562 -2.31567 0.0857389  -0.638065 -2.40926 0.0893343  -0.679522 -2.50257 0.0929064  -0.720864 -2.59563 0.0964585  0 0 0  0.015056 -0.0357795 -0.00377224  0.0396532 -0.0715601 -0.00477466  0.0649999 -0.113157 -0.0038325  0.0873338 -0.162299 -0.0017792  0.104949 -0.218912 0.000867903  0.117164 -0.282269 0.00384133  0.123899 -0.351476 0.00703864  0.125358 -0.425673 0.0104065  0.12186 -0.504086 0.0139101  0.113755 -0.586042 0.0175222  0.101398 -0.670951 0.0212195  0.0851498 -0.758303 0.0249828  0.0653647 -0.847656 0.0287949  0.0423867 -0.938631 0.032643  0.0165464 -1.0309 0.0365151  -0.0118436 -1.12419 0.0404016  -0.0424886 -1.21826 0.0442945  -0.0751121 -1.3129 0.0481876  -0.109458 -1.40795 0.0520746  -0.14529 -1.50325 0.0559505  -0.182387 -1.59868 0.0598122  -0.220549 -1.69413 0.0636556  -0.25959 -1.78951 0.0674782  -0.299343 -1.88475 0.0712768  -0.339658 -1.97979 0.07505  -0.380398 -2.07457 0.0787946  -0.421441 -2.16908 0.0825095  -0.462682 -2.26327 0.0861924  -0.504035 -2.35716 0.0898404  -0.54543 -2.45073 0.0934533  -0.586828 -2.54403 0.0970321  -0.628201 -2.63712 0.10058  0 0 0  0.0196303 -0.0500589 -0.00486183  0.054463 -0.089247 -0.00615662  0.0891589 -0.1321 -0.00509103  0.119658 -0.182228 -0.00271992  0.14455 -0.23997 0.000323668  0.163308 -0.304677 0.00370692  0.175919 -0.375428 0.00729822  0.182638 -0.451293 0.0110417  0.183833 -0.531431 0.0149021  0.179912 -0.615108 0.0188482  0.171281 -0.701689 0.0228557  0.158343 -0.790632 0.0269056  0.141491 -0.881473 0.0309817  0.121104 -0.973816 0.0350717  0.0975428 -1.06732 0.0391646  0.0711508 -1.16172 0.0432526  0.0422497 -1.25675 0.0473291  0.0111382 -1.35223 0.0513878  -0.0219045 -1.44798 0.0554247  -0.0566216 -1.54385 0.0594354  -0.0927753 -1.63974 0.063418  -0.130149 -1.73554 0.0673685  -0.168542 -1.83117 0.0712852  -0.207772 -1.92657 0.075166  -0.247675 -2.02169 0.0790089  -0.288102 -2.1165 0.0828125  -0.328919 -2.21097 0.0865748  -0.370004 -2.30511 0.0902945  -0.411257 -2.39891 0.0939695  -0.452593 -2.49241 0.0975986  -0.493955 -2.58565 0.101183  -0.535349 -2.67875 0.104728  0 0 -2.98023e-08  -0.0378498 -0.03195 0.0130427  -0.0724041 -0.0565666 0.0186257  -0.107196 -0.0856176 0.0203566  -0.142506 -0.120451 0.0201125  -0.1783 -0.161065 0.0190118  -0.214531 -0.20717 0.0177135  -0.251191 -0.258409 0.0165869  -0.288303 -0.314418 0.0158144  -0.32591 -0.374829 0.0154651  -0.364054 -0.439285 0.0155469  -0.40277 -0.507438 0.016036  -0.442075 -0.578959 0.0168963  -0.481964 -0.653536 0.018088  -0.522417 -0.730871 0.0195718  -0.563396 -0.810687 0.0213122  -0.60485 -0.892721 0.0232786  -0.646719 -0.976728 0.0254441  -0.688934 -1.06248 0.0277849  -0.731424 -1.14976 0.0302819  -0.774118 -1.23836 0.0329176  -0.816944 -1.3281 0.0356773  -0.859834 -1.4188 0.0385486  -0.902727 -1.5103 0.0415213  -0.945566 -1.60244 0.0445866  -0.988301 -1.69508 0.0477356  -1.03089 -1.78809 0.0509624  -1.07332 -1.88135 0.0542601  -1.11555 -1.97475 0.0576263  -1.15758 -2.06818 0.061052  -1.19943 -2.16156 0.0645314  -1.24113 -2.2548 0.0680517  -1.2827 -2.34784 0.0715989  0 0 -2.98023e-08  -0.0124509 -0.015298 0.0101247  -0.0396586 -0.0447772 0.0145956  -0.0672835 -0.0777708 0.0160962  -0.0956758 -0.116409 0.0161507  -0.125008 -0.160849 0.0156173  -0.155371 -0.21079 0.0149983  -0.186806 -0.265818 0.0145747  -0.219331 -0.325501 0.0144827  -0.25295 -0.389418 0.0147678  -0.287653 -0.457173 0.015428  -0.323414 -0.528396 0.0164392  -0.360191 -0.602746 0.0177672  -0.397928 -0.679906 0.0193773  -0.436557 -0.759581 0.0212347  -0.475998 -0.841499 0.0233095  -0.516164 -0.925406 0.0255748  -0.556963 -1.01107 0.0280074  -0.598298 -1.09826 0.0305875  -0.640077 -1.18679 0.0332973  -0.682204 -1.27646 0.0361224  -0.724591 -1.3671 0.0390502  -0.767153 -1.45854 0.0420703  -0.809812 -1.55064 0.0451724  -0.852499 -1.64324 0.0483496  -0.895151 -1.73623 0.0515948  -0.937717 -1.82949 0.0549016  -0.980155 -1.9229 0.058265  -1.02243 -2.01638 0.0616812  -1.06452 -2.10983 0.0651438  -1.10642 -2.20319 0.0686467  -1.14814 -2.29639 0.0721797  -1.1897 -2.38941 0.0757319  0 0 -2.98023e-08  -0.00612932 -0.011934 0.00659856  -0.0181475 -0.0373976 0.0100453  -0.0368012 -0.0732074 0.011463  -0.0572334 -0.114985 0.0118726  -0.0793174 -0.162678 0.0119247  -0.103125 -0.21593 0.0119891  -0.128703 -0.274272 0.0122684  -0.156048 -0.337218 0.0128562  -0.185127 -0.404295 0.0137777  -0.215875 -0.475068 0.0150221  -0.248209 -0.549138 0.0165638  -0.282029 -0.626143 0.0183712  -0.317224 -0.705755 0.0204138  -0.353674 -0.787674 0.0226611  -0.391255 -0.871626 0.0250874  -0.42984 -0.957363 0.0276696  -0.469304 -1.04465 0.0303879  -0.50952 -1.13329 0.033225  -0.550367 -1.22307 0.0361655  -0.591728 -1.31383 0.0391974  -0.633492 -1.40539 0.04231  -0.675557 -1.4976 0.0454936  -0.717829 -1.59033 0.0487401  -0.760221 -1.68344 0.0520429  -0.802657 -1.77683 0.0553966  -0.845075 -1.87039 0.0587947  -0.887418 -1.96401 0.0622333  -0.929642 -2.05763 0.0657093  -0.971712 -2.15117 0.0692161  -1.0136 -2.24456 0.0727472  -1.05531 -2.33777 0.0762967  -1.09683 -2.43075 0.0798552  0 0 -2.98023e-08  -0.00148135 -0.0120799 0.00303894  -0.00541577 -0.0372498 0.00512862  -0.0129276 -0.0729059 0.00642851  -0.0246654 -0.116891 0.00724632  -0.0390094 -0.167194 0.00792575  -0.055855 -0.223222 0.00869948  -0.075197 -0.284415 0.00969744  -0.0969982 -0.350221 0.0109756  -0.121182 -0.420117 0.0125409  -0.147635 -0.493622 0.0143772  -0.176218 -0.570303 0.0164587  -0.206775 -0.649772 0.0187561  -0.239142 -0.731682 0.0212431  -0.273148 -0.815723 0.0238937  -0.308625 -0.901616 0.0266855  -0.345406 -0.98911 0.0295996  -0.383328 -1.07798 0.0326181  -0.422235 -1.16801 0.0357268  -0.461976 -1.25902 0.0389127  -0.502412 -1.35084 0.0421657  -0.543408 -1.44332 0.0454759  -0.584842 -1.5363 0.0488363  -0.626602 -1.62967 0.0522391  -0.668588 -1.72331 0.0556777  -0.710707 -1.81712 0.0591487  -0.752881 -1.911 0.0626474  -0.795045 -2.00486 0.0661698  -0.837142 -2.09865 0.0697126  -0.879128 -2.1923 0.0732706  -0.920966 -2.28576 0.0768374  -0.962624 -2.37899 0.0804083  -1.00409 -2.47197 0.083981  0 0 -2.98023e-08  0.00256951 -0.0144348 -0.000427991  0.00551248 -0.0408399 0.000199705  0.00646237 -0.0772971 0.00123751  0.00404423 -0.122379 0.00242633  -0.00223154 -0.174697 0.00373948  -0.0118633 -0.233039 0.00523317  -0.0247524 -0.296688 0.00695646  -0.0408036 -0.36501 0.00892895  -0.0598905 -0.437423 0.0111414  -0.0818474 -0.513398 0.0135728  -0.106481 -0.592465 0.0161982  -0.133582 -0.674205 0.018992  -0.162933 -0.758251 0.0219312  -0.194318 -0.844277 0.0249937  -0.227523 -0.931994 0.0281605  -0.262341 -1.02115 0.0314159  -0.298575 -1.11151 0.0347449  -0.336036 -1.20287 0.0381348  -0.374546 -1.29505 0.0415765  -0.413939 -1.38789 0.0450598  -0.454059 -1.48125 0.048577  -0.494765 -1.57498 0.0521225  -0.535925 -1.66897 0.055689  -0.57742 -1.76312 0.0592727  -0.619146 -1.85733 0.0628681  -0.661011 -1.95153 0.0664725  -0.702934 -2.04563 0.0700836  -0.744852 -2.13959 0.0736972  -0.786709 -2.23335 0.0773106  -0.828461 -2.32688 0.0809174  -0.87006 -2.42015 0.0845139  -0.911461 -2.51315 0.088104  0 0 -2.98023e-08  0.00649124 -0.0186952 -0.00370032  0.0160709 -0.0473674 -0.00451484  0.0248999 -0.0851902 -0.00381169  0.0308057 -0.131506 -0.00233439  0.0327502 -0.185341 -0.000430137  0.0304414 -0.245626 0.00176167  0.0240898 -0.311416 0.00419471  0.0138609 -0.381975 0.00684872  -5.60284e-05 -0.456652 0.00969812  -0.0174381 -0.53487 0.0127175  -0.0380365 -0.616118 0.0158827  -0.0615895 -0.699947 0.0191712  -0.0878314 -0.785965 0.0225623  -0.116499 -0.87383 0.0260384  -0.147336 -0.963241 0.0295829  -0.180099 -1.05394 0.0331827  -0.214556 -1.14569 0.036826  -0.250487 -1.23829 0.0405023  -0.287686 -1.33156 0.0442031  -0.325963 -1.42535 0.0479211  -0.36514 -1.51952 0.0516502  -0.405053 -1.61394 0.0553846  -0.445556 -1.7085 0.0591187  -0.486511 -1.80311 0.0628496  -0.527799 -1.89769 0.066574  -0.569313 -1.99217 0.0702873  -0.61096 -2.08649 0.0739887  -0.652664 -2.18059 0.0776754  -0.694364 -2.27445 0.081345  -0.736009 -2.36804 0.0849923  -0.777545 -2.46134 0.0886155  -0.818902 -2.55437 0.0922211  0 0 -2.98023e-08  0.0105895 -0.0250813 -0.00661865  0.027185 -0.0567287 -0.00875768  0.0439383 -0.0962434 -0.00840002  0.0579007 -0.143921 -0.00670114  0.0676422 -0.199196 -0.00428104  0.072601 -0.261159 -0.001452  0.0727351 -0.328855 0.00164232  0.0682765 -0.401434 0.00493705  0.0594842 -0.478175 0.00839064  0.046645 -0.558446 0.0119719  0.0300647 -0.641695 0.0156564  0.0100569 -0.727443 0.0194226  -0.0130658 -0.815275 0.0232532  -0.0389966 -0.90483 0.0271322  -0.0674413 -0.995798 0.0310461  -0.0981191 -1.08791 0.0349843  -0.130765 -1.18093 0.0389365  -0.165132 -1.27466 0.0428944  -0.200986 -1.36892 0.0468512  -0.238114 -1.46356 0.050801  -0.276317 -1.55844 0.0547386  -0.315412 -1.65347 0.0586603  -0.355233 -1.74852 0.0625613  -0.395628 -1.84353 0.0664384  -0.436461 -1.93841 0.0702893  -0.477611 -2.03311 0.074111  -0.518973 -2.12758 0.0779014  -0.560455 -2.22179 0.0816592  -0.601987 -2.31571 0.0853825  -0.643514 -2.40932 0.0890676  -0.684989 -2.50265 0.0927141  -0.726338 -2.59572 0.0963303  0 0 -2.98023e-08  0.0150789 -0.0344107 -0.00911695  0.0396871 -0.0694485 -0.0123751  0.0648487 -0.110702 -0.0123025  0.0868843 -0.159741 -0.0104173  0.104176 -0.216406 -0.00756019  0.116081 -0.279921 -0.00417972  0.122498 -0.349343 -0.000501245  0.12363 -0.423769 0.00336969  0.119805 -0.502403 0.00737432  0.111376 -0.584559 0.0114743  0.0987066 -0.669645 0.0156423  0.0821592 -0.75715 0.0198575  0.0620915 -0.846635 0.0241028  0.0388489 -0.937725 0.0283644  0.012763 -1.0301 0.0326304  -0.0158528 -1.12348 0.0368916  -0.0467045 -1.21763 0.0411394  -0.0795169 -1.31234 0.0453676  -0.114033 -1.40746 0.049571  -0.150017 -1.50283 0.053744  -0.187249 -1.59832 0.0578831  -0.22553 -1.69383 0.0619849  -0.264676 -1.78927 0.0660464  -0.304519 -1.88457 0.070065  -0.344909 -1.97966 0.0740379  -0.385712 -2.07449 0.0779636  -0.426805 -2.16904 0.0818394  -0.468086 -2.26328 0.0856644  -0.509469 -2.3572 0.0894363  -0.550887 -2.4508 0.0931545  -0.592299 -2.54411 0.0968191  -0.633677 -2.63721 0.100438  0 0 -2.98023e-08  0.0196382 -0.0482448 -0.0114992  0.0545353 -0.0867137 -0.0154403  0.0890661 -0.129378 -0.0154563  0.119255 -0.179555 -0.013371  0.143811 -0.237456 -0.0101449  0.162265 -0.302379 -0.00630462  0.17458 -0.373371 -0.00213012  0.180991 -0.449476 0.00224072  0.181869 -0.529836 0.00673378  0.177628 -0.613709 0.011301  0.168684 -0.700462 0.0159098  0.155445 -0.789553 0.0205379  0.138307 -0.880521 0.0251674  0.117651 -0.972975 0.0297854  0.0938396 -1.06658 0.0343806  0.0672166 -1.16106 0.0389452  0.0381029 -1.25617 0.0434721  0.00679684 -1.35172 0.0479555  -0.0264218 -1.44754 0.0523919  -0.0612977 -1.54348 0.0567763  -0.0975933 -1.63943 0.0611066  -0.135092 -1.73529 0.0653797  -0.173595 -1.83097 0.069594  -0.212921 -1.92643 0.0737462  -0.252907 -2.0216 0.0778352  -0.293401 -2.11645 0.0818592  -0.334274 -2.21097 0.0858163  -0.375404 -2.30514 0.089704  -0.41669 -2.39897 0.0935213  -0.458051 -2.49249 0.0972679  -0.499426 -2.58575 0.100945  -0.540824 -2.67885 0.104565  0 0 -2.98023e-08  -0.0377635 -0.0283981 0.0229505  -0.0718198 -0.0510394 0.0313725  -0.106255 -0.0794847 0.0338504  -0.141422 -0.114481 0.0333529  -0.177282 -0.155648 0.0314971  -0.213746 -0.202453 0.0292063  -0.250757 -0.254403 0.0269988  -0.288295 -0.31106 0.0251447  -0.326365 -0.37203 0.0237628  -0.364983 -0.436952 0.0228839  -0.404166 -0.50549 0.0224918  -0.443915 -0.577325 0.0225502  -0.484224 -0.652157 0.0230135  -0.525066 -0.729701 0.023838  -0.566403 -0.809691 0.0249819  -0.608185 -0.89187 0.0264088  -0.650351 -0.976002 0.0280875  -0.692836 -1.06186 0.02999  -0.73557 -1.14923 0.032093  -0.778482 -1.23792 0.0343773  -0.821504 -1.32773 0.0368244  -0.864568 -1.4185 0.0394206  -0.907614 -1.51006 0.0421527  -0.950586 -1.60226 0.0450124  -0.993436 -1.69495 0.0479889  -1.03613 -1.78801 0.0510744  -1.07863 -1.88131 0.0542652  -1.12092 -1.97474 0.0575524  -1.16299 -2.06821 0.0609315  -1.20487 -2.16161 0.0643944  -1.24657 -2.25487 0.0679191  -1.28814 -2.34793 0.0714657  0 0 -2.98023e-08  -0.0124072 -0.0120915 0.0175483  -0.0396021 -0.0398965 0.0242072  -0.0668023 -0.0721572 0.0263092  -0.09483 -0.110802 0.026228  -0.124 -0.155678 0.0251721  -0.154418 -0.206248 0.0238329  -0.186092 -0.261943 0.0226018  -0.218985 -0.322248 0.0216843  -0.25305 -0.386708 0.0211694  -0.288234 -0.454919 0.021079  -0.324481 -0.526518 0.0213979  -0.36173 -0.601174 0.0220938  -0.399916 -0.678584 0.0231297  -0.438961 -0.758463 0.0244681  -0.478785 -0.840551 0.0260738  -0.519302 -0.924601 0.0279157  -0.560419 -1.01038 0.0299677  -0.602043 -1.09769 0.0322067  -0.644082 -1.18631 0.0346112  -0.686443 -1.27606 0.0371644  -0.729039 -1.36677 0.0398522  -0.771787 -1.45828 0.0426622  -0.81461 -1.55043 0.045583  -0.85744 -1.64309 0.0486057  -0.900217 -1.73612 0.0517228  -0.942888 -1.82942 0.0549268  -0.985414 -1.92288 0.0582127  -1.02776 -2.01639 0.061575  -1.06991 -2.10987 0.0650069  -1.11184 -2.20325 0.0684977  -1.15358 -2.29648 0.0720346  -1.19514 -2.3895 0.0755902  0 0 -2.98023e-08  -0.00595719 -0.00938517 0.0111606  -0.017807 -0.0330183 0.016526  -0.0363098 -0.0680687 0.0183988  -0.0565141 -0.109731 0.0187153  -0.0784715 -0.157718 0.0184134  -0.10232 -0.211475 0.0179871  -0.128104 -0.270394 0.0177082  -0.155785 -0.333901 0.0177175  -0.185282 -0.401485 0.0180739  -0.21649 -0.472695 0.0187855  -0.249296 -0.547133 0.0198355  -0.283578 -0.624445 0.0211946  -0.319213 -0.70431 0.022831  -0.356075 -0.78644 0.0247128  -0.394037 -0.870571 0.0268104  -0.432971 -0.956459 0.0290984  -0.472752 -1.04388 0.0315547  -0.513256 -1.13263 0.0341581  -0.554363 -1.22251 0.0368922  -0.595957 -1.31336 0.0397423  -0.637931 -1.405 0.0426966  -0.680182 -1.49728 0.0457433  -0.722618 -1.59008 0.0488742  -0.765153 -1.68325 0.0520808  -0.807715 -1.77669 0.0553572  -0.850238 -1.87029 0.058697  -0.892669 -1.96396 0.0620945  -0.934964 -2.05762 0.0655454  -0.977089 -2.15119 0.0690431  -1.01902 -2.24461 0.0725786  -1.06074 -2.33784 0.0761376  -1.10228 -2.43084 0.0797043  0 0 -2.98023e-08  -0.00130552 -0.00991425 0.00506282  -0.00501353 -0.0333637 0.00833699  -0.0123317 -0.0680976 0.0100869  -0.0240031 -0.111865 0.0108794  -0.0383433 -0.162349 0.0113529  -0.0552926 -0.218777 0.0118377  -0.0748587 -0.280462 0.0125048  -0.0969878 -0.346771 0.0134369  -0.121569 -0.417136 0.0146635  -0.148456 -0.491058 0.0161821  -0.177483 -0.5681 0.0179721  -0.208477 -0.647876 0.0200069  -0.241262 -0.730046 0.0222591  -0.275662 -0.814308 0.0247017  -0.311504 -0.900389 0.0273103  -0.348621 -0.988045 0.0300634  -0.386849 -1.07705 0.0329421  -0.426035 -1.16721 0.0359294  -0.466029 -1.25834 0.0390119  -0.506691 -1.35026 0.0421768  -0.54789 -1.44282 0.0454138  -0.589505 -1.53589 0.0487141  -0.631425 -1.62934 0.0520696  -0.673548 -1.72305 0.055474  -0.715787 -1.81692 0.0589215  -0.758063 -1.91085 0.0624073  -0.800311 -2.00477 0.0659283  -0.842477 -2.0986 0.0694785  -0.884515 -2.19229 0.073054  -0.926389 -2.28579 0.0766465  -0.968073 -2.37905 0.0802413  -1.00954 -2.47203 0.0838312  0 0 -2.98023e-08  0.00272095 -0.0124933 -0.000717849  0.00588575 -0.0372716 0.00026086  0.00697911 -0.0727898 0.00155675  0.0045948 -0.117534 0.00282705  -0.0017783 -0.169939 0.00409281  -0.0115883 -0.228598 0.0054951  -0.0247362 -0.292669 0.00710756  -0.0411195 -0.36144 0.00895992  -0.0605875 -0.434286 0.0110561  -0.0829515 -0.510656 0.013382  -0.107999 -0.590072 0.0159159  -0.135507 -0.672117 0.0186332  -0.165249 -0.756425 0.0215096  -0.197002 -0.842677 0.0245236  -0.23055 -0.930591 0.0276543  -0.265686 -1.01992 0.0308844  -0.302211 -1.11043 0.0341985  -0.339937 -1.20193 0.0375822  -0.378688 -1.29424 0.0410251  -0.418298 -1.38719 0.0445167  -0.458613 -1.48065 0.0480476  -0.49949 -1.57447 0.0516122  -0.540802 -1.66855 0.0552023  -0.582429 -1.76278 0.0588141  -0.624269 -1.85707 0.0624415  -0.666228 -1.95133 0.0660813  -0.70823 -2.0455 0.0697309  -0.750209 -2.13951 0.0733868  -0.792114 -2.23332 0.0770464  -0.833898 -2.32689 0.0807042  -0.875522 -2.42019 0.0843448  -0.916929 -2.51319 0.0879643  0 0 -2.98023e-08  0.00658417 -0.0168644 -0.00617865  0.0163725 -0.0439944 -0.00748193  0.0252697 -0.0809147 -0.00678608  0.0311294 -0.126865 -0.00520065  0.0329306 -0.180711 -0.00317499  0.0303916 -0.241243 -0.000870645  0.0237532 -0.307395 0.00167313  0.0131896 -0.378354 0.00443271  -0.00109291 -0.453427 0.00738719  -0.0188555 -0.532013 0.0105129  -0.0398371 -0.613593 0.0137857  -0.0637656 -0.697715 0.0171834  -0.0903683 -0.783991 0.0206852  -0.119377 -0.872082 0.0242731  -0.150536 -0.961693 0.0279295  -0.183596 -1.05257 0.0316415  -0.218326 -1.14448 0.0353959  -0.254506 -1.23722 0.039182  -0.291933 -1.33063 0.0429909  -0.330415 -1.42454 0.0468146  -0.369776 -1.51882 0.0506463  -0.409853 -1.61334 0.0544796  -0.450497 -1.708 0.0583098  -0.491577 -1.80271 0.0621328  -0.53297 -1.89737 0.0659451  -0.574571 -1.99193 0.0697429  -0.61629 -2.08631 0.0735242  -0.65805 -2.18048 0.0772883  -0.699791 -2.27439 0.0810329  -0.741462 -2.36802 0.0847549  -0.783019 -2.46136 0.0884419  -0.824386 -2.5544 0.0920894  0 0 -2.98023e-08  0.0105674 -0.0232195 -0.011213  0.0273575 -0.0534284 -0.0146619  0.0441191 -0.0921335 -0.0145928  0.0579586 -0.13948 -0.0127954  0.0675004 -0.194749 -0.0101187  0.0722066 -0.25691 -0.00697178  0.072044 -0.324917 -0.00354323  0.0672568 -0.39785 8.40724e-05  0.0581179 -0.474948 0.00386342  0.0449245 -0.555555 0.00776109  0.0279909 -0.639113 0.0117507  0.00763738 -0.725138 0.0158108  -0.0158179 -0.813216 0.0199241  -0.0420651 -0.90299 0.0240745  -0.0708071 -0.994154 0.0282484  -0.101762 -1.08644 0.0324357  -0.134665 -1.17962 0.036625  -0.169267 -1.2735 0.0408092  -0.205336 -1.36789 0.0449806  -0.242658 -1.46266 0.049134  -0.281034 -1.55767 0.0532634  -0.320283 -1.6528 0.0573649  -0.360239 -1.74796 0.0614342  -0.40075 -1.84306 0.0654679  -0.441681 -1.93804 0.0694635  -0.482912 -2.03283 0.0734182  -0.524338 -2.12738 0.0773303  -0.56587 -2.22165 0.0811988  -0.607437 -2.31563 0.0850238  -0.648986 -2.4093 0.0888033  -0.690476 -2.50266 0.0925309  -0.731833 -2.59574 0.0961991  0 0 -2.98023e-08  0.0149517 -0.0321194 -0.0155073  0.0397312 -0.0658346 -0.0207979  0.0648767 -0.106439 -0.0212664  0.0867472 -0.155262 -0.0193152  0.103802 -0.211977 -0.0161145  0.115438 -0.275702 -0.0122614  0.121565 -0.345425 -0.0080604  0.122382 -0.420188 -0.00366211  0.11823 -0.49916 0.000859529  0.109469 -0.581636 0.00545877  0.0964675 -0.667016 0.0101053  0.0795951 -0.754788 0.0147776  0.0592133 -0.844513 0.0194573  0.0356709 -0.935819 0.0241328  0.00930154 -1.02839 0.0287915  -0.0195801 -1.12194 0.0334243  -0.0506787 -1.21626 0.0380236  -0.0837181 -1.31113 0.0425835  -0.118442 -1.40638 0.0470979  -0.154615 -1.50188 0.0515634  -0.192016 -1.5975 0.0559756  -0.230447 -1.69313 0.0603317  -0.269723 -1.78868 0.0646285  -0.309679 -1.88408 0.0688631  -0.350165 -1.97927 0.0730329  -0.391044 -2.0742 0.0771367  -0.432199 -2.16883 0.0811721  -0.473525 -2.26315 0.0851377  -0.51494 -2.35713 0.0890342  -0.556377 -2.45078 0.0928608  -0.5978 -2.54412 0.096615  -0.63918 -2.63723 0.100295  0 0 -2.98023e-08  0.0194608 -0.0451391 -0.0191274  0.0544826 -0.0823783 -0.0254778  0.0889987 -0.124629 -0.0262046  0.11903 -0.174796 -0.0241342  0.143354 -0.232892 -0.0205731  0.161551 -0.298116 -0.0162111  0.173596 -0.369457 -0.0114238  0.179717 -0.445923 -0.00641301  0.180285 -0.526631 -0.00128338  0.175726 -0.610829 0.00390461  0.166461 -0.697876 0.0091114  0.152904 -0.787232 0.0143113  0.135456 -0.878438 0.0194862  0.114503 -0.971106 0.0246232  0.09041 -1.06491 0.0297104  0.0635219 -1.15956 0.0347411  0.0341604 -1.25484 0.0397077  0.00262594 -1.35054 0.0446054  -0.0308037 -1.4465 0.0494302  -0.0658703 -1.54257 0.0541791  -0.102338 -1.63864 0.0588478  -0.139991 -1.73462 0.0634352  -0.178629 -1.83042 0.067939  -0.218072 -1.92598 0.072356  -0.258156 -2.02125 0.0766854  -0.298732 -2.11619 0.0809251  -0.339669 -2.21079 0.0850714  -0.380848 -2.30503 0.0891247  -0.42217 -2.39893 0.0930834  -0.463553 -2.49249 0.0969472  -0.504937 -2.58577 0.100717  -0.546332 -2.67887 0.104404  0 0 0  -0.038824 -0.0242604 0.0336407  -0.0712654 -0.0432355 0.0437256  -0.104237 -0.0709635 0.0463971  -0.138423 -0.106473 0.0455084  -0.173865 -0.148638 0.0429666  -0.210385 -0.196545 0.0398338  -0.247782 -0.249516 0.0367132  -0.285899 -0.307042 0.0339307  -0.324641 -0.368722 0.0316428  -0.363957 -0.434212 0.0299016  -0.403821 -0.503202 0.0287046  -0.444216 -0.575398 0.0280173  -0.485125 -0.650524 0.027796  -0.526518 -0.728311 0.0279934  -0.568359 -0.808504 0.0285662  -0.6106 -0.890857 0.0294726  -0.653181 -0.975139 0.0306798  -0.696044 -1.06113 0.0321558  -0.739119 -1.14862 0.0338743  -0.782341 -1.23741 0.0358132  -0.825639 -1.32731 0.0379538  -0.868952 -1.41817 0.0402783  -0.912217 -1.5098 0.0427758  -0.955384 -1.60206 0.0454314  -0.998405 -1.69481 0.0482361  -1.04124 -1.78791 0.0511825  -1.08386 -1.88125 0.0542633  -1.12624 -1.97472 0.0574698  -1.16838 -2.06821 0.0607997  -1.21029 -2.16164 0.0642413  -1.252 -2.25493 0.067781  -1.29357 -2.34803 0.0713407  0 0 0  -0.011262 -0.00539697 0.0270885  -0.0393125 -0.0317984 0.0339324  -0.0653054 -0.0633872 0.0361922  -0.092214 -0.102403 0.0358775  -0.120754 -0.148181 0.0343419  -0.151039 -0.199819 0.0323788  -0.182959 -0.256551 0.0304475  -0.216345 -0.317766 0.0288005  -0.251038 -0.382988 0.0275607  -0.286904 -0.45182 0.0267724  -0.323836 -0.523921 0.0264332  -0.361745 -0.598985 0.0265173  -0.400548 -0.67673 0.0269897  -0.440165 -0.756887 0.0278115  -0.480514 -0.83921 0.0289465  -0.521509 -0.923461 0.0303605  -0.563061 -1.00942 0.0320243  -0.605081 -1.09687 0.0339139  -0.647477 -1.18563 0.0360043  -0.690162 -1.2755 0.0382766  -0.733048 -1.36632 0.0407157  -0.776057 -1.45792 0.0433062  -0.819113 -1.55016 0.0460364  -0.862149 -1.64289 0.0488963  -0.905106 -1.73599 0.0518774  -0.947932 -1.82934 0.054971  -0.990587 -1.92284 0.0581716  -1.03304 -2.01639 0.0614722  -1.07526 -2.1099 0.064865  -1.11725 -2.20331 0.0683408  -1.159 -2.29656 0.0718794  -1.20057 -2.38962 0.0754461  0 0 0  -0.00549857 -0.00381513 0.016274  -0.0163579 -0.0246206 0.0234609  -0.034645 -0.0594585 0.0250791  -0.0542004 -0.101438 0.0251825  -0.0757186 -0.15015 0.0245767  -0.0994741 -0.204815 0.0237591  -0.125471 -0.264658 0.0230269  -0.153583 -0.329015 0.0225483  -0.183641 -0.397338 0.0224065  -0.215471 -0.469173 0.0226303  -0.248909 -0.544132 0.0232155  -0.283808 -0.621878 0.0241394  -0.320027 -0.702108 0.025375  -0.357433 -0.784546 0.0268895  -0.395896 -0.86894 0.0286536  -0.435291 -0.955056 0.0306399  -0.475492 -1.04268 0.0328234  -0.516378 -1.1316 0.0351837  -0.557832 -1.22164 0.0377008  -0.599739 -1.31263 0.0403593  -0.641996 -1.40439 0.043144  -0.6845 -1.49679 0.0460447  -0.727161 -1.58968 0.0490507  -0.769895 -1.68295 0.052152  -0.812631 -1.77647 0.0553432  -0.855302 -1.87014 0.0586158  -0.897857 -1.96387 0.0619647  -0.940253 -2.05757 0.0653837  -0.982454 -2.15118 0.0688662  -1.02444 -2.24464 0.0723998  -1.06619 -2.33791 0.0759678  -1.10774 -2.43094 0.0795429  0 0 0  -0.00111424 -0.00488573 0.00709903  -0.00403461 -0.0256666 0.0114887  -0.0104702 -0.0594815 0.013692  -0.0218923 -0.103544 0.0142869  -0.0360585 -0.15466 0.0145683  -0.0530344 -0.211883 0.0148382  -0.0728368 -0.274401 0.0152588  -0.0953658 -0.3415 0.0159189  -0.120453 -0.412575 0.016861  -0.147898 -0.487115 0.0180957  -0.177498 -0.564687 0.0196131  -0.209055 -0.644915 0.0213927  -0.242376 -0.727472 0.0234109  -0.27728 -0.812066 0.0256402  -0.31359 -0.898437 0.0280572  -0.351138 -0.986346 0.0306402  -0.389763 -1.07558 0.0333679  -0.42931 -1.16594 0.036223  -0.469633 -1.25724 0.0391898  -0.510593 -1.34932 0.0422556  -0.552061 -1.44203 0.0454084  -0.593916 -1.53524 0.0486388  -0.63605 -1.6288 0.0519372  -0.678361 -1.72262 0.0552977  -0.720763 -1.81658 0.0587137  -0.763177 -1.9106 0.062179  -0.805541 -2.0046 0.0656903  -0.847798 -2.09849 0.0692424  -0.889906 -2.19224 0.0728282  -0.931828 -2.28578 0.0764405  -0.973543 -2.37909 0.0800609  -1.01503 -2.47211 0.083667  0 0 0  0.00278027 -0.0078918 -0.00132126  0.00658953 -0.0300875 0.000106275  0.00834376 -0.0645663 0.00176227  0.00637907 -0.109256 0.00319827  5.84126e-06 -0.162189 0.00440842  -0.00994462 -0.221552 0.00575614  -0.0233648 -0.28638 0.00730842  -0.0401305 -0.355886 0.00908852  -0.0600572 -0.429406 0.0111023  -0.0829206 -0.506378 0.0133419  -0.10848 -0.58632 0.0157921  -0.136493 -0.668822 0.0184321  -0.16672 -0.753528 0.0212409  -0.198933 -0.840128 0.0241965  -0.232912 -0.928347 0.0272797  -0.268447 -1.01794 0.0304726  -0.30534 -1.1087 0.0337579  -0.343403 -1.20041 0.0371219  -0.382462 -1.29292 0.0405532  -0.422351 -1.38605 0.0440402  -0.462918 -1.47967 0.0475729  -0.50402 -1.57365 0.0511456  -0.545531 -1.66786 0.0547486  -0.587332 -1.76222 0.0583788  -0.629322 -1.85662 0.0620298  -0.671408 -1.95098 0.0656962  -0.713514 -2.04524 0.0693768  -0.755574 -2.13933 0.0730693  -0.797539 -2.23321 0.076768  -0.839364 -2.32684 0.0804697  -0.88101 -2.4202 0.0841592  -0.922438 -2.51324 0.0878099  0 0 0  0.00648274 -0.0126749 -0.00922203  0.0168568 -0.0372937 -0.0107239  0.0261861 -0.0731386 -0.00981498  0.032288 -0.118908 -0.00798464  0.0341118 -0.173092 -0.00576627  0.0313714 -0.234225 -0.00333709  0.0244374 -0.301051 -0.000667334  0.013509 -0.37268 0.00221497  -0.00118852 -0.44838 0.00528353  -0.0193945 -0.527534 0.00851619  -0.0408286 -0.609619 0.0118912  -0.065205 -0.694189 0.0153877  -0.0922409 -0.780859 0.0189868  -0.121663 -0.869299 0.0226705  -0.153211 -0.959221 0.0264233  -0.186635 -1.05037 0.0302305  -0.221702 -1.14253 0.0340797  -0.258193 -1.23551 0.0379594  -0.295903 -1.32912 0.0418611  -0.334644 -1.42323 0.0457755  -0.374236 -1.51768 0.0496958  -0.41452 -1.61237 0.0536164  -0.455348 -1.70718 0.0575306  -0.496586 -1.80202 0.0614349  -0.538115 -1.89682 0.0653258  -0.579828 -1.99149 0.0691987  -0.621637 -2.08598 0.0730534  -0.663465 -2.18024 0.0768881  -0.705254 -2.27424 0.0807014  -0.746953 -2.36794 0.0844926  -0.78852 -2.46134 0.0882534  -0.829902 -2.55442 0.0919489  0 0 0  0.0101714 -0.0194166 -0.0165937  0.0275272 -0.0472385 -0.0208962  0.0445618 -0.0849175 -0.0207716  0.0584658 -0.132042 -0.0186879  0.0679348 -0.187542 -0.0156674  0.0724496 -0.250173 -0.0121773  0.0719956 -0.318752 -0.00842357  0.0668702 -0.392271 -0.0044747  0.0573614 -0.469926 -0.000384033  0.0437802 -0.551049 0.00381279  0.0264521 -0.635071 0.00808835  0.00570726 -0.721514 0.0124217  -0.0181289 -0.809964 0.0167965  -0.0447413 -0.900073 0.0211973  -0.0738299 -0.991539 0.0256104  -0.105111 -1.0841 0.0300261  -0.138317 -1.17753 0.0344338  -0.173199 -1.27164 0.0388258  -0.209525 -1.36625 0.0431945  -0.247081 -1.46121 0.047535  -0.285667 -1.55641 0.0518408  -0.325104 -1.65171 0.0561084  -0.365224 -1.74704 0.0603337  -0.405875 -1.84229 0.0645124  -0.446926 -1.93741 0.0686427  -0.488254 -2.03232 0.0727219  -0.529754 -2.12699 0.0767482  -0.571339 -2.22138 0.0807221  -0.61294 -2.31545 0.084643  -0.654502 -2.40919 0.0885148  -0.695987 -2.50262 0.0923373  -0.737346 -2.59574 0.0960669  0 0 0  0.0139975 -0.0285742 -0.0232242  0.0393274 -0.0601776 -0.030035  0.0646882 -0.0999118 -0.0305936  0.0865186 -0.148545 -0.0283146  0.103423 -0.205432 -0.0246346  0.114849 -0.269519 -0.0202482  0.120719 -0.339693 -0.0155047  0.121242 -0.414935 -0.0105746  0.116772 -0.494375 -0.00553817  0.107682 -0.57729 -0.000443935  0.094346 -0.663074 0.00467461  0.0771409 -0.751214 0.00979632  0.0564332 -0.841274 0.0149028  0.0325755 -0.932885 0.0199835  0.00590503 -1.02573 0.0250254  -0.0232612 -1.11955 0.0300214  -0.0546265 -1.2141 0.0349634  -0.0879135 -1.30919 0.0398455  -0.122865 -1.40466 0.0446638  -0.159245 -1.50036 0.0494127  -0.196832 -1.59616 0.0540907  -0.235429 -1.69197 0.0586933  -0.274849 -1.78769 0.0632182  -0.314928 -1.88325 0.0676625  -0.355513 -1.97859 0.0720242  -0.396472 -2.07366 0.0763012  -0.437684 -2.16842 0.0804925  -0.479048 -2.26285 0.0845966  -0.520482 -2.35693 0.0886152  -0.56192 -2.45067 0.0925506  -0.603327 -2.54409 0.0964078  -0.644688 -2.63723 0.100157  0 0 0  0.018254 -0.0408451 -0.0282558  0.0533538 -0.0764842 -0.036745  0.0879915 -0.118134 -0.0376912  0.117953 -0.168239 -0.0352986  0.142119 -0.226543 -0.0312034  0.160127 -0.292108 -0.0262097  0.171968 -0.363855 -0.0207515  0.177865 -0.440748 -0.0150666  0.178187 -0.521879 -0.00928068  0.173365 -0.606477 -0.00346029  0.163827 -0.693898 0.00235093  0.149994 -0.7836 0.00812674  0.132272 -0.875125 0.0138485  0.111051 -0.968088 0.0195034  0.0866982 -1.06216 0.0250813  0.0595613 -1.15708 0.0305739  0.0299652 -1.2526 0.0359759  -0.0017879 -1.34852 0.0412825  -0.0354192 -1.4447 0.0464915  -0.0706713 -1.54098 0.0515984  -0.107306 -1.63725 0.056601  -0.145107 -1.73341 0.0614976  -0.183872 -1.82939 0.0662862  -0.223423 -1.92512 0.0709635  -0.263594 -2.02055 0.0755291  -0.304238 -2.11564 0.0799814  -0.34522 -2.21038 0.084316  -0.386425 -2.30475 0.0885346  -0.427753 -2.39875 0.0926337  -0.469127 -2.4924 0.0966179  -0.510493 -2.58574 0.100488  -0.551863 -2.67887 0.104249  
SCALARS smooth_stress float 1
LOOKUP_TABLE default
435.364 607.803 509.083 465.802 432.272 400.956 370.248 340.033 310.552 282.078 254.827 228.956 204.556 181.665 160.315 140.49 122.161 105.315 89.908 75.9062 63.2813 51.9964 42.0452 33.3812 25.9902 19.8549 14.9138 11.0677 8.10984 5.64711 3.21746 1.93441 0.370352 351.144 664.609 552.414 510.952 483.132 457.762 431.227 402.991 373.569 343.714 314.102 285.274 257.612 231.355 206.661 183.621 162.241 142.536 124.485 108.04 93.1597 79.7943 67.873 57.3045 47.9824 39.8141 32.6083 26.1823 20.3134 14.7405 9.20996 4.5901 1.18208 193.123 384.882 338.137 337.937 336.342 331.254 321.615 307.938 291.348 273.007 253.867 234.637 215.794 197.671 180.444 164.222 149.037 134.88 121.726 109.532 98.2191 87.7286 77.9708 68.8562 60.2852 52.1928 44.4631 37.0178 29.7549 22.558 15.2549 8.03818 1.91442 123.857 259.262 276.687 305.238 313.731 312.627 305.147 293.341 278.829 262.853 246.307 229.796 213.684 198.196 183.439 169.439 156.194 143.659 131.781 120.501 109.743 99.446 89.5395 79.9796 70.6964 61.6678 52.8557 44.2569 35.8871 27.6802 19.4326 10.9077 2.63639 187.713 346.809 397.112 421.264 419.668 405.691 386.363 364.243 340.926 317.468 294.554 272.591 251.773 232.171 213.777 196.527 180.35 165.141 150.81 137.27 124.419 112.179 100.468 89.2301 78.4068 67.9626 57.8535 48.1021 38.7381 29.7911 21.1105 12.358 3.06709 328.876 560.583 596.132 603.934 587.124 557.321 522.164 485.354 448.596 412.883 378.798 346.669 316.605 288.596 262.568 238.407 215.983 195.148 175.768 157.725 140.894 125.175 110.453 96.6349 83.6295 71.3788 59.8123 48.8823 38.5748 28.9351 20.0613 12.1423 3.19884 498.957 826.749 824.651 811.174 777.576 732.034 681.033 628.713 577.256 527.77 480.844 436.772 395.646 357.417 321.976 289.167 258.838 230.811 204.929 181.047 159.012 138.707 120.013 102.831 87.0424 72.5482 59.2754 47.1011 35.9647 25.7987 16.7461 10.0692 2.92609 714.302 1157.22 1081.04 1036.66 982.664 919.718 852.164 783.761 716.932 652.971 592.502 535.791 482.899 433.737 388.171 346.005 307.043 271.097 237.961 207.493 179.513 153.89 130.492 109.232 90.0136 72.7329 57.3343 43.7214 31.8196 21.5796 13.0997 7.59423 2.19264 205.604 455.748 414.081 393.432 372.038 348.186 322.694 296.784 271.378 247.022 223.983 202.367 182.198 163.443 146.055 129.964 115.09 101.37 88.7197 77.0908 66.414 56.6455 47.7344 39.6481 32.359 25.8376 20.0605 15.017 10.6902 7.08198 4.23867 2.28872 0.845676 511.49 953.248 852.255 781.864 719.95 660.394 602.774 547.665 495.525 446.584 400.867 358.291 318.743 282.068 248.14 216.841 188.028 161.619 137.517 115.64 95.92 78.299 62.7347 49.1963 37.6503 28.0897 20.4965 14.7814 10.6765 7.52318 4.50656 3.07247 0.827985 402.664 1411.9 1393.48 1248.75 1149.63 1062.56 979.778 899.735 822.455 748.349 677.775 610.997 548.177 489.363 434.555 383.735 336.79 293.646 254.195 218.331 185.946 156.945 131.175 108.542 88.8488 71.922 57.5117 45.2159 34.6316 25.1181 16.0184 8.52948 3.10528 238.658 826.061 912.578 844.653 790.663 745.327 701.391 656.647 611.079 565.415 520.456 476.885 435.179 395.669 358.525 323.838 291.611 261.787 234.296 209.022 185.835 164.61 145.16 127.314 110.867 95.6032 81.3152 67.7042 54.5469 41.538 28.4253 15.6925 4.82195 184.79 554.567 651.16 664.26 647.476 624.322 597.4 567.202 534.788 501.335 467.843 435.062 403.45 373.283 344.703 317.725 292.318 268.388 245.826 224.521 204.322 185.109 166.745 149.08 132.015 115.444 99.2793 83.4587 67.9604 52.6791 37.3687 21.9619 7.09467 268.706 629.473 768.35 804.23 788.59 752.9 712.275 669.356 625.757 582.709 541.051 501.31 463.722 428.35 395.15 363.995 334.744 307.209 281.214 256.618 233.222 210.888 189.473 168.864 148.941 129.633 110.888 92.67 75.0579 58.0868 41.5818 25.3021 8.37647 431.782 970.64 1135.77 1148.47 1107.62 1043.69 973.204 902.522 833.526 767.336 704.601 645.687 590.664 539.439 491.84 447.616 406.511 368.274 332.635 299.38 268.279 239.149 211.775 186 161.657 138.621 116.788 96.0547 76.4078 57.9156 40.7515 25.3542 8.86252 640.648 1441.01 1602.74 1569.44 1493.72 1398.15 1295.69 1193.67 1095.16 1001.38 912.946 830.133 752.968 681.273 614.804 553.255 496.295 443.606 394.886 349.853 308.225 269.79 234.333 201.627 171.491 143.719 118.206 94.7484 73.1925 53.4649 35.8131 22.0376 8.44011 911.83 2035.27 2144.72 2035.45 1913.68 1781.91 1646.14 1511.83 1382.4 1259.47 1143.72 1035.36 934.36 840.508 753.474 672.902 598.379 529.564 466.065 407.595 353.836 304.511 259.405 218.308 181.067 147.463 117.392 90.7139 67.2712 46.95 29.9185 17.6792 6.97622 351.149 1223.98 1291.76 1191.19 1113.02 1035.96 957.662 879.826 804.328 732.352 664.455 600.816 541.445 486.236 435.012 387.581 343.697 303.184 265.811 231.4 199.796 170.835 144.393 120.36 98.661 79.2126 61.9515 46.8534 33.8754 23.0085 14.3632 8.17751 3.99339 506.49 935.947 873.995 824.317 764.343 700.995 637.68 576.597 518.956 465.26 415.603 369.832 327.726 289.028 253.477 220.874 191.016 163.742 138.923 116.451 96.226 78.169 62.232 48.3838 36.5977 26.8519 19.1606 13.4816 9.5603 6.69391 3.96037 2.80972 0.83166 374.187 1306.65 1471.11 1369.21 1260.23 1154.46 1052.46 955.357 863.976 778.674 699.457 626.088 558.271 495.693 438.008 384.975 336.317 291.813 251.298 214.594 181.548 152.034 125.922 103.066 83.3508 66.555 52.4319 40.6566 30.7692 22.1331 13.9918 7.49698 3.04111 238.806 727.071 1000.58 981.731 895.231 819.315 750.668 687.099 627.759 572.289 520.514 472.278 427.442 385.872 347.414 311.936 279.292 249.323 221.903 196.874 174.081 153.377 134.577 117.473 101.887 87.5659 74.2681 61.7009 49.567 37.5968 25.5481 14.0061 4.37508 212.165 558.992 749.557 773.21 713.537 657.407 608.159 563.31 521.623 482.59 446.017 411.777 379.785 349.919 322.064 296.06 271.79 249.093 227.812 207.82 188.953 171.067 154.029 137.678 121.904 106.586 91.6201 76.9445 62.4987 48.2343 33.9719 19.813 6.46597 291.361 655.695 837.271 855.442 808.366 747.634 692.117 641.04 593.492 549.09 507.656 469.055 433.122 399.659 368.464 339.311 312.008 286.361 262.162 239.266 217.501 196.701 176.765 157.548 138.951 120.892 103.311 86.1912 69.5738 53.5435 38.0132 22.9372 7.60221 435.059 944.272 1155.92 1169.79 1109.53 1027.81 946.139 870.042 799.143 733.083 671.633 614.59 561.703 512.679 467.245 425.091 385.93 349.509 315.568 283.886 254.265 226.49 200.412 175.85 152.661 130.714 109.896 90.1414 71.409 53.7985 37.5429 23.224 8.10633 628.469 1343.24 1587.69 1587.99 1497.75 1386.33 1273.14 1165.58 1065.14 971.513 884.373 803.407 728.306 658.708 594.26 534.614 479.413 428.324 381.073 337.379 296.985 259.661 225.239 193.512 164.277 137.381 112.677 90.0319 69.2777 50.3757 33.6131 20.7362 7.95407 888.69 1855.75 2105.4 2063.47 1924.82 1775.24 1628 1487.73 1356.17 1233.37 1118.93 1012.45 913.522 821.743 736.685 657.939 585.095 517.766 455.617 398.348 345.665 297.288 253.052 212.753 176.217 143.286 113.853 87.8181 65.0413 45.4374 29.1486 17.493 7.00294 345.85 1094.01 1260.69 1221.8 1126.14 1036.27 950.75 869.358 792.541 720.535 653.266 590.573 532.244 478.07 427.829 381.291 338.232 298.428 261.696 227.844 196.739 168.207 142.148 118.462 97.0643 77.8969 60.9033 46.0614 33.3679 22.8194 14.4864 8.5435 4.29102 514.169 951.967 875.966 836.84 785.321 724.337 660.359 597.224 537.01 480.688 428.572 380.629 336.643 296.354 259.465 225.733 194.932 166.863 141.361 118.29 97.5635 79.0736 62.7596 48.5762 36.514 26.5498 18.6922 12.9302 9.04911 6.31279 3.68282 2.51818 0.70918 366.848 1314.19 1484.95 1408.89 1316.3 1210.84 1103.43 999.089 900.348 808.317 723.263 645.007 573.147 507.262 446.887 391.628 341.161 295.16 253.372 215.606 181.692 151.449 124.735 101.419 81.3804 64.4178 50.2652 38.608 28.9974 20.7654 13.0456 6.75758 2.72371 242.931 724.136 1014.53 1031.41 955.717 872.694 793.535 719.871 651.903 589.451 532.183 479.703 431.607 387.548 347.189 310.244 276.499 245.703 217.659 192.204 169.15 148.317 129.52 112.557 97.2184 83.2589 70.3843 58.3183 46.7313 35.3251 23.872 12.8038 3.85862 227.964 581.081 773.05 823.348 761.874 690.749 628.206 573.252 524.295 480.216 440.246 403.817 370.472 339.853 311.655 285.609 261.501 239.115 218.254 198.752 180.448 163.176 146.781 131.104 116.01 101.379 87.0762 73.0477 59.2331 45.5731 31.944 18.3755 5.8473 304.582 680.777 862.19 887.909 830.4 753.78 687.087 629.089 577.606 531.238 489.104 450.6 415.247 382.652 352.475 324.416 298.22 273.673 250.552 228.69 207.925 188.081 169.041 150.687 132.9 115.608 98.7376 82.2803 66.2774 50.838 35.9294 21.4542 6.94866 438.982 947.722 1152.25 1177.2 1111.92 1020.3 930.474 849.91 777.075 710.652 649.769 593.807 542.276 494.723 450.766 410.057 372.269 337.144 304.419 273.863 245.297 218.496 193.308 169.575 147.16 125.939 105.78 86.6235 68.4624 51.4004 35.7291 21.9799 7.55478 624.519 1319.89 1548.15 1575.83 1493.53 1377.04 1257.44 1145.83 1043.74 949.998 863.636 783.938 710.322 642.276 579.364 521.183 467.354 417.545 371.467 328.838 289.435 253.018 219.398 188.41 159.863 133.604 109.482 87.3306 67.0766 48.6705 32.4426 20.0383 7.62978 880.317 1808.29 2027.38 2037.17 1919.82 1766.93 1613.66 1469.28 1335.95 1213.07 1099.49 994.386 897.044 806.883 723.408 646.154 574.695 508.64 447.643 391.417 339.676 292.149 248.666 209.057 173.148 140.775 111.854 86.2613 63.9039 44.7351 28.8869 17.5026 6.99094 344.297 1064.41 1196.99 1203.87 1126.99 1033.82 944.177 860.257 782.364 710.285 643.51 581.576 524.123 470.831 421.437 375.689 333.355 294.216 258.067 224.751 194.124 166.017 140.329 116.988 95.9004 76.9991 60.2565 45.6464 33.1543 22.8143 14.6816 8.83036 4.4005 523.609 968.804 884.018 843.366 795.377 737.555 674.707 611.353 550.179 492.568 439.061 389.767 344.537 303.118 265.241 230.634 199.056 170.31 144.22 120.633 99.4264 80.524 63.8597 49.3581 37.0018 26.7866 18.7341 12.8167 8.87828 6.15755 3.57566 2.35061 0.612893 370.035 1334.88 1511.53 1427.27 1341.98 1242.82 1136.55 1030.52 928.76 833.269 744.763 663.301 588.596 520.198 457.654 400.523 348.424 301.028 258.032 219.206 184.347 153.308 125.912 102.016 81.4957 64.1559 49.7685 37.9883 28.3885 20.2756 12.7049 6.33375 2.4122 248.263 730.235 1041.29 1054.7 984.576 905.61 825.073 747.887 675.792 609.312 548.401 492.761 441.981 395.652 353.397 314.865 279.775 247.865 218.89 192.649 168.969 147.644 128.458 111.219 95.727 81.7228 68.8906 56.9496 45.5541 34.3871 23.1824 12.1615 3.41213 234.958 593.309 793.112 843.137 785.511 714.28 647.938 588.552 535.546 488.08 445.378 406.803 371.802 339.913 310.754 283.995 259.369 236.628 215.542 195.909 177.567 160.342 144.036 128.505 113.605 99.2043 85.1444 71.3583 57.8019 44.4126 31.0575 17.6429 5.40059 309.009 691.082 869.756 897.218 841.967 760.233 688.811 627.207 573.266 525.351 482.318 443.383 407.922 375.436 345.517 317.807 292.032 267.935 245.276 223.878 203.565 184.175 165.568 147.622 130.221 113.285 96.7498 80.5784 64.844 49.6618 35.0194 20.7323 6.51386 439.178 947.391 1143.12 1171.12 1109.81 1014.65 921.078 838.241 764.312 697.627 637.007 581.622 530.854 484.168 441.115 401.31 364.406 330.121 298.194 268.387 240.51 214.337 189.722 166.509 144.572 123.759 103.976 85.1219 67.2053 50.381 34.9572 21.4034 7.19234 620.789 1307.8 1523.76 1553.88 1481.38 1366.48 1245.11 1131.68 1028.8 935.077 849.261 770.412 697.814 630.867 569.06 511.957 459.165 410.329 365.155 323.373 284.747 249.032 216.049 185.614 157.574 131.762 108.019 86.1888 66.1556 47.954 31.9458 19.7309 7.41759 874.117 1787.57 1988.49 2000.08 1900.71 1754.55 1600.88 1454.78 1320.49 1197.57 1084.6 980.439 884.233 795.285 713.01 636.925 566.579 501.57 441.536 386.191 335.256 288.475 245.662 206.628 171.242 139.345 110.81 85.5364 63.4164 44.4404 28.7903 17.5784 6.962 342.716 1052.92 1171.09 1175.99 1114.85 1027.66 937.672 852.584 774.007 701.847 635.407 574.036 517.242 464.649 415.939 370.846 329.123 290.552 254.933 222.092 191.891 164.177 138.843 115.813 95.0117 76.3623 59.8285 45.3925 33.0465 22.8135 14.7873 9.02451 4.46736 534.363 980.376 891.858 849.659 801.372 744.798 683.19 620.408 559.247 501.281 447.221 397.266 351.345 309.237 270.696 235.467 203.308 174.017 147.428 123.392 101.773 82.4887 65.4785 50.6786 38.035 27.5674 19.2909 13.1682 9.06254 6.2644 3.65536 2.3563 0.578971 383.268 1354.98 1530.43 1441.23 1355.36 1259.75 1156.68 1051.89 949.93 853.361 763.331 680.148 603.693 533.603 469.467 410.874 357.431 308.787 264.682 224.86 189.086 157.203 129.068 104.53 83.404 65.5526 50.7428 38.6296 28.7824 20.543 12.8917 6.37843 2.30804 255.043 738.637 1055.82 1069.52 999.372 924.291 846.856 770.443 697.647 629.67 566.893 509.278 456.564 408.405 364.45 324.387 287.91 254.742 224.658 197.432 172.86 150.749 130.892 113.084 97.0852 82.6722 69.5484 57.3989 45.8713 34.636 23.3746 12.2183 3.28074 234.468 595.799 797.934 852.243 797.367 729.777 665.732 606.542 552.542 503.515 459.048 418.695 382.027 348.614 318.099 290.166 264.507 240.87 219.026 198.753 179.857 162.166 145.48 129.628 114.46 99.8464 85.6395 71.7427 58.1 44.6391 31.2415 17.7063 5.30543 306.137 688.046 864.976 895.109 844.833 765.458 694.91 633.247 578.737 530.044 486.215 446.524 410.42 377.399 347.056 319.038 293.031 268.759 245.99 224.514 204.146 184.721 166.093 148.114 130.685 113.729 97.1598 80.9543 65.1599 49.8942 35.1752 20.7803 6.43105 436.615 940.429 1130.13 1158.33 1102.65 1010.2 916.563 833.845 759.969 693.331 632.817 577.606 527.076 480.685 437.982 398.559 362.061 328.189 296.647 267.205 239.655 213.798 189.449 166.459 144.684 124.007 104.307 85.4977 67.5483 50.6284 35.0832 21.4457 7.12385 617.164 1297.98 1505.41 1533.35 1466.11 1355.86 1235.49 1122.32 1019.66 926.234 840.832 762.513 690.518 624.226 563.109 506.713 454.619 406.478 361.962 320.788 282.72 247.537 215.009 184.97 157.257 131.716 108.176 86.4709 66.4581 48.1767 32.047 19.7895 7.38644 868.124 1776.63 1967.36 1973.95 1879.67 1740.43 1589.35 1443.67 1309.34 1186.59 1074.03 970.476 874.994 786.845 705.411 630.172 560.657 496.454 437.215 382.587 332.317 286.171 243.931 205.41 170.444 138.914 110.673 85.6109 63.5731 44.5484 28.8321 17.6967 7.00278 340.37 1047.16 1159.76 1159.37 1100.9 1019.08 931.164 846.257 767.491 695.318 629.092 568.084 511.739 459.639 411.431 366.837 325.61 287.5 252.327 219.9 190.076 162.712 137.704 114.96 94.3987 75.9675 59.6079 45.3054 33.0413 22.8237 14.7948 9.09276 4.5347 553.955 987.68 895.31 851.581 802.904 746.96 686.634 625.107 564.848 507.403 453.551 403.567 357.445 315.017 276.094 240.443 207.845 178.122 151.105 126.654 104.665 85.0298 67.6876 52.5841 39.6603 28.9206 20.3795 13.9943 9.61435 6.62424 3.89954 2.48266 0.602386 413.018 1377.22 1536.37 1444.61 1359.37 1266.39 1167.1 1065.55 965.619 869.986 780.073 696.448 619.19 548.086 482.834 423.085 368.498 318.75 273.588 232.765 196.069 163.321 134.362 109.068 87.2406 68.7022 53.2677 40.5803 30.2133 21.572 13.6175 6.82036 2.41618 264.558 750.099 1055.38 1071.69 1005.31 934.934 862.482 789.774 718.938 651.538 588.396 529.809 475.78 426.133 380.638 339.038 301.085 266.526 235.122 206.687 180.985 157.809 136.974 118.267 101.454 86.2752 72.4808 59.746 47.7205 36.0832 24.4899 12.9334 3.49951 224.52 588.05 787.051 849.817 803.349 742.881 684.459 628.701 576.067 526.957 481.519 439.691 401.314 366.128 333.873 304.284 277.095 252.064 228.932 207.505 187.563 168.903 151.344 134.694 118.804 103.518 88.7184 74.2898 60.1829 46.2992 32.5072 18.5385 5.58916 293.899 670.806 848.202 885.85 845.007 773.188 707.7 648.682 595.083 546.178 501.509 460.68 423.33 389.103 357.628 328.588 301.669 276.591 253.103 230.983 210.017 190.045 170.908 152.45 134.548 117.118 100.118 83.4902 67.3062 51.6161 36.4366 21.582 6.70732 432.442 927.235 1113.16 1144.61 1095.48 1009.45 919.402 838.568 765.541 699.055 638.314 582.736 531.802 485.066 442.078 402.446 365.813 331.844 300.244 270.758 243.139 217.215 192.784 169.681 147.754 126.873 106.93 87.8508 69.6075 52.2976 36.2296 22.071 7.34004 617.43 1291.07 1490.57 1517.19 1453.31 1348.34 1231.14 1119.38 1017.55 924.505 839.264 761.045 689.169 623.051 562.168 506.053 454.286 406.504 362.361 321.554 283.799 248.904 216.634 186.801 159.228 133.752 110.192 88.4032 68.2401 49.6405 32.9835 20.2394 7.54373 865.338 1772.68 1955.73 1957.2 1863.67 1728.72 1581.03 1436.72 1302.98 1180.52 1068.18 964.865 869.703 781.956 700.985 626.268 557.297 493.66 435.004 380.959 331.211 285.571 243.793 205.679 171.056 139.798 111.753 86.786 64.7409 45.5207 29.4018 17.9732 7.12636 337.971 1044.68 1155.4 1150.42 1091.09 1011.42 925.622 841.537 762.967 690.858 624.732 563.896 507.787 455.97 408.082 363.837 322.956 285.202 250.383 218.309 188.799 161.739 137.018 114.528 94.1849 75.9399 59.7287 45.5259 33.3083 23.0495 14.9099 9.14289 4.61017 603.85 1005.47 885.734 839.511 793.396 741.281 684.775 626.506 568.683 512.853 459.929 410.364 364.305 321.705 282.458 246.413 213.363 183.182 155.72 130.834 108.425 88.4017 70.6885 55.2474 41.9952 30.9169 22.0145 15.2386 10.4336 7.09262 4.30178 2.65858 0.612994 476.316 1426.6 1525.67 1426.31 1346.02 1261 1169.69 1074.86 979.792 887.166 798.764 715.568 638.01 566.147 499.862 438.965 383.172 332.218 285.888 243.941 206.18 172.426 142.488 116.239 93.4987 74.0314 57.6712 44.0708 32.8294 23.3963 14.9242 7.69372 2.61294 279.594 767.985 1041.74 1059.28 1001.04 940.465 876.851 810.972 744.554 679.383 616.827 557.713 502.473 451.24 403.978 360.567 320.813 284.522 251.468 221.45 194.255 169.664 147.473 127.453 109.398 93.0164 78.0856 64.2981 51.3382 38.8774 26.6386 14.4681 3.9643 198.964 566.097 760.378 840.184 807.804 759.62 710.131 660.075 610.317 561.884 515.663 472.163 431.64 394.129 359.522 327.652 298.299 271.248 246.237 223.059 201.49 181.301 162.306 144.314 127.163 110.682 94.7732 79.3161 64.2813 49.5892 35.0709 20.3645 6.17967 265.758 634.03 820.18 875.305 850.378 790.169 732.767 677.998 625.864 576.631 530.592 487.876 448.431 412.112 378.66 347.777 319.168 292.56 267.672 244.257 222.095 200.99 180.76 161.271 142.39 123.993 106.054 88.5309 71.5036 55.0285 39.0476 23.2882 7.25064 425.27 906.231 1092.61 1134.37 1096.24 1018.74 934.379 856.533 784.394 717.588 655.887 599.089 546.907 498.999 454.983 414.447 377.035 342.393 310.197 280.163 252.022 225.58 200.617 176.958 154.458 132.961 112.377 92.5945 73.6741 55.685 38.7824 23.4686 7.71826 627.801 1293.68 1481.23 1509.14 1450.2 1350.56 1237.17 1127.3 1026.1 932.956 847.225 768.372 695.89 629.272 568.027 511.658 459.74 411.884 367.721 326.925 289.199 254.287 221.98 192.059 164.346 138.638 114.768 92.5653 71.9333 52.8215 35.4265 21.4377 7.75442 875.945 1785.69 1955.33 1951.52 1857.83 1725.53 1580.72 1437.82 1304.46 1181.96 1069.34 965.724 870.313 782.438 701.468 626.848 558.072 494.699 436.334 382.615 333.227 287.895 246.429 208.558 174.153 143.013 115.001 89.9574 67.7126 48.1783 31.4609 19.036 7.30419 338.419 1048.33 1155.43 1146.62 1085.91 1007 922.673 839.496 761.174 689.089 622.915 562.036 505.93 454.179 406.418 362.337 321.665 284.145 249.57 217.753 188.503 161.678 137.202 114.923 94.775 76.6763 60.5803 46.4469 34.2323 23.9107 15.5788 9.50856 4.72873 163.229 367.309 300.87 283.667 269.672 253.979 236.385 217.647 198.576 179.809 161.77 144.711 128.753 113.932 100.229 87.6203 76.0421 65.4463 55.7986 47.0433 39.1387 32.0656 25.7808 20.288 15.5495 11.5459 8.28555 5.7481 3.90293 2.63092 1.70885 1.07126 0.325496 179.885 810.588 814.263 742.322 702.679 663.781 621.029 575.005 527.387 479.813 433.544 389.398 347.84 309.085 273.161 240.042 209.626 181.771 156.396 133.373 112.592 93.9676 77.3992 62.8286 50.1702 39.3133 30.1841 22.6548 16.566 11.6493 7.54419 4.19801 1.77275 101.859 423.033 546.471 554.831 524.967 498.451 470.103 439.121 406.297 372.8 339.705 307.792 277.55 249.25 222.98 198.76 176.533 156.201 137.673 120.843 105.611 91.8615 79.4798 68.3635 58.3932 49.4335 41.3424 33.9736 27.1389 20.6754 14.4506 8.36693 2.91441 58.8652 270.495 367.078 426.374 417.157 398.33 377.703 355.067 330.97 306.288 281.863 258.316 236.027 215.2 195.883 178.056 161.637 146.532 132.617 119.771 107.88 96.8285 86.498 76.7961 67.6122 58.8603 50.4644 42.3747 34.5379 26.9367 19.4858 12.0517 4.65108 71.5095 260.088 371.071 418.95 420.274 396.828 373.226 348.988 324.498 300.37 277.15 255.212 234.732 215.76 198.245 182.077 167.114 153.224 140.271 128.11 116.632 105.711 95.2534 85.1902 75.4441 65.9493 56.6806 47.6417 38.828 30.3173 22.0756 13.923 5.446 126.775 384.438 495.984 534.857 528.605 497.265 459.663 424.218 390.36 358.329 328.359 300.568 274.947 251.394 229.769 209.873 191.52 174.528 158.735 143.982 130.133 117.069 104.682 92.8771 81.587 70.7396 60.2702 50.161 40.4218 31.1325 22.3453 14.0743 5.64439 194.615 578.211 687.322 717.247 698.946 656.518 604.195 552.299 504.023 459.175 417.673 379.406 344.217 311.902 282.239 254.979 229.903 206.804 185.485 165.778 147.524 130.581 114.85 100.189 86.5148 73.7264 61.744 50.4827 39.8935 30.0062 20.8927 12.9317 5.52284 272.447 817.44 923.482 938.601 901.784 842.362 774.383 705.763 641.116 581.512 526.597 476.03 429.488 386.662 347.264 311.008 277.635 246.909 218.634 192.607 168.684 146.693 126.529 108.06 91.2109 75.8598 61.9157 49.3014 37.9202 27.7374 18.7895 11.4468 5.23201 163.389 678.218 759.945 759.914 721.246 670.118 615.111 560.377 508.38 460.323 416.156 375.514 338.075 303.571 271.771 242.451 215.432 190.536 167.614 146.524 127.156 109.403 93.192 78.4362 65.0754 53.0604 42.3305 32.8669 24.6201 17.5679 11.7514 7.28764 3.85119 
CELL_DATA 12288
SCALARS stress float 1
LOOKUP_TABLE default
65.1627 90.3424 39.2985 39.2985 103.177 98.0844 50.5867 79.4889 64.5417 66.3549 74.4509 71.118 46.4356 73.5526 56.0656 58.0277 66.0311 63.4016 44.0953 68.1283 51.1494 53.2821 61.0084 58.7059 42.0852 62.6852 47.1054 49.1927 56.7648 54.7239 39.9252 57.3035 43.3948 45.3172 52.6615 50.8647 37.5382 52.1184 39.8823 41.5944 48.5805 47.0081 34.9729 47.2081 36.5276 38.0264 44.5411 43.1685 32.3098 42.6028 33.32 34.6214 40.5933 39.395 29.6213 38.3069 30.2606 31.3868 36.7811 35.7334 26.9652 34.3103 27.3529 28.3263 33.1368 32.2205 24.3877 30.5961 24.6019 25.4417 29.6863 28.8849 21.9173 27.1518 22.0108 22.7343 26.4344 25.7361 19.5734 23.9596 19.581 20.2004 23.393 22.7869 17.3694 21.0101 17.3134 17.8405 20.5618 20.0402 15.3115 18.2914 15.2079 15.6513 17.9349 17.4913 13.3994 15.79 13.2597 13.6263 15.5153 15.1437 11.6386 13.5005 11.4691 11.7657 13.2935 12.989 10.0255 11.415 9.8291 10.0614 11.2681 11.0264 8.55339 9.52388 8.33993 8.51294 9.43302 9.24857 7.22729 7.82516 6.99669 7.11675 7.78198 7.65184 6.03752 6.31123 5.79611 5.86723 6.31502 6.23551 4.98758 4.98308 4.73521 4.76206 5.02971 4.99708 4.06181 3.83231 3.81062 3.79893 3.92094 3.92981 3.26326 2.86615 3.01603 2.97344 2.98718 3.03344 2.58031 2.08334 2.34832 2.28099 2.23141 2.3099 1.99574 1.48726 1.79424 1.71054 1.64331 1.74135 1.49959 1.07697 1.33536 1.24839 1.21013 1.31265 1.06557 0.813751 0.952414 0.874723 0.894834 0.985766 0.669725 0.608338 0.61068 0.555902 0.628121 0.69375 0.284318 0.356435 0.284602 0.276874 0.326337 0.36702 0.219248 0.195723 0.197992 0.257741 0.18866 0.181692 35.8907 39.6176 22.1833 22.1833 62.9435 63.8648 26.5367 61.5892 37.9036 44.0294 46.0727 43.2932 29.1309 51.5236 36.947 40.8924 41.6127 38.7353 30.058 46.6856 34.9215 37.7691 39.3006 36.7876 30.3497 43.0384 33.2738 35.2154 37.595 35.5792 30.0024 39.7681 31.6511 32.9139 35.8475 34.2751 29.0933 36.6582 29.909 30.7039 33.8793 32.6504 27.7642 33.6519 28.0445 28.5293 31.6993 30.7255 26.1629 30.7461 26.1011 26.382 29.382 28.5984 24.4079 27.9536 24.134 24.2787 27.0039 26.3688 22.593 25.2893 22.1875 22.2365 24.6327 24.1172 20.7781 22.7672 20.2982 20.2766 22.3216 21.9074 19.0079 20.3958 18.4853 18.4092 20.1045 19.7794 17.3095 18.1788 16.7668 16.646 18.0035 17.7585 15.6974 16.1197 15.1494 14.9909 16.0352 15.8633 14.1819 14.2185 13.6384 13.4478 14.2059 14.1007 12.7651 12.4712 12.2321 12.0149 12.5164 12.4725 11.4456 10.8767 10.9301 10.6905 10.9711 10.9825 10.2241 9.4285 9.7296 9.47315 9.56674 9.6271 9.09635 8.12669 8.62416 8.35677 8.29636 8.4004 8.05624 6.96475 7.61156 7.33697 7.16338 7.30412 7.09866 5.93729 6.68633 6.41062 6.15526 6.32583 6.21905 5.03743 5.83971 5.56775 5.27158 5.46055 5.40333 4.25845 5.06362 4.80368 4.49307 4.69314 4.65036 3.58549 4.35115 4.10677 3.81532 4.01618 3.95153 3.00918 3.69298 3.46983 3.22117 3.4126 3.29038 2.50245 3.07814 2.88087 2.68324 2.85924 2.66581 2.04494 2.4967 2.32651 2.19112 2.34273 2.05812 1.60909 1.93378 1.79375 1.71318 1.84142 1.46162 1.17233 1.37994 1.26721 1.23559 1.33743 0.850049 0.723794 0.820973 0.735995 0.745987 0.827744 0.274286 0.351956 0.297655 0.242752 0.348357 0.432783 14.4164 22.6332 13.0441 13.0441 34.9157 36.996 17.1623 33.7876 24.3789 30.5745 22.5002 20.3715 24.5724 31.3071 28.004 31.6434 23.3109 20.5195 27.2816 28.8686 28.9637 30.5929 23.7756 21.7789 28.3741 27.2307 28.793 29.2861 23.9453 22.6897 28.4562 25.8023 28.1408 27.9204 23.71 23.0071 27.8445 24.3586 27.121 26.4701 23.0727 22.751 26.7726 22.8509 25.8383 24.9455 22.1114 22.0433 25.4204 21.2931 24.393 23.38 20.9277 21.0259 23.9179 19.7231 22.8665 21.8101 19.6115 19.8205 22.3563 18.1736 21.3209 20.2663 18.2379 18.5224 20.7939 16.6746 19.7986 18.7722 16.8567 17.1946 19.2673 15.2433 18.3225 17.3385 15.5083 15.8841 17.7986 13.8941 16.9101 15.9768 14.2156 14.6197 16.3977 12.6327 15.5678 14.6879 12.9922 13.4158 15.0679 11.463 14.2984 13.4738 11.8465 12.2829 13.811 10.3828 13.099 12.3303 10.7806 11.2237 12.6228 9.38968 11.9688 11.2552 9.79119 10.2347 11.5004 8.47965 10.9014 10.2425 8.87825 9.31657 10.4385 7.64558 9.89394 9.28816 8.03657 8.46235 9.43006 6.87994 8.93807 8.38636 7.25585 7.66539 8.47141 6.17677 8.03296 7.53249 6.53069 6.91768 7.55752 5.52471 7.16844 6.71904 5.85408 6.21544 6.6826 4.91635 6.34297 5.94249 5.21361 5.54214 5.84062 4.341 5.54925 5.1986 4.60455 4.89741 5.03141 3.78886 4.78475 4.48223 4.01787 4.2747 4.24807 3.25183 4.04583 3.78822 3.44098 3.66293 3.49471 2.72151 3.33319 3.11612 2.87346 3.06275 2.7658 2.18906 2.63977 2.45862 2.30182 2.46324 2.04986 1.64579 1.96242 1.81119 1.72067 1.8619 1.32121 1.08493 1.28539 1.15636 1.11179 1.24259 0.559731 0.565259 0.606518 0.495205 0.544773 0.662576 16.7475 14.0059 17.01 17.01 13.0836 18.5394 26.3147 19.5392 29.8163 32.0817 13.263 13.6707 33.3104 20.6046 34.5748 35.489 18.0313 17.6331 35.8132 21.0727 35.7407 35.5521 19.9344 20.1228 35.8774 20.6906 35.0919 33.9831 20.5469 21.2568 35.006 20.087 33.8368 32.2301 20.4803 21.5225 33.5774 19.3132 32.2363 30.3794 19.9893 21.2193 31.8204 18.4134 30.4336 28.4818 19.2295 20.5472 29.8974 17.4372 28.5371 26.5882 18.3117 19.6519 27.9182 16.428 26.6256 24.7382 17.3141 18.6349 25.9569 15.4203 24.7493 22.9582 16.2911 17.5662 24.0551 14.4386 22.9406 21.2646 15.2773 16.4915 22.2374 13.4925 21.2149 19.6622 14.2919 15.4375 20.5141 12.5925 19.5798 18.1517 13.348 14.4204 18.8863 11.7395 18.0358 16.7304 12.4489 13.4457 17.3511 10.9318 16.5794 15.3931 11.5929 12.5165 15.9072 10.1658 15.2077 14.1327 10.7803 11.6298 14.5429 9.43851 13.9106 12.9419 10.0053 10.7835 13.2542 8.74294 12.6847 11.815 9.26397 9.97184 12.0321 8.07462 11.5221 10.7457 8.5499 9.19133 10.8716 7.42817 10.4158 9.72507 7.85868 8.43391 9.76371 6.80016 9.35983 8.75043 7.18489 7.69455 8.70333 6.18085 8.34791 7.81599 6.5232 6.97369 7.68726 5.56913 7.3792 6.91604 5.86892 6.26361 6.71187 4.96205 6.44694 6.04655 5.22011 5.56173 5.77331 4.35647 5.54981 5.2077 4.57564 4.86886 4.86965 3.75026 4.68597 4.39578 3.93069 4.17885 4.00468 3.14547 3.85507 3.61195 3.29029 3.50101 3.17877 2.54067 3.06308 2.85877 2.6542 2.83728 2.38945 1.93187 2.30536 2.13007 2.01061 2.17999 1.6067 1.3015 1.56892 1.40967 1.3325 1.50432 0.777781 0.649321 0.82757 0.672083 0.6187 0.795382 36.8307 18.9383 29.035 29.035 17.498 22.6188 42.5764 27.3407 46.2768 45.6761 25.5361 27.8678 47.7435 29.7668 49.2852 48.1749 29.5443 31.3224 49.0864 29.5596 49.207 47.5866 30.2832 32.1774 48.1099 28.2955 47.4621 45.3787 29.4775 31.5787 45.9486 26.7721 44.9233 42.5315 28.1385 30.3438 43.3109 25.1485 42.1306 39.6281 26.5522 28.7681 40.463 23.5031 39.2493 36.7614 24.8668 27.028 37.5631 21.889 36.381 33.9835 23.1735 25.2392 34.7058 20.3401 33.5917 31.3268 21.5262 23.4719 31.9549 18.8745 30.9226 28.8127 19.9591 21.7724 29.3434 17.4993 28.3996 26.4529 18.4845 20.1607 26.8868 16.2158 26.0277 24.2448 17.1076 18.6458 24.5853 15.0185 23.8073 22.1848 15.8249 17.228 22.4369 13.9001 21.734 20.2649 14.6284 15.9031 20.4336 12.8547 19.7989 18.4736 13.511 14.6606 18.5648 11.8728 17.9917 16.8037 12.465 13.4974 16.8185 10.9449 16.3028 15.242 11.4784 12.402 15.1861 10.0657 14.7223 13.7783 10.5453 11.367 13.659 9.22849 13.2428 12.4072 9.65725 10.3828 12.2244 8.42357 11.8512 11.1167 8.80734 9.44472 10.8756 7.64528 10.5442 9.90187 7.98597 8.54479 9.60586 6.89211 9.31124 8.75084 7.19206 7.67601 8.4035 6.15586 8.14668 7.66334 6.41663 6.8326 7.26639 5.4333 7.0439 6.63025 5.65849 6.01554 6.19071 4.7231 6.00136 5.64803 4.91349 5.21514 5.16739 4.02113 5.01159 4.7142 4.17827 4.43451 4.2046 3.3324 4.07833 3.82698 3.4606 3.67818 3.29619 2.66041 3.19988 2.98751 2.75922 2.94858 2.45265 2.00516 2.38477 2.20111 2.07593 2.25278 1.66088 1.34766 1.63053 1.46088 1.3764 1.56038 0.872884 0.673985 0.916483 0.747531 0.644565 0.849363 59.6308 32.2291 44.2264 44.2264 39.9622 42.7359 61.4393 46.2423 66.7394 64.9159 43.7406 46.5044 64.5599 46.9878 67.1393 64.9682 46.0753 48.6835 64.44 45.4022 65.326 62.8484 45.5814 48.2181 62.2151 42.8172 62.1768 59.462 43.5724 46.2455 58.8222 39.8871 58.3105 55.4771 40.8981 43.5471 54.9042 36.9468 54.1777 51.3469 38.0272 40.582 50.8394 34.0748 50.0412 47.312 35.1355 37.5508 46.809 31.3224 46.0109 43.4401 32.3203 34.5721 42.9101 28.7188 42.1501 39.7656 29.6333 31.7126 39.1999 26.2788 38.4956 36.3065 27.1056 29.0109 35.7065 24.0088 35.0633 33.0694 24.7485 26.4853 32.4405 21.9021 31.8582 30.0513 22.5628 24.1379 29.3984 19.9523 28.8735 27.2441 20.5402 21.9618 26.573 18.1485 26.1015 24.6387 18.6717 19.9483 23.9519 16.4786 23.5281 22.2211 16.9455 18.089 21.5252 14.9322 21.1436 19.978 15.3497 16.3687 19.2755 13.4975 18.932 17.8978 13.87 14.7733 17.1916 12.1638 16.881 15.9677 12.4973 13.2941 15.2596 10.9214 14.9799 14.1769 11.2208 11.92 13.4704 9.76268 13.2162 12.5139 10.0314 10.6412 11.812 8.68019 11.5836 10.9729 8.91932 9.44602 10.2742 7.66113 10.0681 9.54195 7.8755 8.32932 8.84921 6.7021 8.66508 8.2129 6.89002 7.27875 7.52711 5.7956 7.36544 6.97903 5.95952 6.28767 6.3011 4.93467 6.15923 5.83387 5.07551 5.35327 5.16334 4.11605 5.04937 4.77451 4.23119 4.46424 4.11263 3.33258 4.01993 3.79004 3.42509 3.62177 3.13762 2.58387 3.07457 2.88095 2.65138 2.82072 2.24883 1.87682 2.21486 2.04845 1.91896 2.07289 1.45941 1.22394 1.45519 1.30444 1.2334 1.39626 0.80555 0.676245 0.845809 0.697848 0.651837 0.824759 85.9627 49.7758 62.698 62.698 66.2623 67.7033 82.6822 68.7355 90.8133 88.5588 64.2905 67.1582 83.1429 66.7528 87.1258 84.466 64.5582 67.5137 81.1904 63.5075 82.9453 80.0341 62.7243 65.691 77.4606 59.5461 78.0879 75.0555 59.5261 62.434 72.6873 55.2666 72.7534 69.7334 55.628 58.4118 67.4426 50.9577 67.2412 64.3322 51.4796 54.0892 62.0948 46.773 61.7819 59.0504 47.3349 49.742 56.8609 42.771 56.5144 53.9964 43.316 45.5108 51.8437 38.9852 51.5039 49.212 39.4857 41.4719 47.0973 35.4323 46.7824 44.7132 35.8782 37.6649 42.6466 32.1181 42.3618 40.5054 32.508 34.1086 38.4942 29.038 38.2433 36.585 29.3756 30.8031 34.6355 26.1821 34.4153 32.9406 26.4726 27.7416 31.0586 23.5396 30.867 29.5597 23.7888 24.913 27.7482 21.0969 27.5813 26.4264 21.3105 22.3007 24.6902 18.8395 24.5422 23.5276 19.0237 19.8939 21.8638 16.7569 21.7343 20.8451 16.9159 17.6761 19.2597 14.8347 19.143 18.3681 14.9749 15.6356 16.861 13.0644 16.7564 16.0845 13.1873 13.7578 14.6558 11.4321 14.5588 13.98 11.5424 12.0318 12.6283 9.93261 12.54 12.0446 10.0319 10.4485 10.7745 8.55468 10.6915 10.2707 8.6443 8.99634 9.0828 7.29334 9.00444 8.64973 7.37428 7.66787 7.54196 6.13385 7.47067 7.1756 6.2061 6.45161 6.14582 5.07338 6.08223 5.83614 5.13765 5.34014 4.8876 4.10478 4.83467 4.63237 4.15252 4.31863 3.75436 3.21313 3.71633 3.55098 3.24895 3.38601 2.7395 2.3944 2.72803 2.59243 2.40655 2.52222 1.84466 1.64316 1.86061 1.74719 1.62655 1.72572 1.06779 0.983704 1.12392 1.02859 0.932366 1.02111 0.538409 0.644485 0.601336 0.528725 0.608191 0.687587 120.203 74.1514 85.401 85.401 99.8489 100.636 108.974 94.9855 125.935 121.915 87.3361 90.4234 104.406 88.6876 110.277 107.107 84.8985 87.7946 99.413 83.2537 101.818 98.932 81.4723 84.2817 93.6389 77.6941 94.704 91.922 76.9135 79.6071 87.2217 71.9698 87.7184 85.0688 71.6802 74.2036 80.5119 66.2463 80.7573 78.288 66.1882 68.5055 73.8148 60.6771 73.9517 71.6923 60.7133 62.81 67.3286 55.3518 67.4249 65.3857 55.4151 57.2905 61.1584 50.3138 61.2442 59.4238 50.3706 52.0358 55.349 45.5808 55.4398 53.8258 45.6179 47.0874 49.9169 41.1579 50.0136 48.5908 41.1727 42.4629 44.8552 37.0427 44.9632 43.7152 37.0337 38.1606 40.1558 33.2209 40.2719 39.1826 33.1917 34.1716 35.8027 29.6815 35.9251 34.9784 29.635 30.4825 31.776 26.4049 31.9025 31.0839 26.345 27.0741 28.0575 23.3797 28.1822 27.4778 23.3117 23.9337 24.6263 20.5876 24.7527 24.1516 20.5126 21.0383 21.467 18.0149 21.5882 21.0795 17.9384 18.3792 18.5639 15.6515 18.6807 18.2535 15.5741 15.9387 15.8999 13.4832 16.0115 15.6573 13.409 13.7058 13.4677 11.5006 13.5722 13.2828 11.4293 11.6664 11.2528 9.69531 11.3476 11.1153 9.62864 9.81334 9.2466 8.058 9.33536 9.15313 7.99956 8.13959 7.4465 6.58661 7.52633 7.38683 6.53152 6.63337 5.84209 5.26862 5.91566 5.81298 5.21801 5.28902 4.42887 4.10447 4.50055 4.42789 4.05553 4.1017 3.20512 3.08216 3.28126 3.23337 3.02821 3.05714 2.16891 2.19917 2.25907 2.22925 2.1259 2.14405 1.32876 1.44564 1.44025 1.42317 1.34683 1.35795 0.701682 0.846678 0.85028 0.844643 0.695245 0.694293 0.38278 0.595109 0.509961 0.521551 0.50375 0.462895 43.1086 90.529 36.0687 36.0687 88.6006 87.4734 66.5226 78.6221 64.7815 65.2029 82.8637 79.8177 56.7693 76.4562 60.906 62.3646 74.9647 72.5926 51.7794 71.9857 56.1991 57.8767 68.8123 66.6592 47.7692 66.5969 51.501 53.4026 63.1185 61.0751 44.0154 60.8863 46.9572 48.9451 57.6254 55.7006 40.3908 55.2162 42.6446 44.5937 52.3525 50.5728 36.8954 49.7903 38.6009 40.4323 47.3533 45.734 33.5503 44.7032 34.8339 36.5086 42.6632 41.2054 30.373 39.9883 31.3375 32.8441 38.293 36.9892 27.3719 35.642 28.0961 29.4383 34.2365 33.0752 24.5515 31.6446 25.0921 26.2807 30.4783 29.447 21.911 27.9735 22.3121 23.3606 27.0028 26.0895 19.4478 24.6016 19.7405 20.6619 23.7918 22.9859 17.1589 21.5078 17.3649 18.1714 20.8319 20.1239 15.0404 18.6728 15.1772 15.8794 18.1097 17.491 13.0856 16.0781 13.1637 13.7721 15.6106 15.0741 11.2927 13.7111 11.3219 11.8444 13.3272 12.8658 9.6534 11.5614 9.64253 10.0868 11.2509 10.8583 8.16704 9.61677 8.12037 8.4937 9.37081 9.0423 6.82925 7.87065 6.75022 7.05793 7.68535 7.4147 5.63431 6.31646 5.52946 5.77813 6.18628 5.96869 4.57885 4.95078 4.45201 4.64701 4.87513 4.70454 3.6614 3.77307 3.51631 3.66442 3.74179 3.61556 2.87452 2.77978 2.72119 2.82522 2.79362 2.70576 2.21329 1.9732 2.05721 2.12445 2.02964 1.97484 1.66463 1.36697 1.51846 1.55554 1.44964 1.42426 1.21237 0.95467 1.08979 1.10234 1.04756 1.04481 0.836424 0.707176 0.748676 0.744676 0.779026 0.792604 0.502542 0.524223 0.464379 0.450399 0.557109 0.580073 0.194048 0.294873 0.209383 0.198742 0.289477 0.313089 0.245439 0.191994 0.210452 0.242185 0.235629 0.207974 24.9776 34.0708 22.0809 22.0809 40.2541 39.6241 40.7891 57.4609 38.0679 38.9486 61.2643 59.1671 38.8777 56.3589 44.937 46.1637 52.3012 49.6814 36.229 52.0685 40.7115 42.616 47.4432 44.8237 33.9907 47.712 37.1137 39.095 43.6291 41.2044 31.8649 43.5104 33.9822 35.8184 40.1584 37.9905 29.7444 39.5205 31.1351 32.7579 36.8531 34.9457 27.622 35.7721 28.4977 29.8985 33.6783 32.0124 25.5187 32.2748 26.0338 27.2272 30.6406 29.1899 23.4644 29.0274 23.7282 24.7364 27.7533 26.492 21.4806 26.021 21.57 22.416 25.0268 23.9325 19.5864 23.2412 19.5526 20.2571 22.4671 21.5209 17.7896 20.6783 17.6704 18.2514 20.0768 19.2636 16.0992 18.3173 15.9191 16.3914 17.854 17.1612 14.5163 16.1481 14.2938 14.6698 15.7984 15.2147 13.0427 14.1621 12.7909 13.0822 13.9057 13.4224 11.6758 12.3468 11.4035 11.6192 12.171 11.7798 10.4131 10.6991 10.129 10.2778 10.5922 10.2854 9.25179 9.20977 8.96165 9.05203 9.16077 8.93108 8.18513 7.87375 7.89538 7.93497 7.87663 7.71676 7.20923 6.68524 6.92597 6.92263 6.73426 6.63647 6.32007 5.64121 6.04679 6.00882 5.72703 5.68304 5.50754 4.73249 5.25008 5.18553 4.84794 4.8495 4.76676 3.95239 4.52776 4.44409 4.09009 4.12704 4.08641 3.29252 3.87407 3.77932 3.43865 3.50041 3.45947 2.73462 3.27394 3.17546 2.88051 2.95951 2.87496 2.25905 2.72229 2.62371 2.39122 2.47646 2.31964 1.83783 2.20049 2.10789 1.94653 2.03145 1.78345 1.44235 1.69975 1.61527 1.52152 1.59986 1.25058 1.04769 1.20501 1.13122 1.08873 1.16211 0.716434 0.645022 0.712535 0.646769 0.649283 0.715738 0.258029 0.325353 0.271136 0.220615 0.320427 0.390067 14.4117 18.8884 17.0396 17.0396 22.4702 21.7059 29.0552 29.5847 31.2218 31.0591 34.7891 32.1891 31.3011 38.7636 35.2781 37.3921 32.699 29.8924 30.5428 34.7482 33.3248 34.5986 30.1228 27.6124 29.4074 31.5128 30.8638 31.7161 28.1054 25.9926 28.1 28.7843 28.7012 29.2138 26.2952 24.5767 26.6459 26.3351 26.7205 26.9646 24.5399 23.1656 25.095 24.0775 24.8528 24.8957 22.8013 21.7139 23.5021 21.9759 23.0761 22.9725 21.0854 20.2317 21.9116 20.0175 21.3854 21.1785 19.4132 18.7517 20.3557 18.1947 19.7815 19.5027 17.8031 17.3008 18.8567 16.5033 18.2648 17.9372 16.2729 15.9042 17.4227 14.9391 16.8355 16.4759 14.8299 14.575 16.0634 13.4983 15.4927 15.1134 13.483 13.3242 14.7776 12.1753 14.2308 13.8426 12.2319 12.1555 13.5662 10.9652 13.0459 12.6559 11.0774 11.0714 12.424 9.86023 11.9363 11.5497 10.0161 10.0688 11.3485 8.85669 10.8934 10.5158 9.0443 9.14446 10.3333 7.94704 9.91226 9.54807 8.1576 8.29433 9.37458 7.12232 8.98842 8.64192 7.34673 7.51113 8.46676 6.37644 8.11634 7.78957 6.60585 6.78758 7.60511 5.69839 7.28978 6.98622 5.9271 6.11795 6.7825 5.07954 6.50371 6.22473 5.2999 5.49127 5.99557 4.50712 5.75147 5.49934 4.71504 4.90124 5.24093 3.97468 5.03204 4.80651 4.16152 4.33749 4.51349 3.46672 4.33784 4.13851 3.6314 3.79127 3.80834 2.97586 3.66627 3.49424 3.11259 3.25592 3.12552 2.48826 3.01516 2.86735 2.59618 2.72367 2.45864 1.99832 2.38078 2.25379 2.07516 2.18807 1.8032 1.4964 1.76017 1.65094 1.53925 1.6416 1.14412 0.981075 1.14261 1.04626 0.986163 1.08372 0.5089 0.525755 0.547352 0.46112 0.509195 0.606835 18.1842 13.6874 20.9008 20.9008 11.019 11.5419 33.1241 22.1875 35.786 34.6567 21.096 20.0479 36.9384 26.0733 38.9491 38.9402 22.4583 21.5145 37.0571 24.6084 38.0397 37.613 22.1127 21.621 35.4121 22.5025 35.5666 34.5695 21.1794 21.0649 33.5736 20.7648 33.178 31.9143 20.1711 20.3398 31.6204 19.2692 30.9297 29.5342 19.1185 19.4863 29.6121 17.9192 28.7844 27.3434 18.0391 18.5398 27.6086 16.6721 26.7353 25.3057 16.9559 17.541 25.6544 15.511 24.7881 23.4052 15.8918 16.525 23.7779 14.4281 22.9466 21.6329 14.863 15.5198 21.9956 13.4196 21.214 19.981 13.8829 14.5449 20.312 12.4818 19.5869 18.4407 12.953 13.6064 18.7268 11.6098 18.06 17.0032 12.0772 12.7129 17.2367 10.7969 16.6271 15.6586 11.2524 11.8636 15.8361 10.0366 15.2808 14.3979 10.4762 11.0569 14.5172 9.32557 14.0142 13.2143 9.7423 10.2884 13.2724 8.65405 12.8184 12.0977 9.04663 9.55582 12.0962 8.01622 11.6878 11.0418 8.38232 8.8526 10.9817 7.40752 10.6173 10.0415 7.7453 8.17443 9.91986 6.8194 9.59594 9.08706 7.12758 7.51654 8.90835 6.24798 8.62268 8.175 6.52657 6.87662 7.94076 5.68721 7.69305 7.30107 5.93443 6.24452 7.01132 5.1314 6.79697 6.45805 5.34869 5.61998 6.11656 4.57808 5.93567 5.64556 4.76479 5.00095 5.25544 4.0223 5.10492 4.85747 4.17998 4.38361 4.42471 3.46372 4.30329 4.09397 3.59191 3.76667 3.62569 2.90179 3.53199 3.35547 3.00196 3.15269 2.86039 2.33722 2.79268 2.64292 2.40823 2.54032 2.12277 1.76806 2.08779 1.95872 1.80728 1.92713 1.39808 1.18343 1.40195 1.28732 1.18474 1.30004 0.686618 0.603336 0.735249 0.631583 0.57715 0.6997 31.5474 19.7573 30.5999 30.5999 16.784 18.3393 47.8149 29.7934 47.3276 45.6646 27.8216 29.5439 50.5407 31.4457 51.745 50.0195 30.4165 32.19 49.9227 30.0899 50.5375 48.57 29.857 31.7036 47.5644 27.7895 47.535 45.3473 28.1764 30.1321 44.5301 25.6617 44.0787 41.7325 26.3988 28.3711 41.4467 23.7453 40.7712 38.4226 24.6315 26.5591 38.4057 21.9875 37.6378 35.3691 22.9114 24.7556 35.4611 20.363 34.674 32.5306 21.2672 23.0048 32.6471 18.8589 31.8834 29.8891 19.7147 21.3348 29.9864 17.4686 29.2682 27.4314 18.263 19.7599 27.4907 16.1829 26.8271 25.1494 16.9118 18.2852 25.1569 14.9936 24.5512 23.0284 15.6574 16.9093 22.9817 13.8906 22.4332 21.0587 14.492 15.6269 20.9562 12.864 20.4623 19.2274 13.4071 14.4294 19.0683 11.9045 18.6253 17.5217 12.3943 13.3108 17.3104 11.0051 16.9135 15.9315 11.4451 12.2614 15.6689 10.1551 15.3148 14.4459 10.5494 11.2716 14.1335 9.34766 13.8183 13.0541 9.70089 10.3364 12.6978 8.57839 12.4188 11.7502 8.89209 9.44845 11.3503 7.83747 11.1036 10.5215 8.11558 8.59871 10.0847 7.12065 9.8682 9.36528 7.36532 7.78034 8.88974 6.42431 8.70192 8.27212 6.63642 6.99267 7.76485 5.74106 7.60357 7.23661 5.92467 6.22743 6.69997 5.06956 6.5638 6.2537 5.22446 5.48014 5.69165 4.40656 5.57841 5.31828 4.53543 4.75001 4.73761 3.74954 4.64664 4.42975 3.85334 4.03305 3.83445 3.10062 3.76502 3.58463 3.1804 3.33248 2.98336 2.4637 2.93681 2.7854 2.52061 2.65243 2.18913 1.84606 2.1682 2.03838 1.87351 1.99307 1.44756 1.23082 1.46086 1.34524 1.22401 1.34126 0.763918 0.631456 0.813054 0.708852 0.605108 0.725655 48.6609 31.9008 44.0039 44.0039 32.5655 33.9743 67.1661 44.4584 62.8624 60.9804 45.9386 48.4069 67.771 47.335 68.8787 66.3812 46.994 49.7497 65.6427 45.3268 66.5291 63.7652 45.2631 48.0642 62.0382 42.0644 62.3598 59.4725 42.433 45.1956 57.788 38.6692 57.7008 54.8038 39.3115 41.9748 53.3998 35.5187 53.0729 50.2583 36.2732 38.7804 49.1309 32.5948 48.6908 46.037 33.3659 35.6902 45.048 29.8732 44.5687 42.1122 30.6154 32.747 41.1822 27.3454 40.7065 38.4608 28.0338 29.9736 37.5495 25.0012 37.0995 35.0643 25.6263 27.3808 34.1557 22.8331 33.741 31.9083 23.3938 24.9726 30.9956 20.8271 30.6214 28.9798 21.3259 22.7403 28.0597 18.973 27.7256 26.2614 19.4144 20.6757 25.3382 17.2588 25.0418 23.7413 17.6478 18.7676 22.815 15.672 22.5544 21.404 16.0139 17.002 20.4773 14.1992 20.2478 19.2359 14.5003 15.3689 18.3117 12.834 18.1095 17.2224 13.0985 13.8561 16.3054 11.5623 16.1288 15.3567 11.7946 12.452 14.4473 10.3796 14.2925 13.6236 10.5825 11.1476 12.7244 9.27245 12.5892 12.0149 9.45027 9.93367 11.1313 8.23857 11.0126 10.5219 8.39373 8.80352 9.65584 7.26747 9.55313 9.13747 7.4008 7.7443 8.28911 6.35173 8.20205 7.85382 6.46599 6.75163 7.02436 5.48725 6.95055 6.66123 5.58256 5.81827 5.85424 4.66444 5.79451 5.55604 4.74313 4.93629 4.77626 3.88174 4.72749 4.53248 3.94376 4.10258 3.77901 3.134 3.74725 3.58751 3.17864 3.30961 2.86138 2.4195 2.84565 2.7146 2.44506 2.55529 2.02521 1.74785 2.0309 1.92148 1.75096 1.84755 1.28502 1.13628 1.31598 1.22186 1.11128 1.204 0.711575 0.646295 0.761341 0.681713 0.628012 0.712044 69.6207 48.166 61.4302 61.4302 52.559 53.8502 90.579 62.5723 82.0947 80.086 68.065 70.5465 87.4968 67.002 88.9739 86.31 66.5607 69.626 83.0423 63.7195 84.465 81.3678 63.1811 66.3447 77.7485 59.1322 78.556 75.3302 58.9714 62.058 72.0703 54.3681 72.43 69.2569 54.5013 57.4231 66.3432 49.7905 66.4344 63.4195 50.0899 52.7987 60.7801 45.513 60.7298 57.9323 45.8762 48.349 55.4862 41.5185 55.3726 52.8219 41.8903 44.1241 50.4956 37.7954 50.3608 48.0614 38.1452 40.1483 45.8177 34.3305 45.6858 43.6294 34.6449 36.4309 41.4526 31.1125 41.3348 39.5064 31.3874 32.9723 37.3937 28.1302 37.2937 35.6758 28.3641 29.7649 33.626 25.3663 33.5465 32.1203 25.5623 26.795 30.1365 22.8095 30.0743 28.8226 22.9719 24.0517 26.9058 20.4444 26.8615 25.7676 20.5762 21.5181 23.9201 18.2581 23.8894 22.9371 18.364 19.179 21.1607 16.2357 21.142 20.3195 16.3217 17.0236 18.616 14.3714 18.6066 17.8991 14.4381 15.0375 16.2718 12.6495 16.27 15.6664 12.7022 13.2093 14.1149 11.0628 14.1178 13.6072 11.1029 11.5271 12.1355 9.60289 12.141 11.7139 9.63439 9.98602 10.3232 8.26192 10.3334 9.97904 8.28531 8.57175 8.67045 7.0334 8.68184 8.39286 7.0494 7.2809 7.17126 5.9055 7.18426 6.95032 5.9155 6.09881 5.81233 4.87447 5.82761 5.64202 4.87804 5.0215 4.59553 3.93293 4.61233 4.46689 3.93217 4.04305 3.50671 3.07224 3.5319 3.41957 3.06047 3.14711 2.5448 2.28271 2.57776 2.49051 2.25899 2.32805 1.70061 1.56563 1.75008 1.68185 1.52281 1.5804 0.988913 0.949625 1.05668 1.00279 0.884576 0.931114 0.523124 0.637926 0.583113 0.548486 0.618322 0.64344 96.0663 70.5506 84.2803 84.2803 78.7447 81.9088 124.122 84.3289 108.387 105.05 94.3883 96.8245 110.13 89.3332 113.725 110.972 88.328 91.4719 101.699 83.8662 103.964 100.731 82.6249 85.8239 94.2377 77.5087 95.4616 92.1672 76.7397 79.842 86.9599 71.1955 87.6507 84.4703 70.7928 73.7131 79.8298 65.1474 80.2513 77.2788 64.965 67.6557 72.9562 59.4512 73.2428 70.5225 59.3812 61.8219 66.4292 54.1239 66.6509 64.1977 54.0996 56.2881 60.2894 49.1477 60.4812 58.2926 49.1351 51.0827 54.5451 44.5096 54.7252 52.7863 44.49 46.2123 49.1869 40.1921 49.3663 47.6583 40.158 41.6745 44.2054 36.1816 44.3852 42.8865 36.1316 37.4601 39.582 32.462 39.7632 38.4544 32.3946 33.5536 35.2986 29.0135 35.48 34.3415 28.9336 29.94 31.3345 25.8231 31.5168 30.5306 25.7301 26.5979 27.6677 22.8713 27.8499 27.0015 22.7705 23.5155 24.2882 20.1463 24.4653 23.7381 20.0386 20.6726 21.1693 17.6325 21.3439 20.7262 17.5211 18.0555 18.3037 15.3215 18.4703 17.95 15.2081 15.6541 15.6722 13.1982 15.835 15.4009 13.0856 13.4515 13.2689 11.2546 13.4204 13.064 11.1451 11.4412 11.077 9.4858 11.2239 10.935 9.37803 9.61197 9.09695 7.881 9.23248 9.00326 7.77726 7.95793 7.3158 6.43691 7.44492 7.26668 6.33802 6.47244 5.73245 5.14566 5.85212 5.71808 5.0505 5.1462 4.34155 4.00366 4.45648 4.35942 3.91359 3.97764 3.14572 3.00972 3.25485 3.18818 2.91656 2.95704 2.14257 2.15048 2.25444 2.21067 2.05497 2.07903 1.34045 1.42752 1.45666 1.42985 1.31897 1.33422 0.767088 0.855631 0.883949 0.868395 0.735318 0.744084 0.473107 0.597814 0.5289 0.525538 0.557828 0.544234 39.3397 93.0855 35.2598 35.2598 88.7134 88.2345 65.0318 79.022 66.6866 66.9285 79.9002 78.4757 61.4406 76.2964 62.1018 62.8075 77.2588 75.4073 56.3805 73.256 58.4533 59.7691 72.2057 70.3033 51.6887 68.4985 54.0148 55.6657 66.541 64.6281 47.2044 62.9591 49.3696 51.1884 60.7133 58.8443 42.9174 57.2224 44.7968 46.6499 54.9952 53.2188 38.8601 51.6127 40.4388 42.2347 49.5495 47.8963 35.0548 46.2998 36.3613 38.0471 44.4536 42.9379 31.511 41.3518 32.582 34.1315 39.7346 38.3588 28.2226 36.7896 29.0982 30.5031 35.3871 34.1469 25.1775 32.6004 25.8916 27.1542 31.391 30.279 22.3643 28.7631 22.9445 24.0715 27.7241 26.7313 19.7673 25.253 20.2385 21.2391 24.3585 23.4762 17.3731 22.042 17.7517 18.6357 21.2737 20.4931 15.1722 19.1077 15.4732 16.2502 18.4496 17.7626 13.1507 16.4322 13.3879 14.0671 15.8667 15.2663 11.305 13.9953 11.4843 12.0734 13.5134 12.993 9.62389 11.7851 9.75316 10.2596 11.3776 10.9312 8.10378 9.78897 8.18834 8.61847 9.44973 9.07063 6.7358 8.00031 6.78463 7.14569 7.72019 7.40285 5.5193 6.40717 5.53167 5.82979 6.1845 5.92294 4.447 5.00881 4.43063 4.67184 4.83814 4.6276 3.51803 3.80124 3.47416 3.66352 3.68184 3.51585 2.72692 2.7838 2.66306 2.8074 2.71225 2.58672 2.06728 1.95963 1.99048 2.09449 1.92968 1.8403 1.52972 1.33406 1.44799 1.51689 1.34666 1.28992 1.09667 0.913538 1.02275 1.06292 0.950762 0.924793 0.745762 0.668323 0.693937 0.710392 0.70875 0.703503 0.445583 0.490644 0.422637 0.425275 0.513426 0.523266 0.176696 0.260772 0.181704 0.177961 0.267774 0.283826 0.241833 0.167222 0.203728 0.222772 0.208924 0.195114 24.0286 31.8258 22.5885 22.5885 35.5569 34.71 38.8723 59.0259 39.9936 40.3827 58.7729 57.4743 44.902 56.4476 46.1576 46.8134 56.6223 54.5398 40.866 54.1056 43.4044 44.73 52.0629 49.7205 37.3277 50.2014 39.6839 41.3948 47.6361 45.2824 34.1746 45.9046 36.0721 37.8998 43.4002 41.1651 31.2668 41.621 32.7243 34.5041 39.3784 37.3238 28.5575 37.5272 29.6489 31.2956 35.5981 33.745 26.0265 33.7007 26.8307 28.3086 32.0725 30.4203 23.6657 30.1625 24.2478 25.5488 28.8042 27.3407 21.4663 26.9124 21.8777 23.0091 25.784 24.4945 19.4205 23.9326 19.6999 20.6746 22.9981 21.8666 17.5203 21.2058 17.6979 18.5303 20.4348 19.447 15.7592 18.7142 15.8579 16.5626 18.0789 17.2212 14.1296 16.4367 14.1649 14.7558 15.9179 15.1796 12.6274 14.3623 12.6121 13.1004 13.9431 13.314 11.2433 12.476 11.1895 11.586 12.1403 11.6117 9.97382 10.7661 9.88944 10.2035 10.5065 10.0702 8.81333 9.22526 8.70413 8.94503 9.03258 8.68052 7.75445 7.8463 7.62907 7.80577 7.7138 7.43779 6.79306 6.62375 6.65476 6.77663 6.54067 6.33549 5.92236 5.54782 5.77808 5.85084 5.51348 5.37057 5.13476 4.61733 4.98975 5.02283 4.62153 4.53332 4.42068 3.82036 4.28145 4.28262 3.85845 3.8153 3.77525 3.15371 3.64521 3.62363 3.2149 3.20722 3.18297 2.59747 3.0677 3.03077 2.67082 2.68875 2.63557 2.12972 2.53888 2.49335 2.20531 2.23963 2.118 1.72382 2.04534 1.99603 1.78941 1.83238 1.61965 1.34915 1.57219 1.52285 1.39462 1.44089 1.12799 0.976275 1.10732 1.05953 0.998673 1.04422 0.636282 0.595642 0.644372 0.59981 0.591822 0.638664 0.220735 0.291832 0.234755 0.195851 0.287485 0.337224 17.4097 17.3082 19.1767 19.1767 19.9831 19.045 31.076 30.695 33.256 33.0776 30.9699 29.2561 36.5206 38.6216 37.8078 38.1344 38.2923 36.2474 33.9138 37.2189 36.1665 36.6286 34.7273 32.3668 31.1612 34.1169 32.7323 33.4892 31.5714 29.2675 28.7634 30.9798 29.7278 30.5021 28.7888 26.6957 26.5966 28.0458 27.1287 27.8065 26.2565 24.4219 24.5944 25.3481 24.832 25.377 23.9239 22.3473 22.7284 22.8839 22.7705 23.1814 21.7658 20.4284 20.9855 20.6382 20.8987 21.1877 19.7702 18.6477 19.3567 18.5932 19.187 19.3708 17.9276 16.9945 17.834 16.7312 17.6129 17.7093 16.2292 15.4626 16.4113 15.037 16.1596 16.1848 14.667 14.0464 15.0826 13.497 14.8143 14.7827 13.2337 12.7423 13.8406 12.0967 13.5657 13.4885 11.9223 11.544 12.6779 10.8283 12.405 12.2924 10.7275 10.4472 11.5911 9.6805 11.3231 11.1855 9.63839 9.44378 10.5716 8.6452 10.3145 10.1584 8.6514 8.53008 9.61346 7.71182 9.36959 9.20189 7.7582 7.69896 8.71313 6.87438 8.48414 8.31026 6.94971 6.94141 7.8625 6.12153 7.65155 7.47623 6.22013 6.25136 7.05763 5.4458 6.86581 6.69415 5.55872 5.61852 6.29168 4.83457 6.11948 5.95542 4.95451 5.03457 5.55902 4.27696 5.40912 5.25502 4.39615 4.48688 4.85715 3.76267 4.72855 4.58742 3.87652 3.97081 4.17864 3.27638 4.07235 3.94549 3.37879 3.47163 3.52313 2.80772 3.43849 3.32619 2.89472 2.98348 2.88459 2.34597 2.82325 2.72401 2.41225 2.49397 2.26018 1.88057 2.22229 2.13583 1.92469 1.99961 1.64777 1.4032 1.63327 1.55727 1.42346 1.49239 1.0369 0.916174 1.0506 0.983064 0.910298 0.974695 0.457377 0.482464 0.491111 0.431488 0.464263 0.532275 21.2445 13.9597 23.0096 23.0096 12.8499 12.8384 35.4505 23.8514 37.0666 36.06 22.4139 22.2879 40.187 27.2284 41.5397 40.2859 26.539 25.5486 38.9428 27.0979 39.9052 39.1547 25.0164 24.1541 35.8642 24.3233 36.3704 35.4022 22.7986 22.1114 33.1325 21.9048 33.1909 32.1616 20.9002 20.4126 30.6572 19.8791 30.4372 29.3823 19.2553 18.9553 28.3668 18.145 27.9921 26.9369 17.7916 17.6518 26.2323 16.6308 25.7822 24.748 16.4672 16.4579 24.2416 15.2892 23.7633 22.7657 15.2596 15.3528 22.3863 14.0895 21.909 20.9588 14.1532 14.3245 20.6583 13.0088 20.1976 19.3024 13.1365 13.3658 19.0479 12.0298 18.6131 17.7767 12.2009 12.471 17.5454 11.1383 17.1398 16.3648 11.3378 11.6344 16.1404 10.3215 15.7671 15.0539 10.5381 10.8488 14.8231 9.56921 14.4819 13.8307 9.79296 10.1082 13.5871 8.87148 13.2764 12.6857 9.09771 9.41015 12.4214 8.22013 12.1418 11.6092 8.44194 8.74563 11.3198 7.60658 11.0697 10.5923 7.82035 8.10923 10.2772 7.024 10.0538 9.62964 7.22717 7.49789 9.28366 6.46502 9.08856 8.71427 6.65385 6.90344 8.33598 5.92388 8.16549 7.83816 6.09676 6.32352 7.42985 5.39295 7.28265 6.99882 5.54901 5.7524 6.55783 4.86794 6.43393 6.18968 5.00447 5.18495 5.71964 4.34468 5.6166 5.40773 4.46226 4.61954 4.90905 3.81805 4.82716 4.65086 3.91568 4.05183 4.12638 3.28721 4.06408 3.91595 3.36536 3.48201 3.37174 2.75234 3.32731 3.20371 2.80941 2.9096 2.64646 2.21305 2.62156 2.5179 2.24873 2.33637 1.95243 1.66833 1.94765 1.85906 1.68246 1.76034 1.2754 1.11102 1.29616 1.2196 1.09943 1.17329 0.625604 0.554903 0.66757 0.599932 0.528715 0.607957 32.2656 20.5321 31.7165 31.7165 18.8481 19.8695 47.5323 30.4709 47.3085 45.8124 29.4387 31.1388 52.4818 32.6683 52.7038 50.444 31.7233 33.3393 51.0466 30.7602 51.3949 49.1624 30.3487 32.0342 47.6954 27.8556 47.8385 45.5607 27.8357 29.5937 43.8798 25.2555 43.7484 41.4256 25.556 27.2926 40.3578 23.0606 40.0418 37.802 23.5311 25.2023 37.1001 21.1604 36.6872 34.5785 21.7042 23.2856 34.0709 19.4794 33.6223 31.666 20.0403 21.5188 31.2545 17.9711 30.8046 29.0085 18.5189 19.8881 28.6374 16.6062 28.2066 26.5707 17.1248 18.3842 26.2106 15.3636 25.8094 24.3277 15.8455 16.9954 23.9581 14.2262 23.592 22.2579 14.6682 15.7115 21.869 13.1781 21.5385 20.3431 13.581 14.5213 19.9292 12.2077 19.6338 18.5682 12.5718 13.4141 18.125 11.3027 17.8633 16.9182 11.6303 12.3798 16.4454 10.4545 16.2141 15.3805 10.7483 11.4115 14.8792 9.65478 14.6774 13.9456 9.91598 10.4982 13.4147 8.89565 13.2394 12.6015 9.12654 9.63311 12.0456 8.16923 11.8928 11.3411 8.3735 8.81149 10.7589 7.47101 10.6304 10.1561 7.64789 8.02387 9.55194 6.79282 9.44275 9.03783 6.94619 7.26578 8.41397 6.1326 8.32299 7.98066 6.26407 6.53297 7.34026 5.48512 7.26498 6.97858 5.595 5.81862 6.32522 4.84525 6.26545 6.0285 4.9362 5.12118 5.36279 4.2118 5.31869 5.1239 4.28347 4.43613 4.45288 3.58341 4.4207 4.26121 3.63738 3.76184 3.59176 2.95944 3.57257 3.44361 2.99724 3.10008 2.78048 2.34705 2.77465 2.66918 2.36711 2.4534 2.02501 1.75156 2.03552 1.94824 1.75341 1.82934 1.32835 1.16294 1.35866 1.28381 1.14262 1.21307 0.70296 0.589517 0.746759 0.684438 0.563595 0.634851 47.4404 32.0696 44.2304 44.2304 32.3829 33.6183 63.9874 43.8161 61.5366 59.8083 44.6368 46.985 69.2769 46.8957 67.9962 65.2574 47.1961 49.9796 66.6731 44.9791 66.8338 63.8135 45.1511 48.0169 62.2167 41.5383 62.484 59.4363 41.7925 44.5915 57.2913 37.8602 57.3846 54.416 38.2821 40.9473 52.4709 34.5566 52.4025 49.5772 35.0648 37.5406 47.99 31.5774 47.8219 45.2027 32.1101 34.3794 43.8284 28.8651 43.615 41.2222 29.3825 31.4438 39.964 26.3807 39.7358 37.5711 26.8642 28.7245 36.3766 24.098 36.1545 34.2096 24.5379 26.2089 33.0495 21.9993 32.8448 31.1062 22.393 23.8863 29.9674 20.0652 29.7841 28.2373 20.4122 21.7408 27.1117 18.2811 26.9523 25.582 18.5849 19.7611 24.4678 16.6327 24.3324 23.124 16.8965 17.9323 22.0197 15.1068 21.9061 20.8454 15.3343 16.242 19.7523 13.6923 19.6589 18.7318 13.8872 14.6758 17.6502 12.3793 17.5758 16.7719 12.545 13.2267 15.7053 11.1558 15.6464 14.9525 11.2956 11.8796 13.9024 10.0169 13.8572 13.2629 10.1351 10.6301 12.2319 8.95255 12.2001 11.6963 9.04857 9.4639 10.6853 7.95487 10.6633 10.2402 8.03385 8.37884 9.25489 7.0179 9.24107 8.88916 7.08109 7.36434 7.93227 6.13247 7.92583 7.63634 6.18269 6.41184 6.70739 5.29607 6.7076 6.47289 5.33363 5.51724 5.57745 4.50154 5.58419 5.3958 4.52589 4.67207 4.53456 3.74118 4.54656 4.39634 3.75629 3.87209 3.57539 3.01634 3.59101 3.47215 3.02067 3.1118 2.69341 2.32238 2.71771 2.62446 2.31523 2.38981 1.89564 1.67369 1.92795 1.85243 1.65207 1.71446 1.19622 1.0867 1.24333 1.18169 1.05074 1.10492 0.674765 0.620491 0.717019 0.67154 0.601737 0.644425 67.0472 47.6531 61.1664 61.1664 50.4115 51.7496 84.3408 60.6813 79.4915 77.6154 63.7476 66.2887 89.279 64.8073 86.4058 83.4816 66.6525 69.7577 84.3169 63.0127 84.4841 81.2065 63.2503 66.4908 78.0772 58.5731 78.6282 75.278 58.5616 61.7173 71.7132 53.637 72.1439 68.8907 53.7053 56.6774 65.5735 48.9086 65.8423 62.7794 49.0718 51.8146 59.8043 44.5676 59.9555 57.1315 44.7806 47.2735 54.4426 40.5769 54.5271 51.9657 40.8002 43.0451 49.4604 36.893 49.5107 47.2108 37.1074 39.1154 44.8334 33.4901 44.8702 42.8197 33.6822 35.4687 40.5388 30.3434 40.5746 38.7568 30.5076 32.0901 36.5559 27.4325 36.5966 34.9919 27.5685 28.9643 32.8666 24.7401 32.9135 31.5027 24.8479 26.0739 29.4495 22.2507 29.5057 28.2705 22.3319 23.4032 26.2888 19.9477 26.3518 25.2754 20.0059 20.9366 23.3647 17.8178 23.4355 22.5026 17.8559 18.6598 20.6648 15.8494 20.7398 19.9357 15.8687 16.5573 18.1712 14.0307 18.251 17.5633 14.0359 14.6213 15.8747 12.3507 15.9572 15.3731 12.3441 12.8367 13.7597 10.8041 13.8438 13.3523 10.7862 11.1947 11.8182 9.37837 11.9025 11.4947 9.35272 9.68696 10.0433 8.06787 10.124 9.7899 8.03697 8.30652 8.42308 6.86623 8.50415 8.23408 6.83081 7.04435 6.95298 5.76394 7.03068 6.8159 5.7249 5.88938 5.6248 4.75737 5.69883 5.5326 4.715 4.83941 4.435 3.83543 4.50593 4.37949 3.79101 3.88424 3.37856 2.99171 3.44523 3.34992 2.94641 3.01576 2.44533 2.22363 2.51135 2.44029 2.17159 2.2228 1.63618 1.52455 1.70542 1.65351 1.46606 1.50574 0.961034 0.934081 1.03589 0.997852 0.865787 0.894392 0.534188 0.628774 0.582692 0.561666 0.613511 0.624143 93.1188 69.433 84.1705 84.1705 74.9068 76.9853 110.886 81.1486 103.754 101.306 86.7593 89.4676 113.861 85.4821 108.682 105.619 88.9774 91.9852 103.396 83.0423 103.898 100.744 83.1623 86.3652 94.5638 77.024 95.4722 92.1591 76.6195 79.77 86.561 70.5447 87.294 84.0438 70.1862 73.1715 79.0749 64.3239 79.6304 76.5637 64.0822 66.8458 72.0552 58.5382 72.4886 69.6637 58.3831 60.9009 65.5006 53.2003 65.86 63.2995 53.0902 55.3565 59.398 48.2608 59.7163 57.4232 48.17 50.1935 53.7203 43.6846 54.0142 51.9762 43.5974 45.3928 48.4447 39.4423 48.7221 46.9212 39.3499 40.9353 43.5439 35.5086 43.8121 42.2281 35.4073 36.8018 38.9982 31.8624 39.2584 37.87 31.753 32.9732 34.7859 28.4867 35.0401 33.8291 28.3667 29.4292 30.8877 25.3607 31.134 30.0828 25.234 26.1543 27.2824 22.4703 27.5228 26.6147 22.3359 23.1284 23.9515 19.7982 24.1854 23.4054 19.6601 20.337 20.8816 17.3348 21.1065 20.4416 17.1927 17.7663 18.0552 15.0679 18.2722 17.7099 14.9242 15.4051 15.4626 12.9831 15.6724 15.2017 12.8397 13.2384 13.0892 11.0764 13.2888 12.8987 10.9333 11.258 10.9297 9.3367 11.1177 10.7999 9.19889 9.45816 8.97293 7.76247 9.15356 8.89931 7.62562 7.82753 7.2179 6.34209 7.38543 7.18667 6.21055 6.36455 5.65592 5.07332 5.81353 5.6609 4.94742 5.05952 4.28976 3.95296 4.43717 4.32474 3.83153 3.91024 3.11463 2.97427 3.25139 3.17092 2.85985 2.91272 2.13875 2.13307 2.26455 2.20907 2.0218 2.05675 1.36165 1.42683 1.48356 1.44594 1.31491 1.33868 0.808948 0.868224 0.917137 0.892968 0.760864 0.77662 0.497683 0.599452 0.551346 0.540608 0.568647 0.565913 38.2156 95.3595 35.384 35.384 90.6701 90.8109 66.7439 79.9191 68.6451 68.534 79.8242 79.0705 62.4312 76.8105 63.2433 63.6474 77.1224 75.7906 58.5739 73.7152 59.3607 60.4188 73.4735 71.8047 54.002 69.4458 55.3 56.7847 68.3344 66.5503 49.342 64.1742 50.8244 52.504 62.603 60.818 44.7876 58.5135 46.2569 47.9852 56.7847 55.0657 40.446 52.8665 41.8096 43.4972 51.1524 49.5366 36.3746 47.4549 37.5947 39.1905 45.8463 44.3514 32.5926 42.3852 33.6642 35.1428 40.918 39.5502 29.1013 37.6935 30.0297 31.3806 36.381 35.1389 25.8855 33.3837 26.6863 27.909 32.2173 31.0965 22.9296 29.435 23.6178 24.716 28.4059 27.3989 20.2161 25.8259 20.8037 21.7849 24.9195 24.0199 17.7237 22.5282 18.2257 19.0969 21.7306 20.9319 15.4428 19.5184 15.8683 16.6364 18.8178 18.1129 13.3572 16.7754 13.7155 14.388 16.1627 15.5454 11.4549 14.2821 11.7552 12.3391 13.7467 13.2097 9.72666 12.023 9.97366 10.4768 11.5563 11.0945 8.16514 9.98124 8.36463 8.79229 9.57926 9.18698 6.76701 8.15196 6.92192 7.27995 7.8101 7.48163 5.52122 6.5266 5.63849 5.93286 6.23769 5.96753 4.42777 5.09827 4.50882 4.74523 4.8596 4.6424 3.47859 3.86298 3.53005 3.71377 3.67317 3.50395 2.67602 2.82148 2.69882 2.83536 2.67858 2.55236 2.01009 1.97569 2.00913 2.10429 1.87856 1.79086 1.4711 1.33337 1.4572 1.51706 1.27757 1.22622 1.04463 0.900732 1.02493 1.05524 0.882087 0.861665 0.707766 0.650345 0.693411 0.702918 0.65203 0.655872 0.425549 0.474178 0.423128 0.418496 0.47906 0.491484 0.170867 0.244985 0.175793 0.172958 0.245899 0.258967 0.216695 0.146898 0.18859 0.209558 0.171745 0.16129 24.2065 31.2882 23.1531 23.1531 33.716 32.7974 40.4547 60.6353 41.1423 41.4988 60.0873 59.1459 46.3552 57.4256 47.5656 47.9603 57.3048 55.6029 43.378 54.7748 44.4118 45.4959 54.2076 52.1139 39.6514 51.4275 41.0503 42.5742 49.9976 47.7857 36.0797 47.3312 37.4862 39.2043 45.5814 43.417 32.7593 43.0346 34.0312 35.7629 41.2591 39.2272 29.6901 38.8275 30.7873 32.4308 37.162 35.2996 26.8631 34.8463 27.7863 29.292 33.347 31.6647 24.2649 31.1486 25.0296 26.3791 29.8267 28.3211 21.8784 27.7459 22.5057 23.6974 26.5968 25.258 19.6864 24.6317 20.1959 21.2377 23.6379 22.4533 17.6726 21.7879 18.0828 18.9857 20.9318 19.889 15.8243 19.1931 16.1493 16.925 18.4601 17.5479 14.1265 16.8291 14.3809 15.0408 16.2018 15.4092 12.5705 14.6786 12.7633 13.3186 14.1457 13.464 11.1464 12.7267 11.2886 11.7484 12.2777 11.6973 9.84632 10.9623 9.94504 10.3194 10.5862 10.0991 8.66182 9.37152 8.72261 9.02043 9.06285 8.66221 7.58847 7.94893 7.61792 7.84671 7.70092 7.37966 6.61693 6.68739 6.62271 6.79048 6.49641 6.2462 5.74148 5.58042 5.72675 5.84322 5.43832 5.25364 4.95477 4.62034 4.92466 4.99657 4.52452 4.39795 4.24764 3.80258 4.20832 4.2435 3.74453 3.66747 3.61252 3.11821 3.57074 3.57749 3.09406 3.05679 3.03522 2.54997 2.99451 2.98156 2.55166 2.54442 2.50533 2.08065 2.46962 2.44435 2.09462 2.10717 2.0089 1.67627 1.98366 1.95201 1.69432 1.71836 1.53177 1.30918 1.51922 1.48529 1.32118 1.34966 1.06164 0.945364 1.06415 1.03107 0.946512 0.975373 0.594456 0.571448 0.611781 0.580952 0.560752 0.589781 0.176826 0.256599 0.194332 0.166968 0.247617 0.279197 19.2964 17.0063 20.2126 20.2126 19.1943 17.9872 33.086 31.6804 34.2403 34.1501 32.0315 30.4266 37.98 39.8562 38.9328 39.0685 39.3069 37.4957 36.0204 37.944 37.0094 37.3694 37.1724 34.9616 32.6937 35.4309 33.7345 34.4403 33.936 31.6331 29.7042 32.3931 30.5864 31.4454 30.7641 28.5601 27.0844 29.353 27.7667 28.6301 27.8179 25.806 24.7565 26.4783 25.2632 26.0484 25.116 23.3301 22.6651 23.8248 23.0295 23.7014 22.6529 21.0948 20.7685 21.4026 21.0225 21.5736 20.413 19.0696 19.0391 19.2038 19.2068 19.6438 18.3775 17.2307 17.4544 17.2106 17.5563 17.8907 16.5273 15.5573 15.9962 15.4065 16.0475 16.2934 14.8466 14.0343 14.6507 13.7738 14.6629 14.834 13.321 12.6495 13.4044 12.2975 13.3868 13.4954 11.9354 11.389 12.2479 10.9635 12.2087 12.2653 10.6811 10.2464 11.1732 9.76276 11.1186 11.1328 9.54757 9.21077 10.1715 8.68247 10.1064 10.087 8.52501 8.27502 9.23437 7.71207 9.16302 9.11656 7.60523 7.42896 8.35627 6.84529 8.28286 8.21746 6.78056 6.66623 7.53082 6.07125 7.45786 7.37984 6.03916 5.97643 6.75262 5.37797 6.68297 6.59655 5.37344 5.3519 6.01384 4.75584 5.94938 5.85883 4.77182 4.78048 5.30991 4.19285 5.25227 5.1623 4.22184 4.25214 4.63587 3.67949 4.58795 4.50115 3.71372 3.75696 3.98533 3.1967 3.94768 3.86677 3.23185 3.28142 3.35585 2.734 3.32888 3.25559 2.76586 2.81648 2.74309 2.28194 2.72791 2.66314 2.305 2.3535 2.14463 1.82672 2.14138 2.08499 1.8387 1.88351 1.5569 1.36156 1.56689 1.51805 1.36003 1.40023 0.974467 0.882727 0.997506 0.955508 0.867585 0.906583 0.413702 0.442261 0.445511 0.407148 0.42264 0.465347 23.1312 14.2608 23.9135 23.9135 14.1466 13.7669 36.7481 24.6719 37.49 36.6491 24.1183 23.7269 41.356 28.1592 41.9046 40.7553 27.617 26.9354 40.3004 27.7826 40.8127 39.7697 27.0504 26.1352 36.4685 25.339 36.8706 35.8599 24.3242 23.3328 33.1497 22.8362 33.3615 32.4777 21.8979 20.9953 30.2963 20.6125 30.3575 29.5403 19.8406 19.0905 27.7801 18.6786 27.7419 26.9651 18.0739 17.4896 25.5235 16.9924 25.4244 24.6789 16.5345 16.1063 23.4774 15.5141 23.3438 22.6288 15.1775 14.8852 21.6097 14.2081 21.4586 20.7772 13.9706 13.7922 19.8957 13.0477 19.7389 19.0945 12.8886 12.8029 18.3153 12.0085 18.159 17.5548 11.9118 11.9003 16.8512 11.0726 16.7015 16.1389 11.0252 11.0709 15.4907 10.2235 15.3488 14.8294 10.2142 10.303 14.22 9.44964 14.0883 13.6123 9.46884 9.58787 13.0298 8.73869 12.9104 12.4779 8.77855 8.91692 11.9105 8.07961 11.8026 11.4132 8.13399 8.28388 10.8533 7.46242 10.7574 10.4091 7.52601 7.68078 9.85262 6.88017 9.77027 9.46078 6.94798 7.10235 8.90206 6.32636 8.83117 8.55808 6.39502 6.54252 7.99312 5.7918 7.93421 7.69702 5.85819 5.99668 7.12392 5.27008 7.07585 6.87096 5.33188 5.45799 6.28754 4.75469 6.25125 6.07688 4.81018 4.92318 5.48121 4.24339 5.45547 5.30835 4.28975 4.3888 4.70271 3.72826 4.68697 4.56438 3.76494 3.85055 3.94915 3.20875 3.94213 3.84081 3.2353 3.30824 3.22092 2.6846 3.22318 3.14008 2.70008 2.76232 2.52232 2.15727 2.53353 2.46519 2.16153 2.21337 1.8536 1.6233 1.87308 1.81788 1.61514 1.66044 1.20686 1.07712 1.23785 1.19131 1.05705 1.0967 0.580706 0.51921 0.617038 0.579225 0.492082 0.533572 33.0671 20.802 32.1527 32.1527 20.1698 20.9249 47.6581 30.5631 47.1256 45.7331 30.1662 31.5978 52.6897 32.7498 52.3721 50.1741 32.5306 34.1965 51.6601 31.1349 51.7212 49.2759 30.8757 32.4069 47.9169 27.9648 47.9558 45.6176 27.8955 29.4228 43.5795 25.1576 43.5668 41.2885 25.2403 26.7212 39.7402 22.8135 39.6523 37.5211 22.9952 24.4081 36.3083 20.8215 36.1708 34.2073 21.0558 22.3875 33.202 19.0923 33.0395 31.2465 19.3489 20.5912 30.3677 17.5633 30.1986 28.5723 17.8239 18.9745 27.7694 16.1974 27.6049 26.1363 16.4509 17.5085 25.3815 14.9662 25.2279 23.9079 15.2058 16.1714 23.1804 13.847 23.0419 21.8604 14.0697 14.9452 21.1466 12.8233 21.0258 19.9732 13.0264 13.8135 19.2641 11.8782 19.1599 18.2275 12.0622 12.7654 17.5165 10.9997 17.4289 16.6068 11.1641 11.7875 15.8904 10.1794 15.8196 15.0991 10.3241 10.8714 14.3759 9.40561 14.3192 13.6927 9.53248 10.0092 12.9596 8.67065 12.9169 12.3758 8.78034 9.19209 11.6348 7.96945 11.6057 11.1417 8.06149 8.41311 10.3926 7.29306 10.3744 9.98069 7.37063 7.66787 9.22407 6.63755 9.21502 8.88408 6.70037 6.94754 8.12247 5.9965 8.12204 7.84806 6.04674 6.24997 7.08239 5.36726 7.08971 6.86549 5.40433 5.57034 6.09995 4.74288 6.1142 5.93192 4.76864 4.90293 5.16909 4.12555 5.18787 5.0413 4.14079 4.24694 4.285 3.50923 4.30909 4.1938 3.51553 3.60014 3.4504 2.89747 3.47747 3.38639 2.89448 2.96111 2.66374 2.29514 2.69347 2.6225 2.28359 2.33777 1.93422 1.71006 1.96843 1.91161 1.69082 1.73434 1.26474 1.13328 1.30448 1.26009 1.10437 1.14079 0.664307 0.554592 0.701637 0.66872 0.5296 0.566988 47.258 31.9852 44.2088 44.2088 32.5984 33.7697 62.9432 43.232 60.805 59.1157 44.0256 46.3104 68.3807 46.1272 67.016 64.246 46.7761 49.5901 66.8979 44.6179 66.4506 63.2559 44.8314 47.7113 62.292 41.0365 62.3014 59.129 41.3199 44.1056 56.9944 37.265 57.1099 54.0904 37.572 40.1998 51.8673 33.9029 51.95 49.1273 34.231 36.6528 47.2198 30.9059 47.2591 44.6778 31.2346 33.4386 42.9902 28.2035 42.9984 40.6658 28.5177 30.5091 39.1161 25.7489 39.1088 37.0153 26.038 27.8281 35.5548 23.5061 35.543 33.6734 23.7659 25.3672 32.2734 21.4518 32.2634 30.6012 21.6809 23.1078 29.2456 19.5654 29.2428 27.7702 19.7633 21.0283 26.4486 17.8284 26.4555 25.1566 17.9957 19.1127 23.8635 16.2261 23.8797 22.7379 16.3658 17.3453 21.4716 14.7443 21.4976 20.4999 14.8583 15.7118 19.2565 13.3704 19.2926 18.4259 13.4606 14.1998 17.2065 12.096 17.2498 16.5007 12.1658 12.7997 15.3065 10.9091 15.3579 14.7162 10.9596 11.4974 13.5462 9.80338 13.6035 13.0591 9.83646 10.2891 11.9169 8.768 11.9791 11.5207 8.78723 9.16307 10.4065 7.79658 10.4716 10.0903 7.80404 8.11178 9.00845 6.88288 9.07634 8.76326 6.87971 7.12835 7.7166 6.02082 7.78383 7.52996 6.0082 6.20461 6.5207 5.20422 6.58821 6.38675 5.18376 5.33642 5.41767 4.42511 5.48251 5.32512 4.40016 4.51657 4.39828 3.68026 4.46269 4.342 3.64946 3.73692 3.45978 2.96549 3.52023 3.4291 2.93171 2.99823 2.60256 2.28171 2.65808 2.58862 2.24546 2.29491 1.82521 1.64258 1.87859 1.82716 1.6026 1.64039 1.15319 1.06553 1.20626 1.16791 1.02349 1.05226 0.651154 0.597594 0.68959 0.665057 0.579684 0.599457 66.2217 47.2139 60.8536 60.8536 49.6379 50.9908 82.1137 59.5536 78.289 76.4284 61.9069 64.5161 87.2483 63.3472 84.7547 81.7374 65.0334 68.2106 84.3847 61.9436 83.4228 79.9717 62.6578 65.9548 78.1251 57.8225 78.2193 74.7532 58.0548 61.2403 71.423 52.9641 71.781 68.4723 53.0491 56.0268 65.003 48.205 65.3602 62.2822 48.2862 51.0196 59.0689 43.8519 59.3717 56.5548 43.9416 46.4179 53.6455 39.8732 53.8978 51.3542 39.9652 42.1902 48.6627 36.2225 48.8818 46.6049 36.3071 38.2951 44.0697 32.8632 44.2663 42.2401 32.9348 34.7037 39.8281 29.7666 40.0106 38.2151 29.8221 31.3889 35.9056 26.9084 36.0806 34.4967 26.9454 28.3284 32.2767 24.2696 32.448 31.0552 24.2874 25.5022 28.9205 21.83 29.0881 27.8692 21.8309 22.8928 25.816 19.5758 25.9829 24.9209 19.5603 20.4832 22.9463 17.4919 23.1113 22.1909 17.4608 18.258 20.2937 15.5644 20.4584 19.6653 15.5219 16.2047 17.8459 13.7855 18.0079 17.3298 13.7307 14.3106 15.5901 12.1424 15.7485 15.1734 12.0781 12.5647 13.5118 10.6276 13.6679 13.1856 10.5559 10.9596 11.6048 9.23046 11.7563 11.356 9.15342 9.48343 9.85791 7.94757 10.0046 9.67702 7.86557 8.12968 8.26784 6.7681 8.40505 8.14228 6.68525 6.89287 6.82229 5.68802 6.95348 6.74615 5.60365 5.76244 5.51756 4.69706 5.64129 5.48188 4.61513 4.73379 4.34883 3.79239 4.46175 4.34171 3.71015 3.79583 3.30973 2.96054 3.41198 3.32449 2.88203 2.94234 2.3952 2.1987 2.48789 2.42567 2.12579 2.16875 1.60775 1.50812 1.69059 1.64622 1.43712 1.46828 0.954396 0.925633 1.03087 0.999903 0.858465 0.879136 0.536711 0.618849 0.582728 0.566866 0.601773 0.605133 92.0413 68.8011 83.9149 83.9149 73.4745 75.1585 107.287 79.6175 102.078 99.927 83.6941 86.3436 109.759 83.4133 105.98 102.987 86.2528 89.2575 103.616 81.3874 101.986 98.7549 82.606 85.7274 94.5978 76.1807 94.8134 91.563 76.263 79.3329 86.1718 69.8885 86.7694 83.5948 69.6625 72.5727 78.4147 63.653 79.0227 76.0214 63.3996 66.0964 71.2633 57.8357 71.8098 69.0364 57.615 60.0766 64.674 52.4957 65.1609 62.638 52.3064 54.5278 58.5986 47.5826 59.0381 56.77 47.4109 49.4006 52.9764 43.048 53.3818 51.358 42.8866 44.6582 47.7668 38.8562 48.146 46.3511 38.6991 40.2684 42.9373 34.9782 43.2949 41.7105 34.8204 36.2038 38.4597 31.3877 38.8001 37.4083 31.2274 32.4422 34.3126 28.0635 34.6385 33.4201 27.9013 28.9631 30.4733 24.9899 30.7854 29.7236 24.8235 25.7461 26.9234 22.1463 27.2212 26.3009 21.9777 22.7749 23.6424 19.5196 23.9305 23.1373 19.3481 20.0315 20.6163 17.0963 20.8914 20.2128 16.924 17.5056 17.8299 14.8654 18.0939 17.5174 14.6937 15.1833 15.2753 12.8162 15.5267 15.0421 12.6439 13.0512 12.9327 10.9397 13.1719 12.7692 10.7691 11.1035 10.8018 9.22882 11.0293 10.6988 9.06046 9.33031 8.87442 7.6762 9.0875 8.82067 7.51477 7.72766 7.14142 6.27917 7.34339 7.13241 6.12145 6.28528 5.60156 5.0311 5.78923 5.62614 4.87881 5.00141 4.25577 3.9246 4.42521 4.30228 3.78161 3.87018 3.09806 2.95917 3.25368 3.1639 2.82549 2.88693 2.13653 2.12757 2.27534 2.2121 2.00324 2.046 1.37904 1.42807 1.49925 1.45489 1.31538 1.34542 0.836819 0.877464 0.938632 0.909164 0.777606 0.796952 0.509987 0.601065 0.569891 0.555592 0.569167 0.566861 38.407 96.8598 36.1618 36.1618 92.3696 92.9056 68.3335 80.8871 69.8828 69.4714 80.436 80.035 63.4449 77.5928 63.9739 64.2523 77.5902 76.4922 59.4744 74.3407 59.9345 60.9135 74.0278 72.5261 55.228 70.0535 55.9164 57.3119 69.283 67.6106 50.654 64.9152 51.6338 53.21 63.7421 62.0476 46.0582 59.334 47.1817 48.7897 57.9584 56.3193 41.6153 53.7008 42.7676 44.3263 52.2744 50.7289 37.4162 48.2612 38.5286 39.9969 46.8718 45.437 33.5033 43.1383 34.5407 35.9 41.8332 40.5142 29.8843 38.3839 30.8325 32.077 37.181 35.9776 26.554 34.0065 27.4089 28.5386 32.9124 31.8205 23.4967 29.9935 24.2609 25.2799 29.0027 28.0184 20.6921 26.3213 21.3717 22.2843 25.4292 24.5464 18.1234 22.9657 18.7255 19.5378 22.1644 21.3778 15.7739 19.9027 16.3055 17.0233 19.1842 18.4884 13.6286 17.111 14.0949 14.7238 16.468 15.8574 11.676 14.5723 12.0817 12.6272 13.9992 13.4686 9.90315 12.2719 10.2553 10.7226 11.7632 11.3074 8.30331 10.194 8.60779 9.00221 9.74435 9.35772 6.86949 8.33149 7.12644 7.45386 7.93623 7.61436 5.59514 6.67261 5.80898 6.07381 6.33207 6.06931 4.47568 5.22015 4.65205 4.86001 4.92589 4.71674 3.50732 3.95983 3.64629 3.80296 3.71182 3.55259 2.68537 2.89492 2.79163 2.90164 2.69264 2.57821 2.0047 2.03058 2.0823 2.15175 1.86987 1.79645 1.45974 1.37254 1.51343 1.5481 1.25282 1.2165 1.0297 0.920751 1.06551 1.07353 0.847149 0.843876 0.696704 0.660565 0.722105 0.711705 0.622968 0.637126 0.419432 0.480183 0.439462 0.422981 0.46163 0.478722 0.169595 0.249706 0.185783 0.174479 0.234859 0.249705 0.201661 0.136324 0.184208 0.202266 0.152488 0.141763 24.7444 32.1349 23.7099 23.7099 33.5244 32.433 41.6202 61.8104 41.488 41.9562 61.6106 60.7625 47.6005 58.2606 48.1641 48.5821 58.3009 56.7258 44.4289 55.4119 44.9688 46.024 55.1005 53.1336 40.9449 52.0353 41.662 43.1279 51.2596 49.1581 37.3606 48.1329 38.3235 39.96 46.9361 44.8604 33.9202 43.9374 34.9703 36.6196 42.5562 40.5941 30.6981 39.7462 31.736 33.305 38.3384 36.5291 27.7157 35.7289 28.6885 30.1324 34.3807 32.7364 24.972 31.9678 25.8564 27.1589 30.7199 29.2394 22.4571 28.4911 23.2439 24.4033 27.358 26.0338 20.1532 25.299 20.8458 21.8674 24.2824 23.1044 18.0446 22.3797 18.6487 19.5414 21.4748 20.4322 16.1147 19.7145 16.6359 17.41 18.9122 17.9949 14.3489 17.2855 14.7963 15.4611 16.5769 15.7758 12.7345 15.0766 13.1165 13.6808 14.4526 13.759 11.262 13.0701 11.5843 12.0568 12.5241 11.9301 9.92107 11.2551 10.1898 10.5784 10.7813 10.2794 8.70148 9.62022 8.92507 9.23817 9.21082 8.79415 7.59902 8.15856 7.78117 8.0261 7.80723 7.46984 6.60587 6.85896 6.7507 6.93391 6.56507 6.29942 5.71267 5.71725 5.82609 5.95644 5.47606 5.27599 4.91208 4.72932 5.00006 5.08485 4.53474 4.39244 4.19593 3.88289 4.26127 4.3091 3.73416 3.64268 3.5579 3.17503 3.60428 3.62238 3.06613 3.01674 2.98087 2.58812 3.01519 3.01136 2.5125 2.49451 2.45401 2.10424 2.48232 2.46482 2.05433 2.05793 1.96479 1.69046 1.98903 1.96387 1.65784 1.67242 1.49595 1.31761 1.52064 1.49416 1.29397 1.31284 1.03674 0.949927 1.0627 1.03751 0.929698 0.948723 0.580503 0.574577 0.605764 0.583135 0.553726 0.570341 0.148991 0.239566 0.171021 0.151768 0.226753 0.243027 20.2689 17.8414 20.402 20.402 19.4749 17.8945 34.1163 32.3697 34.2083 34.3004 33.1996 31.3989 38.8752 40.7286 39.045 39.3292 40.6342 38.8099 36.8865 38.6559 37.3088 37.7626 38.2613 36.0585 33.597 36.0948 34.1327 34.9219 35.3317 33.0152 30.4909 33.2784 31.1599 32.112 32.1505 29.9016 27.7078 30.3219 28.4037 29.3796 29.0721 26.9902 25.2243 27.4404 25.8867 26.8017 26.2038 24.3299 22.998 24.7308 23.5979 24.4117 23.5745 21.9175 20.9908 22.2303 21.5208 22.2194 21.1822 19.734 19.1724 19.9441 19.6307 20.2159 19.0141 17.7588 17.518 17.8652 17.9085 18.3898 17.0484 15.9696 16.006 15.9794 16.3356 16.7235 15.2688 14.3495 14.6193 14.2694 14.8941 15.1998 13.6573 12.8817 13.3421 12.7235 13.5703 13.8052 12.2 11.553 12.1634 11.3277 12.3524 12.5269 10.8825 10.3511 11.0732 10.0696 11.2269 11.3504 9.69583 9.26803 10.0615 8.93703 10.1852 10.2656 8.62763 8.29171 9.11776 7.92257 9.22056 9.26505 7.66771 7.41251 8.23881 7.01513 8.32107 8.3368 6.81016 6.62458 7.41544 6.20419 7.48166 7.47462 6.04336 5.91717 6.64076 5.481 6.69589 6.67143 5.35724 5.27819 5.90703 4.83452 5.95276 5.91766 4.74044 4.69858 5.21036 4.24999 5.2491 5.20722 4.18144 4.167 4.54561 3.71733 4.57889 4.534 3.66946 3.67485 3.9048 3.22207 3.9362 3.89063 3.1873 3.20422 3.28507 2.75209 3.31688 3.27399 2.72397 2.74594 2.68295 2.29341 2.71526 2.67721 2.2699 2.29279 2.09524 1.83572 2.12857 2.09618 1.81223 1.83302 1.52016 1.36985 1.55281 1.52662 1.34552 1.36207 0.950706 0.888961 0.981869 0.962205 0.865688 0.876929 0.390316 0.431564 0.417639 0.404605 0.411118 0.422549 23.9822 14.5961 23.8996 23.8996 15.0713 14.2385 37.2798 24.9476 37.1309 36.4495 25.2472 24.4282 41.6761 28.5422 41.5575 40.6167 28.6134 27.6741 40.7534 28.325 40.7598 39.8472 28.0389 26.8973 36.7485 25.9098 36.9301 36.1013 25.4017 24.1244 33.2672 23.5775 33.4834 32.8047 22.8573 21.6235 30.2619 21.3955 30.4897 29.91 20.6289 19.5296 27.6359 19.4291 27.8535 27.333 18.6982 17.7687 25.3064 17.6761 25.5039 25.0188 17.0179 16.2591 23.2154 16.1189 23.3899 22.9307 15.5434 14.9431 21.3232 14.7316 21.4753 21.0373 14.2399 13.7787 19.6001 13.4941 19.7304 19.3137 13.081 12.738 18.02 12.3855 18.1325 17.7388 12.0424 11.7977 16.564 11.387 16.6601 16.2912 11.106 10.9421 15.2149 10.4847 15.2991 14.9564 10.2561 10.1564 13.959 9.6646 14.0348 13.7199 9.4797 9.43159 12.787 8.91255 12.8544 12.5667 8.76575 8.75698 11.686 8.21928 11.7478 11.4876 8.10419 8.12384 10.6472 7.5763 10.7061 10.4738 7.48329 7.52333 9.66597 6.97115 9.72115 9.51526 6.89872 6.95054 8.73207 6.39686 8.78469 8.60528 6.34003 6.3998 7.84166 5.84785 7.89451 7.73843 5.80146 5.86352 6.98862 5.31233 7.04004 6.90647 5.27422 5.33607 6.16951 4.78791 6.22002 6.10632 4.75553 4.81209 5.37857 4.26789 5.42778 5.33431 4.23977 4.29065 4.61467 3.74718 4.6636 4.58706 3.72014 3.76443 3.87313 3.22431 3.92344 3.86177 3.19617 3.23307 3.15729 2.69712 3.20568 3.15746 2.668 2.69789 2.46994 2.16681 2.51596 2.47888 2.13639 2.16041 1.81368 1.63201 1.85593 1.82757 1.6021 1.61838 1.18056 1.08232 1.2176 1.19894 1.05394 1.0653 0.560412 0.508591 0.590743 0.578889 0.484322 0.495498 33.4949 20.6837 32.0404 32.0404 20.779 21.3067 47.6376 30.2373 46.595 45.2494 30.4776 31.6281 52.3968 32.4525 51.7299 49.6247 32.695 34.0922 51.6012 31.0457 51.2732 48.9214 31.1855 32.5397 47.907 28.0364 47.8769 45.585 28.0362 29.297 43.3808 25.2469 43.4123 41.2425 25.2358 26.4176 39.4031 22.9055 39.4748 37.4991 22.8845 23.9991 35.887 20.9015 35.9737 34.19 20.8799 21.9284 32.7384 19.1522 32.8277 31.2242 19.1351 20.1171 29.8931 17.6051 29.9801 28.5413 17.5932 18.5054 27.3013 16.2215 27.386 26.0992 16.2145 17.0568 24.9321 14.9761 25.0143 23.8658 14.9737 15.7446 22.757 13.8471 22.838 21.8171 13.8463 14.5463 20.7542 12.8163 20.8342 19.9306 12.8166 13.4467 18.9038 11.8678 18.9843 18.1884 11.8664 12.429 17.1882 10.99 17.2712 16.574 10.9847 11.4814 15.5949 10.1705 15.6793 15.0733 10.162 10.5966 14.1109 9.39862 14.1972 13.6742 9.38592 9.76207 12.7242 8.66763 12.8127 12.3653 8.64923 8.97127 11.428 7.96969 11.5165 11.1373 7.94742 8.21899 10.2111 7.29686 10.3003 9.98305 7.27025 7.49581 9.06514 6.64484 9.15513 8.89333 6.61288 6.79807 7.98653 6.00679 8.07553 7.86186 5.97145 6.1204 6.96695 5.37869 7.05392 6.88276 5.34052 5.45866 6.00231 4.75725 6.08585 5.95064 4.71689 4.80684 5.08557 4.13882 5.16682 5.06383 4.09646 4.16578 4.21689 3.52486 4.29474 4.21581 3.47922 3.5302 3.39264 2.91077 3.465 3.40699 2.8656 2.90255 2.61655 2.3068 2.68115 2.63936 2.26299 2.28841 1.89811 1.71743 1.95287 1.92436 1.67732 1.69577 1.24226 1.13603 1.28776 1.26752 1.10175 1.11391 0.64838 0.54387 0.681473 0.669847 0.520703 0.531225 47.2793 31.6253 43.9337 43.9337 32.5864 33.7849 62.4427 42.5236 60.1954 58.4218 43.5257 45.817 67.5425 45.338 66.1836 63.3377 46.0879 48.8734 66.3792 43.9711 65.7311 62.4842 44.4411 47.3047 62.0539 40.6683 61.9561 58.7215 40.8756 43.6022 56.7087 36.8527 56.8182 53.792 37.0629 39.6035 51.4439 33.513 51.6358 48.8556 33.6849 36.0081 46.7136 30.5393 46.9247 44.4157 30.6808 32.7845 42.4477 27.8599 42.6543 40.4085 27.9773 29.8707 38.5698 25.4265 38.7658 36.7652 25.5247 27.2217 35.0252 23.2077 35.2113 33.435 23.2861 24.8014 31.7725 21.1772 31.9504 30.3777 21.2386 22.5857 28.7805 19.3162 28.9524 27.5647 19.3601 20.5527 26.024 17.6054 26.1904 24.97 17.6333 18.6828 23.4778 16.0301 23.6416 22.5737 16.0421 16.9603 21.1255 14.5749 21.2881 20.3582 14.571 15.3689 18.9501 13.2282 19.1106 18.3055 13.2101 13.8965 16.9341 11.9785 17.0945 16.4037 11.9472 12.533 15.0692 10.8152 15.2273 14.6387 10.7719 11.2662 13.3414 9.72971 13.4967 13.0004 9.67777 10.0895 11.7404 8.71474 11.8941 11.4804 8.6537 8.99117 10.2558 7.76039 10.4055 10.0658 7.69215 7.96485 8.88211 6.86113 9.02717 8.75184 6.78831 7.00373 7.60977 6.01046 7.74844 7.52997 5.93468 6.10194 6.43426 5.2023 6.56588 6.39527 5.12591 5.25228 5.34654 4.43236 5.4707 5.34079 4.35456 4.44656 4.34332 3.69216 4.45661 4.36113 3.61567 3.68107 3.41558 2.97896 3.5185 3.44984 2.90587 2.95076 2.56569 2.29422 2.6542 2.60653 2.22746 2.25685 1.7995 1.6497 1.87268 1.84121 1.59252 1.61195 1.13971 1.06878 1.19557 1.17511 1.02301 1.034 0.643508 0.592031 0.677524 0.667884 0.573062 0.576556 65.9515 46.6752 60.3537 60.3537 49.1337 50.6231 81.189 58.6839 77.6544 75.6439 60.8172 63.5689 85.8352 62.2936 83.7398 80.5677 63.7203 66.9926 83.4165 60.9614 82.4363 78.8584 61.7412 65.0907 77.7288 57.1369 77.5966 74.035 57.3915 60.589 71.0622 52.3653 71.345 67.9994 52.4458 55.4035 64.5389 47.6568 64.9578 61.8889 47.6593 50.354 58.5155 43.3359 58.9463 56.1649 43.3078 45.7378 53.0527 39.3849 53.4611 50.965 39.3452 41.522 48.0712 35.7618 48.4496 46.2242 35.7159 37.6584 43.5019 32.4341 43.8521 41.8758 32.3812 34.1091 39.2959 29.3703 39.6239 37.8744 29.3107 30.8422 35.4177 26.5476 35.7258 34.1823 26.4798 27.832 31.8348 23.9436 32.1272 30.7703 23.8685 25.0571 28.5238 21.5408 28.8039 27.616 21.4561 22.4959 25.465 19.3225 25.7335 24.698 19.2282 20.1329 22.6373 17.2727 22.8964 21.9984 17.1708 17.9519 20.0256 15.3802 20.2765 19.5032 15.2685 15.9379 17.6135 13.6309 17.8565 17.1954 13.5134 14.0813 15.3912 12.017 15.6253 15.0653 11.8942 12.3708 13.3452 10.5303 13.5708 13.1013 10.4017 10.7958 11.4663 9.15822 11.6823 11.2941 9.02676 9.3472 9.74525 7.89647 9.95304 9.63725 7.76375 8.02011 8.17554 6.73568 8.37223 8.11901 6.60342 6.80347 6.75108 5.67128 6.93521 6.73689 5.54136 5.69317 5.46521 4.6953 5.63446 5.48312 4.56822 4.67898 4.30931 3.79749 4.46491 4.35372 3.67852 3.757 3.28197 2.97134 3.42049 3.34081 2.85982 2.91381 2.37872 2.20846 2.49507 2.43952 2.1095 2.14626 1.5987 1.51486 1.69443 1.65616 1.43007 1.45341 0.956987 0.925962 1.02988 1.00597 0.860744 0.87454 0.540902 0.614943 0.584413 0.573167 0.597519 0.596845 91.6403 68.1463 83.2456 83.2456 72.703 74.4079 106.074 78.793 101.485 99.2641 82.2017 84.9165 107.485 82.26 104.705 101.654 84.4367 87.4842 102.016 80.2151 100.615 97.3407 81.3325 84.4198 94.0941 75.3176 93.8687 90.6299 75.5954 78.5732 85.7202 69.2582 86.1607 83.0727 69.1273 71.9182 77.8489 63.1087 78.4811 75.5954 62.8406 65.4122 70.6133 57.3105 71.2558 68.6002 57.0234 59.3647 63.9944 51.9832 64.5985 62.1845 51.7076 53.82 57.9312 47.0894 58.4904 56.3175 46.8312 48.7239 52.3474 42.5812 52.8635 50.9218 42.3387 44.0266 47.1876 38.4215 47.6678 45.9413 38.1899 39.6891 42.4122 34.5781 42.8604 41.3315 34.3559 35.6813 37.9904 31.0244 38.4119 37.0641 30.8081 31.9748 33.8975 27.7391 34.2927 33.1093 27.5259 28.5483 30.1086 24.7019 30.4835 29.4492 24.4923 25.3835 26.6041 21.8946 26.9628 26.0634 21.6867 22.4585 23.3698 19.3042 23.7076 22.93 19.0966 19.7608 20.3827 16.9138 20.7065 20.0386 16.7072 17.2739 17.634 14.7136 17.9434 17.3743 14.5093 14.9883 15.1116 12.6925 15.4045 14.9239 12.4898 12.8902 12.7994 10.8427 13.0796 12.6781 10.6433 10.9723 10.6963 9.1574 10.9611 10.6311 8.95963 9.22662 8.79213 7.62733 9.0409 8.7729 7.43392 7.64575 7.0826 6.24827 7.3142 7.10124 6.06165 6.22504 5.56124 5.01425 5.7749 5.61021 4.83674 4.95989 4.2283 3.9221 4.42338 4.2987 3.75318 3.84252 3.08501 2.96406 3.25945 3.16845 2.80773 2.8708 2.1336 2.13188 2.28243 2.21783 1.99499 2.03858 1.38264 1.43108 1.50375 1.4594 1.31466 1.34456 0.851028 0.877235 0.939211 0.910978 0.787697 0.806957 0.524851 0.605677 0.579556 0.565166 0.572007 0.569949 39.694 98.2089 37.9684 37.9684 93.4371 94.0644 69.2965 81.7258 70.2378 69.688 81.3482 80.9898 64.0551 78.3027 64.0444 64.3934 78.3091 77.2473 59.9692 74.878 60.0136 61.0557 74.5906 73.1581 55.7632 70.4756 56.0952 57.4757 69.8281 68.2521 51.3362 65.3168 51.9692 53.4598 64.381 62.7928 46.8207 59.7808 47.6864 49.1642 58.6577 57.1259 42.3979 54.1917 43.3893 44.7956 52.9875 51.5433 38.1781 48.7774 39.2127 40.5239 47.5667 46.2237 34.221 43.6617 35.2436 36.4518 42.4899 41.2511 30.5464 38.9005 31.5249 32.6306 37.7901 36.6555 27.1542 34.5061 28.071 29.0764 33.4677 32.4346 24.0345 30.4664 24.8822 25.791 29.5058 28.5703 21.1692 26.764 21.9458 22.7624 25.8795 25.038 18.5439 23.3757 19.2499 19.9784 22.5645 21.8125 16.1422 20.2783 16.7801 17.4245 19.5376 18.8707 13.9476 17.4517 14.5221 15.0866 16.7781 16.1919 11.9489 14.8796 12.4627 12.9513 14.2678 13.7586 10.1355 12.5438 10.5949 11.011 11.994 11.5568 8.50062 10.4366 8.90569 9.25455 9.94113 9.57091 7.03145 8.54511 7.38905 7.67508 8.10198 7.79449 5.72686 6.86254 6.03881 6.26616 6.46613 6.21761 4.58169 5.38275 4.84886 5.02128 5.03483 4.84055 3.58814 4.10179 3.81741 3.93984 3.7961 3.65111 2.74598 3.01608 2.93557 3.01355 2.75355 2.6549 2.0478 2.1327 2.20193 2.24035 1.91155 1.85478 1.48794 1.45481 1.60845 1.61508 1.27749 1.25972 1.04752 0.982124 1.13781 1.12024 0.855703 0.867994 0.706728 0.70284 0.772183 0.741801 0.623343 0.651781 0.426151 0.510428 0.474394 0.440126 0.462785 0.488693 0.178318 0.271065 0.20362 0.177977 0.243963 0.262945 0.199461 0.14181 0.191014 0.203789 0.148246 0.141913 25.5753 34.8798 24.397 24.397 34.8216 33.3666 42.0554 62.5038 40.9527 41.7154 62.7945 61.8322 48.1324 58.7009 47.9467 48.5456 59.1066 57.4513 44.9066 55.7296 44.9427 46.1457 55.7233 53.7432 41.501 52.3348 41.8656 43.3932 51.8796 49.8118 38.0853 48.5183 38.752 40.3844 47.6903 45.6722 34.7209 44.4672 35.6123 37.2163 43.3815 41.4823 31.5067 40.3812 32.5075 34.016 39.1752 37.4241 28.4908 36.4212 29.5157 30.9001 35.1904 33.5956 25.6922 32.6782 26.6888 27.9398 31.4813 30.04 23.1097 29.1921 24.0489 25.1684 28.0607 26.7655 20.7365 25.9724 21.6033 22.5974 24.9219 23.7637 18.5601 23.0152 19.3476 20.2243 22.0503 21.0203 16.5639 20.3057 17.2738 18.0405 19.4261 18.5153 14.7378 17.8299 15.3718 16.0368 17.033 16.2333 13.0682 15.5728 13.6306 14.2011 14.8547 14.1585 11.5448 13.5206 12.0416 12.5247 12.8752 12.2757 10.1572 11.66 10.5932 10.9957 11.0839 10.575 8.89913 9.98499 9.27927 9.60714 9.47126 9.04549 7.76056 8.48173 8.09058 8.35104 8.02986 7.6817 6.73369 7.14576 7.01617 7.2163 6.74903 6.47297 5.81308 5.96945 6.05398 6.19969 5.62628 5.4147 4.98985 4.94714 5.19195 5.29159 4.65678 4.50303 4.2536 4.07243 4.42299 4.48474 3.82829 3.72452 3.59695 3.33223 3.7352 3.76677 3.13592 3.07474 3.00716 2.71754 3.12064 3.12874 2.56359 2.53455 2.47321 2.20641 2.56566 2.55878 2.09066 2.08411 1.97702 1.76808 2.05188 2.03642 1.68339 1.68996 1.5064 1.37618 1.5685 1.5494 1.31479 1.32497 1.0461 0.997524 1.09811 1.08117 0.950823 0.957844 0.587704 0.605707 0.624684 0.613171 0.575043 0.579967 0.152499 0.253424 0.172601 0.16128 0.239895 0.241743 20.5227 20.0996 19.6674 19.6674 20.7828 18.6677 34.1494 32.7973 33.1152 33.5294 34.0992 31.8588 38.9446 41.1076 38.3017 38.9118 41.5265 39.483 37.1299 39.0441 37.0503 37.7523 39.0154 36.6815 33.998 36.5499 34.2725 35.2412 36.1009 33.7046 31.0503 33.8639 31.5997 32.692 33.074 30.7675 28.3365 31.0865 29.0659 30.1655 30.0566 27.9194 25.857 28.3179 26.6639 27.7025 27.1838 25.2498 23.5957 25.657 24.4111 25.3539 24.5119 22.7864 21.5353 23.1589 22.3168 23.1521 22.0565 20.5322 19.6552 20.8445 20.3812 21.1084 19.8134 18.4772 17.9386 18.7179 18.5993 19.2234 17.7717 16.6079 16.3677 16.7729 16.9602 17.4896 15.9172 14.9104 14.9257 15.0002 15.4517 15.896 14.2322 13.3683 13.6006 13.3892 14.0649 14.4325 12.7059 11.9722 12.3806 11.9288 12.7879 13.0874 11.3254 10.7095 11.2529 10.6093 11.61 11.8497 10.0792 9.57009 10.2083 9.41945 10.5219 10.7089 8.95722 8.54231 9.23984 8.35021 9.51169 9.65557 7.95015 7.61967 8.33673 7.39341 8.57454 8.68085 7.04926 6.79219 7.49311 6.53438 7.7003 7.77613 6.24291 6.04851 6.70272 5.76707 6.88204 6.93352 5.52119 5.3808 5.95619 5.07785 6.11167 6.14276 4.87408 4.778 5.2487 4.45721 5.38553 5.40084 4.28846 4.22594 4.5744 3.89062 4.69294 4.69792 3.75411 3.71513 3.92666 3.36399 4.02963 4.02927 3.25278 3.23269 3.30319 2.86744 3.39366 3.388 2.77713 2.76779 2.69788 2.38508 2.77704 2.77033 2.31199 2.30825 2.108 1.90863 2.1779 2.17197 1.84813 1.84607 1.5307 1.42835 1.58931 1.58585 1.37771 1.37447 0.961088 0.931915 1.00357 1.00363 0.896268 0.888896 0.398617 0.454215 0.418999 0.424228 0.437353 0.425341 23.9987 15.1035 22.8215 22.8215 15.8241 14.4089 36.9852 24.7834 35.9111 35.4108 25.788 24.3756 41.3456 28.4813 40.5972 39.9421 29.1209 27.708 40.6132 28.6119 40.2592 39.6266 28.691 27.1832 36.7958 26.4548 36.8176 36.2681 26.1525 24.5588 33.4136 24.3307 33.6828 33.2805 23.7461 22.2009 30.4647 22.3267 30.868 30.5743 21.5607 20.1529 27.8537 20.4448 28.3211 28.0935 19.6108 18.3775 25.5139 18.7065 25.9973 25.8059 17.8754 16.8226 23.4017 17.117 23.8725 23.6999 16.3299 15.4481 21.483 15.6708 21.9262 21.7635 14.9477 14.2198 19.7326 14.3601 20.1413 19.9847 13.7087 13.1167 18.1294 13.1726 18.5024 18.3507 12.5944 12.1193 16.6525 12.0952 16.9911 16.8453 11.5869 11.2112 15.2877 11.1173 15.5945 15.4561 10.6732 10.3813 14.0209 10.2255 14.2988 14.1689 9.83976 9.61771 12.8375 9.4101 13.0905 12.9701 9.07498 8.90874 11.729 8.65885 11.9599 11.8514 8.36744 8.24707 10.6863 7.96149 10.8975 10.8001 7.71062 7.62576 9.69991 7.30906 9.89349 9.80842 7.09094 7.03399 8.76334 6.69265 8.94136 8.86777 6.50332 6.46619 7.8712 6.10511 8.03451 7.97309 5.94139 5.91804 7.01572 5.53516 7.16664 7.11695 5.393 5.37905 6.1933 4.97962 6.33185 6.29287 4.85392 4.84756 5.40108 4.42981 5.52711 5.49604 4.32023 4.3183 4.63544 3.88511 4.75034 4.7264 3.78901 3.78685 3.89349 3.33861 3.99752 3.98221 3.25355 3.25253 3.17485 2.79138 3.26953 3.25915 2.71627 2.71411 2.48436 2.24395 2.56816 2.5632 2.17726 2.17362 1.82448 1.693 1.89303 1.89252 1.63703 1.63091 1.19133 1.12834 1.23971 1.24345 1.08791 1.07649 0.568053 0.531015 0.591061 0.601013 0.51266 0.498111 33.5908 20.259 31.3987 31.3987 20.9508 21.1951 47.2305 29.643 45.6188 44.3056 30.4064 31.1745 51.7971 31.9946 50.8149 48.8555 32.6043 33.5753 51.1191 30.9064 50.6237 48.492 31.259 32.2015 47.6995 28.2191 47.5789 45.5286 28.2938 29.1368 43.2101 25.6652 43.3419 41.4465 25.5419 26.3049 39.2792 23.4391 39.5254 37.8344 23.214 23.9231 35.7827 21.4824 36.0919 34.5976 21.2068 21.8727 32.6408 19.733 32.974 31.6565 19.4422 20.0695 29.7956 18.1581 30.1302 28.9671 17.8725 18.4615 27.2059 16.7341 27.5298 26.5021 16.4639 17.0134 24.8385 15.4428 25.1473 24.2399 15.1923 15.7009 22.6687 14.27 22.9602 22.1604 14.0392 14.5046 20.6721 13.1971 20.9477 20.2458 12.9849 13.4068 18.8306 12.2128 19.0918 18.4784 12.0168 12.3935 17.1263 11.3031 17.3731 16.8419 11.121 11.4533 15.5443 10.4549 15.7797 15.3231 10.2844 10.5744 14.0716 9.65985 14.2968 13.9074 9.49899 9.74634 12.6967 8.90745 12.9115 12.5851 8.75495 8.9631 11.4093 8.18982 11.6154 11.3447 8.04486 8.21637 10.2023 7.49928 10.3977 10.1772 7.36101 7.49933 9.06616 6.82929 9.25237 9.07588 6.69782 6.80715 7.99422 6.17608 8.17032 8.03156 6.0502 6.13347 6.98003 5.53229 7.14661 7.04088 5.41309 5.4737 6.01807 4.89387 6.17328 6.09574 4.78229 4.82498 5.10665 4.26072 5.2494 5.1942 4.15631 4.18337 4.23795 3.62943 4.36762 4.33138 3.53262 3.54953 3.41313 3.002 3.53078 3.5073 2.91205 2.91964 2.63297 2.38454 2.73693 2.72488 2.30369 2.30295 1.91046 1.77854 1.99178 1.98986 1.71213 1.70578 1.25192 1.1808 1.30562 1.31047 1.13495 1.1226 0.656809 0.56529 0.680659 0.691368 0.547472 0.534387 47.4735 31.1727 43.5915 43.5915 32.4567 33.6999 62.0514 41.7875 59.5573 57.6273 42.9932 45.2739 66.7859 44.6432 65.4316 62.5024 45.4467 48.1327 65.6641 43.4501 65.0571 61.8274 43.9338 46.6403 61.6159 40.3868 61.5067 58.3557 40.6142 43.1621 56.4071 36.7567 56.613 53.7049 36.8144 39.1563 51.1674 33.4841 51.4945 48.8635 33.4732 35.5961 46.4453 30.5548 46.8296 44.4861 30.4947 32.4058 42.1824 27.8959 42.5825 40.5071 27.8082 29.5213 38.3107 25.4692 38.7042 36.8711 25.3671 26.8979 34.7769 23.2495 35.1538 33.537 23.1409 24.5043 31.5393 21.2177 31.8974 30.4742 21.1047 22.3148 28.5655 19.3554 28.9054 27.6552 19.2401 20.3084 25.8276 17.6468 26.151 25.0572 17.5276 18.465 23.3041 16.0756 23.6124 22.6599 15.9523 16.7699 20.9754 14.6273 21.27 20.4447 14.5 15.206 18.822 13.2891 19.1051 18.3962 13.1567 13.7609 16.8307 12.0479 17.1037 16.4996 11.9109 12.4226 14.9864 10.8933 15.2499 14.7398 10.7522 11.1797 13.2773 9.8159 13.533 13.1077 9.67075 10.0224 11.6958 8.8058 11.9381 11.5884 8.6599 8.94437 10.2278 7.85828 10.4619 10.1787 7.7111 7.93491 8.86824 6.9627 9.09015 8.86689 6.81676 6.98834 7.60752 6.11359 7.81757 7.64572 5.96953 6.09704 6.44085 5.3043 6.63773 6.50924 5.16483 5.2551 5.3607 4.52866 5.54221 5.45035 4.39647 4.45799 4.36162 3.78379 4.52508 4.4616 3.65969 3.69688 3.43564 3.0623 3.5831 3.54378 2.94698 2.96753 2.58243 2.36636 2.7108 2.68828 2.26213 2.27153 1.81278 1.70366 1.91182 1.90089 1.62079 1.62157 1.14872 1.09908 1.2122 1.2106 1.04655 1.04267 0.652619 0.602556 0.680848 0.68411 0.589586 0.582479 66.0952 46.1652 59.8331 59.8331 48.75 50.5261 80.809 57.9411 77.3053 74.9676 59.9938 63.0073 84.9053 61.5101 83.1374 79.6891 62.696 66.1169 82.4615 60.223 81.7402 78.0054 60.8245 64.2257 77.0781 56.5515 77.025 73.4018 56.7599 59.9502 70.6263 51.9647 70.9839 67.6371 51.9232 54.834 64.1577 47.3134 64.6796 61.6571 47.1936 49.8195 58.1275 43.0442 58.6984 55.9919 42.8791 45.231 52.6604 39.1266 53.2269 50.8189 38.9425 41.0414 47.6852 35.5252 48.2244 46.0888 35.3369 37.2053 43.1307 32.2134 43.6366 41.7469 32.0282 33.687 38.948 29.1668 39.4203 37.7521 28.9848 30.4532 35.0956 26.3615 35.5384 34.0695 26.1823 27.4781 31.5422 23.7781 31.9582 30.6686 23.5995 24.7378 28.2628 21.396 28.6557 27.5282 21.2179 22.2126 25.2342 19.2 25.6076 24.6264 19.0209 19.8849 22.4375 17.1746 22.7927 21.9437 16.9931 17.7379 19.8565 15.3061 20.195 19.4655 15.1219 15.7585 17.4734 13.5818 17.8001 17.1784 13.3941 13.9321 15.2769 11.9917 15.5898 15.0655 11.8 12.2493 13.2557 10.523 13.5535 13.1165 10.3334 10.7027 11.3995 9.17148 11.6858 11.3268 8.97955 9.27845 9.70065 7.92594 9.97172 9.68098 7.73641 7.97165 8.14763 6.77944 8.4044 8.17523 6.59287 6.77309 6.73787 5.72597 6.97675 6.80063 5.54429 5.67831 5.46234 4.75665 5.68404 5.55241 4.58318 4.67794 4.31836 3.86122 4.51852 4.42468 3.69961 3.76343 3.29547 3.03611 3.4729 3.40886 2.88556 2.9253 2.38948 2.26867 2.54227 2.50175 2.13362 2.15569 1.60661 1.55688 1.72526 1.70228 1.4491 1.46089 0.963892 0.943245 1.03947 1.0273 0.873821 0.878898 0.553066 0.62289 0.587499 0.583775 0.607097 0.60122 91.6444 67.5091 82.2348 82.2348 72.2451 74.2285 105.739 78.3413 101.407 98.8769 81.3967 84.3592 106.318 81.6724 104.247 100.965 83.3052 86.4682 100.729 79.5256 99.8715 96.5079 80.2706 83.3549 93.2118 74.6992 93.1621 89.9403 74.861 77.7527 85.1641 68.8017 85.6436 82.6478 68.5983 71.2561 77.3534 62.7293 78.0567 75.3109 62.3886 64.8056 70.101 56.9696 70.854 68.3575 56.5888 58.7727 63.4685 51.6617 64.1979 61.9425 51.2822 53.2453 57.4127 46.7791 58.0951 56.0696 46.4188 48.1752 51.8515 42.2827 52.4835 50.6741 41.9449 43.5107 46.7245 38.1362 47.3087 45.6988 37.82 39.2113 41.9862 34.311 42.5277 41.1002 34.0123 35.2442 37.6047 30.7773 38.108 36.8467 30.4934 31.5796 33.5497 27.5153 34.0216 32.9118 27.2429 28.1959 29.8013 24.5032 30.2449 29.2728 24.239 25.071 26.3379 21.7211 26.7545 25.9071 21.4641 22.1861 23.1367 19.156 23.5317 22.7974 18.9055 19.5269 20.1861 16.7949 20.5632 19.9316 16.5458 17.0758 17.4708 14.6198 17.8267 17.2882 14.3744 14.8227 14.9764 12.6219 15.3147 14.8594 12.3812 12.7554 12.6939 10.7967 13.0158 12.6356 10.5576 10.8663 10.6154 9.13084 10.9202 10.6063 8.89741 9.14661 8.73226 7.62002 9.01943 8.76559 7.39106 7.58877 7.04139 6.25707 7.30789 7.10596 6.03617 6.18769 5.53623 5.03682 5.78407 5.62888 4.82388 4.93697 4.21556 3.95378 4.43988 4.32358 3.75357 3.83326 3.08151 3.00075 3.27895 3.1968 2.81625 2.86962 2.13247 2.16801 2.30193 2.24711 2.0031 2.03775 1.3805 1.4547 1.51053 1.47591 1.32129 1.34214 0.850303 0.87958 0.935535 0.91714 0.792545 0.805222 0.538003 0.611705 0.581402 0.573977 0.583531 0.579488 42.6673 101.966 41.8293 41.8293 94.5857 94.9001 69.597 81.9106 69.9495 69.6724 82.3157 81.6895 64.0235 78.1147 63.1018 63.738 78.8588 77.6978 59.8899 74.6228 59.2105 60.4097 74.8725 73.4734 55.7592 70.2608 55.5989 56.9895 69.9982 68.5316 51.48 65.2041 51.7965 53.1934 64.5617 63.1141 47.1298 59.8063 47.8056 49.1335 58.9137 57.5267 42.8316 54.3582 43.7413 44.9764 53.32 52.013 38.6908 49.0595 39.7258 40.8647 47.9566 46.737 34.773 44.0277 35.8531 36.8997 42.9139 41.7846 31.1086 39.3198 32.1815 33.1402 38.2297 37.1905 27.7052 34.9517 28.7386 29.6136 33.9078 32.9573 24.5605 30.9209 25.5362 26.3309 29.9318 29.0683 21.6622 27.2097 22.5699 23.2863 26.2849 25.5058 18.9981 23.8048 19.8358 20.4764 22.9442 22.2463 16.5551 20.6841 17.3238 17.8909 19.8877 19.2681 14.3203 17.8281 15.0207 15.5167 17.0971 16.552 12.2808 15.2277 12.9177 13.346 14.5569 14.0833 10.4305 12.8641 11.0056 11.3688 12.25 11.844 8.7571 10.7262 9.27555 9.57667 10.169 9.82618 7.25585 8.80964 7.72087 7.96422 8.30229 8.01908 5.91962 7.09917 6.33335 6.522 6.64332 6.41518 4.74336 5.59862 5.10934 5.24846 5.18613 5.01051 3.72499 4.2949 4.04411 4.13656 3.92817 3.79955 2.85621 3.18953 3.13153 3.18345 2.8645 2.77984 2.13485 2.28744 2.36508 2.38145 2.00434 1.9604 1.55398 1.58181 1.74078 1.7279 1.35161 1.34457 1.09418 1.08851 1.23875 1.20509 0.90711 0.929787 0.737171 0.771704 0.840534 0.795724 0.657585 0.69227 0.444629 0.556879 0.516016 0.472203 0.490346 0.517578 0.182206 0.315221 0.227258 0.197882 0.265541 0.281257 0.205087 0.152376 0.198278 0.207164 0.158641 0.153689 27.0059 40.8347 25.5898 25.5898 38.2378 36.0501 41.6917 63.0018 39.3611 40.8589 63.4578 62.2635 47.8267 58.329 47.0271 47.8586 59.3991 57.5306 44.7573 55.2681 44.329 45.7541 55.878 53.7692 41.5766 52.0477 41.6423 43.3253 52.0567 49.9331 38.3988 48.4935 38.9067 40.6319 47.9977 45.9664 35.248 44.7154 36.0843 37.7444 43.856 41.9615 32.1749 40.8641 33.2169 34.7662 39.7784 38.0349 29.2327 37.0702 30.3718 31.7954 35.8734 34.2816 26.4578 33.4265 27.6163 28.9119 32.2012 30.7558 23.8654 29.9877 24.9921 26.1635 28.7856 27.4791 21.46 26.777 22.5253 23.5779 25.6287 24.4534 19.2369 23.8031 20.2273 21.1666 22.7247 21.6729 17.1885 21.0594 18.0967 18.929 20.0599 19.124 15.3068 18.5415 16.134 16.8656 17.6209 16.7939 13.5814 16.2385 14.3297 14.9667 15.3947 14.67 12.0052 14.1374 12.6771 13.2254 13.3689 12.7402 10.5668 12.2306 11.1701 11.6354 11.532 10.992 9.26011 10.5086 9.79798 10.1873 9.87756 9.42108 8.07787 8.9621 8.55364 8.87298 8.3936 8.0142 7.00867 7.58541 7.42999 7.68597 7.0765 6.76752 6.0496 6.36818 6.41695 6.61713 5.91751 5.67328 5.1905 5.30595 5.50889 5.65943 4.91082 4.72565 4.42417 4.39053 4.69484 4.80219 4.0509 3.91748 3.73779 3.61124 3.96841 4.04019 3.3246 3.23445 3.12222 2.95258 3.31291 3.35753 2.71995 2.66567 2.56601 2.39896 2.72075 2.74426 2.21586 2.18731 2.04999 1.92054 2.17575 2.18509 1.78213 1.76901 1.56309 1.48985 1.66349 1.66569 1.39063 1.38529 1.09116 1.08072 1.16724 1.16678 1.01031 1.00693 0.620215 0.667905 0.676225 0.676017 0.6229 0.613903 0.172712 0.288099 0.194772 0.195147 0.27264 0.265213 20.1304 24.3982 17.5579 17.5579 23.3228 20.4346 33.1283 32.9037 30.7522 31.8143 34.6503 31.669 38.1627 40.9737 36.7919 37.9438 41.7279 39.3897 36.8295 38.9447 36.4958 37.4384 39.2759 36.7427 34.1305 36.6897 34.3665 35.5313 36.5345 33.9971 31.5273 34.3096 32.1563 33.4355 33.7248 31.3042 29.0522 31.8244 29.9344 31.2295 30.9185 28.6753 26.7042 29.2897 27.7241 28.9707 28.1827 26.1396 24.4925 26.7754 25.5596 26.7226 25.5768 23.7354 22.4268 24.346 23.4785 24.542 23.1337 21.488 20.5083 22.0416 21.5095 22.4663 20.8668 19.4048 18.7345 19.8858 19.6635 20.5148 18.7776 17.4865 17.0976 17.8889 17.9478 18.6975 16.8603 15.7268 15.5873 16.0489 16.3579 17.0124 15.1074 14.1187 14.1955 14.3661 14.8893 15.4559 13.51 12.6541 12.9115 12.8312 13.5328 14.0194 12.0583 11.3239 11.7256 11.4373 12.2808 12.6945 10.7452 10.1203 10.6278 10.1767 11.1229 11.4728 9.55726 9.03253 9.60983 9.0383 10.05 10.342 8.48836 8.0534 8.66336 8.01297 9.05402 9.29554 7.5287 7.17471 7.78047 7.09202 8.12634 8.32322 6.66586 6.38181 6.95347 6.2627 7.25773 7.41702 5.89333 5.66887 6.17304 5.5156 6.441 6.56948 5.19763 5.02304 5.43637 4.8355 5.6686 5.77173 4.56678 4.43453 4.7344 4.2146 4.93756 5.01887 3.98695 3.88992 4.06343 3.63586 4.23781 4.29991 3.44819 3.37654 3.41674 3.09026 3.56678 3.61568 2.93775 2.88537 2.79205 2.5656 2.91822 2.95682 2.44128 2.40275 2.18563 2.05239 2.29263 2.32318 1.95268 1.92209 1.59161 1.53864 1.67792 1.70421 1.46302 1.43578 1.0047 1.01967 1.06842 1.09344 0.964185 0.935175 0.425534 0.508445 0.44815 0.47496 0.490377 0.458197 23.1375 16.0299 19.9524 19.9524 16.3234 14.1763 35.7615 24.0871 33.6464 33.3804 25.6302 23.4255 40.3787 27.9773 39.1616 38.8804 29.0585 27.0289 40.1194 28.7364 39.6519 39.3845 28.9697 27.072 36.7477 27.0796 36.8756 36.6301 26.8017 24.8904 33.7283 25.3384 34.2238 34.1395 24.705 22.8656 30.9965 23.604 31.6949 31.7463 22.7379 21.0342 28.4984 21.8889 29.2849 29.4233 20.8952 19.3597 26.1962 20.2165 27.0026 27.1862 19.1816 17.8253 24.0751 18.618 24.8602 25.0582 17.6019 16.4196 22.122 17.1152 22.8636 23.0584 16.151 15.1322 20.3245 15.7179 21.0129 21.1941 14.826 13.9555 18.6707 14.4307 19.3015 19.4655 13.617 12.8798 17.144 13.2489 17.7213 17.8663 12.5141 11.8941 15.7328 12.168 16.2593 16.3869 11.5089 10.9907 14.4232 11.1775 14.9024 15.0149 10.5891 10.1583 13.2016 10.2682 13.6386 13.739 9.74436 9.38934 12.06 9.4311 12.4592 12.5483 8.96511 8.67285 10.9858 8.65338 11.3498 11.4311 8.24005 8.00055 9.97189 7.92867 10.3048 10.3794 7.56199 7.36449 9.00948 7.24398 9.3133 9.38421 6.91933 6.75734 8.09376 6.59078 8.36936 8.43604 6.30468 6.17299 7.21767 5.96271 7.468 7.52942 5.70994 5.60143 6.37462 5.35007 6.6004 6.65829 5.13 5.04072 5.55988 4.75115 5.76445 5.81825 4.55741 4.48266 4.77374 4.15536 4.95563 5.00625 3.98795 3.92799 4.01463 3.56611 4.17533 4.21954 3.42103 3.37074 3.27839 2.97684 3.41815 3.45842 2.85398 2.81257 2.57078 2.39429 2.69166 2.72719 2.28942 2.25469 1.89042 1.81138 1.99034 2.02196 1.72648 1.69463 1.23726 1.2219 1.30778 1.33821 1.15893 1.12606 0.596885 0.591566 0.620262 0.651355 0.570453 0.532545 33.3712 19.3807 29.8792 29.8792 20.508 20.49 46.2581 28.6979 44.0239 42.7234 29.7866 30.1383 50.8346 31.4726 49.6959 47.9297 32.2386 32.6855 50.4561 30.9585 50.0204 48.2274 31.3041 31.7028 47.4152 28.7821 47.4511 45.8049 28.7126 29.0357 43.212 26.6087 43.5563 42.0825 26.2498 26.5049 39.4502 24.5923 39.9732 38.7153 24.0721 24.2792 36.0515 22.71 36.6462 35.5874 22.1229 22.3038 32.952 20.9542 33.5648 32.6718 20.3531 20.5207 30.1144 19.3249 30.7149 29.9564 18.7408 18.902 27.5143 17.8239 28.0853 27.4364 17.2724 17.4285 25.1294 16.4467 25.6662 25.109 15.9338 16.0843 22.939 15.186 23.4398 22.9607 14.7142 14.8568 20.9242 14.033 21.3929 20.9825 13.5978 13.7292 19.0665 12.9742 19.5042 19.1557 12.5731 12.6909 17.348 11.9958 17.7587 17.466 11.626 11.7283 15.7557 11.0884 16.1411 15.8992 10.7454 10.8293 14.2735 10.2388 14.6366 14.4418 9.91972 9.98589 12.8909 9.43604 13.2333 13.0799 9.13946 9.18711 11.5969 8.67154 11.9195 11.8041 8.39474 8.42639 10.3815 7.93809 10.6845 10.6009 7.67996 7.69598 9.23817 7.22717 9.52208 9.46663 6.98805 6.98954 8.15668 6.53345 8.42119 8.39021 6.31186 6.30311 7.13375 5.85268 7.37902 7.36625 5.64856 5.62959 6.16132 5.17838 6.3872 6.39064 4.98998 4.96544 5.23653 4.50905 5.44192 5.45541 4.33829 4.30941 4.35497 3.84313 4.53992 4.56109 3.68984 3.65919 3.51556 3.18208 3.67781 3.70326 3.04666 3.01594 2.72084 2.53392 2.86363 2.89109 2.41514 2.38541 1.97685 1.8957 2.09485 2.12279 1.79658 1.76986 1.29578 1.2661 1.37453 1.40028 1.19655 1.17079 0.684678 0.615344 0.70836 0.730879 0.595497 0.567718 47.9834 30.8752 43.361 43.361 32.4152 33.6345 61.5151 41.2188 58.7529 56.7275 42.4871 44.5791 65.9571 44.314 64.7151 61.8761 45.0002 47.3309 64.9291 43.4179 64.5292 61.5697 43.7284 45.9828 61.1449 40.6352 61.2383 58.4658 40.6783 42.7476 56.2054 37.2076 56.5893 54.0977 37.0635 38.9357 51.0907 34.0652 51.6272 49.4154 33.7982 35.4766 46.4471 31.1672 47.0427 45.1033 30.8523 32.3503 42.2228 28.4951 42.8298 41.1365 28.1651 29.4997 38.3651 26.0317 38.957 37.479 25.7048 26.8923 34.834 23.765 35.3973 34.1066 23.4515 24.5065 31.5956 21.6883 32.1266 30.9994 21.3888 22.3219 28.6208 19.7852 29.1198 28.1378 19.4995 20.3206 25.8841 18.0435 26.3545 25.5021 17.7679 18.485 23.364 16.4443 23.8086 23.0732 16.1776 16.7989 21.039 14.9753 21.4612 20.8311 14.7142 15.2457 18.8935 13.6199 19.2947 18.7609 13.364 13.8129 16.9102 12.3658 17.2931 16.846 12.1132 12.4858 15.0742 11.1997 15.4405 15.0722 10.9507 11.2544 13.3743 10.1122 13.724 13.4257 9.86694 10.1078 11.7958 9.09103 12.1301 11.8949 8.85103 9.03641 10.3349 8.13112 10.652 10.4717 7.89744 8.03523 8.97922 7.22294 9.27848 9.14501 6.99693 7.09327 7.72073 6.35821 8.00218 7.90913 6.14164 6.20413 6.55373 5.53147 6.81585 6.75552 5.32585 5.36166 5.47029 4.73747 5.71141 5.67674 4.54505 4.55913 4.46241 3.96929 4.6813 4.66747 3.7918 3.79265 3.53077 3.22433 3.72438 3.72308 3.06489 3.05517 2.66555 2.50596 2.83526 2.84418 2.3624 2.3475 1.87278 1.81802 2.01487 2.02896 1.69662 1.67787 1.18492 1.17361 1.27611 1.29457 1.09387 1.07622 0.675198 0.628793 0.696099 0.711025 0.615586 0.603928 66.9541 46.3254 59.8558 59.8558 48.933 50.9798 80.7082 57.6278 77.1799 74.4996 59.5415 62.716 84.2508 61.2279 82.8694 79.2406 62.0903 65.5036 81.7122 59.9863 81.3809 77.6534 60.2916 63.565 76.4988 56.4265 76.7348 73.2454 56.4107 59.4075 70.2794 51.959 70.833 67.6892 51.7537 54.4475 63.9388 47.3875 64.6477 61.8557 47.0849 49.492 57.9606 43.1479 58.7069 56.2368 42.8085 44.9514 52.5158 39.236 53.2533 51.0755 38.8878 40.7925 47.5484 35.6272 48.2523 46.3338 35.2863 36.9763 42.9984 32.3016 43.6595 41.9715 31.976 33.4727 38.8199 29.2417 39.4373 37.9539 28.9322 30.2543 34.9766 26.4273 35.5508 34.25 26.1322 27.2963 31.4335 23.8402 31.9729 30.8354 23.5563 24.5759 28.1683 21.4609 28.6746 27.6847 21.1847 22.0719 25.156 19.2705 25.6338 24.7777 18.9995 19.7663 22.3762 17.2536 22.8297 22.0939 16.9867 17.6434 19.8123 15.3969 20.2451 19.6185 15.1315 15.6876 17.4506 13.6855 17.8611 17.3331 13.4211 13.8862 15.2721 12.108 15.6659 15.2265 11.845 12.2274 13.2667 10.6518 13.6432 13.2835 10.3899 10.6989 11.4276 9.30999 11.7873 11.4977 9.05145 9.2942 9.74081 8.07222 10.082 9.85523 7.81856 8.00388 8.20089 6.93157 8.52332 8.35058 6.68388 6.81948 6.79901 5.88088 7.10154 6.97533 5.64182 5.73509 5.52992 4.90884 5.80955 5.72272 4.68143 4.74164 4.38723 4.00862 4.64198 4.58563 3.79513 3.82823 3.36256 3.17 3.58984 3.55862 2.97579 2.99148 2.4511 2.3904 2.64876 2.63354 2.21465 2.2171 1.65239 1.66145 1.81408 1.81142 1.50914 1.50385 0.986298 1.00665 1.09202 1.09712 0.907201 0.898688 0.570141 0.633322 0.59901 0.607666 0.625816 0.616596 92.1819 67.312 81.3199 81.3199 72.2462 74.7381 105.811 78.2078 101.565 98.526 80.9909 84.3232 105.683 81.5304 104.247 100.639 82.6142 85.9321 99.8518 79.2552 99.5934 96.1376 79.5384 82.6231 92.4517 74.4166 92.8068 89.643 74.2708 77.0676 84.6399 68.5863 85.3447 82.494 68.1976 70.7073 76.9586 62.5846 77.8372 75.2849 62.0801 64.3246 69.7447 56.8448 70.6532 68.3709 56.3215 58.3273 63.1186 51.5469 63.9925 61.9522 51.0347 52.8247 57.0657 46.6631 57.8857 56.0657 46.1791 47.7742 51.5132 42.1628 52.2709 50.6505 41.7115 43.1295 46.4009 38.0137 47.0976 45.659 37.5944 38.8524 41.6816 34.1881 42.3245 41.0504 33.7991 34.9108 37.322 30.6623 37.9192 36.7951 30.2953 31.2739 33.2945 27.4101 33.8489 32.8609 27.063 27.9206 29.5737 24.4111 30.093 29.2284 24.0798 24.827 26.137 21.6468 26.625 25.8726 21.327 21.9733 22.9648 19.1016 23.4268 22.7765 18.7895 19.3444 20.0448 16.7583 20.4801 19.922 16.4562 16.9271 17.3541 14.6052 17.7707 17.2972 14.307 14.7023 14.8859 12.6281 15.2803 14.8825 12.3343 12.6623 12.6279 10.8241 13.0027 12.6722 10.5346 10.7998 10.5707 9.17583 10.9273 10.6597 8.89171 9.10285 8.70778 7.68153 9.04461 8.83086 7.40365 7.56651 7.03121 6.33259 7.34845 7.18284 6.06217 6.18342 5.54167 5.12295 5.8345 5.71044 4.86289 4.94757 4.23092 4.04694 4.49818 4.411 3.80055 3.85657 3.10216 3.09596 3.34086 3.2829 2.86745 2.89919 2.15532 2.25945 2.35869 2.32611 2.053 2.0674 1.39394 1.53226 1.55606 1.54237 1.35791 1.3624 0.856221 0.921124 0.959613 0.957404 0.805726 0.806396 0.551443 0.62226 0.593125 0.595611 0.598216 0.590622 49.9026 113.627 49.602 49.602 98.9319 98.389 69.6306 81.1756 71.62 73.5746 82.6031 81.4057 62.931 75.4004 60.4376 61.6909 78.2554 76.9312 58.7987 71.9634 56.6198 58.0482 74.1316 72.757 54.9687 68.2915 53.8202 55.2858 69.3849 68.0106 51.0563 64.0174 50.8639 52.2852 64.1747 62.8317 47.051 59.2877 47.5605 48.9051 58.7746 57.4838 43.0335 54.3364 43.9921 45.2487 53.4034 52.1786 39.0927 49.3709 40.2986 41.4652 48.2107 47.0609 35.3008 44.5408 36.6089 37.6862 43.285 42.2157 31.7038 39.9329 33.0225 34.0115 38.6711 37.6849 28.3256 35.6046 29.5997 30.5022 34.3815 33.4793 25.177 31.572 26.3774 27.1948 30.4156 29.5955 22.2545 27.8376 23.3714 24.1068 26.7571 26.0181 19.5561 24.3946 20.5849 21.2399 23.3966 22.7351 17.0732 21.2346 18.0159 18.5945 20.3128 19.7262 14.7941 18.3335 15.6566 16.1612 17.4889 16.9734 12.7126 15.6919 13.4975 13.9321 14.9175 14.4697 10.8185 13.2886 11.5325 11.9005 12.5795 12.196 9.10431 11.1162 9.75426 10.059 10.4654 10.1423 7.5648 9.16125 8.15047 8.39578 8.57135 8.30467 6.19038 7.42227 6.72029 6.91078 6.88095 6.66791 4.98035 5.8858 5.45364 5.59177 5.40182 5.23674 3.92775 4.55972 4.34753 4.44069 4.11781 3.99913 3.02854 3.42672 3.39483 3.44522 3.03173 2.95521 2.27423 2.48781 2.58601 2.59966 2.14764 2.11166 1.66248 1.75082 1.91671 1.89928 1.46189 1.46253 1.17159 1.20876 1.36851 1.32664 0.991149 1.02047 0.784263 0.837335 0.920664 0.865681 0.705673 0.745349 0.469675 0.589078 0.552102 0.498838 0.522139 0.551396 0.196381 0.372248 0.250085 0.225385 0.30863 0.315186 0.207199 0.175021 0.194902 0.215362 0.150476 0.151501 29.8125 52.3338 28.3476 28.3476 46.5227 41.364 40.5432 65.6969 35.9676 40.7855 63.4781 62.3643 46.6689 56.091 46.1956 46.8586 58.5068 56.4816 43.9149 52.9259 43.0179 44.4837 55.0352 52.7553 41.2057 50.523 40.9231 42.7703 51.5853 49.2866 38.4962 47.8809 38.8956 40.8811 47.9658 45.7517 35.7343 44.8546 36.647 38.6332 44.222 42.1375 32.9423 41.5388 34.1741 36.0859 40.4497 38.5136 30.1725 38.0807 31.5643 33.3614 36.7448 34.9625 27.4826 34.6142 28.9159 30.5792 33.1816 31.5523 24.9107 31.2421 26.3128 27.8351 29.8072 28.3268 22.4833 28.027 23.8125 25.1931 26.6457 25.3073 20.2141 25.0085 21.4497 22.6933 23.7097 22.5055 18.1042 22.2021 19.2404 20.3541 20.9948 19.9167 16.1561 19.611 17.192 18.1829 18.4991 17.5388 14.3621 17.2338 15.3038 16.18 16.2144 15.3643 12.7163 15.0625 13.5711 14.3406 14.1289 13.381 11.2138 13.0869 11.9841 12.6553 12.2364 11.5832 9.84449 11.3006 10.5376 11.1184 10.5265 9.96175 8.60198 9.69653 9.22343 9.72052 8.99191 8.50906 7.47896 8.26085 8.03433 8.45465 7.62699 7.21888 6.46651 6.99109 6.95731 7.30929 6.42005 6.08114 5.5572 5.87335 5.98713 6.27671 5.36767 5.09137 4.73983 4.90144 5.11293 5.34784 4.45946 4.23962 4.00944 4.06226 4.32761 4.51438 3.68436 3.51521 3.34978 3.34003 3.6141 3.7587 3.02712 2.90055 2.75117 2.71633 2.9675 3.07762 2.46875 2.37905 2.19919 2.17003 2.37045 2.45088 1.98197 1.92049 1.68084 1.67333 1.80995 1.86726 1.54176 1.49896 1.17914 1.20647 1.2762 1.31783 1.12234 1.09102 0.684476 0.762562 0.76346 0.794114 0.705465 0.675524 0.211525 0.361045 0.268608 0.290762 0.31724 0.301028 19.3979 31.5592 13.6042 13.6042 26.9821 23.1505 30.9671 31.9386 26.8109 29.072 34.9765 30.4333 36.6923 40.6254 34.7095 37.0403 40.9009 38.5999 36.2095 37.9607 36.3155 37.0398 38.8162 36.2111 34.2697 36.3269 34.8508 36.0364 36.6271 33.934 32.2332 34.7183 33.2076 34.7077 34.3488 31.7144 30.1399 32.8574 31.3813 33.0274 31.9672 29.4732 28.0149 30.7438 29.3942 31.0638 29.5213 27.2089 25.9021 28.4677 27.3202 28.9343 27.0737 24.9602 23.8475 26.1317 25.2333 26.7457 24.6884 22.7756 21.8851 23.8251 23.1973 24.5857 22.4086 20.6903 20.0338 21.6089 21.252 22.5087 20.2631 18.7288 18.3047 19.5194 19.4196 20.5464 18.267 16.9042 16.6972 17.5748 17.7116 18.7138 16.4223 15.2174 15.2085 15.7824 16.1269 17.0134 14.7314 13.6711 13.8309 14.1413 14.6595 15.441 13.1864 12.2587 12.557 12.6464 13.3032 13.9886 11.7802 10.9738 11.3786 11.2867 12.0501 12.6481 10.5075 9.80982 10.2839 10.0553 10.8863 11.4076 9.35541 8.7566 9.26699 8.94086 9.80579 10.2579 8.31521 7.80513 8.31802 7.93394 8.79845 9.18901 7.37657 6.94709 7.42917 7.01888 7.85602 8.19079 6.52821 6.16968 6.59385 6.18798 6.96987 7.25554 5.76002 5.46406 5.80335 5.42654 6.13283 6.37475 5.05635 4.81506 5.05337 4.72514 5.33884 5.54207 4.41028 4.21567 4.33372 4.06602 4.57689 4.74599 3.80467 3.6502 3.64591 3.44618 3.85123 3.99012 3.23183 3.11062 2.98099 2.85024 3.15102 3.26363 2.67947 2.58604 2.34022 2.26996 2.4797 2.56898 2.14011 2.0691 1.71368 1.70165 1.82815 1.89754 1.60292 1.54911 1.09688 1.14801 1.19436 1.24746 1.06798 1.02369 0.478579 0.610775 0.553035 0.595196 0.553425 0.510919 21.4357 18.3428 13.314 13.314 15.6764 12.7806 33.5593 22.0751 30.2698 30.22 24.2198 21.1802 39.0155 26.9496 37.8263 37.8853 28.5464 25.7238 39.6387 29.0492 39.651 39.9054 28.9061 26.8653 36.9711 28.0732 37.7537 37.6881 27.5351 25.4294 34.5019 26.9242 35.5963 35.8377 26.0296 23.9208 32.1056 25.5871 33.3316 33.8236 24.4374 22.4109 29.7696 24.0794 31.021 31.6583 22.7897 20.903 27.516 22.4696 28.7327 29.4297 21.1333 19.4163 25.3707 20.8296 26.5193 27.2185 19.5168 17.9796 23.3538 19.2235 24.4197 25.0875 17.9762 16.6156 21.4728 17.6906 22.4526 23.0728 16.5302 15.3366 19.7278 16.2544 20.6245 21.1906 15.1913 14.1492 18.1126 14.9242 18.9299 19.4434 13.9564 13.0517 16.6169 13.6991 17.3629 17.8262 12.8228 12.0405 15.2284 12.5728 15.9091 16.3267 11.7824 11.1068 13.9359 11.5377 14.557 14.9345 10.826 10.2431 12.7284 10.5829 13.2954 13.6379 9.94236 9.44108 11.5938 9.69513 12.1119 12.4222 9.12001 8.68907 10.5249 8.86629 10.9986 11.2806 8.35136 7.98179 9.51255 8.0845 9.94291 10.1985 7.62452 7.30765 8.5472 7.34008 8.93792 9.1695 6.93013 6.65885 7.62426 6.62434 7.97631 8.18525 6.26196 6.03064 6.73701 5.9298 7.05384 7.24107 5.61083 5.41388 5.88169 5.2509 6.16409 6.33091 4.97304 4.8077 5.05571 4.5812 5.30135 5.44693 4.34314 4.20343 4.25572 3.92203 4.47177 4.59924 3.71968 3.60402 3.4822 3.26672 3.6671 3.77574 3.09809 3.00404 2.74003 2.6266 2.89592 2.98647 2.48724 2.41109 2.02528 1.99484 2.1596 2.23427 1.87971 1.81825 1.33435 1.36651 1.44916 1.50985 1.26769 1.22031 0.646429 0.713707 0.732034 0.777161 0.635447 0.587046 33.0491 18.2902 26.5913 26.5913 18.74 18.5814 44.6241 27.1135 41.8564 40.5912 28.2607 28.3085 49.6274 31.1964 48.8134 47.2645 31.6796 31.5884 49.9006 31.829 50.0577 48.7413 31.6612 31.3997 47.4314 30.2454 48.0935 47.0813 29.578 29.3693 43.6302 28.5045 44.5223 43.6151 27.5889 27.2881 40.1413 26.6828 41.1471 40.4839 25.6669 25.3005 36.8745 24.8281 37.8931 37.4351 23.7993 23.4099 33.8189 23.0019 34.7959 34.4848 22.0075 21.6267 30.9718 21.251 31.8857 31.6745 20.3152 19.9611 28.3312 19.6068 29.179 29.0357 18.7387 18.4193 25.8955 18.0832 26.6775 26.5816 17.2837 16.9998 23.65 16.6824 24.3726 24.3122 15.9476 15.6964 21.5845 15.3983 22.252 22.22 14.7244 14.5008 19.679 14.2216 20.3007 20.2936 13.6014 13.3993 17.9186 13.1365 18.4969 18.5131 12.5648 12.3792 16.2877 12.1295 16.8283 16.8656 11.6022 11.4305 14.7727 11.1922 15.278 15.3331 10.7045 10.5413 13.3587 10.3074 13.832 13.905 9.85571 9.69974 12.0362 9.46934 12.4789 12.566 9.05022 8.89856 10.7914 8.66205 11.2051 11.305 8.27585 8.13069 9.61968 7.88202 10.0054 10.1128 7.52615 7.38682 8.51061 7.1211 8.86661 8.97886 6.79581 6.66344 7.45824 6.37563 7.78626 7.9 6.07882 5.95543 6.45813 5.63984 6.75748 6.86833 5.37146 5.2569 5.50258 4.90361 5.77151 5.8778 4.66741 4.5666 4.59053 4.18032 4.83084 4.92651 3.96968 3.8817 3.71812 3.46275 3.92883 4.01362 3.28024 3.2047 2.89423 2.76025 3.07484 3.1485 2.60453 2.54316 2.11643 2.07912 2.2721 2.3322 1.94325 1.89384 1.38785 1.41118 1.52304 1.57113 1.2937 1.25671 0.722013 0.720989 0.807735 0.840044 0.633188 0.610074 49.1441 30.8159 42.7762 42.7762 32.5048 33.6174 60.5187 40.8903 57.7779 55.9362 41.8499 43.5326 64.888 44.6471 64.167 61.7644 44.7918 46.448 64.2071 44.3541 64.3683 62.095 44.0487 45.4773 60.8407 41.9289 61.4451 59.5086 41.3911 42.6057 56.2399 38.589 57.0466 55.4195 37.9745 39.058 51.3393 35.5256 52.2094 50.7941 34.8372 35.7793 46.8115 32.6027 47.7017 46.5022 31.9109 32.7279 42.6382 29.8409 43.4983 42.4847 29.186 29.8982 38.7911 27.2659 39.6013 38.7407 26.6595 27.2835 35.2484 24.891 36.0032 35.2692 24.33 24.8762 31.989 22.7126 32.6901 32.0641 22.1937 22.6699 28.9916 20.722 29.6442 29.1123 20.237 20.6482 26.2353 18.9033 26.846 26.3982 18.4481 18.7981 23.6991 17.2416 24.2735 23.9016 16.8076 17.1001 21.3614 15.7173 21.9044 21.6011 15.3028 15.5409 19.2062 14.3159 19.7216 19.4811 13.9165 14.1031 17.2157 13.0187 17.7058 17.5224 12.6341 12.7743 15.3748 11.8161 15.8409 15.7077 11.4438 11.5404 13.6691 10.6923 14.1138 14.0264 10.333 10.392 12.0868 9.63824 12.5092 12.4603 9.29161 9.31662 10.6184 8.64536 11.0203 11.0055 8.31233 8.30837 9.25249 7.69957 9.63315 9.6467 7.38374 7.35733 7.98418 6.79624 8.34021 8.3749 6.49749 6.45631 6.80354 5.93056 7.13454 7.18247 5.65113 5.59864 5.70262 5.09277 6.00615 6.06369 4.83608 4.77882 4.67651 4.28122 4.95269 5.01325 4.04697 3.99018 3.71855 3.48873 3.96363 4.02204 3.27923 3.22829 2.83092 2.72532 3.04582 3.09688 2.54218 2.49817 2.00897 1.99689 2.19516 2.23825 1.8354 1.80106 1.27136 1.31603 1.43304 1.46581 1.17224 1.152 0.699987 0.695167 0.785501 0.799507 0.615182 0.624138 69.2322 48.0908 60.9716 60.9716 50.9256 52.7854 80.5309 58.7144 77.5172 75.1319 59.9707 62.552 83.5699 62.2298 82.9515 79.97 62.405 64.9695 81.0713 60.9884 81.3019 78.454 60.7348 63.0532 76.0965 57.4832 76.7431 74.2359 57.0131 59.0569 70.1326 53.0103 70.9871 68.8254 52.4561 54.2624 63.974 48.3674 64.9048 63.0305 47.8079 49.4201 58.0775 44.0743 59.0066 57.3611 43.5048 44.9413 52.6698 40.0795 53.5657 52.1245 39.5341 40.8115 47.7088 36.3802 48.554 47.2931 35.8706 37.005 43.1535 32.9689 43.9421 42.8394 32.4969 33.5026 38.9646 29.8338 39.6974 38.734 29.3953 30.2833 35.1097 26.9579 35.793 34.9544 26.5468 27.326 31.5614 24.3233 32.1998 31.4742 23.9327 24.6108 28.2933 21.9074 28.8943 28.2719 21.5322 22.117 25.282 19.6895 25.8501 25.3213 19.3251 19.8232 22.5066 17.6537 23.0471 22.604 17.2966 17.7142 19.9505 15.7823 20.4639 20.099 15.431 15.775 17.5938 14.0596 18.0871 17.7926 13.7135 13.9895 15.4257 12.4751 15.896 15.6654 12.1322 12.3471 13.4289 11.011 13.8835 13.7093 10.6731 10.833 11.5973 9.66353 12.0296 11.9051 9.32976 9.44104 9.91588 8.4178 10.3297 10.2487 8.08982 8.15968 8.37937 7.2659 8.77228 8.72726 6.94812 6.98245 6.9784 6.1979 7.35125 7.33651 5.89299 5.90124 5.70645 5.20564 6.05319 6.05919 4.91682 4.90537 4.55553 4.27997 4.8747 4.89548 4.00929 3.98707 3.52003 3.41137 3.80827 3.83561 3.16404 3.13599 2.59144 2.59859 2.84651 2.8763 2.3758 2.34931 1.7702 1.84019 1.99313 2.01889 1.6402 1.61795 1.06083 1.16232 1.25489 1.27535 0.9806 0.965745 0.593762 0.687816 0.693616 0.705487 0.615545 0.624985 94.0844 68.8087 81.6945 81.6945 74.2118 76.9034 106.138 79.9657 101.993 98.8278 81.8236 84.8847 105.352 82.7887 104.747 101.566 82.9981 85.8184 99.3588 80.0298 99.7112 96.9326 79.7516 82.2511 92.0434 75.0132 92.8037 90.407 74.486 76.6891 84.3942 69.1222 85.3761 83.2994 68.4662 70.4135 76.8468 63.0724 77.9271 76.1127 62.3779 64.1077 69.6811 57.2746 70.7662 69.1661 56.5954 58.1389 63.0576 51.9223 64.0895 62.6681 51.2749 52.6524 56.9973 46.9848 57.9607 56.698 46.3794 47.6065 51.4323 42.4343 52.3243 51.2049 41.8742 42.965 46.3099 38.2429 47.1342 46.1443 37.7257 38.691 41.5868 34.3857 42.349 41.4775 33.9049 34.7551 37.2308 30.8352 37.9375 37.1744 30.3858 31.1312 33.2084 27.5692 33.8705 33.2054 27.1438 27.7918 29.4996 24.5643 30.1181 29.5436 24.1582 24.7167 26.0767 21.8 26.6614 26.1698 21.408 21.8844 22.9226 19.2564 23.4758 23.0598 18.8779 19.2794 20.0169 16.9216 20.5449 20.1971 16.5494 16.8826 17.3481 14.7755 17.849 17.563 14.4126 14.6826 14.8961 12.8139 15.3771 15.148 12.4524 12.6648 12.6544 11.0166 13.1141 12.9369 10.6636 10.8257 10.6164 9.38028 11.0569 10.9238 9.03116 9.14806 8.76799 7.89496 9.18671 9.09293 7.55222 7.63015 7.10534 6.55546 7.50529 7.44514 6.21834 6.26248 5.62298 5.34687 5.99988 5.96844 5.02216 5.03881 4.31927 4.26853 4.67005 4.66133 3.95841 3.95461 3.19163 3.30737 3.51346 3.52121 3.01749 3.00064 2.24147 2.45427 2.52526 2.54301 2.18921 2.16774 1.47001 1.71009 1.71304 1.73386 1.47204 1.4501 0.905876 1.08512 1.09081 1.11141 0.874768 0.856715 0.5753 0.700524 0.675446 0.687496 0.61027 0.602151 
SCALARS volume float 1
LOOKUP_TABLE default
0.000304221 0.000280134 0.000296026 0.000296026 0.000295746 0.00028805 0.000329366 0.0003019 0.000320335 0.000332847 0.000308204 0.000297684 0.00033054 0.000302658 0.000320386 0.000332581 0.000310814 0.000300575 0.000329862 0.000304493 0.000321529 0.000332719 0.000311723 0.000302528 0.000328889 0.000306784 0.000322786 0.000332665 0.000312281 0.000304262 0.000328002 0.000309089 0.000323873 0.000332429 0.000312852 0.000305929 0.000327298 0.000311208 0.000324726 0.000332081 0.000313521 0.000307551 0.000326783 0.00031308 0.000325357 0.000331677 0.000314283 0.000309123 0.000326424 0.000314706 0.000325807 0.000331249 0.00031511 0.000310633 0.000326182 0.000316111 0.000326116 0.000330819 0.000315968 0.000312067 0.000326028 0.000317332 0.000326317 0.000330399 0.000316829 0.000313422 0.00032593 0.000318397 0.000326443 0.000329994 0.000317668 0.000314689 0.000325868 0.000319336 0.000326514 0.000329607 0.000318474 0.000315872 0.000325831 0.000320165 0.000326544 0.000329237 0.000319238 0.000316969 0.000325806 0.000320907 0.000326548 0.000328887 0.000319954 0.000317986 0.00032579 0.000321568 0.000326534 0.000328557 0.00032062 0.000318923 0.000325773 0.000322161 0.000326503 0.000328242 0.000321235 0.000319784 0.000325758 0.000322694 0.000326463 0.000327946 0.000321803 0.000320575 0.000325744 0.000323172 0.000326416 0.000327667 0.000322321 0.000321297 0.000325727 0.000323601 0.000326363 0.000327404 0.000322798 0.000321956 0.000325709 0.000323984 0.000326304 0.000327159 0.000323232 0.000322556 0.000325685 0.000324323 0.00032624 0.000326925 0.000323626 0.000323098 0.000325664 0.000324624 0.000326176 0.000326708 0.000323978 0.000323584 0.000325638 0.000324887 0.000326106 0.000326503 0.000324295 0.000324018 0.000325612 0.000325109 0.000326034 0.000326312 0.00032458 0.000324403 0.000325582 0.0003253 0.000325958 0.000326136 0.000324828 0.000324738 0.000325558 0.00032545 0.00032588 0.00032597 0.000325044 0.000325023 0.000325538 0.000325567 0.000325803 0.000325824 0.000325233 0.000325259 0.000325518 0.00032564 0.00032572 0.000325694 0.000325385 0.000325439 0.000325498 0.000325673 0.000325638 0.000325583 0.000325499 0.000325556 0.000325474 0.000325659 0.000325555 0.000325498 0.00032557 0.00032561 0.000325431 0.000325595 0.000325487 0.000325446 0.000325529 0.000325585 0.000317914 0.000304094 0.000312943 0.000312943 0.000312605 0.000299559 0.000328873 0.000307746 0.000323668 0.00033415 0.000316195 0.00030494 0.000331337 0.000307944 0.000323499 0.000334687 0.000317457 0.000307568 0.000330485 0.000309711 0.00032387 0.000334007 0.000317637 0.000308857 0.000329513 0.000311625 0.000324479 0.000333638 0.000317509 0.000309699 0.000328748 0.000313397 0.000325141 0.000333357 0.000317428 0.000310477 0.000328187 0.000314963 0.000325736 0.000333067 0.000317509 0.000311321 0.000327784 0.000316325 0.000326212 0.000332736 0.000317761 0.00031225 0.000327491 0.000317505 0.000326562 0.000332361 0.00031815 0.000313238 0.000327272 0.000318529 0.000326798 0.000331952 0.00031863 0.000314257 0.000327104 0.000319421 0.000326944 0.000331518 0.000319167 0.000315274 0.000326968 0.000320204 0.000327017 0.000331075 0.000319724 0.000316265 0.000326852 0.000320897 0.000327039 0.000330631 0.00032028 0.000317215 0.000326751 0.00032151 0.000327022 0.000330194 0.000320821 0.000318117 0.000326657 0.000322059 0.000326979 0.000329768 0.000321337 0.000318963 0.000326569 0.000322551 0.000326918 0.000329359 0.000321822 0.00031975 0.000326484 0.000322992 0.000326844 0.000328968 0.000322274 0.000320478 0.000326403 0.000323387 0.000326761 0.000328596 0.000322692 0.00032115 0.000326323 0.000323741 0.000326673 0.000328244 0.000323076 0.000321768 0.000326244 0.000324059 0.000326584 0.000327913 0.000323428 0.000322331 0.000326168 0.000324343 0.000326489 0.000327601 0.00032375 0.000322846 0.000326094 0.000324594 0.000326398 0.000327312 0.00032404 0.000323312 0.000326024 0.000324813 0.000326306 0.00032704 0.000324303 0.000323729 0.000325953 0.000325005 0.000326214 0.000326792 0.000324537 0.000324101 0.000325889 0.000325167 0.000326123 0.000326561 0.000324745 0.00032443 0.000325824 0.000325304 0.000326032 0.000326348 0.000324928 0.000324712 0.000325767 0.000325409 0.000325942 0.000326157 0.000325087 0.000324955 0.000325714 0.000325488 0.000325854 0.000325985 0.000325221 0.000325149 0.000325667 0.000325541 0.000325769 0.00032584 0.000325338 0.00032531 0.000325624 0.000325574 0.000325687 0.000325715 0.000325433 0.000325428 0.000325571 0.000325602 0.000325605 0.00032561 0.000325521 0.000325531 0.000325484 0.000325654 0.00032552 0.00032551 0.000325598 0.000325628 0.000327249 0.000312056 0.000325229 0.000325229 0.000317272 0.000304907 0.000330343 0.000315383 0.00032667 0.00033688 0.000319988 0.000310927 0.00033101 0.000312904 0.000326146 0.000334573 0.000320221 0.000311817 0.000330911 0.000314089 0.000326184 0.000334671 0.000320379 0.000312578 0.000330182 0.000315491 0.000326297 0.000334362 0.000320364 0.000313136 0.000329536 0.000316763 0.000326515 0.000334062 0.000320318 0.000313655 0.000329048 0.000317866 0.000326771 0.000333752 0.00032033 0.000314226 0.000328687 0.000318818 0.000327007 0.000333404 0.000320435 0.000314873 0.00032841 0.000319641 0.00032719 0.000333012 0.00032063 0.000315585 0.000328185 0.000320361 0.000327313 0.000332581 0.000320897 0.000316341 0.000327992 0.000320993 0.000327376 0.000332121 0.000321212 0.000317114 0.000327819 0.000321554 0.00032739 0.000331646 0.000321557 0.000317885 0.000327656 0.000322053 0.000327363 0.000331165 0.000321912 0.000318635 0.0003275 0.0003225 0.000327306 0.000330688 0.000322267 0.000319357 0.000327351 0.000322902 0.000327227 0.000330221 0.000322612 0.000320039 0.000327205 0.000323263 0.000327131 0.00032977 0.000322941 0.000320683 0.000327062 0.000323589 0.000327026 0.000329335 0.000323251 0.000321282 0.000326927 0.000323882 0.000326915 0.000328923 0.000323541 0.00032184 0.000326793 0.000324146 0.000326801 0.000328532 0.00032381 0.000322351 0.000326664 0.000324383 0.000326684 0.000328164 0.000324053 0.000322819 0.00032654 0.000324594 0.00032657 0.00032782 0.000324281 0.000323249 0.000326421 0.000324782 0.000326457 0.000327499 0.000324483 0.000323634 0.000326308 0.000324946 0.000326346 0.000327201 0.000324668 0.000323986 0.000326204 0.000325089 0.000326238 0.000326924 0.000324831 0.000324294 0.000326102 0.000325211 0.000326134 0.000326673 0.000324978 0.000324567 0.000326006 0.00032531 0.000326033 0.000326445 0.000325103 0.000324804 0.000325919 0.000325389 0.000325936 0.000326236 0.000325215 0.000325007 0.000325837 0.000325448 0.000325845 0.000326052 0.000325309 0.000325175 0.000325768 0.000325491 0.000325759 0.000325893 0.00032539 0.000325309 0.000325701 0.000325519 0.000325678 0.000325758 0.000325456 0.000325417 0.000325633 0.000325547 0.000325604 0.000325643 0.000325513 0.000325507 0.000325545 0.000325607 0.000325536 0.000325541 0.000325571 0.000325606 0.000335035 0.000318465 0.000336208 0.000336208 0.000320724 0.000309277 0.000332854 0.000318742 0.000330053 0.000340074 0.000321948 0.000313524 0.000331824 0.000318098 0.000328907 0.000336854 0.000322561 0.000315004 0.000331294 0.000318269 0.0003283 0.000335849 0.000322744 0.000315448 0.000330867 0.000319085 0.000328004 0.000335508 0.00032286 0.00031588 0.000330378 0.000319898 0.000327853 0.000335101 0.000322903 0.00031631 0.000329961 0.000320605 0.000327807 0.000334675 0.000322921 0.000316767 0.000329622 0.000321208 0.000327811 0.000334225 0.000322954 0.000317266 0.00032934 0.000321727 0.000327825 0.000333745 0.000323023 0.000317805 0.00032909 0.000322178 0.000327822 0.000333242 0.000323127 0.000318375 0.00032886 0.000322577 0.000327794 0.00033272 0.000323264 0.000318958 0.000328638 0.000322932 0.000327737 0.000332187 0.000323424 0.000319545 0.000328423 0.000323249 0.000327654 0.000331654 0.000323598 0.00032012 0.000328211 0.000323538 0.00032755 0.000331126 0.000323779 0.000320677 0.000328002 0.000323797 0.00032743 0.000330611 0.000323961 0.00032121 0.000327798 0.000324033 0.0003273 0.000330113 0.00032414 0.000321716 0.000327599 0.000324245 0.000327163 0.000329636 0.000324309 0.000322186 0.000327407 0.000324439 0.000327021 0.000329181 0.000324473 0.000322628 0.00032722 0.000324614 0.00032688 0.000328753 0.000324623 0.000323035 0.000327041 0.000324768 0.000326739 0.000328348 0.000324762 0.00032341 0.00032687 0.000324908 0.000326603 0.00032797 0.000324889 0.00032375 0.00032671 0.000325032 0.000326467 0.000327616 0.000325004 0.000324058 0.000326555 0.00032514 0.000326341 0.000327294 0.000325108 0.000324337 0.00032641 0.000325231 0.000326218 0.000326994 0.000325201 0.000324583 0.000326276 0.00032531 0.000326101 0.000326721 0.000325282 0.0003248 0.000326148 0.000325375 0.000325992 0.000326474 0.00032535 0.000324987 0.000326032 0.000325425 0.000325889 0.000326252 0.000325409 0.000325145 0.000325925 0.000325464 0.000325795 0.000326058 0.000325458 0.000325275 0.000325824 0.000325483 0.000325706 0.000325888 0.000325492 0.00032538 0.00032574 0.000325492 0.000325631 0.000325743 0.000325515 0.000325461 0.000325666 0.000325494 0.000325574 0.000325628 0.000325522 0.000325516 0.000325604 0.000325511 0.00032554 0.000325545 0.000325519 0.000325556 0.00034242 0.00032404 0.000346967 0.000346967 0.000323159 0.000312811 0.000335689 0.000320919 0.000333561 0.000343123 0.000323271 0.000315224 0.000333225 0.000321664 0.000331772 0.000339551 0.000324257 0.00031695 0.000332216 0.000322066 0.000330497 0.000337832 0.000324887 0.000317819 0.000331712 0.000322384 0.000329686 0.000336927 0.000325186 0.000318294 0.000331344 0.000322777 0.000329189 0.000336313 0.00032532 0.000318716 0.000330988 0.000323137 0.000328873 0.000335718 0.000325354 0.000319123 0.000330658 0.000323441 0.000328663 0.000335121 0.000325336 0.000319533 0.000330352 0.000323696 0.000328511 0.000334519 0.000325301 0.00031995 0.000330057 0.000323916 0.000328379 0.00033391 0.000325272 0.000320375 0.00032977 0.00032411 0.000328251 0.0003333 0.000325256 0.000320805 0.000329487 0.000324282 0.000328113 0.000332694 0.000325255 0.000321234 0.000329206 0.000324437 0.000327965 0.000332094 0.000325268 0.000321654 0.000328927 0.000324578 0.000327806 0.000331508 0.000325292 0.000322063 0.000328652 0.000324707 0.000327639 0.00033094 0.000325325 0.000322454 0.000328386 0.000324825 0.000327465 0.000330392 0.00032536 0.000322826 0.000328124 0.000324931 0.00032729 0.000329868 0.000325399 0.000323175 0.000327869 0.000325028 0.000327113 0.000329371 0.00032544 0.000323502 0.000327627 0.000325117 0.00032694 0.000328902 0.000325478 0.000323807 0.000327394 0.000325194 0.00032677 0.000328459 0.000325512 0.000324083 0.000327173 0.000325264 0.000326606 0.000328048 0.000325545 0.000324338 0.000326964 0.000325323 0.000326451 0.000327667 0.000325576 0.000324569 0.000326768 0.000325376 0.000326302 0.000327315 0.000325597 0.00032477 0.000326585 0.00032542 0.000326163 0.000326994 0.000325617 0.000324952 0.000326412 0.000325454 0.000326036 0.000326703 0.000325633 0.000325108 0.000326255 0.000325483 0.000325917 0.000326442 0.000325642 0.000325241 0.000326113 0.000325503 0.000325813 0.000326213 0.000325647 0.000325353 0.00032598 0.000325513 0.000325717 0.000326011 0.000325644 0.00032544 0.000325859 0.000325514 0.000325632 0.000325835 0.000325633 0.000325506 0.000325754 0.000325496 0.000325563 0.000325689 0.000325605 0.000325544 0.000325676 0.000325458 0.000325523 0.000325583 0.000325551 0.000325543 0.000325644 0.000325402 0.000325525 0.000325532 0.000325465 0.000325493 0.000350207 0.000328515 0.00035814 0.00035814 0.000324394 0.000315376 0.000338418 0.000322578 0.000337027 0.000345823 0.000324239 0.000316726 0.000334864 0.000324522 0.000334667 0.00034209 0.000325696 0.000318613 0.000333562 0.000325164 0.000332789 0.000339952 0.000326765 0.000319818 0.000332965 0.00032533 0.00033148 0.000338595 0.000327344 0.000320539 0.000332584 0.00032538 0.000330616 0.000337623 0.000327585 0.000321018 0.000332242 0.000325431 0.000330036 0.00033681 0.000327633 0.000321407 0.000331886 0.000325472 0.00032962 0.00033604 0.00032757 0.000321752 0.000331523 0.000325505 0.000329303 0.000335293 0.000327449 0.000322074 0.000331157 0.000325527 0.000329039 0.000334564 0.000327303 0.000322378 0.000330786 0.000325543 0.000328798 0.000333852 0.000327153 0.000322674 0.000330419 0.000325558 0.00032857 0.000333157 0.000327012 0.000322961 0.000330052 0.000325572 0.000328342 0.000332483 0.000326883 0.00032324 0.000329691 0.000325585 0.000328114 0.000331829 0.000326767 0.000323509 0.000329336 0.000325598 0.000327887 0.000331203 0.000326661 0.000323768 0.00032899 0.000325608 0.000327661 0.0003306 0.000326572 0.000324013 0.000328655 0.00032562 0.000327435 0.000330029 0.00032649 0.000324244 0.000328334 0.000325629 0.000327215 0.000329487 0.000326415 0.00032446 0.000328025 0.000325636 0.000327002 0.000328977 0.000326348 0.000324658 0.000327734 0.000325644 0.000326797 0.000328501 0.000326288 0.000324843 0.000327458 0.000325646 0.000326602 0.000328056 0.000326229 0.000325007 0.000327198 0.000325648 0.000326418 0.000327646 0.000326173 0.000325156 0.000326953 0.000325645 0.000326247 0.000327268 0.00032612 0.000325285 0.00032673 0.000325643 0.00032609 0.000326927 0.000326071 0.000325395 0.00032652 0.000325635 0.000325944 0.00032662 0.000326017 0.000325488 0.000326331 0.000325626 0.000325818 0.000326347 0.000325968 0.000325561 0.000326156 0.000325609 0.000325705 0.000326112 0.000325912 0.000325616 0.000326002 0.000325593 0.000325614 0.000325909 0.000325857 0.000325651 0.000325864 0.000325568 0.000325538 0.000325743 0.000325796 0.000325669 0.000325747 0.000325529 0.000325484 0.00032561 0.00032572 0.000325658 0.000325658 0.000325453 0.000325454 0.000325516 0.000325606 0.000325598 0.00032564 0.000325322 0.000325487 0.000325494 0.00032544 0.000325446 0.000358837 0.00033125 0.000369951 0.000369951 0.000324013 0.000316579 0.000340571 0.00032414 0.000340208 0.000348019 0.000325046 0.000318375 0.000336675 0.000327108 0.000337492 0.000344203 0.00032707 0.000320484 0.000335403 0.00032781 0.000335166 0.000341868 0.000328512 0.000321909 0.000334785 0.00032781 0.000333454 0.000340214 0.000329323 0.000322813 0.000334339 0.000327621 0.000332263 0.000338939 0.000329673 0.000323382 0.000333909 0.000327415 0.000331422 0.000337873 0.000329731 0.000323764 0.000333457 0.000327237 0.000330801 0.000336914 0.000329621 0.000324046 0.000332979 0.000327083 0.00033031 0.000336013 0.00032942 0.000324271 0.000332488 0.000326945 0.000329897 0.000335155 0.000329173 0.000324459 0.000331996 0.000326822 0.000329528 0.000334335 0.000328909 0.000324625 0.000331503 0.000326711 0.000329185 0.000333546 0.000328647 0.000324776 0.000331021 0.000326608 0.000328858 0.000332792 0.000328395 0.000324919 0.000330549 0.000326514 0.000328542 0.00033207 0.000328158 0.000325053 0.00033009 0.000326431 0.000328235 0.000331381 0.000327937 0.000325179 0.000329648 0.000326353 0.000327935 0.000330725 0.00032773 0.000325298 0.000329226 0.000326282 0.000327649 0.000330104 0.000327543 0.000325411 0.00032882 0.000326215 0.00032737 0.00032952 0.000327367 0.000325514 0.000328435 0.000326153 0.000327104 0.00032897 0.000327204 0.000325607 0.000328072 0.000326093 0.000326851 0.000328456 0.000327052 0.000325691 0.00032773 0.000326037 0.000326614 0.00032798 0.000326913 0.000325767 0.000327413 0.000325987 0.000326394 0.000327544 0.000326782 0.000325831 0.000327116 0.000325937 0.000326191 0.000327143 0.000326655 0.00032588 0.000326842 0.000325886 0.000326006 0.000326781 0.000326535 0.000325918 0.000326592 0.000325839 0.000325842 0.000326458 0.000326423 0.000325941 0.000326363 0.000325792 0.000325698 0.000326179 0.00032631 0.000325951 0.000326166 0.000325746 0.000325581 0.000325939 0.000326201 0.000325942 0.000325985 0.000325699 0.000325489 0.000325747 0.000326089 0.000325917 0.000325833 0.000325645 0.000325425 0.000325597 0.000325972 0.000325871 0.000325713 0.000325584 0.000325392 0.000325492 0.000325848 0.0003258 0.000325624 0.000325491 0.000325386 0.000325434 0.000325695 0.000325685 0.000325584 0.000325305 0.000325424 0.000325433 0.000325458 0.000325437 0.000361078 0.000330062 0.000377854 0.000377854 0.000320535 0.000312971 0.000344089 0.000325929 0.000341416 0.000350838 0.000325856 0.00031982 0.00033988 0.000329489 0.000339908 0.000346151 0.000328508 0.000322942 0.00033848 0.000329962 0.00033773 0.000343416 0.000330189 0.000324673 0.000337704 0.000329703 0.000335902 0.000341505 0.00033111 0.00032568 0.000337045 0.000329302 0.000334511 0.00034 0.000331495 0.000326261 0.00033638 0.000328919 0.000333447 0.000338724 0.00033154 0.000326587 0.000335688 0.000328588 0.000332603 0.000337587 0.00033138 0.000326762 0.000334982 0.000328308 0.000331903 0.000336544 0.000331107 0.000326854 0.000334274 0.000328065 0.000331298 0.000335569 0.000330776 0.000326891 0.000333577 0.000327848 0.000330751 0.000334651 0.000330424 0.0003269 0.000332897 0.000327652 0.000330246 0.00033378 0.000330065 0.000326891 0.00033224 0.000327471 0.000329769 0.000332952 0.000329717 0.000326875 0.000331608 0.000327306 0.000329319 0.000332167 0.000329384 0.000326854 0.000331004 0.000327151 0.00032889 0.000331424 0.000329067 0.00032683 0.00033043 0.000327008 0.000328479 0.000330719 0.000328774 0.000326808 0.000329884 0.000326874 0.000328089 0.000330057 0.000328497 0.000326784 0.000329368 0.000326748 0.000327721 0.000329433 0.000328236 0.000326759 0.000328882 0.000326631 0.000327371 0.000328848 0.000327994 0.000326731 0.000328425 0.000326521 0.000327044 0.000328305 0.000327768 0.000326704 0.000328 0.000326418 0.000326738 0.000327801 0.000327555 0.000326672 0.000327604 0.00032632 0.000326458 0.000327339 0.000327356 0.000326637 0.000327239 0.000326229 0.000326201 0.000326918 0.000327168 0.000326597 0.000326906 0.000326144 0.000325973 0.000326543 0.00032699 0.00032655 0.000326604 0.000326062 0.00032577 0.000326209 0.000326819 0.000326494 0.000326334 0.000325983 0.0003256 0.000325924 0.000326654 0.000326427 0.0003261 0.000325907 0.00032546 0.000325687 0.000326495 0.000326351 0.000325896 0.000325829 0.000325361 0.000325505 0.000326328 0.000326249 0.000325733 0.000325748 0.000325299 0.000325378 0.000326158 0.000326124 0.000325617 0.000325658 0.000325283 0.000325316 0.00032598 0.000325974 0.000325549 0.00032555 0.000325313 0.000325319 0.000325788 0.000325788 0.000325534 0.00032538 0.000325379 0.00032538 0.00032554 0.000325522 0.000310485 0.000279619 0.000295839 0.000295839 0.000301129 0.000294551 0.000324797 0.0002958 0.000318543 0.000326453 0.000302669 0.000294152 0.000325995 0.000302521 0.000321232 0.000331674 0.000305665 0.000296419 0.000326645 0.000305175 0.000322532 0.000333009 0.000307705 0.000298865 0.00032673 0.000307488 0.000323647 0.000333345 0.000309377 0.000301325 0.000326584 0.000309632 0.000324498 0.000333188 0.000310879 0.000303694 0.00032638 0.00031158 0.000325113 0.000332789 0.000312261 0.000305906 0.000326192 0.000313315 0.000325543 0.000332283 0.000313538 0.000307936 0.000326042 0.000314845 0.00032584 0.000331746 0.00031472 0.000309785 0.000325935 0.00031619 0.000326041 0.000331217 0.00031581 0.000311462 0.000325861 0.000317373 0.000326174 0.000330713 0.000316815 0.000312986 0.000325816 0.00031842 0.000326261 0.000330241 0.000317745 0.000314375 0.000325788 0.000319348 0.000326313 0.000329801 0.000318602 0.000315642 0.000325772 0.000320173 0.000326339 0.000329393 0.000319392 0.000316801 0.000325763 0.000320911 0.000326348 0.000329012 0.000320121 0.000317862 0.000325757 0.000321572 0.000326342 0.000328657 0.000320789 0.00031883 0.000325752 0.000322168 0.000326325 0.000328327 0.000321404 0.000319719 0.000325745 0.000322699 0.000326299 0.000328017 0.000321968 0.00032053 0.000325737 0.000323179 0.000326265 0.000327728 0.000322482 0.000321268 0.000325727 0.000323606 0.000326225 0.000327457 0.000322952 0.000321943 0.000325716 0.000323987 0.00032618 0.000327201 0.00032338 0.000322555 0.0003257 0.000324327 0.00032613 0.000326964 0.000323767 0.000323107 0.000325682 0.000324628 0.000326075 0.00032674 0.000324117 0.000323604 0.000325663 0.000324886 0.000326015 0.000326531 0.000324433 0.000324051 0.000325642 0.000325109 0.000325949 0.000326333 0.000324711 0.000324441 0.00032562 0.000325295 0.000325881 0.000326151 0.00032496 0.000324785 0.000325594 0.000325447 0.000325808 0.000325984 0.000325173 0.000325074 0.000325571 0.000325558 0.000325731 0.000325831 0.000325356 0.000325314 0.000325547 0.00032563 0.000325656 0.000325698 0.000325497 0.000325493 0.00032552 0.000325658 0.000325578 0.000325582 0.000325597 0.00032561 0.000325484 0.000325646 0.000325506 0.000325494 0.00032563 0.000325644 0.000325428 0.000325573 0.00032545 0.000325435 0.000325548 0.000325577 0.000321836 0.000305268 0.000311796 0.000311796 0.000320258 0.000313217 0.000320529 0.0002997 0.000316494 0.000323367 0.000305585 0.000294777 0.000327433 0.000307264 0.000323107 0.000335177 0.000311685 0.000301034 0.000327807 0.00030974 0.000323804 0.000335294 0.0003136 0.000303911 0.000327562 0.000311677 0.000324466 0.000334812 0.000314614 0.000305972 0.000327278 0.000313367 0.000325075 0.000334259 0.000315388 0.000307723 0.00032705 0.000314854 0.000325578 0.000333694 0.000316106 0.000309311 0.000326881 0.000316159 0.000325963 0.000333132 0.000316819 0.000310788 0.000326756 0.000317307 0.000326243 0.000332581 0.000317532 0.000312173 0.000326662 0.000318317 0.000326433 0.000332046 0.000318239 0.000313469 0.000326587 0.000319211 0.000326553 0.00033153 0.000318926 0.000314681 0.000326525 0.000320004 0.000326622 0.000331035 0.000319586 0.000315812 0.00032647 0.000320713 0.000326652 0.000330561 0.00032021 0.000316864 0.000326419 0.000321345 0.000326655 0.000330109 0.000320797 0.00031784 0.000326368 0.000321913 0.000326634 0.000329678 0.000321344 0.000318742 0.000326317 0.000322422 0.000326598 0.000329268 0.00032185 0.000319574 0.000326267 0.000322881 0.000326554 0.000328882 0.000322318 0.000320342 0.000326216 0.000323293 0.000326501 0.000328517 0.000322747 0.000321046 0.000326165 0.000323662 0.000326442 0.000328172 0.000323139 0.000321691 0.000326112 0.000323991 0.000326377 0.000327847 0.000323498 0.000322279 0.000326058 0.000324286 0.000326309 0.000327544 0.000323824 0.000322815 0.000326006 0.000324547 0.000326239 0.00032726 0.000324118 0.000323298 0.000325953 0.000324776 0.000326169 0.000326996 0.000324384 0.000323734 0.000325902 0.000324972 0.000326095 0.000326749 0.00032462 0.00032412 0.000325852 0.000325138 0.000326018 0.000326521 0.000324831 0.00032446 0.000325801 0.000325279 0.000325943 0.000326314 0.000325017 0.000324758 0.000325754 0.00032539 0.000325866 0.000326126 0.000325175 0.000325007 0.000325711 0.000325472 0.000325789 0.000325957 0.000325312 0.000325214 0.00032567 0.000325527 0.000325716 0.000325814 0.000325418 0.00032537 0.00032563 0.000325562 0.000325645 0.000325693 0.000325504 0.000325489 0.000325578 0.000325589 0.000325575 0.000325589 0.000325567 0.00032557 0.000325493 0.000325631 0.0003255 0.000325496 0.000325609 0.000325637 0.000328235 0.0003119 0.000323703 0.000323703 0.000321921 0.000315332 0.000326305 0.000311777 0.000322908 0.000329561 0.000315514 0.000305008 0.000328013 0.000313128 0.000325087 0.000335702 0.000316999 0.00030669 0.000328987 0.000314378 0.000325652 0.000336418 0.000318082 0.000308747 0.000328745 0.000315724 0.000326002 0.000335793 0.00031866 0.000310224 0.000328412 0.000316923 0.00032629 0.000335148 0.000319058 0.000311452 0.000328147 0.000317962 0.000326553 0.000334536 0.00031942 0.000312571 0.00032795 0.000318865 0.000326773 0.00033395 0.000319799 0.000313639 0.000327798 0.000319658 0.000326938 0.000333379 0.000320202 0.000314666 0.000327671 0.000320359 0.000327046 0.000332818 0.000320623 0.000315654 0.000327555 0.000320982 0.000327103 0.000332268 0.00032105 0.000316598 0.000327444 0.000321538 0.000327116 0.000331731 0.000321474 0.000317493 0.000327334 0.000322039 0.000327098 0.000331211 0.000321886 0.000318339 0.000327224 0.000322489 0.000327053 0.000330708 0.000322279 0.00031913 0.000327112 0.000322893 0.00032699 0.000330224 0.000322648 0.000319868 0.000327 0.00032326 0.000326914 0.000329762 0.000322995 0.000320553 0.000326887 0.000323588 0.000326828 0.000329323 0.000323315 0.000321187 0.000326775 0.000323885 0.000326737 0.000328906 0.000323612 0.00032177 0.000326666 0.000324152 0.00032664 0.000328512 0.000323884 0.000322307 0.000326558 0.000324391 0.000326545 0.000328144 0.000324132 0.000322797 0.000326453 0.000324604 0.000326446 0.000327798 0.000324357 0.000323241 0.00032635 0.00032479 0.000326348 0.000327475 0.00032456 0.000323643 0.000326252 0.000324955 0.000326251 0.000327176 0.000324742 0.000324004 0.000326157 0.000325096 0.000326157 0.0003269 0.000324905 0.000324326 0.000326068 0.000325215 0.000326064 0.000326646 0.00032505 0.000324608 0.000325984 0.000325316 0.000325974 0.000326417 0.000325175 0.000324851 0.000325903 0.000325394 0.000325885 0.000326209 0.000325282 0.000325057 0.000325829 0.000325449 0.0003258 0.000326026 0.000325371 0.000325225 0.000325759 0.000325488 0.000325721 0.000325866 0.000325442 0.000325358 0.000325697 0.000325511 0.00032565 0.000325733 0.000325496 0.000325458 0.000325636 0.000325535 0.000325587 0.000325624 0.000325539 0.00032554 0.000325564 0.000325585 0.000325528 0.000325526 0.000325578 0.000325629 0.000333366 0.000317784 0.000334195 0.000334195 0.000322237 0.000316097 0.000331573 0.000317168 0.000329327 0.000335622 0.000320282 0.000310448 0.000330469 0.000318646 0.000328039 0.000337882 0.000321148 0.000311961 0.000329976 0.000318403 0.000327584 0.000336955 0.000321431 0.000312718 0.000329835 0.00031921 0.00032757 0.0003366 0.000321789 0.000313731 0.000329533 0.000319987 0.000327566 0.000335951 0.000322042 0.000314632 0.000329257 0.000320659 0.000327581 0.0003353 0.000322242 0.000315463 0.00032903 0.000321235 0.000327609 0.000334667 0.000322432 0.000316258 0.000328836 0.000321735 0.000327631 0.000334049 0.000322629 0.000317029 0.000328661 0.000322174 0.000327631 0.00033344 0.000322839 0.000317778 0.000328492 0.000322568 0.000327606 0.000332843 0.00032306 0.000318501 0.000328323 0.000322919 0.000327553 0.000332258 0.000323284 0.000319195 0.000328152 0.000323238 0.000327479 0.000331689 0.000323508 0.000319851 0.000327978 0.000323528 0.000327384 0.000331138 0.000323727 0.000320474 0.000327803 0.00032379 0.000327276 0.000330608 0.000323936 0.000321056 0.000327627 0.000324027 0.000327158 0.0003301 0.000324134 0.0003216 0.000327454 0.000324243 0.000327034 0.000329616 0.000324318 0.000322104 0.000327282 0.00032444 0.000326906 0.000329158 0.000324491 0.000322572 0.000327115 0.000324615 0.000326777 0.000328725 0.000324651 0.000323001 0.000326953 0.000324773 0.000326649 0.00032832 0.000324793 0.000323391 0.000326797 0.000324912 0.000326522 0.00032794 0.000324926 0.000323749 0.000326644 0.000325037 0.000326399 0.000327587 0.000325044 0.000324069 0.000326505 0.000325145 0.000326281 0.000327263 0.000325149 0.000324357 0.00032637 0.000325238 0.000326168 0.000326964 0.000325241 0.000324611 0.00032624 0.000325315 0.000326059 0.000326691 0.000325321 0.000324833 0.000326123 0.000325379 0.000325956 0.000326445 0.00032539 0.000325025 0.000326012 0.000325428 0.000325859 0.000326225 0.000325446 0.000325186 0.000325911 0.000325463 0.000325771 0.000326031 0.000325492 0.000325318 0.000325819 0.000325483 0.000325689 0.000325863 0.000325522 0.000325414 0.000325735 0.000325489 0.000325616 0.000325724 0.000325536 0.000325484 0.00032567 0.000325487 0.000325561 0.000325612 0.000325535 0.000325535 0.000325619 0.000325491 0.000325532 0.000325531 0.000325527 0.000325584 0.000338299 0.00032276 0.0003444 0.0003444 0.000321957 0.000316214 0.000336359 0.00032145 0.000335512 0.000341514 0.000323396 0.000314408 0.000333149 0.000321975 0.000331244 0.000340284 0.000324012 0.000315498 0.000331705 0.000322215 0.000329899 0.000338552 0.000324341 0.000316222 0.000331078 0.000322442 0.000329257 0.000337596 0.000324558 0.000316829 0.000330756 0.000322822 0.00032891 0.000336897 0.000324731 0.000317496 0.000330461 0.000323162 0.000328675 0.000336164 0.000324834 0.000318129 0.000330193 0.000323449 0.000328507 0.000335445 0.000324895 0.00031873 0.000329942 0.000323693 0.000328374 0.000334746 0.000324938 0.000319306 0.000329699 0.000323906 0.000328253 0.000334063 0.000324979 0.000319864 0.000329459 0.000324094 0.00032813 0.000333397 0.000325024 0.000320402 0.000329217 0.000324264 0.000328 0.00033275 0.000325074 0.000320916 0.000328973 0.00032442 0.000327858 0.000332122 0.00032513 0.000321407 0.000328726 0.000324563 0.000327706 0.000331515 0.000325189 0.00032187 0.00032848 0.000324694 0.000327546 0.000330933 0.000325247 0.000322306 0.000328236 0.000324815 0.000327382 0.000330378 0.000325306 0.000322715 0.000327995 0.000324923 0.000327213 0.000329846 0.000325362 0.000323094 0.00032776 0.000325023 0.000327046 0.000329346 0.000325414 0.000323445 0.000327533 0.000325112 0.00032688 0.000328874 0.000325463 0.000323769 0.000327312 0.000325192 0.000326719 0.000328431 0.000325506 0.000324062 0.000327102 0.000325263 0.000326561 0.000328018 0.000325545 0.000324329 0.000326905 0.000325325 0.000326413 0.000327638 0.000325576 0.000324569 0.000326717 0.000325379 0.000326273 0.000327286 0.000325607 0.000324783 0.000326539 0.000325422 0.000326139 0.000326967 0.000325628 0.000324969 0.000326376 0.000325458 0.000326016 0.000326676 0.000325642 0.00032513 0.000326225 0.000325485 0.000325902 0.000326415 0.000325653 0.000325267 0.000326086 0.000325503 0.000325801 0.000326187 0.000325657 0.000325376 0.000325959 0.000325514 0.000325707 0.000325989 0.000325655 0.000325461 0.000325844 0.000325512 0.000325624 0.000325818 0.000325643 0.000325523 0.000325746 0.000325496 0.000325556 0.000325675 0.000325614 0.000325553 0.000325677 0.000325453 0.000325511 0.000325572 0.000325562 0.000325552 0.00032565 0.000325393 0.000325506 0.000325515 0.00032548 0.00032552 0.000343675 0.000326542 0.000354933 0.000354933 0.000320732 0.000315474 0.00034068 0.000325146 0.000341456 0.000347079 0.000325662 0.000317708 0.000335744 0.000324712 0.000334478 0.000342545 0.000326238 0.000318422 0.000333657 0.000325195 0.000332333 0.000340285 0.000326768 0.000319131 0.000332702 0.000325373 0.000331113 0.00033893 0.000327077 0.0003197 0.000332193 0.000325409 0.000330356 0.000337936 0.000327215 0.000320195 0.000331834 0.000325452 0.000329857 0.00033708 0.000327246 0.000320674 0.000331497 0.000325484 0.00032949 0.000336251 0.000327204 0.000321119 0.000331164 0.000325506 0.000329198 0.00033545 0.00032712 0.000321537 0.000330832 0.000325522 0.000328948 0.000334676 0.000327017 0.000321931 0.0003305 0.000325535 0.000328718 0.000333927 0.000326911 0.000322305 0.000330165 0.000325548 0.000328496 0.000333205 0.000326809 0.00032266 0.00032983 0.00032556 0.000328276 0.00033251 0.000326714 0.000322996 0.000329495 0.000325573 0.000328055 0.000331842 0.000326628 0.000323313 0.000329166 0.000325586 0.000327833 0.000331203 0.00032655 0.00032361 0.000328842 0.000325598 0.000327612 0.000330595 0.000326477 0.000323888 0.000328526 0.000325611 0.000327394 0.000330016 0.000326414 0.000324147 0.00032822 0.000325622 0.000327178 0.000329471 0.000326354 0.000324385 0.000327927 0.000325631 0.000326971 0.000328959 0.000326298 0.000324603 0.000327645 0.000325639 0.000326771 0.00032848 0.000326244 0.0003248 0.000327378 0.000325643 0.000326581 0.000328034 0.000326194 0.000324978 0.000327127 0.000325647 0.000326401 0.000327624 0.000326147 0.000325135 0.000326889 0.000325647 0.000326232 0.000327247 0.000326096 0.00032527 0.000326671 0.000325644 0.000326079 0.000326908 0.000326049 0.000325389 0.000326467 0.000325637 0.000325938 0.0003266 0.000326001 0.000325484 0.000326283 0.000325627 0.000325813 0.00032633 0.000325952 0.000325562 0.000326117 0.000325615 0.000325707 0.000326097 0.000325901 0.000325615 0.000325966 0.000325594 0.000325613 0.000325898 0.000325847 0.000325651 0.00032584 0.00032557 0.000325538 0.000325734 0.00032579 0.000325665 0.000325734 0.000325529 0.000325481 0.000325605 0.000325719 0.000325652 0.000325655 0.000325452 0.000325442 0.000325508 0.000325619 0.000325593 0.000325644 0.000325318 0.000325456 0.000325482 0.000325462 0.000325472 0.000349751 0.000328533 0.000366111 0.000366111 0.000318052 0.000313364 0.000344294 0.000328521 0.000347004 0.000352176 0.000327351 0.000320688 0.000338047 0.000327287 0.000337546 0.000344366 0.000328188 0.000321206 0.000335704 0.000327822 0.000334698 0.000341816 0.00032895 0.000321889 0.000334611 0.000327874 0.000333015 0.000340235 0.000329381 0.000322435 0.000333963 0.000327709 0.000331915 0.000339025 0.000329531 0.000322853 0.000333471 0.000327499 0.000331155 0.000337991 0.000329501 0.000323196 0.000333018 0.000327311 0.000330593 0.00033704 0.000329362 0.000323498 0.000332564 0.000327144 0.000330142 0.00033613 0.000329163 0.000323766 0.000332107 0.000326994 0.000329755 0.000335258 0.000328934 0.000324008 0.00033165 0.00032686 0.000329407 0.000334421 0.000328695 0.00032423 0.000331196 0.000326741 0.000329081 0.000333618 0.000328458 0.000324435 0.000330747 0.000326632 0.000328768 0.000332849 0.000328229 0.000324624 0.000330307 0.000326535 0.000328463 0.000332115 0.000328013 0.000324801 0.000329876 0.000326446 0.000328166 0.000331416 0.000327811 0.000324964 0.000329457 0.000326366 0.000327877 0.000330753 0.000327624 0.000325115 0.000329055 0.000326293 0.000327595 0.000330126 0.000327449 0.000325256 0.00032867 0.000326224 0.000327327 0.000329535 0.000327286 0.000325383 0.000328299 0.000326161 0.000327067 0.000328981 0.000327133 0.000325496 0.000327951 0.000326102 0.000326822 0.000328466 0.00032699 0.000325598 0.000327621 0.000326047 0.00032659 0.000327987 0.000326855 0.000325685 0.00032731 0.000325995 0.000326375 0.000327548 0.000326729 0.000325759 0.000327022 0.000325944 0.000326176 0.000327148 0.000326607 0.000325819 0.000326755 0.000325896 0.000325996 0.000326784 0.000326493 0.000325862 0.00032651 0.000325849 0.000325833 0.000326464 0.000326382 0.000325892 0.000326292 0.000325803 0.000325695 0.000326184 0.000326275 0.000325906 0.000326095 0.000325754 0.00032558 0.000325948 0.000326166 0.000325902 0.000325927 0.000325704 0.00032549 0.000325754 0.00032606 0.00032588 0.000325789 0.000325649 0.000325427 0.000325606 0.000325952 0.000325837 0.000325682 0.000325589 0.000325388 0.000325503 0.000325843 0.000325774 0.000325613 0.000325495 0.000325371 0.000325438 0.000325708 0.00032567 0.000325595 0.000325308 0.000325387 0.000325425 0.000325495 0.000325466 0.000352058 0.000327427 0.000376244 0.000376244 0.000312765 0.0003078 0.000347374 0.000331683 0.000351635 0.000357136 0.000328422 0.000322812 0.000340504 0.00033001 0.00033988 0.000345711 0.000330195 0.000324104 0.00033813 0.000330292 0.000336684 0.000342931 0.000331164 0.000324891 0.000336996 0.000330059 0.00033485 0.00034128 0.00033162 0.000325373 0.000336226 0.000329661 0.000333598 0.000339981 0.000331728 0.000325679 0.000335557 0.000329255 0.000332673 0.000338832 0.000331616 0.000325881 0.000334912 0.00032889 0.000331945 0.000337766 0.000331373 0.000326022 0.000334272 0.000328573 0.000331337 0.000336755 0.000331057 0.000326127 0.000333634 0.000328296 0.000330803 0.000335786 0.000330709 0.000326206 0.000333005 0.000328049 0.000330316 0.00033486 0.000330349 0.000326266 0.000332389 0.000327827 0.000329864 0.000333978 0.000329993 0.000326313 0.000331791 0.000327623 0.000329432 0.000333136 0.000329649 0.000326352 0.00033121 0.000327436 0.00032902 0.000332334 0.00032932 0.000326383 0.000330654 0.000327265 0.000328625 0.000331574 0.000329009 0.000326408 0.000330119 0.000327106 0.000328245 0.000330855 0.000328716 0.00032643 0.00032961 0.000326958 0.000327885 0.000330177 0.000328444 0.000326445 0.000329127 0.000326822 0.00032754 0.000329541 0.000328186 0.000326455 0.000328668 0.000326696 0.000327214 0.000328947 0.000327947 0.000326462 0.000328236 0.000326577 0.000326909 0.000328393 0.000327721 0.00032646 0.000327834 0.000326466 0.000326622 0.000327882 0.000327509 0.000326456 0.000327456 0.000326364 0.000326359 0.000327412 0.00032731 0.000326441 0.000327107 0.000326268 0.000326119 0.000326987 0.000327122 0.000326421 0.000326785 0.000326177 0.000325905 0.000326604 0.000326943 0.000326388 0.000326495 0.000326091 0.000325716 0.000326269 0.000326773 0.000326349 0.000326236 0.000326008 0.000325554 0.000325977 0.000326608 0.000326296 0.00032601 0.00032593 0.000325429 0.000325741 0.000326447 0.00032623 0.000325819 0.000325849 0.000325336 0.000325553 0.000326288 0.000326144 0.000325671 0.000325764 0.000325285 0.000325428 0.000326127 0.000326042 0.000325571 0.000325669 0.000325273 0.000325358 0.000325963 0.000325913 0.000325534 0.000325559 0.000325302 0.000325353 0.000325802 0.000325766 0.000325558 0.000325382 0.000325356 0.000325393 0.000325589 0.000325558 0.000308411 0.000278341 0.000294931 0.000294931 0.000297635 0.000291753 0.000326589 0.000293981 0.000317967 0.00032474 0.000303585 0.000295937 0.00032486 0.000300607 0.000320568 0.000329307 0.000304416 0.00029621 0.000325146 0.000304791 0.000322767 0.000332032 0.000306135 0.000297923 0.000325397 0.000307533 0.000323964 0.000333028 0.000307951 0.000300153 0.000325516 0.000309794 0.000324745 0.000333224 0.000309718 0.000302522 0.000325558 0.000311755 0.000325263 0.000333003 0.000311373 0.000304839 0.000325568 0.000313472 0.000325607 0.000332575 0.000312889 0.000307011 0.00032557 0.000314977 0.000325833 0.000332055 0.000314265 0.000309009 0.000325574 0.0003163 0.000325983 0.000331513 0.000315507 0.000310825 0.000325583 0.000317465 0.000326081 0.00033098 0.000316627 0.000312468 0.000325599 0.000318498 0.000326145 0.000330474 0.00031764 0.000313958 0.000325616 0.000319414 0.000326187 0.000330002 0.000318557 0.000315307 0.000325635 0.000320231 0.00032621 0.000329565 0.000319388 0.00031653 0.000325654 0.000320965 0.000326219 0.000329159 0.000320145 0.000317642 0.000325669 0.000321622 0.000326218 0.000328784 0.000320834 0.000318653 0.000325681 0.00032221 0.000326207 0.000328435 0.000321461 0.000319575 0.00032569 0.000322738 0.000326189 0.000328111 0.000322031 0.000320413 0.000325694 0.000323211 0.000326164 0.000327809 0.00032255 0.000321176 0.000325698 0.000323637 0.000326134 0.000327528 0.000323023 0.00032187 0.000325693 0.000324015 0.000326096 0.000327264 0.000323448 0.000322495 0.000325687 0.00032435 0.000326054 0.000327017 0.000323838 0.000323062 0.000325676 0.000324646 0.000326005 0.000326787 0.000324188 0.000323572 0.000325663 0.000324905 0.000325953 0.000326573 0.000324499 0.000324022 0.000325645 0.000325124 0.000325893 0.000326373 0.000324778 0.000324423 0.000325625 0.000325309 0.000325831 0.000326188 0.000325024 0.00032477 0.000325603 0.000325455 0.000325759 0.000326014 0.000325235 0.000325066 0.000325582 0.000325568 0.000325692 0.000325861 0.000325411 0.00032531 0.000325559 0.00032564 0.00032562 0.000325722 0.000325547 0.000325491 0.000325528 0.000325668 0.000325551 0.000325606 0.000325633 0.000325603 0.00032549 0.000325652 0.000325485 0.000325514 0.000325659 0.000325643 0.000325436 0.000325572 0.000325436 0.000325452 0.000325575 0.000325574 0.000320118 0.000305405 0.000310906 0.000310906 0.00031919 0.000313575 0.000321747 0.00029845 0.000315706 0.000321354 0.00030657 0.000298152 0.00032656 0.000304502 0.000322875 0.000332082 0.000308502 0.000299254 0.000326738 0.000308688 0.000324345 0.000334472 0.000310904 0.000301784 0.000326665 0.000311203 0.000324937 0.000334798 0.000312551 0.000304089 0.000326582 0.000313129 0.000325439 0.000334506 0.000313865 0.000306188 0.000326518 0.000314719 0.000325829 0.000334 0.00031501 0.00030811 0.000326474 0.00031607 0.000326116 0.000333418 0.000316045 0.000309866 0.000326445 0.000317237 0.000326313 0.000332817 0.000316995 0.000311475 0.000326421 0.000318256 0.000326442 0.000332227 0.000317871 0.000312943 0.000326399 0.000319155 0.00032652 0.000331662 0.00031868 0.000314286 0.000326378 0.00031995 0.000326561 0.000331126 0.000319425 0.000315514 0.000326352 0.000320661 0.000326573 0.000330621 0.00032011 0.000316639 0.000326325 0.000321298 0.000326565 0.000330145 0.000320739 0.000317668 0.000326293 0.000321869 0.000326541 0.000329699 0.000321316 0.000318614 0.000326257 0.000322384 0.000326509 0.000329279 0.000321845 0.000319478 0.00032622 0.000322846 0.000326466 0.000328886 0.000322328 0.000320271 0.000326178 0.000323261 0.000326418 0.000328515 0.000322769 0.000320994 0.000326136 0.000323636 0.000326364 0.000328168 0.000323171 0.000321655 0.00032609 0.00032397 0.000326305 0.000327843 0.000323537 0.000322257 0.000326044 0.000324268 0.000326245 0.000327541 0.000323867 0.000322802 0.000325996 0.000324532 0.00032618 0.000327256 0.000324167 0.000323295 0.00032595 0.000324765 0.000326114 0.000326994 0.000324437 0.000323737 0.000325902 0.000324965 0.000326045 0.000326749 0.000324674 0.00032413 0.000325855 0.000325134 0.000325973 0.000326521 0.000324886 0.000324475 0.000325809 0.000325278 0.000325903 0.000326316 0.000325072 0.000324775 0.000325763 0.000325389 0.000325829 0.000326127 0.000325232 0.000325028 0.00032572 0.000325473 0.000325757 0.000325962 0.000325363 0.000325235 0.000325679 0.000325528 0.000325688 0.000325816 0.000325467 0.000325392 0.000325635 0.000325563 0.00032562 0.000325694 0.00032554 0.000325504 0.000325583 0.000325589 0.000325557 0.000325592 0.000325595 0.000325583 0.000325504 0.000325621 0.000325487 0.000325499 0.000325621 0.000325639 0.000327336 0.000311849 0.000322715 0.000322715 0.000320995 0.000315522 0.0003267 0.000311554 0.000322524 0.000328095 0.000317269 0.000309021 0.0003258 0.000310219 0.000323408 0.000331932 0.000313589 0.000303811 0.000327727 0.000313477 0.00032562 0.000336079 0.000315663 0.000306222 0.000327771 0.00031528 0.000326039 0.000336068 0.000316882 0.000308185 0.000327638 0.000316649 0.000326318 0.000335516 0.00031773 0.000309843 0.000327524 0.000317764 0.000326549 0.000334859 0.000318431 0.000311323 0.000327442 0.000318706 0.000326731 0.000334192 0.000319064 0.000312676 0.000327377 0.000319516 0.000326858 0.000333541 0.00031966 0.000313926 0.000327319 0.000320228 0.000326935 0.000332914 0.000320225 0.000315084 0.000327258 0.00032086 0.000326971 0.000332313 0.000320759 0.000316156 0.00032719 0.000321426 0.000326973 0.00033174 0.000321261 0.000317149 0.000327117 0.000321935 0.00032695 0.000331195 0.000321731 0.000318068 0.000327037 0.000322394 0.000326907 0.000330677 0.000322169 0.000318917 0.000326951 0.000322808 0.000326849 0.000330185 0.000322572 0.000319699 0.000326861 0.000323185 0.000326779 0.000329719 0.000322943 0.00032042 0.000326769 0.000323522 0.000326704 0.000329279 0.000323284 0.000321082 0.000326673 0.000323828 0.000326621 0.000328863 0.000323596 0.00032169 0.000326579 0.000324103 0.000326536 0.000328473 0.00032388 0.000322247 0.000326486 0.000324349 0.000326451 0.000328107 0.000324139 0.000322753 0.000326392 0.000324569 0.000326362 0.000327764 0.000324371 0.000323213 0.000326299 0.000324762 0.000326275 0.000327445 0.00032458 0.000323625 0.000326212 0.000324932 0.000326187 0.00032715 0.000324769 0.000323999 0.000326128 0.000325077 0.000326101 0.000326876 0.000324935 0.000324328 0.000326044 0.0003252 0.000326015 0.000326625 0.000325082 0.000324617 0.000325967 0.000325305 0.000325933 0.0003264 0.000325211 0.000324868 0.000325892 0.000325384 0.000325851 0.000326195 0.000325318 0.000325077 0.000325824 0.000325444 0.000325773 0.000326014 0.000325407 0.000325248 0.000325758 0.000325485 0.000325698 0.000325858 0.000325475 0.000325381 0.0003257 0.000325509 0.000325633 0.000325727 0.000325525 0.000325478 0.00032564 0.000325531 0.000325572 0.000325619 0.000325557 0.000325551 0.000325572 0.000325575 0.000325519 0.000325524 0.000325593 0.000325632 0.000332944 0.000317413 0.000333136 0.000333136 0.000321891 0.000316694 0.000331152 0.00031707 0.00032929 0.000334678 0.000320966 0.000312889 0.000329043 0.000317433 0.000327236 0.000335596 0.00031962 0.000310224 0.000328883 0.000318155 0.000327265 0.000337028 0.000320017 0.000310762 0.000329066 0.000319084 0.000327406 0.00033709 0.000320662 0.000312078 0.000328907 0.000319916 0.00032746 0.000336437 0.000321154 0.000313302 0.000328736 0.000320607 0.000327497 0.000335695 0.000321546 0.00031441 0.000328592 0.000321189 0.000327527 0.000334962 0.000321891 0.000315431 0.000328466 0.000321688 0.000327541 0.000334256 0.000322213 0.000316381 0.000328344 0.000322127 0.000327532 0.000333579 0.000322524 0.00031727 0.000328219 0.00032252 0.000327499 0.000332931 0.000322822 0.000318103 0.000328088 0.000322874 0.000327443 0.00033231 0.000323107 0.00031888 0.00032795 0.000323195 0.000327366 0.000331714 0.000323378 0.000319605 0.000327803 0.000323489 0.000327275 0.000331146 0.000323634 0.000320279 0.000327652 0.000323755 0.000327172 0.000330605 0.00032387 0.000320902 0.000327499 0.000323998 0.00032706 0.000330089 0.00032409 0.00032148 0.000327341 0.000324217 0.000326943 0.000329601 0.000324291 0.00032201 0.000327185 0.000324418 0.000326823 0.000329141 0.000324477 0.000322499 0.000327032 0.000324598 0.000326702 0.000328707 0.000324646 0.000322946 0.000326883 0.000324759 0.000326581 0.000328302 0.000324799 0.000323353 0.000326737 0.000324902 0.000326463 0.000327923 0.000324934 0.000323722 0.000326596 0.000325029 0.000326348 0.00032757 0.000325056 0.000324055 0.000326463 0.000325138 0.000326237 0.000327245 0.000325165 0.000324352 0.000326336 0.000325233 0.00032613 0.000326948 0.000325261 0.000324614 0.000326216 0.000325313 0.000326027 0.000326676 0.000325343 0.000324842 0.000326104 0.000325378 0.000325931 0.000326434 0.000325413 0.000325039 0.000325998 0.000325428 0.000325839 0.000326214 0.000325469 0.000325202 0.000325902 0.000325464 0.000325753 0.00032602 0.000325515 0.000325334 0.000325811 0.000325484 0.000325674 0.000325854 0.000325544 0.000325432 0.000325734 0.000325488 0.000325605 0.000325717 0.000325555 0.000325499 0.000325669 0.000325482 0.000325551 0.000325607 0.00032555 0.000325543 0.000325626 0.000325485 0.000325523 0.00032553 0.000325539 0.000325585 0.00033827 0.000322212 0.000343271 0.000343271 0.000321967 0.000317099 0.000335236 0.000321512 0.000335798 0.00034094 0.000323131 0.000315487 0.000332449 0.000321806 0.000331383 0.000339333 0.000323413 0.000314492 0.000331067 0.000322379 0.000329649 0.000338852 0.000323772 0.000315073 0.000330502 0.000322452 0.000328983 0.000337973 0.00032395 0.000315683 0.000330285 0.000322823 0.00032873 0.000337297 0.000324179 0.000316512 0.000330054 0.000323158 0.000328553 0.000336495 0.000324355 0.000317317 0.000329837 0.000323438 0.000328414 0.000335696 0.000324488 0.000318069 0.000329632 0.000323674 0.000328293 0.000334925 0.000324601 0.000318773 0.000329429 0.000323881 0.000328178 0.000334187 0.000324703 0.000319434 0.000329223 0.000324067 0.000328058 0.000333479 0.000324802 0.000320055 0.000329012 0.000324237 0.000327927 0.000332801 0.000324897 0.000320637 0.000328794 0.000324393 0.000327786 0.00033215 0.00032499 0.000321182 0.00032857 0.000324537 0.000327637 0.000331529 0.000325079 0.00032169 0.000328345 0.00032467 0.000327481 0.000330936 0.000325162 0.000322163 0.00032812 0.000324792 0.000327321 0.000330373 0.000325241 0.000322602 0.000327894 0.000324905 0.000327159 0.000329839 0.000325313 0.000323005 0.000327673 0.000325008 0.000326997 0.000329336 0.000325377 0.000323376 0.000327456 0.000325099 0.000326835 0.00032886 0.000325435 0.000323714 0.000327248 0.000325182 0.000326679 0.000328418 0.000325488 0.000324023 0.000327046 0.000325256 0.000326528 0.000328006 0.000325533 0.000324301 0.000326855 0.00032532 0.000326384 0.000327626 0.000325571 0.000324549 0.000326676 0.000325374 0.000326247 0.000327274 0.000325603 0.000324773 0.000326506 0.000325419 0.000326119 0.000326952 0.000325627 0.000324964 0.000326347 0.000325456 0.000325999 0.000326664 0.000325646 0.000325131 0.000326201 0.000325486 0.000325891 0.000326408 0.00032566 0.000325272 0.000326068 0.000325506 0.00032579 0.000326178 0.000325665 0.000325384 0.000325944 0.000325515 0.0003257 0.000325981 0.000325663 0.00032547 0.000325835 0.000325514 0.000325618 0.000325811 0.000325651 0.000325529 0.00032574 0.000325495 0.000325549 0.000325671 0.000325624 0.000325561 0.000325674 0.000325452 0.000325506 0.000325569 0.00032557 0.000325555 0.000325649 0.000325389 0.000325498 0.000325512 0.000325492 0.000325527 0.000343991 0.000325826 0.00035376 0.00035376 0.000321016 0.000316549 0.000339024 0.000325361 0.000342045 0.000346866 0.0003246 0.000317554 0.000335588 0.000325437 0.000335411 0.00034279 0.000326288 0.000318068 0.000333424 0.000325542 0.000332228 0.000340691 0.000326748 0.000318619 0.000332382 0.00032552 0.000330871 0.000339226 0.000326895 0.000319097 0.000331862 0.000325469 0.000330166 0.000338188 0.000326939 0.000319584 0.000331528 0.000325484 0.000329733 0.000337301 0.000326944 0.000320119 0.000331215 0.0003255 0.000329408 0.000336426 0.000326909 0.000320636 0.000330909 0.000325509 0.000329139 0.00033558 0.00032685 0.000321125 0.000330603 0.000325517 0.000328901 0.00033477 0.000326778 0.000321582 0.000330294 0.000325525 0.000328677 0.000333994 0.000326704 0.000322011 0.000329983 0.000325534 0.000328457 0.000333251 0.000326633 0.000322415 0.000329669 0.000325544 0.000328238 0.000332538 0.000326566 0.000322792 0.000329354 0.000325557 0.000328019 0.00033186 0.000326503 0.000323143 0.000329042 0.00032557 0.000327799 0.000331212 0.000326446 0.000323471 0.000328734 0.000325584 0.000327582 0.000330598 0.000326394 0.000323774 0.000328431 0.000325598 0.000327364 0.000330017 0.000326342 0.000324053 0.000328137 0.000325612 0.000327155 0.000329468 0.000326295 0.000324308 0.000327854 0.000325623 0.000326949 0.000328954 0.00032625 0.000324541 0.000327581 0.000325631 0.000326753 0.000328475 0.000326205 0.000324751 0.000327322 0.000325638 0.000326566 0.000328028 0.00032616 0.000324938 0.000327077 0.000325644 0.00032639 0.000327618 0.000326118 0.000325105 0.000326846 0.000325644 0.000326224 0.000327241 0.000326076 0.000325249 0.000326634 0.000325641 0.000326073 0.000326902 0.000326031 0.000325372 0.000326436 0.000325637 0.000325936 0.000326596 0.000325986 0.000325474 0.000326253 0.000325628 0.000325815 0.000326327 0.000325939 0.000325551 0.000326092 0.000325613 0.000325705 0.000326093 0.000325892 0.000325611 0.000325951 0.000325596 0.000325614 0.000325894 0.00032584 0.000325647 0.000325826 0.00032557 0.000325539 0.000325733 0.000325787 0.000325663 0.000325723 0.000325531 0.000325478 0.000325603 0.000325722 0.000325648 0.000325648 0.000325454 0.000325435 0.000325509 0.000325622 0.000325592 0.000325643 0.000325321 0.000325446 0.000325476 0.000325472 0.000325479 0.000350392 0.000327628 0.000365047 0.000365047 0.000318509 0.000314499 0.00034241 0.000328824 0.000347898 0.000352336 0.000325656 0.000319382 0.000338286 0.000328796 0.00033907 0.000345698 0.00032873 0.000321477 0.000335726 0.000328327 0.000334758 0.000342222 0.000329323 0.000321966 0.000334451 0.000328111 0.000332852 0.000340392 0.000329499 0.000322305 0.000333721 0.000327846 0.000331757 0.000339124 0.000329474 0.0003226 0.000333207 0.000327582 0.000331042 0.000338078 0.000329345 0.000322887 0.000332762 0.000327365 0.000330518 0.000337122 0.000329164 0.00032318 0.000332324 0.000327179 0.000330091 0.000336202 0.000328955 0.000323462 0.000331888 0.000327018 0.000329718 0.000335318 0.000328732 0.000323728 0.000331453 0.000326875 0.000329377 0.00033447 0.000328508 0.000323978 0.000331019 0.000326748 0.000329055 0.000333658 0.00032829 0.000324211 0.00033059 0.000326635 0.000328744 0.000332881 0.000328082 0.000324428 0.000330165 0.000326535 0.00032844 0.00033214 0.000327884 0.000324629 0.000329751 0.000326444 0.000328144 0.000331436 0.0003277 0.000324817 0.000329348 0.000326363 0.000327857 0.000330769 0.000327528 0.000324989 0.000328958 0.000326288 0.000327579 0.000330139 0.000327365 0.000325145 0.000328582 0.000326221 0.000327309 0.000329544 0.000327211 0.000325286 0.000328223 0.000326158 0.000327053 0.00032899 0.00032707 0.000325413 0.000327881 0.0003261 0.00032681 0.000328474 0.000326935 0.000325525 0.000327558 0.000326045 0.00032658 0.000327994 0.000326806 0.000325623 0.000327256 0.000325993 0.000326368 0.000327553 0.000326685 0.000325706 0.000326972 0.000325944 0.000326172 0.000327152 0.000326568 0.000325771 0.00032671 0.000325896 0.000325993 0.000326791 0.000326459 0.000325824 0.000326474 0.000325849 0.000325835 0.000326471 0.000326351 0.00032586 0.000326257 0.000325805 0.000325701 0.000326192 0.000326245 0.000325876 0.000326069 0.000325755 0.000325585 0.000325953 0.000326143 0.000325875 0.000325906 0.000325704 0.000325494 0.000325762 0.000326042 0.000325857 0.000325773 0.000325653 0.000325428 0.000325613 0.000325939 0.000325817 0.000325673 0.000325591 0.000325388 0.00032551 0.000325836 0.000325759 0.000325605 0.000325496 0.000325365 0.000325442 0.000325709 0.000325661 0.000325592 0.000325312 0.000325375 0.000325423 0.000325508 0.000325475 0.000355116 0.000326327 0.000376298 0.000376298 0.000313152 0.000309148 0.000345663 0.000332014 0.000353047 0.000357547 0.000326405 0.000321027 0.000340521 0.000332158 0.000342069 0.00034781 0.000331067 0.000325039 0.000337919 0.000331015 0.000336908 0.000343106 0.000331808 0.000325454 0.000336634 0.000330441 0.000334668 0.000341176 0.000331949 0.000325567 0.000335808 0.000329915 0.000333359 0.000339884 0.000331836 0.000325625 0.000335137 0.00032944 0.00033245 0.000338785 0.000331589 0.00032568 0.000334518 0.000329029 0.00033175 0.000337765 0.000331274 0.000325743 0.000333913 0.000328682 0.000331165 0.000336783 0.000330926 0.000325816 0.000333309 0.00032838 0.000330653 0.000335832 0.000330566 0.00032589 0.000332715 0.000328115 0.000330182 0.000334914 0.000330209 0.000325961 0.00033213 0.000327879 0.000329741 0.000334032 0.000329861 0.000326027 0.000331561 0.000327665 0.000329321 0.000333188 0.000329529 0.000326086 0.000331009 0.00032747 0.000328917 0.000332384 0.000329212 0.00032614 0.000330475 0.000327291 0.00032853 0.000331619 0.000328913 0.00032619 0.000329963 0.000327127 0.000328161 0.000330897 0.000328632 0.000326232 0.000329472 0.000326976 0.000327808 0.000330216 0.000328367 0.000326266 0.000329007 0.000326836 0.000327471 0.000329577 0.000328119 0.000326297 0.000328562 0.000326707 0.000327155 0.00032898 0.000327885 0.000326319 0.000328144 0.000326585 0.000326856 0.000328423 0.000327664 0.000326332 0.000327751 0.000326474 0.000326579 0.000327911 0.000327458 0.000326338 0.000327382 0.000326369 0.00032632 0.000327439 0.000327263 0.000326338 0.000327044 0.000326272 0.000326088 0.000327012 0.000327077 0.000326327 0.000326734 0.00032618 0.00032588 0.000326629 0.000326901 0.000326308 0.000326452 0.000326094 0.000325699 0.000326291 0.000326736 0.000326275 0.000326198 0.000326014 0.000325542 0.000326002 0.000326572 0.000326229 0.00032598 0.000325931 0.000325421 0.000325763 0.000326416 0.00032617 0.000325798 0.000325849 0.000325331 0.000325576 0.000326263 0.000326095 0.00032566 0.000325761 0.000325278 0.000325445 0.000326107 0.000325997 0.000325569 0.000325668 0.000325266 0.000325377 0.000325953 0.00032588 0.000325536 0.000325561 0.000325295 0.000325368 0.000325801 0.000325743 0.000325563 0.000325386 0.000325343 0.000325401 0.000325603 0.000325552 0.000307114 0.000277007 0.000294094 0.000294094 0.000294924 0.000289898 0.000327029 0.000292992 0.000318344 0.000323955 0.000302822 0.000296038 0.000325219 0.00029971 0.000320694 0.000328236 0.000304396 0.000296841 0.000324583 0.000304085 0.000322695 0.000331053 0.000305595 0.000297926 0.000324634 0.000307297 0.000324092 0.00033253 0.000307224 0.00029977 0.000324788 0.000309758 0.000324908 0.000333034 0.000308983 0.000301953 0.000324934 0.000311798 0.000325402 0.000332998 0.00031071 0.000304208 0.000325057 0.000313541 0.000325702 0.000332669 0.000312331 0.000306397 0.000325159 0.000315052 0.000325885 0.000332196 0.000313815 0.000308446 0.000325246 0.000316369 0.000325998 0.000331668 0.000315156 0.000310331 0.000325322 0.000317529 0.000326066 0.000331131 0.000316363 0.000312047 0.000325388 0.000318553 0.000326109 0.000330615 0.000317447 0.000313604 0.000325446 0.000319462 0.000326133 0.000330126 0.000318421 0.00031501 0.000325496 0.000320275 0.000326145 0.000329672 0.000319296 0.000316283 0.000325537 0.000321001 0.000326149 0.000329253 0.000320085 0.000317437 0.000325573 0.000321653 0.000326145 0.000328864 0.0003208 0.000318485 0.000325603 0.000322239 0.000326136 0.000328505 0.000321444 0.000319435 0.000325626 0.000322765 0.00032612 0.000328171 0.00032203 0.000320296 0.000325643 0.000323238 0.0003261 0.000327864 0.000322558 0.000321077 0.000325653 0.000323659 0.000326073 0.000327576 0.000323036 0.000321786 0.000325658 0.000324035 0.00032604 0.000327306 0.000323469 0.000322427 0.00032566 0.000324371 0.000326003 0.000327056 0.00032386 0.000323005 0.000325656 0.000324664 0.00032596 0.000326822 0.000324211 0.000323522 0.000325648 0.000324917 0.00032591 0.000326604 0.000324525 0.000323984 0.000325636 0.000325139 0.000325858 0.000326402 0.000324803 0.00032439 0.00032562 0.000325323 0.0003258 0.000326214 0.000325049 0.000324743 0.000325601 0.000325467 0.000325735 0.000326041 0.000325256 0.000325043 0.000325579 0.000325579 0.000325668 0.000325882 0.000325433 0.000325287 0.000325553 0.000325652 0.0003256 0.000325746 0.000325565 0.000325471 0.000325525 0.00032568 0.000325534 0.000325629 0.000325646 0.000325587 0.000325488 0.000325662 0.000325476 0.000325535 0.000325667 0.000325626 0.00032544 0.000325581 0.00032543 0.000325471 0.000325588 0.000325559 0.000319181 0.000305063 0.000310192 0.000310192 0.00031844 0.000313569 0.000321228 0.000297413 0.000315397 0.00032031 0.000305542 0.000298307 0.000327053 0.000303687 0.000323214 0.000331121 0.00030794 0.000299847 0.000326474 0.000307741 0.000324612 0.000333433 0.000309504 0.000301271 0.000326278 0.000310729 0.000325428 0.000334362 0.000311223 0.000303269 0.000326182 0.000312888 0.000325846 0.000334409 0.000312758 0.000305337 0.000326153 0.000314593 0.000326124 0.000334057 0.000314132 0.000307332 0.00032616 0.000315999 0.000326312 0.000333533 0.00031537 0.0003092 0.00032618 0.000317192 0.000326431 0.000332944 0.000316484 0.00031092 0.000326202 0.000318224 0.000326502 0.000332343 0.000317491 0.000312493 0.00032622 0.000319127 0.000326536 0.000331757 0.0003184 0.000313926 0.000326232 0.000319926 0.000326549 0.000331201 0.000319221 0.000315228 0.000326234 0.000320637 0.000326541 0.000330676 0.000319964 0.000316412 0.000326228 0.000321274 0.000326522 0.000330187 0.000320637 0.00031749 0.000326214 0.000321848 0.000326493 0.000329728 0.000321246 0.000318471 0.000326194 0.000322362 0.000326456 0.0003293 0.000321798 0.000319366 0.000326168 0.000322826 0.000326413 0.0003289 0.0003223 0.000320181 0.000326138 0.000323245 0.000326365 0.000328526 0.000322756 0.000320923 0.000326103 0.000323622 0.000326314 0.000328177 0.000323169 0.0003216 0.000326064 0.00032396 0.000326259 0.000327851 0.000323543 0.000322213 0.000326023 0.000324258 0.0003262 0.000327546 0.000323879 0.000322766 0.000325982 0.000324526 0.000326139 0.000327264 0.000324184 0.000323269 0.000325939 0.000324759 0.000326078 0.000327001 0.000324456 0.000323718 0.000325897 0.000324963 0.000326013 0.000326756 0.000324701 0.000324117 0.00032585 0.000325136 0.000325944 0.000326531 0.000324913 0.000324466 0.000325805 0.000325278 0.000325876 0.000326325 0.000325099 0.00032477 0.000325763 0.000325394 0.000325806 0.000326136 0.00032526 0.000325026 0.000325721 0.000325477 0.000325738 0.000325972 0.000325389 0.000325233 0.000325678 0.000325535 0.000325669 0.000325825 0.000325487 0.00032539 0.000325635 0.00032557 0.000325606 0.000325703 0.000325561 0.000325503 0.000325583 0.000325595 0.000325545 0.000325603 0.000325607 0.00032558 0.00032551 0.000325622 0.000325481 0.000325508 0.000325632 0.000325632 0.000326647 0.000311561 0.000322055 0.000322055 0.000320509 0.000315674 0.000326031 0.000311218 0.00032235 0.000327292 0.000316827 0.000309572 0.000325917 0.000309552 0.000323367 0.000330933 0.000313126 0.000304564 0.000327429 0.000312396 0.000325782 0.000334948 0.000314111 0.00030538 0.000327402 0.000314725 0.000326388 0.000335725 0.000315495 0.000307138 0.000327291 0.000316334 0.00032661 0.000335496 0.000316626 0.000308887 0.000327217 0.000317571 0.000326765 0.00033495 0.000317579 0.00031052 0.000327179 0.000318576 0.000326878 0.000334306 0.000318416 0.000312027 0.000327156 0.00031942 0.000326948 0.000333641 0.000319168 0.000313409 0.000327133 0.000320148 0.000326981 0.000332989 0.000319853 0.000314676 0.000327102 0.000320789 0.000326982 0.000332362 0.000320479 0.000315837 0.000327062 0.00032136 0.000326962 0.000331768 0.00032105 0.000316899 0.000327009 0.000321872 0.000326921 0.000331205 0.000321572 0.000317871 0.000326947 0.000322335 0.000326868 0.000330675 0.000322048 0.000318762 0.000326877 0.000322754 0.000326805 0.000330175 0.000322481 0.000319577 0.000326799 0.000323134 0.000326734 0.000329704 0.000322877 0.000320326 0.000326718 0.000323478 0.000326658 0.000329261 0.000323237 0.000321008 0.000326631 0.000323787 0.000326577 0.000328846 0.000323563 0.000321633 0.000326545 0.000324068 0.000326495 0.000328455 0.00032386 0.000322203 0.000326457 0.000324319 0.000326411 0.00032809 0.000324126 0.00032272 0.00032637 0.000324544 0.000326329 0.000327751 0.000324368 0.000323189 0.000326284 0.00032474 0.000326244 0.000327434 0.000324584 0.000323611 0.000326199 0.000324915 0.00032616 0.000327142 0.000324777 0.000323988 0.000326118 0.000325064 0.000326076 0.000326871 0.000324948 0.000324323 0.000326038 0.000325192 0.000325994 0.000326622 0.000325098 0.000324616 0.000325964 0.000325299 0.000325914 0.000326398 0.000325228 0.00032487 0.000325893 0.00032538 0.000325835 0.000326195 0.000325337 0.000325082 0.000325824 0.000325443 0.000325759 0.000326014 0.000325426 0.000325255 0.00032576 0.000325484 0.000325687 0.000325858 0.000325493 0.000325387 0.0003257 0.00032551 0.000325622 0.000325728 0.000325539 0.000325482 0.000325643 0.000325534 0.000325567 0.000325623 0.000325572 0.000325555 0.000325578 0.000325573 0.000325514 0.00032553 0.000325602 0.000325629 0.000332538 0.000317178 0.000332512 0.000332512 0.000321639 0.000316862 0.000330448 0.000316936 0.000329151 0.000334115 0.000320435 0.000313041 0.000328821 0.000317211 0.000327244 0.000334953 0.000319603 0.000310994 0.000328116 0.000317211 0.000326889 0.000335897 0.000318718 0.000309721 0.000328565 0.000318665 0.000327439 0.000336928 0.000319577 0.000311008 0.0003285 0.000319676 0.000327512 0.000336518 0.000320288 0.000312372 0.000328391 0.00032045 0.000327536 0.000335825 0.000320858 0.00031364 0.000328296 0.000321071 0.000327546 0.000335078 0.000321346 0.000314807 0.000328211 0.000321591 0.000327539 0.000334342 0.000321784 0.000315881 0.000328125 0.000322041 0.000327511 0.000333632 0.000322185 0.00031687 0.000328031 0.000322439 0.000327462 0.000332957 0.000322555 0.000317781 0.000327926 0.000322798 0.000327395 0.000332315 0.000322897 0.000318622 0.000327809 0.000323123 0.000327312 0.000331706 0.000323212 0.000319395 0.00032768 0.000323421 0.000327216 0.000331128 0.000323502 0.000320109 0.000327547 0.000323692 0.000327112 0.000330582 0.000323766 0.000320764 0.000327406 0.000323941 0.000327001 0.000330063 0.000324009 0.000321367 0.000327263 0.000324167 0.000326887 0.000329575 0.000324229 0.00032192 0.000327119 0.000324373 0.000326772 0.000329116 0.000324429 0.000322427 0.000326976 0.000324559 0.000326655 0.000328685 0.000324611 0.00032289 0.000326835 0.000324725 0.000326541 0.000328282 0.000324772 0.000323309 0.000326697 0.000324873 0.000326427 0.000327905 0.000324916 0.000323687 0.000326563 0.000325006 0.000326316 0.000327555 0.000325047 0.00032403 0.000326435 0.000325121 0.00032621 0.000327234 0.00032516 0.000324333 0.000326314 0.000325218 0.000326108 0.000326939 0.000325259 0.000324602 0.000326198 0.000325301 0.000326009 0.000326669 0.000325345 0.000324836 0.000326092 0.00032537 0.000325917 0.000326428 0.000325419 0.000325037 0.000325989 0.000325423 0.000325828 0.000326211 0.000325481 0.000325204 0.000325895 0.000325463 0.000325743 0.00032602 0.000325527 0.000325339 0.000325809 0.000325482 0.000325665 0.000325853 0.000325555 0.000325439 0.000325733 0.000325488 0.000325601 0.000325717 0.000325565 0.000325505 0.00032567 0.000325483 0.000325548 0.000325609 0.000325559 0.000325546 0.000325628 0.000325485 0.000325518 0.000325531 0.000325549 0.000325583 0.000338112 0.000322034 0.000342702 0.000342702 0.000322009 0.000317383 0.000334513 0.000321535 0.000335738 0.000340636 0.000322695 0.000315429 0.000331938 0.000321832 0.000331485 0.000339103 0.00032328 0.000314762 0.000330452 0.000322064 0.000329441 0.000338315 0.000323188 0.000314366 0.000330027 0.000322342 0.000328842 0.000338018 0.000323351 0.000314868 0.000329932 0.000322749 0.000328651 0.000337474 0.00032365 0.00031578 0.000329757 0.000323104 0.000328503 0.000336672 0.000323901 0.000316697 0.00032958 0.000323394 0.000328379 0.00033584 0.000324106 0.000317556 0.000329406 0.000323634 0.000328264 0.000335031 0.000324281 0.000318351 0.000329231 0.00032384 0.000328148 0.000334259 0.000324439 0.000319088 0.000329049 0.000324025 0.000328023 0.000333524 0.000324584 0.000319771 0.000328859 0.000324195 0.00032789 0.000332826 0.00032472 0.000320405 0.00032866 0.000324352 0.000327747 0.000332163 0.000324846 0.00032099 0.000328455 0.000324498 0.000327595 0.000331532 0.00032496 0.000321532 0.000328242 0.000324633 0.00032744 0.000330933 0.000325066 0.000322032 0.000328029 0.000324758 0.000327281 0.000330367 0.000325163 0.000322491 0.000327816 0.000324875 0.000327119 0.000329831 0.00032525 0.000322916 0.000327605 0.000324981 0.000326962 0.000329327 0.000325328 0.000323302 0.000327398 0.000325076 0.000326804 0.000328853 0.000325397 0.000323655 0.000327198 0.000325164 0.000326653 0.000328412 0.000325458 0.000323975 0.000327005 0.000325238 0.000326506 0.000328 0.000325509 0.000324264 0.000326821 0.000325305 0.000326365 0.000327618 0.000325552 0.000324521 0.000326646 0.000325362 0.000326232 0.000327269 0.000325587 0.000324751 0.00032648 0.000325411 0.000326109 0.000326949 0.000325618 0.00032495 0.000326329 0.000325451 0.000325993 0.000326664 0.00032564 0.000325122 0.000326187 0.000325482 0.000325887 0.000326406 0.000325656 0.000325266 0.000326055 0.000325502 0.000325788 0.000326179 0.000325664 0.000325383 0.000325939 0.000325512 0.000325698 0.00032598 0.000325664 0.000325472 0.000325831 0.000325512 0.000325617 0.000325809 0.000325656 0.000325533 0.000325738 0.000325494 0.000325548 0.000325671 0.000325627 0.000325562 0.000325673 0.000325453 0.000325504 0.000325568 0.000325575 0.000325556 0.000325652 0.000325391 0.000325496 0.000325514 0.000325501 0.000325529 0.000344114 0.000325705 0.000353278 0.000353278 0.000321301 0.000316952 0.000338311 0.000325497 0.000342079 0.000346778 0.000324204 0.000317315 0.00033491 0.000325687 0.000335647 0.000342922 0.000326022 0.000317927 0.000333014 0.000325668 0.000332271 0.000340696 0.000326576 0.000318187 0.000332059 0.000325631 0.000330744 0.000339412 0.000326705 0.000318639 0.000331585 0.000325498 0.000330036 0.000338353 0.000326689 0.000319121 0.000331297 0.000325491 0.000329655 0.000337452 0.000326681 0.000319699 0.00033101 0.000325496 0.000329363 0.000336545 0.000326653 0.000320271 0.000330725 0.0003255 0.000329115 0.000335669 0.000326612 0.00032081 0.000330437 0.000325501 0.000328885 0.000334832 0.000326565 0.000321313 0.000330147 0.000325504 0.000328663 0.000334036 0.000326517 0.000321784 0.000329852 0.000325511 0.000328445 0.000333277 0.000326471 0.000322221 0.000329552 0.000325519 0.000328224 0.000332555 0.000326426 0.000322627 0.000329252 0.000325532 0.000328005 0.000331869 0.000326387 0.000323004 0.000328951 0.000325547 0.000327783 0.000331218 0.000326346 0.000323352 0.000328654 0.000325562 0.000327565 0.000330599 0.000326308 0.000323674 0.000328363 0.000325577 0.000327351 0.000330017 0.000326273 0.000323969 0.000328076 0.000325593 0.00032714 0.000329468 0.000326236 0.000324238 0.000327801 0.000325605 0.000326938 0.000328953 0.000326198 0.000324483 0.000327535 0.000325617 0.000326746 0.000328473 0.000326162 0.000324701 0.000327282 0.000325627 0.000326558 0.000328028 0.000326126 0.000324899 0.000327043 0.000325632 0.000326384 0.000327617 0.000326088 0.000325073 0.000326818 0.000325635 0.000326224 0.000327242 0.000326049 0.000325225 0.000326609 0.000325635 0.000326075 0.000326901 0.000326007 0.00032535 0.000326416 0.000325632 0.000325939 0.000326596 0.000325967 0.000325457 0.000326241 0.000325625 0.000325817 0.000326328 0.000325925 0.000325542 0.000326082 0.000325611 0.000325712 0.000326095 0.000325877 0.000325602 0.000325941 0.000325593 0.00032562 0.000325896 0.000325834 0.000325643 0.000325822 0.00032557 0.000325542 0.000325733 0.000325783 0.000325659 0.00032572 0.000325531 0.000325478 0.000325601 0.000325721 0.000325648 0.000325646 0.000325455 0.000325436 0.000325509 0.000325624 0.00032559 0.000325635 0.000325325 0.000325445 0.000325478 0.000325481 0.00032548 0.000350955 0.000327504 0.000364742 0.000364742 0.000318975 0.000314989 0.000341822 0.000329006 0.000348046 0.000352456 0.000325265 0.000318994 0.000337587 0.000329222 0.000339476 0.000346149 0.000328369 0.00032106 0.000335488 0.000328801 0.000335056 0.000342662 0.000329429 0.00032185 0.000334259 0.000328354 0.000332832 0.000340631 0.000329562 0.000322194 0.00033353 0.00032796 0.000331686 0.000339243 0.000329426 0.000322441 0.000333027 0.000327636 0.000330999 0.000338152 0.000329216 0.000322695 0.000332598 0.000327392 0.000330507 0.000337178 0.000328996 0.00032298 0.000332174 0.000327192 0.000330099 0.000336243 0.000328772 0.000323267 0.00033175 0.000327021 0.000329734 0.000335348 0.000328551 0.000323546 0.000331327 0.000326871 0.000329395 0.000334491 0.000328339 0.000323811 0.000330907 0.000326739 0.00032907 0.000333672 0.000328136 0.000324061 0.000330489 0.000326623 0.000328756 0.00033289 0.000327944 0.000324294 0.000330076 0.000326521 0.000328449 0.000332147 0.000327763 0.000324511 0.000329674 0.000326429 0.00032815 0.000331439 0.000327594 0.000324712 0.00032928 0.000326347 0.000327862 0.000330772 0.000327434 0.000324897 0.000328898 0.000326274 0.000327582 0.00033014 0.000327285 0.000325065 0.000328528 0.000326207 0.000327313 0.000329548 0.000327142 0.000325218 0.000328177 0.000326145 0.000327056 0.000328991 0.000327008 0.000325354 0.000327841 0.00032609 0.000326813 0.000328475 0.00032688 0.000325474 0.000327524 0.000326036 0.000326585 0.000327996 0.00032676 0.000325578 0.000327225 0.000325986 0.000326372 0.000327557 0.000326645 0.000325667 0.000326947 0.000325938 0.000326177 0.000327156 0.000326534 0.00032574 0.00032669 0.000325892 0.000326001 0.000326795 0.000326427 0.000325795 0.000326454 0.000325845 0.000325842 0.000326474 0.000326322 0.000325833 0.000326243 0.000325799 0.000325706 0.000326196 0.000326223 0.000325857 0.000326057 0.000325754 0.000325591 0.000325957 0.000326123 0.000325859 0.000325898 0.000325704 0.0003255 0.000325764 0.000326025 0.000325841 0.000325769 0.00032565 0.000325433 0.000325616 0.00032593 0.000325809 0.000325669 0.000325588 0.000325389 0.00032551 0.00032583 0.00032575 0.000325603 0.000325498 0.000325365 0.000325445 0.000325708 0.000325657 0.000325587 0.000325316 0.000325373 0.000325424 0.000325506 0.000325476 0.000357302 0.000326018 0.000376485 0.000376485 0.000313666 0.000309868 0.000345423 0.000332137 0.000353508 0.000357816 0.000326049 0.000320752 0.000339969 0.000332679 0.000342777 0.000348453 0.000330652 0.000324655 0.000337677 0.000331745 0.000337555 0.000343797 0.000332042 0.00032576 0.000336423 0.000330783 0.000334884 0.00034133 0.000332112 0.000325829 0.000335603 0.000330089 0.00033344 0.000339867 0.000331861 0.000325757 0.000334941 0.000329534 0.0003325 0.000338733 0.00033151 0.000325703 0.000334338 0.000329082 0.000331794 0.000337713 0.000331133 0.000325694 0.00033375 0.00032871 0.000331208 0.000336744 0.000330758 0.000325726 0.000333165 0.000328396 0.00033069 0.000335801 0.000330392 0.000325777 0.000332586 0.000328121 0.000330213 0.000334892 0.00033004 0.000325839 0.000332016 0.000327876 0.000329763 0.000334015 0.000329704 0.000325905 0.00033146 0.000327658 0.000329335 0.000333174 0.000329384 0.00032597 0.000330918 0.000327459 0.000328927 0.000332371 0.000329082 0.00032603 0.000330396 0.000327278 0.000328536 0.000331611 0.000328799 0.000326087 0.000329893 0.000327113 0.000328162 0.00033089 0.00032853 0.000326137 0.000329411 0.000326962 0.000327805 0.000330209 0.000328278 0.000326181 0.000328952 0.000326824 0.000327469 0.000329573 0.00032804 0.000326218 0.000328515 0.000326694 0.00032715 0.000328976 0.000327816 0.000326247 0.000328104 0.000326575 0.00032685 0.000328421 0.000327604 0.000326269 0.000327717 0.000326464 0.000326574 0.00032791 0.000327404 0.000326282 0.000327355 0.000326362 0.000326317 0.000327439 0.000327216 0.000326287 0.000327019 0.000326265 0.000326085 0.000327014 0.000327036 0.00032628 0.000326712 0.000326176 0.000325878 0.000326633 0.000326865 0.000326264 0.000326434 0.000326089 0.000325696 0.000326296 0.000326702 0.000326237 0.000326184 0.000326008 0.000325543 0.000326007 0.000326546 0.000326196 0.000325973 0.000325927 0.000325417 0.000325766 0.000326393 0.00032614 0.000325795 0.000325844 0.000325327 0.00032558 0.000326243 0.000326068 0.000325658 0.000325758 0.000325274 0.000325448 0.000326095 0.000325975 0.00032557 0.000325665 0.00032526 0.00032538 0.000325945 0.000325861 0.000325537 0.000325559 0.000325288 0.000325371 0.000325796 0.000325729 0.000325556 0.00032539 0.000325339 0.000325405 0.000325604 0.000325541 0.000306939 0.000275667 0.000293463 0.000293463 0.000293455 0.000289099 0.000327396 0.000292585 0.000319047 0.000323843 0.000302182 0.000296088 0.000325337 0.00029944 0.000321325 0.000327986 0.000304011 0.000297044 0.000324533 0.000303829 0.000323117 0.000330743 0.000305292 0.000298078 0.000324286 0.000307098 0.000324361 0.000332255 0.000306754 0.000299664 0.000324351 0.000309682 0.000325152 0.000332883 0.000308434 0.000301671 0.000324511 0.000311783 0.000325605 0.000332933 0.000310164 0.000303843 0.000324684 0.000313549 0.000325857 0.000332657 0.00031183 0.00030601 0.000324845 0.000315065 0.000325994 0.000332211 0.000313382 0.000308076 0.000324988 0.000316381 0.000326065 0.000331692 0.000314796 0.000309994 0.000325111 0.000317535 0.000326099 0.000331158 0.000316072 0.000311754 0.000325215 0.000318555 0.000326114 0.000330637 0.000317215 0.000313349 0.000325304 0.000319461 0.000326118 0.000330147 0.000318239 0.000314796 0.000325377 0.000320272 0.000326117 0.000329688 0.000319157 0.000316102 0.000325442 0.000320998 0.000326112 0.000329266 0.00031998 0.000317286 0.000325493 0.00032165 0.000326104 0.000328875 0.000320719 0.000318356 0.000325535 0.000322234 0.000326092 0.000328513 0.000321385 0.000319326 0.000325568 0.000322761 0.000326076 0.000328179 0.000321984 0.000320205 0.000325594 0.000323234 0.000326057 0.000327869 0.000322526 0.000321001 0.000325615 0.000323657 0.000326032 0.000327581 0.000323014 0.000321722 0.000325626 0.000324037 0.000326002 0.000327312 0.000323452 0.000322372 0.000325632 0.00032437 0.000325968 0.000327061 0.000323849 0.000322958 0.000325633 0.000324665 0.000325928 0.000326828 0.000324206 0.000323482 0.00032563 0.000324924 0.000325884 0.000326613 0.00032452 0.000323949 0.000325622 0.000325141 0.000325834 0.000326408 0.000324802 0.000324362 0.000325608 0.000325325 0.000325779 0.000326222 0.000325048 0.000324718 0.000325591 0.000325474 0.000325718 0.000326049 0.000325256 0.000325018 0.00032557 0.000325584 0.000325655 0.000325893 0.000325428 0.000325267 0.000325548 0.000325657 0.000325591 0.000325753 0.00032556 0.000325454 0.00032552 0.000325687 0.000325531 0.000325638 0.000325642 0.000325571 0.000325485 0.000325673 0.000325475 0.000325546 0.000325664 0.000325612 0.000325439 0.000325589 0.000325428 0.00032548 0.000325594 0.00032555 0.000318955 0.000304276 0.000309707 0.000309707 0.000318247 0.00031368 0.000321069 0.000296869 0.000315453 0.000320063 0.000304638 0.000298106 0.000327118 0.000303499 0.000323808 0.000330934 0.000307282 0.000299995 0.000326554 0.000307569 0.000325169 0.000333102 0.000308902 0.00030137 0.000326091 0.000310519 0.000325855 0.000334024 0.000310427 0.000303024 0.000325927 0.00031278 0.000326248 0.000334235 0.000311988 0.000304938 0.000325892 0.000314541 0.000326442 0.000333999 0.000313463 0.000306895 0.000325921 0.000315971 0.000326541 0.000333534 0.000314815 0.000308782 0.000325973 0.000317172 0.000326585 0.000332968 0.000316039 0.000310549 0.000326027 0.000318203 0.000326597 0.000332372 0.000317139 0.000312174 0.000326074 0.000319103 0.000326589 0.000331783 0.000318127 0.000313659 0.00032611 0.000319899 0.000326568 0.000331219 0.000319009 0.000315008 0.000326133 0.000320607 0.000326538 0.000330687 0.000319802 0.000316232 0.000326145 0.000321245 0.000326506 0.000330192 0.000320512 0.000317341 0.000326146 0.000321817 0.000326466 0.000329728 0.000321153 0.000318351 0.000326138 0.000322335 0.000326425 0.000329299 0.00032173 0.000319267 0.00032612 0.000322802 0.00032638 0.000328898 0.000322249 0.000320099 0.000326097 0.000323224 0.000326329 0.000328522 0.000322719 0.000320856 0.000326069 0.000323602 0.00032628 0.000328175 0.000323143 0.000321543 0.000326037 0.000323941 0.000326226 0.000327849 0.000323526 0.000322168 0.000326002 0.000324245 0.000326169 0.000327545 0.00032387 0.00032273 0.000325964 0.000324513 0.000326111 0.000327264 0.000324179 0.000323237 0.000325924 0.00032475 0.000326051 0.000327001 0.000324455 0.00032369 0.000325883 0.000324954 0.000325989 0.000326759 0.000324701 0.000324095 0.000325842 0.00032513 0.000325924 0.000326534 0.000324918 0.00032445 0.000325799 0.000325276 0.000325858 0.000326329 0.000325106 0.000324754 0.000325755 0.000325393 0.00032579 0.000326143 0.000325267 0.000325013 0.000325716 0.000325481 0.000325724 0.000325978 0.000325396 0.000325222 0.000325673 0.000325539 0.000325659 0.000325833 0.000325496 0.000325383 0.00032563 0.000325575 0.000325599 0.000325713 0.000325564 0.000325497 0.00032558 0.000325604 0.000325543 0.00032561 0.000325614 0.000325572 0.000325509 0.000325629 0.000325478 0.00032552 0.000325641 0.000325623 0.000326335 0.000311053 0.000321681 0.000321681 0.000320334 0.000315701 0.000325695 0.000310964 0.000322318 0.000327061 0.000316493 0.000309691 0.000325682 0.000309316 0.000323517 0.000330634 0.000312452 0.000304624 0.000327503 0.000312172 0.000326199 0.000334599 0.000313474 0.000305432 0.000327275 0.000314431 0.000326736 0.000335349 0.000314625 0.000306785 0.000327118 0.00031617 0.000326966 0.000335325 0.000315825 0.000308422 0.000327036 0.000317475 0.000327048 0.000334897 0.000316908 0.000310059 0.000327005 0.000318509 0.000327081 0.000334302 0.000317875 0.000311613 0.000326998 0.000319364 0.000327085 0.000333653 0.000318742 0.000313057 0.000326994 0.000320097 0.000327066 0.000333001 0.000319519 0.000314383 0.000326982 0.000320738 0.000327029 0.000332367 0.000320217 0.000315596 0.000326961 0.000321308 0.000326982 0.000331767 0.000320846 0.000316703 0.000326924 0.00032182 0.000326923 0.000331197 0.000321412 0.000317712 0.000326876 0.000322285 0.000326857 0.000330663 0.000321922 0.000318632 0.000326816 0.000322706 0.000326786 0.00033016 0.000322385 0.000319471 0.000326749 0.000323089 0.00032671 0.000329688 0.000322801 0.000320239 0.000326675 0.000323437 0.000326632 0.000329245 0.000323178 0.000320938 0.000326598 0.00032375 0.000326553 0.000328832 0.000323519 0.000321574 0.000326516 0.000324035 0.000326471 0.000328444 0.000323825 0.000322154 0.000326433 0.000324291 0.000326389 0.000328081 0.000324103 0.00032268 0.00032635 0.000324518 0.000326305 0.000327744 0.000324352 0.000323157 0.00032627 0.00032472 0.000326224 0.00032743 0.000324573 0.000323585 0.000326187 0.000324898 0.000326142 0.000327138 0.000324772 0.000323967 0.000326107 0.000325052 0.000326061 0.000326871 0.000324947 0.000324304 0.000326029 0.000325184 0.00032598 0.000326626 0.000325101 0.000324602 0.000325957 0.000325293 0.000325902 0.000326403 0.000325234 0.000324859 0.000325888 0.00032538 0.000325826 0.000326202 0.000325344 0.000325074 0.000325821 0.000325442 0.00032575 0.000326022 0.000325434 0.00032525 0.000325759 0.000325486 0.000325681 0.000325866 0.0003255 0.000325385 0.000325698 0.000325514 0.000325617 0.000325733 0.000325545 0.00032548 0.00032564 0.000325538 0.000325563 0.000325628 0.000325575 0.00032555 0.000325577 0.000325577 0.000325513 0.000325538 0.000325608 0.000325619 0.000332105 0.000316917 0.000332197 0.000332197 0.000321494 0.000316789 0.000329956 0.000316768 0.000329016 0.000333909 0.000320086 0.000312982 0.000328445 0.000317071 0.000327263 0.000334695 0.000319182 0.000311032 0.000327992 0.000316964 0.00032697 0.000335533 0.000318198 0.000309729 0.000328389 0.000318313 0.000327587 0.00033654 0.000318797 0.000310574 0.00032831 0.000319472 0.000327696 0.000336364 0.000319575 0.000311868 0.000328208 0.000320321 0.000327687 0.000335776 0.000320265 0.000313175 0.000328128 0.000320979 0.000327658 0.000335067 0.000320866 0.000314407 0.00032806 0.000321514 0.000327616 0.000334337 0.000321397 0.000315546 0.00032799 0.000321971 0.000327559 0.000333624 0.000321874 0.000316594 0.000327913 0.00032237 0.000327486 0.000332943 0.000322304 0.000317554 0.000327823 0.000322731 0.000327401 0.000332294 0.000322694 0.000318434 0.00032772 0.000323058 0.000327306 0.000331681 0.000323047 0.000319241 0.000327607 0.000323359 0.000327203 0.000331102 0.000323368 0.000319981 0.000327483 0.000323635 0.000327095 0.000330554 0.000323657 0.000320658 0.000327351 0.000323886 0.000326981 0.000330038 0.00032392 0.00032128 0.000327217 0.000324118 0.000326867 0.000329552 0.000324157 0.000321847 0.000327079 0.000324328 0.000326751 0.000329095 0.00032437 0.000322366 0.000326942 0.000324519 0.000326637 0.000328667 0.000324561 0.000322838 0.000326807 0.000324691 0.000326524 0.000328267 0.000324733 0.000323265 0.000326673 0.000324844 0.000326412 0.000327894 0.000324887 0.000323653 0.000326544 0.000324981 0.000326304 0.000327548 0.000325026 0.000324002 0.000326421 0.000325101 0.000326201 0.000327232 0.000325146 0.000324313 0.000326304 0.000325204 0.000326101 0.000326938 0.000325249 0.000324586 0.000326189 0.000325291 0.000326006 0.000326672 0.000325339 0.000324824 0.000326084 0.00032536 0.000325914 0.000326432 0.000325416 0.000325027 0.000325987 0.000325417 0.000325827 0.000326216 0.000325478 0.0003252 0.000325895 0.000325458 0.000325744 0.000326024 0.000325529 0.000325338 0.00032581 0.000325483 0.000325668 0.000325859 0.00032556 0.000325439 0.000325735 0.000325489 0.000325597 0.000325719 0.000325569 0.000325506 0.00032567 0.000325486 0.000325549 0.000325612 0.000325562 0.000325544 0.000325624 0.000325489 0.000325519 0.000325537 0.000325553 0.000325577 0.000337574 0.000322046 0.000342446 0.000342446 0.000321954 0.000317213 0.000333891 0.000321481 0.000335494 0.000340512 0.000322403 0.000315161 0.000331438 0.000321747 0.000331363 0.000338978 0.000322907 0.000314544 0.000330183 0.000321945 0.000329386 0.000338134 0.00032293 0.000314307 0.000329689 0.000322046 0.000328706 0.000337704 0.000322788 0.000314386 0.000329686 0.000322592 0.000328638 0.000337403 0.000323141 0.000315293 0.000329548 0.000323003 0.00032851 0.00033667 0.000323463 0.000316262 0.000329395 0.000323318 0.000328388 0.000335852 0.000323734 0.000317184 0.000329242 0.000323569 0.00032827 0.000335038 0.000323969 0.000318039 0.000329083 0.000323779 0.000328146 0.000334256 0.000324175 0.000318825 0.000328918 0.000323966 0.000328015 0.000333513 0.000324364 0.000319549 0.000328743 0.000324135 0.000327875 0.000332809 0.000324535 0.000320217 0.000328559 0.000324294 0.000327728 0.000332142 0.00032469 0.000320832 0.000328365 0.000324441 0.000327575 0.00033151 0.00032483 0.000321397 0.000328165 0.000324581 0.000327417 0.000330912 0.000324957 0.000321918 0.000327962 0.00032471 0.000327258 0.000330346 0.000325071 0.000322395 0.000327757 0.00032483 0.0003271 0.000329813 0.000325172 0.000322832 0.000327556 0.000324941 0.000326943 0.000329312 0.000325263 0.000323233 0.000327356 0.000325041 0.00032679 0.000328841 0.000325342 0.000323596 0.000327162 0.000325132 0.00032664 0.000328401 0.000325411 0.000323926 0.000326976 0.000325212 0.000326496 0.000327993 0.000325469 0.000324222 0.000326796 0.000325283 0.00032636 0.000327615 0.000325522 0.000324489 0.000326624 0.000325344 0.00032623 0.000327268 0.000325562 0.000324722 0.000326464 0.000325397 0.000326107 0.000326951 0.000325599 0.000324929 0.000326316 0.00032544 0.000325994 0.000326666 0.000325623 0.000325104 0.000326178 0.000325474 0.000325892 0.000326412 0.000325644 0.000325255 0.000326052 0.000325496 0.000325795 0.000326184 0.000325656 0.000325375 0.000325936 0.00032551 0.000325706 0.000325987 0.00032566 0.000325469 0.000325831 0.000325511 0.000325623 0.000325814 0.000325654 0.000325534 0.000325739 0.000325491 0.000325553 0.000325672 0.000325628 0.000325562 0.000325671 0.000325453 0.000325504 0.000325571 0.000325574 0.000325556 0.000325646 0.000325393 0.000325501 0.000325519 0.000325498 0.000325523 0.000343582 0.000326024 0.000353124 0.000353124 0.000321396 0.000316762 0.000337654 0.000325574 0.000341787 0.000346793 0.000324031 0.000316924 0.000334381 0.000325696 0.000335479 0.000343004 0.000325767 0.000317562 0.000332678 0.000325669 0.000332194 0.000340767 0.000326433 0.000317989 0.000331769 0.000325547 0.000330605 0.000339364 0.000326475 0.000318286 0.000331361 0.000325459 0.00032994 0.000338404 0.000326433 0.000318765 0.000331121 0.000325461 0.000329607 0.000337517 0.000326429 0.00031938 0.000330857 0.000325471 0.000329345 0.000336599 0.000326416 0.000319992 0.000330586 0.000325474 0.000329111 0.000335707 0.000326394 0.000320569 0.000330312 0.000325475 0.000328887 0.000334855 0.000326368 0.000321106 0.000330033 0.000325475 0.000328667 0.000334047 0.000326343 0.000321603 0.00032975 0.000325479 0.000328446 0.000333282 0.000326318 0.000322065 0.000329463 0.000325487 0.000328225 0.000332556 0.000326295 0.000322493 0.000329173 0.000325499 0.000328002 0.000331866 0.000326271 0.000322887 0.000328882 0.000325514 0.00032778 0.000331213 0.000326247 0.000323251 0.000328593 0.000325531 0.000327561 0.000330595 0.000326223 0.000323586 0.000328308 0.000325549 0.000327347 0.000330013 0.000326197 0.000323892 0.000328031 0.000325567 0.000327139 0.000329465 0.000326172 0.000324173 0.000327762 0.000325584 0.000326938 0.000328953 0.000326143 0.000324426 0.000327502 0.000325597 0.000326744 0.000328473 0.000326114 0.000324654 0.000327255 0.000325608 0.000326562 0.00032803 0.000326083 0.000324859 0.00032702 0.000325618 0.000326391 0.000327621 0.000326052 0.000325039 0.0003268 0.000325625 0.000326231 0.000327248 0.000326017 0.000325196 0.000326594 0.000325627 0.000326084 0.000326908 0.000325983 0.000325329 0.000326403 0.000325624 0.000325949 0.000326604 0.000325944 0.00032544 0.000326232 0.000325619 0.00032583 0.000326335 0.000325904 0.000325529 0.000326078 0.000325608 0.000325726 0.000326101 0.000325864 0.000325594 0.000325941 0.000325592 0.000325633 0.000325903 0.000325823 0.000325639 0.000325822 0.000325568 0.000325552 0.000325736 0.000325776 0.000325659 0.000325719 0.00032553 0.000325486 0.000325603 0.000325715 0.000325649 0.000325644 0.000325454 0.00032544 0.000325506 0.000325621 0.00032559 0.000325632 0.000325331 0.000325451 0.000325481 0.000325476 0.000325478 0.00035063 0.000328009 0.000364729 0.000364729 0.000319179 0.000314829 0.000341281 0.000329121 0.000347769 0.000352579 0.000325162 0.000318567 0.000337137 0.000329254 0.000339355 0.000346386 0.000328167 0.000320639 0.000335179 0.000328878 0.00033506 0.000342923 0.000329321 0.000321607 0.000334071 0.000328403 0.000332813 0.000340783 0.000329505 0.000322018 0.00033339 0.000327991 0.000331657 0.00033935 0.000329336 0.000322294 0.000332908 0.000327638 0.000330994 0.000338212 0.000329077 0.00032255 0.000332496 0.000327387 0.000330535 0.000337214 0.000328833 0.000322842 0.000332081 0.000327181 0.000330142 0.000336263 0.0003286 0.000323139 0.000331666 0.000327005 0.000329784 0.000335354 0.000328383 0.000323428 0.00033125 0.000326852 0.000329445 0.000334489 0.00032818 0.000323702 0.000330837 0.000326718 0.000329115 0.000333666 0.00032799 0.000323962 0.000330426 0.0003266 0.000328796 0.000332883 0.000327813 0.000324204 0.000330022 0.000326496 0.000328483 0.000332138 0.000327646 0.000324431 0.000329623 0.000326404 0.00032818 0.000331431 0.000327489 0.00032464 0.000329236 0.000326323 0.000327886 0.000330763 0.000327342 0.000324832 0.000328858 0.000326251 0.000327602 0.000330133 0.000327202 0.000325008 0.000328496 0.000326186 0.000327332 0.000329541 0.00032707 0.000325166 0.000328148 0.000326128 0.000327074 0.000328989 0.000326945 0.00032531 0.000327816 0.000326072 0.00032683 0.000328473 0.000326825 0.000325436 0.000327504 0.000326022 0.000326601 0.000327995 0.000326711 0.000325546 0.000327208 0.000325974 0.000326389 0.000327556 0.0003266 0.000325639 0.000326933 0.000325928 0.000326196 0.000327158 0.000326495 0.000325716 0.000326679 0.000325884 0.000326018 0.000326798 0.000326392 0.000325776 0.000326448 0.000325839 0.000325862 0.000326478 0.000326292 0.000325819 0.00032624 0.000325795 0.000325723 0.000326197 0.000326196 0.000325843 0.000326055 0.000325751 0.000325609 0.000325962 0.000326103 0.000325852 0.0003259 0.000325703 0.000325517 0.000325768 0.000326011 0.00032584 0.000325771 0.00032565 0.000325445 0.000325616 0.00032592 0.000325805 0.000325673 0.000325589 0.000325396 0.000325511 0.000325822 0.00032575 0.000325602 0.000325498 0.00032537 0.000325442 0.000325702 0.000325655 0.000325579 0.000325321 0.00032538 0.000325427 0.000325502 0.000325471 0.000357835 0.000326474 0.000376641 0.000376641 0.000313917 0.000309864 0.000345243 0.000332143 0.000353406 0.000358024 0.000325979 0.000320464 0.000339734 0.000332632 0.000342851 0.00034876 0.000330425 0.000324345 0.000337492 0.000331819 0.000337804 0.000344148 0.000331876 0.000325645 0.000336333 0.000330887 0.000335146 0.000341562 0.000332068 0.000325928 0.000335542 0.000330125 0.00033364 0.000339927 0.000331779 0.00032588 0.000334893 0.00032953 0.000332678 0.000338706 0.000331369 0.000325792 0.000334294 0.000329059 0.000331963 0.000337655 0.000330953 0.000325745 0.000333712 0.00032868 0.000331368 0.000336675 0.00033056 0.000325747 0.000333132 0.000328361 0.000330837 0.000335734 0.000330194 0.000325782 0.000332557 0.000328084 0.000330344 0.000334825 0.000329849 0.000325831 0.000331991 0.000327839 0.000329879 0.000333953 0.000329527 0.000325888 0.000331437 0.000327621 0.000329435 0.000333118 0.000329224 0.000325949 0.000330899 0.000327422 0.000329011 0.000332321 0.000328939 0.000326008 0.000330379 0.000327243 0.000328606 0.000331564 0.000328668 0.000326061 0.000329877 0.00032708 0.000328221 0.000330848 0.000328415 0.000326112 0.000329397 0.000326931 0.000327856 0.000330174 0.000328176 0.000326157 0.000328939 0.000326795 0.000327511 0.00032954 0.000327951 0.000326195 0.000328505 0.00032667 0.000327186 0.000328949 0.000327738 0.000326226 0.000328092 0.000326554 0.000326885 0.000328401 0.000327534 0.000326247 0.000327709 0.000326447 0.0003266 0.000327889 0.000327346 0.000326264 0.000327347 0.000326346 0.000326343 0.000327426 0.000327162 0.00032627 0.000327015 0.000326255 0.000326109 0.000327001 0.00032699 0.000326265 0.000326709 0.000326166 0.000325898 0.000326622 0.000326825 0.000326251 0.000326435 0.000326083 0.000325715 0.000326288 0.000326668 0.000326228 0.000326189 0.000326002 0.000325559 0.000325999 0.000326518 0.00032619 0.000325974 0.000325924 0.000325432 0.000325759 0.00032637 0.000326135 0.000325801 0.000325844 0.00032534 0.000325574 0.000326227 0.000326065 0.000325666 0.000325759 0.000325281 0.000325443 0.000326085 0.000325976 0.000325579 0.000325664 0.000325264 0.000325373 0.00032594 0.000325864 0.000325541 0.000325559 0.000325288 0.000325365 0.000325791 0.000325729 0.000325551 0.000325393 0.00032534 0.000325403 0.000325592 0.000325535 0.000307997 0.000274094 0.000293097 0.000293097 0.000293469 0.000289363 0.000327774 0.000293048 0.000320082 0.000324638 0.000301806 0.000296155 0.000325309 0.000299925 0.000322445 0.000328583 0.000303492 0.000296996 0.000324403 0.000304106 0.000324018 0.000331098 0.000304766 0.000297992 0.000324102 0.000307206 0.000325008 0.000332407 0.000306241 0.000299543 0.000324102 0.0003097 0.0003256 0.000332907 0.000307906 0.000301493 0.000324253 0.000311767 0.000325927 0.000332894 0.000309653 0.000303635 0.000324451 0.000313513 0.000326081 0.000332579 0.000311369 0.000305799 0.000324647 0.000315012 0.00032614 0.000332113 0.00031298 0.000307879 0.000324824 0.000316317 0.000326152 0.000331585 0.000314457 0.000309819 0.000324976 0.000317464 0.000326142 0.000331049 0.000315789 0.000311599 0.000325105 0.00031848 0.000326127 0.000330531 0.000316983 0.000313219 0.000325214 0.000319387 0.000326111 0.000330045 0.000318048 0.000314683 0.000325303 0.000320199 0.000326096 0.000329595 0.000319 0.000316008 0.000325378 0.00032093 0.000326084 0.00032918 0.000319852 0.000317205 0.000325439 0.000321588 0.00032607 0.000328798 0.000320615 0.000318287 0.000325488 0.000322178 0.000326056 0.000328446 0.000321299 0.000319265 0.000325529 0.000322711 0.00032604 0.00032812 0.000321913 0.000320154 0.00032556 0.00032319 0.000326021 0.000327816 0.000322467 0.000320957 0.000325584 0.00032362 0.000326 0.000327536 0.000322966 0.000321683 0.000325599 0.000324002 0.00032597 0.000327273 0.000323417 0.000322339 0.000325611 0.000324343 0.000325938 0.000327029 0.000323819 0.000322931 0.000325613 0.000324642 0.000325902 0.000326799 0.000324179 0.000323458 0.000325613 0.000324902 0.000325859 0.000326585 0.000324502 0.000323929 0.000325607 0.000325126 0.000325812 0.000326388 0.000324783 0.000324343 0.000325596 0.000325314 0.000325759 0.000326202 0.00032503 0.000324701 0.000325577 0.000325463 0.000325701 0.000326031 0.000325238 0.000325004 0.000325561 0.000325575 0.000325643 0.000325878 0.000325415 0.000325253 0.000325537 0.000325654 0.000325584 0.000325746 0.000325547 0.000325441 0.000325512 0.000325687 0.000325525 0.000325631 0.000325631 0.000325562 0.000325476 0.000325673 0.000325472 0.000325542 0.000325654 0.000325603 0.000325433 0.000325594 0.000325429 0.000325479 0.000325586 0.000325543 0.000319499 0.000302999 0.000309559 0.000309559 0.000318672 0.000313926 0.000321232 0.000297042 0.00031592 0.000320713 0.000304191 0.000297969 0.000327126 0.000304088 0.000324665 0.000331454 0.000306807 0.000300001 0.000326449 0.000308071 0.000325933 0.000333343 0.000308439 0.00030141 0.000325965 0.000310849 0.000326457 0.000334082 0.000309965 0.000303005 0.00032574 0.000312966 0.000326691 0.000334202 0.000311497 0.000304809 0.000325702 0.000314651 0.000326778 0.000333953 0.000313003 0.000306708 0.000325748 0.000316027 0.000326778 0.000333488 0.000314415 0.000308579 0.000325823 0.000317187 0.000326742 0.000332923 0.000315706 0.000310353 0.000325902 0.000318188 0.000326692 0.000332327 0.000316869 0.000311998 0.00032597 0.000319069 0.000326639 0.000331738 0.000317909 0.000313504 0.000326024 0.000319853 0.000326587 0.000331174 0.000318836 0.000314874 0.000326061 0.000320556 0.000326538 0.000330645 0.000319663 0.000316118 0.000326085 0.000321192 0.00032649 0.000330151 0.000320402 0.000317245 0.000326094 0.000321766 0.000326444 0.000329692 0.000321064 0.000318267 0.000326093 0.000322286 0.000326398 0.000329265 0.000321658 0.000319195 0.000326084 0.000322757 0.00032635 0.000328868 0.000322193 0.000320038 0.000326065 0.000323182 0.000326302 0.000328498 0.000322674 0.000320805 0.000326043 0.000323566 0.000326253 0.000328153 0.000323108 0.000321499 0.000326014 0.00032391 0.0003262 0.000327833 0.000323496 0.000322127 0.000325983 0.000324217 0.000326146 0.000327532 0.000323847 0.000322697 0.000325947 0.000324489 0.00032609 0.000327252 0.000324163 0.000323208 0.000325909 0.00032473 0.000326029 0.000326992 0.000324443 0.000323665 0.000325872 0.000324937 0.000325969 0.000326752 0.000324692 0.000324071 0.00032583 0.000325116 0.000325907 0.000326531 0.000324912 0.000324428 0.000325789 0.000325266 0.000325842 0.000326328 0.000325104 0.000324738 0.000325747 0.000325385 0.000325777 0.000326145 0.000325262 0.000324998 0.000325708 0.000325476 0.000325715 0.00032598 0.000325395 0.000325211 0.000325668 0.000325539 0.000325654 0.000325838 0.000325493 0.000325373 0.000325625 0.000325576 0.000325594 0.000325713 0.000325563 0.000325487 0.000325574 0.000325607 0.00032554 0.000325616 0.000325612 0.000325568 0.000325503 0.000325638 0.000325478 0.000325522 0.000325642 0.000325612 0.000326422 0.000310353 0.000321663 0.000321663 0.000320488 0.000315661 0.000325638 0.000310951 0.000322504 0.000327449 0.000316358 0.000309629 0.000325553 0.000309591 0.000323861 0.000330919 0.000311995 0.000304557 0.000327432 0.000312519 0.000326721 0.000334716 0.000313026 0.000305468 0.00032722 0.000314677 0.000327203 0.000335308 0.000314182 0.000306786 0.000326997 0.000316299 0.00032733 0.000335219 0.000315339 0.000308296 0.000326903 0.000317553 0.000327341 0.000334811 0.000316462 0.000309877 0.000326878 0.000318545 0.000327295 0.000334238 0.000317495 0.000311419 0.000326884 0.000319366 0.000327231 0.000333602 0.000318427 0.000312871 0.000326894 0.000320072 0.000327159 0.000332956 0.000319264 0.000314216 0.000326898 0.000320696 0.000327085 0.000332327 0.000320011 0.000315451 0.000326887 0.000321255 0.00032701 0.000331727 0.000320679 0.000316576 0.000326862 0.000321763 0.000326933 0.000331161 0.000321276 0.000317602 0.000326823 0.000322227 0.000326856 0.000330629 0.000321813 0.000318538 0.000326772 0.00032265 0.000326778 0.000330131 0.000322294 0.000319391 0.000326711 0.000323035 0.000326698 0.000329662 0.000322726 0.000320169 0.000326641 0.000323387 0.000326619 0.000329224 0.000323117 0.000320877 0.000326569 0.000323706 0.000326536 0.000328813 0.000323466 0.000321521 0.000326492 0.000323995 0.000326456 0.000328429 0.000323783 0.000322107 0.000326412 0.000324257 0.000326373 0.00032807 0.00032407 0.000322641 0.000326333 0.000324489 0.000326293 0.000327737 0.000324325 0.000323121 0.000326254 0.000324695 0.000326213 0.000327428 0.000324552 0.000323553 0.000326175 0.000324876 0.000326132 0.000327139 0.000324757 0.000323941 0.000326098 0.000325033 0.000326053 0.000326873 0.000324937 0.000324283 0.000326023 0.000325169 0.000325974 0.00032663 0.000325093 0.000324583 0.000325951 0.000325282 0.0003259 0.000326411 0.00032523 0.000324842 0.000325883 0.000325373 0.000325822 0.000326211 0.000325343 0.000325061 0.000325817 0.00032544 0.000325751 0.000326034 0.000325433 0.000325238 0.000325756 0.000325487 0.000325682 0.000325878 0.000325501 0.000325377 0.000325697 0.000325517 0.000325617 0.000325742 0.000325547 0.000325478 0.000325636 0.000325543 0.000325566 0.000325635 0.000325577 0.000325546 0.00032557 0.000325588 0.000325515 0.000325546 0.000325612 0.000325609 0.000331747 0.000316623 0.000332212 0.000332212 0.000321432 0.000316509 0.000329673 0.000316629 0.000328925 0.000334045 0.000319872 0.000312768 0.000328241 0.000317102 0.000327325 0.000334769 0.000318866 0.000310956 0.00032786 0.000317044 0.000327153 0.000335479 0.000317758 0.000309699 0.000328354 0.000318367 0.000327867 0.000336397 0.000318364 0.000310549 0.000328227 0.000319465 0.000327938 0.000336181 0.000319096 0.000311721 0.000328112 0.00032031 0.000327903 0.000335644 0.000319827 0.00031299 0.00032803 0.000320955 0.000327828 0.000334969 0.000320491 0.000314221 0.000327966 0.000321475 0.000327738 0.000334257 0.000321084 0.000315374 0.000327905 0.000321918 0.000327641 0.000333555 0.000321613 0.000316441 0.000327837 0.000322309 0.000327542 0.00033288 0.000322088 0.000317419 0.000327755 0.000322664 0.000327436 0.000332238 0.000322513 0.000318316 0.000327661 0.00032299 0.000327326 0.000331631 0.000322896 0.000319137 0.000327553 0.000323292 0.000327213 0.000331057 0.00032324 0.000319889 0.000327436 0.00032357 0.000327098 0.000330516 0.00032355 0.000320578 0.000327312 0.000323827 0.000326982 0.000330007 0.000323828 0.000321208 0.000327183 0.000324065 0.000326865 0.000329526 0.000324079 0.000321785 0.000327049 0.000324279 0.000326749 0.000329074 0.000324305 0.000322309 0.000326916 0.000324477 0.000326632 0.000328652 0.000324507 0.000322789 0.000326785 0.000324654 0.000326522 0.000328257 0.000324689 0.000323224 0.000326656 0.000324814 0.000326411 0.000327889 0.000324851 0.000323616 0.000326529 0.000324955 0.000326304 0.000327548 0.000324994 0.000323969 0.000326409 0.000325078 0.000326204 0.000327235 0.00032512 0.000324283 0.000326294 0.000325186 0.000326105 0.000326946 0.00032523 0.000324562 0.000326183 0.000325277 0.000326011 0.000326681 0.000325325 0.000324804 0.000326079 0.000325353 0.00032592 0.000326443 0.000325403 0.000325009 0.000325983 0.000325411 0.000325835 0.00032623 0.000325472 0.000325185 0.000325891 0.000325457 0.000325753 0.000326041 0.000325522 0.000325326 0.00032581 0.000325484 0.000325678 0.000325875 0.000325558 0.000325434 0.000325735 0.000325492 0.000325606 0.00032573 0.000325571 0.000325505 0.00032567 0.000325491 0.000325554 0.00032562 0.000325562 0.000325543 0.00032562 0.000325496 0.000325527 0.000325546 0.00032555 0.000325571 0.000336691 0.000322069 0.000342425 0.000342425 0.000321725 0.000316656 0.000333338 0.000321231 0.000335095 0.000340455 0.00032212 0.000314726 0.0003311 0.000321543 0.00033111 0.00033889 0.000322557 0.00031427 0.000329967 0.000321815 0.000329305 0.000337984 0.000322551 0.000314156 0.000329564 0.000321922 0.000328713 0.000337484 0.000322381 0.000314264 0.000329565 0.000322454 0.000328695 0.000337167 0.000322688 0.000315078 0.000329427 0.000322905 0.000328586 0.0003365 0.000323048 0.000316036 0.000329278 0.000323236 0.000328456 0.00033572 0.000323372 0.000316974 0.00032913 0.000323489 0.000328322 0.000334926 0.000323656 0.00031785 0.000328982 0.000323699 0.000328183 0.000334157 0.00032391 0.00031866 0.000328825 0.000323887 0.00032804 0.000333427 0.000324136 0.000319404 0.00032866 0.000324057 0.00032789 0.000332733 0.000324337 0.000320088 0.000328484 0.000324217 0.000327735 0.000332074 0.00032452 0.000320717 0.0003283 0.000324369 0.000327578 0.000331451 0.000324683 0.000321295 0.000328107 0.000324511 0.000327417 0.000330861 0.000324828 0.000321826 0.000327912 0.000324648 0.000327258 0.000330304 0.000324961 0.000322314 0.000327714 0.000324774 0.000327099 0.00032978 0.000325078 0.00032276 0.000327519 0.00032489 0.000326941 0.000329285 0.00032518 0.000323169 0.000327325 0.000324996 0.000326791 0.000328821 0.000325272 0.00032354 0.000327136 0.000325094 0.000326643 0.000328389 0.000325351 0.000323878 0.000326954 0.00032518 0.000326502 0.000327985 0.000325419 0.00032418 0.000326778 0.000325257 0.000326368 0.000327614 0.000325479 0.000324452 0.000326611 0.000325326 0.000326241 0.000327272 0.000325528 0.00032469 0.000326453 0.000325381 0.000326119 0.00032696 0.000325568 0.000324901 0.000326308 0.000325429 0.00032601 0.000326679 0.0003256 0.000325083 0.000326173 0.000325464 0.000325907 0.000326424 0.000325623 0.000325235 0.000326049 0.000325494 0.000325814 0.000326202 0.000325642 0.000325361 0.000325936 0.000325512 0.000325724 0.000326006 0.00032565 0.000325459 0.000325835 0.000325515 0.000325641 0.000325832 0.000325648 0.000325532 0.000325746 0.000325496 0.000325568 0.000325684 0.000325625 0.000325565 0.000325674 0.000325457 0.000325514 0.000325574 0.000325573 0.000325557 0.000325641 0.000325402 0.000325512 0.000325528 0.000325494 0.000325515 0.000342213 0.000326527 0.000353098 0.000353098 0.000321168 0.000315974 0.000336872 0.00032537 0.000341121 0.000346727 0.000323824 0.000316277 0.000333933 0.0003254 0.000334956 0.000342947 0.000325504 0.000317083 0.000332389 0.000325445 0.000331891 0.000340697 0.000326143 0.00031765 0.000331585 0.000325388 0.000330441 0.000339258 0.000326215 0.000318067 0.000331181 0.000325301 0.000329824 0.000338251 0.000326109 0.000318495 0.000330972 0.000325359 0.000329562 0.000337417 0.000326124 0.000319133 0.000330722 0.000325394 0.000329328 0.000336519 0.000326139 0.000319774 0.000330462 0.000325408 0.000329106 0.000335636 0.000326145 0.000320378 0.000330198 0.000325411 0.000328887 0.000334789 0.000326147 0.000320938 0.00032993 0.000325415 0.000328668 0.000333988 0.000326147 0.000321456 0.000329657 0.00032542 0.000328447 0.000333227 0.000326144 0.000321932 0.00032938 0.000325429 0.000328224 0.000332508 0.00032614 0.000322374 0.0003291 0.000325443 0.000328002 0.000331825 0.000326134 0.000322782 0.000328818 0.000325462 0.000327781 0.000331179 0.000326127 0.000323156 0.000328537 0.000325483 0.000327562 0.000330567 0.000326116 0.000323502 0.00032826 0.000325505 0.000327349 0.00032999 0.000326103 0.000323817 0.000327989 0.000325525 0.000327142 0.000329448 0.000326089 0.000324105 0.000327725 0.000325548 0.000326943 0.000328941 0.000326071 0.000324367 0.000327473 0.000325566 0.000326755 0.000328469 0.000326051 0.000324604 0.000327231 0.000325584 0.000326575 0.000328029 0.000326029 0.000324814 0.000327001 0.000325597 0.000326405 0.000327625 0.000326003 0.000325001 0.000326785 0.000325607 0.000326249 0.000327253 0.000325974 0.000325163 0.000326583 0.000325614 0.000326104 0.000326917 0.000325945 0.000325303 0.000326398 0.000325615 0.000325974 0.000326617 0.000325911 0.000325418 0.000326228 0.000325613 0.000325856 0.00032635 0.000325878 0.000325512 0.000326075 0.000325605 0.000325749 0.000326115 0.00032584 0.000325581 0.000325942 0.000325593 0.00032566 0.000325919 0.000325804 0.000325631 0.000325826 0.000325571 0.000325579 0.000325752 0.000325765 0.000325657 0.000325727 0.000325533 0.000325506 0.000325613 0.000325711 0.000325653 0.000325645 0.000325456 0.000325452 0.00032551 0.000325616 0.000325593 0.000325624 0.000325335 0.000325465 0.000325488 0.000325464 0.000325474 0.000349136 0.00032909 0.000364789 0.000364789 0.000319083 0.000314014 0.000340534 0.000329047 0.000347016 0.00035262 0.00032512 0.000317894 0.00033678 0.000328951 0.000338786 0.000346488 0.000328051 0.000320124 0.000334974 0.000328641 0.000334763 0.000343047 0.000329164 0.000321243 0.000333951 0.000328263 0.000332691 0.000340881 0.000329375 0.000321805 0.000333293 0.000327891 0.000331599 0.000339383 0.000329183 0.000322121 0.000332829 0.000327581 0.000330996 0.000338235 0.000328908 0.000322409 0.000332427 0.000327346 0.000330573 0.000337221 0.000328657 0.000322726 0.000332017 0.000327149 0.000330199 0.000336256 0.000328429 0.000323039 0.000331604 0.000326976 0.000329847 0.00033534 0.00032822 0.000323339 0.000331193 0.000326823 0.000329506 0.000334472 0.000328027 0.000323623 0.000330784 0.000326687 0.000329173 0.000333646 0.000327848 0.000323889 0.00033038 0.000326568 0.000328848 0.000332863 0.000327683 0.000324138 0.000329979 0.000326464 0.000328531 0.000332119 0.000327529 0.00032437 0.000329587 0.000326375 0.000328224 0.000331416 0.000327383 0.000324584 0.000329204 0.000326294 0.000327926 0.000330751 0.000327246 0.000324782 0.000328831 0.000326224 0.00032764 0.000330123 0.000327116 0.000324962 0.000328472 0.000326161 0.000327366 0.000329534 0.000326993 0.000325125 0.000328128 0.000326104 0.000327108 0.000328985 0.000326874 0.000325273 0.000327801 0.000326054 0.000326864 0.000328472 0.000326763 0.000325404 0.000327489 0.000326005 0.000326634 0.000327997 0.000326654 0.000325518 0.000327197 0.00032596 0.000326423 0.000327561 0.000326551 0.000325616 0.000326927 0.000325917 0.000326228 0.000327165 0.000326448 0.000325696 0.000326676 0.000325875 0.000326053 0.000326806 0.000326351 0.000325762 0.000326446 0.000325835 0.000325897 0.000326486 0.000326257 0.000325807 0.000326239 0.000325794 0.000325759 0.000326209 0.000326165 0.000325837 0.000326057 0.000325749 0.000325644 0.000325972 0.000326074 0.000325847 0.000325904 0.000325706 0.00032555 0.000325776 0.000325988 0.000325839 0.000325776 0.000325655 0.000325475 0.000325624 0.000325901 0.00032581 0.00032568 0.000325592 0.000325423 0.000325514 0.000325813 0.000325758 0.000325603 0.000325502 0.000325384 0.000325438 0.000325695 0.00032566 0.00032557 0.00032533 0.000325394 0.000325429 0.000325488 0.000325464 0.000356643 0.000327685 0.000376662 0.000376662 0.000313822 0.00030918 0.000344832 0.000331905 0.000352766 0.000358064 0.000325904 0.000319916 0.000339658 0.000332111 0.000342452 0.00034886 0.000330231 0.000323947 0.00033751 0.000331411 0.000337735 0.000344285 0.000331622 0.000325407 0.000336393 0.000330631 0.000335278 0.00034168 0.000331837 0.000325865 0.000335615 0.000329953 0.000333847 0.000339966 0.000331567 0.000325924 0.000334963 0.000329405 0.000332912 0.000338681 0.000331149 0.000325876 0.000334356 0.000328956 0.000332204 0.000337588 0.000330721 0.000325833 0.000333764 0.000328592 0.000331604 0.000336589 0.000330329 0.000325828 0.000333178 0.000328285 0.000331057 0.000335641 0.00032997 0.000325853 0.000332595 0.000328014 0.000330546 0.000334733 0.000329639 0.000325892 0.000332025 0.000327775 0.000330061 0.000333864 0.000329333 0.00032594 0.000331466 0.000327559 0.000329597 0.000333035 0.000329046 0.000325991 0.000330924 0.000327366 0.000329153 0.000332244 0.000328778 0.000326042 0.000330399 0.000327192 0.000328733 0.000331496 0.000328524 0.000326091 0.000329896 0.000327034 0.000328333 0.000330788 0.000328286 0.000326136 0.000329414 0.000326891 0.000327955 0.000330121 0.000328061 0.000326176 0.000328953 0.000326758 0.000327598 0.000329494 0.000327847 0.000326211 0.000328517 0.000326638 0.000327266 0.00032891 0.000327645 0.00032624 0.000328106 0.000326528 0.000326954 0.000328364 0.000327454 0.00032626 0.000327716 0.000326425 0.000326665 0.000327862 0.000327272 0.000326274 0.000327357 0.000326332 0.000326403 0.000327402 0.000327099 0.000326277 0.000327023 0.000326242 0.00032616 0.000326983 0.000326937 0.000326276 0.000326717 0.000326159 0.000325949 0.000326609 0.000326779 0.000326261 0.000326441 0.000326079 0.000325757 0.000326275 0.000326626 0.000326235 0.000326194 0.000326002 0.000325599 0.000325989 0.000326481 0.000326197 0.000325983 0.000325928 0.000325467 0.000325751 0.000326341 0.000326148 0.000325809 0.00032585 0.000325372 0.000325565 0.000326203 0.000326079 0.000325672 0.000325765 0.000325311 0.000325434 0.000326067 0.000325989 0.000325587 0.00032567 0.000325283 0.000325361 0.000325928 0.000325877 0.000325545 0.000325564 0.000325303 0.000325353 0.000325783 0.000325739 0.000325545 0.0003254 0.000325352 0.000325396 0.000325576 0.000325535 0.000310494 0.000271816 0.00029321 0.00029321 0.000295562 0.000290672 0.000327902 0.000295324 0.000321596 0.000327003 0.000301605 0.000296093 0.000324925 0.000301605 0.000324214 0.000330241 0.000302751 0.000296607 0.000324059 0.000305138 0.00032547 0.000332178 0.00030398 0.000297629 0.000323867 0.000307752 0.000326062 0.000333002 0.00030556 0.000299293 0.000323949 0.000309919 0.000326301 0.000333143 0.00030735 0.000301346 0.000324143 0.00031179 0.000326358 0.00033289 0.000309199 0.000303555 0.000324372 0.000313422 0.000326327 0.000332434 0.000310995 0.000305761 0.000324589 0.000314857 0.000326263 0.000331889 0.000312672 0.000307864 0.000324783 0.000316129 0.000326195 0.000331327 0.0003142 0.000309818 0.000324946 0.000317264 0.000326138 0.000330783 0.000315573 0.000311604 0.000325082 0.000318281 0.000326096 0.000330276 0.000316798 0.000313223 0.000325194 0.000319195 0.000326066 0.000329809 0.000317888 0.000314687 0.000325287 0.000320021 0.000326046 0.00032938 0.000318861 0.00031601 0.000325363 0.000320764 0.000326034 0.000328989 0.00031973 0.000317205 0.000325425 0.000321437 0.000326022 0.000328628 0.000320507 0.000318285 0.000325476 0.000322045 0.000326011 0.000328295 0.000321204 0.000319262 0.000325518 0.00032259 0.000325996 0.000327986 0.000321832 0.00032015 0.000325551 0.000323082 0.000325983 0.0003277 0.000322397 0.000320954 0.000325574 0.000323524 0.000325962 0.000327431 0.000322906 0.00032168 0.000325591 0.000323916 0.000325936 0.000327181 0.000323363 0.000322336 0.000325602 0.000324269 0.000325906 0.000326945 0.000323774 0.000322927 0.000325608 0.000324576 0.000325871 0.000326727 0.00032414 0.000323458 0.000325606 0.000324844 0.000325831 0.000326519 0.000324468 0.000323927 0.0003256 0.000325075 0.000325784 0.000326329 0.000324757 0.000324341 0.000325587 0.000325272 0.000325733 0.000326151 0.000325008 0.000324701 0.000325571 0.000325426 0.000325679 0.000325988 0.000325221 0.000325004 0.000325554 0.000325551 0.000325626 0.000325844 0.000325395 0.000325252 0.000325532 0.00032563 0.000325571 0.000325715 0.000325527 0.00032544 0.000325504 0.00032567 0.000325521 0.000325608 0.000325611 0.000325559 0.000325474 0.000325665 0.000325475 0.000325526 0.000325637 0.000325605 0.000325426 0.000325588 0.000325432 0.000325464 0.00032557 0.00032554 0.000320833 0.000301183 0.000310007 0.000310007 0.000319814 0.000314217 0.00032162 0.000298524 0.000317028 0.000322685 0.000304442 0.00029795 0.000326944 0.000305992 0.000325837 0.000332933 0.000306712 0.00029996 0.000326139 0.000309576 0.000326926 0.000334295 0.000308244 0.000301399 0.000325708 0.000311894 0.000327194 0.00033462 0.000309773 0.000303034 0.000325552 0.000313622 0.000327189 0.000334451 0.000311323 0.000304841 0.000325554 0.000315021 0.000327087 0.000334026 0.00031284 0.000306716 0.000325634 0.000316207 0.000326956 0.000333468 0.000314271 0.000308565 0.000325736 0.000317245 0.000326829 0.000332858 0.000315583 0.000310323 0.000325835 0.00031817 0.000326718 0.000332242 0.000316764 0.000311958 0.000325917 0.000319009 0.00032663 0.000331649 0.000317819 0.000313458 0.00032598 0.000319772 0.000326558 0.00033109 0.00031876 0.000314826 0.000326023 0.000320468 0.000326498 0.000330568 0.000319596 0.000316068 0.000326051 0.000321103 0.000326447 0.000330084 0.000320345 0.000317196 0.000326064 0.000321682 0.000326401 0.000329635 0.000321013 0.00031822 0.000326066 0.000322208 0.000326356 0.000329215 0.000321613 0.00031915 0.000326059 0.000322686 0.000326312 0.000328826 0.000322154 0.000319998 0.000326044 0.000323117 0.000326268 0.000328462 0.000322642 0.000320765 0.000326023 0.000323508 0.000326218 0.000328124 0.000323079 0.000321464 0.000325999 0.000323858 0.000326171 0.000327808 0.000323474 0.000322096 0.000325968 0.000324172 0.000326118 0.000327511 0.000323829 0.000322667 0.000325934 0.000324449 0.000326064 0.000327237 0.000324147 0.000323181 0.000325898 0.000324693 0.000326007 0.000326981 0.000324432 0.000323643 0.00032586 0.000324906 0.000325949 0.000326743 0.000324683 0.00032405 0.000325822 0.000325086 0.000325886 0.000326522 0.000324904 0.000324409 0.000325782 0.000325238 0.000325825 0.000326322 0.000325094 0.000324722 0.000325741 0.000325362 0.000325766 0.000326138 0.000325255 0.000324983 0.000325701 0.000325458 0.000325704 0.000325977 0.000325387 0.000325196 0.00032566 0.000325524 0.000325648 0.000325839 0.000325485 0.000325362 0.000325617 0.00032557 0.000325594 0.000325718 0.000325553 0.000325479 0.000325567 0.000325601 0.000325542 0.000325615 0.0003256 0.000325558 0.000325491 0.000325642 0.000325482 0.000325524 0.000325636 0.000325607 0.00032686 0.000309605 0.000322121 0.000322121 0.000320997 0.000315519 0.000325764 0.00031151 0.000323063 0.000328675 0.000316456 0.000309427 0.000325497 0.000310747 0.000324536 0.000331922 0.00031192 0.000304525 0.000327279 0.000313651 0.000327387 0.000335352 0.000312924 0.000305556 0.000327066 0.000315528 0.000327741 0.000335642 0.000314069 0.000306914 0.00032688 0.000316855 0.000327721 0.000335341 0.000315217 0.000308401 0.000326799 0.000317875 0.000327605 0.000334813 0.000316323 0.000309927 0.000326793 0.000318709 0.000327469 0.000334191 0.000317359 0.000311425 0.000326815 0.000319425 0.000327335 0.000333536 0.000318302 0.000312848 0.000326838 0.000320065 0.000327215 0.000332887 0.000319153 0.000314174 0.00032685 0.00032065 0.00032711 0.000332264 0.000319912 0.000315396 0.000326846 0.00032119 0.000327015 0.000331673 0.000320591 0.000316516 0.000326826 0.000321691 0.000326927 0.000331115 0.000321199 0.000317541 0.00032679 0.000322153 0.000326845 0.000330593 0.000321743 0.000318477 0.000326743 0.000322579 0.000326765 0.000330102 0.000322232 0.000319331 0.000326683 0.00032297 0.000326685 0.00032964 0.000322672 0.000320111 0.000326618 0.000323328 0.000326604 0.000329208 0.000323069 0.000320823 0.000326546 0.000323653 0.000326526 0.000328804 0.000323426 0.00032147 0.000326472 0.000323948 0.000326443 0.000328424 0.00032375 0.000322061 0.000326394 0.000324214 0.000326364 0.000328071 0.00032404 0.000322599 0.000326319 0.000324452 0.000326285 0.000327739 0.000324301 0.000323083 0.000326241 0.000324663 0.000326204 0.000327432 0.000324532 0.000323517 0.000326163 0.000324849 0.000326125 0.000327146 0.000324741 0.000323906 0.000326088 0.00032501 0.000326047 0.000326886 0.000324922 0.000324252 0.000326014 0.000325146 0.000325971 0.000326643 0.000325083 0.000324556 0.000325944 0.000325264 0.000325895 0.000326424 0.000325221 0.000324816 0.000325876 0.000325358 0.000325822 0.000326228 0.000325334 0.000325039 0.000325811 0.00032543 0.000325753 0.000326049 0.000325426 0.000325218 0.000325749 0.000325482 0.000325686 0.000325894 0.000325494 0.000325359 0.000325691 0.000325518 0.000325625 0.000325761 0.000325541 0.000325466 0.000325632 0.000325546 0.000325573 0.000325647 0.000325571 0.00032554 0.000325558 0.000325599 0.000325524 0.000325555 0.000325608 0.0003256 0.000331443 0.000316307 0.000332607 0.000332607 0.00032141 0.000316023 0.000329564 0.000316715 0.000328946 0.00033455 0.000319764 0.000312464 0.000328189 0.00031754 0.000327563 0.000335217 0.000318695 0.000310884 0.000327807 0.0003176 0.000327506 0.000335729 0.00031754 0.000309773 0.000328312 0.000318842 0.000328255 0.000336474 0.000318159 0.000310684 0.000328194 0.000319776 0.000328267 0.000336138 0.000318894 0.000311842 0.000328068 0.000320475 0.000328154 0.000335537 0.000319612 0.000313051 0.000327986 0.000321025 0.000328016 0.000334849 0.000320287 0.000314238 0.000327924 0.000321478 0.000327874 0.000334143 0.000320898 0.000315363 0.000327866 0.000321879 0.000327738 0.000333451 0.000321448 0.000316409 0.0003278 0.000322247 0.000327609 0.000332791 0.00032194 0.000317375 0.000327722 0.000322589 0.000327483 0.000332163 0.000322381 0.000318265 0.000327629 0.000322912 0.000327361 0.000331569 0.000322778 0.000319082 0.000327524 0.000323215 0.000327239 0.000331008 0.000323134 0.000319833 0.000327409 0.000323498 0.000327118 0.000330477 0.000323455 0.000320522 0.000327287 0.000323761 0.000326998 0.000329976 0.000323742 0.000321152 0.000327159 0.000324003 0.000326879 0.000329504 0.000324005 0.000321732 0.000327029 0.000324227 0.000326762 0.000329061 0.000324238 0.00032226 0.000326898 0.00032443 0.000326647 0.000328644 0.00032445 0.000322742 0.000326769 0.000324614 0.000326532 0.000328255 0.000324638 0.00032318 0.000326641 0.000324778 0.000326424 0.000327893 0.000324808 0.000323576 0.000326517 0.000324924 0.000326318 0.000327557 0.000324958 0.000323931 0.000326399 0.000325053 0.000326215 0.000327246 0.000325089 0.000324247 0.000326283 0.000325164 0.000326117 0.000326962 0.000325204 0.000324526 0.000326175 0.00032526 0.000326022 0.000326702 0.000325303 0.000324772 0.000326073 0.000325339 0.000325936 0.000326469 0.000325388 0.000324983 0.000325976 0.000325403 0.000325849 0.000326255 0.000325457 0.000325158 0.000325887 0.000325452 0.000325769 0.000326068 0.000325511 0.000325303 0.000325806 0.000325485 0.000325694 0.000325902 0.000325548 0.000325415 0.000325736 0.000325499 0.000325624 0.000325757 0.000325565 0.000325498 0.000325672 0.0003255 0.000325567 0.000325635 0.000325559 0.000325543 0.00032561 0.000325509 0.00032554 0.000325556 0.000325543 0.00032556 0.000335643 0.000321981 0.000342667 0.000342667 0.000321239 0.000315811 0.00033303 0.000320807 0.000334635 0.000340374 0.000321792 0.000314306 0.000331036 0.000321364 0.00033093 0.000338802 0.000322205 0.000314113 0.000329969 0.000321812 0.000329389 0.000337857 0.000322184 0.000314167 0.000329579 0.000321977 0.000328924 0.000337287 0.00032201 0.000314351 0.000329586 0.000322481 0.000328949 0.000336928 0.000322342 0.000315171 0.000329423 0.00032288 0.000328812 0.000336252 0.000322711 0.000316083 0.00032926 0.00032318 0.00032865 0.000335496 0.000323065 0.000316989 0.000329104 0.000323412 0.000328477 0.000334729 0.000323382 0.000317843 0.000328951 0.000323608 0.000328307 0.000333987 0.000323664 0.000318638 0.000328794 0.000323787 0.000328137 0.000333277 0.000323916 0.000319371 0.000328628 0.000323956 0.000327969 0.000332606 0.000324143 0.000320046 0.000328452 0.00032412 0.000327799 0.000331969 0.000324344 0.00032067 0.00032827 0.000324276 0.000327631 0.000331363 0.000324526 0.000321246 0.000328079 0.000324428 0.000327463 0.000330789 0.000324689 0.000321775 0.000327886 0.000324572 0.000327298 0.000330248 0.000324836 0.000322265 0.000327691 0.000324706 0.000327135 0.000329734 0.000324966 0.000322711 0.000327496 0.000324832 0.000326977 0.000329252 0.000325084 0.000323121 0.000327305 0.000324946 0.000326822 0.0003288 0.000325186 0.000323495 0.000327119 0.00032505 0.000326675 0.000328377 0.000325277 0.000323834 0.000326938 0.000325145 0.000326531 0.000327982 0.000325356 0.000324139 0.000326764 0.000325227 0.000326397 0.000327619 0.000325422 0.000324412 0.000326601 0.0003253 0.00032627 0.000327282 0.000325481 0.000324657 0.000326446 0.000325362 0.00032615 0.000326976 0.000325526 0.000324869 0.000326302 0.000325414 0.00032604 0.000326698 0.000325565 0.000325052 0.000326167 0.000325459 0.000325937 0.000326451 0.000325594 0.000325207 0.000326044 0.00032549 0.000325843 0.00032623 0.000325616 0.000325336 0.000325932 0.000325513 0.000325753 0.000326034 0.000325631 0.000325439 0.000325832 0.000325521 0.000325672 0.000325864 0.000325633 0.000325515 0.000325748 0.00032551 0.000325599 0.000325718 0.000325623 0.000325561 0.000325678 0.000325474 0.000325535 0.000325597 0.000325578 0.000325562 0.000325632 0.000325413 0.000325522 0.000325539 0.000325483 0.000325506 0.000340116 0.000326645 0.00035304 0.00035304 0.000320298 0.000314638 0.00033618 0.000324467 0.000340109 0.000346203 0.000323285 0.000315547 0.000333699 0.000324622 0.000334266 0.000342441 0.000324952 0.000316647 0.000332283 0.000324919 0.000331571 0.000340237 0.000325572 0.000317397 0.000331511 0.00032504 0.000330352 0.000338822 0.000325671 0.000317932 0.000331116 0.000325042 0.00032984 0.000337826 0.000325603 0.00031841 0.000330894 0.000325138 0.00032962 0.000337021 0.000325653 0.000319041 0.000330638 0.000325204 0.000329394 0.000336176 0.000325716 0.000319683 0.000330377 0.000325236 0.000329167 0.000335338 0.00032577 0.000320288 0.000330113 0.000325253 0.000328938 0.000334531 0.000325815 0.000320849 0.000329848 0.000325266 0.00032871 0.000333765 0.000325851 0.000321367 0.000329581 0.000325282 0.000328481 0.000333037 0.000325881 0.000321846 0.00032931 0.000325301 0.000328254 0.000332345 0.000325904 0.000322289 0.000329037 0.000325328 0.000328028 0.000331688 0.000325924 0.0003227 0.000328761 0.000325359 0.000327806 0.000331066 0.000325939 0.000323079 0.000328487 0.000325391 0.000327586 0.000330474 0.00032595 0.000323429 0.000328216 0.000325424 0.000327374 0.000329915 0.000325956 0.000323749 0.000327951 0.000325457 0.000327168 0.00032939 0.000325957 0.000324042 0.000327693 0.000325488 0.000326972 0.000328898 0.000325956 0.00032431 0.000327448 0.000325518 0.000326784 0.000328438 0.000325951 0.000324551 0.000327209 0.000325544 0.000326606 0.000328011 0.000325941 0.000324768 0.000326984 0.000325567 0.000326442 0.000327618 0.000325927 0.000324959 0.000326771 0.000325583 0.000326284 0.000327255 0.00032591 0.000325126 0.000326573 0.000325598 0.000326143 0.000326928 0.00032589 0.00032527 0.000326392 0.000325607 0.000326016 0.000326637 0.000325866 0.00032539 0.000326224 0.00032561 0.000325898 0.000326374 0.000325838 0.000325487 0.000326073 0.000325611 0.000325796 0.000326147 0.000325811 0.000325563 0.000325942 0.000325599 0.000325702 0.00032595 0.000325777 0.000325616 0.000325828 0.000325585 0.000325623 0.000325785 0.000325744 0.000325647 0.000325733 0.000325551 0.000325551 0.000325648 0.0003257 0.000325653 0.000325657 0.000325473 0.000325485 0.000325531 0.000325616 0.000325603 0.000325616 0.000325345 0.000325481 0.000325494 0.000325455 0.000325463 0.000346116 0.000330025 0.000364457 0.000364457 0.000318278 0.000312366 0.000339509 0.000328129 0.000345598 0.00035212 0.000324702 0.00031688 0.000336426 0.000327955 0.000337739 0.000346046 0.000327607 0.000319418 0.000334812 0.000327912 0.000334159 0.000342692 0.000328687 0.000320742 0.000333837 0.000327783 0.000332388 0.000340582 0.000328913 0.000321459 0.000333195 0.000327572 0.000331465 0.00033911 0.000328771 0.00032189 0.000332726 0.000327346 0.000330939 0.000337974 0.000328523 0.000322223 0.000332327 0.00032717 0.000330567 0.000336994 0.000328312 0.000322575 0.00033192 0.000327006 0.000330216 0.000336057 0.00032812 0.000322912 0.000331512 0.000326852 0.000329872 0.000335165 0.000327942 0.000323228 0.000331107 0.000326713 0.000329535 0.000334319 0.000327777 0.000323523 0.000330706 0.000326588 0.000329205 0.000333514 0.000327623 0.000323798 0.000330308 0.000326478 0.00032888 0.00033275 0.00032748 0.000324053 0.000329916 0.000326381 0.000328564 0.000332026 0.000327345 0.00032429 0.000329531 0.0003263 0.000328256 0.000331337 0.000327217 0.000324512 0.000329156 0.000326227 0.000327961 0.000330687 0.000327097 0.000324715 0.000328789 0.000326165 0.000327676 0.000330073 0.000326981 0.000324901 0.000328436 0.000326109 0.000327405 0.000329496 0.000326871 0.000325071 0.000328099 0.000326062 0.000327149 0.000328956 0.000326766 0.000325222 0.000327776 0.000326016 0.000326905 0.000328453 0.000326666 0.00032536 0.000327468 0.000325976 0.000326678 0.000327987 0.000326568 0.000325477 0.000327183 0.000325939 0.00032647 0.000327562 0.000326473 0.000325582 0.000326915 0.0003259 0.000326279 0.000327171 0.00032638 0.000325667 0.000326667 0.000325865 0.000326105 0.000326819 0.00032629 0.000325736 0.00032644 0.00032583 0.000325951 0.000326505 0.000326203 0.000325789 0.000326237 0.000325794 0.000325816 0.00032623 0.000326118 0.000325822 0.000326059 0.000325757 0.000325702 0.000325998 0.000326033 0.000325836 0.000325905 0.000325716 0.000325609 0.000325805 0.000325954 0.000325834 0.00032578 0.00032567 0.000325531 0.000325651 0.000325874 0.000325811 0.000325685 0.000325613 0.000325474 0.000325537 0.000325795 0.000325763 0.000325607 0.000325518 0.000325421 0.000325453 0.00032569 0.000325671 0.00032556 0.000325339 0.000325415 0.000325435 0.000325474 0.00032546 0.000353634 0.000329514 0.0003762 0.0003762 0.000313308 0.000307807 0.000344197 0.00033118 0.000351468 0.000357745 0.000325701 0.000319089 0.000339723 0.000331065 0.000341644 0.000348696 0.000329954 0.000323418 0.000337722 0.000330592 0.00033744 0.000344221 0.000331277 0.000325084 0.00033661 0.000330086 0.000335304 0.000341658 0.000331488 0.000325709 0.000335809 0.000329604 0.000334039 0.000339939 0.00033125 0.0003259 0.000335121 0.000329168 0.000333171 0.000338621 0.000330854 0.000325925 0.000334487 0.000328788 0.000332489 0.000337506 0.000330446 0.000325918 0.000333872 0.000328463 0.000331889 0.000336493 0.000330071 0.000325926 0.000333266 0.000328177 0.000331329 0.00033554 0.00032973 0.00032595 0.000332671 0.000327921 0.000330798 0.000334634 0.000329416 0.000325983 0.000332088 0.000327692 0.000330292 0.00033377 0.000329128 0.000326022 0.000331521 0.000327486 0.000329808 0.00033295 0.000328856 0.000326063 0.000330971 0.000327299 0.000329346 0.000332169 0.000328603 0.000326105 0.00033044 0.000327131 0.000328907 0.000331428 0.000328365 0.000326144 0.000329931 0.000326981 0.000328492 0.00033073 0.000328141 0.000326182 0.000329442 0.000326843 0.000328099 0.000330072 0.000327929 0.000326215 0.000328978 0.00032672 0.000327732 0.000329455 0.000327728 0.000326243 0.000328539 0.000326605 0.000327386 0.000328878 0.000327537 0.000326267 0.000328123 0.000326501 0.000327066 0.00032834 0.000327357 0.000326286 0.000327731 0.000326406 0.000326771 0.000327845 0.000327185 0.000326293 0.000327371 0.000326317 0.000326498 0.00032739 0.00032702 0.000326299 0.000327035 0.000326234 0.000326255 0.000326977 0.000326864 0.000326293 0.000326728 0.000326158 0.000326036 0.000326608 0.000326715 0.000326278 0.000326449 0.000326084 0.000325842 0.000326279 0.00032657 0.000326252 0.000326204 0.000326013 0.000325677 0.000325995 0.000326432 0.000326217 0.000325987 0.000325942 0.000325545 0.00032576 0.000326298 0.000326164 0.000325811 0.00032587 0.000325439 0.000325573 0.000326166 0.000326096 0.000325678 0.000325789 0.000325369 0.000325438 0.000326038 0.00032601 0.000325585 0.000325698 0.000325337 0.000325366 0.000325909 0.000325896 0.000325544 0.000325586 0.00032534 0.000325353 0.000325772 0.000325754 0.000325537 0.000325415 0.000325374 0.000325392 0.00032556 0.000325541 0.00031517 0.000272213 0.000296193 0.000296193 0.000302904 0.000293147 0.000327063 0.000300362 0.000322823 0.000332591 0.000302033 0.000295591 0.000323797 0.000305365 0.000326567 0.000333695 0.000302073 0.000295753 0.000323339 0.00030766 0.000327552 0.000334497 0.000303337 0.000297008 0.000323543 0.000309224 0.000327509 0.000334419 0.000305212 0.000299002 0.000323894 0.000310609 0.000327138 0.000333879 0.00030727 0.000301316 0.00032423 0.000311952 0.000326736 0.00033316 0.00030928 0.000303684 0.000324514 0.000313267 0.000326411 0.000332411 0.000311144 0.000305961 0.000324742 0.000314534 0.000326184 0.000331705 0.000312827 0.000308081 0.000324922 0.000315733 0.000326044 0.000331068 0.00031433 0.00031002 0.000325064 0.00031685 0.000325966 0.000330501 0.000315665 0.000311779 0.000325179 0.000317881 0.000325931 0.000329998 0.000316851 0.000313368 0.000325272 0.000318824 0.000325922 0.000329549 0.00031791 0.000314803 0.000325349 0.000319681 0.000325923 0.000329145 0.000318858 0.000316103 0.000325414 0.000320459 0.00032593 0.000328775 0.00031971 0.000317278 0.000325467 0.000321162 0.000325937 0.000328438 0.000320476 0.000318344 0.00032551 0.000321798 0.000325939 0.000328125 0.00032117 0.000319312 0.000325547 0.00032237 0.000325936 0.000327834 0.000321795 0.00032019 0.000325576 0.000322884 0.000325928 0.000327564 0.000322361 0.000320987 0.000325597 0.000323344 0.000325912 0.000327309 0.000322872 0.000321711 0.000325612 0.000323755 0.000325891 0.000327069 0.000323331 0.000322362 0.000325618 0.00032412 0.000325863 0.000326845 0.000323747 0.000322953 0.000325621 0.000324444 0.00032583 0.000326633 0.000324119 0.000323477 0.000325618 0.000324726 0.000325788 0.000326437 0.00032445 0.000323948 0.000325612 0.000324968 0.000325745 0.000326251 0.000324741 0.00032436 0.000325598 0.000325173 0.000325697 0.00032608 0.000324994 0.000324721 0.000325584 0.000325336 0.000325646 0.000325921 0.000325207 0.000325022 0.000325559 0.000325471 0.000325594 0.000325778 0.000325376 0.000325267 0.000325536 0.000325567 0.000325549 0.000325658 0.000325506 0.000325452 0.000325512 0.000325619 0.000325507 0.000325561 0.000325581 0.000325574 0.000325478 0.000325633 0.000325481 0.000325488 0.000325609 0.000325617 0.000325434 0.000325585 0.000325455 0.000325447 0.000325546 0.000325558 0.000322582 0.000300589 0.000311202 0.000311202 0.000322218 0.000314112 0.000322026 0.000302123 0.00031967 0.000327958 0.000306172 0.000298044 0.000326238 0.000309954 0.000327362 0.000336241 0.000307402 0.00029986 0.000325519 0.000312744 0.000328115 0.000336384 0.000308727 0.000301436 0.000325322 0.00031409 0.000327964 0.000335862 0.000310255 0.000303208 0.000325359 0.000314973 0.000327581 0.000335124 0.000311804 0.000305078 0.000325482 0.000315747 0.000327206 0.000334336 0.00031328 0.000306948 0.000325622 0.00031652 0.000326911 0.000333573 0.000314642 0.000308753 0.000325749 0.000317313 0.000326701 0.000332858 0.000315878 0.000310456 0.000325853 0.000318108 0.000326563 0.000332201 0.000316989 0.000312039 0.000325932 0.000318886 0.000326475 0.0003316 0.000317984 0.000313498 0.000325986 0.000319628 0.000326418 0.000331045 0.000318876 0.000314832 0.000326023 0.000320326 0.000326376 0.000330531 0.000319677 0.000316053 0.000326045 0.000320971 0.000326345 0.000330057 0.000320398 0.000317167 0.000326055 0.000321563 0.000326316 0.000329616 0.000321049 0.000318183 0.000326054 0.000322102 0.000326285 0.000329205 0.000321636 0.000319109 0.000326044 0.000322591 0.000326251 0.000328819 0.000322166 0.000319952 0.000326031 0.000323032 0.000326214 0.000328459 0.000322647 0.000320722 0.00032601 0.00032343 0.000326173 0.000328122 0.000323082 0.000321421 0.000325987 0.000323787 0.00032613 0.000327807 0.000323476 0.000322057 0.000325955 0.000324105 0.00032608 0.000327511 0.000323829 0.000322631 0.000325926 0.000324388 0.00032603 0.000327237 0.000324147 0.000323148 0.000325893 0.000324636 0.000325976 0.00032698 0.000324431 0.000323612 0.000325855 0.00032485 0.00032592 0.000326742 0.000324683 0.000324022 0.000325817 0.000325033 0.000325861 0.000326523 0.000324902 0.000324384 0.000325777 0.000325191 0.000325801 0.000326321 0.000325094 0.000324695 0.000325736 0.000325314 0.000325742 0.000326142 0.000325253 0.000324961 0.000325696 0.000325414 0.000325686 0.000325979 0.000325381 0.000325177 0.000325659 0.000325486 0.000325635 0.00032584 0.000325474 0.000325344 0.000325613 0.000325533 0.000325592 0.000325722 0.000325538 0.000325465 0.000325565 0.000325573 0.000325552 0.000325625 0.00032557 0.00032555 0.000325484 0.000325629 0.000325505 0.000325525 0.000325608 0.000325603 0.000327348 0.000308885 0.000322619 0.000322619 0.000321778 0.000315258 0.000325713 0.000313673 0.000324401 0.000331093 0.000316707 0.000308914 0.000325392 0.000313584 0.000326194 0.000334384 0.000312551 0.000304637 0.000326987 0.00031594 0.000328348 0.000336898 0.000313436 0.000305802 0.000326877 0.000317147 0.000328348 0.000336518 0.00031454 0.000307254 0.000326795 0.000317869 0.000328061 0.000335771 0.000315638 0.000308748 0.000326779 0.000318426 0.000327754 0.00033498 0.000316669 0.000310216 0.000326799 0.000318951 0.0003275 0.00033422 0.00031762 0.000311632 0.000326827 0.000319482 0.000327306 0.000333508 0.000318487 0.000312977 0.000326849 0.000320023 0.000327162 0.000332846 0.000319274 0.000314238 0.000326855 0.000320564 0.000327052 0.000332229 0.000319988 0.000315412 0.000326844 0.000321089 0.000326961 0.00033165 0.00032063 0.000316499 0.000326818 0.00032159 0.000326883 0.000331106 0.000321216 0.000317502 0.000326778 0.00032206 0.00032681 0.000330595 0.000321745 0.000318424 0.000326726 0.000322496 0.000326735 0.000330112 0.000322223 0.000319271 0.000326667 0.000322898 0.000326662 0.000329658 0.000322658 0.000320049 0.0003266 0.000323265 0.000326587 0.00032923 0.000323052 0.000320761 0.000326531 0.000323597 0.00032651 0.000328827 0.000323409 0.00032141 0.000326455 0.000323898 0.000326433 0.000328451 0.000323731 0.000322002 0.000326381 0.000324169 0.000326355 0.000328098 0.000324025 0.000322541 0.000326304 0.00032441 0.000326275 0.000327768 0.000324285 0.000323028 0.000326228 0.000324624 0.000326197 0.000327461 0.00032452 0.000323467 0.000326152 0.000324813 0.000326119 0.000327176 0.000324731 0.00032386 0.00032608 0.000324977 0.000326042 0.000326915 0.000324913 0.000324208 0.000326007 0.000325116 0.000325967 0.000326673 0.000325073 0.000324513 0.000325938 0.000325236 0.000325893 0.000326455 0.000325212 0.000324779 0.00032587 0.000325332 0.000325822 0.000326257 0.000325328 0.000325 0.000325803 0.000325409 0.000325752 0.00032608 0.00032542 0.000325184 0.000325741 0.000325462 0.000325692 0.000325928 0.000325486 0.000325328 0.000325682 0.000325505 0.000325641 0.000325799 0.000325527 0.000325438 0.000325623 0.000325538 0.000325591 0.000325679 0.000325552 0.000325522 0.000325547 0.000325602 0.000325545 0.000325575 0.000325581 0.000325591 0.000331002 0.000315257 0.000332761 0.000332761 0.000321186 0.000315338 0.000329442 0.000317536 0.000329362 0.000335451 0.000319492 0.000312121 0.000328149 0.000319149 0.00032845 0.000336172 0.00031861 0.000310883 0.000327838 0.000319063 0.000328417 0.000336516 0.000317709 0.000310098 0.00032832 0.000319838 0.000328868 0.000336897 0.000318329 0.000311068 0.000328238 0.000320378 0.000328685 0.000336284 0.000319043 0.000312216 0.000328128 0.00032078 0.000328427 0.000335519 0.000319722 0.00031336 0.000328039 0.000321131 0.000328187 0.000334756 0.000320345 0.000314462 0.000327966 0.00032147 0.000327983 0.000334032 0.000320913 0.000315507 0.000327895 0.000321811 0.000327811 0.000333351 0.000321428 0.00031649 0.000327818 0.000322154 0.000327662 0.000332708 0.000321897 0.00031741 0.00032773 0.00032249 0.000327526 0.000332101 0.000322324 0.000318265 0.00032763 0.000322817 0.000327398 0.000331527 0.000322711 0.00031906 0.00032752 0.000323128 0.000327275 0.000330981 0.000323064 0.000319796 0.000327402 0.000323419 0.000327152 0.000330463 0.000323384 0.000320477 0.000327277 0.000323692 0.000327031 0.000329972 0.000323677 0.000321104 0.000327148 0.000323943 0.000326909 0.000329508 0.000323941 0.000321679 0.000327017 0.000324175 0.00032679 0.000329072 0.000324184 0.000322207 0.000326887 0.000324386 0.000326673 0.000328663 0.000324399 0.00032269 0.000326757 0.000324573 0.000326559 0.000328279 0.000324593 0.000323129 0.00032663 0.000324742 0.000326447 0.000327919 0.000324766 0.000323524 0.000326508 0.000324894 0.000326341 0.000327588 0.000324922 0.000323881 0.000326389 0.000325027 0.000326237 0.000327281 0.000325058 0.000324199 0.000326278 0.000325141 0.000326138 0.000326999 0.000325178 0.000324482 0.00032617 0.000325242 0.000326046 0.000326744 0.000325282 0.00032473 0.000326068 0.000325325 0.000325954 0.000326507 0.000325369 0.000324939 0.000325969 0.000325392 0.00032587 0.0003263 0.000325439 0.000325118 0.000325881 0.000325444 0.000325791 0.000326113 0.000325495 0.000325266 0.000325797 0.000325485 0.000325718 0.000325948 0.000325534 0.00032538 0.00032572 0.000325509 0.000325656 0.00032581 0.000325549 0.000325462 0.000325656 0.000325518 0.000325602 0.00032569 0.000325551 0.000325521 0.000325596 0.000325531 0.000325559 0.000325589 0.000325534 0.000325548 0.000334311 0.000320637 0.000342403 0.000342403 0.000320068 0.000314624 0.000332919 0.000320383 0.000334366 0.00034012 0.000321118 0.00031402 0.000331197 0.000321689 0.000331231 0.000338685 0.000321668 0.000314208 0.000330177 0.000322326 0.000329989 0.000337759 0.000321798 0.000314471 0.000329777 0.000322379 0.00032956 0.000337148 0.00032175 0.000314757 0.000329748 0.000322678 0.000329474 0.00033671 0.000322121 0.000315559 0.000329562 0.000322925 0.000329229 0.000335984 0.000322508 0.000316411 0.000329368 0.000323126 0.000328973 0.00033522 0.000322864 0.00031724 0.000329185 0.000323307 0.000328733 0.000334476 0.000323185 0.000318023 0.000329009 0.00032348 0.00032851 0.000333767 0.000323473 0.000318758 0.000328834 0.000323653 0.000328304 0.000333096 0.000323731 0.000319447 0.000328655 0.000323825 0.000328111 0.000332456 0.000323963 0.000320089 0.00032847 0.000323999 0.000327923 0.000331847 0.000324177 0.000320688 0.000328278 0.000324168 0.00032774 0.000331268 0.000324369 0.000321244 0.000328083 0.000324329 0.000327559 0.000330715 0.000324544 0.000321762 0.000327886 0.000324486 0.000327386 0.000330191 0.000324704 0.000322241 0.000327688 0.00032463 0.000327215 0.000329696 0.000324846 0.000322683 0.000327492 0.000324765 0.000327047 0.000329224 0.000324974 0.000323088 0.0003273 0.000324889 0.000326889 0.000328784 0.000325089 0.000323459 0.000327112 0.000325004 0.000326735 0.000328371 0.00032519 0.000323794 0.00032693 0.000325105 0.000326589 0.00032799 0.00032528 0.000324099 0.00032676 0.000325196 0.000326452 0.000327636 0.000325358 0.000324372 0.000326595 0.000325276 0.000326321 0.000327308 0.000325423 0.000324615 0.00032644 0.000325342 0.000326199 0.000327008 0.000325479 0.000324827 0.000326294 0.000325403 0.000326086 0.000326738 0.000325524 0.00032501 0.00032616 0.000325446 0.000325983 0.000326497 0.000325559 0.000325167 0.000326038 0.000325487 0.000325885 0.000326277 0.000325585 0.000325298 0.000325923 0.000325515 0.000325796 0.000326084 0.000325605 0.000325403 0.000325822 0.000325533 0.000325716 0.000325918 0.000325611 0.000325478 0.000325733 0.000325541 0.000325645 0.000325778 0.000325605 0.000325525 0.000325669 0.000325519 0.000325588 0.000325667 0.000325573 0.000325545 0.000325619 0.000325457 0.000325552 0.00032558 0.000325494 0.000325493 0.000337751 0.00032491 0.000352009 0.000352009 0.000318204 0.000312935 0.000336113 0.000322872 0.000339334 0.000344981 0.000322131 0.000315227 0.000334103 0.000323687 0.000334165 0.000341428 0.00032394 0.000316777 0.000332713 0.000324413 0.00033194 0.000339372 0.000324655 0.000317717 0.000331869 0.000324737 0.000330929 0.000338061 0.000324883 0.000318327 0.000331397 0.000324793 0.000330443 0.000337147 0.000324937 0.000318811 0.000331111 0.00032488 0.000330158 0.000336408 0.000325075 0.000319395 0.000330802 0.000324941 0.000329851 0.000335628 0.000325204 0.00031997 0.0003305 0.000324981 0.000329551 0.000334861 0.000325314 0.000320514 0.000330207 0.000325011 0.00032926 0.000334121 0.000325406 0.000321023 0.000329919 0.000325042 0.000328983 0.000333414 0.000325482 0.000321496 0.000329633 0.000325078 0.000328716 0.00033274 0.000325547 0.000321939 0.000329348 0.000325119 0.000328457 0.000332095 0.000325602 0.000322353 0.000329064 0.000325164 0.000328207 0.00033148 0.00032565 0.000322742 0.000328782 0.000325214 0.000327965 0.000330892 0.000325694 0.000323103 0.000328501 0.000325265 0.00032773 0.000330335 0.000325729 0.000323438 0.000328224 0.000325314 0.000327502 0.000329803 0.000325759 0.000323748 0.000327955 0.000325363 0.000327285 0.000329302 0.000325784 0.000324034 0.000327696 0.00032541 0.000327078 0.000328832 0.000325803 0.000324294 0.000327446 0.000325454 0.000326883 0.000328394 0.000325817 0.00032453 0.000327205 0.000325493 0.000326697 0.000327985 0.000325823 0.00032474 0.000326979 0.000325527 0.000326526 0.000327609 0.000325826 0.00032493 0.000326766 0.000325553 0.000326367 0.000327263 0.00032582 0.000325095 0.000326567 0.000325577 0.000326223 0.000326948 0.000325813 0.000325237 0.000326386 0.000325595 0.00032609 0.000326666 0.0003258 0.000325357 0.000326219 0.000325607 0.000325972 0.000326415 0.000325781 0.000325454 0.000326067 0.000325612 0.000325865 0.000326193 0.000325763 0.000325531 0.000325935 0.000325614 0.000325772 0.000326004 0.00032574 0.000325583 0.000325816 0.000325606 0.000325688 0.000325845 0.000325711 0.000325615 0.00032572 0.000325588 0.000325616 0.000325712 0.000325676 0.000325623 0.000325652 0.000325538 0.000325557 0.00032561 0.000325619 0.000325593 0.000325606 0.00032541 0.000325526 0.000325551 0.000325477 0.000325457 0.00034165 0.000327768 0.000361973 0.000361973 0.000315311 0.000309743 0.000338894 0.000325327 0.000344088 0.000350147 0.000322884 0.000315973 0.00033659 0.000325741 0.000336967 0.000344229 0.000325958 0.000319039 0.000335049 0.000326328 0.000333921 0.000341061 0.000327141 0.000320589 0.000334005 0.000326658 0.000332458 0.000339147 0.000327524 0.000321423 0.000333287 0.000326734 0.000331669 0.000337858 0.000327564 0.000321914 0.000332762 0.00032667 0.00033117 0.000336885 0.000327482 0.000322267 0.000332326 0.000326592 0.000330781 0.000336048 0.000327408 0.00032261 0.000331895 0.000326501 0.000330403 0.000335242 0.000327329 0.000322933 0.000331474 0.000326407 0.000330032 0.000334461 0.000327246 0.000323233 0.000331061 0.000326319 0.000329675 0.000333714 0.000327162 0.000323512 0.000330657 0.00032624 0.000329327 0.000332996 0.000327077 0.000323774 0.000330259 0.000326169 0.000328991 0.000332309 0.000326994 0.000324021 0.000329871 0.00032611 0.000328665 0.000331649 0.000326912 0.000324252 0.000329487 0.000326063 0.000328353 0.000331021 0.000326833 0.000324468 0.000329115 0.000326024 0.000328051 0.000330421 0.000326756 0.000324669 0.000328754 0.00032599 0.000327766 0.000329855 0.00032668 0.000324855 0.000328405 0.000325964 0.000327492 0.000329319 0.000326608 0.000325024 0.000328072 0.000325939 0.000327234 0.000328818 0.000326536 0.000325181 0.000327752 0.000325918 0.000326992 0.000328347 0.000326464 0.000325316 0.00032745 0.000325896 0.000326768 0.000327915 0.000326392 0.000325439 0.000327168 0.000325879 0.000326559 0.00032751 0.000326323 0.000325545 0.000326902 0.00032586 0.00032637 0.000327146 0.000326251 0.000325631 0.000326657 0.000325841 0.000326198 0.000326817 0.000326179 0.000325702 0.000326434 0.000325817 0.000326047 0.000326523 0.00032611 0.000325758 0.000326231 0.000325793 0.000325912 0.000326264 0.000326038 0.000325794 0.000326055 0.000325771 0.0003258 0.000326043 0.00032597 0.000325814 0.000325902 0.000325737 0.000325704 0.000325861 0.000325899 0.000325813 0.000325774 0.000325703 0.000325626 0.000325712 0.00032583 0.000325793 0.000325674 0.000325654 0.000325565 0.000325602 0.000325757 0.000325751 0.000325608 0.000325583 0.000325518 0.000325525 0.000325678 0.000325673 0.000325556 0.00032541 0.000325487 0.000325492 0.00032549 0.00032546 0.000348246 0.000328973 0.000373057 0.000373057 0.000311134 0.00030539 0.000343233 0.000328452 0.000349499 0.000356025 0.000324052 0.000317824 0.000339848 0.000328602 0.0003405 0.000347021 0.000328461 0.000322682 0.000338011 0.000328754 0.000336895 0.000342761 0.000329901 0.000324622 0.000336847 0.000328782 0.000335142 0.000340435 0.000330258 0.000325421 0.000335972 0.000328673 0.000334095 0.00033892 0.000330185 0.000325737 0.000335228 0.000328471 0.000333336 0.000337765 0.000329945 0.000325848 0.00033455 0.000328233 0.0003327 0.000336778 0.000329662 0.000325889 0.000333909 0.000328004 0.000332117 0.000335877 0.000329389 0.000325921 0.000333285 0.000327784 0.000331557 0.000335014 0.00032913 0.000325955 0.000332677 0.000327582 0.000331021 0.000334187 0.000328884 0.00032599 0.000332087 0.000327394 0.000330505 0.000333392 0.000328651 0.000326027 0.000331517 0.000327224 0.000330012 0.00033263 0.00032843 0.000326065 0.000330964 0.000327069 0.000329542 0.000331901 0.000328221 0.000326102 0.000330432 0.000326933 0.000329096 0.000331209 0.000328022 0.000326139 0.00032992 0.000326805 0.000328672 0.000330549 0.000327832 0.000326173 0.000329432 0.000326694 0.000328273 0.000329927 0.000327651 0.000326204 0.000328966 0.000326592 0.000327898 0.000329341 0.000327479 0.000326231 0.000328527 0.000326499 0.000327547 0.000328791 0.000327316 0.000326253 0.000328111 0.000326415 0.00032722 0.000328279 0.000327157 0.000326269 0.000327722 0.000326338 0.00032692 0.000327804 0.000327007 0.000326281 0.000327359 0.000326264 0.000326646 0.000327369 0.000326863 0.000326284 0.000327023 0.000326198 0.000326398 0.000326975 0.000326722 0.000326278 0.000326715 0.000326135 0.000326175 0.000326618 0.000326588 0.000326263 0.000326434 0.000326075 0.000325981 0.000326304 0.000326457 0.000326239 0.000326187 0.000326015 0.000325813 0.00032603 0.000326331 0.000326205 0.000325974 0.000325954 0.000325678 0.000325803 0.000326208 0.000326156 0.000325797 0.000325893 0.000325571 0.000325623 0.00032609 0.000326094 0.000325656 0.000325826 0.000325495 0.000325491 0.000325973 0.000326007 0.000325568 0.000325747 0.000325449 0.000325415 0.000325856 0.0003259 0.00032553 0.000325652 0.000325435 0.000325391 0.000325742 0.000325762 0.000325524 0.000325477 0.000325435 0.000325415 0.000325546 0.000325546 
SCALARS volume_diff float 1
LOOKUP_TABLE default
-2.13001e-05 -4.53863e-05 -2.94945e-05 -2.94945e-05 -2.97745e-05 -3.74711e-05 3.84563e-06 -2.36211e-05 -5.18593e-06 7.32621e-06 -1.7317e-05 -2.78367e-05 5.01898e-06 -2.28629e-05 -5.13444e-06 7.06036e-06 -1.47072e-05 -2.49458e-05 4.34132e-06 -2.10279e-05 -3.99202e-06 7.19831e-06 -1.3798e-05 -2.29929e-05 3.36856e-06 -1.87368e-05 -2.73498e-06 7.14406e-06 -1.324e-05 -2.12588e-05 2.48085e-06 -1.6432e-05 -1.64763e-06 6.90855e-06 -1.26687e-05 -1.95915e-05 1.7772e-06 -1.43131e-05 -7.9533e-07 6.5602e-06 -1.2e-05 -1.79696e-05 1.26225e-06 -1.24409e-05 -1.63408e-07 6.15577e-06 -1.12378e-05 -1.63975e-05 9.02801e-07 -1.08148e-05 2.86498e-07 5.72779e-06 -1.04109e-05 -1.48882e-05 6.60773e-07 -9.40983e-06 5.95232e-07 5.29853e-06 -9.55294e-06 -1.34543e-05 5.0726e-07 -8.18924e-06 7.96048e-07 4.87838e-06 -8.69225e-06 -1.20988e-05 4.09006e-07 -7.12429e-06 9.22048e-07 4.47283e-06 -7.85293e-06 -1.08321e-05 3.475e-07 -6.18476e-06 9.92712e-07 4.08641e-06 -7.04674e-06 -9.64858e-06 3.09975e-07 -5.35547e-06 1.02364e-06 3.71578e-06 -6.28323e-06 -8.55189e-06 2.85567e-07 -4.61373e-06 1.02694e-06 3.36627e-06 -5.56663e-06 -7.53487e-06 2.68648e-07 -3.95267e-06 1.0132e-06 3.03619e-06 -4.9005e-06 -6.59753e-06 2.52039e-07 -3.35946e-06 9.82623e-07 2.72156e-06 -4.28538e-06 -5.73712e-06 2.37604e-07 -2.82647e-06 9.41684e-07 2.42501e-06 -3.71807e-06 -4.94606e-06 2.23285e-07 -2.34899e-06 8.95234e-07 2.1465e-06 -3.19936e-06 -4.2237e-06 2.05745e-07 -1.91994e-06 8.42265e-07 1.88341e-06 -2.72243e-06 -3.56508e-06 1.877e-07 -1.53682e-06 7.83475e-07 1.63792e-06 -2.28896e-06 -2.96531e-06 1.63835e-07 -1.19811e-06 7.19641e-07 1.40389e-06 -1.89503e-06 -2.4227e-06 1.43657e-07 -8.96359e-07 6.54759e-07 1.18744e-06 -1.54322e-06 -1.93711e-06 1.16997e-07 -6.33396e-07 5.85375e-07 9.82119e-07 -1.22597e-06 -1.50273e-06 9.15413e-08 -4.11509e-07 5.12887e-07 7.91042e-07 -9.40616e-07 -1.11786e-06 6.15449e-08 -2.20665e-07 4.37411e-07 6.15061e-07 -6.9238e-07 -7.82757e-07 3.74081e-08 -7.05283e-08 3.5918e-07 4.49441e-07 -4.76721e-07 -4.97501e-07 1.6919e-08 4.579e-08 2.82462e-07 3.02796e-07 -2.87468e-07 -2.61934e-07 -3.18202e-09 1.18899e-07 1.99109e-07 1.73071e-07 -1.3607e-07 -8.21504e-08 -2.33025e-08 1.52038e-07 1.16803e-07 6.23986e-08 -2.1401e-08 3.51574e-08 -4.63527e-08 1.37991e-07 3.43813e-08 -2.25264e-08 4.93989e-08 8.95234e-08 -9.00084e-08 7.39237e-08 -3.43425e-08 -7.4661e-08 8.14907e-09 6.45329e-08 -7.60679e-06 -2.14269e-05 -1.2578e-05 -1.2578e-05 -1.29161e-05 -2.59614e-05 3.35195e-06 -1.77744e-05 -1.85261e-06 8.62901e-06 -9.32574e-06 -2.05806e-05 5.8158e-06 -1.75766e-05 -2.02198e-06 9.16573e-06 -8.0637e-06 -1.79531e-05 4.96438e-06 -1.58098e-05 -1.65116e-06 8.48621e-06 -7.88411e-06 -1.66639e-05 3.99219e-06 -1.38957e-05 -1.04166e-06 8.11745e-06 -8.01153e-06 -1.5822e-05 3.2268e-06 -1.21236e-05 -3.79572e-07 7.83619e-06 -8.09286e-06 -1.50437e-05 2.66665e-06 -1.05575e-05 2.14903e-07 7.54624e-06 -8.01201e-06 -1.41998e-05 2.26276e-06 -9.19609e-06 6.91158e-07 7.21527e-06 -7.75984e-06 -1.32713e-05 1.96994e-06 -8.0158e-06 1.04075e-06 6.84033e-06 -7.37109e-06 -1.22828e-05 1.75131e-06 -6.99177e-06 1.27746e-06 6.4314e-06 -6.89128e-06 -1.12641e-05 1.5836e-06 -6.09995e-06 1.4236e-06 5.99706e-06 -6.35352e-06 -1.02471e-05 1.44708e-06 -5.31653e-06 1.49633e-06 5.55452e-06 -5.79706e-06 -9.25589e-06 1.33109e-06 -4.62425e-06 1.51809e-06 5.1104e-06 -5.24106e-06 -8.3054e-06 1.22989e-06 -4.01043e-06 1.50149e-06 4.67299e-06 -4.70017e-06 -7.40413e-06 1.13579e-06 -3.46217e-06 1.45795e-06 4.24703e-06 -4.18399e-06 -6.5582e-06 1.04859e-06 -2.96983e-06 1.3971e-06 3.83802e-06 -3.69869e-06 -5.77117e-06 9.63647e-07 -2.52839e-06 1.32325e-06 3.44729e-06 -3.24684e-06 -5.04243e-06 8.8173e-07 -2.13376e-06 1.23986e-06 3.07468e-06 -2.8287e-06 -4.37043e-06 8.0249e-07 -1.77989e-06 1.15205e-06 2.72303e-06 -2.44509e-06 -3.75261e-06 7.23327e-07 -1.46138e-06 1.06353e-06 2.39233e-06 -2.09317e-06 -3.18972e-06 6.47386e-07 -1.17822e-06 9.6842e-07 2.07999e-06 -1.77091e-06 -2.67441e-06 5.73035e-07 -9.27326e-07 8.77073e-07 1.79078e-06 -1.48127e-06 -2.20906e-06 5.02953e-07 -7.07611e-07 7.84678e-07 1.51895e-06 -1.21778e-06 -1.79231e-06 4.32289e-07 -5.15506e-07 6.92826e-07 1.27118e-06 -9.83632e-07 -1.42003e-06 3.67678e-07 -3.54194e-07 6.02022e-07 1.04033e-06 -7.75772e-07 -1.0912e-06 3.03495e-07 -2.16901e-07 5.11335e-07 8.27403e-07 -5.93214e-07 -8.08776e-07 2.4618e-07 -1.11817e-07 4.20919e-07 6.36365e-07 -4.3419e-07 -5.65837e-07 1.93017e-07 -3.33142e-08 3.33142e-07 4.64226e-07 -2.99381e-07 -3.71637e-07 1.46218e-07 1.99458e-08 2.47926e-07 3.1956e-07 -1.8283e-07 -2.11333e-07 1.03532e-07 5.28526e-08 1.66125e-07 1.93948e-07 -8.75249e-08 -9.31517e-08 4.99422e-08 8.12579e-08 8.40519e-08 8.91353e-08 3.88051e-10 1.01281e-08 -3.63992e-08 1.33024e-07 -4.65661e-10 -1.05938e-08 7.73386e-08 1.07296e-07 1.72807e-06 -1.34648e-05 -2.91562e-07 -2.91562e-07 -8.24867e-06 -2.06142e-05 4.82262e-06 -1.01382e-05 1.14906e-06 1.13587e-05 -5.53326e-06 -1.45941e-05 5.48891e-06 -1.26168e-05 6.25228e-07 9.05242e-06 -5.3001e-06 -1.37036e-05 5.38972e-06 -1.14321e-05 6.63102e-07 9.1499e-06 -5.14216e-06 -1.29431e-05 4.66069e-06 -1.00295e-05 7.75869e-07 8.84163e-06 -5.15701e-06 -1.2385e-05 4.01505e-06 -8.75746e-06 9.94381e-07 8.54147e-06 -5.2033e-06 -1.18663e-05 3.52742e-06 -7.65485e-06 1.25003e-06 8.23138e-06 -5.19113e-06 -1.1295e-05 3.16595e-06 -6.70265e-06 1.48612e-06 7.88349e-06 -5.08584e-06 -1.06482e-05 2.88931e-06 -5.87956e-06 1.66943e-06 7.49137e-06 -4.89109e-06 -9.93549e-06 2.66459e-06 -5.15982e-06 1.79183e-06 7.0597e-06 -4.62392e-06 -9.1802e-06 2.47111e-06 -4.52737e-06 1.85535e-06 6.60056e-06 -4.30836e-06 -8.4072e-06 2.298e-06 -3.96716e-06 1.86936e-06 6.1255e-06 -3.9634e-06 -7.63624e-06 2.13517e-06 -3.4677e-06 1.84173e-06 5.64378e-06 -3.60864e-06 -6.88577e-06 1.97964e-06 -3.02119e-06 1.785e-06 5.16694e-06 -3.25373e-06 -6.16407e-06 1.82974e-06 -2.61911e-06 1.70579e-06 4.70007e-06 -2.90879e-06 -5.48147e-06 1.68379e-06 -2.2576e-06 1.60967e-06 4.24869e-06 -2.57951e-06 -4.8376e-06 1.54157e-06 -1.93215e-06 1.50467e-06 3.81435e-06 -2.27029e-06 -4.23845e-06 1.40665e-06 -1.63895e-06 1.39438e-06 3.402e-06 -1.98001e-06 -3.68074e-06 1.27238e-06 -1.37475e-06 1.28061e-06 3.01093e-06 -1.71096e-06 -3.16966e-06 1.14273e-06 -1.13767e-06 1.16276e-06 2.64309e-06 -1.46763e-06 -2.70212e-06 1.01914e-06 -9.26938e-07 1.04913e-06 2.29901e-06 -1.24029e-06 -2.27188e-06 9.00434e-07 -7.39296e-07 9.36096e-07 1.97817e-06 -1.03775e-06 -1.88636e-06 7.87045e-07 -5.74684e-07 8.2488e-07 1.6803e-06 -8.52432e-07 -1.53453e-06 6.83164e-07 -4.31901e-07 7.17351e-07 1.40343e-06 -6.89761e-07 -1.22696e-06 5.81184e-07 -3.10189e-07 6.13082e-07 1.15236e-06 -5.42825e-07 -9.54295e-07 4.85568e-07 -2.10518e-07 5.11801e-07 9.24066e-07 -4.17349e-07 -7.17157e-07 3.97869e-07 -1.31549e-07 4.15331e-07 7.15023e-07 -3.05823e-07 -5.1409e-07 3.16533e-07 -7.23909e-08 3.23945e-07 5.3163e-07 -2.12342e-07 -3.46336e-07 2.47227e-07 -2.94919e-08 2.38613e-07 3.71831e-07 -1.31258e-07 -2.12148e-07 1.79862e-07 -2.3089e-09 1.56811e-07 2.36905e-07 -6.49209e-08 -1.04192e-07 1.1172e-07 2.59218e-08 8.35086e-08 1.22003e-07 -8.24609e-09 -1.36982e-08 2.40204e-08 8.59145e-08 1.55608e-08 2.02563e-08 4.9981e-08 8.47504e-08 9.51462e-06 -7.05539e-06 1.06867e-05 1.06867e-05 -4.79701e-06 -1.62434e-05 7.33292e-06 -6.77927e-06 4.53201e-06 1.45536e-05 -3.57304e-06 -1.19969e-05 6.30339e-06 -7.42252e-06 3.38571e-06 1.13328e-05 -2.95992e-06 -1.05163e-05 5.77284e-06 -7.25147e-06 2.77914e-06 1.03279e-05 -2.77691e-06 -1.00732e-05 5.34618e-06 -6.43581e-06 2.48306e-06 9.98688e-06 -2.66102e-06 -9.64072e-06 4.85681e-06 -5.62309e-06 2.33176e-06 9.57986e-06 -2.61777e-06 -9.21045e-06 4.43996e-06 -4.9163e-06 2.28628e-06 9.15409e-06 -2.59952e-06 -8.75412e-06 4.10147e-06 -4.31272e-06 2.29051e-06 8.70371e-06 -2.56647e-06 -8.25526e-06 3.81877e-06 -3.79431e-06 2.3037e-06 8.22463e-06 -2.49831e-06 -7.71585e-06 3.56933e-06 -3.34275e-06 2.30091e-06 7.72094e-06 -2.39387e-06 -7.14621e-06 3.33868e-06 -2.94407e-06 2.27336e-06 7.19866e-06 -2.25733e-06 -6.56243e-06 3.11729e-06 -2.58859e-06 2.21577e-06 6.6661e-06 -2.09664e-06 -5.9762e-06 2.90196e-06 -2.27142e-06 2.13335e-06 6.13315e-06 -1.92289e-06 -5.40103e-06 2.6897e-06 -1.98317e-06 2.02916e-06 5.60536e-06 -1.74157e-06 -4.8436e-06 2.48151e-06 -1.72372e-06 1.9089e-06 5.08987e-06 -1.5603e-06 -4.31068e-06 2.27681e-06 -1.48736e-06 1.77949e-06 4.59247e-06 -1.38055e-06 -3.80523e-06 2.07813e-06 -1.27545e-06 1.64184e-06 4.11548e-06 -1.21167e-06 -3.33489e-06 1.88585e-06 -1.08161e-06 1.49982e-06 3.66056e-06 -1.04766e-06 -2.89263e-06 1.69881e-06 -9.06778e-07 1.35872e-06 3.23188e-06 -8.97582e-07 -2.48634e-06 1.51969e-06 -7.528e-07 1.21774e-06 2.82711e-06 -7.59067e-07 -2.11129e-06 1.34925e-06 -6.12636e-07 1.08181e-06 2.44876e-06 -6.31941e-07 -1.77128e-06 1.18922e-06 -4.89061e-07 9.4603e-07 2.09536e-06 -5.16632e-07 -1.46295e-06 1.03388e-06 -3.80678e-07 8.2003e-07 1.77281e-06 -4.12537e-07 -1.18433e-06 8.89141e-07 -2.9034e-07 6.97211e-07 1.47281e-06 -3.20142e-07 -9.37376e-07 7.55458e-07 -2.10421e-07 5.80602e-07 1.1997e-06 -2.39272e-07 -7.20456e-07 6.27168e-07 -1.46179e-07 4.71055e-07 9.52821e-07 -1.70413e-07 -5.33531e-07 5.11063e-07 -9.59456e-08 3.68105e-07 7.31088e-07 -1.12166e-07 -3.75595e-07 4.03922e-07 -5.65778e-08 2.74236e-07 5.37024e-07 -6.32329e-08 -2.45481e-07 3.03184e-07 -3.74663e-08 1.85411e-07 3.66825e-07 -2.84441e-08 -1.40843e-07 2.19055e-07 -2.86188e-08 1.10245e-07 2.21694e-07 -5.41331e-09 -6.00897e-08 1.45403e-07 -2.72994e-08 5.30466e-08 1.06753e-07 9.31323e-10 -5.16108e-09 8.28489e-08 -1.02251e-08 1.93249e-08 2.43696e-08 -1.84324e-09 3.55067e-08 1.68995e-05 -1.48125e-06 2.14464e-05 2.14464e-05 -2.36164e-06 -1.27095e-05 1.01683e-05 -4.60196e-06 8.04019e-06 1.76023e-05 -2.24944e-06 -1.02973e-05 7.70425e-06 -3.8567e-06 6.25146e-06 1.40305e-05 -1.26355e-06 -8.57044e-06 6.6952e-06 -3.45437e-06 4.97575e-06 1.2311e-05 -6.33668e-07 -7.70202e-06 6.19128e-06 -3.13693e-06 4.16472e-06 1.14065e-05 -3.3483e-07 -7.2264e-06 5.82325e-06 -2.74373e-06 3.66848e-06 1.07921e-05 -2.00487e-07 -6.80517e-06 5.46764e-06 -2.38349e-06 3.35171e-06 1.01967e-05 -1.66357e-07 -6.39799e-06 5.13752e-06 -2.0798e-06 3.14178e-06 9.60042e-06 -1.84499e-07 -5.988e-06 4.83073e-06 -1.82485e-06 2.99021e-06 8.99828e-06 -2.19462e-07 -5.57127e-06 4.53616e-06 -1.60508e-06 2.85858e-06 8.38943e-06 -2.49012e-07 -5.14554e-06 4.24889e-06 -1.41095e-06 2.72967e-06 7.77957e-06 -2.65039e-07 -4.71626e-06 3.96619e-06 -1.23858e-06 2.59257e-06 7.17297e-06 -2.65446e-07 -4.28699e-06 3.68517e-06 -1.0839e-06 2.44457e-06 6.57324e-06 -2.52951e-07 -3.86722e-06 3.40647e-06 -9.42343e-07 2.28512e-06 5.98697e-06 -2.28387e-07 -3.45831e-06 3.13087e-06 -8.13782e-07 2.11837e-06 5.41882e-06 -1.95985e-07 -3.06706e-06 2.8649e-06 -6.95562e-07 1.9439e-06 4.87097e-06 -1.6042e-07 -2.69523e-06 2.60266e-06 -5.89411e-07 1.76889e-06 4.3473e-06 -1.2179e-07 -2.34589e-06 2.34802e-06 -4.92844e-07 1.59233e-06 3.84982e-06 -8.10833e-08 -2.0186e-06 2.10584e-06 -4.03457e-07 1.41871e-06 3.38121e-06 -4.25498e-08 -1.71406e-06 1.87277e-06 -3.2703e-07 1.24867e-06 2.93836e-06 -8.3625e-09 -1.43783e-06 1.65213e-06 -2.56444e-07 1.08538e-06 2.52761e-06 2.41368e-08 -1.18293e-06 1.4432e-06 -1.98139e-07 9.3043e-07 2.14608e-06 5.52973e-08 -9.5218e-07 1.24696e-06 -1.45112e-07 7.81457e-07 1.79431e-06 7.65625e-08 -7.50801e-07 1.06369e-06 -1.01087e-07 6.42535e-07 1.47296e-06 9.66635e-08 -5.68941e-07 8.91237e-07 -6.69388e-08 5.15138e-07 1.18212e-06 1.12147e-07 -4.12673e-07 7.34309e-07 -3.81648e-08 3.95851e-07 9.20923e-07 1.20917e-07 -2.79979e-07 5.91778e-07 -1.83354e-08 2.91853e-07 6.92322e-07 1.26582e-07 -1.67774e-07 4.5887e-07 -8.30429e-09 1.96315e-07 4.89876e-07 1.22663e-07 -8.09281e-08 3.38187e-07 -6.55806e-09 1.11526e-07 3.14127e-07 1.1203e-07 -1.47847e-08 2.33102e-07 -2.52621e-08 4.21423e-08 1.67987e-07 8.39743e-08 2.30114e-08 1.55065e-07 -6.25538e-08 2.40592e-09 6.2321e-08 2.99575e-08 2.21965e-08 1.23361e-07 -1.18724e-07 4.26856e-09 1.09042e-08 -5.53943e-08 -2.80561e-08 2.46866e-05 2.99393e-06 3.26187e-05 3.26187e-05 -1.12709e-06 -1.01444e-05 1.28976e-05 -2.94321e-06 1.15059e-05 2.03017e-05 -1.28162e-06 -8.79442e-06 9.34326e-06 -9.98727e-07 9.14648e-06 1.65691e-05 1.75477e-07 -6.90748e-06 8.04069e-06 -3.56949e-07 7.26777e-06 1.4431e-05 1.24386e-06 -5.70323e-06 7.44402e-06 -1.91057e-07 5.95926e-06 1.30741e-05 1.82295e-06 -4.98227e-06 7.06303e-06 -1.41154e-07 5.09515e-06 1.21024e-05 2.06443e-06 -4.50331e-06 6.72104e-06 -9.02801e-08 4.51497e-06 1.12887e-05 2.11208e-06 -4.11408e-06 6.36555e-06 -4.839e-08 4.09957e-06 1.05188e-05 2.04875e-06 -3.76866e-06 6.00171e-06 -1.61429e-08 3.78195e-06 9.77252e-06 1.92815e-06 -3.44675e-06 5.63578e-06 5.78196e-09 3.51776e-06 9.04353e-06 1.78197e-06 -3.14306e-06 5.26484e-06 2.24682e-08 3.27705e-06 8.33099e-06 1.63168e-06 -2.84696e-06 4.89786e-06 3.75245e-08 3.04927e-06 7.63611e-06 1.49101e-06 -2.56023e-06 4.53135e-06 5.15332e-08 2.82125e-06 6.96191e-06 1.36171e-06 -2.28094e-06 4.17023e-06 6.44941e-08 2.59292e-06 6.30839e-06 1.24568e-06 -2.0114e-06 3.81559e-06 7.71834e-08 2.36634e-06 5.68181e-06 1.14056e-06 -1.75285e-06 3.46898e-06 8.71951e-08 2.14014e-06 5.07963e-06 1.05104e-06 -1.5076e-06 3.13417e-06 9.90306e-08 1.91375e-06 4.50811e-06 9.68653e-07 -1.27636e-06 2.81322e-06 1.08654e-07 1.69446e-06 3.9665e-06 8.93992e-07 -1.06089e-06 2.50448e-06 1.15445e-07 1.48162e-06 3.45645e-06 8.26898e-07 -8.62482e-07 2.21267e-06 1.22896e-07 1.27611e-06 2.97977e-06 7.66673e-07 -6.77789e-07 1.93766e-06 1.25535e-07 1.0808e-06 2.5351e-06 7.08077e-07 -5.13527e-07 1.67681e-06 1.26932e-07 8.9698e-07 2.12489e-06 6.52159e-07 -3.65059e-07 1.43237e-06 1.2437e-07 7.26044e-07 1.74697e-06 5.995e-07 -2.35838e-07 1.20913e-06 1.21732e-07 5.69387e-07 1.40657e-06 5.50179e-07 -1.2569e-07 9.9962e-07 1.14165e-07 4.22704e-07 1.09915e-06 4.95696e-07 -3.33142e-08 8.09746e-07 1.04696e-07 2.9748e-07 8.26238e-07 4.47035e-07 3.97752e-08 6.35472e-07 8.83592e-08 1.8413e-07 5.90691e-07 3.91e-07 9.49173e-08 4.80951e-07 7.21387e-08 9.28218e-08 3.87973e-07 3.36479e-07 1.30657e-07 3.42998e-07 4.7187e-08 1.71131e-08 2.21965e-07 2.75051e-07 1.47692e-07 2.26234e-07 7.68341e-09 -3.69231e-08 8.94458e-08 1.99342e-07 1.3706e-07 1.36827e-07 -6.74821e-08 -6.65896e-08 -5.14168e-09 8.54877e-08 7.74162e-08 1.18976e-07 -1.99264e-07 -3.42455e-08 -2.70472e-08 -8.04042e-08 -7.49133e-08 3.3316e-05 5.72891e-06 4.44299e-05 4.44299e-05 -1.50793e-06 -8.94202e-06 1.505e-05 -1.38039e-06 1.4687e-05 2.24978e-05 -4.74664e-07 -7.14625e-06 1.11542e-05 1.58748e-06 1.19713e-05 1.86821e-05 1.54894e-06 -5.03692e-06 9.88238e-06 2.28919e-06 9.64555e-06 1.6347e-05 2.99075e-06 -3.61188e-06 9.26449e-06 2.28888e-06 7.93347e-06 1.46931e-05 3.80244e-06 -2.70753e-06 8.81807e-06 2.10044e-06 6.74239e-06 1.34185e-05 4.15199e-06 -2.13903e-06 8.38815e-06 1.89454e-06 5.90148e-06 1.23521e-05 4.21051e-06 -1.75686e-06 7.93658e-06 1.716e-06 5.28029e-06 1.13929e-05 4.10065e-06 -1.47461e-06 7.45823e-06 1.56179e-06 4.78909e-06 1.04921e-05 3.89867e-06 -1.24974e-06 6.96761e-06 1.4243e-06 4.37601e-06 9.63418e-06 3.65207e-06 -1.0614e-06 6.47483e-06 1.30114e-06 4.00752e-06 8.81369e-06 3.38827e-06 -8.95603e-07 5.98212e-06 1.1898e-06 3.66448e-06 8.02544e-06 3.12653e-06 -7.44748e-07 5.49981e-06 1.08751e-06 3.3372e-06 7.27161e-06 2.87453e-06 -6.01848e-07 5.02786e-06 9.93605e-07 3.02156e-06 6.54883e-06 2.63739e-06 -4.68261e-07 4.56946e-06 9.10523e-07 2.71461e-06 5.86062e-06 2.41643e-06 -3.42086e-07 4.12754e-06 8.3171e-07 2.4141e-06 5.20408e-06 2.20867e-06 -2.22508e-07 3.70496e-06 7.60774e-07 2.12776e-06 4.58281e-06 2.02167e-06 -1.10323e-07 3.29925e-06 6.93952e-07 1.84902e-06 3.99867e-06 1.84658e-06 -6.53866e-09 2.91454e-06 6.32174e-07 1.58325e-06 3.44896e-06 1.68298e-06 8.63414e-08 2.55105e-06 5.72065e-07 1.33016e-06 2.93537e-06 1.53144e-06 1.70587e-07 2.2091e-06 5.16302e-07 1.09275e-06 2.45916e-06 1.39175e-06 2.45675e-07 1.89253e-06 4.66243e-07 8.73619e-07 2.02291e-06 1.26082e-06 3.10441e-07 1.59543e-06 4.16495e-07 6.70242e-07 1.62213e-06 1.13447e-06 3.59607e-07 1.32089e-06 3.64962e-07 4.8487e-07 1.26004e-06 1.01367e-06 3.97325e-07 1.07129e-06 3.18629e-07 3.21539e-07 9.37531e-07 9.02296e-07 4.19988e-07 8.42343e-07 2.71636e-07 1.76796e-07 6.5829e-07 7.88869e-07 4.29767e-07 6.44863e-07 2.25458e-07 6.0536e-08 4.18629e-07 6.80215e-07 4.20919e-07 4.64536e-07 1.78154e-07 -3.21888e-08 2.26156e-07 5.68572e-07 3.95967e-07 3.12148e-07 1.23982e-07 -9.56546e-08 7.60968e-08 4.51381e-07 3.50333e-07 1.92008e-07 6.30971e-08 -1.2924e-07 -2.89292e-08 3.27243e-07 2.79009e-07 1.0295e-07 -2.99381e-08 -1.34576e-07 -8.68652e-08 1.74002e-07 1.64572e-07 6.28255e-08 -2.15834e-07 -9.64889e-08 -8.74667e-08 -6.27479e-08 -8.38384e-08 3.55568e-05 4.54152e-06 5.23332e-05 5.23332e-05 -4.98603e-06 -1.25494e-05 1.85677e-05 4.07803e-07 1.5895e-05 2.53174e-05 3.34655e-07 -5.70105e-06 1.43593e-05 3.96798e-06 1.43876e-05 2.06301e-05 2.98761e-06 -2.57893e-06 1.29595e-05 4.44078e-06 1.22089e-05 1.78948e-05 4.66841e-06 -8.48241e-07 1.21834e-05 4.18245e-06 1.0381e-05 1.5984e-05 5.58867e-06 1.59528e-07 1.15241e-05 3.78109e-06 8.9899e-06 1.44795e-05 5.97451e-06 7.40285e-07 1.08588e-05 3.39824e-06 7.92649e-06 1.32034e-05 6.01894e-06 1.06648e-06 1.01672e-05 3.06708e-06 7.08251e-06 1.20661e-05 5.85907e-06 1.24153e-06 9.461e-06 2.78741e-06 6.38243e-06 1.10235e-05 5.58627e-06 1.33303e-06 8.75288e-06 2.54371e-06 5.77703e-06 1.00485e-05 5.25507e-06 1.3697e-06 8.05571e-06 2.32761e-06 5.23039e-06 9.13003e-06 4.90268e-06 1.37925e-06 7.37635e-06 2.13137e-06 4.72483e-06 8.25943e-06 4.54447e-06 1.37001e-06 6.71934e-06 1.95038e-06 4.24862e-06 7.4316e-06 4.19635e-06 1.3543e-06 6.08759e-06 1.78484e-06 3.79813e-06 6.64646e-06 3.8634e-06 1.33358e-06 5.48297e-06 1.62981e-06 3.36933e-06 5.9035e-06 3.54663e-06 1.30932e-06 4.90888e-06 1.48705e-06 2.95831e-06 5.19845e-06 3.25334e-06 1.28697e-06 4.36356e-06 1.35356e-06 2.56789e-06 4.53574e-06 2.97565e-06 1.26353e-06 3.84737e-06 1.22675e-06 2.19975e-06 3.91233e-06 2.71469e-06 1.23812e-06 3.36103e-06 1.11018e-06 1.85058e-06 3.32688e-06 2.47293e-06 1.2106e-06 2.90406e-06 1.0002e-06 1.52275e-06 2.78427e-06 2.24701e-06 1.18282e-06 2.47887e-06 8.96708e-07 1.21747e-06 2.28054e-06 2.03432e-06 1.15123e-06 2.08306e-06 7.99385e-07 9.36833e-07 1.81856e-06 1.83533e-06 1.11654e-06 1.71829e-06 7.08154e-07 6.8006e-07 1.39753e-06 1.64701e-06 1.07579e-06 1.38561e-06 6.22667e-07 4.51924e-07 1.02197e-06 1.46932e-06 1.02888e-06 1.08363e-06 5.40788e-07 2.49051e-07 6.8848e-07 1.29865e-06 9.73387e-07 8.13588e-07 4.62052e-07 7.91236e-08 4.03573e-07 1.13357e-06 9.05828e-07 5.7905e-07 3.85762e-07 -6.0536e-08 1.66629e-07 9.74319e-07 8.3008e-07 3.74741e-07 3.07763e-07 -1.60129e-07 -1.62981e-08 8.07379e-07 7.28566e-07 2.12574e-07 2.27437e-07 -2.21519e-07 -1.42919e-07 6.36986e-07 6.03109e-07 9.61591e-08 1.36672e-07 -2.38166e-07 -2.04425e-07 4.58948e-07 4.52972e-07 2.80949e-08 2.95307e-08 -2.07821e-07 -2.01922e-07 2.67561e-07 2.66746e-07 1.3543e-08 -1.40572e-07 -1.41794e-07 -1.41018e-07 1.88205e-08 1.59101e-09 -1.50358e-05 -4.59019e-05 -2.96814e-05 -2.96814e-05 -2.43917e-05 -3.09698e-05 -7.23618e-07 -2.97211e-05 -6.97766e-06 9.31982e-07 -2.28514e-05 -3.13693e-05 4.73927e-07 -2.30002e-05 -4.28864e-06 6.15352e-06 -1.98558e-05 -2.91018e-05 1.12449e-06 -2.03459e-05 -2.98892e-06 7.48849e-06 -1.78159e-05 -2.66556e-05 1.20944e-06 -1.80332e-05 -1.87355e-06 7.82389e-06 -1.61437e-05 -2.41955e-05 1.06357e-06 -1.58888e-05 -1.02242e-06 7.66746e-06 -1.4642e-05 -2.18265e-05 8.59611e-07 -1.39404e-05 -4.08055e-07 7.26831e-06 -1.32599e-05 -1.96144e-05 6.71018e-07 -1.2206e-05 2.25846e-08 6.76257e-06 -1.19833e-05 -1.75845e-05 5.21463e-07 -1.06761e-05 3.19599e-07 6.22484e-06 -1.08008e-05 -1.57359e-05 4.14206e-07 -9.33117e-06 5.20532e-07 5.69616e-06 -9.71092e-06 -1.40587e-05 3.40282e-07 -8.14738e-06 6.53633e-07 5.19189e-06 -8.70564e-06 -1.25348e-05 2.95384e-07 -7.10112e-06 7.40246e-07 4.72006e-06 -7.77579e-06 -1.11456e-05 2.66669e-07 -6.17298e-06 7.91857e-07 4.28044e-06 -6.91881e-06 -9.87887e-06 2.51341e-07 -5.34771e-06 8.18555e-07 3.87193e-06 -6.12853e-06 -8.71976e-06 2.42105e-07 -4.60999e-06 8.27209e-07 3.4913e-06 -5.39981e-06 -7.65879e-06 2.36051e-07 -3.94889e-06 8.20883e-07 3.13619e-06 -4.73215e-06 -6.69095e-06 2.31278e-07 -3.35317e-06 8.04275e-07 2.80627e-06 -4.1167e-06 -5.8021e-06 2.24255e-07 -2.82216e-06 7.78353e-07 2.49633e-06 -3.55249e-06 -4.99105e-06 2.15873e-07 -2.34185e-06 7.44243e-07 2.20704e-06 -3.03856e-06 -4.25259e-06 2.06404e-07 -1.91513e-06 7.03886e-07 1.93568e-06 -2.5687e-06 -3.57737e-06 1.95345e-07 -1.53369e-06 6.59338e-07 1.68061e-06 -2.14035e-06 -2.96553e-06 1.79008e-07 -1.19359e-06 6.08891e-07 1.44281e-06 -1.75411e-06 -2.41346e-06 1.60731e-07 -8.92401e-07 5.54021e-07 1.21922e-06 -1.40399e-06 -1.91684e-06 1.4226e-07 -6.34813e-07 4.93911e-07 1.01056e-06 -1.08786e-06 -1.46949e-06 1.21033e-07 -4.12304e-07 4.28602e-07 8.1254e-07 -8.10095e-07 -1.0794e-06 9.86814e-08 -2.25982e-07 3.5984e-07 6.30428e-07 -5.60579e-07 -7.36055e-07 7.2876e-08 -7.4176e-08 2.87352e-07 4.63488e-07 -3.47364e-07 -4.46821e-07 5.06407e-08 3.74081e-08 2.10168e-07 3.09859e-07 -1.6531e-07 -2.06443e-07 2.61546e-08 1.09624e-07 1.35663e-07 1.76912e-07 -2.39622e-08 -2.80949e-08 -5.23869e-10 1.36672e-07 5.72763e-08 6.13897e-08 7.60968e-08 8.90189e-08 -3.70201e-08 1.25418e-07 -1.43385e-08 -2.73382e-08 1.09275e-07 1.23439e-07 -9.2686e-08 5.24257e-08 -7.13044e-08 -8.56041e-08 2.75516e-08 5.59182e-08 -3.6853e-06 -2.02524e-05 -1.37251e-05 -1.37251e-05 -5.26244e-06 -1.23039e-05 -4.99199e-06 -2.5821e-05 -9.02681e-06 -2.15409e-06 -1.99358e-05 -3.07437e-05 1.91185e-06 -1.82568e-05 -2.41364e-06 9.65611e-06 -1.38353e-05 -2.44873e-05 2.28609e-06 -1.57805e-05 -1.7168e-06 9.77303e-06 -1.19212e-05 -2.16098e-05 2.04138e-06 -1.38438e-05 -1.0553e-06 9.29076e-06 -1.09067e-05 -1.95491e-05 1.75733e-06 -1.21537e-05 -4.46201e-07 8.73841e-06 -1.01331e-05 -1.77983e-05 1.52908e-06 -1.06665e-05 5.72375e-08 8.17313e-06 -9.41474e-06 -1.62094e-05 1.35981e-06 -9.36171e-06 4.42417e-07 7.61081e-06 -8.7023e-06 -1.47324e-05 1.23493e-06 -8.21411e-06 7.21659e-07 7.06012e-06 -7.98846e-06 -1.3348e-05 1.14099e-06 -7.20415e-06 9.12269e-07 6.52504e-06 -7.28221e-06 -1.20519e-05 1.06586e-06 -6.30957e-06 1.0326e-06 6.00928e-06 -6.59466e-06 -1.08395e-05 1.00455e-06 -5.51651e-06 1.1009e-06 5.51386e-06 -5.93528e-06 -9.70865e-06 9.49406e-07 -4.80826e-06 1.13074e-06 5.03977e-06 -5.31067e-06 -8.65662e-06 8.98532e-07 -4.17599e-06 1.13369e-06 4.58828e-06 -4.72392e-06 -7.68122e-06 8.47465e-07 -3.6075e-06 1.11355e-06 4.15704e-06 -4.17673e-06 -6.77906e-06 7.96358e-07 -3.09837e-06 1.07754e-06 3.7476e-06 -3.67052e-06 -5.94642e-06 7.45834e-07 -2.64022e-06 1.03284e-06 3.36126e-06 -3.20328e-06 -5.17924e-06 6.95155e-07 -2.22768e-06 9.79945e-07 2.9961e-06 -2.77424e-06 -4.47454e-06 6.43816e-07 -1.85902e-06 9.20962e-07 2.65148e-06 -2.38182e-06 -3.83003e-06 5.90653e-07 -1.52935e-06 8.5608e-07 2.32648e-06 -2.02307e-06 -3.24158e-06 5.36675e-07 -1.23526e-06 7.88365e-07 2.02283e-06 -1.69677e-06 -2.70611e-06 4.84831e-07 -9.74261e-07 7.18205e-07 1.73866e-06 -1.40267e-06 -2.2225e-06 4.32134e-07 -7.44612e-07 6.47851e-07 1.47518e-06 -1.13718e-06 -1.78719e-06 3.81493e-07 -5.48801e-07 5.73695e-07 1.22841e-06 -9.00414e-07 -1.40055e-06 3.31357e-07 -3.82463e-07 4.97481e-07 1.00043e-06 -6.90265e-07 -1.06041e-06 2.80173e-07 -2.42124e-07 4.21734e-07 7.93332e-07 -5.03787e-07 -7.62637e-07 2.33646e-07 -1.30831e-07 3.45327e-07 6.04778e-07 -3.4587e-07 -5.13857e-07 1.90223e-07 -4.92243e-08 2.68066e-07 4.36169e-07 -2.09276e-07 -3.07104e-07 1.48818e-07 6.59687e-09 1.955e-07 2.93134e-07 -1.0328e-07 -1.50797e-07 1.09314e-07 4.07454e-08 1.24642e-07 1.71868e-07 -1.73265e-08 -3.18396e-08 5.75868e-08 6.8491e-08 5.41331e-08 6.83746e-08 4.57512e-08 4.96317e-08 -2.76486e-08 1.09741e-07 -2.05085e-08 -2.46606e-08 8.84368e-08 1.15833e-07 2.71449e-06 -1.36207e-05 -1.81788e-06 -1.81788e-06 -3.59989e-06 -1.01893e-05 7.84639e-07 -1.37436e-05 -2.61286e-06 4.04043e-06 -1.00067e-05 -2.05126e-05 2.49245e-06 -1.23928e-05 -4.33705e-07 1.01811e-05 -8.52222e-06 -1.88304e-05 3.46662e-06 -1.11428e-05 1.31006e-07 1.08968e-05 -7.43869e-06 -1.67735e-05 3.22404e-06 -9.79685e-06 4.81377e-07 1.02724e-05 -6.86101e-06 -1.52965e-05 2.89141e-06 -8.59809e-06 7.68729e-07 9.627e-06 -6.46309e-06 -1.40693e-05 2.62621e-06 -7.55902e-06 1.03222e-06 9.01551e-06 -6.10059e-06 -1.29496e-05 2.42889e-06 -6.65564e-06 1.25212e-06 8.42921e-06 -5.72183e-06 -1.18819e-05 2.27736e-06 -5.8624e-06 1.4174e-06 7.85768e-06 -5.31865e-06 -1.0855e-05 2.1498e-06 -5.16199e-06 1.52485e-06 7.29734e-06 -4.89783e-06 -9.86651e-06 2.03405e-06 -4.53927e-06 1.58197e-06 6.74743e-06 -4.47076e-06 -8.92331e-06 1.92361e-06 -3.98282e-06 1.59528e-06 6.21018e-06 -4.04656e-06 -8.02765e-06 1.8134e-06 -3.4822e-06 1.57685e-06 5.69046e-06 -3.63474e-06 -7.18226e-06 1.70366e-06 -3.03173e-06 1.53261e-06 5.18731e-06 -3.24217e-06 -6.39062e-06 1.59132e-06 -2.62736e-06 1.46943e-06 4.70364e-06 -2.87266e-06 -5.6527e-06 1.47941e-06 -2.26135e-06 1.39334e-06 4.24117e-06 -2.52549e-06 -4.96746e-06 1.36598e-06 -1.93259e-06 1.30754e-06 3.8024e-06 -2.20576e-06 -4.33418e-06 1.25453e-06 -1.6354e-06 1.21619e-06 3.38524e-06 -1.90933e-06 -3.75077e-06 1.14491e-06 -1.36852e-06 1.11929e-06 2.99141e-06 -1.63725e-06 -3.21378e-06 1.03672e-06 -1.12958e-06 1.02434e-06 2.62361e-06 -1.38849e-06 -2.7241e-06 9.31827e-07 -9.16926e-07 9.25075e-07 2.27705e-06 -1.1638e-06 -2.27966e-06 8.28955e-07 -7.31088e-07 8.26704e-07 1.95403e-06 -9.6097e-07 -1.8783e-06 7.307e-07 -5.6541e-07 7.30312e-07 1.65535e-06 -7.7876e-07 -1.51734e-06 6.35822e-07 -4.25285e-07 6.35899e-07 1.37937e-06 -6.15934e-07 -1.19504e-06 5.47307e-07 -3.06017e-07 5.42845e-07 1.1248e-06 -4.71249e-07 -9.12483e-07 4.63023e-07 -2.05143e-07 4.5305e-07 8.95777e-07 -3.46258e-07 -6.69951e-07 3.81726e-07 -1.27184e-07 3.64458e-07 6.88635e-07 -2.38729e-07 -4.6407e-07 3.08035e-07 -7.20223e-08 2.79358e-07 5.04699e-07 -1.49904e-07 -2.95676e-07 2.3838e-07 -3.24799e-08 1.9973e-07 3.45249e-07 -7.924e-08 -1.62884e-07 1.76369e-07 -9.72068e-09 1.29221e-07 2.12419e-07 -2.51457e-08 -6.29031e-08 1.14941e-07 1.44743e-08 6.62403e-08 1.03454e-07 1.78504e-08 1.88205e-08 4.27632e-08 6.46105e-08 6.90731e-09 5.47152e-09 5.74704e-08 1.08305e-07 7.84558e-06 -7.73675e-06 8.67453e-06 8.67453e-06 -3.28355e-06 -9.42351e-06 6.05189e-06 -8.35245e-06 3.80624e-06 1.0101e-05 -5.23921e-06 -1.50725e-05 4.94785e-06 -6.875e-06 2.51806e-06 1.23613e-05 -4.37275e-06 -1.35595e-05 4.45471e-06 -7.11821e-06 2.06276e-06 1.1434e-05 -4.08977e-06 -1.2803e-05 4.31451e-06 -6.31124e-06 2.04934e-06 1.10789e-05 -3.73191e-06 -1.17894e-05 4.0121e-06 -5.53398e-06 2.0448e-06 1.04305e-05 -3.47903e-06 -1.08887e-05 3.73662e-06 -4.8615e-06 2.06005e-06 9.77904e-06 -3.27839e-06 -1.00581e-05 3.50868e-06 -4.28577e-06 2.08799e-06 9.14621e-06 -3.08904e-06 -9.26332e-06 3.31535e-06 -3.78629e-06 2.10979e-06 8.52789e-06 -2.8917e-06 -8.49161e-06 3.14023e-06 -3.34638e-06 2.11042e-06 7.91942e-06 -2.68169e-06 -7.74269e-06 2.97135e-06 -2.95291e-06 2.08504e-06 7.3226e-06 -2.46123e-06 -7.01938e-06 2.80223e-06 -2.60161e-06 2.0323e-06 6.7375e-06 -2.23642e-06 -6.32634e-06 2.63153e-06 -2.28269e-06 1.95772e-06 6.16858e-06 -2.01331e-06 -5.66948e-06 2.45749e-06 -1.99315e-06 1.86276e-06 5.61735e-06 -1.79369e-06 -5.04717e-06 2.2819e-06 -1.73098e-06 1.75477e-06 5.08723e-06 -1.58499e-06 -4.46437e-06 2.10626e-06 -1.49353e-06 1.63723e-06 4.57924e-06 -1.38724e-06 -3.92036e-06 1.93296e-06 -1.27762e-06 1.51289e-06 4.09503e-06 -1.20259e-06 -3.41636e-06 1.7614e-06 -1.08117e-06 1.38534e-06 3.63678e-06 -1.02934e-06 -2.94874e-06 1.59439e-06 -9.06157e-07 1.25643e-06 3.20425e-06 -8.69778e-07 -2.52008e-06 1.43226e-06 -7.48279e-07 1.12775e-06 2.79913e-06 -7.2746e-07 -2.12974e-06 1.27611e-06 -6.08503e-07 1.00156e-06 2.41899e-06 -5.95232e-07 -1.77229e-06 1.12364e-06 -4.8423e-07 8.78392e-07 2.06595e-06 -4.77051e-07 -1.45166e-06 9.83826e-07 -3.75614e-07 7.60037e-07 1.74169e-06 -3.71637e-07 -1.16344e-06 8.4925e-07 -2.82773e-07 6.46804e-07 1.44308e-06 -2.80309e-07 -9.09825e-07 7.19447e-07 -2.06075e-07 5.38227e-07 1.17028e-06 -1.99885e-07 -6.8815e-07 6.01673e-07 -1.42124e-07 4.35044e-07 9.2457e-07 -1.31006e-07 -4.95891e-07 4.91544e-07 -9.23368e-08 3.38381e-07 7.03692e-07 -7.437e-08 -3.34772e-07 3.90263e-07 -5.74898e-08 2.49711e-07 5.09938e-07 -2.84635e-08 -2.03028e-07 2.97829e-07 -3.73693e-08 1.67716e-07 3.41873e-07 1.43579e-09 -1.06404e-07 2.13855e-07 -3.22082e-08 9.55382e-08 2.02834e-07 1.49788e-08 -3.6535e-08 1.48701e-07 -3.43037e-08 4.01633e-08 9.10756e-08 1.44743e-08 1.45519e-08 9.84098e-08 -3.01516e-08 1.12535e-08 1.0555e-08 5.70435e-09 6.36404e-08 1.27783e-05 -2.76102e-06 1.88789e-05 1.88789e-05 -3.56376e-06 -9.30723e-06 1.08382e-05 -4.07087e-06 9.99107e-06 1.59933e-05 -2.12499e-06 -1.11124e-05 7.62811e-06 -3.54584e-06 5.72309e-06 1.47636e-05 -1.50843e-06 -1.00229e-05 6.18398e-06 -3.30554e-06 4.37846e-06 1.30313e-05 -1.17958e-06 -9.29902e-06 5.55678e-06 -3.07845e-06 3.73612e-06 1.20747e-05 -9.62483e-07 -8.69207e-06 5.23555e-06 -2.6988e-06 3.38893e-06 1.1376e-05 -7.90091e-07 -8.02528e-06 4.94036e-06 -2.35894e-06 3.15431e-06 1.06427e-05 -6.86424e-07 -7.39214e-06 4.67179e-06 -2.07194e-06 2.9857e-06 9.9246e-06 -6.25946e-07 -6.79095e-06 4.42126e-06 -1.8278e-06 2.85276e-06 9.22471e-06 -5.83202e-07 -6.21437e-06 4.17857e-06 -1.61489e-06 2.73211e-06 8.54244e-06 -5.41486e-07 -5.65681e-06 3.93783e-06 -1.42653e-06 2.60902e-06 7.87658e-06 -4.97074e-07 -5.11934e-06 3.6963e-06 -1.25653e-06 2.47937e-06 7.22896e-06 -4.46492e-07 -4.60485e-06 3.45245e-06 -1.10098e-06 2.33723e-06 6.60071e-06 -3.9133e-07 -4.11425e-06 3.20561e-06 -9.58234e-07 2.18546e-06 5.99399e-06 -3.32308e-07 -3.65057e-06 2.95947e-06 -8.27305e-07 2.0252e-06 5.41219e-06 -2.73343e-07 -3.2146e-06 2.71484e-06 -7.06253e-07 1.86129e-06 4.85708e-06 -2.1465e-07 -2.80547e-06 2.47421e-06 -5.97832e-07 1.69214e-06 4.32553e-06 -1.59004e-07 -2.42654e-06 2.23948e-06 -4.97986e-07 1.52535e-06 3.82552e-06 -1.06384e-07 -2.07561e-06 2.01197e-06 -4.08598e-07 1.35946e-06 3.35327e-06 -5.80524e-08 -1.75195e-06 1.79152e-06 -3.28912e-07 1.19857e-06 2.91058e-06 -1.43385e-08 -1.45859e-06 1.5815e-06 -2.58248e-07 1.03982e-06 2.49695e-06 2.42532e-08 -1.19159e-06 1.38437e-06 -1.96315e-07 8.92129e-07 2.11686e-06 5.51421e-08 -9.52142e-07 1.1959e-06 -1.42221e-07 7.52509e-07 1.76559e-06 8.62638e-08 -7.38306e-07 1.01852e-06 -9.91276e-08 6.17661e-07 1.44576e-06 1.06714e-07 -5.5208e-07 8.55653e-07 -6.26897e-08 4.94765e-07 1.15558e-06 1.20994e-07 -3.9133e-07 7.03731e-07 -3.59529e-08 3.8126e-07 8.94497e-07 1.32364e-07 -2.54173e-07 5.64692e-07 -1.80056e-08 2.79862e-07 6.66555e-07 1.36284e-07 -1.45325e-07 4.3811e-07 -6.69388e-09 1.86497e-07 4.67834e-07 1.34576e-07 -5.97793e-08 3.22664e-07 -8.49832e-09 1.03493e-07 2.97441e-07 1.22003e-07 2.05667e-09 2.25031e-07 -2.49129e-08 3.51962e-08 1.54522e-07 9.35979e-08 3.17038e-08 1.56307e-07 -6.73851e-08 -9.8953e-09 5.1378e-08 4.11722e-08 3.13157e-08 1.29182e-07 -1.28115e-07 -1.53474e-08 -6.073e-09 -4.11334e-08 -6.79089e-10 1.81543e-05 1.02139e-06 2.94123e-05 2.94123e-05 -4.78884e-06 -1.00464e-05 1.51591e-05 -3.74722e-07 1.59357e-05 2.15577e-05 1.41328e-07 -7.81269e-06 1.02236e-05 -8.08524e-07 8.95684e-06 1.70243e-05 7.17429e-07 -7.09926e-06 8.13603e-06 -3.25788e-07 6.81255e-06 1.47644e-05 1.24704e-06 -6.39031e-06 7.181e-06 -1.47653e-07 5.59174e-06 1.34094e-05 1.55574e-06 -5.82133e-06 6.67215e-06 -1.11798e-07 4.83543e-06 1.24153e-05 1.69411e-06 -5.32548e-06 6.31359e-06 -6.87432e-08 4.33581e-06 1.15593e-05 1.72485e-06 -4.84687e-06 5.97618e-06 -3.68843e-08 3.96906e-06 1.073e-05 1.68267e-06 -4.40147e-06 5.64339e-06 -1.45325e-08 3.67686e-06 9.9293e-06 1.59912e-06 -3.98334e-06 5.31164e-06 1.24176e-09 3.42696e-06 9.15513e-06 1.49629e-06 -3.58957e-06 4.97885e-06 1.3931e-08 3.19676e-06 8.40627e-06 1.39004e-06 -3.2159e-06 4.64365e-06 2.73964e-08 2.97534e-06 7.68461e-06 1.28806e-06 -2.86112e-06 4.30892e-06 3.88827e-08 2.7547e-06 6.98884e-06 1.19326e-06 -2.52505e-06 3.97454e-06 5.23869e-08 2.53382e-06 6.32104e-06 1.10684e-06 -2.20778e-06 3.64496e-06 6.50762e-08 2.31247e-06 5.68219e-06 1.02888e-06 -1.91061e-06 3.32079e-06 7.74162e-08 2.09086e-06 5.07377e-06 9.56119e-07 -1.63302e-06 3.00511e-06 8.98726e-08 1.87281e-06 4.49546e-06 8.93022e-07 -1.37411e-06 2.6994e-06 1.01126e-07 1.65733e-06 3.94997e-06 8.32796e-07 -1.13567e-06 2.40576e-06 1.09935e-07 1.45065e-06 3.43809e-06 7.76878e-07 -9.18245e-07 2.124e-06 1.1855e-07 1.25022e-06 2.95904e-06 7.23211e-07 -7.20339e-07 1.85737e-06 1.22391e-07 1.0605e-06 2.5136e-06 6.73463e-07 -5.43233e-07 1.60599e-06 1.26117e-07 8.80255e-07 2.10335e-06 6.25732e-07 -3.85703e-07 1.36776e-06 1.26543e-07 7.1122e-07 1.72659e-06 5.75635e-07 -2.50623e-07 1.14995e-06 1.22973e-07 5.58483e-07 1.38701e-06 5.28176e-07 -1.3217e-07 9.46379e-07 1.15756e-07 4.17427e-07 1.0789e-06 4.79825e-07 -3.68843e-08 7.61822e-07 1.06365e-07 2.92513e-07 8.09513e-07 4.31086e-07 4.12886e-08 5.96279e-07 9.418e-08 1.8607e-07 5.75674e-07 3.80639e-07 9.45292e-08 4.45366e-07 7.34581e-08 9.17353e-08 3.7738e-07 3.26157e-07 1.29764e-07 3.19133e-07 4.95541e-08 1.71131e-08 2.12924e-07 2.69385e-07 1.44549e-07 2.12924e-07 8.30429e-09 -4.02215e-08 8.40907e-08 1.98449e-07 1.31161e-07 1.34072e-07 -6.85298e-08 -7.93176e-08 -1.24952e-08 9.77113e-08 7.17118e-08 1.23439e-07 -2.02834e-07 -6.43777e-08 -3.88245e-08 -5.85957e-08 -4.89332e-08 2.42298e-05 3.01201e-06 4.05901e-05 4.05901e-05 -7.46884e-06 -1.21564e-05 1.87736e-05 3.00033e-06 2.14835e-05 2.66552e-05 1.83017e-06 -4.83281e-06 1.25266e-05 1.76575e-06 1.20253e-05 1.88449e-05 2.66711e-06 -4.31507e-06 1.01829e-05 2.30157e-06 9.17694e-06 1.62952e-05 3.42952e-06 -3.63196e-06 9.09052e-06 2.35303e-06 7.49412e-06 1.4714e-05 3.86025e-06 -3.08537e-06 8.44259e-06 2.18795e-06 6.39384e-06 1.35037e-05 4.01055e-06 -2.66795e-06 7.95035e-06 1.97805e-06 5.63466e-06 1.247e-05 3.98008e-06 -2.32464e-06 7.49703e-06 1.78969e-06 5.07222e-06 1.15191e-05 3.8414e-06 -2.02328e-06 7.04344e-06 1.62275e-06 4.62076e-06 1.06093e-05 3.64236e-06 -1.75438e-06 6.58627e-06 1.47339e-06 4.23461e-06 9.73671e-06 3.41268e-06 -1.51262e-06 6.12966e-06 1.33944e-06 3.88641e-06 8.8998e-06 3.17371e-06 -1.29095e-06 5.6747e-06 1.22038e-06 3.56029e-06 8.09742e-06 2.93665e-06 -1.0855e-06 5.22608e-06 1.11134e-06 3.24748e-06 7.32846e-06 2.70844e-06 -8.96747e-07 4.78583e-06 1.01402e-06 2.94236e-06 6.59458e-06 2.49241e-06 -7.20262e-07 4.35471e-06 9.25541e-07 2.64554e-06 5.89516e-06 2.29063e-06 -5.56349e-07 3.93616e-06 8.45641e-07 2.3564e-06 5.23194e-06 2.10351e-06 -4.05649e-07 3.53402e-06 7.71678e-07 2.07421e-06 4.60496e-06 1.92772e-06 -2.64399e-07 3.14884e-06 7.03149e-07 1.80649e-06 4.01443e-06 1.76505e-06 -1.37913e-07 2.77864e-06 6.40129e-07 1.54623e-06 3.46052e-06 1.61173e-06 -2.47383e-08 2.43025e-06 5.81572e-07 1.30102e-06 2.94527e-06 1.46889e-06 7.67565e-08 2.10017e-06 5.25848e-07 1.06927e-06 2.46645e-06 1.33381e-06 1.64378e-07 1.78942e-06 4.73694e-07 8.54333e-07 2.02671e-06 1.20831e-06 2.37681e-07 1.50071e-06 4.22898e-07 6.54681e-07 1.6269e-06 1.08643e-06 2.98567e-07 1.23404e-06 3.75245e-07 4.74819e-07 1.26326e-06 9.72068e-07 3.4133e-07 9.88715e-07 3.27942e-07 3.11993e-07 9.42693e-07 8.60891e-07 3.71442e-07 7.71019e-07 2.81764e-07 1.74313e-07 6.63373e-07 7.54022e-07 3.85451e-07 5.73734e-07 2.3318e-07 5.93718e-08 4.27438e-07 6.45523e-07 3.81183e-07 4.06251e-07 1.83626e-07 -3.03456e-08 2.33452e-07 5.38693e-07 3.58676e-07 2.68337e-07 1.28561e-07 -9.40636e-08 8.54877e-08 4.31552e-07 3.16494e-07 1.61429e-07 6.80642e-08 -1.32539e-07 -1.79086e-08 3.21772e-07 2.5363e-07 9.24726e-08 -2.61546e-08 -1.50215e-07 -8.2422e-08 1.87429e-07 1.49516e-07 7.39237e-08 -2.13137e-07 -1.33781e-07 -9.60426e-08 -2.55726e-08 -5.45212e-08 2.65375e-05 1.90657e-06 5.07229e-05 5.07229e-05 -1.27558e-05 -1.77207e-05 2.18534e-05 6.16217e-06 2.61137e-05 3.16147e-05 2.90154e-06 -2.70924e-06 1.49832e-05 4.48917e-06 1.43592e-05 2.01898e-05 4.67411e-06 -1.4172e-06 1.26096e-05 4.77136e-06 1.11627e-05 1.74101e-05 5.6435e-06 -6.30253e-07 1.14756e-05 4.53841e-06 9.32894e-06 1.57592e-05 6.09935e-06 -1.47847e-07 1.07052e-05 4.14035e-06 8.07752e-06 1.44598e-05 6.20711e-06 1.5782e-07 1.00366e-05 3.73422e-06 7.15225e-06 1.33107e-05 6.09531e-06 3.60305e-07 9.39154e-06 3.36929e-06 6.42407e-06 1.22455e-05 5.85204e-06 5.01556e-07 8.75067e-06 3.05187e-06 5.81611e-06 1.12345e-05 5.53656e-06 6.06407e-07 8.11271e-06 2.77534e-06 5.28219e-06 1.02653e-05 5.18797e-06 6.84794e-07 7.48395e-06 2.52776e-06 4.79554e-06 9.33965e-06 4.82821e-06 7.45407e-07 6.86781e-06 2.30599e-06 4.34295e-06 8.45703e-06 4.47256e-06 7.92245e-07 6.26966e-06 2.10262e-06 3.91132e-06 7.61519e-06 4.12774e-06 8.31167e-07 5.68949e-06 1.91488e-06 3.49933e-06 6.81321e-06 3.79929e-06 8.62366e-07 5.13302e-06 1.74382e-06 3.10387e-06 6.05313e-06 3.48854e-06 8.86852e-07 4.59833e-06 1.58476e-06 2.7242e-06 5.33427e-06 3.19521e-06 9.08699e-07 4.08955e-06 1.4373e-06 2.3642e-06 4.65599e-06 2.92327e-06 9.24299e-07 3.60651e-06 1.30098e-06 2.01868e-06 4.02056e-06 2.66556e-06 9.34117e-07 3.14756e-06 1.17471e-06 1.69311e-06 3.42575e-06 2.42575e-06 9.40869e-07 2.71554e-06 1.05569e-06 1.38767e-06 2.87251e-06 2.2004e-06 9.39084e-07 2.31302e-06 9.4471e-07 1.10106e-06 2.36156e-06 1.98845e-06 9.34931e-07 1.93509e-06 8.43429e-07 8.3854e-07 1.89082e-06 1.78895e-06 9.20263e-07 1.58639e-06 7.4696e-07 5.98491e-07 1.46575e-06 1.60133e-06 9.00434e-07 1.26408e-06 6.55923e-07 3.83744e-07 1.08328e-06 1.42174e-06 8.67294e-07 9.73814e-07 5.70357e-07 1.95228e-07 7.48434e-07 1.25209e-06 8.28101e-07 7.14906e-07 4.86888e-07 3.3644e-08 4.56581e-07 1.0874e-06 7.74938e-07 4.89177e-07 4.09549e-07 -9.15413e-08 2.20141e-07 9.26511e-07 7.0959e-07 2.9845e-07 3.28252e-07 -1.84635e-07 3.17814e-08 7.66673e-07 6.23482e-07 1.50331e-07 2.43075e-07 -2.36148e-07 -9.32487e-08 6.0664e-07 5.21385e-07 5.04078e-08 1.47731e-07 -2.48236e-07 -1.63156e-07 4.42339e-07 3.9197e-07 1.31937e-08 3.83783e-08 -2.18589e-07 -1.68278e-07 2.81376e-07 2.44899e-07 3.67096e-08 -1.38961e-07 -1.64456e-07 -1.28018e-07 6.86074e-08 3.71753e-08 -1.711e-05 -4.71795e-05 -3.05899e-05 -3.05899e-05 -2.7886e-05 -3.37676e-05 1.06827e-06 -3.15399e-05 -7.55402e-06 -7.81011e-07 -2.19359e-05 -2.95842e-05 -6.60929e-07 -2.49139e-05 -4.95305e-06 3.78598e-06 -2.11048e-05 -2.93111e-05 -3.74877e-07 -2.07299e-05 -2.75363e-06 6.51146e-06 -1.93859e-05 -2.75978e-05 -1.23711e-07 -1.79874e-05 -1.55686e-06 7.50739e-06 -1.75701e-05 -2.53675e-05 -4.85064e-09 -1.57268e-05 -7.75753e-07 7.70305e-06 -1.58032e-05 -2.29988e-05 3.72529e-08 -1.37662e-05 -2.57647e-07 7.48259e-06 -1.41482e-05 -2.06823e-05 4.72258e-08 -1.20492e-05 8.56817e-08 7.05403e-06 -1.26315e-05 -1.85094e-05 4.86616e-08 -1.05438e-05 3.11683e-07 6.53462e-06 -1.12556e-05 -1.65122e-05 5.36287e-08 -9.22071e-06 4.61858e-07 5.9919e-06 -1.00141e-05 -1.46963e-05 6.23986e-08 -8.0554e-06 5.60617e-07 5.45895e-06 -8.89423e-06 -1.30527e-05 7.7843e-08 -7.02252e-06 6.24529e-07 4.95339e-06 -7.8813e-06 -1.15632e-05 9.56158e-08 -6.10684e-06 6.65702e-07 4.48152e-06 -6.96383e-06 -1.02141e-05 1.14475e-07 -5.28941e-06 6.8914e-07 4.04423e-06 -6.13324e-06 -8.99122e-06 1.32713e-07 -4.55624e-06 6.9822e-07 3.63771e-06 -5.3761e-06 -7.87893e-06 1.47809e-07 -3.89933e-06 6.96979e-07 3.26269e-06 -4.68713e-06 -6.86736e-06 1.59761e-07 -3.31093e-06 6.86074e-07 2.91438e-06 -4.05958e-06 -5.9457e-06 1.69307e-07 -2.78301e-06 6.67914e-07 2.59036e-06 -3.49007e-06 -5.10807e-06 1.73498e-07 -2.31007e-06 6.43039e-07 2.28803e-06 -2.97086e-06 -4.34456e-06 1.76835e-07 -1.88399e-06 6.13392e-07 2.00688e-06 -2.49755e-06 -3.65131e-06 1.71907e-07 -1.50542e-06 5.75363e-07 1.74328e-06 -2.07243e-06 -3.02612e-06 1.65969e-07 -1.17059e-06 5.32678e-07 1.49621e-06 -1.68333e-06 -2.45904e-06 1.55143e-07 -8.74725e-07 4.8421e-07 1.26664e-06 -1.33321e-06 -1.94881e-06 1.41794e-07 -6.15915e-07 4.32561e-07 1.05251e-06 -1.02218e-06 -1.49873e-06 1.24254e-07 -3.96782e-07 3.72568e-07 8.51811e-07 -7.42982e-07 -1.09768e-06 1.04425e-07 -2.11759e-07 3.10402e-07 6.66672e-07 -4.96802e-07 -7.50433e-07 8.25385e-08 -6.58717e-08 2.38613e-07 4.93058e-07 -2.85877e-07 -4.54388e-07 6.12733e-08 4.74975e-08 1.71014e-07 3.39933e-07 -1.09353e-07 -2.10925e-07 3.77574e-08 1.18705e-07 9.91859e-08 2.00894e-07 2.59606e-08 -2.94337e-08 7.14014e-09 1.46722e-07 3.00352e-08 8.54877e-08 1.12069e-07 8.23832e-08 -3.10635e-08 1.30696e-07 -3.63022e-08 -6.71328e-09 1.37952e-07 1.21732e-07 -8.48086e-08 5.08347e-08 -8.46727e-08 -6.85492e-08 5.41331e-08 5.3163e-08 -5.40311e-06 -2.01159e-05 -1.4615e-05 -1.4615e-05 -6.3308e-06 -1.19456e-05 -3.77411e-06 -2.70713e-05 -9.81436e-06 -4.16726e-06 -1.89513e-05 -2.73686e-05 1.0392e-06 -2.10188e-05 -2.6454e-06 6.56163e-06 -1.70184e-05 -2.62664e-05 1.21693e-06 -1.68332e-05 -1.17624e-06 8.9516e-06 -1.46166e-05 -2.37363e-05 1.14463e-06 -1.43175e-05 -5.83939e-07 9.27675e-06 -1.29699e-05 -2.14315e-05 1.06105e-06 -1.23918e-05 -8.23056e-08 8.9847e-06 -1.16553e-05 -1.93327e-05 9.97369e-07 -1.08023e-05 3.08384e-07 8.47923e-06 -1.05108e-05 -1.74113e-05 9.53325e-07 -9.45124e-06 5.94999e-07 7.89711e-06 -9.4763e-06 -1.56547e-05 9.23988e-07 -8.284e-06 7.91857e-07 7.29645e-06 -8.52585e-06 -1.40462e-05 9.00201e-07 -7.26513e-06 9.21583e-07 6.7063e-06 -7.64973e-06 -1.2578e-05 8.78548e-07 -6.36604e-06 9.98882e-07 6.14083e-06 -6.8412e-06 -1.12348e-05 8.56894e-07 -5.57041e-06 1.03974e-06 5.60532e-06 -6.09599e-06 -1.00064e-05 8.31477e-07 -4.85954e-06 1.0517e-06 5.09992e-06 -5.4111e-06 -8.88173e-06 8.0377e-07 -4.22285e-06 1.04394e-06 4.6244e-06 -4.78182e-06 -7.85256e-06 7.71756e-07 -3.65222e-06 1.02023e-06 4.17776e-06 -4.20467e-06 -6.90715e-06 7.36094e-07 -3.13726e-06 9.87862e-07 3.75824e-06 -3.67583e-06 -6.04254e-06 6.98958e-07 -2.67474e-06 9.45409e-07 3.36475e-06 -3.19265e-06 -5.25029e-06 6.57164e-07 -2.25995e-06 8.96747e-07 2.99463e-06 -2.75202e-06 -4.52658e-06 6.14751e-07 -1.88521e-06 8.42808e-07 2.64763e-06 -2.34986e-06 -3.86561e-06 5.69465e-07 -1.55104e-06 7.83941e-07 2.32206e-06 -1.98405e-06 -3.26413e-06 5.23093e-07 -1.25286e-06 7.24297e-07 2.0205e-06 -1.65391e-06 -2.71892e-06 4.75595e-07 -9.88929e-07 6.59027e-07 1.7354e-06 -1.35403e-06 -2.226e-06 4.2868e-07 -7.55904e-07 5.93058e-07 1.47273e-06 -1.08412e-06 -1.78337e-06 3.81183e-07 -5.56155e-07 5.23753e-07 1.22807e-06 -8.46592e-07 -1.39107e-06 3.33763e-07 -3.86673e-07 4.52584e-07 1.0002e-06 -6.34987e-07 -1.04601e-06 2.87856e-07 -2.42687e-07 3.81959e-07 7.94806e-07 -4.48839e-07 -7.45873e-07 2.41717e-07 -1.32325e-07 3.08035e-07 6.05981e-07 -2.88671e-07 -4.92961e-07 1.99264e-07 -4.80213e-08 2.36129e-07 4.40787e-07 -1.58073e-07 -2.85741e-07 1.57976e-07 7.48939e-09 1.67638e-07 2.95384e-07 -5.41525e-08 -1.28426e-07 1.14591e-07 4.22976e-08 9.93799e-08 1.73614e-07 1.92861e-08 -1.6531e-08 6.17001e-08 6.83358e-08 3.59335e-08 7.16342e-08 7.36521e-08 6.18165e-08 -1.64922e-08 1.0004e-07 -3.40127e-08 -2.23323e-08 9.99232e-08 1.17929e-07 1.81565e-06 -1.36717e-05 -2.80553e-06 -2.80553e-06 -4.52568e-06 -9.99916e-06 1.17894e-06 -1.39664e-05 -2.99645e-06 2.57418e-06 -8.2515e-06 -1.64994e-05 2.79319e-07 -1.53022e-05 -2.11286e-06 6.41122e-06 -1.19321e-05 -2.17095e-05 2.20654e-06 -1.20436e-05 9.88754e-08 1.05579e-05 -9.85834e-06 -1.92985e-05 2.25008e-06 -1.02412e-05 5.18048e-07 1.05473e-05 -8.63872e-06 -1.73361e-05 2.11756e-06 -8.87157e-06 7.97484e-07 9.99523e-06 -7.79104e-06 -1.56782e-05 2.00362e-06 -7.75662e-06 1.02822e-06 9.33791e-06 -7.09029e-06 -1.41975e-05 1.92136e-06 -6.81534e-06 1.20975e-06 8.67143e-06 -6.45643e-06 -1.28445e-05 1.85655e-06 -6.00497e-06 1.33672e-06 8.02001e-06 -5.86037e-06 -1.15947e-05 1.798e-06 -5.29265e-06 1.4146e-06 7.39327e-06 -5.29624e-06 -1.04372e-05 1.73672e-06 -4.66063e-06 1.44999e-06 6.79186e-06 -4.76174e-06 -9.36488e-06 1.66963e-06 -4.09516e-06 1.45228e-06 6.21964e-06 -4.2594e-06 -8.3718e-06 1.5966e-06 -3.58608e-06 1.429e-06 5.67463e-06 -3.78936e-06 -7.45304e-06 1.51643e-06 -3.12682e-06 1.38569e-06 5.15654e-06 -3.35218e-06 -6.6036e-06 1.43047e-06 -2.7129e-06 1.32768e-06 4.66445e-06 -2.94876e-06 -5.82164e-06 1.34002e-06 -2.33618e-06 1.25802e-06 4.19829e-06 -2.57742e-06 -5.10035e-06 1.24821e-06 -1.9986e-06 1.1827e-06 3.75816e-06 -2.23647e-06 -4.43837e-06 1.1522e-06 -1.69254e-06 1.10001e-06 3.34232e-06 -1.9253e-06 -3.83133e-06 1.05779e-06 -1.41819e-06 1.01526e-06 2.95187e-06 -1.64091e-06 -3.2741e-06 9.64889e-07 -1.17176e-06 9.29964e-07 2.58582e-06 -1.38216e-06 -2.76752e-06 8.70709e-07 -9.5218e-07 8.41566e-07 2.2434e-06 -1.1503e-06 -2.30822e-06 7.78586e-07 -7.59241e-07 7.54449e-07 1.924e-06 -9.40519e-07 -1.89588e-06 6.91429e-07 -5.89062e-07 6.65779e-07 1.62912e-06 -7.51888e-07 -1.52207e-06 6.07106e-07 -4.44047e-07 5.79826e-07 1.35527e-06 -5.85763e-07 -1.19281e-06 5.23559e-07 -3.20414e-07 4.94222e-07 1.10447e-06 -4.3875e-07 -9.04275e-07 4.46492e-07 -2.15834e-07 4.12033e-07 8.79401e-07 -3.09742e-07 -6.5276e-07 3.71481e-07 -1.36575e-07 3.30658e-07 6.74549e-07 -2.02795e-07 -4.43465e-07 3.03107e-07 -7.67371e-08 2.51845e-07 4.92864e-07 -1.1366e-07 -2.73246e-07 2.37293e-07 -3.57977e-08 1.77611e-07 3.37139e-07 -4.55572e-08 -1.40261e-07 1.79086e-07 -1.13505e-08 1.11875e-07 2.06366e-07 3.7641e-09 -4.30155e-08 1.19597e-07 1.02834e-08 5.15332e-08 9.80993e-08 3.60499e-08 3.06172e-08 5.1572e-08 5.46376e-08 -2.15368e-09 3.0268e-09 7.22163e-08 1.10672e-07 7.42353e-06 -8.108e-06 7.61527e-06 7.61527e-06 -3.62958e-06 -8.82694e-06 5.63089e-06 -8.45078e-06 3.76887e-06 9.15673e-06 -4.55467e-06 -1.26315e-05 3.52211e-06 -8.08737e-06 1.71491e-06 1.0075e-05 -5.90053e-06 -1.52966e-05 3.36207e-06 -7.36599e-06 1.7439e-06 1.15073e-05 -5.50359e-06 -1.47587e-05 3.54543e-06 -6.43643e-06 1.88539e-06 1.15687e-05 -4.85883e-06 -1.34429e-05 3.38578e-06 -5.60493e-06 1.93963e-06 1.09166e-05 -4.36732e-06 -1.22192e-05 3.21547e-06 -4.91354e-06 1.97623e-06 1.01743e-05 -3.97454e-06 -1.11104e-05 3.07115e-06 -4.33228e-06 2.00615e-06 9.44128e-06 -3.62995e-06 -1.00902e-05 2.94492e-06 -3.83309e-06 2.01965e-06 8.73484e-06 -3.30777e-06 -9.13986e-06 2.82323e-06 -3.39349e-06 2.0115e-06 8.05823e-06 -2.99725e-06 -8.25045e-06 2.69858e-06 -3.00119e-06 1.9777e-06 7.40972e-06 -2.6988e-06 -7.4175e-06 2.56746e-06 -2.64692e-06 1.92241e-06 6.78872e-06 -2.41344e-06 -6.64082e-06 2.42873e-06 -2.32584e-06 1.84561e-06 6.19353e-06 -2.14303e-06 -5.91613e-06 2.28263e-06 -2.03178e-06 1.75407e-06 5.62468e-06 -1.88731e-06 -5.24214e-06 2.13133e-06 -1.76559e-06 1.65112e-06 5.08401e-06 -1.65081e-06 -4.61858e-06 1.97782e-06 -1.5231e-06 1.53882e-06 4.56837e-06 -1.43096e-06 -4.04122e-06 1.82039e-06 -1.30346e-06 1.42182e-06 4.08024e-06 -1.22946e-06 -3.51039e-06 1.66443e-06 -1.10321e-06 1.3018e-06 3.61986e-06 -1.04411e-06 -3.02142e-06 1.5113e-06 -9.23096e-07 1.18072e-06 3.18621e-06 -8.75016e-07 -2.57503e-06 1.36187e-06 -7.61628e-07 1.06016e-06 2.78105e-06 -7.22279e-07 -2.16771e-06 1.216e-06 -6.1933e-07 9.41955e-07 2.40254e-06 -5.8683e-07 -1.79864e-06 1.07506e-06 -4.91894e-07 8.27014e-07 2.04949e-06 -4.65234e-07 -1.46608e-06 9.4246e-07 -3.83259e-07 7.16303e-07 1.72438e-06 -3.55804e-07 -1.16869e-06 8.15295e-07 -2.88225e-07 6.09124e-07 1.42679e-06 -2.59742e-07 -9.06546e-07 6.95194e-07 -2.08073e-07 5.0598e-07 1.15565e-06 -1.77863e-07 -6.78682e-07 5.83047e-07 -1.42958e-07 4.10209e-07 9.12657e-07 -1.07975e-07 -4.82212e-07 4.76798e-07 -9.30352e-08 3.18163e-07 6.93137e-07 -5.19018e-08 -3.18474e-07 3.80717e-07 -5.70435e-08 2.32132e-07 4.98878e-07 -5.70435e-09 -1.86362e-07 2.90146e-07 -3.70783e-08 1.52853e-07 3.33413e-07 2.26622e-08 -8.89801e-08 2.13661e-07 -3.31784e-08 8.42847e-08 1.95655e-07 3.41097e-08 -2.13816e-08 1.47886e-07 -3.84171e-08 3.05784e-08 8.57593e-08 2.96471e-08 2.24682e-08 1.05123e-07 -3.60305e-08 2.17309e-09 8.96398e-09 1.76563e-08 6.43389e-08 1.27488e-05 -3.30924e-06 1.775e-05 1.775e-05 -3.55404e-06 -8.42189e-06 9.7149e-06 -4.00839e-06 1.02773e-05 1.54195e-05 -2.38983e-06 -1.00342e-05 6.92799e-06 -3.71491e-06 5.86202e-06 1.38121e-05 -2.10749e-06 -1.10285e-05 5.54603e-06 -3.14139e-06 4.12789e-06 1.33308e-05 -1.74881e-06 -1.04479e-05 4.98161e-06 -3.06861e-06 3.46223e-06 1.24525e-05 -1.57042e-06 -9.83801e-06 4.76387e-06 -2.69806e-06 3.20926e-06 1.1776e-05 -1.34229e-06 -9.00851e-06 4.53294e-06 -2.36277e-06 3.03223e-06 1.09742e-05 -1.16633e-06 -8.20338e-06 4.31602e-06 -2.08323e-06 2.89311e-06 1.01748e-05 -1.03239e-06 -7.45215e-06 4.11074e-06 -1.84705e-06 2.772e-06 9.4038e-06 -9.19972e-07 -6.74807e-06 3.90791e-06 -1.63957e-06 2.65691e-06 8.66569e-06 -8.17779e-07 -6.08712e-06 3.70232e-06 -1.45346e-06 2.53665e-06 7.95769e-06 -7.18903e-07 -5.4662e-06 3.49099e-06 -1.28342e-06 2.40646e-06 7.27968e-06 -6.23715e-07 -4.88411e-06 3.27298e-06 -1.12824e-06 2.26564e-06 6.62919e-06 -5.30815e-07 -4.33899e-06 3.04958e-06 -9.84039e-07 2.11662e-06 6.00843e-06 -4.42242e-07 -3.83057e-06 2.82427e-06 -8.50472e-07 1.96001e-06 5.41521e-06 -3.58579e-07 -3.35798e-06 2.59909e-06 -7.28993e-07 1.79978e-06 4.85207e-06 -2.79901e-07 -2.91925e-06 2.3727e-06 -6.15449e-07 1.63789e-06 4.31843e-06 -2.0817e-07 -2.51589e-06 2.1519e-06 -5.13236e-07 1.47584e-06 3.8152e-06 -1.43385e-07 -2.14507e-06 1.93537e-06 -4.22335e-07 1.31394e-06 3.33941e-06 -8.59921e-08 -1.80663e-06 1.72702e-06 -3.39273e-07 1.15849e-06 2.89672e-06 -3.27709e-08 -1.49794e-06 1.52489e-06 -2.65097e-07 1.00761e-06 2.48539e-06 1.26117e-08 -1.21992e-06 1.33439e-06 -2.01204e-07 8.63647e-07 2.10498e-06 4.97481e-08 -9.71583e-07 1.15476e-06 -1.46431e-07 7.26276e-07 1.75353e-06 8.19176e-08 -7.48221e-07 9.85301e-07 -1.01456e-07 5.97715e-07 1.43164e-06 1.06326e-07 -5.56485e-07 8.26161e-07 -6.49597e-08 4.78506e-07 1.14355e-06 1.25379e-07 -3.90282e-07 6.80176e-07 -3.49052e-08 3.70084e-07 8.86852e-07 1.38689e-07 -2.49206e-07 5.47307e-07 -1.49982e-08 2.69036e-07 6.57397e-07 1.44083e-07 -1.3673e-07 4.23558e-07 -6.32523e-09 1.79435e-07 4.60267e-07 1.4257e-07 -5.07571e-08 3.137e-07 -7.17894e-09 9.68575e-08 2.89991e-07 1.30269e-07 7.87744e-09 2.19365e-07 -2.57472e-08 2.81337e-08 1.50253e-07 1.03648e-07 3.99305e-08 1.53047e-07 -6.8394e-08 -1.5328e-08 4.81183e-08 4.88168e-08 3.42261e-08 1.28328e-07 -1.31336e-07 -2.28368e-08 -8.57593e-09 -2.85606e-08 6.20882e-09 1.84703e-05 3.04737e-07 2.82387e-05 2.82387e-05 -4.50456e-06 -8.97168e-06 1.3503e-05 -1.59819e-07 1.65239e-05 2.13448e-05 -9.20341e-07 -7.96669e-06 1.00672e-05 -8.39549e-08 9.88999e-06 1.72696e-05 7.66867e-07 -7.45316e-06 7.90282e-06 2.1304e-08 6.70665e-06 1.51699e-05 1.22694e-06 -6.9018e-06 6.86117e-06 -7.17895e-10 5.35002e-06 1.37047e-05 1.37444e-06 -6.42419e-06 6.34118e-06 -5.1475e-08 4.64544e-06 1.26672e-05 1.41778e-06 -5.9366e-06 6.00722e-06 -3.69619e-08 4.21226e-06 1.17804e-05 1.42279e-06 -5.40159e-06 5.69407e-06 -2.10324e-08 3.88738e-06 1.09049e-05 1.38818e-06 -4.88453e-06 5.38856e-06 -1.17385e-08 3.61772e-06 1.00593e-05 1.32876e-06 -4.396e-06 5.08246e-06 -3.66708e-09 3.38004e-06 9.24935e-06 1.25709e-06 -3.93839e-06 4.77287e-06 3.99693e-09 3.1559e-06 8.4729e-06 1.18321e-06 -3.50944e-06 4.46169e-06 1.26893e-08 2.93642e-06 7.72982e-06 1.11188e-06 -3.10548e-06 4.14819e-06 2.32055e-08 2.71752e-06 7.01728e-06 1.04491e-06 -2.72895e-06 3.83294e-06 3.58947e-08 2.49843e-06 6.33874e-06 9.82235e-07 -2.37745e-06 3.52152e-06 4.88556e-08 2.27844e-06 5.691e-06 9.25114e-07 -2.04953e-06 3.21345e-06 6.33299e-08 2.06067e-06 5.07683e-06 8.73193e-07 -1.74703e-06 2.91023e-06 7.73774e-08 1.84359e-06 4.49584e-06 8.2131e-07 -1.4679e-06 2.61574e-06 9.08428e-08 1.63412e-06 3.94764e-06 7.74589e-07 -1.21237e-06 2.33289e-06 1.01708e-07 1.42857e-06 3.43351e-06 7.29575e-07 -9.79868e-07 2.05985e-06 1.09935e-07 1.23167e-06 2.95416e-06 6.83746e-07 -7.69486e-07 1.80083e-06 1.17502e-07 1.04518e-06 2.50747e-06 6.39081e-07 -5.82484e-07 1.55628e-06 1.22779e-07 8.68963e-07 2.09668e-06 5.969e-07 -4.15564e-07 1.325e-06 1.23594e-07 7.03614e-07 1.72e-06 5.54719e-07 -2.71616e-07 1.1134e-06 1.20412e-07 5.52158e-07 1.38076e-06 5.10016e-07 -1.48468e-07 9.14908e-07 1.15678e-07 4.15292e-07 1.07494e-06 4.64808e-07 -4.69154e-08 7.3264e-07 1.07024e-07 2.94182e-07 8.06409e-07 4.18241e-07 3.0268e-08 5.71056e-07 9.18129e-08 1.83975e-07 5.72065e-07 3.70783e-07 8.99502e-08 4.29728e-07 7.50103e-08 9.26666e-08 3.73305e-07 3.19638e-07 1.26039e-07 3.05086e-07 4.93213e-08 1.86653e-08 2.12031e-07 2.66475e-07 1.41833e-07 2.02485e-07 1.01669e-08 -4.26468e-08 8.16848e-08 2.01515e-07 1.26776e-07 1.27126e-07 -6.71328e-08 -8.62444e-08 -1.18162e-08 1.01204e-07 7.11298e-08 1.22003e-07 -1.99361e-07 -7.45446e-08 -4.47035e-08 -4.839e-08 -4.21035e-08 2.48714e-05 2.10754e-06 3.9526e-05 3.9526e-05 -7.01208e-06 -1.10215e-05 1.68891e-05 3.30294e-06 2.23775e-05 2.68156e-05 1.34693e-07 -6.1392e-06 1.27652e-05 3.27558e-06 1.35495e-05 2.01768e-05 3.20899e-06 -4.04398e-06 1.02054e-05 2.80654e-06 9.23701e-06 1.6701e-05 3.80255e-06 -3.55513e-06 8.93018e-06 2.58993e-06 7.33114e-06 1.48711e-05 3.97791e-06 -3.21564e-06 8.19967e-06 2.32501e-06 6.2366e-06 1.36031e-05 3.95296e-06 -2.921e-06 7.68609e-06 2.06098e-06 5.52127e-06 1.25567e-05 3.8244e-06 -2.63421e-06 7.24123e-06 1.84456e-06 4.99693e-06 1.1601e-05 3.64306e-06 -2.34098e-06 6.80351e-06 1.65772e-06 4.57054e-06 1.06809e-05 3.43367e-06 -2.05902e-06 6.36757e-06 1.4971e-06 4.19735e-06 9.79697e-06 3.21151e-06 -1.79249e-06 5.93206e-06 1.35453e-06 3.8563e-06 8.94916e-06 2.98667e-06 -1.54332e-06 5.49771e-06 1.22756e-06 3.53418e-06 8.13681e-06 2.76874e-06 -1.31012e-06 5.06892e-06 1.11452e-06 3.223e-06 7.36048e-06 2.56079e-06 -1.0925e-06 4.64443e-06 1.01433e-06 2.91927e-06 6.61914e-06 2.36335e-06 -8.91877e-07 4.23061e-06 9.23212e-07 2.62342e-06 5.91495e-06 2.17945e-06 -7.04313e-07 3.82754e-06 8.42265e-07 2.3363e-06 5.248e-06 2.00673e-06 -5.3194e-07 3.43755e-06 7.6741e-07 2.0583e-06 4.61796e-06 1.84417e-06 -3.75401e-07 3.06091e-06 6.99928e-07 1.78833e-06 4.02331e-06 1.69031e-06 -2.35178e-07 2.70192e-06 6.37025e-07 1.53253e-06 3.46898e-06 1.54875e-06 -1.07451e-07 2.36024e-06 5.79438e-07 1.28903e-06 2.95268e-06 1.4139e-06 4.46259e-09 2.03719e-06 5.24179e-07 1.05922e-06 2.47352e-06 1.28507e-06 1.02096e-07 1.73482e-06 4.72569e-07 8.46766e-07 2.03265e-06 1.16411e-06 1.85488e-07 1.45139e-06 4.22859e-07 6.5115e-07 1.63133e-06 1.04758e-06 2.49788e-07 1.18949e-06 3.74702e-07 4.71987e-07 1.27044e-06 9.38618e-07 3.03029e-07 9.53286e-07 3.28563e-07 3.14089e-07 9.49794e-07 8.30235e-07 3.39467e-07 7.36327e-07 2.83898e-07 1.80172e-07 6.70707e-07 7.23909e-07 3.55338e-07 5.482e-07 2.34072e-07 6.41837e-08 4.32405e-07 6.22201e-07 3.54291e-07 3.85296e-07 1.83548e-07 -2.67949e-08 2.40747e-07 5.21347e-07 3.35781e-07 2.52621e-07 1.31743e-07 -9.29964e-08 9.22785e-08 4.18629e-07 2.95928e-07 1.51728e-07 7.0082e-08 -1.33296e-07 -1.08848e-08 3.15524e-07 2.37875e-07 8.38578e-08 -2.47771e-08 -1.55958e-07 -7.85221e-08 1.88632e-07 1.40203e-07 7.11686e-08 -2.0883e-07 -1.45965e-07 -9.76142e-08 -1.25146e-08 -4.59647e-08 2.95953e-05 8.0637e-07 5.07774e-05 5.07774e-05 -1.23687e-05 -1.63725e-05 2.01417e-05 6.49361e-06 2.75262e-05 3.20265e-05 8.84368e-07 -4.49346e-06 1.50004e-05 6.63695e-06 1.65486e-05 2.22888e-05 5.54618e-06 -4.81358e-07 1.23985e-05 5.49438e-06 1.13867e-05 1.75854e-05 6.28674e-06 -6.68806e-08 1.11131e-05 4.91991e-06 9.14675e-06 1.56556e-05 6.42783e-06 4.66049e-08 1.02872e-05 4.39452e-06 7.83797e-06 1.43632e-05 6.31472e-06 1.0458e-07 9.61637e-06 3.91889e-06 6.92873e-06 1.32646e-05 6.06861e-06 1.5914e-07 8.99669e-06 3.50783e-06 6.22919e-06 1.22443e-05 5.75359e-06 2.22547e-07 8.39188e-06 3.16079e-06 5.64455e-06 1.12622e-05 5.40481e-06 2.95152e-07 7.78768e-06 2.85924e-06 5.13182e-06 1.03108e-05 5.04552e-06 3.69231e-07 7.19381e-06 2.59443e-06 4.66162e-06 9.39278e-06 4.68832e-06 4.40632e-07 6.60932e-06 2.35823e-06 4.2206e-06 8.51101e-06 4.3402e-06 5.0598e-07 6.03974e-06 2.14445e-06 3.80038e-06 7.66731e-06 4.0081e-06 5.6539e-07 5.48766e-06 1.94945e-06 3.39583e-06 6.86311e-06 3.69103e-06 6.19562e-07 4.95448e-06 1.77002e-06 3.0091e-06 6.09849e-06 3.39219e-06 6.6869e-07 4.44245e-06 1.60622e-06 2.64022e-06 5.37637e-06 3.11081e-06 7.10987e-07 3.95067e-06 1.45473e-06 2.2871e-06 4.69542e-06 2.84577e-06 7.45563e-07 3.48598e-06 1.31503e-06 1.95038e-06 4.05587e-06 2.59792e-06 7.7649e-07 3.04154e-06 1.18577e-06 1.63439e-06 3.45866e-06 2.36405e-06 7.97755e-07 2.62272e-06 1.06423e-06 1.33509e-06 2.90251e-06 2.14309e-06 8.11104e-07 2.23044e-06 9.52937e-07 1.05779e-06 2.38974e-06 1.93723e-06 8.17236e-07 1.86148e-06 8.48551e-07 7.9892e-07 1.9181e-06 1.742e-06 8.16692e-07 1.52322e-06 7.51616e-07 5.66904e-07 1.49101e-06 1.5562e-06 8.06254e-07 1.21285e-06 6.59493e-07 3.5918e-07 1.10781e-06 1.38049e-06 7.86812e-07 9.31245e-07 5.73268e-07 1.77921e-07 7.70359e-07 1.21522e-06 7.54138e-07 6.77072e-07 4.9267e-07 2.09936e-08 4.80989e-07 1.05096e-06 7.08154e-07 4.59491e-07 4.09704e-07 -9.97485e-08 2.4226e-07 8.9535e-07 6.4952e-07 2.77457e-07 3.2864e-07 -1.90223e-07 5.49868e-08 7.41915e-07 5.74432e-07 1.38845e-07 2.40204e-07 -2.43172e-07 -7.60968e-08 5.865e-07 4.75673e-07 4.77691e-08 1.46839e-07 -2.546e-07 -1.44025e-07 4.32289e-07 3.58986e-07 1.52116e-08 3.98528e-08 -2.26079e-07 -1.52873e-07 2.79824e-07 2.22004e-07 4.19871e-08 -1.34751e-07 -1.77456e-07 -1.19733e-07 8.23056e-08 3.10829e-08 -1.84068e-05 -4.85134e-05 -3.14266e-05 -3.14266e-05 -3.05964e-05 -3.56224e-05 1.50797e-06 -3.25288e-05 -7.17636e-06 -1.56592e-06 -2.2699e-05 -2.94827e-05 -3.01438e-07 -2.5811e-05 -4.82658e-06 2.71562e-06 -2.1125e-05 -2.86794e-05 -9.37415e-07 -2.14361e-05 -2.82557e-06 5.53194e-06 -1.99258e-05 -2.75952e-05 -8.87279e-07 -1.82235e-05 -1.42855e-06 7.00875e-06 -1.82968e-05 -2.57504e-05 -7.32854e-07 -1.57625e-05 -6.13004e-07 7.51267e-06 -1.65378e-05 -2.3568e-05 -5.86947e-07 -1.37226e-05 -1.19151e-07 7.47677e-06 -1.48108e-05 -2.13125e-05 -4.63702e-07 -1.19795e-05 1.80948e-07 7.14786e-06 -1.31898e-05 -1.91242e-05 -3.62032e-07 -1.04692e-05 3.64419e-07 6.67541e-06 -1.17057e-05 -1.70747e-05 -2.74682e-07 -9.15182e-06 4.76721e-07 6.14751e-06 -1.03644e-05 -1.51896e-05 -1.98837e-07 -7.99226e-06 5.45289e-07 5.6106e-06 -9.15766e-06 -1.34735e-05 -1.32888e-07 -6.96798e-06 5.87897e-07 5.09368e-06 -8.07381e-06 -1.19172e-05 -7.43894e-08 -6.0586e-06 6.12112e-07 4.60492e-06 -7.09982e-06 -1.05105e-05 -2.45442e-08 -5.24564e-06 6.23831e-07 4.15153e-06 -6.22479e-06 -9.23793e-06 1.61041e-08 -4.51936e-06 6.28293e-07 3.73247e-06 -5.43543e-06 -8.08353e-06 5.26585e-08 -3.86813e-06 6.24374e-07 3.34287e-06 -4.72074e-06 -7.03606e-06 8.25773e-08 -3.28144e-06 6.14906e-07 2.984e-06 -4.07648e-06 -6.08631e-06 1.05589e-07 -2.7554e-06 5.99655e-07 2.65016e-06 -3.49116e-06 -5.22491e-06 1.22236e-07 -2.28263e-06 5.78739e-07 2.34278e-06 -2.96331e-06 -4.44379e-06 1.32442e-07 -1.86154e-06 5.52507e-07 2.0552e-06 -2.48457e-06 -3.73486e-06 1.37642e-07 -1.48561e-06 5.19135e-07 1.78538e-06 -2.05229e-06 -3.09409e-06 1.38767e-07 -1.14995e-06 4.82425e-07 1.5354e-06 -1.66127e-06 -2.51624e-06 1.34925e-07 -8.56856e-07 4.38731e-07 1.30129e-06 -1.30989e-06 -1.9984e-06 1.26737e-07 -6.03536e-07 3.89564e-07 1.08301e-06 -9.95758e-07 -1.53657e-06 1.14902e-07 -3.81784e-07 3.37372e-07 8.81225e-07 -7.17584e-07 -1.13059e-06 9.93023e-08 -1.97731e-07 2.78776e-07 6.93564e-07 -4.71851e-07 -7.77402e-07 8.00937e-08 -5.36287e-08 2.13933e-07 5.20376e-07 -2.64515e-07 -4.7804e-07 5.84793e-08 5.78584e-08 1.46916e-07 3.60887e-07 -8.79518e-08 -2.33626e-07 3.18978e-08 1.30851e-07 7.94729e-08 2.25264e-07 4.4393e-08 -5.02332e-08 4.46259e-09 1.59295e-07 1.30385e-08 1.07684e-07 1.24681e-07 6.56971e-08 -3.26157e-08 1.41173e-07 -4.48587e-08 1.40086e-08 1.46024e-07 1.04813e-07 -8.12191e-08 6.0536e-08 -9.08234e-08 -4.96511e-08 6.68224e-08 3.8223e-08 -6.33961e-06 -2.04575e-05 -1.53291e-05 -1.53291e-05 -7.08063e-06 -1.19518e-05 -4.29334e-06 -2.81075e-05 -1.0124e-05 -5.21112e-06 -1.99783e-05 -2.72139e-05 1.5321e-06 -2.18341e-05 -2.30646e-06 5.60028e-06 -1.75809e-05 -2.56738e-05 9.52782e-07 -1.77799e-05 -9.08874e-07 7.9124e-06 -1.6017e-05 -2.42496e-05 7.57359e-07 -1.4792e-05 -9.27054e-08 8.84105e-06 -1.42979e-05 -2.22514e-05 6.60735e-07 -1.26325e-05 3.24954e-07 8.88854e-06 -1.27628e-05 -2.0184e-05 6.32329e-07 -1.09281e-05 6.03652e-07 8.53584e-06 -1.13886e-05 -1.81889e-05 6.39314e-07 -9.52173e-06 7.91314e-07 8.01201e-06 -1.0151e-05 -1.63213e-05 6.58678e-07 -8.32837e-06 9.1029e-07 7.42303e-06 -9.03651e-06 -1.46008e-05 6.8134e-07 -7.29685e-06 9.80916e-07 6.82236e-06 -8.02984e-06 -1.30274e-05 6.99113e-07 -6.39407e-06 1.01541e-06 6.23614e-06 -7.12091e-06 -1.15945e-05 7.10987e-07 -5.59488e-06 1.02783e-06 5.68033e-06 -6.30026e-06 -1.02928e-05 7.13393e-07 -4.88345e-06 1.02026e-06 5.15557e-06 -5.55645e-06 -9.10841e-06 7.07029e-07 -4.24712e-06 1.00082e-06 4.66593e-06 -4.88397e-06 -8.03068e-06 6.93447e-07 -3.67283e-06 9.71719e-07 4.2076e-06 -4.27531e-06 -7.05002e-06 6.72997e-07 -3.15866e-06 9.34737e-07 3.77911e-06 -3.7224e-06 -6.15486e-06 6.47153e-07 -2.69457e-06 8.92362e-07 3.37868e-06 -3.22042e-06 -5.34005e-06 6.1673e-07 -2.27604e-06 8.43972e-07 3.00468e-06 -2.765e-06 -4.59788e-06 5.81766e-07 -1.89897e-06 7.92711e-07 2.65648e-06 -2.35145e-06 -3.92102e-06 5.42883e-07 -1.56123e-06 7.37802e-07 2.33021e-06 -1.97828e-06 -3.308e-06 5.02255e-07 -1.26243e-06 6.79361e-07 2.02567e-06 -1.64173e-06 -2.7551e-06 4.61393e-07 -9.95118e-07 6.177e-07 1.74278e-06 -1.33722e-06 -2.25165e-06 4.18629e-07 -7.61822e-07 5.57358e-07 1.47976e-06 -1.06464e-06 -1.80236e-06 3.75905e-07 -5.5792e-07 4.92514e-07 1.23552e-06 -8.20204e-07 -1.40335e-06 3.28679e-07 -3.85335e-07 4.2348e-07 1.00994e-06 -6.07475e-07 -1.05509e-06 2.84635e-07 -2.42357e-07 3.54989e-07 8.04508e-07 -4.21734e-07 -7.51073e-07 2.42571e-07 -1.27339e-07 2.85256e-07 6.15604e-07 -2.61178e-07 -4.94804e-07 2.00312e-07 -4.37722e-08 2.16882e-07 4.51032e-07 -1.32306e-07 -2.88109e-07 1.56928e-07 1.41639e-08 1.48391e-07 3.04387e-07 -3.345e-08 -1.30831e-07 1.13777e-07 4.8972e-08 8.4828e-08 1.8219e-07 4.03573e-08 -1.74429e-08 6.25926e-08 7.39625e-08 2.4098e-08 8.18788e-08 8.62638e-08 5.92942e-08 -1.0846e-08 1.01281e-07 -3.93872e-08 -1.25535e-08 1.10983e-07 1.11526e-07 1.12597e-06 -1.396e-05 -3.46557e-06 -3.46557e-06 -5.0118e-06 -9.84652e-06 5.10287e-07 -1.43026e-05 -3.17078e-06 1.7711e-06 -8.69403e-06 -1.59492e-05 3.96394e-07 -1.59686e-05 -2.15429e-06 5.41168e-06 -1.23949e-05 -2.09572e-05 1.90778e-06 -1.31249e-05 2.61508e-07 9.42669e-06 -1.14097e-05 -2.01408e-05 1.88116e-06 -1.07959e-05 8.67333e-07 1.0204e-05 -1.0026e-05 -1.83833e-05 1.76971e-06 -9.18695e-06 1.08868e-06 9.97497e-06 -8.89465e-06 -1.66338e-05 1.69652e-06 -7.94969e-06 1.24464e-06 9.4291e-06 -7.94213e-06 -1.50006e-05 1.65861e-06 -6.94511e-06 1.35729e-06 8.78548e-06 -7.10477e-06 -1.34934e-05 1.63509e-06 -6.10094e-06 1.42741e-06 8.12055e-06 -6.35271e-06 -1.21114e-05 1.61181e-06 -5.37257e-06 1.45981e-06 7.46797e-06 -5.66817e-06 -1.08447e-05 1.58119e-06 -4.73157e-06 1.46156e-06 6.84142e-06 -5.04206e-06 -9.68381e-06 1.54068e-06 -4.16068e-06 1.44091e-06 6.24754e-06 -4.47101e-06 -8.62197e-06 1.48845e-06 -3.64855e-06 1.40036e-06 5.68425e-06 -3.94894e-06 -7.64961e-06 1.42663e-06 -3.18559e-06 1.34693e-06 5.1539e-06 -3.47329e-06 -6.75869e-06 1.35585e-06 -2.76678e-06 1.2841e-06 4.65386e-06 -3.0396e-06 -5.94391e-06 1.27832e-06 -2.38653e-06 1.2127e-06 4.18338e-06 -2.64358e-06 -5.19532e-06 1.19675e-06 -2.04264e-06 1.13711e-06 3.74042e-06 -2.28391e-06 -4.51282e-06 1.1106e-06 -1.7334e-06 1.05643e-06 3.32498e-06 -1.95735e-06 -3.88812e-06 1.02461e-06 -1.45271e-06 9.73853e-07 2.93464e-06 -1.66105e-06 -3.3183e-06 9.366e-07 -1.20222e-06 8.89918e-07 2.56944e-06 -1.39508e-06 -2.80084e-06 8.49289e-07 -9.77093e-07 8.07767e-07 2.22978e-06 -1.15269e-06 -2.33182e-06 7.63258e-07 -7.81166e-07 7.22862e-07 1.91348e-06 -9.36348e-07 -1.90975e-06 6.78003e-07 -6.05631e-07 6.39547e-07 1.62089e-06 -7.43642e-07 -1.53323e-06 5.96978e-07 -4.56756e-07 5.55456e-07 1.3503e-06 -5.7286e-07 -1.19778e-06 5.16884e-07 -3.2866e-07 4.73034e-07 1.10121e-06 -4.2317e-07 -9.05187e-07 4.42883e-07 -2.22159e-07 3.93173e-07 8.77151e-07 -2.92338e-07 -6.50684e-07 3.71831e-07 -1.40727e-07 3.14632e-07 6.73967e-07 -1.83393e-07 -4.3842e-07 3.02913e-07 -7.82311e-08 2.38069e-07 4.93562e-07 -9.48591e-08 -2.66319e-07 2.38768e-07 -3.68454e-08 1.65775e-07 3.37372e-07 -2.83277e-08 -1.34052e-07 1.78659e-07 -1.10789e-08 1.0132e-07 2.07025e-07 1.78115e-08 -3.89797e-08 1.22314e-07 1.26893e-08 4.59841e-08 1.0264e-07 5.11839e-08 3.45754e-08 5.68883e-08 5.22317e-08 -6.8103e-09 9.62367e-09 8.0831e-08 1.08538e-07 7.01682e-06 -8.34263e-06 6.99121e-06 6.99121e-06 -3.88175e-06 -8.65856e-06 4.92689e-06 -8.58522e-06 3.63022e-06 8.59456e-06 -5.08603e-06 -1.24801e-05 3.30057e-06 -8.31031e-06 1.72291e-06 9.43228e-06 -5.91786e-06 -1.45269e-05 2.5956e-06 -8.30957e-06 1.368e-06 1.03766e-05 -6.8031e-06 -1.58001e-05 3.04453e-06 -6.8556e-06 1.91841e-06 1.14073e-05 -5.9443e-06 -1.45125e-05 2.97899e-06 -5.84484e-06 1.99159e-06 1.09969e-05 -5.23316e-06 -1.31492e-05 2.86991e-06 -5.07109e-06 2.01484e-06 1.03042e-05 -4.66276e-06 -1.18809e-05 2.77503e-06 -4.4498e-06 2.02489e-06 9.5575e-06 -4.1744e-06 -1.07139e-05 2.69024e-06 -3.92995e-06 2.01864e-06 8.82079e-06 -3.73689e-06 -9.64018e-06 2.60409e-06 -3.48004e-06 1.99051e-06 8.11151e-06 -3.33567e-06 -8.65102e-06 2.50995e-06 -3.08204e-06 1.94099e-06 7.43568e-06 -2.96568e-06 -7.73966e-06 2.40502e-06 -2.72305e-06 1.8739e-06 6.79443e-06 -2.6241e-06 -6.8992e-06 2.28772e-06 -2.39763e-06 1.79086e-06 6.18487e-06 -2.3089e-06 -6.1256e-06 2.15966e-06 -2.09996e-06 1.69512e-06 5.60745e-06 -2.01886e-06 -5.4119e-06 2.02594e-06 -1.82863e-06 1.59148e-06 5.06077e-06 -1.75508e-06 -4.75634e-06 1.88507e-06 -1.57978e-06 1.48026e-06 4.54171e-06 -1.51231e-06 -4.1536e-06 1.74219e-06 -1.35362e-06 1.36641e-06 4.05463e-06 -1.29223e-06 -3.60073e-06 1.59788e-06 -1.14762e-06 1.25077e-06 3.59529e-06 -1.09188e-06 -3.09411e-06 1.45519e-06 -9.61882e-07 1.13462e-06 3.16413e-06 -9.09844e-07 -2.63081e-06 1.31394e-06 -7.96164e-07 1.02034e-06 2.76153e-06 -7.48376e-07 -2.21158e-06 1.17603e-06 -6.47483e-07 9.05944e-07 2.38384e-06 -6.05127e-07 -1.83352e-06 1.04199e-06 -5.15332e-07 7.95427e-07 2.0342e-06 -4.74334e-07 -1.4908e-06 9.14132e-07 -3.99848e-07 6.89373e-07 1.71301e-06 -3.60907e-07 -1.18771e-06 7.92672e-07 -3.03184e-07 5.86733e-07 1.41829e-06 -2.61372e-07 -9.18614e-07 6.76955e-07 -2.19482e-07 4.8778e-07 1.14797e-06 -1.75477e-07 -6.84522e-07 5.70746e-07 -1.51185e-07 3.96472e-07 9.07225e-07 -1.01359e-07 -4.83492e-07 4.68494e-07 -9.74784e-08 3.07065e-07 6.90149e-07 -4.02991e-08 -3.16999e-07 3.74275e-07 -5.83047e-08 2.21732e-07 4.9884e-07 6.48045e-09 -1.81356e-07 2.884e-07 -3.91738e-08 1.43967e-07 3.31861e-07 3.37992e-08 -8.19952e-08 2.12497e-07 -3.28485e-08 7.99385e-08 1.95694e-07 4.44707e-08 -1.63175e-08 1.49089e-07 -3.79708e-08 2.73188e-08 8.79712e-08 3.83394e-08 2.49129e-08 1.06869e-07 -3.57007e-08 -2.61934e-09 1.06326e-08 2.80173e-08 6.18553e-08 1.25907e-05 -3.48716e-06 1.71815e-05 1.71815e-05 -3.51184e-06 -8.13761e-06 8.99258e-06 -3.98552e-06 1.02173e-05 1.51149e-05 -2.82559e-06 -1.00916e-05 6.41666e-06 -3.68893e-06 5.96431e-06 1.35817e-05 -2.24115e-06 -1.07584e-05 4.93151e-06 -3.45691e-06 3.91986e-06 1.27939e-05 -2.33283e-06 -1.11549e-05 4.50586e-06 -3.17841e-06 3.32067e-06 1.24975e-05 -2.17002e-06 -1.0653e-05 4.4116e-06 -2.77181e-06 3.13021e-06 1.1953e-05 -1.87068e-06 -9.74051e-06 4.23647e-06 -2.41647e-06 2.98244e-06 1.11513e-05 -1.61949e-06 -8.82354e-06 4.05901e-06 -2.12714e-06 2.85842e-06 1.03191e-05 -1.41499e-06 -7.96473e-06 3.88509e-06 -1.88733e-06 2.7434e-06 9.51036e-06 -1.24013e-06 -7.16975e-06 3.71012e-06 -1.6804e-06 2.62695e-06 8.73845e-06 -1.08233e-06 -6.43266e-06 3.52839e-06 -1.49625e-06 2.50211e-06 8.00332e-06 -9.37046e-07 -5.74942e-06 3.33821e-06 -1.32564e-06 2.3689e-06 7.30522e-06 -8.00491e-07 -5.11622e-06 3.13898e-06 -1.16862e-06 2.22594e-06 6.64258e-06 -6.75267e-07 -4.53083e-06 2.9337e-06 -1.02325e-06 2.07448e-06 6.01142e-06 -5.60656e-07 -3.98874e-06 2.72129e-06 -8.88016e-07 1.91926e-06 5.41223e-06 -4.54466e-07 -3.48912e-06 2.5084e-06 -7.62676e-07 1.76001e-06 4.84583e-06 -3.58132e-07 -3.02953e-06 2.29548e-06 -6.4628e-07 1.59858e-06 4.3097e-06 -2.7053e-07 -2.60522e-06 2.08453e-06 -5.40284e-07 1.44114e-06 3.80624e-06 -1.92958e-07 -2.21888e-06 1.87735e-06 -4.44842e-07 1.28332e-06 3.33208e-06 -1.23963e-07 -1.86583e-06 1.677e-06 -3.57104e-07 1.13222e-06 2.89098e-06 -6.31747e-08 -1.54547e-06 1.4841e-06 -2.8254e-07 9.85106e-07 2.47953e-06 -1.2146e-08 -1.25682e-06 1.29985e-06 -2.1597e-07 8.44205e-07 2.09734e-06 3.08113e-08 -9.99775e-07 1.12539e-06 -1.58441e-07 7.11492e-07 1.74778e-06 6.65508e-08 -7.70223e-07 9.59146e-07 -1.09353e-07 5.88091e-07 1.42853e-06 9.67023e-08 -5.71172e-07 8.07728e-07 -7.01208e-08 4.72607e-07 1.14269e-06 1.19132e-07 -3.99227e-07 6.65934e-07 -3.88633e-08 3.65661e-07 8.85261e-07 1.35507e-07 -2.5493e-07 5.33725e-07 -1.86459e-08 2.67406e-07 6.58445e-07 1.42803e-07 -1.38243e-07 4.18047e-07 -9.1192e-09 1.77533e-07 4.58754e-07 1.43462e-07 -4.83706e-08 3.09665e-07 -8.78936e-09 9.66635e-08 2.88438e-07 1.35585e-07 1.25341e-08 2.17386e-07 -2.64069e-08 2.7474e-08 1.5037e-07 1.06093e-07 4.14051e-08 1.52077e-07 -6.79283e-08 -1.71713e-08 4.74198e-08 5.37451e-08 3.55843e-08 1.3089e-07 -1.2959e-07 -2.50487e-08 -7.04313e-09 -2.01981e-08 8.07146e-09 1.85933e-05 1.84014e-07 2.77571e-05 2.77571e-05 -4.22017e-06 -8.56914e-06 1.27898e-05 -2.35935e-08 1.65578e-05 2.12575e-05 -1.31687e-06 -8.20617e-06 9.3887e-06 1.66552e-07 1.01263e-05 1.74013e-05 5.01284e-07 -7.59342e-06 7.49338e-06 1.46955e-07 6.75058e-06 1.51752e-05 1.05503e-06 -7.33382e-06 6.53812e-06 1.10556e-07 5.22274e-06 1.38915e-05 1.1841e-06 -6.88166e-06 6.0645e-06 -2.28562e-08 4.51544e-06 1.28324e-05 1.16803e-06 -6.39978e-06 5.77587e-06 -3.00158e-08 4.13418e-06 1.19309e-05 1.16016e-06 -5.82158e-06 5.48933e-06 -2.47577e-08 3.84205e-06 1.10241e-05 1.13229e-06 -5.25025e-06 5.20396e-06 -2.13234e-08 3.5939e-06 1.0148e-05 1.09093e-06 -4.71133e-06 4.9161e-06 -1.93637e-08 3.36456e-06 9.31144e-06 1.04394e-06 -4.20789e-06 4.62592e-06 -1.67056e-08 3.14244e-06 8.51469e-06 9.96127e-07 -3.73724e-06 4.33112e-06 -1.01863e-08 2.92424e-06 7.7566e-06 9.50182e-07 -3.30024e-06 4.03127e-06 -1.45519e-09 2.70316e-06 7.03409e-06 9.05556e-07 -2.89385e-06 3.73111e-06 1.08266e-08 2.4838e-06 6.34789e-06 8.65975e-07 -2.51702e-06 3.43037e-06 2.59606e-08 2.26257e-06 5.69678e-06 8.25423e-07 -2.16891e-06 3.13309e-06 4.07454e-08 2.0441e-06 5.07854e-06 7.8755e-07 -1.84732e-06 2.84166e-06 5.66167e-08 1.83005e-06 4.49573e-06 7.52547e-07 -1.55164e-06 2.55524e-06 7.21775e-08 1.61961e-06 3.94706e-06 7.15023e-07 -1.28276e-06 2.28034e-06 8.37414e-08 1.41701e-06 3.43208e-06 6.77576e-07 -1.03778e-06 2.01464e-06 9.61979e-08 1.22481e-06 2.9526e-06 6.40905e-07 -8.19777e-07 1.76121e-06 1.05783e-07 1.03742e-06 2.50685e-06 6.04816e-07 -6.22065e-07 1.52182e-06 1.11293e-07 8.63258e-07 2.09602e-06 5.67098e-07 -4.47675e-07 1.29753e-06 1.14475e-07 7.02838e-07 1.72139e-06 5.28526e-07 -2.96064e-07 1.08833e-06 1.14553e-07 5.5371e-07 1.38065e-06 4.85801e-07 -1.70354e-07 8.94923e-07 1.11021e-07 4.18086e-07 1.07552e-06 4.46298e-07 -6.34464e-08 7.19951e-07 1.03687e-07 2.9651e-07 8.06836e-07 4.04039e-07 2.111e-08 5.60889e-07 9.01831e-08 1.91464e-07 5.74626e-07 3.5658e-07 8.0831e-08 4.20259e-07 7.25267e-08 9.91471e-08 3.74857e-07 3.13157e-07 1.22081e-07 3.00817e-07 4.86616e-08 2.12264e-08 2.12109e-07 2.61702e-07 1.38107e-07 1.98837e-07 1.05162e-08 -4.31125e-08 8.0249e-08 2.0039e-07 1.27358e-07 1.24836e-07 -6.62209e-08 -8.51772e-08 -1.22624e-08 1.02989e-07 6.95388e-08 1.14126e-07 -1.95966e-07 -7.58446e-08 -4.2511e-08 -4.02021e-08 -4.05707e-08 2.54341e-05 1.98352e-06 3.92208e-05 3.92208e-05 -6.54613e-06 -1.05318e-05 1.63014e-05 3.4852e-06 2.25254e-05 2.69349e-05 -2.56327e-07 -6.52679e-06 1.20657e-05 3.7015e-06 1.39554e-05 2.06285e-05 2.84767e-06 -4.46131e-06 9.96748e-06 3.28012e-06 9.53527e-06 1.71413e-05 3.90771e-06 -3.67046e-06 8.73848e-06 2.83277e-06 7.31123e-06 1.51101e-05 4.04147e-06 -3.32686e-06 8.0091e-06 2.43898e-06 6.16543e-06 1.37226e-05 3.90476e-06 -3.08012e-06 7.50646e-06 2.11492e-06 5.47777e-06 1.26316e-05 3.69491e-06 -2.82557e-06 7.07681e-06 1.87126e-06 4.98665e-06 1.16572e-05 3.47488e-06 -2.54069e-06 6.65352e-06 1.67161e-06 4.57768e-06 1.07226e-05 3.25129e-06 -2.25335e-06 6.22923e-06 1.50005e-06 4.2133e-06 9.82701e-06 3.0306e-06 -1.97468e-06 5.80664e-06 1.34976e-06 3.87415e-06 8.96976e-06 2.81853e-06 -1.70962e-06 5.38611e-06 1.2179e-06 3.549e-06 8.1509e-06 2.61465e-06 -1.45996e-06 4.96822e-06 1.10187e-06 3.23553e-06 7.36944e-06 2.42295e-06 -1.22735e-06 4.5556e-06 9.99814e-07 2.92839e-06 6.62574e-06 2.24235e-06 -1.00961e-06 4.15273e-06 9.08466e-07 2.62963e-06 5.91828e-06 2.07316e-06 -8.08369e-07 3.75901e-06 8.26471e-07 2.34107e-06 5.25072e-06 1.91348e-06 -6.23365e-07 3.37744e-06 7.53634e-07 2.06102e-06 4.61897e-06 1.76412e-06 -4.55708e-07 3.00755e-06 6.86152e-07 1.79179e-06 4.02708e-06 1.6212e-06 -3.03145e-07 2.65617e-06 6.24529e-07 1.53486e-06 3.47022e-06 1.48763e-06 -1.66804e-07 2.31992e-06 5.6931e-07 1.29209e-06 2.95404e-06 1.35927e-06 -4.71676e-08 2.00281e-06 5.15215e-07 1.06427e-06 2.47557e-06 1.23928e-06 5.7548e-08 1.70389e-06 4.6539e-07 8.51035e-07 2.03575e-06 1.12426e-06 1.46373e-07 1.42648e-06 4.17621e-07 6.55845e-07 1.63536e-06 1.0127e-06 2.19559e-07 1.16877e-06 3.70938e-07 4.80019e-07 1.27386e-06 9.05944e-07 2.73848e-07 9.32836e-07 3.2445e-07 3.21112e-07 9.53364e-07 8.01636e-07 3.12032e-07 7.22512e-07 2.78e-07 1.85372e-07 6.74782e-07 7.0179e-07 3.35975e-07 5.3586e-07 2.32714e-07 7.01596e-08 4.35704e-07 6.02411e-07 3.37682e-07 3.77651e-07 1.83044e-07 -2.09354e-08 2.43463e-07 5.04389e-07 3.20569e-07 2.48159e-07 1.29299e-07 -8.82428e-08 9.53441e-08 4.09083e-07 2.8774e-07 1.48546e-07 6.66672e-08 -1.31549e-07 -1.04386e-08 3.08811e-07 2.2961e-07 8.19176e-08 -2.31278e-08 -1.55356e-07 -7.63491e-08 1.86885e-07 1.3574e-07 6.66284e-08 -2.04833e-07 -1.4775e-07 -9.67023e-08 -1.49982e-08 -4.45871e-08 3.1781e-05 4.96861e-07 5.09643e-05 5.09643e-05 -1.18544e-05 -1.5653e-05 1.99024e-05 6.61573e-06 2.7987e-05 3.22954e-05 5.27866e-07 -4.76915e-06 1.44485e-05 7.15822e-06 1.72562e-05 2.29321e-05 5.13097e-06 -8.658e-07 1.21564e-05 6.22387e-06 1.2034e-05 1.82766e-05 6.52112e-06 2.39505e-07 1.09026e-05 5.2624e-06 9.36301e-06 1.58087e-05 6.59089e-06 3.07725e-07 1.00818e-05 4.56849e-06 7.91939e-06 1.43458e-05 6.34056e-06 2.36323e-07 9.42037e-06 4.01334e-06 6.97956e-06 1.32124e-05 5.98918e-06 1.82112e-07 8.81753e-06 3.56138e-06 6.273e-06 1.21926e-05 5.61254e-06 1.73032e-07 8.22932e-06 3.18924e-06 5.68755e-06 1.12227e-05 5.23714e-06 2.05085e-07 7.64433e-06 2.87511e-06 5.16911e-06 1.02803e-05 4.87128e-06 2.56541e-07 7.0647e-06 2.60021e-06 4.69193e-06 9.3707e-06 4.51878e-06 3.18241e-07 6.49539e-06 2.35547e-06 4.24248e-06 8.49389e-06 4.18296e-06 3.84287e-07 5.93947e-06 2.137e-06 3.81458e-06 7.65299e-06 3.86324e-06 4.49402e-07 5.39748e-06 1.93839e-06 3.40616e-06 6.8503e-06 3.5613e-06 5.09278e-07 4.87516e-06 1.75721e-06 3.01504e-06 6.08976e-06 3.27771e-06 5.6605e-07 4.37206e-06 1.59256e-06 2.64077e-06 5.36896e-06 3.00914e-06 6.16264e-07 3.89052e-06 1.44114e-06 2.2838e-06 4.68816e-06 2.75718e-06 6.60308e-07 3.43076e-06 1.30277e-06 1.94806e-06 4.05257e-06 2.51868e-06 6.97289e-07 2.99443e-06 1.17319e-06 1.62954e-06 3.45559e-06 2.29509e-06 7.26509e-07 2.58322e-06 1.05418e-06 1.32946e-06 2.90053e-06 2.0829e-06 7.4824e-07 2.19614e-06 9.43546e-07 1.05356e-06 2.38919e-06 1.88313e-06 7.61395e-07 1.83405e-06 8.41295e-07 7.96164e-07 1.91779e-06 1.69524e-06 7.65741e-07 1.49772e-06 7.43816e-07 5.64304e-07 1.49307e-06 1.51553e-06 7.59028e-07 1.19136e-06 6.54759e-07 3.56697e-07 1.11212e-06 1.34456e-06 7.43467e-07 9.12851e-07 5.68534e-07 1.75632e-07 7.75637e-07 1.18123e-06 7.16071e-07 6.6349e-07 4.86732e-07 2.17309e-08 4.85879e-07 1.02473e-06 6.75519e-07 4.51769e-07 4.06251e-07 -1.03493e-07 2.44899e-07 8.72649e-07 6.19601e-07 2.73654e-07 3.23014e-07 -1.9354e-07 5.89062e-08 7.22202e-07 5.47618e-07 1.37409e-07 2.36983e-07 -2.46587e-07 -7.24491e-08 5.73772e-07 4.53981e-07 4.8972e-08 1.43773e-07 -2.60576e-07 -1.41037e-07 4.24101e-07 3.40049e-07 1.57161e-08 3.7835e-08 -2.33335e-07 -1.49438e-07 2.75245e-07 2.08616e-07 3.51962e-08 -1.30987e-07 -1.82326e-07 -1.15794e-07 8.33534e-08 2.01787e-08 -1.85822e-05 -4.98543e-05 -3.20575e-05 -3.20575e-05 -3.20656e-05 -3.64223e-05 1.87514e-06 -3.29363e-05 -6.47395e-06 -1.67772e-06 -2.3339e-05 -2.94328e-05 -1.83509e-07 -2.60812e-05 -4.19592e-06 2.46486e-06 -2.15099e-05 -2.84767e-05 -9.879e-07 -2.16914e-05 -2.40392e-06 5.22266e-06 -2.0229e-05 -2.74428e-05 -1.23447e-06 -1.84224e-05 -1.15998e-06 6.73459e-06 -1.8767e-05 -2.58564e-05 -1.16986e-06 -1.58391e-05 -3.68862e-07 7.36199e-06 -1.70869e-05 -2.38498e-05 -1.01021e-06 -1.37383e-05 8.38966e-08 7.41263e-06 -1.53573e-05 -2.16774e-05 -8.37143e-07 -1.19716e-05 3.36207e-07 7.13583e-06 -1.36904e-05 -1.95111e-05 -6.75519e-07 -1.04556e-05 4.73267e-07 6.68985e-06 -1.21385e-05 -1.74444e-05 -5.32794e-07 -9.13994e-06 5.44203e-07 6.17164e-06 -1.07251e-05 -1.55264e-05 -4.10286e-07 -7.98568e-06 5.77692e-07 5.63695e-06 -9.44914e-06 -1.37673e-05 -3.06172e-07 -6.96556e-06 5.9302e-07 5.11641e-06 -8.30538e-06 -1.21717e-05 -2.1694e-07 -6.05963e-06 5.97133e-07 4.62572e-06 -7.28176e-06 -1.07252e-05 -1.4356e-07 -5.24928e-06 5.96629e-07 4.1674e-06 -6.36417e-06 -9.41852e-06 -7.85609e-08 -4.52291e-06 5.91157e-07 3.74485e-06 -5.54081e-06 -8.23493e-06 -2.74934e-08 -3.87116e-06 5.82775e-07 3.35381e-06 -4.80219e-06 -7.16449e-06 1.43579e-08 -3.2865e-06 5.71017e-07 2.99226e-06 -4.13604e-06 -6.19438e-06 4.6799e-08 -2.75937e-06 5.5534e-07 2.65827e-06 -3.53652e-06 -5.3157e-06 7.33417e-08 -2.28642e-06 5.3586e-07 2.34841e-06 -2.99529e-06 -4.51994e-06 9.40636e-08 -1.86396e-06 5.11257e-07 2.0604e-06 -2.50677e-06 -3.79912e-06 1.05007e-07 -1.48426e-06 4.8161e-07 1.79163e-06 -2.06862e-06 -3.14911e-06 1.10983e-07 -1.151e-06 4.47229e-07 1.54014e-06 -1.67143e-06 -2.56257e-06 1.11836e-07 -8.554e-07 4.07415e-07 1.30699e-06 -1.31481e-06 -2.03835e-06 1.09586e-07 -5.96493e-07 3.63061e-07 1.09213e-06 -1.00123e-06 -1.5719e-06 1.00971e-07 -3.79863e-07 3.12963e-07 8.87007e-07 -7.1869e-07 -1.15897e-06 8.73115e-08 -1.95733e-07 2.58403e-07 7.00665e-07 -4.72763e-07 -8.02354e-07 7.05865e-08 -4.65467e-08 1.97285e-07 5.27905e-07 -2.6436e-07 -5.02623e-07 4.87004e-08 6.35628e-08 1.33916e-07 3.72645e-07 -9.26278e-08 -2.54038e-07 2.71248e-08 1.35934e-07 7.0082e-08 2.31666e-07 3.95424e-08 -6.72298e-08 -1.26117e-09 1.66552e-07 9.93411e-09 1.16687e-07 1.21266e-07 5.03302e-08 -3.56425e-08 1.52388e-07 -4.54602e-08 2.53785e-08 1.43424e-07 9.15024e-08 -8.14325e-08 6.86074e-08 -9.29382e-08 -4.1114e-08 7.307e-08 2.87546e-08 -6.56612e-06 -2.12446e-05 -1.5814e-05 -1.5814e-05 -7.2734e-06 -1.18413e-05 -4.45155e-06 -2.86521e-05 -1.00675e-05 -5.45835e-06 -2.08824e-05 -2.74145e-05 1.59757e-06 -2.2022e-05 -1.71297e-06 5.41312e-06 -1.82389e-05 -2.5526e-05 1.03334e-06 -1.79519e-05 -3.52156e-07 7.58073e-06 -1.66188e-05 -2.41508e-05 5.69931e-07 -1.50021e-05 3.34306e-07 8.50344e-06 -1.50939e-05 -2.24969e-05 4.06057e-07 -1.27406e-05 7.26936e-07 8.71411e-06 -1.35324e-05 -2.05825e-05 3.71637e-07 -1.09802e-05 9.21427e-07 8.47787e-06 -1.20577e-05 -1.86254e-05 4.00081e-07 -9.54974e-06 1.02054e-06 8.01322e-06 -1.07059e-05 -1.67388e-05 4.52545e-07 -8.34838e-06 1.06439e-06 7.4472e-06 -9.48164e-06 -1.49723e-05 5.06057e-07 -7.31826e-06 1.07634e-06 6.85155e-06 -8.38186e-06 -1.33466e-05 5.53361e-07 -6.41769e-06 1.06803e-06 6.26237e-06 -7.39418e-06 -1.18615e-05 5.89178e-07 -5.62203e-06 1.04723e-06 5.69849e-06 -6.51138e-06 -1.05133e-05 6.12112e-07 -4.91358e-06 1.01728e-06 5.1657e-06 -5.71919e-06 -9.28923e-06 6.24064e-07 -4.27617e-06 9.84874e-07 4.67097e-06 -5.00914e-06 -8.1799e-06 6.24723e-07 -3.70391e-06 9.45137e-07 4.20717e-06 -4.36748e-06 -7.17002e-06 6.16807e-07 -3.18615e-06 9.04043e-07 3.77772e-06 -3.7912e-06 -6.25428e-06 5.99578e-07 -2.71915e-06 8.58873e-07 3.37686e-06 -3.27145e-06 -5.42224e-06 5.76489e-07 -2.29722e-06 8.08233e-07 3.00088e-06 -2.80206e-06 -4.66517e-06 5.48433e-07 -1.91884e-06 7.59183e-07 2.65384e-06 -2.37835e-06 -3.97772e-06 5.16612e-07 -1.57985e-06 7.05283e-07 2.32796e-06 -1.9946e-06 -3.35325e-06 4.81533e-07 -1.27595e-06 6.4855e-07 2.02419e-06 -1.65063e-06 -2.79096e-06 4.43154e-07 -1.0074e-06 5.90497e-07 1.74293e-06 -1.34213e-06 -2.28384e-06 4.03651e-07 -7.71349e-07 5.30039e-07 1.47999e-06 -1.06574e-06 -1.83055e-06 3.62401e-07 -5.67253e-07 4.67834e-07 1.23808e-06 -8.19874e-07 -1.42622e-06 3.21035e-07 -3.91117e-07 4.03534e-07 1.01336e-06 -6.02507e-07 -1.07131e-06 2.78621e-07 -2.44433e-07 3.37643e-07 8.08504e-07 -4.15137e-07 -7.66556e-07 2.33723e-07 -1.27882e-07 2.69424e-07 6.21968e-07 -2.54309e-07 -5.08308e-07 1.95073e-07 -3.97558e-08 2.03028e-07 4.57629e-07 -1.24778e-07 -2.99304e-07 1.52e-07 1.83548e-08 1.37836e-07 3.12575e-07 -2.44472e-08 -1.38088e-07 1.09469e-07 5.4366e-08 7.84251e-08 1.92124e-07 4.32289e-08 -2.37099e-08 5.87897e-08 8.31593e-08 2.20025e-08 8.89413e-08 9.30547e-08 5.08735e-08 -1.20296e-08 1.08344e-07 -4.30931e-08 -9.70128e-10 1.19947e-07 1.01786e-07 8.14597e-07 -1.44679e-05 -3.83934e-06 -3.83934e-06 -5.18661e-06 -9.8201e-06 1.74545e-07 -1.45567e-05 -3.2028e-06 1.5406e-06 -9.02824e-06 -1.58295e-05 1.60808e-07 -1.62052e-05 -2.00384e-06 5.113e-06 -1.30687e-05 -2.08968e-05 1.98205e-06 -1.33493e-05 6.78158e-07 9.07776e-06 -1.2047e-05 -2.00891e-05 1.75399e-06 -1.10901e-05 1.2153e-06 9.82825e-06 -1.08956e-05 -1.87357e-05 1.59749e-06 -9.35069e-06 1.44522e-06 9.8043e-06 -9.69553e-06 -1.70991e-05 1.51484e-06 -8.04616e-06 1.52714e-06 9.37578e-06 -8.61297e-06 -1.54617e-05 1.48426e-06 -7.01199e-06 1.56043e-06 8.78082e-06 -7.64556e-06 -1.39078e-05 1.47688e-06 -6.15672e-06 1.56427e-06 8.13243e-06 -6.77885e-06 -1.24643e-05 1.47331e-06 -5.424e-06 1.54503e-06 7.48034e-06 -6.00222e-06 -1.11376e-05 1.46163e-06 -4.78314e-06 1.50843e-06 6.84662e-06 -5.30363e-06 -9.92478e-06 1.43982e-06 -4.21274e-06 1.46097e-06 6.24584e-06 -4.67497e-06 -8.81801e-06 1.40323e-06 -3.70049e-06 1.40222e-06 5.67657e-06 -4.10853e-06 -7.80902e-06 1.35469e-06 -3.23588e-06 1.33664e-06 5.14183e-06 -3.59844e-06 -6.88903e-06 1.29539e-06 -2.81486e-06 1.2654e-06 4.6388e-06 -3.13633e-06 -6.04972e-06 1.22861e-06 -2.43166e-06 1.18903e-06 4.16732e-06 -2.71946e-06 -5.28231e-06 1.15453e-06 -2.0836e-06 1.11138e-06 3.72459e-06 -2.34299e-06 -4.58302e-06 1.07711e-06 -1.77062e-06 1.0321e-06 3.31074e-06 -2.00227e-06 -3.94662e-06 9.94691e-07 -1.48567e-06 9.50027e-07 2.92358e-06 -1.69619e-06 -3.36671e-06 9.11765e-07 -1.22983e-06 8.67682e-07 2.55986e-06 -1.41823e-06 -2.84079e-06 8.2911e-07 -1.00245e-06 7.84639e-07 2.22303e-06 -1.1692e-06 -2.36399e-06 7.49365e-07 -8.0086e-07 7.02955e-07 1.90898e-06 -9.47951e-07 -1.93572e-06 6.66517e-07 -6.23074e-07 6.21309e-07 1.61681e-06 -7.49249e-07 -1.55348e-06 5.8619e-07 -4.68824e-07 5.404e-07 1.3498e-06 -5.73986e-07 -1.21662e-06 5.08425e-07 -3.37178e-07 4.59608e-07 1.10556e-06 -4.19522e-07 -9.18886e-07 4.36169e-07 -2.27844e-07 3.80872e-07 8.82234e-07 -2.86731e-07 -6.61627e-07 3.66941e-07 -1.40785e-07 3.0559e-07 6.81651e-07 -1.76389e-07 -4.46996e-07 3.00623e-07 -7.87938e-08 2.2961e-07 5.00819e-07 -8.66712e-08 -2.70898e-07 2.38263e-07 -3.45559e-08 1.60459e-07 3.44861e-07 -2.03533e-08 -1.35818e-07 1.77145e-07 -6.98492e-09 9.64695e-08 2.12031e-07 2.4098e-08 -4.09588e-08 1.18821e-07 1.71907e-08 4.20259e-08 1.07063e-07 5.40167e-08 2.8871e-08 5.60734e-08 5.64614e-08 -7.97445e-09 1.71519e-08 8.76219e-08 9.86426e-08 6.58379e-06 -8.60428e-06 6.67611e-06 6.67611e-06 -4.02659e-06 -8.73198e-06 4.43488e-06 -8.75241e-06 3.49564e-06 8.38866e-06 -5.43438e-06 -1.25386e-05 2.92393e-06 -8.44981e-06 1.74208e-06 9.17403e-06 -6.33835e-06 -1.44887e-05 2.47158e-06 -8.5567e-06 1.44925e-06 1.00121e-05 -7.32239e-06 -1.57921e-05 2.86859e-06 -7.20752e-06 2.06583e-06 1.10189e-05 -6.72409e-06 -1.49472e-05 2.78939e-06 -6.04873e-06 2.17514e-06 1.08433e-05 -5.94537e-06 -1.36528e-05 2.68745e-06 -5.2002e-06 2.16653e-06 1.02547e-05 -5.25551e-06 -1.23463e-05 2.60693e-06 -4.54227e-06 2.13762e-06 9.54621e-06 -4.65491e-06 -1.11141e-05 2.53913e-06 -4.00655e-06 2.09482e-06 8.81652e-06 -4.12401e-06 -9.97452e-06 2.46952e-06 -3.5503e-06 2.0377e-06 8.10348e-06 -3.64636e-06 -8.92735e-06 2.39195e-06 -3.15043e-06 1.96497e-06 7.42167e-06 -3.21667e-06 -7.96704e-06 2.30242e-06 -2.79022e-06 1.87995e-06 6.77293e-06 -2.82672e-06 -7.08672e-06 2.19928e-06 -2.46259e-06 1.785e-06 6.16004e-06 -2.47353e-06 -6.28022e-06 2.08593e-06 -2.16158e-06 1.68216e-06 5.58099e-06 -2.15283e-06 -5.53951e-06 1.96214e-06 -1.88622e-06 1.5737e-06 5.03349e-06 -1.86336e-06 -4.86267e-06 1.82993e-06 -1.63468e-06 1.46024e-06 4.51695e-06 -1.60057e-06 -4.24118e-06 1.69582e-06 -1.40288e-06 1.34634e-06 4.03162e-06 -1.36384e-06 -3.67356e-06 1.55834e-06 -1.19316e-06 1.23059e-06 3.57457e-06 -1.15121e-06 -3.15515e-06 1.42147e-06 -1.0017e-06 1.11627e-06 3.14609e-06 -9.59379e-07 -2.68256e-06 1.28592e-06 -8.30294e-07 1.00334e-06 2.74573e-06 -7.87938e-07 -2.25574e-06 1.15177e-06 -6.76664e-07 8.91664e-07 2.37344e-06 -6.33455e-07 -1.86812e-06 1.02283e-06 -5.40284e-07 7.82699e-07 2.02726e-06 -4.94843e-07 -1.51883e-06 8.99735e-07 -4.19483e-07 6.79943e-07 1.71076e-06 -3.74916e-07 -1.20789e-06 7.82932e-07 -3.17154e-07 5.80098e-07 1.41759e-06 -2.7181e-07 -9.35164e-07 6.6834e-07 -2.29843e-07 4.84986e-07 1.15119e-06 -1.81356e-07 -6.97114e-07 5.63334e-07 -1.60362e-07 3.93367e-07 9.10833e-07 -1.05278e-07 -4.93911e-07 4.65855e-07 -1.03707e-07 3.05823e-07 6.95426e-07 -4.25304e-08 -3.21209e-07 3.73732e-07 -6.29613e-08 2.23556e-07 5.02681e-07 7.91624e-09 -1.83218e-07 2.89447e-07 -3.8126e-08 1.46839e-07 3.38148e-07 3.962e-08 -8.15101e-08 2.13933e-07 -3.2053e-08 7.66401e-08 1.9779e-07 4.8584e-08 -1.46101e-08 1.49438e-07 -3.51768e-08 2.83665e-08 9.15801e-08 4.16379e-08 2.34383e-08 1.02756e-07 -3.20918e-08 -1.84324e-09 1.62981e-08 3.19754e-08 5.63838e-08 1.20533e-05 -3.47461e-06 1.69247e-05 1.69247e-05 -3.56697e-06 -8.30761e-06 8.3703e-06 -4.04033e-06 9.97272e-06 1.49913e-05 -3.11752e-06 -1.03597e-05 5.91708e-06 -3.7736e-06 5.84261e-06 1.34573e-05 -2.61383e-06 -1.09771e-05 4.66224e-06 -3.57583e-06 3.86542e-06 1.2613e-05 -2.59115e-06 -1.12136e-05 4.16771e-06 -3.47513e-06 3.18493e-06 1.21827e-05 -2.7324e-06 -1.11346e-05 4.16557e-06 -2.92891e-06 3.11702e-06 1.18822e-05 -2.38013e-06 -1.02283e-05 4.02743e-06 -2.51768e-06 2.98877e-06 1.11494e-05 -2.05764e-06 -9.2588e-06 3.87391e-06 -2.20324e-06 2.86743e-06 1.03309e-05 -1.78651e-06 -8.33675e-06 3.7211e-06 -1.95211e-06 2.7493e-06 9.5175e-06 -1.55168e-06 -7.48149e-06 3.56243e-06 -1.74157e-06 2.62559e-06 8.73519e-06 -1.34568e-06 -6.69621e-06 3.39758e-06 -1.555e-06 2.49439e-06 7.99234e-06 -1.15713e-06 -5.97141e-06 3.22191e-06 -1.38538e-06 2.35376e-06 7.28814e-06 -9.8629e-07 -5.30338e-06 3.03817e-06 -1.22655e-06 2.20735e-06 6.62151e-06 -8.31031e-07 -4.68838e-06 2.84407e-06 -1.07985e-06 2.05388e-06 5.98906e-06 -6.90944e-07 -4.12341e-06 2.64418e-06 -9.40093e-07 1.8966e-06 5.39084e-06 -5.63411e-07 -3.60333e-06 2.44154e-06 -8.106e-07 1.73734e-06 4.82565e-06 -4.50236e-07 -3.12602e-06 2.23599e-06 -6.9077e-07 1.57894e-06 4.29223e-06 -3.48567e-07 -2.68879e-06 2.03498e-06 -5.80272e-07 1.42244e-06 3.7913e-06 -2.5819e-07 -2.28805e-06 1.83494e-06 -4.79728e-07 1.26924e-06 3.32063e-06 -1.7893e-07 -1.92475e-06 1.64087e-06 -3.88827e-07 1.11887e-06 2.8805e-06 -1.09644e-07 -1.59479e-06 1.45473e-06 -3.09102e-07 9.75483e-07 2.472e-06 -5.15138e-08 -1.29869e-06 1.27533e-06 -2.3741e-07 8.38811e-07 2.09392e-06 7.76102e-10 -1.03216e-06 1.1035e-06 -1.76854e-07 7.08814e-07 1.74712e-06 4.14827e-08 -7.98978e-07 9.43624e-07 -1.24079e-07 5.86384e-07 1.43036e-06 7.77266e-08 -5.91953e-07 7.94845e-07 -8.0346e-08 4.73539e-07 1.14541e-06 1.02251e-07 -4.1665e-07 6.57475e-07 -4.66243e-08 3.7152e-07 8.91664e-07 1.22896e-07 -2.6599e-07 5.30737e-07 -2.44084e-08 2.73809e-07 6.63335e-07 1.35313e-07 -1.46082e-07 4.15447e-07 -1.10012e-08 1.8479e-07 4.66476e-07 1.38961e-07 -5.23287e-08 3.10557e-07 -9.72068e-09 1.0198e-07 2.93328e-07 1.32713e-07 1.32713e-08 2.17968e-07 -2.96277e-08 3.20918e-08 1.51495e-07 1.07607e-07 4.11334e-08 1.50137e-07 -6.75597e-08 -1.6725e-08 4.96705e-08 5.34346e-08 3.48082e-08 1.24914e-07 -1.27494e-07 -2.01981e-08 -1.64922e-09 -2.29532e-08 2.32831e-09 1.80609e-05 5.02953e-07 2.76031e-05 2.76031e-05 -4.12496e-06 -8.75835e-06 1.21327e-05 5.30466e-08 1.62663e-05 2.12725e-05 -1.48988e-06 -8.59679e-06 8.86056e-06 1.74856e-07 9.95766e-06 1.74828e-05 2.46296e-07 -7.9584e-06 7.15714e-06 1.48041e-07 6.67277e-06 1.52461e-05 9.1223e-07 -7.53178e-06 6.24793e-06 2.60382e-08 5.08459e-06 1.38436e-05 9.54256e-07 -7.23457e-06 5.84052e-06 -6.16225e-08 4.4194e-06 1.28835e-05 9.12463e-07 -6.75607e-06 5.60004e-06 -5.97211e-08 4.08633e-06 1.19964e-05 9.07923e-07 -6.14085e-06 5.33613e-06 -4.99034e-08 3.82374e-06 1.1078e-05 8.94691e-07 -5.52889e-06 5.06511e-06 -4.69154e-08 3.58982e-06 1.01858e-05 8.7296e-07 -4.95209e-06 4.79088e-06 -4.62751e-08 3.36627e-06 9.33445e-06 8.47542e-07 -4.41513e-06 4.5123e-06 -4.57318e-08 3.14589e-06 8.52645e-06 8.22397e-07 -3.91761e-06 4.22941e-06 -4.19095e-08 2.92486e-06 7.76098e-06 7.97639e-07 -3.45561e-06 3.94206e-06 -3.34112e-08 2.70382e-06 7.03471e-06 7.74201e-07 -3.02829e-06 3.65172e-06 -2.17115e-08 2.48093e-06 6.34557e-06 7.49792e-07 -2.63399e-06 3.36083e-06 -6.88791e-09 2.25935e-06 5.69213e-06 7.25733e-07 -2.27002e-06 3.07251e-06 1.03222e-08 2.0401e-06 5.07404e-06 7.02489e-07 -1.93473e-06 2.78756e-06 2.81337e-08 1.82574e-06 4.49223e-06 6.75752e-07 -1.62853e-06 2.51057e-06 4.579e-08 1.61829e-06 3.94466e-06 6.50878e-07 -1.34739e-06 2.24103e-06 6.28255e-08 1.41743e-06 3.43192e-06 6.22628e-07 -1.09516e-06 1.98127e-06 7.59416e-08 1.2231e-06 2.95256e-06 5.93369e-07 -8.66693e-07 1.73366e-06 8.67294e-08 1.04095e-06 2.50918e-06 5.62519e-07 -6.61724e-07 1.49889e-06 9.72068e-08 8.70399e-07 2.10017e-06 5.31087e-07 -4.82212e-07 1.27956e-06 1.03842e-07 7.10366e-07 1.72722e-06 4.96511e-07 -3.25167e-07 1.07292e-06 1.0586e-07 5.63334e-07 1.3872e-06 4.61664e-07 -1.91969e-07 8.82622e-07 1.02756e-07 4.28602e-07 1.08344e-06 4.23092e-07 -8.12385e-08 7.1091e-07 9.79829e-08 3.08966e-07 8.13937e-07 3.83239e-07 7.99385e-09 5.57435e-07 8.69234e-08 2.05163e-07 5.80641e-07 3.43386e-07 7.30312e-08 4.20182e-07 7.15566e-08 1.11836e-07 3.82269e-07 3.01865e-07 1.17851e-07 3.01632e-07 4.67602e-08 3.11993e-08 2.15213e-07 2.55105e-07 1.38107e-07 1.98372e-07 8.73115e-09 -3.46142e-08 8.23056e-08 1.94452e-07 1.286e-07 1.23594e-07 -6.68224e-08 -8.08893e-08 -1.50758e-08 9.9962e-08 6.96552e-08 1.1106e-07 -1.90048e-07 -7.02372e-08 -3.99887e-08 -4.50333e-08 -4.23946e-08 2.51093e-05 2.48838e-06 3.92084e-05 3.92084e-05 -6.34147e-06 -1.06918e-05 1.57598e-05 3.60049e-06 2.22486e-05 2.70586e-05 -3.58501e-07 -6.95378e-06 1.16162e-05 3.73348e-06 1.38343e-05 2.08654e-05 2.64573e-06 -4.88215e-06 9.65805e-06 3.35668e-06 9.53915e-06 1.74025e-05 3.7998e-06 -3.91392e-06 8.54974e-06 2.88233e-06 7.29257e-06 1.52618e-05 3.98412e-06 -3.50261e-06 7.86898e-06 2.47006e-06 6.13645e-06 1.38292e-05 3.81481e-06 -3.22727e-06 7.38764e-06 2.11721e-06 5.47288e-06 1.26912e-05 3.55587e-06 -2.97071e-06 6.97467e-06 1.86567e-06 5.01378e-06 1.16934e-05 3.31174e-06 -2.67874e-06 6.55977e-06 1.66016e-06 4.62142e-06 1.07423e-05 3.07919e-06 -2.38164e-06 6.14494e-06 1.48457e-06 4.26344e-06 9.83349e-06 2.86234e-06 -2.09239e-06 5.72907e-06 1.33148e-06 3.9237e-06 8.96852e-06 2.65931e-06 -1.81843e-06 5.31607e-06 1.19675e-06 3.5944e-06 8.1455e-06 2.46956e-06 -1.55896e-06 4.90543e-06 1.07952e-06 3.27511e-06 7.36257e-06 2.29187e-06 -1.31639e-06 4.50085e-06 9.75444e-07 2.96238e-06 6.61736e-06 2.12516e-06 -1.08945e-06 4.10205e-06 8.83359e-07 2.65924e-06 5.91033e-06 1.96792e-06 -8.80643e-07 3.71489e-06 8.02334e-07 2.36556e-06 5.2421e-06 1.82112e-06 -6.88965e-07 3.33736e-06 7.30429e-07 2.08077e-06 4.61183e-06 1.68135e-06 -5.13062e-07 2.97519e-06 6.65275e-07 1.81069e-06 4.02044e-06 1.54902e-06 -3.55106e-07 2.62738e-06 6.07416e-07 1.55275e-06 3.46782e-06 1.42434e-06 -2.1108e-07 2.29497e-06 5.51188e-07 1.30932e-06 2.95225e-06 1.30416e-06 -8.50608e-08 1.98275e-06 5.01168e-07 1.07987e-06 2.47398e-06 1.18992e-06 2.53009e-08 1.68674e-06 4.53477e-07 8.67837e-07 2.03544e-06 1.07905e-06 1.18045e-07 1.41189e-06 4.06872e-07 6.7486e-07 1.63746e-06 9.73931e-07 1.94918e-07 1.15779e-06 3.63099e-07 4.97016e-07 1.27673e-06 8.71252e-07 2.55221e-07 9.26744e-07 3.18512e-07 3.4067e-07 9.56895e-07 7.71562e-07 2.97907e-07 7.19097e-07 2.73925e-07 2.02563e-07 6.76101e-07 6.75209e-07 3.22276e-07 5.34346e-07 2.30464e-07 8.8398e-08 4.4102e-07 5.82387e-07 3.31279e-07 3.79242e-07 1.82462e-07 -3.7835e-09 2.46995e-07 4.90574e-07 3.18784e-07 2.50215e-07 1.29027e-07 -7.59804e-08 9.5577e-08 3.99343e-07 2.84209e-07 1.51767e-07 6.80642e-08 -1.247e-07 -9.70128e-09 3.00934e-07 2.28911e-07 8.11415e-08 -2.2895e-08 -1.51301e-07 -7.93176e-08 1.8153e-07 1.34382e-07 5.81689e-08 -2.00021e-07 -1.41018e-07 -9.39278e-08 -1.88205e-08 -4.99228e-08 3.23138e-05 9.53247e-07 5.11206e-05 5.11206e-05 -1.1604e-05 -1.56572e-05 1.97223e-05 6.62205e-06 2.78856e-05 3.2503e-05 4.58327e-07 -5.05634e-06 1.42136e-05 7.11092e-06 1.733e-05 2.32392e-05 4.90403e-06 -1.17576e-06 1.19709e-05 6.29807e-06 1.22828e-05 1.86268e-05 6.3548e-06 1.24526e-07 1.0812e-05 5.3657e-06 9.62479e-06 1.60411e-05 6.54731e-06 4.06872e-07 1.00209e-05 4.60454e-06 8.11896e-06 1.4406e-05 6.2581e-06 3.58714e-07 9.37217e-06 4.00884e-06 7.15694e-06 1.31852e-05 5.84859e-06 2.70743e-07 8.77298e-06 3.53833e-06 6.44204e-06 1.21345e-05 5.43198e-06 2.23983e-07 8.1916e-06 3.15901e-06 5.84684e-06 1.11545e-05 5.03946e-06 2.2635e-07 7.61104e-06 2.84018e-06 5.31572e-06 1.02129e-05 4.67311e-06 2.61624e-07 7.03583e-06 2.56304e-06 4.82363e-06 9.30446e-06 4.32805e-06 3.10286e-07 6.47048e-06 2.31798e-06 4.35805e-06 8.43192e-06 4.00632e-06 3.67601e-07 5.9163e-06 2.09986e-06 3.91404e-06 7.5973e-06 3.70298e-06 4.27826e-07 5.37812e-06 1.90145e-06 3.49056e-06 6.8004e-06 3.41776e-06 4.87121e-07 4.85766e-06 1.72264e-06 3.08563e-06 6.04277e-06 3.14764e-06 5.40633e-07 4.35614e-06 1.55927e-06 2.70053e-06 5.32717e-06 2.89428e-06 5.90885e-07 3.87578e-06 1.40987e-06 2.33564e-06 4.65328e-06 2.65512e-06 6.36443e-07 3.4185e-06 1.27397e-06 1.9902e-06 4.01881e-06 2.42974e-06 6.73773e-07 2.98419e-06 1.14906e-06 1.66528e-06 3.42773e-06 2.21697e-06 7.04895e-07 2.57084e-06 1.03311e-06 1.36384e-06 2.87984e-06 2.0136e-06 7.26238e-07 2.18799e-06 9.26239e-07 1.07913e-06 2.36855e-06 1.82535e-06 7.43079e-07 1.82586e-06 8.25346e-07 8.22241e-07 1.90521e-06 1.64161e-06 7.49637e-07 1.49388e-06 7.33843e-07 5.88169e-07 1.4801e-06 1.46908e-06 7.44631e-07 1.1881e-06 6.44747e-07 3.76836e-07 1.10071e-06 1.30439e-06 7.30623e-07 9.13899e-07 5.61665e-07 1.93987e-07 7.66944e-07 1.14712e-06 7.06719e-07 6.68263e-07 4.81028e-07 3.81842e-08 4.77768e-07 9.97253e-07 6.69078e-07 4.53166e-07 4.03146e-07 -8.87861e-08 2.38651e-07 8.49017e-07 6.14634e-07 2.80056e-07 3.23402e-07 -1.8056e-07 5.32794e-08 7.06525e-07 5.44358e-07 1.45403e-07 2.3838e-07 -2.39913e-07 -7.81923e-08 5.64614e-07 4.55067e-07 5.78972e-08 1.42919e-07 -2.57064e-07 -1.47731e-07 4.19444e-07 3.42882e-07 2.04891e-08 3.81066e-08 -2.32365e-07 -1.55958e-07 2.70549e-07 2.07879e-07 2.97635e-08 -1.27746e-07 -1.80386e-07 -1.17754e-07 7.14402e-08 1.45907e-08 -1.75237e-05 -5.14271e-05 -3.24243e-05 -3.24243e-05 -3.20516e-05 -3.61575e-05 2.25314e-06 -3.24728e-05 -5.43921e-06 -8.82913e-07 -2.37149e-05 -2.93654e-05 -2.12283e-07 -2.55961e-05 -3.0761e-06 3.06227e-06 -2.20291e-05 -2.85252e-05 -1.1178e-06 -2.14145e-05 -1.503e-06 5.57711e-06 -2.07547e-05 -2.7529e-05 -1.41928e-06 -1.83145e-05 -5.13023e-07 6.88632e-06 -1.92802e-05 -2.59777e-05 -1.41901e-06 -1.58211e-05 7.95893e-08 7.38605e-06 -1.76152e-05 -2.40279e-05 -1.26802e-06 -1.37538e-05 4.06057e-07 7.37266e-06 -1.58678e-05 -2.18859e-05 -1.07007e-06 -1.20083e-05 5.60423e-07 7.05861e-06 -1.41516e-05 -1.9722e-05 -8.74201e-07 -1.0509e-05 6.19058e-07 6.59225e-06 -1.25403e-05 -1.76423e-05 -6.97153e-07 -9.20382e-06 6.31398e-07 6.06407e-06 -1.10635e-05 -1.57021e-05 -5.44921e-07 -8.05652e-06 6.21503e-07 5.52767e-06 -9.73166e-06 -1.39215e-05 -4.15758e-07 -7.04051e-06 6.06252e-07 5.01021e-06 -8.53782e-06 -1.2302e-05 -3.07317e-07 -6.13398e-06 5.89993e-07 4.52413e-06 -7.47309e-06 -1.08381e-05 -2.17522e-07 -5.32154e-06 5.75131e-07 4.07403e-06 -6.52067e-06 -9.51298e-06 -1.42686e-07 -4.59078e-06 5.62713e-07 3.65959e-06 -5.6689e-06 -8.31599e-06 -8.19176e-08 -3.93327e-06 5.49325e-07 3.27752e-06 -4.9059e-06 -7.23387e-06 -3.25381e-08 -3.34292e-06 5.352e-07 2.92552e-06 -4.22231e-06 -6.25538e-06 8.11027e-09 -2.80994e-06 5.19096e-07 2.59959e-06 -3.60742e-06 -5.36725e-06 3.95424e-08 -2.33126e-06 5.00043e-07 2.29544e-06 -3.05375e-06 -4.56381e-06 6.30583e-08 -1.90093e-06 4.79321e-07 2.01554e-06 -2.55479e-06 -3.83827e-06 7.79983e-08 -1.51875e-06 4.49324e-07 1.75178e-06 -2.10428e-06 -3.18144e-06 8.9989e-08 -1.17774e-06 4.17582e-07 1.50812e-06 -1.70157e-06 -2.58968e-06 9.22397e-08 -8.79091e-07 3.81299e-07 1.27859e-06 -1.34231e-06 -2.06247e-06 9.22009e-08 -6.19155e-07 3.38109e-07 1.06435e-06 -1.0191e-06 -1.59155e-06 8.59145e-08 -3.94842e-07 2.90767e-07 8.67023e-07 -7.37375e-07 -1.17806e-06 7.51267e-08 -2.072e-07 2.38108e-07 6.80991e-07 -4.90865e-07 -8.197e-07 5.64226e-08 -5.78196e-08 1.80056e-07 5.09977e-07 -2.83044e-07 -5.17272e-07 4.04737e-08 5.46376e-08 1.21964e-07 3.56735e-07 -1.06287e-07 -2.68337e-07 1.57937e-08 1.33063e-07 6.29419e-08 2.25186e-07 2.57666e-08 -7.99191e-08 -8.78936e-09 1.65737e-07 4.5402e-09 1.10168e-07 1.10595e-07 4.1017e-08 -4.44707e-08 1.51883e-07 -4.85646e-08 2.0916e-08 1.33218e-07 8.25385e-08 -8.78548e-08 7.29536e-08 -9.2298e-08 -4.16767e-08 6.47657e-08 2.18085e-08 -6.02152e-06 -2.25218e-05 -1.59618e-05 -1.59618e-05 -6.84932e-06 -1.15944e-05 -4.28866e-06 -2.84787e-05 -9.60052e-06 -4.80809e-06 -2.13295e-05 -2.75517e-05 1.60479e-06 -2.14332e-05 -8.56118e-07 5.93357e-06 -1.8714e-05 -2.55194e-05 9.27947e-07 -1.74496e-05 4.12227e-07 7.82202e-06 -1.70819e-05 -2.41109e-05 4.43814e-07 -1.46721e-05 9.36212e-07 8.56107e-06 -1.55562e-05 -2.25156e-05 2.19288e-07 -1.25549e-05 1.17044e-06 8.68163e-06 -1.4024e-05 -2.07114e-05 1.81414e-07 -1.08696e-05 1.25717e-06 8.43185e-06 -1.25182e-05 -1.88125e-05 2.26971e-07 -9.49412e-06 1.25756e-06 7.96681e-06 -1.11059e-05 -1.6942e-05 3.02137e-07 -8.33427e-06 1.22112e-06 7.40219e-06 -9.81463e-06 -1.51674e-05 3.81183e-07 -7.33259e-06 1.17137e-06 6.80645e-06 -8.65224e-06 -1.35232e-05 4.49286e-07 -6.45226e-06 1.11813e-06 6.21751e-06 -7.6123e-06 -1.20168e-05 5.03069e-07 -5.66817e-06 1.06574e-06 5.65356e-06 -6.68527e-06 -1.06464e-05 5.40284e-07 -4.9648e-06 1.01673e-06 5.12387e-06 -5.85808e-06 -9.40318e-06 5.64459e-07 -4.32918e-06 9.69507e-07 4.63023e-06 -5.11834e-06 -8.2755e-06 5.73578e-07 -3.75467e-06 9.22902e-07 4.17089e-06 -4.45681e-06 -7.25351e-06 5.72531e-07 -3.23456e-06 8.7684e-07 3.7443e-06 -3.86274e-06 -6.32613e-06 5.63411e-07 -2.76341e-06 8.29304e-07 3.34729e-06 -3.32831e-06 -5.48248e-06 5.4428e-07 -2.33867e-06 7.81496e-07 2.97732e-06 -2.84698e-06 -4.71583e-06 5.222e-07 -1.95438e-06 7.3202e-07 2.63215e-06 -2.41244e-06 -4.02203e-06 4.92786e-07 -1.61088e-06 6.79322e-07 2.31224e-06 -2.02491e-06 -3.39415e-06 4.61742e-07 -1.30405e-06 6.24917e-07 2.01107e-06 -1.67343e-06 -2.82336e-06 4.26585e-07 -1.03192e-06 5.68922e-07 1.73082e-06 -1.35781e-06 -2.31325e-06 3.88594e-07 -7.90499e-07 5.08036e-07 1.47164e-06 -1.07804e-06 -1.85564e-06 3.51147e-07 -5.83823e-07 4.47889e-07 1.23098e-06 -8.28508e-07 -1.44956e-06 3.08889e-07 -4.05184e-07 3.85878e-07 1.01048e-06 -6.09046e-07 -1.09273e-06 2.6826e-07 -2.54387e-07 3.20957e-07 8.06758e-07 -4.16631e-07 -7.83068e-07 2.26156e-07 -1.3543e-07 2.56075e-07 6.23715e-07 -2.58461e-07 -5.22899e-07 1.8673e-07 -4.5305e-08 1.94491e-07 4.5953e-07 -1.26349e-07 -3.10266e-07 1.468e-07 1.86265e-08 1.32946e-07 3.17115e-07 -2.82307e-08 -1.47343e-07 1.04036e-07 5.50256e-08 7.34581e-08 1.9259e-07 4.19095e-08 -3.36828e-08 5.26973e-08 8.66518e-08 1.93637e-08 9.50337e-08 9.08816e-08 4.68766e-08 -1.82772e-08 1.16687e-07 -4.24722e-08 1.5134e-09 1.2115e-07 9.10756e-08 9.00783e-07 -1.51675e-05 -3.85777e-06 -3.85777e-06 -5.03293e-06 -9.85972e-06 1.17269e-07 -1.45698e-05 -3.01665e-06 1.92815e-06 -9.16307e-06 -1.58923e-05 3.17038e-08 -1.59294e-05 -1.65985e-06 5.39802e-06 -1.35257e-05 -2.09636e-05 1.91127e-06 -1.30015e-05 1.19997e-06 9.19557e-06 -1.24944e-05 -2.00533e-05 1.69939e-06 -1.08435e-05 1.68251e-06 9.78735e-06 -1.13388e-05 -1.87347e-05 1.47665e-06 -9.22207e-06 1.8089e-06 9.69825e-06 -1.0182e-05 -1.72253e-05 1.38232e-06 -7.96799e-06 1.82046e-06 9.29037e-06 -9.05894e-06 -1.56437e-05 1.35686e-06 -6.97609e-06 1.77444e-06 8.71722e-06 -8.02563e-06 -1.41017e-05 1.36291e-06 -6.15501e-06 1.70999e-06 8.08128e-06 -7.09373e-06 -1.26496e-05 1.37347e-06 -5.44861e-06 1.63843e-06 7.43521e-06 -6.25728e-06 -1.13048e-05 1.37669e-06 -4.82476e-06 1.56373e-06 6.80638e-06 -5.50976e-06 -1.00701e-05 1.36637e-06 -4.26606e-06 1.48884e-06 6.20626e-06 -4.84226e-06 -8.94512e-06 1.34114e-06 -3.75781e-06 1.41181e-06 5.64036e-06 -4.24514e-06 -7.91857e-06 1.30203e-06 -3.29426e-06 1.33509e-06 5.10838e-06 -3.70789e-06 -6.98277e-06 1.25115e-06 -2.87119e-06 1.2567e-06 4.61047e-06 -3.22701e-06 -6.12954e-06 1.18988e-06 -2.48562e-06 1.177e-06 4.14116e-06 -2.79472e-06 -5.35235e-06 1.1205e-06 -2.13432e-06 1.09799e-06 3.70337e-06 -2.40372e-06 -4.64402e-06 1.04859e-06 -1.81486e-06 1.01553e-06 3.29238e-06 -2.05452e-06 -3.99958e-06 9.70943e-07 -1.52628e-06 9.35436e-07 2.90805e-06 -1.73769e-06 -3.41353e-06 8.91392e-07 -1.26377e-06 8.52548e-07 2.54876e-06 -1.45133e-06 -2.88017e-06 8.12501e-07 -1.03229e-06 7.72532e-07 2.21616e-06 -1.19605e-06 -2.4e-06 7.33184e-07 -8.25889e-07 6.92594e-07 1.90704e-06 -9.68459e-07 -1.96757e-06 6.54448e-07 -6.44786e-07 6.11336e-07 1.61775e-06 -7.64189e-07 -1.57935e-06 5.77226e-07 -4.87489e-07 5.32173e-07 1.3522e-06 -5.84114e-07 -1.23746e-06 5.02216e-07 -3.51361e-07 4.527e-07 1.10913e-06 -4.28214e-07 -9.38094e-07 4.29805e-07 -2.38748e-07 3.78699e-07 8.905e-07 -2.91252e-07 -6.78895e-07 3.62207e-07 -1.481e-07 3.0105e-07 6.89838e-07 -1.77844e-07 -4.59491e-07 2.96005e-07 -8.0346e-08 2.30464e-07 5.12693e-07 -8.79324e-08 -2.83277e-07 2.35314e-07 -3.38187e-08 1.61429e-07 3.57046e-07 -1.981e-08 -1.44006e-07 1.76253e-07 -4.21035e-09 9.63919e-08 2.20685e-07 2.65039e-08 -4.2802e-08 1.15523e-07 2.2507e-08 4.50527e-08 1.14397e-07 5.59182e-08 2.56502e-08 4.88168e-08 6.69388e-08 -5.39391e-09 2.49129e-08 9.12308e-08 8.81264e-08 6.22601e-06 -8.89817e-06 6.69136e-06 6.69136e-06 -4.08893e-06 -9.01196e-06 4.1518e-06 -8.89153e-06 3.40422e-06 8.52432e-06 -5.64927e-06 -1.27533e-05 2.72059e-06 -8.41867e-06 1.80452e-06 9.24865e-06 -6.65523e-06 -1.45647e-05 2.33921e-06 -8.47674e-06 1.63238e-06 9.95797e-06 -7.76333e-06 -1.58214e-05 2.83304e-06 -7.15333e-06 2.34635e-06 1.08764e-05 -7.157e-06 -1.49723e-05 2.70604e-06 -6.056e-06 2.41744e-06 1.06605e-05 -6.42504e-06 -1.37997e-05 2.59113e-06 -5.2104e-06 2.38213e-06 1.01232e-05 -5.69376e-06 -1.25307e-05 2.50887e-06 -4.56577e-06 2.30669e-06 9.44811e-06 -5.03035e-06 -1.13001e-05 2.44499e-06 -4.04561e-06 2.21666e-06 8.73615e-06 -4.437e-06 -1.0147e-05 2.3845e-06 -3.60311e-06 2.12035e-06 8.03382e-06 -3.90742e-06 -9.08018e-06 2.31632e-06 -3.21233e-06 2.0212e-06 7.35892e-06 -3.43309e-06 -8.10229e-06 2.23428e-06 -2.85683e-06 1.91468e-06 6.71705e-06 -3.00745e-06 -7.20525e-06 2.14014e-06 -2.53066e-06 1.80506e-06 6.10979e-06 -2.62435e-06 -6.38362e-06 2.03261e-06 -2.22926e-06 1.69206e-06 5.53664e-06 -2.28089e-06 -5.63155e-06 1.91542e-06 -1.95054e-06 1.577e-06 4.99511e-06 -1.97093e-06 -4.94272e-06 1.79124e-06 -1.69382e-06 1.46113e-06 4.48579e-06 -1.69258e-06 -4.31261e-06 1.66245e-06 -1.45556e-06 1.34429e-06 4.00523e-06 -1.44213e-06 -3.73542e-06 1.52861e-06 -1.24159e-06 1.22849e-06 3.55303e-06 -1.21557e-06 -3.21143e-06 1.39563e-06 -1.04423e-06 1.11161e-06 3.13103e-06 -1.01406e-06 -2.73165e-06 1.26443e-06 -8.66848e-07 1.00121e-06 2.73626e-06 -8.31982e-07 -2.2967e-06 1.13474e-06 -7.0732e-07 8.90538e-07 2.36789e-06 -6.70281e-07 -1.90485e-06 1.00831e-06 -5.65546e-07 7.83359e-07 2.02687e-06 -5.27032e-07 -1.55201e-06 8.87706e-07 -4.42786e-07 6.82776e-07 1.71391e-06 -4.01148e-07 -1.23775e-06 7.72765e-07 -3.35102e-07 5.8425e-07 1.42496e-06 -2.91019e-07 -9.58991e-07 6.62132e-07 -2.44278e-07 4.89837e-07 1.16047e-06 -1.95403e-07 -7.17177e-07 5.58173e-07 -1.68337e-07 3.98684e-07 9.22087e-07 -1.17579e-07 -5.12092e-07 4.62518e-07 -1.09721e-07 3.13856e-07 7.09241e-07 -4.88168e-08 -3.36188e-07 3.70201e-07 -6.4009e-08 2.32287e-07 5.20144e-07 1.47459e-09 -1.95287e-07 2.89603e-07 -3.68843e-08 1.57083e-07 3.54058e-07 3.69813e-08 -8.66906e-08 2.14359e-07 -2.92979e-08 8.54877e-08 2.09276e-07 5.05242e-08 -1.55414e-08 1.4874e-07 -2.97635e-08 3.26739e-08 9.87978e-08 4.07066e-08 2.20025e-08 9.89142e-08 -2.46995e-08 6.63567e-09 2.54173e-08 2.94919e-08 5.05242e-08 1.11705e-05 -3.45234e-06 1.69042e-05 1.69042e-05 -3.79592e-06 -8.86487e-06 7.81752e-06 -4.29004e-06 9.57415e-06 1.49346e-05 -3.40043e-06 -1.07952e-05 5.57909e-06 -3.97818e-06 5.58926e-06 1.33689e-05 -2.9636e-06 -1.1251e-05 4.4466e-06 -3.70624e-06 3.78431e-06 1.24628e-05 -2.96952e-06 -1.13649e-05 4.04361e-06 -3.59873e-06 3.19191e-06 1.1963e-05 -3.13968e-06 -1.12565e-05 4.04454e-06 -3.06735e-06 3.17441e-06 1.16463e-05 -2.83308e-06 -1.04428e-05 3.90643e-06 -2.61622e-06 3.06514e-06 1.09794e-05 -2.4727e-06 -9.48469e-06 3.7573e-06 -2.28514e-06 2.93491e-06 1.01993e-05 -2.14905e-06 -8.54677e-06 3.60934e-06 -2.03176e-06 2.80107e-06 9.4055e-06 -1.8647e-06 -7.67063e-06 3.46091e-06 -1.82138e-06 2.66219e-06 8.63662e-06 -1.61127e-06 -6.86092e-06 3.30464e-06 -1.6342e-06 2.51915e-06 7.90573e-06 -1.3853e-06 -6.11698e-06 3.13945e-06 -1.46427e-06 2.36932e-06 7.2117e-06 -1.18342e-06 -5.43289e-06 2.96347e-06 -1.30389e-06 2.21441e-06 6.55286e-06 -1.00086e-06 -4.80382e-06 2.77891e-06 -1.15232e-06 2.05667e-06 5.93062e-06 -8.37977e-07 -4.22621e-06 2.58648e-06 -1.00977e-06 1.89586e-06 5.34024e-06 -6.92632e-07 -3.69461e-06 2.39094e-06 -8.7329e-07 1.73692e-06 4.78277e-06 -5.60191e-07 -3.20691e-06 2.19338e-06 -7.47134e-07 1.5784e-06 4.25894e-06 -4.42572e-07 -2.7605e-06 1.99776e-06 -6.30447e-07 1.42062e-06 3.76429e-06 -3.41116e-07 -2.35209e-06 1.8037e-06 -5.24509e-07 1.26986e-06 3.29999e-06 -2.48954e-07 -1.98083e-06 1.61499e-06 -4.26779e-07 1.12232e-06 2.86824e-06 -1.70083e-07 -1.64307e-06 1.4328e-06 -3.40631e-07 9.81381e-07 2.4644e-06 -1.01437e-07 -1.34058e-06 1.25701e-06 -2.63409e-07 8.46883e-07 2.09299e-06 -4.21812e-08 -1.06916e-06 1.08992e-06 -1.95287e-07 7.19757e-07 1.75147e-06 6.8685e-09 -8.30837e-07 9.32487e-07 -1.39388e-07 5.98414e-07 1.4392e-06 4.71482e-08 -6.19989e-07 7.86851e-07 -9.20457e-08 4.89177e-07 1.15825e-06 7.88908e-08 -4.37896e-07 6.52197e-07 -5.68495e-08 3.858e-07 9.03655e-07 1.01669e-07 -2.85625e-07 5.28021e-07 -2.67949e-08 2.92785e-07 6.80719e-07 1.21305e-07 -1.59567e-07 4.15215e-07 -8.88637e-09 2.03572e-07 4.84792e-07 1.28678e-07 -6.2321e-08 3.1405e-07 -5.56853e-09 1.20296e-07 3.11372e-07 1.26737e-07 1.09042e-08 2.25264e-07 -2.45442e-08 4.70318e-08 1.62943e-07 1.04192e-07 4.40826e-08 1.53164e-07 -6.37568e-08 -7.23715e-09 5.28914e-08 5.22317e-08 3.58947e-08 1.20063e-07 -1.18996e-07 -9.19681e-09 7.25656e-09 -2.67561e-08 -5.85957e-09 1.66923e-05 1.00633e-06 2.75767e-05 2.75767e-05 -4.35296e-06 -9.54716e-06 1.13516e-05 -1.51185e-07 1.56004e-05 2.12059e-05 -1.69668e-06 -9.24345e-06 8.41186e-06 -1.21208e-07 9.43554e-06 1.74265e-05 -1.72489e-08 -8.43736e-06 6.868e-06 -7.55147e-08 6.3704e-06 1.5176e-05 6.21658e-07 -7.87034e-06 6.06404e-06 -1.32519e-07 4.91979e-06 1.37376e-05 6.94379e-07 -7.45376e-06 5.66031e-06 -2.20161e-07 4.3029e-06 1.27299e-05 5.87781e-07 -7.02599e-06 5.45076e-06 -1.62128e-07 4.04151e-06 1.18966e-05 6.02799e-07 -6.38746e-06 5.20089e-06 -1.2732e-07 3.80686e-06 1.0998e-05 6.18165e-07 -5.74649e-06 4.94164e-06 -1.13175e-07 3.58532e-06 1.01153e-05 6.24219e-07 -5.14284e-06 4.67726e-06 -1.09586e-07 3.36611e-06 9.26841e-06 6.26625e-07 -4.58279e-06 4.40935e-06 -1.0586e-07 3.14756e-06 8.46712e-06 6.25965e-07 -4.06532e-06 4.13573e-06 -1.01184e-07 2.92625e-06 7.70662e-06 6.23637e-07 -3.58905e-06 3.85913e-06 -9.17741e-08 2.70289e-06 6.98705e-06 6.19446e-07 -3.14711e-06 3.57965e-06 -7.73968e-08 2.48069e-06 6.30416e-06 6.13625e-07 -2.73914e-06 3.29704e-06 -5.88285e-08 2.26059e-06 5.6581e-06 6.06097e-07 -2.36463e-06 3.01605e-06 -3.83006e-08 2.0408e-06 5.04614e-06 5.94921e-07 -2.0193e-06 2.73949e-06 -1.59877e-08 1.82854e-06 4.46918e-06 5.82193e-07 -1.70351e-06 2.46812e-06 4.42378e-09 1.62159e-06 3.92704e-06 5.68068e-07 -1.4154e-06 2.20463e-06 2.7086e-08 1.42236e-06 3.42036e-06 5.50256e-07 -1.15356e-06 1.95205e-06 4.53632e-08 1.23396e-06 2.94814e-06 5.29651e-07 -9.17159e-07 1.7103e-06 6.33299e-08 1.05395e-06 2.50797e-06 5.08231e-07 -7.0732e-07 1.48018e-06 7.66013e-08 8.83709e-07 2.10409e-06 4.81882e-07 -5.19814e-07 1.26412e-06 8.65354e-08 7.27984e-07 1.73265e-06 4.5305e-07 -3.57589e-07 1.0626e-06 9.28606e-08 5.8359e-07 1.39605e-06 4.24256e-07 -2.17968e-07 8.77151e-07 9.42964e-08 4.53244e-07 1.09648e-06 3.9003e-07 -1.0328e-07 7.07262e-07 9.19681e-08 3.35005e-07 8.28838e-07 3.57123e-07 -8.69234e-09 5.53904e-07 8.45175e-08 2.2829e-07 5.943e-07 3.18939e-07 6.00703e-08 4.21307e-07 7.24103e-08 1.39116e-07 3.98024e-07 2.83471e-07 1.10478e-07 3.04931e-07 5.06407e-08 5.79748e-08 2.30968e-07 2.44045e-07 1.36361e-07 2.05706e-07 1.23012e-08 -1.52892e-08 9.23562e-08 1.90339e-07 1.32054e-07 1.24293e-07 -6.46299e-08 -6.88209e-08 -1.05356e-08 9.56158e-08 7.25267e-08 1.03144e-07 -1.85566e-07 -5.54913e-08 -3.23635e-08 -5.64226e-08 -4.69736e-08 2.36152e-05 3.56906e-06 3.92678e-05 3.92678e-05 -6.43738e-06 -1.15066e-05 1.50134e-05 3.52657e-06 2.14949e-05 2.70988e-05 -4.00643e-07 -7.6266e-06 1.12596e-05 3.43037e-06 1.32654e-05 2.09669e-05 2.53005e-06 -5.39696e-06 9.45281e-06 3.11981e-06 9.24202e-06 1.75261e-05 3.64279e-06 -4.27817e-06 8.43025e-06 2.74247e-06 7.16967e-06 1.53603e-05 3.85408e-06 -3.71631e-06 7.77173e-06 2.37064e-06 6.07847e-06 1.38621e-05 3.66192e-06 -3.40016e-06 7.30836e-06 2.05974e-06 5.4749e-06 1.27139e-05 3.38683e-06 -3.11141e-06 6.90587e-06 1.82508e-06 5.05258e-06 1.17005e-05 3.13662e-06 -2.79467e-06 6.49632e-06 1.62768e-06 4.67858e-06 1.07352e-05 2.90798e-06 -2.48184e-06 6.08317e-06 1.45519e-06 4.32576e-06 9.81936e-06 2.69921e-06 -2.18151e-06 5.67207e-06 1.30257e-06 3.9854e-06 8.95121e-06 2.50642e-06 -1.89741e-06 5.2629e-06 1.16644e-06 3.65238e-06 8.12525e-06 2.32679e-06 -1.6323e-06 4.85871e-06 1.04762e-06 3.32734e-06 7.34173e-06 2.16241e-06 -1.38249e-06 4.45847e-06 9.43119e-07 3.00988e-06 6.5985e-06 2.00766e-06 -1.15123e-06 4.06581e-06 8.54333e-07 2.7027e-06 5.89566e-06 1.86218e-06 -9.36911e-07 3.68311e-06 7.73463e-07 2.40541e-06 5.23054e-06 1.72528e-06 -7.38772e-07 3.30973e-06 7.02761e-07 2.1188e-06 4.60236e-06 1.5947e-06 -5.58871e-07 2.9509e-06 6.40634e-07 1.84487e-06 4.01272e-06 1.4718e-06 -3.95385e-07 2.60708e-06 5.83551e-07 1.58717e-06 3.46444e-06 1.35356e-06 -2.4748e-07 2.28023e-06 5.33299e-07 1.34328e-06 2.95121e-06 1.24172e-06 -1.1723e-07 1.96816e-06 4.84171e-07 1.11312e-06 2.4765e-06 1.13307e-06 -2.65815e-09 1.67576e-06 4.39468e-07 9.01986e-07 2.04037e-06 1.03024e-06 9.46845e-08 1.40595e-06 3.95735e-07 7.07262e-07 1.64425e-06 9.27636e-07 1.75593e-07 1.15476e-06 3.54174e-07 5.31979e-07 1.28468e-06 8.30119e-07 2.41019e-07 9.24997e-07 3.14515e-07 3.76138e-07 9.65355e-07 7.3621e-07 2.86343e-07 7.18632e-07 2.73033e-07 2.37992e-07 6.87704e-07 6.43816e-07 3.16184e-07 5.36597e-07 2.28058e-07 1.23284e-07 4.50721e-07 5.5274e-07 3.25808e-07 3.82696e-07 1.85333e-07 2.87934e-08 2.55532e-07 4.66981e-07 3.18047e-07 2.55609e-07 1.33761e-07 -4.59452e-08 1.02795e-07 3.80368e-07 2.88982e-07 1.59179e-07 7.08193e-08 -9.82739e-08 -6.96552e-09 2.91698e-07 2.36944e-07 8.23056e-08 -1.88011e-08 -1.37292e-07 -8.25385e-08 1.74196e-07 1.38767e-07 4.95929e-08 -1.91038e-07 -1.26873e-07 -9.14248e-08 -3.25381e-08 -5.65196e-08 3.11222e-05 2.16432e-06 5.11412e-05 5.11412e-05 -1.16987e-05 -1.63406e-05 1.93107e-05 6.38398e-06 2.72452e-05 3.25427e-05 3.83356e-07 -5.60474e-06 1.41375e-05 6.59062e-06 1.69314e-05 2.33389e-05 4.71051e-06 -1.57432e-06 1.19889e-05 5.89023e-06 1.22137e-05 1.87639e-05 6.10078e-06 -1.143e-07 1.08724e-05 5.11036e-06 9.75685e-06 1.61588e-05 6.31658e-06 3.44007e-07 1.00937e-05 4.43232e-06 8.32645e-06 1.44453e-05 6.04657e-06 4.02681e-07 9.44186e-06 3.88393e-06 7.3916e-06 1.31602e-05 5.62822e-06 3.54679e-07 8.83476e-06 3.43495e-06 6.68333e-06 1.20671e-05 5.20016e-06 3.11799e-07 8.24349e-06 3.07146e-06 6.0834e-06 1.10684e-05 4.80846e-06 3.07647e-07 7.65675e-06 2.76366e-06 5.5364e-06 1.01199e-05 4.44963e-06 3.32016e-07 7.07448e-06 2.49303e-06 5.02526e-06 9.21187e-06 4.1178e-06 3.71016e-07 6.50397e-06 2.2538e-06 4.53973e-06 8.3431e-06 3.81167e-06 4.19444e-07 5.94541e-06 2.03855e-06 4.07632e-06 7.51395e-06 3.52544e-06 4.70318e-07 5.40357e-06 1.84526e-06 3.63247e-06 6.72345e-06 3.25668e-06 5.21114e-07 4.87831e-06 1.67099e-06 3.21202e-06 5.97533e-06 3.0032e-06 5.70008e-07 4.37485e-06 1.51282e-06 2.81263e-06 5.2669e-06 2.76517e-06 6.14983e-07 3.89308e-06 1.36974e-06 2.43393e-06 4.59969e-06 2.54007e-06 6.54875e-07 3.43189e-06 1.23711e-06 2.07697e-06 3.97325e-06 2.32644e-06 6.90149e-07 2.99622e-06 1.11747e-06 1.74545e-06 3.38943e-06 2.12411e-06 7.19059e-07 2.58562e-06 1.00691e-06 1.4335e-06 2.84344e-06 1.93346e-06 7.39393e-07 2.19559e-06 9.04275e-07 1.1444e-06 2.34134e-06 1.75135e-06 7.5313e-07 1.83637e-06 8.10755e-07 8.81846e-07 1.8815e-06 1.57851e-06 7.56001e-07 1.50222e-06 7.2162e-07 6.39431e-07 1.46241e-06 1.41584e-06 7.55458e-07 1.19625e-06 6.38616e-07 4.27749e-07 1.08802e-06 1.25822e-06 7.39819e-07 9.19875e-07 5.58328e-07 2.36207e-07 7.54177e-07 1.10505e-06 7.14169e-07 6.73501e-07 4.81339e-07 7.81147e-08 4.68416e-07 9.6062e-07 6.76567e-07 4.62634e-07 4.07492e-07 -5.36093e-08 2.2992e-07 8.2003e-07 6.27129e-07 2.88244e-07 3.28679e-07 -1.4874e-07 4.37334e-08 6.82233e-07 5.58444e-07 1.51534e-07 2.4455e-07 -2.10265e-07 -8.67682e-08 5.45949e-07 4.68261e-07 6.57747e-08 1.49555e-07 -2.37798e-07 -1.60343e-07 4.06949e-07 3.56619e-07 2.39039e-08 4.27244e-08 -2.17794e-07 -1.6756e-07 2.62361e-07 2.18085e-07 2.38651e-08 -1.21053e-07 -1.68608e-07 -1.2439e-07 5.53749e-08 1.38534e-08 -1.50268e-05 -5.3705e-05 -3.23105e-05 -3.23105e-05 -2.9959e-05 -3.48488e-05 2.38073e-06 -3.01973e-05 -3.92477e-06 1.48204e-06 -2.39155e-05 -2.94278e-05 -5.96105e-07 -2.39163e-05 -1.30692e-06 4.72052e-06 -2.27695e-05 -2.8914e-05 -1.46218e-06 -2.03826e-05 -5.11645e-08 6.65721e-06 -2.15408e-05 -2.78916e-05 -1.65405e-06 -1.7769e-05 5.41098e-07 7.48128e-06 -1.9961e-05 -2.62278e-05 -1.57234e-06 -1.56014e-05 7.80177e-07 7.62175e-06 -1.81706e-05 -2.41752e-05 -1.37741e-06 -1.37311e-05 8.36832e-07 7.36917e-06 -1.63223e-05 -2.19661e-05 -1.14923e-06 -1.2099e-05 8.06448e-07 6.91278e-06 -1.45261e-05 -1.97603e-05 -9.31342e-07 -1.06641e-05 7.41992e-07 6.3678e-06 -1.28488e-05 -1.76572e-05 -7.38151e-07 -9.39206e-06 6.73773e-07 5.80602e-06 -1.13208e-05 -1.57029e-05 -5.74859e-07 -8.25734e-06 6.16885e-07 5.26205e-06 -9.94784e-06 -1.39169e-05 -4.38537e-07 -7.2402e-06 5.7482e-07 4.75514e-06 -8.72275e-06 -1.22974e-05 -3.27011e-07 -6.32572e-06 5.45367e-07 4.28816e-06 -7.63273e-06 -1.08341e-05 -2.33704e-07 -5.50033e-06 5.25382e-07 3.85936e-06 -6.66006e-06 -9.51105e-06 -1.57762e-07 -4.75648e-06 5.12887e-07 3.46786e-06 -5.79075e-06 -8.31623e-06 -9.60815e-08 -4.08402e-06 5.00896e-07 3.1072e-06 -5.01354e-06 -7.23593e-06 -4.44707e-08 -3.47585e-06 4.89837e-07 2.77453e-06 -4.31651e-06 -6.25864e-06 -2.46412e-09 -2.93093e-06 4.75634e-07 2.46521e-06 -3.6891e-06 -5.37098e-06 2.96859e-08 -2.43834e-06 4.6182e-07 2.17937e-06 -3.12356e-06 -4.56643e-06 5.35899e-08 -1.99718e-06 4.41175e-07 1.91045e-06 -2.61486e-06 -3.8405e-06 7.00044e-08 -1.60513e-06 4.15447e-07 1.66032e-06 -2.15832e-06 -3.18452e-06 8.06758e-08 -1.25148e-06 3.84791e-07 1.42461e-06 -1.74666e-06 -2.59404e-06 8.69234e-08 -9.45254e-07 3.49673e-07 1.20649e-06 -1.38071e-06 -2.06331e-06 8.46727e-08 -6.7647e-07 3.09742e-07 9.98572e-07 -1.05298e-06 -1.59402e-06 7.95505e-08 -4.46181e-07 2.6337e-07 8.08349e-07 -7.64286e-07 -1.17946e-06 6.6512e-08 -2.48954e-07 2.12186e-07 6.2969e-07 -5.12344e-07 -8.20146e-07 5.02526e-08 -9.48785e-08 1.57937e-07 4.66981e-07 -2.99381e-07 -5.16806e-07 3.34112e-08 3.03844e-08 1.04696e-07 3.22664e-07 -1.25418e-07 -2.68396e-07 1.13699e-08 1.09624e-07 5.05631e-08 1.93754e-07 5.97599e-09 -8.06952e-08 -1.68996e-08 1.4874e-07 3.10441e-10 8.69622e-08 8.97174e-08 3.86111e-08 -4.71094e-08 1.442e-07 -4.579e-08 5.27749e-09 1.16377e-07 8.3819e-08 -9.50531e-08 6.73269e-08 -8.89025e-08 -5.64226e-08 4.92437e-08 1.95578e-08 -4.68777e-06 -2.43374e-05 -1.55135e-05 -1.55135e-05 -5.70672e-06 -1.13034e-05 -3.90038e-06 -2.69968e-05 -8.49293e-06 -2.83535e-06 -2.10791e-05 -2.75707e-05 1.42333e-06 -1.95288e-05 3.16262e-07 7.41212e-06 -1.88089e-05 -2.55612e-05 6.18437e-07 -1.59444e-05 1.40525e-06 8.77411e-06 -1.72771e-05 -2.41214e-05 1.86808e-07 -1.36269e-05 1.67359e-06 9.09875e-06 -1.57483e-05 -2.24868e-05 3.10053e-08 -1.18988e-05 1.6685e-06 8.93065e-06 -1.4198e-05 -2.06799e-05 3.3256e-08 -1.05004e-05 1.56606e-06 8.50472e-06 -1.26807e-05 -1.8805e-05 1.13272e-07 -9.3134e-06 1.43528e-06 7.9476e-06 -1.12495e-05 -1.69559e-05 2.15601e-07 -8.27534e-06 1.30824e-06 7.33742e-06 -9.93828e-06 -1.51977e-05 3.13895e-07 -7.35037e-06 1.1976e-06 6.72136e-06 -8.75725e-06 -1.35628e-05 3.96433e-07 -6.51206e-06 1.10886e-06 6.12845e-06 -7.70142e-06 -1.20624e-05 4.5922e-07 -5.7488e-06 1.03672e-06 5.56962e-06 -6.76084e-06 -1.06944e-05 5.02255e-07 -5.0533e-06 9.76725e-07 5.04723e-06 -5.92449e-06 -9.45324e-06 5.30039e-07 -4.41777e-06 9.25929e-07 4.56301e-06 -5.17544e-06 -8.32443e-06 5.42883e-07 -3.83849e-06 8.79751e-07 4.11381e-06 -4.50739e-06 -7.3007e-06 5.44863e-07 -3.31295e-06 8.34892e-07 3.69436e-06 -3.90783e-06 -6.37036e-06 5.38615e-07 -2.8353e-06 7.91391e-07 3.30495e-06 -3.36722e-06 -5.52331e-06 5.23481e-07 -2.4037e-06 7.46688e-07 2.94162e-06 -2.87926e-06 -4.75547e-06 5.02061e-07 -2.01239e-06 6.97599e-07 2.60309e-06 -2.44185e-06 -4.05686e-06 4.77807e-07 -1.66239e-06 6.50412e-07 2.28702e-06 -2.0473e-06 -3.42496e-06 4.47074e-07 -1.349e-06 5.96823e-07 1.99016e-06 -1.69192e-06 -2.85344e-06 4.12809e-07 -1.07209e-06 5.43077e-07 1.71573e-06 -1.37384e-06 -2.33977e-06 3.77574e-07 -8.27888e-07 4.86344e-07 1.45989e-06 -1.0885e-06 -1.87774e-06 3.39118e-07 -6.14983e-07 4.27671e-07 1.22197e-06 -8.38152e-07 -1.47118e-06 3.01166e-07 -4.34695e-07 3.65001e-07 1.00129e-06 -6.16904e-07 -1.11171e-06 2.61042e-07 -2.82579e-07 3.03999e-07 8.00782e-07 -4.26934e-07 -7.9859e-07 2.20297e-07 -1.58926e-07 2.44821e-07 6.17583e-07 -2.65524e-07 -5.38013e-07 1.79823e-07 -6.31747e-08 1.83354e-07 4.56387e-07 -1.33664e-07 -3.24644e-07 1.39194e-07 3.0268e-09 1.26737e-07 3.1793e-07 -3.56619e-08 -1.5914e-07 9.61591e-08 4.88556e-08 7.35357e-08 1.97091e-07 3.19754e-08 -4.13662e-08 4.59064e-08 7.99773e-08 2.12652e-08 9.46069e-08 7.87744e-08 3.75633e-08 -2.94337e-08 1.21188e-07 -3.86305e-08 2.67755e-09 1.15096e-07 8.57205e-08 1.33924e-06 -1.59162e-05 -3.39979e-06 -3.39979e-06 -4.524e-06 -1.00016e-05 2.42687e-07 -1.40108e-05 -2.45741e-06 3.15423e-06 -9.06464e-06 -1.60936e-05 -2.34965e-08 -1.47741e-05 -9.84777e-07 6.40137e-06 -1.36011e-05 -2.09961e-05 1.75807e-06 -1.18696e-05 1.86571e-06 9.83073e-06 -1.25968e-05 -1.99653e-05 1.5453e-06 -9.99266e-06 2.21965e-06 1.01214e-05 -1.14523e-05 -1.86066e-05 1.35927e-06 -8.66551e-06 2.20052e-06 9.81975e-06 -1.03042e-05 -1.71196e-05 1.2782e-06 -7.64616e-06 2.08442e-06 9.29266e-06 -9.19805e-06 -1.55943e-05 1.27203e-06 -6.81233e-06 1.94771e-06 8.67007e-06 -8.16207e-06 -1.40954e-05 1.29372e-06 -6.09576e-06 1.81402e-06 8.01481e-06 -7.21841e-06 -1.2673e-05 1.31747e-06 -5.45577e-06 1.6945e-06 7.36657e-06 -6.36805e-06 -1.13464e-05 1.32884e-06 -4.87088e-06 1.5888e-06 6.74297e-06 -5.60844e-06 -1.01245e-05 1.32535e-06 -4.33073e-06 1.49454e-06 6.15197e-06 -4.92941e-06 -9.0044e-06 1.30478e-06 -3.83022e-06 1.40649e-06 5.59442e-06 -4.32186e-06 -7.9799e-06 1.26893e-06 -3.3683e-06 1.32403e-06 5.07167e-06 -3.7777e-06 -7.04404e-06 1.2219e-06 -2.94168e-06 1.24413e-06 4.58102e-06 -3.28895e-06 -6.18938e-06 1.16198e-06 -2.55087e-06 1.16396e-06 4.1194e-06 -2.84864e-06 -5.41017e-06 1.09756e-06 -2.19319e-06 1.08313e-06 3.68714e-06 -2.45161e-06 -4.69817e-06 1.02477e-06 -1.86752e-06 1.00478e-06 3.28365e-06 -2.09466e-06 -4.05065e-06 9.50764e-07 -1.57312e-06 9.22553e-07 2.90285e-06 -1.77132e-06 -3.45981e-06 8.73037e-07 -1.30705e-06 8.43584e-07 2.55004e-06 -1.48119e-06 -2.92214e-06 7.9826e-07 -1.06912e-06 7.64461e-07 2.21837e-06 -1.2197e-06 -2.43783e-06 7.20106e-07 -8.58117e-07 6.83552e-07 1.91092e-06 -9.88677e-07 -2.00417e-06 6.41875e-07 -6.71658e-07 6.03885e-07 1.62566e-06 -7.80332e-07 -1.61484e-06 5.67137e-07 -5.10733e-07 5.25964e-07 1.3647e-06 -5.98957e-07 -1.26881e-06 4.93523e-07 -3.74702e-07 4.4979e-07 1.12236e-06 -4.3811e-07 -9.64695e-07 4.23558e-07 -2.5722e-07 3.74625e-07 9.02878e-07 -2.99711e-07 -7.0441e-07 3.5495e-07 -1.62729e-07 3.01477e-07 7.07184e-07 -1.86808e-07 -4.82309e-07 2.90146e-07 -9.12502e-08 2.32016e-07 5.2806e-07 -9.44128e-08 -3.02622e-07 2.28562e-07 -3.91738e-08 1.65077e-07 3.73577e-07 -2.63681e-08 -1.62205e-07 1.69966e-07 -3.16262e-09 1.04075e-07 2.40126e-07 1.9713e-08 -5.4948e-08 1.11293e-07 2.56502e-08 5.16884e-08 1.26466e-07 5.04854e-08 1.93637e-08 3.69037e-08 7.78042e-08 2.83277e-09 3.40709e-08 8.70399e-08 7.89296e-08 5.92244e-06 -9.21431e-06 7.08581e-06 7.08581e-06 -4.11082e-06 -9.49811e-06 4.04272e-06 -8.80554e-06 3.42498e-06 9.02944e-06 -5.75637e-06 -1.30573e-05 2.66805e-06 -7.98068e-06 2.04196e-06 9.69584e-06 -6.82615e-06 -1.46365e-05 2.28624e-06 -7.92034e-06 1.985e-06 1.02078e-05 -7.98132e-06 -1.57481e-05 2.79121e-06 -6.67912e-06 2.7339e-06 1.09536e-05 -7.36189e-06 -1.48369e-05 2.67348e-06 -5.74479e-06 2.74585e-06 1.06175e-05 -6.62677e-06 -1.36787e-05 2.54744e-06 -5.04534e-06 2.6332e-06 1.00158e-05 -5.90843e-06 -1.24701e-05 2.46544e-06 -4.49588e-06 2.49544e-06 9.32774e-06 -5.23341e-06 -1.12824e-05 2.40336e-06 -4.04237e-06 2.35322e-06 8.62172e-06 -4.62243e-06 -1.01583e-05 2.34472e-06 -3.64213e-06 2.21682e-06 7.93025e-06 -4.07314e-06 -9.11212e-06 2.27945e-06 -3.2742e-06 2.08775e-06 7.27002e-06 -3.58088e-06 -8.14579e-06 2.20083e-06 -2.93184e-06 1.9621e-06 6.64231e-06 -3.14028e-06 -7.25566e-06 2.10797e-06 -2.60924e-06 1.84018e-06 6.04778e-06 -2.74331e-06 -6.43876e-06 2.00362e-06 -2.30586e-06 1.71841e-06 5.48731e-06 -2.38714e-06 -5.68807e-06 1.88864e-06 -2.02291e-06 1.59761e-06 4.95646e-06 -2.0661e-06 -4.99895e-06 1.76594e-06 -1.7602e-06 1.47754e-06 4.4556e-06 -1.77875e-06 -4.36866e-06 1.63769e-06 -1.51776e-06 1.35849e-06 3.98327e-06 -1.51627e-06 -3.78868e-06 1.50793e-06 -1.29339e-06 1.24134e-06 3.54023e-06 -1.28332e-06 -3.26077e-06 1.37731e-06 -1.09128e-06 1.12612e-06 3.12335e-06 -1.07056e-06 -2.77881e-06 1.24828e-06 -9.06449e-07 1.01161e-06 2.73444e-06 -8.82583e-07 -2.34098e-06 1.12058e-06 -7.42613e-07 9.03266e-07 2.37208e-06 -7.12869e-07 -1.94487e-06 9.96321e-07 -5.96551e-07 7.96979e-07 2.03622e-06 -5.62868e-07 -1.58942e-06 8.78237e-07 -4.68222e-07 6.93874e-07 1.72547e-06 -4.32172e-07 -1.27407e-06 7.62094e-07 -3.57259e-07 5.9593e-07 1.44118e-06 -3.17309e-07 -9.95215e-07 6.54487e-07 -2.6044e-07 5.01129e-07 1.18115e-06 -2.17386e-07 -7.48667e-07 5.52041e-07 -1.81569e-07 4.15486e-07 9.48048e-07 -1.33043e-07 -5.37528e-07 4.55456e-07 -1.17502e-07 3.28524e-07 7.33805e-07 -6.41448e-08 -3.63158e-07 3.65855e-07 -6.83552e-08 2.47809e-07 5.47268e-07 -1.0264e-08 -2.18182e-07 2.84752e-07 -3.60111e-08 1.7276e-07 3.8095e-07 2.75516e-08 -1.06151e-07 2.1533e-07 -2.15174e-08 1.02717e-07 2.36595e-07 4.4393e-08 -2.33413e-08 1.50952e-07 -2.12458e-08 4.64497e-08 1.14281e-07 3.84171e-08 2.23517e-08 8.9407e-08 -1.22818e-08 1.88981e-08 3.51186e-08 2.18085e-08 3.91932e-08 1.01223e-05 -3.53955e-06 1.71463e-05 1.71463e-05 -4.28183e-06 -9.70939e-06 7.50883e-06 -4.71403e-06 9.11392e-06 1.48532e-05 -3.72847e-06 -1.12149e-05 5.51537e-06 -4.15657e-06 5.40873e-06 1.32815e-05 -3.31561e-06 -1.14083e-05 4.44846e-06 -3.70839e-06 3.8686e-06 1.23359e-05 -3.33687e-06 -1.13534e-05 4.05789e-06 -3.54335e-06 3.40274e-06 1.17666e-05 -3.51132e-06 -1.11703e-05 4.06549e-06 -3.04007e-06 3.42804e-06 1.14077e-05 -3.17845e-06 -1.03502e-05 3.90244e-06 -2.64125e-06 3.29153e-06 1.07312e-05 -2.80939e-06 -9.43746e-06 3.73895e-06 -2.34072e-06 3.1287e-06 9.97474e-06 -2.45586e-06 -8.53159e-06 3.58299e-06 -2.10902e-06 2.9566e-06 9.20818e-06 -2.13931e-06 -7.67771e-06 3.43041e-06 -1.91294e-06 2.78597e-06 8.46611e-06 -1.85702e-06 -6.88329e-06 3.27282e-06 -1.73381e-06 2.61601e-06 7.75648e-06 -1.60438e-06 -6.15009e-06 3.10709e-06 -1.56435e-06 2.44786e-06 7.08539e-06 -1.37832e-06 -5.4748e-06 2.93157e-06 -1.40053e-06 2.27794e-06 6.44797e-06 -1.17649e-06 -4.85039e-06 2.74872e-06 -1.24446e-06 2.11034e-06 5.84265e-06 -9.95235e-07 -4.27524e-06 2.55846e-06 -1.0933e-06 1.94262e-06 5.26861e-06 -8.31632e-07 -3.74568e-06 2.36494e-06 -9.49154e-07 1.77708e-06 4.72693e-06 -6.84425e-07 -3.2559e-06 2.1701e-06 -8.15237e-07 1.61453e-06 4.21334e-06 -5.54932e-07 -2.80937e-06 1.97522e-06 -6.88946e-07 1.45655e-06 3.73162e-06 -4.37295e-07 -2.3998e-06 1.78453e-06 -5.74587e-07 1.3016e-06 3.27934e-06 -3.35024e-07 -2.02572e-06 1.5983e-06 -4.71133e-07 1.15414e-06 2.85586e-06 -2.43521e-07 -1.68668e-06 1.41666e-06 -3.75633e-07 1.01048e-06 2.46145e-06 -1.65193e-07 -1.38154e-06 1.24343e-06 -2.93561e-07 8.76064e-07 2.09773e-06 -9.93023e-08 -1.10853e-06 1.08033e-06 -2.20452e-07 7.48783e-07 1.76156e-06 -3.97946e-08 -8.63685e-07 9.25385e-07 -1.58422e-07 6.28992e-07 1.45511e-06 5.12227e-09 -6.51693e-07 7.80681e-07 -1.07102e-07 5.19329e-07 1.1775e-06 4.44319e-08 -4.68863e-07 6.46416e-07 -6.2127e-08 4.16185e-07 9.30275e-07 7.33029e-08 -3.13797e-07 5.2286e-07 -3.05784e-08 3.21811e-07 7.09435e-07 9.5577e-08 -1.84596e-07 4.11606e-07 -7.89684e-09 2.32287e-07 5.12732e-07 1.0978e-07 -8.21504e-08 3.10829e-07 5.43272e-10 1.51379e-07 3.43464e-07 1.12341e-07 -6.28643e-09 2.27398e-07 -1.06132e-08 7.84639e-08 1.97208e-07 1.01902e-07 3.97752e-08 1.57549e-07 -4.71676e-08 1.42027e-08 7.64073e-08 5.72375e-08 4.0823e-08 1.11409e-07 -1.08111e-07 1.35818e-09 1.7928e-08 -3.7641e-08 -1.49012e-08 1.45956e-05 1.12426e-06 2.75193e-05 2.75193e-05 -5.22249e-06 -1.08826e-05 1.06587e-05 -1.05335e-06 1.45882e-05 2.06822e-05 -2.23543e-06 -9.97338e-06 8.17837e-06 -8.99192e-07 8.74543e-06 1.692e-05 -5.68922e-07 -8.87355e-06 6.76233e-06 -6.02119e-07 6.04972e-06 1.47163e-05 5.11063e-08 -8.12379e-06 5.99015e-06 -4.80524e-07 4.83081e-06 1.3301e-05 1.50215e-07 -7.58911e-06 5.59504e-06 -4.78428e-07 4.31932e-06 1.23048e-05 8.18788e-08 -7.11088e-06 5.37334e-06 -3.82774e-07 4.09891e-06 1.15002e-05 1.32015e-07 -6.47939e-06 5.11715e-06 -3.16475e-07 3.87364e-06 1.06555e-05 1.95345e-07 -5.83751e-06 4.85568e-06 -2.85198e-07 3.64644e-06 9.81695e-06 2.48896e-07 -5.23283e-06 4.59262e-06 -2.68202e-07 3.41733e-06 9.01008e-06 2.93716e-07 -4.67169e-06 4.32758e-06 -2.55027e-07 3.18947e-06 8.2443e-06 3.30115e-07 -4.15368e-06 4.06022e-06 -2.38535e-07 2.96052e-06 7.5162e-06 3.59685e-07 -3.67438e-06 3.78944e-06 -2.19443e-07 2.73297e-06 6.82446e-06 3.82968e-07 -3.23171e-06 3.5159e-06 -1.92357e-07 2.50712e-06 6.16714e-06 4.0334e-07 -2.82067e-06 3.24046e-06 -1.62089e-07 2.28516e-06 5.54471e-06 4.18591e-07 -2.44197e-06 2.96661e-06 -1.30094e-07 2.06548e-06 4.95332e-06 4.2899e-07 -2.09189e-06 2.69467e-06 -9.72068e-08 1.85267e-06 4.39417e-06 4.35044e-07 -1.77134e-06 2.43044e-06 -6.33881e-08 1.64728e-06 3.86887e-06 4.36557e-07 -1.47846e-06 2.17258e-06 -3.24799e-08 1.45112e-06 3.37701e-06 4.35549e-07 -1.21105e-06 1.92667e-06 -2.61934e-09 1.2633e-06 2.91756e-06 4.29844e-07 -9.6974e-07 1.68787e-06 2.28562e-08 1.08546e-06 2.49016e-06 4.19949e-07 -7.5278e-07 1.46322e-06 4.59452e-08 9.21117e-07 2.09714e-06 4.06406e-07 -5.61956e-07 1.24976e-06 6.23986e-08 7.63374e-07 1.73373e-06 3.88827e-07 -3.95191e-07 1.05228e-06 7.68729e-08 6.21968e-07 1.40715e-06 3.69502e-07 -2.50487e-07 8.70864e-07 8.64966e-08 4.95153e-07 1.11572e-06 3.45249e-07 -1.31278e-07 7.03032e-07 8.87473e-08 3.7672e-07 8.53518e-07 3.17154e-07 -3.40127e-08 5.51925e-07 9.00279e-08 2.7474e-07 6.26004e-07 2.89874e-07 4.19483e-08 4.20764e-07 7.79207e-08 1.81142e-07 4.29146e-07 2.56502e-07 9.49173e-08 3.06716e-07 6.4106e-08 1.0264e-07 2.64263e-07 2.23129e-07 1.26194e-07 2.12148e-07 2.99964e-08 3.0462e-08 1.27397e-07 1.78659e-07 1.31976e-07 1.36051e-07 -4.81959e-08 -3.60887e-08 1.06326e-08 9.50337e-08 8.18788e-08 9.49561e-08 -1.75981e-07 -3.98334e-08 -2.66397e-08 -6.60075e-08 -5.83241e-08 2.05947e-05 4.50407e-06 3.89366e-05 3.89366e-05 -7.24239e-06 -1.31544e-05 1.39885e-05 2.60794e-06 2.00775e-05 2.65992e-05 -8.19176e-07 -8.6404e-06 1.09056e-05 2.4337e-06 1.22177e-05 2.05257e-05 2.08651e-06 -6.10263e-06 9.29072e-06 2.3909e-06 8.63813e-06 1.71712e-05 3.1658e-06 -4.77838e-06 8.31632e-06 2.26168e-06 6.86753e-06 1.50612e-05 3.39254e-06 -4.06134e-06 7.67445e-06 2.05147e-06 5.94459e-06 1.35893e-05 3.25016e-06 -3.63109e-06 7.20491e-06 1.82539e-06 5.41824e-06 1.24531e-05 3.00177e-06 -3.29832e-06 6.80653e-06 1.64875e-06 5.04598e-06 1.14733e-05 2.79137e-06 -2.94572e-06 6.39927e-06 1.4853e-06 4.69495e-06 1.05363e-05 2.59959e-06 -2.60842e-06 5.99112e-06 1.33152e-06 4.35102e-06 9.644e-06 2.42156e-06 -2.29272e-06 5.58658e-06 1.19252e-06 4.01462e-06 8.79778e-06 2.25613e-06 -1.99809e-06 5.18541e-06 1.06667e-06 3.68389e-06 7.99346e-06 2.10234e-06 -1.72306e-06 4.78684e-06 9.56973e-07 3.35959e-06 7.22904e-06 1.95919e-06 -1.46833e-06 4.39542e-06 8.6062e-07 3.04302e-06 6.50506e-06 1.82372e-06 -1.23035e-06 4.01039e-06 7.78935e-07 2.7356e-06 5.81642e-06 1.69621e-06 -1.00887e-06 3.63484e-06 7.06214e-07 2.44057e-06 5.16574e-06 1.57588e-06 -8.06331e-07 3.26828e-06 6.44087e-07 2.15516e-06 4.55211e-06 1.46024e-06 -6.20144e-07 2.91519e-06 5.88363e-07 1.88461e-06 3.97558e-06 1.35061e-06 -4.49402e-07 2.5779e-06 5.40788e-07 1.62799e-06 3.43534e-06 1.24541e-06 -2.98334e-07 2.25469e-06 4.95425e-07 1.38383e-06 2.93235e-06 1.14545e-06 -1.60576e-07 1.9474e-06 4.54873e-07 1.1576e-06 2.46645e-06 1.04681e-06 -4.36752e-08 1.66171e-06 4.18513e-07 9.49367e-07 2.04142e-06 9.52588e-07 6.1118e-08 1.39438e-06 3.78854e-07 7.57825e-07 1.64992e-06 8.59184e-07 1.45674e-07 1.14599e-06 3.43697e-07 5.84094e-07 1.29776e-06 7.69544e-07 2.15019e-07 9.19332e-07 3.0916e-07 4.29961e-07 9.8433e-07 6.81767e-07 2.67949e-07 7.16653e-07 2.73421e-07 2.95617e-07 7.09163e-07 5.97599e-07 3.01477e-07 5.38304e-07 2.35896e-07 1.80987e-07 4.76876e-07 5.11723e-07 3.1533e-07 3.8386e-07 1.94879e-07 8.76607e-08 2.83898e-07 4.33569e-07 3.13545e-07 2.59296e-07 1.49244e-07 9.70128e-09 1.29725e-07 3.52855e-07 2.90146e-07 1.64146e-07 9.22397e-08 -4.67796e-08 1.59101e-08 2.73654e-07 2.41911e-07 8.63026e-08 -2.73576e-09 -9.99814e-08 -6.82776e-08 1.69307e-07 1.50098e-07 3.92708e-08 -1.81705e-07 -1.05414e-07 -8.61667e-08 -4.70318e-08 -6.03613e-08 2.81127e-05 3.99297e-06 5.06792e-05 5.06792e-05 -1.22132e-05 -1.7714e-05 1.86759e-05 5.65949e-06 2.59467e-05 3.22245e-05 1.8056e-07 -6.43228e-06 1.42019e-05 5.54405e-06 1.61234e-05 2.3175e-05 4.43275e-06 -2.10308e-06 1.22013e-05 5.07105e-06 1.19187e-05 1.87001e-05 5.75666e-06 -4.36771e-07 1.1089e-05 4.56499e-06 9.78308e-06 1.61371e-05 5.96706e-06 1.88282e-07 1.0288e-05 4.08366e-06 8.51823e-06 1.4418e-05 5.72891e-06 3.79514e-07 9.60019e-06 3.64687e-06 7.65058e-06 1.31002e-05 5.33357e-06 4.04078e-07 8.96577e-06 3.26708e-06 6.96808e-06 1.19848e-05 4.92538e-06 3.97287e-07 8.35129e-06 2.94178e-06 6.36784e-06 1.09725e-05 4.5499e-06 4.0497e-07 7.74515e-06 2.65598e-06 5.80835e-06 1.00189e-05 4.20927e-06 4.28796e-07 7.15031e-06 2.40006e-06 5.27695e-06 9.11268e-06 3.89561e-06 4.62246e-07 6.5671e-06 2.17165e-06 4.77074e-06 8.24966e-06 3.60693e-06 5.01168e-07 6.00043e-06 1.96486e-06 4.28684e-06 7.42947e-06 3.33549e-06 5.42185e-07 5.44994e-06 1.77789e-06 3.82514e-06 6.64774e-06 3.08221e-06 5.83823e-07 4.91932e-06 1.60979e-06 3.38644e-06 5.90757e-06 2.84418e-06 6.23171e-07 4.41008e-06 1.46e-06 2.97076e-06 5.20912e-06 2.62059e-06 6.61123e-07 3.92114e-06 1.32252e-06 2.57856e-06 4.55083e-06 2.40786e-06 6.94107e-07 3.4568e-06 1.19912e-06 2.21104e-06 3.93402e-06 2.207e-06 7.21814e-07 3.0178e-06 1.08433e-06 1.86552e-06 3.35699e-06 2.01589e-06 7.45912e-07 2.60188e-06 9.79907e-07 1.54483e-06 2.81888e-06 1.83614e-06 7.64693e-07 2.21065e-06 8.85533e-07 1.24995e-06 2.32384e-06 1.66385e-06 7.72571e-07 1.84988e-06 7.96009e-07 9.76919e-07 1.86951e-06 1.49955e-06 7.78004e-07 1.51371e-06 7.13587e-07 7.34193e-07 1.4562e-06 1.34351e-06 7.71872e-07 1.20762e-06 6.36714e-07 5.15254e-07 1.08681e-06 1.1938e-06 7.57359e-07 9.27714e-07 5.63528e-07 3.21617e-07 7.57786e-07 1.04952e-06 7.31282e-07 6.83397e-07 4.92398e-07 1.56462e-07 4.74315e-07 9.11183e-07 6.96047e-07 4.65739e-07 4.2154e-07 2.39039e-08 2.3869e-07 7.7746e-07 6.43233e-07 2.90573e-07 3.49362e-07 -8.184e-08 5.21153e-08 6.44786e-07 5.75635e-07 1.57432e-07 2.68415e-07 -1.5165e-07 -8.26743e-08 5.17583e-07 4.88944e-07 6.46105e-08 1.77107e-07 -1.83626e-07 -1.55143e-07 3.87818e-07 3.74741e-07 2.31278e-08 6.49597e-08 -1.8058e-07 -1.67541e-07 2.51185e-07 2.3349e-07 1.62981e-08 -1.05899e-07 -1.46392e-07 -1.28755e-07 3.87663e-08 1.96742e-08 -1.03508e-05 -5.33075e-05 -2.9328e-05 -2.9328e-05 -2.26169e-05 -3.23742e-05 1.54168e-06 -2.5159e-05 -2.69792e-06 7.07005e-06 -2.34882e-05 -2.99301e-05 -1.72375e-06 -2.01559e-05 1.04587e-06 8.1737e-06 -2.34478e-05 -2.97674e-05 -2.18206e-06 -1.78611e-05 2.03097e-06 8.97608e-06 -2.21843e-05 -2.85133e-05 -1.97796e-06 -1.6297e-05 1.98809e-06 8.89765e-06 -2.03088e-05 -2.65193e-05 -1.62738e-06 -1.49117e-05 1.61708e-06 8.35822e-06 -1.82508e-05 -2.42047e-05 -1.29137e-06 -1.35694e-05 1.21494e-06 7.63874e-06 -1.62405e-05 -2.1837e-05 -1.00725e-06 -1.22538e-05 8.89869e-07 6.88988e-06 -1.43773e-05 -1.95602e-05 -7.79294e-07 -1.09874e-05 6.63053e-07 6.18378e-06 -1.26941e-05 -1.74402e-05 -5.98501e-07 -9.78751e-06 5.22812e-07 5.54664e-06 -1.1191e-05 -1.55006e-05 -4.57153e-07 -8.67045e-06 4.45162e-07 4.97997e-06 -9.85626e-06 -1.37422e-05 -3.41902e-07 -7.63955e-06 4.10548e-07 4.47713e-06 -8.67018e-06 -1.21527e-05 -2.48789e-07 -6.69672e-06 4.01468e-07 4.02781e-06 -7.61045e-06 -1.07178e-05 -1.71819e-07 -5.83944e-06 4.02516e-07 3.62357e-06 -6.66304e-06 -9.4184e-06 -1.06821e-07 -5.06159e-06 4.09307e-07 3.25388e-06 -5.8114e-06 -8.24315e-06 -5.3813e-08 -4.3593e-06 4.16175e-07 2.91747e-06 -5.04491e-06 -7.17703e-06 -1.04677e-08 -3.72328e-06 4.18426e-07 2.60436e-06 -4.35142e-06 -6.20877e-06 2.56017e-08 -3.15108e-06 4.14856e-07 2.31336e-06 -3.72606e-06 -5.33115e-06 5.47831e-08 -2.63709e-06 4.07328e-07 2.04347e-06 -3.16041e-06 -4.53351e-06 7.56215e-08 -2.17692e-06 3.91534e-07 1.7877e-06 -2.64935e-06 -3.81042e-06 9.07166e-08 -1.7656e-06 3.70385e-07 1.54839e-06 -2.18953e-06 -3.15919e-06 9.73523e-08 -1.40095e-06 3.42251e-07 1.32398e-06 -1.77371e-06 -2.56798e-06 1.00379e-07 -1.07728e-06 3.09034e-07 1.11172e-06 -1.40159e-06 -2.04401e-06 9.71195e-08 -7.95379e-07 2.67552e-07 9.15636e-07 -1.07142e-06 -1.57317e-06 9.08331e-08 -5.53118e-07 2.24439e-07 7.29837e-07 -7.79818e-07 -1.16079e-06 7.66692e-08 -3.48189e-07 1.757e-07 5.589e-07 -5.27294e-07 -8.00346e-07 6.25829e-08 -1.84606e-07 1.25447e-07 3.99683e-07 -3.14331e-07 -4.98481e-07 3.84074e-08 -5.01653e-08 7.25947e-08 2.57307e-07 -1.44792e-07 -2.53543e-07 1.50079e-08 4.60908e-08 2.80852e-08 1.3705e-07 -1.52407e-08 -6.9044e-08 -8.76025e-09 9.84389e-08 -1.35527e-08 4.027e-08 6.04099e-08 5.30369e-08 -4.25401e-08 1.12292e-07 -3.97267e-08 -3.24508e-08 8.84659e-08 9.63822e-08 -8.69913e-08 6.40963e-08 -6.58426e-08 -7.3817e-08 2.53688e-08 3.67775e-08 -2.93845e-06 -2.49317e-05 -1.43191e-05 -1.43191e-05 -3.30337e-06 -1.14093e-05 -3.49466e-06 -2.33976e-05 -5.8512e-06 2.4366e-06 -1.93485e-05 -2.74771e-05 7.17419e-07 -1.55674e-05 1.84071e-06 1.07198e-05 -1.81193e-05 -2.56606e-05 -1.67832e-09 -1.27772e-05 2.59372e-06 1.08627e-05 -1.67939e-05 -2.40852e-05 -1.99022e-07 -1.14307e-05 2.44308e-06 1.03413e-05 -1.52663e-05 -2.23127e-05 -1.61827e-07 -1.05479e-05 2.06019e-06 9.60266e-06 -1.37166e-05 -2.04425e-05 -3.90864e-08 -9.77397e-06 1.68483e-06 8.81504e-06 -1.22408e-05 -1.85734e-05 1.0069e-07 -9.00062e-06 1.3896e-06 8.05166e-06 -1.08794e-05 -1.67683e-05 2.27815e-07 -8.20824e-06 1.1804e-06 7.3371e-06 -9.64333e-06 -1.50648e-05 3.3189e-07 -7.41289e-06 1.04179e-06 6.68017e-06 -8.53199e-06 -1.34816e-05 4.10626e-07 -6.63489e-06 9.54169e-07 6.07869e-06 -7.53662e-06 -1.20232e-05 4.65147e-07 -5.89323e-06 8.97203e-07 5.52394e-06 -6.64513e-06 -1.06888e-05 5.02167e-07 -5.19499e-06 8.55022e-07 5.01027e-06 -5.84404e-06 -9.46811e-06 5.2448e-07 -4.55041e-06 8.24094e-07 4.53631e-06 -5.12271e-06 -8.35376e-06 5.34026e-07 -3.95836e-06 7.94719e-07 4.09482e-06 -4.47162e-06 -7.33806e-06 5.3325e-07 -3.41851e-06 7.64063e-07 3.68403e-06 -3.88498e-06 -6.41187e-06 5.23549e-07 -2.92997e-06 7.30147e-07 3.29804e-06 -3.35492e-06 -5.56885e-06 5.09618e-07 -2.48852e-06 6.92778e-07 2.93769e-06 -2.87357e-06 -4.79931e-06 4.88585e-07 -2.09118e-06 6.52382e-07 2.60121e-06 -2.43943e-06 -4.09963e-06 4.65768e-07 -1.73355e-06 6.08765e-07 2.28581e-06 -2.04519e-06 -3.4636e-06 4.34491e-07 -1.41638e-06 5.5925e-07 1.98972e-06 -1.69195e-06 -2.89023e-06 4.04766e-07 -1.1332e-06 5.09424e-07 1.71607e-06 -1.37425e-06 -2.37288e-06 3.72248e-07 -8.84611e-07 4.55019e-07 1.4593e-06 -1.08977e-06 -1.90866e-06 3.33753e-07 -6.70969e-07 3.98596e-07 1.22115e-06 -8.38394e-07 -1.4987e-06 2.95879e-07 -4.87441e-07 3.39574e-07 1.00221e-06 -6.18505e-07 -1.13729e-06 2.55871e-07 -3.29543e-07 2.8028e-07 8.00423e-07 -4.26458e-07 -8.2586e-07 2.15553e-07 -2.06589e-07 2.20791e-07 6.20911e-07 -2.67784e-07 -5.60084e-07 1.74769e-07 -1.07267e-07 1.64873e-07 4.5758e-07 -1.40251e-07 -3.44424e-07 1.37671e-07 -3.48373e-08 1.14194e-07 3.1858e-07 -4.71191e-08 -1.77136e-07 9.18032e-08 1.16318e-08 7.10813e-08 2.01234e-07 1.69093e-08 -5.63935e-08 4.38789e-08 5.18339e-08 3.06075e-08 1.04027e-07 4.92728e-08 2.92493e-08 -3.64283e-08 1.0783e-07 -1.6172e-08 3.98722e-09 8.68749e-08 8.21407e-08 1.82728e-06 -1.6636e-05 -2.9016e-06 -2.9016e-06 -3.74301e-06 -1.02634e-05 1.92037e-07 -1.18475e-05 -1.11967e-06 5.57225e-06 -8.81354e-06 -1.66071e-05 -1.2925e-07 -1.19373e-05 6.7291e-07 8.86284e-06 -1.29695e-05 -2.08844e-05 1.46605e-06 -9.58093e-06 2.82745e-06 1.13774e-05 -1.20854e-05 -1.97193e-05 1.35592e-06 -8.3739e-06 2.82683e-06 1.09967e-05 -1.09811e-05 -1.82667e-05 1.27416e-06 -7.65172e-06 2.54033e-06 1.02504e-05 -9.8826e-06 -1.67731e-05 1.25797e-06 -7.09504e-06 2.23326e-06 9.45862e-06 -8.85182e-06 -1.53046e-05 1.27765e-06 -6.57024e-06 1.9794e-06 8.69893e-06 -7.90122e-06 -1.38894e-05 1.30636e-06 -6.03878e-06 1.78491e-06 7.98752e-06 -7.03398e-06 -1.25443e-05 1.32775e-06 -5.498e-06 1.64117e-06 7.3248e-06 -6.24655e-06 -1.1283e-05 1.33403e-06 -4.9569e-06 1.53143e-06 6.70792e-06 -5.53325e-06 -1.01088e-05 1.32321e-06 -4.43163e-06 1.44032e-06 6.12879e-06 -4.89042e-06 -9.02229e-06 1.29674e-06 -3.93089e-06 1.36236e-06 5.58459e-06 -4.30491e-06 -8.01858e-06 1.25693e-06 -3.46046e-06 1.28863e-06 5.07411e-06 -3.77635e-06 -7.09659e-06 1.20473e-06 -3.02495e-06 1.21436e-06 4.59106e-06 -3.29782e-06 -6.2501e-06 1.14571e-06 -2.62296e-06 1.14098e-06 4.13704e-06 -2.86262e-06 -5.47184e-06 1.07951e-06 -2.25579e-06 1.06635e-06 3.7091e-06 -2.46856e-06 -4.76027e-06 1.00978e-06 -1.92436e-06 9.89249e-07 3.30622e-06 -2.11153e-06 -4.11064e-06 9.33874e-07 -1.62327e-06 9.11872e-07 2.92974e-06 -1.78947e-06 -3.51917e-06 8.59989e-07 -1.35213e-06 8.33834e-07 2.57715e-06 -1.49639e-06 -2.98028e-06 7.82767e-07 -1.11069e-06 7.53624e-07 2.24716e-06 -1.23572e-06 -2.49268e-06 7.06631e-07 -8.96505e-07 6.76557e-07 1.94017e-06 -1.00075e-06 -2.05398e-06 6.31117e-07 -7.08087e-07 5.97667e-07 1.65534e-06 -7.90121e-07 -1.6606e-06 5.58706e-07 -5.44368e-07 5.20871e-07 1.39426e-06 -6.08319e-07 -1.313e-06 4.86451e-07 -4.04766e-07 4.45706e-07 1.15227e-06 -4.47452e-07 -1.0083e-06 4.16602e-07 -2.85344e-07 3.71627e-07 9.3368e-07 -3.08782e-07 -7.42235e-07 3.48693e-07 -1.88719e-07 3.01506e-07 7.35658e-07 -1.93104e-07 -5.20522e-07 2.82026e-07 -1.11865e-07 2.3123e-07 5.59133e-07 -1.0131e-07 -3.36974e-07 2.20132e-07 -5.87412e-08 1.71431e-07 4.07366e-07 -3.47403e-08 -1.92502e-07 1.60721e-07 -1.55511e-08 1.20131e-07 2.78107e-07 5.57823e-09 -8.25482e-08 1.02009e-07 1.7375e-08 6.96455e-08 1.57966e-07 3.08792e-08 1.19326e-09 2.64554e-08 8.06661e-08 2.38554e-08 5.37354e-08 6.05651e-08 7.01887e-08 5.4811e-06 -1.02637e-05 7.24036e-06 7.24036e-06 -4.33539e-06 -1.01828e-05 3.92156e-06 -7.98445e-06 3.841e-06 9.93018e-06 -6.02914e-06 -1.34001e-05 2.6276e-06 -6.37225e-06 2.92919e-06 1.06511e-05 -6.91135e-06 -1.46382e-05 2.31693e-06 -6.45834e-06 2.89586e-06 1.09951e-05 -7.81158e-06 -1.54232e-05 2.79877e-06 -5.68286e-06 3.34712e-06 1.1376e-05 -7.19192e-06 -1.44528e-05 2.71701e-06 -5.14304e-06 3.16362e-06 1.0763e-05 -6.4778e-06 -1.33051e-05 2.60738e-06 -4.7411e-06 2.90634e-06 9.99813e-06 -5.79934e-06 -1.2161e-05 2.51805e-06 -4.38968e-06 2.66567e-06 9.23522e-06 -5.17615e-06 -1.10591e-05 2.44549e-06 -4.05068e-06 2.46225e-06 8.5108e-06 -4.60829e-06 -1.00143e-05 2.37413e-06 -3.7096e-06 2.29035e-06 7.82985e-06 -4.09265e-06 -9.03085e-06 2.29686e-06 -3.36711e-06 2.14095e-06 7.18712e-06 -3.62365e-06 -8.11136e-06 2.20878e-06 -3.03108e-06 2.00552e-06 6.58056e-06 -3.19726e-06 -7.25583e-06 2.10893e-06 -2.70442e-06 1.87684e-06 6.00566e-06 -2.80991e-06 -6.4605e-06 1.99919e-06 -2.39306e-06 1.75402e-06 5.46053e-06 -2.45682e-06 -5.72462e-06 1.88087e-06 -2.10152e-06 1.63074e-06 4.94252e-06 -2.13654e-06 -5.04415e-06 1.75654e-06 -1.82874e-06 1.50966e-06 4.45136e-06 -1.84387e-06 -4.4172e-06 1.62678e-06 -1.57775e-06 1.38774e-06 3.98702e-06 -1.57996e-06 -3.84212e-06 1.496e-06 -1.3462e-06 1.26903e-06 3.55066e-06 -1.33733e-06 -3.31344e-06 1.36562e-06 -1.13506e-06 1.15165e-06 3.14208e-06 -1.12179e-06 -2.83117e-06 1.23566e-06 -9.47572e-07 1.03845e-06 2.7581e-06 -9.27762e-07 -2.39234e-06 1.10892e-06 -7.79352e-07 9.26152e-07 2.39787e-06 -7.54711e-07 -1.99667e-06 9.87115e-07 -6.26479e-07 8.19981e-07 2.06683e-06 -5.99413e-07 -1.63953e-06 8.67828e-07 -4.94096e-07 7.16488e-07 1.75984e-06 -4.62586e-07 -1.32179e-06 7.5669e-07 -3.79737e-07 6.16992e-07 1.47827e-06 -3.43008e-07 -1.03921e-06 6.48773e-07 -2.7898e-07 5.2545e-07 1.22297e-06 -2.38797e-07 -7.91304e-07 5.47181e-07 -1.96286e-07 4.33094e-07 9.86416e-07 -1.51582e-07 -5.8164e-07 4.47995e-07 -1.28649e-07 3.48771e-07 7.7943e-07 -8.1481e-08 -4.02943e-07 3.60141e-07 -7.64946e-08 2.70345e-07 5.92195e-07 -2.55823e-08 -2.55347e-07 2.75623e-07 -3.59432e-08 1.97043e-07 4.27157e-07 1.29512e-08 -1.41357e-07 1.98828e-07 -1.23303e-08 1.34838e-07 2.89399e-07 2.84344e-08 -5.93427e-08 1.3542e-07 -2.43502e-09 8.06273e-08 1.68637e-07 3.00255e-08 -1.84324e-10 7.48842e-08 1.03513e-08 3.78641e-08 6.82485e-08 1.30288e-08 2.74643e-08 8.79028e-06 -4.884e-06 1.68822e-05 1.68822e-05 -5.45285e-06 -1.08964e-05 7.39853e-06 -5.13753e-06 8.84499e-06 1.45989e-05 -4.40321e-06 -1.15009e-05 5.67648e-06 -3.83192e-06 5.71016e-06 1.31642e-05 -3.85285e-06 -1.13134e-05 4.65656e-06 -3.19538e-06 4.46813e-06 1.22377e-05 -3.72338e-06 -1.10498e-05 4.25652e-06 -3.14216e-06 4.03883e-06 1.16274e-05 -3.7707e-06 -1.07638e-05 4.22715e-06 -2.84305e-06 3.95326e-06 1.11891e-05 -3.39973e-06 -9.96227e-06 4.04069e-06 -2.59607e-06 3.70848e-06 1.04636e-05 -3.0129e-06 -9.10943e-06 3.8467e-06 -2.39518e-06 3.45213e-06 9.69909e-06 -2.65696e-06 -8.28127e-06 3.66377e-06 -2.21442e-06 3.21162e-06 8.95473e-06 -2.33546e-06 -7.4977e-06 3.48849e-06 -2.04069e-06 2.98911e-06 8.24646e-06 -2.04838e-06 -6.76279e-06 3.31274e-06 -1.86809e-06 2.78356e-06 7.57471e-06 -1.79026e-06 -6.07365e-06 3.13412e-06 -1.69554e-06 2.58984e-06 6.9352e-06 -1.55769e-06 -5.43193e-06 2.94883e-06 -1.52243e-06 2.40245e-06 6.32643e-06 -1.34443e-06 -4.83301e-06 2.75748e-06 -1.35307e-06 2.21914e-06 5.74722e-06 -1.15217e-06 -4.27709e-06 2.56249e-06 -1.1915e-06 2.03846e-06 5.19433e-06 -9.77239e-07 -3.75863e-06 2.36505e-06 -1.03492e-06 1.86512e-06 4.6703e-06 -8.16896e-07 -3.27978e-06 2.16683e-06 -8.9049e-07 1.69414e-06 4.17488e-06 -6.74443e-07 -2.83827e-06 1.97067e-06 -7.55526e-07 1.52643e-06 3.70339e-06 -5.46657e-07 -2.43262e-06 1.77913e-06 -6.31893e-07 1.36803e-06 3.26327e-06 -4.32027e-07 -2.06231e-06 1.59131e-06 -5.17282e-07 1.2137e-06 2.8505e-06 -3.30862e-07 -1.72699e-06 1.409e-06 -4.15515e-07 1.06837e-06 2.46873e-06 -2.40892e-07 -1.4222e-06 1.23888e-06 -3.24537e-07 9.31468e-07 2.11553e-06 -1.63379e-07 -1.14864e-06 1.07361e-06 -2.45161e-07 8.00346e-07 1.78728e-06 -9.81672e-08 -9.0609e-07 9.1874e-07 -1.78591e-07 6.78342e-07 1.48727e-06 -4.1861e-08 -6.93515e-07 7.73493e-07 -1.18152e-07 5.65148e-07 1.21735e-06 3.17232e-09 -5.1051e-07 6.38722e-07 -7.46707e-08 4.6181e-07 9.75822e-07 3.81745e-08 -3.53447e-07 5.16952e-07 -3.42164e-08 3.64448e-07 7.56379e-07 6.42128e-08 -2.23081e-07 4.02554e-07 -5.75286e-09 2.75429e-07 5.62975e-07 8.36541e-08 -1.18132e-07 3.00613e-07 1.21363e-08 1.95413e-07 3.97393e-07 9.04838e-08 -4.24431e-08 2.12138e-07 1.97421e-08 1.23973e-07 2.57113e-07 8.36153e-08 4.25886e-09 1.48032e-07 -2.37681e-09 6.66575e-08 1.46208e-07 5.23772e-08 2.43987e-08 9.85553e-08 -6.42516e-08 3.1306e-08 5.94785e-08 -2.72121e-08 -2.75613e-08 1.22301e-05 -6.10627e-07 2.64881e-05 2.64881e-05 -7.31648e-06 -1.2586e-05 1.05918e-05 -2.64902e-06 1.38132e-05 1.94598e-05 -3.39028e-06 -1.02938e-05 8.58166e-06 -1.83419e-06 8.6436e-06 1.59075e-05 -1.58136e-06 -8.74402e-06 7.19193e-06 -1.10749e-06 6.41952e-06 1.38515e-05 -8.66237e-07 -7.80424e-06 6.34773e-06 -7.83543e-07 5.40822e-06 1.25399e-05 -6.38005e-07 -7.19411e-06 5.87636e-06 -7.28188e-07 4.92242e-06 1.16262e-05 -5.84104e-07 -6.70998e-06 5.58971e-06 -6.40546e-07 4.63739e-06 1.0887e-05 -4.46268e-07 -6.12613e-06 5.28121e-06 -5.80398e-07 4.33037e-06 1.01075e-05 -3.17164e-07 -5.55061e-06 4.97954e-06 -5.40177e-07 4.0299e-06 9.33964e-06 -2.06957e-07 -5.00668e-06 4.68582e-06 -5.10025e-07 3.73956e-06 8.59982e-06 -1.14931e-07 -4.49774e-06 4.39793e-06 -4.79039e-07 3.46214e-06 7.89345e-06 -3.93775e-08 -4.02484e-06 4.11213e-06 -4.42737e-07 3.19532e-06 7.21956e-06 2.58733e-08 -3.58147e-06 3.82753e-06 -4.01972e-07 2.93614e-06 6.57424e-06 8.10542e-08 -3.16825e-06 3.54328e-06 -3.56454e-07 2.68577e-06 5.95906e-06 1.29444e-07 -2.7789e-06 3.2609e-06 -3.07269e-07 2.44421e-06 5.37089e-06 1.73488e-07 -2.41745e-06 2.97972e-06 -2.56279e-07 2.20909e-06 4.81365e-06 2.08413e-07 -2.08247e-06 2.70327e-06 -2.06433e-07 1.98099e-06 4.28163e-06 2.37672e-07 -1.7727e-06 2.43447e-06 -1.58179e-07 1.76454e-06 3.78155e-06 2.6305e-07 -1.48694e-06 2.17498e-06 -1.1107e-07 1.55685e-06 3.31115e-06 2.81793e-07 -1.22716e-06 1.92468e-06 -6.73366e-08 1.36182e-06 2.87331e-06 2.95918e-07 -9.90821e-07 1.68386e-06 -2.76195e-08 1.17582e-06 2.46384e-06 3.0201e-07 -7.80555e-07 1.45856e-06 5.88868e-09 1.00504e-06 2.08813e-06 3.04921e-07 -5.91225e-07 1.24497e-06 3.17717e-08 8.46446e-07 1.74257e-06 2.98867e-07 -4.25799e-07 1.04614e-06 5.64517e-08 7.02324e-07 1.42678e-06 2.92387e-07 -2.84082e-07 8.65499e-07 7.39916e-08 5.6899e-07 1.14525e-06 2.79271e-07 -1.63961e-07 6.97823e-07 8.57496e-08 4.50712e-07 8.9375e-07 2.60567e-07 -6.7259e-08 5.46017e-07 9.08331e-08 3.44308e-07 6.72056e-07 2.41979e-07 9.73038e-09 4.1373e-07 9.32002e-08 2.51137e-07 4.83424e-07 2.19472e-07 6.22337e-08 2.94599e-07 8.53615e-08 1.67007e-07 3.24401e-07 1.90058e-07 9.42479e-08 1.99332e-07 6.755e-08 9.51404e-08 1.91067e-07 1.55405e-07 1.01893e-07 1.31384e-07 1.67541e-08 3.56134e-08 8.93197e-08 9.8012e-08 7.24782e-08 8.55168e-08 -1.11283e-07 4.64691e-09 3.02583e-08 -4.41893e-08 -6.38829e-08 1.61286e-05 2.24739e-06 3.64518e-05 3.64518e-05 -1.02103e-05 -1.5778e-05 1.3373e-05 -1.93531e-07 1.85675e-05 2.4626e-05 -2.63732e-06 -9.54772e-06 1.10688e-05 2.20054e-07 1.14463e-05 1.87082e-05 4.37479e-07 -6.48242e-06 9.52808e-06 8.07447e-07 8.40021e-06 1.55398e-05 1.62041e-06 -4.93189e-06 8.4838e-06 1.13663e-06 6.93741e-06 1.3626e-05 2.00272e-06 -4.09818e-06 7.76594e-06 1.213e-06 6.14777e-06 1.23375e-05 2.04261e-06 -3.60731e-06 7.24118e-06 1.14916e-06 5.64955e-06 1.13638e-05 1.96136e-06 -3.25386e-06 6.80493e-06 1.07105e-06 5.2601e-06 1.05272e-05 1.88751e-06 -2.9108e-06 6.37416e-06 9.80285e-07 4.88214e-06 9.72125e-06 1.80811e-06 -2.58825e-06 5.95343e-06 8.86221e-07 4.51155e-06 8.94003e-06 1.72534e-06 -2.28782e-06 5.53992e-06 7.97746e-07 4.1545e-06 8.19287e-06 1.64075e-06 -2.00866e-06 5.13585e-06 7.18816e-07 3.80565e-06 7.47475e-06 1.55642e-06 -1.74667e-06 4.73778e-06 6.48424e-07 3.46979e-06 6.78801e-06 1.4728e-06 -1.50027e-06 4.34962e-06 5.89401e-07 3.14425e-06 6.12852e-06 1.39073e-06 -1.26934e-06 3.96583e-06 5.42098e-07 2.83206e-06 5.49992e-06 1.31187e-06 -1.05295e-06 3.59455e-06 5.0306e-07 2.53055e-06 4.90049e-06 1.23489e-06 -8.5184e-07 3.23304e-06 4.68872e-07 2.24475e-06 4.3344e-06 1.15933e-06 -6.66061e-07 2.88457e-06 4.42679e-07 1.97141e-06 3.79804e-06 1.08677e-06 -4.97064e-07 2.55108e-06 4.17844e-07 1.71335e-06 3.29714e-06 1.01517e-06 -3.40311e-07 2.2307e-06 3.97199e-07 1.47156e-06 2.82628e-06 9.43498e-07 -2.04784e-07 1.92888e-06 3.7543e-07 1.2466e-06 2.39364e-06 8.70583e-07 -8.24318e-08 1.64711e-06 3.58084e-07 1.03776e-06 1.98933e-06 8.01665e-07 2.37778e-08 1.38149e-06 3.39186e-07 8.48852e-07 1.6253e-06 7.30186e-07 1.09615e-07 1.13613e-06 3.19861e-07 6.76635e-07 1.29596e-06 6.58241e-07 1.81171e-07 9.12997e-07 2.96461e-07 5.26188e-07 1.00225e-06 5.89091e-07 2.36973e-07 7.09697e-07 2.72402e-07 3.91262e-07 7.42681e-07 5.16874e-07 2.73333e-07 5.33949e-07 2.49585e-07 2.78689e-07 5.21803e-07 4.49547e-07 2.92581e-07 3.81406e-07 2.16368e-07 1.83112e-07 3.39962e-07 3.77874e-07 2.92115e-07 2.52922e-07 1.82064e-07 1.05152e-07 1.90911e-07 3.08957e-07 2.72363e-07 1.53426e-07 1.32665e-07 4.41505e-08 8.08213e-08 2.36507e-07 2.29678e-07 8.67973e-08 6.16904e-08 -2.66785e-09 4.18125e-09 1.57267e-07 1.52378e-07 3.48373e-08 -1.11225e-07 -3.43328e-08 -2.93658e-08 -3.04911e-08 -6.07203e-08 2.27255e-05 3.45178e-06 4.75365e-05 4.75365e-05 -1.43865e-05 -2.01306e-05 1.77123e-05 2.93078e-06 2.39777e-05 3.05041e-05 -1.46872e-06 -7.69663e-06 1.43273e-05 3.08123e-06 1.49788e-05 2.15003e-05 2.93998e-06 -2.83853e-06 1.24901e-05 3.23354e-06 1.13738e-05 1.72402e-05 4.37961e-06 -8.98755e-07 1.13261e-05 3.26121e-06 9.62071e-06 1.49137e-05 4.73674e-06 -1.00224e-07 1.04511e-05 3.15228e-06 8.57402e-06 1.3399e-05 4.66394e-06 2.1598e-07 9.7074e-06 2.9498e-06 7.81526e-06 1.22441e-05 4.42366e-06 3.27234e-07 9.02909e-06 2.71165e-06 7.17874e-06 1.12575e-05 4.14065e-06 3.67591e-07 8.38764e-06 2.48262e-06 6.59647e-06 1.03558e-05 3.86777e-06 4.00459e-07 7.76419e-06 2.2626e-06 6.03605e-06 9.49269e-06 3.60906e-06 4.34491e-07 7.15635e-06 2.06136e-06 5.5003e-06 8.66618e-06 3.36303e-06 4.68562e-07 6.56651e-06 1.87292e-06 4.98404e-06 7.87126e-06 3.13051e-06 5.06513e-07 5.99588e-06 1.70303e-06 4.49133e-06 7.10893e-06 2.90859e-06 5.43727e-07 5.44295e-06 1.54824e-06 4.02132e-06 6.38025e-06 2.70036e-06 5.81213e-07 4.91148e-06 1.41203e-06 3.57476e-06 5.68839e-06 2.50071e-06 6.18311e-07 4.3994e-06 1.28456e-06 3.15069e-06 5.02789e-06 2.31072e-06 6.52343e-07 3.91089e-06 1.17287e-06 2.75228e-06 4.40569e-06 2.12965e-06 6.82844e-07 3.44546e-06 1.07074e-06 2.37746e-06 3.81962e-06 1.95798e-06 7.09619e-07 3.00607e-06 9.78306e-07 2.026e-06 3.27006e-06 1.79488e-06 7.31699e-07 2.58957e-06 8.94099e-07 1.69899e-06 2.7583e-06 1.63625e-06 7.48502e-07 2.2009e-06 8.16915e-07 1.39891e-06 2.28324e-06 1.48564e-06 7.60454e-07 1.83823e-06 7.42914e-07 1.12549e-06 1.84777e-06 1.34179e-06 7.62744e-07 1.50163e-06 6.76868e-07 8.76869e-07 1.45359e-06 1.20151e-06 7.57311e-07 1.19391e-06 6.13615e-07 6.54283e-07 1.0967e-06 1.06717e-06 7.4241e-07 9.13424e-07 5.53662e-07 4.59831e-07 7.8331e-07 9.3628e-07 7.18273e-07 6.6639e-07 4.94135e-07 2.92348e-07 5.09501e-07 8.09698e-07 6.8393e-07 4.52729e-07 4.33482e-07 1.56724e-07 2.82103e-07 6.86918e-07 6.35346e-07 2.76011e-07 3.7186e-07 5.01265e-08 1.01582e-07 5.69028e-07 5.73297e-07 1.35187e-07 3.05037e-07 -2.56793e-08 -2.98508e-08 4.52186e-07 4.86451e-07 4.68281e-08 2.26418e-07 -7.20708e-08 -1.06142e-07 3.35422e-07 3.79233e-07 8.60503e-09 1.31268e-07 -8.62153e-08 -1.29968e-07 2.20636e-07 2.41203e-07 2.74546e-09 -4.40341e-08 -8.58466e-08 -1.06316e-07 2.5136e-08 2.55629e-08 
