# vtk DataFile Version 5.1
vtk output
ASCII

DATASET UNSTRUCTURED_GRID
POINTS 2673 float
0 0 -0.4
0.125 0 -0.4
0.25 0 -0.4
0.375 0 -0.4
0.5 0 -0.4
0.625 0 -0.4
0.75 0 -0.4
0.875 0 -0.4
1 0 -0.4
1.125 0 -0.4
1.25 0 -0.4
1.375 0 -0.4
1.5 0 -0.4
1.625 0 -0.4
1.75 0 -0.4
1.875 0 -0.4
2 0 -0.4
2.125 0 -0.4
2.25 0 -0.4
2.375 0 -0.4
2.5 0 -0.4
2.625 0 -0.4
2.75 0 -0.4
2.875 0 -0.4
3 0 -0.4
3.125 0 -0.4
3.25 0 -0.4
3.375 0 -0.4
3.5 0 -0.4
3.625 0 -0.4
3.75 0 -0.4
3.875 0 -0.4
4 0 -0.4
0 0.125 -0.4
0.125 0.125 -0.4
0.25 0.125 -0.4
0.375 0.125 -0.4
0.5 0.125 -0.4
0.625 0.125 -0.4
0.75 0.125 -0.4
0.875 0.125 -0.4
1 0.125 -0.4
1.125 0.125 -0.4
1.25 0.125 -0.4
1.375 0.125 -0.4
1.5 0.125 -0.4
1.625 0.125 -0.4
1.75 0.125 -0.4
1.875 0.125 -0.4
2 0.125 -0.4
2.125 0.125 -0.4
2.25 0.125 -0.4
2.375 0.125 -0.4
2.5 0.125 -0.4
2.625 0.125 -0.4
2.75 0.125 -0.4
2.875 0.125 -0.4
3 0.125 -0.4
3.125 0.125 -0.4
3.25 0.125 -0.4
3.375 0.125 -0.4
3.5 0.125 -0.4
3.625 0.125 -0.4
3.75 0.125 -0.4
3.875 0.125 -0.4
4 0.125 -0.4
0 0.25 -0.4
0.125 0.25 -0.4
0.25 0.25 -0.4
0.375 0.25 -0.4
0.5 0.25 -0.4
0.625 0.25 -0.4
0.75 0.25 -0.4
0.875 0.25 -0.4
1 0.25 -0.4
1.125 0.25 -0.4
1.25 0.25 -0.4
1.375 0.25 -0.4
1.5 0.25 -0.4
1.625 0.25 -0.4
1.75 0.25 -0.4
1.875 0.25 -0.4
2 0.25 -0.4
2.125 0.25 -0.4
2.25 0.25 -0.4
2.375 0.25 -0.4
2.5 0.25 -0.4
2.625 0.25 -0.4
2.75 0.25 -0.4
2.875 0.25 -0.4
3 0.25 -0.4
3.125 0.25 -0.4
3.25 0.25 -0.4
3.375 0.25 -0.4
3.5 0.25 -0.4
3.625 0.25 -0.4
3.75 0.25 -0.4
3.875 0.25 -0.4
4 0.25 -0.4
0 0.375 -0.4
0.125 0.375 -0.4
0.25 0.375 -0.4
0.375 0.375 -0.4
0.5 0.375 -0.4
0.625 0.375 -0.4
0.75 0.375 -0.4
0.875 0.375 -0.4
1 0.375 -0.4
1.125 0.375 -0.4
1.25 0.375 -0.4
1.375 0.375 -0.4
1.5 0.375 -0.4
1.625 0.375 -0.4
1.75 0.375 -0.4
1.875 0.375 -0.4
2 0.375 -0.4
2.125 0.375 -0.4
2.25 0.375 -0.4
2.375 0.375 -0.4
2.5 0.375 -0.4
2.625 0.375 -0.4
2.75 0.375 -0.4
2.875 0.375 -0.4
3 0.375 -0.4
3.125 0.375 -0.4
3.25 0.375 -0.4
3.375 0.375 -0.4
3.5 0.375 -0.4
3.625 0.375 -0.4
3.75 0.375 -0.4
3.875 0.375 -0.4
4 0.375 -0.4
0 0.5 -0.4
0.125 0.5 -0.4
0.25 0.5 -0.4
0.375 0.5 -0.4
0.5 0.5 -0.4
0.625 0.5 -0.4
0.75 0.5 -0.4
0.875 0.5 -0.4
1 0.5 -0.4
1.125 0.5 -0.4
1.25 0.5 -0.4
1.375 0.5 -0.4
1.5 0.5 -0.4
1.625 0.5 -0.4
1.75 0.5 -0.4
1.875 0.5 -0.4
2 0.5 -0.4
2.125 0.5 -0.4
2.25 0.5 -0.4
2.375 0.5 -0.4
2.5 0.5 -0.4
2.625 0.5 -0.4
2.75 0.5 -0.4
2.875 0.5 -0.4
3 0.5 -0.4
3.125 0.5 -0.4
3.25 0.5 -0.4
3.375 0.5 -0.4
3.5 0.5 -0.4
3.625 0.5 -0.4
3.75 0.5 -0.4
3.875 0.5 -0.4
4 0.5 -0.4
0 0.625 -0.4
0.125 0.625 -0.4
0.25 0.625 -0.4
0.375 0.625 -0.4
0.5 0.625 -0.4
0.625 0.625 -0.4
0.75 0.625 -0.4
0.875 0.625 -0.4
1 0.625 -0.4
1.125 0.625 -0.4
1.25 0.625 -0.4
1.375 0.625 -0.4
1.5 0.625 -0.4
1.625 0.625 -0.4
1.75 0.625 -0.4
1.875 0.625 -0.4
2 0.625 -0.4
2.125 0.625 -0.4
2.25 0.625 -0.4
2.375 0.625 -0.4
2.5 0.625 -0.4
2.625 0.625 -0.4
2.75 0.625 -0.4
2.875 0.625 -0.4
3 0.625 -0.4
3.125 0.625 -0.4
3.25 0.625 -0.4
3.375 0.625 -0.4
3.5 0.625 -0.4
3.625 0.625 -0.4
3.75 0.625 -0.4
3.875 0.625 -0.4
4 0.625 -0.4
0 0.75 -0.4
0.125 0.75 -0.4
0.25 0.75 -0.4
0.375 0.75 -0.4
0.5 0.75 -0.4
0.625 0.75 -0.4
0.75 0.75 -0.4
0.875 0.75 -0.4
1 0.75 -0.4
1.125 0.75 -0.4
1.25 0.75 -0.4
1.375 0.75 -0.4
1.5 0.75 -0.4
1.625 0.75 -0.4
1.75 0.75 -0.4
1.875 0.75 -0.4
2 0.75 -0.4
2.125 0.75 -0.4
2.25 0.75 -0.4
2.375 0.75 -0.4
2.5 0.75 -0.4
2.625 0.75 -0.4
2.75 0.75 -0.4
2.875 0.75 -0.4
3 0.75 -0.4
3.125 0.75 -0.4
3.25 0.75 -0.4
3.375 0.75 -0.4
3.5 0.75 -0.4
3.625 0.75 -0.4
3.75 0.75 -0.4
3.875 0.75 -0.4
4 0.75 -0.4
0 0.875 -0.4
0.125 0.875 -0.4
0.25 0.875 -0.4
0.375 0.875 -0.4
0.5 0.875 -0.4
0.625 0.875 -0.4
0.75 0.875 -0.4
0.875 0.875 -0.4
1 0.875 -0.4
1.125 0.875 -0.4
1.25 0.875 -0.4
1.375 0.875 -0.4
1.5 0.875 -0.4
1.625 0.875 -0.4
1.75 0.875 -0.4
1.875 0.875 -0.4
2 0.875 -0.4
2.125 0.875 -0.4
2.25 0.875 -0.4
2.375 0.875 -0.4
2.5 0.875 -0.4
2.625 0.875 -0.4
2.75 0.875 -0.4
2.875 0.875 -0.4
3 0.875 -0.4
3.125 0.875 -0.4
3.25 0.875 -0.4
3.375 0.875 -0.4
3.5 0.875 -0.4
3.625 0.875 -0.4
3.75 0.875 -0.4
3.875 0.875 -0.4
4 0.875 -0.4
0 1 -0.4
0.125 1 -0.4
0.25 1 -0.4
0.375 1 -0.4
0.5 1 -0.4
0.625 1 -0.4
0.75 1 -0.4
0.875 1 -0.4
1 1 -0.4
1.125 1 -0.4
1.25 1 -0.4
1.375 1 -0.4
1.5 1 -0.4
1.625 1 -0.4
1.75 1 -0.4
1.875 1 -0.4
2 1 -0.4
2.125 1 -0.4
2.25 1 -0.4
2.375 1 -0.4
2.5 1 -0.4
2.625 1 -0.4
2.75 1 -0.4
2.875 1 -0.4
3 1 -0.4
3.125 1 -0.4
3.25 1 -0.4
3.375 1 -0.4
3.5 1 -0.4
3.625 1 -0.4
3.75 1 -0.4
3.875 1 -0.4
4 1 -0.4
0 0 -0.275
0.125 0 -0.275
0.25 0 -0.275
0.375 0 -0.275
0.5 0 -0.275
0.625 0 -0.275
0.75 0 -0.275
0.875 0 -0.275
1 0 -0.275
1.125 0 -0.275
1.25 0 -0.275
1.375 0 -0.275
1.5 0 -0.275
1.625 0 -0.275
1.75 0 -0.275
1.875 0 -0.275
2 0 -0.275
2.125 0 -0.275
2.25 0 -0.275
2.375 0 -0.275
2.5 0 -0.275
2.625 0 -0.275
2.75 0 -0.275
2.875 0 -0.275
3 0 -0.275
3.125 0 -0.275
3.25 0 -0.275
3.375 0 -0.275
3.5 0 -0.275
3.625 0 -0.275
3.75 0 -0.275
3.875 0 -0.275
4 0 -0.275
0 0.125 -0.275
0.125 0.125 -0.275
0.25 0.125 -0.275
0.375 0.125 -0.275
0.5 0.125 -0.275
0.625 0.125 -0.275
0.75 0.125 -0.275
0.875 0.125 -0.275
1 0.125 -0.275
1.125 0.125 -0.275
1.25 0.125 -0.275
1.375 0.125 -0.275
1.5 0.125 -0.275
1.625 0.125 -0.275
1.75 0.125 -0.275
1.875 0.125 -0.275
2 0.125 -0.275
2.125 0.125 -0.275
2.25 0.125 -0.275
2.375 0.125 -0.275
2.5 0.125 -0.275
2.625 0.125 -0.275
2.75 0.125 -0.275
2.875 0.125 -0.275
3 0.125 -0.275
3.125 0.125 -0.275
3.25 0.125 -0.275
3.375 0.125 -0.275
3.5 0.125 -0.275
3.625 0.125 -0.275
3.75 0.125 -0.275
3.875 0.125 -0.275
4 0.125 -0.275
0 0.25 -0.275
0.125 0.25 -0.275
0.25 0.25 -0.275
0.375 0.25 -0.275
0.5 0.25 -0.275
0.625 0.25 -0.275
0.75 0.25 -0.275
0.875 0.25 -0.275
1 0.25 -0.275
1.125 0.25 -0.275
1.25 0.25 -0.275
1.375 0.25 -0.275
1.5 0.25 -0.275
1.625 0.25 -0.275
1.75 0.25 -0.275
1.875 0.25 -0.275
2 0.25 -0.275
2.125 0.25 -0.275
2.25 0.25 -0.275
2.375 0.25 -0.275
2.5 0.25 -0.275
2.625 0.25 -0.275
2.75 0.25 -0.275
2.875 0.25 -0.275
3 0.25 -0.275
3.125 0.25 -0.275
3.25 0.25 -0.275
3.375 0.25 -0.275
3.5 0.25 -0.275
3.625 0.25 -0.275
3.75 0.25 -0.275
3.875 0.25 -0.275
4 0.25 -0.275
0 0.375 -0.275
0.125 0.375 -0.275
0.25 0.375 -0.275
0.375 0.375 -0.275
0.5 0.375 -0.275
0.625 0.375 -0.275
0.75 0.375 -0.275
0.875 0.375 -0.275
1 0.375 -0.275
1.125 0.375 -0.275
1.25 0.375 -0.275
1.375 0.375 -0.275
1.5 0.375 -0.275
1.625 0.375 -0.275
1.75 0.375 -0.275
1.875 0.375 -0.275
2 0.375 -0.275
2.125 0.375 -0.275
2.25 0.375 -0.275
2.375 0.375 -0.275
2.5 0.375 -0.275
2.625 0.375 -0.275
2.75 0.375 -0.275
2.875 0.375 -0.275
3 0.375 -0.275
3.125 0.375 -0.275
3.25 0.375 -0.275
3.375 0.375 -0.275
3.5 0.375 -0.275
3.625 0.375 -0.275
3.75 0.375 -0.275
3.875 0.375 -0.275
4 0.375 -0.275
0 0.5 -0.275
0.125 0.5 -0.275
0.25 0.5 -0.275
0.375 0.5 -0.275
0.5 0.5 -0.275
0.625 0.5 -0.275
0.75 0.5 -0.275
0.875 0.5 -0.275
1 0.5 -0.275
1.125 0.5 -0.275
1.25 0.5 -0.275
1.375 0.5 -0.275
1.5 0.5 -0.275
1.625 0.5 -0.275
1.75 0.5 -0.275
1.875 0.5 -0.275
2 0.5 -0.275
2.125 0.5 -0.275
2.25 0.5 -0.275
2.375 0.5 -0.275
2.5 0.5 -0.275
2.625 0.5 -0.275
2.75 0.5 -0.275
2.875 0.5 -0.275
3 0.5 -0.275
3.125 0.5 -0.275
3.25 0.5 -0.275
3.375 0.5 -0.275
3.5 0.5 -0.275
3.625 0.5 -0.275
3.75 0.5 -0.275
3.875 0.5 -0.275
4 0.5 -0.275
0 0.625 -0.275
0.125 0.625 -0.275
0.25 0.625 -0.275
0.375 0.625 -0.275
0.5 0.625 -0.275
0.625 0.625 -0.275
0.75 0.625 -0.275
0.875 0.625 -0.275
1 0.625 -0.275
1.125 0.625 -0.275
1.25 0.625 -0.275
1.375 0.625 -0.275
1.5 0.625 -0.275
1.625 0.625 -0.275
1.75 0.625 -0.275
1.875 0.625 -0.275
2 0.625 -0.275
2.125 0.625 -0.275
2.25 0.625 -0.275
2.375 0.625 -0.275
2.5 0.625 -0.275
2.625 0.625 -0.275
2.75 0.625 -0.275
2.875 0.625 -0.275
3 0.625 -0.275
3.125 0.625 -0.275
3.25 0.625 -0.275
3.375 0.625 -0.275
3.5 0.625 -0.275
3.625 0.625 -0.275
3.75 0.625 -0.275
3.875 0.625 -0.275
4 0.625 -0.275
0 0.75 -0.275
0.125 0.75 -0.275
0.25 0.75 -0.275
0.375 0.75 -0.275
0.5 0.75 -0.275
0.625 0.75 -0.275
0.75 0.75 -0.275
0.875 0.75 -0.275
1 0.75 -0.275
1.125 0.75 -0.275
1.25 0.75 -0.275
1.375 0.75 -0.275
1.5 0.75 -0.275
1.625 0.75 -0.275
1.75 0.75 -0.275
1.875 0.75 -0.275
2 0.75 -0.275
2.125 0.75 -0.275
2.25 0.75 -0.275
2.375 0.75 -0.275
2.5 0.75 -0.275
2.625 0.75 -0.275
2.75 0.75 -0.275
2.875 0.75 -0.275
3 0.75 -0.275
3.125 0.75 -0.275
3.25 0.75 -0.275
3.375 0.75 -0.275
3.5 0.75 -0.275
3.625 0.75 -0.275
3.75 0.75 -0.275
3.875 0.75 -0.275
4 0.75 -0.275
0 0.875 -0.275
0.125 0.875 -0.275
0.25 0.875 -0.275
0.375 0.875 -0.275
0.5 0.875 -0.275
0.625 0.875 -0.275
0.75 0.875 -0.275
0.875 0.875 -0.275
1 0.875 -0.275
1.125 0.875 -0.275
1.25 0.875 -0.275
1.375 0.875 -0.275
1.5 0.875 -0.275
1.625 0.875 -0.275
1.75 0.875 -0.275
1.875 0.875 -0.275
2 0.875 -0.275
2.125 0.875 -0.275
2.25 0.875 -0.275
2.375 0.875 -0.275
2.5 0.875 -0.275
2.625 0.875 -0.275
2.75 0.875 -0.275
2.875 0.875 -0.275
3 0.875 -0.275
3.125 0.875 -0.275
3.25 0.875 -0.275
3.375 0.875 -0.275
3.5 0.875 -0.275
3.625 0.875 -0.275
3.75 0.875 -0.275
3.875 0.875 -0.275
4 0.875 -0.275
0 1 -0.275
0.125 1 -0.275
0.25 1 -0.275
0.375 1 -0.275
0.5 1 -0.275
0.625 1 -0.275
0.75 1 -0.275
0.875 1 -0.275
1 1 -0.275
1.125 1 -0.275
1.25 1 -0.275
1.375 1 -0.275
1.5 1 -0.275
1.625 1 -0.275
1.75 1 -0.275
1.875 1 -0.275
2 1 -0.275
2.125 1 -0.275
2.25 1 -0.275
2.375 1 -0.275
2.5 1 -0.275
2.625 1 -0.275
2.75 1 -0.275
2.875 1 -0.275
3 1 -0.275
3.125 1 -0.275
3.25 1 -0.275
3.375 1 -0.275
3.5 1 -0.275
3.625 1 -0.275
3.75 1 -0.275
3.875 1 -0.275
4 1 -0.275
0 0 -0.15
0.125 0 -0.15
0.25 0 -0.15
0.375 0 -0.15
0.5 0 -0.15
0.625 0 -0.15
0.75 0 -0.15
0.875 0 -0.15
1 0 -0.15
1.125 0 -0.15
1.25 0 -0.15
1.375 0 -0.15
1.5 0 -0.15
1.625 0 -0.15
1.75 0 -0.15
1.875 0 -0.15
2 0 -0.15
2.125 0 -0.15
2.25 0 -0.15
2.375 0 -0.15
2.5 0 -0.15
2.625 0 -0.15
2.75 0 -0.15
2.875 0 -0.15
3 0 -0.15
3.125 0 -0.15
3.25 0 -0.15
3.375 0 -0.15
3.5 0 -0.15
3.625 0 -0.15
3.75 0 -0.15
3.875 0 -0.15
4 0 -0.15
0 0.125 -0.15
0.125 0.125 -0.15
0.25 0.125 -0.15
0.375 0.125 -0.15
0.5 0.125 -0.15
0.625 0.125 -0.15
0.75 0.125 -0.15
0.875 0.125 -0.15
1 0.125 -0.15
1.125 0.125 -0.15
1.25 0.125 -0.15
1.375 0.125 -0.15
1.5 0.125 -0.15
1.625 0.125 -0.15
1.75 0.125 -0.15
1.875 0.125 -0.15
2 0.125 -0.15
2.125 0.125 -0.15
2.25 0.125 -0.15
2.375 0.125 -0.15
2.5 0.125 -0.15
2.625 0.125 -0.15
2.75 0.125 -0.15
2.875 0.125 -0.15
3 0.125 -0.15
3.125 0.125 -0.15
3.25 0.125 -0.15
3.375 0.125 -0.15
3.5 0.125 -0.15
3.625 0.125 -0.15
3.75 0.125 -0.15
3.875 0.125 -0.15
4 0.125 -0.15
0 0.25 -0.15
0.125 0.25 -0.15
0.25 0.25 -0.15
0.375 0.25 -0.15
0.5 0.25 -0.15
0.625 0.25 -0.15
0.75 0.25 -0.15
0.875 0.25 -0.15
1 0.25 -0.15
1.125 0.25 -0.15
1.25 0.25 -0.15
1.375 0.25 -0.15
1.5 0.25 -0.15
1.625 0.25 -0.15
1.75 0.25 -0.15
1.875 0.25 -0.15
2 0.25 -0.15
2.125 0.25 -0.15
2.25 0.25 -0.15
2.375 0.25 -0.15
2.5 0.25 -0.15
2.625 0.25 -0.15
2.75 0.25 -0.15
2.875 0.25 -0.15
3 0.25 -0.15
3.125 0.25 -0.15
3.25 0.25 -0.15
3.375 0.25 -0.15
3.5 0.25 -0.15
3.625 0.25 -0.15
3.75 0.25 -0.15
3.875 0.25 -0.15
4 0.25 -0.15
0 0.375 -0.15
0.125 0.375 -0.15
0.25 0.375 -0.15
0.375 0.375 -0.15
0.5 0.375 -0.15
0.625 0.375 -0.15
0.75 0.375 -0.15
0.875 0.375 -0.15
1 0.375 -0.15
1.125 0.375 -0.15
1.25 0.375 -0.15
1.375 0.375 -0.15
1.5 0.375 -0.15
1.625 0.375 -0.15
1.75 0.375 -0.15
1.875 0.375 -0.15
2 0.375 -0.15
2.125 0.375 -0.15
2.25 0.375 -0.15
2.375 0.375 -0.15
2.5 0.375 -0.15
2.625 0.375 -0.15
2.75 0.375 -0.15
2.875 0.375 -0.15
3 0.375 -0.15
3.125 0.375 -0.15
3.25 0.375 -0.15
3.375 0.375 -0.15
3.5 0.375 -0.15
3.625 0.375 -0.15
3.75 0.375 -0.15
3.875 0.375 -0.15
4 0.375 -0.15
0 0.5 -0.15
0.125 0.5 -0.15
0.25 0.5 -0.15
0.375 0.5 -0.15
0.5 0.5 -0.15
0.625 0.5 -0.15
0.75 0.5 -0.15
0.875 0.5 -0.15
1 0.5 -0.15
1.125 0.5 -0.15
1.25 0.5 -0.15
1.375 0.5 -0.15
1.5 0.5 -0.15
1.625 0.5 -0.15
1.75 0.5 -0.15
1.875 0.5 -0.15
2 0.5 -0.15
2.125 0.5 -0.15
2.25 0.5 -0.15
2.375 0.5 -0.15
2.5 0.5 -0.15
2.625 0.5 -0.15
2.75 0.5 -0.15
2.875 0.5 -0.15
3 0.5 -0.15
3.125 0.5 -0.15
3.25 0.5 -0.15
3.375 0.5 -0.15
3.5 0.5 -0.15
3.625 0.5 -0.15
3.75 0.5 -0.15
3.875 0.5 -0.15
4 0.5 -0.15
0 0.625 -0.15
0.125 0.625 -0.15
0.25 0.625 -0.15
0.375 0.625 -0.15
0.5 0.625 -0.15
0.625 0.625 -0.15
0.75 0.625 -0.15
0.875 0.625 -0.15
1 0.625 -0.15
1.125 0.625 -0.15
1.25 0.625 -0.15
1.375 0.625 -0.15
1.5 0.625 -0.15
1.625 0.625 -0.15
1.75 0.625 -0.15
1.875 0.625 -0.15
2 0.625 -0.15
2.125 0.625 -0.15
2.25 0.625 -0.15
2.375 0.625 -0.15
2.5 0.625 -0.15
2.625 0.625 -0.15
2.75 0.625 -0.15
2.875 0.625 -0.15
3 0.625 -0.15
3.125 0.625 -0.15
3.25 0.625 -0.15
3.375 0.625 -0.15
3.5 0.625 -0.15
3.625 0.625 -0.15
3.75 0.625 -0.15
3.875 0.625 -0.15
4 0.625 -0.15
0 0.75 -0.15
0.125 0.75 -0.15
0.25 0.75 -0.15
0.375 0.75 -0.15
0.5 0.75 -0.15
0.625 0.75 -0.15
0.75 0.75 -0.15
0.875 0.75 -0.15
1 0.75 -0.15
1.125 0.75 -0.15
1.25 0.75 -0.15
1.375 0.75 -0.15
1.5 0.75 -0.15
1.625 0.75 -0.15
1.75 0.75 -0.15
1.875 0.75 -0.15
2 0.75 -0.15
2.125 0.75 -0.15
2.25 0.75 -0.15
2.375 0.75 -0.15
2.5 0.75 -0.15
2.625 0.75 -0.15
2.75 0.75 -0.15
2.875 0.75 -0.15
3 0.75 -0.15
3.125 0.75 -0.15
3.25 0.75 -0.15
3.375 0.75 -0.15
3.5 0.75 -0.15
3.625 0.75 -0.15
3.75 0.75 -0.15
3.875 0.75 -0.15
4 0.75 -0.15
0 0.875 -0.15
0.125 0.875 -0.15
0.25 0.875 -0.15
0.375 0.875 -0.15
0.5 0.875 -0.15
0.625 0.875 -0.15
0.75 0.875 -0.15
0.875 0.875 -0.15
1 0.875 -0.15
1.125 0.875 -0.15
1.25 0.875 -0.15
1.375 0.875 -0.15
1.5 0.875 -0.15
1.625 0.875 -0.15
1.75 0.875 -0.15
1.875 0.875 -0.15
2 0.875 -0.15
2.125 0.875 -0.15
2.25 0.875 -0.15
2.375 0.875 -0.15
2.5 0.875 -0.15
2.625 0.875 -0.15
2.75 0.875 -0.15
2.875 0.875 -0.15
3 0.875 -0.15
3.125 0.875 -0.15
3.25 0.875 -0.15
3.375 0.875 -0.15
3.5 0.875 -0.15
3.625 0.875 -0.15
3.75 0.875 -0.15
3.875 0.875 -0.15
4 0.875 -0.15
0 1 -0.15
0.125 1 -0.15
0.25 1 -0.15
0.375 1 -0.15
0.5 1 -0.15
0.625 1 -0.15
0.75 1 -0.15
0.875 1 -0.15
1 1 -0.15
1.125 1 -0.15
1.25 1 -0.15
1.375 1 -0.15
1.5 1 -0.15
1.625 1 -0.15
1.75 1 -0.15
1.875 1 -0.15
2 1 -0.15
2.125 1 -0.15
2.25 1 -0.15
2.375 1 -0.15
2.5 1 -0.15
2.625 1 -0.15
2.75 1 -0.15
2.875 1 -0.15
3 1 -0.15
3.125 1 -0.15
3.25 1 -0.15
3.375 1 -0.15
3.5 1 -0.15
3.625 1 -0.15
3.75 1 -0.15
3.875 1 -0.15
4 1 -0.15
0 0 -0.025
0.125 0 -0.025
0.25 0 -0.025
0.375 0 -0.025
0.5 0 -0.025
0.625 0 -0.025
0.75 0 -0.025
0.875 0 -0.025
1 0 -0.025
1.125 0 -0.025
1.25 0 -0.025
1.375 0 -0.025
1.5 0 -0.025
1.625 0 -0.025
1.75 0 -0.025
1.875 0 -0.025
2 0 -0.025
2.125 0 -0.025
2.25 0 -0.025
2.375 0 -0.025
2.5 0 -0.025
2.625 0 -0.025
2.75 0 -0.025
2.875 0 -0.025
3 0 -0.025
3.125 0 -0.025
3.25 0 -0.025
3.375 0 -0.025
3.5 0 -0.025
3.625 0 -0.025
3.75 0 -0.025
3.875 0 -0.025
4 0 -0.025
0 0.125 -0.025
0.125 0.125 -0.025
0.25 0.125 -0.025
0.375 0.125 -0.025
0.5 0.125 -0.025
0.625 0.125 -0.025
0.75 0.125 -0.025
0.875 0.125 -0.025
1 0.125 -0.025
1.125 0.125 -0.025
1.25 0.125 -0.025
1.375 0.125 -0.025
1.5 0.125 -0.025
1.625 0.125 -0.025
1.75 0.125 -0.025
1.875 0.125 -0.025
2 0.125 -0.025
2.125 0.125 -0.025
2.25 0.125 -0.025
2.375 0.125 -0.025
2.5 0.125 -0.025
2.625 0.125 -0.025
2.75 0.125 -0.025
2.875 0.125 -0.025
3 0.125 -0.025
3.125 0.125 -0.025
3.25 0.125 -0.025
3.375 0.125 -0.025
3.5 0.125 -0.025
3.625 0.125 -0.025
3.75 0.125 -0.025
3.875 0.125 -0.025
4 0.125 -0.025
0 0.25 -0.025
0.125 0.25 -0.025
0.25 0.25 -0.025
0.375 0.25 -0.025
0.5 0.25 -0.025
0.625 0.25 -0.025
0.75 0.25 -0.025
0.875 0.25 -0.025
1 0.25 -0.025
1.125 0.25 -0.025
1.25 0.25 -0.025
1.375 0.25 -0.025
1.5 0.25 -0.025
1.625 0.25 -0.025
1.75 0.25 -0.025
1.875 0.25 -0.025
2 0.25 -0.025
2.125 0.25 -0.025
2.25 0.25 -0.025
2.375 0.25 -0.025
2.5 0.25 -0.025
2.625 0.25 -0.025
2.75 0.25 -0.025
2.875 0.25 -0.025
3 0.25 -0.025
3.125 0.25 -0.025
3.25 0.25 -0.025
3.375 0.25 -0.025
3.5 0.25 -0.025
3.625 0.25 -0.025
3.75 0.25 -0.025
3.875 0.25 -0.025
4 0.25 -0.025
0 0.375 -0.025
0.125 0.375 -0.025
0.25 0.375 -0.025
0.375 0.375 -0.025
0.5 0.375 -0.025
0.625 0.375 -0.025
0.75 0.375 -0.025
0.875 0.375 -0.025
1 0.375 -0.025
1.125 0.375 -0.025
1.25 0.375 -0.025
1.375 0.375 -0.025
1.5 0.375 -0.025
1.625 0.375 -0.025
1.75 0.375 -0.025
1.875 0.375 -0.025
2 0.375 -0.025
2.125 0.375 -0.025
2.25 0.375 -0.025
2.375 0.375 -0.025
2.5 0.375 -0.025
2.625 0.375 -0.025
2.75 0.375 -0.025
2.875 0.375 -0.025
3 0.375 -0.025
3.125 0.375 -0.025
3.25 0.375 -0.025
3.375 0.375 -0.025
3.5 0.375 -0.025
3.625 0.375 -0.025
3.75 0.375 -0.025
3.875 0.375 -0.025
4 0.375 -0.025
0 0.5 -0.025
0.125 0.5 -0.025
0.25 0.5 -0.025
0.375 0.5 -0.025
0.5 0.5 -0.025
0.625 0.5 -0.025
0.75 0.5 -0.025
0.875 0.5 -0.025
1 0.5 -0.025
1.125 0.5 -0.025
1.25 0.5 -0.025
1.375 0.5 -0.025
1.5 0.5 -0.025
1.625 0.5 -0.025
1.75 0.5 -0.025
1.875 0.5 -0.025
2 0.5 -0.025
2.125 0.5 -0.025
2.25 0.5 -0.025
2.375 0.5 -0.025
2.5 0.5 -0.025
2.625 0.5 -0.025
2.75 0.5 -0.025
2.875 0.5 -0.025
3 0.5 -0.025
3.125 0.5 -0.025
3.25 0.5 -0.025
3.375 0.5 -0.025
3.5 0.5 -0.025
3.625 0.5 -0.025
3.75 0.5 -0.025
3.875 0.5 -0.025
4 0.5 -0.025
0 0.625 -0.025
0.125 0.625 -0.025
0.25 0.625 -0.025
0.375 0.625 -0.025
0.5 0.625 -0.025
0.625 0.625 -0.025
0.75 0.625 -0.025
0.875 0.625 -0.025
1 0.625 -0.025
1.125 0.625 -0.025
1.25 0.625 -0.025
1.375 0.625 -0.025
1.5 0.625 -0.025
1.625 0.625 -0.025
1.75 0.625 -0.025
1.875 0.625 -0.025
2 0.625 -0.025
2.125 0.625 -0.025
2.25 0.625 -0.025
2.375 0.625 -0.025
2.5 0.625 -0.025
2.625 0.625 -0.025
2.75 0.625 -0.025
2.875 0.625 -0.025
3 0.625 -0.025
3.125 0.625 -0.025
3.25 0.625 -0.025
3.375 0.625 -0.025
3.5 0.625 -0.025
3.625 0.625 -0.025
3.75 0.625 -0.025
3.875 0.625 -0.025
4 0.625 -0.025
0 0.75 -0.025
0.125 0.75 -0.025
0.25 0.75 -0.025
0.375 0.75 -0.025
0.5 0.75 -0.025
0.625 0.75 -0.025
0.75 0.75 -0.025
0.875 0.75 -0.025
1 0.75 -0.025
1.125 0.75 -0.025
1.25 0.75 -0.025
1.375 0.75 -0.025
1.5 0.75 -0.025
1.625 0.75 -0.025
1.75 0.75 -0.025
1.875 0.75 -0.025
2 0.75 -0.025
2.125 0.75 -0.025
2.25 0.75 -0.025
2.375 0.75 -0.025
2.5 0.75 -0.025
2.625 0.75 -0.025
2.75 0.75 -0.025
2.875 0.75 -0.025
3 0.75 -0.025
3.125 0.75 -0.025
3.25 0.75 -0.025
3.375 0.75 -0.025
3.5 0.75 -0.025
3.625 0.75 -0.025
3.75 0.75 -0.025
3.875 0.75 -0.025
4 0.75 -0.025
0 0.875 -0.025
0.125 0.875 -0.025
0.25 0.875 -0.025
0.375 0.875 -0.025
0.5 0.875 -0.025
0.625 0.875 -0.025
0.75 0.875 -0.025
0.875 0.875 -0.025
1 0.875 -0.025
1.125 0.875 -0.025
1.25 0.875 -0.025
1.375 0.875 -0.025
1.5 0.875 -0.025
1.625 0.875 -0.025
1.75 0.875 -0.025
1.875 0.875 -0.025
2 0.875 -0.025
2.125 0.875 -0.025
2.25 0.875 -0.025
2.375 0.875 -0.025
2.5 0.875 -0.025
2.625 0.875 -0.025
2.75 0.875 -0.025
2.875 0.875 -0.025
3 0.875 -0.025
3.125 0.875 -0.025
3.25 0.875 -0.025
3.375 0.875 -0.025
3.5 0.875 -0.025
3.625 0.875 -0.025
3.75 0.875 -0.025
3.875 0.875 -0.025
4 0.875 -0.025
0 1 -0.025
0.125 1 -0.025
0.25 1 -0.025
0.375 1 -0.025
0.5 1 -0.025
0.625 1 -0.025
0.75 1 -0.025
0.875 1 -0.025
1 1 -0.025
1.125 1 -0.025
1.25 1 -0.025
1.375 1 -0.025
1.5 1 -0.025
1.625 1 -0.025
1.75 1 -0.025
1.875 1 -0.025
2 1 -0.025
2.125 1 -0.025
2.25 1 -0.025
2.375 1 -0.025
2.5 1 -0.025
2.625 1 -0.025
2.75 1 -0.025
2.875 1 -0.025
3 1 -0.025
3.125 1 -0.025
3.25 1 -0.025
3.375 1 -0.025
3.5 1 -0.025
3.625 1 -0.025
3.75 1 -0.025
3.875 1 -0.025
4 1 -0.025
0 0 0.1
0.125 0 0.1
0.25 0 0.1
0.375 0 0.1
0.5 0 0.1
0.625 0 0.1
0.75 0 0.1
0.875 0 0.1
1 0 0.1
1.125 0 0.1
1.25 0 0.1
1.375 0 0.1
1.5 0 0.1
1.625 0 0.1
1.75 0 0.1
1.875 0 0.1
2 0 0.1
2.125 0 0.1
2.25 0 0.1
2.375 0 0.1
2.5 0 0.1
2.625 0 0.1
2.75 0 0.1
2.875 0 0.1
3 0 0.1
3.125 0 0.1
3.25 0 0.1
3.375 0 0.1
3.5 0 0.1
3.625 0 0.1
3.75 0 0.1
3.875 0 0.1
4 0 0.1
0 0.125 0.1
0.125 0.125 0.1
0.25 0.125 0.1
0.375 0.125 0.1
0.5 0.125 0.1
0.625 0.125 0.1
0.75 0.125 0.1
0.875 0.125 0.1
1 0.125 0.1
1.125 0.125 0.1
1.25 0.125 0.1
1.375 0.125 0.1
1.5 0.125 0.1
1.625 0.125 0.1
1.75 0.125 0.1
1.875 0.125 0.1
2 0.125 0.1
2.125 0.125 0.1
2.25 0.125 0.1
2.375 0.125 0.1
2.5 0.125 0.1
2.625 0.125 0.1
2.75 0.125 0.1
2.875 0.125 0.1
3 0.125 0.1
3.125 0.125 0.1
3.25 0.125 0.1
3.375 0.125 0.1
3.5 0.125 0.1
3.625 0.125 0.1
3.75 0.125 0.1
3.875 0.125 0.1
4 0.125 0.1
0 0.25 0.1
0.125 0.25 0.1
0.25 0.25 0.1
0.375 0.25 0.1
0.5 0.25 0.1
0.625 0.25 0.1
0.75 0.25 0.1
0.875 0.25 0.1
1 0.25 0.1
1.125 0.25 0.1
1.25 0.25 0.1
1.375 0.25 0.1
1.5 0.25 0.1
1.625 0.25 0.1
1.75 0.25 0.1
1.875 0.25 0.1
2 0.25 0.1
2.125 0.25 0.1
2.25 0.25 0.1
2.375 0.25 0.1
2.5 0.25 0.1
2.625 0.25 0.1
2.75 0.25 0.1
2.875 0.25 0.1
3 0.25 0.1
3.125 0.25 0.1
3.25 0.25 0.1
3.375 0.25 0.1
3.5 0.25 0.1
3.625 0.25 0.1
3.75 0.25 0.1
3.875 0.25 0.1
4 0.25 0.1
0 0.375 0.1
0.125 0.375 0.1
0.25 0.375 0.1
0.375 0.375 0.1
0.5 0.375 0.1
0.625 0.375 0.1
0.75 0.375 0.1
0.875 0.375 0.1
1 0.375 0.1
1.125 0.375 0.1
1.25 0.375 0.1
1.375 0.375 0.1
1.5 0.375 0.1
1.625 0.375 0.1
1.75 0.375 0.1
1.875 0.375 0.1
2 0.375 0.1
2.125 0.375 0.1
2.25 0.375 0.1
2.375 0.375 0.1
2.5 0.375 0.1
2.625 0.375 0.1
2.75 0.375 0.1
2.875 0.375 0.1
3 0.375 0.1
3.125 0.375 0.1
3.25 0.375 0.1
3.375 0.375 0.1
3.5 0.375 0.1
3.625 0.375 0.1
3.75 0.375 0.1
3.875 0.375 0.1
4 0.375 0.1
0 0.5 0.1
0.125 0.5 0.1
0.25 0.5 0.1
0.375 0.5 0.1
0.5 0.5 0.1
0.625 0.5 0.1
0.75 0.5 0.1
0.875 0.5 0.1
1 0.5 0.1
1.125 0.5 0.1
1.25 0.5 0.1
1.375 0.5 0.1
1.5 0.5 0.1
1.625 0.5 0.1
1.75 0.5 0.1
1.875 0.5 0.1
2 0.5 0.1
2.125 0.5 0.1
2.25 0.5 0.1
2.375 0.5 0.1
2.5 0.5 0.1
2.625 0.5 0.1
2.75 0.5 0.1
2.875 0.5 0.1
3 0.5 0.1
3.125 0.5 0.1
3.25 0.5 0.1
3.375 0.5 0.1
3.5 0.5 0.1
3.625 0.5 0.1
3.75 0.5 0.1
3.875 0.5 0.1
4 0.5 0.1
0 0.625 0.1
0.125 0.625 0.1
0.25 0.625 0.1
0.375 0.625 0.1
0.5 0.625 0.1
0.625 0.625 0.1
0.75 0.625 0.1
0.875 0.625 0.1
1 0.625 0.1
1.125 0.625 0.1
1.25 0.625 0.1
1.375 0.625 0.1
1.5 0.625 0.1
1.625 0.625 0.1
1.75 0.625 0.1
1.875 0.625 0.1
2 0.625 0.1
2.125 0.625 0.1
2.25 0.625 0.1
2.375 0.625 0.1
2.5 0.625 0.1
2.625 0.625 0.1
2.75 0.625 0.1
2.875 0.625 0.1
3 0.625 0.1
3.125 0.625 0.1
3.25 0.625 0.1
3.375 0.625 0.1
3.5 0.625 0.1
3.625 0.625 0.1
3.75 0.625 0.1
3.875 0.625 0.1
4 0.625 0.1
0 0.75 0.1
0.125 0.75 0.1
0.25 0.75 0.1
0.375 0.75 0.1
0.5 0.75 0.1
0.625 0.75 0.1
0.75 0.75 0.1
0.875 0.75 0.1
1 0.75 0.1
1.125 0.75 0.1
1.25 0.75 0.1
1.375 0.75 0.1
1.5 0.75 0.1
1.625 0.75 0.1
1.75 0.75 0.1
1.875 0.75 0.1
2 0.75 0.1
2.125 0.75 0.1
2.25 0.75 0.1
2.375 0.75 0.1
2.5 0.75 0.1
2.625 0.75 0.1
2.75 0.75 0.1
2.875 0.75 0.1
3 0.75 0.1
3.125 0.75 0.1
3.25 0.75 0.1
3.375 0.75 0.1
3.5 0.75 0.1
3.625 0.75 0.1
3.75 0.75 0.1
3.875 0.75 0.1
4 0.75 0.1
0 0.875 0.1
0.125 0.875 0.1
0.25 0.875 0.1
0.375 0.875 0.1
0.5 0.875 0.1
0.625 0.875 0.1
0.75 0.875 0.1
0.875 0.875 0.1
1 0.875 0.1
1.125 0.875 0.1
1.25 0.875 0.1
1.375 0.875 0.1
1.5 0.875 0.1
1.625 0.875 0.1
1.75 0.875 0.1
1.875 0.875 0.1
2 0.875 0.1
2.125 0.875 0.1
2.25 0.875 0.1
2.375 0.875 0.1
2.5 0.875 0.1
2.625 0.875 0.1
2.75 0.875 0.1
2.875 0.875 0.1
3 0.875 0.1
3.125 0.875 0.1
3.25 0.875 0.1
3.375 0.875 0.1
3.5 0.875 0.1
3.625 0.875 0.1
3.75 0.875 0.1
3.875 0.875 0.1
4 0.875 0.1
0 1 0.1
0.125 1 0.1
0.25 1 0.1
0.375 1 0.1
0.5 1 0.1
0.625 1 0.1
0.75 1 0.1
0.875 1 0.1
1 1 0.1
1.125 1 0.1
1.25 1 0.1
1.375 1 0.1
1.5 1 0.1
1.625 1 0.1
1.75 1 0.1
1.875 1 0.1
2 1 0.1
2.125 1 0.1
2.25 1 0.1
2.375 1 0.1
2.5 1 0.1
2.625 1 0.1
2.75 1 0.1
2.875 1 0.1
3 1 0.1
3.125 1 0.1
3.25 1 0.1
3.375 1 0.1
3.5 1 0.1
3.625 1 0.1
3.75 1 0.1
3.875 1 0.1
4 1 0.1
0 0 0.225
0.125 0 0.225
0.25 0 0.225
0.375 0 0.225
0.5 0 0.225
0.625 0 0.225
0.75 0 0.225
0.875 0 0.225
1 0 0.225
1.125 0 0.225
1.25 0 0.225
1.375 0 0.225
1.5 0 0.225
1.625 0 0.225
1.75 0 0.225
1.875 0 0.225
2 0 0.225
2.125 0 0.225
2.25 0 0.225
2.375 0 0.225
2.5 0 0.225
2.625 0 0.225
2.75 0 0.225
2.875 0 0.225
3 0 0.225
3.125 0 0.225
3.25 0 0.225
3.375 0 0.225
3.5 0 0.225
3.625 0 0.225
3.75 0 0.225
3.875 0 0.225
4 0 0.225
0 0.125 0.225
0.125 0.125 0.225
0.25 0.125 0.225
0.375 0.125 0.225
0.5 0.125 0.225
0.625 0.125 0.225
0.75 0.125 0.225
0.875 0.125 0.225
1 0.125 0.225
1.125 0.125 0.225
1.25 0.125 0.225
1.375 0.125 0.225
1.5 0.125 0.225
1.625 0.125 0.225
1.75 0.125 0.225
1.875 0.125 0.225
2 0.125 0.225
2.125 0.125 0.225
2.25 0.125 0.225
2.375 0.125 0.225
2.5 0.125 0.225
2.625 0.125 0.225
2.75 0.125 0.225
2.875 0.125 0.225
3 0.125 0.225
3.125 0.125 0.225
3.25 0.125 0.225
3.375 0.125 0.225
3.5 0.125 0.225
3.625 0.125 0.225
3.75 0.125 0.225
3.875 0.125 0.225
4 0.125 0.225
0 0.25 0.225
0.125 0.25 0.225
0.25 0.25 0.225
0.375 0.25 0.225
0.5 0.25 0.225
0.625 0.25 0.225
0.75 0.25 0.225
0.875 0.25 0.225
1 0.25 0.225
1.125 0.25 0.225
1.25 0.25 0.225
1.375 0.25 0.225
1.5 0.25 0.225
1.625 0.25 0.225
1.75 0.25 0.225
1.875 0.25 0.225
2 0.25 0.225
2.125 0.25 0.225
2.25 0.25 0.225
2.375 0.25 0.225
2.5 0.25 0.225
2.625 0.25 0.225
2.75 0.25 0.225
2.875 0.25 0.225
3 0.25 0.225
3.125 0.25 0.225
3.25 0.25 0.225
3.375 0.25 0.225
3.5 0.25 0.225
3.625 0.25 0.225
3.75 0.25 0.225
3.875 0.25 0.225
4 0.25 0.225
0 0.375 0.225
0.125 0.375 0.225
0.25 0.375 0.225
0.375 0.375 0.225
0.5 0.375 0.225
0.625 0.375 0.225
0.75 0.375 0.225
0.875 0.375 0.225
1 0.375 0.225
1.125 0.375 0.225
1.25 0.375 0.225
1.375 0.375 0.225
1.5 0.375 0.225
1.625 0.375 0.225
1.75 0.375 0.225
1.875 0.375 0.225
2 0.375 0.225
2.125 0.375 0.225
2.25 0.375 0.225
2.375 0.375 0.225
2.5 0.375 0.225
2.625 0.375 0.225
2.75 0.375 0.225
2.875 0.375 0.225
3 0.375 0.225
3.125 0.375 0.225
3.25 0.375 0.225
3.375 0.375 0.225
3.5 0.375 0.225
3.625 0.375 0.225
3.75 0.375 0.225
3.875 0.375 0.225
4 0.375 0.225
0 0.5 0.225
0.125 0.5 0.225
0.25 0.5 0.225
0.375 0.5 0.225
0.5 0.5 0.225
0.625 0.5 0.225
0.75 0.5 0.225
0.875 0.5 0.225
1 0.5 0.225
1.125 0.5 0.225
1.25 0.5 0.225
1.375 0.5 0.225
1.5 0.5 0.225
1.625 0.5 0.225
1.75 0.5 0.225
1.875 0.5 0.225
2 0.5 0.225
2.125 0.5 0.225
2.25 0.5 0.225
2.375 0.5 0.225
2.5 0.5 0.225
2.625 0.5 0.225
2.75 0.5 0.225
2.875 0.5 0.225
3 0.5 0.225
3.125 0.5 0.225
3.25 0.5 0.225
3.375 0.5 0.225
3.5 0.5 0.225
3.625 0.5 0.225
3.75 0.5 0.225
3.875 0.5 0.225
4 0.5 0.225
0 0.625 0.225
0.125 0.625 0.225
0.25 0.625 0.225
0.375 0.625 0.225
0.5 0.625 0.225
0.625 0.625 0.225
0.75 0.625 0.225
0.875 0.625 0.225
1 0.625 0.225
1.125 0.625 0.225
1.25 0.625 0.225
1.375 0.625 0.225
1.5 0.625 0.225
1.625 0.625 0.225
1.75 0.625 0.225
1.875 0.625 0.225
2 0.625 0.225
2.125 0.625 0.225
2.25 0.625 0.225
2.375 0.625 0.225
2.5 0.625 0.225
2.625 0.625 0.225
2.75 0.625 0.225
2.875 0.625 0.225
3 0.625 0.225
3.125 0.625 0.225
3.25 0.625 0.225
3.375 0.625 0.225
3.5 0.625 0.225
3.625 0.625 0.225
3.75 0.625 0.225
3.875 0.625 0.225
4 0.625 0.225
0 0.75 0.225
0.125 0.75 0.225
0.25 0.75 0.225
0.375 0.75 0.225
0.5 0.75 0.225
0.625 0.75 0.225
0.75 0.75 0.225
0.875 0.75 0.225
1 0.75 0.225
1.125 0.75 0.225
1.25 0.75 0.225
1.375 0.75 0.225
1.5 0.75 0.225
1.625 0.75 0.225
1.75 0.75 0.225
1.875 0.75 0.225
2 0.75 0.225
2.125 0.75 0.225
2.25 0.75 0.225
2.375 0.75 0.225
2.5 0.75 0.225
2.625 0.75 0.225
2.75 0.75 0.225
2.875 0.75 0.225
3 0.75 0.225
3.125 0.75 0.225
3.25 0.75 0.225
3.375 0.75 0.225
3.5 0.75 0.225
3.625 0.75 0.225
3.75 0.75 0.225
3.875 0.75 0.225
4 0.75 0.225
0 0.875 0.225
0.125 0.875 0.225
0.25 0.875 0.225
0.375 0.875 0.225
0.5 0.875 0.225
0.625 0.875 0.225
0.75 0.875 0.225
0.875 0.875 0.225
1 0.875 0.225
1.125 0.875 0.225
1.25 0.875 0.225
1.375 0.875 0.225
1.5 0.875 0.225
1.625 0.875 0.225
1.75 0.875 0.225
1.875 0.875 0.225
2 0.875 0.225
2.125 0.875 0.225
2.25 0.875 0.225
2.375 0.875 0.225
2.5 0.875 0.225
2.625 0.875 0.225
2.75 0.875 0.225
2.875 0.875 0.225
3 0.875 0.225
3.125 0.875 0.225
3.25 0.875 0.225
3.375 0.875 0.225
3.5 0.875 0.225
3.625 0.875 0.225
3.75 0.875 0.225
3.875 0.875 0.225
4 0.875 0.225
0 1 0.225
0.125 1 0.225
0.25 1 0.225
0.375 1 0.225
0.5 1 0.225
0.625 1 0.225
0.75 1 0.225
0.875 1 0.225
1 1 0.225
1.125 1 0.225
1.25 1 0.225
1.375 1 0.225
1.5 1 0.225
1.625 1 0.225
1.75 1 0.225
1.875 1 0.225
2 1 0.225
2.125 1 0.225
2.25 1 0.225
2.375 1 0.225
2.5 1 0.225
2.625 1 0.225
2.75 1 0.225
2.875 1 0.225
3 1 0.225
3.125 1 0.225
3.25 1 0.225
3.375 1 0.225
3.5 1 0.225
3.625 1 0.225
3.75 1 0.225
3.875 1 0.225
4 1 0.225
0 0 0.35
0.125 0 0.35
0.25 0 0.35
0.375 0 0.35
0.5 0 0.35
0.625 0 0.35
0.75 0 0.35
0.875 0 0.35
1 0 0.35
1.125 0 0.35
1.25 0 0.35
1.375 0 0.35
1.5 0 0.35
1.625 0 0.35
1.75 0 0.35
1.875 0 0.35
2 0 0.35
2.125 0 0.35
2.25 0 0.35
2.375 0 0.35
2.5 0 0.35
2.625 0 0.35
2.75 0 0.35
2.875 0 0.35
3 0 0.35
3.125 0 0.35
3.25 0 0.35
3.375 0 0.35
3.5 0 0.35
3.625 0 0.35
3.75 0 0.35
3.875 0 0.35
4 0 0.35
0 0.125 0.35
0.125 0.125 0.35
0.25 0.125 0.35
0.375 0.125 0.35
0.5 0.125 0.35
0.625 0.125 0.35
0.75 0.125 0.35
0.875 0.125 0.35
1 0.125 0.35
1.125 0.125 0.35
1.25 0.125 0.35
1.375 0.125 0.35
1.5 0.125 0.35
1.625 0.125 0.35
1.75 0.125 0.35
1.875 0.125 0.35
2 0.125 0.35
2.125 0.125 0.35
2.25 0.125 0.35
2.375 0.125 0.35
2.5 0.125 0.35
2.625 0.125 0.35
2.75 0.125 0.35
2.875 0.125 0.35
3 0.125 0.35
3.125 0.125 0.35
3.25 0.125 0.35
3.375 0.125 0.35
3.5 0.125 0.35
3.625 0.125 0.35
3.75 0.125 0.35
3.875 0.125 0.35
4 0.125 0.35
0 0.25 0.35
0.125 0.25 0.35
0.25 0.25 0.35
0.375 0.25 0.35
0.5 0.25 0.35
0.625 0.25 0.35
0.75 0.25 0.35
0.875 0.25 0.35
1 0.25 0.35
1.125 0.25 0.35
1.25 0.25 0.35
1.375 0.25 0.35
1.5 0.25 0.35
1.625 0.25 0.35
1.75 0.25 0.35
1.875 0.25 0.35
2 0.25 0.35
2.125 0.25 0.35
2.25 0.25 0.35
2.375 0.25 0.35
2.5 0.25 0.35
2.625 0.25 0.35
2.75 0.25 0.35
2.875 0.25 0.35
3 0.25 0.35
3.125 0.25 0.35
3.25 0.25 0.35
3.375 0.25 0.35
3.5 0.25 0.35
3.625 0.25 0.35
3.75 0.25 0.35
3.875 0.25 0.35
4 0.25 0.35
0 0.375 0.35
0.125 0.375 0.35
0.25 0.375 0.35
0.375 0.375 0.35
0.5 0.375 0.35
0.625 0.375 0.35
0.75 0.375 0.35
0.875 0.375 0.35
1 0.375 0.35
1.125 0.375 0.35
1.25 0.375 0.35
1.375 0.375 0.35
1.5 0.375 0.35
1.625 0.375 0.35
1.75 0.375 0.35
1.875 0.375 0.35
2 0.375 0.35
2.125 0.375 0.35
2.25 0.375 0.35
2.375 0.375 0.35
2.5 0.375 0.35
2.625 0.375 0.35
2.75 0.375 0.35
2.875 0.375 0.35
3 0.375 0.35
3.125 0.375 0.35
3.25 0.375 0.35
3.375 0.375 0.35
3.5 0.375 0.35
3.625 0.375 0.35
3.75 0.375 0.35
3.875 0.375 0.35
4 0.375 0.35
0 0.5 0.35
0.125 0.5 0.35
0.25 0.5 0.35
0.375 0.5 0.35
0.5 0.5 0.35
0.625 0.5 0.35
0.75 0.5 0.35
0.875 0.5 0.35
1 0.5 0.35
1.125 0.5 0.35
1.25 0.5 0.35
1.375 0.5 0.35
1.5 0.5 0.35
1.625 0.5 0.35
1.75 0.5 0.35
1.875 0.5 0.35
2 0.5 0.35
2.125 0.5 0.35
2.25 0.5 0.35
2.375 0.5 0.35
2.5 0.5 0.35
2.625 0.5 0.35
2.75 0.5 0.35
2.875 0.5 0.35
3 0.5 0.35
3.125 0.5 0.35
3.25 0.5 0.35
3.375 0.5 0.35
3.5 0.5 0.35
3.625 0.5 0.35
3.75 0.5 0.35
3.875 0.5 0.35
4 0.5 0.35
0 0.625 0.35
0.125 0.625 0.35
0.25 0.625 0.35
0.375 0.625 0.35
0.5 0.625 0.35
0.625 0.625 0.35
0.75 0.625 0.35
0.875 0.625 0.35
1 0.625 0.35
1.125 0.625 0.35
1.25 0.625 0.35
1.375 0.625 0.35
1.5 0.625 0.35
1.625 0.625 0.35
1.75 0.625 0.35
1.875 0.625 0.35
2 0.625 0.35
2.125 0.625 0.35
2.25 0.625 0.35
2.375 0.625 0.35
2.5 0.625 0.35
2.625 0.625 0.35
2.75 0.625 0.35
2.875 0.625 0.35
3 0.625 0.35
3.125 0.625 0.35
3.25 0.625 0.35
3.375 0.625 0.35
3.5 0.625 0.35
3.625 0.625 0.35
3.75 0.625 0.35
3.875 0.625 0.35
4 0.625 0.35
0 0.75 0.35
0.125 0.75 0.35
0.25 0.75 0.35
0.375 0.75 0.35
0.5 0.75 0.35
0.625 0.75 0.35
0.75 0.75 0.35
0.875 0.75 0.35
1 0.75 0.35
1.125 0.75 0.35
1.25 0.75 0.35
1.375 0.75 0.35
1.5 0.75 0.35
1.625 0.75 0.35
1.75 0.75 0.35
1.875 0.75 0.35
2 0.75 0.35
2.125 0.75 0.35
2.25 0.75 0.35
2.375 0.75 0.35
2.5 0.75 0.35
2.625 0.75 0.35
2.75 0.75 0.35
2.875 0.75 0.35
3 0.75 0.35
3.125 0.75 0.35
3.25 0.75 0.35
3.375 0.75 0.35
3.5 0.75 0.35
3.625 0.75 0.35
3.75 0.75 0.35
3.875 0.75 0.35
4 0.75 0.35
0 0.875 0.35
0.125 0.875 0.35
0.25 0.875 0.35
0.375 0.875 0.35
0.5 0.875 0.35
0.625 0.875 0.35
0.75 0.875 0.35
0.875 0.875 0.35
1 0.875 0.35
1.125 0.875 0.35
1.25 0.875 0.35
1.375 0.875 0.35
1.5 0.875 0.35
1.625 0.875 0.35
1.75 0.875 0.35
1.875 0.875 0.35
2 0.875 0.35
2.125 0.875 0.35
2.25 0.875 0.35
2.375 0.875 0.35
2.5 0.875 0.35
2.625 0.875 0.35
2.75 0.875 0.35
2.875 0.875 0.35
3 0.875 0.35
3.125 0.875 0.35
3.25 0.875 0.35
3.375 0.875 0.35
3.5 0.875 0.35
3.625 0.875 0.35
3.75 0.875 0.35
3.875 0.875 0.35
4 0.875 0.35
0 1 0.35
0.125 1 0.35
0.25 1 0.35
0.375 1 0.35
0.5 1 0.35
0.625 1 0.35
0.75 1 0.35
0.875 1 0.35
1 1 0.35
1.125 1 0.35
1.25 1 0.35
1.375 1 0.35
1.5 1 0.35
1.625 1 0.35
1.75 1 0.35
1.875 1 0.35
2 1 0.35
2.125 1 0.35
2.25 1 0.35
2.375 1 0.35
2.5 1 0.35
2.625 1 0.35
2.75 1 0.35
2.875 1 0.35
3 1 0.35
3.125 1 0.35
3.25 1 0.35
3.375 1 0.35
3.5 1 0.35
3.625 1 0.35
3.75 1 0.35
3.875 1 0.35
4 1 0.35
0 0 0.475
0.125 0 0.475
0.25 0 0.475
0.375 0 0.475
0.5 0 0.475
0.625 0 0.475
0.75 0 0.475
0.875 0 0.475
1 0 0.475
1.125 0 0.475
1.25 0 0.475
1.375 0 0.475
1.5 0 0.475
1.625 0 0.475
1.75 0 0.475
1.875 0 0.475
2 0 0.475
2.125 0 0.475
2.25 0 0.475
2.375 0 0.475
2.5 0 0.475
2.625 0 0.475
2.75 0 0.475
2.875 0 0.475
3 0 0.475
3.125 0 0.475
3.25 0 0.475
3.375 0 0.475
3.5 0 0.475
3.625 0 0.475
3.75 0 0.475
3.875 0 0.475
4 0 0.475
0 0.125 0.475
0.125 0.125 0.475
0.25 0.125 0.475
0.375 0.125 0.475
0.5 0.125 0.475
0.625 0.125 0.475
0.75 0.125 0.475
0.875 0.125 0.475
1 0.125 0.475
1.125 0.125 0.475
1.25 0.125 0.475
1.375 0.125 0.475
1.5 0.125 0.475
1.625 0.125 0.475
1.75 0.125 0.475
1.875 0.125 0.475
2 0.125 0.475
2.125 0.125 0.475
2.25 0.125 0.475
2.375 0.125 0.475
2.5 0.125 0.475
2.625 0.125 0.475
2.75 0.125 0.475
2.875 0.125 0.475
3 0.125 0.475
3.125 0.125 0.475
3.25 0.125 0.475
3.375 0.125 0.475
3.5 0.125 0.475
3.625 0.125 0.475
3.75 0.125 0.475
3.875 0.125 0.475
4 0.125 0.475
0 0.25 0.475
0.125 0.25 0.475
0.25 0.25 0.475
0.375 0.25 0.475
0.5 0.25 0.475
0.625 0.25 0.475
0.75 0.25 0.475
0.875 0.25 0.475
1 0.25 0.475
1.125 0.25 0.475
1.25 0.25 0.475
1.375 0.25 0.475
1.5 0.25 0.475
1.625 0.25 0.475
1.75 0.25 0.475
1.875 0.25 0.475
2 0.25 0.475
2.125 0.25 0.475
2.25 0.25 0.475
2.375 0.25 0.475
2.5 0.25 0.475
2.625 0.25 0.475
2.75 0.25 0.475
2.875 0.25 0.475
3 0.25 0.475
3.125 0.25 0.475
3.25 0.25 0.475
3.375 0.25 0.475
3.5 0.25 0.475
3.625 0.25 0.475
3.75 0.25 0.475
3.875 0.25 0.475
4 0.25 0.475
0 0.375 0.475
0.125 0.375 0.475
0.25 0.375 0.475
0.375 0.375 0.475
0.5 0.375 0.475
0.625 0.375 0.475
0.75 0.375 0.475
0.875 0.375 0.475
1 0.375 0.475
1.125 0.375 0.475
1.25 0.375 0.475
1.375 0.375 0.475
1.5 0.375 0.475
1.625 0.375 0.475
1.75 0.375 0.475
1.875 0.375 0.475
2 0.375 0.475
2.125 0.375 0.475
2.25 0.375 0.475
2.375 0.375 0.475
2.5 0.375 0.475
2.625 0.375 0.475
2.75 0.375 0.475
2.875 0.375 0.475
3 0.375 0.475
3.125 0.375 0.475
3.25 0.375 0.475
3.375 0.375 0.475
3.5 0.375 0.475
3.625 0.375 0.475
3.75 0.375 0.475
3.875 0.375 0.475
4 0.375 0.475
0 0.5 0.475
0.125 0.5 0.475
0.25 0.5 0.475
0.375 0.5 0.475
0.5 0.5 0.475
0.625 0.5 0.475
0.75 0.5 0.475
0.875 0.5 0.475
1 0.5 0.475
1.125 0.5 0.475
1.25 0.5 0.475
1.375 0.5 0.475
1.5 0.5 0.475
1.625 0.5 0.475
1.75 0.5 0.475
1.875 0.5 0.475
2 0.5 0.475
2.125 0.5 0.475
2.25 0.5 0.475
2.375 0.5 0.475
2.5 0.5 0.475
2.625 0.5 0.475
2.75 0.5 0.475
2.875 0.5 0.475
3 0.5 0.475
3.125 0.5 0.475
3.25 0.5 0.475
3.375 0.5 0.475
3.5 0.5 0.475
3.625 0.5 0.475
3.75 0.5 0.475
3.875 0.5 0.475
4 0.5 0.475
0 0.625 0.475
0.125 0.625 0.475
0.25 0.625 0.475
0.375 0.625 0.475
0.5 0.625 0.475
0.625 0.625 0.475
0.75 0.625 0.475
0.875 0.625 0.475
1 0.625 0.475
1.125 0.625 0.475
1.25 0.625 0.475
1.375 0.625 0.475
1.5 0.625 0.475
1.625 0.625 0.475
1.75 0.625 0.475
1.875 0.625 0.475
2 0.625 0.475
2.125 0.625 0.475
2.25 0.625 0.475
2.375 0.625 0.475
2.5 0.625 0.475
2.625 0.625 0.475
2.75 0.625 0.475
2.875 0.625 0.475
3 0.625 0.475
3.125 0.625 0.475
3.25 0.625 0.475
3.375 0.625 0.475
3.5 0.625 0.475
3.625 0.625 0.475
3.75 0.625 0.475
3.875 0.625 0.475
4 0.625 0.475
0 0.75 0.475
0.125 0.75 0.475
0.25 0.75 0.475
0.375 0.75 0.475
0.5 0.75 0.475
0.625 0.75 0.475
0.75 0.75 0.475
0.875 0.75 0.475
1 0.75 0.475
1.125 0.75 0.475
1.25 0.75 0.475
1.375 0.75 0.475
1.5 0.75 0.475
1.625 0.75 0.475
1.75 0.75 0.475
1.875 0.75 0.475
2 0.75 0.475
2.125 0.75 0.475
2.25 0.75 0.475
2.375 0.75 0.475
2.5 0.75 0.475
2.625 0.75 0.475
2.75 0.75 0.475
2.875 0.75 0.475
3 0.75 0.475
3.125 0.75 0.475
3.25 0.75 0.475
3.375 0.75 0.475
3.5 0.75 0.475
3.625 0.75 0.475
3.75 0.75 0.475
3.875 0.75 0.475
4 0.75 0.475
0 0.875 0.475
0.125 0.875 0.475
0.25 0.875 0.475
0.375 0.875 0.475
0.5 0.875 0.475
0.625 0.875 0.475
0.75 0.875 0.475
0.875 0.875 0.475
1 0.875 0.475
1.125 0.875 0.475
1.25 0.875 0.475
1.375 0.875 0.475
1.5 0.875 0.475
1.625 0.875 0.475
1.75 0.875 0.475
1.875 0.875 0.475
2 0.875 0.475
2.125 0.875 0.475
2.25 0.875 0.475
2.375 0.875 0.475
2.5 0.875 0.475
2.625 0.875 0.475
2.75 0.875 0.475
2.875 0.875 0.475
3 0.875 0.475
3.125 0.875 0.475
3.25 0.875 0.475
3.375 0.875 0.475
3.5 0.875 0.475
3.625 0.875 0.475
3.75 0.875 0.475
3.875 0.875 0.475
4 0.875 0.475
0 1 0.475
0.125 1 0.475
0.25 1 0.475
0.375 1 0.475
0.5 1 0.475
0.625 1 0.475
0.75 1 0.475
0.875 1 0.475
1 1 0.475
1.125 1 0.475
1.25 1 0.475
1.375 1 0.475
1.5 1 0.475
1.625 1 0.475
1.75 1 0.475
1.875 1 0.475
2 1 0.475
2.125 1 0.475
2.25 1 0.475
2.375 1 0.475
2.5 1 0.475
2.625 1 0.475
2.75 1 0.475
2.875 1 0.475
3 1 0.475
3.125 1 0.475
3.25 1 0.475
3.375 1 0.475
3.5 1 0.475
3.625 1 0.475
3.75 1 0.475
3.875 1 0.475
4 1 0.475
0 0 0.6
0.125 0 0.6
0.25 0 0.6
0.375 0 0.6
0.5 0 0.6
0.625 0 0.6
0.75 0 0.6
0.875 0 0.6
1 0 0.6
1.125 0 0.6
1.25 0 0.6
1.375 0 0.6
1.5 0 0.6
1.625 0 0.6
1.75 0 0.6
1.875 0 0.6
2 0 0.6
2.125 0 0.6
2.25 0 0.6
2.375 0 0.6
2.5 0 0.6
2.625 0 0.6
2.75 0 0.6
2.875 0 0.6
3 0 0.6
3.125 0 0.6
3.25 0 0.6
3.375 0 0.6
3.5 0 0.6
3.625 0 0.6
3.75 0 0.6
3.875 0 0.6
4 0 0.6
0 0.125 0.6
0.125 0.125 0.6
0.25 0.125 0.6
0.375 0.125 0.6
0.5 0.125 0.6
0.625 0.125 0.6
0.75 0.125 0.6
0.875 0.125 0.6
1 0.125 0.6
1.125 0.125 0.6
1.25 0.125 0.6
1.375 0.125 0.6
1.5 0.125 0.6
1.625 0.125 0.6
1.75 0.125 0.6
1.875 0.125 0.6
2 0.125 0.6
2.125 0.125 0.6
2.25 0.125 0.6
2.375 0.125 0.6
2.5 0.125 0.6
2.625 0.125 0.6
2.75 0.125 0.6
2.875 0.125 0.6
3 0.125 0.6
3.125 0.125 0.6
3.25 0.125 0.6
3.375 0.125 0.6
3.5 0.125 0.6
3.625 0.125 0.6
3.75 0.125 0.6
3.875 0.125 0.6
4 0.125 0.6
0 0.25 0.6
0.125 0.25 0.6
0.25 0.25 0.6
0.375 0.25 0.6
0.5 0.25 0.6
0.625 0.25 0.6
0.75 0.25 0.6
0.875 0.25 0.6
1 0.25 0.6
1.125 0.25 0.6
1.25 0.25 0.6
1.375 0.25 0.6
1.5 0.25 0.6
1.625 0.25 0.6
1.75 0.25 0.6
1.875 0.25 0.6
2 0.25 0.6
2.125 0.25 0.6
2.25 0.25 0.6
2.375 0.25 0.6
2.5 0.25 0.6
2.625 0.25 0.6
2.75 0.25 0.6
2.875 0.25 0.6
3 0.25 0.6
3.125 0.25 0.6
3.25 0.25 0.6
3.375 0.25 0.6
3.5 0.25 0.6
3.625 0.25 0.6
3.75 0.25 0.6
3.875 0.25 0.6
4 0.25 0.6
0 0.375 0.6
0.125 0.375 0.6
0.25 0.375 0.6
0.375 0.375 0.6
0.5 0.375 0.6
0.625 0.375 0.6
0.75 0.375 0.6
0.875 0.375 0.6
1 0.375 0.6
1.125 0.375 0.6
1.25 0.375 0.6
1.375 0.375 0.6
1.5 0.375 0.6
1.625 0.375 0.6
1.75 0.375 0.6
1.875 0.375 0.6
2 0.375 0.6
2.125 0.375 0.6
2.25 0.375 0.6
2.375 0.375 0.6
2.5 0.375 0.6
2.625 0.375 0.6
2.75 0.375 0.6
2.875 0.375 0.6
3 0.375 0.6
3.125 0.375 0.6
3.25 0.375 0.6
3.375 0.375 0.6
3.5 0.375 0.6
3.625 0.375 0.6
3.75 0.375 0.6
3.875 0.375 0.6
4 0.375 0.6
0 0.5 0.6
0.125 0.5 0.6
0.25 0.5 0.6
0.375 0.5 0.6
0.5 0.5 0.6
0.625 0.5 0.6
0.75 0.5 0.6
0.875 0.5 0.6
1 0.5 0.6
1.125 0.5 0.6
1.25 0.5 0.6
1.375 0.5 0.6
1.5 0.5 0.6
1.625 0.5 0.6
1.75 0.5 0.6
1.875 0.5 0.6
2 0.5 0.6
2.125 0.5 0.6
2.25 0.5 0.6
2.375 0.5 0.6
2.5 0.5 0.6
2.625 0.5 0.6
2.75 0.5 0.6
2.875 0.5 0.6
3 0.5 0.6
3.125 0.5 0.6
3.25 0.5 0.6
3.375 0.5 0.6
3.5 0.5 0.6
3.625 0.5 0.6
3.75 0.5 0.6
3.875 0.5 0.6
4 0.5 0.6
0 0.625 0.6
0.125 0.625 0.6
0.25 0.625 0.6
0.375 0.625 0.6
0.5 0.625 0.6
0.625 0.625 0.6
0.75 0.625 0.6
0.875 0.625 0.6
1 0.625 0.6
1.125 0.625 0.6
1.25 0.625 0.6
1.375 0.625 0.6
1.5 0.625 0.6
1.625 0.625 0.6
1.75 0.625 0.6
1.875 0.625 0.6
2 0.625 0.6
2.125 0.625 0.6
2.25 0.625 0.6
2.375 0.625 0.6
2.5 0.625 0.6
2.625 0.625 0.6
2.75 0.625 0.6
2.875 0.625 0.6
3 0.625 0.6
3.125 0.625 0.6
3.25 0.625 0.6
3.375 0.625 0.6
3.5 0.625 0.6
3.625 0.625 0.6
3.75 0.625 0.6
3.875 0.625 0.6
4 0.625 0.6
0 0.75 0.6
0.125 0.75 0.6
0.25 0.75 0.6
0.375 0.75 0.6
0.5 0.75 0.6
0.625 0.75 0.6
0.75 0.75 0.6
0.875 0.75 0.6
1 0.75 0.6
1.125 0.75 0.6
1.25 0.75 0.6
1.375 0.75 0.6
1.5 0.75 0.6
1.625 0.75 0.6
1.75 0.75 0.6
1.875 0.75 0.6
2 0.75 0.6
2.125 0.75 0.6
2.25 0.75 0.6
2.375 0.75 0.6
2.5 0.75 0.6
2.625 0.75 0.6
2.75 0.75 0.6
2.875 0.75 0.6
3 0.75 0.6
3.125 0.75 0.6
3.25 0.75 0.6
3.375 0.75 0.6
3.5 0.75 0.6
3.625 0.75 0.6
3.75 0.75 0.6
3.875 0.75 0.6
4 0.75 0.6
0 0.875 0.6
0.125 0.875 0.6
0.25 0.875 0.6
0.375 0.875 0.6
0.5 0.875 0.6
0.625 0.875 0.6
0.75 0.875 0.6
0.875 0.875 0.6
1 0.875 0.6
1.125 0.875 0.6
1.25 0.875 0.6
1.375 0.875 0.6
1.5 0.875 0.6
1.625 0.875 0.6
1.75 0.875 0.6
1.875 0.875 0.6
2 0.875 0.6
2.125 0.875 0.6
2.25 0.875 0.6
2.375 0.875 0.6
2.5 0.875 0.6
2.625 0.875 0.6
2.75 0.875 0.6
2.875 0.875 0.6
3 0.875 0.6
3.125 0.875 0.6
3.25 0.875 0.6
3.375 0.875 0.6
3.5 0.875 0.6
3.625 0.875 0.6
3.75 0.875 0.6
3.875 0.875 0.6
4 0.875 0.6
0 1 0.6
0.125 1 0.6
0.25 1 0.6
0.375 1 0.6
0.5 1 0.6
0.625 1 0.6
0.75 1 0.6
0.875 1 0.6
1 1 0.6
1.125 1 0.6
1.25 1 0.6
1.375 1 0.6
1.5 1 0.6
1.625 1 0.6
1.75 1 0.6
1.875 1 0.6
2 1 0.6
2.125 1 0.6
2.25 1 0.6
2.375 1 0.6
2.5 1 0.6
2.625 1 0.6
2.75 1 0.6
2.875 1 0.6
3 1 0.6
3.125 1 0.6
3.25 1 0.6
3.375 1 0.6
3.5 1 0.6
3.625 1 0.6
3.75 1 0.6
3.875 1 0.6
4 1 0.6

CELLS 12289 49152
OFFSETS vtktypeint64
0 4 8 12 16 20 24 28 32 36 40 44 48 52 56 60 64 68 72 76 80 84 88 92 96 100 104 108 112 116 120 124 128 132 136 140 144 148 152 156 160 164 168 172 176 180 184 188 192 196 200 204 208 212 216 220 224 228 232 236 240 244 248 252 256 260 264 268 272 276 280 284 288 292 296 300 304 308 312 316 320 324 328 332 336 340 344 348 352 356 360 364 368 372 376 380 384 388 392 396 400 404 408 412 416 420 424 428 432 436 440 444 448 452 456 460 464 468 472 476 480 484 488 492 496 500 504 508 512 516 520 524 528 532 536 540 544 548 552 556 560 564 568 572 576 580 584 588 592 596 600 604 608 612 616 620 624 628 632 636 640 644 648 652 656 660 664 668 672 676 680 684 688 692 696 700 704 708 712 716 720 724 728 732 736 740 744 748 752 756 760 764 768 772 776 780 784 788 792 796 800 804 808 812 816 820 824 828 832 836 840 844 848 852 856 860 864 868 872 876 880 884 888 892 896 900 904 908 912 916 920 924 928 932 936 940 944 948 952 956 960 964 968 972 976 980 984 988 992 996 1000 1004 1008 1012 1016 1020 1024 1028 1032 1036 1040 1044 1048 1052 1056 1060 1064 1068 1072 1076 1080 1084 1088 1092 1096 1100 1104 1108 1112 1116 1120 1124 1128 1132 1136 1140 1144 1148 1152 1156 1160 1164 1168 1172 1176 1180 1184 1188 1192 1196 1200 1204 1208 1212 1216 1220 1224 1228 1232 1236 1240 1244 1248 1252 1256 1260 1264 1268 1272 1276 1280 1284 1288 1292 1296 1300 1304 1308 1312 1316 1320 1324 1328 1332 1336 1340 1344 1348 1352 1356 1360 1364 1368 1372 1376 1380 1384 1388 1392 1396 1400 1404 1408 1412 1416 1420 1424 1428 1432 1436 1440 1444 1448 1452 1456 1460 1464 1468 1472 1476 1480 1484 1488 1492 1496 1500 1504 1508 1512 1516 1520 1524 1528 1532 1536 1540 1544 1548 1552 1556 1560 1564 1568 1572 1576 1580 1584 1588 1592 1596 1600 1604 1608 1612 1616 1620 1624 1628 1632 1636 1640 1644 1648 1652 1656 1660 1664 1668 1672 1676 1680 1684 1688 1692 1696 1700 1704 1708 1712 1716 1720 1724 1728 1732 1736 1740 1744 1748 1752 1756 1760 1764 1768 1772 1776 1780 1784 1788 1792 1796 1800 1804 1808 1812 1816 1820 1824 1828 1832 1836 1840 1844 1848 1852 1856 1860 1864 1868 1872 1876 1880 1884 1888 1892 1896 1900 1904 1908 1912 1916 1920 1924 1928 1932 1936 1940 1944 1948 1952 1956 1960 1964 1968 1972 1976 1980 1984 1988 1992 1996 2000 2004 2008 2012 2016 2020 2024 2028 2032 2036 2040 2044 2048 2052 2056 2060 2064 2068 2072 2076 2080 2084 2088 2092 2096 2100 2104 2108 2112 2116 2120 2124 2128 2132 2136 2140 2144 2148 2152 2156 2160 2164 2168 2172 2176 2180 2184 2188 2192 2196 2200 2204 2208 2212 2216 2220 2224 2228 2232 2236 2240 2244 2248 2252 2256 2260 2264 2268 2272 2276 2280 2284 2288 2292 2296 2300 2304 2308 2312 2316 2320 2324 2328 2332 2336 2340 2344 2348 2352 2356 2360 2364 2368 2372 2376 2380 2384 2388 2392 2396 2400 2404 2408 2412 2416 2420 2424 2428 2432 2436 2440 2444 2448 2452 2456 2460 2464 2468 2472 2476 2480 2484 2488 2492 2496 2500 2504 2508 2512 2516 2520 2524 2528 2532 2536 2540 2544 2548 2552 2556 2560 2564 2568 2572 2576 2580 2584 2588 2592 2596 2600 2604 2608 2612 2616 2620 2624 2628 2632 2636 2640 2644 2648 2652 2656 2660 2664 2668 2672 2676 2680 2684 2688 2692 2696 2700 2704 2708 2712 2716 2720 2724 2728 2732 2736 2740 2744 2748 2752 2756 2760 2764 2768 2772 2776 2780 2784 2788 2792 2796 2800 2804 2808 2812 2816 2820 2824 2828 2832 2836 2840 2844 2848 2852 2856 2860 2864 2868 2872 2876 2880 2884 2888 2892 2896 2900 2904 2908 2912 2916 2920 2924 2928 2932 2936 2940 2944 2948 2952 2956 2960 2964 2968 2972 2976 2980 2984 2988 2992 2996 3000 3004 3008 3012 3016 3020 3024 3028 3032 3036 3040 3044 3048 3052 3056 3060 3064 3068 3072 3076 3080 3084 3088 3092 3096 3100 3104 3108 3112 3116 3120 3124 3128 3132 3136 3140 3144 3148 3152 3156 3160 3164 3168 3172 3176 3180 3184 3188 3192 3196 3200 3204 3208 3212 3216 3220 3224 3228 3232 3236 3240 3244 3248 3252 3256 3260 3264 3268 3272 3276 3280 3284 3288 3292 3296 3300 3304 3308 3312 3316 3320 3324 3328 3332 3336 3340 3344 3348 3352 3356 3360 3364 3368 3372 3376 3380 3384 3388 3392 3396 3400 3404 3408 3412 3416 3420 3424 3428 3432 3436 3440 3444 3448 3452 3456 3460 3464 3468 3472 3476 3480 3484 3488 3492 3496 3500 3504 3508 3512 3516 3520 3524 3528 3532 3536 3540 3544 3548 3552 3556 3560 3564 3568 3572 3576 3580 3584 3588 3592 3596 3600 3604 3608 3612 3616 3620 3624 3628 3632 3636 3640 3644 3648 3652 3656 3660 3664 3668 3672 3676 3680 3684 3688 3692 3696 3700 3704 3708 3712 3716 3720 3724 3728 3732 3736 3740 3744 3748 3752 3756 3760 3764 3768 3772 3776 3780 3784 3788 3792 3796 3800 3804 3808 3812 3816 3820 3824 3828 3832 3836 3840 3844 3848 3852 3856 3860 3864 3868 3872 3876 3880 3884 3888 3892 3896 3900 3904 3908 3912 3916 3920 3924 3928 3932 3936 3940 3944 3948 3952 3956 3960 3964 3968 3972 3976 3980 3984 3988 3992 3996 4000 4004 4008 4012 4016 4020 4024 4028 4032 4036 4040 4044 4048 4052 4056 4060 4064 4068 4072 4076 4080 4084 4088 4092 4096 4100 4104 4108 4112 4116 4120 4124 4128 4132 4136 4140 4144 4148 4152 4156 4160 4164 4168 4172 4176 4180 4184 4188 4192 4196 4200 4204 4208 4212 4216 4220 4224 4228 4232 4236 4240 4244 4248 4252 4256 4260 4264 4268 4272 4276 4280 4284 4288 4292 4296 4300 4304 4308 4312 4316 4320 4324 4328 4332 4336 4340 4344 4348 4352 4356 4360 4364 4368 4372 4376 4380 4384 4388 4392 4396 4400 4404 4408 4412 4416 4420 4424 4428 4432 4436 4440 4444 4448 4452 4456 4460 4464 4468 4472 4476 4480 4484 4488 4492 4496 4500 4504 4508 4512 4516 4520 4524 4528 4532 4536 4540 4544 4548 4552 4556 4560 4564 4568 4572 4576 4580 4584 4588 4592 4596 4600 4604 4608 4612 4616 4620 4624 4628 4632 4636 4640 4644 4648 4652 4656 4660 4664 4668 4672 4676 4680 4684 4688 4692 4696 4700 4704 4708 4712 4716 4720 4724 4728 4732 4736 4740 4744 4748 4752 4756 4760 4764 4768 4772 4776 4780 4784 4788 4792 4796 4800 4804 4808 4812 4816 4820 4824 4828 4832 4836 4840 4844 4848 4852 4856 4860 4864 4868 4872 4876 4880 4884 4888 4892 4896 4900 4904 4908 4912 4916 4920 4924 4928 4932 4936 4940 4944 4948 4952 4956 4960 4964 4968 4972 4976 4980 4984 4988 4992 4996 5000 5004 5008 5012 5016 5020 5024 5028 5032 5036 5040 5044 5048 5052 5056 5060 5064 5068 5072 5076 5080 5084 5088 5092 5096 5100 5104 5108 5112 5116 5120 5124 5128 5132 5136 5140 5144 5148 5152 5156 5160 5164 5168 5172 5176 5180 5184 5188 5192 5196 5200 5204 5208 5212 5216 5220 5224 5228 5232 5236 5240 5244 5248 5252 5256 5260 5264 5268 5272 5276 5280 5284 5288 5292 5296 5300 5304 5308 5312 5316 5320 5324 5328 5332 5336 5340 5344 5348 5352 5356 5360 5364 5368 5372 5376 5380 5384 5388 5392 5396 5400 5404 5408 5412 5416 5420 5424 5428 5432 5436 5440 5444 5448 5452 5456 5460 5464 5468 5472 5476 5480 5484 5488 5492 5496 5500 5504 5508 5512 5516 5520 5524 5528 5532 5536 5540 5544 5548 5552 5556 5560 5564 5568 5572 5576 5580 5584 5588 5592 5596 5600 5604 5608 5612 5616 5620 5624 5628 5632 5636 5640 5644 5648 5652 5656 5660 5664 5668 5672 5676 5680 5684 5688 5692 5696 5700 5704 5708 5712 5716 5720 5724 5728 5732 5736 5740 5744 5748 5752 5756 5760 5764 5768 5772 5776 5780 5784 5788 5792 5796 5800 5804 5808 5812 5816 5820 5824 5828 5832 5836 5840 5844 5848 5852 5856 5860 5864 5868 5872 5876 5880 5884 5888 5892 5896 5900 5904 5908 5912 5916 5920 5924 5928 5932 5936 5940 5944 5948 5952 5956 5960 5964 5968 5972 5976 5980 5984 5988 5992 5996 6000 6004 6008 6012 6016 6020 6024 6028 6032 6036 6040 6044 6048 6052 6056 6060 6064 6068 6072 6076 6080 6084 6088 6092 6096 6100 6104 6108 6112 6116 6120 6124 6128 6132 6136 6140 6144 6148 6152 6156 6160 6164 6168 6172 6176 6180 6184 6188 6192 6196 6200 6204 6208 6212 6216 6220 6224 6228 6232 6236 6240 6244 6248 6252 6256 6260 6264 6268 6272 6276 6280 6284 6288 6292 6296 6300 6304 6308 6312 6316 6320 6324 6328 6332 6336 6340 6344 6348 6352 6356 6360 6364 6368 6372 6376 6380 6384 6388 6392 6396 6400 6404 6408 6412 6416 6420 6424 6428 6432 6436 6440 6444 6448 6452 6456 6460 6464 6468 6472 6476 6480 6484 6488 6492 6496 6500 6504 6508 6512 6516 6520 6524 6528 6532 6536 6540 6544 6548 6552 6556 6560 6564 6568 6572 6576 6580 6584 6588 6592 6596 6600 6604 6608 6612 6616 6620 6624 6628 6632 6636 6640 6644 6648 6652 6656 6660 6664 6668 6672 6676 6680 6684 6688 6692 6696 6700 6704 6708 6712 6716 6720 6724 6728 6732 6736 6740 6744 6748 6752 6756 6760 6764 6768 6772 6776 6780 6784 6788 6792 6796 6800 6804 6808 6812 6816 6820 6824 6828 6832 6836 6840 6844 6848 6852 6856 6860 6864 6868 6872 6876 6880 6884 6888 6892 6896 6900 6904 6908 6912 6916 6920 6924 6928 6932 6936 6940 6944 6948 6952 6956 6960 6964 6968 6972 6976 6980 6984 6988 6992 6996 7000 7004 7008 7012 7016 7020 7024 7028 7032 7036 7040 7044 7048 7052 7056 7060 7064 7068 7072 7076 7080 7084 7088 7092 7096 7100 7104 7108 7112 7116 7120 7124 7128 7132 7136 7140 7144 7148 7152 7156 7160 7164 7168 7172 7176 7180 7184 7188 7192 7196 7200 7204 7208 7212 7216 7220 7224 7228 7232 7236 7240 7244 7248 7252 7256 7260 7264 7268 7272 7276 7280 7284 7288 7292 7296 7300 7304 7308 7312 7316 7320 7324 7328 7332 7336 7340 7344 7348 7352 7356 7360 7364 7368 7372 7376 7380 7384 7388 7392 7396 7400 7404 7408 7412 7416 7420 7424 7428 7432 7436 7440 7444 7448 7452 7456 7460 7464 7468 7472 7476 7480 7484 7488 7492 7496 7500 7504 7508 7512 7516 7520 7524 7528 7532 7536 7540 7544 7548 7552 7556 7560 7564 7568 7572 7576 7580 7584 7588 7592 7596 7600 7604 7608 7612 7616 7620 7624 7628 7632 7636 7640 7644 7648 7652 7656 7660 7664 7668 7672 7676 7680 7684 7688 7692 7696 7700 7704 7708 7712 7716 7720 7724 7728 7732 7736 7740 7744 7748 7752 7756 7760 7764 7768 7772 7776 7780 7784 7788 7792 7796 7800 7804 7808 7812 7816 7820 7824 7828 7832 7836 7840 7844 7848 7852 7856 7860 7864 7868 7872 7876 7880 7884 7888 7892 7896 7900 7904 7908 7912 7916 7920 7924 7928 7932 7936 7940 7944 7948 7952 7956 7960 7964 7968 7972 7976 7980 7984 7988 7992 7996 8000 8004 8008 8012 8016 8020 8024 8028 8032 8036 8040 8044 8048 8052 8056 8060 8064 8068 8072 8076 8080 8084 8088 8092 8096 8100 8104 8108 8112 8116 8120 8124 8128 8132 8136 8140 8144 8148 8152 8156 8160 8164 8168 8172 8176 8180 8184 8188 8192 8196 8200 8204 8208 8212 8216 8220 8224 8228 8232 8236 8240 8244 8248 8252 8256 8260 8264 8268 8272 8276 8280 8284 8288 8292 8296 8300 8304 8308 8312 8316 8320 8324 8328 8332 8336 8340 8344 8348 8352 8356 8360 8364 8368 8372 8376 8380 8384 8388 8392 8396 8400 8404 8408 8412 8416 8420 8424 8428 8432 8436 8440 8444 8448 8452 8456 8460 8464 8468 8472 8476 8480 8484 8488 8492 8496 8500 8504 8508 8512 8516 8520 8524 8528 8532 8536 8540 8544 8548 8552 8556 8560 8564 8568 8572 8576 8580 8584 8588 8592 8596 8600 8604 8608 8612 8616 8620 8624 8628 8632 8636 8640 8644 8648 8652 8656 8660 8664 8668 8672 8676 8680 8684 8688 8692 8696 8700 8704 8708 8712 8716 8720 8724 8728 8732 8736 8740 8744 8748 8752 8756 8760 8764 8768 8772 8776 8780 8784 8788 8792 8796 8800 8804 8808 8812 8816 8820 8824 8828 8832 8836 8840 8844 8848 8852 8856 8860 8864 8868 8872 8876 8880 8884 8888 8892 8896 8900 8904 8908 8912 8916 8920 8924 8928 8932 8936 8940 8944 8948 8952 8956 8960 8964 8968 8972 8976 8980 8984 8988 8992 8996 9000 9004 9008 9012 9016 9020 9024 9028 9032 9036 9040 9044 9048 9052 9056 9060 9064 9068 9072 9076 9080 9084 9088 9092 9096 9100 9104 9108 9112 9116 9120 9124 9128 9132 9136 9140 9144 9148 9152 9156 9160 9164 9168 9172 9176 9180 9184 9188 9192 9196 9200 9204 9208 9212 9216 9220 9224 9228 9232 9236 9240 9244 9248 9252 9256 9260 9264 9268 9272 9276 9280 9284 9288 9292 9296 9300 9304 9308 9312 9316 9320 9324 9328 9332 9336 9340 9344 9348 9352 9356 9360 9364 9368 9372 9376 9380 9384 9388 9392 9396 9400 9404 9408 9412 9416 9420 9424 9428 9432 9436 9440 9444 9448 9452 9456 9460 9464 9468 9472 9476 9480 9484 9488 9492 9496 9500 9504 9508 9512 9516 9520 9524 9528 9532 9536 9540 9544 9548 9552 9556 9560 9564 9568 9572 9576 9580 9584 9588 9592 9596 9600 9604 9608 9612 9616 9620 9624 9628 9632 9636 9640 9644 9648 9652 9656 9660 9664 9668 9672 9676 9680 9684 9688 9692 9696 9700 9704 9708 9712 9716 9720 9724 9728 9732 9736 9740 9744 9748 9752 9756 9760 9764 9768 9772 9776 9780 9784 9788 9792 9796 9800 9804 9808 9812 9816 9820 9824 9828 9832 9836 9840 9844 9848 9852 9856 9860 9864 9868 9872 9876 9880 9884 9888 9892 9896 9900 9904 9908 9912 9916 9920 9924 9928 9932 9936 9940 9944 9948 9952 9956 9960 9964 9968 9972 9976 9980 9984 9988 9992 9996 10000 10004 10008 10012 10016 10020 10024 10028 10032 10036 10040 10044 10048 10052 10056 10060 10064 10068 10072 10076 10080 10084 10088 10092 10096 10100 10104 10108 10112 10116 10120 10124 10128 10132 10136 10140 10144 10148 10152 10156 10160 10164 10168 10172 10176 10180 10184 10188 10192 10196 10200 10204 10208 10212 10216 10220 10224 10228 10232 10236 10240 10244 10248 10252 10256 10260 10264 10268 10272 10276 10280 10284 10288 10292 10296 10300 10304 10308 10312 10316 10320 10324 10328 10332 10336 10340 10344 10348 10352 10356 10360 10364 10368 10372 10376 10380 10384 10388 10392 10396 10400 10404 10408 10412 10416 10420 10424 10428 10432 10436 10440 10444 10448 10452 10456 10460 10464 10468 10472 10476 10480 10484 10488 10492 10496 10500 10504 10508 10512 10516 10520 10524 10528 10532 10536 10540 10544 10548 10552 10556 10560 10564 10568 10572 10576 10580 10584 10588 10592 10596 10600 10604 10608 10612 10616 10620 10624 10628 10632 10636 10640 10644 10648 10652 10656 10660 10664 10668 10672 10676 10680 10684 10688 10692 10696 10700 10704 10708 10712 10716 10720 10724 10728 10732 10736 10740 10744 10748 10752 10756 10760 10764 10768 10772 10776 10780 10784 10788 10792 10796 10800 10804 10808 10812 10816 10820 10824 10828 10832 10836 10840 10844 10848 10852 10856 10860 10864 10868 10872 10876 10880 10884 10888 10892 10896 10900 10904 10908 10912 10916 10920 10924 10928 10932 10936 10940 10944 10948 10952 10956 10960 10964 10968 10972 10976 10980 10984 10988 10992 10996 11000 11004 11008 11012 11016 11020 11024 11028 11032 11036 11040 11044 11048 11052 11056 11060 11064 11068 11072 11076 11080 11084 11088 11092 11096 11100 11104 11108 11112 11116 11120 11124 11128 11132 11136 11140 11144 11148 11152 11156 11160 11164 11168 11172 11176 11180 11184 11188 11192 11196 11200 11204 11208 11212 11216 11220 11224 11228 11232 11236 11240 11244 11248 11252 11256 11260 11264 11268 11272 11276 11280 11284 11288 11292 11296 11300 11304 11308 11312 11316 11320 11324 11328 11332 11336 11340 11344 11348 11352 11356 11360 11364 11368 11372 11376 11380 11384 11388 11392 11396 11400 11404 11408 11412 11416 11420 11424 11428 11432 11436 11440 11444 11448 11452 11456 11460 11464 11468 11472 11476 11480 11484 11488 11492 11496 11500 11504 11508 11512 11516 11520 11524 11528 11532 11536 11540 11544 11548 11552 11556 11560 11564 11568 11572 11576 11580 11584 11588 11592 11596 11600 11604 11608 11612 11616 11620 11624 11628 11632 11636 11640 11644 11648 11652 11656 11660 11664 11668 11672 11676 11680 11684 11688 11692 11696 11700 11704 11708 11712 11716 11720 11724 11728 11732 11736 11740 11744 11748 11752 11756 11760 11764 11768 11772 11776 11780 11784 11788 11792 11796 11800 11804 11808 11812 11816 11820 11824 11828 11832 11836 11840 11844 11848 11852 11856 11860 11864 11868 11872 11876 11880 11884 11888 11892 11896 11900 11904 11908 11912 11916 11920 11924 11928 11932 11936 11940 11944 11948 11952 11956 11960 11964 11968 11972 11976 11980 11984 11988 11992 11996 12000 12004 12008 12012 12016 12020 12024 12028 12032 12036 12040 12044 12048 12052 12056 12060 12064 12068 12072 12076 12080 12084 12088 12092 12096 12100 12104 12108 12112 12116 12120 12124 12128 12132 12136 12140 12144 12148 12152 12156 12160 12164 12168 12172 12176 12180 12184 12188 12192 12196 12200 12204 12208 12212 12216 12220 12224 12228 12232 12236 12240 12244 12248 12252 12256 12260 12264 12268 12272 12276 12280 12284 12288 12292 12296 12300 12304 12308 12312 12316 12320 12324 12328 12332 12336 12340 12344 12348 12352 12356 12360 12364 12368 12372 12376 12380 12384 12388 12392 12396 12400 12404 12408 12412 12416 12420 12424 12428 12432 12436 12440 12444 12448 12452 12456 12460 12464 12468 12472 12476 12480 12484 12488 12492 12496 12500 12504 12508 12512 12516 12520 12524 12528 12532 12536 12540 12544 12548 12552 12556 12560 12564 12568 12572 12576 12580 12584 12588 12592 12596 12600 12604 12608 12612 12616 12620 12624 12628 12632 12636 12640 12644 12648 12652 12656 12660 12664 12668 12672 12676 12680 12684 12688 12692 12696 12700 12704 12708 12712 12716 12720 12724 12728 12732 12736 12740 12744 12748 12752 12756 12760 12764 12768 12772 12776 12780 12784 12788 12792 12796 12800 12804 12808 12812 12816 12820 12824 12828 12832 12836 12840 12844 12848 12852 12856 12860 12864 12868 12872 12876 12880 12884 12888 12892 12896 12900 12904 12908 12912 12916 12920 12924 12928 12932 12936 12940 12944 12948 12952 12956 12960 12964 12968 12972 12976 12980 12984 12988 12992 12996 13000 13004 13008 13012 13016 13020 13024 13028 13032 13036 13040 13044 13048 13052 13056 13060 13064 13068 13072 13076 13080 13084 13088 13092 13096 13100 13104 13108 13112 13116 13120 13124 13128 13132 13136 13140 13144 13148 13152 13156 13160 13164 13168 13172 13176 13180 13184 13188 13192 13196 13200 13204 13208 13212 13216 13220 13224 13228 13232 13236 13240 13244 13248 13252 13256 13260 13264 13268 13272 13276 13280 13284 13288 13292 13296 13300 13304 13308 13312 13316 13320 13324 13328 13332 13336 13340 13344 13348 13352 13356 13360 13364 13368 13372 13376 13380 13384 13388 13392 13396 13400 13404 13408 13412 13416 13420 13424 13428 13432 13436 13440 13444 13448 13452 13456 13460 13464 13468 13472 13476 13480 13484 13488 13492 13496 13500 13504 13508 13512 13516 13520 13524 13528 13532 13536 13540 13544 13548 13552 13556 13560 13564 13568 13572 13576 13580 13584 13588 13592 13596 13600 13604 13608 13612 13616 13620 13624 13628 13632 13636 13640 13644 13648 13652 13656 13660 13664 13668 13672 13676 13680 13684 13688 13692 13696 13700 13704 13708 13712 13716 13720 13724 13728 13732 13736 13740 13744 13748 13752 13756 13760 13764 13768 13772 13776 13780 13784 13788 13792 13796 13800 13804 13808 13812 13816 13820 13824 13828 13832 13836 13840 13844 13848 13852 13856 13860 13864 13868 13872 13876 13880 13884 13888 13892 13896 13900 13904 13908 13912 13916 13920 13924 13928 13932 13936 13940 13944 13948 13952 13956 13960 13964 13968 13972 13976 13980 13984 13988 13992 13996 14000 14004 14008 14012 14016 14020 14024 14028 14032 14036 14040 14044 14048 14052 14056 14060 14064 14068 14072 14076 14080 14084 14088 14092 14096 14100 14104 14108 14112 14116 14120 14124 14128 14132 14136 14140 14144 14148 14152 14156 14160 14164 14168 14172 14176 14180 14184 14188 14192 14196 14200 14204 14208 14212 14216 14220 14224 14228 14232 14236 14240 14244 14248 14252 14256 14260 14264 14268 14272 14276 14280 14284 14288 14292 14296 14300 14304 14308 14312 14316 14320 14324 14328 14332 14336 14340 14344 14348 14352 14356 14360 14364 14368 14372 14376 14380 14384 14388 14392 14396 14400 14404 14408 14412 14416 14420 14424 14428 14432 14436 14440 14444 14448 14452 14456 14460 14464 14468 14472 14476 14480 14484 14488 14492 14496 14500 14504 14508 14512 14516 14520 14524 14528 14532 14536 14540 14544 14548 14552 14556 14560 14564 14568 14572 14576 14580 14584 14588 14592 14596 14600 14604 14608 14612 14616 14620 14624 14628 14632 14636 14640 14644 14648 14652 14656 14660 14664 14668 14672 14676 14680 14684 14688 14692 14696 14700 14704 14708 14712 14716 14720 14724 14728 14732 14736 14740 14744 14748 14752 14756 14760 14764 14768 14772 14776 14780 14784 14788 14792 14796 14800 14804 14808 14812 14816 14820 14824 14828 14832 14836 14840 14844 14848 14852 14856 14860 14864 14868 14872 14876 14880 14884 14888 14892 14896 14900 14904 14908 14912 14916 14920 14924 14928 14932 14936 14940 14944 14948 14952 14956 14960 14964 14968 14972 14976 14980 14984 14988 14992 14996 15000 15004 15008 15012 15016 15020 15024 15028 15032 15036 15040 15044 15048 15052 15056 15060 15064 15068 15072 15076 15080 15084 15088 15092 15096 15100 15104 15108 15112 15116 15120 15124 15128 15132 15136 15140 15144 15148 15152 15156 15160 15164 15168 15172 15176 15180 15184 15188 15192 15196 15200 15204 15208 15212 15216 15220 15224 15228 15232 15236 15240 15244 15248 15252 15256 15260 15264 15268 15272 15276 15280 15284 15288 15292 15296 15300 15304 15308 15312 15316 15320 15324 15328 15332 15336 15340 15344 15348 15352 15356 15360 15364 15368 15372 15376 15380 15384 15388 15392 15396 15400 15404 15408 15412 15416 15420 15424 15428 15432 15436 15440 15444 15448 15452 15456 15460 15464 15468 15472 15476 15480 15484 15488 15492 15496 15500 15504 15508 15512 15516 15520 15524 15528 15532 15536 15540 15544 15548 15552 15556 15560 15564 15568 15572 15576 15580 15584 15588 15592 15596 15600 15604 15608 15612 15616 15620 15624 15628 15632 15636 15640 15644 15648 15652 15656 15660 15664 15668 15672 15676 15680 15684 15688 15692 15696 15700 15704 15708 15712 15716 15720 15724 15728 15732 15736 15740 15744 15748 15752 15756 15760 15764 15768 15772 15776 15780 15784 15788 15792 15796 15800 15804 15808 15812 15816 15820 15824 15828 15832 15836 15840 15844 15848 15852 15856 15860 15864 15868 15872 15876 15880 15884 15888 15892 15896 15900 15904 15908 15912 15916 15920 15924 15928 15932 15936 15940 15944 15948 15952 15956 15960 15964 15968 15972 15976 15980 15984 15988 15992 15996 16000 16004 16008 16012 16016 16020 16024 16028 16032 16036 16040 16044 16048 16052 16056 16060 16064 16068 16072 16076 16080 16084 16088 16092 16096 16100 16104 16108 16112 16116 16120 16124 16128 16132 16136 16140 16144 16148 16152 16156 16160 16164 16168 16172 16176 16180 16184 16188 16192 16196 16200 16204 16208 16212 16216 16220 16224 16228 16232 16236 16240 16244 16248 16252 16256 16260 16264 16268 16272 16276 16280 16284 16288 16292 16296 16300 16304 16308 16312 16316 16320 16324 16328 16332 16336 16340 16344 16348 16352 16356 16360 16364 16368 16372 16376 16380 16384 16388 16392 16396 16400 16404 16408 16412 16416 16420 16424 16428 16432 16436 16440 16444 16448 16452 16456 16460 16464 16468 16472 16476 16480 16484 16488 16492 16496 16500 16504 16508 16512 16516 16520 16524 16528 16532 16536 16540 16544 16548 16552 16556 16560 16564 16568 16572 16576 16580 16584 16588 16592 16596 16600 16604 16608 16612 16616 16620 16624 16628 16632 16636 16640 16644 16648 16652 16656 16660 16664 16668 16672 16676 16680 16684 16688 16692 16696 16700 16704 16708 16712 16716 16720 16724 16728 16732 16736 16740 16744 16748 16752 16756 16760 16764 16768 16772 16776 16780 16784 16788 16792 16796 16800 16804 16808 16812 16816 16820 16824 16828 16832 16836 16840 16844 16848 16852 16856 16860 16864 16868 16872 16876 16880 16884 16888 16892 16896 16900 16904 16908 16912 16916 16920 16924 16928 16932 16936 16940 16944 16948 16952 16956 16960 16964 16968 16972 16976 16980 16984 16988 16992 16996 17000 17004 17008 17012 17016 17020 17024 17028 17032 17036 17040 17044 17048 17052 17056 17060 17064 17068 17072 17076 17080 17084 17088 17092 17096 17100 17104 17108 17112 17116 17120 17124 17128 17132 17136 17140 17144 17148 17152 17156 17160 17164 17168 17172 17176 17180 17184 17188 17192 17196 17200 17204 17208 17212 17216 17220 17224 17228 17232 17236 17240 17244 17248 17252 17256 17260 17264 17268 17272 17276 17280 17284 17288 17292 17296 17300 17304 17308 17312 17316 17320 17324 17328 17332 17336 17340 17344 17348 17352 17356 17360 17364 17368 17372 17376 17380 17384 17388 17392 17396 17400 17404 17408 17412 17416 17420 17424 17428 17432 17436 17440 17444 17448 17452 17456 17460 17464 17468 17472 17476 17480 17484 17488 17492 17496 17500 17504 17508 17512 17516 17520 17524 17528 17532 17536 17540 17544 17548 17552 17556 17560 17564 17568 17572 17576 17580 17584 17588 17592 17596 17600 17604 17608 17612 17616 17620 17624 17628 17632 17636 17640 17644 17648 17652 17656 17660 17664 17668 17672 17676 17680 17684 17688 17692 17696 17700 17704 17708 17712 17716 17720 17724 17728 17732 17736 17740 17744 17748 17752 17756 17760 17764 17768 17772 17776 17780 17784 17788 17792 17796 17800 17804 17808 17812 17816 17820 17824 17828 17832 17836 17840 17844 17848 17852 17856 17860 17864 17868 17872 17876 17880 17884 17888 17892 17896 17900 17904 17908 17912 17916 17920 17924 17928 17932 17936 17940 17944 17948 17952 17956 17960 17964 17968 17972 17976 17980 17984 17988 17992 17996 18000 18004 18008 18012 18016 18020 18024 18028 18032 18036 18040 18044 18048 18052 18056 18060 18064 18068 18072 18076 18080 18084 18088 18092 18096 18100 18104 18108 18112 18116 18120 18124 18128 18132 18136 18140 18144 18148 18152 18156 18160 18164 18168 18172 18176 18180 18184 18188 18192 18196 18200 18204 18208 18212 18216 18220 18224 18228 18232 18236 18240 18244 18248 18252 18256 18260 18264 18268 18272 18276 18280 18284 18288 18292 18296 18300 18304 18308 18312 18316 18320 18324 18328 18332 18336 18340 18344 18348 18352 18356 18360 18364 18368 18372 18376 18380 18384 18388 18392 18396 18400 18404 18408 18412 18416 18420 18424 18428 18432 18436 18440 18444 18448 18452 18456 18460 18464 18468 18472 18476 18480 18484 18488 18492 18496 18500 18504 18508 18512 18516 18520 18524 18528 18532 18536 18540 18544 18548 18552 18556 18560 18564 18568 18572 18576 18580 18584 18588 18592 18596 18600 18604 18608 18612 18616 18620 18624 18628 18632 18636 18640 18644 18648 18652 18656 18660 18664 18668 18672 18676 18680 18684 18688 18692 18696 18700 18704 18708 18712 18716 18720 18724 18728 18732 18736 18740 18744 18748 18752 18756 18760 18764 18768 18772 18776 18780 18784 18788 18792 18796 18800 18804 18808 18812 18816 18820 18824 18828 18832 18836 18840 18844 18848 18852 18856 18860 18864 18868 18872 18876 18880 18884 18888 18892 18896 18900 18904 18908 18912 18916 18920 18924 18928 18932 18936 18940 18944 18948 18952 18956 18960 18964 18968 18972 18976 18980 18984 18988 18992 18996 19000 19004 19008 19012 19016 19020 19024 19028 19032 19036 19040 19044 19048 19052 19056 19060 19064 19068 19072 19076 19080 19084 19088 19092 19096 19100 19104 19108 19112 19116 19120 19124 19128 19132 19136 19140 19144 19148 19152 19156 19160 19164 19168 19172 19176 19180 19184 19188 19192 19196 19200 19204 19208 19212 19216 19220 19224 19228 19232 19236 19240 19244 19248 19252 19256 19260 19264 19268 19272 19276 19280 19284 19288 19292 19296 19300 19304 19308 19312 19316 19320 19324 19328 19332 19336 19340 19344 19348 19352 19356 19360 19364 19368 19372 19376 19380 19384 19388 19392 19396 19400 19404 19408 19412 19416 19420 19424 19428 19432 19436 19440 19444 19448 19452 19456 19460 19464 19468 19472 19476 19480 19484 19488 19492 19496 19500 19504 19508 19512 19516 19520 19524 19528 19532 19536 19540 19544 19548 19552 19556 19560 19564 19568 19572 19576 19580 19584 19588 19592 19596 19600 19604 19608 19612 19616 19620 19624 19628 19632 19636 19640 19644 19648 19652 19656 19660 19664 19668 19672 19676 19680 19684 19688 19692 19696 19700 19704 19708 19712 19716 19720 19724 19728 19732 19736 19740 19744 19748 19752 19756 19760 19764 19768 19772 19776 19780 19784 19788 19792 19796 19800 19804 19808 19812 19816 19820 19824 19828 19832 19836 19840 19844 19848 19852 19856 19860 19864 19868 19872 19876 19880 19884 19888 19892 19896 19900 19904 19908 19912 19916 19920 19924 19928 19932 19936 19940 19944 19948 19952 19956 19960 19964 19968 19972 19976 19980 19984 19988 19992 19996 20000 20004 20008 20012 20016 20020 20024 20028 20032 20036 20040 20044 20048 20052 20056 20060 20064 20068 20072 20076 20080 20084 20088 20092 20096 20100 20104 20108 20112 20116 20120 20124 20128 20132 20136 20140 20144 20148 20152 20156 20160 20164 20168 20172 20176 20180 20184 20188 20192 20196 20200 20204 20208 20212 20216 20220 20224 20228 20232 20236 20240 20244 20248 20252 20256 20260 20264 20268 20272 20276 20280 20284 20288 20292 20296 20300 20304 20308 20312 20316 20320 20324 20328 20332 20336 20340 20344 20348 20352 20356 20360 20364 20368 20372 20376 20380 20384 20388 20392 20396 20400 20404 20408 20412 20416 20420 20424 20428 20432 20436 20440 20444 20448 20452 20456 20460 20464 20468 20472 20476 20480 20484 20488 20492 20496 20500 20504 20508 20512 20516 20520 20524 20528 20532 20536 20540 20544 20548 20552 20556 20560 20564 20568 20572 20576 20580 20584 20588 20592 20596 20600 20604 20608 20612 20616 20620 20624 20628 20632 20636 20640 20644 20648 20652 20656 20660 20664 20668 20672 20676 20680 20684 20688 20692 20696 20700 20704 20708 20712 20716 20720 20724 20728 20732 20736 20740 20744 20748 20752 20756 20760 20764 20768 20772 20776 20780 20784 20788 20792 20796 20800 20804 20808 20812 20816 20820 20824 20828 20832 20836 20840 20844 20848 20852 20856 20860 20864 20868 20872 20876 20880 20884 20888 20892 20896 20900 20904 20908 20912 20916 20920 20924 20928 20932 20936 20940 20944 20948 20952 20956 20960 20964 20968 20972 20976 20980 20984 20988 20992 20996 21000 21004 21008 21012 21016 21020 21024 21028 21032 21036 21040 21044 21048 21052 21056 21060 21064 21068 21072 21076 21080 21084 21088 21092 21096 21100 21104 21108 21112 21116 21120 21124 21128 21132 21136 21140 21144 21148 21152 21156 21160 21164 21168 21172 21176 21180 21184 21188 21192 21196 21200 21204 21208 21212 21216 21220 21224 21228 21232 21236 21240 21244 21248 21252 21256 21260 21264 21268 21272 21276 21280 21284 21288 21292 21296 21300 21304 21308 21312 21316 21320 21324 21328 21332 21336 21340 21344 21348 21352 21356 21360 21364 21368 21372 21376 21380 21384 21388 21392 21396 21400 21404 21408 21412 21416 21420 21424 21428 21432 21436 21440 21444 21448 21452 21456 21460 21464 21468 21472 21476 21480 21484 21488 21492 21496 21500 21504 21508 21512 21516 21520 21524 21528 21532 21536 21540 21544 21548 21552 21556 21560 21564 21568 21572 21576 21580 21584 21588 21592 21596 21600 21604 21608 21612 21616 21620 21624 21628 21632 21636 21640 21644 21648 21652 21656 21660 21664 21668 21672 21676 21680 21684 21688 21692 21696 21700 21704 21708 21712 21716 21720 21724 21728 21732 21736 21740 21744 21748 21752 21756 21760 21764 21768 21772 21776 21780 21784 21788 21792 21796 21800 21804 21808 21812 21816 21820 21824 21828 21832 21836 21840 21844 21848 21852 21856 21860 21864 21868 21872 21876 21880 21884 21888 21892 21896 21900 21904 21908 21912 21916 21920 21924 21928 21932 21936 21940 21944 21948 21952 21956 21960 21964 21968 21972 21976 21980 21984 21988 21992 21996 22000 22004 22008 22012 22016 22020 22024 22028 22032 22036 22040 22044 22048 22052 22056 22060 22064 22068 22072 22076 22080 22084 22088 22092 22096 22100 22104 22108 22112 22116 22120 22124 22128 22132 22136 22140 22144 22148 22152 22156 22160 22164 22168 22172 22176 22180 22184 22188 22192 22196 22200 22204 22208 22212 22216 22220 22224 22228 22232 22236 22240 22244 22248 22252 22256 22260 22264 22268 22272 22276 22280 22284 22288 22292 22296 22300 22304 22308 22312 22316 22320 22324 22328 22332 22336 22340 22344 22348 22352 22356 22360 22364 22368 22372 22376 22380 22384 22388 22392 22396 22400 22404 22408 22412 22416 22420 22424 22428 22432 22436 22440 22444 22448 22452 22456 22460 22464 22468 22472 22476 22480 22484 22488 22492 22496 22500 22504 22508 22512 22516 22520 22524 22528 22532 22536 22540 22544 22548 22552 22556 22560 22564 22568 22572 22576 22580 22584 22588 22592 22596 22600 22604 22608 22612 22616 22620 22624 22628 22632 22636 22640 22644 22648 22652 22656 22660 22664 22668 22672 22676 22680 22684 22688 22692 22696 22700 22704 22708 22712 22716 22720 22724 22728 22732 22736 22740 22744 22748 22752 22756 22760 22764 22768 22772 22776 22780 22784 22788 22792 22796 22800 22804 22808 22812 22816 22820 22824 22828 22832 22836 22840 22844 22848 22852 22856 22860 22864 22868 22872 22876 22880 22884 22888 22892 22896 22900 22904 22908 22912 22916 22920 22924 22928 22932 22936 22940 22944 22948 22952 22956 22960 22964 22968 22972 22976 22980 22984 22988 22992 22996 23000 23004 23008 23012 23016 23020 23024 23028 23032 23036 23040 23044 23048 23052 23056 23060 23064 23068 23072 23076 23080 23084 23088 23092 23096 23100 23104 23108 23112 23116 23120 23124 23128 23132 23136 23140 23144 23148 23152 23156 23160 23164 23168 23172 23176 23180 23184 23188 23192 23196 23200 23204 23208 23212 23216 23220 23224 23228 23232 23236 23240 23244 23248 23252 23256 23260 23264 23268 23272 23276 23280 23284 23288 23292 23296 23300 23304 23308 23312 23316 23320 23324 23328 23332 23336 23340 23344 23348 23352 23356 23360 23364 23368 23372 23376 23380 23384 23388 23392 23396 23400 23404 23408 23412 23416 23420 23424 23428 23432 23436 23440 23444 23448 23452 23456 23460 23464 23468 23472 23476 23480 23484 23488 23492 23496 23500 23504 23508 23512 23516 23520 23524 23528 23532 23536 23540 23544 23548 23552 23556 23560 23564 23568 23572 23576 23580 23584 23588 23592 23596 23600 23604 23608 23612 23616 23620 23624 23628 23632 23636 23640 23644 23648 23652 23656 23660 23664 23668 23672 23676 23680 23684 23688 23692 23696 23700 23704 23708 23712 23716 23720 23724 23728 23732 23736 23740 23744 23748 23752 23756 23760 23764 23768 23772 23776 23780 23784 23788 23792 23796 23800 23804 23808 23812 23816 23820 23824 23828 23832 23836 23840 23844 23848 23852 23856 23860 23864 23868 23872 23876 23880 23884 23888 23892 23896 23900 23904 23908 23912 23916 23920 23924 23928 23932 23936 23940 23944 23948 23952 23956 23960 23964 23968 23972 23976 23980 23984 23988 23992 23996 24000 24004 24008 24012 24016 24020 24024 24028 24032 24036 24040 24044 24048 24052 24056 24060 24064 24068 24072 24076 24080 24084 24088 24092 24096 24100 24104 24108 24112 24116 24120 24124 24128 24132 24136 24140 24144 24148 24152 24156 24160 24164 24168 24172 24176 24180 24184 24188 24192 24196 24200 24204 24208 24212 24216 24220 24224 24228 24232 24236 24240 24244 24248 24252 24256 24260 24264 24268 24272 24276 24280 24284 24288 24292 24296 24300 24304 24308 24312 24316 24320 24324 24328 24332 24336 24340 24344 24348 24352 24356 24360 24364 24368 24372 24376 24380 24384 24388 24392 24396 24400 24404 24408 24412 24416 24420 24424 24428 24432 24436 24440 24444 24448 24452 24456 24460 24464 24468 24472 24476 24480 24484 24488 24492 24496 24500 24504 24508 24512 24516 24520 24524 24528 24532 24536 24540 24544 24548 24552 24556 24560 24564 24568 24572 24576 24580 24584 24588 24592 24596 24600 24604 24608 24612 24616 24620 24624 24628 24632 24636 24640 24644 24648 24652 24656 24660 24664 24668 24672 24676 24680 24684 24688 24692 24696 24700 24704 24708 24712 24716 24720 24724 24728 24732 24736 24740 24744 24748 24752 24756 24760 24764 24768 24772 24776 24780 24784 24788 24792 24796 24800 24804 24808 24812 24816 24820 24824 24828 24832 24836 24840 24844 24848 24852 24856 24860 24864 24868 24872 24876 24880 24884 24888 24892 24896 24900 24904 24908 24912 24916 24920 24924 24928 24932 24936 24940 24944 24948 24952 24956 24960 24964 24968 24972 24976 24980 24984 24988 24992 24996 25000 25004 25008 25012 25016 25020 25024 25028 25032 25036 25040 25044 25048 25052 25056 25060 25064 25068 25072 25076 25080 25084 25088 25092 25096 25100 25104 25108 25112 25116 25120 25124 25128 25132 25136 25140 25144 25148 25152 25156 25160 25164 25168 25172 25176 25180 25184 25188 25192 25196 25200 25204 25208 25212 25216 25220 25224 25228 25232 25236 25240 25244 25248 25252 25256 25260 25264 25268 25272 25276 25280 25284 25288 25292 25296 25300 25304 25308 25312 25316 25320 25324 25328 25332 25336 25340 25344 25348 25352 25356 25360 25364 25368 25372 25376 25380 25384 25388 25392 25396 25400 25404 25408 25412 25416 25420 25424 25428 25432 25436 25440 25444 25448 25452 25456 25460 25464 25468 25472 25476 25480 25484 25488 25492 25496 25500 25504 25508 25512 25516 25520 25524 25528 25532 25536 25540 25544 25548 25552 25556 25560 25564 25568 25572 25576 25580 25584 25588 25592 25596 25600 25604 25608 25612 25616 25620 25624 25628 25632 25636 25640 25644 25648 25652 25656 25660 25664 25668 25672 25676 25680 25684 25688 25692 25696 25700 25704 25708 25712 25716 25720 25724 25728 25732 25736 25740 25744 25748 25752 25756 25760 25764 25768 25772 25776 25780 25784 25788 25792 25796 25800 25804 25808 25812 25816 25820 25824 25828 25832 25836 25840 25844 25848 25852 25856 25860 25864 25868 25872 25876 25880 25884 25888 25892 25896 25900 25904 25908 25912 25916 25920 25924 25928 25932 25936 25940 25944 25948 25952 25956 25960 25964 25968 25972 25976 25980 25984 25988 25992 25996 26000 26004 26008 26012 26016 26020 26024 26028 26032 26036 26040 26044 26048 26052 26056 26060 26064 26068 26072 26076 26080 26084 26088 26092 26096 26100 26104 26108 26112 26116 26120 26124 26128 26132 26136 26140 26144 26148 26152 26156 26160 26164 26168 26172 26176 26180 26184 26188 26192 26196 26200 26204 26208 26212 26216 26220 26224 26228 26232 26236 26240 26244 26248 26252 26256 26260 26264 26268 26272 26276 26280 26284 26288 26292 26296 26300 26304 26308 26312 26316 26320 26324 26328 26332 26336 26340 26344 26348 26352 26356 26360 26364 26368 26372 26376 26380 26384 26388 26392 26396 26400 26404 26408 26412 26416 26420 26424 26428 26432 26436 26440 26444 26448 26452 26456 26460 26464 26468 26472 26476 26480 26484 26488 26492 26496 26500 26504 26508 26512 26516 26520 26524 26528 26532 26536 26540 26544 26548 26552 26556 26560 26564 26568 26572 26576 26580 26584 26588 26592 26596 26600 26604 26608 26612 26616 26620 26624 26628 26632 26636 26640 26644 26648 26652 26656 26660 26664 26668 26672 26676 26680 26684 26688 26692 26696 26700 26704 26708 26712 26716 26720 26724 26728 26732 26736 26740 26744 26748 26752 26756 26760 26764 26768 26772 26776 26780 26784 26788 26792 26796 26800 26804 26808 26812 26816 26820 26824 26828 26832 26836 26840 26844 26848 26852 26856 26860 26864 26868 26872 26876 26880 26884 26888 26892 26896 26900 26904 26908 26912 26916 26920 26924 26928 26932 26936 26940 26944 26948 26952 26956 26960 26964 26968 26972 26976 26980 26984 26988 26992 26996 27000 27004 27008 27012 27016 27020 27024 27028 27032 27036 27040 27044 27048 27052 27056 27060 27064 27068 27072 27076 27080 27084 27088 27092 27096 27100 27104 27108 27112 27116 27120 27124 27128 27132 27136 27140 27144 27148 27152 27156 27160 27164 27168 27172 27176 27180 27184 27188 27192 27196 27200 27204 27208 27212 27216 27220 27224 27228 27232 27236 27240 27244 27248 27252 27256 27260 27264 27268 27272 27276 27280 27284 27288 27292 27296 27300 27304 27308 27312 27316 27320 27324 27328 27332 27336 27340 27344 27348 27352 27356 27360 27364 27368 27372 27376 27380 27384 27388 27392 27396 27400 27404 27408 27412 27416 27420 27424 27428 27432 27436 27440 27444 27448 27452 27456 27460 27464 27468 27472 27476 27480 27484 27488 27492 27496 27500 27504 27508 27512 27516 27520 27524 27528 27532 27536 27540 27544 27548 27552 27556 27560 27564 27568 27572 27576 27580 27584 27588 27592 27596 27600 27604 27608 27612 27616 27620 27624 27628 27632 27636 27640 27644 27648 27652 27656 27660 27664 27668 27672 27676 27680 27684 27688 27692 27696 27700 27704 27708 27712 27716 27720 27724 27728 27732 27736 27740 27744 27748 27752 27756 27760 27764 27768 27772 27776 27780 27784 27788 27792 27796 27800 27804 27808 27812 27816 27820 27824 27828 27832 27836 27840 27844 27848 27852 27856 27860 27864 27868 27872 27876 27880 27884 27888 27892 27896 27900 27904 27908 27912 27916 27920 27924 27928 27932 27936 27940 27944 27948 27952 27956 27960 27964 27968 27972 27976 27980 27984 27988 27992 27996 28000 28004 28008 28012 28016 28020 28024 28028 28032 28036 28040 28044 28048 28052 28056 28060 28064 28068 28072 28076 28080 28084 28088 28092 28096 28100 28104 28108 28112 28116 28120 28124 28128 28132 28136 28140 28144 28148 28152 28156 28160 28164 28168 28172 28176 28180 28184 28188 28192 28196 28200 28204 28208 28212 28216 28220 28224 28228 28232 28236 28240 28244 28248 28252 28256 28260 28264 28268 28272 28276 28280 28284 28288 28292 28296 28300 28304 28308 28312 28316 28320 28324 28328 28332 28336 28340 28344 28348 28352 28356 28360 28364 28368 28372 28376 28380 28384 28388 28392 28396 28400 28404 28408 28412 28416 28420 28424 28428 28432 28436 28440 28444 28448 28452 28456 28460 28464 28468 28472 28476 28480 28484 28488 28492 28496 28500 28504 28508 28512 28516 28520 28524 28528 28532 28536 28540 28544 28548 28552 28556 28560 28564 28568 28572 28576 28580 28584 28588 28592 28596 28600 28604 28608 28612 28616 28620 28624 28628 28632 28636 28640 28644 28648 28652 28656 28660 28664 28668 28672 28676 28680 28684 28688 28692 28696 28700 28704 28708 28712 28716 28720 28724 28728 28732 28736 28740 28744 28748 28752 28756 28760 28764 28768 28772 28776 28780 28784 28788 28792 28796 28800 28804 28808 28812 28816 28820 28824 28828 28832 28836 28840 28844 28848 28852 28856 28860 28864 28868 28872 28876 28880 28884 28888 28892 28896 28900 28904 28908 28912 28916 28920 28924 28928 28932 28936 28940 28944 28948 28952 28956 28960 28964 28968 28972 28976 28980 28984 28988 28992 28996 29000 29004 29008 29012 29016 29020 29024 29028 29032 29036 29040 29044 29048 29052 29056 29060 29064 29068 29072 29076 29080 29084 29088 29092 29096 29100 29104 29108 29112 29116 29120 29124 29128 29132 29136 29140 29144 29148 29152 29156 29160 29164 29168 29172 29176 29180 29184 29188 29192 29196 29200 29204 29208 29212 29216 29220 29224 29228 29232 29236 29240 29244 29248 29252 29256 29260 29264 29268 29272 29276 29280 29284 29288 29292 29296 29300 29304 29308 29312 29316 29320 29324 29328 29332 29336 29340 29344 29348 29352 29356 29360 29364 29368 29372 29376 29380 29384 29388 29392 29396 29400 29404 29408 29412 29416 29420 29424 29428 29432 29436 29440 29444 29448 29452 29456 29460 29464 29468 29472 29476 29480 29484 29488 29492 29496 29500 29504 29508 29512 29516 29520 29524 29528 29532 29536 29540 29544 29548 29552 29556 29560 29564 29568 29572 29576 29580 29584 29588 29592 29596 29600 29604 29608 29612 29616 29620 29624 29628 29632 29636 29640 29644 29648 29652 29656 29660 29664 29668 29672 29676 29680 29684 29688 29692 29696 29700 29704 29708 29712 29716 29720 29724 29728 29732 29736 29740 29744 29748 29752 29756 29760 29764 29768 29772 29776 29780 29784 29788 29792 29796 29800 29804 29808 29812 29816 29820 29824 29828 29832 29836 29840 29844 29848 29852 29856 29860 29864 29868 29872 29876 29880 29884 29888 29892 29896 29900 29904 29908 29912 29916 29920 29924 29928 29932 29936 29940 29944 29948 29952 29956 29960 29964 29968 29972 29976 29980 29984 29988 29992 29996 30000 30004 30008 30012 30016 30020 30024 30028 30032 30036 30040 30044 30048 30052 30056 30060 30064 30068 30072 30076 30080 30084 30088 30092 30096 30100 30104 30108 30112 30116 30120 30124 30128 30132 30136 30140 30144 30148 30152 30156 30160 30164 30168 30172 30176 30180 30184 30188 30192 30196 30200 30204 30208 30212 30216 30220 30224 30228 30232 30236 30240 30244 30248 30252 30256 30260 30264 30268 30272 30276 30280 30284 30288 30292 30296 30300 30304 30308 30312 30316 30320 30324 30328 30332 30336 30340 30344 30348 30352 30356 30360 30364 30368 30372 30376 30380 30384 30388 30392 30396 30400 30404 30408 30412 30416 30420 30424 30428 30432 30436 30440 30444 30448 30452 30456 30460 30464 30468 30472 30476 30480 30484 30488 30492 30496 30500 30504 30508 30512 30516 30520 30524 30528 30532 30536 30540 30544 30548 30552 30556 30560 30564 30568 30572 30576 30580 30584 30588 30592 30596 30600 30604 30608 30612 30616 30620 30624 30628 30632 30636 30640 30644 30648 30652 30656 30660 30664 30668 30672 30676 30680 30684 30688 30692 30696 30700 30704 30708 30712 30716 30720 30724 30728 30732 30736 30740 30744 30748 30752 30756 30760 30764 30768 30772 30776 30780 30784 30788 30792 30796 30800 30804 30808 30812 30816 30820 30824 30828 30832 30836 30840 30844 30848 30852 30856 30860 30864 30868 30872 30876 30880 30884 30888 30892 30896 30900 30904 30908 30912 30916 30920 30924 30928 30932 30936 30940 30944 30948 30952 30956 30960 30964 30968 30972 30976 30980 30984 30988 30992 30996 31000 31004 31008 31012 31016 31020 31024 31028 31032 31036 31040 31044 31048 31052 31056 31060 31064 31068 31072 31076 31080 31084 31088 31092 31096 31100 31104 31108 31112 31116 31120 31124 31128 31132 31136 31140 31144 31148 31152 31156 31160 31164 31168 31172 31176 31180 31184 31188 31192 31196 31200 31204 31208 31212 31216 31220 31224 31228 31232 31236 31240 31244 31248 31252 31256 31260 31264 31268 31272 31276 31280 31284 31288 31292 31296 31300 31304 31308 31312 31316 31320 31324 31328 31332 31336 31340 31344 31348 31352 31356 31360 31364 31368 31372 31376 31380 31384 31388 31392 31396 31400 31404 31408 31412 31416 31420 31424 31428 31432 31436 31440 31444 31448 31452 31456 31460 31464 31468 31472 31476 31480 31484 31488 31492 31496 31500 31504 31508 31512 31516 31520 31524 31528 31532 31536 31540 31544 31548 31552 31556 31560 31564 31568 31572 31576 31580 31584 31588 31592 31596 31600 31604 31608 31612 31616 31620 31624 31628 31632 31636 31640 31644 31648 31652 31656 31660 31664 31668 31672 31676 31680 31684 31688 31692 31696 31700 31704 31708 31712 31716 31720 31724 31728 31732 31736 31740 31744 31748 31752 31756 31760 31764 31768 31772 31776 31780 31784 31788 31792 31796 31800 31804 31808 31812 31816 31820 31824 31828 31832 31836 31840 31844 31848 31852 31856 31860 31864 31868 31872 31876 31880 31884 31888 31892 31896 31900 31904 31908 31912 31916 31920 31924 31928 31932 31936 31940 31944 31948 31952 31956 31960 31964 31968 31972 31976 31980 31984 31988 31992 31996 32000 32004 32008 32012 32016 32020 32024 32028 32032 32036 32040 32044 32048 32052 32056 32060 32064 32068 32072 32076 32080 32084 32088 32092 32096 32100 32104 32108 32112 32116 32120 32124 32128 32132 32136 32140 32144 32148 32152 32156 32160 32164 32168 32172 32176 32180 32184 32188 32192 32196 32200 32204 32208 32212 32216 32220 32224 32228 32232 32236 32240 32244 32248 32252 32256 32260 32264 32268 32272 32276 32280 32284 32288 32292 32296 32300 32304 32308 32312 32316 32320 32324 32328 32332 32336 32340 32344 32348 32352 32356 32360 32364 32368 32372 32376 32380 32384 32388 32392 32396 32400 32404 32408 32412 32416 32420 32424 32428 32432 32436 32440 32444 32448 32452 32456 32460 32464 32468 32472 32476 32480 32484 32488 32492 32496 32500 32504 32508 32512 32516 32520 32524 32528 32532 32536 32540 32544 32548 32552 32556 32560 32564 32568 32572 32576 32580 32584 32588 32592 32596 32600 32604 32608 32612 32616 32620 32624 32628 32632 32636 32640 32644 32648 32652 32656 32660 32664 32668 32672 32676 32680 32684 32688 32692 32696 32700 32704 32708 32712 32716 32720 32724 32728 32732 32736 32740 32744 32748 32752 32756 32760 32764 32768 32772 32776 32780 32784 32788 32792 32796 32800 32804 32808 32812 32816 32820 32824 32828 32832 32836 32840 32844 32848 32852 32856 32860 32864 32868 32872 32876 32880 32884 32888 32892 32896 32900 32904 32908 32912 32916 32920 32924 32928 32932 32936 32940 32944 32948 32952 32956 32960 32964 32968 32972 32976 32980 32984 32988 32992 32996 33000 33004 33008 33012 33016 33020 33024 33028 33032 33036 33040 33044 33048 33052 33056 33060 33064 33068 33072 33076 33080 33084 33088 33092 33096 33100 33104 33108 33112 33116 33120 33124 33128 33132 33136 33140 33144 33148 33152 33156 33160 33164 33168 33172 33176 33180 33184 33188 33192 33196 33200 33204 33208 33212 33216 33220 33224 33228 33232 33236 33240 33244 33248 33252 33256 33260 33264 33268 33272 33276 33280 33284 33288 33292 33296 33300 33304 33308 33312 33316 33320 33324 33328 33332 33336 33340 33344 33348 33352 33356 33360 33364 33368 33372 33376 33380 33384 33388 33392 33396 33400 33404 33408 33412 33416 33420 33424 33428 33432 33436 33440 33444 33448 33452 33456 33460 33464 33468 33472 33476 33480 33484 33488 33492 33496 33500 33504 33508 33512 33516 33520 33524 33528 33532 33536 33540 33544 33548 33552 33556 33560 33564 33568 33572 33576 33580 33584 33588 33592 33596 33600 33604 33608 33612 33616 33620 33624 33628 33632 33636 33640 33644 33648 33652 33656 33660 33664 33668 33672 33676 33680 33684 33688 33692 33696 33700 33704 33708 33712 33716 33720 33724 33728 33732 33736 33740 33744 33748 33752 33756 33760 33764 33768 33772 33776 33780 33784 33788 33792 33796 33800 33804 33808 33812 33816 33820 33824 33828 33832 33836 33840 33844 33848 33852 33856 33860 33864 33868 33872 33876 33880 33884 33888 33892 33896 33900 33904 33908 33912 33916 33920 33924 33928 33932 33936 33940 33944 33948 33952 33956 33960 33964 33968 33972 33976 33980 33984 33988 33992 33996 34000 34004 34008 34012 34016 34020 34024 34028 34032 34036 34040 34044 34048 34052 34056 34060 34064 34068 34072 34076 34080 34084 34088 34092 34096 34100 34104 34108 34112 34116 34120 34124 34128 34132 34136 34140 34144 34148 34152 34156 34160 34164 34168 34172 34176 34180 34184 34188 34192 34196 34200 34204 34208 34212 34216 34220 34224 34228 34232 34236 34240 34244 34248 34252 34256 34260 34264 34268 34272 34276 34280 34284 34288 34292 34296 34300 34304 34308 34312 34316 34320 34324 34328 34332 34336 34340 34344 34348 34352 34356 34360 34364 34368 34372 34376 34380 34384 34388 34392 34396 34400 34404 34408 34412 34416 34420 34424 34428 34432 34436 34440 34444 34448 34452 34456 34460 34464 34468 34472 34476 34480 34484 34488 34492 34496 34500 34504 34508 34512 34516 34520 34524 34528 34532 34536 34540 34544 34548 34552 34556 34560 34564 34568 34572 34576 34580 34584 34588 34592 34596 34600 34604 34608 34612 34616 34620 34624 34628 34632 34636 34640 34644 34648 34652 34656 34660 34664 34668 34672 34676 34680 34684 34688 34692 34696 34700 34704 34708 34712 34716 34720 34724 34728 34732 34736 34740 34744 34748 34752 34756 34760 34764 34768 34772 34776 34780 34784 34788 34792 34796 34800 34804 34808 34812 34816 34820 34824 34828 34832 34836 34840 34844 34848 34852 34856 34860 34864 34868 34872 34876 34880 34884 34888 34892 34896 34900 34904 34908 34912 34916 34920 34924 34928 34932 34936 34940 34944 34948 34952 34956 34960 34964 34968 34972 34976 34980 34984 34988 34992 34996 35000 35004 35008 35012 35016 35020 35024 35028 35032 35036 35040 35044 35048 35052 35056 35060 35064 35068 35072 35076 35080 35084 35088 35092 35096 35100 35104 35108 35112 35116 35120 35124 35128 35132 35136 35140 35144 35148 35152 35156 35160 35164 35168 35172 35176 35180 35184 35188 35192 35196 35200 35204 35208 35212 35216 35220 35224 35228 35232 35236 35240 35244 35248 35252 35256 35260 35264 35268 35272 35276 35280 35284 35288 35292 35296 35300 35304 35308 35312 35316 35320 35324 35328 35332 35336 35340 35344 35348 35352 35356 35360 35364 35368 35372 35376 35380 35384 35388 35392 35396 35400 35404 35408 35412 35416 35420 35424 35428 35432 35436 35440 35444 35448 35452 35456 35460 35464 35468 35472 35476 35480 35484 35488 35492 35496 35500 35504 35508 35512 35516 35520 35524 35528 35532 35536 35540 35544 35548 35552 35556 35560 35564 35568 35572 35576 35580 35584 35588 35592 35596 35600 35604 35608 35612 35616 35620 35624 35628 35632 35636 35640 35644 35648 35652 35656 35660 35664 35668 35672 35676 35680 35684 35688 35692 35696 35700 35704 35708 35712 35716 35720 35724 35728 35732 35736 35740 35744 35748 35752 35756 35760 35764 35768 35772 35776 35780 35784 35788 35792 35796 35800 35804 35808 35812 35816 35820 35824 35828 35832 35836 35840 35844 35848 35852 35856 35860 35864 35868 35872 35876 35880 35884 35888 35892 35896 35900 35904 35908 35912 35916 35920 35924 35928 35932 35936 35940 35944 35948 35952 35956 35960 35964 35968 35972 35976 35980 35984 35988 35992 35996 36000 36004 36008 36012 36016 36020 36024 36028 36032 36036 36040 36044 36048 36052 36056 36060 36064 36068 36072 36076 36080 36084 36088 36092 36096 36100 36104 36108 36112 36116 36120 36124 36128 36132 36136 36140 36144 36148 36152 36156 36160 36164 36168 36172 36176 36180 36184 36188 36192 36196 36200 36204 36208 36212 36216 36220 36224 36228 36232 36236 36240 36244 36248 36252 36256 36260 36264 36268 36272 36276 36280 36284 36288 36292 36296 36300 36304 36308 36312 36316 36320 36324 36328 36332 36336 36340 36344 36348 36352 36356 36360 36364 36368 36372 36376 36380 36384 36388 36392 36396 36400 36404 36408 36412 36416 36420 36424 36428 36432 36436 36440 36444 36448 36452 36456 36460 36464 36468 36472 36476 36480 36484 36488 36492 36496 36500 36504 36508 36512 36516 36520 36524 36528 36532 36536 36540 36544 36548 36552 36556 36560 36564 36568 36572 36576 36580 36584 36588 36592 36596 36600 36604 36608 36612 36616 36620 36624 36628 36632 36636 36640 36644 36648 36652 36656 36660 36664 36668 36672 36676 36680 36684 36688 36692 36696 36700 36704 36708 36712 36716 36720 36724 36728 36732 36736 36740 36744 36748 36752 36756 36760 36764 36768 36772 36776 36780 36784 36788 36792 36796 36800 36804 36808 36812 36816 36820 36824 36828 36832 36836 36840 36844 36848 36852 36856 36860 36864 36868 36872 36876 36880 36884 36888 36892 36896 36900 36904 36908 36912 36916 36920 36924 36928 36932 36936 36940 36944 36948 36952 36956 36960 36964 36968 36972 36976 36980 36984 36988 36992 36996 37000 37004 37008 37012 37016 37020 37024 37028 37032 37036 37040 37044 37048 37052 37056 37060 37064 37068 37072 37076 37080 37084 37088 37092 37096 37100 37104 37108 37112 37116 37120 37124 37128 37132 37136 37140 37144 37148 37152 37156 37160 37164 37168 37172 37176 37180 37184 37188 37192 37196 37200 37204 37208 37212 37216 37220 37224 37228 37232 37236 37240 37244 37248 37252 37256 37260 37264 37268 37272 37276 37280 37284 37288 37292 37296 37300 37304 37308 37312 37316 37320 37324 37328 37332 37336 37340 37344 37348 37352 37356 37360 37364 37368 37372 37376 37380 37384 37388 37392 37396 37400 37404 37408 37412 37416 37420 37424 37428 37432 37436 37440 37444 37448 37452 37456 37460 37464 37468 37472 37476 37480 37484 37488 37492 37496 37500 37504 37508 37512 37516 37520 37524 37528 37532 37536 37540 37544 37548 37552 37556 37560 37564 37568 37572 37576 37580 37584 37588 37592 37596 37600 37604 37608 37612 37616 37620 37624 37628 37632 37636 37640 37644 37648 37652 37656 37660 37664 37668 37672 37676 37680 37684 37688 37692 37696 37700 37704 37708 37712 37716 37720 37724 37728 37732 37736 37740 37744 37748 37752 37756 37760 37764 37768 37772 37776 37780 37784 37788 37792 37796 37800 37804 37808 37812 37816 37820 37824 37828 37832 37836 37840 37844 37848 37852 37856 37860 37864 37868 37872 37876 37880 37884 37888 37892 37896 37900 37904 37908 37912 37916 37920 37924 37928 37932 37936 37940 37944 37948 37952 37956 37960 37964 37968 37972 37976 37980 37984 37988 37992 37996 38000 38004 38008 38012 38016 38020 38024 38028 38032 38036 38040 38044 38048 38052 38056 38060 38064 38068 38072 38076 38080 38084 38088 38092 38096 38100 38104 38108 38112 38116 38120 38124 38128 38132 38136 38140 38144 38148 38152 38156 38160 38164 38168 38172 38176 38180 38184 38188 38192 38196 38200 38204 38208 38212 38216 38220 38224 38228 38232 38236 38240 38244 38248 38252 38256 38260 38264 38268 38272 38276 38280 38284 38288 38292 38296 38300 38304 38308 38312 38316 38320 38324 38328 38332 38336 38340 38344 38348 38352 38356 38360 38364 38368 38372 38376 38380 38384 38388 38392 38396 38400 38404 38408 38412 38416 38420 38424 38428 38432 38436 38440 38444 38448 38452 38456 38460 38464 38468 38472 38476 38480 38484 38488 38492 38496 38500 38504 38508 38512 38516 38520 38524 38528 38532 38536 38540 38544 38548 38552 38556 38560 38564 38568 38572 38576 38580 38584 38588 38592 38596 38600 38604 38608 38612 38616 38620 38624 38628 38632 38636 38640 38644 38648 38652 38656 38660 38664 38668 38672 38676 38680 38684 38688 38692 38696 38700 38704 38708 38712 38716 38720 38724 38728 38732 38736 38740 38744 38748 38752 38756 38760 38764 38768 38772 38776 38780 38784 38788 38792 38796 38800 38804 38808 38812 38816 38820 38824 38828 38832 38836 38840 38844 38848 38852 38856 38860 38864 38868 38872 38876 38880 38884 38888 38892 38896 38900 38904 38908 38912 38916 38920 38924 38928 38932 38936 38940 38944 38948 38952 38956 38960 38964 38968 38972 38976 38980 38984 38988 38992 38996 39000 39004 39008 39012 39016 39020 39024 39028 39032 39036 39040 39044 39048 39052 39056 39060 39064 39068 39072 39076 39080 39084 39088 39092 39096 39100 39104 39108 39112 39116 39120 39124 39128 39132 39136 39140 39144 39148 39152 39156 39160 39164 39168 39172 39176 39180 39184 39188 39192 39196 39200 39204 39208 39212 39216 39220 39224 39228 39232 39236 39240 39244 39248 39252 39256 39260 39264 39268 39272 39276 39280 39284 39288 39292 39296 39300 39304 39308 39312 39316 39320 39324 39328 39332 39336 39340 39344 39348 39352 39356 39360 39364 39368 39372 39376 39380 39384 39388 39392 39396 39400 39404 39408 39412 39416 39420 39424 39428 39432 39436 39440 39444 39448 39452 39456 39460 39464 39468 39472 39476 39480 39484 39488 39492 39496 39500 39504 39508 39512 39516 39520 39524 39528 39532 39536 39540 39544 39548 39552 39556 39560 39564 39568 39572 39576 39580 39584 39588 39592 39596 39600 39604 39608 39612 39616 39620 39624 39628 39632 39636 39640 39644 39648 39652 39656 39660 39664 39668 39672 39676 39680 39684 39688 39692 39696 39700 39704 39708 39712 39716 39720 39724 39728 39732 39736 39740 39744 39748 39752 39756 39760 39764 39768 39772 39776 39780 39784 39788 39792 39796 39800 39804 39808 39812 39816 39820 39824 39828 39832 39836 39840 39844 39848 39852 39856 39860 39864 39868 39872 39876 39880 39884 39888 39892 39896 39900 39904 39908 39912 39916 39920 39924 39928 39932 39936 39940 39944 39948 39952 39956 39960 39964 39968 39972 39976 39980 39984 39988 39992 39996 40000 40004 40008 40012 40016 40020 40024 40028 40032 40036 40040 40044 40048 40052 40056 40060 40064 40068 40072 40076 40080 40084 40088 40092 40096 40100 40104 40108 40112 40116 40120 40124 40128 40132 40136 40140 40144 40148 40152 40156 40160 40164 40168 40172 40176 40180 40184 40188 40192 40196 40200 40204 40208 40212 40216 40220 40224 40228 40232 40236 40240 40244 40248 40252 40256 40260 40264 40268 40272 40276 40280 40284 40288 40292 40296 40300 40304 40308 40312 40316 40320 40324 40328 40332 40336 40340 40344 40348 40352 40356 40360 40364 40368 40372 40376 40380 40384 40388 40392 40396 40400 40404 40408 40412 40416 40420 40424 40428 40432 40436 40440 40444 40448 40452 40456 40460 40464 40468 40472 40476 40480 40484 40488 40492 40496 40500 40504 40508 40512 40516 40520 40524 40528 40532 40536 40540 40544 40548 40552 40556 40560 40564 40568 40572 40576 40580 40584 40588 40592 40596 40600 40604 40608 40612 40616 40620 40624 40628 40632 40636 40640 40644 40648 40652 40656 40660 40664 40668 40672 40676 40680 40684 40688 40692 40696 40700 40704 40708 40712 40716 40720 40724 40728 40732 40736 40740 40744 40748 40752 40756 40760 40764 40768 40772 40776 40780 40784 40788 40792 40796 40800 40804 40808 40812 40816 40820 40824 40828 40832 40836 40840 40844 40848 40852 40856 40860 40864 40868 40872 40876 40880 40884 40888 40892 40896 40900 40904 40908 40912 40916 40920 40924 40928 40932 40936 40940 40944 40948 40952 40956 40960 40964 40968 40972 40976 40980 40984 40988 40992 40996 41000 41004 41008 41012 41016 41020 41024 41028 41032 41036 41040 41044 41048 41052 41056 41060 41064 41068 41072 41076 41080 41084 41088 41092 41096 41100 41104 41108 41112 41116 41120 41124 41128 41132 41136 41140 41144 41148 41152 41156 41160 41164 41168 41172 41176 41180 41184 41188 41192 41196 41200 41204 41208 41212 41216 41220 41224 41228 41232 41236 41240 41244 41248 41252 41256 41260 41264 41268 41272 41276 41280 41284 41288 41292 41296 41300 41304 41308 41312 41316 41320 41324 41328 41332 41336 41340 41344 41348 41352 41356 41360 41364 41368 41372 41376 41380 41384 41388 41392 41396 41400 41404 41408 41412 41416 41420 41424 41428 41432 41436 41440 41444 41448 41452 41456 41460 41464 41468 41472 41476 41480 41484 41488 41492 41496 41500 41504 41508 41512 41516 41520 41524 41528 41532 41536 41540 41544 41548 41552 41556 41560 41564 41568 41572 41576 41580 41584 41588 41592 41596 41600 41604 41608 41612 41616 41620 41624 41628 41632 41636 41640 41644 41648 41652 41656 41660 41664 41668 41672 41676 41680 41684 41688 41692 41696 41700 41704 41708 41712 41716 41720 41724 41728 41732 41736 41740 41744 41748 41752 41756 41760 41764 41768 41772 41776 41780 41784 41788 41792 41796 41800 41804 41808 41812 41816 41820 41824 41828 41832 41836 41840 41844 41848 41852 41856 41860 41864 41868 41872 41876 41880 41884 41888 41892 41896 41900 41904 41908 41912 41916 41920 41924 41928 41932 41936 41940 41944 41948 41952 41956 41960 41964 41968 41972 41976 41980 41984 41988 41992 41996 42000 42004 42008 42012 42016 42020 42024 42028 42032 42036 42040 42044 42048 42052 42056 42060 42064 42068 42072 42076 42080 42084 42088 42092 42096 42100 42104 42108 42112 42116 42120 42124 42128 42132 42136 42140 42144 42148 42152 42156 42160 42164 42168 42172 42176 42180 42184 42188 42192 42196 42200 42204 42208 42212 42216 42220 42224 42228 42232 42236 42240 42244 42248 42252 42256 42260 42264 42268 42272 42276 42280 42284 42288 42292 42296 42300 42304 42308 42312 42316 42320 42324 42328 42332 42336 42340 42344 42348 42352 42356 42360 42364 42368 42372 42376 42380 42384 42388 42392 42396 42400 42404 42408 42412 42416 42420 42424 42428 42432 42436 42440 42444 42448 42452 42456 42460 42464 42468 42472 42476 42480 42484 42488 42492 42496 42500 42504 42508 42512 42516 42520 42524 42528 42532 42536 42540 42544 42548 42552 42556 42560 42564 42568 42572 42576 42580 42584 42588 42592 42596 42600 42604 42608 42612 42616 42620 42624 42628 42632 42636 42640 42644 42648 42652 42656 42660 42664 42668 42672 42676 42680 42684 42688 42692 42696 42700 42704 42708 42712 42716 42720 42724 42728 42732 42736 42740 42744 42748 42752 42756 42760 42764 42768 42772 42776 42780 42784 42788 42792 42796 42800 42804 42808 42812 42816 42820 42824 42828 42832 42836 42840 42844 42848 42852 42856 42860 42864 42868 42872 42876 42880 42884 42888 42892 42896 42900 42904 42908 42912 42916 42920 42924 42928 42932 42936 42940 42944 42948 42952 42956 42960 42964 42968 42972 42976 42980 42984 42988 42992 42996 43000 43004 43008 43012 43016 43020 43024 43028 43032 43036 43040 43044 43048 43052 43056 43060 43064 43068 43072 43076 43080 43084 43088 43092 43096 43100 43104 43108 43112 43116 43120 43124 43128 43132 43136 43140 43144 43148 43152 43156 43160 43164 43168 43172 43176 43180 43184 43188 43192 43196 43200 43204 43208 43212 43216 43220 43224 43228 43232 43236 43240 43244 43248 43252 43256 43260 43264 43268 43272 43276 43280 43284 43288 43292 43296 43300 43304 43308 43312 43316 43320 43324 43328 43332 43336 43340 43344 43348 43352 43356 43360 43364 43368 43372 43376 43380 43384 43388 43392 43396 43400 43404 43408 43412 43416 43420 43424 43428 43432 43436 43440 43444 43448 43452 43456 43460 43464 43468 43472 43476 43480 43484 43488 43492 43496 43500 43504 43508 43512 43516 43520 43524 43528 43532 43536 43540 43544 43548 43552 43556 43560 43564 43568 43572 43576 43580 43584 43588 43592 43596 43600 43604 43608 43612 43616 43620 43624 43628 43632 43636 43640 43644 43648 43652 43656 43660 43664 43668 43672 43676 43680 43684 43688 43692 43696 43700 43704 43708 43712 43716 43720 43724 43728 43732 43736 43740 43744 43748 43752 43756 43760 43764 43768 43772 43776 43780 43784 43788 43792 43796 43800 43804 43808 43812 43816 43820 43824 43828 43832 43836 43840 43844 43848 43852 43856 43860 43864 43868 43872 43876 43880 43884 43888 43892 43896 43900 43904 43908 43912 43916 43920 43924 43928 43932 43936 43940 43944 43948 43952 43956 43960 43964 43968 43972 43976 43980 43984 43988 43992 43996 44000 44004 44008 44012 44016 44020 44024 44028 44032 44036 44040 44044 44048 44052 44056 44060 44064 44068 44072 44076 44080 44084 44088 44092 44096 44100 44104 44108 44112 44116 44120 44124 44128 44132 44136 44140 44144 44148 44152 44156 44160 44164 44168 44172 44176 44180 44184 44188 44192 44196 44200 44204 44208 44212 44216 44220 44224 44228 44232 44236 44240 44244 44248 44252 44256 44260 44264 44268 44272 44276 44280 44284 44288 44292 44296 44300 44304 44308 44312 44316 44320 44324 44328 44332 44336 44340 44344 44348 44352 44356 44360 44364 44368 44372 44376 44380 44384 44388 44392 44396 44400 44404 44408 44412 44416 44420 44424 44428 44432 44436 44440 44444 44448 44452 44456 44460 44464 44468 44472 44476 44480 44484 44488 44492 44496 44500 44504 44508 44512 44516 44520 44524 44528 44532 44536 44540 44544 44548 44552 44556 44560 44564 44568 44572 44576 44580 44584 44588 44592 44596 44600 44604 44608 44612 44616 44620 44624 44628 44632 44636 44640 44644 44648 44652 44656 44660 44664 44668 44672 44676 44680 44684 44688 44692 44696 44700 44704 44708 44712 44716 44720 44724 44728 44732 44736 44740 44744 44748 44752 44756 44760 44764 44768 44772 44776 44780 44784 44788 44792 44796 44800 44804 44808 44812 44816 44820 44824 44828 44832 44836 44840 44844 44848 44852 44856 44860 44864 44868 44872 44876 44880 44884 44888 44892 44896 44900 44904 44908 44912 44916 44920 44924 44928 44932 44936 44940 44944 44948 44952 44956 44960 44964 44968 44972 44976 44980 44984 44988 44992 44996 45000 45004 45008 45012 45016 45020 45024 45028 45032 45036 45040 45044 45048 45052 45056 45060 45064 45068 45072 45076 45080 45084 45088 45092 45096 45100 45104 45108 45112 45116 45120 45124 45128 45132 45136 45140 45144 45148 45152 45156 45160 45164 45168 45172 45176 45180 45184 45188 45192 45196 45200 45204 45208 45212 45216 45220 45224 45228 45232 45236 45240 45244 45248 45252 45256 45260 45264 45268 45272 45276 45280 45284 45288 45292 45296 45300 45304 45308 45312 45316 45320 45324 45328 45332 45336 45340 45344 45348 45352 45356 45360 45364 45368 45372 45376 45380 45384 45388 45392 45396 45400 45404 45408 45412 45416 45420 45424 45428 45432 45436 45440 45444 45448 45452 45456 45460 45464 45468 45472 45476 45480 45484 45488 45492 45496 45500 45504 45508 45512 45516 45520 45524 45528 45532 45536 45540 45544 45548 45552 45556 45560 45564 45568 45572 45576 45580 45584 45588 45592 45596 45600 45604 45608 45612 45616 45620 45624 45628 45632 45636 45640 45644 45648 45652 45656 45660 45664 45668 45672 45676 45680 45684 45688 45692 45696 45700 45704 45708 45712 45716 45720 45724 45728 45732 45736 45740 45744 45748 45752 45756 45760 45764 45768 45772 45776 45780 45784 45788 45792 45796 45800 45804 45808 45812 45816 45820 45824 45828 45832 45836 45840 45844 45848 45852 45856 45860 45864 45868 45872 45876 45880 45884 45888 45892 45896 45900 45904 45908 45912 45916 45920 45924 45928 45932 45936 45940 45944 45948 45952 45956 45960 45964 45968 45972 45976 45980 45984 45988 45992 45996 46000 46004 46008 46012 46016 46020 46024 46028 46032 46036 46040 46044 46048 46052 46056 46060 46064 46068 46072 46076 46080 46084 46088 46092 46096 46100 46104 46108 46112 46116 46120 46124 46128 46132 46136 46140 46144 46148 46152 46156 46160 46164 46168 46172 46176 46180 46184 46188 46192 46196 46200 46204 46208 46212 46216 46220 46224 46228 46232 46236 46240 46244 46248 46252 46256 46260 46264 46268 46272 46276 46280 46284 46288 46292 46296 46300 46304 46308 46312 46316 46320 46324 46328 46332 46336 46340 46344 46348 46352 46356 46360 46364 46368 46372 46376 46380 46384 46388 46392 46396 46400 46404 46408 46412 46416 46420 46424 46428 46432 46436 46440 46444 46448 46452 46456 46460 46464 46468 46472 46476 46480 46484 46488 46492 46496 46500 46504 46508 46512 46516 46520 46524 46528 46532 46536 46540 46544 46548 46552 46556 46560 46564 46568 46572 46576 46580 46584 46588 46592 46596 46600 46604 46608 46612 46616 46620 46624 46628 46632 46636 46640 46644 46648 46652 46656 46660 46664 46668 46672 46676 46680 46684 46688 46692 46696 46700 46704 46708 46712 46716 46720 46724 46728 46732 46736 46740 46744 46748 46752 46756 46760 46764 46768 46772 46776 46780 46784 46788 46792 46796 46800 46804 46808 46812 46816 46820 46824 46828 46832 46836 46840 46844 46848 46852 46856 46860 46864 46868 46872 46876 46880 46884 46888 46892 46896 46900 46904 46908 46912 46916 46920 46924 46928 46932 46936 46940 46944 46948 46952 46956 46960 46964 46968 46972 46976 46980 46984 46988 46992 46996 47000 47004 47008 47012 47016 47020 47024 47028 47032 47036 47040 47044 47048 47052 47056 47060 47064 47068 47072 47076 47080 47084 47088 47092 47096 47100 47104 47108 47112 47116 47120 47124 47128 47132 47136 47140 47144 47148 47152 47156 47160 47164 47168 47172 47176 47180 47184 47188 47192 47196 47200 47204 47208 47212 47216 47220 47224 47228 47232 47236 47240 47244 47248 47252 47256 47260 47264 47268 47272 47276 47280 47284 47288 47292 47296 47300 47304 47308 47312 47316 47320 47324 47328 47332 47336 47340 47344 47348 47352 47356 47360 47364 47368 47372 47376 47380 47384 47388 47392 47396 47400 47404 47408 47412 47416 47420 47424 47428 47432 47436 47440 47444 47448 47452 47456 47460 47464 47468 47472 47476 47480 47484 47488 47492 47496 47500 47504 47508 47512 47516 47520 47524 47528 47532 47536 47540 47544 47548 47552 47556 47560 47564 47568 47572 47576 47580 47584 47588 47592 47596 47600 47604 47608 47612 47616 47620 47624 47628 47632 47636 47640 47644 47648 47652 47656 47660 47664 47668 47672 47676 47680 47684 47688 47692 47696 47700 47704 47708 47712 47716 47720 47724 47728 47732 47736 47740 47744 47748 47752 47756 47760 47764 47768 47772 47776 47780 47784 47788 47792 47796 47800 47804 47808 47812 47816 47820 47824 47828 47832 47836 47840 47844 47848 47852 47856 47860 47864 47868 47872 47876 47880 47884 47888 47892 47896 47900 47904 47908 47912 47916 47920 47924 47928 47932 47936 47940 47944 47948 47952 47956 47960 47964 47968 47972 47976 47980 47984 47988 47992 47996 48000 48004 48008 48012 48016 48020 48024 48028 48032 48036 48040 48044 48048 48052 48056 48060 48064 48068 48072 48076 48080 48084 48088 48092 48096 48100 48104 48108 48112 48116 48120 48124 48128 48132 48136 48140 48144 48148 48152 48156 48160 48164 48168 48172 48176 48180 48184 48188 48192 48196 48200 48204 48208 48212 48216 48220 48224 48228 48232 48236 48240 48244 48248 48252 48256 48260 48264 48268 48272 48276 48280 48284 48288 48292 48296 48300 48304 48308 48312 48316 48320 48324 48328 48332 48336 48340 48344 48348 48352 48356 48360 48364 48368 48372 48376 48380 48384 48388 48392 48396 48400 48404 48408 48412 48416 48420 48424 48428 48432 48436 48440 48444 48448 48452 48456 48460 48464 48468 48472 48476 48480 48484 48488 48492 48496 48500 48504 48508 48512 48516 48520 48524 48528 48532 48536 48540 48544 48548 48552 48556 48560 48564 48568 48572 48576 48580 48584 48588 48592 48596 48600 48604 48608 48612 48616 48620 48624 48628 48632 48636 48640 48644 48648 48652 48656 48660 48664 48668 48672 48676 48680 48684 48688 48692 48696 48700 48704 48708 48712 48716 48720 48724 48728 48732 48736 48740 48744 48748 48752 48756 48760 48764 48768 48772 48776 48780 48784 48788 48792 48796 48800 48804 48808 48812 48816 48820 48824 48828 48832 48836 48840 48844 48848 48852 48856 48860 48864 48868 48872 48876 48880 48884 48888 48892 48896 48900 48904 48908 48912 48916 48920 48924 48928 48932 48936 48940 48944 48948 48952 48956 48960 48964 48968 48972 48976 48980 48984 48988 48992 48996 49000 49004 49008 49012 49016 49020 49024 49028 49032 49036 49040 49044 49048 49052 49056 49060 49064 49068 49072 49076 49080 49084 49088 49092 49096 49100 49104 49108 49112 49116 49120 49124 49128 49132 49136 49140 49144 49148 49152 
CONNECTIVITY vtktypeint64
0 33 331 34 
297 331 298 0 
0 33 330 331 
297 331 0 330 
298 0 331 1 
331 0 34 1 
1 34 332 35 
298 332 299 1 
1 34 331 332 
298 332 1 331 
299 1 332 2 
332 1 35 2 
2 35 333 36 
299 333 300 2 
2 35 332 333 
299 333 2 332 
300 2 333 3 
333 2 36 3 
3 36 334 37 
300 334 301 3 
3 36 333 334 
300 334 3 333 
301 3 334 4 
334 3 37 4 
4 37 335 38 
301 335 302 4 
4 37 334 335 
301 335 4 334 
302 4 335 5 
335 4 38 5 
5 38 336 39 
302 336 303 5 
5 38 335 336 
302 336 5 335 
303 5 336 6 
336 5 39 6 
6 39 337 40 
303 337 304 6 
6 39 336 337 
303 337 6 336 
304 6 337 7 
337 6 40 7 
7 40 338 41 
304 338 305 7 
7 40 337 338 
304 338 7 337 
305 7 338 8 
338 7 41 8 
8 41 339 42 
305 339 306 8 
8 41 338 339 
305 339 8 338 
306 8 339 9 
339 8 42 9 
9 42 340 43 
306 340 307 9 
9 42 339 340 
306 340 9 339 
307 9 340 10 
340 9 43 10 
10 43 341 44 
307 341 308 10 
10 43 340 341 
307 341 10 340 
308 10 341 11 
341 10 44 11 
11 44 342 45 
308 342 309 11 
11 44 341 342 
308 342 11 341 
309 11 342 12 
342 11 45 12 
12 45 343 46 
309 343 310 12 
12 45 342 343 
309 343 12 342 
310 12 343 13 
343 12 46 13 
13 46 344 47 
310 344 311 13 
13 46 343 344 
310 344 13 343 
311 13 344 14 
344 13 47 14 
14 47 345 48 
311 345 312 14 
14 47 344 345 
311 345 14 344 
312 14 345 15 
345 14 48 15 
15 48 346 49 
312 346 313 15 
15 48 345 346 
312 346 15 345 
313 15 346 16 
346 15 49 16 
16 49 347 50 
313 347 314 16 
16 49 346 347 
313 347 16 346 
314 16 347 17 
347 16 50 17 
17 50 348 51 
314 348 315 17 
17 50 347 348 
314 348 17 347 
315 17 348 18 
348 17 51 18 
18 51 349 52 
315 349 316 18 
18 51 348 349 
315 349 18 348 
316 18 349 19 
349 18 52 19 
19 52 350 53 
316 350 317 19 
19 52 349 350 
316 350 19 349 
317 19 350 20 
350 19 53 20 
20 53 351 54 
317 351 318 20 
20 53 350 351 
317 351 20 350 
318 20 351 21 
351 20 54 21 
21 54 352 55 
318 352 319 21 
21 54 351 352 
318 352 21 351 
319 21 352 22 
352 21 55 22 
22 55 353 56 
319 353 320 22 
22 55 352 353 
319 353 22 352 
320 22 353 23 
353 22 56 23 
23 56 354 57 
320 354 321 23 
23 56 353 354 
320 354 23 353 
321 23 354 24 
354 23 57 24 
24 57 355 58 
321 355 322 24 
24 57 354 355 
321 355 24 354 
322 24 355 25 
355 24 58 25 
25 58 356 59 
322 356 323 25 
25 58 355 356 
322 356 25 355 
323 25 356 26 
356 25 59 26 
26 59 357 60 
323 357 324 26 
26 59 356 357 
323 357 26 356 
324 26 357 27 
357 26 60 27 
27 60 358 61 
324 358 325 27 
27 60 357 358 
324 358 27 357 
325 27 358 28 
358 27 61 28 
28 61 359 62 
325 359 326 28 
28 61 358 359 
325 359 28 358 
326 28 359 29 
359 28 62 29 
29 62 360 63 
326 360 327 29 
29 62 359 360 
326 360 29 359 
327 29 360 30 
360 29 63 30 
30 63 361 64 
327 361 328 30 
30 63 360 361 
327 361 30 360 
328 30 361 31 
361 30 64 31 
31 64 362 65 
328 362 329 31 
31 64 361 362 
328 362 31 361 
329 31 362 32 
362 31 65 32 
33 66 364 67 
330 364 331 33 
33 66 363 364 
330 364 33 363 
331 33 364 34 
364 33 67 34 
34 67 365 68 
331 365 332 34 
34 67 364 365 
331 365 34 364 
332 34 365 35 
365 34 68 35 
35 68 366 69 
332 366 333 35 
35 68 365 366 
332 366 35 365 
333 35 366 36 
366 35 69 36 
36 69 367 70 
333 367 334 36 
36 69 366 367 
333 367 36 366 
334 36 367 37 
367 36 70 37 
37 70 368 71 
334 368 335 37 
37 70 367 368 
334 368 37 367 
335 37 368 38 
368 37 71 38 
38 71 369 72 
335 369 336 38 
38 71 368 369 
335 369 38 368 
336 38 369 39 
369 38 72 39 
39 72 370 73 
336 370 337 39 
39 72 369 370 
336 370 39 369 
337 39 370 40 
370 39 73 40 
40 73 371 74 
337 371 338 40 
40 73 370 371 
337 371 40 370 
338 40 371 41 
371 40 74 41 
41 74 372 75 
338 372 339 41 
41 74 371 372 
338 372 41 371 
339 41 372 42 
372 41 75 42 
42 75 373 76 
339 373 340 42 
42 75 372 373 
339 373 42 372 
340 42 373 43 
373 42 76 43 
43 76 374 77 
340 374 341 43 
43 76 373 374 
340 374 43 373 
341 43 374 44 
374 43 77 44 
44 77 375 78 
341 375 342 44 
44 77 374 375 
341 375 44 374 
342 44 375 45 
375 44 78 45 
45 78 376 79 
342 376 343 45 
45 78 375 376 
342 376 45 375 
343 45 376 46 
376 45 79 46 
46 79 377 80 
343 377 344 46 
46 79 376 377 
343 377 46 376 
344 46 377 47 
377 46 80 47 
47 80 378 81 
344 378 345 47 
47 80 377 378 
344 378 47 377 
345 47 378 48 
378 47 81 48 
48 81 379 82 
345 379 346 48 
48 81 378 379 
345 379 48 378 
346 48 379 49 
379 48 82 49 
49 82 380 83 
346 380 347 49 
49 82 379 380 
346 380 49 379 
347 49 380 50 
380 49 83 50 
50 83 381 84 
347 381 348 50 
50 83 380 381 
347 381 50 380 
348 50 381 51 
381 50 84 51 
51 84 382 85 
348 382 349 51 
51 84 381 382 
348 382 51 381 
349 51 382 52 
382 51 85 52 
52 85 383 86 
349 383 350 52 
52 85 382 383 
349 383 52 382 
350 52 383 53 
383 52 86 53 
53 86 384 87 
350 384 351 53 
53 86 383 384 
350 384 53 383 
351 53 384 54 
384 53 87 54 
54 87 385 88 
351 385 352 54 
54 87 384 385 
351 385 54 384 
352 54 385 55 
385 54 88 55 
55 88 386 89 
352 386 353 55 
55 88 385 386 
352 386 55 385 
353 55 386 56 
386 55 89 56 
56 89 387 90 
353 387 354 56 
56 89 386 387 
353 387 56 386 
354 56 387 57 
387 56 90 57 
57 90 388 91 
354 388 355 57 
57 90 387 388 
354 388 57 387 
355 57 388 58 
388 57 91 58 
58 91 389 92 
355 389 356 58 
58 91 388 389 
355 389 58 388 
356 58 389 59 
389 58 92 59 
59 92 390 93 
356 390 357 59 
59 92 389 390 
356 390 59 389 
357 59 390 60 
390 59 93 60 
60 93 391 94 
357 391 358 60 
60 93 390 391 
357 391 60 390 
358 60 391 61 
391 60 94 61 
61 94 392 95 
358 392 359 61 
61 94 391 392 
358 392 61 391 
359 61 392 62 
392 61 95 62 
62 95 393 96 
359 393 360 62 
62 95 392 393 
359 393 62 392 
360 62 393 63 
393 62 96 63 
63 96 394 97 
360 394 361 63 
63 96 393 394 
360 394 63 393 
361 63 394 64 
394 63 97 64 
64 97 395 98 
361 395 362 64 
64 97 394 395 
361 395 64 394 
362 64 395 65 
395 64 98 65 
66 99 397 100 
363 397 364 66 
66 99 396 397 
363 397 66 396 
364 66 397 67 
397 66 100 67 
67 100 398 101 
364 398 365 67 
67 100 397 398 
364 398 67 397 
365 67 398 68 
398 67 101 68 
68 101 399 102 
365 399 366 68 
68 101 398 399 
365 399 68 398 
366 68 399 69 
399 68 102 69 
69 102 400 103 
366 400 367 69 
69 102 399 400 
366 400 69 399 
367 69 400 70 
400 69 103 70 
70 103 401 104 
367 401 368 70 
70 103 400 401 
367 401 70 400 
368 70 401 71 
401 70 104 71 
71 104 402 105 
368 402 369 71 
71 104 401 402 
368 402 71 401 
369 71 402 72 
402 71 105 72 
72 105 403 106 
369 403 370 72 
72 105 402 403 
369 403 72 402 
370 72 403 73 
403 72 106 73 
73 106 404 107 
370 404 371 73 
73 106 403 404 
370 404 73 403 
371 73 404 74 
404 73 107 74 
74 107 405 108 
371 405 372 74 
74 107 404 405 
371 405 74 404 
372 74 405 75 
405 74 108 75 
75 108 406 109 
372 406 373 75 
75 108 405 406 
372 406 75 405 
373 75 406 76 
406 75 109 76 
76 109 407 110 
373 407 374 76 
76 109 406 407 
373 407 76 406 
374 76 407 77 
407 76 110 77 
77 110 408 111 
374 408 375 77 
77 110 407 408 
374 408 77 407 
375 77 408 78 
408 77 111 78 
78 111 409 112 
375 409 376 78 
78 111 408 409 
375 409 78 408 
376 78 409 79 
409 78 112 79 
79 112 410 113 
376 410 377 79 
79 112 409 410 
376 410 79 409 
377 79 410 80 
410 79 113 80 
80 113 411 114 
377 411 378 80 
80 113 410 411 
377 411 80 410 
378 80 411 81 
411 80 114 81 
81 114 412 115 
378 412 379 81 
81 114 411 412 
378 412 81 411 
379 81 412 82 
412 81 115 82 
82 115 413 116 
379 413 380 82 
82 115 412 413 
379 413 82 412 
380 82 413 83 
413 82 116 83 
83 116 414 117 
380 414 381 83 
83 116 413 414 
380 414 83 413 
381 83 414 84 
414 83 117 84 
84 117 415 118 
381 415 382 84 
84 117 414 415 
381 415 84 414 
382 84 415 85 
415 84 118 85 
85 118 416 119 
382 416 383 85 
85 118 415 416 
382 416 85 415 
383 85 416 86 
416 85 119 86 
86 119 417 120 
383 417 384 86 
86 119 416 417 
383 417 86 416 
384 86 417 87 
417 86 120 87 
87 120 418 121 
384 418 385 87 
87 120 417 418 
384 418 87 417 
385 87 418 88 
418 87 121 88 
88 121 419 122 
385 419 386 88 
88 121 418 419 
385 419 88 418 
386 88 419 89 
419 88 122 89 
89 122 420 123 
386 420 387 89 
89 122 419 420 
386 420 89 419 
387 89 420 90 
420 89 123 90 
90 123 421 124 
387 421 388 90 
90 123 420 421 
387 421 90 420 
388 90 421 91 
421 90 124 91 
91 124 422 125 
388 422 389 91 
91 124 421 422 
388 422 91 421 
389 91 422 92 
422 91 125 92 
92 125 423 126 
389 423 390 92 
92 125 422 423 
389 423 92 422 
390 92 423 93 
423 92 126 93 
93 126 424 127 
390 424 391 93 
93 126 423 424 
390 424 93 423 
391 93 424 94 
424 93 127 94 
94 127 425 128 
391 425 392 94 
94 127 424 425 
391 425 94 424 
392 94 425 95 
425 94 128 95 
95 128 426 129 
392 426 393 95 
95 128 425 426 
392 426 95 425 
393 95 426 96 
426 95 129 96 
96 129 427 130 
393 427 394 96 
96 129 426 427 
393 427 96 426 
394 96 427 97 
427 96 130 97 
97 130 428 131 
394 428 395 97 
97 130 427 428 
394 428 97 427 
395 97 428 98 
428 97 131 98 
99 132 430 133 
396 430 397 99 
99 132 429 430 
396 430 99 429 
397 99 430 100 
430 99 133 100 
100 133 431 134 
397 431 398 100 
100 133 430 431 
397 431 100 430 
398 100 431 101 
431 100 134 101 
101 134 432 135 
398 432 399 101 
101 134 431 432 
398 432 101 431 
399 101 432 102 
432 101 135 102 
102 135 433 136 
399 433 400 102 
102 135 432 433 
399 433 102 432 
400 102 433 103 
433 102 136 103 
103 136 434 137 
400 434 401 103 
103 136 433 434 
400 434 103 433 
401 103 434 104 
434 103 137 104 
104 137 435 138 
401 435 402 104 
104 137 434 435 
401 435 104 434 
402 104 435 105 
435 104 138 105 
105 138 436 139 
402 436 403 105 
105 138 435 436 
402 436 105 435 
403 105 436 106 
436 105 139 106 
106 139 437 140 
403 437 404 106 
106 139 436 437 
403 437 106 436 
404 106 437 107 
437 106 140 107 
107 140 438 141 
404 438 405 107 
107 140 437 438 
404 438 107 437 
405 107 438 108 
438 107 141 108 
108 141 439 142 
405 439 406 108 
108 141 438 439 
405 439 108 438 
406 108 439 109 
439 108 142 109 
109 142 440 143 
406 440 407 109 
109 142 439 440 
406 440 109 439 
407 109 440 110 
440 109 143 110 
110 143 441 144 
407 441 408 110 
110 143 440 441 
407 441 110 440 
408 110 441 111 
441 110 144 111 
111 144 442 145 
408 442 409 111 
111 144 441 442 
408 442 111 441 
409 111 442 112 
442 111 145 112 
112 145 443 146 
409 443 410 112 
112 145 442 443 
409 443 112 442 
410 112 443 113 
443 112 146 113 
113 146 444 147 
410 444 411 113 
113 146 443 444 
410 444 113 443 
411 113 444 114 
444 113 147 114 
114 147 445 148 
411 445 412 114 
114 147 444 445 
411 445 114 444 
412 114 445 115 
445 114 148 115 
115 148 446 149 
412 446 413 115 
115 148 445 446 
412 446 115 445 
413 115 446 116 
446 115 149 116 
116 149 447 150 
413 447 414 116 
116 149 446 447 
413 447 116 446 
414 116 447 117 
447 116 150 117 
117 150 448 151 
414 448 415 117 
117 150 447 448 
414 448 117 447 
415 117 448 118 
448 117 151 118 
118 151 449 152 
415 449 416 118 
118 151 448 449 
415 449 118 448 
416 118 449 119 
449 118 152 119 
119 152 450 153 
416 450 417 119 
119 152 449 450 
416 450 119 449 
417 119 450 120 
450 119 153 120 
120 153 451 154 
417 451 418 120 
120 153 450 451 
417 451 120 450 
418 120 451 121 
451 120 154 121 
121 154 452 155 
418 452 419 121 
121 154 451 452 
418 452 121 451 
419 121 452 122 
452 121 155 122 
122 155 453 156 
419 453 420 122 
122 155 452 453 
419 453 122 452 
420 122 453 123 
453 122 156 123 
123 156 454 157 
420 454 421 123 
123 156 453 454 
420 454 123 453 
421 123 454 124 
454 123 157 124 
124 157 455 158 
421 455 422 124 
124 157 454 455 
421 455 124 454 
422 124 455 125 
455 124 158 125 
125 158 456 159 
422 456 423 125 
125 158 455 456 
422 456 125 455 
423 125 456 126 
456 125 159 126 
126 159 457 160 
423 457 424 126 
126 159 456 457 
423 457 126 456 
424 126 457 127 
457 126 160 127 
127 160 458 161 
424 458 425 127 
127 160 457 458 
424 458 127 457 
425 127 458 128 
458 127 161 128 
128 161 459 162 
425 459 426 128 
128 161 458 459 
425 459 128 458 
426 128 459 129 
459 128 162 129 
129 162 460 163 
426 460 427 129 
129 162 459 460 
426 460 129 459 
427 129 460 130 
460 129 163 130 
130 163 461 164 
427 461 428 130 
130 163 460 461 
427 461 130 460 
428 130 461 131 
461 130 164 131 
132 165 463 166 
429 463 430 132 
132 165 462 463 
429 463 132 462 
430 132 463 133 
463 132 166 133 
133 166 464 167 
430 464 431 133 
133 166 463 464 
430 464 133 463 
431 133 464 134 
464 133 167 134 
134 167 465 168 
431 465 432 134 
134 167 464 465 
431 465 134 464 
432 134 465 135 
465 134 168 135 
135 168 466 169 
432 466 433 135 
135 168 465 466 
432 466 135 465 
433 135 466 136 
466 135 169 136 
136 169 467 170 
433 467 434 136 
136 169 466 467 
433 467 136 466 
434 136 467 137 
467 136 170 137 
137 170 468 171 
434 468 435 137 
137 170 467 468 
434 468 137 467 
435 137 468 138 
468 137 171 138 
138 171 469 172 
435 469 436 138 
138 171 468 469 
435 469 138 468 
436 138 469 139 
469 138 172 139 
139 172 470 173 
436 470 437 139 
139 172 469 470 
436 470 139 469 
437 139 470 140 
470 139 173 140 
140 173 471 174 
437 471 438 140 
140 173 470 471 
437 471 140 470 
438 140 471 141 
471 140 174 141 
141 174 472 175 
438 472 439 141 
141 174 471 472 
438 472 141 471 
439 141 472 142 
472 141 175 142 
142 175 473 176 
439 473 440 142 
142 175 472 473 
439 473 142 472 
440 142 473 143 
473 142 176 143 
143 176 474 177 
440 474 441 143 
143 176 473 474 
440 474 143 473 
441 143 474 144 
474 143 177 144 
144 177 475 178 
441 475 442 144 
144 177 474 475 
441 475 144 474 
442 144 475 145 
475 144 178 145 
145 178 476 179 
442 476 443 145 
145 178 475 476 
442 476 145 475 
443 145 476 146 
476 145 179 146 
146 179 477 180 
443 477 444 146 
146 179 476 477 
443 477 146 476 
444 146 477 147 
477 146 180 147 
147 180 478 181 
444 478 445 147 
147 180 477 478 
444 478 147 477 
445 147 478 148 
478 147 181 148 
148 181 479 182 
445 479 446 148 
148 181 478 479 
445 479 148 478 
446 148 479 149 
479 148 182 149 
149 182 480 183 
446 480 447 149 
149 182 479 480 
446 480 149 479 
447 149 480 150 
480 149 183 150 
150 183 481 184 
447 481 448 150 
150 183 480 481 
447 481 150 480 
448 150 481 151 
481 150 184 151 
151 184 482 185 
448 482 449 151 
151 184 481 482 
448 482 151 481 
449 151 482 152 
482 151 185 152 
152 185 483 186 
449 483 450 152 
152 185 482 483 
449 483 152 482 
450 152 483 153 
483 152 186 153 
153 186 484 187 
450 484 451 153 
153 186 483 484 
450 484 153 483 
451 153 484 154 
484 153 187 154 
154 187 485 188 
451 485 452 154 
154 187 484 485 
451 485 154 484 
452 154 485 155 
485 154 188 155 
155 188 486 189 
452 486 453 155 
155 188 485 486 
452 486 155 485 
453 155 486 156 
486 155 189 156 
156 189 487 190 
453 487 454 156 
156 189 486 487 
453 487 156 486 
454 156 487 157 
487 156 190 157 
157 190 488 191 
454 488 455 157 
157 190 487 488 
454 488 157 487 
455 157 488 158 
488 157 191 158 
158 191 489 192 
455 489 456 158 
158 191 488 489 
455 489 158 488 
456 158 489 159 
489 158 192 159 
159 192 490 193 
456 490 457 159 
159 192 489 490 
456 490 159 489 
457 159 490 160 
490 159 193 160 
160 193 491 194 
457 491 458 160 
160 193 490 491 
457 491 160 490 
458 160 491 161 
491 160 194 161 
161 194 492 195 
458 492 459 161 
161 194 491 492 
458 492 161 491 
459 161 492 162 
492 161 195 162 
162 195 493 196 
459 493 460 162 
162 195 492 493 
459 493 162 492 
460 162 493 163 
493 162 196 163 
163 196 494 197 
460 494 461 163 
163 196 493 494 
460 494 163 493 
461 163 494 164 
494 163 197 164 
165 198 496 199 
462 496 463 165 
165 198 495 496 
462 496 165 495 
463 165 496 166 
496 165 199 166 
166 199 497 200 
463 497 464 166 
166 199 496 497 
463 497 166 496 
464 166 497 167 
497 166 200 167 
167 200 498 201 
464 498 465 167 
167 200 497 498 
464 498 167 497 
465 167 498 168 
498 167 201 168 
168 201 499 202 
465 499 466 168 
168 201 498 499 
465 499 168 498 
466 168 499 169 
499 168 202 169 
169 202 500 203 
466 500 467 169 
169 202 499 500 
466 500 169 499 
467 169 500 170 
500 169 203 170 
170 203 501 204 
467 501 468 170 
170 203 500 501 
467 501 170 500 
468 170 501 171 
501 170 204 171 
171 204 502 205 
468 502 469 171 
171 204 501 502 
468 502 171 501 
469 171 502 172 
502 171 205 172 
172 205 503 206 
469 503 470 172 
172 205 502 503 
469 503 172 502 
470 172 503 173 
503 172 206 173 
173 206 504 207 
470 504 471 173 
173 206 503 504 
470 504 173 503 
471 173 504 174 
504 173 207 174 
174 207 505 208 
471 505 472 174 
174 207 504 505 
471 505 174 504 
472 174 505 175 
505 174 208 175 
175 208 506 209 
472 506 473 175 
175 208 505 506 
472 506 175 505 
473 175 506 176 
506 175 209 176 
176 209 507 210 
473 507 474 176 
176 209 506 507 
473 507 176 506 
474 176 507 177 
507 176 210 177 
177 210 508 211 
474 508 475 177 
177 210 507 508 
474 508 177 507 
475 177 508 178 
508 177 211 178 
178 211 509 212 
475 509 476 178 
178 211 508 509 
475 509 178 508 
476 178 509 179 
509 178 212 179 
179 212 510 213 
476 510 477 179 
179 212 509 510 
476 510 179 509 
477 179 510 180 
510 179 213 180 
180 213 511 214 
477 511 478 180 
180 213 510 511 
477 511 180 510 
478 180 511 181 
511 180 214 181 
181 214 512 215 
478 512 479 181 
181 214 511 512 
478 512 181 511 
479 181 512 182 
512 181 215 182 
182 215 513 216 
479 513 480 182 
182 215 512 513 
479 513 182 512 
480 182 513 183 
513 182 216 183 
183 216 514 217 
480 514 481 183 
183 216 513 514 
480 514 183 513 
481 183 514 184 
514 183 217 184 
184 217 515 218 
481 515 482 184 
184 217 514 515 
481 515 184 514 
482 184 515 185 
515 184 218 185 
185 218 516 219 
482 516 483 185 
185 218 515 516 
482 516 185 515 
483 185 516 186 
516 185 219 186 
186 219 517 220 
483 517 484 186 
186 219 516 517 
483 517 186 516 
484 186 517 187 
517 186 220 187 
187 220 518 221 
484 518 485 187 
187 220 517 518 
484 518 187 517 
485 187 518 188 
518 187 221 188 
188 221 519 222 
485 519 486 188 
188 221 518 519 
485 519 188 518 
486 188 519 189 
519 188 222 189 
189 222 520 223 
486 520 487 189 
189 222 519 520 
486 520 189 519 
487 189 520 190 
520 189 223 190 
190 223 521 224 
487 521 488 190 
190 223 520 521 
487 521 190 520 
488 190 521 191 
521 190 224 191 
191 224 522 225 
488 522 489 191 
191 224 521 522 
488 522 191 521 
489 191 522 192 
522 191 225 192 
192 225 523 226 
489 523 490 192 
192 225 522 523 
489 523 192 522 
490 192 523 193 
523 192 226 193 
193 226 524 227 
490 524 491 193 
193 226 523 524 
490 524 193 523 
491 193 524 194 
524 193 227 194 
194 227 525 228 
491 525 492 194 
194 227 524 525 
491 525 194 524 
492 194 525 195 
525 194 228 195 
195 228 526 229 
492 526 493 195 
195 228 525 526 
492 526 195 525 
493 195 526 196 
526 195 229 196 
196 229 527 230 
493 527 494 196 
196 229 526 527 
493 527 196 526 
494 196 527 197 
527 196 230 197 
198 231 529 232 
495 529 496 198 
198 231 528 529 
495 529 198 528 
496 198 529 199 
529 198 232 199 
199 232 530 233 
496 530 497 199 
199 232 529 530 
496 530 199 529 
497 199 530 200 
530 199 233 200 
200 233 531 234 
497 531 498 200 
200 233 530 531 
497 531 200 530 
498 200 531 201 
531 200 234 201 
201 234 532 235 
498 532 499 201 
201 234 531 532 
498 532 201 531 
499 201 532 202 
532 201 235 202 
202 235 533 236 
499 533 500 202 
202 235 532 533 
499 533 202 532 
500 202 533 203 
533 202 236 203 
203 236 534 237 
500 534 501 203 
203 236 533 534 
500 534 203 533 
501 203 534 204 
534 203 237 204 
204 237 535 238 
501 535 502 204 
204 237 534 535 
501 535 204 534 
502 204 535 205 
535 204 238 205 
205 238 536 239 
502 536 503 205 
205 238 535 536 
502 536 205 535 
503 205 536 206 
536 205 239 206 
206 239 537 240 
503 537 504 206 
206 239 536 537 
503 537 206 536 
504 206 537 207 
537 206 240 207 
207 240 538 241 
504 538 505 207 
207 240 537 538 
504 538 207 537 
505 207 538 208 
538 207 241 208 
208 241 539 242 
505 539 506 208 
208 241 538 539 
505 539 208 538 
506 208 539 209 
539 208 242 209 
209 242 540 243 
506 540 507 209 
209 242 539 540 
506 540 209 539 
507 209 540 210 
540 209 243 210 
210 243 541 244 
507 541 508 210 
210 243 540 541 
507 541 210 540 
508 210 541 211 
541 210 244 211 
211 244 542 245 
508 542 509 211 
211 244 541 542 
508 542 211 541 
509 211 542 212 
542 211 245 212 
212 245 543 246 
509 543 510 212 
212 245 542 543 
509 543 212 542 
510 212 543 213 
543 212 246 213 
213 246 544 247 
510 544 511 213 
213 246 543 544 
510 544 213 543 
511 213 544 214 
544 213 247 214 
214 247 545 248 
511 545 512 214 
214 247 544 545 
511 545 214 544 
512 214 545 215 
545 214 248 215 
215 248 546 249 
512 546 513 215 
215 248 545 546 
512 546 215 545 
513 215 546 216 
546 215 249 216 
216 249 547 250 
513 547 514 216 
216 249 546 547 
513 547 216 546 
514 216 547 217 
547 216 250 217 
217 250 548 251 
514 548 515 217 
217 250 547 548 
514 548 217 547 
515 217 548 218 
548 217 251 218 
218 251 549 252 
515 549 516 218 
218 251 548 549 
515 549 218 548 
516 218 549 219 
549 218 252 219 
219 252 550 253 
516 550 517 219 
219 252 549 550 
516 550 219 549 
517 219 550 220 
550 219 253 220 
220 253 551 254 
517 551 518 220 
220 253 550 551 
517 551 220 550 
518 220 551 221 
551 220 254 221 
221 254 552 255 
518 552 519 221 
221 254 551 552 
518 552 221 551 
519 221 552 222 
552 221 255 222 
222 255 553 256 
519 553 520 222 
222 255 552 553 
519 553 222 552 
520 222 553 223 
553 222 256 223 
223 256 554 257 
520 554 521 223 
223 256 553 554 
520 554 223 553 
521 223 554 224 
554 223 257 224 
224 257 555 258 
521 555 522 224 
224 257 554 555 
521 555 224 554 
522 224 555 225 
555 224 258 225 
225 258 556 259 
522 556 523 225 
225 258 555 556 
522 556 225 555 
523 225 556 226 
556 225 259 226 
226 259 557 260 
523 557 524 226 
226 259 556 557 
523 557 226 556 
524 226 557 227 
557 226 260 227 
227 260 558 261 
524 558 525 227 
227 260 557 558 
524 558 227 557 
525 227 558 228 
558 227 261 228 
228 261 559 262 
525 559 526 228 
228 261 558 559 
525 559 228 558 
526 228 559 229 
559 228 262 229 
229 262 560 263 
526 560 527 229 
229 262 559 560 
526 560 229 559 
527 229 560 230 
560 229 263 230 
231 264 562 265 
528 562 529 231 
231 264 561 562 
528 562 231 561 
529 231 562 232 
562 231 265 232 
232 265 563 266 
529 563 530 232 
232 265 562 563 
529 563 232 562 
530 232 563 233 
563 232 266 233 
233 266 564 267 
530 564 531 233 
233 266 563 564 
530 564 233 563 
531 233 564 234 
564 233 267 234 
234 267 565 268 
531 565 532 234 
234 267 564 565 
531 565 234 564 
532 234 565 235 
565 234 268 235 
235 268 566 269 
532 566 533 235 
235 268 565 566 
532 566 235 565 
533 235 566 236 
566 235 269 236 
236 269 567 270 
533 567 534 236 
236 269 566 567 
533 567 236 566 
534 236 567 237 
567 236 270 237 
237 270 568 271 
534 568 535 237 
237 270 567 568 
534 568 237 567 
535 237 568 238 
568 237 271 238 
238 271 569 272 
535 569 536 238 
238 271 568 569 
535 569 238 568 
536 238 569 239 
569 238 272 239 
239 272 570 273 
536 570 537 239 
239 272 569 570 
536 570 239 569 
537 239 570 240 
570 239 273 240 
240 273 571 274 
537 571 538 240 
240 273 570 571 
537 571 240 570 
538 240 571 241 
571 240 274 241 
241 274 572 275 
538 572 539 241 
241 274 571 572 
538 572 241 571 
539 241 572 242 
572 241 275 242 
242 275 573 276 
539 573 540 242 
242 275 572 573 
539 573 242 572 
540 242 573 243 
573 242 276 243 
243 276 574 277 
540 574 541 243 
243 276 573 574 
540 574 243 573 
541 243 574 244 
574 243 277 244 
244 277 575 278 
541 575 542 244 
244 277 574 575 
541 575 244 574 
542 244 575 245 
575 244 278 245 
245 278 576 279 
542 576 543 245 
245 278 575 576 
542 576 245 575 
543 245 576 246 
576 245 279 246 
246 279 577 280 
543 577 544 246 
246 279 576 577 
543 577 246 576 
544 246 577 247 
577 246 280 247 
247 280 578 281 
544 578 545 247 
247 280 577 578 
544 578 247 577 
545 247 578 248 
578 247 281 248 
248 281 579 282 
545 579 546 248 
248 281 578 579 
545 579 248 578 
546 248 579 249 
579 248 282 249 
249 282 580 283 
546 580 547 249 
249 282 579 580 
546 580 249 579 
547 249 580 250 
580 249 283 250 
250 283 581 284 
547 581 548 250 
250 283 580 581 
547 581 250 580 
548 250 581 251 
581 250 284 251 
251 284 582 285 
548 582 549 251 
251 284 581 582 
548 582 251 581 
549 251 582 252 
582 251 285 252 
252 285 583 286 
549 583 550 252 
252 285 582 583 
549 583 252 582 
550 252 583 253 
583 252 286 253 
253 286 584 287 
550 584 551 253 
253 286 583 584 
550 584 253 583 
551 253 584 254 
584 253 287 254 
254 287 585 288 
551 585 552 254 
254 287 584 585 
551 585 254 584 
552 254 585 255 
585 254 288 255 
255 288 586 289 
552 586 553 255 
255 288 585 586 
552 586 255 585 
553 255 586 256 
586 255 289 256 
256 289 587 290 
553 587 554 256 
256 289 586 587 
553 587 256 586 
554 256 587 257 
587 256 290 257 
257 290 588 291 
554 588 555 257 
257 290 587 588 
554 588 257 587 
555 257 588 258 
588 257 291 258 
258 291 589 292 
555 589 556 258 
258 291 588 589 
555 589 258 588 
556 258 589 259 
589 258 292 259 
259 292 590 293 
556 590 557 259 
259 292 589 590 
556 590 259 589 
557 259 590 260 
590 259 293 260 
260 293 591 294 
557 591 558 260 
260 293 590 591 
557 591 260 590 
558 260 591 261 
591 260 294 261 
261 294 592 295 
558 592 559 261 
261 294 591 592 
558 592 261 591 
559 261 592 262 
592 261 295 262 
262 295 593 296 
559 593 560 262 
262 295 592 593 
559 593 262 592 
560 262 593 263 
593 262 296 263 
297 330 628 331 
594 628 595 297 
297 330 627 628 
594 628 297 627 
595 297 628 298 
628 297 331 298 
298 331 629 332 
595 629 596 298 
298 331 628 629 
595 629 298 628 
596 298 629 299 
629 298 332 299 
299 332 630 333 
596 630 597 299 
299 332 629 630 
596 630 299 629 
597 299 630 300 
630 299 333 300 
300 333 631 334 
597 631 598 300 
300 333 630 631 
597 631 300 630 
598 300 631 301 
631 300 334 301 
301 334 632 335 
598 632 599 301 
301 334 631 632 
598 632 301 631 
599 301 632 302 
632 301 335 302 
302 335 633 336 
599 633 600 302 
302 335 632 633 
599 633 302 632 
600 302 633 303 
633 302 336 303 
303 336 634 337 
600 634 601 303 
303 336 633 634 
600 634 303 633 
601 303 634 304 
634 303 337 304 
304 337 635 338 
601 635 602 304 
304 337 634 635 
601 635 304 634 
602 304 635 305 
635 304 338 305 
305 338 636 339 
602 636 603 305 
305 338 635 636 
602 636 305 635 
603 305 636 306 
636 305 339 306 
306 339 637 340 
603 637 604 306 
306 339 636 637 
603 637 306 636 
604 306 637 307 
637 306 340 307 
307 340 638 341 
604 638 605 307 
307 340 637 638 
604 638 307 637 
605 307 638 308 
638 307 341 308 
308 341 639 342 
605 639 606 308 
308 341 638 639 
605 639 308 638 
606 308 639 309 
639 308 342 309 
309 342 640 343 
606 640 607 309 
309 342 639 640 
606 640 309 639 
607 309 640 310 
640 309 343 310 
310 343 641 344 
607 641 608 310 
310 343 640 641 
607 641 310 640 
608 310 641 311 
641 310 344 311 
311 344 642 345 
608 642 609 311 
311 344 641 642 
608 642 311 641 
609 311 642 312 
642 311 345 312 
312 345 643 346 
609 643 610 312 
312 345 642 643 
609 643 312 642 
610 312 643 313 
643 312 346 313 
313 346 644 347 
610 644 611 313 
313 346 643 644 
610 644 313 643 
611 313 644 314 
644 313 347 314 
314 347 645 348 
611 645 612 314 
314 347 644 645 
611 645 314 644 
612 314 645 315 
645 314 348 315 
315 348 646 349 
612 646 613 315 
315 348 645 646 
612 646 315 645 
613 315 646 316 
646 315 349 316 
316 349 647 350 
613 647 614 316 
316 349 646 647 
613 647 316 646 
614 316 647 317 
647 316 350 317 
317 350 648 351 
614 648 615 317 
317 350 647 648 
614 648 317 647 
615 317 648 318 
648 317 351 318 
318 351 649 352 
615 649 616 318 
318 351 648 649 
615 649 318 648 
616 318 649 319 
649 318 352 319 
319 352 650 353 
616 650 617 319 
319 352 649 650 
616 650 319 649 
617 319 650 320 
650 319 353 320 
320 353 651 354 
617 651 618 320 
320 353 650 651 
617 651 320 650 
618 320 651 321 
651 320 354 321 
321 354 652 355 
618 652 619 321 
321 354 651 652 
618 652 321 651 
619 321 652 322 
652 321 355 322 
322 355 653 356 
619 653 620 322 
322 355 652 653 
619 653 322 652 
620 322 653 323 
653 322 356 323 
323 356 654 357 
620 654 621 323 
323 356 653 654 
620 654 323 653 
621 323 654 324 
654 323 357 324 
324 357 655 358 
621 655 622 324 
324 357 654 655 
621 655 324 654 
622 324 655 325 
655 324 358 325 
325 358 656 359 
622 656 623 325 
325 358 655 656 
622 656 325 655 
623 325 656 326 
656 325 359 326 
326 359 657 360 
623 657 624 326 
326 359 656 657 
623 657 326 656 
624 326 657 327 
657 326 360 327 
327 360 658 361 
624 658 625 327 
327 360 657 658 
624 658 327 657 
625 327 658 328 
658 327 361 328 
328 361 659 362 
625 659 626 328 
328 361 658 659 
625 659 328 658 
626 328 659 329 
659 328 362 329 
330 363 661 364 
627 661 628 330 
330 363 660 661 
627 661 330 660 
628 330 661 331 
661 330 364 331 
331 364 662 365 
628 662 629 331 
331 364 661 662 
628 662 331 661 
629 331 662 332 
662 331 365 332 
332 365 663 366 
629 663 630 332 
332 365 662 663 
629 663 332 662 
630 332 663 333 
663 332 366 333 
333 366 664 367 
630 664 631 333 
333 366 663 664 
630 664 333 663 
631 333 664 334 
664 333 367 334 
334 367 665 368 
631 665 632 334 
334 367 664 665 
631 665 334 664 
632 334 665 335 
665 334 368 335 
335 368 666 369 
632 666 633 335 
335 368 665 666 
632 666 335 665 
633 335 666 336 
666 335 369 336 
336 369 667 370 
633 667 634 336 
336 369 666 667 
633 667 336 666 
634 336 667 337 
667 336 370 337 
337 370 668 371 
634 668 635 337 
337 370 667 668 
634 668 337 667 
635 337 668 338 
668 337 371 338 
338 371 669 372 
635 669 636 338 
338 371 668 669 
635 669 338 668 
636 338 669 339 
669 338 372 339 
339 372 670 373 
636 670 637 339 
339 372 669 670 
636 670 339 669 
637 339 670 340 
670 339 373 340 
340 373 671 374 
637 671 638 340 
340 373 670 671 
637 671 340 670 
638 340 671 341 
671 340 374 341 
341 374 672 375 
638 672 639 341 
341 374 671 672 
638 672 341 671 
639 341 672 342 
672 341 375 342 
342 375 673 376 
639 673 640 342 
342 375 672 673 
639 673 342 672 
640 342 673 343 
673 342 376 343 
343 376 674 377 
640 674 641 343 
343 376 673 674 
640 674 343 673 
641 343 674 344 
674 343 377 344 
344 377 675 378 
641 675 642 344 
344 377 674 675 
641 675 344 674 
642 344 675 345 
675 344 378 345 
345 378 676 379 
642 676 643 345 
345 378 675 676 
642 676 345 675 
643 345 676 346 
676 345 379 346 
346 379 677 380 
643 677 644 346 
346 379 676 677 
643 677 346 676 
644 346 677 347 
677 346 380 347 
347 380 678 381 
644 678 645 347 
347 380 677 678 
644 678 347 677 
645 347 678 348 
678 347 381 348 
348 381 679 382 
645 679 646 348 
348 381 678 679 
645 679 348 678 
646 348 679 349 
679 348 382 349 
349 382 680 383 
646 680 647 349 
349 382 679 680 
646 680 349 679 
647 349 680 350 
680 349 383 350 
350 383 681 384 
647 681 648 350 
350 383 680 681 
647 681 350 680 
648 350 681 351 
681 350 384 351 
351 384 682 385 
648 682 649 351 
351 384 681 682 
648 682 351 681 
649 351 682 352 
682 351 385 352 
352 385 683 386 
649 683 650 352 
352 385 682 683 
649 683 352 682 
650 352 683 353 
683 352 386 353 
353 386 684 387 
650 684 651 353 
353 386 683 684 
650 684 353 683 
651 353 684 354 
684 353 387 354 
354 387 685 388 
651 685 652 354 
354 387 684 685 
651 685 354 684 
652 354 685 355 
685 354 388 355 
355 388 686 389 
652 686 653 355 
355 388 685 686 
652 686 355 685 
653 355 686 356 
686 355 389 356 
356 389 687 390 
653 687 654 356 
356 389 686 687 
653 687 356 686 
654 356 687 357 
687 356 390 357 
357 390 688 391 
654 688 655 357 
357 390 687 688 
654 688 357 687 
655 357 688 358 
688 357 391 358 
358 391 689 392 
655 689 656 358 
358 391 688 689 
655 689 358 688 
656 358 689 359 
689 358 392 359 
359 392 690 393 
656 690 657 359 
359 392 689 690 
656 690 359 689 
657 359 690 360 
690 359 393 360 
360 393 691 394 
657 691 658 360 
360 393 690 691 
657 691 360 690 
658 360 691 361 
691 360 394 361 
361 394 692 395 
658 692 659 361 
361 394 691 692 
658 692 361 691 
659 361 692 362 
692 361 395 362 
363 396 694 397 
660 694 661 363 
363 396 693 694 
660 694 363 693 
661 363 694 364 
694 363 397 364 
364 397 695 398 
661 695 662 364 
364 397 694 695 
661 695 364 694 
662 364 695 365 
695 364 398 365 
365 398 696 399 
662 696 663 365 
365 398 695 696 
662 696 365 695 
663 365 696 366 
696 365 399 366 
366 399 697 400 
663 697 664 366 
366 399 696 697 
663 697 366 696 
664 366 697 367 
697 366 400 367 
367 400 698 401 
664 698 665 367 
367 400 697 698 
664 698 367 697 
665 367 698 368 
698 367 401 368 
368 401 699 402 
665 699 666 368 
368 401 698 699 
665 699 368 698 
666 368 699 369 
699 368 402 369 
369 402 700 403 
666 700 667 369 
369 402 699 700 
666 700 369 699 
667 369 700 370 
700 369 403 370 
370 403 701 404 
667 701 668 370 
370 403 700 701 
667 701 370 700 
668 370 701 371 
701 370 404 371 
371 404 702 405 
668 702 669 371 
371 404 701 702 
668 702 371 701 
669 371 702 372 
702 371 405 372 
372 405 703 406 
669 703 670 372 
372 405 702 703 
669 703 372 702 
670 372 703 373 
703 372 406 373 
373 406 704 407 
670 704 671 373 
373 406 703 704 
670 704 373 703 
671 373 704 374 
704 373 407 374 
374 407 705 408 
671 705 672 374 
374 407 704 705 
671 705 374 704 
672 374 705 375 
705 374 408 375 
375 408 706 409 
672 706 673 375 
375 408 705 706 
672 706 375 705 
673 375 706 376 
706 375 409 376 
376 409 707 410 
673 707 674 376 
376 409 706 707 
673 707 376 706 
674 376 707 377 
707 376 410 377 
377 410 708 411 
674 708 675 377 
377 410 707 708 
674 708 377 707 
675 377 708 378 
708 377 411 378 
378 411 709 412 
675 709 676 378 
378 411 708 709 
675 709 378 708 
676 378 709 379 
709 378 412 379 
379 412 710 413 
676 710 677 379 
379 412 709 710 
676 710 379 709 
677 379 710 380 
710 379 413 380 
380 413 711 414 
677 711 678 380 
380 413 710 711 
677 711 380 710 
678 380 711 381 
711 380 414 381 
381 414 712 415 
678 712 679 381 
381 414 711 712 
678 712 381 711 
679 381 712 382 
712 381 415 382 
382 415 713 416 
679 713 680 382 
382 415 712 713 
679 713 382 712 
680 382 713 383 
713 382 416 383 
383 416 714 417 
680 714 681 383 
383 416 713 714 
680 714 383 713 
681 383 714 384 
714 383 417 384 
384 417 715 418 
681 715 682 384 
384 417 714 715 
681 715 384 714 
682 384 715 385 
715 384 418 385 
385 418 716 419 
682 716 683 385 
385 418 715 716 
682 716 385 715 
683 385 716 386 
716 385 419 386 
386 419 717 420 
683 717 684 386 
386 419 716 717 
683 717 386 716 
684 386 717 387 
717 386 420 387 
387 420 718 421 
684 718 685 387 
387 420 717 718 
684 718 387 717 
685 387 718 388 
718 387 421 388 
388 421 719 422 
685 719 686 388 
388 421 718 719 
685 719 388 718 
686 388 719 389 
719 388 422 389 
389 422 720 423 
686 720 687 389 
389 422 719 720 
686 720 389 719 
687 389 720 390 
720 389 423 390 
390 423 721 424 
687 721 688 390 
390 423 720 721 
687 721 390 720 
688 390 721 391 
721 390 424 391 
391 424 722 425 
688 722 689 391 
391 424 721 722 
688 722 391 721 
689 391 722 392 
722 391 425 392 
392 425 723 426 
689 723 690 392 
392 425 722 723 
689 723 392 722 
690 392 723 393 
723 392 426 393 
393 426 724 427 
690 724 691 393 
393 426 723 724 
690 724 393 723 
691 393 724 394 
724 393 427 394 
394 427 725 428 
691 725 692 394 
394 427 724 725 
691 725 394 724 
692 394 725 395 
725 394 428 395 
396 429 727 430 
693 727 694 396 
396 429 726 727 
693 727 396 726 
694 396 727 397 
727 396 430 397 
397 430 728 431 
694 728 695 397 
397 430 727 728 
694 728 397 727 
695 397 728 398 
728 397 431 398 
398 431 729 432 
695 729 696 398 
398 431 728 729 
695 729 398 728 
696 398 729 399 
729 398 432 399 
399 432 730 433 
696 730 697 399 
399 432 729 730 
696 730 399 729 
697 399 730 400 
730 399 433 400 
400 433 731 434 
697 731 698 400 
400 433 730 731 
697 731 400 730 
698 400 731 401 
731 400 434 401 
401 434 732 435 
698 732 699 401 
401 434 731 732 
698 732 401 731 
699 401 732 402 
732 401 435 402 
402 435 733 436 
699 733 700 402 
402 435 732 733 
699 733 402 732 
700 402 733 403 
733 402 436 403 
403 436 734 437 
700 734 701 403 
403 436 733 734 
700 734 403 733 
701 403 734 404 
734 403 437 404 
404 437 735 438 
701 735 702 404 
404 437 734 735 
701 735 404 734 
702 404 735 405 
735 404 438 405 
405 438 736 439 
702 736 703 405 
405 438 735 736 
702 736 405 735 
703 405 736 406 
736 405 439 406 
406 439 737 440 
703 737 704 406 
406 439 736 737 
703 737 406 736 
704 406 737 407 
737 406 440 407 
407 440 738 441 
704 738 705 407 
407 440 737 738 
704 738 407 737 
705 407 738 408 
738 407 441 408 
408 441 739 442 
705 739 706 408 
408 441 738 739 
705 739 408 738 
706 408 739 409 
739 408 442 409 
409 442 740 443 
706 740 707 409 
409 442 739 740 
706 740 409 739 
707 409 740 410 
740 409 443 410 
410 443 741 444 
707 741 708 410 
410 443 740 741 
707 741 410 740 
708 410 741 411 
741 410 444 411 
411 444 742 445 
708 742 709 411 
411 444 741 742 
708 742 411 741 
709 411 742 412 
742 411 445 412 
412 445 743 446 
709 743 710 412 
412 445 742 743 
709 743 412 742 
710 412 743 413 
743 412 446 413 
413 446 744 447 
710 744 711 413 
413 446 743 744 
710 744 413 743 
711 413 744 414 
744 413 447 414 
414 447 745 448 
711 745 712 414 
414 447 744 745 
711 745 414 744 
712 414 745 415 
745 414 448 415 
415 448 746 449 
712 746 713 415 
415 448 745 746 
712 746 415 745 
713 415 746 416 
746 415 449 416 
416 449 747 450 
713 747 714 416 
416 449 746 747 
713 747 416 746 
714 416 747 417 
747 416 450 417 
417 450 748 451 
714 748 715 417 
417 450 747 748 
714 748 417 747 
715 417 748 418 
748 417 451 418 
418 451 749 452 
715 749 716 418 
418 451 748 749 
715 749 418 748 
716 418 749 419 
749 418 452 419 
419 452 750 453 
716 750 717 419 
419 452 749 750 
716 750 419 749 
717 419 750 420 
750 419 453 420 
420 453 751 454 
717 751 718 420 
420 453 750 751 
717 751 420 750 
718 420 751 421 
751 420 454 421 
421 454 752 455 
718 752 719 421 
421 454 751 752 
718 752 421 751 
719 421 752 422 
752 421 455 422 
422 455 753 456 
719 753 720 422 
422 455 752 753 
719 753 422 752 
720 422 753 423 
753 422 456 423 
423 456 754 457 
720 754 721 423 
423 456 753 754 
720 754 423 753 
721 423 754 424 
754 423 457 424 
424 457 755 458 
721 755 722 424 
424 457 754 755 
721 755 424 754 
722 424 755 425 
755 424 458 425 
425 458 756 459 
722 756 723 425 
425 458 755 756 
722 756 425 755 
723 425 756 426 
756 425 459 426 
426 459 757 460 
723 757 724 426 
426 459 756 757 
723 757 426 756 
724 426 757 427 
757 426 460 427 
427 460 758 461 
724 758 725 427 
427 460 757 758 
724 758 427 757 
725 427 758 428 
758 427 461 428 
429 462 760 463 
726 760 727 429 
429 462 759 760 
726 760 429 759 
727 429 760 430 
760 429 463 430 
430 463 761 464 
727 761 728 430 
430 463 760 761 
727 761 430 760 
728 430 761 431 
761 430 464 431 
431 464 762 465 
728 762 729 431 
431 464 761 762 
728 762 431 761 
729 431 762 432 
762 431 465 432 
432 465 763 466 
729 763 730 432 
432 465 762 763 
729 763 432 762 
730 432 763 433 
763 432 466 433 
433 466 764 467 
730 764 731 433 
433 466 763 764 
730 764 433 763 
731 433 764 434 
764 433 467 434 
434 467 765 468 
731 765 732 434 
434 467 764 765 
731 765 434 764 
732 434 765 435 
765 434 468 435 
435 468 766 469 
732 766 733 435 
435 468 765 766 
732 766 435 765 
733 435 766 436 
766 435 469 436 
436 469 767 470 
733 767 734 436 
436 469 766 767 
733 767 436 766 
734 436 767 437 
767 436 470 437 
437 470 768 471 
734 768 735 437 
437 470 767 768 
734 768 437 767 
735 437 768 438 
768 437 471 438 
438 471 769 472 
735 769 736 438 
438 471 768 769 
735 769 438 768 
736 438 769 439 
769 438 472 439 
439 472 770 473 
736 770 737 439 
439 472 769 770 
736 770 439 769 
737 439 770 440 
770 439 473 440 
440 473 771 474 
737 771 738 440 
440 473 770 771 
737 771 440 770 
738 440 771 441 
771 440 474 441 
441 474 772 475 
738 772 739 441 
441 474 771 772 
738 772 441 771 
739 441 772 442 
772 441 475 442 
442 475 773 476 
739 773 740 442 
442 475 772 773 
739 773 442 772 
740 442 773 443 
773 442 476 443 
443 476 774 477 
740 774 741 443 
443 476 773 774 
740 774 443 773 
741 443 774 444 
774 443 477 444 
444 477 775 478 
741 775 742 444 
444 477 774 775 
741 775 444 774 
742 444 775 445 
775 444 478 445 
445 478 776 479 
742 776 743 445 
445 478 775 776 
742 776 445 775 
743 445 776 446 
776 445 479 446 
446 479 777 480 
743 777 744 446 
446 479 776 777 
743 777 446 776 
744 446 777 447 
777 446 480 447 
447 480 778 481 
744 778 745 447 
447 480 777 778 
744 778 447 777 
745 447 778 448 
778 447 481 448 
448 481 779 482 
745 779 746 448 
448 481 778 779 
745 779 448 778 
746 448 779 449 
779 448 482 449 
449 482 780 483 
746 780 747 449 
449 482 779 780 
746 780 449 779 
747 449 780 450 
780 449 483 450 
450 483 781 484 
747 781 748 450 
450 483 780 781 
747 781 450 780 
748 450 781 451 
781 450 484 451 
451 484 782 485 
748 782 749 451 
451 484 781 782 
748 782 451 781 
749 451 782 452 
782 451 485 452 
452 485 783 486 
749 783 750 452 
452 485 782 783 
749 783 452 782 
750 452 783 453 
783 452 486 453 
453 486 784 487 
750 784 751 453 
453 486 783 784 
750 784 453 783 
751 453 784 454 
784 453 487 454 
454 487 785 488 
751 785 752 454 
454 487 784 785 
751 785 454 784 
752 454 785 455 
785 454 488 455 
455 488 786 489 
752 786 753 455 
455 488 785 786 
752 786 455 785 
753 455 786 456 
786 455 489 456 
456 489 787 490 
753 787 754 456 
456 489 786 787 
753 787 456 786 
754 456 787 457 
787 456 490 457 
457 490 788 491 
754 788 755 457 
457 490 787 788 
754 788 457 787 
755 457 788 458 
788 457 491 458 
458 491 789 492 
755 789 756 458 
458 491 788 789 
755 789 458 788 
756 458 789 459 
789 458 492 459 
459 492 790 493 
756 790 757 459 
459 492 789 790 
756 790 459 789 
757 459 790 460 
790 459 493 460 
460 493 791 494 
757 791 758 460 
460 493 790 791 
757 791 460 790 
758 460 791 461 
791 460 494 461 
462 495 793 496 
759 793 760 462 
462 495 792 793 
759 793 462 792 
760 462 793 463 
793 462 496 463 
463 496 794 497 
760 794 761 463 
463 496 793 794 
760 794 463 793 
761 463 794 464 
794 463 497 464 
464 497 795 498 
761 795 762 464 
464 497 794 795 
761 795 464 794 
762 464 795 465 
795 464 498 465 
465 498 796 499 
762 796 763 465 
465 498 795 796 
762 796 465 795 
763 465 796 466 
796 465 499 466 
466 499 797 500 
763 797 764 466 
466 499 796 797 
763 797 466 796 
764 466 797 467 
797 466 500 467 
467 500 798 501 
764 798 765 467 
467 500 797 798 
764 798 467 797 
765 467 798 468 
798 467 501 468 
468 501 799 502 
765 799 766 468 
468 501 798 799 
765 799 468 798 
766 468 799 469 
799 468 502 469 
469 502 800 503 
766 800 767 469 
469 502 799 800 
766 800 469 799 
767 469 800 470 
800 469 503 470 
470 503 801 504 
767 801 768 470 
470 503 800 801 
767 801 470 800 
768 470 801 471 
801 470 504 471 
471 504 802 505 
768 802 769 471 
471 504 801 802 
768 802 471 801 
769 471 802 472 
802 471 505 472 
472 505 803 506 
769 803 770 472 
472 505 802 803 
769 803 472 802 
770 472 803 473 
803 472 506 473 
473 506 804 507 
770 804 771 473 
473 506 803 804 
770 804 473 803 
771 473 804 474 
804 473 507 474 
474 507 805 508 
771 805 772 474 
474 507 804 805 
771 805 474 804 
772 474 805 475 
805 474 508 475 
475 508 806 509 
772 806 773 475 
475 508 805 806 
772 806 475 805 
773 475 806 476 
806 475 509 476 
476 509 807 510 
773 807 774 476 
476 509 806 807 
773 807 476 806 
774 476 807 477 
807 476 510 477 
477 510 808 511 
774 808 775 477 
477 510 807 808 
774 808 477 807 
775 477 808 478 
808 477 511 478 
478 511 809 512 
775 809 776 478 
478 511 808 809 
775 809 478 808 
776 478 809 479 
809 478 512 479 
479 512 810 513 
776 810 777 479 
479 512 809 810 
776 810 479 809 
777 479 810 480 
810 479 513 480 
480 513 811 514 
777 811 778 480 
480 513 810 811 
777 811 480 810 
778 480 811 481 
811 480 514 481 
481 514 812 515 
778 812 779 481 
481 514 811 812 
778 812 481 811 
779 481 812 482 
812 481 515 482 
482 515 813 516 
779 813 780 482 
482 515 812 813 
779 813 482 812 
780 482 813 483 
813 482 516 483 
483 516 814 517 
780 814 781 483 
483 516 813 814 
780 814 483 813 
781 483 814 484 
814 483 517 484 
484 517 815 518 
781 815 782 484 
484 517 814 815 
781 815 484 814 
782 484 815 485 
815 484 518 485 
485 518 816 519 
782 816 783 485 
485 518 815 816 
782 816 485 815 
783 485 816 486 
816 485 519 486 
486 519 817 520 
783 817 784 486 
486 519 816 817 
783 817 486 816 
784 486 817 487 
817 486 520 487 
487 520 818 521 
784 818 785 487 
487 520 817 818 
784 818 487 817 
785 487 818 488 
818 487 521 488 
488 521 819 522 
785 819 786 488 
488 521 818 819 
785 819 488 818 
786 488 819 489 
819 488 522 489 
489 522 820 523 
786 820 787 489 
489 522 819 820 
786 820 489 819 
787 489 820 490 
820 489 523 490 
490 523 821 524 
787 821 788 490 
490 523 820 821 
787 821 490 820 
788 490 821 491 
821 490 524 491 
491 524 822 525 
788 822 789 491 
491 524 821 822 
788 822 491 821 
789 491 822 492 
822 491 525 492 
492 525 823 526 
789 823 790 492 
492 525 822 823 
789 823 492 822 
790 492 823 493 
823 492 526 493 
493 526 824 527 
790 824 791 493 
493 526 823 824 
790 824 493 823 
791 493 824 494 
824 493 527 494 
495 528 826 529 
792 826 793 495 
495 528 825 826 
792 826 495 825 
793 495 826 496 
826 495 529 496 
496 529 827 530 
793 827 794 496 
496 529 826 827 
793 827 496 826 
794 496 827 497 
827 496 530 497 
497 530 828 531 
794 828 795 497 
497 530 827 828 
794 828 497 827 
795 497 828 498 
828 497 531 498 
498 531 829 532 
795 829 796 498 
498 531 828 829 
795 829 498 828 
796 498 829 499 
829 498 532 499 
499 532 830 533 
796 830 797 499 
499 532 829 830 
796 830 499 829 
797 499 830 500 
830 499 533 500 
500 533 831 534 
797 831 798 500 
500 533 830 831 
797 831 500 830 
798 500 831 501 
831 500 534 501 
501 534 832 535 
798 832 799 501 
501 534 831 832 
798 832 501 831 
799 501 832 502 
832 501 535 502 
502 535 833 536 
799 833 800 502 
502 535 832 833 
799 833 502 832 
800 502 833 503 
833 502 536 503 
503 536 834 537 
800 834 801 503 
503 536 833 834 
800 834 503 833 
801 503 834 504 
834 503 537 504 
504 537 835 538 
801 835 802 504 
504 537 834 835 
801 835 504 834 
802 504 835 505 
835 504 538 505 
505 538 836 539 
802 836 803 505 
505 538 835 836 
802 836 505 835 
803 505 836 506 
836 505 539 506 
506 539 837 540 
803 837 804 506 
506 539 836 837 
803 837 506 836 
804 506 837 507 
837 506 540 507 
507 540 838 541 
804 838 805 507 
507 540 837 838 
804 838 507 837 
805 507 838 508 
838 507 541 508 
508 541 839 542 
805 839 806 508 
508 541 838 839 
805 839 508 838 
806 508 839 509 
839 508 542 509 
509 542 840 543 
806 840 807 509 
509 542 839 840 
806 840 509 839 
807 509 840 510 
840 509 543 510 
510 543 841 544 
807 841 808 510 
510 543 840 841 
807 841 510 840 
808 510 841 511 
841 510 544 511 
511 544 842 545 
808 842 809 511 
511 544 841 842 
808 842 511 841 
809 511 842 512 
842 511 545 512 
512 545 843 546 
809 843 810 512 
512 545 842 843 
809 843 512 842 
810 512 843 513 
843 512 546 513 
513 546 844 547 
810 844 811 513 
513 546 843 844 
810 844 513 843 
811 513 844 514 
844 513 547 514 
514 547 845 548 
811 845 812 514 
514 547 844 845 
811 845 514 844 
812 514 845 515 
845 514 548 515 
515 548 846 549 
812 846 813 515 
515 548 845 846 
812 846 515 845 
813 515 846 516 
846 515 549 516 
516 549 847 550 
813 847 814 516 
516 549 846 847 
813 847 516 846 
814 516 847 517 
847 516 550 517 
517 550 848 551 
814 848 815 517 
517 550 847 848 
814 848 517 847 
815 517 848 518 
848 517 551 518 
518 551 849 552 
815 849 816 518 
518 551 848 849 
815 849 518 848 
816 518 849 519 
849 518 552 519 
519 552 850 553 
816 850 817 519 
519 552 849 850 
816 850 519 849 
817 519 850 520 
850 519 553 520 
520 553 851 554 
817 851 818 520 
520 553 850 851 
817 851 520 850 
818 520 851 521 
851 520 554 521 
521 554 852 555 
818 852 819 521 
521 554 851 852 
818 852 521 851 
819 521 852 522 
852 521 555 522 
522 555 853 556 
819 853 820 522 
522 555 852 853 
819 853 522 852 
820 522 853 523 
853 522 556 523 
523 556 854 557 
820 854 821 523 
523 556 853 854 
820 854 523 853 
821 523 854 524 
854 523 557 524 
524 557 855 558 
821 855 822 524 
524 557 854 855 
821 855 524 854 
822 524 855 525 
855 524 558 525 
525 558 856 559 
822 856 823 525 
525 558 855 856 
822 856 525 855 
823 525 856 526 
856 525 559 526 
526 559 857 560 
823 857 824 526 
526 559 856 857 
823 857 526 856 
824 526 857 527 
857 526 560 527 
528 561 859 562 
825 859 826 528 
528 561 858 859 
825 859 528 858 
826 528 859 529 
859 528 562 529 
529 562 860 563 
826 860 827 529 
529 562 859 860 
826 860 529 859 
827 529 860 530 
860 529 563 530 
530 563 861 564 
827 861 828 530 
530 563 860 861 
827 861 530 860 
828 530 861 531 
861 530 564 531 
531 564 862 565 
828 862 829 531 
531 564 861 862 
828 862 531 861 
829 531 862 532 
862 531 565 532 
532 565 863 566 
829 863 830 532 
532 565 862 863 
829 863 532 862 
830 532 863 533 
863 532 566 533 
533 566 864 567 
830 864 831 533 
533 566 863 864 
830 864 533 863 
831 533 864 534 
864 533 567 534 
534 567 865 568 
831 865 832 534 
534 567 864 865 
831 865 534 864 
832 534 865 535 
865 534 568 535 
535 568 866 569 
832 866 833 535 
535 568 865 866 
832 866 535 865 
833 535 866 536 
866 535 569 536 
536 569 867 570 
833 867 834 536 
536 569 866 867 
833 867 536 866 
834 536 867 537 
867 536 570 537 
537 570 868 571 
834 868 835 537 
537 570 867 868 
834 868 537 867 
835 537 868 538 
868 537 571 538 
538 571 869 572 
835 869 836 538 
538 571 868 869 
835 869 538 868 
836 538 869 539 
869 538 572 539 
539 572 870 573 
836 870 837 539 
539 572 869 870 
836 870 539 869 
837 539 870 540 
870 539 573 540 
540 573 871 574 
837 871 838 540 
540 573 870 871 
837 871 540 870 
838 540 871 541 
871 540 574 541 
541 574 872 575 
838 872 839 541 
541 574 871 872 
838 872 541 871 
839 541 872 542 
872 541 575 542 
542 575 873 576 
839 873 840 542 
542 575 872 873 
839 873 542 872 
840 542 873 543 
873 542 576 543 
543 576 874 577 
840 874 841 543 
543 576 873 874 
840 874 543 873 
841 543 874 544 
874 543 577 544 
544 577 875 578 
841 875 842 544 
544 577 874 875 
841 875 544 874 
842 544 875 545 
875 544 578 545 
545 578 876 579 
842 876 843 545 
545 578 875 876 
842 876 545 875 
843 545 876 546 
876 545 579 546 
546 579 877 580 
843 877 844 546 
546 579 876 877 
843 877 546 876 
844 546 877 547 
877 546 580 547 
547 580 878 581 
844 878 845 547 
547 580 877 878 
844 878 547 877 
845 547 878 548 
878 547 581 548 
548 581 879 582 
845 879 846 548 
548 581 878 879 
845 879 548 878 
846 548 879 549 
879 548 582 549 
549 582 880 583 
846 880 847 549 
549 582 879 880 
846 880 549 879 
847 549 880 550 
880 549 583 550 
550 583 881 584 
847 881 848 550 
550 583 880 881 
847 881 550 880 
848 550 881 551 
881 550 584 551 
551 584 882 585 
848 882 849 551 
551 584 881 882 
848 882 551 881 
849 551 882 552 
882 551 585 552 
552 585 883 586 
849 883 850 552 
552 585 882 883 
849 883 552 882 
850 552 883 553 
883 552 586 553 
553 586 884 587 
850 884 851 553 
553 586 883 884 
850 884 553 883 
851 553 884 554 
884 553 587 554 
554 587 885 588 
851 885 852 554 
554 587 884 885 
851 885 554 884 
852 554 885 555 
885 554 588 555 
555 588 886 589 
852 886 853 555 
555 588 885 886 
852 886 555 885 
853 555 886 556 
886 555 589 556 
556 589 887 590 
853 887 854 556 
556 589 886 887 
853 887 556 886 
854 556 887 557 
887 556 590 557 
557 590 888 591 
854 888 855 557 
557 590 887 888 
854 888 557 887 
855 557 888 558 
888 557 591 558 
558 591 889 592 
855 889 856 558 
558 591 888 889 
855 889 558 888 
856 558 889 559 
889 558 592 559 
559 592 890 593 
856 890 857 559 
559 592 889 890 
856 890 559 889 
857 559 890 560 
890 559 593 560 
594 627 925 628 
891 925 892 594 
594 627 924 925 
891 925 594 924 
892 594 925 595 
925 594 628 595 
595 628 926 629 
892 926 893 595 
595 628 925 926 
892 926 595 925 
893 595 926 596 
926 595 629 596 
596 629 927 630 
893 927 894 596 
596 629 926 927 
893 927 596 926 
894 596 927 597 
927 596 630 597 
597 630 928 631 
894 928 895 597 
597 630 927 928 
894 928 597 927 
895 597 928 598 
928 597 631 598 
598 631 929 632 
895 929 896 598 
598 631 928 929 
895 929 598 928 
896 598 929 599 
929 598 632 599 
599 632 930 633 
896 930 897 599 
599 632 929 930 
896 930 599 929 
897 599 930 600 
930 599 633 600 
600 633 931 634 
897 931 898 600 
600 633 930 931 
897 931 600 930 
898 600 931 601 
931 600 634 601 
601 634 932 635 
898 932 899 601 
601 634 931 932 
898 932 601 931 
899 601 932 602 
932 601 635 602 
602 635 933 636 
899 933 900 602 
602 635 932 933 
899 933 602 932 
900 602 933 603 
933 602 636 603 
603 636 934 637 
900 934 901 603 
603 636 933 934 
900 934 603 933 
901 603 934 604 
934 603 637 604 
604 637 935 638 
901 935 902 604 
604 637 934 935 
901 935 604 934 
902 604 935 605 
935 604 638 605 
605 638 936 639 
902 936 903 605 
605 638 935 936 
902 936 605 935 
903 605 936 606 
936 605 639 606 
606 639 937 640 
903 937 904 606 
606 639 936 937 
903 937 606 936 
904 606 937 607 
937 606 640 607 
607 640 938 641 
904 938 905 607 
607 640 937 938 
904 938 607 937 
905 607 938 608 
938 607 641 608 
608 641 939 642 
905 939 906 608 
608 641 938 939 
905 939 608 938 
906 608 939 609 
939 608 642 609 
609 642 940 643 
906 940 907 609 
609 642 939 940 
906 940 609 939 
907 609 940 610 
940 609 643 610 
610 643 941 644 
907 941 908 610 
610 643 940 941 
907 941 610 940 
908 610 941 611 
941 610 644 611 
611 644 942 645 
908 942 909 611 
611 644 941 942 
908 942 611 941 
909 611 942 612 
942 611 645 612 
612 645 943 646 
909 943 910 612 
612 645 942 943 
909 943 612 942 
910 612 943 613 
943 612 646 613 
613 646 944 647 
910 944 911 613 
613 646 943 944 
910 944 613 943 
911 613 944 614 
944 613 647 614 
614 647 945 648 
911 945 912 614 
614 647 944 945 
911 945 614 944 
912 614 945 615 
945 614 648 615 
615 648 946 649 
912 946 913 615 
615 648 945 946 
912 946 615 945 
913 615 946 616 
946 615 649 616 
616 649 947 650 
913 947 914 616 
616 649 946 947 
913 947 616 946 
914 616 947 617 
947 616 650 617 
617 650 948 651 
914 948 915 617 
617 650 947 948 
914 948 617 947 
915 617 948 618 
948 617 651 618 
618 651 949 652 
915 949 916 618 
618 651 948 949 
915 949 618 948 
916 618 949 619 
949 618 652 619 
619 652 950 653 
916 950 917 619 
619 652 949 950 
916 950 619 949 
917 619 950 620 
950 619 653 620 
620 653 951 654 
917 951 918 620 
620 653 950 951 
917 951 620 950 
918 620 951 621 
951 620 654 621 
621 654 952 655 
918 952 919 621 
621 654 951 952 
918 952 621 951 
919 621 952 622 
952 621 655 622 
622 655 953 656 
919 953 920 622 
622 655 952 953 
919 953 622 952 
920 622 953 623 
953 622 656 623 
623 656 954 657 
920 954 921 623 
623 656 953 954 
920 954 623 953 
921 623 954 624 
954 623 657 624 
624 657 955 658 
921 955 922 624 
624 657 954 955 
921 955 624 954 
922 624 955 625 
955 624 658 625 
625 658 956 659 
922 956 923 625 
625 658 955 956 
922 956 625 955 
923 625 956 626 
956 625 659 626 
627 660 958 661 
924 958 925 627 
627 660 957 958 
924 958 627 957 
925 627 958 628 
958 627 661 628 
628 661 959 662 
925 959 926 628 
628 661 958 959 
925 959 628 958 
926 628 959 629 
959 628 662 629 
629 662 960 663 
926 960 927 629 
629 662 959 960 
926 960 629 959 
927 629 960 630 
960 629 663 630 
630 663 961 664 
927 961 928 630 
630 663 960 961 
927 961 630 960 
928 630 961 631 
961 630 664 631 
631 664 962 665 
928 962 929 631 
631 664 961 962 
928 962 631 961 
929 631 962 632 
962 631 665 632 
632 665 963 666 
929 963 930 632 
632 665 962 963 
929 963 632 962 
930 632 963 633 
963 632 666 633 
633 666 964 667 
930 964 931 633 
633 666 963 964 
930 964 633 963 
931 633 964 634 
964 633 667 634 
634 667 965 668 
931 965 932 634 
634 667 964 965 
931 965 634 964 
932 634 965 635 
965 634 668 635 
635 668 966 669 
932 966 933 635 
635 668 965 966 
932 966 635 965 
933 635 966 636 
966 635 669 636 
636 669 967 670 
933 967 934 636 
636 669 966 967 
933 967 636 966 
934 636 967 637 
967 636 670 637 
637 670 968 671 
934 968 935 637 
637 670 967 968 
934 968 637 967 
935 637 968 638 
968 637 671 638 
638 671 969 672 
935 969 936 638 
638 671 968 969 
935 969 638 968 
936 638 969 639 
969 638 672 639 
639 672 970 673 
936 970 937 639 
639 672 969 970 
936 970 639 969 
937 639 970 640 
970 639 673 640 
640 673 971 674 
937 971 938 640 
640 673 970 971 
937 971 640 970 
938 640 971 641 
971 640 674 641 
641 674 972 675 
938 972 939 641 
641 674 971 972 
938 972 641 971 
939 641 972 642 
972 641 675 642 
642 675 973 676 
939 973 940 642 
642 675 972 973 
939 973 642 972 
940 642 973 643 
973 642 676 643 
643 676 974 677 
940 974 941 643 
643 676 973 974 
940 974 643 973 
941 643 974 644 
974 643 677 644 
644 677 975 678 
941 975 942 644 
644 677 974 975 
941 975 644 974 
942 644 975 645 
975 644 678 645 
645 678 976 679 
942 976 943 645 
645 678 975 976 
942 976 645 975 
943 645 976 646 
976 645 679 646 
646 679 977 680 
943 977 944 646 
646 679 976 977 
943 977 646 976 
944 646 977 647 
977 646 680 647 
647 680 978 681 
944 978 945 647 
647 680 977 978 
944 978 647 977 
945 647 978 648 
978 647 681 648 
648 681 979 682 
945 979 946 648 
648 681 978 979 
945 979 648 978 
946 648 979 649 
979 648 682 649 
649 682 980 683 
946 980 947 649 
649 682 979 980 
946 980 649 979 
947 649 980 650 
980 649 683 650 
650 683 981 684 
947 981 948 650 
650 683 980 981 
947 981 650 980 
948 650 981 651 
981 650 684 651 
651 684 982 685 
948 982 949 651 
651 684 981 982 
948 982 651 981 
949 651 982 652 
982 651 685 652 
652 685 983 686 
949 983 950 652 
652 685 982 983 
949 983 652 982 
950 652 983 653 
983 652 686 653 
653 686 984 687 
950 984 951 653 
653 686 983 984 
950 984 653 983 
951 653 984 654 
984 653 687 654 
654 687 985 688 
951 985 952 654 
654 687 984 985 
951 985 654 984 
952 654 985 655 
985 654 688 655 
655 688 986 689 
952 986 953 655 
655 688 985 986 
952 986 655 985 
953 655 986 656 
986 655 689 656 
656 689 987 690 
953 987 954 656 
656 689 986 987 
953 987 656 986 
954 656 987 657 
987 656 690 657 
657 690 988 691 
954 988 955 657 
657 690 987 988 
954 988 657 987 
955 657 988 658 
988 657 691 658 
658 691 989 692 
955 989 956 658 
658 691 988 989 
955 989 658 988 
956 658 989 659 
989 658 692 659 
660 693 991 694 
957 991 958 660 
660 693 990 991 
957 991 660 990 
958 660 991 661 
991 660 694 661 
661 694 992 695 
958 992 959 661 
661 694 991 992 
958 992 661 991 
959 661 992 662 
992 661 695 662 
662 695 993 696 
959 993 960 662 
662 695 992 993 
959 993 662 992 
960 662 993 663 
993 662 696 663 
663 696 994 697 
960 994 961 663 
663 696 993 994 
960 994 663 993 
961 663 994 664 
994 663 697 664 
664 697 995 698 
961 995 962 664 
664 697 994 995 
961 995 664 994 
962 664 995 665 
995 664 698 665 
665 698 996 699 
962 996 963 665 
665 698 995 996 
962 996 665 995 
963 665 996 666 
996 665 699 666 
666 699 997 700 
963 997 964 666 
666 699 996 997 
963 997 666 996 
964 666 997 667 
997 666 700 667 
667 700 998 701 
964 998 965 667 
667 700 997 998 
964 998 667 997 
965 667 998 668 
998 667 701 668 
668 701 999 702 
965 999 966 668 
668 701 998 999 
965 999 668 998 
966 668 999 669 
999 668 702 669 
669 702 1000 703 
966 1000 967 669 
669 702 999 1000 
966 1000 669 999 
967 669 1000 670 
1000 669 703 670 
670 703 1001 704 
967 1001 968 670 
670 703 1000 1001 
967 1001 670 1000 
968 670 1001 671 
1001 670 704 671 
671 704 1002 705 
968 1002 969 671 
671 704 1001 1002 
968 1002 671 1001 
969 671 1002 672 
1002 671 705 672 
672 705 1003 706 
969 1003 970 672 
672 705 1002 1003 
969 1003 672 1002 
970 672 1003 673 
1003 672 706 673 
673 706 1004 707 
970 1004 971 673 
673 706 1003 1004 
970 1004 673 1003 
971 673 1004 674 
1004 673 707 674 
674 707 1005 708 
971 1005 972 674 
674 707 1004 1005 
971 1005 674 1004 
972 674 1005 675 
1005 674 708 675 
675 708 1006 709 
972 1006 973 675 
675 708 1005 1006 
972 1006 675 1005 
973 675 1006 676 
1006 675 709 676 
676 709 1007 710 
973 1007 974 676 
676 709 1006 1007 
973 1007 676 1006 
974 676 1007 677 
1007 676 710 677 
677 710 1008 711 
974 1008 975 677 
677 710 1007 1008 
974 1008 677 1007 
975 677 1008 678 
1008 677 711 678 
678 711 1009 712 
975 1009 976 678 
678 711 1008 1009 
975 1009 678 1008 
976 678 1009 679 
1009 678 712 679 
679 712 1010 713 
976 1010 977 679 
679 712 1009 1010 
976 1010 679 1009 
977 679 1010 680 
1010 679 713 680 
680 713 1011 714 
977 1011 978 680 
680 713 1010 1011 
977 1011 680 1010 
978 680 1011 681 
1011 680 714 681 
681 714 1012 715 
978 1012 979 681 
681 714 1011 1012 
978 1012 681 1011 
979 681 1012 682 
1012 681 715 682 
682 715 1013 716 
979 1013 980 682 
682 715 1012 1013 
979 1013 682 1012 
980 682 1013 683 
1013 682 716 683 
683 716 1014 717 
980 1014 981 683 
683 716 1013 1014 
980 1014 683 1013 
981 683 1014 684 
1014 683 717 684 
684 717 1015 718 
981 1015 982 684 
684 717 1014 1015 
981 1015 684 1014 
982 684 1015 685 
1015 684 718 685 
685 718 1016 719 
982 1016 983 685 
685 718 1015 1016 
982 1016 685 1015 
983 685 1016 686 
1016 685 719 686 
686 719 1017 720 
983 1017 984 686 
686 719 1016 1017 
983 1017 686 1016 
984 686 1017 687 
1017 686 720 687 
687 720 1018 721 
984 1018 985 687 
687 720 1017 1018 
984 1018 687 1017 
985 687 1018 688 
1018 687 721 688 
688 721 1019 722 
985 1019 986 688 
688 721 1018 1019 
985 1019 688 1018 
986 688 1019 689 
1019 688 722 689 
689 722 1020 723 
986 1020 987 689 
689 722 1019 1020 
986 1020 689 1019 
987 689 1020 690 
1020 689 723 690 
690 723 1021 724 
987 1021 988 690 
690 723 1020 1021 
987 1021 690 1020 
988 690 1021 691 
1021 690 724 691 
691 724 1022 725 
988 1022 989 691 
691 724 1021 1022 
988 1022 691 1021 
989 691 1022 692 
1022 691 725 692 
693 726 1024 727 
990 1024 991 693 
693 726 1023 1024 
990 1024 693 1023 
991 693 1024 694 
1024 693 727 694 
694 727 1025 728 
991 1025 992 694 
694 727 1024 1025 
991 1025 694 1024 
992 694 1025 695 
1025 694 728 695 
695 728 1026 729 
992 1026 993 695 
695 728 1025 1026 
992 1026 695 1025 
993 695 1026 696 
1026 695 729 696 
696 729 1027 730 
993 1027 994 696 
696 729 1026 1027 
993 1027 696 1026 
994 696 1027 697 
1027 696 730 697 
697 730 1028 731 
994 1028 995 697 
697 730 1027 1028 
994 1028 697 1027 
995 697 1028 698 
1028 697 731 698 
698 731 1029 732 
995 1029 996 698 
698 731 1028 1029 
995 1029 698 1028 
996 698 1029 699 
1029 698 732 699 
699 732 1030 733 
996 1030 997 699 
699 732 1029 1030 
996 1030 699 1029 
997 699 1030 700 
1030 699 733 700 
700 733 1031 734 
997 1031 998 700 
700 733 1030 1031 
997 1031 700 1030 
998 700 1031 701 
1031 700 734 701 
701 734 1032 735 
998 1032 999 701 
701 734 1031 1032 
998 1032 701 1031 
999 701 1032 702 
1032 701 735 702 
702 735 1033 736 
999 1033 1000 702 
702 735 1032 1033 
999 1033 702 1032 
1000 702 1033 703 
1033 702 736 703 
703 736 1034 737 
1000 1034 1001 703 
703 736 1033 1034 
1000 1034 703 1033 
1001 703 1034 704 
1034 703 737 704 
704 737 1035 738 
1001 1035 1002 704 
704 737 1034 1035 
1001 1035 704 1034 
1002 704 1035 705 
1035 704 738 705 
705 738 1036 739 
1002 1036 1003 705 
705 738 1035 1036 
1002 1036 705 1035 
1003 705 1036 706 
1036 705 739 706 
706 739 1037 740 
1003 1037 1004 706 
706 739 1036 1037 
1003 1037 706 1036 
1004 706 1037 707 
1037 706 740 707 
707 740 1038 741 
1004 1038 1005 707 
707 740 1037 1038 
1004 1038 707 1037 
1005 707 1038 708 
1038 707 741 708 
708 741 1039 742 
1005 1039 1006 708 
708 741 1038 1039 
1005 1039 708 1038 
1006 708 1039 709 
1039 708 742 709 
709 742 1040 743 
1006 1040 1007 709 
709 742 1039 1040 
1006 1040 709 1039 
1007 709 1040 710 
1040 709 743 710 
710 743 1041 744 
1007 1041 1008 710 
710 743 1040 1041 
1007 1041 710 1040 
1008 710 1041 711 
1041 710 744 711 
711 744 1042 745 
1008 1042 1009 711 
711 744 1041 1042 
1008 1042 711 1041 
1009 711 1042 712 
1042 711 745 712 
712 745 1043 746 
1009 1043 1010 712 
712 745 1042 1043 
1009 1043 712 1042 
1010 712 1043 713 
1043 712 746 713 
713 746 1044 747 
1010 1044 1011 713 
713 746 1043 1044 
1010 1044 713 1043 
1011 713 1044 714 
1044 713 747 714 
714 747 1045 748 
1011 1045 1012 714 
714 747 1044 1045 
1011 1045 714 1044 
1012 714 1045 715 
1045 714 748 715 
715 748 1046 749 
1012 1046 1013 715 
715 748 1045 1046 
1012 1046 715 1045 
1013 715 1046 716 
1046 715 749 716 
716 749 1047 750 
1013 1047 1014 716 
716 749 1046 1047 
1013 1047 716 1046 
1014 716 1047 717 
1047 716 750 717 
717 750 1048 751 
1014 1048 1015 717 
717 750 1047 1048 
1014 1048 717 1047 
1015 717 1048 718 
1048 717 751 718 
718 751 1049 752 
1015 1049 1016 718 
718 751 1048 1049 
1015 1049 718 1048 
1016 718 1049 719 
1049 718 752 719 
719 752 1050 753 
1016 1050 1017 719 
719 752 1049 1050 
1016 1050 719 1049 
1017 719 1050 720 
1050 719 753 720 
720 753 1051 754 
1017 1051 1018 720 
720 753 1050 1051 
1017 1051 720 1050 
1018 720 1051 721 
1051 720 754 721 
721 754 1052 755 
1018 1052 1019 721 
721 754 1051 1052 
1018 1052 721 1051 
1019 721 1052 722 
1052 721 755 722 
722 755 1053 756 
1019 1053 1020 722 
722 755 1052 1053 
1019 1053 722 1052 
1020 722 1053 723 
1053 722 756 723 
723 756 1054 757 
1020 1054 1021 723 
723 756 1053 1054 
1020 1054 723 1053 
1021 723 1054 724 
1054 723 757 724 
724 757 1055 758 
1021 1055 1022 724 
724 757 1054 1055 
1021 1055 724 1054 
1022 724 1055 725 
1055 724 758 725 
726 759 1057 760 
1023 1057 1024 726 
726 759 1056 1057 
1023 1057 726 1056 
1024 726 1057 727 
1057 726 760 727 
727 760 1058 761 
1024 1058 1025 727 
727 760 1057 1058 
1024 1058 727 1057 
1025 727 1058 728 
1058 727 761 728 
728 761 1059 762 
1025 1059 1026 728 
728 761 1058 1059 
1025 1059 728 1058 
1026 728 1059 729 
1059 728 762 729 
729 762 1060 763 
1026 1060 1027 729 
729 762 1059 1060 
1026 1060 729 1059 
1027 729 1060 730 
1060 729 763 730 
730 763 1061 764 
1027 1061 1028 730 
730 763 1060 1061 
1027 1061 730 1060 
1028 730 1061 731 
1061 730 764 731 
731 764 1062 765 
1028 1062 1029 731 
731 764 1061 1062 
1028 1062 731 1061 
1029 731 1062 732 
1062 731 765 732 
732 765 1063 766 
1029 1063 1030 732 
732 765 1062 1063 
1029 1063 732 1062 
1030 732 1063 733 
1063 732 766 733 
733 766 1064 767 
1030 1064 1031 733 
733 766 1063 1064 
1030 1064 733 1063 
1031 733 1064 734 
1064 733 767 734 
734 767 1065 768 
1031 1065 1032 734 
734 767 1064 1065 
1031 1065 734 1064 
1032 734 1065 735 
1065 734 768 735 
735 768 1066 769 
1032 1066 1033 735 
735 768 1065 1066 
1032 1066 735 1065 
1033 735 1066 736 
1066 735 769 736 
736 769 1067 770 
1033 1067 1034 736 
736 769 1066 1067 
1033 1067 736 1066 
1034 736 1067 737 
1067 736 770 737 
737 770 1068 771 
1034 1068 1035 737 
737 770 1067 1068 
1034 1068 737 1067 
1035 737 1068 738 
1068 737 771 738 
738 771 1069 772 
1035 1069 1036 738 
738 771 1068 1069 
1035 1069 738 1068 
1036 738 1069 739 
1069 738 772 739 
739 772 1070 773 
1036 1070 1037 739 
739 772 1069 1070 
1036 1070 739 1069 
1037 739 1070 740 
1070 739 773 740 
740 773 1071 774 
1037 1071 1038 740 
740 773 1070 1071 
1037 1071 740 1070 
1038 740 1071 741 
1071 740 774 741 
741 774 1072 775 
1038 1072 1039 741 
741 774 1071 1072 
1038 1072 741 1071 
1039 741 1072 742 
1072 741 775 742 
742 775 1073 776 
1039 1073 1040 742 
742 775 1072 1073 
1039 1073 742 1072 
1040 742 1073 743 
1073 742 776 743 
743 776 1074 777 
1040 1074 1041 743 
743 776 1073 1074 
1040 1074 743 1073 
1041 743 1074 744 
1074 743 777 744 
744 777 1075 778 
1041 1075 1042 744 
744 777 1074 1075 
1041 1075 744 1074 
1042 744 1075 745 
1075 744 778 745 
745 778 1076 779 
1042 1076 1043 745 
745 778 1075 1076 
1042 1076 745 1075 
1043 745 1076 746 
1076 745 779 746 
746 779 1077 780 
1043 1077 1044 746 
746 779 1076 1077 
1043 1077 746 1076 
1044 746 1077 747 
1077 746 780 747 
747 780 1078 781 
1044 1078 1045 747 
747 780 1077 1078 
1044 1078 747 1077 
1045 747 1078 748 
1078 747 781 748 
748 781 1079 782 
1045 1079 1046 748 
748 781 1078 1079 
1045 1079 748 1078 
1046 748 1079 749 
1079 748 782 749 
749 782 1080 783 
1046 1080 1047 749 
749 782 1079 1080 
1046 1080 749 1079 
1047 749 1080 750 
1080 749 783 750 
750 783 1081 784 
1047 1081 1048 750 
750 783 1080 1081 
1047 1081 750 1080 
1048 750 1081 751 
1081 750 784 751 
751 784 1082 785 
1048 1082 1049 751 
751 784 1081 1082 
1048 1082 751 1081 
1049 751 1082 752 
1082 751 785 752 
752 785 1083 786 
1049 1083 1050 752 
752 785 1082 1083 
1049 1083 752 1082 
1050 752 1083 753 
1083 752 786 753 
753 786 1084 787 
1050 1084 1051 753 
753 786 1083 1084 
1050 1084 753 1083 
1051 753 1084 754 
1084 753 787 754 
754 787 1085 788 
1051 1085 1052 754 
754 787 1084 1085 
1051 1085 754 1084 
1052 754 1085 755 
1085 754 788 755 
755 788 1086 789 
1052 1086 1053 755 
755 788 1085 1086 
1052 1086 755 1085 
1053 755 1086 756 
1086 755 789 756 
756 789 1087 790 
1053 1087 1054 756 
756 789 1086 1087 
1053 1087 756 1086 
1054 756 1087 757 
1087 756 790 757 
757 790 1088 791 
1054 1088 1055 757 
757 790 1087 1088 
1054 1088 757 1087 
1055 757 1088 758 
1088 757 791 758 
759 792 1090 793 
1056 1090 1057 759 
759 792 1089 1090 
1056 1090 759 1089 
1057 759 1090 760 
1090 759 793 760 
760 793 1091 794 
1057 1091 1058 760 
760 793 1090 1091 
1057 1091 760 1090 
1058 760 1091 761 
1091 760 794 761 
761 794 1092 795 
1058 1092 1059 761 
761 794 1091 1092 
1058 1092 761 1091 
1059 761 1092 762 
1092 761 795 762 
762 795 1093 796 
1059 1093 1060 762 
762 795 1092 1093 
1059 1093 762 1092 
1060 762 1093 763 
1093 762 796 763 
763 796 1094 797 
1060 1094 1061 763 
763 796 1093 1094 
1060 1094 763 1093 
1061 763 1094 764 
1094 763 797 764 
764 797 1095 798 
1061 1095 1062 764 
764 797 1094 1095 
1061 1095 764 1094 
1062 764 1095 765 
1095 764 798 765 
765 798 1096 799 
1062 1096 1063 765 
765 798 1095 1096 
1062 1096 765 1095 
1063 765 1096 766 
1096 765 799 766 
766 799 1097 800 
1063 1097 1064 766 
766 799 1096 1097 
1063 1097 766 1096 
1064 766 1097 767 
1097 766 800 767 
767 800 1098 801 
1064 1098 1065 767 
767 800 1097 1098 
1064 1098 767 1097 
1065 767 1098 768 
1098 767 801 768 
768 801 1099 802 
1065 1099 1066 768 
768 801 1098 1099 
1065 1099 768 1098 
1066 768 1099 769 
1099 768 802 769 
769 802 1100 803 
1066 1100 1067 769 
769 802 1099 1100 
1066 1100 769 1099 
1067 769 1100 770 
1100 769 803 770 
770 803 1101 804 
1067 1101 1068 770 
770 803 1100 1101 
1067 1101 770 1100 
1068 770 1101 771 
1101 770 804 771 
771 804 1102 805 
1068 1102 1069 771 
771 804 1101 1102 
1068 1102 771 1101 
1069 771 1102 772 
1102 771 805 772 
772 805 1103 806 
1069 1103 1070 772 
772 805 1102 1103 
1069 1103 772 1102 
1070 772 1103 773 
1103 772 806 773 
773 806 1104 807 
1070 1104 1071 773 
773 806 1103 1104 
1070 1104 773 1103 
1071 773 1104 774 
1104 773 807 774 
774 807 1105 808 
1071 1105 1072 774 
774 807 1104 1105 
1071 1105 774 1104 
1072 774 1105 775 
1105 774 808 775 
775 808 1106 809 
1072 1106 1073 775 
775 808 1105 1106 
1072 1106 775 1105 
1073 775 1106 776 
1106 775 809 776 
776 809 1107 810 
1073 1107 1074 776 
776 809 1106 1107 
1073 1107 776 1106 
1074 776 1107 777 
1107 776 810 777 
777 810 1108 811 
1074 1108 1075 777 
777 810 1107 1108 
1074 1108 777 1107 
1075 777 1108 778 
1108 777 811 778 
778 811 1109 812 
1075 1109 1076 778 
778 811 1108 1109 
1075 1109 778 1108 
1076 778 1109 779 
1109 778 812 779 
779 812 1110 813 
1076 1110 1077 779 
779 812 1109 1110 
1076 1110 779 1109 
1077 779 1110 780 
1110 779 813 780 
780 813 1111 814 
1077 1111 1078 780 
780 813 1110 1111 
1077 1111 780 1110 
1078 780 1111 781 
1111 780 814 781 
781 814 1112 815 
1078 1112 1079 781 
781 814 1111 1112 
1078 1112 781 1111 
1079 781 1112 782 
1112 781 815 782 
782 815 1113 816 
1079 1113 1080 782 
782 815 1112 1113 
1079 1113 782 1112 
1080 782 1113 783 
1113 782 816 783 
783 816 1114 817 
1080 1114 1081 783 
783 816 1113 1114 
1080 1114 783 1113 
1081 783 1114 784 
1114 783 817 784 
784 817 1115 818 
1081 1115 1082 784 
784 817 1114 1115 
1081 1115 784 1114 
1082 784 1115 785 
1115 784 818 785 
785 818 1116 819 
1082 1116 1083 785 
785 818 1115 1116 
1082 1116 785 1115 
1083 785 1116 786 
1116 785 819 786 
786 819 1117 820 
1083 1117 1084 786 
786 819 1116 1117 
1083 1117 786 1116 
1084 786 1117 787 
1117 786 820 787 
787 820 1118 821 
1084 1118 1085 787 
787 820 1117 1118 
1084 1118 787 1117 
1085 787 1118 788 
1118 787 821 788 
788 821 1119 822 
1085 1119 1086 788 
788 821 1118 1119 
1085 1119 788 1118 
1086 788 1119 789 
1119 788 822 789 
789 822 1120 823 
1086 1120 1087 789 
789 822 1119 1120 
1086 1120 789 1119 
1087 789 1120 790 
1120 789 823 790 
790 823 1121 824 
1087 1121 1088 790 
790 823 1120 1121 
1087 1121 790 1120 
1088 790 1121 791 
1121 790 824 791 
792 825 1123 826 
1089 1123 1090 792 
792 825 1122 1123 
1089 1123 792 1122 
1090 792 1123 793 
1123 792 826 793 
793 826 1124 827 
1090 1124 1091 793 
793 826 1123 1124 
1090 1124 793 1123 
1091 793 1124 794 
1124 793 827 794 
794 827 1125 828 
1091 1125 1092 794 
794 827 1124 1125 
1091 1125 794 1124 
1092 794 1125 795 
1125 794 828 795 
795 828 1126 829 
1092 1126 1093 795 
795 828 1125 1126 
1092 1126 795 1125 
1093 795 1126 796 
1126 795 829 796 
796 829 1127 830 
1093 1127 1094 796 
796 829 1126 1127 
1093 1127 796 1126 
1094 796 1127 797 
1127 796 830 797 
797 830 1128 831 
1094 1128 1095 797 
797 830 1127 1128 
1094 1128 797 1127 
1095 797 1128 798 
1128 797 831 798 
798 831 1129 832 
1095 1129 1096 798 
798 831 1128 1129 
1095 1129 798 1128 
1096 798 1129 799 
1129 798 832 799 
799 832 1130 833 
1096 1130 1097 799 
799 832 1129 1130 
1096 1130 799 1129 
1097 799 1130 800 
1130 799 833 800 
800 833 1131 834 
1097 1131 1098 800 
800 833 1130 1131 
1097 1131 800 1130 
1098 800 1131 801 
1131 800 834 801 
801 834 1132 835 
1098 1132 1099 801 
801 834 1131 1132 
1098 1132 801 1131 
1099 801 1132 802 
1132 801 835 802 
802 835 1133 836 
1099 1133 1100 802 
802 835 1132 1133 
1099 1133 802 1132 
1100 802 1133 803 
1133 802 836 803 
803 836 1134 837 
1100 1134 1101 803 
803 836 1133 1134 
1100 1134 803 1133 
1101 803 1134 804 
1134 803 837 804 
804 837 1135 838 
1101 1135 1102 804 
804 837 1134 1135 
1101 1135 804 1134 
1102 804 1135 805 
1135 804 838 805 
805 838 1136 839 
1102 1136 1103 805 
805 838 1135 1136 
1102 1136 805 1135 
1103 805 1136 806 
1136 805 839 806 
806 839 1137 840 
1103 1137 1104 806 
806 839 1136 1137 
1103 1137 806 1136 
1104 806 1137 807 
1137 806 840 807 
807 840 1138 841 
1104 1138 1105 807 
807 840 1137 1138 
1104 1138 807 1137 
1105 807 1138 808 
1138 807 841 808 
808 841 1139 842 
1105 1139 1106 808 
808 841 1138 1139 
1105 1139 808 1138 
1106 808 1139 809 
1139 808 842 809 
809 842 1140 843 
1106 1140 1107 809 
809 842 1139 1140 
1106 1140 809 1139 
1107 809 1140 810 
1140 809 843 810 
810 843 1141 844 
1107 1141 1108 810 
810 843 1140 1141 
1107 1141 810 1140 
1108 810 1141 811 
1141 810 844 811 
811 844 1142 845 
1108 1142 1109 811 
811 844 1141 1142 
1108 1142 811 1141 
1109 811 1142 812 
1142 811 845 812 
812 845 1143 846 
1109 1143 1110 812 
812 845 1142 1143 
1109 1143 812 1142 
1110 812 1143 813 
1143 812 846 813 
813 846 1144 847 
1110 1144 1111 813 
813 846 1143 1144 
1110 1144 813 1143 
1111 813 1144 814 
1144 813 847 814 
814 847 1145 848 
1111 1145 1112 814 
814 847 1144 1145 
1111 1145 814 1144 
1112 814 1145 815 
1145 814 848 815 
815 848 1146 849 
1112 1146 1113 815 
815 848 1145 1146 
1112 1146 815 1145 
1113 815 1146 816 
1146 815 849 816 
816 849 1147 850 
1113 1147 1114 816 
816 849 1146 1147 
1113 1147 816 1146 
1114 816 1147 817 
1147 816 850 817 
817 850 1148 851 
1114 1148 1115 817 
817 850 1147 1148 
1114 1148 817 1147 
1115 817 1148 818 
1148 817 851 818 
818 851 1149 852 
1115 1149 1116 818 
818 851 1148 1149 
1115 1149 818 1148 
1116 818 1149 819 
1149 818 852 819 
819 852 1150 853 
1116 1150 1117 819 
819 852 1149 1150 
1116 1150 819 1149 
1117 819 1150 820 
1150 819 853 820 
820 853 1151 854 
1117 1151 1118 820 
820 853 1150 1151 
1117 1151 820 1150 
1118 820 1151 821 
1151 820 854 821 
821 854 1152 855 
1118 1152 1119 821 
821 854 1151 1152 
1118 1152 821 1151 
1119 821 1152 822 
1152 821 855 822 
822 855 1153 856 
1119 1153 1120 822 
822 855 1152 1153 
1119 1153 822 1152 
1120 822 1153 823 
1153 822 856 823 
823 856 1154 857 
1120 1154 1121 823 
823 856 1153 1154 
1120 1154 823 1153 
1121 823 1154 824 
1154 823 857 824 
825 858 1156 859 
1122 1156 1123 825 
825 858 1155 1156 
1122 1156 825 1155 
1123 825 1156 826 
1156 825 859 826 
826 859 1157 860 
1123 1157 1124 826 
826 859 1156 1157 
1123 1157 826 1156 
1124 826 1157 827 
1157 826 860 827 
827 860 1158 861 
1124 1158 1125 827 
827 860 1157 1158 
1124 1158 827 1157 
1125 827 1158 828 
1158 827 861 828 
828 861 1159 862 
1125 1159 1126 828 
828 861 1158 1159 
1125 1159 828 1158 
1126 828 1159 829 
1159 828 862 829 
829 862 1160 863 
1126 1160 1127 829 
829 862 1159 1160 
1126 1160 829 1159 
1127 829 1160 830 
1160 829 863 830 
830 863 1161 864 
1127 1161 1128 830 
830 863 1160 1161 
1127 1161 830 1160 
1128 830 1161 831 
1161 830 864 831 
831 864 1162 865 
1128 1162 1129 831 
831 864 1161 1162 
1128 1162 831 1161 
1129 831 1162 832 
1162 831 865 832 
832 865 1163 866 
1129 1163 1130 832 
832 865 1162 1163 
1129 1163 832 1162 
1130 832 1163 833 
1163 832 866 833 
833 866 1164 867 
1130 1164 1131 833 
833 866 1163 1164 
1130 1164 833 1163 
1131 833 1164 834 
1164 833 867 834 
834 867 1165 868 
1131 1165 1132 834 
834 867 1164 1165 
1131 1165 834 1164 
1132 834 1165 835 
1165 834 868 835 
835 868 1166 869 
1132 1166 1133 835 
835 868 1165 1166 
1132 1166 835 1165 
1133 835 1166 836 
1166 835 869 836 
836 869 1167 870 
1133 1167 1134 836 
836 869 1166 1167 
1133 1167 836 1166 
1134 836 1167 837 
1167 836 870 837 
837 870 1168 871 
1134 1168 1135 837 
837 870 1167 1168 
1134 1168 837 1167 
1135 837 1168 838 
1168 837 871 838 
838 871 1169 872 
1135 1169 1136 838 
838 871 1168 1169 
1135 1169 838 1168 
1136 838 1169 839 
1169 838 872 839 
839 872 1170 873 
1136 1170 1137 839 
839 872 1169 1170 
1136 1170 839 1169 
1137 839 1170 840 
1170 839 873 840 
840 873 1171 874 
1137 1171 1138 840 
840 873 1170 1171 
1137 1171 840 1170 
1138 840 1171 841 
1171 840 874 841 
841 874 1172 875 
1138 1172 1139 841 
841 874 1171 1172 
1138 1172 841 1171 
1139 841 1172 842 
1172 841 875 842 
842 875 1173 876 
1139 1173 1140 842 
842 875 1172 1173 
1139 1173 842 1172 
1140 842 1173 843 
1173 842 876 843 
843 876 1174 877 
1140 1174 1141 843 
843 876 1173 1174 
1140 1174 843 1173 
1141 843 1174 844 
1174 843 877 844 
844 877 1175 878 
1141 1175 1142 844 
844 877 1174 1175 
1141 1175 844 1174 
1142 844 1175 845 
1175 844 878 845 
845 878 1176 879 
1142 1176 1143 845 
845 878 1175 1176 
1142 1176 845 1175 
1143 845 1176 846 
1176 845 879 846 
846 879 1177 880 
1143 1177 1144 846 
846 879 1176 1177 
1143 1177 846 1176 
1144 846 1177 847 
1177 846 880 847 
847 880 1178 881 
1144 1178 1145 847 
847 880 1177 1178 
1144 1178 847 1177 
1145 847 1178 848 
1178 847 881 848 
848 881 1179 882 
1145 1179 1146 848 
848 881 1178 1179 
1145 1179 848 1178 
1146 848 1179 849 
1179 848 882 849 
849 882 1180 883 
1146 1180 1147 849 
849 882 1179 1180 
1146 1180 849 1179 
1147 849 1180 850 
1180 849 883 850 
850 883 1181 884 
1147 1181 1148 850 
850 883 1180 1181 
1147 1181 850 1180 
1148 850 1181 851 
1181 850 884 851 
851 884 1182 885 
1148 1182 1149 851 
851 884 1181 1182 
1148 1182 851 1181 
1149 851 1182 852 
1182 851 885 852 
852 885 1183 886 
1149 1183 1150 852 
852 885 1182 1183 
1149 1183 852 1182 
1150 852 1183 853 
1183 852 886 853 
853 886 1184 887 
1150 1184 1151 853 
853 886 1183 1184 
1150 1184 853 1183 
1151 853 1184 854 
1184 853 887 854 
854 887 1185 888 
1151 1185 1152 854 
854 887 1184 1185 
1151 1185 854 1184 
1152 854 1185 855 
1185 854 888 855 
855 888 1186 889 
1152 1186 1153 855 
855 888 1185 1186 
1152 1186 855 1185 
1153 855 1186 856 
1186 855 889 856 
856 889 1187 890 
1153 1187 1154 856 
856 889 1186 1187 
1153 1187 856 1186 
1154 856 1187 857 
1187 856 890 857 
891 924 1222 925 
1188 1222 1189 891 
891 924 1221 1222 
1188 1222 891 1221 
1189 891 1222 892 
1222 891 925 892 
892 925 1223 926 
1189 1223 1190 892 
892 925 1222 1223 
1189 1223 892 1222 
1190 892 1223 893 
1223 892 926 893 
893 926 1224 927 
1190 1224 1191 893 
893 926 1223 1224 
1190 1224 893 1223 
1191 893 1224 894 
1224 893 927 894 
894 927 1225 928 
1191 1225 1192 894 
894 927 1224 1225 
1191 1225 894 1224 
1192 894 1225 895 
1225 894 928 895 
895 928 1226 929 
1192 1226 1193 895 
895 928 1225 1226 
1192 1226 895 1225 
1193 895 1226 896 
1226 895 929 896 
896 929 1227 930 
1193 1227 1194 896 
896 929 1226 1227 
1193 1227 896 1226 
1194 896 1227 897 
1227 896 930 897 
897 930 1228 931 
1194 1228 1195 897 
897 930 1227 1228 
1194 1228 897 1227 
1195 897 1228 898 
1228 897 931 898 
898 931 1229 932 
1195 1229 1196 898 
898 931 1228 1229 
1195 1229 898 1228 
1196 898 1229 899 
1229 898 932 899 
899 932 1230 933 
1196 1230 1197 899 
899 932 1229 1230 
1196 1230 899 1229 
1197 899 1230 900 
1230 899 933 900 
900 933 1231 934 
1197 1231 1198 900 
900 933 1230 1231 
1197 1231 900 1230 
1198 900 1231 901 
1231 900 934 901 
901 934 1232 935 
1198 1232 1199 901 
901 934 1231 1232 
1198 1232 901 1231 
1199 901 1232 902 
1232 901 935 902 
902 935 1233 936 
1199 1233 1200 902 
902 935 1232 1233 
1199 1233 902 1232 
1200 902 1233 903 
1233 902 936 903 
903 936 1234 937 
1200 1234 1201 903 
903 936 1233 1234 
1200 1234 903 1233 
1201 903 1234 904 
1234 903 937 904 
904 937 1235 938 
1201 1235 1202 904 
904 937 1234 1235 
1201 1235 904 1234 
1202 904 1235 905 
1235 904 938 905 
905 938 1236 939 
1202 1236 1203 905 
905 938 1235 1236 
1202 1236 905 1235 
1203 905 1236 906 
1236 905 939 906 
906 939 1237 940 
1203 1237 1204 906 
906 939 1236 1237 
1203 1237 906 1236 
1204 906 1237 907 
1237 906 940 907 
907 940 1238 941 
1204 1238 1205 907 
907 940 1237 1238 
1204 1238 907 1237 
1205 907 1238 908 
1238 907 941 908 
908 941 1239 942 
1205 1239 1206 908 
908 941 1238 1239 
1205 1239 908 1238 
1206 908 1239 909 
1239 908 942 909 
909 942 1240 943 
1206 1240 1207 909 
909 942 1239 1240 
1206 1240 909 1239 
1207 909 1240 910 
1240 909 943 910 
910 943 1241 944 
1207 1241 1208 910 
910 943 1240 1241 
1207 1241 910 1240 
1208 910 1241 911 
1241 910 944 911 
911 944 1242 945 
1208 1242 1209 911 
911 944 1241 1242 
1208 1242 911 1241 
1209 911 1242 912 
1242 911 945 912 
912 945 1243 946 
1209 1243 1210 912 
912 945 1242 1243 
1209 1243 912 1242 
1210 912 1243 913 
1243 912 946 913 
913 946 1244 947 
1210 1244 1211 913 
913 946 1243 1244 
1210 1244 913 1243 
1211 913 1244 914 
1244 913 947 914 
914 947 1245 948 
1211 1245 1212 914 
914 947 1244 1245 
1211 1245 914 1244 
1212 914 1245 915 
1245 914 948 915 
915 948 1246 949 
1212 1246 1213 915 
915 948 1245 1246 
1212 1246 915 1245 
1213 915 1246 916 
1246 915 949 916 
916 949 1247 950 
1213 1247 1214 916 
916 949 1246 1247 
1213 1247 916 1246 
1214 916 1247 917 
1247 916 950 917 
917 950 1248 951 
1214 1248 1215 917 
917 950 1247 1248 
1214 1248 917 1247 
1215 917 1248 918 
1248 917 951 918 
918 951 1249 952 
1215 1249 1216 918 
918 951 1248 1249 
1215 1249 918 1248 
1216 918 1249 919 
1249 918 952 919 
919 952 1250 953 
1216 1250 1217 919 
919 952 1249 1250 
1216 1250 919 1249 
1217 919 1250 920 
1250 919 953 920 
920 953 1251 954 
1217 1251 1218 920 
920 953 1250 1251 
1217 1251 920 1250 
1218 920 1251 921 
1251 920 954 921 
921 954 1252 955 
1218 1252 1219 921 
921 954 1251 1252 
1218 1252 921 1251 
1219 921 1252 922 
1252 921 955 922 
922 955 1253 956 
1219 1253 1220 922 
922 955 1252 1253 
1219 1253 922 1252 
1220 922 1253 923 
1253 922 956 923 
924 957 1255 958 
1221 1255 1222 924 
924 957 1254 1255 
1221 1255 924 1254 
1222 924 1255 925 
1255 924 958 925 
925 958 1256 959 
1222 1256 1223 925 
925 958 1255 1256 
1222 1256 925 1255 
1223 925 1256 926 
1256 925 959 926 
926 959 1257 960 
1223 1257 1224 926 
926 959 1256 1257 
1223 1257 926 1256 
1224 926 1257 927 
1257 926 960 927 
927 960 1258 961 
1224 1258 1225 927 
927 960 1257 1258 
1224 1258 927 1257 
1225 927 1258 928 
1258 927 961 928 
928 961 1259 962 
1225 1259 1226 928 
928 961 1258 1259 
1225 1259 928 1258 
1226 928 1259 929 
1259 928 962 929 
929 962 1260 963 
1226 1260 1227 929 
929 962 1259 1260 
1226 1260 929 1259 
1227 929 1260 930 
1260 929 963 930 
930 963 1261 964 
1227 1261 1228 930 
930 963 1260 1261 
1227 1261 930 1260 
1228 930 1261 931 
1261 930 964 931 
931 964 1262 965 
1228 1262 1229 931 
931 964 1261 1262 
1228 1262 931 1261 
1229 931 1262 932 
1262 931 965 932 
932 965 1263 966 
1229 1263 1230 932 
932 965 1262 1263 
1229 1263 932 1262 
1230 932 1263 933 
1263 932 966 933 
933 966 1264 967 
1230 1264 1231 933 
933 966 1263 1264 
1230 1264 933 1263 
1231 933 1264 934 
1264 933 967 934 
934 967 1265 968 
1231 1265 1232 934 
934 967 1264 1265 
1231 1265 934 1264 
1232 934 1265 935 
1265 934 968 935 
935 968 1266 969 
1232 1266 1233 935 
935 968 1265 1266 
1232 1266 935 1265 
1233 935 1266 936 
1266 935 969 936 
936 969 1267 970 
1233 1267 1234 936 
936 969 1266 1267 
1233 1267 936 1266 
1234 936 1267 937 
1267 936 970 937 
937 970 1268 971 
1234 1268 1235 937 
937 970 1267 1268 
1234 1268 937 1267 
1235 937 1268 938 
1268 937 971 938 
938 971 1269 972 
1235 1269 1236 938 
938 971 1268 1269 
1235 1269 938 1268 
1236 938 1269 939 
1269 938 972 939 
939 972 1270 973 
1236 1270 1237 939 
939 972 1269 1270 
1236 1270 939 1269 
1237 939 1270 940 
1270 939 973 940 
940 973 1271 974 
1237 1271 1238 940 
940 973 1270 1271 
1237 1271 940 1270 
1238 940 1271 941 
1271 940 974 941 
941 974 1272 975 
1238 1272 1239 941 
941 974 1271 1272 
1238 1272 941 1271 
1239 941 1272 942 
1272 941 975 942 
942 975 1273 976 
1239 1273 1240 942 
942 975 1272 1273 
1239 1273 942 1272 
1240 942 1273 943 
1273 942 976 943 
943 976 1274 977 
1240 1274 1241 943 
943 976 1273 1274 
1240 1274 943 1273 
1241 943 1274 944 
1274 943 977 944 
944 977 1275 978 
1241 1275 1242 944 
944 977 1274 1275 
1241 1275 944 1274 
1242 944 1275 945 
1275 944 978 945 
945 978 1276 979 
1242 1276 1243 945 
945 978 1275 1276 
1242 1276 945 1275 
1243 945 1276 946 
1276 945 979 946 
946 979 1277 980 
1243 1277 1244 946 
946 979 1276 1277 
1243 1277 946 1276 
1244 946 1277 947 
1277 946 980 947 
947 980 1278 981 
1244 1278 1245 947 
947 980 1277 1278 
1244 1278 947 1277 
1245 947 1278 948 
1278 947 981 948 
948 981 1279 982 
1245 1279 1246 948 
948 981 1278 1279 
1245 1279 948 1278 
1246 948 1279 949 
1279 948 982 949 
949 982 1280 983 
1246 1280 1247 949 
949 982 1279 1280 
1246 1280 949 1279 
1247 949 1280 950 
1280 949 983 950 
950 983 1281 984 
1247 1281 1248 950 
950 983 1280 1281 
1247 1281 950 1280 
1248 950 1281 951 
1281 950 984 951 
951 984 1282 985 
1248 1282 1249 951 
951 984 1281 1282 
1248 1282 951 1281 
1249 951 1282 952 
1282 951 985 952 
952 985 1283 986 
1249 1283 1250 952 
952 985 1282 1283 
1249 1283 952 1282 
1250 952 1283 953 
1283 952 986 953 
953 986 1284 987 
1250 1284 1251 953 
953 986 1283 1284 
1250 1284 953 1283 
1251 953 1284 954 
1284 953 987 954 
954 987 1285 988 
1251 1285 1252 954 
954 987 1284 1285 
1251 1285 954 1284 
1252 954 1285 955 
1285 954 988 955 
955 988 1286 989 
1252 1286 1253 955 
955 988 1285 1286 
1252 1286 955 1285 
1253 955 1286 956 
1286 955 989 956 
957 990 1288 991 
1254 1288 1255 957 
957 990 1287 1288 
1254 1288 957 1287 
1255 957 1288 958 
1288 957 991 958 
958 991 1289 992 
1255 1289 1256 958 
958 991 1288 1289 
1255 1289 958 1288 
1256 958 1289 959 
1289 958 992 959 
959 992 1290 993 
1256 1290 1257 959 
959 992 1289 1290 
1256 1290 959 1289 
1257 959 1290 960 
1290 959 993 960 
960 993 1291 994 
1257 1291 1258 960 
960 993 1290 1291 
1257 1291 960 1290 
1258 960 1291 961 
1291 960 994 961 
961 994 1292 995 
1258 1292 1259 961 
961 994 1291 1292 
1258 1292 961 1291 
1259 961 1292 962 
1292 961 995 962 
962 995 1293 996 
1259 1293 1260 962 
962 995 1292 1293 
1259 1293 962 1292 
1260 962 1293 963 
1293 962 996 963 
963 996 1294 997 
1260 1294 1261 963 
963 996 1293 1294 
1260 1294 963 1293 
1261 963 1294 964 
1294 963 997 964 
964 997 1295 998 
1261 1295 1262 964 
964 997 1294 1295 
1261 1295 964 1294 
1262 964 1295 965 
1295 964 998 965 
965 998 1296 999 
1262 1296 1263 965 
965 998 1295 1296 
1262 1296 965 1295 
1263 965 1296 966 
1296 965 999 966 
966 999 1297 1000 
1263 1297 1264 966 
966 999 1296 1297 
1263 1297 966 1296 
1264 966 1297 967 
1297 966 1000 967 
967 1000 1298 1001 
1264 1298 1265 967 
967 1000 1297 1298 
1264 1298 967 1297 
1265 967 1298 968 
1298 967 1001 968 
968 1001 1299 1002 
1265 1299 1266 968 
968 1001 1298 1299 
1265 1299 968 1298 
1266 968 1299 969 
1299 968 1002 969 
969 1002 1300 1003 
1266 1300 1267 969 
969 1002 1299 1300 
1266 1300 969 1299 
1267 969 1300 970 
1300 969 1003 970 
970 1003 1301 1004 
1267 1301 1268 970 
970 1003 1300 1301 
1267 1301 970 1300 
1268 970 1301 971 
1301 970 1004 971 
971 1004 1302 1005 
1268 1302 1269 971 
971 1004 1301 1302 
1268 1302 971 1301 
1269 971 1302 972 
1302 971 1005 972 
972 1005 1303 1006 
1269 1303 1270 972 
972 1005 1302 1303 
1269 1303 972 1302 
1270 972 1303 973 
1303 972 1006 973 
973 1006 1304 1007 
1270 1304 1271 973 
973 1006 1303 1304 
1270 1304 973 1303 
1271 973 1304 974 
1304 973 1007 974 
974 1007 1305 1008 
1271 1305 1272 974 
974 1007 1304 1305 
1271 1305 974 1304 
1272 974 1305 975 
1305 974 1008 975 
975 1008 1306 1009 
1272 1306 1273 975 
975 1008 1305 1306 
1272 1306 975 1305 
1273 975 1306 976 
1306 975 1009 976 
976 1009 1307 1010 
1273 1307 1274 976 
976 1009 1306 1307 
1273 1307 976 1306 
1274 976 1307 977 
1307 976 1010 977 
977 1010 1308 1011 
1274 1308 1275 977 
977 1010 1307 1308 
1274 1308 977 1307 
1275 977 1308 978 
1308 977 1011 978 
978 1011 1309 1012 
1275 1309 1276 978 
978 1011 1308 1309 
1275 1309 978 1308 
1276 978 1309 979 
1309 978 1012 979 
979 1012 1310 1013 
1276 1310 1277 979 
979 1012 1309 1310 
1276 1310 979 1309 
1277 979 1310 980 
1310 979 1013 980 
980 1013 1311 1014 
1277 1311 1278 980 
980 1013 1310 1311 
1277 1311 980 1310 
1278 980 1311 981 
1311 980 1014 981 
981 1014 1312 1015 
1278 1312 1279 981 
981 1014 1311 1312 
1278 1312 981 1311 
1279 981 1312 982 
1312 981 1015 982 
982 1015 1313 1016 
1279 1313 1280 982 
982 1015 1312 1313 
1279 1313 982 1312 
1280 982 1313 983 
1313 982 1016 983 
983 1016 1314 1017 
1280 1314 1281 983 
983 1016 1313 1314 
1280 1314 983 1313 
1281 983 1314 984 
1314 983 1017 984 
984 1017 1315 1018 
1281 1315 1282 984 
984 1017 1314 1315 
1281 1315 984 1314 
1282 984 1315 985 
1315 984 1018 985 
985 1018 1316 1019 
1282 1316 1283 985 
985 1018 1315 1316 
1282 1316 985 1315 
1283 985 1316 986 
1316 985 1019 986 
986 1019 1317 1020 
1283 1317 1284 986 
986 1019 1316 1317 
1283 1317 986 1316 
1284 986 1317 987 
1317 986 1020 987 
987 1020 1318 1021 
1284 1318 1285 987 
987 1020 1317 1318 
1284 1318 987 1317 
1285 987 1318 988 
1318 987 1021 988 
988 1021 1319 1022 
1285 1319 1286 988 
988 1021 1318 1319 
1285 1319 988 1318 
1286 988 1319 989 
1319 988 1022 989 
990 1023 1321 1024 
1287 1321 1288 990 
990 1023 1320 1321 
1287 1321 990 1320 
1288 990 1321 991 
1321 990 1024 991 
991 1024 1322 1025 
1288 1322 1289 991 
991 1024 1321 1322 
1288 1322 991 1321 
1289 991 1322 992 
1322 991 1025 992 
992 1025 1323 1026 
1289 1323 1290 992 
992 1025 1322 1323 
1289 1323 992 1322 
1290 992 1323 993 
1323 992 1026 993 
993 1026 1324 1027 
1290 1324 1291 993 
993 1026 1323 1324 
1290 1324 993 1323 
1291 993 1324 994 
1324 993 1027 994 
994 1027 1325 1028 
1291 1325 1292 994 
994 1027 1324 1325 
1291 1325 994 1324 
1292 994 1325 995 
1325 994 1028 995 
995 1028 1326 1029 
1292 1326 1293 995 
995 1028 1325 1326 
1292 1326 995 1325 
1293 995 1326 996 
1326 995 1029 996 
996 1029 1327 1030 
1293 1327 1294 996 
996 1029 1326 1327 
1293 1327 996 1326 
1294 996 1327 997 
1327 996 1030 997 
997 1030 1328 1031 
1294 1328 1295 997 
997 1030 1327 1328 
1294 1328 997 1327 
1295 997 1328 998 
1328 997 1031 998 
998 1031 1329 1032 
1295 1329 1296 998 
998 1031 1328 1329 
1295 1329 998 1328 
1296 998 1329 999 
1329 998 1032 999 
999 1032 1330 1033 
1296 1330 1297 999 
999 1032 1329 1330 
1296 1330 999 1329 
1297 999 1330 1000 
1330 999 1033 1000 
1000 1033 1331 1034 
1297 1331 1298 1000 
1000 1033 1330 1331 
1297 1331 1000 1330 
1298 1000 1331 1001 
1331 1000 1034 1001 
1001 1034 1332 1035 
1298 1332 1299 1001 
1001 1034 1331 1332 
1298 1332 1001 1331 
1299 1001 1332 1002 
1332 1001 1035 1002 
1002 1035 1333 1036 
1299 1333 1300 1002 
1002 1035 1332 1333 
1299 1333 1002 1332 
1300 1002 1333 1003 
1333 1002 1036 1003 
1003 1036 1334 1037 
1300 1334 1301 1003 
1003 1036 1333 1334 
1300 1334 1003 1333 
1301 1003 1334 1004 
1334 1003 1037 1004 
1004 1037 1335 1038 
1301 1335 1302 1004 
1004 1037 1334 1335 
1301 1335 1004 1334 
1302 1004 1335 1005 
1335 1004 1038 1005 
1005 1038 1336 1039 
1302 1336 1303 1005 
1005 1038 1335 1336 
1302 1336 1005 1335 
1303 1005 1336 1006 
1336 1005 1039 1006 
1006 1039 1337 1040 
1303 1337 1304 1006 
1006 1039 1336 1337 
1303 1337 1006 1336 
1304 1006 1337 1007 
1337 1006 1040 1007 
1007 1040 1338 1041 
1304 1338 1305 1007 
1007 1040 1337 1338 
1304 1338 1007 1337 
1305 1007 1338 1008 
1338 1007 1041 1008 
1008 1041 1339 1042 
1305 1339 1306 1008 
1008 1041 1338 1339 
1305 1339 1008 1338 
1306 1008 1339 1009 
1339 1008 1042 1009 
1009 1042 1340 1043 
1306 1340 1307 1009 
1009 1042 1339 1340 
1306 1340 1009 1339 
1307 1009 1340 1010 
1340 1009 1043 1010 
1010 1043 1341 1044 
1307 1341 1308 1010 
1010 1043 1340 1341 
1307 1341 1010 1340 
1308 1010 1341 1011 
1341 1010 1044 1011 
1011 1044 1342 1045 
1308 1342 1309 1011 
1011 1044 1341 1342 
1308 1342 1011 1341 
1309 1011 1342 1012 
1342 1011 1045 1012 
1012 1045 1343 1046 
1309 1343 1310 1012 
1012 1045 1342 1343 
1309 1343 1012 1342 
1310 1012 1343 1013 
1343 1012 1046 1013 
1013 1046 1344 1047 
1310 1344 1311 1013 
1013 1046 1343 1344 
1310 1344 1013 1343 
1311 1013 1344 1014 
1344 1013 1047 1014 
1014 1047 1345 1048 
1311 1345 1312 1014 
1014 1047 1344 1345 
1311 1345 1014 1344 
1312 1014 1345 1015 
1345 1014 1048 1015 
1015 1048 1346 1049 
1312 1346 1313 1015 
1015 1048 1345 1346 
1312 1346 1015 1345 
1313 1015 1346 1016 
1346 1015 1049 1016 
1016 1049 1347 1050 
1313 1347 1314 1016 
1016 1049 1346 1347 
1313 1347 1016 1346 
1314 1016 1347 1017 
1347 1016 1050 1017 
1017 1050 1348 1051 
1314 1348 1315 1017 
1017 1050 1347 1348 
1314 1348 1017 1347 
1315 1017 1348 1018 
1348 1017 1051 1018 
1018 1051 1349 1052 
1315 1349 1316 1018 
1018 1051 1348 1349 
1315 1349 1018 1348 
1316 1018 1349 1019 
1349 1018 1052 1019 
1019 1052 1350 1053 
1316 1350 1317 1019 
1019 1052 1349 1350 
1316 1350 1019 1349 
1317 1019 1350 1020 
1350 1019 1053 1020 
1020 1053 1351 1054 
1317 1351 1318 1020 
1020 1053 1350 1351 
1317 1351 1020 1350 
1318 1020 1351 1021 
1351 1020 1054 1021 
1021 1054 1352 1055 
1318 1352 1319 1021 
1021 1054 1351 1352 
1318 1352 1021 1351 
1319 1021 1352 1022 
1352 1021 1055 1022 
1023 1056 1354 1057 
1320 1354 1321 1023 
1023 1056 1353 1354 
1320 1354 1023 1353 
1321 1023 1354 1024 
1354 1023 1057 1024 
1024 1057 1355 1058 
1321 1355 1322 1024 
1024 1057 1354 1355 
1321 1355 1024 1354 
1322 1024 1355 1025 
1355 1024 1058 1025 
1025 1058 1356 1059 
1322 1356 1323 1025 
1025 1058 1355 1356 
1322 1356 1025 1355 
1323 1025 1356 1026 
1356 1025 1059 1026 
1026 1059 1357 1060 
1323 1357 1324 1026 
1026 1059 1356 1357 
1323 1357 1026 1356 
1324 1026 1357 1027 
1357 1026 1060 1027 
1027 1060 1358 1061 
1324 1358 1325 1027 
1027 1060 1357 1358 
1324 1358 1027 1357 
1325 1027 1358 1028 
1358 1027 1061 1028 
1028 1061 1359 1062 
1325 1359 1326 1028 
1028 1061 1358 1359 
1325 1359 1028 1358 
1326 1028 1359 1029 
1359 1028 1062 1029 
1029 1062 1360 1063 
1326 1360 1327 1029 
1029 1062 1359 1360 
1326 1360 1029 1359 
1327 1029 1360 1030 
1360 1029 1063 1030 
1030 1063 1361 1064 
1327 1361 1328 1030 
1030 1063 1360 1361 
1327 1361 1030 1360 
1328 1030 1361 1031 
1361 1030 1064 1031 
1031 1064 1362 1065 
1328 1362 1329 1031 
1031 1064 1361 1362 
1328 1362 1031 1361 
1329 1031 1362 1032 
1362 1031 1065 1032 
1032 1065 1363 1066 
1329 1363 1330 1032 
1032 1065 1362 1363 
1329 1363 1032 1362 
1330 1032 1363 1033 
1363 1032 1066 1033 
1033 1066 1364 1067 
1330 1364 1331 1033 
1033 1066 1363 1364 
1330 1364 1033 1363 
1331 1033 1364 1034 
1364 1033 1067 1034 
1034 1067 1365 1068 
1331 1365 1332 1034 
1034 1067 1364 1365 
1331 1365 1034 1364 
1332 1034 1365 1035 
1365 1034 1068 1035 
1035 1068 1366 1069 
1332 1366 1333 1035 
1035 1068 1365 1366 
1332 1366 1035 1365 
1333 1035 1366 1036 
1366 1035 1069 1036 
1036 1069 1367 1070 
1333 1367 1334 1036 
1036 1069 1366 1367 
1333 1367 1036 1366 
1334 1036 1367 1037 
1367 1036 1070 1037 
1037 1070 1368 1071 
1334 1368 1335 1037 
1037 1070 1367 1368 
1334 1368 1037 1367 
1335 1037 1368 1038 
1368 1037 1071 1038 
1038 1071 1369 1072 
1335 1369 1336 1038 
1038 1071 1368 1369 
1335 1369 1038 1368 
1336 1038 1369 1039 
1369 1038 1072 1039 
1039 1072 1370 1073 
1336 1370 1337 1039 
1039 1072 1369 1370 
1336 1370 1039 1369 
1337 1039 1370 1040 
1370 1039 1073 1040 
1040 1073 1371 1074 
1337 1371 1338 1040 
1040 1073 1370 1371 
1337 1371 1040 1370 
1338 1040 1371 1041 
1371 1040 1074 1041 
1041 1074 1372 1075 
1338 1372 1339 1041 
1041 1074 1371 1372 
1338 1372 1041 1371 
1339 1041 1372 1042 
1372 1041 1075 1042 
1042 1075 1373 1076 
1339 1373 1340 1042 
1042 1075 1372 1373 
1339 1373 1042 1372 
1340 1042 1373 1043 
1373 1042 1076 1043 
1043 1076 1374 1077 
1340 1374 1341 1043 
1043 1076 1373 1374 
1340 1374 1043 1373 
1341 1043 1374 1044 
1374 1043 1077 1044 
1044 1077 1375 1078 
1341 1375 1342 1044 
1044 1077 1374 1375 
1341 1375 1044 1374 
1342 1044 1375 1045 
1375 1044 1078 1045 
1045 1078 1376 1079 
1342 1376 1343 1045 
1045 1078 1375 1376 
1342 1376 1045 1375 
1343 1045 1376 1046 
1376 1045 1079 1046 
1046 1079 1377 1080 
1343 1377 1344 1046 
1046 1079 1376 1377 
1343 1377 1046 1376 
1344 1046 1377 1047 
1377 1046 1080 1047 
1047 1080 1378 1081 
1344 1378 1345 1047 
1047 1080 1377 1378 
1344 1378 1047 1377 
1345 1047 1378 1048 
1378 1047 1081 1048 
1048 1081 1379 1082 
1345 1379 1346 1048 
1048 1081 1378 1379 
1345 1379 1048 1378 
1346 1048 1379 1049 
1379 1048 1082 1049 
1049 1082 1380 1083 
1346 1380 1347 1049 
1049 1082 1379 1380 
1346 1380 1049 1379 
1347 1049 1380 1050 
1380 1049 1083 1050 
1050 1083 1381 1084 
1347 1381 1348 1050 
1050 1083 1380 1381 
1347 1381 1050 1380 
1348 1050 1381 1051 
1381 1050 1084 1051 
1051 1084 1382 1085 
1348 1382 1349 1051 
1051 1084 1381 1382 
1348 1382 1051 1381 
1349 1051 1382 1052 
1382 1051 1085 1052 
1052 1085 1383 1086 
1349 1383 1350 1052 
1052 1085 1382 1383 
1349 1383 1052 1382 
1350 1052 1383 1053 
1383 1052 1086 1053 
1053 1086 1384 1087 
1350 1384 1351 1053 
1053 1086 1383 1384 
1350 1384 1053 1383 
1351 1053 1384 1054 
1384 1053 1087 1054 
1054 1087 1385 1088 
1351 1385 1352 1054 
1054 1087 1384 1385 
1351 1385 1054 1384 
1352 1054 1385 1055 
1385 1054 1088 1055 
1056 1089 1387 1090 
1353 1387 1354 1056 
1056 1089 1386 1387 
1353 1387 1056 1386 
1354 1056 1387 1057 
1387 1056 1090 1057 
1057 1090 1388 1091 
1354 1388 1355 1057 
1057 1090 1387 1388 
1354 1388 1057 1387 
1355 1057 1388 1058 
1388 1057 1091 1058 
1058 1091 1389 1092 
1355 1389 1356 1058 
1058 1091 1388 1389 
1355 1389 1058 1388 
1356 1058 1389 1059 
1389 1058 1092 1059 
1059 1092 1390 1093 
1356 1390 1357 1059 
1059 1092 1389 1390 
1356 1390 1059 1389 
1357 1059 1390 1060 
1390 1059 1093 1060 
1060 1093 1391 1094 
1357 1391 1358 1060 
1060 1093 1390 1391 
1357 1391 1060 1390 
1358 1060 1391 1061 
1391 1060 1094 1061 
1061 1094 1392 1095 
1358 1392 1359 1061 
1061 1094 1391 1392 
1358 1392 1061 1391 
1359 1061 1392 1062 
1392 1061 1095 1062 
1062 1095 1393 1096 
1359 1393 1360 1062 
1062 1095 1392 1393 
1359 1393 1062 1392 
1360 1062 1393 1063 
1393 1062 1096 1063 
1063 1096 1394 1097 
1360 1394 1361 1063 
1063 1096 1393 1394 
1360 1394 1063 1393 
1361 1063 1394 1064 
1394 1063 1097 1064 
1064 1097 1395 1098 
1361 1395 1362 1064 
1064 1097 1394 1395 
1361 1395 1064 1394 
1362 1064 1395 1065 
1395 1064 1098 1065 
1065 1098 1396 1099 
1362 1396 1363 1065 
1065 1098 1395 1396 
1362 1396 1065 1395 
1363 1065 1396 1066 
1396 1065 1099 1066 
1066 1099 1397 1100 
1363 1397 1364 1066 
1066 1099 1396 1397 
1363 1397 1066 1396 
1364 1066 1397 1067 
1397 1066 1100 1067 
1067 1100 1398 1101 
1364 1398 1365 1067 
1067 1100 1397 1398 
1364 1398 1067 1397 
1365 1067 1398 1068 
1398 1067 1101 1068 
1068 1101 1399 1102 
1365 1399 1366 1068 
1068 1101 1398 1399 
1365 1399 1068 1398 
1366 1068 1399 1069 
1399 1068 1102 1069 
1069 1102 1400 1103 
1366 1400 1367 1069 
1069 1102 1399 1400 
1366 1400 1069 1399 
1367 1069 1400 1070 
1400 1069 1103 1070 
1070 1103 1401 1104 
1367 1401 1368 1070 
1070 1103 1400 1401 
1367 1401 1070 1400 
1368 1070 1401 1071 
1401 1070 1104 1071 
1071 1104 1402 1105 
1368 1402 1369 1071 
1071 1104 1401 1402 
1368 1402 1071 1401 
1369 1071 1402 1072 
1402 1071 1105 1072 
1072 1105 1403 1106 
1369 1403 1370 1072 
1072 1105 1402 1403 
1369 1403 1072 1402 
1370 1072 1403 1073 
1403 1072 1106 1073 
1073 1106 1404 1107 
1370 1404 1371 1073 
1073 1106 1403 1404 
1370 1404 1073 1403 
1371 1073 1404 1074 
1404 1073 1107 1074 
1074 1107 1405 1108 
1371 1405 1372 1074 
1074 1107 1404 1405 
1371 1405 1074 1404 
1372 1074 1405 1075 
1405 1074 1108 1075 
1075 1108 1406 1109 
1372 1406 1373 1075 
1075 1108 1405 1406 
1372 1406 1075 1405 
1373 1075 1406 1076 
1406 1075 1109 1076 
1076 1109 1407 1110 
1373 1407 1374 1076 
1076 1109 1406 1407 
1373 1407 1076 1406 
1374 1076 1407 1077 
1407 1076 1110 1077 
1077 1110 1408 1111 
1374 1408 1375 1077 
1077 1110 1407 1408 
1374 1408 1077 1407 
1375 1077 1408 1078 
1408 1077 1111 1078 
1078 1111 1409 1112 
1375 1409 1376 1078 
1078 1111 1408 1409 
1375 1409 1078 1408 
1376 1078 1409 1079 
1409 1078 1112 1079 
1079 1112 1410 1113 
1376 1410 1377 1079 
1079 1112 1409 1410 
1376 1410 1079 1409 
1377 1079 1410 1080 
1410 1079 1113 1080 
1080 1113 1411 1114 
1377 1411 1378 1080 
1080 1113 1410 1411 
1377 1411 1080 1410 
1378 1080 1411 1081 
1411 1080 1114 1081 
1081 1114 1412 1115 
1378 1412 1379 1081 
1081 1114 1411 1412 
1378 1412 1081 1411 
1379 1081 1412 1082 
1412 1081 1115 1082 
1082 1115 1413 1116 
1379 1413 1380 1082 
1082 1115 1412 1413 
1379 1413 1082 1412 
1380 1082 1413 1083 
1413 1082 1116 1083 
1083 1116 1414 1117 
1380 1414 1381 1083 
1083 1116 1413 1414 
1380 1414 1083 1413 
1381 1083 1414 1084 
1414 1083 1117 1084 
1084 1117 1415 1118 
1381 1415 1382 1084 
1084 1117 1414 1415 
1381 1415 1084 1414 
1382 1084 1415 1085 
1415 1084 1118 1085 
1085 1118 1416 1119 
1382 1416 1383 1085 
1085 1118 1415 1416 
1382 1416 1085 1415 
1383 1085 1416 1086 
1416 1085 1119 1086 
1086 1119 1417 1120 
1383 1417 1384 1086 
1086 1119 1416 1417 
1383 1417 1086 1416 
1384 1086 1417 1087 
1417 1086 1120 1087 
1087 1120 1418 1121 
1384 1418 1385 1087 
1087 1120 1417 1418 
1384 1418 1087 1417 
1385 1087 1418 1088 
1418 1087 1121 1088 
1089 1122 1420 1123 
1386 1420 1387 1089 
1089 1122 1419 1420 
1386 1420 1089 1419 
1387 1089 1420 1090 
1420 1089 1123 1090 
1090 1123 1421 1124 
1387 1421 1388 1090 
1090 1123 1420 1421 
1387 1421 1090 1420 
1388 1090 1421 1091 
1421 1090 1124 1091 
1091 1124 1422 1125 
1388 1422 1389 1091 
1091 1124 1421 1422 
1388 1422 1091 1421 
1389 1091 1422 1092 
1422 1091 1125 1092 
1092 1125 1423 1126 
1389 1423 1390 1092 
1092 1125 1422 1423 
1389 1423 1092 1422 
1390 1092 1423 1093 
1423 1092 1126 1093 
1093 1126 1424 1127 
1390 1424 1391 1093 
1093 1126 1423 1424 
1390 1424 1093 1423 
1391 1093 1424 1094 
1424 1093 1127 1094 
1094 1127 1425 1128 
1391 1425 1392 1094 
1094 1127 1424 1425 
1391 1425 1094 1424 
1392 1094 1425 1095 
1425 1094 1128 1095 
1095 1128 1426 1129 
1392 1426 1393 1095 
1095 1128 1425 1426 
1392 1426 1095 1425 
1393 1095 1426 1096 
1426 1095 1129 1096 
1096 1129 1427 1130 
1393 1427 1394 1096 
1096 1129 1426 1427 
1393 1427 1096 1426 
1394 1096 1427 1097 
1427 1096 1130 1097 
1097 1130 1428 1131 
1394 1428 1395 1097 
1097 1130 1427 1428 
1394 1428 1097 1427 
1395 1097 1428 1098 
1428 1097 1131 1098 
1098 1131 1429 1132 
1395 1429 1396 1098 
1098 1131 1428 1429 
1395 1429 1098 1428 
1396 1098 1429 1099 
1429 1098 1132 1099 
1099 1132 1430 1133 
1396 1430 1397 1099 
1099 1132 1429 1430 
1396 1430 1099 1429 
1397 1099 1430 1100 
1430 1099 1133 1100 
1100 1133 1431 1134 
1397 1431 1398 1100 
1100 1133 1430 1431 
1397 1431 1100 1430 
1398 1100 1431 1101 
1431 1100 1134 1101 
1101 1134 1432 1135 
1398 1432 1399 1101 
1101 1134 1431 1432 
1398 1432 1101 1431 
1399 1101 1432 1102 
1432 1101 1135 1102 
1102 1135 1433 1136 
1399 1433 1400 1102 
1102 1135 1432 1433 
1399 1433 1102 1432 
1400 1102 1433 1103 
1433 1102 1136 1103 
1103 1136 1434 1137 
1400 1434 1401 1103 
1103 1136 1433 1434 
1400 1434 1103 1433 
1401 1103 1434 1104 
1434 1103 1137 1104 
1104 1137 1435 1138 
1401 1435 1402 1104 
1104 1137 1434 1435 
1401 1435 1104 1434 
1402 1104 1435 1105 
1435 1104 1138 1105 
1105 1138 1436 1139 
1402 1436 1403 1105 
1105 1138 1435 1436 
1402 1436 1105 1435 
1403 1105 1436 1106 
1436 1105 1139 1106 
1106 1139 1437 1140 
1403 1437 1404 1106 
1106 1139 1436 1437 
1403 1437 1106 1436 
1404 1106 1437 1107 
1437 1106 1140 1107 
1107 1140 1438 1141 
1404 1438 1405 1107 
1107 1140 1437 1438 
1404 1438 1107 1437 
1405 1107 1438 1108 
1438 1107 1141 1108 
1108 1141 1439 1142 
1405 1439 1406 1108 
1108 1141 1438 1439 
1405 1439 1108 1438 
1406 1108 1439 1109 
1439 1108 1142 1109 
1109 1142 1440 1143 
1406 1440 1407 1109 
1109 1142 1439 1440 
1406 1440 1109 1439 
1407 1109 1440 1110 
1440 1109 1143 1110 
1110 1143 1441 1144 
1407 1441 1408 1110 
1110 1143 1440 1441 
1407 1441 1110 1440 
1408 1110 1441 1111 
1441 1110 1144 1111 
1111 1144 1442 1145 
1408 1442 1409 1111 
1111 1144 1441 1442 
1408 1442 1111 1441 
1409 1111 1442 1112 
1442 1111 1145 1112 
1112 1145 1443 1146 
1409 1443 1410 1112 
1112 1145 1442 1443 
1409 1443 1112 1442 
1410 1112 1443 1113 
1443 1112 1146 1113 
1113 1146 1444 1147 
1410 1444 1411 1113 
1113 1146 1443 1444 
1410 1444 1113 1443 
1411 1113 1444 1114 
1444 1113 1147 1114 
1114 1147 1445 1148 
1411 1445 1412 1114 
1114 1147 1444 1445 
1411 1445 1114 1444 
1412 1114 1445 1115 
1445 1114 1148 1115 
1115 1148 1446 1149 
1412 1446 1413 1115 
1115 1148 1445 1446 
1412 1446 1115 1445 
1413 1115 1446 1116 
1446 1115 1149 1116 
1116 1149 1447 1150 
1413 1447 1414 1116 
1116 1149 1446 1447 
1413 1447 1116 1446 
1414 1116 1447 1117 
1447 1116 1150 1117 
1117 1150 1448 1151 
1414 1448 1415 1117 
1117 1150 1447 1448 
1414 1448 1117 1447 
1415 1117 1448 1118 
1448 1117 1151 1118 
1118 1151 1449 1152 
1415 1449 1416 1118 
1118 1151 1448 1449 
1415 1449 1118 1448 
1416 1118 1449 1119 
1449 1118 1152 1119 
1119 1152 1450 1153 
1416 1450 1417 1119 
1119 1152 1449 1450 
1416 1450 1119 1449 
1417 1119 1450 1120 
1450 1119 1153 1120 
1120 1153 1451 1154 
1417 1451 1418 1120 
1120 1153 1450 1451 
1417 1451 1120 1450 
1418 1120 1451 1121 
1451 1120 1154 1121 
1122 1155 1453 1156 
1419 1453 1420 1122 
1122 1155 1452 1453 
1419 1453 1122 1452 
1420 1122 1453 1123 
1453 1122 1156 1123 
1123 1156 1454 1157 
1420 1454 1421 1123 
1123 1156 1453 1454 
1420 1454 1123 1453 
1421 1123 1454 1124 
1454 1123 1157 1124 
1124 1157 1455 1158 
1421 1455 1422 1124 
1124 1157 1454 1455 
1421 1455 1124 1454 
1422 1124 1455 1125 
1455 1124 1158 1125 
1125 1158 1456 1159 
1422 1456 1423 1125 
1125 1158 1455 1456 
1422 1456 1125 1455 
1423 1125 1456 1126 
1456 1125 1159 1126 
1126 1159 1457 1160 
1423 1457 1424 1126 
1126 1159 1456 1457 
1423 1457 1126 1456 
1424 1126 1457 1127 
1457 1126 1160 1127 
1127 1160 1458 1161 
1424 1458 1425 1127 
1127 1160 1457 1458 
1424 1458 1127 1457 
1425 1127 1458 1128 
1458 1127 1161 1128 
1128 1161 1459 1162 
1425 1459 1426 1128 
1128 1161 1458 1459 
1425 1459 1128 1458 
1426 1128 1459 1129 
1459 1128 1162 1129 
1129 1162 1460 1163 
1426 1460 1427 1129 
1129 1162 1459 1460 
1426 1460 1129 1459 
1427 1129 1460 1130 
1460 1129 1163 1130 
1130 1163 1461 1164 
1427 1461 1428 1130 
1130 1163 1460 1461 
1427 1461 1130 1460 
1428 1130 1461 1131 
1461 1130 1164 1131 
1131 1164 1462 1165 
1428 1462 1429 1131 
1131 1164 1461 1462 
1428 1462 1131 1461 
1429 1131 1462 1132 
1462 1131 1165 1132 
1132 1165 1463 1166 
1429 1463 1430 1132 
1132 1165 1462 1463 
1429 1463 1132 1462 
1430 1132 1463 1133 
1463 1132 1166 1133 
1133 1166 1464 1167 
1430 1464 1431 1133 
1133 1166 1463 1464 
1430 1464 1133 1463 
1431 1133 1464 1134 
1464 1133 1167 1134 
1134 1167 1465 1168 
1431 1465 1432 1134 
1134 1167 1464 1465 
1431 1465 1134 1464 
1432 1134 1465 1135 
1465 1134 1168 1135 
1135 1168 1466 1169 
1432 1466 1433 1135 
1135 1168 1465 1466 
1432 1466 1135 1465 
1433 1135 1466 1136 
1466 1135 1169 1136 
1136 1169 1467 1170 
1433 1467 1434 1136 
1136 1169 1466 1467 
1433 1467 1136 1466 
1434 1136 1467 1137 
1467 1136 1170 1137 
1137 1170 1468 1171 
1434 1468 1435 1137 
1137 1170 1467 1468 
1434 1468 1137 1467 
1435 1137 1468 1138 
1468 1137 1171 1138 
1138 1171 1469 1172 
1435 1469 1436 1138 
1138 1171 1468 1469 
1435 1469 1138 1468 
1436 1138 1469 1139 
1469 1138 1172 1139 
1139 1172 1470 1173 
1436 1470 1437 1139 
1139 1172 1469 1470 
1436 1470 1139 1469 
1437 1139 1470 1140 
1470 1139 1173 1140 
1140 1173 1471 1174 
1437 1471 1438 1140 
1140 1173 1470 1471 
1437 1471 1140 1470 
1438 1140 1471 1141 
1471 1140 1174 1141 
1141 1174 1472 1175 
1438 1472 1439 1141 
1141 1174 1471 1472 
1438 1472 1141 1471 
1439 1141 1472 1142 
1472 1141 1175 1142 
1142 1175 1473 1176 
1439 1473 1440 1142 
1142 1175 1472 1473 
1439 1473 1142 1472 
1440 1142 1473 1143 
1473 1142 1176 1143 
1143 1176 1474 1177 
1440 1474 1441 1143 
1143 1176 1473 1474 
1440 1474 1143 1473 
1441 1143 1474 1144 
1474 1143 1177 1144 
1144 1177 1475 1178 
1441 1475 1442 1144 
1144 1177 1474 1475 
1441 1475 1144 1474 
1442 1144 1475 1145 
1475 1144 1178 1145 
1145 1178 1476 1179 
1442 1476 1443 1145 
1145 1178 1475 1476 
1442 1476 1145 1475 
1443 1145 1476 1146 
1476 1145 1179 1146 
1146 1179 1477 1180 
1443 1477 1444 1146 
1146 1179 1476 1477 
1443 1477 1146 1476 
1444 1146 1477 1147 
1477 1146 1180 1147 
1147 1180 1478 1181 
1444 1478 1445 1147 
1147 1180 1477 1478 
1444 1478 1147 1477 
1445 1147 1478 1148 
1478 1147 1181 1148 
1148 1181 1479 1182 
1445 1479 1446 1148 
1148 1181 1478 1479 
1445 1479 1148 1478 
1446 1148 1479 1149 
1479 1148 1182 1149 
1149 1182 1480 1183 
1446 1480 1447 1149 
1149 1182 1479 1480 
1446 1480 1149 1479 
1447 1149 1480 1150 
1480 1149 1183 1150 
1150 1183 1481 1184 
1447 1481 1448 1150 
1150 1183 1480 1481 
1447 1481 1150 1480 
1448 1150 1481 1151 
1481 1150 1184 1151 
1151 1184 1482 1185 
1448 1482 1449 1151 
1151 1184 1481 1482 
1448 1482 1151 1481 
1449 1151 1482 1152 
1482 1151 1185 1152 
1152 1185 1483 1186 
1449 1483 1450 1152 
1152 1185 1482 1483 
1449 1483 1152 1482 
1450 1152 1483 1153 
1483 1152 1186 1153 
1153 1186 1484 1187 
1450 1484 1451 1153 
1153 1186 1483 1484 
1450 1484 1153 1483 
1451 1153 1484 1154 
1484 1153 1187 1154 
1188 1221 1519 1222 
1485 1519 1486 1188 
1188 1221 1518 1519 
1485 1519 1188 1518 
1486 1188 1519 1189 
1519 1188 1222 1189 
1189 1222 1520 1223 
1486 1520 1487 1189 
1189 1222 1519 1520 
1486 1520 1189 1519 
1487 1189 1520 1190 
1520 1189 1223 1190 
1190 1223 1521 1224 
1487 1521 1488 1190 
1190 1223 1520 1521 
1487 1521 1190 1520 
1488 1190 1521 1191 
1521 1190 1224 1191 
1191 1224 1522 1225 
1488 1522 1489 1191 
1191 1224 1521 1522 
1488 1522 1191 1521 
1489 1191 1522 1192 
1522 1191 1225 1192 
1192 1225 1523 1226 
1489 1523 1490 1192 
1192 1225 1522 1523 
1489 1523 1192 1522 
1490 1192 1523 1193 
1523 1192 1226 1193 
1193 1226 1524 1227 
1490 1524 1491 1193 
1193 1226 1523 1524 
1490 1524 1193 1523 
1491 1193 1524 1194 
1524 1193 1227 1194 
1194 1227 1525 1228 
1491 1525 1492 1194 
1194 1227 1524 1525 
1491 1525 1194 1524 
1492 1194 1525 1195 
1525 1194 1228 1195 
1195 1228 1526 1229 
1492 1526 1493 1195 
1195 1228 1525 1526 
1492 1526 1195 1525 
1493 1195 1526 1196 
1526 1195 1229 1196 
1196 1229 1527 1230 
1493 1527 1494 1196 
1196 1229 1526 1527 
1493 1527 1196 1526 
1494 1196 1527 1197 
1527 1196 1230 1197 
1197 1230 1528 1231 
1494 1528 1495 1197 
1197 1230 1527 1528 
1494 1528 1197 1527 
1495 1197 1528 1198 
1528 1197 1231 1198 
1198 1231 1529 1232 
1495 1529 1496 1198 
1198 1231 1528 1529 
1495 1529 1198 1528 
1496 1198 1529 1199 
1529 1198 1232 1199 
1199 1232 1530 1233 
1496 1530 1497 1199 
1199 1232 1529 1530 
1496 1530 1199 1529 
1497 1199 1530 1200 
1530 1199 1233 1200 
1200 1233 1531 1234 
1497 1531 1498 1200 
1200 1233 1530 1531 
1497 1531 1200 1530 
1498 1200 1531 1201 
1531 1200 1234 1201 
1201 1234 1532 1235 
1498 1532 1499 1201 
1201 1234 1531 1532 
1498 1532 1201 1531 
1499 1201 1532 1202 
1532 1201 1235 1202 
1202 1235 1533 1236 
1499 1533 1500 1202 
1202 1235 1532 1533 
1499 1533 1202 1532 
1500 1202 1533 1203 
1533 1202 1236 1203 
1203 1236 1534 1237 
1500 1534 1501 1203 
1203 1236 1533 1534 
1500 1534 1203 1533 
1501 1203 1534 1204 
1534 1203 1237 1204 
1204 1237 1535 1238 
1501 1535 1502 1204 
1204 1237 1534 1535 
1501 1535 1204 1534 
1502 1204 1535 1205 
1535 1204 1238 1205 
1205 1238 1536 1239 
1502 1536 1503 1205 
1205 1238 1535 1536 
1502 1536 1205 1535 
1503 1205 1536 1206 
1536 1205 1239 1206 
1206 1239 1537 1240 
1503 1537 1504 1206 
1206 1239 1536 1537 
1503 1537 1206 1536 
1504 1206 1537 1207 
1537 1206 1240 1207 
1207 1240 1538 1241 
1504 1538 1505 1207 
1207 1240 1537 1538 
1504 1538 1207 1537 
1505 1207 1538 1208 
1538 1207 1241 1208 
1208 1241 1539 1242 
1505 1539 1506 1208 
1208 1241 1538 1539 
1505 1539 1208 1538 
1506 1208 1539 1209 
1539 1208 1242 1209 
1209 1242 1540 1243 
1506 1540 1507 1209 
1209 1242 1539 1540 
1506 1540 1209 1539 
1507 1209 1540 1210 
1540 1209 1243 1210 
1210 1243 1541 1244 
1507 1541 1508 1210 
1210 1243 1540 1541 
1507 1541 1210 1540 
1508 1210 1541 1211 
1541 1210 1244 1211 
1211 1244 1542 1245 
1508 1542 1509 1211 
1211 1244 1541 1542 
1508 1542 1211 1541 
1509 1211 1542 1212 
1542 1211 1245 1212 
1212 1245 1543 1246 
1509 1543 1510 1212 
1212 1245 1542 1543 
1509 1543 1212 1542 
1510 1212 1543 1213 
1543 1212 1246 1213 
1213 1246 1544 1247 
1510 1544 1511 1213 
1213 1246 1543 1544 
1510 1544 1213 1543 
1511 1213 1544 1214 
1544 1213 1247 1214 
1214 1247 1545 1248 
1511 1545 1512 1214 
1214 1247 1544 1545 
1511 1545 1214 1544 
1512 1214 1545 1215 
1545 1214 1248 1215 
1215 1248 1546 1249 
1512 1546 1513 1215 
1215 1248 1545 1546 
1512 1546 1215 1545 
1513 1215 1546 1216 
1546 1215 1249 1216 
1216 1249 1547 1250 
1513 1547 1514 1216 
1216 1249 1546 1547 
1513 1547 1216 1546 
1514 1216 1547 1217 
1547 1216 1250 1217 
1217 1250 1548 1251 
1514 1548 1515 1217 
1217 1250 1547 1548 
1514 1548 1217 1547 
1515 1217 1548 1218 
1548 1217 1251 1218 
1218 1251 1549 1252 
1515 1549 1516 1218 
1218 1251 1548 1549 
1515 1549 1218 1548 
1516 1218 1549 1219 
1549 1218 1252 1219 
1219 1252 1550 1253 
1516 1550 1517 1219 
1219 1252 1549 1550 
1516 1550 1219 1549 
1517 1219 1550 1220 
1550 1219 1253 1220 
1221 1254 1552 1255 
1518 1552 1519 1221 
1221 1254 1551 1552 
1518 1552 1221 1551 
1519 1221 1552 1222 
1552 1221 1255 1222 
1222 1255 1553 1256 
1519 1553 1520 1222 
1222 1255 1552 1553 
1519 1553 1222 1552 
1520 1222 1553 1223 
1553 1222 1256 1223 
1223 1256 1554 1257 
1520 1554 1521 1223 
1223 1256 1553 1554 
1520 1554 1223 1553 
1521 1223 1554 1224 
1554 1223 1257 1224 
1224 1257 1555 1258 
1521 1555 1522 1224 
1224 1257 1554 1555 
1521 1555 1224 1554 
1522 1224 1555 1225 
1555 1224 1258 1225 
1225 1258 1556 1259 
1522 1556 1523 1225 
1225 1258 1555 1556 
1522 1556 1225 1555 
1523 1225 1556 1226 
1556 1225 1259 1226 
1226 1259 1557 1260 
1523 1557 1524 1226 
1226 1259 1556 1557 
1523 1557 1226 1556 
1524 1226 1557 1227 
1557 1226 1260 1227 
1227 1260 1558 1261 
1524 1558 1525 1227 
1227 1260 1557 1558 
1524 1558 1227 1557 
1525 1227 1558 1228 
1558 1227 1261 1228 
1228 1261 1559 1262 
1525 1559 1526 1228 
1228 1261 1558 1559 
1525 1559 1228 1558 
1526 1228 1559 1229 
1559 1228 1262 1229 
1229 1262 1560 1263 
1526 1560 1527 1229 
1229 1262 1559 1560 
1526 1560 1229 1559 
1527 1229 1560 1230 
1560 1229 1263 1230 
1230 1263 1561 1264 
1527 1561 1528 1230 
1230 1263 1560 1561 
1527 1561 1230 1560 
1528 1230 1561 1231 
1561 1230 1264 1231 
1231 1264 1562 1265 
1528 1562 1529 1231 
1231 1264 1561 1562 
1528 1562 1231 1561 
1529 1231 1562 1232 
1562 1231 1265 1232 
1232 1265 1563 1266 
1529 1563 1530 1232 
1232 1265 1562 1563 
1529 1563 1232 1562 
1530 1232 1563 1233 
1563 1232 1266 1233 
1233 1266 1564 1267 
1530 1564 1531 1233 
1233 1266 1563 1564 
1530 1564 1233 1563 
1531 1233 1564 1234 
1564 1233 1267 1234 
1234 1267 1565 1268 
1531 1565 1532 1234 
1234 1267 1564 1565 
1531 1565 1234 1564 
1532 1234 1565 1235 
1565 1234 1268 1235 
1235 1268 1566 1269 
1532 1566 1533 1235 
1235 1268 1565 1566 
1532 1566 1235 1565 
1533 1235 1566 1236 
1566 1235 1269 1236 
1236 1269 1567 1270 
1533 1567 1534 1236 
1236 1269 1566 1567 
1533 1567 1236 1566 
1534 1236 1567 1237 
1567 1236 1270 1237 
1237 1270 1568 1271 
1534 1568 1535 1237 
1237 1270 1567 1568 
1534 1568 1237 1567 
1535 1237 1568 1238 
1568 1237 1271 1238 
1238 1271 1569 1272 
1535 1569 1536 1238 
1238 1271 1568 1569 
1535 1569 1238 1568 
1536 1238 1569 1239 
1569 1238 1272 1239 
1239 1272 1570 1273 
1536 1570 1537 1239 
1239 1272 1569 1570 
1536 1570 1239 1569 
1537 1239 1570 1240 
1570 1239 1273 1240 
1240 1273 1571 1274 
1537 1571 1538 1240 
1240 1273 1570 1571 
1537 1571 1240 1570 
1538 1240 1571 1241 
1571 1240 1274 1241 
1241 1274 1572 1275 
1538 1572 1539 1241 
1241 1274 1571 1572 
1538 1572 1241 1571 
1539 1241 1572 1242 
1572 1241 1275 1242 
1242 1275 1573 1276 
1539 1573 1540 1242 
1242 1275 1572 1573 
1539 1573 1242 1572 
1540 1242 1573 1243 
1573 1242 1276 1243 
1243 1276 1574 1277 
1540 1574 1541 1243 
1243 1276 1573 1574 
1540 1574 1243 1573 
1541 1243 1574 1244 
1574 1243 1277 1244 
1244 1277 1575 1278 
1541 1575 1542 1244 
1244 1277 1574 1575 
1541 1575 1244 1574 
1542 1244 1575 1245 
1575 1244 1278 1245 
1245 1278 1576 1279 
1542 1576 1543 1245 
1245 1278 1575 1576 
1542 1576 1245 1575 
1543 1245 1576 1246 
1576 1245 1279 1246 
1246 1279 1577 1280 
1543 1577 1544 1246 
1246 1279 1576 1577 
1543 1577 1246 1576 
1544 1246 1577 1247 
1577 1246 1280 1247 
1247 1280 1578 1281 
1544 1578 1545 1247 
1247 1280 1577 1578 
1544 1578 1247 1577 
1545 1247 1578 1248 
1578 1247 1281 1248 
1248 1281 1579 1282 
1545 1579 1546 1248 
1248 1281 1578 1579 
1545 1579 1248 1578 
1546 1248 1579 1249 
1579 1248 1282 1249 
1249 1282 1580 1283 
1546 1580 1547 1249 
1249 1282 1579 1580 
1546 1580 1249 1579 
1547 1249 1580 1250 
1580 1249 1283 1250 
1250 1283 1581 1284 
1547 1581 1548 1250 
1250 1283 1580 1581 
1547 1581 1250 1580 
1548 1250 1581 1251 
1581 1250 1284 1251 
1251 1284 1582 1285 
1548 1582 1549 1251 
1251 1284 1581 1582 
1548 1582 1251 1581 
1549 1251 1582 1252 
1582 1251 1285 1252 
1252 1285 1583 1286 
1549 1583 1550 1252 
1252 1285 1582 1583 
1549 1583 1252 1582 
1550 1252 1583 1253 
1583 1252 1286 1253 
1254 1287 1585 1288 
1551 1585 1552 1254 
1254 1287 1584 1585 
1551 1585 1254 1584 
1552 1254 1585 1255 
1585 1254 1288 1255 
1255 1288 1586 1289 
1552 1586 1553 1255 
1255 1288 1585 1586 
1552 1586 1255 1585 
1553 1255 1586 1256 
1586 1255 1289 1256 
1256 1289 1587 1290 
1553 1587 1554 1256 
1256 1289 1586 1587 
1553 1587 1256 1586 
1554 1256 1587 1257 
1587 1256 1290 1257 
1257 1290 1588 1291 
1554 1588 1555 1257 
1257 1290 1587 1588 
1554 1588 1257 1587 
1555 1257 1588 1258 
1588 1257 1291 1258 
1258 1291 1589 1292 
1555 1589 1556 1258 
1258 1291 1588 1589 
1555 1589 1258 1588 
1556 1258 1589 1259 
1589 1258 1292 1259 
1259 1292 1590 1293 
1556 1590 1557 1259 
1259 1292 1589 1590 
1556 1590 1259 1589 
1557 1259 1590 1260 
1590 1259 1293 1260 
1260 1293 1591 1294 
1557 1591 1558 1260 
1260 1293 1590 1591 
1557 1591 1260 1590 
1558 1260 1591 1261 
1591 1260 1294 1261 
1261 1294 1592 1295 
1558 1592 1559 1261 
1261 1294 1591 1592 
1558 1592 1261 1591 
1559 1261 1592 1262 
1592 1261 1295 1262 
1262 1295 1593 1296 
1559 1593 1560 1262 
1262 1295 1592 1593 
1559 1593 1262 1592 
1560 1262 1593 1263 
1593 1262 1296 1263 
1263 1296 1594 1297 
1560 1594 1561 1263 
1263 1296 1593 1594 
1560 1594 1263 1593 
1561 1263 1594 1264 
1594 1263 1297 1264 
1264 1297 1595 1298 
1561 1595 1562 1264 
1264 1297 1594 1595 
1561 1595 1264 1594 
1562 1264 1595 1265 
1595 1264 1298 1265 
1265 1298 1596 1299 
1562 1596 1563 1265 
1265 1298 1595 1596 
1562 1596 1265 1595 
1563 1265 1596 1266 
1596 1265 1299 1266 
1266 1299 1597 1300 
1563 1597 1564 1266 
1266 1299 1596 1597 
1563 1597 1266 1596 
1564 1266 1597 1267 
1597 1266 1300 1267 
1267 1300 1598 1301 
1564 1598 1565 1267 
1267 1300 1597 1598 
1564 1598 1267 1597 
1565 1267 1598 1268 
1598 1267 1301 1268 
1268 1301 1599 1302 
1565 1599 1566 1268 
1268 1301 1598 1599 
1565 1599 1268 1598 
1566 1268 1599 1269 
1599 1268 1302 1269 
1269 1302 1600 1303 
1566 1600 1567 1269 
1269 1302 1599 1600 
1566 1600 1269 1599 
1567 1269 1600 1270 
1600 1269 1303 1270 
1270 1303 1601 1304 
1567 1601 1568 1270 
1270 1303 1600 1601 
1567 1601 1270 1600 
1568 1270 1601 1271 
1601 1270 1304 1271 
1271 1304 1602 1305 
1568 1602 1569 1271 
1271 1304 1601 1602 
1568 1602 1271 1601 
1569 1271 1602 1272 
1602 1271 1305 1272 
1272 1305 1603 1306 
1569 1603 1570 1272 
1272 1305 1602 1603 
1569 1603 1272 1602 
1570 1272 1603 1273 
1603 1272 1306 1273 
1273 1306 1604 1307 
1570 1604 1571 1273 
1273 1306 1603 1604 
1570 1604 1273 1603 
1571 1273 1604 1274 
1604 1273 1307 1274 
1274 1307 1605 1308 
1571 1605 1572 1274 
1274 1307 1604 1605 
1571 1605 1274 1604 
1572 1274 1605 1275 
1605 1274 1308 1275 
1275 1308 1606 1309 
1572 1606 1573 1275 
1275 1308 1605 1606 
1572 1606 1275 1605 
1573 1275 1606 1276 
1606 1275 1309 1276 
1276 1309 1607 1310 
1573 1607 1574 1276 
1276 1309 1606 1607 
1573 1607 1276 1606 
1574 1276 1607 1277 
1607 1276 1310 1277 
1277 1310 1608 1311 
1574 1608 1575 1277 
1277 1310 1607 1608 
1574 1608 1277 1607 
1575 1277 1608 1278 
1608 1277 1311 1278 
1278 1311 1609 1312 
1575 1609 1576 1278 
1278 1311 1608 1609 
1575 1609 1278 1608 
1576 1278 1609 1279 
1609 1278 1312 1279 
1279 1312 1610 1313 
1576 1610 1577 1279 
1279 1312 1609 1610 
1576 1610 1279 1609 
1577 1279 1610 1280 
1610 1279 1313 1280 
1280 1313 1611 1314 
1577 1611 1578 1280 
1280 1313 1610 1611 
1577 1611 1280 1610 
1578 1280 1611 1281 
1611 1280 1314 1281 
1281 1314 1612 1315 
1578 1612 1579 1281 
1281 1314 1611 1612 
1578 1612 1281 1611 
1579 1281 1612 1282 
1612 1281 1315 1282 
1282 1315 1613 1316 
1579 1613 1580 1282 
1282 1315 1612 1613 
1579 1613 1282 1612 
1580 1282 1613 1283 
1613 1282 1316 1283 
1283 1316 1614 1317 
1580 1614 1581 1283 
1283 1316 1613 1614 
1580 1614 1283 1613 
1581 1283 1614 1284 
1614 1283 1317 1284 
1284 1317 1615 1318 
1581 1615 1582 1284 
1284 1317 1614 1615 
1581 1615 1284 1614 
1582 1284 1615 1285 
1615 1284 1318 1285 
1285 1318 1616 1319 
1582 1616 1583 1285 
1285 1318 1615 1616 
1582 1616 1285 1615 
1583 1285 1616 1286 
1616 1285 1319 1286 
1287 1320 1618 1321 
1584 1618 1585 1287 
1287 1320 1617 1618 
1584 1618 1287 1617 
1585 1287 1618 1288 
1618 1287 1321 1288 
1288 1321 1619 1322 
1585 1619 1586 1288 
1288 1321 1618 1619 
1585 1619 1288 1618 
1586 1288 1619 1289 
1619 1288 1322 1289 
1289 1322 1620 1323 
1586 1620 1587 1289 
1289 1322 1619 1620 
1586 1620 1289 1619 
1587 1289 1620 1290 
1620 1289 1323 1290 
1290 1323 1621 1324 
1587 1621 1588 1290 
1290 1323 1620 1621 
1587 1621 1290 1620 
1588 1290 1621 1291 
1621 1290 1324 1291 
1291 1324 1622 1325 
1588 1622 1589 1291 
1291 1324 1621 1622 
1588 1622 1291 1621 
1589 1291 1622 1292 
1622 1291 1325 1292 
1292 1325 1623 1326 
1589 1623 1590 1292 
1292 1325 1622 1623 
1589 1623 1292 1622 
1590 1292 1623 1293 
1623 1292 1326 1293 
1293 1326 1624 1327 
1590 1624 1591 1293 
1293 1326 1623 1624 
1590 1624 1293 1623 
1591 1293 1624 1294 
1624 1293 1327 1294 
1294 1327 1625 1328 
1591 1625 1592 1294 
1294 1327 1624 1625 
1591 1625 1294 1624 
1592 1294 1625 1295 
1625 1294 1328 1295 
1295 1328 1626 1329 
1592 1626 1593 1295 
1295 1328 1625 1626 
1592 1626 1295 1625 
1593 1295 1626 1296 
1626 1295 1329 1296 
1296 1329 1627 1330 
1593 1627 1594 1296 
1296 1329 1626 1627 
1593 1627 1296 1626 
1594 1296 1627 1297 
1627 1296 1330 1297 
1297 1330 1628 1331 
1594 1628 1595 1297 
1297 1330 1627 1628 
1594 1628 1297 1627 
1595 1297 1628 1298 
1628 1297 1331 1298 
1298 1331 1629 1332 
1595 1629 1596 1298 
1298 1331 1628 1629 
1595 1629 1298 1628 
1596 1298 1629 1299 
1629 1298 1332 1299 
1299 1332 1630 1333 
1596 1630 1597 1299 
1299 1332 1629 1630 
1596 1630 1299 1629 
1597 1299 1630 1300 
1630 1299 1333 1300 
1300 1333 1631 1334 
1597 1631 1598 1300 
1300 1333 1630 1631 
1597 1631 1300 1630 
1598 1300 1631 1301 
1631 1300 1334 1301 
1301 1334 1632 1335 
1598 1632 1599 1301 
1301 1334 1631 1632 
1598 1632 1301 1631 
1599 1301 1632 1302 
1632 1301 1335 1302 
1302 1335 1633 1336 
1599 1633 1600 1302 
1302 1335 1632 1633 
1599 1633 1302 1632 
1600 1302 1633 1303 
1633 1302 1336 1303 
1303 1336 1634 1337 
1600 1634 1601 1303 
1303 1336 1633 1634 
1600 1634 1303 1633 
1601 1303 1634 1304 
1634 1303 1337 1304 
1304 1337 1635 1338 
1601 1635 1602 1304 
1304 1337 1634 1635 
1601 1635 1304 1634 
1602 1304 1635 1305 
1635 1304 1338 1305 
1305 1338 1636 1339 
1602 1636 1603 1305 
1305 1338 1635 1636 
1602 1636 1305 1635 
1603 1305 1636 1306 
1636 1305 1339 1306 
1306 1339 1637 1340 
1603 1637 1604 1306 
1306 1339 1636 1637 
1603 1637 1306 1636 
1604 1306 1637 1307 
1637 1306 1340 1307 
1307 1340 1638 1341 
1604 1638 1605 1307 
1307 1340 1637 1638 
1604 1638 1307 1637 
1605 1307 1638 1308 
1638 1307 1341 1308 
1308 1341 1639 1342 
1605 1639 1606 1308 
1308 1341 1638 1639 
1605 1639 1308 1638 
1606 1308 1639 1309 
1639 1308 1342 1309 
1309 1342 1640 1343 
1606 1640 1607 1309 
1309 1342 1639 1640 
1606 1640 1309 1639 
1607 1309 1640 1310 
1640 1309 1343 1310 
1310 1343 1641 1344 
1607 1641 1608 1310 
1310 1343 1640 1641 
1607 1641 1310 1640 
1608 1310 1641 1311 
1641 1310 1344 1311 
1311 1344 1642 1345 
1608 1642 1609 1311 
1311 1344 1641 1642 
1608 1642 1311 1641 
1609 1311 1642 1312 
1642 1311 1345 1312 
1312 1345 1643 1346 
1609 1643 1610 1312 
1312 1345 1642 1643 
1609 1643 1312 1642 
1610 1312 1643 1313 
1643 1312 1346 1313 
1313 1346 1644 1347 
1610 1644 1611 1313 
1313 1346 1643 1644 
1610 1644 1313 1643 
1611 1313 1644 1314 
1644 1313 1347 1314 
1314 1347 1645 1348 
1611 1645 1612 1314 
1314 1347 1644 1645 
1611 1645 1314 1644 
1612 1314 1645 1315 
1645 1314 1348 1315 
1315 1348 1646 1349 
1612 1646 1613 1315 
1315 1348 1645 1646 
1612 1646 1315 1645 
1613 1315 1646 1316 
1646 1315 1349 1316 
1316 1349 1647 1350 
1613 1647 1614 1316 
1316 1349 1646 1647 
1613 1647 1316 1646 
1614 1316 1647 1317 
1647 1316 1350 1317 
1317 1350 1648 1351 
1614 1648 1615 1317 
1317 1350 1647 1648 
1614 1648 1317 1647 
1615 1317 1648 1318 
1648 1317 1351 1318 
1318 1351 1649 1352 
1615 1649 1616 1318 
1318 1351 1648 1649 
1615 1649 1318 1648 
1616 1318 1649 1319 
1649 1318 1352 1319 
1320 1353 1651 1354 
1617 1651 1618 1320 
1320 1353 1650 1651 
1617 1651 1320 1650 
1618 1320 1651 1321 
1651 1320 1354 1321 
1321 1354 1652 1355 
1618 1652 1619 1321 
1321 1354 1651 1652 
1618 1652 1321 1651 
1619 1321 1652 1322 
1652 1321 1355 1322 
1322 1355 1653 1356 
1619 1653 1620 1322 
1322 1355 1652 1653 
1619 1653 1322 1652 
1620 1322 1653 1323 
1653 1322 1356 1323 
1323 1356 1654 1357 
1620 1654 1621 1323 
1323 1356 1653 1654 
1620 1654 1323 1653 
1621 1323 1654 1324 
1654 1323 1357 1324 
1324 1357 1655 1358 
1621 1655 1622 1324 
1324 1357 1654 1655 
1621 1655 1324 1654 
1622 1324 1655 1325 
1655 1324 1358 1325 
1325 1358 1656 1359 
1622 1656 1623 1325 
1325 1358 1655 1656 
1622 1656 1325 1655 
1623 1325 1656 1326 
1656 1325 1359 1326 
1326 1359 1657 1360 
1623 1657 1624 1326 
1326 1359 1656 1657 
1623 1657 1326 1656 
1624 1326 1657 1327 
1657 1326 1360 1327 
1327 1360 1658 1361 
1624 1658 1625 1327 
1327 1360 1657 1658 
1624 1658 1327 1657 
1625 1327 1658 1328 
1658 1327 1361 1328 
1328 1361 1659 1362 
1625 1659 1626 1328 
1328 1361 1658 1659 
1625 1659 1328 1658 
1626 1328 1659 1329 
1659 1328 1362 1329 
1329 1362 1660 1363 
1626 1660 1627 1329 
1329 1362 1659 1660 
1626 1660 1329 1659 
1627 1329 1660 1330 
1660 1329 1363 1330 
1330 1363 1661 1364 
1627 1661 1628 1330 
1330 1363 1660 1661 
1627 1661 1330 1660 
1628 1330 1661 1331 
1661 1330 1364 1331 
1331 1364 1662 1365 
1628 1662 1629 1331 
1331 1364 1661 1662 
1628 1662 1331 1661 
1629 1331 1662 1332 
1662 1331 1365 1332 
1332 1365 1663 1366 
1629 1663 1630 1332 
1332 1365 1662 1663 
1629 1663 1332 1662 
1630 1332 1663 1333 
1663 1332 1366 1333 
1333 1366 1664 1367 
1630 1664 1631 1333 
1333 1366 1663 1664 
1630 1664 1333 1663 
1631 1333 1664 1334 
1664 1333 1367 1334 
1334 1367 1665 1368 
1631 1665 1632 1334 
1334 1367 1664 1665 
1631 1665 1334 1664 
1632 1334 1665 1335 
1665 1334 1368 1335 
1335 1368 1666 1369 
1632 1666 1633 1335 
1335 1368 1665 1666 
1632 1666 1335 1665 
1633 1335 1666 1336 
1666 1335 1369 1336 
1336 1369 1667 1370 
1633 1667 1634 1336 
1336 1369 1666 1667 
1633 1667 1336 1666 
1634 1336 1667 1337 
1667 1336 1370 1337 
1337 1370 1668 1371 
1634 1668 1635 1337 
1337 1370 1667 1668 
1634 1668 1337 1667 
1635 1337 1668 1338 
1668 1337 1371 1338 
1338 1371 1669 1372 
1635 1669 1636 1338 
1338 1371 1668 1669 
1635 1669 1338 1668 
1636 1338 1669 1339 
1669 1338 1372 1339 
1339 1372 1670 1373 
1636 1670 1637 1339 
1339 1372 1669 1670 
1636 1670 1339 1669 
1637 1339 1670 1340 
1670 1339 1373 1340 
1340 1373 1671 1374 
1637 1671 1638 1340 
1340 1373 1670 1671 
1637 1671 1340 1670 
1638 1340 1671 1341 
1671 1340 1374 1341 
1341 1374 1672 1375 
1638 1672 1639 1341 
1341 1374 1671 1672 
1638 1672 1341 1671 
1639 1341 1672 1342 
1672 1341 1375 1342 
1342 1375 1673 1376 
1639 1673 1640 1342 
1342 1375 1672 1673 
1639 1673 1342 1672 
1640 1342 1673 1343 
1673 1342 1376 1343 
1343 1376 1674 1377 
1640 1674 1641 1343 
1343 1376 1673 1674 
1640 1674 1343 1673 
1641 1343 1674 1344 
1674 1343 1377 1344 
1344 1377 1675 1378 
1641 1675 1642 1344 
1344 1377 1674 1675 
1641 1675 1344 1674 
1642 1344 1675 1345 
1675 1344 1378 1345 
1345 1378 1676 1379 
1642 1676 1643 1345 
1345 1378 1675 1676 
1642 1676 1345 1675 
1643 1345 1676 1346 
1676 1345 1379 1346 
1346 1379 1677 1380 
1643 1677 1644 1346 
1346 1379 1676 1677 
1643 1677 1346 1676 
1644 1346 1677 1347 
1677 1346 1380 1347 
1347 1380 1678 1381 
1644 1678 1645 1347 
1347 1380 1677 1678 
1644 1678 1347 1677 
1645 1347 1678 1348 
1678 1347 1381 1348 
1348 1381 1679 1382 
1645 1679 1646 1348 
1348 1381 1678 1679 
1645 1679 1348 1678 
1646 1348 1679 1349 
1679 1348 1382 1349 
1349 1382 1680 1383 
1646 1680 1647 1349 
1349 1382 1679 1680 
1646 1680 1349 1679 
1647 1349 1680 1350 
1680 1349 1383 1350 
1350 1383 1681 1384 
1647 1681 1648 1350 
1350 1383 1680 1681 
1647 1681 1350 1680 
1648 1350 1681 1351 
1681 1350 1384 1351 
1351 1384 1682 1385 
1648 1682 1649 1351 
1351 1384 1681 1682 
1648 1682 1351 1681 
1649 1351 1682 1352 
1682 1351 1385 1352 
1353 1386 1684 1387 
1650 1684 1651 1353 
1353 1386 1683 1684 
1650 1684 1353 1683 
1651 1353 1684 1354 
1684 1353 1387 1354 
1354 1387 1685 1388 
1651 1685 1652 1354 
1354 1387 1684 1685 
1651 1685 1354 1684 
1652 1354 1685 1355 
1685 1354 1388 1355 
1355 1388 1686 1389 
1652 1686 1653 1355 
1355 1388 1685 1686 
1652 1686 1355 1685 
1653 1355 1686 1356 
1686 1355 1389 1356 
1356 1389 1687 1390 
1653 1687 1654 1356 
1356 1389 1686 1687 
1653 1687 1356 1686 
1654 1356 1687 1357 
1687 1356 1390 1357 
1357 1390 1688 1391 
1654 1688 1655 1357 
1357 1390 1687 1688 
1654 1688 1357 1687 
1655 1357 1688 1358 
1688 1357 1391 1358 
1358 1391 1689 1392 
1655 1689 1656 1358 
1358 1391 1688 1689 
1655 1689 1358 1688 
1656 1358 1689 1359 
1689 1358 1392 1359 
1359 1392 1690 1393 
1656 1690 1657 1359 
1359 1392 1689 1690 
1656 1690 1359 1689 
1657 1359 1690 1360 
1690 1359 1393 1360 
1360 1393 1691 1394 
1657 1691 1658 1360 
1360 1393 1690 1691 
1657 1691 1360 1690 
1658 1360 1691 1361 
1691 1360 1394 1361 
1361 1394 1692 1395 
1658 1692 1659 1361 
1361 1394 1691 1692 
1658 1692 1361 1691 
1659 1361 1692 1362 
1692 1361 1395 1362 
1362 1395 1693 1396 
1659 1693 1660 1362 
1362 1395 1692 1693 
1659 1693 1362 1692 
1660 1362 1693 1363 
1693 1362 1396 1363 
1363 1396 1694 1397 
1660 1694 1661 1363 
1363 1396 1693 1694 
1660 1694 1363 1693 
1661 1363 1694 1364 
1694 1363 1397 1364 
1364 1397 1695 1398 
1661 1695 1662 1364 
1364 1397 1694 1695 
1661 1695 1364 1694 
1662 1364 1695 1365 
1695 1364 1398 1365 
1365 1398 1696 1399 
1662 1696 1663 1365 
1365 1398 1695 1696 
1662 1696 1365 1695 
1663 1365 1696 1366 
1696 1365 1399 1366 
1366 1399 1697 1400 
1663 1697 1664 1366 
1366 1399 1696 1697 
1663 1697 1366 1696 
1664 1366 1697 1367 
1697 1366 1400 1367 
1367 1400 1698 1401 
1664 1698 1665 1367 
1367 1400 1697 1698 
1664 1698 1367 1697 
1665 1367 1698 1368 
1698 1367 1401 1368 
1368 1401 1699 1402 
1665 1699 1666 1368 
1368 1401 1698 1699 
1665 1699 1368 1698 
1666 1368 1699 1369 
1699 1368 1402 1369 
1369 1402 1700 1403 
1666 1700 1667 1369 
1369 1402 1699 1700 
1666 1700 1369 1699 
1667 1369 1700 1370 
1700 1369 1403 1370 
1370 1403 1701 1404 
1667 1701 1668 1370 
1370 1403 1700 1701 
1667 1701 1370 1700 
1668 1370 1701 1371 
1701 1370 1404 1371 
1371 1404 1702 1405 
1668 1702 1669 1371 
1371 1404 1701 1702 
1668 1702 1371 1701 
1669 1371 1702 1372 
1702 1371 1405 1372 
1372 1405 1703 1406 
1669 1703 1670 1372 
1372 1405 1702 1703 
1669 1703 1372 1702 
1670 1372 1703 1373 
1703 1372 1406 1373 
1373 1406 1704 1407 
1670 1704 1671 1373 
1373 1406 1703 1704 
1670 1704 1373 1703 
1671 1373 1704 1374 
1704 1373 1407 1374 
1374 1407 1705 1408 
1671 1705 1672 1374 
1374 1407 1704 1705 
1671 1705 1374 1704 
1672 1374 1705 1375 
1705 1374 1408 1375 
1375 1408 1706 1409 
1672 1706 1673 1375 
1375 1408 1705 1706 
1672 1706 1375 1705 
1673 1375 1706 1376 
1706 1375 1409 1376 
1376 1409 1707 1410 
1673 1707 1674 1376 
1376 1409 1706 1707 
1673 1707 1376 1706 
1674 1376 1707 1377 
1707 1376 1410 1377 
1377 1410 1708 1411 
1674 1708 1675 1377 
1377 1410 1707 1708 
1674 1708 1377 1707 
1675 1377 1708 1378 
1708 1377 1411 1378 
1378 1411 1709 1412 
1675 1709 1676 1378 
1378 1411 1708 1709 
1675 1709 1378 1708 
1676 1378 1709 1379 
1709 1378 1412 1379 
1379 1412 1710 1413 
1676 1710 1677 1379 
1379 1412 1709 1710 
1676 1710 1379 1709 
1677 1379 1710 1380 
1710 1379 1413 1380 
1380 1413 1711 1414 
1677 1711 1678 1380 
1380 1413 1710 1711 
1677 1711 1380 1710 
1678 1380 1711 1381 
1711 1380 1414 1381 
1381 1414 1712 1415 
1678 1712 1679 1381 
1381 1414 1711 1712 
1678 1712 1381 1711 
1679 1381 1712 1382 
1712 1381 1415 1382 
1382 1415 1713 1416 
1679 1713 1680 1382 
1382 1415 1712 1713 
1679 1713 1382 1712 
1680 1382 1713 1383 
1713 1382 1416 1383 
1383 1416 1714 1417 
1680 1714 1681 1383 
1383 1416 1713 1714 
1680 1714 1383 1713 
1681 1383 1714 1384 
1714 1383 1417 1384 
1384 1417 1715 1418 
1681 1715 1682 1384 
1384 1417 1714 1715 
1681 1715 1384 1714 
1682 1384 1715 1385 
1715 1384 1418 1385 
1386 1419 1717 1420 
1683 1717 1684 1386 
1386 1419 1716 1717 
1683 1717 1386 1716 
1684 1386 1717 1387 
1717 1386 1420 1387 
1387 1420 1718 1421 
1684 1718 1685 1387 
1387 1420 1717 1718 
1684 1718 1387 1717 
1685 1387 1718 1388 
1718 1387 1421 1388 
1388 1421 1719 1422 
1685 1719 1686 1388 
1388 1421 1718 1719 
1685 1719 1388 1718 
1686 1388 1719 1389 
1719 1388 1422 1389 
1389 1422 1720 1423 
1686 1720 1687 1389 
1389 1422 1719 1720 
1686 1720 1389 1719 
1687 1389 1720 1390 
1720 1389 1423 1390 
1390 1423 1721 1424 
1687 1721 1688 1390 
1390 1423 1720 1721 
1687 1721 1390 1720 
1688 1390 1721 1391 
1721 1390 1424 1391 
1391 1424 1722 1425 
1688 1722 1689 1391 
1391 1424 1721 1722 
1688 1722 1391 1721 
1689 1391 1722 1392 
1722 1391 1425 1392 
1392 1425 1723 1426 
1689 1723 1690 1392 
1392 1425 1722 1723 
1689 1723 1392 1722 
1690 1392 1723 1393 
1723 1392 1426 1393 
1393 1426 1724 1427 
1690 1724 1691 1393 
1393 1426 1723 1724 
1690 1724 1393 1723 
1691 1393 1724 1394 
1724 1393 1427 1394 
1394 1427 1725 1428 
1691 1725 1692 1394 
1394 1427 1724 1725 
1691 1725 1394 1724 
1692 1394 1725 1395 
1725 1394 1428 1395 
1395 1428 1726 1429 
1692 1726 1693 1395 
1395 1428 1725 1726 
1692 1726 1395 1725 
1693 1395 1726 1396 
1726 1395 1429 1396 
1396 1429 1727 1430 
1693 1727 1694 1396 
1396 1429 1726 1727 
1693 1727 1396 1726 
1694 1396 1727 1397 
1727 1396 1430 1397 
1397 1430 1728 1431 
1694 1728 1695 1397 
1397 1430 1727 1728 
1694 1728 1397 1727 
1695 1397 1728 1398 
1728 1397 1431 1398 
1398 1431 1729 1432 
1695 1729 1696 1398 
1398 1431 1728 1729 
1695 1729 1398 1728 
1696 1398 1729 1399 
1729 1398 1432 1399 
1399 1432 1730 1433 
1696 1730 1697 1399 
1399 1432 1729 1730 
1696 1730 1399 1729 
1697 1399 1730 1400 
1730 1399 1433 1400 
1400 1433 1731 1434 
1697 1731 1698 1400 
1400 1433 1730 1731 
1697 1731 1400 1730 
1698 1400 1731 1401 
1731 1400 1434 1401 
1401 1434 1732 1435 
1698 1732 1699 1401 
1401 1434 1731 1732 
1698 1732 1401 1731 
1699 1401 1732 1402 
1732 1401 1435 1402 
1402 1435 1733 1436 
1699 1733 1700 1402 
1402 1435 1732 1733 
1699 1733 1402 1732 
1700 1402 1733 1403 
1733 1402 1436 1403 
1403 1436 1734 1437 
1700 1734 1701 1403 
1403 1436 1733 1734 
1700 1734 1403 1733 
1701 1403 1734 1404 
1734 1403 1437 1404 
1404 1437 1735 1438 
1701 1735 1702 1404 
1404 1437 1734 1735 
1701 1735 1404 1734 
1702 1404 1735 1405 
1735 1404 1438 1405 
1405 1438 1736 1439 
1702 1736 1703 1405 
1405 1438 1735 1736 
1702 1736 1405 1735 
1703 1405 1736 1406 
1736 1405 1439 1406 
1406 1439 1737 1440 
1703 1737 1704 1406 
1406 1439 1736 1737 
1703 1737 1406 1736 
1704 1406 1737 1407 
1737 1406 1440 1407 
1407 1440 1738 1441 
1704 1738 1705 1407 
1407 1440 1737 1738 
1704 1738 1407 1737 
1705 1407 1738 1408 
1738 1407 1441 1408 
1408 1441 1739 1442 
1705 1739 1706 1408 
1408 1441 1738 1739 
1705 1739 1408 1738 
1706 1408 1739 1409 
1739 1408 1442 1409 
1409 1442 1740 1443 
1706 1740 1707 1409 
1409 1442 1739 1740 
1706 1740 1409 1739 
1707 1409 1740 1410 
1740 1409 1443 1410 
1410 1443 1741 1444 
1707 1741 1708 1410 
1410 1443 1740 1741 
1707 1741 1410 1740 
1708 1410 1741 1411 
1741 1410 1444 1411 
1411 1444 1742 1445 
1708 1742 1709 1411 
1411 1444 1741 1742 
1708 1742 1411 1741 
1709 1411 1742 1412 
1742 1411 1445 1412 
1412 1445 1743 1446 
1709 1743 1710 1412 
1412 1445 1742 1743 
1709 1743 1412 1742 
1710 1412 1743 1413 
1743 1412 1446 1413 
1413 1446 1744 1447 
1710 1744 1711 1413 
1413 1446 1743 1744 
1710 1744 1413 1743 
1711 1413 1744 1414 
1744 1413 1447 1414 
1414 1447 1745 1448 
1711 1745 1712 1414 
1414 1447 1744 1745 
1711 1745 1414 1744 
1712 1414 1745 1415 
1745 1414 1448 1415 
1415 1448 1746 1449 
1712 1746 1713 1415 
1415 1448 1745 1746 
1712 1746 1415 1745 
1713 1415 1746 1416 
1746 1415 1449 1416 
1416 1449 1747 1450 
1713 1747 1714 1416 
1416 1449 1746 1747 
1713 1747 1416 1746 
1714 1416 1747 1417 
1747 1416 1450 1417 
1417 1450 1748 1451 
1714 1748 1715 1417 
1417 1450 1747 1748 
1714 1748 1417 1747 
1715 1417 1748 1418 
1748 1417 1451 1418 
1419 1452 1750 1453 
1716 1750 1717 1419 
1419 1452 1749 1750 
1716 1750 1419 1749 
1717 1419 1750 1420 
1750 1419 1453 1420 
1420 1453 1751 1454 
1717 1751 1718 1420 
1420 1453 1750 1751 
1717 1751 1420 1750 
1718 1420 1751 1421 
1751 1420 1454 1421 
1421 1454 1752 1455 
1718 1752 1719 1421 
1421 1454 1751 1752 
1718 1752 1421 1751 
1719 1421 1752 1422 
1752 1421 1455 1422 
1422 1455 1753 1456 
1719 1753 1720 1422 
1422 1455 1752 1753 
1719 1753 1422 1752 
1720 1422 1753 1423 
1753 1422 1456 1423 
1423 1456 1754 1457 
1720 1754 1721 1423 
1423 1456 1753 1754 
1720 1754 1423 1753 
1721 1423 1754 1424 
1754 1423 1457 1424 
1424 1457 1755 1458 
1721 1755 1722 1424 
1424 1457 1754 1755 
1721 1755 1424 1754 
1722 1424 1755 1425 
1755 1424 1458 1425 
1425 1458 1756 1459 
1722 1756 1723 1425 
1425 1458 1755 1756 
1722 1756 1425 1755 
1723 1425 1756 1426 
1756 1425 1459 1426 
1426 1459 1757 1460 
1723 1757 1724 1426 
1426 1459 1756 1757 
1723 1757 1426 1756 
1724 1426 1757 1427 
1757 1426 1460 1427 
1427 1460 1758 1461 
1724 1758 1725 1427 
1427 1460 1757 1758 
1724 1758 1427 1757 
1725 1427 1758 1428 
1758 1427 1461 1428 
1428 1461 1759 1462 
1725 1759 1726 1428 
1428 1461 1758 1759 
1725 1759 1428 1758 
1726 1428 1759 1429 
1759 1428 1462 1429 
1429 1462 1760 1463 
1726 1760 1727 1429 
1429 1462 1759 1760 
1726 1760 1429 1759 
1727 1429 1760 1430 
1760 1429 1463 1430 
1430 1463 1761 1464 
1727 1761 1728 1430 
1430 1463 1760 1761 
1727 1761 1430 1760 
1728 1430 1761 1431 
1761 1430 1464 1431 
1431 1464 1762 1465 
1728 1762 1729 1431 
1431 1464 1761 1762 
1728 1762 1431 1761 
1729 1431 1762 1432 
1762 1431 1465 1432 
1432 1465 1763 1466 
1729 1763 1730 1432 
1432 1465 1762 1763 
1729 1763 1432 1762 
1730 1432 1763 1433 
1763 1432 1466 1433 
1433 1466 1764 1467 
1730 1764 1731 1433 
1433 1466 1763 1764 
1730 1764 1433 1763 
1731 1433 1764 1434 
1764 1433 1467 1434 
1434 1467 1765 1468 
1731 1765 1732 1434 
1434 1467 1764 1765 
1731 1765 1434 1764 
1732 1434 1765 1435 
1765 1434 1468 1435 
1435 1468 1766 1469 
1732 1766 1733 1435 
1435 1468 1765 1766 
1732 1766 1435 1765 
1733 1435 1766 1436 
1766 1435 1469 1436 
1436 1469 1767 1470 
1733 1767 1734 1436 
1436 1469 1766 1767 
1733 1767 1436 1766 
1734 1436 1767 1437 
1767 1436 1470 1437 
1437 1470 1768 1471 
1734 1768 1735 1437 
1437 1470 1767 1768 
1734 1768 1437 1767 
1735 1437 1768 1438 
1768 1437 1471 1438 
1438 1471 1769 1472 
1735 1769 1736 1438 
1438 1471 1768 1769 
1735 1769 1438 1768 
1736 1438 1769 1439 
1769 1438 1472 1439 
1439 1472 1770 1473 
1736 1770 1737 1439 
1439 1472 1769 1770 
1736 1770 1439 1769 
1737 1439 1770 1440 
1770 1439 1473 1440 
1440 1473 1771 1474 
1737 1771 1738 1440 
1440 1473 1770 1771 
1737 1771 1440 1770 
1738 1440 1771 1441 
1771 1440 1474 1441 
1441 1474 1772 1475 
1738 1772 1739 1441 
1441 1474 1771 1772 
1738 1772 1441 1771 
1739 1441 1772 1442 
1772 1441 1475 1442 
1442 1475 1773 1476 
1739 1773 1740 1442 
1442 1475 1772 1773 
1739 1773 1442 1772 
1740 1442 1773 1443 
1773 1442 1476 1443 
1443 1476 1774 1477 
1740 1774 1741 1443 
1443 1476 1773 1774 
1740 1774 1443 1773 
1741 1443 1774 1444 
1774 1443 1477 1444 
1444 1477 1775 1478 
1741 1775 1742 1444 
1444 1477 1774 1775 
1741 1775 1444 1774 
1742 1444 1775 1445 
1775 1444 1478 1445 
1445 1478 1776 1479 
1742 1776 1743 1445 
1445 1478 1775 1776 
1742 1776 1445 1775 
1743 1445 1776 1446 
1776 1445 1479 1446 
1446 1479 1777 1480 
1743 1777 1744 1446 
1446 1479 1776 1777 
1743 1777 1446 1776 
1744 1446 1777 1447 
1777 1446 1480 1447 
1447 1480 1778 1481 
1744 1778 1745 1447 
1447 1480 1777 1778 
1744 1778 1447 1777 
1745 1447 1778 1448 
1778 1447 1481 1448 
1448 1481 1779 1482 
1745 1779 1746 1448 
1448 1481 1778 1779 
1745 1779 1448 1778 
1746 1448 1779 1449 
1779 1448 1482 1449 
1449 1482 1780 1483 
1746 1780 1747 1449 
1449 1482 1779 1780 
1746 1780 1449 1779 
1747 1449 1780 1450 
1780 1449 1483 1450 
1450 1483 1781 1484 
1747 1781 1748 1450 
1450 1483 1780 1781 
1747 1781 1450 1780 
1748 1450 1781 1451 
1781 1450 1484 1451 
1485 1518 1816 1519 
1782 1816 1783 1485 
1485 1518 1815 1816 
1782 1816 1485 1815 
1783 1485 1816 1486 
1816 1485 1519 1486 
1486 1519 1817 1520 
1783 1817 1784 1486 
1486 1519 1816 1817 
1783 1817 1486 1816 
1784 1486 1817 1487 
1817 1486 1520 1487 
1487 1520 1818 1521 
1784 1818 1785 1487 
1487 1520 1817 1818 
1784 1818 1487 1817 
1785 1487 1818 1488 
1818 1487 1521 1488 
1488 1521 1819 1522 
1785 1819 1786 1488 
1488 1521 1818 1819 
1785 1819 1488 1818 
1786 1488 1819 1489 
1819 1488 1522 1489 
1489 1522 1820 1523 
1786 1820 1787 1489 
1489 1522 1819 1820 
1786 1820 1489 1819 
1787 1489 1820 1490 
1820 1489 1523 1490 
1490 1523 1821 1524 
1787 1821 1788 1490 
1490 1523 1820 1821 
1787 1821 1490 1820 
1788 1490 1821 1491 
1821 1490 1524 1491 
1491 1524 1822 1525 
1788 1822 1789 1491 
1491 1524 1821 1822 
1788 1822 1491 1821 
1789 1491 1822 1492 
1822 1491 1525 1492 
1492 1525 1823 1526 
1789 1823 1790 1492 
1492 1525 1822 1823 
1789 1823 1492 1822 
1790 1492 1823 1493 
1823 1492 1526 1493 
1493 1526 1824 1527 
1790 1824 1791 1493 
1493 1526 1823 1824 
1790 1824 1493 1823 
1791 1493 1824 1494 
1824 1493 1527 1494 
1494 1527 1825 1528 
1791 1825 1792 1494 
1494 1527 1824 1825 
1791 1825 1494 1824 
1792 1494 1825 1495 
1825 1494 1528 1495 
1495 1528 1826 1529 
1792 1826 1793 1495 
1495 1528 1825 1826 
1792 1826 1495 1825 
1793 1495 1826 1496 
1826 1495 1529 1496 
1496 1529 1827 1530 
1793 1827 1794 1496 
1496 1529 1826 1827 
1793 1827 1496 1826 
1794 1496 1827 1497 
1827 1496 1530 1497 
1497 1530 1828 1531 
1794 1828 1795 1497 
1497 1530 1827 1828 
1794 1828 1497 1827 
1795 1497 1828 1498 
1828 1497 1531 1498 
1498 1531 1829 1532 
1795 1829 1796 1498 
1498 1531 1828 1829 
1795 1829 1498 1828 
1796 1498 1829 1499 
1829 1498 1532 1499 
1499 1532 1830 1533 
1796 1830 1797 1499 
1499 1532 1829 1830 
1796 1830 1499 1829 
1797 1499 1830 1500 
1830 1499 1533 1500 
1500 1533 1831 1534 
1797 1831 1798 1500 
1500 1533 1830 1831 
1797 1831 1500 1830 
1798 1500 1831 1501 
1831 1500 1534 1501 
1501 1534 1832 1535 
1798 1832 1799 1501 
1501 1534 1831 1832 
1798 1832 1501 1831 
1799 1501 1832 1502 
1832 1501 1535 1502 
1502 1535 1833 1536 
1799 1833 1800 1502 
1502 1535 1832 1833 
1799 1833 1502 1832 
1800 1502 1833 1503 
1833 1502 1536 1503 
1503 1536 1834 1537 
1800 1834 1801 1503 
1503 1536 1833 1834 
1800 1834 1503 1833 
1801 1503 1834 1504 
1834 1503 1537 1504 
1504 1537 1835 1538 
1801 1835 1802 1504 
1504 1537 1834 1835 
1801 1835 1504 1834 
1802 1504 1835 1505 
1835 1504 1538 1505 
1505 1538 1836 1539 
1802 1836 1803 1505 
1505 1538 1835 1836 
1802 1836 1505 1835 
1803 1505 1836 1506 
1836 1505 1539 1506 
1506 1539 1837 1540 
1803 1837 1804 1506 
1506 1539 1836 1837 
1803 1837 1506 1836 
1804 1506 1837 1507 
1837 1506 1540 1507 
1507 1540 1838 1541 
1804 1838 1805 1507 
1507 1540 1837 1838 
1804 1838 1507 1837 
1805 1507 1838 1508 
1838 1507 1541 1508 
1508 1541 1839 1542 
1805 1839 1806 1508 
1508 1541 1838 1839 
1805 1839 1508 1838 
1806 1508 1839 1509 
1839 1508 1542 1509 
1509 1542 1840 1543 
1806 1840 1807 1509 
1509 1542 1839 1840 
1806 1840 1509 1839 
1807 1509 1840 1510 
1840 1509 1543 1510 
1510 1543 1841 1544 
1807 1841 1808 1510 
1510 1543 1840 1841 
1807 1841 1510 1840 
1808 1510 1841 1511 
1841 1510 1544 1511 
1511 1544 1842 1545 
1808 1842 1809 1511 
1511 1544 1841 1842 
1808 1842 1511 1841 
1809 1511 1842 1512 
1842 1511 1545 1512 
1512 1545 1843 1546 
1809 1843 1810 1512 
1512 1545 1842 1843 
1809 1843 1512 1842 
1810 1512 1843 1513 
1843 1512 1546 1513 
1513 1546 1844 1547 
1810 1844 1811 1513 
1513 1546 1843 1844 
1810 1844 1513 1843 
1811 1513 1844 1514 
1844 1513 1547 1514 
1514 1547 1845 1548 
1811 1845 1812 1514 
1514 1547 1844 1845 
1811 1845 1514 1844 
1812 1514 1845 1515 
1845 1514 1548 1515 
1515 1548 1846 1549 
1812 1846 1813 1515 
1515 1548 1845 1846 
1812 1846 1515 1845 
1813 1515 1846 1516 
1846 1515 1549 1516 
1516 1549 1847 1550 
1813 1847 1814 1516 
1516 1549 1846 1847 
1813 1847 1516 1846 
1814 1516 1847 1517 
1847 1516 1550 1517 
1518 1551 1849 1552 
1815 1849 1816 1518 
1518 1551 1848 1849 
1815 1849 1518 1848 
1816 1518 1849 1519 
1849 1518 1552 1519 
1519 1552 1850 1553 
1816 1850 1817 1519 
1519 1552 1849 1850 
1816 1850 1519 1849 
1817 1519 1850 1520 
1850 1519 1553 1520 
1520 1553 1851 1554 
1817 1851 1818 1520 
1520 1553 1850 1851 
1817 1851 1520 1850 
1818 1520 1851 1521 
1851 1520 1554 1521 
1521 1554 1852 1555 
1818 1852 1819 1521 
1521 1554 1851 1852 
1818 1852 1521 1851 
1819 1521 1852 1522 
1852 1521 1555 1522 
1522 1555 1853 1556 
1819 1853 1820 1522 
1522 1555 1852 1853 
1819 1853 1522 1852 
1820 1522 1853 1523 
1853 1522 1556 1523 
1523 1556 1854 1557 
1820 1854 1821 1523 
1523 1556 1853 1854 
1820 1854 1523 1853 
1821 1523 1854 1524 
1854 1523 1557 1524 
1524 1557 1855 1558 
1821 1855 1822 1524 
1524 1557 1854 1855 
1821 1855 1524 1854 
1822 1524 1855 1525 
1855 1524 1558 1525 
1525 1558 1856 1559 
1822 1856 1823 1525 
1525 1558 1855 1856 
1822 1856 1525 1855 
1823 1525 1856 1526 
1856 1525 1559 1526 
1526 1559 1857 1560 
1823 1857 1824 1526 
1526 1559 1856 1857 
1823 1857 1526 1856 
1824 1526 1857 1527 
1857 1526 1560 1527 
1527 1560 1858 1561 
1824 1858 1825 1527 
1527 1560 1857 1858 
1824 1858 1527 1857 
1825 1527 1858 1528 
1858 1527 1561 1528 
1528 1561 1859 1562 
1825 1859 1826 1528 
1528 1561 1858 1859 
1825 1859 1528 1858 
1826 1528 1859 1529 
1859 1528 1562 1529 
1529 1562 1860 1563 
1826 1860 1827 1529 
1529 1562 1859 1860 
1826 1860 1529 1859 
1827 1529 1860 1530 
1860 1529 1563 1530 
1530 1563 1861 1564 
1827 1861 1828 1530 
1530 1563 1860 1861 
1827 1861 1530 1860 
1828 1530 1861 1531 
1861 1530 1564 1531 
1531 1564 1862 1565 
1828 1862 1829 1531 
1531 1564 1861 1862 
1828 1862 1531 1861 
1829 1531 1862 1532 
1862 1531 1565 1532 
1532 1565 1863 1566 
1829 1863 1830 1532 
1532 1565 1862 1863 
1829 1863 1532 1862 
1830 1532 1863 1533 
1863 1532 1566 1533 
1533 1566 1864 1567 
1830 1864 1831 1533 
1533 1566 1863 1864 
1830 1864 1533 1863 
1831 1533 1864 1534 
1864 1533 1567 1534 
1534 1567 1865 1568 
1831 1865 1832 1534 
1534 1567 1864 1865 
1831 1865 1534 1864 
1832 1534 1865 1535 
1865 1534 1568 1535 
1535 1568 1866 1569 
1832 1866 1833 1535 
1535 1568 1865 1866 
1832 1866 1535 1865 
1833 1535 1866 1536 
1866 1535 1569 1536 
1536 1569 1867 1570 
1833 1867 1834 1536 
1536 1569 1866 1867 
1833 1867 1536 1866 
1834 1536 1867 1537 
1867 1536 1570 1537 
1537 1570 1868 1571 
1834 1868 1835 1537 
1537 1570 1867 1868 
1834 1868 1537 1867 
1835 1537 1868 1538 
1868 1537 1571 1538 
1538 1571 1869 1572 
1835 1869 1836 1538 
1538 1571 1868 1869 
1835 1869 1538 1868 
1836 1538 1869 1539 
1869 1538 1572 1539 
1539 1572 1870 1573 
1836 1870 1837 1539 
1539 1572 1869 1870 
1836 1870 1539 1869 
1837 1539 1870 1540 
1870 1539 1573 1540 
1540 1573 1871 1574 
1837 1871 1838 1540 
1540 1573 1870 1871 
1837 1871 1540 1870 
1838 1540 1871 1541 
1871 1540 1574 1541 
1541 1574 1872 1575 
1838 1872 1839 1541 
1541 1574 1871 1872 
1838 1872 1541 1871 
1839 1541 1872 1542 
1872 1541 1575 1542 
1542 1575 1873 1576 
1839 1873 1840 1542 
1542 1575 1872 1873 
1839 1873 1542 1872 
1840 1542 1873 1543 
1873 1542 1576 1543 
1543 1576 1874 1577 
1840 1874 1841 1543 
1543 1576 1873 1874 
1840 1874 1543 1873 
1841 1543 1874 1544 
1874 1543 1577 1544 
1544 1577 1875 1578 
1841 1875 1842 1544 
1544 1577 1874 1875 
1841 1875 1544 1874 
1842 1544 1875 1545 
1875 1544 1578 1545 
1545 1578 1876 1579 
1842 1876 1843 1545 
1545 1578 1875 1876 
1842 1876 1545 1875 
1843 1545 1876 1546 
1876 1545 1579 1546 
1546 1579 1877 1580 
1843 1877 1844 1546 
1546 1579 1876 1877 
1843 1877 1546 1876 
1844 1546 1877 1547 
1877 1546 1580 1547 
1547 1580 1878 1581 
1844 1878 1845 1547 
1547 1580 1877 1878 
1844 1878 1547 1877 
1845 1547 1878 1548 
1878 1547 1581 1548 
1548 1581 1879 1582 
1845 1879 1846 1548 
1548 1581 1878 1879 
1845 1879 1548 1878 
1846 1548 1879 1549 
1879 1548 1582 1549 
1549 1582 1880 1583 
1846 1880 1847 1549 
1549 1582 1879 1880 
1846 1880 1549 1879 
1847 1549 1880 1550 
1880 1549 1583 1550 
1551 1584 1882 1585 
1848 1882 1849 1551 
1551 1584 1881 1882 
1848 1882 1551 1881 
1849 1551 1882 1552 
1882 1551 1585 1552 
1552 1585 1883 1586 
1849 1883 1850 1552 
1552 1585 1882 1883 
1849 1883 1552 1882 
1850 1552 1883 1553 
1883 1552 1586 1553 
1553 1586 1884 1587 
1850 1884 1851 1553 
1553 1586 1883 1884 
1850 1884 1553 1883 
1851 1553 1884 1554 
1884 1553 1587 1554 
1554 1587 1885 1588 
1851 1885 1852 1554 
1554 1587 1884 1885 
1851 1885 1554 1884 
1852 1554 1885 1555 
1885 1554 1588 1555 
1555 1588 1886 1589 
1852 1886 1853 1555 
1555 1588 1885 1886 
1852 1886 1555 1885 
1853 1555 1886 1556 
1886 1555 1589 1556 
1556 1589 1887 1590 
1853 1887 1854 1556 
1556 1589 1886 1887 
1853 1887 1556 1886 
1854 1556 1887 1557 
1887 1556 1590 1557 
1557 1590 1888 1591 
1854 1888 1855 1557 
1557 1590 1887 1888 
1854 1888 1557 1887 
1855 1557 1888 1558 
1888 1557 1591 1558 
1558 1591 1889 1592 
1855 1889 1856 1558 
1558 1591 1888 1889 
1855 1889 1558 1888 
1856 1558 1889 1559 
1889 1558 1592 1559 
1559 1592 1890 1593 
1856 1890 1857 1559 
1559 1592 1889 1890 
1856 1890 1559 1889 
1857 1559 1890 1560 
1890 1559 1593 1560 
1560 1593 1891 1594 
1857 1891 1858 1560 
1560 1593 1890 1891 
1857 1891 1560 1890 
1858 1560 1891 1561 
1891 1560 1594 1561 
1561 1594 1892 1595 
1858 1892 1859 1561 
1561 1594 1891 1892 
1858 1892 1561 1891 
1859 1561 1892 1562 
1892 1561 1595 1562 
1562 1595 1893 1596 
1859 1893 1860 1562 
1562 1595 1892 1893 
1859 1893 1562 1892 
1860 1562 1893 1563 
1893 1562 1596 1563 
1563 1596 1894 1597 
1860 1894 1861 1563 
1563 1596 1893 1894 
1860 1894 1563 1893 
1861 1563 1894 1564 
1894 1563 1597 1564 
1564 1597 1895 1598 
1861 1895 1862 1564 
1564 1597 1894 1895 
1861 1895 1564 1894 
1862 1564 1895 1565 
1895 1564 1598 1565 
1565 1598 1896 1599 
1862 1896 1863 1565 
1565 1598 1895 1896 
1862 1896 1565 1895 
1863 1565 1896 1566 
1896 1565 1599 1566 
1566 1599 1897 1600 
1863 1897 1864 1566 
1566 1599 1896 1897 
1863 1897 1566 1896 
1864 1566 1897 1567 
1897 1566 1600 1567 
1567 1600 1898 1601 
1864 1898 1865 1567 
1567 1600 1897 1898 
1864 1898 1567 1897 
1865 1567 1898 1568 
1898 1567 1601 1568 
1568 1601 1899 1602 
1865 1899 1866 1568 
1568 1601 1898 1899 
1865 1899 1568 1898 
1866 1568 1899 1569 
1899 1568 1602 1569 
1569 1602 1900 1603 
1866 1900 1867 1569 
1569 1602 1899 1900 
1866 1900 1569 1899 
1867 1569 1900 1570 
1900 1569 1603 1570 
1570 1603 1901 1604 
1867 1901 1868 1570 
1570 1603 1900 1901 
1867 1901 1570 1900 
1868 1570 1901 1571 
1901 1570 1604 1571 
1571 1604 1902 1605 
1868 1902 1869 1571 
1571 1604 1901 1902 
1868 1902 1571 1901 
1869 1571 1902 1572 
1902 1571 1605 1572 
1572 1605 1903 1606 
1869 1903 1870 1572 
1572 1605 1902 1903 
1869 1903 1572 1902 
1870 1572 1903 1573 
1903 1572 1606 1573 
1573 1606 1904 1607 
1870 1904 1871 1573 
1573 1606 1903 1904 
1870 1904 1573 1903 
1871 1573 1904 1574 
1904 1573 1607 1574 
1574 1607 1905 1608 
1871 1905 1872 1574 
1574 1607 1904 1905 
1871 1905 1574 1904 
1872 1574 1905 1575 
1905 1574 1608 1575 
1575 1608 1906 1609 
1872 1906 1873 1575 
1575 1608 1905 1906 
1872 1906 1575 1905 
1873 1575 1906 1576 
1906 1575 1609 1576 
1576 1609 1907 1610 
1873 1907 1874 1576 
1576 1609 1906 1907 
1873 1907 1576 1906 
1874 1576 1907 1577 
1907 1576 1610 1577 
1577 1610 1908 1611 
1874 1908 1875 1577 
1577 1610 1907 1908 
1874 1908 1577 1907 
1875 1577 1908 1578 
1908 1577 1611 1578 
1578 1611 1909 1612 
1875 1909 1876 1578 
1578 1611 1908 1909 
1875 1909 1578 1908 
1876 1578 1909 1579 
1909 1578 1612 1579 
1579 1612 1910 1613 
1876 1910 1877 1579 
1579 1612 1909 1910 
1876 1910 1579 1909 
1877 1579 1910 1580 
1910 1579 1613 1580 
1580 1613 1911 1614 
1877 1911 1878 1580 
1580 1613 1910 1911 
1877 1911 1580 1910 
1878 1580 1911 1581 
1911 1580 1614 1581 
1581 1614 1912 1615 
1878 1912 1879 1581 
1581 1614 1911 1912 
1878 1912 1581 1911 
1879 1581 1912 1582 
1912 1581 1615 1582 
1582 1615 1913 1616 
1879 1913 1880 1582 
1582 1615 1912 1913 
1879 1913 1582 1912 
1880 1582 1913 1583 
1913 1582 1616 1583 
1584 1617 1915 1618 
1881 1915 1882 1584 
1584 1617 1914 1915 
1881 1915 1584 1914 
1882 1584 1915 1585 
1915 1584 1618 1585 
1585 1618 1916 1619 
1882 1916 1883 1585 
1585 1618 1915 1916 
1882 1916 1585 1915 
1883 1585 1916 1586 
1916 1585 1619 1586 
1586 1619 1917 1620 
1883 1917 1884 1586 
1586 1619 1916 1917 
1883 1917 1586 1916 
1884 1586 1917 1587 
1917 1586 1620 1587 
1587 1620 1918 1621 
1884 1918 1885 1587 
1587 1620 1917 1918 
1884 1918 1587 1917 
1885 1587 1918 1588 
1918 1587 1621 1588 
1588 1621 1919 1622 
1885 1919 1886 1588 
1588 1621 1918 1919 
1885 1919 1588 1918 
1886 1588 1919 1589 
1919 1588 1622 1589 
1589 1622 1920 1623 
1886 1920 1887 1589 
1589 1622 1919 1920 
1886 1920 1589 1919 
1887 1589 1920 1590 
1920 1589 1623 1590 
1590 1623 1921 1624 
1887 1921 1888 1590 
1590 1623 1920 1921 
1887 1921 1590 1920 
1888 1590 1921 1591 
1921 1590 1624 1591 
1591 1624 1922 1625 
1888 1922 1889 1591 
1591 1624 1921 1922 
1888 1922 1591 1921 
1889 1591 1922 1592 
1922 1591 1625 1592 
1592 1625 1923 1626 
1889 1923 1890 1592 
1592 1625 1922 1923 
1889 1923 1592 1922 
1890 1592 1923 1593 
1923 1592 1626 1593 
1593 1626 1924 1627 
1890 1924 1891 1593 
1593 1626 1923 1924 
1890 1924 1593 1923 
1891 1593 1924 1594 
1924 1593 1627 1594 
1594 1627 1925 1628 
1891 1925 1892 1594 
1594 1627 1924 1925 
1891 1925 1594 1924 
1892 1594 1925 1595 
1925 1594 1628 1595 
1595 1628 1926 1629 
1892 1926 1893 1595 
1595 1628 1925 1926 
1892 1926 1595 1925 
1893 1595 1926 1596 
1926 1595 1629 1596 
1596 1629 1927 1630 
1893 1927 1894 1596 
1596 1629 1926 1927 
1893 1927 1596 1926 
1894 1596 1927 1597 
1927 1596 1630 1597 
1597 1630 1928 1631 
1894 1928 1895 1597 
1597 1630 1927 1928 
1894 1928 1597 1927 
1895 1597 1928 1598 
1928 1597 1631 1598 
1598 1631 1929 1632 
1895 1929 1896 1598 
1598 1631 1928 1929 
1895 1929 1598 1928 
1896 1598 1929 1599 
1929 1598 1632 1599 
1599 1632 1930 1633 
1896 1930 1897 1599 
1599 1632 1929 1930 
1896 1930 1599 1929 
1897 1599 1930 1600 
1930 1599 1633 1600 
1600 1633 1931 1634 
1897 1931 1898 1600 
1600 1633 1930 1931 
1897 1931 1600 1930 
1898 1600 1931 1601 
1931 1600 1634 1601 
1601 1634 1932 1635 
1898 1932 1899 1601 
1601 1634 1931 1932 
1898 1932 1601 1931 
1899 1601 1932 1602 
1932 1601 1635 1602 
1602 1635 1933 1636 
1899 1933 1900 1602 
1602 1635 1932 1933 
1899 1933 1602 1932 
1900 1602 1933 1603 
1933 1602 1636 1603 
1603 1636 1934 1637 
1900 1934 1901 1603 
1603 1636 1933 1934 
1900 1934 1603 1933 
1901 1603 1934 1604 
1934 1603 1637 1604 
1604 1637 1935 1638 
1901 1935 1902 1604 
1604 1637 1934 1935 
1901 1935 1604 1934 
1902 1604 1935 1605 
1935 1604 1638 1605 
1605 1638 1936 1639 
1902 1936 1903 1605 
1605 1638 1935 1936 
1902 1936 1605 1935 
1903 1605 1936 1606 
1936 1605 1639 1606 
1606 1639 1937 1640 
1903 1937 1904 1606 
1606 1639 1936 1937 
1903 1937 1606 1936 
1904 1606 1937 1607 
1937 1606 1640 1607 
1607 1640 1938 1641 
1904 1938 1905 1607 
1607 1640 1937 1938 
1904 1938 1607 1937 
1905 1607 1938 1608 
1938 1607 1641 1608 
1608 1641 1939 1642 
1905 1939 1906 1608 
1608 1641 1938 1939 
1905 1939 1608 1938 
1906 1608 1939 1609 
1939 1608 1642 1609 
1609 1642 1940 1643 
1906 1940 1907 1609 
1609 1642 1939 1940 
1906 1940 1609 1939 
1907 1609 1940 1610 
1940 1609 1643 1610 
1610 1643 1941 1644 
1907 1941 1908 1610 
1610 1643 1940 1941 
1907 1941 1610 1940 
1908 1610 1941 1611 
1941 1610 1644 1611 
1611 1644 1942 1645 
1908 1942 1909 1611 
1611 1644 1941 1942 
1908 1942 1611 1941 
1909 1611 1942 1612 
1942 1611 1645 1612 
1612 1645 1943 1646 
1909 1943 1910 1612 
1612 1645 1942 1943 
1909 1943 1612 1942 
1910 1612 1943 1613 
1943 1612 1646 1613 
1613 1646 1944 1647 
1910 1944 1911 1613 
1613 1646 1943 1944 
1910 1944 1613 1943 
1911 1613 1944 1614 
1944 1613 1647 1614 
1614 1647 1945 1648 
1911 1945 1912 1614 
1614 1647 1944 1945 
1911 1945 1614 1944 
1912 1614 1945 1615 
1945 1614 1648 1615 
1615 1648 1946 1649 
1912 1946 1913 1615 
1615 1648 1945 1946 
1912 1946 1615 1945 
1913 1615 1946 1616 
1946 1615 1649 1616 
1617 1650 1948 1651 
1914 1948 1915 1617 
1617 1650 1947 1948 
1914 1948 1617 1947 
1915 1617 1948 1618 
1948 1617 1651 1618 
1618 1651 1949 1652 
1915 1949 1916 1618 
1618 1651 1948 1949 
1915 1949 1618 1948 
1916 1618 1949 1619 
1949 1618 1652 1619 
1619 1652 1950 1653 
1916 1950 1917 1619 
1619 1652 1949 1950 
1916 1950 1619 1949 
1917 1619 1950 1620 
1950 1619 1653 1620 
1620 1653 1951 1654 
1917 1951 1918 1620 
1620 1653 1950 1951 
1917 1951 1620 1950 
1918 1620 1951 1621 
1951 1620 1654 1621 
1621 1654 1952 1655 
1918 1952 1919 1621 
1621 1654 1951 1952 
1918 1952 1621 1951 
1919 1621 1952 1622 
1952 1621 1655 1622 
1622 1655 1953 1656 
1919 1953 1920 1622 
1622 1655 1952 1953 
1919 1953 1622 1952 
1920 1622 1953 1623 
1953 1622 1656 1623 
1623 1656 1954 1657 
1920 1954 1921 1623 
1623 1656 1953 1954 
1920 1954 1623 1953 
1921 1623 1954 1624 
1954 1623 1657 1624 
1624 1657 1955 1658 
1921 1955 1922 1624 
1624 1657 1954 1955 
1921 1955 1624 1954 
1922 1624 1955 1625 
1955 1624 1658 1625 
1625 1658 1956 1659 
1922 1956 1923 1625 
1625 1658 1955 1956 
1922 1956 1625 1955 
1923 1625 1956 1626 
1956 1625 1659 1626 
1626 1659 1957 1660 
1923 1957 1924 1626 
1626 1659 1956 1957 
1923 1957 1626 1956 
1924 1626 1957 1627 
1957 1626 1660 1627 
1627 1660 1958 1661 
1924 1958 1925 1627 
1627 1660 1957 1958 
1924 1958 1627 1957 
1925 1627 1958 1628 
1958 1627 1661 1628 
1628 1661 1959 1662 
1925 1959 1926 1628 
1628 1661 1958 1959 
1925 1959 1628 1958 
1926 1628 1959 1629 
1959 1628 1662 1629 
1629 1662 1960 1663 
1926 1960 1927 1629 
1629 1662 1959 1960 
1926 1960 1629 1959 
1927 1629 1960 1630 
1960 1629 1663 1630 
1630 1663 1961 1664 
1927 1961 1928 1630 
1630 1663 1960 1961 
1927 1961 1630 1960 
1928 1630 1961 1631 
1961 1630 1664 1631 
1631 1664 1962 1665 
1928 1962 1929 1631 
1631 1664 1961 1962 
1928 1962 1631 1961 
1929 1631 1962 1632 
1962 1631 1665 1632 
1632 1665 1963 1666 
1929 1963 1930 1632 
1632 1665 1962 1963 
1929 1963 1632 1962 
1930 1632 1963 1633 
1963 1632 1666 1633 
1633 1666 1964 1667 
1930 1964 1931 1633 
1633 1666 1963 1964 
1930 1964 1633 1963 
1931 1633 1964 1634 
1964 1633 1667 1634 
1634 1667 1965 1668 
1931 1965 1932 1634 
1634 1667 1964 1965 
1931 1965 1634 1964 
1932 1634 1965 1635 
1965 1634 1668 1635 
1635 1668 1966 1669 
1932 1966 1933 1635 
1635 1668 1965 1966 
1932 1966 1635 1965 
1933 1635 1966 1636 
1966 1635 1669 1636 
1636 1669 1967 1670 
1933 1967 1934 1636 
1636 1669 1966 1967 
1933 1967 1636 1966 
1934 1636 1967 1637 
1967 1636 1670 1637 
1637 1670 1968 1671 
1934 1968 1935 1637 
1637 1670 1967 1968 
1934 1968 1637 1967 
1935 1637 1968 1638 
1968 1637 1671 1638 
1638 1671 1969 1672 
1935 1969 1936 1638 
1638 1671 1968 1969 
1935 1969 1638 1968 
1936 1638 1969 1639 
1969 1638 1672 1639 
1639 1672 1970 1673 
1936 1970 1937 1639 
1639 1672 1969 1970 
1936 1970 1639 1969 
1937 1639 1970 1640 
1970 1639 1673 1640 
1640 1673 1971 1674 
1937 1971 1938 1640 
1640 1673 1970 1971 
1937 1971 1640 1970 
1938 1640 1971 1641 
1971 1640 1674 1641 
1641 1674 1972 1675 
1938 1972 1939 1641 
1641 1674 1971 1972 
1938 1972 1641 1971 
1939 1641 1972 1642 
1972 1641 1675 1642 
1642 1675 1973 1676 
1939 1973 1940 1642 
1642 1675 1972 1973 
1939 1973 1642 1972 
1940 1642 1973 1643 
1973 1642 1676 1643 
1643 1676 1974 1677 
1940 1974 1941 1643 
1643 1676 1973 1974 
1940 1974 1643 1973 
1941 1643 1974 1644 
1974 1643 1677 1644 
1644 1677 1975 1678 
1941 1975 1942 1644 
1644 1677 1974 1975 
1941 1975 1644 1974 
1942 1644 1975 1645 
1975 1644 1678 1645 
1645 1678 1976 1679 
1942 1976 1943 1645 
1645 1678 1975 1976 
1942 1976 1645 1975 
1943 1645 1976 1646 
1976 1645 1679 1646 
1646 1679 1977 1680 
1943 1977 1944 1646 
1646 1679 1976 1977 
1943 1977 1646 1976 
1944 1646 1977 1647 
1977 1646 1680 1647 
1647 1680 1978 1681 
1944 1978 1945 1647 
1647 1680 1977 1978 
1944 1978 1647 1977 
1945 1647 1978 1648 
1978 1647 1681 1648 
1648 1681 1979 1682 
1945 1979 1946 1648 
1648 1681 1978 1979 
1945 1979 1648 1978 
1946 1648 1979 1649 
1979 1648 1682 1649 
1650 1683 1981 1684 
1947 1981 1948 1650 
1650 1683 1980 1981 
1947 1981 1650 1980 
1948 1650 1981 1651 
1981 1650 1684 1651 
1651 1684 1982 1685 
1948 1982 1949 1651 
1651 1684 1981 1982 
1948 1982 1651 1981 
1949 1651 1982 1652 
1982 1651 1685 1652 
1652 1685 1983 1686 
1949 1983 1950 1652 
1652 1685 1982 1983 
1949 1983 1652 1982 
1950 1652 1983 1653 
1983 1652 1686 1653 
1653 1686 1984 1687 
1950 1984 1951 1653 
1653 1686 1983 1984 
1950 1984 1653 1983 
1951 1653 1984 1654 
1984 1653 1687 1654 
1654 1687 1985 1688 
1951 1985 1952 1654 
1654 1687 1984 1985 
1951 1985 1654 1984 
1952 1654 1985 1655 
1985 1654 1688 1655 
1655 1688 1986 1689 
1952 1986 1953 1655 
1655 1688 1985 1986 
1952 1986 1655 1985 
1953 1655 1986 1656 
1986 1655 1689 1656 
1656 1689 1987 1690 
1953 1987 1954 1656 
1656 1689 1986 1987 
1953 1987 1656 1986 
1954 1656 1987 1657 
1987 1656 1690 1657 
1657 1690 1988 1691 
1954 1988 1955 1657 
1657 1690 1987 1988 
1954 1988 1657 1987 
1955 1657 1988 1658 
1988 1657 1691 1658 
1658 1691 1989 1692 
1955 1989 1956 1658 
1658 1691 1988 1989 
1955 1989 1658 1988 
1956 1658 1989 1659 
1989 1658 1692 1659 
1659 1692 1990 1693 
1956 1990 1957 1659 
1659 1692 1989 1990 
1956 1990 1659 1989 
1957 1659 1990 1660 
1990 1659 1693 1660 
1660 1693 1991 1694 
1957 1991 1958 1660 
1660 1693 1990 1991 
1957 1991 1660 1990 
1958 1660 1991 1661 
1991 1660 1694 1661 
1661 1694 1992 1695 
1958 1992 1959 1661 
1661 1694 1991 1992 
1958 1992 1661 1991 
1959 1661 1992 1662 
1992 1661 1695 1662 
1662 1695 1993 1696 
1959 1993 1960 1662 
1662 1695 1992 1993 
1959 1993 1662 1992 
1960 1662 1993 1663 
1993 1662 1696 1663 
1663 1696 1994 1697 
1960 1994 1961 1663 
1663 1696 1993 1994 
1960 1994 1663 1993 
1961 1663 1994 1664 
1994 1663 1697 1664 
1664 1697 1995 1698 
1961 1995 1962 1664 
1664 1697 1994 1995 
1961 1995 1664 1994 
1962 1664 1995 1665 
1995 1664 1698 1665 
1665 1698 1996 1699 
1962 1996 1963 1665 
1665 1698 1995 1996 
1962 1996 1665 1995 
1963 1665 1996 1666 
1996 1665 1699 1666 
1666 1699 1997 1700 
1963 1997 1964 1666 
1666 1699 1996 1997 
1963 1997 1666 1996 
1964 1666 1997 1667 
1997 1666 1700 1667 
1667 1700 1998 1701 
1964 1998 1965 1667 
1667 1700 1997 1998 
1964 1998 1667 1997 
1965 1667 1998 1668 
1998 1667 1701 1668 
1668 1701 1999 1702 
1965 1999 1966 1668 
1668 1701 1998 1999 
1965 1999 1668 1998 
1966 1668 1999 1669 
1999 1668 1702 1669 
1669 1702 2000 1703 
1966 2000 1967 1669 
1669 1702 1999 2000 
1966 2000 1669 1999 
1967 1669 2000 1670 
2000 1669 1703 1670 
1670 1703 2001 1704 
1967 2001 1968 1670 
1670 1703 2000 2001 
1967 2001 1670 2000 
1968 1670 2001 1671 
2001 1670 1704 1671 
1671 1704 2002 1705 
1968 2002 1969 1671 
1671 1704 2001 2002 
1968 2002 1671 2001 
1969 1671 2002 1672 
2002 1671 1705 1672 
1672 1705 2003 1706 
1969 2003 1970 1672 
1672 1705 2002 2003 
1969 2003 1672 2002 
1970 1672 2003 1673 
2003 1672 1706 1673 
1673 1706 2004 1707 
1970 2004 1971 1673 
1673 1706 2003 2004 
1970 2004 1673 2003 
1971 1673 2004 1674 
2004 1673 1707 1674 
1674 1707 2005 1708 
1971 2005 1972 1674 
1674 1707 2004 2005 
1971 2005 1674 2004 
1972 1674 2005 1675 
2005 1674 1708 1675 
1675 1708 2006 1709 
1972 2006 1973 1675 
1675 1708 2005 2006 
1972 2006 1675 2005 
1973 1675 2006 1676 
2006 1675 1709 1676 
1676 1709 2007 1710 
1973 2007 1974 1676 
1676 1709 2006 2007 
1973 2007 1676 2006 
1974 1676 2007 1677 
2007 1676 1710 1677 
1677 1710 2008 1711 
1974 2008 1975 1677 
1677 1710 2007 2008 
1974 2008 1677 2007 
1975 1677 2008 1678 
2008 1677 1711 1678 
1678 1711 2009 1712 
1975 2009 1976 1678 
1678 1711 2008 2009 
1975 2009 1678 2008 
1976 1678 2009 1679 
2009 1678 1712 1679 
1679 1712 2010 1713 
1976 2010 1977 1679 
1679 1712 2009 2010 
1976 2010 1679 2009 
1977 1679 2010 1680 
2010 1679 1713 1680 
1680 1713 2011 1714 
1977 2011 1978 1680 
1680 1713 2010 2011 
1977 2011 1680 2010 
1978 1680 2011 1681 
2011 1680 1714 1681 
1681 1714 2012 1715 
1978 2012 1979 1681 
1681 1714 2011 2012 
1978 2012 1681 2011 
1979 1681 2012 1682 
2012 1681 1715 1682 
1683 1716 2014 1717 
1980 2014 1981 1683 
1683 1716 2013 2014 
1980 2014 1683 2013 
1981 1683 2014 1684 
2014 1683 1717 1684 
1684 1717 2015 1718 
1981 2015 1982 1684 
1684 1717 2014 2015 
1981 2015 1684 2014 
1982 1684 2015 1685 
2015 1684 1718 1685 
1685 1718 2016 1719 
1982 2016 1983 1685 
1685 1718 2015 2016 
1982 2016 1685 2015 
1983 1685 2016 1686 
2016 1685 1719 1686 
1686 1719 2017 1720 
1983 2017 1984 1686 
1686 1719 2016 2017 
1983 2017 1686 2016 
1984 1686 2017 1687 
2017 1686 1720 1687 
1687 1720 2018 1721 
1984 2018 1985 1687 
1687 1720 2017 2018 
1984 2018 1687 2017 
1985 1687 2018 1688 
2018 1687 1721 1688 
1688 1721 2019 1722 
1985 2019 1986 1688 
1688 1721 2018 2019 
1985 2019 1688 2018 
1986 1688 2019 1689 
2019 1688 1722 1689 
1689 1722 2020 1723 
1986 2020 1987 1689 
1689 1722 2019 2020 
1986 2020 1689 2019 
1987 1689 2020 1690 
2020 1689 1723 1690 
1690 1723 2021 1724 
1987 2021 1988 1690 
1690 1723 2020 2021 
1987 2021 1690 2020 
1988 1690 2021 1691 
2021 1690 1724 1691 
1691 1724 2022 1725 
1988 2022 1989 1691 
1691 1724 2021 2022 
1988 2022 1691 2021 
1989 1691 2022 1692 
2022 1691 1725 1692 
1692 1725 2023 1726 
1989 2023 1990 1692 
1692 1725 2022 2023 
1989 2023 1692 2022 
1990 1692 2023 1693 
2023 1692 1726 1693 
1693 1726 2024 1727 
1990 2024 1991 1693 
1693 1726 2023 2024 
1990 2024 1693 2023 
1991 1693 2024 1694 
2024 1693 1727 1694 
1694 1727 2025 1728 
1991 2025 1992 1694 
1694 1727 2024 2025 
1991 2025 1694 2024 
1992 1694 2025 1695 
2025 1694 1728 1695 
1695 1728 2026 1729 
1992 2026 1993 1695 
1695 1728 2025 2026 
1992 2026 1695 2025 
1993 1695 2026 1696 
2026 1695 1729 1696 
1696 1729 2027 1730 
1993 2027 1994 1696 
1696 1729 2026 2027 
1993 2027 1696 2026 
1994 1696 2027 1697 
2027 1696 1730 1697 
1697 1730 2028 1731 
1994 2028 1995 1697 
1697 1730 2027 2028 
1994 2028 1697 2027 
1995 1697 2028 1698 
2028 1697 1731 1698 
1698 1731 2029 1732 
1995 2029 1996 1698 
1698 1731 2028 2029 
1995 2029 1698 2028 
1996 1698 2029 1699 
2029 1698 1732 1699 
1699 1732 2030 1733 
1996 2030 1997 1699 
1699 1732 2029 2030 
1996 2030 1699 2029 
1997 1699 2030 1700 
2030 1699 1733 1700 
1700 1733 2031 1734 
1997 2031 1998 1700 
1700 1733 2030 2031 
1997 2031 1700 2030 
1998 1700 2031 1701 
2031 1700 1734 1701 
1701 1734 2032 1735 
1998 2032 1999 1701 
1701 1734 2031 2032 
1998 2032 1701 2031 
1999 1701 2032 1702 
2032 1701 1735 1702 
1702 1735 2033 1736 
1999 2033 2000 1702 
1702 1735 2032 2033 
1999 2033 1702 2032 
2000 1702 2033 1703 
2033 1702 1736 1703 
1703 1736 2034 1737 
2000 2034 2001 1703 
1703 1736 2033 2034 
2000 2034 1703 2033 
2001 1703 2034 1704 
2034 1703 1737 1704 
1704 1737 2035 1738 
2001 2035 2002 1704 
1704 1737 2034 2035 
2001 2035 1704 2034 
2002 1704 2035 1705 
2035 1704 1738 1705 
1705 1738 2036 1739 
2002 2036 2003 1705 
1705 1738 2035 2036 
2002 2036 1705 2035 
2003 1705 2036 1706 
2036 1705 1739 1706 
1706 1739 2037 1740 
2003 2037 2004 1706 
1706 1739 2036 2037 
2003 2037 1706 2036 
2004 1706 2037 1707 
2037 1706 1740 1707 
1707 1740 2038 1741 
2004 2038 2005 1707 
1707 1740 2037 2038 
2004 2038 1707 2037 
2005 1707 2038 1708 
2038 1707 1741 1708 
1708 1741 2039 1742 
2005 2039 2006 1708 
1708 1741 2038 2039 
2005 2039 1708 2038 
2006 1708 2039 1709 
2039 1708 1742 1709 
1709 1742 2040 1743 
2006 2040 2007 1709 
1709 1742 2039 2040 
2006 2040 1709 2039 
2007 1709 2040 1710 
2040 1709 1743 1710 
1710 1743 2041 1744 
2007 2041 2008 1710 
1710 1743 2040 2041 
2007 2041 1710 2040 
2008 1710 2041 1711 
2041 1710 1744 1711 
1711 1744 2042 1745 
2008 2042 2009 1711 
1711 1744 2041 2042 
2008 2042 1711 2041 
2009 1711 2042 1712 
2042 1711 1745 1712 
1712 1745 2043 1746 
2009 2043 2010 1712 
1712 1745 2042 2043 
2009 2043 1712 2042 
2010 1712 2043 1713 
2043 1712 1746 1713 
1713 1746 2044 1747 
2010 2044 2011 1713 
1713 1746 2043 2044 
2010 2044 1713 2043 
2011 1713 2044 1714 
2044 1713 1747 1714 
1714 1747 2045 1748 
2011 2045 2012 1714 
1714 1747 2044 2045 
2011 2045 1714 2044 
2012 1714 2045 1715 
2045 1714 1748 1715 
1716 1749 2047 1750 
2013 2047 2014 1716 
1716 1749 2046 2047 
2013 2047 1716 2046 
2014 1716 2047 1717 
2047 1716 1750 1717 
1717 1750 2048 1751 
2014 2048 2015 1717 
1717 1750 2047 2048 
2014 2048 1717 2047 
2015 1717 2048 1718 
2048 1717 1751 1718 
1718 1751 2049 1752 
2015 2049 2016 1718 
1718 1751 2048 2049 
2015 2049 1718 2048 
2016 1718 2049 1719 
2049 1718 1752 1719 
1719 1752 2050 1753 
2016 2050 2017 1719 
1719 1752 2049 2050 
2016 2050 1719 2049 
2017 1719 2050 1720 
2050 1719 1753 1720 
1720 1753 2051 1754 
2017 2051 2018 1720 
1720 1753 2050 2051 
2017 2051 1720 2050 
2018 1720 2051 1721 
2051 1720 1754 1721 
1721 1754 2052 1755 
2018 2052 2019 1721 
1721 1754 2051 2052 
2018 2052 1721 2051 
2019 1721 2052 1722 
2052 1721 1755 1722 
1722 1755 2053 1756 
2019 2053 2020 1722 
1722 1755 2052 2053 
2019 2053 1722 2052 
2020 1722 2053 1723 
2053 1722 1756 1723 
1723 1756 2054 1757 
2020 2054 2021 1723 
1723 1756 2053 2054 
2020 2054 1723 2053 
2021 1723 2054 1724 
2054 1723 1757 1724 
1724 1757 2055 1758 
2021 2055 2022 1724 
1724 1757 2054 2055 
2021 2055 1724 2054 
2022 1724 2055 1725 
2055 1724 1758 1725 
1725 1758 2056 1759 
2022 2056 2023 1725 
1725 1758 2055 2056 
2022 2056 1725 2055 
2023 1725 2056 1726 
2056 1725 1759 1726 
1726 1759 2057 1760 
2023 2057 2024 1726 
1726 1759 2056 2057 
2023 2057 1726 2056 
2024 1726 2057 1727 
2057 1726 1760 1727 
1727 1760 2058 1761 
2024 2058 2025 1727 
1727 1760 2057 2058 
2024 2058 1727 2057 
2025 1727 2058 1728 
2058 1727 1761 1728 
1728 1761 2059 1762 
2025 2059 2026 1728 
1728 1761 2058 2059 
2025 2059 1728 2058 
2026 1728 2059 1729 
2059 1728 1762 1729 
1729 1762 2060 1763 
2026 2060 2027 1729 
1729 1762 2059 2060 
2026 2060 1729 2059 
2027 1729 2060 1730 
2060 1729 1763 1730 
1730 1763 2061 1764 
2027 2061 2028 1730 
1730 1763 2060 2061 
2027 2061 1730 2060 
2028 1730 2061 1731 
2061 1730 1764 1731 
1731 1764 2062 1765 
2028 2062 2029 1731 
1731 1764 2061 2062 
2028 2062 1731 2061 
2029 1731 2062 1732 
2062 1731 1765 1732 
1732 1765 2063 1766 
2029 2063 2030 1732 
1732 1765 2062 2063 
2029 2063 1732 2062 
2030 1732 2063 1733 
2063 1732 1766 1733 
1733 1766 2064 1767 
2030 2064 2031 1733 
1733 1766 2063 2064 
2030 2064 1733 2063 
2031 1733 2064 1734 
2064 1733 1767 1734 
1734 1767 2065 1768 
2031 2065 2032 1734 
1734 1767 2064 2065 
2031 2065 1734 2064 
2032 1734 2065 1735 
2065 1734 1768 1735 
1735 1768 2066 1769 
2032 2066 2033 1735 
1735 1768 2065 2066 
2032 2066 1735 2065 
2033 1735 2066 1736 
2066 1735 1769 1736 
1736 1769 2067 1770 
2033 2067 2034 1736 
1736 1769 2066 2067 
2033 2067 1736 2066 
2034 1736 2067 1737 
2067 1736 1770 1737 
1737 1770 2068 1771 
2034 2068 2035 1737 
1737 1770 2067 2068 
2034 2068 1737 2067 
2035 1737 2068 1738 
2068 1737 1771 1738 
1738 1771 2069 1772 
2035 2069 2036 1738 
1738 1771 2068 2069 
2035 2069 1738 2068 
2036 1738 2069 1739 
2069 1738 1772 1739 
1739 1772 2070 1773 
2036 2070 2037 1739 
1739 1772 2069 2070 
2036 2070 1739 2069 
2037 1739 2070 1740 
2070 1739 1773 1740 
1740 1773 2071 1774 
2037 2071 2038 1740 
1740 1773 2070 2071 
2037 2071 1740 2070 
2038 1740 2071 1741 
2071 1740 1774 1741 
1741 1774 2072 1775 
2038 2072 2039 1741 
1741 1774 2071 2072 
2038 2072 1741 2071 
2039 1741 2072 1742 
2072 1741 1775 1742 
1742 1775 2073 1776 
2039 2073 2040 1742 
1742 1775 2072 2073 
2039 2073 1742 2072 
2040 1742 2073 1743 
2073 1742 1776 1743 
1743 1776 2074 1777 
2040 2074 2041 1743 
1743 1776 2073 2074 
2040 2074 1743 2073 
2041 1743 2074 1744 
2074 1743 1777 1744 
1744 1777 2075 1778 
2041 2075 2042 1744 
1744 1777 2074 2075 
2041 2075 1744 2074 
2042 1744 2075 1745 
2075 1744 1778 1745 
1745 1778 2076 1779 
2042 2076 2043 1745 
1745 1778 2075 2076 
2042 2076 1745 2075 
2043 1745 2076 1746 
2076 1745 1779 1746 
1746 1779 2077 1780 
2043 2077 2044 1746 
1746 1779 2076 2077 
2043 2077 1746 2076 
2044 1746 2077 1747 
2077 1746 1780 1747 
1747 1780 2078 1781 
2044 2078 2045 1747 
1747 1780 2077 2078 
2044 2078 1747 2077 
2045 1747 2078 1748 
2078 1747 1781 1748 
1782 1815 2113 1816 
2079 2113 2080 1782 
1782 1815 2112 2113 
2079 2113 1782 2112 
2080 1782 2113 1783 
2113 1782 1816 1783 
1783 1816 2114 1817 
2080 2114 2081 1783 
1783 1816 2113 2114 
2080 2114 1783 2113 
2081 1783 2114 1784 
2114 1783 1817 1784 
1784 1817 2115 1818 
2081 2115 2082 1784 
1784 1817 2114 2115 
2081 2115 1784 2114 
2082 1784 2115 1785 
2115 1784 1818 1785 
1785 1818 2116 1819 
2082 2116 2083 1785 
1785 1818 2115 2116 
2082 2116 1785 2115 
2083 1785 2116 1786 
2116 1785 1819 1786 
1786 1819 2117 1820 
2083 2117 2084 1786 
1786 1819 2116 2117 
2083 2117 1786 2116 
2084 1786 2117 1787 
2117 1786 1820 1787 
1787 1820 2118 1821 
2084 2118 2085 1787 
1787 1820 2117 2118 
2084 2118 1787 2117 
2085 1787 2118 1788 
2118 1787 1821 1788 
1788 1821 2119 1822 
2085 2119 2086 1788 
1788 1821 2118 2119 
2085 2119 1788 2118 
2086 1788 2119 1789 
2119 1788 1822 1789 
1789 1822 2120 1823 
2086 2120 2087 1789 
1789 1822 2119 2120 
2086 2120 1789 2119 
2087 1789 2120 1790 
2120 1789 1823 1790 
1790 1823 2121 1824 
2087 2121 2088 1790 
1790 1823 2120 2121 
2087 2121 1790 2120 
2088 1790 2121 1791 
2121 1790 1824 1791 
1791 1824 2122 1825 
2088 2122 2089 1791 
1791 1824 2121 2122 
2088 2122 1791 2121 
2089 1791 2122 1792 
2122 1791 1825 1792 
1792 1825 2123 1826 
2089 2123 2090 1792 
1792 1825 2122 2123 
2089 2123 1792 2122 
2090 1792 2123 1793 
2123 1792 1826 1793 
1793 1826 2124 1827 
2090 2124 2091 1793 
1793 1826 2123 2124 
2090 2124 1793 2123 
2091 1793 2124 1794 
2124 1793 1827 1794 
1794 1827 2125 1828 
2091 2125 2092 1794 
1794 1827 2124 2125 
2091 2125 1794 2124 
2092 1794 2125 1795 
2125 1794 1828 1795 
1795 1828 2126 1829 
2092 2126 2093 1795 
1795 1828 2125 2126 
2092 2126 1795 2125 
2093 1795 2126 1796 
2126 1795 1829 1796 
1796 1829 2127 1830 
2093 2127 2094 1796 
1796 1829 2126 2127 
2093 2127 1796 2126 
2094 1796 2127 1797 
2127 1796 1830 1797 
1797 1830 2128 1831 
2094 2128 2095 1797 
1797 1830 2127 2128 
2094 2128 1797 2127 
2095 1797 2128 1798 
2128 1797 1831 1798 
1798 1831 2129 1832 
2095 2129 2096 1798 
1798 1831 2128 2129 
2095 2129 1798 2128 
2096 1798 2129 1799 
2129 1798 1832 1799 
1799 1832 2130 1833 
2096 2130 2097 1799 
1799 1832 2129 2130 
2096 2130 1799 2129 
2097 1799 2130 1800 
2130 1799 1833 1800 
1800 1833 2131 1834 
2097 2131 2098 1800 
1800 1833 2130 2131 
2097 2131 1800 2130 
2098 1800 2131 1801 
2131 1800 1834 1801 
1801 1834 2132 1835 
2098 2132 2099 1801 
1801 1834 2131 2132 
2098 2132 1801 2131 
2099 1801 2132 1802 
2132 1801 1835 1802 
1802 1835 2133 1836 
2099 2133 2100 1802 
1802 1835 2132 2133 
2099 2133 1802 2132 
2100 1802 2133 1803 
2133 1802 1836 1803 
1803 1836 2134 1837 
2100 2134 2101 1803 
1803 1836 2133 2134 
2100 2134 1803 2133 
2101 1803 2134 1804 
2134 1803 1837 1804 
1804 1837 2135 1838 
2101 2135 2102 1804 
1804 1837 2134 2135 
2101 2135 1804 2134 
2102 1804 2135 1805 
2135 1804 1838 1805 
1805 1838 2136 1839 
2102 2136 2103 1805 
1805 1838 2135 2136 
2102 2136 1805 2135 
2103 1805 2136 1806 
2136 1805 1839 1806 
1806 1839 2137 1840 
2103 2137 2104 1806 
1806 1839 2136 2137 
2103 2137 1806 2136 
2104 1806 2137 1807 
2137 1806 1840 1807 
1807 1840 2138 1841 
2104 2138 2105 1807 
1807 1840 2137 2138 
2104 2138 1807 2137 
2105 1807 2138 1808 
2138 1807 1841 1808 
1808 1841 2139 1842 
2105 2139 2106 1808 
1808 1841 2138 2139 
2105 2139 1808 2138 
2106 1808 2139 1809 
2139 1808 1842 1809 
1809 1842 2140 1843 
2106 2140 2107 1809 
1809 1842 2139 2140 
2106 2140 1809 2139 
2107 1809 2140 1810 
2140 1809 1843 1810 
1810 1843 2141 1844 
2107 2141 2108 1810 
1810 1843 2140 2141 
2107 2141 1810 2140 
2108 1810 2141 1811 
2141 1810 1844 1811 
1811 1844 2142 1845 
2108 2142 2109 1811 
1811 1844 2141 2142 
2108 2142 1811 2141 
2109 1811 2142 1812 
2142 1811 1845 1812 
1812 1845 2143 1846 
2109 2143 2110 1812 
1812 1845 2142 2143 
2109 2143 1812 2142 
2110 1812 2143 1813 
2143 1812 1846 1813 
1813 1846 2144 1847 
2110 2144 2111 1813 
1813 1846 2143 2144 
2110 2144 1813 2143 
2111 1813 2144 1814 
2144 1813 1847 1814 
1815 1848 2146 1849 
2112 2146 2113 1815 
1815 1848 2145 2146 
2112 2146 1815 2145 
2113 1815 2146 1816 
2146 1815 1849 1816 
1816 1849 2147 1850 
2113 2147 2114 1816 
1816 1849 2146 2147 
2113 2147 1816 2146 
2114 1816 2147 1817 
2147 1816 1850 1817 
1817 1850 2148 1851 
2114 2148 2115 1817 
1817 1850 2147 2148 
2114 2148 1817 2147 
2115 1817 2148 1818 
2148 1817 1851 1818 
1818 1851 2149 1852 
2115 2149 2116 1818 
1818 1851 2148 2149 
2115 2149 1818 2148 
2116 1818 2149 1819 
2149 1818 1852 1819 
1819 1852 2150 1853 
2116 2150 2117 1819 
1819 1852 2149 2150 
2116 2150 1819 2149 
2117 1819 2150 1820 
2150 1819 1853 1820 
1820 1853 2151 1854 
2117 2151 2118 1820 
1820 1853 2150 2151 
2117 2151 1820 2150 
2118 1820 2151 1821 
2151 1820 1854 1821 
1821 1854 2152 1855 
2118 2152 2119 1821 
1821 1854 2151 2152 
2118 2152 1821 2151 
2119 1821 2152 1822 
2152 1821 1855 1822 
1822 1855 2153 1856 
2119 2153 2120 1822 
1822 1855 2152 2153 
2119 2153 1822 2152 
2120 1822 2153 1823 
2153 1822 1856 1823 
1823 1856 2154 1857 
2120 2154 2121 1823 
1823 1856 2153 2154 
2120 2154 1823 2153 
2121 1823 2154 1824 
2154 1823 1857 1824 
1824 1857 2155 1858 
2121 2155 2122 1824 
1824 1857 2154 2155 
2121 2155 1824 2154 
2122 1824 2155 1825 
2155 1824 1858 1825 
1825 1858 2156 1859 
2122 2156 2123 1825 
1825 1858 2155 2156 
2122 2156 1825 2155 
2123 1825 2156 1826 
2156 1825 1859 1826 
1826 1859 2157 1860 
2123 2157 2124 1826 
1826 1859 2156 2157 
2123 2157 1826 2156 
2124 1826 2157 1827 
2157 1826 1860 1827 
1827 1860 2158 1861 
2124 2158 2125 1827 
1827 1860 2157 2158 
2124 2158 1827 2157 
2125 1827 2158 1828 
2158 1827 1861 1828 
1828 1861 2159 1862 
2125 2159 2126 1828 
1828 1861 2158 2159 
2125 2159 1828 2158 
2126 1828 2159 1829 
2159 1828 1862 1829 
1829 1862 2160 1863 
2126 2160 2127 1829 
1829 1862 2159 2160 
2126 2160 1829 2159 
2127 1829 2160 1830 
2160 1829 1863 1830 
1830 1863 2161 1864 
2127 2161 2128 1830 
1830 1863 2160 2161 
2127 2161 1830 2160 
2128 1830 2161 1831 
2161 1830 1864 1831 
1831 1864 2162 1865 
2128 2162 2129 1831 
1831 1864 2161 2162 
2128 2162 1831 2161 
2129 1831 2162 1832 
2162 1831 1865 1832 
1832 1865 2163 1866 
2129 2163 2130 1832 
1832 1865 2162 2163 
2129 2163 1832 2162 
2130 1832 2163 1833 
2163 1832 1866 1833 
1833 1866 2164 1867 
2130 2164 2131 1833 
1833 1866 2163 2164 
2130 2164 1833 2163 
2131 1833 2164 1834 
2164 1833 1867 1834 
1834 1867 2165 1868 
2131 2165 2132 1834 
1834 1867 2164 2165 
2131 2165 1834 2164 
2132 1834 2165 1835 
2165 1834 1868 1835 
1835 1868 2166 1869 
2132 2166 2133 1835 
1835 1868 2165 2166 
2132 2166 1835 2165 
2133 1835 2166 1836 
2166 1835 1869 1836 
1836 1869 2167 1870 
2133 2167 2134 1836 
1836 1869 2166 2167 
2133 2167 1836 2166 
2134 1836 2167 1837 
2167 1836 1870 1837 
1837 1870 2168 1871 
2134 2168 2135 1837 
1837 1870 2167 2168 
2134 2168 1837 2167 
2135 1837 2168 1838 
2168 1837 1871 1838 
1838 1871 2169 1872 
2135 2169 2136 1838 
1838 1871 2168 2169 
2135 2169 1838 2168 
2136 1838 2169 1839 
2169 1838 1872 1839 
1839 1872 2170 1873 
2136 2170 2137 1839 
1839 1872 2169 2170 
2136 2170 1839 2169 
2137 1839 2170 1840 
2170 1839 1873 1840 
1840 1873 2171 1874 
2137 2171 2138 1840 
1840 1873 2170 2171 
2137 2171 1840 2170 
2138 1840 2171 1841 
2171 1840 1874 1841 
1841 1874 2172 1875 
2138 2172 2139 1841 
1841 1874 2171 2172 
2138 2172 1841 2171 
2139 1841 2172 1842 
2172 1841 1875 1842 
1842 1875 2173 1876 
2139 2173 2140 1842 
1842 1875 2172 2173 
2139 2173 1842 2172 
2140 1842 2173 1843 
2173 1842 1876 1843 
1843 1876 2174 1877 
2140 2174 2141 1843 
1843 1876 2173 2174 
2140 2174 1843 2173 
2141 1843 2174 1844 
2174 1843 1877 1844 
1844 1877 2175 1878 
2141 2175 2142 1844 
1844 1877 2174 2175 
2141 2175 1844 2174 
2142 1844 2175 1845 
2175 1844 1878 1845 
1845 1878 2176 1879 
2142 2176 2143 1845 
1845 1878 2175 2176 
2142 2176 1845 2175 
2143 1845 2176 1846 
2176 1845 1879 1846 
1846 1879 2177 1880 
2143 2177 2144 1846 
1846 1879 2176 2177 
2143 2177 1846 2176 
2144 1846 2177 1847 
2177 1846 1880 1847 
1848 1881 2179 1882 
2145 2179 2146 1848 
1848 1881 2178 2179 
2145 2179 1848 2178 
2146 1848 2179 1849 
2179 1848 1882 1849 
1849 1882 2180 1883 
2146 2180 2147 1849 
1849 1882 2179 2180 
2146 2180 1849 2179 
2147 1849 2180 1850 
2180 1849 1883 1850 
1850 1883 2181 1884 
2147 2181 2148 1850 
1850 1883 2180 2181 
2147 2181 1850 2180 
2148 1850 2181 1851 
2181 1850 1884 1851 
1851 1884 2182 1885 
2148 2182 2149 1851 
1851 1884 2181 2182 
2148 2182 1851 2181 
2149 1851 2182 1852 
2182 1851 1885 1852 
1852 1885 2183 1886 
2149 2183 2150 1852 
1852 1885 2182 2183 
2149 2183 1852 2182 
2150 1852 2183 1853 
2183 1852 1886 1853 
1853 1886 2184 1887 
2150 2184 2151 1853 
1853 1886 2183 2184 
2150 2184 1853 2183 
2151 1853 2184 1854 
2184 1853 1887 1854 
1854 1887 2185 1888 
2151 2185 2152 1854 
1854 1887 2184 2185 
2151 2185 1854 2184 
2152 1854 2185 1855 
2185 1854 1888 1855 
1855 1888 2186 1889 
2152 2186 2153 1855 
1855 1888 2185 2186 
2152 2186 1855 2185 
2153 1855 2186 1856 
2186 1855 1889 1856 
1856 1889 2187 1890 
2153 2187 2154 1856 
1856 1889 2186 2187 
2153 2187 1856 2186 
2154 1856 2187 1857 
2187 1856 1890 1857 
1857 1890 2188 1891 
2154 2188 2155 1857 
1857 1890 2187 2188 
2154 2188 1857 2187 
2155 1857 2188 1858 
2188 1857 1891 1858 
1858 1891 2189 1892 
2155 2189 2156 1858 
1858 1891 2188 2189 
2155 2189 1858 2188 
2156 1858 2189 1859 
2189 1858 1892 1859 
1859 1892 2190 1893 
2156 2190 2157 1859 
1859 1892 2189 2190 
2156 2190 1859 2189 
2157 1859 2190 1860 
2190 1859 1893 1860 
1860 1893 2191 1894 
2157 2191 2158 1860 
1860 1893 2190 2191 
2157 2191 1860 2190 
2158 1860 2191 1861 
2191 1860 1894 1861 
1861 1894 2192 1895 
2158 2192 2159 1861 
1861 1894 2191 2192 
2158 2192 1861 2191 
2159 1861 2192 1862 
2192 1861 1895 1862 
1862 1895 2193 1896 
2159 2193 2160 1862 
1862 1895 2192 2193 
2159 2193 1862 2192 
2160 1862 2193 1863 
2193 1862 1896 1863 
1863 1896 2194 1897 
2160 2194 2161 1863 
1863 1896 2193 2194 
2160 2194 1863 2193 
2161 1863 2194 1864 
2194 1863 1897 1864 
1864 1897 2195 1898 
2161 2195 2162 1864 
1864 1897 2194 2195 
2161 2195 1864 2194 
2162 1864 2195 1865 
2195 1864 1898 1865 
1865 1898 2196 1899 
2162 2196 2163 1865 
1865 1898 2195 2196 
2162 2196 1865 2195 
2163 1865 2196 1866 
2196 1865 1899 1866 
1866 1899 2197 1900 
2163 2197 2164 1866 
1866 1899 2196 2197 
2163 2197 1866 2196 
2164 1866 2197 1867 
2197 1866 1900 1867 
1867 1900 2198 1901 
2164 2198 2165 1867 
1867 1900 2197 2198 
2164 2198 1867 2197 
2165 1867 2198 1868 
2198 1867 1901 1868 
1868 1901 2199 1902 
2165 2199 2166 1868 
1868 1901 2198 2199 
2165 2199 1868 2198 
2166 1868 2199 1869 
2199 1868 1902 1869 
1869 1902 2200 1903 
2166 2200 2167 1869 
1869 1902 2199 2200 
2166 2200 1869 2199 
2167 1869 2200 1870 
2200 1869 1903 1870 
1870 1903 2201 1904 
2167 2201 2168 1870 
1870 1903 2200 2201 
2167 2201 1870 2200 
2168 1870 2201 1871 
2201 1870 1904 1871 
1871 1904 2202 1905 
2168 2202 2169 1871 
1871 1904 2201 2202 
2168 2202 1871 2201 
2169 1871 2202 1872 
2202 1871 1905 1872 
1872 1905 2203 1906 
2169 2203 2170 1872 
1872 1905 2202 2203 
2169 2203 1872 2202 
2170 1872 2203 1873 
2203 1872 1906 1873 
1873 1906 2204 1907 
2170 2204 2171 1873 
1873 1906 2203 2204 
2170 2204 1873 2203 
2171 1873 2204 1874 
2204 1873 1907 1874 
1874 1907 2205 1908 
2171 2205 2172 1874 
1874 1907 2204 2205 
2171 2205 1874 2204 
2172 1874 2205 1875 
2205 1874 1908 1875 
1875 1908 2206 1909 
2172 2206 2173 1875 
1875 1908 2205 2206 
2172 2206 1875 2205 
2173 1875 2206 1876 
2206 1875 1909 1876 
1876 1909 2207 1910 
2173 2207 2174 1876 
1876 1909 2206 2207 
2173 2207 1876 2206 
2174 1876 2207 1877 
2207 1876 1910 1877 
1877 1910 2208 1911 
2174 2208 2175 1877 
1877 1910 2207 2208 
2174 2208 1877 2207 
2175 1877 2208 1878 
2208 1877 1911 1878 
1878 1911 2209 1912 
2175 2209 2176 1878 
1878 1911 2208 2209 
2175 2209 1878 2208 
2176 1878 2209 1879 
2209 1878 1912 1879 
1879 1912 2210 1913 
2176 2210 2177 1879 
1879 1912 2209 2210 
2176 2210 1879 2209 
2177 1879 2210 1880 
2210 1879 1913 1880 
1881 1914 2212 1915 
2178 2212 2179 1881 
1881 1914 2211 2212 
2178 2212 1881 2211 
2179 1881 2212 1882 
2212 1881 1915 1882 
1882 1915 2213 1916 
2179 2213 2180 1882 
1882 1915 2212 2213 
2179 2213 1882 2212 
2180 1882 2213 1883 
2213 1882 1916 1883 
1883 1916 2214 1917 
2180 2214 2181 1883 
1883 1916 2213 2214 
2180 2214 1883 2213 
2181 1883 2214 1884 
2214 1883 1917 1884 
1884 1917 2215 1918 
2181 2215 2182 1884 
1884 1917 2214 2215 
2181 2215 1884 2214 
2182 1884 2215 1885 
2215 1884 1918 1885 
1885 1918 2216 1919 
2182 2216 2183 1885 
1885 1918 2215 2216 
2182 2216 1885 2215 
2183 1885 2216 1886 
2216 1885 1919 1886 
1886 1919 2217 1920 
2183 2217 2184 1886 
1886 1919 2216 2217 
2183 2217 1886 2216 
2184 1886 2217 1887 
2217 1886 1920 1887 
1887 1920 2218 1921 
2184 2218 2185 1887 
1887 1920 2217 2218 
2184 2218 1887 2217 
2185 1887 2218 1888 
2218 1887 1921 1888 
1888 1921 2219 1922 
2185 2219 2186 1888 
1888 1921 2218 2219 
2185 2219 1888 2218 
2186 1888 2219 1889 
2219 1888 1922 1889 
1889 1922 2220 1923 
2186 2220 2187 1889 
1889 1922 2219 2220 
2186 2220 1889 2219 
2187 1889 2220 1890 
2220 1889 1923 1890 
1890 1923 2221 1924 
2187 2221 2188 1890 
1890 1923 2220 2221 
2187 2221 1890 2220 
2188 1890 2221 1891 
2221 1890 1924 1891 
1891 1924 2222 1925 
2188 2222 2189 1891 
1891 1924 2221 2222 
2188 2222 1891 2221 
2189 1891 2222 1892 
2222 1891 1925 1892 
1892 1925 2223 1926 
2189 2223 2190 1892 
1892 1925 2222 2223 
2189 2223 1892 2222 
2190 1892 2223 1893 
2223 1892 1926 1893 
1893 1926 2224 1927 
2190 2224 2191 1893 
1893 1926 2223 2224 
2190 2224 1893 2223 
2191 1893 2224 1894 
2224 1893 1927 1894 
1894 1927 2225 1928 
2191 2225 2192 1894 
1894 1927 2224 2225 
2191 2225 1894 2224 
2192 1894 2225 1895 
2225 1894 1928 1895 
1895 1928 2226 1929 
2192 2226 2193 1895 
1895 1928 2225 2226 
2192 2226 1895 2225 
2193 1895 2226 1896 
2226 1895 1929 1896 
1896 1929 2227 1930 
2193 2227 2194 1896 
1896 1929 2226 2227 
2193 2227 1896 2226 
2194 1896 2227 1897 
2227 1896 1930 1897 
1897 1930 2228 1931 
2194 2228 2195 1897 
1897 1930 2227 2228 
2194 2228 1897 2227 
2195 1897 2228 1898 
2228 1897 1931 1898 
1898 1931 2229 1932 
2195 2229 2196 1898 
1898 1931 2228 2229 
2195 2229 1898 2228 
2196 1898 2229 1899 
2229 1898 1932 1899 
1899 1932 2230 1933 
2196 2230 2197 1899 
1899 1932 2229 2230 
2196 2230 1899 2229 
2197 1899 2230 1900 
2230 1899 1933 1900 
1900 1933 2231 1934 
2197 2231 2198 1900 
1900 1933 2230 2231 
2197 2231 1900 2230 
2198 1900 2231 1901 
2231 1900 1934 1901 
1901 1934 2232 1935 
2198 2232 2199 1901 
1901 1934 2231 2232 
2198 2232 1901 2231 
2199 1901 2232 1902 
2232 1901 1935 1902 
1902 1935 2233 1936 
2199 2233 2200 1902 
1902 1935 2232 2233 
2199 2233 1902 2232 
2200 1902 2233 1903 
2233 1902 1936 1903 
1903 1936 2234 1937 
2200 2234 2201 1903 
1903 1936 2233 2234 
2200 2234 1903 2233 
2201 1903 2234 1904 
2234 1903 1937 1904 
1904 1937 2235 1938 
2201 2235 2202 1904 
1904 1937 2234 2235 
2201 2235 1904 2234 
2202 1904 2235 1905 
2235 1904 1938 1905 
1905 1938 2236 1939 
2202 2236 2203 1905 
1905 1938 2235 2236 
2202 2236 1905 2235 
2203 1905 2236 1906 
2236 1905 1939 1906 
1906 1939 2237 1940 
2203 2237 2204 1906 
1906 1939 2236 2237 
2203 2237 1906 2236 
2204 1906 2237 1907 
2237 1906 1940 1907 
1907 1940 2238 1941 
2204 2238 2205 1907 
1907 1940 2237 2238 
2204 2238 1907 2237 
2205 1907 2238 1908 
2238 1907 1941 1908 
1908 1941 2239 1942 
2205 2239 2206 1908 
1908 1941 2238 2239 
2205 2239 1908 2238 
2206 1908 2239 1909 
2239 1908 1942 1909 
1909 1942 2240 1943 
2206 2240 2207 1909 
1909 1942 2239 2240 
2206 2240 1909 2239 
2207 1909 2240 1910 
2240 1909 1943 1910 
1910 1943 2241 1944 
2207 2241 2208 1910 
1910 1943 2240 2241 
2207 2241 1910 2240 
2208 1910 2241 1911 
2241 1910 1944 1911 
1911 1944 2242 1945 
2208 2242 2209 1911 
1911 1944 2241 2242 
2208 2242 1911 2241 
2209 1911 2242 1912 
2242 1911 1945 1912 
1912 1945 2243 1946 
2209 2243 2210 1912 
1912 1945 2242 2243 
2209 2243 1912 2242 
2210 1912 2243 1913 
2243 1912 1946 1913 
1914 1947 2245 1948 
2211 2245 2212 1914 
1914 1947 2244 2245 
2211 2245 1914 2244 
2212 1914 2245 1915 
2245 1914 1948 1915 
1915 1948 2246 1949 
2212 2246 2213 1915 
1915 1948 2245 2246 
2212 2246 1915 2245 
2213 1915 2246 1916 
2246 1915 1949 1916 
1916 1949 2247 1950 
2213 2247 2214 1916 
1916 1949 2246 2247 
2213 2247 1916 2246 
2214 1916 2247 1917 
2247 1916 1950 1917 
1917 1950 2248 1951 
2214 2248 2215 1917 
1917 1950 2247 2248 
2214 2248 1917 2247 
2215 1917 2248 1918 
2248 1917 1951 1918 
1918 1951 2249 1952 
2215 2249 2216 1918 
1918 1951 2248 2249 
2215 2249 1918 2248 
2216 1918 2249 1919 
2249 1918 1952 1919 
1919 1952 2250 1953 
2216 2250 2217 1919 
1919 1952 2249 2250 
2216 2250 1919 2249 
2217 1919 2250 1920 
2250 1919 1953 1920 
1920 1953 2251 1954 
2217 2251 2218 1920 
1920 1953 2250 2251 
2217 2251 1920 2250 
2218 1920 2251 1921 
2251 1920 1954 1921 
1921 1954 2252 1955 
2218 2252 2219 1921 
1921 1954 2251 2252 
2218 2252 1921 2251 
2219 1921 2252 1922 
2252 1921 1955 1922 
1922 1955 2253 1956 
2219 2253 2220 1922 
1922 1955 2252 2253 
2219 2253 1922 2252 
2220 1922 2253 1923 
2253 1922 1956 1923 
1923 1956 2254 1957 
2220 2254 2221 1923 
1923 1956 2253 2254 
2220 2254 1923 2253 
2221 1923 2254 1924 
2254 1923 1957 1924 
1924 1957 2255 1958 
2221 2255 2222 1924 
1924 1957 2254 2255 
2221 2255 1924 2254 
2222 1924 2255 1925 
2255 1924 1958 1925 
1925 1958 2256 1959 
2222 2256 2223 1925 
1925 1958 2255 2256 
2222 2256 1925 2255 
2223 1925 2256 1926 
2256 1925 1959 1926 
1926 1959 2257 1960 
2223 2257 2224 1926 
1926 1959 2256 2257 
2223 2257 1926 2256 
2224 1926 2257 1927 
2257 1926 1960 1927 
1927 1960 2258 1961 
2224 2258 2225 1927 
1927 1960 2257 2258 
2224 2258 1927 2257 
2225 1927 2258 1928 
2258 1927 1961 1928 
1928 1961 2259 1962 
2225 2259 2226 1928 
1928 1961 2258 2259 
2225 2259 1928 2258 
2226 1928 2259 1929 
2259 1928 1962 1929 
1929 1962 2260 1963 
2226 2260 2227 1929 
1929 1962 2259 2260 
2226 2260 1929 2259 
2227 1929 2260 1930 
2260 1929 1963 1930 
1930 1963 2261 1964 
2227 2261 2228 1930 
1930 1963 2260 2261 
2227 2261 1930 2260 
2228 1930 2261 1931 
2261 1930 1964 1931 
1931 1964 2262 1965 
2228 2262 2229 1931 
1931 1964 2261 2262 
2228 2262 1931 2261 
2229 1931 2262 1932 
2262 1931 1965 1932 
1932 1965 2263 1966 
2229 2263 2230 1932 
1932 1965 2262 2263 
2229 2263 1932 2262 
2230 1932 2263 1933 
2263 1932 1966 1933 
1933 1966 2264 1967 
2230 2264 2231 1933 
1933 1966 2263 2264 
2230 2264 1933 2263 
2231 1933 2264 1934 
2264 1933 1967 1934 
1934 1967 2265 1968 
2231 2265 2232 1934 
1934 1967 2264 2265 
2231 2265 1934 2264 
2232 1934 2265 1935 
2265 1934 1968 1935 
1935 1968 2266 1969 
2232 2266 2233 1935 
1935 1968 2265 2266 
2232 2266 1935 2265 
2233 1935 2266 1936 
2266 1935 1969 1936 
1936 1969 2267 1970 
2233 2267 2234 1936 
1936 1969 2266 2267 
2233 2267 1936 2266 
2234 1936 2267 1937 
2267 1936 1970 1937 
1937 1970 2268 1971 
2234 2268 2235 1937 
1937 1970 2267 2268 
2234 2268 1937 2267 
2235 1937 2268 1938 
2268 1937 1971 1938 
1938 1971 2269 1972 
2235 2269 2236 1938 
1938 1971 2268 2269 
2235 2269 1938 2268 
2236 1938 2269 1939 
2269 1938 1972 1939 
1939 1972 2270 1973 
2236 2270 2237 1939 
1939 1972 2269 2270 
2236 2270 1939 2269 
2237 1939 2270 1940 
2270 1939 1973 1940 
1940 1973 2271 1974 
2237 2271 2238 1940 
1940 1973 2270 2271 
2237 2271 1940 2270 
2238 1940 2271 1941 
2271 1940 1974 1941 
1941 1974 2272 1975 
2238 2272 2239 1941 
1941 1974 2271 2272 
2238 2272 1941 2271 
2239 1941 2272 1942 
2272 1941 1975 1942 
1942 1975 2273 1976 
2239 2273 2240 1942 
1942 1975 2272 2273 
2239 2273 1942 2272 
2240 1942 2273 1943 
2273 1942 1976 1943 
1943 1976 2274 1977 
2240 2274 2241 1943 
1943 1976 2273 2274 
2240 2274 1943 2273 
2241 1943 2274 1944 
2274 1943 1977 1944 
1944 1977 2275 1978 
2241 2275 2242 1944 
1944 1977 2274 2275 
2241 2275 1944 2274 
2242 1944 2275 1945 
2275 1944 1978 1945 
1945 1978 2276 1979 
2242 2276 2243 1945 
1945 1978 2275 2276 
2242 2276 1945 2275 
2243 1945 2276 1946 
2276 1945 1979 1946 
1947 1980 2278 1981 
2244 2278 2245 1947 
1947 1980 2277 2278 
2244 2278 1947 2277 
2245 1947 2278 1948 
2278 1947 1981 1948 
1948 1981 2279 1982 
2245 2279 2246 1948 
1948 1981 2278 2279 
2245 2279 1948 2278 
2246 1948 2279 1949 
2279 1948 1982 1949 
1949 1982 2280 1983 
2246 2280 2247 1949 
1949 1982 2279 2280 
2246 2280 1949 2279 
2247 1949 2280 1950 
2280 1949 1983 1950 
1950 1983 2281 1984 
2247 2281 2248 1950 
1950 1983 2280 2281 
2247 2281 1950 2280 
2248 1950 2281 1951 
2281 1950 1984 1951 
1951 1984 2282 1985 
2248 2282 2249 1951 
1951 1984 2281 2282 
2248 2282 1951 2281 
2249 1951 2282 1952 
2282 1951 1985 1952 
1952 1985 2283 1986 
2249 2283 2250 1952 
1952 1985 2282 2283 
2249 2283 1952 2282 
2250 1952 2283 1953 
2283 1952 1986 1953 
1953 1986 2284 1987 
2250 2284 2251 1953 
1953 1986 2283 2284 
2250 2284 1953 2283 
2251 1953 2284 1954 
2284 1953 1987 1954 
1954 1987 2285 1988 
2251 2285 2252 1954 
1954 1987 2284 2285 
2251 2285 1954 2284 
2252 1954 2285 1955 
2285 1954 1988 1955 
1955 1988 2286 1989 
2252 2286 2253 1955 
1955 1988 2285 2286 
2252 2286 1955 2285 
2253 1955 2286 1956 
2286 1955 1989 1956 
1956 1989 2287 1990 
2253 2287 2254 1956 
1956 1989 2286 2287 
2253 2287 1956 2286 
2254 1956 2287 1957 
2287 1956 1990 1957 
1957 1990 2288 1991 
2254 2288 2255 1957 
1957 1990 2287 2288 
2254 2288 1957 2287 
2255 1957 2288 1958 
2288 1957 1991 1958 
1958 1991 2289 1992 
2255 2289 2256 1958 
1958 1991 2288 2289 
2255 2289 1958 2288 
2256 1958 2289 1959 
2289 1958 1992 1959 
1959 1992 2290 1993 
2256 2290 2257 1959 
1959 1992 2289 2290 
2256 2290 1959 2289 
2257 1959 2290 1960 
2290 1959 1993 1960 
1960 1993 2291 1994 
2257 2291 2258 1960 
1960 1993 2290 2291 
2257 2291 1960 2290 
2258 1960 2291 1961 
2291 1960 1994 1961 
1961 1994 2292 1995 
2258 2292 2259 1961 
1961 1994 2291 2292 
2258 2292 1961 2291 
2259 1961 2292 1962 
2292 1961 1995 1962 
1962 1995 2293 1996 
2259 2293 2260 1962 
1962 1995 2292 2293 
2259 2293 1962 2292 
2260 1962 2293 1963 
2293 1962 1996 1963 
1963 1996 2294 1997 
2260 2294 2261 1963 
1963 1996 2293 2294 
2260 2294 1963 2293 
2261 1963 2294 1964 
2294 1963 1997 1964 
1964 1997 2295 1998 
2261 2295 2262 1964 
1964 1997 2294 2295 
2261 2295 1964 2294 
2262 1964 2295 1965 
2295 1964 1998 1965 
1965 1998 2296 1999 
2262 2296 2263 1965 
1965 1998 2295 2296 
2262 2296 1965 2295 
2263 1965 2296 1966 
2296 1965 1999 1966 
1966 1999 2297 2000 
2263 2297 2264 1966 
1966 1999 2296 2297 
2263 2297 1966 2296 
2264 1966 2297 1967 
2297 1966 2000 1967 
1967 2000 2298 2001 
2264 2298 2265 1967 
1967 2000 2297 2298 
2264 2298 1967 2297 
2265 1967 2298 1968 
2298 1967 2001 1968 
1968 2001 2299 2002 
2265 2299 2266 1968 
1968 2001 2298 2299 
2265 2299 1968 2298 
2266 1968 2299 1969 
2299 1968 2002 1969 
1969 2002 2300 2003 
2266 2300 2267 1969 
1969 2002 2299 2300 
2266 2300 1969 2299 
2267 1969 2300 1970 
2300 1969 2003 1970 
1970 2003 2301 2004 
2267 2301 2268 1970 
1970 2003 2300 2301 
2267 2301 1970 2300 
2268 1970 2301 1971 
2301 1970 2004 1971 
1971 2004 2302 2005 
2268 2302 2269 1971 
1971 2004 2301 2302 
2268 2302 1971 2301 
2269 1971 2302 1972 
2302 1971 2005 1972 
1972 2005 2303 2006 
2269 2303 2270 1972 
1972 2005 2302 2303 
2269 2303 1972 2302 
2270 1972 2303 1973 
2303 1972 2006 1973 
1973 2006 2304 2007 
2270 2304 2271 1973 
1973 2006 2303 2304 
2270 2304 1973 2303 
2271 1973 2304 1974 
2304 1973 2007 1974 
1974 2007 2305 2008 
2271 2305 2272 1974 
1974 2007 2304 2305 
2271 2305 1974 2304 
2272 1974 2305 1975 
2305 1974 2008 1975 
1975 2008 2306 2009 
2272 2306 2273 1975 
1975 2008 2305 2306 
2272 2306 1975 2305 
2273 1975 2306 1976 
2306 1975 2009 1976 
1976 2009 2307 2010 
2273 2307 2274 1976 
1976 2009 2306 2307 
2273 2307 1976 2306 
2274 1976 2307 1977 
2307 1976 2010 1977 
1977 2010 2308 2011 
2274 2308 2275 1977 
1977 2010 2307 2308 
2274 2308 1977 2307 
2275 1977 2308 1978 
2308 1977 2011 1978 
1978 2011 2309 2012 
2275 2309 2276 1978 
1978 2011 2308 2309 
2275 2309 1978 2308 
2276 1978 2309 1979 
2309 1978 2012 1979 
1980 2013 2311 2014 
2277 2311 2278 1980 
1980 2013 2310 2311 
2277 2311 1980 2310 
2278 1980 2311 1981 
2311 1980 2014 1981 
1981 2014 2312 2015 
2278 2312 2279 1981 
1981 2014 2311 2312 
2278 2312 1981 2311 
2279 1981 2312 1982 
2312 1981 2015 1982 
1982 2015 2313 2016 
2279 2313 2280 1982 
1982 2015 2312 2313 
2279 2313 1982 2312 
2280 1982 2313 1983 
2313 1982 2016 1983 
1983 2016 2314 2017 
2280 2314 2281 1983 
1983 2016 2313 2314 
2280 2314 1983 2313 
2281 1983 2314 1984 
2314 1983 2017 1984 
1984 2017 2315 2018 
2281 2315 2282 1984 
1984 2017 2314 2315 
2281 2315 1984 2314 
2282 1984 2315 1985 
2315 1984 2018 1985 
1985 2018 2316 2019 
2282 2316 2283 1985 
1985 2018 2315 2316 
2282 2316 1985 2315 
2283 1985 2316 1986 
2316 1985 2019 1986 
1986 2019 2317 2020 
2283 2317 2284 1986 
1986 2019 2316 2317 
2283 2317 1986 2316 
2284 1986 2317 1987 
2317 1986 2020 1987 
1987 2020 2318 2021 
2284 2318 2285 1987 
1987 2020 2317 2318 
2284 2318 1987 2317 
2285 1987 2318 1988 
2318 1987 2021 1988 
1988 2021 2319 2022 
2285 2319 2286 1988 
1988 2021 2318 2319 
2285 2319 1988 2318 
2286 1988 2319 1989 
2319 1988 2022 1989 
1989 2022 2320 2023 
2286 2320 2287 1989 
1989 2022 2319 2320 
2286 2320 1989 2319 
2287 1989 2320 1990 
2320 1989 2023 1990 
1990 2023 2321 2024 
2287 2321 2288 1990 
1990 2023 2320 2321 
2287 2321 1990 2320 
2288 1990 2321 1991 
2321 1990 2024 1991 
1991 2024 2322 2025 
2288 2322 2289 1991 
1991 2024 2321 2322 
2288 2322 1991 2321 
2289 1991 2322 1992 
2322 1991 2025 1992 
1992 2025 2323 2026 
2289 2323 2290 1992 
1992 2025 2322 2323 
2289 2323 1992 2322 
2290 1992 2323 1993 
2323 1992 2026 1993 
1993 2026 2324 2027 
2290 2324 2291 1993 
1993 2026 2323 2324 
2290 2324 1993 2323 
2291 1993 2324 1994 
2324 1993 2027 1994 
1994 2027 2325 2028 
2291 2325 2292 1994 
1994 2027 2324 2325 
2291 2325 1994 2324 
2292 1994 2325 1995 
2325 1994 2028 1995 
1995 2028 2326 2029 
2292 2326 2293 1995 
1995 2028 2325 2326 
2292 2326 1995 2325 
2293 1995 2326 1996 
2326 1995 2029 1996 
1996 2029 2327 2030 
2293 2327 2294 1996 
1996 2029 2326 2327 
2293 2327 1996 2326 
2294 1996 2327 1997 
2327 1996 2030 1997 
1997 2030 2328 2031 
2294 2328 2295 1997 
1997 2030 2327 2328 
2294 2328 1997 2327 
2295 1997 2328 1998 
2328 1997 2031 1998 
1998 2031 2329 2032 
2295 2329 2296 1998 
1998 2031 2328 2329 
2295 2329 1998 2328 
2296 1998 2329 1999 
2329 1998 2032 1999 
1999 2032 2330 2033 
2296 2330 2297 1999 
1999 2032 2329 2330 
2296 2330 1999 2329 
2297 1999 2330 2000 
2330 1999 2033 2000 
2000 2033 2331 2034 
2297 2331 2298 2000 
2000 2033 2330 2331 
2297 2331 2000 2330 
2298 2000 2331 2001 
2331 2000 2034 2001 
2001 2034 2332 2035 
2298 2332 2299 2001 
2001 2034 2331 2332 
2298 2332 2001 2331 
2299 2001 2332 2002 
2332 2001 2035 2002 
2002 2035 2333 2036 
2299 2333 2300 2002 
2002 2035 2332 2333 
2299 2333 2002 2332 
2300 2002 2333 2003 
2333 2002 2036 2003 
2003 2036 2334 2037 
2300 2334 2301 2003 
2003 2036 2333 2334 
2300 2334 2003 2333 
2301 2003 2334 2004 
2334 2003 2037 2004 
2004 2037 2335 2038 
2301 2335 2302 2004 
2004 2037 2334 2335 
2301 2335 2004 2334 
2302 2004 2335 2005 
2335 2004 2038 2005 
2005 2038 2336 2039 
2302 2336 2303 2005 
2005 2038 2335 2336 
2302 2336 2005 2335 
2303 2005 2336 2006 
2336 2005 2039 2006 
2006 2039 2337 2040 
2303 2337 2304 2006 
2006 2039 2336 2337 
2303 2337 2006 2336 
2304 2006 2337 2007 
2337 2006 2040 2007 
2007 2040 2338 2041 
2304 2338 2305 2007 
2007 2040 2337 2338 
2304 2338 2007 2337 
2305 2007 2338 2008 
2338 2007 2041 2008 
2008 2041 2339 2042 
2305 2339 2306 2008 
2008 2041 2338 2339 
2305 2339 2008 2338 
2306 2008 2339 2009 
2339 2008 2042 2009 
2009 2042 2340 2043 
2306 2340 2307 2009 
2009 2042 2339 2340 
2306 2340 2009 2339 
2307 2009 2340 2010 
2340 2009 2043 2010 
2010 2043 2341 2044 
2307 2341 2308 2010 
2010 2043 2340 2341 
2307 2341 2010 2340 
2308 2010 2341 2011 
2341 2010 2044 2011 
2011 2044 2342 2045 
2308 2342 2309 2011 
2011 2044 2341 2342 
2308 2342 2011 2341 
2309 2011 2342 2012 
2342 2011 2045 2012 
2013 2046 2344 2047 
2310 2344 2311 2013 
2013 2046 2343 2344 
2310 2344 2013 2343 
2311 2013 2344 2014 
2344 2013 2047 2014 
2014 2047 2345 2048 
2311 2345 2312 2014 
2014 2047 2344 2345 
2311 2345 2014 2344 
2312 2014 2345 2015 
2345 2014 2048 2015 
2015 2048 2346 2049 
2312 2346 2313 2015 
2015 2048 2345 2346 
2312 2346 2015 2345 
2313 2015 2346 2016 
2346 2015 2049 2016 
2016 2049 2347 2050 
2313 2347 2314 2016 
2016 2049 2346 2347 
2313 2347 2016 2346 
2314 2016 2347 2017 
2347 2016 2050 2017 
2017 2050 2348 2051 
2314 2348 2315 2017 
2017 2050 2347 2348 
2314 2348 2017 2347 
2315 2017 2348 2018 
2348 2017 2051 2018 
2018 2051 2349 2052 
2315 2349 2316 2018 
2018 2051 2348 2349 
2315 2349 2018 2348 
2316 2018 2349 2019 
2349 2018 2052 2019 
2019 2052 2350 2053 
2316 2350 2317 2019 
2019 2052 2349 2350 
2316 2350 2019 2349 
2317 2019 2350 2020 
2350 2019 2053 2020 
2020 2053 2351 2054 
2317 2351 2318 2020 
2020 2053 2350 2351 
2317 2351 2020 2350 
2318 2020 2351 2021 
2351 2020 2054 2021 
2021 2054 2352 2055 
2318 2352 2319 2021 
2021 2054 2351 2352 
2318 2352 2021 2351 
2319 2021 2352 2022 
2352 2021 2055 2022 
2022 2055 2353 2056 
2319 2353 2320 2022 
2022 2055 2352 2353 
2319 2353 2022 2352 
2320 2022 2353 2023 
2353 2022 2056 2023 
2023 2056 2354 2057 
2320 2354 2321 2023 
2023 2056 2353 2354 
2320 2354 2023 2353 
2321 2023 2354 2024 
2354 2023 2057 2024 
2024 2057 2355 2058 
2321 2355 2322 2024 
2024 2057 2354 2355 
2321 2355 2024 2354 
2322 2024 2355 2025 
2355 2024 2058 2025 
2025 2058 2356 2059 
2322 2356 2323 2025 
2025 2058 2355 2356 
2322 2356 2025 2355 
2323 2025 2356 2026 
2356 2025 2059 2026 
2026 2059 2357 2060 
2323 2357 2324 2026 
2026 2059 2356 2357 
2323 2357 2026 2356 
2324 2026 2357 2027 
2357 2026 2060 2027 
2027 2060 2358 2061 
2324 2358 2325 2027 
2027 2060 2357 2358 
2324 2358 2027 2357 
2325 2027 2358 2028 
2358 2027 2061 2028 
2028 2061 2359 2062 
2325 2359 2326 2028 
2028 2061 2358 2359 
2325 2359 2028 2358 
2326 2028 2359 2029 
2359 2028 2062 2029 
2029 2062 2360 2063 
2326 2360 2327 2029 
2029 2062 2359 2360 
2326 2360 2029 2359 
2327 2029 2360 2030 
2360 2029 2063 2030 
2030 2063 2361 2064 
2327 2361 2328 2030 
2030 2063 2360 2361 
2327 2361 2030 2360 
2328 2030 2361 2031 
2361 2030 2064 2031 
2031 2064 2362 2065 
2328 2362 2329 2031 
2031 2064 2361 2362 
2328 2362 2031 2361 
2329 2031 2362 2032 
2362 2031 2065 2032 
2032 2065 2363 2066 
2329 2363 2330 2032 
2032 2065 2362 2363 
2329 2363 2032 2362 
2330 2032 2363 2033 
2363 2032 2066 2033 
2033 2066 2364 2067 
2330 2364 2331 2033 
2033 2066 2363 2364 
2330 2364 2033 2363 
2331 2033 2364 2034 
2364 2033 2067 2034 
2034 2067 2365 2068 
2331 2365 2332 2034 
2034 2067 2364 2365 
2331 2365 2034 2364 
2332 2034 2365 2035 
2365 2034 2068 2035 
2035 2068 2366 2069 
2332 2366 2333 2035 
2035 2068 2365 2366 
2332 2366 2035 2365 
2333 2035 2366 2036 
2366 2035 2069 2036 
2036 2069 2367 2070 
2333 2367 2334 2036 
2036 2069 2366 2367 
2333 2367 2036 2366 
2334 2036 2367 2037 
2367 2036 2070 2037 
2037 2070 2368 2071 
2334 2368 2335 2037 
2037 2070 2367 2368 
2334 2368 2037 2367 
2335 2037 2368 2038 
2368 2037 2071 2038 
2038 2071 2369 2072 
2335 2369 2336 2038 
2038 2071 2368 2369 
2335 2369 2038 2368 
2336 2038 2369 2039 
2369 2038 2072 2039 
2039 2072 2370 2073 
2336 2370 2337 2039 
2039 2072 2369 2370 
2336 2370 2039 2369 
2337 2039 2370 2040 
2370 2039 2073 2040 
2040 2073 2371 2074 
2337 2371 2338 2040 
2040 2073 2370 2371 
2337 2371 2040 2370 
2338 2040 2371 2041 
2371 2040 2074 2041 
2041 2074 2372 2075 
2338 2372 2339 2041 
2041 2074 2371 2372 
2338 2372 2041 2371 
2339 2041 2372 2042 
2372 2041 2075 2042 
2042 2075 2373 2076 
2339 2373 2340 2042 
2042 2075 2372 2373 
2339 2373 2042 2372 
2340 2042 2373 2043 
2373 2042 2076 2043 
2043 2076 2374 2077 
2340 2374 2341 2043 
2043 2076 2373 2374 
2340 2374 2043 2373 
2341 2043 2374 2044 
2374 2043 2077 2044 
2044 2077 2375 2078 
2341 2375 2342 2044 
2044 2077 2374 2375 
2341 2375 2044 2374 
2342 2044 2375 2045 
2375 2044 2078 2045 
2079 2112 2410 2113 
2376 2410 2377 2079 
2079 2112 2409 2410 
2376 2410 2079 2409 
2377 2079 2410 2080 
2410 2079 2113 2080 
2080 2113 2411 2114 
2377 2411 2378 2080 
2080 2113 2410 2411 
2377 2411 2080 2410 
2378 2080 2411 2081 
2411 2080 2114 2081 
2081 2114 2412 2115 
2378 2412 2379 2081 
2081 2114 2411 2412 
2378 2412 2081 2411 
2379 2081 2412 2082 
2412 2081 2115 2082 
2082 2115 2413 2116 
2379 2413 2380 2082 
2082 2115 2412 2413 
2379 2413 2082 2412 
2380 2082 2413 2083 
2413 2082 2116 2083 
2083 2116 2414 2117 
2380 2414 2381 2083 
2083 2116 2413 2414 
2380 2414 2083 2413 
2381 2083 2414 2084 
2414 2083 2117 2084 
2084 2117 2415 2118 
2381 2415 2382 2084 
2084 2117 2414 2415 
2381 2415 2084 2414 
2382 2084 2415 2085 
2415 2084 2118 2085 
2085 2118 2416 2119 
2382 2416 2383 2085 
2085 2118 2415 2416 
2382 2416 2085 2415 
2383 2085 2416 2086 
2416 2085 2119 2086 
2086 2119 2417 2120 
2383 2417 2384 2086 
2086 2119 2416 2417 
2383 2417 2086 2416 
2384 2086 2417 2087 
2417 2086 2120 2087 
2087 2120 2418 2121 
2384 2418 2385 2087 
2087 2120 2417 2418 
2384 2418 2087 2417 
2385 2087 2418 2088 
2418 2087 2121 2088 
2088 2121 2419 2122 
2385 2419 2386 2088 
2088 2121 2418 2419 
2385 2419 2088 2418 
2386 2088 2419 2089 
2419 2088 2122 2089 
2089 2122 2420 2123 
2386 2420 2387 2089 
2089 2122 2419 2420 
2386 2420 2089 2419 
2387 2089 2420 2090 
2420 2089 2123 2090 
2090 2123 2421 2124 
2387 2421 2388 2090 
2090 2123 2420 2421 
2387 2421 2090 2420 
2388 2090 2421 2091 
2421 2090 2124 2091 
2091 2124 2422 2125 
2388 2422 2389 2091 
2091 2124 2421 2422 
2388 2422 2091 2421 
2389 2091 2422 2092 
2422 2091 2125 2092 
2092 2125 2423 2126 
2389 2423 2390 2092 
2092 2125 2422 2423 
2389 2423 2092 2422 
2390 2092 2423 2093 
2423 2092 2126 2093 
2093 2126 2424 2127 
2390 2424 2391 2093 
2093 2126 2423 2424 
2390 2424 2093 2423 
2391 2093 2424 2094 
2424 2093 2127 2094 
2094 2127 2425 2128 
2391 2425 2392 2094 
2094 2127 2424 2425 
2391 2425 2094 2424 
2392 2094 2425 2095 
2425 2094 2128 2095 
2095 2128 2426 2129 
2392 2426 2393 2095 
2095 2128 2425 2426 
2392 2426 2095 2425 
2393 2095 2426 2096 
2426 2095 2129 2096 
2096 2129 2427 2130 
2393 2427 2394 2096 
2096 2129 2426 2427 
2393 2427 2096 2426 
2394 2096 2427 2097 
2427 2096 2130 2097 
2097 2130 2428 2131 
2394 2428 2395 2097 
2097 2130 2427 2428 
2394 2428 2097 2427 
2395 2097 2428 2098 
2428 2097 2131 2098 
2098 2131 2429 2132 
2395 2429 2396 2098 
2098 2131 2428 2429 
2395 2429 2098 2428 
2396 2098 2429 2099 
2429 2098 2132 2099 
2099 2132 2430 2133 
2396 2430 2397 2099 
2099 2132 2429 2430 
2396 2430 2099 2429 
2397 2099 2430 2100 
2430 2099 2133 2100 
2100 2133 2431 2134 
2397 2431 2398 2100 
2100 2133 2430 2431 
2397 2431 2100 2430 
2398 2100 2431 2101 
2431 2100 2134 2101 
2101 2134 2432 2135 
2398 2432 2399 2101 
2101 2134 2431 2432 
2398 2432 2101 2431 
2399 2101 2432 2102 
2432 2101 2135 2102 
2102 2135 2433 2136 
2399 2433 2400 2102 
2102 2135 2432 2433 
2399 2433 2102 2432 
2400 2102 2433 2103 
2433 2102 2136 2103 
2103 2136 2434 2137 
2400 2434 2401 2103 
2103 2136 2433 2434 
2400 2434 2103 2433 
2401 2103 2434 2104 
2434 2103 2137 2104 
2104 2137 2435 2138 
2401 2435 2402 2104 
2104 2137 2434 2435 
2401 2435 2104 2434 
2402 2104 2435 2105 
2435 2104 2138 2105 
2105 2138 2436 2139 
2402 2436 2403 2105 
2105 2138 2435 2436 
2402 2436 2105 2435 
2403 2105 2436 2106 
2436 2105 2139 2106 
2106 2139 2437 2140 
2403 2437 2404 2106 
2106 2139 2436 2437 
2403 2437 2106 2436 
2404 2106 2437 2107 
2437 2106 2140 2107 
2107 2140 2438 2141 
2404 2438 2405 2107 
2107 2140 2437 2438 
2404 2438 2107 2437 
2405 2107 2438 2108 
2438 2107 2141 2108 
2108 2141 2439 2142 
2405 2439 2406 2108 
2108 2141 2438 2439 
2405 2439 2108 2438 
2406 2108 2439 2109 
2439 2108 2142 2109 
2109 2142 2440 2143 
2406 2440 2407 2109 
2109 2142 2439 2440 
2406 2440 2109 2439 
2407 2109 2440 2110 
2440 2109 2143 2110 
2110 2143 2441 2144 
2407 2441 2408 2110 
2110 2143 2440 2441 
2407 2441 2110 2440 
2408 2110 2441 2111 
2441 2110 2144 2111 
2112 2145 2443 2146 
2409 2443 2410 2112 
2112 2145 2442 2443 
2409 2443 2112 2442 
2410 2112 2443 2113 
2443 2112 2146 2113 
2113 2146 2444 2147 
2410 2444 2411 2113 
2113 2146 2443 2444 
2410 2444 2113 2443 
2411 2113 2444 2114 
2444 2113 2147 2114 
2114 2147 2445 2148 
2411 2445 2412 2114 
2114 2147 2444 2445 
2411 2445 2114 2444 
2412 2114 2445 2115 
2445 2114 2148 2115 
2115 2148 2446 2149 
2412 2446 2413 2115 
2115 2148 2445 2446 
2412 2446 2115 2445 
2413 2115 2446 2116 
2446 2115 2149 2116 
2116 2149 2447 2150 
2413 2447 2414 2116 
2116 2149 2446 2447 
2413 2447 2116 2446 
2414 2116 2447 2117 
2447 2116 2150 2117 
2117 2150 2448 2151 
2414 2448 2415 2117 
2117 2150 2447 2448 
2414 2448 2117 2447 
2415 2117 2448 2118 
2448 2117 2151 2118 
2118 2151 2449 2152 
2415 2449 2416 2118 
2118 2151 2448 2449 
2415 2449 2118 2448 
2416 2118 2449 2119 
2449 2118 2152 2119 
2119 2152 2450 2153 
2416 2450 2417 2119 
2119 2152 2449 2450 
2416 2450 2119 2449 
2417 2119 2450 2120 
2450 2119 2153 2120 
2120 2153 2451 2154 
2417 2451 2418 2120 
2120 2153 2450 2451 
2417 2451 2120 2450 
2418 2120 2451 2121 
2451 2120 2154 2121 
2121 2154 2452 2155 
2418 2452 2419 2121 
2121 2154 2451 2452 
2418 2452 2121 2451 
2419 2121 2452 2122 
2452 2121 2155 2122 
2122 2155 2453 2156 
2419 2453 2420 2122 
2122 2155 2452 2453 
2419 2453 2122 2452 
2420 2122 2453 2123 
2453 2122 2156 2123 
2123 2156 2454 2157 
2420 2454 2421 2123 
2123 2156 2453 2454 
2420 2454 2123 2453 
2421 2123 2454 2124 
2454 2123 2157 2124 
2124 2157 2455 2158 
2421 2455 2422 2124 
2124 2157 2454 2455 
2421 2455 2124 2454 
2422 2124 2455 2125 
2455 2124 2158 2125 
2125 2158 2456 2159 
2422 2456 2423 2125 
2125 2158 2455 2456 
2422 2456 2125 2455 
2423 2125 2456 2126 
2456 2125 2159 2126 
2126 2159 2457 2160 
2423 2457 2424 2126 
2126 2159 2456 2457 
2423 2457 2126 2456 
2424 2126 2457 2127 
2457 2126 2160 2127 
2127 2160 2458 2161 
2424 2458 2425 2127 
2127 2160 2457 2458 
2424 2458 2127 2457 
2425 2127 2458 2128 
2458 2127 2161 2128 
2128 2161 2459 2162 
2425 2459 2426 2128 
2128 2161 2458 2459 
2425 2459 2128 2458 
2426 2128 2459 2129 
2459 2128 2162 2129 
2129 2162 2460 2163 
2426 2460 2427 2129 
2129 2162 2459 2460 
2426 2460 2129 2459 
2427 2129 2460 2130 
2460 2129 2163 2130 
2130 2163 2461 2164 
2427 2461 2428 2130 
2130 2163 2460 2461 
2427 2461 2130 2460 
2428 2130 2461 2131 
2461 2130 2164 2131 
2131 2164 2462 2165 
2428 2462 2429 2131 
2131 2164 2461 2462 
2428 2462 2131 2461 
2429 2131 2462 2132 
2462 2131 2165 2132 
2132 2165 2463 2166 
2429 2463 2430 2132 
2132 2165 2462 2463 
2429 2463 2132 2462 
2430 2132 2463 2133 
2463 2132 2166 2133 
2133 2166 2464 2167 
2430 2464 2431 2133 
2133 2166 2463 2464 
2430 2464 2133 2463 
2431 2133 2464 2134 
2464 2133 2167 2134 
2134 2167 2465 2168 
2431 2465 2432 2134 
2134 2167 2464 2465 
2431 2465 2134 2464 
2432 2134 2465 2135 
2465 2134 2168 2135 
2135 2168 2466 2169 
2432 2466 2433 2135 
2135 2168 2465 2466 
2432 2466 2135 2465 
2433 2135 2466 2136 
2466 2135 2169 2136 
2136 2169 2467 2170 
2433 2467 2434 2136 
2136 2169 2466 2467 
2433 2467 2136 2466 
2434 2136 2467 2137 
2467 2136 2170 2137 
2137 2170 2468 2171 
2434 2468 2435 2137 
2137 2170 2467 2468 
2434 2468 2137 2467 
2435 2137 2468 2138 
2468 2137 2171 2138 
2138 2171 2469 2172 
2435 2469 2436 2138 
2138 2171 2468 2469 
2435 2469 2138 2468 
2436 2138 2469 2139 
2469 2138 2172 2139 
2139 2172 2470 2173 
2436 2470 2437 2139 
2139 2172 2469 2470 
2436 2470 2139 2469 
2437 2139 2470 2140 
2470 2139 2173 2140 
2140 2173 2471 2174 
2437 2471 2438 2140 
2140 2173 2470 2471 
2437 2471 2140 2470 
2438 2140 2471 2141 
2471 2140 2174 2141 
2141 2174 2472 2175 
2438 2472 2439 2141 
2141 2174 2471 2472 
2438 2472 2141 2471 
2439 2141 2472 2142 
2472 2141 2175 2142 
2142 2175 2473 2176 
2439 2473 2440 2142 
2142 2175 2472 2473 
2439 2473 2142 2472 
2440 2142 2473 2143 
2473 2142 2176 2143 
2143 2176 2474 2177 
2440 2474 2441 2143 
2143 2176 2473 2474 
2440 2474 2143 2473 
2441 2143 2474 2144 
2474 2143 2177 2144 
2145 2178 2476 2179 
2442 2476 2443 2145 
2145 2178 2475 2476 
2442 2476 2145 2475 
2443 2145 2476 2146 
2476 2145 2179 2146 
2146 2179 2477 2180 
2443 2477 2444 2146 
2146 2179 2476 2477 
2443 2477 2146 2476 
2444 2146 2477 2147 
2477 2146 2180 2147 
2147 2180 2478 2181 
2444 2478 2445 2147 
2147 2180 2477 2478 
2444 2478 2147 2477 
2445 2147 2478 2148 
2478 2147 2181 2148 
2148 2181 2479 2182 
2445 2479 2446 2148 
2148 2181 2478 2479 
2445 2479 2148 2478 
2446 2148 2479 2149 
2479 2148 2182 2149 
2149 2182 2480 2183 
2446 2480 2447 2149 
2149 2182 2479 2480 
2446 2480 2149 2479 
2447 2149 2480 2150 
2480 2149 2183 2150 
2150 2183 2481 2184 
2447 2481 2448 2150 
2150 2183 2480 2481 
2447 2481 2150 2480 
2448 2150 2481 2151 
2481 2150 2184 2151 
2151 2184 2482 2185 
2448 2482 2449 2151 
2151 2184 2481 2482 
2448 2482 2151 2481 
2449 2151 2482 2152 
2482 2151 2185 2152 
2152 2185 2483 2186 
2449 2483 2450 2152 
2152 2185 2482 2483 
2449 2483 2152 2482 
2450 2152 2483 2153 
2483 2152 2186 2153 
2153 2186 2484 2187 
2450 2484 2451 2153 
2153 2186 2483 2484 
2450 2484 2153 2483 
2451 2153 2484 2154 
2484 2153 2187 2154 
2154 2187 2485 2188 
2451 2485 2452 2154 
2154 2187 2484 2485 
2451 2485 2154 2484 
2452 2154 2485 2155 
2485 2154 2188 2155 
2155 2188 2486 2189 
2452 2486 2453 2155 
2155 2188 2485 2486 
2452 2486 2155 2485 
2453 2155 2486 2156 
2486 2155 2189 2156 
2156 2189 2487 2190 
2453 2487 2454 2156 
2156 2189 2486 2487 
2453 2487 2156 2486 
2454 2156 2487 2157 
2487 2156 2190 2157 
2157 2190 2488 2191 
2454 2488 2455 2157 
2157 2190 2487 2488 
2454 2488 2157 2487 
2455 2157 2488 2158 
2488 2157 2191 2158 
2158 2191 2489 2192 
2455 2489 2456 2158 
2158 2191 2488 2489 
2455 2489 2158 2488 
2456 2158 2489 2159 
2489 2158 2192 2159 
2159 2192 2490 2193 
2456 2490 2457 2159 
2159 2192 2489 2490 
2456 2490 2159 2489 
2457 2159 2490 2160 
2490 2159 2193 2160 
2160 2193 2491 2194 
2457 2491 2458 2160 
2160 2193 2490 2491 
2457 2491 2160 2490 
2458 2160 2491 2161 
2491 2160 2194 2161 
2161 2194 2492 2195 
2458 2492 2459 2161 
2161 2194 2491 2492 
2458 2492 2161 2491 
2459 2161 2492 2162 
2492 2161 2195 2162 
2162 2195 2493 2196 
2459 2493 2460 2162 
2162 2195 2492 2493 
2459 2493 2162 2492 
2460 2162 2493 2163 
2493 2162 2196 2163 
2163 2196 2494 2197 
2460 2494 2461 2163 
2163 2196 2493 2494 
2460 2494 2163 2493 
2461 2163 2494 2164 
2494 2163 2197 2164 
2164 2197 2495 2198 
2461 2495 2462 2164 
2164 2197 2494 2495 
2461 2495 2164 2494 
2462 2164 2495 2165 
2495 2164 2198 2165 
2165 2198 2496 2199 
2462 2496 2463 2165 
2165 2198 2495 2496 
2462 2496 2165 2495 
2463 2165 2496 2166 
2496 2165 2199 2166 
2166 2199 2497 2200 
2463 2497 2464 2166 
2166 2199 2496 2497 
2463 2497 2166 2496 
2464 2166 2497 2167 
2497 2166 2200 2167 
2167 2200 2498 2201 
2464 2498 2465 2167 
2167 2200 2497 2498 
2464 2498 2167 2497 
2465 2167 2498 2168 
2498 2167 2201 2168 
2168 2201 2499 2202 
2465 2499 2466 2168 
2168 2201 2498 2499 
2465 2499 2168 2498 
2466 2168 2499 2169 
2499 2168 2202 2169 
2169 2202 2500 2203 
2466 2500 2467 2169 
2169 2202 2499 2500 
2466 2500 2169 2499 
2467 2169 2500 2170 
2500 2169 2203 2170 
2170 2203 2501 2204 
2467 2501 2468 2170 
2170 2203 2500 2501 
2467 2501 2170 2500 
2468 2170 2501 2171 
2501 2170 2204 2171 
2171 2204 2502 2205 
2468 2502 2469 2171 
2171 2204 2501 2502 
2468 2502 2171 2501 
2469 2171 2502 2172 
2502 2171 2205 2172 
2172 2205 2503 2206 
2469 2503 2470 2172 
2172 2205 2502 2503 
2469 2503 2172 2502 
2470 2172 2503 2173 
2503 2172 2206 2173 
2173 2206 2504 2207 
2470 2504 2471 2173 
2173 2206 2503 2504 
2470 2504 2173 2503 
2471 2173 2504 2174 
2504 2173 2207 2174 
2174 2207 2505 2208 
2471 2505 2472 2174 
2174 2207 2504 2505 
2471 2505 2174 2504 
2472 2174 2505 2175 
2505 2174 2208 2175 
2175 2208 2506 2209 
2472 2506 2473 2175 
2175 2208 2505 2506 
2472 2506 2175 2505 
2473 2175 2506 2176 
2506 2175 2209 2176 
2176 2209 2507 2210 
2473 2507 2474 2176 
2176 2209 2506 2507 
2473 2507 2176 2506 
2474 2176 2507 2177 
2507 2176 2210 2177 
2178 2211 2509 2212 
2475 2509 2476 2178 
2178 2211 2508 2509 
2475 2509 2178 2508 
2476 2178 2509 2179 
2509 2178 2212 2179 
2179 2212 2510 2213 
2476 2510 2477 2179 
2179 2212 2509 2510 
2476 2510 2179 2509 
2477 2179 2510 2180 
2510 2179 2213 2180 
2180 2213 2511 2214 
2477 2511 2478 2180 
2180 2213 2510 2511 
2477 2511 2180 2510 
2478 2180 2511 2181 
2511 2180 2214 2181 
2181 2214 2512 2215 
2478 2512 2479 2181 
2181 2214 2511 2512 
2478 2512 2181 2511 
2479 2181 2512 2182 
2512 2181 2215 2182 
2182 2215 2513 2216 
2479 2513 2480 2182 
2182 2215 2512 2513 
2479 2513 2182 2512 
2480 2182 2513 2183 
2513 2182 2216 2183 
2183 2216 2514 2217 
2480 2514 2481 2183 
2183 2216 2513 2514 
2480 2514 2183 2513 
2481 2183 2514 2184 
2514 2183 2217 2184 
2184 2217 2515 2218 
2481 2515 2482 2184 
2184 2217 2514 2515 
2481 2515 2184 2514 
2482 2184 2515 2185 
2515 2184 2218 2185 
2185 2218 2516 2219 
2482 2516 2483 2185 
2185 2218 2515 2516 
2482 2516 2185 2515 
2483 2185 2516 2186 
2516 2185 2219 2186 
2186 2219 2517 2220 
2483 2517 2484 2186 
2186 2219 2516 2517 
2483 2517 2186 2516 
2484 2186 2517 2187 
2517 2186 2220 2187 
2187 2220 2518 2221 
2484 2518 2485 2187 
2187 2220 2517 2518 
2484 2518 2187 2517 
2485 2187 2518 2188 
2518 2187 2221 2188 
2188 2221 2519 2222 
2485 2519 2486 2188 
2188 2221 2518 2519 
2485 2519 2188 2518 
2486 2188 2519 2189 
2519 2188 2222 2189 
2189 2222 2520 2223 
2486 2520 2487 2189 
2189 2222 2519 2520 
2486 2520 2189 2519 
2487 2189 2520 2190 
2520 2189 2223 2190 
2190 2223 2521 2224 
2487 2521 2488 2190 
2190 2223 2520 2521 
2487 2521 2190 2520 
2488 2190 2521 2191 
2521 2190 2224 2191 
2191 2224 2522 2225 
2488 2522 2489 2191 
2191 2224 2521 2522 
2488 2522 2191 2521 
2489 2191 2522 2192 
2522 2191 2225 2192 
2192 2225 2523 2226 
2489 2523 2490 2192 
2192 2225 2522 2523 
2489 2523 2192 2522 
2490 2192 2523 2193 
2523 2192 2226 2193 
2193 2226 2524 2227 
2490 2524 2491 2193 
2193 2226 2523 2524 
2490 2524 2193 2523 
2491 2193 2524 2194 
2524 2193 2227 2194 
2194 2227 2525 2228 
2491 2525 2492 2194 
2194 2227 2524 2525 
2491 2525 2194 2524 
2492 2194 2525 2195 
2525 2194 2228 2195 
2195 2228 2526 2229 
2492 2526 2493 2195 
2195 2228 2525 2526 
2492 2526 2195 2525 
2493 2195 2526 2196 
2526 2195 2229 2196 
2196 2229 2527 2230 
2493 2527 2494 2196 
2196 2229 2526 2527 
2493 2527 2196 2526 
2494 2196 2527 2197 
2527 2196 2230 2197 
2197 2230 2528 2231 
2494 2528 2495 2197 
2197 2230 2527 2528 
2494 2528 2197 2527 
2495 2197 2528 2198 
2528 2197 2231 2198 
2198 2231 2529 2232 
2495 2529 2496 2198 
2198 2231 2528 2529 
2495 2529 2198 2528 
2496 2198 2529 2199 
2529 2198 2232 2199 
2199 2232 2530 2233 
2496 2530 2497 2199 
2199 2232 2529 2530 
2496 2530 2199 2529 
2497 2199 2530 2200 
2530 2199 2233 2200 
2200 2233 2531 2234 
2497 2531 2498 2200 
2200 2233 2530 2531 
2497 2531 2200 2530 
2498 2200 2531 2201 
2531 2200 2234 2201 
2201 2234 2532 2235 
2498 2532 2499 2201 
2201 2234 2531 2532 
2498 2532 2201 2531 
2499 2201 2532 2202 
2532 2201 2235 2202 
2202 2235 2533 2236 
2499 2533 2500 2202 
2202 2235 2532 2533 
2499 2533 2202 2532 
2500 2202 2533 2203 
2533 2202 2236 2203 
2203 2236 2534 2237 
2500 2534 2501 2203 
2203 2236 2533 2534 
2500 2534 2203 2533 
2501 2203 2534 2204 
2534 2203 2237 2204 
2204 2237 2535 2238 
2501 2535 2502 2204 
2204 2237 2534 2535 
2501 2535 2204 2534 
2502 2204 2535 2205 
2535 2204 2238 2205 
2205 2238 2536 2239 
2502 2536 2503 2205 
2205 2238 2535 2536 
2502 2536 2205 2535 
2503 2205 2536 2206 
2536 2205 2239 2206 
2206 2239 2537 2240 
2503 2537 2504 2206 
2206 2239 2536 2537 
2503 2537 2206 2536 
2504 2206 2537 2207 
2537 2206 2240 2207 
2207 2240 2538 2241 
2504 2538 2505 2207 
2207 2240 2537 2538 
2504 2538 2207 2537 
2505 2207 2538 2208 
2538 2207 2241 2208 
2208 2241 2539 2242 
2505 2539 2506 2208 
2208 2241 2538 2539 
2505 2539 2208 2538 
2506 2208 2539 2209 
2539 2208 2242 2209 
2209 2242 2540 2243 
2506 2540 2507 2209 
2209 2242 2539 2540 
2506 2540 2209 2539 
2507 2209 2540 2210 
2540 2209 2243 2210 
2211 2244 2542 2245 
2508 2542 2509 2211 
2211 2244 2541 2542 
2508 2542 2211 2541 
2509 2211 2542 2212 
2542 2211 2245 2212 
2212 2245 2543 2246 
2509 2543 2510 2212 
2212 2245 2542 2543 
2509 2543 2212 2542 
2510 2212 2543 2213 
2543 2212 2246 2213 
2213 2246 2544 2247 
2510 2544 2511 2213 
2213 2246 2543 2544 
2510 2544 2213 2543 
2511 2213 2544 2214 
2544 2213 2247 2214 
2214 2247 2545 2248 
2511 2545 2512 2214 
2214 2247 2544 2545 
2511 2545 2214 2544 
2512 2214 2545 2215 
2545 2214 2248 2215 
2215 2248 2546 2249 
2512 2546 2513 2215 
2215 2248 2545 2546 
2512 2546 2215 2545 
2513 2215 2546 2216 
2546 2215 2249 2216 
2216 2249 2547 2250 
2513 2547 2514 2216 
2216 2249 2546 2547 
2513 2547 2216 2546 
2514 2216 2547 2217 
2547 2216 2250 2217 
2217 2250 2548 2251 
2514 2548 2515 2217 
2217 2250 2547 2548 
2514 2548 2217 2547 
2515 2217 2548 2218 
2548 2217 2251 2218 
2218 2251 2549 2252 
2515 2549 2516 2218 
2218 2251 2548 2549 
2515 2549 2218 2548 
2516 2218 2549 2219 
2549 2218 2252 2219 
2219 2252 2550 2253 
2516 2550 2517 2219 
2219 2252 2549 2550 
2516 2550 2219 2549 
2517 2219 2550 2220 
2550 2219 2253 2220 
2220 2253 2551 2254 
2517 2551 2518 2220 
2220 2253 2550 2551 
2517 2551 2220 2550 
2518 2220 2551 2221 
2551 2220 2254 2221 
2221 2254 2552 2255 
2518 2552 2519 2221 
2221 2254 2551 2552 
2518 2552 2221 2551 
2519 2221 2552 2222 
2552 2221 2255 2222 
2222 2255 2553 2256 
2519 2553 2520 2222 
2222 2255 2552 2553 
2519 2553 2222 2552 
2520 2222 2553 2223 
2553 2222 2256 2223 
2223 2256 2554 2257 
2520 2554 2521 2223 
2223 2256 2553 2554 
2520 2554 2223 2553 
2521 2223 2554 2224 
2554 2223 2257 2224 
2224 2257 2555 2258 
2521 2555 2522 2224 
2224 2257 2554 2555 
2521 2555 2224 2554 
2522 2224 2555 2225 
2555 2224 2258 2225 
2225 2258 2556 2259 
2522 2556 2523 2225 
2225 2258 2555 2556 
2522 2556 2225 2555 
2523 2225 2556 2226 
2556 2225 2259 2226 
2226 2259 2557 2260 
2523 2557 2524 2226 
2226 2259 2556 2557 
2523 2557 2226 2556 
2524 2226 2557 2227 
2557 2226 2260 2227 
2227 2260 2558 2261 
2524 2558 2525 2227 
2227 2260 2557 2558 
2524 2558 2227 2557 
2525 2227 2558 2228 
2558 2227 2261 2228 
2228 2261 2559 2262 
2525 2559 2526 2228 
2228 2261 2558 2559 
2525 2559 2228 2558 
2526 2228 2559 2229 
2559 2228 2262 2229 
2229 2262 2560 2263 
2526 2560 2527 2229 
2229 2262 2559 2560 
2526 2560 2229 2559 
2527 2229 2560 2230 
2560 2229 2263 2230 
2230 2263 2561 2264 
2527 2561 2528 2230 
2230 2263 2560 2561 
2527 2561 2230 2560 
2528 2230 2561 2231 
2561 2230 2264 2231 
2231 2264 2562 2265 
2528 2562 2529 2231 
2231 2264 2561 2562 
2528 2562 2231 2561 
2529 2231 2562 2232 
2562 2231 2265 2232 
2232 2265 2563 2266 
2529 2563 2530 2232 
2232 2265 2562 2563 
2529 2563 2232 2562 
2530 2232 2563 2233 
2563 2232 2266 2233 
2233 2266 2564 2267 
2530 2564 2531 2233 
2233 2266 2563 2564 
2530 2564 2233 2563 
2531 2233 2564 2234 
2564 2233 2267 2234 
2234 2267 2565 2268 
2531 2565 2532 2234 
2234 2267 2564 2565 
2531 2565 2234 2564 
2532 2234 2565 2235 
2565 2234 2268 2235 
2235 2268 2566 2269 
2532 2566 2533 2235 
2235 2268 2565 2566 
2532 2566 2235 2565 
2533 2235 2566 2236 
2566 2235 2269 2236 
2236 2269 2567 2270 
2533 2567 2534 2236 
2236 2269 2566 2567 
2533 2567 2236 2566 
2534 2236 2567 2237 
2567 2236 2270 2237 
2237 2270 2568 2271 
2534 2568 2535 2237 
2237 2270 2567 2568 
2534 2568 2237 2567 
2535 2237 2568 2238 
2568 2237 2271 2238 
2238 2271 2569 2272 
2535 2569 2536 2238 
2238 2271 2568 2569 
2535 2569 2238 2568 
2536 2238 2569 2239 
2569 2238 2272 2239 
2239 2272 2570 2273 
2536 2570 2537 2239 
2239 2272 2569 2570 
2536 2570 2239 2569 
2537 2239 2570 2240 
2570 2239 2273 2240 
2240 2273 2571 2274 
2537 2571 2538 2240 
2240 2273 2570 2571 
2537 2571 2240 2570 
2538 2240 2571 2241 
2571 2240 2274 2241 
2241 2274 2572 2275 
2538 2572 2539 2241 
2241 2274 2571 2572 
2538 2572 2241 2571 
2539 2241 2572 2242 
2572 2241 2275 2242 
2242 2275 2573 2276 
2539 2573 2540 2242 
2242 2275 2572 2573 
2539 2573 2242 2572 
2540 2242 2573 2243 
2573 2242 2276 2243 
2244 2277 2575 2278 
2541 2575 2542 2244 
2244 2277 2574 2575 
2541 2575 2244 2574 
2542 2244 2575 2245 
2575 2244 2278 2245 
2245 2278 2576 2279 
2542 2576 2543 2245 
2245 2278 2575 2576 
2542 2576 2245 2575 
2543 2245 2576 2246 
2576 2245 2279 2246 
2246 2279 2577 2280 
2543 2577 2544 2246 
2246 2279 2576 2577 
2543 2577 2246 2576 
2544 2246 2577 2247 
2577 2246 2280 2247 
2247 2280 2578 2281 
2544 2578 2545 2247 
2247 2280 2577 2578 
2544 2578 2247 2577 
2545 2247 2578 2248 
2578 2247 2281 2248 
2248 2281 2579 2282 
2545 2579 2546 2248 
2248 2281 2578 2579 
2545 2579 2248 2578 
2546 2248 2579 2249 
2579 2248 2282 2249 
2249 2282 2580 2283 
2546 2580 2547 2249 
2249 2282 2579 2580 
2546 2580 2249 2579 
2547 2249 2580 2250 
2580 2249 2283 2250 
2250 2283 2581 2284 
2547 2581 2548 2250 
2250 2283 2580 2581 
2547 2581 2250 2580 
2548 2250 2581 2251 
2581 2250 2284 2251 
2251 2284 2582 2285 
2548 2582 2549 2251 
2251 2284 2581 2582 
2548 2582 2251 2581 
2549 2251 2582 2252 
2582 2251 2285 2252 
2252 2285 2583 2286 
2549 2583 2550 2252 
2252 2285 2582 2583 
2549 2583 2252 2582 
2550 2252 2583 2253 
2583 2252 2286 2253 
2253 2286 2584 2287 
2550 2584 2551 2253 
2253 2286 2583 2584 
2550 2584 2253 2583 
2551 2253 2584 2254 
2584 2253 2287 2254 
2254 2287 2585 2288 
2551 2585 2552 2254 
2254 2287 2584 2585 
2551 2585 2254 2584 
2552 2254 2585 2255 
2585 2254 2288 2255 
2255 2288 2586 2289 
2552 2586 2553 2255 
2255 2288 2585 2586 
2552 2586 2255 2585 
2553 2255 2586 2256 
2586 2255 2289 2256 
2256 2289 2587 2290 
2553 2587 2554 2256 
2256 2289 2586 2587 
2553 2587 2256 2586 
2554 2256 2587 2257 
2587 2256 2290 2257 
2257 2290 2588 2291 
2554 2588 2555 2257 
2257 2290 2587 2588 
2554 2588 2257 2587 
2555 2257 2588 2258 
2588 2257 2291 2258 
2258 2291 2589 2292 
2555 2589 2556 2258 
2258 2291 2588 2589 
2555 2589 2258 2588 
2556 2258 2589 2259 
2589 2258 2292 2259 
2259 2292 2590 2293 
2556 2590 2557 2259 
2259 2292 2589 2590 
2556 2590 2259 2589 
2557 2259 2590 2260 
2590 2259 2293 2260 
2260 2293 2591 2294 
2557 2591 2558 2260 
2260 2293 2590 2591 
2557 2591 2260 2590 
2558 2260 2591 2261 
2591 2260 2294 2261 
2261 2294 2592 2295 
2558 2592 2559 2261 
2261 2294 2591 2592 
2558 2592 2261 2591 
2559 2261 2592 2262 
2592 2261 2295 2262 
2262 2295 2593 2296 
2559 2593 2560 2262 
2262 2295 2592 2593 
2559 2593 2262 2592 
2560 2262 2593 2263 
2593 2262 2296 2263 
2263 2296 2594 2297 
2560 2594 2561 2263 
2263 2296 2593 2594 
2560 2594 2263 2593 
2561 2263 2594 2264 
2594 2263 2297 2264 
2264 2297 2595 2298 
2561 2595 2562 2264 
2264 2297 2594 2595 
2561 2595 2264 2594 
2562 2264 2595 2265 
2595 2264 2298 2265 
2265 2298 2596 2299 
2562 2596 2563 2265 
2265 2298 2595 2596 
2562 2596 2265 2595 
2563 2265 2596 2266 
2596 2265 2299 2266 
2266 2299 2597 2300 
2563 2597 2564 2266 
2266 2299 2596 2597 
2563 2597 2266 2596 
2564 2266 2597 2267 
2597 2266 2300 2267 
2267 2300 2598 2301 
2564 2598 2565 2267 
2267 2300 2597 2598 
2564 2598 2267 2597 
2565 2267 2598 2268 
2598 2267 2301 2268 
2268 2301 2599 2302 
2565 2599 2566 2268 
2268 2301 2598 2599 
2565 2599 2268 2598 
2566 2268 2599 2269 
2599 2268 2302 2269 
2269 2302 2600 2303 
2566 2600 2567 2269 
2269 2302 2599 2600 
2566 2600 2269 2599 
2567 2269 2600 2270 
2600 2269 2303 2270 
2270 2303 2601 2304 
2567 2601 2568 2270 
2270 2303 2600 2601 
2567 2601 2270 2600 
2568 2270 2601 2271 
2601 2270 2304 2271 
2271 2304 2602 2305 
2568 2602 2569 2271 
2271 2304 2601 2602 
2568 2602 2271 2601 
2569 2271 2602 2272 
2602 2271 2305 2272 
2272 2305 2603 2306 
2569 2603 2570 2272 
2272 2305 2602 2603 
2569 2603 2272 2602 
2570 2272 2603 2273 
2603 2272 2306 2273 
2273 2306 2604 2307 
2570 2604 2571 2273 
2273 2306 2603 2604 
2570 2604 2273 2603 
2571 2273 2604 2274 
2604 2273 2307 2274 
2274 2307 2605 2308 
2571 2605 2572 2274 
2274 2307 2604 2605 
2571 2605 2274 2604 
2572 2274 2605 2275 
2605 2274 2308 2275 
2275 2308 2606 2309 
2572 2606 2573 2275 
2275 2308 2605 2606 
2572 2606 2275 2605 
2573 2275 2606 2276 
2606 2275 2309 2276 
2277 2310 2608 2311 
2574 2608 2575 2277 
2277 2310 2607 2608 
2574 2608 2277 2607 
2575 2277 2608 2278 
2608 2277 2311 2278 
2278 2311 2609 2312 
2575 2609 2576 2278 
2278 2311 2608 2609 
2575 2609 2278 2608 
2576 2278 2609 2279 
2609 2278 2312 2279 
2279 2312 2610 2313 
2576 2610 2577 2279 
2279 2312 2609 2610 
2576 2610 2279 2609 
2577 2279 2610 2280 
2610 2279 2313 2280 
2280 2313 2611 2314 
2577 2611 2578 2280 
2280 2313 2610 2611 
2577 2611 2280 2610 
2578 2280 2611 2281 
2611 2280 2314 2281 
2281 2314 2612 2315 
2578 2612 2579 2281 
2281 2314 2611 2612 
2578 2612 2281 2611 
2579 2281 2612 2282 
2612 2281 2315 2282 
2282 2315 2613 2316 
2579 2613 2580 2282 
2282 2315 2612 2613 
2579 2613 2282 2612 
2580 2282 2613 2283 
2613 2282 2316 2283 
2283 2316 2614 2317 
2580 2614 2581 2283 
2283 2316 2613 2614 
2580 2614 2283 2613 
2581 2283 2614 2284 
2614 2283 2317 2284 
2284 2317 2615 2318 
2581 2615 2582 2284 
2284 2317 2614 2615 
2581 2615 2284 2614 
2582 2284 2615 2285 
2615 2284 2318 2285 
2285 2318 2616 2319 
2582 2616 2583 2285 
2285 2318 2615 2616 
2582 2616 2285 2615 
2583 2285 2616 2286 
2616 2285 2319 2286 
2286 2319 2617 2320 
2583 2617 2584 2286 
2286 2319 2616 2617 
2583 2617 2286 2616 
2584 2286 2617 2287 
2617 2286 2320 2287 
2287 2320 2618 2321 
2584 2618 2585 2287 
2287 2320 2617 2618 
2584 2618 2287 2617 
2585 2287 2618 2288 
2618 2287 2321 2288 
2288 2321 2619 2322 
2585 2619 2586 2288 
2288 2321 2618 2619 
2585 2619 2288 2618 
2586 2288 2619 2289 
2619 2288 2322 2289 
2289 2322 2620 2323 
2586 2620 2587 2289 
2289 2322 2619 2620 
2586 2620 2289 2619 
2587 2289 2620 2290 
2620 2289 2323 2290 
2290 2323 2621 2324 
2587 2621 2588 2290 
2290 2323 2620 2621 
2587 2621 2290 2620 
2588 2290 2621 2291 
2621 2290 2324 2291 
2291 2324 2622 2325 
2588 2622 2589 2291 
2291 2324 2621 2622 
2588 2622 2291 2621 
2589 2291 2622 2292 
2622 2291 2325 2292 
2292 2325 2623 2326 
2589 2623 2590 2292 
2292 2325 2622 2623 
2589 2623 2292 2622 
2590 2292 2623 2293 
2623 2292 2326 2293 
2293 2326 2624 2327 
2590 2624 2591 2293 
2293 2326 2623 2624 
2590 2624 2293 2623 
2591 2293 2624 2294 
2624 2293 2327 2294 
2294 2327 2625 2328 
2591 2625 2592 2294 
2294 2327 2624 2625 
2591 2625 2294 2624 
2592 2294 2625 2295 
2625 2294 2328 2295 
2295 2328 2626 2329 
2592 2626 2593 2295 
2295 2328 2625 2626 
2592 2626 2295 2625 
2593 2295 2626 2296 
2626 2295 2329 2296 
2296 2329 2627 2330 
2593 2627 2594 2296 
2296 2329 2626 2627 
2593 2627 2296 2626 
2594 2296 2627 2297 
2627 2296 2330 2297 
2297 2330 2628 2331 
2594 2628 2595 2297 
2297 2330 2627 2628 
2594 2628 2297 2627 
2595 2297 2628 2298 
2628 2297 2331 2298 
2298 2331 2629 2332 
2595 2629 2596 2298 
2298 2331 2628 2629 
2595 2629 2298 2628 
2596 2298 2629 2299 
2629 2298 2332 2299 
2299 2332 2630 2333 
2596 2630 2597 2299 
2299 2332 2629 2630 
2596 2630 2299 2629 
2597 2299 2630 2300 
2630 2299 2333 2300 
2300 2333 2631 2334 
2597 2631 2598 2300 
2300 2333 2630 2631 
2597 2631 2300 2630 
2598 2300 2631 2301 
2631 2300 2334 2301 
2301 2334 2632 2335 
2598 2632 2599 2301 
2301 2334 2631 2632 
2598 2632 2301 2631 
2599 2301 2632 2302 
2632 2301 2335 2302 
2302 2335 2633 2336 
2599 2633 2600 2302 
2302 2335 2632 2633 
2599 2633 2302 2632 
2600 2302 2633 2303 
2633 2302 2336 2303 
2303 2336 2634 2337 
2600 2634 2601 2303 
2303 2336 2633 2634 
2600 2634 2303 2633 
2601 2303 2634 2304 
2634 2303 2337 2304 
2304 2337 2635 2338 
2601 2635 2602 2304 
2304 2337 2634 2635 
2601 2635 2304 2634 
2602 2304 2635 2305 
2635 2304 2338 2305 
2305 2338 2636 2339 
2602 2636 2603 2305 
2305 2338 2635 2636 
2602 2636 2305 2635 
2603 2305 2636 2306 
2636 2305 2339 2306 
2306 2339 2637 2340 
2603 2637 2604 2306 
2306 2339 2636 2637 
2603 2637 2306 2636 
2604 2306 2637 2307 
2637 2306 2340 2307 
2307 2340 2638 2341 
2604 2638 2605 2307 
2307 2340 2637 2638 
2604 2638 2307 2637 
2605 2307 2638 2308 
2638 2307 2341 2308 
2308 2341 2639 2342 
2605 2639 2606 2308 
2308 2341 2638 2639 
2605 2639 2308 2638 
2606 2308 2639 2309 
2639 2308 2342 2309 
2310 2343 2641 2344 
2607 2641 2608 2310 
2310 2343 2640 2641 
2607 2641 2310 2640 
2608 2310 2641 2311 
2641 2310 2344 2311 
2311 2344 2642 2345 
2608 2642 2609 2311 
2311 2344 2641 2642 
2608 2642 2311 2641 
2609 2311 2642 2312 
2642 2311 2345 2312 
2312 2345 2643 2346 
2609 2643 2610 2312 
2312 2345 2642 2643 
2609 2643 2312 2642 
2610 2312 2643 2313 
2643 2312 2346 2313 
2313 2346 2644 2347 
2610 2644 2611 2313 
2313 2346 2643 2644 
2610 2644 2313 2643 
2611 2313 2644 2314 
2644 2313 2347 2314 
2314 2347 2645 2348 
2611 2645 2612 2314 
2314 2347 2644 2645 
2611 2645 2314 2644 
2612 2314 2645 2315 
2645 2314 2348 2315 
2315 2348 2646 2349 
2612 2646 2613 2315 
2315 2348 2645 2646 
2612 2646 2315 2645 
2613 2315 2646 2316 
2646 2315 2349 2316 
2316 2349 2647 2350 
2613 2647 2614 2316 
2316 2349 2646 2647 
2613 2647 2316 2646 
2614 2316 2647 2317 
2647 2316 2350 2317 
2317 2350 2648 2351 
2614 2648 2615 2317 
2317 2350 2647 2648 
2614 2648 2317 2647 
2615 2317 2648 2318 
2648 2317 2351 2318 
2318 2351 2649 2352 
2615 2649 2616 2318 
2318 2351 2648 2649 
2615 2649 2318 2648 
2616 2318 2649 2319 
2649 2318 2352 2319 
2319 2352 2650 2353 
2616 2650 2617 2319 
2319 2352 2649 2650 
2616 2650 2319 2649 
2617 2319 2650 2320 
2650 2319 2353 2320 
2320 2353 2651 2354 
2617 2651 2618 2320 
2320 2353 2650 2651 
2617 2651 2320 2650 
2618 2320 2651 2321 
2651 2320 2354 2321 
2321 2354 2652 2355 
2618 2652 2619 2321 
2321 2354 2651 2652 
2618 2652 2321 2651 
2619 2321 2652 2322 
2652 2321 2355 2322 
2322 2355 2653 2356 
2619 2653 2620 2322 
2322 2355 2652 2653 
2619 2653 2322 2652 
2620 2322 2653 2323 
2653 2322 2356 2323 
2323 2356 2654 2357 
2620 2654 2621 2323 
2323 2356 2653 2654 
2620 2654 2323 2653 
2621 2323 2654 2324 
2654 2323 2357 2324 
2324 2357 2655 2358 
2621 2655 2622 2324 
2324 2357 2654 2655 
2621 2655 2324 2654 
2622 2324 2655 2325 
2655 2324 2358 2325 
2325 2358 2656 2359 
2622 2656 2623 2325 
2325 2358 2655 2656 
2622 2656 2325 2655 
2623 2325 2656 2326 
2656 2325 2359 2326 
2326 2359 2657 2360 
2623 2657 2624 2326 
2326 2359 2656 2657 
2623 2657 2326 2656 
2624 2326 2657 2327 
2657 2326 2360 2327 
2327 2360 2658 2361 
2624 2658 2625 2327 
2327 2360 2657 2658 
2624 2658 2327 2657 
2625 2327 2658 2328 
2658 2327 2361 2328 
2328 2361 2659 2362 
2625 2659 2626 2328 
2328 2361 2658 2659 
2625 2659 2328 2658 
2626 2328 2659 2329 
2659 2328 2362 2329 
2329 2362 2660 2363 
2626 2660 2627 2329 
2329 2362 2659 2660 
2626 2660 2329 2659 
2627 2329 2660 2330 
2660 2329 2363 2330 
2330 2363 2661 2364 
2627 2661 2628 2330 
2330 2363 2660 2661 
2627 2661 2330 2660 
2628 2330 2661 2331 
2661 2330 2364 2331 
2331 2364 2662 2365 
2628 2662 2629 2331 
2331 2364 2661 2662 
2628 2662 2331 2661 
2629 2331 2662 2332 
2662 2331 2365 2332 
2332 2365 2663 2366 
2629 2663 2630 2332 
2332 2365 2662 2663 
2629 2663 2332 2662 
2630 2332 2663 2333 
2663 2332 2366 2333 
2333 2366 2664 2367 
2630 2664 2631 2333 
2333 2366 2663 2664 
2630 2664 2333 2663 
2631 2333 2664 2334 
2664 2333 2367 2334 
2334 2367 2665 2368 
2631 2665 2632 2334 
2334 2367 2664 2665 
2631 2665 2334 2664 
2632 2334 2665 2335 
2665 2334 2368 2335 
2335 2368 2666 2369 
2632 2666 2633 2335 
2335 2368 2665 2666 
2632 2666 2335 2665 
2633 2335 2666 2336 
2666 2335 2369 2336 
2336 2369 2667 2370 
2633 2667 2634 2336 
2336 2369 2666 2667 
2633 2667 2336 2666 
2634 2336 2667 2337 
2667 2336 2370 2337 
2337 2370 2668 2371 
2634 2668 2635 2337 
2337 2370 2667 2668 
2634 2668 2337 2667 
2635 2337 2668 2338 
2668 2337 2371 2338 
2338 2371 2669 2372 
2635 2669 2636 2338 
2338 2371 2668 2669 
2635 2669 2338 2668 
2636 2338 2669 2339 
2669 2338 2372 2339 
2339 2372 2670 2373 
2636 2670 2637 2339 
2339 2372 2669 2670 
2636 2670 2339 2669 
2637 2339 2670 2340 
2670 2339 2373 2340 
2340 2373 2671 2374 
2637 2671 2638 2340 
2340 2373 2670 2671 
2637 2671 2340 2670 
2638 2340 2671 2341 
2671 2340 2374 2341 
2341 2374 2672 2375 
2638 2672 2639 2341 
2341 2374 2671 2672 
2638 2672 2341 2671 
2639 2341 2672 2342 
2672 2341 2375 2342 
CELL_TYPES 12288
10 10 10 10 10 10 10 10 10 10 10 10 10 10 10 10 10 10 10 10 10 10 10 10 10 10 10 10 10 10 10 10 10 10 10 10 10 10 10 10 10 10 10 10 10 10 10 10 10 10 10 10 10 10 10 10 10 10 10 10 10 10 10 10 10 10 10 10 10 10 10 10 10 10 10 10 10 10 10 10 10 10 10 10 10 10 10 10 10 10 10 10 10 10 10 10 10 10 10 10 10 10 10 10 10 10 10 10 10 10 10 10 10 10 10 10 10 10 10 10 10 10 10 10 10 10 10 10 10 10 10 10 10 10 10 10 10 10 10 10 10 10 10 10 10 10 10 10 10 10 10 10 10 10 10 10 10 10 10 10 10 10 10 10 10 10 10 10 10 10 10 10 10 10 10 10 10 10 10 10 10 10 10 10 10 10 10 10 10 10 10 10 10 10 10 10 10 10 10 10 10 10 10 10 10 10 10 10 10 10 10 10 10 10 10 10 10 10 10 10 10 10 10 10 10 10 10 10 10 10 10 10 10 10 10 10 10 10 10 10 10 10 10 10 10 10 10 10 10 10 10 10 10 10 10 10 10 10 10 10 10 10 10 10 10 10 10 10 10 10 10 10 10 10 10 10 10 10 10 10 10 10 10 10 10 10 10 10 10 10 10 10 10 10 10 10 10 10 10 10 10 10 10 10 10 10 10 10 10 10 10 10 10 10 10 10 10 10 10 10 10 10 10 10 10 10 10 10 10 10 10 10 10 10 10 10 10 10 10 10 10 10 10 10 10 10 10 10 10 10 10 10 10 10 10 10 10 10 10 10 10 10 10 10 10 10 10 10 10 10 10 10 10 10 10 10 10 10 10 10 10 10 10 10 10 10 10 10 10 10 10 10 10 10 10 10 10 10 10 10 10 10 10 10 10 10 10 10 10 10 10 10 10 10 10 10 10 10 10 10 10 10 10 10 10 10 10 10 10 10 10 10 10 10 10 10 10 10 10 10 10 10 10 10 10 10 10 10 10 10 10 10 10 10 10 10 10 10 10 10 10 10 10 10 10 10 10 10 10 10 10 10 10 10 10 10 10 10 10 10 10 10 10 10 10 10 10 10 10 10 10 10 10 10 10 10 10 10 10 10 10 10 10 10 10 10 10 10 10 10 10 10 10 10 10 10 10 10 10 10 10 10 10 10 10 10 10 10 10 10 10 10 10 10 10 10 10 10 10 10 10 10 10 10 10 10 10 10 10 10 10 10 10 10 10 10 10 10 10 10 10 10 10 10 10 10 10 10 10 10 10 10 10 10 10 10 10 10 10 10 10 10 10 10 10 10 10 10 10 10 10 10 10 10 10 10 10 10 10 10 10 10 10 10 10 10 10 10 10 10 10 10 10 10 10 10 10 10 10 10 10 10 10 10 10 10 10 10 10 10 10 10 10 10 10 10 10 10 10 10 10 10 10 10 10 10 10 10 10 10 10 10 10 10 10 10 10 10 10 10 10 10 10 10 10 10 10 10 10 10 10 10 10 10 10 10 10 10 10 10 10 10 10 10 10 10 10 10 10 10 10 10 10 10 10 10 10 10 10 10 10 10 10 10 10 10 10 10 10 10 10 10 10 10 10 10 10 10 10 10 10 10 10 10 10 10 10 10 10 10 10 10 10 10 10 10 10 10 10 10 10 10 10 10 10 10 10 10 10 10 10 10 10 10 10 10 10 10 10 10 10 10 10 10 10 10 10 10 10 10 10 10 10 10 10 10 10 10 10 10 10 10 10 10 10 10 10 10 10 10 10 10 10 10 10 10 10 10 10 10 10 10 10 10 10 10 10 10 10 10 10 10 10 10 10 10 10 10 10 10 10 10 10 10 10 10 10 10 10 10 10 10 10 10 10 10 10 10 10 10 10 10 10 10 10 10 10 10 10 10 10 10 10 10 10 10 10 10 10 10 10 10 10 10 10 10 10 10 10 10 10 10 10 10 10 10 10 10 10 10 10 10 10 10 10 10 10 10 10 10 10 10 10 10 10 10 10 10 10 10 10 10 10 10 10 10 10 10 10 10 10 10 10 10 10 10 10 10 10 10 10 10 10 10 10 10 10 10 10 10 10 10 10 10 10 10 10 10 10 10 10 10 10 10 10 10 10 10 10 10 10 10 10 10 10 10 10 10 10 10 10 10 10 10 10 10 10 10 10 10 10 10 10 10 10 10 10 10 10 10 10 10 10 10 10 10 10 10 10 10 10 10 10 10 10 10 10 10 10 10 10 10 10 10 10 10 10 10 10 10 10 10 10 10 10 10 10 10 10 10 10 10 10 10 10 10 10 10 10 10 10 10 10 10 10 10 10 10 10 10 10 10 10 10 10 10 10 10 10 10 10 10 10 10 10 10 10 10 10 10 10 10 10 10 10 10 10 10 10 10 10 10 10 10 10 10 10 10 10 10 10 10 10 10 10 10 10 10 10 10 10 10 10 10 10 10 10 10 10 10 10 10 10 10 10 10 10 10 10 10 10 10 10 10 10 10 10 10 10 10 10 10 10 10 10 10 10 10 10 10 10 10 10 10 10 10 10 10 10 10 10 10 10 10 10 10 10 10 10 10 10 10 10 10 10 10 10 10 10 10 10 10 10 10 10 10 10 10 10 10 10 10 10 10 10 10 10 10 10 10 10 10 10 10 10 10 10 10 10 10 10 10 10 10 10 10 10 10 10 10 10 10 10 10 10 10 10 10 10 10 10 10 10 10 10 10 10 10 10 10 10 10 10 10 10 10 10 10 10 10 10 10 10 10 10 10 10 10 10 10 10 10 10 10 10 10 10 10 10 10 10 10 10 10 10 10 10 10 10 10 10 10 10 10 10 10 10 10 10 10 10 10 10 10 10 10 10 10 10 10 10 10 10 10 10 10 10 10 10 10 10 10 10 10 10 10 10 10 10 10 10 10 10 10 10 10 10 10 10 10 10 10 10 10 10 10 10 10 10 10 10 10 10 10 10 10 10 10 10 10 10 10 10 10 10 10 10 10 10 10 10 10 10 10 10 10 10 10 10 10 10 10 10 10 10 10 10 10 10 10 10 10 10 10 10 10 10 10 10 10 10 10 10 10 10 10 10 10 10 10 10 10 10 10 10 10 10 10 10 10 10 10 10 10 10 10 10 10 10 10 10 10 10 10 10 10 10 10 10 10 10 10 10 10 10 10 10 10 10 10 10 10 10 10 10 10 10 10 10 10 10 10 10 10 10 10 10 10 10 10 10 10 10 10 10 10 10 10 10 10 10 10 10 10 10 10 10 10 10 10 10 10 10 10 10 10 10 10 10 10 10 10 10 10 10 10 10 10 10 10 10 10 10 10 10 10 10 10 10 10 10 10 10 10 10 10 10 10 10 10 10 10 10 10 10 10 10 10 10 10 10 10 10 10 10 10 10 10 10 10 10 10 10 10 10 10 10 10 10 10 10 10 10 10 10 10 10 10 10 10 10 10 10 10 10 10 10 10 10 10 10 10 10 10 10 10 10 10 10 10 10 10 10 10 10 10 10 10 10 10 10 10 10 10 10 10 10 10 10 10 10 10 10 10 10 10 10 10 10 10 10 10 10 10 10 10 10 10 10 10 10 10 10 10 10 10 10 10 10 10 10 10 10 10 10 10 10 10 10 10 10 10 10 10 10 10 10 10 10 10 10 10 10 10 10 10 10 10 10 10 10 10 10 10 10 10 10 10 10 10 10 10 10 10 10 10 10 10 10 10 10 10 10 10 10 10 10 10 10 10 10 10 10 10 10 10 10 10 10 10 10 10 10 10 10 10 10 10 10 10 10 10 10 10 10 10 10 10 10 10 10 10 10 10 10 10 10 10 10 10 10 10 10 10 10 10 10 10 10 10 10 10 10 10 10 10 10 10 10 10 10 10 10 10 10 10 10 10 10 10 10 10 10 10 10 10 10 10 10 10 10 10 10 10 10 10 10 10 10 10 10 10 10 10 10 10 10 10 10 10 10 10 10 10 10 10 10 10 10 10 10 10 10 10 10 10 10 10 10 10 10 10 10 10 10 10 10 10 10 10 10 10 10 10 10 10 10 10 10 10 10 10 10 10 10 10 10 10 10 10 10 10 10 10 10 10 10 10 10 10 10 10 10 10 10 10 10 10 10 10 10 10 10 10 10 10 10 10 10 10 10 10 10 10 10 10 10 10 10 10 10 10 10 10 10 10 10 10 10 10 10 10 10 10 10 10 10 10 10 10 10 10 10 10 10 10 10 10 10 10 10 10 10 10 10 10 10 10 10 10 10 10 10 10 10 10 10 10 10 10 10 10 10 10 10 10 10 10 10 10 10 10 10 10 10 10 10 10 10 10 10 10 10 10 10 10 10 10 10 10 10 10 10 10 10 10 10 10 10 10 10 10 10 10 10 10 10 10 10 10 10 10 10 10 10 10 10 10 10 10 10 10 10 10 10 10 10 10 10 10 10 10 10 10 10 10 10 10 10 10 10 10 10 10 10 10 10 10 10 10 10 10 10 10 10 10 10 10 10 10 10 10 10 10 10 10 10 10 10 10 10 10 10 10 10 10 10 10 10 10 10 10 10 10 10 10 10 10 10 10 10 10 10 10 10 10 10 10 10 10 10 10 10 10 10 10 10 10 10 10 10 10 10 10 10 10 10 10 10 10 10 10 10 10 10 10 10 10 10 10 10 10 10 10 10 10 10 10 10 10 10 10 10 10 10 10 10 10 10 10 10 10 10 10 10 10 10 10 10 10 10 10 10 10 10 10 10 10 10 10 10 10 10 10 10 10 10 10 10 10 10 10 10 10 10 10 10 10 10 10 10 10 10 10 10 10 10 10 10 10 10 10 10 10 10 10 10 10 10 10 10 10 10 10 10 10 10 10 10 10 10 10 10 10 10 10 10 10 10 10 10 10 10 10 10 10 10 10 10 10 10 10 10 10 10 10 10 10 10 10 10 10 10 10 10 10 10 10 10 10 10 10 10 10 10 10 10 10 10 10 10 10 10 10 10 10 10 10 10 10 10 10 10 10 10 10 10 10 10 10 10 10 10 10 10 10 10 10 10 10 10 10 10 10 10 10 10 10 10 10 10 10 10 10 10 10 10 10 10 10 10 10 10 10 10 10 10 10 10 10 10 10 10 10 10 10 10 10 10 10 10 10 10 10 10 10 10 10 10 10 10 10 10 10 10 10 10 10 10 10 10 10 10 10 10 10 10 10 10 10 10 10 10 10 10 10 10 10 10 10 10 10 10 10 10 10 10 10 10 10 10 10 10 10 10 10 10 10 10 10 10 10 10 10 10 10 10 10 10 10 10 10 10 10 10 10 10 10 10 10 10 10 10 10 10 10 10 10 10 10 10 10 10 10 10 10 10 10 10 10 10 10 10 10 10 10 10 10 10 10 10 10 10 10 10 10 10 10 10 10 10 10 10 10 10 10 10 10 10 10 10 10 10 10 10 10 10 10 10 10 10 10 10 10 10 10 10 10 10 10 10 10 10 10 10 10 10 10 10 10 10 10 10 10 10 10 10 10 10 10 10 10 10 10 10 10 10 10 10 10 10 10 10 10 10 10 10 10 10 10 10 10 10 10 10 10 10 10 10 10 10 10 10 10 10 10 10 10 10 10 10 10 10 10 10 10 10 10 10 10 10 10 10 10 10 10 10 10 10 10 10 10 10 10 10 10 10 10 10 10 10 10 10 10 10 10 10 10 10 10 10 10 10 10 10 10 10 10 10 10 10 10 10 10 10 10 10 10 10 10 10 10 10 10 10 10 10 10 10 10 10 10 10 10 10 10 10 10 10 10 10 10 10 10 10 10 10 10 10 10 10 10 10 10 10 10 10 10 10 10 10 10 10 10 10 10 10 10 10 10 10 10 10 10 10 10 10 10 10 10 10 10 10 10 10 10 10 10 10 10 10 10 10 10 10 10 10 10 10 10 10 10 10 10 10 10 10 10 10 10 10 10 10 10 10 10 10 10 10 10 10 10 10 10 10 10 10 10 10 10 10 10 10 10 10 10 10 10 10 10 10 10 10 10 10 10 10 10 10 10 10 10 10 10 10 10 10 10 10 10 10 10 10 10 10 10 10 10 10 10 10 10 10 10 10 10 10 10 10 10 10 10 10 10 10 10 10 10 10 10 10 10 10 10 10 10 10 10 10 10 10 10 10 10 10 10 10 10 10 10 10 10 10 10 10 10 10 10 10 10 10 10 10 10 10 10 10 10 10 10 10 10 10 10 10 10 10 10 10 10 10 10 10 10 10 10 10 10 10 10 10 10 10 10 10 10 10 10 10 10 10 10 10 10 10 10 10 10 10 10 10 10 10 10 10 10 10 10 10 10 10 10 10 10 10 10 10 10 10 10 10 10 10 10 10 10 10 10 10 10 10 10 10 10 10 10 10 10 10 10 10 10 10 10 10 10 10 10 10 10 10 10 10 10 10 10 10 10 10 10 10 10 10 10 10 10 10 10 10 10 10 10 10 10 10 10 10 10 10 10 10 10 10 10 10 10 10 10 10 10 10 10 10 10 10 10 10 10 10 10 10 10 10 10 10 10 10 10 10 10 10 10 10 10 10 10 10 10 10 10 10 10 10 10 10 10 10 10 10 10 10 10 10 10 10 10 10 10 10 10 10 10 10 10 10 10 10 10 10 10 10 10 10 10 10 10 10 10 10 10 10 10 10 10 10 10 10 10 10 10 10 10 10 10 10 10 10 10 10 10 10 10 10 10 10 10 10 10 10 10 10 10 10 10 10 10 10 10 10 10 10 10 10 10 10 10 10 10 10 10 10 10 10 10 10 10 10 10 10 10 10 10 10 10 10 10 10 10 10 10 10 10 10 10 10 10 10 10 10 10 10 10 10 10 10 10 10 10 10 10 10 10 10 10 10 10 10 10 10 10 10 10 10 10 10 10 10 10 10 10 10 10 10 10 10 10 10 10 10 10 10 10 10 10 10 10 10 10 10 10 10 10 10 10 10 10 10 10 10 10 10 10 10 10 10 10 10 10 10 10 10 10 10 10 10 10 10 10 10 10 10 10 10 10 10 10 10 10 10 10 10 10 10 10 10 10 10 10 10 10 10 10 10 10 10 10 10 10 10 10 10 10 10 10 10 10 10 10 10 10 10 10 10 10 10 10 10 10 10 10 10 10 10 10 10 10 10 10 10 10 10 10 10 10 10 10 10 10 10 10 10 10 10 10 10 10 10 10 10 10 10 10 10 10 10 10 10 10 10 10 10 10 10 10 10 10 10 10 10 10 10 10 10 10 10 10 10 10 10 10 10 10 10 10 10 10 10 10 10 10 10 10 10 10 10 10 10 10 10 10 10 10 10 10 10 10 10 10 10 10 10 10 10 10 10 10 10 10 10 10 10 10 10 10 10 10 10 10 10 10 10 10 10 10 10 10 10 10 10 10 10 10 10 10 10 10 10 10 10 10 10 10 10 10 10 10 10 10 10 10 10 10 10 10 10 10 10 10 10 10 10 10 10 10 10 10 10 10 10 10 10 10 10 10 10 10 10 10 10 10 10 10 10 10 10 10 10 10 10 10 10 10 10 10 10 10 10 10 10 10 10 10 10 10 10 10 10 10 10 10 10 10 10 10 10 10 10 10 10 10 10 10 10 10 10 10 10 10 10 10 10 10 10 10 10 10 10 10 10 10 10 10 10 10 10 10 10 10 10 10 10 10 10 10 10 10 10 10 10 10 10 10 10 10 10 10 10 10 10 10 10 10 10 10 10 10 10 10 10 10 10 10 10 10 10 10 10 10 10 10 10 10 10 10 10 10 10 10 10 10 10 10 10 10 10 10 10 10 10 10 10 10 10 10 10 10 10 10 10 10 10 10 10 10 10 10 10 10 10 10 10 10 10 10 10 10 10 10 10 10 10 10 10 10 10 10 10 10 10 10 10 10 10 10 10 10 10 10 10 10 10 10 10 10 10 10 10 10 10 10 10 10 10 10 10 10 10 10 10 10 10 10 10 10 10 10 10 10 10 10 10 10 10 10 10 10 10 10 10 10 10 10 10 10 10 10 10 10 10 10 10 10 10 10 10 10 10 10 10 10 10 10 10 10 10 10 10 10 10 10 10 10 10 10 10 10 10 10 10 10 10 10 10 10 10 10 10 10 10 10 10 10 10 10 10 10 10 10 10 10 10 10 10 10 10 10 10 10 10 10 10 10 10 10 10 10 10 10 10 10 10 10 10 10 10 10 10 10 10 10 10 10 10 10 10 10 10 10 10 10 10 10 10 10 10 10 10 10 10 10 10 10 10 10 10 10 10 10 10 10 10 10 10 10 10 10 10 10 10 10 10 10 10 10 10 10 10 10 10 10 10 10 10 10 10 10 10 10 10 10 10 10 10 10 10 10 10 10 10 10 10 10 10 10 10 10 10 10 10 10 10 10 10 10 10 10 10 10 10 10 10 10 10 10 10 10 10 10 10 10 10 10 10 10 10 10 10 10 10 10 10 10 10 10 10 10 10 10 10 10 10 10 10 10 10 10 10 10 10 10 10 10 10 10 10 10 10 10 10 10 10 10 10 10 10 10 10 10 10 10 10 10 10 10 10 10 10 10 10 10 10 10 10 10 10 10 10 10 10 10 10 10 10 10 10 10 10 10 10 10 10 10 10 10 10 10 10 10 10 10 10 10 10 10 10 10 10 10 10 10 10 10 10 10 10 10 10 10 10 10 10 10 10 10 10 10 10 10 10 10 10 10 10 10 10 10 10 10 10 10 10 10 10 10 10 10 10 10 10 10 10 10 10 10 10 10 10 10 10 10 10 10 10 10 10 10 10 10 10 10 10 10 10 10 10 10 10 10 10 10 10 10 10 10 10 10 10 10 10 10 10 10 10 10 10 10 10 10 10 10 10 10 10 10 10 10 10 10 10 10 10 10 10 10 10 10 10 10 10 10 10 10 10 10 10 10 10 10 10 10 10 10 10 10 10 10 10 10 10 10 10 10 10 10 10 10 10 10 10 10 10 10 10 10 10 10 10 10 10 10 10 10 10 10 10 10 10 10 10 10 10 10 10 10 10 10 10 10 10 10 10 10 10 10 10 10 10 10 10 10 10 10 10 10 10 10 10 10 10 10 10 10 10 10 10 10 10 10 10 10 10 10 10 10 10 10 10 10 10 10 10 10 10 10 10 10 10 10 10 10 10 10 10 10 10 10 10 10 10 10 10 10 10 10 10 10 10 10 10 10 10 10 10 10 10 10 10 10 10 10 10 10 10 10 10 10 10 10 10 10 10 10 10 10 10 10 10 10 10 10 10 10 10 10 10 10 10 10 10 10 10 10 10 10 10 10 10 10 10 10 10 10 10 10 10 10 10 10 10 10 10 10 10 10 10 10 10 10 10 10 10 10 10 10 10 10 10 10 10 10 10 10 10 10 10 10 10 10 10 10 10 10 10 10 10 10 10 10 10 10 10 10 10 10 10 10 10 10 10 10 10 10 10 10 10 10 10 10 10 10 10 10 10 10 10 10 10 10 10 10 10 10 10 10 10 10 10 10 10 10 10 10 10 10 10 10 10 10 10 10 10 10 10 10 10 10 10 10 10 10 10 10 10 10 10 10 10 10 10 10 10 10 10 10 10 10 10 10 10 10 10 10 10 10 10 10 10 10 10 10 10 10 10 10 10 10 10 10 10 10 10 10 10 10 10 10 10 10 10 10 10 10 10 10 10 10 10 10 10 10 10 10 10 10 10 10 10 10 10 10 10 10 10 10 10 10 10 10 10 10 10 10 10 10 10 10 10 10 10 10 10 10 10 10 10 10 10 10 10 10 10 10 10 10 10 10 10 10 10 10 10 10 10 10 10 10 10 10 10 10 10 10 10 10 10 10 10 10 10 10 10 10 10 10 10 10 10 10 10 10 10 10 10 10 10 10 10 10 10 10 10 10 10 10 10 10 10 10 10 10 10 10 10 10 10 10 10 10 10 10 10 10 10 10 10 10 10 10 10 10 10 10 10 10 10 10 10 10 10 10 10 10 10 10 10 10 10 10 10 10 10 10 10 10 10 10 10 10 10 10 10 10 10 10 10 10 10 10 10 10 10 10 10 10 10 10 10 10 10 10 10 10 10 10 10 10 10 10 10 10 10 10 10 10 10 10 10 10 10 10 10 10 10 10 10 10 10 10 10 10 10 10 10 10 10 10 10 10 10 10 10 10 10 10 10 10 10 10 10 10 10 10 10 10 10 10 10 10 10 10 10 10 10 10 10 10 10 10 10 10 10 10 10 10 10 10 10 10 10 10 10 10 10 10 10 10 10 10 10 10 10 10 10 10 10 10 10 10 10 10 10 10 10 10 10 10 10 10 10 10 10 10 10 10 10 10 10 10 10 10 10 10 10 10 10 10 10 10 10 10 10 10 10 10 10 10 10 10 10 10 10 10 10 10 10 10 10 10 10 10 10 10 10 10 10 10 10 10 10 10 10 10 10 10 10 10 10 10 10 10 10 10 10 10 10 10 10 10 10 10 10 10 10 10 10 10 10 10 10 10 10 10 10 10 10 10 10 10 10 10 10 10 10 10 10 10 10 10 10 10 10 10 10 10 10 10 10 10 10 10 10 10 10 10 10 10 10 10 10 10 10 10 10 10 10 10 10 10 10 10 10 10 10 10 10 10 10 10 10 10 10 10 10 10 10 10 10 10 10 10 10 10 10 10 10 10 10 10 10 10 10 10 10 10 10 10 10 10 10 10 10 10 10 10 10 10 10 10 10 10 10 10 10 10 10 10 10 10 10 10 10 10 10 10 10 10 10 10 10 10 10 10 10 10 10 10 10 10 10 10 10 10 10 10 10 10 10 10 10 10 10 10 10 10 10 10 10 10 10 10 10 10 10 10 10 10 10 10 10 10 10 10 10 10 10 10 10 10 10 10 10 10 10 10 10 10 10 10 10 10 10 10 10 10 10 10 10 10 10 10 10 10 10 10 10 10 10 10 10 10 10 10 10 10 10 10 10 10 10 10 10 10 10 10 10 10 10 10 10 10 10 10 10 10 10 10 10 10 10 10 10 10 10 10 10 10 10 10 10 10 10 10 10 10 10 10 10 10 10 10 10 10 10 10 10 10 10 10 10 10 10 10 10 10 10 10 10 10 10 10 10 10 10 10 10 10 10 10 10 10 10 10 10 10 10 10 10 10 10 10 10 10 10 10 10 10 10 10 10 10 10 10 10 10 10 10 10 10 10 10 10 10 10 10 10 10 10 10 10 10 10 10 10 10 10 10 10 10 10 10 10 10 10 10 10 10 10 10 10 10 10 10 10 10 10 10 10 10 10 10 10 10 10 10 10 10 10 10 10 10 10 10 10 10 10 10 10 10 10 10 10 10 10 10 10 10 10 10 10 10 10 10 10 10 10 10 10 10 10 10 10 10 10 10 10 10 10 10 10 10 10 10 10 10 10 10 10 10 10 10 10 10 10 10 10 10 10 10 10 10 10 10 10 10 10 10 10 10 10 10 10 10 10 10 10 10 10 10 10 10 10 10 10 10 10 10 10 10 10 10 10 10 10 10 10 10 10 10 10 10 10 10 10 10 10 10 10 10 10 10 10 10 10 10 10 10 10 10 10 10 10 10 10 10 10 10 10 10 10 10 10 10 10 10 10 10 10 10 10 10 10 10 10 10 10 10 10 10 10 10 10 10 10 10 10 10 10 10 10 10 10 10 10 10 10 10 10 10 10 10 10 10 10 10 10 10 10 10 10 10 10 10 10 10 10 10 10 10 10 10 10 10 10 10 10 10 10 10 10 10 10 10 10 10 10 10 10 10 10 10 10 10 10 10 10 10 10 10 10 10 10 10 10 10 10 10 10 10 10 10 10 10 10 10 10 10 10 10 10 10 10 10 10 10 10 10 10 10 10 10 10 10 10 10 10 10 10 10 10 10 10 10 10 10 10 10 10 10 10 10 10 10 10 10 10 10 10 10 10 10 10 10 10 10 10 10 10 10 10 10 10 10 10 10 10 10 10 10 10 10 10 10 10 10 10 10 10 10 10 10 10 10 10 10 10 10 10 10 10 10 10 10 10 10 10 10 10 10 10 10 10 10 10 10 10 10 10 10 10 10 10 10 10 10 10 10 10 10 10 10 10 10 10 10 10 10 10 10 10 10 10 10 10 10 10 10 10 10 10 10 10 10 10 10 10 10 10 10 10 10 10 10 10 10 10 10 10 10 10 10 10 10 10 10 10 10 10 10 10 10 10 10 10 10 10 10 10 10 10 10 10 10 10 10 10 10 10 10 10 10 10 10 10 10 10 10 10 10 10 10 10 10 10 10 10 10 10 10 10 10 10 10 10 10 10 10 10 10 10 10 10 10 10 10 10 10 10 10 10 10 10 10 10 10 10 10 10 10 10 10 10 10 10 10 10 10 10 10 10 10 10 10 10 10 10 10 10 10 10 10 10 10 10 10 10 10 10 10 10 10 10 10 10 10 10 10 10 10 10 10 10 10 10 10 10 10 10 10 10 10 10 10 10 10 10 10 10 10 10 10 10 10 10 10 10 10 10 10 10 10 10 10 10 10 10 10 10 10 10 10 10 10 10 10 10 10 10 10 10 10 10 10 10 10 10 10 10 10 10 10 10 10 10 10 10 10 10 10 10 10 10 10 10 10 10 10 10 10 10 10 10 10 10 10 10 10 10 10 10 10 10 10 10 10 10 10 10 10 10 10 10 10 10 10 10 10 10 10 10 10 10 10 10 10 10 10 10 10 10 10 10 10 10 10 10 10 10 10 10 10 10 10 10 10 10 10 10 10 10 10 10 10 10 10 10 10 10 10 10 10 10 10 10 10 10 10 10 10 10 10 10 10 10 10 10 10 10 10 10 10 10 10 10 10 10 10 10 10 10 10 10 10 10 10 10 10 10 10 10 10 10 10 10 10 10 10 10 10 10 10 10 10 10 10 10 10 10 10 10 10 10 10 10 10 10 10 10 10 10 10 10 10 10 10 10 10 10 10 10 10 10 10 10 10 10 10 10 10 10 10 10 10 10 10 10 10 10 10 10 10 10 10 10 10 10 10 10 10 10 10 10 10 10 10 10 10 10 10 10 10 10 10 10 10 10 10 10 10 10 10 10 10 10 10 10 10 10 10 10 10 10 10 10 10 10 10 10 10 10 10 10 10 10 10 10 10 10 10 10 10 10 10 10 10 10 10 10 10 10 10 10 10 10 10 10 10 10 10 10 10 10 10 10 10 10 10 10 10 10 10 10 10 10 10 10 10 10 10 10 10 10 10 10 10 10 10 10 10 10 10 10 10 10 10 10 10 10 10 10 10 10 10 10 10 10 10 10 10 10 10 10 10 10 10 10 10 10 10 10 10 10 10 10 10 10 10 10 10 10 10 10 10 10 10 10 10 10 10 10 10 10 10 10 10 10 10 10 10 10 10 10 10 10 10 10 10 10 10 10 10 10 10 10 10 10 10 10 10 10 10 10 10 10 10 10 10 10 10 10 10 10 10 10 10 10 10 10 10 10 10 10 10 10 10 10 10 10 10 10 10 10 10 10 10 10 10 10 10 10 10 10 10 10 10 10 10 10 10 10 10 10 10 10 10 10 10 10 10 10 10 10 10 10 10 10 10 10 10 10 10 10 10 10 10 10 10 10 10 10 10 10 10 10 10 10 10 10 10 10 10 10 10 10 10 10 10 10 10 10 10 10 10 10 10 10 10 10 10 10 10 10 10 10 10 10 10 10 10 10 10 10 10 10 10 10 10 10 10 10 10 10 10 10 10 10 10 10 10 10 10 10 10 10 10 10 10 10 10 10 10 10 10 10 10 10 10 10 10 10 10 10 10 10 10 10 10 10 10 10 10 10 10 10 10 10 10 10 10 10 10 10 10 10 10 10 10 10 10 10 10 10 10 10 10 10 10 10 10 10 10 10 10 10 10 10 10 10 10 10 10 10 10 10 10 10 10 10 10 10 10 10 10 10 10 10 10 10 10 10 10 10 10 10 10 10 10 10 10 10 10 10 10 10 10 10 10 10 10 10 10 10 10 10 10 10 10 10 10 10 10 10 10 10 10 10 10 10 10 10 10 10 10 10 10 10 10 10 10 10 10 10 10 10 10 10 10 10 10 10 10 10 10 10 10 10 10 10 10 10 10 10 10 10 10 10 10 10 10 10 10 10 10 10 10 10 10 10 10 10 10 10 10 10 10 10 10 10 10 10 10 10 10 10 10 10 10 10 10 10 10 10 10 10 10 10 10 10 10 10 10 10 10 10 10 10 10 10 10 10 10 10 10 10 10 10 10 10 10 10 10 10 10 10 10 10 10 10 10 10 10 10 10 10 10 10 10 10 10 10 10 10 10 10 10 10 10 10 10 10 10 10 10 10 10 10 10 10 10 10 10 10 10 10 10 10 10 10 10 10 10 10 10 10 10 10 10 10 10 10 10 10 10 10 10 10 10 10 10 10 10 10 10 10 10 10 10 10 10 10 10 10 10 10 10 10 10 10 10 10 10 10 10 10 10 10 10 10 10 10 10 10 10 10 10 10 10 10 10 10 10 10 10 10 10 10 10 10 10 10 10 10 10 10 10 10 10 10 10 10 10 10 10 10 10 10 10 10 10 10 10 10 10 10 10 10 10 10 10 10 10 10 10 10 10 10 10 10 10 10 10 10 10 10 10 10 10 10 10 10 10 10 10 10 10 10 10 10 10 10 10 10 10 10 10 10 10 10 10 10 10 10 10 10 10 10 10 10 10 10 10 10 10 10 10 10 10 10 10 10 10 10 10 10 10 10 10 10 10 10 10 10 10 10 10 10 10 10 10 10 10 10 10 10 10 10 10 10 10 10 10 10 10 10 10 10 10 10 10 10 10 10 10 10 10 10 10 10 10 10 10 10 10 10 10 10 10 10 10 10 10 10 10 10 10 10 10 10 10 10 10 10 10 10 10 10 10 10 10 10 10 10 10 10 10 10 10 10 10 10 10 10 10 10 10 10 10 10 10 10 10 10 10 10 10 10 10 10 10 10 10 10 10 10 10 10 10 10 10 10 10 10 10 10 10 10 10 10 10 10 10 10 10 10 10 10 10 10 10 10 10 10 10 10 10 10 10 10 10 10 10 10 10 10 10 10 10 10 10 10 10 10 10 10 10 10 10 10 10 10 10 10 10 10 10 10 10 10 10 10 10 10 10 10 10 10 10 10 10 10 10 10 10 10 10 10 10 10 10 10 10 10 10 10 10 10 10 10 10 10 10 10 10 10 10 10 10 10 10 10 10 10 10 10 10 10 10 10 10 10 10 10 10 10 10 10 10 10 10 10 10 10 10 10 10 10 10 10 10 10 10 10 10 10 10 10 10 10 10 10 10 10 10 10 10 10 10 10 10 10 10 10 10 10 10 10 10 10 10 10 10 10 10 10 10 10 10 10 10 10 10 10 10 10 10 10 10 10 10 10 10 10 10 10 10 10 10 10 10 10 10 10 10 10 10 10 10 10 10 10 10 10 10 10 10 10 10 10 10 10 10 10 10 10 10 10 10 10 10 10 10 10 10 10 10 10 10 10 10 10 10 10 10 10 10 10 10 10 10 10 10 10 10 10 10 10 10 10 10 10 10 10 10 10 10 10 10 10 10 10 10 10 10 10 10 10 10 10 10 10 10 10 10 10 10 10 10 10 10 10 10 10 10 10 10 10 10 10 10 10 10 10 10 10 10 10 10 10 10 10 10 10 10 10 10 10 10 10 10 10 10 10 10 10 10 10 10 10 10 10 10 10 10 10 10 10 10 10 10 10 10 10 10 10 10 10 10 10 10 10 10 10 10 10 10 10 10 10 10 10 10 10 10 10 10 10 10 10 10 10 10 10 10 10 10 10 10 10 10 10 10 10 10 10 10 10 10 10 10 10 10 10 10 10 10 10 10 10 10 10 10 10 10 10 10 10 10 10 10 10 10 10 10 10 10 10 10 10 10 10 10 10 10 10 10 10 10 10 10 10 10 10 10 10 10 10 10 10 10 10 10 10 10 10 10 10 10 10 10 10 10 10 10 10 10 10 10 10 10 10 10 10 10 10 10 10 10 10 10 10 10 10 10 10 10 10 10 10 10 10 10 10 10 10 10 10 10 10 10 10 10 10 10 10 10 10 10 10 10 10 10 10 10 10 10 10 10 10 10 10 10 10 10 10 10 10 10 10 10 10 10 10 10 10 10 10 10 10 10 10 10 10 10 10 10 10 10 10 10 10 10 10 10 10 10 10 10 10 10 10 10 10 10 10 10 10 10 10 10 10 10 10 10 10 10 10 10 10 10 10 10 10 10 10 10 10 10 10 10 10 10 10 10 10 10 10 10 10 10 10 10 10 10 10 10 10 10 10 10 10 10 10 10 10 10 10 10 10 10 10 10 10 10 10 10 10 10 10 10 10 10 10 10 10 10 10 10 10 10 10 10 10 10 10 10 10 10 10 10 10 10 10 10 10 10 10 10 10 10 10 10 10 10 10 10 10 10 10 10 10 10 10 10 10 10 10 10 10 10 10 10 10 10 10 10 10 10 10 10 10 10 10 10 10 10 10 10 10 10 10 10 10 10 10 10 10 10 10 10 10 10 10 10 10 10 10 10 10 10 10 10 10 10 10 10 10 10 10 10 10 10 10 10 10 10 10 10 10 10 10 10 10 10 10 10 10 10 10 10 10 10 10 10 10 10 10 10 10 10 10 10 10 10 10 10 10 10 10 10 10 10 10 10 10 10 10 10 10 10 10 10 10 10 10 10 10 10 10 10 10 10 10 10 10 10 10 10 10 10 10 10 10 10 10 10 10 10 10 10 10 10 10 10 10 10 10 10 10 10 10 10 10 10 10 10 10 10 10 10 10 10 10 10 10 10 10 10 10 10 10 10 10 10 10 10 10 10 10 10 10 10 10 10 10 10 10 10 10 10 10 10 10 10 10 10 10 10 10 10 10 10 10 10 10 10 10 10 10 10 10 10 10 10 10 10 10 10 10 10 10 10 10 10 10 10 10 10 10 10 10 10 10 10 10 10 10 10 10 10 10 10 10 10 10 10 10 10 10 10 10 10 10 10 10 10 10 10 10 10 10 10 10 10 10 10 10 10 10 10 10 10 10 10 10 10 10 10 10 10 10 10 10 10 10 10 10 10 10 10 10 10 10 10 10 10 10 10 10 10 10 10 10 10 10 10 10 10 10 10 10 10 10 10 10 10 10 10 10 10 10 10 10 10 10 10 10 10 10 10 10 10 10 10 10 10 10 10 10 10 10 10 10 10 10 10 10 10 10 10 10 10 10 10 10 10 10 10 10 10 10 10 10 10 10 10 10 10 10 10 10 10 10 10 10 10 10 10 10 10 10 10 10 10 10 10 10 10 10 10 10 10 10 10 10 10 10 10 10 10 10 10 10 10 10 10 10 10 10 10 10 10 10 10 10 10 10 10 10 10 10 10 10 10 10 10 10 10 10 10 10 10 10 10 10 10 10 10 10 10 10 10 10 10 10 10 10 10 10 10 10 10 10 10 10 10 10 10 10 10 10 10 10 10 10 10 10 10 10 10 10 10 10 10 10 10 10 10 10 10 10 10 10 10 10 10 10 10 10 10 10 10 10 10 10 10 10 10 10 10 10 10 10 10 10 10 10 10 10 10 10 10 10 10 10 10 10 10 10 10 10 10 10 10 10 10 10 10 10 10 10 10 10 10 10 10 10 10 10 10 10 10 10 10 10 10 10 10 10 10 10 10 10 10 10 10 10 10 10 10 10 10 10 10 10 10 10 10 10 10 10 10 10 10 10 10 10 10 10 10 10 10 10 10 10 10 10 10 10 10 10 10 10 10 10 10 10 10 10 10 10 10 10 10 10 10 10 10 10 10 10 10 10 10 10 10 10 10 10 10 10 10 10 10 10 10 10 10 10 10 10 10 10 10 10 10 10 10 10 10 10 10 10 10 10 10 10 10 10 10 10 10 10 10 10 10 10 10 10 10 10 10 10 10 10 10 10 10 10 10 10 10 10 10 10 10 10 10 10 10 10 10 10 10 10 10 10 10 10 10 10 10 10 10 10 10 10 10 10 10 10 10 10 10 10 10 10 10 10 10 10 10 10 10 10 10 10 10 10 10 10 10 10 10 10 10 10 10 10 10 10 10 10 10 10 10 10 10 10 10 10 10 10 10 10 10 10 10 10 10 10 10 10 10 10 10 10 10 10 10 10 10 10 10 10 10 10 10 10 10 10 10 10 10 10 10 10 10 10 10 10 10 10 10 10 10 10 10 10 10 10 10 10 10 10 10 10 10 10 10 10 10 10 10 10 10 10 10 10 10 10 10 10 10 10 10 10 10 10 10 10 10 10 10 10 10 10 10 10 10 10 10 10 10 10 10 10 10 10 10 10 10 10 10 10 10 10 10 10 10 10 10 10 10 10 10 10 10 10 10 10 10 10 10 10 10 10 10 10 10 10 10 10 10 10 10 10 10 10 10 10 10 10 10 10 10 10 10 10 10 10 10 10 10 10 10 10 10 10 10 10 10 10 10 10 10 10 10 10 10 10 10 10 10 10 10 10 10 10 10 10 10 10 10 10 10 10 10 10 10 10 10 10 10 10 10 10 10 10 10 10 10 10 10 10 10 10 10 10 10 10 10 10 10 10 10 10 10 10 10 10 10 10 10 10 10 10 10 10 10 10 10 10 10 10 10 10 10 10 10 10 10 10 10 10 10 10 10 10 10 10 10 10 10 10 10 10 10 10 10 10 10 10 10 10 10 10 10 10 10 10 10 10 10 10 10 10 10 10 10 10 10 10 10 10 10 10 10 10 10 10 10 10 10 10 10 10 10 10 10 10 10 10 10 10 10 10 10 10 10 10 10 10 10 10 10 10 10 10 10 10 10 10 10 10 10 10 10 10 10 10 10 10 10 10 10 10 10 10 10 10 10 10 10 10 10 10 10 10 10 10 10 10 10 10 10 10 10 10 10 10 10 10 10 10 10 10 10 10 10 10 10 10 10 10 10 10 10 10 10 10 10 10 10 10 10 10 10 10 10 10 10 10 10 10 10 10 10 10 10 10 10 10 10 10 10 10 10 10 10 10 10 10 10 10 10 10 10 10 10 10 10 10 10 10 10 10 10 10 10 10 10 10 10 10 10 10 10 10 10 10 10 10 10 10 10 10 10 10 10 10 10 10 10 10 10 10 10 10 10 10 10 10 10 10 10 10 10 10 10 10 10 10 10 10 10 10 10 10 10 10 10 10 10 10 10 10 10 10 10 10 10 10 10 10 10 10 10 10 10 10 10 10 10 10 10 10 10 10 10 10 10 10 10 10 10 10 10 10 10 10 10 10 10 10 10 10 10 10 10 10 10 10 10 10 10 10 10 10 10 10 10 10 10 10 10 10 10 10 10 10 10 10 10 10 10 10 10 10 10 10 10 10 10 10 10 10 10 10 10 10 10 10 10 10 10 10 10 10 10 10 10 10 10 10 10 10 10 10 10 10 10 10 10 10 10 10 10 10 10 10 10 10 10 10 10 10 10 10 10 10 10 10 10 10 10 10 10 10 10 10 10 10 10 10 10 10 10 10 10 10 10 10 10 10 10 10 10 10 10 10 10 10 10 10 10 10 10 10 10 10 10 10 10 10 10 10 10 10 10 10 10 10 10 10 10 10 10 10 10 10 10 10 10 10 10 10 10 10 10 10 10 10 10 10 10 10 10 10 10 10 10 10 10 10 10 10 10 10 10 10 10 10 10 10 10 10 10 10 10 10 10 10 10 10 10 10 10 10 10 10 10 10 10 10 10 10 10 10 10 10 10 10 10 10 10 10 10 10 10 10 10 10 10 10 10 10 10 10 10 10 10 10 10 10 10 10 10 10 10 10 10 10 10 10 10 10 10 10 10 10 10 10 10 10 10 10 10 10 10 10 10 10 10 10 10 10 10 10 10 10 10 10 10 10 10 10 10 10 10 10 10 10 10 10 10 10 10 10 10 10 10 10 10 10 10 10 10 10 10 10 10 10 10 10 10 10 10 10 10 10 10 10 10 10 10 10 10 10 10 10 10 10 10 10 10 10 10 10 10 10 10 10 10 10 10 10 10 10 10 10 10 10 10 10 10 10 10 10 10 10 10 10 10 10 10 10 10 10 10 10 10 10 10 10 10 10 10 10 10 10 10 10 10 10 10 10 10 10 10 10 10 10 10 10 10 10 10 10 10 10 10 10 10 10 10 10 10 10 10 10 10 10 10 10 10 10 10 10 10 10 10 10 10 10 10 10 10 10 10 10 10 10 10 10 10 10 10 10 10 10 10 10 10 10 10 10 10 10 10 10 10 10 10 10 10 10 10 10 10 10 10 10 10 10 10 10 10 10 10 10 10 10 10 10 10 10 10 10 10 10 10 10 10 10 10 10 10 10 10 10 10 10 10 10 10 10 10 10 10 10 10 10 10 10 10 10 10 10 10 10 10 10 10 10 10 10 10 10 10 10 10 10 10 10 10 10 10 10 10 10 10 10 10 10 10 10 10 10 10 10 10 10 10 10 10 10 10 10 10 10 10 10 10 10 10 10 10 10 10 10 10 10 10 10 10 10 10 10 10 10 10 10 10 10 10 10 10 10 10 10 10 10 10 10 10 10 10 10 10 10 10 10 10 10 10 10 10 10 10 10 10 10 10 10 10 10 10 10 10 10 10 10 10 10 10 10 10 10 10 10 10 10 10 10 10 10 10 10 10 10 10 10 10 10 10 10 10 10 10 10 10 10 10 10 10 10 10 10 10 10 10 10 10 10 10 10 10 10 10 10 10 10 10 10 10 10 10 10 10 10 10 10 10 10 10 10 10 10 10 10 10 10 10 10 10 10 10 10 10 10 10 10 10 10 10 10 10 10 10 10 10 10 10 10 10 10 10 10 10 10 10 10 10 10 10 10 10 10 10 10 10 10 10 10 10 10 10 10 10 10 10 10 10 10 10 10 10 10 10 10 10 10 10 10 10 10 10 10 10 10 10 10 10 10 10 10 10 10 10 10 10 10 10 10 10 10 10 10 10 10 10 10 10 10 10 10 10 10 10 10 10 10 10 10 10 10 10 10 10 10 10 10 10 10 10 10 10 10 10 10 10 10 10 10 10 10 10 10 10 10 10 10 10 10 10 10 10 10 10 10 10 10 10 10 10 10 10 10 10 10 10 10 10 10 10 10 10 10 10 10 10 10 10 10 10 10 10 10 10 10 10 10 10 10 10 10 10 10 10 10 10 10 10 10 10 10 10 10 10 10 10 10 10 10 10 10 10 10 10 10 10 10 10 10 10 10 10 10 10 10 10 10 10 10 10 10 10 10 10 10 10 10 10 10 10 10 10 10 10 10 10 10 10 10 10 10 10 10 10 10 10 10 10 10 10 10 10 10 10 10 10 10 10 10 10 10 10 10 10 10 10 10 10 10 10 10 10 10 10 10 10 10 10 10 10 10 10 10 10 10 10 10 10 10 10 10 10 10 10 10 10 10 10 10 10 10 10 10 10 10 10 10 10 10 10 10 10 10 10 10 10 10 10 10 10 10 10 10 10 10 10 10 10 10 10 10 10 10 10 10 10 10 10 10 10 10 10 10 10 10 10 10 10 10 10 10 10 10 10 10 10 10 10 10 10 10 10 10 10 10 10 10 10 10 10 10 10 10 10 10 10 10 10 10 10 10 10 10 10 10 10 10 10 10 10 10 10 10 10 10 10 10 10 10 10 10 10 10 10 10 10 10 10 10 10 10 10 10 10 10 10 10 10 10 10 10 10 10 10 10 10 10 10 10 10 10 10 10 10 10 10 10 10 10 10 10 10 10 10 10 10 10 10 10 10 10 10 10 10 10 10 10 10 10 10 10 10 10 10 10 10 10 10 10 10 10 10 10 10 10 10 10 10 10 10 10 10 10 10 10 10 10 10 10 10 10 10 10 10 10 10 10 10 10 10 10 10 10 10 10 10 10 10 10 10 10 10 10 10 10 10 10 10 10 10 10 10 10 10 10 10 10 10 10 10 10 10 10 10 10 10 10 10 10 10 10 10 10 10 10 10 10 10 10 10 10 10 10 10 10 10 10 10 10 10 10 10 10 10 10 10 10 10 10 10 10 10 10 10 10 10 10 10 10 10 10 10 10 10 10 10 10 10 10 10 10 10 10 10 10 10 10 10 10 10 10 10 10 10 10 10 10 10 10 10 10 10 10 10 10 10 10 10 10 10 10 10 10 10 10 10 10 10 10 10 10 10 10 10 10 10 10 10 10 10 10 10 10 10 10 10 10 10 10 10 10 10 10 10 10 10 10 10 10 10 10 10 10 10 10 10 10 10 10 10 10 10 10 10 10 10 10 10 10 10 10 10 10 10 10 10 10 10 10 10 10 10 10 10 10 10 10 10 10 10 10 10 10 10 10 10 10 10 10 10 10 10 10 10 10 10 10 10 10 10 10 10 10 10 10 10 10 10 10 10 10 10 10 10 10 10 10 10 10 10 10 10 10 10 10 10 10 10 10 10 10 10 10 10 10 10 10 10 10 10 10 10 10 10 10 10 10 10 10 10 10 10 10 10 10 10 10 10 10 10 10 10 10 10 10 10 10 10 10 10 10 10 10 10 10 10 10 10 10 10 10 10 10 10 10 10 10 10 10 10 10 10 10 10 10 10 10 10 10 10 10 10 10 10 10 10 10 10 10 10 10 10 10 10 10 10 10 10 10 10 10 10 10 10 10 10 10 10 10 10 10 10 10 10 10 10 10 10 10 10 10 10 10 10 10 10 10 10 10 10 10 10 10 10 10 10 10 10 10 10 10 10 10 10 10 10 10 10 10 10 10 10 10 10 10 10 10 10 10 10 10 10 10 10 10 10 10 10 10 10 10 10 10 10 10 10 10 10 10 10 10 10 10 10 10 10 10 10 10 10 10 10 10 10 10 10 10 10 10 10 10 10 10 10 10 10 10 10 10 10 10 10 10 10 10 10 10 10 10 10 10 10 10 10 10 10 10 10 10 10 10 10 10 10 10 10 10 10 10 10 10 10 10 10 10 10 10 10 10 10 10 10 10 10 10 10 10 10 10 10 10 10 10 10 10 10 10 10 10 10 10 10 10 10 10 10 10 10 10 10 10 10 10 10 10 10 10 10 10 10 10 10 10 10 10 10 10 10 10 10 10 10 10 10 10 10 10 10 10 10 10 10 10 10 10 10 10 10 10 10 10 10 10 10 10 10 10 10 10 10 10 10 10 10 10 10 10 10 10 10 10 10 10 10 10 10 10 10 10 10 10 10 10 10 10 10 10 10 10 10 10 10 10 10 10 10 10 10 10 10 10 10 10 10 10 10 10 10 10 10 10 10 10 10 10 10 10 10 10 10 10 10 10 10 10 10 10 10 10 10 10 10 10 10 10 10 10 10 10 10 10 10 10 10 10 10 10 10 10 10 10 10 10 10 10 10 10 10 10 10 10 10 10 10 10 10 10 10 10 10 10 10 10 10 10 10 10 10 10 10 10 10 10 10 10 10 10 10 10 10 10 10 10 10 10 10 10 10 10 10 10 10 10 10 10 10 10 10 10 10 10 10 10 10 10 10 10 10 10 10 10 10 10 10 10 10 10 10 10 10 10 10 10 10 10 10 10 10 10 10 10 10 10 10 10 10 10 10 10 10 10 10 10 10 10 10 10 10 10 10 10 10 10 10 10 10 10 10 10 10 10 10 10 10 10 10 10 10 10 10 10 10 10 10 10 10 10 10 10 10 10 10 10 10 10 10 10 10 10 10 10 10 10 10 10 10 10 10 10 10 10 10 10 10 10 10 10 10 10 10 10 10 10 10 10 10 10 10 10 10 10 10 10 10 10 10 10 10 10 10 10 10 10 10 10 10 10 10 10 10 10 10 10 10 10 10 10 10 10 10 10 10 10 10 10 10 10 10 10 10 10 10 10 10 10 10 10 10 10 10 10 10 10 10 10 10 10 10 10 10 10 10 10 10 10 10 10 10 10 10 10 10 10 10 10 10 10 10 10 10 10 10 10 10 10 10 10 10 10 10 10 10 10 10 10 10 10 10 10 10 10 10 10 10 10 10 10 10 10 10 10 10 10 10 10 10 10 10 10 10 10 10 10 10 10 10 10 10 10 10 10 10 10 10 10 10 10 10 10 10 10 10 10 10 10 10 10 10 10 10 10 10 10 10 10 10 10 10 10 10 10 10 10 10 10 10 10 10 10 10 10 10 10 10 10 10 10 10 10 10 10 10 10 10 10 10 10 10 10 10 10 10 10 10 10 10 10 10 10 10 10 10 10 10 10 10 10 10 10 10 10 10 10 10 10 10 10 10 10 10 10 10 10 10 10 10 10 10 10 10 10 10 10 10 10 10 10 10 10 10 10 10 10 10 10 10 10 10 10 10 10 10 10 10 10 10 10 10 10 10 10 10 10 10 10 10 10 10 10 10 10 10 10 10 10 10 10 10 10 10 10 10 10 10 10 10 10 10 10 10 10 10 10 10 10 10 10 10 10 10 10 10 10 10 10 10 10 10 10 10 10 10 10 10 10 10 10 10 10 10 10 10 10 10 10 10 10 10 10 10 10 10 10 10 10 10 10 10 10 10 10 10 10 10 10 10 10 10 10 10 10 10 10 10 10 10 10 10 10 10 10 10 10 10 10 10 10 10 10 10 10 10 10 10 10 10 10 10 10 10 10 10 10 10 10 10 10 10 10 10 10 10 10 10 10 10 10 10 10 10 10 10 10 10 10 10 10 10 10 10 10 10 10 10 10 10 10 10 10 10 10 10 10 10 10 10 10 10 10 10 10 10 10 10 10 10 10 10 10 10 10 10 10 10 10 10 10 10 10 10 10 10 10 10 10 10 10 10 10 10 10 10 10 10 10 10 10 10 10 10 10 10 10 10 10 10 10 10 10 10 10 10 10 10 10 10 10 10 10 10 10 10 10 10 10 10 10 10 10 10 10 10 10 10 10 10 10 10 10 10 10 10 10 10 10 10 10 10 10 10 10 10 10 10 10 10 10 10 10 10 10 10 10 10 10 10 10 10 10 10 10 10 10 10 10 10 10 10 10 10 10 10 10 10 10 10 10 10 10 10 10 10 10 10 10 10 10 10 10 10 10 10 10 10 10 10 10 10 10 10 10 10 10 10 10 10 10 10 10 10 10 10 10 10 10 10 10 10 10 10 10 10 10 10 10 10 10 10 10 10 10 10 10 10 10 10 10 10 10 10 10 10 10 10 10 10 10 10 10 10 10 10 10 10 10 10 10 10 10 10 10 10 10 10 10 10 10 10 10 10 10 10 10 10 10 10 10 10 10 10 10 10 10 10 10 10 10 10 10 10 10 10 10 10 10 10 10 10 10 10 10 10 10 10 10 10 10 10 10 10 10 10 10 10 10 10 10 10 10 10 10 10 10 10 10 10 10 10 10 10 10 10 10 10 10 10 10 10 10 10 10 10 10 10 10 10 10 10 10 10 10 10 10 10 10 10 10 10 10 10 10 10 10 10 10 10 10 10 10 10 10 10 10 10 10 10 10 10 10 10 10 10 10 10 10 10 10 10 10 10 10 10 10 10 10 10 10 10 10 10 10 10 10 10 10 10 10 10 10 10 10 10 10 10 10 10 10 10 10 10 10 10 10 10 10 10 10 10 10 10 10 10 10 10 10 10 10 10 10 10 10 10 10 10 10 10 10 10 10 10 10 10 10 10 10 10 10 10 10 10 10 10 10 10 10 10 10 10 10 10 10 10 10 10 10 10 10 10 10 10 10 10 10 10 10 10 10 10 10 10 10 10 10 10 10 10 10 10 10 10 10 10 10 10 10 10 10 10 10 10 10 10 10 10 10 10 10 10 10 10 10 10 10 10 10 10 10 10 10 10 10 10 10 10 10 10 10 10 10 10 10 10 10 10 10 10 10 10 10 10 10 10 10 10 10 10 10 10 10 10 10 10 10 10 10 10 10 10 10 10 10 10 10 10 10 10 10 10 10 10 10 10 10 10 10 10 10 10 10 10 10 10 10 10 10 10 10 10 10 10 10 10 10 10 10 10 10 10 10 10 10 10 10 10 10 10 10 10 10 10 10 10 10 10 10 10 10 10 10 10 10 10 10 10 10 10 10 10 10 10 10 10 10 10 10 10 10 10 10 10 10 10 10 10 10 10 10 10 10 10 10 10 10 10 10 10 10 10 10 10 10 10 10 10 10 10 10 10 10 10 10 10 10 10 10 10 10 10 10 10 10 10 10 10 10 10 10 10 10 10 10 10 10 10 10 10 10 10 10 10 10 10 10 10 10 10 10 10 10 10 10 10 10 10 10 10 10 10 10 10 10 10 10 10 10 10 10 10 10 10 10 10 10 10 10 10 10 10 10 10 10 10 10 10 10 10 10 10 10 10 10 10 10 10 10 10 10 10 10 10 10 10 10 10 10 10 10 10 10 10 10 10 10 10 10 10 10 10 10 10 10 10 10 10 10 10 10 10 10 10 10 10 10 10 10 10 10 10 10 10 10 10 10 10 10 10 10 10 10 10 10 10 10 10 10 10 10 10 10 10 10 10 10 10 10 10 10 10 10 10 10 10 10 10 10 10 10 10 10 10 10 10 10 10 10 10 10 10 10 10 10 10 10 10 10 10 10 10 10 10 10 10 10 10 10 10 10 10 10 10 10 10 10 10 10 10 10 10 10 10 10 10 10 10 10 10 10 10 10 10 10 10 10 10 10 10 10 10 10 10 10 10 10 10 10 10 10 10 10 10 10 10 10 10 10 10 10 10 10 10 10 10 10 10 10 10 10 10 10 10 10 10 10 10 10 10 10 10 10 10 10 10 10 10 10 10 10 10 10 10 10 10 10 10 10 10 10 10 10 10 10 10 10 10 10 10 10 10 10 10 10 10 10 10 10 10 10 10 10 10 10 10 10 10 10 10 10 10 10 10 10 10 10 10 10 10 10 10 10 10 10 10 10 10 10 10 10 10 10 10 10 10 10 10 10 10 10 10 10 10 10 10 10 10 10 10 10 10 10 10 10 10 10 10 10 10 10 10 10 10 10 10 10 10 10 10 10 10 10 10 10 10 10 10 10 10 10 10 10 10 10 10 10 10 10 10 10 10 10 10 10 10 10 10 10 10 10 10 10 10 10 10 10 10 10 10 10 10 10 10 10 10 10 10 10 10 10 10 10 10 10 10 10 10 10 10 10 10 10 10 10 10 10 10 10 10 10 10 10 10 10 10 10 10 10 10 10 10 10 10 10 10 10 10 10 10 10 10 10 10 10 10 10 10 10 10 10 10 10 10 10 10 10 10 10 10 10 10 10 10 10 10 10 10 10 10 10 10 10 10 10 10 10 10 10 10 10 10 10 10 10 10 10 10 10 10 10 10 10 10 10 10 10 10 10 10 10 10 10 10 10 10 10 10 10 10 10 10 10 10 10 10 10 10 10 10 10 10 10 10 10 10 10 10 10 10 10 10 10 10 10 10 10 10 10 10 10 10 10 10 10 10 10 10 10 10 10 10 10 10 10 10 10 10 10 10 10 10 10 10 10 10 10 10 10 10 10 10 10 10 10 10 10 10 10 10 10 10 10 10 10 10 10 10 10 10 10 10 10 10 10 10 10 10 

POINT_DATA 2673
SCALARS weights float 1
LOOKUP_TABLE default
0.488281 0.651042 0.651042 0.651042 0.651042 0.651042 0.651042 0.651042 0.651042 0.651042 0.651042 0.651042 0.651042 0.651042 0.651042 0.651042 0.651042 0.651042 0.651042 0.651042 0.651042 0.651042 0.651042 0.651042 0.651042 0.651042 0.651042 0.651042 0.651042 0.651042 0.651042 0.651042 0.16276 0.651042 0.976562 0.976562 0.976562 0.976562 0.976562 0.976562 0.976562 0.976562 0.976562 0.976562 0.976562 0.976562 0.976562 0.976562 0.976562 0.976562 0.976562 0.976562 0.976562 0.976562 0.976562 0.976562 0.976562 0.976562 0.976562 0.976562 0.976562 0.976562 0.976562 0.976562 0.976562 0.325521 0.651042 0.976562 0.976562 0.976562 0.976562 0.976562 0.976562 0.976562 0.976562 0.976562 0.976562 0.976562 0.976562 0.976562 0.976562 0.976562 0.976562 0.976562 0.976562 0.976562 0.976562 0.976562 0.976562 0.976562 0.976562 0.976562 0.976562 0.976562 0.976562 0.976562 0.976562 0.976562 0.325521 0.651042 0.976562 0.976562 0.976562 0.976562 0.976562 0.976562 0.976562 0.976562 0.976562 0.976562 0.976562 0.976562 0.976562 0.976562 0.976562 0.976562 0.976562 0.976562 0.976562 0.976562 0.976562 0.976562 0.976562 0.976562 0.976562 0.976562 0.976562 0.976562 0.976562 0.976562 0.976562 0.325521 0.651042 0.976562 0.976562 0.976562 0.976562 0.976562 0.976562 0.976562 0.976562 0.976562 0.976562 0.976562 0.976562 0.976562 0.976562 0.976562 0.976562 0.976562 0.976562 0.976562 0.976562 0.976562 0.976562 0.976562 0.976562 0.976562 0.976562 0.976562 0.976562 0.976562 0.976562 0.976562 0.325521 0.651042 0.976562 0.976562 0.976562 0.976562 0.976562 0.976562 0.976562 0.976562 0.976562 0.976562 0.976562 0.976562 0.976562 0.976562 0.976562 0.976562 0.976562 0.976562 0.976562 0.976562 0.976562 0.976562 0.976562 0.976562 0.976562 0.976562 0.976562 0.976562 0.976562 0.976562 0.976562 0.325521 0.651042 0.976562 0.976562 0.976562 0.976562 0.976562 0.976562 0.976562 0.976562 0.976562 0.976562 0.976562 0.976562 0.976562 0.976562 0.976562 0.976562 0.976562 0.976562 0.976562 0.976562 0.976562 0.976562 0.976562 0.976562 0.976562 0.976562 0.976562 0.976562 0.976562 0.976562 0.976562 0.325521 0.651042 0.976562 0.976562 0.976562 0.976562 0.976562 0.976562 0.976562 0.976562 0.976562 0.976562 0.976562 0.976562 0.976562 0.976562 0.976562 0.976562 0.976562 0.976562 0.976562 0.976562 0.976562 0.976562 0.976562 0.976562 0.976562 0.976562 0.976562 0.976562 0.976562 0.976562 0.976562 0.325521 0.16276 0.325521 0.325521 0.325521 0.325521 0.325521 0.325521 0.325521 0.325521 0.325521 0.325521 0.325521 0.325521 0.325521 0.325521 0.325521 0.325521 0.325521 0.325521 0.325521 0.325521 0.325521 0.325521 0.325521 0.325521 0.325521 0.325521 0.325521 0.325521 0.325521 0.325521 0.325521 0.16276 0.651042 0.976562 0.976562 0.976562 0.976562 0.976562 0.976562 0.976562 0.976562 0.976562 0.976562 0.976562 0.976562 0.976562 0.976562 0.976562 0.976562 0.976562 0.976562 0.976562 0.976562 0.976562 0.976562 0.976562 0.976562 0.976562 0.976562 0.976562 0.976562 0.976562 0.976562 0.976562 0.325521 0.976562 1.95313 1.95313 1.95313 1.95313 1.95313 1.95313 1.95313 1.95313 1.95313 1.95313 1.95313 1.95313 1.95313 1.95313 1.95313 1.95313 1.95313 1.95313 1.95313 1.95313 1.95313 1.95313 1.95313 1.95313 1.95313 1.95313 1.95313 1.95313 1.95313 1.95313 1.95313 0.976562 0.976562 1.95313 1.95313 1.95313 1.95313 1.95313 1.95313 1.95313 1.95313 1.95313 1.95313 1.95313 1.95313 1.95313 1.95313 1.95313 1.95313 1.95313 1.95313 1.95313 1.95313 1.95313 1.95313 1.95313 1.95313 1.95313 1.95313 1.95313 1.95313 1.95313 1.95313 1.95313 0.976562 0.976562 1.95313 1.95313 1.95313 1.95313 1.95313 1.95313 1.95313 1.95313 1.95313 1.95313 1.95313 1.95313 1.95313 1.95313 1.95313 1.95313 1.95313 1.95313 1.95313 1.95313 1.95313 1.95313 1.95313 1.95313 1.95313 1.95313 1.95313 1.95313 1.95313 1.95313 1.95313 0.976562 0.976562 1.95313 1.95313 1.95313 1.95313 1.95313 1.95313 1.95313 1.95313 1.95313 1.95313 1.95313 1.95313 1.95313 1.95313 1.95313 1.95313 1.95313 1.95313 1.95313 1.95313 1.95313 1.95313 1.95313 1.95313 1.95313 1.95313 1.95313 1.95313 1.95313 1.95313 1.95313 0.976562 0.976562 1.95313 1.95313 1.95313 1.95313 1.95313 1.95313 1.95313 1.95313 1.95313 1.95313 1.95313 1.95313 1.95313 1.95313 1.95313 1.95313 1.95313 1.95313 1.95313 1.95313 1.95313 1.95313 1.95313 1.95313 1.95313 1.95313 1.95313 1.95313 1.95313 1.95313 1.95313 0.976562 0.976562 1.95313 1.95313 1.95313 1.95313 1.95313 1.95313 1.95313 1.95313 1.95313 1.95313 1.95313 1.95313 1.95313 1.95313 1.95313 1.95313 1.95313 1.95313 1.95313 1.95313 1.95313 1.95313 1.95313 1.95313 1.95313 1.95313 1.95313 1.95313 1.95313 1.95313 1.95313 0.976562 0.976562 1.95313 1.95313 1.95313 1.95313 1.95313 1.95313 1.95313 1.95313 1.95313 1.95313 1.95313 1.95313 1.95313 1.95313 1.95313 1.95313 1.95313 1.95313 1.95313 1.95313 1.95313 1.95313 1.95313 1.95313 1.95313 1.95313 1.95313 1.95313 1.95313 1.95313 1.95313 0.976562 0.325521 0.976562 0.976562 0.976562 0.976562 0.976562 0.976562 0.976562 0.976562 0.976562 0.976562 0.976562 0.976562 0.976562 0.976562 0.976562 0.976562 0.976562 0.976562 0.976562 0.976562 0.976562 0.976562 0.976562 0.976562 0.976562 0.976562 0.976562 0.976562 0.976562 0.976562 0.976562 0.651042 0.651042 0.976562 0.976562 0.976562 0.976562 0.976562 0.976562 0.976562 0.976562 0.976562 0.976562 0.976562 0.976562 0.976562 0.976562 0.976562 0.976562 0.976562 0.976562 0.976562 0.976562 0.976562 0.976562 0.976562 0.976562 0.976562 0.976562 0.976562 0.976562 0.976562 0.976562 0.976562 0.325521 0.976562 1.95313 1.95313 1.95313 1.95313 1.95313 1.95313 1.95313 1.95313 1.95313 1.95313 1.95313 1.95313 1.95313 1.95313 1.95313 1.95313 1.95313 1.95313 1.95313 1.95313 1.95313 1.95313 1.95313 1.95313 1.95313 1.95313 1.95313 1.95313 1.95313 1.95313 1.95313 0.976562 0.976562 1.95313 1.95313 1.95313 1.95313 1.95313 1.95313 1.95313 1.95313 1.95313 1.95313 1.95313 1.95313 1.95313 1.95313 1.95313 1.95313 1.95313 1.95313 1.95313 1.95313 1.95313 1.95313 1.95313 1.95313 1.95313 1.95313 1.95313 1.95313 1.95313 1.95313 1.95313 0.976562 0.976562 1.95313 1.95313 1.95313 1.95313 1.95313 1.95313 1.95313 1.95313 1.95313 1.95313 1.95313 1.95313 1.95313 1.95313 1.95313 1.95313 1.95313 1.95313 1.95313 1.95313 1.95313 1.95313 1.95313 1.95313 1.95313 1.95313 1.95313 1.95313 1.95313 1.95313 1.95313 0.976562 0.976562 1.95313 1.95313 1.95313 1.95313 1.95313 1.95313 1.95313 1.95313 1.95313 1.95313 1.95313 1.95313 1.95313 1.95313 1.95313 1.95313 1.95313 1.95313 1.95313 1.95313 1.95313 1.95313 1.95313 1.95313 1.95313 1.95313 1.95313 1.95313 1.95313 1.95313 1.95313 0.976562 0.976562 1.95313 1.95313 1.95313 1.95313 1.95313 1.95313 1.95313 1.95313 1.95313 1.95313 1.95313 1.95313 1.95313 1.95313 1.95313 1.95313 1.95313 1.95313 1.95313 1.95313 1.95313 1.95313 1.95313 1.95313 1.95313 1.95313 1.95313 1.95313 1.95313 1.95313 1.95313 0.976562 0.976562 1.95313 1.95313 1.95313 1.95313 1.95313 1.95313 1.95313 1.95313 1.95313 1.95313 1.95313 1.95313 1.95313 1.95313 1.95313 1.95313 1.95313 1.95313 1.95313 1.95313 1.95313 1.95313 1.95313 1.95313 1.95313 1.95313 1.95313 1.95313 1.95313 1.95313 1.95313 0.976562 0.976562 1.95313 1.95313 1.95313 1.95313 1.95313 1.95313 1.95313 1.95313 1.95313 1.95313 1.95313 1.95313 1.95313 1.95313 1.95313 1.95313 1.95313 1.95313 1.95313 1.95313 1.95313 1.95313 1.95313 1.95313 1.95313 1.95313 1.95313 1.95313 1.95313 1.95313 1.95313 0.976562 0.325521 0.976562 0.976562 0.976562 0.976562 0.976562 0.976562 0.976562 0.976562 0.976562 0.976562 0.976562 0.976562 0.976562 0.976562 0.976562 0.976562 0.976562 0.976562 0.976562 0.976562 0.976562 0.976562 0.976562 0.976562 0.976562 0.976562 0.976562 0.976562 0.976562 0.976562 0.976562 0.651042 0.651042 0.976562 0.976562 0.976562 0.976562 0.976562 0.976562 0.976562 0.976562 0.976562 0.976562 0.976562 0.976562 0.976562 0.976562 0.976562 0.976562 0.976562 0.976562 0.976562 0.976562 0.976562 0.976562 0.976562 0.976562 0.976562 0.976562 0.976562 0.976562 0.976562 0.976562 0.976562 0.325521 0.976562 1.95313 1.95313 1.95313 1.95313 1.95313 1.95313 1.95313 1.95313 1.95313 1.95313 1.95313 1.95313 1.95313 1.95313 1.95313 1.95313 1.95313 1.95313 1.95313 1.95313 1.95313 1.95313 1.95313 1.95313 1.95313 1.95313 1.95313 1.95313 1.95313 1.95313 1.95313 0.976562 0.976562 1.95313 1.95313 1.95313 1.95313 1.95313 1.95313 1.95313 1.95313 1.95313 1.95313 1.95313 1.95313 1.95313 1.95313 1.95313 1.95313 1.95313 1.95313 1.95313 1.95313 1.95313 1.95313 1.95313 1.95313 1.95313 1.95313 1.95313 1.95313 1.95313 1.95313 1.95313 0.976562 0.976562 1.95313 1.95313 1.95313 1.95313 1.95313 1.95313 1.95313 1.95313 1.95313 1.95313 1.95313 1.95313 1.95313 1.95313 1.95313 1.95313 1.95313 1.95313 1.95313 1.95313 1.95313 1.95313 1.95313 1.95313 1.95313 1.95313 1.95313 1.95313 1.95313 1.95313 1.95313 0.976562 0.976562 1.95313 1.95313 1.95313 1.95313 1.95313 1.95313 1.95313 1.95313 1.95313 1.95313 1.95313 1.95313 1.95313 1.95313 1.95313 1.95313 1.95313 1.95313 1.95313 1.95313 1.95313 1.95313 1.95313 1.95313 1.95313 1.95313 1.95313 1.95313 1.95313 1.95313 1.95313 0.976562 0.976562 1.95313 1.95313 1.95313 1.95313 1.95313 1.95313 1.95313 1.95313 1.95313 1.95313 1.95313 1.95313 1.95313 1.95313 1.95313 1.95313 1.95313 1.95313 1.95313 1.95313 1.95313 1.95313 1.95313 1.95313 1.95313 1.95313 1.95313 1.95313 1.95313 1.95313 1.95313 0.976562 0.976562 1.95313 1.95313 1.95313 1.95313 1.95313 1.95313 1.95313 1.95313 1.95313 1.95313 1.95313 1.95313 1.95313 1.95313 1.95313 1.95313 1.95313 1.95313 1.95313 1.95313 1.95313 1.95313 1.95313 1.95313 1.95313 1.95313 1.95313 1.95313 1.95313 1.95313 1.95313 0.976562 0.976562 1.95313 1.95313 1.95313 1.95313 1.95313 1.95313 1.95313 1.95313 1.95313 1.95313 1.95313 1.95313 1.95313 1.95313 1.95313 1.95313 1.95313 1.95313 1.95313 1.95313 1.95313 1.95313 1.95313 1.95313 1.95313 1.95313 1.95313 1.95313 1.95313 1.95313 1.95313 0.976562 0.325521 0.976562 0.976562 0.976562 0.976562 0.976562 0.976562 0.976562 0.976562 0.976562 0.976562 0.976562 0.976562 0.976562 0.976562 0.976562 0.976562 0.976562 0.976562 0.976562 0.976562 0.976562 0.976562 0.976562 0.976562 0.976562 0.976562 0.976562 0.976562 0.976562 0.976562 0.976562 0.651042 0.651042 0.976562 0.976562 0.976562 0.976562 0.976562 0.976562 0.976562 0.976562 0.976562 0.976562 0.976562 0.976562 0.976562 0.976562 0.976562 0.976562 0.976562 0.976562 0.976562 0.976562 0.976562 0.976562 0.976562 0.976562 0.976562 0.976562 0.976562 0.976562 0.976562 0.976562 0.976562 0.325521 0.976562 1.95313 1.95313 1.95313 1.95313 1.95313 1.95313 1.95313 1.95313 1.95313 1.95313 1.95313 1.95313 1.95313 1.95313 1.95313 1.95313 1.95313 1.95313 1.95313 1.95313 1.95313 1.95313 1.95313 1.95313 1.95313 1.95313 1.95313 1.95313 1.95313 1.95313 1.95313 0.976562 0.976562 1.95313 1.95313 1.95313 1.95313 1.95313 1.95313 1.95313 1.95313 1.95313 1.95313 1.95313 1.95313 1.95313 1.95313 1.95313 1.95313 1.95313 1.95313 1.95313 1.95313 1.95313 1.95313 1.95313 1.95313 1.95313 1.95313 1.95313 1.95313 1.95313 1.95313 1.95313 0.976562 0.976562 1.95313 1.95313 1.95313 1.95313 1.95313 1.95313 1.95313 1.95313 1.95313 1.95313 1.95313 1.95313 1.95313 1.95313 1.95313 1.95313 1.95313 1.95313 1.95313 1.95313 1.95313 1.95313 1.95313 1.95313 1.95313 1.95313 1.95313 1.95313 1.95313 1.95313 1.95313 0.976562 0.976562 1.95313 1.95313 1.95313 1.95313 1.95313 1.95313 1.95313 1.95313 1.95313 1.95313 1.95313 1.95313 1.95313 1.95313 1.95313 1.95313 1.95313 1.95313 1.95313 1.95313 1.95313 1.95313 1.95313 1.95313 1.95313 1.95313 1.95313 1.95313 1.95313 1.95313 1.95313 0.976562 0.976562 1.95313 1.95313 1.95313 1.95313 1.95313 1.95313 1.95313 1.95313 1.95313 1.95313 1.95313 1.95313 1.95313 1.95313 1.95313 1.95313 1.95313 1.95313 1.95313 1.95313 1.95313 1.95313 1.95313 1.95313 1.95313 1.95313 1.95313 1.95313 1.95313 1.95313 1.95313 0.976562 0.976562 1.95313 1.95313 1.95313 1.95313 1.95313 1.95313 1.95313 1.95313 1.95313 1.95313 1.95313 1.95313 1.95313 1.95313 1.95313 1.95313 1.95313 1.95313 1.95313 1.95313 1.95313 1.95313 1.95313 1.95313 1.95313 1.95313 1.95313 1.95313 1.95313 1.95313 1.95313 0.976562 0.976562 1.95313 1.95313 1.95313 1.95313 1.95313 1.95313 1.95313 1.95313 1.95313 1.95313 1.95313 1.95313 1.95313 1.95313 1.95313 1.95313 1.95313 1.95313 1.95313 1.95313 1.95313 1.95313 1.95313 1.95313 1.95313 1.95313 1.95313 1.95313 1.95313 1.95313 1.95313 0.976562 0.325521 0.976562 0.976562 0.976562 0.976562 0.976562 0.976562 0.976562 0.976562 0.976562 0.976562 0.976562 0.976562 0.976562 0.976562 0.976562 0.976562 0.976562 0.976562 0.976562 0.976562 0.976562 0.976562 0.976562 0.976562 0.976562 0.976562 0.976562 0.976562 0.976562 0.976562 0.976562 0.651042 0.651042 0.976562 0.976562 0.976562 0.976562 0.976562 0.976562 0.976562 0.976562 0.976562 0.976562 0.976562 0.976562 0.976562 0.976562 0.976562 0.976562 0.976562 0.976562 0.976562 0.976562 0.976562 0.976562 0.976562 0.976562 0.976562 0.976562 0.976562 0.976562 0.976562 0.976562 0.976562 0.325521 0.976562 1.95313 1.95313 1.95313 1.95313 1.95313 1.95313 1.95313 1.95313 1.95313 1.95313 1.95313 1.95313 1.95313 1.95313 1.95313 1.95313 1.95313 1.95313 1.95313 1.95313 1.95313 1.95313 1.95313 1.95313 1.95313 1.95313 1.95313 1.95313 1.95313 1.95313 1.95313 0.976562 0.976562 1.95313 1.95313 1.95313 1.95313 1.95313 1.95313 1.95313 1.95313 1.95313 1.95313 1.95313 1.95313 1.95313 1.95313 1.95313 1.95313 1.95313 1.95313 1.95313 1.95313 1.95313 1.95313 1.95313 1.95313 1.95313 1.95313 1.95313 1.95313 1.95313 1.95313 1.95313 0.976562 0.976562 1.95313 1.95313 1.95313 1.95313 1.95313 1.95313 1.95313 1.95313 1.95313 1.95313 1.95313 1.95313 1.95313 1.95313 1.95313 1.95313 1.95313 1.95313 1.95313 1.95313 1.95313 1.95313 1.95313 1.95313 1.95313 1.95313 1.95313 1.95313 1.95313 1.95313 1.95313 0.976562 0.976562 1.95313 1.95313 1.95313 1.95313 1.95313 1.95313 1.95313 1.95313 1.95313 1.95313 1.95313 1.95313 1.95313 1.95313 1.95313 1.95313 1.95313 1.95313 1.95313 1.95313 1.95313 1.95313 1.95313 1.95313 1.95313 1.95313 1.95313 1.95313 1.95313 1.95313 1.95313 0.976562 0.976562 1.95313 1.95313 1.95313 1.95313 1.95313 1.95313 1.95313 1.95313 1.95313 1.95313 1.95313 1.95313 1.95313 1.95313 1.95313 1.95313 1.95313 1.95313 1.95313 1.95313 1.95313 1.95313 1.95313 1.95313 1.95313 1.95313 1.95313 1.95313 1.95313 1.95313 1.95313 0.976562 0.976562 1.95313 1.95313 1.95313 1.95313 1.95313 1.95313 1.95313 1.95313 1.95313 1.95313 1.95313 1.95313 1.95313 1.95313 1.95313 1.95313 1.95313 1.95313 1.95313 1.95313 1.95313 1.95313 1.95313 1.95313 1.95313 1.95313 1.95313 1.95313 1.95313 1.95313 1.95313 0.976562 0.976562 1.95313 1.95313 1.95313 1.95313 1.95313 1.95313 1.95313 1.95313 1.95313 1.95313 1.95313 1.95313 1.95313 1.95313 1.95313 1.95313 1.95313 1.95313 1.95313 1.95313 1.95313 1.95313 1.95313 1.95313 1.95313 1.95313 1.95313 1.95313 1.95313 1.95313 1.95313 0.976562 0.325521 0.976562 0.976562 0.976562 0.976562 0.976562 0.976562 0.976562 0.976562 0.976562 0.976562 0.976562 0.976562 0.976562 0.976562 0.976562 0.976562 0.976562 0.976562 0.976562 0.976562 0.976562 0.976562 0.976562 0.976562 0.976562 0.976562 0.976562 0.976562 0.976562 0.976562 0.976562 0.651042 0.651042 0.976562 0.976562 0.976562 0.976562 0.976562 0.976562 0.976562 0.976562 0.976562 0.976562 0.976562 0.976562 0.976562 0.976562 0.976562 0.976562 0.976562 0.976562 0.976562 0.976562 0.976562 0.976562 0.976562 0.976562 0.976562 0.976562 0.976562 0.976562 0.976562 0.976562 0.976562 0.325521 0.976562 1.95313 1.95313 1.95313 1.95313 1.95313 1.95313 1.95313 1.95313 1.95313 1.95313 1.95313 1.95313 1.95313 1.95313 1.95313 1.95313 1.95313 1.95313 1.95313 1.95313 1.95313 1.95313 1.95313 1.95313 1.95313 1.95313 1.95313 1.95313 1.95313 1.95313 1.95313 0.976562 0.976562 1.95313 1.95313 1.95313 1.95313 1.95313 1.95313 1.95313 1.95313 1.95313 1.95313 1.95313 1.95313 1.95313 1.95313 1.95313 1.95313 1.95313 1.95313 1.95313 1.95313 1.95313 1.95313 1.95313 1.95313 1.95313 1.95313 1.95313 1.95313 1.95313 1.95313 1.95313 0.976562 0.976562 1.95313 1.95313 1.95313 1.95313 1.95313 1.95313 1.95313 1.95313 1.95313 1.95313 1.95313 1.95313 1.95313 1.95313 1.95313 1.95313 1.95313 1.95313 1.95313 1.95313 1.95313 1.95313 1.95313 1.95313 1.95313 1.95313 1.95313 1.95313 1.95313 1.95313 1.95313 0.976562 0.976562 1.95313 1.95313 1.95313 1.95313 1.95313 1.95313 1.95313 1.95313 1.95313 1.95313 1.95313 1.95313 1.95313 1.95313 1.95313 1.95313 1.95313 1.95313 1.95313 1.95313 1.95313 1.95313 1.95313 1.95313 1.95313 1.95313 1.95313 1.95313 1.95313 1.95313 1.95313 0.976562 0.976562 1.95313 1.95313 1.95313 1.95313 1.95313 1.95313 1.95313 1.95313 1.95313 1.95313 1.95313 1.95313 1.95313 1.95313 1.95313 1.95313 1.95313 1.95313 1.95313 1.95313 1.95313 1.95313 1.95313 1.95313 1.95313 1.95313 1.95313 1.95313 1.95313 1.95313 1.95313 0.976562 0.976562 1.95313 1.95313 1.95313 1.95313 1.95313 1.95313 1.95313 1.95313 1.95313 1.95313 1.95313 1.95313 1.95313 1.95313 1.95313 1.95313 1.95313 1.95313 1.95313 1.95313 1.95313 1.95313 1.95313 1.95313 1.95313 1.95313 1.95313 1.95313 1.95313 1.95313 1.95313 0.976562 0.976562 1.95313 1.95313 1.95313 1.95313 1.95313 1.95313 1.95313 1.95313 1.95313 1.95313 1.95313 1.95313 1.95313 1.95313 1.95313 1.95313 1.95313 1.95313 1.95313 1.95313 1.95313 1.95313 1.95313 1.95313 1.95313 1.95313 1.95313 1.95313 1.95313 1.95313 1.95313 0.976562 0.325521 0.976562 0.976562 0.976562 0.976562 0.976562 0.976562 0.976562 0.976562 0.976562 0.976562 0.976562 0.976562 0.976562 0.976562 0.976562 0.976562 0.976562 0.976562 0.976562 0.976562 0.976562 0.976562 0.976562 0.976562 0.976562 0.976562 0.976562 0.976562 0.976562 0.976562 0.976562 0.651042 0.651042 0.976563 0.976563 0.976563 0.976563 0.976563 0.976563 0.976563 0.976563 0.976563 0.976563 0.976563 0.976563 0.976563 0.976563 0.976563 0.976563 0.976563 0.976563 0.976563 0.976563 0.976563 0.976563 0.976563 0.976563 0.976563 0.976563 0.976563 0.976563 0.976563 0.976563 0.976563 0.325521 0.976563 1.95313 1.95313 1.95313 1.95313 1.95313 1.95313 1.95313 1.95313 1.95313 1.95313 1.95313 1.95313 1.95313 1.95313 1.95313 1.95313 1.95313 1.95313 1.95313 1.95313 1.95313 1.95313 1.95313 1.95313 1.95313 1.95313 1.95313 1.95313 1.95313 1.95313 1.95313 0.976563 0.976563 1.95313 1.95313 1.95313 1.95313 1.95313 1.95313 1.95313 1.95313 1.95313 1.95313 1.95313 1.95313 1.95313 1.95313 1.95313 1.95313 1.95313 1.95313 1.95313 1.95313 1.95313 1.95313 1.95313 1.95313 1.95313 1.95313 1.95313 1.95313 1.95313 1.95313 1.95313 0.976563 0.976563 1.95313 1.95313 1.95313 1.95313 1.95313 1.95313 1.95313 1.95313 1.95313 1.95313 1.95313 1.95313 1.95313 1.95313 1.95313 1.95313 1.95313 1.95313 1.95313 1.95313 1.95313 1.95313 1.95313 1.95313 1.95313 1.95313 1.95313 1.95313 1.95313 1.95313 1.95313 0.976563 0.976563 1.95313 1.95313 1.95313 1.95313 1.95313 1.95313 1.95313 1.95313 1.95313 1.95313 1.95313 1.95313 1.95313 1.95313 1.95313 1.95313 1.95313 1.95313 1.95313 1.95313 1.95313 1.95313 1.95313 1.95313 1.95313 1.95313 1.95313 1.95313 1.95313 1.95313 1.95313 0.976563 0.976563 1.95313 1.95313 1.95313 1.95313 1.95313 1.95313 1.95313 1.95313 1.95313 1.95313 1.95313 1.95313 1.95313 1.95313 1.95313 1.95313 1.95313 1.95313 1.95313 1.95313 1.95313 1.95313 1.95313 1.95313 1.95313 1.95313 1.95313 1.95313 1.95313 1.95313 1.95313 0.976563 0.976563 1.95313 1.95313 1.95313 1.95313 1.95313 1.95313 1.95313 1.95313 1.95313 1.95313 1.95313 1.95313 1.95313 1.95313 1.95313 1.95313 1.95313 1.95313 1.95313 1.95313 1.95313 1.95313 1.95313 1.95313 1.95313 1.95313 1.95313 1.95313 1.95313 1.95313 1.95313 0.976563 0.976563 1.95313 1.95313 1.95313 1.95313 1.95313 1.95313 1.95313 1.95313 1.95313 1.95313 1.95313 1.95313 1.95313 1.95313 1.95313 1.95313 1.95313 1.95313 1.95313 1.95313 1.95313 1.95313 1.95313 1.95313 1.95313 1.95313 1.95313 1.95313 1.95313 1.95313 1.95313 0.976563 0.325521 0.976563 0.976563 0.976563 0.976563 0.976563 0.976563 0.976563 0.976563 0.976563 0.976563 0.976563 0.976563 0.976563 0.976563 0.976563 0.976563 0.976563 0.976563 0.976563 0.976563 0.976563 0.976563 0.976563 0.976563 0.976563 0.976563 0.976563 0.976563 0.976563 0.976563 0.976563 0.651042 0.16276 0.325521 0.325521 0.325521 0.325521 0.325521 0.325521 0.325521 0.325521 0.325521 0.325521 0.325521 0.325521 0.325521 0.325521 0.325521 0.325521 0.325521 0.325521 0.325521 0.325521 0.325521 0.325521 0.325521 0.325521 0.325521 0.325521 0.325521 0.325521 0.325521 0.325521 0.325521 0.16276 0.325521 0.976563 0.976563 0.976563 0.976563 0.976563 0.976563 0.976563 0.976563 0.976563 0.976563 0.976563 0.976563 0.976563 0.976563 0.976563 0.976563 0.976563 0.976563 0.976563 0.976563 0.976563 0.976563 0.976563 0.976563 0.976563 0.976563 0.976563 0.976563 0.976563 0.976563 0.976563 0.651042 0.325521 0.976563 0.976563 0.976563 0.976563 0.976563 0.976563 0.976563 0.976563 0.976563 0.976563 0.976563 0.976563 0.976563 0.976563 0.976563 0.976563 0.976563 0.976563 0.976563 0.976563 0.976563 0.976563 0.976563 0.976563 0.976563 0.976563 0.976563 0.976563 0.976563 0.976563 0.976563 0.651042 0.325521 0.976563 0.976563 0.976563 0.976563 0.976563 0.976563 0.976563 0.976563 0.976563 0.976563 0.976563 0.976563 0.976563 0.976563 0.976563 0.976563 0.976563 0.976563 0.976563 0.976563 0.976563 0.976563 0.976563 0.976563 0.976563 0.976563 0.976563 0.976563 0.976563 0.976563 0.976563 0.651042 0.325521 0.976563 0.976563 0.976563 0.976563 0.976563 0.976563 0.976563 0.976563 0.976563 0.976563 0.976563 0.976563 0.976563 0.976563 0.976563 0.976563 0.976563 0.976563 0.976563 0.976563 0.976563 0.976563 0.976563 0.976563 0.976563 0.976563 0.976563 0.976563 0.976563 0.976563 0.976563 0.651042 0.325521 0.976563 0.976563 0.976563 0.976563 0.976563 0.976563 0.976563 0.976563 0.976563 0.976563 0.976563 0.976563 0.976563 0.976563 0.976563 0.976563 0.976563 0.976563 0.976563 0.976563 0.976563 0.976563 0.976563 0.976563 0.976563 0.976563 0.976563 0.976563 0.976563 0.976563 0.976563 0.651042 0.325521 0.976563 0.976563 0.976563 0.976563 0.976563 0.976563 0.976563 0.976563 0.976563 0.976563 0.976563 0.976563 0.976563 0.976563 0.976563 0.976563 0.976563 0.976563 0.976563 0.976563 0.976563 0.976563 0.976563 0.976563 0.976563 0.976563 0.976563 0.976563 0.976563 0.976563 0.976563 0.651042 0.325521 0.976563 0.976563 0.976563 0.976563 0.976563 0.976563 0.976563 0.976563 0.976563 0.976563 0.976563 0.976563 0.976563 0.976563 0.976563 0.976563 0.976563 0.976563 0.976563 0.976563 0.976563 0.976563 0.976563 0.976563 0.976563 0.976563 0.976563 0.976563 0.976563 0.976563 0.976563 0.651042 0.16276 0.651042 0.651042 0.651042 0.651042 0.651042 0.651042 0.651042 0.651042 0.651042 0.651042 0.651042 0.651042 0.651042 0.651042 0.651042 0.651042 0.651042 0.651042 0.651042 0.651042 0.651042 0.651042 0.651042 0.651042 0.651042 0.651042 0.651042 0.651042 0.651042 0.651042 0.651042 0.488281 
VECTORS u float
0 0 -2.98023e-08  -0.00448047 -0.00281875 -0.00398055  -0.00827844 -0.00522695 -0.00526226  -0.0118529 -0.0085523 -0.00562182  -0.0152941 -0.0128992 -0.00552043  -0.0186153 -0.0182075 -0.0051547  -0.0218118 -0.0244024 -0.00463077  -0.0248746 -0.0314066 -0.00400451  -0.0277992 -0.0391515 -0.00331083  -0.0305809 -0.0475742 -0.00257167  -0.0332141 -0.0566123 -0.00179839  -0.0357025 -0.0662092 -0.00100362  -0.0380471 -0.0763123 -0.000190914  -0.0402513 -0.0868728 0.000633687  -0.0423199 -0.097839 0.0014689  -0.044258 -0.109172 0.00230896  -0.046069 -0.120826 0.00315112  -0.0477602 -0.13276 0.00399914  -0.0493348 -0.144934 0.00484559  -0.0508032 -0.157317 0.00568688  -0.0521648 -0.16987 0.00652587  -0.0534298 -0.182566 0.00735795  -0.054605 -0.195374 0.00817937  -0.0556948 -0.20827 0.00899318  -0.0567055 -0.221224 0.00979614  -0.057646 -0.234221 0.0105892  -0.0585232 -0.247236 0.0113668  -0.0593452 -0.260256 0.0121334  -0.060117 -0.273265 0.0128824  -0.0608516 -0.286252 0.0136167  -0.061552 -0.299206 0.0143416  -0.0622325 -0.312122 0.0150564  -0.0629041 -0.325 0.0157681  0 0 -2.98023e-08  -0.00262791 -0.00117668 -0.00346255  -0.0054041 -0.00363141 -0.00416595  -0.00803795 -0.00706847 -0.00432944  -0.0105759 -0.0115304 -0.00417447  -0.0130381 -0.0169571 -0.00382751  -0.0154244 -0.0232742 -0.00335574  -0.0177293 -0.0304032 -0.00279951  -0.0199509 -0.0382743 -0.00218415  -0.0220851 -0.0468213 -0.00152555  -0.0241271 -0.0559826 -0.000834227  -0.0260777 -0.0657009 -0.00011614  -0.0279365 -0.0759204 0.000621229  -0.0297028 -0.0865897 0.00137517  -0.0313807 -0.0976628 0.00214133  -0.0329701 -0.109095 0.0029195  -0.0344765 -0.120841 0.00370288  -0.0359013 -0.132861 0.00449169  -0.0372484 -0.145116 0.0052855  -0.0385191 -0.157569 0.00608066  -0.0397191 -0.170191 0.00687128  -0.0408502 -0.182946 0.00766078  -0.0419168 -0.195808 0.00844678  -0.0429232 -0.208747 0.00922662  -0.0438733 -0.221744 0.0100006  -0.0447726 -0.234774 0.0107641  -0.0456257 -0.24782 0.0115208  -0.046437 -0.260865 0.0122667  -0.0472088 -0.273894 0.0130022  -0.0479486 -0.286895 0.0137273  -0.0486588 -0.299859 0.0144454  -0.0493481 -0.31278 0.0151579  -0.0500252 -0.325654 0.0158675  0 0 -2.98023e-08  -0.00153271 -0.000380784 -0.00219363  -0.0030835 -0.00250565 -0.00283861  -0.00473672 -0.00598815 -0.00284857  -0.00637704 -0.0105393 -0.00265637  -0.00799048 -0.0160616 -0.00233704  -0.00957447 -0.0224765 -0.00192761  -0.0111233 -0.0297044 -0.00145078  -0.0126351 -0.0376748 -0.000923991  -0.0141085 -0.0463202 -0.000355184  -0.0155426 -0.0555796 0.000246972  -0.0169343 -0.0653947 0.000877619  -0.0182825 -0.0757058 0.00153208  -0.019588 -0.0864666 0.00220609  -0.0208493 -0.0976235 0.00289801  -0.0220684 -0.109136 0.00360224  -0.0232457 -0.120957 0.00431907  -0.0243804 -0.133047 0.00504491  -0.0254717 -0.145365 0.00578073  -0.0265231 -0.157879 0.00651765  -0.0275359 -0.170554 0.00725883  -0.0285094 -0.183358 0.00800186  -0.0294468 -0.196263 0.00874308  -0.0303469 -0.209241 0.00948605  -0.0312123 -0.222272 0.0102251  -0.0320485 -0.235331 0.0109573  -0.0328526 -0.248402 0.0116866  -0.0336292 -0.261467 0.012412  -0.0343814 -0.274513 0.0131305  -0.0351095 -0.28753 0.013842  -0.035815 -0.300503 0.0145497  -0.0365024 -0.313428 0.0152567  -0.0371783 -0.326298 0.0159644  0 0 -2.98023e-08  -0.000596546 -2.43783e-05 -0.000942945  -0.00117199 -0.00196055 -0.00126928  -0.00182754 -0.00537151 -0.00125802  -0.00255501 -0.00996226 -0.0010629  -0.00331062 -0.0155502 -0.000783861  -0.00408238 -0.022037 -0.000443459  -0.0048663 -0.02934 -5.21243e-05  -0.00565952 -0.0373853 0.000383079  -0.00646174 -0.0461049 0.000860363  -0.00727391 -0.0554371 0.00136805  -0.00809288 -0.0653239 0.00190964  -0.00891829 -0.0757061 0.00247693  -0.00974727 -0.0865335 0.00306937  -0.0105785 -0.0977548 0.00368255  -0.0114111 -0.109327 0.00431353  -0.012243 -0.121205 0.00496015  -0.0130711 -0.133346 0.00562003  -0.0138941 -0.145714 0.006293  -0.0147128 -0.158273 0.0069738  -0.015523 -0.170988 0.00766188  -0.0163243 -0.183829 0.00835654  -0.0171154 -0.196765 0.00905561  -0.017895 -0.209772 0.00975645  -0.0186632 -0.222828 0.0104586  -0.0194187 -0.235909 0.0111622  -0.0201631 -0.248998 0.0118631  -0.0208938 -0.262079 0.012565  -0.0216119 -0.275139 0.013263  -0.0223169 -0.288166 0.0139596  -0.0230103 -0.301148 0.0146551  -0.0236905 -0.314078 0.0153502  -0.0243592 -0.326945 0.0160464  0 0 -2.98023e-08  0.000292659 2.02656e-05 0.000277698  0.000602156 -0.00186941 0.000321329  0.000863463 -0.00524026 0.000413477  0.00104773 -0.00982493 0.000576943  0.00115883 -0.0154428 0.000798911  0.00120872 -0.0219742 0.00106305  0.00119966 -0.0293258 0.00136441  0.00113451 -0.0374219 0.00170699  0.00100994 -0.046192 0.00208673  0.000828505 -0.055574 0.00250325  0.000589967 -0.0655079 0.00295228  0.000296712 -0.0759372 0.00343353  -4.81606e-05 -0.08681 0.00394127  -0.00044167 -0.0980752 0.0044755  -0.000877619 -0.109687 0.00503296  -0.00135612 -0.121602 0.00560912  -0.00187063 -0.13378 0.00620317  -0.0024178 -0.14618 0.0068123  -0.0029912 -0.158767 0.00743648  -0.00359154 -0.171508 0.00807092  -0.00421381 -0.184373 0.00871655  -0.00485158 -0.19733 0.00937119  -0.0055027 -0.210357 0.0100316  -0.0061655 -0.223427 0.010697  -0.00683475 -0.236521 0.0113688  -0.00751066 -0.24962 0.0120437  -0.0081892 -0.26271 0.0127207  -0.00886989 -0.275779 0.0133993  -0.0095489 -0.288812 0.014079  -0.0102262 -0.3018 0.0147576  -0.0108976 -0.314735 0.0154398  -0.0115571 -0.327602 0.0161234  0 0 -2.98023e-08  0.0011919 -0.000217855 0.00146616  0.00237265 -0.00217903 0.00188547  0.00352234 -0.00555444 0.00208494  0.00459826 -0.0101298 0.00223351  0.00557899 -0.0157515 0.00238913  0.00645763 -0.0222976 0.0025689  0.00723267 -0.0296713 0.0027799  0.00790012 -0.0377931 0.00302505  0.00845885 -0.0465898 0.00330833  0.00891054 -0.0559981 0.00363186  0.00925493 -0.0659571 0.00399056  0.00949574 -0.0764102 0.00438446  0.00963652 -0.087306 0.00481039  0.00968456 -0.0985935 0.00526604  0.00964296 -0.110227 0.00574782  0.00952029 -0.122162 0.00625461  0.00932097 -0.134355 0.00678298  0.00905228 -0.146771 0.0073317  0.00872087 -0.159372 0.00789759  0.00833154 -0.172126 0.00847861  0.00789285 -0.185 0.00907448  0.00740981 -0.197965 0.00968653  0.00688624 -0.210999 0.0103068  0.00633097 -0.224074 0.0109358  0.00574636 -0.237174 0.0115753  0.00513983 -0.250276 0.0122237  0.00451565 -0.263367 0.0128775  0.00387526 -0.276437 0.0135353  0.00322342 -0.289471 0.0141987  0.00256324 -0.302463 0.0148632  0.00190234 -0.315402 0.015531  0.00124836 -0.328275 0.016201  0 0 -2.98023e-08  0.00215079 -0.000771403 0.00262055  0.00424415 -0.00288665 0.00340325  0.00629529 -0.00629473 0.00371909  0.00826311 -0.0108645 0.0038653  0.0101144 -0.0164737 0.00395989  0.0118272 -0.0230108 0.00405326  0.0133878 -0.0303828 0.00416973  0.014792 -0.038505 0.00431931  0.0160341 -0.047303 0.00450796  0.0171168 -0.0567139 0.00473741  0.0180426 -0.0666738 0.00500873  0.0188142 -0.0771286 0.00531766  0.0194371 -0.0880269 0.00566345  0.0199205 -0.0993158 0.00604162  0.0202695 -0.11095 0.00644982  0.0204952 -0.122885 0.00688896  0.0206063 -0.135078 0.00735232  0.0206106 -0.147493 0.00784054  0.0205166 -0.160092 0.00835022  0.0203328 -0.172842 0.00888065  0.0200694 -0.185712 0.00943023  0.0197341 -0.198674 0.00999576  0.0193348 -0.211704 0.0105756  0.0188811 -0.224774 0.0111705  0.0183766 -0.237869 0.0117773  0.0178347 -0.250966 0.0123999  0.0172572 -0.264053 0.0130298  0.0166528 -0.277117 0.0136707  0.0160239 -0.290147 0.0143167  0.0153792 -0.303135 0.0149676  0.0147231 -0.316077 0.0156242  0.014071 -0.32896 0.0162808  0 0 -2.98023e-08  0.00324373 -0.00172174 0.00376874  0.0063206 -0.00401735 0.00488248  0.00931391 -0.00746143 0.00529706  0.0121982 -0.0120198 0.00543693  0.0149336 -0.0176029 0.00547141  0.0174881 -0.0241123 0.00548059  0.0198399 -0.0314582 0.0055047  0.0219799 -0.0395563 0.00556156  0.0239021 -0.0483316 0.00565812  0.0256085 -0.0577207 0.00580004  0.0271043 -0.06766 0.00598609  0.0283954 -0.0780948 0.00621271  0.029489 -0.088972 0.00648156  0.0303946 -0.100243 0.00678638  0.0311239 -0.111858 0.00712466  0.031687 -0.123774 0.00749779  0.0320952 -0.135949 0.0078997  0.0323589 -0.148344 0.00833067  0.0324903 -0.160925 0.00878772  0.0325 -0.173656 0.00926787  0.0323989 -0.18651 0.00977015  0.0321982 -0.199454 0.0102938  0.0319099 -0.212466 0.0108368  0.0315447 -0.22552 0.0113966  0.0311103 -0.238602 0.0119755  0.0306172 -0.251686 0.0125684  0.030076 -0.26476 0.0131782  0.0294933 -0.277813 0.0137992  0.0288811 -0.290834 0.014434  0.0282438 -0.303814 0.0150747  0.0275912 -0.316756 0.0157221  0.0269318 -0.329654 0.0163705  0 0 -2.98023e-08  0.00432074 -0.00320393 0.00514734  0.00857949 -0.00568616 0.00633314  0.0126648 -0.00913608 0.00674716  0.0165612 -0.0136575 0.00684693  0.0202374 -0.0191899 0.00681764  0.0236597 -0.0256454 0.00674781  0.0268134 -0.032935 0.00669158  0.0296847 -0.0409825 0.0066652  0.0322741 -0.0497068 0.0066818  0.0345893 -0.0590463 0.00674769  0.0366375 -0.068939 0.00686002  0.038426 -0.0793296 0.00701636  0.0399718 -0.0901622 0.00721452  0.0412763 -0.101392 0.00745699  0.0423622 -0.112964 0.0077343  0.0432408 -0.12484 0.00804844  0.0439246 -0.136976 0.00839457  0.0444262 -0.149333 0.00877541  0.0447593 -0.161877 0.00918436  0.04494 -0.174573 0.00961998  0.0449824 -0.187392 0.0100817  0.0448966 -0.200304 0.0105703  0.0446975 -0.213286 0.0110784  0.0443964 -0.226314 0.011605  0.044008 -0.239369 0.0121578  0.0435426 -0.252428 0.0127261  0.0430171 -0.265483 0.0133164  0.0424402 -0.278518 0.0139236  0.0418191 -0.291525 0.0145451  0.0411768 -0.304495 0.0151828  0.0405147 -0.317433 0.0158277  0.0398459 -0.330338 0.0164742  0 0 -2.98023e-08  -0.00389513 -0.0037254 -0.00255266  -0.00789993 -0.00634249 -0.00384092  -0.011731 -0.00979883 -0.00425249  -0.015397 -0.0141747 -0.00420877  -0.0188985 -0.019453 -0.00390881  -0.0222338 -0.0255867 -0.00345421  -0.0254022 -0.0325139 -0.00290304  -0.0284072 -0.0401766 -0.00228611  -0.0312473 -0.0485155 -0.00162372  -0.0339286 -0.0574714 -0.00093019  -0.0364496 -0.0669902 -0.000210017  -0.0388196 -0.0770191 0.000529885  -0.0410442 -0.0875072 0.00128344  -0.0431278 -0.0984091 0.00205064  -0.0450748 -0.109679 0.0028286  -0.0468923 -0.121273 0.0036124  -0.0485868 -0.133154 0.00440159  -0.0501623 -0.145277 0.00519422  -0.0516262 -0.157613 0.00598723  -0.0529861 -0.170125 0.00677919  -0.0542452 -0.182781 0.00757024  -0.0554135 -0.195553 0.00835252  -0.0564942 -0.208416 0.00913304  -0.0574968 -0.221342 0.00990576  -0.0584283 -0.234315 0.0106704  -0.0592961 -0.247311 0.0114256  -0.0601094 -0.260316 0.0121711  -0.0608726 -0.273311 0.0129065  -0.0615954 -0.286287 0.0136304  -0.0622914 -0.299235 0.0143461  -0.0629683 -0.312148 0.0150547  -0.0636373 -0.325026 0.0157616  0 0 -2.98023e-08  -0.00160025 -0.0016298 -0.00196189  -0.00491865 -0.00461527 -0.00300723  -0.00789902 -0.00824562 -0.00327066  -0.0106884 -0.012759 -0.00317213  -0.0133364 -0.0181701 -0.00287452  -0.0158602 -0.0244348 -0.00245315  -0.0182696 -0.0314955 -0.00195274  -0.0205668 -0.039288 -0.00139382  -0.0227565 -0.0477556 -0.000792086  -0.024841 -0.0568375 -0.000159293  -0.0268224 -0.0664793 0.000501633  -0.028705 -0.076626 0.00118327  -0.0304888 -0.0872268 0.00188237  -0.0321791 -0.0982339 0.00259733  -0.0337777 -0.109604 0.0033257  -0.0352893 -0.121293 0.00406182  -0.0367162 -0.133259 0.00480747  -0.0380635 -0.145463 0.00555968  -0.0393322 -0.15787 0.00631621  -0.0405285 -0.170448 0.00707299  -0.0416551 -0.183166 0.00782961  -0.0427155 -0.19599 0.00858542  -0.043714 -0.2089 0.0093379  -0.0446563 -0.221868 0.0100876  -0.045547 -0.234875 0.0108308  -0.0463896 -0.247901 0.0115697  -0.0471902 -0.260929 0.0123007  -0.0479534 -0.273943 0.0130231  -0.0486858 -0.286935 0.0137397  -0.0493922 -0.299891 0.0144488  -0.0500786 -0.312809 0.0151555  -0.0507534 -0.325686 0.015862  0 0 -2.98023e-08  -0.000851065 -0.000930637 -0.00126165  -0.00272599 -0.00346784 -0.0021134  -0.00467464 -0.00716393 -0.00220698  -0.00652704 -0.0117816 -0.00205219  -0.00829482 -0.0172974 -0.00176054  -0.00999337 -0.0236662 -0.00137901  -0.0116301 -0.0308291 -0.000934839  -0.0132096 -0.0387234 -0.000440478  -0.0147344 -0.0472905 9.42945e-05  -0.0162081 -0.0564699 0.000661314  -0.0176301 -0.0662061 0.00125748  -0.0190023 -0.0764444 0.00187761  -0.0203269 -0.0871331 0.00251845  -0.0216027 -0.0982238 0.00317806  -0.022832 -0.109672 0.00385296  -0.0240163 -0.121433 0.00454021  -0.0251551 -0.133468 0.00523898  -0.0262504 -0.145734 0.0059478  -0.0273027 -0.158199 0.00666234  -0.0283139 -0.170829 0.00738269  -0.0292847 -0.183593 0.00810489  -0.0302176 -0.19646 0.00882909  -0.031112 -0.209406 0.00955427  -0.0319722 -0.222407 0.0102788  -0.0328004 -0.235442 0.0109994  -0.0335989 -0.24849 0.0117178  -0.0343688 -0.261536 0.012434  -0.0351145 -0.274569 0.0131443  -0.0358362 -0.287572 0.0138501  -0.0365386 -0.300538 0.0145522  -0.0372238 -0.313459 0.0152541  -0.037899 -0.326334 0.0159581  0 0 -2.98023e-08  -0.000280619 -0.00063473 -0.000543207  -0.00104915 -0.00296393 -0.000988662  -0.00187388 -0.00655612 -0.00101772  -0.00274852 -0.0112164 -0.000841826  -0.00361747 -0.016802 -0.000572443  -0.00447673 -0.023247 -0.000240594  -0.00532919 -0.0304857 0.000141263  -0.0061788 -0.0384569 0.000564784  -0.00702751 -0.0470999 0.00102916  -0.00787532 -0.0563511 0.00152567  -0.00872588 -0.0661597 0.00205302  -0.00957549 -0.0764667 0.00260821  -0.0104247 -0.0872214 0.00318745  -0.011273 -0.098375 0.00378785  -0.0121187 -0.109883 0.00440714  -0.0129597 -0.121699 0.00504264  -0.0137961 -0.133784 0.00569224  -0.0146255 -0.146098 0.00635445  -0.0154464 -0.158606 0.00702634  -0.0162585 -0.171275 0.00770748  -0.0170598 -0.184075 0.00839332  -0.0178497 -0.196973 0.00908592  -0.0186276 -0.209947 0.00978073  -0.0193932 -0.222972 0.0104771  -0.0201457 -0.236027 0.0111746  -0.0208855 -0.249092 0.0118733  -0.0216119 -0.262154 0.012571  -0.0223262 -0.275197 0.0132678  -0.0230289 -0.288212 0.0139624  -0.0237195 -0.301185 0.0146549  -0.024399 -0.31411 0.0153477  -0.025069 -0.326981 0.0160426  0 0 -2.98023e-08  0.000251085 -0.000624388 0.000162572  0.000483125 -0.00290677 0.000169635  0.000682145 -0.00644696 0.000256598  0.000801742 -0.0110894 0.000423491  0.000849307 -0.0167048 0.00065273  0.000842273 -0.0231944 0.000926107  0.000784278 -0.0304828 0.00123763  0.000673532 -0.0385058 0.00158939  0.000510931 -0.0471992 0.00197855  0.000295162 -0.0565006 0.0024035  2.68221e-05 -0.0663569 0.00286111  -0.000292659 -0.076711 0.00334972  -0.000659823 -0.0875106 0.00386524  -0.00107145 -0.098707 0.0044058  -0.00152528 -0.110254 0.00496981  -0.00201595 -0.122108 0.00555232  -0.00254154 -0.134227 0.00615224  -0.00309753 -0.146573 0.00676751  -0.0036788 -0.159109 0.0073964  -0.00428391 -0.171804 0.00803635  -0.00490952 -0.184626 0.00868621  -0.00554991 -0.197545 0.00934476  -0.00620317 -0.210535 0.0100097  -0.00686574 -0.223575 0.0106797  -0.00753617 -0.236643 0.0113525  -0.00821018 -0.249719 0.0120313  -0.00888801 -0.262789 0.0127105  -0.00956678 -0.27584 0.0133924  -0.0102446 -0.288861 0.0140736  -0.0109184 -0.301838 0.0147561  -0.0115883 -0.314768 0.0154398  -0.0122507 -0.327638 0.0161232  0 0 -2.98023e-08  0.00079222 -0.000889003 0.000846118  0.00201085 -0.00324458 0.00130937  0.00320011 -0.0067836 0.00153574  0.00429058 -0.0114086 0.00170711  0.00526178 -0.0170199 0.00188714  0.00611687 -0.0235234 0.00209305  0.00686157 -0.0308344 0.00233161  0.00749683 -0.0388829 0.00260827  0.00802386 -0.0476021 0.00292227  0.00844407 -0.0569303 0.0032756  0.00876033 -0.0668116 0.00366482  0.00897384 -0.0771904 0.00408736  0.0090915 -0.0880133 0.00454038  0.00911736 -0.0992315 0.00502196  0.00905752 -0.1108 0.00552872  0.00891805 -0.122672 0.00605902  0.00870442 -0.134807 0.00660962  0.00842333 -0.147169 0.00717974  0.00808144 -0.159719 0.00776517  0.00768423 -0.172425 0.00836539  0.00723791 -0.185256 0.0089784  0.00674772 -0.198184 0.0096035  0.00622082 -0.21118 0.0102386  0.0056603 -0.224226 0.0108803  0.00507307 -0.237297 0.0115309  0.0044651 -0.250376 0.0121896  0.0038383 -0.263449 0.0128508  0.00319743 -0.2765 0.0135173  0.00254512 -0.289521 0.0141874  0.00188684 -0.302501 0.0148587  0.00122619 -0.315434 0.0155305  0.000569344 -0.328311 0.0162039  0 0 -2.98023e-08  0.00138398 -0.00148064 0.0014998  0.00363609 -0.00399059 0.00240913  0.00582874 -0.00755394 0.00278014  0.0078854 -0.0121645 0.00296581  0.00978041 -0.0177542 0.00310054  0.0115037 -0.0242432 0.00323841  0.0130557 -0.0315492 0.00340334  0.0144401 -0.0395958 0.0036042  0.0156569 -0.0483174 0.00384557  0.016712 -0.0576483 0.004127  0.017609 -0.0675313 0.00444856  0.0183526 -0.0779117 0.00480655  0.0189497 -0.0887371 0.00520003  0.0194091 -0.0999573 0.00562361  0.0197387 -0.111526 0.00607648  0.0199456 -0.123398 0.00655469  0.0200396 -0.135533 0.00705808  0.0200284 -0.147893 0.00758243  0.0199206 -0.160441 0.00812614  0.0197265 -0.173144 0.00868812  0.0194523 -0.185971 0.00926566  0.0191081 -0.198894 0.00985777  0.0187011 -0.211887 0.0104628  0.0182397 -0.224926 0.0110788  0.01773 -0.237992 0.0117058  0.0171814 -0.251067 0.0123436  0.0166011 -0.264132 0.0129897  0.0159919 -0.27718 0.0136415  0.015363 -0.290197 0.0142999  0.0147188 -0.303174 0.0149605  0.0140641 -0.316109 0.0156239  0.013411 -0.328995 0.0162874  0 0 -2.98023e-08  0.00205125 -0.00252354 0.00211868  0.00545615 -0.00519872 0.0034636  0.00870112 -0.00877732 0.00396553  0.0117454 -0.0133593 0.00416434  0.0145704 -0.0189099 0.0042567  0.0171647 -0.0253606 0.00433102  0.0195263 -0.0326333 0.00442529  0.021656 -0.0406538 0.00455469  0.0235595 -0.0493501 0.00472599  0.0252411 -0.0586596 0.00494158  0.0267092 -0.0685217 0.00519881  0.0279726 -0.0788808 0.00549662  0.0290405 -0.089686 0.0058322  0.0299218 -0.100887 0.00620142  0.0306294 -0.112436 0.00660196  0.0311716 -0.12429 0.00703222  0.0315602 -0.136406 0.00748846  0.0318077 -0.148746 0.00797138  0.0319233 -0.161277 0.00847471  0.0319197 -0.173961 0.00899932  0.0318069 -0.18677 0.00954264  0.0315967 -0.199676 0.0101045  0.0313001 -0.212652 0.0106808  0.0309241 -0.225676 0.0112706  0.0304825 -0.238726 0.0118766  0.0299819 -0.251787 0.0124937  0.029434 -0.264841 0.0131233  0.0288482 -0.277877 0.0137622  0.0282314 -0.290884 0.0144107  0.0275939 -0.303857 0.0150633  0.0269423 -0.31679 0.0157207  0.0262842 -0.329688 0.016378  0 0 -2.98023e-08  0.00258878 -0.00425959 0.00274459  0.00749174 -0.00695175 0.00451714  0.011913 -0.0104967 0.0050841  0.0160052 -0.0150188 0.00526714  0.0197885 -0.0205027 0.00531378  0.0232648 -0.0268894 0.00532955  0.0264347 -0.0341011 0.00536069  0.0293037 -0.0420669 0.00542685  0.0318793 -0.050711 0.00553665  0.0341744 -0.0599723 0.00569355  0.0361974 -0.0697883 0.00589395  0.0379647 -0.080104 0.00613841  0.0394847 -0.0908662 0.00641894  0.0407703 -0.102026 0.00673997  0.0418371 -0.113536 0.00709358  0.0426989 -0.125349 0.00747791  0.0433667 -0.137428 0.00789359  0.0438523 -0.149731 0.00833493  0.0441737 -0.162225 0.00880206  0.0443447 -0.174875 0.00929284  0.0443764 -0.187651 0.00980496  0.0442815 -0.200526 0.0103395  0.0440753 -0.213472 0.0108874  0.0437682 -0.226467 0.0114555  0.0433755 -0.239491 0.0120412  0.0429056 -0.25253 0.0126386  0.0423722 -0.265563 0.0132528  0.0417926 -0.278583 0.0138808  0.0411725 -0.291577 0.0145192  0.0405285 -0.30454 0.0151683  0.0398672 -0.317472 0.0158223  0.0392027 -0.330376 0.0164768  0 0 0  -0.00394187 -0.00418442 -0.00161822  -0.00783743 -0.00722753 -0.00247565  -0.0117319 -0.0107608 -0.00283113  -0.0155008 -0.0151544 -0.00281587  -0.019107 -0.0204142 -0.00257929  -0.0225373 -0.0265077 -0.00220247  -0.0257881 -0.033381 -0.0017342  -0.0288599 -0.0409829 -0.0012037  -0.0317562 -0.0492599 -0.000627875  -0.0344808 -0.0581542 -1.71214e-05  -0.0370405 -0.0676123 0.000620112  -0.0394419 -0.0775833 0.00128134  -0.0416917 -0.0880185 0.00196105  -0.0437953 -0.0988674 0.00265919  -0.0457596 -0.110088 0.00336747  -0.0475907 -0.121637 0.00408958  -0.0492949 -0.133473 0.00481959  -0.0508809 -0.14556 0.00555599  -0.0523505 -0.157857 0.00629763  -0.0537136 -0.170335 0.00704244  -0.0549767 -0.182961 0.00778839  -0.0561445 -0.195705 0.00853311  -0.0572267 -0.208542 0.0092773  -0.0582278 -0.221449 0.0100186  -0.0591583 -0.2344 0.0107559  -0.0600243 -0.24738 0.0114883  -0.0608335 -0.260369 0.0122151  -0.061595 -0.273355 0.0129327  -0.0623167 -0.286324 0.0136452  -0.0630116 -0.299267 0.0143522  -0.0636895 -0.312181 0.0150529  -0.0643575 -0.32506 0.015756  0 0 0  -0.00155418 -0.00200442 -0.00122593  -0.00470579 -0.00534941 -0.00185172  -0.00782526 -0.00910372 -0.00212274  -0.0107679 -0.0136683 -0.00207515  -0.0135488 -0.0190812 -0.00183991  -0.0161809 -0.0253185 -0.00148469  -0.018677 -0.0323333 -0.00105067  -0.0210443 -0.0400728 -0.000560567  -0.0232897 -0.0484834 -2.54214e-05  -0.0254178 -0.0575071 0.000543296  -0.0274367 -0.0670915 0.00114028  -0.0293468 -0.0771819 0.00176252  -0.031154 -0.0877306 0.00240481  -0.0328645 -0.0986883 0.00306511  -0.0344793 -0.110011 0.00374126  -0.0360017 -0.121653 0.00443041  -0.0374382 -0.133577 0.00513011  -0.0387926 -0.145744 0.00583898  -0.0400672 -0.158115 0.00655523  -0.0412667 -0.170661 0.00727603  -0.0423934 -0.183346 0.00799967  -0.0434532 -0.196144 0.00872514  -0.0444517 -0.209029 0.00944939  -0.0453918 -0.221976 0.0101757  -0.0462787 -0.234963 0.0108981  -0.0471184 -0.247973 0.0116177  -0.0479157 -0.260986 0.0123338  -0.048677 -0.273991 0.013044  -0.0494065 -0.286974 0.0137512  -0.0501103 -0.299926 0.0144528  -0.050796 -0.312842 0.0151542  -0.0514705 -0.325722 0.0158556  0 0 0  -0.000852324 -0.00127456 -0.000796154  -0.00247471 -0.00400183 -0.00123131  -0.00460938 -0.00791176 -0.00140925  -0.00662249 -0.0126209 -0.00131546  -0.00851876 -0.0181595 -0.00107341  -0.0103195 -0.0245145 -0.000739112  -0.0120363 -0.0316403 -0.000339761  -0.01368 -0.0394879 0.000109613  -0.0152558 -0.0480024 0.000600219  -0.0167707 -0.0571273 0.00112469  -0.0182276 -0.066809 0.001679  -0.0196276 -0.0769925 0.00226013  -0.0209764 -0.0876312 0.00286247  -0.0222714 -0.0986739 0.00348555  -0.0235152 -0.110075 0.00412667  -0.024712 -0.121792 0.00478239  -0.025862 -0.133785 0.00545067  -0.0269635 -0.146013 0.00613184  -0.0280232 -0.158443 0.00682001  -0.0290377 -0.171041 0.00751607  -0.0300105 -0.183775 0.00821574  -0.0309439 -0.196615 0.00892112  -0.0318391 -0.209536 0.00962786  -0.0326986 -0.222516 0.0103355  -0.0335245 -0.235532 0.0110425  -0.0343199 -0.248564 0.0117489  -0.0350871 -0.261598 0.0124556  -0.0358295 -0.274618 0.0131583  -0.0365503 -0.287614 0.0138568  -0.0372508 -0.300575 0.0145552  -0.0379364 -0.313495 0.0152517  -0.0386117 -0.326372 0.0159508  0 0 0  -0.000303715 -0.000978738 -0.000365242  -0.000938341 -0.00348142 -0.00056611  -0.00188351 -0.00725961 -0.000648558  -0.0028868 -0.0120253 -0.000511482  -0.00385988 -0.0176465 -0.000270188  -0.00480253 -0.0240848 3.85791e-05  -0.00572276 -0.0312939 0.000399098  -0.00662678 -0.0392207 0.000803977  -0.00752187 -0.0478138 0.00124739  -0.0084095 -0.0570131 0.00172493  -0.00929189 -0.0667668 0.00223427  -0.0101694 -0.0770208 0.00277193  -0.011042 -0.0877249 0.00333411  -0.0119098 -0.098831 0.00391851  -0.0127712 -0.110291 0.00452332  -0.0136267 -0.122064 0.005144  -0.0144742 -0.134108 0.00578125  -0.0153134 -0.146384 0.00643024  -0.0161417 -0.158856 0.00709073  -0.0169597 -0.171493 0.00776079  -0.017766 -0.184262 0.00843801  -0.0185573 -0.197132 0.00912182  -0.0193369 -0.210082 0.00980912  -0.0201027 -0.223085 0.010499  -0.0208552 -0.23612 0.0111905  -0.0215936 -0.24917 0.0118844  -0.0223186 -0.262217 0.0125786  -0.0230315 -0.27525 0.0132712  -0.0237327 -0.288255 0.0139638  -0.0244226 -0.301224 0.0146551  -0.0251026 -0.314148 0.0153456  -0.0257726 -0.327021 0.0160384  0 0 0  0.000200331 -0.000974029 6.62953e-05  0.000437409 -0.00343361 0.000124484  0.000555247 -0.00714698 0.000185519  0.000602007 -0.0118856 0.000343308  0.000581384 -0.0175399 0.000569984  0.000515163 -0.0240268 0.000843838  0.000405669 -0.0312879 0.00115968  0.000250697 -0.0392693 0.00151637  4.79221e-05 -0.0479143 0.00190973  -0.000202894 -0.0571652 0.00233896  -0.000501752 -0.0669682 0.00280112  -0.000848055 -0.0772697 0.00329448  -0.00123787 -0.0880186 0.00381453  -0.00167036 -0.0991671 0.00435932  -0.00214219 -0.110668 0.00492619  -0.00264955 -0.122478 0.0055124  -0.00318789 -0.134556 0.00611719  -0.00375462 -0.146863 0.00673543  -0.00434589 -0.159364 0.00736688  -0.00495839 -0.172025 0.00801042  -0.00558877 -0.184816 0.00866428  -0.00623512 -0.197708 0.00932467  -0.00689149 -0.210674 0.00999172  -0.00755739 -0.223692 0.0106641  -0.00822854 -0.236739 0.0113399  -0.00890398 -0.249799 0.0120206  -0.00958085 -0.262854 0.0127028  -0.0102592 -0.275894 0.0133851  -0.0109358 -0.288905 0.0140688  -0.0116098 -0.301878 0.0147533  -0.0122805 -0.314805 0.0154385  -0.0129435 -0.32768 0.0161235  0 0 0  0.000710785 -0.00124735 0.000487015  0.00180584 -0.00379276 0.000811815  0.00295091 -0.00749755 0.00102983  0.00401509 -0.0122116 0.00121838  0.00496 -0.0178552 0.00142139  0.00578398 -0.024354 0.00165386  0.0064953 -0.0316377 0.0019204  0.00709856 -0.0396449 0.00222607  0.00759363 -0.0483164 0.00256893  0.00798261 -0.0575945 0.00295022  0.00826919 -0.0674235 0.00336578  0.00845659 -0.0777506 0.00381422  0.00855064 -0.0885231 0.00429288  0.00855446 -0.099694 0.00479829  0.00847507 -0.111214 0.00532737  0.00831842 -0.123043 0.00587946  0.00808954 -0.135139 0.00645155  0.00779581 -0.147461 0.00703913  0.007442 -0.159976 0.0076433  0.00703597 -0.172648 0.0082601  0.00658298 -0.185449 0.00888874  0.00608611 -0.198348 0.00952783  0.00555396 -0.211321 0.0101756  0.00498939 -0.224343 0.0108297  0.0043993 -0.237394 0.0114904  0.00378704 -0.250458 0.0121558  0.00315881 -0.263515 0.0128267  0.00251603 -0.276555 0.0134998  0.00186396 -0.289568 0.0141761  0.00120568 -0.302542 0.0148524  0.00054574 -0.315472 0.0155292  -0.000110388 -0.328352 0.016206  0 0 0  0.00126895 -0.00185025 0.000889748  0.00327352 -0.00457865 0.00147408  0.00545979 -0.00830126 0.00184919  0.00753659 -0.0129875 0.002075  0.00944084 -0.0186005 0.00225738  0.0111602 -0.0250793 0.00244655  0.0126971 -0.0323534 0.00266345  0.0140585 -0.0403584 0.0029172  0.0152498 -0.0490306 0.00321202  0.0162779 -0.058311 0.00354478  0.0171468 -0.0681422 0.00391608  0.0178653 -0.0784709 0.00432183  0.018438 -0.0892459 0.00475997  0.0188751 -0.100418 0.00522749  0.0191846 -0.11194 0.00572121  0.0193741 -0.123769 0.00623883  0.0194509 -0.135864 0.00677799  0.0194252 -0.148185 0.00733709  0.0193057 -0.160697 0.00791408  0.0191004 -0.173367 0.00850591  0.0188169 -0.186164 0.0091103  0.0184646 -0.199059 0.00972728  0.0180509 -0.212026 0.0103559  0.0175836 -0.225045 0.0109922  0.0170705 -0.23809 0.0116379  0.0165162 -0.251148 0.0122903  0.015933 -0.2642 0.0129496  0.0153227 -0.277235 0.0136141  0.0146921 -0.290243 0.0142814  0.0140467 -0.303215 0.0149509  0.0133927 -0.316147 0.0156222  0.0127392 -0.329036 0.0162917  0 0 0  0.00190711 -0.00290239 0.00127323  0.0049302 -0.0058682 0.00209329  0.00821793 -0.00958592 0.00261818  0.0113268 -0.0142218 0.00288045  0.0141924 -0.0197792 0.00304437  0.0168033 -0.0262089 0.00319573  0.0191614 -0.0334438 0.0033665  0.0212767 -0.0414177 0.00357378  0.0231583 -0.0500622 0.00382151  0.0248164 -0.0593188 0.00411159  0.0262589 -0.0691288 0.0044411  0.0274968 -0.0794364 0.00480768  0.02854 -0.0901914 0.00520739  0.029399 -0.101344 0.00563897  0.0300858 -0.112848 0.00609863  0.0306096 -0.124657 0.00658393  0.0309825 -0.136734 0.00709407  0.031215 -0.149037 0.00762482  0.0313182 -0.16153 0.00817525  0.0313034 -0.174183 0.00874278  0.0311811 -0.186961 0.00932483  0.0309618 -0.19984 0.00992133  0.0306566 -0.21279 0.0105309  0.0302763 -0.225791 0.0111522  0.0298276 -0.238822 0.0117823  0.0293236 -0.251867 0.0124231  0.0287731 -0.264907 0.0130718  0.0281856 -0.27793 0.013726  0.0275676 -0.29093 0.0143883  0.0269289 -0.303896 0.0150515  0.0262778 -0.316827 0.015718  0.0256205 -0.329727 0.0163839  0 0 0  0.00254451 -0.00461012 0.00167084  0.006809 -0.00779992 0.002644  0.0113578 -0.011402 0.00332053  0.015546 -0.0159343 0.0036113  0.0193812 -0.0213987 0.00375919  0.0228758 -0.0277484 0.00387815  0.0260439 -0.0349127 0.0040109  0.0288978 -0.0428251 0.00417846  0.0314528 -0.0514159 0.00438638  0.0337229 -0.0606233 0.00463893  0.0357221 -0.0703864 0.0049316  0.0374624 -0.0806506 0.00526223  0.0389605 -0.0913625 0.00562903  0.0402259 -0.102474 0.00602834  0.0412732 -0.113938 0.00645728  0.0421176 -0.125709 0.00691307  0.0427692 -0.137748 0.00739539  0.0432436 -0.150015 0.00789948  0.0435534 -0.162474 0.00842418  0.043714 -0.175091 0.00897031  0.0437353 -0.187837 0.0095332  0.0436339 -0.200684 0.010112  0.0434217 -0.213606 0.0107025  0.0431104 -0.22658 0.0113076  0.0427122 -0.239584 0.0119247  0.0422404 -0.252607 0.0125528  0.0417082 -0.265628 0.0131908  0.0411277 -0.278634 0.0138394  0.0405095 -0.291621 0.0144955  0.0398638 -0.304579 0.0151554  0.0392041 -0.317508 0.0158188  0.0385413 -0.330414 0.0164821  0 0 0  -0.00403922 -0.00449328 -0.000832085  -0.00793289 -0.0077195 -0.00125958  -0.0118183 -0.0113821 -0.00142804  -0.0156286 -0.0158 -0.00139165  -0.0192969 -0.0210501 -0.00119877  -0.0227939 -0.0271171 -0.000894303  -0.0261074 -0.0339566 -0.000512289  -0.0292365 -0.0415212 -7.28406e-05  -0.0321821 -0.0497574 0.000412673  -0.0349517 -0.0586121 0.000933424  -0.0375499 -0.0680317 0.00148641  -0.0399851 -0.0779648 0.00206497  -0.0422623 -0.0883641 0.00266684  -0.0443908 -0.0991799 0.00328937  -0.0463756 -0.110369 0.0039292  -0.0482244 -0.121887 0.00458498  -0.0499449 -0.133696 0.00525388  -0.0515413 -0.145755 0.00593319  -0.0530202 -0.158028 0.00662278  -0.0543919 -0.170482 0.00731741  -0.0556614 -0.183089 0.00801869  -0.0568349 -0.195814 0.00872329  -0.0579216 -0.208635 0.00942851  -0.0589266 -0.221527 0.0101393  -0.0598583 -0.234468 0.0108462  -0.0607259 -0.247436 0.0115545  -0.0615368 -0.260416 0.0122611  -0.0623 -0.273395 0.0129619  -0.0630221 -0.286358 0.0136635  -0.0637178 -0.2993 0.0143605  -0.0643976 -0.312213 0.0150555  -0.0650656 -0.325094 0.0157519  0 0 0  -0.00157295 -0.00222947 -0.000608046  -0.00473066 -0.00577153 -0.000897419  -0.00785246 -0.00966205 -0.00101071  -0.0108689 -0.0142654 -0.000961339  -0.013734 -0.0196798 -0.000769997  -0.0164464 -0.0258996 -0.000477737  -0.0190133 -0.032886 -0.000113832  -0.0214407 -0.0405918 0.000305906  -0.0237378 -0.0489655 0.000769699  -0.0259105 -0.0579524 0.00126918  -0.0279651 -0.0674996 0.0018015  -0.0299076 -0.0775546 0.00235981  -0.0317426 -0.0880688 0.0029429  -0.0334755 -0.0989938 0.00354687  -0.0351092 -0.110285 0.00417003  -0.0366495 -0.121899 0.00480819  -0.0381002 -0.133797 0.00546156  -0.0394657 -0.145937 0.00612644  -0.0407498 -0.158285 0.006802  -0.0419567 -0.170808 0.00748491  -0.0430882 -0.183473 0.00817406  -0.0441537 -0.196254 0.00886838  -0.0451541 -0.209122 0.0095654  -0.0460961 -0.222056 0.0102661  -0.0469849 -0.235031 0.010967  -0.0478246 -0.248028 0.0116684  -0.0486217 -0.261034 0.0123683  -0.0493829 -0.274033 0.0130671  -0.0501122 -0.28701 0.0137638  -0.0508163 -0.299959 0.0144593  -0.0515029 -0.312876 0.0151549  -0.0521791 -0.325758 0.0158517  0 0 0  -0.000871941 -0.00147122 -0.000393473  -0.002488 -0.00434889 -0.000575582  -0.00461859 -0.00837979 -0.0006216  -0.00672004 -0.0131453 -0.00054412  -0.00870991 -0.0187037 -0.000344049  -0.0105919 -0.0250534 -5.81332e-05  -0.0123787 -0.0321603 0.000290647  -0.0140802 -0.039981 0.000690261  -0.0157056 -0.048463 0.00113252  -0.0172633 -0.0575555 0.00160959  -0.0187554 -0.0672037 0.00211967  -0.0201864 -0.0773532 0.00265853  -0.0215595 -0.0879592 0.00322151  -0.0228782 -0.0989708 0.00380618  -0.0241433 -0.110343 0.00441168  -0.0253555 -0.122032 0.0050334  -0.0265181 -0.133998 0.00567055  -0.0276318 -0.146203 0.00632211  -0.0286999 -0.158611 0.0069835  -0.0297227 -0.171187 0.00765391  -0.0307016 -0.183901 0.00833078  -0.0316403 -0.196723 0.00901529  -0.0325382 -0.20963 0.00970328  -0.0334001 -0.222596 0.0103941  -0.0342283 -0.2356 0.0110874  -0.0350232 -0.248621 0.0117818  -0.0357909 -0.261645 0.0124767  -0.0365326 -0.274661 0.013172  -0.0372529 -0.287651 0.0138648  -0.0379543 -0.300609 0.0145576  -0.0386393 -0.31353 0.015251  -0.0393159 -0.32641 0.0159454  0 0 0  -0.000331596 -0.00115409 -0.000186209  -0.000990093 -0.00378856 -0.000253396  -0.00191256 -0.00764272 -0.00023056  -0.00300631 -0.0124883 -0.00012162  -0.00406587 -0.018145 8.84626e-05  -0.00508291 -0.0245892 0.000367751  -0.00606656 -0.0317867 0.000701543  -0.00702494 -0.0396925 0.00108056  -0.00796425 -0.0482575 0.00149981  -0.00889027 -0.0574274 0.00195453  -0.00980616 -0.0671496 0.00244255  -0.0107137 -0.0773721 0.00295845  -0.0116115 -0.088045 0.00350205  -0.0125023 -0.0991214 0.00406729  -0.013384 -0.110554 0.00465466  -0.0142556 -0.1223 0.00526014  -0.0151179 -0.134318 0.00588163  -0.0159693 -0.146571 0.00651747  -0.0168073 -0.159021 0.00716548  -0.0176332 -0.171637 0.00782309  -0.0184453 -0.184387 0.00848932  -0.0192435 -0.197241 0.00916193  -0.0200267 -0.210175 0.00984182  -0.0207949 -0.223164 0.010524  -0.0215495 -0.236189 0.0112087  -0.0222902 -0.249228 0.0118961  -0.0230162 -0.262267 0.0125857  -0.0237286 -0.275293 0.0132759  -0.0244296 -0.288292 0.0139665  -0.0251203 -0.301259 0.0146545  -0.0257986 -0.314183 0.0153448  -0.0264702 -0.327061 0.0160342  0 0 0  0.000165686 -0.00114167 1.84085e-05  0.00035131 -0.00372568 7.58339e-05  0.000457227 -0.00750825 0.000176489  0.000436604 -0.0123179 0.000318496  0.00034678 -0.0180135 0.000534886  0.000220597 -0.0245127 0.000804808  6.00815e-05 -0.0317668 0.00111978  -0.000140667 -0.0397297 0.00147654  -0.000382662 -0.0483483 0.00187204  -0.000669003 -0.0575716 0.00230331  -0.000999689 -0.0673447 0.00276728  -0.00137472 -0.0776161 0.00326237  -0.00179076 -0.0883354 0.00378362  -0.00224471 -0.0994542 0.00433065  -0.00273573 -0.110928 0.00489966  -0.00325978 -0.122711 0.00548753  -0.00381398 -0.134765 0.00609341  -0.0043931 -0.147049 0.0067148  -0.00499606 -0.159528 0.00734685  -0.00561833 -0.17217 0.00799258  -0.00625753 -0.184942 0.00864712  -0.00690842 -0.197817 0.00931035  -0.00756979 -0.210767 0.0099798  -0.00823975 -0.223772 0.010652  -0.00891423 -0.236809 0.0113301  -0.0095911 -0.249856 0.0120122  -0.0102699 -0.262905 0.0126951  -0.0109479 -0.275937 0.0133803  -0.0116258 -0.288943 0.0140653  -0.0123005 -0.301913 0.0147511  -0.0129712 -0.314842 0.0154362  -0.0136349 -0.327719 0.0161223  0 0 0  0.000670299 -0.00141096 0.000220839  0.00168586 -0.00408244 0.000407925  0.00277668 -0.00785726 0.000591969  0.00379014 -0.0126351 0.000776252  0.00469029 -0.0183163 0.000993336  0.0054729 -0.0248284 0.00124798  0.00614548 -0.0321065 0.00154115  0.0067116 -0.0400965 0.00187272  0.00717223 -0.0487444 0.00224259  0.0075295 -0.0579958 0.00265009  0.00778747 -0.067795 0.00309115  0.00794816 -0.0780917 0.00356414  0.00801671 -0.0888359 0.00406537  0.00799906 -0.0999783 0.00459184  0.0078994 -0.111472 0.00514263  0.00772452 -0.123275 0.00571424  0.00748038 -0.135346 0.00630384  0.00717235 -0.147647 0.0069105  0.00680757 -0.160138 0.00753088  0.00639081 -0.172792 0.00816209  0.00592685 -0.185574 0.00880513  0.00542378 -0.198457 0.00945783  0.00488591 -0.211415 0.0101163  0.00431705 -0.224424 0.0107821  0.00372243 -0.237465 0.0114518  0.00310755 -0.250516 0.0121257  0.00247717 -0.263565 0.0128036  0.00183415 -0.276599 0.0134839  0.00118089 -0.289606 0.014165  0.000522137 -0.302577 0.0148465  -0.000139236 -0.315508 0.0155271  -0.000796318 -0.328392 0.0162077  0 0 0  0.00122224 -0.00201261 0.000416821  0.00311792 -0.00487578 0.000729067  0.00521004 -0.00867409 0.000996025  0.00724924 -0.0134189 0.00122445  0.00913155 -0.0190629 0.0014434  0.010829 -0.0255496 0.0016808  0.0123401 -0.0328175 0.00195019  0.0136732 -0.0408045 0.00225644  0.0148363 -0.0494534 0.00260265  0.0158356 -0.0587057 0.00298699  0.0166774 -0.0685083 0.00340612  0.0173696 -0.0788077 0.00385786  0.0179189 -0.0895542 0.00433943  0.018333 -0.100699 0.00484882  0.0186211 -0.112194 0.00538222  0.0187919 -0.123998 0.00593662  0.0188534 -0.136068 0.00651145  0.0188131 -0.148367 0.0071031  0.0186818 -0.160858 0.00771092  0.0184648 -0.173508 0.0083304  0.0181732 -0.186287 0.0089617  0.0178123 -0.199167 0.00960255  0.0173922 -0.212119 0.0102531  0.0169196 -0.225123 0.0109096  0.0164013 -0.238158 0.0115724  0.0158451 -0.251206 0.0122401  0.0152576 -0.26425 0.0129116  0.0146456 -0.277279 0.0135873  0.014014 -0.290282 0.0142639  0.0133686 -0.303252 0.0149415  0.0127151 -0.316184 0.015619  0.0120611 -0.329075 0.0162948  0 0 0  0.0018622 -0.00306374 0.000601204  0.00474912 -0.00618309 0.00102393  0.00790149 -0.00999373 0.00136545  0.0109866 -0.014679 0.00163631  0.0138478 -0.0202557 0.00185899  0.0164505 -0.0266843 0.00208296  0.0187939 -0.0339077 0.00233156  0.020888 -0.04186 0.00261653  0.0227439 -0.050481 0.00293987  0.0243747 -0.0597093 0.0033036  0.0257914 -0.0694901 0.00370302  0.0270036 -0.0797679 0.00413708  0.0280228 -0.0904942 0.00460132  0.0288596 -0.10162 0.00509301  0.0295256 -0.113098 0.00560955  0.0300314 -0.124883 0.0061503  0.0303888 -0.136934 0.00671151  0.0306065 -0.149216 0.00728984  0.0306971 -0.161689 0.0078841  0.0306721 -0.174321 0.00849328  0.03054 -0.187083 0.009114  0.0303125 -0.199945 0.00974572  0.0300004 -0.212882 0.0103862  0.0296142 -0.22587 0.0110352  0.0291619 -0.238889 0.0116905  0.0286543 -0.251923 0.0123534  0.028101 -0.264956 0.0130198  0.0275121 -0.277975 0.0136904  0.0268939 -0.29097 0.0143647  0.0262558 -0.303932 0.0150384  0.0256033 -0.316863 0.0157133  0.0249472 -0.329766 0.0163868  0 0 0  0.00254858 -0.00478053 0.000778498  0.00666082 -0.00814027 0.00126246  0.0109982 -0.0118852 0.0016677  0.0151783 -0.016439 0.00198887  0.0190195 -0.0219024 0.00222087  0.0225103 -0.0282357 0.00243776  0.0256634 -0.0353792 0.00267212  0.0284952 -0.0432647 0.00294107  0.0310249 -0.0518278 0.00324877  0.0332675 -0.0610052 0.00359586  0.0352405 -0.0707382 0.00398039  0.0369567 -0.0809725 0.0043986  0.038429 -0.0916566 0.00484844  0.0396733 -0.102742 0.00532666  0.0407003 -0.114181 0.00582855  0.0415261 -0.125928 0.00635529  0.0421624 -0.137943 0.00690258  0.0426252 -0.150187 0.00746963  0.0429239 -0.162626 0.00805328  0.0430722 -0.175225 0.00865042  0.0430868 -0.187953 0.00926354  0.0429769 -0.200787 0.00988611  0.0427585 -0.213694 0.010519  0.0424426 -0.226656 0.0111603  0.042042 -0.23965 0.0118095  0.0415683 -0.252661 0.0124661  0.0410342 -0.265674 0.0131274  0.040451 -0.278677 0.0137953  0.0398331 -0.291659 0.014467  0.0391879 -0.304614 0.0151392  0.0385303 -0.317543 0.0158127  0.037868 -0.330452 0.0164832  0 0 0  -0.00411878 -0.00464606 -8.14572e-05  -0.00804701 -0.00794577 -9.00552e-05  -0.0119489 -0.0116582 -5.24372e-05  -0.0157835 -0.0161009 4.58807e-05  -0.0194938 -0.0213493 0.000214405  -0.0230389 -0.0274019 0.000453703  -0.0264028 -0.0342257 0.000750199  -0.0295805 -0.0417709 0.00109788  -0.0325722 -0.0499876 0.00149008  -0.0353829 -0.0588255 0.00191963  -0.0380187 -0.0682267 0.00238262  -0.0404859 -0.0781449 0.00287607  -0.0427935 -0.0885289 0.00339718  -0.0449474 -0.0993296 0.00394172  -0.0469564 -0.110504 0.00450992  -0.0488255 -0.12201 0.00509829  -0.0505624 -0.133805 0.00570442  -0.0521731 -0.145852 0.00632398  -0.0536666 -0.158117 0.00695795  -0.0550478 -0.170561 0.00760336  -0.0563264 -0.183157 0.00825632  -0.0575078 -0.195875 0.00892035  -0.0586002 -0.208688 0.00958873  -0.0596104 -0.221574 0.0102637  -0.0605459 -0.234508 0.0109422  -0.0614176 -0.247472 0.011626  -0.0622308 -0.260449 0.0123101  -0.0629947 -0.273425 0.0129954  -0.0637202 -0.286387 0.0136828  -0.0644181 -0.299328 0.0143718  -0.065098 -0.31224 0.0150609  -0.0657685 -0.325123 0.0157533  0 0 0  -0.00160365 -0.00233456 -2.09361e-05  -0.0048075 -0.00596709 3.85195e-06  -0.00795665 -0.00990976 5.16102e-05  -0.0110054 -0.0145396 0.000151768  -0.0139227 -0.0199545 0.000320293  -0.0166931 -0.026163 0.000557281  -0.0193151 -0.0331359 0.000853397  -0.0217942 -0.0408256 0.00120021  -0.0241374 -0.0491824 0.00159109  -0.0263517 -0.0581543 0.00202006  -0.0284433 -0.0676857 0.00248305  -0.0304182 -0.0777261 0.00297736  -0.0322818 -0.0882261 0.0034975  -0.0340396 -0.0991373 0.00404274  -0.0356957 -0.110414 0.00461134  -0.0372554 -0.122018 0.00519766  -0.0387232 -0.133902 0.00580254  -0.0401018 -0.14603 0.00642266  -0.0413976 -0.15837 0.00705633  -0.0426142 -0.170881 0.00770219  -0.0437565 -0.183539 0.00835528  -0.0448287 -0.196312 0.00901749  -0.045836 -0.209174 0.00968554  -0.0467827 -0.222102 0.0103601  -0.0476754 -0.235072 0.0110385  -0.0485184 -0.248065 0.0117216  -0.0493188 -0.261067 0.0124052  -0.0500803 -0.274062 0.0130912  -0.0508106 -0.287039 0.0137782  -0.0515163 -0.299988 0.0144673  -0.0522034 -0.312904 0.0151568  -0.0528796 -0.325788 0.0158482  0 0 0  -0.000898063 -0.00155823 -4.39584e-06  -0.00254478 -0.00450435 3.85866e-05  -0.00471053 -0.00858428 0.000110045  -0.00684774 -0.0133762 0.000225887  -0.00889659 -0.0189416 0.00040336  -0.0108407 -0.0252861 0.000645794  -0.0126845 -0.0323845 0.000946105  -0.0144383 -0.0401933 0.00129428  -0.0161096 -0.0486626 0.00168595  -0.0177066 -0.0577417 0.00211477  -0.019235 -0.0673759 0.00257833  -0.0206977 -0.0775138 0.00307276  -0.0220995 -0.0881062 0.00359351  -0.023442 -0.099105 0.00413896  -0.0247287 -0.110465 0.00470702  -0.0259607 -0.122144 0.00529329  -0.0271392 -0.134099 0.00589922  -0.0282681 -0.146294 0.00651927  -0.0293479 -0.158691 0.00715262  -0.030381 -0.171258 0.00779658  -0.0313697 -0.183965 0.00845024  -0.0323141 -0.196781 0.00911272  -0.0332181 -0.209681 0.00978255  -0.0340848 -0.222641 0.0104556  -0.0349162 -0.23564 0.0111344  -0.0357144 -0.248657 0.0118168  -0.036485 -0.26168 0.0125002  -0.0372283 -0.274691 0.0131869  -0.0379481 -0.28768 0.0138742  -0.0386505 -0.300638 0.0145615  -0.0393374 -0.313559 0.0152505  -0.0400136 -0.326441 0.0159415  0 0 0  -0.000357926 -0.00122845 -3.30806e-06  -0.00105296 -0.0039182 4.67747e-05  -0.00200856 -0.00780228 0.000140913  -0.00313976 -0.0126729 0.000277758  -0.00426131 -0.0183425 0.000470243  -0.00534004 -0.0247898 0.000722714  -0.00637889 -0.0319839 0.00102874  -0.00738662 -0.0398832 0.00138031  -0.00837016 -0.0484379 0.00177375  -0.00933456 -0.0575974 0.00220373  -0.0102849 -0.0673092 0.00266715  -0.0112218 -0.0775205 0.00316106  -0.0121474 -0.0881828 0.00368245  -0.0130609 -0.0992461 0.00422923  -0.0139645 -0.110668 0.00479686  -0.0148557 -0.122405 0.00538533  -0.0157342 -0.134413 0.00599085  -0.0165992 -0.146657 0.0066122  -0.0174501 -0.159098 0.00724537  -0.0182867 -0.171706 0.00788984  -0.0191085 -0.184448 0.00854514  -0.0199132 -0.197295 0.00920779  -0.0207028 -0.210224 0.00987724  -0.0214772 -0.223209 0.0105509  -0.0222344 -0.236228 0.0112288  -0.0229776 -0.249264 0.0119102  -0.023706 -0.2623 0.0125949  -0.0244207 -0.275323 0.0132809  -0.0251236 -0.288323 0.0139685  -0.0258141 -0.301288 0.0146558  -0.0264933 -0.314212 0.0153439  -0.0271661 -0.327095 0.0160322  0 0 0  0.00013873 -0.0012033 -6.3777e-06  0.000280052 -0.00383198 5.16251e-05  0.000339061 -0.00763825 0.000163719  0.00028497 -0.0124621 0.000323839  0.000135064 -0.0181767 0.000532232  -4.85182e-05 -0.024685 0.000796042  -0.000260353 -0.0319403 0.00110784  -0.000506461 -0.039901 0.00146258  -0.000788927 -0.0485143 0.00185738  -0.00111187 -0.0577287 0.00228773  -0.00147533 -0.0674924 0.00275195  -0.00187814 -0.0777537 0.00324755  -0.00231993 -0.088463 0.00376901  -0.0027982 -0.0995717 0.00431628  -0.00331068 -0.111035 0.00488486  -0.00385332 -0.12281 0.00547329  -0.00442362 -0.134854 0.00608037  -0.00501847 -0.14713 0.00670116  -0.00563383 -0.159601 0.00733532  -0.00626731 -0.172235 0.00798161  -0.0069139 -0.185 0.00863774  -0.0075736 -0.197869 0.00930022  -0.00824189 -0.210815 0.00997026  -0.00891542 -0.223815 0.0106438  -0.0095942 -0.236847 0.0113231  -0.0102751 -0.249893 0.0120044  -0.0109568 -0.262938 0.0126884  -0.011637 -0.275968 0.0133742  -0.012316 -0.288972 0.0140618  -0.0129912 -0.301942 0.0147478  -0.0136635 -0.314872 0.015434  -0.014328 -0.327753 0.0161217  0 0 0  0.000643492 -0.00145948 -6.72787e-06  0.00160503 -0.00417119 5.77196e-05  0.00263628 -0.00796753 0.000191122  0.00360358 -0.0127583 0.000373319  0.00445211 -0.0184572 0.000597544  0.0051856 -0.0249808 0.000869185  0.00581527 -0.0322636 0.0011865  0.00634146 -0.0402534 0.00154294  0.00676501 -0.048897 0.00193834  0.00708854 -0.05814 0.00237086  0.0073154 -0.0679328 0.00283525  0.00744855 -0.0782212 0.00333028  0.00749147 -0.0889555 0.00385362  0.00744975 -0.100089 0.00440096  0.00732934 -0.111574 0.00497119  0.00713634 -0.123368 0.00556032  0.00687551 -0.13543 0.00616746  0.00655293 -0.147723 0.00679091  0.0061748 -0.160209 0.00742523  0.00574756 -0.172855 0.00807203  0.00527549 -0.185631 0.00872798  0.0047636 -0.198508 0.0093913  0.00421929 -0.21146 0.0100616  0.0036447 -0.224466 0.0107374  0.00304604 -0.237502 0.0114156  0.00242829 -0.250551 0.0120987  0.0017941 -0.263599 0.0127815  0.00114965 -0.27663 0.0134681  0.000495195 -0.289635 0.0141542  -0.00016427 -0.302607 0.0148392  -0.00082469 -0.315538 0.0155255  -0.00148296 -0.328425 0.0162095  0 0 0  0.00119588 -0.00204599 -3.57628e-06  0.00302812 -0.00494742 6.7994e-05  0.00504574 -0.0087719 0.000218913  0.00702727 -0.0135314 0.000422552  0.00886399 -0.0191906 0.000662588  0.0105215 -0.0256882 0.000941068  0.0119978 -0.032962 0.00126027  0.0132977 -0.0409493 0.00161844  0.0144274 -0.0495943 0.00201488  0.0153953 -0.058841 0.00244812  0.0162082 -0.0686383 0.00291399  0.0168732 -0.0789288 0.00341086  0.017397 -0.089666 0.0039348  0.0177885 -0.100802 0.00448453  0.0180546 -0.112291 0.00505627  0.0182068 -0.124086 0.00564656  0.0182517 -0.136148 0.0062544  0.0181975 -0.14844 0.00687754  0.0180521 -0.160925 0.0075141  0.0178254 -0.173569 0.00816227  0.0175235 -0.186343 0.00881802  0.0171561 -0.199216 0.00948355  0.0167282 -0.212164 0.0101537  0.0162506 -0.225164 0.0108286  0.0157287 -0.238196 0.0115091  0.0151691 -0.251241 0.0121915  0.0145791 -0.264284 0.0128759  0.0139649 -0.27731 0.0135611  0.0133321 -0.29031 0.0142464  0.0126853 -0.303281 0.0149326  0.0120313 -0.316214 0.0156149  0.0113773 -0.329109 0.0162962  0 0 0  0.00183983 -0.00308132 -4.19468e-06  0.00465584 -0.0062412 6.89477e-05  0.00771999 -0.0100865 0.00023365  0.0107337 -0.0147927 0.000456207  0.0135548 -0.0203815 0.000711113  0.0161279 -0.0268188 0.000998065  0.0184419 -0.0340456 0.00132003  0.0205057 -0.0419974 0.00168137  0.0223331 -0.0506139 0.00208002  0.0239351 -0.0598368 0.00251573  0.0253228 -0.0696109 0.00298533  0.0265077 -0.079882 0.00348416  0.0275027 -0.0906004 0.00401092  0.0283164 -0.101719 0.0045622  0.0289618 -0.113187 0.00513581  0.0294473 -0.124965 0.00572842  0.0297871 -0.13701 0.00633898  0.0299911 -0.149283 0.00696307  0.0300696 -0.161751 0.00760135  0.0300324 -0.174378 0.00825004  0.0298905 -0.187135 0.0089082  0.0296559 -0.199992 0.00957407  0.0293379 -0.212924 0.0102457  0.0289457 -0.22591 0.0109215  0.0284903 -0.238926 0.011602  0.0279789 -0.251958 0.0122858  0.0274229 -0.264989 0.0129702  0.0268316 -0.278004 0.0136545  0.0262122 -0.290997 0.0143414  0.0255735 -0.303963 0.0150246  0.0249214 -0.316895 0.0157075  0.0242662 -0.329799 0.0163878  0 0 0  0.00254451 -0.00479287 -2.77162e-05  0.00659069 -0.00819212 3.14042e-05  0.0108211 -0.011987 0.000207648  0.0149099 -0.0165759 0.000452399  0.0187147 -0.0220431 0.000728525  0.0221803 -0.0283763 0.00102776  0.0253072 -0.0355178 0.00135777  0.0281117 -0.0433997 0.00172469  0.0306116 -0.0519568 0.00213074  0.0328251 -0.0611277 0.00257103  0.0347688 -0.0708538 0.00304518  0.0364581 -0.0810803 0.00354957  0.0379058 -0.0917566 0.0040809  0.0391271 -0.102835 0.00463554  0.0401342 -0.114267 0.00521212  0.0409408 -0.126006 0.00580646  0.0415602 -0.138015 0.00641873  0.0420079 -0.150252 0.00704589  0.0422935 -0.162685 0.00768676  0.0424325 -0.175278 0.00833604  0.0424371 -0.188005 0.00899662  0.0423198 -0.200831 0.00966374  0.0420952 -0.213735 0.0103369  0.0417747 -0.226693 0.0110146  0.0413699 -0.239685 0.0116954  0.0408926 -0.252694 0.0123796  0.0403557 -0.265707 0.0130643  0.0397713 -0.278707 0.0137506  0.0391526 -0.291686 0.0144376  0.0385075 -0.304643 0.0151211  0.0378489 -0.317574 0.0158038  0.0371852 -0.330483 0.0164827  0 0 0  -0.00417019 -0.00463882 0.000715882  -0.00814365 -0.00791238 0.00111346  -0.0120826 -0.0116111 0.00134218  -0.0159484 -0.0160503 0.00150289  -0.0196925 -0.0212972 0.00165567  -0.0232802 -0.0273482 0.00183229  -0.026688 -0.034172 0.00204572  -0.0299093 -0.0417202 0.00229947  -0.032943 -0.0499426 0.00259557  -0.0357921 -0.0587853 0.00293142  -0.0384643 -0.0681928 0.00330302  -0.0409647 -0.0781144 0.00370903  -0.0433018 -0.0885025 0.00414652  -0.045482 -0.0993079 0.00461335  -0.0475141 -0.110487 0.00510699  -0.049404 -0.121997 0.0056254  -0.0511596 -0.133797 0.00616544  -0.0527871 -0.145847 0.0067257  -0.0542958 -0.158114 0.00730242  -0.0556908 -0.170562 0.00789456  -0.0569794 -0.183161 0.00850241  -0.0581698 -0.195882 0.00912213  -0.0592699 -0.208697 0.00975144  -0.060286 -0.221584 0.0103922  -0.0612283 -0.234523 0.0110427  -0.0621042 -0.247489 0.0116979  -0.0629203 -0.260469 0.0123605  -0.0636876 -0.273445 0.0130296  -0.0644143 -0.286409 0.0137037  -0.0651121 -0.29935 0.0143837  -0.0657928 -0.312263 0.0150666  -0.0664639 -0.325147 0.0157548  0 0 0  -0.00163948 -0.00232472 0.000596166  -0.00489935 -0.00594219 0.000926942  -0.00808614 -0.0098662 0.00112192  -0.0111668 -0.014485 0.00127278  -0.0141185 -0.0198934 0.00142981  -0.0169299 -0.0260986 0.00161701  -0.0195958 -0.0330705 0.00184695  -0.0221189 -0.0407629 0.00212094  -0.0245041 -0.0491257 0.00243698  -0.0267569 -0.0581029 0.00279385  -0.0288841 -0.0676405 0.00318669  -0.0308918 -0.0776869 0.00361291  -0.0327846 -0.0881928 0.00407015  -0.034569 -0.0991095 0.00455518  -0.0362487 -0.110392 0.00506684  -0.0378304 -0.121999 0.0055998  -0.0393167 -0.133888 0.00615562  -0.0407128 -0.146023 0.0067286  -0.0420232 -0.158364 0.00731884  -0.0432532 -0.17088 0.00792556  -0.0444071 -0.183541 0.00854228  -0.0454879 -0.196316 0.00917205  -0.0465035 -0.20918 0.00981025  -0.0474565 -0.22211 0.0104578  -0.0483546 -0.235084 0.0111137  -0.0492022 -0.248081 0.0117767  -0.0500057 -0.261085 0.0124438  -0.0507708 -0.274082 0.013117  -0.0515039 -0.28706 0.0137934  -0.0522091 -0.30001 0.0144753  -0.0528972 -0.312928 0.0151603  -0.0535748 -0.325813 0.0158477  0 0 0  -0.000927858 -0.0015493 0.000406817  -0.00261942 -0.00447176 0.000669286  -0.0048292 -0.00853203 0.000844792  -0.0070039 -0.0133076 0.000996217  -0.0090915 -0.0188643 0.00116523  -0.0110796 -0.0252048 0.00137198  -0.0129692 -0.032304 0.00162421  -0.0147663 -0.0401164 0.00192124  -0.0164796 -0.0485923 0.00226048  -0.0181152 -0.0576793 0.0026397  -0.0196781 -0.0673207 0.00305471  -0.0211728 -0.0774655 0.00350317  -0.0226029 -0.0880646 0.00398065  -0.0239716 -0.0990696 0.00448486  -0.0252824 -0.110436 0.00501473  -0.0265354 -0.12212 0.00556464  -0.0277328 -0.134081 0.00613639  -0.0288785 -0.14628 0.00672491  -0.0299726 -0.158682 0.00732908  -0.0310183 -0.171254 0.00794584  -0.0320175 -0.183964 0.00857627  -0.0329723 -0.196783 0.00921613  -0.033884 -0.209685 0.00986479  -0.0347571 -0.222649 0.0105211  -0.0355949 -0.235651 0.0111845  -0.0363982 -0.248672 0.0118531  -0.0371711 -0.261696 0.0125256  -0.0379174 -0.27471 0.0132031  -0.0386403 -0.287701 0.0138833  -0.0393426 -0.30066 0.0145668  -0.0400307 -0.313583 0.015252  -0.0407081 -0.326467 0.0159395  0 0 0  -0.000382833 -0.00121567 0.000196278  -0.0011199 -0.00387633 0.000363678  -0.00211969 -0.00773248 0.00051704  -0.0032939 -0.0125824 0.000677571  -0.00445837 -0.0182427 0.000866905  -0.00558543 -0.0246882 0.00109802  -0.00667191 -0.0318859 0.00137687  -0.00772363 -0.0397905 0.00170131  -0.00874758 -0.048353 0.00206642  -0.00974894 -0.0575217 0.00246941  -0.0107327 -0.0672418 0.00290844  -0.0117016 -0.0774618 0.00337802  -0.0126549 -0.0881315 0.00387727  -0.0135953 -0.0992036 0.0044025  -0.0145211 -0.110631 0.0049506  -0.0154327 -0.122374 0.00552006  -0.01633 -0.134389 0.00610842  -0.017211 -0.146637 0.0067137  -0.0180769 -0.159085 0.00733232  -0.0189252 -0.171697 0.00796339  -0.0197573 -0.184444 0.00860526  -0.0205717 -0.197295 0.00925766  -0.0213697 -0.210226 0.00991575  -0.02215 -0.223214 0.0105807  -0.0229132 -0.236237 0.0112516  -0.0236604 -0.249276 0.0119266  -0.0243924 -0.262315 0.0126056  -0.0251102 -0.275341 0.0132877  -0.0258155 -0.288342 0.0139711  -0.0265064 -0.30131 0.0146563  -0.0271876 -0.314237 0.0153423  -0.0278599 -0.32712 0.016031  0 0 0  0.000116929 -0.00118202 -1.9148e-05  0.000216573 -0.00377682 4.17233e-05  0.000228196 -0.00754875 0.000164688  0.000126779 -0.012347 0.000333816  -6.96182e-05 -0.0180523 0.000547022  -0.000303626 -0.0245613 0.000807062  -0.00056386 -0.0318235 0.00111559  -0.000853479 -0.0397925 0.00146778  -0.00117636 -0.0484152 0.00185972  -0.00153494 -0.0576394 0.00228906  -0.00193083 -0.0674136 0.00275229  -0.00236416 -0.0776848 0.00324553  -0.00283384 -0.0884028 0.00376742  -0.00333726 -0.0995206 0.00431235  -0.00387192 -0.110992 0.00488116  -0.00443494 -0.122773 0.00546882  -0.00502372 -0.134825 0.00607418  -0.00563335 -0.147105 0.0066957  -0.00626254 -0.159583 0.0073304  -0.00690842 -0.172222 0.00797564  -0.00756693 -0.184993 0.00863102  -0.00823379 -0.197866 0.00929469  -0.00890875 -0.210816 0.00996387  -0.00958872 -0.223818 0.0106382  -0.0102723 -0.236855 0.0113169  -0.0109565 -0.249904 0.0119995  -0.0116405 -0.262953 0.0126845  -0.0123236 -0.275986 0.0133712  -0.0130055 -0.288992 0.0140577  -0.0136821 -0.301965 0.0147449  -0.0143533 -0.314896 0.0154332  -0.0150177 -0.327779 0.0161223  0 0 0  0.000623405 -0.00142109 -0.000227407  0.00154245 -0.00409102 -0.000273854  0.00252056 -0.00785202 -0.000187337  0.00343359 -0.0126183 -1.28001e-05  0.00423384 -0.0183063 0.000224754  0.00491691 -0.0248341 0.000513136  0.00549865 -0.0321269 0.00085102  0.00598252 -0.0401272 0.00123149  0.00636756 -0.0487829 0.00165103  0.00665641 -0.0580392 0.00210701  0.00685108 -0.0678429 0.00259398  0.00695467 -0.0781414 0.00311056  0.00697112 -0.0888863 0.00365415  0.00690544 -0.100028 0.00422183  0.00676394 -0.111523 0.00480995  0.00655079 -0.123324 0.00541611  0.0062716 -0.135395 0.00603914  0.00593519 -0.147693 0.00667809  0.00554371 -0.160186 0.00732727  0.00510359 -0.172838 0.00798662  0.00462174 -0.18562 0.00865562  0.00410128 -0.198502 0.00933078  0.00354958 -0.211459 0.0100109  0.00296998 -0.224469 0.0106955  0.00236869 -0.237509 0.0113825  0.00174689 -0.250562 0.0120722  0.0011096 -0.263612 0.0127627  0.000462055 -0.276647 0.0134535  -0.000193119 -0.289654 0.0141447  -0.000854015 -0.302628 0.0148333  -0.00151587 -0.315563 0.0155232  -0.00217462 -0.328451 0.0162112  0 0 0  0.00117689 -0.00198072 -0.000421628  0.00296739 -0.00483304 -0.00057143  0.00492594 -0.0086239 -0.000523895  0.00684583 -0.0133637 -0.000347927  0.00862873 -0.019016 -9.1508e-05  0.0102372 -0.025521 0.00022392  0.0116678 -0.0328059 0.000589803  0.0129268 -0.0408073 0.000997812  0.0140209 -0.0494658 0.00144419  0.0149555 -0.0587267 0.00192612  0.0157366 -0.0685359 0.00243734  0.0163733 -0.0788392 0.00297785  0.0168705 -0.0895885 0.00354341  0.0172387 -0.100734 0.004132  0.0174853 -0.112232 0.00474049  0.0176184 -0.124035 0.00536495  0.0176454 -0.136107 0.00600599  0.0175769 -0.148406 0.0066608  0.0174184 -0.160898 0.0073244  0.017179 -0.173548 0.00799885  0.0168684 -0.186329 0.00868003  0.0164928 -0.199207 0.00936802  0.0160594 -0.212162 0.0100587  0.0155759 -0.225166 0.0107526  0.015049 -0.238203 0.0114479  0.0144866 -0.251251 0.012145  0.0138948 -0.264297 0.0128422  0.013278 -0.277327 0.0135356  0.0126438 -0.290331 0.0142299  0.0119972 -0.303302 0.0149232  0.0113418 -0.316239 0.0156117  0.0106888 -0.329134 0.0163004  0 0 0  0.00182188 -0.00298244 -0.000606865  0.00459522 -0.00608546 -0.000855789  0.00759602 -0.00990379 -0.000845909  0.0105419 -0.0145988 -0.000673786  0.0133055 -0.020189 -0.000399694  0.0158306 -0.0266348 -5.95301e-05  0.0181041 -0.0338755 0.000332281  0.0201312 -0.0418425 0.000766695  0.0219233 -0.050474 0.00124022  0.023492 -0.0597115 0.00174624  0.0248497 -0.0694993 0.0022838  0.0260071 -0.079784 0.00284745  0.0269761 -0.0905146 0.00343539  0.0277674 -0.101643 0.00404446  0.0283909 -0.113122 0.00467324  0.0288582 -0.124909 0.00531702  0.0291815 -0.136964 0.00597592  0.0293694 -0.149246 0.00664514  0.0294342 -0.161721 0.00732492  0.0293863 -0.174355 0.00801334  0.0292354 -0.187119 0.008708  0.0289934 -0.199982 0.00940643  0.0286696 -0.21292 0.0101079  0.0282712 -0.22591 0.0108115  0.0278108 -0.238932 0.0115144  0.027297 -0.251969 0.012219  0.0267391 -0.265002 0.0129212  0.026145 -0.278022 0.0136209  0.0255244 -0.291019 0.0143182  0.0248847 -0.303984 0.0150119  0.0242321 -0.316919 0.0157023  0.0235772 -0.329823 0.0163897  0 0 0  0.00252628 -0.00465941 -0.000816718  0.00653124 -0.00799978 -0.00115044  0.0106979 -0.0117783 -0.00117223  0.0147144 -0.0163682 -0.000999853  0.0184593 -0.0218452 -0.000708923  0.0218832 -0.0281892 -0.000343814  0.0249746 -0.0353432 7.46548e-05  0.0277435 -0.0432396 0.000536427  0.0302095 -0.0518122 0.00103712  0.0323911 -0.0609978 0.00156893  0.0343065 -0.0707381 0.0021318  0.0359654 -0.0809795 0.00271994  0.0373878 -0.0916677 0.00333062  0.0385847 -0.102756 0.00396098  0.0395707 -0.114197 0.00460869  0.0403581 -0.125947 0.00527126  0.0409608 -0.137966 0.00594747  0.0413918 -0.150213 0.00663337  0.0416641 -0.162654 0.00732799  0.041791 -0.175254 0.00803016  0.0417852 -0.187988 0.00873688  0.041662 -0.200821 0.00944649  0.0414302 -0.21373 0.0101598  0.0411026 -0.226694 0.0108717  0.040694 -0.239691 0.0115839  0.0402131 -0.252706 0.0122949  0.0396738 -0.26572 0.0130024  0.0390871 -0.278724 0.013707  0.038466 -0.291708 0.0144078  0.0378203 -0.304666 0.0151037  0.0371625 -0.317598 0.0157949  0.0364995 -0.330509 0.0164806  0 0 -2.98023e-08  -0.00420284 -0.00444784 0.00163406  -0.00822569 -0.00759714 0.00241005  -0.012206 -0.0112265 0.00279853  -0.0161084 -0.0156374 0.00299969  -0.0198877 -0.0208806 0.00312617  -0.0235106 -0.0269465 0.00323656  -0.026957 -0.0337915 0.00336349  -0.0302172 -0.0413658 0.00352216  -0.0332896 -0.0496155 0.00372076  -0.0361763 -0.0584844 0.00395989  -0.0388827 -0.0679207 0.00423953  -0.0414165 -0.0778704 0.00455654  -0.0437828 -0.0882839 0.00490937  -0.0459908 -0.0991155 0.00529572  -0.0480487 -0.110317 0.00571448  -0.049962 -0.121849 0.00616038  -0.0517371 -0.133668 0.00663543  -0.0533834 -0.14574 0.00713322  -0.0549068 -0.158023 0.00765306  -0.0563159 -0.170487 0.00819373  -0.0576203 -0.183102 0.00875106  -0.0588217 -0.195836 0.00932765  -0.0599313 -0.208665 0.00991789  -0.060957 -0.221563 0.0105227  -0.0619059 -0.23451 0.0111413  -0.0627861 -0.247485 0.0117702  -0.0636055 -0.260472 0.012411  -0.0643775 -0.273455 0.0130627  -0.0651057 -0.286424 0.0137239  -0.0658035 -0.299368 0.0143937  -0.0664825 -0.312283 0.015071  -0.067153 -0.325167 0.0157544  0 0 -2.98023e-08  -0.00167949 -0.00217429 0.00130287  -0.00500207 -0.00567172 0.00192353  -0.00822741 -0.00951064 0.00224268  -0.0113349 -0.0140865 0.00242785  -0.0143139 -0.0194815 0.00256449  -0.0171539 -0.0256926 0.00270271  -0.0198543 -0.0326826 0.00286612  -0.0224136 -0.0403993 0.00306699  -0.0248353 -0.0487874 0.00330704  -0.0271255 -0.0577933 0.00358847  -0.0292873 -0.0673596 0.0039098  -0.0313274 -0.0774326 0.0042682  -0.0332522 -0.0879662 0.00465974  -0.0350653 -0.0989087 0.00508264  -0.0367707 -0.110215 0.00553563  -0.0383755 -0.121845 0.00601408  -0.0398827 -0.133755 0.00651863  -0.0412977 -0.145909 0.00704464  -0.0426254 -0.158268 0.00759023  -0.0438702 -0.170801 0.00815576  -0.0450373 -0.183478 0.00873554  -0.0461304 -0.196267 0.00933114  -0.0471559 -0.209145 0.0099391  -0.0481191 -0.222086 0.0105594  -0.0490251 -0.235069 0.0111908  -0.0498791 -0.248074 0.0118325  -0.0506873 -0.261087 0.0124834  -0.0514557 -0.274089 0.0131427  -0.0521915 -0.287074 0.0138088  -0.0528994 -0.300028 0.0144832  -0.0535865 -0.312947 0.0151635  -0.0542641 -0.325832 0.015848  0 0 -2.98023e-08  -0.000957467 -0.00142244 0.000876307  -0.0027028 -0.00422074 0.00135872  -0.0049603 -0.00819251 0.00161982  -0.00716969 -0.0129181 0.0017935  -0.00928783 -0.0184534 0.00194901  -0.0113078 -0.0247961 0.00212067  -0.0132328 -0.0319095 0.00232589  -0.0150678 -0.0397442 0.00257125  -0.0168184 -0.0482465 0.00285763  -0.0184902 -0.0573605 0.00318494  -0.0200869 -0.0670304 0.00355005  -0.0216136 -0.0772038 0.00395122  -0.0230744 -0.0878313 0.00438374  -0.024471 -0.0988624 0.00484535  -0.025807 -0.110253 0.00533509  -0.0270827 -0.121959 0.00584826  -0.0283015 -0.133941 0.00638378  -0.029465 -0.146161 0.00693992  -0.0305767 -0.158582 0.0075129  -0.0316379 -0.17117 0.00810274  -0.0326498 -0.183896 0.00870791  -0.0336154 -0.19673 0.00932369  -0.0345378 -0.209646 0.00995186  -0.0354199 -0.222622 0.0105901  -0.0362637 -0.235633 0.0112367  -0.0370734 -0.248662 0.0118906  -0.0378511 -0.261695 0.0125529  -0.0386024 -0.274715 0.0132204  -0.0393274 -0.287712 0.0138939  -0.0400326 -0.300676 0.0145712  -0.0407212 -0.313602 0.0152533  -0.0413997 -0.326485 0.0159393  0 0 -2.98023e-08  -0.000404298 -0.00109872 0.000428706  -0.001186 -0.00363463 0.000719339  -0.0022341 -0.00739598 0.000926882  -0.00345346 -0.0121911 0.00110069  -0.00465769 -0.017827 0.00128305  -0.00582319 -0.0242715 0.00149524  -0.00694889 -0.031482 0.00174788  -0.00804001 -0.0394082 0.00204286  -0.00910199 -0.0479977 0.00237909  -0.0101405 -0.0571944 0.00275439  -0.0111585 -0.0669435 0.00316721  -0.012158 -0.0771921 0.00361207  -0.0131407 -0.0878905 0.00408694  -0.0141075 -0.0989892 0.00458893  -0.0150582 -0.110442 0.00511709  -0.0159916 -0.122207 0.00566599  -0.0169091 -0.134244 0.00623551  -0.017808 -0.146512 0.00682282  -0.0186889 -0.158979 0.00742653  -0.0195522 -0.171609 0.00804263  -0.020396 -0.184372 0.00867203  -0.0212214 -0.197238 0.00931075  -0.0220277 -0.210184 0.00995839  -0.0228164 -0.223184 0.0106148  -0.0235863 -0.236217 0.0112773  -0.024339 -0.249265 0.0119451  -0.0250738 -0.262313 0.0126176  -0.0257952 -0.275346 0.0132951  -0.0265024 -0.288352 0.0139752  -0.0271966 -0.301324 0.014658  -0.027879 -0.314255 0.0153432  -0.0285528 -0.327138 0.0160317  0 0 -2.98023e-08  9.98676e-05 -0.00106403 -2.33948e-05  0.000161529 -0.00353247 5.33164e-05  0.000124395 -0.00720698 0.000189304  -2.92361e-05 -0.0119471 0.000365317  -0.000273168 -0.0176257 0.000580996  -0.000553012 -0.0241331 0.000840217  -0.000858724 -0.0314093 0.00114536  -0.00119036 -0.0394 0.00149375  -0.00155234 -0.0480494 0.00188175  -0.00194764 -0.0573043 0.00230768  -0.00237668 -0.0671078 0.00276846  -0.00284052 -0.0774078 0.0032596  -0.00333822 -0.0881551 0.00377879  -0.00386631 -0.0992987 0.00432277  -0.00442505 -0.110795 0.00488931  -0.00500906 -0.1226 0.00547501  -0.0056169 -0.134674 0.00607851  -0.00624394 -0.146976 0.00669757  -0.00688767 -0.159473 0.00733122  -0.00754595 -0.172131 0.00797537  -0.00821543 -0.184919 0.00863016  -0.00889158 -0.197805 0.00929308  -0.00957441 -0.21077 0.00996178  -0.0102603 -0.223786 0.0106356  -0.0109501 -0.236832 0.0113139  -0.0116394 -0.249892 0.0119966  -0.0123277 -0.262948 0.0126809  -0.0130134 -0.275989 0.0133677  -0.0136967 -0.289001 0.0140555  -0.0143762 -0.301978 0.0147436  -0.0150485 -0.314913 0.0154328  -0.0157142 -0.327798 0.0161225  0 0 -2.98023e-08  0.000608474 -0.00129193 -0.00046438  0.00149491 -0.00383085 -0.000605702  0.0024215 -0.00749487 -0.000553399  0.00327724 -0.0122021 -0.00038144  0.00402182 -0.0178641 -0.000132143  0.0046531 -0.0243923 0.000175327  0.00518501 -0.0317006 0.000533819  0.00562453 -0.0397251 0.0009377  0.00596952 -0.0484089 0.00137982  0.00622261 -0.0576959 0.001858  0.00638449 -0.0675291 0.00236684  0.006459 -0.0778583 0.00290388  0.0064472 -0.088632 0.00346667  0.00635803 -0.0998011 0.0040524  0.006194 -0.111321 0.00465733  0.00596142 -0.123147 0.00528032  0.00566459 -0.13524 0.00591898  0.00531125 -0.147561 0.00657111  0.00490713 -0.160072 0.0072349  0.00445604 -0.172743 0.00790757  0.00396323 -0.185542 0.00858647  0.00343513 -0.19844 0.00927255  0.00287676 -0.211412 0.00996214  0.00229144 -0.224434 0.0106554  0.00168443 -0.237485 0.0113508  0.00105929 -0.25055 0.0120472  0.000422239 -0.263607 0.0127456  -0.000227928 -0.27665 0.0134404  -0.000885963 -0.289663 0.014135  -0.00154781 -0.302642 0.0148282  -0.00221109 -0.31558 0.015522  -0.00287032 -0.328469 0.016213  0 0 -2.98023e-08  0.00116338 -0.00181848 -0.000878811  0.00292185 -0.00453341 -0.00123233  0.00482711 -0.00822949 -0.00126559  0.00668389 -0.0129166 -0.00110629  0.00840455 -0.0185496 -0.000829935  0.00995785 -0.0250577 -0.000475168  0.0113373 -0.0323613 -6.4373e-05  0.0125507 -0.0403894 0.000392884  0.0136038 -0.0490794 0.000887632  0.0145034 -0.0583726 0.00141531  0.0152531 -0.0682129 0.00197324  0.0158601 -0.078548 0.0025557  0.0163321 -0.0893254 0.00316182  0.0166763 -0.100499 0.00378811  0.0169022 -0.112023 0.00443363  0.0170157 -0.123851 0.00509208  0.0170262 -0.135947 0.00576437  0.0169418 -0.148269 0.00644869  0.0167718 -0.160781 0.00714058  0.0165217 -0.173451 0.00784129  0.016201 -0.186247 0.00854582  0.0158181 -0.199143 0.0092558  0.0153785 -0.212112 0.00996643  0.0148907 -0.22513 0.0106778  0.0143604 -0.238178 0.0113886  0.0137954 -0.251238 0.0121006  0.0132027 -0.264292 0.0128086  0.0125856 -0.27733 0.0135131  0.0119507 -0.29034 0.0142149  0.0113022 -0.303316 0.0149137  0.0106471 -0.316256 0.015609  0.0099926 -0.329153 0.0163024  0 0 -2.98023e-08  0.00180526 -0.00276291 -0.00126147  0.00454709 -0.00571918 -0.00180957  0.00749233 -0.00945216 -0.0019266  0.0103726 -0.0141073 -0.00178638  0.0130717 -0.0196884 -0.00148869  0.0155393 -0.0261459 -0.00109458  0.017762 -0.0334089 -0.000635862  0.0197443 -0.0414071 -0.000128329  0.0214971 -0.0500728 0.000416994  0.0230315 -0.0593452 0.000993371  0.0243574 -0.0691658 0.00159737  0.0254864 -0.0794834 0.00222424  0.02643 -0.0902435 0.00287202  0.0271982 -0.1014 0.00353763  0.0278019 -0.112907 0.00422031  0.0282502 -0.124721 0.00491476  0.0285575 -0.136799 0.00562003  0.0287316 -0.149105 0.0063343  0.0287852 -0.161601 0.00705692  0.0287263 -0.174255 0.00778234  0.028568 -0.187036 0.00851196  0.0283177 -0.199916 0.00924233  0.0279872 -0.21287 0.00997329  0.0275857 -0.225873 0.0107031  0.027122 -0.238908 0.0114307  0.0266058 -0.251956 0.012154  0.0260463 -0.264999 0.012874  0.0254524 -0.278026 0.0135887  0.0248303 -0.291028 0.0142961  0.0241904 -0.303999 0.0149994  0.0235381 -0.316936 0.0156967  0.022881 -0.329844 0.0163895  0 0 -2.98023e-08  0.00249112 -0.00437057 -0.00165424  0.00646266 -0.00756311 -0.00235435  0.0105827 -0.0112708 -0.00253913  0.0145392 -0.0158383 -0.00241604  0.018224 -0.0213203 -0.00210497  0.0215951 -0.0276849 -0.00167748  0.02464 -0.0348672 -0.00117597  0.0273703 -0.0427974 -0.000621319  0.0297986 -0.0514062 -2.81632e-05  0.0319464 -0.0606276 0.000593305  0.0338283 -0.0704014 0.00124222  0.0354594 -0.0806761 0.00191242  0.0368559 -0.0913956 0.00260016  0.038029 -0.102513 0.00330362  0.0389931 -0.113982 0.00402182  0.0397623 -0.125757 0.00475082  0.0403469 -0.137801 0.00548682  0.0407634 -0.150072 0.00623107  0.0410228 -0.162535 0.00697935  0.0411384 -0.175155 0.00773129  0.0411248 -0.187905 0.00848508  0.0409918 -0.200756 0.0092364  0.0407541 -0.213682 0.00998732  0.0404222 -0.226659 0.0107338  0.0400088 -0.23967 0.0114744  0.0395253 -0.252695 0.0122121  0.0389841 -0.265719 0.0129426  0.0383966 -0.27873 0.0136662  0.0377746 -0.291719 0.0143814  0.0371268 -0.304682 0.0150861  0.0364692 -0.317616 0.015788  0.0358052 -0.330529 0.0164783  0 0 -2.98023e-08  -0.00426792 -0.00405061 0.00273752  -0.00831635 -0.00695711 0.00383052  -0.0123166 -0.0104684 0.0043273  -0.016239 -0.0148384 0.00453845  -0.0200428 -0.0200894 0.00461981  -0.0236958 -0.0261872 0.00465518  -0.0271759 -0.0330788 0.00469235  -0.0304727 -0.0407055 0.00475362  -0.0335824 -0.0490077 0.00485393  -0.0365069 -0.0579308 0.0049969  -0.0392511 -0.0674175 0.00518221  -0.0418191 -0.0774177 0.00541013  -0.0442187 -0.0878787 0.00567821  -0.0464572 -0.0987537 0.00598392  -0.048543 -0.109999 0.00632569  -0.0504811 -0.121569 0.00670075  -0.0522807 -0.133425 0.00710857  -0.0539501 -0.145529 0.00754437  -0.0554931 -0.157844 0.00800639  -0.0569203 -0.170339 0.0084928  -0.0582373 -0.18298 0.00900203  -0.059454 -0.195741 0.00953272  -0.060576 -0.20859 0.0100842  -0.0616112 -0.221509 0.0106532  -0.0625694 -0.234474 0.0112393  -0.0634587 -0.247463 0.0118423  -0.0642867 -0.260463 0.0124599  -0.0650628 -0.273457 0.0130944  -0.0657949 -0.286433 0.0137403  -0.0664937 -0.299382 0.0144012  -0.067173 -0.312301 0.0150737  -0.0678458 -0.325188 0.0157526  0 0 -2.98023e-08  -0.00171418 -0.00181487 0.00217286  -0.00512145 -0.00509348 0.00303325  -0.00836974 -0.00879584 0.00343525  -0.0114872 -0.0133119 0.00362915  -0.0144774 -0.0186992 0.00373453  -0.0173374 -0.0249323 0.00381523  -0.0200634 -0.0319622 0.00390977  -0.0226551 -0.0397279 0.0040347  -0.0251114 -0.0481674 0.00419948  -0.0274377 -0.0572252 0.00440568  -0.0296361 -0.0668438 0.00465274  -0.0317112 -0.0769683 0.00494051  -0.0336692 -0.0875491 0.00526619  -0.0355127 -0.0985367 0.00562474  -0.0372472 -0.109887 0.00601783  -0.0388784 -0.121555 0.00644156  -0.0404115 -0.133503 0.00689271  -0.0418489 -0.145692 0.00736901  -0.0431969 -0.158084 0.00786975  -0.0444593 -0.170646 0.00839257  -0.0456424 -0.183349 0.00893524  -0.0467515 -0.196166 0.0094946  -0.0477889 -0.209065 0.0100719  -0.0487645 -0.222028 0.0106645  -0.0496807 -0.235028 0.011271  -0.050544 -0.248049 0.0118912  -0.0513601 -0.261074 0.0125238  -0.052135 -0.274088 0.0131696  -0.0528755 -0.28708 0.0138237  -0.0535858 -0.30004 0.0144903  -0.0542753 -0.312964 0.0151651  -0.0549519 -0.325851 0.0158481  0 0 -2.98023e-08  -0.000976734 -0.00111385 0.00144666  -0.00278115 -0.00366879 0.00214633  -0.00509107 -0.00750561 0.00245768  -0.00732765 -0.0121647 0.00263175  -0.00946599 -0.0176836 0.00276193  -0.0115087 -0.0240399 0.0028941  -0.0134615 -0.0311879 0.00305107  -0.015328 -0.0390677 0.00324473  -0.017113 -0.0476185 0.00347805  -0.0188202 -0.0567849 0.00375241  -0.0204521 -0.0665062 0.00406566  -0.0220127 -0.07673 0.00441796  -0.0235053 -0.0874051 0.00480419  -0.024933 -0.0984819 0.00522172  -0.0262963 -0.109915 0.00566971  -0.0275975 -0.121662 0.0061439  -0.0288405 -0.133683 0.00664312  -0.0300264 -0.145937 0.00716516  -0.0311575 -0.15839 0.00770673  -0.0322354 -0.17101 0.00826767  -0.0332623 -0.183763 0.00884613  -0.0342429 -0.196623 0.00943699  -0.035177 -0.209563 0.0100439  -0.0360706 -0.222559 0.0106622  -0.0369232 -0.235588 0.0112915  -0.03774 -0.248634 0.0119311  -0.0385253 -0.26168 0.0125805  -0.0392807 -0.274712 0.0132383  -0.0400121 -0.287717 0.0139035  -0.0407207 -0.300688 0.0145763  -0.0414109 -0.313617 0.0152543  -0.0420885 -0.326503 0.0159382  0 0 -2.98023e-08  -0.000418089 -0.000814945 0.000712007  -0.00124271 -0.00310978 0.00113878  -0.00234014 -0.00671974 0.0013912  -0.0036059 -0.0114439 0.00156206  -0.00484735 -0.0170596 0.00172743  -0.00604665 -0.0235141 0.00191677  -0.00720674 -0.0307562 0.00214216  -0.00833356 -0.0387266 0.00240865  -0.00943136 -0.0473641 0.00271598  -0.0105062 -0.056612 0.0030615  -0.0115576 -0.0664118 0.0034453  -0.0125893 -0.0767102 0.00386399  -0.0136025 -0.0874561 0.0043138  -0.0145977 -0.0985999 0.00479162  -0.015574 -0.110097 0.00529715  -0.0165321 -0.121903 0.00582427  -0.0174713 -0.133979 0.00637388  -0.0183904 -0.146283 0.00694209  -0.0192888 -0.158782 0.00752929  -0.0201666 -0.171444 0.00812966  -0.0210254 -0.184234 0.00874269  -0.0218623 -0.197127 0.00936881  -0.0226798 -0.210096 0.0100066  -0.0234778 -0.223117 0.0106507  -0.0242553 -0.236169 0.0113047  -0.0250139 -0.249234 0.0119658  -0.0257554 -0.262294 0.0126304  -0.0264807 -0.275339 0.0133029  -0.0271902 -0.288354 0.0139802  -0.0278871 -0.301334 0.0146601  -0.0285704 -0.314269 0.015343  -0.0292447 -0.327154 0.0160299  0 0 -2.98023e-08  9.03606e-05 -0.000789702 -1.61529e-05  0.000116885 -0.00301909 9.82285e-05  2.91765e-05 -0.006538 0.000255078  -0.00017783 -0.0111986 0.00043577  -0.000475049 -0.0168544 0.000646859  -0.000801444 -0.0233717 0.000901043  -0.00114989 -0.0306793 0.00120121  -0.00152177 -0.0387122 0.00154498  -0.00192273 -0.0474118 0.001928  -0.00235355 -0.0567166 0.00234935  -0.00281608 -0.0665706 0.00280538  -0.0033114 -0.0769203 0.00329185  -0.00383782 -0.0877152 0.00380769  -0.00439203 -0.0989049 0.00434661  -0.00497329 -0.110445 0.00491062  -0.00557995 -0.122291 0.00549328  -0.00620651 -0.134403 0.00609317  -0.0068512 -0.146742 0.0067099  -0.0075109 -0.159272 0.00734022  -0.00818276 -0.171961 0.00798205  -0.00886369 -0.184776 0.00863513  -0.00955057 -0.19769 0.00929523  -0.0102415 -0.210678 0.00996286  -0.010936 -0.223715 0.0106355  -0.0116308 -0.236783 0.0113138  -0.0123248 -0.249858 0.0119948  -0.0130162 -0.262927 0.0126784  -0.0137043 -0.27598 0.0133659  -0.0143881 -0.289001 0.0140546  -0.0150692 -0.301986 0.0147422  -0.0157428 -0.314926 0.0154325  -0.0164089 -0.327811 0.0161232  0 0 -2.98023e-08  0.000601575 -0.00101423 -0.000726998  0.00145814 -0.00331551 -0.000934452  0.00233051 -0.00682592 -0.000894397  0.00312281 -0.0114533 -0.000718504  0.00380379 -0.0170909 -0.000456989  0.0043779 -0.0236278 -0.000131816  0.00485957 -0.030967 0.000245959  0.00525248 -0.0390351 0.00066942  0.00555789 -0.0477689 0.00113299  0.00577402 -0.0571061 0.00163054  0.00590336 -0.0669914 0.00215879  0.00594759 -0.0773696 0.00271466  0.00591111 -0.0881907 0.00329563  0.00579655 -0.0994058 0.00389707  0.00561166 -0.110968 0.00451881  0.00535893 -0.122835 0.00515625  0.00504565 -0.134967 0.00580806  0.00467658 -0.147323 0.00647399  0.00425839 -0.159869 0.00714898  0.00379515 -0.172571 0.00783229  0.00329399 -0.185398 0.00852346  0.00275731 -0.198322 0.00921839  0.00219297 -0.211318 0.00991675  0.00160313 -0.224362 0.0106184  0.000991106 -0.237434 0.0113207  0.000363588 -0.250513 0.0120243  -0.000276804 -0.263586 0.0127271  -0.000926733 -0.27664 0.0134274  -0.00158405 -0.289663 0.0141276  -0.00224566 -0.302648 0.0148234  -0.00291014 -0.315593 0.0155204  -0.00356889 -0.328482 0.0162146  0 0 -2.98023e-08  0.0011539 -0.00152361 -0.00140879  0.0028854 -0.00400007 -0.00193211  0.00473136 -0.00754911 -0.00201425  0.00651628 -0.0121623 -0.00185385  0.00816667 -0.0177724 -0.00154927  0.00965482 -0.0242915 -0.00115487  0.0109777 -0.0316276 -0.000698715  0.0121425 -0.0397006 -0.000194609  0.0131546 -0.0484406 0.000348032  0.0140166 -0.0577852 0.000920266  0.0147355 -0.0676759 0.00152233  0.0153145 -0.0780606 0.00214678  0.0157611 -0.088886 0.00279158  0.0160829 -0.100105 0.00345477  0.016289 -0.111672 0.00413424  0.0163853 -0.123541 0.00482693  0.0163801 -0.135675 0.00552914  0.0162818 -0.148031 0.00624213  0.0160997 -0.160577 0.00696138  0.0158415 -0.173278 0.00768602  0.0155149 -0.186104 0.00841483  0.0151248 -0.199026 0.00914511  0.0146813 -0.212018 0.00987521  0.0141892 -0.225058 0.0106052  0.0136578 -0.238126 0.0113315  0.0130918 -0.251202 0.0120555  0.0124972 -0.264271 0.0127749  0.0118821 -0.27732 0.0134895  0.0112476 -0.290339 0.0142004  0.0106006 -0.303323 0.0149066  0.0099442 -0.316267 0.0156074  0.00928974 -0.329166 0.0163049  0 0 -2.98023e-08  0.00178397 -0.00240982 -0.00202921  0.00449646 -0.00512421 -0.00284109  0.00738111 -0.00872123 -0.003043  0.0101865 -0.0133151 -0.00290641  0.0128098 -0.0188848 -0.00257045  0.0152106 -0.0253611 -0.00211632  0.0173756 -0.0326616 -0.00158891  0.0193098 -0.0407073 -0.00100985  0.0210208 -0.0494279 -0.000392586  0.0225196 -0.0587513 0.000252128  0.0238156 -0.068625 0.000921965  0.0249176 -0.0789918 0.00161156  0.0258368 -0.0898011 0.00231797  0.0265836 -0.101003 0.00304005  0.0271684 -0.112553 0.00377402  0.027602 -0.124408 0.00451851  0.0278947 -0.136525 0.00527078  0.0280569 -0.148866 0.00602877  0.0280988 -0.161397 0.00679004  0.0280328 -0.174083 0.00755444  0.0278671 -0.186893 0.00831833  0.0276136 -0.199799 0.00908095  0.0272799 -0.212778 0.00984189  0.0268764 -0.225803 0.0105971  0.026412 -0.238858 0.0113473  0.0258965 -0.251922 0.0120907  0.0253391 -0.264979 0.0128285  0.0247457 -0.278018 0.0135561  0.0241263 -0.291029 0.0142761  0.0234873 -0.304007 0.0149878  0.0228353 -0.316948 0.0156926  0.0221777 -0.329857 0.0163902  0 0 -2.98023e-08  0.00243641 -0.00390714 -0.00260577  0.00637028 -0.00686377 -0.00363556  0.0104367 -0.010456 -0.00393635  0.0143285 -0.0149866 -0.00382894  0.0179487 -0.0204767 -0.00347728  0.0212579 -0.0268746 -0.00298139  0.0242514 -0.034103 -0.00239339  0.0269349 -0.0420877 -0.00174934  0.0293251 -0.0507541 -0.00106591  0.0314384 -0.0600298 -0.000355452  0.0332911 -0.0698581 0.000377089  0.0348964 -0.0801827 0.00112689  0.0362676 -0.0909526 0.00189042  0.0374202 -0.102115 0.00266665  0.038366 -0.113628 0.00345108  0.0391183 -0.125445 0.00424474  0.03969 -0.137528 0.00504002  0.0400932 -0.149834 0.00584009  0.0403433 -0.162331 0.00664061  0.040451 -0.174985 0.00744227  0.0404301 -0.187766 0.00823867  0.0402937 -0.200642 0.00903255  0.0400515 -0.213594 0.00982088  0.0397179 -0.226591 0.0106004  0.0393026 -0.239622 0.0113712  0.0388191 -0.252664 0.0121343  0.0382788 -0.265703 0.0128854  0.037693 -0.278726 0.0136269  0.0370719 -0.291725 0.0143566  0.0364261 -0.304693 0.0150718  0.0357668 -0.31763 0.0157808  0.0351052 -0.330543 0.0164777  0 0 0  -0.00437834 -0.00360928 0.00395387  -0.00841498 -0.0060241 0.00530744  -0.0123818 -0.00934688 0.00586498  -0.0162816 -0.0136725 0.00605929  -0.0200821 -0.0189507 0.00608468  -0.0237501 -0.0251074 0.00604379  -0.0272604 -0.0320715 0.00599086  -0.030593 -0.0397764 0.00595891  -0.0337434 -0.0481558 0.00596714  -0.0367136 -0.0571548 0.00601363  -0.039501 -0.0667152 0.00610805  -0.0421119 -0.0767846 0.00624877  -0.0445534 -0.0873144 0.00643271  -0.0468292 -0.0982509 0.00665891  -0.0489517 -0.109555 0.00692648  -0.0509229 -0.12118 0.00723153  -0.0527525 -0.133088 0.00757372  -0.0544484 -0.145236 0.00794971  -0.0560195 -0.157596 0.00835329  -0.0574708 -0.170131 0.00878733  -0.0588095 -0.182812 0.00924873  -0.0600455 -0.195605 0.00973552  -0.0611861 -0.208486 0.0102464  -0.062238 -0.221434 0.0107787  -0.0632091 -0.234419 0.0113372  -0.0641122 -0.247431 0.011913  -0.0649521 -0.260446 0.0125076  -0.0657353 -0.273453 0.0131255  -0.0664744 -0.286441 0.0137572  -0.0671799 -0.299398 0.0144078  -0.0678611 -0.312318 0.0150759  -0.0685341 -0.325207 0.0157546  0 0 0  -0.00159254 -0.00107931 0.00332171  -0.00524656 -0.00414391 0.00424063  -0.0084978 -0.00767437 0.00468194  -0.0115881 -0.0121317 0.00486505  -0.0145626 -0.0175301 0.00492871  -0.0174254 -0.0238131 0.00495058  -0.0201711 -0.0309102 0.0049752  -0.0227924 -0.0387527 0.00502491  -0.0252866 -0.0472726 0.00511259  -0.0276525 -0.0564078 0.00524265  -0.029892 -0.0661003 0.00541544  -0.0320063 -0.076298 0.00563186  -0.0340024 -0.0869486 0.00589001  -0.0358832 -0.098001 0.00618356  -0.0376524 -0.109413 0.00651509  -0.0393165 -0.12114 0.00688142  -0.0408792 -0.133141 0.00727844  -0.0423441 -0.145377 0.00770622  -0.0437181 -0.157816 0.00815952  -0.0450034 -0.170423 0.00863826  -0.0462081 -0.183168 0.00914085  -0.0473366 -0.196018 0.00966477  -0.0483935 -0.20895 0.0102082  -0.0493841 -0.221941 0.0107731  -0.0503137 -0.234966 0.0113547  -0.0511911 -0.248011 0.0119519  -0.0520155 -0.261052 0.0125675  -0.0528011 -0.274082 0.0131985  -0.0535491 -0.287087 0.0138398  -0.0542686 -0.300055 0.0144976  -0.0549603 -0.312982 0.015166  -0.0556378 -0.325872 0.0158473  0 0 0  -0.000950918 -0.000464663 0.00214779  -0.00278638 -0.00262836 0.0030731  -0.00519526 -0.00637683 0.00334781  -0.00744796 -0.0109936 0.00349885  -0.00959307 -0.0165203 0.00359643  -0.0116477 -0.0229199 0.00368792  -0.013624 -0.0301302 0.00379694  -0.015521 -0.0380835 0.00393963  -0.0173421 -0.0467121 0.00411999  -0.0190876 -0.055954 0.00434077  -0.0207571 -0.0657496 0.00460303  -0.0223557 -0.0760457 0.00490463  -0.0238837 -0.0867905 0.00524259  -0.0253439 -0.0979331 0.00561565  -0.0267394 -0.109429 0.00601953  -0.0280706 -0.121234 0.00645286  -0.0293405 -0.133309 0.00691485  -0.0305517 -0.145613 0.00740099  -0.0317061 -0.158114 0.00790894  -0.0328052 -0.170777 0.00844002  -0.0338502 -0.183571 0.00899178  -0.0348458 -0.196466 0.00955772  -0.0357971 -0.20944 0.0101406  -0.0367036 -0.222465 0.0107396  -0.0375686 -0.23552 0.0113501  -0.0383971 -0.248589 0.011974  -0.0391917 -0.261654 0.0126109  -0.0399544 -0.274701 0.0132576  -0.0406914 -0.287719 0.0139153  -0.0414062 -0.3007 0.01458  -0.0421 -0.313635 0.0152537  -0.0427792 -0.326525 0.0159346  0 0 0  -0.00042095 -0.000193864 0.00105953  -0.00127292 -0.00211012 0.00163764  -0.0024038 -0.00555652 0.00192499  -0.00372839 -0.010257 0.00206202  -0.00500649 -0.0158878 0.00219977  -0.00623786 -0.0223864 0.0023616  -0.00743079 -0.0296904 0.0025599  -0.00859326 -0.0377321 0.00279754  -0.00972843 -0.0464464 0.00307542  -0.0108389 -0.0557695 0.00339162  -0.0119271 -0.0656442 0.00374514  -0.0129925 -0.0760144 0.00413585  -0.0140383 -0.0868292 0.00455827  -0.0150641 -0.09804 0.00501037  -0.0160693 -0.1096 0.00549144  -0.0170527 -0.121463 0.00599617  -0.0180144 -0.133594 0.00652522  -0.0189567 -0.145949 0.00707209  -0.0198746 -0.158497 0.00764066  -0.0207705 -0.171202 0.00822383  -0.0216429 -0.184034 0.00882244  -0.0224943 -0.196964 0.00943261  -0.0233243 -0.209966 0.0100579  -0.0241313 -0.223017 0.0106919  -0.0249195 -0.236096 0.0113349  -0.025686 -0.249183 0.0119867  -0.0264325 -0.262264 0.0126464  -0.0271647 -0.275325 0.0133113  -0.0278792 -0.288353 0.0139847  -0.0285792 -0.301343 0.0146621  -0.0292664 -0.314285 0.0153424  -0.0299423 -0.327173 0.0160289  0 0 0  8.30591e-05 -0.000187188 5.96046e-06  8.12113e-05 -0.00204822 0.000189483  -4.75943e-05 -0.00539097 0.000378072  -0.000308335 -0.0099974 0.000559092  -0.000667691 -0.0156719 0.000751972  -0.00104547 -0.0222362 0.000995457  -0.00143886 -0.0296061 0.00128812  -0.00185156 -0.0377122 0.00162494  -0.00229061 -0.0464872 0.00200236  -0.00275683 -0.055867 0.00241715  -0.00325418 -0.0657966 0.00286531  -0.00378001 -0.0762185 0.00334543  -0.00433552 -0.0870818 0.00385451  -0.00491679 -0.0983384 0.00438905  -0.00552344 -0.10994 0.00494713  -0.00615275 -0.121845 0.00552464  -0.00679922 -0.134012 0.00612032  -0.00746179 -0.146402 0.00673109  -0.0081377 -0.158981 0.00735748  -0.00882196 -0.171714 0.00799602  -0.00951481 -0.18457 0.00864542  -0.0102131 -0.197521 0.00930172  -0.0109141 -0.210544 0.00996679  -0.0116146 -0.223611 0.0106391  -0.0123158 -0.236705 0.0113142  -0.0130131 -0.249804 0.0119945  -0.0137088 -0.262894 0.0126774  -0.0144002 -0.275962 0.0133641  -0.0150864 -0.288998 0.0140513  -0.0157669 -0.301992 0.0147406  -0.0164423 -0.314939 0.015431  -0.0171092 -0.32783 0.0161228  0 0 0  0.000592008 -0.00043267 -0.00102001  0.0014247 -0.00237012 -0.0012387  0.00223738 -0.00569916 -0.00118423  0.00295919 -0.0102643 -0.000996351  0.00356907 -0.0159094 -0.000725508  0.00407714 -0.0224936 -0.000391841  0.00450307 -0.0298979 -1.84774e-06  0.00485134 -0.0380392 0.000438333  0.00511706 -0.0468482 0.000918627  0.00529861 -0.0562614 0.00143379  0.00539613 -0.06622 0.00197828  0.00541151 -0.0766693 0.0025503  0.00534928 -0.0875576 0.00314611  0.00521219 -0.0988394 0.00376147  0.00500607 -0.110463 0.00439703  0.00473332 -0.122389 0.00504649  0.00440288 -0.134575 0.00571066  0.00401974 -0.146982 0.00638646  0.00358963 -0.159576 0.00707269  0.00311732 -0.172322 0.00776571  0.00260639 -0.18519 0.00846565  0.00206375 -0.198151 0.00916928  0.00149274 -0.211182 0.0098753  0.0008986 -0.224256 0.0105833  0.000285149 -0.237355 0.0112926  -0.000342846 -0.250457 0.0120021  -0.000983953 -0.26355 0.0127094  -0.00163364 -0.27662 0.0134133  -0.00229025 -0.289657 0.0141174  -0.00294995 -0.302652 0.014819  -0.00361347 -0.315602 0.0155185  -0.00427318 -0.328497 0.0162168  0 0 0  0.00113133 -0.000968099 -0.00201643  0.00284648 -0.0030821 -0.00263166  0.00461823 -0.00645363 -0.00271904  0.00631332 -0.0110028 -0.00253928  0.00787771 -0.0166163 -0.00220585  0.00929254 -0.0231782 -0.00177717  0.010555 -0.0305775 -0.00128287  0.0116705 -0.038723 -0.000738084  0.0126417 -0.0475384 -0.000153959  0.0134708 -0.0569571 0.000460088  0.0141602 -0.0669208 0.00110084  0.0147133 -0.0773746 0.00176412  0.0151383 -0.0882666 0.00244474  0.0154427 -0.099549 0.00314277  0.0156291 -0.111176 0.00385338  0.0157104 -0.123102 0.0045771  0.0156925 -0.135289 0.00530863  0.0155828 -0.147696 0.00604749  0.0153916 -0.160288 0.00679302  0.0151262 -0.173033 0.00753969  0.0147929 -0.185899 0.00828952  0.0144 -0.198858 0.00903994  0.0139544 -0.211884 0.00978702  0.0134625 -0.224954 0.0105338  0.0129309 -0.238048 0.0112741  0.0123672 -0.251147 0.0120111  0.0117764 -0.264236 0.012742  0.0111647 -0.277301 0.0134655  0.0105345 -0.290334 0.0141846  0.00989199 -0.303327 0.0148973  0.00923967 -0.316276 0.0156056  0.0085845 -0.329178 0.0163062  0 0 0  0.00172132 -0.00187421 -0.00295335  0.00442618 -0.0042367 -0.00394177  0.0072301 -0.00766557 -0.00417048  0.00993234 -0.0122013 -0.00400943  0.0124601 -0.0177746 -0.00362498  0.0147811 -0.0242909 -0.00310951  0.0168834 -0.0316517 -0.00251442  0.0187674 -0.0397674 -0.00186783  0.0204387 -0.0485601 -0.00118232  0.0219072 -0.0579557 -0.000470757  0.0231752 -0.0679 0.000261724  0.0242568 -0.0783333 0.00101155  0.0251573 -0.0892059 0.00177598  0.0258881 -0.10047 0.00255305  0.0264587 -0.112077 0.00333798  0.0268795 -0.123985 0.00413096  0.0271626 -0.136154 0.00492734  0.027317 -0.148543 0.0057283  0.0273535 -0.161119 0.00653017  0.0272822 -0.173848 0.00732976  0.0271163 -0.186696 0.00812829  0.0268617 -0.199639 0.0089224  0.0265284 -0.21265 0.00971037  0.0261283 -0.225703 0.0104919  0.0256672 -0.238784 0.0112624  0.0251577 -0.251871 0.0120276  0.0246055 -0.264947 0.0127819  0.024019 -0.278003 0.013523  0.0234077 -0.291026 0.0142558  0.0227749 -0.304013 0.0149767  0.0221286 -0.316958 0.0156898  0.0214739 -0.329868 0.0163929  0 0 0  0.00235489 -0.00328881 -0.0037533  0.00624016 -0.00591791 -0.00503242  0.010207 -0.00936705 -0.00538349  0.0139891 -0.0138566 -0.00525159  0.0175113 -0.0193617 -0.00483781  0.020743 -0.0258071 -0.0042628  0.0236773 -0.0331022 -0.00358671  0.0263162 -0.0411578 -0.00285214  0.0286725 -0.0498972 -0.00208044  0.030759 -0.0592456 -0.00128376  0.0325902 -0.0691437 -0.000469565  0.0341777 -0.0795356 0.000356495  0.0355359 -0.0903674 0.00119573  0.036676 -0.101591 0.00204122  0.0376116 -0.11316 0.00288975  0.0383556 -0.125032 0.00374717  0.0389197 -0.137166 0.00460088  0.03932 -0.14952 0.00545532  0.0395687 -0.16206 0.00630867  0.0396748 -0.174759 0.007155  0.0396562 -0.187576 0.00799769  0.0395205 -0.200489 0.00883061  0.0392826 -0.213472 0.00965554  0.038955 -0.226499 0.0104674  0.0385461 -0.239555 0.0112676  0.0380716 -0.25262 0.0120559  0.0375392 -0.265679 0.0128281  0.0369618 -0.278717 0.0135872  0.0363493 -0.291727 0.0143319  0.0357125 -0.304703 0.0150598  0.0350573 -0.317644 0.0157744  0.0343976 -0.330559 0.0164776  
SCALARS smooth_stress float 1
LOOKUP_TABLE default
524.399 791.091 696.672 654.704 620.559 586.883 552.3 516.849 481.098 445.177 409.457 374.792 341.051 308.729 277.712 248.298 220.494 194.226 169.634 146.917 125.511 106.097 88.3177 72.2535 57.9573 45.4007 34.5855 25.1846 17.5945 11.2823 6.11855 3.36789 0.634158 437.296 899.295 826.838 779.525 741.057 704.706 667.369 628.536 588.985 548.838 508.475 468.675 429.64 391.864 355.742 321.219 288.48 257.516 228.146 201.036 175.564 151.885 130.105 110.266 92.2625 76.0882 61.4661 48.3297 36.4008 25.5984 15.8293 8.21824 1.97662 247.125 536.671 531.855 531.941 517.025 499.768 480.298 458.693 435.654 411.509 386.821 361.521 336.525 311.806 288.079 265.099 242.915 221.464 201.074 181.932 163.59 145.961 129.372 113.649 98.9549 84.8062 71.4409 58.8092 46.6559 34.7559 23.4363 12.897 3.13231 128.712 291.614 308.524 343.809 355.755 356.865 352.743 345.085 334.677 322.312 308.999 294.352 279.185 263.768 248.39 233.05 217.829 202.674 187.785 173.323 159.108 144.816 130.852 117.168 103.815 90.4573 77.5475 65.0664 52.847 40.4308 28.3851 16.1628 3.94224 154.353 269.568 291.722 325.825 341.96 346.121 344.007 337.727 328.41 317 304.325 290.526 276.178 261.572 246.884 232.188 217.528 203.058 188.652 174.552 160.48 146.373 132.507 118.972 105.474 92.1792 79.0546 66.2488 53.8113 41.5382 29.5166 17.214 4.29312 307.783 492.009 489.833 498.808 495.843 484.023 467.283 447.483 425.401 402.26 378.591 354.49 330.775 307.749 285.26 263.616 242.643 222.599 203.397 185.067 167.543 150.557 134.341 118.905 103.929 89.7953 76.0124 63.0131 50.3857 38.2272 26.7633 15.9051 4.14075 499.69 790.437 757.476 744.859 722.561 692.24 656.837 618.921 579.409 539.462 500.093 461.272 423.488 387.195 352.567 319.376 288.252 258.713 230.969 204.931 180.641 158.186 137.339 117.961 100.093 83.7046 68.7943 55.2128 42.663 30.8373 20.3181 12.3991 3.75918 742.018 1154.51 1062.41 1023.85 980.759 930.641 875.576 817.964 759.628 701.646 645.007 590.23 537.256 486.282 438.217 392.329 348.986 308.236 270.312 235.036 202.182 171.884 144.489 119.479 97.1468 76.9563 59.5006 44.503 31.4271 20.6164 11.8234 7.97883 2.66085 220.31 466.534 415.33 398.493 381.034 361.199 339.43 316.678 293.62 270.85 248.635 227.192 206.536 186.665 167.822 150.003 133.121 117.139 102.328 88.5586 75.7885 63.923 53.1231 43.3808 34.6178 26.8396 20.0709 14.4856 9.48792 5.80131 2.91805 1.70363 0.919688 622.248 1203.26 1111.6 1045.58 986.857 928.187 869.131 809.738 750.89 692.869 635.985 580.731 527.868 477.265 428.817 382.789 339.53 298.8 260.369 225.09 192.02 161.675 134.209 109.149 87.0214 67.5235 50.767 36.4863 24.5747 15.4639 8.26691 4.47362 1.17108 518.65 1825.48 1922.12 1767.89 1658.45 1560.74 1465.91 1371.38 1277.54 1184.93 1093.68 1004.36 918.159 834.844 755.29 679.518 607.968 540.348 476.547 417.255 362.091 310.743 263.837 221.115 182.582 148.215 117.632 90.9402 67.093 46.5918 28.6182 15.0579 5.08167 297.555 1085.44 1307.74 1254.62 1181.93 1117.68 1057.11 997.448 937.994 878.776 820.143 761.961 705.214 649.693 596.281 545.374 496.671 450.065 405.818 364.052 324.983 287.701 252.844 220.297 190.132 161.923 135.44 110.972 87.6915 65.4402 44.2586 25.0795 8.17556 166.859 625.915 785.135 815.779 801.676 775.114 747.447 718.568 688.545 656.476 624.168 591.042 557.312 523.95 490.826 458.6 426.612 395.401 364.642 335.195 306.668 278.363 250.853 224.244 198.259 172.888 147.807 124.048 100.773 77.4654 54.4542 32.1905 10.7513 195.27 509.043 624.544 671.831 682.053 672.436 657.691 639.729 619.116 595.891 571.298 545.628 518.822 491.797 464.53 437.414 410.251 383.446 356.631 330.175 304.189 278.196 252.102 226.813 201.658 176.846 151.976 127.886 104.411 81.063 57.8917 35.2331 11.7867 370.279 833.451 935.642 949.918 931.995 899.049 861.298 821.694 780.392 738.099 695.524 652.953 610.734 569.685 529.689 490.924 453.36 417.278 382.592 349.259 317.399 286.483 256.403 227.829 200.122 173.726 148.041 123.06 99.0858 75.6244 53.4561 32.9961 11.4597 604.147 1360.36 1476.96 1443.8 1385.76 1315.03 1239.34 1163.08 1086.88 1011.25 937.451 865.478 795.56 728.744 665.042 603.967 546.233 491.65 440.206 392.062 346.886 304.98 265.783 229.418 195.582 164.667 136.4 110.197 86.0154 63.2616 42.4599 26.2651 10.3225 916.652 2027.24 2117.41 2018.27 1914.21 1802.66 1686.97 1570.81 1456.46 1344.39 1235.71 1131.21 1030.7 934.315 843.026 756.331 674.084 597.013 525.021 457.822 395.317 338.042 285.73 237.744 194.398 155.933 121.889 92.8494 67.2616 45.5218 27.8911 17.7623 8.01408 368.02 1252.69 1303.81 1216.19 1148.43 1080.42 1010.38 939.802 869.955 801.748 735.69 672.225 611.422 553.004 497.501 445.254 395.477 348.474 304.75 264.22 226.419 191.533 159.635 130.867 104.754 81.8197 61.4198 44.57 30.2412 18.6124 10.1313 5.73704 4.26555 611.751 1168.35 1119.95 1077.15 1020.96 959.779 896.674 833.118 770.398 708.938 649.57 592.2 537.388 485.254 435.428 388.269 343.932 302.329 263.292 226.942 193.318 162.514 134.454 109.049 86.5167 66.6762 49.555 35.3218 23.3963 14.3068 7.38461 3.69933 0.894114 493.136 1695.92 1968.99 1861.94 1745.25 1633.22 1524 1417.54 1313.73 1212.84 1115.51 1021.23 930.96 844.918 762.72 684.377 610.794 541.614 476.759 415.852 359.319 307.201 259.615 216.593 177.485 142.695 112.087 85.5262 62.2315 42.1684 25.3493 12.9494 4.30474 294.133 954.722 1361.27 1372.79 1272.27 1183.35 1103.39 1029.07 958.637 891.233 826.508 763.875 703.811 646.17 590.391 537.599 487.818 440.315 395.547 353.351 313.669 276.29 241.447 209.369 179.575 151.779 126.242 102.587 80.579 59.7449 39.8363 22.1959 7.18446 188.627 590.743 860.503 930.38 879.534 821.62 771.854 727.497 686.986 648.396 610.918 574.709 539.074 504.624 470.632 437.946 406.304 375.363 345.158 316.296 288.438 261.009 234.582 209.227 184.526 160.311 136.744 114.162 92.1815 70.5554 49.2573 28.4803 9.38633 212.865 520.145 712.656 754.574 729.026 688.488 652.748 621.719 593.229 565.929 538.65 512.105 485.477 459.252 433.178 407.331 381.777 356.567 331.351 306.53 282.101 257.738 233.638 210.015 186.519 163.241 140.389 117.777 95.8845 73.9593 52.2362 30.9772 10.189 359.182 783.76 974.969 996.51 955.661 899.707 844.917 794.829 747.881 702.473 658.452 616.212 574.955 535.262 496.741 459.67 423.978 389.85 356.909 325.383 295.373 266.308 238.095 211.126 185.146 160.265 136.51 113.053 90.7095 68.9605 48.0456 29.2256 10.2094 575.411 1232.56 1472.67 1482.43 1410.8 1321.2 1230.25 1143.48 1061.34 982.745 907.307 835.186 765.986 700.217 637.772 578.285 521.855 468.632 418.906 372.096 328.477 288 250.293 215.447 183.002 153.391 126.53 101.73 78.5062 57.0913 37.6802 23.1951 9.23895 879.883 1818 2089.39 2068.47 1950.94 1819.09 1687.16 1559.87 1438.76 1323.27 1213.16 1107.84 1007.78 912.437 822.23 736.964 656.258 580.526 509.532 443.621 382.417 326.098 274.733 228.09 185.578 148.129 115.382 87.0805 62.6183 41.6781 25.3513 15.9486 7.4554 358.372 1104.22 1284.36 1260.11 1177.81 1095.66 1015.58 938.3 864.45 794.078 727.143 663.051 602.372 544.487 489.404 437.699 388.57 342.411 299.115 259.009 221.659 187.253 156.07 127.657 101.912 79.205 59.6143 42.8597 29.071 17.6398 9.56294 5.57933 4.37225 617.237 1172.76 1115.65 1086.25 1039.28 980.638 917.035 851.836 787.05 723.736 662.427 603.505 547.235 493.654 442.694 394.623 349.33 306.724 266.906 229.955 195.879 164.569 135.962 110.214 87.1743 67.1491 49.8802 35.2416 23.3216 14.156 7.39032 3.42253 0.644042 492.021 1693.25 1966.04 1892 1793.8 1682.57 1569.06 1456.67 1347.08 1241.28 1139.17 1041.4 948.051 859.013 774.464 694.348 618.813 547.885 481.456 419.359 361.707 308.743 260.277 216.368 176.845 141.404 110.572 83.7321 60.5188 40.6045 24.3489 12.1395 3.76715 300.212 951.776 1361.26 1417.29 1330.23 1234.87 1145.72 1062.83 985.02 911.912 842.355 775.85 712.481 652.451 595.158 540.285 488.538 440.146 394.051 351.042 310.441 272.383 237.444 205.079 175.22 147.221 121.837 98.6159 77.0585 56.7122 37.5869 20.5788 6.56381 204.124 612.208 872.229 978.702 936.401 864.451 801.45 746.924 698.344 654.073 612.677 573.327 535.489 499.431 464.6 430.565 398.123 367.051 336.541 307.733 279.78 252.756 226.489 201.393 177.27 153.552 130.651 108.649 87.4177 66.6045 46.4284 26.5112 8.47953 225.083 546.214 740.221 795.347 765.941 708.858 659.333 618.705 583.767 552.704 523.495 495.43 468.348 442.074 416.406 391.043 366.091 341.693 317.166 293.161 269.651 246.466 223.118 200.456 178.144 155.583 133.586 111.829 90.5359 69.5735 48.9739 28.5625 9.06522 357.123 778.686 975.924 1010.63 966.114 899.587 834.928 777.888 726.77 679.321 634.758 592.18 551.435 512.656 475.489 439.783 405.456 372.642 341.07 310.766 281.767 253.838 227.072 201.327 176.363 152.265 129.399 107.353 85.798 65.0483 45.1176 27.0073 9.1581 563.731 1194.77 1430.73 1471.49 1410.53 1316.96 1219.19 1126.58 1040.93 960.709 884.659 812.576 744.309 679.392 617.934 559.734 504.88 452.994 404.467 358.954 316.514 277.15 240.373 206.729 175.465 146.659 120.496 96.5809 74.4136 53.9195 35.2474 21.4801 8.43999 864.591 1758.87 2006.77 2041.95 1950.34 1817.54 1679.53 1546.61 1421.61 1304.08 1193.45 1088.32 988.884 894.699 805.542 721.409 642.163 567.777 497.799 433.092 373.122 317.718 267.236 221.421 180.169 143.171 111.161 83.6056 60.1263 39.8431 23.8935 14.9073 7.00182 354.691 1069.68 1218.9 1242.3 1181.99 1098.4 1014.08 933.289 857.155 785.465 718.092 654.249 593.601 536.323 481.9 430.599 382.224 336.947 294.197 254.284 217.763 183.803 152.986 124.968 99.8935 77.466 58.1399 41.7306 28.3744 17.4622 9.60188 5.60692 4.13875 626.976 1186.21 1121.5 1092.37 1050.35 995.282 932.65 867.308 801.6 737.003 674.571 614.27 556.829 502.191 450.322 401.371 355.057 311.647 271.244 233.57 198.975 167.087 138.092 111.824 88.5508 68.2073 50.6316 35.6923 23.815 14.4311 7.4709 3.40697 0.633246 501.275 1714.68 1985.48 1907.3 1819.58 1715.46 1603.04 1489.07 1376.8 1267.85 1163.07 1062.35 966.417 875.25 788.596 706.7 629.371 556.791 488.675 425.542 367.115 313.016 263.617 218.711 178.561 142.612 111.376 83.9607 60.4552 40.4803 24.1738 11.8307 3.44441 308.502 964.813 1383.96 1438.52 1360.81 1270.57 1179.98 1093.71 1012.11 935.173 862.526 793.137 727.298 664.771 605.522 549.263 495.825 445.769 398.443 354.248 312.854 274.133 238.419 205.413 174.956 146.726 120.98 97.6139 75.9287 55.7645 36.9719 19.9122 6.02595 211.632 628.405 893.444 998.455 966.009 896.014 829.025 769.866 716.983 668.843 624.626 582.659 542.711 504.62 468.353 433.651 399.907 367.662 336.854 307.202 278.845 251.127 224.831 199.681 175.071 151.352 128.536 106.742 85.6495 65.1657 45.1599 25.5662 8.06319 227.669 555.974 750.198 804.7 782.373 723.299 668.741 623.645 585.484 551.656 520.988 492.007 464.303 437.613 411.682 386.353 361.354 336.729 312.748 288.724 265.424 242.285 219.553 197.211 174.872 152.75 130.961 109.611 88.3245 67.7323 47.5517 27.4503 8.53105 353.841 771.022 963.262 1000.68 961.144 893.079 825.479 766.128 713.318 665.062 620.589 578.502 538.291 500.227 464.003 429.307 395.979 363.835 333.288 303.741 275.555 248.154 222.02 196.985 172.745 149.253 126.485 104.785 83.4421 63.1528 43.7353 25.6553 8.26423 556.158 1171.78 1398.71 1441.9 1391.18 1300.87 1203.02 1109.73 1023.04 942.348 866.801 795.591 728.087 664.284 603.961 546.893 493.545 442.913 395.372 350.952 309.731 271.107 235.164 202.077 171.795 143.636 117.916 94.1834 72.4353 52.5274 34.5836 20.8849 7.98072 854.18 1727.34 1960.82 1996.22 1923.34 1799.98 1663.4 1529.53 1403.76 1285.97 1175.47 1070.9 972.56 879.585 791.659 708.333 630.394 557.434 488.931 425.122 366.131 311.973 262.485 217.138 176.762 140.554 108.997 81.6871 58.5468 39.0375 23.5877 14.61 6.7079 351.518 1053.32 1190.84 1210.91 1166.48 1090.74 1007.25 925.572 848.589 776.557 709.093 645.47 585.33 528.622 474.995 424.22 376.331 331.676 289.726 250.495 214.263 180.967 150.538 122.959 98.1804 76.1401 57.0214 40.8917 27.7988 17.2377 9.54942 5.52034 3.85696 640.285 1201.82 1132.56 1101.54 1059.85 1006.62 945.44 880.396 814.474 749.186 685.777 624.832 566.357 510.691 457.912 408.227 361.136 317.122 275.971 237.916 202.628 170.125 140.834 114.174 90.4734 69.7474 51.7972 36.6334 24.3965 14.741 7.49775 3.46795 0.623518 519.658 1743.28 2009.11 1925.34 1838.37 1738.5 1629.5 1516.37 1403.69 1293.25 1186.33 1083.97 986.012 892.847 804.383 720.948 642.045 568.018 498.596 434.148 374.45 319.264 268.937 223.353 182.196 145.838 113.79 85.8849 61.8501 41.4477 24.5775 12.1888 3.5181 318.738 982.271 1402.98 1456.95 1380.29 1294.64 1207.14 1121.16 1038.74 960.278 885.366 814.041 746.269 681.895 620.904 563.025 508.207 456.371 408.019 362.328 319.804 280.194 243.288 209.471 178.326 149.701 123.158 99.2736 77.0038 56.4981 37.4938 20.2911 6.00349 211.301 634.289 901.28 1010.13 981.828 917.301 853.217 793.969 739.907 690.341 644.097 600.404 558.738 519.12 481.025 444.891 410.261 376.402 344.655 313.912 284.644 256.153 228.803 202.833 177.839 153.539 130.293 108.066 86.5247 65.972 45.7572 25.6652 7.91122 221.367 547.241 740.562 798.945 783.525 730.564 678.628 634.101 595.639 561.363 529.935 500.422 471.962 444.585 417.97 391.824 366.688 341.439 316.851 292.671 269.018 245.487 222.248 199.375 176.772 154.169 132.051 110.531 88.9021 67.9935 47.7194 27.3618 8.35306 349.486 753.729 937.875 976.141 943.175 880.778 815.335 757.762 706.373 659.296 615.396 574.216 534.814 497.461 461.882 427.492 394.75 363.279 333.079 303.957 275.984 248.871 222.861 197.901 173.916 150.435 127.439 105.695 84.1481 63.3635 43.95 25.6247 7.97232 552.332 1151.51 1365.89 1406.3 1360.9 1276.79 1182.29 1091.49 1006.87 927.804 853.399 783.524 717.359 654.725 595.762 539.879 487.467 437.817 391.39 347.637 307.2 269.541 234.042 201.242 171.358 143.862 118.261 94.6171 72.8099 52.7443 34.7856 20.8395 7.69636 846.763 1705.53 1926.14 1955.67 1886.93 1771.64 1639.97 1508.86 1384.46 1268.02 1158.66 1055.54 958.614 866.82 780.184 698.196 621.56 549.716 482.317 419.537 361.746 308.565 259.825 215.124 175.222 139.829 108.654 81.5558 58.3382 38.9659 23.8272 14.7641 6.78853 348.055 1042.24 1173.62 1188.79 1145.89 1076.07 995.932 915.309 838.619 767.105 700.162 637.022 577.52 521.488 468.486 418.437 371.161 327.102 285.647 247.066 211.384 178.664 148.745 121.43 96.9779 75.3947 56.5148 40.526 27.3684 17.023 9.62171 5.54526 3.9485 664.55 1221.18 1145.18 1111.16 1068.85 1016.1 956.06 891.695 825.881 760.626 696.554 634.88 575.898 519.378 465.967 415.498 367.773 323.031 281.33 242.615 207.076 174.212 144.023 117.264 93.1231 71.8639 53.5344 38.118 25.5792 15.2689 7.65501 3.48879 0.633406 554.372 1782.57 2032.57 1942.5 1854.64 1756.9 1651.03 1540.39 1428.4 1318.14 1210.3 1106.39 1007.36 912.602 822.381 737.265 657.197 581.535 511.141 445.3 384.439 328.486 276.715 230.633 188.389 150.934 117.913 89.0496 64.6343 43.5324 25.6425 12.5697 3.67492 334.824 1005.5 1415.58 1470.34 1395.42 1313.42 1230.1 1147.31 1066.16 987.714 911.906 839.249 770.193 704.304 641.462 581.8 525.729 472.338 422.637 375.598 331.634 290.744 252.66 217.888 185.355 155.602 128.268 103.357 80.1068 59.0776 39.1862 21.3364 6.40019 202.913 629.833 893.618 1011.81 992.254 934.526 876.321 820.786 768.351 719.001 671.77 626.689 583.88 542.584 502.889 464.854 428.615 393.473 360.032 328.107 297.131 267.329 238.913 211.62 185.299 160.019 135.74 112.756 90.0521 68.8283 48.0882 27.2998 8.38909 205.272 517.691 709.499 778.808 776.874 735.107 691.25 651.634 615.698 582.534 551.157 520.93 491.811 463.478 435.754 408.549 382.216 356.1 330.299 305.307 280.361 255.761 231.536 207.644 183.881 160.401 137.206 114.748 92.3817 70.8635 50.0161 28.7376 8.72112 347.59 726.668 898.546 940.288 916.899 865.097 807.391 755.122 707.545 663.032 620.863 580.62 542.045 505.092 469.934 435.669 403.008 371.633 341.303 312.142 283.823 256.462 230.142 204.655 179.955 155.886 132.259 109.455 87.1905 65.648 45.6284 26.5262 8.31929 559.163 1134.95 1328.89 1365.74 1324.65 1248.24 1160.35 1074.24 993.764 917.847 846.112 777.711 713.169 651.727 594.074 539.299 487.59 438.858 393.25 350.388 310.174 272.863 237.922 205.27 175.286 147.682 121.882 97.914 75.5632 54.6491 35.9944 21.3255 7.73653 848.634 1691.98 1893.52 1915.72 1847.74 1737.78 1611.96 1485.49 1364.78 1251.16 1144.1 1042.83 947.502 857.229 771.999 691.583 615.88 545.215 478.951 417.294 360.102 307.689 259.573 215.605 176.114 141.137 110.207 83.2711 59.9374 40.0845 24.4627 15.0617 6.67564 345.93 1034.93 1160.02 1170.48 1126.38 1058.59 981.347 902.999 827.801 757.239 691.147 628.927 570.322 515.073 462.743 413.484 366.759 323.362 282.597 244.571 209.378 177.183 147.546 120.688 96.4864 75.258 56.6295 40.8021 27.6687 17.0124 9.61555 5.72309 3.90743 721.599 1263.94 1154.76 1115.43 1073.52 1022.9 964.86 901.949 836.971 772.007 707.981 645.752 586.199 529.068 475.004 423.816 375.508 330.188 287.951 248.451 212.22 179.109 148.52 121.052 96.4783 75.1837 56.2117 40.2811 27.2159 16.4496 8.03853 3.56635 0.814483 625.553 1866.02 2060.43 1953.05 1864.44 1771.04 1670.08 1563.37 1453.78 1344.35 1236.81 1132.19 1031.86 935.834 844.223 757.674 676.187 599.137 527.34 460.03 397.797 340.96 288.205 240.477 197.521 159.071 124.735 94.9233 69.1322 46.9422 27.7759 13.5466 3.90794 370.548 1046.41 1430.79 1481.76 1407.54 1330.61 1253.38 1175.46 1097.35 1020.22 944.749 871.409 801.023 733.826 669.411 607.85 550.091 495.296 443.586 395 349.307 307.104 267.705 231.084 197.347 165.816 137.037 110.718 85.984 63.6944 42.5115 23.4433 7.0439 188.49 619.312 873.599 1010.02 1003.18 954.957 904.546 854.923 805.812 757.567 710.494 664.262 620.017 577.109 535.441 495.344 457.055 420.016 384.255 350.245 317.533 286 255.774 226.6 198.707 171.212 145.422 120.895 96.6254 73.5742 51.616 29.45 9.16992 179.984 462.619 655.34 748.721 770.664 745.759 713.687 681.731 650.223 618.677 587.573 556.545 526.277 496.551 467.022 438.083 409.943 382.003 354.404 327.405 300.834 274.283 248.497 222.698 197.25 171.884 146.984 122.872 99.2373 75.9174 54.0041 31.3738 9.57892 354.375 689.19 841.183 893.835 887.917 852.272 807.293 763.861 722.159 681.019 640.786 601.381 563.321 526.483 490.785 456.348 423.104 390.923 359.943 329.972 300.683 272.042 244.696 218.133 191.973 166.315 141.418 116.998 93.4397 70.5597 49.2702 28.7582 8.92235 589.06 1131.83 1286.42 1319.75 1285.9 1219.92 1141.92 1063.65 989.094 917.387 848.413 782.366 719.114 659.104 602.086 548.318 497.095 448.788 403.425 361.152 321.225 283.566 248.301 215.424 184.906 156.367 129.488 104.351 81.1182 58.854 38.9402 22.7841 8.11385 877.046 1698.92 1859.71 1871.88 1805.05 1701.5 1583.63 1463.63 1348.48 1238.93 1134.92 1036.24 942.486 853.753 769.703 690.788 616.258 546.365 480.715 420.109 363.969 312.05 264.325 220.826 181.329 146.613 115.388 87.8394 64.0203 43.2794 26.3756 16.0359 6.77623 350.725 1036.42 1145.77 1150.79 1105.58 1039.29 965.017 889.418 816.78 748.034 683.41 622.386 564.674 510.206 458.625 410.104 364.164 321.167 280.959 243.522 208.885 177.009 147.779 121.252 97.2443 76.1874 57.7655 42.0763 28.8497 18.0062 9.9467 5.97446 4.06695 187.817 450.971 394.798 380.607 367.879 352.299 333.826 313.128 291.324 269.33 247.444 226.047 205.462 185.709 166.909 149.171 132.308 116.534 101.916 88.1442 75.4573 63.8128 53.2402 43.5791 34.8602 27.3704 20.6827 14.9513 10.1955 6.40113 3.26329 1.35633 0.407479 227.42 1029.93 1106.88 1028.58 983.52 939.133 890.277 836.882 780.702 723.504 666.736 611.021 557.207 505.763 456.394 409.806 365.674 324.084 285.304 248.963 215.245 184.267 155.981 129.856 106.477 85.6979 67.21 50.9553 37.049 25.244 14.9702 7.17577 2.5441 137.557 575.881 773.328 799.386 754.869 716.064 678.023 638.917 598.652 557.847 517.274 477.476 439.03 402.089 366.677 332.869 300.856 270.643 242.12 215.427 190.2 166.829 145.439 125.245 106.874 89.7076 74.1457 59.7839 46.7091 34.8917 23.7005 13.6222 5.11571 65.0435 331.613 453.731 542.985 544.357 520.177 495.384 470.627 445.212 419.313 393.581 367.898 342.987 318.908 295.489 272.831 251.146 230.535 210.436 191.318 173.019 155.638 139.12 123.098 107.958 93.1047 79.1039 65.8503 53.0806 40.7396 29.1401 17.577 6.85202 44.3024 196.939 301.671 369.814 397.493 391.591 378.939 365.122 350.202 334.412 318.254 301.804 285.472 269.435 253.359 237.548 222.23 207.219 192.118 177.437 163.035 148.857 134.893 121.078 107.4 93.8309 80.3999 67.4934 55.0256 42.4353 30.7721 18.9989 7.12893 108.909 288.96 357.307 399.59 412.743 406.531 391.624 375.76 359.137 341.787 323.81 305.908 288.22 270.956 253.902 237.31 221.123 205.506 190.168 175.299 160.559 146.153 132.012 118.321 104.702 91.3925 78.1394 65.1628 52.6796 40.3974 28.7416 17.6681 6.63525 189.945 509.622 572.544 597.12 591.029 568.114 537.55 505.344 473.818 442.814 412.048 382.324 353.421 326.05 299.626 274.572 250.766 228.107 206.64 186.694 167.608 149.373 132.183 116.03 100.594 86.204 72.3018 59.1858 46.7074 34.7624 23.7898 14.1535 5.66086 283.391 785.673 855.876 869.013 844.82 802.392 751.82 698.737 646.837 596.986 548.853 502.989 459.196 417.413 377.886 340.463 305.349 272.409 241.237 212.33 185.85 160.979 137.973 116.974 97.6554 80.6176 64.8734 50.7131 38.22 26.9778 17.1344 9.84619 4.68106 175.611 680.554 742.529 745.957 717.929 677.086 631.025 583.692 537.469 493.418 451.654 411.984 374.458 338.77 304.935 273.079 242.997 214.846 188.467 163.732 141.064 120.048 100.791 83.2974 67.4898 53.5 41.2404 30.5672 21.5045 14.0353 8.03134 4.51795 3.25479 
CELL_DATA 12288
SCALARS stress float 1
LOOKUP_TABLE default
77.9418 105.736 49.2377 49.2377 123.816 118.429 75.8651 100.579 88.9119 91.9782 97.5243 93.9872 71.61 95.1056 78.9499 81.8511 90.333 87.3105 68.3602 90.2654 73.4562 76.3432 85.7119 82.9237 65.4229 85.3187 69.0951 71.8537 81.394 78.8394 62.3293 80.2 65.0005 67.5343 76.966 74.6195 58.964 74.9791 60.9998 63.3141 72.2947 70.1633 55.465 69.7891 56.9405 59.0319 67.5569 65.6077 51.8422 64.5694 52.947 54.8417 62.7459 60.9869 48.1273 59.4972 49.0033 50.7009 57.8412 56.2748 44.4497 54.4083 45.1145 46.6066 53.0896 51.6726 40.8011 49.6048 41.3379 42.6789 48.4395 47.1677 37.2166 44.9865 37.6445 38.8398 43.9294 42.8266 33.8319 40.5481 34.1454 35.1671 39.6333 38.6466 30.5051 36.2956 30.7586 31.6629 35.5442 34.6661 27.3814 32.2989 27.554 28.354 31.6314 30.868 24.418 28.5591 24.5201 25.2047 27.9602 27.3331 21.6334 24.9731 21.6861 22.2395 24.4696 23.9308 18.9649 21.666 18.9674 19.4354 21.3229 20.877 16.5555 18.6239 16.501 16.8854 18.2528 17.8989 14.236 15.739 14.1743 14.4711 15.5078 15.2312 12.1316 13.1797 12.014 12.2433 12.9958 12.7935 10.1938 10.7758 10.0593 10.2199 10.6971 10.5824 8.472 8.66509 8.31218 8.39452 8.60244 8.52781 6.90193 6.81443 6.72556 6.77418 6.80218 6.80875 5.53318 5.17134 5.32054 5.30086 5.21303 5.25082 4.30552 3.82127 4.09354 4.05063 3.87396 3.97677 3.19382 2.61495 3.02504 2.93851 2.71995 2.84162 2.265 1.73567 2.1319 2.04055 1.87616 1.98363 1.41367 1.08421 1.34251 1.2707 1.11136 1.20002 0.703895 0.577288 0.699984 0.677982 0.541778 0.606246 0.3774 0.378689 0.38136 0.448259 0.307412 0.326746 46.5548 50.9182 28.8542 28.8542 78.0213 76.9143 44.8582 84.3185 55.1536 61.2646 70.4345 67.1825 49.3798 73.5555 56.3742 60.1616 66.1589 63.1784 48.9329 68.0483 53.2214 56.2868 62.8556 60.1052 47.7437 63.7942 50.4203 52.9694 59.9368 57.4296 46.2509 59.884 47.9038 50.0364 56.966 54.7061 44.3896 56.1328 45.4282 47.2172 53.8192 51.7978 42.3156 52.3648 42.8988 44.3969 50.6042 48.8063 40.0497 48.6944 40.3353 41.601 47.3157 45.7166 37.6927 45.0803 37.7624 38.8387 43.9401 42.5319 35.2639 41.5289 35.176 36.0743 40.6204 39.3733 32.756 38.0959 32.6063 33.3668 37.3348 36.2606 30.3541 34.74 30.1142 30.7286 34.1078 33.1702 27.9202 31.5417 27.6471 28.1545 31.045 30.2573 25.6646 28.4986 25.3123 25.7028 28.0819 27.4376 23.4409 25.6219 23.0737 23.3568 25.3081 24.7916 21.3294 22.8891 20.9333 21.1174 22.6685 22.2552 19.2613 20.3366 18.8773 18.9904 20.1824 19.8739 17.3411 17.9158 16.9207 16.9677 17.831 17.617 15.5368 15.7037 15.0958 15.0865 15.6967 15.5702 13.7937 13.6546 13.3807 13.3151 13.6701 13.6183 12.1932 11.7192 11.7596 11.6511 11.8066 11.854 10.6399 9.99689 10.2443 10.0713 10.1106 10.2027 9.22611 8.41516 8.83808 8.64662 8.56633 8.6996 7.9047 7.01798 7.54166 7.34053 7.1916 7.37281 6.65292 5.75408 6.33504 6.10984 5.96683 6.14071 5.47342 4.64544 5.19184 4.99585 4.85623 5.01271 4.38343 3.63486 4.16174 3.99956 3.8087 3.97131 3.38299 2.74245 3.16552 3.0118 2.87518 3.01053 2.34321 1.9027 2.22897 2.10986 1.98913 2.13395 1.41148 1.16198 1.36548 1.25316 1.18433 1.3122 0.591364 0.602693 0.621293 0.564981 0.58577 0.686709 20.7336 29.8024 13.9482 13.9482 46.3319 46.952 22.9157 49.6476 31.5556 38.2906 39.8561 37.6409 30.8646 49.0361 35.6339 39.7146 41.9801 39.3338 34.1018 45.6309 36.8527 39.2724 41.2003 38.8559 34.9746 42.8994 36.24 37.7924 39.9519 37.9085 35.0011 40.5474 35.3639 36.3614 38.527 36.7791 34.4814 38.3153 34.2844 34.8881 36.8554 35.3926 33.5727 36.0875 33.0843 33.3808 35.0692 33.8493 32.3872 33.8974 31.7463 31.8262 33.1917 32.1793 31.0483 31.7496 30.2217 30.1603 31.2735 30.4637 29.5695 29.5981 28.7396 28.549 29.3068 28.6563 27.9814 27.4989 27.1141 26.8534 27.3089 26.8022 26.3728 25.4629 25.5011 25.1779 25.3873 25.0265 24.7284 23.4755 23.8932 23.51 23.4698 23.2233 23.1492 21.5914 22.3238 21.9094 21.6946 21.5631 21.5669 19.7844 20.7421 20.2979 19.9302 19.9028 19.9896 18.0608 19.2174 18.7453 18.2656 18.3081 18.4404 16.4115 17.7015 17.2372 16.6227 16.7534 16.983 14.8508 16.2456 15.7655 15.1293 15.3265 15.5499 13.4018 14.87 14.3738 13.7229 13.967 14.1253 12.02 13.5035 13.0221 12.3298 12.6175 12.7205 10.7008 12.1435 11.668 11.0506 11.3653 11.3828 9.46655 10.8628 10.4044 9.79141 10.1164 10.0886 8.31538 9.61171 9.19002 8.64469 8.98398 8.84286 7.24261 8.42796 8.02498 7.55968 7.85606 7.59556 6.19086 7.21214 6.86718 6.47278 6.78649 6.43731 5.2007 6.10988 5.77407 5.45315 5.74762 5.30451 4.28054 5.03573 4.73357 4.47925 4.74349 4.18469 3.3429 3.98086 3.72103 3.54067 3.75978 3.05602 2.46232 2.91649 2.71132 2.5647 2.7789 2.016 1.61424 1.95048 1.7616 1.65117 1.8451 0.926688 0.873648 0.975059 0.83475 0.849939 1.0043 12.5002 14.8902 10.9941 10.9941 20.076 24.5756 17.4073 24.0149 24.0776 28.2671 15.603 15.4357 26.4303 24.7501 29.373 31.5719 19.9185 18.3865 30.7644 25.4787 31.7213 32.4722 22.5395 21.375 32.4345 24.8605 32.3548 32.0505 23.3292 22.639 33.0307 24.2241 32.2847 31.3877 23.5272 23.1942 32.8988 23.5408 31.7954 30.5718 23.3622 23.3066 32.3318 22.8266 31.0612 29.6601 22.9302 23.0753 31.4027 22.0515 30.087 28.6146 22.3218 22.6386 30.3087 21.1665 28.9316 27.4208 21.6424 22.0451 29.0241 20.3379 27.705 26.2344 20.8394 21.3494 27.6471 19.3935 26.3758 24.9379 19.9713 20.5169 26.2223 18.4652 24.9931 23.6342 19.0699 19.6545 24.7524 17.5095 23.5997 22.3177 18.109 18.7339 23.2984 16.5895 22.2162 20.9913 17.2078 17.8195 21.8045 15.615 20.7869 19.6674 16.2535 16.8738 20.3703 14.6825 19.4041 18.3619 15.2928 15.9136 18.9131 13.7354 18.0314 17.0609 14.3293 14.9581 17.5013 12.7871 16.6595 15.7526 13.3981 13.9768 16.0784 11.8754 15.3054 14.5025 12.4478 13.0091 14.6988 10.9827 14.0018 13.2643 11.51 12.0479 13.3286 10.0294 12.7061 12.0344 10.527 11.026 12.0038 9.13213 11.4071 10.8081 9.58442 10.032 10.6576 8.20382 10.1691 9.64562 8.62382 9.05231 9.37177 7.30228 8.94069 8.46527 7.66965 8.04535 8.10441 6.34867 7.73018 7.32274 6.69385 7.03583 6.87669 5.45593 6.55912 6.19871 5.74991 6.04818 5.71397 4.57185 5.42989 5.12699 4.81705 5.08339 4.57281 3.69014 4.36652 4.10185 3.87573 4.1259 3.4608 2.74516 3.27311 3.03172 2.86939 3.13197 2.34958 1.83964 2.2827 2.03886 1.89485 2.17672 1.18594 0.91707 1.22357 0.99051 0.887879 1.12337 34.7994 13.6015 23.7497 23.7497 13.0709 21.8875 33.4327 16.6434 38.6227 38.4741 11.9228 16.9532 38.4549 18.4285 41.3049 40.6773 16.4395 18.8942 41.0433 19.3259 42.0714 40.8136 18.9117 21.023 41.752 19.6402 41.6632 39.7824 20.022 22.2369 41.3601 19.6972 40.6628 38.3542 20.5537 22.8448 40.3759 19.5716 39.3257 36.8194 20.6563 22.9408 38.9656 19.3218 37.7637 35.2145 20.5123 22.7532 37.3029 18.956 36.0372 33.5202 20.1452 22.2859 35.5063 18.445 34.1948 31.771 19.6693 21.7008 33.577 17.8974 32.3294 30.0289 19.0624 20.977 31.6063 17.2773 30.4046 28.2377 18.3955 20.1688 29.6443 16.6042 28.4858 26.4804 17.6807 19.3386 27.7153 15.9147 26.6088 24.7387 16.921 18.4249 25.7981 15.1986 24.7626 23.0669 16.1495 17.5611 23.9548 14.4636 22.982 21.402 15.3502 16.6155 22.1176 13.7163 21.2085 19.7901 14.5619 15.7154 20.3698 12.941 19.5276 18.2425 13.7155 14.7565 18.6714 12.1459 17.8787 16.7241 12.8883 13.8399 17.0452 11.37 16.313 15.2721 12.0521 12.9097 15.4658 10.5463 14.7854 13.8526 11.1629 11.9174 13.8523 9.70959 13.2883 12.4727 10.2631 10.9252 12.4106 8.84077 11.8208 11.1132 9.37494 9.99324 10.9482 8.0266 10.4896 9.8392 8.4634 8.97415 9.57151 7.15102 9.13777 8.60121 7.54042 8.01233 8.23406 6.26416 7.87421 7.38761 6.60308 7.01158 6.94049 5.37207 6.64821 6.23277 5.66051 6.00985 5.71832 4.47406 5.44848 5.09662 4.73354 5.03871 4.51997 3.60405 4.30977 4.00699 3.79369 4.06785 3.4118 2.68311 3.22979 2.96395 2.85482 3.10057 2.31966 1.81524 2.2279 1.99343 1.87448 2.1055 1.18049 0.888004 1.22518 1.02075 0.877776 1.10603 61.2616 27.6298 40.9622 40.9622 36.8997 41.5182 55.1031 36.825 61.67 59.883 33.7308 37.6374 57.3746 36.8615 61.4673 59.583 34.9534 38.0791 58.1097 35.805 60.2477 58.0536 35.0634 38.0326 57.3916 34.2671 58.2113 55.6919 34.3391 37.3641 55.6317 32.6874 55.6567 52.8679 33.216 36.2487 53.244 31.1321 52.8125 49.9135 31.9175 34.8922 50.5546 29.5354 49.861 46.9632 30.4181 33.2954 47.5814 27.9059 46.7971 43.964 28.8356 31.5451 44.5923 26.2575 43.7143 41.0282 27.2282 29.7689 41.5579 24.6373 40.6727 38.1432 25.5562 27.9126 38.5304 22.9918 37.6585 35.3058 23.8969 26.073 35.5884 21.4333 34.7365 32.5578 22.3005 24.2839 32.7473 19.9124 31.9342 29.9446 20.7578 22.5608 29.9889 18.4526 29.2446 27.4321 19.2415 20.8804 27.3948 17.0472 26.6508 25.0005 17.8011 19.3037 24.9065 15.6845 24.2173 22.7017 16.3948 17.7367 22.5488 14.4158 21.8821 20.5265 15.0807 16.2829 20.299 13.2007 19.6722 18.4556 13.834 14.896 18.159 12.02 17.6018 16.5243 12.6072 13.5557 16.1858 10.9073 15.6335 14.6711 11.4675 12.3085 14.2969 9.83312 13.8071 12.9539 10.3096 11.0569 12.5646 8.79684 12.0799 11.3255 9.28517 9.91407 10.8681 7.79217 10.4548 9.81851 8.18732 8.74292 9.33032 6.83525 8.9338 8.37125 7.20731 7.6895 7.86813 5.91136 7.54465 7.0574 6.22063 6.60426 6.48524 4.98949 6.20682 5.81937 5.24895 5.60327 5.26232 4.11476 5.01878 4.66487 4.35154 4.63148 4.05324 3.21544 3.8735 3.59129 3.40275 3.6797 2.96437 2.33243 2.82853 2.55704 2.49089 2.7421 1.97359 1.51206 1.88447 1.63854 1.59249 1.86922 1.06217 0.772729 1.08463 0.838839 0.788797 1.06543 91.8121 47.2371 62.725 62.725 65.29 67.677 79.4173 62.9867 89.1391 87.0037 58.0655 61.3048 79.3 60.9534 85.2349 82.9684 57.5365 60.5306 78.2993 58.2495 81.7789 79.3013 56.2105 59.1409 76.0211 55.161 77.8843 75.2146 54.1311 57.0521 72.7379 51.9021 73.5982 70.8085 51.5428 54.4233 68.8232 48.6367 69.0935 66.276 48.6551 51.4496 64.5889 45.4412 64.4953 61.7264 45.6834 48.3289 60.154 42.2181 59.9152 57.276 42.5586 45.0467 55.7452 39.0918 55.3778 52.8834 39.5107 41.8145 51.4044 36.0366 50.9723 48.657 36.4907 38.6146 47.1707 33.0516 46.7302 44.5926 33.5109 35.4517 43.069 30.1838 42.6362 40.6803 30.6293 32.3988 39.1277 27.4625 38.6983 36.9138 27.898 29.5125 35.4063 24.8761 35.0058 33.376 25.2483 26.7024 31.8406 22.3935 31.4304 29.9623 22.797 24.0867 28.478 20.1062 28.0797 26.779 20.4767 21.626 25.3074 17.9089 24.9441 23.7836 18.2836 19.3085 22.3613 15.8776 21.9942 20.9599 16.2381 17.143 19.5868 14.0051 19.2514 18.3376 14.3167 15.0968 17.0218 12.241 16.6895 15.9018 12.5798 13.2595 14.6291 10.6377 14.3478 13.6609 10.9414 11.5319 12.4957 9.1397 12.2065 11.6098 9.44824 9.96728 10.5005 7.79441 10.1941 9.67055 8.07792 8.50655 8.72235 6.52759 8.42239 7.98871 6.79805 7.17469 7.03057 5.42351 6.78831 6.40669 5.66732 5.98282 5.60819 4.43332 5.37642 5.05943 4.62771 4.87465 4.29176 3.47312 4.12594 3.87533 3.66666 3.90803 3.18422 2.61838 3.02512 2.78099 2.74111 2.91792 2.09782 1.77541 2.03157 1.85232 1.86964 2.02563 1.2809 1.0177 1.20786 1.05038 1.07331 1.22814 0.621672 0.73086 0.625141 0.498752 0.758152 0.873424 129.482 74.9833 90.8283 90.8283 100.128 101.231 108.841 93.1902 126.98 123.805 84.8012 87.4842 105.616 87.7286 113.389 110.993 82.3132 84.8316 101.87 83.0857 106.175 103.896 79.6404 82.1246 97.2964 78.3059 99.7422 97.4367 76.2055 78.6618 91.884 73.3853 93.3565 91.0497 72.167 74.5214 86.1328 68.4249 86.8918 84.6617 67.7299 69.9687 80.0654 63.5121 80.5113 78.3871 63.1705 65.2625 74.0247 58.7041 74.267 72.2756 58.5024 60.4343 68.1397 53.9906 68.2511 66.4123 53.9152 55.6766 62.4154 49.4416 62.4031 60.7252 49.4447 51.0489 56.8356 45.0816 56.892 55.3672 45.0958 46.5439 51.6129 40.8809 51.5434 50.1619 40.9005 42.1886 46.4258 36.8692 46.4372 45.2143 36.891 38.061 41.6633 33.1016 41.672 40.5571 33.1047 34.1145 37.1184 29.464 37.1072 36.145 29.4977 30.3974 32.7998 26.0721 32.8054 31.9458 26.109 26.8738 28.7635 22.9292 28.7017 27.9699 22.9328 23.6006 24.981 19.9486 24.9832 24.3452 19.9899 20.5588 21.5021 17.2141 21.5167 20.9696 17.2304 17.7122 18.3015 14.6795 18.2727 17.8071 14.7009 15.0828 15.278 12.3696 15.2608 14.8911 12.3694 12.6731 12.605 10.2839 12.567 12.2709 10.3048 10.5515 10.1115 8.34421 10.1129 9.86974 8.42647 8.60057 7.96963 6.684 7.9361 7.76236 6.74275 6.87314 6.00601 5.1891 5.99081 5.85678 5.24946 5.33234 4.42755 3.92531 4.30503 4.21945 3.99808 4.04533 3.01298 2.85074 2.99979 2.94789 2.86489 2.88271 1.77795 1.92263 1.81428 1.79119 1.96309 2.00127 0.989542 1.16072 1.03255 0.99823 1.11048 1.12897 0.335686 0.6312 0.463851 0.45345 0.552639 0.53492 0.389387 0.647808 0.443632 0.488836 0.635457 0.530302 54.3125 104.236 46.2162 46.2162 109.078 107.214 90.8902 97.1014 86.4278 88.0603 102.922 99.4525 79.8698 96.8388 82.6267 85.3258 96.3361 93.1703 74.1891 93.0916 77.4276 80.2376 91.0212 88.0629 69.692 88.2575 72.5328 75.3492 85.7833 83.008 65.4224 82.923 67.7603 70.4911 80.4714 77.8809 61.2656 77.3814 63.1508 65.7355 75.0973 72.6889 57.0536 71.808 58.626 61.0386 69.7711 67.5599 52.9542 66.2846 54.2346 56.456 64.4434 62.429 48.9154 60.8745 49.9525 51.9742 59.3041 57.4626 44.9465 55.6549 45.8691 47.7189 54.1689 52.5068 41.1338 50.6321 41.8464 43.5131 49.3214 47.8269 37.4127 45.835 38.0407 39.5305 44.6917 43.3383 33.8643 41.2585 34.4246 35.7715 40.2457 39.0387 30.4807 36.9232 30.9504 32.1516 35.972 34.915 27.2832 32.801 27.6229 28.6737 31.9881 31.0404 24.2267 28.931 24.5423 25.4799 28.2201 27.4073 21.3793 25.3512 21.6439 22.4479 24.6665 23.9522 18.679 21.913 18.8952 19.5957 21.3612 20.7622 16.2234 18.7766 16.3674 16.9542 18.3229 17.8242 13.9132 15.9082 13.9757 14.4651 15.467 15.0573 11.7603 13.2062 11.8051 12.2006 12.9192 12.5895 9.82426 10.8416 9.85858 10.1753 10.5446 10.2844 8.06745 8.65575 8.04801 8.29508 8.46378 8.25773 6.50942 6.76366 6.4388 6.63369 6.61051 6.48766 5.10029 5.09801 5.04823 5.15948 5.00648 4.92406 3.89298 3.68815 3.80525 3.87759 3.68367 3.63257 2.81743 2.53969 2.77147 2.81485 2.49467 2.48322 1.927 1.6068 1.86095 1.86773 1.60616 1.61708 1.15589 0.947182 1.12743 1.11895 0.939406 0.985029 0.535796 0.46321 0.550852 0.524323 0.381575 0.435878 0.31801 0.25042 0.303314 0.35343 0.245177 0.239803 32.4813 46.3145 28.0144 28.0144 53.1857 51.8638 56.0737 78.3109 50.9552 52.8688 83.6054 79.9569 57.3308 77.036 62.5018 65.5855 74.361 70.7836 53.9616 72.1364 57.7011 60.954 68.8562 65.471 50.8509 67.3864 53.4835 56.587 64.4015 61.2563 48.0154 62.8061 49.9019 52.7531 60.2587 57.3581 45.2704 58.4382 46.576 49.1673 56.3065 53.65 42.5378 54.2053 43.4868 45.8184 52.3717 49.9646 39.8292 50.1096 40.4939 42.5659 48.571 46.3913 37.1625 46.1425 37.6258 39.4674 44.8579 42.8906 34.5155 42.3868 34.8543 36.4887 41.2273 39.4768 31.9335 38.6906 32.1263 33.551 37.7606 36.194 29.4117 35.2026 29.5731 30.8309 34.3784 32.9804 26.9653 31.9046 27.0326 28.1409 31.1656 29.9361 24.6353 28.7309 24.6065 25.5587 28.098 27.043 22.4114 25.7078 22.3571 23.1486 25.2282 24.3221 20.2904 22.9408 20.2202 20.886 22.5042 21.7349 18.2682 20.3203 18.1175 18.671 19.954 19.3152 16.3454 17.8404 16.2221 16.6614 17.5391 17.0253 14.5568 15.5601 14.3794 14.7182 15.3498 14.9372 12.8595 13.4091 12.6623 12.9186 13.2953 12.9896 11.279 11.4725 11.0614 11.2365 11.393 11.1682 9.76996 9.74504 9.5681 9.68532 9.69143 9.55186 8.40817 8.13844 8.21663 8.27128 8.15009 8.0582 7.15407 6.71062 6.93482 6.96031 6.7831 6.74382 5.96267 5.46853 5.76072 5.75387 5.52842 5.54599 4.8884 4.32972 4.71899 4.67148 4.43238 4.49819 3.92055 3.37675 3.74265 3.66413 3.43918 3.53061 2.94885 2.49809 2.86225 2.76909 2.57982 2.67233 2.05175 1.70977 1.9842 1.89701 1.74909 1.84408 1.19669 1.03366 1.19111 1.11037 1.03783 1.12045 0.522756 0.524968 0.524369 0.468183 0.520243 0.595287 15.9661 25.9293 17.1544 17.1544 30.2511 29.1454 34.5379 42.9977 34.5781 35.556 49.849 46.5416 37.8868 55.082 42.2341 45.7374 49.9772 46.5716 38.1116 50.4695 41.2739 43.9613 46.6805 43.5643 36.8499 46.5233 38.6809 40.9003 43.7143 40.8892 35.4937 43.2355 36.4436 38.2712 41.08 38.5354 34.0446 40.222 34.4628 35.9606 38.5902 36.3241 32.583 37.4746 32.6166 33.8388 36.1801 34.1765 31.0541 34.8504 30.9089 31.8917 33.8389 32.0648 29.4295 32.3787 29.1667 29.9701 31.5822 30.0241 27.8787 30.0059 27.4754 28.1325 29.3503 28.0041 26.2413 27.681 25.8129 26.3175 27.1944 26.0401 24.627 25.5399 24.1737 24.5608 25.1151 24.1388 23.0186 23.4 22.5619 22.8349 23.0937 22.2874 21.4822 21.3878 20.9694 21.1468 21.2011 20.5427 19.9204 19.5195 19.4533 19.5561 19.3858 18.8518 18.426 17.7427 17.9517 17.9969 17.6464 17.2614 16.9652 16.0117 16.5159 16.48 16.0201 15.7175 15.5394 14.459 15.096 15.0426 14.4599 14.2713 14.1818 12.9492 13.7654 13.6524 13.0252 12.9083 12.8621 11.5544 12.4582 12.3297 11.6677 11.6093 11.5413 10.2236 11.1466 11.012 10.375 10.3748 10.3015 8.98944 9.9551 9.8004 9.13652 9.20463 9.11007 7.85991 8.79078 8.60969 8.00823 8.11682 7.95934 6.78671 7.66545 7.47654 6.97164 7.09066 6.81567 5.76603 6.56986 6.3943 5.94173 6.07698 5.73214 4.83014 5.51298 5.343 4.98097 5.12028 4.6966 3.92522 4.52279 4.36619 4.08588 4.21971 3.68867 3.07814 3.54199 3.40026 3.15514 3.29884 2.67748 2.23597 2.62189 2.4806 2.29622 2.43237 1.72537 1.45557 1.70154 1.57687 1.4579 1.59978 0.810172 0.772483 0.827561 0.717517 0.768071 0.913047 12.5706 12.7536 15.5967 15.5967 11.6201 11.8205 27.7503 23.0091 30.9611 30.5992 24.6315 22.4854 32.3233 30.6184 35.4206 36.8515 26.3186 24.0908 33.5237 29.9309 35.2673 36.0328 26.6739 24.789 33.0701 27.6718 33.7862 33.8472 25.6461 24.109 32.3065 25.8511 32.2744 31.9435 24.6237 23.3893 31.3721 24.3762 30.9081 30.3343 23.6358 22.655 30.3424 23.0804 29.6343 28.9235 22.7113 21.945 29.2038 21.9722 28.3774 27.5953 21.778 21.2003 27.919 20.8304 27.0638 26.2522 20.7778 20.3689 26.6649 19.7729 25.768 24.9367 19.8797 19.6042 25.3082 18.7329 24.4305 23.6176 18.8945 18.7423 23.9515 17.7103 23.1085 22.3118 17.9256 17.8829 22.5877 16.7237 21.7971 21.0202 16.9734 16.9995 21.2229 15.7397 20.456 19.7274 16.0644 16.1527 19.8675 14.7999 19.1514 18.4716 15.1049 15.2382 18.529 13.8552 17.8529 17.2248 14.1925 14.3649 17.2015 12.9241 16.5583 15.9762 13.2516 13.4664 15.8661 11.9917 15.3106 14.7587 12.332 12.5648 14.5966 11.1147 14.0428 13.5418 11.4429 11.6944 13.3351 10.2131 12.8375 12.3729 10.5443 10.8361 12.0923 9.32561 11.6527 11.1972 9.65643 9.91262 10.8494 8.48367 10.4639 10.0846 8.77841 9.03936 9.6752 7.62037 9.32803 8.97686 7.89722 8.12982 8.48352 6.75153 8.15135 7.85408 7.01039 7.24666 7.33317 5.8855 7.08332 6.80316 6.10469 6.30903 6.20162 5.02678 5.9516 5.71982 5.22446 5.42483 5.12453 4.19933 4.95721 4.74218 4.35615 4.55068 4.0923 3.34591 3.93456 3.73504 3.47943 3.67174 3.01456 2.50356 2.95777 2.76698 2.55328 2.73075 2.01882 1.64065 1.97712 1.80703 1.66011 1.8348 0.980958 0.789763 1.03104 0.881681 0.776859 0.98191 26.446 12.264 24.3759 24.3759 8.7391 11.5627 40.7431 20.0683 40.6839 39.415 17.1174 19.4464 43.3445 22.3201 45.1542 44.0471 19.8733 21.8386 43.4671 21.5977 44.6043 43.0556 20.3708 22.1875 42.2439 20.3929 42.5961 40.7151 20.049 21.9125 40.5694 19.3897 40.3518 38.2037 19.6418 21.504 38.792 18.6476 38.2275 35.9965 19.2181 21.0301 36.9652 18.0458 36.2186 34.0015 18.7745 20.5108 35.0654 17.4839 34.2248 32.0743 18.2836 19.9328 33.1332 16.9193 32.262 30.2126 17.7209 19.2541 31.2336 16.3577 30.3355 28.4214 17.1761 18.583 29.2985 15.7651 28.4381 26.6736 16.5568 17.8508 27.4013 15.1536 26.5802 24.9543 15.9071 17.0802 25.5383 14.542 24.7639 23.2902 15.2497 16.3113 23.7577 13.8824 22.9896 21.6572 14.5638 15.5218 21.9858 13.2047 21.2916 20.0908 13.8448 14.7253 20.2755 12.5436 19.6566 18.5659 13.1451 13.9191 18.655 11.8394 18.0453 17.0898 12.4105 13.1087 17.0626 11.1539 16.507 15.6543 11.6521 12.2702 15.5425 10.4109 15.0238 14.2764 10.9058 11.4633 14.0668 9.67457 13.6204 12.9556 10.1193 10.6136 12.6398 8.90353 12.1946 11.6144 9.30065 9.75635 11.2365 8.12241 10.8788 10.3559 8.47047 8.86951 9.92639 7.35921 9.58176 9.13355 7.67521 8.04129 8.66326 6.53582 8.35356 7.95168 6.83782 7.15859 7.42999 5.7697 7.19608 6.84915 5.9985 6.26792 6.2557 4.91682 6.02551 5.73815 5.14528 5.36688 5.10614 4.13446 4.92737 4.69534 4.28824 4.4656 4.00653 3.28879 3.88986 3.70697 3.43554 3.59687 2.95444 2.46227 2.88164 2.721 2.51599 2.67634 1.98335 1.598 1.94576 1.79175 1.63615 1.82282 1.0343 0.78381 1.06302 0.902763 0.773286 0.956471 45.1189 25.0845 39.0788 39.0788 26.6598 28.3445 62.7658 35.607 58.0708 56.597 36.8668 39.9108 62.7887 38.0579 64.2354 62.0594 37.3977 40.6062 61.194 36.5819 62.5847 60.0604 36.1378 39.3429 58.6036 34.2869 59.3662 56.615 34.2826 37.4035 55.4952 32.0509 55.7402 52.9152 32.3997 35.4087 52.2598 30.0562 52.1151 49.2976 30.6113 33.4896 49.0393 28.2587 48.6802 45.9289 28.8966 31.5675 45.8063 26.5052 45.3274 42.7384 27.199 29.6735 42.6601 24.8027 42.1247 39.7014 25.5144 27.789 39.5786 23.1726 38.9919 36.7453 23.8989 25.9648 36.5751 21.5838 36.006 33.9526 22.2676 24.1453 33.6765 20.0849 33.0998 31.223 20.735 22.4354 30.9157 18.607 30.3766 28.6687 19.2296 20.7607 28.2705 17.1922 27.7494 26.2029 17.8069 19.1719 25.717 15.8626 25.2338 23.8486 16.4214 17.6423 23.31 14.5987 22.8537 21.6095 15.1013 16.1793 21.0334 13.3852 20.5986 19.4923 13.8819 14.8095 18.8651 12.2211 18.4721 17.5151 12.6802 13.505 16.8539 11.1245 16.4672 15.6129 11.5508 12.2534 14.9407 10.1272 14.5874 13.8569 10.4951 11.0891 13.1658 9.08774 12.835 12.2125 9.46332 9.96682 11.4652 8.13985 11.182 10.653 8.44478 8.86666 9.91997 7.19894 9.65942 9.21685 7.49415 7.8395 8.43611 6.28403 8.1882 7.82347 6.55221 6.8538 7.1004 5.45497 6.88024 6.56598 5.66605 5.91688 5.84359 4.57799 5.6765 5.41666 4.77879 4.98929 4.66756 3.7332 4.51688 4.29903 3.8942 4.09838 3.5908 2.93465 3.48315 3.27709 3.03619 3.20363 2.54873 2.11626 2.47273 2.30562 2.1787 2.31931 1.63389 1.34645 1.61232 1.47406 1.37687 1.51531 0.870287 0.752464 0.893684 0.776595 0.751855 0.857264 68.2682 43.4579 59.682 59.682 47.8816 49.091 89.8173 57.4733 80.6217 79.1332 63.0934 65.6486 86.2409 61.9099 88.0178 85.7263 61.3491 64.4008 82.4878 59.3976 84.4962 81.7902 58.4478 61.5979 78.1388 55.6742 79.5009 76.6035 55.0634 58.1775 73.3983 51.8199 74.205 71.2618 51.5383 54.527 68.5599 48.1048 68.9027 66.0282 48.0943 50.9142 63.7224 44.608 63.8254 61.0868 44.7646 47.4012 59.0233 41.2436 58.9479 56.368 41.4731 43.9145 54.4139 38.0297 54.2773 51.8798 38.3118 40.5623 49.9919 34.925 49.799 47.5823 35.2546 37.3031 45.7494 31.9837 45.5214 43.4972 32.2893 34.1388 41.6953 29.1326 41.4388 39.6105 29.4557 31.125 37.7923 26.4773 37.5663 35.9154 26.7715 28.2674 34.1298 23.9373 33.8989 32.4175 24.2245 25.5526 30.6199 21.5409 30.4028 29.0868 21.7976 22.9773 27.3076 19.2544 27.1386 25.9688 19.5193 20.5534 24.2359 17.1477 24.0486 23.0195 17.3894 18.2899 21.3215 15.1775 21.1517 20.2528 15.3855 16.1629 18.6206 13.3364 18.464 17.6858 13.5592 14.2139 16.1229 11.6283 15.9609 15.303 11.835 12.39 13.8255 10.0759 13.6598 13.0996 10.2745 10.7359 11.7238 8.64312 11.5527 11.0847 8.81215 9.18514 9.73407 7.31887 9.63218 9.25148 7.48566 7.79472 8.02489 6.13942 7.8547 7.53815 6.29252 6.51077 6.42043 5.03931 6.32251 6.09642 5.2033 5.38637 5.03988 4.10985 4.94874 4.75995 4.22455 4.37347 3.86079 3.19983 3.75175 3.59965 3.29666 3.42715 2.75006 2.37431 2.70005 2.56435 2.44988 2.56532 1.83386 1.58501 1.78338 1.66726 1.63242 1.73987 1.03994 0.903177 1.04416 0.936638 0.899692 0.998298 0.543062 0.678155 0.548922 0.475966 0.714703 0.778632 98.1021 69.5538 88.2609 88.2609 75.1966 78.0662 126.761 83.9228 111.496 108.693 93.7313 95.8598 114.117 89.2489 117.59 115.346 88.1051 90.8577 106.772 84.8696 109.498 106.821 83.1272 85.9691 99.9806 79.327 101.736 98.9538 78.0037 80.8357 93.2245 73.6896 94.3213 91.5384 72.7847 75.5213 86.5217 68.1584 87.1977 84.5118 67.6363 70.2279 79.9683 62.9174 80.3757 77.8358 62.5914 65.023 73.6191 57.9034 73.8932 71.5171 57.7301 59.9706 67.5613 53.1292 67.7259 65.54 53.0093 55.0585 61.7017 48.527 61.8552 59.8637 48.4646 50.3341 56.2065 44.1597 56.2442 54.4291 44.1322 45.838 50.8664 39.9853 50.9897 49.3409 39.9873 41.4931 45.8078 36.0393 45.8966 44.4418 36.0166 37.3795 41.0575 32.3139 41.129 39.8123 32.2987 33.5168 36.5657 28.7638 36.6482 35.4723 28.7401 29.7976 32.2805 25.4607 32.352 31.3339 25.4001 26.3265 28.2318 22.3262 28.3579 27.4688 22.3005 23.1024 24.5558 19.4485 24.6343 23.862 19.3924 20.0797 21.1028 16.73 21.1887 20.5266 16.6815 17.2655 17.8906 14.2465 17.9354 17.3739 14.208 14.6802 14.9454 11.9738 15.0209 14.5689 11.9571 12.3469 12.2968 9.93235 12.3665 11.9895 9.92259 10.2212 9.85659 8.09551 9.92696 9.63602 8.02115 8.25458 7.73719 6.37175 7.74174 7.51202 6.40062 6.57834 5.80797 4.98422 5.8806 5.70313 4.94304 5.05546 4.15229 3.73822 4.25508 4.1386 3.70764 3.78467 2.86525 2.67655 2.89932 2.81662 2.66604 2.7044 1.7018 1.79478 1.80529 1.76106 1.74582 1.76793 0.911847 1.06377 0.929616 0.908265 1.02419 1.04141 0.375464 0.586629 0.464746 0.449255 0.500876 0.524184 0.487636 0.625802 0.445539 0.444233 0.658628 0.642495 50.7426 105.593 45.9493 45.9493 107.284 105.78 88.1043 96.3322 87.0942 88.4944 99.6036 97.1844 83.7042 96.0564 83.0892 85.1503 97.879 95.0999 78.0151 94.0814 79.4162 81.9016 93.5407 90.7137 72.9137 89.9058 74.7314 77.4035 88.3973 85.6301 68.0265 84.7476 69.8537 72.5443 82.8852 80.2393 63.3269 79.1427 65.0003 67.6113 77.2259 74.7309 58.7288 73.4255 60.1936 62.6776 71.5627 69.2479 54.2687 67.7046 55.5747 57.8869 65.9855 63.8473 49.9285 62.1676 51.0892 53.2306 60.5331 58.5797 45.816 56.7654 46.7812 48.7373 55.2972 53.5081 41.7626 51.6318 42.6668 44.4521 50.2652 48.6472 37.9348 46.6794 38.7229 40.3343 45.471 44.0139 34.3126 42.0119 34.9887 36.4416 40.8784 39.5791 30.816 37.5442 31.4037 32.6957 36.5504 35.3817 27.488 33.3601 28.0492 29.2077 32.4432 31.419 24.4129 29.4241 24.8772 25.8939 28.5853 27.676 21.5009 25.7042 21.8879 22.788 25.0056 24.2314 18.7709 22.2299 19.114 19.8817 21.6078 20.9245 16.2391 19.0684 16.5152 17.1952 18.4798 17.9067 13.8483 16.1305 14.0609 14.6294 15.6393 15.1504 11.6923 13.4111 11.9054 12.3879 12.9766 12.5695 9.74682 10.9986 9.85826 10.2613 10.6068 10.2936 7.94944 8.76632 8.05737 8.36442 8.46517 8.20846 6.35975 6.84079 6.4417 6.68876 6.59893 6.39629 4.95243 5.15989 4.9747 5.17258 4.9737 4.81603 3.71608 3.71661 3.73763 3.88893 3.56898 3.46679 2.69734 2.54873 2.7048 2.80081 2.42797 2.38004 1.79428 1.58698 1.79698 1.84222 1.54557 1.51333 1.05753 0.959139 1.06905 1.10396 0.89392 0.885224 0.461637 0.447074 0.514431 0.530964 0.382226 0.395009 0.308258 0.164141 0.290539 0.312001 0.178346 0.22017 30.986 45.2014 28.4728 28.4728 48.9296 47.6208 52.4669 78.751 52.1773 53.4071 80.4376 77.9699 63.4033 76.5689 63.5155 65.5912 77.6141 74.464 58.4147 73.7984 60.3702 63.0916 72.4483 69.1847 54.0388 69.469 55.9995 58.9176 67.5555 64.3877 50.3088 64.8576 51.9273 54.805 62.8581 59.8704 46.8443 60.2623 48.1818 50.8961 58.3785 55.6091 43.6274 55.745 44.688 47.1917 54.059 51.5054 40.5355 51.4404 41.3963 43.6858 49.9077 47.5783 37.5821 47.2612 38.316 40.3847 45.8816 43.7712 34.7533 43.2662 35.3251 37.1798 42.096 40.1845 31.9806 39.4877 32.4566 34.1249 38.3892 36.6767 29.4125 35.8486 29.7582 31.234 34.8823 33.3611 26.8588 32.4221 27.1919 28.4764 31.5827 30.2211 24.4151 29.1529 24.6989 25.8422 28.4181 27.2127 22.1415 26.0928 22.3207 23.3325 25.399 24.3506 19.9964 23.2125 20.1128 20.9714 22.6336 21.7264 17.9014 20.5046 18.0194 18.7444 20.0165 19.2547 16.0105 17.9808 16.0501 16.6511 17.5526 16.9179 14.1716 15.6338 14.1994 14.6847 15.2853 14.771 12.4625 13.4282 12.4472 12.8321 13.1587 12.7314 10.8608 11.5017 10.837 11.1554 11.2483 10.9056 9.38447 9.67289 9.33087 9.57631 9.53495 9.28382 8.04529 8.08622 7.98244 8.1548 7.96247 7.77748 6.78436 6.63607 6.72257 6.84661 6.55086 6.42548 5.62562 5.33594 5.52209 5.60266 5.32139 5.25991 4.58546 4.23685 4.50158 4.53232 4.22662 4.18289 3.60593 3.27132 3.54972 3.57079 3.28052 3.28385 2.72823 2.39068 2.65682 2.64242 2.40798 2.43925 1.86539 1.63516 1.84652 1.8141 1.6415 1.6675 1.0807 0.982616 1.08241 1.05779 0.952782 1.01323 0.463753 0.495515 0.485161 0.449534 0.477006 0.543937 18.2633 25.0246 19.151 19.151 27.6325 26.339 34.9382 43.4729 36.4659 37.2661 44.7477 42.1763 43.2071 54.4534 43.648 45.4686 54.9588 51.7296 42.0262 52.6591 44.2851 46.5265 50.7416 47.468 39.2244 48.9061 40.869 43.1821 46.8201 43.7015 36.7424 45.2684 37.8326 39.9895 43.4371 40.5354 34.5524 41.9067 35.2513 37.2047 40.3111 37.6536 32.5265 38.7965 32.9713 34.7025 37.4619 35.0416 30.6867 35.8861 30.8987 32.4347 34.7436 32.5776 28.8674 33.1982 28.9755 30.2934 32.196 30.2774 27.1362 30.6059 27.1469 28.2601 29.7823 28.0823 25.4264 28.1439 25.3878 26.3389 27.4296 25.9275 23.7695 25.8421 23.6621 24.4691 25.2823 23.9651 22.1424 23.6584 22.024 22.7153 23.1267 21.9911 20.5444 21.5594 20.4152 20.9809 21.0996 20.1415 19.0398 19.5667 18.8583 19.3016 19.2311 18.4282 17.5531 17.7204 17.3734 17.7257 17.4676 16.7905 16.1105 15.9768 15.9256 16.2142 15.7427 15.1977 14.7332 14.3484 14.5278 14.739 14.2098 13.7684 13.4014 12.8123 13.1872 13.347 12.6984 12.3755 12.1292 11.3532 11.9232 12.0102 11.2991 11.0871 10.8574 10.0225 10.693 10.7123 9.99145 9.84572 9.68082 8.76705 9.48363 9.47646 8.77813 8.68983 8.52055 7.63265 8.34411 8.31539 7.66218 7.63511 7.41133 6.55643 7.27605 7.21693 6.59555 6.62259 6.34949 5.53874 6.20658 6.11873 5.6232 5.64652 5.31334 4.62052 5.19986 5.13408 4.69036 4.75024 4.34343 3.75981 4.23763 4.15576 3.80723 3.87045 3.3834 2.90376 3.30356 3.22759 2.96891 3.04454 2.46496 2.11174 2.42579 2.34651 2.12785 2.21376 1.55593 1.335 1.55939 1.47524 1.33023 1.44092 0.708114 0.704446 0.748966 0.653866 0.682938 0.797475 15.9155 12.6467 17.9991 17.9991 12.2996 11.6934 30.8584 24.6491 32.8375 32.5224 23.8468 22.3124 36.7662 30.8224 38.0358 38.021 31.0323 28.5545 36.3874 32.8179 37.6794 38.3037 30.5349 28.1974 34.3769 30.0452 35.1778 35.4779 28.2476 26.1221 32.4882 27.585 32.7696 32.8724 26.2652 24.3842 30.832 25.5697 30.7622 30.7103 24.6048 22.9761 29.3595 23.8797 29.0836 28.9022 23.1562 21.7552 27.9677 22.4162 27.554 27.2867 21.9308 20.7358 26.5689 21.0863 26.1332 25.8241 20.7246 19.7066 25.2061 19.8619 24.7323 24.4089 19.6152 18.7578 23.8477 18.7053 23.3703 23.0444 18.5245 17.831 22.5126 17.5816 22.0437 21.7074 17.4997 16.9167 21.1942 16.5302 20.722 20.4115 16.4777 16.0392 19.8753 15.4825 19.45 19.1218 15.467 15.1484 18.5982 14.4715 18.1853 17.8506 14.5282 14.2982 17.3371 13.5188 16.9521 16.6299 13.5882 13.4368 16.0686 12.5563 15.7226 15.4162 12.6526 12.5735 14.8407 11.625 14.479 14.1848 11.7527 11.7053 13.6068 10.7403 13.3115 13.0513 10.8874 10.8845 12.4288 9.87718 12.1439 11.9117 10.0301 10.0316 11.2413 8.98454 10.9662 10.7802 9.10554 9.18291 10.1172 8.12542 9.87744 9.66229 8.28869 8.37556 9.00299 7.30469 8.78536 8.59686 7.4524 7.53743 7.87042 6.48365 7.7258 7.56372 6.59887 6.6899 6.81797 5.60297 6.60811 6.4653 5.72841 5.8448 5.72768 4.77722 5.63772 5.48606 4.87842 4.99707 4.74359 3.96359 4.61678 4.47784 4.06072 4.17766 3.73102 3.15608 3.66405 3.53581 3.22948 3.33077 2.75912 2.35135 2.71589 2.61046 2.38571 2.49252 1.79539 1.55276 1.81692 1.71287 1.54825 1.63133 0.865638 0.734598 0.892316 0.814697 0.702617 0.802651 26.0398 12.4415 25.2156 25.2156 10.3625 11.8418 41.0948 21.3626 41.0644 39.9285 19.8094 21.3711 46.1718 23.9358 46.4131 44.7687 22.9258 24.0254 45.3828 23.2452 45.7981 44.1932 22.296 23.55 43.0258 21.3633 43.2386 41.383 20.8645 22.2377 40.365 19.6696 40.3055 38.2829 19.6091 21.0137 37.9454 18.4528 37.6585 35.6207 18.6639 20.0108 35.7472 17.5504 35.3019 33.347 17.9113 19.1827 33.6208 16.8167 33.1144 31.2652 17.2675 18.4254 31.5725 16.1847 31.0465 29.3437 16.6393 17.7017 29.6145 15.5508 29.0679 27.4967 16.0225 17.0064 27.7164 14.9349 27.173 25.7227 15.3991 16.3011 25.8645 14.3335 25.3541 24.0263 14.784 15.6038 24.0842 13.7377 23.599 22.3994 14.18 14.9177 22.3355 13.1422 21.8905 20.812 13.5405 14.1848 20.6655 12.5101 20.2483 19.3014 12.8934 13.4525 19.0576 11.8705 18.6476 17.8243 12.2283 12.7477 17.495 11.2399 17.155 16.4085 11.561 11.9947 15.9876 10.536 15.6428 15.0116 10.8695 11.2808 14.5477 9.87012 14.2589 13.6879 10.1444 10.5047 13.1727 9.18243 12.8739 12.3803 9.4464 9.74201 11.7812 8.45422 11.5463 11.1413 8.70658 8.95155 10.4849 7.71799 10.2626 9.92976 7.94008 8.15807 9.22322 6.97816 9.03636 8.75002 7.18007 7.37764 8.01372 6.2438 7.865 7.62132 6.38036 6.54525 6.89399 5.44028 6.70554 6.50501 5.63454 5.77324 5.76276 4.70375 5.66639 5.50337 4.7887 4.91421 4.70742 3.89699 4.61917 4.47748 4.01622 4.13092 3.71012 3.10881 3.62591 3.50239 3.17307 3.2826 2.71821 2.30304 2.68429 2.56954 2.34464 2.45574 1.78266 1.51958 1.80441 1.6951 1.50037 1.59071 0.904523 0.715398 0.93439 0.853689 0.707512 0.813947 42.3124 24.312 38.6348 38.6349 24.8774 26.2401 59.3362 35.0449 56.8703 55.5125 35.8358 38.1915 64.8598 37.8735 63.3715 61.1711 38.231 41.1169 62.958 36.5245 63.0215 60.421 36.7243 39.799 59.4275 34.0231 59.7177 56.9308 34.2704 37.3553 55.5216 31.4732 55.668 52.8205 31.8343 34.8287 51.6546 29.2537 51.6317 48.822 29.708 32.5129 48.0405 27.2915 47.8607 45.1931 27.8191 30.4113 44.6194 25.4809 44.3763 41.8829 26.0145 28.397 41.3644 23.7561 41.0615 38.7462 24.2778 26.4426 38.2144 22.1408 37.8948 35.7746 22.6514 24.6049 35.2431 20.5773 34.9127 32.986 21.0753 22.824 32.3551 19.0981 32.0479 30.312 19.5742 21.1554 29.655 17.7119 29.3467 27.7667 18.1485 19.5257 27.0536 16.3577 26.7541 25.3682 16.7615 17.9699 24.578 15.0853 24.3108 23.0858 15.4641 16.5151 22.2236 13.8627 21.9747 20.8995 14.2249 15.1321 20.0102 12.7261 19.7795 18.8443 13.0325 13.8269 17.9331 11.5969 17.7262 16.8983 11.8967 12.5648 15.9591 10.5796 15.7639 15.0624 10.8413 11.4006 14.127 9.55305 13.9648 13.3717 9.82695 10.3309 12.4197 8.63285 12.2686 11.7343 8.838 9.23271 10.8064 7.71784 10.6496 10.2241 7.91658 8.24154 9.3221 6.8297 9.18194 8.83101 6.9945 7.25718 7.89614 5.97237 7.79088 7.50412 6.10918 6.31931 6.60956 5.11628 6.51103 6.28198 5.28516 5.47046 5.43315 4.35003 5.33654 5.1383 4.43772 4.5719 4.30654 3.55381 4.25297 4.10872 3.63103 3.72646 3.27434 2.75773 3.21963 3.11726 2.83448 2.92107 2.29478 1.98478 2.29245 2.20357 2.01441 2.09977 1.46101 1.23696 1.46756 1.38408 1.22302 1.33313 0.784556 0.675661 0.810511 0.717467 0.692941 0.780056 64.3099 41.9224 58.6338 58.6338 44.2284 45.4379 82.6258 55.5327 78.1555 76.7048 58.452 60.6845 88.5008 59.8759 85.3159 83.0335 61.9092 64.8272 84.6053 58.8413 84.6111 81.8281 59.2233 62.3913 79.3024 55.3692 79.8666 76.8723 55.3497 58.5157 73.7496 51.3649 74.2355 71.2231 51.3472 54.4111 68.2682 47.4465 68.6196 65.6819 47.5175 50.4092 63.0777 43.7876 63.2517 60.457 43.9427 46.638 58.1333 40.3816 58.2005 55.5818 40.5638 43.0272 53.4456 37.1413 53.4322 51.0327 37.3517 39.6061 48.9688 34.041 48.9366 46.7381 34.2599 36.3107 44.715 31.114 44.6547 42.6522 31.338 33.1958 40.6731 28.324 40.6134 38.799 28.5218 30.181 36.8343 25.6852 36.7753 35.1563 25.8916 27.3783 33.2164 23.2024 33.1594 31.7061 23.4003 24.7149 29.7548 20.8596 29.7252 28.4373 21.0324 22.1824 26.533 18.6409 26.4908 25.361 18.7793 19.7927 23.4807 16.5679 23.4469 22.451 16.7075 17.576 20.6335 14.6736 20.6047 19.7489 14.7869 15.5233 17.9941 12.8487 17.974 17.2463 12.9693 13.6084 15.5368 11.233 15.5208 14.8863 11.3114 11.8254 13.2642 9.69146 13.254 12.7419 9.78106 10.2022 11.1994 8.30578 11.181 10.7582 8.39368 8.71949 9.33144 7.03749 9.3031 8.97313 7.11603 7.36698 7.58306 5.87131 7.57401 7.31757 5.93579 6.14853 6.11467 4.83544 6.08703 5.86805 4.88457 5.02901 4.75682 3.88495 4.72587 4.57431 3.95436 4.08016 3.57546 3.0376 3.60239 3.47075 3.06282 3.14968 2.53951 2.22868 2.54509 2.45438 2.25786 2.33659 1.63911 1.47743 1.64843 1.56802 1.45922 1.54168 0.914418 0.852315 0.942269 0.859467 0.831376 0.871395 0.490495 0.646913 0.511923 0.488303 0.682771 0.696563 94.3483 67.5443 87.5015 87.5015 70.6408 72.2245 112.87 80.8763 107.149 105.335 85.4887 87.7058 117.885 85.654 112.496 110.118 89.2736 91.8619 109.283 84.2253 109.501 106.891 84.5139 87.402 101.261 79.1795 102.121 99.2552 78.7619 81.6824 93.6334 73.3964 94.3828 91.4859 72.9521 75.8104 86.3922 67.682 86.9577 84.124 67.3198 70.0492 79.4902 62.2478 79.903 77.2043 62.011 64.5696 72.9667 57.1115 73.3016 70.779 56.9723 59.3409 66.8187 52.2925 67.0527 64.7217 52.2057 54.3927 60.9804 47.7119 61.2081 59.0602 47.6338 49.6246 55.4025 43.3633 55.6243 53.6741 43.3051 45.1098 50.1823 39.2411 50.3367 48.5697 39.183 40.805 45.1496 35.3299 45.3484 43.7672 35.2754 36.7216 40.424 31.6607 40.5855 39.1772 31.6085 32.8995 35.9788 28.185 36.1479 34.893 28.0987 29.2421 31.7518 24.9358 31.9239 30.8166 24.8484 25.8489 27.8052 21.8341 28.0252 27.0578 21.7568 22.6304 24.0993 18.9844 24.2965 23.4492 18.9006 19.6471 20.7275 16.3768 20.8477 20.123 16.2741 16.8997 17.5121 13.9038 17.7153 17.1122 13.8117 14.3521 14.6655 11.6867 14.7994 14.2758 11.5933 12.0371 12.0241 9.65533 12.1745 11.7442 9.57398 9.92225 9.64025 7.86135 9.77843 9.44036 7.79043 8.05783 7.5087 6.22864 7.66065 7.39856 6.136 6.33132 5.66137 4.81862 5.77818 5.58458 4.7473 4.8989 4.09672 3.60457 4.18918 4.03498 3.54944 3.65348 2.766 2.628 2.85106 2.74283 2.53149 2.5965 1.70475 1.75273 1.80923 1.73831 1.67349 1.70338 0.858627 1.07015 0.958431 0.914864 0.980123 0.98807 0.403796 0.563221 0.519347 0.491935 0.503059 0.517841 0.445518 0.601985 0.421248 0.421924 0.622071 0.622399 50.1483 107.181 46.5893 46.5893 108.092 107.095 88.9025 96.8005 88.7216 89.6768 98.8286 96.9376 84.2728 96.2288 83.9883 85.6578 97.5177 95.0711 79.9321 94.5132 80.2526 82.5211 94.6028 91.9183 74.9644 90.9583 76.0535 78.6061 89.9918 87.2556 69.9402 86.0398 71.3279 73.9735 84.5945 81.9199 65.0053 80.5114 66.424 69.0399 78.8482 76.3047 60.1575 74.7461 61.5417 64.0418 73.0509 70.6734 55.5039 68.9548 56.7835 59.1261 67.2895 65.0878 50.9988 63.2902 52.186 54.3529 61.7351 59.7072 46.6694 57.8021 47.763 49.7588 56.315 54.4734 42.5409 52.5115 43.5146 45.3234 51.1754 49.5039 38.5801 47.5093 39.4794 41.1217 46.2372 44.7169 34.8397 42.717 35.6424 37.1301 41.5593 40.2075 31.2595 38.2051 31.9849 33.3054 37.1245 35.9177 27.9031 33.908 28.5642 29.7363 32.938 31.869 24.7295 29.8924 25.3144 26.3499 29.0304 28.0848 21.7526 26.1223 22.2418 23.1579 25.3303 24.5027 18.9676 22.6241 19.418 20.2157 21.868 21.1587 16.3968 19.3515 16.7689 17.444 18.7429 18.1226 13.9439 16.3895 14.3359 14.9253 15.8 15.3106 11.8035 13.62 12.0889 12.5557 13.1241 12.6975 9.76141 11.1477 10.0366 10.4399 10.7236 10.3833 7.97011 8.9291 8.17722 8.50007 8.53062 8.26356 6.35397 6.92996 6.52402 6.7761 6.62384 6.41119 4.92789 5.25972 5.0652 5.26566 4.98881 4.83462 3.70235 3.79312 3.82665 3.97044 3.56914 3.45593 2.66358 2.57596 2.7113 2.81915 2.45131 2.36009 1.7522 1.67208 1.81518 1.90198 1.50248 1.4604 1.03131 0.977003 1.09169 1.13528 0.890064 0.872166 0.473564 0.461263 0.5222 0.551446 0.404474 0.384046 0.272773 0.18877 0.267129 0.298344 0.182672 0.118883 31.1605 45.5756 29.1941 29.1941 47.9056 46.6806 53.431 79.9539 53.275 54.3504 80.8126 78.7983 64.4651 77.1876 64.8291 66.4613 77.832 75.1521 60.9568 74.3958 61.5148 63.8156 74.2066 71.2239 56.4386 70.6978 57.6034 60.2405 69.5578 66.5306 52.2565 66.2961 53.5224 56.246 64.7706 61.8376 48.4239 61.6695 49.6121 52.2672 60.0832 57.3199 44.8514 57.0731 45.9508 48.4537 55.5056 52.9379 41.4903 52.6083 42.4659 44.785 51.1442 48.7918 38.3681 48.3215 39.208 41.3214 46.9608 44.8037 35.3367 44.2161 36.1029 38.0223 42.9518 40.9999 32.4335 40.2875 33.123 34.8461 39.1589 37.3974 29.7165 36.576 30.3206 31.8625 35.5279 33.9447 27.1102 33.0383 27.6154 28.9921 32.099 30.6907 24.6195 29.6788 25.0739 26.2848 28.827 27.587 22.2445 26.5522 22.6683 23.719 25.7791 24.6812 20.0313 23.5985 20.342 21.2662 22.9096 21.9749 17.9189 20.7883 18.2325 19.004 20.2071 19.4006 15.9459 18.2469 16.1727 16.8381 17.7187 17.0187 14.0848 15.8355 14.2756 14.8473 15.3966 14.7992 12.3369 13.6555 12.5161 12.9987 13.2074 12.723 10.7482 11.6208 10.8582 11.2397 11.2899 10.9126 9.25671 9.78609 9.35662 9.64172 9.47764 9.19522 7.90144 8.1347 7.96208 8.16737 7.90539 7.6963 6.65943 6.66044 6.68676 6.83355 6.47933 6.33946 5.4677 5.3449 5.50182 5.59178 5.20561 5.11636 4.43469 4.22888 4.4748 4.52808 4.11177 4.07754 3.51186 3.22475 3.49987 3.50981 3.18827 3.16882 2.60289 2.35633 2.5964 2.60203 2.30505 2.32411 1.79082 1.6013 1.80548 1.78205 1.56102 1.59881 1.03922 0.94133 1.06649 1.03251 0.921351 0.957634 0.431225 0.449266 0.432965 0.405727 0.439399 0.490121 19.991 25.3619 20.1799 20.1799 27.2104 25.8137 36.8925 44.5257 37.5631 38.3286 45.2698 42.9609 44.3002 55.4678 44.806 46.2445 55.515 52.7164 44.7792 53.3726 45.4527 47.3232 52.9653 49.8597 41.3272 50.3143 42.3234 44.4941 49.0684 45.9401 38.1826 46.7682 39.0882 41.3119 45.3231 42.3503 35.5003 43.2897 36.2423 38.3445 41.9005 39.1182 33.1261 40.0372 33.7442 35.6855 38.7213 36.1803 30.9965 36.9611 31.4854 33.2211 35.7746 33.4565 28.987 34.1016 29.3913 30.9464 33.0621 30.9685 27.0872 31.3993 27.4334 28.8159 30.4417 28.5738 25.2939 28.825 25.5506 26.7542 27.9643 26.2961 23.5362 26.4083 23.7774 24.8219 25.6388 24.1772 21.902 24.1053 22.0297 22.9212 23.4532 22.1737 20.2717 21.9481 20.4199 21.1771 21.3607 20.2398 18.6887 19.9063 18.8115 19.4629 19.3656 18.4095 17.2074 17.947 17.2762 17.8157 17.5322 16.7203 15.7797 16.1785 15.8223 16.2685 15.7722 15.1187 14.3769 14.4689 14.4053 14.7397 14.1636 13.6187 13.0499 12.879 13.0752 13.3475 12.6202 12.1977 11.7778 11.4208 11.7703 11.9701 11.1903 10.8574 10.5328 10.034 10.505 10.6515 9.88044 9.62566 9.33743 8.77871 9.33098 9.43851 8.64833 8.45613 8.21335 7.60972 8.21568 8.28997 7.52251 7.39448 7.14724 6.50773 7.08381 7.1295 6.46196 6.38296 6.06734 5.48679 6.04105 6.05858 5.44127 5.41279 5.10106 4.57755 5.07229 5.05675 4.52968 4.53423 4.13825 3.67959 4.11725 4.08298 3.68618 3.71104 3.21504 2.86523 3.22216 3.18189 2.8667 2.87055 2.33729 2.07827 2.31915 2.30634 2.06231 2.09138 1.4666 1.30136 1.47145 1.43995 1.27588 1.3224 0.641784 0.647437 0.700947 0.661353 0.637297 0.702874 18.0695 13.1935 18.8743 18.8743 13.543 12.4507 32.6752 25.8184 33.3389 33.2003 25.6141 23.8957 38.1399 31.8902 38.5362 38.5684 31.6708 29.4312 38.2506 33.6541 38.5494 38.8729 33.1129 30.6583 35.5572 31.4879 35.9862 36.3479 30.369 27.9589 33.0054 28.961 33.2651 33.6028 27.8572 25.6178 30.8564 26.7357 30.9696 31.2309 25.7778 23.7378 29.0334 24.8377 29.0752 29.2744 24.0061 22.1827 27.3995 23.1619 27.3787 27.5151 22.4647 20.8741 25.9234 21.6897 25.8339 25.9094 21.0989 19.6942 24.4914 20.3494 24.3894 24.4348 19.8325 18.6139 23.1096 19.0521 22.9903 23.0059 18.6461 17.6038 21.7683 17.8672 21.6494 21.6346 17.4898 16.6222 20.4614 16.6909 20.3384 20.2872 16.445 15.6988 19.1723 15.6397 19.0439 19.0069 15.3868 14.7732 17.8937 14.5688 17.7912 17.7365 14.3625 13.8681 16.6662 13.5453 16.5416 16.4701 13.4032 13.0113 15.4532 12.5782 15.3458 15.2661 12.4761 12.1376 14.2144 11.6034 14.1148 14.063 11.5209 11.2777 13.0743 10.7097 12.9797 12.9159 10.6444 10.46 11.9346 9.78352 11.8154 11.7532 9.7583 9.66362 10.8027 8.8989 10.7306 10.63 8.90089 8.81919 9.6831 8.06337 9.62624 9.55655 8.04951 8.00344 8.61149 7.20588 8.55654 8.49141 7.18988 7.21137 7.57537 6.34601 7.49415 7.39152 6.39621 6.41946 6.47525 5.51745 6.46835 6.3883 5.5355 5.55763 5.49594 4.7019 5.44054 5.38077 4.72473 4.74875 4.48313 3.8904 4.45423 4.40552 3.90766 3.94509 3.53636 3.1002 3.51962 3.46774 3.09164 3.14126 2.60777 2.28181 2.60346 2.54705 2.29838 2.33971 1.70739 1.50967 1.73775 1.69235 1.50336 1.54512 0.80529 0.729573 0.842673 0.801807 0.676587 0.725268 26.4978 12.5262 25.4255 25.4255 11.9324 12.676 41.4211 21.6774 40.7384 39.7493 21.2991 22.1772 46.539 24.3354 45.9729 44.468 24.171 25.0516 46.184 23.8426 45.9254 44.19 23.7119 24.3849 43.4174 22.0137 43.2504 41.5119 21.7706 22.5645 40.2505 20.0683 40.0836 38.2432 19.9719 20.8489 37.4332 18.5904 37.2701 35.4488 18.6142 19.5175 34.9834 17.5375 34.779 33.0369 17.6102 18.4688 32.7189 16.6947 32.4893 30.8673 16.8088 17.5934 30.6298 15.9621 30.367 28.886 16.1207 16.8441 28.6305 15.3005 28.416 27.0631 15.4603 16.1049 26.7191 14.6815 26.5017 25.2887 14.8417 15.3997 24.892 14.0843 24.6714 23.5989 14.2372 14.7242 23.1454 13.4862 22.9449 22.0006 13.6379 14.0572 21.4492 12.8862 21.2806 20.4585 13.0348 13.4061 19.8491 12.2774 19.6813 18.9602 12.3986 12.7305 18.2859 11.6355 18.1397 17.5012 11.7705 12.0474 16.7887 11.0037 16.6479 16.1071 11.121 11.3816 15.3307 10.3306 15.2339 14.7549 10.4385 10.6529 13.943 9.66285 13.8439 13.442 9.76245 9.95554 12.5806 8.96919 12.4975 12.1524 9.08658 9.24735 11.301 8.28533 11.2187 10.9364 8.3602 8.50523 10.0518 7.55962 9.98572 9.74504 7.61923 7.75111 8.83849 6.8622 8.80006 8.59474 6.91743 7.0035 7.68501 6.09876 7.62875 7.48604 6.17881 6.26041 6.54295 5.34627 6.53196 6.40975 5.35573 5.44311 5.53035 4.5834 5.49802 5.38599 4.63844 4.70835 4.49033 3.78913 4.46462 4.37642 3.81854 3.89503 3.50912 3.01534 3.49824 3.41179 3.03351 3.10564 2.57079 2.22512 2.58651 2.50774 2.22981 2.29749 1.68799 1.42867 1.69303 1.62278 1.40288 1.51143 0.836093 0.611013 0.876737 0.771136 0.594296 0.704934 41.4757 23.7739 38.2535 38.2535 24.4215 25.644 58.1677 34.2489 55.8984 54.5657 35.2148 37.3347 63.8537 37.0055 62.1737 59.9853 37.926 40.5819 63.175 35.9985 62.3052 59.6629 36.5491 39.4508 59.6146 33.3952 59.2843 56.4637 33.9276 36.9031 55.3459 30.7801 55.2184 52.3621 31.2743 34.1707 51.1316 28.5453 51.1042 48.3344 28.966 31.6907 47.2765 26.5319 47.2317 44.6207 26.9462 29.4641 43.7444 24.6993 43.6413 41.2171 25.0978 27.4048 40.4063 22.994 40.3041 38.0706 23.3805 25.4559 37.2466 21.4324 37.1701 35.1493 21.7691 23.631 34.2841 19.9095 34.1756 32.3491 20.2178 21.8774 31.4548 18.4688 31.3439 29.7067 18.7613 20.2318 28.7578 17.1111 28.6831 27.2224 17.3799 18.6872 26.2181 15.8387 26.1459 24.8375 16.0625 17.1798 23.818 14.6168 23.75 22.6199 14.8244 15.7806 21.5214 13.4424 21.4669 20.4904 13.6233 14.447 19.36 12.3331 19.3323 18.4832 12.4972 13.1992 17.334 11.2799 17.2992 16.5662 11.4068 11.9901 15.4069 10.2865 15.4147 14.7989 10.3977 10.8832 13.6442 9.32474 13.6239 13.1043 9.41484 9.78358 11.9368 8.38335 11.9353 11.531 8.47747 8.79552 10.3797 7.53494 10.3771 10.0292 7.60509 7.84317 8.9419 6.66899 8.94684 8.6806 6.71318 6.91108 7.57682 5.81132 7.59761 7.37419 5.86742 6.02332 6.32316 5.00866 6.33825 6.16289 5.02109 5.13977 5.15871 4.21707 5.1798 5.04514 4.25277 4.35838 4.11676 3.4458 4.09577 3.98085 3.46962 3.55289 3.11877 2.66913 3.10966 3.01889 2.67896 2.75102 2.19398 1.93558 2.23271 2.15456 1.92108 1.97109 1.37511 1.21188 1.4065 1.35556 1.20638 1.22551 0.704631 0.642984 0.737116 0.725365 0.650014 0.668996 62.8136 40.9971 57.8907 57.8907 42.6981 43.8862 80.209 54.1429 76.6648 75.2263 56.3779 58.5996 86.102 58.208 83.459 81.122 60.1285 62.9714 84.5913 57.526 83.1513 80.3086 58.6215 61.7535 79.4756 54.3784 79.1774 76.1329 54.9348 58.1269 73.6337 50.4935 73.7586 70.681 50.8171 53.9111 67.8796 46.6502 68.0687 65.0816 46.8307 49.7542 62.4343 42.9868 62.6121 59.7865 43.1445 45.8555 57.3447 39.5356 57.5177 54.896 39.7233 42.215 52.5973 36.3188 52.7299 50.3119 36.4885 38.7663 48.1259 33.273 48.2297 46.0156 33.4112 35.4794 43.8803 30.3882 43.9628 41.9541 30.5281 32.3885 39.8768 27.6374 39.9788 38.1726 27.7728 29.4403 36.0886 25.0692 36.1801 34.5595 25.1651 26.6454 32.5014 22.5893 32.5979 31.1595 22.6871 24.0178 29.1216 20.3293 29.1902 27.8949 20.4013 21.5646 25.9364 18.1782 26.0345 24.9041 18.2366 19.2299 22.9407 16.1678 23.0432 22.0784 16.1901 17.0658 20.1402 14.2747 20.268 19.4163 14.3132 15.0646 17.5606 12.5688 17.6639 16.929 12.5458 13.1646 15.1212 10.9486 15.238 14.6333 10.9621 11.4619 12.9176 9.48363 13.0234 12.5317 9.45556 9.85937 10.8763 8.08267 10.992 10.5924 8.08013 8.40895 9.05052 6.88367 9.13998 8.81153 6.86117 7.10253 7.35784 5.75751 7.46761 7.2241 5.71546 5.89752 5.87907 4.73984 5.95523 5.76963 4.70886 4.8359 4.56888 3.82119 4.6543 4.52309 3.78595 3.86822 3.45741 2.95148 3.46523 3.37819 2.95583 3.01203 2.43143 2.17333 2.46971 2.409 2.16592 2.19832 1.5464 1.46969 1.62939 1.59316 1.42208 1.44552 0.834792 0.829202 0.890664 0.868704 0.79937 0.820567 0.475232 0.615392 0.50412 0.494952 0.633981 0.641502 92.8909 66.466 86.797 86.797 68.734 69.8885 109.408 79.12 105.244 103.714 82.3331 84.4288 113.261 83.4728 109.759 107.484 86.2336 88.7904 109.334 82.3245 107.231 104.585 83.9316 86.7572 101.463 78.113 101.247 98.4087 78.5446 81.4632 93.5163 72.6183 93.8267 90.9177 72.6103 75.4895 85.9601 66.9169 86.3731 83.5085 66.8204 69.5681 78.8582 61.4661 79.2701 76.5368 61.3592 63.9422 72.2422 56.3532 72.6063 70.0346 56.2251 58.6092 66.0197 51.5187 66.3469 63.9797 51.4238 53.6177 60.208 46.9495 60.4945 58.3196 46.873 48.8857 54.6729 42.6166 54.9651 52.9731 42.5562 44.3817 49.4384 38.5741 49.7221 47.9171 38.4799 40.1286 44.5269 34.7138 44.7958 43.1693 34.6263 36.1073 39.8069 31.098 40.104 38.6439 30.9914 32.3011 35.425 27.6254 35.6693 34.3781 27.553 28.725 31.2617 24.4532 31.5263 30.3703 24.3526 25.3844 27.4217 21.4517 27.6703 26.6519 21.3183 22.2041 23.7297 18.6533 23.9866 23.116 18.5017 19.2666 20.3315 16.0304 20.608 19.8589 15.9107 16.5794 17.2657 13.6457 17.5105 16.8517 13.503 14.0565 14.3826 11.473 14.6159 14.07 11.3198 11.7853 11.8065 9.48152 12.0355 11.5763 9.32402 9.70816 9.45512 7.68384 9.68494 9.30599 7.55711 7.86128 7.37982 6.11423 7.56944 7.26641 5.95058 6.19327 5.54379 4.70118 5.72252 5.48072 4.57908 4.75707 3.98164 3.5336 4.14427 3.96478 3.40661 3.53104 2.67949 2.53348 2.81621 2.68852 2.46724 2.54887 1.68134 1.7071 1.80128 1.71334 1.60888 1.67898 0.855154 1.05421 0.991521 0.913806 0.944825 1.00041 0.440475 0.56911 0.524285 0.475634 0.480065 0.500263 0.416925 0.557854 0.406889 0.404901 0.557382 0.586682 50.932 108.515 47.7966 47.7966 109.401 108.764 90.3101 97.919 90.2711 90.8495 99.248 97.6989 85.1107 97.1497 84.9857 86.4078 97.7891 95.5933 80.845 95.2776 81.0793 83.1663 95.192 92.6508 76.2545 91.8032 76.9317 79.3835 91.0567 88.3992 71.3383 87.125 72.4066 74.9863 85.8167 83.1896 66.3463 81.6481 67.5892 70.1368 80.1334 77.6042 61.4208 75.8962 62.7265 65.176 74.2916 71.9121 56.6239 70.0556 57.9196 60.2207 68.4581 66.2405 52.0088 64.3003 53.2209 55.3606 62.7859 60.7404 47.5747 58.7564 48.7222 50.6914 57.2976 55.416 43.3097 53.3841 44.3958 46.2005 52.0087 50.3057 39.2824 48.276 40.2643 41.8903 47.0012 45.4828 35.4515 43.3978 36.3656 37.8091 42.2301 40.859 31.7934 38.825 32.6307 33.9299 37.744 36.5234 28.3717 34.4692 29.1478 30.3009 33.4655 32.3742 25.124 30.3895 25.8093 26.8399 29.4569 28.5097 22.0553 26.531 22.7186 23.6076 25.6926 24.8725 19.2469 23.0173 19.8106 20.5783 22.2198 21.5134 16.6034 19.697 17.126 17.7804 18.9612 18.3808 14.1893 16.6317 14.6547 15.1855 16.0352 15.5275 11.9467 13.8857 12.3266 12.7924 13.3127 12.8946 9.91364 11.358 10.2678 10.6468 10.8557 10.5116 8.05185 9.07122 8.34944 8.65965 8.64329 8.38056 6.42989 7.10131 6.69362 6.9267 6.7124 6.49724 4.98479 5.39636 5.20464 5.39094 5.04219 4.8995 3.74833 3.86445 3.92236 4.04283 3.5999 3.49991 2.66636 2.65032 2.81588 2.89993 2.43128 2.3714 1.78139 1.70956 1.90144 1.95431 1.55339 1.51096 1.05559 0.992703 1.10721 1.15041 0.895553 0.878432 0.476997 0.475217 0.537438 0.569973 0.381902 0.375615 0.241872 0.194714 0.283751 0.314465 0.139593 0.122211 31.9483 46.9641 30.0604 30.0604 48.3951 47.1699 54.5865 81.2554 53.941 55.0238 81.9723 80.1838 65.6055 78.1293 65.7376 67.2026 78.5166 76.0955 62.047 75.1827 62.3771 64.461 75.0196 72.234 57.8963 71.5313 58.5358 61.0131 70.8142 67.9146 53.7047 67.3414 54.6292 57.2479 66.1665 63.3164 49.7321 62.796 50.7976 53.3843 61.4189 58.7059 46.0251 58.2069 47.0855 49.5482 56.7616 54.2231 42.5047 53.7074 43.5709 45.862 52.276 49.9202 39.217 49.3188 40.2128 42.3284 47.9749 45.8244 36.0858 45.1368 37.0003 38.9224 43.8631 41.9024 33.0921 41.146 33.9405 35.6786 39.9389 38.1736 30.2689 37.3242 31.0362 32.5869 36.2312 34.6392 27.5683 33.7337 28.2785 29.6635 32.7131 31.2891 25.0188 30.3067 25.6726 26.9 29.3698 28.1037 22.5929 27.1102 23.1753 24.2599 26.24 25.1376 20.2746 24.0708 20.8092 21.7402 23.3015 22.3392 18.1467 21.2639 18.6123 19.4174 20.5243 19.6762 16.0963 18.606 16.5107 17.2094 17.9692 17.2761 14.2176 16.1704 14.5851 15.145 15.5865 14.9885 12.4661 13.9273 12.7662 13.2395 13.4062 12.9325 10.8056 11.8329 11.0954 11.4567 11.4063 11.0168 9.2901 9.98324 9.50917 9.80692 9.59115 9.28573 7.89708 8.2809 8.08954 8.31247 7.95331 7.7389 6.63127 6.8152 6.81153 6.96352 6.52981 6.35703 5.44374 5.46379 5.60151 5.72551 5.23182 5.11534 4.4212 4.31757 4.50411 4.58698 4.13791 4.05932 3.4394 3.28862 3.53545 3.5886 3.14553 3.11207 2.56013 2.4041 2.61964 2.63774 2.29965 2.28578 1.75664 1.60611 1.78696 1.7926 1.56155 1.55984 1.01074 0.954412 1.05515 1.05592 0.909348 0.911049 0.391041 0.454606 0.420469 0.422672 0.422941 0.440149 21.0181 26.6556 20.3719 20.3719 27.873 26.2728 38.0136 45.5789 37.6392 38.5428 46.3998 44.0851 45.2018 56.5047 45.1211 46.5833 56.5855 53.9472 45.8424 54.2582 46.047 47.8268 53.9545 50.995 42.6424 51.2045 43.0857 45.1719 50.4893 47.4506 39.39 47.8573 40.0623 42.248 46.7948 43.8282 36.4904 44.4672 37.2358 39.3884 43.2459 40.448 33.9498 41.1629 34.665 36.6897 39.9497 37.3565 31.6282 38.0559 32.3267 34.1894 36.8451 34.4724 29.5024 35.1045 30.1627 31.8364 33.9798 31.8164 27.5195 32.3012 28.1073 29.6095 31.2614 29.316 25.5944 29.6472 26.1655 27.4958 28.6823 26.935 23.7947 27.1426 24.2795 25.4635 26.2689 24.7119 22.018 24.7751 22.5056 23.5463 23.9659 22.5946 20.3949 22.5569 20.7686 21.6813 21.8143 20.6087 18.7853 20.4339 19.1547 19.9353 19.7699 18.7337 17.2428 18.4296 17.5692 18.2279 17.8225 16.9278 15.7789 16.5826 16.0444 16.6062 16.0517 15.2967 14.3375 14.8255 14.616 15.0794 14.3563 13.7287 13.0212 13.1915 13.216 13.6008 12.7748 12.2608 11.7072 11.6731 11.8993 12.2055 11.3345 10.9162 10.4488 10.2722 10.6026 10.8464 9.94907 9.63177 9.28424 8.95153 9.41899 9.597 8.70358 8.46169 8.17241 7.75991 8.26747 8.40372 7.54982 7.36166 7.04827 6.6504 7.1606 7.26354 6.45692 6.32935 6.0014 5.60469 6.08518 6.15173 5.43767 5.3581 5.0162 4.63402 5.09484 5.13049 4.54356 4.48771 4.06045 3.76466 4.12347 4.15297 3.66527 3.62514 3.16889 2.90611 3.20638 3.23156 2.84704 2.83237 2.29793 2.10164 2.33733 2.34256 2.069 2.0562 1.43579 1.35032 1.47751 1.48504 1.30664 1.28862 0.651258 0.653039 0.659654 0.675083 0.625399 0.635921 18.9011 14.0228 18.5011 18.5011 14.734 13.1545 33.2562 26.5378 32.687 32.7598 27.0189 24.9292 38.5158 32.6705 37.9923 38.2744 32.753 30.3861 38.7315 34.484 38.3963 38.8217 34.2312 31.6991 36.1588 32.3707 36.1282 36.6363 31.8139 29.2328 33.4267 30.0557 33.5664 34.1209 29.2177 26.7467 31.0829 27.8583 31.3185 31.8478 26.9478 24.6652 29.1489 25.8793 29.392 29.8753 25.0151 22.9379 27.4072 24.1453 27.6565 28.0886 23.3129 21.437 25.8117 22.584 26.0609 26.4541 21.8108 20.1476 24.3464 21.1335 24.5962 24.9382 20.4481 18.9811 22.9327 19.7893 23.1671 23.4683 19.1296 17.8514 21.5718 18.4985 21.7813 22.0329 17.9374 16.8213 20.2348 17.2973 20.4445 20.6777 16.7464 15.7849 18.9606 16.1102 19.1401 19.3301 15.6777 14.8627 17.704 15.0357 17.8506 18.0175 14.62 13.9161 16.4413 13.9483 16.6183 16.7724 13.5832 12.9933 15.2471 12.9017 15.3522 15.4826 12.6022 12.124 14.0449 11.9143 14.1953 14.2951 11.6137 11.2301 12.9058 10.9522 13.0108 13.0858 10.7359 10.4181 11.7499 10.0355 11.8822 11.954 9.82656 9.55327 10.6295 9.06956 10.7242 10.8085 8.90482 8.72207 9.55851 8.19001 9.62078 9.65958 8.0437 7.92901 8.49691 7.30268 8.55032 8.55503 7.20011 7.11188 7.39596 6.44036 7.48641 7.49514 6.3253 6.28084 6.39434 5.5777 6.4486 6.43511 5.49101 5.47385 5.38477 4.73892 5.44833 5.4246 4.65807 4.67347 4.40755 3.90692 4.46914 4.42804 3.84337 3.87299 3.4696 3.09798 3.50754 3.46354 3.059 3.0893 2.54632 2.29419 2.59204 2.55269 2.25414 2.27377 1.68883 1.47451 1.7004 1.6768 1.4334 1.50222 0.795025 0.66277 0.823319 0.75166 0.654166 0.723989 26.6649 12.3622 24.9832 24.9832 12.6946 12.8784 41.1779 21.3321 39.631 38.7568 21.8884 22.1866 46.051 24.0883 44.8064 43.4777 24.6255 24.9538 45.8812 23.8378 45.0014 43.4538 24.2133 24.5054 43.2637 22.2436 42.7651 41.147 22.3568 22.6481 39.9597 20.4127 39.6972 38.0446 20.3763 20.7482 37.062 18.9733 36.9364 35.3445 18.8639 19.2724 34.5112 17.8875 34.4648 32.9807 17.7681 18.1706 32.1893 17.0045 32.2038 30.8512 16.8746 17.2582 30.058 16.2558 30.1234 28.9048 16.119 16.456 28.1012 15.5946 28.1502 27.0716 15.448 15.7254 26.1989 14.949 26.2573 25.315 14.8054 15.0418 24.3894 14.3148 24.4778 23.6563 14.1885 14.3936 22.6818 13.7039 22.7633 22.0404 13.5642 13.7394 21.0418 13.0695 21.1398 20.5137 12.951 13.1012 19.4586 12.4348 19.5331 18.9887 12.3374 12.4609 17.9205 11.8228 18.0366 17.5785 11.6917 11.7812 16.4567 11.118 16.541 16.165 11.0458 11.1299 15.0402 10.4837 15.1594 14.8367 10.3675 10.4283 13.6771 9.78642 13.7615 13.5008 9.70519 9.74143 12.3362 9.08561 12.4472 12.2479 8.97784 9.02747 11.0778 8.39734 11.1645 10.9874 8.31926 8.32942 9.85161 7.65416 9.936 9.8211 7.60224 7.59342 8.67295 6.92465 8.75627 8.68854 6.88145 6.89071 7.54228 6.16628 7.62487 7.55969 6.08431 6.11447 6.44914 5.39308 6.52091 6.4503 5.34505 5.36035 5.40642 4.65123 5.46225 5.41845 4.59272 4.58765 4.38801 3.86019 4.46363 4.44877 3.80322 3.79189 3.41588 3.03101 3.45464 3.45279 2.99516 3.01407 2.50786 2.24859 2.53928 2.51375 2.20604 2.22125 1.61783 1.45815 1.68646 1.66593 1.44769 1.42438 0.758289 0.645556 0.779985 0.805621 0.624169 0.601361 41.1315 23.289 37.7975 37.7975 24.0757 25.2236 57.2948 33.1167 54.7187 53.3449 34.4511 36.4633 62.661 35.7593 60.7273 58.4955 37.0023 39.5225 62.2783 34.8956 60.9958 58.329 35.8816 38.6398 59.0312 32.5882 58.3355 55.5088 33.2628 36.0735 54.7786 30.0309 54.4728 51.6588 30.5826 33.33 50.5577 27.8498 50.4269 47.7237 28.2916 30.8908 46.6416 25.945 46.6396 44.1109 26.2812 28.6629 43.0309 24.1692 43.1021 40.794 24.4308 26.6046 39.6866 22.5372 39.792 37.6837 22.7299 24.6812 36.5916 21.0159 36.6664 34.7689 21.1926 22.9323 33.6189 19.5472 33.743 32.0427 19.6909 21.2254 30.816 18.1834 30.9431 29.436 18.2769 19.6056 28.1934 16.8622 28.3116 26.9953 16.9342 18.1027 25.6812 15.6341 25.838 24.6705 15.6709 16.6904 23.3473 14.423 23.4831 22.4533 14.4651 15.3444 21.0973 13.3113 21.2611 20.3651 13.3056 14.041 18.984 12.2357 19.1366 18.3752 12.2232 12.8174 16.9875 11.2363 17.1349 16.5109 11.1889 11.6878 15.1357 10.2268 15.2596 14.7273 10.2017 10.6067 13.3707 9.31621 13.5509 13.1131 9.25106 9.56978 11.7317 8.36943 11.8754 11.522 8.31692 8.56932 10.1722 7.50944 10.332 10.0474 7.45336 7.66177 8.7792 6.68096 8.90305 8.66714 6.61565 6.7527 7.44215 5.87764 7.5553 7.39459 5.80538 5.87172 6.20267 5.05278 6.30854 6.22257 4.99261 5.03988 5.06595 4.23686 5.15209 5.09006 4.18815 4.23539 3.98972 3.47976 4.08027 4.02173 3.41216 3.45008 3.01679 2.69076 3.10042 3.05481 2.65418 2.66494 2.14612 1.92753 2.18174 2.16729 1.89895 1.92889 1.34402 1.23068 1.403 1.3711 1.17145 1.19646 0.717435 0.566721 0.72385 0.700251 0.573376 0.643995 62.1314 40.4038 57.2306 57.2306 41.7816 43.0561 78.8708 52.8469 75.4568 73.9113 54.8957 57.2424 84.3225 56.6246 81.8835 79.3958 58.4312 61.3319 83.1494 55.9729 81.5485 78.604 57.2874 60.4526 78.7093 53.1121 77.9543 74.8183 53.9195 57.0958 73.0428 49.398 72.7969 69.6962 49.903 53.0031 67.22 45.6576 67.2899 64.288 46.0077 48.9232 61.7243 42.1018 61.9033 59.0825 42.33 45.0488 56.6281 38.7655 56.8465 54.2148 38.9014 41.3788 51.8603 35.6036 52.0723 49.679 35.7009 37.9683 47.389 32.5866 47.628 45.4409 32.6925 34.7423 43.1644 29.7848 43.4171 41.4389 29.8354 31.6805 39.2364 27.0795 39.4748 37.6942 27.1144 28.7777 35.4875 24.5652 35.7327 34.127 24.5775 26.0638 31.9555 22.1919 32.1939 30.7578 22.1516 23.446 28.5799 19.9547 28.8291 27.5837 19.9262 21.0675 25.481 17.8506 25.7456 24.6473 17.7943 18.802 22.5533 15.9169 22.7881 21.815 15.8367 16.6802 19.8058 14.0629 20.0365 19.2234 13.9871 14.6964 17.2298 12.3569 17.4689 16.7847 12.2893 12.8924 14.8668 10.8406 15.1213 14.5362 10.7054 11.2027 12.7027 9.36617 12.9295 12.4441 9.25447 9.6666 10.7212 8.03122 10.9479 10.5431 7.89214 8.22216 8.88141 6.81865 9.07556 8.74929 6.70878 6.95868 7.26265 5.7181 7.4448 7.19628 5.61839 5.79736 5.78498 4.73473 5.96838 5.78827 4.62775 4.75722 4.52089 3.82084 4.65246 4.51939 3.7271 3.81782 3.35988 2.9735 3.49374 3.39922 2.88607 2.92946 2.38451 2.20295 2.48856 2.44254 2.11465 2.14969 1.56786 1.48156 1.61827 1.58012 1.43407 1.43577 0.845777 0.850572 0.914628 0.911669 0.800797 0.807546 0.479667 0.622109 0.487736 0.482143 0.628086 0.612722 92.116 65.7086 85.8083 85.8083 67.571 68.7618 107.851 77.8731 104.064 102.452 80.4932 82.657 110.784 81.8264 108.053 105.721 84.0579 86.6919 107.234 80.5752 105.382 102.665 82.1681 85.0264 100.626 76.6511 99.7702 96.8804 77.4963 80.4136 92.8923 71.4411 92.8258 89.907 71.8235 74.674 85.278 65.9366 85.5448 82.6931 66.0316 68.761 78.1197 60.5765 78.4595 75.7251 60.5674 63.1157 71.4502 55.52 71.8296 69.2783 55.4691 57.8331 65.2473 50.7261 65.6288 63.2602 50.6745 52.8434 59.4311 46.2298 59.8503 57.6748 46.1396 48.1144 53.9576 41.9798 54.2983 52.3132 41.8703 43.6531 48.7702 37.9623 49.1442 47.3583 37.8537 39.4745 43.9044 34.1698 44.2471 42.6225 34.0316 35.4915 39.2748 30.5797 39.6368 38.1783 30.4501 31.7678 34.909 27.199 35.2759 33.9578 27.0404 28.1911 30.7939 24.0702 31.1646 30.0149 23.8968 24.9059 26.9907 21.0893 27.3143 26.3058 20.9382 21.8179 23.3868 18.3392 23.7101 22.8313 18.1738 18.948 20.054 15.7948 20.3854 19.611 15.5976 16.2422 16.9871 13.4556 17.2982 16.6553 13.2468 13.796 14.1634 11.3101 14.5014 13.9547 11.1102 11.5767 11.6186 9.37168 11.9206 11.4525 9.16066 9.52984 9.32227 7.58388 9.56501 9.19562 7.39675 7.70454 7.24421 6.02352 7.52529 7.21738 5.85185 6.08865 5.44321 4.68564 5.68701 5.44636 4.48776 4.6587 3.91195 3.50916 4.11416 3.93947 3.3427 3.4734 2.6273 2.51012 2.81243 2.67652 2.35596 2.46906 1.65153 1.69579 1.80247 1.68205 1.57025 1.63721 0.852187 1.04395 1.00051 0.926745 0.943964 0.988071 0.417692 0.551922 0.531623 0.491114 0.481554 0.508341 0.388025 0.597271 0.404661 0.420032 0.596792 0.5383 52.8265 110.16 49.9099 49.9099 110.822 110.345 91.6061 99.5511 91.6083 91.9708 100.329 98.9055 85.9315 98.4444 85.8298 87.1711 98.6639 96.5654 81.5738 96.3397 81.7527 83.8016 95.948 93.5085 77.0783 92.7458 77.6716 80.056 91.8787 89.3073 72.3452 88.0481 73.2146 75.7145 86.8567 84.2887 67.4131 82.6337 68.5548 71.0344 81.1989 78.7333 62.5004 76.8726 63.7434 66.1077 75.353 73.0326 57.6728 71.0323 58.9478 61.1583 69.4935 67.3193 52.9635 65.229 54.2602 56.3181 63.7066 61.7211 48.4625 59.5924 49.6845 51.5528 58.1742 56.3493 44.1521 54.2127 45.2995 47.0105 52.8321 51.1628 40.0097 48.9997 41.1424 42.6965 47.725 46.2293 36.0969 44.0895 37.137 38.5293 42.8761 41.5245 32.3655 39.4436 33.3258 34.5791 38.307 37.1079 28.8967 35.0424 29.7746 30.8774 33.9675 32.9149 25.5805 30.8576 26.3931 27.3522 29.9158 28.9902 22.5009 27.0154 23.2422 24.0807 26.1043 25.2873 19.5834 23.3924 20.2781 21.0134 22.5954 21.8973 16.9168 20.0564 17.5376 18.1645 19.3173 18.716 14.4538 17.0423 15.0127 15.5469 16.2772 15.786 12.1453 14.1508 12.6667 13.0875 13.533 13.1333 10.1125 11.6168 10.5598 10.8967 11.0541 10.7247 8.2195 9.33511 8.64518 8.916 8.79643 8.53831 6.56373 7.29192 6.91932 7.12666 6.83988 6.65459 5.07872 5.50781 5.38578 5.53071 5.14085 5.00801 3.82665 3.98502 4.06699 4.16817 3.67087 3.58479 2.73733 2.78555 2.92291 2.9893 2.49225 2.43578 1.82578 1.76212 1.99631 2.03601 1.56033 1.54242 1.05824 1.026 1.18675 1.20254 0.881344 0.877351 0.492099 0.465998 0.530959 0.543216 0.389693 0.383647 0.273079 0.164984 0.292633 0.308409 0.143469 0.145743 33.2691 49.7669 31.2531 31.2531 50.0693 48.6927 55.3479 82.6585 54.0739 55.3433 83.2355 81.5084 66.3478 79.1751 66.2128 67.6643 79.4015 77.0418 62.7403 75.9914 62.902 64.9657 75.7975 73.1013 58.7307 72.3193 59.1904 61.6147 71.6572 68.8511 54.7035 68.1316 55.4666 58.0132 67.1781 64.4015 50.8169 63.7479 51.7942 54.3248 62.514 59.8392 47.0704 59.2147 48.1764 50.6098 57.8787 55.3508 43.5289 54.712 44.6612 46.9586 53.3382 51.0101 40.1724 50.3434 41.2849 43.3931 48.9548 46.8077 36.9353 46.086 38.004 39.9348 44.7778 42.8105 33.8684 42.0232 34.8919 36.6484 40.7904 39.0135 30.9587 38.1971 31.9408 33.5172 36.9837 35.3882 28.1938 34.5157 29.1005 30.502 33.3962 31.97 25.5867 31.02 26.4151 27.6578 29.9828 28.7145 23.1029 27.7627 23.8513 24.9453 26.8107 25.6918 20.7172 24.6712 21.442 22.3978 23.7879 22.8015 18.5227 21.8051 19.1501 19.9874 20.9982 20.1425 16.4393 19.1113 17.0478 17.7631 18.3522 17.6221 14.4981 16.6235 15.0294 15.6338 15.9423 15.3281 12.6915 14.3301 13.1571 13.6644 13.7168 13.2079 11.0038 12.2091 11.4174 11.8307 11.6377 11.2222 9.43942 10.311 9.82512 10.1508 9.81871 9.47869 8.02707 8.58718 8.36941 8.63633 8.12416 7.87902 6.74766 7.05197 7.00191 7.18662 6.66855 6.50594 5.56486 5.67093 5.78929 5.8999 5.34232 5.22222 4.4778 4.473 4.68026 4.75802 4.21892 4.15351 3.51713 3.41554 3.66952 3.70869 3.22763 3.17598 2.59058 2.53255 2.71693 2.75302 2.36025 2.33104 1.76593 1.69761 1.87221 1.8926 1.58135 1.56241 1.03976 0.991806 1.08753 1.10387 0.957192 0.929653 0.409216 0.482072 0.42948 0.458232 0.480683 0.444445 21.4619 29.1609 19.7519 19.7519 29.4402 27.5001 38.1369 46.612 36.6421 37.8865 47.4953 44.9612 45.3902 57.4281 44.6036 46.3202 57.5224 54.8732 46.2517 55.0878 46.1659 48.0201 54.8148 51.8812 43.2865 52.0101 43.5493 45.6739 51.4278 48.4195 40.2427 48.7634 40.7982 43.0262 47.8946 44.9333 37.4171 45.5 38.1699 40.3893 44.4218 41.6023 34.8353 42.288 35.7055 37.8231 41.0941 38.4543 32.4856 39.1816 33.3959 35.3674 37.9709 35.5401 30.2997 36.2098 31.2014 33.0074 35.0222 32.8055 28.2233 33.351 29.0921 30.7358 32.2168 30.2057 26.2636 30.6526 27.0734 28.5609 29.5701 27.7564 24.3683 28.1075 25.1572 26.4853 27.0712 25.4435 22.5802 25.6628 23.2985 24.4795 24.7019 23.2543 20.8446 23.3688 21.5134 22.5504 22.4877 21.2194 19.2106 21.1788 19.7902 20.6967 20.3818 19.2577 17.6083 19.1443 18.1806 18.9775 18.3724 17.4043 16.0817 17.2136 16.5867 17.2667 16.5451 15.7026 14.6475 15.4234 15.0985 15.6907 14.7749 14.0839 13.2459 13.7218 13.6689 14.1424 13.1578 12.5708 11.9238 12.1467 12.2833 12.6842 11.6501 11.1683 10.614 10.6897 10.9528 11.2812 10.2479 9.85344 9.42195 9.32486 9.71765 9.98998 8.91836 8.62343 8.27878 8.10993 8.53487 8.73118 7.75192 7.52047 7.17137 6.92215 7.37814 7.53331 6.65324 6.46897 6.08748 5.82934 6.27611 6.40834 5.5945 5.47624 5.08895 4.83389 5.24071 5.32584 4.62551 4.54752 4.12755 3.89006 4.26124 4.31255 3.73456 3.71027 3.21792 3.02173 3.30394 3.31356 2.89197 2.87464 2.33656 2.20584 2.42675 2.43382 2.09971 2.08516 1.48033 1.40695 1.53836 1.54916 1.35767 1.34005 0.670364 0.68329 0.684274 0.702938 0.669396 0.650118 18.6036 15.4291 16.6462 16.6462 15.8723 13.6221 32.6088 26.9024 30.6865 31.0948 27.8089 25.1521 37.8991 33.0662 36.4652 37.1363 33.4571 30.7378 38.3671 35.1623 37.582 38.3105 35.0067 32.2771 36.1806 33.1848 35.909 36.6638 32.7373 29.9966 33.6675 31.033 33.7879 34.5791 30.3464 27.6902 31.4372 28.9974 31.8011 32.6124 28.1422 25.6432 29.5189 27.1064 29.9932 30.8014 26.1571 23.855 27.7747 25.3828 28.3214 29.0895 24.419 22.3183 26.1814 23.7874 26.7827 27.5034 22.8415 20.9675 24.7052 22.2823 25.2757 25.9289 21.3824 19.7073 23.2641 20.8681 23.8178 24.4116 20.0349 18.5361 21.8565 19.5382 22.4102 22.964 18.7288 17.4105 20.5289 18.2445 21.0155 21.5127 17.5064 16.358 19.201 17.0044 19.6731 20.1169 16.3246 15.3087 17.9107 15.819 18.3608 18.767 15.2195 14.3604 16.6862 14.7095 17.0868 17.4456 14.1274 13.3818 15.4114 13.5824 15.8056 16.1272 13.0666 12.4322 14.2406 12.5412 14.5815 14.8715 12.0865 11.5359 13.0418 11.5095 13.3845 13.6526 11.0806 10.6479 11.9215 10.5207 12.2178 12.4276 10.1585 9.79789 10.7886 9.52262 11.0245 11.2095 9.17777 8.88948 9.64355 8.58847 9.90549 10.0563 8.29105 8.05367 8.54768 7.63367 8.77349 8.90827 7.37733 7.2089 7.49267 6.71756 7.66927 7.76205 6.50894 6.37555 6.43387 5.82785 6.60669 6.68678 5.63729 5.5339 5.42572 4.97686 5.56461 5.63289 4.82163 4.71047 4.42959 4.1142 4.54487 4.63441 3.97975 3.89016 3.46382 3.25001 3.55621 3.63216 3.16262 3.08861 2.55304 2.44289 2.63998 2.70807 2.35332 2.29146 1.67533 1.59307 1.73347 1.7939 1.53472 1.47466 0.747503 0.723831 0.786848 0.848214 0.711789 0.661656 26.4267 12.208 23.9445 23.9445 12.8389 12.4065 40.1398 20.4593 37.6486 36.8799 21.6416 21.2985 44.8468 23.3089 42.8953 41.7682 24.3562 24.0794 44.852 23.4748 43.5299 42.2346 24.1208 23.8958 42.5861 22.3467 41.8307 40.4446 22.6107 22.3859 39.4901 20.861 39.1996 37.8344 20.8201 20.6438 36.7206 19.648 36.6832 35.4187 19.4126 19.2784 34.2471 18.6586 34.4028 33.2668 18.3296 18.2192 32.0014 17.8333 32.2488 31.2584 17.4381 17.3351 29.9318 17.109 30.2589 29.4017 16.6613 16.5674 27.982 16.4115 28.3166 27.5682 15.9804 15.8728 26.1123 15.7304 26.4911 25.8578 15.3039 15.1932 24.3481 15.1039 24.7052 24.1718 14.666 14.5247 22.642 14.4194 23.0052 22.5786 14.032 13.8926 21.032 13.7506 21.3744 21.0234 13.3666 13.2306 19.4278 13.0753 19.782 19.495 12.7018 12.5708 17.9466 12.3996 18.2712 18.0452 12.0625 11.9385 16.4721 11.684 16.8106 16.634 11.3451 11.2184 15.0897 10.9733 15.3765 15.2559 10.6773 10.5645 13.7003 10.2586 14.0135 13.9225 9.95438 9.84852 12.4106 9.51871 12.6756 12.6164 9.25389 9.14107 11.1117 8.74599 11.383 11.3612 8.53354 8.44177 9.91743 8.01173 10.1672 10.1597 7.77088 7.68815 8.75864 7.24903 8.95838 8.96463 7.03835 6.95211 7.61031 6.43558 7.80043 7.82803 6.27024 6.18758 6.48182 5.63169 6.68521 6.72766 5.46787 5.40645 5.43541 4.78906 5.57257 5.60678 4.65505 4.65883 4.45921 3.97368 4.59514 4.57482 3.86195 3.86348 3.45758 3.1449 3.5553 3.54402 3.05545 3.03336 2.51327 2.32808 2.59485 2.61023 2.24417 2.24845 1.66081 1.51424 1.71093 1.70325 1.45777 1.45739 0.80171 0.652353 0.819095 0.817762 0.620003 0.643242 41.1006 23.1652 37.5952 37.5952 23.7465 24.8587 56.2835 31.8688 53.1817 51.6883 33.4021 35.297 61.1985 34.2554 58.9286 56.6664 35.7566 38.1104 60.8653 33.549 59.3316 56.7033 34.7592 37.3134 57.9182 31.5695 57.0266 54.2907 32.4438 35.0101 53.9377 29.3218 53.5427 50.8762 29.8876 32.3898 49.8379 27.3062 49.7182 47.1806 27.7017 30.0693 46.0275 25.5796 46.1116 43.7575 25.8007 27.9701 42.5257 23.9463 42.7225 40.5896 24.0678 26.0062 39.2458 22.431 39.5179 37.6196 22.4557 24.1944 36.1462 20.9594 36.4692 34.7666 20.9429 22.4727 33.2645 19.5974 33.5867 32.0831 19.5108 20.8378 30.5094 18.2209 30.8438 29.5326 18.1296 19.3112 27.9318 16.9835 28.2681 27.0901 16.8427 17.8419 25.4784 15.7672 25.835 24.83 15.6234 16.4748 23.1419 14.6145 23.4735 22.6072 14.4299 15.134 20.9478 13.5145 21.2979 20.5731 13.3324 13.9102 18.8608 12.4679 19.1959 18.5885 12.2617 12.7285 16.9063 11.465 17.2478 16.7495 11.2707 11.6341 15.0422 10.5066 15.3796 14.981 10.274 10.5436 13.3618 9.55791 13.6346 13.329 9.3604 9.56207 11.7107 8.65249 12.0267 11.7914 8.42999 8.55773 10.1896 7.78652 10.459 10.3003 7.57504 7.64895 8.76659 6.9117 9.02239 8.9213 6.73855 6.77987 7.4596 6.07428 7.69376 7.63014 5.907 5.94306 6.25573 5.26649 6.48189 6.42883 5.07777 5.08791 5.10673 4.41729 5.28257 5.25722 4.28446 4.25707 4.02816 3.62978 4.19308 4.20915 3.50099 3.48651 3.05032 2.77398 3.16059 3.16881 2.68141 2.68933 2.16044 2.01663 2.25355 2.24178 1.93829 1.92667 1.36546 1.26122 1.42741 1.43635 1.21866 1.22506 0.690994 0.594906 0.717572 0.711085 0.599137 0.573157 62.0384 40.4323 56.9855 56.9855 41.223 42.7424 77.8725 51.5307 74.2767 72.4563 53.5356 56.1254 82.7585 54.9948 80.2777 77.5394 56.7534 59.819 81.5074 54.3099 79.9079 76.7934 55.679 58.9023 77.3792 51.624 76.4888 73.2846 52.5785 55.7891 71.9971 48.189 71.645 68.5007 48.7773 51.8497 66.3676 44.5912 66.3278 63.351 44.9969 47.8909 60.9479 41.2224 61.1292 58.3443 41.4592 44.1163 55.8921 38.0152 56.1797 53.6328 38.1539 40.5859 51.1775 35.0007 51.5402 49.2133 35.0478 37.232 46.7792 32.0962 47.1371 45.051 32.0692 34.0532 42.623 29.3351 43.0098 41.1209 29.3036 31.0834 38.735 26.7271 39.1191 37.425 26.6413 28.2282 35.0384 24.2566 35.4287 33.922 24.1618 25.5736 31.5395 21.9595 31.9512 30.6117 21.8134 23.0638 28.2468 19.7569 28.6473 27.4614 19.6192 20.6984 25.2085 17.714 25.5942 24.5699 17.5363 18.4836 22.2777 15.7995 22.6872 21.7881 15.6237 16.4366 19.5914 14.0268 19.9986 19.2225 13.8041 14.485 17.074 12.347 17.4413 16.7904 12.1184 12.6897 14.7597 10.8 15.1205 14.5734 10.6103 11.1014 12.6149 9.42478 12.9663 12.4907 9.18115 9.56448 10.659 8.10401 10.9865 10.6149 7.88506 8.17102 8.82339 6.90319 9.14028 8.86085 6.68128 6.91149 7.23284 5.82481 7.53242 7.30546 5.61262 5.76709 5.79826 4.84888 6.06017 5.906 4.63645 4.75454 4.51212 3.93092 4.73607 4.61599 3.75891 3.81943 3.38137 3.0899 3.58541 3.52322 2.92037 2.9623 2.41735 2.2813 2.55231 2.50785 2.16828 2.18054 1.55491 1.53141 1.68212 1.66824 1.43972 1.4552 0.890306 0.88337 0.947919 0.933205 0.819482 0.833945 0.473861 0.6125 0.479957 0.467829 0.638953 0.617431 91.7036 65.4885 84.7349 84.7349 66.8176 68.2815 106.872 76.7819 103.096 101.195 79.1386 81.6092 109.171 80.3204 106.803 104.208 82.2975 85.1419 105.415 78.9479 103.878 100.989 80.3941 83.3449 99.1244 75.0971 98.299 95.3326 76.0351 78.9667 91.8249 70.0971 91.5869 88.6512 70.6192 73.4471 84.3742 64.7822 84.4842 81.6531 65.0501 67.7081 77.2114 59.5849 77.5852 74.9203 59.6775 62.1493 70.5926 54.6529 70.9943 68.5025 54.6485 56.9161 64.4403 49.9854 64.8869 62.597 49.9023 51.9837 58.7117 45.5462 59.1212 57.0164 45.4494 47.3411 53.2223 41.3752 53.695 51.7858 41.2444 42.9591 48.1566 37.4397 48.6074 46.8733 37.2852 38.8271 43.3148 33.7056 43.7562 42.1962 33.5349 34.9243 38.7582 30.1933 39.2063 37.8006 29.9836 31.2152 34.4382 26.8357 34.9042 33.6615 26.6326 27.7315 30.4194 23.7684 30.8194 29.7076 23.5528 24.5221 26.6228 20.8545 27.0714 26.0939 20.6058 21.4491 23.0757 18.1667 23.5021 22.6512 17.8931 18.6206 19.7853 15.6165 20.1986 19.4665 15.3805 16 16.7699 13.3447 17.1903 16.5657 13.0736 13.595 14.0227 11.2158 14.3814 13.8555 10.9664 11.3984 11.4774 9.31041 11.8564 11.4216 9.05763 9.41333 9.18316 7.57773 9.54191 9.18002 7.30259 7.58002 7.1995 6.05522 7.50449 7.22214 5.78875 6.01427 5.39411 4.69923 5.70257 5.47291 4.46218 4.63461 3.86785 3.54529 4.15587 3.97862 3.31886 3.43424 2.59537 2.57179 2.84874 2.72687 2.34754 2.42414 1.61007 1.71516 1.8029 1.72047 1.56745 1.62021 0.857841 1.07863 0.968315 0.911218 0.93224 0.976997 0.438632 0.573798 0.570071 0.525232 0.493916 0.493075 0.415379 0.545485 0.391238 0.404536 0.602673 0.588044 56.4523 114.482 54.0227 54.0227 112.996 112.504 92.7533 101.243 93.1604 93.6987 101.915 100.407 86.5347 99.515 86.2629 87.7029 99.7074 97.6425 82.0648 97.12 82.0609 84.1114 96.7731 94.4274 77.6968 93.471 78.0968 80.4229 92.6523 90.2156 73.0467 88.8062 73.8808 76.2673 87.6339 85.2145 68.3026 83.434 69.38 71.7181 82.0691 79.7344 63.4315 77.7263 64.7136 66.9416 76.2362 74.0299 58.6216 71.8896 59.9506 62.0361 70.371 68.3297 53.9465 66.0999 55.3044 57.2169 64.5934 62.6916 49.3491 60.4579 50.7126 52.4823 58.9578 57.2284 44.9682 54.9834 46.2752 47.8704 53.5909 52.0159 40.8341 49.7555 42.0597 43.5054 48.4118 46.9837 36.8229 44.7856 37.9866 39.2882 43.5191 42.2368 33.0333 40.0978 34.1357 35.293 38.9078 37.7551 29.487 35.6139 30.4936 31.5287 34.5241 33.5174 26.1143 31.4344 27.1 27.9979 30.3763 29.4889 22.9633 27.5334 23.8506 24.6367 26.539 25.7738 20.0338 23.8526 20.8473 21.5117 22.9515 22.2949 17.3002 20.4943 18.0412 18.6026 19.6428 19.0789 14.7955 17.3639 15.4605 15.9307 16.6561 16.185 12.4498 14.533 13.1167 13.5088 13.7935 13.4116 10.356 11.9107 10.8891 11.1993 11.2841 10.9817 8.46425 9.58662 8.98763 9.22017 9.02205 8.79508 6.7609 7.54764 7.20757 7.38056 7.01277 6.84645 5.2455 5.74082 5.65047 5.77185 5.27366 5.15204 3.94996 4.21208 4.29375 4.37478 3.7721 3.70416 2.83152 2.92555 3.11334 3.14744 2.61334 2.5798 1.91809 1.89651 2.13406 2.15018 1.60848 1.60279 1.11236 1.06362 1.26198 1.26192 0.895591 0.9112 0.47703 0.484812 0.596395 0.592492 0.386319 0.394609 0.277566 0.235184 0.259799 0.281271 0.198002 0.126952 35.5593 55.3149 33.4798 33.4798 53.5298 51.6941 55.6757 84.7374 53.7032 55.5526 84.6188 82.7977 66.6352 80.0892 66.5056 68.0894 80.2998 77.8677 63.0798 76.5585 63.1557 65.3249 76.4655 73.7525 59.223 72.8572 59.6212 62.1098 72.382 69.5663 55.424 68.8563 56.1422 58.7597 67.9561 65.184 51.7071 64.5774 52.7087 55.2894 63.4456 60.7798 48.09 60.1921 49.2533 51.737 58.8561 56.3524 44.5886 55.7372 45.8335 48.1566 54.3562 52.0087 41.2019 51.404 42.4938 44.6645 49.9892 47.8319 37.9304 47.1691 39.2077 41.1948 45.7482 43.7717 34.8208 43.0645 36.0491 37.86 41.7003 39.8964 31.8577 39.1713 33.0185 34.6631 37.8865 36.2537 29.012 35.4413 30.1318 31.6121 34.2143 32.7556 26.3276 31.901 27.3565 28.6796 30.7361 29.434 23.7704 28.5761 24.7312 25.9017 27.5077 26.3474 21.3659 25.4721 22.2774 23.3141 24.4211 23.4112 19.0883 22.522 19.9254 20.8194 21.5689 20.698 16.9864 19.7805 17.7396 18.5088 18.9043 18.136 14.9729 17.2212 15.6704 16.3438 16.415 15.7832 13.1127 14.8744 13.7359 14.2855 14.15 13.6189 11.3722 12.7746 11.9787 12.4355 12.0468 11.6027 9.78238 10.7567 10.2859 10.6653 10.1697 9.81723 8.34491 9.05514 8.80461 9.10574 8.48206 8.18483 6.96151 7.44317 7.34861 7.59989 6.95744 6.737 5.7387 6.01414 6.09286 6.27463 5.57501 5.43735 4.64977 4.7703 4.94318 5.05104 4.40477 4.30938 3.63293 3.64065 3.85725 3.93214 3.3451 3.29756 2.70779 2.70903 2.90033 2.93097 2.49519 2.46064 1.86906 1.83751 2.00123 2.02908 1.69056 1.65868 1.09052 1.09767 1.16478 1.19537 0.995506 0.971418 0.447841 0.513446 0.465071 0.492094 0.502292 0.477042 21.6186 33.8864 18.4534 18.4534 32.2734 29.6806 37.2525 47.7958 34.4754 36.5154 48.5236 45.5317 44.7514 58.4413 43.4439 45.6805 58.2481 55.4463 46.1755 55.8175 46.0399 48.0851 55.5158 52.4998 43.6116 52.7326 43.9485 46.2099 52.2042 49.1302 40.9081 49.6219 41.5533 43.9304 48.8301 45.8178 38.3258 46.5503 39.2405 41.6137 45.513 42.6276 35.8902 43.4766 36.9738 39.2717 42.2942 39.5811 33.5975 40.4558 34.7314 36.9093 39.1917 36.6785 31.4028 37.5462 32.5831 34.6064 36.2413 33.9147 29.2938 34.6812 30.4305 32.3089 33.3863 31.2638 27.281 31.9454 28.3762 30.0804 30.7005 28.7731 25.3521 29.3453 26.3928 27.936 28.1653 26.425 23.4816 26.8661 24.4604 25.8539 25.7246 24.1625 21.6781 24.4795 22.6105 23.8521 23.4262 22.0424 19.9435 22.2269 20.8193 21.9182 21.2394 20.0158 18.3302 20.1421 19.1224 20.099 19.2044 18.1283 16.7228 18.1438 17.4583 18.3122 17.2776 16.3477 15.2392 16.2675 15.8957 16.6308 15.4837 14.6932 13.7762 14.516 14.3854 15.0097 13.7913 13.1155 12.3808 12.88 12.9389 13.4723 12.2303 11.6334 11.0393 11.3799 11.5444 12.024 10.7497 10.2767 9.81269 9.936 10.247 10.6229 9.41043 9.01239 8.59185 8.65513 8.99372 9.31969 8.17727 7.8644 7.4329 7.38157 7.77737 8.03376 6.97906 6.73935 6.34233 6.27 6.63368 6.83646 5.9015 5.70446 5.28543 5.2174 5.5194 5.69035 4.91708 4.75169 4.28393 4.20337 4.50007 4.64722 3.97068 3.83147 3.29875 3.24773 3.44929 3.57981 3.05516 2.99093 2.42617 2.3667 2.55823 2.61745 2.23316 2.18853 1.54692 1.50553 1.61559 1.65789 1.43001 1.40035 0.702134 0.762257 0.735094 0.764847 0.735318 0.683177 17.1805 18.3197 12.3891 12.3891 17.039 13.9446 30.5528 27.001 27.025 27.982 27.9188 24.4482 36.2379 33.1705 34.0154 35.2756 33.6116 30.3891 37.4053 35.7637 36.3541 37.5284 35.5031 32.522 35.8653 34.0737 35.7103 36.7645 33.5376 30.5798 33.8611 32.1499 34.1823 35.3135 31.417 28.5563 31.9722 30.349 32.6146 33.7966 29.4118 26.704 30.2443 28.6392 31.0511 32.2412 27.5692 25.032 28.6069 26.991 29.5336 30.7036 25.8775 23.5373 27.0849 25.4376 27.9943 29.1313 24.2795 22.154 25.5665 23.8856 26.4797 27.5361 22.7699 20.8429 24.0967 22.4255 24.9883 25.9832 21.356 19.6079 22.6913 21.0286 23.5416 24.4766 20.0078 18.4459 21.2812 19.6526 22.0956 22.9538 18.689 17.3034 19.9209 18.3394 20.691 21.4711 17.424 16.2044 18.6001 17.0777 19.3131 20.0148 16.2126 15.1384 17.3089 15.8566 17.9827 18.6196 15.0734 14.1437 16.0159 14.6424 16.6386 17.2018 13.9119 13.1189 14.7833 13.5082 15.3683 15.8627 12.8574 12.1687 13.583 12.4251 14.0908 14.5393 11.8207 11.2083 12.3742 11.3407 12.8371 13.2561 10.7799 10.2885 11.17 10.2787 11.628 11.969 9.77465 9.34081 10.0314 9.23915 10.4374 10.7546 8.80732 8.46051 8.89239 8.24532 9.241 9.49973 7.8394 7.54012 7.74923 7.22629 8.09003 8.32863 6.8796 6.64967 6.67965 6.27304 6.94127 7.13222 5.98033 5.78217 5.6301 5.31175 5.83836 6.00777 5.07465 4.95005 4.63275 4.4146 4.83951 4.9472 4.19415 4.09884 3.6307 3.45867 3.7714 3.85719 3.30522 3.24268 2.70686 2.62025 2.82503 2.88213 2.48548 2.43863 1.79304 1.70999 1.87603 1.91934 1.63739 1.59251 0.850359 0.815295 0.852688 0.899682 0.778667 0.729113 25.8887 12.8982 22.1739 22.1739 12.1294 10.9939 38.0987 19.072 34.4888 33.7812 20.2764 19.1608 42.761 21.9773 40.207 39.3394 23.2512 22.2392 43.2271 22.9326 41.6391 40.7012 23.6673 22.736 41.5051 22.6221 40.7362 39.792 22.7531 21.8937 38.9398 21.6724 38.7389 37.8371 21.4493 20.6424 36.4992 20.8314 36.693 35.9295 20.3513 19.5841 34.2862 20.0753 34.7038 34.0917 19.4543 18.7016 32.1899 19.36 32.7721 32.3252 18.6277 17.9273 30.2446 18.6418 30.8466 30.5043 17.9103 17.2338 28.3183 17.9274 28.9878 28.7568 17.1804 16.5388 26.5188 17.2043 27.1635 27.0218 16.4635 15.8531 24.7439 16.4756 25.4054 25.3379 15.7612 15.2156 23.077 15.748 23.7107 23.6708 15.0502 14.5257 21.4496 15.011 22.0637 22.0906 14.3457 13.8397 19.8575 14.2462 20.4575 20.5346 13.6239 13.161 18.3521 13.5027 18.9353 19.0397 12.9036 12.4756 16.8884 12.7098 17.4159 17.5454 12.1514 11.753 15.4663 11.9369 15.9882 16.1395 11.4043 11.0359 14.0965 11.1265 14.5729 14.7416 10.66 10.3172 12.75 10.2934 13.2084 13.3928 9.86339 9.56332 11.4664 9.48507 11.8734 12.0529 9.0537 8.78478 10.2405 8.66837 10.6405 10.8156 8.28386 8.04384 9.02183 7.78521 9.38482 9.55492 7.45304 7.27507 7.86823 6.96879 8.1938 8.32413 6.63893 6.45514 6.75394 6.05277 7.0035 7.151 5.79574 5.64527 5.62434 5.15816 5.87668 6.00282 4.95147 4.8018 4.58571 4.303 4.76691 4.90395 4.09802 3.98099 3.54581 3.39091 3.7103 3.81831 3.24973 3.148 2.61072 2.52203 2.72881 2.82611 2.40288 2.32978 1.70175 1.67179 1.80569 1.87887 1.58891 1.51596 0.822098 0.721166 0.827112 0.902008 0.722942 0.666513 41.7105 24.2901 38.2232 38.2232 23.6906 24.7407 54.828 30.6326 51.1733 49.5618 32.0307 33.7737 59.3011 32.6415 56.7125 54.4706 34.2109 36.2537 59.0772 32.16 57.371 54.9438 33.4927 35.6288 56.4985 30.6138 55.5412 53.1277 31.5524 33.6877 52.9509 28.8396 52.5185 50.1954 29.3959 31.4293 49.1197 27.2102 49.0874 46.9408 27.4597 29.3269 45.5343 25.7092 45.7667 43.8454 25.7728 27.4579 42.1961 24.2941 42.6012 40.8947 24.174 25.6569 39.0692 22.8676 39.5166 38.0232 22.6974 23.9785 36.0519 21.4893 36.5833 35.2944 21.2187 22.3372 33.2202 20.15 33.7724 32.6457 19.8605 20.813 30.5327 18.8775 31.0866 30.1177 18.518 19.2905 27.9634 17.6189 28.5214 27.7257 17.266 17.9133 25.587 16.4384 26.1328 25.4576 16.0552 16.5765 23.2462 15.2739 23.8146 23.2603 14.8804 15.291 21.1181 14.2024 21.6395 21.1925 13.7883 14.0882 19.044 13.1191 19.5541 19.2139 12.7334 12.9486 17.1155 12.1153 17.6235 17.3676 11.7151 11.8478 15.2827 11.1026 15.7759 15.6037 10.7225 10.8236 13.5634 10.1408 14.0632 13.9233 9.75321 9.80402 11.9676 9.18375 12.3947 12.3088 8.83412 8.84022 10.4297 8.30349 10.8478 10.8112 7.9435 7.92615 9.0032 7.4067 9.39214 9.38549 7.07054 7.0036 7.68118 6.48753 8.04265 8.08976 6.18389 6.13243 6.46279 5.60064 6.74818 6.78394 5.36232 5.30938 5.27509 4.74013 5.54759 5.58791 4.49757 4.44008 4.21642 3.86962 4.42012 4.46902 3.69103 3.64443 3.16274 3.0038 3.35432 3.39547 2.83932 2.77543 2.23103 2.18889 2.36307 2.4252 2.06846 2.01376 1.43003 1.41526 1.50814 1.56446 1.31341 1.26121 0.715528 0.653035 0.731889 0.774607 0.658821 0.623654 62.9786 42.1755 58.2343 58.2343 41.6346 43.3639 76.934 50.556 73.0424 70.9388 52.334 55.1192 81.0815 53.3739 78.5064 75.5756 55.1043 58.261 79.7393 52.5914 78.0868 74.9007 54.0226 57.2291 75.8133 50.1267 74.8632 71.7016 51.1559 54.253 70.7335 46.9429 70.3485 67.3502 47.6559 50.576 65.3647 43.6475 65.3483 62.5552 44.0701 46.7811 60.1515 40.5069 60.3957 57.8282 40.7148 43.206 55.2533 37.5426 55.6627 53.3206 37.5795 39.8069 50.6681 34.6058 51.121 49.039 34.59 36.6192 46.3348 31.8622 46.8783 44.9885 31.7278 33.5327 42.267 29.1838 42.807 41.1315 29.0058 30.6254 38.4295 26.6425 38.9807 37.4825 26.438 27.8649 34.792 24.2418 35.3483 34.0333 23.9995 25.2492 31.3674 22.0045 31.9115 30.7639 21.7411 22.828 28.109 19.8677 28.6905 27.6962 19.5543 20.5072 25.1116 17.8473 25.6592 24.787 17.549 18.3476 22.2298 15.9623 22.7653 22.0358 15.6458 16.3199 19.5891 14.2444 20.093 19.4773 13.9068 14.4691 17.0753 12.6251 17.6229 17.1115 12.2635 12.6893 14.7935 11.1531 15.2831 14.8973 10.7586 11.0733 12.6483 9.705 13.1437 12.8644 9.36944 9.6207 10.7125 8.43428 11.1806 10.9536 8.07693 8.23544 8.92172 7.20867 9.35022 9.20868 6.86921 6.99145 7.33265 6.14282 7.73449 7.62431 5.80841 5.87331 5.90736 5.10846 6.25336 6.19545 4.83764 4.86244 4.6022 4.15169 4.93242 4.91026 3.89015 3.92962 3.49999 3.30023 3.75372 3.71406 3.08791 3.0761 2.48273 2.45324 2.68939 2.70171 2.25556 2.26214 1.64238 1.66252 1.79964 1.79187 1.52371 1.51 0.91287 0.937796 0.994272 1.00941 0.867853 0.866755 0.476694 0.62203 0.470973 0.47747 0.634342 0.6247 91.9086 66.6572 84.5513 84.5513 66.8057 68.7523 106.101 75.7916 102.116 99.7605 77.9898 80.9167 107.818 78.7444 105.481 102.518 80.5933 83.7543 103.751 77.1736 102.347 99.2286 78.5944 81.7071 97.5118 73.3657 96.805 93.7455 74.3796 77.3388 90.4618 68.612 90.18 87.2621 69.2252 72.0005 83.1918 63.5258 83.329 80.5906 63.8671 66.4229 76.2675 58.5784 76.5596 74.029 58.7038 61.0352 69.7007 53.8184 70.1717 67.8633 53.8099 55.9502 63.6444 49.2931 64.1529 62.0255 49.2077 51.1261 57.9433 44.9967 58.4996 56.591 44.8224 46.5638 52.5977 40.8903 53.1552 51.4212 40.6911 42.2736 47.5738 37.0275 48.1139 46.5361 36.8111 38.2199 42.7839 33.3519 43.354 41.951 33.1015 34.3678 38.3036 29.8924 38.8486 37.5858 29.636 30.7652 34.0701 26.6446 34.6221 33.4946 26.3242 27.3094 30.0446 23.5934 30.6041 29.6252 23.2918 24.1622 26.3494 20.715 26.8507 25.9808 20.3961 21.1633 22.8463 18.0384 23.3868 22.6237 17.7467 18.4059 19.6012 15.6182 20.1431 19.4808 15.2467 15.7923 16.6545 13.3309 17.1265 16.5776 13.002 13.4682 13.8843 11.2709 14.4004 13.9294 10.8934 11.2698 11.4056 9.3894 11.8687 11.4868 9.02662 9.31328 9.13988 7.65281 9.57015 9.27834 7.30638 7.55048 7.14924 6.15457 7.55477 7.30475 5.81147 5.98639 5.39428 4.8317 5.76826 5.58854 4.50733 4.62493 3.88822 3.69555 4.22198 4.09938 3.36915 3.45404 2.639 2.67424 2.94445 2.85609 2.42278 2.48092 1.63423 1.84689 1.8767 1.81309 1.61079 1.62611 0.828895 1.13818 1.00743 0.99399 0.969306 0.992485 0.456902 0.601883 0.516725 0.506471 0.520625 0.516177 0.415674 0.567128 0.443836 0.461689 0.591152 0.544404 64.8324 126.124 61.6931 61.6931 120.067 118.685 94.264 103.37 98.514 101.41 103.63 101.578 86.6489 99.5945 86.1778 88.2035 100.345 98.2101 82.1049 96.9282 81.5498 83.7391 97.1672 94.9353 77.9303 93.4951 77.9825 80.2888 93.1079 90.8276 73.6014 89.1277 74.2354 76.5686 88.2383 85.9946 69.0533 84.0608 70.1336 72.3992 82.7691 80.6191 64.3643 78.4572 65.6987 67.8409 77.0325 74.9958 59.6023 72.7129 61.1092 63.1211 71.2074 69.3011 54.9468 67.0615 56.4729 58.3479 65.4179 63.6744 50.376 61.3681 51.9008 53.5969 59.8165 58.197 45.9346 55.8869 47.4067 48.9753 54.366 52.8992 41.7329 50.6539 43.1476 44.5548 49.1721 47.8371 37.6653 45.5838 39.0325 40.2993 44.2168 43.0205 33.8159 40.8706 35.1061 36.2381 39.5559 38.4847 30.2046 36.3204 31.4208 32.424 35.0992 34.1582 26.8051 32.0853 27.9272 28.8033 30.9472 30.1121 23.5871 28.1181 24.6105 25.3831 27.0867 26.3624 20.5733 24.4737 21.5688 22.2376 23.4142 22.7974 17.7726 21.0146 18.6848 19.2417 20.0731 19.5521 15.2137 17.8425 16.0676 16.5272 16.9733 16.5392 12.8972 14.9751 13.6453 14.0219 14.1771 13.8178 10.6838 12.3558 11.4266 11.7323 11.5913 11.2982 8.78793 9.99227 9.39359 9.6397 9.28504 9.06201 7.03249 7.83112 7.57479 7.75173 7.28508 7.11919 5.50365 6.08624 6.04436 6.16799 5.5068 5.39732 4.16509 4.48524 4.53094 4.60447 3.98601 3.93447 2.99624 3.08792 3.38045 3.39217 2.72832 2.71831 2.03122 2.05755 2.32933 2.3217 1.71617 1.72767 1.19414 1.20053 1.44693 1.42688 0.944663 0.962077 0.534772 0.481495 0.644829 0.636603 0.388568 0.409006 0.257261 0.202847 0.25637 0.283416 0.204633 0.176664 40.1342 65.7163 38.3174 38.3174 62.1705 57.5314 55.995 91.5914 52.6672 57.4281 87.086 84.784 66.6903 80.8505 68.11 70.2076 81.0666 78.2863 63.0983 76.4379 63.2676 65.7551 76.8597 73.9498 59.4932 72.9363 59.8652 62.59 72.8327 69.888 56.0187 69.3194 56.7663 59.6085 68.6718 65.7804 52.6029 65.4287 53.729 56.5586 64.3365 61.5619 49.1801 61.2793 50.5292 53.2631 59.9296 57.3144 45.7772 57.0175 47.2689 49.8563 55.488 53.0437 42.4577 52.7268 43.9773 46.3968 51.1668 48.8885 39.1761 48.5013 40.664 42.9216 46.9328 44.8568 36.03 44.3854 37.5107 39.5647 42.8663 40.9517 33.0095 40.4679 34.4176 36.3162 39.0022 37.247 30.1243 36.6888 31.434 33.1738 35.2627 33.6975 27.355 33.1004 28.637 30.18 31.7469 30.3321 24.7281 29.7245 25.9253 27.3184 28.4427 27.1699 22.2767 26.5274 23.3705 24.6213 25.3358 24.2149 19.9179 23.5034 20.942 22.0434 22.4115 21.42 17.7367 20.7501 18.7119 19.6846 19.68 18.8175 15.6859 18.132 16.5631 17.4094 17.1428 16.3857 13.7433 15.7592 14.5305 15.2773 14.8291 14.1759 11.9831 13.5299 12.6799 13.318 12.715 12.1826 10.3042 11.5192 11.0096 11.5236 10.7078 10.2721 8.82225 9.69054 9.3965 9.81684 9.02393 8.66752 7.38012 8.01235 7.92001 8.26302 7.41966 7.13339 6.11681 6.60071 6.57767 6.85844 6.01597 5.78102 4.94265 5.20481 5.31676 5.54674 4.80897 4.60798 3.86299 4.08067 4.17625 4.38204 3.68307 3.52962 2.88553 3.04547 3.13147 3.28538 2.74004 2.63556 2.00552 2.08096 2.21206 2.32006 1.84939 1.7938 1.18548 1.22058 1.30631 1.36257 1.12766 1.0776 0.494419 0.600558 0.546126 0.591917 0.562354 0.517144 22.7248 42.5196 18.4027 18.4027 37.2093 33.5379 35.6104 49.0194 31.1714 34.8499 49.9939 45.9071 43.6331 60.8889 42.0494 45.556 59.0288 56.032 45.9205 56.4655 46.6163 48.7683 56.0946 52.9314 43.9504 53.3332 44.7255 47.1524 52.8992 49.7056 41.6969 50.5252 42.7283 45.3263 49.794 46.622 39.4915 47.8192 40.739 43.4313 46.7304 43.6835 37.3015 45.0056 38.7069 41.3513 43.7022 40.7919 35.1041 42.1586 36.6022 39.1649 40.7061 37.9731 32.9741 39.2947 34.4344 36.8615 37.7977 35.2792 30.8416 36.4292 32.3153 34.5527 34.9602 32.6213 28.7793 33.7002 30.1678 32.2585 32.2269 30.0972 26.7831 31.0431 28.1204 30.0175 29.6374 27.6894 24.8389 28.4797 26.1213 27.8603 27.1677 25.3907 22.9673 26.0717 24.1615 25.7598 24.7777 23.1757 21.1559 23.7362 22.2445 23.6879 22.5236 21.0897 19.4482 21.5415 20.4658 21.7538 20.4288 19.161 17.7568 19.4659 18.738 19.8748 18.4169 17.2929 16.1678 17.533 17.0509 18.0691 16.5306 15.5476 14.6314 15.6818 15.4374 16.3286 14.7786 13.9143 13.1661 13.9282 13.8983 14.6847 13.1171 12.387 11.7788 12.3478 12.4579 13.1223 11.6265 10.9785 10.4362 10.8905 11.0252 11.6322 10.1615 9.62503 9.18099 9.44867 9.69619 10.1944 8.85558 8.41783 7.93478 8.13629 8.42318 8.83292 7.57774 7.20556 6.76864 6.91118 7.16174 7.51768 6.4372 6.14572 5.64857 5.7187 5.98643 6.26451 5.33523 5.13761 4.62408 4.65046 4.90192 5.09333 4.33007 4.15273 3.56773 3.6355 3.7844 3.96156 3.38293 3.22089 2.61432 2.67288 2.77991 2.94482 2.4639 2.3547 1.66021 1.7294 1.79074 1.90366 1.60569 1.5025 0.766948 0.931987 0.823581 0.936892 0.871204 0.765774 15.5141 24.9662 3.27177 3.27177 18.2447 14.4779 27.0503 26.4925 21.3021 23.0909 27.1348 22.7757 33.7761 32.8305 31.1604 33.1156 33.3943 29.6271 36.1817 36.9105 35.5398 37.2771 35.9075 32.7711 35.684 35.3202 36.2421 37.5443 34.461 31.3266 34.3981 33.736 35.3412 36.8386 32.7291 29.6499 33.0051 32.2517 34.1539 35.8041 31.0797 28.0951 31.5528 30.7618 32.8521 34.5804 29.4407 26.6189 30.1005 29.2394 31.4244 33.1438 27.8271 25.186 28.6 27.6733 29.907 31.5687 26.2866 23.8417 27.0771 26.1349 28.3899 29.9769 24.7207 22.4833 25.588 24.5774 26.8293 28.3179 23.2438 21.2064 24.1327 23.104 25.3063 26.6938 21.8103 19.9677 22.6623 21.6416 23.8026 25.0801 20.3979 18.7407 21.2222 20.2198 22.27 23.4499 19.0549 17.5636 19.8041 18.8295 20.7958 21.8805 17.7643 16.426 18.4486 17.5231 19.3694 20.3712 16.5259 15.316 17.0599 16.2122 17.9297 18.8617 15.2423 14.1934 15.7511 14.9473 16.5495 17.369 14.0737 13.1457 14.4491 13.7113 15.1774 15.9201 12.9115 12.137 13.1863 12.5427 13.8692 14.4987 11.8146 11.1152 11.9246 11.4008 12.5318 13.118 10.7179 10.1146 10.7237 10.2354 11.2763 11.7964 9.64477 9.1149 9.476 9.12307 9.96355 10.434 8.60439 8.15483 8.31703 8.03056 8.73846 9.15015 7.53636 7.16607 7.12463 6.91305 7.49462 7.83478 6.51376 6.23292 6.00469 5.88791 6.33262 6.59606 5.5461 5.28746 4.94761 4.88248 5.19607 5.44753 4.59656 4.40232 3.85998 3.81868 4.09424 4.28429 3.5976 3.45237 2.88326 2.87483 3.0265 3.17078 2.70542 2.61697 1.92041 1.90251 2.04329 2.13242 1.76612 1.71013 0.896524 0.90873 0.989316 1.04692 0.846901 0.813507 25.7698 17.5458 20.2131 20.2131 9.62656 7.97914 34.8177 16.4819 29.9309 29.1454 16.9524 15.1912 39.84 19.8457 36.9451 36.2688 21.2212 19.4295 41.2149 22.6256 39.8376 39.4004 23.0623 21.3606 40.4397 23.6524 40.0694 39.7789 23.1801 21.6767 38.6002 23.383 38.8796 38.6178 22.6254 21.1343 36.7257 22.9623 37.3703 37.3173 22.0323 20.538 34.8544 22.4325 35.727 35.8725 21.3607 19.9185 33.0355 21.7826 33.9815 34.251 20.6762 19.2917 31.1477 21.0417 32.1537 32.5148 19.9298 18.6183 29.336 20.2847 30.3238 30.7541 19.1509 17.9334 27.5314 19.4691 28.5113 28.969 18.3853 17.2307 25.7857 18.6235 26.7296 27.2313 17.5858 16.5145 24.063 17.793 25.0201 25.5352 16.7807 15.7961 22.425 16.9066 23.3225 23.8338 15.9636 15.0615 20.8234 16.0458 21.667 22.1754 15.1451 14.2989 19.2845 15.1916 20.0897 20.6068 14.3479 13.559 17.751 14.2929 18.5205 19.0412 13.4827 12.7662 16.3106 13.3809 17.0455 17.5441 12.633 11.9892 14.8799 12.4542 15.5645 16.0349 11.7636 11.1747 13.506 11.5431 14.1456 14.5996 10.8898 10.3373 12.1427 10.573 12.7264 13.1749 9.98823 9.52507 10.8851 9.65147 11.4112 11.7999 9.11597 8.70533 9.60767 8.68023 10.0841 10.4415 8.20401 7.81756 8.3623 7.71907 8.80523 9.15253 7.30179 6.99302 7.17714 6.70761 7.54903 7.83441 6.33821 6.07201 6.02064 5.71663 6.34307 6.59503 5.3864 5.17308 4.91632 4.72397 5.16531 5.36798 4.47457 4.31281 3.82492 3.75178 4.06926 4.22421 3.51325 3.3965 2.82728 2.77187 2.9801 3.094 2.62524 2.52526 1.8744 1.8573 1.9615 2.06422 1.72959 1.67336 0.900911 0.86189 0.989095 1.03903 0.765144 0.733832 43.6967 28.3284 40.1547 40.1547 24.0133 25.1834 52.5952 29.2406 48.6591 46.9538 29.8921 31.4519 56.638 30.6126 53.8633 51.8282 32.1865 33.7165 56.8108 30.8415 55.0727 53.1611 32.1324 33.5199 54.8698 30.1464 53.9593 52.2734 30.9263 32.1789 51.8683 29.0348 51.6105 50.1286 29.3499 30.4994 48.5441 27.8992 48.7317 47.412 27.8628 28.8741 45.3415 26.7721 45.8133 44.6809 26.4661 27.2965 42.2622 25.5258 42.8972 41.9744 25.1031 25.7631 39.2602 24.2087 39.9996 39.2626 23.6808 24.2 36.4038 22.8603 37.1662 36.5764 22.301 22.6972 33.6273 21.5369 34.4058 33.9464 20.9378 21.2186 30.9862 20.2522 31.779 31.4352 19.6393 19.8218 28.4805 18.9896 29.2948 29.0487 18.3223 18.442 26.1144 17.7766 26.8502 26.6697 17.1306 17.1555 23.8233 16.5488 24.5821 24.4991 15.9193 15.8924 21.6649 15.4245 22.4068 22.3779 14.796 14.7208 19.6061 14.3121 20.3098 20.332 13.6852 13.5518 17.6867 13.2678 18.3734 18.4585 12.6483 12.4708 15.8623 12.216 16.5305 16.6645 11.6199 11.3936 14.127 11.1811 14.7356 14.9253 10.6161 10.3732 12.4678 10.1589 13.0618 13.2747 9.62503 9.36823 10.9324 9.16984 11.4849 11.7164 8.68343 8.44695 9.46747 8.17629 9.97743 10.1969 7.72209 7.50843 8.14872 7.21856 8.59261 8.79263 6.78761 6.56221 6.81862 6.22693 7.22731 7.442 5.86003 5.64905 5.60773 5.25605 5.97562 6.17991 4.93596 4.76798 4.47792 4.27184 4.76807 4.93082 4.0217 3.88629 3.39595 3.35011 3.64521 3.7815 3.10076 3.00773 2.42254 2.40352 2.59695 2.68898 2.24593 2.1893 1.55623 1.51933 1.66649 1.72339 1.42845 1.41068 0.774557 0.702178 0.812669 0.8296 0.643168 0.670741 66.1422 47.3724 62.2632 62.2632 44.2772 46.0347 75.7103 50.6906 72.2215 70.138 51.608 54.0982 78.973 52.045 76.3157 73.7162 53.7377 56.3511 77.6138 51.1232 75.7453 73.1355 52.7062 55.2247 74.0073 48.9411 72.9164 70.4874 50.1512 52.5217 69.3998 46.2056 68.948 66.723 46.9716 49.1648 64.4025 43.3048 64.4441 62.4331 43.7022 45.697 59.5146 40.4798 59.8344 58.039 40.6013 42.4019 54.8421 37.7255 55.3623 53.7697 37.6607 39.2658 50.4095 34.9701 51.0734 49.6699 34.7553 36.1737 46.216 32.3117 46.8791 45.6562 32.0423 33.2717 42.2264 29.6925 42.9645 41.9202 29.3642 30.4524 38.447 27.2186 39.1793 38.2583 26.8342 27.7685 34.8645 24.9063 35.6114 34.8336 24.4531 25.2236 31.4833 22.5981 32.1962 31.5706 22.2039 22.8612 28.2999 20.5256 28.9958 28.4666 20.0601 20.5971 25.3104 18.5432 26.008 25.5872 18.0565 18.4901 22.4601 16.6438 23.1606 22.8308 16.1638 16.489 19.8114 14.9396 20.4999 20.2641 14.4369 14.6682 17.3857 13.3482 18.0254 17.8692 12.8364 12.9795 15.0925 11.7999 15.755 15.6761 11.3169 11.414 13.0052 10.3935 13.6164 13.5676 9.88748 9.90321 11.0487 9.09847 11.6215 11.6455 8.61327 8.57888 9.25939 7.83786 9.80702 9.87165 7.36712 7.29676 7.66582 6.71146 8.15101 8.24333 6.29614 6.21784 6.20061 5.63825 6.69166 6.78648 5.23739 5.13706 4.89158 4.64074 5.29543 5.40594 4.26643 4.15158 3.69436 3.68784 4.04792 4.16869 3.38827 3.2908 2.67382 2.76234 2.98392 3.08561 2.49715 2.42744 1.77151 1.88965 1.97538 2.04609 1.69855 1.64256 0.996504 1.08165 1.12575 1.18281 0.956064 0.925312 0.487235 0.611531 0.533612 0.557403 0.616414 0.638234 93.8172 71.0593 87.8056 87.8056 69.2139 71.2621 105.182 76.1493 101.052 98.5383 77.4192 80.3759 106.181 77.3578 103.361 100.451 79.2029 82.2122 101.902 75.2489 100.007 97.1843 76.9743 79.8345 95.7923 71.5686 94.7013 92.0759 72.8475 75.4813 88.9234 67.1607 88.4999 86.1194 67.9746 70.3802 81.9921 62.4873 82.0599 79.907 62.8912 65.0585 75.2418 57.8139 75.6093 73.6872 57.9669 59.9229 68.9307 53.3019 69.4762 67.7511 53.2475 55.0157 62.97 48.9974 63.6248 62.0695 48.78 50.3642 57.4213 44.7547 58.1139 56.7338 44.5237 45.9472 52.1607 40.8236 52.864 51.6252 40.4794 41.7454 47.1645 36.9996 47.9245 46.8354 36.6397 37.7641 42.487 33.3845 43.2031 42.2387 32.9923 33.9906 38.0583 29.9547 38.7446 37.8946 29.5676 30.4611 33.8594 26.7427 34.5765 33.8221 26.3479 27.0998 29.9213 23.7579 30.5889 29.9601 23.3395 23.969 26.2125 20.9282 26.9119 26.3969 20.4806 21.0219 22.7805 18.2793 23.4778 23.0371 17.8139 18.2616 19.5879 15.8609 20.2203 19.8615 15.4301 15.7842 16.6268 13.6636 17.2995 17.0196 13.1619 13.4288 13.9397 11.5923 14.5245 14.3229 11.1264 11.3249 11.4602 9.70364 12.0502 11.9101 9.24661 9.398 9.23704 8.02851 9.8184 9.71019 7.5543 7.6395 7.23485 6.51196 7.77541 7.72646 6.08263 6.10349 5.50005 5.22514 6.03106 6.03415 4.75355 4.75585 4.00919 4.02527 4.46396 4.47661 3.63064 3.60738 2.76943 2.99616 3.1614 3.1927 2.62787 2.58921 1.72144 2.14318 2.06237 2.10537 1.79695 1.75094 0.919968 1.33544 1.20461 1.25044 1.09531 1.05144 0.460347 0.758653 0.561461 0.612683 0.602048 0.547665 0.468939 0.624484 0.473205 0.501893 0.612146 0.574126 
SCALARS volume float 1
LOOKUP_TABLE default
0.000322577 0.000320843 0.000321354 0.000321354 0.000322958 0.000321995 0.000325575 0.000323291 0.00032504 0.00032604 0.000323811 0.000322803 0.000325697 0.000323402 0.000325042 0.000326062 0.000323943 0.000322975 0.000325675 0.000323513 0.000325155 0.00032613 0.000323962 0.000323057 0.000325636 0.000323649 0.000325267 0.000326179 0.000323964 0.000323138 0.000325604 0.000323792 0.000325364 0.000326195 0.000323991 0.000323236 0.000325576 0.000323932 0.000325435 0.000326196 0.000324031 0.000323346 0.000325552 0.000324063 0.000325487 0.000326176 0.000324092 0.000323466 0.000325536 0.000324195 0.000325524 0.000326153 0.000324168 0.000323602 0.00032553 0.000324314 0.000325556 0.000326124 0.000324252 0.000323747 0.000325523 0.000324429 0.000325575 0.000326083 0.000324339 0.000323882 0.000325516 0.000324535 0.000325583 0.000326043 0.000324431 0.00032402 0.000325513 0.000324633 0.000325595 0.000326008 0.00032452 0.000324159 0.000325517 0.000324729 0.000325603 0.000325965 0.000324608 0.000324285 0.000325515 0.000324818 0.000325606 0.00032593 0.000324697 0.000324407 0.000325509 0.000324903 0.000325605 0.000325895 0.000324784 0.000324528 0.000325512 0.000324987 0.000325606 0.000325862 0.000324857 0.000324644 0.000325512 0.000325057 0.000325606 0.00032582 0.000324933 0.000324747 0.000325507 0.000325126 0.000325601 0.000325788 0.000325002 0.000324844 0.000325515 0.000325187 0.000325601 0.000325759 0.000325072 0.000324943 0.000325509 0.000325243 0.000325596 0.000325725 0.000325132 0.000325027 0.000325506 0.000325296 0.000325591 0.000325696 0.000325187 0.000325104 0.000325505 0.000325345 0.000325589 0.000325672 0.000325244 0.000325186 0.000325511 0.000325387 0.000325587 0.000325645 0.000325295 0.000325249 0.000325505 0.000325426 0.000325573 0.000325619 0.000325335 0.000325313 0.000325506 0.000325455 0.000325574 0.000325596 0.000325377 0.000325362 0.000325501 0.000325483 0.000325563 0.000325579 0.000325409 0.000325407 0.000325505 0.000325503 0.000325558 0.00032556 0.00032545 0.000325449 0.000325507 0.000325526 0.000325546 0.000325546 0.000325472 0.000325479 0.000325513 0.000325537 0.000325544 0.000325536 0.000325503 0.000325506 0.000325511 0.000325538 0.000325533 0.000325529 0.000325513 0.000325519 0.000325508 0.000325532 0.000325523 0.000325517 0.000325513 0.00032553 0.000323958 0.000323176 0.000323305 0.000323305 0.000324407 0.000323188 0.000325485 0.000323796 0.00032517 0.000326367 0.000324329 0.000323172 0.000325973 0.00032375 0.000325414 0.000326575 0.000324401 0.000323339 0.000325945 0.000323883 0.000325483 0.00032655 0.000324401 0.000323425 0.000325886 0.000324023 0.000325549 0.000326531 0.000324391 0.00032349 0.000325837 0.000324157 0.000325603 0.000326509 0.000324397 0.000323567 0.000325797 0.000324278 0.000325643 0.000326479 0.00032442 0.000323653 0.00032577 0.000324386 0.000325666 0.000326438 0.000324452 0.000323751 0.000325744 0.000324488 0.000325687 0.000326393 0.000324501 0.000323859 0.000325721 0.000324585 0.000325696 0.000326343 0.00032456 0.000323974 0.000325705 0.000324674 0.000325701 0.000326291 0.000324622 0.000324086 0.000325686 0.000324754 0.000325699 0.000326238 0.000324687 0.000324205 0.000325674 0.000324835 0.000325696 0.000326181 0.000324754 0.000324317 0.000325654 0.000324903 0.000325686 0.000326125 0.000324817 0.000324429 0.000325646 0.000324975 0.000325681 0.000326071 0.000324885 0.000324542 0.000325627 0.000325038 0.000325672 0.000326017 0.000324943 0.000324641 0.000325618 0.000325099 0.000325665 0.000325969 0.000325006 0.000324737 0.000325607 0.000325152 0.000325654 0.000325923 0.000325058 0.000324827 0.0003256 0.000325207 0.000325644 0.000325876 0.000325113 0.000324918 0.000325589 0.000325251 0.000325636 0.000325832 0.000325165 0.000325 0.000325579 0.000325301 0.00032563 0.000325796 0.000325214 0.000325074 0.000325571 0.000325336 0.000325617 0.000325757 0.000325251 0.000325146 0.000325562 0.000325377 0.000325615 0.00032572 0.000325293 0.000325206 0.000325557 0.000325405 0.000325601 0.000325687 0.000325329 0.000325263 0.000325544 0.00032543 0.000325588 0.000325654 0.000325362 0.000325314 0.000325543 0.00032546 0.00032558 0.000325627 0.000325391 0.00032536 0.000325539 0.000325482 0.000325575 0.000325607 0.00032542 0.000325401 0.000325532 0.000325496 0.000325567 0.000325586 0.000325443 0.000325437 0.000325531 0.000325507 0.000325559 0.000325566 0.000325468 0.000325459 0.000325526 0.000325519 0.000325546 0.000325556 0.000325488 0.00032549 0.000325525 0.000325528 0.000325543 0.000325541 0.000325507 0.000325509 0.000325521 0.000325539 0.000325533 0.000325531 0.000325524 0.000325529 0.00032501 0.000324081 0.00032479 0.00032479 0.000324737 0.000323515 0.00032574 0.000324445 0.000325544 0.000326745 0.000324753 0.000323728 0.000326026 0.000324113 0.000325688 0.000326709 0.000324667 0.000323671 0.000326119 0.000324195 0.000325784 0.000326784 0.000324653 0.000323708 0.000326086 0.000324318 0.000325813 0.000326763 0.000324653 0.000323761 0.000326037 0.000324427 0.000325827 0.000326725 0.000324661 0.000323825 0.000325995 0.000324529 0.000325834 0.000326676 0.000324684 0.000323905 0.000325956 0.000324612 0.000325831 0.000326615 0.000324716 0.000323992 0.000325921 0.000324694 0.000325823 0.000326552 0.000324752 0.000324084 0.00032589 0.000324771 0.000325814 0.000326487 0.000324797 0.000324185 0.00032586 0.000324839 0.000325802 0.000326418 0.000324844 0.000324285 0.000325833 0.000324906 0.000325789 0.000326351 0.000324894 0.000324385 0.000325803 0.000324965 0.000325772 0.000326283 0.000324943 0.000324483 0.000325778 0.000325024 0.000325754 0.000326216 0.000324992 0.000324578 0.000325752 0.000325075 0.000325735 0.000326151 0.00032504 0.000324672 0.00032573 0.000325127 0.000325723 0.000326092 0.000325082 0.000324757 0.000325711 0.000325176 0.000325704 0.00032603 0.000325129 0.000324844 0.000325691 0.000325218 0.00032569 0.000325976 0.000325171 0.000324926 0.000325667 0.000325256 0.000325673 0.000325919 0.000325213 0.000324996 0.000325653 0.000325297 0.000325655 0.000325873 0.00032525 0.000325067 0.000325633 0.000325333 0.000325646 0.000325829 0.000325283 0.000325128 0.000325617 0.000325362 0.000325627 0.000325782 0.000325316 0.000325189 0.000325608 0.000325397 0.000325619 0.000325747 0.000325345 0.000325245 0.000325592 0.000325416 0.000325605 0.000325705 0.000325372 0.000325296 0.000325578 0.000325438 0.000325595 0.000325671 0.000325393 0.000325329 0.000325569 0.000325459 0.00032558 0.000325644 0.000325422 0.000325378 0.00032556 0.000325478 0.000325577 0.000325621 0.000325442 0.000325408 0.000325554 0.000325493 0.000325563 0.000325597 0.000325458 0.000325436 0.000325548 0.000325501 0.000325556 0.000325578 0.000325473 0.000325464 0.000325537 0.000325511 0.000325549 0.000325558 0.00032549 0.000325485 0.000325533 0.000325519 0.00032554 0.000325545 0.000325501 0.000325501 0.00032553 0.00032553 0.000325532 0.000325531 0.000325518 0.000325525 0.000325983 0.000324824 0.000326175 0.000326175 0.000325046 0.000323801 0.000326109 0.000324795 0.000326 0.000327229 0.000324985 0.00032397 0.000326194 0.0003246 0.000326046 0.000327058 0.000324933 0.00032398 0.000326244 0.00032457 0.000326068 0.000327023 0.000324902 0.000323972 0.000326253 0.000324635 0.000326068 0.000327002 0.000324907 0.000324015 0.000326224 0.000324714 0.000326048 0.000326945 0.000324925 0.000324074 0.000326179 0.000324787 0.00032602 0.000326876 0.000324949 0.000324148 0.00032614 0.00032485 0.00032599 0.000326796 0.000324976 0.000324228 0.000326092 0.000324909 0.00032596 0.000326713 0.000325008 0.000324314 0.000326051 0.000324963 0.000325929 0.000326627 0.00032504 0.000324396 0.000326009 0.000325016 0.000325897 0.000326545 0.000325074 0.000324489 0.00032597 0.000325062 0.000325871 0.000326459 0.000325108 0.000324571 0.000325932 0.000325109 0.000325841 0.00032638 0.000325142 0.000324658 0.000325892 0.000325148 0.000325815 0.000326302 0.000325173 0.000324735 0.000325859 0.000325189 0.000325783 0.000326223 0.000325207 0.000324814 0.000325823 0.000325227 0.000325762 0.000326156 0.000325236 0.000324888 0.000325794 0.00032526 0.000325738 0.000326086 0.000325268 0.000324959 0.000325763 0.000325291 0.000325712 0.000326021 0.000325292 0.000325027 0.000325738 0.000325321 0.000325694 0.000325959 0.000325316 0.000325087 0.000325711 0.000325348 0.000325673 0.000325903 0.000325347 0.000325148 0.000325682 0.000325379 0.000325653 0.000325852 0.000325366 0.0003252 0.000325662 0.000325396 0.000325636 0.000325803 0.000325386 0.000325246 0.000325643 0.000325421 0.000325617 0.000325757 0.00032541 0.000325291 0.000325621 0.000325439 0.000325602 0.000325721 0.000325425 0.000325334 0.000325603 0.000325457 0.00032559 0.000325681 0.00032544 0.000325368 0.000325589 0.000325465 0.000325578 0.000325649 0.000325454 0.000325399 0.000325576 0.000325483 0.000325566 0.000325621 0.000325466 0.00032543 0.000325564 0.00032549 0.000325556 0.000325592 0.000325481 0.000325454 0.000325552 0.000325501 0.000325548 0.000325575 0.000325493 0.000325475 0.000325546 0.000325509 0.000325542 0.00032556 0.000325497 0.000325489 0.000325537 0.000325509 0.000325535 0.000325543 0.000325502 0.000325504 0.00032554 0.000325515 0.000325534 0.000325532 0.000325514 0.000325517 0.000327007 0.000325491 0.000327584 0.000327584 0.000325302 0.000324065 0.000326525 0.000325032 0.000326506 0.000327733 0.000325135 0.000324123 0.000326427 0.00032498 0.00032646 0.00032747 0.000325124 0.000324182 0.000326417 0.000324962 0.000326396 0.000327341 0.000325137 0.000324219 0.00032642 0.000324974 0.000326331 0.000327253 0.000325159 0.00032426 0.000326398 0.000325011 0.000326266 0.00032717 0.000325187 0.000324324 0.000326362 0.000325051 0.000326207 0.000327075 0.000325212 0.000324391 0.000326318 0.000325089 0.000326146 0.000326971 0.000325241 0.000324474 0.000326265 0.000325129 0.000326094 0.000326865 0.000325263 0.000324547 0.000326213 0.000325162 0.000326043 0.000326763 0.000325286 0.000324624 0.000326159 0.000325195 0.000325995 0.000326661 0.000325308 0.0003247 0.000326108 0.000325224 0.00032595 0.00032656 0.000325325 0.000324774 0.000326056 0.000325252 0.000325913 0.000326466 0.000325344 0.000324844 0.000326011 0.000325282 0.000325873 0.000326375 0.000325359 0.000324909 0.000325961 0.000325303 0.000325836 0.000326288 0.00032538 0.000324974 0.000325915 0.000325329 0.000325798 0.000326205 0.00032539 0.000325028 0.000325871 0.000325352 0.000325763 0.000326127 0.00032541 0.00032509 0.000325837 0.000325373 0.000325737 0.000326057 0.000325424 0.000325143 0.0003258 0.000325393 0.00032571 0.000325992 0.000325438 0.000325196 0.000325763 0.000325409 0.000325681 0.000325923 0.000325447 0.00032524 0.000325735 0.000325427 0.00032566 0.000325868 0.000325457 0.00032528 0.0003257 0.00032544 0.000325638 0.000325815 0.000325466 0.000325321 0.000325674 0.000325452 0.000325617 0.000325763 0.000325479 0.000325355 0.000325649 0.000325467 0.000325594 0.000325718 0.000325485 0.000325386 0.000325625 0.000325477 0.000325582 0.000325681 0.00032549 0.000325413 0.000325604 0.000325485 0.000325567 0.000325644 0.000325496 0.000325436 0.000325587 0.000325492 0.000325556 0.000325616 0.000325501 0.000325457 0.000325573 0.000325497 0.000325545 0.000325588 0.000325505 0.000325476 0.000325559 0.000325506 0.000325537 0.000325566 0.00032551 0.000325493 0.000325548 0.000325506 0.000325532 0.000325549 0.00032551 0.0003255 0.00032554 0.000325509 0.000325528 0.000325538 0.00032551 0.000325503 0.00032554 0.0003255 0.000325525 0.000325533 0.000325507 0.000325511 0.000328195 0.000326044 0.000329125 0.000329125 0.000325471 0.000324281 0.000326965 0.000325211 0.000327042 0.000328229 0.000325223 0.000324254 0.000326694 0.00032531 0.000326915 0.000327884 0.000325273 0.000324355 0.000326631 0.00032532 0.000326757 0.000327678 0.000325339 0.000324437 0.000326613 0.00032531 0.00032662 0.000327526 0.000325399 0.000324508 0.000326592 0.000325311 0.000326499 0.000327395 0.000325443 0.000324581 0.000326552 0.000325317 0.000326398 0.000327265 0.000325474 0.000324654 0.000326501 0.000325329 0.000326308 0.000327133 0.000325503 0.000324725 0.000326437 0.000325345 0.000326225 0.000327008 0.000325518 0.000324796 0.000326377 0.000325359 0.000326159 0.000326884 0.000325531 0.000324865 0.000326311 0.000325376 0.000326094 0.000326762 0.000325541 0.000324929 0.000326247 0.00032539 0.000326035 0.00032665 0.000325549 0.000324988 0.000326183 0.000325404 0.000325979 0.000326542 0.000325548 0.00032504 0.000326122 0.000325413 0.000325928 0.000326438 0.000325552 0.000325096 0.000326062 0.000325426 0.000325882 0.00032634 0.000325552 0.000325147 0.000326004 0.000325437 0.000325841 0.000326247 0.000325555 0.000325189 0.000325955 0.000325446 0.000325794 0.000326161 0.000325554 0.000325234 0.000325906 0.000325456 0.000325759 0.00032608 0.000325556 0.000325273 0.000325857 0.000325465 0.00032572 0.000326004 0.000325555 0.00032531 0.00032581 0.000325472 0.00032569 0.000325935 0.000325554 0.000325345 0.000325772 0.000325481 0.000325661 0.000325871 0.000325557 0.000325378 0.000325736 0.000325491 0.000325634 0.000325813 0.000325552 0.000325402 0.000325701 0.00032549 0.000325606 0.000325756 0.000325547 0.000325427 0.000325672 0.000325496 0.000325589 0.000325709 0.000325551 0.00032545 0.00032564 0.000325502 0.000325566 0.000325666 0.000325545 0.000325465 0.000325615 0.000325507 0.000325552 0.000325632 0.000325544 0.000325481 0.000325594 0.000325514 0.000325539 0.000325602 0.000325545 0.0003255 0.000325572 0.000325511 0.000325527 0.000325572 0.000325539 0.000325505 0.000325556 0.000325513 0.00032552 0.000325555 0.000325535 0.000325515 0.000325546 0.000325512 0.00032552 0.000325539 0.000325528 0.000325521 0.000325536 0.000325507 0.00032552 0.000325527 0.000325518 0.000325516 0.000325542 0.000325493 0.000325522 0.000325524 0.000325508 0.000325509 0.000329653 0.0003264 0.000330863 0.000330863 0.000325476 0.000324368 0.000327341 0.000325365 0.000327578 0.000328692 0.000325281 0.000324397 0.000326977 0.000325625 0.000327394 0.000328279 0.0003254 0.000324543 0.000326895 0.000325654 0.00032715 0.000328011 0.000325528 0.000324671 0.000326865 0.000325631 0.00032694 0.000327801 0.000325626 0.000324777 0.000326834 0.000325601 0.00032676 0.000327613 0.000325695 0.000324868 0.00032678 0.000325581 0.000326614 0.000327445 0.000325737 0.000324944 0.000326713 0.000325566 0.000326488 0.000327285 0.000325761 0.000325016 0.000326635 0.000325559 0.000326381 0.000327129 0.000325773 0.000325077 0.000326555 0.000325556 0.000326287 0.000326986 0.000325776 0.000325135 0.000326473 0.000325553 0.000326204 0.000326847 0.000325771 0.000325184 0.000326396 0.000325549 0.000326126 0.000326715 0.000325763 0.000325229 0.000326314 0.000325546 0.00032606 0.000326596 0.000325751 0.000325269 0.000326241 0.000325546 0.000325997 0.00032648 0.000325741 0.000325304 0.00032617 0.000325546 0.000325938 0.000326375 0.000325727 0.000325335 0.000326098 0.000325547 0.000325882 0.000326274 0.000325711 0.000325367 0.000326034 0.000325538 0.000325829 0.000326173 0.000325701 0.000325395 0.000325972 0.000325544 0.000325782 0.000326088 0.000325692 0.000325425 0.000325914 0.00032554 0.000325741 0.000326007 0.000325677 0.000325446 0.000325862 0.000325542 0.0003257 0.000325931 0.000325662 0.000325464 0.000325811 0.000325539 0.000325663 0.000325861 0.00032565 0.000325484 0.000325764 0.000325537 0.00032563 0.000325797 0.000325639 0.000325502 0.000325724 0.000325534 0.000325606 0.000325743 0.000325628 0.000325517 0.000325689 0.000325535 0.000325576 0.000325687 0.000325618 0.00032553 0.000325653 0.000325532 0.000325556 0.000325644 0.000325606 0.000325531 0.000325621 0.000325535 0.000325532 0.000325606 0.000325597 0.000325545 0.000325592 0.000325529 0.000325518 0.000325571 0.000325583 0.000325543 0.000325567 0.000325527 0.000325508 0.000325548 0.000325573 0.000325549 0.000325553 0.000325523 0.000325502 0.000325525 0.000325559 0.000325541 0.000325537 0.000325521 0.000325504 0.000325521 0.000325548 0.000325541 0.000325534 0.000325513 0.000325509 0.000325515 0.000325528 0.000325527 0.00032553 0.000325489 0.00032551 0.000325512 0.000325509 0.000325505 0.000330485 0.000326296 0.000332262 0.000332262 0.000325104 0.000323868 0.000327907 0.000325509 0.000328007 0.000329271 0.000325266 0.00032447 0.000327469 0.000325913 0.000327921 0.000328722 0.000325494 0.000324761 0.000327341 0.000325953 0.000327618 0.000328355 0.000325699 0.000324967 0.000327262 0.000325919 0.000327331 0.000328066 0.000325845 0.000325118 0.000327182 0.000325864 0.000327088 0.000327818 0.00032594 0.000325238 0.00032709 0.000325825 0.000326893 0.000327597 0.000325993 0.000325324 0.000326989 0.000325787 0.00032673 0.000327401 0.000326015 0.000325387 0.000326876 0.000325762 0.000326584 0.000327214 0.000326018 0.000325435 0.000326774 0.000325739 0.000326471 0.000327056 0.000326009 0.000325475 0.000326672 0.00032572 0.000326363 0.000326898 0.000325991 0.000325502 0.00032657 0.0003257 0.000326271 0.000326761 0.000325972 0.000325528 0.000326478 0.000325689 0.000326183 0.000326627 0.000325945 0.000325547 0.000326369 0.000325671 0.0003261 0.000326499 0.000325917 0.000325554 0.000326284 0.00032566 0.000326022 0.000326385 0.000325893 0.000325577 0.000326204 0.00032565 0.000325963 0.00032628 0.000325867 0.000325584 0.000326128 0.000325637 0.000325893 0.000326176 0.000325843 0.0003256 0.000326043 0.000325626 0.000325831 0.000326074 0.000325816 0.000325601 0.000325969 0.000325617 0.000325775 0.00032599 0.00032579 0.000325606 0.000325906 0.000325607 0.000325726 0.00032591 0.000325769 0.000325612 0.00032585 0.000325596 0.00032568 0.000325838 0.000325744 0.000325617 0.000325791 0.000325589 0.000325639 0.000325766 0.000325723 0.000325618 0.000325736 0.000325586 0.000325605 0.00032571 0.000325704 0.000325616 0.000325695 0.000325574 0.000325563 0.000325651 0.000325687 0.000325624 0.00032565 0.00032557 0.000325545 0.000325609 0.000325668 0.00032562 0.000325609 0.000325556 0.000325517 0.000325565 0.000325645 0.000325615 0.000325586 0.000325553 0.000325498 0.000325527 0.000325627 0.000325606 0.000325557 0.000325547 0.000325492 0.000325513 0.000325606 0.000325595 0.000325527 0.000325539 0.000325482 0.000325493 0.00032559 0.000325586 0.000325524 0.000325534 0.000325489 0.000325493 0.000325567 0.000325567 0.000325516 0.00032552 0.000325492 0.000325492 0.000325546 0.000325548 0.000325517 0.000325501 0.000325507 0.000325505 0.000325521 0.000325518 0.000323247 0.000320962 0.000321474 0.000321474 0.000323464 0.000322739 0.000325328 0.000322713 0.000324699 0.000325432 0.000323505 0.000322581 0.000325351 0.000323354 0.000325007 0.000325944 0.000323661 0.000322695 0.000325421 0.000323544 0.000325147 0.000326123 0.000323744 0.000322809 0.000325456 0.000323692 0.000325264 0.000326207 0.000323811 0.000322933 0.000325472 0.00032383 0.000325351 0.000326236 0.000323889 0.000323074 0.000325479 0.000323958 0.000325415 0.000326235 0.000323972 0.00032322 0.000325476 0.000324089 0.00032546 0.000326217 0.000324054 0.000323367 0.000325479 0.000324212 0.000325495 0.000326186 0.00032415 0.000323526 0.000325483 0.000324331 0.000325524 0.000326151 0.000324245 0.000323677 0.000325483 0.000324443 0.000325539 0.00032611 0.000324344 0.000323833 0.000325483 0.000324544 0.000325552 0.000326066 0.000324437 0.000323978 0.000325489 0.000324643 0.000325564 0.000326025 0.000324531 0.000324116 0.000325489 0.000324736 0.000325567 0.000325983 0.000324623 0.000324255 0.000325496 0.000324829 0.000325577 0.000325947 0.000324707 0.000324385 0.0003255 0.000324908 0.000325582 0.000325905 0.000324796 0.000324509 0.000325499 0.000324987 0.000325583 0.000325871 0.000324871 0.000324625 0.000325498 0.000325059 0.000325582 0.000325828 0.00032495 0.000324735 0.000325501 0.000325127 0.000325581 0.000325796 0.00032502 0.00032484 0.000325504 0.000325186 0.000325581 0.000325762 0.000325081 0.000324933 0.000325507 0.000325246 0.000325583 0.000325732 0.000325148 0.000325025 0.000325506 0.000325295 0.00032558 0.000325702 0.000325205 0.000325106 0.00032551 0.000325344 0.000325576 0.000325675 0.000325261 0.000325183 0.00032551 0.00032539 0.00032557 0.000325648 0.000325311 0.000325251 0.000325508 0.000325422 0.000325567 0.000325626 0.000325354 0.000325315 0.000325509 0.000325456 0.000325562 0.000325601 0.000325396 0.000325367 0.000325511 0.000325487 0.000325554 0.000325583 0.000325432 0.000325415 0.000325515 0.00032551 0.000325549 0.000325567 0.000325462 0.000325459 0.000325513 0.000325524 0.000325542 0.000325546 0.000325494 0.000325493 0.00032551 0.000325531 0.000325535 0.000325536 0.000325508 0.000325511 0.000325513 0.000325537 0.000325529 0.000325525 0.000325519 0.000325522 0.000325505 0.00032553 0.000325519 0.000325516 0.000325517 0.00032552 0.000324508 0.00032338 0.000323301 0.000323301 0.000325162 0.000324385 0.000324759 0.000322785 0.000324344 0.000325118 0.00032341 0.000322197 0.000325635 0.000323652 0.000325368 0.000326594 0.000323994 0.000322817 0.000325709 0.000323876 0.000325446 0.000326632 0.000324147 0.000323049 0.000325707 0.000324026 0.000325496 0.000326603 0.000324218 0.000323206 0.000325689 0.000324154 0.00032554 0.000326559 0.000324274 0.000323344 0.000325674 0.000324268 0.000325575 0.000326511 0.000324333 0.000323479 0.000325661 0.000324377 0.000325602 0.000326462 0.000324394 0.000323615 0.000325648 0.000324475 0.000325621 0.000326404 0.00032446 0.000323748 0.000325636 0.00032457 0.000325629 0.000326345 0.000324531 0.000323882 0.000325627 0.000324655 0.000325635 0.000326287 0.0003246 0.000324014 0.000325622 0.000324741 0.00032564 0.000326229 0.000324671 0.000324141 0.00032561 0.000324818 0.000325636 0.000326169 0.000324744 0.000324266 0.000325602 0.000324887 0.000325637 0.000326117 0.00032481 0.000324382 0.000325594 0.000324961 0.000325633 0.000326064 0.00032488 0.0003245 0.000325587 0.000325026 0.000325626 0.000326008 0.000324944 0.00032461 0.000325583 0.000325089 0.000325623 0.000325958 0.000325006 0.000324714 0.000325578 0.000325146 0.000325624 0.000325916 0.000325062 0.000324808 0.000325571 0.000325196 0.000325611 0.000325866 0.000325117 0.000324902 0.000325564 0.000325245 0.00032561 0.000325825 0.000325169 0.000324983 0.000325558 0.000325291 0.000325604 0.000325789 0.000325215 0.000325063 0.000325555 0.000325331 0.000325596 0.000325747 0.000325258 0.000325135 0.000325549 0.000325369 0.000325588 0.000325712 0.000325303 0.000325206 0.000325544 0.000325401 0.000325584 0.000325681 0.00032534 0.000325262 0.000325539 0.000325432 0.000325576 0.000325654 0.000325373 0.000325315 0.000325534 0.000325459 0.000325569 0.000325626 0.000325406 0.000325366 0.000325535 0.000325475 0.000325563 0.000325603 0.000325432 0.000325411 0.000325534 0.000325494 0.000325559 0.00032558 0.00032546 0.000325443 0.000325528 0.000325507 0.000325548 0.000325565 0.000325477 0.00032547 0.000325531 0.000325518 0.000325544 0.000325551 0.000325493 0.000325495 0.000325526 0.000325526 0.000325539 0.000325537 0.00032551 0.000325513 0.000325517 0.000325538 0.000325531 0.000325528 0.000325524 0.000325526 0.000325252 0.000324081 0.00032473 0.00032473 0.00032529 0.000324547 0.000325418 0.000323927 0.000325132 0.000325875 0.000324339 0.000323122 0.000325778 0.000324134 0.000325603 0.000326823 0.000324397 0.000323189 0.000325966 0.000324239 0.000325733 0.000326948 0.0003245 0.000323383 0.000325968 0.000324351 0.000325769 0.000326893 0.00032456 0.000323529 0.000325942 0.000324454 0.000325782 0.000326819 0.000324603 0.00032365 0.00032591 0.000324546 0.000325785 0.000326744 0.000324645 0.000323769 0.000325887 0.000324633 0.000325787 0.000326669 0.000324693 0.000323888 0.000325854 0.000324712 0.00032578 0.00032659 0.00032474 0.000324 0.000325829 0.000324783 0.000325766 0.00032651 0.00032479 0.000324117 0.000325805 0.000324852 0.00032576 0.000326437 0.000324845 0.00032423 0.000325783 0.000324914 0.000325746 0.000326364 0.000324897 0.000324341 0.000325761 0.000324973 0.000325735 0.000326293 0.000324948 0.000324445 0.000325739 0.000325032 0.00032572 0.000326225 0.000324998 0.000324549 0.00032572 0.000325086 0.000325707 0.000326158 0.000325047 0.000324647 0.0003257 0.000325132 0.000325691 0.000326093 0.000325093 0.000324736 0.000325683 0.00032518 0.000325677 0.000326035 0.00032514 0.00032483 0.000325665 0.000325226 0.000325665 0.000325976 0.00032518 0.000324908 0.00032565 0.000325262 0.000325651 0.000325923 0.000325222 0.000324988 0.000325633 0.000325304 0.000325638 0.000325873 0.000325258 0.000325058 0.000325622 0.000325337 0.000325623 0.000325824 0.000325291 0.000325126 0.000325606 0.000325368 0.000325618 0.000325784 0.000325327 0.000325186 0.000325596 0.000325396 0.000325605 0.000325746 0.000325357 0.000325246 0.000325583 0.000325421 0.000325594 0.000325705 0.000325381 0.000325294 0.000325572 0.000325442 0.000325582 0.00032567 0.000325406 0.000325338 0.000325563 0.00032546 0.000325575 0.000325642 0.000325426 0.000325378 0.000325558 0.000325479 0.000325568 0.000325615 0.000325451 0.000325416 0.000325548 0.00032549 0.00032556 0.000325595 0.000325466 0.000325444 0.000325545 0.000325503 0.000325552 0.000325574 0.000325483 0.000325468 0.000325537 0.000325508 0.000325541 0.000325556 0.000325495 0.00032549 0.000325533 0.000325518 0.000325537 0.000325542 0.000325505 0.000325507 0.000325527 0.00032553 0.000325533 0.000325531 0.000325516 0.000325526 0.000325924 0.000324753 0.000326043 0.000326043 0.000325274 0.000324578 0.000326067 0.00032453 0.000325946 0.000326644 0.000324813 0.000323637 0.000326133 0.000324645 0.00032599 0.000327168 0.000324816 0.000323681 0.000326177 0.000324584 0.000326013 0.000327152 0.000324814 0.00032373 0.000326198 0.000324653 0.000326029 0.000327119 0.00032485 0.000323837 0.000326168 0.000324728 0.000326012 0.000327031 0.000324887 0.000323943 0.000326133 0.0003248 0.000325985 0.000326936 0.000324925 0.000324049 0.000326092 0.000324861 0.000325959 0.00032684 0.000324961 0.00032415 0.000326051 0.00032492 0.000325929 0.000326744 0.000324995 0.000324251 0.000326011 0.000324969 0.000325901 0.000326649 0.000325033 0.000324351 0.000325971 0.000325019 0.000325872 0.000326557 0.000325065 0.000324445 0.000325936 0.000325067 0.000325845 0.000326468 0.000325104 0.000324542 0.000325901 0.000325113 0.000325821 0.000326386 0.00032514 0.000324632 0.000325868 0.000325154 0.000325794 0.000326304 0.000325173 0.000324716 0.000325831 0.000325193 0.000325767 0.000326226 0.000325207 0.000324799 0.000325805 0.000325229 0.000325743 0.000326152 0.000325238 0.000324877 0.000325777 0.000325263 0.000325722 0.000326084 0.000325269 0.000324952 0.000325747 0.000325296 0.000325703 0.000326021 0.000325297 0.000325017 0.000325721 0.000325323 0.00032568 0.00032596 0.000325322 0.000325083 0.000325697 0.000325353 0.00032566 0.0003259 0.000325348 0.000325143 0.000325674 0.000325376 0.000325644 0.000325849 0.000325375 0.000325202 0.000325653 0.000325402 0.000325626 0.0003258 0.00032539 0.000325247 0.00032563 0.00032542 0.00032561 0.000325753 0.000325411 0.000325295 0.000325617 0.000325438 0.000325596 0.000325713 0.000325428 0.000325334 0.000325599 0.000325458 0.000325584 0.000325678 0.000325447 0.000325375 0.000325588 0.00032547 0.000325576 0.000325648 0.000325458 0.000325404 0.000325574 0.000325485 0.000325564 0.000325618 0.000325476 0.000325435 0.000325557 0.000325494 0.000325554 0.000325595 0.000325482 0.000325455 0.00032555 0.000325499 0.000325544 0.000325571 0.000325492 0.000325475 0.000325545 0.000325507 0.000325538 0.000325555 0.000325503 0.000325494 0.00032554 0.000325512 0.000325534 0.000325543 0.000325508 0.000325505 0.000325539 0.000325514 0.000325534 0.000325537 0.000325508 0.000325522 0.000326644 0.00032534 0.000327372 0.000327372 0.000325221 0.000324562 0.000326729 0.000325026 0.00032677 0.000327433 0.000325143 0.000324035 0.000326534 0.000324991 0.000326443 0.000327554 0.000325129 0.00032405 0.00032646 0.000324959 0.00032635 0.000327433 0.000325119 0.000324088 0.000326423 0.000324968 0.000326297 0.000327333 0.000325136 0.000324151 0.000326392 0.000325009 0.000326241 0.000327232 0.000325165 0.000324238 0.000326346 0.000325048 0.000326184 0.000327116 0.000325196 0.000324328 0.000326293 0.000325091 0.00032613 0.000327004 0.000325224 0.000324416 0.00032624 0.00032513 0.000326076 0.000326889 0.000325253 0.000324508 0.000326188 0.000325164 0.000326027 0.000326776 0.000325274 0.00032459 0.000326134 0.000325196 0.00032598 0.000326667 0.000325296 0.00032467 0.000326079 0.000325223 0.000325936 0.000326564 0.000325315 0.000324745 0.000326033 0.000325256 0.000325896 0.000326468 0.000325336 0.000324822 0.000325986 0.000325281 0.000325858 0.000326374 0.000325356 0.000324894 0.000325941 0.000325308 0.000325823 0.000326287 0.000325372 0.000324957 0.000325899 0.000325329 0.000325788 0.000326204 0.000325392 0.000325023 0.00032586 0.000325351 0.000325756 0.000326126 0.000325407 0.000325087 0.000325821 0.000325373 0.000325734 0.000326055 0.000325418 0.000325138 0.000325789 0.000325392 0.000325701 0.000325982 0.000325433 0.000325191 0.000325752 0.000325408 0.000325678 0.000325921 0.000325445 0.000325238 0.000325723 0.000325426 0.000325658 0.000325866 0.000325456 0.000325282 0.000325696 0.000325441 0.000325635 0.000325809 0.000325468 0.000325321 0.000325667 0.000325455 0.000325615 0.000325762 0.000325475 0.000325356 0.000325643 0.000325466 0.000325594 0.000325713 0.000325486 0.000325391 0.00032562 0.000325477 0.000325582 0.000325677 0.000325492 0.000325416 0.000325598 0.000325487 0.000325566 0.000325642 0.0003255 0.000325439 0.000325586 0.000325494 0.000325553 0.000325613 0.000325503 0.000325461 0.000325569 0.000325504 0.000325544 0.000325586 0.000325506 0.000325477 0.000325554 0.000325502 0.000325536 0.000325565 0.000325508 0.000325494 0.000325547 0.000325507 0.000325532 0.000325547 0.000325514 0.000325503 0.000325539 0.000325504 0.000325527 0.000325537 0.00032551 0.00032551 0.000325538 0.000325504 0.000325532 0.000325533 0.000325509 0.000325506 0.000327522 0.000325807 0.000328825 0.000328825 0.000325082 0.00032446 0.000327396 0.000325454 0.000327609 0.000328236 0.000325409 0.000324385 0.000326942 0.000325295 0.000326917 0.000327944 0.000325381 0.000324374 0.000326768 0.000325292 0.000326717 0.000327728 0.0003254 0.000324416 0.000326681 0.000325292 0.000326581 0.00032757 0.000325417 0.000324471 0.000326622 0.000325292 0.000326476 0.000327427 0.000325443 0.000324543 0.000326561 0.000325308 0.000326383 0.000327288 0.00032547 0.000324618 0.000326497 0.000325326 0.000326295 0.000327151 0.00032549 0.000324697 0.000326431 0.000325341 0.000326219 0.000327016 0.000325506 0.000324772 0.000326362 0.000325355 0.000326151 0.000326889 0.000325517 0.000324841 0.000326295 0.000325371 0.000326084 0.000326763 0.000325526 0.000324911 0.000326229 0.000325385 0.00032603 0.000326648 0.00032553 0.000324971 0.000326163 0.000325399 0.000325975 0.000326536 0.000325537 0.000325027 0.000326104 0.000325412 0.000325923 0.000326435 0.000325541 0.000325081 0.000326046 0.000325423 0.000325878 0.00032634 0.000325542 0.000325133 0.000325992 0.000325435 0.000325835 0.000326244 0.000325546 0.000325182 0.000325938 0.000325445 0.000325792 0.000326156 0.000325549 0.000325224 0.00032589 0.000325459 0.000325753 0.000326079 0.000325546 0.000325267 0.000325846 0.000325462 0.000325721 0.000326 0.00032555 0.000325307 0.000325804 0.000325474 0.00032569 0.000325933 0.000325549 0.000325342 0.00032576 0.000325484 0.000325659 0.000325866 0.00032555 0.000325371 0.000325723 0.000325487 0.00032563 0.000325809 0.000325548 0.000325401 0.000325694 0.000325495 0.000325609 0.000325756 0.000325548 0.000325427 0.000325661 0.000325495 0.000325587 0.000325708 0.000325543 0.000325448 0.000325633 0.000325505 0.000325571 0.000325666 0.000325543 0.00032547 0.000325608 0.000325507 0.000325551 0.000325625 0.00032554 0.000325483 0.000325586 0.000325506 0.00032554 0.000325597 0.000325539 0.000325498 0.00032557 0.000325511 0.000325531 0.000325572 0.000325535 0.000325509 0.000325553 0.000325513 0.000325524 0.00032555 0.000325531 0.000325511 0.000325544 0.000325514 0.000325516 0.000325536 0.000325529 0.000325516 0.000325534 0.000325506 0.000325515 0.000325527 0.000325518 0.000325514 0.000325536 0.000325494 0.000325521 0.000325525 0.000325501 0.000325505 0.000328631 0.000326082 0.000330487 0.000330487 0.000324788 0.000324201 0.000328023 0.000325831 0.000328424 0.000329018 0.000325614 0.000324704 0.000327336 0.000325583 0.000327387 0.000328302 0.000325603 0.000324689 0.000327089 0.000325603 0.000327089 0.000328008 0.000325652 0.000324739 0.000326964 0.000325597 0.000326879 0.000327797 0.000325696 0.0003248 0.000326874 0.000325582 0.000326712 0.000327613 0.000325727 0.000324867 0.000326792 0.000325567 0.000326578 0.000327442 0.000325745 0.000324933 0.000326711 0.000325556 0.000326464 0.000327281 0.000325759 0.000324997 0.000326623 0.000325553 0.00032636 0.000327126 0.000325766 0.000325057 0.000326539 0.000325556 0.000326276 0.000326988 0.000325768 0.000325112 0.000326454 0.00032555 0.000326191 0.000326849 0.000325762 0.000325163 0.000326373 0.000325553 0.000326118 0.000326719 0.000325752 0.000325209 0.000326294 0.000325549 0.000326054 0.000326599 0.000325738 0.000325246 0.000326218 0.000325546 0.000325988 0.000326482 0.000325728 0.000325285 0.00032615 0.000325549 0.000325932 0.000326376 0.000325717 0.000325321 0.000326076 0.000325546 0.000325876 0.000326273 0.000325704 0.000325349 0.000326015 0.000325544 0.000325825 0.00032618 0.000325691 0.00032538 0.00032595 0.000325541 0.000325778 0.000326089 0.000325678 0.000325407 0.000325898 0.000325542 0.000325735 0.000326007 0.000325668 0.000325432 0.000325846 0.000325541 0.000325698 0.000325934 0.000325656 0.000325457 0.000325794 0.00032554 0.000325661 0.000325861 0.000325641 0.000325473 0.000325748 0.000325536 0.000325628 0.000325796 0.000325629 0.000325488 0.000325712 0.000325536 0.000325597 0.000325737 0.000325621 0.000325502 0.000325673 0.00032554 0.000325574 0.000325693 0.000325614 0.000325521 0.000325638 0.000325536 0.000325552 0.000325644 0.000325598 0.000325525 0.000325609 0.00032553 0.000325534 0.000325608 0.000325587 0.000325537 0.000325583 0.00032553 0.000325523 0.000325573 0.000325576 0.000325541 0.000325559 0.000325528 0.000325511 0.000325546 0.000325567 0.000325538 0.000325543 0.000325527 0.000325502 0.000325531 0.000325556 0.000325541 0.000325534 0.000325517 0.000325502 0.000325518 0.000325545 0.000325534 0.000325527 0.000325512 0.000325504 0.000325515 0.000325531 0.000325524 0.000325528 0.000325492 0.000325508 0.000325515 0.000325508 0.000325505 0.000329411 0.000326011 0.000332147 0.000332147 0.000324178 0.000323499 0.000328658 0.000326143 0.000329141 0.00032983 0.000325737 0.000324907 0.000327795 0.000325876 0.00032783 0.000328666 0.00032582 0.000324994 0.000327484 0.000325918 0.000327443 0.000328275 0.000325916 0.000325088 0.000327308 0.000325903 0.000327171 0.000328003 0.000325987 0.000325166 0.000327181 0.000325863 0.000326952 0.000327777 0.000326026 0.000325231 0.000327058 0.000325828 0.00032678 0.000327578 0.000326043 0.00032529 0.000326947 0.000325797 0.000326634 0.000327391 0.000326045 0.000325336 0.000326829 0.000325771 0.000326511 0.000327222 0.000326035 0.000325379 0.000326727 0.00032575 0.000326403 0.000327061 0.000326015 0.000325412 0.00032662 0.000325731 0.000326308 0.000326912 0.000325995 0.000325443 0.000326523 0.000325714 0.000326219 0.000326772 0.000325969 0.000325463 0.00032643 0.000325701 0.000326138 0.000326645 0.000325942 0.000325493 0.000326333 0.000325684 0.000326067 0.000326516 0.000325914 0.000325506 0.000326249 0.000325672 0.000325992 0.0003264 0.00032589 0.000325524 0.000326168 0.000325657 0.000325927 0.000326293 0.000325858 0.000325539 0.00032609 0.000325643 0.000325865 0.000326185 0.000325833 0.000325551 0.00032601 0.000325636 0.000325809 0.000326092 0.000325808 0.000325562 0.000325941 0.000325618 0.000325753 0.000325999 0.000325781 0.000325568 0.000325885 0.000325616 0.000325707 0.00032592 0.000325765 0.000325582 0.00032583 0.000325605 0.000325663 0.000325846 0.000325739 0.000325588 0.000325766 0.000325594 0.000325628 0.000325779 0.000325715 0.000325589 0.000325721 0.000325581 0.000325589 0.000325715 0.000325697 0.000325598 0.000325672 0.000325577 0.00032556 0.000325658 0.000325676 0.000325595 0.000325634 0.000325573 0.000325533 0.000325614 0.000325659 0.000325596 0.000325599 0.000325562 0.00032551 0.000325574 0.000325636 0.000325591 0.000325561 0.000325558 0.000325499 0.000325544 0.000325618 0.000325586 0.000325549 0.000325553 0.000325489 0.00032552 0.000325601 0.000325582 0.000325528 0.00032554 0.000325485 0.000325504 0.000325581 0.000325574 0.00032552 0.000325535 0.000325486 0.000325493 0.000325567 0.000325561 0.000325513 0.000325525 0.000325492 0.000325498 0.000325547 0.000325541 0.000325523 0.000325503 0.000325505 0.000325511 0.000325523 0.000325519 0.000323062 0.000320938 0.000321425 0.000321425 0.000323198 0.00032255 0.000325483 0.000322528 0.000324606 0.00032526 0.000323614 0.000322764 0.000325286 0.000323163 0.000324881 0.000325739 0.000323608 0.000322701 0.000325325 0.000323507 0.000325126 0.000326042 0.000323669 0.000322752 0.000325368 0.000323693 0.000325257 0.000326182 0.000323747 0.00032286 0.000325398 0.000323842 0.000325345 0.00032624 0.000323838 0.000322998 0.000325417 0.000323979 0.000325406 0.000326252 0.00032393 0.000323146 0.000325431 0.000324105 0.000325448 0.000326238 0.00032403 0.000323308 0.000325439 0.000324227 0.00032548 0.000326207 0.000324134 0.00032347 0.000325449 0.000324342 0.000325503 0.000326171 0.000324237 0.000323633 0.000325455 0.000324449 0.00032552 0.000326128 0.000324342 0.000323791 0.00032546 0.000324554 0.000325533 0.000326087 0.000324439 0.000323941 0.00032547 0.000324656 0.000325542 0.000326042 0.000324536 0.00032409 0.000325473 0.000324746 0.000325552 0.000326 0.000324624 0.000324228 0.000325478 0.000324833 0.000325559 0.000325957 0.000324719 0.000324363 0.000325485 0.000324917 0.000325563 0.00032592 0.000324799 0.000324489 0.000325491 0.00032499 0.000325566 0.000325878 0.000324882 0.000324608 0.000325488 0.000325064 0.000325566 0.000325841 0.000324952 0.000324719 0.000325497 0.000325135 0.000325571 0.000325804 0.000325031 0.000324828 0.000325497 0.000325191 0.000325569 0.000325772 0.00032509 0.000324921 0.0003255 0.000325251 0.000325572 0.000325741 0.000325157 0.000325014 0.000325507 0.000325301 0.000325568 0.000325711 0.000325217 0.0003251 0.000325506 0.00032535 0.000325567 0.000325684 0.000325265 0.000325176 0.000325507 0.000325389 0.000325565 0.000325654 0.000325323 0.00032525 0.000325512 0.000325433 0.000325559 0.000325633 0.00032536 0.000325307 0.00032551 0.00032546 0.000325554 0.000325608 0.000325405 0.000325365 0.00032551 0.000325486 0.00032555 0.00032559 0.00032544 0.000325414 0.000325512 0.000325507 0.00032554 0.000325567 0.000325469 0.000325456 0.00032551 0.000325525 0.000325537 0.00032555 0.0003255 0.000325489 0.000325514 0.000325537 0.000325529 0.00032554 0.000325514 0.000325509 0.000325511 0.000325535 0.000325524 0.000325528 0.000325525 0.000325523 0.00032551 0.000325535 0.000325519 0.000325521 0.000325517 0.000325524 0.000324342 0.000323407 0.00032325 0.00032325 0.000325052 0.000324423 0.00032491 0.000322663 0.000324273 0.000324903 0.000323535 0.000322577 0.000325638 0.000323362 0.000325311 0.000326277 0.000323765 0.000322703 0.000325653 0.000323769 0.000325464 0.000326536 0.000323967 0.000322904 0.000325646 0.000323977 0.000325508 0.000326579 0.000324087 0.000323076 0.000325638 0.000324129 0.000325547 0.000326566 0.000324182 0.000323239 0.00032563 0.000324251 0.000325574 0.000326523 0.000324262 0.000323393 0.000325624 0.000324361 0.000325596 0.000326471 0.000324344 0.000323545 0.000325619 0.000324466 0.000325609 0.000326413 0.000324425 0.000323695 0.00032561 0.000324557 0.000325614 0.000326349 0.000324503 0.000323839 0.000325603 0.000324643 0.000325619 0.000326287 0.000324578 0.000323975 0.000325602 0.000324732 0.000325623 0.000326229 0.00032466 0.000324116 0.000325594 0.000324807 0.000325626 0.000326172 0.000324735 0.000324246 0.00032559 0.000324881 0.00032562 0.000326112 0.000324802 0.000324363 0.000325586 0.000324954 0.000325616 0.000326057 0.000324874 0.000324485 0.000325578 0.000325021 0.000325619 0.00032601 0.000324943 0.000324598 0.00032557 0.000325083 0.000325611 0.000325957 0.000325008 0.000324702 0.00032557 0.000325141 0.00032561 0.000325916 0.000325063 0.000324802 0.000325564 0.000325194 0.000325606 0.000325868 0.00032512 0.000324895 0.000325561 0.000325243 0.0003256 0.000325826 0.00032517 0.000324982 0.000325559 0.000325292 0.000325597 0.000325786 0.00032522 0.000325061 0.000325549 0.000325329 0.000325585 0.000325744 0.000325268 0.000325133 0.000325544 0.000325369 0.000325581 0.000325716 0.000325308 0.000325201 0.000325543 0.000325404 0.000325577 0.000325683 0.000325347 0.000325263 0.000325541 0.000325429 0.000325567 0.000325651 0.000325381 0.000325319 0.000325536 0.000325457 0.000325566 0.000325629 0.000325413 0.000325369 0.000325533 0.000325481 0.000325559 0.000325603 0.00032544 0.000325405 0.000325529 0.000325493 0.000325549 0.000325584 0.000325465 0.000325443 0.000325531 0.000325509 0.000325545 0.000325567 0.000325483 0.000325473 0.000325527 0.000325517 0.000325539 0.000325549 0.000325502 0.000325494 0.000325524 0.000325528 0.000325534 0.000325543 0.000325516 0.000325513 0.000325518 0.000325536 0.000325527 0.000325529 0.000325528 0.000325527 0.000325195 0.000324087 0.000324657 0.000324657 0.000325181 0.000324546 0.000325478 0.000323884 0.000325069 0.000325704 0.000324517 0.000323532 0.000325616 0.000323779 0.000325403 0.000326393 0.000324102 0.000322935 0.000325884 0.000324133 0.000325723 0.000326899 0.00032432 0.000323183 0.000325905 0.000324302 0.000325761 0.000326906 0.000324439 0.00032337 0.000325883 0.000324427 0.000325764 0.000326841 0.000324517 0.000323525 0.000325861 0.000324526 0.000325763 0.000326762 0.000324583 0.000323669 0.000325835 0.000324616 0.000325757 0.000326676 0.000324644 0.000323805 0.000325811 0.000324693 0.000325753 0.000326597 0.000324703 0.000323938 0.000325787 0.000324765 0.000325741 0.000326512 0.00032476 0.000324064 0.00032577 0.000324836 0.000325732 0.000326432 0.000324821 0.000324188 0.000325749 0.000324898 0.000325722 0.000326358 0.000324877 0.000324302 0.000325732 0.000324963 0.000325708 0.000326285 0.000324932 0.000324414 0.000325715 0.000325019 0.000325698 0.000326218 0.000324988 0.000324523 0.000325697 0.00032507 0.000325684 0.00032615 0.000325041 0.000324627 0.000325681 0.000325125 0.000325672 0.000326088 0.000325084 0.000324721 0.000325664 0.000325171 0.00032566 0.000326025 0.00032513 0.00032481 0.000325651 0.000325217 0.000325648 0.000325968 0.000325178 0.000324901 0.000325638 0.000325257 0.000325639 0.000325917 0.000325216 0.000324977 0.000325623 0.000325298 0.00032563 0.000325869 0.000325259 0.000325055 0.00032561 0.00032533 0.000325618 0.000325823 0.000325293 0.000325123 0.000325599 0.00032536 0.000325606 0.000325776 0.000325324 0.000325183 0.00032559 0.000325393 0.000325596 0.000325737 0.000325355 0.000325241 0.000325577 0.000325419 0.000325588 0.000325702 0.000325385 0.000325294 0.000325569 0.000325438 0.000325578 0.000325669 0.000325412 0.000325342 0.00032556 0.000325462 0.000325568 0.000325638 0.000325433 0.000325378 0.000325552 0.000325475 0.000325559 0.000325614 0.000325449 0.000325416 0.00032555 0.00032549 0.000325556 0.000325588 0.00032547 0.000325446 0.000325544 0.0003255 0.000325548 0.000325572 0.000325486 0.000325473 0.000325537 0.000325509 0.000325543 0.000325556 0.000325497 0.000325489 0.000325532 0.000325517 0.000325537 0.000325545 0.000325507 0.000325507 0.000325527 0.000325528 0.000325532 0.000325532 0.000325519 0.000325525 0.000325918 0.000324702 0.000325952 0.000325952 0.000325238 0.000324629 0.000326052 0.000324508 0.00032592 0.000326531 0.000324914 0.000323941 0.000326041 0.000324469 0.000325907 0.000326884 0.000324679 0.000323525 0.00032612 0.000324545 0.000325988 0.000327148 0.000324704 0.000323559 0.00032616 0.000324635 0.000326008 0.000327161 0.000324778 0.000323701 0.000326135 0.000324717 0.000325989 0.000327073 0.000324835 0.000323838 0.000326097 0.000324789 0.000325966 0.000326968 0.000324887 0.000323967 0.000326058 0.000324854 0.000325937 0.000326862 0.000324932 0.000324084 0.000326017 0.000324917 0.000325906 0.000326759 0.000324975 0.000324197 0.000325982 0.000324969 0.00032588 0.000326662 0.000325016 0.000324306 0.000325945 0.000325018 0.000325853 0.000326565 0.000325057 0.00032441 0.000325909 0.000325064 0.000325824 0.000326473 0.000325092 0.00032451 0.000325876 0.000325108 0.000325799 0.000326384 0.000325132 0.000324605 0.000325844 0.000325152 0.000325777 0.000326306 0.000325169 0.000324696 0.000325814 0.000325191 0.000325753 0.000326227 0.000325204 0.000324782 0.000325783 0.000325228 0.000325729 0.000326153 0.000325237 0.000324861 0.000325756 0.000325262 0.000325707 0.000326084 0.000325266 0.000324936 0.000325734 0.000325292 0.000325689 0.00032602 0.000325296 0.00032501 0.000325709 0.000325328 0.000325671 0.000325958 0.000325326 0.000325073 0.000325684 0.000325354 0.000325649 0.000325902 0.000325347 0.000325138 0.000325665 0.000325378 0.000325636 0.000325845 0.000325369 0.000325192 0.000325645 0.0003254 0.000325622 0.000325799 0.000325393 0.000325248 0.000325628 0.000325419 0.000325605 0.00032575 0.000325413 0.000325295 0.000325607 0.000325441 0.000325594 0.000325711 0.00032543 0.000325332 0.000325594 0.000325456 0.000325578 0.000325676 0.000325447 0.000325374 0.000325584 0.000325472 0.000325573 0.000325645 0.000325464 0.000325407 0.000325569 0.000325482 0.000325561 0.000325618 0.000325474 0.000325436 0.000325562 0.000325494 0.000325553 0.000325592 0.000325489 0.000325461 0.000325553 0.000325502 0.000325545 0.000325573 0.000325497 0.000325481 0.000325546 0.000325508 0.00032554 0.000325556 0.000325502 0.000325497 0.000325536 0.000325512 0.000325537 0.000325541 0.000325507 0.000325505 0.000325539 0.000325518 0.000325535 0.000325537 0.000325512 0.000325516 0.000326675 0.000325262 0.000327266 0.000327266 0.000325226 0.000324649 0.000326626 0.000325022 0.000326781 0.000327362 0.000325151 0.000324225 0.000326523 0.000324946 0.000326472 0.000327404 0.000325077 0.000323967 0.000326456 0.000324958 0.000326338 0.000327455 0.000325088 0.000323989 0.000326416 0.000324955 0.000326265 0.00032737 0.000325105 0.000324058 0.00032638 0.000324997 0.000326215 0.000327269 0.000325141 0.000324163 0.000326333 0.000325044 0.000326162 0.000327146 0.000325175 0.00032427 0.000326277 0.000325084 0.000326111 0.000327022 0.000325206 0.000324369 0.000326221 0.000325121 0.000326058 0.000326899 0.000325232 0.000324467 0.000326166 0.000325157 0.000326012 0.000326781 0.00032526 0.000324558 0.000326114 0.000325194 0.000325968 0.000326673 0.000325286 0.000324645 0.000326064 0.000325224 0.000325925 0.000326569 0.000325309 0.000324725 0.000326015 0.000325253 0.000325885 0.000326471 0.00032533 0.000324805 0.000325965 0.000325279 0.000325848 0.000326376 0.000325347 0.000324874 0.000325924 0.000325306 0.000325809 0.000326284 0.000325368 0.000324946 0.000325885 0.00032533 0.000325782 0.000326204 0.000325383 0.000325011 0.000325843 0.000325352 0.000325752 0.000326125 0.000325401 0.000325069 0.00032581 0.000325372 0.000325718 0.000326051 0.000325418 0.000325128 0.000325772 0.000325393 0.000325696 0.000325985 0.00032543 0.000325182 0.000325741 0.000325408 0.000325672 0.00032592 0.000325444 0.000325229 0.000325715 0.000325426 0.000325644 0.000325859 0.000325455 0.000325275 0.000325683 0.00032544 0.000325628 0.000325808 0.000325464 0.000325315 0.000325659 0.000325455 0.000325613 0.000325761 0.000325478 0.000325353 0.000325635 0.000325467 0.00032559 0.000325716 0.000325481 0.000325389 0.000325617 0.000325476 0.000325579 0.000325672 0.000325493 0.000325417 0.000325596 0.000325486 0.000325564 0.00032564 0.000325498 0.000325441 0.00032558 0.000325496 0.000325555 0.000325611 0.000325504 0.000325461 0.000325564 0.0003255 0.000325543 0.000325586 0.00032551 0.000325482 0.000325555 0.000325506 0.000325538 0.000325565 0.000325514 0.000325492 0.000325544 0.000325509 0.000325528 0.00032555 0.000325515 0.000325504 0.000325538 0.000325508 0.000325525 0.000325536 0.000325507 0.000325505 0.000325541 0.000325499 0.000325529 0.000325531 0.000325503 0.000325511 0.000327582 0.000325707 0.000328704 0.000328704 0.000325118 0.000324577 0.00032722 0.000325469 0.000327654 0.0003282 0.000325313 0.000324446 0.000327006 0.000325355 0.000327049 0.000327921 0.000325404 0.000324363 0.000326816 0.000325307 0.000326715 0.000327762 0.000325423 0.000324387 0.000326709 0.000325283 0.000326558 0.0003276 0.000325432 0.000324436 0.000326632 0.000325284 0.00032645 0.000327451 0.000325447 0.000324503 0.000326562 0.000325296 0.000326357 0.000327306 0.000325467 0.000324587 0.00032649 0.000325318 0.000326278 0.000327163 0.000325484 0.00032467 0.000326415 0.000325332 0.000326204 0.000327023 0.000325495 0.000324744 0.000326349 0.000325353 0.000326136 0.00032689 0.000325508 0.000324818 0.000326276 0.00032537 0.000326076 0.000326768 0.000325516 0.000324887 0.000326213 0.000325384 0.00032602 0.000326651 0.000325523 0.000324952 0.000326147 0.000325399 0.000325968 0.000326541 0.00032553 0.000325013 0.000326089 0.000325412 0.000325915 0.000326434 0.000325528 0.000325068 0.000326036 0.000325419 0.000325872 0.000326334 0.000325534 0.00032512 0.000325979 0.000325433 0.00032583 0.000326244 0.000325537 0.00032517 0.000325928 0.000325445 0.00032579 0.000326157 0.000325537 0.000325217 0.00032588 0.000325454 0.000325752 0.000326073 0.000325546 0.00032526 0.000325836 0.000325467 0.00032572 0.000326007 0.000325543 0.000325298 0.000325792 0.000325474 0.000325685 0.000325931 0.000325544 0.000325334 0.000325752 0.000325476 0.000325657 0.000325867 0.000325547 0.000325371 0.000325717 0.000325485 0.000325629 0.000325805 0.00032554 0.000325395 0.000325685 0.000325496 0.000325607 0.000325753 0.000325542 0.000325424 0.000325656 0.000325497 0.000325586 0.000325705 0.000325542 0.000325443 0.000325627 0.000325505 0.000325566 0.000325665 0.000325543 0.000325466 0.0003256 0.000325503 0.000325553 0.000325629 0.000325535 0.000325482 0.000325586 0.000325511 0.000325541 0.000325594 0.000325537 0.000325495 0.000325565 0.000325511 0.00032553 0.000325572 0.000325533 0.000325503 0.000325551 0.000325513 0.000325523 0.000325552 0.00032553 0.000325513 0.000325541 0.00032551 0.000325519 0.000325535 0.000325526 0.00032552 0.000325535 0.000325507 0.000325521 0.000325527 0.00032552 0.000325514 0.000325536 0.000325494 0.00032552 0.000325525 0.000325505 0.000325506 0.000328712 0.000325967 0.00033037 0.00033037 0.000324853 0.000324331 0.000327804 0.000325862 0.000328503 0.000329031 0.000325427 0.000324628 0.000327458 0.000325738 0.000327598 0.000328403 0.000325693 0.000324746 0.000327175 0.000325632 0.000327094 0.000328046 0.000325732 0.000324776 0.000327013 0.000325599 0.000326848 0.000327809 0.000325748 0.000324819 0.000326896 0.000325578 0.000326684 0.000327618 0.000325759 0.000324869 0.000326796 0.000325559 0.000326552 0.000327447 0.000325763 0.000324924 0.000326703 0.000325553 0.000326442 0.000327285 0.000325765 0.000324982 0.000326609 0.00032555 0.000326342 0.000327128 0.00032576 0.00032504 0.000326525 0.000325546 0.000326258 0.000326982 0.00032576 0.000325096 0.000326437 0.000325547 0.000326182 0.000326849 0.000325747 0.000325139 0.000326354 0.000325549 0.000326106 0.000326716 0.000325743 0.000325189 0.000326278 0.000325549 0.000326042 0.000326597 0.000325728 0.000325229 0.000326202 0.000325543 0.000325983 0.000326483 0.000325718 0.000325268 0.000326132 0.000325541 0.000325924 0.000326375 0.000325705 0.000325305 0.000326067 0.000325544 0.00032587 0.000326272 0.000325693 0.000325341 0.000326004 0.000325544 0.000325825 0.000326179 0.000325682 0.000325369 0.000325945 0.000325541 0.000325778 0.000326091 0.000325669 0.000325397 0.000325886 0.000325541 0.000325735 0.000326007 0.000325657 0.000325422 0.000325836 0.000325539 0.000325696 0.000325931 0.000325646 0.000325443 0.000325786 0.000325539 0.000325656 0.000325859 0.000325634 0.000325465 0.000325743 0.000325536 0.000325627 0.000325797 0.000325624 0.000325483 0.0003257 0.000325534 0.000325599 0.00032574 0.000325611 0.000325499 0.000325666 0.000325533 0.000325576 0.000325688 0.000325603 0.000325514 0.00032563 0.000325534 0.000325553 0.000325642 0.000325595 0.000325522 0.000325603 0.000325533 0.000325533 0.000325606 0.000325581 0.000325526 0.000325577 0.000325531 0.000325521 0.000325576 0.000325576 0.000325534 0.000325558 0.000325528 0.000325511 0.000325553 0.000325563 0.000325539 0.000325541 0.000325524 0.000325508 0.000325532 0.000325552 0.000325537 0.000325532 0.000325524 0.000325505 0.00032552 0.000325546 0.000325531 0.000325528 0.000325515 0.000325502 0.000325517 0.00032553 0.000325525 0.000325527 0.000325492 0.000325511 0.000325516 0.000325508 0.000325504 0.000329776 0.000325877 0.000332158 0.000332158 0.000324239 0.000323685 0.000328405 0.000326187 0.000329315 0.000329878 0.000325488 0.000324735 0.000327911 0.000326115 0.000328096 0.000328857 0.000325973 0.000325127 0.000327539 0.000325973 0.000327439 0.000328291 0.000326052 0.000325188 0.000327323 0.000325915 0.000327116 0.000327985 0.000326079 0.000325227 0.000327167 0.000325871 0.000326898 0.000327753 0.000326083 0.000325257 0.000327034 0.000325832 0.000326726 0.000327555 0.000326075 0.000325288 0.000326914 0.0003258 0.000326587 0.000327377 0.000326062 0.000325323 0.000326804 0.000325773 0.000326473 0.000327214 0.000326041 0.000325355 0.000326692 0.00032575 0.000326369 0.000327056 0.000326018 0.000325383 0.00032659 0.000325735 0.000326277 0.000326913 0.00032599 0.000325411 0.000326491 0.000325713 0.000326194 0.000326775 0.000325961 0.000325434 0.000326402 0.000325698 0.000326113 0.000326641 0.000325935 0.000325459 0.000326313 0.000325686 0.000326047 0.000326523 0.000325906 0.000325481 0.000326225 0.000325671 0.000325977 0.000326403 0.000325878 0.000325497 0.00032615 0.000325657 0.000325911 0.000326293 0.000325854 0.000325514 0.000326068 0.000325645 0.000325853 0.000326193 0.000325825 0.000325526 0.000325998 0.000325636 0.000325799 0.000326098 0.000325804 0.000325543 0.000325935 0.000325626 0.000325748 0.000326009 0.000325778 0.000325554 0.000325866 0.000325613 0.000325697 0.000325922 0.000325753 0.000325563 0.000325811 0.000325605 0.000325659 0.000325849 0.000325735 0.000325571 0.000325758 0.000325594 0.000325618 0.000325782 0.00032571 0.000325573 0.000325714 0.000325588 0.000325584 0.000325721 0.00032569 0.000325581 0.000325666 0.000325579 0.000325556 0.000325666 0.00032567 0.000325584 0.000325622 0.000325567 0.00032553 0.000325616 0.000325645 0.000325581 0.000325594 0.000325562 0.000325512 0.000325575 0.000325632 0.000325582 0.000325563 0.000325556 0.000325496 0.000325546 0.000325612 0.000325577 0.00032554 0.000325551 0.000325482 0.000325518 0.000325599 0.000325572 0.000325524 0.000325544 0.000325483 0.000325509 0.000325577 0.000325561 0.00032551 0.000325533 0.000325478 0.000325494 0.00032556 0.000325551 0.000325513 0.00032552 0.000325493 0.000325501 0.000325546 0.000325539 0.000325521 0.000325505 0.000325505 0.000325511 0.000325521 0.000325513 0.000322934 0.000320859 0.000321345 0.000321345 0.000322989 0.000322445 0.000325557 0.00032243 0.000324626 0.000325174 0.00032359 0.000322823 0.00032534 0.000323075 0.000324855 0.000325628 0.000323642 0.000322767 0.000325291 0.00032344 0.000325076 0.000325958 0.00032366 0.000322762 0.000325317 0.000323674 0.000325237 0.000326143 0.000323723 0.000322835 0.000325345 0.000323846 0.000325332 0.000326227 0.000323809 0.000322954 0.000325369 0.000323989 0.000325395 0.000326256 0.000323906 0.000323102 0.000325389 0.000324112 0.000325437 0.000326247 0.000324009 0.000323262 0.000325405 0.000324232 0.000325468 0.00032622 0.000324119 0.00032343 0.000325419 0.000324348 0.000325489 0.000326182 0.000324227 0.000323595 0.00032543 0.000324455 0.000325508 0.000326143 0.000324328 0.000323755 0.000325441 0.000324561 0.000325518 0.000326094 0.00032443 0.000323912 0.000325447 0.000324658 0.000325531 0.000326052 0.000324534 0.000324064 0.000325455 0.000324751 0.000325538 0.00032601 0.000324621 0.000324203 0.000325466 0.000324834 0.000325545 0.000325964 0.000324717 0.000324344 0.000325472 0.000324917 0.000325552 0.000325927 0.000324799 0.00032447 0.000325476 0.000324995 0.000325553 0.000325883 0.00032488 0.00032459 0.000325482 0.000325073 0.00032556 0.000325851 0.00032496 0.000324706 0.000325484 0.000325137 0.00032556 0.000325814 0.000325034 0.000324816 0.000325491 0.0003252 0.000325559 0.000325778 0.0003251 0.000324911 0.000325497 0.000325255 0.00032556 0.00032575 0.000325157 0.000325007 0.0003255 0.000325302 0.000325563 0.000325713 0.00032522 0.00032509 0.000325502 0.000325348 0.000325557 0.000325687 0.00032527 0.000325168 0.000325505 0.000325397 0.000325559 0.000325662 0.00032532 0.00032524 0.000325505 0.00032543 0.000325552 0.000325632 0.000325368 0.000325305 0.000325511 0.000325461 0.000325549 0.000325612 0.000325409 0.000325364 0.000325514 0.00032549 0.000325547 0.000325592 0.000325439 0.00032541 0.00032551 0.000325509 0.000325541 0.000325571 0.000325472 0.00032545 0.000325512 0.000325527 0.000325534 0.000325557 0.000325499 0.000325486 0.000325513 0.000325532 0.000325525 0.000325538 0.000325517 0.00032551 0.000325511 0.000325538 0.000325526 0.000325532 0.000325524 0.000325518 0.000325505 0.000325537 0.000325519 0.000325525 0.000325532 0.000325519 0.000324256 0.000323375 0.000323182 0.000323182 0.000324973 0.000324414 0.000324892 0.000322568 0.000324231 0.000324789 0.000323493 0.000322653 0.000325699 0.000323266 0.000325304 0.000326151 0.000323748 0.000322789 0.000325648 0.000323666 0.000325456 0.000326423 0.00032388 0.000322889 0.000325628 0.000323927 0.000325531 0.00032653 0.000324007 0.000323033 0.000325615 0.0003241 0.000325563 0.000326544 0.000324113 0.000323185 0.000325609 0.000324236 0.000325583 0.000326518 0.00032421 0.000323344 0.000325605 0.00032435 0.000325599 0.000326471 0.000324302 0.000323501 0.000325599 0.000324453 0.000325607 0.000326413 0.00032439 0.000323657 0.000325595 0.000324548 0.000325614 0.000326351 0.00032448 0.000323807 0.000325591 0.000324639 0.000325614 0.00032629 0.000324561 0.000323951 0.000325586 0.000324722 0.000325615 0.000326228 0.000324645 0.000324092 0.000325585 0.000324805 0.000325616 0.000326171 0.000324721 0.000324223 0.000325577 0.000324877 0.000325614 0.000326113 0.000324794 0.000324348 0.000325572 0.000324945 0.00032561 0.000326057 0.000324867 0.000324471 0.00032557 0.000325014 0.000325607 0.000326004 0.000324934 0.000324582 0.000325569 0.000325078 0.000325605 0.000325958 0.000325001 0.000324696 0.000325566 0.000325134 0.000325606 0.000325912 0.000325056 0.000324792 0.000325559 0.000325193 0.000325599 0.000325863 0.000325117 0.000324886 0.000325554 0.000325239 0.000325594 0.000325825 0.000325172 0.000324972 0.000325553 0.000325289 0.000325586 0.000325786 0.000325225 0.000325059 0.000325543 0.000325329 0.000325584 0.00032575 0.000325265 0.000325129 0.000325549 0.000325366 0.000325578 0.000325716 0.000325311 0.000325202 0.000325541 0.000325403 0.000325573 0.000325682 0.000325349 0.000325262 0.000325538 0.000325429 0.000325566 0.000325653 0.000325382 0.000325316 0.00032554 0.000325456 0.000325562 0.000325628 0.000325419 0.000325369 0.000325532 0.000325477 0.000325554 0.000325605 0.000325444 0.00032541 0.000325533 0.000325497 0.00032555 0.000325585 0.000325465 0.000325442 0.000325531 0.00032551 0.000325547 0.00032557 0.000325487 0.000325473 0.000325526 0.000325518 0.000325538 0.000325552 0.000325505 0.000325494 0.000325524 0.000325527 0.000325531 0.000325542 0.000325513 0.00032551 0.000325517 0.000325537 0.000325528 0.000325531 0.000325523 0.000325524 0.000325132 0.000324052 0.000324589 0.000324589 0.000325128 0.000324561 0.000325437 0.000323835 0.000325038 0.000325606 0.000324495 0.000323618 0.000325653 0.000323694 0.000325382 0.000326263 0.000324087 0.000323045 0.000325888 0.000324011 0.000325718 0.000326769 0.000324202 0.00032313 0.000325891 0.000324243 0.000325774 0.000326855 0.00032434 0.000323295 0.000325865 0.000324387 0.000325773 0.000326825 0.000324439 0.000323458 0.000325839 0.000324499 0.000325766 0.000326754 0.000324525 0.00032361 0.000325814 0.000324593 0.000325755 0.000326676 0.0003246 0.000323759 0.000325797 0.000324676 0.000325746 0.000326591 0.000324669 0.000323898 0.000325773 0.000324752 0.000325735 0.00032651 0.000324733 0.00032403 0.000325753 0.000324821 0.000325725 0.000326431 0.000324798 0.000324161 0.000325737 0.000324889 0.000325715 0.000326356 0.00032486 0.00032428 0.000325717 0.000324948 0.000325699 0.000326282 0.000324918 0.000324397 0.000325703 0.000325011 0.000325689 0.000326212 0.000324975 0.000324506 0.000325685 0.000325064 0.000325676 0.000326146 0.000325026 0.000324607 0.000325671 0.000325117 0.000325661 0.000326082 0.00032508 0.00032471 0.000325655 0.000325164 0.000325651 0.000326022 0.000325127 0.000324802 0.000325642 0.000325211 0.000325642 0.000325968 0.000325172 0.000324891 0.000325629 0.000325254 0.000325631 0.000325913 0.000325214 0.00032497 0.000325617 0.000325289 0.000325621 0.000325866 0.00032525 0.000325046 0.000325609 0.000325323 0.000325609 0.000325813 0.000325291 0.000325117 0.000325596 0.000325363 0.000325603 0.000325777 0.000325322 0.000325179 0.000325584 0.000325391 0.000325593 0.000325736 0.000325361 0.00032524 0.000325575 0.000325415 0.00032558 0.000325702 0.000325383 0.000325292 0.000325568 0.000325438 0.000325577 0.000325668 0.00032541 0.000325337 0.000325558 0.000325459 0.000325566 0.000325639 0.000325438 0.000325382 0.000325552 0.000325477 0.000325558 0.000325614 0.000325455 0.000325413 0.000325546 0.000325491 0.00032555 0.000325592 0.000325475 0.000325448 0.000325542 0.000325503 0.000325545 0.000325571 0.000325487 0.00032547 0.000325538 0.00032551 0.00032554 0.000325558 0.000325498 0.000325491 0.000325536 0.000325518 0.000325539 0.000325547 0.000325511 0.000325508 0.000325528 0.000325525 0.000325529 0.000325532 0.000325514 0.000325525 0.000325888 0.000324667 0.000325882 0.000325882 0.00032521 0.000324637 0.000326001 0.000324483 0.000325884 0.000326459 0.000324881 0.00032398 0.000326034 0.000324424 0.000325883 0.000326788 0.000324693 0.000323625 0.00032607 0.000324428 0.000325936 0.000327012 0.000324597 0.000323476 0.000326134 0.000324582 0.000326 0.000327129 0.000324698 0.000323617 0.000326112 0.000324683 0.000325979 0.000327067 0.000324775 0.000323762 0.000326076 0.000324767 0.00032595 0.000326969 0.00032484 0.000323902 0.000326034 0.000324833 0.000325921 0.000326864 0.000324893 0.000324031 0.000325997 0.000324894 0.000325892 0.000326759 0.000324944 0.00032416 0.000325961 0.000324954 0.000325866 0.000326655 0.000324992 0.000324272 0.000325925 0.000325006 0.000325837 0.00032656 0.000325035 0.000324381 0.00032589 0.000325054 0.000325814 0.00032647 0.000325076 0.000324484 0.000325858 0.000325101 0.000325789 0.000326384 0.000325118 0.000324585 0.00032583 0.00032514 0.000325764 0.000326299 0.000325155 0.000324678 0.0003258 0.000325182 0.000325743 0.000326222 0.000325191 0.000324765 0.000325772 0.000325218 0.000325721 0.000326148 0.000325227 0.000324849 0.000325746 0.000325256 0.000325699 0.000326079 0.000325259 0.000324926 0.000325722 0.00032529 0.00032568 0.000326014 0.00032529 0.000324995 0.0003257 0.00032532 0.00032566 0.000325955 0.000325317 0.00032507 0.000325678 0.000325346 0.000325646 0.000325894 0.000325342 0.00032513 0.000325658 0.000325373 0.000325632 0.000325845 0.000325372 0.000325191 0.000325638 0.000325399 0.000325616 0.000325797 0.000325392 0.000325239 0.00032562 0.000325421 0.0003256 0.000325753 0.000325412 0.000325289 0.000325605 0.000325437 0.000325591 0.000325713 0.000325432 0.000325334 0.000325592 0.000325457 0.000325577 0.000325675 0.000325448 0.000325372 0.000325578 0.000325468 0.000325569 0.000325644 0.00032546 0.000325404 0.000325571 0.000325481 0.000325559 0.000325615 0.000325475 0.000325434 0.000325558 0.000325492 0.00032555 0.000325591 0.000325489 0.00032546 0.000325551 0.0003255 0.000325541 0.00032557 0.000325497 0.00032548 0.000325541 0.000325507 0.000325539 0.000325556 0.000325505 0.000325493 0.000325537 0.000325511 0.000325531 0.000325543 0.000325507 0.000325508 0.000325537 0.000325517 0.000325532 0.000325531 0.000325516 0.000325519 0.000326671 0.000325227 0.000327197 0.000327197 0.000325232 0.00032467 0.00032657 0.000325013 0.000326751 0.000327316 0.000325128 0.000324235 0.00032648 0.000324936 0.000326459 0.000327357 0.000325087 0.000324029 0.000326421 0.00032491 0.000326307 0.000327372 0.000325043 0.000323932 0.000326396 0.00032493 0.000326244 0.000327363 0.000325064 0.000323988 0.000326366 0.000324978 0.000326195 0.000327278 0.00032511 0.0003241 0.000326317 0.000325026 0.000326143 0.00032716 0.000325151 0.00032422 0.000326261 0.000325071 0.000326092 0.000327028 0.000325184 0.000324327 0.000326205 0.000325113 0.000326041 0.000326903 0.000325218 0.000324431 0.000326148 0.000325151 0.000325994 0.000326784 0.000325246 0.000324527 0.000326096 0.000325183 0.000325953 0.000326675 0.00032527 0.000324619 0.000326045 0.000325217 0.000325915 0.000326569 0.000325293 0.000324702 0.000326 0.000325249 0.000325874 0.000326467 0.000325318 0.000324784 0.000325957 0.000325274 0.000325838 0.000326374 0.00032534 0.000324862 0.00032591 0.000325299 0.000325804 0.000326283 0.000325356 0.000324934 0.000325871 0.000325325 0.000325777 0.0003262 0.000325377 0.000324997 0.000325834 0.000325347 0.000325743 0.000326123 0.000325395 0.000325061 0.0003258 0.00032537 0.000325717 0.000326051 0.000325412 0.000325122 0.000325763 0.000325385 0.000325691 0.000325982 0.000325424 0.000325171 0.000325737 0.000325407 0.000325667 0.000325921 0.00032544 0.000325225 0.000325704 0.000325425 0.000325648 0.000325863 0.00032545 0.000325271 0.000325679 0.000325439 0.000325627 0.000325807 0.000325461 0.000325311 0.000325656 0.000325452 0.000325607 0.000325757 0.000325473 0.000325349 0.00032563 0.000325467 0.000325588 0.000325712 0.000325481 0.000325382 0.000325609 0.000325475 0.000325575 0.000325674 0.00032549 0.000325414 0.000325595 0.000325487 0.000325564 0.00032564 0.000325496 0.000325442 0.000325576 0.000325489 0.000325552 0.000325607 0.0003255 0.00032546 0.000325565 0.000325498 0.000325544 0.000325584 0.000325506 0.00032548 0.00032555 0.000325501 0.000325534 0.00032556 0.000325511 0.000325491 0.00032554 0.000325506 0.000325529 0.000325549 0.000325508 0.000325499 0.000325538 0.000325506 0.000325526 0.000325534 0.000325512 0.000325509 0.000325541 0.000325501 0.00032553 0.000325533 0.000325507 0.000325509 0.000327599 0.000325678 0.000328635 0.000328635 0.000325154 0.000324612 0.000327161 0.000325475 0.000327631 0.000328177 0.000325293 0.000324438 0.000326938 0.000325371 0.000327052 0.000327913 0.000325392 0.000324379 0.000326802 0.000325307 0.000326719 0.000327738 0.00032542 0.000324354 0.000326707 0.000325281 0.000326535 0.000327606 0.000325431 0.000324396 0.000326629 0.000325272 0.000326419 0.000327461 0.000325442 0.000324467 0.000326557 0.000325284 0.000326338 0.000327317 0.000325457 0.000324552 0.000326481 0.000325306 0.000326259 0.000327169 0.000325474 0.00032464 0.000326406 0.000325324 0.000326187 0.000327025 0.000325488 0.000324718 0.000326331 0.000325343 0.000326121 0.000326894 0.000325497 0.000324797 0.000326263 0.000325361 0.000326066 0.000326769 0.000325504 0.000324868 0.000326198 0.000325381 0.000326009 0.000326647 0.000325511 0.000324933 0.000326135 0.000325392 0.000325957 0.000326536 0.000325518 0.000324995 0.000326075 0.000325406 0.00032591 0.000326435 0.000325525 0.000325055 0.00032602 0.000325419 0.000325862 0.000326334 0.000325525 0.000325107 0.000325968 0.000325433 0.000325825 0.000326244 0.000325528 0.000325158 0.000325917 0.000325442 0.000325786 0.000326156 0.000325533 0.000325206 0.000325869 0.000325452 0.000325749 0.000326077 0.000325536 0.000325251 0.000325828 0.000325464 0.000325716 0.000326001 0.000325536 0.000325289 0.000325785 0.00032547 0.000325684 0.000325931 0.000325539 0.000325329 0.000325748 0.000325479 0.000325657 0.000325867 0.000325535 0.000325357 0.000325713 0.000325486 0.00032563 0.000325808 0.000325538 0.000325393 0.000325676 0.000325489 0.000325604 0.000325749 0.000325538 0.000325419 0.000325648 0.000325497 0.000325587 0.000325706 0.000325539 0.00032544 0.000325624 0.000325501 0.000325568 0.000325666 0.000325535 0.000325464 0.000325603 0.000325503 0.000325556 0.000325628 0.000325535 0.000325477 0.00032558 0.000325509 0.000325539 0.000325597 0.000325532 0.000325497 0.000325564 0.000325511 0.000325533 0.000325568 0.000325532 0.000325503 0.000325547 0.000325514 0.000325521 0.00032555 0.00032553 0.000325508 0.000325541 0.000325512 0.000325515 0.000325537 0.000325523 0.000325516 0.000325531 0.000325503 0.000325518 0.000325525 0.000325516 0.000325512 0.000325535 0.000325492 0.000325521 0.000325525 0.000325503 0.000325503 0.000328771 0.000325941 0.000330312 0.000330312 0.000324912 0.000324388 0.000327758 0.000325872 0.000328499 0.000329029 0.000325405 0.000324601 0.00032738 0.000325778 0.000327622 0.000328433 0.000325664 0.000324723 0.00032718 0.000325675 0.000327126 0.000328074 0.000325757 0.000324773 0.000327021 0.000325609 0.000326834 0.000327825 0.00032578 0.000324816 0.0003269 0.000325568 0.00032666 0.000327628 0.000325777 0.000324865 0.000326796 0.000325551 0.000326528 0.000327445 0.00032577 0.000324912 0.000326698 0.000325544 0.00032642 0.000327281 0.000325765 0.000324969 0.000326602 0.000325541 0.000326331 0.00032713 0.000325758 0.000325027 0.000326511 0.000325539 0.000326247 0.000326981 0.000325749 0.000325078 0.000326427 0.000325544 0.000326168 0.000326841 0.000325741 0.000325127 0.000326339 0.000325541 0.000326098 0.000326714 0.000325731 0.000325174 0.000326264 0.000325539 0.000326037 0.000326594 0.000325717 0.000325217 0.000326193 0.000325538 0.000325976 0.000326477 0.000325703 0.000325254 0.000326125 0.000325539 0.000325921 0.000326371 0.000325697 0.000325292 0.000326054 0.000325543 0.000325865 0.000326271 0.000325686 0.000325327 0.000325995 0.000325541 0.000325819 0.000326179 0.000325671 0.00032536 0.000325933 0.000325542 0.000325777 0.000326089 0.000325661 0.000325384 0.000325879 0.000325539 0.000325732 0.000326009 0.000325652 0.000325413 0.000325826 0.000325538 0.000325691 0.00032593 0.00032564 0.000325435 0.00032578 0.000325537 0.000325656 0.000325861 0.000325628 0.00032546 0.000325736 0.000325536 0.000325628 0.000325796 0.000325618 0.000325476 0.000325698 0.000325535 0.000325601 0.000325743 0.000325607 0.000325493 0.00032566 0.000325533 0.000325574 0.000325688 0.000325595 0.000325505 0.000325627 0.000325532 0.000325553 0.000325642 0.000325588 0.000325519 0.000325601 0.000325533 0.000325536 0.000325606 0.00032558 0.000325528 0.000325578 0.000325529 0.000325525 0.000325577 0.000325569 0.000325533 0.000325558 0.000325531 0.000325515 0.000325552 0.000325562 0.000325534 0.000325542 0.000325523 0.000325505 0.000325533 0.00032555 0.000325533 0.00032553 0.000325518 0.000325504 0.000325521 0.000325544 0.000325534 0.000325526 0.000325515 0.000325507 0.000325516 0.000325528 0.000325524 0.000325527 0.000325492 0.000325513 0.000325516 0.000325506 0.000325503 0.000330015 0.000325835 0.000332147 0.000332147 0.000324314 0.000323775 0.000328395 0.000326199 0.000329353 0.000329901 0.000325462 0.00032472 0.000327819 0.000326168 0.000328156 0.000328906 0.000325926 0.000325086 0.000327537 0.000326044 0.000327509 0.000328355 0.000326098 0.000325223 0.000327324 0.000325938 0.000327116 0.000327995 0.000326124 0.000325258 0.000327156 0.000325875 0.000326874 0.000327744 0.000326115 0.000325278 0.000327019 0.000325825 0.0003267 0.000327541 0.000326093 0.000325299 0.000326896 0.000325788 0.000326568 0.000327364 0.000326066 0.000325322 0.000326788 0.000325766 0.000326452 0.000327199 0.000326037 0.000325349 0.000326677 0.000325743 0.000326357 0.000327046 0.000326007 0.000325373 0.000326577 0.000325724 0.000326265 0.000326901 0.000325983 0.0003254 0.000326482 0.00032571 0.000326186 0.00032677 0.000325951 0.000325421 0.000326386 0.000325695 0.000326108 0.000326638 0.000325922 0.000325443 0.000326299 0.000325677 0.000326039 0.000326518 0.000325894 0.000325463 0.000326217 0.000325664 0.000325969 0.000326401 0.000325868 0.000325486 0.000326136 0.000325653 0.000325908 0.000326291 0.000325842 0.0003255 0.000326061 0.000325641 0.000325847 0.000326189 0.000325816 0.000325514 0.00032599 0.000325632 0.000325793 0.000326095 0.000325788 0.000325529 0.000325927 0.000325621 0.000325742 0.000326002 0.000325768 0.000325544 0.000325861 0.000325613 0.0003257 0.000325924 0.000325748 0.000325552 0.000325803 0.000325598 0.000325654 0.000325849 0.000325722 0.00032556 0.000325752 0.000325591 0.000325615 0.000325778 0.0003257 0.000325564 0.000325704 0.000325587 0.000325582 0.000325719 0.000325684 0.000325571 0.000325663 0.000325579 0.000325556 0.000325669 0.000325665 0.000325576 0.000325624 0.000325572 0.00032553 0.000325618 0.000325647 0.000325575 0.000325589 0.000325565 0.000325508 0.00032558 0.000325629 0.000325576 0.000325563 0.000325559 0.000325495 0.000325548 0.000325612 0.000325574 0.000325537 0.00032555 0.000325485 0.000325524 0.000325593 0.000325571 0.000325525 0.000325542 0.000325483 0.000325505 0.000325578 0.00032556 0.000325509 0.000325536 0.00032548 0.000325498 0.000325562 0.000325547 0.000325512 0.000325521 0.000325486 0.0003255 0.00032554 0.000325532 0.000325522 0.00032551 0.000325497 0.000325506 0.000325525 0.000325516 0.000322931 0.000320731 0.000321251 0.000321251 0.000322914 0.000322443 0.00032562 0.000322406 0.000324679 0.000325153 0.000323569 0.000322871 0.000325371 0.000323053 0.00032489 0.000325593 0.000323642 0.00032282 0.0003253 0.000323415 0.000325084 0.000325912 0.000323658 0.000322787 0.000325296 0.000323656 0.000325233 0.000326111 0.000323706 0.000322833 0.000325315 0.000323831 0.000325333 0.000326213 0.000323785 0.00032294 0.00032534 0.00032398 0.000325394 0.000326246 0.000323885 0.00032308 0.000325364 0.000324112 0.000325435 0.000326246 0.000323987 0.000323234 0.00032538 0.000324231 0.000325463 0.00032622 0.000324095 0.000323397 0.000325396 0.000324348 0.000325481 0.000326184 0.000324209 0.000323567 0.000325412 0.000324456 0.0003255 0.000326145 0.000324316 0.000323727 0.000325419 0.000324559 0.000325509 0.0003261 0.000324421 0.000323888 0.000325434 0.000324656 0.00032552 0.000326056 0.000324518 0.000324043 0.000325445 0.000324748 0.000325532 0.000326009 0.000324616 0.000324188 0.000325453 0.000324839 0.000325539 0.000325969 0.000324706 0.000324325 0.000325463 0.00032492 0.000325544 0.000325927 0.000324794 0.000324454 0.000325467 0.000324997 0.000325547 0.000325887 0.000324875 0.00032458 0.000325475 0.000325064 0.000325553 0.000325848 0.000324954 0.000324698 0.000325481 0.000325133 0.000325555 0.000325811 0.000325025 0.000324804 0.000325487 0.000325195 0.000325554 0.000325776 0.000325093 0.00032491 0.000325493 0.000325248 0.000325557 0.00032574 0.000325157 0.000324998 0.000325497 0.00032531 0.000325559 0.000325719 0.000325218 0.000325086 0.000325499 0.000325351 0.000325555 0.000325687 0.000325269 0.00032516 0.000325499 0.000325392 0.000325553 0.000325662 0.000325319 0.000325234 0.000325503 0.000325429 0.000325548 0.000325633 0.000325373 0.000325302 0.000325505 0.000325467 0.000325547 0.000325617 0.000325404 0.000325354 0.000325506 0.000325489 0.000325542 0.000325591 0.000325441 0.000325404 0.00032551 0.000325508 0.000325535 0.000325571 0.000325474 0.000325449 0.000325509 0.000325528 0.000325529 0.000325554 0.000325496 0.00032548 0.000325508 0.000325537 0.000325529 0.000325545 0.000325513 0.000325502 0.000325512 0.000325537 0.000325522 0.000325532 0.000325522 0.000325517 0.000325509 0.000325533 0.000325516 0.000325521 0.000325524 0.000325521 0.000324245 0.000323279 0.000323105 0.000323105 0.000324969 0.000324439 0.000324902 0.000322517 0.000324216 0.000324747 0.000323452 0.00032268 0.00032572 0.000323244 0.000325333 0.000326112 0.000323723 0.000322838 0.000325667 0.000323638 0.000325475 0.000326367 0.000323854 0.000322916 0.000325621 0.000323897 0.000325539 0.000326484 0.00032396 0.000323024 0.000325601 0.000324083 0.000325576 0.000326519 0.000324065 0.000323164 0.000325593 0.000324221 0.000325596 0.000326504 0.000324168 0.000323317 0.000325589 0.000324338 0.000325607 0.000326463 0.000324266 0.000323474 0.000325584 0.000324445 0.000325609 0.000326407 0.000324362 0.000323628 0.000325582 0.000324538 0.00032561 0.000326348 0.000324453 0.000323783 0.000325578 0.00032463 0.000325613 0.000326287 0.000324542 0.00032393 0.000325576 0.000324716 0.000325612 0.000326227 0.000324626 0.000324072 0.000325573 0.000324796 0.000325612 0.000326167 0.00032471 0.000324209 0.000325571 0.000324873 0.000325611 0.000326114 0.000324787 0.000324336 0.000325568 0.000324945 0.000325605 0.000326057 0.000324858 0.000324458 0.000325562 0.000325008 0.000325603 0.000326005 0.000324927 0.000324574 0.000325562 0.000325073 0.000325602 0.000325956 0.000324993 0.000324683 0.000325559 0.000325136 0.000325598 0.00032591 0.000325059 0.000324783 0.000325552 0.000325187 0.000325591 0.000325868 0.000325113 0.000324882 0.000325552 0.000325235 0.00032559 0.000325822 0.000325168 0.000324966 0.000325548 0.000325283 0.000325582 0.000325784 0.000325218 0.000325051 0.000325548 0.000325327 0.00032558 0.000325747 0.000325265 0.000325127 0.000325541 0.000325364 0.000325577 0.000325715 0.000325308 0.000325192 0.00032554 0.000325401 0.000325567 0.000325683 0.000325347 0.000325261 0.000325539 0.00032543 0.000325563 0.000325649 0.000325385 0.000325315 0.000325536 0.000325456 0.00032556 0.000325631 0.000325415 0.000325364 0.000325532 0.000325478 0.000325554 0.000325604 0.000325443 0.000325404 0.000325531 0.000325493 0.000325548 0.000325587 0.000325469 0.000325443 0.000325531 0.000325509 0.000325541 0.000325568 0.000325488 0.000325471 0.000325528 0.000325522 0.000325538 0.000325556 0.000325501 0.000325494 0.000325525 0.000325525 0.000325532 0.00032554 0.000325515 0.000325511 0.000325521 0.000325536 0.000325527 0.000325532 0.000325529 0.000325527 0.000325107 0.000323985 0.000324524 0.000324524 0.000325129 0.00032457 0.000325418 0.000323799 0.000325003 0.000325563 0.000324484 0.000323649 0.000325645 0.000323666 0.000325374 0.000326214 0.000324051 0.000323081 0.000325907 0.000323976 0.000325731 0.000326709 0.000324168 0.000323156 0.000325885 0.000324199 0.000325779 0.000326799 0.00032428 0.000323281 0.000325858 0.000324359 0.000325786 0.000326793 0.000324384 0.000323427 0.000325829 0.00032448 0.000325774 0.000326738 0.000324476 0.00032358 0.000325806 0.000324577 0.000325762 0.000326664 0.000324559 0.000323729 0.000325782 0.000324662 0.00032575 0.000326585 0.000324636 0.000323871 0.000325762 0.000324739 0.000325736 0.000326505 0.000324711 0.000324007 0.000325745 0.000324812 0.000325722 0.000326429 0.000324777 0.000324137 0.000325727 0.000324877 0.000325707 0.00032635 0.000324841 0.000324263 0.00032571 0.000324941 0.000325697 0.000326278 0.000324902 0.00032438 0.000325695 0.000324999 0.000325682 0.000326206 0.00032496 0.000324495 0.00032568 0.000325055 0.000325674 0.00032614 0.000325018 0.000324599 0.000325664 0.00032511 0.000325661 0.000326082 0.00032507 0.0003247 0.000325652 0.000325159 0.000325648 0.000326019 0.000325119 0.000324794 0.000325637 0.000325205 0.000325637 0.000325964 0.000325166 0.000324881 0.000325626 0.000325248 0.000325626 0.000325912 0.000325209 0.000324967 0.000325617 0.000325286 0.000325622 0.000325864 0.000325248 0.00032504 0.000325598 0.00032532 0.000325607 0.000325815 0.000325287 0.000325108 0.000325596 0.00032536 0.000325598 0.000325776 0.000325328 0.000325182 0.000325583 0.00032539 0.000325591 0.000325738 0.000325355 0.000325237 0.000325573 0.000325412 0.000325581 0.000325698 0.000325385 0.000325286 0.000325567 0.000325436 0.000325571 0.00032567 0.000325412 0.000325337 0.000325559 0.000325461 0.000325565 0.000325641 0.000325438 0.000325379 0.000325551 0.000325476 0.000325557 0.000325615 0.000325454 0.000325414 0.000325548 0.000325492 0.000325551 0.000325591 0.000325475 0.000325448 0.000325539 0.0003255 0.000325544 0.000325571 0.000325489 0.000325471 0.000325535 0.000325509 0.000325539 0.000325558 0.000325499 0.000325487 0.000325532 0.000325518 0.000325533 0.000325545 0.00032551 0.000325504 0.00032553 0.000325528 0.000325531 0.000325538 0.000325521 0.000325523 0.000325849 0.000324624 0.000325825 0.000325825 0.000325207 0.000324634 0.000325956 0.00032445 0.000325839 0.000326415 0.000324865 0.000323983 0.000326008 0.000324401 0.000325855 0.000326742 0.000324672 0.000323649 0.000326069 0.00032439 0.000325921 0.000326951 0.000324565 0.000323493 0.000326126 0.000324533 0.000325991 0.000327072 0.000324638 0.000323586 0.0003261 0.000324651 0.000325978 0.000327038 0.000324723 0.000323723 0.000326063 0.000324743 0.000325946 0.000326953 0.000324796 0.000323867 0.000326024 0.000324813 0.000325918 0.000326853 0.000324857 0.000323999 0.000325983 0.000324879 0.000325886 0.000326749 0.000324911 0.000324122 0.000325944 0.00032494 0.000325855 0.000326647 0.000324966 0.000324246 0.000325911 0.000324991 0.000325831 0.000326554 0.000325013 0.00032436 0.000325879 0.00032504 0.000325808 0.000326464 0.000325059 0.000324466 0.000325851 0.000325088 0.000325779 0.000326375 0.000325102 0.00032457 0.000325819 0.00032513 0.000325761 0.000326294 0.000325143 0.000324662 0.00032579 0.000325169 0.000325733 0.000326216 0.000325176 0.000324752 0.000325766 0.000325214 0.000325716 0.000326141 0.000325216 0.000324837 0.000325736 0.000325245 0.000325694 0.000326075 0.000325248 0.000324914 0.000325715 0.000325284 0.000325676 0.000326011 0.000325283 0.000324992 0.000325696 0.000325313 0.00032566 0.000325952 0.000325313 0.000325061 0.00032567 0.000325345 0.000325641 0.000325894 0.00032534 0.000325123 0.000325653 0.000325371 0.000325626 0.000325843 0.000325362 0.000325181 0.000325637 0.000325389 0.000325617 0.000325797 0.000325387 0.00032524 0.000325617 0.000325414 0.000325602 0.00032575 0.000325406 0.000325284 0.000325606 0.000325434 0.000325588 0.00032571 0.000325427 0.00032533 0.000325588 0.000325452 0.000325579 0.000325675 0.000325448 0.000325371 0.000325579 0.000325469 0.000325568 0.000325645 0.000325462 0.000325403 0.000325568 0.000325482 0.00032556 0.000325619 0.000325476 0.000325434 0.00032556 0.000325491 0.000325551 0.000325592 0.000325488 0.000325461 0.000325546 0.000325499 0.000325541 0.000325569 0.000325494 0.000325476 0.000325543 0.000325508 0.000325537 0.000325555 0.000325503 0.000325495 0.000325538 0.000325508 0.000325536 0.000325544 0.000325507 0.000325505 0.000325535 0.000325517 0.000325532 0.000325534 0.000325517 0.00032552 0.000326619 0.000325215 0.000327144 0.000327144 0.000325238 0.000324653 0.000326513 0.000325 0.000326692 0.000327282 0.000325117 0.000324215 0.000326429 0.000324916 0.000326414 0.000327322 0.00032507 0.000324015 0.000326394 0.000324885 0.000326272 0.000327334 0.000325033 0.000323939 0.000326373 0.000324888 0.000326212 0.000327313 0.000325022 0.000323947 0.000326352 0.00032495 0.000326178 0.000327261 0.000325072 0.000324059 0.000326304 0.000325003 0.000326127 0.000327146 0.000325119 0.000324176 0.000326244 0.000325055 0.000326073 0.000327021 0.00032516 0.000324292 0.000326188 0.000325097 0.000326027 0.000326899 0.000325193 0.000324402 0.000326133 0.000325133 0.000325984 0.000326778 0.000325222 0.000324503 0.000326085 0.000325171 0.000325945 0.000326666 0.000325251 0.000324595 0.000326034 0.000325207 0.000325903 0.000326562 0.000325279 0.000324685 0.000325985 0.000325233 0.000325866 0.000326461 0.000325305 0.000324768 0.000325944 0.000325267 0.000325831 0.000326369 0.000325325 0.000324846 0.0003259 0.00032529 0.0003258 0.000326281 0.000325346 0.000324916 0.000325862 0.000325319 0.000325767 0.000326198 0.000325369 0.000324988 0.000325826 0.000325341 0.000325739 0.00032612 0.000325383 0.00032505 0.000325791 0.000325362 0.000325716 0.000326049 0.000325402 0.000325111 0.000325762 0.000325383 0.00032569 0.000325982 0.000325418 0.000325165 0.000325728 0.000325402 0.000325664 0.000325917 0.00032543 0.000325215 0.000325703 0.000325418 0.000325645 0.00032586 0.000325446 0.000325265 0.000325674 0.000325438 0.000325622 0.000325803 0.000325458 0.000325306 0.000325652 0.000325452 0.000325608 0.000325761 0.000325467 0.000325346 0.000325628 0.00032546 0.000325593 0.000325713 0.000325478 0.000325383 0.000325609 0.000325474 0.00032558 0.000325675 0.000325484 0.00032541 0.000325589 0.000325483 0.000325563 0.000325637 0.000325494 0.000325436 0.000325578 0.000325495 0.00032555 0.000325608 0.000325503 0.00032546 0.000325564 0.000325501 0.000325546 0.000325589 0.000325509 0.000325478 0.000325551 0.000325505 0.000325536 0.000325568 0.000325509 0.000325492 0.000325543 0.000325507 0.00032553 0.000325548 0.000325513 0.0003255 0.000325537 0.000325506 0.000325525 0.000325539 0.000325508 0.000325508 0.000325543 0.000325503 0.000325532 0.000325532 0.000325506 0.000325512 0.000327536 0.000325696 0.000328586 0.000328586 0.000325174 0.000324589 0.000327094 0.000325472 0.000327568 0.000328158 0.000325294 0.0003244 0.000326881 0.000325366 0.000326999 0.0003279 0.000325383 0.000324346 0.000326766 0.000325295 0.000326679 0.000327723 0.000325417 0.000324342 0.000326683 0.000325259 0.000326501 0.000327584 0.00032542 0.000324364 0.000326616 0.000325254 0.000326393 0.000327456 0.000325427 0.000324433 0.000326551 0.00032527 0.000326312 0.000327313 0.000325446 0.000324523 0.000326471 0.000325288 0.000326236 0.000327165 0.000325459 0.000324612 0.000326393 0.000325311 0.000326172 0.000327023 0.000325472 0.000324696 0.000326323 0.000325334 0.000326112 0.000326891 0.000325482 0.000324775 0.000326252 0.000325352 0.000326053 0.000326763 0.000325492 0.000324846 0.000326184 0.000325369 0.000325999 0.000326646 0.000325499 0.000324919 0.000326124 0.000325384 0.000325949 0.000326532 0.000325503 0.000324982 0.000326066 0.000325398 0.000325907 0.000326429 0.000325511 0.00032504 0.000326007 0.000325415 0.000325863 0.000326336 0.000325515 0.000325093 0.000325956 0.000325424 0.000325819 0.000326242 0.000325519 0.000325146 0.000325909 0.000325435 0.000325779 0.000326153 0.000325522 0.000325196 0.000325867 0.000325449 0.000325749 0.000326076 0.000325523 0.000325243 0.000325818 0.000325459 0.000325716 0.000325997 0.00032553 0.000325281 0.000325781 0.000325468 0.000325681 0.00032593 0.000325533 0.00032532 0.000325742 0.000325475 0.000325655 0.000325869 0.000325532 0.000325354 0.000325708 0.000325483 0.00032563 0.000325809 0.000325534 0.000325386 0.000325675 0.00032549 0.000325609 0.000325758 0.000325534 0.000325415 0.00032565 0.000325498 0.000325587 0.000325705 0.000325533 0.000325442 0.000325624 0.000325502 0.000325573 0.000325665 0.000325531 0.000325459 0.000325601 0.000325502 0.000325556 0.000325628 0.000325529 0.000325476 0.000325579 0.000325504 0.000325543 0.000325595 0.000325531 0.000325491 0.000325559 0.000325514 0.000325532 0.000325572 0.000325532 0.000325502 0.000325548 0.000325511 0.000325522 0.000325551 0.000325526 0.000325512 0.000325541 0.000325511 0.000325523 0.000325537 0.000325524 0.000325516 0.000325536 0.000325506 0.000325517 0.000325525 0.000325518 0.000325514 0.00032554 0.000325496 0.000325524 0.000325527 0.000325507 0.000325507 0.000328719 0.000325979 0.000330265 0.000330265 0.000324939 0.000324369 0.000327697 0.000325879 0.000328437 0.000329014 0.000325409 0.000324553 0.000327328 0.000325773 0.000327573 0.000328437 0.000325656 0.000324681 0.000327142 0.000325674 0.000327101 0.000328082 0.000325762 0.00032475 0.000327009 0.000325599 0.000326812 0.00032783 0.000325781 0.000324799 0.000326898 0.000325556 0.000326636 0.000327623 0.000325778 0.000324843 0.000326792 0.000325531 0.000326506 0.000327446 0.000325769 0.000324901 0.000326689 0.000325525 0.000326405 0.000327276 0.000325759 0.000324955 0.000326599 0.000325527 0.000326314 0.000327121 0.000325747 0.000325012 0.000326504 0.000325529 0.000326237 0.000326974 0.00032574 0.000325064 0.000326414 0.000325532 0.000326161 0.000326839 0.000325731 0.000325119 0.000326335 0.000325533 0.000326097 0.000326711 0.000325718 0.000325163 0.000326258 0.000325532 0.000326033 0.000326589 0.000325706 0.000325204 0.000326181 0.000325535 0.000325975 0.000326479 0.000325694 0.000325243 0.000326114 0.000325538 0.000325916 0.000326368 0.000325682 0.000325282 0.000326048 0.000325538 0.000325869 0.00032627 0.000325674 0.00032532 0.000325988 0.000325535 0.000325822 0.000326177 0.000325665 0.00032535 0.00032593 0.000325536 0.000325773 0.000326088 0.000325654 0.000325383 0.000325877 0.000325537 0.000325735 0.000326007 0.000325639 0.000325407 0.000325826 0.000325532 0.000325696 0.000325929 0.000325632 0.000325434 0.000325778 0.000325534 0.000325661 0.000325859 0.000325621 0.000325453 0.000325734 0.000325536 0.000325632 0.000325799 0.000325614 0.000325473 0.000325694 0.000325537 0.000325603 0.000325744 0.000325603 0.000325486 0.000325661 0.000325534 0.000325573 0.00032569 0.000325598 0.000325505 0.000325625 0.000325535 0.000325556 0.000325649 0.000325585 0.000325515 0.000325597 0.00032553 0.000325538 0.000325607 0.000325574 0.000325524 0.000325576 0.00032553 0.000325525 0.000325576 0.000325566 0.000325528 0.000325557 0.000325529 0.000325511 0.00032555 0.000325556 0.000325536 0.000325541 0.000325522 0.000325512 0.000325532 0.000325547 0.000325531 0.000325534 0.000325522 0.000325504 0.00032552 0.000325539 0.000325531 0.000325526 0.000325512 0.000325506 0.000325515 0.000325531 0.000325524 0.000325532 0.000325498 0.000325514 0.000325521 0.000325514 0.000325508 0.000330051 0.000325878 0.0003321 0.0003321 0.000324355 0.000323778 0.000328372 0.000326193 0.000329308 0.000329894 0.00032546 0.000324688 0.00032778 0.000326154 0.000328142 0.000328922 0.00032591 0.000325051 0.000327505 0.000326046 0.000327514 0.00032838 0.000326087 0.000325201 0.000327314 0.000325939 0.000327123 0.000328014 0.000326135 0.000325261 0.000327152 0.000325861 0.000326873 0.000327752 0.000326122 0.000325287 0.000327017 0.000325809 0.000326695 0.000327534 0.000326094 0.000325304 0.000326897 0.000325775 0.000326558 0.000327352 0.000326058 0.000325324 0.000326781 0.000325746 0.000326448 0.000327185 0.00032603 0.000325349 0.000326672 0.000325728 0.000326352 0.000327035 0.000325995 0.00032537 0.000326571 0.000325712 0.000326268 0.000326895 0.000325964 0.000325395 0.000326476 0.000325694 0.000326181 0.000326752 0.000325932 0.000325417 0.000326382 0.000325685 0.000326112 0.000326628 0.000325908 0.00032544 0.000326298 0.000325673 0.000326039 0.000326508 0.000325879 0.000325457 0.000326211 0.000325657 0.000325973 0.000326395 0.000325855 0.000325474 0.00032613 0.000325647 0.000325905 0.000326286 0.000325825 0.000325493 0.00032606 0.000325638 0.000325853 0.000326185 0.000325803 0.000325512 0.000325991 0.000325625 0.000325797 0.000326089 0.000325781 0.000325527 0.000325918 0.000325618 0.000325746 0.000326 0.000325759 0.000325537 0.000325864 0.000325608 0.000325697 0.000325919 0.000325737 0.000325553 0.000325806 0.000325597 0.000325662 0.000325847 0.000325713 0.000325555 0.000325748 0.000325591 0.000325623 0.000325781 0.000325693 0.000325562 0.000325705 0.000325586 0.000325583 0.000325715 0.000325677 0.000325573 0.000325663 0.000325572 0.000325557 0.000325661 0.000325659 0.000325573 0.000325624 0.000325573 0.000325534 0.00032562 0.000325642 0.000325578 0.00032559 0.000325561 0.000325512 0.000325576 0.00032562 0.000325574 0.000325563 0.000325557 0.000325498 0.000325543 0.000325608 0.000325574 0.000325539 0.000325548 0.000325487 0.000325521 0.000325594 0.000325566 0.000325521 0.000325545 0.000325481 0.000325509 0.000325574 0.000325557 0.000325514 0.00032553 0.00032548 0.000325496 0.00032556 0.000325551 0.000325513 0.000325524 0.000325493 0.000325502 0.000325544 0.000325534 0.000325515 0.000325508 0.0003255 0.00032551 0.000325526 0.00032552 0.000323068 0.000320531 0.000321147 0.000321147 0.000322985 0.000322545 0.000325669 0.000322463 0.000324745 0.000325189 0.000323574 0.000322918 0.00032538 0.000323104 0.000324951 0.000325611 0.000323629 0.000322843 0.000325296 0.00032344 0.000325132 0.000325923 0.000323644 0.000322804 0.000325282 0.000323656 0.00032526 0.000326106 0.000323683 0.000322833 0.000325297 0.00032383 0.000325348 0.000326205 0.000323752 0.000322922 0.00032532 0.000323971 0.000325402 0.000326238 0.000323849 0.00032306 0.000325344 0.000324099 0.00032544 0.000326235 0.000323954 0.000323217 0.000325365 0.000324221 0.000325468 0.000326211 0.000324069 0.00032338 0.00032538 0.000324331 0.000325481 0.000326175 0.000324178 0.00032355 0.000325399 0.000324441 0.000325497 0.00032613 0.000324289 0.000323713 0.000325414 0.000324548 0.00032551 0.000326089 0.000324402 0.000323876 0.000325426 0.000324646 0.000325517 0.000326045 0.000324499 0.000324028 0.000325434 0.00032474 0.000325525 0.000325998 0.0003246 0.000324175 0.000325443 0.000324822 0.000325533 0.00032596 0.000324692 0.000324315 0.000325453 0.00032491 0.000325538 0.000325917 0.000324779 0.000324448 0.000325461 0.000324986 0.000325544 0.000325877 0.000324864 0.000324572 0.000325472 0.000325063 0.000325549 0.000325842 0.000324945 0.000324688 0.000325473 0.000325128 0.000325547 0.000325805 0.000325016 0.000324795 0.000325479 0.00032519 0.000325551 0.000325772 0.00032509 0.000324899 0.000325485 0.000325246 0.000325551 0.000325743 0.000325152 0.000324994 0.000325492 0.0003253 0.000325552 0.000325711 0.000325214 0.000325084 0.000325497 0.00032535 0.000325554 0.000325684 0.00032527 0.000325161 0.000325503 0.000325391 0.00032555 0.000325659 0.00032532 0.000325233 0.000325499 0.000325428 0.000325545 0.000325632 0.000325361 0.000325295 0.000325501 0.000325459 0.000325542 0.000325607 0.0003254 0.000325351 0.000325507 0.000325489 0.000325539 0.000325588 0.000325439 0.000325405 0.000325506 0.000325506 0.000325535 0.000325569 0.000325472 0.000325443 0.000325505 0.000325526 0.000325527 0.000325556 0.000325495 0.000325479 0.000325511 0.000325536 0.000325525 0.000325542 0.000325509 0.000325503 0.00032551 0.000325539 0.000325525 0.000325531 0.00032552 0.000325514 0.000325507 0.000325534 0.000325515 0.00032552 0.000325519 0.000325518 0.000324318 0.000323111 0.000323027 0.000323027 0.000325048 0.000324494 0.000324935 0.000322529 0.000324222 0.000324776 0.000323447 0.000322705 0.00032573 0.000323288 0.000325377 0.000326126 0.000323716 0.000322866 0.000325662 0.000323674 0.000325509 0.000326366 0.000323838 0.000322939 0.000325613 0.000323912 0.000325565 0.000326471 0.000323934 0.000323033 0.000325587 0.000324084 0.000325593 0.000326502 0.000324033 0.000323158 0.000325579 0.00032422 0.000325608 0.00032649 0.000324138 0.000323302 0.000325575 0.000324336 0.000325611 0.000326452 0.00032424 0.000323455 0.000325569 0.000324438 0.000325612 0.000326402 0.000324335 0.000323612 0.00032557 0.000324531 0.000325613 0.00032634 0.00032443 0.000323764 0.000325565 0.000324622 0.000325611 0.000326281 0.000324524 0.000323912 0.000325565 0.000324705 0.000325608 0.000326223 0.00032461 0.000324056 0.000325564 0.000324786 0.000325606 0.000326163 0.000324695 0.000324196 0.000325563 0.000324864 0.000325605 0.000326107 0.000324773 0.000324325 0.000325558 0.000324938 0.000325601 0.000326051 0.000324848 0.000324448 0.000325558 0.000325004 0.000325599 0.000326001 0.000324918 0.000324563 0.000325554 0.000325069 0.000325597 0.000325954 0.000324986 0.000324671 0.000325551 0.000325132 0.000325593 0.000325908 0.000325055 0.000324778 0.00032555 0.000325183 0.000325589 0.000325867 0.000325109 0.00032487 0.000325547 0.000325234 0.000325581 0.000325819 0.000325162 0.000324961 0.000325545 0.000325279 0.000325582 0.000325783 0.000325214 0.000325044 0.00032554 0.000325324 0.000325578 0.000325748 0.000325264 0.00032512 0.00032554 0.000325363 0.000325568 0.000325712 0.000325307 0.000325188 0.000325538 0.000325394 0.000325564 0.000325683 0.000325348 0.000325256 0.000325531 0.000325428 0.000325561 0.000325653 0.000325383 0.000325312 0.000325532 0.000325455 0.000325556 0.000325627 0.000325415 0.000325358 0.000325532 0.000325476 0.000325549 0.000325606 0.000325444 0.000325406 0.000325531 0.000325494 0.000325546 0.000325584 0.000325465 0.000325438 0.000325528 0.00032551 0.000325542 0.000325569 0.000325488 0.000325469 0.000325528 0.000325521 0.000325538 0.000325557 0.000325507 0.000325494 0.000325523 0.000325529 0.00032553 0.000325544 0.000325514 0.000325507 0.000325522 0.000325536 0.000325523 0.00032553 0.000325529 0.000325526 0.000325127 0.00032388 0.000324468 0.000324468 0.000325177 0.000324588 0.00032542 0.000323783 0.000324981 0.000325572 0.000324497 0.000323657 0.000325643 0.000323684 0.000325371 0.000326217 0.000324036 0.000323099 0.000325902 0.000323995 0.000325745 0.00032669 0.000324148 0.000323176 0.000325882 0.000324203 0.000325793 0.000326773 0.000324251 0.000323288 0.000325848 0.000324356 0.000325796 0.000326766 0.00032435 0.000323421 0.000325817 0.000324473 0.000325783 0.000326719 0.000324443 0.000323565 0.000325791 0.000324569 0.000325767 0.00032665 0.000324532 0.00032371 0.00032577 0.000324652 0.000325749 0.000326576 0.00032461 0.000323851 0.000325754 0.000324729 0.000325733 0.000326495 0.000324685 0.000323992 0.000325738 0.000324801 0.000325722 0.000326419 0.000324755 0.000324125 0.00032572 0.000324867 0.000325709 0.000326343 0.000324823 0.000324251 0.000325704 0.00032493 0.000325696 0.000326271 0.000324888 0.00032437 0.000325685 0.000324989 0.000325682 0.000326202 0.000324947 0.00032448 0.000325674 0.000325045 0.000325666 0.000326135 0.000325002 0.00032459 0.000325661 0.000325103 0.000325662 0.000326075 0.000325062 0.000324691 0.000325644 0.000325153 0.000325645 0.000326018 0.00032511 0.000324785 0.000325631 0.000325201 0.000325635 0.000325961 0.000325159 0.000324873 0.000325622 0.000325242 0.000325626 0.000325912 0.000325203 0.000324959 0.000325611 0.000325279 0.000325615 0.00032586 0.000325246 0.000325034 0.000325601 0.000325321 0.000325607 0.000325819 0.000325284 0.000325106 0.000325586 0.000325357 0.000325597 0.000325776 0.000325319 0.00032517 0.000325579 0.000325381 0.000325589 0.000325737 0.000325353 0.000325232 0.000325573 0.000325412 0.000325577 0.000325698 0.000325386 0.000325287 0.000325566 0.000325439 0.000325573 0.000325672 0.000325408 0.000325333 0.000325559 0.000325454 0.000325566 0.000325641 0.000325431 0.000325379 0.000325552 0.000325473 0.000325564 0.000325615 0.000325457 0.000325413 0.000325544 0.000325485 0.000325549 0.000325593 0.000325471 0.000325445 0.00032554 0.000325502 0.000325545 0.00032557 0.000325488 0.000325468 0.000325539 0.00032551 0.000325537 0.000325558 0.0003255 0.00032549 0.000325534 0.000325516 0.000325534 0.000325544 0.000325509 0.000325506 0.000325536 0.000325525 0.000325533 0.000325535 0.000325524 0.000325525 0.000325814 0.000324569 0.000325781 0.000325781 0.000325232 0.000324614 0.000325926 0.000324425 0.000325784 0.000326405 0.000324866 0.000323965 0.000325982 0.000324389 0.000325817 0.000326724 0.000324661 0.000323647 0.000326055 0.000324382 0.000325898 0.000326919 0.000324539 0.000323501 0.000326121 0.00032452 0.000325988 0.000327035 0.000324609 0.000323589 0.000326092 0.000324634 0.000325974 0.000327002 0.000324686 0.000323712 0.000326054 0.000324727 0.000325946 0.000326926 0.00032476 0.00032385 0.000326015 0.000324799 0.000325918 0.000326834 0.000324823 0.00032398 0.000325971 0.000324864 0.000325883 0.000326731 0.000324884 0.000324106 0.000325934 0.000324919 0.000325852 0.000326635 0.00032494 0.000324231 0.000325905 0.000324974 0.00032583 0.000326541 0.000324991 0.000324345 0.000325872 0.000325028 0.000325804 0.000326452 0.000325038 0.000324451 0.00032584 0.000325077 0.00032578 0.000326368 0.000325084 0.000324556 0.000325815 0.000325122 0.000325758 0.000326288 0.000325125 0.000324652 0.000325786 0.000325161 0.000325735 0.000326209 0.000325169 0.000324741 0.000325757 0.000325204 0.000325713 0.000326142 0.000325203 0.000324831 0.000325736 0.000325238 0.000325696 0.000326068 0.000325237 0.000324906 0.000325709 0.000325275 0.000325676 0.000326007 0.00032527 0.000324983 0.00032569 0.000325307 0.000325659 0.000325946 0.000325303 0.000325051 0.000325667 0.000325335 0.000325642 0.000325894 0.000325331 0.000325119 0.00032565 0.000325363 0.000325627 0.000325839 0.000325357 0.000325177 0.000325636 0.00032539 0.000325617 0.000325797 0.00032538 0.000325229 0.000325615 0.000325411 0.000325599 0.00032575 0.000325402 0.000325279 0.000325603 0.000325431 0.000325592 0.000325715 0.000325427 0.000325327 0.00032559 0.000325452 0.000325578 0.000325677 0.000325445 0.000325367 0.000325579 0.000325467 0.000325568 0.000325647 0.00032546 0.000325402 0.000325567 0.000325485 0.00032556 0.000325618 0.000325473 0.00032543 0.000325555 0.000325491 0.00032555 0.000325593 0.000325486 0.000325454 0.000325546 0.000325499 0.00032554 0.000325572 0.000325494 0.000325476 0.000325544 0.000325505 0.000325536 0.000325554 0.000325506 0.000325497 0.000325541 0.000325509 0.000325537 0.000325546 0.00032551 0.000325506 0.000325539 0.000325515 0.000325535 0.000325539 0.000325518 0.000325522 0.000326524 0.000325198 0.000327105 0.000327105 0.000325234 0.000324599 0.000326447 0.000324963 0.000326609 0.000327248 0.000325108 0.000324172 0.000326391 0.000324885 0.000326344 0.000327287 0.000325051 0.000323993 0.000326369 0.000324854 0.000326224 0.00032729 0.000325012 0.000323927 0.000326355 0.000324862 0.000326178 0.000327271 0.000324995 0.000323937 0.00032634 0.00032492 0.000326156 0.000327221 0.000325037 0.000324036 0.00032629 0.000324977 0.000326108 0.000327115 0.000325085 0.000324152 0.000326235 0.000325031 0.000326062 0.000327 0.000325128 0.000324273 0.000326178 0.000325074 0.000326019 0.000326879 0.000325162 0.000324379 0.000326123 0.000325114 0.000325977 0.000326762 0.000325195 0.000324481 0.000326071 0.000325155 0.000325934 0.000326651 0.000325229 0.000324578 0.000326022 0.000325188 0.000325899 0.000326552 0.000325257 0.00032467 0.000325978 0.000325222 0.00032586 0.000326449 0.000325282 0.000324751 0.000325932 0.000325253 0.000325829 0.000326362 0.000325309 0.000324831 0.000325894 0.00032528 0.000325797 0.000326276 0.000325331 0.000324904 0.000325854 0.00032531 0.000325765 0.000326194 0.000325354 0.000324976 0.000325819 0.000325333 0.000325737 0.000326116 0.000325372 0.00032504 0.000325787 0.000325354 0.000325714 0.000326046 0.000325388 0.000325101 0.000325755 0.000325376 0.000325689 0.000325977 0.000325406 0.000325157 0.000325724 0.000325397 0.000325666 0.000325916 0.000325422 0.000325209 0.000325696 0.000325416 0.000325646 0.000325859 0.000325439 0.000325254 0.000325669 0.000325432 0.000325625 0.000325809 0.000325451 0.000325304 0.000325648 0.000325447 0.00032561 0.000325758 0.000325462 0.00032534 0.000325626 0.000325464 0.000325591 0.000325714 0.000325474 0.000325372 0.000325607 0.000325471 0.000325574 0.000325676 0.000325484 0.000325406 0.000325589 0.000325479 0.000325565 0.000325643 0.00032549 0.000325434 0.000325577 0.000325493 0.000325559 0.000325614 0.0003255 0.000325464 0.000325565 0.000325495 0.00032555 0.000325587 0.0003255 0.000325477 0.000325551 0.000325499 0.000325536 0.00032556 0.000325505 0.000325488 0.000325545 0.000325505 0.000325532 0.000325549 0.000325514 0.000325505 0.000325543 0.000325509 0.00032553 0.000325539 0.000325514 0.000325511 0.000325539 0.000325505 0.00032553 0.000325533 0.000325509 0.00032551 0.000327384 0.000325742 0.00032855 0.00032855 0.000325166 0.000324505 0.000327001 0.000325446 0.000327452 0.000328119 0.000325288 0.000324325 0.000326823 0.000325328 0.000326895 0.000327866 0.000325378 0.000324298 0.000326727 0.000325261 0.000326605 0.000327693 0.000325407 0.000324306 0.00032666 0.000325226 0.000326446 0.000327554 0.000325403 0.000324342 0.000326601 0.000325221 0.000326356 0.000327423 0.000325405 0.000324405 0.000326532 0.000325241 0.000326284 0.00032729 0.000325421 0.000324494 0.00032646 0.000325267 0.000326217 0.000327148 0.000325439 0.000324587 0.000326382 0.000325291 0.000326154 0.000327011 0.000325448 0.000324673 0.000326307 0.000325316 0.000326102 0.00032688 0.000325461 0.000324752 0.00032624 0.000325334 0.000326042 0.000326754 0.000325471 0.000324831 0.000326174 0.000325356 0.000325994 0.000326636 0.000325478 0.000324898 0.000326109 0.000325372 0.000325944 0.000326526 0.000325489 0.000324963 0.000326053 0.000325392 0.000325898 0.000326426 0.000325494 0.000325022 0.000326003 0.000325404 0.000325858 0.000326331 0.0003255 0.000325083 0.000325951 0.000325418 0.000325817 0.000326235 0.000325506 0.000325134 0.000325899 0.000325427 0.00032578 0.000326153 0.000325508 0.000325182 0.000325858 0.000325442 0.000325745 0.000326072 0.000325515 0.000325231 0.000325812 0.000325451 0.000325714 0.000325998 0.000325517 0.000325274 0.000325775 0.000325463 0.000325684 0.000325927 0.000325521 0.000325313 0.000325742 0.000325474 0.000325659 0.000325867 0.000325524 0.000325348 0.000325705 0.000325479 0.000325633 0.00032581 0.000325523 0.000325379 0.000325675 0.000325489 0.000325611 0.000325755 0.000325527 0.000325408 0.000325642 0.000325494 0.000325589 0.000325708 0.000325528 0.000325436 0.000325619 0.000325496 0.000325574 0.000325666 0.00032553 0.000325457 0.000325599 0.000325504 0.000325557 0.000325629 0.000325527 0.000325473 0.000325577 0.00032551 0.000325549 0.000325603 0.000325528 0.000325486 0.000325563 0.000325515 0.000325535 0.000325578 0.000325529 0.000325504 0.00032555 0.000325511 0.00032553 0.000325555 0.000325526 0.00032551 0.000325537 0.00032551 0.00032552 0.000325535 0.000325523 0.000325512 0.000325534 0.000325505 0.000325517 0.000325529 0.000325518 0.000325514 0.000325538 0.000325493 0.000325523 0.000325527 0.000325502 0.000325507 0.000328536 0.000326092 0.000330222 0.000330222 0.000324938 0.000324273 0.000327601 0.000325866 0.000328307 0.000328981 0.000325422 0.000324479 0.000327274 0.000325728 0.000327463 0.000328414 0.00032566 0.000324619 0.000327108 0.000325632 0.000327022 0.00032807 0.000325755 0.000324708 0.000326992 0.000325563 0.000326764 0.000327817 0.000325777 0.000324767 0.000326884 0.000325527 0.000326596 0.000327612 0.000325771 0.000324823 0.000326787 0.00032551 0.000326483 0.000327437 0.000325756 0.000324875 0.000326688 0.000325503 0.000326385 0.000327269 0.000325745 0.000324939 0.00032659 0.000325509 0.000326306 0.000327115 0.000325735 0.000324998 0.000326497 0.000325516 0.00032623 0.000326969 0.000325719 0.000325054 0.000326409 0.000325516 0.00032616 0.000326827 0.000325712 0.000325104 0.000326327 0.000325522 0.000326095 0.000326705 0.000325701 0.000325151 0.000326249 0.000325523 0.000326033 0.000326584 0.000325687 0.000325192 0.000326177 0.000325525 0.000325976 0.000326472 0.000325679 0.000325235 0.000326106 0.000325531 0.000325921 0.000326366 0.000325674 0.000325277 0.000326044 0.000325527 0.000325869 0.000326267 0.00032566 0.000325313 0.000325984 0.000325532 0.000325827 0.000326175 0.00032565 0.000325341 0.000325925 0.000325529 0.000325778 0.000326087 0.000325641 0.000325374 0.000325874 0.000325534 0.000325738 0.000326006 0.000325632 0.000325404 0.000325821 0.000325532 0.000325702 0.00032593 0.000325622 0.000325425 0.000325774 0.000325534 0.000325668 0.000325866 0.000325616 0.00032545 0.000325732 0.000325535 0.000325632 0.000325798 0.000325606 0.000325468 0.000325695 0.000325532 0.000325605 0.000325743 0.000325596 0.000325488 0.000325656 0.000325535 0.000325583 0.000325692 0.000325587 0.0003255 0.000325629 0.000325531 0.00032556 0.000325647 0.000325577 0.000325515 0.000325598 0.000325528 0.000325546 0.000325608 0.000325571 0.00032552 0.000325574 0.000325532 0.000325526 0.000325577 0.00032556 0.000325528 0.000325554 0.000325529 0.000325518 0.00032555 0.000325556 0.000325533 0.000325541 0.000325525 0.000325512 0.000325535 0.000325545 0.000325531 0.000325531 0.000325519 0.000325507 0.000325521 0.000325537 0.000325532 0.000325525 0.000325513 0.000325508 0.000325513 0.000325529 0.000325522 0.000325528 0.000325494 0.00032551 0.000325517 0.000325509 0.000325505 0.000329874 0.000326014 0.000332008 0.000332008 0.000324354 0.000323696 0.000328301 0.000326157 0.000329185 0.000329855 0.00032546 0.000324618 0.000327752 0.000326081 0.000328062 0.000328913 0.000325895 0.000324994 0.00032749 0.000325977 0.000327467 0.000328375 0.000326065 0.000325162 0.000327312 0.000325888 0.000327106 0.000328014 0.000326116 0.000325241 0.000327164 0.000325819 0.000326868 0.000327747 0.000326106 0.000325277 0.000327026 0.000325773 0.000326693 0.000327526 0.000326075 0.000325304 0.000326905 0.000325742 0.000326567 0.000327341 0.000326043 0.00032533 0.00032679 0.000325723 0.000326456 0.000327171 0.000326005 0.000325352 0.000326679 0.000325708 0.000326363 0.000327018 0.000325973 0.000325373 0.00032658 0.000325695 0.000326274 0.000326876 0.000325943 0.000325398 0.000326474 0.000325681 0.000326195 0.000326741 0.000325912 0.000325418 0.000326383 0.00032567 0.000326121 0.000326617 0.000325884 0.00032544 0.000326294 0.000325659 0.000326048 0.000326493 0.000325859 0.000325459 0.000326215 0.000325647 0.000325981 0.000326381 0.000325832 0.000325477 0.000326135 0.000325637 0.000325921 0.000326276 0.000325812 0.000325496 0.000326057 0.000325631 0.00032586 0.000326176 0.000325787 0.000325509 0.000325987 0.000325617 0.000325803 0.000326081 0.000325764 0.000325522 0.00032592 0.000325612 0.000325753 0.000325994 0.000325747 0.000325539 0.000325861 0.000325606 0.000325707 0.000325916 0.000325725 0.000325549 0.000325808 0.000325598 0.000325669 0.000325845 0.000325703 0.000325557 0.000325756 0.000325587 0.000325627 0.000325773 0.000325686 0.000325566 0.000325703 0.00032558 0.000325594 0.000325715 0.00032567 0.000325573 0.000325661 0.000325573 0.000325563 0.00032566 0.000325646 0.000325572 0.000325622 0.000325564 0.000325539 0.000325613 0.000325634 0.000325574 0.000325589 0.000325566 0.000325515 0.000325575 0.000325617 0.000325574 0.000325562 0.000325554 0.0003255 0.000325544 0.000325602 0.000325575 0.000325542 0.000325549 0.000325493 0.000325519 0.000325585 0.000325569 0.000325528 0.000325543 0.000325489 0.000325505 0.000325571 0.000325564 0.000325511 0.000325532 0.000325484 0.000325492 0.000325556 0.000325545 0.000325517 0.000325523 0.000325491 0.000325502 0.00032554 0.000325539 0.000325517 0.000325505 0.000325504 0.000325504 0.000325523 0.000325516 0.000323383 0.000320245 0.000321057 0.000321057 0.000323275 0.000322766 0.000325687 0.000322699 0.000324828 0.000325338 0.000323599 0.000322959 0.000325347 0.000323253 0.000325061 0.000325706 0.000323595 0.000322843 0.000325271 0.000323512 0.000325216 0.000325973 0.000323596 0.000322792 0.000325268 0.000323685 0.000325318 0.000326128 0.000323633 0.000322824 0.000325286 0.000323825 0.000325383 0.000326199 0.000323709 0.000322917 0.000325311 0.000323953 0.000325426 0.000326224 0.000323806 0.00032305 0.000325334 0.000324076 0.000325451 0.000326213 0.000323914 0.000323203 0.00032536 0.000324193 0.000325471 0.000326187 0.000324031 0.000323375 0.00032538 0.000324307 0.000325488 0.000326148 0.000324149 0.000323541 0.000325392 0.000324412 0.000325498 0.00032611 0.000324259 0.000323707 0.000325406 0.000324521 0.000325507 0.000326062 0.000324371 0.000323869 0.000325422 0.000324621 0.000325515 0.00032602 0.000324479 0.000324025 0.000325426 0.000324717 0.000325523 0.00032598 0.000324579 0.00032417 0.000325441 0.000324808 0.000325529 0.00032594 0.000324672 0.000324305 0.000325451 0.000324893 0.000325532 0.0003259 0.000324766 0.000324445 0.00032546 0.000324971 0.000325539 0.000325862 0.000324852 0.000324569 0.000325464 0.000325039 0.000325542 0.000325826 0.000324931 0.000324685 0.000325472 0.000325114 0.000325544 0.00032579 0.000325008 0.000324796 0.000325476 0.000325179 0.000325548 0.00032576 0.000325078 0.000324895 0.000325484 0.00032524 0.000325545 0.000325729 0.000325142 0.000324988 0.000325489 0.000325291 0.000325548 0.000325703 0.000325205 0.000325079 0.000325495 0.000325337 0.000325549 0.000325676 0.000325263 0.00032516 0.000325499 0.000325383 0.000325544 0.000325647 0.00032531 0.000325232 0.000325501 0.000325422 0.000325543 0.000325622 0.000325357 0.000325297 0.000325503 0.000325449 0.000325539 0.000325599 0.000325402 0.000325355 0.000325505 0.00032548 0.000325535 0.000325582 0.000325439 0.000325406 0.000325508 0.000325503 0.000325529 0.000325562 0.000325466 0.000325445 0.000325508 0.000325524 0.000325529 0.00032555 0.000325493 0.000325479 0.000325508 0.000325531 0.000325524 0.000325537 0.000325509 0.000325502 0.000325509 0.000325534 0.000325519 0.000325525 0.000325522 0.000325517 0.000325509 0.000325531 0.000325516 0.00032552 0.000325525 0.000325522 0.000324502 0.000322885 0.000322977 0.000322977 0.000325236 0.000324589 0.000324989 0.000322654 0.000324266 0.000324912 0.000323509 0.000322742 0.00032572 0.000323446 0.000325443 0.000326216 0.000323731 0.000322886 0.00032564 0.000323782 0.000325562 0.000326414 0.000323837 0.000322954 0.000325591 0.000323977 0.000325601 0.000326491 0.000323928 0.000323039 0.000325571 0.000324121 0.000325614 0.00032651 0.000324023 0.00032316 0.00032556 0.000324235 0.000325616 0.000326486 0.00032412 0.000323296 0.00032556 0.000324338 0.000325617 0.000326447 0.00032422 0.000323449 0.000325561 0.000324435 0.000325616 0.000326392 0.000324323 0.000323602 0.000325558 0.000324524 0.000325611 0.000326336 0.000324416 0.000323753 0.00032556 0.000324616 0.000325611 0.000326276 0.000324511 0.000323904 0.00032556 0.000324699 0.000325607 0.000326217 0.000324598 0.000324044 0.000325554 0.000324776 0.0003256 0.000326157 0.000324683 0.00032418 0.000325554 0.000324858 0.000325597 0.000326101 0.000324761 0.000324313 0.000325551 0.000324929 0.000325597 0.000326047 0.00032484 0.000324439 0.000325552 0.000324995 0.000325595 0.000325998 0.000324914 0.000324555 0.000325552 0.000325061 0.000325592 0.000325951 0.000324981 0.000324668 0.00032555 0.000325125 0.000325588 0.000325903 0.000325046 0.000324775 0.000325549 0.000325177 0.000325588 0.00032586 0.000325106 0.000324866 0.000325543 0.000325227 0.000325582 0.000325822 0.000325156 0.000324957 0.000325543 0.00032527 0.00032558 0.000325779 0.000325209 0.00032504 0.00032554 0.000325318 0.000325572 0.000325742 0.000325258 0.000325116 0.000325538 0.000325356 0.000325568 0.000325711 0.000325302 0.000325189 0.000325535 0.000325389 0.000325562 0.000325676 0.000325344 0.000325247 0.000325531 0.000325425 0.000325557 0.000325655 0.000325383 0.000325306 0.000325532 0.000325449 0.000325555 0.000325631 0.000325413 0.00032536 0.000325532 0.000325472 0.000325549 0.000325602 0.000325441 0.000325402 0.000325527 0.000325488 0.000325545 0.000325584 0.000325467 0.000325437 0.000325527 0.000325506 0.000325533 0.000325563 0.000325485 0.000325468 0.00032553 0.000325518 0.000325535 0.000325552 0.000325502 0.000325494 0.000325526 0.000325527 0.000325533 0.000325541 0.000325518 0.000325511 0.000325519 0.000325539 0.000325527 0.000325534 0.000325532 0.000325525 0.000325203 0.000323763 0.000324432 0.000324432 0.000325299 0.000324617 0.000325446 0.000323816 0.000324975 0.000325657 0.000324545 0.000323659 0.000325638 0.000323774 0.000325385 0.000326276 0.000324052 0.00032311 0.000325881 0.000324074 0.000325762 0.000326712 0.000324154 0.000323193 0.000325862 0.000324257 0.000325806 0.000326775 0.000324247 0.000323299 0.00032583 0.000324383 0.000325801 0.000326756 0.000324339 0.000323427 0.000325802 0.000324484 0.000325787 0.000326705 0.000324427 0.000323562 0.000325781 0.000324569 0.000325768 0.000326638 0.000324511 0.000323705 0.000325765 0.000324646 0.000325754 0.000326564 0.000324591 0.000323846 0.000325744 0.000324721 0.000325735 0.000326483 0.000324668 0.000323981 0.000325726 0.000324792 0.000325723 0.000326413 0.000324741 0.000324112 0.000325712 0.000324858 0.000325705 0.000326337 0.00032481 0.000324238 0.000325697 0.000324922 0.000325692 0.000326266 0.000324875 0.000324358 0.000325682 0.000324981 0.00032568 0.000326199 0.000324938 0.000324471 0.000325666 0.000325039 0.000325668 0.000326136 0.000324993 0.000324578 0.000325654 0.000325093 0.000325656 0.000326071 0.000325049 0.000324683 0.00032564 0.000325142 0.000325644 0.000326012 0.000325102 0.000324777 0.000325628 0.000325191 0.000325633 0.000325959 0.000325153 0.000324869 0.000325621 0.000325234 0.000325626 0.000325911 0.000325195 0.000324951 0.000325608 0.000325278 0.000325619 0.000325863 0.000325238 0.000325028 0.000325595 0.000325317 0.000325605 0.000325816 0.000325281 0.000325097 0.000325584 0.00032535 0.000325594 0.000325778 0.000325318 0.000325166 0.000325583 0.000325381 0.000325585 0.000325737 0.000325351 0.000325227 0.000325565 0.000325407 0.000325578 0.000325701 0.00032538 0.000325279 0.000325564 0.000325431 0.000325571 0.000325671 0.000325405 0.00032533 0.000325559 0.000325453 0.000325565 0.00032564 0.00032543 0.000325372 0.000325551 0.000325474 0.000325557 0.000325615 0.000325457 0.000325409 0.000325542 0.000325485 0.000325548 0.000325596 0.000325467 0.000325434 0.000325537 0.000325495 0.000325541 0.000325574 0.000325488 0.00032547 0.000325536 0.000325504 0.000325538 0.000325557 0.000325499 0.000325488 0.000325532 0.000325517 0.000325537 0.000325548 0.00032551 0.000325504 0.000325527 0.00032553 0.00032553 0.000325536 0.000325522 0.000325517 0.0003258 0.000324506 0.000325756 0.000325756 0.000325285 0.000324591 0.00032592 0.000324413 0.000325725 0.000326422 0.00032489 0.000323944 0.000325974 0.000324408 0.000325781 0.000326732 0.000324664 0.000323645 0.000326041 0.000324411 0.000325884 0.00032691 0.000324532 0.000323511 0.000326109 0.000324539 0.00032598 0.000327009 0.000324595 0.000323601 0.000326081 0.000324637 0.000325973 0.000326974 0.000324665 0.000323719 0.00032604 0.000324719 0.000325945 0.000326898 0.000324734 0.000323847 0.000326004 0.00032479 0.000325917 0.000326809 0.000324803 0.000323974 0.000325965 0.000324851 0.000325884 0.000326716 0.000324861 0.000324102 0.000325931 0.000324907 0.000325859 0.000326622 0.000324916 0.000324219 0.000325897 0.000324964 0.000325831 0.000326531 0.000324967 0.000324333 0.000325864 0.000325013 0.000325803 0.00032644 0.000325019 0.000324442 0.000325835 0.000325062 0.000325779 0.000326358 0.000325067 0.000324546 0.000325806 0.000325108 0.00032576 0.000326283 0.00032511 0.000324641 0.00032578 0.000325154 0.000325737 0.000326208 0.000325152 0.000324733 0.000325757 0.000325194 0.000325715 0.000326134 0.000325192 0.00032482 0.000325727 0.000325231 0.000325697 0.00032607 0.000325227 0.000324898 0.000325709 0.000325267 0.000325677 0.000326007 0.000325262 0.000324977 0.000325686 0.0003253 0.000325662 0.000325946 0.000325294 0.000325048 0.000325667 0.000325334 0.000325645 0.000325892 0.000325324 0.000325108 0.000325646 0.00032536 0.000325627 0.000325844 0.000325349 0.00032517 0.000325629 0.000325386 0.000325615 0.000325795 0.000325376 0.000325222 0.000325615 0.000325406 0.000325603 0.000325757 0.000325403 0.000325276 0.000325604 0.000325432 0.00032559 0.000325717 0.000325419 0.00032532 0.000325588 0.000325444 0.000325581 0.000325681 0.000325436 0.000325363 0.000325575 0.000325463 0.000325571 0.000325644 0.000325457 0.000325396 0.000325563 0.000325479 0.00032556 0.000325622 0.000325473 0.00032543 0.000325558 0.000325488 0.000325553 0.000325595 0.000325482 0.000325455 0.00032555 0.000325499 0.000325549 0.000325577 0.000325496 0.000325477 0.00032554 0.000325507 0.000325539 0.000325557 0.000325504 0.000325491 0.00032554 0.000325511 0.000325536 0.00032555 0.000325507 0.000325504 0.000325538 0.000325519 0.000325534 0.000325537 0.000325515 0.000325515 0.000326418 0.000325179 0.000327087 0.000327087 0.00032523 0.000324518 0.000326402 0.000324905 0.000326493 0.00032721 0.000325106 0.000324125 0.000326369 0.000324841 0.000326255 0.000327242 0.000325038 0.000323975 0.00032635 0.000324827 0.00032617 0.00032724 0.000324986 0.000323921 0.000326345 0.000324837 0.000326146 0.000327218 0.000324967 0.000323942 0.000326334 0.000324898 0.00032614 0.000327171 0.000325005 0.000324038 0.00032628 0.000324956 0.000326103 0.000327075 0.00032505 0.000324147 0.000326225 0.000325008 0.000326059 0.000326966 0.000325094 0.00032426 0.000326169 0.000325053 0.000326018 0.000326855 0.000325133 0.000324368 0.000326113 0.000325096 0.000325975 0.000326743 0.000325168 0.000324468 0.000326062 0.000325135 0.000325936 0.000326638 0.0003252 0.000324567 0.000326018 0.000325169 0.0003259 0.000326534 0.000325228 0.000324656 0.000325967 0.000325203 0.000325865 0.000326439 0.000325259 0.000324742 0.000325928 0.000325239 0.000325831 0.00032635 0.000325283 0.000324821 0.000325889 0.000325268 0.0003258 0.000326264 0.00032531 0.000324894 0.00032585 0.000325295 0.000325769 0.000326187 0.000325336 0.000324967 0.000325812 0.000325324 0.000325744 0.000326114 0.000325354 0.000325029 0.000325783 0.000325347 0.000325714 0.00032604 0.000325378 0.000325091 0.000325749 0.000325372 0.000325691 0.000325978 0.000325396 0.000325148 0.000325718 0.00032539 0.000325666 0.000325915 0.000325412 0.0003252 0.000325696 0.000325409 0.000325649 0.000325861 0.000325427 0.000325253 0.000325671 0.000325428 0.000325632 0.000325806 0.000325442 0.000325294 0.000325644 0.000325443 0.000325612 0.00032576 0.000325455 0.000325333 0.000325623 0.000325454 0.000325595 0.000325717 0.000325468 0.000325373 0.000325605 0.000325471 0.00032558 0.000325674 0.000325479 0.0003254 0.000325591 0.000325483 0.00032557 0.000325649 0.000325487 0.000325428 0.000325574 0.000325488 0.000325558 0.000325617 0.000325491 0.000325453 0.000325563 0.000325498 0.000325552 0.00032559 0.000325503 0.000325471 0.00032555 0.000325506 0.00032554 0.000325572 0.000325507 0.000325489 0.000325542 0.000325508 0.000325538 0.000325556 0.000325509 0.000325499 0.000325538 0.000325506 0.000325529 0.000325539 0.00032551 0.000325508 0.000325539 0.000325503 0.000325531 0.000325533 0.000325507 0.000325511 0.000327157 0.000325766 0.000328526 0.000328526 0.000325107 0.000324364 0.000326905 0.000325346 0.000327277 0.000328027 0.000325262 0.000324244 0.000326775 0.000325226 0.000326744 0.000327771 0.000325346 0.000324247 0.000326696 0.00032518 0.000326503 0.00032761 0.000325362 0.000324271 0.000326638 0.000325161 0.000326381 0.000327478 0.00032536 0.000324317 0.000326581 0.000325169 0.00032631 0.00032736 0.000325362 0.000324384 0.000326516 0.0003252 0.000326255 0.000327239 0.000325376 0.000324472 0.000326443 0.000325229 0.000326202 0.00032711 0.000325394 0.000324566 0.00032637 0.00032526 0.000326146 0.000326977 0.00032541 0.000324653 0.000326297 0.000325286 0.000326092 0.000326852 0.000325423 0.000324735 0.000326228 0.000325312 0.000326042 0.000326731 0.000325436 0.00032481 0.000326162 0.000325331 0.00032599 0.000326618 0.000325448 0.000324884 0.0003261 0.000325354 0.000325943 0.000326508 0.000325455 0.000324948 0.000326046 0.000325372 0.000325902 0.00032641 0.000325468 0.000325014 0.000325993 0.000325387 0.000325863 0.000326318 0.000325475 0.000325067 0.000325942 0.000325404 0.000325818 0.000326227 0.000325484 0.000325126 0.000325895 0.000325419 0.000325785 0.000326143 0.000325486 0.000325169 0.000325847 0.000325428 0.000325745 0.000326063 0.000325496 0.000325218 0.000325811 0.000325444 0.000325716 0.000325995 0.000325501 0.000325263 0.000325764 0.000325453 0.000325688 0.000325926 0.000325504 0.0003253 0.000325733 0.000325464 0.000325661 0.000325866 0.000325511 0.00032534 0.000325702 0.000325473 0.000325638 0.000325809 0.000325512 0.000325372 0.00032567 0.000325487 0.000325616 0.000325756 0.000325519 0.000325403 0.000325647 0.000325494 0.000325593 0.000325708 0.000325522 0.000325433 0.000325623 0.000325496 0.000325585 0.000325674 0.000325521 0.000325453 0.000325595 0.000325503 0.000325566 0.000325634 0.000325523 0.000325469 0.00032558 0.000325508 0.00032555 0.000325604 0.000325524 0.000325487 0.000325561 0.000325513 0.000325542 0.000325579 0.000325524 0.000325498 0.000325552 0.000325514 0.000325532 0.000325559 0.000325524 0.000325508 0.000325542 0.000325517 0.000325529 0.000325544 0.000325521 0.000325517 0.000325538 0.000325507 0.000325522 0.000325526 0.000325517 0.000325514 0.000325537 0.000325493 0.000325527 0.000325529 0.0003255 0.000325503 0.000328193 0.000326217 0.000330167 0.000330167 0.000324865 0.000324092 0.000327467 0.000325764 0.000328083 0.000328866 0.000325401 0.000324369 0.000327216 0.000325605 0.000327279 0.000328321 0.00032564 0.000324541 0.000327077 0.000325531 0.000326891 0.000327998 0.000325725 0.000324646 0.00032697 0.000325485 0.000326674 0.000327759 0.000325742 0.000324721 0.000326871 0.000325466 0.000326544 0.00032757 0.000325736 0.000324789 0.000326772 0.000325461 0.000326448 0.000327399 0.00032572 0.000324849 0.000326675 0.00032547 0.000326371 0.000327245 0.00032571 0.000324912 0.00032658 0.000325476 0.000326293 0.000327094 0.000325697 0.000324976 0.000326487 0.000325491 0.000326226 0.000326949 0.000325694 0.000325036 0.000326397 0.000325497 0.000326158 0.000326819 0.000325682 0.000325088 0.000326318 0.000325504 0.000326094 0.00032669 0.000325676 0.000325136 0.000326241 0.000325509 0.000326035 0.000326576 0.000325664 0.00032518 0.00032617 0.000325513 0.000325977 0.000326463 0.000325656 0.000325223 0.000326099 0.00032552 0.000325927 0.00032636 0.00032565 0.000325265 0.000326035 0.000325516 0.000325876 0.000326261 0.000325639 0.000325295 0.000325977 0.000325522 0.000325826 0.000326171 0.000325632 0.000325334 0.000325921 0.00032552 0.000325785 0.000326083 0.000325622 0.000325363 0.000325864 0.000325523 0.000325742 0.000326001 0.000325617 0.000325392 0.000325816 0.000325526 0.000325704 0.00032593 0.000325602 0.000325417 0.000325773 0.000325526 0.000325672 0.000325856 0.000325597 0.00032544 0.000325728 0.000325528 0.000325643 0.0003258 0.000325593 0.000325464 0.000325694 0.000325527 0.000325614 0.000325742 0.000325581 0.000325483 0.000325657 0.000325527 0.000325592 0.000325691 0.000325581 0.000325499 0.000325625 0.000325534 0.00032557 0.000325652 0.000325572 0.000325509 0.000325598 0.000325531 0.000325552 0.000325614 0.00032556 0.000325518 0.000325574 0.000325527 0.000325538 0.00032558 0.000325558 0.000325529 0.000325553 0.000325528 0.000325524 0.000325553 0.000325546 0.000325531 0.000325542 0.000325524 0.000325518 0.000325533 0.000325544 0.000325532 0.00032553 0.000325522 0.000325513 0.000325525 0.000325535 0.000325528 0.000325527 0.000325516 0.000325509 0.000325516 0.000325532 0.000325527 0.000325527 0.000325497 0.000325513 0.000325518 0.000325507 0.000325503 0.000329479 0.000326244 0.000331866 0.000331866 0.000324304 0.000323535 0.000328195 0.000326053 0.000328968 0.00032975 0.000325448 0.000324518 0.000327742 0.000325939 0.000327908 0.000328847 0.000325881 0.000324921 0.0003275 0.000325851 0.000327374 0.000328341 0.000326038 0.000325109 0.000327332 0.000325787 0.000327061 0.000327995 0.000326083 0.00032521 0.000327183 0.000325746 0.000326849 0.000327726 0.000326071 0.000325259 0.000327048 0.000325719 0.000326695 0.000327511 0.000326041 0.000325298 0.000326923 0.000325699 0.000326576 0.000327322 0.000326002 0.000325325 0.000326799 0.000325687 0.000326474 0.000327152 0.000325972 0.000325351 0.000326691 0.000325679 0.000326378 0.000327001 0.000325939 0.000325381 0.000326583 0.000325672 0.0003263 0.000326859 0.00032591 0.000325403 0.000326483 0.000325661 0.000326219 0.000326727 0.000325884 0.000325423 0.000326392 0.000325652 0.000326139 0.000326601 0.000325856 0.000325445 0.000326302 0.000325645 0.000326069 0.000326481 0.000325837 0.000325468 0.000326215 0.000325638 0.000326005 0.000326375 0.00032581 0.000325481 0.000326139 0.000325629 0.000325937 0.000326266 0.000325787 0.0003255 0.000326061 0.000325619 0.000325883 0.00032617 0.000325769 0.000325516 0.000325991 0.000325613 0.000325819 0.000326073 0.000325749 0.000325526 0.000325922 0.000325607 0.000325771 0.000325994 0.000325729 0.00032554 0.000325861 0.000325596 0.000325721 0.00032591 0.000325708 0.000325552 0.000325805 0.00032559 0.000325683 0.000325839 0.00032569 0.000325558 0.000325753 0.000325587 0.00032564 0.000325773 0.000325672 0.000325567 0.000325709 0.000325574 0.000325607 0.000325712 0.000325654 0.000325575 0.000325663 0.000325577 0.000325579 0.000325658 0.000325642 0.000325577 0.000325627 0.000325569 0.000325549 0.000325614 0.000325624 0.000325578 0.000325591 0.000325564 0.000325529 0.000325576 0.00032561 0.000325581 0.000325564 0.000325558 0.000325517 0.000325546 0.000325595 0.000325574 0.00032554 0.00032555 0.000325501 0.000325522 0.000325579 0.00032557 0.000325525 0.000325539 0.000325492 0.000325501 0.000325562 0.000325562 0.000325512 0.000325537 0.000325491 0.000325491 0.000325554 0.000325553 0.000325516 0.000325522 0.000325494 0.000325495 0.00032554 0.000325537 0.000325517 0.000325506 0.000325506 0.000325509 0.00032552 0.000325518 0.000324002 0.000320686 0.000321374 0.000321374 0.000324141 0.000323191 0.000325614 0.000323032 0.000324784 0.000325726 0.00032371 0.000322976 0.000325267 0.000323478 0.000325143 0.000325883 0.000323563 0.000322818 0.000325227 0.000323635 0.000325321 0.000326071 0.000323537 0.000322771 0.000325247 0.000323736 0.000325397 0.000326168 0.00032358 0.00032281 0.000325281 0.000323827 0.000325432 0.000326208 0.000323663 0.000322914 0.000325317 0.000323928 0.000325456 0.00032621 0.000323765 0.000323053 0.000325343 0.000324039 0.000325471 0.000326188 0.000323881 0.000323211 0.000325368 0.000324147 0.000325481 0.000326156 0.000324003 0.000323379 0.000325385 0.000324259 0.000325491 0.000326119 0.000324117 0.000323548 0.000325402 0.00032437 0.0003255 0.000326073 0.000324235 0.000323708 0.000325413 0.000324477 0.00032551 0.000326039 0.000324351 0.000323875 0.000325426 0.000324582 0.000325516 0.000325994 0.00032446 0.000324029 0.000325437 0.000324682 0.000325521 0.000325955 0.000324561 0.000324175 0.000325445 0.000324769 0.000325528 0.000325916 0.00032466 0.000324315 0.000325456 0.000324861 0.000325532 0.000325879 0.000324753 0.00032445 0.00032546 0.000324943 0.000325536 0.00032584 0.000324839 0.000324571 0.000325473 0.000325016 0.000325539 0.000325808 0.00032492 0.000324686 0.000325475 0.000325088 0.000325542 0.000325775 0.000324999 0.0003248 0.00032548 0.000325152 0.000325546 0.000325746 0.000325069 0.000324899 0.000325486 0.000325217 0.000325544 0.000325714 0.00032514 0.000324997 0.000325493 0.000325272 0.000325543 0.000325686 0.0003252 0.000325081 0.000325497 0.00032532 0.000325542 0.000325661 0.000325255 0.000325158 0.000325497 0.000325368 0.000325537 0.000325634 0.000325309 0.000325233 0.0003255 0.000325402 0.000325536 0.000325611 0.000325359 0.0003253 0.000325502 0.000325434 0.000325531 0.00032559 0.000325394 0.000325352 0.000325508 0.000325466 0.000325535 0.000325577 0.000325433 0.000325406 0.00032551 0.000325491 0.000325524 0.000325552 0.000325463 0.00032545 0.000325509 0.000325513 0.000325526 0.000325539 0.00032549 0.000325483 0.000325513 0.00032552 0.000325514 0.000325521 0.000325508 0.000325507 0.000325508 0.000325526 0.00032552 0.000325521 0.000325519 0.000325517 0.000325511 0.000325524 0.000325514 0.000325515 0.000325524 0.000325522 0.000324788 0.000322968 0.000323045 0.000323045 0.000325638 0.000324705 0.000325068 0.00032295 0.000324392 0.000325325 0.000323777 0.000322811 0.000325658 0.000323712 0.000325483 0.000326457 0.000323837 0.000322894 0.000325581 0.000323979 0.000325594 0.000326546 0.000323886 0.000322956 0.00032555 0.000324106 0.000325617 0.000326554 0.000323956 0.000323043 0.000325543 0.000324192 0.000325622 0.000326541 0.000324041 0.000323161 0.000325542 0.000324271 0.000325613 0.000326499 0.000324132 0.000323298 0.000325548 0.000324353 0.000325611 0.00032645 0.000324225 0.000323445 0.000325552 0.000324436 0.000325607 0.00032639 0.000324322 0.000323599 0.000325551 0.000324519 0.000325603 0.00032633 0.000324413 0.000323743 0.000325553 0.000324604 0.000325601 0.000326273 0.000324505 0.000323897 0.000325555 0.000324692 0.000325601 0.000326211 0.000324596 0.000324039 0.000325551 0.00032477 0.000325598 0.000326157 0.00032468 0.000324173 0.000325551 0.000324846 0.000325595 0.000326104 0.000324761 0.000324309 0.000325549 0.000324921 0.000325593 0.000326046 0.000324838 0.000324432 0.000325548 0.000324987 0.00032559 0.000325997 0.000324911 0.000324547 0.000325547 0.000325051 0.000325586 0.00032595 0.000324976 0.000324658 0.000325544 0.000325112 0.000325583 0.000325901 0.000325046 0.000324766 0.000325543 0.000325168 0.000325581 0.000325861 0.000325102 0.00032486 0.000325544 0.000325223 0.000325576 0.000325818 0.000325157 0.000324949 0.000325542 0.00032527 0.000325574 0.000325782 0.000325212 0.000325034 0.000325536 0.00032531 0.000325571 0.000325749 0.00032526 0.000325112 0.000325537 0.000325348 0.000325563 0.000325711 0.000325302 0.000325183 0.000325532 0.000325382 0.000325556 0.000325676 0.000325342 0.000325245 0.000325534 0.000325414 0.000325557 0.000325654 0.000325378 0.000325304 0.000325534 0.000325442 0.00032555 0.000325624 0.000325413 0.000325352 0.000325529 0.000325469 0.000325542 0.000325603 0.000325442 0.000325398 0.000325529 0.000325483 0.000325543 0.000325586 0.000325468 0.000325433 0.000325524 0.000325504 0.000325533 0.000325568 0.000325487 0.000325466 0.000325523 0.000325504 0.00032553 0.00032555 0.000325503 0.000325488 0.000325521 0.000325521 0.000325524 0.000325539 0.000325509 0.000325507 0.00032552 0.000325531 0.000325524 0.000325527 0.000325529 0.000325525 0.000325334 0.00032375 0.000324425 0.000324425 0.000325519 0.000324672 0.000325483 0.000323965 0.000325008 0.000325856 0.000324653 0.000323646 0.000325631 0.000323975 0.000325444 0.000326455 0.000324151 0.000323134 0.000325846 0.000324222 0.000325777 0.000326802 0.00032421 0.000323215 0.000325834 0.00032435 0.000325811 0.000326814 0.000324283 0.000323323 0.000325808 0.000324441 0.0003258 0.000326767 0.000324362 0.000323441 0.000325788 0.000324508 0.00032578 0.000326706 0.000324437 0.000323572 0.00032577 0.00032458 0.000325761 0.000326631 0.000324516 0.000323705 0.000325753 0.000324645 0.000325744 0.000326559 0.00032459 0.000323839 0.000325733 0.000324715 0.000325728 0.000326483 0.000324663 0.000323974 0.00032572 0.000324783 0.000325716 0.000326407 0.000324735 0.000324103 0.000325705 0.000324851 0.000325704 0.000326339 0.000324805 0.000324229 0.00032569 0.000324918 0.00032569 0.000326267 0.000324871 0.000324348 0.000325676 0.000324976 0.000325677 0.000326201 0.000324931 0.00032446 0.000325664 0.000325034 0.000325666 0.000326138 0.00032499 0.000324568 0.000325649 0.00032509 0.000325655 0.000326077 0.000325049 0.000324672 0.000325637 0.00032514 0.000325645 0.000326022 0.0003251 0.000324768 0.000325623 0.000325184 0.000325631 0.000325963 0.000325145 0.000324856 0.000325615 0.000325229 0.000325624 0.000325914 0.000325191 0.000324939 0.000325604 0.000325271 0.000325613 0.000325865 0.000325238 0.000325019 0.000325595 0.000325312 0.000325607 0.000325826 0.00032528 0.000325097 0.000325585 0.000325347 0.000325598 0.000325781 0.000325312 0.000325157 0.000325576 0.000325376 0.000325585 0.00032574 0.00032535 0.00032522 0.000325569 0.000325403 0.00032558 0.000325709 0.000325379 0.000325275 0.000325563 0.000325429 0.00032557 0.000325674 0.000325405 0.000325323 0.000325552 0.000325448 0.000325561 0.000325644 0.000325432 0.000325366 0.000325552 0.000325466 0.000325557 0.000325624 0.000325453 0.00032541 0.000325546 0.000325483 0.000325552 0.000325595 0.00032547 0.000325436 0.00032554 0.000325495 0.00032554 0.000325575 0.000325486 0.00032546 0.000325537 0.000325504 0.000325538 0.000325564 0.000325497 0.000325485 0.000325534 0.000325511 0.000325533 0.000325545 0.000325507 0.000325502 0.000325531 0.000325528 0.000325529 0.000325534 0.000325523 0.000325526 0.000325814 0.000324444 0.000325737 0.000325737 0.000325374 0.000324573 0.000325932 0.000324435 0.000325668 0.000326472 0.00032492 0.000323931 0.000325974 0.000324494 0.000325775 0.00032677 0.000324686 0.000323656 0.000326035 0.000324491 0.000325889 0.000326926 0.000324561 0.000323542 0.000326091 0.000324587 0.000325977 0.000327004 0.00032461 0.000323627 0.00032607 0.00032466 0.000325969 0.000326958 0.000324667 0.000323739 0.000326033 0.000324725 0.000325943 0.000326876 0.000324732 0.000323859 0.000325996 0.000324783 0.000325918 0.000326795 0.00032479 0.000323981 0.000325962 0.000324841 0.000325889 0.000326701 0.000324849 0.0003241 0.000325925 0.000324899 0.000325862 0.000326614 0.000324902 0.000324214 0.00032589 0.000324951 0.000325834 0.000326525 0.000324954 0.000324327 0.000325858 0.000325003 0.000325809 0.000326438 0.000325003 0.000324433 0.000325827 0.00032505 0.000325782 0.000326354 0.00032505 0.000324532 0.000325805 0.000325096 0.00032576 0.000326279 0.000325094 0.000324631 0.000325776 0.000325143 0.000325739 0.000326203 0.00032514 0.000324724 0.000325748 0.000325184 0.000325716 0.000326133 0.000325178 0.000324809 0.00032573 0.000325226 0.000325701 0.000326071 0.000325218 0.000324891 0.000325703 0.000325258 0.000325684 0.000326012 0.00032525 0.000324963 0.000325682 0.000325294 0.000325661 0.000325949 0.000325284 0.000325035 0.000325661 0.000325324 0.000325649 0.000325898 0.000325316 0.000325104 0.000325645 0.000325358 0.000325634 0.000325846 0.000325345 0.000325161 0.000325629 0.000325387 0.000325618 0.000325802 0.000325374 0.00032522 0.000325616 0.0003254 0.000325606 0.00032576 0.000325392 0.000325265 0.000325601 0.000325428 0.000325595 0.000325721 0.000325417 0.000325317 0.000325589 0.000325444 0.000325587 0.000325688 0.000325436 0.000325351 0.000325573 0.000325462 0.000325572 0.000325656 0.000325453 0.000325392 0.000325566 0.000325478 0.000325562 0.000325623 0.000325473 0.000325423 0.000325557 0.00032549 0.000325555 0.000325605 0.000325484 0.000325451 0.000325548 0.000325493 0.000325549 0.000325583 0.000325493 0.00032547 0.000325541 0.000325506 0.00032554 0.000325563 0.000325505 0.00032549 0.00032554 0.000325508 0.000325537 0.000325552 0.000325509 0.000325502 0.000325536 0.000325513 0.000325533 0.00032554 0.000325516 0.000325518 0.000326321 0.0003251 0.000327063 0.000327063 0.000325195 0.000324426 0.000326405 0.000324805 0.000326363 0.000327137 0.00032508 0.00032411 0.000326379 0.000324812 0.000326178 0.000327154 0.000325015 0.000323986 0.000326354 0.000324818 0.000326135 0.00032717 0.000324965 0.000323948 0.000326342 0.000324827 0.000326134 0.000327157 0.000324939 0.000323967 0.000326328 0.000324877 0.000326139 0.000327117 0.000324977 0.00032406 0.000326276 0.000324928 0.000326107 0.000327029 0.000325017 0.000324161 0.000326222 0.000324983 0.000326073 0.000326932 0.00032506 0.000324268 0.000326167 0.000325028 0.000326032 0.000326826 0.000325099 0.000324367 0.000326112 0.000325073 0.00032599 0.000326724 0.000325134 0.000324469 0.000326062 0.000325113 0.00032595 0.000326617 0.000325168 0.00032456 0.000326012 0.000325151 0.000325908 0.000326517 0.000325199 0.000324648 0.000325968 0.000325187 0.000325876 0.000326428 0.000325231 0.000324733 0.000325923 0.000325219 0.000325842 0.00032634 0.000325264 0.000324813 0.000325886 0.000325253 0.000325808 0.000326259 0.000325289 0.000324891 0.000325847 0.000325279 0.000325777 0.000326175 0.000325311 0.000324955 0.000325814 0.00032531 0.00032575 0.000326105 0.000325338 0.000325024 0.000325775 0.000325339 0.000325725 0.000326039 0.000325357 0.000325082 0.000325749 0.000325359 0.0003257 0.000325976 0.000325379 0.000325142 0.000325719 0.000325386 0.000325681 0.000325918 0.000325398 0.000325194 0.000325694 0.000325404 0.000325657 0.000325861 0.000325415 0.000325242 0.000325666 0.00032542 0.000325637 0.000325811 0.00032543 0.000325288 0.000325647 0.000325437 0.000325619 0.000325761 0.000325447 0.000325331 0.000325624 0.000325454 0.000325604 0.000325721 0.000325461 0.000325361 0.000325602 0.000325469 0.000325587 0.000325687 0.00032547 0.000325399 0.000325592 0.000325481 0.000325581 0.000325653 0.000325481 0.000325425 0.000325576 0.000325488 0.000325568 0.000325624 0.000325492 0.000325447 0.00032556 0.0003255 0.000325556 0.0003256 0.000325503 0.000325468 0.00032555 0.000325506 0.000325546 0.000325581 0.000325505 0.000325484 0.000325547 0.00032551 0.00032554 0.00032556 0.00032551 0.000325499 0.000325538 0.000325513 0.000325536 0.000325546 0.000325516 0.000325504 0.00032554 0.00032551 0.000325529 0.00032554 0.000325513 0.000325509 0.000326928 0.000325667 0.000328467 0.000328467 0.000324946 0.00032419 0.000326887 0.000325133 0.000327077 0.00032784 0.000325187 0.000324219 0.000326795 0.000325062 0.000326608 0.000327583 0.000325269 0.000324259 0.000326717 0.000325067 0.000326429 0.000327445 0.000325287 0.000324294 0.000326649 0.000325079 0.000326352 0.00032735 0.000325287 0.000324338 0.000326588 0.000325106 0.000326313 0.000327267 0.000325292 0.000324401 0.000326519 0.000325143 0.000326272 0.000327166 0.000325309 0.000324484 0.000326446 0.000325182 0.000326222 0.00032705 0.000325329 0.000324568 0.00032637 0.000325217 0.000326168 0.000326932 0.000325349 0.000324656 0.000326298 0.000325247 0.000326116 0.000326812 0.000325368 0.000324734 0.000326227 0.000325275 0.000326064 0.000326699 0.000325385 0.00032481 0.000326164 0.000325297 0.00032601 0.000326586 0.000325399 0.000324879 0.000326099 0.000325323 0.000325963 0.000326485 0.000325413 0.000324946 0.000326045 0.000325348 0.000325923 0.000326391 0.000325428 0.000325007 0.000325992 0.000325366 0.000325873 0.000326295 0.000325442 0.000325062 0.000325938 0.00032538 0.000325832 0.000326212 0.00032545 0.000325115 0.000325893 0.000325399 0.000325797 0.000326132 0.000325463 0.000325169 0.000325846 0.000325417 0.000325762 0.000326055 0.000325466 0.000325212 0.00032581 0.000325432 0.00032573 0.000325985 0.00032548 0.00032526 0.00032577 0.000325446 0.000325706 0.000325926 0.000325483 0.000325297 0.000325736 0.000325457 0.000325675 0.000325862 0.000325494 0.000325335 0.0003257 0.000325467 0.000325649 0.000325809 0.000325495 0.000325364 0.000325668 0.000325478 0.000325627 0.000325758 0.000325506 0.000325399 0.000325641 0.000325489 0.000325606 0.000325713 0.000325509 0.000325427 0.000325621 0.000325496 0.000325591 0.000325673 0.000325511 0.000325443 0.000325597 0.000325506 0.000325576 0.000325644 0.000325516 0.000325466 0.000325578 0.000325507 0.000325564 0.000325614 0.000325516 0.000325483 0.000325565 0.000325513 0.000325555 0.000325588 0.000325517 0.000325499 0.000325552 0.000325515 0.000325545 0.000325563 0.000325519 0.000325507 0.00032554 0.000325516 0.000325537 0.000325549 0.000325524 0.000325512 0.000325534 0.000325512 0.000325527 0.000325538 0.000325515 0.000325515 0.000325537 0.000325499 0.000325528 0.000325527 0.00032551 0.0003255 0.000327723 0.000326098 0.000330004 0.000330004 0.000324588 0.00032381 0.000327365 0.000325434 0.000327802 0.000328589 0.000325258 0.000324281 0.0003272 0.000325315 0.000327056 0.000328041 0.000325506 0.000324496 0.000327073 0.000325305 0.00032674 0.000327756 0.000325593 0.000324613 0.000326959 0.000325319 0.000326587 0.000327572 0.000325615 0.00032469 0.000326856 0.000325343 0.000326495 0.000327424 0.000325615 0.000324757 0.000326759 0.000325363 0.000326429 0.00032729 0.000325609 0.000324823 0.000326662 0.000325388 0.000326367 0.000327154 0.000325609 0.00032489 0.000326568 0.000325407 0.000326299 0.000327019 0.000325606 0.000324951 0.000326472 0.00032543 0.000326232 0.000326889 0.000325609 0.000325016 0.000326389 0.000325443 0.000326167 0.000326761 0.000325605 0.000325069 0.000326302 0.000325451 0.000326106 0.000326642 0.000325604 0.000325118 0.000326231 0.000325465 0.000326044 0.000326531 0.0003256 0.000325164 0.00032616 0.000325477 0.000325989 0.000326425 0.000325597 0.00032521 0.000326094 0.00032548 0.000325938 0.000326325 0.000325598 0.000325254 0.000326033 0.000325488 0.000325887 0.00032623 0.000325594 0.000325288 0.000325968 0.000325496 0.00032584 0.000326147 0.000325592 0.00032532 0.000325914 0.0003255 0.000325795 0.000326067 0.000325584 0.000325352 0.000325863 0.000325505 0.000325755 0.000325987 0.000325585 0.000325386 0.000325813 0.000325515 0.000325719 0.000325918 0.000325579 0.000325409 0.000325767 0.000325516 0.000325686 0.000325856 0.000325578 0.000325437 0.000325729 0.00032552 0.000325654 0.000325795 0.00032557 0.000325458 0.000325688 0.000325524 0.000325628 0.000325741 0.000325564 0.000325474 0.000325655 0.000325527 0.000325603 0.000325693 0.000325562 0.000325492 0.00032562 0.000325529 0.000325583 0.000325654 0.000325559 0.000325502 0.000325599 0.000325529 0.000325565 0.000325621 0.00032555 0.000325516 0.000325576 0.000325533 0.000325552 0.000325587 0.000325548 0.000325524 0.000325555 0.000325533 0.000325542 0.000325566 0.000325542 0.00032553 0.000325541 0.00032553 0.000325533 0.000325546 0.000325537 0.000325533 0.000325534 0.000325527 0.000325528 0.000325532 0.00032553 0.000325531 0.000325528 0.000325521 0.000325522 0.000325522 0.000325529 0.000325528 0.000325529 0.000325498 0.000325523 0.000325524 0.000325507 0.000325509 0.000328815 0.000326294 0.000331654 0.000331654 0.000324055 0.000323253 0.000328085 0.000325766 0.000328615 0.000329429 0.000325343 0.00032441 0.000327752 0.000325635 0.000327625 0.000328566 0.000325784 0.000324855 0.000327538 0.000325603 0.000327191 0.000328125 0.000325936 0.000325054 0.000327367 0.000325606 0.000326954 0.00032784 0.000325977 0.000325163 0.000327205 0.000325613 0.000326805 0.000327621 0.000325973 0.000325228 0.000327065 0.000325619 0.000326691 0.000327437 0.000325947 0.000325274 0.000326933 0.000325627 0.000326592 0.000327266 0.00032592 0.000325312 0.000326807 0.000325628 0.000326501 0.00032711 0.000325895 0.000325343 0.000326694 0.000325632 0.000326413 0.000326966 0.00032587 0.000325372 0.000326586 0.00032563 0.000326331 0.00032683 0.00032585 0.0003254 0.000326481 0.000325627 0.00032625 0.000326701 0.000325822 0.000325416 0.000326389 0.000325618 0.000326172 0.000326577 0.000325803 0.00032544 0.000326297 0.000325618 0.000326099 0.000326462 0.000325788 0.000325462 0.000326211 0.000325614 0.000326031 0.000326357 0.000325769 0.000325474 0.000326134 0.000325604 0.00032596 0.000326255 0.00032575 0.000325497 0.000326061 0.0003256 0.000325901 0.000326154 0.000325727 0.000325509 0.000325982 0.000325594 0.000325846 0.000326063 0.000325713 0.000325522 0.000325927 0.000325593 0.000325797 0.000325987 0.000325701 0.00032554 0.000325858 0.000325584 0.000325749 0.000325911 0.000325678 0.000325545 0.000325807 0.000325583 0.000325702 0.000325835 0.000325664 0.000325557 0.000325752 0.000325578 0.000325663 0.000325769 0.000325653 0.000325566 0.000325703 0.000325575 0.000325627 0.000325714 0.000325635 0.000325565 0.000325655 0.00032557 0.000325595 0.000325665 0.000325623 0.000325574 0.000325621 0.000325566 0.000325569 0.000325617 0.000325603 0.000325576 0.000325589 0.000325561 0.000325554 0.00032558 0.000325596 0.000325578 0.000325562 0.000325557 0.000325533 0.000325551 0.000325581 0.000325575 0.000325538 0.000325552 0.000325518 0.000325525 0.000325565 0.000325566 0.000325522 0.000325549 0.000325509 0.000325508 0.000325557 0.00032556 0.000325512 0.000325543 0.000325505 0.000325503 0.000325548 0.000325558 0.000325509 0.000325528 0.000325506 0.000325497 0.000325533 0.000325536 0.00032552 0.000325507 0.000325509 0.000325507 0.000325513 0.000325517 
SCALARS volume_diff float 1
LOOKUP_TABLE default
-2.94356e-06 -4.67825e-06 -4.16732e-06 -4.16732e-06 -2.56329e-06 -3.52605e-06 5.41331e-08 -2.2303e-06 -4.80834e-07 5.19562e-07 -1.70985e-06 -2.71772e-06 1.76524e-07 -2.11872e-06 -4.78351e-07 5.41448e-07 -1.57815e-06 -2.54624e-06 1.54406e-07 -2.00793e-06 -3.66049e-07 6.09085e-07 -1.55874e-06 -2.4642e-06 1.14824e-07 -1.87173e-06 -2.53572e-07 6.57747e-07 -1.55674e-06 -2.38314e-06 8.35862e-08 -1.72875e-06 -1.57122e-07 6.74588e-07 -1.52937e-06 -2.28516e-06 5.55301e-08 -1.58932e-06 -8.57593e-08 6.74898e-07 -1.49004e-06 -2.17522e-06 3.13157e-08 -1.45828e-06 -3.40903e-08 6.55457e-07 -1.42877e-06 -2.05458e-06 1.494e-08 -1.32539e-06 2.79397e-09 6.32484e-07 -1.35333e-06 -1.91839e-06 9.27442e-09 -1.2069e-06 3.5041e-08 6.03497e-07 -1.26897e-06 -1.77425e-06 1.74623e-09 -1.09151e-06 5.42107e-08 5.62325e-07 -1.18177e-06 -1.63917e-06 -5.10287e-09 -9.85417e-07 6.20494e-08 5.21851e-07 -1.09015e-06 -1.50106e-06 -7.5864e-09 -8.8821e-07 7.41178e-08 4.87043e-07 -1.00123e-06 -1.36188e-06 -3.84171e-09 -7.91682e-07 8.184e-08 4.44163e-07 -9.12948e-07 -1.23616e-06 -5.91778e-09 -7.02489e-07 8.49832e-08 4.09549e-07 -8.24279e-07 -1.11357e-06 -1.17968e-08 -6.1803e-07 8.37414e-08 3.7412e-07 -7.37064e-07 -9.92344e-07 -8.69234e-09 -5.33784e-07 8.48668e-08 3.41019e-07 -6.63548e-07 -8.77267e-07 -9.35203e-09 -4.64245e-07 8.50996e-08 2.99498e-07 -5.87994e-07 -7.74278e-07 -1.364e-08 -3.94861e-07 8.04818e-08 2.6729e-07 -5.19251e-07 -6.76761e-07 -5.80136e-09 -3.33821e-07 8.01714e-08 2.38069e-07 -4.48839e-07 -5.78157e-07 -1.234e-08 -2.77592e-07 7.48162e-08 2.04387e-07 -3.88963e-07 -4.93989e-07 -1.43773e-08 -2.24623e-07 7.01984e-08 1.75399e-07 -3.34015e-07 -4.1698e-07 -1.58131e-08 -1.75904e-07 6.78313e-08 1.50913e-07 -2.76816e-07 -3.34946e-07 -9.60426e-09 -1.34033e-07 6.64343e-08 1.24603e-07 -2.26214e-07 -2.72024e-07 -1.57549e-08 -9.47427e-08 5.26585e-08 9.84874e-08 -1.85353e-07 -2.07374e-07 -1.45325e-08 -6.61239e-08 5.3551e-08 7.55535e-08 -1.43404e-07 -1.5879e-07 -1.95384e-08 -3.80872e-08 4.24528e-08 5.78584e-08 -1.11351e-07 -1.13738e-07 -1.59683e-08 -1.74623e-08 3.67096e-08 3.90379e-08 -7.10133e-08 -7.16148e-08 -1.36788e-08 5.27749e-09 2.50293e-08 2.56502e-08 -4.92825e-08 -4.13856e-08 -8.05206e-09 1.57549e-08 2.29338e-08 1.50176e-08 -1.83354e-08 -1.45325e-08 -9.93411e-09 1.68414e-08 1.17968e-08 7.95505e-09 -7.68341e-09 -2.17309e-09 -1.28833e-08 1.13311e-08 2.05667e-09 -3.47306e-09 -7.93565e-09 8.76995e-09 -1.56301e-06 -2.34445e-06 -2.21631e-06 -2.21631e-06 -1.11415e-06 -2.33234e-06 -3.58947e-08 -1.72518e-06 -3.50662e-07 8.46378e-07 -1.19205e-06 -2.34913e-06 4.52429e-07 -1.7707e-06 -1.06442e-07 1.05375e-06 -1.12007e-06 -2.18184e-06 4.23907e-07 -1.63752e-06 -3.74663e-08 1.02896e-06 -1.11978e-06 -2.09584e-06 3.65583e-07 -1.49735e-06 2.85994e-08 1.01014e-06 -1.13028e-06 -2.03048e-06 3.16068e-07 -1.36392e-06 8.17624e-08 9.87745e-07 -1.12358e-06 -1.95401e-06 2.76564e-07 -1.24271e-06 1.22508e-07 9.58603e-07 -1.10125e-06 -1.86783e-06 2.48702e-07 -1.13453e-06 1.4517e-07 9.17003e-07 -1.06862e-06 -1.77021e-06 2.2344e-07 -1.0326e-06 1.65931e-07 8.72261e-07 -1.0199e-06 -1.66233e-06 2.00622e-07 -9.35805e-07 1.75554e-07 8.22086e-07 -9.60931e-07 -1.54708e-06 1.83703e-07 -8.47018e-07 1.80211e-07 7.69971e-07 -8.98823e-07 -1.43462e-06 1.65038e-07 -7.66828e-07 1.78115e-07 7.17002e-07 -8.33379e-07 -1.31563e-06 1.52815e-07 -6.86113e-07 1.75089e-07 6.59881e-07 -7.67274e-07 -1.20395e-06 1.33102e-07 -6.1834e-07 1.65426e-07 6.04273e-07 -7.03517e-07 -1.09213e-06 1.24681e-07 -5.45445e-07 1.60304e-07 5.50644e-07 -6.35977e-07 -9.78995e-07 1.05822e-07 -4.82639e-07 1.51379e-07 4.95813e-07 -5.77808e-07 -8.80197e-07 9.73232e-08 -4.22006e-07 1.44277e-07 4.47772e-07 -5.15274e-07 -7.83378e-07 8.58757e-08 -3.68435e-07 1.32985e-07 4.01943e-07 -4.62712e-07 -6.94223e-07 7.90848e-08 -3.13992e-07 1.23012e-07 3.55183e-07 -4.07939e-07 -6.02993e-07 6.80254e-08 -2.70084e-07 1.15251e-07 3.10829e-07 -3.5592e-07 -5.21191e-07 5.85957e-08 -2.19889e-07 1.09392e-07 2.75051e-07 -3.06987e-07 -4.46414e-07 4.96705e-08 -1.85139e-07 9.61203e-08 2.35741e-07 -2.69657e-07 -3.74586e-07 4.12886e-08 -1.44297e-07 9.40248e-08 1.9907e-07 -2.27883e-07 -3.14612e-07 3.6244e-08 -1.16144e-07 7.96669e-08 1.66513e-07 -1.92163e-07 -2.5817e-07 2.3089e-08 -9.05517e-08 6.72881e-08 1.33412e-07 -1.58946e-07 -2.06366e-07 2.20025e-08 -6.13121e-08 5.91002e-08 1.06559e-07 -1.29376e-07 -1.61138e-07 1.78504e-08 -3.85917e-08 5.41719e-08 8.59533e-08 -1.00544e-07 -1.20276e-07 1.14087e-08 -2.50487e-08 4.58288e-08 6.55418e-08 -7.77072e-08 -8.38578e-08 1.05162e-08 -1.36788e-08 3.85723e-08 4.47423e-08 -5.23869e-08 -6.16419e-08 5.19988e-09 -1.39698e-09 2.56502e-08 3.48858e-08 -3.24411e-08 -3.08307e-08 4.30737e-09 7.48939e-09 2.21965e-08 2.06443e-08 -1.42415e-08 -1.17774e-08 -3.10441e-10 1.82772e-08 1.21848e-08 9.74008e-09 3.29843e-09 8.57593e-09 -5.11277e-07 -1.4399e-06 -7.30778e-07 -7.30778e-07 -7.83359e-07 -2.00566e-06 2.19521e-07 -1.07585e-06 2.28174e-08 1.22453e-06 -7.68089e-07 -1.7927e-06 5.04816e-07 -1.40744e-06 1.67483e-07 1.18813e-06 -8.53712e-07 -1.84988e-06 5.98181e-07 -1.3263e-06 2.63448e-07 1.26307e-06 -8.67934e-07 -1.81282e-06 5.6477e-07 -1.20323e-06 2.91853e-07 1.24188e-06 -8.67546e-07 -1.75987e-06 5.16535e-07 -1.09397e-06 3.06017e-07 1.20393e-06 -8.59824e-07 -1.69602e-06 4.74237e-07 -9.91432e-07 3.13312e-07 1.15503e-06 -8.3689e-07 -1.61583e-06 4.35432e-07 -9.08971e-07 3.10014e-07 1.09423e-06 -8.04604e-07 -1.52879e-06 3.99848e-07 -8.27189e-07 3.02098e-07 1.03101e-06 -7.6869e-07 -1.43701e-06 3.68765e-07 -7.50122e-07 2.93289e-07 9.65782e-07 -7.24006e-07 -1.33561e-06 3.39351e-07 -6.81495e-07 2.81647e-07 8.96902e-07 -6.77033e-07 -1.23612e-06 3.12265e-07 -6.14576e-07 2.67833e-07 8.29964e-07 -6.26819e-07 -1.1359e-06 2.82501e-07 -5.56252e-07 2.50759e-07 7.62443e-07 -5.77711e-07 -1.03771e-06 2.57355e-07 -4.96822e-07 2.33102e-07 6.95194e-07 -5.28506e-07 -9.42382e-07 2.31046e-07 -4.45599e-07 2.14243e-07 6.29885e-07 -4.80621e-07 -8.48415e-07 2.09392e-07 -3.9362e-07 2.0167e-07 5.70862e-07 -4.38672e-07 -7.63529e-07 1.90455e-07 -3.45074e-07 1.82888e-07 5.0889e-07 -3.91641e-07 -6.76683e-07 1.69928e-07 -3.02796e-07 1.68957e-07 4.54873e-07 -3.49576e-07 -5.95329e-07 1.46101e-07 -2.64437e-07 1.51806e-07 3.98257e-07 -3.08093e-07 -5.2515e-07 1.32131e-07 -2.24022e-07 1.3411e-07 3.51691e-07 -2.71054e-07 -4.54272e-07 1.12302e-07 -1.87642e-07 1.2503e-07 3.08617e-07 -2.38283e-07 -3.9329e-07 9.58486e-08 -1.58674e-07 1.06365e-07 2.61624e-07 -2.04949e-07 -3.32346e-07 8.70011e-08 -1.23691e-07 9.84874e-08 2.2604e-07 -1.7633e-07 -2.75516e-07 7.06641e-08 -1.05104e-07 8.46339e-08 1.83897e-07 -1.48468e-07 -2.24759e-07 5.68495e-08 -8.3237e-08 7.41178e-08 1.50447e-07 -1.27417e-07 -1.91755e-07 4.76915e-08 -6.17971e-08 5.89062e-08 1.23323e-07 -9.8856e-08 -1.42764e-07 3.89215e-08 -4.23558e-08 5.58017e-08 9.96903e-08 -7.86385e-08 -1.13136e-07 3.31784e-08 -2.83277e-08 4.19871e-08 7.64849e-08 -6.27091e-08 -8.44981e-08 2.7086e-08 -1.95384e-08 3.51962e-08 5.69271e-08 -4.75945e-08 -5.71987e-08 1.57549e-08 -1.01087e-08 2.78621e-08 3.74469e-08 -3.05396e-08 -3.55261e-08 1.20684e-08 -1.94026e-09 1.88981e-08 2.38651e-08 -1.98294e-08 -1.98294e-08 9.23562e-09 9.46845e-09 1.06714e-08 1.06326e-08 -3.0268e-09 3.8029e-09 4.61858e-07 -6.96882e-07 6.53866e-07 6.53866e-07 -4.75149e-07 -1.72027e-06 5.87936e-07 -7.26276e-07 4.78971e-07 1.70847e-06 -5.35705e-07 -1.55077e-06 6.73618e-07 -9.20574e-07 5.2546e-07 1.53688e-06 -5.87994e-07 -1.54099e-06 7.23444e-07 -9.50686e-07 5.46997e-07 1.50218e-06 -6.18747e-07 -1.5484e-06 7.31864e-07 -8.85765e-07 5.46997e-07 1.48146e-06 -6.13936e-07 -1.50544e-06 7.02722e-07 -8.06933e-07 5.27517e-07 1.42454e-06 -5.96318e-07 -1.44663e-06 6.58639e-07 -7.33785e-07 4.99383e-07 1.35523e-06 -5.72065e-07 -1.37318e-06 6.19252e-07 -6.70863e-07 4.69154e-07 1.27541e-06 -5.44416e-07 -1.29299e-06 5.71289e-07 -6.11976e-07 4.38692e-07 1.19194e-06 -5.13062e-07 -1.20705e-06 5.30039e-07 -5.57629e-07 4.07958e-07 1.10606e-06 -4.80892e-07 -1.12523e-06 4.8778e-07 -5.05204e-07 3.76371e-07 1.0243e-06 -4.46356e-07 -1.03216e-06 4.49402e-07 -4.58444e-07 3.4975e-07 9.38618e-07 -4.12964e-07 -9.49406e-07 4.11567e-07 -4.11819e-07 3.20569e-07 8.59572e-07 -3.79126e-07 -8.6322e-07 3.70977e-07 -3.73053e-07 2.9457e-07 7.80798e-07 -3.47985e-07 -7.86308e-07 3.38148e-07 -3.31861e-07 2.6174e-07 7.0179e-07 -3.14302e-07 -7.07165e-07 3.02059e-07 -2.93561e-07 2.41251e-07 6.35511e-07 -2.85198e-07 -6.32407e-07 2.73498e-07 -2.61139e-07 2.16882e-07 5.65158e-07 -2.53048e-07 -5.6184e-07 2.41795e-07 -2.30095e-07 1.90999e-07 5.00625e-07 -2.28659e-07 -4.93523e-07 2.1758e-07 -1.99575e-07 1.7311e-07 4.38614e-07 -2.0491e-07 -4.34307e-07 1.90184e-07 -1.72353e-07 1.52349e-07 3.8223e-07 -1.74022e-07 -3.72665e-07 1.61623e-07 -1.4226e-07 1.31705e-07 3.30697e-07 -1.54735e-07 -3.21345e-07 1.41328e-07 -1.24623e-07 1.15057e-07 2.81841e-07 -1.34945e-07 -2.74663e-07 1.22469e-07 -9.95739e-08 9.58098e-08 2.35702e-07 -1.10924e-07 -2.30037e-07 9.99232e-08 -8.18982e-08 8.13355e-08 2.00584e-07 -9.57904e-08 -1.86633e-07 8.20728e-08 -6.40672e-08 6.94223e-08 1.60343e-07 -8.12967e-08 -1.5295e-07 6.77149e-08 -5.57629e-08 5.66555e-08 1.28328e-07 -6.69194e-08 -1.21596e-07 5.4754e-08 -3.82036e-08 4.55572e-08 1.00234e-07 -5.50839e-08 -9.08816e-08 4.33453e-08 -3.07336e-08 3.53515e-08 7.11686e-08 -3.9523e-08 -6.67254e-08 3.11605e-08 -2.02563e-08 2.69307e-08 5.41331e-08 -2.83277e-08 -4.62751e-08 2.49905e-08 -1.20296e-08 2.10712e-08 3.89603e-08 -2.41174e-08 -3.21112e-08 1.57161e-08 -1.21848e-08 1.46295e-08 2.25846e-08 -1.89563e-08 -1.70548e-08 1.9519e-08 -5.74316e-09 1.31937e-08 1.12923e-08 -7.19835e-09 -4.09394e-09 1.48604e-06 -2.95889e-08 2.06307e-06 2.06307e-06 -2.19249e-07 -1.45624e-06 1.00377e-06 -4.88673e-07 9.84718e-07 2.21177e-06 -3.85956e-07 -1.39792e-06 9.0641e-07 -5.40943e-07 9.392e-07 1.94918e-06 -3.97073e-07 -1.33934e-06 8.96088e-07 -5.58444e-07 8.75094e-07 1.81992e-06 -3.84112e-07 -1.30156e-06 8.99192e-07 -5.46609e-07 8.10212e-07 1.73234e-06 -3.62284e-07 -1.26134e-06 8.76918e-07 -5.09841e-07 7.45019e-07 1.64949e-06 -3.3419e-07 -1.19698e-06 8.41528e-07 -4.69503e-07 6.8588e-07 1.55411e-06 -3.09219e-07 -1.12993e-06 7.97561e-07 -4.31416e-07 6.24723e-07 1.45046e-06 -2.80037e-07 -1.04685e-06 7.4436e-07 -3.91641e-07 5.73035e-07 1.3444e-06 -2.57705e-07 -9.74299e-07 6.91701e-07 -3.58656e-07 5.21812e-07 1.24238e-06 -2.3512e-07 -8.97116e-07 6.38538e-07 -3.26021e-07 4.74625e-07 1.14002e-06 -2.13273e-07 -8.20437e-07 5.86811e-07 -2.96995e-07 4.29456e-07 1.03947e-06 -1.96179e-07 -7.46571e-07 5.35161e-07 -2.68531e-07 3.9197e-07 9.44788e-07 -1.76427e-07 -6.76858e-07 4.89914e-07 -2.38981e-07 3.52079e-07 8.5445e-07 -1.61643e-07 -6.12325e-07 4.40089e-07 -2.18065e-07 3.14826e-07 7.67099e-07 -1.40882e-07 -5.46919e-07 3.94609e-07 -1.91794e-07 2.77068e-07 6.84406e-07 -1.30346e-07 -4.92902e-07 3.49828e-07 -1.68453e-07 2.42416e-07 6.05981e-07 -1.11177e-07 -4.30523e-07 3.16068e-07 -1.48061e-07 2.16222e-07 5.36325e-07 -9.67217e-08 -3.77884e-07 2.78854e-07 -1.2763e-07 1.89097e-07 4.709e-07 -8.27519e-08 -3.24644e-07 2.41717e-07 -1.11933e-07 1.60187e-07 4.02487e-07 -7.37685e-08 -2.81201e-07 2.14243e-07 -9.42382e-08 1.39349e-07 3.47073e-07 -6.40284e-08 -2.40378e-07 1.78698e-07 -8.11221e-08 1.17424e-07 2.94026e-07 -5.45794e-08 -2.00157e-07 1.53319e-07 -6.86074e-08 9.66247e-08 2.42338e-07 -4.17737e-08 -1.65678e-07 1.27746e-07 -5.41913e-08 7.35745e-08 1.97557e-07 -3.54873e-08 -1.34693e-07 1.03959e-07 -4.37916e-08 6.11569e-08 1.6042e-07 -3.11023e-08 -1.07936e-07 8.3237e-08 -3.56425e-08 4.66049e-08 1.234e-07 -2.45054e-08 -8.46921e-08 6.58523e-08 -2.91232e-08 3.51186e-08 9.5383e-08 -1.98682e-08 -6.34852e-08 5.24645e-08 -2.39233e-08 2.38651e-08 6.74433e-08 -1.58713e-08 -4.45289e-08 3.84559e-08 -1.51146e-08 1.62205e-08 4.48587e-08 -1.08654e-08 -2.78427e-08 2.72412e-08 -1.47847e-08 1.14475e-08 2.84441e-08 -1.07878e-08 -2.07801e-08 1.88593e-08 -1.16221e-08 7.52819e-09 1.75011e-08 -1.05162e-08 -1.78698e-08 1.9519e-08 -2.05085e-08 4.46259e-09 1.17968e-08 -1.42221e-08 -9.81769e-09 2.67406e-06 5.23559e-07 3.6041e-06 3.6041e-06 -4.99034e-08 -1.24004e-06 1.44413e-06 -3.10033e-07 1.52112e-06 2.70809e-06 -2.97732e-07 -1.26728e-06 1.17296e-06 -2.10692e-07 1.394e-06 2.36358e-06 -2.47363e-07 -1.16565e-06 1.10971e-06 -2.01321e-07 1.23583e-06 2.15725e-06 -1.81802e-07 -1.08361e-06 1.09232e-06 -2.11313e-07 1.09881e-06 2.00525e-06 -1.22333e-07 -1.01279e-06 1.07094e-06 -2.10343e-07 9.7816e-07 1.87382e-06 -7.76102e-08 -9.39627e-07 1.03163e-06 -2.03552e-07 8.77306e-07 1.74441e-06 -4.66049e-08 -8.6712e-07 9.7979e-07 -1.91949e-07 7.86735e-07 1.61196e-06 -1.75399e-08 -7.9597e-07 9.16499e-07 -1.76039e-07 7.04352e-07 1.48693e-06 -3.12381e-09 -7.24375e-07 8.55847e-07 -1.61643e-07 6.37801e-07 1.36268e-06 9.81769e-09 -6.55496e-07 7.89839e-07 -1.44859e-07 5.7288e-07 1.2413e-06 2.05279e-08 -5.92224e-07 7.26354e-07 -1.30657e-07 5.13741e-07 1.12903e-06 2.80173e-08 -5.32833e-07 6.6186e-07 -1.16959e-07 4.58017e-07 1.021e-06 2.74352e-08 -4.80504e-07 6.00819e-07 -1.07762e-07 4.07221e-07 9.16887e-07 3.11605e-08 -4.24819e-07 5.41254e-07 -9.48979e-08 3.6147e-07 8.18827e-07 3.12769e-08 -3.74042e-07 4.83356e-07 -8.43235e-08 3.2022e-07 7.26626e-07 3.39933e-08 -3.31667e-07 4.34617e-07 -7.4758e-08 2.73304e-07 6.39857e-07 3.33724e-08 -2.86673e-07 3.84753e-07 -6.53284e-08 2.38263e-07 5.58988e-07 3.51186e-08 -2.48042e-07 3.35781e-07 -5.59376e-08 1.99613e-07 4.83279e-07 3.42649e-08 -2.10789e-07 2.88671e-07 -4.84482e-08 1.68996e-07 4.14439e-07 3.34888e-08 -1.75884e-07 2.51185e-07 -3.93678e-08 1.40203e-07 3.49867e-07 3.58559e-08 -1.43074e-07 2.15291e-07 -2.99964e-08 1.13233e-07 2.92358e-07 3.15097e-08 -1.18627e-07 1.79784e-07 -3.09859e-08 8.5216e-08 2.35431e-07 2.5883e-08 -9.35009e-08 1.51029e-07 -2.46024e-08 6.86462e-08 1.88127e-07 2.97247e-08 -7.05283e-08 1.18821e-07 -1.86071e-08 4.49751e-08 1.45248e-07 2.42532e-08 -5.53943e-08 9.37531e-08 -1.40863e-08 3.11605e-08 1.10789e-07 2.26622e-08 -3.9814e-08 7.31476e-08 -6.77149e-09 1.83548e-08 8.07922e-08 2.40204e-08 -2.11294e-08 5.12227e-08 -1.01281e-08 6.17001e-09 5.13004e-08 1.851e-08 -1.62011e-08 3.51186e-08 -8.20728e-09 -6.20882e-10 3.40709e-08 1.40474e-08 -5.84017e-09 2.52621e-08 -8.55653e-09 -1.28057e-09 1.85488e-08 7.21775e-09 0 1.494e-08 -1.38534e-08 -7.95505e-10 6.40284e-09 -2.50293e-09 -4.5208e-09 2.13428e-08 -2.76874e-08 1.47459e-09 3.49246e-09 -1.26117e-08 -1.15445e-08 4.13228e-06 8.78742e-07 5.34179e-06 5.34179e-06 -4.43736e-08 -1.1529e-06 1.82039e-06 -1.55725e-07 2.05752e-06 3.17162e-06 -2.40165e-07 -1.12374e-06 1.45608e-06 1.0392e-07 1.87273e-06 2.75823e-06 -1.2047e-07 -9.7785e-07 1.37452e-06 1.33606e-07 1.62919e-06 2.49032e-06 6.75209e-09 -8.49405e-07 1.34398e-06 1.10556e-07 1.4193e-06 2.28003e-06 1.04774e-07 -7.43603e-07 1.3127e-06 8.00161e-08 1.23909e-06 2.09222e-06 1.74196e-07 -6.52508e-07 1.25876e-06 6.01479e-08 1.09287e-06 1.924e-06 2.16261e-07 -5.76644e-07 1.19213e-06 4.5596e-08 9.66829e-07 1.76369e-06 2.40553e-07 -5.04525e-07 1.1139e-06 3.83394e-08 8.59844e-07 1.60836e-06 2.52272e-07 -4.44144e-07 1.03416e-06 3.51186e-08 7.66052e-07 1.46544e-06 2.5495e-07 -3.85548e-07 9.52277e-07 3.20918e-08 6.82737e-07 1.3257e-06 2.50642e-07 -3.36887e-07 8.75637e-07 2.85606e-08 6.04972e-07 1.19454e-06 2.42648e-07 -2.91523e-07 7.93293e-07 2.52621e-08 5.39391e-07 1.07521e-06 2.30425e-07 -2.52059e-07 7.19835e-07 2.51457e-08 4.75673e-07 9.59534e-07 2.19909e-07 -2.16571e-07 6.49132e-07 2.51457e-08 4.17077e-07 8.54644e-07 2.05939e-07 -1.85857e-07 5.77304e-07 2.57278e-08 3.60926e-07 7.53556e-07 1.89796e-07 -1.5394e-07 5.13275e-07 1.75787e-08 3.08268e-07 6.52624e-07 1.79706e-07 -1.2569e-07 4.51071e-07 2.35159e-08 2.61081e-07 5.66943e-07 1.70665e-07 -9.56352e-08 3.92824e-07 1.92085e-08 2.1987e-07 4.86461e-07 1.55919e-07 -7.51655e-08 3.40903e-07 2.0916e-08 1.79318e-07 4.10636e-07 1.41057e-07 -5.66361e-08 2.89952e-07 1.8122e-08 1.42066e-07 3.39933e-07 1.29454e-07 -3.69813e-08 2.43269e-07 1.59877e-08 1.09392e-07 2.75904e-07 1.18356e-07 -1.83742e-08 2.02679e-07 1.26505e-08 8.54488e-08 2.22237e-07 1.07451e-07 -3.62828e-09 1.68647e-07 1.45907e-08 5.52585e-08 1.66357e-07 9.7168e-08 8.84756e-09 1.32364e-07 1.07878e-08 3.5235e-08 1.23517e-07 8.47892e-08 1.05938e-08 1.0004e-07 1.38922e-08 1.12923e-08 8.54877e-08 7.66013e-08 2.42532e-08 7.16342e-08 7.68341e-09 -2.44472e-09 4.98646e-08 6.2515e-08 2.17697e-08 4.57512e-08 6.63567e-09 -1.30967e-08 2.75904e-08 5.1766e-08 2.82501e-08 3.20142e-08 2.48353e-09 -1.88399e-08 4.65661e-09 3.82618e-08 2.03727e-08 1.61429e-08 1.94026e-10 -1.72489e-08 5.82077e-10 2.67367e-08 2.02951e-08 1.36594e-08 -8.14907e-09 -1.2049e-08 -5.62674e-09 7.6058e-09 6.0924e-09 8.84756e-09 -3.1859e-08 -1.08072e-08 -9.31323e-09 -1.19908e-08 -1.56967e-08 4.96422e-06 7.74899e-07 6.74161e-06 6.74161e-06 -4.16359e-07 -1.6529e-06 2.3862e-06 -1.16221e-08 2.48605e-06 3.75055e-06 -2.55279e-07 -1.05042e-06 1.94774e-06 3.91932e-07 2.40033e-06 3.20076e-06 -2.67755e-08 -7.59552e-07 1.82011e-06 4.32328e-07 2.09761e-06 2.8344e-06 1.7796e-07 -5.53827e-07 1.74134e-06 3.98024e-07 1.8101e-06 2.54542e-06 3.24333e-07 -4.03204e-07 1.66105e-06 3.43037e-07 1.5668e-06 2.29738e-06 4.18746e-07 -2.82812e-07 1.56893e-06 3.03805e-07 1.37188e-06 2.07596e-06 4.72025e-07 -1.97091e-07 1.4685e-06 2.66552e-07 1.20905e-06 1.88022e-06 4.94067e-07 -1.34207e-07 1.35484e-06 2.40941e-07 1.06338e-06 1.69326e-06 4.97093e-07 -8.59339e-08 1.25275e-06 2.18046e-07 9.50415e-07 1.53478e-06 4.88052e-07 -4.61975e-08 1.1508e-06 1.98837e-07 8.4211e-07 1.37735e-06 4.70163e-07 -1.86847e-08 1.04952e-06 1.78659e-07 7.50568e-07 1.24013e-06 4.50915e-07 7.37297e-09 9.57167e-07 1.68569e-07 6.61821e-07 1.10598e-06 4.23907e-07 2.57666e-08 8.4793e-07 1.50641e-07 5.79477e-07 9.78005e-07 3.96045e-07 3.29843e-08 7.62986e-07 1.38845e-07 5.01207e-07 8.64578e-07 3.72025e-07 5.58406e-08 6.82737e-07 1.29182e-07 4.42456e-07 7.58873e-07 3.46607e-07 6.32523e-08 6.07572e-07 1.16144e-07 3.71714e-07 6.55185e-07 3.22044e-07 7.92012e-08 5.22162e-07 1.04657e-07 3.10596e-07 5.53516e-07 2.95384e-07 8.05206e-08 4.47927e-07 9.58874e-08 2.54173e-07 4.69076e-07 2.69463e-07 8.48668e-08 3.85218e-07 8.63414e-08 2.04736e-07 3.89332e-07 2.4843e-07 9.0804e-08 3.29029e-07 7.51655e-08 1.5945e-07 3.17038e-07 2.23517e-07 9.59262e-08 2.69928e-07 6.77537e-08 1.17657e-07 2.45287e-07 2.01981e-07 9.74784e-08 2.15601e-07 6.56194e-08 8.42071e-08 1.88709e-07 1.83121e-07 9.50337e-08 1.73924e-07 5.28914e-08 4.21035e-08 1.30114e-07 1.66552e-07 1.02911e-07 1.28949e-07 4.94765e-08 2.4292e-08 8.78936e-08 1.46839e-07 9.8953e-08 8.83592e-08 3.51186e-08 -4.17155e-09 4.36946e-08 1.23944e-07 9.44904e-08 6.54254e-08 3.2247e-08 -2.30308e-08 6.44165e-09 1.06404e-07 8.50996e-08 3.58171e-08 2.6077e-08 -2.88516e-08 -7.54759e-09 8.5022e-08 7.4079e-08 6.51926e-09 1.86265e-08 -3.83588e-08 -2.7377e-08 6.95388e-08 6.51926e-08 3.18202e-09 1.31161e-08 -3.23053e-08 -2.79009e-08 4.65273e-08 4.63333e-08 -5.3357e-09 -5.62674e-10 -2.89486e-08 -2.8774e-08 2.51457e-08 2.73964e-08 -3.72529e-09 -1.94608e-08 -1.36012e-08 -1.58519e-08 2.32831e-10 -2.40592e-09 -2.27344e-06 -4.559e-06 -4.04726e-06 -4.04726e-06 -2.05644e-06 -2.78194e-06 -1.93094e-07 -2.808e-06 -8.22028e-07 -8.91159e-08 -2.01569e-06 -2.93972e-06 -1.69656e-07 -2.16657e-06 -5.14323e-07 4.23286e-07 -1.85944e-06 -2.82583e-06 -9.98843e-08 -1.9764e-06 -3.7348e-07 6.02566e-07 -1.77656e-06 -2.71188e-06 -6.44359e-08 -1.82883e-06 -2.57278e-07 6.85647e-07 -1.70969e-06 -2.5882e-06 -4.93019e-08 -1.69076e-06 -1.69772e-07 7.15256e-07 -1.63201e-06 -2.44699e-06 -4.17349e-08 -1.56276e-06 -1.06287e-07 7.14247e-07 -1.54846e-06 -2.30064e-06 -4.49557e-08 -1.43226e-06 -6.06912e-08 6.9628e-07 -1.46654e-06 -2.1538e-06 -4.15409e-08 -1.30874e-06 -2.61352e-08 6.65314e-07 -1.371e-06 -1.99505e-06 -3.74857e-08 -1.18976e-06 2.67755e-09 6.30273e-07 -1.27616e-06 -1.844e-06 -3.74857e-08 -1.0781e-06 1.82772e-08 5.891e-07 -1.17667e-06 -1.68804e-06 -3.83394e-08 -9.76511e-07 3.14709e-08 5.45328e-07 -1.08359e-06 -1.54283e-06 -3.14709e-08 -8.77869e-07 4.30349e-08 5.04389e-07 -9.9019e-07 -1.40442e-06 -3.16456e-08 -7.84775e-07 4.59841e-08 4.61936e-07 -8.97485e-07 -1.26549e-06 -2.50681e-08 -6.91449e-07 5.64614e-08 4.25925e-07 -8.14209e-07 -1.13555e-06 -2.1013e-08 -6.13218e-07 6.12345e-08 3.83666e-07 -7.25209e-07 -1.0119e-06 -2.17115e-08 -5.34113e-07 6.20882e-08 3.49673e-07 -6.50315e-07 -8.95544e-07 -2.29144e-08 -4.62149e-07 6.13897e-08 3.0722e-07 -5.70532e-07 -7.85842e-07 -1.96936e-08 -3.93426e-07 5.97987e-08 2.75633e-07 -5.01052e-07 -6.81243e-07 -1.67638e-08 -3.35024e-07 6.01091e-08 2.40708e-07 -4.40089e-07 -5.8813e-07 -1.37952e-08 -2.75264e-07 6.25926e-08 2.10945e-07 -3.73131e-07 -4.95425e-07 -1.4843e-08 -2.25438e-07 5.87121e-08 1.8122e-07 -3.16223e-07 -4.14633e-07 -1.08266e-08 -1.76486e-07 5.56077e-08 1.54095e-07 -2.59917e-07 -3.3743e-07 -1.12341e-08 -1.30502e-07 4.94765e-08 1.27087e-07 -2.10091e-07 -2.69831e-07 -1.27863e-08 -9.91471e-08 4.579e-08 1.0555e-07 -1.66687e-07 -2.05958e-07 -1.17774e-08 -6.49792e-08 4.13274e-08 8.0637e-08 -1.24409e-07 -1.53397e-07 -9.83709e-09 -3.34306e-08 3.3644e-08 6.26314e-08 -8.83786e-08 -1.05744e-07 -5.37451e-09 -1.03804e-08 2.85994e-08 4.60229e-08 -5.83435e-08 -6.18941e-08 -7.93565e-09 3.45365e-09 2.15756e-08 2.51069e-08 -2.72218e-08 -2.82501e-08 -1.0749e-08 1.03998e-08 1.42415e-08 1.52892e-08 -1.31937e-08 -1.00505e-08 -7.50879e-09 1.6337e-08 7.76102e-09 4.65661e-09 -1.92085e-09 1.35818e-09 -1.58713e-08 8.76995e-09 -1.62981e-09 -4.92825e-09 -3.95812e-09 -1.08654e-09 -1.01237e-06 -2.14088e-06 -2.21952e-06 -2.21952e-06 -3.58656e-07 -1.13598e-06 -7.61861e-07 -2.73632e-06 -1.17698e-06 -4.02428e-07 -2.11045e-06 -3.32358e-06 1.14436e-07 -1.86926e-06 -1.52892e-07 1.07354e-06 -1.52702e-06 -2.70419e-06 1.8836e-07 -1.6453e-06 -7.48745e-08 1.11157e-06 -1.37337e-06 -2.47189e-06 1.85799e-07 -1.49479e-06 -2.44278e-08 1.08204e-06 -1.30278e-06 -2.31525e-06 1.6822e-07 -1.3671e-06 1.90145e-08 1.03846e-06 -1.24679e-06 -2.1772e-06 1.53397e-07 -1.25255e-06 5.39003e-08 9.90617e-07 -1.18777e-06 -2.04208e-06 1.40009e-07 -1.14347e-06 8.11415e-08 9.4114e-07 -1.12723e-06 -1.90628e-06 1.27475e-07 -1.04597e-06 9.96903e-08 8.83592e-07 -1.06083e-06 -1.77277e-06 1.14824e-07 -9.50725e-07 1.07801e-07 8.23949e-07 -9.90326e-07 -1.63899e-06 1.06442e-07 -8.65917e-07 1.13932e-07 7.66168e-07 -9.21078e-07 -1.50707e-06 1.0101e-07 -7.80332e-07 1.18938e-07 7.07999e-07 -8.49677e-07 -1.37979e-06 8.90577e-08 -7.02722e-07 1.15174e-07 6.47929e-07 -7.76762e-07 -1.25443e-06 8.12967e-08 -6.33396e-07 1.15988e-07 5.95814e-07 -7.10638e-07 -1.13918e-06 7.33029e-08 -5.59958e-07 1.12496e-07 5.42806e-07 -6.41157e-07 -1.02114e-06 6.63179e-08 -4.9492e-07 1.05356e-07 4.86732e-07 -5.76877e-07 -9.10814e-07 6.2127e-08 -4.31746e-07 1.02329e-07 4.37411e-07 -5.15293e-07 -8.06603e-07 5.68495e-08 -3.74411e-07 1.03144e-07 3.95308e-07 -4.58521e-07 -7.12714e-07 4.9981e-08 -3.24372e-07 9.04547e-08 3.45327e-07 -4.03728e-07 -6.18573e-07 4.30737e-08 -2.75458e-07 8.92906e-08 3.0462e-07 -3.52176e-07 -5.37334e-07 3.69425e-08 -2.2992e-07 8.28101e-08 2.68337e-07 -3.0625e-07 -4.57648e-07 3.44201e-08 -1.89466e-07 7.49327e-08 2.26622e-07 -2.62924e-07 -3.86247e-07 2.84829e-08 -1.51592e-07 6.73269e-08 1.90805e-07 -2.17949e-07 -3.1469e-07 2.35547e-08 -1.19675e-07 6.36404e-08 1.60537e-07 -1.80386e-07 -2.59044e-07 1.81996e-08 -8.92323e-08 5.4754e-08 1.3349e-07 -1.4775e-07 -2.05628e-07 1.28833e-08 -6.17583e-08 4.76915e-08 1.05628e-07 -1.14824e-07 -1.5491e-07 1.41251e-08 -4.57318e-08 4.222e-08 8.23056e-08 -8.92129e-08 -1.10342e-07 1.29997e-08 -2.67173e-08 3.79126e-08 5.90226e-08 -6.07106e-08 -7.75714e-08 7.41178e-09 -1.42997e-08 2.7086e-08 4.39274e-08 -4.3811e-08 -5.10481e-08 1.01281e-08 -3.0656e-09 2.33607e-08 3.05396e-08 -2.80755e-08 -2.62129e-08 5.08347e-09 4.88944e-09 1.76563e-08 1.57549e-08 -1.03998e-08 -8.01325e-09 -3.39545e-09 1.73071e-08 9.8565e-09 7.48939e-09 3.0656e-09 5.12227e-09 -2.68628e-07 -1.43984e-06 -7.90848e-07 -7.90848e-07 -2.30658e-07 -9.73969e-07 -1.02814e-07 -1.59349e-06 -3.88982e-07 3.54523e-07 -1.18204e-06 -2.39883e-06 2.56967e-07 -1.38728e-06 8.20728e-08 1.3023e-06 -1.12403e-06 -2.33199e-06 4.4556e-07 -1.28197e-06 2.11837e-07 1.42725e-06 -1.02131e-06 -2.13758e-06 4.47229e-07 -1.17027e-06 2.48314e-07 1.37184e-06 -9.6128e-07 -1.99171e-06 4.20958e-07 -1.06695e-06 2.61158e-07 1.29838e-06 -9.18071e-07 -1.87099e-06 3.89487e-07 -9.75308e-07 2.6403e-07 1.22321e-06 -8.75637e-07 -1.75153e-06 3.65661e-07 -8.87492e-07 2.66164e-07 1.1477e-06 -8.2814e-07 -1.63259e-06 3.33064e-07 -8.09164e-07 2.59296e-07 1.06869e-06 -7.80759e-07 -1.52079e-06 3.07802e-07 -7.38306e-07 2.45093e-07 9.89375e-07 -7.30623e-07 -1.4043e-06 2.8417e-07 -6.69213e-07 2.38768e-07 9.16111e-07 -6.76082e-07 -1.29097e-06 2.6209e-07 -6.06776e-07 2.25341e-07 8.43429e-07 -6.24083e-07 -1.17968e-06 2.40087e-07 -5.47443e-07 2.13816e-07 7.72066e-07 -5.73035e-07 -1.07628e-06 2.18124e-07 -4.88634e-07 1.99148e-07 7.04584e-07 -5.22879e-07 -9.7199e-07 1.99652e-07 -4.34714e-07 1.86187e-07 6.37102e-07 -4.73461e-07 -8.7424e-07 1.78892e-07 -3.89176e-07 1.70277e-07 5.72531e-07 -4.27885e-07 -7.84368e-07 1.62167e-07 -3.40942e-07 1.56074e-07 5.13702e-07 -3.80911e-07 -6.90828e-07 1.44549e-07 -2.95035e-07 1.4451e-07 4.55339e-07 -3.41116e-07 -6.12345e-07 1.28794e-07 -2.59005e-07 1.30618e-07 4.02603e-07 -2.99323e-07 -5.33279e-07 1.11914e-07 -2.1694e-07 1.1723e-07 3.51691e-07 -2.63021e-07 -4.63275e-07 1.00893e-07 -1.83917e-07 1.0264e-07 3.03301e-07 -2.29649e-07 -3.94978e-07 8.54488e-08 -1.5328e-07 9.75172e-08 2.63137e-07 -1.93754e-07 -3.34578e-07 7.48162e-08 -1.25049e-07 8.37414e-08 2.24759e-07 -1.63816e-07 -2.7476e-07 6.23598e-08 -9.95157e-08 7.29148e-08 1.83975e-07 -1.39543e-07 -2.26525e-07 5.11839e-08 -7.83669e-08 6.16225e-08 1.48662e-07 -1.14863e-07 -1.82442e-07 4.19483e-08 -6.05166e-08 5.40167e-08 1.21615e-07 -9.53248e-08 -1.43036e-07 3.75633e-08 -4.17931e-08 4.66825e-08 9.44516e-08 -6.98492e-08 -1.04444e-07 2.75128e-08 -3.0365e-08 3.91544e-08 7.36909e-08 -5.52585e-08 -7.72998e-08 2.40592e-08 -1.80832e-08 3.06948e-08 5.27749e-08 -3.77768e-08 -5.24257e-08 1.6531e-08 -1.23982e-08 2.04503e-08 3.50798e-08 -2.56502e-08 -3.10247e-08 1.17191e-08 -3.25963e-09 1.57161e-08 2.10712e-08 -1.58131e-08 -1.4028e-08 6.32523e-09 8.76995e-09 1.234e-08 1.06326e-08 -4.42378e-09 5.16108e-09 4.02797e-07 -7.68322e-07 5.21773e-07 5.21773e-07 -2.46606e-07 -9.4246e-07 5.46492e-07 -9.90869e-07 4.25614e-07 1.12302e-06 -7.08154e-07 -1.88374e-06 6.12034e-07 -8.7554e-07 4.69425e-07 1.64739e-06 -7.05322e-07 -1.83969e-06 6.55884e-07 -9.37221e-07 4.92126e-07 1.63144e-06 -7.0668e-07 -1.79055e-06 6.77615e-07 -8.67954e-07 5.08075e-07 1.59834e-06 -6.7061e-07 -1.68337e-06 6.47308e-07 -7.92847e-07 4.91311e-07 1.51041e-06 -6.33532e-07 -1.57832e-06 6.12306e-07 -7.21193e-07 4.64187e-07 1.41491e-06 -5.95542e-07 -1.47133e-06 5.71172e-07 -6.60153e-07 4.38459e-07 1.31965e-06 -5.60171e-07 -1.3704e-06 5.30194e-07 -6.00567e-07 4.08463e-07 1.22345e-06 -5.26158e-07 -1.26959e-06 4.90147e-07 -5.51673e-07 3.80562e-07 1.1281e-06 -4.88265e-07 -1.16995e-06 4.50411e-07 -5.01828e-07 3.50837e-07 1.03606e-06 -4.55688e-07 -1.07601e-06 4.15176e-07 -4.53942e-07 3.24023e-07 9.47349e-07 -4.16534e-07 -9.79325e-07 3.80251e-07 -4.07919e-07 3.00274e-07 8.65587e-07 -3.81047e-07 -8.88986e-07 3.47655e-07 -3.67019e-07 2.7311e-07 7.83165e-07 -3.475e-07 -8.0443e-07 3.10092e-07 -3.27961e-07 2.46374e-07 7.05011e-07 -3.1403e-07 -7.22144e-07 2.84364e-07 -2.91601e-07 2.22082e-07 6.31553e-07 -2.82637e-07 -6.43505e-07 2.56191e-07 -2.57957e-07 2.01243e-07 5.63179e-07 -2.51593e-07 -5.69174e-07 2.26622e-07 -2.24623e-07 1.82035e-07 5.00431e-07 -2.24313e-07 -5.03419e-07 1.99691e-07 -1.97557e-07 1.58946e-07 4.38692e-07 -1.99167e-07 -4.38013e-07 1.76175e-07 -1.67929e-07 1.39427e-07 3.78738e-07 -1.73013e-07 -3.77981e-07 1.53358e-07 -1.4451e-07 1.2309e-07 3.28408e-07 -1.46101e-07 -3.19269e-07 1.32597e-07 -1.18647e-07 1.05472e-07 2.78854e-07 -1.30599e-07 -2.73673e-07 1.08965e-07 -1.00583e-07 8.9407e-08 2.32637e-07 -1.09411e-07 -2.26176e-07 9.59262e-08 -8.27519e-08 7.53983e-08 1.92279e-07 -9.32487e-08 -1.86478e-07 7.86192e-08 -6.32329e-08 6.36016e-08 1.56889e-07 -7.36133e-08 -1.45733e-07 6.76373e-08 -5.07377e-08 5.49868e-08 1.27126e-07 -6.27285e-08 -1.16415e-07 5.29302e-08 -3.54485e-08 4.35781e-08 9.72844e-08 -4.45483e-08 -8.55265e-08 3.62052e-08 -2.7183e-08 3.345e-08 7.44282e-08 -3.88051e-08 -6.56776e-08 2.87934e-08 -2.20801e-08 2.28562e-08 4.9787e-08 -2.86964e-08 -4.55572e-08 2.4292e-08 -1.38534e-08 1.73847e-08 3.42649e-08 -1.77921e-08 -2.67173e-08 1.92861e-08 -9.17741e-09 1.28833e-08 2.18085e-08 -1.31937e-08 -1.54444e-08 1.85488e-08 -6.96552e-09 1.3543e-08 1.57937e-08 -1.29997e-08 1.5522e-09 1.12341e-06 -1.80774e-07 1.85108e-06 1.85108e-06 -3.00119e-07 -9.59262e-07 1.20847e-06 -4.94998e-07 1.24952e-06 1.91185e-06 -3.77593e-07 -1.48616e-06 1.01312e-06 -5.2967e-07 9.21738e-07 2.03315e-06 -3.91796e-07 -1.4712e-06 9.3951e-07 -5.6217e-07 8.28683e-07 1.91255e-06 -4.01555e-07 -1.43249e-06 9.02568e-07 -5.52527e-07 7.75792e-07 1.81212e-06 -3.84675e-07 -1.37007e-06 8.70825e-07 -5.11723e-07 7.20339e-07 1.71146e-06 -3.56212e-07 -1.28272e-06 8.25617e-07 -4.72763e-07 6.63606e-07 1.59555e-06 -3.2445e-07 -1.19279e-06 7.72648e-07 -4.29941e-07 6.09551e-07 1.48286e-06 -2.96704e-07 -1.10466e-06 7.19447e-07 -3.90612e-07 5.55379e-07 1.3678e-06 -2.68163e-07 -1.01268e-06 6.67215e-07 -3.57123e-07 5.06329e-07 1.25472e-06 -2.46762e-07 -9.30527e-07 6.12849e-07 -3.25206e-07 4.59142e-07 1.14615e-06 -2.24817e-07 -8.50356e-07 5.58638e-07 -2.97965e-07 4.14788e-07 1.04308e-06 -2.06152e-07 -7.75501e-07 5.12577e-07 -2.65252e-07 3.75517e-07 9.47155e-07 -1.84635e-07 -6.98822e-07 4.6504e-07 -2.39466e-07 3.36673e-07 8.52781e-07 -1.64359e-07 -6.26819e-07 4.20182e-07 -2.12962e-07 3.01749e-07 7.65741e-07 -1.48721e-07 -5.63741e-07 3.77807e-07 -1.91755e-07 2.67367e-07 6.8363e-07 -1.29027e-07 -4.97443e-07 3.39467e-07 -1.69559e-07 2.35314e-07 6.04661e-07 -1.14223e-07 -4.34152e-07 3.00468e-07 -1.4775e-07 2.13467e-07 5.3423e-07 -1.02853e-07 -3.83278e-07 2.6826e-07 -1.28387e-07 1.80289e-07 4.61276e-07 -8.74473e-08 -3.29805e-07 2.31123e-07 -1.12399e-07 1.57083e-07 3.99848e-07 -7.54177e-08 -2.82967e-07 2.02369e-07 -9.52277e-08 1.37215e-07 3.45016e-07 -6.47657e-08 -2.3871e-07 1.74933e-07 -8.02878e-08 1.14048e-07 2.88206e-07 -5.30272e-08 -2.00002e-07 1.46295e-07 -6.59299e-08 9.38307e-08 2.4098e-07 -4.62557e-08 -1.64534e-07 1.21964e-07 -5.50062e-08 7.33805e-08 1.91775e-07 -3.44589e-08 -1.29667e-07 9.94963e-08 -4.38886e-08 6.073e-08 1.55958e-07 -2.88128e-08 -1.04677e-07 7.74938e-08 -3.39933e-08 4.48975e-08 1.20839e-07 -2.1304e-08 -8.15295e-08 6.47657e-08 -2.7086e-08 3.17426e-08 9.20069e-08 -1.77145e-08 -5.96823e-08 4.78467e-08 -1.71519e-08 2.29726e-08 6.49597e-08 -1.43579e-08 -4.35393e-08 3.31784e-08 -1.851e-08 1.54832e-08 4.46259e-08 -1.25729e-08 -2.67561e-08 2.57666e-08 -1.42221e-08 1.15251e-08 2.5689e-08 -7.27596e-09 -1.74041e-08 1.78115e-08 -1.67638e-08 5.78196e-09 1.59101e-08 -1.03804e-08 -1.12729e-08 1.74623e-08 -1.73265e-08 1.10207e-08 1.19132e-08 -1.23206e-08 -1.48818e-08 2.00141e-06 2.86615e-07 3.30464e-06 3.30464e-06 -4.3875e-07 -1.06062e-06 1.87499e-06 -6.71134e-08 2.08826e-06 2.71508e-06 -1.11778e-07 -1.13592e-06 1.42124e-06 -2.26098e-07 1.39566e-06 2.42365e-06 -1.39563e-07 -1.14659e-06 1.24735e-06 -2.2864e-07 1.19593e-06 2.20743e-06 -1.20878e-07 -1.1048e-06 1.16047e-06 -2.29261e-07 1.06035e-06 2.04934e-06 -1.03901e-07 -1.04989e-06 1.10067e-06 -2.28465e-07 9.55265e-07 1.90649e-06 -7.83087e-08 -9.77869e-07 1.04052e-06 -2.13118e-07 8.62444e-07 1.76695e-06 -5.07959e-08 -9.02529e-07 9.76142e-07 -1.94802e-07 7.74007e-07 1.63028e-06 -3.10247e-08 -8.2358e-07 9.1029e-07 -1.79474e-07 6.98414e-07 1.49489e-06 -1.46295e-08 -7.49152e-07 8.41489e-07 -1.65446e-07 6.30583e-07 1.3685e-06 -3.74469e-09 -6.79827e-07 7.73735e-07 -1.49458e-07 5.63023e-07 1.24192e-06 5.08347e-09 -6.09939e-07 7.07805e-07 -1.3543e-07 5.09356e-07 1.12678e-06 9.23562e-09 -5.49888e-07 6.42651e-07 -1.21538e-07 4.53787e-07 1.01479e-06 1.62205e-08 -4.9364e-07 5.83474e-07 -1.08635e-07 4.02215e-07 9.13705e-07 2.03339e-08 -4.39759e-07 5.25227e-07 -9.81963e-08 3.57279e-07 8.1871e-07 2.07995e-08 -3.8743e-07 4.71366e-07 -8.6225e-08 3.14321e-07 7.23599e-07 2.468e-08 -3.3871e-07 4.17155e-07 -7.61938e-08 2.70937e-07 6.35162e-07 2.83277e-08 -2.96723e-07 3.69463e-07 -6.2321e-08 2.32559e-07 5.5825e-07 2.49905e-08 -2.5429e-07 3.25148e-07 -5.92748e-08 1.99846e-07 4.79592e-07 2.90262e-08 -2.13661e-07 2.8351e-07 -4.66243e-08 1.68802e-07 4.11839e-07 2.77068e-08 -1.79105e-07 2.39156e-07 -3.66126e-08 1.37836e-07 3.44861e-07 2.87546e-08 -1.49865e-07 2.02019e-07 -3.42455e-08 1.09392e-07 2.88167e-07 2.68531e-08 -1.20179e-07 1.72877e-07 -2.58636e-08 8.79712e-08 2.3512e-07 2.66979e-08 -9.34815e-08 1.40125e-07 -2.60576e-08 6.63955e-08 1.86691e-07 2.25846e-08 -7.25462e-08 1.12535e-07 -1.6337e-08 5.0175e-08 1.45364e-07 2.25458e-08 -5.13198e-08 8.72339e-08 -1.39504e-08 3.03844e-08 1.04231e-07 1.87041e-08 -3.76216e-08 6.48433e-08 -1.48236e-08 1.9519e-08 7.5864e-08 1.82772e-08 -2.2701e-08 4.92049e-08 -1.02834e-08 1.00117e-08 5.09899e-08 1.46295e-08 -1.22042e-08 3.25575e-08 -7.6058e-09 2.71636e-09 2.95695e-08 1.01281e-08 -9.75948e-09 2.27786e-08 -6.46105e-09 -5.04466e-09 1.47847e-08 7.83863e-09 -4.38498e-09 1.33878e-08 -1.46489e-08 -5.84017e-09 6.36404e-09 -2.59994e-09 -6.8491e-09 1.56385e-08 -2.63875e-08 -2.52233e-10 3.99693e-09 -1.99458e-08 -1.5522e-08 3.11035e-06 5.61471e-07 4.96651e-06 4.96651e-06 -7.32854e-07 -1.31955e-06 2.50223e-06 3.10596e-07 2.90332e-06 3.49719e-06 9.33263e-08 -8.16634e-07 1.81523e-06 6.20494e-08 1.86637e-06 2.78112e-06 8.26161e-08 -8.31943e-07 1.56815e-06 8.2228e-08 1.56792e-06 2.48698e-06 1.30967e-07 -7.81962e-07 1.44285e-06 7.64461e-08 1.35853e-06 2.27615e-06 1.75516e-07 -7.20727e-07 1.35352e-06 6.08076e-08 1.19163e-06 2.09249e-06 2.06172e-07 -6.53497e-07 1.27122e-06 4.59841e-08 1.05763e-06 1.92155e-06 2.24643e-07 -5.8815e-07 1.19015e-06 3.52738e-08 9.43313e-07 1.75985e-06 2.38147e-07 -5.24218e-07 1.10265e-06 3.24799e-08 8.39354e-07 1.60494e-06 2.45248e-07 -4.64284e-07 1.01848e-06 3.49634e-08 7.54798e-07 1.46707e-06 2.46762e-07 -4.09297e-07 9.33457e-07 2.92979e-08 6.70125e-07 1.32842e-06 2.40902e-07 -3.58035e-07 8.52121e-07 3.20918e-08 5.9756e-07 1.19838e-06 2.31356e-07 -3.12129e-07 7.73386e-07 2.77068e-08 5.32794e-07 1.07777e-06 2.17347e-07 -2.75148e-07 6.97056e-07 2.53785e-08 4.67252e-07 9.60931e-07 2.07297e-07 -2.36187e-07 6.28798e-07 2.77457e-08 4.11101e-07 8.55536e-07 1.96354e-07 -1.99827e-07 5.55495e-07 2.53397e-08 3.55067e-07 7.51965e-07 1.82927e-07 -1.71557e-07 4.93911e-07 2.31278e-08 3.03805e-07 6.58833e-07 1.69772e-07 -1.40591e-07 4.29107e-07 1.98682e-08 2.572e-07 5.6799e-07 1.57199e-07 -1.13932e-07 3.77651e-07 2.14204e-08 2.14243e-07 4.85685e-07 1.47071e-07 -8.93294e-08 3.25303e-07 1.98294e-08 1.76835e-07 4.1343e-07 1.3477e-07 -6.4203e-08 2.73498e-07 1.88205e-08 1.40591e-07 3.397e-07 1.20373e-07 -4.80989e-08 2.27126e-07 1.5328e-08 1.0683e-07 2.75361e-07 1.0815e-07 -3.26933e-08 1.91038e-07 1.54056e-08 7.57088e-08 2.16571e-07 1.00428e-07 -1.84712e-08 1.51844e-07 1.90145e-08 5.30854e-08 1.72023e-07 9.28218e-08 1.5522e-10 1.1692e-07 1.50176e-08 3.07336e-08 1.234e-07 7.7455e-08 4.22976e-09 8.76607e-08 9.46845e-09 1.35042e-08 8.66906e-08 6.63567e-08 1.61041e-08 6.24762e-08 9.50725e-09 2.36711e-09 5.26197e-08 5.48316e-08 2.02951e-08 3.76798e-08 6.71328e-09 -9.48785e-09 2.51069e-08 4.59064e-08 1.67638e-08 2.22353e-08 5.70435e-09 -1.88011e-08 1.0361e-08 3.55455e-08 2.00234e-08 1.36594e-08 -3.74469e-09 -1.87429e-08 -3.24023e-09 2.40592e-08 1.32713e-08 5.70435e-09 -9.04159e-09 -1.7016e-08 -6.20882e-09 1.01669e-08 3.18202e-09 6.8685e-09 -2.90456e-08 -1.31549e-08 -6.18941e-09 -1.31743e-08 -1.57355e-08 3.89002e-06 4.89992e-07 6.6264e-06 6.6264e-06 -1.34297e-06 -2.02146e-06 3.13708e-06 6.22434e-07 3.61982e-06 4.30896e-06 2.16106e-07 -6.13489e-07 2.27402e-06 3.55106e-07 2.30933e-06 3.14562e-06 2.9942e-07 -5.26915e-07 1.96311e-06 3.9717e-07 1.92248e-06 2.754e-06 3.95502e-07 -4.32483e-07 1.78721e-06 3.82036e-07 1.64999e-06 2.4826e-06 4.65855e-07 -3.54853e-07 1.66051e-06 3.423e-07 1.43144e-06 2.25621e-06 5.0466e-07 -2.89408e-07 1.53719e-06 3.07647e-07 1.2595e-06 2.05694e-06 5.22084e-07 -2.31317e-07 1.42574e-06 2.7637e-07 1.11359e-06 1.86975e-06 5.24218e-07 -1.84965e-07 1.30797e-06 2.49905e-07 9.89686e-07 1.70106e-06 5.14284e-07 -1.41949e-07 1.2061e-06 2.29416e-07 8.82389e-07 1.54037e-06 4.94144e-07 -1.08713e-07 1.09908e-06 2.10362e-07 7.87123e-07 1.39136e-06 4.74664e-07 -7.79013e-08 1.00245e-06 1.93172e-07 6.97793e-07 1.25143e-06 4.48626e-07 -5.77614e-08 9.08893e-07 1.80211e-07 6.16885e-07 1.12411e-06 4.21656e-07 -2.74546e-08 8.12113e-07 1.62787e-07 5.45794e-07 9.95545e-07 3.93329e-07 -1.44549e-08 7.281e-07 1.5068e-07 4.71288e-07 8.79518e-07 3.69075e-07 3.0268e-09 6.47114e-07 1.36516e-07 4.06328e-07 7.72648e-07 3.37488e-07 1.79668e-08 5.68844e-07 1.21809e-07 3.44279e-07 6.64033e-07 3.12459e-07 3.01904e-08 4.89526e-07 1.14786e-07 2.88244e-07 5.70668e-07 2.8708e-07 4.1017e-08 4.20182e-07 9.67023e-08 2.31666e-07 4.77846e-07 2.6046e-07 4.7187e-08 3.6438e-07 9.54994e-08 1.85682e-07 3.98955e-07 2.44278e-07 6.15061e-08 3.08772e-07 8.46339e-08 1.41871e-07 3.24682e-07 2.17891e-07 6.69776e-08 2.45481e-07 7.33805e-08 1.06869e-07 2.57782e-07 1.93948e-07 6.80642e-08 2.0039e-07 6.06524e-08 6.78313e-08 1.93715e-07 1.76136e-07 7.73386e-08 1.51534e-07 5.63062e-08 3.89215e-08 1.37642e-07 1.55182e-07 7.43506e-08 1.13233e-07 5.20765e-08 1.22624e-08 9.30935e-08 1.38418e-07 7.48551e-08 7.83087e-08 4.0823e-08 -1.05744e-08 5.2969e-08 1.15057e-07 6.97716e-08 3.9814e-08 3.66708e-08 -2.19831e-08 2.33219e-08 9.68575e-08 6.56194e-08 2.79009e-08 3.24023e-08 -3.15874e-08 -3.49246e-10 7.96669e-08 6.15837e-08 7.45058e-09 1.92861e-08 -3.53515e-08 -1.72877e-08 6.03807e-08 5.34734e-08 -6.20882e-10 1.40086e-08 -3.4653e-08 -2.77651e-08 4.64497e-08 4.04349e-08 -8.05206e-09 3.72529e-09 -2.85412e-08 -2.25264e-08 2.64263e-08 2.01399e-08 1.82384e-09 -1.78892e-08 -1.60265e-08 -9.68187e-09 2.09548e-09 -1.78504e-09 -2.45873e-06 -4.5831e-06 -4.09623e-06 -4.09623e-06 -2.32262e-06 -2.97117e-06 -3.7835e-08 -2.99249e-06 -9.14947e-07 -2.6112e-07 -1.9069e-06 -2.75716e-06 -2.34538e-07 -2.35797e-06 -6.40342e-07 2.17852e-07 -1.91332e-06 -2.81993e-06 -1.95888e-07 -2.01379e-06 -3.94493e-07 5.20687e-07 -1.85143e-06 -2.7688e-06 -1.53164e-07 -1.82817e-06 -2.64185e-07 6.60929e-07 -1.77337e-06 -2.66116e-06 -1.22896e-07 -1.67855e-06 -1.75981e-07 7.18709e-07 -1.68249e-06 -2.52249e-06 -1.04347e-07 -1.54175e-06 -1.15232e-07 7.30817e-07 -1.59085e-06 -2.37532e-06 -8.9989e-08 -1.41547e-06 -7.28954e-08 7.16847e-07 -1.49072e-06 -2.21307e-06 -8.19176e-08 -1.29378e-06 -4.06095e-08 6.8623e-07 -1.38728e-06 -2.0512e-06 -7.21969e-08 -1.17927e-06 -1.78309e-08 6.49947e-07 -1.28373e-06 -1.88802e-06 -6.62985e-08 -1.0717e-06 -4.85064e-10 6.07106e-07 -1.17851e-06 -1.72997e-06 -6.08464e-08 -9.66635e-07 1.17191e-08 5.65934e-07 -1.08191e-06 -1.57964e-06 -5.12033e-08 -8.64849e-07 2.1304e-08 5.21347e-07 -9.84486e-07 -1.43096e-06 -4.82153e-08 -7.74725e-07 3.08889e-08 4.79204e-07 -8.96398e-07 -1.29281e-06 -4.24528e-08 -6.87859e-07 3.79514e-08 4.35859e-07 -8.02334e-07 -1.15812e-06 -3.61664e-08 -6.04273e-07 4.21035e-08 3.99033e-07 -7.21387e-07 -1.03163e-06 -3.02098e-08 -5.30757e-07 4.55184e-08 3.56697e-07 -6.39081e-07 -9.12871e-07 -3.30037e-08 -4.56775e-07 4.55572e-08 3.20065e-07 -5.69193e-07 -8.01558e-07 -2.42532e-08 -3.86188e-07 5.02914e-08 2.83122e-07 -4.90244e-07 -6.92652e-07 -2.4098e-08 -3.29824e-07 4.8584e-08 2.5138e-07 -4.30581e-07 -5.99364e-07 -2.08771e-08 -2.70006e-07 5.07571e-08 2.19831e-07 -3.6339e-07 -5.06698e-07 -1.42803e-08 -2.19812e-07 4.6993e-08 1.90494e-07 -3.03766e-07 -4.20667e-07 -1.44937e-08 -1.71092e-07 4.65273e-08 1.63564e-07 -2.55609e-07 -3.44919e-07 -1.35818e-08 -1.32151e-07 4.41602e-08 1.33567e-07 -1.97421e-07 -2.71015e-07 -9.31323e-09 -8.801e-08 3.81066e-08 1.11836e-07 -1.60537e-07 -2.13971e-07 -1.04386e-08 -6.03807e-08 3.36052e-08 8.70787e-08 -1.15406e-07 -1.55958e-07 -1.12729e-08 -3.51186e-08 2.9065e-08 6.96552e-08 -8.04236e-08 -1.07316e-07 -8.55653e-09 -1.40863e-08 1.90921e-08 4.60229e-08 -5.15914e-08 -6.49209e-08 -1.05356e-08 3.88051e-09 1.59489e-08 2.92979e-08 -2.12652e-08 -3.21694e-08 -6.48045e-09 1.64922e-08 7.95505e-09 1.88593e-08 -7.04313e-09 -1.13505e-08 -9.60426e-09 1.3737e-08 2.94919e-09 7.21775e-09 4.03573e-09 2.09548e-09 -1.06326e-08 1.44355e-08 -2.13428e-09 -2.13428e-10 -3.43425e-09 3.0656e-09 -1.17841e-06 -2.11391e-06 -2.27068e-06 -2.27068e-06 -4.6861e-07 -1.09793e-06 -6.10598e-07 -2.858e-06 -1.24735e-06 -6.18321e-07 -1.98583e-06 -2.94337e-06 1.17075e-07 -2.1585e-06 -2.09509e-07 7.56389e-07 -1.75556e-06 -2.81807e-06 1.32093e-07 -1.75141e-06 -5.66167e-08 1.01545e-06 -1.55409e-06 -2.61694e-06 1.24875e-07 -1.54411e-06 -1.28833e-08 1.05853e-06 -1.4336e-06 -2.44443e-06 1.16959e-07 -1.39225e-06 2.65039e-08 1.04487e-06 -1.33918e-06 -2.2816e-06 1.09198e-07 -1.27017e-06 5.29302e-08 1.00203e-06 -1.25903e-06 -2.12763e-06 1.02795e-07 -1.16002e-06 7.53207e-08 9.49716e-07 -1.17675e-06 -1.97613e-06 9.83709e-08 -1.05494e-06 8.80876e-08 8.92518e-07 -1.09578e-06 -1.82621e-06 8.87473e-08 -9.64132e-07 9.34039e-08 8.28179e-07 -1.01803e-06 -1.6817e-06 8.26549e-08 -8.77966e-07 9.84098e-08 7.65702e-07 -9.43333e-07 -1.54578e-06 8.08698e-08 -7.88656e-07 1.02445e-07 7.07922e-07 -8.60775e-07 -1.40438e-06 7.307e-08 -7.13393e-07 1.04851e-07 6.50994e-07 -7.85571e-07 -1.27498e-06 6.89955e-08 -6.39993e-07 9.96515e-08 5.91235e-07 -7.18729e-07 -1.15808e-06 6.56194e-08 -5.6638e-07 9.55382e-08 5.36597e-07 -6.46512e-07 -1.0354e-06 5.70435e-08 -5.00101e-07 9.84874e-08 4.88789e-07 -5.78099e-07 -9.23212e-07 4.90497e-08 -4.37683e-07 9.02995e-08 4.3648e-07 -5.13217e-07 -8.18943e-07 4.96317e-08 -3.79456e-07 8.89025e-08 3.95463e-07 -4.57842e-07 -7.19272e-07 4.28408e-08 -3.267e-07 8.47504e-08 3.46879e-07 -4.01109e-07 -6.26198e-07 4.02797e-08 -2.77961e-07 7.94729e-08 3.05086e-07 -3.50585e-07 -5.39333e-07 3.83394e-08 -2.29144e-07 7.6058e-08 2.65155e-07 -3.0072e-07 -4.59569e-07 2.82501e-08 -1.91872e-07 6.40672e-08 2.23168e-07 -2.53106e-07 -3.87527e-07 2.2701e-08 -1.52252e-07 6.05748e-08 1.95228e-07 -2.13195e-07 -3.19482e-07 2.20801e-08 -1.16357e-07 5.5957e-08 1.62361e-07 -1.7406e-07 -2.57976e-07 2.04503e-08 -9.21427e-08 4.66049e-08 1.30618e-07 -1.39582e-07 -2.02194e-07 1.55997e-08 -6.36986e-08 4.50139e-08 1.07684e-07 -1.07684e-07 -1.51709e-07 1.21072e-08 -4.02797e-08 3.85723e-08 8.26549e-08 -8.05982e-08 -1.15988e-07 8.11027e-09 -2.79785e-08 2.82113e-08 6.35628e-08 -5.56077e-08 -7.76296e-08 1.03222e-08 -1.13699e-08 2.44084e-08 4.64109e-08 -3.7835e-08 -4.79049e-08 6.51926e-09 -3.89991e-09 1.81996e-08 2.82501e-08 -1.83548e-08 -2.71054e-08 3.25963e-09 7.33417e-09 1.30773e-08 2.18085e-08 -5.21929e-09 -7.64461e-09 -3.29843e-09 1.53668e-08 6.0924e-09 8.49832e-09 6.8297e-09 6.51926e-09 -3.26021e-07 -1.43402e-06 -8.6353e-07 -8.6353e-07 -3.40321e-07 -9.7461e-07 -4.28602e-08 -1.63709e-06 -4.51963e-07 1.83083e-07 -1.00395e-06 -1.9889e-06 9.49949e-08 -1.74202e-06 -1.17385e-07 8.7199e-07 -1.41877e-06 -2.58556e-06 3.63449e-07 -1.38783e-06 2.01981e-07 1.37824e-06 -1.20086e-06 -2.33739e-06 3.84015e-07 -1.21862e-06 2.39699e-07 1.38484e-06 -1.08175e-06 -2.1504e-06 3.62207e-07 -1.09397e-06 2.43618e-07 1.31988e-06 -1.00377e-06 -1.99613e-06 3.40243e-07 -9.94614e-07 2.41717e-07 1.24075e-06 -9.38307e-07 -1.85203e-06 3.14205e-07 -9.04722e-07 2.36051e-07 1.15562e-06 -8.77015e-07 -1.7154e-06 2.89719e-07 -8.28101e-07 2.32481e-07 1.07591e-06 -8.17371e-07 -1.58335e-06 2.66319e-07 -7.56331e-07 2.20374e-07 9.90694e-07 -7.6058e-07 -1.45729e-06 2.48663e-07 -6.8458e-07 2.10945e-07 9.11299e-07 -6.99889e-07 -1.33319e-06 2.28562e-07 -6.22589e-07 2.007e-07 8.37104e-07 -6.43738e-07 -1.21866e-06 2.10751e-07 -5.57571e-07 1.87118e-07 7.64577e-07 -5.88984e-07 -1.10639e-06 1.9387e-07 -5.02332e-07 1.77417e-07 6.96862e-07 -5.32678e-07 -9.9735e-07 1.76408e-07 -4.50372e-07 1.62826e-07 6.29264e-07 -4.8e-07 -8.93798e-07 1.60459e-07 -3.95385e-07 1.51534e-07 5.6671e-07 -4.36596e-07 -7.99909e-07 1.42919e-07 -3.49847e-07 1.39349e-07 5.03768e-07 -3.90903e-07 -7.10696e-07 1.29881e-07 -3.03669e-07 1.26854e-07 4.475e-07 -3.42804e-07 -6.19659e-07 1.16765e-07 -2.63448e-07 1.18239e-07 3.95812e-07 -3.05222e-07 -5.44203e-07 1.02329e-07 -2.22858e-07 1.0881e-07 3.48276e-07 -2.61973e-07 -4.65914e-07 8.86697e-08 -1.90552e-07 9.75172e-08 3.01749e-07 -2.28213e-07 -3.98179e-07 7.81147e-08 -1.61274e-07 8.50608e-08 2.55299e-07 -1.97033e-07 -3.38012e-07 6.95776e-08 -1.28076e-07 7.53595e-08 2.16532e-07 -1.65931e-07 -2.80076e-07 5.66167e-08 -1.01999e-07 6.69776e-08 1.81259e-07 -1.35857e-07 -2.26738e-07 4.77303e-08 -8.31205e-08 5.67719e-08 1.4777e-07 -1.09314e-07 -1.79241e-07 3.91932e-08 -5.87121e-08 4.7187e-08 1.17153e-07 -8.81264e-08 -1.429e-07 3.14709e-08 -4.56542e-08 3.85723e-08 9.33651e-08 -7.21969e-08 -1.04716e-07 2.93755e-08 -3.04232e-08 3.49634e-08 6.75597e-08 -5.04854e-08 -7.4661e-08 2.2895e-08 -2.04115e-08 2.72412e-08 5.14556e-08 -3.44977e-08 -4.79243e-08 1.56773e-08 -1.22624e-08 2.17697e-08 3.51962e-08 -2.39039e-08 -3.17814e-08 1.08654e-08 -4.21035e-09 1.57549e-08 2.36711e-08 -1.40474e-08 -1.34266e-08 5.82077e-09 7.64461e-09 1.14863e-08 1.09042e-08 -1.72683e-09 3.91932e-09 3.96821e-07 -8.19312e-07 4.31474e-07 4.31474e-07 -2.82812e-07 -8.91567e-07 5.3132e-07 -1.01303e-06 3.99421e-07 1.01037e-06 -6.07087e-07 -1.57937e-06 5.19717e-07 -1.05206e-06 3.86344e-07 1.36342e-06 -8.42032e-07 -1.99561e-06 5.99345e-07 -9.75677e-07 4.66942e-07 1.62749e-06 -8.16595e-07 -1.96138e-06 6.39237e-07 -8.85571e-07 4.87547e-07 1.64006e-06 -7.42633e-07 -1.81975e-06 6.13897e-07 -8.04216e-07 4.68416e-07 1.55251e-06 -6.8623e-07 -1.68276e-06 5.76489e-07 -7.3202e-07 4.44823e-07 1.44762e-06 -6.33649e-07 -1.55374e-06 5.37528e-07 -6.6706e-07 4.1568e-07 1.3413e-06 -5.8877e-07 -1.43713e-06 4.96201e-07 -6.03516e-07 3.84791e-07 1.23792e-06 -5.45988e-07 -1.32339e-06 4.61509e-07 -5.5144e-07 3.59452e-07 1.14103e-06 -5.05165e-07 -1.21454e-06 4.24256e-07 -5.02371e-07 3.31667e-07 1.04456e-06 -4.64284e-07 -1.11047e-06 3.87663e-07 -4.5662e-07 3.02951e-07 9.52122e-07 -4.28408e-07 -1.01105e-06 3.55222e-07 -4.12537e-07 2.78194e-07 8.63258e-07 -3.88633e-07 -9.1613e-07 3.23518e-07 -3.68668e-07 2.55881e-07 7.85377e-07 -3.51885e-07 -8.24841e-07 2.93056e-07 -3.30328e-07 2.31861e-07 7.06447e-07 -3.16533e-07 -7.38481e-07 2.62051e-07 -2.92998e-07 2.08616e-07 6.31864e-07 -2.83879e-07 -6.59978e-07 2.35431e-07 -2.58442e-07 1.85838e-07 5.62984e-07 -2.54678e-07 -5.84812e-07 2.13428e-07 -2.28387e-07 1.67754e-07 4.98723e-07 -2.25186e-07 -5.10986e-07 1.87856e-07 -1.93346e-07 1.5037e-07 4.36829e-07 -1.94705e-07 -4.4783e-07 1.63525e-07 -1.67328e-07 1.27785e-07 3.81377e-07 -1.7373e-07 -3.82754e-07 1.43928e-07 -1.43094e-07 1.14708e-07 3.24061e-07 -1.51786e-07 -3.2864e-07 1.24409e-07 -1.21266e-07 1.00854e-07 2.77922e-07 -1.28096e-07 -2.72897e-07 1.0749e-07 -1.02057e-07 8.42847e-08 2.29222e-07 -1.0782e-07 -2.25593e-07 8.63802e-08 -8.00743e-08 7.2682e-08 1.90572e-07 -9.04353e-08 -1.88573e-07 7.36133e-08 -6.52896e-08 5.68107e-08 1.54988e-07 -7.42924e-08 -1.46412e-07 6.3524e-08 -4.8584e-08 5.23869e-08 1.24564e-07 -5.65584e-08 -1.14281e-07 4.78855e-08 -3.92708e-08 3.97752e-08 9.7556e-08 -4.63915e-08 -8.4828e-08 4.15991e-08 -2.63875e-08 3.26351e-08 7.1091e-08 -3.19754e-08 -5.98957e-08 3.17038e-08 -1.92667e-08 2.36711e-08 5.16496e-08 -2.35935e-08 -4.01633e-08 2.468e-08 -1.23982e-08 1.89369e-08 3.55067e-08 -1.84712e-08 -2.33801e-08 1.54056e-08 -8.55653e-09 1.57161e-08 2.06443e-08 -1.3446e-08 -1.55803e-08 1.76563e-08 -2.77457e-09 1.3931e-08 1.61041e-08 -8.49832e-09 -5.08347e-09 1.1543e-06 -2.58733e-07 1.74557e-06 1.74557e-06 -2.94356e-07 -8.72145e-07 1.10536e-06 -4.98568e-07 1.25981e-06 1.84115e-06 -3.69522e-07 -1.29623e-06 1.00195e-06 -5.74859e-07 9.51268e-07 1.88337e-06 -4.43659e-07 -1.55372e-06 9.3563e-07 -5.63276e-07 8.17352e-07 1.9337e-06 -4.33317e-07 -1.53193e-06 8.94885e-07 -5.66108e-07 7.43933e-07 1.84902e-06 -4.16088e-07 -1.46295e-06 8.58873e-07 -5.24335e-07 6.94573e-07 1.74778e-06 -3.79689e-07 -1.3582e-06 8.11958e-07 -4.77148e-07 6.41254e-07 1.62551e-06 -3.45773e-07 -1.251e-06 7.56506e-07 -4.37217e-07 5.90575e-07 1.50087e-06 -3.15311e-07 -1.15162e-06 7.00122e-07 -4.00022e-07 5.3714e-07 1.37785e-06 -2.8838e-07 -1.0543e-06 6.45407e-07 -3.63604e-07 4.90923e-07 1.26058e-06 -2.61275e-07 -9.63026e-07 5.93097e-07 -3.27205e-07 4.47617e-07 1.15259e-06 -2.34344e-07 -8.75443e-07 5.43077e-07 -2.9715e-07 4.04466e-07 1.04824e-06 -2.12186e-07 -7.95679e-07 4.94338e-07 -2.68124e-07 3.6407e-07 9.49794e-07 -1.90805e-07 -7.16148e-07 4.43659e-07 -2.41756e-07 3.27554e-07 8.54799e-07 -1.73827e-07 -6.47017e-07 4.02797e-07 -2.1465e-07 2.88167e-07 7.62831e-07 -1.53222e-07 -5.74684e-07 3.64535e-07 -1.91251e-07 2.60964e-07 6.8363e-07 -1.37584e-07 -5.09841e-07 3.22005e-07 -1.69248e-07 2.31162e-07 6.04312e-07 -1.19423e-07 -4.51478e-07 2.88904e-07 -1.48953e-07 1.97169e-07 5.29961e-07 -1.03183e-07 -3.92475e-07 2.50797e-07 -1.2827e-07 1.74856e-07 4.64614e-07 -9.06681e-08 -3.38458e-07 2.20452e-07 -1.12884e-07 1.5068e-07 3.98839e-07 -7.70281e-08 -2.91446e-07 1.94026e-07 -9.51113e-08 1.23439e-07 3.38148e-07 -6.57941e-08 -2.46005e-07 1.62361e-07 -8.09863e-08 1.06869e-07 2.87313e-07 -5.73345e-08 -2.05919e-07 1.38457e-07 -6.63373e-08 9.18905e-08 2.4063e-07 -4.30931e-08 -1.68317e-07 1.14436e-07 -5.34734e-08 6.94611e-08 1.94802e-07 -3.9717e-08 -1.32306e-07 9.56934e-08 -4.45483e-08 5.81689e-08 1.50758e-07 -2.7668e-08 -1.04134e-07 7.46998e-08 -3.44977e-08 4.26856e-08 1.19209e-07 -2.32831e-08 -8.00743e-08 5.94106e-08 -2.50293e-08 3.37604e-08 9.05323e-08 -1.6919e-08 -5.9624e-08 4.36169e-08 -2.03339e-08 2.23905e-08 6.50762e-08 -1.13117e-08 -3.84559e-08 3.46142e-08 -1.45131e-08 1.74623e-08 4.45871e-08 -6.48045e-09 -2.84829e-08 2.27398e-08 -1.17968e-08 7.41178e-09 2.94143e-08 -6.0536e-09 -1.71519e-08 1.73459e-08 -1.33296e-08 4.34617e-09 1.54444e-08 -1.364e-08 -1.53668e-08 1.97518e-08 -2.15756e-08 7.99385e-09 9.74008e-09 -1.78698e-08 -9.42964e-09 2.06133e-06 1.86575e-07 3.18291e-06 3.18291e-06 -4.03088e-07 -9.44303e-07 1.6992e-06 -5.1669e-08 2.13343e-06 2.67957e-06 -2.08189e-07 -1.07506e-06 1.48488e-06 -1.65387e-07 1.52772e-06 2.40064e-06 -1.16862e-07 -1.15798e-06 1.29551e-06 -2.13622e-07 1.19384e-06 2.24088e-06 -9.76919e-08 -1.134e-06 1.18775e-06 -2.38205e-07 1.03695e-06 2.07898e-06 -8.89607e-08 -1.0847e-06 1.11149e-06 -2.37157e-07 9.29188e-07 1.93044e-06 -7.37879e-08 -1.0178e-06 1.04091e-06 -2.24565e-07 8.36056e-07 1.78511e-06 -5.42689e-08 -9.34311e-07 9.69623e-07 -2.02795e-07 7.57165e-07 1.64173e-06 -3.68649e-08 -8.51306e-07 8.9407e-07 -1.88864e-07 6.83591e-07 1.50191e-06 -2.57278e-08 -7.76801e-07 8.28295e-07 -1.67851e-07 6.15061e-07 1.36947e-06 -1.30773e-08 -7.02741e-07 7.54721e-07 -1.50855e-07 5.54913e-07 1.24735e-06 -5.06407e-09 -6.34308e-07 6.9174e-07 -1.36885e-07 4.98801e-07 1.13032e-06 2.01787e-09 -5.68456e-07 6.26431e-07 -1.21693e-07 4.47345e-07 1.01976e-06 8.84756e-09 -5.08308e-07 5.68456e-07 -1.08693e-07 3.94027e-07 9.12696e-07 7.64461e-09 -4.52584e-07 5.15409e-07 -1.01805e-07 3.51225e-07 8.12695e-07 1.30385e-08 -4.0043e-07 4.5856e-07 -8.73697e-08 3.09005e-07 7.23444e-07 1.64146e-08 -3.50449e-07 4.06794e-07 -7.53789e-08 2.68725e-07 6.36326e-07 1.56773e-08 -3.0396e-07 3.59064e-07 -6.70552e-08 2.3155e-07 5.51731e-07 2.48353e-08 -2.61042e-07 3.15563e-07 -5.41719e-08 1.99419e-07 4.85724e-07 2.18861e-08 -2.22955e-07 2.71248e-07 -4.64691e-08 1.64611e-07 4.09782e-07 2.34383e-08 -1.86924e-07 2.31472e-07 -4.44901e-08 1.36051e-07 3.46607e-07 2.61934e-08 -1.49865e-07 1.96354e-07 -3.59141e-08 1.08305e-07 2.84558e-07 1.96354e-08 -1.25884e-07 1.63952e-07 -2.49711e-08 8.6419e-08 2.32093e-07 2.16532e-08 -9.6974e-08 1.35197e-07 -2.39233e-08 6.55806e-08 1.84247e-07 2.10712e-08 -7.7455e-08 1.06481e-07 -1.58519e-08 4.5596e-08 1.442e-07 2.17309e-08 -5.51615e-08 7.90072e-08 -1.80056e-08 3.17038e-08 1.08654e-07 1.40086e-08 -3.91738e-08 6.48821e-08 -9.50725e-09 1.9907e-08 7.307e-08 1.61817e-08 -2.57666e-08 4.38498e-08 -9.46845e-09 8.92518e-09 5.08735e-08 1.17579e-08 -1.74041e-08 2.96859e-08 -8.26549e-09 1.74623e-09 3.09277e-08 8.84756e-09 -7.45058e-09 1.99846e-08 -1.03998e-08 -1.66862e-09 1.46295e-08 4.92825e-09 -1.29997e-09 1.45519e-08 -1.37758e-08 -3.29843e-10 5.89838e-09 -7.95505e-10 -6.46105e-09 1.55997e-08 -2.7183e-08 -1.26117e-09 4.42378e-09 -1.54832e-08 -1.47653e-08 3.19087e-06 4.45677e-07 4.84947e-06 4.84947e-06 -6.68108e-07 -1.18957e-06 2.28302e-06 3.4164e-07 2.98233e-06 3.51054e-06 -9.35979e-08 -8.92382e-07 1.93762e-06 2.17231e-07 2.07673e-06 2.8824e-06 1.72101e-07 -7.7488e-07 1.65415e-06 1.11448e-07 1.57285e-06 2.52551e-06 2.10789e-07 -7.44728e-07 1.49225e-06 7.79983e-08 1.32717e-06 2.28787e-06 2.27243e-07 -7.02004e-07 1.37502e-06 5.66943e-08 1.16295e-06 2.09695e-06 2.38186e-07 -6.51868e-07 1.27502e-06 3.79126e-08 1.03148e-06 1.92582e-06 2.42454e-07 -5.96415e-07 1.1822e-06 3.17426e-08 9.21156e-07 1.76373e-06 2.44162e-07 -5.38964e-07 1.08829e-06 2.89874e-08 8.20883e-07 1.60723e-06 2.39622e-07 -4.8128e-07 1.00463e-06 2.55338e-08 7.37103e-07 1.46066e-06 2.39001e-07 -4.25052e-07 9.15839e-07 2.61934e-08 6.61355e-07 1.32768e-06 2.26273e-07 -3.81396e-07 8.33146e-07 2.83665e-08 5.85297e-07 1.19477e-06 2.21694e-07 -3.31609e-07 7.57282e-07 2.77457e-08 5.21075e-07 1.07579e-06 2.07103e-07 -2.91523e-07 6.81651e-07 2.21965e-08 4.62052e-07 9.61823e-07 1.96858e-07 -2.52932e-07 6.10715e-07 2.01787e-08 4.03418e-07 8.54217e-07 1.84596e-07 -2.16261e-07 5.45833e-07 2.28562e-08 3.49324e-07 7.50879e-07 1.72605e-07 -1.80192e-07 4.8355e-07 2.3089e-08 3.0462e-07 6.58018e-07 1.6139e-07 -1.51709e-07 4.23868e-07 2.00622e-08 2.56696e-07 5.70202e-07 1.4777e-07 -1.23866e-07 3.65505e-07 1.98294e-08 2.13894e-07 4.85801e-07 1.36128e-07 -9.84874e-08 3.1533e-07 1.84324e-08 1.75438e-07 4.10286e-07 1.25224e-07 -7.81147e-08 2.64767e-07 1.8122e-08 1.34693e-07 3.38187e-07 1.1366e-07 -5.59764e-08 2.22431e-07 1.52892e-08 1.06016e-07 2.75749e-07 1.03416e-07 -3.75439e-08 1.79474e-07 1.29221e-08 7.77654e-08 2.18744e-07 9.04935e-08 -2.16338e-08 1.45597e-07 1.24564e-08 5.48316e-08 1.66978e-07 8.2228e-08 -7.33417e-09 1.09547e-07 1.32325e-08 3.2053e-08 1.21654e-07 7.41178e-08 1.20296e-09 8.21504e-08 1.24176e-08 1.26117e-08 8.56041e-08 5.97599e-08 4.85064e-09 5.63062e-08 1.03998e-08 6.20882e-10 5.55301e-08 5.54137e-08 1.31937e-08 3.69037e-08 7.6058e-09 -1.0264e-08 3.19366e-08 4.25304e-08 1.84712e-08 2.05279e-08 2.83277e-09 -1.24758e-08 1.15251e-08 3.08113e-08 1.59489e-08 1.0943e-08 3.25963e-09 -1.54832e-08 -6.01479e-10 2.49129e-08 1.04386e-08 6.8685e-09 -5.68495e-09 -1.87235e-08 -4.24916e-09 9.23562e-09 4.03573e-09 5.78196e-09 -2.92008e-08 -9.66247e-09 -4.46259e-09 -1.23594e-08 -1.71131e-08 4.25506e-06 3.55843e-07 6.63692e-06 6.63692e-06 -1.28191e-06 -1.83608e-06 2.88458e-06 6.65818e-07 3.7937e-06 4.35712e-06 -3.32172e-08 -7.86172e-07 2.39008e-06 5.94533e-07 2.57534e-06 3.33627e-06 4.52468e-07 -3.94143e-07 2.01845e-06 4.5173e-07 1.91837e-06 2.77045e-06 5.30776e-07 -3.33219e-07 1.80226e-06 3.93833e-07 1.59493e-06 2.46366e-06 5.57707e-07 -2.93852e-07 1.6465e-06 3.50527e-07 1.37669e-06 2.2323e-06 5.62092e-07 -2.63564e-07 1.51332e-06 3.10945e-07 1.20494e-06 2.03412e-06 5.54331e-07 -2.32675e-07 1.3931e-06 2.79552e-07 1.06636e-06 1.85628e-06 5.40749e-07 -1.97615e-07 1.28344e-06 2.52427e-07 9.52394e-07 1.69311e-06 5.20027e-07 -1.65465e-07 1.1716e-06 2.29493e-07 8.47969e-07 1.53544e-06 4.97365e-07 -1.37486e-07 1.06931e-06 2.14437e-07 7.55885e-07 1.39229e-06 4.69193e-07 -1.10187e-07 9.70477e-07 1.92279e-07 6.73618e-07 1.25426e-06 4.40477e-07 -8.65742e-08 8.8138e-07 1.77301e-07 5.92438e-07 1.12042e-06 4.13818e-07 -6.15255e-08 7.92245e-07 1.65426e-07 5.26158e-07 1.00218e-06 3.85296e-07 -3.97364e-08 7.04546e-07 1.49788e-07 4.56232e-07 8.81807e-07 3.57395e-07 -2.37487e-08 6.29186e-07 1.36167e-07 3.90573e-07 7.72105e-07 3.3287e-07 -6.55806e-09 5.4688e-07 1.24526e-07 3.32521e-07 6.7226e-07 3.03689e-07 5.00586e-09 4.77497e-07 1.15639e-07 2.78e-07 5.76838e-07 2.82967e-07 2.18473e-08 4.13973e-07 1.05317e-07 2.26971e-07 4.88207e-07 2.57123e-07 3.29843e-08 3.45559e-07 9.22009e-08 1.76524e-07 4.0074e-07 2.32249e-07 4.21812e-08 2.90456e-07 8.40907e-08 1.37913e-07 3.2802e-07 2.14321e-07 5.04854e-08 2.36866e-07 7.27984e-08 9.7362e-08 2.6112e-07 1.8933e-07 5.25809e-08 1.929e-07 6.74821e-08 6.31747e-08 1.99924e-07 1.69307e-07 5.99151e-08 1.44821e-07 5.81301e-08 3.56231e-08 1.44976e-07 1.48973e-07 6.34852e-08 1.01553e-07 4.65661e-08 9.62367e-09 9.51889e-08 1.24099e-07 6.05748e-08 7.30312e-08 4.15215e-08 -9.1386e-09 5.4366e-08 1.11021e-07 6.08852e-08 4.24528e-08 3.55455e-08 -2.50293e-08 2.51457e-08 9.12696e-08 5.58406e-08 1.87429e-08 3.05784e-08 -3.87081e-08 -3.27903e-09 7.77654e-08 5.15332e-08 3.22082e-09 2.2701e-08 -3.80484e-08 -1.1855e-08 5.57629e-08 3.97752e-08 -1.13311e-08 1.22624e-08 -4.26274e-08 -2.66785e-08 3.86887e-08 3.0462e-08 -7.5864e-09 -3.68649e-10 -2.82501e-08 -2.00234e-08 2.51845e-08 1.86653e-08 5.82077e-10 -1.54056e-08 -1.62399e-08 -9.74008e-09 3.88051e-11 -7.66401e-09 -2.58692e-06 -4.66135e-06 -4.17617e-06 -4.17617e-06 -2.53153e-06 -3.07571e-06 3.62052e-08 -3.09129e-06 -8.944e-07 -3.4651e-07 -1.93071e-06 -2.69796e-06 -1.80774e-07 -2.44602e-06 -6.65837e-07 1.07102e-07 -1.87883e-06 -2.75373e-06 -2.30153e-07 -2.08123e-06 -4.45095e-07 4.36713e-07 -1.86069e-06 -2.75897e-06 -2.03533e-07 -1.84734e-06 -2.83607e-07 6.21929e-07 -1.79759e-06 -2.68609e-06 -1.75942e-07 -1.67529e-06 -1.89078e-07 7.06369e-07 -1.71177e-06 -2.56647e-06 -1.5231e-07 -1.53191e-06 -1.26039e-07 7.35163e-07 -1.61443e-06 -2.41859e-06 -1.32131e-07 -1.4088e-06 -8.3625e-08 7.26199e-07 -1.5114e-06 -2.25879e-06 -1.16124e-07 -1.28852e-06 -5.29496e-08 6.99346e-07 -1.40197e-06 -2.09109e-06 -1.01417e-07 -1.17248e-06 -3.22664e-08 6.61161e-07 -1.29427e-06 -1.92627e-06 -9.10174e-08 -1.06547e-06 -1.30967e-08 6.2255e-07 -1.19306e-06 -1.76606e-06 -7.98415e-08 -9.60116e-07 -2.85218e-09 5.73113e-07 -1.09122e-06 -1.60923e-06 -7.35163e-08 -8.62599e-07 1.06326e-08 5.31087e-07 -9.8662e-07 -1.45711e-06 -6.62403e-08 -7.70029e-07 1.68414e-08 4.89332e-07 -9.00298e-07 -1.31798e-06 -5.5045e-08 -6.8685e-07 2.37099e-08 4.43038e-07 -8.04061e-07 -1.17704e-06 -4.8778e-08 -6.04273e-07 3.15486e-08 4.05863e-07 -7.21659e-07 -1.05071e-06 -4.49169e-08 -5.2579e-07 3.25187e-08 3.62634e-07 -6.40944e-07 -9.31245e-07 -3.91738e-08 -4.47559e-07 3.91544e-08 3.30309e-07 -5.61296e-07 -8.15082e-07 -3.66126e-08 -3.84171e-07 3.88827e-08 2.93328e-07 -4.87159e-07 -7.05244e-07 -2.93561e-08 -3.2086e-07 3.8029e-08 2.56657e-07 -4.20395e-07 -6.10036e-07 -2.42338e-08 -2.65834e-07 3.90767e-08 2.29105e-07 -3.64205e-07 -5.13663e-07 -2.08771e-08 -2.18744e-07 4.26468e-08 1.92396e-07 -3.01108e-07 -4.3095e-07 -1.88593e-08 -1.72508e-07 3.65544e-08 1.66552e-07 -2.50584e-07 -3.53301e-07 -1.54444e-08 -1.23944e-07 3.79514e-08 1.40746e-07 -2.01185e-07 -2.81046e-07 -1.61041e-08 -9.06875e-08 3.07725e-08 1.10672e-07 -1.52834e-07 -2.15912e-07 -9.41024e-09 -6.00121e-08 2.81337e-08 9.1192e-08 -1.11429e-07 -1.5685e-07 -6.49986e-09 -3.05396e-08 2.61158e-08 7.15566e-08 -8.19758e-08 -1.11235e-07 -1.11953e-08 -1.15445e-08 2.05279e-08 4.98258e-08 -4.84676e-08 -7.12656e-08 -9.1386e-09 6.59687e-09 1.31161e-08 3.58947e-08 -2.16338e-08 -3.45365e-08 -8.12967e-09 1.12147e-08 4.15215e-09 1.70742e-08 -3.7641e-09 -1.05162e-08 -9.54606e-09 1.66862e-08 4.69542e-09 1.14087e-08 2.75516e-09 -3.0268e-09 -1.62011e-08 1.59877e-08 -1.62981e-09 4.19095e-09 1.10207e-08 -1.5328e-09 -1.26474e-06 -2.14608e-06 -2.33871e-06 -2.33871e-06 -5.48316e-07 -1.10727e-06 -6.28391e-07 -2.95251e-06 -1.29021e-06 -7.31496e-07 -2.02784e-06 -2.86826e-06 1.78154e-07 -2.25506e-06 -2.17115e-07 6.30583e-07 -1.77273e-06 -2.73202e-06 1.27436e-07 -1.85436e-06 -6.49015e-08 9.02452e-07 -1.64066e-06 -2.63211e-06 1.07063e-07 -1.59396e-06 9.8953e-09 1.00963e-06 -1.51419e-06 -2.48805e-06 9.41412e-08 -1.42081e-06 4.17543e-08 1.02321e-06 -1.40756e-06 -2.33576e-06 8.85533e-08 -1.28493e-06 6.20494e-08 9.97097e-07 -1.31097e-06 -2.17716e-06 8.44787e-08 -1.17044e-06 7.7843e-08 9.49949e-07 -1.21867e-06 -2.01951e-06 7.84251e-08 -1.06815e-06 8.6225e-08 8.92246e-07 -1.13096e-06 -1.864e-06 7.38849e-08 -9.72437e-07 9.2783e-08 8.30196e-07 -1.04124e-06 -1.7141e-06 7.03925e-08 -8.81982e-07 9.27442e-08 7.69272e-07 -9.59553e-07 -1.56967e-06 6.5115e-08 -7.99172e-07 9.44128e-08 7.07611e-07 -8.75909e-07 -1.42845e-06 6.45329e-08 -7.15721e-07 9.55382e-08 6.50606e-07 -7.99599e-07 -1.29735e-06 5.65778e-08 -6.44242e-07 9.27442e-08 5.92593e-07 -7.27033e-07 -1.1725e-06 5.10675e-08 -5.75751e-07 8.90189e-08 5.36209e-07 -6.54293e-07 -1.05022e-06 4.88556e-08 -5.06504e-07 8.61085e-08 4.83395e-07 -5.86656e-07 -9.38579e-07 4.79631e-08 -4.42786e-07 8.44011e-08 4.37489e-07 -5.20047e-07 -8.25074e-07 4.5596e-08 -3.86402e-07 8.4828e-08 3.90767e-07 -4.64652e-07 -7.28527e-07 3.83783e-08 -3.28078e-07 7.79207e-08 3.42455e-07 -4.03457e-07 -6.34541e-07 3.3644e-08 -2.819e-07 7.29536e-08 3.04504e-07 -3.49246e-07 -5.48859e-07 3.20142e-08 -2.32326e-07 6.46881e-08 2.6469e-07 -2.9554e-07 -4.61955e-07 2.24682e-08 -1.91911e-07 6.28643e-08 2.29532e-07 -2.55376e-07 -3.923e-07 2.82889e-08 -1.54561e-07 5.76644e-08 1.9484e-07 -2.09974e-07 -3.18959e-07 2.01399e-08 -1.18181e-07 5.20376e-08 1.61158e-07 -1.71557e-07 -2.58423e-07 1.74623e-08 -9.15218e-08 4.53632e-08 1.32325e-07 -1.38398e-07 -2.05143e-07 1.92473e-08 -6.44359e-08 4.06678e-08 1.0749e-07 -1.0196e-07 -1.52077e-07 1.15251e-08 -4.41214e-08 3.35664e-08 8.37026e-08 -7.67371e-08 -1.11332e-07 1.24564e-08 -2.41562e-08 2.91426e-08 6.37568e-08 -5.59182e-08 -7.90654e-08 1.0361e-08 -1.11953e-08 2.57278e-08 4.88944e-08 -3.34112e-08 -4.7381e-08 5.47152e-09 -3.25963e-09 1.70742e-08 3.10441e-08 -1.5522e-08 -2.66979e-08 3.45365e-09 6.63567e-09 1.00117e-08 2.12264e-08 -7.6058e-09 -1.10012e-08 -3.57007e-09 1.6531e-08 6.90731e-09 1.02834e-08 1.90145e-09 3.29843e-09 -3.88594e-07 -1.46854e-06 -9.32099e-07 -9.32099e-07 -3.92688e-07 -9.59709e-07 -8.36056e-08 -1.68556e-06 -4.83182e-07 8.46727e-08 -1.02599e-06 -1.90248e-06 1.32442e-07 -1.82634e-06 -1.38806e-07 7.42264e-07 -1.43379e-06 -2.47604e-06 3.67252e-07 -1.50946e-06 1.97479e-07 1.24821e-06 -1.31842e-06 -2.39053e-06 3.69929e-07 -1.27768e-06 2.53397e-07 1.33412e-06 -1.18103e-06 -2.22547e-06 3.44046e-07 -1.13385e-06 2.5169e-07 1.30393e-06 -1.08158e-06 -2.06253e-06 3.18396e-07 -1.02215e-06 2.44977e-07 1.23276e-06 -9.95681e-07 -1.91057e-06 2.93328e-07 -9.27985e-07 2.34034e-07 1.15488e-06 -9.21253e-07 -1.76136e-06 2.75943e-07 -8.44535e-07 2.25302e-07 1.07063e-06 -8.52218e-07 -1.6232e-06 2.52272e-07 -7.69059e-07 2.14088e-07 9.89414e-07 -7.87763e-07 -1.49068e-06 2.32326e-07 -7.00316e-07 2.0396e-07 9.10523e-07 -7.22512e-07 -1.36012e-06 2.16028e-07 -6.31902e-07 1.94181e-07 8.34814e-07 -6.61045e-07 -1.24068e-06 1.95927e-07 -5.72511e-07 1.78387e-07 7.60658e-07 -6.03322e-07 -1.12383e-06 1.82656e-07 -5.10307e-07 1.68569e-07 6.91158e-07 -5.46337e-07 -1.01462e-06 1.63719e-07 -4.57299e-07 1.5522e-07 6.25228e-07 -4.95056e-07 -9.14307e-07 1.4971e-07 -4.03961e-07 1.40552e-07 5.61161e-07 -4.41098e-07 -8.11066e-07 1.33878e-07 -3.57259e-07 1.30579e-07 5.01634e-07 -3.93542e-07 -7.18787e-07 1.20956e-07 -3.09432e-07 1.208e-07 4.46918e-07 -3.48625e-07 -6.2938e-07 1.07801e-07 -2.67115e-07 1.10439e-07 3.91815e-07 -3.06599e-07 -5.50858e-07 9.58486e-08 -2.32074e-07 1.00117e-07 3.44822e-07 -2.71325e-07 -4.748e-07 8.77383e-08 -1.97634e-07 8.85145e-08 2.92396e-07 -2.30289e-07 -4.04233e-07 7.47774e-08 -1.58073e-07 8.19952e-08 2.5623e-07 -1.9843e-07 -3.41563e-07 6.32135e-08 -1.30172e-07 7.21387e-08 2.15446e-07 -1.59508e-07 -2.81298e-07 5.456e-08 -1.05996e-07 5.9527e-08 1.81453e-07 -1.37836e-07 -2.28543e-07 4.74586e-08 -8.30235e-08 5.64614e-08 1.47265e-07 -1.10886e-07 -1.83393e-07 3.67484e-08 -6.15061e-08 4.5402e-08 1.17929e-07 -8.29653e-08 -1.39116e-07 3.13157e-08 -4.37916e-08 3.71753e-08 9.33263e-08 -6.57941e-08 -1.07645e-07 2.54173e-08 -2.94143e-08 2.90262e-08 7.09357e-08 -4.60811e-08 -7.25267e-08 2.10712e-08 -1.81026e-08 2.39428e-08 5.03302e-08 -3.34888e-08 -5.07571e-08 1.76175e-08 -1.08654e-08 1.95966e-08 3.69037e-08 -2.2507e-08 -2.98217e-08 1.494e-08 -3.08501e-09 1.851e-08 2.5883e-08 -9.66247e-09 -1.29415e-08 7.45058e-09 3.72529e-09 8.30429e-09 1.16027e-08 -6.69388e-09 4.22976e-09 3.66864e-07 -8.54081e-07 3.61276e-07 3.61276e-07 -3.11236e-07 -8.83534e-07 4.7998e-07 -1.03792e-06 3.63332e-07 9.37764e-07 -6.40129e-07 -1.54047e-06 5.13275e-07 -1.09731e-06 3.61664e-07 1.26703e-06 -8.27558e-07 -1.89625e-06 5.49519e-07 -1.09269e-06 4.15564e-07 1.49136e-06 -9.24163e-07 -2.04532e-06 6.13625e-07 -9.38967e-07 4.787e-07 1.60824e-06 -8.23212e-07 -1.90405e-06 5.91351e-07 -8.38055e-07 4.58055e-07 1.54642e-06 -7.46125e-07 -1.7584e-06 5.55146e-07 -7.54061e-07 4.29417e-07 1.44832e-06 -6.80874e-07 -1.61843e-06 5.1343e-07 -6.87394e-07 3.99925e-07 1.3432e-06 -6.28197e-07 -1.48969e-06 4.75983e-07 -6.27246e-07 3.71442e-07 1.23773e-06 -5.76625e-07 -1.36099e-06 4.39972e-07 -5.67137e-07 3.45482e-07 1.13392e-06 -5.28952e-07 -1.24865e-06 4.04039e-07 -5.14614e-07 3.16262e-07 1.03939e-06 -4.86209e-07 -1.13971e-06 3.68843e-07 -4.66612e-07 2.93173e-07 9.49561e-07 -4.44648e-07 -1.03728e-06 3.37488e-07 -4.20026e-07 2.67872e-07 8.62909e-07 -4.02428e-07 -9.36134e-07 3.08927e-07 -3.80387e-07 2.42842e-07 7.78508e-07 -3.66146e-07 -8.43351e-07 2.79009e-07 -3.38672e-07 2.22004e-07 7.0082e-07 -3.30096e-07 -7.56292e-07 2.51535e-07 -3.02854e-07 1.9973e-07 6.27246e-07 -2.93599e-07 -6.72163e-07 2.25535e-07 -2.65155e-07 1.78271e-07 5.57862e-07 -2.61857e-07 -5.95018e-07 2.00894e-07 -2.31026e-07 1.59489e-07 4.93446e-07 -2.30793e-07 -5.25499e-07 1.78892e-07 -2.00816e-07 1.39272e-07 4.34578e-07 -2.03455e-07 -4.50741e-07 1.57626e-07 -1.74565e-07 1.25146e-07 3.72839e-07 -1.78736e-07 -3.90709e-07 1.36904e-07 -1.48177e-07 1.11448e-07 3.23751e-07 -1.48934e-07 -3.2994e-07 1.17541e-07 -1.21441e-07 9.50725e-08 2.76292e-07 -1.28658e-07 -2.81434e-07 9.95739e-08 -1.00311e-07 7.88908e-08 2.31861e-07 -1.09275e-07 -2.31531e-07 8.38578e-08 -8.41295e-08 6.99268e-08 1.92357e-07 -8.90771e-08 -1.86711e-07 7.16342e-08 -6.39314e-08 5.59182e-08 1.53668e-07 -7.29148e-08 -1.48585e-07 5.66555e-08 -5.23869e-08 4.78855e-08 1.23594e-07 -6.1021e-08 -1.16435e-07 4.96705e-08 -3.97946e-08 3.83783e-08 9.37919e-08 -4.55766e-08 -8.71175e-08 3.67484e-08 -2.84635e-08 2.89098e-08 7.04701e-08 -3.21112e-08 -6.06718e-08 3.00352e-08 -2.06443e-08 2.01399e-08 4.87004e-08 -2.34965e-08 -4.0823e-08 1.97906e-08 -1.34266e-08 1.77727e-08 3.51186e-08 -1.54638e-08 -2.81531e-08 1.64146e-08 -9.93411e-09 9.81769e-09 2.24682e-08 -1.35236e-08 -1.27669e-08 1.66086e-08 -4.11334e-09 1.12147e-08 1.04774e-08 -4.98646e-09 -2.32831e-09 1.14991e-06 -2.93949e-07 1.67576e-06 1.67576e-06 -2.8904e-07 -8.50666e-07 1.04898e-06 -5.08192e-07 1.23016e-06 1.7954e-06 -3.92805e-07 -1.28544e-06 9.59495e-07 -5.84812e-07 9.38036e-07 1.83649e-06 -4.34307e-07 -1.49219e-06 9.00085e-07 -6.10909e-07 7.86347e-07 1.8512e-06 -4.77768e-07 -1.5893e-06 8.749e-07 -5.91196e-07 7.23366e-07 1.84216e-06 -4.57279e-07 -1.53309e-06 8.44981e-07 -5.43194e-07 6.74006e-07 1.75667e-06 -4.10597e-07 -1.42069e-06 7.96514e-07 -4.94726e-07 6.22473e-07 1.63866e-06 -3.69522e-07 -1.30065e-06 7.39742e-07 -4.49538e-07 5.71056e-07 1.50738e-06 -3.36382e-07 -1.19365e-06 6.83824e-07 -4.07492e-07 5.20338e-07 1.38204e-06 -3.03087e-07 -1.09005e-06 6.26974e-07 -3.69386e-07 4.72801e-07 1.26349e-06 -2.74954e-07 -9.93935e-07 5.75131e-07 -3.38187e-07 4.32405e-07 1.15453e-06 -2.50468e-07 -9.01869e-07 5.24063e-07 -3.03572e-07 3.93678e-07 1.04774e-06 -2.27902e-07 -8.19059e-07 4.79282e-07 -2.7216e-07 3.53204e-07 9.46495e-07 -2.02563e-07 -7.36754e-07 4.35937e-07 -2.47092e-07 3.17193e-07 8.53169e-07 -1.80968e-07 -6.59124e-07 3.89215e-07 -2.22082e-07 2.82967e-07 7.6252e-07 -1.65058e-07 -5.87044e-07 3.50371e-07 -1.95791e-07 2.55764e-07 6.78895e-07 -1.43967e-07 -5.23539e-07 3.1273e-07 -1.73595e-07 2.21888e-07 6.02372e-07 -1.2633e-07 -4.60093e-07 2.79513e-07 -1.50409e-07 1.96005e-07 5.30427e-07 -1.08965e-07 -3.98839e-07 2.42493e-07 -1.36322e-07 1.70238e-07 4.60694e-07 -9.66635e-08 -3.49983e-07 2.15873e-07 -1.13524e-07 1.46373e-07 4.00081e-07 -8.10639e-08 -2.95579e-07 1.83199e-07 -9.59068e-08 1.27048e-07 3.41834e-07 -7.03731e-08 -2.49847e-07 1.58364e-07 -8.2228e-08 1.06442e-07 2.86188e-07 -5.97793e-08 -2.0978e-07 1.35158e-07 -6.89179e-08 8.63414e-08 2.36517e-07 -4.82153e-08 -1.71674e-07 1.09081e-07 -5.38421e-08 6.74821e-08 1.91076e-07 -3.99693e-08 -1.39116e-07 8.79324e-08 -4.62751e-08 5.39003e-08 1.53086e-07 -3.05396e-08 -1.07316e-07 7.46222e-08 -3.3741e-08 4.2802e-08 1.19597e-07 -2.49323e-08 -7.9046e-08 5.48316e-08 -3.215e-08 3.15486e-08 8.56817e-08 -2.08383e-08 -6.073e-08 4.40438e-08 -2.26622e-08 2.35159e-08 6.34075e-08 -1.48041e-08 -4.13274e-08 2.92202e-08 -2.0004e-08 1.27669e-08 3.92708e-08 -1.01281e-08 -2.99187e-08 1.93637e-08 -1.49982e-08 8.61473e-09 2.84441e-08 -1.29997e-08 -2.18861e-08 1.71519e-08 -1.51728e-08 4.69542e-09 1.35818e-08 -8.57593e-09 -1.16221e-08 1.99458e-08 -1.93637e-08 9.23562e-09 1.22624e-08 -1.3931e-08 -1.13699e-08 2.07766e-06 1.57316e-07 3.11427e-06 3.11427e-06 -3.66669e-07 -9.08563e-07 1.64052e-06 -4.61393e-08 2.10968e-06 2.6566e-06 -2.27553e-07 -1.08247e-06 1.41736e-06 -1.49749e-07 1.53094e-06 2.39253e-06 -1.29046e-07 -1.14137e-06 1.28115e-06 -2.14146e-07 1.19834e-06 2.21748e-06 -1.01223e-07 -1.16644e-06 1.18565e-06 -2.40339e-07 1.01374e-06 2.08543e-06 -8.98338e-08 -1.12517e-06 1.10839e-06 -2.49265e-07 8.98416e-07 1.93971e-06 -7.91818e-08 -1.05366e-06 1.03629e-06 -2.36672e-07 8.16848e-07 1.79656e-06 -6.33493e-08 -9.68614e-07 9.6e-07 -2.14747e-07 7.38151e-07 1.64798e-06 -4.65273e-08 -8.80527e-07 8.84679e-07 -1.96412e-07 6.66517e-07 1.50436e-06 -3.3256e-08 -8.02722e-07 8.10289e-07 -1.78135e-07 6.00237e-07 1.373e-06 -2.41562e-08 -7.2422e-07 7.42613e-07 -1.59431e-07 5.45057e-07 1.24786e-06 -1.69384e-08 -6.53265e-07 6.77615e-07 -1.40164e-07 4.87819e-07 1.12647e-06 -9.81769e-09 -5.87742e-07 6.14091e-07 -1.28387e-07 4.35781e-07 1.01553e-06 -2.36711e-09 -5.2579e-07 5.53943e-07 -1.14339e-07 3.88827e-07 9.13744e-07 4.30737e-09 -4.66263e-07 4.99499e-07 -1.02329e-07 3.40942e-07 8.12734e-07 3.88051e-09 -4.13992e-07 4.47656e-07 -8.78936e-08 3.04077e-07 7.229e-07 6.67448e-09 -3.6244e-07 3.95967e-07 -7.89684e-08 2.65078e-07 6.34929e-07 1.18744e-08 -3.15214e-07 3.48043e-07 -6.88015e-08 2.28601e-07 5.56194e-07 1.47071e-08 -2.70316e-07 3.07453e-07 -5.71017e-08 1.94802e-07 4.80291e-07 1.51728e-08 -2.32132e-07 2.64224e-07 -5.09123e-08 1.62826e-07 4.10403e-07 1.85876e-08 -1.91775e-07 2.27282e-07 -4.222e-08 1.35857e-07 3.46452e-07 1.39698e-08 -1.63602e-07 1.92085e-07 -3.52738e-08 1.09586e-07 2.87313e-07 1.66862e-08 -1.2829e-07 1.55531e-07 -3.14127e-08 8.31982e-08 2.28252e-07 1.73847e-08 -1.01456e-07 1.27475e-07 -2.36517e-08 6.58911e-08 1.8479e-07 1.7928e-08 -8.06564e-08 1.0295e-07 -1.9422e-08 4.6993e-08 1.45558e-07 1.46295e-08 -5.70435e-08 8.25773e-08 -1.77727e-08 3.5041e-08 1.06714e-07 1.40863e-08 -4.40632e-08 5.87121e-08 -1.18938e-08 1.80832e-08 7.62132e-08 1.14087e-08 -2.38845e-08 4.28408e-08 -9.44904e-09 1.17968e-08 4.71094e-08 1.11371e-08 -1.75205e-08 2.66203e-08 -7.10133e-09 2.71636e-10 2.89874e-08 9.31323e-09 -1.25341e-08 2.01399e-08 -8.3819e-09 -5.43272e-09 1.64146e-08 2.32831e-09 -4.87004e-09 1.04774e-08 -1.75011e-08 -2.77457e-09 4.42378e-09 -5.06407e-09 -9.19681e-09 1.36982e-08 -2.858e-08 1.5522e-10 4.26856e-09 -1.78698e-08 -1.78892e-08 3.2497e-06 4.19716e-07 4.79123e-06 4.79123e-06 -6.08833e-07 -1.13278e-06 2.23684e-06 3.51613e-07 2.97787e-06 3.50852e-06 -1.16066e-07 -9.20127e-07 1.85908e-06 2.5689e-07 2.10079e-06 2.91228e-06 1.42803e-07 -7.98163e-07 1.65962e-06 1.54483e-07 1.60517e-06 2.55283e-06 2.36401e-07 -7.48298e-07 1.50017e-06 8.81652e-08 1.31359e-06 2.30398e-06 2.58985e-07 -7.04371e-07 1.37948e-06 4.74198e-08 1.13877e-06 2.10712e-06 2.56385e-07 -6.56253e-07 1.27533e-06 3.0074e-08 1.0073e-06 1.92438e-06 2.48741e-07 -6.086e-07 1.17704e-06 2.27786e-08 8.98688e-07 1.75981e-06 2.44045e-07 -5.51653e-07 1.08134e-06 1.98682e-08 8.0994e-07 1.60886e-06 2.37642e-07 -4.94144e-07 9.89724e-07 1.80444e-08 7.26082e-07 1.46059e-06 2.27825e-07 -4.43251e-07 9.06216e-07 2.30502e-08 6.46765e-07 1.32007e-06 2.20374e-07 -3.93406e-07 8.18477e-07 2.00622e-08 5.77498e-07 1.19306e-06 2.09664e-07 -3.46491e-07 7.43312e-07 1.84324e-08 5.15992e-07 1.07362e-06 1.96664e-07 -3.03534e-07 6.72143e-07 1.72683e-08 4.55262e-07 9.56624e-07 1.82306e-07 -2.66572e-07 6.04622e-07 1.80832e-08 4.00546e-07 8.50336e-07 1.76563e-07 -2.28659e-07 5.33531e-07 2.18473e-08 3.44395e-07 7.50297e-07 1.65349e-07 -1.93929e-07 4.73733e-07 1.97906e-08 2.98295e-07 6.58096e-07 1.50641e-07 -1.60711e-07 4.12576e-07 2.07219e-08 2.5623e-07 5.68029e-07 1.40164e-07 -1.37234e-07 3.58288e-07 1.82384e-08 2.10828e-07 4.88518e-07 1.30851e-07 -1.07471e-07 3.0559e-07 1.72683e-08 1.70277e-07 4.08851e-07 1.18705e-07 -8.61085e-08 2.59102e-07 1.61429e-08 1.35352e-07 3.40321e-07 1.07568e-07 -6.0827e-08 2.1564e-07 1.47071e-08 1.06792e-07 2.75245e-07 9.72068e-08 -4.47617e-08 1.77572e-07 1.37758e-08 8.02878e-08 2.22276e-07 8.61473e-08 -2.82307e-08 1.38728e-07 1.20296e-08 5.29302e-08 1.67328e-07 7.36521e-08 -1.57549e-08 1.06598e-07 1.14863e-08 3.22082e-08 1.21576e-07 6.74821e-08 -1.80444e-09 8.02878e-08 1.19132e-08 1.5522e-08 8.4828e-08 5.94882e-08 7.14014e-09 5.71599e-08 7.95505e-09 3.72529e-09 5.60734e-08 4.85064e-08 1.20296e-08 3.75245e-08 9.8565e-09 -5.43272e-09 3.10053e-08 4.09006e-08 1.32325e-08 2.07219e-08 2.40592e-09 -1.55026e-08 1.21848e-08 2.87934e-08 1.20296e-08 9.04159e-09 -2.83277e-09 -1.65116e-08 2.71636e-10 2.27398e-08 1.29609e-08 4.88944e-09 -6.15061e-09 -1.42609e-08 -4.44318e-09 7.10133e-09 3.45365e-09 6.55806e-09 -2.84635e-08 -8.24609e-09 -4.67602e-09 -1.494e-08 -1.81608e-08 4.49464e-06 3.137e-07 6.62632e-06 6.62632e-06 -1.20719e-06 -1.74584e-06 2.87367e-06 6.78236e-07 3.83208e-06 4.37989e-06 -5.89644e-08 -8.0119e-07 2.29843e-06 6.46687e-07 2.63514e-06 3.3854e-06 4.0466e-07 -4.34908e-07 2.01569e-06 5.23403e-07 1.98787e-06 2.83374e-06 5.7676e-07 -2.97965e-07 1.80335e-06 4.17543e-07 1.5947e-06 2.47429e-06 6.0307e-07 -2.62361e-07 1.63509e-06 3.54523e-07 1.35333e-06 2.22283e-06 5.943e-07 -2.43172e-07 1.49865e-06 3.04387e-07 1.17952e-06 2.02054e-06 5.71716e-07 -2.21558e-07 1.37498e-06 2.67251e-07 1.04677e-06 1.84301e-06 5.45018e-07 -1.99322e-07 1.26714e-06 2.44666e-07 9.31361e-07 1.67824e-06 5.15681e-07 -1.71557e-07 1.15655e-06 2.22625e-07 8.36211e-07 1.52551e-06 4.85956e-07 -1.47731e-07 1.05612e-06 2.02912e-07 7.44592e-07 1.37995e-06 4.6213e-07 -1.20451e-07 9.61397e-07 1.88981e-07 6.65275e-07 1.24921e-06 4.29767e-07 -9.94769e-08 8.65005e-07 1.74274e-07 5.86694e-07 1.11701e-06 4.01478e-07 -7.73968e-08 7.78353e-07 1.56579e-07 5.17971e-07 9.97641e-07 3.73344e-07 -5.77808e-08 6.96591e-07 1.43346e-07 4.48432e-07 8.80177e-07 3.47383e-07 -3.49634e-08 6.15139e-07 1.32558e-07 3.87547e-07 7.70359e-07 3.21656e-07 -2.04115e-08 5.40516e-07 1.1983e-07 3.26002e-07 6.68418e-07 2.95268e-07 -6.92671e-09 4.68999e-07 1.10944e-07 2.72024e-07 5.7451e-07 2.67251e-07 7.95505e-09 4.05669e-07 9.9962e-08 2.21344e-07 4.80757e-07 2.47421e-07 2.29726e-08 3.4001e-07 9.19293e-08 1.7893e-07 4.03534e-07 2.27204e-07 3.15874e-08 2.8254e-07 7.72222e-08 1.3283e-07 3.28524e-07 2.00972e-07 3.86887e-08 2.31123e-07 7.05089e-08 9.44904e-08 2.56735e-07 1.79357e-07 4.2802e-08 1.83005e-07 6.61627e-08 6.13509e-08 1.97945e-07 1.63408e-07 5.06407e-08 1.42415e-07 5.80912e-08 3.54291e-08 1.48197e-07 1.43889e-07 5.55689e-08 1.02678e-07 5.14944e-08 8.76995e-09 9.70904e-08 1.25923e-07 5.40943e-08 6.83358e-08 4.37334e-08 -1.28833e-08 5.89062e-08 1.08499e-07 5.55301e-08 4.2414e-08 3.79126e-08 -2.57666e-08 2.72024e-08 9.13472e-08 5.28138e-08 1.59489e-08 2.91426e-08 -3.57783e-08 2.75516e-09 7.21387e-08 4.9787e-08 4.42378e-09 2.0916e-08 -3.77768e-08 -1.54444e-08 5.71599e-08 3.90767e-08 -1.234e-08 1.52116e-08 -4.07842e-08 -2.27204e-08 4.0823e-08 2.65815e-08 -8.98338e-09 4.26856e-10 -3.50022e-08 -2.07995e-08 1.96354e-08 1.06714e-08 9.31323e-10 -1.11759e-08 -2.42338e-08 -1.53086e-08 3.68649e-09 -4.75363e-09 -2.58976e-06 -4.79002e-06 -4.26947e-06 -4.26947e-06 -2.60666e-06 -3.07742e-06 9.91859e-08 -3.11475e-06 -8.41935e-07 -3.68105e-07 -1.95155e-06 -2.64942e-06 -1.49458e-07 -2.46752e-06 -6.3068e-07 7.1673e-08 -1.87859e-06 -2.70054e-06 -2.20568e-07 -2.10568e-06 -4.36984e-07 3.90884e-07 -1.86235e-06 -2.73345e-06 -2.24759e-07 -1.86476e-06 -2.87585e-07 5.9007e-07 -1.81464e-06 -2.6876e-06 -2.0623e-07 -1.68952e-06 -1.87681e-07 6.92089e-07 -1.73618e-06 -2.58114e-06 -1.80483e-07 -1.54058e-06 -1.26582e-07 7.24957e-07 -1.63628e-06 -2.44119e-06 -1.57199e-07 -1.40861e-06 -8.58951e-08 7.24996e-07 -1.53381e-06 -2.2864e-06 -1.40824e-07 -1.29e-06 -5.83241e-08 6.99617e-07 -1.42568e-06 -2.12359e-06 -1.24623e-07 -1.17255e-06 -3.96394e-08 6.62752e-07 -1.31208e-06 -1.95384e-06 -1.09178e-07 -1.06526e-06 -2.09742e-08 6.24607e-07 -1.20496e-06 -1.7934e-06 -1.0231e-07 -9.62231e-07 -1.22624e-08 5.79477e-07 -1.09972e-06 -1.63238e-06 -8.71175e-08 -8.65179e-07 -5.23869e-10 5.3489e-07 -1.00329e-06 -1.47811e-06 -7.5864e-08 -7.73328e-07 1.07878e-08 4.87819e-07 -9.04896e-07 -1.33296e-06 -6.77731e-08 -6.82058e-07 1.84324e-08 4.48471e-07 -8.14655e-07 -1.19592e-06 -5.78584e-08 -6.00528e-07 2.32831e-08 4.06018e-07 -7.26878e-07 -1.06656e-06 -5.36287e-08 -5.2383e-07 2.57278e-08 3.66475e-07 -6.45989e-07 -9.40869e-07 -4.54796e-08 -4.57008e-07 3.17426e-08 3.27515e-07 -5.6704e-07 -8.22435e-07 -4.01245e-08 -3.87547e-07 3.44589e-08 2.90534e-07 -4.95793e-07 -7.16963e-07 -3.41291e-08 -3.2573e-07 3.33724e-08 2.55066e-07 -4.28195e-07 -6.11103e-07 -2.82889e-08 -2.72373e-07 3.59723e-08 2.19288e-07 -3.6339e-07 -5.22782e-07 -2.37681e-08 -2.11119e-07 3.83006e-08 1.98022e-07 -3.02835e-07 -4.34656e-07 -2.17309e-08 -1.70316e-07 3.42261e-08 1.66202e-07 -2.51962e-07 -3.60596e-07 -2.17891e-08 -1.28697e-07 3.23247e-08 1.41134e-07 -2.01709e-07 -2.86382e-07 -1.75981e-08 -9.17547e-08 2.76292e-08 1.12418e-07 -1.47964e-07 -2.18861e-07 -1.53668e-08 -5.37063e-08 2.5689e-08 9.66247e-08 -1.17269e-07 -1.66571e-07 -1.43773e-08 -3.14515e-08 2.09936e-08 7.02761e-08 -8.02296e-08 -1.16474e-07 -1.04192e-08 -1.32907e-08 1.37758e-08 5.00586e-08 -4.69154e-08 -7.18089e-08 -1.20102e-08 6.75209e-09 8.3431e-09 3.3256e-08 -2.47383e-08 -4.13274e-08 -1.24758e-08 1.60265e-08 7.68341e-09 2.42532e-08 -7.46998e-09 -1.83936e-08 -8.80876e-09 1.62205e-08 7.37297e-10 1.16027e-08 1.5522e-09 -3.51186e-09 -1.14475e-08 1.18356e-08 -4.5402e-09 5.04466e-10 2.71636e-09 3.49246e-10 -1.27554e-06 -2.2422e-06 -2.4163e-06 -2.4163e-06 -5.51692e-07 -1.08229e-06 -6.18767e-07 -3.00338e-06 -1.30457e-06 -7.7422e-07 -2.06849e-06 -2.84057e-06 1.99031e-07 -2.27677e-06 -1.87894e-07 5.90808e-07 -1.79784e-06 -2.68285e-06 1.46179e-07 -1.8829e-06 -4.62945e-08 8.46107e-07 -1.66732e-06 -2.60437e-06 9.9962e-08 -1.62397e-06 1.84712e-08 9.63259e-07 -1.56134e-06 -2.49643e-06 8.00549e-08 -1.43744e-06 5.54137e-08 9.97912e-07 -1.45589e-06 -2.35696e-06 7.21387e-08 -1.29951e-06 7.55924e-08 9.8336e-07 -1.35329e-06 -2.20335e-06 6.78313e-08 -1.1833e-06 8.61861e-08 9.42304e-07 -1.25441e-06 -2.04691e-06 6.28255e-08 -1.07599e-06 8.83204e-08 8.86076e-07 -1.15841e-06 -1.89253e-06 6.08852e-08 -9.8305e-07 8.90189e-08 8.27519e-07 -1.06782e-06 -1.73744e-06 5.66943e-08 -8.9114e-07 9.25114e-08 7.65858e-07 -9.79208e-07 -1.59099e-06 5.54525e-08 -8.05342e-07 9.15801e-08 7.06408e-07 -8.95292e-07 -1.44838e-06 5.20765e-08 -7.24511e-07 9.07263e-08 6.46377e-07 -8.1091e-07 -1.31183e-06 5.02138e-08 -6.47696e-07 8.97174e-08 5.92709e-07 -7.34212e-07 -1.18449e-06 4.70706e-08 -5.76159e-07 8.36638e-08 5.35743e-07 -6.62345e-07 -1.06314e-06 4.14439e-08 -5.13159e-07 8.17624e-08 4.84016e-07 -5.94126e-07 -9.47136e-07 4.12886e-08 -4.48315e-07 8.14131e-08 4.35471e-07 -5.27497e-07 -8.37919e-07 3.85723e-08 -3.845e-07 7.75326e-08 3.8875e-07 -4.61587e-07 -7.37724e-07 3.06948e-08 -3.33413e-07 7.00432e-08 3.46879e-07 -4.07997e-07 -6.3912e-07 3.10441e-08 -2.85412e-07 6.94611e-08 3.01089e-07 -3.52894e-07 -5.54932e-07 2.71636e-08 -2.38186e-07 6.073e-08 2.63137e-07 -3.02389e-07 -4.69503e-07 2.68531e-08 -1.93967e-07 5.88674e-08 2.26273e-07 -2.56036e-07 -3.94318e-07 2.06055e-08 -1.5687e-07 5.5957e-08 1.94452e-07 -2.12691e-07 -3.28582e-07 1.88981e-08 -1.19578e-07 4.62169e-08 1.62205e-07 -1.7375e-07 -2.60305e-07 1.78115e-08 -9.04353e-08 4.19483e-08 1.28561e-07 -1.35643e-07 -2.05978e-07 1.54832e-08 -6.5212e-08 3.93872e-08 1.09741e-07 -1.06248e-07 -1.56385e-07 1.09818e-08 -4.24528e-08 3.32948e-08 8.34698e-08 -7.78625e-08 -1.16803e-07 9.70128e-09 -2.7474e-08 2.67755e-08 6.57747e-08 -5.17078e-08 -7.82117e-08 9.93411e-09 -1.2146e-08 2.04891e-08 4.70318e-08 -3.25187e-08 -5.00974e-08 7.25656e-09 7.76102e-10 1.75011e-08 3.51186e-08 -1.94026e-08 -2.71054e-08 4.30737e-09 3.68649e-09 1.16415e-08 1.92861e-08 -5.80136e-09 -1.0264e-08 -1.74623e-10 1.50176e-08 6.40284e-09 1.08266e-08 8.11027e-09 6.0924e-09 -4.13837e-07 -1.53631e-06 -9.96961e-07 -9.96961e-07 -3.92281e-07 -9.51133e-07 -1.02698e-07 -1.72225e-06 -5.17583e-07 4.21423e-08 -1.03681e-06 -1.8719e-06 1.2406e-07 -1.85473e-06 -1.46547e-07 6.93176e-07 -1.46943e-06 -2.43975e-06 3.85839e-07 -1.54462e-06 2.10013e-07 1.18841e-06 -1.35275e-06 -2.36476e-06 3.63876e-07 -1.32184e-06 2.58364e-07 1.27863e-06 -1.24054e-06 -2.24028e-06 3.36712e-07 -1.16165e-06 2.64806e-07 1.27223e-06 -1.13714e-06 -2.09394e-06 3.07725e-07 -1.04112e-06 2.53436e-07 1.21701e-06 -1.04456e-06 -1.94084e-06 2.8514e-07 -9.43682e-07 2.40669e-07 1.14273e-06 -9.62173e-07 -1.79212e-06 2.60809e-07 -8.59029e-07 2.29299e-07 1.06427e-06 -8.84562e-07 -1.64957e-06 2.40863e-07 -7.81554e-07 2.1533e-07 9.84602e-07 -8.09727e-07 -1.51355e-06 2.23905e-07 -7.08504e-07 2.00972e-07 9.08505e-07 -7.44282e-07 -1.38356e-06 2.05822e-07 -6.43389e-07 1.86459e-07 8.28683e-07 -6.79574e-07 -1.25804e-06 1.89563e-07 -5.79981e-07 1.75942e-07 7.56855e-07 -6.1867e-07 -1.14124e-06 1.73847e-07 -5.21502e-07 1.60964e-07 6.85531e-07 -5.60889e-07 -1.02572e-06 1.59101e-07 -4.6634e-07 1.52776e-07 6.19252e-07 -5.02934e-07 -9.21835e-07 1.42919e-07 -4.10771e-07 1.40474e-07 5.60734e-07 -4.51012e-07 -8.20922e-07 1.31006e-07 -3.61392e-07 1.27591e-07 4.98568e-07 -4.01516e-07 -7.26897e-07 1.15678e-07 -3.15777e-07 1.16609e-07 4.42844e-07 -3.54698e-07 -6.39877e-07 1.04735e-07 -2.72684e-07 1.04851e-07 3.9069e-07 -3.11935e-07 -5.53633e-07 9.58486e-08 -2.34538e-07 1.0101e-07 3.43154e-07 -2.72975e-07 -4.80659e-07 7.73386e-08 -2.00564e-07 8.6613e-08 2.94608e-07 -2.34111e-07 -4.1244e-07 7.48551e-08 -1.60886e-07 7.67565e-08 2.55338e-07 -1.929e-07 -3.39254e-07 6.1933e-08 -1.30967e-07 7.03925e-08 2.16882e-07 -1.66338e-07 -2.83568e-07 5.25809e-08 -1.08596e-07 6.01479e-08 1.77495e-07 -1.35895e-07 -2.34713e-07 4.61393e-08 -8.44399e-08 5.00974e-08 1.49012e-07 -1.08596e-07 -1.84111e-07 3.79902e-08 -5.943e-08 4.46259e-08 1.20179e-07 -8.33146e-08 -1.41425e-07 2.98411e-08 -4.50139e-08 3.62052e-08 9.43352e-08 -6.73075e-08 -1.07219e-07 2.74352e-08 -2.85024e-08 3.0268e-08 7.01596e-08 -4.55766e-08 -7.29148e-08 1.82384e-08 -2.11488e-08 2.31666e-08 5.05242e-08 -3.1665e-08 -5.01944e-08 1.3737e-08 -1.18162e-08 1.86653e-08 3.72529e-08 -2.20801e-08 -3.40515e-08 1.16415e-08 -3.31784e-09 1.25341e-08 2.45248e-08 -1.06326e-08 -1.73265e-08 9.54606e-09 6.71328e-09 1.02834e-08 1.6919e-08 1.94026e-10 1.74623e-09 3.27981e-07 -8.96941e-07 3.04504e-07 3.04504e-07 -3.13468e-07 -8.8724e-07 4.35044e-07 -1.07036e-06 3.18629e-07 8.94652e-07 -6.55535e-07 -1.53761e-06 4.86771e-07 -1.11953e-06 3.33918e-07 1.22116e-06 -8.49017e-07 -1.872e-06 5.48549e-07 -1.13097e-06 4.00275e-07 1.4304e-06 -9.55479e-07 -2.02813e-06 6.0501e-07 -9.87745e-07 4.70318e-07 1.55127e-06 -8.82506e-07 -1.93453e-06 5.79283e-07 -8.697e-07 4.57318e-07 1.51693e-06 -7.98124e-07 -1.79827e-06 5.42573e-07 -7.78314e-07 4.25343e-07 1.43222e-06 -7.24356e-07 -1.6537e-06 5.03263e-07 -7.08174e-07 3.97248e-07 1.33233e-06 -6.63936e-07 -1.52209e-06 4.62014e-07 -6.41526e-07 3.65195e-07 1.22822e-06 -6.10307e-07 -1.39852e-06 4.22937e-07 -5.80369e-07 3.34073e-07 1.12628e-06 -5.55049e-07 -1.27446e-06 3.90457e-07 -5.30097e-07 3.10092e-07 1.03284e-06 -5.07474e-07 -1.16053e-06 3.58559e-07 -4.80718e-07 2.86886e-07 9.42731e-07 -4.61529e-07 -1.05503e-06 3.30464e-07 -4.32367e-07 2.58209e-07 8.54023e-07 -4.18882e-07 -9.50395e-07 2.97907e-07 -3.90806e-07 2.40204e-07 7.7358e-07 -3.78059e-07 -8.59242e-07 2.68997e-07 -3.51477e-07 2.12186e-07 6.94883e-07 -3.45249e-07 -7.69078e-07 2.44899e-07 -3.06968e-07 1.95073e-07 6.20106e-07 -3.04581e-07 -6.84076e-07 2.15446e-07 -2.76176e-07 1.73498e-07 5.53982e-07 -2.72878e-07 -6.06776e-07 1.9453e-07 -2.36905e-07 1.55026e-07 4.8972e-07 -2.37895e-07 -5.29243e-07 1.74856e-07 -2.08034e-07 1.39078e-07 4.31008e-07 -2.08189e-07 -4.60093e-07 1.49128e-07 -1.7536e-07 1.20645e-07 3.72995e-07 -1.8058e-07 -3.97946e-07 1.32287e-07 -1.49962e-07 1.04735e-07 3.22432e-07 -1.59314e-07 -3.3937e-07 1.16415e-07 -1.31588e-07 9.58874e-08 2.76176e-07 -1.33528e-07 -2.81182e-07 9.56934e-08 -1.06559e-07 8.12579e-08 2.29067e-07 -1.15038e-07 -2.36401e-07 8.53712e-08 -8.66712e-08 6.72493e-08 1.8867e-07 -9.42188e-08 -1.90999e-07 6.73269e-08 -6.86656e-08 5.7742e-08 1.54638e-07 -7.26044e-08 -1.50137e-07 5.82077e-08 -5.19794e-08 4.69542e-08 1.24526e-07 -5.86151e-08 -1.17715e-07 4.70318e-08 -3.88633e-08 3.89603e-08 9.80993e-08 -4.52274e-08 -8.65548e-08 3.87663e-08 -2.99964e-08 3.01128e-08 7.14402e-08 -3.28485e-08 -6.01867e-08 2.47577e-08 -2.20413e-08 2.06443e-08 4.79631e-08 -2.69501e-08 -4.45871e-08 2.23517e-08 -1.33296e-08 1.60653e-08 3.37604e-08 -1.82384e-08 -2.6174e-08 1.6919e-08 -1.29997e-08 1.47847e-08 2.27398e-08 -1.39116e-08 -1.55026e-08 1.42803e-08 -3.49246e-09 1.15251e-08 1.31161e-08 -4.17155e-09 -3.68649e-10 1.09811e-06 -3.06192e-07 1.62345e-06 1.62345e-06 -2.82443e-07 -8.68128e-07 9.91936e-07 -5.20784e-07 1.1716e-06 1.76098e-06 -4.03864e-07 -1.30599e-06 9.0866e-07 -6.04603e-07 8.92673e-07 1.80095e-06 -4.51265e-07 -1.50587e-06 8.73348e-07 -6.35996e-07 7.515e-07 1.81336e-06 -4.87509e-07 -1.5815e-06 8.51927e-07 -6.32892e-07 6.91041e-07 1.79249e-06 -4.98529e-07 -1.57413e-06 8.31322e-07 -5.70396e-07 6.57048e-07 1.73979e-06 -4.48936e-07 -1.46206e-06 7.83436e-07 -5.18009e-07 6.0633e-07 1.62566e-06 -4.014e-07 -1.34442e-06 7.23638e-07 -4.66108e-07 5.52274e-07 1.50059e-06 -3.60616e-07 -1.22861e-06 6.67021e-07 -4.24198e-07 5.05708e-07 1.37812e-06 -3.27826e-07 -1.1186e-06 6.11918e-07 -3.8776e-07 4.62712e-07 1.25713e-06 -2.99323e-07 -1.01772e-06 5.64614e-07 -3.49401e-07 4.23946e-07 1.14537e-06 -2.69463e-07 -9.25424e-07 5.13663e-07 -3.13506e-07 3.82502e-07 1.04099e-06 -2.42105e-07 -8.35435e-07 4.64187e-07 -2.88147e-07 3.44706e-07 9.40093e-07 -2.16164e-07 -7.52664e-07 4.23558e-07 -2.53494e-07 3.1013e-07 8.48318e-07 -1.96024e-07 -6.75228e-07 3.79087e-07 -2.31084e-07 2.79591e-07 7.60153e-07 -1.74448e-07 -6.0437e-07 3.41175e-07 -2.01651e-07 2.46063e-07 6.76994e-07 -1.51961e-07 -5.32581e-07 3.04737e-07 -1.79842e-07 2.17735e-07 5.99228e-07 -1.38088e-07 -4.70473e-07 2.70161e-07 -1.58383e-07 1.95228e-07 5.28293e-07 -1.18996e-07 -4.10131e-07 2.40747e-07 -1.3834e-07 1.6919e-07 4.60811e-07 -1.02698e-07 -3.55843e-07 2.07491e-07 -1.19112e-07 1.42764e-07 3.96278e-07 -9.07263e-08 -3.05823e-07 1.81802e-07 -1.02581e-07 1.2406e-07 3.39428e-07 -7.51267e-08 -2.55687e-07 1.52892e-07 -8.30623e-08 1.0101e-07 2.81803e-07 -6.25926e-08 -2.15349e-07 1.30734e-07 -6.85686e-08 8.72727e-08 2.40165e-07 -5.41331e-08 -1.74545e-07 1.06675e-07 -6.13121e-08 7.19835e-08 1.92435e-07 -4.31707e-08 -1.38146e-07 8.81652e-08 -4.64691e-08 5.94882e-08 1.54483e-07 -3.69037e-08 -1.11177e-07 6.86462e-08 -3.80096e-08 4.21423e-08 1.16454e-07 -2.67367e-08 -8.45951e-08 5.67719e-08 -2.58054e-08 2.94919e-08 8.73503e-08 -1.77727e-08 -6.10598e-08 4.27632e-08 -2.00816e-08 2.47965e-08 6.80642e-08 -1.14475e-08 -4.32483e-08 3.0074e-08 -1.60847e-08 1.56385e-08 4.74198e-08 -1.19714e-08 -2.92591e-08 2.23129e-08 -1.37564e-08 9.50725e-09 2.68143e-08 -7.46998e-09 -2.111e-08 1.62593e-08 -1.45131e-08 4.26856e-09 1.78892e-08 -1.24176e-08 -1.24758e-08 2.25458e-08 -1.78504e-08 1.14087e-08 1.14863e-08 -1.50564e-08 -9.04159e-09 2.01519e-06 1.75205e-07 3.06483e-06 3.06483e-06 -3.47209e-07 -9.31885e-07 1.57339e-06 -4.93407e-08 2.04705e-06 2.63716e-06 -2.27262e-07 -1.1205e-06 1.35981e-06 -1.54891e-07 1.4784e-06 2.37879e-06 -1.37933e-07 -1.17455e-06 1.24529e-06 -2.25535e-07 1.15825e-06 2.20227e-06 -1.03357e-07 -1.17929e-06 1.1621e-06 -2.61508e-07 9.79907e-07 2.06272e-06 -1.00835e-07 -1.15721e-06 1.09508e-06 -2.67037e-07 8.72339e-07 1.93498e-06 -9.34427e-08 -1.08827e-06 1.03039e-06 -2.5072e-07 7.9143e-07 1.79175e-06 -7.44088e-08 -9.98106e-07 9.49794e-07 -2.32637e-07 7.15527e-07 1.64386e-06 -6.20688e-08 -9.08951e-07 8.72416e-07 -2.09936e-07 6.51577e-07 1.50234e-06 -4.93213e-08 -8.25035e-07 8.02179e-07 -1.87351e-07 5.91196e-07 1.37013e-06 -3.87469e-08 -7.46222e-07 7.307e-07 -1.6919e-07 5.3194e-07 1.24211e-06 -2.90456e-08 -6.74394e-07 6.62752e-07 -1.52155e-07 4.77768e-07 1.12531e-06 -2.14592e-08 -6.02042e-07 6.03381e-07 -1.37118e-07 4.28331e-07 1.01072e-06 -1.80444e-08 -5.391e-07 5.456e-07 -1.22818e-07 3.85956e-07 9.08389e-07 -9.68187e-09 -4.8128e-07 4.86306e-07 -1.05472e-07 3.41951e-07 8.14713e-07 -6.26703e-09 -4.27865e-07 4.35083e-07 -9.66829e-08 2.98605e-07 7.21115e-07 -1.76563e-09 -3.74993e-07 3.88168e-07 -8.59339e-08 2.57744e-07 6.3167e-07 8.53712e-10 -3.25129e-07 3.46491e-07 -7.22357e-08 2.28562e-07 5.55107e-07 2.59994e-09 -2.78097e-07 2.97402e-07 -6.22822e-08 1.94879e-07 4.75945e-07 9.1192e-09 -2.3968e-07 2.59761e-07 -5.26391e-08 1.60071e-07 4.092e-07 1.19908e-08 -2.01321e-07 2.21538e-07 -4.61975e-08 1.34421e-07 3.47965e-07 1.14863e-08 -1.6692e-07 1.87351e-07 -3.832e-08 1.0943e-07 2.88012e-07 1.35042e-08 -1.35139e-07 1.53979e-07 -3.07725e-08 8.80876e-08 2.36789e-07 1.26505e-08 -1.05589e-07 1.29415e-07 -2.26816e-08 6.56582e-08 1.83936e-07 1.20296e-08 -7.9046e-08 1.02834e-07 -1.86071e-08 5.26585e-08 1.43734e-07 1.00505e-08 -6.21464e-08 7.99385e-08 -1.86459e-08 3.51962e-08 1.07413e-07 7.87744e-09 -4.45677e-08 5.84793e-08 -1.68608e-08 2.18861e-08 7.43506e-08 1.03998e-08 -2.96277e-08 3.81066e-08 -7.19835e-09 1.10595e-08 5.11063e-08 1.07878e-08 -1.8413e-08 2.69696e-08 -9.54606e-09 1.08654e-09 3.03068e-08 4.88944e-09 -9.1192e-09 1.99846e-08 -9.44904e-09 2.21189e-09 1.62205e-08 3.37604e-09 -4.81183e-09 1.52892e-08 -1.51146e-08 -3.8029e-09 4.42378e-09 -3.10441e-09 -6.67448e-09 1.92473e-08 -2.51651e-08 2.79397e-09 6.36404e-09 -1.40669e-08 -1.35818e-08 3.19867e-06 4.5825e-07 4.74447e-06 4.74447e-06 -5.8196e-07 -1.15174e-06 2.17658e-06 3.58055e-07 2.91659e-06 3.49355e-06 -1.11798e-07 -9.67547e-07 1.807e-06 2.51806e-07 2.05256e-06 2.91624e-06 1.34731e-07 -8.39549e-07 1.62089e-06 1.53358e-07 1.57976e-06 2.56121e-06 2.40747e-07 -7.70766e-07 1.4886e-06 7.81923e-08 1.2912e-06 2.30894e-06 2.60033e-07 -7.21814e-07 1.37704e-06 3.55455e-08 1.11468e-06 2.10184e-06 2.57394e-07 -6.781e-07 1.27075e-06 9.8953e-09 9.84757e-07 1.92481e-06 2.47887e-07 -6.19756e-07 1.16811e-06 4.579e-09 8.84097e-07 1.75562e-06 2.37875e-07 -5.65798e-07 1.07808e-06 6.01479e-09 7.92905e-07 1.59986e-06 2.26001e-07 -5.08366e-07 9.83089e-07 8.61473e-09 7.15683e-07 1.45271e-06 2.189e-07 -4.57318e-07 8.93022e-07 1.15639e-08 6.40207e-07 1.3186e-06 2.09703e-07 -4.02293e-07 8.13821e-07 1.23788e-08 5.75907e-07 1.18969e-06 1.96781e-07 -3.57822e-07 7.36754e-07 1.09818e-08 5.12615e-07 1.06862e-06 1.85527e-07 -3.17329e-07 6.60424e-07 1.42803e-08 4.53748e-07 9.57788e-07 1.73575e-07 -2.78077e-07 5.93214e-07 1.74235e-08 3.94958e-07 8.47542e-07 1.61429e-07 -2.3836e-07 5.26857e-07 1.70354e-08 3.48392e-07 7.48861e-07 1.5328e-07 -2.01127e-07 4.6733e-07 1.38146e-08 3.01244e-07 6.56194e-07 1.44045e-07 -1.70587e-07 4.09083e-07 1.55608e-08 2.51923e-07 5.66943e-07 1.33334e-07 -1.37972e-07 3.55843e-07 1.59877e-08 2.14631e-07 4.86189e-07 1.18278e-07 -1.14262e-07 3.04853e-07 1.12923e-08 1.75205e-07 4.07997e-07 1.10905e-07 -8.65548e-08 2.56735e-07 1.3349e-08 1.40319e-07 3.37993e-07 1.00389e-07 -6.73657e-08 2.12924e-07 1.54444e-08 1.10672e-07 2.78504e-07 9.33263e-08 -4.76139e-08 1.73381e-07 1.60265e-08 8.25773e-08 2.23595e-07 8.18788e-08 -3.5041e-08 1.3966e-07 1.36206e-08 5.26585e-08 1.69656e-07 7.73774e-08 -1.55997e-08 1.04541e-07 1.37758e-08 3.50798e-08 1.28057e-07 6.3912e-08 -5.56853e-09 7.567e-08 8.80876e-09 1.69578e-08 8.64578e-08 5.35122e-08 2.79397e-09 5.49868e-08 8.84756e-09 4.34617e-09 5.50644e-08 4.54408e-08 6.8297e-09 3.65932e-08 8.3431e-09 -9.66247e-09 2.89486e-08 3.53515e-08 1.54444e-08 1.99458e-08 6.59687e-10 -8.94458e-09 1.09818e-08 2.65039e-08 1.02057e-08 1.27669e-08 8.14907e-10 -1.71131e-08 -7.95505e-10 1.85876e-08 9.66247e-09 5.19988e-09 -9.0998e-09 -1.44937e-08 -5.60734e-09 1.00117e-08 3.53126e-09 1.10595e-08 -2.32443e-08 -6.71328e-09 -2.71636e-10 -6.77149e-09 -1.27475e-08 4.5298e-06 3.57473e-07 6.57886e-06 6.57886e-06 -1.16594e-06 -1.74291e-06 2.85124e-06 6.71794e-07 3.7868e-06 4.37361e-06 -6.13121e-08 -8.33146e-07 2.25916e-06 6.32873e-07 2.62105e-06 3.40111e-06 3.89332e-07 -4.7024e-07 1.98457e-06 5.24684e-07 1.99272e-06 2.85881e-06 5.6605e-07 -3.19909e-07 1.79268e-06 4.17853e-07 1.60207e-06 2.49323e-06 6.14595e-07 -2.59917e-07 1.6309e-06 3.4001e-07 1.35201e-06 2.23071e-06 6.01324e-07 -2.3415e-07 1.4966e-06 2.88632e-07 1.17444e-06 2.01348e-06 5.73501e-07 -2.16824e-07 1.37638e-06 2.54406e-07 1.03745e-06 1.8309e-06 5.37334e-07 -1.97149e-07 1.26043e-06 2.2507e-07 9.27364e-07 1.66443e-06 5.09278e-07 -1.71422e-07 1.1508e-06 2.07491e-07 8.31128e-07 1.51406e-06 4.74082e-07 -1.50583e-07 1.04979e-06 1.90882e-07 7.47154e-07 1.37366e-06 4.4296e-07 -1.26136e-07 9.55071e-07 1.73498e-07 6.60463e-07 1.23101e-06 4.1083e-07 -1.04269e-07 8.61357e-07 1.63874e-07 5.91196e-07 1.10742e-06 3.87469e-07 -8.0637e-08 7.76917e-07 1.51844e-07 5.18048e-07 9.87086e-07 3.58094e-07 -6.36016e-08 6.89916e-07 1.36128e-07 4.5208e-07 8.74473e-07 3.34034e-07 -4.65273e-08 6.09473e-07 1.26155e-07 3.84287e-07 7.65392e-07 3.04348e-07 -2.80367e-08 5.39275e-07 1.16765e-07 3.31861e-07 6.64654e-07 2.82618e-07 -9.1192e-09 4.69969e-07 1.03687e-07 2.76331e-07 5.6834e-07 2.60654e-07 6.59687e-09 3.97209e-07 9.74784e-08 2.24759e-07 4.7901e-07 2.38574e-07 1.6531e-08 3.43231e-07 8.68846e-08 1.75865e-07 3.98063e-07 2.16416e-07 3.17038e-08 2.85567e-07 7.57476e-08 1.41173e-07 3.26002e-07 1.92046e-07 3.42649e-08 2.26971e-07 7.03537e-08 1.0264e-07 2.60499e-07 1.72528e-07 4.07066e-08 1.83975e-07 6.50762e-08 6.25926e-08 1.94414e-07 1.5588e-07 5.21541e-08 1.42104e-07 5.12227e-08 3.63992e-08 1.40048e-07 1.38185e-07 5.19988e-08 1.03105e-07 5.1766e-08 1.31937e-08 9.93411e-08 1.21188e-07 5.7548e-08 6.87238e-08 4.03185e-08 -8.40131e-09 5.52197e-08 9.90694e-08 5.35122e-08 4.19871e-08 3.60887e-08 -2.31472e-08 2.23905e-08 8.66906e-08 5.27361e-08 1.85488e-08 2.68531e-08 -3.40515e-08 -1.35818e-10 7.31088e-08 4.49363e-08 2.71636e-10 2.38263e-08 -4.02021e-08 -1.20102e-08 5.27361e-08 3.6632e-08 -7.25656e-09 9.58486e-09 -4.06095e-08 -2.45248e-08 3.9426e-08 3.0656e-08 -7.91624e-09 3.14321e-09 -2.7474e-08 -1.87429e-08 2.28562e-08 1.3349e-08 -5.41331e-09 -1.23594e-08 -2.07607e-08 -1.12535e-08 5.43272e-09 -1.31937e-09 -2.45274e-06 -4.98952e-06 -4.37376e-06 -4.37376e-06 -2.5358e-06 -2.97571e-06 1.47964e-07 -3.05813e-06 -7.75404e-07 -3.32327e-07 -1.94728e-06 -2.6026e-06 -1.40397e-07 -2.41709e-06 -5.69523e-07 8.96786e-08 -1.8914e-06 -2.67761e-06 -2.25128e-07 -2.0812e-06 -3.89041e-07 4.02525e-07 -1.87716e-06 -2.7168e-06 -2.39272e-07 -1.86532e-06 -2.60848e-07 5.85103e-07 -1.83785e-06 -2.68795e-06 -2.23479e-07 -1.69054e-06 -1.72586e-07 6.84134e-07 -1.76837e-06 -2.59849e-06 -2.01302e-07 -1.55023e-06 -1.19112e-07 7.17506e-07 -1.67217e-06 -2.46055e-06 -1.76408e-07 -1.42192e-06 -8.03848e-08 7.13975e-07 -1.56652e-06 -2.30419e-06 -1.56249e-07 -1.29945e-06 -5.29496e-08 6.90032e-07 -1.45207e-06 -2.14066e-06 -1.40377e-07 -1.18959e-06 -3.93678e-08 6.53983e-07 -1.34301e-06 -1.97126e-06 -1.2177e-07 -1.0802e-06 -2.34189e-08 6.08813e-07 -1.23175e-06 -1.80789e-06 -1.06481e-07 -9.72359e-07 -1.13311e-08 5.68184e-07 -1.11896e-06 -1.64506e-06 -9.52859e-08 -8.75172e-07 -4.26856e-09 5.24645e-07 -1.02156e-06 -1.49264e-06 -8.71175e-08 -7.81108e-07 3.72529e-09 4.77148e-07 -9.21078e-07 -1.34609e-06 -7.74744e-08 -6.98453e-07 1.18744e-08 4.38769e-07 -8.28431e-07 -1.20624e-06 -6.81612e-08 -6.10676e-07 1.71519e-08 3.96472e-07 -7.41488e-07 -1.07327e-06 -5.94688e-08 -5.35064e-07 2.34771e-08 3.56464e-07 -6.56524e-07 -9.48727e-07 -4.90109e-08 -4.5825e-07 2.79009e-08 3.20996e-07 -5.7548e-07 -8.32699e-07 -4.81377e-08 -3.92552e-07 2.62323e-08 2.8417e-07 -5.04757e-07 -7.25481e-07 -4.20065e-08 -3.30503e-07 3.01904e-08 2.51496e-07 -4.30737e-07 -6.22298e-07 -3.54679e-08 -2.74895e-07 2.98799e-08 2.21849e-07 -3.68435e-07 -5.26779e-07 -2.83859e-08 -2.20413e-07 3.13545e-08 1.8999e-07 -3.0658e-07 -4.37237e-07 -2.36323e-08 -1.71286e-07 3.26739e-08 1.63525e-07 -2.51108e-07 -3.59995e-07 -1.79862e-08 -1.29415e-07 2.8871e-08 1.37875e-07 -2.00758e-07 -2.87701e-07 -2.14398e-08 -9.29964e-08 2.39039e-08 1.10944e-07 -1.60071e-07 -2.25516e-07 -1.9713e-08 -6.17389e-08 2.0916e-08 8.64578e-08 -1.20859e-07 -1.70005e-07 -1.36594e-08 -3.17232e-08 1.78504e-08 6.70164e-08 -8.14325e-08 -1.15387e-07 -1.44743e-08 -1.43579e-08 1.42803e-08 4.82736e-08 -4.89914e-08 -7.78042e-08 -1.57937e-08 5.62674e-09 5.89838e-09 3.47694e-08 -2.53591e-08 -4.22588e-08 -9.70128e-09 1.54444e-08 4.03573e-09 2.09548e-08 -1.16221e-08 -1.79474e-08 -1.13311e-08 1.81608e-08 3.91932e-09 1.02834e-08 -1.24176e-09 -6.73269e-09 -1.364e-08 1.27669e-08 -6.15061e-09 -6.98492e-10 -1.5522e-09 -2.36711e-09 -1.20249e-06 -2.40941e-06 -2.49348e-06 -2.49348e-06 -4.73054e-07 -1.02711e-06 -5.86015e-07 -2.99139e-06 -1.29857e-06 -7.44922e-07 -2.07378e-06 -2.81609e-06 2.0916e-07 -2.23279e-06 -1.43637e-07 6.04894e-07 -1.80506e-06 -2.65493e-06 1.41406e-07 -1.84687e-06 -1.18356e-08 8.45136e-07 -1.68319e-06 -2.58174e-06 9.24338e-08 -1.60836e-06 4.44707e-08 9.50376e-07 -1.58668e-06 -2.48795e-06 6.57747e-08 -1.43705e-06 7.23327e-08 9.80683e-07 -1.48787e-06 -2.36277e-06 5.78584e-08 -1.30125e-06 8.75831e-08 9.69041e-07 -1.38334e-06 -2.21874e-06 5.37839e-08 -1.18488e-06 9.04547e-08 9.31633e-07 -1.2809e-06 -2.06608e-06 4.86228e-08 -1.08258e-06 9.12696e-08 8.81613e-07 -1.18586e-06 -1.90849e-06 4.91273e-08 -9.89375e-07 9.24726e-08 8.19447e-07 -1.09037e-06 -1.75733e-06 4.44319e-08 -8.9861e-07 8.99114e-08 7.60619e-07 -9.97e-07 -1.60902e-06 4.38886e-08 -8.158e-07 8.74279e-08 7.02528e-07 -9.10911e-07 -1.46499e-06 4.35005e-08 -7.34484e-07 8.51384e-08 6.41681e-07 -8.25462e-07 -1.32492e-06 4.21812e-08 -6.57145e-07 8.44399e-08 5.86074e-07 -7.47968e-07 -1.19621e-06 3.70201e-08 -5.8326e-07 8.02878e-08 5.30233e-07 -6.7257e-07 -1.07316e-06 3.76021e-08 -5.1733e-07 7.83087e-08 4.8033e-07 -6.02605e-07 -9.58253e-07 3.34112e-08 -4.51788e-07 7.64849e-08 4.33259e-07 -5.34696e-07 -8.49386e-07 2.98799e-08 -3.89021e-07 7.17118e-08 3.87275e-07 -4.65836e-07 -7.42555e-07 2.92979e-08 -3.37993e-07 6.86074e-08 3.45986e-07 -4.12285e-07 -6.50374e-07 2.64263e-08 -2.87138e-07 5.98763e-08 2.98489e-07 -3.59238e-07 -5.59608e-07 2.44472e-08 -2.41736e-07 6.0924e-08 2.61663e-07 -3.07045e-07 -4.76507e-07 1.9519e-08 -1.96858e-07 5.74704e-08 2.27243e-07 -2.56579e-07 -4.00508e-07 1.87817e-08 -1.57646e-07 4.73422e-08 1.91464e-07 -2.13913e-07 -3.32405e-07 1.71131e-08 -1.26427e-07 4.36557e-08 1.62283e-07 -1.73245e-07 -2.64573e-07 9.97291e-09 -9.2589e-08 4.03185e-08 1.31743e-07 -1.37894e-07 -2.08966e-07 1.16415e-08 -6.55612e-08 3.49246e-08 1.06016e-07 -1.0619e-07 -1.63311e-07 1.12535e-08 -4.50333e-08 2.7668e-08 8.4828e-08 -7.65431e-08 -1.14669e-07 1.03222e-08 -2.72412e-08 2.468e-08 6.28255e-08 -5.59958e-08 -8.29265e-08 7.25656e-09 -1.12147e-08 2.07995e-08 4.77303e-08 -3.28873e-08 -5.1863e-08 7.14014e-09 3.10441e-10 1.68026e-08 3.57395e-08 -1.34072e-08 -2.7183e-08 1.82384e-09 8.65354e-09 9.46845e-09 2.32443e-08 -6.57747e-09 -1.3737e-08 1.28057e-09 1.54056e-08 1.94026e-09 9.1192e-09 7.91624e-09 5.47152e-09 -3.93445e-07 -1.64054e-06 -1.05294e-06 -1.05294e-06 -3.43503e-07 -9.33166e-07 -1.00951e-07 -1.7382e-06 -5.39663e-07 5.08347e-08 -1.02343e-06 -1.86396e-06 1.21732e-07 -1.83701e-06 -1.4938e-07 6.9597e-07 -1.48447e-06 -2.42154e-06 3.81144e-07 -1.5262e-06 2.24332e-07 1.16924e-06 -1.37281e-06 -2.34523e-06 3.6081e-07 -1.31776e-06 2.72218e-07 1.25255e-06 -1.26959e-06 -2.2325e-06 3.27049e-07 -1.16442e-06 2.74895e-07 1.24522e-06 -1.17104e-06 -2.09998e-06 2.96083e-07 -1.04795e-06 2.62478e-07 1.19803e-06 -1.07785e-06 -1.95587e-06 2.69851e-07 -9.52258e-07 2.45675e-07 1.12946e-06 -9.89123e-07 -1.81119e-06 2.48857e-07 -8.68439e-07 2.2798e-07 1.05496e-06 -9.11299e-07 -1.6698e-06 2.33102e-07 -7.92226e-07 2.11915e-07 9.7459e-07 -8.35862e-07 -1.52913e-06 2.17503e-07 -7.19951e-07 2.00894e-07 8.97717e-07 -7.65683e-07 -1.39621e-06 1.99381e-07 -6.53963e-07 1.88593e-07 8.2197e-07 -6.97755e-07 -1.27001e-06 1.83471e-07 -5.9106e-07 1.75593e-07 7.5018e-07 -6.32892e-07 -1.1511e-06 1.64068e-07 -5.31552e-07 1.60925e-07 6.81068e-07 -5.73966e-07 -1.04116e-06 1.52931e-07 -4.75925e-07 1.44937e-07 6.13742e-07 -5.19212e-07 -9.31187e-07 1.40125e-07 -4.17989e-07 1.41173e-07 5.54292e-07 -4.58812e-07 -8.30158e-07 1.234e-07 -3.67795e-07 1.24564e-07 4.96938e-07 -4.10927e-07 -7.35551e-07 1.09818e-07 -3.20142e-07 1.14436e-07 4.39856e-07 -3.61974e-07 -6.48065e-07 1.00816e-07 -2.78562e-07 1.04929e-07 3.91621e-07 -3.17911e-07 -5.62014e-07 9.01831e-08 -2.41736e-07 9.41412e-08 3.3873e-07 -2.75206e-07 -4.87043e-07 7.99385e-08 -2.0006e-07 8.58369e-08 2.98023e-07 -2.36517e-07 -4.14865e-07 6.5503e-08 -1.63738e-07 7.61744e-08 2.54794e-07 -2.01728e-07 -3.50488e-07 5.86345e-08 -1.39349e-07 6.77149e-08 2.16649e-07 -1.67929e-07 -2.8904e-07 5.21153e-08 -1.08577e-07 5.56853e-08 1.76951e-07 -1.35119e-07 -2.33898e-07 4.55572e-08 -8.21892e-08 5.21541e-08 1.50991e-07 -1.12535e-07 -1.87856e-07 3.81454e-08 -6.70552e-08 4.50915e-08 1.20451e-07 -9.03189e-08 -1.41425e-07 3.12769e-08 -4.78661e-08 4.30349e-08 9.418e-08 -6.43195e-08 -1.07995e-07 2.33219e-08 -3.59917e-08 2.79785e-08 7.17118e-08 -5.03302e-08 -7.53595e-08 1.89757e-08 -1.89563e-08 2.37099e-08 4.87004e-08 -3.24605e-08 -5.26585e-08 1.77339e-08 -1.08654e-08 1.66474e-08 3.68649e-08 -2.05085e-08 -3.12769e-08 1.30773e-08 -4.73422e-09 1.27281e-08 2.35159e-08 -1.234e-08 -1.48041e-08 1.47847e-08 3.99693e-09 1.17579e-08 1.42027e-08 3.37604e-09 4.5402e-09 2.93444e-07 -9.51346e-07 2.59994e-07 2.59994e-07 -2.89311e-07 -9.07341e-07 4.05591e-07 -1.09624e-06 2.63448e-07 8.83786e-07 -6.55011e-07 -1.55585e-06 4.61199e-07 -1.13226e-06 2.96665e-07 1.20292e-06 -8.59436e-07 -1.87382e-06 5.34308e-07 -1.13876e-06 3.7672e-07 1.39834e-06 -9.81362e-07 -2.02014e-06 5.99694e-07 -1.00107e-06 4.66903e-07 1.51371e-06 -9.12308e-07 -1.93209e-06 5.71405e-07 -8.87104e-07 4.53593e-07 1.48076e-06 -8.35183e-07 -1.80857e-06 5.33376e-07 -7.94224e-07 4.24955e-07 1.4049e-06 -7.61065e-07 -1.67126e-06 4.94338e-07 -7.2162e-07 3.97287e-07 1.31297e-06 -6.97988e-07 -1.54114e-06 4.50411e-07 -6.56699e-07 3.62517e-07 1.21033e-06 -6.36404e-07 -1.41499e-06 4.1343e-07 -6.01906e-07 3.31318e-07 1.11375e-06 -5.81223e-07 -1.28973e-06 3.83705e-07 -5.46376e-07 3.08695e-07 1.0203e-06 -5.30272e-07 -1.1763e-06 3.51574e-07 -4.93349e-07 2.82734e-07 9.31361e-07 -4.82968e-07 -1.06941e-06 3.19094e-07 -4.44221e-07 2.58791e-07 8.47387e-07 -4.36693e-07 -9.65277e-07 2.93832e-07 -3.988e-07 2.37216e-07 7.67526e-07 -3.95967e-07 -8.68963e-07 2.65233e-07 -3.59859e-07 2.137e-07 6.8817e-07 -3.52118e-07 -7.79808e-07 2.36168e-07 -3.17077e-07 1.91969e-07 6.20804e-07 -3.18299e-07 -6.89916e-07 2.1467e-07 -2.82734e-07 1.74739e-07 5.47191e-07 -2.84034e-07 -6.14673e-07 1.88632e-07 -2.45947e-07 1.54794e-07 4.86112e-07 -2.50759e-07 -5.37393e-07 1.69035e-07 -2.13447e-07 1.38379e-07 4.25576e-07 -2.17658e-07 -4.69542e-07 1.46024e-07 -1.86148e-07 1.21266e-07 3.73577e-07 -1.90145e-07 -4.02021e-07 1.28794e-07 -1.58189e-07 1.05938e-07 3.18163e-07 -1.64107e-07 -3.43386e-07 1.15562e-07 -1.3056e-07 9.66247e-08 2.76137e-07 -1.4127e-07 -2.92028e-07 9.38696e-08 -1.09644e-07 7.85415e-08 2.29416e-07 -1.18744e-07 -2.41639e-07 8.17236e-08 -9.02995e-08 7.09745e-08 1.93948e-07 -9.39084e-08 -1.93618e-07 6.93447e-08 -6.88597e-08 5.66943e-08 1.56462e-07 -7.55147e-08 -1.53862e-07 5.7742e-08 -5.36287e-08 4.74198e-08 1.25806e-07 -6.05748e-08 -1.18744e-07 4.61005e-08 -3.58559e-08 3.87275e-08 9.68964e-08 -4.75945e-08 -9.08234e-08 3.43813e-08 -3.03262e-08 2.92979e-08 7.25267e-08 -3.4944e-08 -6.7094e-08 2.48353e-08 -2.22159e-08 1.89369e-08 5.10287e-08 -2.6989e-08 -4.51691e-08 2.34383e-08 -1.58325e-08 1.52892e-08 3.34888e-08 -1.47653e-08 -2.36129e-08 2.04891e-08 -1.14281e-08 1.58713e-08 2.47189e-08 -1.10983e-08 -1.52504e-08 1.77339e-08 -5.49092e-09 1.36982e-08 1.78892e-08 -2.48353e-09 1.12535e-09 1.00319e-06 -3.22703e-07 1.58449e-06 1.58449e-06 -2.86983e-07 -9.22165e-07 9.26472e-07 -5.57668e-07 1.08841e-06 1.72756e-06 -4.12518e-07 -1.34885e-06 8.70321e-07 -6.36287e-07 8.22979e-07 1.76575e-06 -4.69484e-07 -1.52815e-06 8.48047e-07 -6.67079e-07 7.02993e-07 1.76901e-06 -5.08405e-07 -1.59408e-06 8.34543e-07 -6.58367e-07 6.57359e-07 1.75058e-06 -5.25402e-07 -1.58393e-06 8.19331e-07 -6.01208e-07 6.34968e-07 1.7006e-06 -4.83783e-07 -1.48457e-06 7.6904e-07 -5.43543e-07 5.87548e-07 1.5945e-06 -4.35801e-07 -1.36924e-06 7.13859e-07 -4.89449e-07 5.4071e-07 1.47933e-06 -3.93193e-07 -1.24826e-06 6.57164e-07 -4.46375e-07 4.98335e-07 1.35767e-06 -3.59258e-07 -1.14137e-06 6.01673e-07 -4.06794e-07 4.55805e-07 1.24141e-06 -3.25497e-07 -1.04007e-06 5.49791e-07 -3.66243e-07 4.12731e-07 1.13024e-06 -2.91911e-07 -9.42401e-07 5.0144e-07 -3.32385e-07 3.78272e-07 1.03113e-06 -2.64146e-07 -8.50938e-07 4.56814e-07 -2.98664e-07 3.39079e-07 9.2783e-07 -2.38904e-07 -7.69719e-07 4.11063e-07 -2.67794e-07 3.08617e-07 8.40984e-07 -2.11624e-07 -6.89392e-07 3.72839e-07 -2.40902e-07 2.75982e-07 7.54992e-07 -1.89757e-07 -6.17273e-07 3.33025e-07 -2.10498e-07 2.44239e-07 6.72764e-07 -1.6659e-07 -5.44785e-07 2.98023e-07 -1.88166e-07 2.16571e-07 5.9562e-07 -1.48507e-07 -4.80407e-07 2.65931e-07 -1.66513e-07 1.93094e-07 5.25615e-07 -1.32888e-07 -4.20259e-07 2.34616e-07 -1.45189e-07 1.68181e-07 4.55999e-07 -1.14669e-07 -3.64186e-07 2.03339e-07 -1.23769e-07 1.45015e-07 3.94842e-07 -9.92053e-08 -3.1178e-07 1.7505e-07 -1.04871e-07 1.25069e-07 3.37915e-07 -8.21504e-08 -2.66766e-07 1.47731e-07 -8.85921e-08 1.03687e-07 2.88477e-07 -6.97522e-08 -2.16959e-07 1.2763e-07 -7.38655e-08 8.9601e-08 2.36944e-07 -5.85957e-08 -1.80968e-07 1.04774e-07 -5.70435e-08 7.03925e-08 1.929e-07 -4.63721e-08 -1.48934e-07 8.65354e-08 -4.95153e-08 5.29302e-08 1.5557e-07 -3.68843e-08 -1.14397e-07 6.77537e-08 -4.14827e-08 4.45871e-08 1.22081e-07 -3.11799e-08 -8.66712e-08 5.5957e-08 -2.77262e-08 3.79514e-08 9.34427e-08 -2.03533e-08 -5.72181e-08 4.39274e-08 -2.56502e-08 2.92591e-08 6.61627e-08 -2.05667e-08 -4.42572e-08 3.01516e-08 -2.20413e-08 1.5328e-08 3.89991e-08 -1.61235e-08 -3.33336e-08 2.43696e-08 -1.54638e-08 1.11371e-08 2.83665e-08 -7.33417e-09 -1.61235e-08 2.22741e-08 -1.19132e-08 9.31323e-09 1.81608e-08 -7.31476e-09 -1.01475e-08 1.82384e-08 -1.54444e-08 9.54606e-09 1.23788e-08 -1.13699e-08 -1.10983e-08 1.86292e-06 2.21538e-07 3.02955e-06 3.02955e-06 -3.54756e-07 -1.01543e-06 1.48038e-06 -7.51267e-08 1.93133e-06 2.598e-06 -2.32831e-07 -1.19601e-06 1.30211e-06 -1.92687e-07 1.37386e-06 2.34468e-06 -1.4257e-07 -1.22292e-06 1.20571e-06 -2.60343e-07 1.08394e-06 2.17196e-06 -1.13912e-07 -1.21464e-06 1.13924e-06 -2.94899e-07 9.24959e-07 2.03284e-06 -1.1756e-07 -1.17861e-06 1.08018e-06 -2.99905e-07 8.35047e-07 1.90242e-06 -1.16163e-07 -1.11629e-06 1.01122e-06 -2.79901e-07 7.63529e-07 1.76912e-06 -9.93605e-08 -1.02657e-06 9.38851e-07 -2.53397e-07 6.95698e-07 1.62749e-06 -8.13355e-08 -9.33767e-07 8.61435e-07 -2.30308e-07 6.33649e-07 1.48984e-06 -7.24685e-08 -8.47659e-07 7.86036e-07 -2.04542e-07 5.81145e-07 1.35942e-06 -5.96823e-08 -7.68846e-07 7.1902e-07 -1.86459e-07 5.21424e-07 1.23311e-06 -5.0272e-08 -6.90129e-07 6.53129e-07 -1.64883e-07 4.72801e-07 1.11472e-06 -4.24916e-08 -6.22667e-07 5.88285e-07 -1.48682e-07 4.22976e-07 1.00478e-06 -3.16068e-08 -5.58134e-07 5.31708e-07 -1.28464e-07 3.76992e-07 9.04858e-07 -2.65815e-08 -4.98393e-07 4.81688e-07 -1.1692e-07 3.37488e-07 8.10367e-07 -2.05473e-08 -4.37644e-07 4.30232e-07 -1.0328e-07 2.96277e-07 7.14208e-07 -1.49012e-08 -3.86906e-07 3.77923e-07 -9.42382e-08 2.59567e-07 6.32213e-07 -1.31161e-08 -3.39176e-07 3.36867e-07 -7.85027e-08 2.24216e-07 5.50722e-07 -5.97599e-09 -2.90068e-07 2.91155e-07 -7.00432e-08 1.92823e-07 4.77225e-07 -3.7835e-09 -2.4682e-07 2.54096e-07 -5.77226e-08 1.62981e-07 4.06251e-07 4.26856e-10 -2.0751e-07 2.21034e-07 -4.64303e-08 1.38379e-07 3.46491e-07 3.41485e-09 -1.72993e-07 1.84402e-07 -4.15603e-08 1.12574e-07 2.89098e-07 2.40592e-09 -1.41852e-07 1.54367e-07 -3.2247e-08 9.01055e-08 2.34422e-07 5.70435e-09 -1.13175e-07 1.21305e-07 -2.68919e-08 6.84134e-08 1.87351e-07 7.41178e-09 -8.52936e-08 9.86426e-08 -2.43696e-08 5.28138e-08 1.45558e-07 9.19681e-09 -6.3718e-08 7.81923e-08 -1.72683e-08 3.57007e-08 1.08654e-07 5.89838e-09 -4.78661e-08 5.61122e-08 -1.09042e-08 2.79785e-08 8.17236e-08 7.06253e-09 -3.50992e-08 4.18707e-08 -6.30583e-09 1.44355e-08 5.66943e-08 8.3431e-09 -1.6434e-08 2.94143e-08 -9.62367e-09 9.62367e-09 3.43813e-08 5.19988e-09 -1.03998e-08 1.64922e-08 -1.11371e-08 -1.18356e-09 1.44355e-08 2.09548e-09 -9.17741e-09 1.26505e-08 -1.58907e-08 -3.39545e-09 7.83863e-09 -2.96859e-09 -6.88791e-09 1.73847e-08 -2.78427e-08 2.21189e-09 6.17001e-09 -1.92279e-08 -1.41057e-08 3.01469e-06 5.71522e-07 4.70112e-06 4.70112e-06 -5.8293e-07 -1.24815e-06 2.07972e-06 3.45521e-07 2.78636e-06 3.45979e-06 -9.90694e-08 -1.04155e-06 1.7529e-06 2.07103e-07 1.94243e-06 2.89354e-06 1.38728e-07 -9.01792e-07 1.58736e-06 1.10983e-07 1.50121e-06 2.54934e-06 2.3415e-07 -8.13239e-07 1.47102e-06 4.22588e-08 1.24277e-06 2.2966e-06 2.56502e-07 -7.54119e-07 1.3635e-06 5.85957e-09 1.07529e-06 2.09136e-06 2.50215e-07 -6.98317e-07 1.2659e-06 -1.09624e-08 9.62561e-07 1.91569e-06 2.35508e-07 -6.45368e-07 1.16668e-06 -1.75787e-08 8.63724e-07 1.7484e-06 2.24255e-07 -5.81417e-07 1.06896e-06 -1.23012e-08 7.85144e-07 1.594e-06 2.14204e-07 -5.22453e-07 9.75677e-07 -5.19988e-09 7.08892e-07 1.44817e-06 1.98527e-07 -4.66399e-07 8.88443e-07 -5.21929e-09 6.3881e-07 1.30583e-06 1.91348e-07 -4.17039e-07 8.06564e-07 7.76102e-10 5.7416e-07 1.18429e-06 1.80133e-07 -3.69522e-07 7.281e-07 1.86265e-09 5.12266e-07 1.06334e-06 1.66435e-07 -3.28563e-07 6.56388e-07 3.8029e-09 4.553e-07 9.51385e-07 1.57898e-07 -2.86323e-07 5.85569e-07 9.77889e-09 3.99925e-07 8.44981e-07 1.53397e-07 -2.44007e-07 5.23442e-07 6.0536e-09 3.48586e-07 7.4661e-07 1.39504e-07 -2.07957e-07 4.62673e-07 1.14863e-08 3.06172e-07 6.54215e-07 1.29454e-07 -1.79396e-07 4.04388e-07 8.3431e-09 2.57045e-07 5.66244e-07 1.20645e-07 -1.46761e-07 3.52816e-07 1.26505e-08 2.17464e-07 4.8518e-07 1.10711e-07 -1.17269e-07 3.00623e-07 1.06714e-08 1.8122e-07 4.09472e-07 1.01553e-07 -9.59844e-08 2.53203e-07 1.27669e-08 1.47382e-07 3.44977e-07 9.53053e-08 -7.13432e-08 2.10712e-07 1.3737e-08 1.10905e-07 2.77651e-07 8.54488e-08 -5.23481e-08 1.74196e-07 1.13699e-08 8.43623e-08 2.22198e-07 7.55147e-08 -3.33142e-08 1.35081e-07 1.37758e-08 6.24762e-08 1.71325e-07 6.65896e-08 -2.09548e-08 1.0815e-07 1.0555e-08 3.87275e-08 1.26311e-07 5.63062e-08 -6.15061e-09 7.68341e-08 7.45058e-09 2.51457e-08 8.75831e-08 4.99034e-08 -8.14907e-10 5.3357e-08 1.10983e-08 5.3163e-09 5.60346e-08 3.91544e-08 7.17894e-09 3.3062e-08 7.76102e-09 -2.96859e-09 2.9065e-08 3.51962e-08 1.24564e-08 2.01399e-08 4.42378e-09 -8.45951e-09 1.42803e-08 2.41756e-08 9.81769e-09 9.93411e-09 -1.61041e-09 -1.39116e-08 4.65661e-10 1.60653e-08 1.14863e-08 4.65661e-09 -7.48939e-09 -1.23594e-08 -7.81923e-09 8.53712e-09 1.12535e-09 7.567e-09 -2.68919e-08 -1.09042e-08 -3.51186e-09 -1.17191e-08 -1.54056e-08 4.35316e-06 4.93523e-07 6.48721e-06 6.48721e-06 -1.16646e-06 -1.82516e-06 2.78031e-06 6.36249e-07 3.66386e-06 4.33368e-06 -6.07882e-08 -9.02917e-07 2.23114e-06 5.60035e-07 2.54142e-06 3.39223e-06 3.7443e-07 -5.26973e-07 1.9694e-06 4.56503e-07 1.9458e-06 2.85388e-06 5.43776e-07 -3.58346e-07 1.79136e-06 3.67213e-07 1.58554e-06 2.49292e-06 5.95154e-07 -2.79707e-07 1.64359e-06 2.98528e-07 1.34665e-06 2.22578e-06 5.8553e-07 -2.43948e-07 1.50556e-06 2.52311e-07 1.17172e-06 2.00483e-06 5.54215e-07 -2.16785e-07 1.38414e-06 2.20917e-07 1.04615e-06 1.82027e-06 5.22278e-07 -1.90397e-07 1.26908e-06 2.01864e-07 9.35164e-07 1.65046e-06 4.84171e-07 -1.68686e-07 1.15783e-06 1.86769e-07 8.42226e-07 1.49733e-06 4.52157e-07 -1.47421e-07 1.05903e-06 1.73963e-07 7.5344e-07 1.35492e-06 4.22394e-07 -1.22741e-07 9.53597e-07 1.59799e-07 6.73967e-07 1.22061e-06 3.91117e-07 -1.03105e-07 8.62288e-07 1.48701e-07 6.00625e-07 1.09609e-06 3.63643e-07 -8.06758e-08 7.73231e-07 1.37952e-07 5.27167e-07 9.72456e-07 3.38342e-07 -6.15643e-08 6.94029e-07 1.25767e-07 4.59957e-07 8.6062e-07 3.10829e-07 -4.39856e-08 6.1444e-07 1.16415e-07 4.00275e-07 7.55652e-07 2.90728e-07 -2.45442e-08 5.36325e-07 1.10323e-07 3.39583e-07 6.55302e-07 2.66358e-07 -1.14087e-08 4.66166e-07 9.5771e-08 2.82579e-07 5.60656e-07 2.42765e-07 1.62981e-09 3.99111e-07 9.07263e-08 2.31744e-07 4.73151e-07 2.25807e-07 1.76563e-08 3.39778e-07 8.5022e-08 1.86536e-07 3.94803e-07 2.04192e-07 2.86382e-08 2.86847e-07 7.67177e-08 1.48119e-07 3.23751e-07 1.82384e-07 3.6632e-08 2.34965e-07 6.57747e-08 1.06054e-07 2.51845e-07 1.65387e-07 4.47811e-08 1.81957e-07 5.9333e-08 7.33805e-08 1.93987e-07 1.49089e-07 5.26197e-08 1.40009e-07 5.24257e-08 4.24916e-08 1.38922e-07 1.24952e-07 5.11839e-08 1.00699e-07 4.33841e-08 1.851e-08 9.23174e-08 1.12768e-07 5.31242e-08 6.79865e-08 4.49363e-08 -5.54913e-09 5.40943e-08 9.65859e-08 5.30854e-08 4.0823e-08 3.27903e-08 -2.07413e-08 2.27398e-08 8.0831e-08 5.44824e-08 2.12264e-08 2.85218e-08 -2.77651e-08 -1.45519e-09 6.45329e-08 4.81571e-08 6.90731e-09 2.20413e-08 -3.18978e-08 -1.55608e-08 5.06407e-08 4.27244e-08 -9.68187e-09 1.15639e-08 -3.67096e-08 -2.88128e-08 3.54291e-08 2.44084e-08 -3.49246e-09 2.21189e-09 -3.01516e-08 -1.91503e-08 1.91697e-08 1.83936e-08 -3.51186e-09 -1.59489e-08 -1.73071e-08 -1.64922e-08 2.56114e-09 -4.579e-09 -2.13758e-06 -5.27542e-06 -4.464e-06 -4.464e-06 -2.24602e-06 -2.75472e-06 1.66125e-07 -2.82156e-06 -6.93117e-07 -1.8252e-07 -1.92171e-06 -2.5622e-06 -1.7408e-07 -2.26765e-06 -4.59452e-07 1.85178e-07 -1.92574e-06 -2.67815e-06 -2.50293e-07 -2.00857e-06 -3.05028e-07 4.52545e-07 -1.9244e-06 -2.72887e-06 -2.52951e-07 -1.83614e-06 -2.03048e-07 6.073e-07 -1.88754e-06 -2.69711e-06 -2.35256e-07 -1.69573e-06 -1.37584e-07 6.78274e-07 -1.81202e-06 -2.60345e-06 -2.09722e-07 -1.56749e-06 -9.46069e-08 7.02955e-07 -1.7153e-06 -2.47123e-06 -1.87196e-07 -1.44516e-06 -6.94999e-08 6.92206e-07 -1.60678e-06 -2.3174e-06 -1.61099e-07 -1.32754e-06 -4.9787e-08 6.66051e-07 -1.49031e-06 -2.14559e-06 -1.40552e-07 -1.21371e-06 -3.24411e-08 6.27362e-07 -1.37162e-06 -1.97978e-06 -1.28561e-07 -1.10847e-06 -2.32249e-08 5.88829e-07 -1.26148e-06 -1.81391e-06 -1.14688e-07 -9.99755e-07 -1.41445e-08 5.41603e-07 -1.14952e-06 -1.65217e-06 -9.89918e-08 -9.0024e-07 -6.01479e-09 4.99422e-07 -1.04137e-06 -1.49627e-06 -9.43934e-08 -8.04275e-07 1.97906e-09 4.5922e-07 -9.41742e-07 -1.35059e-06 -7.99579e-08 -7.12966e-07 8.45951e-09 4.19173e-07 -8.48571e-07 -1.21547e-06 -7.03149e-08 -6.28119e-07 1.09818e-08 3.79436e-07 -7.54895e-07 -1.07612e-06 -6.1118e-08 -5.50004e-07 1.84712e-08 3.40864e-07 -6.68379e-07 -9.5154e-07 -5.71599e-08 -4.82212e-07 2.11876e-08 3.05241e-07 -5.89644e-07 -8.35493e-07 -4.84094e-08 -4.06484e-07 2.29726e-08 2.69618e-07 -5.13062e-07 -7.24511e-07 -4.44513e-08 -3.42028e-07 2.73964e-08 2.39389e-07 -4.42572e-07 -6.25946e-07 -3.68454e-08 -2.80619e-07 2.43308e-08 2.08112e-07 -3.78932e-07 -5.3324e-07 -3.17232e-08 -2.29707e-07 2.75904e-08 1.82229e-07 -3.15544e-07 -4.41854e-07 -2.58054e-08 -1.84305e-07 2.81337e-08 1.54677e-07 -2.57666e-07 -3.60441e-07 -2.20607e-08 -1.37467e-07 2.31278e-08 1.26078e-07 -2.10557e-07 -2.89195e-07 -2.01204e-08 -9.91471e-08 2.20801e-08 1.00738e-07 -1.63932e-07 -2.23964e-07 -1.78309e-08 -7.1673e-08 1.7928e-08 7.79983e-08 -1.1886e-07 -1.6595e-07 -1.61817e-08 -4.04543e-08 1.41251e-08 6.12345e-08 -8.17042e-08 -1.14844e-07 -1.31743e-08 -1.82966e-08 7.95505e-09 4.10946e-08 -5.48898e-08 -7.57864e-08 -1.24176e-08 3.45365e-09 8.22668e-09 2.91038e-08 -2.77068e-08 -4.14827e-08 -1.28445e-08 1.04774e-08 2.75516e-09 1.65698e-08 -1.17191e-08 -1.8413e-08 -1.14863e-08 1.31549e-08 -2.2507e-09 4.42378e-09 6.59687e-10 -3.58947e-09 -1.1855e-08 1.05162e-08 -4.96705e-09 -6.98492e-10 3.99693e-09 1.59101e-09 -1.01912e-06 -2.63557e-06 -2.54358e-06 -2.54358e-06 -2.84927e-07 -9.31749e-07 -5.31921e-07 -2.86698e-06 -1.25503e-06 -6.08988e-07 -2.01179e-06 -2.77862e-06 1.9907e-07 -2.07493e-06 -7.82117e-08 6.94999e-07 -1.7894e-06 -2.6345e-06 1.19287e-07 -1.73923e-06 4.07842e-08 8.93061e-07 -1.68393e-06 -2.56663e-06 6.98492e-08 -1.54359e-06 8.01326e-08 9.70011e-07 -1.59322e-06 -2.48213e-06 5.00198e-08 -1.39995e-06 9.35979e-08 9.89297e-07 -1.49755e-06 -2.36108e-06 3.93484e-08 -1.28583e-06 9.53441e-08 9.65044e-07 -1.401e-06 -2.22476e-06 3.93872e-08 -1.18272e-06 9.64307e-08 9.25696e-07 -1.30053e-06 -2.07161e-06 4.05125e-08 -1.08619e-06 9.51113e-08 8.70981e-07 -1.19768e-06 -1.91889e-06 3.72141e-08 -9.96942e-07 9.01443e-08 8.15489e-07 -1.10523e-06 -1.76751e-06 3.87663e-08 -9.04411e-07 8.97562e-08 7.55497e-07 -1.00986e-06 -1.61699e-06 3.88439e-08 -8.2197e-07 8.63026e-08 6.96435e-07 -9.22708e-07 -1.47659e-06 3.33724e-08 -7.45078e-07 7.94729e-08 6.35783e-07 -8.3819e-07 -1.34039e-06 3.33724e-08 -6.63315e-07 7.6058e-08 5.80292e-07 -7.59765e-07 -1.20787e-06 3.00352e-08 -5.91991e-07 7.63296e-08 5.26042e-07 -6.80409e-07 -1.08177e-06 3.09665e-08 -5.25441e-07 7.4079e-08 4.76721e-07 -6.06737e-07 -9.65393e-07 3.09665e-08 -4.60015e-07 7.07805e-08 4.30465e-07 -5.39546e-07 -8.53014e-07 2.93755e-08 -3.96336e-07 6.74821e-08 3.81765e-07 -4.74586e-07 -7.46009e-07 2.84441e-08 -3.43813e-07 6.72493e-08 3.39273e-07 -4.15156e-07 -6.54933e-07 2.16921e-08 -2.93464e-07 6.0924e-08 3.01205e-07 -3.65272e-07 -5.6345e-07 2.23905e-08 -2.50506e-07 5.94106e-08 2.57938e-07 -3.11605e-07 -4.80621e-07 1.92085e-08 -2.03281e-07 5.14944e-08 2.20762e-07 -2.62536e-07 -4.04582e-07 1.6919e-08 -1.64495e-07 4.76527e-08 1.89835e-07 -2.18415e-07 -3.32075e-07 1.44743e-08 -1.31433e-07 4.14827e-08 1.55259e-07 -1.76602e-07 -2.741e-07 9.81769e-09 -9.60815e-08 3.62052e-08 1.33839e-07 -1.38204e-07 -2.14437e-07 1.07102e-08 -7.18477e-08 3.37604e-08 1.10051e-07 -1.07529e-07 -1.60808e-07 1.12147e-08 -4.92631e-08 2.83277e-08 8.1646e-08 -7.94923e-08 -1.18608e-07 6.01479e-09 -3.31396e-08 2.37487e-08 6.29031e-08 -5.42495e-08 -8.40325e-08 5.85957e-09 -1.51922e-08 1.25341e-08 4.23364e-08 -3.58171e-08 -5.31048e-08 8.76995e-09 -3.16262e-09 1.3737e-08 3.10053e-08 -1.88011e-08 -2.66785e-08 5.16108e-09 6.0536e-09 1.234e-08 2.02175e-08 -3.16262e-09 -9.41024e-09 -1.99846e-09 1.78504e-08 6.44165e-09 1.26893e-08 1.0943e-08 4.30737e-09 -3.17368e-07 -1.7583e-06 -1.08877e-06 -1.08877e-06 -2.21849e-07 -9.03538e-07 -7.51461e-08 -1.7049e-06 -5.45968e-07 1.36555e-07 -9.75735e-07 -1.86181e-06 1.17424e-07 -1.74701e-06 -1.35488e-07 7.55574e-07 -1.46846e-06 -2.41055e-06 3.60538e-07 -1.44673e-06 2.40902e-07 1.19108e-06 -1.36732e-06 -2.32827e-06 3.41407e-07 -1.26412e-06 2.85644e-07 1.25445e-06 -1.27405e-06 -2.22196e-06 3.09083e-07 -1.13775e-06 2.80561e-07 1.23559e-06 -1.18138e-06 -2.09398e-06 2.81531e-07 -1.03726e-06 2.65776e-07 1.1846e-06 -1.09359e-06 -1.95845e-06 2.60343e-07 -9.52258e-07 2.46723e-07 1.11697e-06 -1.00979e-06 -1.81614e-06 2.44239e-07 -8.75094e-07 2.32714e-07 1.04362e-06 -9.30158e-07 -1.67467e-06 2.23246e-07 -7.9954e-07 2.14127e-07 9.62405e-07 -8.52995e-07 -1.53973e-06 2.0524e-07 -7.28702e-07 2.01981e-07 8.91897e-07 -7.8008e-07 -1.40919e-06 1.90805e-07 -6.62869e-07 1.83975e-07 8.15683e-07 -7.10716e-07 -1.28243e-06 1.76447e-07 -5.99306e-07 1.71208e-07 7.45136e-07 -6.45736e-07 -1.16264e-06 1.6108e-07 -5.39507e-07 1.59101e-07 6.77692e-07 -5.82445e-07 -1.04976e-06 1.45364e-07 -4.81707e-07 1.46839e-07 6.15565e-07 -5.28138e-07 -9.42809e-07 1.33451e-07 -4.28195e-07 1.34887e-07 5.50644e-07 -4.71385e-07 -8.37725e-07 1.19636e-07 -3.79087e-07 1.23555e-07 4.90768e-07 -4.19037e-07 -7.44127e-07 1.06947e-07 -3.30096e-07 1.12069e-07 4.37916e-07 -3.68222e-07 -6.52333e-07 9.98843e-08 -2.86731e-07 1.05278e-07 3.89914e-07 -3.25575e-07 -5.69737e-07 8.70787e-08 -2.43114e-07 9.77501e-08 3.423e-07 -2.82365e-07 -4.92961e-07 7.37685e-08 -2.03378e-07 8.39743e-08 2.9488e-07 -2.40339e-07 -4.24023e-07 6.34464e-08 -1.70704e-07 7.31864e-08 2.57045e-07 -2.02951e-07 -3.54873e-07 6.22822e-08 -1.39601e-07 6.44941e-08 2.1661e-07 -1.70296e-07 -2.93561e-07 4.38498e-08 -1.1399e-07 5.69659e-08 1.80289e-07 -1.41018e-07 -2.41504e-07 4.27244e-08 -8.96204e-08 4.99422e-08 1.50486e-07 -1.15988e-07 -1.90436e-07 3.83394e-08 -6.75791e-08 4.45095e-08 1.18976e-07 -9.06099e-08 -1.49167e-07 2.98799e-08 -4.71094e-08 3.60111e-08 9.45681e-08 -6.41837e-08 -1.12147e-07 2.0916e-08 -3.56231e-08 2.73188e-08 7.52819e-08 -5.3357e-08 -8.67488e-08 1.66474e-08 -2.60576e-08 2.02175e-08 5.36287e-08 -3.27321e-08 -5.10093e-08 1.49012e-08 -1.6628e-08 1.74623e-08 3.57395e-08 -2.15756e-08 -3.27903e-08 1.14087e-08 -3.91932e-09 1.60265e-08 2.73188e-08 -1.11371e-08 -1.68996e-08 6.20882e-09 9.54606e-09 9.50725e-09 1.52116e-08 1.12535e-09 -3.95812e-09 2.78931e-07 -1.01462e-06 2.35314e-07 2.35314e-07 -2.35722e-07 -9.2979e-07 3.98839e-07 -1.108e-06 2.04348e-07 9.00938e-07 -6.3099e-07 -1.5764e-06 4.5336e-07 -1.11309e-06 2.60499e-07 1.21142e-06 -8.567e-07 -1.87574e-06 5.20066e-07 -1.10977e-06 3.63332e-07 1.38953e-06 -9.89006e-07 -2.01016e-06 5.88247e-07 -9.82021e-07 4.58909e-07 1.48794e-06 -9.26045e-07 -1.91977e-06 5.59686e-07 -8.83883e-07 4.52118e-07 1.45286e-06 -8.5575e-07 -1.8019e-06 5.19523e-07 -8.01888e-07 4.24606e-07 1.37681e-06 -7.86832e-07 -1.67401e-06 4.83356e-07 -7.30836e-07 3.96123e-07 1.28837e-06 -7.18089e-07 -1.54642e-06 4.43969e-07 -6.70281e-07 3.62789e-07 1.19539e-06 -6.59629e-07 -1.41895e-06 4.10364e-07 -6.13412e-07 3.37876e-07 1.10067e-06 -6.05088e-07 -1.30193e-06 3.76293e-07 -5.56446e-07 3.10286e-07 1.01006e-06 -5.53865e-07 -1.18759e-06 3.43154e-07 -5.07707e-07 2.82656e-07 9.18672e-07 -5.01478e-07 -1.07921e-06 3.14593e-07 -4.58851e-07 2.57899e-07 8.37569e-07 -4.54156e-07 -9.75095e-07 2.84829e-07 -4.12654e-07 2.39583e-07 7.62094e-07 -4.11101e-07 -8.79964e-07 2.59218e-07 -3.67271e-07 2.16649e-07 6.86734e-07 -3.69095e-07 -7.87569e-07 2.35702e-07 -3.27049e-07 1.93676e-07 6.1316e-07 -3.28796e-07 -7.01228e-07 2.06094e-07 -2.90126e-07 1.75748e-07 5.48937e-07 -2.9424e-07 -6.23074e-07 1.87894e-07 -2.53902e-07 1.56579e-07 4.85995e-07 -2.59218e-07 -5.43582e-07 1.6531e-07 -2.21247e-07 1.40669e-07 4.25498e-07 -2.26719e-07 -4.7317e-07 1.46101e-07 -1.86362e-07 1.24099e-07 3.70899e-07 -1.97149e-07 -4.13333e-07 1.25069e-07 -1.61235e-07 1.06559e-07 3.22975e-07 -1.7148e-07 -3.50992e-07 1.08189e-07 -1.35022e-07 9.45292e-08 2.74197e-07 -1.44801e-07 -2.98353e-07 9.42188e-08 -1.15348e-07 8.21892e-08 2.35857e-07 -1.17638e-07 -2.44705e-07 8.29653e-08 -8.8398e-08 6.90343e-08 1.96199e-07 -1.01534e-07 -2.01243e-07 6.75985e-08 -7.72416e-08 6.01091e-08 1.59877e-07 -8.44981e-08 -1.57665e-07 5.42495e-08 -5.76256e-08 5.02914e-08 1.23478e-07 -6.3815e-08 -1.25185e-07 4.21812e-08 -4.22006e-08 3.9426e-08 1.00816e-07 -4.83318e-08 -9.05711e-08 3.67484e-08 -3.24023e-08 3.20142e-08 7.4273e-08 -3.87857e-08 -6.60657e-08 2.96083e-08 -2.17309e-08 2.84829e-08 5.58017e-08 -2.53203e-08 -4.36363e-08 1.92085e-08 -1.38728e-08 1.8122e-08 3.64768e-08 -1.64146e-08 -3.01128e-08 1.9519e-08 -9.52665e-09 1.50952e-08 2.87934e-08 -1.41833e-08 -1.6628e-08 1.73459e-08 -2.19249e-09 1.3349e-08 1.57937e-08 -5.47152e-09 -6.01479e-09 8.97252e-07 -3.41407e-07 1.5666e-06 1.5666e-06 -2.90883e-07 -1.00329e-06 8.81613e-07 -6.15953e-07 9.72611e-07 1.68942e-06 -4.14865e-07 -1.39582e-06 8.48551e-07 -6.79846e-07 7.33727e-07 1.72128e-06 -4.8293e-07 -1.54594e-06 8.28722e-07 -6.93544e-07 6.48821e-07 1.71911e-06 -5.35064e-07 -1.6003e-06 8.24065e-07 -6.83436e-07 6.24917e-07 1.69737e-06 -5.5404e-07 -1.57838e-06 8.13394e-07 -6.23113e-07 6.19562e-07 1.6505e-06 -5.16205e-07 -1.48253e-06 7.59532e-07 -5.65061e-07 5.82348e-07 1.55434e-06 -4.71191e-07 -1.37347e-06 7.04002e-07 -5.12693e-07 5.37839e-07 1.44479e-06 -4.26623e-07 -1.26049e-06 6.48084e-07 -4.68145e-07 4.96938e-07 1.33459e-06 -3.88168e-07 -1.15238e-06 5.92554e-07 -4.24489e-07 4.54408e-07 1.22174e-06 -3.53049e-07 -1.05272e-06 5.40672e-07 -3.86266e-07 4.14904e-07 1.11712e-06 -3.2117e-07 -9.53364e-07 4.97055e-07 -3.5204e-07 3.7866e-07 1.01285e-06 -2.92377e-07 -8.64481e-07 4.46492e-07 -3.17348e-07 3.44551e-07 9.18284e-07 -2.61391e-07 -7.78411e-07 4.0757e-07 -2.81997e-07 3.10441e-07 8.28761e-07 -2.37371e-07 -6.9987e-07 3.67834e-07 -2.52679e-07 2.79125e-07 7.42691e-07 -2.10673e-07 -6.27052e-07 3.29067e-07 -2.26156e-07 2.48508e-07 6.6574e-07 -1.84615e-07 -5.5338e-07 2.91155e-07 -1.96936e-07 2.23362e-07 5.92748e-07 -1.6692e-07 -4.91971e-07 2.61896e-07 -1.74235e-07 1.93443e-07 5.19018e-07 -1.43171e-07 -4.29747e-07 2.27864e-07 -1.48953e-07 1.70587e-07 4.57473e-07 -1.24545e-07 -3.72917e-07 1.97169e-07 -1.31122e-07 1.45597e-07 3.9426e-07 -1.09314e-07 -3.21229e-07 1.74933e-07 -1.12186e-07 1.28523e-07 3.40631e-07 -9.38114e-08 -2.67619e-07 1.50137e-07 -9.24338e-08 1.11409e-07 2.85373e-07 -7.89102e-08 -2.26816e-07 1.23323e-07 -7.7358e-08 9.15024e-08 2.39505e-07 -6.54254e-08 -1.87429e-07 1.02329e-07 -6.69194e-08 7.45058e-08 1.96625e-07 -5.30466e-08 -1.47595e-07 8.44011e-08 -4.96899e-08 5.86733e-08 1.53241e-07 -4.22394e-08 -1.20587e-07 7.03925e-08 -3.81066e-08 4.95929e-08 1.27979e-07 -3.41679e-08 -9.31711e-08 5.30466e-08 -3.25381e-08 3.72529e-08 9.63143e-08 -2.97829e-08 -6.81418e-08 4.17931e-08 -2.26234e-08 3.08113e-08 6.91507e-08 -1.78698e-08 -5.00198e-08 2.90262e-08 -1.49982e-08 1.90145e-08 5.11451e-08 -1.38728e-08 -3.20142e-08 2.1498e-08 -1.26699e-08 1.72295e-08 3.53903e-08 -1.15639e-08 -2.22935e-08 1.74623e-08 -1.52698e-08 7.83863e-09 1.85876e-08 -1.07878e-08 -1.26311e-08 1.77727e-08 -1.82772e-08 1.05938e-08 1.24176e-08 -1.42803e-08 -1.00893e-08 1.63649e-06 2.45365e-07 3.00495e-06 3.00495e-06 -4.14109e-07 -1.15701e-06 1.38422e-06 -1.7505e-07 1.75651e-06 2.50603e-06 -2.58423e-07 -1.27715e-06 1.25403e-06 -2.94492e-07 1.2236e-06 2.25019e-06 -1.75147e-07 -1.27409e-06 1.17514e-06 -3.40864e-07 9.82312e-07 2.08876e-06 -1.59062e-07 -1.24964e-06 1.11716e-06 -3.59665e-07 8.59921e-07 1.95729e-06 -1.60479e-07 -1.20432e-06 1.05992e-06 -3.51943e-07 7.88985e-07 1.83882e-06 -1.58985e-07 -1.13718e-06 9.95467e-07 -3.2086e-07 7.34542e-07 1.71779e-06 -1.45112e-07 -1.0491e-06 9.22553e-07 -2.91698e-07 6.80719e-07 1.58891e-06 -1.27048e-07 -9.54683e-07 8.49017e-07 -2.60712e-07 6.25538e-07 1.45659e-06 -1.11041e-07 -8.68128e-07 7.76102e-07 -2.35101e-07 5.71211e-07 1.33105e-06 -9.82739e-08 -7.85415e-07 7.07145e-07 -2.08927e-07 5.2123e-07 1.21056e-06 -8.44011e-08 -7.10386e-07 6.41332e-07 -1.90164e-07 4.68843e-07 1.09667e-06 -7.28372e-08 -6.36656e-07 5.7905e-07 -1.66474e-07 4.222e-07 9.87435e-07 -6.54448e-08 -5.73132e-07 5.25305e-07 -1.49206e-07 3.80795e-07 8.89607e-07 -5.28138e-08 -5.0695e-07 4.72297e-07 -1.33975e-07 3.42106e-07 7.97135e-07 -4.59647e-08 -4.54194e-07 4.21579e-07 -1.17288e-07 2.97364e-07 7.06292e-07 -3.72723e-08 -3.95308e-07 3.73771e-07 -1.01766e-07 2.63991e-07 6.22512e-07 -3.44395e-08 -3.52195e-07 3.26273e-07 -9.2492e-08 2.24332e-07 5.42495e-07 -2.44278e-08 -3.0268e-07 2.8968e-07 -7.64655e-08 1.95345e-07 4.73849e-07 -1.94996e-08 -2.57355e-07 2.42959e-07 -6.80254e-08 1.67483e-07 4.05552e-07 -1.67056e-08 -2.20859e-07 2.11721e-07 -5.65196e-08 1.4063e-07 3.44939e-07 -1.02834e-08 -1.81084e-07 1.81414e-07 -4.77303e-08 1.16881e-07 2.8774e-07 -9.17741e-09 -1.49186e-07 1.48934e-07 -3.39739e-08 9.47233e-08 2.34771e-07 -2.2507e-09 -1.17696e-07 1.25961e-07 -2.70472e-08 7.20611e-08 1.87545e-07 6.98492e-10 -8.82428e-08 1.01708e-07 -2.53009e-08 6.37956e-08 1.52815e-07 3.88051e-10 -6.82e-08 7.4079e-08 -1.83354e-08 4.48199e-08 1.13427e-07 2.44472e-09 -5.1766e-08 5.92942e-08 -1.24564e-08 2.87546e-08 8.30429e-08 3.25963e-09 -3.33918e-08 3.97364e-08 -7.64461e-09 2.1304e-08 5.79748e-08 3.29843e-09 -2.32443e-08 3.11605e-08 -7.08193e-09 1.14475e-08 3.8029e-08 2.87158e-09 -1.28445e-08 2.12652e-08 -3.91932e-09 7.83863e-09 2.35547e-08 3.49246e-10 -4.28796e-09 1.71519e-08 -1.38146e-08 8.92518e-10 5.54913e-09 -4.22976e-09 -6.61627e-09 1.59489e-08 -2.83277e-08 5.85957e-09 8.22668e-09 -2.11682e-08 -1.8122e-08 2.67243e-06 6.95814e-07 4.64575e-06 4.64575e-06 -6.5536e-07 -1.42882e-06 1.94577e-06 2.42687e-07 2.56222e-06 3.34496e-06 -1.20141e-07 -1.15226e-06 1.69559e-06 8.40907e-08 1.75857e-06 2.79967e-06 1.19365e-07 -9.80198e-07 1.55628e-06 9.8953e-09 1.37013e-06 2.47732e-06 2.04542e-07 -8.74473e-07 1.4491e-06 -3.55455e-08 1.15302e-06 2.23836e-06 2.21655e-07 -7.99599e-07 1.34976e-06 -5.46182e-08 1.02267e-06 2.0491e-06 2.15174e-07 -7.3134e-07 1.25146e-06 -6.02255e-08 9.27636e-07 1.8784e-06 1.9907e-07 -6.71678e-07 1.1543e-06 -5.08347e-08 8.49715e-07 1.72396e-06 1.89214e-07 -6.08813e-07 1.05953e-06 -4.5305e-08 7.72105e-07 1.57308e-06 1.76408e-07 -5.44455e-07 9.66208e-07 -2.98023e-08 7.04662e-07 1.42791e-06 1.73459e-07 -4.85316e-07 8.76607e-07 -2.34771e-08 6.37219e-07 1.29788e-06 1.6108e-07 -4.32968e-07 7.97057e-07 -1.6434e-08 5.73384e-07 1.16897e-06 1.54832e-07 -3.85296e-07 7.19796e-07 -1.21848e-08 5.13896e-07 1.05523e-06 1.43579e-07 -3.40767e-07 6.49481e-07 -8.22668e-09 4.5662e-07 9.41839e-07 1.35391e-07 -2.97383e-07 5.78623e-07 -5.82077e-10 4.06057e-07 8.39471e-07 1.28872e-07 -2.56056e-07 5.14206e-07 -5.16108e-09 3.55144e-07 7.40634e-07 1.18433e-07 -2.25904e-07 4.55727e-07 1.47459e-09 3.04969e-07 6.49753e-07 1.10711e-07 -1.86653e-07 4.00352e-07 -3.68649e-10 2.6434e-07 5.62014e-07 1.01087e-07 -1.57355e-07 3.43115e-07 2.44472e-09 2.21112e-07 4.79748e-07 9.63919e-08 -1.2926e-07 2.95229e-07 5.47152e-09 1.83471e-07 4.09239e-07 8.06758e-08 -1.03493e-07 2.51651e-07 5.43272e-09 1.51068e-07 3.35315e-07 7.62908e-08 -8.05206e-08 2.07374e-07 7.45058e-09 1.22314e-07 2.79164e-07 7.17895e-08 -5.64226e-08 1.72683e-07 6.51926e-09 9.27054e-08 2.20956e-07 6.06136e-08 -3.80872e-08 1.35934e-07 6.0924e-09 7.10133e-08 1.69734e-07 5.98763e-08 -2.16144e-08 1.04308e-07 1.29221e-08 4.92437e-08 1.30773e-07 5.07183e-08 -1.14669e-08 7.74938e-08 1.00505e-08 3.13545e-08 9.35591e-08 3.92708e-08 -2.67755e-09 5.32018e-08 6.63567e-09 1.67638e-08 5.86733e-08 3.70977e-08 8.22668e-09 3.1859e-08 6.8685e-09 2.91038e-09 3.17814e-08 2.52621e-08 1.05938e-08 2.08771e-08 3.33724e-09 -2.81337e-09 1.18356e-08 2.30502e-08 1.09818e-08 9.19681e-09 7.76102e-10 -7.83863e-09 4.26856e-09 1.42027e-08 7.14014e-09 6.24762e-09 -4.79243e-09 -1.15639e-08 -4.5208e-09 1.14475e-08 6.55806e-09 5.66555e-09 -2.34965e-08 -7.91624e-09 -3.0268e-09 -1.3446e-08 -1.77533e-08 3.95808e-06 7.2356e-07 6.34483e-06 6.34483e-06 -1.21728e-06 -1.98574e-06 2.67441e-06 5.3194e-07 3.44764e-06 4.22871e-06 -7.24297e-08 -1.0027e-06 2.22124e-06 4.18203e-07 2.38686e-06 3.3261e-06 3.60383e-07 -6.00082e-07 1.9791e-06 3.29921e-07 1.85333e-06 2.82028e-06 5.17621e-07 -4.11664e-07 1.8108e-06 2.6663e-07 1.54002e-06 2.47433e-06 5.6217e-07 -3.10615e-07 1.66237e-06 2.24837e-07 1.32795e-06 2.20483e-06 5.50334e-07 -2.61857e-07 1.52749e-06 1.98022e-07 1.17459e-06 1.99016e-06 5.19833e-07 -2.22761e-07 1.40226e-06 1.78581e-07 1.05558e-06 1.80106e-06 4.81106e-07 -1.95345e-07 1.27766e-06 1.66047e-07 9.52821e-07 1.63156e-06 4.51381e-07 -1.69656e-07 1.16978e-06 1.57937e-07 8.57476e-07 1.48045e-06 4.17698e-07 -1.39757e-07 1.06221e-06 1.51107e-07 7.78935e-07 1.338e-06 3.88905e-07 -1.17929e-07 9.62405e-07 1.40474e-07 6.97755e-07 1.20591e-06 3.62828e-07 -9.77695e-08 8.70864e-07 1.30773e-07 6.18515e-07 1.08014e-06 3.35431e-07 -7.60192e-08 7.81108e-07 1.24487e-07 5.48277e-07 9.60582e-07 3.16378e-07 -5.30272e-08 6.94611e-07 1.17308e-07 4.84598e-07 8.54644e-07 2.8902e-07 -3.99693e-08 6.17777e-07 1.07762e-07 4.15719e-07 7.45213e-07 2.66125e-07 -2.1304e-08 5.39857e-07 9.83709e-08 3.6178e-07 6.49559e-07 2.48508e-07 -5.00586e-09 4.69852e-07 9.24338e-08 2.98644e-07 5.5243e-07 2.27941e-07 5.04466e-09 4.01051e-07 8.6225e-08 2.49866e-07 4.72957e-07 2.07801e-07 1.87041e-08 3.40631e-07 7.55924e-08 1.99691e-07 3.88944e-07 1.87041e-07 3.08889e-08 2.8417e-07 6.89567e-08 1.62283e-07 3.18512e-07 1.69268e-07 3.71365e-08 2.32016e-07 6.57747e-08 1.19636e-07 2.51806e-07 1.5068e-07 4.59064e-08 1.88321e-07 5.34346e-08 8.6613e-08 1.91387e-07 1.33296e-07 5.36675e-08 1.42415e-07 5.61898e-08 5.7742e-08 1.3737e-07 1.20994e-07 5.58794e-08 1.06365e-07 4.84676e-08 2.82501e-08 9.34039e-08 1.03416e-07 5.73928e-08 6.98104e-08 4.31513e-08 8.65354e-09 5.46764e-08 8.92517e-08 6.06524e-08 4.30737e-08 3.74081e-08 -3.7641e-09 2.47965e-08 7.38073e-08 5.30854e-08 1.92473e-08 2.94531e-08 -1.95966e-08 1.08654e-09 5.84017e-08 4.92825e-08 3.99693e-09 1.79668e-08 -2.85218e-08 -1.93443e-08 4.16379e-08 4.15603e-08 -8.63414e-09 1.59489e-08 -2.94531e-08 -2.93561e-08 3.29843e-08 3.17814e-08 -5.23869e-09 1.00893e-09 -2.70472e-08 -2.57666e-08 1.87817e-08 1.60653e-08 -3.72529e-09 -1.47071e-08 -1.45519e-08 -1.18356e-08 -1.12535e-09 -3.20142e-09 -1.51874e-06 -4.83468e-06 -4.14717e-06 -4.14717e-06 -1.37957e-06 -2.32989e-06 9.32002e-08 -2.48864e-06 -7.36472e-07 2.04959e-07 -1.81056e-06 -2.54504e-06 -2.54338e-07 -2.04323e-06 -3.77777e-07 3.61732e-07 -1.95763e-06 -2.70282e-06 -2.94327e-07 -1.88582e-06 -1.99856e-07 5.50247e-07 -1.98388e-06 -2.74958e-06 -2.73916e-07 -1.78487e-06 -1.23623e-07 6.47298e-07 -1.94054e-06 -2.71093e-06 -2.39767e-07 -1.69358e-06 -8.89316e-08 6.86802e-07 -1.85802e-06 -2.60732e-06 -2.03445e-07 -1.5931e-06 -6.53381e-08 6.89169e-07 -1.75567e-06 -2.46788e-06 -1.78125e-07 -1.48147e-06 -4.99907e-08 6.67011e-07 -1.63972e-06 -2.31008e-06 -1.53232e-07 -1.3741e-06 -4.00372e-08 6.34687e-07 -1.51785e-06 -2.14207e-06 -1.35944e-07 -1.26168e-06 -2.95792e-08 5.98482e-07 -1.40392e-06 -1.97292e-06 -1.1887e-07 -1.15087e-06 -2.04212e-08 5.5176e-07 -1.28634e-06 -1.81267e-06 -1.07539e-07 -1.04361e-06 -1.11662e-08 5.17883e-07 -1.17018e-06 -1.64599e-06 -9.46748e-08 -9.38511e-07 -5.20959e-09 4.72908e-07 -1.06046e-06 -1.49195e-06 -8.43914e-08 -8.38705e-07 2.61934e-10 4.33676e-07 -9.59971e-07 -1.34589e-06 -7.55632e-08 -7.51568e-07 7.16924e-09 3.94716e-07 -8.60746e-07 -1.20607e-06 -6.49889e-08 -6.60337e-07 1.12826e-08 3.5789e-07 -7.67866e-07 -1.07117e-06 -6.04681e-08 -5.78089e-07 1.48915e-08 3.19201e-07 -6.81641e-07 -9.50289e-07 -4.77594e-08 -5.04787e-07 1.78795e-08 2.87342e-07 -6.01372e-07 -8.34436e-07 -4.59355e-08 -4.33191e-07 2.08286e-08 2.54474e-07 -5.22132e-07 -7.21358e-07 -4.06192e-08 -3.68852e-07 2.50972e-08 2.24866e-07 -4.52012e-07 -6.21532e-07 -3.51865e-08 -3.03951e-07 2.28077e-08 1.92735e-07 -3.81192e-07 -5.23568e-07 -2.82016e-08 -2.49197e-07 2.19928e-08 1.64602e-07 -3.21064e-07 -4.39866e-07 -2.43793e-08 -2.00904e-07 2.09451e-08 1.39922e-07 -2.65844e-07 -3.63187e-07 -2.44181e-08 -1.52941e-07 1.59392e-08 1.13379e-07 -2.12312e-07 -2.87788e-07 -2.13913e-08 -1.18676e-07 1.47362e-08 9.03286e-08 -1.61943e-07 -2.21218e-07 -1.89272e-08 -8.64675e-08 1.0196e-08 6.94902e-08 -1.26728e-07 -1.68579e-07 -1.31646e-08 -5.46861e-08 1.38049e-08 5.56756e-08 -8.76122e-08 -1.14873e-07 -1.11468e-08 -2.9909e-08 3.44395e-09 3.06851e-08 -5.74801e-08 -7.05186e-08 -1.20199e-08 -8.41101e-09 5.3454e-09 1.83839e-08 -3.05299e-08 -3.76895e-08 -7.6155e-09 -1.32907e-09 -6.91701e-09 2.61934e-10 -1.24855e-08 -1.36885e-08 -1.27184e-08 4.76333e-09 -9.41024e-10 2.61934e-10 -2.39622e-09 -4.00663e-09 -9.8662e-09 2.82307e-09 -7.24685e-09 -5.65584e-09 2.78427e-09 1.34848e-09 -7.32767e-07 -2.55251e-06 -2.47628e-06 -2.47628e-06 1.16871e-07 -8.15809e-07 -4.52613e-07 -2.57091e-06 -1.12926e-06 -1.95684e-07 -1.74368e-06 -2.7095e-06 1.36972e-07 -1.80916e-06 -3.74566e-08 9.35931e-07 -1.68398e-06 -2.62717e-06 6.03322e-08 -1.54199e-06 7.3332e-08 1.02464e-06 -1.63516e-06 -2.56501e-06 2.90165e-08 -1.41521e-06 9.61494e-08 1.03333e-06 -1.56508e-06 -2.47754e-06 2.24197e-08 -1.32874e-06 1.01427e-07 1.02029e-06 -1.47959e-06 -2.36e-06 2.14883e-08 -1.25014e-06 9.21524e-08 9.78306e-07 -1.38848e-06 -2.22325e-06 2.71151e-08 -1.16766e-06 8.98241e-08 9.2945e-07 -1.29612e-06 -2.07581e-06 3.07239e-08 -1.08488e-06 8.5672e-08 8.69574e-07 -1.19845e-06 -1.92166e-06 3.04523e-08 -1.00161e-06 8.20243e-08 8.08883e-07 -1.1083e-06 -1.77789e-06 3.23926e-08 -9.17362e-07 7.99288e-08 7.52577e-07 -1.01599e-06 -1.6241e-06 3.36343e-08 -8.28518e-07 7.96184e-08 6.90178e-07 -9.25065e-07 -1.4819e-06 3.03747e-08 -7.51199e-07 7.72125e-08 6.36161e-07 -8.40742e-07 -1.34806e-06 2.98314e-08 -6.74869e-07 7.41081e-08 5.83192e-07 -7.59581e-07 -1.2118e-06 2.76971e-08 -5.99684e-07 7.18574e-08 5.25411e-07 -6.82456e-07 -1.0888e-06 2.73867e-08 -5.33774e-07 6.86365e-08 4.7609e-07 -6.10026e-07 -9.73455e-07 2.63002e-08 -4.69998e-07 6.52217e-08 4.29485e-07 -5.45299e-07 -8.63152e-07 2.27689e-08 -4.09035e-07 6.18456e-08 3.80436e-07 -4.74596e-07 -7.54517e-07 2.19152e-08 -3.52671e-07 6.00218e-08 3.40505e-07 -4.19377e-07 -6.6055e-07 2.26525e-08 -2.98246e-07 5.55592e-08 2.97082e-07 -3.63885e-07 -5.71551e-07 2.08674e-08 -2.50827e-07 5.29981e-08 2.60877e-07 -3.08724e-07 -4.87208e-07 1.53183e-08 -2.11226e-07 4.98937e-08 2.28514e-07 -2.61265e-07 -4.08453e-07 1.62496e-08 -1.73352e-07 4.25595e-08 1.89864e-07 -2.18618e-07 -3.37925e-07 1.10109e-08 -1.38913e-07 3.53029e-08 1.54667e-07 -1.79173e-07 -2.75584e-07 1.28736e-08 -1.06491e-07 3.63119e-08 1.32743e-07 -1.42599e-07 -2.16911e-07 1.31452e-08 -7.89781e-08 2.91329e-08 1.03484e-07 -1.08063e-07 -1.68657e-07 8.06176e-09 -5.23384e-08 2.12555e-08 8.18691e-08 -7.92885e-08 -1.22789e-07 8.17818e-09 -3.81745e-08 2.16824e-08 6.51829e-08 -5.27458e-08 -8.78451e-08 2.82307e-09 -1.69675e-08 1.17094e-08 4.68281e-08 -3.43134e-08 -5.47055e-08 1.69772e-09 -1.70839e-08 9.18711e-09 2.95598e-08 -1.7763e-08 -3.24896e-08 6.79089e-11 -9.70127e-12 3.52156e-09 1.82287e-08 -1.18065e-08 -1.40572e-08 -9.99232e-10 1.02737e-08 3.40515e-09 5.69465e-09 7.63491e-09 4.10364e-09 -1.86759e-07 -1.77131e-06 -1.09616e-06 -1.09616e-06 -2.10518e-09 -8.486e-07 -3.82521e-08 -1.55621e-06 -5.12703e-07 3.34684e-07 -8.68371e-07 -1.87474e-06 1.09848e-07 -1.5456e-06 -7.74065e-08 9.34301e-07 -1.37022e-06 -2.38699e-06 3.24828e-07 -1.29915e-06 2.55677e-07 1.2813e-06 -1.31129e-06 -2.30593e-06 3.13574e-07 -1.17136e-06 2.90253e-07 1.29278e-06 -1.23838e-06 -2.19803e-06 2.87381e-07 -1.07966e-06 2.79542e-07 1.24587e-06 -1.15908e-06 -2.07952e-06 2.67125e-07 -1.0128e-06 2.59364e-07 1.18541e-06 -1.08417e-06 -1.94902e-06 2.48653e-07 -9.40995e-07 2.40504e-07 1.10993e-06 -1.00448e-06 -1.81555e-06 2.32084e-07 -8.75434e-07 2.22926e-07 1.03783e-06 -9.31138e-07 -1.68233e-06 2.11595e-07 -8.06069e-07 2.07442e-07 9.61814e-07 -8.58301e-07 -1.54666e-06 1.99332e-07 -7.37462e-07 1.95335e-07 8.86338e-07 -7.85561e-07 -1.41818e-06 1.84547e-07 -6.6998e-07 1.83267e-07 8.18002e-07 -7.1641e-07 -1.29148e-06 1.69336e-07 -6.02808e-07 1.69142e-07 7.45941e-07 -6.50034e-07 -1.17299e-06 1.549e-07 -5.45299e-07 1.55948e-07 6.80399e-07 -5.89867e-07 -1.06055e-06 1.43375e-07 -4.8682e-07 1.45277e-07 6.17108e-07 -5.31213e-07 -9.525e-07 1.28552e-07 -4.30863e-07 1.33868e-07 5.56029e-07 -4.72287e-07 -8.49201e-07 1.1625e-07 -3.81367e-07 1.2374e-07 5.01391e-07 -4.20424e-07 -7.52693e-07 1.02164e-07 -3.36954e-07 1.09576e-07 4.42407e-07 -3.76109e-07 -6.65207e-07 9.41315e-08 -2.91708e-07 1.03251e-07 3.92737e-07 -3.29853e-07 -5.81951e-07 8.34213e-08 -2.49546e-07 9.16092e-08 3.44036e-07 -2.82472e-07 -5.01585e-07 7.35648e-08 -2.09208e-07 8.61376e-08 3.05464e-07 -2.413e-07 -4.24363e-07 6.37083e-08 -1.7438e-07 7.6708e-08 2.59946e-07 -2.08936e-07 -3.63885e-07 5.5404e-08 -1.44869e-07 6.40575e-08 2.19123e-07 -1.71179e-07 -3.00633e-07 4.82639e-08 -1.17725e-07 5.86636e-08 1.88195e-07 -1.41978e-07 -2.45976e-07 4.1667e-08 -9.20942e-08 4.93892e-08 1.53464e-07 -1.15494e-07 -1.98362e-07 3.10732e-08 -7.28469e-08 4.0464e-08 1.23391e-07 -8.88152e-08 -1.55424e-07 3.08792e-08 -5.49771e-08 3.61567e-08 1.02785e-07 -6.81515e-08 -1.10818e-07 2.55629e-08 -3.77089e-08 3.12672e-08 7.39528e-08 -5.11936e-08 -8.53227e-08 1.91212e-08 -2.56211e-08 1.94705e-08 5.3619e-08 -3.45462e-08 -6.05069e-08 1.61332e-08 -1.67153e-08 1.72198e-08 4.32192e-08 -2.41465e-08 -3.62149e-08 1.26408e-08 -1.02737e-08 1.16318e-08 2.37002e-08 -1.36885e-08 -1.85779e-08 1.03901e-08 6.97522e-09 7.79013e-09 1.26796e-08 2.55144e-09 4.72452e-09 2.9293e-07 -1.07679e-06 2.16368e-07 2.16368e-07 -1.47159e-07 -9.48019e-07 4.11014e-07 -1.08636e-06 1.47411e-07 9.50832e-07 -6.00829e-07 -1.59022e-06 4.52768e-07 -1.02666e-06 2.54009e-07 1.24897e-06 -8.35367e-07 -1.8651e-06 5.13615e-07 -1.02978e-06 3.68367e-07 1.40493e-06 -9.60436e-07 -1.97913e-06 5.69805e-07 -9.34184e-07 4.56455e-07 1.48269e-06 -9.11309e-07 -1.89372e-06 5.49238e-07 -8.60959e-07 4.48112e-07 1.43687e-06 -8.54052e-07 -1.78159e-06 5.11752e-07 -7.95767e-07 4.21918e-07 1.35475e-06 -7.89131e-07 -1.66172e-06 4.75081e-07 -7.37811e-07 3.97083e-07 1.274e-06 -7.30884e-07 -1.53964e-06 4.40816e-07 -6.80166e-07 3.67979e-07 1.18021e-06 -6.72172e-07 -1.42103e-06 4.03719e-07 -6.21629e-07 3.41242e-07 1.09294e-06 -6.18466e-07 -1.30718e-06 3.69454e-07 -5.69669e-07 3.12992e-07 1.00411e-06 -5.66603e-07 -1.19431e-06 3.36702e-07 -5.17922e-07 2.87691e-07 9.17304e-07 -5.17476e-07 -1.08748e-06 3.05697e-07 -4.70793e-07 2.6142e-07 8.32903e-07 -4.71278e-07 -9.8888e-07 2.83733e-07 -4.25372e-07 2.38836e-07 7.5766e-07 -4.26982e-07 -8.895e-07 2.55561e-07 -3.78418e-07 2.18424e-07 6.81951e-07 -3.80804e-07 -7.97222e-07 2.27272e-07 -3.37226e-07 1.95025e-07 6.1218e-07 -3.42892e-07 -7.12006e-07 2.08607e-07 -2.94715e-07 1.80512e-07 5.50247e-07 -3.02496e-07 -6.297e-07 1.81792e-07 -2.62759e-07 1.63205e-07 4.90836e-07 -2.70443e-07 -5.57523e-07 1.60682e-07 -2.27408e-07 1.40426e-07 4.27817e-07 -2.36643e-07 -4.85617e-07 1.40426e-07 -1.96635e-07 1.27698e-07 3.76943e-07 -2.04959e-07 -4.16544e-07 1.2374e-07 -1.6334e-07 1.12836e-07 3.24595e-07 -1.7603e-07 -3.60257e-07 1.07597e-07 -1.3412e-07 9.70807e-08 2.81405e-07 -1.47197e-07 -3.01409e-07 9.53733e-08 -1.20597e-07 8.47019e-08 2.3903e-07 -1.29308e-07 -2.55755e-07 8.04721e-08 -9.30644e-08 7.37588e-08 2.00225e-07 -1.03503e-07 -2.04086e-07 6.75888e-08 -7.70766e-08 6.61142e-08 1.66736e-07 -8.48183e-08 -1.69433e-07 5.17951e-08 -5.86054e-08 5.09026e-08 1.35537e-07 -6.79768e-08 -1.2927e-07 4.46162e-08 -4.27923e-08 4.08521e-08 1.02125e-07 -4.80892e-08 -9.83612e-08 3.63507e-08 -3.07627e-08 3.38672e-08 8.41974e-08 -3.64477e-08 -7.02858e-08 2.68434e-08 -2.74449e-08 2.85509e-08 6.24277e-08 -2.77748e-08 -5.06698e-08 1.96645e-08 -1.52795e-08 1.93152e-08 4.22103e-08 -1.63467e-08 -3.06657e-08 1.95093e-08 -1.26214e-08 1.64437e-08 3.07627e-08 -1.16318e-08 -1.88302e-08 1.55123e-08 -7.84833e-09 1.22915e-08 1.94705e-08 -5.24839e-09 -2.47383e-09 7.99725e-07 -4.21356e-07 1.54176e-06 1.54176e-06 -3.25662e-07 -1.09507e-06 8.83932e-07 -7.15576e-07 8.42294e-07 1.61626e-06 -4.40875e-07 -1.41104e-06 8.58553e-07 -7.09386e-07 6.57116e-07 1.63353e-06 -5.05912e-07 -1.53462e-06 8.32787e-07 -7.02499e-07 6.14081e-07 1.64925e-06 -5.56281e-07 -1.57325e-06 8.21456e-07 -6.94175e-07 6.13072e-07 1.63617e-06 -5.81756e-07 -1.55351e-06 8.07059e-07 -6.43534e-07 6.18544e-07 1.59593e-06 -5.43825e-07 -1.46141e-06 7.54672e-07 -5.92486e-07 5.86297e-07 1.5085e-06 -5.04302e-07 -1.36023e-06 7.00888e-07 -5.37519e-07 5.51838e-07 1.41149e-06 -4.61189e-07 -1.25279e-06 6.45668e-07 -4.93145e-07 5.10898e-07 1.30551e-06 -4.21821e-07 -1.1538e-06 5.91303e-07 -4.48112e-07 4.68678e-07 1.20307e-06 -3.87052e-07 -1.05223e-06 5.40623e-07 -4.08336e-07 4.29097e-07 1.0962e-06 -3.53136e-07 -9.60514e-07 4.90565e-07 -3.6959e-07 3.87382e-07 9.96311e-07 -3.21626e-07 -8.72504e-07 4.46637e-07 -3.33714e-07 3.54863e-07 9.06982e-07 -2.90311e-07 -7.87521e-07 4.01817e-07 -3.01506e-07 3.21297e-07 8.19515e-07 -2.57385e-07 -7.07776e-07 3.64836e-07 -2.68017e-07 2.87459e-07 7.38568e-07 -2.31463e-07 -6.29661e-07 3.25643e-07 -2.42095e-07 2.55638e-07 6.54361e-07 -2.10392e-07 -5.65517e-07 2.92658e-07 -2.10489e-07 2.28669e-07 5.8424e-07 -1.8284e-07 -4.96502e-07 2.53892e-07 -1.82006e-07 2.04028e-07 5.18e-07 -1.63767e-07 -4.38934e-07 2.27582e-07 -1.61769e-07 1.79192e-07 4.54631e-07 -1.41823e-07 -3.78554e-07 1.98207e-07 -1.35051e-07 1.60488e-07 3.97393e-07 -1.22576e-07 -3.26923e-07 1.7341e-07 -1.16988e-07 1.35769e-07 3.40195e-07 -1.06277e-07 -2.79271e-07 1.45121e-07 -1.01213e-07 1.16561e-07 2.8967e-07 -9.08137e-08 -2.32569e-07 1.26534e-07 -8.42362e-08 9.8012e-08 2.39845e-07 -7.36812e-08 -1.90271e-07 1.03095e-07 -6.69679e-08 8.31885e-08 1.99798e-07 -6.03128e-08 -1.6043e-07 8.07049e-08 -5.22802e-08 6.62306e-08 1.66387e-07 -5.08444e-08 -1.22188e-07 7.05768e-08 -4.0367e-08 6.04099e-08 1.31772e-07 -3.94745e-08 -9.54703e-08 5.50936e-08 -3.30523e-08 4.66728e-08 1.02669e-07 -2.92882e-08 -7.37394e-08 3.91835e-08 -2.0557e-08 3.46045e-08 7.90751e-08 -1.81123e-08 -5.26294e-08 2.95598e-08 -1.46392e-08 2.5136e-08 5.96337e-08 -1.64049e-08 -3.65641e-08 2.62226e-08 -1.13214e-08 1.90048e-08 3.91835e-08 -1.09333e-08 -2.18376e-08 1.74138e-08 -8.19758e-09 1.46974e-08 2.55629e-08 -5.13198e-09 -1.64631e-08 1.90824e-08 -1.10498e-08 7.63491e-09 1.8966e-08 -7.82893e-09 -1.16124e-08 1.4073e-06 1.45665e-07 2.94623e-06 2.94623e-06 -5.74597e-07 -1.33066e-06 1.36585e-06 -3.87595e-07 1.55611e-06 2.3186e-06 -3.33966e-07 -1.30146e-06 1.27357e-06 -4.58686e-07 1.08743e-06 2.0619e-06 -2.52126e-07 -1.26182e-06 1.19558e-06 -4.54146e-07 9.08496e-07 1.92445e-06 -2.34354e-07 -1.22726e-06 1.12852e-06 -4.41457e-07 8.31273e-07 1.82953e-06 -2.34043e-07 -1.18304e-06 1.06678e-06 -4.15418e-07 7.92468e-07 1.74603e-06 -2.28785e-07 -1.1195e-06 9.98329e-07 -3.78049e-07 7.50598e-07 1.64517e-06 -2.11808e-07 -1.03655e-06 9.24832e-07 -3.38507e-07 7.0147e-07 1.52942e-06 -1.91532e-07 -9.52656e-07 8.49318e-07 -3.04436e-07 6.47337e-07 1.41098e-06 -1.71548e-07 -8.65305e-07 7.76752e-07 -2.74245e-07 5.95416e-07 1.29115e-06 -1.53348e-07 -7.8723e-07 7.06476e-07 -2.46092e-07 5.4299e-07 1.17842e-06 -1.36099e-07 -7.11249e-07 6.43185e-07 -2.2376e-07 4.88624e-07 1.06496e-06 -1.21916e-07 -6.42234e-07 5.78186e-07 -1.98246e-07 4.42446e-07 9.63676e-07 -1.07597e-07 -5.74616e-07 5.23665e-07 -1.72634e-07 4.01895e-07 8.69613e-07 -9.31032e-08 -5.14255e-07 4.71356e-07 -1.55424e-07 3.52496e-07 7.74152e-07 -7.88811e-08 -4.59035e-07 4.17533e-07 -1.40445e-07 3.11013e-07 6.91536e-07 -7.11395e-08 -4.05523e-07 3.72403e-07 -1.21664e-07 2.76089e-07 6.10744e-07 -5.82174e-08 -3.51468e-07 3.25526e-07 -1.0391e-07 2.40815e-07 5.34259e-07 -5.45697e-08 -3.09189e-07 2.8936e-07 -8.8563e-08 2.09033e-07 4.63828e-07 -4.05804e-08 -2.60799e-07 2.49119e-07 -7.50394e-08 1.84664e-07 4.0496e-07 -3.76119e-08 -2.24303e-07 2.15475e-07 -6.41934e-08 1.53853e-07 3.40622e-07 -2.67852e-08 -1.85944e-07 1.78688e-07 -5.38324e-08 1.28474e-07 2.87653e-07 -2.54659e-08 -1.56744e-07 1.46829e-07 -4.34132e-08 1.06122e-07 2.37439e-07 -1.50467e-08 -1.21877e-07 1.20325e-07 -3.15777e-08 8.53615e-08 1.92192e-07 -1.17871e-08 -9.42867e-08 1.00185e-07 -2.45733e-08 7.01111e-08 1.52572e-07 -1.0196e-08 -7.79498e-08 7.64364e-08 -1.53571e-08 5.50936e-08 1.22847e-07 -5.20959e-09 -5.52876e-08 5.74607e-08 -1.36885e-08 4.28311e-08 9.28897e-08 -5.2872e-09 -3.80387e-08 4.39177e-08 -8.15877e-09 3.41776e-08 6.69291e-08 -3.63798e-09 -2.16824e-08 3.08016e-08 -6.31553e-09 2.43211e-08 4.23655e-08 -1.89175e-09 -1.43482e-08 1.88884e-08 -4.64691e-09 1.60556e-08 2.85121e-08 2.62905e-09 -8.60503e-09 1.33393e-08 -9.05129e-09 6.0439e-09 1.72586e-08 -6.31553e-09 -6.0633e-09 1.60944e-08 -2.23808e-08 6.74239e-09 6.50956e-09 -1.09333e-08 -2.04988e-08 2.20214e-06 5.771e-07 4.48268e-06 4.48268e-06 -9.33098e-07 -1.71087e-06 1.84381e-06 -8.65645e-08 2.28138e-06 3.06769e-06 -2.63361e-07 -1.24034e-06 1.67951e-06 -2.06123e-07 1.53528e-06 2.5198e-06 -1.4678e-08 -1.02516e-06 1.55177e-06 -2.16038e-07 1.21886e-06 2.23544e-06 7.20126e-08 -9.0836e-07 1.4378e-06 -2.01699e-07 1.06558e-06 2.05072e-06 9.44031e-08 -8.30905e-07 1.33539e-06 -1.78377e-07 9.73882e-07 1.90299e-06 9.37434e-08 -7.64354e-07 1.23803e-06 -1.57694e-07 9.07603e-07 1.76873e-06 8.75734e-08 -6.97435e-07 1.14152e-06 -1.3282e-07 8.4598e-07 1.63345e-06 8.80779e-08 -6.30709e-07 1.0466e-06 -1.14233e-07 7.77722e-07 1.49837e-06 8.5478e-08 -5.69707e-07 9.50987e-07 -9.10271e-08 7.11133e-07 1.36779e-06 8.82719e-08 -5.05058e-07 8.68332e-07 -7.80468e-08 6.45901e-07 1.24036e-06 8.36541e-08 -4.51701e-07 7.81409e-07 -6.99365e-08 5.85055e-07 1.1213e-06 8.3072e-08 -4.02904e-07 7.0958e-07 -5.5501e-08 5.23316e-07 1.00997e-06 7.89199e-08 -3.56997e-07 6.388e-07 -4.43833e-08 4.67825e-07 9.04188e-07 7.63199e-08 -3.10664e-07 5.73142e-07 -4.08133e-08 4.16757e-07 8.04071e-07 7.7096e-08 -2.66446e-07 5.12218e-07 -3.29358e-08 3.65651e-07 7.09464e-07 7.27499e-08 -2.33228e-07 4.47025e-07 -2.49226e-08 3.19473e-07 6.25606e-07 7.0732e-08 -2.00981e-07 3.9328e-07 -2.07316e-08 2.7376e-07 5.4559e-07 6.34367e-08 -1.68967e-07 3.42019e-07 -1.58228e-08 2.33675e-07 4.66117e-07 6.40187e-08 -1.35187e-07 2.91882e-07 -6.02449e-09 1.97858e-07 3.97122e-07 5.80427e-08 -1.11865e-07 2.45743e-07 -4.5693e-09 1.65106e-07 3.34995e-07 5.6801e-08 -8.41004e-08 2.08335e-07 -5.52973e-10 1.32937e-07 2.73838e-07 4.94668e-08 -6.34172e-08 1.67551e-07 2.62905e-09 1.07442e-07 2.20209e-07 4.31804e-08 -4.68863e-08 1.34256e-07 6.47075e-09 8.19467e-08 1.71975e-07 4.13177e-08 -2.9424e-08 9.91762e-08 7.79013e-09 6.22337e-08 1.32937e-07 3.77477e-08 -1.86556e-08 7.82602e-08 7.98415e-09 4.3646e-08 1.00069e-07 2.92882e-08 -5.24839e-09 5.5404e-08 1.22527e-08 3.13448e-08 6.58426e-08 2.68434e-08 3.32754e-09 3.37119e-08 1.16706e-08 2.10615e-08 4.45774e-08 2.13719e-08 8.79906e-09 2.04406e-08 9.1483e-09 1.22139e-08 2.47868e-08 1.559e-08 1.19423e-08 1.32616e-08 6.47075e-09 7.36327e-09 1.10109e-08 9.30353e-09 9.80799e-09 6.97522e-09 4.5596e-10 1.46489e-09 9.60426e-10 7.71252e-09 6.66478e-09 8.10057e-09 -2.31375e-08 1.96936e-09 2.97829e-09 -1.37855e-08 -1.23885e-08 3.29377e-06 7.72872e-07 6.13259e-06 6.13259e-06 -1.46614e-06 -2.26749e-06 2.56377e-06 2.45006e-07 3.09384e-06 3.90813e-06 -1.77718e-07 -1.11123e-06 2.23082e-06 1.14e-07 2.10365e-06 3.04491e-06 2.63438e-07 -6.66002e-07 2.01665e-06 8.15974e-08 1.67005e-06 2.6042e-06 4.15166e-07 -4.67223e-07 1.84564e-06 8.48959e-08 1.43357e-06 2.3191e-06 4.55717e-07 -3.57987e-07 1.6844e-06 9.24629e-08 1.28432e-06 2.10012e-06 4.51682e-07 -2.92911e-07 1.54377e-06 9.81672e-08 1.17031e-06 1.91642e-06 4.25915e-07 -2.4648e-07 1.41203e-06 1.05812e-07 1.07132e-06 1.7449e-06 3.98713e-07 -2.09111e-07 1.28642e-06 1.07325e-07 9.80518e-07 1.58918e-06 3.73878e-07 -1.78048e-07 1.17276e-06 1.11555e-07 8.92003e-07 1.44459e-06 3.49353e-07 -1.49002e-07 1.06507e-06 1.08683e-07 8.09853e-07 1.30865e-06 3.29213e-07 -1.21159e-07 9.60223e-07 1.05928e-07 7.29294e-07 1.18001e-06 3.00691e-07 -1.04725e-07 8.68293e-07 9.75463e-08 6.50713e-07 1.05638e-06 2.82414e-07 -8.07631e-08 7.76481e-07 9.73135e-08 5.77798e-07 9.41092e-07 2.67086e-07 -5.93815e-08 6.90333e-07 9.30449e-08 5.09928e-07 8.36512e-07 2.48382e-07 -4.68669e-08 6.13383e-07 8.33437e-08 4.39031e-07 7.34261e-07 2.29057e-07 -2.39525e-08 5.39614e-07 7.91915e-08 3.80397e-07 6.33367e-07 2.06007e-07 -1.15348e-08 4.61538e-07 7.28663e-08 3.24828e-07 5.42369e-07 1.91765e-07 1.5425e-09 4.05698e-07 7.22454e-08 2.76011e-07 4.66195e-07 1.80162e-07 1.89272e-08 3.37207e-07 6.32426e-08 2.28475e-07 3.89632e-07 1.56879e-07 2.38942e-08 2.85712e-07 6.25053e-08 1.81443e-07 3.14428e-07 1.42832e-07 3.61179e-08 2.31346e-07 5.66846e-08 1.4159e-07 2.48265e-07 1.31811e-07 4.52759e-08 1.82103e-07 5.4201e-08 1.06433e-07 1.92929e-07 1.14116e-07 4.41505e-08 1.34101e-07 4.94668e-08 7.38752e-08 1.4388e-07 1.0166e-07 5.28429e-08 1.00302e-07 4.5043e-08 4.77982e-08 9.65762e-08 8.19079e-08 5.5404e-08 6.83649e-08 4.01924e-08 3.27806e-08 5.93233e-08 7.47677e-08 5.68786e-08 4.10461e-08 3.60791e-08 1.20975e-08 2.99866e-08 6.01382e-08 5.35802e-08 1.69093e-08 3.15e-08 -2.92008e-09 3.59917e-09 4.41117e-08 4.52759e-08 1.5037e-09 2.77748e-08 -1.18647e-08 -1.299e-08 3.60402e-08 3.88342e-08 -8.58563e-09 2.16047e-08 -1.559e-08 -1.84033e-08 2.75031e-08 3.67387e-08 -1.21945e-08 7.01402e-09 -1.51437e-08 -2.43793e-08 1.24855e-08 1.4581e-08 -1.23206e-09 -1.4193e-08 -1.23109e-08 -1.4387e-08 -8.06176e-09 -4.06484e-09 
