# vtk DataFile Version 5.1
vtk output
ASCII

DATASET UNSTRUCTURED_GRID
POINTS 2673 float
0 0 2.3
0.125 0 2.3
0.25 0 2.3
0.375 0 2.3
0.5 0 2.3
0.625 0 2.3
0.75 0 2.3
0.875 0 2.3
1 0 2.3
1.125 0 2.3
1.25 0 2.3
1.375 0 2.3
1.5 0 2.3
1.625 0 2.3
1.75 0 2.3
1.875 0 2.3
2 0 2.3
2.125 0 2.3
2.25 0 2.3
2.375 0 2.3
2.5 0 2.3
2.625 0 2.3
2.75 0 2.3
2.875 0 2.3
3 0 2.3
3.125 0 2.3
3.25 0 2.3
3.375 0 2.3
3.5 0 2.3
3.625 0 2.3
3.75 0 2.3
3.875 0 2.3
4 0 2.3
0 0.125 2.3
0.125 0.125 2.3
0.25 0.125 2.3
0.375 0.125 2.3
0.5 0.125 2.3
0.625 0.125 2.3
0.75 0.125 2.3
0.875 0.125 2.3
1 0.125 2.3
1.125 0.125 2.3
1.25 0.125 2.3
1.375 0.125 2.3
1.5 0.125 2.3
1.625 0.125 2.3
1.75 0.125 2.3
1.875 0.125 2.3
2 0.125 2.3
2.125 0.125 2.3
2.25 0.125 2.3
2.375 0.125 2.3
2.5 0.125 2.3
2.625 0.125 2.3
2.75 0.125 2.3
2.875 0.125 2.3
3 0.125 2.3
3.125 0.125 2.3
3.25 0.125 2.3
3.375 0.125 2.3
3.5 0.125 2.3
3.625 0.125 2.3
3.75 0.125 2.3
3.875 0.125 2.3
4 0.125 2.3
0 0.25 2.3
0.125 0.25 2.3
0.25 0.25 2.3
0.375 0.25 2.3
0.5 0.25 2.3
0.625 0.25 2.3
0.75 0.25 2.3
0.875 0.25 2.3
1 0.25 2.3
1.125 0.25 2.3
1.25 0.25 2.3
1.375 0.25 2.3
1.5 0.25 2.3
1.625 0.25 2.3
1.75 0.25 2.3
1.875 0.25 2.3
2 0.25 2.3
2.125 0.25 2.3
2.25 0.25 2.3
2.375 0.25 2.3
2.5 0.25 2.3
2.625 0.25 2.3
2.75 0.25 2.3
2.875 0.25 2.3
3 0.25 2.3
3.125 0.25 2.3
3.25 0.25 2.3
3.375 0.25 2.3
3.5 0.25 2.3
3.625 0.25 2.3
3.75 0.25 2.3
3.875 0.25 2.3
4 0.25 2.3
0 0.375 2.3
0.125 0.375 2.3
0.25 0.375 2.3
0.375 0.375 2.3
0.5 0.375 2.3
0.625 0.375 2.3
0.75 0.375 2.3
0.875 0.375 2.3
1 0.375 2.3
1.125 0.375 2.3
1.25 0.375 2.3
1.375 0.375 2.3
1.5 0.375 2.3
1.625 0.375 2.3
1.75 0.375 2.3
1.875 0.375 2.3
2 0.375 2.3
2.125 0.375 2.3
2.25 0.375 2.3
2.375 0.375 2.3
2.5 0.375 2.3
2.625 0.375 2.3
2.75 0.375 2.3
2.875 0.375 2.3
3 0.375 2.3
3.125 0.375 2.3
3.25 0.375 2.3
3.375 0.375 2.3
3.5 0.375 2.3
3.625 0.375 2.3
3.75 0.375 2.3
3.875 0.375 2.3
4 0.375 2.3
0 0.5 2.3
0.125 0.5 2.3
0.25 0.5 2.3
0.375 0.5 2.3
0.5 0.5 2.3
0.625 0.5 2.3
0.75 0.5 2.3
0.875 0.5 2.3
1 0.5 2.3
1.125 0.5 2.3
1.25 0.5 2.3
1.375 0.5 2.3
1.5 0.5 2.3
1.625 0.5 2.3
1.75 0.5 2.3
1.875 0.5 2.3
2 0.5 2.3
2.125 0.5 2.3
2.25 0.5 2.3
2.375 0.5 2.3
2.5 0.5 2.3
2.625 0.5 2.3
2.75 0.5 2.3
2.875 0.5 2.3
3 0.5 2.3
3.125 0.5 2.3
3.25 0.5 2.3
3.375 0.5 2.3
3.5 0.5 2.3
3.625 0.5 2.3
3.75 0.5 2.3
3.875 0.5 2.3
4 0.5 2.3
0 0.625 2.3
0.125 0.625 2.3
0.25 0.625 2.3
0.375 0.625 2.3
0.5 0.625 2.3
0.625 0.625 2.3
0.75 0.625 2.3
0.875 0.625 2.3
1 0.625 2.3
1.125 0.625 2.3
1.25 0.625 2.3
1.375 0.625 2.3
1.5 0.625 2.3
1.625 0.625 2.3
1.75 0.625 2.3
1.875 0.625 2.3
2 0.625 2.3
2.125 0.625 2.3
2.25 0.625 2.3
2.375 0.625 2.3
2.5 0.625 2.3
2.625 0.625 2.3
2.75 0.625 2.3
2.875 0.625 2.3
3 0.625 2.3
3.125 0.625 2.3
3.25 0.625 2.3
3.375 0.625 2.3
3.5 0.625 2.3
3.625 0.625 2.3
3.75 0.625 2.3
3.875 0.625 2.3
4 0.625 2.3
0 0.75 2.3
0.125 0.75 2.3
0.25 0.75 2.3
0.375 0.75 2.3
0.5 0.75 2.3
0.625 0.75 2.3
0.75 0.75 2.3
0.875 0.75 2.3
1 0.75 2.3
1.125 0.75 2.3
1.25 0.75 2.3
1.375 0.75 2.3
1.5 0.75 2.3
1.625 0.75 2.3
1.75 0.75 2.3
1.875 0.75 2.3
2 0.75 2.3
2.125 0.75 2.3
2.25 0.75 2.3
2.375 0.75 2.3
2.5 0.75 2.3
2.625 0.75 2.3
2.75 0.75 2.3
2.875 0.75 2.3
3 0.75 2.3
3.125 0.75 2.3
3.25 0.75 2.3
3.375 0.75 2.3
3.5 0.75 2.3
3.625 0.75 2.3
3.75 0.75 2.3
3.875 0.75 2.3
4 0.75 2.3
0 0.875 2.3
0.125 0.875 2.3
0.25 0.875 2.3
0.375 0.875 2.3
0.5 0.875 2.3
0.625 0.875 2.3
0.75 0.875 2.3
0.875 0.875 2.3
1 0.875 2.3
1.125 0.875 2.3
1.25 0.875 2.3
1.375 0.875 2.3
1.5 0.875 2.3
1.625 0.875 2.3
1.75 0.875 2.3
1.875 0.875 2.3
2 0.875 2.3
2.125 0.875 2.3
2.25 0.875 2.3
2.375 0.875 2.3
2.5 0.875 2.3
2.625 0.875 2.3
2.75 0.875 2.3
2.875 0.875 2.3
3 0.875 2.3
3.125 0.875 2.3
3.25 0.875 2.3
3.375 0.875 2.3
3.5 0.875 2.3
3.625 0.875 2.3
3.75 0.875 2.3
3.875 0.875 2.3
4 0.875 2.3
0 1 2.3
0.125 1 2.3
0.25 1 2.3
0.375 1 2.3
0.5 1 2.3
0.625 1 2.3
0.75 1 2.3
0.875 1 2.3
1 1 2.3
1.125 1 2.3
1.25 1 2.3
1.375 1 2.3
1.5 1 2.3
1.625 1 2.3
1.75 1 2.3
1.875 1 2.3
2 1 2.3
2.125 1 2.3
2.25 1 2.3
2.375 1 2.3
2.5 1 2.3
2.625 1 2.3
2.75 1 2.3
2.875 1 2.3
3 1 2.3
3.125 1 2.3
3.25 1 2.3
3.375 1 2.3
3.5 1 2.3
3.625 1 2.3
3.75 1 2.3
3.875 1 2.3
4 1 2.3
0 0 2.425
0.125 0 2.425
0.25 0 2.425
0.375 0 2.425
0.5 0 2.425
0.625 0 2.425
0.75 0 2.425
0.875 0 2.425
1 0 2.425
1.125 0 2.425
1.25 0 2.425
1.375 0 2.425
1.5 0 2.425
1.625 0 2.425
1.75 0 2.425
1.875 0 2.425
2 0 2.425
2.125 0 2.425
2.25 0 2.425
2.375 0 2.425
2.5 0 2.425
2.625 0 2.425
2.75 0 2.425
2.875 0 2.425
3 0 2.425
3.125 0 2.425
3.25 0 2.425
3.375 0 2.425
3.5 0 2.425
3.625 0 2.425
3.75 0 2.425
3.875 0 2.425
4 0 2.425
0 0.125 2.425
0.125 0.125 2.425
0.25 0.125 2.425
0.375 0.125 2.425
0.5 0.125 2.425
0.625 0.125 2.425
0.75 0.125 2.425
0.875 0.125 2.425
1 0.125 2.425
1.125 0.125 2.425
1.25 0.125 2.425
1.375 0.125 2.425
1.5 0.125 2.425
1.625 0.125 2.425
1.75 0.125 2.425
1.875 0.125 2.425
2 0.125 2.425
2.125 0.125 2.425
2.25 0.125 2.425
2.375 0.125 2.425
2.5 0.125 2.425
2.625 0.125 2.425
2.75 0.125 2.425
2.875 0.125 2.425
3 0.125 2.425
3.125 0.125 2.425
3.25 0.125 2.425
3.375 0.125 2.425
3.5 0.125 2.425
3.625 0.125 2.425
3.75 0.125 2.425
3.875 0.125 2.425
4 0.125 2.425
0 0.25 2.425
0.125 0.25 2.425
0.25 0.25 2.425
0.375 0.25 2.425
0.5 0.25 2.425
0.625 0.25 2.425
0.75 0.25 2.425
0.875 0.25 2.425
1 0.25 2.425
1.125 0.25 2.425
1.25 0.25 2.425
1.375 0.25 2.425
1.5 0.25 2.425
1.625 0.25 2.425
1.75 0.25 2.425
1.875 0.25 2.425
2 0.25 2.425
2.125 0.25 2.425
2.25 0.25 2.425
2.375 0.25 2.425
2.5 0.25 2.425
2.625 0.25 2.425
2.75 0.25 2.425
2.875 0.25 2.425
3 0.25 2.425
3.125 0.25 2.425
3.25 0.25 2.425
3.375 0.25 2.425
3.5 0.25 2.425
3.625 0.25 2.425
3.75 0.25 2.425
3.875 0.25 2.425
4 0.25 2.425
0 0.375 2.425
0.125 0.375 2.425
0.25 0.375 2.425
0.375 0.375 2.425
0.5 0.375 2.425
0.625 0.375 2.425
0.75 0.375 2.425
0.875 0.375 2.425
1 0.375 2.425
1.125 0.375 2.425
1.25 0.375 2.425
1.375 0.375 2.425
1.5 0.375 2.425
1.625 0.375 2.425
1.75 0.375 2.425
1.875 0.375 2.425
2 0.375 2.425
2.125 0.375 2.425
2.25 0.375 2.425
2.375 0.375 2.425
2.5 0.375 2.425
2.625 0.375 2.425
2.75 0.375 2.425
2.875 0.375 2.425
3 0.375 2.425
3.125 0.375 2.425
3.25 0.375 2.425
3.375 0.375 2.425
3.5 0.375 2.425
3.625 0.375 2.425
3.75 0.375 2.425
3.875 0.375 2.425
4 0.375 2.425
0 0.5 2.425
0.125 0.5 2.425
0.25 0.5 2.425
0.375 0.5 2.425
0.5 0.5 2.425
0.625 0.5 2.425
0.75 0.5 2.425
0.875 0.5 2.425
1 0.5 2.425
1.125 0.5 2.425
1.25 0.5 2.425
1.375 0.5 2.425
1.5 0.5 2.425
1.625 0.5 2.425
1.75 0.5 2.425
1.875 0.5 2.425
2 0.5 2.425
2.125 0.5 2.425
2.25 0.5 2.425
2.375 0.5 2.425
2.5 0.5 2.425
2.625 0.5 2.425
2.75 0.5 2.425
2.875 0.5 2.425
3 0.5 2.425
3.125 0.5 2.425
3.25 0.5 2.425
3.375 0.5 2.425
3.5 0.5 2.425
3.625 0.5 2.425
3.75 0.5 2.425
3.875 0.5 2.425
4 0.5 2.425
0 0.625 2.425
0.125 0.625 2.425
0.25 0.625 2.425
0.375 0.625 2.425
0.5 0.625 2.425
0.625 0.625 2.425
0.75 0.625 2.425
0.875 0.625 2.425
1 0.625 2.425
1.125 0.625 2.425
1.25 0.625 2.425
1.375 0.625 2.425
1.5 0.625 2.425
1.625 0.625 2.425
1.75 0.625 2.425
1.875 0.625 2.425
2 0.625 2.425
2.125 0.625 2.425
2.25 0.625 2.425
2.375 0.625 2.425
2.5 0.625 2.425
2.625 0.625 2.425
2.75 0.625 2.425
2.875 0.625 2.425
3 0.625 2.425
3.125 0.625 2.425
3.25 0.625 2.425
3.375 0.625 2.425
3.5 0.625 2.425
3.625 0.625 2.425
3.75 0.625 2.425
3.875 0.625 2.425
4 0.625 2.425
0 0.75 2.425
0.125 0.75 2.425
0.25 0.75 2.425
0.375 0.75 2.425
0.5 0.75 2.425
0.625 0.75 2.425
0.75 0.75 2.425
0.875 0.75 2.425
1 0.75 2.425
1.125 0.75 2.425
1.25 0.75 2.425
1.375 0.75 2.425
1.5 0.75 2.425
1.625 0.75 2.425
1.75 0.75 2.425
1.875 0.75 2.425
2 0.75 2.425
2.125 0.75 2.425
2.25 0.75 2.425
2.375 0.75 2.425
2.5 0.75 2.425
2.625 0.75 2.425
2.75 0.75 2.425
2.875 0.75 2.425
3 0.75 2.425
3.125 0.75 2.425
3.25 0.75 2.425
3.375 0.75 2.425
3.5 0.75 2.425
3.625 0.75 2.425
3.75 0.75 2.425
3.875 0.75 2.425
4 0.75 2.425
0 0.875 2.425
0.125 0.875 2.425
0.25 0.875 2.425
0.375 0.875 2.425
0.5 0.875 2.425
0.625 0.875 2.425
0.75 0.875 2.425
0.875 0.875 2.425
1 0.875 2.425
1.125 0.875 2.425
1.25 0.875 2.425
1.375 0.875 2.425
1.5 0.875 2.425
1.625 0.875 2.425
1.75 0.875 2.425
1.875 0.875 2.425
2 0.875 2.425
2.125 0.875 2.425
2.25 0.875 2.425
2.375 0.875 2.425
2.5 0.875 2.425
2.625 0.875 2.425
2.75 0.875 2.425
2.875 0.875 2.425
3 0.875 2.425
3.125 0.875 2.425
3.25 0.875 2.425
3.375 0.875 2.425
3.5 0.875 2.425
3.625 0.875 2.425
3.75 0.875 2.425
3.875 0.875 2.425
4 0.875 2.425
0 1 2.425
0.125 1 2.425
0.25 1 2.425
0.375 1 2.425
0.5 1 2.425
0.625 1 2.425
0.75 1 2.425
0.875 1 2.425
1 1 2.425
1.125 1 2.425
1.25 1 2.425
1.375 1 2.425
1.5 1 2.425
1.625 1 2.425
1.75 1 2.425
1.875 1 2.425
2 1 2.425
2.125 1 2.425
2.25 1 2.425
2.375 1 2.425
2.5 1 2.425
2.625 1 2.425
2.75 1 2.425
2.875 1 2.425
3 1 2.425
3.125 1 2.425
3.25 1 2.425
3.375 1 2.425
3.5 1 2.425
3.625 1 2.425
3.75 1 2.425
3.875 1 2.425
4 1 2.425
0 0 2.55
0.125 0 2.55
0.25 0 2.55
0.375 0 2.55
0.5 0 2.55
0.625 0 2.55
0.75 0 2.55
0.875 0 2.55
1 0 2.55
1.125 0 2.55
1.25 0 2.55
1.375 0 2.55
1.5 0 2.55
1.625 0 2.55
1.75 0 2.55
1.875 0 2.55
2 0 2.55
2.125 0 2.55
2.25 0 2.55
2.375 0 2.55
2.5 0 2.55
2.625 0 2.55
2.75 0 2.55
2.875 0 2.55
3 0 2.55
3.125 0 2.55
3.25 0 2.55
3.375 0 2.55
3.5 0 2.55
3.625 0 2.55
3.75 0 2.55
3.875 0 2.55
4 0 2.55
0 0.125 2.55
0.125 0.125 2.55
0.25 0.125 2.55
0.375 0.125 2.55
0.5 0.125 2.55
0.625 0.125 2.55
0.75 0.125 2.55
0.875 0.125 2.55
1 0.125 2.55
1.125 0.125 2.55
1.25 0.125 2.55
1.375 0.125 2.55
1.5 0.125 2.55
1.625 0.125 2.55
1.75 0.125 2.55
1.875 0.125 2.55
2 0.125 2.55
2.125 0.125 2.55
2.25 0.125 2.55
2.375 0.125 2.55
2.5 0.125 2.55
2.625 0.125 2.55
2.75 0.125 2.55
2.875 0.125 2.55
3 0.125 2.55
3.125 0.125 2.55
3.25 0.125 2.55
3.375 0.125 2.55
3.5 0.125 2.55
3.625 0.125 2.55
3.75 0.125 2.55
3.875 0.125 2.55
4 0.125 2.55
0 0.25 2.55
0.125 0.25 2.55
0.25 0.25 2.55
0.375 0.25 2.55
0.5 0.25 2.55
0.625 0.25 2.55
0.75 0.25 2.55
0.875 0.25 2.55
1 0.25 2.55
1.125 0.25 2.55
1.25 0.25 2.55
1.375 0.25 2.55
1.5 0.25 2.55
1.625 0.25 2.55
1.75 0.25 2.55
1.875 0.25 2.55
2 0.25 2.55
2.125 0.25 2.55
2.25 0.25 2.55
2.375 0.25 2.55
2.5 0.25 2.55
2.625 0.25 2.55
2.75 0.25 2.55
2.875 0.25 2.55
3 0.25 2.55
3.125 0.25 2.55
3.25 0.25 2.55
3.375 0.25 2.55
3.5 0.25 2.55
3.625 0.25 2.55
3.75 0.25 2.55
3.875 0.25 2.55
4 0.25 2.55
0 0.375 2.55
0.125 0.375 2.55
0.25 0.375 2.55
0.375 0.375 2.55
0.5 0.375 2.55
0.625 0.375 2.55
0.75 0.375 2.55
0.875 0.375 2.55
1 0.375 2.55
1.125 0.375 2.55
1.25 0.375 2.55
1.375 0.375 2.55
1.5 0.375 2.55
1.625 0.375 2.55
1.75 0.375 2.55
1.875 0.375 2.55
2 0.375 2.55
2.125 0.375 2.55
2.25 0.375 2.55
2.375 0.375 2.55
2.5 0.375 2.55
2.625 0.375 2.55
2.75 0.375 2.55
2.875 0.375 2.55
3 0.375 2.55
3.125 0.375 2.55
3.25 0.375 2.55
3.375 0.375 2.55
3.5 0.375 2.55
3.625 0.375 2.55
3.75 0.375 2.55
3.875 0.375 2.55
4 0.375 2.55
0 0.5 2.55
0.125 0.5 2.55
0.25 0.5 2.55
0.375 0.5 2.55
0.5 0.5 2.55
0.625 0.5 2.55
0.75 0.5 2.55
0.875 0.5 2.55
1 0.5 2.55
1.125 0.5 2.55
1.25 0.5 2.55
1.375 0.5 2.55
1.5 0.5 2.55
1.625 0.5 2.55
1.75 0.5 2.55
1.875 0.5 2.55
2 0.5 2.55
2.125 0.5 2.55
2.25 0.5 2.55
2.375 0.5 2.55
2.5 0.5 2.55
2.625 0.5 2.55
2.75 0.5 2.55
2.875 0.5 2.55
3 0.5 2.55
3.125 0.5 2.55
3.25 0.5 2.55
3.375 0.5 2.55
3.5 0.5 2.55
3.625 0.5 2.55
3.75 0.5 2.55
3.875 0.5 2.55
4 0.5 2.55
0 0.625 2.55
0.125 0.625 2.55
0.25 0.625 2.55
0.375 0.625 2.55
0.5 0.625 2.55
0.625 0.625 2.55
0.75 0.625 2.55
0.875 0.625 2.55
1 0.625 2.55
1.125 0.625 2.55
1.25 0.625 2.55
1.375 0.625 2.55
1.5 0.625 2.55
1.625 0.625 2.55
1.75 0.625 2.55
1.875 0.625 2.55
2 0.625 2.55
2.125 0.625 2.55
2.25 0.625 2.55
2.375 0.625 2.55
2.5 0.625 2.55
2.625 0.625 2.55
2.75 0.625 2.55
2.875 0.625 2.55
3 0.625 2.55
3.125 0.625 2.55
3.25 0.625 2.55
3.375 0.625 2.55
3.5 0.625 2.55
3.625 0.625 2.55
3.75 0.625 2.55
3.875 0.625 2.55
4 0.625 2.55
0 0.75 2.55
0.125 0.75 2.55
0.25 0.75 2.55
0.375 0.75 2.55
0.5 0.75 2.55
0.625 0.75 2.55
0.75 0.75 2.55
0.875 0.75 2.55
1 0.75 2.55
1.125 0.75 2.55
1.25 0.75 2.55
1.375 0.75 2.55
1.5 0.75 2.55
1.625 0.75 2.55
1.75 0.75 2.55
1.875 0.75 2.55
2 0.75 2.55
2.125 0.75 2.55
2.25 0.75 2.55
2.375 0.75 2.55
2.5 0.75 2.55
2.625 0.75 2.55
2.75 0.75 2.55
2.875 0.75 2.55
3 0.75 2.55
3.125 0.75 2.55
3.25 0.75 2.55
3.375 0.75 2.55
3.5 0.75 2.55
3.625 0.75 2.55
3.75 0.75 2.55
3.875 0.75 2.55
4 0.75 2.55
0 0.875 2.55
0.125 0.875 2.55
0.25 0.875 2.55
0.375 0.875 2.55
0.5 0.875 2.55
0.625 0.875 2.55
0.75 0.875 2.55
0.875 0.875 2.55
1 0.875 2.55
1.125 0.875 2.55
1.25 0.875 2.55
1.375 0.875 2.55
1.5 0.875 2.55
1.625 0.875 2.55
1.75 0.875 2.55
1.875 0.875 2.55
2 0.875 2.55
2.125 0.875 2.55
2.25 0.875 2.55
2.375 0.875 2.55
2.5 0.875 2.55
2.625 0.875 2.55
2.75 0.875 2.55
2.875 0.875 2.55
3 0.875 2.55
3.125 0.875 2.55
3.25 0.875 2.55
3.375 0.875 2.55
3.5 0.875 2.55
3.625 0.875 2.55
3.75 0.875 2.55
3.875 0.875 2.55
4 0.875 2.55
0 1 2.55
0.125 1 2.55
0.25 1 2.55
0.375 1 2.55
0.5 1 2.55
0.625 1 2.55
0.75 1 2.55
0.875 1 2.55
1 1 2.55
1.125 1 2.55
1.25 1 2.55
1.375 1 2.55
1.5 1 2.55
1.625 1 2.55
1.75 1 2.55
1.875 1 2.55
2 1 2.55
2.125 1 2.55
2.25 1 2.55
2.375 1 2.55
2.5 1 2.55
2.625 1 2.55
2.75 1 2.55
2.875 1 2.55
3 1 2.55
3.125 1 2.55
3.25 1 2.55
3.375 1 2.55
3.5 1 2.55
3.625 1 2.55
3.75 1 2.55
3.875 1 2.55
4 1 2.55
0 0 2.675
0.125 0 2.675
0.25 0 2.675
0.375 0 2.675
0.5 0 2.675
0.625 0 2.675
0.75 0 2.675
0.875 0 2.675
1 0 2.675
1.125 0 2.675
1.25 0 2.675
1.375 0 2.675
1.5 0 2.675
1.625 0 2.675
1.75 0 2.675
1.875 0 2.675
2 0 2.675
2.125 0 2.675
2.25 0 2.675
2.375 0 2.675
2.5 0 2.675
2.625 0 2.675
2.75 0 2.675
2.875 0 2.675
3 0 2.675
3.125 0 2.675
3.25 0 2.675
3.375 0 2.675
3.5 0 2.675
3.625 0 2.675
3.75 0 2.675
3.875 0 2.675
4 0 2.675
0 0.125 2.675
0.125 0.125 2.675
0.25 0.125 2.675
0.375 0.125 2.675
0.5 0.125 2.675
0.625 0.125 2.675
0.75 0.125 2.675
0.875 0.125 2.675
1 0.125 2.675
1.125 0.125 2.675
1.25 0.125 2.675
1.375 0.125 2.675
1.5 0.125 2.675
1.625 0.125 2.675
1.75 0.125 2.675
1.875 0.125 2.675
2 0.125 2.675
2.125 0.125 2.675
2.25 0.125 2.675
2.375 0.125 2.675
2.5 0.125 2.675
2.625 0.125 2.675
2.75 0.125 2.675
2.875 0.125 2.675
3 0.125 2.675
3.125 0.125 2.675
3.25 0.125 2.675
3.375 0.125 2.675
3.5 0.125 2.675
3.625 0.125 2.675
3.75 0.125 2.675
3.875 0.125 2.675
4 0.125 2.675
0 0.25 2.675
0.125 0.25 2.675
0.25 0.25 2.675
0.375 0.25 2.675
0.5 0.25 2.675
0.625 0.25 2.675
0.75 0.25 2.675
0.875 0.25 2.675
1 0.25 2.675
1.125 0.25 2.675
1.25 0.25 2.675
1.375 0.25 2.675
1.5 0.25 2.675
1.625 0.25 2.675
1.75 0.25 2.675
1.875 0.25 2.675
2 0.25 2.675
2.125 0.25 2.675
2.25 0.25 2.675
2.375 0.25 2.675
2.5 0.25 2.675
2.625 0.25 2.675
2.75 0.25 2.675
2.875 0.25 2.675
3 0.25 2.675
3.125 0.25 2.675
3.25 0.25 2.675
3.375 0.25 2.675
3.5 0.25 2.675
3.625 0.25 2.675
3.75 0.25 2.675
3.875 0.25 2.675
4 0.25 2.675
0 0.375 2.675
0.125 0.375 2.675
0.25 0.375 2.675
0.375 0.375 2.675
0.5 0.375 2.675
0.625 0.375 2.675
0.75 0.375 2.675
0.875 0.375 2.675
1 0.375 2.675
1.125 0.375 2.675
1.25 0.375 2.675
1.375 0.375 2.675
1.5 0.375 2.675
1.625 0.375 2.675
1.75 0.375 2.675
1.875 0.375 2.675
2 0.375 2.675
2.125 0.375 2.675
2.25 0.375 2.675
2.375 0.375 2.675
2.5 0.375 2.675
2.625 0.375 2.675
2.75 0.375 2.675
2.875 0.375 2.675
3 0.375 2.675
3.125 0.375 2.675
3.25 0.375 2.675
3.375 0.375 2.675
3.5 0.375 2.675
3.625 0.375 2.675
3.75 0.375 2.675
3.875 0.375 2.675
4 0.375 2.675
0 0.5 2.675
0.125 0.5 2.675
0.25 0.5 2.675
0.375 0.5 2.675
0.5 0.5 2.675
0.625 0.5 2.675
0.75 0.5 2.675
0.875 0.5 2.675
1 0.5 2.675
1.125 0.5 2.675
1.25 0.5 2.675
1.375 0.5 2.675
1.5 0.5 2.675
1.625 0.5 2.675
1.75 0.5 2.675
1.875 0.5 2.675
2 0.5 2.675
2.125 0.5 2.675
2.25 0.5 2.675
2.375 0.5 2.675
2.5 0.5 2.675
2.625 0.5 2.675
2.75 0.5 2.675
2.875 0.5 2.675
3 0.5 2.675
3.125 0.5 2.675
3.25 0.5 2.675
3.375 0.5 2.675
3.5 0.5 2.675
3.625 0.5 2.675
3.75 0.5 2.675
3.875 0.5 2.675
4 0.5 2.675
0 0.625 2.675
0.125 0.625 2.675
0.25 0.625 2.675
0.375 0.625 2.675
0.5 0.625 2.675
0.625 0.625 2.675
0.75 0.625 2.675
0.875 0.625 2.675
1 0.625 2.675
1.125 0.625 2.675
1.25 0.625 2.675
1.375 0.625 2.675
1.5 0.625 2.675
1.625 0.625 2.675
1.75 0.625 2.675
1.875 0.625 2.675
2 0.625 2.675
2.125 0.625 2.675
2.25 0.625 2.675
2.375 0.625 2.675
2.5 0.625 2.675
2.625 0.625 2.675
2.75 0.625 2.675
2.875 0.625 2.675
3 0.625 2.675
3.125 0.625 2.675
3.25 0.625 2.675
3.375 0.625 2.675
3.5 0.625 2.675
3.625 0.625 2.675
3.75 0.625 2.675
3.875 0.625 2.675
4 0.625 2.675
0 0.75 2.675
0.125 0.75 2.675
0.25 0.75 2.675
0.375 0.75 2.675
0.5 0.75 2.675
0.625 0.75 2.675
0.75 0.75 2.675
0.875 0.75 2.675
1 0.75 2.675
1.125 0.75 2.675
1.25 0.75 2.675
1.375 0.75 2.675
1.5 0.75 2.675
1.625 0.75 2.675
1.75 0.75 2.675
1.875 0.75 2.675
2 0.75 2.675
2.125 0.75 2.675
2.25 0.75 2.675
2.375 0.75 2.675
2.5 0.75 2.675
2.625 0.75 2.675
2.75 0.75 2.675
2.875 0.75 2.675
3 0.75 2.675
3.125 0.75 2.675
3.25 0.75 2.675
3.375 0.75 2.675
3.5 0.75 2.675
3.625 0.75 2.675
3.75 0.75 2.675
3.875 0.75 2.675
4 0.75 2.675
0 0.875 2.675
0.125 0.875 2.675
0.25 0.875 2.675
0.375 0.875 2.675
0.5 0.875 2.675
0.625 0.875 2.675
0.75 0.875 2.675
0.875 0.875 2.675
1 0.875 2.675
1.125 0.875 2.675
1.25 0.875 2.675
1.375 0.875 2.675
1.5 0.875 2.675
1.625 0.875 2.675
1.75 0.875 2.675
1.875 0.875 2.675
2 0.875 2.675
2.125 0.875 2.675
2.25 0.875 2.675
2.375 0.875 2.675
2.5 0.875 2.675
2.625 0.875 2.675
2.75 0.875 2.675
2.875 0.875 2.675
3 0.875 2.675
3.125 0.875 2.675
3.25 0.875 2.675
3.375 0.875 2.675
3.5 0.875 2.675
3.625 0.875 2.675
3.75 0.875 2.675
3.875 0.875 2.675
4 0.875 2.675
0 1 2.675
0.125 1 2.675
0.25 1 2.675
0.375 1 2.675
0.5 1 2.675
0.625 1 2.675
0.75 1 2.675
0.875 1 2.675
1 1 2.675
1.125 1 2.675
1.25 1 2.675
1.375 1 2.675
1.5 1 2.675
1.625 1 2.675
1.75 1 2.675
1.875 1 2.675
2 1 2.675
2.125 1 2.675
2.25 1 2.675
2.375 1 2.675
2.5 1 2.675
2.625 1 2.675
2.75 1 2.675
2.875 1 2.675
3 1 2.675
3.125 1 2.675
3.25 1 2.675
3.375 1 2.675
3.5 1 2.675
3.625 1 2.675
3.75 1 2.675
3.875 1 2.675
4 1 2.675
0 0 2.8
0.125 0 2.8
0.25 0 2.8
0.375 0 2.8
0.5 0 2.8
0.625 0 2.8
0.75 0 2.8
0.875 0 2.8
1 0 2.8
1.125 0 2.8
1.25 0 2.8
1.375 0 2.8
1.5 0 2.8
1.625 0 2.8
1.75 0 2.8
1.875 0 2.8
2 0 2.8
2.125 0 2.8
2.25 0 2.8
2.375 0 2.8
2.5 0 2.8
2.625 0 2.8
2.75 0 2.8
2.875 0 2.8
3 0 2.8
3.125 0 2.8
3.25 0 2.8
3.375 0 2.8
3.5 0 2.8
3.625 0 2.8
3.75 0 2.8
3.875 0 2.8
4 0 2.8
0 0.125 2.8
0.125 0.125 2.8
0.25 0.125 2.8
0.375 0.125 2.8
0.5 0.125 2.8
0.625 0.125 2.8
0.75 0.125 2.8
0.875 0.125 2.8
1 0.125 2.8
1.125 0.125 2.8
1.25 0.125 2.8
1.375 0.125 2.8
1.5 0.125 2.8
1.625 0.125 2.8
1.75 0.125 2.8
1.875 0.125 2.8
2 0.125 2.8
2.125 0.125 2.8
2.25 0.125 2.8
2.375 0.125 2.8
2.5 0.125 2.8
2.625 0.125 2.8
2.75 0.125 2.8
2.875 0.125 2.8
3 0.125 2.8
3.125 0.125 2.8
3.25 0.125 2.8
3.375 0.125 2.8
3.5 0.125 2.8
3.625 0.125 2.8
3.75 0.125 2.8
3.875 0.125 2.8
4 0.125 2.8
0 0.25 2.8
0.125 0.25 2.8
0.25 0.25 2.8
0.375 0.25 2.8
0.5 0.25 2.8
0.625 0.25 2.8
0.75 0.25 2.8
0.875 0.25 2.8
1 0.25 2.8
1.125 0.25 2.8
1.25 0.25 2.8
1.375 0.25 2.8
1.5 0.25 2.8
1.625 0.25 2.8
1.75 0.25 2.8
1.875 0.25 2.8
2 0.25 2.8
2.125 0.25 2.8
2.25 0.25 2.8
2.375 0.25 2.8
2.5 0.25 2.8
2.625 0.25 2.8
2.75 0.25 2.8
2.875 0.25 2.8
3 0.25 2.8
3.125 0.25 2.8
3.25 0.25 2.8
3.375 0.25 2.8
3.5 0.25 2.8
3.625 0.25 2.8
3.75 0.25 2.8
3.875 0.25 2.8
4 0.25 2.8
0 0.375 2.8
0.125 0.375 2.8
0.25 0.375 2.8
0.375 0.375 2.8
0.5 0.375 2.8
0.625 0.375 2.8
0.75 0.375 2.8
0.875 0.375 2.8
1 0.375 2.8
1.125 0.375 2.8
1.25 0.375 2.8
1.375 0.375 2.8
1.5 0.375 2.8
1.625 0.375 2.8
1.75 0.375 2.8
1.875 0.375 2.8
2 0.375 2.8
2.125 0.375 2.8
2.25 0.375 2.8
2.375 0.375 2.8
2.5 0.375 2.8
2.625 0.375 2.8
2.75 0.375 2.8
2.875 0.375 2.8
3 0.375 2.8
3.125 0.375 2.8
3.25 0.375 2.8
3.375 0.375 2.8
3.5 0.375 2.8
3.625 0.375 2.8
3.75 0.375 2.8
3.875 0.375 2.8
4 0.375 2.8
0 0.5 2.8
0.125 0.5 2.8
0.25 0.5 2.8
0.375 0.5 2.8
0.5 0.5 2.8
0.625 0.5 2.8
0.75 0.5 2.8
0.875 0.5 2.8
1 0.5 2.8
1.125 0.5 2.8
1.25 0.5 2.8
1.375 0.5 2.8
1.5 0.5 2.8
1.625 0.5 2.8
1.75 0.5 2.8
1.875 0.5 2.8
2 0.5 2.8
2.125 0.5 2.8
2.25 0.5 2.8
2.375 0.5 2.8
2.5 0.5 2.8
2.625 0.5 2.8
2.75 0.5 2.8
2.875 0.5 2.8
3 0.5 2.8
3.125 0.5 2.8
3.25 0.5 2.8
3.375 0.5 2.8
3.5 0.5 2.8
3.625 0.5 2.8
3.75 0.5 2.8
3.875 0.5 2.8
4 0.5 2.8
0 0.625 2.8
0.125 0.625 2.8
0.25 0.625 2.8
0.375 0.625 2.8
0.5 0.625 2.8
0.625 0.625 2.8
0.75 0.625 2.8
0.875 0.625 2.8
1 0.625 2.8
1.125 0.625 2.8
1.25 0.625 2.8
1.375 0.625 2.8
1.5 0.625 2.8
1.625 0.625 2.8
1.75 0.625 2.8
1.875 0.625 2.8
2 0.625 2.8
2.125 0.625 2.8
2.25 0.625 2.8
2.375 0.625 2.8
2.5 0.625 2.8
2.625 0.625 2.8
2.75 0.625 2.8
2.875 0.625 2.8
3 0.625 2.8
3.125 0.625 2.8
3.25 0.625 2.8
3.375 0.625 2.8
3.5 0.625 2.8
3.625 0.625 2.8
3.75 0.625 2.8
3.875 0.625 2.8
4 0.625 2.8
0 0.75 2.8
0.125 0.75 2.8
0.25 0.75 2.8
0.375 0.75 2.8
0.5 0.75 2.8
0.625 0.75 2.8
0.75 0.75 2.8
0.875 0.75 2.8
1 0.75 2.8
1.125 0.75 2.8
1.25 0.75 2.8
1.375 0.75 2.8
1.5 0.75 2.8
1.625 0.75 2.8
1.75 0.75 2.8
1.875 0.75 2.8
2 0.75 2.8
2.125 0.75 2.8
2.25 0.75 2.8
2.375 0.75 2.8
2.5 0.75 2.8
2.625 0.75 2.8
2.75 0.75 2.8
2.875 0.75 2.8
3 0.75 2.8
3.125 0.75 2.8
3.25 0.75 2.8
3.375 0.75 2.8
3.5 0.75 2.8
3.625 0.75 2.8
3.75 0.75 2.8
3.875 0.75 2.8
4 0.75 2.8
0 0.875 2.8
0.125 0.875 2.8
0.25 0.875 2.8
0.375 0.875 2.8
0.5 0.875 2.8
0.625 0.875 2.8
0.75 0.875 2.8
0.875 0.875 2.8
1 0.875 2.8
1.125 0.875 2.8
1.25 0.875 2.8
1.375 0.875 2.8
1.5 0.875 2.8
1.625 0.875 2.8
1.75 0.875 2.8
1.875 0.875 2.8
2 0.875 2.8
2.125 0.875 2.8
2.25 0.875 2.8
2.375 0.875 2.8
2.5 0.875 2.8
2.625 0.875 2.8
2.75 0.875 2.8
2.875 0.875 2.8
3 0.875 2.8
3.125 0.875 2.8
3.25 0.875 2.8
3.375 0.875 2.8
3.5 0.875 2.8
3.625 0.875 2.8
3.75 0.875 2.8
3.875 0.875 2.8
4 0.875 2.8
0 1 2.8
0.125 1 2.8
0.25 1 2.8
0.375 1 2.8
0.5 1 2.8
0.625 1 2.8
0.75 1 2.8
0.875 1 2.8
1 1 2.8
1.125 1 2.8
1.25 1 2.8
1.375 1 2.8
1.5 1 2.8
1.625 1 2.8
1.75 1 2.8
1.875 1 2.8
2 1 2.8
2.125 1 2.8
2.25 1 2.8
2.375 1 2.8
2.5 1 2.8
2.625 1 2.8
2.75 1 2.8
2.875 1 2.8
3 1 2.8
3.125 1 2.8
3.25 1 2.8
3.375 1 2.8
3.5 1 2.8
3.625 1 2.8
3.75 1 2.8
3.875 1 2.8
4 1 2.8
0 0 2.925
0.125 0 2.925
0.25 0 2.925
0.375 0 2.925
0.5 0 2.925
0.625 0 2.925
0.75 0 2.925
0.875 0 2.925
1 0 2.925
1.125 0 2.925
1.25 0 2.925
1.375 0 2.925
1.5 0 2.925
1.625 0 2.925
1.75 0 2.925
1.875 0 2.925
2 0 2.925
2.125 0 2.925
2.25 0 2.925
2.375 0 2.925
2.5 0 2.925
2.625 0 2.925
2.75 0 2.925
2.875 0 2.925
3 0 2.925
3.125 0 2.925
3.25 0 2.925
3.375 0 2.925
3.5 0 2.925
3.625 0 2.925
3.75 0 2.925
3.875 0 2.925
4 0 2.925
0 0.125 2.925
0.125 0.125 2.925
0.25 0.125 2.925
0.375 0.125 2.925
0.5 0.125 2.925
0.625 0.125 2.925
0.75 0.125 2.925
0.875 0.125 2.925
1 0.125 2.925
1.125 0.125 2.925
1.25 0.125 2.925
1.375 0.125 2.925
1.5 0.125 2.925
1.625 0.125 2.925
1.75 0.125 2.925
1.875 0.125 2.925
2 0.125 2.925
2.125 0.125 2.925
2.25 0.125 2.925
2.375 0.125 2.925
2.5 0.125 2.925
2.625 0.125 2.925
2.75 0.125 2.925
2.875 0.125 2.925
3 0.125 2.925
3.125 0.125 2.925
3.25 0.125 2.925
3.375 0.125 2.925
3.5 0.125 2.925
3.625 0.125 2.925
3.75 0.125 2.925
3.875 0.125 2.925
4 0.125 2.925
0 0.25 2.925
0.125 0.25 2.925
0.25 0.25 2.925
0.375 0.25 2.925
0.5 0.25 2.925
0.625 0.25 2.925
0.75 0.25 2.925
0.875 0.25 2.925
1 0.25 2.925
1.125 0.25 2.925
1.25 0.25 2.925
1.375 0.25 2.925
1.5 0.25 2.925
1.625 0.25 2.925
1.75 0.25 2.925
1.875 0.25 2.925
2 0.25 2.925
2.125 0.25 2.925
2.25 0.25 2.925
2.375 0.25 2.925
2.5 0.25 2.925
2.625 0.25 2.925
2.75 0.25 2.925
2.875 0.25 2.925
3 0.25 2.925
3.125 0.25 2.925
3.25 0.25 2.925
3.375 0.25 2.925
3.5 0.25 2.925
3.625 0.25 2.925
3.75 0.25 2.925
3.875 0.25 2.925
4 0.25 2.925
0 0.375 2.925
0.125 0.375 2.925
0.25 0.375 2.925
0.375 0.375 2.925
0.5 0.375 2.925
0.625 0.375 2.925
0.75 0.375 2.925
0.875 0.375 2.925
1 0.375 2.925
1.125 0.375 2.925
1.25 0.375 2.925
1.375 0.375 2.925
1.5 0.375 2.925
1.625 0.375 2.925
1.75 0.375 2.925
1.875 0.375 2.925
2 0.375 2.925
2.125 0.375 2.925
2.25 0.375 2.925
2.375 0.375 2.925
2.5 0.375 2.925
2.625 0.375 2.925
2.75 0.375 2.925
2.875 0.375 2.925
3 0.375 2.925
3.125 0.375 2.925
3.25 0.375 2.925
3.375 0.375 2.925
3.5 0.375 2.925
3.625 0.375 2.925
3.75 0.375 2.925
3.875 0.375 2.925
4 0.375 2.925
0 0.5 2.925
0.125 0.5 2.925
0.25 0.5 2.925
0.375 0.5 2.925
0.5 0.5 2.925
0.625 0.5 2.925
0.75 0.5 2.925
0.875 0.5 2.925
1 0.5 2.925
1.125 0.5 2.925
1.25 0.5 2.925
1.375 0.5 2.925
1.5 0.5 2.925
1.625 0.5 2.925
1.75 0.5 2.925
1.875 0.5 2.925
2 0.5 2.925
2.125 0.5 2.925
2.25 0.5 2.925
2.375 0.5 2.925
2.5 0.5 2.925
2.625 0.5 2.925
2.75 0.5 2.925
2.875 0.5 2.925
3 0.5 2.925
3.125 0.5 2.925
3.25 0.5 2.925
3.375 0.5 2.925
3.5 0.5 2.925
3.625 0.5 2.925
3.75 0.5 2.925
3.875 0.5 2.925
4 0.5 2.925
0 0.625 2.925
0.125 0.625 2.925
0.25 0.625 2.925
0.375 0.625 2.925
0.5 0.625 2.925
0.625 0.625 2.925
0.75 0.625 2.925
0.875 0.625 2.925
1 0.625 2.925
1.125 0.625 2.925
1.25 0.625 2.925
1.375 0.625 2.925
1.5 0.625 2.925
1.625 0.625 2.925
1.75 0.625 2.925
1.875 0.625 2.925
2 0.625 2.925
2.125 0.625 2.925
2.25 0.625 2.925
2.375 0.625 2.925
2.5 0.625 2.925
2.625 0.625 2.925
2.75 0.625 2.925
2.875 0.625 2.925
3 0.625 2.925
3.125 0.625 2.925
3.25 0.625 2.925
3.375 0.625 2.925
3.5 0.625 2.925
3.625 0.625 2.925
3.75 0.625 2.925
3.875 0.625 2.925
4 0.625 2.925
0 0.75 2.925
0.125 0.75 2.925
0.25 0.75 2.925
0.375 0.75 2.925
0.5 0.75 2.925
0.625 0.75 2.925
0.75 0.75 2.925
0.875 0.75 2.925
1 0.75 2.925
1.125 0.75 2.925
1.25 0.75 2.925
1.375 0.75 2.925
1.5 0.75 2.925
1.625 0.75 2.925
1.75 0.75 2.925
1.875 0.75 2.925
2 0.75 2.925
2.125 0.75 2.925
2.25 0.75 2.925
2.375 0.75 2.925
2.5 0.75 2.925
2.625 0.75 2.925
2.75 0.75 2.925
2.875 0.75 2.925
3 0.75 2.925
3.125 0.75 2.925
3.25 0.75 2.925
3.375 0.75 2.925
3.5 0.75 2.925
3.625 0.75 2.925
3.75 0.75 2.925
3.875 0.75 2.925
4 0.75 2.925
0 0.875 2.925
0.125 0.875 2.925
0.25 0.875 2.925
0.375 0.875 2.925
0.5 0.875 2.925
0.625 0.875 2.925
0.75 0.875 2.925
0.875 0.875 2.925
1 0.875 2.925
1.125 0.875 2.925
1.25 0.875 2.925
1.375 0.875 2.925
1.5 0.875 2.925
1.625 0.875 2.925
1.75 0.875 2.925
1.875 0.875 2.925
2 0.875 2.925
2.125 0.875 2.925
2.25 0.875 2.925
2.375 0.875 2.925
2.5 0.875 2.925
2.625 0.875 2.925
2.75 0.875 2.925
2.875 0.875 2.925
3 0.875 2.925
3.125 0.875 2.925
3.25 0.875 2.925
3.375 0.875 2.925
3.5 0.875 2.925
3.625 0.875 2.925
3.75 0.875 2.925
3.875 0.875 2.925
4 0.875 2.925
0 1 2.925
0.125 1 2.925
0.25 1 2.925
0.375 1 2.925
0.5 1 2.925
0.625 1 2.925
0.75 1 2.925
0.875 1 2.925
1 1 2.925
1.125 1 2.925
1.25 1 2.925
1.375 1 2.925
1.5 1 2.925
1.625 1 2.925
1.75 1 2.925
1.875 1 2.925
2 1 2.925
2.125 1 2.925
2.25 1 2.925
2.375 1 2.925
2.5 1 2.925
2.625 1 2.925
2.75 1 2.925
2.875 1 2.925
3 1 2.925
3.125 1 2.925
3.25 1 2.925
3.375 1 2.925
3.5 1 2.925
3.625 1 2.925
3.75 1 2.925
3.875 1 2.925
4 1 2.925
0 0 3.05
0.125 0 3.05
0.25 0 3.05
0.375 0 3.05
0.5 0 3.05
0.625 0 3.05
0.75 0 3.05
0.875 0 3.05
1 0 3.05
1.125 0 3.05
1.25 0 3.05
1.375 0 3.05
1.5 0 3.05
1.625 0 3.05
1.75 0 3.05
1.875 0 3.05
2 0 3.05
2.125 0 3.05
2.25 0 3.05
2.375 0 3.05
2.5 0 3.05
2.625 0 3.05
2.75 0 3.05
2.875 0 3.05
3 0 3.05
3.125 0 3.05
3.25 0 3.05
3.375 0 3.05
3.5 0 3.05
3.625 0 3.05
3.75 0 3.05
3.875 0 3.05
4 0 3.05
0 0.125 3.05
0.125 0.125 3.05
0.25 0.125 3.05
0.375 0.125 3.05
0.5 0.125 3.05
0.625 0.125 3.05
0.75 0.125 3.05
0.875 0.125 3.05
1 0.125 3.05
1.125 0.125 3.05
1.25 0.125 3.05
1.375 0.125 3.05
1.5 0.125 3.05
1.625 0.125 3.05
1.75 0.125 3.05
1.875 0.125 3.05
2 0.125 3.05
2.125 0.125 3.05
2.25 0.125 3.05
2.375 0.125 3.05
2.5 0.125 3.05
2.625 0.125 3.05
2.75 0.125 3.05
2.875 0.125 3.05
3 0.125 3.05
3.125 0.125 3.05
3.25 0.125 3.05
3.375 0.125 3.05
3.5 0.125 3.05
3.625 0.125 3.05
3.75 0.125 3.05
3.875 0.125 3.05
4 0.125 3.05
0 0.25 3.05
0.125 0.25 3.05
0.25 0.25 3.05
0.375 0.25 3.05
0.5 0.25 3.05
0.625 0.25 3.05
0.75 0.25 3.05
0.875 0.25 3.05
1 0.25 3.05
1.125 0.25 3.05
1.25 0.25 3.05
1.375 0.25 3.05
1.5 0.25 3.05
1.625 0.25 3.05
1.75 0.25 3.05
1.875 0.25 3.05
2 0.25 3.05
2.125 0.25 3.05
2.25 0.25 3.05
2.375 0.25 3.05
2.5 0.25 3.05
2.625 0.25 3.05
2.75 0.25 3.05
2.875 0.25 3.05
3 0.25 3.05
3.125 0.25 3.05
3.25 0.25 3.05
3.375 0.25 3.05
3.5 0.25 3.05
3.625 0.25 3.05
3.75 0.25 3.05
3.875 0.25 3.05
4 0.25 3.05
0 0.375 3.05
0.125 0.375 3.05
0.25 0.375 3.05
0.375 0.375 3.05
0.5 0.375 3.05
0.625 0.375 3.05
0.75 0.375 3.05
0.875 0.375 3.05
1 0.375 3.05
1.125 0.375 3.05
1.25 0.375 3.05
1.375 0.375 3.05
1.5 0.375 3.05
1.625 0.375 3.05
1.75 0.375 3.05
1.875 0.375 3.05
2 0.375 3.05
2.125 0.375 3.05
2.25 0.375 3.05
2.375 0.375 3.05
2.5 0.375 3.05
2.625 0.375 3.05
2.75 0.375 3.05
2.875 0.375 3.05
3 0.375 3.05
3.125 0.375 3.05
3.25 0.375 3.05
3.375 0.375 3.05
3.5 0.375 3.05
3.625 0.375 3.05
3.75 0.375 3.05
3.875 0.375 3.05
4 0.375 3.05
0 0.5 3.05
0.125 0.5 3.05
0.25 0.5 3.05
0.375 0.5 3.05
0.5 0.5 3.05
0.625 0.5 3.05
0.75 0.5 3.05
0.875 0.5 3.05
1 0.5 3.05
1.125 0.5 3.05
1.25 0.5 3.05
1.375 0.5 3.05
1.5 0.5 3.05
1.625 0.5 3.05
1.75 0.5 3.05
1.875 0.5 3.05
2 0.5 3.05
2.125 0.5 3.05
2.25 0.5 3.05
2.375 0.5 3.05
2.5 0.5 3.05
2.625 0.5 3.05
2.75 0.5 3.05
2.875 0.5 3.05
3 0.5 3.05
3.125 0.5 3.05
3.25 0.5 3.05
3.375 0.5 3.05
3.5 0.5 3.05
3.625 0.5 3.05
3.75 0.5 3.05
3.875 0.5 3.05
4 0.5 3.05
0 0.625 3.05
0.125 0.625 3.05
0.25 0.625 3.05
0.375 0.625 3.05
0.5 0.625 3.05
0.625 0.625 3.05
0.75 0.625 3.05
0.875 0.625 3.05
1 0.625 3.05
1.125 0.625 3.05
1.25 0.625 3.05
1.375 0.625 3.05
1.5 0.625 3.05
1.625 0.625 3.05
1.75 0.625 3.05
1.875 0.625 3.05
2 0.625 3.05
2.125 0.625 3.05
2.25 0.625 3.05
2.375 0.625 3.05
2.5 0.625 3.05
2.625 0.625 3.05
2.75 0.625 3.05
2.875 0.625 3.05
3 0.625 3.05
3.125 0.625 3.05
3.25 0.625 3.05
3.375 0.625 3.05
3.5 0.625 3.05
3.625 0.625 3.05
3.75 0.625 3.05
3.875 0.625 3.05
4 0.625 3.05
0 0.75 3.05
0.125 0.75 3.05
0.25 0.75 3.05
0.375 0.75 3.05
0.5 0.75 3.05
0.625 0.75 3.05
0.75 0.75 3.05
0.875 0.75 3.05
1 0.75 3.05
1.125 0.75 3.05
1.25 0.75 3.05
1.375 0.75 3.05
1.5 0.75 3.05
1.625 0.75 3.05
1.75 0.75 3.05
1.875 0.75 3.05
2 0.75 3.05
2.125 0.75 3.05
2.25 0.75 3.05
2.375 0.75 3.05
2.5 0.75 3.05
2.625 0.75 3.05
2.75 0.75 3.05
2.875 0.75 3.05
3 0.75 3.05
3.125 0.75 3.05
3.25 0.75 3.05
3.375 0.75 3.05
3.5 0.75 3.05
3.625 0.75 3.05
3.75 0.75 3.05
3.875 0.75 3.05
4 0.75 3.05
0 0.875 3.05
0.125 0.875 3.05
0.25 0.875 3.05
0.375 0.875 3.05
0.5 0.875 3.05
0.625 0.875 3.05
0.75 0.875 3.05
0.875 0.875 3.05
1 0.875 3.05
1.125 0.875 3.05
1.25 0.875 3.05
1.375 0.875 3.05
1.5 0.875 3.05
1.625 0.875 3.05
1.75 0.875 3.05
1.875 0.875 3.05
2 0.875 3.05
2.125 0.875 3.05
2.25 0.875 3.05
2.375 0.875 3.05
2.5 0.875 3.05
2.625 0.875 3.05
2.75 0.875 3.05
2.875 0.875 3.05
3 0.875 3.05
3.125 0.875 3.05
3.25 0.875 3.05
3.375 0.875 3.05
3.5 0.875 3.05
3.625 0.875 3.05
3.75 0.875 3.05
3.875 0.875 3.05
4 0.875 3.05
0 1 3.05
0.125 1 3.05
0.25 1 3.05
0.375 1 3.05
0.5 1 3.05
0.625 1 3.05
0.75 1 3.05
0.875 1 3.05
1 1 3.05
1.125 1 3.05
1.25 1 3.05
1.375 1 3.05
1.5 1 3.05
1.625 1 3.05
1.75 1 3.05
1.875 1 3.05
2 1 3.05
2.125 1 3.05
2.25 1 3.05
2.375 1 3.05
2.5 1 3.05
2.625 1 3.05
2.75 1 3.05
2.875 1 3.05
3 1 3.05
3.125 1 3.05
3.25 1 3.05
3.375 1 3.05
3.5 1 3.05
3.625 1 3.05
3.75 1 3.05
3.875 1 3.05
4 1 3.05
0 0 3.175
0.125 0 3.175
0.25 0 3.175
0.375 0 3.175
0.5 0 3.175
0.625 0 3.175
0.75 0 3.175
0.875 0 3.175
1 0 3.175
1.125 0 3.175
1.25 0 3.175
1.375 0 3.175
1.5 0 3.175
1.625 0 3.175
1.75 0 3.175
1.875 0 3.175
2 0 3.175
2.125 0 3.175
2.25 0 3.175
2.375 0 3.175
2.5 0 3.175
2.625 0 3.175
2.75 0 3.175
2.875 0 3.175
3 0 3.175
3.125 0 3.175
3.25 0 3.175
3.375 0 3.175
3.5 0 3.175
3.625 0 3.175
3.75 0 3.175
3.875 0 3.175
4 0 3.175
0 0.125 3.175
0.125 0.125 3.175
0.25 0.125 3.175
0.375 0.125 3.175
0.5 0.125 3.175
0.625 0.125 3.175
0.75 0.125 3.175
0.875 0.125 3.175
1 0.125 3.175
1.125 0.125 3.175
1.25 0.125 3.175
1.375 0.125 3.175
1.5 0.125 3.175
1.625 0.125 3.175
1.75 0.125 3.175
1.875 0.125 3.175
2 0.125 3.175
2.125 0.125 3.175
2.25 0.125 3.175
2.375 0.125 3.175
2.5 0.125 3.175
2.625 0.125 3.175
2.75 0.125 3.175
2.875 0.125 3.175
3 0.125 3.175
3.125 0.125 3.175
3.25 0.125 3.175
3.375 0.125 3.175
3.5 0.125 3.175
3.625 0.125 3.175
3.75 0.125 3.175
3.875 0.125 3.175
4 0.125 3.175
0 0.25 3.175
0.125 0.25 3.175
0.25 0.25 3.175
0.375 0.25 3.175
0.5 0.25 3.175
0.625 0.25 3.175
0.75 0.25 3.175
0.875 0.25 3.175
1 0.25 3.175
1.125 0.25 3.175
1.25 0.25 3.175
1.375 0.25 3.175
1.5 0.25 3.175
1.625 0.25 3.175
1.75 0.25 3.175
1.875 0.25 3.175
2 0.25 3.175
2.125 0.25 3.175
2.25 0.25 3.175
2.375 0.25 3.175
2.5 0.25 3.175
2.625 0.25 3.175
2.75 0.25 3.175
2.875 0.25 3.175
3 0.25 3.175
3.125 0.25 3.175
3.25 0.25 3.175
3.375 0.25 3.175
3.5 0.25 3.175
3.625 0.25 3.175
3.75 0.25 3.175
3.875 0.25 3.175
4 0.25 3.175
0 0.375 3.175
0.125 0.375 3.175
0.25 0.375 3.175
0.375 0.375 3.175
0.5 0.375 3.175
0.625 0.375 3.175
0.75 0.375 3.175
0.875 0.375 3.175
1 0.375 3.175
1.125 0.375 3.175
1.25 0.375 3.175
1.375 0.375 3.175
1.5 0.375 3.175
1.625 0.375 3.175
1.75 0.375 3.175
1.875 0.375 3.175
2 0.375 3.175
2.125 0.375 3.175
2.25 0.375 3.175
2.375 0.375 3.175
2.5 0.375 3.175
2.625 0.375 3.175
2.75 0.375 3.175
2.875 0.375 3.175
3 0.375 3.175
3.125 0.375 3.175
3.25 0.375 3.175
3.375 0.375 3.175
3.5 0.375 3.175
3.625 0.375 3.175
3.75 0.375 3.175
3.875 0.375 3.175
4 0.375 3.175
0 0.5 3.175
0.125 0.5 3.175
0.25 0.5 3.175
0.375 0.5 3.175
0.5 0.5 3.175
0.625 0.5 3.175
0.75 0.5 3.175
0.875 0.5 3.175
1 0.5 3.175
1.125 0.5 3.175
1.25 0.5 3.175
1.375 0.5 3.175
1.5 0.5 3.175
1.625 0.5 3.175
1.75 0.5 3.175
1.875 0.5 3.175
2 0.5 3.175
2.125 0.5 3.175
2.25 0.5 3.175
2.375 0.5 3.175
2.5 0.5 3.175
2.625 0.5 3.175
2.75 0.5 3.175
2.875 0.5 3.175
3 0.5 3.175
3.125 0.5 3.175
3.25 0.5 3.175
3.375 0.5 3.175
3.5 0.5 3.175
3.625 0.5 3.175
3.75 0.5 3.175
3.875 0.5 3.175
4 0.5 3.175
0 0.625 3.175
0.125 0.625 3.175
0.25 0.625 3.175
0.375 0.625 3.175
0.5 0.625 3.175
0.625 0.625 3.175
0.75 0.625 3.175
0.875 0.625 3.175
1 0.625 3.175
1.125 0.625 3.175
1.25 0.625 3.175
1.375 0.625 3.175
1.5 0.625 3.175
1.625 0.625 3.175
1.75 0.625 3.175
1.875 0.625 3.175
2 0.625 3.175
2.125 0.625 3.175
2.25 0.625 3.175
2.375 0.625 3.175
2.5 0.625 3.175
2.625 0.625 3.175
2.75 0.625 3.175
2.875 0.625 3.175
3 0.625 3.175
3.125 0.625 3.175
3.25 0.625 3.175
3.375 0.625 3.175
3.5 0.625 3.175
3.625 0.625 3.175
3.75 0.625 3.175
3.875 0.625 3.175
4 0.625 3.175
0 0.75 3.175
0.125 0.75 3.175
0.25 0.75 3.175
0.375 0.75 3.175
0.5 0.75 3.175
0.625 0.75 3.175
0.75 0.75 3.175
0.875 0.75 3.175
1 0.75 3.175
1.125 0.75 3.175
1.25 0.75 3.175
1.375 0.75 3.175
1.5 0.75 3.175
1.625 0.75 3.175
1.75 0.75 3.175
1.875 0.75 3.175
2 0.75 3.175
2.125 0.75 3.175
2.25 0.75 3.175
2.375 0.75 3.175
2.5 0.75 3.175
2.625 0.75 3.175
2.75 0.75 3.175
2.875 0.75 3.175
3 0.75 3.175
3.125 0.75 3.175
3.25 0.75 3.175
3.375 0.75 3.175
3.5 0.75 3.175
3.625 0.75 3.175
3.75 0.75 3.175
3.875 0.75 3.175
4 0.75 3.175
0 0.875 3.175
0.125 0.875 3.175
0.25 0.875 3.175
0.375 0.875 3.175
0.5 0.875 3.175
0.625 0.875 3.175
0.75 0.875 3.175
0.875 0.875 3.175
1 0.875 3.175
1.125 0.875 3.175
1.25 0.875 3.175
1.375 0.875 3.175
1.5 0.875 3.175
1.625 0.875 3.175
1.75 0.875 3.175
1.875 0.875 3.175
2 0.875 3.175
2.125 0.875 3.175
2.25 0.875 3.175
2.375 0.875 3.175
2.5 0.875 3.175
2.625 0.875 3.175
2.75 0.875 3.175
2.875 0.875 3.175
3 0.875 3.175
3.125 0.875 3.175
3.25 0.875 3.175
3.375 0.875 3.175
3.5 0.875 3.175
3.625 0.875 3.175
3.75 0.875 3.175
3.875 0.875 3.175
4 0.875 3.175
0 1 3.175
0.125 1 3.175
0.25 1 3.175
0.375 1 3.175
0.5 1 3.175
0.625 1 3.175
0.75 1 3.175
0.875 1 3.175
1 1 3.175
1.125 1 3.175
1.25 1 3.175
1.375 1 3.175
1.5 1 3.175
1.625 1 3.175
1.75 1 3.175
1.875 1 3.175
2 1 3.175
2.125 1 3.175
2.25 1 3.175
2.375 1 3.175
2.5 1 3.175
2.625 1 3.175
2.75 1 3.175
2.875 1 3.175
3 1 3.175
3.125 1 3.175
3.25 1 3.175
3.375 1 3.175
3.5 1 3.175
3.625 1 3.175
3.75 1 3.175
3.875 1 3.175
4 1 3.175
0 0 3.3
0.125 0 3.3
0.25 0 3.3
0.375 0 3.3
0.5 0 3.3
0.625 0 3.3
0.75 0 3.3
0.875 0 3.3
1 0 3.3
1.125 0 3.3
1.25 0 3.3
1.375 0 3.3
1.5 0 3.3
1.625 0 3.3
1.75 0 3.3
1.875 0 3.3
2 0 3.3
2.125 0 3.3
2.25 0 3.3
2.375 0 3.3
2.5 0 3.3
2.625 0 3.3
2.75 0 3.3
2.875 0 3.3
3 0 3.3
3.125 0 3.3
3.25 0 3.3
3.375 0 3.3
3.5 0 3.3
3.625 0 3.3
3.75 0 3.3
3.875 0 3.3
4 0 3.3
0 0.125 3.3
0.125 0.125 3.3
0.25 0.125 3.3
0.375 0.125 3.3
0.5 0.125 3.3
0.625 0.125 3.3
0.75 0.125 3.3
0.875 0.125 3.3
1 0.125 3.3
1.125 0.125 3.3
1.25 0.125 3.3
1.375 0.125 3.3
1.5 0.125 3.3
1.625 0.125 3.3
1.75 0.125 3.3
1.875 0.125 3.3
2 0.125 3.3
2.125 0.125 3.3
2.25 0.125 3.3
2.375 0.125 3.3
2.5 0.125 3.3
2.625 0.125 3.3
2.75 0.125 3.3
2.875 0.125 3.3
3 0.125 3.3
3.125 0.125 3.3
3.25 0.125 3.3
3.375 0.125 3.3
3.5 0.125 3.3
3.625 0.125 3.3
3.75 0.125 3.3
3.875 0.125 3.3
4 0.125 3.3
0 0.25 3.3
0.125 0.25 3.3
0.25 0.25 3.3
0.375 0.25 3.3
0.5 0.25 3.3
0.625 0.25 3.3
0.75 0.25 3.3
0.875 0.25 3.3
1 0.25 3.3
1.125 0.25 3.3
1.25 0.25 3.3
1.375 0.25 3.3
1.5 0.25 3.3
1.625 0.25 3.3
1.75 0.25 3.3
1.875 0.25 3.3
2 0.25 3.3
2.125 0.25 3.3
2.25 0.25 3.3
2.375 0.25 3.3
2.5 0.25 3.3
2.625 0.25 3.3
2.75 0.25 3.3
2.875 0.25 3.3
3 0.25 3.3
3.125 0.25 3.3
3.25 0.25 3.3
3.375 0.25 3.3
3.5 0.25 3.3
3.625 0.25 3.3
3.75 0.25 3.3
3.875 0.25 3.3
4 0.25 3.3
0 0.375 3.3
0.125 0.375 3.3
0.25 0.375 3.3
0.375 0.375 3.3
0.5 0.375 3.3
0.625 0.375 3.3
0.75 0.375 3.3
0.875 0.375 3.3
1 0.375 3.3
1.125 0.375 3.3
1.25 0.375 3.3
1.375 0.375 3.3
1.5 0.375 3.3
1.625 0.375 3.3
1.75 0.375 3.3
1.875 0.375 3.3
2 0.375 3.3
2.125 0.375 3.3
2.25 0.375 3.3
2.375 0.375 3.3
2.5 0.375 3.3
2.625 0.375 3.3
2.75 0.375 3.3
2.875 0.375 3.3
3 0.375 3.3
3.125 0.375 3.3
3.25 0.375 3.3
3.375 0.375 3.3
3.5 0.375 3.3
3.625 0.375 3.3
3.75 0.375 3.3
3.875 0.375 3.3
4 0.375 3.3
0 0.5 3.3
0.125 0.5 3.3
0.25 0.5 3.3
0.375 0.5 3.3
0.5 0.5 3.3
0.625 0.5 3.3
0.75 0.5 3.3
0.875 0.5 3.3
1 0.5 3.3
1.125 0.5 3.3
1.25 0.5 3.3
1.375 0.5 3.3
1.5 0.5 3.3
1.625 0.5 3.3
1.75 0.5 3.3
1.875 0.5 3.3
2 0.5 3.3
2.125 0.5 3.3
2.25 0.5 3.3
2.375 0.5 3.3
2.5 0.5 3.3
2.625 0.5 3.3
2.75 0.5 3.3
2.875 0.5 3.3
3 0.5 3.3
3.125 0.5 3.3
3.25 0.5 3.3
3.375 0.5 3.3
3.5 0.5 3.3
3.625 0.5 3.3
3.75 0.5 3.3
3.875 0.5 3.3
4 0.5 3.3
0 0.625 3.3
0.125 0.625 3.3
0.25 0.625 3.3
0.375 0.625 3.3
0.5 0.625 3.3
0.625 0.625 3.3
0.75 0.625 3.3
0.875 0.625 3.3
1 0.625 3.3
1.125 0.625 3.3
1.25 0.625 3.3
1.375 0.625 3.3
1.5 0.625 3.3
1.625 0.625 3.3
1.75 0.625 3.3
1.875 0.625 3.3
2 0.625 3.3
2.125 0.625 3.3
2.25 0.625 3.3
2.375 0.625 3.3
2.5 0.625 3.3
2.625 0.625 3.3
2.75 0.625 3.3
2.875 0.625 3.3
3 0.625 3.3
3.125 0.625 3.3
3.25 0.625 3.3
3.375 0.625 3.3
3.5 0.625 3.3
3.625 0.625 3.3
3.75 0.625 3.3
3.875 0.625 3.3
4 0.625 3.3
0 0.75 3.3
0.125 0.75 3.3
0.25 0.75 3.3
0.375 0.75 3.3
0.5 0.75 3.3
0.625 0.75 3.3
0.75 0.75 3.3
0.875 0.75 3.3
1 0.75 3.3
1.125 0.75 3.3
1.25 0.75 3.3
1.375 0.75 3.3
1.5 0.75 3.3
1.625 0.75 3.3
1.75 0.75 3.3
1.875 0.75 3.3
2 0.75 3.3
2.125 0.75 3.3
2.25 0.75 3.3
2.375 0.75 3.3
2.5 0.75 3.3
2.625 0.75 3.3
2.75 0.75 3.3
2.875 0.75 3.3
3 0.75 3.3
3.125 0.75 3.3
3.25 0.75 3.3
3.375 0.75 3.3
3.5 0.75 3.3
3.625 0.75 3.3
3.75 0.75 3.3
3.875 0.75 3.3
4 0.75 3.3
0 0.875 3.3
0.125 0.875 3.3
0.25 0.875 3.3
0.375 0.875 3.3
0.5 0.875 3.3
0.625 0.875 3.3
0.75 0.875 3.3
0.875 0.875 3.3
1 0.875 3.3
1.125 0.875 3.3
1.25 0.875 3.3
1.375 0.875 3.3
1.5 0.875 3.3
1.625 0.875 3.3
1.75 0.875 3.3
1.875 0.875 3.3
2 0.875 3.3
2.125 0.875 3.3
2.25 0.875 3.3
2.375 0.875 3.3
2.5 0.875 3.3
2.625 0.875 3.3
2.75 0.875 3.3
2.875 0.875 3.3
3 0.875 3.3
3.125 0.875 3.3
3.25 0.875 3.3
3.375 0.875 3.3
3.5 0.875 3.3
3.625 0.875 3.3
3.75 0.875 3.3
3.875 0.875 3.3
4 0.875 3.3
0 1 3.3
0.125 1 3.3
0.25 1 3.3
0.375 1 3.3
0.5 1 3.3
0.625 1 3.3
0.75 1 3.3
0.875 1 3.3
1 1 3.3
1.125 1 3.3
1.25 1 3.3
1.375 1 3.3
1.5 1 3.3
1.625 1 3.3
1.75 1 3.3
1.875 1 3.3
2 1 3.3
2.125 1 3.3
2.25 1 3.3
2.375 1 3.3
2.5 1 3.3
2.625 1 3.3
2.75 1 3.3
2.875 1 3.3
3 1 3.3
3.125 1 3.3
3.25 1 3.3
3.375 1 3.3
3.5 1 3.3
3.625 1 3.3
3.75 1 3.3
3.875 1 3.3
4 1 3.3

CELLS 2049 16384
OFFSETS vtktypeint64
0 8 16 24 32 40 48 56 64 72 80 88 96 104 112 120 128 136 144 152 160 168 176 184 192 200 208 216 224 232 240 248 256 264 272 280 288 296 304 312 320 328 336 344 352 360 368 376 384 392 400 408 416 424 432 440 448 456 464 472 480 488 496 504 512 520 528 536 544 552 560 568 576 584 592 600 608 616 624 632 640 648 656 664 672 680 688 696 704 712 720 728 736 744 752 760 768 776 784 792 800 808 816 824 832 840 848 856 864 872 880 888 896 904 912 920 928 936 944 952 960 968 976 984 992 1000 1008 1016 1024 1032 1040 1048 1056 1064 1072 1080 1088 1096 1104 1112 1120 1128 1136 1144 1152 1160 1168 1176 1184 1192 1200 1208 1216 1224 1232 1240 1248 1256 1264 1272 1280 1288 1296 1304 1312 1320 1328 1336 1344 1352 1360 1368 1376 1384 1392 1400 1408 1416 1424 1432 1440 1448 1456 1464 1472 1480 1488 1496 1504 1512 1520 1528 1536 1544 1552 1560 1568 1576 1584 1592 1600 1608 1616 1624 1632 1640 1648 1656 1664 1672 1680 1688 1696 1704 1712 1720 1728 1736 1744 1752 1760 1768 1776 1784 1792 1800 1808 1816 1824 1832 1840 1848 1856 1864 1872 1880 1888 1896 1904 1912 1920 1928 1936 1944 1952 1960 1968 1976 1984 1992 2000 2008 2016 2024 2032 2040 2048 2056 2064 2072 2080 2088 2096 2104 2112 2120 2128 2136 2144 2152 2160 2168 2176 2184 2192 2200 2208 2216 2224 2232 2240 2248 2256 2264 2272 2280 2288 2296 2304 2312 2320 2328 2336 2344 2352 2360 2368 2376 2384 2392 2400 2408 2416 2424 2432 2440 2448 2456 2464 2472 2480 2488 2496 2504 2512 2520 2528 2536 2544 2552 2560 2568 2576 2584 2592 2600 2608 2616 2624 2632 2640 2648 2656 2664 2672 2680 2688 2696 2704 2712 2720 2728 2736 2744 2752 2760 2768 2776 2784 2792 2800 2808 2816 2824 2832 2840 2848 2856 2864 2872 2880 2888 2896 2904 2912 2920 2928 2936 2944 2952 2960 2968 2976 2984 2992 3000 3008 3016 3024 3032 3040 3048 3056 3064 3072 3080 3088 3096 3104 3112 3120 3128 3136 3144 3152 3160 3168 3176 3184 3192 3200 3208 3216 3224 3232 3240 3248 3256 3264 3272 3280 3288 3296 3304 3312 3320 3328 3336 3344 3352 3360 3368 3376 3384 3392 3400 3408 3416 3424 3432 3440 3448 3456 3464 3472 3480 3488 3496 3504 3512 3520 3528 3536 3544 3552 3560 3568 3576 3584 3592 3600 3608 3616 3624 3632 3640 3648 3656 3664 3672 3680 3688 3696 3704 3712 3720 3728 3736 3744 3752 3760 3768 3776 3784 3792 3800 3808 3816 3824 3832 3840 3848 3856 3864 3872 3880 3888 3896 3904 3912 3920 3928 3936 3944 3952 3960 3968 3976 3984 3992 4000 4008 4016 4024 4032 4040 4048 4056 4064 4072 4080 4088 4096 4104 4112 4120 4128 4136 4144 4152 4160 4168 4176 4184 4192 4200 4208 4216 4224 4232 4240 4248 4256 4264 4272 4280 4288 4296 4304 4312 4320 4328 4336 4344 4352 4360 4368 4376 4384 4392 4400 4408 4416 4424 4432 4440 4448 4456 4464 4472 4480 4488 4496 4504 4512 4520 4528 4536 4544 4552 4560 4568 4576 4584 4592 4600 4608 4616 4624 4632 4640 4648 4656 4664 4672 4680 4688 4696 4704 4712 4720 4728 4736 4744 4752 4760 4768 4776 4784 4792 4800 4808 4816 4824 4832 4840 4848 4856 4864 4872 4880 4888 4896 4904 4912 4920 4928 4936 4944 4952 4960 4968 4976 4984 4992 5000 5008 5016 5024 5032 5040 5048 5056 5064 5072 5080 5088 5096 5104 5112 5120 5128 5136 5144 5152 5160 5168 5176 5184 5192 5200 5208 5216 5224 5232 5240 5248 5256 5264 5272 5280 5288 5296 5304 5312 5320 5328 5336 5344 5352 5360 5368 5376 5384 5392 5400 5408 5416 5424 5432 5440 5448 5456 5464 5472 5480 5488 5496 5504 5512 5520 5528 5536 5544 5552 5560 5568 5576 5584 5592 5600 5608 5616 5624 5632 5640 5648 5656 5664 5672 5680 5688 5696 5704 5712 5720 5728 5736 5744 5752 5760 5768 5776 5784 5792 5800 5808 5816 5824 5832 5840 5848 5856 5864 5872 5880 5888 5896 5904 5912 5920 5928 5936 5944 5952 5960 5968 5976 5984 5992 6000 6008 6016 6024 6032 6040 6048 6056 6064 6072 6080 6088 6096 6104 6112 6120 6128 6136 6144 6152 6160 6168 6176 6184 6192 6200 6208 6216 6224 6232 6240 6248 6256 6264 6272 6280 6288 6296 6304 6312 6320 6328 6336 6344 6352 6360 6368 6376 6384 6392 6400 6408 6416 6424 6432 6440 6448 6456 6464 6472 6480 6488 6496 6504 6512 6520 6528 6536 6544 6552 6560 6568 6576 6584 6592 6600 6608 6616 6624 6632 6640 6648 6656 6664 6672 6680 6688 6696 6704 6712 6720 6728 6736 6744 6752 6760 6768 6776 6784 6792 6800 6808 6816 6824 6832 6840 6848 6856 6864 6872 6880 6888 6896 6904 6912 6920 6928 6936 6944 6952 6960 6968 6976 6984 6992 7000 7008 7016 7024 7032 7040 7048 7056 7064 7072 7080 7088 7096 7104 7112 7120 7128 7136 7144 7152 7160 7168 7176 7184 7192 7200 7208 7216 7224 7232 7240 7248 7256 7264 7272 7280 7288 7296 7304 7312 7320 7328 7336 7344 7352 7360 7368 7376 7384 7392 7400 7408 7416 7424 7432 7440 7448 7456 7464 7472 7480 7488 7496 7504 7512 7520 7528 7536 7544 7552 7560 7568 7576 7584 7592 7600 7608 7616 7624 7632 7640 7648 7656 7664 7672 7680 7688 7696 7704 7712 7720 7728 7736 7744 7752 7760 7768 7776 7784 7792 7800 7808 7816 7824 7832 7840 7848 7856 7864 7872 7880 7888 7896 7904 7912 7920 7928 7936 7944 7952 7960 7968 7976 7984 7992 8000 8008 8016 8024 8032 8040 8048 8056 8064 8072 8080 8088 8096 8104 8112 8120 8128 8136 8144 8152 8160 8168 8176 8184 8192 8200 8208 8216 8224 8232 8240 8248 8256 8264 8272 8280 8288 8296 8304 8312 8320 8328 8336 8344 8352 8360 8368 8376 8384 8392 8400 8408 8416 8424 8432 8440 8448 8456 8464 8472 8480 8488 8496 8504 8512 8520 8528 8536 8544 8552 8560 8568 8576 8584 8592 8600 8608 8616 8624 8632 8640 8648 8656 8664 8672 8680 8688 8696 8704 8712 8720 8728 8736 8744 8752 8760 8768 8776 8784 8792 8800 8808 8816 8824 8832 8840 8848 8856 8864 8872 8880 8888 8896 8904 8912 8920 8928 8936 8944 8952 8960 8968 8976 8984 8992 9000 9008 9016 9024 9032 9040 9048 9056 9064 9072 9080 9088 9096 9104 9112 9120 9128 9136 9144 9152 9160 9168 9176 9184 9192 9200 9208 9216 9224 9232 9240 9248 9256 9264 9272 9280 9288 9296 9304 9312 9320 9328 9336 9344 9352 9360 9368 9376 9384 9392 9400 9408 9416 9424 9432 9440 9448 9456 9464 9472 9480 9488 9496 9504 9512 9520 9528 9536 9544 9552 9560 9568 9576 9584 9592 9600 9608 9616 9624 9632 9640 9648 9656 9664 9672 9680 9688 9696 9704 9712 9720 9728 9736 9744 9752 9760 9768 9776 9784 9792 9800 9808 9816 9824 9832 9840 9848 9856 9864 9872 9880 9888 9896 9904 9912 9920 9928 9936 9944 9952 9960 9968 9976 9984 9992 10000 10008 10016 10024 10032 10040 10048 10056 10064 10072 10080 10088 10096 10104 10112 10120 10128 10136 10144 10152 10160 10168 10176 10184 10192 10200 10208 10216 10224 10232 10240 10248 10256 10264 10272 10280 10288 10296 10304 10312 10320 10328 10336 10344 10352 10360 10368 10376 10384 10392 10400 10408 10416 10424 10432 10440 10448 10456 10464 10472 10480 10488 10496 10504 10512 10520 10528 10536 10544 10552 10560 10568 10576 10584 10592 10600 10608 10616 10624 10632 10640 10648 10656 10664 10672 10680 10688 10696 10704 10712 10720 10728 10736 10744 10752 10760 10768 10776 10784 10792 10800 10808 10816 10824 10832 10840 10848 10856 10864 10872 10880 10888 10896 10904 10912 10920 10928 10936 10944 10952 10960 10968 10976 10984 10992 11000 11008 11016 11024 11032 11040 11048 11056 11064 11072 11080 11088 11096 11104 11112 11120 11128 11136 11144 11152 11160 11168 11176 11184 11192 11200 11208 11216 11224 11232 11240 11248 11256 11264 11272 11280 11288 11296 11304 11312 11320 11328 11336 11344 11352 11360 11368 11376 11384 11392 11400 11408 11416 11424 11432 11440 11448 11456 11464 11472 11480 11488 11496 11504 11512 11520 11528 11536 11544 11552 11560 11568 11576 11584 11592 11600 11608 11616 11624 11632 11640 11648 11656 11664 11672 11680 11688 11696 11704 11712 11720 11728 11736 11744 11752 11760 11768 11776 11784 11792 11800 11808 11816 11824 11832 11840 11848 11856 11864 11872 11880 11888 11896 11904 11912 11920 11928 11936 11944 11952 11960 11968 11976 11984 11992 12000 12008 12016 12024 12032 12040 12048 12056 12064 12072 12080 12088 12096 12104 12112 12120 12128 12136 12144 12152 12160 12168 12176 12184 12192 12200 12208 12216 12224 12232 12240 12248 12256 12264 12272 12280 12288 12296 12304 12312 12320 12328 12336 12344 12352 12360 12368 12376 12384 12392 12400 12408 12416 12424 12432 12440 12448 12456 12464 12472 12480 12488 12496 12504 12512 12520 12528 12536 12544 12552 12560 12568 12576 12584 12592 12600 12608 12616 12624 12632 12640 12648 12656 12664 12672 12680 12688 12696 12704 12712 12720 12728 12736 12744 12752 12760 12768 12776 12784 12792 12800 12808 12816 12824 12832 12840 12848 12856 12864 12872 12880 12888 12896 12904 12912 12920 12928 12936 12944 12952 12960 12968 12976 12984 12992 13000 13008 13016 13024 13032 13040 13048 13056 13064 13072 13080 13088 13096 13104 13112 13120 13128 13136 13144 13152 13160 13168 13176 13184 13192 13200 13208 13216 13224 13232 13240 13248 13256 13264 13272 13280 13288 13296 13304 13312 13320 13328 13336 13344 13352 13360 13368 13376 13384 13392 13400 13408 13416 13424 13432 13440 13448 13456 13464 13472 13480 13488 13496 13504 13512 13520 13528 13536 13544 13552 13560 13568 13576 13584 13592 13600 13608 13616 13624 13632 13640 13648 13656 13664 13672 13680 13688 13696 13704 13712 13720 13728 13736 13744 13752 13760 13768 13776 13784 13792 13800 13808 13816 13824 13832 13840 13848 13856 13864 13872 13880 13888 13896 13904 13912 13920 13928 13936 13944 13952 13960 13968 13976 13984 13992 14000 14008 14016 14024 14032 14040 14048 14056 14064 14072 14080 14088 14096 14104 14112 14120 14128 14136 14144 14152 14160 14168 14176 14184 14192 14200 14208 14216 14224 14232 14240 14248 14256 14264 14272 14280 14288 14296 14304 14312 14320 14328 14336 14344 14352 14360 14368 14376 14384 14392 14400 14408 14416 14424 14432 14440 14448 14456 14464 14472 14480 14488 14496 14504 14512 14520 14528 14536 14544 14552 14560 14568 14576 14584 14592 14600 14608 14616 14624 14632 14640 14648 14656 14664 14672 14680 14688 14696 14704 14712 14720 14728 14736 14744 14752 14760 14768 14776 14784 14792 14800 14808 14816 14824 14832 14840 14848 14856 14864 14872 14880 14888 14896 14904 14912 14920 14928 14936 14944 14952 14960 14968 14976 14984 14992 15000 15008 15016 15024 15032 15040 15048 15056 15064 15072 15080 15088 15096 15104 15112 15120 15128 15136 15144 15152 15160 15168 15176 15184 15192 15200 15208 15216 15224 15232 15240 15248 15256 15264 15272 15280 15288 15296 15304 15312 15320 15328 15336 15344 15352 15360 15368 15376 15384 15392 15400 15408 15416 15424 15432 15440 15448 15456 15464 15472 15480 15488 15496 15504 15512 15520 15528 15536 15544 15552 15560 15568 15576 15584 15592 15600 15608 15616 15624 15632 15640 15648 15656 15664 15672 15680 15688 15696 15704 15712 15720 15728 15736 15744 15752 15760 15768 15776 15784 15792 15800 15808 15816 15824 15832 15840 15848 15856 15864 15872 15880 15888 15896 15904 15912 15920 15928 15936 15944 15952 15960 15968 15976 15984 15992 16000 16008 16016 16024 16032 16040 16048 16056 16064 16072 16080 16088 16096 16104 16112 16120 16128 16136 16144 16152 16160 16168 16176 16184 16192 16200 16208 16216 16224 16232 16240 16248 16256 16264 16272 16280 16288 16296 16304 16312 16320 16328 16336 16344 16352 16360 16368 16376 16384 
CONNECTIVITY vtktypeint64
0 1 298 297 33 34 331 330 
1 2 299 298 34 35 332 331 
2 3 300 299 35 36 333 332 
3 4 301 300 36 37 334 333 
4 5 302 301 37 38 335 334 
5 6 303 302 38 39 336 335 
6 7 304 303 39 40 337 336 
7 8 305 304 40 41 338 337 
8 9 306 305 41 42 339 338 
9 10 307 306 42 43 340 339 
10 11 308 307 43 44 341 340 
11 12 309 308 44 45 342 341 
12 13 310 309 45 46 343 342 
13 14 311 310 46 47 344 343 
14 15 312 311 47 48 345 344 
15 16 313 312 48 49 346 345 
16 17 314 313 49 50 347 346 
17 18 315 314 50 51 348 347 
18 19 316 315 51 52 349 348 
19 20 317 316 52 53 350 349 
20 21 318 317 53 54 351 350 
21 22 319 318 54 55 352 351 
22 23 320 319 55 56 353 352 
23 24 321 320 56 57 354 353 
24 25 322 321 57 58 355 354 
25 26 323 322 58 59 356 355 
26 27 324 323 59 60 357 356 
27 28 325 324 60 61 358 357 
28 29 326 325 61 62 359 358 
29 30 327 326 62 63 360 359 
30 31 328 327 63 64 361 360 
31 32 329 328 64 65 362 361 
33 34 331 330 66 67 364 363 
34 35 332 331 67 68 365 364 
35 36 333 332 68 69 366 365 
36 37 334 333 69 70 367 366 
37 38 335 334 70 71 368 367 
38 39 336 335 71 72 369 368 
39 40 337 336 72 73 370 369 
40 41 338 337 73 74 371 370 
41 42 339 338 74 75 372 371 
42 43 340 339 75 76 373 372 
43 44 341 340 76 77 374 373 
44 45 342 341 77 78 375 374 
45 46 343 342 78 79 376 375 
46 47 344 343 79 80 377 376 
47 48 345 344 80 81 378 377 
48 49 346 345 81 82 379 378 
49 50 347 346 82 83 380 379 
50 51 348 347 83 84 381 380 
51 52 349 348 84 85 382 381 
52 53 350 349 85 86 383 382 
53 54 351 350 86 87 384 383 
54 55 352 351 87 88 385 384 
55 56 353 352 88 89 386 385 
56 57 354 353 89 90 387 386 
57 58 355 354 90 91 388 387 
58 59 356 355 91 92 389 388 
59 60 357 356 92 93 390 389 
60 61 358 357 93 94 391 390 
61 62 359 358 94 95 392 391 
62 63 360 359 95 96 393 392 
63 64 361 360 96 97 394 393 
64 65 362 361 97 98 395 394 
66 67 364 363 99 100 397 396 
67 68 365 364 100 101 398 397 
68 69 366 365 101 102 399 398 
69 70 367 366 102 103 400 399 
70 71 368 367 103 104 401 400 
71 72 369 368 104 105 402 401 
72 73 370 369 105 106 403 402 
73 74 371 370 106 107 404 403 
74 75 372 371 107 108 405 404 
75 76 373 372 108 109 406 405 
76 77 374 373 109 110 407 406 
77 78 375 374 110 111 408 407 
78 79 376 375 111 112 409 408 
79 80 377 376 112 113 410 409 
80 81 378 377 113 114 411 410 
81 82 379 378 114 115 412 411 
82 83 380 379 115 116 413 412 
83 84 381 380 116 117 414 413 
84 85 382 381 117 118 415 414 
85 86 383 382 118 119 416 415 
86 87 384 383 119 120 417 416 
87 88 385 384 120 121 418 417 
88 89 386 385 121 122 419 418 
89 90 387 386 122 123 420 419 
90 91 388 387 123 124 421 420 
91 92 389 388 124 125 422 421 
92 93 390 389 125 126 423 422 
93 94 391 390 126 127 424 423 
94 95 392 391 127 128 425 424 
95 96 393 392 128 129 426 425 
96 97 394 393 129 130 427 426 
97 98 395 394 130 131 428 427 
99 100 397 396 132 133 430 429 
100 101 398 397 133 134 431 430 
101 102 399 398 134 135 432 431 
102 103 400 399 135 136 433 432 
103 104 401 400 136 137 434 433 
104 105 402 401 137 138 435 434 
105 106 403 402 138 139 436 435 
106 107 404 403 139 140 437 436 
107 108 405 404 140 141 438 437 
108 109 406 405 141 142 439 438 
109 110 407 406 142 143 440 439 
110 111 408 407 143 144 441 440 
111 112 409 408 144 145 442 441 
112 113 410 409 145 146 443 442 
113 114 411 410 146 147 444 443 
114 115 412 411 147 148 445 444 
115 116 413 412 148 149 446 445 
116 117 414 413 149 150 447 446 
117 118 415 414 150 151 448 447 
118 119 416 415 151 152 449 448 
119 120 417 416 152 153 450 449 
120 121 418 417 153 154 451 450 
121 122 419 418 154 155 452 451 
122 123 420 419 155 156 453 452 
123 124 421 420 156 157 454 453 
124 125 422 421 157 158 455 454 
125 126 423 422 158 159 456 455 
126 127 424 423 159 160 457 456 
127 128 425 424 160 161 458 457 
128 129 426 425 161 162 459 458 
129 130 427 426 162 163 460 459 
130 131 428 427 163 164 461 460 
132 133 430 429 165 166 463 462 
133 134 431 430 166 167 464 463 
134 135 432 431 167 168 465 464 
135 136 433 432 168 169 466 465 
136 137 434 433 169 170 467 466 
137 138 435 434 170 171 468 467 
138 139 436 435 171 172 469 468 
139 140 437 436 172 173 470 469 
140 141 438 437 173 174 471 470 
141 142 439 438 174 175 472 471 
142 143 440 439 175 176 473 472 
143 144 441 440 176 177 474 473 
144 145 442 441 177 178 475 474 
145 146 443 442 178 179 476 475 
146 147 444 443 179 180 477 476 
147 148 445 444 180 181 478 477 
148 149 446 445 181 182 479 478 
149 150 447 446 182 183 480 479 
150 151 448 447 183 184 481 480 
151 152 449 448 184 185 482 481 
152 153 450 449 185 186 483 482 
153 154 451 450 186 187 484 483 
154 155 452 451 187 188 485 484 
155 156 453 452 188 189 486 485 
156 157 454 453 189 190 487 486 
157 158 455 454 190 191 488 487 
158 159 456 455 191 192 489 488 
159 160 457 456 192 193 490 489 
160 161 458 457 193 194 491 490 
161 162 459 458 194 195 492 491 
162 163 460 459 195 196 493 492 
163 164 461 460 196 197 494 493 
165 166 463 462 198 199 496 495 
166 167 464 463 199 200 497 496 
167 168 465 464 200 201 498 497 
168 169 466 465 201 202 499 498 
169 170 467 466 202 203 500 499 
170 171 468 467 203 204 501 500 
171 172 469 468 204 205 502 501 
172 173 470 469 205 206 503 502 
173 174 471 470 206 207 504 503 
174 175 472 471 207 208 505 504 
175 176 473 472 208 209 506 505 
176 177 474 473 209 210 507 506 
177 178 475 474 210 211 508 507 
178 179 476 475 211 212 509 508 
179 180 477 476 212 213 510 509 
180 181 478 477 213 214 511 510 
181 182 479 478 214 215 512 511 
182 183 480 479 215 216 513 512 
183 184 481 480 216 217 514 513 
184 185 482 481 217 218 515 514 
185 186 483 482 218 219 516 515 
186 187 484 483 219 220 517 516 
187 188 485 484 220 221 518 517 
188 189 486 485 221 222 519 518 
189 190 487 486 222 223 520 519 
190 191 488 487 223 224 521 520 
191 192 489 488 224 225 522 521 
192 193 490 489 225 226 523 522 
193 194 491 490 226 227 524 523 
194 195 492 491 227 228 525 524 
195 196 493 492 228 229 526 525 
196 197 494 493 229 230 527 526 
198 199 496 495 231 232 529 528 
199 200 497 496 232 233 530 529 
200 201 498 497 233 234 531 530 
201 202 499 498 234 235 532 531 
202 203 500 499 235 236 533 532 
203 204 501 500 236 237 534 533 
204 205 502 501 237 238 535 534 
205 206 503 502 238 239 536 535 
206 207 504 503 239 240 537 536 
207 208 505 504 240 241 538 537 
208 209 506 505 241 242 539 538 
209 210 507 506 242 243 540 539 
210 211 508 507 243 244 541 540 
211 212 509 508 244 245 542 541 
212 213 510 509 245 246 543 542 
213 214 511 510 246 247 544 543 
214 215 512 511 247 248 545 544 
215 216 513 512 248 249 546 545 
216 217 514 513 249 250 547 546 
217 218 515 514 250 251 548 547 
218 219 516 515 251 252 549 548 
219 220 517 516 252 253 550 549 
220 221 518 517 253 254 551 550 
221 222 519 518 254 255 552 551 
222 223 520 519 255 256 553 552 
223 224 521 520 256 257 554 553 
224 225 522 521 257 258 555 554 
225 226 523 522 258 259 556 555 
226 227 524 523 259 260 557 556 
227 228 525 524 260 261 558 557 
228 229 526 525 261 262 559 558 
229 230 527 526 262 263 560 559 
231 232 529 528 264 265 562 561 
232 233 530 529 265 266 563 562 
233 234 531 530 266 267 564 563 
234 235 532 531 267 268 565 564 
235 236 533 532 268 269 566 565 
236 237 534 533 269 270 567 566 
237 238 535 534 270 271 568 567 
238 239 536 535 271 272 569 568 
239 240 537 536 272 273 570 569 
240 241 538 537 273 274 571 570 
241 242 539 538 274 275 572 571 
242 243 540 539 275 276 573 572 
243 244 541 540 276 277 574 573 
244 245 542 541 277 278 575 574 
245 246 543 542 278 279 576 575 
246 247 544 543 279 280 577 576 
247 248 545 544 280 281 578 577 
248 249 546 545 281 282 579 578 
249 250 547 546 282 283 580 579 
250 251 548 547 283 284 581 580 
251 252 549 548 284 285 582 581 
252 253 550 549 285 286 583 582 
253 254 551 550 286 287 584 583 
254 255 552 551 287 288 585 584 
255 256 553 552 288 289 586 585 
256 257 554 553 289 290 587 586 
257 258 555 554 290 291 588 587 
258 259 556 555 291 292 589 588 
259 260 557 556 292 293 590 589 
260 261 558 557 293 294 591 590 
261 262 559 558 294 295 592 591 
262 263 560 559 295 296 593 592 
297 298 595 594 330 331 628 627 
298 299 596 595 331 332 629 628 
299 300 597 596 332 333 630 629 
300 301 598 597 333 334 631 630 
301 302 599 598 334 335 632 631 
302 303 600 599 335 336 633 632 
303 304 601 600 336 337 634 633 
304 305 602 601 337 338 635 634 
305 306 603 602 338 339 636 635 
306 307 604 603 339 340 637 636 
307 308 605 604 340 341 638 637 
308 309 606 605 341 342 639 638 
309 310 607 606 342 343 640 639 
310 311 608 607 343 344 641 640 
311 312 609 608 344 345 642 641 
312 313 610 609 345 346 643 642 
313 314 611 610 346 347 644 643 
314 315 612 611 347 348 645 644 
315 316 613 612 348 349 646 645 
316 317 614 613 349 350 647 646 
317 318 615 614 350 351 648 647 
318 319 616 615 351 352 649 648 
319 320 617 616 352 353 650 649 
320 321 618 617 353 354 651 650 
321 322 619 618 354 355 652 651 
322 323 620 619 355 356 653 652 
323 324 621 620 356 357 654 653 
324 325 622 621 357 358 655 654 
325 326 623 622 358 359 656 655 
326 327 624 623 359 360 657 656 
327 328 625 624 360 361 658 657 
328 329 626 625 361 362 659 658 
330 331 628 627 363 364 661 660 
331 332 629 628 364 365 662 661 
332 333 630 629 365 366 663 662 
333 334 631 630 366 367 664 663 
334 335 632 631 367 368 665 664 
335 336 633 632 368 369 666 665 
336 337 634 633 369 370 667 666 
337 338 635 634 370 371 668 667 
338 339 636 635 371 372 669 668 
339 340 637 636 372 373 670 669 
340 341 638 637 373 374 671 670 
341 342 639 638 374 375 672 671 
342 343 640 639 375 376 673 672 
343 344 641 640 376 377 674 673 
344 345 642 641 377 378 675 674 
345 346 643 642 378 379 676 675 
346 347 644 643 379 380 677 676 
347 348 645 644 380 381 678 677 
348 349 646 645 381 382 679 678 
349 350 647 646 382 383 680 679 
350 351 648 647 383 384 681 680 
351 352 649 648 384 385 682 681 
352 353 650 649 385 386 683 682 
353 354 651 650 386 387 684 683 
354 355 652 651 387 388 685 684 
355 356 653 652 388 389 686 685 
356 357 654 653 389 390 687 686 
357 358 655 654 390 391 688 687 
358 359 656 655 391 392 689 688 
359 360 657 656 392 393 690 689 
360 361 658 657 393 394 691 690 
361 362 659 658 394 395 692 691 
363 364 661 660 396 397 694 693 
364 365 662 661 397 398 695 694 
365 366 663 662 398 399 696 695 
366 367 664 663 399 400 697 696 
367 368 665 664 400 401 698 697 
368 369 666 665 401 402 699 698 
369 370 667 666 402 403 700 699 
370 371 668 667 403 404 701 700 
371 372 669 668 404 405 702 701 
372 373 670 669 405 406 703 702 
373 374 671 670 406 407 704 703 
374 375 672 671 407 408 705 704 
375 376 673 672 408 409 706 705 
376 377 674 673 409 410 707 706 
377 378 675 674 410 411 708 707 
378 379 676 675 411 412 709 708 
379 380 677 676 412 413 710 709 
380 381 678 677 413 414 711 710 
381 382 679 678 414 415 712 711 
382 383 680 679 415 416 713 712 
383 384 681 680 416 417 714 713 
384 385 682 681 417 418 715 714 
385 386 683 682 418 419 716 715 
386 387 684 683 419 420 717 716 
387 388 685 684 420 421 718 717 
388 389 686 685 421 422 719 718 
389 390 687 686 422 423 720 719 
390 391 688 687 423 424 721 720 
391 392 689 688 424 425 722 721 
392 393 690 689 425 426 723 722 
393 394 691 690 426 427 724 723 
394 395 692 691 427 428 725 724 
396 397 694 693 429 430 727 726 
397 398 695 694 430 431 728 727 
398 399 696 695 431 432 729 728 
399 400 697 696 432 433 730 729 
400 401 698 697 433 434 731 730 
401 402 699 698 434 435 732 731 
402 403 700 699 435 436 733 732 
403 404 701 700 436 437 734 733 
404 405 702 701 437 438 735 734 
405 406 703 702 438 439 736 735 
406 407 704 703 439 440 737 736 
407 408 705 704 440 441 738 737 
408 409 706 705 441 442 739 738 
409 410 707 706 442 443 740 739 
410 411 708 707 443 444 741 740 
411 412 709 708 444 445 742 741 
412 413 710 709 445 446 743 742 
413 414 711 710 446 447 744 743 
414 415 712 711 447 448 745 744 
415 416 713 712 448 449 746 745 
416 417 714 713 449 450 747 746 
417 418 715 714 450 451 748 747 
418 419 716 715 451 452 749 748 
419 420 717 716 452 453 750 749 
420 421 718 717 453 454 751 750 
421 422 719 718 454 455 752 751 
422 423 720 719 455 456 753 752 
423 424 721 720 456 457 754 753 
424 425 722 721 457 458 755 754 
425 426 723 722 458 459 756 755 
426 427 724 723 459 460 757 756 
427 428 725 724 460 461 758 757 
429 430 727 726 462 463 760 759 
430 431 728 727 463 464 761 760 
431 432 729 728 464 465 762 761 
432 433 730 729 465 466 763 762 
433 434 731 730 466 467 764 763 
434 435 732 731 467 468 765 764 
435 436 733 732 468 469 766 765 
436 437 734 733 469 470 767 766 
437 438 735 734 470 471 768 767 
438 439 736 735 471 472 769 768 
439 440 737 736 472 473 770 769 
440 441 738 737 473 474 771 770 
441 442 739 738 474 475 772 771 
442 443 740 739 475 476 773 772 
443 444 741 740 476 477 774 773 
444 445 742 741 477 478 775 774 
445 446 743 742 478 479 776 775 
446 447 744 743 479 480 777 776 
447 448 745 744 480 481 778 777 
448 449 746 745 481 482 779 778 
449 450 747 746 482 483 780 779 
450 451 748 747 483 484 781 780 
451 452 749 748 484 485 782 781 
452 453 750 749 485 486 783 782 
453 454 751 750 486 487 784 783 
454 455 752 751 487 488 785 784 
455 456 753 752 488 489 786 785 
456 457 754 753 489 490 787 786 
457 458 755 754 490 491 788 787 
458 459 756 755 491 492 789 788 
459 460 757 756 492 493 790 789 
460 461 758 757 493 494 791 790 
462 463 760 759 495 496 793 792 
463 464 761 760 496 497 794 793 
464 465 762 761 497 498 795 794 
465 466 763 762 498 499 796 795 
466 467 764 763 499 500 797 796 
467 468 765 764 500 501 798 797 
468 469 766 765 501 502 799 798 
469 470 767 766 502 503 800 799 
470 471 768 767 503 504 801 800 
471 472 769 768 504 505 802 801 
472 473 770 769 505 506 803 802 
473 474 771 770 506 507 804 803 
474 475 772 771 507 508 805 804 
475 476 773 772 508 509 806 805 
476 477 774 773 509 510 807 806 
477 478 775 774 510 511 808 807 
478 479 776 775 511 512 809 808 
479 480 777 776 512 513 810 809 
480 481 778 777 513 514 811 810 
481 482 779 778 514 515 812 811 
482 483 780 779 515 516 813 812 
483 484 781 780 516 517 814 813 
484 485 782 781 517 518 815 814 
485 486 783 782 518 519 816 815 
486 487 784 783 519 520 817 816 
487 488 785 784 520 521 818 817 
488 489 786 785 521 522 819 818 
489 490 787 786 522 523 820 819 
490 491 788 787 523 524 821 820 
491 492 789 788 524 525 822 821 
492 493 790 789 525 526 823 822 
493 494 791 790 526 527 824 823 
495 496 793 792 528 529 826 825 
496 497 794 793 529 530 827 826 
497 498 795 794 530 531 828 827 
498 499 796 795 531 532 829 828 
499 500 797 796 532 533 830 829 
500 501 798 797 533 534 831 830 
501 502 799 798 534 535 832 831 
502 503 800 799 535 536 833 832 
503 504 801 800 536 537 834 833 
504 505 802 801 537 538 835 834 
505 506 803 802 538 539 836 835 
506 507 804 803 539 540 837 836 
507 508 805 804 540 541 838 837 
508 509 806 805 541 542 839 838 
509 510 807 806 542 543 840 839 
510 511 808 807 543 544 841 840 
511 512 809 808 544 545 842 841 
512 513 810 809 545 546 843 842 
513 514 811 810 546 547 844 843 
514 515 812 811 547 548 845 844 
515 516 813 812 548 549 846 845 
516 517 814 813 549 550 847 846 
517 518 815 814 550 551 848 847 
518 519 816 815 551 552 849 848 
519 520 817 816 552 553 850 849 
520 521 818 817 553 554 851 850 
521 522 819 818 554 555 852 851 
522 523 820 819 555 556 853 852 
523 524 821 820 556 557 854 853 
524 525 822 821 557 558 855 854 
525 526 823 822 558 559 856 855 
526 527 824 823 559 560 857 856 
528 529 826 825 561 562 859 858 
529 530 827 826 562 563 860 859 
530 531 828 827 563 564 861 860 
531 532 829 828 564 565 862 861 
532 533 830 829 565 566 863 862 
533 534 831 830 566 567 864 863 
534 535 832 831 567 568 865 864 
535 536 833 832 568 569 866 865 
536 537 834 833 569 570 867 866 
537 538 835 834 570 571 868 867 
538 539 836 835 571 572 869 868 
539 540 837 836 572 573 870 869 
540 541 838 837 573 574 871 870 
541 542 839 838 574 575 872 871 
542 543 840 839 575 576 873 872 
543 544 841 840 576 577 874 873 
544 545 842 841 577 578 875 874 
545 546 843 842 578 579 876 875 
546 547 844 843 579 580 877 876 
547 548 845 844 580 581 878 877 
548 549 846 845 581 582 879 878 
549 550 847 846 582 583 880 879 
550 551 848 847 583 584 881 880 
551 552 849 848 584 585 882 881 
552 553 850 849 585 586 883 882 
553 554 851 850 586 587 884 883 
554 555 852 851 587 588 885 884 
555 556 853 852 588 589 886 885 
556 557 854 853 589 590 887 886 
557 558 855 854 590 591 888 887 
558 559 856 855 591 592 889 888 
559 560 857 856 592 593 890 889 
594 595 892 891 627 628 925 924 
595 596 893 892 628 629 926 925 
596 597 894 893 629 630 927 926 
597 598 895 894 630 631 928 927 
598 599 896 895 631 632 929 928 
599 600 897 896 632 633 930 929 
600 601 898 897 633 634 931 930 
601 602 899 898 634 635 932 931 
602 603 900 899 635 636 933 932 
603 604 901 900 636 637 934 933 
604 605 902 901 637 638 935 934 
605 606 903 902 638 639 936 935 
606 607 904 903 639 640 937 936 
607 608 905 904 640 641 938 937 
608 609 906 905 641 642 939 938 
609 610 907 906 642 643 940 939 
610 611 908 907 643 644 941 940 
611 612 909 908 644 645 942 941 
612 613 910 909 645 646 943 942 
613 614 911 910 646 647 944 943 
614 615 912 911 647 648 945 944 
615 616 913 912 648 649 946 945 
616 617 914 913 649 650 947 946 
617 618 915 914 650 651 948 947 
618 619 916 915 651 652 949 948 
619 620 917 916 652 653 950 949 
620 621 918 917 653 654 951 950 
621 622 919 918 654 655 952 951 
622 623 920 919 655 656 953 952 
623 624 921 920 656 657 954 953 
624 625 922 921 657 658 955 954 
625 626 923 922 658 659 956 955 
627 628 925 924 660 661 958 957 
628 629 926 925 661 662 959 958 
629 630 927 926 662 663 960 959 
630 631 928 927 663 664 961 960 
631 632 929 928 664 665 962 961 
632 633 930 929 665 666 963 962 
633 634 931 930 666 667 964 963 
634 635 932 931 667 668 965 964 
635 636 933 932 668 669 966 965 
636 637 934 933 669 670 967 966 
637 638 935 934 670 671 968 967 
638 639 936 935 671 672 969 968 
639 640 937 936 672 673 970 969 
640 641 938 937 673 674 971 970 
641 642 939 938 674 675 972 971 
642 643 940 939 675 676 973 972 
643 644 941 940 676 677 974 973 
644 645 942 941 677 678 975 974 
645 646 943 942 678 679 976 975 
646 647 944 943 679 680 977 976 
647 648 945 944 680 681 978 977 
648 649 946 945 681 682 979 978 
649 650 947 946 682 683 980 979 
650 651 948 947 683 684 981 980 
651 652 949 948 684 685 982 981 
652 653 950 949 685 686 983 982 
653 654 951 950 686 687 984 983 
654 655 952 951 687 688 985 984 
655 656 953 952 688 689 986 985 
656 657 954 953 689 690 987 986 
657 658 955 954 690 691 988 987 
658 659 956 955 691 692 989 988 
660 661 958 957 693 694 991 990 
661 662 959 958 694 695 992 991 
662 663 960 959 695 696 993 992 
663 664 961 960 696 697 994 993 
664 665 962 961 697 698 995 994 
665 666 963 962 698 699 996 995 
666 667 964 963 699 700 997 996 
667 668 965 964 700 701 998 997 
668 669 966 965 701 702 999 998 
669 670 967 966 702 703 1000 999 
670 671 968 967 703 704 1001 1000 
671 672 969 968 704 705 1002 1001 
672 673 970 969 705 706 1003 1002 
673 674 971 970 706 707 1004 1003 
674 675 972 971 707 708 1005 1004 
675 676 973 972 708 709 1006 1005 
676 677 974 973 709 710 1007 1006 
677 678 975 974 710 711 1008 1007 
678 679 976 975 711 712 1009 1008 
679 680 977 976 712 713 1010 1009 
680 681 978 977 713 714 1011 1010 
681 682 979 978 714 715 1012 1011 
682 683 980 979 715 716 1013 1012 
683 684 981 980 716 717 1014 1013 
684 685 982 981 717 718 1015 1014 
685 686 983 982 718 719 1016 1015 
686 687 984 983 719 720 1017 1016 
687 688 985 984 720 721 1018 1017 
688 689 986 985 721 722 1019 1018 
689 690 987 986 722 723 1020 1019 
690 691 988 987 723 724 1021 1020 
691 692 989 988 724 725 1022 1021 
693 694 991 990 726 727 1024 1023 
694 695 992 991 727 728 1025 1024 
695 696 993 992 728 729 1026 1025 
696 697 994 993 729 730 1027 1026 
697 698 995 994 730 731 1028 1027 
698 699 996 995 731 732 1029 1028 
699 700 997 996 732 733 1030 1029 
700 701 998 997 733 734 1031 1030 
701 702 999 998 734 735 1032 1031 
702 703 1000 999 735 736 1033 1032 
703 704 1001 1000 736 737 1034 1033 
704 705 1002 1001 737 738 1035 1034 
705 706 1003 1002 738 739 1036 1035 
706 707 1004 1003 739 740 1037 1036 
707 708 1005 1004 740 741 1038 1037 
708 709 1006 1005 741 742 1039 1038 
709 710 1007 1006 742 743 1040 1039 
710 711 1008 1007 743 744 1041 1040 
711 712 1009 1008 744 745 1042 1041 
712 713 1010 1009 745 746 1043 1042 
713 714 1011 1010 746 747 1044 1043 
714 715 1012 1011 747 748 1045 1044 
715 716 1013 1012 748 749 1046 1045 
716 717 1014 1013 749 750 1047 1046 
717 718 1015 1014 750 751 1048 1047 
718 719 1016 1015 751 752 1049 1048 
719 720 1017 1016 752 753 1050 1049 
720 721 1018 1017 753 754 1051 1050 
721 722 1019 1018 754 755 1052 1051 
722 723 1020 1019 755 756 1053 1052 
723 724 1021 1020 756 757 1054 1053 
724 725 1022 1021 757 758 1055 1054 
726 727 1024 1023 759 760 1057 1056 
727 728 1025 1024 760 761 1058 1057 
728 729 1026 1025 761 762 1059 1058 
729 730 1027 1026 762 763 1060 1059 
730 731 1028 1027 763 764 1061 1060 
731 732 1029 1028 764 765 1062 1061 
732 733 1030 1029 765 766 1063 1062 
733 734 1031 1030 766 767 1064 1063 
734 735 1032 1031 767 768 1065 1064 
735 736 1033 1032 768 769 1066 1065 
736 737 1034 1033 769 770 1067 1066 
737 738 1035 1034 770 771 1068 1067 
738 739 1036 1035 771 772 1069 1068 
739 740 1037 1036 772 773 1070 1069 
740 741 1038 1037 773 774 1071 1070 
741 742 1039 1038 774 775 1072 1071 
742 743 1040 1039 775 776 1073 1072 
743 744 1041 1040 776 777 1074 1073 
744 745 1042 1041 777 778 1075 1074 
745 746 1043 1042 778 779 1076 1075 
746 747 1044 1043 779 780 1077 1076 
747 748 1045 1044 780 781 1078 1077 
748 749 1046 1045 781 782 1079 1078 
749 750 1047 1046 782 783 1080 1079 
750 751 1048 1047 783 784 1081 1080 
751 752 1049 1048 784 785 1082 1081 
752 753 1050 1049 785 786 1083 1082 
753 754 1051 1050 786 787 1084 1083 
754 755 1052 1051 787 788 1085 1084 
755 756 1053 1052 788 789 1086 1085 
756 757 1054 1053 789 790 1087 1086 
757 758 1055 1054 790 791 1088 1087 
759 760 1057 1056 792 793 1090 1089 
760 761 1058 1057 793 794 1091 1090 
761 762 1059 1058 794 795 1092 1091 
762 763 1060 1059 795 796 1093 1092 
763 764 1061 1060 796 797 1094 1093 
764 765 1062 1061 797 798 1095 1094 
765 766 1063 1062 798 799 1096 1095 
766 767 1064 1063 799 800 1097 1096 
767 768 1065 1064 800 801 1098 1097 
768 769 1066 1065 801 802 1099 1098 
769 770 1067 1066 802 803 1100 1099 
770 771 1068 1067 803 804 1101 1100 
771 772 1069 1068 804 805 1102 1101 
772 773 1070 1069 805 806 1103 1102 
773 774 1071 1070 806 807 1104 1103 
774 775 1072 1071 807 808 1105 1104 
775 776 1073 1072 808 809 1106 1105 
776 777 1074 1073 809 810 1107 1106 
777 778 1075 1074 810 811 1108 1107 
778 779 1076 1075 811 812 1109 1108 
779 780 1077 1076 812 813 1110 1109 
780 781 1078 1077 813 814 1111 1110 
781 782 1079 1078 814 815 1112 1111 
782 783 1080 1079 815 816 1113 1112 
783 784 1081 1080 816 817 1114 1113 
784 785 1082 1081 817 818 1115 1114 
785 786 1083 1082 818 819 1116 1115 
786 787 1084 1083 819 820 1117 1116 
787 788 1085 1084 820 821 1118 1117 
788 789 1086 1085 821 822 1119 1118 
789 790 1087 1086 822 823 1120 1119 
790 791 1088 1087 823 824 1121 1120 
792 793 1090 1089 825 826 1123 1122 
793 794 1091 1090 826 827 1124 1123 
794 795 1092 1091 827 828 1125 1124 
795 796 1093 1092 828 829 1126 1125 
796 797 1094 1093 829 830 1127 1126 
797 798 1095 1094 830 831 1128 1127 
798 799 1096 1095 831 832 1129 1128 
799 800 1097 1096 832 833 1130 1129 
800 801 1098 1097 833 834 1131 1130 
801 802 1099 1098 834 835 1132 1131 
802 803 1100 1099 835 836 1133 1132 
803 804 1101 1100 836 837 1134 1133 
804 805 1102 1101 837 838 1135 1134 
805 806 1103 1102 838 839 1136 1135 
806 807 1104 1103 839 840 1137 1136 
807 808 1105 1104 840 841 1138 1137 
808 809 1106 1105 841 842 1139 1138 
809 810 1107 1106 842 843 1140 1139 
810 811 1108 1107 843 844 1141 1140 
811 812 1109 1108 844 845 1142 1141 
812 813 1110 1109 845 846 1143 1142 
813 814 1111 1110 846 847 1144 1143 
814 815 1112 1111 847 848 1145 1144 
815 816 1113 1112 848 849 1146 1145 
816 817 1114 1113 849 850 1147 1146 
817 818 1115 1114 850 851 1148 1147 
818 819 1116 1115 851 852 1149 1148 
819 820 1117 1116 852 853 1150 1149 
820 821 1118 1117 853 854 1151 1150 
821 822 1119 1118 854 855 1152 1151 
822 823 1120 1119 855 856 1153 1152 
823 824 1121 1120 856 857 1154 1153 
825 826 1123 1122 858 859 1156 1155 
826 827 1124 1123 859 860 1157 1156 
827 828 1125 1124 860 861 1158 1157 
828 829 1126 1125 861 862 1159 1158 
829 830 1127 1126 862 863 1160 1159 
830 831 1128 1127 863 864 1161 1160 
831 832 1129 1128 864 865 1162 1161 
832 833 1130 1129 865 866 1163 1162 
833 834 1131 1130 866 867 1164 1163 
834 835 1132 1131 867 868 1165 1164 
835 836 1133 1132 868 869 1166 1165 
836 837 1134 1133 869 870 1167 1166 
837 838 1135 1134 870 871 1168 1167 
838 839 1136 1135 871 872 1169 1168 
839 840 1137 1136 872 873 1170 1169 
840 841 1138 1137 873 874 1171 1170 
841 842 1139 1138 874 875 1172 1171 
842 843 1140 1139 875 876 1173 1172 
843 844 1141 1140 876 877 1174 1173 
844 845 1142 1141 877 878 1175 1174 
845 846 1143 1142 878 879 1176 1175 
846 847 1144 1143 879 880 1177 1176 
847 848 1145 1144 880 881 1178 1177 
848 849 1146 1145 881 882 1179 1178 
849 850 1147 1146 882 883 1180 1179 
850 851 1148 1147 883 884 1181 1180 
851 852 1149 1148 884 885 1182 1181 
852 853 1150 1149 885 886 1183 1182 
853 854 1151 1150 886 887 1184 1183 
854 855 1152 1151 887 888 1185 1184 
855 856 1153 1152 888 889 1186 1185 
856 857 1154 1153 889 890 1187 1186 
891 892 1189 1188 924 925 1222 1221 
892 893 1190 1189 925 926 1223 1222 
893 894 1191 1190 926 927 1224 1223 
894 895 1192 1191 927 928 1225 1224 
895 896 1193 1192 928 929 1226 1225 
896 897 1194 1193 929 930 1227 1226 
897 898 1195 1194 930 931 1228 1227 
898 899 1196 1195 931 932 1229 1228 
899 900 1197 1196 932 933 1230 1229 
900 901 1198 1197 933 934 1231 1230 
901 902 1199 1198 934 935 1232 1231 
902 903 1200 1199 935 936 1233 1232 
903 904 1201 1200 936 937 1234 1233 
904 905 1202 1201 937 938 1235 1234 
905 906 1203 1202 938 939 1236 1235 
906 907 1204 1203 939 940 1237 1236 
907 908 1205 1204 940 941 1238 1237 
908 909 1206 1205 941 942 1239 1238 
909 910 1207 1206 942 943 1240 1239 
910 911 1208 1207 943 944 1241 1240 
911 912 1209 1208 944 945 1242 1241 
912 913 1210 1209 945 946 1243 1242 
913 914 1211 1210 946 947 1244 1243 
914 915 1212 1211 947 948 1245 1244 
915 916 1213 1212 948 949 1246 1245 
916 917 1214 1213 949 950 1247 1246 
917 918 1215 1214 950 951 1248 1247 
918 919 1216 1215 951 952 1249 1248 
919 920 1217 1216 952 953 1250 1249 
920 921 1218 1217 953 954 1251 1250 
921 922 1219 1218 954 955 1252 1251 
922 923 1220 1219 955 956 1253 1252 
924 925 1222 1221 957 958 1255 1254 
925 926 1223 1222 958 959 1256 1255 
926 927 1224 1223 959 960 1257 1256 
927 928 1225 1224 960 961 1258 1257 
928 929 1226 1225 961 962 1259 1258 
929 930 1227 1226 962 963 1260 1259 
930 931 1228 1227 963 964 1261 1260 
931 932 1229 1228 964 965 1262 1261 
932 933 1230 1229 965 966 1263 1262 
933 934 1231 1230 966 967 1264 1263 
934 935 1232 1231 967 968 1265 1264 
935 936 1233 1232 968 969 1266 1265 
936 937 1234 1233 969 970 1267 1266 
937 938 1235 1234 970 971 1268 1267 
938 939 1236 1235 971 972 1269 1268 
939 940 1237 1236 972 973 1270 1269 
940 941 1238 1237 973 974 1271 1270 
941 942 1239 1238 974 975 1272 1271 
942 943 1240 1239 975 976 1273 1272 
943 944 1241 1240 976 977 1274 1273 
944 945 1242 1241 977 978 1275 1274 
945 946 1243 1242 978 979 1276 1275 
946 947 1244 1243 979 980 1277 1276 
947 948 1245 1244 980 981 1278 1277 
948 949 1246 1245 981 982 1279 1278 
949 950 1247 1246 982 983 1280 1279 
950 951 1248 1247 983 984 1281 1280 
951 952 1249 1248 984 985 1282 1281 
952 953 1250 1249 985 986 1283 1282 
953 954 1251 1250 986 987 1284 1283 
954 955 1252 1251 987 988 1285 1284 
955 956 1253 1252 988 989 1286 1285 
957 958 1255 1254 990 991 1288 1287 
958 959 1256 1255 991 992 1289 1288 
959 960 1257 1256 992 993 1290 1289 
960 961 1258 1257 993 994 1291 1290 
961 962 1259 1258 994 995 1292 1291 
962 963 1260 1259 995 996 1293 1292 
963 964 1261 1260 996 997 1294 1293 
964 965 1262 1261 997 998 1295 1294 
965 966 1263 1262 998 999 1296 1295 
966 967 1264 1263 999 1000 1297 1296 
967 968 1265 1264 1000 1001 1298 1297 
968 969 1266 1265 1001 1002 1299 1298 
969 970 1267 1266 1002 1003 1300 1299 
970 971 1268 1267 1003 1004 1301 1300 
971 972 1269 1268 1004 1005 1302 1301 
972 973 1270 1269 1005 1006 1303 1302 
973 974 1271 1270 1006 1007 1304 1303 
974 975 1272 1271 1007 1008 1305 1304 
975 976 1273 1272 1008 1009 1306 1305 
976 977 1274 1273 1009 1010 1307 1306 
977 978 1275 1274 1010 1011 1308 1307 
978 979 1276 1275 1011 1012 1309 1308 
979 980 1277 1276 1012 1013 1310 1309 
980 981 1278 1277 1013 1014 1311 1310 
981 982 1279 1278 1014 1015 1312 1311 
982 983 1280 1279 1015 1016 1313 1312 
983 984 1281 1280 1016 1017 1314 1313 
984 985 1282 1281 1017 1018 1315 1314 
985 986 1283 1282 1018 1019 1316 1315 
986 987 1284 1283 1019 1020 1317 1316 
987 988 1285 1284 1020 1021 1318 1317 
988 989 1286 1285 1021 1022 1319 1318 
990 991 1288 1287 1023 1024 1321 1320 
991 992 1289 1288 1024 1025 1322 1321 
992 993 1290 1289 1025 1026 1323 1322 
993 994 1291 1290 1026 1027 1324 1323 
994 995 1292 1291 1027 1028 1325 1324 
995 996 1293 1292 1028 1029 1326 1325 
996 997 1294 1293 1029 1030 1327 1326 
997 998 1295 1294 1030 1031 1328 1327 
998 999 1296 1295 1031 1032 1329 1328 
999 1000 1297 1296 1032 1033 1330 1329 
1000 1001 1298 1297 1033 1034 1331 1330 
1001 1002 1299 1298 1034 1035 1332 1331 
1002 1003 1300 1299 1035 1036 1333 1332 
1003 1004 1301 1300 1036 1037 1334 1333 
1004 1005 1302 1301 1037 1038 1335 1334 
1005 1006 1303 1302 1038 1039 1336 1335 
1006 1007 1304 1303 1039 1040 1337 1336 
1007 1008 1305 1304 1040 1041 1338 1337 
1008 1009 1306 1305 1041 1042 1339 1338 
1009 1010 1307 1306 1042 1043 1340 1339 
1010 1011 1308 1307 1043 1044 1341 1340 
1011 1012 1309 1308 1044 1045 1342 1341 
1012 1013 1310 1309 1045 1046 1343 1342 
1013 1014 1311 1310 1046 1047 1344 1343 
1014 1015 1312 1311 1047 1048 1345 1344 
1015 1016 1313 1312 1048 1049 1346 1345 
1016 1017 1314 1313 1049 1050 1347 1346 
1017 1018 1315 1314 1050 1051 1348 1347 
1018 1019 1316 1315 1051 1052 1349 1348 
1019 1020 1317 1316 1052 1053 1350 1349 
1020 1021 1318 1317 1053 1054 1351 1350 
1021 1022 1319 1318 1054 1055 1352 1351 
1023 1024 1321 1320 1056 1057 1354 1353 
1024 1025 1322 1321 1057 1058 1355 1354 
1025 1026 1323 1322 1058 1059 1356 1355 
1026 1027 1324 1323 1059 1060 1357 1356 
1027 1028 1325 1324 1060 1061 1358 1357 
1028 1029 1326 1325 1061 1062 1359 1358 
1029 1030 1327 1326 1062 1063 1360 1359 
1030 1031 1328 1327 1063 1064 1361 1360 
1031 1032 1329 1328 1064 1065 1362 1361 
1032 1033 1330 1329 1065 1066 1363 1362 
1033 1034 1331 1330 1066 1067 1364 1363 
1034 1035 1332 1331 1067 1068 1365 1364 
1035 1036 1333 1332 1068 1069 1366 1365 
1036 1037 1334 1333 1069 1070 1367 1366 
1037 1038 1335 1334 1070 1071 1368 1367 
1038 1039 1336 1335 1071 1072 1369 1368 
1039 1040 1337 1336 1072 1073 1370 1369 
1040 1041 1338 1337 1073 1074 1371 1370 
1041 1042 1339 1338 1074 1075 1372 1371 
1042 1043 1340 1339 1075 1076 1373 1372 
1043 1044 1341 1340 1076 1077 1374 1373 
1044 1045 1342 1341 1077 1078 1375 1374 
1045 1046 1343 1342 1078 1079 1376 1375 
1046 1047 1344 1343 1079 1080 1377 1376 
1047 1048 1345 1344 1080 1081 1378 1377 
1048 1049 1346 1345 1081 1082 1379 1378 
1049 1050 1347 1346 1082 1083 1380 1379 
1050 1051 1348 1347 1083 1084 1381 1380 
1051 1052 1349 1348 1084 1085 1382 1381 
1052 1053 1350 1349 1085 1086 1383 1382 
1053 1054 1351 1350 1086 1087 1384 1383 
1054 1055 1352 1351 1087 1088 1385 1384 
1056 1057 1354 1353 1089 1090 1387 1386 
1057 1058 1355 1354 1090 1091 1388 1387 
1058 1059 1356 1355 1091 1092 1389 1388 
1059 1060 1357 1356 1092 1093 1390 1389 
1060 1061 1358 1357 1093 1094 1391 1390 
1061 1062 1359 1358 1094 1095 1392 1391 
1062 1063 1360 1359 1095 1096 1393 1392 
1063 1064 1361 1360 1096 1097 1394 1393 
1064 1065 1362 1361 1097 1098 1395 1394 
1065 1066 1363 1362 1098 1099 1396 1395 
1066 1067 1364 1363 1099 1100 1397 1396 
1067 1068 1365 1364 1100 1101 1398 1397 
1068 1069 1366 1365 1101 1102 1399 1398 
1069 1070 1367 1366 1102 1103 1400 1399 
1070 1071 1368 1367 1103 1104 1401 1400 
1071 1072 1369 1368 1104 1105 1402 1401 
1072 1073 1370 1369 1105 1106 1403 1402 
1073 1074 1371 1370 1106 1107 1404 1403 
1074 1075 1372 1371 1107 1108 1405 1404 
1075 1076 1373 1372 1108 1109 1406 1405 
1076 1077 1374 1373 1109 1110 1407 1406 
1077 1078 1375 1374 1110 1111 1408 1407 
1078 1079 1376 1375 1111 1112 1409 1408 
1079 1080 1377 1376 1112 1113 1410 1409 
1080 1081 1378 1377 1113 1114 1411 1410 
1081 1082 1379 1378 1114 1115 1412 1411 
1082 1083 1380 1379 1115 1116 1413 1412 
1083 1084 1381 1380 1116 1117 1414 1413 
1084 1085 1382 1381 1117 1118 1415 1414 
1085 1086 1383 1382 1118 1119 1416 1415 
1086 1087 1384 1383 1119 1120 1417 1416 
1087 1088 1385 1384 1120 1121 1418 1417 
1089 1090 1387 1386 1122 1123 1420 1419 
1090 1091 1388 1387 1123 1124 1421 1420 
1091 1092 1389 1388 1124 1125 1422 1421 
1092 1093 1390 1389 1125 1126 1423 1422 
1093 1094 1391 1390 1126 1127 1424 1423 
1094 1095 1392 1391 1127 1128 1425 1424 
1095 1096 1393 1392 1128 1129 1426 1425 
1096 1097 1394 1393 1129 1130 1427 1426 
1097 1098 1395 1394 1130 1131 1428 1427 
1098 1099 1396 1395 1131 1132 1429 1428 
1099 1100 1397 1396 1132 1133 1430 1429 
1100 1101 1398 1397 1133 1134 1431 1430 
1101 1102 1399 1398 1134 1135 1432 1431 
1102 1103 1400 1399 1135 1136 1433 1432 
1103 1104 1401 1400 1136 1137 1434 1433 
1104 1105 1402 1401 1137 1138 1435 1434 
1105 1106 1403 1402 1138 1139 1436 1435 
1106 1107 1404 1403 1139 1140 1437 1436 
1107 1108 1405 1404 1140 1141 1438 1437 
1108 1109 1406 1405 1141 1142 1439 1438 
1109 1110 1407 1406 1142 1143 1440 1439 
1110 1111 1408 1407 1143 1144 1441 1440 
1111 1112 1409 1408 1144 1145 1442 1441 
1112 1113 1410 1409 1145 1146 1443 1442 
1113 1114 1411 1410 1146 1147 1444 1443 
1114 1115 1412 1411 1147 1148 1445 1444 
1115 1116 1413 1412 1148 1149 1446 1445 
1116 1117 1414 1413 1149 1150 1447 1446 
1117 1118 1415 1414 1150 1151 1448 1447 
1118 1119 1416 1415 1151 1152 1449 1448 
1119 1120 1417 1416 1152 1153 1450 1449 
1120 1121 1418 1417 1153 1154 1451 1450 
1122 1123 1420 1419 1155 1156 1453 1452 
1123 1124 1421 1420 1156 1157 1454 1453 
1124 1125 1422 1421 1157 1158 1455 1454 
1125 1126 1423 1422 1158 1159 1456 1455 
1126 1127 1424 1423 1159 1160 1457 1456 
1127 1128 1425 1424 1160 1161 1458 1457 
1128 1129 1426 1425 1161 1162 1459 1458 
1129 1130 1427 1426 1162 1163 1460 1459 
1130 1131 1428 1427 1163 1164 1461 1460 
1131 1132 1429 1428 1164 1165 1462 1461 
1132 1133 1430 1429 1165 1166 1463 1462 
1133 1134 1431 1430 1166 1167 1464 1463 
1134 1135 1432 1431 1167 1168 1465 1464 
1135 1136 1433 1432 1168 1169 1466 1465 
1136 1137 1434 1433 1169 1170 1467 1466 
1137 1138 1435 1434 1170 1171 1468 1467 
1138 1139 1436 1435 1171 1172 1469 1468 
1139 1140 1437 1436 1172 1173 1470 1469 
1140 1141 1438 1437 1173 1174 1471 1470 
1141 1142 1439 1438 1174 1175 1472 1471 
1142 1143 1440 1439 1175 1176 1473 1472 
1143 1144 1441 1440 1176 1177 1474 1473 
1144 1145 1442 1441 1177 1178 1475 1474 
1145 1146 1443 1442 1178 1179 1476 1475 
1146 1147 1444 1443 1179 1180 1477 1476 
1147 1148 1445 1444 1180 1181 1478 1477 
1148 1149 1446 1445 1181 1182 1479 1478 
1149 1150 1447 1446 1182 1183 1480 1479 
1150 1151 1448 1447 1183 1184 1481 1480 
1151 1152 1449 1448 1184 1185 1482 1481 
1152 1153 1450 1449 1185 1186 1483 1482 
1153 1154 1451 1450 1186 1187 1484 1483 
1188 1189 1486 1485 1221 1222 1519 1518 
1189 1190 1487 1486 1222 1223 1520 1519 
1190 1191 1488 1487 1223 1224 1521 1520 
1191 1192 1489 1488 1224 1225 1522 1521 
1192 1193 1490 1489 1225 1226 1523 1522 
1193 1194 1491 1490 1226 1227 1524 1523 
1194 1195 1492 1491 1227 1228 1525 1524 
1195 1196 1493 1492 1228 1229 1526 1525 
1196 1197 1494 1493 1229 1230 1527 1526 
1197 1198 1495 1494 1230 1231 1528 1527 
1198 1199 1496 1495 1231 1232 1529 1528 
1199 1200 1497 1496 1232 1233 1530 1529 
1200 1201 1498 1497 1233 1234 1531 1530 
1201 1202 1499 1498 1234 1235 1532 1531 
1202 1203 1500 1499 1235 1236 1533 1532 
1203 1204 1501 1500 1236 1237 1534 1533 
1204 1205 1502 1501 1237 1238 1535 1534 
1205 1206 1503 1502 1238 1239 1536 1535 
1206 1207 1504 1503 1239 1240 1537 1536 
1207 1208 1505 1504 1240 1241 1538 1537 
1208 1209 1506 1505 1241 1242 1539 1538 
1209 1210 1507 1506 1242 1243 1540 1539 
1210 1211 1508 1507 1243 1244 1541 1540 
1211 1212 1509 1508 1244 1245 1542 1541 
1212 1213 1510 1509 1245 1246 1543 1542 
1213 1214 1511 1510 1246 1247 1544 1543 
1214 1215 1512 1511 1247 1248 1545 1544 
1215 1216 1513 1512 1248 1249 1546 1545 
1216 1217 1514 1513 1249 1250 1547 1546 
1217 1218 1515 1514 1250 1251 1548 1547 
1218 1219 1516 1515 1251 1252 1549 1548 
1219 1220 1517 1516 1252 1253 1550 1549 
1221 1222 1519 1518 1254 1255 1552 1551 
1222 1223 1520 1519 1255 1256 1553 1552 
1223 1224 1521 1520 1256 1257 1554 1553 
1224 1225 1522 1521 1257 1258 1555 1554 
1225 1226 1523 1522 1258 1259 1556 1555 
1226 1227 1524 1523 1259 1260 1557 1556 
1227 1228 1525 1524 1260 1261 1558 1557 
1228 1229 1526 1525 1261 1262 1559 1558 
1229 1230 1527 1526 1262 1263 1560 1559 
1230 1231 1528 1527 1263 1264 1561 1560 
1231 1232 1529 1528 1264 1265 1562 1561 
1232 1233 1530 1529 1265 1266 1563 1562 
1233 1234 1531 1530 1266 1267 1564 1563 
1234 1235 1532 1531 1267 1268 1565 1564 
1235 1236 1533 1532 1268 1269 1566 1565 
1236 1237 1534 1533 1269 1270 1567 1566 
1237 1238 1535 1534 1270 1271 1568 1567 
1238 1239 1536 1535 1271 1272 1569 1568 
1239 1240 1537 1536 1272 1273 1570 1569 
1240 1241 1538 1537 1273 1274 1571 1570 
1241 1242 1539 1538 1274 1275 1572 1571 
1242 1243 1540 1539 1275 1276 1573 1572 
1243 1244 1541 1540 1276 1277 1574 1573 
1244 1245 1542 1541 1277 1278 1575 1574 
1245 1246 1543 1542 1278 1279 1576 1575 
1246 1247 1544 1543 1279 1280 1577 1576 
1247 1248 1545 1544 1280 1281 1578 1577 
1248 1249 1546 1545 1281 1282 1579 1578 
1249 1250 1547 1546 1282 1283 1580 1579 
1250 1251 1548 1547 1283 1284 1581 1580 
1251 1252 1549 1548 1284 1285 1582 1581 
1252 1253 1550 1549 1285 1286 1583 1582 
1254 1255 1552 1551 1287 1288 1585 1584 
1255 1256 1553 1552 1288 1289 1586 1585 
1256 1257 1554 1553 1289 1290 1587 1586 
1257 1258 1555 1554 1290 1291 1588 1587 
1258 1259 1556 1555 1291 1292 1589 1588 
1259 1260 1557 1556 1292 1293 1590 1589 
1260 1261 1558 1557 1293 1294 1591 1590 
1261 1262 1559 1558 1294 1295 1592 1591 
1262 1263 1560 1559 1295 1296 1593 1592 
1263 1264 1561 1560 1296 1297 1594 1593 
1264 1265 1562 1561 1297 1298 1595 1594 
1265 1266 1563 1562 1298 1299 1596 1595 
1266 1267 1564 1563 1299 1300 1597 1596 
1267 1268 1565 1564 1300 1301 1598 1597 
1268 1269 1566 1565 1301 1302 1599 1598 
1269 1270 1567 1566 1302 1303 1600 1599 
1270 1271 1568 1567 1303 1304 1601 1600 
1271 1272 1569 1568 1304 1305 1602 1601 
1272 1273 1570 1569 1305 1306 1603 1602 
1273 1274 1571 1570 1306 1307 1604 1603 
1274 1275 1572 1571 1307 1308 1605 1604 
1275 1276 1573 1572 1308 1309 1606 1605 
1276 1277 1574 1573 1309 1310 1607 1606 
1277 1278 1575 1574 1310 1311 1608 1607 
1278 1279 1576 1575 1311 1312 1609 1608 
1279 1280 1577 1576 1312 1313 1610 1609 
1280 1281 1578 1577 1313 1314 1611 1610 
1281 1282 1579 1578 1314 1315 1612 1611 
1282 1283 1580 1579 1315 1316 1613 1612 
1283 1284 1581 1580 1316 1317 1614 1613 
1284 1285 1582 1581 1317 1318 1615 1614 
1285 1286 1583 1582 1318 1319 1616 1615 
1287 1288 1585 1584 1320 1321 1618 1617 
1288 1289 1586 1585 1321 1322 1619 1618 
1289 1290 1587 1586 1322 1323 1620 1619 
1290 1291 1588 1587 1323 1324 1621 1620 
1291 1292 1589 1588 1324 1325 1622 1621 
1292 1293 1590 1589 1325 1326 1623 1622 
1293 1294 1591 1590 1326 1327 1624 1623 
1294 1295 1592 1591 1327 1328 1625 1624 
1295 1296 1593 1592 1328 1329 1626 1625 
1296 1297 1594 1593 1329 1330 1627 1626 
1297 1298 1595 1594 1330 1331 1628 1627 
1298 1299 1596 1595 1331 1332 1629 1628 
1299 1300 1597 1596 1332 1333 1630 1629 
1300 1301 1598 1597 1333 1334 1631 1630 
1301 1302 1599 1598 1334 1335 1632 1631 
1302 1303 1600 1599 1335 1336 1633 1632 
1303 1304 1601 1600 1336 1337 1634 1633 
1304 1305 1602 1601 1337 1338 1635 1634 
1305 1306 1603 1602 1338 1339 1636 1635 
1306 1307 1604 1603 1339 1340 1637 1636 
1307 1308 1605 1604 1340 1341 1638 1637 
1308 1309 1606 1605 1341 1342 1639 1638 
1309 1310 1607 1606 1342 1343 1640 1639 
1310 1311 1608 1607 1343 1344 1641 1640 
1311 1312 1609 1608 1344 1345 1642 1641 
1312 1313 1610 1609 1345 1346 1643 1642 
1313 1314 1611 1610 1346 1347 1644 1643 
1314 1315 1612 1611 1347 1348 1645 1644 
1315 1316 1613 1612 1348 1349 1646 1645 
1316 1317 1614 1613 1349 1350 1647 1646 
1317 1318 1615 1614 1350 1351 1648 1647 
1318 1319 1616 1615 1351 1352 1649 1648 
1320 1321 1618 1617 1353 1354 1651 1650 
1321 1322 1619 1618 1354 1355 1652 1651 
1322 1323 1620 1619 1355 1356 1653 1652 
1323 1324 1621 1620 1356 1357 1654 1653 
1324 1325 1622 1621 1357 1358 1655 1654 
1325 1326 1623 1622 1358 1359 1656 1655 
1326 1327 1624 1623 1359 1360 1657 1656 
1327 1328 1625 1624 1360 1361 1658 1657 
1328 1329 1626 1625 1361 1362 1659 1658 
1329 1330 1627 1626 1362 1363 1660 1659 
1330 1331 1628 1627 1363 1364 1661 1660 
1331 1332 1629 1628 1364 1365 1662 1661 
1332 1333 1630 1629 1365 1366 1663 1662 
1333 1334 1631 1630 1366 1367 1664 1663 
1334 1335 1632 1631 1367 1368 1665 1664 
1335 1336 1633 1632 1368 1369 1666 1665 
1336 1337 1634 1633 1369 1370 1667 1666 
1337 1338 1635 1634 1370 1371 1668 1667 
1338 1339 1636 1635 1371 1372 1669 1668 
1339 1340 1637 1636 1372 1373 1670 1669 
1340 1341 1638 1637 1373 1374 1671 1670 
1341 1342 1639 1638 1374 1375 1672 1671 
1342 1343 1640 1639 1375 1376 1673 1672 
1343 1344 1641 1640 1376 1377 1674 1673 
1344 1345 1642 1641 1377 1378 1675 1674 
1345 1346 1643 1642 1378 1379 1676 1675 
1346 1347 1644 1643 1379 1380 1677 1676 
1347 1348 1645 1644 1380 1381 1678 1677 
1348 1349 1646 1645 1381 1382 1679 1678 
1349 1350 1647 1646 1382 1383 1680 1679 
1350 1351 1648 1647 1383 1384 1681 1680 
1351 1352 1649 1648 1384 1385 1682 1681 
1353 1354 1651 1650 1386 1387 1684 1683 
1354 1355 1652 1651 1387 1388 1685 1684 
1355 1356 1653 1652 1388 1389 1686 1685 
1356 1357 1654 1653 1389 1390 1687 1686 
1357 1358 1655 1654 1390 1391 1688 1687 
1358 1359 1656 1655 1391 1392 1689 1688 
1359 1360 1657 1656 1392 1393 1690 1689 
1360 1361 1658 1657 1393 1394 1691 1690 
1361 1362 1659 1658 1394 1395 1692 1691 
1362 1363 1660 1659 1395 1396 1693 1692 
1363 1364 1661 1660 1396 1397 1694 1693 
1364 1365 1662 1661 1397 1398 1695 1694 
1365 1366 1663 1662 1398 1399 1696 1695 
1366 1367 1664 1663 1399 1400 1697 1696 
1367 1368 1665 1664 1400 1401 1698 1697 
1368 1369 1666 1665 1401 1402 1699 1698 
1369 1370 1667 1666 1402 1403 1700 1699 
1370 1371 1668 1667 1403 1404 1701 1700 
1371 1372 1669 1668 1404 1405 1702 1701 
1372 1373 1670 1669 1405 1406 1703 1702 
1373 1374 1671 1670 1406 1407 1704 1703 
1374 1375 1672 1671 1407 1408 1705 1704 
1375 1376 1673 1672 1408 1409 1706 1705 
1376 1377 1674 1673 1409 1410 1707 1706 
1377 1378 1675 1674 1410 1411 1708 1707 
1378 1379 1676 1675 1411 1412 1709 1708 
1379 1380 1677 1676 1412 1413 1710 1709 
1380 1381 1678 1677 1413 1414 1711 1710 
1381 1382 1679 1678 1414 1415 1712 1711 
1382 1383 1680 1679 1415 1416 1713 1712 
1383 1384 1681 1680 1416 1417 1714 1713 
1384 1385 1682 1681 1417 1418 1715 1714 
1386 1387 1684 1683 1419 1420 1717 1716 
1387 1388 1685 1684 1420 1421 1718 1717 
1388 1389 1686 1685 1421 1422 1719 1718 
1389 1390 1687 1686 1422 1423 1720 1719 
1390 1391 1688 1687 1423 1424 1721 1720 
1391 1392 1689 1688 1424 1425 1722 1721 
1392 1393 1690 1689 1425 1426 1723 1722 
1393 1394 1691 1690 1426 1427 1724 1723 
1394 1395 1692 1691 1427 1428 1725 1724 
1395 1396 1693 1692 1428 1429 1726 1725 
1396 1397 1694 1693 1429 1430 1727 1726 
1397 1398 1695 1694 1430 1431 1728 1727 
1398 1399 1696 1695 1431 1432 1729 1728 
1399 1400 1697 1696 1432 1433 1730 1729 
1400 1401 1698 1697 1433 1434 1731 1730 
1401 1402 1699 1698 1434 1435 1732 1731 
1402 1403 1700 1699 1435 1436 1733 1732 
1403 1404 1701 1700 1436 1437 1734 1733 
1404 1405 1702 1701 1437 1438 1735 1734 
1405 1406 1703 1702 1438 1439 1736 1735 
1406 1407 1704 1703 1439 1440 1737 1736 
1407 1408 1705 1704 1440 1441 1738 1737 
1408 1409 1706 1705 1441 1442 1739 1738 
1409 1410 1707 1706 1442 1443 1740 1739 
1410 1411 1708 1707 1443 1444 1741 1740 
1411 1412 1709 1708 1444 1445 1742 1741 
1412 1413 1710 1709 1445 1446 1743 1742 
1413 1414 1711 1710 1446 1447 1744 1743 
1414 1415 1712 1711 1447 1448 1745 1744 
1415 1416 1713 1712 1448 1449 1746 1745 
1416 1417 1714 1713 1449 1450 1747 1746 
1417 1418 1715 1714 1450 1451 1748 1747 
1419 1420 1717 1716 1452 1453 1750 1749 
1420 1421 1718 1717 1453 1454 1751 1750 
1421 1422 1719 1718 1454 1455 1752 1751 
1422 1423 1720 1719 1455 1456 1753 1752 
1423 1424 1721 1720 1456 1457 1754 1753 
1424 1425 1722 1721 1457 1458 1755 1754 
1425 1426 1723 1722 1458 1459 1756 1755 
1426 1427 1724 1723 1459 1460 1757 1756 
1427 1428 1725 1724 1460 1461 1758 1757 
1428 1429 1726 1725 1461 1462 1759 1758 
1429 1430 1727 1726 1462 1463 1760 1759 
1430 1431 1728 1727 1463 1464 1761 1760 
1431 1432 1729 1728 1464 1465 1762 1761 
1432 1433 1730 1729 1465 1466 1763 1762 
1433 1434 1731 1730 1466 1467 1764 1763 
1434 1435 1732 1731 1467 1468 1765 1764 
1435 1436 1733 1732 1468 1469 1766 1765 
1436 1437 1734 1733 1469 1470 1767 1766 
1437 1438 1735 1734 1470 1471 1768 1767 
1438 1439 1736 1735 1471 1472 1769 1768 
1439 1440 1737 1736 1472 1473 1770 1769 
1440 1441 1738 1737 1473 1474 1771 1770 
1441 1442 1739 1738 1474 1475 1772 1771 
1442 1443 1740 1739 1475 1476 1773 1772 
1443 1444 1741 1740 1476 1477 1774 1773 
1444 1445 1742 1741 1477 1478 1775 1774 
1445 1446 1743 1742 1478 1479 1776 1775 
1446 1447 1744 1743 1479 1480 1777 1776 
1447 1448 1745 1744 1480 1481 1778 1777 
1448 1449 1746 1745 1481 1482 1779 1778 
1449 1450 1747 1746 1482 1483 1780 1779 
1450 1451 1748 1747 1483 1484 1781 1780 
1485 1486 1783 1782 1518 1519 1816 1815 
1486 1487 1784 1783 1519 1520 1817 1816 
1487 1488 1785 1784 1520 1521 1818 1817 
1488 1489 1786 1785 1521 1522 1819 1818 
1489 1490 1787 1786 1522 1523 1820 1819 
1490 1491 1788 1787 1523 1524 1821 1820 
1491 1492 1789 1788 1524 1525 1822 1821 
1492 1493 1790 1789 1525 1526 1823 1822 
1493 1494 1791 1790 1526 1527 1824 1823 
1494 1495 1792 1791 1527 1528 1825 1824 
1495 1496 1793 1792 1528 1529 1826 1825 
1496 1497 1794 1793 1529 1530 1827 1826 
1497 1498 1795 1794 1530 1531 1828 1827 
1498 1499 1796 1795 1531 1532 1829 1828 
1499 1500 1797 1796 1532 1533 1830 1829 
1500 1501 1798 1797 1533 1534 1831 1830 
1501 1502 1799 1798 1534 1535 1832 1831 
1502 1503 1800 1799 1535 1536 1833 1832 
1503 1504 1801 1800 1536 1537 1834 1833 
1504 1505 1802 1801 1537 1538 1835 1834 
1505 1506 1803 1802 1538 1539 1836 1835 
1506 1507 1804 1803 1539 1540 1837 1836 
1507 1508 1805 1804 1540 1541 1838 1837 
1508 1509 1806 1805 1541 1542 1839 1838 
1509 1510 1807 1806 1542 1543 1840 1839 
1510 1511 1808 1807 1543 1544 1841 1840 
1511 1512 1809 1808 1544 1545 1842 1841 
1512 1513 1810 1809 1545 1546 1843 1842 
1513 1514 1811 1810 1546 1547 1844 1843 
1514 1515 1812 1811 1547 1548 1845 1844 
1515 1516 1813 1812 1548 1549 1846 1845 
1516 1517 1814 1813 1549 1550 1847 1846 
1518 1519 1816 1815 1551 1552 1849 1848 
1519 1520 1817 1816 1552 1553 1850 1849 
1520 1521 1818 1817 1553 1554 1851 1850 
1521 1522 1819 1818 1554 1555 1852 1851 
1522 1523 1820 1819 1555 1556 1853 1852 
1523 1524 1821 1820 1556 1557 1854 1853 
1524 1525 1822 1821 1557 1558 1855 1854 
1525 1526 1823 1822 1558 1559 1856 1855 
1526 1527 1824 1823 1559 1560 1857 1856 
1527 1528 1825 1824 1560 1561 1858 1857 
1528 1529 1826 1825 1561 1562 1859 1858 
1529 1530 1827 1826 1562 1563 1860 1859 
1530 1531 1828 1827 1563 1564 1861 1860 
1531 1532 1829 1828 1564 1565 1862 1861 
1532 1533 1830 1829 1565 1566 1863 1862 
1533 1534 1831 1830 1566 1567 1864 1863 
1534 1535 1832 1831 1567 1568 1865 1864 
1535 1536 1833 1832 1568 1569 1866 1865 
1536 1537 1834 1833 1569 1570 1867 1866 
1537 1538 1835 1834 1570 1571 1868 1867 
1538 1539 1836 1835 1571 1572 1869 1868 
1539 1540 1837 1836 1572 1573 1870 1869 
1540 1541 1838 1837 1573 1574 1871 1870 
1541 1542 1839 1838 1574 1575 1872 1871 
1542 1543 1840 1839 1575 1576 1873 1872 
1543 1544 1841 1840 1576 1577 1874 1873 
1544 1545 1842 1841 1577 1578 1875 1874 
1545 1546 1843 1842 1578 1579 1876 1875 
1546 1547 1844 1843 1579 1580 1877 1876 
1547 1548 1845 1844 1580 1581 1878 1877 
1548 1549 1846 1845 1581 1582 1879 1878 
1549 1550 1847 1846 1582 1583 1880 1879 
1551 1552 1849 1848 1584 1585 1882 1881 
1552 1553 1850 1849 1585 1586 1883 1882 
1553 1554 1851 1850 1586 1587 1884 1883 
1554 1555 1852 1851 1587 1588 1885 1884 
1555 1556 1853 1852 1588 1589 1886 1885 
1556 1557 1854 1853 1589 1590 1887 1886 
1557 1558 1855 1854 1590 1591 1888 1887 
1558 1559 1856 1855 1591 1592 1889 1888 
1559 1560 1857 1856 1592 1593 1890 1889 
1560 1561 1858 1857 1593 1594 1891 1890 
1561 1562 1859 1858 1594 1595 1892 1891 
1562 1563 1860 1859 1595 1596 1893 1892 
1563 1564 1861 1860 1596 1597 1894 1893 
1564 1565 1862 1861 1597 1598 1895 1894 
1565 1566 1863 1862 1598 1599 1896 1895 
1566 1567 1864 1863 1599 1600 1897 1896 
1567 1568 1865 1864 1600 1601 1898 1897 
1568 1569 1866 1865 1601 1602 1899 1898 
1569 1570 1867 1866 1602 1603 1900 1899 
1570 1571 1868 1867 1603 1604 1901 1900 
1571 1572 1869 1868 1604 1605 1902 1901 
1572 1573 1870 1869 1605 1606 1903 1902 
1573 1574 1871 1870 1606 1607 1904 1903 
1574 1575 1872 1871 1607 1608 1905 1904 
1575 1576 1873 1872 1608 1609 1906 1905 
1576 1577 1874 1873 1609 1610 1907 1906 
1577 1578 1875 1874 1610 1611 1908 1907 
1578 1579 1876 1875 1611 1612 1909 1908 
1579 1580 1877 1876 1612 1613 1910 1909 
1580 1581 1878 1877 1613 1614 1911 1910 
1581 1582 1879 1878 1614 1615 1912 1911 
1582 1583 1880 1879 1615 1616 1913 1912 
1584 1585 1882 1881 1617 1618 1915 1914 
1585 1586 1883 1882 1618 1619 1916 1915 
1586 1587 1884 1883 1619 1620 1917 1916 
1587 1588 1885 1884 1620 1621 1918 1917 
1588 1589 1886 1885 1621 1622 1919 1918 
1589 1590 1887 1886 1622 1623 1920 1919 
1590 1591 1888 1887 1623 1624 1921 1920 
1591 1592 1889 1888 1624 1625 1922 1921 
1592 1593 1890 1889 1625 1626 1923 1922 
1593 1594 1891 1890 1626 1627 1924 1923 
1594 1595 1892 1891 1627 1628 1925 1924 
1595 1596 1893 1892 1628 1629 1926 1925 
1596 1597 1894 1893 1629 1630 1927 1926 
1597 1598 1895 1894 1630 1631 1928 1927 
1598 1599 1896 1895 1631 1632 1929 1928 
1599 1600 1897 1896 1632 1633 1930 1929 
1600 1601 1898 1897 1633 1634 1931 1930 
1601 1602 1899 1898 1634 1635 1932 1931 
1602 1603 1900 1899 1635 1636 1933 1932 
1603 1604 1901 1900 1636 1637 1934 1933 
1604 1605 1902 1901 1637 1638 1935 1934 
1605 1606 1903 1902 1638 1639 1936 1935 
1606 1607 1904 1903 1639 1640 1937 1936 
1607 1608 1905 1904 1640 1641 1938 1937 
1608 1609 1906 1905 1641 1642 1939 1938 
1609 1610 1907 1906 1642 1643 1940 1939 
1610 1611 1908 1907 1643 1644 1941 1940 
1611 1612 1909 1908 1644 1645 1942 1941 
1612 1613 1910 1909 1645 1646 1943 1942 
1613 1614 1911 1910 1646 1647 1944 1943 
1614 1615 1912 1911 1647 1648 1945 1944 
1615 1616 1913 1912 1648 1649 1946 1945 
1617 1618 1915 1914 1650 1651 1948 1947 
1618 1619 1916 1915 1651 1652 1949 1948 
1619 1620 1917 1916 1652 1653 1950 1949 
1620 1621 1918 1917 1653 1654 1951 1950 
1621 1622 1919 1918 1654 1655 1952 1951 
1622 1623 1920 1919 1655 1656 1953 1952 
1623 1624 1921 1920 1656 1657 1954 1953 
1624 1625 1922 1921 1657 1658 1955 1954 
1625 1626 1923 1922 1658 1659 1956 1955 
1626 1627 1924 1923 1659 1660 1957 1956 
1627 1628 1925 1924 1660 1661 1958 1957 
1628 1629 1926 1925 1661 1662 1959 1958 
1629 1630 1927 1926 1662 1663 1960 1959 
1630 1631 1928 1927 1663 1664 1961 1960 
1631 1632 1929 1928 1664 1665 1962 1961 
1632 1633 1930 1929 1665 1666 1963 1962 
1633 1634 1931 1930 1666 1667 1964 1963 
1634 1635 1932 1931 1667 1668 1965 1964 
1635 1636 1933 1932 1668 1669 1966 1965 
1636 1637 1934 1933 1669 1670 1967 1966 
1637 1638 1935 1934 1670 1671 1968 1967 
1638 1639 1936 1935 1671 1672 1969 1968 
1639 1640 1937 1936 1672 1673 1970 1969 
1640 1641 1938 1937 1673 1674 1971 1970 
1641 1642 1939 1938 1674 1675 1972 1971 
1642 1643 1940 1939 1675 1676 1973 1972 
1643 1644 1941 1940 1676 1677 1974 1973 
1644 1645 1942 1941 1677 1678 1975 1974 
1645 1646 1943 1942 1678 1679 1976 1975 
1646 1647 1944 1943 1679 1680 1977 1976 
1647 1648 1945 1944 1680 1681 1978 1977 
1648 1649 1946 1945 1681 1682 1979 1978 
1650 1651 1948 1947 1683 1684 1981 1980 
1651 1652 1949 1948 1684 1685 1982 1981 
1652 1653 1950 1949 1685 1686 1983 1982 
1653 1654 1951 1950 1686 1687 1984 1983 
1654 1655 1952 1951 1687 1688 1985 1984 
1655 1656 1953 1952 1688 1689 1986 1985 
1656 1657 1954 1953 1689 1690 1987 1986 
1657 1658 1955 1954 1690 1691 1988 1987 
1658 1659 1956 1955 1691 1692 1989 1988 
1659 1660 1957 1956 1692 1693 1990 1989 
1660 1661 1958 1957 1693 1694 1991 1990 
1661 1662 1959 1958 1694 1695 1992 1991 
1662 1663 1960 1959 1695 1696 1993 1992 
1663 1664 1961 1960 1696 1697 1994 1993 
1664 1665 1962 1961 1697 1698 1995 1994 
1665 1666 1963 1962 1698 1699 1996 1995 
1666 1667 1964 1963 1699 1700 1997 1996 
1667 1668 1965 1964 1700 1701 1998 1997 
1668 1669 1966 1965 1701 1702 1999 1998 
1669 1670 1967 1966 1702 1703 2000 1999 
1670 1671 1968 1967 1703 1704 2001 2000 
1671 1672 1969 1968 1704 1705 2002 2001 
1672 1673 1970 1969 1705 1706 2003 2002 
1673 1674 1971 1970 1706 1707 2004 2003 
1674 1675 1972 1971 1707 1708 2005 2004 
1675 1676 1973 1972 1708 1709 2006 2005 
1676 1677 1974 1973 1709 1710 2007 2006 
1677 1678 1975 1974 1710 1711 2008 2007 
1678 1679 1976 1975 1711 1712 2009 2008 
1679 1680 1977 1976 1712 1713 2010 2009 
1680 1681 1978 1977 1713 1714 2011 2010 
1681 1682 1979 1978 1714 1715 2012 2011 
1683 1684 1981 1980 1716 1717 2014 2013 
1684 1685 1982 1981 1717 1718 2015 2014 
1685 1686 1983 1982 1718 1719 2016 2015 
1686 1687 1984 1983 1719 1720 2017 2016 
1687 1688 1985 1984 1720 1721 2018 2017 
1688 1689 1986 1985 1721 1722 2019 2018 
1689 1690 1987 1986 1722 1723 2020 2019 
1690 1691 1988 1987 1723 1724 2021 2020 
1691 1692 1989 1988 1724 1725 2022 2021 
1692 1693 1990 1989 1725 1726 2023 2022 
1693 1694 1991 1990 1726 1727 2024 2023 
1694 1695 1992 1991 1727 1728 2025 2024 
1695 1696 1993 1992 1728 1729 2026 2025 
1696 1697 1994 1993 1729 1730 2027 2026 
1697 1698 1995 1994 1730 1731 2028 2027 
1698 1699 1996 1995 1731 1732 2029 2028 
1699 1700 1997 1996 1732 1733 2030 2029 
1700 1701 1998 1997 1733 1734 2031 2030 
1701 1702 1999 1998 1734 1735 2032 2031 
1702 1703 2000 1999 1735 1736 2033 2032 
1703 1704 2001 2000 1736 1737 2034 2033 
1704 1705 2002 2001 1737 1738 2035 2034 
1705 1706 2003 2002 1738 1739 2036 2035 
1706 1707 2004 2003 1739 1740 2037 2036 
1707 1708 2005 2004 1740 1741 2038 2037 
1708 1709 2006 2005 1741 1742 2039 2038 
1709 1710 2007 2006 1742 1743 2040 2039 
1710 1711 2008 2007 1743 1744 2041 2040 
1711 1712 2009 2008 1744 1745 2042 2041 
1712 1713 2010 2009 1745 1746 2043 2042 
1713 1714 2011 2010 1746 1747 2044 2043 
1714 1715 2012 2011 1747 1748 2045 2044 
1716 1717 2014 2013 1749 1750 2047 2046 
1717 1718 2015 2014 1750 1751 2048 2047 
1718 1719 2016 2015 1751 1752 2049 2048 
1719 1720 2017 2016 1752 1753 2050 2049 
1720 1721 2018 2017 1753 1754 2051 2050 
1721 1722 2019 2018 1754 1755 2052 2051 
1722 1723 2020 2019 1755 1756 2053 2052 
1723 1724 2021 2020 1756 1757 2054 2053 
1724 1725 2022 2021 1757 1758 2055 2054 
1725 1726 2023 2022 1758 1759 2056 2055 
1726 1727 2024 2023 1759 1760 2057 2056 
1727 1728 2025 2024 1760 1761 2058 2057 
1728 1729 2026 2025 1761 1762 2059 2058 
1729 1730 2027 2026 1762 1763 2060 2059 
1730 1731 2028 2027 1763 1764 2061 2060 
1731 1732 2029 2028 1764 1765 2062 2061 
1732 1733 2030 2029 1765 1766 2063 2062 
1733 1734 2031 2030 1766 1767 2064 2063 
1734 1735 2032 2031 1767 1768 2065 2064 
1735 1736 2033 2032 1768 1769 2066 2065 
1736 1737 2034 2033 1769 1770 2067 2066 
1737 1738 2035 2034 1770 1771 2068 2067 
1738 1739 2036 2035 1771 1772 2069 2068 
1739 1740 2037 2036 1772 1773 2070 2069 
1740 1741 2038 2037 1773 1774 2071 2070 
1741 1742 2039 2038 1774 1775 2072 2071 
1742 1743 2040 2039 1775 1776 2073 2072 
1743 1744 2041 2040 1776 1777 2074 2073 
1744 1745 2042 2041 1777 1778 2075 2074 
1745 1746 2043 2042 1778 1779 2076 2075 
1746 1747 2044 2043 1779 1780 2077 2076 
1747 1748 2045 2044 1780 1781 2078 2077 
1782 1783 2080 2079 1815 1816 2113 2112 
1783 1784 2081 2080 1816 1817 2114 2113 
1784 1785 2082 2081 1817 1818 2115 2114 
1785 1786 2083 2082 1818 1819 2116 2115 
1786 1787 2084 2083 1819 1820 2117 2116 
1787 1788 2085 2084 1820 1821 2118 2117 
1788 1789 2086 2085 1821 1822 2119 2118 
1789 1790 2087 2086 1822 1823 2120 2119 
1790 1791 2088 2087 1823 1824 2121 2120 
1791 1792 2089 2088 1824 1825 2122 2121 
1792 1793 2090 2089 1825 1826 2123 2122 
1793 1794 2091 2090 1826 1827 2124 2123 
1794 1795 2092 2091 1827 1828 2125 2124 
1795 1796 2093 2092 1828 1829 2126 2125 
1796 1797 2094 2093 1829 1830 2127 2126 
1797 1798 2095 2094 1830 1831 2128 2127 
1798 1799 2096 2095 1831 1832 2129 2128 
1799 1800 2097 2096 1832 1833 2130 2129 
1800 1801 2098 2097 1833 1834 2131 2130 
1801 1802 2099 2098 1834 1835 2132 2131 
1802 1803 2100 2099 1835 1836 2133 2132 
1803 1804 2101 2100 1836 1837 2134 2133 
1804 1805 2102 2101 1837 1838 2135 2134 
1805 1806 2103 2102 1838 1839 2136 2135 
1806 1807 2104 2103 1839 1840 2137 2136 
1807 1808 2105 2104 1840 1841 2138 2137 
1808 1809 2106 2105 1841 1842 2139 2138 
1809 1810 2107 2106 1842 1843 2140 2139 
1810 1811 2108 2107 1843 1844 2141 2140 
1811 1812 2109 2108 1844 1845 2142 2141 
1812 1813 2110 2109 1845 1846 2143 2142 
1813 1814 2111 2110 1846 1847 2144 2143 
1815 1816 2113 2112 1848 1849 2146 2145 
1816 1817 2114 2113 1849 1850 2147 2146 
1817 1818 2115 2114 1850 1851 2148 2147 
1818 1819 2116 2115 1851 1852 2149 2148 
1819 1820 2117 2116 1852 1853 2150 2149 
1820 1821 2118 2117 1853 1854 2151 2150 
1821 1822 2119 2118 1854 1855 2152 2151 
1822 1823 2120 2119 1855 1856 2153 2152 
1823 1824 2121 2120 1856 1857 2154 2153 
1824 1825 2122 2121 1857 1858 2155 2154 
1825 1826 2123 2122 1858 1859 2156 2155 
1826 1827 2124 2123 1859 1860 2157 2156 
1827 1828 2125 2124 1860 1861 2158 2157 
1828 1829 2126 2125 1861 1862 2159 2158 
1829 1830 2127 2126 1862 1863 2160 2159 
1830 1831 2128 2127 1863 1864 2161 2160 
1831 1832 2129 2128 1864 1865 2162 2161 
1832 1833 2130 2129 1865 1866 2163 2162 
1833 1834 2131 2130 1866 1867 2164 2163 
1834 1835 2132 2131 1867 1868 2165 2164 
1835 1836 2133 2132 1868 1869 2166 2165 
1836 1837 2134 2133 1869 1870 2167 2166 
1837 1838 2135 2134 1870 1871 2168 2167 
1838 1839 2136 2135 1871 1872 2169 2168 
1839 1840 2137 2136 1872 1873 2170 2169 
1840 1841 2138 2137 1873 1874 2171 2170 
1841 1842 2139 2138 1874 1875 2172 2171 
1842 1843 2140 2139 1875 1876 2173 2172 
1843 1844 2141 2140 1876 1877 2174 2173 
1844 1845 2142 2141 1877 1878 2175 2174 
1845 1846 2143 2142 1878 1879 2176 2175 
1846 1847 2144 2143 1879 1880 2177 2176 
1848 1849 2146 2145 1881 1882 2179 2178 
1849 1850 2147 2146 1882 1883 2180 2179 
1850 1851 2148 2147 1883 1884 2181 2180 
1851 1852 2149 2148 1884 1885 2182 2181 
1852 1853 2150 2149 1885 1886 2183 2182 
1853 1854 2151 2150 1886 1887 2184 2183 
1854 1855 2152 2151 1887 1888 2185 2184 
1855 1856 2153 2152 1888 1889 2186 2185 
1856 1857 2154 2153 1889 1890 2187 2186 
1857 1858 2155 2154 1890 1891 2188 2187 
1858 1859 2156 2155 1891 1892 2189 2188 
1859 1860 2157 2156 1892 1893 2190 2189 
1860 1861 2158 2157 1893 1894 2191 2190 
1861 1862 2159 2158 1894 1895 2192 2191 
1862 1863 2160 2159 1895 1896 2193 2192 
1863 1864 2161 2160 1896 1897 2194 2193 
1864 1865 2162 2161 1897 1898 2195 2194 
1865 1866 2163 2162 1898 1899 2196 2195 
1866 1867 2164 2163 1899 1900 2197 2196 
1867 1868 2165 2164 1900 1901 2198 2197 
1868 1869 2166 2165 1901 1902 2199 2198 
1869 1870 2167 2166 1902 1903 2200 2199 
1870 1871 2168 2167 1903 1904 2201 2200 
1871 1872 2169 2168 1904 1905 2202 2201 
1872 1873 2170 2169 1905 1906 2203 2202 
1873 1874 2171 2170 1906 1907 2204 2203 
1874 1875 2172 2171 1907 1908 2205 2204 
1875 1876 2173 2172 1908 1909 2206 2205 
1876 1877 2174 2173 1909 1910 2207 2206 
1877 1878 2175 2174 1910 1911 2208 2207 
1878 1879 2176 2175 1911 1912 2209 2208 
1879 1880 2177 2176 1912 1913 2210 2209 
1881 1882 2179 2178 1914 1915 2212 2211 
1882 1883 2180 2179 1915 1916 2213 2212 
1883 1884 2181 2180 1916 1917 2214 2213 
1884 1885 2182 2181 1917 1918 2215 2214 
1885 1886 2183 2182 1918 1919 2216 2215 
1886 1887 2184 2183 1919 1920 2217 2216 
1887 1888 2185 2184 1920 1921 2218 2217 
1888 1889 2186 2185 1921 1922 2219 2218 
1889 1890 2187 2186 1922 1923 2220 2219 
1890 1891 2188 2187 1923 1924 2221 2220 
1891 1892 2189 2188 1924 1925 2222 2221 
1892 1893 2190 2189 1925 1926 2223 2222 
1893 1894 2191 2190 1926 1927 2224 2223 
1894 1895 2192 2191 1927 1928 2225 2224 
1895 1896 2193 2192 1928 1929 2226 2225 
1896 1897 2194 2193 1929 1930 2227 2226 
1897 1898 2195 2194 1930 1931 2228 2227 
1898 1899 2196 2195 1931 1932 2229 2228 
1899 1900 2197 2196 1932 1933 2230 2229 
1900 1901 2198 2197 1933 1934 2231 2230 
1901 1902 2199 2198 1934 1935 2232 2231 
1902 1903 2200 2199 1935 1936 2233 2232 
1903 1904 2201 2200 1936 1937 2234 2233 
1904 1905 2202 2201 1937 1938 2235 2234 
1905 1906 2203 2202 1938 1939 2236 2235 
1906 1907 2204 2203 1939 1940 2237 2236 
1907 1908 2205 2204 1940 1941 2238 2237 
1908 1909 2206 2205 1941 1942 2239 2238 
1909 1910 2207 2206 1942 1943 2240 2239 
1910 1911 2208 2207 1943 1944 2241 2240 
1911 1912 2209 2208 1944 1945 2242 2241 
1912 1913 2210 2209 1945 1946 2243 2242 
1914 1915 2212 2211 1947 1948 2245 2244 
1915 1916 2213 2212 1948 1949 2246 2245 
1916 1917 2214 2213 1949 1950 2247 2246 
1917 1918 2215 2214 1950 1951 2248 2247 
1918 1919 2216 2215 1951 1952 2249 2248 
1919 1920 2217 2216 1952 1953 2250 2249 
1920 1921 2218 2217 1953 1954 2251 2250 
1921 1922 2219 2218 1954 1955 2252 2251 
1922 1923 2220 2219 1955 1956 2253 2252 
1923 1924 2221 2220 1956 1957 2254 2253 
1924 1925 2222 2221 1957 1958 2255 2254 
1925 1926 2223 2222 1958 1959 2256 2255 
1926 1927 2224 2223 1959 1960 2257 2256 
1927 1928 2225 2224 1960 1961 2258 2257 
1928 1929 2226 2225 1961 1962 2259 2258 
1929 1930 2227 2226 1962 1963 2260 2259 
1930 1931 2228 2227 1963 1964 2261 2260 
1931 1932 2229 2228 1964 1965 2262 2261 
1932 1933 2230 2229 1965 1966 2263 2262 
1933 1934 2231 2230 1966 1967 2264 2263 
1934 1935 2232 2231 1967 1968 2265 2264 
1935 1936 2233 2232 1968 1969 2266 2265 
1936 1937 2234 2233 1969 1970 2267 2266 
1937 1938 2235 2234 1970 1971 2268 2267 
1938 1939 2236 2235 1971 1972 2269 2268 
1939 1940 2237 2236 1972 1973 2270 2269 
1940 1941 2238 2237 1973 1974 2271 2270 
1941 1942 2239 2238 1974 1975 2272 2271 
1942 1943 2240 2239 1975 1976 2273 2272 
1943 1944 2241 2240 1976 1977 2274 2273 
1944 1945 2242 2241 1977 1978 2275 2274 
1945 1946 2243 2242 1978 1979 2276 2275 
1947 1948 2245 2244 1980 1981 2278 2277 
1948 1949 2246 2245 1981 1982 2279 2278 
1949 1950 2247 2246 1982 1983 2280 2279 
1950 1951 2248 2247 1983 1984 2281 2280 
1951 1952 2249 2248 1984 1985 2282 2281 
1952 1953 2250 2249 1985 1986 2283 2282 
1953 1954 2251 2250 1986 1987 2284 2283 
1954 1955 2252 2251 1987 1988 2285 2284 
1955 1956 2253 2252 1988 1989 2286 2285 
1956 1957 2254 2253 1989 1990 2287 2286 
1957 1958 2255 2254 1990 1991 2288 2287 
1958 1959 2256 2255 1991 1992 2289 2288 
1959 1960 2257 2256 1992 1993 2290 2289 
1960 1961 2258 2257 1993 1994 2291 2290 
1961 1962 2259 2258 1994 1995 2292 2291 
1962 1963 2260 2259 1995 1996 2293 2292 
1963 1964 2261 2260 1996 1997 2294 2293 
1964 1965 2262 2261 1997 1998 2295 2294 
1965 1966 2263 2262 1998 1999 2296 2295 
1966 1967 2264 2263 1999 2000 2297 2296 
1967 1968 2265 2264 2000 2001 2298 2297 
1968 1969 2266 2265 2001 2002 2299 2298 
1969 1970 2267 2266 2002 2003 2300 2299 
1970 1971 2268 2267 2003 2004 2301 2300 
1971 1972 2269 2268 2004 2005 2302 2301 
1972 1973 2270 2269 2005 2006 2303 2302 
1973 1974 2271 2270 2006 2007 2304 2303 
1974 1975 2272 2271 2007 2008 2305 2304 
1975 1976 2273 2272 2008 2009 2306 2305 
1976 1977 2274 2273 2009 2010 2307 2306 
1977 1978 2275 2274 2010 2011 2308 2307 
1978 1979 2276 2275 2011 2012 2309 2308 
1980 1981 2278 2277 2013 2014 2311 2310 
1981 1982 2279 2278 2014 2015 2312 2311 
1982 1983 2280 2279 2015 2016 2313 2312 
1983 1984 2281 2280 2016 2017 2314 2313 
1984 1985 2282 2281 2017 2018 2315 2314 
1985 1986 2283 2282 2018 2019 2316 2315 
1986 1987 2284 2283 2019 2020 2317 2316 
1987 1988 2285 2284 2020 2021 2318 2317 
1988 1989 2286 2285 2021 2022 2319 2318 
1989 1990 2287 2286 2022 2023 2320 2319 
1990 1991 2288 2287 2023 2024 2321 2320 
1991 1992 2289 2288 2024 2025 2322 2321 
1992 1993 2290 2289 2025 2026 2323 2322 
1993 1994 2291 2290 2026 2027 2324 2323 
1994 1995 2292 2291 2027 2028 2325 2324 
1995 1996 2293 2292 2028 2029 2326 2325 
1996 1997 2294 2293 2029 2030 2327 2326 
1997 1998 2295 2294 2030 2031 2328 2327 
1998 1999 2296 2295 2031 2032 2329 2328 
1999 2000 2297 2296 2032 2033 2330 2329 
2000 2001 2298 2297 2033 2034 2331 2330 
2001 2002 2299 2298 2034 2035 2332 2331 
2002 2003 2300 2299 2035 2036 2333 2332 
2003 2004 2301 2300 2036 2037 2334 2333 
2004 2005 2302 2301 2037 2038 2335 2334 
2005 2006 2303 2302 2038 2039 2336 2335 
2006 2007 2304 2303 2039 2040 2337 2336 
2007 2008 2305 2304 2040 2041 2338 2337 
2008 2009 2306 2305 2041 2042 2339 2338 
2009 2010 2307 2306 2042 2043 2340 2339 
2010 2011 2308 2307 2043 2044 2341 2340 
2011 2012 2309 2308 2044 2045 2342 2341 
2013 2014 2311 2310 2046 2047 2344 2343 
2014 2015 2312 2311 2047 2048 2345 2344 
2015 2016 2313 2312 2048 2049 2346 2345 
2016 2017 2314 2313 2049 2050 2347 2346 
2017 2018 2315 2314 2050 2051 2348 2347 
2018 2019 2316 2315 2051 2052 2349 2348 
2019 2020 2317 2316 2052 2053 2350 2349 
2020 2021 2318 2317 2053 2054 2351 2350 
2021 2022 2319 2318 2054 2055 2352 2351 
2022 2023 2320 2319 2055 2056 2353 2352 
2023 2024 2321 2320 2056 2057 2354 2353 
2024 2025 2322 2321 2057 2058 2355 2354 
2025 2026 2323 2322 2058 2059 2356 2355 
2026 2027 2324 2323 2059 2060 2357 2356 
2027 2028 2325 2324 2060 2061 2358 2357 
2028 2029 2326 2325 2061 2062 2359 2358 
2029 2030 2327 2326 2062 2063 2360 2359 
2030 2031 2328 2327 2063 2064 2361 2360 
2031 2032 2329 2328 2064 2065 2362 2361 
2032 2033 2330 2329 2065 2066 2363 2362 
2033 2034 2331 2330 2066 2067 2364 2363 
2034 2035 2332 2331 2067 2068 2365 2364 
2035 2036 2333 2332 2068 2069 2366 2365 
2036 2037 2334 2333 2069 2070 2367 2366 
2037 2038 2335 2334 2070 2071 2368 2367 
2038 2039 2336 2335 2071 2072 2369 2368 
2039 2040 2337 2336 2072 2073 2370 2369 
2040 2041 2338 2337 2073 2074 2371 2370 
2041 2042 2339 2338 2074 2075 2372 2371 
2042 2043 2340 2339 2075 2076 2373 2372 
2043 2044 2341 2340 2076 2077 2374 2373 
2044 2045 2342 2341 2077 2078 2375 2374 
2079 2080 2377 2376 2112 2113 2410 2409 
2080 2081 2378 2377 2113 2114 2411 2410 
2081 2082 2379 2378 2114 2115 2412 2411 
2082 2083 2380 2379 2115 2116 2413 2412 
2083 2084 2381 2380 2116 2117 2414 2413 
2084 2085 2382 2381 2117 2118 2415 2414 
2085 2086 2383 2382 2118 2119 2416 2415 
2086 2087 2384 2383 2119 2120 2417 2416 
2087 2088 2385 2384 2120 2121 2418 2417 
2088 2089 2386 2385 2121 2122 2419 2418 
2089 2090 2387 2386 2122 2123 2420 2419 
2090 2091 2388 2387 2123 2124 2421 2420 
2091 2092 2389 2388 2124 2125 2422 2421 
2092 2093 2390 2389 2125 2126 2423 2422 
2093 2094 2391 2390 2126 2127 2424 2423 
2094 2095 2392 2391 2127 2128 2425 2424 
2095 2096 2393 2392 2128 2129 2426 2425 
2096 2097 2394 2393 2129 2130 2427 2426 
2097 2098 2395 2394 2130 2131 2428 2427 
2098 2099 2396 2395 2131 2132 2429 2428 
2099 2100 2397 2396 2132 2133 2430 2429 
2100 2101 2398 2397 2133 2134 2431 2430 
2101 2102 2399 2398 2134 2135 2432 2431 
2102 2103 2400 2399 2135 2136 2433 2432 
2103 2104 2401 2400 2136 2137 2434 2433 
2104 2105 2402 2401 2137 2138 2435 2434 
2105 2106 2403 2402 2138 2139 2436 2435 
2106 2107 2404 2403 2139 2140 2437 2436 
2107 2108 2405 2404 2140 2141 2438 2437 
2108 2109 2406 2405 2141 2142 2439 2438 
2109 2110 2407 2406 2142 2143 2440 2439 
2110 2111 2408 2407 2143 2144 2441 2440 
2112 2113 2410 2409 2145 2146 2443 2442 
2113 2114 2411 2410 2146 2147 2444 2443 
2114 2115 2412 2411 2147 2148 2445 2444 
2115 2116 2413 2412 2148 2149 2446 2445 
2116 2117 2414 2413 2149 2150 2447 2446 
2117 2118 2415 2414 2150 2151 2448 2447 
2118 2119 2416 2415 2151 2152 2449 2448 
2119 2120 2417 2416 2152 2153 2450 2449 
2120 2121 2418 2417 2153 2154 2451 2450 
2121 2122 2419 2418 2154 2155 2452 2451 
2122 2123 2420 2419 2155 2156 2453 2452 
2123 2124 2421 2420 2156 2157 2454 2453 
2124 2125 2422 2421 2157 2158 2455 2454 
2125 2126 2423 2422 2158 2159 2456 2455 
2126 2127 2424 2423 2159 2160 2457 2456 
2127 2128 2425 2424 2160 2161 2458 2457 
2128 2129 2426 2425 2161 2162 2459 2458 
2129 2130 2427 2426 2162 2163 2460 2459 
2130 2131 2428 2427 2163 2164 2461 2460 
2131 2132 2429 2428 2164 2165 2462 2461 
2132 2133 2430 2429 2165 2166 2463 2462 
2133 2134 2431 2430 2166 2167 2464 2463 
2134 2135 2432 2431 2167 2168 2465 2464 
2135 2136 2433 2432 2168 2169 2466 2465 
2136 2137 2434 2433 2169 2170 2467 2466 
2137 2138 2435 2434 2170 2171 2468 2467 
2138 2139 2436 2435 2171 2172 2469 2468 
2139 2140 2437 2436 2172 2173 2470 2469 
2140 2141 2438 2437 2173 2174 2471 2470 
2141 2142 2439 2438 2174 2175 2472 2471 
2142 2143 2440 2439 2175 2176 2473 2472 
2143 2144 2441 2440 2176 2177 2474 2473 
2145 2146 2443 2442 2178 2179 2476 2475 
2146 2147 2444 2443 2179 2180 2477 2476 
2147 2148 2445 2444 2180 2181 2478 2477 
2148 2149 2446 2445 2181 2182 2479 2478 
2149 2150 2447 2446 2182 2183 2480 2479 
2150 2151 2448 2447 2183 2184 2481 2480 
2151 2152 2449 2448 2184 2185 2482 2481 
2152 2153 2450 2449 2185 2186 2483 2482 
2153 2154 2451 2450 2186 2187 2484 2483 
2154 2155 2452 2451 2187 2188 2485 2484 
2155 2156 2453 2452 2188 2189 2486 2485 
2156 2157 2454 2453 2189 2190 2487 2486 
2157 2158 2455 2454 2190 2191 2488 2487 
2158 2159 2456 2455 2191 2192 2489 2488 
2159 2160 2457 2456 2192 2193 2490 2489 
2160 2161 2458 2457 2193 2194 2491 2490 
2161 2162 2459 2458 2194 2195 2492 2491 
2162 2163 2460 2459 2195 2196 2493 2492 
2163 2164 2461 2460 2196 2197 2494 2493 
2164 2165 2462 2461 2197 2198 2495 2494 
2165 2166 2463 2462 2198 2199 2496 2495 
2166 2167 2464 2463 2199 2200 2497 2496 
2167 2168 2465 2464 2200 2201 2498 2497 
2168 2169 2466 2465 2201 2202 2499 2498 
2169 2170 2467 2466 2202 2203 2500 2499 
2170 2171 2468 2467 2203 2204 2501 2500 
2171 2172 2469 2468 2204 2205 2502 2501 
2172 2173 2470 2469 2205 2206 2503 2502 
2173 2174 2471 2470 2206 2207 2504 2503 
2174 2175 2472 2471 2207 2208 2505 2504 
2175 2176 2473 2472 2208 2209 2506 2505 
2176 2177 2474 2473 2209 2210 2507 2506 
2178 2179 2476 2475 2211 2212 2509 2508 
2179 2180 2477 2476 2212 2213 2510 2509 
2180 2181 2478 2477 2213 2214 2511 2510 
2181 2182 2479 2478 2214 2215 2512 2511 
2182 2183 2480 2479 2215 2216 2513 2512 
2183 2184 2481 2480 2216 2217 2514 2513 
2184 2185 2482 2481 2217 2218 2515 2514 
2185 2186 2483 2482 2218 2219 2516 2515 
2186 2187 2484 2483 2219 2220 2517 2516 
2187 2188 2485 2484 2220 2221 2518 2517 
2188 2189 2486 2485 2221 2222 2519 2518 
2189 2190 2487 2486 2222 2223 2520 2519 
2190 2191 2488 2487 2223 2224 2521 2520 
2191 2192 2489 2488 2224 2225 2522 2521 
2192 2193 2490 2489 2225 2226 2523 2522 
2193 2194 2491 2490 2226 2227 2524 2523 
2194 2195 2492 2491 2227 2228 2525 2524 
2195 2196 2493 2492 2228 2229 2526 2525 
2196 2197 2494 2493 2229 2230 2527 2526 
2197 2198 2495 2494 2230 2231 2528 2527 
2198 2199 2496 2495 2231 2232 2529 2528 
2199 2200 2497 2496 2232 2233 2530 2529 
2200 2201 2498 2497 2233 2234 2531 2530 
2201 2202 2499 2498 2234 2235 2532 2531 
2202 2203 2500 2499 2235 2236 2533 2532 
2203 2204 2501 2500 2236 2237 2534 2533 
2204 2205 2502 2501 2237 2238 2535 2534 
2205 2206 2503 2502 2238 2239 2536 2535 
2206 2207 2504 2503 2239 2240 2537 2536 
2207 2208 2505 2504 2240 2241 2538 2537 
2208 2209 2506 2505 2241 2242 2539 2538 
2209 2210 2507 2506 2242 2243 2540 2539 
2211 2212 2509 2508 2244 2245 2542 2541 
2212 2213 2510 2509 2245 2246 2543 2542 
2213 2214 2511 2510 2246 2247 2544 2543 
2214 2215 2512 2511 2247 2248 2545 2544 
2215 2216 2513 2512 2248 2249 2546 2545 
2216 2217 2514 2513 2249 2250 2547 2546 
2217 2218 2515 2514 2250 2251 2548 2547 
2218 2219 2516 2515 2251 2252 2549 2548 
2219 2220 2517 2516 2252 2253 2550 2549 
2220 2221 2518 2517 2253 2254 2551 2550 
2221 2222 2519 2518 2254 2255 2552 2551 
2222 2223 2520 2519 2255 2256 2553 2552 
2223 2224 2521 2520 2256 2257 2554 2553 
2224 2225 2522 2521 2257 2258 2555 2554 
2225 2226 2523 2522 2258 2259 2556 2555 
2226 2227 2524 2523 2259 2260 2557 2556 
2227 2228 2525 2524 2260 2261 2558 2557 
2228 2229 2526 2525 2261 2262 2559 2558 
2229 2230 2527 2526 2262 2263 2560 2559 
2230 2231 2528 2527 2263 2264 2561 2560 
2231 2232 2529 2528 2264 2265 2562 2561 
2232 2233 2530 2529 2265 2266 2563 2562 
2233 2234 2531 2530 2266 2267 2564 2563 
2234 2235 2532 2531 2267 2268 2565 2564 
2235 2236 2533 2532 2268 2269 2566 2565 
2236 2237 2534 2533 2269 2270 2567 2566 
2237 2238 2535 2534 2270 2271 2568 2567 
2238 2239 2536 2535 2271 2272 2569 2568 
2239 2240 2537 2536 2272 2273 2570 2569 
2240 2241 2538 2537 2273 2274 2571 2570 
2241 2242 2539 2538 2274 2275 2572 2571 
2242 2243 2540 2539 2275 2276 2573 2572 
2244 2245 2542 2541 2277 2278 2575 2574 
2245 2246 2543 2542 2278 2279 2576 2575 
2246 2247 2544 2543 2279 2280 2577 2576 
2247 2248 2545 2544 2280 2281 2578 2577 
2248 2249 2546 2545 2281 2282 2579 2578 
2249 2250 2547 2546 2282 2283 2580 2579 
2250 2251 2548 2547 2283 2284 2581 2580 
2251 2252 2549 2548 2284 2285 2582 2581 
2252 2253 2550 2549 2285 2286 2583 2582 
2253 2254 2551 2550 2286 2287 2584 2583 
2254 2255 2552 2551 2287 2288 2585 2584 
2255 2256 2553 2552 2288 2289 2586 2585 
2256 2257 2554 2553 2289 2290 2587 2586 
2257 2258 2555 2554 2290 2291 2588 2587 
2258 2259 2556 2555 2291 2292 2589 2588 
2259 2260 2557 2556 2292 2293 2590 2589 
2260 2261 2558 2557 2293 2294 2591 2590 
2261 2262 2559 2558 2294 2295 2592 2591 
2262 2263 2560 2559 2295 2296 2593 2592 
2263 2264 2561 2560 2296 2297 2594 2593 
2264 2265 2562 2561 2297 2298 2595 2594 
2265 2266 2563 2562 2298 2299 2596 2595 
2266 2267 2564 2563 2299 2300 2597 2596 
2267 2268 2565 2564 2300 2301 2598 2597 
2268 2269 2566 2565 2301 2302 2599 2598 
2269 2270 2567 2566 2302 2303 2600 2599 
2270 2271 2568 2567 2303 2304 2601 2600 
2271 2272 2569 2568 2304 2305 2602 2601 
2272 2273 2570 2569 2305 2306 2603 2602 
2273 2274 2571 2570 2306 2307 2604 2603 
2274 2275 2572 2571 2307 2308 2605 2604 
2275 2276 2573 2572 2308 2309 2606 2605 
2277 2278 2575 2574 2310 2311 2608 2607 
2278 2279 2576 2575 2311 2312 2609 2608 
2279 2280 2577 2576 2312 2313 2610 2609 
2280 2281 2578 2577 2313 2314 2611 2610 
2281 2282 2579 2578 2314 2315 2612 2611 
2282 2283 2580 2579 2315 2316 2613 2612 
2283 2284 2581 2580 2316 2317 2614 2613 
2284 2285 2582 2581 2317 2318 2615 2614 
2285 2286 2583 2582 2318 2319 2616 2615 
2286 2287 2584 2583 2319 2320 2617 2616 
2287 2288 2585 2584 2320 2321 2618 2617 
2288 2289 2586 2585 2321 2322 2619 2618 
2289 2290 2587 2586 2322 2323 2620 2619 
2290 2291 2588 2587 2323 2324 2621 2620 
2291 2292 2589 2588 2324 2325 2622 2621 
2292 2293 2590 2589 2325 2326 2623 2622 
2293 2294 2591 2590 2326 2327 2624 2623 
2294 2295 2592 2591 2327 2328 2625 2624 
2295 2296 2593 2592 2328 2329 2626 2625 
2296 2297 2594 2593 2329 2330 2627 2626 
2297 2298 2595 2594 2330 2331 2628 2627 
2298 2299 2596 2595 2331 2332 2629 2628 
2299 2300 2597 2596 2332 2333 2630 2629 
2300 2301 2598 2597 2333 2334 2631 2630 
2301 2302 2599 2598 2334 2335 2632 2631 
2302 2303 2600 2599 2335 2336 2633 2632 
2303 2304 2601 2600 2336 2337 2634 2633 
2304 2305 2602 2601 2337 2338 2635 2634 
2305 2306 2603 2602 2338 2339 2636 2635 
2306 2307 2604 2603 2339 2340 2637 2636 
2307 2308 2605 2604 2340 2341 2638 2637 
2308 2309 2606 2605 2341 2342 2639 2638 
2310 2311 2608 2607 2343 2344 2641 2640 
2311 2312 2609 2608 2344 2345 2642 2641 
2312 2313 2610 2609 2345 2346 2643 2642 
2313 2314 2611 2610 2346 2347 2644 2643 
2314 2315 2612 2611 2347 2348 2645 2644 
2315 2316 2613 2612 2348 2349 2646 2645 
2316 2317 2614 2613 2349 2350 2647 2646 
2317 2318 2615 2614 2350 2351 2648 2647 
2318 2319 2616 2615 2351 2352 2649 2648 
2319 2320 2617 2616 2352 2353 2650 2649 
2320 2321 2618 2617 2353 2354 2651 2650 
2321 2322 2619 2618 2354 2355 2652 2651 
2322 2323 2620 2619 2355 2356 2653 2652 
2323 2324 2621 2620 2356 2357 2654 2653 
2324 2325 2622 2621 2357 2358 2655 2654 
2325 2326 2623 2622 2358 2359 2656 2655 
2326 2327 2624 2623 2359 2360 2657 2656 
2327 2328 2625 2624 2360 2361 2658 2657 
2328 2329 2626 2625 2361 2362 2659 2658 
2329 2330 2627 2626 2362 2363 2660 2659 
2330 2331 2628 2627 2363 2364 2661 2660 
2331 2332 2629 2628 2364 2365 2662 2661 
2332 2333 2630 2629 2365 2366 2663 2662 
2333 2334 2631 2630 2366 2367 2664 2663 
2334 2335 2632 2631 2367 2368 2665 2664 
2335 2336 2633 2632 2368 2369 2666 2665 
2336 2337 2634 2633 2369 2370 2667 2666 
2337 2338 2635 2634 2370 2371 2668 2667 
2338 2339 2636 2635 2371 2372 2669 2668 
2339 2340 2637 2636 2372 2373 2670 2669 
2340 2341 2638 2637 2373 2374 2671 2670 
2341 2342 2639 2638 2374 2375 2672 2671 
CELL_TYPES 2048
12 12 12 12 12 12 12 12 12 12 12 12 12 12 12 12 12 12 12 12 12 12 12 12 12 12 12 12 12 12 12 12 12 12 12 12 12 12 12 12 12 12 12 12 12 12 12 12 12 12 12 12 12 12 12 12 12 12 12 12 12 12 12 12 12 12 12 12 12 12 12 12 12 12 12 12 12 12 12 12 12 12 12 12 12 12 12 12 12 12 12 12 12 12 12 12 12 12 12 12 12 12 12 12 12 12 12 12 12 12 12 12 12 12 12 12 12 12 12 12 12 12 12 12 12 12 12 12 12 12 12 12 12 12 12 12 12 12 12 12 12 12 12 12 12 12 12 12 12 12 12 12 12 12 12 12 12 12 12 12 12 12 12 12 12 12 12 12 12 12 12 12 12 12 12 12 12 12 12 12 12 12 12 12 12 12 12 12 12 12 12 12 12 12 12 12 12 12 12 12 12 12 12 12 12 12 12 12 12 12 12 12 12 12 12 12 12 12 12 12 12 12 12 12 12 12 12 12 12 12 12 12 12 12 12 12 12 12 12 12 12 12 12 12 12 12 12 12 12 12 12 12 12 12 12 12 12 12 12 12 12 12 12 12 12 12 12 12 12 12 12 12 12 12 12 12 12 12 12 12 12 12 12 12 12 12 12 12 12 12 12 12 12 12 12 12 12 12 12 12 12 12 12 12 12 12 12 12 12 12 12 12 12 12 12 12 12 12 12 12 12 12 12 12 12 12 12 12 12 12 12 12 12 12 12 12 12 12 12 12 12 12 12 12 12 12 12 12 12 12 12 12 12 12 12 12 12 12 12 12 12 12 12 12 12 12 12 12 12 12 12 12 12 12 12 12 12 12 12 12 12 12 12 12 12 12 12 12 12 12 12 12 12 12 12 12 12 12 12 12 12 12 12 12 12 12 12 12 12 12 12 12 12 12 12 12 12 12 12 12 12 12 12 12 12 12 12 12 12 12 12 12 12 12 12 12 12 12 12 12 12 12 12 12 12 12 12 12 12 12 12 12 12 12 12 12 12 12 12 12 12 12 12 12 12 12 12 12 12 12 12 12 12 12 12 12 12 12 12 12 12 12 12 12 12 12 12 12 12 12 12 12 12 12 12 12 12 12 12 12 12 12 12 12 12 12 12 12 12 12 12 12 12 12 12 12 12 12 12 12 12 12 12 12 12 12 12 12 12 12 12 12 12 12 12 12 12 12 12 12 12 12 12 12 12 12 12 12 12 12 12 12 12 12 12 12 12 12 12 12 12 12 12 12 12 12 12 12 12 12 12 12 12 12 12 12 12 12 12 12 12 12 12 12 12 12 12 12 12 12 12 12 12 12 12 12 12 12 12 12 12 12 12 12 12 12 12 12 12 12 12 12 12 12 12 12 12 12 12 12 12 12 12 12 12 12 12 12 12 12 12 12 12 12 12 12 12 12 12 12 12 12 12 12 12 12 12 12 12 12 12 12 12 12 12 12 12 12 12 12 12 12 12 12 12 12 12 12 12 12 12 12 12 12 12 12 12 12 12 12 12 12 12 12 12 12 12 12 12 12 12 12 12 12 12 12 12 12 12 12 12 12 12 12 12 12 12 12 12 12 12 12 12 12 12 12 12 12 12 12 12 12 12 12 12 12 12 12 12 12 12 12 12 12 12 12 12 12 12 12 12 12 12 12 12 12 12 12 12 12 12 12 12 12 12 12 12 12 12 12 12 12 12 12 12 12 12 12 12 12 12 12 12 12 12 12 12 12 12 12 12 12 12 12 12 12 12 12 12 12 12 12 12 12 12 12 12 12 12 12 12 12 12 12 12 12 12 12 12 12 12 12 12 12 12 12 12 12 12 12 12 12 12 12 12 12 12 12 12 12 12 12 12 12 12 12 12 12 12 12 12 12 12 12 12 12 12 12 12 12 12 12 12 12 12 12 12 12 12 12 12 12 12 12 12 12 12 12 12 12 12 12 12 12 12 12 12 12 12 12 12 12 12 12 12 12 12 12 12 12 12 12 12 12 12 12 12 12 12 12 12 12 12 12 12 12 12 12 12 12 12 12 12 12 12 12 12 12 12 12 12 12 12 12 12 12 12 12 12 12 12 12 12 12 12 12 12 12 12 12 12 12 12 12 12 12 12 12 12 12 12 12 12 12 12 12 12 12 12 12 12 12 12 12 12 12 12 12 12 12 12 12 12 12 12 12 12 12 12 12 12 12 12 12 12 12 12 12 12 12 12 12 12 12 12 12 12 12 12 12 12 12 12 12 12 12 12 12 12 12 12 12 12 12 12 12 12 12 12 12 12 12 12 12 12 12 12 12 12 12 12 12 12 12 12 12 12 12 12 12 12 12 12 12 12 12 12 12 12 12 12 12 12 12 12 12 12 12 12 12 12 12 12 12 12 12 12 12 12 12 12 12 12 12 12 12 12 12 12 12 12 12 12 12 12 12 12 12 12 12 12 12 12 12 12 12 12 12 12 12 12 12 12 12 12 12 12 12 12 12 12 12 12 12 12 12 12 12 12 12 12 12 12 12 12 12 12 12 12 12 12 12 12 12 12 12 12 12 12 12 12 12 12 12 12 12 12 12 12 12 12 12 12 12 12 12 12 12 12 12 12 12 12 12 12 12 12 12 12 12 12 12 12 12 12 12 12 12 12 12 12 12 12 12 12 12 12 12 12 12 12 12 12 12 12 12 12 12 12 12 12 12 12 12 12 12 12 12 12 12 12 12 12 12 12 12 12 12 12 12 12 12 12 12 12 12 12 12 12 12 12 12 12 12 12 12 12 12 12 12 12 12 12 12 12 12 12 12 12 12 12 12 12 12 12 12 12 12 12 12 12 12 12 12 12 12 12 12 12 12 12 12 12 12 12 12 12 12 12 12 12 12 12 12 12 12 12 12 12 12 12 12 12 12 12 12 12 12 12 12 12 12 12 12 12 12 12 12 12 12 12 12 12 12 12 12 12 12 12 12 12 12 12 12 12 12 12 12 12 12 12 12 12 12 12 12 12 12 12 12 12 12 12 12 12 12 12 12 12 12 12 12 12 12 12 12 12 12 12 12 12 12 12 12 12 12 12 12 12 12 12 12 12 12 12 12 12 12 12 12 12 12 12 12 12 12 12 12 12 12 12 12 12 12 12 12 12 12 12 12 12 12 12 12 12 12 12 12 12 12 12 12 12 12 12 12 12 12 12 12 12 12 12 12 12 12 12 12 12 12 12 12 12 12 12 12 12 12 12 12 12 12 12 12 12 12 12 12 12 12 12 12 12 12 12 12 12 12 12 12 12 12 12 12 12 12 12 12 12 12 12 12 12 12 12 12 12 12 12 12 12 12 12 12 12 12 12 12 12 12 12 12 12 12 12 12 12 12 12 12 12 12 12 12 12 12 12 12 12 12 12 12 12 12 12 12 12 12 12 12 12 12 12 12 12 12 12 12 12 12 12 12 12 12 12 12 12 12 12 12 12 12 12 12 12 12 12 12 12 12 12 12 12 12 12 12 12 12 12 12 12 12 12 12 12 12 12 12 12 12 12 12 12 12 12 12 12 12 12 12 12 12 12 12 12 12 12 12 12 12 12 12 12 12 12 12 12 12 12 12 12 12 12 12 12 12 12 12 12 12 12 12 12 12 12 12 12 12 12 12 12 12 12 12 12 12 12 12 12 12 12 12 12 12 12 12 12 12 12 12 12 12 12 12 12 12 12 12 12 12 12 12 12 12 12 12 12 12 12 12 12 12 12 12 12 12 12 12 12 12 12 12 12 12 12 12 12 12 12 12 12 12 12 12 12 12 12 12 12 12 12 12 12 12 12 12 12 12 12 12 12 12 12 12 12 12 12 12 12 12 12 12 12 12 12 12 12 12 12 12 12 12 12 12 12 12 12 12 12 12 12 12 12 12 12 12 12 12 12 12 12 12 12 12 12 12 12 12 12 12 12 12 12 12 12 12 12 12 12 12 12 12 12 12 12 12 12 12 12 12 12 12 12 12 12 12 12 12 12 12 12 12 12 12 12 12 12 12 12 12 12 12 12 12 12 12 12 12 12 12 12 12 12 12 12 12 12 12 12 12 12 12 12 12 12 12 12 12 12 12 12 12 12 12 12 12 12 12 12 12 12 12 12 12 12 12 12 12 12 12 12 12 12 12 12 12 12 12 12 12 12 12 12 12 12 12 12 12 12 12 12 12 12 12 12 12 12 12 12 12 12 12 12 12 12 12 12 12 12 12 12 12 12 12 12 12 12 12 12 12 12 12 12 12 12 12 12 12 12 12 12 12 12 12 12 12 12 12 12 12 12 12 12 12 12 12 12 12 12 12 12 12 12 12 12 12 12 12 12 12 12 12 12 12 12 12 12 12 12 12 12 12 12 12 12 12 12 12 12 12 12 12 12 12 12 12 12 12 12 12 12 12 12 12 12 12 12 12 12 12 12 12 12 12 12 12 12 12 12 12 12 12 12 12 12 12 12 12 12 12 12 12 12 12 12 12 12 12 12 12 12 12 12 12 12 12 12 12 12 12 12 12 12 12 12 12 12 12 12 12 12 12 12 12 12 12 12 12 12 12 12 12 12 12 12 12 12 12 12 12 12 12 12 12 12 12 12 12 

POINT_DATA 2673
SCALARS weights float 1
LOOKUP_TABLE default
0.244141 0.488281 0.488281 0.488281 0.488281 0.488281 0.488281 0.488281 0.488281 0.488281 0.488281 0.488281 0.488281 0.488281 0.488281 0.488281 0.488281 0.488281 0.488281 0.488281 0.488281 0.488281 0.488281 0.488281 0.488281 0.488282 0.488281 0.488281 0.488281 0.488281 0.488281 0.488281 0.244141 0.488281 0.976563 0.976562 0.976562 0.976562 0.976562 0.976563 0.976563 0.976562 0.976562 0.976563 0.976563 0.976563 0.976563 0.976562 0.976562 0.976562 0.976562 0.976562 0.976562 0.976563 0.976563 0.976563 0.976562 0.976563 0.976563 0.976562 0.976563 0.976563 0.976562 0.976562 0.976562 0.488281 0.488281 0.976562 0.976562 0.976562 0.976562 0.976562 0.976563 0.976563 0.976562 0.976562 0.976563 0.976562 0.976563 0.976563 0.976562 0.976562 0.976562 0.976562 0.976562 0.976562 0.976563 0.976563 0.976562 0.976562 0.976563 0.976563 0.976562 0.976562 0.976562 0.976562 0.976562 0.976562 0.488281 0.488281 0.976562 0.976562 0.976562 0.976562 0.976562 0.976563 0.976562 0.976562 0.976562 0.976563 0.976562 0.976562 0.976563 0.976562 0.976562 0.976562 0.976562 0.976562 0.976562 0.976563 0.976563 0.976562 0.976562 0.976563 0.976563 0.976562 0.976562 0.976562 0.976562 0.976562 0.976562 0.488281 0.488281 0.976562 0.976562 0.976562 0.976562 0.976562 0.976563 0.976562 0.976562 0.976562 0.976563 0.976562 0.976563 0.976563 0.976562 0.976562 0.976562 0.976562 0.976562 0.976562 0.976563 0.976563 0.976562 0.976562 0.976563 0.976563 0.976562 0.976562 0.976562 0.976562 0.976562 0.976562 0.488281 0.488281 0.976562 0.976562 0.976562 0.976562 0.976562 0.976562 0.976562 0.976562 0.976562 0.976562 0.976562 0.976562 0.976563 0.976562 0.976562 0.976562 0.976562 0.976562 0.976562 0.976562 0.976563 0.976562 0.976562 0.976563 0.976563 0.976562 0.976562 0.976562 0.976562 0.976562 0.976562 0.488281 0.488281 0.976562 0.976562 0.976562 0.976562 0.976562 0.976563 0.976563 0.976562 0.976562 0.976563 0.976562 0.976563 0.976563 0.976562 0.976562 0.976562 0.976562 0.976562 0.976562 0.976563 0.976563 0.976563 0.976562 0.976563 0.976563 0.976562 0.976562 0.976562 0.976562 0.976562 0.976562 0.488281 0.488281 0.976562 0.976562 0.976562 0.976562 0.976562 0.976563 0.976562 0.976562 0.976562 0.976563 0.976562 0.976563 0.976563 0.976562 0.976562 0.976562 0.976562 0.976562 0.976562 0.976563 0.976563 0.976563 0.976562 0.976563 0.976563 0.976562 0.976562 0.976562 0.976562 0.976562 0.976562 0.488281 0.244141 0.488281 0.488281 0.488281 0.488281 0.488281 0.488281 0.488281 0.488281 0.488281 0.488281 0.488281 0.488281 0.488281 0.488281 0.488281 0.488281 0.488281 0.488281 0.488281 0.488281 0.488281 0.488281 0.488281 0.488281 0.488281 0.488281 0.488281 0.488281 0.488281 0.488281 0.488281 0.244141 0.488281 0.976563 0.976563 0.976563 0.976563 0.976563 0.976563 0.976563 0.976563 0.976563 0.976563 0.976563 0.976563 0.976563 0.976563 0.976563 0.976563 0.976562 0.976562 0.976563 0.976563 0.976563 0.976563 0.976563 0.976563 0.976563 0.976562 0.976563 0.976563 0.976562 0.976563 0.976563 0.488281 0.976563 1.95313 1.95313 1.95313 1.95313 1.95313 1.95313 1.95313 1.95312 1.95313 1.95313 1.95313 1.95313 1.95313 1.95313 1.95313 1.95313 1.95312 1.95312 1.95313 1.95313 1.95313 1.95313 1.95313 1.95313 1.95313 1.95312 1.95313 1.95313 1.95312 1.95313 1.95313 0.976563 0.976563 1.95313 1.95313 1.95313 1.95313 1.95313 1.95313 1.95313 1.95312 1.95313 1.95313 1.95313 1.95313 1.95313 1.95312 1.95313 1.95313 1.95312 1.95312 1.95313 1.95313 1.95313 1.95313 1.95312 1.95313 1.95313 1.95312 1.95313 1.95313 1.95312 1.95313 1.95313 0.976563 0.976563 1.95313 1.95313 1.95313 1.95313 1.95313 1.95313 1.95313 1.95312 1.95313 1.95313 1.95313 1.95313 1.95313 1.95312 1.95313 1.95313 1.95312 1.95312 1.95313 1.95313 1.95313 1.95313 1.95312 1.95313 1.95313 1.95312 1.95313 1.95313 1.95312 1.95313 1.95313 0.976563 0.976563 1.95313 1.95313 1.95313 1.95313 1.95313 1.95313 1.95313 1.95312 1.95313 1.95313 1.95313 1.95313 1.95313 1.95313 1.95313 1.95313 1.95312 1.95312 1.95313 1.95313 1.95313 1.95313 1.95313 1.95313 1.95313 1.95312 1.95313 1.95313 1.95312 1.95313 1.95313 0.976563 0.976563 1.95313 1.95313 1.95313 1.95313 1.95313 1.95313 1.95313 1.95312 1.95312 1.95313 1.95313 1.95313 1.95313 1.95312 1.95312 1.95313 1.95312 1.95312 1.95312 1.95313 1.95313 1.95313 1.95312 1.95313 1.95313 1.95312 1.95313 1.95313 1.95312 1.95313 1.95313 0.976563 0.976563 1.95313 1.95313 1.95313 1.95313 1.95313 1.95313 1.95313 1.95313 1.95313 1.95313 1.95313 1.95313 1.95313 1.95313 1.95313 1.95313 1.95312 1.95312 1.95313 1.95313 1.95313 1.95313 1.95313 1.95313 1.95313 1.95312 1.95313 1.95313 1.95312 1.95313 1.95313 0.976563 0.976563 1.95313 1.95313 1.95313 1.95313 1.95313 1.95313 1.95313 1.95312 1.95313 1.95313 1.95313 1.95313 1.95313 1.95312 1.95312 1.95313 1.95312 1.95312 1.95313 1.95313 1.95313 1.95313 1.95312 1.95313 1.95313 1.95312 1.95313 1.95313 1.95312 1.95313 1.95313 0.976563 0.488281 0.976563 0.976563 0.976563 0.976563 0.976563 0.976563 0.976563 0.976562 0.976562 0.976563 0.976562 0.976563 0.976563 0.976562 0.976562 0.976562 0.976562 0.976562 0.976562 0.976563 0.976563 0.976563 0.976562 0.976563 0.976563 0.976562 0.976562 0.976562 0.976562 0.976562 0.976562 0.488281 0.488281 0.976563 0.976563 0.976563 0.976563 0.976563 0.976563 0.976563 0.976562 0.976563 0.976563 0.976563 0.976563 0.976563 0.976563 0.976563 0.976563 0.976562 0.976562 0.976563 0.976563 0.976563 0.976563 0.976563 0.976563 0.976563 0.976562 0.976563 0.976563 0.976562 0.976563 0.976563 0.488281 0.976563 1.95313 1.95313 1.95313 1.95313 1.95313 1.95313 1.95313 1.95312 1.95313 1.95313 1.95313 1.95313 1.95313 1.95313 1.95313 1.95313 1.95312 1.95312 1.95313 1.95313 1.95313 1.95313 1.95313 1.95313 1.95313 1.95312 1.95313 1.95313 1.95312 1.95313 1.95313 0.976563 0.976563 1.95313 1.95313 1.95313 1.95313 1.95313 1.95313 1.95313 1.95312 1.95313 1.95313 1.95313 1.95313 1.95313 1.95312 1.95313 1.95313 1.95312 1.95312 1.95313 1.95313 1.95313 1.95313 1.95312 1.95313 1.95313 1.95312 1.95313 1.95313 1.95312 1.95313 1.95313 0.976563 0.976563 1.95313 1.95313 1.95313 1.95313 1.95313 1.95313 1.95313 1.95312 1.95312 1.95313 1.95312 1.95313 1.95313 1.95312 1.95312 1.95313 1.95312 1.95312 1.95313 1.95313 1.95313 1.95313 1.95312 1.95313 1.95313 1.95312 1.95313 1.95313 1.95312 1.95313 1.95313 0.976563 0.976563 1.95313 1.95313 1.95313 1.95313 1.95313 1.95313 1.95313 1.95312 1.95313 1.95313 1.95313 1.95313 1.95313 1.95313 1.95313 1.95313 1.95312 1.95312 1.95313 1.95313 1.95313 1.95313 1.95313 1.95313 1.95313 1.95312 1.95313 1.95313 1.95312 1.95313 1.95313 0.976563 0.976563 1.95313 1.95313 1.95313 1.95313 1.95313 1.95313 1.95313 1.95312 1.95312 1.95313 1.95312 1.95313 1.95313 1.95312 1.95312 1.95313 1.95312 1.95312 1.95313 1.95313 1.95313 1.95313 1.95312 1.95313 1.95313 1.95312 1.95313 1.95313 1.95312 1.95313 1.95313 0.976563 0.976563 1.95313 1.95313 1.95313 1.95313 1.95313 1.95313 1.95313 1.95312 1.95313 1.95313 1.95313 1.95313 1.95313 1.95313 1.95312 1.95313 1.95312 1.95312 1.95313 1.95313 1.95313 1.95313 1.95313 1.95313 1.95313 1.95312 1.95313 1.95313 1.95312 1.95313 1.95313 0.976563 0.976563 1.95313 1.95313 1.95313 1.95313 1.95313 1.95313 1.95313 1.95312 1.95312 1.95313 1.95313 1.95313 1.95313 1.95313 1.95312 1.95313 1.95312 1.95312 1.95313 1.95313 1.95313 1.95313 1.95313 1.95313 1.95313 1.95312 1.95313 1.95313 1.95312 1.95313 1.95313 0.976563 0.488281 0.976562 0.976562 0.976563 0.976563 0.976562 0.976563 0.976562 0.976562 0.976562 0.976563 0.976562 0.976563 0.976563 0.976562 0.976562 0.976562 0.976562 0.976562 0.976562 0.976563 0.976563 0.976563 0.976562 0.976563 0.976563 0.976562 0.976562 0.976562 0.976562 0.976562 0.976562 0.488281 0.488281 0.976562 0.976562 0.976562 0.976562 0.976562 0.976563 0.976562 0.976562 0.976562 0.976563 0.976562 0.976563 0.976563 0.976562 0.976562 0.976562 0.976562 0.976562 0.976562 0.976563 0.976563 0.976562 0.976562 0.976563 0.976563 0.976562 0.976562 0.976562 0.976562 0.976562 0.976562 0.488281 0.976562 1.95312 1.95312 1.95312 1.95312 1.95312 1.95313 1.95312 1.95312 1.95312 1.95313 1.95312 1.95313 1.95313 1.95312 1.95312 1.95312 1.95312 1.95312 1.95312 1.95313 1.95313 1.95312 1.95312 1.95313 1.95313 1.95312 1.95313 1.95313 1.95312 1.95312 1.95312 0.976563 0.976562 1.95312 1.95312 1.95312 1.95312 1.95312 1.95313 1.95312 1.95312 1.95312 1.95313 1.95312 1.95312 1.95313 1.95312 1.95312 1.95312 1.95312 1.95312 1.95312 1.95313 1.95313 1.95312 1.95312 1.95313 1.95313 1.95312 1.95312 1.95312 1.95312 1.95312 1.95312 0.976563 0.976562 1.95312 1.95312 1.95312 1.95312 1.95312 1.95312 1.95312 1.95312 1.95312 1.95312 1.95312 1.95312 1.95313 1.95312 1.95312 1.95312 1.95312 1.95312 1.95312 1.95312 1.95313 1.95312 1.95312 1.95313 1.95313 1.95312 1.95312 1.95312 1.95312 1.95312 1.95312 0.976563 0.976562 1.95312 1.95312 1.95312 1.95312 1.95312 1.95312 1.95312 1.95312 1.95312 1.95312 1.95312 1.95312 1.95313 1.95312 1.95312 1.95312 1.95312 1.95312 1.95312 1.95312 1.95313 1.95312 1.95312 1.95313 1.95313 1.95312 1.95312 1.95312 1.95312 1.95312 1.95312 0.976563 0.976562 1.95312 1.95312 1.95312 1.95312 1.95312 1.95312 1.95312 1.95312 1.95312 1.95312 1.95312 1.95312 1.95313 1.95312 1.95312 1.95312 1.95312 1.95312 1.95312 1.95312 1.95313 1.95312 1.95312 1.95313 1.95313 1.95312 1.95312 1.95312 1.95312 1.95312 1.95312 0.976563 0.976562 1.95312 1.95312 1.95312 1.95312 1.95312 1.95313 1.95312 1.95312 1.95312 1.95313 1.95312 1.95313 1.95313 1.95312 1.95312 1.95312 1.95312 1.95312 1.95312 1.95313 1.95313 1.95312 1.95312 1.95313 1.95313 1.95312 1.95312 1.95312 1.95312 1.95312 1.95312 0.976563 0.976562 1.95312 1.95312 1.95312 1.95312 1.95312 1.95313 1.95312 1.95312 1.95312 1.95313 1.95312 1.95313 1.95313 1.95312 1.95312 1.95312 1.95312 1.95312 1.95312 1.95313 1.95313 1.95312 1.95312 1.95313 1.95313 1.95312 1.95312 1.95312 1.95312 1.95312 1.95312 0.976563 0.488281 0.976562 0.976562 0.976562 0.976562 0.976562 0.976562 0.976562 0.976562 0.976562 0.976562 0.976562 0.976562 0.976563 0.976562 0.976562 0.976562 0.976562 0.976562 0.976562 0.976562 0.976562 0.976562 0.976562 0.976562 0.976563 0.976562 0.976562 0.976562 0.976562 0.976562 0.976562 0.488281 0.488281 0.976562 0.976562 0.976562 0.976562 0.976562 0.976562 0.976562 0.976562 0.976562 0.976562 0.976562 0.976562 0.976563 0.976562 0.976562 0.976562 0.976562 0.976562 0.976562 0.976562 0.976562 0.976562 0.976562 0.976563 0.976563 0.976562 0.976562 0.976562 0.976562 0.976562 0.976562 0.488281 0.976562 1.95312 1.95312 1.95312 1.95312 1.95312 1.95312 1.95312 1.95312 1.95312 1.95312 1.95312 1.95312 1.95313 1.95312 1.95312 1.95312 1.95312 1.95312 1.95312 1.95312 1.95312 1.95312 1.95312 1.95312 1.95313 1.95312 1.95312 1.95312 1.95312 1.95312 1.95312 0.976562 0.976562 1.95312 1.95312 1.95312 1.95312 1.95312 1.95312 1.95312 1.95312 1.95312 1.95312 1.95312 1.95312 1.95312 1.95312 1.95312 1.95312 1.95312 1.95312 1.95312 1.95312 1.95312 1.95312 1.95312 1.95312 1.95313 1.95312 1.95312 1.95312 1.95312 1.95312 1.95312 0.976562 0.976562 1.95312 1.95312 1.95312 1.95312 1.95312 1.95312 1.95312 1.95312 1.95312 1.95312 1.95312 1.95312 1.95312 1.95312 1.95312 1.95312 1.95312 1.95312 1.95312 1.95312 1.95312 1.95312 1.95312 1.95312 1.95313 1.95312 1.95312 1.95312 1.95312 1.95312 1.95312 0.976562 0.976562 1.95312 1.95312 1.95312 1.95312 1.95312 1.95312 1.95312 1.95312 1.95312 1.95312 1.95312 1.95312 1.95312 1.95312 1.95312 1.95312 1.95312 1.95312 1.95312 1.95312 1.95312 1.95312 1.95312 1.95312 1.95313 1.95312 1.95312 1.95312 1.95312 1.95312 1.95312 0.976562 0.976562 1.95312 1.95312 1.95312 1.95312 1.95312 1.95312 1.95312 1.95312 1.95312 1.95312 1.95312 1.95312 1.95312 1.95312 1.95312 1.95312 1.95312 1.95312 1.95312 1.95312 1.95312 1.95312 1.95312 1.95312 1.95313 1.95312 1.95312 1.95312 1.95312 1.95312 1.95312 0.976562 0.976562 1.95312 1.95312 1.95312 1.95312 1.95312 1.95312 1.95312 1.95312 1.95312 1.95312 1.95312 1.95312 1.95313 1.95312 1.95312 1.95312 1.95312 1.95312 1.95312 1.95312 1.95312 1.95312 1.95312 1.95312 1.95313 1.95312 1.95312 1.95312 1.95312 1.95312 1.95312 0.976562 0.976562 1.95312 1.95312 1.95312 1.95312 1.95312 1.95312 1.95312 1.95312 1.95312 1.95312 1.95312 1.95312 1.95313 1.95312 1.95312 1.95312 1.95312 1.95312 1.95312 1.95312 1.95312 1.95312 1.95312 1.95312 1.95313 1.95312 1.95312 1.95312 1.95312 1.95312 1.95312 0.976562 0.488281 0.976562 0.976562 0.976562 0.976562 0.976562 0.976562 0.976562 0.976562 0.976562 0.976562 0.976562 0.976562 0.976562 0.976562 0.976562 0.976562 0.976562 0.976562 0.976562 0.976562 0.976562 0.976562 0.976562 0.976562 0.976562 0.976561 0.976562 0.976562 0.976561 0.976562 0.976562 0.488281 0.488281 0.976562 0.976562 0.976562 0.976562 0.976562 0.976562 0.976562 0.976562 0.976562 0.976562 0.976562 0.976562 0.976562 0.976562 0.976562 0.976562 0.976561 0.976561 0.976562 0.976562 0.976562 0.976562 0.976562 0.976562 0.976562 0.976561 0.976562 0.976562 0.976561 0.976562 0.976562 0.488281 0.976562 1.95312 1.95312 1.95312 1.95312 1.95312 1.95312 1.95312 1.95312 1.95312 1.95312 1.95312 1.95312 1.95312 1.95312 1.95312 1.95312 1.95312 1.95312 1.95312 1.95312 1.95312 1.95312 1.95312 1.95312 1.95312 1.95312 1.95312 1.95312 1.95312 1.95312 1.95312 0.976562 0.976562 1.95312 1.95312 1.95312 1.95312 1.95312 1.95312 1.95312 1.95312 1.95312 1.95312 1.95312 1.95312 1.95312 1.95312 1.95312 1.95312 1.95312 1.95312 1.95312 1.95312 1.95312 1.95312 1.95312 1.95312 1.95312 1.95312 1.95312 1.95312 1.95312 1.95312 1.95312 0.976562 0.976562 1.95312 1.95312 1.95312 1.95312 1.95312 1.95312 1.95312 1.95312 1.95312 1.95312 1.95312 1.95312 1.95312 1.95312 1.95312 1.95312 1.95312 1.95312 1.95312 1.95312 1.95312 1.95312 1.95312 1.95312 1.95312 1.95312 1.95312 1.95312 1.95312 1.95312 1.95312 0.976562 0.976562 1.95312 1.95312 1.95312 1.95312 1.95312 1.95312 1.95312 1.95312 1.95312 1.95312 1.95312 1.95312 1.95312 1.95312 1.95312 1.95312 1.95312 1.95312 1.95312 1.95312 1.95312 1.95312 1.95312 1.95312 1.95312 1.95312 1.95312 1.95312 1.95312 1.95312 1.95312 0.976562 0.976562 1.95312 1.95312 1.95312 1.95312 1.95312 1.95312 1.95312 1.95312 1.95312 1.95312 1.95312 1.95312 1.95312 1.95312 1.95312 1.95312 1.95312 1.95312 1.95312 1.95312 1.95312 1.95312 1.95312 1.95312 1.95312 1.95312 1.95312 1.95312 1.95312 1.95312 1.95312 0.976562 0.976562 1.95312 1.95312 1.95312 1.95312 1.95312 1.95312 1.95312 1.95312 1.95312 1.95312 1.95312 1.95312 1.95312 1.95312 1.95312 1.95312 1.95312 1.95312 1.95312 1.95312 1.95312 1.95312 1.95312 1.95312 1.95312 1.95312 1.95312 1.95312 1.95312 1.95312 1.95312 0.976562 0.976562 1.95312 1.95312 1.95312 1.95312 1.95312 1.95312 1.95312 1.95312 1.95312 1.95312 1.95312 1.95312 1.95312 1.95312 1.95312 1.95312 1.95312 1.95312 1.95312 1.95312 1.95312 1.95312 1.95312 1.95312 1.95312 1.95312 1.95312 1.95312 1.95312 1.95312 1.95312 0.976562 0.488281 0.976562 0.976562 0.976562 0.976562 0.976562 0.976562 0.976562 0.976561 0.976562 0.976562 0.976562 0.976562 0.976562 0.976562 0.976562 0.976562 0.976561 0.976561 0.976562 0.976562 0.976562 0.976562 0.976562 0.976562 0.976562 0.976561 0.976562 0.976562 0.976561 0.976562 0.976562 0.488281 0.488281 0.976562 0.976562 0.976562 0.976562 0.976562 0.976562 0.976562 0.976562 0.976562 0.976562 0.976562 0.976562 0.976563 0.976562 0.976562 0.976562 0.976562 0.976562 0.976562 0.976562 0.976563 0.976562 0.976562 0.976563 0.976563 0.976562 0.976562 0.976562 0.976562 0.976562 0.976562 0.488281 0.976562 1.95312 1.95312 1.95312 1.95312 1.95312 1.95312 1.95312 1.95312 1.95312 1.95312 1.95312 1.95313 1.95313 1.95312 1.95312 1.95312 1.95312 1.95312 1.95312 1.95312 1.95313 1.95312 1.95312 1.95313 1.95313 1.95312 1.95312 1.95312 1.95312 1.95312 1.95312 0.976563 0.976562 1.95312 1.95312 1.95312 1.95312 1.95312 1.95312 1.95312 1.95312 1.95312 1.95312 1.95312 1.95312 1.95313 1.95312 1.95312 1.95312 1.95312 1.95312 1.95312 1.95312 1.95312 1.95312 1.95312 1.95313 1.95313 1.95312 1.95312 1.95312 1.95312 1.95312 1.95312 0.976563 0.976562 1.95312 1.95312 1.95312 1.95312 1.95312 1.95312 1.95312 1.95312 1.95312 1.95312 1.95312 1.95312 1.95313 1.95312 1.95312 1.95312 1.95312 1.95312 1.95312 1.95312 1.95312 1.95312 1.95312 1.95313 1.95313 1.95312 1.95312 1.95312 1.95312 1.95312 1.95312 0.976563 0.976562 1.95312 1.95312 1.95312 1.95312 1.95312 1.95312 1.95312 1.95312 1.95312 1.95312 1.95312 1.95312 1.95313 1.95312 1.95312 1.95312 1.95312 1.95312 1.95312 1.95312 1.95312 1.95312 1.95312 1.95313 1.95313 1.95312 1.95312 1.95312 1.95312 1.95312 1.95312 0.976563 0.976562 1.95312 1.95312 1.95312 1.95312 1.95312 1.95312 1.95312 1.95312 1.95312 1.95312 1.95312 1.95312 1.95312 1.95312 1.95312 1.95312 1.95312 1.95312 1.95312 1.95312 1.95312 1.95312 1.95312 1.95313 1.95313 1.95312 1.95312 1.95312 1.95312 1.95312 1.95312 0.976562 0.976562 1.95312 1.95312 1.95312 1.95312 1.95312 1.95312 1.95312 1.95312 1.95312 1.95312 1.95312 1.95312 1.95313 1.95312 1.95312 1.95312 1.95312 1.95312 1.95312 1.95312 1.95312 1.95312 1.95312 1.95313 1.95313 1.95312 1.95312 1.95312 1.95312 1.95312 1.95312 0.976563 0.976562 1.95312 1.95312 1.95312 1.95312 1.95312 1.95313 1.95312 1.95312 1.95312 1.95312 1.95312 1.95312 1.95313 1.95312 1.95312 1.95312 1.95312 1.95312 1.95312 1.95312 1.95312 1.95312 1.95312 1.95313 1.95313 1.95312 1.95312 1.95312 1.95312 1.95312 1.95312 0.976563 0.488281 0.976562 0.976562 0.976562 0.976562 0.976562 0.976562 0.976562 0.976562 0.976562 0.976562 0.976562 0.976562 0.976562 0.976562 0.976562 0.976562 0.976562 0.976562 0.976562 0.976562 0.976562 0.976562 0.976562 0.976562 0.976563 0.976561 0.976562 0.976562 0.976561 0.976562 0.976562 0.488281 0.488281 0.976562 0.976562 0.976562 0.976562 0.976562 0.976563 0.976563 0.976562 0.976562 0.976563 0.976562 0.976562 0.976563 0.976562 0.976562 0.976562 0.976562 0.976562 0.976562 0.976563 0.976563 0.976562 0.976562 0.976563 0.976563 0.976562 0.976562 0.976562 0.976562 0.976562 0.976562 0.488281 0.976562 1.95312 1.95312 1.95312 1.95312 1.95312 1.95313 1.95312 1.95312 1.95312 1.95313 1.95312 1.95313 1.95313 1.95312 1.95312 1.95312 1.95312 1.95312 1.95312 1.95313 1.95313 1.95312 1.95312 1.95313 1.95313 1.95312 1.95312 1.95312 1.95312 1.95312 1.95312 0.976563 0.976562 1.95312 1.95312 1.95312 1.95312 1.95312 1.95313 1.95312 1.95312 1.95312 1.95313 1.95312 1.95313 1.95313 1.95312 1.95312 1.95312 1.95312 1.95312 1.95312 1.95313 1.95313 1.95312 1.95312 1.95313 1.95313 1.95312 1.95312 1.95312 1.95312 1.95312 1.95312 0.976563 0.976562 1.95312 1.95312 1.95312 1.95312 1.95312 1.95313 1.95312 1.95312 1.95312 1.95312 1.95312 1.95313 1.95313 1.95312 1.95312 1.95312 1.95312 1.95312 1.95312 1.95313 1.95313 1.95312 1.95312 1.95313 1.95313 1.95312 1.95312 1.95312 1.95312 1.95312 1.95312 0.976563 0.976562 1.95312 1.95312 1.95312 1.95312 1.95312 1.95313 1.95312 1.95312 1.95312 1.95312 1.95312 1.95313 1.95313 1.95312 1.95312 1.95312 1.95312 1.95312 1.95312 1.95313 1.95313 1.95312 1.95312 1.95313 1.95313 1.95312 1.95312 1.95312 1.95312 1.95312 1.95312 0.976563 0.976562 1.95312 1.95312 1.95312 1.95312 1.95312 1.95313 1.95312 1.95312 1.95312 1.95312 1.95312 1.95312 1.95313 1.95312 1.95312 1.95312 1.95312 1.95312 1.95312 1.95312 1.95313 1.95312 1.95312 1.95313 1.95313 1.95312 1.95312 1.95312 1.95312 1.95312 1.95312 0.976563 0.976562 1.95312 1.95312 1.95312 1.95312 1.95312 1.95313 1.95312 1.95312 1.95312 1.95313 1.95312 1.95313 1.95313 1.95312 1.95312 1.95312 1.95312 1.95312 1.95312 1.95313 1.95313 1.95312 1.95312 1.95313 1.95313 1.95312 1.95312 1.95312 1.95312 1.95312 1.95312 0.976563 0.976562 1.95312 1.95312 1.95312 1.95312 1.95312 1.95313 1.95312 1.95312 1.95312 1.95313 1.95312 1.95313 1.95313 1.95312 1.95312 1.95312 1.95312 1.95312 1.95312 1.95313 1.95313 1.95312 1.95312 1.95313 1.95313 1.95312 1.95312 1.95312 1.95312 1.95312 1.95312 0.976563 0.488281 0.976562 0.976562 0.976562 0.976562 0.976562 0.976562 0.976562 0.976562 0.976562 0.976562 0.976562 0.976562 0.976563 0.976562 0.976562 0.976562 0.976562 0.976562 0.976562 0.976562 0.976562 0.976562 0.976562 0.976563 0.976563 0.976562 0.976562 0.976562 0.976562 0.976562 0.976562 0.488281 0.24414 0.488281 0.488281 0.488281 0.488281 0.488281 0.488281 0.488281 0.488281 0.488281 0.488281 0.488281 0.488281 0.488281 0.488281 0.488281 0.488281 0.488281 0.488281 0.488281 0.488281 0.488281 0.488281 0.488281 0.488281 0.488281 0.488281 0.488281 0.488281 0.488281 0.488281 0.488281 0.24414 0.488281 0.976562 0.976562 0.976562 0.976562 0.976562 0.976562 0.976562 0.976562 0.976562 0.976562 0.976562 0.976562 0.976562 0.976562 0.976562 0.976562 0.976561 0.976561 0.976562 0.976562 0.976562 0.976562 0.976562 0.976562 0.976562 0.976561 0.976562 0.976562 0.976561 0.976562 0.976562 0.488281 0.488281 0.976562 0.976562 0.976562 0.976562 0.976562 0.976562 0.976562 0.976562 0.976562 0.976562 0.976562 0.976562 0.976562 0.976562 0.976562 0.976562 0.976561 0.976561 0.976562 0.976562 0.976562 0.976562 0.976562 0.976562 0.976562 0.976561 0.976562 0.976562 0.976561 0.976562 0.976562 0.488281 0.488281 0.976562 0.976562 0.976562 0.976562 0.976562 0.976562 0.976562 0.976562 0.976562 0.976562 0.976562 0.976562 0.976562 0.976562 0.976562 0.976562 0.976561 0.976561 0.976562 0.976562 0.976562 0.976562 0.976562 0.976562 0.976562 0.976561 0.976562 0.976562 0.976561 0.976562 0.976562 0.488281 0.488281 0.976562 0.976562 0.976562 0.976562 0.976562 0.976562 0.976562 0.976562 0.976562 0.976562 0.976562 0.976562 0.976562 0.976562 0.976562 0.976562 0.976561 0.976561 0.976562 0.976562 0.976562 0.976562 0.976562 0.976562 0.976562 0.976561 0.976562 0.976562 0.976561 0.976562 0.976562 0.488281 0.488281 0.976562 0.976562 0.976562 0.976562 0.976562 0.976562 0.976562 0.976562 0.976562 0.976562 0.976562 0.976562 0.976562 0.976562 0.976562 0.976562 0.976561 0.976561 0.976562 0.976562 0.976562 0.976562 0.976562 0.976562 0.976562 0.976561 0.976562 0.976562 0.976561 0.976562 0.976562 0.488281 0.488281 0.976562 0.976562 0.976562 0.976562 0.976562 0.976562 0.976562 0.976562 0.976562 0.976562 0.976562 0.976562 0.976562 0.976562 0.976562 0.976562 0.976561 0.976561 0.976562 0.976562 0.976562 0.976562 0.976562 0.976562 0.976562 0.976561 0.976562 0.976562 0.976561 0.976562 0.976562 0.488281 0.488281 0.976562 0.976562 0.976562 0.976562 0.976562 0.976562 0.976562 0.976562 0.976562 0.976562 0.976562 0.976562 0.976562 0.976562 0.976562 0.976562 0.976561 0.976561 0.976562 0.976562 0.976562 0.976562 0.976562 0.976562 0.976562 0.976561 0.976562 0.976562 0.976561 0.976562 0.976562 0.488281 0.24414 0.488281 0.488281 0.488281 0.488281 0.488281 0.488281 0.488281 0.488281 0.488281 0.488281 0.488281 0.488281 0.488281 0.488281 0.488281 0.488281 0.488281 0.488281 0.488281 0.488281 0.488281 0.488281 0.488281 0.488281 0.488281 0.48828 0.488281 0.488281 0.48828 0.488281 0.488281 0.24414 
VECTORS u float
0 0 0  -0.00442852 -0.00312391 -0.00562882  -0.00917083 -0.00501703 -0.00730419  -0.0134632 -0.00844995 -0.00792789  -0.0176501 -0.0131992 -0.00792933  -0.021719 -0.01912 -0.00761199  -0.0256507 -0.0260716 -0.00714517  -0.0294179 -0.033944 -0.00662684  -0.0330064 -0.042649 -0.0060997  -0.0363997 -0.0521182 -0.00558162  -0.0396143 -0.0622802 -0.00508714  -0.0426379 -0.0730743 -0.00461793  -0.0454813 -0.0844428 -0.00417399  -0.0481553 -0.0963281 -0.00375509  -0.0506667 -0.108683 -0.00336146  -0.0530187 -0.121449 -0.00298953  -0.0552139 -0.134584 -0.00264454  -0.0572741 -0.148053 -0.0023129  -0.0591962 -0.161795 -0.00201058  -0.060987 -0.175782 -0.00171614  -0.0626512 -0.189961 -0.0014658  -0.0642073 -0.204319 -0.00121975  -0.0656521 -0.218805 -0.00100112  -0.0669942 -0.233395 -0.000803709  -0.0682538 -0.248057 -0.000632524  -0.0694251 -0.262772 -0.000477076  -0.0705233 -0.277513 -0.000346422  -0.0715597 -0.292269 -0.000239134  -0.0725353 -0.307006 -0.000146866  -0.0734689 -0.321732 -8.67844e-05  -0.0743606 -0.336425 -3.67165e-05  -0.0752313 -0.351081 -9.53674e-06  -0.0760911 -0.365704 2.12193e-05  0 0 0  -0.00278172 -0.00108527 -0.00389862  -0.00623597 -0.00342727 -0.00528431  -0.00940132 -0.00699578 -0.00572228  -0.0124742 -0.0118536 -0.00573015  -0.0154961 -0.0178851 -0.00551796  -0.0184502 -0.0249521 -0.00519347  -0.0213206 -0.0329544 -0.00482726  -0.0240821 -0.0418035 -0.00444651  -0.0267293 -0.0514085 -0.00407672  -0.0292609 -0.0617117 -0.00371861  -0.0316736 -0.072644 -0.00337481  -0.0339638 -0.0841448 -0.00305247  -0.0361409 -0.0961572 -0.00274849  -0.0382055 -0.108629 -0.00246143  -0.0401626 -0.121509 -0.00218892  -0.0420203 -0.134751 -0.00193572  -0.0437737 -0.148312 -0.00169706  -0.0454319 -0.162143 -0.0014739  -0.0470052 -0.176211 -0.00127316  -0.0484872 -0.190463 -0.00107884  -0.0498896 -0.20488 -0.000904799  -0.0512137 -0.21943 -0.00074172  -0.0524676 -0.234066 -0.000601053  -0.053653 -0.248771 -0.000479221  -0.0547831 -0.26352 -0.000362396  -0.055856 -0.278292 -0.000267506  -0.0568786 -0.293069 -0.00019002  -0.0578587 -0.307833 -0.00012207  -0.0588019 -0.322569 -7.36713e-05  -0.059711 -0.337272 -3.71933e-05  -0.0605948 -0.351932 -1.09673e-05  -0.0614617 -0.36655 2.38419e-05  0 0 0  -0.00170781 -8.61734e-05 -0.00266385  -0.00378594 -0.00227293 -0.00344515  -0.00585458 -0.00594446 -0.00377107  -0.00790158 -0.0108963 -0.00378203  -0.00992548 -0.0170185 -0.00363636  -0.0119302 -0.0241845 -0.00342202  -0.0138982 -0.0322894 -0.0031805  -0.0158248 -0.0412436 -0.00292873  -0.0177017 -0.0509614 -0.00268316  -0.0195253 -0.0613747 -0.0024488  -0.0212876 -0.072415 -0.00222015  -0.0229946 -0.0840225 -0.00200796  -0.0246416 -0.0961395 -0.00180697  -0.0262345 -0.108711 -0.00161457  -0.0277712 -0.121681 -0.00144029  -0.029248 -0.135011 -0.00127077  -0.0306737 -0.14865 -0.00111389  -0.0320423 -0.162556 -0.000969172  -0.0333674 -0.176687 -0.000834227  -0.0346391 -0.191002 -0.000708818  -0.0358598 -0.205472 -0.000592232  -0.0370414 -0.220064 -0.000486612  -0.0381787 -0.234745 -0.000396967  -0.0392706 -0.249485 -0.000311375  -0.040324 -0.264264 -0.000237465  -0.0413435 -0.279066 -0.00017643  -0.0423317 -0.293861 -0.000126123  -0.0432847 -0.308644 -8.41618e-05  -0.0442131 -0.323398 -5.19753e-05  -0.0451155 -0.338103 -2.67029e-05  -0.0459967 -0.352775 -2.6226e-06  -0.0468636 -0.367386 2.3365e-05  0 0 0  -0.000785477 0.000328302 -0.00133348  -0.00173876 -0.00167733 -0.00171709  -0.00271538 -0.00535375 -0.00186396  -0.00372508 -0.010377 -0.00186896  -0.00475621 -0.0165677 -0.00179982  -0.00580436 -0.0238072 -0.001688  -0.00687414 -0.0319887 -0.00157094  -0.00795853 -0.041021 -0.00144076  -0.0090518 -0.0508185 -0.00131726  -0.0101522 -0.0613174 -0.00119853  -0.0112543 -0.0724397 -0.00108409  -0.0123566 -0.0841258 -0.000979424  -0.0134604 -0.0963212 -0.000879526  -0.0145608 -0.108964 -0.000784397  -0.015655 -0.12201 -0.000697374  -0.0167421 -0.135406 -0.000614405  -0.0178165 -0.149106 -0.000535011  -0.0188882 -0.163067 -0.00046277  -0.0199418 -0.177246 -0.000398397  -0.0209858 -0.191608 -0.000336885  -0.0220153 -0.206121 -0.000281811  -0.0230312 -0.220749 -0.000233173  -0.0240285 -0.235459 -0.000184059  -0.0250111 -0.250228 -0.000144243  -0.025975 -0.265032 -0.000108242  -0.0269251 -0.279851 -8.05855e-05  -0.027854 -0.294664 -5.48363e-05  -0.0287724 -0.30946 -3.83854e-05  -0.0296776 -0.32422 -2.12193e-05  -0.0305634 -0.338939 -8.10623e-06  -0.0314372 -0.353614 4.76837e-06  -0.0323045 -0.36822 1.07288e-05  0 0 0  5.80549e-05 0.000400245 2.59876e-05  0.000144362 -0.00156805 2.38419e-05  0.000212669 -0.00525594 1.97887e-05  0.000239134 -0.0103135 2.26498e-05  0.000208557 -0.01655 2.16961e-05  0.000111938 -0.023836 2.55108e-05  -5.42402e-05 -0.0320665 2.83718e-05  -0.000292063 -0.0411457 3.48091e-05  -0.000595927 -0.0510001 3.74317e-05  -0.000967264 -0.0615512 3.93391e-05  -0.0014019 -0.072732 4.22001e-05  -0.0018934 -0.0844708 4.33922e-05  -0.00244284 -0.0967219 4.69685e-05  -0.00304294 -0.109417 4.74453e-05  -0.00368845 -0.122514 4.48227e-05  -0.0043714 -0.135952 4.24385e-05  -0.00509477 -0.149692 4.22001e-05  -0.00585103 -0.163695 4.14848e-05  -0.00663209 -0.177911 3.91006e-05  -0.00743651 -0.192303 3.60012e-05  -0.00826263 -0.206843 3.45707e-05  -0.00910068 -0.221496 3.21865e-05  -0.00995374 -0.236229 3.17097e-05  -0.0108197 -0.251014 2.67029e-05  -0.0116854 -0.265834 2.3365e-05  -0.0125561 -0.280664 2.16961e-05  -0.0134296 -0.295489 1.50204e-05  -0.0143018 -0.310289 1.14441e-05  -0.0151715 -0.325056 8.10623e-06  -0.0160346 -0.339786 7.39098e-06  -0.0168953 -0.354457 7.86781e-06  -0.0177538 -0.36906 -2.38419e-07  0 0 0  0.00089176 0.000182748 0.00137329  0.00201616 -0.00190544 0.00175357  0.00312921 -0.00564402 0.00189281  0.00418991 -0.0107204 0.00189972  0.00515538 -0.01697 0.00183392  0.00601399 -0.0242723 0.00173378  0.00674468 -0.0325226 0.00162005  0.00735366 -0.0416297 0.00150633  0.00783467 -0.0515136 0.00138974  0.0081923 -0.0620916 0.00127745  0.00842333 -0.0733024 0.00116777  0.0085429 -0.0850751 0.00106716  0.00854862 -0.0973552 0.000967979  0.00845146 -0.11008 0.000874758  0.00826216 -0.123203 0.000787497  0.00797796 -0.136666 0.000698566  0.00761247 -0.150433 0.000620842  0.00717545 -0.164456 0.000549555  0.00666809 -0.178691 0.000478268  0.00610304 -0.1931 0.000411034  0.00548315 -0.207653 0.000350237  0.00481391 -0.22232 0.000293732  0.00410891 -0.23706 0.000245094  0.00336909 -0.251852 0.000195265  0.00260043 -0.26668 0.000156641  0.00180793 -0.281515 0.000121832  0.000993729 -0.296341 9.03606e-05  0.000171423 -0.311142 6.38962e-05  -0.000662088 -0.325916 4.00543e-05  -0.00150895 -0.34064 2.3365e-05  -0.00235987 -0.355309 5.24521e-06  -0.00320649 -0.369917 -1.45435e-05  0 0 0  0.00178482 -0.0003708 0.00267458  0.0040234 -0.002716 0.00345182  0.00622138 -0.006513 0.00376678  0.00831532 -0.0115797 0.0037744  0.0102722 -0.0178184 0.00364232  0.012066 -0.025115 0.00344157  0.0136991 -0.033363 0.00321579  0.0151467 -0.0424724 0.00297904  0.0164099 -0.0523583 0.00274706  0.0174875 -0.0629421 0.00251865  0.0183811 -0.0741596 0.00230122  0.0191036 -0.0859415 0.00209165  0.0196598 -0.0982246 0.00189471  0.020058 -0.110965 0.00170779  0.0203118 -0.12409 0.0015254  0.0204251 -0.13756 0.00136113  0.0204134 -0.151336 0.00119901  0.0202854 -0.165357 0.00104976  0.0200491 -0.179596 0.000909805  0.0197182 -0.194006 0.000785589  0.0192976 -0.20856 0.000662565  0.0187988 -0.223223 0.00055337  0.0182312 -0.237963 0.000455618  0.0176079 -0.252753 0.000367165  0.0169306 -0.267573 0.000286341  0.0162101 -0.282404 0.000219345  0.0154552 -0.297226 0.000161409  0.0146735 -0.312025 0.00011158  0.0138624 -0.326786 7.22408e-05  0.0130384 -0.341505 3.55244e-05  0.0121975 -0.356173 1.0252e-05  0.0113568 -0.370787 -1.66893e-05  0 0 0  0.00278854 -0.00147742 0.00386667  0.0063878 -0.00406301 0.00523329  0.00968423 -0.00783455 0.00565362  0.012795 -0.0128672 0.00566149  0.0157292 -0.0190759 0.00547028  0.0184682 -0.0263517 0.00517225  0.0209856 -0.0345815 0.00482655  0.023263 -0.0436716 0.00447178  0.025298 -0.0535372 0.00411987  0.0270841 -0.064105 0.00377655  0.0286306 -0.0753046 0.00344825  0.0299444 -0.087074 0.00313139  0.0310372 -0.0993441 0.00283241  0.0319173 -0.112065 0.00254726  0.0325972 -0.125179 0.00227928  0.0330999 -0.138638 0.00202107  0.0334244 -0.152399 0.0017817  0.0335934 -0.166408 0.0015564  0.0336149 -0.180626 0.00134873  0.0335023 -0.195023 0.00115132  0.0332677 -0.209562 0.000972033  0.0329256 -0.224206 0.000813007  0.032485 -0.238931 0.000664473  0.0319579 -0.253711 0.000528336  0.0313609 -0.268513 0.000410795  0.0307007 -0.283331 0.000309944  0.0299885 -0.29814 0.000224352  0.0292335 -0.312926 0.000153542  0.0284448 -0.327674 9.36985e-05  0.0276265 -0.34238 5.17368e-05  0.0267918 -0.357041 1.3113e-05  0.0259452 -0.37166 -2.28882e-05  0 0 0  0.00434268 -0.00355059 0.0055306  0.00923681 -0.00582302 0.00711799  0.0136139 -0.00952554 0.00771689  0.0177976 -0.0145335 0.00772786  0.0217557 -0.0207128 0.00745082  0.0254523 -0.0279597 0.00702953  0.0288538 -0.0361595 0.0065515  0.0319535 -0.0452112 0.00605965  0.0347412 -0.0550395 0.0055747  0.0372097 -0.0655671 0.00511003  0.0393838 -0.0767307 0.00466037  0.0412673 -0.0884664 0.00422955  0.0428724 -0.100697 0.00382471  0.0442108 -0.113382 0.00343442  0.0453025 -0.126459 0.00307012  0.0461576 -0.139891 0.00271869  0.0468025 -0.153617 0.00238895  0.0472434 -0.167598 0.00208306  0.047502 -0.181779 0.00180244  0.047586 -0.196146 0.00153828  0.0475132 -0.210651 0.00129628  0.0472984 -0.225269 0.00106883  0.0469599 -0.239962 0.000869989  0.0465138 -0.254717 0.000685215  0.04597 -0.269492 0.000527143  0.0453436 -0.284286 0.000386238  0.0446444 -0.29907 0.000269175  0.0438912 -0.313838 0.00017643  0.0430937 -0.32857 0.000100136  0.042269 -0.343261 5.48363e-05  0.041415 -0.357911 1.62125e-05  0.040565 -0.372532 -7.62939e-06  0 0 0  -0.00358529 -0.00411565 -0.00341415  -0.00848068 -0.00688776 -0.00518179  -0.0131992 -0.0104408 -0.00582719  -0.0176923 -0.0151262 -0.00590992  -0.0219566 -0.0209136 -0.00569987  -0.0259912 -0.027716 -0.00535822  -0.0298047 -0.0354444 -0.0049684  -0.0334061 -0.0440204 -0.00456715  -0.0368013 -0.0533588 -0.00417876  -0.0399979 -0.0634053 -0.00380254  -0.0430067 -0.0740902 -0.00345302  -0.0458361 -0.0853538 -0.00311494  -0.0484897 -0.0971452 -0.00280571  -0.0509796 -0.109411 -0.00250959  -0.0533091 -0.122096 -0.00223303  -0.0554887 -0.13516 -0.00197411  -0.0575221 -0.148549 -0.00172687  -0.0594215 -0.162224 -0.00150061  -0.061193 -0.176146 -0.00128603  -0.0628421 -0.190273 -0.00109267  -0.0643768 -0.204568 -0.000914335  -0.0658019 -0.219008 -0.000748873  -0.0671322 -0.233556 -0.000604391  -0.0683692 -0.248175 -0.000472307  -0.0695252 -0.262859 -0.000360727  -0.0706069 -0.277574 -0.000262737  -0.0716257 -0.292301 -0.000185728  -0.0725873 -0.307033 -0.000115156  -0.0735061 -0.32174 -7.03335e-05  -0.0743904 -0.336426 -3.38554e-05  -0.0752568 -0.351081 -1.0252e-05  -0.076118 -0.365714 1.00136e-05  0 0 0  -0.00199506 -0.00209096 -0.00240302  -0.00556597 -0.00495396 -0.00379992  -0.00914064 -0.00872042 -0.00429082  -0.0125145 -0.0135974 -0.00435209  -0.0157197 -0.0195585 -0.00419712  -0.0187764 -0.0265265 -0.00394583  -0.0216913 -0.0344128 -0.00365877  -0.0244713 -0.0431413 -0.00336409  -0.0271193 -0.0526332 -0.00307488  -0.0296377 -0.0628234 -0.00280237  -0.0320315 -0.0736506 -0.00253892  -0.0343056 -0.0850507 -0.00229526  -0.0364599 -0.0969711 -0.00206375  -0.0385054 -0.109357 -0.00184894  -0.040442 -0.122156 -0.00164199  -0.0422764 -0.135322 -0.00145221  -0.0440128 -0.148811 -0.00127578  -0.0456524 -0.162575 -0.00110555  -0.0472012 -0.176576 -0.000951052  -0.0486689 -0.190778 -0.000807285  -0.0500524 -0.205142 -0.000675678  -0.0513599 -0.219636 -0.000556469  -0.0525973 -0.234232 -0.000449657  -0.0537682 -0.248902 -0.000354528  -0.0548785 -0.263618 -0.000270367  -0.0559356 -0.278364 -0.000197172  -0.0569429 -0.293117 -0.000141621  -0.0579107 -0.307862 -8.7738e-05  -0.0588393 -0.322585 -5.45979e-05  -0.059742 -0.337278 -2.98023e-05  -0.060622 -0.351934 -7.86781e-06  -0.061492 -0.366556 1.21593e-05  0 0 0  -0.00123005 -0.00106253 -0.00161052  -0.00337136 -0.00362448 -0.00250125  -0.00568041 -0.00749956 -0.00283504  -0.00793269 -0.0125151 -0.0028758  -0.0100932 -0.018609 -0.00277019  -0.0121714 -0.025702 -0.00259948  -0.0141791 -0.0337091 -0.00240874  -0.0161197 -0.0425581 -0.002213  -0.0179963 -0.0521688 -0.00202298  -0.0198104 -0.0624754 -0.00183916  -0.0215638 -0.0734167 -0.00166821  -0.0232556 -0.0849274 -0.00150681  -0.0248893 -0.0969542 -0.00135422  -0.0264632 -0.109438 -0.00120926  -0.0279846 -0.122331 -0.0010767  -0.0294484 -0.135583 -0.000949621  -0.0308576 -0.149152 -0.000832319  -0.0322151 -0.162991 -0.000723362  -0.0335207 -0.17706 -0.000622511  -0.0347774 -0.191321 -0.000530481  -0.0359881 -0.20574 -0.000441313  -0.0371504 -0.220284 -0.000362635  -0.0382695 -0.234921 -0.000294685  -0.0393534 -0.249628 -0.000231266  -0.0403938 -0.264376 -0.00017643  -0.0413988 -0.279146 -0.0001297  -0.0423734 -0.293922 -9.2268e-05  -0.043319 -0.308681 -6.34193e-05  -0.0442393 -0.323417 -3.79086e-05  -0.0451379 -0.338119 -1.81198e-05  -0.0460176 -0.352779 -3.8147e-06  -0.0468848 -0.367387 1.54972e-05  0 0 0  -0.000556543 -0.000615984 -0.000810862  -0.00155015 -0.0029659 -0.00125146  -0.0026519 -0.0068337 -0.00141001  -0.00376719 -0.0119281 -0.00143027  -0.00487477 -0.0181115 -0.00137663  -0.00596988 -0.0252928 -0.00128913  -0.00706184 -0.0333872 -0.00119305  -0.00815517 -0.0423208 -0.00109005  -0.00924897 -0.0520173 -0.000991821  -0.0103445 -0.0624104 -0.000903845  -0.0114391 -0.0734363 -0.000813961  -0.0125331 -0.08503 -0.000735521  -0.0136251 -0.0971366 -0.000657797  -0.0147145 -0.109695 -0.000586271  -0.0157977 -0.122661 -0.000521183  -0.0168728 -0.135979 -0.000459671  -0.017941 -0.149611 -0.000401497  -0.0189962 -0.163508 -0.000344515  -0.020041 -0.177628 -0.000297785  -0.021075 -0.191936 -0.00025177  -0.0220931 -0.206394 -0.000208378  -0.0230989 -0.220975 -0.000172615  -0.0240877 -0.235646 -0.000136375  -0.0250599 -0.250376 -0.000106812  -0.0260184 -0.265149 -8.05855e-05  -0.0269599 -0.279938 -5.98431e-05  -0.0278854 -0.294731 -4.14848e-05  -0.0287957 -0.309502 -2.57492e-05  -0.0296934 -0.324249 -1.90735e-05  -0.030575 -0.338958 -6.91414e-06  -0.0314429 -0.35362 2.86102e-06  -0.0323071 -0.36822 8.82149e-06  0 0 0  4.34071e-05 -0.000527799 8.82149e-06  0.000113398 -0.00283137 5.96046e-06  0.000162989 -0.006706 9.53674e-07  0.000171363 -0.011842 3.09944e-06  0.0001266 -0.0180757 5.00679e-06  1.93715e-05 -0.0253066 1.00136e-05  -0.000153899 -0.033453 1.09673e-05  -0.000391722 -0.0424439 1.88351e-05  -0.000695348 -0.0521962 2.16961e-05  -0.0010643 -0.0626462 2.47955e-05  -0.00149643 -0.0737277 2.83718e-05  -0.0019865 -0.0853811 3.05176e-05  -0.00252771 -0.0975405 3.29018e-05  -0.00311732 -0.110153 3.50475e-05  -0.0037539 -0.123168 3.26633e-05  -0.00443494 -0.136533 2.95639e-05  -0.00515032 -0.150208 3.14713e-05  -0.00590086 -0.164143 3.05176e-05  -0.006675 -0.178298 2.88486e-05  -0.00747275 -0.192637 2.7895e-05  -0.00829291 -0.207126 2.5034e-05  -0.00912833 -0.221729 2.36034e-05  -0.00997591 -0.236419 2.24113e-05  -0.0108335 -0.251168 2.0504e-05  -0.0116973 -0.265956 1.7643e-05  -0.0125644 -0.280759 1.64509e-05  -0.0134327 -0.295558 1.07288e-05  -0.0143018 -0.310341 8.10623e-06  -0.0151684 -0.325091 7.62939e-06  -0.0160327 -0.339803 4.76837e-06  -0.0168927 -0.354464 4.76837e-06  -0.0177455 -0.369064 0  0 0 0  0.000640169 -0.000738263 0.000824213  0.00177068 -0.00316858 0.0012517  0.00296885 -0.00709808 0.00140572  0.0040974 -0.0122527 0.00142407  0.00510752 -0.018501 0.00137615  0.00598508 -0.0257482 0.00130081  0.0067302 -0.0339176 0.00121379  0.00734437 -0.0429305 0.0011251  0.00782919 -0.0527126 0.0010376  0.00818574 -0.063195 0.000952482  0.00842154 -0.0743078 0.000872374  0.00854051 -0.0859898 0.000794888  0.0085485 -0.0981807 0.000722647  0.0084542 -0.110823 0.000650644  0.00826228 -0.123867 0.000584841  0.00798273 -0.137257 0.000521898  0.00762033 -0.150956 0.000464678  0.00718474 -0.164911 0.000408411  0.00668144 -0.179084 0.000356436  0.00611663 -0.193441 0.000306845  0.00549936 -0.207942 0.000262022  0.00483227 -0.222558 0.000219107  0.00412941 -0.237255 0.000183582  0.00339031 -0.252013 0.000146627  0.00261903 -0.266804 0.000116587  0.00182486 -0.281609 9.10759e-05  0.00101328 -0.296414 6.67572e-05  0.000190496 -0.311195 4.673e-05  -0.00065136 -0.325946 3.17097e-05  -0.00149608 -0.340657 1.83582e-05  -0.00234461 -0.35532 4.76837e-06  -0.00319242 -0.369926 -8.58307e-06  0 0 0  0.0012963 -0.00130177 0.00160813  0.00356239 -0.00401616 0.00247836  0.00595659 -0.00801611 0.00279999  0.00820619 -0.0131547 0.00283933  0.0102591 -0.0193784 0.00274444  0.0121137 -0.0266117 0.00258994  0.0137669 -0.034775 0.00241613  0.0152258 -0.0437852 0.00223351  0.016492 -0.0535727 0.00205612  0.0175688 -0.0640578 0.00188494  0.0184637 -0.0751778 0.00172019  0.0191814 -0.0868667 0.0015645  0.0197358 -0.0990637 0.00141621  0.0201318 -0.111714 0.00127482  0.0203837 -0.124763 0.00113988  0.0204971 -0.13816 0.00101757  0.020484 -0.151862 0.000896931  0.0203516 -0.165819 0.000786304  0.0201144 -0.179994 0.00067997  0.0197809 -0.194349 0.000584602  0.0193572 -0.208849 0.000495911  0.0188575 -0.223463 0.000413418  0.0182862 -0.238159 0.000339985  0.0176592 -0.252912 0.000272751  0.016978 -0.267697 0.000215054  0.0162539 -0.282497 0.000163794  0.0154934 -0.297296 0.000119686  0.0147033 -0.312071 8.24928e-05  0.0138931 -0.326816 5.34058e-05  0.013063 -0.341523 2.74181e-05  0.0122199 -0.356184 7.62939e-06  0.0113802 -0.370797 -1.38283e-05  0 0 0  0.0020285 -0.00241852 0.00237346  0.00570437 -0.0054962 0.00373149  0.00933748 -0.00945652 0.00420117  0.0126879 -0.0145286 0.00426197  0.0157638 -0.0206954 0.00412512  0.018578 -0.0278872 0.00389814  0.02113 -0.036019 0.00363398  0.023422 -0.0450073 0.00336099  0.0254591 -0.0547686 0.00309157  0.0272431 -0.0652357 0.0028336  0.0287855 -0.0763378 0.0025847  0.0300943 -0.0880129 0.00234628  0.0311806 -0.100195 0.00212336  0.032055 -0.112827 0.00190854  0.0327346 -0.125861 0.00170732  0.033227 -0.139244 0.00151539  0.0335474 -0.152929 0.00133634  0.0337114 -0.166871 0.00116777  0.0337262 -0.181031 0.00100899  0.0336084 -0.195369 0.000864267  0.0333707 -0.20985 0.000728369  0.0330212 -0.224448 0.000607967  0.032573 -0.239128 0.000495195  0.0320413 -0.253862 0.000396729  0.0314345 -0.268634 0.000305891  0.0307686 -0.283417 0.000231981  0.0300443 -0.298203 0.000165939  0.0292814 -0.312966 0.000113964  0.028481 -0.327699 7.22408e-05  0.0276573 -0.342397 3.6478e-05  0.0268211 -0.357054 1.14441e-05  0.0259762 -0.371674 -1.66893e-05  0 0 0  0.00356966 -0.00448173 0.00334239  0.00853342 -0.00752294 0.00502467  0.0132591 -0.0113479 0.00564551  0.017683 -0.0163117 0.00573468  0.0217881 -0.0224057 0.00555325  0.0255649 -0.0295352 0.00524592  0.0290092 -0.0376176 0.00489354  0.0321215 -0.0465601 0.00452018  0.0349072 -0.0562772 0.00415802  0.0373822 -0.0667034 0.00380826  0.0395547 -0.0777662 0.00346947  0.0414286 -0.0894023 0.00315356  0.0430238 -0.101548 0.00284982  0.0443597 -0.114146 0.00256109  0.0454457 -0.127147 0.00228596  0.0463014 -0.140494 0.00202775  0.0469363 -0.154146 0.00177932  0.0473692 -0.168057 0.00155687  0.0476174 -0.182181 0.00134468  0.047698 -0.196487 0.00115061  0.0476196 -0.210938 0.000969648  0.0474043 -0.225502 0.00080204  0.0470567 -0.240149 0.000654697  0.0465968 -0.25486 0.00051403  0.0460458 -0.269605 0.00040102  0.0454102 -0.284362 0.000291348  0.0447056 -0.299124 0.000205517  0.0439441 -0.313867 0.000137568  0.0431378 -0.328585 8.2016e-05  0.0423009 -0.343271 4.91142e-05  0.0414505 -0.357922 1.83582e-05  0.0405955 -0.372546 -4.29153e-06  0 0 0  -0.00373182 -0.00488642 -0.00200033  -0.00839108 -0.00785405 -0.00319624  -0.0130691 -0.0116305 -0.00375414  -0.0176261 -0.0163558 -0.00388837  -0.0219664 -0.0221141 -0.00378561  -0.0260657 -0.0288458 -0.00357103  -0.029926 -0.0364917 -0.00331616  -0.0335515 -0.044979 -0.00304842  -0.0369601 -0.0542347 -0.00278521  -0.0401614 -0.0642034 -0.00253725  -0.0431684 -0.0748102 -0.00229931  -0.0459867 -0.0860074 -0.00207567  -0.0486349 -0.0977336 -0.00186777  -0.0511138 -0.109935 -0.00166869  -0.0534356 -0.122562 -0.00148702  -0.0556034 -0.135571 -0.00131273  -0.0576301 -0.148909 -0.00115228  -0.0595183 -0.162537 -0.00100255  -0.06128 -0.176412 -0.000856638  -0.062923 -0.190501 -0.000728369  -0.0644464 -0.20476 -0.000608921  -0.0658655 -0.219164 -0.000499964  -0.0671844 -0.233678 -0.000402927  -0.0684171 -0.248278 -0.000314236  -0.0695653 -0.262934 -0.000244141  -0.0706413 -0.277631 -0.000177145  -0.0716488 -0.29234 -0.000127077  -0.0726078 -0.307055 -8.2016e-05  -0.073525 -0.321753 -4.8399e-05  -0.0744073 -0.336435 -2.64645e-05  -0.0752733 -0.351087 -1.09673e-05  -0.0761309 -0.365713 5.24521e-06  0 0 0  -0.00195331 -0.00257073 -0.0014174  -0.00536183 -0.00583738 -0.00237441  -0.00896049 -0.00980029 -0.00280809  -0.0124509 -0.014745 -0.0029037  -0.0157619 -0.0206963 -0.00281978  -0.018894 -0.0276106 -0.00265527  -0.0218561 -0.0354307 -0.00246215  -0.0246618 -0.0440798 -0.00225949  -0.0273194 -0.053496 -0.0020647  -0.0298402 -0.0636109 -0.00187731  -0.0322274 -0.0743642 -0.00170064  -0.0344909 -0.0856977 -0.00153422  -0.0366411 -0.0975534 -0.00137949  -0.0386733 -0.109877 -0.00123477  -0.0405984 -0.122621 -0.00109816  -0.0424207 -0.135733 -0.000971556  -0.0441449 -0.149168 -0.000852585  -0.0457757 -0.162886 -0.000739813  -0.0473156 -0.176844 -0.000633001  -0.048769 -0.191004 -0.000537395  -0.0501425 -0.205332 -0.000451326  -0.05144 -0.219795 -0.00036931  -0.0526679 -0.234359 -0.000298977  -0.0538306 -0.249 -0.00023365  -0.0549312 -0.263697 -0.000179291  -0.0559781 -0.278423 -0.00013113  -0.0569799 -0.293158 -9.17912e-05  -0.0579381 -0.307889 -6.00815e-05  -0.0588601 -0.322604 -3.74317e-05  -0.0597579 -0.337291 -1.88351e-05  -0.0606384 -0.351942 -5.48363e-06  -0.061506 -0.366564 6.4373e-06  0 0 0  -0.00118744 -0.00146709 -0.000951767  -0.00319307 -0.00441574 -0.00156426  -0.00554773 -0.00848752 -0.00186229  -0.00789186 -0.0135893 -0.00192285  -0.010137 -0.0196992 -0.00186706  -0.0122781 -0.0267608 -0.001755  -0.0143259 -0.0347142 -0.00162339  -0.0162886 -0.0434929 -0.0014894  -0.0181755 -0.0530321 -0.00135875  -0.0199893 -0.0632668 -0.00123405  -0.0217372 -0.0741358 -0.00111842  -0.0234218 -0.0855797 -0.00100756  -0.0250452 -0.09754 -0.000905275  -0.0266125 -0.109963 -0.000808477  -0.0281198 -0.122799 -0.000717402  -0.029574 -0.135999 -0.000634909  -0.0309725 -0.149515 -0.000554562  -0.0323198 -0.163308 -0.000482559  -0.0336158 -0.177335 -0.000415564  -0.0348656 -0.191555 -0.000353098  -0.036067 -0.205938 -0.000294685  -0.0372202 -0.220446 -0.000241041  -0.0383339 -0.235053 -0.000192881  -0.0394065 -0.24973 -0.000152826  -0.0404413 -0.264456 -0.000117302  -0.0414388 -0.279207 -8.63075e-05  -0.0424039 -0.293961 -6.12736e-05  -0.0433438 -0.308714 -4.05312e-05  -0.0442591 -0.323438 -2.36034e-05  -0.0451546 -0.338132 -1.3113e-05  -0.046032 -0.352787 -2.14577e-06  -0.0469022 -0.367401 6.4373e-06  0 0 0  -0.000536941 -0.000973433 -0.000475883  -0.00147116 -0.00370145 -0.000781536  -0.00259641 -0.00775483 -0.000927925  -0.00376713 -0.0129506 -0.000958681  -0.00492227 -0.0191623 -0.000927925  -0.00605559 -0.026327 -0.000871897  -0.00717181 -0.0343763 -0.000805616  -0.00827754 -0.0432457 -0.000733137  -0.009377 -0.0528776 -0.000666857  -0.0104713 -0.0632036 -0.000605345  -0.0115632 -0.0741575 -0.000545979  -0.0126537 -0.0856853 -0.000492334  -0.0137384 -0.097726 -0.000440121  -0.0148189 -0.110227 -0.00039196  -0.0158933 -0.123135 -0.000346422  -0.0169612 -0.136403 -0.000306368  -0.0180211 -0.149982 -0.00026679  -0.0190711 -0.163829 -0.000229836  -0.0201094 -0.177907 -0.000200033  -0.0211356 -0.192173 -0.000165701  -0.0221477 -0.206599 -0.000138998  -0.0231457 -0.221143 -0.000113249  -0.0241277 -0.235783 -8.98838e-05  -0.0250947 -0.250485 -7.12872e-05  -0.026046 -0.265233 -5.24521e-05  -0.026983 -0.280006 -3.88622e-05  -0.0279036 -0.294774 -2.95639e-05  -0.0288105 -0.309539 -1.71661e-05  -0.0297029 -0.324273 -1.40667e-05  -0.0305841 -0.338972 -5.72205e-06  -0.0314529 -0.353629 2.6226e-06  -0.032315 -0.368238 5.96046e-06  0 0 0  3.83556e-05 -0.00086543 2.14577e-06  9.39667e-05 -0.00354075 -2.38419e-07  0.000131637 -0.00760204 -4.76837e-06  0.000127077 -0.0128382 -3.8147e-06  7.24196e-05 -0.0191064 -1.90735e-06  -4.26173e-05 -0.0263275 1.19209e-06  -0.000220597 -0.0344366 4.29153e-06  -0.000460923 -0.0433652 7.62939e-06  -0.000767112 -0.0530566 1.23978e-05  -0.00113487 -0.0634401 1.50204e-05  -0.00156379 -0.0744522 1.74046e-05  -0.0020479 -0.0860386 1.85966e-05  -0.00258529 -0.0981347 2.00272e-05  -0.00317347 -0.110689 2.12193e-05  -0.0038054 -0.123646 2.14577e-05  -0.00447893 -0.13696 2.0504e-05  -0.00519133 -0.150585 2.19345e-05  -0.00593448 -0.164469 2.07424e-05  -0.00670481 -0.17858 1.97887e-05  -0.00750113 -0.192883 1.88351e-05  -0.00831389 -0.207331 1.78814e-05  -0.00914812 -0.221901 1.69277e-05  -0.00999403 -0.236562 1.4782e-05  -0.0108454 -0.251281 1.35899e-05  -0.0117052 -0.266044 1.3113e-05  -0.0125692 -0.280827 1.12057e-05  -0.0134361 -0.295606 8.82149e-06  -0.0143023 -0.310374 5.96046e-06  -0.0151706 -0.325115 5.00679e-06  -0.0160327 -0.33982 3.33786e-06  -0.016891 -0.354477 9.53674e-07  -0.0177436 -0.369085 1.66893e-06  0 0 0  0.000608787 -0.00108343 0.000478506  0.00165248 -0.00388563 0.000775814  0.00284734 -0.00800073 0.000914812  0.00400692 -0.0132553 0.000943899  0.00504661 -0.0195343 0.000918388  0.00594789 -0.0267698 0.000870943  0.00670522 -0.0349 0.000810146  0.00732756 -0.0438567 0.00075078  0.00781548 -0.053573 0.000691175  0.00817227 -0.0639897 0.000633478  0.00840926 -0.0750325 0.000580788  0.00852931 -0.0866514 0.000528097  0.00854087 -0.0987772 0.000479937  0.00844896 -0.111362 0.00043416  0.00826013 -0.124348 0.000389576  0.0079813 -0.137689 0.000347853  0.00762081 -0.151335 0.000309229  0.00718617 -0.165243 0.000272989  0.00668645 -0.17937 0.000236988  0.00612259 -0.193688 0.000204563  0.00550413 -0.208149 0.000172615  0.004843 -0.222729 0.000144243  0.00413775 -0.237399 0.000121832  0.00339627 -0.252128 9.799e-05  0.00262737 -0.266897 7.72476e-05  0.00183463 -0.28168 5.98431e-05  0.00102282 -0.296465 4.36306e-05  0.000197172 -0.311233 3.17097e-05  -0.000639915 -0.325971 2.09808e-05  -0.0014863 -0.340675 9.77516e-06  -0.00233531 -0.355335 5.24521e-06  -0.0031817 -0.369942 -5.72205e-06  0 0 0  0.00124583 -0.00168347 0.00094223  0.00335315 -0.00477105 0.00154305  0.00576225 -0.00896406 0.00182843  0.00807858 -0.0141908 0.00188899  0.0101961 -0.0204349 0.00183678  0.012094 -0.0276468 0.00173593  0.0137749 -0.0357632 0.00161815  0.0152507 -0.0447152 0.00149536  0.0165217 -0.0544339 0.00137496  0.0176042 -0.064851 0.0012598  0.0184987 -0.0759049 0.0011487  0.0192195 -0.0875281 0.00104403  0.0197715 -0.0996648 0.000946045  0.020169 -0.112254 0.000851393  0.0204188 -0.125247 0.000759363  0.0205321 -0.138592 0.000677824  0.0205178 -0.152241 0.000598669  0.0203862 -0.166153 0.000525236  0.0201499 -0.180284 0.000452757  0.019815 -0.194598 0.000391245  0.0193908 -0.209059 0.000328779  0.0188894 -0.223636 0.000276327  0.0183194 -0.238301 0.000225544  0.0176876 -0.253027 0.000183344  0.0170038 -0.267789 0.000142336  0.0162787 -0.282568 0.000107288  0.0155151 -0.297346 8.03471e-05  0.0147235 -0.31211 5.50747e-05  0.0139089 -0.32684 3.55244e-05  0.0130785 -0.341541 1.88351e-05  0.0122385 -0.356199 4.76837e-06  0.0113931 -0.370812 -1.0252e-05  0 0 0  0.00198182 -0.00286984 0.00139523  0.00546649 -0.00632709 0.00232339  0.00909868 -0.010473 0.00273991  0.0125353 -0.0156158 0.00283003  0.0156937 -0.0217803 0.0027585  0.018567 -0.0289348 0.00261045  0.0211564 -0.0370122 0.00243425  0.0234689 -0.0459316 0.00224853  0.0255138 -0.055627 0.00206327  0.027301 -0.0660251 0.00189114  0.0288451 -0.0770616 0.001724  0.0301516 -0.0886669 0.00156665  0.031237 -0.100787 0.00141692  0.0321113 -0.113363 0.00127387  0.032789 -0.126339 0.00113869  0.0332828 -0.13967 0.00101113  0.0336003 -0.153305 0.000891209  0.0337629 -0.167202 0.00077939  0.0337775 -0.181317 0.000673771  0.0336583 -0.195611 0.000575542  0.0334187 -0.210058 0.000485897  0.0330684 -0.224618 0.000406742  0.0326176 -0.239268 0.000331879  0.0320818 -0.253977 0.000263929  0.0314727 -0.268723 0.000204325  0.0307977 -0.283484 0.000154734  0.0300713 -0.298253 0.000111103  0.0293045 -0.313001 7.55787e-05  0.0285039 -0.327723 4.76837e-05  0.0276787 -0.342413 2.52724e-05  0.0268388 -0.357066 9.77516e-06  0.0259914 -0.371689 -9.29832e-06  0 0 0  0.00367136 -0.00521803 0.0019455  0.0083895 -0.00843453 0.00310183  0.0130525 -0.0124546 0.00363874  0.0175228 -0.0174661 0.00376773  0.0216879 -0.0235295 0.0036788  0.0255138 -0.0306072 0.00348401  0.0289918 -0.0386198 0.00325322  0.0321265 -0.0474852 0.0030055  0.0349275 -0.0571344 0.00276732  0.0374048 -0.0674868 0.00252938  0.0395739 -0.078484 0.00230503  0.0414531 -0.0900522 0.00209498  0.0430541 -0.102137 0.00189519  0.0443876 -0.114675 0.00170231  0.0454726 -0.127621 0.00152016  0.0463281 -0.140914 0.00135112  0.0469673 -0.154516 0.00118589  0.0473974 -0.16838 0.00103641  0.0476487 -0.182462 0.000896454  0.0477242 -0.196723 0.000768423  0.0476482 -0.211137 0.000644445  0.04743 -0.225669 0.000535965  0.047085 -0.240291 0.00043869  0.0466297 -0.254967 0.000347137  0.0460739 -0.269689 0.00026989  0.0454366 -0.284425 0.000199318  0.044728 -0.299167 0.000140429  0.0439615 -0.313899 9.48906e-05  0.0431578 -0.328607 6.12736e-05  0.0423217 -0.343287 3.76701e-05  0.0414729 -0.357935 1.43051e-05  0.0406213 -0.372564 2.38419e-07  0 0 0  -0.00378928 -0.00524945 -0.000938416  -0.00842923 -0.00842178 -0.00152159  -0.0130383 -0.0122793 -0.00182486  -0.0175797 -0.0170542 -0.00191927  -0.021942 -0.0228035 -0.00188398  -0.0260711 -0.0295072 -0.00178409  -0.0299546 -0.0371077 -0.0016582  -0.0336001 -0.0455493 -0.0015254  -0.0370198 -0.0547617 -0.00139451  -0.0402266 -0.0646789 -0.00127006  -0.0432341 -0.0752453 -0.00115395  -0.0460553 -0.0864008 -0.00103807  -0.0487016 -0.098086 -0.000931263  -0.0511752 -0.11025 -0.000834227  -0.0534898 -0.122847 -0.000742197  -0.0556569 -0.135818 -0.000657082  -0.0576773 -0.149127 -0.000579834  -0.0595627 -0.162725 -0.000499964  -0.0613213 -0.176574 -0.000428915  -0.062952 -0.190638 -0.00036478  -0.0644767 -0.204879 -0.000303745  -0.0658901 -0.219261 -0.000248432  -0.0672073 -0.233755 -0.000200748  -0.0684333 -0.248339 -0.000156641  -0.0695782 -0.262983 -0.000122786  -0.0706513 -0.277664 -8.9407e-05  -0.0716612 -0.292365 -6.53267e-05  -0.0726175 -0.307071 -4.29153e-05  -0.0735314 -0.321767 -2.69413e-05  -0.0744197 -0.336443 -1.45435e-05  -0.0752857 -0.351093 -4.52995e-06  -0.0761473 -0.365721 7.15256e-07  0 0 0  -0.00192472 -0.00281201 -0.000667095  -0.0053128 -0.00628832 -0.00113869  -0.00889197 -0.0103826 -0.00137591  -0.0124006 -0.0153875 -0.00144458  -0.0157539 -0.0213494 -0.00141406  -0.0189251 -0.0282477 -0.00133467  -0.0219177 -0.0360313 -0.00123763  -0.0247428 -0.0446415 -0.00113678  -0.0274096 -0.0540123 -0.00103784  -0.0299339 -0.0640839 -0.00094223  -0.0323224 -0.0747947 -0.0008533  -0.0345838 -0.0860872 -0.000767469  -0.0367258 -0.0979026 -0.000690699  -0.0387561 -0.110192 -0.00061965  -0.0406771 -0.122902 -0.000549078  -0.042493 -0.13598 -0.000487566  -0.0442119 -0.149389 -0.000427246  -0.045835 -0.163076 -0.000372648  -0.0473676 -0.177006 -0.00031805  -0.048816 -0.191146 -0.000267267  -0.0501862 -0.205448 -0.000223875  -0.0514793 -0.219891 -0.00018549  -0.0527017 -0.234439 -0.000147343  -0.0538576 -0.249067 -0.000116348  -0.054956 -0.263746 -9.03606e-05  -0.056 -0.278458 -6.55651e-05  -0.0569952 -0.293183 -4.64916e-05  -0.0579507 -0.307907 -3.00407e-05  -0.0588753 -0.322615 -2.09808e-05  -0.0597713 -0.337296 -1.00136e-05  -0.0606496 -0.35195 -3.09944e-06  -0.0615144 -0.36657 5.00679e-06  0 0 0  -0.00116562 -0.00165474 -0.000444889  -0.0031409 -0.00480066 -0.00075388  -0.00548401 -0.00902158 -0.00091362  -0.00785333 -0.0141961 -0.000960112  -0.0101402 -0.0203248 -0.000938177  -0.0123183 -0.0273797 -0.000886202  -0.0143911 -0.0353085 -0.000817299  -0.0163705 -0.0440496 -0.000748396  -0.0182652 -0.0535473 -0.000683784  -0.0200796 -0.0637418 -0.000621319  -0.0218263 -0.0745692 -0.000560045  -0.0235106 -0.0859715 -0.000505209  -0.0251304 -0.097893 -0.000455379  -0.0266891 -0.110282 -0.000405788  -0.0281925 -0.123086 -0.000359774  -0.0296414 -0.136253 -0.000319242  -0.0310359 -0.149738 -0.000279188  -0.0323777 -0.163503 -0.000240803  -0.0336683 -0.177499 -0.000209332  -0.0349119 -0.191697 -0.000175953  -0.0361059 -0.206057 -0.000144482  -0.0372572 -0.220547 -0.000120163  -0.0383642 -0.235134 -9.65595e-05  -0.0394313 -0.249798 -7.4625e-05  -0.0404634 -0.264506 -5.79357e-05  -0.0414579 -0.279246 -4.3869e-05  -0.0424218 -0.293993 -3.02792e-05  -0.043359 -0.308731 -1.95503e-05  -0.0442715 -0.323452 -1.21593e-05  -0.0451636 -0.338141 -6.4373e-06  -0.0460401 -0.352795 -1.43051e-06  -0.046912 -0.367408 6.19888e-06  0 0 0  -0.000524916 -0.00113744 -0.000222921  -0.00144622 -0.00404784 -0.000374794  -0.00256699 -0.00825456 -0.000457048  -0.00375775 -0.0135234 -0.000479698  -0.00493836 -0.0197676 -0.000468731  -0.00609457 -0.0269318 -0.000439405  -0.00722605 -0.0349647 -0.000405312  -0.00834113 -0.0438021 -0.000369072  -0.00944483 -0.0533954 -0.000337362  -0.0105406 -0.0636799 -0.000302315  -0.0116317 -0.0745937 -0.000274897  -0.0127184 -0.0860815 -0.000246048  -0.0137988 -0.0980836 -0.000220537  -0.0148759 -0.110549 -0.00019598  -0.0159484 -0.123423 -0.000174999  -0.0170108 -0.136659 -0.000151157  -0.0180674 -0.150206 -0.000133753  -0.0191116 -0.164026 -0.000115871  -0.0201468 -0.178077 -9.9659e-05  -0.0211687 -0.192319 -8.27312e-05  -0.022176 -0.206722 -6.91414e-05  -0.0231709 -0.221245 -5.48363e-05  -0.0241508 -0.235866 -4.36306e-05  -0.0251153 -0.250554 -3.43323e-05  -0.0260613 -0.265289 -2.57492e-05  -0.0269935 -0.280047 -1.83582e-05  -0.0279129 -0.294807 -1.3113e-05  -0.0288172 -0.309561 -9.29832e-06  -0.0297074 -0.324288 -4.76837e-06  -0.0305879 -0.338985 -3.8147e-06  -0.0314567 -0.353638 2.38419e-07  -0.03232 -0.368248 2.86102e-06  0 0 0  3.32147e-05 -0.00101933 -7.15256e-07  8.38935e-05 -0.00387242 -9.53674e-07  0.00011453 -0.00808486 -2.86102e-06  0.000103354 -0.0133965 -3.57628e-06  4.12464e-05 -0.0197015 -2.38419e-06  -7.82013e-05 -0.026928 -7.15256e-07  -0.000260115 -0.0350194 9.53674e-07  -0.000503123 -0.043916 3.57628e-06  -0.000810146 -0.0535732 6.19888e-06  -0.00117624 -0.0639161 6.91414e-06  -0.00160062 -0.0748916 9.29832e-06  -0.00208569 -0.086437 9.05991e-06  -0.00262129 -0.0984957 7.39098e-06  -0.00320697 -0.111012 9.53674e-06  -0.00383544 -0.123937 1.07288e-05  -0.00450921 -0.137219 1.04904e-05  -0.0052166 -0.150808 1.26362e-05  -0.0059557 -0.164669 1.04904e-05  -0.0067246 -0.178753 1.00136e-05  -0.00751734 -0.193027 1.0252e-05  -0.0083313 -0.207457 7.39098e-06  -0.00915885 -0.222004 1.07288e-05  -0.0100019 -0.236646 8.10623e-06  -0.0108547 -0.251354 6.67572e-06  -0.0117118 -0.266101 7.39098e-06  -0.012574 -0.28087 5.00679e-06  -0.0134394 -0.29564 4.52995e-06  -0.0143065 -0.3104 4.52995e-06  -0.0151725 -0.325133 2.86102e-06  -0.0160339 -0.33983 1.19209e-06  -0.0168929 -0.354487 -4.76837e-07  -0.0177486 -0.369091 1.90735e-06  0 0 0  0.000590965 -0.00124133 0.000222921  0.0016081 -0.00422513 0.000373125  0.00278574 -0.008488 0.000449419  0.00394994 -0.013818 0.000469923  0.00500125 -0.0201302 0.000459194  0.00591582 -0.027369 0.000436068  0.00668359 -0.0354804 0.000405312  0.00730979 -0.0444074 0.000375748  0.00779974 -0.0540904 0.000346184  0.00816107 -0.0644663 0.000316143  0.00839913 -0.0754728 0.000291109  0.00851965 -0.0870489 0.000264645  0.00853229 -0.0991402 0.000240088  0.00843954 -0.111687 0.000216484  0.00825226 -0.124639 0.000196457  0.00797749 -0.137946 0.000173569  0.00761962 -0.151562 0.000155687  0.00718737 -0.165439 0.000136852  0.00668478 -0.179547 0.000118971  0.00612164 -0.193834 0.000101566  0.00550675 -0.208278 8.60691e-05  0.00484276 -0.222836 7.12872e-05  0.00413775 -0.237488 6.10352e-05  0.00340176 -0.252199 4.81606e-05  0.00263214 -0.266955 3.91006e-05  0.0018394 -0.281724 3.02792e-05  0.0010283 -0.296498 2.45571e-05  0.000201702 -0.311257 1.57356e-05  -0.000635862 -0.325989 1.14441e-05  -0.00148106 -0.340687 6.19888e-06  -0.0023303 -0.355345 2.14577e-06  -0.0031743 -0.369954 -2.14577e-06  0 0 0  0.00121605 -0.00186026 0.000439405  0.00327891 -0.00513673 0.000739813  0.00566375 -0.00947505 0.000897646  0.0079928 -0.0147708 0.000940323  0.0101376 -0.0210422 0.000921488  0.0120604 -0.0282498 0.000871897  0.013763 -0.0363442 0.000810623  0.0152489 -0.0452644 0.000750065  0.0165291 -0.0549481 0.000689507  0.0176126 -0.0653267 0.00062871  0.0185107 -0.0763394 0.000576496  0.0192306 -0.0879251 0.000522614  0.0197846 -0.100023 0.000474453  0.020183 -0.112579 0.000426292  0.0204337 -0.125536 0.00037837  0.0205462 -0.138849 0.000339985  0.0205321 -0.152468 0.000299692  0.0204022 -0.16635 0.000263929  0.0201643 -0.180457 0.000226974  0.0198283 -0.194746 0.000196695  0.0194063 -0.209188 0.000165462  0.018903 -0.223742 0.000137806  0.0183299 -0.238391 0.000113726  0.0176992 -0.253098 9.32217e-05  0.0170159 -0.267845 7.22408e-05  0.0162873 -0.282611 5.45979e-05  0.0155234 -0.297381 3.93391e-05  0.0147331 -0.312132 2.71797e-05  0.0139194 -0.326858 1.95503e-05  0.0130887 -0.341553 8.82149e-06  0.012248 -0.35621 3.09944e-06  0.0114017 -0.370825 -6.4373e-06  0 0 0  0.00194798 -0.00309837 0.000653744  0.00539461 -0.00675064 0.00111175  0.00898713 -0.0110247 0.00134206  0.0124301 -0.016222 0.00140715  0.0156218 -0.0224035 0.00138044  0.0185269 -0.0295475 0.00130916  0.021139 -0.0375941 0.00122094  0.0234684 -0.0464793 0.00112677  0.0255214 -0.056137 0.00103498  0.0273144 -0.0664923 0.000945807  0.0288593 -0.0774881 0.000862598  0.0301679 -0.0890574 0.000785112  0.0312541 -0.101142 0.000709295  0.0321289 -0.113682 0.000637054  0.0328053 -0.126628 0.000571251  0.0332973 -0.139924 0.000505924  0.0336177 -0.153527 0.000445843  0.0337801 -0.167397 0.000389814  0.0337956 -0.181486 0.000336409  0.0336745 -0.195761 0.000286579  0.0334313 -0.210183 0.00024128  0.033082 -0.224723 0.000202894  0.0326338 -0.239356 0.000166893  0.0320976 -0.254045 0.000132084  0.0314879 -0.268777 0.000102282  0.0308123 -0.283531 7.82013e-05  0.030087 -0.298282 5.53131e-05  0.0293167 -0.313024 3.79086e-05  0.0285149 -0.327739 2.40803e-05  0.0276885 -0.342427 1.57356e-05  0.0268488 -0.357076 5.96046e-06  0.0260029 -0.371701 -2.6226e-06  0 0 0  0.00370945 -0.00556898 0.000907421  0.0083836 -0.00896788 0.00147653  0.0129736 -0.0130625 0.00176978  0.0174199 -0.0181116 0.00186062  0.0216004 -0.0241767 0.00182915  0.0254472 -0.031231 0.00173879  0.0289468 -0.039206 0.00162649  0.0320963 -0.0480339 0.0015018  0.0349075 -0.05764 0.00138259  0.0373915 -0.0679536 0.00126505  0.0395646 -0.0789089 0.00115108  0.0414455 -0.0904398 0.00104284  0.0430473 -0.102484 0.000946045  0.0443801 -0.114991 0.000848293  0.0454686 -0.127898 0.000759125  0.0463266 -0.141163 0.000672817  0.0469644 -0.154737 0.000594139  0.0474038 -0.168571 0.000518799  0.0476511 -0.182629 0.000447273  0.0477312 -0.196869 0.000384808  0.0476518 -0.211259 0.000322819  0.0474319 -0.225768 0.000268221  0.0470903 -0.240371 0.00022316  0.0466359 -0.255033 0.000175953  0.046082 -0.269738 0.000137806  0.0454421 -0.284468 9.98974e-05  0.0447347 -0.299198 7.39098e-05  0.0439684 -0.313919 5.00679e-05  0.0431631 -0.328618 3.12328e-05  0.0423295 -0.343293 2.24113e-05  0.0414793 -0.357942 1.00136e-05  0.0406265 -0.372571 1.90735e-06  0 0 0  -0.00382211 -0.00536043 -2.38419e-07  -0.00844373 -0.00859583 1.43051e-06  -0.0130374 -0.0124887 -9.53674e-07  -0.0175669 -0.0172796 7.15256e-07  -0.0219294 -0.0230287 -4.76837e-07  -0.0260652 -0.0297258 2.38419e-07  -0.0299589 -0.0373171 3.57628e-06  -0.0336095 -0.0457406 2.14577e-06  -0.0370342 -0.0549346 -1.66893e-06  -0.0402446 -0.0648388 -2.38419e-06  -0.0432533 -0.0753868 -1.90735e-06  -0.0460734 -0.08653 -9.53674e-07  -0.0487131 -0.098204 7.15256e-07  -0.0511906 -0.110358 2.38419e-07  -0.0535035 -0.122938 -1.66893e-06  -0.0556669 -0.135901 -4.76837e-07  -0.0576899 -0.1492 -7.15256e-07  -0.0595737 -0.162786 -7.15256e-07  -0.0613282 -0.17663 2.6226e-06  -0.0629623 -0.190686 3.57628e-06  -0.0644834 -0.204914 -4.76837e-07  -0.0658982 -0.219292 2.14577e-06  -0.0672143 -0.233784 2.38419e-07  -0.0684397 -0.24836 4.76837e-07  -0.0695827 -0.262999 1.43051e-06  -0.0706546 -0.277673 2.14577e-06  -0.0716662 -0.292373 -1.66893e-06  -0.0726254 -0.307079 -1.43051e-06  -0.0735424 -0.321773 0  -0.0744271 -0.336446 -1.90735e-06  -0.075295 -0.351096 -1.19209e-06  -0.0761549 -0.365729 -4.76837e-07  0 0 0  -0.00192238 -0.0028842 -1.66893e-06  -0.00529961 -0.00642971 4.76837e-07  -0.00887212 -0.0105658 4.76837e-07  -0.012381 -0.0155953 -1.19209e-06  -0.0157443 -0.0215628 -4.76837e-07  -0.0189288 -0.0284563 -2.38419e-06  -0.0219317 -0.0362309 4.76837e-07  -0.0247633 -0.0448263 -1.66893e-06  -0.0274383 -0.0541843 -1.43051e-06  -0.0299617 -0.0642423 -1.19209e-06  -0.0323504 -0.0749385 -2.38419e-07  -0.0346112 -0.0862171 -2.38419e-07  -0.0367515 -0.098021 -4.76837e-07  -0.0387782 -0.110298 0  -0.0406985 -0.122993 -4.76837e-07  -0.0425115 -0.136062 -1.43051e-06  -0.044229 -0.149461 -1.19209e-06  -0.0458529 -0.16314 -1.43051e-06  -0.0473857 -0.177064 -4.76837e-07  -0.0488319 -0.191192 1.19209e-06  -0.0501971 -0.20549 1.66893e-06  -0.0514889 -0.219924 2.6226e-06  -0.052711 -0.234465 2.38419e-06  -0.0538664 -0.249087 1.43051e-06  -0.0549631 -0.263764 1.43051e-06  -0.0560043 -0.27847 2.86102e-06  -0.0570014 -0.293193 1.90735e-06  -0.0579565 -0.307916 1.43051e-06  -0.0588791 -0.322622 2.38419e-07  -0.0597758 -0.337302 -2.38419e-07  -0.060653 -0.351952 4.76837e-07  -0.0615225 -0.366577 2.38419e-07  0 0 0  -0.00115823 -0.00171208 2.38419e-07  -0.00312415 -0.00491647 -9.53674e-07  -0.00546554 -0.00918497 1.90735e-06  -0.00783893 -0.0143897 4.76837e-07  -0.0101365 -0.0205307 -4.76837e-07  -0.0123247 -0.0275834 -7.15256e-07  -0.0144075 -0.0355015 4.76837e-07  -0.0163937 -0.0442337 1.19209e-06  -0.0182891 -0.053721 -2.38419e-07  -0.0201099 -0.0638998 -1.90735e-06  -0.0218563 -0.0747128 2.38419e-07  -0.0235356 -0.0861037 1.19209e-06  -0.0251547 -0.0980137 -4.76837e-07  -0.026713 -0.110388 -2.14577e-06  -0.0282153 -0.123178 1.43051e-06  -0.0296607 -0.136336 7.15256e-07  -0.0310543 -0.149813 -1.90735e-06  -0.0323946 -0.163567 -7.15256e-07  -0.0336833 -0.177559 4.76837e-07  -0.0349245 -0.191746 -2.38419e-07  -0.0361202 -0.206097 2.38419e-06  -0.0372691 -0.220577 1.90735e-06  -0.0383751 -0.235161 7.15256e-07  -0.0394411 -0.249818 3.33786e-06  -0.0404692 -0.264526 2.6226e-06  -0.041466 -0.279259 1.43051e-06  -0.042428 -0.294002 -4.76837e-07  -0.0433631 -0.308742 -7.15256e-07  -0.0442753 -0.323457 1.90735e-06  -0.0451672 -0.338145 -2.38419e-07  -0.0460429 -0.352798 -1.43051e-06  -0.0469124 -0.367412 2.38419e-07  0 0 0  -0.000521965 -0.0011858 4.76837e-07  -0.0014371 -0.00415483 1.19209e-06  -0.00255895 -0.00840586 -1.19209e-06  -0.0037528 -0.0137101 4.76837e-07  -0.004942 -0.019967 -2.38419e-07  -0.00610566 -0.0271323 0  -0.00724322 -0.0351561 2.38419e-07  -0.00836343 -0.0439867 2.38419e-07  -0.00946724 -0.0535688 -9.53674e-07  -0.0105642 -0.0638378 7.15256e-07  -0.0116552 -0.07474 -7.15256e-07  -0.0127398 -0.0862154 4.76837e-07  -0.0138208 -0.0982047 1.19209e-06  -0.0148969 -0.110657 -2.38419e-07  -0.0159656 -0.123518 -7.15256e-07  -0.0170294 -0.136744 -2.14577e-06  -0.0180831 -0.150281 7.15256e-07  -0.0191255 -0.164092 -1.43051e-06  -0.0201597 -0.178134 1.43051e-06  -0.0211797 -0.192366 1.43051e-06  -0.0221872 -0.206761 -4.76837e-07  -0.0231793 -0.221278 2.86102e-06  -0.0241561 -0.235892 1.66893e-06  -0.0251198 -0.250578 1.66893e-06  -0.0260682 -0.265308 4.76837e-07  -0.0269995 -0.280058 4.76837e-07  -0.0279176 -0.294818 7.15256e-07  -0.0288219 -0.309569 4.76837e-07  -0.0297112 -0.324296 -2.38419e-07  -0.0305886 -0.338988 -2.14577e-06  -0.0314591 -0.353644 1.66893e-06  -0.0323212 -0.368249 0  0 0 0  3.18438e-05 -0.00106505 0  8.07047e-05 -0.00397515 4.76837e-07  0.000110686 -0.00823203 2.38419e-07  9.74536e-05 -0.0135796 2.38419e-07  3.26037e-05 -0.0198965 -1.19209e-06  -8.97646e-05 -0.0271241 1.19209e-06  -0.000271261 -0.0352091 -1.43051e-06  -0.000515044 -0.0441034 1.19209e-06  -0.00082171 -0.053745 7.15256e-07  -0.00118995 -0.0640754 0  -0.00161564 -0.0750393 0  -0.00209701 -0.0865699 -9.53674e-07  -0.00263119 -0.098616 -1.19209e-06  -0.00321913 -0.111122 -7.15256e-07  -0.00384808 -0.124034 1.90735e-06  -0.00451577 -0.137304 1.90735e-06  -0.00522351 -0.150886 4.76837e-07  -0.00596428 -0.164735 2.38419e-07  -0.00673079 -0.178811 4.76837e-07  -0.00752521 -0.193077 7.15256e-07  -0.0083344 -0.207499 -9.53674e-07  -0.00916076 -0.222039 1.19209e-06  -0.0100012 -0.236674 2.86102e-06  -0.0108547 -0.251376 0  -0.0117142 -0.266121 1.43051e-06  -0.0125761 -0.280884 2.86102e-06  -0.0134418 -0.29565 9.53674e-07  -0.0143089 -0.310407 1.19209e-06  -0.015172 -0.32514 4.76837e-07  -0.0160332 -0.339836 -2.38419e-07  -0.0168927 -0.354494 -4.76837e-07  -0.0177491 -0.369098 2.14577e-06  0 0 0  0.000584275 -0.00128949 -4.76837e-07  0.0015921 -0.00432712 1.19209e-06  0.00276491 -0.00863749 2.86102e-06  0.00393099 -0.0140018 1.90735e-06  0.00498766 -0.0203267 1.19209e-06  0.00590223 -0.0275642 -1.66893e-06  0.00667357 -0.0356731 -1.19209e-06  0.00730443 -0.0445908 2.38419e-07  0.0077951 -0.0542619 7.15256e-07  0.00815749 -0.0646257 -7.15256e-07  0.00839555 -0.0756187 1.66893e-06  0.00851703 -0.087182 -7.15256e-07  0.00852931 -0.099261 -1.19209e-06  0.00843883 -0.111795 -1.43051e-06  0.00825059 -0.124738 -1.19209e-06  0.00797367 -0.138034 -1.66893e-06  0.00761819 -0.151637 4.76837e-07  0.00718522 -0.165508 2.38419e-07  0.00668645 -0.179604 1.43051e-06  0.00612664 -0.193886 4.76837e-07  0.00550938 -0.208319 4.76837e-07  0.00484538 -0.222872 7.15256e-07  0.00414038 -0.237513 1.43051e-06  0.00340247 -0.252223 -7.15256e-07  0.00263333 -0.266973 4.76837e-07  0.00183845 -0.28174 7.15256e-07  0.00102735 -0.296508 2.6226e-06  0.000201702 -0.311263 1.90735e-06  -0.000638008 -0.325997 1.43051e-06  -0.00148034 -0.340693 -9.53674e-07  -0.00232983 -0.355349 1.90735e-06  -0.00317812 -0.369955 9.53674e-07  0 0 0  0.00121318 -0.00191367 -2.38419e-07  0.00325611 -0.00524777 -7.15256e-07  0.00563222 -0.0096314 7.15256e-07  0.00796342 -0.0149595 9.53674e-07  0.0101153 -0.0212399 1.19209e-06  0.0120488 -0.0284476 -1.19209e-06  0.0137566 -0.0365375 0  0.0152457 -0.045446 2.14577e-06  0.0165275 -0.0551199 4.76837e-07  0.0176138 -0.0654843 -2.6226e-06  0.0185111 -0.0764857 1.90735e-06  0.0192323 -0.0880567 2.38419e-07  0.0197868 -0.100145 9.53674e-07  0.0201848 -0.112685 4.76837e-07  0.0204325 -0.125633 -1.90735e-06  0.0205467 -0.138935 1.19209e-06  0.0205348 -0.152543 1.90735e-06  0.0204048 -0.166418 1.43051e-06  0.0201657 -0.180516 7.15256e-07  0.0198331 -0.194795 2.38419e-06  0.0194099 -0.209226 4.76837e-07  0.0189071 -0.223778 1.19209e-06  0.0183365 -0.238419 1.19209e-06  0.0177052 -0.253121 3.09944e-06  0.0170212 -0.267865 -7.15256e-07  0.0162933 -0.282625 1.43051e-06  0.0155284 -0.297389 7.15256e-07  0.0147357 -0.312141 0  0.0139225 -0.326866 2.38419e-07  0.0130906 -0.341559 4.76837e-07  0.012248 -0.356212 1.43051e-06  0.0114059 -0.370829 0  0 0 0  0.00194228 -0.00316572 1.90735e-06  0.00537401 -0.00688314 9.53674e-07  0.00895634 -0.011196 9.53674e-07  0.0123974 -0.0164186 2.38419e-07  0.0155962 -0.0226086 1.19209e-06  0.0185089 -0.0297469 1.19209e-06  0.0211287 -0.0377877 1.43051e-06  0.0234634 -0.0466602 1.19209e-06  0.0255196 -0.0563051 2.38419e-07  0.0273156 -0.0666494 0  0.0288609 -0.0776322 9.53674e-07  0.0301694 -0.0891888 -7.15256e-07  0.0312558 -0.101262 1.66893e-06  0.0321304 -0.113787 0  0.0328081 -0.126721 -2.38419e-07  0.0333011 -0.140009 -9.53674e-07  0.0336208 -0.153604 2.38419e-07  0.0337813 -0.167463 2.38419e-07  0.0337963 -0.181543 -2.38419e-07  0.0336783 -0.195808 1.66893e-06  0.0334361 -0.210224 -1.19209e-06  0.0330844 -0.224758 4.76837e-07  0.032634 -0.239382 9.53674e-07  0.0321012 -0.254069 1.19209e-06  0.031491 -0.268796 7.15256e-07  0.030817 -0.283541 2.86102e-06  0.0300896 -0.298292 9.53674e-07  0.0293188 -0.31303 9.53674e-07  0.0285156 -0.327745 2.38419e-07  0.0276904 -0.342429 3.8147e-06  0.0268517 -0.357081 0  0.0260072 -0.371705 9.53674e-07  0 0 0  0.00373006 -0.0056774 2.38419e-07  0.00838611 -0.00913352 -4.76837e-07  0.0129527 -0.0132583 1.43051e-06  0.0173883 -0.018319 2.86102e-06  0.0215653 -0.0243925 -4.76837e-07  0.0254216 -0.0314348 9.53674e-07  0.0289279 -0.0394013 1.66893e-06  0.0320817 -0.0482175 -2.38419e-07  0.0348969 -0.0578094 9.53674e-07  0.0373846 -0.0681079 1.90735e-06  0.0395598 -0.0790503 -4.76837e-07  0.0414395 -0.0905688 -1.90735e-06  0.0430409 -0.102605 -1.43051e-06  0.0443802 -0.115096 -1.19209e-06  0.0454682 -0.127994 9.53674e-07  0.0463216 -0.141246 -2.6226e-06  0.0469604 -0.154809 7.15256e-07  0.0473981 -0.168635 -4.76837e-07  0.0476491 -0.182682 2.38419e-07  0.0477283 -0.196917 4.76837e-07  0.0476532 -0.211299 -4.76837e-07  0.0474343 -0.225803 1.43051e-06  0.0470896 -0.240394 2.38419e-07  0.0466337 -0.255058 4.76837e-07  0.0460806 -0.269755 1.90735e-06  0.0454433 -0.284477 9.53674e-07  0.0447366 -0.299206 1.66893e-06  0.043973 -0.313922 3.33786e-06  0.0431688 -0.328622 9.53674e-07  0.0423346 -0.343299 1.19209e-06  0.0414872 -0.357946 5.24521e-06  0.0406327 -0.372575 -1.43051e-06  0 0 0  -0.00379072 -0.00524998 0.000934601  -0.00842783 -0.00842214 0.00152564  -0.0130363 -0.012279 0.00182462  -0.0175766 -0.0170523 0.0019207  -0.0219373 -0.0228048 0.00188398  -0.0260699 -0.0295062 0.00178242  -0.0299539 -0.0371105 0.00165868  -0.0335993 -0.0455482 0.00152469  -0.0370188 -0.0547584 0.00139451  -0.040226 -0.0646794 0.00126624  -0.0432329 -0.0752437 0.00114965  -0.0460534 -0.0863974 0.00103521  -0.0486969 -0.0980859 0.00093317  -0.0511727 -0.11025 0.000834942  -0.0534892 -0.122843 0.00074029  -0.0556543 -0.135818 0.00065589  -0.0576797 -0.149126 0.000575781  -0.0595636 -0.162724 0.000501394  -0.0613201 -0.176575 0.000430584  -0.0629523 -0.190639 0.000367403  -0.0644729 -0.204877 0.000306129  -0.0658879 -0.219263 0.000253201  -0.0672078 -0.233759 0.00020504  -0.0684361 -0.248339 0.000161171  -0.0695803 -0.262982 0.00012207  -0.0706556 -0.277663 9.05991e-05  -0.0716603 -0.292364 6.7234e-05  -0.072623 -0.307073 4.14848e-05  -0.0735354 -0.321766 2.47955e-05  -0.0744197 -0.336443 1.3113e-05  -0.07529 -0.351094 3.33786e-06  -0.0761528 -0.365723 -2.38419e-06  0 0 0  -0.00192327 -0.00281319 0.00066781  -0.00531147 -0.00628836 0.00113869  -0.00889099 -0.0103829 0.00137663  -0.0124004 -0.0153886 0.00144267  -0.0157531 -0.0213486 0.00141191  -0.0189244 -0.0282464 0.00133324  -0.021919 -0.0360302 0.00123668  -0.0247425 -0.04464 0.00113511  -0.0274103 -0.054012 0.00103498  -0.0299346 -0.0640821 0.000940561  -0.0323248 -0.0747956 0.0008533  -0.0345837 -0.0860854 0.000769377  -0.0367242 -0.0979024 0.000690699  -0.0387541 -0.11019 0.000617504  -0.0406737 -0.122899 0.00054884  -0.0424923 -0.13598 0.000486612  -0.0442095 -0.149386 0.0004251  -0.0458343 -0.163076 0.000370264  -0.047369 -0.177008 0.000317335  -0.0488183 -0.191145 0.000271082  -0.0501878 -0.205449 0.000228405  -0.0514815 -0.219891 0.000187874  -0.0527027 -0.23444 0.000150919  -0.053859 -0.249067 0.000119925  -0.0549557 -0.263743 9.10759e-05  -0.0559995 -0.278459 6.91414e-05  -0.0569978 -0.293185 5.00679e-05  -0.0579515 -0.307908 3.19481e-05  -0.0588756 -0.322614 1.95503e-05  -0.0597708 -0.337298 8.34465e-06  -0.0606487 -0.351948 4.76837e-07  -0.0615146 -0.366574 -4.05312e-06  0 0 0  -0.00116371 -0.00165589 0.000442982  -0.00314011 -0.00480005 0.000753403  -0.00548118 -0.00902136 0.000914574  -0.00785238 -0.0141955 0.000961065  -0.0101398 -0.0203251 0.000937223  -0.0123188 -0.0273794 0.000884771  -0.0143918 -0.0353068 0.000819206  -0.0163672 -0.0440506 0.000747681  -0.0182625 -0.0535484 0.000682831  -0.0200806 -0.0637421 0.000618458  -0.0218297 -0.0745686 0.000560284  -0.0235125 -0.085971 0.000506401  -0.0251312 -0.0978933 0.00045228  -0.0266914 -0.110282 0.000404835  -0.0281945 -0.123083 0.00036025  -0.0296402 -0.13625 0.000317335  -0.0310335 -0.149739 0.000277281  -0.0323753 -0.1635 0.000242233  -0.0336683 -0.177502 0.000209332  -0.0349114 -0.191696 0.000176191  -0.0361063 -0.206057 0.000150204  -0.037257 -0.220547 0.000122786  -0.0383661 -0.235134 9.9659e-05  -0.0394347 -0.249798 7.72476e-05  -0.0404618 -0.264505 6.07967e-05  -0.0414581 -0.279246 4.60148e-05  -0.0424213 -0.293992 3.0756e-05  -0.0433576 -0.308731 1.88351e-05  -0.0442708 -0.323453 1.21593e-05  -0.0451634 -0.338141 5.96046e-06  -0.0460424 -0.352794 2.38419e-07  -0.046911 -0.367413 -6.19888e-06  0 0 0  -0.000526719 -0.0011372 0.000222206  -0.00144583 -0.00404951 0.00037837  -0.002565 -0.00825405 0.000457048  -0.00375798 -0.0135245 0.000480652  -0.00493795 -0.0197689 0.000470161  -0.0060935 -0.0269329 0.000440121  -0.00722587 -0.0349617 0.000404596  -0.00834286 -0.0438029 0.000371456  -0.00944495 -0.0533959 0.000335455  -0.0105414 -0.0636798 0.000304937  -0.0116329 -0.0745933 0.000274897  -0.0127192 -0.0860804 0.00024581  -0.0137993 -0.0980864 0.000222206  -0.0148761 -0.110548 0.000196695  -0.0159471 -0.123422 0.000174284  -0.0170122 -0.136656 0.000152826  -0.0180678 -0.150207 0.000133991  -0.0191119 -0.164026 0.000114918  -0.0201473 -0.178077 0.000100374  -0.021168 -0.192318 8.44002e-05  -0.0221765 -0.206718 7.03335e-05  -0.0231698 -0.221245 5.81741e-05  -0.0241504 -0.235866 5.05447e-05  -0.0251133 -0.250555 3.6478e-05  -0.0260599 -0.265288 2.83718e-05  -0.0269947 -0.280047 2.09808e-05  -0.0279143 -0.294807 1.40667e-05  -0.0288172 -0.309557 9.05991e-06  -0.0297091 -0.324289 2.6226e-06  -0.0305882 -0.338985 1.90735e-06  -0.0314569 -0.353639 7.15256e-07  -0.0323195 -0.368252 -1.90735e-06  0 0 0  3.40492e-05 -0.00101978 -7.15256e-07  8.40425e-05 -0.003874 1.90735e-06  0.000113189 -0.00808507 5.48363e-06  0.000104666 -0.0134009 2.86102e-06  4.04716e-05 -0.0197037 2.14577e-06  -7.75456e-05 -0.0269273 -4.76837e-07  -0.000259638 -0.0350181 -9.53674e-07  -0.000501454 -0.0439201 -4.52995e-06  -0.000807405 -0.053574 -4.52995e-06  -0.00117576 -0.0639178 -5.24521e-06  -0.00160122 -0.0748915 -1.0252e-05  -0.00208426 -0.0864381 -9.29832e-06  -0.0026226 -0.0984983 -1.14441e-05  -0.00320387 -0.111012 -1.00136e-05  -0.00383472 -0.123936 -9.05991e-06  -0.0045042 -0.137218 -1.00136e-05  -0.00521326 -0.150808 -8.82149e-06  -0.0059557 -0.16467 -1.09673e-05  -0.00672412 -0.178754 -1.0252e-05  -0.00751519 -0.193026 -7.15256e-06  -0.00832796 -0.207455 -8.82149e-06  -0.00915837 -0.222004 -7.15256e-06  -0.0100014 -0.236647 -4.05312e-06  -0.0108531 -0.251352 -5.00679e-06  -0.0117118 -0.2661 -4.05312e-06  -0.0125778 -0.280867 -1.90735e-06  -0.0134411 -0.295641 -3.33786e-06  -0.0143077 -0.310397 -2.14577e-06  -0.0151706 -0.325132 -5.48363e-06  -0.0160327 -0.339831 -1.19209e-06  -0.0168917 -0.354488 0  -0.017746 -0.369097 -4.76837e-07  0 0 0  0.000588998 -0.00124115 -0.000222921  0.00160414 -0.00422496 -0.000371695  0.00278488 -0.00848991 -0.000445604  0.00395077 -0.0138202 -0.000468969  0.00500566 -0.0201334 -0.000458717  0.00591636 -0.02737 -0.000434637  0.0066824 -0.0354819 -0.000407934  0.00730991 -0.0444099 -0.000375509  0.00780046 -0.054092 -0.000344276  0.00816214 -0.0644669 -0.000319242  0.00840056 -0.0754735 -0.000290632  0.0085212 -0.087052 -0.000264406  0.00853312 -0.0991413 -0.00024128  0.00844228 -0.111689 -0.000218153  0.00825381 -0.124639 -0.000195265  0.0079751 -0.137947 -0.000173807  0.00761795 -0.15156 -0.00015521  0.00718427 -0.165441 -0.000133753  0.00668454 -0.179546 -0.00011611  0.00612402 -0.193834 -0.000101805  0.00550842 -0.208275 -8.74996e-05  0.00484538 -0.222836 -6.98566e-05  0.00414205 -0.237487 -5.8651e-05  0.00340199 -0.2522 -4.74453e-05  0.00263214 -0.266951 -3.79086e-05  0.00184011 -0.281723 -2.88486e-05  0.00102544 -0.296495 -2.00272e-05  0.000199795 -0.311256 -1.35899e-05  -0.000635862 -0.325988 -9.77516e-06  -0.00148153 -0.340686 -5.48363e-06  -0.0023303 -0.355344 -2.38419e-07  -0.00317812 -0.369956 2.6226e-06  0 0 0  0.00121669 -0.00185949 -0.000439167  0.00327891 -0.00513792 -0.000739813  0.00566104 -0.00947469 -0.000895262  0.00799078 -0.014774 -0.000939608  0.0101384 -0.0210429 -0.000920057  0.012063 -0.0282524 -0.00087285  0.0137634 -0.0363455 -0.000810385  0.0152494 -0.0452669 -0.00074935  0.0165293 -0.0549486 -0.000688076  0.0176101 -0.0653279 -0.000630617  0.0185063 -0.0763425 -0.000574589  0.0192288 -0.0879242 -0.000524044  0.0197817 -0.100023 -0.000472784  0.0201797 -0.112578 -0.000427008  0.020431 -0.125537 -0.000381947  0.0205445 -0.13885 -0.000338793  0.0205312 -0.152468 -0.000298023  0.0204003 -0.16635 -0.000261784  0.0201623 -0.180455 -0.000226021  0.0198278 -0.194746 -0.000192404  0.0194054 -0.209187 -0.000163078  0.0189042 -0.223743 -0.000135899  0.0183332 -0.238391 -0.000111341  0.0177009 -0.253097 -8.82149e-05  0.0170186 -0.267846 -7.00951e-05  0.0162897 -0.282611 -5.14984e-05  0.0155265 -0.297379 -3.76701e-05  0.014734 -0.31213 -2.67029e-05  0.0139165 -0.32686 -1.69277e-05  0.0130866 -0.341554 -8.82149e-06  0.0122468 -0.356208 -1.19209e-06  0.011404 -0.370823 4.29153e-06  0 0 0  0.0019467 -0.00309867 -0.000650883  0.00539389 -0.00675273 -0.00110984  0.00898844 -0.0110223 -0.00133944  0.0124313 -0.0162252 -0.00140643  0.0156217 -0.0224041 -0.00137711  0.0185263 -0.0295477 -0.00130749  0.0211396 -0.0375948 -0.00121808  0.0234667 -0.0464818 -0.00112486  0.0255206 -0.0561346 -0.00103545  0.0273151 -0.0664945 -0.000946999  0.0288601 -0.0774925 -0.000862598  0.0301671 -0.0890595 -0.000784397  0.0312531 -0.101142 -0.000709057  0.0321277 -0.113681 -0.000637293  0.032805 -0.126626 -0.000570059  0.0332983 -0.139925 -0.000506878  0.0336182 -0.153529 -0.000445604  0.033778 -0.167395 -0.000388622  0.0337932 -0.181485 -0.000339031  0.0336738 -0.19576 -0.000286102  0.0334308 -0.210183 -0.000242949  0.0330794 -0.224723 -0.000201941  0.0326293 -0.239354 -0.00016427  0.032095 -0.254045 -0.000133038  0.031487 -0.268777 -0.000100136  0.030812 -0.283528 -7.62939e-05  0.0300853 -0.298281 -5.31673e-05  0.0293155 -0.313022 -3.6478e-05  0.028511 -0.32774 -2.5034e-05  0.0276885 -0.342426 -1.19209e-05  0.0268483 -0.357078 -3.57628e-06  0.0260053 -0.371699 3.09944e-06  0 0 0  0.00371122 -0.00556803 -0.000908375  0.00838444 -0.00897253 -0.00147367  0.0129744 -0.0130609 -0.0017662  0.0174224 -0.018114 -0.0018568  0.0215992 -0.0241782 -0.00182581  0.0254487 -0.0312316 -0.00173855  0.0289494 -0.0392066 -0.00162387  0.0320969 -0.0480361 -0.00150204  0.0349082 -0.0576404 -0.00137997  0.0373937 -0.0679549 -0.00126362  0.0395654 -0.0789105 -0.00115061  0.0414447 -0.0904412 -0.00104856  0.0430467 -0.102486 -0.000946522  0.0443822 -0.114991 -0.00084877  0.0454712 -0.1279 -0.000758886  0.0463264 -0.141164 -0.000675917  0.0469627 -0.154735 -0.000597  0.047401 -0.16857 -0.000519514  0.0476489 -0.182625 -0.00044775  0.0477278 -0.196867 -0.000386715  0.0476503 -0.211257 -0.000324249  0.0474341 -0.225771 -0.000266314  0.047091 -0.240369 -0.000217915  0.0466332 -0.255034 -0.000174522  0.0460792 -0.269738 -0.000133038  0.0454423 -0.284463 -9.91821e-05  0.0447323 -0.299196 -7.08103e-05  0.0439718 -0.313918 -4.98295e-05  0.0431657 -0.328618 -2.74181e-05  0.0423281 -0.343293 -1.7643e-05  0.0414789 -0.357945 -5.00679e-06  0.0406299 -0.372568 7.15256e-07  0 0 0  -0.00373356 -0.00489137 0.00199986  -0.00839315 -0.00785587 0.00319362  -0.0130697 -0.0116339 0.00375319  -0.0176243 -0.0163595 0.00388598  -0.0219635 -0.0221112 0.00378323  -0.0260661 -0.0288443 0.00357032  -0.0299262 -0.0364921 0.00331068  -0.0335539 -0.0449833 0.00304651  -0.0369588 -0.0542411 0.00278425  -0.0401623 -0.0642018 0.00253105  -0.0431679 -0.0748129 0.0022974  -0.0459887 -0.0860064 0.00207376  -0.0486351 -0.0977312 0.00186539  -0.0511105 -0.109936 0.00166917  -0.0534314 -0.122565 0.00148296  -0.0556014 -0.13557 0.00131202  -0.0576286 -0.148904 0.00115061  -0.0595183 -0.162537 0.000996351  -0.0612786 -0.176412 0.000859261  -0.0629189 -0.190501 0.000730991  -0.0644453 -0.204761 0.00061059  -0.0658653 -0.219162 0.000504494  -0.0671859 -0.233677 0.000407934  -0.0684152 -0.248277 0.000320911  -0.0695665 -0.262932 0.00024271  -0.0706434 -0.277627 0.000181198  -0.0716565 -0.29234 0.000125408  -0.0726094 -0.307054 8.27312e-05  -0.0735226 -0.321755 4.62532e-05  -0.0744069 -0.336435 2.59876e-05  -0.0752778 -0.35109 9.05991e-06  -0.0761406 -0.36572 -3.8147e-06  0 0 0  -0.00195397 -0.00257278 0.00141692  -0.00536278 -0.00583858 0.0023737  -0.00896105 -0.00980341 0.00280905  -0.0124483 -0.0147457 0.00290227  -0.0157608 -0.0206926 0.00281787  -0.0188943 -0.0276105 0.00265455  -0.0218563 -0.0354298 0.00246024  -0.0246623 -0.0440842 0.00225735  -0.0273207 -0.0534968 0.00206375  -0.0298401 -0.0636116 0.00187755  -0.0322285 -0.0743646 0.00170231  -0.0344924 -0.0856976 0.00153613  -0.0366392 -0.0975519 0.00137973  -0.0386736 -0.109876 0.00123453  -0.0406001 -0.12262 0.00109625  -0.0424217 -0.13573 0.000970364  -0.0441446 -0.149166 0.000849724  -0.0457735 -0.162886 0.000739574  -0.0473123 -0.176844 0.000634432  -0.0487707 -0.191006 0.000539064  -0.0501451 -0.205331 0.000453234  -0.0514412 -0.219792 0.000373125  -0.0526707 -0.234361 0.000301838  -0.0538323 -0.249 0.00023818  -0.0549347 -0.263694 0.000179529  -0.0559807 -0.27842 0.000135422  -0.0569801 -0.293155 9.56059e-05  -0.0579383 -0.307891 6.19888e-05  -0.0588634 -0.322602 3.67165e-05  -0.0597608 -0.337289 1.85966e-05  -0.0606382 -0.351944 3.09944e-06  -0.0615101 -0.366567 -9.77516e-06  0 0 0  -0.00118865 -0.00146838 0.000949144  -0.00319475 -0.00441881 0.00156331  -0.00554752 -0.00849056 0.00186205  -0.00789097 -0.0135901 0.00192237  -0.0101371 -0.0196957 0.00186515  -0.0122769 -0.0267599 0.00175643  -0.0143234 -0.0347138 0.00162244  -0.0162879 -0.0434925 0.00148797  -0.0181736 -0.0530321 0.00135827  -0.0199884 -0.0632685 0.00123477  -0.0217366 -0.0741359 0.00111747  -0.0234213 -0.0855784 0.00100613  -0.0250466 -0.0975398 0.000905991  -0.0266118 -0.109964 0.000807285  -0.0281198 -0.122799 0.000718594  -0.0295708 -0.135999 0.000633717  -0.0309706 -0.149515 0.000555515  -0.0323207 -0.163308 0.000483513  -0.0336173 -0.177334 0.000417233  -0.0348656 -0.191553 0.000352144  -0.0360675 -0.205936 0.000296831  -0.0372229 -0.220445 0.000244617  -0.0383341 -0.235054 0.000197649  -0.0394063 -0.24973 0.000155449  -0.0404408 -0.264454 0.000119448  -0.0414391 -0.279205 8.89301e-05  -0.0424061 -0.293965 6.22272e-05  -0.0433459 -0.308711 3.88622e-05  -0.0442591 -0.323436 2.38419e-05  -0.0451515 -0.338131 1.09673e-05  -0.0460296 -0.352789 7.15256e-07  -0.0468976 -0.367401 -9.05991e-06  0 0 0  -0.000537433 -0.000974417 0.000475168  -0.00147086 -0.00370076 0.000783443  -0.00259805 -0.00775787 0.000927925  -0.00376844 -0.0129485 0.000959635  -0.00492322 -0.0191624 0.000931978  -0.00605506 -0.0263259 0.000872135  -0.00717205 -0.034376 0.000804663  -0.00827682 -0.0432484 0.000736713  -0.00937569 -0.0528792 0.000668049  -0.0104718 -0.063202 0.000606298  -0.0115638 -0.0741588 0.000546932  -0.0126511 -0.0856863 0.000490427  -0.0137374 -0.0977257 0.000440836  -0.0148174 -0.110227 0.000391245  -0.0158921 -0.123134 0.000346184  -0.0169592 -0.136403 0.00030756  -0.0180199 -0.149978 0.000265598  -0.0190709 -0.16383 0.000232697  -0.0201092 -0.177906 0.000198841  -0.0211353 -0.192174 0.00016737  -0.0221469 -0.206594 0.00013876  -0.0231464 -0.221142 0.000114441  -0.0241294 -0.235781 9.20296e-05  -0.0250974 -0.250487 7.34329e-05  -0.0260458 -0.265233 5.67436e-05  -0.0269821 -0.280004 4.29153e-05  -0.0279028 -0.294779 2.81334e-05  -0.0288072 -0.309538 1.81198e-05  -0.0297 -0.324272 7.86781e-06  -0.0305817 -0.338974 3.33786e-06  -0.0314524 -0.353629 -2.38419e-07  -0.0323169 -0.368235 -6.67572e-06  0 0 0  3.51369e-05 -0.000866503 -3.09944e-06  9.20296e-05 -0.00353941 7.15256e-07  0.000130445 -0.00760242 5.00679e-06  0.00012964 -0.0128387 5.96046e-06  7.42078e-05 -0.0191056 2.86102e-06  -4.1604e-05 -0.0263276 -2.38419e-07  -0.000218213 -0.0344354 -4.05312e-06  -0.000460088 -0.0433686 -9.53674e-06  -0.00076592 -0.0530563 -1.19209e-05  -0.00113297 -0.0634393 -1.23978e-05  -0.00156152 -0.0744548 -1.78814e-05  -0.00204813 -0.0860391 -1.97887e-05  -0.00258458 -0.098133 -2.19345e-05  -0.00317383 -0.110689 -2.02656e-05  -0.00380576 -0.123646 -1.95503e-05  -0.0044812 -0.13696 -2.19345e-05  -0.00518966 -0.15058 -1.83582e-05  -0.00593162 -0.164469 -2.00272e-05  -0.00670433 -0.178581 -2.00272e-05  -0.00750041 -0.192879 -1.7643e-05  -0.00831556 -0.207329 -1.62125e-05  -0.00914741 -0.221898 -1.43051e-05  -0.00999117 -0.236559 -9.77516e-06  -0.0108452 -0.251282 -1.38283e-05  -0.0117044 -0.266045 -1.0252e-05  -0.0125697 -0.280824 -6.91414e-06  -0.0134375 -0.295609 -9.77516e-06  -0.014303 -0.310377 -7.15256e-06  -0.0151689 -0.325118 -6.91414e-06  -0.0160325 -0.339819 -3.33786e-06  -0.016892 -0.354479 -1.43051e-06  -0.0177479 -0.369081 3.8147e-06  0 0 0  0.000608757 -0.00108451 -0.000478745  0.00165236 -0.00388443 -0.000776768  0.00284988 -0.00800401 -0.000914335  0.00400877 -0.0132573 -0.000944376  0.00504804 -0.019535 -0.000918627  0.00594872 -0.0267718 -0.000866413  0.0067082 -0.0348997 -0.000810146  0.00732696 -0.0438573 -0.000749826  0.00781393 -0.0535758 -0.000689983  0.00817394 -0.0639908 -0.000635147  0.00841129 -0.0750362 -0.000580072  0.00853109 -0.0866511 -0.000529289  0.00854206 -0.0987796 -0.000481606  0.00844896 -0.111361 -0.000434875  0.00825882 -0.124348 -0.000390291  0.0079813 -0.137688 -0.000347614  0.00762081 -0.151333 -0.000308037  0.00718617 -0.165241 -0.000271797  0.00668526 -0.179371 -0.000234604  0.00612283 -0.193683 -0.000203133  0.00550485 -0.208148 -0.0001719  0.00484085 -0.22273 -0.000145912  0.00413728 -0.237399 -0.000119209  0.00339723 -0.252127 -9.5129e-05  0.00262809 -0.266895 -7.4625e-05  0.00183702 -0.281679 -5.74589e-05  0.00102425 -0.296465 -4.17233e-05  0.000196695 -0.31123 -2.98023e-05  -0.000644207 -0.325971 -1.90735e-05  -0.0014863 -0.340676 -1.07288e-05  -0.00233388 -0.355336 -9.53674e-07  -0.00318193 -0.369939 3.09944e-06  0 0 0  0.00124642 -0.0016821 -0.000941753  0.00335175 -0.00477147 -0.00154042  0.00576219 -0.00896591 -0.00182676  0.0080775 -0.014193 -0.00188828  0.0101964 -0.0204355 -0.00183916  0.0120958 -0.0276482 -0.00173736  0.0137783 -0.035764 -0.00161672  0.0152521 -0.0447166 -0.00149512  0.0165232 -0.0544356 -0.00137353  0.0176017 -0.0648544 -0.00125933  0.0184977 -0.0759065 -0.0011487  0.0192201 -0.0875298 -0.00104451  0.0197716 -0.099662 -0.000946045  0.0201688 -0.112254 -0.000851154  0.0204195 -0.125246 -0.000762463  0.0205319 -0.138592 -0.000678301  0.0205171 -0.152239 -0.000597477  0.0203867 -0.16615 -0.000521421  0.0201473 -0.180282 -0.000453711  0.0198133 -0.194593 -0.000387907  0.0193913 -0.209056 -0.000328779  0.0188899 -0.223636 -0.000272989  0.0183182 -0.238302 -0.000223398  0.017688 -0.253026 -0.000180006  0.0170045 -0.267788 -0.000140905  0.0162768 -0.282568 -0.000105381  0.0155129 -0.297345 -7.7486e-05  0.0147228 -0.312107 -5.17368e-05  0.0139103 -0.326843 -3.43323e-05  0.0130794 -0.341541 -1.90735e-05  0.0122356 -0.356201 -2.6226e-06  0.0113955 -0.370811 7.39098e-06  0 0 0  0.00198199 -0.00286776 -0.00139189  0.00546685 -0.00632858 -0.00232124  0.00909835 -0.0104746 -0.002738  0.0125328 -0.015616 -0.00283098  0.0156938 -0.0217816 -0.0027566  0.0185667 -0.0289386 -0.00261045  0.0211591 -0.0370109 -0.00243378  0.0234696 -0.0459335 -0.002244  0.0255131 -0.0556282 -0.00206709  0.0273014 -0.066027 -0.00189042  0.0288433 -0.0770605 -0.00172329  0.0301517 -0.0886657 -0.0015676  0.0312374 -0.100786 -0.00141501  0.0321105 -0.113364 -0.00127435  0.0327883 -0.12634 -0.0011375  0.0332789 -0.13967 -0.00101089  0.0335999 -0.153303 -0.000891209  0.0337629 -0.167198 -0.000778913  0.033777 -0.181312 -0.000674009  0.0336566 -0.19561 -0.000575781  0.0334165 -0.210056 -0.000486851  0.0330634 -0.224618 -0.000402927  0.0326164 -0.239267 -0.000329971  0.0320809 -0.253976 -0.00026226  0.0314717 -0.268722 -0.000204563  0.0307982 -0.283488 -0.000151873  0.0300717 -0.298252 -0.000107527  0.0293047 -0.312998 -7.36713e-05  0.0285017 -0.327724 -4.79221e-05  0.0276756 -0.342415 -2.55108e-05  0.0268378 -0.357068 -8.10623e-06  0.0259924 -0.37169 7.86781e-06  0 0 0  0.00367118 -0.00521785 -0.00194454  0.00838885 -0.0084331 -0.00309825  0.0130528 -0.0124574 -0.00363541  0.0175208 -0.0174623 -0.00376415  0.0216842 -0.0235289 -0.00367451  0.0255132 -0.0306088 -0.00348473  0.0289907 -0.038619 -0.00325441  0.0321262 -0.0474856 -0.00300884  0.0349264 -0.0571346 -0.00276399  0.0374041 -0.0674912 -0.00252986  0.039578 -0.0784841 -0.00230789  0.0414532 -0.0900515 -0.00209498  0.0430511 -0.102137 -0.00189614  0.0443876 -0.114676 -0.00170016  0.0454723 -0.127621 -0.00152206  0.0463288 -0.140915 -0.00135374  0.0469635 -0.154516 -0.0011878  0.0473959 -0.168375 -0.00103593  0.0476484 -0.182459 -0.000897646  0.0477283 -0.196724 -0.000766754  0.0476463 -0.211138 -0.000646114  0.0474296 -0.225669 -0.00053525  0.0470817 -0.240288 -0.000437975  0.046628 -0.254968 -0.000345707  0.0460739 -0.269688 -0.000264645  0.0454378 -0.284428 -0.000197649  0.044729 -0.299169 -0.000142574  0.0439644 -0.313897 -9.36985e-05  0.0431576 -0.328604 -5.76973e-05  0.0423214 -0.343286 -3.31402e-05  0.0414693 -0.357934 -1.21593e-05  0.0406156 -0.37256 2.86102e-06  0 0 0  -0.00358795 -0.00411364 0.00341344  -0.00848103 -0.00689041 0.00517654  -0.0131981 -0.0104456 0.00582767  -0.017692 -0.0151277 0.0059092  -0.0219574 -0.020913 0.00570154  -0.0259928 -0.0277186 0.0053544  -0.0298075 -0.0354471 0.00496411  -0.0334105 -0.0440225 0.00456285  -0.0368029 -0.0533619 0.00417185  -0.0400025 -0.0634074 0.00380373  -0.0430099 -0.0740899 0.00344634  -0.0458385 -0.0853565 0.00311637  -0.0484893 -0.0971463 0.0028019  -0.0509785 -0.109412 0.00250697  -0.0533077 -0.122098 0.00223017  -0.0554854 -0.135159 0.00196886  -0.0575206 -0.148551 0.00172544  -0.0594227 -0.162225 0.00149822  -0.061193 -0.176144 0.0012877  -0.0628409 -0.190269 0.00109673  -0.0643749 -0.204568 0.000915289  -0.065804 -0.219006 0.000751972  -0.0671341 -0.233552 0.000608683  -0.0683689 -0.248178 0.00047493  -0.0695238 -0.262858 0.000361443  -0.0706093 -0.277575 0.000266552  -0.0716257 -0.292302 0.000183344  -0.0725877 -0.307029 0.000116825  -0.0735052 -0.321741 6.27041e-05  -0.0743923 -0.336426 3.50475e-05  -0.0752575 -0.351082 1.07288e-05  -0.0761206 -0.365718 -9.77516e-06  0 0 0  -0.00199413 -0.00209124 0.00240183  -0.00556645 -0.00495695 0.00380063  -0.00914046 -0.00872406 0.00428581  -0.0125149 -0.0135997 0.00435042  -0.0157194 -0.019558 0.00419331  -0.0187767 -0.0265276 0.0039444  -0.0216924 -0.0344148 0.00365448  -0.0244726 -0.0431415 0.00335765  -0.02712 -0.0526359 0.00307274  -0.0296384 -0.0628267 0.0028019  -0.0320321 -0.0736519 0.00254083  -0.0343053 -0.0850512 0.00229573  -0.0364618 -0.0969707 0.00206423  -0.0385057 -0.109358 0.00184703  -0.040442 -0.122158 0.00164104  -0.042277 -0.135323 0.00145221  -0.0440114 -0.148811 0.00127101  -0.045651 -0.162575 0.00110412  -0.0472028 -0.176575 0.000952721  -0.0486677 -0.190774 0.000808716  -0.0500546 -0.205139 0.000677586  -0.0513623 -0.219634 0.000560284  -0.0525994 -0.23423 0.000453949  -0.0537705 -0.248899 0.000355244  -0.0548813 -0.263616 0.000270605  -0.0559368 -0.278363 0.000201464  -0.0569453 -0.293117 0.000141144  -0.0579085 -0.307862 9.25064e-05  -0.0588384 -0.322586 5.24521e-05  -0.0597394 -0.337278 2.3365e-05  -0.0606191 -0.351935 6.67572e-06  -0.0614908 -0.36656 -1.4782e-05  0 0 0  -0.00122762 -0.0010643 0.00160789  -0.00336985 -0.00362635 0.00249767  -0.0056785 -0.00749978 0.00283408  -0.00793073 -0.0125169 0.0028739  -0.0100911 -0.0186104 0.00276971  -0.0121685 -0.0257002 0.00259995  -0.0141785 -0.0337116 0.00240946  -0.0161192 -0.0425578 0.00221086  -0.017997 -0.0521706 0.00202203  -0.0198102 -0.0624763 0.00184059  -0.021564 -0.0734166 0.00166655  -0.0232553 -0.0849267 0.00150514  -0.0248883 -0.0969522 0.00135326  -0.0264648 -0.109439 0.0012095  -0.0279831 -0.122331 0.00107646  -0.0294443 -0.135584 0.000950336  -0.0308552 -0.149151 0.000834227  -0.032213 -0.162991 0.000724554  -0.0335197 -0.177056 0.000623703  -0.0347779 -0.191321 0.000528812  -0.0359869 -0.205737 0.000444651  -0.0371532 -0.220281 0.000366449  -0.0382733 -0.23492 0.000294924  -0.0393548 -0.249623 0.000234842  -0.0403941 -0.264374 0.00017786  -0.0414028 -0.279144 0.00013566  -0.0423787 -0.293917 9.41753e-05  -0.0433223 -0.308683 6.07967e-05  -0.0442421 -0.323419 3.6478e-05  -0.04514 -0.33812 1.97887e-05  -0.0460186 -0.352779 -4.76837e-07  -0.0468884 -0.367391 -1.50204e-05  0 0 0  -0.000557214 -0.000616133 0.000809193  -0.0015536 -0.00296724 0.00125003  -0.00265232 -0.0068329 0.00141096  -0.00376773 -0.0119293 0.00143266  -0.00487417 -0.0181126 0.00137806  -0.00596917 -0.0252924 0.00129151  -0.00706041 -0.0333868 0.00119138  -0.00815421 -0.0423205 0.00109124  -0.00924838 -0.0520171 0.000995159  -0.0103443 -0.062411 0.000904083  -0.011438 -0.0734361 0.000816584  -0.0125343 -0.08503 0.000734568  -0.0136256 -0.0971339 0.000658751  -0.0147134 -0.109697 0.000587702  -0.0157976 -0.122661 0.000518799  -0.0168726 -0.135981 0.000458241  -0.0179398 -0.149612 0.000399351  -0.0189972 -0.163507 0.000348806  -0.0200448 -0.177625 0.000298738  -0.0210776 -0.191933 0.000251532  -0.0220971 -0.206391 0.000208855  -0.0231016 -0.220972 0.000172377  -0.0240915 -0.235643 0.000139236  -0.0250638 -0.250375 0.000109673  -0.0260181 -0.265149 8.4877e-05  -0.0269575 -0.279937 6.17504e-05  -0.0278833 -0.294727 4.43459e-05  -0.0287933 -0.309506 2.67029e-05  -0.0296917 -0.324252 1.52588e-05  -0.0305738 -0.338959 5.48363e-06  -0.0314457 -0.353621 1.19209e-06  -0.0323107 -0.368222 -1.00136e-05  0 0 0  4.4167e-05 -0.000528395 -7.62939e-06  0.000113279 -0.00283092 -6.19888e-06  0.000162035 -0.00670815 4.76837e-07  0.000171483 -0.0118443 9.53674e-07  0.00012511 -0.0180765 -2.6226e-06  1.98483e-05 -0.025307 -6.67572e-06  -0.000152707 -0.0334547 -1.14441e-05  -0.000390649 -0.0424425 -1.74046e-05  -0.000695705 -0.0521968 -2.14577e-05  -0.00106454 -0.0626479 -2.57492e-05  -0.00149524 -0.0737302 -2.86102e-05  -0.00198293 -0.0853797 -3.19481e-05  -0.00252604 -0.0975394 -3.29018e-05  -0.00311792 -0.110152 -3.14713e-05  -0.0037564 -0.123167 -2.93255e-05  -0.00443602 -0.136534 -3.29018e-05  -0.00515056 -0.150208 -2.83718e-05  -0.00589967 -0.164144 -2.98023e-05  -0.00667381 -0.178296 -2.81334e-05  -0.0074749 -0.192637 -2.52724e-05  -0.00829411 -0.207121 -2.59876e-05  -0.00913 -0.221726 -2.19345e-05  -0.00997591 -0.236419 -1.83582e-05  -0.0108325 -0.251168 -1.71661e-05  -0.0116975 -0.265955 -1.50204e-05  -0.0125642 -0.280755 -1.26362e-05  -0.013432 -0.295556 -1.09673e-05  -0.0143013 -0.310339 -1.14441e-05  -0.0151691 -0.325091 -9.05991e-06  -0.0160336 -0.339806 -4.05312e-06  -0.0168958 -0.354469 -2.38419e-07  -0.0177467 -0.369064 1.19209e-06  0 0 0  0.000640094 -0.00073868 -0.000823975  0.00177234 -0.00316828 -0.00125265  0.00297001 -0.00710058 -0.001405  0.00409847 -0.0122553 -0.00142431  0.0051074 -0.0185004 -0.00137568  0.00598615 -0.0257481 -0.00129771  0.00673091 -0.0339196 -0.00121331  0.00734496 -0.0429313 -0.00112247  0.00782859 -0.0527159 -0.00103569  0.00818455 -0.0631929 -0.000952482  0.00842047 -0.0743076 -0.000872135  0.00853932 -0.0859893 -0.000795126  0.00854909 -0.09818 -0.000724316  0.00845385 -0.110822 -0.000652075  0.0082643 -0.123864 -0.000586033  0.00798297 -0.137258 -0.000520945  0.00762057 -0.150955 -0.000463247  0.00718403 -0.16491 -0.000406981  0.00667953 -0.179084 -0.000352383  0.00611377 -0.193439 -0.000305414  0.00549912 -0.20794 -0.000258923  0.00483322 -0.222555 -0.000215054  0.00412726 -0.237256 -0.000182152  0.0033865 -0.25201 -0.000143766  0.00261807 -0.266804 -0.000114441  0.00182605 -0.281608 -8.91685e-05  0.00101495 -0.296411 -6.4373e-05  0.000188828 -0.311196 -4.52995e-05  -0.000647306 -0.325947 -3.17097e-05  -0.00149322 -0.34066 -1.66893e-05  -0.00234246 -0.355324 -3.8147e-06  -0.00318956 -0.369923 1.04904e-05  0 0 0  0.00129825 -0.00130218 -0.00160694  0.00356257 -0.0040158 -0.0024755  0.00595611 -0.00801694 -0.00280046  0.00820607 -0.0131552 -0.0028398  0.0102599 -0.0193801 -0.00274563  0.0121142 -0.0266116 -0.00259161  0.0137689 -0.0347768 -0.0024128  0.0152255 -0.0437911 -0.00223231  0.0164891 -0.0535738 -0.00205469  0.0175668 -0.0640582 -0.00188518  0.0184618 -0.0751762 -0.00172162  0.019183 -0.0868657 -0.00156713  0.0197353 -0.0990631 -0.00141525  0.0201331 -0.111713 -0.00127602  0.0203831 -0.124762 -0.00114059  0.0204949 -0.13816 -0.00101376  0.0204816 -0.151863 -0.000897408  0.0203519 -0.165818 -0.000784397  0.0201147 -0.179995 -0.000681162  0.0197802 -0.194348 -0.000584364  0.0193579 -0.20885 -0.000495911  0.0188568 -0.223458 -0.000411272  0.0182872 -0.238158 -0.000339031  0.0176611 -0.25291 -0.000269651  0.0169785 -0.267697 -0.000211954  0.0162539 -0.282497 -0.000159025  0.0154934 -0.297293 -0.00011611  0.0147038 -0.312072 -8.01086e-05  0.0138905 -0.326817 -5.05447e-05  0.013062 -0.341526 -2.86102e-05  0.0122228 -0.356186 -7.39098e-06  0.0113778 -0.370799 1.64509e-05  0 0 0  0.00202703 -0.00241888 -0.0023706  0.00570241 -0.00549638 -0.00373173  0.0093368 -0.00945646 -0.0042007  0.0126855 -0.014529 -0.00426197  0.0157635 -0.0206988 -0.00412393  0.0185787 -0.0278887 -0.00389838  0.021131 -0.0360219 -0.00363398  0.0234232 -0.0450075 -0.00335741  0.025457 -0.0547708 -0.00309086  0.0272417 -0.0652366 -0.0028317  0.0287865 -0.076337 -0.00258493  0.0300946 -0.0880092 -0.00234699  0.0311794 -0.100192 -0.00212121  0.032056 -0.112826 -0.00190902  0.0327324 -0.12586 -0.00170445  0.0332251 -0.139245 -0.00151348  0.0335476 -0.152929 -0.00133729  0.0337102 -0.16687 -0.00116491  0.033726 -0.18103 -0.00100851  0.033608 -0.195367 -0.00086236  0.0333683 -0.20985 -0.000729084  0.0330205 -0.224444 -0.000603676  0.0325749 -0.239126 -0.000495434  0.0320425 -0.253863 -0.000394106  0.0314369 -0.268634 -0.000304699  0.0307674 -0.283419 -0.000226974  0.0300441 -0.298202 -0.000163317  0.029278 -0.312966 -0.000108957  0.0284791 -0.3277 -6.86646e-05  0.027657 -0.342397 -3.95775e-05  0.026818 -0.357054 -1.0252e-05  0.0259733 -0.371678 1.45435e-05  0 0 0  0.00357074 -0.00448304 -0.0033412  0.00853261 -0.00752372 -0.00502396  0.0132557 -0.011347 -0.00564241  0.017682 -0.0163161 -0.00573277  0.021787 -0.022409 -0.00555158  0.0255635 -0.0295377 -0.00524569  0.0290047 -0.0376207 -0.00488806  0.0321172 -0.0465584 -0.00452232  0.0349077 -0.0562804 -0.00415802  0.0373808 -0.0667054 -0.0038085  0.0395476 -0.0777646 -0.00347257  0.0414234 -0.0894006 -0.00315261  0.0430243 -0.101547 -0.00284767  0.0443592 -0.114144 -0.00255871  0.0454464 -0.127145 -0.00228667  0.0462973 -0.140494 -0.00203085  0.0469325 -0.154147 -0.00178432  0.0473711 -0.168054 -0.00155854  0.0476205 -0.182179 -0.00134683  0.0477006 -0.196485 -0.00115132  0.0476217 -0.210937 -0.000966549  0.0474036 -0.225498 -0.000803947  0.0470579 -0.240152 -0.00065136  0.0466022 -0.254857 -0.000515699  0.046047 -0.269605 -0.00039649  0.0454133 -0.284366 -0.000292778  0.0447066 -0.299124 -0.000205755  0.0439417 -0.313869 -0.000135183  0.043134 -0.328588 -8.22544e-05  0.0422976 -0.343271 -4.1008e-05  0.0414484 -0.357922 -1.71661e-05  0.040596 -0.372552 8.82149e-06  0 0 0  -0.00442426 -0.00311974 0.00563478  -0.00917214 -0.00502123 0.00729799  -0.0134643 -0.00845082 0.00792861  -0.0176491 -0.0132018 0.00792456  -0.0217195 -0.0191207 0.00760651  -0.0256524 -0.0260702 0.00714064  -0.0294172 -0.033946 0.00662208  -0.0330041 -0.0426586 0.00609088  -0.0364021 -0.0521216 0.00557542  -0.0396111 -0.0622857 0.00508308  -0.0426364 -0.073079 0.00461411  -0.0454844 -0.0844436 0.00417256  -0.0481565 -0.0963302 0.00375175  -0.0506661 -0.108682 0.00335979  -0.053017 -0.121453 0.00298834  -0.0552181 -0.134591 0.00263524  -0.0572708 -0.148054 0.0023129  -0.0591891 -0.161798 0.00200796  -0.0609837 -0.175784 0.00172567  -0.0626488 -0.189959 0.00146222  -0.0642056 -0.204319 0.00122595  -0.0656538 -0.218803 0.00100136  -0.0669944 -0.233389 0.000804663  -0.0682559 -0.248057 0.000628233  -0.0694315 -0.262768 0.000477314  -0.0705285 -0.277511 0.000348568  -0.071559 -0.292263 0.000240803  -0.0725346 -0.307013 0.000144958  -0.0734682 -0.321735 7.72476e-05  -0.0743613 -0.336426 3.48091e-05  -0.0752342 -0.351082 8.82149e-06  -0.0760939 -0.365709 -1.3113e-05  0 0 0  -0.00278108 -0.00108502 0.00389767  -0.00623627 -0.00342838 0.0052824  -0.00940055 -0.00699984 0.00571561  -0.0124748 -0.0118563 0.00572896  -0.0154966 -0.0178818 0.00551319  -0.0184512 -0.0249558 0.00519252  -0.0213163 -0.0329595 0.0048213  -0.0240812 -0.0418074 0.00444245  -0.0267338 -0.0514157 0.00407386  -0.0292618 -0.0617141 0.00371552  -0.0316737 -0.0726456 0.00337458  -0.0339643 -0.0841433 0.00305009  -0.0361403 -0.0961582 0.00274587  -0.0382041 -0.108631 0.00246048  -0.0401632 -0.121511 0.00218844  -0.0420163 -0.134753 0.00193357  -0.0437703 -0.148315 0.00169373  -0.0454314 -0.162144 0.00147438  -0.0470035 -0.176209 0.00126886  -0.0484872 -0.19046 0.00108027  -0.0498888 -0.204879 0.000906229  -0.0512164 -0.219425 0.000748396  -0.0524716 -0.234062 0.000606775  -0.053658 -0.248767 0.000474691  -0.0547879 -0.263518 0.00036335  -0.0558581 -0.27829 0.000271082  -0.0568805 -0.293069 0.000187874  -0.0578575 -0.307829 0.0001266  -0.0588024 -0.322575 7.24792e-05  -0.0597115 -0.337274 3.6478e-05  -0.0605969 -0.351931 6.67572e-06  -0.061465 -0.36656 -2.64645e-05  0 0 0  -0.00170877 -8.6531e-05 0.00265932  -0.0037875 -0.00227433 0.00344634  -0.00585875 -0.00594988 0.0037694  -0.00790361 -0.0108964 0.00378013  -0.00992572 -0.0170171 0.00363779  -0.0119279 -0.0241866 0.00342202  -0.0138959 -0.0322899 0.0031805  -0.0158249 -0.0412458 0.00292945  -0.0177011 -0.0509681 0.00268388  -0.019523 -0.061377 0.00244713  -0.021286 -0.0724172 0.00221992  -0.0229923 -0.0840215 0.00200868  -0.0246421 -0.0961391 0.00180387  -0.0262321 -0.108709 0.00161648  -0.027769 -0.121685 0.00143838  -0.0292495 -0.135012 0.00126886  -0.030673 -0.148652 0.00111318  -0.0320449 -0.162555 0.000969648  -0.0333669 -0.176683 0.000831366  -0.0346396 -0.190998 0.000707626  -0.0358622 -0.20547 0.000594854  -0.037044 -0.220059 0.000493288  -0.0381792 -0.234741 0.000396252  -0.0392721 -0.249483 0.000312805  -0.0403278 -0.264266 0.000241756  -0.0413439 -0.279062 0.000178576  -0.0423291 -0.293862 0.000129223  -0.0432844 -0.308641 8.32081e-05  -0.0442111 -0.3234 4.95911e-05  -0.0451159 -0.33811 2.38419e-05  -0.0459986 -0.352773 2.14577e-06  -0.0468676 -0.36739 -2.38419e-05  0 0 0  -0.000785768 0.000326931 0.00133276  -0.00173871 -0.00167805 0.00171566  -0.00271541 -0.00535962 0.0018611  -0.00372529 -0.0103756 0.00187039  -0.00475383 -0.0165722 0.00179911  -0.00580502 -0.0238102 0.00169396  -0.00687689 -0.0319876 0.00156903  -0.00795972 -0.04102 0.00144458  -0.0090543 -0.0508246 0.00131917  -0.0101545 -0.0613185 0.00119901  -0.0112581 -0.0724406 0.00108814  -0.0123601 -0.0841249 0.000978708  -0.0134593 -0.0963199 0.000878334  -0.0145601 -0.108963 0.000785589  -0.0156549 -0.122011 0.000695229  -0.0167422 -0.135405 0.000611067  -0.0178206 -0.149103 0.000536919  -0.0188887 -0.163064 0.000466824  -0.0199449 -0.177244 0.000398874  -0.0209889 -0.191605 0.000338554  -0.0220194 -0.206116 0.000282049  -0.0230331 -0.220743 0.000232935  -0.0240312 -0.235457 0.000187397  -0.0250137 -0.250226 0.000146866  -0.0259783 -0.265033 0.00011301  -0.0269258 -0.279848 8.32081e-05  -0.0278566 -0.294664 5.84126e-05  -0.0287755 -0.30946 3.45707e-05  -0.0296779 -0.324222 2.14577e-05  -0.0305653 -0.338944 8.58307e-06  -0.0314364 -0.353616 1.66893e-06  -0.0322969 -0.368223 -1.62125e-05  0 0 0  5.73248e-05 0.000397921 -2.3365e-05  0.000144958 -0.00156805 -2.21729e-05  0.000211984 -0.00525716 -1.88351e-05  0.000238955 -0.0103118 -1.93119e-05  0.000207782 -0.0165511 -2.09808e-05  0.00011009 -0.0238366 -2.3365e-05  -5.4419e-05 -0.0320665 -2.81334e-05  -0.000291526 -0.0411492 -3.24249e-05  -0.000595689 -0.0510028 -3.43323e-05  -0.000967622 -0.0615506 -3.91006e-05  -0.00139999 -0.0727314 -4.41074e-05  -0.00189483 -0.0844723 -4.48227e-05  -0.00244355 -0.096719 -4.55379e-05  -0.00303936 -0.109415 -4.57764e-05  -0.00368595 -0.122511 -4.33922e-05  -0.00436962 -0.135953 -4.50611e-05  -0.0050931 -0.149693 -3.98159e-05  -0.00584865 -0.163692 -3.8147e-05  -0.00663137 -0.177907 -3.62396e-05  -0.00743651 -0.192301 -3.40939e-05  -0.00826311 -0.206842 -3.31402e-05  -0.00910473 -0.221493 -3.12328e-05  -0.00995612 -0.236225 -2.59876e-05  -0.010819 -0.251018 -2.16961e-05  -0.0116863 -0.265831 -2.07424e-05  -0.012557 -0.280669 -1.57356e-05  -0.013428 -0.295489 -1.5974e-05  -0.014297 -0.310295 -1.26362e-05  -0.0151672 -0.325061 -1.09673e-05  -0.0160363 -0.339786 -7.62939e-06  -0.0168953 -0.354462 -9.53674e-07  -0.0177493 -0.369065 -4.05312e-06  0 0 0  0.000892803 0.000180781 -0.00137448  0.00201657 -0.00190455 -0.001755  0.00312573 -0.00564289 -0.00189209  0.00418806 -0.0107199 -0.00190043  0.0051558 -0.0169721 -0.00183368  0.00601184 -0.0242718 -0.00173378  0.00674593 -0.0325255 -0.00161839  0.0073514 -0.0416317 -0.0015018  0.00783396 -0.0515128 -0.00139022  0.00819063 -0.0620927 -0.00127745  0.00842345 -0.0733003 -0.00116777  0.00854218 -0.085074 -0.00106859  0.008551 -0.0973538 -0.000970364  0.00845456 -0.110078 -0.000873089  0.00825906 -0.1232 -0.000785828  0.00797844 -0.136669 -0.000701427  0.0076139 -0.150432 -0.000617981  0.00717473 -0.164457 -0.000547647  0.00666714 -0.178688 -0.000472069  0.0060997 -0.193101 -0.000409603  0.00548005 -0.207652 -0.000348091  0.00481558 -0.222315 -0.000290632  0.00410962 -0.23706 -0.000242949  0.00336981 -0.251854 -0.000196934  0.00260019 -0.266679 -0.000156641  0.00180936 -0.281518 -0.00012064  0.000999212 -0.296344 -8.72612e-05  0.00017333 -0.31115 -6.31809e-05  -0.000662565 -0.325915 -4.31538e-05  -0.00150585 -0.340642 -2.09808e-05  -0.00235748 -0.355315 -5.96046e-06  -0.00320697 -0.369921 1.71661e-05  0 0 0  0.00178355 -0.000374317 -0.00267744  0.00402346 -0.00271422 -0.00344825  0.00622115 -0.00651419 -0.0037663  0.00831681 -0.0115826 -0.00377417  0.0102725 -0.0178169 -0.00364351  0.0120707 -0.025115 -0.00344038  0.0136974 -0.0333636 -0.00321555  0.0151461 -0.0424727 -0.00297809  0.0164096 -0.0523568 -0.00274444  0.0174863 -0.0629433 -0.00251985  0.0183822 -0.0741595 -0.00230312  0.0191025 -0.0859404 -0.00209594  0.0196595 -0.0982278 -0.00189328  0.0200597 -0.110957 -0.00171041  0.0203102 -0.124088 -0.00152349  0.0204253 -0.137563 -0.0013566  0.0204141 -0.15133 -0.00120258  0.0202839 -0.165357 -0.00105  0.0200489 -0.179594 -0.000912189  0.019716 -0.194009 -0.000780821  0.0192959 -0.208557 -0.00066185  0.0187993 -0.22322 -0.000552654  0.0182321 -0.237963 -0.000455141  0.0176055 -0.252751 -0.000363111  0.0169318 -0.267576 -0.000287056  0.0162156 -0.282408 -0.000216484  0.0154581 -0.297228 -0.000157833  0.0146732 -0.312026 -0.000109911  0.0138652 -0.326791 -6.7234e-05  0.0130413 -0.341505 -3.93391e-05  0.0121984 -0.356175 -8.34465e-06  0.011354 -0.370788 2.19345e-05  0 0 0  0.00278597 -0.00147939 -0.003865  0.00638616 -0.00405961 -0.00523353  0.00968087 -0.00783277 -0.00565314  0.0127914 -0.0128723 -0.00566268  0.0157288 -0.0190793 -0.00546718  0.0184674 -0.0263543 -0.00517154  0.0209829 -0.0345815 -0.00482798  0.023263 -0.0436698 -0.00447011  0.0252962 -0.0535409 -0.0041163  0.0270839 -0.0641048 -0.0037744  0.0286295 -0.0753069 -0.00344706  0.0299441 -0.087074 -0.00312901  0.0310358 -0.099344 -0.00283051  0.0319178 -0.112063 -0.00254512  0.0326011 -0.125175 -0.00227618  0.0330968 -0.138636 -0.0020206  0.0334241 -0.152395 -0.00178123  0.0335901 -0.166404 -0.00155663  0.0336123 -0.180625 -0.0013473  0.0335007 -0.195024 -0.00115323  0.0332673 -0.20956 -0.000974655  0.0329258 -0.224201 -0.000810385  0.0324869 -0.238931 -0.000661135  0.0319591 -0.253705 -0.000528574  0.0313604 -0.268513 -0.000408649  0.0307019 -0.283332 -0.000308275  0.02999 -0.298138 -0.000219107  0.029233 -0.312926 -0.000147104  0.0284424 -0.32768 -9.58443e-05  0.0276256 -0.342384 -5.03063e-05  0.0267913 -0.357043 -1.71661e-05  0.0259452 -0.371664 2.19345e-05  0 0 0  0.00434151 -0.00355333 -0.00552773  0.00923645 -0.00581992 -0.00711751  0.0136183 -0.00952554 -0.00771236  0.0177979 -0.0145354 -0.00772786  0.0217559 -0.0207158 -0.00744796  0.0254489 -0.0279657 -0.00702357  0.0288546 -0.0361602 -0.00654793  0.0319499 -0.0452139 -0.0060575  0.0347332 -0.0550392 -0.00557637  0.0372103 -0.0655734 -0.00510859  0.0393802 -0.0767332 -0.00466084  0.0412636 -0.0884625 -0.00423288  0.0428678 -0.100702 -0.00381994  0.0442119 -0.113383 -0.00343418  0.0452992 -0.126458 -0.00306487  0.0461602 -0.139891 -0.00272059  0.0468032 -0.153615 -0.00239348  0.0472426 -0.167589 -0.00208449  0.0474975 -0.181782 -0.00180221  0.0475817 -0.196145 -0.00153804  0.0475104 -0.210652 -0.00129056  0.0472975 -0.225267 -0.00107002  0.0469599 -0.239962 -0.000867367  0.0465152 -0.254714 -0.000684977  0.0459738 -0.269495 -0.00052762  0.0453472 -0.284287 -0.000384331  0.0446475 -0.299071 -0.000269175  0.0438905 -0.313838 -0.000171661  0.0430937 -0.32857 -0.000101566  0.0422647 -0.343263 -4.93526e-05  0.0414159 -0.357912 -1.5974e-05  0.0405612 -0.372533 1.09673e-05  
SCALARS smooth_stress float 1
LOOKUP_TABLE default
226.436 461.48 450.696 422.497 404.237 383.693 361.295 338.49 313.781 288.802 264.972 241.845 219.304 198.294 178.959 159.562 141.157 124.476 109.248 94.0417 80.2058 67.9472 55.7977 45.162 36.2679 28.19 21.2306 14.8542 9.63277 5.99952 3.47323 2.25569 0.897181 364.814 763.045 770.921 730.129 700.104 667.844 631.855 593.44 552.375 510.526 469.292 430.235 391.899 354.669 320.769 288.153 257.005 227.723 200.454 174.406 149.796 128.373 108.317 89.3746 73.0599 58.5696 45.747 34.1905 24.3393 16.6011 10.4603 6.32992 2.40005 222.522 483.389 520.374 513.195 499.81 482.81 462.663 438.75 412.787 385.518 357.728 331.421 305.129 279.364 254.843 231.422 209.655 189.031 169.582 151.234 133.035 117.475 103.523 88.7464 74.9515 62.9805 52.0793 41.9762 32.7328 24.4033 16.9681 10.1502 3.48154 119.985 264.36 306.689 331.329 337.612 334.711 327.642 316.362 302.589 287.355 271.614 255.163 238.251 222.532 206.586 190.703 176.025 162.24 149.377 136.483 123.799 112.03 100.419 88.7492 77.3966 66.8543 56.9574 47.434 38.1869 29.2334 20.8509 12.3921 3.95144 55.5305 139.693 198.077 241.181 258.843 264.321 263.655 258.187 250.429 241.202 230.724 219.218 207.289 195.599 184.164 173.078 162.143 151.457 140.526 129.77 119.647 109.209 98.6386 88.2538 78.188 68.3409 58.4823 49.2116 39.9175 30.8148 22.1689 12.9312 4.04389 83.9168 204.454 266.928 301.227 310.852 310.129 304.035 293.942 281.474 267.718 253.646 239.118 224.313 209.486 195.779 182.523 169.116 157.012 144.61 132.439 121.102 109.614 98.3338 87.5502 77.0953 67.0298 57.0461 47.6044 38.6184 29.6494 20.9865 12.3408 3.98695 180.178 407.449 464.367 470.491 459.694 444.318 425.802 404.252 380.161 355.393 331.71 307.075 282.754 259.647 237.966 217.591 197.432 178.818 161.574 144.899 129.044 114.321 100.28 87.1153 75.5198 64.4572 53.4606 43.9832 34.8243 25.7271 17.7179 10.3496 3.40032 299.153 658.804 704.918 676.529 647.809 617.451 584.818 550.529 513.946 475.67 438.644 401.262 366.111 333.591 301.14 270.843 242.158 214.988 190 166.286 144.619 124.735 106.214 89.1393 73.8287 60.8918 48.5897 37.778 28.049 19.3513 13.0126 7.78443 2.62325 183.201 398.652 415.943 391.851 373.792 354.994 334.935 314.594 293.227 270.354 248.062 226.22 206.098 187.375 168.341 150.57 133.917 118.18 103.512 89.6701 77.3833 65.8004 55.0452 45.5357 36.4533 29.3769 23.0873 16.9818 12.0861 7.89058 4.98218 3.16048 1.13877 422.736 892.929 915.395 870.085 827.263 779.764 729.934 680.531 629.615 578.897 530.634 484.124 438.402 395.745 355.963 316.995 280.903 247.482 216.059 186.291 158.702 133.904 110.795 89.6262 71.7117 55.533 41.2002 28.5689 18.3556 11.8692 7.51073 4.67974 1.84693 674.711 1475.28 1573.43 1510.98 1437.99 1358.97 1276.29 1192.44 1106.78 1020.55 936.871 857.464 779.22 705.085 637.244 570.734 508.158 449.748 394.618 343.237 294.782 251.403 211.803 174.693 142.322 113.596 87.6055 64.9209 46.1609 31.795 21.1347 13.077 4.84492 401.289 932.663 1075.56 1072.4 1031.56 982.007 931.319 877.312 821.549 763.671 706.465 652.718 599.5 548.643 500.557 453.803 410.018 368.618 329.743 292.999 257.598 226.607 197.986 169.891 143.392 119.913 98.6276 79.2088 62.0962 46.2497 32.4189 19.7184 6.75141 214.131 520.492 653.384 700.035 696.276 675.407 651.147 622.903 592.155 559.319 526.572 494.052 461.022 429.542 398.065 367.72 339.548 312.197 286.106 260.555 236.107 213.374 190.724 168.639 147.349 126.955 107.758 89.3238 71.9594 55.2463 39.4354 23.768 7.78936 103.748 298.235 443.754 515.289 532.253 527.961 516.335 500.491 481.925 461.946 441.106 418.814 395.817 373.157 351.307 330.057 309.001 288.133 266.927 246.566 227.062 206.973 187.048 167.411 148.6 130.036 111.105 93.1151 75.2825 57.8494 41.8118 25.1446 8.09534 155.436 417.056 573.518 633.026 637.068 622.01 599.916 574.502 547.024 518.193 489.392 460.371 431.476 402.617 375.701 349.799 324.255 300.431 276.303 252.924 230.691 208.693 187.275 166.72 146.61 127.391 108.668 90.5061 73.0054 55.6362 39.5537 23.6054 7.58959 327.781 791.972 957.566 975.055 942.546 899.02 851.847 802.295 751.891 701.281 651.298 601.904 554.156 507.78 464.196 424.226 385.149 348.208 313.874 280.592 249.032 219.859 192.575 167.349 143.741 121.949 101.746 83.1589 65.2858 48.0671 32.9605 19.588 6.66094 550.965 1273.93 1435.92 1393.94 1325.97 1252.53 1177.77 1102.15 1024.83 947.391 871.876 797.414 726.615 660.651 596.397 536.665 479.789 425.103 375.309 327.119 283.326 244.337 207.403 173.659 143.121 116.697 92.8549 71.6539 52.9923 36.9158 24.1379 14.4858 5.36944 339.688 770.954 843.98 805.155 763.681 720.164 675.692 631.366 585.805 539.654 495.207 451.739 410.457 372.57 335.383 299.836 266.68 235.038 205.734 177.387 152.513 130.463 108.802 89.4331 71.9579 57.2087 44.207 32.3529 23.0981 15.558 9.55975 5.80557 2.23868 390.49 852.351 917.901 894.314 851.89 798.582 742.18 687.317 633.253 580.577 531.232 484.02 437.879 394.405 352.878 314.871 279.26 245.089 214.041 184.953 156.482 131.155 109.187 87.6148 68.9376 53.0476 38.6536 27.2534 17.9791 11.3119 7.46092 4.96295 2.11992 611.027 1403.61 1591.85 1567 1489.77 1395.5 1298.75 1203.61 1110.88 1020.44 934.365 852.603 773.165 699.274 629.304 562.649 500.222 440.636 386.375 336.119 287.399 243.932 205.23 168.011 134.97 107.022 81.6983 60.495 43.0104 29.3714 20.1694 12.6974 4.78675 347.121 885.137 1113.28 1133.14 1080.29 1011.51 945.078 879.361 816.184 753.995 693.93 638.247 584.255 533.388 485.497 438.44 394.341 352.95 314.151 278.087 244.529 214.034 185.315 158.322 132.85 110.883 90.9857 72.7534 56.6981 41.9027 29.0357 17.4065 6.02776 186.75 518.858 712.077 757.049 732.785 690.279 649.204 610.171 572.876 536.201 501.031 468.5 436.349 404.422 373.923 344.733 317.159 291.144 265.544 240.757 218.04 196.456 175.09 154.318 134.414 115.982 98.283 81.3919 65.3898 49.8103 35.0447 21.3186 7.43146 105.189 342.815 521.739 570.432 559.599 531.495 502.856 477.195 452.87 429.812 408.264 386.615 364.901 343.68 322.955 302.842 283.111 263.451 244.086 225.372 207.03 188.721 170.784 152.717 135.305 118.365 101.172 84.6433 68.0711 52.0585 37.4091 23.0669 7.93893 147.617 442.374 637.672 683.95 665.447 628.391 589.896 555.793 523.084 491.198 461.445 432.076 403.591 376.235 350.457 325.736 301.431 277.927 255.01 233.121 211.798 191.325 172.095 153.066 134.262 116.444 99.2577 82.7073 66.1108 49.7895 35.2629 21.6047 7.30139 288.678 763.188 994.077 1023.07 978.782 918.062 855.439 796.327 740.028 685.588 633.768 583.854 535.959 490.717 447.619 407.959 369.128 332.58 298.811 265.652 234.793 205.923 179.757 155.95 132.187 111.055 92.8891 75.2963 58.2205 42.6485 29.1075 17.9943 6.61957 494.488 1212.72 1454.32 1441.59 1369.13 1281.75 1192.44 1105.98 1022.03 941.681 864.672 789.205 717.264 651.754 588.544 528.636 471.834 418.064 368.04 319.501 276.512 236.641 199.363 166.834 136.061 108.421 85.6093 65.5713 47.6018 33.1214 21.3387 12.9296 5.15011 308.403 734.073 848.925 828.63 786.573 736.268 684.738 635.353 586.529 539.543 494.319 449.646 407.375 369.495 333.278 297.643 264.807 233.702 203.879 175.434 150.916 128.52 106.734 87.625 70.4266 54.5189 41.1478 30.2192 21.144 14.171 8.80254 5.11954 1.96353 388.291 839.871 901.728 889.407 856.307 806.064 749.537 691.951 635.772 582.329 531.819 483.954 438.069 394.44 352.438 314.276 277.702 243.117 213.065 184.265 156.241 130.886 108.297 86.7143 67.698 51.8604 37.6426 26.2463 17.567 10.7933 6.45943 4.31867 1.86009 600.728 1378.99 1572.92 1568.04 1504.83 1413.06 1313.43 1212.46 1114.69 1022.08 933.837 850.852 772.005 697.281 624.849 557.757 495.216 435.918 383.376 333.93 285.417 241.266 201.883 165.174 132.186 103.898 78.7873 58.3342 41.7583 28.0829 17.8654 11.1546 4.50531 333.868 869.127 1117.58 1150.99 1102.55 1030.78 956.429 883.335 814.844 750.365 688.522 631.188 577.61 525.307 475.259 428.415 385.689 345.422 307.39 272.736 239.224 207.087 178.795 152.711 127.775 105.921 86.2535 69.2178 54.0709 39.48 26.103 15.7362 5.86208 185.661 530.179 740.54 786.136 755.262 704.323 652.915 605.775 563.773 525.095 488.491 454.47 422.692 390.177 359.343 331.118 304.246 279.27 254.758 231.061 208.666 186.349 166.065 146.417 126.882 109.293 92.3716 76.6566 61.7175 46.8257 32.622 19.8847 7.02618 119.124 381.552 567.674 605.05 579.842 539.312 500.256 466.603 438.062 413.149 390.296 368.32 347.181 326.362 305.793 286.464 267.363 248.942 231.174 213.104 195.473 177.953 160.988 144.227 127.475 111.018 94.9005 79.582 64.123 49.2777 35.4602 21.5152 7.2445 155.897 468.864 673.702 714.463 684.278 635.718 588.791 547.636 509.999 476.801 446.725 416.83 388.404 361.726 336.435 312.278 288.394 265.144 243.121 222.121 201.297 181.316 163.025 144.917 127.018 109.757 93.3236 78.1053 62.3007 46.8706 33.1189 20.2035 6.92062 281.301 758.05 1005.44 1042.52 996.958 930.326 861.356 797.012 735.473 677.629 625.708 575.333 527.128 482.827 439.809 399.408 360.848 324.327 290.568 258.064 227.291 198.841 173.258 149.416 126.423 106.123 87.9475 70.9614 54.7739 40.6063 28.0549 17.6806 6.79231 483.248 1192.73 1444.7 1447.55 1384.44 1296.79 1202.38 1111.97 1024.54 939.443 860.376 784.835 713.767 648.599 584.628 523.483 467.005 414.073 363.396 315.86 273.239 233.542 197.408 163.76 132.865 105.376 81.9149 62.6738 45.4315 31.897 21.0466 13.108 5.30391 302.95 722.167 839.448 828.213 793.147 743.408 689.937 638.935 588.848 539.952 493.085 448.194 406.882 368.846 331.956 296.075 263.259 232.598 202.454 174.802 150.389 127.705 107.044 87.1985 69.5787 53.4012 39.6533 29.7624 20.6732 13.5188 8.57539 5.10016 1.99706 389.016 839.516 897.957 885.589 854.953 807.017 752.019 693.614 636.422 583.108 531.96 483.608 438.009 394.469 352.935 314.289 277.022 242.746 211.742 182.513 156.213 131.28 108.254 86.8385 68.1247 52.1452 37.6392 25.7918 17.07 10.6992 6.04013 3.77465 1.62336 599.823 1377.22 1569.03 1564.84 1506.67 1417.52 1318.05 1215.86 1116.09 1022.64 933.724 850.044 771.206 695.88 624.289 556.78 492.439 434.531 382.068 331.848 284.726 241.013 201.058 164.15 132.277 104.085 78.1552 57.4642 41.1884 27.593 16.8739 10.8747 4.66394 330.766 867.583 1120.48 1154.41 1108.53 1037.25 960.195 885.434 814.651 748.542 687.033 628.419 573.915 521.717 472.277 426.034 382.601 343.381 306.703 271.595 237.167 204.816 176.295 149.727 125.803 104.337 84.2253 67.314 52.464 37.9907 25.2919 15.7005 5.85254 186.267 536.359 751.705 795.918 762.848 709.528 654.406 604.712 560.663 520.444 484.072 448.937 416.519 384.747 354.338 327.02 300.492 275.507 251.105 227.691 205.329 182.429 161.924 142.896 124.062 106.526 89.8287 74.2895 59.6183 44.9645 31.6367 19.0101 6.16534 125.007 396.454 585.059 619.319 588.98 542.813 499.247 463.391 433.174 406.806 383.333 361.105 340.195 319.38 299.217 280.563 261.729 243.738 225.871 208.215 191.237 173.585 156.59 140.693 124.662 108.138 92.4428 77.7862 62.9812 48.0581 34.4784 20.901 6.74233 160.546 480.54 687.094 726.092 692.124 638.925 588.758 545.118 505.238 471.159 440.702 410.569 382.514 355.993 330.674 306.477 283.378 260.972 238.96 218.264 197.833 177.889 159.271 141.805 124.423 106.781 90.8739 76.3333 61.0158 45.9868 32.4819 19.4395 6.46072 280.577 759.957 1010.32 1049.18 1003.67 934.335 863.63 797.266 734.466 676.098 622.546 571.349 523.908 479.423 435.804 395.378 357.671 321.797 288.063 255.665 225.307 197.154 171.317 147.485 125.046 104.793 86.2682 69.5612 53.8414 40.2775 27.8385 16.6561 6.10451 480.409 1189.71 1443.59 1448.1 1387.61 1300.57 1206.27 1114.75 1026.91 940.27 858.781 783.317 713.043 646.969 582.592 521.869 465.417 412.684 362.158 314.411 271.571 232.844 197.046 163.097 132.751 105.291 81.651 62.5878 45.1453 31.8417 21.1731 12.9944 5.18149 301.68 720.314 837.608 826.443 793.123 745.129 692.389 640.738 590.191 539.956 492.406 448.387 407.254 368.601 331.658 295.882 262.703 232.032 201.912 174.225 149.536 127.34 106.844 87.2052 69.8779 53.2703 39.9333 30.2215 20.6112 13.3605 8.51656 5.28654 2.14877 389.509 842.724 903.219 889.359 856.06 806.251 751.022 693.561 635.743 581.624 530.695 482.166 437.129 394.102 352.288 313.685 277.554 244.254 212.426 182.117 155.981 131.71 108.981 87.428 68.2542 52.3015 37.98 26.1602 17.2449 10.8948 6.81004 4.54669 1.98955 601.143 1382.35 1575.39 1568.14 1506.27 1415.26 1315.45 1213.53 1113.9 1020.43 932.195 848.722 769.974 695.342 624.727 557.76 493.426 435.879 382.841 330.99 283.565 241.67 202.712 165.213 132.393 104.233 79.1543 57.9273 40.8516 27.8226 18.4232 12.0962 4.94936 332.104 870.17 1121.16 1152.13 1105.05 1033.72 957.36 883.537 813.753 748.134 687.814 630.142 574.136 522.844 475.293 428.68 383.574 343.338 306.732 270.776 236.216 205.955 177.85 150.306 126.077 104.957 86.1323 68.4112 52.0006 38.1656 26.397 16.2242 5.84246 185.837 534.049 747.249 790.792 758.452 705.804 652.766 605.902 562.26 521.654 486.122 451.39 417.725 387.116 357.75 329.2 302.344 276.724 251.579 227.91 205.906 184.361 163.81 143.917 124.966 107.926 91.959 75.8211 59.969 45.1234 31.5371 19.1557 6.61309 122.109 389.182 576.357 612.42 584.146 539.593 498.898 465.316 435.57 409.458 386.352 363.67 342.347 322.255 302.438 283.349 264.908 246.562 227.906 209.941 192.786 175.575 158.647 142.175 126.062 109.803 93.9406 78.9053 64.0279 48.6773 34.3641 21.564 7.58657 158.853 475.771 680.145 719.697 688.062 636.846 588.647 546.804 508.406 474.209 443.521 413.311 385.117 358.963 333.47 309.426 286.133 263.808 241.763 220.171 199.78 179.824 160.858 143.277 125.88 108.324 91.8112 76.9824 62.0763 46.8925 32.8152 19.9629 6.93109 281.175 760.181 1007.73 1045.51 1001.54 932.876 861.7 795.57 734.282 677.373 624.632 572.732 524.894 480.736 437.411 397.298 358.366 323.341 290.461 257.213 226.7 198.193 172.413 148.559 126.021 105.593 86.8173 70.1624 54.5879 40.543 27.8361 16.6044 5.91617 481.037 1191.22 1445.31 1449.02 1387.74 1300.24 1204.47 1111.33 1023.84 940.33 860.525 783.381 712.142 647.197 583.843 523.039 465.767 413.45 363.5 315.565 271.927 232.411 197.042 163.258 132.823 105.325 82.1177 63.2001 45.3482 31.319 21.0198 13.1737 5.01487 301.973 721.134 839.634 828.229 793.721 745.716 692.36 639.585 589.054 540.033 492.871 448.093 406.452 368.682 332.359 296.411 263.268 232.367 202.159 174.589 149.494 126.832 106.531 87.1971 69.6477 53.153 40.172 30.2917 20.3836 12.8768 8.38802 5.44928 2.17367 390.169 850.404 915.629 895.427 854.615 801.954 746.309 689.489 632.608 579.334 530.156 482.613 437.022 393.703 352.118 313.418 277.785 244.44 213.178 183.088 156.156 132.332 109.758 88.2276 68.8269 52.8993 38.7675 26.2727 16.9491 10.9063 7.25423 5.35375 2.56262 606.806 1397.36 1589.87 1569.8 1496.17 1403.41 1305.56 1206.19 1109.37 1017.56 931.751 850.74 771.693 696.309 626.385 559.734 496.532 438.497 385.008 333.774 285.919 244.261 204.641 167.741 134.793 105.566 80.9307 59.3247 41.6724 28.3131 19.131 12.9993 5.35828 340.807 879.441 1117.77 1139.51 1087.75 1019.28 947.788 878.504 813.355 750.034 690.801 635.845 581.055 528.766 480.653 433.985 389.613 348.294 310.667 275.373 241.247 211.317 182.629 155.607 130.916 107.923 89.2141 71.744 54.7241 39.9967 27.3619 17.1114 6.37039 185.584 523.214 724.645 767.905 739.914 694.713 648.712 607.094 567.932 530.293 495.624 462.134 429.454 398.239 367.702 338.158 311.006 284.435 259.248 235.448 212.609 191.518 171.448 150.648 130.734 112.911 96.4811 79.7306 62.8451 47.5919 33.0539 20.5935 7.63656 110.406 357.934 539.492 582.917 565.317 532.185 500.646 472.343 445.993 422.329 400.206 377.723 356.407 336.13 315.725 295.582 276.066 256.971 238.185 219.534 201.22 183.578 166.584 148.88 131.835 115.327 98.7935 82.5973 66.9203 51.2825 36.2193 22.8734 8.17004 151.184 453.086 651.276 695.662 671.844 629.87 588.935 551.464 516.987 484.409 454.181 424.988 397.699 371.009 344.575 320.566 296.36 273.25 250.974 228.614 207.79 187.324 167.835 149.56 131.33 113.446 96.4665 80.6364 65.1307 49.8079 35.0453 21.4331 7.51212 285.255 761.286 998.666 1031.9 988.348 924.006 856.657 794.046 736.522 681.792 630.036 579.315 532.092 487.058 443.222 403.994 365.608 329.657 296.203 262.753 232.063 203.681 177.515 153.018 130.378 109.644 90.4711 73.4148 57.2381 42.8611 29.353 18.0608 6.85776 488.954 1206.09 1454.56 1447.21 1378.2 1290.19 1196.83 1106.08 1020.87 940.608 863.189 786.724 714.751 649.472 585.911 525.114 468.323 415.281 365.506 317.745 274.107 234.787 199.502 165.238 134.665 108.109 84.0567 64.1924 47.1691 33.1301 21.8885 13.957 5.44304 305.89 730.681 848.792 830.822 790.092 740.757 688.631 636.451 586.678 539.386 493.547 449.089 407.021 369.372 332.855 296.593 263.148 232.102 202.504 174.834 149.739 126.981 106.94 87.4559 69.5664 54.238 40.6888 29.8553 20.9858 13.7965 8.93017 5.58362 1.98918 404.675 875.364 923.156 885.026 839.462 787.916 734.869 681.882 629.397 577.664 529.396 484.385 438.893 394.886 354.409 316.508 280.33 245.122 214.084 185.196 157.241 132.735 109.826 88.1744 69.6807 54.0576 39.8758 27.5067 18.0637 11.1137 6.6839 4.90924 2.40247 639.671 1443.31 1591.7 1540.07 1461.41 1374.54 1284.39 1194.46 1105.68 1017.66 934.108 855.427 777.346 701.821 632.721 566.8 503.873 444.24 389.416 338.79 290.856 248.92 208.056 170.922 139.409 109.995 84.6246 63.105 45.3628 30.4633 19.5167 13.0406 5.41737 372.659 910.197 1096.73 1097.52 1049.93 993.848 934.219 874.915 817.117 758.962 701.01 645.924 593.3 541.503 492.789 445.966 402.04 361.241 322.381 286.314 251.966 221.73 192.521 164.933 139.922 115.69 95.1599 77.1893 59.9531 43.7795 29.9137 18.6944 6.79564 196.995 513.748 676.848 720.015 707.561 679.915 647.824 615.061 582.893 549.795 515.232 482.337 450.969 419 387.674 357.781 329.506 302.546 277.025 252.435 227.919 205.418 184.823 162.819 141.55 122.256 104.109 86.4955 68.7946 52.1763 36.8239 22.4387 7.68993 96.4855 305.716 470.729 533.506 539.339 526.439 508.734 489.735 469.523 448.081 426.395 404.802 383.228 361.3 339.855 318.754 297.765 277.451 257.065 237.346 218.066 198.939 180.423 161.38 142.873 124.809 107.083 89.7445 72.6977 56.1246 40.0039 24.0351 7.8989 145.121 418.942 597.932 652.805 646.618 622.217 593.855 564.822 535.768 505.731 476.129 447.595 420.656 392.8 365.385 340.827 315.513 291.05 267.573 244.416 222.823 201.561 180.979 161.535 142.012 122.707 104.686 87.2228 70.1689 54.0471 38.455 22.9111 7.51662 305.802 776.85 976.086 996.511 957.901 906.401 852.182 797.63 745.063 692.841 641.955 592.836 546.362 500.306 455.501 416.922 378.845 341.788 307.425 273.563 243.005 214.665 187.931 162.533 139.186 118.295 98.0284 79.6638 62.6437 46.8522 32.265 19.344 6.81925 520.411 1247.62 1453.02 1418.38 1345.04 1264.76 1183.68 1101.55 1022.08 944.37 867.956 794.005 722.608 655.185 590.299 530.636 474.61 420.914 370.896 323.277 280.257 240.759 204.408 170.103 139.349 113.655 89.597 68.7071 51.3555 36.3257 23.5311 14.2493 5.39204 322.576 755.494 852.8 818.706 774.005 726.821 679.739 631.733 585.323 540.004 494.668 451.416 409.796 370.811 333.526 297.895 264.522 233.149 203.955 176.5 151.577 128.589 107.565 88.3584 70.6582 55.7604 42.8696 31.426 22.3236 15.1424 9.46023 5.65702 2.09969 209.1 447.137 461.315 436.05 413.396 388.748 363.559 339.015 314.462 288.693 264.224 242.544 220.278 198.302 178.209 159.323 141.267 123.223 107.425 93.2728 79.1079 66.5208 54.9028 44.1 35.1875 27.4704 20.4077 14.31 9.60029 5.75408 3.23559 2.1073 0.895958 333.783 738.702 791.781 755.462 717.785 677.56 635.353 593.782 552.328 509.555 467.88 428.843 390.583 353.396 318.795 285.735 254.475 224.398 196.347 170.8 146.779 125.679 105.208 86.7258 71.2095 56.4806 43.6406 32.813 23.923 16.2852 10.3054 6.46714 2.50794 198.704 466.606 539.136 532.791 512.704 489.508 463.603 437.05 410.287 383.044 354.318 326.04 300.191 275.063 250.627 226.985 205.11 184.963 165.142 146.536 129.027 113.738 99.3879 85.4391 72.6465 60.3582 49.6689 40.2396 31.5018 23.3815 16.1751 10.0046 3.51935 104.038 255.678 322.904 344.777 344.392 336.217 324.689 311.301 297.021 281.569 264.076 247.514 231.834 215.894 200.283 185.205 170.962 157.411 144.194 131.582 118.821 107.069 96.5398 85.1796 74.1409 64.1572 54.6471 45.4509 36.4005 27.7714 19.8324 11.9327 3.93374 45.3341 137.79 214.148 252.415 262.84 262.492 257.819 251.028 242.615 232.484 221.623 210.945 199.781 188.285 177.331 166.559 155.987 145.471 134.404 124.066 114.253 104.346 94.5093 84.6489 75.0199 65.4959 56.138 47.1086 38.2409 29.7151 21.3642 12.4863 3.93013 72.0429 200.179 282.328 313.061 315.759 309.475 299.584 287.447 274.414 260.45 245.793 231.356 217.536 203.383 189.508 177.028 164.009 151.272 139.206 127.194 116.068 105.241 94.6022 84.4659 74.4099 64.4779 54.8443 45.5353 36.6756 28.2128 20.1661 11.865 3.69674 161.372 395.173 479.382 484.954 468.454 447.903 425.556 400.616 375.531 350.253 325.532 301.212 277.827 254.804 232.308 212.931 193.368 174.811 157.678 140.464 124.821 110.479 97.3077 84.2883 72.2402 62.0118 51.4504 41.6909 33.167 24.5545 17.0995 10.1561 3.20652 272.658 638.176 721.561 695.467 660.435 624.36 587.944 549.664 511.538 473.306 435.446 399.128 363.963 329.846 296.981 267.36 239.439 212.522 187.397 163.877 141.938 122.044 104.136 86.4704 70.8521 58.3398 46.5778 36.1053 27.1622 19.0131 12.3224 7.35135 2.68238 168.013 386.029 424.593 402.558 380.975 358.96 337.034 314.484 292.406 270.405 247.498 226.099 205.838 186.066 167.092 149.529 133.153 117.136 102.496 89.1158 76.3981 64.9483 54.3788 44.3653 35.5183 28.1191 22.0449 16.5553 11.6513 7.87732 4.75193 2.86188 1.26885 
CELL_DATA 2048
SCALARS stress float 1
LOOKUP_TABLE default
226.436 235.044 215.652 206.845 197.392 186.301 174.994 163.496 150.285 138.517 126.455 115.39 103.915 94.3796 84.5791 74.9828 66.1738 58.3026 50.9451 43.0966 37.1092 30.838 24.9597 20.2023 16.0657 12.1243 9.10625 5.74797 3.8848 2.11473 1.35851 0.897181 138.378 163.187 157.039 150.594 145.273 138.878 131.682 123.268 115.326 106.397 97.923 90.4675 82.1274 74.2476 67.5623 61.0285 54.8201 48.4262 42.7802 37.5841 32.0058 28.4199 24.0996 20.113 16.6789 13.7007 10.8157 8.52058 6.1859 4.41566 2.57136 1.50287 84.1445 97.6798 102.469 103.094 100.849 97.8101 94.2934 89.5068 84.6855 79.1093 74.2991 68.7316 63.8027 59.1861 53.8474 48.9836 44.8227 40.962 37.4137 33.4563 29.9888 27.0602 23.9438 20.59 17.5695 15.0315 12.5315 10.1084 7.91793 5.88376 4.09732 1.97867 35.8402 46.6952 59.8459 65.9207 67.7482 68.3038 67.2349 65.3269 63.0694 60.4911 57.7141 54.4186 51.2981 48.2452 45.3073 42.5644 39.6543 36.8006 34.2008 31.4123 28.9414 26.0392 23.3761 20.8392 18.3978 15.8556 13.5388 11.2553 8.90529 6.52646 4.34335 1.97277 19.6903 37.4668 54.0693 61.3454 63.8289 64.4399 63.6759 61.9492 60.0832 57.5584 54.9605 52.1247 49.4473 46.6085 44.0035 41.2025 38.7218 36.2806 33.2435 30.9132 28.3804 25.8479 23.3755 20.663 18.288 15.7995 13.2883 11.129 8.62787 6.75514 4.54398 2.07111 64.2265 83.0701 92.3216 93.4905 92.1868 89.6737 86.2452 82.0719 77.37 72.7069 68.4207 63.6124 59.1288 54.3018 50.8648 46.4523 42.7396 39.2698 35.816 32.4667 29.3415 26.0447 23.0658 20.446 17.6984 15.2439 12.7143 10.4727 8.38878 5.8776 3.80982 1.91584 115.951 144.201 144.774 139.904 134.113 128.345 121.538 114.397 106.323 98.9938 91.5887 83.453 76.5602 69.6561 63.1428 57.1307 51.1098 45.6986 40.7893 35.8268 31.4092 27.5254 23.6438 19.9598 17.4156 14.0993 11.4031 9.39312 6.56975 4.89098 3.13948 1.48448 183.201 215.451 200.492 191.358 182.433 172.56 162.375 152.219 141.008 129.346 118.716 107.504 98.5942 88.7805 79.5601 71.0097 62.9077 55.2722 48.2398 41.4303 35.953 29.8473 25.1978 20.3379 16.1154 13.2615 9.8258 7.15599 4.9301 2.96048 2.0217 1.13877 196.3 235.149 229.549 218.038 204.988 191.084 177.555 164.486 151.348 138.747 126.914 115.365 103.733 93.7178 83.2866 74.1465 65.6002 57.4054 49.4055 42.8438 35.652 30.3052 24.6921 19.7721 15.6717 11.6713 8.29833 5.41632 3.30649 2.5632 1.4743 0.949752 113.596 167.187 170.625 162.64 152.219 142.835 132.965 123.991 114.576 105.35 96.5671 88.3816 79.8411 73.1241 66.3466 58.8012 52.6046 46.4149 40.9384 35.6433 30.8473 26.2252 22.2634 18.5912 15.2271 12.4568 9.4321 7.5836 5.51526 3.809 2.82792 1.49511 65.1703 103.32 114.054 111.887 105.001 99.1427 93.7129 87.8925 82.3036 75.9238 70.8956 65.4529 60.6949 55.6194 50.623 46.6106 42.3465 38.2212 34.5859 30.5975 27.4747 24.5853 21.3882 18.9017 15.7203 13.5283 11.1311 9.08585 7.17865 5.3435 3.47035 1.77475 28.9761 58.6661 70.6545 72.1108 69.6654 66.8869 63.7624 61.1728 58.1974 55.539 52.6 49.9396 46.6833 44.0123 41.224 38.5592 36.0069 33.3824 30.5391 28.3494 25.8863 23.3981 20.9333 18.6665 16.664 14.1886 11.9525 9.72026 7.78775 5.70298 4.06766 2.06316 19.2411 51.6592 64.6971 66.6455 64.9881 62.1004 59.931 57.4383 54.6879 52.3197 49.923 47.1331 44.7727 42.0897 39.8168 37.3794 34.9123 32.3736 30.1065 27.801 25.3777 23.1016 20.9766 18.581 16.5009 14.342 12.1399 10.0909 7.76603 5.77791 4.09432 1.98829 52.2778 89.4247 100.809 99.6481 94.9351 89.8567 83.993 79.1979 74.2254 69.2411 64.2614 59.9349 55.3221 50.9466 47.0694 43.0107 39.8363 36.297 32.9159 29.6609 26.7497 23.8492 21.0137 18.598 15.8348 13.6836 11.4565 9.21442 7.31569 5.12722 3.5677 1.61435 95.3256 147.495 155.47 148.636 139.632 130.278 121.917 112.935 105.371 97.0501 89.0356 81.5977 74.5473 67.3171 60.8977 55.6576 49.2115 44.0453 39.0419 34.0743 29.5028 25.4369 21.9953 18.6268 15.1611 12.8127 10.3328 8.1719 5.75945 4.13764 2.41001 1.64628 156.487 215.815 212.222 201.083 188.807 176.364 164.393 152.379 140.199 129.101 118.044 107.474 96.8847 88.3107 78.7315 70.5344 62.2279 54.6304 47.5919 40.1249 35.0047 29.6579 24.099 19.7984 15.7062 12.1256 8.99416 6.37697 4.63502 3.03237 1.54519 1.09991 194.19 226.712 226.49 220.236 208.628 193.883 179.658 165.618 151.802 138.681 126.89 114.85 103.932 93.0224 82.8513 74.5866 64.9268 57.1563 50.0737 42.6305 35.356 29.8422 24.3474 18.8031 14.6907 11.014 7.66998 5.86873 3.38757 2.05469 1.36873 1.17017 106.94 163.537 172.6 166.821 156.203 145.66 135.107 124.232 114.825 105.108 96.1074 87.5269 79.5363 72.3681 64.5871 58.0433 51.513 45.0145 39.9657 34.6183 29.8083 25.8962 21.6585 17.8827 14.3312 11.9591 9.19672 7.02916 4.90326 3.83194 2.23966 1.17171 61.4141 103.972 117.981 116.537 108.981 101.471 94.1844 87.2758 81.0888 74.8205 69.1579 64.1578 58.6638 53.5405 49.2885 44.139 40.2826 36.5523 32.4579 29.2804 26.2594 22.9373 20.3605 17.2756 14.9199 12.7405 10.5411 8.75373 6.64855 4.67253 2.8408 1.58619 31.1892 66.1503 77.2793 76.5454 72.0575 67.0739 62.9693 59.2013 55.7441 52.584 49.5108 46.7849 43.9721 41.2354 38.3799 35.909 33.3053 31.0472 28.7581 26.1891 24.0034 21.9113 19.5758 17.2165 15.0492 13.1707 11.0302 9.17717 7.03783 5.43853 3.50835 2.00736 25.7828 61.15 71.4828 71.0167 66.5701 62.1525 57.9796 54.7408 51.6878 49.0522 46.7348 43.9891 41.6264 39.2883 36.909 34.665 32.3742 30.0491 27.8304 25.7988 23.6241 21.4189 19.4686 17.2991 15.3279 13.1213 11.227 9.30534 7.18583 5.36167 3.45769 1.88012 50.3148 92.5237 105.925 103.726 97.9184 89.8695 84.0139 78.4984 72.6074 67.3763 62.5363 57.5631 53.2497 48.9392 45.3975 41.4887 37.7648 34.3196 31.1179 27.8896 24.8966 22.3074 19.9586 17.1703 14.9495 12.6845 10.603 8.67023 6.56231 4.69282 3.1836 1.81864 90.7597 145.066 157.362 151.491 142.796 132.777 122.734 113.037 104.155 95.5615 88.7058 80.2194 73.5245 66.8702 60.1807 54.2571 47.901 43.2046 37.8694 33.0822 28.937 24.2437 20.9524 17.6349 14.2118 11.7168 9.59921 7.24822 5.27824 3.77509 2.21345 1.5403 151.916 209.855 211.033 204.292 192.392 178.705 165.276 153.305 140.645 129.598 117.576 106.551 96.465 87.8342 78.4015 69.9758 62.0683 54.7754 46.8809 40.836 34.9502 28.9073 24.0701 19.6575 15.2646 11.4226 8.60545 6.24259 3.88945 2.61416 1.61082 0.863619 194.101 224.868 223.658 219.023 208.42 195.133 180.863 165.812 152.54 139.307 126.942 115.272 104.016 93.4708 83.0935 73.7442 64.4447 56.5891 49.2458 42.3151 35.9392 29.7489 24.3584 19.2053 14.9989 11.1568 7.80183 4.90576 3.40493 1.94616 1.08985 0.689918 105.497 163.15 171.91 167.299 158.202 146.935 136.19 124.976 114.882 104.941 95.8618 87.4023 79.4702 71.4664 63.9894 56.8617 51.0956 45.1782 40.1525 34.9282 29.821 24.8538 21.1776 17.7406 14.5331 11.2146 8.77419 7.08782 5.17104 3.38329 1.95107 1.47351 60.0165 104.6 119.83 118.018 110.492 102.838 94.0436 87.3255 80.2391 74.4616 68.0637 62.9097 57.9428 52.3195 47.6994 43.8063 39.9471 35.8386 32.2301 29.1032 25.4057 22.1055 19.8052 16.8106 14.2816 11.9412 9.88602 7.9491 6.52828 4.3411 2.84264 1.63066 33.0412 69.7954 80.9309 79.0147 73.6162 67.7927 62.5421 58.2332 54.6651 51.492 48.4005 45.4847 42.7763 39.7262 37.1534 34.7428 32.1137 30.1835 27.6903 25.352 23.0728 20.6534 18.7157 16.6567 14.6718 12.5178 10.544 8.7753 6.84753 5.31134 3.66675 1.80197 29.1111 65.332 75.5537 73.226 67.7955 62.2535 57.4921 53.4443 50.3455 47.5782 44.9437 42.4711 40.0759 37.661 35.4401 33.265 30.9882 28.8812 26.7338 24.7516 22.6811 20.588 18.656 16.6382 14.616 12.5434 10.7459 8.77703 7.01696 5.07798 3.63787 1.55505 50.6881 93.9616 107.773 105.76 98.2655 90.8928 84.1369 77.3306 71.3445 66.8094 61.6946 56.8977 52.5313 48.3541 44.4462 40.6669 37.1809 33.5859 30.6035 27.3958 24.2596 21.54 19.0879 16.6381 14.3791 12.1352 10.2632 8.51354 6.26949 4.70352 3.00375 1.66681 89.5384 145.198 157.626 152.857 144.145 133.664 123.268 113.993 104.507 95.2685 87.7557 79.9599 73.182 66.1762 59.445 53.5256 48.0627 42.3071 37.5602 32.5456 28.2846 24.3717 20.7962 17.1775 14.2622 11.7838 9.16177 6.9022 5.3297 3.99516 2.48754 1.76655 151.034 209.361 209.198 203.69 192.774 179.537 166.419 153.936 140.962 128.747 117.164 106.903 96.9622 87.5846 78.1358 69.5618 61.6527 54.1013 46.6968 40.3887 34.2142 29.6337 24.4333 19.0376 15.6191 11.095 8.53029 6.38406 4.15709 2.85814 1.49228 1.13344 194.915 225.632 223.799 219.11 208.401 195.064 180.96 165.98 152.09 139.171 126.541 114.853 103.868 93.115 83.2561 74.1951 64.6378 57.0745 48.8327 42.1199 35.8388 29.7532 24.3935 18.8812 15.0393 10.9502 7.73039 5.3538 3.40547 1.94268 1.06144 0.933443 105.31 163.743 172.27 167.77 158.447 146.917 135.991 125.09 114.72 104.987 95.9741 87.1984 79.1258 71.3487 64.5493 57.0904 50.3696 45.1418 39.854 34.3995 29.3644 25.6937 21.0789 17.3139 14.5645 11.6279 8.89921 6.91118 4.94844 3.39098 2.1084 1.56707 59.9421 105.325 119.648 117.666 110.636 102.778 94.5025 87.3155 80.1032 74.2083 68.5353 62.4736 57.3919 52.6513 48.2534 43.7838 39.6468 36.1635 32.1446 28.7826 25.3622 22.21 19.3706 16.429 14.1295 12.0447 9.83739 7.96915 5.89901 4.32852 2.94586 1.18129 33.2674 70.3715 81.2037 79.6066 73.7985 67.576 62.333 58.4169 54.3647 50.9102 48 45.0696 42.4704 39.4687 37.0655 34.5155 31.936 29.6779 27.176 25.2119 23.0384 20.5809 18.4831 16.6247 14.4582 12.481 10.5765 8.75205 6.89784 4.81092 3.38955 1.55142 29.5871 65.9482 75.9236 73.8595 68.0631 61.9179 57.3399 53.5896 50.1147 47.3359 44.6724 42.0629 39.7841 37.417 35.2855 33.0953 31.0728 28.8852 26.6427 24.6571 22.4718 20.4988 18.4139 16.5047 14.492 12.3574 10.6767 8.9386 6.97592 5.11958 3.46445 1.83389 51.1598 94.7525 107.849 106.147 99.0078 90.7291 83.9956 77.7893 71.2795 66.3508 61.3167 56.5103 52.1803 47.9897 44.0801 40.1978 36.9109 33.4675 30.1604 27.3193 24.2963 21.5538 18.9329 16.9337 14.2216 12.0368 10.1153 8.3029 6.22139 4.60197 2.87274 1.40497 89.1902 145.469 157.694 153.476 144.008 133.624 123.321 113.432 104.792 95.7475 87.6032 79.611 73.036 65.9735 59.3393 53.6773 47.4487 42.8333 37.5451 32.535 28.6704 24.1772 20.8569 17.0613 14.3723 11.602 9.17013 7.1322 5.17003 3.98625 2.18757 1.26617 150.646 209.272 209.776 203.779 192.88 179.939 166.495 153.888 141.405 128.842 117.653 106.667 96.722 87.3322 78.6051 69.5791 61.9093 54.3691 46.745 40.3948 34.5378 28.954 23.8231 19.9113 15.3099 11.2464 9.06169 6.24543 3.82464 2.52066 1.64549 1.01532 194.594 227.583 226.205 220.246 208.304 194.483 180.515 166.107 151.567 138.797 126.187 114.586 103.822 93.297 82.6204 73.6138 65.1074 57.434 49.0844 42.0799 35.9425 30.1755 24.659 19.4942 14.8394 11.4726 7.82684 5.24921 3.23646 2.31021 1.4957 1.05611 106.324 164.246 171.914 166.827 157.164 146.483 135.042 123.848 114.496 104.602 95.9363 87.4471 79.0745 71.6912 64.8498 57.5846 50.8275 45.2867 40.1333 34.4867 29.3333 25.5682 21.3894 18.0027 14.2575 11.4816 9.16552 6.79113 4.95587 3.63245 2.48132 1.39274 60.5273 104.752 119.261 116.778 109.763 101.529 94.1175 87.6305 80.5498 74.4671 69.1033 63.4742 57.9509 53.6098 48.3394 44.2296 40.042 35.8599 32.148 28.8275 25.6596 22.7632 19.7756 16.9458 14.4343 12.4171 10.6588 8.17881 6.34699 4.66333 2.84613 1.70135 32.1002 67.7642 78.9236 77.7052 72.4988 67.2244 62.7057 58.8801 54.9989 52.0514 48.8462 45.8875 43.007 40.5656 37.7957 35.2166 32.9738 30.4243 27.9852 25.6344 23.3893 21.3574 19.2693 17.0186 14.9257 13.0353 10.9082 8.94018 6.98497 5.19177 3.36104 2.17903 27.1546 62.9893 73.2334 71.9641 66.6505 61.8638 57.9369 54.1139 51.0917 48.5902 45.9452 43.186 40.8792 38.6626 36.1775 34.1971 31.901 29.6915 27.4228 25.2111 23.1725 21.0661 18.9771 16.8837 15.1542 12.8989 11.0066 9.10651 7.43184 5.26445 3.76236 2.02224 50.9516 93.2276 106.221 104.499 97.8717 90.742 84.1217 77.917 72.5101 66.9361 62.3739 57.2438 53.2699 48.7804 45.0773 41.3151 37.4432 34.4358 31.0572 27.7004 24.9512 21.8134 19.6018 17.0292 14.6606 12.5028 10.2168 8.61905 6.48007 4.79731 2.93231 1.67 89.8735 145.556 156.957 152.663 143.867 133.027 122.141 112.852 103.711 96.0468 88.2568 79.8168 73.2258 66.2803 59.8906 53.7202 47.6531 43.1484 37.8137 33.082 28.1456 24.5851 20.8919 17.2507 14.4911 11.7061 9.46746 7.13865 5.52367 3.76233 2.6956 1.57503 151.327 209.889 210.697 203.977 193.085 179.812 166.114 153.088 140.673 129.113 117.263 106.51 96.5527 88.075 78.3466 69.8805 61.8987 54.1897 46.8552 40.5942 33.9667 29.3737 24.3798 19.0829 15.3435 11.2532 8.61076 6.37383 3.93972 2.59174 1.63013 1.15834 195.576 232.652 229.19 219.787 206.279 192.889 178.421 164.445 150.489 138.481 126.691 115.149 103.465 93.1194 83.0813 74.1029 64.9608 56.9378 49.7216 42.2019 35.9314 30.283 24.6403 19.4341 15.0591 11.5281 7.93997 5.25669 3.20673 2.15289 1.29542 1.50652 110.312 166.071 172.007 163.624 153.939 143.87 133.853 123.96 114.459 104.673 96.3829 88.3603 79.7889 72.0513 65.6742 58.2073 52.1274 45.8158 40.5942 35.4726 30.4707 26.5558 21.3695 18.7519 14.9543 11.973 9.54305 7.55227 5.42408 3.3944 2.3686 1.40291 63.6427 103.565 115.954 113.142 106.517 100.015 92.8782 87.1736 81.2375 75.5493 70.0867 65.0536 59.9058 54.6933 49.7435 45.3564 41.2385 37.0961 33.7336 29.9772 27.019 23.9469 21.2608 18.1113 15.4582 12.9467 11.0283 8.82609 6.64886 4.93071 3.04491 1.87339 29.3134 61.5491 72.8765 73.2657 70.2444 66.9222 63.3198 60.3888 57.0723 54.367 51.1533 48.5289 45.6466 42.8596 40.095 37.3813 34.5679 32.2329 29.768 27.3744 24.7276 22.6554 20.4196 17.8474 15.9924 13.7015 11.7852 9.40499 7.51419 5.31109 3.70486 1.8828 21.838 55.2251 66.9304 68.0185 64.9698 61.8108 58.8628 56.1352 53.3123 50.8453 48.4071 45.7684 43.5038 41.0057 38.5633 36.1553 33.6734 31.5061 29.1537 26.9843 24.7265 22.4829 20.356 18.1079 15.905 13.7143 11.7435 9.70213 7.83553 5.74866 3.8751 2.08598 51.2396 90.4607 102.988 101.807 96.0637 89.8977 83.6994 78.6774 73.2291 67.8938 63.1897 58.8738 54.9737 49.9338 46.3745 42.7058 38.9693 35.6293 32.0778 29.0062 26.0379 23.0733 20.4644 18.1402 15.4488 13.1612 11.2225 9.01944 6.93615 5.31393 3.35118 1.7339 93.1905 146.786 156.469 150.294 141.282 131.255 121.774 112.863 104.762 96.703 88.6362 80.9244 73.7637 66.8304 60.0548 54.8557 48.9461 43.4322 38.6081 33.4074 29.7325 25.3422 21.743 17.8969 15.4603 12.2133 9.98111 7.74988 5.77118 4.27644 2.22393 1.87883 154.563 214.903 213.304 202.844 190.187 177.673 165.032 152.217 140.699 128.9 118.271 107.046 96.9119 87.8324 78.6012 69.7647 61.6041 54.4091 47.05 40.3345 34.844 28.7968 24.3893 19.6038 15.5361 12.1052 8.71959 6.15115 4.52106 2.74399 1.96431 0.830838 209.1 238.037 223.277 212.772 200.624 188.124 175.435 163.58 150.881 137.812 126.412 116.133 104.146 94.156 84.0527 75.2707 65.996 57.2271 50.1977 43.0751 36.0329 30.488 24.4149 19.6852 15.5023 11.9681 8.43958 5.87045 3.72984 2.02425 1.21135 0.895958 124.683 166.882 163.585 155.828 148.56 140.251 131.542 123.224 114.642 106.219 97.4369 88.8615 81.4432 73.6514 66.9351 59.4763 53.7318 47.4431 41.479 36.0483 31.6232 27.5347 22.7704 19.8554 16.1667 12.8435 10.3894 8.11359 6.20911 4.32199 2.74785 1.61199 74.0205 101.021 107.648 105.73 102.586 98.1102 93.6992 88.5843 83.8367 78.3461 72.3158 67.4262 62.4603 57.5084 52.5318 48.0416 43.8603 39.9279 36.2918 32.7169 28.6384 25.9417 23.1411 19.6723 16.9522 14.3959 12.0401 9.69657 7.48251 5.36786 3.73739 1.90736 30.0179 50.6187 63.6161 67.7826 68.2936 67.2265 65.6535 63.3638 61.2361 58.1496 55.2642 52.5083 49.4391 46.4866 43.7558 40.8755 38.1845 35.4384 32.5363 30.0372 27.4284 25.0609 22.3961 19.9701 17.5463 15.2627 12.9483 10.7659 8.45554 6.46552 4.2616 2.02638 15.3161 41.8377 58.0752 62.9414 63.8229 63.1491 61.7895 60.2214 57.7934 55.3049 52.9038 50.2684 47.5648 44.7943 42.2942 39.6333 37.2937 34.554 31.8752 29.6171 27.1706 24.6865 22.3657 19.917 17.5865 15.1004 12.8265 10.5679 8.45157 6.34247 4.29459 1.90375 56.7268 86.2982 96.1165 95.9282 93.0665 89.4362 85.2092 80.2272 76.172 71.1799 66.4041 61.7792 57.9235 53.1007 49.3188 45.7814 41.3008 38.1232 34.6536 31.0485 28.2321 25.1516 22.3984 19.7847 17.1216 14.6694 12.248 9.89282 7.76334 5.65541 3.87364 1.793 104.645 147.503 149.465 143.444 136.015 129.384 121.526 113.654 105.478 97.4229 90.5256 82.5032 75.621 68.1589 61.7294 56.1015 50.1841 45.2026 39.6985 35.0631 30.4771 26.6182 23.1394 18.9657 16.3681 13.8526 10.6804 8.86965 6.64123 4.49453 3.07596 1.41352 168.013 218.016 206.577 195.981 184.994 173.967 163.067 151.417 140.989 129.416 118.082 108.018 97.8207 88.2456 78.8466 70.6824 62.4709 54.6648 47.8308 41.2849 35.1131 29.8352 24.5436 19.8216 15.6966 12.4225 9.62236 6.93293 4.71841 3.15891 1.59302 1.26885 
SCALARS volume float 1
LOOKUP_TABLE default
0.312987 0.31511 0.315222 0.315293 0.315348 0.315408 0.31547 0.315537 0.315608 0.315671 0.315737 0.3158 0.315858 0.31591 0.315967 0.316017 0.316063 0.316108 0.316148 0.316189 0.316221 0.316256 0.316282 0.316308 0.316333 0.316352 0.316367 0.316383 0.31639 0.316403 0.316407 0.316408 0.314285 0.315162 0.315478 0.315547 0.315589 0.315628 0.315673 0.315725 0.315776 0.315828 0.315881 0.315931 0.315978 0.316019 0.316061 0.316102 0.316137 0.316175 0.316205 0.316237 0.316266 0.316289 0.316309 0.316334 0.316348 0.316361 0.316374 0.316387 0.316394 0.316402 0.31641 0.316411 0.315145 0.315693 0.31578 0.315857 0.315885 0.315911 0.315937 0.315966 0.315999 0.316031 0.316064 0.316094 0.316127 0.316157 0.316181 0.31621 0.316233 0.316255 0.316278 0.316295 0.316314 0.316326 0.316343 0.316355 0.316368 0.316375 0.316385 0.316393 0.316395 0.316404 0.316409 0.316409 0.315972 0.316124 0.316139 0.316159 0.31617 0.316184 0.316192 0.316207 0.316225 0.316238 0.316254 0.31627 0.316282 0.316295 0.316307 0.31632 0.316333 0.316337 0.316351 0.316358 0.316366 0.316373 0.31638 0.316381 0.316389 0.31639 0.316397 0.316399 0.3164 0.316403 0.316405 0.316405 0.316748 0.316535 0.316482 0.31646 0.316454 0.316458 0.316452 0.316451 0.316449 0.316444 0.316441 0.316443 0.316437 0.316434 0.316433 0.31643 0.316428 0.316425 0.316424 0.316423 0.31642 0.316416 0.316415 0.316413 0.316416 0.316412 0.316407 0.316412 0.316409 0.316409 0.316404 0.3164 0.317525 0.316924 0.316816 0.316757 0.31674 0.316726 0.316711 0.316694 0.316673 0.316654 0.316632 0.316615 0.316597 0.316574 0.316558 0.31654 0.316527 0.316515 0.3165 0.316489 0.316475 0.316463 0.316454 0.316445 0.316435 0.316431 0.316421 0.316419 0.316411 0.316414 0.316403 0.316401 0.318281 0.317336 0.3171 0.317055 0.31703 0.317001 0.316973 0.316931 0.316897 0.316858 0.316821 0.316782 0.316745 0.316711 0.316684 0.316651 0.316624 0.316599 0.316572 0.31655 0.316527 0.316511 0.316487 0.316475 0.316458 0.31645 0.316435 0.316426 0.316416 0.316413 0.316407 0.316403 0.319289 0.317462 0.3174 0.317351 0.317303 0.317257 0.317205 0.317151 0.317097 0.317037 0.316989 0.316934 0.316887 0.31684 0.316794 0.316754 0.316714 0.316678 0.31664 0.316612 0.316582 0.316552 0.316523 0.316502 0.316484 0.316469 0.316449 0.316439 0.316425 0.316414 0.316406 0.316406 0.313322 0.314616 0.315027 0.315186 0.315289 0.315379 0.315456 0.315533 0.315602 0.315671 0.315737 0.315798 0.315855 0.315915 0.315967 0.31602 0.316068 0.316109 0.316152 0.316191 0.316227 0.316259 0.316289 0.316314 0.316335 0.316355 0.316375 0.316386 0.316397 0.316408 0.316409 0.316412 0.314683 0.314809 0.315299 0.315458 0.315562 0.315629 0.31569 0.315747 0.315798 0.31585 0.3159 0.315947 0.315992 0.316036 0.316077 0.316113 0.31615 0.316182 0.316214 0.316241 0.316267 0.316293 0.316316 0.316334 0.316352 0.316366 0.31638 0.316388 0.316398 0.316402 0.316408 0.316413 0.315338 0.315466 0.315656 0.315775 0.315846 0.315895 0.315931 0.315972 0.316008 0.316041 0.316071 0.316104 0.316135 0.31616 0.316187 0.316214 0.316236 0.316258 0.316279 0.316297 0.316315 0.316331 0.316345 0.316355 0.31637 0.316379 0.316384 0.316392 0.316398 0.316401 0.316411 0.316413 0.316036 0.316037 0.316089 0.316119 0.316149 0.316171 0.316191 0.316208 0.316221 0.316241 0.316257 0.316268 0.316283 0.316294 0.31631 0.316323 0.316331 0.316339 0.316351 0.316358 0.316368 0.316372 0.316382 0.316385 0.316389 0.316393 0.316397 0.3164 0.3164 0.316404 0.316408 0.316409 0.316685 0.316592 0.316502 0.316467 0.316454 0.316448 0.316445 0.316446 0.316445 0.31644 0.316436 0.316436 0.316436 0.316434 0.31643 0.316427 0.316427 0.316423 0.316426 0.31642 0.316419 0.316416 0.316416 0.316413 0.31641 0.316412 0.316409 0.316411 0.316405 0.316407 0.316403 0.316402 0.317333 0.317116 0.316902 0.316801 0.316756 0.31673 0.316701 0.316686 0.316663 0.316642 0.316624 0.316603 0.316585 0.31657 0.316555 0.316538 0.316522 0.31651 0.316498 0.316485 0.316472 0.316461 0.316451 0.316444 0.316435 0.316427 0.316422 0.31642 0.316411 0.316407 0.316403 0.3164 0.317919 0.317643 0.317239 0.317121 0.317045 0.317 0.316954 0.316916 0.316875 0.316838 0.316801 0.316764 0.316732 0.316701 0.316675 0.316642 0.316614 0.316591 0.316566 0.316545 0.316524 0.316507 0.316485 0.316473 0.316456 0.316446 0.316433 0.316427 0.316415 0.316409 0.316408 0.316399 0.318919 0.317875 0.317562 0.317421 0.317332 0.317264 0.317201 0.317142 0.317085 0.31703 0.316983 0.31693 0.316882 0.316834 0.316789 0.316749 0.316711 0.316671 0.316636 0.316606 0.316575 0.316548 0.31652 0.316499 0.316479 0.316462 0.31645 0.316437 0.316421 0.31641 0.316408 0.316404 0.31311 0.31462 0.314886 0.315093 0.31523 0.315343 0.315437 0.315521 0.315596 0.315667 0.315734 0.3158 0.315857 0.315919 0.315969 0.316021 0.316066 0.316114 0.316153 0.316193 0.316231 0.316264 0.316289 0.316315 0.316339 0.316359 0.316378 0.316391 0.316398 0.316405 0.316414 0.316415 0.314602 0.314775 0.315203 0.315397 0.315525 0.31561 0.31568 0.315742 0.3158 0.315853 0.315904 0.315952 0.315994 0.316037 0.31608 0.316116 0.316152 0.316184 0.316213 0.316242 0.316271 0.316294 0.316313 0.316336 0.316352 0.316369 0.316381 0.31639 0.316395 0.316401 0.316407 0.316417 0.315294 0.315458 0.315585 0.315737 0.315822 0.315883 0.315931 0.315975 0.31601 0.316046 0.316078 0.316108 0.316139 0.316164 0.31619 0.316214 0.316235 0.316258 0.316281 0.316297 0.316319 0.316333 0.316342 0.316356 0.31637 0.316378 0.316387 0.316394 0.3164 0.316404 0.31641 0.316412 0.316016 0.316023 0.31606 0.316096 0.316136 0.316161 0.316188 0.316209 0.316221 0.316242 0.316259 0.31627 0.316285 0.316295 0.316309 0.316322 0.316331 0.31634 0.316351 0.316358 0.316367 0.316375 0.316381 0.316385 0.316392 0.316395 0.316398 0.316404 0.316407 0.316408 0.316406 0.316408 0.316696 0.316588 0.316513 0.316473 0.316453 0.316449 0.316444 0.316442 0.316439 0.316439 0.316438 0.316437 0.316436 0.31643 0.316432 0.316428 0.316425 0.316424 0.316421 0.316417 0.316417 0.316417 0.316414 0.316413 0.316409 0.316409 0.316407 0.316406 0.316405 0.31641 0.316403 0.316402 0.317374 0.317116 0.316954 0.316826 0.316767 0.31673 0.316698 0.316679 0.316655 0.316637 0.316619 0.316601 0.316583 0.316564 0.316549 0.316536 0.316522 0.316507 0.316493 0.316479 0.31647 0.316461 0.31645 0.316442 0.316436 0.316431 0.316424 0.316419 0.316414 0.316411 0.316405 0.316399 0.31799 0.31765 0.317316 0.317168 0.317073 0.317011 0.316955 0.316913 0.316872 0.316834 0.316797 0.316764 0.316732 0.316701 0.316669 0.316643 0.316614 0.31659 0.316565 0.316541 0.316523 0.316502 0.316482 0.316468 0.316456 0.316443 0.316431 0.316423 0.316415 0.316409 0.31641 0.316398 0.319058 0.317835 0.317674 0.317488 0.317371 0.317283 0.31721 0.317147 0.317088 0.31703 0.316978 0.316925 0.316877 0.316826 0.316786 0.316747 0.316704 0.316669 0.316632 0.316596 0.316571 0.316543 0.316517 0.316497 0.316476 0.316453 0.316444 0.31643 0.31642 0.316411 0.316408 0.316404 0.313037 0.31458 0.314861 0.315058 0.3152 0.315321 0.315425 0.315517 0.315592 0.315664 0.315733 0.315798 0.315858 0.315914 0.31597 0.316021 0.316069 0.316112 0.316154 0.316199 0.316224 0.316261 0.316288 0.316314 0.316339 0.316364 0.316378 0.316393 0.316405 0.316411 0.316412 0.316414 0.314592 0.314733 0.315176 0.315367 0.3155 0.315599 0.315674 0.315739 0.3158 0.315856 0.315904 0.315951 0.315995 0.316039 0.316077 0.316117 0.316151 0.316185 0.316217 0.316245 0.316269 0.316294 0.316318 0.316339 0.316356 0.316373 0.316381 0.316389 0.316399 0.316407 0.316411 0.316413 0.315285 0.315432 0.315567 0.31572 0.315811 0.315877 0.315927 0.315966 0.31601 0.316044 0.316077 0.316108 0.31614 0.316167 0.316191 0.316218 0.316236 0.316262 0.316283 0.316303 0.316317 0.316331 0.316348 0.316358 0.316369 0.316379 0.316387 0.316392 0.316398 0.316403 0.316407 0.316406 0.316013 0.316013 0.316051 0.316087 0.316129 0.316157 0.316184 0.316205 0.316225 0.316241 0.316255 0.316268 0.316287 0.316296 0.316311 0.31632 0.316329 0.316342 0.316351 0.31636 0.316367 0.316374 0.316381 0.316383 0.31639 0.316395 0.316397 0.316401 0.316405 0.316406 0.316408 0.316408 0.316693 0.316592 0.316512 0.316473 0.31645 0.316447 0.316444 0.316441 0.316438 0.316438 0.316437 0.316434 0.316435 0.316428 0.31643 0.316428 0.316425 0.316422 0.316421 0.316415 0.316419 0.316417 0.316412 0.316414 0.31641 0.316409 0.316409 0.316407 0.316409 0.316408 0.316404 0.316402 0.31738 0.317128 0.316962 0.31684 0.316775 0.31673 0.316701 0.316682 0.316656 0.316638 0.316621 0.316598 0.31658 0.316562 0.316546 0.316534 0.316522 0.316505 0.31649 0.316482 0.316472 0.31646 0.316448 0.316443 0.316433 0.316426 0.316423 0.316418 0.316413 0.31641 0.316405 0.316402 0.317996 0.317675 0.31733 0.317188 0.317086 0.317012 0.316958 0.316915 0.316873 0.316836 0.316801 0.316763 0.31673 0.316699 0.316666 0.316638 0.316614 0.316589 0.316564 0.316545 0.316521 0.316501 0.316483 0.31647 0.316455 0.31644 0.316434 0.316426 0.316415 0.316408 0.316407 0.316401 0.319098 0.317857 0.317689 0.317517 0.317391 0.317292 0.317217 0.317148 0.317085 0.31703 0.316975 0.316922 0.316876 0.316827 0.316786 0.316746 0.316703 0.316669 0.316632 0.316602 0.31657 0.316545 0.316519 0.316495 0.316474 0.316456 0.316443 0.316427 0.316424 0.316413 0.316408 0.316403 0.313038 0.314591 0.31487 0.315063 0.315203 0.31532 0.315421 0.315511 0.315589 0.315666 0.315733 0.315796 0.315861 0.315913 0.31597 0.316023 0.316066 0.316113 0.316153 0.316192 0.316226 0.31626 0.316291 0.316318 0.316341 0.316356 0.316378 0.316393 0.316404 0.316413 0.316411 0.316412 0.314598 0.31474 0.315181 0.315369 0.3155 0.315597 0.315673 0.315739 0.315796 0.315851 0.315903 0.315954 0.315995 0.316037 0.316076 0.316118 0.316153 0.316186 0.316217 0.316245 0.316272 0.316294 0.316316 0.316336 0.316354 0.316367 0.31638 0.316394 0.316394 0.316404 0.316408 0.316412 0.315285 0.315434 0.315571 0.315717 0.31581 0.315876 0.315926 0.315967 0.316009 0.316042 0.316077 0.316109 0.316136 0.316166 0.316193 0.316216 0.316238 0.316264 0.316284 0.316304 0.316319 0.316334 0.316348 0.316358 0.316367 0.316375 0.316389 0.316395 0.316396 0.316401 0.316405 0.31641 0.31601 0.316013 0.316055 0.316087 0.316128 0.316159 0.316182 0.316202 0.316224 0.31624 0.316255 0.316269 0.316284 0.316297 0.316311 0.316322 0.316332 0.316341 0.316348 0.316359 0.316368 0.316374 0.316381 0.316387 0.316391 0.316394 0.316398 0.316399 0.316403 0.316406 0.316407 0.316406 0.316692 0.316589 0.316512 0.316474 0.31645 0.316445 0.316442 0.316442 0.316437 0.316437 0.316435 0.316434 0.316434 0.316433 0.316428 0.316426 0.316426 0.316423 0.316423 0.316418 0.316419 0.316416 0.316414 0.316413 0.316411 0.316406 0.316407 0.316408 0.316408 0.316407 0.316407 0.316403 0.317379 0.317123 0.316959 0.316838 0.316776 0.316732 0.316702 0.316681 0.316656 0.316638 0.316615 0.316597 0.316582 0.316565 0.316548 0.316536 0.316522 0.316504 0.316494 0.316483 0.316467 0.316458 0.316448 0.31644 0.316434 0.316427 0.31642 0.316416 0.316409 0.316408 0.316405 0.3164 0.317994 0.317668 0.317327 0.317188 0.317086 0.317015 0.31696 0.316913 0.316872 0.316839 0.316798 0.316759 0.316726 0.316696 0.316668 0.316643 0.316612 0.316584 0.316563 0.316545 0.316521 0.316502 0.316484 0.316467 0.316457 0.316443 0.316433 0.316424 0.316414 0.316411 0.316405 0.316401 0.319097 0.317847 0.317682 0.317513 0.317389 0.317294 0.317217 0.317146 0.317083 0.317029 0.316975 0.316922 0.316875 0.316828 0.316785 0.316745 0.316703 0.316665 0.316632 0.316599 0.31657 0.316544 0.316518 0.316495 0.316473 0.316457 0.316439 0.316427 0.316418 0.316412 0.316404 0.316406 0.313121 0.314647 0.314908 0.315103 0.315231 0.315336 0.315432 0.315516 0.315597 0.315666 0.315735 0.3158 0.315859 0.315919 0.315971 0.316021 0.316065 0.31611 0.316152 0.316191 0.316226 0.316262 0.316289 0.316317 0.316338 0.316359 0.316377 0.31639 0.316404 0.316412 0.316413 0.316413 0.31461 0.314788 0.315218 0.315402 0.31552 0.315607 0.315675 0.31574 0.315799 0.315853 0.315903 0.315953 0.315996 0.316035 0.316076 0.316117 0.316152 0.316184 0.316215 0.31624 0.316269 0.316292 0.316316 0.316338 0.316353 0.316368 0.316379 0.316393 0.316396 0.316404 0.316408 0.316414 0.315299 0.315467 0.315594 0.315735 0.315818 0.315881 0.315929 0.315971 0.316009 0.316045 0.316078 0.316106 0.316135 0.316165 0.31619 0.316217 0.316237 0.316258 0.316281 0.316299 0.316316 0.316333 0.316343 0.316356 0.316373 0.316375 0.316386 0.316395 0.316399 0.316401 0.316404 0.316414 0.316014 0.316026 0.31606 0.316097 0.316135 0.316166 0.316187 0.316206 0.316224 0.316239 0.316256 0.316269 0.316281 0.316298 0.316307 0.31632 0.316331 0.316342 0.31635 0.31636 0.316365 0.316371 0.316376 0.316383 0.316393 0.316394 0.316401 0.316399 0.316401 0.316405 0.316405 0.316407 0.316691 0.316583 0.316505 0.316473 0.316454 0.316448 0.316446 0.316444 0.316438 0.316438 0.316438 0.316434 0.316432 0.316433 0.316427 0.316424 0.316424 0.316423 0.316422 0.316419 0.316419 0.316415 0.316414 0.316411 0.316411 0.316409 0.316407 0.316407 0.31641 0.31641 0.316405 0.316404 0.317369 0.317101 0.316946 0.316822 0.316769 0.316731 0.316703 0.31668 0.316657 0.316637 0.316619 0.316602 0.316585 0.316568 0.316549 0.316532 0.31652 0.316507 0.316494 0.316483 0.31647 0.316458 0.316448 0.316439 0.316434 0.316428 0.316419 0.316418 0.31641 0.316409 0.316405 0.316401 0.317981 0.317632 0.317301 0.317162 0.317073 0.317009 0.316959 0.316913 0.316874 0.316836 0.3168 0.316767 0.316729 0.316699 0.316672 0.316643 0.316613 0.316589 0.316567 0.316542 0.316519 0.316502 0.316487 0.316471 0.316456 0.316439 0.316431 0.316426 0.316415 0.31641 0.316404 0.316401 0.319055 0.317808 0.317646 0.317474 0.317367 0.317284 0.31721 0.317142 0.317085 0.317031 0.316977 0.316924 0.316878 0.316828 0.316786 0.316745 0.316704 0.316669 0.316634 0.316602 0.31657 0.316543 0.316515 0.316496 0.316476 0.316458 0.316441 0.31643 0.316419 0.316414 0.316406 0.316408 0.313337 0.314691 0.315044 0.315189 0.315287 0.31537 0.31545 0.315526 0.315602 0.315669 0.315739 0.315798 0.315861 0.315918 0.315971 0.316022 0.316064 0.316108 0.316153 0.316191 0.316226 0.316257 0.316285 0.316315 0.316334 0.316356 0.316374 0.316391 0.316395 0.316402 0.316411 0.316409 0.314696 0.314848 0.315307 0.315454 0.315552 0.315622 0.315684 0.31574 0.315796 0.315851 0.315899 0.315948 0.315991 0.316033 0.316077 0.316117 0.316151 0.316181 0.316213 0.316241 0.316266 0.316293 0.316314 0.316333 0.31635 0.316367 0.316378 0.316391 0.316397 0.3164 0.316407 0.316414 0.315347 0.315488 0.315662 0.315776 0.315843 0.315892 0.315931 0.315968 0.316005 0.316042 0.316073 0.316103 0.316132 0.316163 0.316189 0.316215 0.316234 0.316257 0.316277 0.316296 0.316316 0.31633 0.316346 0.316355 0.31637 0.316377 0.316387 0.316396 0.316397 0.316404 0.31641 0.316414 0.316036 0.31604 0.316091 0.316123 0.316148 0.316174 0.316192 0.316206 0.316223 0.316238 0.316254 0.316269 0.316285 0.316299 0.31631 0.31632 0.31633 0.316339 0.316348 0.316359 0.316365 0.316371 0.31638 0.316386 0.316395 0.316394 0.3164 0.316406 0.316402 0.316405 0.316405 0.316405 0.31668 0.316581 0.316499 0.316471 0.316455 0.316452 0.316447 0.316446 0.316443 0.316438 0.316437 0.316436 0.316434 0.316431 0.316434 0.316428 0.316426 0.316424 0.316425 0.316421 0.316419 0.316414 0.316415 0.316414 0.316416 0.31641 0.31641 0.316411 0.316406 0.316408 0.316404 0.316402 0.317326 0.317084 0.316898 0.316803 0.316761 0.316732 0.316706 0.316681 0.316661 0.316642 0.316624 0.316604 0.316586 0.316571 0.316553 0.316539 0.316523 0.316509 0.316496 0.316484 0.316474 0.316464 0.316454 0.316441 0.316435 0.316428 0.31642 0.316418 0.31641 0.316409 0.316403 0.316399 0.317907 0.317593 0.317223 0.31712 0.317054 0.317002 0.31696 0.316919 0.316877 0.31684 0.316802 0.316771 0.316733 0.316703 0.316673 0.316644 0.316617 0.316592 0.316569 0.316545 0.316523 0.316502 0.316487 0.316473 0.316457 0.316445 0.316431 0.316426 0.31642 0.316412 0.316405 0.316401 0.31891 0.317789 0.317535 0.317411 0.317333 0.317268 0.317206 0.317146 0.317088 0.31703 0.316978 0.316926 0.316881 0.316836 0.31679 0.31675 0.316708 0.31667 0.31664 0.316606 0.316572 0.316547 0.316521 0.3165 0.316478 0.316462 0.316446 0.316434 0.316422 0.316415 0.316409 0.316408 0.313139 0.315104 0.3152 0.315272 0.315331 0.315397 0.315469 0.315537 0.315608 0.315672 0.315738 0.3158 0.315863 0.315916 0.315972 0.316019 0.316069 0.316113 0.316152 0.31619 0.316223 0.316255 0.31628 0.316305 0.316328 0.316352 0.316371 0.316387 0.316392 0.3164 0.316406 0.316408 0.314391 0.315158 0.315456 0.315532 0.315581 0.315627 0.315679 0.315729 0.315781 0.315835 0.315883 0.315934 0.315978 0.316026 0.316067 0.316104 0.316141 0.316176 0.316206 0.316234 0.316263 0.31629 0.316314 0.316329 0.316344 0.316362 0.316375 0.316392 0.316394 0.316401 0.316407 0.316412 0.315203 0.315692 0.315764 0.315843 0.315878 0.315906 0.315936 0.315973 0.316007 0.316035 0.316067 0.316099 0.316129 0.316158 0.316185 0.316209 0.316232 0.316257 0.316272 0.316292 0.316316 0.316329 0.316346 0.316353 0.316368 0.316377 0.316385 0.316391 0.316396 0.316402 0.316408 0.316411 0.315983 0.316124 0.316135 0.316151 0.316167 0.316184 0.316193 0.316207 0.316226 0.316241 0.316257 0.316268 0.316284 0.316297 0.316308 0.31632 0.31633 0.316341 0.31635 0.316357 0.316363 0.316371 0.31638 0.316381 0.31639 0.316394 0.316394 0.316398 0.316401 0.316404 0.316406 0.316406 0.316715 0.316538 0.31649 0.316467 0.316454 0.316455 0.316453 0.316449 0.316449 0.316445 0.316447 0.316441 0.316437 0.316435 0.31643 0.31643 0.316428 0.316425 0.316423 0.316419 0.316419 0.316415 0.316415 0.316415 0.316412 0.316412 0.316412 0.316408 0.316406 0.316404 0.316404 0.316401 0.317444 0.31692 0.316835 0.316773 0.316748 0.31673 0.31671 0.316688 0.316669 0.316648 0.316629 0.31661 0.316592 0.316575 0.316556 0.31654 0.316525 0.316512 0.316496 0.316484 0.316477 0.316463 0.316453 0.316442 0.316431 0.316427 0.31642 0.316417 0.316411 0.316411 0.316407 0.316399 0.31815 0.317335 0.317132 0.317075 0.317035 0.317002 0.316964 0.316929 0.31689 0.316853 0.316818 0.316779 0.316745 0.316712 0.316679 0.316652 0.316624 0.316594 0.316572 0.316549 0.316528 0.316509 0.316491 0.316473 0.316459 0.316448 0.316432 0.316424 0.316414 0.316413 0.316405 0.316396 0.319146 0.317457 0.317416 0.317356 0.317311 0.317259 0.317201 0.317144 0.317092 0.317037 0.31698 0.316933 0.316883 0.316839 0.316792 0.316749 0.316713 0.316677 0.316642 0.316611 0.316579 0.316548 0.316526 0.316502 0.316479 0.316463 0.316446 0.316434 0.316424 0.316415 0.316408 0.316403 
SCALARS volume_diff float 1
LOOKUP_TABLE default
0.311034 0.313157 0.313269 0.31334 0.313395 0.313454 0.313517 0.313584 0.313655 0.313718 0.313784 0.313847 0.313905 0.313957 0.314014 0.314064 0.31411 0.314155 0.314194 0.314236 0.314268 0.314303 0.314329 0.314355 0.314379 0.314399 0.314414 0.31443 0.314437 0.31445 0.314454 0.314455 0.312331 0.313209 0.313525 0.313594 0.313635 0.313675 0.31372 0.313772 0.313823 0.313875 0.313928 0.313977 0.314025 0.314066 0.314107 0.314149 0.314184 0.314222 0.314252 0.314284 0.314313 0.314336 0.314356 0.314381 0.314395 0.314408 0.314421 0.314434 0.314441 0.314449 0.314457 0.314458 0.313192 0.31374 0.313827 0.313904 0.313932 0.313958 0.313984 0.314013 0.314046 0.314078 0.314111 0.314141 0.314174 0.314204 0.314227 0.314257 0.314279 0.314302 0.314325 0.314342 0.31436 0.314373 0.31439 0.314402 0.314415 0.314422 0.314432 0.314439 0.314442 0.314451 0.314456 0.314456 0.314019 0.314171 0.314186 0.314206 0.314217 0.314231 0.314239 0.314254 0.314272 0.314285 0.314301 0.314317 0.314329 0.314342 0.314354 0.314367 0.31438 0.314384 0.314398 0.314405 0.314413 0.31442 0.314427 0.314428 0.314436 0.314436 0.314444 0.314446 0.314447 0.31445 0.314452 0.314452 0.314795 0.314582 0.314529 0.314507 0.314501 0.314504 0.314499 0.314498 0.314496 0.314491 0.314487 0.31449 0.314484 0.314481 0.314479 0.314477 0.314475 0.314472 0.314471 0.31447 0.314467 0.314462 0.314462 0.31446 0.314463 0.314459 0.314454 0.314459 0.314456 0.314455 0.314451 0.314447 0.315572 0.31497 0.314863 0.314804 0.314787 0.314773 0.314758 0.314741 0.31472 0.314701 0.314679 0.314662 0.314643 0.314621 0.314604 0.314587 0.314574 0.314562 0.314547 0.314536 0.314522 0.31451 0.314501 0.314491 0.314482 0.314478 0.314468 0.314466 0.314458 0.314461 0.31445 0.314448 0.316327 0.315383 0.315147 0.315102 0.315077 0.315047 0.31502 0.314978 0.314943 0.314905 0.314867 0.314829 0.314792 0.314758 0.31473 0.314698 0.314671 0.314646 0.314619 0.314597 0.314573 0.314558 0.314534 0.314521 0.314505 0.314497 0.314482 0.314473 0.314463 0.31446 0.314454 0.31445 0.317336 0.315509 0.315447 0.315398 0.315349 0.315304 0.315252 0.315198 0.315143 0.315083 0.315035 0.314981 0.314934 0.314887 0.314841 0.314801 0.314761 0.314725 0.314687 0.314659 0.314629 0.314599 0.31457 0.314549 0.314531 0.314516 0.314495 0.314486 0.314472 0.314461 0.314453 0.314453 0.311369 0.312663 0.313074 0.313233 0.313336 0.313426 0.313503 0.313579 0.313649 0.313718 0.313784 0.313845 0.313902 0.313962 0.314014 0.314067 0.314115 0.314156 0.314199 0.314238 0.314274 0.314306 0.314336 0.314361 0.314382 0.314402 0.314422 0.314433 0.314444 0.314455 0.314456 0.314459 0.31273 0.312856 0.313346 0.313505 0.313609 0.313676 0.313737 0.313794 0.313845 0.313897 0.313947 0.313994 0.314039 0.314083 0.314124 0.31416 0.314197 0.314229 0.31426 0.314287 0.314314 0.31434 0.314362 0.31438 0.314399 0.314413 0.314427 0.314434 0.314445 0.314449 0.314454 0.31446 0.313385 0.313513 0.313702 0.313821 0.313893 0.313942 0.313978 0.314019 0.314055 0.314088 0.314118 0.314151 0.314182 0.314207 0.314234 0.314261 0.314283 0.314305 0.314326 0.314344 0.314362 0.314378 0.314392 0.314402 0.314417 0.314426 0.314431 0.314439 0.314445 0.314448 0.314458 0.31446 0.314083 0.314083 0.314136 0.314166 0.314196 0.314218 0.314238 0.314255 0.314268 0.314288 0.314304 0.314315 0.314329 0.314341 0.314356 0.31437 0.314378 0.314385 0.314398 0.314405 0.314415 0.314419 0.314429 0.314432 0.314436 0.31444 0.314444 0.314447 0.314447 0.314451 0.314455 0.314456 0.314731 0.314639 0.314549 0.314514 0.314501 0.314495 0.314492 0.314493 0.314492 0.314487 0.314483 0.314483 0.314483 0.314481 0.314477 0.314474 0.314473 0.31447 0.314473 0.314467 0.314466 0.314463 0.314463 0.31446 0.314457 0.314459 0.314456 0.314458 0.314452 0.314454 0.31445 0.314449 0.31538 0.315163 0.314949 0.314847 0.314803 0.314777 0.314748 0.314733 0.31471 0.314689 0.314671 0.31465 0.314632 0.314617 0.314602 0.314585 0.314569 0.314557 0.314545 0.314532 0.314519 0.314508 0.314498 0.314491 0.314481 0.314474 0.314469 0.314467 0.314458 0.314454 0.31445 0.314447 0.315965 0.31569 0.315286 0.315168 0.315091 0.315047 0.315001 0.314963 0.314922 0.314885 0.314848 0.314811 0.314779 0.314748 0.314722 0.314689 0.314661 0.314638 0.314613 0.314592 0.314571 0.314554 0.314532 0.31452 0.314503 0.314493 0.31448 0.314474 0.314462 0.314456 0.314455 0.314446 0.316966 0.315922 0.315609 0.315468 0.315379 0.315311 0.315248 0.315189 0.315132 0.315077 0.315029 0.314977 0.314929 0.314881 0.314835 0.314796 0.314758 0.314718 0.314683 0.314653 0.314622 0.314594 0.314566 0.314546 0.314526 0.314509 0.314496 0.314484 0.314467 0.314457 0.314455 0.314451 0.311157 0.312667 0.312933 0.31314 0.313277 0.31339 0.313484 0.313568 0.313643 0.313714 0.313781 0.313847 0.313904 0.313966 0.314016 0.314068 0.314113 0.314161 0.3142 0.31424 0.314278 0.314311 0.314336 0.314362 0.314386 0.314406 0.314425 0.314437 0.314445 0.314452 0.31446 0.314462 0.312649 0.312822 0.31325 0.313444 0.313572 0.313657 0.313727 0.313789 0.313847 0.3139 0.313951 0.313999 0.314041 0.314084 0.314127 0.314163 0.314199 0.314231 0.31426 0.314288 0.314318 0.314341 0.31436 0.314383 0.314399 0.314416 0.314427 0.314436 0.314442 0.314448 0.314454 0.314464 0.313341 0.313505 0.313632 0.313784 0.313869 0.31393 0.313978 0.314022 0.314056 0.314093 0.314125 0.314155 0.314186 0.31421 0.314236 0.314261 0.314282 0.314305 0.314328 0.314344 0.314366 0.31438 0.314389 0.314403 0.314417 0.314425 0.314434 0.314441 0.314447 0.31445 0.314457 0.314459 0.314063 0.31407 0.314107 0.314143 0.314183 0.314208 0.314235 0.314256 0.314268 0.314288 0.314305 0.314317 0.314332 0.314342 0.314356 0.314369 0.314378 0.314387 0.314398 0.314405 0.314414 0.314422 0.314428 0.314432 0.314438 0.314442 0.314445 0.31445 0.314454 0.314455 0.314453 0.314455 0.314743 0.314635 0.31456 0.31452 0.3145 0.314496 0.314491 0.314489 0.314486 0.314486 0.314485 0.314484 0.314483 0.314477 0.314479 0.314475 0.314472 0.31447 0.314467 0.314464 0.314464 0.314464 0.314461 0.31446 0.314456 0.314455 0.314454 0.314453 0.314452 0.314457 0.31445 0.314449 0.315421 0.315162 0.315 0.314873 0.314813 0.314777 0.314745 0.314726 0.314702 0.314684 0.314666 0.314648 0.31463 0.314611 0.314596 0.314583 0.314569 0.314554 0.31454 0.314525 0.314517 0.314508 0.314497 0.314489 0.314483 0.314478 0.314471 0.314466 0.314461 0.314458 0.314452 0.314446 0.316037 0.315697 0.315363 0.315215 0.31512 0.315057 0.315002 0.314959 0.314919 0.314881 0.314844 0.314811 0.314779 0.314748 0.314716 0.31469 0.314661 0.314637 0.314612 0.314588 0.31457 0.314549 0.314529 0.314515 0.314503 0.31449 0.314478 0.31447 0.314462 0.314456 0.314457 0.314444 0.317105 0.315882 0.315721 0.315535 0.315417 0.315329 0.315257 0.315194 0.315135 0.315077 0.315025 0.314972 0.314924 0.314873 0.314833 0.314794 0.314751 0.314716 0.314679 0.314643 0.314618 0.314589 0.314564 0.314544 0.314523 0.3145 0.314491 0.314477 0.314467 0.314458 0.314454 0.314451 0.311084 0.312626 0.312908 0.313105 0.313247 0.313368 0.313472 0.313564 0.313639 0.313711 0.31378 0.313844 0.313905 0.313961 0.314017 0.314067 0.314116 0.314159 0.314201 0.314246 0.314271 0.314308 0.314335 0.314361 0.314386 0.31441 0.314425 0.31444 0.314452 0.314458 0.314459 0.31446 0.312639 0.31278 0.313223 0.313414 0.313547 0.313646 0.313721 0.313786 0.313847 0.313902 0.313951 0.313998 0.314042 0.314086 0.314124 0.314164 0.314198 0.314232 0.314264 0.314292 0.314316 0.314341 0.314365 0.314386 0.314403 0.31442 0.314428 0.314436 0.314445 0.314454 0.314457 0.31446 0.313332 0.313479 0.313614 0.313767 0.313858 0.313924 0.313974 0.314013 0.314057 0.314091 0.314124 0.314155 0.314187 0.314213 0.314237 0.314265 0.314283 0.314309 0.31433 0.314349 0.314364 0.314377 0.314394 0.314405 0.314416 0.314425 0.314434 0.314438 0.314445 0.31445 0.314454 0.314453 0.31406 0.31406 0.314098 0.314134 0.314176 0.314204 0.314231 0.314252 0.314272 0.314288 0.314302 0.314315 0.314334 0.314343 0.314358 0.314367 0.314376 0.314389 0.314397 0.314407 0.314414 0.314421 0.314428 0.31443 0.314437 0.314442 0.314444 0.314448 0.314452 0.314453 0.314454 0.314455 0.31474 0.314639 0.314559 0.31452 0.314497 0.314494 0.314491 0.314488 0.314485 0.314485 0.314484 0.314481 0.314482 0.314475 0.314476 0.314475 0.314472 0.314469 0.314468 0.314462 0.314466 0.314463 0.314459 0.314461 0.314457 0.314456 0.314456 0.314454 0.314456 0.314455 0.314451 0.314449 0.315427 0.315175 0.315008 0.314887 0.314822 0.314776 0.314748 0.314728 0.314703 0.314685 0.314667 0.314645 0.314627 0.314609 0.314593 0.314581 0.314569 0.314552 0.314537 0.314529 0.314518 0.314506 0.314495 0.314489 0.31448 0.314473 0.31447 0.314465 0.314459 0.314457 0.314452 0.314449 0.316043 0.315722 0.315377 0.315235 0.315133 0.315059 0.315004 0.314962 0.31492 0.314883 0.314848 0.31481 0.314777 0.314746 0.314713 0.314685 0.314661 0.314636 0.314611 0.314592 0.314568 0.314548 0.31453 0.314517 0.314502 0.314487 0.314481 0.314473 0.314462 0.314455 0.314454 0.314448 0.317145 0.315904 0.315736 0.315564 0.315438 0.315339 0.315264 0.315195 0.315132 0.315077 0.315022 0.314969 0.314923 0.314874 0.314833 0.314793 0.31475 0.314716 0.314679 0.314649 0.314617 0.314592 0.314566 0.314542 0.314521 0.314503 0.31449 0.314474 0.314471 0.31446 0.314454 0.31445 0.311085 0.312638 0.312916 0.31311 0.31325 0.313367 0.313468 0.313558 0.313635 0.313713 0.313779 0.313843 0.313908 0.31396 0.314017 0.31407 0.314113 0.31416 0.3142 0.314239 0.314273 0.314307 0.314338 0.314365 0.314388 0.314403 0.314425 0.31444 0.314451 0.314459 0.314458 0.314459 0.312645 0.312787 0.313228 0.313415 0.313547 0.313644 0.31372 0.313786 0.313843 0.313898 0.31395 0.314001 0.314042 0.314083 0.314122 0.314164 0.3142 0.314233 0.314263 0.314292 0.314319 0.314341 0.314363 0.314383 0.314401 0.314414 0.314427 0.314441 0.314441 0.314451 0.314455 0.314459 0.313332 0.313481 0.313617 0.313764 0.313857 0.313923 0.313973 0.314014 0.314056 0.314089 0.314124 0.314156 0.314183 0.314213 0.31424 0.314263 0.314285 0.314311 0.314331 0.314351 0.314366 0.314381 0.314395 0.314405 0.314414 0.314422 0.314436 0.314442 0.314443 0.314448 0.314452 0.314456 0.314057 0.31406 0.314102 0.314134 0.314175 0.314206 0.314229 0.314249 0.314271 0.314287 0.314302 0.314316 0.314331 0.314344 0.314357 0.314369 0.314379 0.314388 0.314395 0.314406 0.314415 0.314421 0.314428 0.314434 0.314438 0.314441 0.314445 0.314446 0.31445 0.314453 0.314454 0.314453 0.314739 0.314636 0.314558 0.314521 0.314497 0.314492 0.314489 0.314489 0.314484 0.314484 0.314482 0.314481 0.314481 0.314479 0.314475 0.314473 0.314473 0.31447 0.31447 0.314465 0.314466 0.314463 0.314461 0.31446 0.314458 0.314453 0.314454 0.314455 0.314455 0.314454 0.314454 0.314449 0.315426 0.31517 0.315006 0.314885 0.314823 0.314778 0.314749 0.314728 0.314703 0.314685 0.314662 0.314644 0.314629 0.314611 0.314595 0.314582 0.314569 0.314551 0.314541 0.31453 0.314514 0.314505 0.314495 0.314487 0.314481 0.314473 0.314467 0.314463 0.314456 0.314455 0.314451 0.314447 0.31604 0.315715 0.315374 0.315235 0.315133 0.315062 0.315007 0.31496 0.314919 0.314886 0.314845 0.314806 0.314773 0.314742 0.314715 0.31469 0.314659 0.314631 0.31461 0.314592 0.314568 0.314549 0.314531 0.314514 0.314503 0.31449 0.31448 0.314471 0.314461 0.314458 0.314451 0.314448 0.317144 0.315894 0.315729 0.31556 0.315436 0.315341 0.315264 0.315193 0.31513 0.315076 0.315022 0.314969 0.314922 0.314875 0.314832 0.314792 0.31475 0.314712 0.314679 0.314646 0.314617 0.314591 0.314565 0.314542 0.31452 0.314504 0.314486 0.314474 0.314465 0.314459 0.314451 0.314453 0.311168 0.312693 0.312954 0.31315 0.313278 0.313383 0.313479 0.313563 0.313644 0.313713 0.313782 0.313847 0.313906 0.313965 0.314018 0.314068 0.314112 0.314157 0.314199 0.314238 0.314272 0.314309 0.314336 0.314363 0.314385 0.314406 0.314424 0.314437 0.31445 0.314459 0.31446 0.31446 0.312657 0.312834 0.313265 0.313449 0.313567 0.313654 0.313722 0.313787 0.313846 0.3139 0.31395 0.314 0.314043 0.314082 0.314123 0.314164 0.314199 0.314231 0.314261 0.314287 0.314316 0.314339 0.314363 0.314385 0.3144 0.314415 0.314426 0.31444 0.314443 0.314451 0.314455 0.314461 0.313345 0.313514 0.313641 0.313782 0.313865 0.313928 0.313976 0.314018 0.314056 0.314092 0.314124 0.314152 0.314182 0.314212 0.314237 0.314264 0.314284 0.314305 0.314328 0.314346 0.314363 0.31438 0.31439 0.314403 0.31442 0.314422 0.314433 0.314441 0.314446 0.314448 0.314451 0.314461 0.314061 0.314073 0.314107 0.314144 0.314182 0.314213 0.314234 0.314253 0.314271 0.314286 0.314303 0.314316 0.314328 0.314345 0.314354 0.314367 0.314378 0.314389 0.314396 0.314406 0.314412 0.314418 0.314423 0.31443 0.31444 0.314441 0.314448 0.314446 0.314448 0.314452 0.314452 0.314454 0.314738 0.314629 0.314552 0.31452 0.314501 0.314495 0.314493 0.31449 0.314484 0.314484 0.314485 0.31448 0.314479 0.31448 0.314474 0.314471 0.31447 0.31447 0.314469 0.314466 0.314466 0.314462 0.314461 0.314458 0.314458 0.314456 0.314454 0.314454 0.314457 0.314456 0.314452 0.314451 0.315416 0.315148 0.314992 0.314869 0.314816 0.314778 0.31475 0.314727 0.314703 0.314684 0.314666 0.314649 0.314631 0.314615 0.314596 0.314579 0.314567 0.314554 0.314541 0.31453 0.314517 0.314505 0.314495 0.314486 0.314481 0.314475 0.314465 0.314465 0.314457 0.314456 0.314452 0.314448 0.316028 0.315679 0.315348 0.315209 0.31512 0.315056 0.315006 0.31496 0.31492 0.314882 0.314847 0.314814 0.314776 0.314746 0.314719 0.314689 0.31466 0.314636 0.314614 0.314589 0.314566 0.314549 0.314534 0.314518 0.314503 0.314486 0.314478 0.314473 0.314462 0.314457 0.314451 0.314448 0.317102 0.315855 0.315693 0.315521 0.315414 0.315331 0.315257 0.315189 0.315132 0.315077 0.315024 0.314971 0.314925 0.314875 0.314832 0.314792 0.314751 0.314715 0.314681 0.314649 0.314616 0.31459 0.314562 0.314542 0.314523 0.314505 0.314487 0.314477 0.314465 0.31446 0.314452 0.314454 0.311384 0.312738 0.313091 0.313235 0.313334 0.313416 0.313497 0.313573 0.313649 0.313716 0.313786 0.313845 0.313908 0.313965 0.314018 0.314068 0.314111 0.314155 0.3142 0.314238 0.314273 0.314304 0.314332 0.314362 0.314381 0.314403 0.314421 0.314438 0.314442 0.314449 0.314458 0.314456 0.312743 0.312894 0.313354 0.313501 0.313598 0.313669 0.313731 0.313787 0.313843 0.313897 0.313946 0.313995 0.314038 0.31408 0.314123 0.314164 0.314197 0.314228 0.31426 0.314288 0.314312 0.31434 0.314361 0.31438 0.314397 0.314413 0.314425 0.314438 0.314443 0.314447 0.314454 0.31446 0.313394 0.313535 0.313709 0.313823 0.31389 0.313938 0.313978 0.314015 0.314052 0.314089 0.31412 0.31415 0.314179 0.31421 0.314236 0.314262 0.314281 0.314304 0.314324 0.314343 0.314363 0.314377 0.314393 0.314402 0.314417 0.314424 0.314434 0.314442 0.314444 0.314451 0.314457 0.314461 0.314083 0.314087 0.314138 0.31417 0.314195 0.314221 0.314238 0.314252 0.314269 0.314285 0.314301 0.314316 0.314332 0.314346 0.314357 0.314367 0.314377 0.314386 0.314395 0.314405 0.314411 0.314417 0.314427 0.314433 0.314442 0.314441 0.314447 0.314453 0.314449 0.314452 0.314452 0.314452 0.314727 0.314628 0.314546 0.314518 0.314502 0.314499 0.314494 0.314493 0.31449 0.314485 0.314484 0.314483 0.314481 0.314477 0.314481 0.314475 0.314473 0.314471 0.314472 0.314468 0.314466 0.314461 0.314462 0.314461 0.314463 0.314457 0.314457 0.314458 0.314453 0.314455 0.314451 0.314449 0.315373 0.315131 0.314944 0.31485 0.314808 0.314779 0.314753 0.314728 0.314708 0.314689 0.31467 0.314651 0.314633 0.314617 0.3146 0.314585 0.31457 0.314556 0.314543 0.314531 0.314521 0.314511 0.314501 0.314488 0.314482 0.314475 0.314467 0.314465 0.314457 0.314456 0.31445 0.314445 0.315954 0.315639 0.31527 0.315167 0.315101 0.315049 0.315007 0.314966 0.314924 0.314887 0.314849 0.314817 0.31478 0.31475 0.31472 0.314691 0.314664 0.314639 0.314616 0.314592 0.31457 0.314549 0.314534 0.31452 0.314504 0.314492 0.314478 0.314473 0.314467 0.314459 0.314452 0.314448 0.316957 0.315835 0.315582 0.315458 0.31538 0.315315 0.315253 0.315193 0.315135 0.315077 0.315025 0.314973 0.314928 0.314883 0.314836 0.314797 0.314755 0.314717 0.314687 0.314653 0.314619 0.314594 0.314567 0.314547 0.314525 0.314509 0.314493 0.314481 0.314469 0.314462 0.314455 0.314455 0.311186 0.313151 0.313247 0.313319 0.313378 0.313444 0.313516 0.313584 0.313655 0.313718 0.313785 0.313847 0.31391 0.313963 0.314019 0.314066 0.314116 0.31416 0.314198 0.314237 0.31427 0.314302 0.314327 0.314352 0.314375 0.314398 0.314418 0.314434 0.314439 0.314446 0.314453 0.314454 0.312438 0.313205 0.313503 0.313579 0.313628 0.313674 0.313726 0.313776 0.313828 0.313882 0.313929 0.313981 0.314024 0.314073 0.314114 0.314151 0.314188 0.314223 0.314253 0.314281 0.31431 0.314337 0.314361 0.314376 0.314391 0.314409 0.314422 0.314439 0.31444 0.314448 0.314453 0.314459 0.31325 0.313739 0.313811 0.31389 0.313925 0.313952 0.313983 0.31402 0.314054 0.314082 0.314114 0.314146 0.314176 0.314205 0.314232 0.314256 0.314279 0.314304 0.314319 0.314338 0.314363 0.314376 0.314393 0.314399 0.314415 0.314424 0.314432 0.314438 0.314443 0.314449 0.314455 0.314458 0.31403 0.314171 0.314182 0.314198 0.314214 0.314231 0.31424 0.314254 0.314273 0.314287 0.314303 0.314315 0.314331 0.314344 0.314355 0.314367 0.314377 0.314388 0.314396 0.314404 0.31441 0.314418 0.314426 0.314428 0.314437 0.314441 0.314441 0.314445 0.314448 0.314451 0.314453 0.314453 0.314762 0.314585 0.314537 0.314514 0.314501 0.314502 0.314499 0.314496 0.314496 0.314491 0.314493 0.314488 0.314484 0.314482 0.314477 0.314477 0.314475 0.314472 0.31447 0.314466 0.314466 0.314462 0.314462 0.314462 0.314459 0.314459 0.314459 0.314455 0.314453 0.314451 0.314451 0.314448 0.315491 0.314967 0.314882 0.31482 0.314795 0.314776 0.314757 0.314735 0.314716 0.314695 0.314676 0.314657 0.314639 0.314622 0.314603 0.314587 0.314572 0.314559 0.314543 0.314531 0.314524 0.31451 0.3145 0.314489 0.314478 0.314474 0.314467 0.314464 0.314458 0.314457 0.314454 0.314445 0.316197 0.315381 0.315179 0.315122 0.315082 0.315049 0.315011 0.314976 0.314937 0.3149 0.314864 0.314826 0.314792 0.314759 0.314726 0.314698 0.314671 0.314641 0.314619 0.314596 0.314575 0.314556 0.314538 0.31452 0.314505 0.314495 0.314479 0.314471 0.314461 0.314459 0.314452 0.314443 0.317193 0.315504 0.315463 0.315403 0.315358 0.315306 0.315248 0.315191 0.315139 0.315084 0.315027 0.31498 0.31493 0.314886 0.314839 0.314796 0.31476 0.314724 0.314689 0.314658 0.314625 0.314595 0.314572 0.314549 0.314526 0.31451 0.314493 0.314481 0.314471 0.314461 0.314455 0.31445 
