# vtk DataFile Version 5.1
vtk output
ASCII

DATASET UNSTRUCTURED_GRID
POINTS 2673 float
0 0 2.3
0.125 0 2.3
0.25 0 2.3
0.375 0 2.3
0.5 0 2.3
0.625 0 2.3
0.75 0 2.3
0.875 0 2.3
1 0 2.3
1.125 0 2.3
1.25 0 2.3
1.375 0 2.3
1.5 0 2.3
1.625 0 2.3
1.75 0 2.3
1.875 0 2.3
2 0 2.3
2.125 0 2.3
2.25 0 2.3
2.375 0 2.3
2.5 0 2.3
2.625 0 2.3
2.75 0 2.3
2.875 0 2.3
3 0 2.3
3.125 0 2.3
3.25 0 2.3
3.375 0 2.3
3.5 0 2.3
3.625 0 2.3
3.75 0 2.3
3.875 0 2.3
4 0 2.3
0 0.125 2.3
0.125 0.125 2.3
0.25 0.125 2.3
0.375 0.125 2.3
0.5 0.125 2.3
0.625 0.125 2.3
0.75 0.125 2.3
0.875 0.125 2.3
1 0.125 2.3
1.125 0.125 2.3
1.25 0.125 2.3
1.375 0.125 2.3
1.5 0.125 2.3
1.625 0.125 2.3
1.75 0.125 2.3
1.875 0.125 2.3
2 0.125 2.3
2.125 0.125 2.3
2.25 0.125 2.3
2.375 0.125 2.3
2.5 0.125 2.3
2.625 0.125 2.3
2.75 0.125 2.3
2.875 0.125 2.3
3 0.125 2.3
3.125 0.125 2.3
3.25 0.125 2.3
3.375 0.125 2.3
3.5 0.125 2.3
3.625 0.125 2.3
3.75 0.125 2.3
3.875 0.125 2.3
4 0.125 2.3
0 0.25 2.3
0.125 0.25 2.3
0.25 0.25 2.3
0.375 0.25 2.3
0.5 0.25 2.3
0.625 0.25 2.3
0.75 0.25 2.3
0.875 0.25 2.3
1 0.25 2.3
1.125 0.25 2.3
1.25 0.25 2.3
1.375 0.25 2.3
1.5 0.25 2.3
1.625 0.25 2.3
1.75 0.25 2.3
1.875 0.25 2.3
2 0.25 2.3
2.125 0.25 2.3
2.25 0.25 2.3
2.375 0.25 2.3
2.5 0.25 2.3
2.625 0.25 2.3
2.75 0.25 2.3
2.875 0.25 2.3
3 0.25 2.3
3.125 0.25 2.3
3.25 0.25 2.3
3.375 0.25 2.3
3.5 0.25 2.3
3.625 0.25 2.3
3.75 0.25 2.3
3.875 0.25 2.3
4 0.25 2.3
0 0.375 2.3
0.125 0.375 2.3
0.25 0.375 2.3
0.375 0.375 2.3
0.5 0.375 2.3
0.625 0.375 2.3
0.75 0.375 2.3
0.875 0.375 2.3
1 0.375 2.3
1.125 0.375 2.3
1.25 0.375 2.3
1.375 0.375 2.3
1.5 0.375 2.3
1.625 0.375 2.3
1.75 0.375 2.3
1.875 0.375 2.3
2 0.375 2.3
2.125 0.375 2.3
2.25 0.375 2.3
2.375 0.375 2.3
2.5 0.375 2.3
2.625 0.375 2.3
2.75 0.375 2.3
2.875 0.375 2.3
3 0.375 2.3
3.125 0.375 2.3
3.25 0.375 2.3
3.375 0.375 2.3
3.5 0.375 2.3
3.625 0.375 2.3
3.75 0.375 2.3
3.875 0.375 2.3
4 0.375 2.3
0 0.5 2.3
0.125 0.5 2.3
0.25 0.5 2.3
0.375 0.5 2.3
0.5 0.5 2.3
0.625 0.5 2.3
0.75 0.5 2.3
0.875 0.5 2.3
1 0.5 2.3
1.125 0.5 2.3
1.25 0.5 2.3
1.375 0.5 2.3
1.5 0.5 2.3
1.625 0.5 2.3
1.75 0.5 2.3
1.875 0.5 2.3
2 0.5 2.3
2.125 0.5 2.3
2.25 0.5 2.3
2.375 0.5 2.3
2.5 0.5 2.3
2.625 0.5 2.3
2.75 0.5 2.3
2.875 0.5 2.3
3 0.5 2.3
3.125 0.5 2.3
3.25 0.5 2.3
3.375 0.5 2.3
3.5 0.5 2.3
3.625 0.5 2.3
3.75 0.5 2.3
3.875 0.5 2.3
4 0.5 2.3
0 0.625 2.3
0.125 0.625 2.3
0.25 0.625 2.3
0.375 0.625 2.3
0.5 0.625 2.3
0.625 0.625 2.3
0.75 0.625 2.3
0.875 0.625 2.3
1 0.625 2.3
1.125 0.625 2.3
1.25 0.625 2.3
1.375 0.625 2.3
1.5 0.625 2.3
1.625 0.625 2.3
1.75 0.625 2.3
1.875 0.625 2.3
2 0.625 2.3
2.125 0.625 2.3
2.25 0.625 2.3
2.375 0.625 2.3
2.5 0.625 2.3
2.625 0.625 2.3
2.75 0.625 2.3
2.875 0.625 2.3
3 0.625 2.3
3.125 0.625 2.3
3.25 0.625 2.3
3.375 0.625 2.3
3.5 0.625 2.3
3.625 0.625 2.3
3.75 0.625 2.3
3.875 0.625 2.3
4 0.625 2.3
0 0.75 2.3
0.125 0.75 2.3
0.25 0.75 2.3
0.375 0.75 2.3
0.5 0.75 2.3
0.625 0.75 2.3
0.75 0.75 2.3
0.875 0.75 2.3
1 0.75 2.3
1.125 0.75 2.3
1.25 0.75 2.3
1.375 0.75 2.3
1.5 0.75 2.3
1.625 0.75 2.3
1.75 0.75 2.3
1.875 0.75 2.3
2 0.75 2.3
2.125 0.75 2.3
2.25 0.75 2.3
2.375 0.75 2.3
2.5 0.75 2.3
2.625 0.75 2.3
2.75 0.75 2.3
2.875 0.75 2.3
3 0.75 2.3
3.125 0.75 2.3
3.25 0.75 2.3
3.375 0.75 2.3
3.5 0.75 2.3
3.625 0.75 2.3
3.75 0.75 2.3
3.875 0.75 2.3
4 0.75 2.3
0 0.875 2.3
0.125 0.875 2.3
0.25 0.875 2.3
0.375 0.875 2.3
0.5 0.875 2.3
0.625 0.875 2.3
0.75 0.875 2.3
0.875 0.875 2.3
1 0.875 2.3
1.125 0.875 2.3
1.25 0.875 2.3
1.375 0.875 2.3
1.5 0.875 2.3
1.625 0.875 2.3
1.75 0.875 2.3
1.875 0.875 2.3
2 0.875 2.3
2.125 0.875 2.3
2.25 0.875 2.3
2.375 0.875 2.3
2.5 0.875 2.3
2.625 0.875 2.3
2.75 0.875 2.3
2.875 0.875 2.3
3 0.875 2.3
3.125 0.875 2.3
3.25 0.875 2.3
3.375 0.875 2.3
3.5 0.875 2.3
3.625 0.875 2.3
3.75 0.875 2.3
3.875 0.875 2.3
4 0.875 2.3
0 1 2.3
0.125 1 2.3
0.25 1 2.3
0.375 1 2.3
0.5 1 2.3
0.625 1 2.3
0.75 1 2.3
0.875 1 2.3
1 1 2.3
1.125 1 2.3
1.25 1 2.3
1.375 1 2.3
1.5 1 2.3
1.625 1 2.3
1.75 1 2.3
1.875 1 2.3
2 1 2.3
2.125 1 2.3
2.25 1 2.3
2.375 1 2.3
2.5 1 2.3
2.625 1 2.3
2.75 1 2.3
2.875 1 2.3
3 1 2.3
3.125 1 2.3
3.25 1 2.3
3.375 1 2.3
3.5 1 2.3
3.625 1 2.3
3.75 1 2.3
3.875 1 2.3
4 1 2.3
0 0 2.425
0.125 0 2.425
0.25 0 2.425
0.375 0 2.425
0.5 0 2.425
0.625 0 2.425
0.75 0 2.425
0.875 0 2.425
1 0 2.425
1.125 0 2.425
1.25 0 2.425
1.375 0 2.425
1.5 0 2.425
1.625 0 2.425
1.75 0 2.425
1.875 0 2.425
2 0 2.425
2.125 0 2.425
2.25 0 2.425
2.375 0 2.425
2.5 0 2.425
2.625 0 2.425
2.75 0 2.425
2.875 0 2.425
3 0 2.425
3.125 0 2.425
3.25 0 2.425
3.375 0 2.425
3.5 0 2.425
3.625 0 2.425
3.75 0 2.425
3.875 0 2.425
4 0 2.425
0 0.125 2.425
0.125 0.125 2.425
0.25 0.125 2.425
0.375 0.125 2.425
0.5 0.125 2.425
0.625 0.125 2.425
0.75 0.125 2.425
0.875 0.125 2.425
1 0.125 2.425
1.125 0.125 2.425
1.25 0.125 2.425
1.375 0.125 2.425
1.5 0.125 2.425
1.625 0.125 2.425
1.75 0.125 2.425
1.875 0.125 2.425
2 0.125 2.425
2.125 0.125 2.425
2.25 0.125 2.425
2.375 0.125 2.425
2.5 0.125 2.425
2.625 0.125 2.425
2.75 0.125 2.425
2.875 0.125 2.425
3 0.125 2.425
3.125 0.125 2.425
3.25 0.125 2.425
3.375 0.125 2.425
3.5 0.125 2.425
3.625 0.125 2.425
3.75 0.125 2.425
3.875 0.125 2.425
4 0.125 2.425
0 0.25 2.425
0.125 0.25 2.425
0.25 0.25 2.425
0.375 0.25 2.425
0.5 0.25 2.425
0.625 0.25 2.425
0.75 0.25 2.425
0.875 0.25 2.425
1 0.25 2.425
1.125 0.25 2.425
1.25 0.25 2.425
1.375 0.25 2.425
1.5 0.25 2.425
1.625 0.25 2.425
1.75 0.25 2.425
1.875 0.25 2.425
2 0.25 2.425
2.125 0.25 2.425
2.25 0.25 2.425
2.375 0.25 2.425
2.5 0.25 2.425
2.625 0.25 2.425
2.75 0.25 2.425
2.875 0.25 2.425
3 0.25 2.425
3.125 0.25 2.425
3.25 0.25 2.425
3.375 0.25 2.425
3.5 0.25 2.425
3.625 0.25 2.425
3.75 0.25 2.425
3.875 0.25 2.425
4 0.25 2.425
0 0.375 2.425
0.125 0.375 2.425
0.25 0.375 2.425
0.375 0.375 2.425
0.5 0.375 2.425
0.625 0.375 2.425
0.75 0.375 2.425
0.875 0.375 2.425
1 0.375 2.425
1.125 0.375 2.425
1.25 0.375 2.425
1.375 0.375 2.425
1.5 0.375 2.425
1.625 0.375 2.425
1.75 0.375 2.425
1.875 0.375 2.425
2 0.375 2.425
2.125 0.375 2.425
2.25 0.375 2.425
2.375 0.375 2.425
2.5 0.375 2.425
2.625 0.375 2.425
2.75 0.375 2.425
2.875 0.375 2.425
3 0.375 2.425
3.125 0.375 2.425
3.25 0.375 2.425
3.375 0.375 2.425
3.5 0.375 2.425
3.625 0.375 2.425
3.75 0.375 2.425
3.875 0.375 2.425
4 0.375 2.425
0 0.5 2.425
0.125 0.5 2.425
0.25 0.5 2.425
0.375 0.5 2.425
0.5 0.5 2.425
0.625 0.5 2.425
0.75 0.5 2.425
0.875 0.5 2.425
1 0.5 2.425
1.125 0.5 2.425
1.25 0.5 2.425
1.375 0.5 2.425
1.5 0.5 2.425
1.625 0.5 2.425
1.75 0.5 2.425
1.875 0.5 2.425
2 0.5 2.425
2.125 0.5 2.425
2.25 0.5 2.425
2.375 0.5 2.425
2.5 0.5 2.425
2.625 0.5 2.425
2.75 0.5 2.425
2.875 0.5 2.425
3 0.5 2.425
3.125 0.5 2.425
3.25 0.5 2.425
3.375 0.5 2.425
3.5 0.5 2.425
3.625 0.5 2.425
3.75 0.5 2.425
3.875 0.5 2.425
4 0.5 2.425
0 0.625 2.425
0.125 0.625 2.425
0.25 0.625 2.425
0.375 0.625 2.425
0.5 0.625 2.425
0.625 0.625 2.425
0.75 0.625 2.425
0.875 0.625 2.425
1 0.625 2.425
1.125 0.625 2.425
1.25 0.625 2.425
1.375 0.625 2.425
1.5 0.625 2.425
1.625 0.625 2.425
1.75 0.625 2.425
1.875 0.625 2.425
2 0.625 2.425
2.125 0.625 2.425
2.25 0.625 2.425
2.375 0.625 2.425
2.5 0.625 2.425
2.625 0.625 2.425
2.75 0.625 2.425
2.875 0.625 2.425
3 0.625 2.425
3.125 0.625 2.425
3.25 0.625 2.425
3.375 0.625 2.425
3.5 0.625 2.425
3.625 0.625 2.425
3.75 0.625 2.425
3.875 0.625 2.425
4 0.625 2.425
0 0.75 2.425
0.125 0.75 2.425
0.25 0.75 2.425
0.375 0.75 2.425
0.5 0.75 2.425
0.625 0.75 2.425
0.75 0.75 2.425
0.875 0.75 2.425
1 0.75 2.425
1.125 0.75 2.425
1.25 0.75 2.425
1.375 0.75 2.425
1.5 0.75 2.425
1.625 0.75 2.425
1.75 0.75 2.425
1.875 0.75 2.425
2 0.75 2.425
2.125 0.75 2.425
2.25 0.75 2.425
2.375 0.75 2.425
2.5 0.75 2.425
2.625 0.75 2.425
2.75 0.75 2.425
2.875 0.75 2.425
3 0.75 2.425
3.125 0.75 2.425
3.25 0.75 2.425
3.375 0.75 2.425
3.5 0.75 2.425
3.625 0.75 2.425
3.75 0.75 2.425
3.875 0.75 2.425
4 0.75 2.425
0 0.875 2.425
0.125 0.875 2.425
0.25 0.875 2.425
0.375 0.875 2.425
0.5 0.875 2.425
0.625 0.875 2.425
0.75 0.875 2.425
0.875 0.875 2.425
1 0.875 2.425
1.125 0.875 2.425
1.25 0.875 2.425
1.375 0.875 2.425
1.5 0.875 2.425
1.625 0.875 2.425
1.75 0.875 2.425
1.875 0.875 2.425
2 0.875 2.425
2.125 0.875 2.425
2.25 0.875 2.425
2.375 0.875 2.425
2.5 0.875 2.425
2.625 0.875 2.425
2.75 0.875 2.425
2.875 0.875 2.425
3 0.875 2.425
3.125 0.875 2.425
3.25 0.875 2.425
3.375 0.875 2.425
3.5 0.875 2.425
3.625 0.875 2.425
3.75 0.875 2.425
3.875 0.875 2.425
4 0.875 2.425
0 1 2.425
0.125 1 2.425
0.25 1 2.425
0.375 1 2.425
0.5 1 2.425
0.625 1 2.425
0.75 1 2.425
0.875 1 2.425
1 1 2.425
1.125 1 2.425
1.25 1 2.425
1.375 1 2.425
1.5 1 2.425
1.625 1 2.425
1.75 1 2.425
1.875 1 2.425
2 1 2.425
2.125 1 2.425
2.25 1 2.425
2.375 1 2.425
2.5 1 2.425
2.625 1 2.425
2.75 1 2.425
2.875 1 2.425
3 1 2.425
3.125 1 2.425
3.25 1 2.425
3.375 1 2.425
3.5 1 2.425
3.625 1 2.425
3.75 1 2.425
3.875 1 2.425
4 1 2.425
0 0 2.55
0.125 0 2.55
0.25 0 2.55
0.375 0 2.55
0.5 0 2.55
0.625 0 2.55
0.75 0 2.55
0.875 0 2.55
1 0 2.55
1.125 0 2.55
1.25 0 2.55
1.375 0 2.55
1.5 0 2.55
1.625 0 2.55
1.75 0 2.55
1.875 0 2.55
2 0 2.55
2.125 0 2.55
2.25 0 2.55
2.375 0 2.55
2.5 0 2.55
2.625 0 2.55
2.75 0 2.55
2.875 0 2.55
3 0 2.55
3.125 0 2.55
3.25 0 2.55
3.375 0 2.55
3.5 0 2.55
3.625 0 2.55
3.75 0 2.55
3.875 0 2.55
4 0 2.55
0 0.125 2.55
0.125 0.125 2.55
0.25 0.125 2.55
0.375 0.125 2.55
0.5 0.125 2.55
0.625 0.125 2.55
0.75 0.125 2.55
0.875 0.125 2.55
1 0.125 2.55
1.125 0.125 2.55
1.25 0.125 2.55
1.375 0.125 2.55
1.5 0.125 2.55
1.625 0.125 2.55
1.75 0.125 2.55
1.875 0.125 2.55
2 0.125 2.55
2.125 0.125 2.55
2.25 0.125 2.55
2.375 0.125 2.55
2.5 0.125 2.55
2.625 0.125 2.55
2.75 0.125 2.55
2.875 0.125 2.55
3 0.125 2.55
3.125 0.125 2.55
3.25 0.125 2.55
3.375 0.125 2.55
3.5 0.125 2.55
3.625 0.125 2.55
3.75 0.125 2.55
3.875 0.125 2.55
4 0.125 2.55
0 0.25 2.55
0.125 0.25 2.55
0.25 0.25 2.55
0.375 0.25 2.55
0.5 0.25 2.55
0.625 0.25 2.55
0.75 0.25 2.55
0.875 0.25 2.55
1 0.25 2.55
1.125 0.25 2.55
1.25 0.25 2.55
1.375 0.25 2.55
1.5 0.25 2.55
1.625 0.25 2.55
1.75 0.25 2.55
1.875 0.25 2.55
2 0.25 2.55
2.125 0.25 2.55
2.25 0.25 2.55
2.375 0.25 2.55
2.5 0.25 2.55
2.625 0.25 2.55
2.75 0.25 2.55
2.875 0.25 2.55
3 0.25 2.55
3.125 0.25 2.55
3.25 0.25 2.55
3.375 0.25 2.55
3.5 0.25 2.55
3.625 0.25 2.55
3.75 0.25 2.55
3.875 0.25 2.55
4 0.25 2.55
0 0.375 2.55
0.125 0.375 2.55
0.25 0.375 2.55
0.375 0.375 2.55
0.5 0.375 2.55
0.625 0.375 2.55
0.75 0.375 2.55
0.875 0.375 2.55
1 0.375 2.55
1.125 0.375 2.55
1.25 0.375 2.55
1.375 0.375 2.55
1.5 0.375 2.55
1.625 0.375 2.55
1.75 0.375 2.55
1.875 0.375 2.55
2 0.375 2.55
2.125 0.375 2.55
2.25 0.375 2.55
2.375 0.375 2.55
2.5 0.375 2.55
2.625 0.375 2.55
2.75 0.375 2.55
2.875 0.375 2.55
3 0.375 2.55
3.125 0.375 2.55
3.25 0.375 2.55
3.375 0.375 2.55
3.5 0.375 2.55
3.625 0.375 2.55
3.75 0.375 2.55
3.875 0.375 2.55
4 0.375 2.55
0 0.5 2.55
0.125 0.5 2.55
0.25 0.5 2.55
0.375 0.5 2.55
0.5 0.5 2.55
0.625 0.5 2.55
0.75 0.5 2.55
0.875 0.5 2.55
1 0.5 2.55
1.125 0.5 2.55
1.25 0.5 2.55
1.375 0.5 2.55
1.5 0.5 2.55
1.625 0.5 2.55
1.75 0.5 2.55
1.875 0.5 2.55
2 0.5 2.55
2.125 0.5 2.55
2.25 0.5 2.55
2.375 0.5 2.55
2.5 0.5 2.55
2.625 0.5 2.55
2.75 0.5 2.55
2.875 0.5 2.55
3 0.5 2.55
3.125 0.5 2.55
3.25 0.5 2.55
3.375 0.5 2.55
3.5 0.5 2.55
3.625 0.5 2.55
3.75 0.5 2.55
3.875 0.5 2.55
4 0.5 2.55
0 0.625 2.55
0.125 0.625 2.55
0.25 0.625 2.55
0.375 0.625 2.55
0.5 0.625 2.55
0.625 0.625 2.55
0.75 0.625 2.55
0.875 0.625 2.55
1 0.625 2.55
1.125 0.625 2.55
1.25 0.625 2.55
1.375 0.625 2.55
1.5 0.625 2.55
1.625 0.625 2.55
1.75 0.625 2.55
1.875 0.625 2.55
2 0.625 2.55
2.125 0.625 2.55
2.25 0.625 2.55
2.375 0.625 2.55
2.5 0.625 2.55
2.625 0.625 2.55
2.75 0.625 2.55
2.875 0.625 2.55
3 0.625 2.55
3.125 0.625 2.55
3.25 0.625 2.55
3.375 0.625 2.55
3.5 0.625 2.55
3.625 0.625 2.55
3.75 0.625 2.55
3.875 0.625 2.55
4 0.625 2.55
0 0.75 2.55
0.125 0.75 2.55
0.25 0.75 2.55
0.375 0.75 2.55
0.5 0.75 2.55
0.625 0.75 2.55
0.75 0.75 2.55
0.875 0.75 2.55
1 0.75 2.55
1.125 0.75 2.55
1.25 0.75 2.55
1.375 0.75 2.55
1.5 0.75 2.55
1.625 0.75 2.55
1.75 0.75 2.55
1.875 0.75 2.55
2 0.75 2.55
2.125 0.75 2.55
2.25 0.75 2.55
2.375 0.75 2.55
2.5 0.75 2.55
2.625 0.75 2.55
2.75 0.75 2.55
2.875 0.75 2.55
3 0.75 2.55
3.125 0.75 2.55
3.25 0.75 2.55
3.375 0.75 2.55
3.5 0.75 2.55
3.625 0.75 2.55
3.75 0.75 2.55
3.875 0.75 2.55
4 0.75 2.55
0 0.875 2.55
0.125 0.875 2.55
0.25 0.875 2.55
0.375 0.875 2.55
0.5 0.875 2.55
0.625 0.875 2.55
0.75 0.875 2.55
0.875 0.875 2.55
1 0.875 2.55
1.125 0.875 2.55
1.25 0.875 2.55
1.375 0.875 2.55
1.5 0.875 2.55
1.625 0.875 2.55
1.75 0.875 2.55
1.875 0.875 2.55
2 0.875 2.55
2.125 0.875 2.55
2.25 0.875 2.55
2.375 0.875 2.55
2.5 0.875 2.55
2.625 0.875 2.55
2.75 0.875 2.55
2.875 0.875 2.55
3 0.875 2.55
3.125 0.875 2.55
3.25 0.875 2.55
3.375 0.875 2.55
3.5 0.875 2.55
3.625 0.875 2.55
3.75 0.875 2.55
3.875 0.875 2.55
4 0.875 2.55
0 1 2.55
0.125 1 2.55
0.25 1 2.55
0.375 1 2.55
0.5 1 2.55
0.625 1 2.55
0.75 1 2.55
0.875 1 2.55
1 1 2.55
1.125 1 2.55
1.25 1 2.55
1.375 1 2.55
1.5 1 2.55
1.625 1 2.55
1.75 1 2.55
1.875 1 2.55
2 1 2.55
2.125 1 2.55
2.25 1 2.55
2.375 1 2.55
2.5 1 2.55
2.625 1 2.55
2.75 1 2.55
2.875 1 2.55
3 1 2.55
3.125 1 2.55
3.25 1 2.55
3.375 1 2.55
3.5 1 2.55
3.625 1 2.55
3.75 1 2.55
3.875 1 2.55
4 1 2.55
0 0 2.675
0.125 0 2.675
0.25 0 2.675
0.375 0 2.675
0.5 0 2.675
0.625 0 2.675
0.75 0 2.675
0.875 0 2.675
1 0 2.675
1.125 0 2.675
1.25 0 2.675
1.375 0 2.675
1.5 0 2.675
1.625 0 2.675
1.75 0 2.675
1.875 0 2.675
2 0 2.675
2.125 0 2.675
2.25 0 2.675
2.375 0 2.675
2.5 0 2.675
2.625 0 2.675
2.75 0 2.675
2.875 0 2.675
3 0 2.675
3.125 0 2.675
3.25 0 2.675
3.375 0 2.675
3.5 0 2.675
3.625 0 2.675
3.75 0 2.675
3.875 0 2.675
4 0 2.675
0 0.125 2.675
0.125 0.125 2.675
0.25 0.125 2.675
0.375 0.125 2.675
0.5 0.125 2.675
0.625 0.125 2.675
0.75 0.125 2.675
0.875 0.125 2.675
1 0.125 2.675
1.125 0.125 2.675
1.25 0.125 2.675
1.375 0.125 2.675
1.5 0.125 2.675
1.625 0.125 2.675
1.75 0.125 2.675
1.875 0.125 2.675
2 0.125 2.675
2.125 0.125 2.675
2.25 0.125 2.675
2.375 0.125 2.675
2.5 0.125 2.675
2.625 0.125 2.675
2.75 0.125 2.675
2.875 0.125 2.675
3 0.125 2.675
3.125 0.125 2.675
3.25 0.125 2.675
3.375 0.125 2.675
3.5 0.125 2.675
3.625 0.125 2.675
3.75 0.125 2.675
3.875 0.125 2.675
4 0.125 2.675
0 0.25 2.675
0.125 0.25 2.675
0.25 0.25 2.675
0.375 0.25 2.675
0.5 0.25 2.675
0.625 0.25 2.675
0.75 0.25 2.675
0.875 0.25 2.675
1 0.25 2.675
1.125 0.25 2.675
1.25 0.25 2.675
1.375 0.25 2.675
1.5 0.25 2.675
1.625 0.25 2.675
1.75 0.25 2.675
1.875 0.25 2.675
2 0.25 2.675
2.125 0.25 2.675
2.25 0.25 2.675
2.375 0.25 2.675
2.5 0.25 2.675
2.625 0.25 2.675
2.75 0.25 2.675
2.875 0.25 2.675
3 0.25 2.675
3.125 0.25 2.675
3.25 0.25 2.675
3.375 0.25 2.675
3.5 0.25 2.675
3.625 0.25 2.675
3.75 0.25 2.675
3.875 0.25 2.675
4 0.25 2.675
0 0.375 2.675
0.125 0.375 2.675
0.25 0.375 2.675
0.375 0.375 2.675
0.5 0.375 2.675
0.625 0.375 2.675
0.75 0.375 2.675
0.875 0.375 2.675
1 0.375 2.675
1.125 0.375 2.675
1.25 0.375 2.675
1.375 0.375 2.675
1.5 0.375 2.675
1.625 0.375 2.675
1.75 0.375 2.675
1.875 0.375 2.675
2 0.375 2.675
2.125 0.375 2.675
2.25 0.375 2.675
2.375 0.375 2.675
2.5 0.375 2.675
2.625 0.375 2.675
2.75 0.375 2.675
2.875 0.375 2.675
3 0.375 2.675
3.125 0.375 2.675
3.25 0.375 2.675
3.375 0.375 2.675
3.5 0.375 2.675
3.625 0.375 2.675
3.75 0.375 2.675
3.875 0.375 2.675
4 0.375 2.675
0 0.5 2.675
0.125 0.5 2.675
0.25 0.5 2.675
0.375 0.5 2.675
0.5 0.5 2.675
0.625 0.5 2.675
0.75 0.5 2.675
0.875 0.5 2.675
1 0.5 2.675
1.125 0.5 2.675
1.25 0.5 2.675
1.375 0.5 2.675
1.5 0.5 2.675
1.625 0.5 2.675
1.75 0.5 2.675
1.875 0.5 2.675
2 0.5 2.675
2.125 0.5 2.675
2.25 0.5 2.675
2.375 0.5 2.675
2.5 0.5 2.675
2.625 0.5 2.675
2.75 0.5 2.675
2.875 0.5 2.675
3 0.5 2.675
3.125 0.5 2.675
3.25 0.5 2.675
3.375 0.5 2.675
3.5 0.5 2.675
3.625 0.5 2.675
3.75 0.5 2.675
3.875 0.5 2.675
4 0.5 2.675
0 0.625 2.675
0.125 0.625 2.675
0.25 0.625 2.675
0.375 0.625 2.675
0.5 0.625 2.675
0.625 0.625 2.675
0.75 0.625 2.675
0.875 0.625 2.675
1 0.625 2.675
1.125 0.625 2.675
1.25 0.625 2.675
1.375 0.625 2.675
1.5 0.625 2.675
1.625 0.625 2.675
1.75 0.625 2.675
1.875 0.625 2.675
2 0.625 2.675
2.125 0.625 2.675
2.25 0.625 2.675
2.375 0.625 2.675
2.5 0.625 2.675
2.625 0.625 2.675
2.75 0.625 2.675
2.875 0.625 2.675
3 0.625 2.675
3.125 0.625 2.675
3.25 0.625 2.675
3.375 0.625 2.675
3.5 0.625 2.675
3.625 0.625 2.675
3.75 0.625 2.675
3.875 0.625 2.675
4 0.625 2.675
0 0.75 2.675
0.125 0.75 2.675
0.25 0.75 2.675
0.375 0.75 2.675
0.5 0.75 2.675
0.625 0.75 2.675
0.75 0.75 2.675
0.875 0.75 2.675
1 0.75 2.675
1.125 0.75 2.675
1.25 0.75 2.675
1.375 0.75 2.675
1.5 0.75 2.675
1.625 0.75 2.675
1.75 0.75 2.675
1.875 0.75 2.675
2 0.75 2.675
2.125 0.75 2.675
2.25 0.75 2.675
2.375 0.75 2.675
2.5 0.75 2.675
2.625 0.75 2.675
2.75 0.75 2.675
2.875 0.75 2.675
3 0.75 2.675
3.125 0.75 2.675
3.25 0.75 2.675
3.375 0.75 2.675
3.5 0.75 2.675
3.625 0.75 2.675
3.75 0.75 2.675
3.875 0.75 2.675
4 0.75 2.675
0 0.875 2.675
0.125 0.875 2.675
0.25 0.875 2.675
0.375 0.875 2.675
0.5 0.875 2.675
0.625 0.875 2.675
0.75 0.875 2.675
0.875 0.875 2.675
1 0.875 2.675
1.125 0.875 2.675
1.25 0.875 2.675
1.375 0.875 2.675
1.5 0.875 2.675
1.625 0.875 2.675
1.75 0.875 2.675
1.875 0.875 2.675
2 0.875 2.675
2.125 0.875 2.675
2.25 0.875 2.675
2.375 0.875 2.675
2.5 0.875 2.675
2.625 0.875 2.675
2.75 0.875 2.675
2.875 0.875 2.675
3 0.875 2.675
3.125 0.875 2.675
3.25 0.875 2.675
3.375 0.875 2.675
3.5 0.875 2.675
3.625 0.875 2.675
3.75 0.875 2.675
3.875 0.875 2.675
4 0.875 2.675
0 1 2.675
0.125 1 2.675
0.25 1 2.675
0.375 1 2.675
0.5 1 2.675
0.625 1 2.675
0.75 1 2.675
0.875 1 2.675
1 1 2.675
1.125 1 2.675
1.25 1 2.675
1.375 1 2.675
1.5 1 2.675
1.625 1 2.675
1.75 1 2.675
1.875 1 2.675
2 1 2.675
2.125 1 2.675
2.25 1 2.675
2.375 1 2.675
2.5 1 2.675
2.625 1 2.675
2.75 1 2.675
2.875 1 2.675
3 1 2.675
3.125 1 2.675
3.25 1 2.675
3.375 1 2.675
3.5 1 2.675
3.625 1 2.675
3.75 1 2.675
3.875 1 2.675
4 1 2.675
0 0 2.8
0.125 0 2.8
0.25 0 2.8
0.375 0 2.8
0.5 0 2.8
0.625 0 2.8
0.75 0 2.8
0.875 0 2.8
1 0 2.8
1.125 0 2.8
1.25 0 2.8
1.375 0 2.8
1.5 0 2.8
1.625 0 2.8
1.75 0 2.8
1.875 0 2.8
2 0 2.8
2.125 0 2.8
2.25 0 2.8
2.375 0 2.8
2.5 0 2.8
2.625 0 2.8
2.75 0 2.8
2.875 0 2.8
3 0 2.8
3.125 0 2.8
3.25 0 2.8
3.375 0 2.8
3.5 0 2.8
3.625 0 2.8
3.75 0 2.8
3.875 0 2.8
4 0 2.8
0 0.125 2.8
0.125 0.125 2.8
0.25 0.125 2.8
0.375 0.125 2.8
0.5 0.125 2.8
0.625 0.125 2.8
0.75 0.125 2.8
0.875 0.125 2.8
1 0.125 2.8
1.125 0.125 2.8
1.25 0.125 2.8
1.375 0.125 2.8
1.5 0.125 2.8
1.625 0.125 2.8
1.75 0.125 2.8
1.875 0.125 2.8
2 0.125 2.8
2.125 0.125 2.8
2.25 0.125 2.8
2.375 0.125 2.8
2.5 0.125 2.8
2.625 0.125 2.8
2.75 0.125 2.8
2.875 0.125 2.8
3 0.125 2.8
3.125 0.125 2.8
3.25 0.125 2.8
3.375 0.125 2.8
3.5 0.125 2.8
3.625 0.125 2.8
3.75 0.125 2.8
3.875 0.125 2.8
4 0.125 2.8
0 0.25 2.8
0.125 0.25 2.8
0.25 0.25 2.8
0.375 0.25 2.8
0.5 0.25 2.8
0.625 0.25 2.8
0.75 0.25 2.8
0.875 0.25 2.8
1 0.25 2.8
1.125 0.25 2.8
1.25 0.25 2.8
1.375 0.25 2.8
1.5 0.25 2.8
1.625 0.25 2.8
1.75 0.25 2.8
1.875 0.25 2.8
2 0.25 2.8
2.125 0.25 2.8
2.25 0.25 2.8
2.375 0.25 2.8
2.5 0.25 2.8
2.625 0.25 2.8
2.75 0.25 2.8
2.875 0.25 2.8
3 0.25 2.8
3.125 0.25 2.8
3.25 0.25 2.8
3.375 0.25 2.8
3.5 0.25 2.8
3.625 0.25 2.8
3.75 0.25 2.8
3.875 0.25 2.8
4 0.25 2.8
0 0.375 2.8
0.125 0.375 2.8
0.25 0.375 2.8
0.375 0.375 2.8
0.5 0.375 2.8
0.625 0.375 2.8
0.75 0.375 2.8
0.875 0.375 2.8
1 0.375 2.8
1.125 0.375 2.8
1.25 0.375 2.8
1.375 0.375 2.8
1.5 0.375 2.8
1.625 0.375 2.8
1.75 0.375 2.8
1.875 0.375 2.8
2 0.375 2.8
2.125 0.375 2.8
2.25 0.375 2.8
2.375 0.375 2.8
2.5 0.375 2.8
2.625 0.375 2.8
2.75 0.375 2.8
2.875 0.375 2.8
3 0.375 2.8
3.125 0.375 2.8
3.25 0.375 2.8
3.375 0.375 2.8
3.5 0.375 2.8
3.625 0.375 2.8
3.75 0.375 2.8
3.875 0.375 2.8
4 0.375 2.8
0 0.5 2.8
0.125 0.5 2.8
0.25 0.5 2.8
0.375 0.5 2.8
0.5 0.5 2.8
0.625 0.5 2.8
0.75 0.5 2.8
0.875 0.5 2.8
1 0.5 2.8
1.125 0.5 2.8
1.25 0.5 2.8
1.375 0.5 2.8
1.5 0.5 2.8
1.625 0.5 2.8
1.75 0.5 2.8
1.875 0.5 2.8
2 0.5 2.8
2.125 0.5 2.8
2.25 0.5 2.8
2.375 0.5 2.8
2.5 0.5 2.8
2.625 0.5 2.8
2.75 0.5 2.8
2.875 0.5 2.8
3 0.5 2.8
3.125 0.5 2.8
3.25 0.5 2.8
3.375 0.5 2.8
3.5 0.5 2.8
3.625 0.5 2.8
3.75 0.5 2.8
3.875 0.5 2.8
4 0.5 2.8
0 0.625 2.8
0.125 0.625 2.8
0.25 0.625 2.8
0.375 0.625 2.8
0.5 0.625 2.8
0.625 0.625 2.8
0.75 0.625 2.8
0.875 0.625 2.8
1 0.625 2.8
1.125 0.625 2.8
1.25 0.625 2.8
1.375 0.625 2.8
1.5 0.625 2.8
1.625 0.625 2.8
1.75 0.625 2.8
1.875 0.625 2.8
2 0.625 2.8
2.125 0.625 2.8
2.25 0.625 2.8
2.375 0.625 2.8
2.5 0.625 2.8
2.625 0.625 2.8
2.75 0.625 2.8
2.875 0.625 2.8
3 0.625 2.8
3.125 0.625 2.8
3.25 0.625 2.8
3.375 0.625 2.8
3.5 0.625 2.8
3.625 0.625 2.8
3.75 0.625 2.8
3.875 0.625 2.8
4 0.625 2.8
0 0.75 2.8
0.125 0.75 2.8
0.25 0.75 2.8
0.375 0.75 2.8
0.5 0.75 2.8
0.625 0.75 2.8
0.75 0.75 2.8
0.875 0.75 2.8
1 0.75 2.8
1.125 0.75 2.8
1.25 0.75 2.8
1.375 0.75 2.8
1.5 0.75 2.8
1.625 0.75 2.8
1.75 0.75 2.8
1.875 0.75 2.8
2 0.75 2.8
2.125 0.75 2.8
2.25 0.75 2.8
2.375 0.75 2.8
2.5 0.75 2.8
2.625 0.75 2.8
2.75 0.75 2.8
2.875 0.75 2.8
3 0.75 2.8
3.125 0.75 2.8
3.25 0.75 2.8
3.375 0.75 2.8
3.5 0.75 2.8
3.625 0.75 2.8
3.75 0.75 2.8
3.875 0.75 2.8
4 0.75 2.8
0 0.875 2.8
0.125 0.875 2.8
0.25 0.875 2.8
0.375 0.875 2.8
0.5 0.875 2.8
0.625 0.875 2.8
0.75 0.875 2.8
0.875 0.875 2.8
1 0.875 2.8
1.125 0.875 2.8
1.25 0.875 2.8
1.375 0.875 2.8
1.5 0.875 2.8
1.625 0.875 2.8
1.75 0.875 2.8
1.875 0.875 2.8
2 0.875 2.8
2.125 0.875 2.8
2.25 0.875 2.8
2.375 0.875 2.8
2.5 0.875 2.8
2.625 0.875 2.8
2.75 0.875 2.8
2.875 0.875 2.8
3 0.875 2.8
3.125 0.875 2.8
3.25 0.875 2.8
3.375 0.875 2.8
3.5 0.875 2.8
3.625 0.875 2.8
3.75 0.875 2.8
3.875 0.875 2.8
4 0.875 2.8
0 1 2.8
0.125 1 2.8
0.25 1 2.8
0.375 1 2.8
0.5 1 2.8
0.625 1 2.8
0.75 1 2.8
0.875 1 2.8
1 1 2.8
1.125 1 2.8
1.25 1 2.8
1.375 1 2.8
1.5 1 2.8
1.625 1 2.8
1.75 1 2.8
1.875 1 2.8
2 1 2.8
2.125 1 2.8
2.25 1 2.8
2.375 1 2.8
2.5 1 2.8
2.625 1 2.8
2.75 1 2.8
2.875 1 2.8
3 1 2.8
3.125 1 2.8
3.25 1 2.8
3.375 1 2.8
3.5 1 2.8
3.625 1 2.8
3.75 1 2.8
3.875 1 2.8
4 1 2.8
0 0 2.925
0.125 0 2.925
0.25 0 2.925
0.375 0 2.925
0.5 0 2.925
0.625 0 2.925
0.75 0 2.925
0.875 0 2.925
1 0 2.925
1.125 0 2.925
1.25 0 2.925
1.375 0 2.925
1.5 0 2.925
1.625 0 2.925
1.75 0 2.925
1.875 0 2.925
2 0 2.925
2.125 0 2.925
2.25 0 2.925
2.375 0 2.925
2.5 0 2.925
2.625 0 2.925
2.75 0 2.925
2.875 0 2.925
3 0 2.925
3.125 0 2.925
3.25 0 2.925
3.375 0 2.925
3.5 0 2.925
3.625 0 2.925
3.75 0 2.925
3.875 0 2.925
4 0 2.925
0 0.125 2.925
0.125 0.125 2.925
0.25 0.125 2.925
0.375 0.125 2.925
0.5 0.125 2.925
0.625 0.125 2.925
0.75 0.125 2.925
0.875 0.125 2.925
1 0.125 2.925
1.125 0.125 2.925
1.25 0.125 2.925
1.375 0.125 2.925
1.5 0.125 2.925
1.625 0.125 2.925
1.75 0.125 2.925
1.875 0.125 2.925
2 0.125 2.925
2.125 0.125 2.925
2.25 0.125 2.925
2.375 0.125 2.925
2.5 0.125 2.925
2.625 0.125 2.925
2.75 0.125 2.925
2.875 0.125 2.925
3 0.125 2.925
3.125 0.125 2.925
3.25 0.125 2.925
3.375 0.125 2.925
3.5 0.125 2.925
3.625 0.125 2.925
3.75 0.125 2.925
3.875 0.125 2.925
4 0.125 2.925
0 0.25 2.925
0.125 0.25 2.925
0.25 0.25 2.925
0.375 0.25 2.925
0.5 0.25 2.925
0.625 0.25 2.925
0.75 0.25 2.925
0.875 0.25 2.925
1 0.25 2.925
1.125 0.25 2.925
1.25 0.25 2.925
1.375 0.25 2.925
1.5 0.25 2.925
1.625 0.25 2.925
1.75 0.25 2.925
1.875 0.25 2.925
2 0.25 2.925
2.125 0.25 2.925
2.25 0.25 2.925
2.375 0.25 2.925
2.5 0.25 2.925
2.625 0.25 2.925
2.75 0.25 2.925
2.875 0.25 2.925
3 0.25 2.925
3.125 0.25 2.925
3.25 0.25 2.925
3.375 0.25 2.925
3.5 0.25 2.925
3.625 0.25 2.925
3.75 0.25 2.925
3.875 0.25 2.925
4 0.25 2.925
0 0.375 2.925
0.125 0.375 2.925
0.25 0.375 2.925
0.375 0.375 2.925
0.5 0.375 2.925
0.625 0.375 2.925
0.75 0.375 2.925
0.875 0.375 2.925
1 0.375 2.925
1.125 0.375 2.925
1.25 0.375 2.925
1.375 0.375 2.925
1.5 0.375 2.925
1.625 0.375 2.925
1.75 0.375 2.925
1.875 0.375 2.925
2 0.375 2.925
2.125 0.375 2.925
2.25 0.375 2.925
2.375 0.375 2.925
2.5 0.375 2.925
2.625 0.375 2.925
2.75 0.375 2.925
2.875 0.375 2.925
3 0.375 2.925
3.125 0.375 2.925
3.25 0.375 2.925
3.375 0.375 2.925
3.5 0.375 2.925
3.625 0.375 2.925
3.75 0.375 2.925
3.875 0.375 2.925
4 0.375 2.925
0 0.5 2.925
0.125 0.5 2.925
0.25 0.5 2.925
0.375 0.5 2.925
0.5 0.5 2.925
0.625 0.5 2.925
0.75 0.5 2.925
0.875 0.5 2.925
1 0.5 2.925
1.125 0.5 2.925
1.25 0.5 2.925
1.375 0.5 2.925
1.5 0.5 2.925
1.625 0.5 2.925
1.75 0.5 2.925
1.875 0.5 2.925
2 0.5 2.925
2.125 0.5 2.925
2.25 0.5 2.925
2.375 0.5 2.925
2.5 0.5 2.925
2.625 0.5 2.925
2.75 0.5 2.925
2.875 0.5 2.925
3 0.5 2.925
3.125 0.5 2.925
3.25 0.5 2.925
3.375 0.5 2.925
3.5 0.5 2.925
3.625 0.5 2.925
3.75 0.5 2.925
3.875 0.5 2.925
4 0.5 2.925
0 0.625 2.925
0.125 0.625 2.925
0.25 0.625 2.925
0.375 0.625 2.925
0.5 0.625 2.925
0.625 0.625 2.925
0.75 0.625 2.925
0.875 0.625 2.925
1 0.625 2.925
1.125 0.625 2.925
1.25 0.625 2.925
1.375 0.625 2.925
1.5 0.625 2.925
1.625 0.625 2.925
1.75 0.625 2.925
1.875 0.625 2.925
2 0.625 2.925
2.125 0.625 2.925
2.25 0.625 2.925
2.375 0.625 2.925
2.5 0.625 2.925
2.625 0.625 2.925
2.75 0.625 2.925
2.875 0.625 2.925
3 0.625 2.925
3.125 0.625 2.925
3.25 0.625 2.925
3.375 0.625 2.925
3.5 0.625 2.925
3.625 0.625 2.925
3.75 0.625 2.925
3.875 0.625 2.925
4 0.625 2.925
0 0.75 2.925
0.125 0.75 2.925
0.25 0.75 2.925
0.375 0.75 2.925
0.5 0.75 2.925
0.625 0.75 2.925
0.75 0.75 2.925
0.875 0.75 2.925
1 0.75 2.925
1.125 0.75 2.925
1.25 0.75 2.925
1.375 0.75 2.925
1.5 0.75 2.925
1.625 0.75 2.925
1.75 0.75 2.925
1.875 0.75 2.925
2 0.75 2.925
2.125 0.75 2.925
2.25 0.75 2.925
2.375 0.75 2.925
2.5 0.75 2.925
2.625 0.75 2.925
2.75 0.75 2.925
2.875 0.75 2.925
3 0.75 2.925
3.125 0.75 2.925
3.25 0.75 2.925
3.375 0.75 2.925
3.5 0.75 2.925
3.625 0.75 2.925
3.75 0.75 2.925
3.875 0.75 2.925
4 0.75 2.925
0 0.875 2.925
0.125 0.875 2.925
0.25 0.875 2.925
0.375 0.875 2.925
0.5 0.875 2.925
0.625 0.875 2.925
0.75 0.875 2.925
0.875 0.875 2.925
1 0.875 2.925
1.125 0.875 2.925
1.25 0.875 2.925
1.375 0.875 2.925
1.5 0.875 2.925
1.625 0.875 2.925
1.75 0.875 2.925
1.875 0.875 2.925
2 0.875 2.925
2.125 0.875 2.925
2.25 0.875 2.925
2.375 0.875 2.925
2.5 0.875 2.925
2.625 0.875 2.925
2.75 0.875 2.925
2.875 0.875 2.925
3 0.875 2.925
3.125 0.875 2.925
3.25 0.875 2.925
3.375 0.875 2.925
3.5 0.875 2.925
3.625 0.875 2.925
3.75 0.875 2.925
3.875 0.875 2.925
4 0.875 2.925
0 1 2.925
0.125 1 2.925
0.25 1 2.925
0.375 1 2.925
0.5 1 2.925
0.625 1 2.925
0.75 1 2.925
0.875 1 2.925
1 1 2.925
1.125 1 2.925
1.25 1 2.925
1.375 1 2.925
1.5 1 2.925
1.625 1 2.925
1.75 1 2.925
1.875 1 2.925
2 1 2.925
2.125 1 2.925
2.25 1 2.925
2.375 1 2.925
2.5 1 2.925
2.625 1 2.925
2.75 1 2.925
2.875 1 2.925
3 1 2.925
3.125 1 2.925
3.25 1 2.925
3.375 1 2.925
3.5 1 2.925
3.625 1 2.925
3.75 1 2.925
3.875 1 2.925
4 1 2.925
0 0 3.05
0.125 0 3.05
0.25 0 3.05
0.375 0 3.05
0.5 0 3.05
0.625 0 3.05
0.75 0 3.05
0.875 0 3.05
1 0 3.05
1.125 0 3.05
1.25 0 3.05
1.375 0 3.05
1.5 0 3.05
1.625 0 3.05
1.75 0 3.05
1.875 0 3.05
2 0 3.05
2.125 0 3.05
2.25 0 3.05
2.375 0 3.05
2.5 0 3.05
2.625 0 3.05
2.75 0 3.05
2.875 0 3.05
3 0 3.05
3.125 0 3.05
3.25 0 3.05
3.375 0 3.05
3.5 0 3.05
3.625 0 3.05
3.75 0 3.05
3.875 0 3.05
4 0 3.05
0 0.125 3.05
0.125 0.125 3.05
0.25 0.125 3.05
0.375 0.125 3.05
0.5 0.125 3.05
0.625 0.125 3.05
0.75 0.125 3.05
0.875 0.125 3.05
1 0.125 3.05
1.125 0.125 3.05
1.25 0.125 3.05
1.375 0.125 3.05
1.5 0.125 3.05
1.625 0.125 3.05
1.75 0.125 3.05
1.875 0.125 3.05
2 0.125 3.05
2.125 0.125 3.05
2.25 0.125 3.05
2.375 0.125 3.05
2.5 0.125 3.05
2.625 0.125 3.05
2.75 0.125 3.05
2.875 0.125 3.05
3 0.125 3.05
3.125 0.125 3.05
3.25 0.125 3.05
3.375 0.125 3.05
3.5 0.125 3.05
3.625 0.125 3.05
3.75 0.125 3.05
3.875 0.125 3.05
4 0.125 3.05
0 0.25 3.05
0.125 0.25 3.05
0.25 0.25 3.05
0.375 0.25 3.05
0.5 0.25 3.05
0.625 0.25 3.05
0.75 0.25 3.05
0.875 0.25 3.05
1 0.25 3.05
1.125 0.25 3.05
1.25 0.25 3.05
1.375 0.25 3.05
1.5 0.25 3.05
1.625 0.25 3.05
1.75 0.25 3.05
1.875 0.25 3.05
2 0.25 3.05
2.125 0.25 3.05
2.25 0.25 3.05
2.375 0.25 3.05
2.5 0.25 3.05
2.625 0.25 3.05
2.75 0.25 3.05
2.875 0.25 3.05
3 0.25 3.05
3.125 0.25 3.05
3.25 0.25 3.05
3.375 0.25 3.05
3.5 0.25 3.05
3.625 0.25 3.05
3.75 0.25 3.05
3.875 0.25 3.05
4 0.25 3.05
0 0.375 3.05
0.125 0.375 3.05
0.25 0.375 3.05
0.375 0.375 3.05
0.5 0.375 3.05
0.625 0.375 3.05
0.75 0.375 3.05
0.875 0.375 3.05
1 0.375 3.05
1.125 0.375 3.05
1.25 0.375 3.05
1.375 0.375 3.05
1.5 0.375 3.05
1.625 0.375 3.05
1.75 0.375 3.05
1.875 0.375 3.05
2 0.375 3.05
2.125 0.375 3.05
2.25 0.375 3.05
2.375 0.375 3.05
2.5 0.375 3.05
2.625 0.375 3.05
2.75 0.375 3.05
2.875 0.375 3.05
3 0.375 3.05
3.125 0.375 3.05
3.25 0.375 3.05
3.375 0.375 3.05
3.5 0.375 3.05
3.625 0.375 3.05
3.75 0.375 3.05
3.875 0.375 3.05
4 0.375 3.05
0 0.5 3.05
0.125 0.5 3.05
0.25 0.5 3.05
0.375 0.5 3.05
0.5 0.5 3.05
0.625 0.5 3.05
0.75 0.5 3.05
0.875 0.5 3.05
1 0.5 3.05
1.125 0.5 3.05
1.25 0.5 3.05
1.375 0.5 3.05
1.5 0.5 3.05
1.625 0.5 3.05
1.75 0.5 3.05
1.875 0.5 3.05
2 0.5 3.05
2.125 0.5 3.05
2.25 0.5 3.05
2.375 0.5 3.05
2.5 0.5 3.05
2.625 0.5 3.05
2.75 0.5 3.05
2.875 0.5 3.05
3 0.5 3.05
3.125 0.5 3.05
3.25 0.5 3.05
3.375 0.5 3.05
3.5 0.5 3.05
3.625 0.5 3.05
3.75 0.5 3.05
3.875 0.5 3.05
4 0.5 3.05
0 0.625 3.05
0.125 0.625 3.05
0.25 0.625 3.05
0.375 0.625 3.05
0.5 0.625 3.05
0.625 0.625 3.05
0.75 0.625 3.05
0.875 0.625 3.05
1 0.625 3.05
1.125 0.625 3.05
1.25 0.625 3.05
1.375 0.625 3.05
1.5 0.625 3.05
1.625 0.625 3.05
1.75 0.625 3.05
1.875 0.625 3.05
2 0.625 3.05
2.125 0.625 3.05
2.25 0.625 3.05
2.375 0.625 3.05
2.5 0.625 3.05
2.625 0.625 3.05
2.75 0.625 3.05
2.875 0.625 3.05
3 0.625 3.05
3.125 0.625 3.05
3.25 0.625 3.05
3.375 0.625 3.05
3.5 0.625 3.05
3.625 0.625 3.05
3.75 0.625 3.05
3.875 0.625 3.05
4 0.625 3.05
0 0.75 3.05
0.125 0.75 3.05
0.25 0.75 3.05
0.375 0.75 3.05
0.5 0.75 3.05
0.625 0.75 3.05
0.75 0.75 3.05
0.875 0.75 3.05
1 0.75 3.05
1.125 0.75 3.05
1.25 0.75 3.05
1.375 0.75 3.05
1.5 0.75 3.05
1.625 0.75 3.05
1.75 0.75 3.05
1.875 0.75 3.05
2 0.75 3.05
2.125 0.75 3.05
2.25 0.75 3.05
2.375 0.75 3.05
2.5 0.75 3.05
2.625 0.75 3.05
2.75 0.75 3.05
2.875 0.75 3.05
3 0.75 3.05
3.125 0.75 3.05
3.25 0.75 3.05
3.375 0.75 3.05
3.5 0.75 3.05
3.625 0.75 3.05
3.75 0.75 3.05
3.875 0.75 3.05
4 0.75 3.05
0 0.875 3.05
0.125 0.875 3.05
0.25 0.875 3.05
0.375 0.875 3.05
0.5 0.875 3.05
0.625 0.875 3.05
0.75 0.875 3.05
0.875 0.875 3.05
1 0.875 3.05
1.125 0.875 3.05
1.25 0.875 3.05
1.375 0.875 3.05
1.5 0.875 3.05
1.625 0.875 3.05
1.75 0.875 3.05
1.875 0.875 3.05
2 0.875 3.05
2.125 0.875 3.05
2.25 0.875 3.05
2.375 0.875 3.05
2.5 0.875 3.05
2.625 0.875 3.05
2.75 0.875 3.05
2.875 0.875 3.05
3 0.875 3.05
3.125 0.875 3.05
3.25 0.875 3.05
3.375 0.875 3.05
3.5 0.875 3.05
3.625 0.875 3.05
3.75 0.875 3.05
3.875 0.875 3.05
4 0.875 3.05
0 1 3.05
0.125 1 3.05
0.25 1 3.05
0.375 1 3.05
0.5 1 3.05
0.625 1 3.05
0.75 1 3.05
0.875 1 3.05
1 1 3.05
1.125 1 3.05
1.25 1 3.05
1.375 1 3.05
1.5 1 3.05
1.625 1 3.05
1.75 1 3.05
1.875 1 3.05
2 1 3.05
2.125 1 3.05
2.25 1 3.05
2.375 1 3.05
2.5 1 3.05
2.625 1 3.05
2.75 1 3.05
2.875 1 3.05
3 1 3.05
3.125 1 3.05
3.25 1 3.05
3.375 1 3.05
3.5 1 3.05
3.625 1 3.05
3.75 1 3.05
3.875 1 3.05
4 1 3.05
0 0 3.175
0.125 0 3.175
0.25 0 3.175
0.375 0 3.175
0.5 0 3.175
0.625 0 3.175
0.75 0 3.175
0.875 0 3.175
1 0 3.175
1.125 0 3.175
1.25 0 3.175
1.375 0 3.175
1.5 0 3.175
1.625 0 3.175
1.75 0 3.175
1.875 0 3.175
2 0 3.175
2.125 0 3.175
2.25 0 3.175
2.375 0 3.175
2.5 0 3.175
2.625 0 3.175
2.75 0 3.175
2.875 0 3.175
3 0 3.175
3.125 0 3.175
3.25 0 3.175
3.375 0 3.175
3.5 0 3.175
3.625 0 3.175
3.75 0 3.175
3.875 0 3.175
4 0 3.175
0 0.125 3.175
0.125 0.125 3.175
0.25 0.125 3.175
0.375 0.125 3.175
0.5 0.125 3.175
0.625 0.125 3.175
0.75 0.125 3.175
0.875 0.125 3.175
1 0.125 3.175
1.125 0.125 3.175
1.25 0.125 3.175
1.375 0.125 3.175
1.5 0.125 3.175
1.625 0.125 3.175
1.75 0.125 3.175
1.875 0.125 3.175
2 0.125 3.175
2.125 0.125 3.175
2.25 0.125 3.175
2.375 0.125 3.175
2.5 0.125 3.175
2.625 0.125 3.175
2.75 0.125 3.175
2.875 0.125 3.175
3 0.125 3.175
3.125 0.125 3.175
3.25 0.125 3.175
3.375 0.125 3.175
3.5 0.125 3.175
3.625 0.125 3.175
3.75 0.125 3.175
3.875 0.125 3.175
4 0.125 3.175
0 0.25 3.175
0.125 0.25 3.175
0.25 0.25 3.175
0.375 0.25 3.175
0.5 0.25 3.175
0.625 0.25 3.175
0.75 0.25 3.175
0.875 0.25 3.175
1 0.25 3.175
1.125 0.25 3.175
1.25 0.25 3.175
1.375 0.25 3.175
1.5 0.25 3.175
1.625 0.25 3.175
1.75 0.25 3.175
1.875 0.25 3.175
2 0.25 3.175
2.125 0.25 3.175
2.25 0.25 3.175
2.375 0.25 3.175
2.5 0.25 3.175
2.625 0.25 3.175
2.75 0.25 3.175
2.875 0.25 3.175
3 0.25 3.175
3.125 0.25 3.175
3.25 0.25 3.175
3.375 0.25 3.175
3.5 0.25 3.175
3.625 0.25 3.175
3.75 0.25 3.175
3.875 0.25 3.175
4 0.25 3.175
0 0.375 3.175
0.125 0.375 3.175
0.25 0.375 3.175
0.375 0.375 3.175
0.5 0.375 3.175
0.625 0.375 3.175
0.75 0.375 3.175
0.875 0.375 3.175
1 0.375 3.175
1.125 0.375 3.175
1.25 0.375 3.175
1.375 0.375 3.175
1.5 0.375 3.175
1.625 0.375 3.175
1.75 0.375 3.175
1.875 0.375 3.175
2 0.375 3.175
2.125 0.375 3.175
2.25 0.375 3.175
2.375 0.375 3.175
2.5 0.375 3.175
2.625 0.375 3.175
2.75 0.375 3.175
2.875 0.375 3.175
3 0.375 3.175
3.125 0.375 3.175
3.25 0.375 3.175
3.375 0.375 3.175
3.5 0.375 3.175
3.625 0.375 3.175
3.75 0.375 3.175
3.875 0.375 3.175
4 0.375 3.175
0 0.5 3.175
0.125 0.5 3.175
0.25 0.5 3.175
0.375 0.5 3.175
0.5 0.5 3.175
0.625 0.5 3.175
0.75 0.5 3.175
0.875 0.5 3.175
1 0.5 3.175
1.125 0.5 3.175
1.25 0.5 3.175
1.375 0.5 3.175
1.5 0.5 3.175
1.625 0.5 3.175
1.75 0.5 3.175
1.875 0.5 3.175
2 0.5 3.175
2.125 0.5 3.175
2.25 0.5 3.175
2.375 0.5 3.175
2.5 0.5 3.175
2.625 0.5 3.175
2.75 0.5 3.175
2.875 0.5 3.175
3 0.5 3.175
3.125 0.5 3.175
3.25 0.5 3.175
3.375 0.5 3.175
3.5 0.5 3.175
3.625 0.5 3.175
3.75 0.5 3.175
3.875 0.5 3.175
4 0.5 3.175
0 0.625 3.175
0.125 0.625 3.175
0.25 0.625 3.175
0.375 0.625 3.175
0.5 0.625 3.175
0.625 0.625 3.175
0.75 0.625 3.175
0.875 0.625 3.175
1 0.625 3.175
1.125 0.625 3.175
1.25 0.625 3.175
1.375 0.625 3.175
1.5 0.625 3.175
1.625 0.625 3.175
1.75 0.625 3.175
1.875 0.625 3.175
2 0.625 3.175
2.125 0.625 3.175
2.25 0.625 3.175
2.375 0.625 3.175
2.5 0.625 3.175
2.625 0.625 3.175
2.75 0.625 3.175
2.875 0.625 3.175
3 0.625 3.175
3.125 0.625 3.175
3.25 0.625 3.175
3.375 0.625 3.175
3.5 0.625 3.175
3.625 0.625 3.175
3.75 0.625 3.175
3.875 0.625 3.175
4 0.625 3.175
0 0.75 3.175
0.125 0.75 3.175
0.25 0.75 3.175
0.375 0.75 3.175
0.5 0.75 3.175
0.625 0.75 3.175
0.75 0.75 3.175
0.875 0.75 3.175
1 0.75 3.175
1.125 0.75 3.175
1.25 0.75 3.175
1.375 0.75 3.175
1.5 0.75 3.175
1.625 0.75 3.175
1.75 0.75 3.175
1.875 0.75 3.175
2 0.75 3.175
2.125 0.75 3.175
2.25 0.75 3.175
2.375 0.75 3.175
2.5 0.75 3.175
2.625 0.75 3.175
2.75 0.75 3.175
2.875 0.75 3.175
3 0.75 3.175
3.125 0.75 3.175
3.25 0.75 3.175
3.375 0.75 3.175
3.5 0.75 3.175
3.625 0.75 3.175
3.75 0.75 3.175
3.875 0.75 3.175
4 0.75 3.175
0 0.875 3.175
0.125 0.875 3.175
0.25 0.875 3.175
0.375 0.875 3.175
0.5 0.875 3.175
0.625 0.875 3.175
0.75 0.875 3.175
0.875 0.875 3.175
1 0.875 3.175
1.125 0.875 3.175
1.25 0.875 3.175
1.375 0.875 3.175
1.5 0.875 3.175
1.625 0.875 3.175
1.75 0.875 3.175
1.875 0.875 3.175
2 0.875 3.175
2.125 0.875 3.175
2.25 0.875 3.175
2.375 0.875 3.175
2.5 0.875 3.175
2.625 0.875 3.175
2.75 0.875 3.175
2.875 0.875 3.175
3 0.875 3.175
3.125 0.875 3.175
3.25 0.875 3.175
3.375 0.875 3.175
3.5 0.875 3.175
3.625 0.875 3.175
3.75 0.875 3.175
3.875 0.875 3.175
4 0.875 3.175
0 1 3.175
0.125 1 3.175
0.25 1 3.175
0.375 1 3.175
0.5 1 3.175
0.625 1 3.175
0.75 1 3.175
0.875 1 3.175
1 1 3.175
1.125 1 3.175
1.25 1 3.175
1.375 1 3.175
1.5 1 3.175
1.625 1 3.175
1.75 1 3.175
1.875 1 3.175
2 1 3.175
2.125 1 3.175
2.25 1 3.175
2.375 1 3.175
2.5 1 3.175
2.625 1 3.175
2.75 1 3.175
2.875 1 3.175
3 1 3.175
3.125 1 3.175
3.25 1 3.175
3.375 1 3.175
3.5 1 3.175
3.625 1 3.175
3.75 1 3.175
3.875 1 3.175
4 1 3.175
0 0 3.3
0.125 0 3.3
0.25 0 3.3
0.375 0 3.3
0.5 0 3.3
0.625 0 3.3
0.75 0 3.3
0.875 0 3.3
1 0 3.3
1.125 0 3.3
1.25 0 3.3
1.375 0 3.3
1.5 0 3.3
1.625 0 3.3
1.75 0 3.3
1.875 0 3.3
2 0 3.3
2.125 0 3.3
2.25 0 3.3
2.375 0 3.3
2.5 0 3.3
2.625 0 3.3
2.75 0 3.3
2.875 0 3.3
3 0 3.3
3.125 0 3.3
3.25 0 3.3
3.375 0 3.3
3.5 0 3.3
3.625 0 3.3
3.75 0 3.3
3.875 0 3.3
4 0 3.3
0 0.125 3.3
0.125 0.125 3.3
0.25 0.125 3.3
0.375 0.125 3.3
0.5 0.125 3.3
0.625 0.125 3.3
0.75 0.125 3.3
0.875 0.125 3.3
1 0.125 3.3
1.125 0.125 3.3
1.25 0.125 3.3
1.375 0.125 3.3
1.5 0.125 3.3
1.625 0.125 3.3
1.75 0.125 3.3
1.875 0.125 3.3
2 0.125 3.3
2.125 0.125 3.3
2.25 0.125 3.3
2.375 0.125 3.3
2.5 0.125 3.3
2.625 0.125 3.3
2.75 0.125 3.3
2.875 0.125 3.3
3 0.125 3.3
3.125 0.125 3.3
3.25 0.125 3.3
3.375 0.125 3.3
3.5 0.125 3.3
3.625 0.125 3.3
3.75 0.125 3.3
3.875 0.125 3.3
4 0.125 3.3
0 0.25 3.3
0.125 0.25 3.3
0.25 0.25 3.3
0.375 0.25 3.3
0.5 0.25 3.3
0.625 0.25 3.3
0.75 0.25 3.3
0.875 0.25 3.3
1 0.25 3.3
1.125 0.25 3.3
1.25 0.25 3.3
1.375 0.25 3.3
1.5 0.25 3.3
1.625 0.25 3.3
1.75 0.25 3.3
1.875 0.25 3.3
2 0.25 3.3
2.125 0.25 3.3
2.25 0.25 3.3
2.375 0.25 3.3
2.5 0.25 3.3
2.625 0.25 3.3
2.75 0.25 3.3
2.875 0.25 3.3
3 0.25 3.3
3.125 0.25 3.3
3.25 0.25 3.3
3.375 0.25 3.3
3.5 0.25 3.3
3.625 0.25 3.3
3.75 0.25 3.3
3.875 0.25 3.3
4 0.25 3.3
0 0.375 3.3
0.125 0.375 3.3
0.25 0.375 3.3
0.375 0.375 3.3
0.5 0.375 3.3
0.625 0.375 3.3
0.75 0.375 3.3
0.875 0.375 3.3
1 0.375 3.3
1.125 0.375 3.3
1.25 0.375 3.3
1.375 0.375 3.3
1.5 0.375 3.3
1.625 0.375 3.3
1.75 0.375 3.3
1.875 0.375 3.3
2 0.375 3.3
2.125 0.375 3.3
2.25 0.375 3.3
2.375 0.375 3.3
2.5 0.375 3.3
2.625 0.375 3.3
2.75 0.375 3.3
2.875 0.375 3.3
3 0.375 3.3
3.125 0.375 3.3
3.25 0.375 3.3
3.375 0.375 3.3
3.5 0.375 3.3
3.625 0.375 3.3
3.75 0.375 3.3
3.875 0.375 3.3
4 0.375 3.3
0 0.5 3.3
0.125 0.5 3.3
0.25 0.5 3.3
0.375 0.5 3.3
0.5 0.5 3.3
0.625 0.5 3.3
0.75 0.5 3.3
0.875 0.5 3.3
1 0.5 3.3
1.125 0.5 3.3
1.25 0.5 3.3
1.375 0.5 3.3
1.5 0.5 3.3
1.625 0.5 3.3
1.75 0.5 3.3
1.875 0.5 3.3
2 0.5 3.3
2.125 0.5 3.3
2.25 0.5 3.3
2.375 0.5 3.3
2.5 0.5 3.3
2.625 0.5 3.3
2.75 0.5 3.3
2.875 0.5 3.3
3 0.5 3.3
3.125 0.5 3.3
3.25 0.5 3.3
3.375 0.5 3.3
3.5 0.5 3.3
3.625 0.5 3.3
3.75 0.5 3.3
3.875 0.5 3.3
4 0.5 3.3
0 0.625 3.3
0.125 0.625 3.3
0.25 0.625 3.3
0.375 0.625 3.3
0.5 0.625 3.3
0.625 0.625 3.3
0.75 0.625 3.3
0.875 0.625 3.3
1 0.625 3.3
1.125 0.625 3.3
1.25 0.625 3.3
1.375 0.625 3.3
1.5 0.625 3.3
1.625 0.625 3.3
1.75 0.625 3.3
1.875 0.625 3.3
2 0.625 3.3
2.125 0.625 3.3
2.25 0.625 3.3
2.375 0.625 3.3
2.5 0.625 3.3
2.625 0.625 3.3
2.75 0.625 3.3
2.875 0.625 3.3
3 0.625 3.3
3.125 0.625 3.3
3.25 0.625 3.3
3.375 0.625 3.3
3.5 0.625 3.3
3.625 0.625 3.3
3.75 0.625 3.3
3.875 0.625 3.3
4 0.625 3.3
0 0.75 3.3
0.125 0.75 3.3
0.25 0.75 3.3
0.375 0.75 3.3
0.5 0.75 3.3
0.625 0.75 3.3
0.75 0.75 3.3
0.875 0.75 3.3
1 0.75 3.3
1.125 0.75 3.3
1.25 0.75 3.3
1.375 0.75 3.3
1.5 0.75 3.3
1.625 0.75 3.3
1.75 0.75 3.3
1.875 0.75 3.3
2 0.75 3.3
2.125 0.75 3.3
2.25 0.75 3.3
2.375 0.75 3.3
2.5 0.75 3.3
2.625 0.75 3.3
2.75 0.75 3.3
2.875 0.75 3.3
3 0.75 3.3
3.125 0.75 3.3
3.25 0.75 3.3
3.375 0.75 3.3
3.5 0.75 3.3
3.625 0.75 3.3
3.75 0.75 3.3
3.875 0.75 3.3
4 0.75 3.3
0 0.875 3.3
0.125 0.875 3.3
0.25 0.875 3.3
0.375 0.875 3.3
0.5 0.875 3.3
0.625 0.875 3.3
0.75 0.875 3.3
0.875 0.875 3.3
1 0.875 3.3
1.125 0.875 3.3
1.25 0.875 3.3
1.375 0.875 3.3
1.5 0.875 3.3
1.625 0.875 3.3
1.75 0.875 3.3
1.875 0.875 3.3
2 0.875 3.3
2.125 0.875 3.3
2.25 0.875 3.3
2.375 0.875 3.3
2.5 0.875 3.3
2.625 0.875 3.3
2.75 0.875 3.3
2.875 0.875 3.3
3 0.875 3.3
3.125 0.875 3.3
3.25 0.875 3.3
3.375 0.875 3.3
3.5 0.875 3.3
3.625 0.875 3.3
3.75 0.875 3.3
3.875 0.875 3.3
4 0.875 3.3
0 1 3.3
0.125 1 3.3
0.25 1 3.3
0.375 1 3.3
0.5 1 3.3
0.625 1 3.3
0.75 1 3.3
0.875 1 3.3
1 1 3.3
1.125 1 3.3
1.25 1 3.3
1.375 1 3.3
1.5 1 3.3
1.625 1 3.3
1.75 1 3.3
1.875 1 3.3
2 1 3.3
2.125 1 3.3
2.25 1 3.3
2.375 1 3.3
2.5 1 3.3
2.625 1 3.3
2.75 1 3.3
2.875 1 3.3
3 1 3.3
3.125 1 3.3
3.25 1 3.3
3.375 1 3.3
3.5 1 3.3
3.625 1 3.3
3.75 1 3.3
3.875 1 3.3
4 1 3.3

CELLS 2049 16384
OFFSETS vtktypeint64
0 8 16 24 32 40 48 56 64 72 80 88 96 104 112 120 128 136 144 152 160 168 176 184 192 200 208 216 224 232 240 248 256 264 272 280 288 296 304 312 320 328 336 344 352 360 368 376 384 392 400 408 416 424 432 440 448 456 464 472 480 488 496 504 512 520 528 536 544 552 560 568 576 584 592 600 608 616 624 632 640 648 656 664 672 680 688 696 704 712 720 728 736 744 752 760 768 776 784 792 800 808 816 824 832 840 848 856 864 872 880 888 896 904 912 920 928 936 944 952 960 968 976 984 992 1000 1008 1016 1024 1032 1040 1048 1056 1064 1072 1080 1088 1096 1104 1112 1120 1128 1136 1144 1152 1160 1168 1176 1184 1192 1200 1208 1216 1224 1232 1240 1248 1256 1264 1272 1280 1288 1296 1304 1312 1320 1328 1336 1344 1352 1360 1368 1376 1384 1392 1400 1408 1416 1424 1432 1440 1448 1456 1464 1472 1480 1488 1496 1504 1512 1520 1528 1536 1544 1552 1560 1568 1576 1584 1592 1600 1608 1616 1624 1632 1640 1648 1656 1664 1672 1680 1688 1696 1704 1712 1720 1728 1736 1744 1752 1760 1768 1776 1784 1792 1800 1808 1816 1824 1832 1840 1848 1856 1864 1872 1880 1888 1896 1904 1912 1920 1928 1936 1944 1952 1960 1968 1976 1984 1992 2000 2008 2016 2024 2032 2040 2048 2056 2064 2072 2080 2088 2096 2104 2112 2120 2128 2136 2144 2152 2160 2168 2176 2184 2192 2200 2208 2216 2224 2232 2240 2248 2256 2264 2272 2280 2288 2296 2304 2312 2320 2328 2336 2344 2352 2360 2368 2376 2384 2392 2400 2408 2416 2424 2432 2440 2448 2456 2464 2472 2480 2488 2496 2504 2512 2520 2528 2536 2544 2552 2560 2568 2576 2584 2592 2600 2608 2616 2624 2632 2640 2648 2656 2664 2672 2680 2688 2696 2704 2712 2720 2728 2736 2744 2752 2760 2768 2776 2784 2792 2800 2808 2816 2824 2832 2840 2848 2856 2864 2872 2880 2888 2896 2904 2912 2920 2928 2936 2944 2952 2960 2968 2976 2984 2992 3000 3008 3016 3024 3032 3040 3048 3056 3064 3072 3080 3088 3096 3104 3112 3120 3128 3136 3144 3152 3160 3168 3176 3184 3192 3200 3208 3216 3224 3232 3240 3248 3256 3264 3272 3280 3288 3296 3304 3312 3320 3328 3336 3344 3352 3360 3368 3376 3384 3392 3400 3408 3416 3424 3432 3440 3448 3456 3464 3472 3480 3488 3496 3504 3512 3520 3528 3536 3544 3552 3560 3568 3576 3584 3592 3600 3608 3616 3624 3632 3640 3648 3656 3664 3672 3680 3688 3696 3704 3712 3720 3728 3736 3744 3752 3760 3768 3776 3784 3792 3800 3808 3816 3824 3832 3840 3848 3856 3864 3872 3880 3888 3896 3904 3912 3920 3928 3936 3944 3952 3960 3968 3976 3984 3992 4000 4008 4016 4024 4032 4040 4048 4056 4064 4072 4080 4088 4096 4104 4112 4120 4128 4136 4144 4152 4160 4168 4176 4184 4192 4200 4208 4216 4224 4232 4240 4248 4256 4264 4272 4280 4288 4296 4304 4312 4320 4328 4336 4344 4352 4360 4368 4376 4384 4392 4400 4408 4416 4424 4432 4440 4448 4456 4464 4472 4480 4488 4496 4504 4512 4520 4528 4536 4544 4552 4560 4568 4576 4584 4592 4600 4608 4616 4624 4632 4640 4648 4656 4664 4672 4680 4688 4696 4704 4712 4720 4728 4736 4744 4752 4760 4768 4776 4784 4792 4800 4808 4816 4824 4832 4840 4848 4856 4864 4872 4880 4888 4896 4904 4912 4920 4928 4936 4944 4952 4960 4968 4976 4984 4992 5000 5008 5016 5024 5032 5040 5048 5056 5064 5072 5080 5088 5096 5104 5112 5120 5128 5136 5144 5152 5160 5168 5176 5184 5192 5200 5208 5216 5224 5232 5240 5248 5256 5264 5272 5280 5288 5296 5304 5312 5320 5328 5336 5344 5352 5360 5368 5376 5384 5392 5400 5408 5416 5424 5432 5440 5448 5456 5464 5472 5480 5488 5496 5504 5512 5520 5528 5536 5544 5552 5560 5568 5576 5584 5592 5600 5608 5616 5624 5632 5640 5648 5656 5664 5672 5680 5688 5696 5704 5712 5720 5728 5736 5744 5752 5760 5768 5776 5784 5792 5800 5808 5816 5824 5832 5840 5848 5856 5864 5872 5880 5888 5896 5904 5912 5920 5928 5936 5944 5952 5960 5968 5976 5984 5992 6000 6008 6016 6024 6032 6040 6048 6056 6064 6072 6080 6088 6096 6104 6112 6120 6128 6136 6144 6152 6160 6168 6176 6184 6192 6200 6208 6216 6224 6232 6240 6248 6256 6264 6272 6280 6288 6296 6304 6312 6320 6328 6336 6344 6352 6360 6368 6376 6384 6392 6400 6408 6416 6424 6432 6440 6448 6456 6464 6472 6480 6488 6496 6504 6512 6520 6528 6536 6544 6552 6560 6568 6576 6584 6592 6600 6608 6616 6624 6632 6640 6648 6656 6664 6672 6680 6688 6696 6704 6712 6720 6728 6736 6744 6752 6760 6768 6776 6784 6792 6800 6808 6816 6824 6832 6840 6848 6856 6864 6872 6880 6888 6896 6904 6912 6920 6928 6936 6944 6952 6960 6968 6976 6984 6992 7000 7008 7016 7024 7032 7040 7048 7056 7064 7072 7080 7088 7096 7104 7112 7120 7128 7136 7144 7152 7160 7168 7176 7184 7192 7200 7208 7216 7224 7232 7240 7248 7256 7264 7272 7280 7288 7296 7304 7312 7320 7328 7336 7344 7352 7360 7368 7376 7384 7392 7400 7408 7416 7424 7432 7440 7448 7456 7464 7472 7480 7488 7496 7504 7512 7520 7528 7536 7544 7552 7560 7568 7576 7584 7592 7600 7608 7616 7624 7632 7640 7648 7656 7664 7672 7680 7688 7696 7704 7712 7720 7728 7736 7744 7752 7760 7768 7776 7784 7792 7800 7808 7816 7824 7832 7840 7848 7856 7864 7872 7880 7888 7896 7904 7912 7920 7928 7936 7944 7952 7960 7968 7976 7984 7992 8000 8008 8016 8024 8032 8040 8048 8056 8064 8072 8080 8088 8096 8104 8112 8120 8128 8136 8144 8152 8160 8168 8176 8184 8192 8200 8208 8216 8224 8232 8240 8248 8256 8264 8272 8280 8288 8296 8304 8312 8320 8328 8336 8344 8352 8360 8368 8376 8384 8392 8400 8408 8416 8424 8432 8440 8448 8456 8464 8472 8480 8488 8496 8504 8512 8520 8528 8536 8544 8552 8560 8568 8576 8584 8592 8600 8608 8616 8624 8632 8640 8648 8656 8664 8672 8680 8688 8696 8704 8712 8720 8728 8736 8744 8752 8760 8768 8776 8784 8792 8800 8808 8816 8824 8832 8840 8848 8856 8864 8872 8880 8888 8896 8904 8912 8920 8928 8936 8944 8952 8960 8968 8976 8984 8992 9000 9008 9016 9024 9032 9040 9048 9056 9064 9072 9080 9088 9096 9104 9112 9120 9128 9136 9144 9152 9160 9168 9176 9184 9192 9200 9208 9216 9224 9232 9240 9248 9256 9264 9272 9280 9288 9296 9304 9312 9320 9328 9336 9344 9352 9360 9368 9376 9384 9392 9400 9408 9416 9424 9432 9440 9448 9456 9464 9472 9480 9488 9496 9504 9512 9520 9528 9536 9544 9552 9560 9568 9576 9584 9592 9600 9608 9616 9624 9632 9640 9648 9656 9664 9672 9680 9688 9696 9704 9712 9720 9728 9736 9744 9752 9760 9768 9776 9784 9792 9800 9808 9816 9824 9832 9840 9848 9856 9864 9872 9880 9888 9896 9904 9912 9920 9928 9936 9944 9952 9960 9968 9976 9984 9992 10000 10008 10016 10024 10032 10040 10048 10056 10064 10072 10080 10088 10096 10104 10112 10120 10128 10136 10144 10152 10160 10168 10176 10184 10192 10200 10208 10216 10224 10232 10240 10248 10256 10264 10272 10280 10288 10296 10304 10312 10320 10328 10336 10344 10352 10360 10368 10376 10384 10392 10400 10408 10416 10424 10432 10440 10448 10456 10464 10472 10480 10488 10496 10504 10512 10520 10528 10536 10544 10552 10560 10568 10576 10584 10592 10600 10608 10616 10624 10632 10640 10648 10656 10664 10672 10680 10688 10696 10704 10712 10720 10728 10736 10744 10752 10760 10768 10776 10784 10792 10800 10808 10816 10824 10832 10840 10848 10856 10864 10872 10880 10888 10896 10904 10912 10920 10928 10936 10944 10952 10960 10968 10976 10984 10992 11000 11008 11016 11024 11032 11040 11048 11056 11064 11072 11080 11088 11096 11104 11112 11120 11128 11136 11144 11152 11160 11168 11176 11184 11192 11200 11208 11216 11224 11232 11240 11248 11256 11264 11272 11280 11288 11296 11304 11312 11320 11328 11336 11344 11352 11360 11368 11376 11384 11392 11400 11408 11416 11424 11432 11440 11448 11456 11464 11472 11480 11488 11496 11504 11512 11520 11528 11536 11544 11552 11560 11568 11576 11584 11592 11600 11608 11616 11624 11632 11640 11648 11656 11664 11672 11680 11688 11696 11704 11712 11720 11728 11736 11744 11752 11760 11768 11776 11784 11792 11800 11808 11816 11824 11832 11840 11848 11856 11864 11872 11880 11888 11896 11904 11912 11920 11928 11936 11944 11952 11960 11968 11976 11984 11992 12000 12008 12016 12024 12032 12040 12048 12056 12064 12072 12080 12088 12096 12104 12112 12120 12128 12136 12144 12152 12160 12168 12176 12184 12192 12200 12208 12216 12224 12232 12240 12248 12256 12264 12272 12280 12288 12296 12304 12312 12320 12328 12336 12344 12352 12360 12368 12376 12384 12392 12400 12408 12416 12424 12432 12440 12448 12456 12464 12472 12480 12488 12496 12504 12512 12520 12528 12536 12544 12552 12560 12568 12576 12584 12592 12600 12608 12616 12624 12632 12640 12648 12656 12664 12672 12680 12688 12696 12704 12712 12720 12728 12736 12744 12752 12760 12768 12776 12784 12792 12800 12808 12816 12824 12832 12840 12848 12856 12864 12872 12880 12888 12896 12904 12912 12920 12928 12936 12944 12952 12960 12968 12976 12984 12992 13000 13008 13016 13024 13032 13040 13048 13056 13064 13072 13080 13088 13096 13104 13112 13120 13128 13136 13144 13152 13160 13168 13176 13184 13192 13200 13208 13216 13224 13232 13240 13248 13256 13264 13272 13280 13288 13296 13304 13312 13320 13328 13336 13344 13352 13360 13368 13376 13384 13392 13400 13408 13416 13424 13432 13440 13448 13456 13464 13472 13480 13488 13496 13504 13512 13520 13528 13536 13544 13552 13560 13568 13576 13584 13592 13600 13608 13616 13624 13632 13640 13648 13656 13664 13672 13680 13688 13696 13704 13712 13720 13728 13736 13744 13752 13760 13768 13776 13784 13792 13800 13808 13816 13824 13832 13840 13848 13856 13864 13872 13880 13888 13896 13904 13912 13920 13928 13936 13944 13952 13960 13968 13976 13984 13992 14000 14008 14016 14024 14032 14040 14048 14056 14064 14072 14080 14088 14096 14104 14112 14120 14128 14136 14144 14152 14160 14168 14176 14184 14192 14200 14208 14216 14224 14232 14240 14248 14256 14264 14272 14280 14288 14296 14304 14312 14320 14328 14336 14344 14352 14360 14368 14376 14384 14392 14400 14408 14416 14424 14432 14440 14448 14456 14464 14472 14480 14488 14496 14504 14512 14520 14528 14536 14544 14552 14560 14568 14576 14584 14592 14600 14608 14616 14624 14632 14640 14648 14656 14664 14672 14680 14688 14696 14704 14712 14720 14728 14736 14744 14752 14760 14768 14776 14784 14792 14800 14808 14816 14824 14832 14840 14848 14856 14864 14872 14880 14888 14896 14904 14912 14920 14928 14936 14944 14952 14960 14968 14976 14984 14992 15000 15008 15016 15024 15032 15040 15048 15056 15064 15072 15080 15088 15096 15104 15112 15120 15128 15136 15144 15152 15160 15168 15176 15184 15192 15200 15208 15216 15224 15232 15240 15248 15256 15264 15272 15280 15288 15296 15304 15312 15320 15328 15336 15344 15352 15360 15368 15376 15384 15392 15400 15408 15416 15424 15432 15440 15448 15456 15464 15472 15480 15488 15496 15504 15512 15520 15528 15536 15544 15552 15560 15568 15576 15584 15592 15600 15608 15616 15624 15632 15640 15648 15656 15664 15672 15680 15688 15696 15704 15712 15720 15728 15736 15744 15752 15760 15768 15776 15784 15792 15800 15808 15816 15824 15832 15840 15848 15856 15864 15872 15880 15888 15896 15904 15912 15920 15928 15936 15944 15952 15960 15968 15976 15984 15992 16000 16008 16016 16024 16032 16040 16048 16056 16064 16072 16080 16088 16096 16104 16112 16120 16128 16136 16144 16152 16160 16168 16176 16184 16192 16200 16208 16216 16224 16232 16240 16248 16256 16264 16272 16280 16288 16296 16304 16312 16320 16328 16336 16344 16352 16360 16368 16376 16384 
CONNECTIVITY vtktypeint64
0 1 298 297 33 34 331 330 
1 2 299 298 34 35 332 331 
2 3 300 299 35 36 333 332 
3 4 301 300 36 37 334 333 
4 5 302 301 37 38 335 334 
5 6 303 302 38 39 336 335 
6 7 304 303 39 40 337 336 
7 8 305 304 40 41 338 337 
8 9 306 305 41 42 339 338 
9 10 307 306 42 43 340 339 
10 11 308 307 43 44 341 340 
11 12 309 308 44 45 342 341 
12 13 310 309 45 46 343 342 
13 14 311 310 46 47 344 343 
14 15 312 311 47 48 345 344 
15 16 313 312 48 49 346 345 
16 17 314 313 49 50 347 346 
17 18 315 314 50 51 348 347 
18 19 316 315 51 52 349 348 
19 20 317 316 52 53 350 349 
20 21 318 317 53 54 351 350 
21 22 319 318 54 55 352 351 
22 23 320 319 55 56 353 352 
23 24 321 320 56 57 354 353 
24 25 322 321 57 58 355 354 
25 26 323 322 58 59 356 355 
26 27 324 323 59 60 357 356 
27 28 325 324 60 61 358 357 
28 29 326 325 61 62 359 358 
29 30 327 326 62 63 360 359 
30 31 328 327 63 64 361 360 
31 32 329 328 64 65 362 361 
33 34 331 330 66 67 364 363 
34 35 332 331 67 68 365 364 
35 36 333 332 68 69 366 365 
36 37 334 333 69 70 367 366 
37 38 335 334 70 71 368 367 
38 39 336 335 71 72 369 368 
39 40 337 336 72 73 370 369 
40 41 338 337 73 74 371 370 
41 42 339 338 74 75 372 371 
42 43 340 339 75 76 373 372 
43 44 341 340 76 77 374 373 
44 45 342 341 77 78 375 374 
45 46 343 342 78 79 376 375 
46 47 344 343 79 80 377 376 
47 48 345 344 80 81 378 377 
48 49 346 345 81 82 379 378 
49 50 347 346 82 83 380 379 
50 51 348 347 83 84 381 380 
51 52 349 348 84 85 382 381 
52 53 350 349 85 86 383 382 
53 54 351 350 86 87 384 383 
54 55 352 351 87 88 385 384 
55 56 353 352 88 89 386 385 
56 57 354 353 89 90 387 386 
57 58 355 354 90 91 388 387 
58 59 356 355 91 92 389 388 
59 60 357 356 92 93 390 389 
60 61 358 357 93 94 391 390 
61 62 359 358 94 95 392 391 
62 63 360 359 95 96 393 392 
63 64 361 360 96 97 394 393 
64 65 362 361 97 98 395 394 
66 67 364 363 99 100 397 396 
67 68 365 364 100 101 398 397 
68 69 366 365 101 102 399 398 
69 70 367 366 102 103 400 399 
70 71 368 367 103 104 401 400 
71 72 369 368 104 105 402 401 
72 73 370 369 105 106 403 402 
73 74 371 370 106 107 404 403 
74 75 372 371 107 108 405 404 
75 76 373 372 108 109 406 405 
76 77 374 373 109 110 407 406 
77 78 375 374 110 111 408 407 
78 79 376 375 111 112 409 408 
79 80 377 376 112 113 410 409 
80 81 378 377 113 114 411 410 
81 82 379 378 114 115 412 411 
82 83 380 379 115 116 413 412 
83 84 381 380 116 117 414 413 
84 85 382 381 117 118 415 414 
85 86 383 382 118 119 416 415 
86 87 384 383 119 120 417 416 
87 88 385 384 120 121 418 417 
88 89 386 385 121 122 419 418 
89 90 387 386 122 123 420 419 
90 91 388 387 123 124 421 420 
91 92 389 388 124 125 422 421 
92 93 390 389 125 126 423 422 
93 94 391 390 126 127 424 423 
94 95 392 391 127 128 425 424 
95 96 393 392 128 129 426 425 
96 97 394 393 129 130 427 426 
97 98 395 394 130 131 428 427 
99 100 397 396 132 133 430 429 
100 101 398 397 133 134 431 430 
101 102 399 398 134 135 432 431 
102 103 400 399 135 136 433 432 
103 104 401 400 136 137 434 433 
104 105 402 401 137 138 435 434 
105 106 403 402 138 139 436 435 
106 107 404 403 139 140 437 436 
107 108 405 404 140 141 438 437 
108 109 406 405 141 142 439 438 
109 110 407 406 142 143 440 439 
110 111 408 407 143 144 441 440 
111 112 409 408 144 145 442 441 
112 113 410 409 145 146 443 442 
113 114 411 410 146 147 444 443 
114 115 412 411 147 148 445 444 
115 116 413 412 148 149 446 445 
116 117 414 413 149 150 447 446 
117 118 415 414 150 151 448 447 
118 119 416 415 151 152 449 448 
119 120 417 416 152 153 450 449 
120 121 418 417 153 154 451 450 
121 122 419 418 154 155 452 451 
122 123 420 419 155 156 453 452 
123 124 421 420 156 157 454 453 
124 125 422 421 157 158 455 454 
125 126 423 422 158 159 456 455 
126 127 424 423 159 160 457 456 
127 128 425 424 160 161 458 457 
128 129 426 425 161 162 459 458 
129 130 427 426 162 163 460 459 
130 131 428 427 163 164 461 460 
132 133 430 429 165 166 463 462 
133 134 431 430 166 167 464 463 
134 135 432 431 167 168 465 464 
135 136 433 432 168 169 466 465 
136 137 434 433 169 170 467 466 
137 138 435 434 170 171 468 467 
138 139 436 435 171 172 469 468 
139 140 437 436 172 173 470 469 
140 141 438 437 173 174 471 470 
141 142 439 438 174 175 472 471 
142 143 440 439 175 176 473 472 
143 144 441 440 176 177 474 473 
144 145 442 441 177 178 475 474 
145 146 443 442 178 179 476 475 
146 147 444 443 179 180 477 476 
147 148 445 444 180 181 478 477 
148 149 446 445 181 182 479 478 
149 150 447 446 182 183 480 479 
150 151 448 447 183 184 481 480 
151 152 449 448 184 185 482 481 
152 153 450 449 185 186 483 482 
153 154 451 450 186 187 484 483 
154 155 452 451 187 188 485 484 
155 156 453 452 188 189 486 485 
156 157 454 453 189 190 487 486 
157 158 455 454 190 191 488 487 
158 159 456 455 191 192 489 488 
159 160 457 456 192 193 490 489 
160 161 458 457 193 194 491 490 
161 162 459 458 194 195 492 491 
162 163 460 459 195 196 493 492 
163 164 461 460 196 197 494 493 
165 166 463 462 198 199 496 495 
166 167 464 463 199 200 497 496 
167 168 465 464 200 201 498 497 
168 169 466 465 201 202 499 498 
169 170 467 466 202 203 500 499 
170 171 468 467 203 204 501 500 
171 172 469 468 204 205 502 501 
172 173 470 469 205 206 503 502 
173 174 471 470 206 207 504 503 
174 175 472 471 207 208 505 504 
175 176 473 472 208 209 506 505 
176 177 474 473 209 210 507 506 
177 178 475 474 210 211 508 507 
178 179 476 475 211 212 509 508 
179 180 477 476 212 213 510 509 
180 181 478 477 213 214 511 510 
181 182 479 478 214 215 512 511 
182 183 480 479 215 216 513 512 
183 184 481 480 216 217 514 513 
184 185 482 481 217 218 515 514 
185 186 483 482 218 219 516 515 
186 187 484 483 219 220 517 516 
187 188 485 484 220 221 518 517 
188 189 486 485 221 222 519 518 
189 190 487 486 222 223 520 519 
190 191 488 487 223 224 521 520 
191 192 489 488 224 225 522 521 
192 193 490 489 225 226 523 522 
193 194 491 490 226 227 524 523 
194 195 492 491 227 228 525 524 
195 196 493 492 228 229 526 525 
196 197 494 493 229 230 527 526 
198 199 496 495 231 232 529 528 
199 200 497 496 232 233 530 529 
200 201 498 497 233 234 531 530 
201 202 499 498 234 235 532 531 
202 203 500 499 235 236 533 532 
203 204 501 500 236 237 534 533 
204 205 502 501 237 238 535 534 
205 206 503 502 238 239 536 535 
206 207 504 503 239 240 537 536 
207 208 505 504 240 241 538 537 
208 209 506 505 241 242 539 538 
209 210 507 506 242 243 540 539 
210 211 508 507 243 244 541 540 
211 212 509 508 244 245 542 541 
212 213 510 509 245 246 543 542 
213 214 511 510 246 247 544 543 
214 215 512 511 247 248 545 544 
215 216 513 512 248 249 546 545 
216 217 514 513 249 250 547 546 
217 218 515 514 250 251 548 547 
218 219 516 515 251 252 549 548 
219 220 517 516 252 253 550 549 
220 221 518 517 253 254 551 550 
221 222 519 518 254 255 552 551 
222 223 520 519 255 256 553 552 
223 224 521 520 256 257 554 553 
224 225 522 521 257 258 555 554 
225 226 523 522 258 259 556 555 
226 227 524 523 259 260 557 556 
227 228 525 524 260 261 558 557 
228 229 526 525 261 262 559 558 
229 230 527 526 262 263 560 559 
231 232 529 528 264 265 562 561 
232 233 530 529 265 266 563 562 
233 234 531 530 266 267 564 563 
234 235 532 531 267 268 565 564 
235 236 533 532 268 269 566 565 
236 237 534 533 269 270 567 566 
237 238 535 534 270 271 568 567 
238 239 536 535 271 272 569 568 
239 240 537 536 272 273 570 569 
240 241 538 537 273 274 571 570 
241 242 539 538 274 275 572 571 
242 243 540 539 275 276 573 572 
243 244 541 540 276 277 574 573 
244 245 542 541 277 278 575 574 
245 246 543 542 278 279 576 575 
246 247 544 543 279 280 577 576 
247 248 545 544 280 281 578 577 
248 249 546 545 281 282 579 578 
249 250 547 546 282 283 580 579 
250 251 548 547 283 284 581 580 
251 252 549 548 284 285 582 581 
252 253 550 549 285 286 583 582 
253 254 551 550 286 287 584 583 
254 255 552 551 287 288 585 584 
255 256 553 552 288 289 586 585 
256 257 554 553 289 290 587 586 
257 258 555 554 290 291 588 587 
258 259 556 555 291 292 589 588 
259 260 557 556 292 293 590 589 
260 261 558 557 293 294 591 590 
261 262 559 558 294 295 592 591 
262 263 560 559 295 296 593 592 
297 298 595 594 330 331 628 627 
298 299 596 595 331 332 629 628 
299 300 597 596 332 333 630 629 
300 301 598 597 333 334 631 630 
301 302 599 598 334 335 632 631 
302 303 600 599 335 336 633 632 
303 304 601 600 336 337 634 633 
304 305 602 601 337 338 635 634 
305 306 603 602 338 339 636 635 
306 307 604 603 339 340 637 636 
307 308 605 604 340 341 638 637 
308 309 606 605 341 342 639 638 
309 310 607 606 342 343 640 639 
310 311 608 607 343 344 641 640 
311 312 609 608 344 345 642 641 
312 313 610 609 345 346 643 642 
313 314 611 610 346 347 644 643 
314 315 612 611 347 348 645 644 
315 316 613 612 348 349 646 645 
316 317 614 613 349 350 647 646 
317 318 615 614 350 351 648 647 
318 319 616 615 351 352 649 648 
319 320 617 616 352 353 650 649 
320 321 618 617 353 354 651 650 
321 322 619 618 354 355 652 651 
322 323 620 619 355 356 653 652 
323 324 621 620 356 357 654 653 
324 325 622 621 357 358 655 654 
325 326 623 622 358 359 656 655 
326 327 624 623 359 360 657 656 
327 328 625 624 360 361 658 657 
328 329 626 625 361 362 659 658 
330 331 628 627 363 364 661 660 
331 332 629 628 364 365 662 661 
332 333 630 629 365 366 663 662 
333 334 631 630 366 367 664 663 
334 335 632 631 367 368 665 664 
335 336 633 632 368 369 666 665 
336 337 634 633 369 370 667 666 
337 338 635 634 370 371 668 667 
338 339 636 635 371 372 669 668 
339 340 637 636 372 373 670 669 
340 341 638 637 373 374 671 670 
341 342 639 638 374 375 672 671 
342 343 640 639 375 376 673 672 
343 344 641 640 376 377 674 673 
344 345 642 641 377 378 675 674 
345 346 643 642 378 379 676 675 
346 347 644 643 379 380 677 676 
347 348 645 644 380 381 678 677 
348 349 646 645 381 382 679 678 
349 350 647 646 382 383 680 679 
350 351 648 647 383 384 681 680 
351 352 649 648 384 385 682 681 
352 353 650 649 385 386 683 682 
353 354 651 650 386 387 684 683 
354 355 652 651 387 388 685 684 
355 356 653 652 388 389 686 685 
356 357 654 653 389 390 687 686 
357 358 655 654 390 391 688 687 
358 359 656 655 391 392 689 688 
359 360 657 656 392 393 690 689 
360 361 658 657 393 394 691 690 
361 362 659 658 394 395 692 691 
363 364 661 660 396 397 694 693 
364 365 662 661 397 398 695 694 
365 366 663 662 398 399 696 695 
366 367 664 663 399 400 697 696 
367 368 665 664 400 401 698 697 
368 369 666 665 401 402 699 698 
369 370 667 666 402 403 700 699 
370 371 668 667 403 404 701 700 
371 372 669 668 404 405 702 701 
372 373 670 669 405 406 703 702 
373 374 671 670 406 407 704 703 
374 375 672 671 407 408 705 704 
375 376 673 672 408 409 706 705 
376 377 674 673 409 410 707 706 
377 378 675 674 410 411 708 707 
378 379 676 675 411 412 709 708 
379 380 677 676 412 413 710 709 
380 381 678 677 413 414 711 710 
381 382 679 678 414 415 712 711 
382 383 680 679 415 416 713 712 
383 384 681 680 416 417 714 713 
384 385 682 681 417 418 715 714 
385 386 683 682 418 419 716 715 
386 387 684 683 419 420 717 716 
387 388 685 684 420 421 718 717 
388 389 686 685 421 422 719 718 
389 390 687 686 422 423 720 719 
390 391 688 687 423 424 721 720 
391 392 689 688 424 425 722 721 
392 393 690 689 425 426 723 722 
393 394 691 690 426 427 724 723 
394 395 692 691 427 428 725 724 
396 397 694 693 429 430 727 726 
397 398 695 694 430 431 728 727 
398 399 696 695 431 432 729 728 
399 400 697 696 432 433 730 729 
400 401 698 697 433 434 731 730 
401 402 699 698 434 435 732 731 
402 403 700 699 435 436 733 732 
403 404 701 700 436 437 734 733 
404 405 702 701 437 438 735 734 
405 406 703 702 438 439 736 735 
406 407 704 703 439 440 737 736 
407 408 705 704 440 441 738 737 
408 409 706 705 441 442 739 738 
409 410 707 706 442 443 740 739 
410 411 708 707 443 444 741 740 
411 412 709 708 444 445 742 741 
412 413 710 709 445 446 743 742 
413 414 711 710 446 447 744 743 
414 415 712 711 447 448 745 744 
415 416 713 712 448 449 746 745 
416 417 714 713 449 450 747 746 
417 418 715 714 450 451 748 747 
418 419 716 715 451 452 749 748 
419 420 717 716 452 453 750 749 
420 421 718 717 453 454 751 750 
421 422 719 718 454 455 752 751 
422 423 720 719 455 456 753 752 
423 424 721 720 456 457 754 753 
424 425 722 721 457 458 755 754 
425 426 723 722 458 459 756 755 
426 427 724 723 459 460 757 756 
427 428 725 724 460 461 758 757 
429 430 727 726 462 463 760 759 
430 431 728 727 463 464 761 760 
431 432 729 728 464 465 762 761 
432 433 730 729 465 466 763 762 
433 434 731 730 466 467 764 763 
434 435 732 731 467 468 765 764 
435 436 733 732 468 469 766 765 
436 437 734 733 469 470 767 766 
437 438 735 734 470 471 768 767 
438 439 736 735 471 472 769 768 
439 440 737 736 472 473 770 769 
440 441 738 737 473 474 771 770 
441 442 739 738 474 475 772 771 
442 443 740 739 475 476 773 772 
443 444 741 740 476 477 774 773 
444 445 742 741 477 478 775 774 
445 446 743 742 478 479 776 775 
446 447 744 743 479 480 777 776 
447 448 745 744 480 481 778 777 
448 449 746 745 481 482 779 778 
449 450 747 746 482 483 780 779 
450 451 748 747 483 484 781 780 
451 452 749 748 484 485 782 781 
452 453 750 749 485 486 783 782 
453 454 751 750 486 487 784 783 
454 455 752 751 487 488 785 784 
455 456 753 752 488 489 786 785 
456 457 754 753 489 490 787 786 
457 458 755 754 490 491 788 787 
458 459 756 755 491 492 789 788 
459 460 757 756 492 493 790 789 
460 461 758 757 493 494 791 790 
462 463 760 759 495 496 793 792 
463 464 761 760 496 497 794 793 
464 465 762 761 497 498 795 794 
465 466 763 762 498 499 796 795 
466 467 764 763 499 500 797 796 
467 468 765 764 500 501 798 797 
468 469 766 765 501 502 799 798 
469 470 767 766 502 503 800 799 
470 471 768 767 503 504 801 800 
471 472 769 768 504 505 802 801 
472 473 770 769 505 506 803 802 
473 474 771 770 506 507 804 803 
474 475 772 771 507 508 805 804 
475 476 773 772 508 509 806 805 
476 477 774 773 509 510 807 806 
477 478 775 774 510 511 808 807 
478 479 776 775 511 512 809 808 
479 480 777 776 512 513 810 809 
480 481 778 777 513 514 811 810 
481 482 779 778 514 515 812 811 
482 483 780 779 515 516 813 812 
483 484 781 780 516 517 814 813 
484 485 782 781 517 518 815 814 
485 486 783 782 518 519 816 815 
486 487 784 783 519 520 817 816 
487 488 785 784 520 521 818 817 
488 489 786 785 521 522 819 818 
489 490 787 786 522 523 820 819 
490 491 788 787 523 524 821 820 
491 492 789 788 524 525 822 821 
492 493 790 789 525 526 823 822 
493 494 791 790 526 527 824 823 
495 496 793 792 528 529 826 825 
496 497 794 793 529 530 827 826 
497 498 795 794 530 531 828 827 
498 499 796 795 531 532 829 828 
499 500 797 796 532 533 830 829 
500 501 798 797 533 534 831 830 
501 502 799 798 534 535 832 831 
502 503 800 799 535 536 833 832 
503 504 801 800 536 537 834 833 
504 505 802 801 537 538 835 834 
505 506 803 802 538 539 836 835 
506 507 804 803 539 540 837 836 
507 508 805 804 540 541 838 837 
508 509 806 805 541 542 839 838 
509 510 807 806 542 543 840 839 
510 511 808 807 543 544 841 840 
511 512 809 808 544 545 842 841 
512 513 810 809 545 546 843 842 
513 514 811 810 546 547 844 843 
514 515 812 811 547 548 845 844 
515 516 813 812 548 549 846 845 
516 517 814 813 549 550 847 846 
517 518 815 814 550 551 848 847 
518 519 816 815 551 552 849 848 
519 520 817 816 552 553 850 849 
520 521 818 817 553 554 851 850 
521 522 819 818 554 555 852 851 
522 523 820 819 555 556 853 852 
523 524 821 820 556 557 854 853 
524 525 822 821 557 558 855 854 
525 526 823 822 558 559 856 855 
526 527 824 823 559 560 857 856 
528 529 826 825 561 562 859 858 
529 530 827 826 562 563 860 859 
530 531 828 827 563 564 861 860 
531 532 829 828 564 565 862 861 
532 533 830 829 565 566 863 862 
533 534 831 830 566 567 864 863 
534 535 832 831 567 568 865 864 
535 536 833 832 568 569 866 865 
536 537 834 833 569 570 867 866 
537 538 835 834 570 571 868 867 
538 539 836 835 571 572 869 868 
539 540 837 836 572 573 870 869 
540 541 838 837 573 574 871 870 
541 542 839 838 574 575 872 871 
542 543 840 839 575 576 873 872 
543 544 841 840 576 577 874 873 
544 545 842 841 577 578 875 874 
545 546 843 842 578 579 876 875 
546 547 844 843 579 580 877 876 
547 548 845 844 580 581 878 877 
548 549 846 845 581 582 879 878 
549 550 847 846 582 583 880 879 
550 551 848 847 583 584 881 880 
551 552 849 848 584 585 882 881 
552 553 850 849 585 586 883 882 
553 554 851 850 586 587 884 883 
554 555 852 851 587 588 885 884 
555 556 853 852 588 589 886 885 
556 557 854 853 589 590 887 886 
557 558 855 854 590 591 888 887 
558 559 856 855 591 592 889 888 
559 560 857 856 592 593 890 889 
594 595 892 891 627 628 925 924 
595 596 893 892 628 629 926 925 
596 597 894 893 629 630 927 926 
597 598 895 894 630 631 928 927 
598 599 896 895 631 632 929 928 
599 600 897 896 632 633 930 929 
600 601 898 897 633 634 931 930 
601 602 899 898 634 635 932 931 
602 603 900 899 635 636 933 932 
603 604 901 900 636 637 934 933 
604 605 902 901 637 638 935 934 
605 606 903 902 638 639 936 935 
606 607 904 903 639 640 937 936 
607 608 905 904 640 641 938 937 
608 609 906 905 641 642 939 938 
609 610 907 906 642 643 940 939 
610 611 908 907 643 644 941 940 
611 612 909 908 644 645 942 941 
612 613 910 909 645 646 943 942 
613 614 911 910 646 647 944 943 
614 615 912 911 647 648 945 944 
615 616 913 912 648 649 946 945 
616 617 914 913 649 650 947 946 
617 618 915 914 650 651 948 947 
618 619 916 915 651 652 949 948 
619 620 917 916 652 653 950 949 
620 621 918 917 653 654 951 950 
621 622 919 918 654 655 952 951 
622 623 920 919 655 656 953 952 
623 624 921 920 656 657 954 953 
624 625 922 921 657 658 955 954 
625 626 923 922 658 659 956 955 
627 628 925 924 660 661 958 957 
628 629 926 925 661 662 959 958 
629 630 927 926 662 663 960 959 
630 631 928 927 663 664 961 960 
631 632 929 928 664 665 962 961 
632 633 930 929 665 666 963 962 
633 634 931 930 666 667 964 963 
634 635 932 931 667 668 965 964 
635 636 933 932 668 669 966 965 
636 637 934 933 669 670 967 966 
637 638 935 934 670 671 968 967 
638 639 936 935 671 672 969 968 
639 640 937 936 672 673 970 969 
640 641 938 937 673 674 971 970 
641 642 939 938 674 675 972 971 
642 643 940 939 675 676 973 972 
643 644 941 940 676 677 974 973 
644 645 942 941 677 678 975 974 
645 646 943 942 678 679 976 975 
646 647 944 943 679 680 977 976 
647 648 945 944 680 681 978 977 
648 649 946 945 681 682 979 978 
649 650 947 946 682 683 980 979 
650 651 948 947 683 684 981 980 
651 652 949 948 684 685 982 981 
652 653 950 949 685 686 983 982 
653 654 951 950 686 687 984 983 
654 655 952 951 687 688 985 984 
655 656 953 952 688 689 986 985 
656 657 954 953 689 690 987 986 
657 658 955 954 690 691 988 987 
658 659 956 955 691 692 989 988 
660 661 958 957 693 694 991 990 
661 662 959 958 694 695 992 991 
662 663 960 959 695 696 993 992 
663 664 961 960 696 697 994 993 
664 665 962 961 697 698 995 994 
665 666 963 962 698 699 996 995 
666 667 964 963 699 700 997 996 
667 668 965 964 700 701 998 997 
668 669 966 965 701 702 999 998 
669 670 967 966 702 703 1000 999 
670 671 968 967 703 704 1001 1000 
671 672 969 968 704 705 1002 1001 
672 673 970 969 705 706 1003 1002 
673 674 971 970 706 707 1004 1003 
674 675 972 971 707 708 1005 1004 
675 676 973 972 708 709 1006 1005 
676 677 974 973 709 710 1007 1006 
677 678 975 974 710 711 1008 1007 
678 679 976 975 711 712 1009 1008 
679 680 977 976 712 713 1010 1009 
680 681 978 977 713 714 1011 1010 
681 682 979 978 714 715 1012 1011 
682 683 980 979 715 716 1013 1012 
683 684 981 980 716 717 1014 1013 
684 685 982 981 717 718 1015 1014 
685 686 983 982 718 719 1016 1015 
686 687 984 983 719 720 1017 1016 
687 688 985 984 720 721 1018 1017 
688 689 986 985 721 722 1019 1018 
689 690 987 986 722 723 1020 1019 
690 691 988 987 723 724 1021 1020 
691 692 989 988 724 725 1022 1021 
693 694 991 990 726 727 1024 1023 
694 695 992 991 727 728 1025 1024 
695 696 993 992 728 729 1026 1025 
696 697 994 993 729 730 1027 1026 
697 698 995 994 730 731 1028 1027 
698 699 996 995 731 732 1029 1028 
699 700 997 996 732 733 1030 1029 
700 701 998 997 733 734 1031 1030 
701 702 999 998 734 735 1032 1031 
702 703 1000 999 735 736 1033 1032 
703 704 1001 1000 736 737 1034 1033 
704 705 1002 1001 737 738 1035 1034 
705 706 1003 1002 738 739 1036 1035 
706 707 1004 1003 739 740 1037 1036 
707 708 1005 1004 740 741 1038 1037 
708 709 1006 1005 741 742 1039 1038 
709 710 1007 1006 742 743 1040 1039 
710 711 1008 1007 743 744 1041 1040 
711 712 1009 1008 744 745 1042 1041 
712 713 1010 1009 745 746 1043 1042 
713 714 1011 1010 746 747 1044 1043 
714 715 1012 1011 747 748 1045 1044 
715 716 1013 1012 748 749 1046 1045 
716 717 1014 1013 749 750 1047 1046 
717 718 1015 1014 750 751 1048 1047 
718 719 1016 1015 751 752 1049 1048 
719 720 1017 1016 752 753 1050 1049 
720 721 1018 1017 753 754 1051 1050 
721 722 1019 1018 754 755 1052 1051 
722 723 1020 1019 755 756 1053 1052 
723 724 1021 1020 756 757 1054 1053 
724 725 1022 1021 757 758 1055 1054 
726 727 1024 1023 759 760 1057 1056 
727 728 1025 1024 760 761 1058 1057 
728 729 1026 1025 761 762 1059 1058 
729 730 1027 1026 762 763 1060 1059 
730 731 1028 1027 763 764 1061 1060 
731 732 1029 1028 764 765 1062 1061 
732 733 1030 1029 765 766 1063 1062 
733 734 1031 1030 766 767 1064 1063 
734 735 1032 1031 767 768 1065 1064 
735 736 1033 1032 768 769 1066 1065 
736 737 1034 1033 769 770 1067 1066 
737 738 1035 1034 770 771 1068 1067 
738 739 1036 1035 771 772 1069 1068 
739 740 1037 1036 772 773 1070 1069 
740 741 1038 1037 773 774 1071 1070 
741 742 1039 1038 774 775 1072 1071 
742 743 1040 1039 775 776 1073 1072 
743 744 1041 1040 776 777 1074 1073 
744 745 1042 1041 777 778 1075 1074 
745 746 1043 1042 778 779 1076 1075 
746 747 1044 1043 779 780 1077 1076 
747 748 1045 1044 780 781 1078 1077 
748 749 1046 1045 781 782 1079 1078 
749 750 1047 1046 782 783 1080 1079 
750 751 1048 1047 783 784 1081 1080 
751 752 1049 1048 784 785 1082 1081 
752 753 1050 1049 785 786 1083 1082 
753 754 1051 1050 786 787 1084 1083 
754 755 1052 1051 787 788 1085 1084 
755 756 1053 1052 788 789 1086 1085 
756 757 1054 1053 789 790 1087 1086 
757 758 1055 1054 790 791 1088 1087 
759 760 1057 1056 792 793 1090 1089 
760 761 1058 1057 793 794 1091 1090 
761 762 1059 1058 794 795 1092 1091 
762 763 1060 1059 795 796 1093 1092 
763 764 1061 1060 796 797 1094 1093 
764 765 1062 1061 797 798 1095 1094 
765 766 1063 1062 798 799 1096 1095 
766 767 1064 1063 799 800 1097 1096 
767 768 1065 1064 800 801 1098 1097 
768 769 1066 1065 801 802 1099 1098 
769 770 1067 1066 802 803 1100 1099 
770 771 1068 1067 803 804 1101 1100 
771 772 1069 1068 804 805 1102 1101 
772 773 1070 1069 805 806 1103 1102 
773 774 1071 1070 806 807 1104 1103 
774 775 1072 1071 807 808 1105 1104 
775 776 1073 1072 808 809 1106 1105 
776 777 1074 1073 809 810 1107 1106 
777 778 1075 1074 810 811 1108 1107 
778 779 1076 1075 811 812 1109 1108 
779 780 1077 1076 812 813 1110 1109 
780 781 1078 1077 813 814 1111 1110 
781 782 1079 1078 814 815 1112 1111 
782 783 1080 1079 815 816 1113 1112 
783 784 1081 1080 816 817 1114 1113 
784 785 1082 1081 817 818 1115 1114 
785 786 1083 1082 818 819 1116 1115 
786 787 1084 1083 819 820 1117 1116 
787 788 1085 1084 820 821 1118 1117 
788 789 1086 1085 821 822 1119 1118 
789 790 1087 1086 822 823 1120 1119 
790 791 1088 1087 823 824 1121 1120 
792 793 1090 1089 825 826 1123 1122 
793 794 1091 1090 826 827 1124 1123 
794 795 1092 1091 827 828 1125 1124 
795 796 1093 1092 828 829 1126 1125 
796 797 1094 1093 829 830 1127 1126 
797 798 1095 1094 830 831 1128 1127 
798 799 1096 1095 831 832 1129 1128 
799 800 1097 1096 832 833 1130 1129 
800 801 1098 1097 833 834 1131 1130 
801 802 1099 1098 834 835 1132 1131 
802 803 1100 1099 835 836 1133 1132 
803 804 1101 1100 836 837 1134 1133 
804 805 1102 1101 837 838 1135 1134 
805 806 1103 1102 838 839 1136 1135 
806 807 1104 1103 839 840 1137 1136 
807 808 1105 1104 840 841 1138 1137 
808 809 1106 1105 841 842 1139 1138 
809 810 1107 1106 842 843 1140 1139 
810 811 1108 1107 843 844 1141 1140 
811 812 1109 1108 844 845 1142 1141 
812 813 1110 1109 845 846 1143 1142 
813 814 1111 1110 846 847 1144 1143 
814 815 1112 1111 847 848 1145 1144 
815 816 1113 1112 848 849 1146 1145 
816 817 1114 1113 849 850 1147 1146 
817 818 1115 1114 850 851 1148 1147 
818 819 1116 1115 851 852 1149 1148 
819 820 1117 1116 852 853 1150 1149 
820 821 1118 1117 853 854 1151 1150 
821 822 1119 1118 854 855 1152 1151 
822 823 1120 1119 855 856 1153 1152 
823 824 1121 1120 856 857 1154 1153 
825 826 1123 1122 858 859 1156 1155 
826 827 1124 1123 859 860 1157 1156 
827 828 1125 1124 860 861 1158 1157 
828 829 1126 1125 861 862 1159 1158 
829 830 1127 1126 862 863 1160 1159 
830 831 1128 1127 863 864 1161 1160 
831 832 1129 1128 864 865 1162 1161 
832 833 1130 1129 865 866 1163 1162 
833 834 1131 1130 866 867 1164 1163 
834 835 1132 1131 867 868 1165 1164 
835 836 1133 1132 868 869 1166 1165 
836 837 1134 1133 869 870 1167 1166 
837 838 1135 1134 870 871 1168 1167 
838 839 1136 1135 871 872 1169 1168 
839 840 1137 1136 872 873 1170 1169 
840 841 1138 1137 873 874 1171 1170 
841 842 1139 1138 874 875 1172 1171 
842 843 1140 1139 875 876 1173 1172 
843 844 1141 1140 876 877 1174 1173 
844 845 1142 1141 877 878 1175 1174 
845 846 1143 1142 878 879 1176 1175 
846 847 1144 1143 879 880 1177 1176 
847 848 1145 1144 880 881 1178 1177 
848 849 1146 1145 881 882 1179 1178 
849 850 1147 1146 882 883 1180 1179 
850 851 1148 1147 883 884 1181 1180 
851 852 1149 1148 884 885 1182 1181 
852 853 1150 1149 885 886 1183 1182 
853 854 1151 1150 886 887 1184 1183 
854 855 1152 1151 887 888 1185 1184 
855 856 1153 1152 888 889 1186 1185 
856 857 1154 1153 889 890 1187 1186 
891 892 1189 1188 924 925 1222 1221 
892 893 1190 1189 925 926 1223 1222 
893 894 1191 1190 926 927 1224 1223 
894 895 1192 1191 927 928 1225 1224 
895 896 1193 1192 928 929 1226 1225 
896 897 1194 1193 929 930 1227 1226 
897 898 1195 1194 930 931 1228 1227 
898 899 1196 1195 931 932 1229 1228 
899 900 1197 1196 932 933 1230 1229 
900 901 1198 1197 933 934 1231 1230 
901 902 1199 1198 934 935 1232 1231 
902 903 1200 1199 935 936 1233 1232 
903 904 1201 1200 936 937 1234 1233 
904 905 1202 1201 937 938 1235 1234 
905 906 1203 1202 938 939 1236 1235 
906 907 1204 1203 939 940 1237 1236 
907 908 1205 1204 940 941 1238 1237 
908 909 1206 1205 941 942 1239 1238 
909 910 1207 1206 942 943 1240 1239 
910 911 1208 1207 943 944 1241 1240 
911 912 1209 1208 944 945 1242 1241 
912 913 1210 1209 945 946 1243 1242 
913 914 1211 1210 946 947 1244 1243 
914 915 1212 1211 947 948 1245 1244 
915 916 1213 1212 948 949 1246 1245 
916 917 1214 1213 949 950 1247 1246 
917 918 1215 1214 950 951 1248 1247 
918 919 1216 1215 951 952 1249 1248 
919 920 1217 1216 952 953 1250 1249 
920 921 1218 1217 953 954 1251 1250 
921 922 1219 1218 954 955 1252 1251 
922 923 1220 1219 955 956 1253 1252 
924 925 1222 1221 957 958 1255 1254 
925 926 1223 1222 958 959 1256 1255 
926 927 1224 1223 959 960 1257 1256 
927 928 1225 1224 960 961 1258 1257 
928 929 1226 1225 961 962 1259 1258 
929 930 1227 1226 962 963 1260 1259 
930 931 1228 1227 963 964 1261 1260 
931 932 1229 1228 964 965 1262 1261 
932 933 1230 1229 965 966 1263 1262 
933 934 1231 1230 966 967 1264 1263 
934 935 1232 1231 967 968 1265 1264 
935 936 1233 1232 968 969 1266 1265 
936 937 1234 1233 969 970 1267 1266 
937 938 1235 1234 970 971 1268 1267 
938 939 1236 1235 971 972 1269 1268 
939 940 1237 1236 972 973 1270 1269 
940 941 1238 1237 973 974 1271 1270 
941 942 1239 1238 974 975 1272 1271 
942 943 1240 1239 975 976 1273 1272 
943 944 1241 1240 976 977 1274 1273 
944 945 1242 1241 977 978 1275 1274 
945 946 1243 1242 978 979 1276 1275 
946 947 1244 1243 979 980 1277 1276 
947 948 1245 1244 980 981 1278 1277 
948 949 1246 1245 981 982 1279 1278 
949 950 1247 1246 982 983 1280 1279 
950 951 1248 1247 983 984 1281 1280 
951 952 1249 1248 984 985 1282 1281 
952 953 1250 1249 985 986 1283 1282 
953 954 1251 1250 986 987 1284 1283 
954 955 1252 1251 987 988 1285 1284 
955 956 1253 1252 988 989 1286 1285 
957 958 1255 1254 990 991 1288 1287 
958 959 1256 1255 991 992 1289 1288 
959 960 1257 1256 992 993 1290 1289 
960 961 1258 1257 993 994 1291 1290 
961 962 1259 1258 994 995 1292 1291 
962 963 1260 1259 995 996 1293 1292 
963 964 1261 1260 996 997 1294 1293 
964 965 1262 1261 997 998 1295 1294 
965 966 1263 1262 998 999 1296 1295 
966 967 1264 1263 999 1000 1297 1296 
967 968 1265 1264 1000 1001 1298 1297 
968 969 1266 1265 1001 1002 1299 1298 
969 970 1267 1266 1002 1003 1300 1299 
970 971 1268 1267 1003 1004 1301 1300 
971 972 1269 1268 1004 1005 1302 1301 
972 973 1270 1269 1005 1006 1303 1302 
973 974 1271 1270 1006 1007 1304 1303 
974 975 1272 1271 1007 1008 1305 1304 
975 976 1273 1272 1008 1009 1306 1305 
976 977 1274 1273 1009 1010 1307 1306 
977 978 1275 1274 1010 1011 1308 1307 
978 979 1276 1275 1011 1012 1309 1308 
979 980 1277 1276 1012 1013 1310 1309 
980 981 1278 1277 1013 1014 1311 1310 
981 982 1279 1278 1014 1015 1312 1311 
982 983 1280 1279 1015 1016 1313 1312 
983 984 1281 1280 1016 1017 1314 1313 
984 985 1282 1281 1017 1018 1315 1314 
985 986 1283 1282 1018 1019 1316 1315 
986 987 1284 1283 1019 1020 1317 1316 
987 988 1285 1284 1020 1021 1318 1317 
988 989 1286 1285 1021 1022 1319 1318 
990 991 1288 1287 1023 1024 1321 1320 
991 992 1289 1288 1024 1025 1322 1321 
992 993 1290 1289 1025 1026 1323 1322 
993 994 1291 1290 1026 1027 1324 1323 
994 995 1292 1291 1027 1028 1325 1324 
995 996 1293 1292 1028 1029 1326 1325 
996 997 1294 1293 1029 1030 1327 1326 
997 998 1295 1294 1030 1031 1328 1327 
998 999 1296 1295 1031 1032 1329 1328 
999 1000 1297 1296 1032 1033 1330 1329 
1000 1001 1298 1297 1033 1034 1331 1330 
1001 1002 1299 1298 1034 1035 1332 1331 
1002 1003 1300 1299 1035 1036 1333 1332 
1003 1004 1301 1300 1036 1037 1334 1333 
1004 1005 1302 1301 1037 1038 1335 1334 
1005 1006 1303 1302 1038 1039 1336 1335 
1006 1007 1304 1303 1039 1040 1337 1336 
1007 1008 1305 1304 1040 1041 1338 1337 
1008 1009 1306 1305 1041 1042 1339 1338 
1009 1010 1307 1306 1042 1043 1340 1339 
1010 1011 1308 1307 1043 1044 1341 1340 
1011 1012 1309 1308 1044 1045 1342 1341 
1012 1013 1310 1309 1045 1046 1343 1342 
1013 1014 1311 1310 1046 1047 1344 1343 
1014 1015 1312 1311 1047 1048 1345 1344 
1015 1016 1313 1312 1048 1049 1346 1345 
1016 1017 1314 1313 1049 1050 1347 1346 
1017 1018 1315 1314 1050 1051 1348 1347 
1018 1019 1316 1315 1051 1052 1349 1348 
1019 1020 1317 1316 1052 1053 1350 1349 
1020 1021 1318 1317 1053 1054 1351 1350 
1021 1022 1319 1318 1054 1055 1352 1351 
1023 1024 1321 1320 1056 1057 1354 1353 
1024 1025 1322 1321 1057 1058 1355 1354 
1025 1026 1323 1322 1058 1059 1356 1355 
1026 1027 1324 1323 1059 1060 1357 1356 
1027 1028 1325 1324 1060 1061 1358 1357 
1028 1029 1326 1325 1061 1062 1359 1358 
1029 1030 1327 1326 1062 1063 1360 1359 
1030 1031 1328 1327 1063 1064 1361 1360 
1031 1032 1329 1328 1064 1065 1362 1361 
1032 1033 1330 1329 1065 1066 1363 1362 
1033 1034 1331 1330 1066 1067 1364 1363 
1034 1035 1332 1331 1067 1068 1365 1364 
1035 1036 1333 1332 1068 1069 1366 1365 
1036 1037 1334 1333 1069 1070 1367 1366 
1037 1038 1335 1334 1070 1071 1368 1367 
1038 1039 1336 1335 1071 1072 1369 1368 
1039 1040 1337 1336 1072 1073 1370 1369 
1040 1041 1338 1337 1073 1074 1371 1370 
1041 1042 1339 1338 1074 1075 1372 1371 
1042 1043 1340 1339 1075 1076 1373 1372 
1043 1044 1341 1340 1076 1077 1374 1373 
1044 1045 1342 1341 1077 1078 1375 1374 
1045 1046 1343 1342 1078 1079 1376 1375 
1046 1047 1344 1343 1079 1080 1377 1376 
1047 1048 1345 1344 1080 1081 1378 1377 
1048 1049 1346 1345 1081 1082 1379 1378 
1049 1050 1347 1346 1082 1083 1380 1379 
1050 1051 1348 1347 1083 1084 1381 1380 
1051 1052 1349 1348 1084 1085 1382 1381 
1052 1053 1350 1349 1085 1086 1383 1382 
1053 1054 1351 1350 1086 1087 1384 1383 
1054 1055 1352 1351 1087 1088 1385 1384 
1056 1057 1354 1353 1089 1090 1387 1386 
1057 1058 1355 1354 1090 1091 1388 1387 
1058 1059 1356 1355 1091 1092 1389 1388 
1059 1060 1357 1356 1092 1093 1390 1389 
1060 1061 1358 1357 1093 1094 1391 1390 
1061 1062 1359 1358 1094 1095 1392 1391 
1062 1063 1360 1359 1095 1096 1393 1392 
1063 1064 1361 1360 1096 1097 1394 1393 
1064 1065 1362 1361 1097 1098 1395 1394 
1065 1066 1363 1362 1098 1099 1396 1395 
1066 1067 1364 1363 1099 1100 1397 1396 
1067 1068 1365 1364 1100 1101 1398 1397 
1068 1069 1366 1365 1101 1102 1399 1398 
1069 1070 1367 1366 1102 1103 1400 1399 
1070 1071 1368 1367 1103 1104 1401 1400 
1071 1072 1369 1368 1104 1105 1402 1401 
1072 1073 1370 1369 1105 1106 1403 1402 
1073 1074 1371 1370 1106 1107 1404 1403 
1074 1075 1372 1371 1107 1108 1405 1404 
1075 1076 1373 1372 1108 1109 1406 1405 
1076 1077 1374 1373 1109 1110 1407 1406 
1077 1078 1375 1374 1110 1111 1408 1407 
1078 1079 1376 1375 1111 1112 1409 1408 
1079 1080 1377 1376 1112 1113 1410 1409 
1080 1081 1378 1377 1113 1114 1411 1410 
1081 1082 1379 1378 1114 1115 1412 1411 
1082 1083 1380 1379 1115 1116 1413 1412 
1083 1084 1381 1380 1116 1117 1414 1413 
1084 1085 1382 1381 1117 1118 1415 1414 
1085 1086 1383 1382 1118 1119 1416 1415 
1086 1087 1384 1383 1119 1120 1417 1416 
1087 1088 1385 1384 1120 1121 1418 1417 
1089 1090 1387 1386 1122 1123 1420 1419 
1090 1091 1388 1387 1123 1124 1421 1420 
1091 1092 1389 1388 1124 1125 1422 1421 
1092 1093 1390 1389 1125 1126 1423 1422 
1093 1094 1391 1390 1126 1127 1424 1423 
1094 1095 1392 1391 1127 1128 1425 1424 
1095 1096 1393 1392 1128 1129 1426 1425 
1096 1097 1394 1393 1129 1130 1427 1426 
1097 1098 1395 1394 1130 1131 1428 1427 
1098 1099 1396 1395 1131 1132 1429 1428 
1099 1100 1397 1396 1132 1133 1430 1429 
1100 1101 1398 1397 1133 1134 1431 1430 
1101 1102 1399 1398 1134 1135 1432 1431 
1102 1103 1400 1399 1135 1136 1433 1432 
1103 1104 1401 1400 1136 1137 1434 1433 
1104 1105 1402 1401 1137 1138 1435 1434 
1105 1106 1403 1402 1138 1139 1436 1435 
1106 1107 1404 1403 1139 1140 1437 1436 
1107 1108 1405 1404 1140 1141 1438 1437 
1108 1109 1406 1405 1141 1142 1439 1438 
1109 1110 1407 1406 1142 1143 1440 1439 
1110 1111 1408 1407 1143 1144 1441 1440 
1111 1112 1409 1408 1144 1145 1442 1441 
1112 1113 1410 1409 1145 1146 1443 1442 
1113 1114 1411 1410 1146 1147 1444 1443 
1114 1115 1412 1411 1147 1148 1445 1444 
1115 1116 1413 1412 1148 1149 1446 1445 
1116 1117 1414 1413 1149 1150 1447 1446 
1117 1118 1415 1414 1150 1151 1448 1447 
1118 1119 1416 1415 1151 1152 1449 1448 
1119 1120 1417 1416 1152 1153 1450 1449 
1120 1121 1418 1417 1153 1154 1451 1450 
1122 1123 1420 1419 1155 1156 1453 1452 
1123 1124 1421 1420 1156 1157 1454 1453 
1124 1125 1422 1421 1157 1158 1455 1454 
1125 1126 1423 1422 1158 1159 1456 1455 
1126 1127 1424 1423 1159 1160 1457 1456 
1127 1128 1425 1424 1160 1161 1458 1457 
1128 1129 1426 1425 1161 1162 1459 1458 
1129 1130 1427 1426 1162 1163 1460 1459 
1130 1131 1428 1427 1163 1164 1461 1460 
1131 1132 1429 1428 1164 1165 1462 1461 
1132 1133 1430 1429 1165 1166 1463 1462 
1133 1134 1431 1430 1166 1167 1464 1463 
1134 1135 1432 1431 1167 1168 1465 1464 
1135 1136 1433 1432 1168 1169 1466 1465 
1136 1137 1434 1433 1169 1170 1467 1466 
1137 1138 1435 1434 1170 1171 1468 1467 
1138 1139 1436 1435 1171 1172 1469 1468 
1139 1140 1437 1436 1172 1173 1470 1469 
1140 1141 1438 1437 1173 1174 1471 1470 
1141 1142 1439 1438 1174 1175 1472 1471 
1142 1143 1440 1439 1175 1176 1473 1472 
1143 1144 1441 1440 1176 1177 1474 1473 
1144 1145 1442 1441 1177 1178 1475 1474 
1145 1146 1443 1442 1178 1179 1476 1475 
1146 1147 1444 1443 1179 1180 1477 1476 
1147 1148 1445 1444 1180 1181 1478 1477 
1148 1149 1446 1445 1181 1182 1479 1478 
1149 1150 1447 1446 1182 1183 1480 1479 
1150 1151 1448 1447 1183 1184 1481 1480 
1151 1152 1449 1448 1184 1185 1482 1481 
1152 1153 1450 1449 1185 1186 1483 1482 
1153 1154 1451 1450 1186 1187 1484 1483 
1188 1189 1486 1485 1221 1222 1519 1518 
1189 1190 1487 1486 1222 1223 1520 1519 
1190 1191 1488 1487 1223 1224 1521 1520 
1191 1192 1489 1488 1224 1225 1522 1521 
1192 1193 1490 1489 1225 1226 1523 1522 
1193 1194 1491 1490 1226 1227 1524 1523 
1194 1195 1492 1491 1227 1228 1525 1524 
1195 1196 1493 1492 1228 1229 1526 1525 
1196 1197 1494 1493 1229 1230 1527 1526 
1197 1198 1495 1494 1230 1231 1528 1527 
1198 1199 1496 1495 1231 1232 1529 1528 
1199 1200 1497 1496 1232 1233 1530 1529 
1200 1201 1498 1497 1233 1234 1531 1530 
1201 1202 1499 1498 1234 1235 1532 1531 
1202 1203 1500 1499 1235 1236 1533 1532 
1203 1204 1501 1500 1236 1237 1534 1533 
1204 1205 1502 1501 1237 1238 1535 1534 
1205 1206 1503 1502 1238 1239 1536 1535 
1206 1207 1504 1503 1239 1240 1537 1536 
1207 1208 1505 1504 1240 1241 1538 1537 
1208 1209 1506 1505 1241 1242 1539 1538 
1209 1210 1507 1506 1242 1243 1540 1539 
1210 1211 1508 1507 1243 1244 1541 1540 
1211 1212 1509 1508 1244 1245 1542 1541 
1212 1213 1510 1509 1245 1246 1543 1542 
1213 1214 1511 1510 1246 1247 1544 1543 
1214 1215 1512 1511 1247 1248 1545 1544 
1215 1216 1513 1512 1248 1249 1546 1545 
1216 1217 1514 1513 1249 1250 1547 1546 
1217 1218 1515 1514 1250 1251 1548 1547 
1218 1219 1516 1515 1251 1252 1549 1548 
1219 1220 1517 1516 1252 1253 1550 1549 
1221 1222 1519 1518 1254 1255 1552 1551 
1222 1223 1520 1519 1255 1256 1553 1552 
1223 1224 1521 1520 1256 1257 1554 1553 
1224 1225 1522 1521 1257 1258 1555 1554 
1225 1226 1523 1522 1258 1259 1556 1555 
1226 1227 1524 1523 1259 1260 1557 1556 
1227 1228 1525 1524 1260 1261 1558 1557 
1228 1229 1526 1525 1261 1262 1559 1558 
1229 1230 1527 1526 1262 1263 1560 1559 
1230 1231 1528 1527 1263 1264 1561 1560 
1231 1232 1529 1528 1264 1265 1562 1561 
1232 1233 1530 1529 1265 1266 1563 1562 
1233 1234 1531 1530 1266 1267 1564 1563 
1234 1235 1532 1531 1267 1268 1565 1564 
1235 1236 1533 1532 1268 1269 1566 1565 
1236 1237 1534 1533 1269 1270 1567 1566 
1237 1238 1535 1534 1270 1271 1568 1567 
1238 1239 1536 1535 1271 1272 1569 1568 
1239 1240 1537 1536 1272 1273 1570 1569 
1240 1241 1538 1537 1273 1274 1571 1570 
1241 1242 1539 1538 1274 1275 1572 1571 
1242 1243 1540 1539 1275 1276 1573 1572 
1243 1244 1541 1540 1276 1277 1574 1573 
1244 1245 1542 1541 1277 1278 1575 1574 
1245 1246 1543 1542 1278 1279 1576 1575 
1246 1247 1544 1543 1279 1280 1577 1576 
1247 1248 1545 1544 1280 1281 1578 1577 
1248 1249 1546 1545 1281 1282 1579 1578 
1249 1250 1547 1546 1282 1283 1580 1579 
1250 1251 1548 1547 1283 1284 1581 1580 
1251 1252 1549 1548 1284 1285 1582 1581 
1252 1253 1550 1549 1285 1286 1583 1582 
1254 1255 1552 1551 1287 1288 1585 1584 
1255 1256 1553 1552 1288 1289 1586 1585 
1256 1257 1554 1553 1289 1290 1587 1586 
1257 1258 1555 1554 1290 1291 1588 1587 
1258 1259 1556 1555 1291 1292 1589 1588 
1259 1260 1557 1556 1292 1293 1590 1589 
1260 1261 1558 1557 1293 1294 1591 1590 
1261 1262 1559 1558 1294 1295 1592 1591 
1262 1263 1560 1559 1295 1296 1593 1592 
1263 1264 1561 1560 1296 1297 1594 1593 
1264 1265 1562 1561 1297 1298 1595 1594 
1265 1266 1563 1562 1298 1299 1596 1595 
1266 1267 1564 1563 1299 1300 1597 1596 
1267 1268 1565 1564 1300 1301 1598 1597 
1268 1269 1566 1565 1301 1302 1599 1598 
1269 1270 1567 1566 1302 1303 1600 1599 
1270 1271 1568 1567 1303 1304 1601 1600 
1271 1272 1569 1568 1304 1305 1602 1601 
1272 1273 1570 1569 1305 1306 1603 1602 
1273 1274 1571 1570 1306 1307 1604 1603 
1274 1275 1572 1571 1307 1308 1605 1604 
1275 1276 1573 1572 1308 1309 1606 1605 
1276 1277 1574 1573 1309 1310 1607 1606 
1277 1278 1575 1574 1310 1311 1608 1607 
1278 1279 1576 1575 1311 1312 1609 1608 
1279 1280 1577 1576 1312 1313 1610 1609 
1280 1281 1578 1577 1313 1314 1611 1610 
1281 1282 1579 1578 1314 1315 1612 1611 
1282 1283 1580 1579 1315 1316 1613 1612 
1283 1284 1581 1580 1316 1317 1614 1613 
1284 1285 1582 1581 1317 1318 1615 1614 
1285 1286 1583 1582 1318 1319 1616 1615 
1287 1288 1585 1584 1320 1321 1618 1617 
1288 1289 1586 1585 1321 1322 1619 1618 
1289 1290 1587 1586 1322 1323 1620 1619 
1290 1291 1588 1587 1323 1324 1621 1620 
1291 1292 1589 1588 1324 1325 1622 1621 
1292 1293 1590 1589 1325 1326 1623 1622 
1293 1294 1591 1590 1326 1327 1624 1623 
1294 1295 1592 1591 1327 1328 1625 1624 
1295 1296 1593 1592 1328 1329 1626 1625 
1296 1297 1594 1593 1329 1330 1627 1626 
1297 1298 1595 1594 1330 1331 1628 1627 
1298 1299 1596 1595 1331 1332 1629 1628 
1299 1300 1597 1596 1332 1333 1630 1629 
1300 1301 1598 1597 1333 1334 1631 1630 
1301 1302 1599 1598 1334 1335 1632 1631 
1302 1303 1600 1599 1335 1336 1633 1632 
1303 1304 1601 1600 1336 1337 1634 1633 
1304 1305 1602 1601 1337 1338 1635 1634 
1305 1306 1603 1602 1338 1339 1636 1635 
1306 1307 1604 1603 1339 1340 1637 1636 
1307 1308 1605 1604 1340 1341 1638 1637 
1308 1309 1606 1605 1341 1342 1639 1638 
1309 1310 1607 1606 1342 1343 1640 1639 
1310 1311 1608 1607 1343 1344 1641 1640 
1311 1312 1609 1608 1344 1345 1642 1641 
1312 1313 1610 1609 1345 1346 1643 1642 
1313 1314 1611 1610 1346 1347 1644 1643 
1314 1315 1612 1611 1347 1348 1645 1644 
1315 1316 1613 1612 1348 1349 1646 1645 
1316 1317 1614 1613 1349 1350 1647 1646 
1317 1318 1615 1614 1350 1351 1648 1647 
1318 1319 1616 1615 1351 1352 1649 1648 
1320 1321 1618 1617 1353 1354 1651 1650 
1321 1322 1619 1618 1354 1355 1652 1651 
1322 1323 1620 1619 1355 1356 1653 1652 
1323 1324 1621 1620 1356 1357 1654 1653 
1324 1325 1622 1621 1357 1358 1655 1654 
1325 1326 1623 1622 1358 1359 1656 1655 
1326 1327 1624 1623 1359 1360 1657 1656 
1327 1328 1625 1624 1360 1361 1658 1657 
1328 1329 1626 1625 1361 1362 1659 1658 
1329 1330 1627 1626 1362 1363 1660 1659 
1330 1331 1628 1627 1363 1364 1661 1660 
1331 1332 1629 1628 1364 1365 1662 1661 
1332 1333 1630 1629 1365 1366 1663 1662 
1333 1334 1631 1630 1366 1367 1664 1663 
1334 1335 1632 1631 1367 1368 1665 1664 
1335 1336 1633 1632 1368 1369 1666 1665 
1336 1337 1634 1633 1369 1370 1667 1666 
1337 1338 1635 1634 1370 1371 1668 1667 
1338 1339 1636 1635 1371 1372 1669 1668 
1339 1340 1637 1636 1372 1373 1670 1669 
1340 1341 1638 1637 1373 1374 1671 1670 
1341 1342 1639 1638 1374 1375 1672 1671 
1342 1343 1640 1639 1375 1376 1673 1672 
1343 1344 1641 1640 1376 1377 1674 1673 
1344 1345 1642 1641 1377 1378 1675 1674 
1345 1346 1643 1642 1378 1379 1676 1675 
1346 1347 1644 1643 1379 1380 1677 1676 
1347 1348 1645 1644 1380 1381 1678 1677 
1348 1349 1646 1645 1381 1382 1679 1678 
1349 1350 1647 1646 1382 1383 1680 1679 
1350 1351 1648 1647 1383 1384 1681 1680 
1351 1352 1649 1648 1384 1385 1682 1681 
1353 1354 1651 1650 1386 1387 1684 1683 
1354 1355 1652 1651 1387 1388 1685 1684 
1355 1356 1653 1652 1388 1389 1686 1685 
1356 1357 1654 1653 1389 1390 1687 1686 
1357 1358 1655 1654 1390 1391 1688 1687 
1358 1359 1656 1655 1391 1392 1689 1688 
1359 1360 1657 1656 1392 1393 1690 1689 
1360 1361 1658 1657 1393 1394 1691 1690 
1361 1362 1659 1658 1394 1395 1692 1691 
1362 1363 1660 1659 1395 1396 1693 1692 
1363 1364 1661 1660 1396 1397 1694 1693 
1364 1365 1662 1661 1397 1398 1695 1694 
1365 1366 1663 1662 1398 1399 1696 1695 
1366 1367 1664 1663 1399 1400 1697 1696 
1367 1368 1665 1664 1400 1401 1698 1697 
1368 1369 1666 1665 1401 1402 1699 1698 
1369 1370 1667 1666 1402 1403 1700 1699 
1370 1371 1668 1667 1403 1404 1701 1700 
1371 1372 1669 1668 1404 1405 1702 1701 
1372 1373 1670 1669 1405 1406 1703 1702 
1373 1374 1671 1670 1406 1407 1704 1703 
1374 1375 1672 1671 1407 1408 1705 1704 
1375 1376 1673 1672 1408 1409 1706 1705 
1376 1377 1674 1673 1409 1410 1707 1706 
1377 1378 1675 1674 1410 1411 1708 1707 
1378 1379 1676 1675 1411 1412 1709 1708 
1379 1380 1677 1676 1412 1413 1710 1709 
1380 1381 1678 1677 1413 1414 1711 1710 
1381 1382 1679 1678 1414 1415 1712 1711 
1382 1383 1680 1679 1415 1416 1713 1712 
1383 1384 1681 1680 1416 1417 1714 1713 
1384 1385 1682 1681 1417 1418 1715 1714 
1386 1387 1684 1683 1419 1420 1717 1716 
1387 1388 1685 1684 1420 1421 1718 1717 
1388 1389 1686 1685 1421 1422 1719 1718 
1389 1390 1687 1686 1422 1423 1720 1719 
1390 1391 1688 1687 1423 1424 1721 1720 
1391 1392 1689 1688 1424 1425 1722 1721 
1392 1393 1690 1689 1425 1426 1723 1722 
1393 1394 1691 1690 1426 1427 1724 1723 
1394 1395 1692 1691 1427 1428 1725 1724 
1395 1396 1693 1692 1428 1429 1726 1725 
1396 1397 1694 1693 1429 1430 1727 1726 
1397 1398 1695 1694 1430 1431 1728 1727 
1398 1399 1696 1695 1431 1432 1729 1728 
1399 1400 1697 1696 1432 1433 1730 1729 
1400 1401 1698 1697 1433 1434 1731 1730 
1401 1402 1699 1698 1434 1435 1732 1731 
1402 1403 1700 1699 1435 1436 1733 1732 
1403 1404 1701 1700 1436 1437 1734 1733 
1404 1405 1702 1701 1437 1438 1735 1734 
1405 1406 1703 1702 1438 1439 1736 1735 
1406 1407 1704 1703 1439 1440 1737 1736 
1407 1408 1705 1704 1440 1441 1738 1737 
1408 1409 1706 1705 1441 1442 1739 1738 
1409 1410 1707 1706 1442 1443 1740 1739 
1410 1411 1708 1707 1443 1444 1741 1740 
1411 1412 1709 1708 1444 1445 1742 1741 
1412 1413 1710 1709 1445 1446 1743 1742 
1413 1414 1711 1710 1446 1447 1744 1743 
1414 1415 1712 1711 1447 1448 1745 1744 
1415 1416 1713 1712 1448 1449 1746 1745 
1416 1417 1714 1713 1449 1450 1747 1746 
1417 1418 1715 1714 1450 1451 1748 1747 
1419 1420 1717 1716 1452 1453 1750 1749 
1420 1421 1718 1717 1453 1454 1751 1750 
1421 1422 1719 1718 1454 1455 1752 1751 
1422 1423 1720 1719 1455 1456 1753 1752 
1423 1424 1721 1720 1456 1457 1754 1753 
1424 1425 1722 1721 1457 1458 1755 1754 
1425 1426 1723 1722 1458 1459 1756 1755 
1426 1427 1724 1723 1459 1460 1757 1756 
1427 1428 1725 1724 1460 1461 1758 1757 
1428 1429 1726 1725 1461 1462 1759 1758 
1429 1430 1727 1726 1462 1463 1760 1759 
1430 1431 1728 1727 1463 1464 1761 1760 
1431 1432 1729 1728 1464 1465 1762 1761 
1432 1433 1730 1729 1465 1466 1763 1762 
1433 1434 1731 1730 1466 1467 1764 1763 
1434 1435 1732 1731 1467 1468 1765 1764 
1435 1436 1733 1732 1468 1469 1766 1765 
1436 1437 1734 1733 1469 1470 1767 1766 
1437 1438 1735 1734 1470 1471 1768 1767 
1438 1439 1736 1735 1471 1472 1769 1768 
1439 1440 1737 1736 1472 1473 1770 1769 
1440 1441 1738 1737 1473 1474 1771 1770 
1441 1442 1739 1738 1474 1475 1772 1771 
1442 1443 1740 1739 1475 1476 1773 1772 
1443 1444 1741 1740 1476 1477 1774 1773 
1444 1445 1742 1741 1477 1478 1775 1774 
1445 1446 1743 1742 1478 1479 1776 1775 
1446 1447 1744 1743 1479 1480 1777 1776 
1447 1448 1745 1744 1480 1481 1778 1777 
1448 1449 1746 1745 1481 1482 1779 1778 
1449 1450 1747 1746 1482 1483 1780 1779 
1450 1451 1748 1747 1483 1484 1781 1780 
1485 1486 1783 1782 1518 1519 1816 1815 
1486 1487 1784 1783 1519 1520 1817 1816 
1487 1488 1785 1784 1520 1521 1818 1817 
1488 1489 1786 1785 1521 1522 1819 1818 
1489 1490 1787 1786 1522 1523 1820 1819 
1490 1491 1788 1787 1523 1524 1821 1820 
1491 1492 1789 1788 1524 1525 1822 1821 
1492 1493 1790 1789 1525 1526 1823 1822 
1493 1494 1791 1790 1526 1527 1824 1823 
1494 1495 1792 1791 1527 1528 1825 1824 
1495 1496 1793 1792 1528 1529 1826 1825 
1496 1497 1794 1793 1529 1530 1827 1826 
1497 1498 1795 1794 1530 1531 1828 1827 
1498 1499 1796 1795 1531 1532 1829 1828 
1499 1500 1797 1796 1532 1533 1830 1829 
1500 1501 1798 1797 1533 1534 1831 1830 
1501 1502 1799 1798 1534 1535 1832 1831 
1502 1503 1800 1799 1535 1536 1833 1832 
1503 1504 1801 1800 1536 1537 1834 1833 
1504 1505 1802 1801 1537 1538 1835 1834 
1505 1506 1803 1802 1538 1539 1836 1835 
1506 1507 1804 1803 1539 1540 1837 1836 
1507 1508 1805 1804 1540 1541 1838 1837 
1508 1509 1806 1805 1541 1542 1839 1838 
1509 1510 1807 1806 1542 1543 1840 1839 
1510 1511 1808 1807 1543 1544 1841 1840 
1511 1512 1809 1808 1544 1545 1842 1841 
1512 1513 1810 1809 1545 1546 1843 1842 
1513 1514 1811 1810 1546 1547 1844 1843 
1514 1515 1812 1811 1547 1548 1845 1844 
1515 1516 1813 1812 1548 1549 1846 1845 
1516 1517 1814 1813 1549 1550 1847 1846 
1518 1519 1816 1815 1551 1552 1849 1848 
1519 1520 1817 1816 1552 1553 1850 1849 
1520 1521 1818 1817 1553 1554 1851 1850 
1521 1522 1819 1818 1554 1555 1852 1851 
1522 1523 1820 1819 1555 1556 1853 1852 
1523 1524 1821 1820 1556 1557 1854 1853 
1524 1525 1822 1821 1557 1558 1855 1854 
1525 1526 1823 1822 1558 1559 1856 1855 
1526 1527 1824 1823 1559 1560 1857 1856 
1527 1528 1825 1824 1560 1561 1858 1857 
1528 1529 1826 1825 1561 1562 1859 1858 
1529 1530 1827 1826 1562 1563 1860 1859 
1530 1531 1828 1827 1563 1564 1861 1860 
1531 1532 1829 1828 1564 1565 1862 1861 
1532 1533 1830 1829 1565 1566 1863 1862 
1533 1534 1831 1830 1566 1567 1864 1863 
1534 1535 1832 1831 1567 1568 1865 1864 
1535 1536 1833 1832 1568 1569 1866 1865 
1536 1537 1834 1833 1569 1570 1867 1866 
1537 1538 1835 1834 1570 1571 1868 1867 
1538 1539 1836 1835 1571 1572 1869 1868 
1539 1540 1837 1836 1572 1573 1870 1869 
1540 1541 1838 1837 1573 1574 1871 1870 
1541 1542 1839 1838 1574 1575 1872 1871 
1542 1543 1840 1839 1575 1576 1873 1872 
1543 1544 1841 1840 1576 1577 1874 1873 
1544 1545 1842 1841 1577 1578 1875 1874 
1545 1546 1843 1842 1578 1579 1876 1875 
1546 1547 1844 1843 1579 1580 1877 1876 
1547 1548 1845 1844 1580 1581 1878 1877 
1548 1549 1846 1845 1581 1582 1879 1878 
1549 1550 1847 1846 1582 1583 1880 1879 
1551 1552 1849 1848 1584 1585 1882 1881 
1552 1553 1850 1849 1585 1586 1883 1882 
1553 1554 1851 1850 1586 1587 1884 1883 
1554 1555 1852 1851 1587 1588 1885 1884 
1555 1556 1853 1852 1588 1589 1886 1885 
1556 1557 1854 1853 1589 1590 1887 1886 
1557 1558 1855 1854 1590 1591 1888 1887 
1558 1559 1856 1855 1591 1592 1889 1888 
1559 1560 1857 1856 1592 1593 1890 1889 
1560 1561 1858 1857 1593 1594 1891 1890 
1561 1562 1859 1858 1594 1595 1892 1891 
1562 1563 1860 1859 1595 1596 1893 1892 
1563 1564 1861 1860 1596 1597 1894 1893 
1564 1565 1862 1861 1597 1598 1895 1894 
1565 1566 1863 1862 1598 1599 1896 1895 
1566 1567 1864 1863 1599 1600 1897 1896 
1567 1568 1865 1864 1600 1601 1898 1897 
1568 1569 1866 1865 1601 1602 1899 1898 
1569 1570 1867 1866 1602 1603 1900 1899 
1570 1571 1868 1867 1603 1604 1901 1900 
1571 1572 1869 1868 1604 1605 1902 1901 
1572 1573 1870 1869 1605 1606 1903 1902 
1573 1574 1871 1870 1606 1607 1904 1903 
1574 1575 1872 1871 1607 1608 1905 1904 
1575 1576 1873 1872 1608 1609 1906 1905 
1576 1577 1874 1873 1609 1610 1907 1906 
1577 1578 1875 1874 1610 1611 1908 1907 
1578 1579 1876 1875 1611 1612 1909 1908 
1579 1580 1877 1876 1612 1613 1910 1909 
1580 1581 1878 1877 1613 1614 1911 1910 
1581 1582 1879 1878 1614 1615 1912 1911 
1582 1583 1880 1879 1615 1616 1913 1912 
1584 1585 1882 1881 1617 1618 1915 1914 
1585 1586 1883 1882 1618 1619 1916 1915 
1586 1587 1884 1883 1619 1620 1917 1916 
1587 1588 1885 1884 1620 1621 1918 1917 
1588 1589 1886 1885 1621 1622 1919 1918 
1589 1590 1887 1886 1622 1623 1920 1919 
1590 1591 1888 1887 1623 1624 1921 1920 
1591 1592 1889 1888 1624 1625 1922 1921 
1592 1593 1890 1889 1625 1626 1923 1922 
1593 1594 1891 1890 1626 1627 1924 1923 
1594 1595 1892 1891 1627 1628 1925 1924 
1595 1596 1893 1892 1628 1629 1926 1925 
1596 1597 1894 1893 1629 1630 1927 1926 
1597 1598 1895 1894 1630 1631 1928 1927 
1598 1599 1896 1895 1631 1632 1929 1928 
1599 1600 1897 1896 1632 1633 1930 1929 
1600 1601 1898 1897 1633 1634 1931 1930 
1601 1602 1899 1898 1634 1635 1932 1931 
1602 1603 1900 1899 1635 1636 1933 1932 
1603 1604 1901 1900 1636 1637 1934 1933 
1604 1605 1902 1901 1637 1638 1935 1934 
1605 1606 1903 1902 1638 1639 1936 1935 
1606 1607 1904 1903 1639 1640 1937 1936 
1607 1608 1905 1904 1640 1641 1938 1937 
1608 1609 1906 1905 1641 1642 1939 1938 
1609 1610 1907 1906 1642 1643 1940 1939 
1610 1611 1908 1907 1643 1644 1941 1940 
1611 1612 1909 1908 1644 1645 1942 1941 
1612 1613 1910 1909 1645 1646 1943 1942 
1613 1614 1911 1910 1646 1647 1944 1943 
1614 1615 1912 1911 1647 1648 1945 1944 
1615 1616 1913 1912 1648 1649 1946 1945 
1617 1618 1915 1914 1650 1651 1948 1947 
1618 1619 1916 1915 1651 1652 1949 1948 
1619 1620 1917 1916 1652 1653 1950 1949 
1620 1621 1918 1917 1653 1654 1951 1950 
1621 1622 1919 1918 1654 1655 1952 1951 
1622 1623 1920 1919 1655 1656 1953 1952 
1623 1624 1921 1920 1656 1657 1954 1953 
1624 1625 1922 1921 1657 1658 1955 1954 
1625 1626 1923 1922 1658 1659 1956 1955 
1626 1627 1924 1923 1659 1660 1957 1956 
1627 1628 1925 1924 1660 1661 1958 1957 
1628 1629 1926 1925 1661 1662 1959 1958 
1629 1630 1927 1926 1662 1663 1960 1959 
1630 1631 1928 1927 1663 1664 1961 1960 
1631 1632 1929 1928 1664 1665 1962 1961 
1632 1633 1930 1929 1665 1666 1963 1962 
1633 1634 1931 1930 1666 1667 1964 1963 
1634 1635 1932 1931 1667 1668 1965 1964 
1635 1636 1933 1932 1668 1669 1966 1965 
1636 1637 1934 1933 1669 1670 1967 1966 
1637 1638 1935 1934 1670 1671 1968 1967 
1638 1639 1936 1935 1671 1672 1969 1968 
1639 1640 1937 1936 1672 1673 1970 1969 
1640 1641 1938 1937 1673 1674 1971 1970 
1641 1642 1939 1938 1674 1675 1972 1971 
1642 1643 1940 1939 1675 1676 1973 1972 
1643 1644 1941 1940 1676 1677 1974 1973 
1644 1645 1942 1941 1677 1678 1975 1974 
1645 1646 1943 1942 1678 1679 1976 1975 
1646 1647 1944 1943 1679 1680 1977 1976 
1647 1648 1945 1944 1680 1681 1978 1977 
1648 1649 1946 1945 1681 1682 1979 1978 
1650 1651 1948 1947 1683 1684 1981 1980 
1651 1652 1949 1948 1684 1685 1982 1981 
1652 1653 1950 1949 1685 1686 1983 1982 
1653 1654 1951 1950 1686 1687 1984 1983 
1654 1655 1952 1951 1687 1688 1985 1984 
1655 1656 1953 1952 1688 1689 1986 1985 
1656 1657 1954 1953 1689 1690 1987 1986 
1657 1658 1955 1954 1690 1691 1988 1987 
1658 1659 1956 1955 1691 1692 1989 1988 
1659 1660 1957 1956 1692 1693 1990 1989 
1660 1661 1958 1957 1693 1694 1991 1990 
1661 1662 1959 1958 1694 1695 1992 1991 
1662 1663 1960 1959 1695 1696 1993 1992 
1663 1664 1961 1960 1696 1697 1994 1993 
1664 1665 1962 1961 1697 1698 1995 1994 
1665 1666 1963 1962 1698 1699 1996 1995 
1666 1667 1964 1963 1699 1700 1997 1996 
1667 1668 1965 1964 1700 1701 1998 1997 
1668 1669 1966 1965 1701 1702 1999 1998 
1669 1670 1967 1966 1702 1703 2000 1999 
1670 1671 1968 1967 1703 1704 2001 2000 
1671 1672 1969 1968 1704 1705 2002 2001 
1672 1673 1970 1969 1705 1706 2003 2002 
1673 1674 1971 1970 1706 1707 2004 2003 
1674 1675 1972 1971 1707 1708 2005 2004 
1675 1676 1973 1972 1708 1709 2006 2005 
1676 1677 1974 1973 1709 1710 2007 2006 
1677 1678 1975 1974 1710 1711 2008 2007 
1678 1679 1976 1975 1711 1712 2009 2008 
1679 1680 1977 1976 1712 1713 2010 2009 
1680 1681 1978 1977 1713 1714 2011 2010 
1681 1682 1979 1978 1714 1715 2012 2011 
1683 1684 1981 1980 1716 1717 2014 2013 
1684 1685 1982 1981 1717 1718 2015 2014 
1685 1686 1983 1982 1718 1719 2016 2015 
1686 1687 1984 1983 1719 1720 2017 2016 
1687 1688 1985 1984 1720 1721 2018 2017 
1688 1689 1986 1985 1721 1722 2019 2018 
1689 1690 1987 1986 1722 1723 2020 2019 
1690 1691 1988 1987 1723 1724 2021 2020 
1691 1692 1989 1988 1724 1725 2022 2021 
1692 1693 1990 1989 1725 1726 2023 2022 
1693 1694 1991 1990 1726 1727 2024 2023 
1694 1695 1992 1991 1727 1728 2025 2024 
1695 1696 1993 1992 1728 1729 2026 2025 
1696 1697 1994 1993 1729 1730 2027 2026 
1697 1698 1995 1994 1730 1731 2028 2027 
1698 1699 1996 1995 1731 1732 2029 2028 
1699 1700 1997 1996 1732 1733 2030 2029 
1700 1701 1998 1997 1733 1734 2031 2030 
1701 1702 1999 1998 1734 1735 2032 2031 
1702 1703 2000 1999 1735 1736 2033 2032 
1703 1704 2001 2000 1736 1737 2034 2033 
1704 1705 2002 2001 1737 1738 2035 2034 
1705 1706 2003 2002 1738 1739 2036 2035 
1706 1707 2004 2003 1739 1740 2037 2036 
1707 1708 2005 2004 1740 1741 2038 2037 
1708 1709 2006 2005 1741 1742 2039 2038 
1709 1710 2007 2006 1742 1743 2040 2039 
1710 1711 2008 2007 1743 1744 2041 2040 
1711 1712 2009 2008 1744 1745 2042 2041 
1712 1713 2010 2009 1745 1746 2043 2042 
1713 1714 2011 2010 1746 1747 2044 2043 
1714 1715 2012 2011 1747 1748 2045 2044 
1716 1717 2014 2013 1749 1750 2047 2046 
1717 1718 2015 2014 1750 1751 2048 2047 
1718 1719 2016 2015 1751 1752 2049 2048 
1719 1720 2017 2016 1752 1753 2050 2049 
1720 1721 2018 2017 1753 1754 2051 2050 
1721 1722 2019 2018 1754 1755 2052 2051 
1722 1723 2020 2019 1755 1756 2053 2052 
1723 1724 2021 2020 1756 1757 2054 2053 
1724 1725 2022 2021 1757 1758 2055 2054 
1725 1726 2023 2022 1758 1759 2056 2055 
1726 1727 2024 2023 1759 1760 2057 2056 
1727 1728 2025 2024 1760 1761 2058 2057 
1728 1729 2026 2025 1761 1762 2059 2058 
1729 1730 2027 2026 1762 1763 2060 2059 
1730 1731 2028 2027 1763 1764 2061 2060 
1731 1732 2029 2028 1764 1765 2062 2061 
1732 1733 2030 2029 1765 1766 2063 2062 
1733 1734 2031 2030 1766 1767 2064 2063 
1734 1735 2032 2031 1767 1768 2065 2064 
1735 1736 2033 2032 1768 1769 2066 2065 
1736 1737 2034 2033 1769 1770 2067 2066 
1737 1738 2035 2034 1770 1771 2068 2067 
1738 1739 2036 2035 1771 1772 2069 2068 
1739 1740 2037 2036 1772 1773 2070 2069 
1740 1741 2038 2037 1773 1774 2071 2070 
1741 1742 2039 2038 1774 1775 2072 2071 
1742 1743 2040 2039 1775 1776 2073 2072 
1743 1744 2041 2040 1776 1777 2074 2073 
1744 1745 2042 2041 1777 1778 2075 2074 
1745 1746 2043 2042 1778 1779 2076 2075 
1746 1747 2044 2043 1779 1780 2077 2076 
1747 1748 2045 2044 1780 1781 2078 2077 
1782 1783 2080 2079 1815 1816 2113 2112 
1783 1784 2081 2080 1816 1817 2114 2113 
1784 1785 2082 2081 1817 1818 2115 2114 
1785 1786 2083 2082 1818 1819 2116 2115 
1786 1787 2084 2083 1819 1820 2117 2116 
1787 1788 2085 2084 1820 1821 2118 2117 
1788 1789 2086 2085 1821 1822 2119 2118 
1789 1790 2087 2086 1822 1823 2120 2119 
1790 1791 2088 2087 1823 1824 2121 2120 
1791 1792 2089 2088 1824 1825 2122 2121 
1792 1793 2090 2089 1825 1826 2123 2122 
1793 1794 2091 2090 1826 1827 2124 2123 
1794 1795 2092 2091 1827 1828 2125 2124 
1795 1796 2093 2092 1828 1829 2126 2125 
1796 1797 2094 2093 1829 1830 2127 2126 
1797 1798 2095 2094 1830 1831 2128 2127 
1798 1799 2096 2095 1831 1832 2129 2128 
1799 1800 2097 2096 1832 1833 2130 2129 
1800 1801 2098 2097 1833 1834 2131 2130 
1801 1802 2099 2098 1834 1835 2132 2131 
1802 1803 2100 2099 1835 1836 2133 2132 
1803 1804 2101 2100 1836 1837 2134 2133 
1804 1805 2102 2101 1837 1838 2135 2134 
1805 1806 2103 2102 1838 1839 2136 2135 
1806 1807 2104 2103 1839 1840 2137 2136 
1807 1808 2105 2104 1840 1841 2138 2137 
1808 1809 2106 2105 1841 1842 2139 2138 
1809 1810 2107 2106 1842 1843 2140 2139 
1810 1811 2108 2107 1843 1844 2141 2140 
1811 1812 2109 2108 1844 1845 2142 2141 
1812 1813 2110 2109 1845 1846 2143 2142 
1813 1814 2111 2110 1846 1847 2144 2143 
1815 1816 2113 2112 1848 1849 2146 2145 
1816 1817 2114 2113 1849 1850 2147 2146 
1817 1818 2115 2114 1850 1851 2148 2147 
1818 1819 2116 2115 1851 1852 2149 2148 
1819 1820 2117 2116 1852 1853 2150 2149 
1820 1821 2118 2117 1853 1854 2151 2150 
1821 1822 2119 2118 1854 1855 2152 2151 
1822 1823 2120 2119 1855 1856 2153 2152 
1823 1824 2121 2120 1856 1857 2154 2153 
1824 1825 2122 2121 1857 1858 2155 2154 
1825 1826 2123 2122 1858 1859 2156 2155 
1826 1827 2124 2123 1859 1860 2157 2156 
1827 1828 2125 2124 1860 1861 2158 2157 
1828 1829 2126 2125 1861 1862 2159 2158 
1829 1830 2127 2126 1862 1863 2160 2159 
1830 1831 2128 2127 1863 1864 2161 2160 
1831 1832 2129 2128 1864 1865 2162 2161 
1832 1833 2130 2129 1865 1866 2163 2162 
1833 1834 2131 2130 1866 1867 2164 2163 
1834 1835 2132 2131 1867 1868 2165 2164 
1835 1836 2133 2132 1868 1869 2166 2165 
1836 1837 2134 2133 1869 1870 2167 2166 
1837 1838 2135 2134 1870 1871 2168 2167 
1838 1839 2136 2135 1871 1872 2169 2168 
1839 1840 2137 2136 1872 1873 2170 2169 
1840 1841 2138 2137 1873 1874 2171 2170 
1841 1842 2139 2138 1874 1875 2172 2171 
1842 1843 2140 2139 1875 1876 2173 2172 
1843 1844 2141 2140 1876 1877 2174 2173 
1844 1845 2142 2141 1877 1878 2175 2174 
1845 1846 2143 2142 1878 1879 2176 2175 
1846 1847 2144 2143 1879 1880 2177 2176 
1848 1849 2146 2145 1881 1882 2179 2178 
1849 1850 2147 2146 1882 1883 2180 2179 
1850 1851 2148 2147 1883 1884 2181 2180 
1851 1852 2149 2148 1884 1885 2182 2181 
1852 1853 2150 2149 1885 1886 2183 2182 
1853 1854 2151 2150 1886 1887 2184 2183 
1854 1855 2152 2151 1887 1888 2185 2184 
1855 1856 2153 2152 1888 1889 2186 2185 
1856 1857 2154 2153 1889 1890 2187 2186 
1857 1858 2155 2154 1890 1891 2188 2187 
1858 1859 2156 2155 1891 1892 2189 2188 
1859 1860 2157 2156 1892 1893 2190 2189 
1860 1861 2158 2157 1893 1894 2191 2190 
1861 1862 2159 2158 1894 1895 2192 2191 
1862 1863 2160 2159 1895 1896 2193 2192 
1863 1864 2161 2160 1896 1897 2194 2193 
1864 1865 2162 2161 1897 1898 2195 2194 
1865 1866 2163 2162 1898 1899 2196 2195 
1866 1867 2164 2163 1899 1900 2197 2196 
1867 1868 2165 2164 1900 1901 2198 2197 
1868 1869 2166 2165 1901 1902 2199 2198 
1869 1870 2167 2166 1902 1903 2200 2199 
1870 1871 2168 2167 1903 1904 2201 2200 
1871 1872 2169 2168 1904 1905 2202 2201 
1872 1873 2170 2169 1905 1906 2203 2202 
1873 1874 2171 2170 1906 1907 2204 2203 
1874 1875 2172 2171 1907 1908 2205 2204 
1875 1876 2173 2172 1908 1909 2206 2205 
1876 1877 2174 2173 1909 1910 2207 2206 
1877 1878 2175 2174 1910 1911 2208 2207 
1878 1879 2176 2175 1911 1912 2209 2208 
1879 1880 2177 2176 1912 1913 2210 2209 
1881 1882 2179 2178 1914 1915 2212 2211 
1882 1883 2180 2179 1915 1916 2213 2212 
1883 1884 2181 2180 1916 1917 2214 2213 
1884 1885 2182 2181 1917 1918 2215 2214 
1885 1886 2183 2182 1918 1919 2216 2215 
1886 1887 2184 2183 1919 1920 2217 2216 
1887 1888 2185 2184 1920 1921 2218 2217 
1888 1889 2186 2185 1921 1922 2219 2218 
1889 1890 2187 2186 1922 1923 2220 2219 
1890 1891 2188 2187 1923 1924 2221 2220 
1891 1892 2189 2188 1924 1925 2222 2221 
1892 1893 2190 2189 1925 1926 2223 2222 
1893 1894 2191 2190 1926 1927 2224 2223 
1894 1895 2192 2191 1927 1928 2225 2224 
1895 1896 2193 2192 1928 1929 2226 2225 
1896 1897 2194 2193 1929 1930 2227 2226 
1897 1898 2195 2194 1930 1931 2228 2227 
1898 1899 2196 2195 1931 1932 2229 2228 
1899 1900 2197 2196 1932 1933 2230 2229 
1900 1901 2198 2197 1933 1934 2231 2230 
1901 1902 2199 2198 1934 1935 2232 2231 
1902 1903 2200 2199 1935 1936 2233 2232 
1903 1904 2201 2200 1936 1937 2234 2233 
1904 1905 2202 2201 1937 1938 2235 2234 
1905 1906 2203 2202 1938 1939 2236 2235 
1906 1907 2204 2203 1939 1940 2237 2236 
1907 1908 2205 2204 1940 1941 2238 2237 
1908 1909 2206 2205 1941 1942 2239 2238 
1909 1910 2207 2206 1942 1943 2240 2239 
1910 1911 2208 2207 1943 1944 2241 2240 
1911 1912 2209 2208 1944 1945 2242 2241 
1912 1913 2210 2209 1945 1946 2243 2242 
1914 1915 2212 2211 1947 1948 2245 2244 
1915 1916 2213 2212 1948 1949 2246 2245 
1916 1917 2214 2213 1949 1950 2247 2246 
1917 1918 2215 2214 1950 1951 2248 2247 
1918 1919 2216 2215 1951 1952 2249 2248 
1919 1920 2217 2216 1952 1953 2250 2249 
1920 1921 2218 2217 1953 1954 2251 2250 
1921 1922 2219 2218 1954 1955 2252 2251 
1922 1923 2220 2219 1955 1956 2253 2252 
1923 1924 2221 2220 1956 1957 2254 2253 
1924 1925 2222 2221 1957 1958 2255 2254 
1925 1926 2223 2222 1958 1959 2256 2255 
1926 1927 2224 2223 1959 1960 2257 2256 
1927 1928 2225 2224 1960 1961 2258 2257 
1928 1929 2226 2225 1961 1962 2259 2258 
1929 1930 2227 2226 1962 1963 2260 2259 
1930 1931 2228 2227 1963 1964 2261 2260 
1931 1932 2229 2228 1964 1965 2262 2261 
1932 1933 2230 2229 1965 1966 2263 2262 
1933 1934 2231 2230 1966 1967 2264 2263 
1934 1935 2232 2231 1967 1968 2265 2264 
1935 1936 2233 2232 1968 1969 2266 2265 
1936 1937 2234 2233 1969 1970 2267 2266 
1937 1938 2235 2234 1970 1971 2268 2267 
1938 1939 2236 2235 1971 1972 2269 2268 
1939 1940 2237 2236 1972 1973 2270 2269 
1940 1941 2238 2237 1973 1974 2271 2270 
1941 1942 2239 2238 1974 1975 2272 2271 
1942 1943 2240 2239 1975 1976 2273 2272 
1943 1944 2241 2240 1976 1977 2274 2273 
1944 1945 2242 2241 1977 1978 2275 2274 
1945 1946 2243 2242 1978 1979 2276 2275 
1947 1948 2245 2244 1980 1981 2278 2277 
1948 1949 2246 2245 1981 1982 2279 2278 
1949 1950 2247 2246 1982 1983 2280 2279 
1950 1951 2248 2247 1983 1984 2281 2280 
1951 1952 2249 2248 1984 1985 2282 2281 
1952 1953 2250 2249 1985 1986 2283 2282 
1953 1954 2251 2250 1986 1987 2284 2283 
1954 1955 2252 2251 1987 1988 2285 2284 
1955 1956 2253 2252 1988 1989 2286 2285 
1956 1957 2254 2253 1989 1990 2287 2286 
1957 1958 2255 2254 1990 1991 2288 2287 
1958 1959 2256 2255 1991 1992 2289 2288 
1959 1960 2257 2256 1992 1993 2290 2289 
1960 1961 2258 2257 1993 1994 2291 2290 
1961 1962 2259 2258 1994 1995 2292 2291 
1962 1963 2260 2259 1995 1996 2293 2292 
1963 1964 2261 2260 1996 1997 2294 2293 
1964 1965 2262 2261 1997 1998 2295 2294 
1965 1966 2263 2262 1998 1999 2296 2295 
1966 1967 2264 2263 1999 2000 2297 2296 
1967 1968 2265 2264 2000 2001 2298 2297 
1968 1969 2266 2265 2001 2002 2299 2298 
1969 1970 2267 2266 2002 2003 2300 2299 
1970 1971 2268 2267 2003 2004 2301 2300 
1971 1972 2269 2268 2004 2005 2302 2301 
1972 1973 2270 2269 2005 2006 2303 2302 
1973 1974 2271 2270 2006 2007 2304 2303 
1974 1975 2272 2271 2007 2008 2305 2304 
1975 1976 2273 2272 2008 2009 2306 2305 
1976 1977 2274 2273 2009 2010 2307 2306 
1977 1978 2275 2274 2010 2011 2308 2307 
1978 1979 2276 2275 2011 2012 2309 2308 
1980 1981 2278 2277 2013 2014 2311 2310 
1981 1982 2279 2278 2014 2015 2312 2311 
1982 1983 2280 2279 2015 2016 2313 2312 
1983 1984 2281 2280 2016 2017 2314 2313 
1984 1985 2282 2281 2017 2018 2315 2314 
1985 1986 2283 2282 2018 2019 2316 2315 
1986 1987 2284 2283 2019 2020 2317 2316 
1987 1988 2285 2284 2020 2021 2318 2317 
1988 1989 2286 2285 2021 2022 2319 2318 
1989 1990 2287 2286 2022 2023 2320 2319 
1990 1991 2288 2287 2023 2024 2321 2320 
1991 1992 2289 2288 2024 2025 2322 2321 
1992 1993 2290 2289 2025 2026 2323 2322 
1993 1994 2291 2290 2026 2027 2324 2323 
1994 1995 2292 2291 2027 2028 2325 2324 
1995 1996 2293 2292 2028 2029 2326 2325 
1996 1997 2294 2293 2029 2030 2327 2326 
1997 1998 2295 2294 2030 2031 2328 2327 
1998 1999 2296 2295 2031 2032 2329 2328 
1999 2000 2297 2296 2032 2033 2330 2329 
2000 2001 2298 2297 2033 2034 2331 2330 
2001 2002 2299 2298 2034 2035 2332 2331 
2002 2003 2300 2299 2035 2036 2333 2332 
2003 2004 2301 2300 2036 2037 2334 2333 
2004 2005 2302 2301 2037 2038 2335 2334 
2005 2006 2303 2302 2038 2039 2336 2335 
2006 2007 2304 2303 2039 2040 2337 2336 
2007 2008 2305 2304 2040 2041 2338 2337 
2008 2009 2306 2305 2041 2042 2339 2338 
2009 2010 2307 2306 2042 2043 2340 2339 
2010 2011 2308 2307 2043 2044 2341 2340 
2011 2012 2309 2308 2044 2045 2342 2341 
2013 2014 2311 2310 2046 2047 2344 2343 
2014 2015 2312 2311 2047 2048 2345 2344 
2015 2016 2313 2312 2048 2049 2346 2345 
2016 2017 2314 2313 2049 2050 2347 2346 
2017 2018 2315 2314 2050 2051 2348 2347 
2018 2019 2316 2315 2051 2052 2349 2348 
2019 2020 2317 2316 2052 2053 2350 2349 
2020 2021 2318 2317 2053 2054 2351 2350 
2021 2022 2319 2318 2054 2055 2352 2351 
2022 2023 2320 2319 2055 2056 2353 2352 
2023 2024 2321 2320 2056 2057 2354 2353 
2024 2025 2322 2321 2057 2058 2355 2354 
2025 2026 2323 2322 2058 2059 2356 2355 
2026 2027 2324 2323 2059 2060 2357 2356 
2027 2028 2325 2324 2060 2061 2358 2357 
2028 2029 2326 2325 2061 2062 2359 2358 
2029 2030 2327 2326 2062 2063 2360 2359 
2030 2031 2328 2327 2063 2064 2361 2360 
2031 2032 2329 2328 2064 2065 2362 2361 
2032 2033 2330 2329 2065 2066 2363 2362 
2033 2034 2331 2330 2066 2067 2364 2363 
2034 2035 2332 2331 2067 2068 2365 2364 
2035 2036 2333 2332 2068 2069 2366 2365 
2036 2037 2334 2333 2069 2070 2367 2366 
2037 2038 2335 2334 2070 2071 2368 2367 
2038 2039 2336 2335 2071 2072 2369 2368 
2039 2040 2337 2336 2072 2073 2370 2369 
2040 2041 2338 2337 2073 2074 2371 2370 
2041 2042 2339 2338 2074 2075 2372 2371 
2042 2043 2340 2339 2075 2076 2373 2372 
2043 2044 2341 2340 2076 2077 2374 2373 
2044 2045 2342 2341 2077 2078 2375 2374 
2079 2080 2377 2376 2112 2113 2410 2409 
2080 2081 2378 2377 2113 2114 2411 2410 
2081 2082 2379 2378 2114 2115 2412 2411 
2082 2083 2380 2379 2115 2116 2413 2412 
2083 2084 2381 2380 2116 2117 2414 2413 
2084 2085 2382 2381 2117 2118 2415 2414 
2085 2086 2383 2382 2118 2119 2416 2415 
2086 2087 2384 2383 2119 2120 2417 2416 
2087 2088 2385 2384 2120 2121 2418 2417 
2088 2089 2386 2385 2121 2122 2419 2418 
2089 2090 2387 2386 2122 2123 2420 2419 
2090 2091 2388 2387 2123 2124 2421 2420 
2091 2092 2389 2388 2124 2125 2422 2421 
2092 2093 2390 2389 2125 2126 2423 2422 
2093 2094 2391 2390 2126 2127 2424 2423 
2094 2095 2392 2391 2127 2128 2425 2424 
2095 2096 2393 2392 2128 2129 2426 2425 
2096 2097 2394 2393 2129 2130 2427 2426 
2097 2098 2395 2394 2130 2131 2428 2427 
2098 2099 2396 2395 2131 2132 2429 2428 
2099 2100 2397 2396 2132 2133 2430 2429 
2100 2101 2398 2397 2133 2134 2431 2430 
2101 2102 2399 2398 2134 2135 2432 2431 
2102 2103 2400 2399 2135 2136 2433 2432 
2103 2104 2401 2400 2136 2137 2434 2433 
2104 2105 2402 2401 2137 2138 2435 2434 
2105 2106 2403 2402 2138 2139 2436 2435 
2106 2107 2404 2403 2139 2140 2437 2436 
2107 2108 2405 2404 2140 2141 2438 2437 
2108 2109 2406 2405 2141 2142 2439 2438 
2109 2110 2407 2406 2142 2143 2440 2439 
2110 2111 2408 2407 2143 2144 2441 2440 
2112 2113 2410 2409 2145 2146 2443 2442 
2113 2114 2411 2410 2146 2147 2444 2443 
2114 2115 2412 2411 2147 2148 2445 2444 
2115 2116 2413 2412 2148 2149 2446 2445 
2116 2117 2414 2413 2149 2150 2447 2446 
2117 2118 2415 2414 2150 2151 2448 2447 
2118 2119 2416 2415 2151 2152 2449 2448 
2119 2120 2417 2416 2152 2153 2450 2449 
2120 2121 2418 2417 2153 2154 2451 2450 
2121 2122 2419 2418 2154 2155 2452 2451 
2122 2123 2420 2419 2155 2156 2453 2452 
2123 2124 2421 2420 2156 2157 2454 2453 
2124 2125 2422 2421 2157 2158 2455 2454 
2125 2126 2423 2422 2158 2159 2456 2455 
2126 2127 2424 2423 2159 2160 2457 2456 
2127 2128 2425 2424 2160 2161 2458 2457 
2128 2129 2426 2425 2161 2162 2459 2458 
2129 2130 2427 2426 2162 2163 2460 2459 
2130 2131 2428 2427 2163 2164 2461 2460 
2131 2132 2429 2428 2164 2165 2462 2461 
2132 2133 2430 2429 2165 2166 2463 2462 
2133 2134 2431 2430 2166 2167 2464 2463 
2134 2135 2432 2431 2167 2168 2465 2464 
2135 2136 2433 2432 2168 2169 2466 2465 
2136 2137 2434 2433 2169 2170 2467 2466 
2137 2138 2435 2434 2170 2171 2468 2467 
2138 2139 2436 2435 2171 2172 2469 2468 
2139 2140 2437 2436 2172 2173 2470 2469 
2140 2141 2438 2437 2173 2174 2471 2470 
2141 2142 2439 2438 2174 2175 2472 2471 
2142 2143 2440 2439 2175 2176 2473 2472 
2143 2144 2441 2440 2176 2177 2474 2473 
2145 2146 2443 2442 2178 2179 2476 2475 
2146 2147 2444 2443 2179 2180 2477 2476 
2147 2148 2445 2444 2180 2181 2478 2477 
2148 2149 2446 2445 2181 2182 2479 2478 
2149 2150 2447 2446 2182 2183 2480 2479 
2150 2151 2448 2447 2183 2184 2481 2480 
2151 2152 2449 2448 2184 2185 2482 2481 
2152 2153 2450 2449 2185 2186 2483 2482 
2153 2154 2451 2450 2186 2187 2484 2483 
2154 2155 2452 2451 2187 2188 2485 2484 
2155 2156 2453 2452 2188 2189 2486 2485 
2156 2157 2454 2453 2189 2190 2487 2486 
2157 2158 2455 2454 2190 2191 2488 2487 
2158 2159 2456 2455 2191 2192 2489 2488 
2159 2160 2457 2456 2192 2193 2490 2489 
2160 2161 2458 2457 2193 2194 2491 2490 
2161 2162 2459 2458 2194 2195 2492 2491 
2162 2163 2460 2459 2195 2196 2493 2492 
2163 2164 2461 2460 2196 2197 2494 2493 
2164 2165 2462 2461 2197 2198 2495 2494 
2165 2166 2463 2462 2198 2199 2496 2495 
2166 2167 2464 2463 2199 2200 2497 2496 
2167 2168 2465 2464 2200 2201 2498 2497 
2168 2169 2466 2465 2201 2202 2499 2498 
2169 2170 2467 2466 2202 2203 2500 2499 
2170 2171 2468 2467 2203 2204 2501 2500 
2171 2172 2469 2468 2204 2205 2502 2501 
2172 2173 2470 2469 2205 2206 2503 2502 
2173 2174 2471 2470 2206 2207 2504 2503 
2174 2175 2472 2471 2207 2208 2505 2504 
2175 2176 2473 2472 2208 2209 2506 2505 
2176 2177 2474 2473 2209 2210 2507 2506 
2178 2179 2476 2475 2211 2212 2509 2508 
2179 2180 2477 2476 2212 2213 2510 2509 
2180 2181 2478 2477 2213 2214 2511 2510 
2181 2182 2479 2478 2214 2215 2512 2511 
2182 2183 2480 2479 2215 2216 2513 2512 
2183 2184 2481 2480 2216 2217 2514 2513 
2184 2185 2482 2481 2217 2218 2515 2514 
2185 2186 2483 2482 2218 2219 2516 2515 
2186 2187 2484 2483 2219 2220 2517 2516 
2187 2188 2485 2484 2220 2221 2518 2517 
2188 2189 2486 2485 2221 2222 2519 2518 
2189 2190 2487 2486 2222 2223 2520 2519 
2190 2191 2488 2487 2223 2224 2521 2520 
2191 2192 2489 2488 2224 2225 2522 2521 
2192 2193 2490 2489 2225 2226 2523 2522 
2193 2194 2491 2490 2226 2227 2524 2523 
2194 2195 2492 2491 2227 2228 2525 2524 
2195 2196 2493 2492 2228 2229 2526 2525 
2196 2197 2494 2493 2229 2230 2527 2526 
2197 2198 2495 2494 2230 2231 2528 2527 
2198 2199 2496 2495 2231 2232 2529 2528 
2199 2200 2497 2496 2232 2233 2530 2529 
2200 2201 2498 2497 2233 2234 2531 2530 
2201 2202 2499 2498 2234 2235 2532 2531 
2202 2203 2500 2499 2235 2236 2533 2532 
2203 2204 2501 2500 2236 2237 2534 2533 
2204 2205 2502 2501 2237 2238 2535 2534 
2205 2206 2503 2502 2238 2239 2536 2535 
2206 2207 2504 2503 2239 2240 2537 2536 
2207 2208 2505 2504 2240 2241 2538 2537 
2208 2209 2506 2505 2241 2242 2539 2538 
2209 2210 2507 2506 2242 2243 2540 2539 
2211 2212 2509 2508 2244 2245 2542 2541 
2212 2213 2510 2509 2245 2246 2543 2542 
2213 2214 2511 2510 2246 2247 2544 2543 
2214 2215 2512 2511 2247 2248 2545 2544 
2215 2216 2513 2512 2248 2249 2546 2545 
2216 2217 2514 2513 2249 2250 2547 2546 
2217 2218 2515 2514 2250 2251 2548 2547 
2218 2219 2516 2515 2251 2252 2549 2548 
2219 2220 2517 2516 2252 2253 2550 2549 
2220 2221 2518 2517 2253 2254 2551 2550 
2221 2222 2519 2518 2254 2255 2552 2551 
2222 2223 2520 2519 2255 2256 2553 2552 
2223 2224 2521 2520 2256 2257 2554 2553 
2224 2225 2522 2521 2257 2258 2555 2554 
2225 2226 2523 2522 2258 2259 2556 2555 
2226 2227 2524 2523 2259 2260 2557 2556 
2227 2228 2525 2524 2260 2261 2558 2557 
2228 2229 2526 2525 2261 2262 2559 2558 
2229 2230 2527 2526 2262 2263 2560 2559 
2230 2231 2528 2527 2263 2264 2561 2560 
2231 2232 2529 2528 2264 2265 2562 2561 
2232 2233 2530 2529 2265 2266 2563 2562 
2233 2234 2531 2530 2266 2267 2564 2563 
2234 2235 2532 2531 2267 2268 2565 2564 
2235 2236 2533 2532 2268 2269 2566 2565 
2236 2237 2534 2533 2269 2270 2567 2566 
2237 2238 2535 2534 2270 2271 2568 2567 
2238 2239 2536 2535 2271 2272 2569 2568 
2239 2240 2537 2536 2272 2273 2570 2569 
2240 2241 2538 2537 2273 2274 2571 2570 
2241 2242 2539 2538 2274 2275 2572 2571 
2242 2243 2540 2539 2275 2276 2573 2572 
2244 2245 2542 2541 2277 2278 2575 2574 
2245 2246 2543 2542 2278 2279 2576 2575 
2246 2247 2544 2543 2279 2280 2577 2576 
2247 2248 2545 2544 2280 2281 2578 2577 
2248 2249 2546 2545 2281 2282 2579 2578 
2249 2250 2547 2546 2282 2283 2580 2579 
2250 2251 2548 2547 2283 2284 2581 2580 
2251 2252 2549 2548 2284 2285 2582 2581 
2252 2253 2550 2549 2285 2286 2583 2582 
2253 2254 2551 2550 2286 2287 2584 2583 
2254 2255 2552 2551 2287 2288 2585 2584 
2255 2256 2553 2552 2288 2289 2586 2585 
2256 2257 2554 2553 2289 2290 2587 2586 
2257 2258 2555 2554 2290 2291 2588 2587 
2258 2259 2556 2555 2291 2292 2589 2588 
2259 2260 2557 2556 2292 2293 2590 2589 
2260 2261 2558 2557 2293 2294 2591 2590 
2261 2262 2559 2558 2294 2295 2592 2591 
2262 2263 2560 2559 2295 2296 2593 2592 
2263 2264 2561 2560 2296 2297 2594 2593 
2264 2265 2562 2561 2297 2298 2595 2594 
2265 2266 2563 2562 2298 2299 2596 2595 
2266 2267 2564 2563 2299 2300 2597 2596 
2267 2268 2565 2564 2300 2301 2598 2597 
2268 2269 2566 2565 2301 2302 2599 2598 
2269 2270 2567 2566 2302 2303 2600 2599 
2270 2271 2568 2567 2303 2304 2601 2600 
2271 2272 2569 2568 2304 2305 2602 2601 
2272 2273 2570 2569 2305 2306 2603 2602 
2273 2274 2571 2570 2306 2307 2604 2603 
2274 2275 2572 2571 2307 2308 2605 2604 
2275 2276 2573 2572 2308 2309 2606 2605 
2277 2278 2575 2574 2310 2311 2608 2607 
2278 2279 2576 2575 2311 2312 2609 2608 
2279 2280 2577 2576 2312 2313 2610 2609 
2280 2281 2578 2577 2313 2314 2611 2610 
2281 2282 2579 2578 2314 2315 2612 2611 
2282 2283 2580 2579 2315 2316 2613 2612 
2283 2284 2581 2580 2316 2317 2614 2613 
2284 2285 2582 2581 2317 2318 2615 2614 
2285 2286 2583 2582 2318 2319 2616 2615 
2286 2287 2584 2583 2319 2320 2617 2616 
2287 2288 2585 2584 2320 2321 2618 2617 
2288 2289 2586 2585 2321 2322 2619 2618 
2289 2290 2587 2586 2322 2323 2620 2619 
2290 2291 2588 2587 2323 2324 2621 2620 
2291 2292 2589 2588 2324 2325 2622 2621 
2292 2293 2590 2589 2325 2326 2623 2622 
2293 2294 2591 2590 2326 2327 2624 2623 
2294 2295 2592 2591 2327 2328 2625 2624 
2295 2296 2593 2592 2328 2329 2626 2625 
2296 2297 2594 2593 2329 2330 2627 2626 
2297 2298 2595 2594 2330 2331 2628 2627 
2298 2299 2596 2595 2331 2332 2629 2628 
2299 2300 2597 2596 2332 2333 2630 2629 
2300 2301 2598 2597 2333 2334 2631 2630 
2301 2302 2599 2598 2334 2335 2632 2631 
2302 2303 2600 2599 2335 2336 2633 2632 
2303 2304 2601 2600 2336 2337 2634 2633 
2304 2305 2602 2601 2337 2338 2635 2634 
2305 2306 2603 2602 2338 2339 2636 2635 
2306 2307 2604 2603 2339 2340 2637 2636 
2307 2308 2605 2604 2340 2341 2638 2637 
2308 2309 2606 2605 2341 2342 2639 2638 
2310 2311 2608 2607 2343 2344 2641 2640 
2311 2312 2609 2608 2344 2345 2642 2641 
2312 2313 2610 2609 2345 2346 2643 2642 
2313 2314 2611 2610 2346 2347 2644 2643 
2314 2315 2612 2611 2347 2348 2645 2644 
2315 2316 2613 2612 2348 2349 2646 2645 
2316 2317 2614 2613 2349 2350 2647 2646 
2317 2318 2615 2614 2350 2351 2648 2647 
2318 2319 2616 2615 2351 2352 2649 2648 
2319 2320 2617 2616 2352 2353 2650 2649 
2320 2321 2618 2617 2353 2354 2651 2650 
2321 2322 2619 2618 2354 2355 2652 2651 
2322 2323 2620 2619 2355 2356 2653 2652 
2323 2324 2621 2620 2356 2357 2654 2653 
2324 2325 2622 2621 2357 2358 2655 2654 
2325 2326 2623 2622 2358 2359 2656 2655 
2326 2327 2624 2623 2359 2360 2657 2656 
2327 2328 2625 2624 2360 2361 2658 2657 
2328 2329 2626 2625 2361 2362 2659 2658 
2329 2330 2627 2626 2362 2363 2660 2659 
2330 2331 2628 2627 2363 2364 2661 2660 
2331 2332 2629 2628 2364 2365 2662 2661 
2332 2333 2630 2629 2365 2366 2663 2662 
2333 2334 2631 2630 2366 2367 2664 2663 
2334 2335 2632 2631 2367 2368 2665 2664 
2335 2336 2633 2632 2368 2369 2666 2665 
2336 2337 2634 2633 2369 2370 2667 2666 
2337 2338 2635 2634 2370 2371 2668 2667 
2338 2339 2636 2635 2371 2372 2669 2668 
2339 2340 2637 2636 2372 2373 2670 2669 
2340 2341 2638 2637 2373 2374 2671 2670 
2341 2342 2639 2638 2374 2375 2672 2671 
CELL_TYPES 2048
12 12 12 12 12 12 12 12 12 12 12 12 12 12 12 12 12 12 12 12 12 12 12 12 12 12 12 12 12 12 12 12 12 12 12 12 12 12 12 12 12 12 12 12 12 12 12 12 12 12 12 12 12 12 12 12 12 12 12 12 12 12 12 12 12 12 12 12 12 12 12 12 12 12 12 12 12 12 12 12 12 12 12 12 12 12 12 12 12 12 12 12 12 12 12 12 12 12 12 12 12 12 12 12 12 12 12 12 12 12 12 12 12 12 12 12 12 12 12 12 12 12 12 12 12 12 12 12 12 12 12 12 12 12 12 12 12 12 12 12 12 12 12 12 12 12 12 12 12 12 12 12 12 12 12 12 12 12 12 12 12 12 12 12 12 12 12 12 12 12 12 12 12 12 12 12 12 12 12 12 12 12 12 12 12 12 12 12 12 12 12 12 12 12 12 12 12 12 12 12 12 12 12 12 12 12 12 12 12 12 12 12 12 12 12 12 12 12 12 12 12 12 12 12 12 12 12 12 12 12 12 12 12 12 12 12 12 12 12 12 12 12 12 12 12 12 12 12 12 12 12 12 12 12 12 12 12 12 12 12 12 12 12 12 12 12 12 12 12 12 12 12 12 12 12 12 12 12 12 12 12 12 12 12 12 12 12 12 12 12 12 12 12 12 12 12 12 12 12 12 12 12 12 12 12 12 12 12 12 12 12 12 12 12 12 12 12 12 12 12 12 12 12 12 12 12 12 12 12 12 12 12 12 12 12 12 12 12 12 12 12 12 12 12 12 12 12 12 12 12 12 12 12 12 12 12 12 12 12 12 12 12 12 12 12 12 12 12 12 12 12 12 12 12 12 12 12 12 12 12 12 12 12 12 12 12 12 12 12 12 12 12 12 12 12 12 12 12 12 12 12 12 12 12 12 12 12 12 12 12 12 12 12 12 12 12 12 12 12 12 12 12 12 12 12 12 12 12 12 12 12 12 12 12 12 12 12 12 12 12 12 12 12 12 12 12 12 12 12 12 12 12 12 12 12 12 12 12 12 12 12 12 12 12 12 12 12 12 12 12 12 12 12 12 12 12 12 12 12 12 12 12 12 12 12 12 12 12 12 12 12 12 12 12 12 12 12 12 12 12 12 12 12 12 12 12 12 12 12 12 12 12 12 12 12 12 12 12 12 12 12 12 12 12 12 12 12 12 12 12 12 12 12 12 12 12 12 12 12 12 12 12 12 12 12 12 12 12 12 12 12 12 12 12 12 12 12 12 12 12 12 12 12 12 12 12 12 12 12 12 12 12 12 12 12 12 12 12 12 12 12 12 12 12 12 12 12 12 12 12 12 12 12 12 12 12 12 12 12 12 12 12 12 12 12 12 12 12 12 12 12 12 12 12 12 12 12 12 12 12 12 12 12 12 12 12 12 12 12 12 12 12 12 12 12 12 12 12 12 12 12 12 12 12 12 12 12 12 12 12 12 12 12 12 12 12 12 12 12 12 12 12 12 12 12 12 12 12 12 12 12 12 12 12 12 12 12 12 12 12 12 12 12 12 12 12 12 12 12 12 12 12 12 12 12 12 12 12 12 12 12 12 12 12 12 12 12 12 12 12 12 12 12 12 12 12 12 12 12 12 12 12 12 12 12 12 12 12 12 12 12 12 12 12 12 12 12 12 12 12 12 12 12 12 12 12 12 12 12 12 12 12 12 12 12 12 12 12 12 12 12 12 12 12 12 12 12 12 12 12 12 12 12 12 12 12 12 12 12 12 12 12 12 12 12 12 12 12 12 12 12 12 12 12 12 12 12 12 12 12 12 12 12 12 12 12 12 12 12 12 12 12 12 12 12 12 12 12 12 12 12 12 12 12 12 12 12 12 12 12 12 12 12 12 12 12 12 12 12 12 12 12 12 12 12 12 12 12 12 12 12 12 12 12 12 12 12 12 12 12 12 12 12 12 12 12 12 12 12 12 12 12 12 12 12 12 12 12 12 12 12 12 12 12 12 12 12 12 12 12 12 12 12 12 12 12 12 12 12 12 12 12 12 12 12 12 12 12 12 12 12 12 12 12 12 12 12 12 12 12 12 12 12 12 12 12 12 12 12 12 12 12 12 12 12 12 12 12 12 12 12 12 12 12 12 12 12 12 12 12 12 12 12 12 12 12 12 12 12 12 12 12 12 12 12 12 12 12 12 12 12 12 12 12 12 12 12 12 12 12 12 12 12 12 12 12 12 12 12 12 12 12 12 12 12 12 12 12 12 12 12 12 12 12 12 12 12 12 12 12 12 12 12 12 12 12 12 12 12 12 12 12 12 12 12 12 12 12 12 12 12 12 12 12 12 12 12 12 12 12 12 12 12 12 12 12 12 12 12 12 12 12 12 12 12 12 12 12 12 12 12 12 12 12 12 12 12 12 12 12 12 12 12 12 12 12 12 12 12 12 12 12 12 12 12 12 12 12 12 12 12 12 12 12 12 12 12 12 12 12 12 12 12 12 12 12 12 12 12 12 12 12 12 12 12 12 12 12 12 12 12 12 12 12 12 12 12 12 12 12 12 12 12 12 12 12 12 12 12 12 12 12 12 12 12 12 12 12 12 12 12 12 12 12 12 12 12 12 12 12 12 12 12 12 12 12 12 12 12 12 12 12 12 12 12 12 12 12 12 12 12 12 12 12 12 12 12 12 12 12 12 12 12 12 12 12 12 12 12 12 12 12 12 12 12 12 12 12 12 12 12 12 12 12 12 12 12 12 12 12 12 12 12 12 12 12 12 12 12 12 12 12 12 12 12 12 12 12 12 12 12 12 12 12 12 12 12 12 12 12 12 12 12 12 12 12 12 12 12 12 12 12 12 12 12 12 12 12 12 12 12 12 12 12 12 12 12 12 12 12 12 12 12 12 12 12 12 12 12 12 12 12 12 12 12 12 12 12 12 12 12 12 12 12 12 12 12 12 12 12 12 12 12 12 12 12 12 12 12 12 12 12 12 12 12 12 12 12 12 12 12 12 12 12 12 12 12 12 12 12 12 12 12 12 12 12 12 12 12 12 12 12 12 12 12 12 12 12 12 12 12 12 12 12 12 12 12 12 12 12 12 12 12 12 12 12 12 12 12 12 12 12 12 12 12 12 12 12 12 12 12 12 12 12 12 12 12 12 12 12 12 12 12 12 12 12 12 12 12 12 12 12 12 12 12 12 12 12 12 12 12 12 12 12 12 12 12 12 12 12 12 12 12 12 12 12 12 12 12 12 12 12 12 12 12 12 12 12 12 12 12 12 12 12 12 12 12 12 12 12 12 12 12 12 12 12 12 12 12 12 12 12 12 12 12 12 12 12 12 12 12 12 12 12 12 12 12 12 12 12 12 12 12 12 12 12 12 12 12 12 12 12 12 12 12 12 12 12 12 12 12 12 12 12 12 12 12 12 12 12 12 12 12 12 12 12 12 12 12 12 12 12 12 12 12 12 12 12 12 12 12 12 12 12 12 12 12 12 12 12 12 12 12 12 12 12 12 12 12 12 12 12 12 12 12 12 12 12 12 12 12 12 12 12 12 12 12 12 12 12 12 12 12 12 12 12 12 12 12 12 12 12 12 12 12 12 12 12 12 12 12 12 12 12 12 12 12 12 12 12 12 12 12 12 12 12 12 12 12 12 12 12 12 12 12 12 12 12 12 12 12 12 12 12 12 12 12 12 12 12 12 12 12 12 12 12 12 12 12 12 12 12 12 12 12 12 12 12 12 12 12 12 12 12 12 12 12 12 12 12 12 12 12 12 12 12 12 12 12 12 12 12 12 12 12 12 12 12 12 12 12 12 12 12 12 12 12 12 12 12 12 12 12 12 12 12 12 12 12 12 12 12 12 12 12 12 12 12 12 12 12 12 12 12 12 12 12 12 12 12 12 12 12 12 12 12 12 12 12 12 12 12 12 12 12 12 12 12 12 12 12 12 12 12 12 12 12 12 12 12 12 12 12 12 12 12 12 12 12 12 12 12 12 12 12 12 12 12 12 12 12 12 12 12 12 12 12 12 12 12 12 12 12 12 12 12 12 12 12 12 12 12 12 12 12 12 12 12 12 12 12 12 12 12 12 12 12 12 12 12 12 12 12 12 12 12 12 12 12 12 12 12 12 12 12 12 12 12 12 12 12 12 12 12 12 12 12 12 12 12 12 12 12 12 12 12 12 12 12 12 12 12 12 12 12 12 12 12 12 12 12 12 12 12 12 12 12 12 12 12 12 12 12 12 12 12 12 12 12 12 12 12 12 12 12 12 12 12 12 12 12 12 12 12 12 12 12 12 12 12 12 12 12 12 12 12 12 12 12 12 12 12 12 12 12 12 12 12 12 12 12 12 12 12 12 12 12 12 12 12 12 12 12 12 12 12 12 12 12 12 12 12 12 12 12 12 12 12 12 12 12 12 12 12 12 12 12 12 12 12 12 12 12 12 12 12 12 12 12 12 12 12 12 12 12 12 12 12 12 12 12 12 12 12 12 12 12 12 12 12 12 12 12 12 12 12 12 12 12 12 12 12 12 12 12 12 12 12 12 12 12 12 12 12 12 12 12 12 12 12 12 12 12 12 12 12 12 12 12 12 12 12 12 12 12 12 12 12 

POINT_DATA 2673
SCALARS weights float 1
LOOKUP_TABLE default
0.244141 0.488281 0.488281 0.488281 0.488281 0.488281 0.488281 0.488281 0.488281 0.488281 0.488281 0.488281 0.488281 0.488281 0.488281 0.488281 0.488281 0.488281 0.488281 0.488281 0.488281 0.488281 0.488281 0.488281 0.488281 0.488282 0.488281 0.488281 0.488281 0.488281 0.488281 0.488281 0.244141 0.488281 0.976563 0.976562 0.976562 0.976562 0.976562 0.976563 0.976563 0.976562 0.976562 0.976563 0.976563 0.976563 0.976563 0.976562 0.976562 0.976562 0.976562 0.976562 0.976562 0.976563 0.976563 0.976563 0.976562 0.976563 0.976563 0.976562 0.976563 0.976563 0.976562 0.976562 0.976562 0.488281 0.488281 0.976562 0.976562 0.976562 0.976562 0.976562 0.976563 0.976563 0.976562 0.976562 0.976563 0.976562 0.976563 0.976563 0.976562 0.976562 0.976562 0.976562 0.976562 0.976562 0.976563 0.976563 0.976562 0.976562 0.976563 0.976563 0.976562 0.976562 0.976562 0.976562 0.976562 0.976562 0.488281 0.488281 0.976562 0.976562 0.976562 0.976562 0.976562 0.976563 0.976562 0.976562 0.976562 0.976563 0.976562 0.976562 0.976563 0.976562 0.976562 0.976562 0.976562 0.976562 0.976562 0.976563 0.976563 0.976562 0.976562 0.976563 0.976563 0.976562 0.976562 0.976562 0.976562 0.976562 0.976562 0.488281 0.488281 0.976562 0.976562 0.976562 0.976562 0.976562 0.976563 0.976562 0.976562 0.976562 0.976563 0.976562 0.976563 0.976563 0.976562 0.976562 0.976562 0.976562 0.976562 0.976562 0.976563 0.976563 0.976562 0.976562 0.976563 0.976563 0.976562 0.976562 0.976562 0.976562 0.976562 0.976562 0.488281 0.488281 0.976562 0.976562 0.976562 0.976562 0.976562 0.976562 0.976562 0.976562 0.976562 0.976562 0.976562 0.976562 0.976563 0.976562 0.976562 0.976562 0.976562 0.976562 0.976562 0.976562 0.976563 0.976562 0.976562 0.976563 0.976563 0.976562 0.976562 0.976562 0.976562 0.976562 0.976562 0.488281 0.488281 0.976562 0.976562 0.976562 0.976562 0.976562 0.976563 0.976563 0.976562 0.976562 0.976563 0.976562 0.976563 0.976563 0.976562 0.976562 0.976562 0.976562 0.976562 0.976562 0.976563 0.976563 0.976563 0.976562 0.976563 0.976563 0.976562 0.976562 0.976562 0.976562 0.976562 0.976562 0.488281 0.488281 0.976562 0.976562 0.976562 0.976562 0.976562 0.976563 0.976562 0.976562 0.976562 0.976563 0.976562 0.976563 0.976563 0.976562 0.976562 0.976562 0.976562 0.976562 0.976562 0.976563 0.976563 0.976563 0.976562 0.976563 0.976563 0.976562 0.976562 0.976562 0.976562 0.976562 0.976562 0.488281 0.244141 0.488281 0.488281 0.488281 0.488281 0.488281 0.488281 0.488281 0.488281 0.488281 0.488281 0.488281 0.488281 0.488281 0.488281 0.488281 0.488281 0.488281 0.488281 0.488281 0.488281 0.488281 0.488281 0.488281 0.488281 0.488281 0.488281 0.488281 0.488281 0.488281 0.488281 0.488281 0.244141 0.488281 0.976563 0.976563 0.976563 0.976563 0.976563 0.976563 0.976563 0.976563 0.976563 0.976563 0.976563 0.976563 0.976563 0.976563 0.976563 0.976563 0.976562 0.976562 0.976563 0.976563 0.976563 0.976563 0.976563 0.976563 0.976563 0.976562 0.976563 0.976563 0.976562 0.976563 0.976563 0.488281 0.976563 1.95313 1.95313 1.95313 1.95313 1.95313 1.95313 1.95313 1.95312 1.95313 1.95313 1.95313 1.95313 1.95313 1.95313 1.95313 1.95313 1.95312 1.95312 1.95313 1.95313 1.95313 1.95313 1.95313 1.95313 1.95313 1.95312 1.95313 1.95313 1.95312 1.95313 1.95313 0.976563 0.976563 1.95313 1.95313 1.95313 1.95313 1.95313 1.95313 1.95313 1.95312 1.95313 1.95313 1.95313 1.95313 1.95313 1.95312 1.95313 1.95313 1.95312 1.95312 1.95313 1.95313 1.95313 1.95313 1.95312 1.95313 1.95313 1.95312 1.95313 1.95313 1.95312 1.95313 1.95313 0.976563 0.976563 1.95313 1.95313 1.95313 1.95313 1.95313 1.95313 1.95313 1.95312 1.95313 1.95313 1.95313 1.95313 1.95313 1.95312 1.95313 1.95313 1.95312 1.95312 1.95313 1.95313 1.95313 1.95313 1.95312 1.95313 1.95313 1.95312 1.95313 1.95313 1.95312 1.95313 1.95313 0.976563 0.976563 1.95313 1.95313 1.95313 1.95313 1.95313 1.95313 1.95313 1.95312 1.95313 1.95313 1.95313 1.95313 1.95313 1.95313 1.95313 1.95313 1.95312 1.95312 1.95313 1.95313 1.95313 1.95313 1.95313 1.95313 1.95313 1.95312 1.95313 1.95313 1.95312 1.95313 1.95313 0.976563 0.976563 1.95313 1.95313 1.95313 1.95313 1.95313 1.95313 1.95313 1.95312 1.95312 1.95313 1.95313 1.95313 1.95313 1.95312 1.95312 1.95313 1.95312 1.95312 1.95312 1.95313 1.95313 1.95313 1.95312 1.95313 1.95313 1.95312 1.95313 1.95313 1.95312 1.95313 1.95313 0.976563 0.976563 1.95313 1.95313 1.95313 1.95313 1.95313 1.95313 1.95313 1.95313 1.95313 1.95313 1.95313 1.95313 1.95313 1.95313 1.95313 1.95313 1.95312 1.95312 1.95313 1.95313 1.95313 1.95313 1.95313 1.95313 1.95313 1.95312 1.95313 1.95313 1.95312 1.95313 1.95313 0.976563 0.976563 1.95313 1.95313 1.95313 1.95313 1.95313 1.95313 1.95313 1.95312 1.95313 1.95313 1.95313 1.95313 1.95313 1.95312 1.95312 1.95313 1.95312 1.95312 1.95313 1.95313 1.95313 1.95313 1.95312 1.95313 1.95313 1.95312 1.95313 1.95313 1.95312 1.95313 1.95313 0.976563 0.488281 0.976563 0.976563 0.976563 0.976563 0.976563 0.976563 0.976563 0.976562 0.976562 0.976563 0.976562 0.976563 0.976563 0.976562 0.976562 0.976562 0.976562 0.976562 0.976562 0.976563 0.976563 0.976563 0.976562 0.976563 0.976563 0.976562 0.976562 0.976562 0.976562 0.976562 0.976562 0.488281 0.488281 0.976563 0.976563 0.976563 0.976563 0.976563 0.976563 0.976563 0.976562 0.976563 0.976563 0.976563 0.976563 0.976563 0.976563 0.976563 0.976563 0.976562 0.976562 0.976563 0.976563 0.976563 0.976563 0.976563 0.976563 0.976563 0.976562 0.976563 0.976563 0.976562 0.976563 0.976563 0.488281 0.976563 1.95313 1.95313 1.95313 1.95313 1.95313 1.95313 1.95313 1.95312 1.95313 1.95313 1.95313 1.95313 1.95313 1.95313 1.95313 1.95313 1.95312 1.95312 1.95313 1.95313 1.95313 1.95313 1.95313 1.95313 1.95313 1.95312 1.95313 1.95313 1.95312 1.95313 1.95313 0.976563 0.976563 1.95313 1.95313 1.95313 1.95313 1.95313 1.95313 1.95313 1.95312 1.95313 1.95313 1.95313 1.95313 1.95313 1.95312 1.95313 1.95313 1.95312 1.95312 1.95313 1.95313 1.95313 1.95313 1.95312 1.95313 1.95313 1.95312 1.95313 1.95313 1.95312 1.95313 1.95313 0.976563 0.976563 1.95313 1.95313 1.95313 1.95313 1.95313 1.95313 1.95313 1.95312 1.95312 1.95313 1.95312 1.95313 1.95313 1.95312 1.95312 1.95313 1.95312 1.95312 1.95313 1.95313 1.95313 1.95313 1.95312 1.95313 1.95313 1.95312 1.95313 1.95313 1.95312 1.95313 1.95313 0.976563 0.976563 1.95313 1.95313 1.95313 1.95313 1.95313 1.95313 1.95313 1.95312 1.95313 1.95313 1.95313 1.95313 1.95313 1.95313 1.95313 1.95313 1.95312 1.95312 1.95313 1.95313 1.95313 1.95313 1.95313 1.95313 1.95313 1.95312 1.95313 1.95313 1.95312 1.95313 1.95313 0.976563 0.976563 1.95313 1.95313 1.95313 1.95313 1.95313 1.95313 1.95313 1.95312 1.95312 1.95313 1.95312 1.95313 1.95313 1.95312 1.95312 1.95313 1.95312 1.95312 1.95313 1.95313 1.95313 1.95313 1.95312 1.95313 1.95313 1.95312 1.95313 1.95313 1.95312 1.95313 1.95313 0.976563 0.976563 1.95313 1.95313 1.95313 1.95313 1.95313 1.95313 1.95313 1.95312 1.95313 1.95313 1.95313 1.95313 1.95313 1.95313 1.95312 1.95313 1.95312 1.95312 1.95313 1.95313 1.95313 1.95313 1.95313 1.95313 1.95313 1.95312 1.95313 1.95313 1.95312 1.95313 1.95313 0.976563 0.976563 1.95313 1.95313 1.95313 1.95313 1.95313 1.95313 1.95313 1.95312 1.95312 1.95313 1.95313 1.95313 1.95313 1.95313 1.95312 1.95313 1.95312 1.95312 1.95313 1.95313 1.95313 1.95313 1.95313 1.95313 1.95313 1.95312 1.95313 1.95313 1.95312 1.95313 1.95313 0.976563 0.488281 0.976562 0.976562 0.976563 0.976563 0.976562 0.976563 0.976562 0.976562 0.976562 0.976563 0.976562 0.976563 0.976563 0.976562 0.976562 0.976562 0.976562 0.976562 0.976562 0.976563 0.976563 0.976563 0.976562 0.976563 0.976563 0.976562 0.976562 0.976562 0.976562 0.976562 0.976562 0.488281 0.488281 0.976562 0.976562 0.976562 0.976562 0.976562 0.976563 0.976562 0.976562 0.976562 0.976563 0.976562 0.976563 0.976563 0.976562 0.976562 0.976562 0.976562 0.976562 0.976562 0.976563 0.976563 0.976562 0.976562 0.976563 0.976563 0.976562 0.976562 0.976562 0.976562 0.976562 0.976562 0.488281 0.976562 1.95312 1.95312 1.95312 1.95312 1.95312 1.95313 1.95312 1.95312 1.95312 1.95313 1.95312 1.95313 1.95313 1.95312 1.95312 1.95312 1.95312 1.95312 1.95312 1.95313 1.95313 1.95312 1.95312 1.95313 1.95313 1.95312 1.95313 1.95313 1.95312 1.95312 1.95312 0.976563 0.976562 1.95312 1.95312 1.95312 1.95312 1.95312 1.95313 1.95312 1.95312 1.95312 1.95313 1.95312 1.95312 1.95313 1.95312 1.95312 1.95312 1.95312 1.95312 1.95312 1.95313 1.95313 1.95312 1.95312 1.95313 1.95313 1.95312 1.95312 1.95312 1.95312 1.95312 1.95312 0.976563 0.976562 1.95312 1.95312 1.95312 1.95312 1.95312 1.95312 1.95312 1.95312 1.95312 1.95312 1.95312 1.95312 1.95313 1.95312 1.95312 1.95312 1.95312 1.95312 1.95312 1.95312 1.95313 1.95312 1.95312 1.95313 1.95313 1.95312 1.95312 1.95312 1.95312 1.95312 1.95312 0.976563 0.976562 1.95312 1.95312 1.95312 1.95312 1.95312 1.95312 1.95312 1.95312 1.95312 1.95312 1.95312 1.95312 1.95313 1.95312 1.95312 1.95312 1.95312 1.95312 1.95312 1.95312 1.95313 1.95312 1.95312 1.95313 1.95313 1.95312 1.95312 1.95312 1.95312 1.95312 1.95312 0.976563 0.976562 1.95312 1.95312 1.95312 1.95312 1.95312 1.95312 1.95312 1.95312 1.95312 1.95312 1.95312 1.95312 1.95313 1.95312 1.95312 1.95312 1.95312 1.95312 1.95312 1.95312 1.95313 1.95312 1.95312 1.95313 1.95313 1.95312 1.95312 1.95312 1.95312 1.95312 1.95312 0.976563 0.976562 1.95312 1.95312 1.95312 1.95312 1.95312 1.95313 1.95312 1.95312 1.95312 1.95313 1.95312 1.95313 1.95313 1.95312 1.95312 1.95312 1.95312 1.95312 1.95312 1.95313 1.95313 1.95312 1.95312 1.95313 1.95313 1.95312 1.95312 1.95312 1.95312 1.95312 1.95312 0.976563 0.976562 1.95312 1.95312 1.95312 1.95312 1.95312 1.95313 1.95312 1.95312 1.95312 1.95313 1.95312 1.95313 1.95313 1.95312 1.95312 1.95312 1.95312 1.95312 1.95312 1.95313 1.95313 1.95312 1.95312 1.95313 1.95313 1.95312 1.95312 1.95312 1.95312 1.95312 1.95312 0.976563 0.488281 0.976562 0.976562 0.976562 0.976562 0.976562 0.976562 0.976562 0.976562 0.976562 0.976562 0.976562 0.976562 0.976563 0.976562 0.976562 0.976562 0.976562 0.976562 0.976562 0.976562 0.976562 0.976562 0.976562 0.976562 0.976563 0.976562 0.976562 0.976562 0.976562 0.976562 0.976562 0.488281 0.488281 0.976562 0.976562 0.976562 0.976562 0.976562 0.976562 0.976562 0.976562 0.976562 0.976562 0.976562 0.976562 0.976563 0.976562 0.976562 0.976562 0.976562 0.976562 0.976562 0.976562 0.976562 0.976562 0.976562 0.976563 0.976563 0.976562 0.976562 0.976562 0.976562 0.976562 0.976562 0.488281 0.976562 1.95312 1.95312 1.95312 1.95312 1.95312 1.95312 1.95312 1.95312 1.95312 1.95312 1.95312 1.95312 1.95313 1.95312 1.95312 1.95312 1.95312 1.95312 1.95312 1.95312 1.95312 1.95312 1.95312 1.95312 1.95313 1.95312 1.95312 1.95312 1.95312 1.95312 1.95312 0.976562 0.976562 1.95312 1.95312 1.95312 1.95312 1.95312 1.95312 1.95312 1.95312 1.95312 1.95312 1.95312 1.95312 1.95312 1.95312 1.95312 1.95312 1.95312 1.95312 1.95312 1.95312 1.95312 1.95312 1.95312 1.95312 1.95313 1.95312 1.95312 1.95312 1.95312 1.95312 1.95312 0.976562 0.976562 1.95312 1.95312 1.95312 1.95312 1.95312 1.95312 1.95312 1.95312 1.95312 1.95312 1.95312 1.95312 1.95312 1.95312 1.95312 1.95312 1.95312 1.95312 1.95312 1.95312 1.95312 1.95312 1.95312 1.95312 1.95313 1.95312 1.95312 1.95312 1.95312 1.95312 1.95312 0.976562 0.976562 1.95312 1.95312 1.95312 1.95312 1.95312 1.95312 1.95312 1.95312 1.95312 1.95312 1.95312 1.95312 1.95312 1.95312 1.95312 1.95312 1.95312 1.95312 1.95312 1.95312 1.95312 1.95312 1.95312 1.95312 1.95313 1.95312 1.95312 1.95312 1.95312 1.95312 1.95312 0.976562 0.976562 1.95312 1.95312 1.95312 1.95312 1.95312 1.95312 1.95312 1.95312 1.95312 1.95312 1.95312 1.95312 1.95312 1.95312 1.95312 1.95312 1.95312 1.95312 1.95312 1.95312 1.95312 1.95312 1.95312 1.95312 1.95313 1.95312 1.95312 1.95312 1.95312 1.95312 1.95312 0.976562 0.976562 1.95312 1.95312 1.95312 1.95312 1.95312 1.95312 1.95312 1.95312 1.95312 1.95312 1.95312 1.95312 1.95313 1.95312 1.95312 1.95312 1.95312 1.95312 1.95312 1.95312 1.95312 1.95312 1.95312 1.95312 1.95313 1.95312 1.95312 1.95312 1.95312 1.95312 1.95312 0.976562 0.976562 1.95312 1.95312 1.95312 1.95312 1.95312 1.95312 1.95312 1.95312 1.95312 1.95312 1.95312 1.95312 1.95313 1.95312 1.95312 1.95312 1.95312 1.95312 1.95312 1.95312 1.95312 1.95312 1.95312 1.95312 1.95313 1.95312 1.95312 1.95312 1.95312 1.95312 1.95312 0.976562 0.488281 0.976562 0.976562 0.976562 0.976562 0.976562 0.976562 0.976562 0.976562 0.976562 0.976562 0.976562 0.976562 0.976562 0.976562 0.976562 0.976562 0.976562 0.976562 0.976562 0.976562 0.976562 0.976562 0.976562 0.976562 0.976562 0.976561 0.976562 0.976562 0.976561 0.976562 0.976562 0.488281 0.488281 0.976562 0.976562 0.976562 0.976562 0.976562 0.976562 0.976562 0.976562 0.976562 0.976562 0.976562 0.976562 0.976562 0.976562 0.976562 0.976562 0.976561 0.976561 0.976562 0.976562 0.976562 0.976562 0.976562 0.976562 0.976562 0.976561 0.976562 0.976562 0.976561 0.976562 0.976562 0.488281 0.976562 1.95312 1.95312 1.95312 1.95312 1.95312 1.95312 1.95312 1.95312 1.95312 1.95312 1.95312 1.95312 1.95312 1.95312 1.95312 1.95312 1.95312 1.95312 1.95312 1.95312 1.95312 1.95312 1.95312 1.95312 1.95312 1.95312 1.95312 1.95312 1.95312 1.95312 1.95312 0.976562 0.976562 1.95312 1.95312 1.95312 1.95312 1.95312 1.95312 1.95312 1.95312 1.95312 1.95312 1.95312 1.95312 1.95312 1.95312 1.95312 1.95312 1.95312 1.95312 1.95312 1.95312 1.95312 1.95312 1.95312 1.95312 1.95312 1.95312 1.95312 1.95312 1.95312 1.95312 1.95312 0.976562 0.976562 1.95312 1.95312 1.95312 1.95312 1.95312 1.95312 1.95312 1.95312 1.95312 1.95312 1.95312 1.95312 1.95312 1.95312 1.95312 1.95312 1.95312 1.95312 1.95312 1.95312 1.95312 1.95312 1.95312 1.95312 1.95312 1.95312 1.95312 1.95312 1.95312 1.95312 1.95312 0.976562 0.976562 1.95312 1.95312 1.95312 1.95312 1.95312 1.95312 1.95312 1.95312 1.95312 1.95312 1.95312 1.95312 1.95312 1.95312 1.95312 1.95312 1.95312 1.95312 1.95312 1.95312 1.95312 1.95312 1.95312 1.95312 1.95312 1.95312 1.95312 1.95312 1.95312 1.95312 1.95312 0.976562 0.976562 1.95312 1.95312 1.95312 1.95312 1.95312 1.95312 1.95312 1.95312 1.95312 1.95312 1.95312 1.95312 1.95312 1.95312 1.95312 1.95312 1.95312 1.95312 1.95312 1.95312 1.95312 1.95312 1.95312 1.95312 1.95312 1.95312 1.95312 1.95312 1.95312 1.95312 1.95312 0.976562 0.976562 1.95312 1.95312 1.95312 1.95312 1.95312 1.95312 1.95312 1.95312 1.95312 1.95312 1.95312 1.95312 1.95312 1.95312 1.95312 1.95312 1.95312 1.95312 1.95312 1.95312 1.95312 1.95312 1.95312 1.95312 1.95312 1.95312 1.95312 1.95312 1.95312 1.95312 1.95312 0.976562 0.976562 1.95312 1.95312 1.95312 1.95312 1.95312 1.95312 1.95312 1.95312 1.95312 1.95312 1.95312 1.95312 1.95312 1.95312 1.95312 1.95312 1.95312 1.95312 1.95312 1.95312 1.95312 1.95312 1.95312 1.95312 1.95312 1.95312 1.95312 1.95312 1.95312 1.95312 1.95312 0.976562 0.488281 0.976562 0.976562 0.976562 0.976562 0.976562 0.976562 0.976562 0.976561 0.976562 0.976562 0.976562 0.976562 0.976562 0.976562 0.976562 0.976562 0.976561 0.976561 0.976562 0.976562 0.976562 0.976562 0.976562 0.976562 0.976562 0.976561 0.976562 0.976562 0.976561 0.976562 0.976562 0.488281 0.488281 0.976562 0.976562 0.976562 0.976562 0.976562 0.976562 0.976562 0.976562 0.976562 0.976562 0.976562 0.976562 0.976563 0.976562 0.976562 0.976562 0.976562 0.976562 0.976562 0.976562 0.976563 0.976562 0.976562 0.976563 0.976563 0.976562 0.976562 0.976562 0.976562 0.976562 0.976562 0.488281 0.976562 1.95312 1.95312 1.95312 1.95312 1.95312 1.95312 1.95312 1.95312 1.95312 1.95312 1.95312 1.95313 1.95313 1.95312 1.95312 1.95312 1.95312 1.95312 1.95312 1.95312 1.95313 1.95312 1.95312 1.95313 1.95313 1.95312 1.95312 1.95312 1.95312 1.95312 1.95312 0.976563 0.976562 1.95312 1.95312 1.95312 1.95312 1.95312 1.95312 1.95312 1.95312 1.95312 1.95312 1.95312 1.95312 1.95313 1.95312 1.95312 1.95312 1.95312 1.95312 1.95312 1.95312 1.95312 1.95312 1.95312 1.95313 1.95313 1.95312 1.95312 1.95312 1.95312 1.95312 1.95312 0.976563 0.976562 1.95312 1.95312 1.95312 1.95312 1.95312 1.95312 1.95312 1.95312 1.95312 1.95312 1.95312 1.95312 1.95313 1.95312 1.95312 1.95312 1.95312 1.95312 1.95312 1.95312 1.95312 1.95312 1.95312 1.95313 1.95313 1.95312 1.95312 1.95312 1.95312 1.95312 1.95312 0.976563 0.976562 1.95312 1.95312 1.95312 1.95312 1.95312 1.95312 1.95312 1.95312 1.95312 1.95312 1.95312 1.95312 1.95313 1.95312 1.95312 1.95312 1.95312 1.95312 1.95312 1.95312 1.95312 1.95312 1.95312 1.95313 1.95313 1.95312 1.95312 1.95312 1.95312 1.95312 1.95312 0.976563 0.976562 1.95312 1.95312 1.95312 1.95312 1.95312 1.95312 1.95312 1.95312 1.95312 1.95312 1.95312 1.95312 1.95312 1.95312 1.95312 1.95312 1.95312 1.95312 1.95312 1.95312 1.95312 1.95312 1.95312 1.95313 1.95313 1.95312 1.95312 1.95312 1.95312 1.95312 1.95312 0.976562 0.976562 1.95312 1.95312 1.95312 1.95312 1.95312 1.95312 1.95312 1.95312 1.95312 1.95312 1.95312 1.95312 1.95313 1.95312 1.95312 1.95312 1.95312 1.95312 1.95312 1.95312 1.95312 1.95312 1.95312 1.95313 1.95313 1.95312 1.95312 1.95312 1.95312 1.95312 1.95312 0.976563 0.976562 1.95312 1.95312 1.95312 1.95312 1.95312 1.95313 1.95312 1.95312 1.95312 1.95312 1.95312 1.95312 1.95313 1.95312 1.95312 1.95312 1.95312 1.95312 1.95312 1.95312 1.95312 1.95312 1.95312 1.95313 1.95313 1.95312 1.95312 1.95312 1.95312 1.95312 1.95312 0.976563 0.488281 0.976562 0.976562 0.976562 0.976562 0.976562 0.976562 0.976562 0.976562 0.976562 0.976562 0.976562 0.976562 0.976562 0.976562 0.976562 0.976562 0.976562 0.976562 0.976562 0.976562 0.976562 0.976562 0.976562 0.976562 0.976563 0.976561 0.976562 0.976562 0.976561 0.976562 0.976562 0.488281 0.488281 0.976562 0.976562 0.976562 0.976562 0.976562 0.976563 0.976563 0.976562 0.976562 0.976563 0.976562 0.976562 0.976563 0.976562 0.976562 0.976562 0.976562 0.976562 0.976562 0.976563 0.976563 0.976562 0.976562 0.976563 0.976563 0.976562 0.976562 0.976562 0.976562 0.976562 0.976562 0.488281 0.976562 1.95312 1.95312 1.95312 1.95312 1.95312 1.95313 1.95312 1.95312 1.95312 1.95313 1.95312 1.95313 1.95313 1.95312 1.95312 1.95312 1.95312 1.95312 1.95312 1.95313 1.95313 1.95312 1.95312 1.95313 1.95313 1.95312 1.95312 1.95312 1.95312 1.95312 1.95312 0.976563 0.976562 1.95312 1.95312 1.95312 1.95312 1.95312 1.95313 1.95312 1.95312 1.95312 1.95313 1.95312 1.95313 1.95313 1.95312 1.95312 1.95312 1.95312 1.95312 1.95312 1.95313 1.95313 1.95312 1.95312 1.95313 1.95313 1.95312 1.95312 1.95312 1.95312 1.95312 1.95312 0.976563 0.976562 1.95312 1.95312 1.95312 1.95312 1.95312 1.95313 1.95312 1.95312 1.95312 1.95312 1.95312 1.95313 1.95313 1.95312 1.95312 1.95312 1.95312 1.95312 1.95312 1.95313 1.95313 1.95312 1.95312 1.95313 1.95313 1.95312 1.95312 1.95312 1.95312 1.95312 1.95312 0.976563 0.976562 1.95312 1.95312 1.95312 1.95312 1.95312 1.95313 1.95312 1.95312 1.95312 1.95312 1.95312 1.95313 1.95313 1.95312 1.95312 1.95312 1.95312 1.95312 1.95312 1.95313 1.95313 1.95312 1.95312 1.95313 1.95313 1.95312 1.95312 1.95312 1.95312 1.95312 1.95312 0.976563 0.976562 1.95312 1.95312 1.95312 1.95312 1.95312 1.95313 1.95312 1.95312 1.95312 1.95312 1.95312 1.95312 1.95313 1.95312 1.95312 1.95312 1.95312 1.95312 1.95312 1.95312 1.95313 1.95312 1.95312 1.95313 1.95313 1.95312 1.95312 1.95312 1.95312 1.95312 1.95312 0.976563 0.976562 1.95312 1.95312 1.95312 1.95312 1.95312 1.95313 1.95312 1.95312 1.95312 1.95313 1.95312 1.95313 1.95313 1.95312 1.95312 1.95312 1.95312 1.95312 1.95312 1.95313 1.95313 1.95312 1.95312 1.95313 1.95313 1.95312 1.95312 1.95312 1.95312 1.95312 1.95312 0.976563 0.976562 1.95312 1.95312 1.95312 1.95312 1.95312 1.95313 1.95312 1.95312 1.95312 1.95313 1.95312 1.95313 1.95313 1.95312 1.95312 1.95312 1.95312 1.95312 1.95312 1.95313 1.95313 1.95312 1.95312 1.95313 1.95313 1.95312 1.95312 1.95312 1.95312 1.95312 1.95312 0.976563 0.488281 0.976562 0.976562 0.976562 0.976562 0.976562 0.976562 0.976562 0.976562 0.976562 0.976562 0.976562 0.976562 0.976563 0.976562 0.976562 0.976562 0.976562 0.976562 0.976562 0.976562 0.976562 0.976562 0.976562 0.976563 0.976563 0.976562 0.976562 0.976562 0.976562 0.976562 0.976562 0.488281 0.24414 0.488281 0.488281 0.488281 0.488281 0.488281 0.488281 0.488281 0.488281 0.488281 0.488281 0.488281 0.488281 0.488281 0.488281 0.488281 0.488281 0.488281 0.488281 0.488281 0.488281 0.488281 0.488281 0.488281 0.488281 0.488281 0.488281 0.488281 0.488281 0.488281 0.488281 0.488281 0.24414 0.488281 0.976562 0.976562 0.976562 0.976562 0.976562 0.976562 0.976562 0.976562 0.976562 0.976562 0.976562 0.976562 0.976562 0.976562 0.976562 0.976562 0.976561 0.976561 0.976562 0.976562 0.976562 0.976562 0.976562 0.976562 0.976562 0.976561 0.976562 0.976562 0.976561 0.976562 0.976562 0.488281 0.488281 0.976562 0.976562 0.976562 0.976562 0.976562 0.976562 0.976562 0.976562 0.976562 0.976562 0.976562 0.976562 0.976562 0.976562 0.976562 0.976562 0.976561 0.976561 0.976562 0.976562 0.976562 0.976562 0.976562 0.976562 0.976562 0.976561 0.976562 0.976562 0.976561 0.976562 0.976562 0.488281 0.488281 0.976562 0.976562 0.976562 0.976562 0.976562 0.976562 0.976562 0.976562 0.976562 0.976562 0.976562 0.976562 0.976562 0.976562 0.976562 0.976562 0.976561 0.976561 0.976562 0.976562 0.976562 0.976562 0.976562 0.976562 0.976562 0.976561 0.976562 0.976562 0.976561 0.976562 0.976562 0.488281 0.488281 0.976562 0.976562 0.976562 0.976562 0.976562 0.976562 0.976562 0.976562 0.976562 0.976562 0.976562 0.976562 0.976562 0.976562 0.976562 0.976562 0.976561 0.976561 0.976562 0.976562 0.976562 0.976562 0.976562 0.976562 0.976562 0.976561 0.976562 0.976562 0.976561 0.976562 0.976562 0.488281 0.488281 0.976562 0.976562 0.976562 0.976562 0.976562 0.976562 0.976562 0.976562 0.976562 0.976562 0.976562 0.976562 0.976562 0.976562 0.976562 0.976562 0.976561 0.976561 0.976562 0.976562 0.976562 0.976562 0.976562 0.976562 0.976562 0.976561 0.976562 0.976562 0.976561 0.976562 0.976562 0.488281 0.488281 0.976562 0.976562 0.976562 0.976562 0.976562 0.976562 0.976562 0.976562 0.976562 0.976562 0.976562 0.976562 0.976562 0.976562 0.976562 0.976562 0.976561 0.976561 0.976562 0.976562 0.976562 0.976562 0.976562 0.976562 0.976562 0.976561 0.976562 0.976562 0.976561 0.976562 0.976562 0.488281 0.488281 0.976562 0.976562 0.976562 0.976562 0.976562 0.976562 0.976562 0.976562 0.976562 0.976562 0.976562 0.976562 0.976562 0.976562 0.976562 0.976562 0.976561 0.976561 0.976562 0.976562 0.976562 0.976562 0.976562 0.976562 0.976562 0.976561 0.976562 0.976562 0.976561 0.976562 0.976562 0.488281 0.24414 0.488281 0.488281 0.488281 0.488281 0.488281 0.488281 0.488281 0.488281 0.488281 0.488281 0.488281 0.488281 0.488281 0.488281 0.488281 0.488281 0.488281 0.488281 0.488281 0.488281 0.488281 0.488281 0.488281 0.488281 0.488281 0.48828 0.488281 0.488281 0.48828 0.488281 0.488281 0.24414 
VECTORS u float
0 0 0  -0.0388804 -0.0130167 -0.0494344  -0.0718948 -0.0206702 -0.064786  -0.103074 -0.0453864 -0.0694768  -0.136515 -0.082275 -0.0674658  -0.172539 -0.128055 -0.062331  -0.210651 -0.180447 -0.0560586  -0.250255 -0.238142 -0.0497155  -0.290982 -0.300411 -0.043792  -0.332635 -0.3668 -0.0384715  -0.375142 -0.436985 -0.0337389  -0.418462 -0.510695 -0.0295649  -0.462608 -0.587645 -0.0258579  -0.507545 -0.667589 -0.0225396  -0.55325 -0.750264 -0.0195646  -0.599668 -0.835373 -0.0168982  -0.646719 -0.922698 -0.0144918  -0.694314 -1.01198 -0.0123315  -0.742403 -1.10303 -0.0103524  -0.790841 -1.19556 -0.00861764  -0.839591 -1.28942 -0.00704312  -0.888533 -1.38442 -0.00564766  -0.937604 -1.48038 -0.00440264  -0.986697 -1.57712 -0.00332999  -1.03577 -1.6745 -0.00239873  -1.08474 -1.77238 -0.00162697  -1.13356 -1.87062 -0.000982285  -1.1822 -1.9691 -0.000480652  -1.23061 -2.06772 -0.000127077  -1.27879 -2.16633 9.46522e-05  -1.32671 -2.2649 0.000173092  -1.37443 -2.36331 0.000182629  -1.42204 -2.46156 0.000180244  0 0 0  -0.0212605 0.000796854 -0.0321701  -0.0440841 -0.0154769 -0.0435975  -0.0652843 -0.0443195 -0.0469058  -0.089132 -0.0847152 -0.0460081  -0.116589 -0.133929 -0.0429423  -0.147376 -0.189894 -0.0389476  -0.180888 -0.251254 -0.0347381  -0.216563 -0.317153 -0.0306857  -0.254026 -0.387055 -0.0269632  -0.293025 -0.460595 -0.0236092  -0.333401 -0.537438 -0.0206203  -0.375056 -0.617309 -0.017962  -0.417889 -0.699922 -0.015584  -0.461818 -0.785 -0.013458  -0.506727 -0.872302 -0.0115597  -0.55252 -0.961564 -0.00984478  -0.599084 -1.05256 -0.00831151  -0.646311 -1.14508 -0.00693917  -0.694071 -1.23891 -0.00569963  -0.742266 -1.33387 -0.00461125  -0.790791 -1.42977 -0.00363374  -0.83954 -1.52647 -0.00279474  -0.888423 -1.62381 -0.00205898  -0.937347 -1.72163 -0.00143504  -0.986251 -1.81983 -0.000921726  -1.03506 -1.91829 -0.000504255  -1.08371 -2.01689 -0.000190258  -1.13219 -2.11555 1.62125e-05  -1.18044 -2.21415 0.00013566  -1.22845 -2.31264 0.000165701  -1.27622 -2.41098 0.000174522  -1.32381 -2.50915 0.000206232  0 0 0  -0.0106902 0.00416654 -0.0208371  -0.0219195 -0.0137769 -0.0271735  -0.0346965 -0.0454751 -0.02964  -0.0504091 -0.0881833 -0.0291138  -0.0698715 -0.139889 -0.0271676  -0.0931626 -0.198687 -0.0245838  -0.119939 -0.263178 -0.021841  -0.149746 -0.332365 -0.0191722  -0.182165 -0.405605 -0.0167086  -0.216867 -0.482391 -0.0144856  -0.253588 -0.562334 -0.0125091  -0.292134 -0.645113 -0.0107539  -0.332325 -0.730406 -0.00919914  -0.373996 -0.81795 -0.0078187  -0.417003 -0.907482 -0.00659919  -0.461175 -0.998751 -0.0055027  -0.506374 -1.09153 -0.00453448  -0.552462 -1.18562 -0.00368834  -0.59927 -1.28081 -0.0029211  -0.646688 -1.37695 -0.00225663  -0.69457 -1.47386 -0.00168085  -0.742808 -1.5714 -0.0011878  -0.791286 -1.66942 -0.000771999  -0.839906 -1.76781 -0.000424623  -0.888573 -1.86644 -0.000153065  -0.937221 -1.96522 5.24521e-05  -0.985777 -2.06404 0.000181913  -1.03419 -2.16284 0.000256777  -1.08241 -2.26153 0.000272274  -1.1304 -2.36008 0.000250816  -1.17816 -2.45844 0.000195742  -1.22569 -2.55654 0.000209808  0 0 0  -0.00270446 0.00259873 -0.00951934  -0.00509316 -0.0161247 -0.0126178  -0.00926632 -0.0495365 -0.0137329  -0.0168298 -0.0942271 -0.0135264  -0.0284225 -0.148015 -0.0125034  -0.0442553 -0.209158 -0.0111072  -0.0641649 -0.276267 -0.00960803  -0.0878176 -0.34831 -0.00815129  -0.114828 -0.424495 -0.00681663  -0.14483 -0.504243 -0.00563169  -0.177492 -0.587066 -0.00459409  -0.212548 -0.672591 -0.00369406  -0.249743 -0.760463 -0.00292563  -0.288846 -0.850391 -0.00225568  -0.329646 -0.942101 -0.001683  -0.371946 -1.03534 -0.00120473  -0.415541 -1.12988 -0.000786066  -0.460273 -1.22553 -0.000424385  -0.505935 -1.3221 -0.000138998  -0.552393 -1.41943 0.000106573  -0.599481 -1.51736 0.000289202  -0.647067 -1.61577 0.000449657  -0.695 -1.71451 0.00056076  -0.743199 -1.81349 0.000626564  -0.791525 -1.91258 0.000653028  -0.839908 -2.01172 0.000650406  -0.888264 -2.11082 0.000613689  -0.936527 -2.20982 0.000542879  -0.984642 -2.30865 0.000448465  -1.03257 -2.40728 0.000337601  -1.08028 -2.50569 0.000216722  -1.12771 -2.60376 0.000176907  0 0 0  0.0039091 -0.00125003 0.00149155  0.00951481 -0.0218335 0.0013659  0.0134047 -0.0568732 0.0012393  0.0139039 -0.10324 0.00131059  0.0100865 -0.158826 0.00156116  0.00162423 -0.221977 0.00190854  -0.0114546 -0.291349 0.00228405  -0.0289101 -0.365868 0.00263405  -0.050379 -0.444675 0.00291944  -0.0755049 -0.527095 0.00312281  -0.10391 -0.612569 0.00326395  -0.135251 -0.700641 0.00333142  -0.169242 -0.790943 0.00334549  -0.205569 -0.883125 0.00330067  -0.243983 -0.97691 0.00322556  -0.284225 -1.07203 0.00311041  -0.326066 -1.16827 0.00298643  -0.369282 -1.26543 0.00283909  -0.413673 -1.36333 0.00266957  -0.459039 -1.46183 0.00249743  -0.505215 -1.56077 0.00230694  -0.552027 -1.66001 0.00211501  -0.599341 -1.75946 0.00190854  -0.647026 -1.85902 0.00170708  -0.694936 -1.95859 0.00149679  -0.742971 -2.0581 0.00128889  -0.791061 -2.15749 0.00106931  -0.839119 -2.25669 0.000857592  -0.887076 -2.35566 0.000643492  -0.934907 -2.45438 0.0004282  -0.982544 -2.5528 0.000226021  -1.02989 -2.65087 8.29697e-05  0 0 0  0.00997214 -0.00688213 0.0120277  0.0234973 -0.0304868 0.0148101  0.035363 -0.0674762 0.0156577  0.0437799 -0.115414 0.0156612  0.0475831 -0.172589 0.015238  0.0463062 -0.237511 0.0146511  0.0399002 -0.308893 0.013994  0.0285536 -0.385634 0.0133069  0.0125835 -0.466809 0.0125933  -0.00763834 -0.551658 0.0118601  -0.0317203 -0.639559 0.0111184  -0.0592738 -0.729991 0.0103645  -0.0899582 -0.822532 0.00962114  -0.123419 -0.916821 0.00888538  -0.159337 -1.01254 0.00815678  -0.197422 -1.10944 0.00745702  -0.237405 -1.20728 0.00677371  -0.279022 -1.30586 0.00611615  -0.322044 -1.40501 0.00549078  -0.366253 -1.50459 0.00489569  -0.41145 -1.60446 0.00432754  -0.457429 -1.7045 0.00378466  -0.504045 -1.80461 0.00327325  -0.551154 -1.90471 0.00279403  -0.598596 -2.00472 0.00233722  -0.646264 -2.10458 0.00191665  -0.694039 -2.20421 0.00152993  -0.741856 -2.3036 0.00117278  -0.789635 -2.40269 0.000835419  -0.837318 -2.50147 0.000533819  -0.884873 -2.59993 0.000246286  -0.932166 -2.69801 -2.14577e-06  0 0 0  0.0160474 -0.0146072 0.0218029  0.0381318 -0.0421826 0.0276213  0.0582846 -0.0813084 0.0297303  0.0745206 -0.130712 0.0296152  0.0856956 -0.189341 0.028605  0.0913618 -0.255925 0.0271754  0.0914103 -0.329193 0.0255725  0.0859779 -0.407997 0.0239108  0.0753685 -0.491372 0.0222344  0.0599512 -0.578471 0.0205855  0.0401335 -0.668615 0.0189688  0.0163375 -0.76123 0.0174081  -0.0110323 -0.855848 0.0159013  -0.0416098 -0.952075 0.0144706  -0.0750159 -1.0496 0.0130978  -0.110915 -1.14812 0.0117974  -0.149002 -1.24742 0.0105691  -0.188984 -1.3473 0.00940728  -0.230612 -1.4476 0.00831389  -0.273628 -1.54816 0.00729275  -0.317804 -1.64886 0.0063405  -0.362933 -1.7496 0.0054512  -0.408831 -1.85028 0.00462842  -0.455349 -1.95085 0.00386763  -0.502303 -2.05123 0.0031743  -0.549577 -2.15136 0.0025456  -0.597039 -2.25119 0.00196934  -0.644606 -2.3507 0.00146556  -0.692189 -2.44987 0.00103259  -0.739739 -2.54868 0.000623465  -0.78719 -2.64713 0.000277281  -0.834459 -2.74524 -4.93526e-05  0 0 0  0.0224607 -0.0257279 0.0303583  0.0550989 -0.0574144 0.0407319  0.0837826 -0.0981258 0.0433676  0.107574 -0.148902 0.0431917  0.125843 -0.20903 0.0416801  0.138173 -0.277308 0.039499  0.144418 -0.35247 0.0370145  0.144678 -0.433317 0.0344186  0.139219 -0.518813 0.0318229  0.128429 -0.608044 0.0292697  0.112734 -0.700295 0.0268092  0.0925753 -0.794931 0.0244381  0.0684108 -0.891462 0.0221953  0.0406586 -0.98947 0.0200555  0.00970757 -1.08861 0.0180371  -0.0240456 -1.18861 0.0161419  -0.0602629 -1.28921 0.0143554  -0.0986476 -1.39025 0.0126929  -0.138886 -1.49153 0.0111361  -0.180718 -1.59294 0.00968075  -0.22388 -1.69434 0.00833917  -0.268168 -1.79566 0.00709319  -0.313364 -1.89681 0.00595546  -0.359297 -1.99772 0.0049088  -0.405793 -2.09835 0.00395989  -0.452701 -2.19864 0.00312018  -0.499876 -2.29857 0.00237942  -0.547223 -2.39812 0.00174356  -0.594637 -2.49729 0.0011797  -0.64205 -2.59608 0.000719309  -0.689411 -2.69448 0.000318527  -0.736694 -2.79259 -4.50611e-05  0 0 0  0.0333243 -0.043388 0.0424199  0.0767432 -0.075451 0.0530894  0.113023 -0.117339 0.0566781  0.144146 -0.169666 0.0565898  0.169386 -0.231569 0.0546319  0.188224 -0.301822 0.0517309  0.200461 -0.379049 0.0484185  0.206157 -0.462033 0.0449374  0.205596 -0.549655 0.0414438  0.19918 -0.640974 0.0380332  0.187366 -0.735224 0.0347288  0.17064 -0.831757 0.0315781  0.149493 -0.930045 0.0285811  0.124393 -1.02966 0.0257559  0.0957739 -1.13025 0.0230789  0.0640373 -1.23152 0.0205865  0.029578 -1.33326 0.018229  -0.00727654 -1.43526 0.0160434  -0.0462227 -1.53737 0.0140045  -0.0869305 -1.63945 0.0121019  -0.129149 -1.74139 0.0103498  -0.172653 -1.84311 0.00874066  -0.217224 -1.94456 0.00725269  -0.262623 -2.04565 0.00591445  -0.308722 -2.14637 0.00470591  -0.355319 -2.24668 0.00363255  -0.40227 -2.34657 0.00269461  -0.449472 -2.44603 0.00189757  -0.496804 -2.54505 0.0012486  -0.544163 -2.64368 0.000731468  -0.591503 -2.74196 0.000320911  -0.638815 -2.84004 -3.17097e-05  0 0 0  -0.0300452 -0.024232 -0.0310278  -0.0684949 -0.042009 -0.0474389  -0.106642 -0.0668091 -0.052645  -0.144704 -0.100685 -0.0519059  -0.182958 -0.142808 -0.0481822  -0.221638 -0.19197 -0.0433087  -0.26091 -0.247148 -0.0382757  -0.300873 -0.307535 -0.0335596  -0.341626 -0.372534 -0.0293424  -0.383229 -0.44169 -0.0256271  -0.425709 -0.51459 -0.0223773  -0.469076 -0.5909 -0.0195172  -0.513302 -0.670305 -0.0169773  -0.55835 -0.752519 -0.0147126  -0.604161 -0.837252 -0.0126898  -0.650662 -0.924254 -0.0108759  -0.697766 -1.01325 -0.00925207  -0.745383 -1.10403 -0.00778222  -0.793404 -1.19636 -0.00645518  -0.841762 -1.29005 -0.00527978  -0.890359 -1.38489 -0.00423408  -0.939107 -1.48072 -0.00331688  -0.987917 -1.57735 -0.00251031  -1.03672 -1.67464 -0.00181842  -1.08546 -1.77245 -0.00123382  -1.13409 -1.87064 -0.000758171  -1.18255 -1.9691 -0.000399113  -1.23083 -2.06769 -0.000128746  -1.27888 -2.16633 2.36034e-05  -1.32676 -2.26489 9.39369e-05  -1.37447 -2.36332 9.94205e-05  -1.42207 -2.46157 0.000113487  0 0 0  -0.0143701 -0.00973212 -0.0206492  -0.0401753 -0.0307068 -0.0329611  -0.067454 -0.060451 -0.0369105  -0.095738 -0.099451 -0.036581  -0.125611 -0.146465 -0.0340905  -0.157289 -0.20021 -0.0307164  -0.190751 -0.259647 -0.0271764  -0.225899 -0.324 -0.0238121  -0.262613 -0.392693 -0.0207815  -0.300815 -0.465273 -0.0180967  -0.340423 -0.541356 -0.0157351  -0.381342 -0.620593 -0.0136578  -0.423502 -0.702679 -0.011821  -0.4668 -0.787316 -0.0101883  -0.511141 -0.874237 -0.00873423  -0.55641 -0.963174 -0.00742364  -0.602486 -1.05389 -0.00626135  -0.649266 -1.14616 -0.00521994  -0.696618 -1.23978 -0.00428534  -0.744444 -1.33456 -0.00345397  -0.792624 -1.43031 -0.00272655  -0.84106 -1.52688 -0.00208855  -0.889654 -1.6241 -0.00153828  -0.938329 -1.72185 -0.00106406  -0.987003 -1.81998 -0.000678778  -1.03561 -1.91839 -0.000374079  -1.0841 -2.01695 -0.000137568  -1.13244 -2.11558 1.09673e-05  -1.18057 -2.21417 0.000108004  -1.22851 -2.31267 0.000122309  -1.27625 -2.41101 0.000136375  -1.32384 -2.50917 0.000137091  0 0 0  -0.00733712 -0.00520799 -0.0131528  -0.0206756 -0.025875 -0.0207939  -0.0370506 -0.0587201 -0.0234711  -0.0557866 -0.10108 -0.0233364  -0.0771544 -0.15153 -0.021733  -0.10132 -0.20877 -0.0195141  -0.12825 -0.271728 -0.0171623  -0.157769 -0.339589 -0.014926  -0.189674 -0.41169 -0.0128958  -0.223766 -0.487539 -0.0111034  -0.259862 -0.566709 -0.00953674  -0.297797 -0.648831 -0.00816131  -0.3374 -0.733578 -0.00695729  -0.378534 -0.820652 -0.00589824  -0.42103 -0.909779 -0.00496292  -0.464732 -1.00069 -0.00413299  -0.509493 -1.09316 -0.0033958  -0.55517 -1.18699 -0.0027554  -0.601605 -1.28196 -0.00218129  -0.648686 -1.3779 -0.00168371  -0.69625 -1.47463 -0.00124645  -0.744204 -1.57201 -0.000877857  -0.792419 -1.66991 -0.000557661  -0.840805 -1.76819 -0.000304461  -0.889268 -1.86673 -0.000104427  -0.937736 -1.96543 4.93526e-05  -0.986129 -2.06421 0.000145197  -1.03441 -2.16296 0.000197411  -1.08253 -2.26163 0.000205517  -1.13045 -2.36015 0.000186682  -1.17817 -2.45848 0.000152349  -1.2257 -2.55657 0.000137568  0 0 0  -0.0018229 -0.00561807 -0.00633001  -0.0057961 -0.0268496 -0.0100706  -0.0121983 -0.0614231 -0.0113974  -0.0216809 -0.106126 -0.0113065  -0.0345849 -0.159131 -0.010401  -0.0510903 -0.219113 -0.00914288  -0.0711762 -0.284984 -0.00780916  -0.0946668 -0.355849 -0.00653672  -0.121315 -0.430994 -0.0054059  -0.150854 -0.509834 -0.00441766  -0.183023 -0.591889 -0.00357819  -0.21757 -0.676749 -0.00285816  -0.254272 -0.764057 -0.00223994  -0.292906 -0.853489 -0.00172353  -0.333265 -0.94477 -0.00128245  -0.375143 -1.03763 -0.000907898  -0.418352 -1.13184 -0.000588655  -0.462715 -1.22721 -0.000317574  -0.508044 -1.32353 -9.27448e-05  -0.55419 -1.42064 9.15527e-05  -0.600985 -1.51838 0.000235081  -0.648306 -1.6166 0.000343323  -0.696013 -1.7152 0.000429869  -0.743985 -1.81404 0.000477552  -0.792134 -1.91303 0.000505447  -0.840345 -2.01209 0.000492096  -0.888561 -2.11112 0.000464201  -0.936699 -2.21005 0.000410318  -0.984725 -2.30884 0.000336409  -1.03259 -2.40743 0.000246048  -1.08025 -2.50578 0.000163317  -1.12768 -2.60383 0.00010252  0 0 0  0.00281729 -0.00863028 0.000347137  0.00721461 -0.0317611 0.000137806  0.00989059 -0.0680414 -1.97887e-05  0.00930047 -0.114603 8.34465e-05  0.004695 -0.169663 0.000393152  -0.0042088 -0.231899 0.000801802  -0.0174229 -0.300227 0.00123096  -0.0347676 -0.373705 0.00161338  -0.0559818 -0.451548 0.00192714  -0.0807533 -0.533098 0.00214982  -0.108751 -0.617809 0.00231099  -0.139688 -0.705225 0.00239754  -0.173252 -0.794938 0.00243568  -0.209177 -0.886613 0.00242639  -0.247202 -0.979948 0.00238585  -0.287069 -1.07467 0.00231099  -0.32856 -1.17057 0.00222468  -0.371449 -1.26742 0.00212049  -0.415533 -1.36505 0.00200105  -0.460621 -1.46329 0.00186634  -0.506531 -1.562 0.00173354  -0.55311 -1.66106 0.00158691  -0.600205 -1.76035 0.00143766  -0.647682 -1.85975 0.00128746  -0.695425 -1.9592 0.00112414  -0.743322 -2.0586 0.000969887  -0.791285 -2.15789 0.000803709  -0.839236 -2.25701 0.000638008  -0.887118 -2.35592 0.000483036  -0.934878 -2.45458 0.000321627  -0.982471 -2.55296 0.000171661  -1.02981 -2.651 4.36306e-05  0 0 0  0.0072514 -0.013632 0.00679946  0.0198361 -0.039893 0.00992393  0.0313378 -0.078205 0.0108883  0.0393395 -0.126459 0.0110431  0.0427734 -0.183255 0.0108349  0.0412675 -0.247428 0.0104904  0.0347936 -0.317904 0.0100937  0.0235279 -0.393708 0.0096581  0.00775504 -0.473984 0.00919056  -0.0121939 -0.558016 0.00869632  -0.035953 -0.645167 0.00818348  -0.0631722 -0.734947 0.0076561  -0.0934995 -0.826904 0.00712276  -0.126599 -0.920669 0.00659156  -0.162179 -1.01593 0.00605917  -0.199936 -1.11242 0.005548  -0.239596 -1.20988 0.00504899  -0.28092 -1.30814 0.00456238  -0.323664 -1.40699 0.00409818  -0.367612 -1.50631 0.00366163  -0.412557 -1.60593 0.00323558  -0.458335 -1.70576 0.00283694  -0.504755 -1.80568 0.0024457  -0.551677 -1.90561 0.00208855  -0.598969 -2.00547 0.0017519  -0.646504 -2.10519 0.00143433  -0.694176 -2.20472 0.0011394  -0.741904 -2.30401 0.000871897  -0.789616 -2.40302 0.000623703  -0.837255 -2.50174 0.000402451  -0.884757 -2.60014 0.000188351  -0.932043 -2.69821 -1.21593e-05  0 0 0  0.0119899 -0.0209649 0.0128274  0.0332574 -0.0513098 0.0192223  0.0538467 -0.0917924 0.0214229  0.0702366 -0.141545 0.0216279  0.0813775 -0.199884 0.0209782  0.0869702 -0.265821 0.0199785  0.0870035 -0.338288 0.0188324  0.0816537 -0.416254 0.0176387  0.0711982 -0.49879 0.0164351  0.055994 -0.585111 0.0152407  0.0364399 -0.674537 0.014061  0.0129268 -0.766507 0.0129254  -0.0141456 -0.860543 0.0118213  -0.0444082 -0.956245 0.0107672  -0.0775096 -1.05329 0.00975513  -0.113115 -1.15139 0.00879192  -0.150916 -1.25031 0.00788021  -0.190631 -1.34984 0.00701785  -0.232 -1.44982 0.00621128  -0.27477 -1.5501 0.00544953  -0.318722 -1.65055 0.00473642  -0.363652 -1.75106 0.00407028  -0.409379 -1.85154 0.00345802  -0.455724 -1.95191 0.00288749  -0.50254 -2.0521 0.0023675  -0.549705 -2.15208 0.00189924  -0.597078 -2.25178 0.00146866  -0.644576 -2.35118 0.001091  -0.69211 -2.45025 0.000763416  -0.739615 -2.54898 0.000466585  -0.787039 -2.64739 0.000203609  -0.834315 -2.74549 -4.12464e-05  0 0 0  0.016977 -0.0318678 0.0183687  0.0492689 -0.0667216 0.0284009  0.0791425 -0.108623 0.0315056  0.10348 -0.159617 0.0318069  0.121937 -0.219436 0.0308313  0.134313 -0.28713 0.0292621  0.14059 -0.361567 0.0274456  0.140916 -0.441638 0.0255413  0.135591 -0.526357 0.0236373  0.124975 -0.614867 0.0217581  0.109497 -0.706426 0.0199482  0.0895848 -0.800439 0.0182035  0.065677 -0.896396 0.0165443  0.0381943 -0.993877 0.0149651  0.00752032 -1.09255 0.0134647  -0.0259732 -1.19211 0.0120573  -0.061933 -1.29233 0.0107284  -0.10006 -1.39299 0.00948811  -0.140059 -1.49396 0.00832987  -0.181669 -1.59507 0.00724173  -0.224631 -1.69621 0.00624013  -0.268726 -1.79728 0.00530338  -0.31376 -1.8982 0.00445485  -0.359545 -1.99889 0.00366902  -0.405905 -2.09932 0.00295806  -0.452706 -2.19945 0.00232959  -0.499808 -2.29923 0.00177574  -0.547095 -2.39865 0.00130033  -0.594476 -2.49771 0.000878334  -0.641867 -2.5964 0.000535965  -0.68923 -2.69477 0.000244141  -0.736529 -2.79288 -4.31538e-05  0 0 0  0.0285739 -0.0497888 0.0255301  0.0709007 -0.0856256 0.0370896  0.108354 -0.128093 0.0410924  0.140104 -0.180258 0.0415723  0.165615 -0.241721 0.0403309  0.184556 -0.311337 0.0382655  0.196838 -0.387871 0.0358458  0.202615 -0.470115 0.0332971  0.202164 -0.557014 0.0307312  0.1959 -0.647646 0.0282221  0.184286 -0.741242 0.0257888  0.167789 -0.83718 0.0234723  0.146889 -0.934909 0.0212631  0.12204 -1.03401 0.0191665  0.0936722 -1.13415 0.0171888  0.0622036 -1.23501 0.0153341  0.0279872 -1.33636 0.0135977  -0.00862575 -1.43801 0.0119727  -0.0473192 -1.53979 0.0104556  -0.087816 -1.64158 0.00904465  -0.129848 -1.74325 0.00773978  -0.173162 -1.84472 0.00653744  -0.217543 -1.94593 0.00544262  -0.26282 -2.04682 0.0044415  -0.308775 -2.14734 0.00353837  -0.355277 -2.24748 0.00274229  -0.402148 -2.3472 0.00203419  -0.449297 -2.44652 0.00146508  -0.496597 -2.54544 0.000971556  -0.543951 -2.64399 0.000582218  -0.591295 -2.74225 0.000265837  -0.638632 -2.84034 -8.58307e-06  0 0 0  -0.0332017 -0.0316954 -0.0185075  -0.0702714 -0.0515438 -0.0290844  -0.108977 -0.0785184 -0.033968  -0.148128 -0.112367 -0.0344119  -0.187351 -0.153399 -0.0324428  -0.226655 -0.201075 -0.0293739  -0.266173 -0.25476 -0.0260258  -0.306103 -0.313825 -0.022805  -0.346627 -0.377731 -0.0198979  -0.387893 -0.445999 -0.0173266  -0.429996 -0.518189 -0.0150824  -0.472966 -0.593931 -0.0131297  -0.516805 -0.672877 -0.0114026  -0.561476 -0.754701 -0.00986791  -0.606931 -0.8391 -0.00849581  -0.653103 -0.925811 -0.0072844  -0.699903 -1.01457 -0.00619125  -0.747223 -1.10513 -0.00520539  -0.794998 -1.19729 -0.00432181  -0.843115 -1.29081 -0.00353479  -0.891482 -1.38551 -0.00283575  -0.940032 -1.48122 -0.00222492  -0.988656 -1.57776 -0.00169373  -1.0373 -1.67497 -0.00123286  -1.0859 -1.77271 -0.000840664  -1.1344 -1.87083 -0.000535011  -1.18277 -1.96924 -0.00029254  -1.23096 -2.06779 -0.000120163  -1.27897 -2.16639 -1.26362e-05  -1.32681 -2.26494 3.67165e-05  -1.37452 -2.36336 4.57764e-05  -1.42213 -2.46159 5.24521e-05  0 0 0  -0.0144852 -0.014542 -0.0125098  -0.0400804 -0.0393827 -0.0209956  -0.0686854 -0.0706597 -0.0246689  -0.0987776 -0.109564 -0.0249891  -0.130054 -0.155618 -0.0235014  -0.162554 -0.20811 -0.0212169  -0.196345 -0.266301 -0.0187304  -0.231459 -0.329544 -0.0163474  -0.267931 -0.397311 -0.014204  -0.305769 -0.469133 -0.0123124  -0.344955 -0.544597 -0.0106671  -0.385456 -0.623329 -0.00923252  -0.427205 -0.704995 -0.00797224  -0.470107 -0.789275 -0.00686145  -0.514072 -0.87589 -0.00587082  -0.558998 -0.96457 -0.00498843  -0.604759 -1.05506 -0.00420165  -0.651236 -1.14714 -0.00349593  -0.698324 -1.24059 -0.00287509  -0.745897 -1.33522 -0.00231218  -0.793847 -1.43085 -0.00182319  -0.842073 -1.52731 -0.00139666  -0.890484 -1.62445 -0.0010283  -0.938984 -1.72211 -0.000709534  -0.987505 -1.82018 -0.000452995  -1.03598 -1.91854 -0.000247478  -1.08437 -2.01706 -9.13143e-05  -1.13261 -2.11566 1.66893e-06  -1.18069 -2.21424 6.96182e-05  -1.22858 -2.31271 7.98702e-05  -1.2763 -2.41105 8.65459e-05  -1.32389 -2.50922 7.7486e-05  0 0 0  -0.00747874 -0.00907657 -0.00802708  -0.0206287 -0.0331354 -0.0133584  -0.0383409 -0.0673911 -0.0158539  -0.058641 -0.109931 -0.0160944  -0.0812669 -0.15984 -0.0151181  -0.10621 -0.216181 -0.0135856  -0.133473 -0.278157 -0.0119147  -0.163001 -0.345074 -0.010308  -0.194706 -0.416352 -0.00885606  -0.228484 -0.491501 -0.00758553  -0.264203 -0.570076 -0.00648642  -0.301744 -0.651704 -0.00553083  -0.340967 -0.736035 -0.00470042  -0.381724 -0.82275 -0.00397396  -0.423861 -0.91156 -0.00333643  -0.467237 -1.00221 -0.00277281  -0.511694 -1.09446 -0.00228071  -0.557086 -1.18807 -0.00184298  -0.603266 -1.28287 -0.00145888  -0.650088 -1.37865 -0.00111914  -0.697438 -1.47525 -0.000833511  -0.745189 -1.57253 -0.000581741  -0.793223 -1.67032 -0.000371218  -0.84144 -1.76852 -0.000195265  -0.889759 -1.86699 -6.07967e-05  -0.938098 -1.96564 3.60012e-05  -0.98639 -2.06437 9.77516e-05  -1.03458 -2.16309 0.000132322  -1.08263 -2.26173 0.000139475  -1.13051 -2.36023 0.000128269  -1.17821 -2.45855 0.000102043  -1.22573 -2.55665 8.51154e-05  0 0 0  -0.0021214 -0.00872907 -0.00392294  -0.00648202 -0.033029 -0.00659823  -0.0138812 -0.0689061 -0.00784016  -0.0244992 -0.114043 -0.00794268  -0.03833 -0.166836 -0.00737834  -0.0554363 -0.226223 -0.006495  -0.0758031 -0.291335 -0.00552869  -0.0993216 -0.361413 -0.00460505  -0.125821 -0.435826 -0.00378156  -0.155104 -0.514013 -0.00306797  -0.186957 -0.595493 -0.00247073  -0.221176 -0.679864 -0.00196147  -0.257534 -0.766742 -0.00153065  -0.295836 -0.855815 -0.00117469  -0.335873 -0.94677 -0.000868797  -0.377451 -1.03935 -0.000612497  -0.42038 -1.13332 -0.00039506  -0.464481 -1.22848 -0.000213146  -0.509571 -1.3246 -6.12736e-05  -0.555484 -1.42155 6.50883e-05  -0.602077 -1.51914 0.000158548  -0.649207 -1.61724 0.000235558  -0.696743 -1.71573 0.000283718  -0.744566 -1.81448 0.000324726  -0.792569 -1.91339 0.000335455  -0.84067 -2.01237 0.000334501  -0.888781 -2.11134 0.000310183  -0.936847 -2.21023 0.000272751  -0.984806 -2.30898 0.000225306  -1.03262 -2.40754 0.000164747  -1.08027 -2.50587 0.000107527  -1.1277 -2.60394 5.53131e-05  0 0 0  0.00236963 -0.0112027 1.16825e-05  0.00583279 -0.0372219 -0.000195742  0.00770712 -0.0748134 -0.000330687  0.00640005 -0.121926 -0.000277281  0.00121528 -0.176967 -5.91278e-05  -0.00807756 -0.238809 0.000251532  -0.0214766 -0.306541 0.000590801  -0.0388369 -0.379354 0.000900269  -0.0599332 -0.456544 0.00115681  -0.0844957 -0.537486 0.00133944  -0.112247 -0.621656 0.0014708  -0.142893 -0.708582 0.0015521  -0.176168 -0.797869 0.00159097  -0.211811 -0.889172 0.00159574  -0.249548 -0.982173 0.00157452  -0.289148 -1.07661 0.00153351  -0.330385 -1.17225 0.00147557  -0.373035 -1.26888 0.00140834  -0.416896 -1.3663 0.00133562  -0.461774 -1.46437 0.00124598  -0.507499 -1.56292 0.00115156  -0.553904 -1.66184 0.00105929  -0.60084 -1.76099 0.000961542  -0.648179 -1.8603 0.0008564  -0.695796 -1.95965 0.000748634  -0.743587 -2.05896 0.000642776  -0.791459 -2.15818 0.000537395  -0.839341 -2.25725 0.000426054  -0.887161 -2.35611 0.000324249  -0.934885 -2.45474 0.000214338  -0.982447 -2.5531 0.000120163  -1.0298 -2.65116 1.52588e-05  0 0 0  0.00670969 -0.0159466 0.00380683  0.0178258 -0.0449459 0.00594711  0.0286647 -0.0845747 0.0068574  0.036307 -0.133438 0.00706673  0.0394742 -0.190308 0.006984  0.0377849 -0.254198 0.00678897  0.0312272 -0.324191 0.00655937  0.0199786 -0.399419 0.00630164  0.00430322 -0.479112 0.00601888  -0.015475 -0.56257 0.00571609  -0.0390251 -0.649212 0.00539279  -0.0660057 -0.738512 0.00505638  -0.0960795 -0.830047 0.00471306  -0.128937 -0.923442 0.00436497  -0.164269 -1.01837 0.00402212  -0.201779 -1.11455 0.00368357  -0.241214 -1.21176 0.00335431  -0.282323 -1.30977 0.00303459  -0.324864 -1.40842 0.00272751  -0.368621 -1.50754 0.0024333  -0.413402 -1.607 0.00215626  -0.459002 -1.70667 0.00188494  -0.505286 -1.80646 0.00162792  -0.552088 -1.90626 0.00139046  -0.599261 -2.00601 0.00116181  -0.646699 -2.10564 0.000954866  -0.69429 -2.20508 0.000758886  -0.74196 -2.3043 0.000580549  -0.789617 -2.40325 0.000412464  -0.837215 -2.50193 0.000268221  -0.884706 -2.60032 0.0001266  -0.932007 -2.6984 -1.35899e-05  0 0 0  0.0113953 -0.023351 0.00739264  0.0307354 -0.0562415 0.0118015  0.050803 -0.098038 0.0137608  0.0670989 -0.148358 0.0141294  0.0782157 -0.20678 0.0137932  0.0837891 -0.272476 0.0131662  0.083831 -0.344514 0.0124261  0.0785254 -0.421965 0.0116515  0.0681664 -0.503969 0.0108674  0.0531098 -0.589769 0.0100868  0.033733 -0.678701 0.00931573  0.0104218 -0.770214 0.00857258  -0.0164378 -0.86384 0.00784516  -0.0464857 -0.959176 0.00715423  -0.0793701 -1.05589 0.00648236  -0.114755 -1.15368 0.0058465  -0.152352 -1.25233 0.00524044  -0.191875 -1.35162 0.00467062  -0.233054 -1.45138 0.00413251  -0.275651 -1.55146 0.00362706  -0.319442 -1.65173 0.00315309  -0.364226 -1.75207 0.00270724  -0.40982 -1.8524 0.00229979  -0.45605 -1.95264 0.00192094  -0.502769 -2.05272 0.00157619  -0.549837 -2.15259 0.0012629  -0.597139 -2.2522 0.000974417  -0.644576 -2.35151 0.000720739  -0.692065 -2.45053 0.000507116  -0.739541 -2.54922 0.000312567  -0.786954 -2.64761 0.000138283  -0.834242 -2.74572 -2.38419e-05  0 0 0  0.0164763 -0.0347472 0.0106487  0.0466281 -0.0719578 0.0174899  0.0758649 -0.114977 0.0203257  0.100277 -0.166398 0.0208697  0.118863 -0.226203 0.0203509  0.131321 -0.293624 0.0193553  0.137658 -0.367648 0.0181694  0.138062 -0.447242 0.0169163  0.132829 -0.531459 0.015661  0.122339 -0.619471 0.0144296  0.107016 -0.710567 0.0132375  0.0872836 -0.804147 0.0120866  0.0635713 -0.89971 0.0109923  0.0362835 -0.996835 0.00994921  0.00580859 -1.09518 0.00895596  -0.0274824 -1.19445 0.00801992  -0.0632527 -1.29439 0.00714254  -0.101195 -1.39483 0.00631785  -0.141023 -1.49557 0.00554848  -0.182466 -1.59647 0.00482488  -0.225273 -1.69743 0.00415659  -0.269229 -1.79833 0.00353503  -0.314143 -1.8991 0.00296998  -0.359809 -1.99966 0.00244379  -0.406073 -2.09997 0.00196815  -0.4528 -2.19998 0.00155711  -0.499834 -2.29966 0.00118327  -0.547062 -2.399 0.000863075  -0.594406 -2.498 0.000587463  -0.64178 -2.59666 0.000362158  -0.689121 -2.69501 0.000166416  -0.736434 -2.79312 -3.12328e-05  0 0 0  0.0284621 -0.0547323 0.0145047  0.0685157 -0.0914595 0.0228355  0.105113 -0.134807 0.026417  0.136838 -0.187094 0.0271678  0.162445 -0.248348 0.0265324  0.181473 -0.317604 0.0252438  0.193829 -0.393685 0.0236735  0.199681 -0.475439 0.0220118  0.199337 -0.561837 0.0203328  0.193205 -0.652001 0.0186818  0.181741 -0.745152 0.0170863  0.165423 -0.840673 0.0155611  0.144717 -0.938029 0.0141022  0.120066 -1.0368 0.012723  0.0919024 -1.13661 0.0114131  0.0606272 -1.23718 0.0101888  0.0266004 -1.33828 0.00903797  -0.00981641 -1.4397 0.00796628  -0.048336 -1.54127 0.00696468  -0.0886679 -1.64286 0.00603127  -0.130537 -1.74436 0.00516176  -0.173705 -1.84568 0.00436401  -0.217964 -1.94675 0.00363064  -0.263107 -2.0475 0.00297141  -0.308964 -2.14791 0.00238156  -0.355369 -2.24795 0.00184274  -0.402185 -2.34758 0.0013783  -0.449273 -2.44683 0.0010004  -0.496523 -2.54571 0.00067544  -0.543845 -2.64424 0.000407219  -0.591173 -2.74248 0.00019145  -0.638523 -2.8406 2.6226e-06  0 0 0  -0.0344747 -0.0347477 -0.00877905  -0.0721181 -0.0569127 -0.0138958  -0.110642 -0.0847131 -0.0164754  -0.149943 -0.118868 -0.0170195  -0.189472 -0.159592 -0.0162377  -0.229069 -0.206633 -0.0148098  -0.268778 -0.259551 -0.0131583  -0.308781 -0.317879 -0.0115385  -0.349269 -0.381134 -0.0100627  -0.390423 -0.448842 -0.00875115  -0.432356 -0.520585 -0.00760746  -0.475124 -0.595957 -0.00661087  -0.518755 -0.674588 -0.00573444  -0.563226 -0.756155 -0.00495887  -0.608494 -0.840349 -0.0042665  -0.654476 -0.926873 -0.0036571  -0.701097 -1.01548 -0.00310898  -0.74827 -1.1059 -0.00260758  -0.795889 -1.19793 -0.00217509  -0.843867 -1.29136 -0.0017755  -0.89211 -1.38597 -0.00142646  -0.940544 -1.48159 -0.00112653  -0.989068 -1.57806 -0.000860929  -1.03762 -1.67521 -0.000623703  -1.08614 -1.77289 -0.000434637  -1.13457 -1.87099 -0.000280142  -1.18289 -1.96936 -0.000151396  -1.23104 -2.06787 -7.22408e-05  -1.27903 -2.16645 -1.81198e-05  -1.32685 -2.26497 1.00136e-05  -1.37454 -2.36338 1.16825e-05  -1.42216 -2.46162 1.83582e-05  0 0 0  -0.0144867 -0.0167729 -0.00602221  -0.0405592 -0.0436827 -0.0101542  -0.0695667 -0.0760696 -0.0121675  -0.100241 -0.115275 -0.0125508  -0.132123 -0.161068 -0.0119197  -0.165094 -0.213008 -0.010808  -0.199151 -0.270543 -0.00954914  -0.234357 -0.333156 -0.00832629  -0.270787 -0.400353 -0.0072186  -0.308488 -0.471688 -0.00624204  -0.347488 -0.546749 -0.00539374  -0.387778 -0.62515 -0.00466061  -0.429301 -0.706536 -0.00401902  -0.471992 -0.790592 -0.00345898  -0.515753 -0.87701 -0.00295043  -0.560477 -0.965519 -0.00250673  -0.606051 -1.05587 -0.00211477  -0.652364 -1.14782 -0.00175738  -0.699292 -1.24116 -0.00143957  -0.746726 -1.3357 -0.0011611  -0.794546 -1.43124 -0.000918388  -0.842656 -1.52763 -0.000703812  -0.890955 -1.6247 -0.000514507  -0.93936 -1.72233 -0.000356197  -0.987795 -1.82035 -0.000235319  -1.03621 -1.91866 -0.000127316  -1.08453 -2.01716 -5.22137e-05  -1.13272 -2.11573 -9.53674e-07  -1.18076 -2.21429 2.69413e-05  -1.22863 -2.31276 3.69549e-05  -1.27634 -2.41108 3.91006e-05  -1.32393 -2.50925 3.93391e-05  0 0 0  -0.00751124 -0.0108061 -0.00384593  -0.0209136 -0.0366334 -0.00653243  -0.03908 -0.0720806 -0.00790429  -0.0600544 -0.114984 -0.00816441  -0.0833224 -0.164747 -0.00773072  -0.108731 -0.220678 -0.00696993  -0.136256 -0.282127 -0.00610948  -0.165873 -0.348509 -0.00527358  -0.197529 -0.419293 -0.00451708  -0.231173 -0.494009 -0.00385451  -0.26671 -0.572215 -0.00329018  -0.30404 -0.65353 -0.00280142  -0.343045 -0.73759 -0.00237489  -0.383591 -0.824082 -0.00200415  -0.42553 -0.912703 -0.00168228  -0.46871 -1.00318 -0.00139689  -0.512986 -1.09528 -0.00114822  -0.558207 -1.18878 -0.000923634  -0.60423 -1.28346 -0.000734568  -0.65092 -1.37915 -0.000565529  -0.698144 -1.47567 -0.00041914  -0.745776 -1.57286 -0.000290632  -0.793703 -1.6706 -0.000188589  -0.841825 -1.76874 -9.60827e-05  -0.890054 -1.86717 -2.6226e-05  -0.938318 -1.96578 1.78814e-05  -0.98655 -2.06447 4.69685e-05  -1.03469 -2.16317 6.1512e-05  -1.0827 -2.2618 6.98566e-05  -1.13056 -2.36029 7.08103e-05  -1.17823 -2.45861 5.00679e-05  -1.22576 -2.55671 3.76701e-05  0 0 0  -0.00223757 -0.010131 -0.00189996  -0.00692044 -0.0359549 -0.00324821  -0.0147963 -0.0729581 -0.00394702  -0.0259854 -0.118537 -0.00406909  -0.0403283 -0.171335 -0.00381088  -0.0578115 -0.230463 -0.00337124  -0.0783912 -0.295176 -0.00287151  -0.101978 -0.364817 -0.00238204  -0.128435 -0.438796 -0.0019536  -0.157599 -0.516587 -0.00157738  -0.189293 -0.597726 -0.00126505  -0.223314 -0.681789 -0.00100088  -0.259479 -0.768412 -0.00078249  -0.297587 -0.85725 -0.000596762  -0.337437 -0.948007 -0.000440121  -0.378838 -1.04042 -0.000308514  -0.421597 -1.13424 -0.000200272  -0.465539 -1.22926 -0.000110865  -0.510478 -1.32528 -3.40939e-05  -0.55626 -1.42212 2.86102e-05  -0.602734 -1.51962 8.15392e-05  -0.649753 -1.61765 0.000113249  -0.697182 -1.71607 0.000140429  -0.744915 -1.81475 0.000164032  -0.792843 -1.91361 0.000172377  -0.840869 -2.01255 0.00016737  -0.888926 -2.11149 0.000157595  -0.936942 -2.21034 0.000135422  -0.984864 -2.30907 0.000112772  -1.03265 -2.40762 7.96318e-05  -1.08028 -2.50596 5.36442e-05  -1.12772 -2.60401 2.28882e-05  0 0 0  0.00214805 -0.0123432 -4.79221e-05  0.00515568 -0.039736 -0.000156641  0.00652787 -0.0784045 -0.000235558  0.00479269 -0.126013 -0.000221729  -0.000738442 -0.181172 -0.000117779  -0.0102767 -0.242863 4.62532e-05  -0.0238155 -0.310299 0.000226974  -0.0412145 -0.382754 0.000396729  -0.0622684 -0.459567 0.000537157  -0.0867273 -0.540153 0.000637054  -0.114337 -0.623996 0.000715971  -0.144827 -0.710627 0.000758886  -0.177933 -0.799657 0.000785112  -0.213399 -0.890726 0.000790119  -0.250972 -0.983532 0.000781775  -0.290409 -1.07779 0.000763893  -0.331492 -1.17328 0.000734806  -0.374001 -1.26976 0.000705004  -0.417725 -1.36707 0.000664473  -0.46248 -1.46502 0.000622511  -0.508087 -1.56349 0.000577211  -0.554393 -1.66232 0.000526905  -0.601234 -1.7614 0.000477076  -0.648484 -1.86063 0.000424623  -0.696032 -1.95992 0.000374079  -0.743756 -2.05919 0.00032258  -0.791575 -2.15837 0.000267744  -0.839411 -2.2574 0.000210047  -0.887197 -2.35624 0.000157595  -0.934886 -2.45484 0.000102043  -0.982449 -2.5532 5.74589e-05  -1.02982 -2.65127 1.3113e-05  0 0 0  0.0064037 -0.0169702 0.00172591  0.0169303 -0.0472466 0.00279999  0.0272279 -0.0879059 0.00330424  0.0345653 -0.137279 0.00345349  0.037546 -0.19431 0.00342846  0.0357379 -0.258117 0.00333691  0.0291208 -0.327881 0.00323415  0.0178703 -0.402809 0.0031147  0.00224471 -0.482165 0.00297928  -0.0174509 -0.5653 0.00283623  -0.0408826 -0.651635 0.00267601  -0.0677229 -0.740656 0.00251722  -0.0976557 -0.831941 0.00234699  -0.13036 -0.925108 0.00217509  -0.165542 -1.01983 0.00200725  -0.202913 -1.11584 0.00183773  -0.242213 -1.21288 0.00167656  -0.283188 -1.31076 0.00151587  -0.325607 -1.40928 0.00136518  -0.369249 -1.50828 0.0012176  -0.413918 -1.60764 0.00107431  -0.459435 -1.70722 0.000939369  -0.505623 -1.80692 0.000811577  -0.552341 -1.90665 0.000703573  -0.599453 -2.00634 0.000579119  -0.646834 -2.10591 0.000477314  -0.694375 -2.2053 0.000377178  -0.742001 -2.30448 0.000286579  -0.789635 -2.40341 0.000200748  -0.8372 -2.50207 0.000129938  -0.884682 -2.60044 6.50883e-05  -0.932002 -2.69854 -5.48363e-06  0 0 0  0.0110494 -0.0244524 0.00339723  0.0297017 -0.0585527 0.00561666  0.0491717 -0.101296 0.00669336  0.0652438 -0.152081 0.00697732  0.0762975 -0.210647 0.00684333  0.0818595 -0.276281 0.00654435  0.0819034 -0.348125 0.00617838  0.0766259 -0.425306 0.00579667  0.0663234 -0.507012 0.00541329  0.0513448 -0.59251 0.00502348  0.0320677 -0.681158 0.00464559  0.00887811 -0.772405 0.00427294  -0.0178553 -0.865784 0.0039165  -0.0477705 -0.960899 0.00357223  -0.0805175 -1.05741 0.00323653  -0.115784 -1.15503 0.00291967  -0.153253 -1.25352 0.00261426  -0.19266 -1.35266 0.00233388  -0.233725 -1.4523 0.00206208  -0.276216 -1.55225 0.0018127  -0.319907 -1.65241 0.0015769  -0.3646 -1.75266 0.00135088  -0.410109 -1.8529 0.00114584  -0.456268 -1.95307 0.000959635  -0.502921 -2.05307 0.000785351  -0.549937 -2.15288 0.000626802  -0.597196 -2.25244 0.000488043  -0.644599 -2.35172 0.000356436  -0.692061 -2.4507 0.000252247  -0.739515 -2.54936 0.000154257  -0.786919 -2.64774 6.93798e-05  -0.834224 -2.74586 -1.33514e-05  0 0 0  0.0161108 -0.0362265 0.00491452  0.0455707 -0.0746085 0.00831151  0.0741513 -0.118342 0.00990963  0.0983505 -0.170098 0.010318  0.116931 -0.22998 0.0101128  0.129429 -0.297313 0.00963569  0.135812 -0.371136 0.00904775  0.136259 -0.450477 0.00842977  0.131092 -0.534412 0.00780296  0.120683 -0.62214 0.00719357  0.105447 -0.712969 0.00660324  0.0858271 -0.806295 0.00602961  0.0622299 -0.901626 0.0054872  0.0350677 -0.998534 0.00496769  0.00471723 -1.09669 0.00447059  -0.0284524 -1.19578 0.00399899  -0.0641057 -1.29557 0.00356841  -0.10194 -1.39587 0.00315619  -0.141659 -1.49647 0.00277543  -0.182998 -1.59726 0.00241113  -0.225711 -1.69812 0.00207448  -0.269582 -1.79892 0.00177026  -0.31441 -1.8996 0.00148559  -0.36001 -2.00009 0.00122476  -0.406217 -2.10033 0.000980616  -0.452877 -2.20028 0.000777483  -0.499867 -2.29991 0.000587463  -0.547075 -2.39922 0.000433922  -0.594387 -2.49817 0.000298977  -0.641735 -2.59681 0.000180006  -0.68907 -2.69515 8.34465e-05  -0.736392 -2.79327 -7.15256e-06  0 0 0  0.0282891 -0.0572271 0.00662422  0.0675848 -0.0948991 0.0108073  0.103436 -0.138473 0.0128348  0.134857 -0.190892 0.0133867  0.160429 -0.252087 0.0131469  0.179495 -0.321174 0.012543  0.191907 -0.397008 0.0117748  0.197809 -0.4785 0.0109515  0.197538 -0.564621 0.0101194  0.191494 -0.654502 0.00930572  0.180127 -0.747396 0.0085156  0.163913 -0.842671 0.0077579  0.143326 -0.939805 0.00703335  0.118801 -1.03837 0.00634551  0.0907634 -1.13801 0.00569987  0.0596087 -1.23842 0.00508428  0.0257108 -1.33937 0.00451422  -0.0106061 -1.44065 0.00398326  -0.0490162 -1.54209 0.00347686  -0.0892332 -1.64357 0.00301743  -0.131001 -1.74498 0.00258112  -0.174084 -1.8462 0.00218463  -0.218258 -1.94719 0.00182009  -0.263336 -2.04788 0.00148082  -0.30912 -2.14822 0.00120091  -0.355472 -2.2482 0.000929594  -0.402229 -2.34779 0.000700474  -0.449284 -2.44701 0.000511885  -0.496501 -2.54586 0.000336647  -0.543802 -2.64438 0.000216007  -0.591121 -2.74264 9.53674e-05  -0.638465 -2.84075 1.19209e-05  0 0 0  -0.0349936 -0.0356622 2.38419e-07  -0.0727115 -0.0584628 -3.8147e-06  -0.111256 -0.0866968 -3.57628e-06  -0.150532 -0.120943 -2.38419e-07  -0.190122 -0.161621 2.6226e-06  -0.229793 -0.208482 -4.76837e-07  -0.269577 -0.26118 4.76837e-07  -0.309611 -0.319274 -1.66893e-06  -0.350099 -0.382302 2.38419e-07  -0.391216 -0.449835 -5.96046e-06  -0.433101 -0.521422 4.76837e-07  -0.475818 -0.596661 -2.38419e-07  -0.519389 -0.675188 4.52995e-06  -0.5638 -0.756666 1.19209e-06  -0.609002 -0.840783 -1.66893e-06  -0.654918 -0.927248 -4.05312e-06  -0.70148 -1.01579 -9.53674e-07  -0.7486 -1.10618 1.43051e-06  -0.796171 -1.19817 -9.05991e-06  -0.844107 -1.29155 -9.05991e-06  -0.892319 -1.38613 1.66893e-06  -0.940704 -1.48172 -5.72205e-06  -0.989208 -1.57817 -8.10623e-06  -1.03773 -1.67529 -3.33786e-06  -1.08622 -1.77297 -1.43051e-05  -1.13464 -1.87104 -6.91414e-06  -1.18292 -1.96939 -9.05991e-06  -1.23107 -2.06791 -7.15256e-07  -1.27905 -2.16645 2.14577e-06  -1.32687 -2.26499 -6.67572e-06  -1.37456 -2.36339 -4.52995e-06  -1.42219 -2.46163 -4.29153e-06  0 0 0  -0.0145536 -0.0174036 -4.76837e-07  -0.0407392 -0.0450139 9.53674e-07  -0.0698804 -0.0777824 -4.05312e-06  -0.100696 -0.117119 7.15256e-07  -0.132744 -0.162873 -7.15256e-07  -0.165856 -0.214653 0  -0.200009 -0.27199 1.43051e-06  -0.235258 -0.334397 -7.15256e-07  -0.271685 -0.401402 1.66893e-06  -0.309358 -0.472579 3.09944e-06  -0.348303 -0.547502 9.53674e-07  -0.388526 -0.625789 4.05312e-06  -0.429984 -0.707081 -3.33786e-06  -0.472602 -0.791052 -5.24521e-06  -0.5163 -0.877401 -2.14577e-06  -0.560959 -0.965853 -4.05312e-06  -0.606477 -1.05615 -8.82149e-06  -0.65273 -1.14806 -5.48363e-06  -0.699607 -1.24137 -2.38419e-06  -0.746987 -1.33587 -3.33786e-06  -0.794768 -1.43138 -5.96046e-06  -0.842838 -1.52774 -4.52995e-06  -0.891106 -1.6248 -5.96046e-06  -0.939485 -1.7224 -6.19888e-06  -0.987893 -1.82042 -1.19209e-06  -1.03628 -1.91872 -3.57628e-06  -1.08457 -2.0172 -1.90735e-06  -1.13276 -2.11576 -2.6226e-06  -1.18079 -2.21431 -1.66893e-06  -1.22865 -2.31278 -4.29153e-06  -1.27635 -2.4111 -9.53674e-06  -1.32395 -2.50928 4.29153e-06  0 0 0  -0.00755113 -0.0113235 1.90735e-06  -0.020997 -0.0376888 -2.38419e-07  -0.0393321 -0.0735289 -1.19209e-06  -0.0604896 -0.116611 9.53674e-07  -0.0839407 -0.166369 -9.53674e-07  -0.109506 -0.222183 4.76837e-07  -0.137126 -0.283472 -1.19209e-06  -0.166779 -0.349678 -1.90735e-06  -0.198433 -0.420302 2.6226e-06  -0.232038 -0.494867 -9.53674e-07  -0.267524 -0.57295 -1.90735e-06  -0.304792 -0.654157 -6.19888e-06  -0.343731 -0.738128 -4.76837e-07  -0.384204 -0.824543 -1.90735e-06  -0.426077 -0.913096 1.66893e-06  -0.469195 -1.00352 -5.00679e-06  -0.513412 -1.09557 -1.19209e-06  -0.558584 -1.18902 -5.00679e-06  -0.604551 -1.28367 -2.86102e-06  -0.651189 -1.37932 4.76837e-07  -0.698367 -1.47581 -1.90735e-06  -0.745961 -1.57299 2.38419e-07  -0.793853 -1.6707 -9.53674e-06  -0.841945 -1.76883 -7.15256e-07  -0.890153 -1.86724 -5.24521e-06  -0.938398 -1.96584 7.15256e-07  -0.986607 -2.06452 -1.43051e-06  -1.03472 -2.1632 -9.05991e-06  -1.08273 -2.26182 -2.38419e-06  -1.13057 -2.36031 -5.00679e-06  -1.17825 -2.45863 2.38419e-07  -1.22579 -2.55673 -1.00136e-05  0 0 0  -0.00228591 -0.010542 2.38419e-07  -0.00706212 -0.0368352 1.90735e-06  -0.0150799 -0.074215 7.15256e-07  -0.0264487 -0.119991 -2.38419e-06  -0.0409552 -0.172813 -2.38419e-07  -0.0585619 -0.231874 -3.09944e-06  -0.079221 -0.296462 -1.43051e-06  -0.102834 -0.36596 2.14577e-06  -0.129284 -0.439799 -1.90735e-06  -0.158418 -0.517459 2.6226e-06  -0.190054 -0.59848 -2.6226e-06  -0.224024 -0.682443 -1.43051e-06  -0.260126 -0.768972 -3.09944e-06  -0.298169 -0.857737 -4.76837e-07  -0.337959 -0.948431 -7.15256e-07  -0.379303 -1.04078 -3.33786e-06  -0.422003 -1.13455 2.38419e-07  -0.465892 -1.22953 -4.29153e-06  -0.510787 -1.3255 -3.09944e-06  -0.556521 -1.42231 2.38419e-06  -0.602953 -1.51979 -4.52995e-06  -0.64993 -1.61778 -5.96046e-06  -0.697334 -1.71618 -5.24521e-06  -0.745032 -1.81485 -9.53674e-07  -0.792933 -1.91369 -9.53674e-07  -0.840939 -2.01261 -4.76837e-07  -0.888977 -2.11153 -5.00679e-06  -0.936972 -2.21039 -2.38419e-07  -0.984879 -2.30911 -5.00679e-06  -1.03266 -2.40765 -5.96046e-06  -1.08028 -2.50598 -1.90735e-06  -1.12773 -2.60405 5.72205e-06  0 0 0  0.00208482 -0.0126789 7.15256e-07  0.00495005 -0.0404915 2.14577e-06  0.00616148 -0.0795133 4.76837e-07  0.0042811 -0.127329 2.38419e-06  -0.00136918 -0.182539 -1.19209e-06  -0.0109926 -0.244204 -4.76837e-07  -0.0245771 -0.311549 2.38419e-07  -0.0419957 -0.38389 1.19209e-06  -0.0630354 -0.460578 0  -0.0874662 -0.541047 -4.05312e-06  -0.115031 -0.624781 2.38419e-07  -0.145468 -0.711318 0  -0.17852 -0.800258 2.38419e-06  -0.213935 -0.89125 2.38419e-07  -0.25145 -0.98398 0  -0.290843 -1.07819 1.66893e-06  -0.331867 -1.17362 -2.14577e-06  -0.374323 -1.27006 2.38419e-07  -0.418004 -1.36733 -2.86102e-06  -0.462719 -1.46525 -6.67572e-06  -0.508288 -1.56368 -3.09944e-06  -0.55455 -1.66248 -6.19888e-06  -0.601365 -1.76153 -1.00136e-05  -0.648594 -1.86075 -3.57628e-06  -0.696108 -1.96002 -1.43051e-06  -0.743814 -2.05927 -2.38419e-06  -0.791613 -2.15843 -1.43051e-06  -0.839435 -2.25745 -2.14577e-06  -0.887212 -2.35628 -7.62939e-06  -0.934894 -2.45489 -4.52995e-06  -0.98245 -2.55324 -3.57628e-06  -1.02982 -2.6513 -1.66893e-06  0 0 0  0.00632845 -0.0172717 4.76837e-07  0.0166606 -0.0479321 -9.53674e-07  0.0267909 -0.0889216 2.6226e-06  0.0340011 -0.138508 1.43051e-06  0.0369149 -0.195607 -4.76837e-07  0.0350609 -0.259402 -1.43051e-06  0.0284233 -0.329098 -2.38419e-06  0.0171702 -0.403927 -1.66893e-06  0.00155449 -0.483188 1.90735e-06  -0.0181062 -0.566212 4.29153e-06  -0.0415015 -0.652442 -3.09944e-06  -0.068298 -0.741369 2.86102e-06  -0.098184 -0.832566 -2.6226e-06  -0.130839 -0.92566 2.6226e-06  -0.165968 -1.02032 -1.90735e-06  -0.203297 -1.11627 -1.19209e-06  -0.242549 -1.21326 2.38419e-06  -0.283479 -1.31108 1.90735e-06  -0.325856 -1.40956 -1.43051e-06  -0.369459 -1.50853 -2.6226e-06  -0.414094 -1.60785 -9.53674e-07  -0.459582 -1.7074 -2.6226e-06  -0.505737 -1.80708 -2.14577e-06  -0.552433 -1.90679 3.33786e-06  -0.599518 -2.00645 -2.14577e-06  -0.646874 -2.10599 -3.8147e-06  -0.694407 -2.20538 -3.09944e-06  -0.742018 -2.30454 -3.33786e-06  -0.789634 -2.40346 -4.29153e-06  -0.837208 -2.50211 -4.76837e-06  -0.884679 -2.60049 -4.29153e-06  -0.931994 -2.69857 -6.67572e-06  0 0 0  0.0109714 -0.0247872 1.19209e-06  0.0293862 -0.0592477 2.38419e-06  0.0486756 -0.102296 1.66893e-06  0.0646387 -0.153262 4.76837e-06  0.0756568 -0.211896 1.19209e-06  0.0812055 -0.277518 2.86102e-06  0.0812547 -0.349304 -2.86102e-06  0.075987 -0.4264 2.6226e-06  0.0656959 -0.508019 6.19888e-06  0.0507485 -0.593415 -1.66893e-06  0.0315077 -0.681967 -1.66893e-06  0.0083586 -0.773128 1.66893e-06  -0.0183368 -0.866427 1.66893e-06  -0.0482076 -0.961465 1.43051e-06  -0.0809126 -1.05791 -4.76837e-07  -0.11613 -1.15547 -3.09944e-06  -0.153565 -1.25391 -3.57628e-06  -0.19292 -1.35301 -1.19209e-06  -0.233951 -1.45259 -3.8147e-06  -0.276405 -1.55252 -3.57628e-06  -0.320059 -1.65264 -3.33786e-06  -0.364727 -1.75286 -1.43051e-06  -0.410214 -1.85307 -5.24521e-06  -0.456341 -1.9532 -4.76837e-07  -0.502978 -2.05319 2.6226e-06  -0.549975 -2.15298 -3.09944e-06  -0.597218 -2.25252 -5.00679e-06  -0.644608 -2.35179 -6.19888e-06  -0.692064 -2.45076 -2.14577e-06  -0.73951 -2.54942 -3.57628e-06  -0.78691 -2.64779 -3.8147e-06  -0.834207 -2.7459 0  0 0 0  0.0160384 -0.0366727 1.43051e-06  0.0452448 -0.0754274 -9.53674e-07  0.0736311 -0.119395 1.43051e-06  0.0977204 -0.171272 -2.86102e-06  0.116278 -0.231195 2.6226e-06  0.128786 -0.29851 1.90735e-06  0.135183 -0.372275 4.76837e-07  0.135652 -0.451529 4.29153e-06  0.130497 -0.53538 -2.86102e-06  0.120113 -0.62302 -7.15256e-07  0.104917 -0.713756 3.57628e-06  0.0853246 -0.806998 2.6226e-06  0.0617732 -0.902248 -2.38419e-07  0.0346475 -0.999094 4.52995e-06  0.00434136 -1.09718 4.76837e-07  -0.0287923 -1.19622 -3.33786e-06  -0.064409 -1.29596 -7.86781e-06  -0.1022 -1.3962 -4.76837e-07  -0.141882 -1.49677 -4.52995e-06  -0.183184 -1.59752 -7.15256e-07  -0.225869 -1.69834 2.38419e-07  -0.269709 -1.79911 -4.76837e-07  -0.314507 -1.89977 3.09944e-06  -0.360077 -2.00022 0  -0.406269 -2.10044 -6.4373e-06  -0.45292 -2.20037 -5.72205e-06  -0.499892 -2.29999 -4.76837e-07  -0.547079 -2.39928 0  -0.594384 -2.49824 -4.29153e-06  -0.641732 -2.59686 1.43051e-06  -0.689065 -2.69519 -5.48363e-06  -0.736385 -2.79332 2.14577e-06  0 0 0  0.028294 -0.0579923 -4.76837e-07  0.0673218 -0.0959795 3.8147e-06  0.102923 -0.139668 -4.05312e-06  0.134209 -0.192106 1.66893e-06  0.159744 -0.253299 -2.38419e-07  0.178817 -0.322331 9.53674e-07  0.191248 -0.3981 9.53674e-07  0.197179 -0.479499 7.15256e-07  0.196931 -0.565534 -2.38419e-06  0.190902 -0.655325 4.52995e-06  0.179574 -0.748133 -1.66893e-06  0.1634 -0.843322 2.86102e-06  0.142846 -0.940381 7.15256e-07  0.118366 -1.03888 -3.8147e-06  0.0903668 -1.13846 2.38419e-06  0.0592573 -1.23882 -9.53674e-07  0.0253921 -1.33971 2.86102e-06  -0.0108767 -1.44095 2.38419e-07  -0.0492525 -1.54237 -1.19209e-06  -0.0894251 -1.64381 -9.53674e-07  -0.131175 -1.74518 0  -0.174221 -1.84637 -1.19209e-06  -0.218369 -1.94733 -2.38419e-06  -0.26341 -2.04799 -2.38419e-07  -0.309179 -2.14832 7.15256e-07  -0.355508 -2.24828 3.57628e-06  -0.402259 -2.34787 -5.72205e-06  -0.449281 -2.44707 3.8147e-06  -0.496495 -2.54591 -3.33786e-06  -0.54379 -2.64443 -9.77516e-06  -0.5911 -2.7427 7.15256e-07  -0.638446 -2.84081 -4.76837e-07  0 0 0  -0.0344686 -0.0347475 0.00877047  -0.0721134 -0.0569109 0.0138927  -0.110643 -0.08472 0.0164721  -0.149943 -0.118868 0.01702  -0.189475 -0.159598 0.016238  -0.229069 -0.206631 0.0148072  -0.268781 -0.259547 0.0131583  -0.308784 -0.317873 0.0115428  -0.349272 -0.38113 0.0100639  -0.390421 -0.44884 0.00874877  -0.43235 -0.520583 0.00761247  -0.475124 -0.595955 0.00660992  -0.51876 -0.674591 0.00572991  -0.563228 -0.756156 0.00495791  -0.608495 -0.840352 0.00426674  -0.654482 -0.926874 0.0036571  -0.701091 -1.01547 0.00309753  -0.748256 -1.10591 0.00260782  -0.79588 -1.19794 0.00215888  -0.843858 -1.29135 0.00176501  -0.892116 -1.38597 0.00142264  -0.940535 -1.48159 0.00111437  -0.989067 -1.57806 0.000840664  -1.03763 -1.67521 0.000611544  -1.08614 -1.77289 0.000421047  -1.13458 -1.87098 0.000270605  -1.18289 -1.96935 0.000151873  -1.23105 -2.06786 6.79493e-05  -1.27903 -2.16644 1.21593e-05  -1.32685 -2.26497 -1.97887e-05  -1.37454 -2.36337 -2.76566e-05  -1.42216 -2.46163 -2.07424e-05  0 0 0  -0.0144875 -0.0167707 0.00602603  -0.0405566 -0.0436822 0.0101542  -0.0695661 -0.0760684 0.0121655  -0.100243 -0.115276 0.0125501  -0.132129 -0.16107 0.0119193  -0.165096 -0.213007 0.0108075  -0.199148 -0.270538 0.00954986  -0.234356 -0.333149 0.00832438  -0.270785 -0.400351 0.0072186  -0.308489 -0.471692 0.00624418  -0.347489 -0.546752 0.00539374  -0.387774 -0.625151 0.00465703  -0.429299 -0.706542 0.00401568  -0.471987 -0.790592 0.00345111  -0.515748 -0.877015 0.0029521  -0.56048 -0.965522 0.00250125  -0.606056 -1.05586 0.00210738  -0.652369 -1.14781 0.00174999  -0.699289 -1.24116 0.0014379  -0.746721 -1.3357 0.00115466  -0.794538 -1.43125 0.000908852  -0.842645 -1.52763 0.000695229  -0.890951 -1.62471 0.000505924  -0.939364 -1.72232 0.000346661  -0.987803 -1.82034 0.000222921  -1.03621 -1.91867 0.00012064  -1.08453 -2.01716 4.52995e-05  -1.13272 -2.11573 -7.15256e-06  -1.18077 -2.21429 -2.88486e-05  -1.22864 -2.31276 -3.93391e-05  -1.27634 -2.41109 -4.81606e-05  -1.32394 -2.50926 -4.22001e-05  0 0 0  -0.00750995 -0.0108062 0.00384974  -0.0209101 -0.0366308 0.00653243  -0.039077 -0.0720783 0.00790429  -0.0600547 -0.114983 0.00816679  -0.0833165 -0.16475 0.00773001  -0.108727 -0.220679 0.00697351  -0.136255 -0.282127 0.00610828  -0.16587 -0.348511 0.00527239  -0.197526 -0.419294 0.00451994  -0.23117 -0.494011 0.00385618  -0.266705 -0.572212 0.00328445  -0.30404 -0.653526 0.00279069  -0.34305 -0.737593 0.00237083  -0.383592 -0.824075 0.00199986  -0.425531 -0.912701 0.00167918  -0.468714 -1.00318 0.00139642  -0.512988 -1.09528 0.00114536  -0.558207 -1.18878 0.000915766  -0.604237 -1.28346 0.000724792  -0.650917 -1.37915 0.000555515  -0.698139 -1.47567 0.00041151  -0.745766 -1.57287 0.000284672  -0.79369 -1.6706 0.000174046  -0.841828 -1.76874 9.44138e-05  -0.890056 -1.86717 2.71797e-05  -0.938321 -1.96578 -2.00272e-05  -0.986551 -2.06448 -5.76973e-05  -1.03469 -2.16317 -7.27177e-05  -1.0827 -2.2618 -7.77245e-05  -1.13056 -2.36029 -7.29561e-05  -1.17824 -2.4586 -5.29289e-05  -1.22577 -2.5567 -4.3869e-05  0 0 0  -0.00223754 -0.0101308 0.00189996  -0.00691974 -0.0359555 0.00325322  -0.0147915 -0.0729586 0.0039444  -0.0259831 -0.11854 0.00406957  -0.0403273 -0.171337 0.00381017  -0.0578114 -0.230465 0.00336981  -0.0783904 -0.295176 0.00286865  -0.101976 -0.364814 0.00238681  -0.128433 -0.438797 0.0019536  -0.157597 -0.516586 0.0015769  -0.189285 -0.597724 0.00126433  -0.223314 -0.681787 0.00100088  -0.259482 -0.768409 0.000781775  -0.297587 -0.857249 0.00059557  -0.337437 -0.948012 0.000442028  -0.37884 -1.04042 0.000308514  -0.4216 -1.13424 0.000201702  -0.465541 -1.22926 0.000103712  -0.510481 -1.32528 2.74181e-05  -0.55626 -1.42211 -2.81334e-05  -0.602735 -1.51962 -8.55923e-05  -0.649754 -1.61765 -0.000123501  -0.697182 -1.71606 -0.000150919  -0.744912 -1.81476 -0.000168085  -0.79284 -1.91361 -0.000173569  -0.840876 -2.01255 -0.000175476  -0.888928 -2.11148 -0.000156879  -0.936936 -2.21034 -0.000142336  -0.984869 -2.30907 -0.000118732  -1.03266 -2.40762 -9.32217e-05  -1.08028 -2.50595 -6.19888e-05  -1.12773 -2.60402 -3.19481e-05  0 0 0  0.00215039 -0.0123469 4.69685e-05  0.00515926 -0.039736 0.000160933  0.00653142 -0.0784094 0.00023818  0.00479299 -0.126019 0.000222683  -0.000739455 -0.181169 0.000118494  -0.0102801 -0.242865 -4.8399e-05  -0.0238154 -0.3103 -0.000225067  -0.0412142 -0.382756 -0.000394344  -0.0622658 -0.459567 -0.000536203  -0.0867279 -0.540152 -0.0006392  -0.114336 -0.62399 -0.000716448  -0.144828 -0.710624 -0.000760555  -0.177936 -0.799659 -0.000779629  -0.213399 -0.890724 -0.000790834  -0.250976 -0.983533 -0.000785828  -0.290411 -1.07779 -0.000766516  -0.331498 -1.17327 -0.000739813  -0.374003 -1.26977 -0.000705242  -0.417723 -1.36707 -0.000668287  -0.462475 -1.46503 -0.000627279  -0.508083 -1.56349 -0.000581026  -0.554389 -1.66232 -0.000534296  -0.601235 -1.7614 -0.000484705  -0.648491 -1.86063 -0.000432491  -0.696029 -1.95992 -0.000379801  -0.743749 -2.0592 -0.000320673  -0.791579 -2.15837 -0.000273943  -0.839413 -2.2574 -0.000214338  -0.887196 -2.35624 -0.000170231  -0.934896 -2.45485 -0.000116825  -0.98245 -2.55321 -7.03335e-05  -1.02981 -2.65127 -2.09808e-05  0 0 0  0.00640415 -0.0169738 -0.00172377  0.0169314 -0.0472466 -0.0027988  0.0272302 -0.0879037 -0.00330091  0.034565 -0.137281 -0.00344825  0.0375471 -0.194308 -0.00342655  0.0357332 -0.258122 -0.00334048  0.0291217 -0.327883 -0.00323796  0.0178682 -0.40281 -0.00311255  0.00224042 -0.482169 -0.0029788  -0.017447 -0.565303 -0.00283599  -0.0408788 -0.651629 -0.0026772  -0.0677274 -0.740656 -0.00251842  -0.0976574 -0.83194 -0.00234962  -0.13036 -0.925106 -0.00217628  -0.165542 -1.01983 -0.00200915  -0.202919 -1.11584 -0.00184035  -0.242214 -1.21288 -0.00167394  -0.283195 -1.31076 -0.00151467  -0.325603 -1.40927 -0.00136733  -0.369248 -1.50828 -0.00122237  -0.413912 -1.60764 -0.00107789  -0.459431 -1.70722 -0.000944614  -0.505624 -1.80692 -0.000823736  -0.552346 -1.90665 -0.000696421  -0.599452 -2.00634 -0.00058341  -0.646833 -2.10591 -0.000480413  -0.694379 -2.2053 -0.000385523  -0.742003 -2.30448 -0.000294447  -0.789631 -2.40341 -0.000211239  -0.837206 -2.50207 -0.000139475  -0.884686 -2.60045 -7.03335e-05  -0.931997 -2.69854 -9.53674e-06  0 0 0  0.0110494 -0.0244542 -0.00339627  0.0297032 -0.0585575 -0.0056138  0.0491756 -0.101293 -0.00669265  0.065247 -0.152078 -0.00697112  0.0763002 -0.210652 -0.00684333  0.08186 -0.276285 -0.00654173  0.0819035 -0.348124 -0.00618076  0.0766252 -0.425305 -0.00579762  0.0663204 -0.507012 -0.00540876  0.0513425 -0.59251 -0.00502324  0.032069 -0.681153 -0.00464463  0.0088743 -0.772401 -0.00427246  -0.0178605 -0.865781 -0.00391388  -0.0477713 -0.960894 -0.00356746  -0.0805193 -1.05741 -0.00323749  -0.115786 -1.15503 -0.00292683  -0.153256 -1.25351 -0.00262213  -0.192662 -1.35266 -0.00233555  -0.233727 -1.45229 -0.00206661  -0.276212 -1.55225 -0.0018177  -0.319908 -1.65241 -0.00157523  -0.364595 -1.75266 -0.00136256  -0.41011 -1.85291 -0.00115323  -0.456264 -1.95307 -0.000964403  -0.502918 -2.05308 -0.000784874  -0.549938 -2.15288 -0.000635862  -0.597197 -2.25244 -0.000490665  -0.644604 -2.35172 -0.000366449  -0.692066 -2.4507 -0.000264168  -0.739522 -2.54937 -0.000160933  -0.78692 -2.64775 -7.72476e-05  -0.834219 -2.74585 7.39098e-06  0 0 0  0.01611 -0.0362275 -0.00491095  0.0455703 -0.0746098 -0.00831175  0.0741559 -0.118339 -0.0099082  0.0983517 -0.170096 -0.0103178  0.116931 -0.229982 -0.010108  0.129431 -0.297313 -0.00963092  0.135812 -0.371134 -0.00904584  0.136263 -0.450472 -0.00842524  0.131093 -0.534414 -0.00780749  0.120678 -0.622145 -0.00719404  0.10545 -0.712967 -0.00659466  0.0858295 -0.806294 -0.00602889  0.0622282 -0.901625 -0.00548148  0.0350647 -0.998535 -0.00496459  0.00471687 -1.09669 -0.00446963  -0.0284557 -1.19578 -0.00400949  -0.0641096 -1.29558 -0.00357437  -0.101943 -1.39587 -0.00316215  -0.141662 -1.49648 -0.00277781  -0.182997 -1.59727 -0.00241303  -0.225713 -1.69811 -0.00207806  -0.269587 -1.79891 -0.00176978  -0.314409 -1.8996 -0.00148678  -0.360013 -2.00009 -0.00122523  -0.406215 -2.10033 -0.000993013  -0.452886 -2.20028 -0.00077939  -0.499875 -2.29991 -0.000597954  -0.547071 -2.39921 -0.000444174  -0.594391 -2.49818 -0.000301123  -0.641745 -2.59682 -0.000181675  -0.689077 -2.69515 -8.70228e-05  -0.736388 -2.79326 5.00679e-06  0 0 0  0.0282919 -0.0572295 -0.00662565  0.0675868 -0.0948983 -0.0108061  0.103433 -0.138473 -0.0128415  0.134858 -0.190892 -0.0133853  0.160423 -0.252087 -0.0131462  0.179493 -0.321174 -0.0125458  0.191909 -0.397014 -0.0117748  0.197821 -0.478498 -0.0109525  0.197543 -0.564624 -0.0101202  0.191494 -0.654505 -0.00930405  0.180129 -0.747396 -0.0085156  0.163918 -0.84267 -0.00775003  0.143321 -0.939808 -0.00703239  0.118798 -1.03837 -0.00634527  0.0907605 -1.138 -0.00570154  0.0596056 -1.23842 -0.00509048  0.0257027 -1.33936 -0.00451851  -0.010608 -1.44065 -0.00397682  -0.0490203 -1.54209 -0.00348234  -0.0892415 -1.64357 -0.00301456  -0.131005 -1.74497 -0.00258589  -0.174083 -1.84621 -0.00218987  -0.218256 -1.94719 -0.0018177  -0.263332 -2.04788 -0.00148726  -0.309122 -2.14822 -0.00119019  -0.355473 -2.2482 -0.000935078  -0.402234 -2.34779 -0.000703096  -0.449277 -2.447 -0.000513792  -0.496506 -2.54587 -0.000345945  -0.543809 -2.64438 -0.000219107  -0.591122 -2.74263 -0.000112295  -0.638473 -2.84074 -4.76837e-07  0 0 0  -0.0332 -0.0316877 0.0185046  -0.0702796 -0.0515457 0.0290875  -0.108981 -0.0785096 0.0339618  -0.148131 -0.112364 0.0344138  -0.187351 -0.153405 0.0324404  -0.226648 -0.201076 0.0293777  -0.266162 -0.254752 0.0260272  -0.306095 -0.313824 0.022804  -0.346631 -0.377729 0.0198941  -0.387904 -0.445995 0.0173321  -0.430003 -0.518193 0.0150893  -0.472969 -0.593935 0.0131223  -0.5168 -0.672875 0.0113986  -0.561475 -0.754698 0.009866  -0.606937 -0.839101 0.00850248  -0.653106 -0.925817 0.00728035  -0.699898 -1.01457 0.00617862  -0.747226 -1.10514 0.00519729  -0.794996 -1.19728 0.00431633  -0.843108 -1.29081 0.00352907  -0.891481 -1.38552 0.00282907  -0.940032 -1.48122 0.00220704  -0.988655 -1.57776 0.00167632  -1.0373 -1.67496 0.00121713  -1.08591 -1.7727 0.000835896  -1.13441 -1.87082 0.000529289  -1.18277 -1.96922 0.000291109  -1.23096 -2.06778 0.000106096  -1.27898 -2.16638 9.05991e-06  -1.32681 -2.26493 -3.95775e-05  -1.37452 -2.36335 -6.1512e-05  -1.42213 -2.46159 -5.79357e-05  0 0 0  -0.014487 -0.0145373 0.0125108  -0.0400806 -0.0393856 0.0209939  -0.0686848 -0.0706571 0.0246661  -0.0987792 -0.109562 0.0249901  -0.130055 -0.155617 0.0235014  -0.162556 -0.208109 0.0212171  -0.196339 -0.266296 0.018733  -0.231454 -0.329544 0.0163524  -0.267926 -0.397314 0.0142026  -0.305764 -0.469132 0.0123138  -0.34496 -0.544598 0.0106649  -0.385461 -0.623328 0.00923014  -0.427204 -0.704995 0.00796843  -0.470102 -0.789274 0.00685358  -0.514077 -0.875895 0.00586724  -0.558999 -0.96457 0.00498271  -0.60476 -1.05506 0.00419831  -0.651237 -1.14714 0.00348997  -0.698324 -1.24059 0.00286579  -0.745893 -1.33522 0.00230956  -0.793847 -1.43085 0.00181723  -0.842072 -1.52731 0.00139022  -0.890481 -1.62445 0.00101542  -0.938985 -1.72212 0.000701427  -0.987507 -1.82018 0.000448704  -1.03599 -1.91854 0.000240564  -1.08437 -2.01706 8.9407e-05  -1.13261 -2.11565 -7.62939e-06  -1.1807 -2.21423 -6.65188e-05  -1.22858 -2.31272 -8.72612e-05  -1.27631 -2.41105 -9.27448e-05  -1.3239 -2.50922 -8.72612e-05  0 0 0  -0.0074752 -0.00907063 0.00802755  -0.0206305 -0.0331359 0.0133581  -0.0383441 -0.0673918 0.0158572  -0.0586423 -0.109929 0.016094  -0.0812693 -0.159836 0.01512  -0.106209 -0.216182 0.0135913  -0.133467 -0.278155 0.011915  -0.162998 -0.345076 0.0103076  -0.194705 -0.416353 0.00885653  -0.228478 -0.491495 0.00758505  -0.264204 -0.570078 0.00647926  -0.30175 -0.651701 0.00552535  -0.340968 -0.736029 0.00469756  -0.381721 -0.822745 0.00397134  -0.423865 -0.911562 0.00333667  -0.467242 -1.00221 0.00277448  -0.511696 -1.09446 0.00227427  -0.557081 -1.18808 0.00184035  -0.60326 -1.28287 0.00145006  -0.650095 -1.37865 0.00111222  -0.69744 -1.47526 0.000819921  -0.745185 -1.57253 0.000572443  -0.793222 -1.67033 0.000364542  -0.841442 -1.76852 0.000190735  -0.889763 -1.86699 5.22137e-05  -0.938102 -1.96564 -4.31538e-05  -0.986391 -2.06437 -0.000107288  -1.03459 -2.16309 -0.000139713  -1.08264 -2.26173 -0.000146151  -1.13051 -2.36023 -0.000132322  -1.17821 -2.45855 -0.000107527  -1.22574 -2.55665 -7.67708e-05  0 0 0  -0.00211781 -0.00872287 0.00392079  -0.00647837 -0.0330321 0.00660086  -0.01388 -0.0689098 0.00784326  -0.0245 -0.114044 0.00795007  -0.0383254 -0.166836 0.00737834  -0.0554343 -0.226225 0.00649691  -0.0758015 -0.291333 0.00553179  -0.0993196 -0.361416 0.00460601  -0.125819 -0.435821 0.00378013  -0.155104 -0.51401 0.00306964  -0.18696 -0.595493 0.00246239  -0.221177 -0.679862 0.0019629  -0.257536 -0.76674 0.00153184  -0.295835 -0.855807 0.00117326  -0.335878 -0.946764 0.000869989  -0.377458 -1.03935 0.000611782  -0.420382 -1.13333 0.000391006  -0.464479 -1.22848 0.000211  -0.509567 -1.32461 5.76973e-05  -0.555487 -1.42155 -6.38962e-05  -0.602072 -1.51914 -0.000167131  -0.649207 -1.61725 -0.000244379  -0.696736 -1.71573 -0.000291824  -0.744565 -1.81448 -0.000332594  -0.792572 -1.91339 -0.000343323  -0.840669 -2.01237 -0.000341177  -0.888783 -2.11134 -0.000319481  -0.936845 -2.21023 -0.000280857  -0.984812 -2.30898 -0.000232697  -1.03262 -2.40754 -0.000175476  -1.08026 -2.50588 -0.000116587  -1.12769 -2.60393 -7.12872e-05  0 0 0  0.00236894 -0.0111988 -9.53674e-06  0.00583377 -0.0372238 0.000196457  0.00770685 -0.0748159 0.000333548  0.00640088 -0.12193 0.000281334  0.00121474 -0.17697 6.17504e-05  -0.00807393 -0.23881 -0.000254154  -0.0214735 -0.306541 -0.000591278  -0.0388361 -0.379353 -0.000896454  -0.0599325 -0.456541 -0.00115228  -0.0844938 -0.537487 -0.00134087  -0.112243 -0.621656 -0.0014708  -0.142895 -0.708579 -0.00155234  -0.176171 -0.797864 -0.00158715  -0.21181 -0.889167 -0.00159693  -0.249554 -0.982171 -0.00157666  -0.289159 -1.07661 -0.00153613  -0.330387 -1.17225 -0.00148177  -0.373037 -1.26888 -0.00141382  -0.416896 -1.36631 -0.00133681  -0.461777 -1.46437 -0.00124979  -0.507495 -1.56292 -0.00116134  -0.553905 -1.66184 -0.00106335  -0.600837 -1.761 -0.000964403  -0.648178 -1.8603 -0.000858784  -0.695795 -1.95964 -0.000755787  -0.743585 -2.05896 -0.000647306  -0.791456 -2.15818 -0.00053668  -0.839334 -2.25725 -0.000435829  -0.887166 -2.35612 -0.000328302  -0.934884 -2.45474 -0.000222206  -0.982447 -2.5531 -0.000129938  -1.0298 -2.65116 -3.40939e-05  0 0 0  0.00670968 -0.0159444 -0.00380778  0.0178237 -0.0449488 -0.00594544  0.0286678 -0.0845764 -0.00685763  0.0363066 -0.13344 -0.00706553  0.0394725 -0.190308 -0.00698304  0.0377856 -0.254199 -0.00679255  0.0312282 -0.32419 -0.00656223  0.0199835 -0.399418 -0.00630569  0.00430751 -0.479107 -0.00601888  -0.0154724 -0.562567 -0.00571537  -0.0390228 -0.649212 -0.00539136  -0.0659993 -0.738514 -0.00505948  -0.0960771 -0.830049 -0.00471425  -0.128937 -0.923441 -0.00436354  -0.164264 -1.01837 -0.00401998  -0.201785 -1.11455 -0.00368309  -0.241225 -1.21175 -0.00335646  -0.282326 -1.30977 -0.0030365  -0.324869 -1.40842 -0.00273585  -0.368623 -1.50754 -0.00244141  -0.413401 -1.607 -0.00215364  -0.459008 -1.70667 -0.00189233  -0.505289 -1.80646 -0.00163221  -0.552084 -1.90627 -0.00139546  -0.599259 -2.00601 -0.0011704  -0.646701 -2.10563 -0.000952721  -0.694296 -2.20508 -0.000766277  -0.741959 -2.3043 -0.000582457  -0.789616 -2.40326 -0.000418663  -0.83722 -2.50195 -0.000270605  -0.884697 -2.60032 -0.000138521  -0.932006 -2.6984 -7.15256e-06  0 0 0  0.0113998 -0.0233511 -0.00738955  0.0307355 -0.056242 -0.0117984  0.0508001 -0.0980394 -0.0137594  0.0670999 -0.148361 -0.0141263  0.0782192 -0.20678 -0.0137949  0.0837943 -0.272475 -0.0131636  0.0838324 -0.344512 -0.0124278  0.0785283 -0.421962 -0.0116518  0.0681694 -0.503968 -0.0108645  0.0531137 -0.589766 -0.0100839  0.0337319 -0.678704 -0.00931621  0.0104198 -0.770216 -0.00856972  -0.0164376 -0.863845 -0.00784612  -0.0464846 -0.959177 -0.00715089  -0.0793691 -1.05588 -0.00648403  -0.11476 -1.15368 -0.00585318  -0.152359 -1.25233 -0.00524497  -0.191881 -1.35162 -0.00467348  -0.233059 -1.45138 -0.00413561  -0.275652 -1.55146 -0.00363159  -0.319445 -1.65173 -0.00315499  -0.364229 -1.75207 -0.00271821  -0.409817 -1.8524 -0.00230742  -0.456048 -1.95264 -0.0019269  -0.502765 -2.05272 -0.00157404  -0.549837 -2.15259 -0.00126076  -0.59714 -2.25219 -0.000979424  -0.644582 -2.35152 -0.000733137  -0.692068 -2.45053 -0.0005126  -0.739548 -2.54923 -0.000323534  -0.786952 -2.6476 -0.000146389  -0.834244 -2.74572 1.64509e-05  0 0 0  0.0164795 -0.03475 -0.0106454  0.0466303 -0.0719524 -0.017489  0.0758626 -0.114979 -0.0203247  0.100278 -0.166396 -0.0208702  0.118865 -0.226204 -0.0203464  0.131326 -0.293626 -0.0193524  0.137663 -0.367649 -0.0181639  0.138063 -0.447242 -0.0169156  0.132831 -0.531461 -0.0156622  0.122345 -0.619474 -0.0144322  0.107018 -0.71057 -0.013231  0.0872836 -0.80415 -0.0120835  0.0635731 -0.899711 -0.0109856  0.0362842 -0.996832 -0.00994587  0.00581086 -1.09518 -0.00895381  -0.0274867 -1.19444 -0.0080266  -0.0632594 -1.2944 -0.00714946  -0.101201 -1.39483 -0.00632215  -0.141021 -1.49556 -0.00555038  -0.182467 -1.59647 -0.0048275  -0.225274 -1.69742 -0.00415993  -0.269235 -1.79832 -0.00354338  -0.314142 -1.8991 -0.00296903  -0.359811 -1.99966 -0.00244427  -0.406084 -2.09996 -0.00198388  -0.452803 -2.19998 -0.00155425  -0.499828 -2.29966 -0.00118995  -0.54707 -2.39901 -0.000874043  -0.59442 -2.498 -0.000593901  -0.641785 -2.59666 -0.000362635  -0.689123 -2.69499 -0.000172138  -0.736441 -2.7931 2.31266e-05  0 0 0  0.0284628 -0.054733 -0.0145028  0.0685161 -0.0914552 -0.0228302  0.105113 -0.134807 -0.0264142  0.136841 -0.187091 -0.0271649  0.162445 -0.248353 -0.0265284  0.181474 -0.3176 -0.0252447  0.193832 -0.393686 -0.0236764  0.199688 -0.475437 -0.0220139  0.199337 -0.561841 -0.0203288  0.19321 -0.651997 -0.0186827  0.181739 -0.745155 -0.017091  0.165425 -0.840671 -0.0155535  0.144719 -0.938027 -0.0141046  0.12007 -1.03679 -0.0127175  0.0919046 -1.13661 -0.0114207  0.0606253 -1.23719 -0.0101893  0.0265973 -1.33829 -0.00904226  -0.00982594 -1.4397 -0.00796056  -0.0483384 -1.54127 -0.00695848  -0.0886683 -1.64286 -0.00602365  -0.130535 -1.74436 -0.00516534  -0.173708 -1.84567 -0.00436831  -0.217969 -1.94674 -0.00363731  -0.263105 -2.0475 -0.00297809  -0.308958 -2.14792 -0.0023725  -0.355376 -2.24795 -0.00184989  -0.40219 -2.34758 -0.00138187  -0.449273 -2.44683 -0.000998259  -0.49653 -2.54571 -0.000670433  -0.543862 -2.64424 -0.000414371  -0.591178 -2.74248 -0.000205755  -0.638517 -2.84057 -4.29153e-06  0 0 0  -0.0300481 -0.0242305 0.0310256  -0.0684957 -0.042007 0.0474408  -0.106639 -0.0668112 0.0526378  -0.144696 -0.100681 0.0519013  -0.182952 -0.142807 0.0481772  -0.221631 -0.191971 0.0433071  -0.260903 -0.24715 0.0382714  -0.300874 -0.307538 0.0335643  -0.341623 -0.372537 0.0293446  -0.383221 -0.44168 0.0256326  -0.425704 -0.514582 0.0223758  -0.469069 -0.590898 0.0195119  -0.513298 -0.670311 0.0169771  -0.558351 -0.75252 0.0147119  -0.60417 -0.837264 0.0126951  -0.650658 -0.924241 0.0108738  -0.697763 -1.01325 0.00923514  -0.745382 -1.10403 0.00776434  -0.793412 -1.19637 0.00645399  -0.841776 -1.29006 0.00527215  -0.890373 -1.38489 0.00422406  -0.93911 -1.48071 0.003299  -0.987913 -1.57735 0.00249457  -1.03672 -1.67464 0.00180626  -1.08546 -1.77245 0.00123668  -1.13408 -1.87064 0.000761271  -1.18255 -1.96909 0.000397682  -1.23083 -2.06769 0.000128269  -1.2789 -2.16632 -2.93255e-05  -1.32675 -2.26489 -0.000100136  -1.37447 -2.36333 -0.000109196  -1.42208 -2.46157 -0.000120878  0 0 0  -0.0143678 -0.0097298 0.0206485  -0.0401749 -0.0307057 0.0329633  -0.0674581 -0.0604524 0.0369084  -0.0957363 -0.0994507 0.0365784  -0.125607 -0.146466 0.0340865  -0.157286 -0.200205 0.0307198  -0.190748 -0.259645 0.0271776  -0.225895 -0.324001 0.0238163  -0.262612 -0.392692 0.0207791  -0.300813 -0.465269 0.0180936  -0.340415 -0.541351 0.0157354  -0.381344 -0.620596 0.0136576  -0.423502 -0.702685 0.0118132  -0.466799 -0.787321 0.0101798  -0.511145 -0.874238 0.00872827  -0.556407 -0.963172 0.00742507  -0.602488 -1.05389 0.00626159  -0.649266 -1.14616 0.00520825  -0.696625 -1.23978 0.00427842  -0.744449 -1.33456 0.00344992  -0.792624 -1.43031 0.00272036  -0.841063 -1.52688 0.00208187  -0.889659 -1.62411 0.00152588  -0.938324 -1.72184 0.00106072  -0.987001 -1.81998 0.000670195  -1.03561 -1.91838 0.00037384  -1.0841 -2.01695 0.000139713  -1.13244 -2.11558 -1.4782e-05  -1.18058 -2.21417 -0.00010252  -1.22852 -2.31267 -0.000138044  -1.27626 -2.41101 -0.00013566  -1.32385 -2.50917 -0.000146389  0 0 0  -0.00734144 -0.00520451 0.0131533  -0.0206774 -0.0258725 0.0207951  -0.037048 -0.0587206 0.0234721  -0.0557853 -0.101079 0.0233407  -0.0771489 -0.151528 0.0217333  -0.101318 -0.208769 0.0195158  -0.128247 -0.271737 0.0171695  -0.157764 -0.339583 0.0149271  -0.18967 -0.411687 0.0129011  -0.223765 -0.487536 0.0111053  -0.259863 -0.566704 0.00953341  -0.297797 -0.648833 0.00815725  -0.337405 -0.733582 0.00695133  -0.378529 -0.820653 0.00589705  -0.421028 -0.909777 0.0049603  -0.464733 -1.0007 0.00413346  -0.509496 -1.09317 0.00339675  -0.555173 -1.18699 0.0027504  -0.601612 -1.28196 0.00217605  -0.648684 -1.3779 0.00167298  -0.696254 -1.47463 0.00123906  -0.744206 -1.57201 0.000866413  -0.792422 -1.66991 0.000553131  -0.840801 -1.76819 0.000300884  -0.889263 -1.86673 9.39369e-05  -0.937733 -1.96544 -5.74589e-05  -0.986134 -2.06421 -0.000156164  -1.03441 -2.16296 -0.000204802  -1.08253 -2.26163 -0.000217676  -1.13045 -2.36016 -0.000196218  -1.17817 -2.45849 -0.000158787  -1.2257 -2.55658 -0.000140429  0 0 0  -0.0018245 -0.00561687 0.00633121  -0.00579944 -0.0268452 0.0100729  -0.0122003 -0.061423 0.0114  -0.0216807 -0.106126 0.0113127  -0.0345807 -0.159132 0.0104048  -0.0510873 -0.219116 0.00914454  -0.0711704 -0.284982 0.00780654  -0.0946634 -0.355844 0.00654125  -0.121311 -0.430992 0.00540566  -0.150852 -0.509832 0.00441957  -0.183021 -0.591893 0.00357103  -0.217574 -0.676748 0.00285792  -0.254273 -0.764058 0.002244  -0.292906 -0.853487 0.001724  -0.333267 -0.944766 0.00128007  -0.375146 -1.03763 0.000903845  -0.418361 -1.13185 0.000576258  -0.462714 -1.22722 0.000314474  -0.508047 -1.32353 9.32217e-05  -0.55419 -1.42064 -9.5129e-05  -0.600985 -1.51837 -0.000249624  -0.648311 -1.61661 -0.000353813  -0.696009 -1.7152 -0.000434637  -0.743987 -1.81404 -0.000489473  -0.792127 -1.91304 -0.000509501  -0.840341 -2.01209 -0.000505209  -0.888559 -2.11112 -0.000476837  -0.936698 -2.21005 -0.000421047  -0.984729 -2.30884 -0.000341892  -1.03259 -2.40744 -0.000257969  -1.08025 -2.50578 -0.000177383  -1.12768 -2.60383 -0.000115156  0 0 0  0.00281693 -0.00862753 -0.000346899  0.00721461 -0.0317594 -0.00014019  0.00989395 -0.0680448 2.16961e-05  0.00930309 -0.114607 -8.29697e-05  0.00469822 -0.169664 -0.00039196  -0.0042063 -0.2319 -0.000806332  -0.0174167 -0.300221 -0.00122952  -0.034766 -0.373701 -0.00161457  -0.0559784 -0.451543 -0.00192499  -0.0807451 -0.533097 -0.00215554  -0.108754 -0.617811 -0.00230765  -0.139687 -0.705223 -0.0023973  -0.173256 -0.794936 -0.0024333  -0.209182 -0.886608 -0.002424  -0.247202 -0.979939 -0.00238323  -0.287078 -1.07467 -0.0023191  -0.328568 -1.17056 -0.00222921  -0.371451 -1.26742 -0.00212169  -0.415538 -1.36504 -0.00200415  -0.460624 -1.46329 -0.00187349  -0.506534 -1.562 -0.00172949  -0.553116 -1.66106 -0.00160027  -0.600209 -1.76034 -0.00144005  -0.647684 -1.85976 -0.00128746  -0.695423 -1.9592 -0.0011313  -0.743322 -2.0586 -0.000965595  -0.791284 -2.15789 -0.000807047  -0.839235 -2.25701 -0.000648022  -0.887119 -2.35593 -0.000487089  -0.934881 -2.45459 -0.000326872  -0.982463 -2.55296 -0.000188112  -1.0298 -2.65101 -5.96046e-05  0 0 0  0.00725357 -0.0136299 -0.00679874  0.019838 -0.0398917 -0.00992179  0.031336 -0.0782074 -0.0108862  0.0393393 -0.126463 -0.0110407  0.0427766 -0.183256 -0.0108373  0.041268 -0.247428 -0.0104933  0.034797 -0.317898 -0.0100961  0.0235316 -0.393705 -0.00966001  0.00775659 -0.473985 -0.00919032  -0.0121905 -0.558013 -0.00869465  -0.035953 -0.645173 -0.00818062  -0.0631733 -0.734948 -0.00765395  -0.0934983 -0.826899 -0.00712013  -0.126606 -0.920665 -0.00658727  -0.162181 -1.01593 -0.00606322  -0.199936 -1.11241 -0.0055449  -0.239603 -1.20988 -0.00504947  -0.280922 -1.30814 -0.00457001  -0.323666 -1.407 -0.00410199  -0.367615 -1.50631 -0.00366735  -0.412563 -1.60594 -0.00323653  -0.458335 -1.70576 -0.00283217  -0.504755 -1.80568 -0.00245428  -0.55168 -1.90561 -0.00209379  -0.59897 -2.00547 -0.00175047  -0.646499 -2.10519 -0.00142956  -0.694174 -2.20472 -0.00114942  -0.741904 -2.304 -0.000877857  -0.789617 -2.40303 -0.000626087  -0.837246 -2.50175 -0.000409126  -0.884755 -2.60015 -0.000195742  -0.932034 -2.69821 2.38419e-06  0 0 0  0.0119924 -0.0209621 -0.0128253  0.033257 -0.0513076 -0.0192165  0.0538446 -0.0917947 -0.02142  0.0702326 -0.141545 -0.0216274  0.081376 -0.199888 -0.0209811  0.0869738 -0.265823 -0.0199773  0.0870101 -0.338286 -0.0188348  0.0816525 -0.416246 -0.0176408  0.0711956 -0.498793 -0.0164299  0.0559996 -0.585113 -0.0152354  0.0364449 -0.67454 -0.0140591  0.0129327 -0.766511 -0.0129211  -0.0141399 -0.860542 -0.011821  -0.0444036 -0.956249 -0.0107648  -0.0775044 -1.05329 -0.00975323  -0.113115 -1.15139 -0.00879622  -0.150919 -1.25031 -0.00788188  -0.190633 -1.34984 -0.007025  -0.232007 -1.44983 -0.0062151  -0.274773 -1.5501 -0.00545502  -0.318722 -1.65055 -0.00474334  -0.363657 -1.75106 -0.00407648  -0.40938 -1.85153 -0.00346351  -0.45573 -1.95191 -0.0028863  -0.502548 -2.05211 -0.00236487  -0.549705 -2.15208 -0.00189757  -0.597077 -2.25178 -0.00147295  -0.644578 -2.35118 -0.00110006  -0.692115 -2.45026 -0.000768423  -0.739614 -2.549 -0.000472546  -0.787038 -2.6474 -0.000213146  -0.834308 -2.74549 2.88486e-05  0 0 0  0.0169759 -0.031864 -0.0183651  0.0492708 -0.0667229 -0.0283976  0.0791444 -0.108623 -0.0315084  0.103482 -0.159622 -0.0318086  0.121937 -0.219439 -0.0308242  0.134317 -0.287128 -0.0292585  0.140596 -0.361565 -0.0274417  0.140931 -0.441638 -0.0255427  0.135594 -0.526358 -0.0236344  0.124979 -0.614864 -0.0217609  0.109495 -0.706427 -0.0199404  0.0895876 -0.800436 -0.0182009  0.0656821 -0.896392 -0.0165384  0.0381974 -0.99388 -0.0149598  0.00752306 -1.09255 -0.0134642  -0.0259633 -1.19211 -0.0120599  -0.0619352 -1.29233 -0.0107391  -0.100062 -1.39301 -0.00949192  -0.140065 -1.49397 -0.00833058  -0.181667 -1.59507 -0.00724554  -0.224628 -1.6962 -0.00624084  -0.268729 -1.79728 -0.00531745  -0.313762 -1.89819 -0.0044539  -0.359549 -1.9989 -0.00367475  -0.405905 -2.09933 -0.00296855  -0.452707 -2.19945 -0.00233388  -0.499807 -2.29923 -0.00177741  -0.5471 -2.39865 -0.00129867  -0.594485 -2.49771 -0.000885725  -0.641883 -2.5964 -0.000541449  -0.689234 -2.69476 -0.000249863  -0.736536 -2.79287 3.55244e-05  0 0 0  0.0285736 -0.0497893 -0.0255253  0.070901 -0.0856268 -0.0370839  0.108357 -0.128094 -0.0410891  0.140108 -0.180256 -0.0415761  0.165613 -0.241718 -0.0403237  0.184556 -0.311341 -0.0382681  0.196847 -0.387872 -0.0358486  0.202619 -0.470111 -0.0332959  0.202175 -0.557011 -0.0307353  0.195913 -0.647644 -0.0282245  0.184286 -0.74125 -0.0257952  0.167794 -0.837176 -0.0234654  0.146893 -0.934912 -0.0212584  0.122046 -1.03402 -0.0191662  0.0936817 -1.13415 -0.0171959  0.0622041 -1.23501 -0.0153377  0.0279887 -1.33636 -0.0135984  -0.0086236 -1.43801 -0.0119679  -0.0473285 -1.53979 -0.0104523  -0.0878201 -1.64158 -0.00904346  -0.12984 -1.74325 -0.0077405  -0.173159 -1.84472 -0.00654435  -0.217544 -1.94594 -0.00544167  -0.26281 -2.04683 -0.00444722  -0.308771 -2.14734 -0.00354433  -0.355272 -2.24749 -0.00273824  -0.402148 -2.3472 -0.00203633  -0.449301 -2.44653 -0.00146198  -0.496599 -2.54544 -0.000966549  -0.54396 -2.64399 -0.000576258  -0.591307 -2.74224 -0.000275612  -0.638637 -2.84033 -3.57628e-06  0 0 0  -0.0388855 -0.0130129 0.0494344  -0.0718964 -0.0206722 0.0647736  -0.103071 -0.0453851 0.0694635  -0.136505 -0.0822846 0.0674562  -0.172534 -0.128063 0.062325  -0.210649 -0.180452 0.0560577  -0.25026 -0.238151 0.0497119  -0.290988 -0.300415 0.043798  -0.332634 -0.3668 0.0384703  -0.375129 -0.43698 0.0337505  -0.418462 -0.510685 0.0295632  -0.462608 -0.587655 0.0258479  -0.507551 -0.667597 0.0225387  -0.553256 -0.750261 0.0195675  -0.599663 -0.835384 0.0168948  -0.646704 -0.922704 0.0144868  -0.694318 -1.012 0.0123181  -0.742401 -1.10302 0.0103576  -0.79085 -1.19557 0.00860357  -0.839597 -1.28944 0.00703502  -0.888541 -1.38443 0.00562811  -0.937599 -1.48038 0.00440502  -0.986709 -1.57712 0.00332069  -1.03576 -1.67449 0.00239348  -1.08474 -1.77238 0.00162601  -1.13357 -1.87061 0.000979424  -1.1822 -1.96909 0.000498056  -1.23062 -2.06769 0.000124931  -1.27879 -2.16633 -9.98974e-05  -1.32671 -2.26488 -0.000189066  -1.37443 -2.36331 -0.000174284  -1.42204 -2.46156 -0.000193357  0 0 0  -0.0212602 0.000799447 0.032172  -0.0440867 -0.0154753 0.0436001  -0.0652851 -0.0443261 0.0469043  -0.0891323 -0.0847196 0.0460057  -0.116591 -0.133927 0.0429399  -0.14738 -0.189898 0.0389512  -0.180887 -0.251252 0.0347397  -0.216561 -0.317155 0.0306821  -0.254025 -0.387061 0.0269685  -0.293021 -0.460584 0.0236087  -0.333399 -0.537435 0.0206244  -0.375056 -0.61731 0.0179591  -0.417888 -0.699917 0.0155797  -0.461816 -0.78501 0.0134492  -0.506728 -0.872299 0.0115552  -0.552513 -0.961566 0.00984263  -0.599087 -1.05258 0.00830746  -0.646305 -1.14509 0.00693488  -0.694073 -1.23892 0.0056951  -0.742267 -1.33387 0.00459361  -0.790797 -1.42978 0.00363469  -0.839543 -1.52648 0.00277925  -0.888417 -1.62381 0.00204825  -0.937351 -1.72164 0.00143695  -0.986233 -1.81984 0.000909805  -1.03505 -1.91829 0.000513315  -1.08371 -2.0169 0.000193119  -1.13219 -2.11554 -1.26362e-05  -1.18044 -2.21415 -0.000129223  -1.22845 -2.31264 -0.000173569  -1.27623 -2.41098 -0.000177383  -1.32381 -2.50915 -0.000218391  0 0 0  -0.0106914 0.00416848 0.0208433  -0.0219235 -0.0137795 0.0271742  -0.0347028 -0.0454763 0.0296395  -0.0504104 -0.0881835 0.0291188  -0.0698757 -0.139892 0.0271668  -0.0931665 -0.198683 0.024586  -0.119943 -0.263168 0.0218389  -0.14975 -0.332368 0.0191729  -0.182163 -0.405604 0.0167089  -0.216863 -0.482387 0.0144892  -0.253586 -0.562335 0.0125077  -0.292137 -0.645112 0.0107493  -0.332324 -0.730411 0.00919294  -0.373997 -0.817952 0.00781465  -0.417 -0.907483 0.00659299  -0.461174 -0.998753 0.00550437  -0.506379 -1.09153 0.00453472  -0.552458 -1.18562 0.0036757  -0.599271 -1.28082 0.00292015  -0.646684 -1.37696 0.00225496  -0.694577 -1.47387 0.00167537  -0.742812 -1.5714 0.00118351  -0.791288 -1.66942 0.000764847  -0.839906 -1.7678 0.000420094  -0.888572 -1.86643 0.000144005  -0.937219 -1.96522 -5.91278e-05  -0.985773 -2.06404 -0.000190973  -1.03418 -2.16284 -0.000266314  -1.0824 -2.26153 -0.000277758  -1.1304 -2.36008 -0.000264168  -1.17815 -2.45844 -0.000204325  -1.22568 -2.55654 -0.000226498  0 0 0  -0.00271045 0.0025984 0.00952029  -0.0050948 -0.0161217 0.0126171  -0.00926843 -0.0495354 0.013741  -0.0168322 -0.0942291 0.0135279  -0.0284241 -0.148014 0.0125082  -0.0442519 -0.209154 0.0111091  -0.0641658 -0.276269 0.00960827  -0.0878173 -0.348307 0.00815415  -0.114827 -0.4245 0.00682068  -0.14482 -0.504243 0.00563216  -0.177488 -0.587065 0.00459218  -0.212546 -0.672597 0.00369263  -0.24974 -0.760466 0.00292301  -0.288842 -0.85039 0.00225687  -0.329647 -0.942097 0.00168633  -0.371946 -1.03533 0.00119805  -0.415544 -1.12988 0.000771523  -0.460272 -1.22554 0.000429153  -0.505938 -1.3221 0.000133753  -0.552396 -1.41943 -0.000114202  -0.599498 -1.51737 -0.000308514  -0.647069 -1.61576 -0.000454903  -0.695015 -1.71451 -0.000565529  -0.743195 -1.81348 -0.000628948  -0.791526 -1.91258 -0.000660896  -0.839912 -2.01172 -0.000663042  -0.888265 -2.11083 -0.000622272  -0.936522 -2.20983 -0.000549793  -0.984637 -2.30866 -0.000457287  -1.03257 -2.4073 -0.000344276  -1.08027 -2.50568 -0.000232935  -1.12769 -2.60374 -0.000184774  0 0 0  0.00391337 -0.00125068 -0.00149846  0.0095225 -0.0218325 -0.00136518  0.013408 -0.056879 -0.0012331  0.0139055 -0.103243 -0.00131559  0.0100932 -0.15883 -0.00156379  0.00162786 -0.221975 -0.00191331  -0.0114538 -0.291345 -0.00229025  -0.0289035 -0.365871 -0.00263476  -0.0503776 -0.444684 -0.002918  -0.0755 -0.527095 -0.00312805  -0.103908 -0.612564 -0.00326085  -0.135256 -0.700639 -0.00332642  -0.16924 -0.790936 -0.00334263  -0.205572 -0.883119 -0.00329995  -0.243986 -0.9769 -0.0032239  -0.28423 -1.07202 -0.00311804  -0.326069 -1.16828 -0.00299239  -0.369287 -1.26543 -0.0028379  -0.413675 -1.36333 -0.00267196  -0.459041 -1.46182 -0.00249338  -0.505231 -1.56076 -0.00230861  -0.552047 -1.66 -0.00212097  -0.599354 -1.75946 -0.00191569  -0.647025 -1.85901 -0.00171399  -0.694933 -1.95859 -0.00149965  -0.742971 -2.0581 -0.00129056  -0.791058 -2.15749 -0.00106978  -0.839119 -2.25668 -0.000860691  -0.887079 -2.35567 -0.000649452  -0.934908 -2.45439 -0.000439644  -0.982534 -2.55282 -0.000240564  -1.02987 -2.65087 -9.36985e-05  0 0 0  0.00997001 -0.00688356 -0.0120246  0.0234939 -0.0304932 -0.0148075  0.0353649 -0.0674797 -0.0156538  0.0437803 -0.11542 -0.0156553  0.0475854 -0.172587 -0.0152395  0.0463101 -0.23751 -0.0146494  0.039906 -0.308885 -0.0139966  0.0285565 -0.38563 -0.0133097  0.0125915 -0.466806 -0.0125978  -0.0076319 -0.551654 -0.0118582  -0.0317124 -0.639551 -0.0111134  -0.0592804 -0.72999 -0.0103638  -0.0899546 -0.822532 -0.00961804  -0.123418 -0.91682 -0.00887728  -0.15934 -1.01254 -0.00815821  -0.197428 -1.10944 -0.00745344  -0.237409 -1.20728 -0.00677514  -0.27903 -1.30585 -0.00612235  -0.322053 -1.40501 -0.00549626  -0.366257 -1.50459 -0.00490022  -0.411443 -1.60445 -0.00432992  -0.457441 -1.7045 -0.00378895  -0.50406 -1.80461 -0.00327635  -0.551159 -1.90471 -0.00279307  -0.598602 -2.00471 -0.00234199  -0.646259 -2.10458 -0.00192022  -0.694035 -2.20421 -0.00153708  -0.741861 -2.3036 -0.00117493  -0.789638 -2.4027 -0.000843048  -0.837327 -2.50149 -0.000541449  -0.884878 -2.59993 -0.000259638  -0.932164 -2.698 9.53674e-06  0 0 0  0.0160469 -0.0146117 -0.0217977  0.0381303 -0.0421849 -0.0276129  0.0582778 -0.0813054 -0.0297289  0.0745224 -0.130714 -0.0296204  0.085701 -0.189347 -0.0286021  0.0913581 -0.255925 -0.0271745  0.0914105 -0.329181 -0.0255685  0.0859808 -0.407999 -0.0239091  0.0753762 -0.491364 -0.0222321  0.0599545 -0.578472 -0.0205796  0.0401416 -0.668613 -0.0189626  0.0163407 -0.761232 -0.0174065  -0.0110378 -0.855849 -0.0159025  -0.0416073 -0.952082 -0.0144718  -0.0750064 -1.0496 -0.013099  -0.110913 -1.14812 -0.0117958  -0.149005 -1.24742 -0.0105736  -0.188991 -1.3473 -0.00941396  -0.230615 -1.44759 -0.00832176  -0.27363 -1.54815 -0.00729966  -0.317806 -1.64886 -0.00634813  -0.362938 -1.7496 -0.00545335  -0.408846 -1.85029 -0.00463152  -0.455355 -1.95085 -0.00386214  -0.50231 -2.05122 -0.00317812  -0.549575 -2.15135 -0.0025425  -0.597039 -2.25118 -0.00197172  -0.644611 -2.35071 -0.00147271  -0.692198 -2.44988 -0.0010314  -0.739744 -2.54869 -0.000633955  -0.787188 -2.64712 -0.000282526  -0.834473 -2.74524 5.07832e-05  0 0 0  0.0224665 -0.0257273 -0.0303562  0.0551031 -0.0574182 -0.0407312  0.0837867 -0.0981313 -0.0433707  0.107576 -0.148903 -0.0431929  0.125846 -0.209035 -0.0416775  0.138174 -0.277307 -0.0394971  0.144419 -0.352467 -0.0370104  0.144679 -0.433321 -0.03442  0.13923 -0.518808 -0.0318215  0.12843 -0.608044 -0.0292728  0.112735 -0.70029 -0.0267985  0.0925822 -0.794932 -0.0244355  0.0684164 -0.891467 -0.0221901  0.0406625 -0.989472 -0.02005  0.00972462 -1.08861 -0.0180414  -0.0240401 -1.18861 -0.0161428  -0.0602643 -1.28921 -0.0143695  -0.0986454 -1.39024 -0.0126922  -0.138888 -1.49154 -0.0111363  -0.180714 -1.59294 -0.0096879  -0.223883 -1.69435 -0.00834274  -0.268174 -1.79567 -0.00710225  -0.313375 -1.89681 -0.0059545  -0.35931 -1.99772 -0.004915  -0.405802 -2.09835 -0.00396943  -0.4527 -2.19864 -0.003124  -0.499871 -2.29857 -0.00238299  -0.547229 -2.39813 -0.00173259  -0.59464 -2.4973 -0.00118804  -0.642056 -2.59607 -0.000725508  -0.689413 -2.69447 -0.000320435  -0.736702 -2.7926 4.64916e-05  0 0 0  0.033327 -0.0433886 -0.0424151  0.0767598 -0.075454 -0.0530827  0.113031 -0.11734 -0.0566752  0.144148 -0.169666 -0.0565944  0.169393 -0.231573 -0.0546305  0.188229 -0.301816 -0.0517356  0.200464 -0.379054 -0.04842  0.206165 -0.46203 -0.0449383  0.205594 -0.549648 -0.0414515  0.199184 -0.640979 -0.0380316  0.187371 -0.735227 -0.0347371  0.170639 -0.831759 -0.0315726  0.149499 -0.930044 -0.0285842  0.124399 -1.02965 -0.0257566  0.0957857 -1.13024 -0.0230842  0.0640466 -1.23153 -0.0205793  0.0295789 -1.33326 -0.0182426  -0.0072844 -1.43527 -0.016042  -0.0462143 -1.53738 -0.0140028  -0.0869322 -1.63945 -0.0121005  -0.12915 -1.7414 -0.0103467  -0.17266 -1.84313 -0.00874424  -0.217212 -1.94456 -0.00726271  -0.262637 -2.04566 -0.00592136  -0.308731 -2.14638 -0.00470352  -0.355324 -2.24668 -0.00362372  -0.402277 -2.34657 -0.00268865  -0.449483 -2.44604 -0.00189853  -0.496813 -2.54505 -0.00123072  -0.54418 -2.64367 -0.000725746  -0.591505 -2.74195 -0.000327826  -0.638829 -2.84004 9.53674e-06  
SCALARS smooth_stress float 1
LOOKUP_TABLE default
194.28 362.914 318.188 290.763 273.334 254.636 235.064 215.105 195.488 176.633 158.635 141.704 125.847 111.125 97.6829 85.2941 73.7996 63.2537 53.6614 45.0488 37.3145 30.3747 24.1575 18.7623 14.1233 10.1777 7.031 4.69786 3.23521 2.35737 1.70159 1.16254 0.465989 301.815 574.516 517.341 478.769 457.748 434.582 407.29 376.79 344.891 313.019 282.013 252.612 224.974 199.367 175.966 154.395 134.486 116.326 99.8691 85.02 71.673 59.789 49.0902 39.7561 31.7374 24.8096 19.0686 14.4564 10.8983 7.99604 5.39897 3.16476 1.10748 167.941 328.434 317.746 315.992 317.722 314.376 303.717 287.092 266.837 244.897 222.655 201.288 181.201 162.499 145.268 129.563 115.223 102.168 90.3291 79.6121 69.8149 60.9537 52.981 45.7714 39.2653 33.382 28.1414 23.2111 18.4516 13.8838 9.46286 5.25896 1.62309 81.6889 177.291 213.039 245.098 258.689 260.543 254.072 241.895 226.448 209.678 192.599 176.195 160.967 146.621 133.335 121.338 110.391 100.324 90.9721 82.4108 74.3794 66.7894 59.7809 53.0738 46.74 40.6965 34.9237 29.2365 23.5098 18.0721 12.8214 7.44181 2.34728 48.9493 150.803 234.639 276.076 286.949 282.722 270.829 254.912 237.14 219.14 201.619 185.066 169.888 155.721 142.616 130.713 119.793 109.648 100.17 91.2797 82.8731 74.8451 67.2453 59.8584 52.7945 46.0606 39.3534 32.7966 26.4768 20.373 14.4269 8.40145 2.65482 94.8153 260.598 356.498 384.844 381.854 365.086 342.673 318.167 293.243 268.985 246.025 224.643 204.999 186.83 170.082 154.725 140.683 127.658 115.575 104.379 93.8688 83.9245 74.6351 65.884 57.4631 49.5378 41.8708 34.4246 27.506 20.9326 14.5043 8.20244 2.52597 179.372 436.054 524.884 529.165 508.22 478.324 444.984 410.567 376.465 343.58 312.56 283.739 256.964 232.322 209.697 188.753 169.569 151.923 135.617 120.668 106.77 93.9028 82.0917 71.115 60.8768 51.4768 42.7679 34.505 26.8735 19.9367 13.3771 7.40966 2.35156 281.445 647.859 718.981 686.681 648.181 606.769 563.208 518.523 474.319 431.803 391.482 353.811 318.855 286.578 256.769 229.32 204.054 180.849 159.595 140.011 121.945 105.383 90.3487 76.5975 63.9276 52.6476 42.5265 33.2086 24.9121 17.7312 11.3157 6.07633 1.98162 169.222 382.059 410.401 383.396 360.248 336.923 312.65 287.7 262.971 239.234 216.65 195.464 175.895 157.73 140.889 125.454 111.229 98.1644 86.2342 75.2112 65.0933 55.8093 47.3795 39.8041 32.8082 26.5945 21.0958 16.1156 11.7892 8.18096 5.07183 2.65273 0.86689 353.806 705.267 675.149 626.238 581.512 533.614 485.501 439.005 395.322 354.855 317.413 282.792 250.714 221.177 194.134 169.241 146.334 125.331 106.128 88.9165 73.3993 59.4634 47.1304 36.3956 27.1437 19.3264 13.1345 8.68988 6.0192 4.49895 3.43401 2.36832 0.903299 542.172 1114.68 1108.25 1041.47 978.416 909.711 837.129 763.675 692.053 623.842 559.753 500.035 444.592 393.395 346.542 303.533 264.002 227.993 195.198 165.628 139.015 115.343 94.3084 75.9454 60.1758 46.6047 35.506 26.8453 20.2583 15.0066 10.3307 6.07668 2.08103 292.719 637.918 695.938 695.271 677.721 649.773 612.736 569.809 523.969 477.651 432.667 390.094 350.481 313.747 280.04 249.334 221.233 195.801 172.642 151.598 132.494 115.377 100.077 86.2338 73.9025 62.7787 52.742 43.3957 34.5227 25.9437 17.541 9.73619 3.0392 149.046 363.458 471.483 525.246 533.933 521.746 498.141 468.073 434.67 400.517 367.07 335.32 305.907 278.595 253.381 230.438 209.523 190.32 172.447 156.058 140.897 126.603 113.262 100.557 88.5752 77.2317 66.1872 55.2056 44.5051 34.1383 23.969 13.8377 4.34907 107.147 328.738 498.746 567.286 574.414 555.111 524.943 490.256 454.117 418.656 384.862 353.233 324.149 297.28 272.446 249.658 228.833 209.407 191.169 174.269 158.437 143.136 128.478 114.493 101.001 88.039 75.1979 62.5725 50.4696 38.7241 27.3217 15.8005 4.92677 193.782 532.615 727.08 777.582 761.047 719.691 670.529 619.825 569.824 522.008 477.223 435.692 397.517 362.321 329.914 300.001 272.656 247.229 223.592 201.846 181.395 162.076 144.044 127.104 110.743 95.2604 80.4354 66.1636 52.6892 39.832 27.4838 15.548 4.84172 346.163 859.14 1056.23 1067.62 1017.09 950.387 879.778 809.379 740.898 675.601 614.308 557.498 504.964 456.411 411.814 370.602 332.83 297.954 265.723 236.236 208.731 183.362 160.116 138.479 118.23 99.6322 82.5975 66.5588 51.6482 38.02 25.3274 14.1529 4.58548 538.147 1263.94 1438.3 1384.73 1300.45 1211.1 1120.06 1029.09 940.354 855.531 775.456 700.866 631.665 567.607 508.533 454.128 404.112 358.024 315.691 276.723 240.831 208.003 178.065 150.648 125.514 103.097 82.9432 64.4772 48.1576 33.9259 21.4845 11.6943 3.84299 323.311 743.627 819.049 772.618 723.102 673.367 622.895 572.217 522.597 475.136 430.253 388.296 349.373 313.304 279.935 249.266 221.063 195.073 171.266 149.236 129.078 110.685 93.8785 78.6518 64.7309 52.4181 41.4 31.4747 22.9505 15.7161 9.64389 5.09875 1.66006 317.267 675.796 705.486 673.081 624.84 567.964 510.05 455.159 404.967 359.958 319.601 283.237 250.291 220.254 192.767 167.634 144.633 123.685 104.586 87.3419 71.8111 57.8224 45.4497 34.731 25.5561 17.8889 11.8487 7.61424 5.24939 4.09021 3.28151 2.26332 0.833981 471.226 1063.06 1177.2 1138.68 1062.73 971.282 876.791 786.018 702.024 625.864 557.098 494.757 438.307 386.616 339.341 296.297 256.956 221.215 188.645 159.222 132.746 109.141 88.4468 70.4294 55.0318 42.0233 31.5569 23.5702 17.7529 13.3674 9.38254 5.53756 1.84603 237.757 610.075 769.871 781.275 742.145 687.651 628.531 570.074 514.531 462.965 415.669 372.361 333.056 297.013 264.148 234.274 207.074 182.586 160.199 139.77 121.348 105.065 90.6842 77.694 66.3087 56.1459 47.0205 38.6789 30.8169 23.0946 15.4127 8.5234 2.67174 134.662 383.057 539.069 580.262 563.688 528.243 487.694 447.241 408.546 372.302 338.866 308.223 280.336 255.011 231.82 210.47 191.037 173.37 156.976 141.779 127.871 114.991 102.842 91.322 80.516 70.2316 60.1749 50.2177 40.5793 30.967 21.3393 12.0524 3.72141 124.94 376.326 548.495 595.322 579.959 542.697 501.063 460.498 422.432 387.177 354.786 325.237 298.283 273.769 251.173 230.211 210.948 193.051 176.214 160.59 146.135 132.059 118.522 105.782 93.3805 81.2496 69.3987 57.7683 46.401 35.3805 24.8239 14.1081 4.27172 202.931 554.217 750.537 792.019 760.238 705.922 648.751 594.197 543.267 496.208 452.919 413.244 376.953 343.656 312.902 284.47 258.298 234.111 211.475 190.521 171.123 152.67 135.447 119.344 103.884 89.1326 75.0356 61.6747 48.749 36.4583 25.1758 14.2894 4.44757 332.099 841.927 1060.45 1079.04 1019.5 942.727 865.249 791.386 721.94 657.129 596.93 541.441 490.484 443.27 399.715 359.589 322.681 288.579 256.985 227.996 201.15 176.325 153.566 132.381 112.597 94.5298 77.9171 62.5734 48.3387 35.2035 23.3783 13.197 4.31658 509.169 1218.69 1425.72 1393.28 1305.88 1208.46 1111.2 1017.12 927.468 842.795 763.508 690.076 622.084 558.914 500.779 447.202 397.847 352.335 310.377 271.682 236.215 203.764 174.005 146.8 121.919 99.5727 79.5339 61.6338 45.8456 31.9115 20.0659 11.0725 3.68295 305.924 714.894 808.227 775.526 726.096 672.87 619.543 567.455 517.436 469.94 425.406 384.024 345.567 309.892 277.04 246.732 218.801 193.13 169.487 147.505 127.511 109.296 92.5187 77.306 63.5091 51.1459 40.1163 30.4615 22.121 14.9356 9.06713 4.86011 1.60392 315.41 666.773 695.551 673.742 634.657 581.272 523.117 466.123 413.162 365.555 323.075 285.127 251.174 220.477 192.565 167.18 144.071 123.12 104.018 86.7059 71.1802 57.2748 44.787 33.9139 24.7518 17.1441 11.2004 6.99549 4.78297 3.80456 2.97699 1.9753 0.702262 458.959 1044.05 1173.06 1153.08 1089.46 1000.07 901.738 804.887 714.702 633.321 560.523 495.474 437.378 384.733 336.834 293.368 253.941 218.2 185.634 156.236 129.857 106.393 85.6922 67.6697 52.357 39.6295 29.5189 21.7517 16.3867 12.3877 8.55991 4.95035 1.60143 222.091 600.636 790.119 811.565 772.725 712.336 644.973 578.465 516.69 460.686 410.362 365.474 325.478 289.26 256.395 226.637 199.724 175.46 153.421 133.532 115.568 99.5471 85.4943 73.0391 62.1113 52.3767 43.7924 36.0913 28.886 21.5928 14.303 7.83253 2.39703 135.564 400.188 572.202 610.021 583.929 538.126 488.541 441.05 397.941 359.207 324.526 293.721 266.295 241.703 219.392 198.956 180.274 163.348 147.802 133.544 120.335 108.066 96.622 85.8452 75.8394 66.0894 56.6177 47.3823 38.35 29.23 19.9499 11.0556 3.34878 137.637 406.4 579.108 615.903 588.665 540.776 491.395 446.01 405.573 369.551 337.383 308.7 282.854 259.523 238.211 218.444 199.987 183.109 167.412 152.552 138.66 125.344 112.566 100.403 88.7106 77.1729 65.8644 54.8285 44.0042 33.4619 23.2731 13.0488 3.92189 210.527 569.889 765.241 802.389 763.653 701.738 638.759 580.816 528.528 481.333 438.654 400.008 364.732 332.451 302.716 275.264 249.699 226.219 204.483 184.097 165.255 147.328 130.43 114.678 99.8307 85.6093 71.9528 58.9823 46.4696 34.624 23.8482 13.58 4.22922 330.845 837.886 1057.98 1081.35 1021.85 940.973 859.19 782.398 711.708 646.786 587.039 532.36 482.168 435.764 392.916 353.468 317.008 283.291 252.219 223.528 197.232 172.794 149.997 128.95 109.668 92.0284 75.5655 60.4301 46.526 33.7855 22.4138 12.6234 4.09384 504.503 1202.51 1408.02 1387.24 1306.73 1208.26 1107.92 1011.45 920.69 835.854 756.919 684.097 616.745 554.202 496.697 443.586 394.457 349.269 307.687 269.213 234.039 201.775 171.974 144.81 120.151 97.9754 77.9265 60.2581 44.7057 31.1318 19.636 10.7005 3.53025 303.568 704.934 795.772 770.172 725.87 672.834 618.282 565.213 514.728 467.138 422.763 381.638 343.477 308.065 275.552 245.446 217.581 192.056 168.535 146.772 126.846 108.603 91.8746 76.6975 62.9374 50.5815 39.5931 30.029 21.713 14.7288 9.02716 4.80654 1.59467 315.622 666.826 693.866 672.173 636.085 584.931 527.489 470.194 416.478 367.907 324.647 286.061 251.602 220.681 192.564 167.055 143.981 122.894 103.651 86.3861 70.8372 56.9545 44.549 33.6221 24.38 16.7965 10.8487 6.69627 4.62008 3.73881 2.92095 1.86584 0.640507 456.092 1042.29 1173.75 1154.54 1095.36 1008.7 910.486 812.317 720.355 636.966 562.536 496.324 437.378 384.315 336.076 292.431 252.954 217.039 184.394 155.03 128.712 105.394 84.7442 66.7333 51.3847 38.7155 28.6694 21.0481 15.9695 12.1204 8.29532 4.72742 1.53754 217.793 600.093 797.852 820.095 782.015 721.001 651.582 582.67 518.813 461.015 409.298 363.485 322.956 286.627 253.687 223.923 197.024 172.706 150.786 131.147 113.492 97.5956 83.5662 71.3964 60.632 51.0486 42.6966 35.1184 28.1443 21.0259 13.9111 7.61519 2.31445 136.759 407.513 584.549 620.97 591.705 542.524 489.808 439.728 394.787 354.987 319.642 288.488 261.044 236.694 214.689 194.648 176.299 159.507 144.157 130.282 117.535 105.494 94.1813 83.6793 73.9892 64.5699 55.3033 46.1438 37.3331 28.4246 19.436 10.7323 3.16732 142.454 417.413 590.819 624.635 592.86 540.915 488.397 440.937 399.354 362.933 330.81 302.35 276.962 254.034 233.065 213.827 195.868 179.309 163.982 149.362 135.683 122.749 110.28 98.3256 86.8295 75.5812 64.3647 53.5287 43.0598 32.7295 22.702 12.6122 3.75056 213.642 576.371 771.538 806.946 765.423 700.699 635.296 575.851 522.94 475.628 433.203 394.95 360.074 328.097 298.635 271.568 246.46 223.22 201.872 181.813 162.988 145.233 128.574 113.029 98.3207 84.1702 70.645 57.8976 45.6627 34.1001 23.3665 13.2083 4.14143 331.307 838.59 1058.4 1082.07 1022.59 940.55 857.142 779.185 707.969 642.865 583.283 528.997 478.976 432.688 390.146 351.028 314.83 281.299 250.546 222.098 195.925 171.571 148.616 127.641 108.707 91.1061 74.6967 59.6465 45.84 33.359 22.0102 12.3293 4.03728 504.3 1200.26 1403.79 1384.52 1306.47 1208.37 1107.05 1009.61 918.256 833.212 754.448 681.908 614.705 552.335 495.064 442.184 393.183 348.085 306.674 268.389 233.218 201.031 171.198 143.932 119.499 97.5025 77.4383 59.7227 44.2529 30.8517 19.467 10.6308 3.52486 303.617 703.506 792.682 768.001 725.407 672.891 618.027 564.52 513.724 466.073 421.789 380.776 342.705 307.41 275.002 244.999 217.194 191.644 168.132 146.521 126.516 108.282 91.6872 76.3889 62.6443 50.4258 39.4494 29.8224 21.5539 14.6435 9.02063 4.87627 1.62834 315.57 666.885 695.011 673.497 635.789 583.245 525.154 467.932 414.597 366.463 323.692 285.452 251.279 220.598 192.595 167.187 144.081 122.877 103.705 86.5079 70.9341 56.9202 44.5775 33.864 24.6564 17.0272 10.918 6.73662 4.64191 3.81143 3.08843 2.0058 0.721498 457.456 1043.32 1174.04 1154.54 1092.68 1004.07 905.441 807.955 716.994 634.578 561.136 495.636 437.117 384.378 336.412 293.006 253.546 217.482 184.879 155.603 129.246 105.729 85.1131 67.3395 52.0331 39.2153 28.9666 21.3494 16.1767 12.3249 8.63885 4.99739 1.64012 219.799 600.476 794.388 815.853 776.795 715.721 647.31 579.704 517.056 460.274 409.372 364.21 323.989 287.705 254.917 225.28 198.415 174.058 152.086 132.31 114.548 98.6571 84.5554 72.2458 61.328 51.6243 43.2675 35.6886 28.4736 21.255 14.2578 7.87174 2.37706 136.206 403.967 578.326 615.045 587.06 539.432 488.269 439.589 395.715 356.677 321.767 290.922 263.616 239.03 216.918 196.783 178.298 161.383 145.923 131.805 118.896 106.805 95.3128 84.7156 74.8314 65.2938 56.0048 46.7621 37.6703 28.597 19.7114 10.9676 3.25126 140.303 412.255 584.905 619.888 590.257 540.29 489.314 442.943 402.056 366.022 333.943 305.422 279.891 256.636 235.423 216.025 198.057 181.267 165.705 150.946 137.089 124.015 111.394 99.3649 87.7122 76.3439 65.1116 54.1889 43.5172 33.097 23.0029 12.829 3.85147 212.409 573.923 769.076 804.925 764.393 700.949 636.827 578.021 525.454 478.314 435.773 397.346 362.25 330.098 300.444 273.223 248.13 224.839 203.318 183.018 163.959 146.189 129.54 113.753 98.893 84.7821 71.22 58.3812 46.1314 34.5787 23.6466 13.2978 4.17287 331.405 839.593 1060.14 1083.07 1022.68 940.718 857.95 780.533 709.653 644.667 585.009 530.498 480.267 433.941 391.313 352.092 315.756 282.196 251.36 222.769 196.409 171.974 149.194 128.142 109.078 91.4605 75.0419 60.0751 46.2589 33.6362 22.1901 12.4951 4.14534 504.879 1203.92 1409.88 1388.71 1307.87 1208.78 1107.55 1010.45 919.393 834.432 755.618 682.837 615.511 553.131 495.65 442.639 393.598 348.527 307.052 268.7 233.485 201.281 171.595 144.278 119.683 97.5233 77.548 59.9973 44.3934 30.8286 19.4865 10.8374 3.68121 303.874 705.914 796.88 770.919 726.476 673.255 618.362 564.906 514.194 466.576 422.278 381.159 343.068 307.755 275.176 245.066 217.263 191.833 168.315 146.593 126.606 108.439 91.841 76.4699 62.6656 50.3586 39.4003 29.8009 21.4804 14.5296 8.94414 4.89857 1.65009 316.413 671.615 702.009 675.211 630.021 573.567 514.745 458.732 407.477 361.445 320.415 283.512 250.24 220.005 192.437 167.326 144.323 123.267 104.2 86.9749 71.371 57.4152 45.113 34.4386 25.2398 17.4914 11.3725 7.19944 4.93248 4.00146 3.19302 2.15624 0.856108 465.642 1054.44 1176.6 1146.82 1074.27 981.761 884.677 791.347 705.244 627.201 557.145 494.139 437.129 385.164 337.919 294.85 255.467 219.602 187.094 157.816 131.416 107.826 87.2021 69.3956 53.9224 40.9121 30.5437 22.6741 17.0179 12.8801 9.08562 5.3771 1.82677 230.572 605.613 778.788 793.641 752.873 694.901 632.265 570.79 513.304 460.375 412.189 368.824 329.517 293.4 260.681 230.99 203.758 179.188 157.106 137.164 119.042 102.777 88.4643 75.8345 64.4814 54.3879 45.6286 37.6259 29.9436 22.3687 15.1076 8.42404 2.58369 134.792 389.763 552.144 591.022 569.721 529.838 485.747 442.704 402.709 365.911 332.229 301.913 274.471 249.252 226.4 205.683 186.47 168.926 153.101 138.455 124.764 112.084 100.118 88.9913 78.5373 68.3795 58.6491 49.0799 39.5526 30.0779 20.7868 11.65 3.53918 130.592 389.122 560.406 602.3 581.92 540.29 495.658 453.381 414.682 379.439 347.279 318.233 291.624 267.459 245.474 225.109 206.333 188.868 172.657 157.344 142.942 129.383 116.039 103.328 91.2647 79.4771 67.9265 56.5311 45.4596 34.6587 23.9091 13.3648 4.1221 206.692 562.329 757.995 796.611 761.191 703.418 643.93 587.978 536.616 489.658 446.707 407.548 371.434 338.465 308.336 280.417 254.555 230.669 208.578 187.901 168.509 150.445 133.352 117.074 101.893 87.5481 73.7197 60.3964 47.8892 36.008 24.378 13.6432 4.33281 332.19 843.49 1064.03 1082.83 1021.39 941.839 862.294 787.206 717.293 652.511 592.595 537.424 486.51 439.598 396.54 356.914 320.049 286.062 254.789 225.931 199.335 174.616 151.879 130.693 111.277 93.4629 76.9059 61.6185 47.4918 34.6327 22.8688 12.8151 4.21093 508.304 1218.38 1427.77 1396.67 1308.72 1209.14 1109.94 1014.68 924.478 839.795 760.755 687.357 619.453 556.67 498.775 445.42 396.087 350.735 308.968 270.455 235.234 202.818 173.159 145.894 121.098 98.7942 78.7475 61.0024 45.0843 31.3859 19.881 10.9589 3.69435 305.663 715.064 809.278 777.138 727.694 673.556 619.331 566.598 516.291 468.795 424.359 382.964 344.597 309.09 276.299 246.032 218.116 192.546 168.988 147.213 127.234 108.98 92.335 77.0609 63.1877 50.8146 39.8264 30.1779 21.7166 14.6903 9.05293 4.86898 1.62028 329.683 683.815 689.954 649.101 599.851 545.876 492.685 442.771 396.973 355.144 316.903 281.969 249.837 220.299 193.162 168.172 145.275 124.398 105.321 88.0257 72.4935 58.5762 46.264 35.4943 26.2019 18.4275 12.3438 8.01121 5.39973 4.25348 3.33204 2.28666 0.941945 499.017 1079.78 1140.03 1084.72 1010.95 929.39 846.851 766.932 691.647 621.372 556.167 496.167 440.798 389.844 343.051 299.993 260.519 224.674 192.122 162.572 136.046 112.423 91.6378 73.4438 57.6224 44.3727 33.6802 25.2053 18.7929 14.0481 9.75207 5.7958 2.04008 262.242 619.19 726.793 728.156 698.478 658.631 613.197 565.026 516.585 469.274 424.126 381.915 342.765 306.489 273.341 243.132 215.132 189.856 167.235 146.636 127.802 110.957 96.0706 82.7327 70.6632 59.818 50.2494 41.3563 32.856 24.591 16.5812 9.26927 2.91475 137.357 364.556 496.183 543.411 541.041 519.806 490.311 456.885 422.283 387.975 354.947 324.005 295.29 268.768 244.556 222.584 202.053 183.204 166.169 150.413 135.529 121.792 109.016 96.8113 85.265 74.1683 63.5634 53.243 42.9917 32.8437 22.9106 12.9558 3.95701 111.04 343.354 516.07 575.642 573.776 547.583 513.434 476.97 440.634 405.516 372.371 341.715 313.263 287.474 263.826 241.889 221.645 202.745 185.242 168.82 153.271 138.663 124.45 110.764 97.7879 85.188 72.8091 60.6969 48.9957 37.4955 26.1551 14.7213 4.46781 196.178 541.485 738.318 783.387 759.761 713.002 660.883 608.856 558.772 511.359 467.271 426.514 388.717 354.277 322.812 293.636 266.658 241.738 218.597 197.128 177.06 158.177 140.254 123.552 107.864 92.6678 78.1729 64.2989 51.1678 38.6378 26.3568 14.702 4.57497 338.825 855.95 1065.71 1075.22 1018.55 946.895 873.432 801.763 733.073 668.105 607.341 551.001 498.812 450.624 406.624 366.134 328.557 293.933 261.853 232.444 205.485 180.277 156.986 135.6 115.876 97.5119 80.5539 64.7887 50.1453 36.803 24.3756 13.5095 4.35374 524.724 1253.67 1447.88 1394.71 1304.52 1210.25 1116.39 1024.25 935.181 850.568 770.803 696.47 627.566 563.731 505.102 451.27 401.446 355.48 313.16 274.242 238.835 206.146 176.199 148.902 124.012 101.585 81.2984 63.1586 46.9152 32.7953 20.7531 11.3919 3.82646 315.485 737.179 823.885 778.105 725.618 673.462 621.684 570.39 520.619 473.235 428.447 386.556 347.695 311.735 278.57 248.157 220.067 194.163 170.397 148.43 128.419 110.063 93.337 78.1181 64.2341 51.8486 40.7587 31.0527 22.4708 15.1819 9.32873 5.05871 1.72029 170.888 345.591 336.115 311.35 287.53 262.908 239.11 216.643 195.643 176.074 157.787 140.826 125.022 110.486 97.005 84.4714 73.0252 62.6272 53.0745 44.4044 36.6733 29.6677 23.4897 18.1138 13.4547 9.57072 6.49582 4.2254 2.80665 2.18057 1.73438 1.18814 0.472418 262.829 547.522 550.491 515 481.404 446.914 411.915 376.978 342.884 310.063 278.788 249.48 222.099 196.888 173.537 151.927 132.146 114.166 97.8308 82.9526 69.6169 57.7378 47.2681 38.0841 30.112 23.3617 17.8332 13.4031 9.97603 7.40339 5.11908 3.01338 1.04484 142.787 314.006 342.981 339.842 330.964 318.532 302.121 282.379 260.815 238.632 216.715 195.736 175.982 157.663 140.91 125.633 111.425 98.528 86.9639 76.3828 66.7142 58.1478 50.5012 43.555 37.3175 31.6332 26.5642 21.8976 17.3819 13.0094 8.78859 4.88815 1.53507 70.2709 174.546 229.394 256.373 262.16 257.962 247.941 234.03 218.12 201.498 184.974 169.149 154.29 140.517 128.003 116.621 105.952 96.1278 87.1348 78.893 71.1067 63.9073 57.2906 50.8626 44.7285 38.9055 33.3219 27.9152 22.5423 17.2674 12.1575 6.94013 2.13094 49.1922 157.083 244.47 280.386 285.424 277.136 263.139 246.451 228.773 211.056 194.064 178.183 163.4 149.93 137.578 126.156 115.581 105.651 96.5049 88.01 79.8225 72.1217 64.801 57.7306 50.9423 44.3753 37.9398 31.6621 25.5894 19.6368 13.8909 7.91315 2.36872 94.8151 264.397 363.148 387.864 380.147 360.255 336.348 311.325 286.512 262.536 240.068 219.175 199.756 182.099 165.931 150.945 137.147 124.368 112.491 101.475 91.1798 81.4974 72.2601 63.7553 55.7698 47.931 40.51 33.4327 26.6511 20.1736 13.9107 7.78448 2.37101 172.271 432.509 532.296 534.141 508.473 475.534 440.681 405.728 371.666 339.074 308.33 279.757 253.279 228.863 206.569 186.012 167.023 149.51 133.218 118.284 104.677 91.9926 80.1392 69.3402 59.3944 50.0575 41.4711 33.5094 26.0344 19.1128 12.6725 7.02972 2.26204 269.035 638.857 727.828 694.235 650.3 605.657 560.519 515.322 471.097 428.781 388.602 351.117 316.39 284.175 254.594 227.497 202.443 179.297 157.977 138.341 120.579 104.21 89.1229 75.4149 62.9173 51.6644 41.4698 32.3236 24.077 16.8013 10.6305 5.88564 1.99713 161.813 376.133 414.998 387.754 361.62 336.679 311.674 286.454 261.715 238.043 215.537 194.421 174.85 156.737 140.003 124.718 110.633 97.642 85.6716 74.5801 64.596 55.4226 47.0108 39.3774 32.4187 26.2259 20.6641 15.78 11.434 7.70602 4.7314 2.60449 0.905678 
CELL_DATA 2048
SCALARS stress float 1
LOOKUP_TABLE default
194.28 168.634 149.554 141.209 132.125 122.51 112.553 102.552 92.9367 83.6966 74.9382 66.7657 59.0809 52.0439 45.639 39.6551 34.1445 29.1092 24.5522 20.4965 16.8179 13.5568 10.6007 8.16161 5.96167 4.21602 2.81498 1.88288 1.35233 1.00505 0.696549 0.465989 107.536 104.066 95.0866 92.9194 91.4948 88.4517 83.7751 77.9095 71.4927 64.8928 58.485 52.4235 46.7034 41.5385 36.7451 32.3554 28.3307 24.7419 21.4657 18.5055 15.853 13.5612 11.3715 9.6223 7.99182 6.64013 5.39745 4.36108 3.30201 2.33665 1.36072 0.641493 60.4057 56.4266 62.167 65.8188 67.4893 66.9402 64.5502 60.8571 56.5776 51.9335 47.3435 43.0363 39.0381 35.2187 31.7659 28.6961 25.8406 23.2543 20.8672 18.7737 16.6828 14.8567 13.1916 11.5861 10.0651 8.68494 7.41889 6.03366 4.75481 3.49034 2.27514 0.981601 21.2833 39.1751 55.2699 61.8419 63.5393 62.5739 60.0077 56.4804 52.5324 48.6342 44.688 41.1273 37.7656 34.599 31.7517 29.1245 26.7295 24.4994 22.3512 20.4187 18.5042 16.7457 14.987 13.3091 11.7797 10.1668 8.65306 7.13089 5.59045 4.23648 2.81939 1.36568 27.666 62.6786 77.5153 81.4487 80.1187 76.4901 71.7577 66.6663 61.4605 56.5133 51.7837 47.4672 43.5281 39.8283 36.437 33.3999 30.5392 27.8802 25.439 23.0708 20.8793 18.7158 16.7968 14.7656 12.9401 11.1741 9.35952 7.65314 6.10229 4.44379 2.92724 1.28914 67.1492 103.104 113.199 112.68 107.606 100.871 93.5542 86.1893 78.9267 72.0842 65.6435 59.749 54.2545 49.2196 44.5976 40.2901 36.454 32.7846 29.4715 26.3974 23.5212 20.8081 18.3144 16.0072 13.7502 11.6735 9.66377 7.74814 6.00246 4.38403 2.74923 1.23683 112.223 153.577 155.003 148.282 139.651 130.195 120.363 110.46 100.889 91.68 83.1521 75.1944 67.7656 61.0823 54.798 49.0676 43.7569 38.9272 34.4337 30.3657 26.486 23.0875 19.8818 16.9116 14.2078 11.8453 9.58534 7.50772 5.61521 3.93501 2.30887 1.11473 169.222 212.837 197.564 185.831 174.417 162.506 150.144 137.557 125.414 113.821 102.829 92.6348 83.2604 74.4701 66.4185 59.0354 52.1937 45.9707 40.2635 34.9477 30.1457 25.6636 21.7159 18.0883 14.72 11.8745 9.22132 6.89423 4.89496 3.286 1.78584 0.86689 159.527 182.827 174.134 161.341 146.837 132.141 118.296 105.604 94.229 83.9929 74.7858 66.3026 58.5647 51.4869 44.9644 38.9821 33.5524 28.5246 23.9425 19.9253 16.1595 12.9292 10.0438 7.58958 5.43086 3.71782 2.38566 1.60636 1.17763 0.963944 0.76847 0.43731 80.8298 116.978 116.969 110.258 102.232 93.9186 85.4826 77.5026 69.827 62.7744 56.1877 50.1469 44.6044 39.3723 34.7522 30.4401 26.5415 23.048 19.814 16.9266 14.331 12.1343 10.111 8.44501 6.97296 5.67347 4.66047 3.73639 2.83958 2.02941 1.16991 0.53624 43.9479 67.7288 76.5167 75.5359 71.9726 67.2737 62.3435 57.3887 52.4134 47.7396 43.3101 39.1613 35.3671 31.9044 28.743 25.8358 23.1923 20.8516 18.5993 16.6463 14.7747 13.1836 11.6666 10.2398 8.97941 7.7708 6.49588 5.29188 4.2033 2.98757 1.89122 0.879867 23.4092 51.081 63.1183 64.978 62.7568 59.2007 55.2507 51.1946 47.2263 43.4604 39.9604 36.6936 33.7173 30.9846 28.4134 26.108 23.9963 21.9558 20.0682 18.3335 16.7635 15.0916 13.5393 12.0374 10.5786 9.20626 7.79055 6.3908 5.1093 3.76605 2.50283 1.12192 34.7887 68.6558 81.2521 81.8613 77.8696 72.5617 67.1011 61.7976 56.7587 52.0701 47.7515 43.7617 40.0886 36.7681 33.6642 30.7591 28.1761 25.6308 23.3448 21.2426 19.2239 17.2118 15.3896 13.6687 11.9217 10.2718 8.57587 7.01866 5.47404 4.0017 2.62425 1.15003 64.1784 104.394 116.281 113.345 106.117 98.0566 90.1361 82.6231 75.4018 68.793 62.584 56.9519 51.7163 46.9177 42.4817 38.3714 34.6659 31.0986 27.9429 24.9369 22.1223 19.5931 17.214 14.9473 12.7419 10.7872 8.92967 7.21478 5.47572 3.94796 2.40559 1.16572 102.613 151.902 158.766 150.063 139.349 128.541 118.061 107.993 98.416 89.4102 80.9607 73.2628 66.0696 59.3855 53.3319 47.6642 42.5599 37.7065 33.3578 29.3302 25.5712 22.173 19.0443 16.1585 13.5056 11.1208 8.99188 6.91754 5.16665 3.49295 2.10377 1.06819 154.09 207.479 201.168 188.054 174.8 161.644 148.601 135.916 123.711 112.191 101.412 91.4201 82.0577 73.5163 65.5303 58.2818 51.5519 45.3571 39.6745 34.3499 29.6351 25.2407 21.2583 17.5893 14.3333 11.4903 8.81382 6.54533 4.61595 2.91921 1.65285 0.793171 157.74 175.702 172.824 164.783 151.88 137.106 122.506 108.752 96.3818 85.3543 75.4675 66.6809 58.7428 51.4596 44.8563 38.8308 33.2674 28.3403 23.7791 19.6951 16.0312 12.7025 9.77427 7.32337 5.21225 3.52797 2.21723 1.405 1.0604 0.888226 0.660873 0.396671 73.129 116.325 121.445 116.932 108.468 98.6992 88.6412 79.2329 70.4942 62.8109 55.7249 49.461 43.8034 38.5822 33.8671 29.604 25.7372 22.204 18.9926 16.1465 13.5305 11.3232 9.42859 7.71387 6.3439 5.14403 4.23029 3.32877 2.59879 1.80943 1.09228 0.475808 39.8507 71.2858 82.6239 80.9958 75.7507 69.3359 62.8366 56.6455 51.0263 45.8797 41.242 37.1268 33.385 29.994 26.9324 24.0989 21.6244 19.3873 17.3026 15.3418 13.6503 12.137 10.6999 9.38927 8.22454 7.03676 6.00884 4.92635 3.89183 2.73465 1.69825 0.779824 27.4541 58.2991 68.4158 68.0772 63.6212 58.3316 53.1212 48.4601 44.1912 40.3653 36.9084 33.8204 31.065 28.5936 26.2546 24.084 22.0968 20.2649 18.5459 16.9413 15.4198 13.9705 12.5539 11.1959 9.87109 8.56405 7.30177 6.01159 4.75429 3.51999 2.23871 0.939793 39.288 73.3497 84.3234 83.2954 77.4996 70.856 64.6402 58.9329 53.8704 49.2343 45.0356 41.3056 37.8308 34.721 31.7734 29.1544 26.5731 24.3573 22.0457 20.0679 18.1427 16.2348 14.5304 12.8674 11.2398 9.59634 8.09206 6.58704 5.05532 3.69976 2.47061 1.05998 64.6759 104.886 117.395 114.267 105.984 96.9777 88.4214 80.5445 73.3379 66.7415 60.7091 55.1441 50.1543 45.4596 41.1166 37.149 33.4494 30.1603 26.8942 24.0454 21.3412 18.8006 16.4725 14.2538 12.2437 10.3301 8.45249 6.80418 5.11929 3.68455 2.34144 1.07184 100.632 148.645 158.178 150.744 139.631 128.07 116.985 106.623 97.0008 88.0281 79.7032 72.1255 65.0592 58.5081 52.5138 46.9602 41.8611 37.0777 32.7471 28.7416 25.0612 21.662 18.6068 15.684 13.0619 10.7386 8.56637 6.69653 4.94397 3.37238 2.02964 1.01083 151.835 201.49 198.089 188.215 175.027 161.399 147.898 135.04 122.77 111.269 100.534 90.6582 81.4314 72.8865 65.1071 57.8131 51.1545 45.0664 39.3894 34.0914 29.4343 24.9863 21.0334 17.425 14.1615 11.1608 8.65138 6.45099 4.50869 2.89174 1.60333 0.810751 157.67 175.661 171.364 164.771 153.224 139.062 124.443 110.422 97.6058 86.2128 76.0407 66.9381 58.8119 51.4625 44.787 38.7062 33.2671 28.2456 23.6532 19.5785 15.8754 12.6656 9.64458 7.17164 5.04457 3.35927 2.09591 1.27736 1.0402 0.815731 0.612163 0.305591 70.4194 117.399 122.34 118.623 110.777 100.854 90.4258 80.4643 71.3491 63.1124 55.7995 49.3615 43.579 38.292 33.5273 29.1893 25.3395 21.7988 18.6206 15.7705 13.229 11.0358 9.11758 7.49584 6.05156 4.94594 3.9983 3.19889 2.47731 1.69761 0.983601 0.423362 38.6919 73.5344 85.1656 83.4398 77.7393 70.7121 63.4684 56.7498 50.7273 45.2859 40.5066 36.2522 32.5093 29.1156 26.0842 23.3333 20.7974 18.5714 16.5436 14.8137 13.0858 11.5555 10.1968 8.99726 7.89503 6.73491 5.69331 4.70659 3.75742 2.62578 1.66137 0.718034 29.5675 61.5048 71.3726 69.9303 64.3753 58.2602 52.4754 47.2931 42.8472 38.8837 35.4548 32.41 29.7267 27.3133 25.1047 23.0634 21.1761 19.4294 17.7564 16.2981 14.7843 13.4623 12.0462 10.766 9.50031 8.26268 7.01533 5.71856 4.5834 3.36264 2.10854 0.911134 41.3277 75.6092 86.2336 84.2549 77.6107 70.2215 63.4887 57.5985 52.38 47.7789 43.7219 40.0429 36.653 33.6193 30.8311 28.1786 25.6611 23.5498 21.4623 19.4343 17.5713 15.7578 14.01 12.4328 10.8374 9.30132 7.73087 6.37127 4.92272 3.56378 2.3091 1.01098 65.2349 105.517 117.927 114.694 106.048 96.5405 87.6129 79.5768 72.2868 65.7036 59.7294 54.319 49.2827 44.7305 40.464 36.5974 32.9361 29.5322 26.4811 23.6664 20.9858 18.4941 16.13 13.981 11.975 10.0857 8.36384 6.58051 5.0293 3.54931 2.22967 1.08642 100.302 147.992 157.437 150.71 139.771 127.951 116.631 106.003 96.335 87.3521 79.0724 71.5576 64.5258 58.0441 52.0795 46.5873 41.4676 36.8063 32.5204 28.4317 24.9588 21.4899 18.3411 15.4805 12.9877 10.6057 8.42267 6.54354 4.80867 3.27801 1.92879 0.92475 151.734 199.875 196.317 187.551 175.077 161.331 147.654 134.621 122.298 110.802 100.158 90.2879 81.0993 72.6476 64.9107 57.6147 50.9991 44.8364 39.2432 34.048 29.2718 24.9103 20.9446 17.2945 14.0564 11.2028 8.57813 6.34851 4.4048 2.92354 1.60855 0.783914 157.952 175.542 171.299 164.739 153.351 139.294 124.689 110.639 97.8105 86.2776 76.1159 66.9667 58.8858 51.5207 44.7938 38.768 33.2396 28.1414 23.6105 19.5438 15.8394 12.5741 9.66469 7.14116 5.0226 3.37001 2.02347 1.29952 1.00299 0.879887 0.613172 0.334916 70.0501 117.593 122.549 118.856 111.017 101.119 90.598 80.6357 71.4279 63.1703 55.8063 49.2951 43.5402 38.2227 33.47 29.1897 25.255 21.752 18.5719 15.681 13.1945 10.9805 9.06141 7.43637 6.021 4.90056 3.97593 3.17872 2.49447 1.71221 0.98095 0.473667 38.6314 73.7723 85.4967 83.6248 77.9391 70.8439 63.5606 56.7671 50.6917 45.2506 40.3668 36.0974 32.3212 29.0473 25.9279 23.201 20.7185 18.473 16.4548 14.6911 13.0263 11.4882 10.1305 8.96075 7.77415 6.72543 5.72218 4.6445 3.68638 2.57476 1.67483 0.699386 29.8683 61.9419 71.7603 70.1797 64.4764 58.1782 52.3094 47.1039 42.6065 38.6939 35.1999 32.2007 29.5263 27.1339 24.9619 22.9713 21.0383 19.3033 17.6255 16.0988 14.7372 13.3543 11.9476 10.6342 9.46147 8.21595 6.93356 5.70982 4.5264 3.30785 2.12024 0.838767 41.6905 75.9035 86.4935 84.41 77.6232 70.1693 63.2947 57.3738 52.1509 47.5919 43.4853 39.8348 36.568 33.493 30.6079 28.108 25.671 23.4805 21.3752 19.3118 17.4471 15.6348 14.0666 12.4221 10.7752 9.22682 7.67814 6.37112 4.85654 3.60617 2.3237 0.989684 65.3887 105.7 118.155 114.778 106.004 96.4816 87.4865 79.4188 72.1543 65.5817 59.6103 54.2064 49.1673 44.5827 40.3063 36.475 32.8328 29.5563 26.4348 23.6474 20.9235 18.4185 16.0623 13.9243 11.9729 9.99585 8.26237 6.53944 4.99181 3.58043 2.20436 1.05434 100.381 148.075 157.602 150.77 139.814 127.94 116.499 105.957 96.237 87.2149 79.0191 71.4831 64.4339 57.9207 52.0183 46.5004 41.4338 36.7336 32.4812 28.4345 24.877 21.4231 18.257 15.4647 12.9213 10.562 8.39854 6.53558 4.81114 3.31035 1.92924 0.97177 151.883 200.013 196.476 187.657 175.122 161.36 147.682 134.562 122.243 110.73 100.099 90.231 81.0864 72.5769 64.8664 57.6068 50.9738 44.8345 39.218 34.012 29.1836 24.9164 20.9158 17.234 14.0594 11.1072 8.56119 6.33456 4.46605 2.84915 1.63939 0.844422 157.617 175.774 172.397 165.063 152.637 137.963 123.207 109.396 96.7507 85.6239 75.6743 66.6946 58.7316 51.4602 44.82 38.8054 33.2675 28.2284 23.7248 19.6288 15.922 12.5846 9.75409 7.30405 5.18863 3.44596 2.07855 1.33507 1.00432 0.92423 0.671136 0.386582 71.8368 116.95 121.94 117.702 109.317 99.3688 89.2014 79.5878 70.7456 62.7712 55.6964 49.3872 43.6159 38.4004 33.7244 29.4345 25.5861 22.0121 18.8376 16.005 13.4315 11.2027 9.29107 7.68668 6.23263 5.03396 4.13814 3.32003 2.54158 1.76525 1.09201 0.444952 39.2803 72.3614 83.7244 81.9602 76.3804 69.7369 62.8816 56.4715 50.7286 45.4879 40.8223 36.7386 32.993 29.5647 26.5598 23.7727 21.2579 19.0037 16.981 15.0873 13.4309 11.9026 10.4985 9.1805 8.0359 6.90064 5.87068 4.83841 3.76946 2.71086 1.74689 0.759056 28.4259 59.6858 69.5835 68.7155 63.7841 58.093 52.6654 47.8297 43.5158 39.7024 36.2438 33.2525 30.4859 27.9573 25.7648 23.6237 21.7141 19.8741 18.2074 16.6588 15.1652 13.7008 12.2903 11.0732 9.71116 8.4691 7.16725 5.87576 4.61963 3.40164 2.17437 0.95405 40.318 74.4213 85.1155 83.6297 77.4382 70.5272 64.077 58.2893 53.1862 48.5746 44.4515 40.7537 37.2691 34.2025 31.3015 28.6864 26.2447 23.9412 21.8981 19.7702 17.8998 16.0754 14.3237 12.6071 11.0277 9.45648 7.96434 6.48888 5.06902 3.70971 2.35925 1.06897 65.0116 105.489 117.798 114.545 105.964 96.7417 88.0488 80.0319 72.8484 66.2259 60.2522 54.7516 49.6991 45.1165 40.8337 36.9039 33.2087 29.9041 26.7281 23.8521 21.1072 18.683 16.276 14.0705 12.0932 10.234 8.40201 6.67492 5.13968 3.62534 2.23764 1.05988 100.624 148.924 158.4 151.017 139.789 127.983 116.769 106.322 96.6839 87.721 79.3843 71.791 64.7346 58.2866 52.2486 46.8059 41.5952 36.932 32.59 28.601 24.9665 21.5751 18.4989 15.5879 13.0434 10.638 8.5491 6.71316 4.8532 3.32428 1.97849 1.05935 151.991 202.027 198.364 188.423 175.274 161.499 147.822 134.84 122.548 111.054 100.395 90.4346 81.3165 72.7754 64.9569 57.6357 51.0466 44.978 39.2842 34.0787 29.3319 25.0075 21.0013 17.3189 14.0534 11.1386 8.59331 6.31188 4.36788 2.84651 1.60909 0.805668 158.795 179.429 174.41 163.342 148.98 133.988 119.587 106.542 94.7886 84.2819 74.8346 66.3083 58.5059 51.3071 44.8495 38.8508 33.3991 28.372 23.8747 19.7467 16.0735 12.8351 9.93919 7.44128 5.30582 3.55099 2.29699 1.48882 1.10426 0.968651 0.629 0.469527 77.3923 116.642 119.063 112.902 104.324 95.1848 86.1768 77.6491 69.7842 62.4545 55.808 49.7357 44.1493 38.9939 34.3637 30.002 26.1213 22.6155 19.4288 16.5692 14.0396 11.7371 9.85828 8.12094 6.64235 5.5118 4.48727 3.52921 2.6946 1.87716 1.15817 0.525714 42.0631 69.0873 79.0198 77.3291 72.9593 67.6306 62.084 56.7373 51.5999 46.803 42.3456 38.2902 34.607 31.0762 27.9979 25.1352 22.4484 20.1433 18.0836 16.1714 14.3072 12.7258 11.2483 9.95029 8.63214 7.39843 6.28773 5.15444 4.09585 2.91398 1.84327 0.853969 25.0227 53.8367 64.8454 65.8438 62.7484 58.5055 54.1501 49.8845 45.9416 42.1323 38.6918 35.5281 32.5755 29.9926 27.4869 25.3426 23.1751 21.3093 19.4983 17.7671 16.1765 14.6749 13.0765 11.6737 10.2804 8.95175 7.60353 6.28214 4.91696 3.64954 2.34629 0.972102 36.8252 70.5865 82.3316 82.2351 77.5249 71.6687 65.9715 60.5131 55.5216 50.8649 46.6177 42.6942 39.0646 35.9111 32.8573 30.0462 27.4998 25.1094 22.8196 20.7247 18.78 16.9103 14.9871 13.2965 11.5951 9.98546 8.3286 6.82057 5.38668 3.90552 2.36278 1.12698 64.5377 105.139 117.113 113.843 106.011 97.5415 89.3537 81.6929 74.5327 67.9035 61.8172 56.2098 50.9923 46.2101 41.9031 37.885 34.08 30.6806 27.4965 24.6123 21.7632 19.2256 16.8705 14.6428 12.56 10.5963 8.75255 6.96448 5.34497 3.82704 2.35074 1.07698 102.017 151.747 159.416 150.703 139.52 128.287 117.569 107.419 97.7621 88.8333 80.4576 72.76 65.5712 58.9872 52.9545 47.3794 42.1904 37.4712 32.9868 29.0643 25.3683 21.9277 18.8225 15.924 13.3552 10.9429 8.79105 6.77121 5.03018 3.48797 2.03731 1.01472 153.672 207.374 201.514 188.837 175.16 161.624 148.387 135.55 123.353 111.839 101.071 91.0635 81.7819 73.2164 65.35 58.0891 51.3446 45.1768 39.5487 34.3015 29.522 25.1187 21.2075 17.5332 14.2822 11.3405 8.75408 6.51862 4.51819 2.95773 1.63961 0.814613 170.888 174.703 161.412 149.938 137.592 125.316 113.794 102.849 92.794 83.2799 74.507 66.3191 58.7033 51.7825 45.2225 39.2489 33.7763 28.8509 24.2236 20.1807 16.4926 13.1751 10.3146 7.79919 5.65555 3.91517 2.58065 1.64475 1.1619 1.01866 0.71572 0.472418 91.9416 109.989 104.386 99.2636 94.6105 89.3956 83.4094 76.9256 70.315 63.6743 57.3271 51.3272 45.7492 40.6526 35.8793 31.5762 27.5447 23.9941 20.7622 17.786 15.1576 12.9125 10.8659 9.10438 7.55285 6.23814 5.09923 4.07843 3.09095 2.13187 1.25282 0.572423 50.8449 61.2302 67.3753 68.8166 68.2732 66.2532 63.0625 58.9812 54.5927 50.0502 45.6629 41.4186 37.4872 33.7738 30.604 27.5733 24.7307 22.2586 19.949 17.8855 15.8851 14.1925 12.5302 11.0544 9.60581 8.23644 6.99034 5.72965 4.48291 3.30363 2.10025 0.962645 19.4259 43.0453 57.7429 62.4382 62.6324 60.8036 57.8219 54.1641 50.3816 46.4739 42.7869 39.2809 36.1028 33.1533 30.4715 27.9726 25.675 23.4635 21.4637 19.5947 17.7413 16.0884 14.4795 12.7985 11.2697 9.79356 8.30157 6.89363 5.43614 4.04467 2.70894 1.1683 29.7663 64.8452 78.8367 81.3684 78.9854 74.7143 69.7987 64.666 59.5612 54.639 50.1642 45.9509 42.0657 38.608 35.3449 32.367 29.5664 26.9463 24.6314 22.3202 20.1663 18.1257 16.1074 14.3452 12.5288 10.7832 9.06143 7.40543 5.85419 4.30185 2.83549 1.20043 65.0488 104.737 114.729 112.93 106.864 99.692 92.143 84.7174 77.5669 70.7693 64.4954 58.5647 53.1744 48.2506 43.7271 39.5057 35.7074 32.1478 28.7652 25.7579 22.9355 20.2699 17.7571 15.5456 13.3502 11.2688 9.39655 7.56928 5.82216 4.19542 2.57798 1.17058 107.222 155.502 157.329 149.153 139.527 129.452 119.394 109.474 99.9072 90.8305 82.2345 74.4619 67.0779 60.3601 54.2311 48.5485 43.2611 38.3941 33.9111 29.8501 26.1331 22.6542 19.458 16.5794 13.9192 11.5193 9.28642 7.25718 5.38582 3.70943 2.1897 1.09146 161.813 214.32 200.678 187.076 174.545 162.134 149.54 136.914 124.801 113.242 102.296 92.1253 82.7244 74.0122 65.991 58.7267 51.9063 45.7358 39.9359 34.6442 29.9518 25.4708 21.5399 17.8375 14.5812 11.6447 9.01945 6.76054 4.67344 3.03259 1.69881 0.905678 
SCALARS volume float 1
LOOKUP_TABLE default
0.283274 0.304663 0.30619 0.307178 0.307915 0.308665 0.309416 0.310145 0.310835 0.311482 0.312075 0.3126 0.313089 0.313524 0.313912 0.314281 0.314603 0.314888 0.315148 0.315378 0.315582 0.315753 0.315913 0.316043 0.316173 0.316263 0.316343 0.316397 0.316433 0.316462 0.316462 0.316434 0.298438 0.306002 0.308923 0.309529 0.309914 0.310336 0.310848 0.311409 0.311965 0.312492 0.312985 0.313434 0.313834 0.314183 0.314512 0.314797 0.31505 0.315279 0.31548 0.315652 0.315814 0.315949 0.31607 0.316174 0.316261 0.316328 0.316373 0.316414 0.316441 0.316456 0.316459 0.31645 0.307362 0.31146 0.311841 0.312369 0.31251 0.312685 0.312942 0.313266 0.313612 0.31396 0.314288 0.314589 0.314857 0.315091 0.315307 0.315496 0.315652 0.315801 0.31592 0.316029 0.316136 0.316206 0.31628 0.316333 0.316379 0.316417 0.316442 0.316456 0.316467 0.31646 0.316457 0.316433 0.314649 0.315128 0.314938 0.314861 0.314863 0.314895 0.314986 0.315125 0.315294 0.315467 0.315636 0.315788 0.315919 0.31604 0.316134 0.316218 0.316286 0.316343 0.316389 0.316428 0.316466 0.316484 0.316506 0.316501 0.316509 0.31651 0.316503 0.316496 0.316485 0.316464 0.316458 0.316408 0.320682 0.318312 0.317589 0.317252 0.317081 0.317001 0.316964 0.31695 0.316955 0.316965 0.316986 0.316999 0.316991 0.316993 0.316979 0.316957 0.316929 0.316908 0.316876 0.316852 0.316809 0.316774 0.316736 0.316704 0.316675 0.316632 0.316592 0.316555 0.316517 0.316496 0.316456 0.316393 0.326097 0.321065 0.319985 0.31942 0.319196 0.319027 0.318867 0.31872 0.318584 0.31845 0.318313 0.318186 0.318066 0.317941 0.317819 0.317695 0.317582 0.317478 0.317364 0.317264 0.317164 0.317078 0.31698 0.316889 0.316823 0.316752 0.316679 0.31662 0.316563 0.31651 0.316451 0.316368 0.33077 0.323751 0.321934 0.321515 0.321244 0.320979 0.320709 0.320422 0.320147 0.319868 0.319606 0.319345 0.319106 0.31886 0.318641 0.318425 0.318229 0.318029 0.317844 0.317678 0.317517 0.317369 0.317217 0.317092 0.316979 0.316864 0.316764 0.316671 0.316598 0.316523 0.316464 0.316367 0.33734 0.324481 0.323972 0.323613 0.323274 0.322882 0.322462 0.322041 0.321619 0.321204 0.320816 0.320432 0.320072 0.319728 0.319404 0.319101 0.318825 0.318549 0.318293 0.318053 0.317838 0.317632 0.31744 0.317261 0.317104 0.316964 0.316845 0.316734 0.316636 0.316548 0.316472 0.316397 0.287083 0.298706 0.303136 0.305357 0.306915 0.308151 0.30919 0.310068 0.310827 0.311504 0.312099 0.312634 0.313118 0.313558 0.313949 0.3143 0.314623 0.314923 0.315175 0.315393 0.3156 0.315792 0.315947 0.316089 0.316192 0.316285 0.316369 0.316421 0.316477 0.316491 0.31648 0.316432 0.302386 0.302212 0.306484 0.308074 0.30922 0.310102 0.310857 0.311529 0.312125 0.312661 0.313148 0.313571 0.313956 0.314291 0.314602 0.314876 0.315119 0.31534 0.315535 0.315699 0.315862 0.315996 0.316104 0.316201 0.316294 0.316356 0.316396 0.316438 0.316458 0.316465 0.31646 0.31645 0.308924 0.309035 0.310151 0.311091 0.311729 0.312268 0.31274 0.313186 0.313596 0.313969 0.31431 0.31461 0.314883 0.315114 0.315331 0.315519 0.315679 0.315819 0.315944 0.316057 0.316147 0.316221 0.316299 0.316341 0.316391 0.316428 0.316451 0.31646 0.316473 0.316467 0.316448 0.316448 0.314925 0.31406 0.314036 0.314079 0.314287 0.314507 0.31474 0.314966 0.315189 0.315394 0.315581 0.315749 0.315897 0.316014 0.316119 0.316216 0.316285 0.316346 0.316397 0.316445 0.316476 0.316488 0.316513 0.316519 0.316516 0.316519 0.316516 0.316507 0.316486 0.316469 0.316445 0.316417 0.320014 0.318524 0.317318 0.316875 0.316707 0.316692 0.316716 0.316762 0.316812 0.316856 0.316893 0.316916 0.316933 0.316938 0.316936 0.316925 0.316909 0.316887 0.316866 0.316838 0.316803 0.316776 0.316739 0.3167 0.316661 0.316622 0.316594 0.316567 0.31652 0.316482 0.316447 0.316379 0.324701 0.32234 0.320262 0.31938 0.319005 0.318798 0.318648 0.318527 0.318412 0.318306 0.318194 0.318081 0.317977 0.317864 0.317755 0.317657 0.317542 0.317434 0.317338 0.31724 0.317144 0.317049 0.316964 0.316885 0.316814 0.316747 0.316678 0.316619 0.316554 0.316501 0.316447 0.316368 0.328419 0.325912 0.32261 0.321707 0.321186 0.320832 0.320533 0.320254 0.319981 0.319719 0.319472 0.319227 0.318999 0.318775 0.318565 0.318355 0.318166 0.317983 0.317807 0.317639 0.317485 0.317337 0.317194 0.31707 0.316962 0.316857 0.316757 0.316665 0.316593 0.316521 0.316464 0.316371 0.335431 0.327163 0.324855 0.323909 0.323333 0.322841 0.322388 0.321956 0.321532 0.321121 0.320736 0.320363 0.320002 0.319666 0.319352 0.319057 0.318776 0.318507 0.318266 0.318033 0.317812 0.31761 0.317425 0.317243 0.31709 0.316945 0.316822 0.31671 0.316611 0.316528 0.316467 0.316401 0.284307 0.298637 0.301277 0.303941 0.305913 0.30752 0.308825 0.309879 0.310749 0.311469 0.31209 0.312644 0.313134 0.313573 0.313961 0.314321 0.314647 0.314936 0.315194 0.315426 0.315622 0.315797 0.31597 0.316114 0.316215 0.316313 0.316398 0.316454 0.316489 0.316507 0.316489 0.316447 0.301608 0.301688 0.305363 0.307231 0.308643 0.309752 0.310671 0.311446 0.312105 0.31267 0.313164 0.313593 0.313977 0.314318 0.314624 0.314903 0.315147 0.31536 0.315554 0.315725 0.315875 0.31601 0.316127 0.316227 0.316298 0.316362 0.316405 0.316452 0.316469 0.316468 0.316463 0.316462 0.308452 0.308832 0.309258 0.310474 0.311284 0.311996 0.312593 0.313116 0.313578 0.313976 0.31433 0.314633 0.314897 0.315138 0.315346 0.31553 0.315696 0.315833 0.315962 0.316064 0.316153 0.316239 0.316314 0.316358 0.316404 0.316436 0.316454 0.316465 0.316473 0.31647 0.316456 0.316449 0.314679 0.313815 0.313546 0.313635 0.313946 0.314263 0.314577 0.314865 0.315128 0.315356 0.315556 0.315734 0.315885 0.316006 0.316113 0.316214 0.316286 0.316341 0.316397 0.316437 0.316474 0.316496 0.31651 0.316526 0.316534 0.316533 0.316521 0.316505 0.316487 0.316465 0.316445 0.316426 0.320053 0.318346 0.317215 0.316681 0.316496 0.316503 0.316564 0.316642 0.316716 0.316779 0.316837 0.316872 0.316897 0.316905 0.316911 0.316908 0.316898 0.316879 0.316856 0.316828 0.316803 0.316776 0.316738 0.316702 0.316667 0.316634 0.316592 0.316553 0.31651 0.316475 0.316443 0.316397 0.325028 0.322235 0.320518 0.319397 0.31893 0.318674 0.318523 0.318416 0.318319 0.318223 0.318131 0.318029 0.317934 0.317828 0.317723 0.317624 0.31752 0.317417 0.317323 0.31723 0.317134 0.317041 0.316958 0.316886 0.31681 0.316739 0.316673 0.316611 0.316548 0.316491 0.316433 0.316379 0.329034 0.325943 0.323077 0.321899 0.32122 0.320789 0.320456 0.320167 0.319907 0.319659 0.319418 0.31918 0.318956 0.318741 0.318533 0.31833 0.318135 0.317958 0.317786 0.317626 0.317473 0.317325 0.317181 0.317069 0.316947 0.316838 0.316741 0.316663 0.316586 0.316508 0.316452 0.316377 0.336332 0.326996 0.325564 0.324238 0.323464 0.322863 0.322361 0.321908 0.321476 0.32107 0.320685 0.320315 0.319966 0.319627 0.319313 0.319026 0.318742 0.318487 0.318232 0.318004 0.317792 0.317586 0.317405 0.317232 0.31707 0.316925 0.316797 0.316698 0.316593 0.316516 0.316465 0.316411 0.283237 0.298004 0.300956 0.303415 0.305478 0.307201 0.308608 0.309742 0.310662 0.31143 0.312079 0.312647 0.313135 0.313576 0.313964 0.314328 0.314648 0.314939 0.315201 0.315425 0.315634 0.315815 0.315985 0.316112 0.31623 0.316322 0.316404 0.31646 0.316496 0.316513 0.316494 0.316443 0.301471 0.30114 0.304956 0.306789 0.308318 0.30953 0.310541 0.311371 0.312068 0.312658 0.31316 0.313601 0.313988 0.314336 0.314633 0.314912 0.315154 0.315368 0.315558 0.315735 0.315884 0.316012 0.316128 0.316224 0.316308 0.31637 0.316425 0.316459 0.316476 0.316471 0.316453 0.316454 0.308315 0.308571 0.309002 0.310185 0.311071 0.311847 0.3125 0.313056 0.313543 0.313956 0.314316 0.314633 0.3149 0.315144 0.315355 0.315537 0.315695 0.315842 0.315966 0.316078 0.31617 0.316242 0.316315 0.316363 0.316395 0.316431 0.316461 0.316472 0.316473 0.316463 0.316455 0.316445 0.314605 0.313678 0.313382 0.313453 0.313796 0.314145 0.314495 0.314811 0.315085 0.315334 0.315546 0.31572 0.315877 0.316001 0.316111 0.316205 0.316281 0.316344 0.316401 0.316438 0.316471 0.316494 0.316514 0.316522 0.316531 0.316526 0.316514 0.316505 0.316492 0.316471 0.316451 0.316414 0.320021 0.318308 0.317134 0.316598 0.316403 0.316419 0.316493 0.316586 0.316673 0.31675 0.316814 0.316858 0.316886 0.316897 0.316905 0.316901 0.316892 0.316871 0.316849 0.31682 0.3168 0.316766 0.316732 0.316701 0.316662 0.316626 0.316597 0.316556 0.316521 0.316486 0.316436 0.316387 0.325062 0.322299 0.32053 0.319409 0.318901 0.318632 0.318475 0.318365 0.318277 0.31819 0.318101 0.318009 0.317906 0.317815 0.317718 0.317611 0.317513 0.317415 0.317315 0.317216 0.317129 0.317048 0.31696 0.316878 0.316806 0.316734 0.316664 0.316605 0.316552 0.316499 0.316433 0.316372 0.329101 0.326075 0.323151 0.322003 0.321253 0.32078 0.320424 0.320132 0.319875 0.319627 0.319384 0.319158 0.318934 0.318721 0.31852 0.318317 0.318127 0.317946 0.317778 0.317613 0.317464 0.317317 0.317183 0.317065 0.316944 0.31684 0.316743 0.316655 0.316574 0.316506 0.316448 0.316368 0.336538 0.327062 0.325672 0.3244 0.323537 0.322885 0.322355 0.321888 0.321454 0.321043 0.320662 0.320294 0.319951 0.319617 0.319307 0.319018 0.318737 0.318467 0.318223 0.317998 0.317793 0.317583 0.317397 0.317224 0.317069 0.316919 0.316794 0.316691 0.316594 0.316509 0.316455 0.316393 0.283233 0.29806 0.301009 0.30345 0.305471 0.307179 0.308581 0.309726 0.310653 0.311422 0.312069 0.312628 0.313118 0.313569 0.313977 0.314334 0.314649 0.314937 0.315201 0.315425 0.315633 0.315825 0.315977 0.316105 0.316231 0.316325 0.316413 0.316463 0.316489 0.316505 0.316499 0.316443 0.301473 0.301172 0.304983 0.3068 0.30831 0.309512 0.310515 0.311345 0.312048 0.312644 0.313155 0.313591 0.31398 0.314332 0.314639 0.314913 0.315159 0.315376 0.315562 0.315728 0.315881 0.316005 0.316129 0.316223 0.316305 0.316371 0.316414 0.316447 0.316472 0.316481 0.316466 0.316458 0.308315 0.308583 0.309005 0.310177 0.311062 0.311829 0.312483 0.313049 0.313537 0.313947 0.314316 0.314627 0.314903 0.315145 0.315351 0.315539 0.315704 0.315841 0.315962 0.316072 0.316162 0.316239 0.316302 0.316365 0.316409 0.316433 0.316458 0.316484 0.316471 0.316461 0.316452 0.316438 0.314598 0.313673 0.313378 0.313439 0.313786 0.314138 0.314486 0.314799 0.315082 0.315329 0.315545 0.315715 0.315876 0.316003 0.316112 0.316203 0.316279 0.316348 0.316401 0.316447 0.316477 0.316507 0.316521 0.31653 0.316524 0.316519 0.316514 0.316505 0.316487 0.31647 0.316437 0.316403 0.320012 0.318287 0.317126 0.31659 0.316398 0.316413 0.316491 0.316585 0.316667 0.316741 0.316812 0.316853 0.316884 0.316897 0.316902 0.316897 0.316883 0.316874 0.316857 0.316834 0.316805 0.316771 0.316733 0.316701 0.31667 0.316635 0.31659 0.316556 0.316524 0.316481 0.316434 0.31638 0.325049 0.322258 0.320498 0.319393 0.318897 0.318623 0.318479 0.318367 0.318272 0.318184 0.318096 0.318006 0.317902 0.317814 0.317714 0.317615 0.31751 0.31741 0.317318 0.317221 0.317131 0.317048 0.316952 0.316871 0.316811 0.316727 0.31666 0.316604 0.316548 0.316488 0.316447 0.316371 0.329081 0.326016 0.323104 0.321973 0.321245 0.320777 0.320423 0.320131 0.319865 0.319621 0.319387 0.319154 0.318933 0.31872 0.318515 0.318312 0.318127 0.317945 0.31778 0.317617 0.317462 0.317313 0.317183 0.317059 0.316944 0.316831 0.316737 0.316651 0.316575 0.316497 0.316447 0.316358 0.33652 0.326965 0.325589 0.324353 0.323518 0.322875 0.322344 0.32188 0.321452 0.321039 0.320661 0.320292 0.319946 0.319619 0.319303 0.31901 0.318733 0.318469 0.318229 0.318001 0.317782 0.31758 0.317398 0.317221 0.31707 0.316927 0.316798 0.316685 0.316588 0.31652 0.316471 0.316393 0.28434 0.29878 0.301455 0.303981 0.305882 0.307459 0.308758 0.309818 0.310695 0.311435 0.312074 0.312624 0.313126 0.313568 0.313966 0.314316 0.31464 0.314932 0.31519 0.315426 0.315622 0.315802 0.315958 0.316097 0.316216 0.316317 0.316398 0.316443 0.316482 0.316508 0.316482 0.316435 0.301639 0.301753 0.305425 0.307202 0.308581 0.309682 0.310604 0.311386 0.312062 0.31264 0.313144 0.313583 0.31398 0.314315 0.314626 0.314893 0.315136 0.315366 0.315561 0.315724 0.315876 0.316003 0.316124 0.316216 0.31629 0.316356 0.316406 0.31645 0.316467 0.316473 0.316455 0.316464 0.308461 0.308849 0.309274 0.310443 0.311236 0.311942 0.312545 0.313081 0.313544 0.313953 0.314311 0.314616 0.3149 0.315136 0.315349 0.315532 0.315693 0.315836 0.315961 0.31607 0.316169 0.316237 0.316305 0.316359 0.3164 0.316426 0.316458 0.316472 0.316473 0.316464 0.316455 0.316452 0.314664 0.313797 0.313531 0.313611 0.313917 0.31423 0.314549 0.31484 0.315105 0.315343 0.315547 0.315719 0.315878 0.316004 0.316111 0.316207 0.31628 0.316341 0.316397 0.316438 0.316473 0.316496 0.31652 0.316525 0.316526 0.316525 0.316516 0.316504 0.316484 0.316476 0.316446 0.316419 0.320013 0.318278 0.317165 0.316655 0.316476 0.316485 0.316547 0.316627 0.316704 0.316779 0.316835 0.316867 0.316895 0.316905 0.316919 0.316915 0.316891 0.316877 0.316856 0.316832 0.316798 0.316766 0.316739 0.316703 0.316663 0.316629 0.316588 0.31656 0.316526 0.316488 0.316444 0.316388 0.324967 0.322115 0.320425 0.319352 0.318909 0.318667 0.318523 0.318411 0.318309 0.318223 0.318122 0.31802 0.317926 0.317825 0.31773 0.317627 0.317519 0.317418 0.317316 0.317227 0.317131 0.317046 0.316965 0.316883 0.316807 0.316731 0.316674 0.316608 0.316561 0.316496 0.316445 0.316371 0.328952 0.325771 0.322935 0.32184 0.321201 0.320782 0.320448 0.320164 0.319905 0.319652 0.319408 0.319178 0.31896 0.318736 0.318527 0.318326 0.31814 0.317957 0.317793 0.31763 0.317466 0.31732 0.317193 0.317058 0.316947 0.316835 0.31674 0.316655 0.316583 0.316507 0.316439 0.316371 0.336248 0.32671 0.325335 0.324141 0.323414 0.322845 0.322347 0.321895 0.321471 0.321066 0.320672 0.320308 0.319961 0.319625 0.319316 0.319021 0.318747 0.318484 0.318237 0.318004 0.317789 0.317582 0.317406 0.317231 0.317077 0.316935 0.316808 0.316706 0.316603 0.316525 0.316468 0.316399 0.287146 0.299302 0.303149 0.305193 0.306726 0.307991 0.309067 0.309982 0.310778 0.311468 0.312082 0.312628 0.313118 0.313548 0.31395 0.314308 0.314624 0.31491 0.315174 0.315406 0.315607 0.315797 0.315953 0.316078 0.316199 0.316297 0.316375 0.316432 0.316466 0.316493 0.31647 0.316421 0.302437 0.302481 0.30645 0.307925 0.309061 0.309957 0.310753 0.31145 0.31208 0.31263 0.313125 0.31356 0.313955 0.314295 0.314597 0.314879 0.315124 0.315341 0.315536 0.315709 0.315863 0.315994 0.31611 0.31621 0.316283 0.316351 0.316401 0.31644 0.316453 0.316453 0.316452 0.316453 0.308937 0.309158 0.310102 0.310988 0.311625 0.31217 0.312677 0.313141 0.313569 0.313953 0.314298 0.314604 0.314882 0.315122 0.315325 0.315519 0.315683 0.315817 0.315945 0.316056 0.316163 0.316228 0.316302 0.316349 0.316397 0.316429 0.31645 0.316463 0.316464 0.316456 0.316446 0.316442 0.314893 0.314033 0.313972 0.313995 0.314214 0.314445 0.314691 0.31493 0.315165 0.315383 0.315576 0.315741 0.315896 0.316016 0.316116 0.31621 0.316285 0.316351 0.316398 0.316444 0.316476 0.316489 0.316512 0.316512 0.316522 0.31652 0.316519 0.316507 0.31649 0.316477 0.316437 0.316417 0.319941 0.318355 0.317241 0.316823 0.316657 0.31665 0.316681 0.316738 0.31679 0.316843 0.316882 0.31691 0.316928 0.316934 0.316937 0.316923 0.316911 0.316893 0.31686 0.316834 0.316807 0.316774 0.316735 0.316706 0.316666 0.316634 0.316596 0.316552 0.316528 0.316488 0.316436 0.316389 0.324603 0.322045 0.320172 0.31934 0.318977 0.318775 0.318627 0.31851 0.318397 0.318293 0.31819 0.318078 0.31797 0.317856 0.317755 0.317644 0.31754 0.31744 0.31733 0.317238 0.31714 0.317058 0.31697 0.316883 0.31682 0.316742 0.316672 0.316609 0.31656 0.316499 0.316441 0.316375 0.328304 0.325511 0.322459 0.321665 0.321167 0.320823 0.320517 0.320233 0.319974 0.319723 0.319465 0.319226 0.319002 0.318776 0.318562 0.318359 0.318166 0.317978 0.317802 0.317642 0.317483 0.317334 0.3172 0.317062 0.316963 0.316851 0.31675 0.316672 0.316592 0.316524 0.316452 0.316368 0.335285 0.32652 0.324631 0.32382 0.323289 0.322816 0.322365 0.321933 0.321512 0.321114 0.320716 0.320347 0.32 0.319662 0.319342 0.31905 0.318767 0.318511 0.318255 0.318024 0.317809 0.317606 0.317428 0.317258 0.317102 0.316953 0.316825 0.316716 0.316607 0.316532 0.316464 0.316401 0.284874 0.30433 0.305626 0.306754 0.307651 0.308532 0.309368 0.310141 0.310854 0.3115 0.312092 0.312632 0.313111 0.313547 0.313942 0.314295 0.314611 0.314898 0.31517 0.315392 0.315595 0.315775 0.315927 0.316058 0.316178 0.316254 0.316345 0.316405 0.316445 0.316458 0.316462 0.316424 0.299367 0.305755 0.308444 0.30918 0.309688 0.310213 0.310797 0.311391 0.311979 0.312513 0.31301 0.313455 0.313858 0.314213 0.314524 0.314818 0.31506 0.315299 0.315491 0.315666 0.315819 0.315959 0.316084 0.316185 0.316272 0.316331 0.316386 0.31643 0.316458 0.316464 0.316464 0.31645 0.307746 0.311271 0.311491 0.312078 0.312313 0.31257 0.312885 0.31324 0.31361 0.313963 0.314301 0.314599 0.314873 0.315104 0.315313 0.315507 0.315665 0.315803 0.315931 0.316045 0.316132 0.316215 0.31629 0.316345 0.316386 0.316418 0.316435 0.316461 0.316453 0.316454 0.31645 0.316434 0.314617 0.314967 0.314721 0.31466 0.314715 0.314797 0.314927 0.315088 0.315274 0.315458 0.315624 0.315784 0.31592 0.316031 0.316132 0.316221 0.316292 0.316351 0.316396 0.316439 0.316468 0.316488 0.316502 0.316509 0.31652 0.316506 0.316518 0.316513 0.316491 0.316467 0.316443 0.316408 0.320324 0.318175 0.317498 0.31715 0.316989 0.316925 0.316902 0.316912 0.31693 0.316945 0.316964 0.316978 0.316982 0.316975 0.316964 0.31695 0.316933 0.316899 0.316869 0.31684 0.316809 0.316774 0.316744 0.316706 0.316677 0.316629 0.316592 0.316553 0.316523 0.316489 0.316445 0.31639 0.325474 0.320939 0.319998 0.319405 0.319157 0.31897 0.31882 0.318677 0.318544 0.318409 0.318287 0.318162 0.31804 0.31792 0.317805 0.317685 0.317576 0.317467 0.31736 0.317258 0.317162 0.317055 0.316973 0.316891 0.316811 0.316747 0.316673 0.316617 0.31656 0.316505 0.316443 0.316374 0.3299 0.32364 0.321975 0.321517 0.321226 0.320947 0.320674 0.320389 0.320113 0.31984 0.319575 0.319326 0.31908 0.318849 0.318628 0.318412 0.318212 0.318018 0.317829 0.317662 0.317505 0.317355 0.317211 0.317085 0.316966 0.316855 0.316765 0.316677 0.316599 0.316525 0.316454 0.316379 0.336516 0.324284 0.32395 0.323596 0.323255 0.322846 0.322431 0.322012 0.321586 0.321181 0.320785 0.320404 0.320048 0.319709 0.319393 0.319094 0.318795 0.318535 0.318278 0.318047 0.317825 0.317627 0.317439 0.317266 0.317108 0.316965 0.316837 0.316726 0.316625 0.316535 0.316475 0.316415 
SCALARS volume_diff float 1
LOOKUP_TABLE default
0.281321 0.30271 0.304237 0.305225 0.305962 0.306712 0.307463 0.308192 0.308882 0.309529 0.310122 0.310647 0.311136 0.311571 0.311959 0.312328 0.31265 0.312935 0.313195 0.313425 0.313629 0.3138 0.31396 0.31409 0.31422 0.31431 0.31439 0.314444 0.31448 0.314509 0.314509 0.314481 0.296485 0.304049 0.30697 0.307576 0.307961 0.308382 0.308895 0.309456 0.310012 0.310538 0.311032 0.31148 0.311881 0.31223 0.312559 0.312844 0.313097 0.313326 0.313527 0.313699 0.313861 0.313996 0.314117 0.314221 0.314308 0.314374 0.31442 0.314461 0.314488 0.314503 0.314506 0.314496 0.305409 0.309507 0.309888 0.310415 0.310557 0.310732 0.310989 0.311313 0.311659 0.312006 0.312335 0.312636 0.312903 0.313138 0.313354 0.313543 0.313699 0.313848 0.313967 0.314076 0.314183 0.314253 0.314327 0.31438 0.314426 0.314463 0.314488 0.314503 0.314514 0.314507 0.314504 0.31448 0.312696 0.313175 0.312985 0.312907 0.31291 0.312942 0.313033 0.313172 0.313341 0.313514 0.313682 0.313835 0.313966 0.314087 0.314181 0.314265 0.314333 0.31439 0.314435 0.314474 0.314513 0.31453 0.314553 0.314548 0.314556 0.314557 0.31455 0.314542 0.314532 0.314511 0.314505 0.314454 0.318729 0.316359 0.315636 0.315299 0.315128 0.315048 0.315011 0.314997 0.315002 0.315012 0.315032 0.315046 0.315038 0.31504 0.315026 0.315004 0.314976 0.314955 0.314922 0.314898 0.314856 0.314821 0.314783 0.314751 0.314721 0.314679 0.314638 0.314602 0.314564 0.314543 0.314502 0.31444 0.324144 0.319112 0.318032 0.317467 0.317243 0.317074 0.316914 0.316767 0.316631 0.316497 0.316359 0.316233 0.316113 0.315988 0.315866 0.315742 0.315629 0.315525 0.31541 0.315311 0.315211 0.315124 0.315027 0.314936 0.31487 0.314799 0.314726 0.314667 0.31461 0.314557 0.314498 0.314415 0.328817 0.321798 0.319981 0.319561 0.319291 0.319026 0.318756 0.318469 0.318193 0.317915 0.317653 0.317392 0.317153 0.316907 0.316688 0.316472 0.316276 0.316076 0.315891 0.315725 0.315564 0.315416 0.315264 0.315138 0.315026 0.314911 0.314811 0.314718 0.314645 0.31457 0.314511 0.314414 0.335387 0.322528 0.322019 0.32166 0.321321 0.320928 0.320509 0.320088 0.319666 0.319251 0.318863 0.318478 0.318119 0.317775 0.317451 0.317148 0.316872 0.316596 0.31634 0.3161 0.315885 0.315679 0.315487 0.315308 0.315151 0.315011 0.314892 0.314781 0.314683 0.314595 0.314519 0.314444 0.28513 0.296753 0.301183 0.303403 0.304962 0.306198 0.307237 0.308114 0.308874 0.309551 0.310145 0.310681 0.311165 0.311605 0.311995 0.312347 0.31267 0.31297 0.313222 0.313439 0.313647 0.313839 0.313994 0.314136 0.314239 0.314332 0.314416 0.314468 0.314524 0.314538 0.314527 0.314479 0.300433 0.300258 0.304531 0.306121 0.307267 0.308149 0.308904 0.309576 0.310172 0.310708 0.311195 0.311618 0.312003 0.312338 0.312649 0.312923 0.313166 0.313387 0.313582 0.313745 0.313909 0.314043 0.31415 0.314248 0.314341 0.314403 0.314443 0.314485 0.314505 0.314512 0.314506 0.314497 0.306971 0.307082 0.308198 0.309138 0.309775 0.310315 0.310787 0.311233 0.311643 0.312016 0.312357 0.312657 0.31293 0.313161 0.313378 0.313566 0.313726 0.313866 0.313991 0.314104 0.314194 0.314268 0.314346 0.314388 0.314438 0.314475 0.314498 0.314507 0.31452 0.314514 0.314495 0.314495 0.312972 0.312107 0.312083 0.312126 0.312334 0.312553 0.312786 0.313013 0.313236 0.313441 0.313628 0.313796 0.313944 0.314061 0.314166 0.314262 0.314332 0.314393 0.314444 0.314492 0.314523 0.314535 0.31456 0.314566 0.314563 0.314566 0.314562 0.314554 0.314533 0.314516 0.314491 0.314463 0.318061 0.316571 0.315365 0.314921 0.314753 0.314739 0.314763 0.314809 0.314858 0.314902 0.314939 0.314963 0.31498 0.314985 0.314982 0.314972 0.314956 0.314934 0.314913 0.314884 0.31485 0.314823 0.314786 0.314747 0.314708 0.314669 0.314641 0.314614 0.314567 0.314529 0.314494 0.314426 0.322748 0.320387 0.318309 0.317427 0.317052 0.316845 0.316694 0.316574 0.316459 0.316353 0.316241 0.316128 0.316024 0.315911 0.315802 0.315704 0.315589 0.315481 0.315385 0.315287 0.315191 0.315095 0.315011 0.314932 0.314861 0.314794 0.314725 0.314666 0.314601 0.314548 0.314494 0.314414 0.326466 0.323959 0.320657 0.319754 0.319232 0.318879 0.31858 0.318301 0.318028 0.317766 0.317518 0.317274 0.317046 0.316822 0.316612 0.316402 0.316213 0.31603 0.315853 0.315686 0.315532 0.315384 0.315241 0.315117 0.315009 0.314904 0.314804 0.314712 0.31464 0.314568 0.314511 0.314418 0.333478 0.32521 0.322902 0.321956 0.321379 0.320888 0.320435 0.320003 0.319579 0.319168 0.318783 0.31841 0.318049 0.317713 0.317399 0.317104 0.316822 0.316554 0.316312 0.31608 0.315859 0.315657 0.315472 0.31529 0.315137 0.314992 0.314869 0.314757 0.314658 0.314575 0.314514 0.314448 0.282354 0.296684 0.299324 0.301988 0.30396 0.305567 0.306872 0.307926 0.308796 0.309516 0.310137 0.310691 0.311181 0.31162 0.312008 0.312368 0.312694 0.312983 0.313241 0.313472 0.313669 0.313844 0.314017 0.314161 0.314261 0.31436 0.314444 0.314501 0.314536 0.314553 0.314536 0.314494 0.299655 0.299735 0.30341 0.305278 0.306689 0.307798 0.308718 0.309493 0.310152 0.310717 0.311211 0.31164 0.312023 0.312365 0.312671 0.31295 0.313194 0.313406 0.313601 0.313772 0.313921 0.314057 0.314174 0.314274 0.314345 0.314409 0.314452 0.314499 0.314516 0.314515 0.31451 0.314509 0.306498 0.306879 0.307305 0.308521 0.30933 0.310043 0.31064 0.311163 0.311625 0.312023 0.312377 0.31268 0.312944 0.313184 0.313393 0.313577 0.313743 0.31388 0.314009 0.314111 0.3142 0.314286 0.314361 0.314405 0.314451 0.314483 0.314501 0.314512 0.31452 0.314516 0.314503 0.314496 0.312726 0.311862 0.311593 0.311682 0.311993 0.31231 0.312624 0.312912 0.313174 0.313403 0.313602 0.313781 0.313932 0.314053 0.31416 0.31426 0.314333 0.314388 0.314444 0.314484 0.314521 0.314543 0.314557 0.314573 0.314581 0.314579 0.314568 0.314552 0.314534 0.314512 0.314492 0.314472 0.3181 0.316393 0.315262 0.314728 0.314543 0.31455 0.314611 0.314689 0.314762 0.314826 0.314883 0.314919 0.314944 0.314952 0.314958 0.314955 0.314945 0.314926 0.314903 0.314875 0.31485 0.314823 0.314785 0.314748 0.314714 0.314681 0.314639 0.3146 0.314557 0.314521 0.31449 0.314444 0.323075 0.320282 0.318565 0.317444 0.316977 0.316721 0.31657 0.316463 0.316366 0.31627 0.316178 0.316076 0.31598 0.315875 0.31577 0.315671 0.315567 0.315464 0.315369 0.315277 0.315181 0.315088 0.315005 0.314933 0.314857 0.314785 0.31472 0.314658 0.314595 0.314538 0.31448 0.314426 0.327081 0.32399 0.321124 0.319946 0.319267 0.318835 0.318503 0.318214 0.317954 0.317706 0.317465 0.317226 0.317003 0.316788 0.31658 0.316376 0.316182 0.316005 0.315833 0.315672 0.31552 0.315372 0.315227 0.315116 0.314994 0.314884 0.314788 0.31471 0.314633 0.314554 0.314499 0.314424 0.334379 0.325043 0.323611 0.322285 0.321511 0.32091 0.320408 0.319955 0.319523 0.319117 0.318731 0.318362 0.318013 0.317674 0.317359 0.317073 0.316789 0.316534 0.316279 0.316051 0.315839 0.315633 0.315452 0.315279 0.315117 0.314972 0.314844 0.314745 0.31464 0.314563 0.314512 0.314457 0.281284 0.296051 0.299003 0.301461 0.303525 0.305248 0.306655 0.307788 0.308709 0.309477 0.310126 0.310694 0.311182 0.311623 0.312011 0.312375 0.312695 0.312986 0.313248 0.313472 0.313681 0.313862 0.314032 0.314158 0.314277 0.314369 0.314451 0.314507 0.314542 0.314559 0.314541 0.31449 0.299518 0.299187 0.303002 0.304836 0.306365 0.307577 0.308588 0.309418 0.310115 0.310705 0.311207 0.311648 0.312035 0.312383 0.31268 0.312958 0.313201 0.313415 0.313605 0.313782 0.313931 0.314059 0.314175 0.314271 0.314355 0.314417 0.314472 0.314506 0.314523 0.314518 0.3145 0.314501 0.306361 0.306618 0.307048 0.308232 0.309118 0.309893 0.310547 0.311103 0.31159 0.312003 0.312363 0.31268 0.312947 0.313191 0.313401 0.313584 0.313741 0.313889 0.314013 0.314125 0.314217 0.314289 0.314362 0.31441 0.314441 0.314478 0.314508 0.314519 0.31452 0.31451 0.314502 0.314492 0.312652 0.311725 0.311429 0.3115 0.311843 0.312192 0.312541 0.312858 0.313132 0.313381 0.313592 0.313766 0.313923 0.314048 0.314158 0.314251 0.314328 0.314391 0.314448 0.314485 0.314518 0.314541 0.31456 0.314569 0.314578 0.314573 0.314561 0.314552 0.314539 0.314517 0.314498 0.314461 0.318068 0.316355 0.315181 0.314645 0.314449 0.314466 0.31454 0.314632 0.31472 0.314797 0.314861 0.314905 0.314933 0.314944 0.314952 0.314948 0.314939 0.314918 0.314896 0.314867 0.314847 0.314813 0.314779 0.314747 0.314709 0.314673 0.314643 0.314602 0.314568 0.314533 0.314483 0.314434 0.323109 0.320346 0.318577 0.317456 0.316948 0.316679 0.316522 0.316412 0.316324 0.316236 0.316148 0.316056 0.315953 0.315861 0.315764 0.315658 0.31556 0.315462 0.315362 0.315263 0.315176 0.315095 0.315007 0.314925 0.314853 0.314781 0.31471 0.314652 0.314598 0.314546 0.31448 0.314419 0.327148 0.324121 0.321198 0.32005 0.3193 0.318826 0.318471 0.318178 0.317921 0.317674 0.31743 0.317204 0.316981 0.316768 0.316567 0.316364 0.316174 0.315993 0.315825 0.31566 0.315511 0.315364 0.31523 0.315112 0.314991 0.314887 0.314789 0.314702 0.314621 0.314553 0.314495 0.314415 0.334585 0.325108 0.323719 0.322447 0.321584 0.320931 0.320402 0.319935 0.319501 0.31909 0.318708 0.31834 0.317998 0.317664 0.317354 0.317065 0.316784 0.316513 0.316269 0.316045 0.31584 0.31563 0.315444 0.31527 0.315116 0.314966 0.31484 0.314738 0.314641 0.314556 0.314502 0.314439 0.281279 0.296107 0.299056 0.301497 0.303518 0.305226 0.306628 0.307773 0.3087 0.309468 0.310116 0.310675 0.311165 0.311615 0.312024 0.312381 0.312695 0.312984 0.313248 0.313472 0.31368 0.313871 0.314023 0.314152 0.314278 0.314372 0.31446 0.314509 0.314536 0.314552 0.314546 0.31449 0.29952 0.299219 0.30303 0.304847 0.306357 0.307559 0.308561 0.309392 0.310095 0.310691 0.311202 0.311638 0.312026 0.312378 0.312686 0.312959 0.313206 0.313423 0.313608 0.313774 0.313928 0.314052 0.314175 0.31427 0.314352 0.314418 0.314461 0.314494 0.314519 0.314528 0.314512 0.314505 0.306362 0.30663 0.307052 0.308224 0.309109 0.309876 0.31053 0.311096 0.311584 0.311994 0.312363 0.312674 0.31295 0.313192 0.313397 0.313586 0.313751 0.313888 0.314009 0.314119 0.314209 0.314286 0.314349 0.314412 0.314455 0.31448 0.314505 0.31453 0.314518 0.314508 0.314499 0.314485 0.312645 0.31172 0.311425 0.311486 0.311833 0.312185 0.312533 0.312846 0.313129 0.313376 0.313592 0.313762 0.313923 0.314049 0.314159 0.31425 0.314326 0.314395 0.314448 0.314493 0.314524 0.314554 0.314568 0.314577 0.314571 0.314566 0.314561 0.314552 0.314534 0.314517 0.314484 0.31445 0.318059 0.316334 0.315173 0.314637 0.314445 0.31446 0.314538 0.314632 0.314714 0.314788 0.314859 0.3149 0.314931 0.314944 0.314949 0.314944 0.31493 0.314921 0.314904 0.314881 0.314852 0.314818 0.314779 0.314748 0.314717 0.314682 0.314637 0.314602 0.314571 0.314528 0.31448 0.314427 0.323096 0.320305 0.318545 0.31744 0.316944 0.31667 0.316525 0.316414 0.316319 0.316231 0.316143 0.316052 0.315949 0.315861 0.315761 0.315662 0.315557 0.315457 0.315365 0.315268 0.315177 0.315095 0.314999 0.314918 0.314858 0.314774 0.314707 0.31465 0.314595 0.314535 0.314494 0.314418 0.327128 0.324063 0.321151 0.32002 0.319292 0.318824 0.31847 0.318178 0.317912 0.317668 0.317434 0.317201 0.31698 0.316767 0.316562 0.316359 0.316174 0.315992 0.315826 0.315664 0.315509 0.31536 0.31523 0.315106 0.314991 0.314878 0.314784 0.314698 0.314621 0.314544 0.314494 0.314405 0.334567 0.325012 0.323636 0.3224 0.321565 0.320922 0.320391 0.319927 0.319499 0.319086 0.318708 0.318339 0.317993 0.317666 0.31735 0.317057 0.31678 0.316516 0.316276 0.316047 0.315829 0.315626 0.315445 0.315268 0.315117 0.314973 0.314845 0.314732 0.314635 0.314567 0.314518 0.31444 0.282387 0.296827 0.299502 0.302028 0.303929 0.305506 0.306805 0.307865 0.308742 0.309482 0.310121 0.31067 0.311173 0.311615 0.312012 0.312363 0.312687 0.312979 0.313237 0.313473 0.313669 0.313849 0.314005 0.314144 0.314263 0.314364 0.314444 0.31449 0.314529 0.314554 0.314529 0.314482 0.299685 0.2998 0.303472 0.305249 0.306628 0.307729 0.308651 0.309433 0.310109 0.310687 0.311191 0.31163 0.312026 0.312362 0.312673 0.31294 0.313183 0.313413 0.313608 0.313771 0.313923 0.31405 0.314171 0.314263 0.314337 0.314403 0.314453 0.314497 0.314513 0.31452 0.314501 0.314511 0.306508 0.306895 0.307321 0.308489 0.309283 0.309989 0.310592 0.311128 0.311591 0.311999 0.312358 0.312663 0.312947 0.313183 0.313396 0.313579 0.31374 0.313883 0.314008 0.314117 0.314215 0.314284 0.314352 0.314406 0.314447 0.314473 0.314505 0.314519 0.314519 0.314511 0.314502 0.314499 0.31271 0.311844 0.311578 0.311658 0.311964 0.312277 0.312596 0.312887 0.313151 0.313389 0.313594 0.313766 0.313925 0.314051 0.314157 0.314254 0.314327 0.314388 0.314444 0.314485 0.31452 0.314543 0.314567 0.314571 0.314573 0.314572 0.314563 0.31455 0.314531 0.314523 0.314493 0.314466 0.31806 0.316325 0.315212 0.314702 0.314523 0.314532 0.314593 0.314674 0.314751 0.314825 0.314882 0.314914 0.314942 0.314952 0.314965 0.314962 0.314938 0.314924 0.314903 0.314879 0.314845 0.314813 0.314786 0.31475 0.31471 0.314676 0.314635 0.314607 0.314573 0.314535 0.314491 0.314435 0.323014 0.320162 0.318472 0.317399 0.316956 0.316714 0.31657 0.316458 0.316356 0.31627 0.316169 0.316067 0.315973 0.315872 0.315776 0.315674 0.315566 0.315465 0.315363 0.315274 0.315177 0.315093 0.315012 0.31493 0.314854 0.314778 0.314721 0.314655 0.314608 0.314543 0.314492 0.314418 0.326999 0.323818 0.320982 0.319887 0.319248 0.318829 0.318495 0.318211 0.317952 0.317699 0.317455 0.317225 0.317007 0.316783 0.316574 0.316373 0.316187 0.316004 0.31584 0.315676 0.315513 0.315367 0.31524 0.315105 0.314994 0.314881 0.314787 0.314702 0.314629 0.314554 0.314486 0.314418 0.334295 0.324757 0.323381 0.322188 0.321461 0.320892 0.320394 0.319942 0.319518 0.319113 0.318719 0.318355 0.318008 0.317672 0.317363 0.317068 0.316793 0.31653 0.316284 0.316051 0.315836 0.315629 0.315453 0.315278 0.315124 0.314982 0.314855 0.314753 0.31465 0.314572 0.314515 0.314446 0.285193 0.297349 0.301196 0.30324 0.304773 0.306038 0.307114 0.308028 0.308825 0.309515 0.310129 0.310675 0.311165 0.311595 0.311997 0.312355 0.312671 0.312957 0.31322 0.313453 0.313654 0.313844 0.314 0.314125 0.314246 0.314344 0.314422 0.314479 0.314513 0.31454 0.314517 0.314467 0.300484 0.300528 0.304497 0.305972 0.307108 0.308004 0.3088 0.309497 0.310127 0.310677 0.311171 0.311607 0.312001 0.312342 0.312644 0.312925 0.313171 0.313388 0.313583 0.313756 0.31391 0.314041 0.314157 0.314257 0.31433 0.314398 0.314447 0.314487 0.3145 0.3145 0.314499 0.3145 0.306984 0.307205 0.308149 0.309035 0.309672 0.310217 0.310724 0.311188 0.311616 0.312 0.312345 0.31265 0.312928 0.313168 0.313372 0.313566 0.31373 0.313864 0.313992 0.314103 0.31421 0.314275 0.314349 0.314396 0.314444 0.314476 0.314497 0.31451 0.314511 0.314503 0.314493 0.314489 0.31294 0.31208 0.312019 0.312042 0.312261 0.312492 0.312738 0.312976 0.313212 0.31343 0.313622 0.313788 0.313943 0.314062 0.314163 0.314257 0.314332 0.314398 0.314445 0.314491 0.314523 0.314536 0.314559 0.314559 0.314569 0.314567 0.314566 0.314554 0.314537 0.314524 0.314484 0.314464 0.317988 0.316402 0.315288 0.314869 0.314704 0.314697 0.314728 0.314785 0.314836 0.31489 0.314929 0.314957 0.314975 0.314981 0.314984 0.31497 0.314958 0.314939 0.314907 0.314881 0.314853 0.314821 0.314782 0.314753 0.314713 0.314681 0.314642 0.314599 0.314574 0.314535 0.314483 0.314435 0.32265 0.320092 0.318218 0.317387 0.317024 0.316822 0.316674 0.316557 0.316444 0.31634 0.316237 0.316125 0.316017 0.315903 0.315802 0.315691 0.315587 0.315487 0.315377 0.315285 0.315187 0.315105 0.315017 0.31493 0.314867 0.314789 0.314719 0.314656 0.314606 0.314545 0.314488 0.314422 0.326351 0.323558 0.320506 0.319712 0.319214 0.31887 0.318564 0.31828 0.318021 0.31777 0.317512 0.317273 0.317049 0.316823 0.316608 0.316406 0.316213 0.316025 0.315849 0.315689 0.315529 0.315381 0.315247 0.315109 0.315009 0.314898 0.314797 0.314719 0.314638 0.314571 0.314499 0.314415 0.333332 0.324566 0.322678 0.321867 0.321336 0.320863 0.320412 0.31998 0.319559 0.319161 0.318763 0.318394 0.318047 0.317708 0.317389 0.317097 0.316814 0.316557 0.316302 0.31607 0.315856 0.315653 0.315475 0.315304 0.315149 0.315 0.314872 0.314763 0.314654 0.314579 0.314511 0.314448 0.282921 0.302377 0.303673 0.304801 0.305698 0.306578 0.307415 0.308187 0.3089 0.309547 0.310139 0.310679 0.311158 0.311594 0.311989 0.312342 0.312657 0.312945 0.313217 0.313439 0.313642 0.313822 0.313974 0.314105 0.314225 0.314301 0.314392 0.314452 0.314492 0.314505 0.314509 0.314471 0.297414 0.303802 0.306491 0.307227 0.307735 0.30826 0.308844 0.309438 0.310026 0.31056 0.311057 0.311502 0.311904 0.31226 0.312571 0.312865 0.313107 0.313346 0.313538 0.313713 0.313866 0.314006 0.314131 0.314232 0.314319 0.314377 0.314433 0.314477 0.314505 0.314511 0.314511 0.314497 0.305793 0.309318 0.309538 0.310125 0.31036 0.310617 0.310932 0.311287 0.311657 0.31201 0.312348 0.312646 0.312919 0.313151 0.31336 0.313554 0.313711 0.31385 0.313978 0.314091 0.314178 0.314262 0.314337 0.314392 0.314433 0.314465 0.314481 0.314507 0.3145 0.314501 0.314497 0.314481 0.312663 0.313013 0.312768 0.312707 0.312762 0.312844 0.312974 0.313135 0.313321 0.313505 0.313671 0.313831 0.313967 0.314078 0.314179 0.314268 0.314339 0.314398 0.314443 0.314486 0.314515 0.314535 0.314549 0.314556 0.314567 0.314553 0.314565 0.31456 0.314538 0.314514 0.31449 0.314455 0.31837 0.316222 0.315545 0.315197 0.315036 0.314971 0.314949 0.314959 0.314977 0.314992 0.31501 0.315025 0.315029 0.315022 0.315011 0.314997 0.314979 0.314946 0.314916 0.314887 0.314855 0.314821 0.314791 0.314753 0.314724 0.314675 0.314638 0.3146 0.31457 0.314536 0.314492 0.314437 0.323521 0.318986 0.318045 0.317452 0.317204 0.317016 0.316867 0.316724 0.316591 0.316456 0.316334 0.316209 0.316087 0.315967 0.315852 0.315732 0.315623 0.315514 0.315407 0.315304 0.315209 0.315102 0.315019 0.314938 0.314858 0.314793 0.31472 0.314664 0.314607 0.314552 0.31449 0.314421 0.327947 0.321687 0.320022 0.319564 0.319273 0.318994 0.31872 0.318436 0.31816 0.317887 0.317622 0.317373 0.317127 0.316896 0.316674 0.316459 0.316259 0.316065 0.315876 0.315709 0.315552 0.315402 0.315258 0.315132 0.315012 0.314902 0.314812 0.314723 0.314646 0.314572 0.3145 0.314426 0.334563 0.322331 0.321997 0.321643 0.321302 0.320893 0.320478 0.320059 0.319633 0.319228 0.318832 0.318451 0.318095 0.317756 0.31744 0.31714 0.316841 0.316582 0.316325 0.316094 0.315872 0.315674 0.315485 0.315313 0.315154 0.315011 0.314884 0.314772 0.314671 0.314582 0.314522 0.314462 
