# vtk DataFile Version 5.1
vtk output
ASCII

DATASET UNSTRUCTURED_GRID
POINTS 2673 float
0 0 2.3
0.125 0 2.3
0.25 0 2.3
0.375 0 2.3
0.5 0 2.3
0.625 0 2.3
0.75 0 2.3
0.875 0 2.3
1 0 2.3
1.125 0 2.3
1.25 0 2.3
1.375 0 2.3
1.5 0 2.3
1.625 0 2.3
1.75 0 2.3
1.875 0 2.3
2 0 2.3
2.125 0 2.3
2.25 0 2.3
2.375 0 2.3
2.5 0 2.3
2.625 0 2.3
2.75 0 2.3
2.875 0 2.3
3 0 2.3
3.125 0 2.3
3.25 0 2.3
3.375 0 2.3
3.5 0 2.3
3.625 0 2.3
3.75 0 2.3
3.875 0 2.3
4 0 2.3
0 0.125 2.3
0.125 0.125 2.3
0.25 0.125 2.3
0.375 0.125 2.3
0.5 0.125 2.3
0.625 0.125 2.3
0.75 0.125 2.3
0.875 0.125 2.3
1 0.125 2.3
1.125 0.125 2.3
1.25 0.125 2.3
1.375 0.125 2.3
1.5 0.125 2.3
1.625 0.125 2.3
1.75 0.125 2.3
1.875 0.125 2.3
2 0.125 2.3
2.125 0.125 2.3
2.25 0.125 2.3
2.375 0.125 2.3
2.5 0.125 2.3
2.625 0.125 2.3
2.75 0.125 2.3
2.875 0.125 2.3
3 0.125 2.3
3.125 0.125 2.3
3.25 0.125 2.3
3.375 0.125 2.3
3.5 0.125 2.3
3.625 0.125 2.3
3.75 0.125 2.3
3.875 0.125 2.3
4 0.125 2.3
0 0.25 2.3
0.125 0.25 2.3
0.25 0.25 2.3
0.375 0.25 2.3
0.5 0.25 2.3
0.625 0.25 2.3
0.75 0.25 2.3
0.875 0.25 2.3
1 0.25 2.3
1.125 0.25 2.3
1.25 0.25 2.3
1.375 0.25 2.3
1.5 0.25 2.3
1.625 0.25 2.3
1.75 0.25 2.3
1.875 0.25 2.3
2 0.25 2.3
2.125 0.25 2.3
2.25 0.25 2.3
2.375 0.25 2.3
2.5 0.25 2.3
2.625 0.25 2.3
2.75 0.25 2.3
2.875 0.25 2.3
3 0.25 2.3
3.125 0.25 2.3
3.25 0.25 2.3
3.375 0.25 2.3
3.5 0.25 2.3
3.625 0.25 2.3
3.75 0.25 2.3
3.875 0.25 2.3
4 0.25 2.3
0 0.375 2.3
0.125 0.375 2.3
0.25 0.375 2.3
0.375 0.375 2.3
0.5 0.375 2.3
0.625 0.375 2.3
0.75 0.375 2.3
0.875 0.375 2.3
1 0.375 2.3
1.125 0.375 2.3
1.25 0.375 2.3
1.375 0.375 2.3
1.5 0.375 2.3
1.625 0.375 2.3
1.75 0.375 2.3
1.875 0.375 2.3
2 0.375 2.3
2.125 0.375 2.3
2.25 0.375 2.3
2.375 0.375 2.3
2.5 0.375 2.3
2.625 0.375 2.3
2.75 0.375 2.3
2.875 0.375 2.3
3 0.375 2.3
3.125 0.375 2.3
3.25 0.375 2.3
3.375 0.375 2.3
3.5 0.375 2.3
3.625 0.375 2.3
3.75 0.375 2.3
3.875 0.375 2.3
4 0.375 2.3
0 0.5 2.3
0.125 0.5 2.3
0.25 0.5 2.3
0.375 0.5 2.3
0.5 0.5 2.3
0.625 0.5 2.3
0.75 0.5 2.3
0.875 0.5 2.3
1 0.5 2.3
1.125 0.5 2.3
1.25 0.5 2.3
1.375 0.5 2.3
1.5 0.5 2.3
1.625 0.5 2.3
1.75 0.5 2.3
1.875 0.5 2.3
2 0.5 2.3
2.125 0.5 2.3
2.25 0.5 2.3
2.375 0.5 2.3
2.5 0.5 2.3
2.625 0.5 2.3
2.75 0.5 2.3
2.875 0.5 2.3
3 0.5 2.3
3.125 0.5 2.3
3.25 0.5 2.3
3.375 0.5 2.3
3.5 0.5 2.3
3.625 0.5 2.3
3.75 0.5 2.3
3.875 0.5 2.3
4 0.5 2.3
0 0.625 2.3
0.125 0.625 2.3
0.25 0.625 2.3
0.375 0.625 2.3
0.5 0.625 2.3
0.625 0.625 2.3
0.75 0.625 2.3
0.875 0.625 2.3
1 0.625 2.3
1.125 0.625 2.3
1.25 0.625 2.3
1.375 0.625 2.3
1.5 0.625 2.3
1.625 0.625 2.3
1.75 0.625 2.3
1.875 0.625 2.3
2 0.625 2.3
2.125 0.625 2.3
2.25 0.625 2.3
2.375 0.625 2.3
2.5 0.625 2.3
2.625 0.625 2.3
2.75 0.625 2.3
2.875 0.625 2.3
3 0.625 2.3
3.125 0.625 2.3
3.25 0.625 2.3
3.375 0.625 2.3
3.5 0.625 2.3
3.625 0.625 2.3
3.75 0.625 2.3
3.875 0.625 2.3
4 0.625 2.3
0 0.75 2.3
0.125 0.75 2.3
0.25 0.75 2.3
0.375 0.75 2.3
0.5 0.75 2.3
0.625 0.75 2.3
0.75 0.75 2.3
0.875 0.75 2.3
1 0.75 2.3
1.125 0.75 2.3
1.25 0.75 2.3
1.375 0.75 2.3
1.5 0.75 2.3
1.625 0.75 2.3
1.75 0.75 2.3
1.875 0.75 2.3
2 0.75 2.3
2.125 0.75 2.3
2.25 0.75 2.3
2.375 0.75 2.3
2.5 0.75 2.3
2.625 0.75 2.3
2.75 0.75 2.3
2.875 0.75 2.3
3 0.75 2.3
3.125 0.75 2.3
3.25 0.75 2.3
3.375 0.75 2.3
3.5 0.75 2.3
3.625 0.75 2.3
3.75 0.75 2.3
3.875 0.75 2.3
4 0.75 2.3
0 0.875 2.3
0.125 0.875 2.3
0.25 0.875 2.3
0.375 0.875 2.3
0.5 0.875 2.3
0.625 0.875 2.3
0.75 0.875 2.3
0.875 0.875 2.3
1 0.875 2.3
1.125 0.875 2.3
1.25 0.875 2.3
1.375 0.875 2.3
1.5 0.875 2.3
1.625 0.875 2.3
1.75 0.875 2.3
1.875 0.875 2.3
2 0.875 2.3
2.125 0.875 2.3
2.25 0.875 2.3
2.375 0.875 2.3
2.5 0.875 2.3
2.625 0.875 2.3
2.75 0.875 2.3
2.875 0.875 2.3
3 0.875 2.3
3.125 0.875 2.3
3.25 0.875 2.3
3.375 0.875 2.3
3.5 0.875 2.3
3.625 0.875 2.3
3.75 0.875 2.3
3.875 0.875 2.3
4 0.875 2.3
0 1 2.3
0.125 1 2.3
0.25 1 2.3
0.375 1 2.3
0.5 1 2.3
0.625 1 2.3
0.75 1 2.3
0.875 1 2.3
1 1 2.3
1.125 1 2.3
1.25 1 2.3
1.375 1 2.3
1.5 1 2.3
1.625 1 2.3
1.75 1 2.3
1.875 1 2.3
2 1 2.3
2.125 1 2.3
2.25 1 2.3
2.375 1 2.3
2.5 1 2.3
2.625 1 2.3
2.75 1 2.3
2.875 1 2.3
3 1 2.3
3.125 1 2.3
3.25 1 2.3
3.375 1 2.3
3.5 1 2.3
3.625 1 2.3
3.75 1 2.3
3.875 1 2.3
4 1 2.3
0 0 2.425
0.125 0 2.425
0.25 0 2.425
0.375 0 2.425
0.5 0 2.425
0.625 0 2.425
0.75 0 2.425
0.875 0 2.425
1 0 2.425
1.125 0 2.425
1.25 0 2.425
1.375 0 2.425
1.5 0 2.425
1.625 0 2.425
1.75 0 2.425
1.875 0 2.425
2 0 2.425
2.125 0 2.425
2.25 0 2.425
2.375 0 2.425
2.5 0 2.425
2.625 0 2.425
2.75 0 2.425
2.875 0 2.425
3 0 2.425
3.125 0 2.425
3.25 0 2.425
3.375 0 2.425
3.5 0 2.425
3.625 0 2.425
3.75 0 2.425
3.875 0 2.425
4 0 2.425
0 0.125 2.425
0.125 0.125 2.425
0.25 0.125 2.425
0.375 0.125 2.425
0.5 0.125 2.425
0.625 0.125 2.425
0.75 0.125 2.425
0.875 0.125 2.425
1 0.125 2.425
1.125 0.125 2.425
1.25 0.125 2.425
1.375 0.125 2.425
1.5 0.125 2.425
1.625 0.125 2.425
1.75 0.125 2.425
1.875 0.125 2.425
2 0.125 2.425
2.125 0.125 2.425
2.25 0.125 2.425
2.375 0.125 2.425
2.5 0.125 2.425
2.625 0.125 2.425
2.75 0.125 2.425
2.875 0.125 2.425
3 0.125 2.425
3.125 0.125 2.425
3.25 0.125 2.425
3.375 0.125 2.425
3.5 0.125 2.425
3.625 0.125 2.425
3.75 0.125 2.425
3.875 0.125 2.425
4 0.125 2.425
0 0.25 2.425
0.125 0.25 2.425
0.25 0.25 2.425
0.375 0.25 2.425
0.5 0.25 2.425
0.625 0.25 2.425
0.75 0.25 2.425
0.875 0.25 2.425
1 0.25 2.425
1.125 0.25 2.425
1.25 0.25 2.425
1.375 0.25 2.425
1.5 0.25 2.425
1.625 0.25 2.425
1.75 0.25 2.425
1.875 0.25 2.425
2 0.25 2.425
2.125 0.25 2.425
2.25 0.25 2.425
2.375 0.25 2.425
2.5 0.25 2.425
2.625 0.25 2.425
2.75 0.25 2.425
2.875 0.25 2.425
3 0.25 2.425
3.125 0.25 2.425
3.25 0.25 2.425
3.375 0.25 2.425
3.5 0.25 2.425
3.625 0.25 2.425
3.75 0.25 2.425
3.875 0.25 2.425
4 0.25 2.425
0 0.375 2.425
0.125 0.375 2.425
0.25 0.375 2.425
0.375 0.375 2.425
0.5 0.375 2.425
0.625 0.375 2.425
0.75 0.375 2.425
0.875 0.375 2.425
1 0.375 2.425
1.125 0.375 2.425
1.25 0.375 2.425
1.375 0.375 2.425
1.5 0.375 2.425
1.625 0.375 2.425
1.75 0.375 2.425
1.875 0.375 2.425
2 0.375 2.425
2.125 0.375 2.425
2.25 0.375 2.425
2.375 0.375 2.425
2.5 0.375 2.425
2.625 0.375 2.425
2.75 0.375 2.425
2.875 0.375 2.425
3 0.375 2.425
3.125 0.375 2.425
3.25 0.375 2.425
3.375 0.375 2.425
3.5 0.375 2.425
3.625 0.375 2.425
3.75 0.375 2.425
3.875 0.375 2.425
4 0.375 2.425
0 0.5 2.425
0.125 0.5 2.425
0.25 0.5 2.425
0.375 0.5 2.425
0.5 0.5 2.425
0.625 0.5 2.425
0.75 0.5 2.425
0.875 0.5 2.425
1 0.5 2.425
1.125 0.5 2.425
1.25 0.5 2.425
1.375 0.5 2.425
1.5 0.5 2.425
1.625 0.5 2.425
1.75 0.5 2.425
1.875 0.5 2.425
2 0.5 2.425
2.125 0.5 2.425
2.25 0.5 2.425
2.375 0.5 2.425
2.5 0.5 2.425
2.625 0.5 2.425
2.75 0.5 2.425
2.875 0.5 2.425
3 0.5 2.425
3.125 0.5 2.425
3.25 0.5 2.425
3.375 0.5 2.425
3.5 0.5 2.425
3.625 0.5 2.425
3.75 0.5 2.425
3.875 0.5 2.425
4 0.5 2.425
0 0.625 2.425
0.125 0.625 2.425
0.25 0.625 2.425
0.375 0.625 2.425
0.5 0.625 2.425
0.625 0.625 2.425
0.75 0.625 2.425
0.875 0.625 2.425
1 0.625 2.425
1.125 0.625 2.425
1.25 0.625 2.425
1.375 0.625 2.425
1.5 0.625 2.425
1.625 0.625 2.425
1.75 0.625 2.425
1.875 0.625 2.425
2 0.625 2.425
2.125 0.625 2.425
2.25 0.625 2.425
2.375 0.625 2.425
2.5 0.625 2.425
2.625 0.625 2.425
2.75 0.625 2.425
2.875 0.625 2.425
3 0.625 2.425
3.125 0.625 2.425
3.25 0.625 2.425
3.375 0.625 2.425
3.5 0.625 2.425
3.625 0.625 2.425
3.75 0.625 2.425
3.875 0.625 2.425
4 0.625 2.425
0 0.75 2.425
0.125 0.75 2.425
0.25 0.75 2.425
0.375 0.75 2.425
0.5 0.75 2.425
0.625 0.75 2.425
0.75 0.75 2.425
0.875 0.75 2.425
1 0.75 2.425
1.125 0.75 2.425
1.25 0.75 2.425
1.375 0.75 2.425
1.5 0.75 2.425
1.625 0.75 2.425
1.75 0.75 2.425
1.875 0.75 2.425
2 0.75 2.425
2.125 0.75 2.425
2.25 0.75 2.425
2.375 0.75 2.425
2.5 0.75 2.425
2.625 0.75 2.425
2.75 0.75 2.425
2.875 0.75 2.425
3 0.75 2.425
3.125 0.75 2.425
3.25 0.75 2.425
3.375 0.75 2.425
3.5 0.75 2.425
3.625 0.75 2.425
3.75 0.75 2.425
3.875 0.75 2.425
4 0.75 2.425
0 0.875 2.425
0.125 0.875 2.425
0.25 0.875 2.425
0.375 0.875 2.425
0.5 0.875 2.425
0.625 0.875 2.425
0.75 0.875 2.425
0.875 0.875 2.425
1 0.875 2.425
1.125 0.875 2.425
1.25 0.875 2.425
1.375 0.875 2.425
1.5 0.875 2.425
1.625 0.875 2.425
1.75 0.875 2.425
1.875 0.875 2.425
2 0.875 2.425
2.125 0.875 2.425
2.25 0.875 2.425
2.375 0.875 2.425
2.5 0.875 2.425
2.625 0.875 2.425
2.75 0.875 2.425
2.875 0.875 2.425
3 0.875 2.425
3.125 0.875 2.425
3.25 0.875 2.425
3.375 0.875 2.425
3.5 0.875 2.425
3.625 0.875 2.425
3.75 0.875 2.425
3.875 0.875 2.425
4 0.875 2.425
0 1 2.425
0.125 1 2.425
0.25 1 2.425
0.375 1 2.425
0.5 1 2.425
0.625 1 2.425
0.75 1 2.425
0.875 1 2.425
1 1 2.425
1.125 1 2.425
1.25 1 2.425
1.375 1 2.425
1.5 1 2.425
1.625 1 2.425
1.75 1 2.425
1.875 1 2.425
2 1 2.425
2.125 1 2.425
2.25 1 2.425
2.375 1 2.425
2.5 1 2.425
2.625 1 2.425
2.75 1 2.425
2.875 1 2.425
3 1 2.425
3.125 1 2.425
3.25 1 2.425
3.375 1 2.425
3.5 1 2.425
3.625 1 2.425
3.75 1 2.425
3.875 1 2.425
4 1 2.425
0 0 2.55
0.125 0 2.55
0.25 0 2.55
0.375 0 2.55
0.5 0 2.55
0.625 0 2.55
0.75 0 2.55
0.875 0 2.55
1 0 2.55
1.125 0 2.55
1.25 0 2.55
1.375 0 2.55
1.5 0 2.55
1.625 0 2.55
1.75 0 2.55
1.875 0 2.55
2 0 2.55
2.125 0 2.55
2.25 0 2.55
2.375 0 2.55
2.5 0 2.55
2.625 0 2.55
2.75 0 2.55
2.875 0 2.55
3 0 2.55
3.125 0 2.55
3.25 0 2.55
3.375 0 2.55
3.5 0 2.55
3.625 0 2.55
3.75 0 2.55
3.875 0 2.55
4 0 2.55
0 0.125 2.55
0.125 0.125 2.55
0.25 0.125 2.55
0.375 0.125 2.55
0.5 0.125 2.55
0.625 0.125 2.55
0.75 0.125 2.55
0.875 0.125 2.55
1 0.125 2.55
1.125 0.125 2.55
1.25 0.125 2.55
1.375 0.125 2.55
1.5 0.125 2.55
1.625 0.125 2.55
1.75 0.125 2.55
1.875 0.125 2.55
2 0.125 2.55
2.125 0.125 2.55
2.25 0.125 2.55
2.375 0.125 2.55
2.5 0.125 2.55
2.625 0.125 2.55
2.75 0.125 2.55
2.875 0.125 2.55
3 0.125 2.55
3.125 0.125 2.55
3.25 0.125 2.55
3.375 0.125 2.55
3.5 0.125 2.55
3.625 0.125 2.55
3.75 0.125 2.55
3.875 0.125 2.55
4 0.125 2.55
0 0.25 2.55
0.125 0.25 2.55
0.25 0.25 2.55
0.375 0.25 2.55
0.5 0.25 2.55
0.625 0.25 2.55
0.75 0.25 2.55
0.875 0.25 2.55
1 0.25 2.55
1.125 0.25 2.55
1.25 0.25 2.55
1.375 0.25 2.55
1.5 0.25 2.55
1.625 0.25 2.55
1.75 0.25 2.55
1.875 0.25 2.55
2 0.25 2.55
2.125 0.25 2.55
2.25 0.25 2.55
2.375 0.25 2.55
2.5 0.25 2.55
2.625 0.25 2.55
2.75 0.25 2.55
2.875 0.25 2.55
3 0.25 2.55
3.125 0.25 2.55
3.25 0.25 2.55
3.375 0.25 2.55
3.5 0.25 2.55
3.625 0.25 2.55
3.75 0.25 2.55
3.875 0.25 2.55
4 0.25 2.55
0 0.375 2.55
0.125 0.375 2.55
0.25 0.375 2.55
0.375 0.375 2.55
0.5 0.375 2.55
0.625 0.375 2.55
0.75 0.375 2.55
0.875 0.375 2.55
1 0.375 2.55
1.125 0.375 2.55
1.25 0.375 2.55
1.375 0.375 2.55
1.5 0.375 2.55
1.625 0.375 2.55
1.75 0.375 2.55
1.875 0.375 2.55
2 0.375 2.55
2.125 0.375 2.55
2.25 0.375 2.55
2.375 0.375 2.55
2.5 0.375 2.55
2.625 0.375 2.55
2.75 0.375 2.55
2.875 0.375 2.55
3 0.375 2.55
3.125 0.375 2.55
3.25 0.375 2.55
3.375 0.375 2.55
3.5 0.375 2.55
3.625 0.375 2.55
3.75 0.375 2.55
3.875 0.375 2.55
4 0.375 2.55
0 0.5 2.55
0.125 0.5 2.55
0.25 0.5 2.55
0.375 0.5 2.55
0.5 0.5 2.55
0.625 0.5 2.55
0.75 0.5 2.55
0.875 0.5 2.55
1 0.5 2.55
1.125 0.5 2.55
1.25 0.5 2.55
1.375 0.5 2.55
1.5 0.5 2.55
1.625 0.5 2.55
1.75 0.5 2.55
1.875 0.5 2.55
2 0.5 2.55
2.125 0.5 2.55
2.25 0.5 2.55
2.375 0.5 2.55
2.5 0.5 2.55
2.625 0.5 2.55
2.75 0.5 2.55
2.875 0.5 2.55
3 0.5 2.55
3.125 0.5 2.55
3.25 0.5 2.55
3.375 0.5 2.55
3.5 0.5 2.55
3.625 0.5 2.55
3.75 0.5 2.55
3.875 0.5 2.55
4 0.5 2.55
0 0.625 2.55
0.125 0.625 2.55
0.25 0.625 2.55
0.375 0.625 2.55
0.5 0.625 2.55
0.625 0.625 2.55
0.75 0.625 2.55
0.875 0.625 2.55
1 0.625 2.55
1.125 0.625 2.55
1.25 0.625 2.55
1.375 0.625 2.55
1.5 0.625 2.55
1.625 0.625 2.55
1.75 0.625 2.55
1.875 0.625 2.55
2 0.625 2.55
2.125 0.625 2.55
2.25 0.625 2.55
2.375 0.625 2.55
2.5 0.625 2.55
2.625 0.625 2.55
2.75 0.625 2.55
2.875 0.625 2.55
3 0.625 2.55
3.125 0.625 2.55
3.25 0.625 2.55
3.375 0.625 2.55
3.5 0.625 2.55
3.625 0.625 2.55
3.75 0.625 2.55
3.875 0.625 2.55
4 0.625 2.55
0 0.75 2.55
0.125 0.75 2.55
0.25 0.75 2.55
0.375 0.75 2.55
0.5 0.75 2.55
0.625 0.75 2.55
0.75 0.75 2.55
0.875 0.75 2.55
1 0.75 2.55
1.125 0.75 2.55
1.25 0.75 2.55
1.375 0.75 2.55
1.5 0.75 2.55
1.625 0.75 2.55
1.75 0.75 2.55
1.875 0.75 2.55
2 0.75 2.55
2.125 0.75 2.55
2.25 0.75 2.55
2.375 0.75 2.55
2.5 0.75 2.55
2.625 0.75 2.55
2.75 0.75 2.55
2.875 0.75 2.55
3 0.75 2.55
3.125 0.75 2.55
3.25 0.75 2.55
3.375 0.75 2.55
3.5 0.75 2.55
3.625 0.75 2.55
3.75 0.75 2.55
3.875 0.75 2.55
4 0.75 2.55
0 0.875 2.55
0.125 0.875 2.55
0.25 0.875 2.55
0.375 0.875 2.55
0.5 0.875 2.55
0.625 0.875 2.55
0.75 0.875 2.55
0.875 0.875 2.55
1 0.875 2.55
1.125 0.875 2.55
1.25 0.875 2.55
1.375 0.875 2.55
1.5 0.875 2.55
1.625 0.875 2.55
1.75 0.875 2.55
1.875 0.875 2.55
2 0.875 2.55
2.125 0.875 2.55
2.25 0.875 2.55
2.375 0.875 2.55
2.5 0.875 2.55
2.625 0.875 2.55
2.75 0.875 2.55
2.875 0.875 2.55
3 0.875 2.55
3.125 0.875 2.55
3.25 0.875 2.55
3.375 0.875 2.55
3.5 0.875 2.55
3.625 0.875 2.55
3.75 0.875 2.55
3.875 0.875 2.55
4 0.875 2.55
0 1 2.55
0.125 1 2.55
0.25 1 2.55
0.375 1 2.55
0.5 1 2.55
0.625 1 2.55
0.75 1 2.55
0.875 1 2.55
1 1 2.55
1.125 1 2.55
1.25 1 2.55
1.375 1 2.55
1.5 1 2.55
1.625 1 2.55
1.75 1 2.55
1.875 1 2.55
2 1 2.55
2.125 1 2.55
2.25 1 2.55
2.375 1 2.55
2.5 1 2.55
2.625 1 2.55
2.75 1 2.55
2.875 1 2.55
3 1 2.55
3.125 1 2.55
3.25 1 2.55
3.375 1 2.55
3.5 1 2.55
3.625 1 2.55
3.75 1 2.55
3.875 1 2.55
4 1 2.55
0 0 2.675
0.125 0 2.675
0.25 0 2.675
0.375 0 2.675
0.5 0 2.675
0.625 0 2.675
0.75 0 2.675
0.875 0 2.675
1 0 2.675
1.125 0 2.675
1.25 0 2.675
1.375 0 2.675
1.5 0 2.675
1.625 0 2.675
1.75 0 2.675
1.875 0 2.675
2 0 2.675
2.125 0 2.675
2.25 0 2.675
2.375 0 2.675
2.5 0 2.675
2.625 0 2.675
2.75 0 2.675
2.875 0 2.675
3 0 2.675
3.125 0 2.675
3.25 0 2.675
3.375 0 2.675
3.5 0 2.675
3.625 0 2.675
3.75 0 2.675
3.875 0 2.675
4 0 2.675
0 0.125 2.675
0.125 0.125 2.675
0.25 0.125 2.675
0.375 0.125 2.675
0.5 0.125 2.675
0.625 0.125 2.675
0.75 0.125 2.675
0.875 0.125 2.675
1 0.125 2.675
1.125 0.125 2.675
1.25 0.125 2.675
1.375 0.125 2.675
1.5 0.125 2.675
1.625 0.125 2.675
1.75 0.125 2.675
1.875 0.125 2.675
2 0.125 2.675
2.125 0.125 2.675
2.25 0.125 2.675
2.375 0.125 2.675
2.5 0.125 2.675
2.625 0.125 2.675
2.75 0.125 2.675
2.875 0.125 2.675
3 0.125 2.675
3.125 0.125 2.675
3.25 0.125 2.675
3.375 0.125 2.675
3.5 0.125 2.675
3.625 0.125 2.675
3.75 0.125 2.675
3.875 0.125 2.675
4 0.125 2.675
0 0.25 2.675
0.125 0.25 2.675
0.25 0.25 2.675
0.375 0.25 2.675
0.5 0.25 2.675
0.625 0.25 2.675
0.75 0.25 2.675
0.875 0.25 2.675
1 0.25 2.675
1.125 0.25 2.675
1.25 0.25 2.675
1.375 0.25 2.675
1.5 0.25 2.675
1.625 0.25 2.675
1.75 0.25 2.675
1.875 0.25 2.675
2 0.25 2.675
2.125 0.25 2.675
2.25 0.25 2.675
2.375 0.25 2.675
2.5 0.25 2.675
2.625 0.25 2.675
2.75 0.25 2.675
2.875 0.25 2.675
3 0.25 2.675
3.125 0.25 2.675
3.25 0.25 2.675
3.375 0.25 2.675
3.5 0.25 2.675
3.625 0.25 2.675
3.75 0.25 2.675
3.875 0.25 2.675
4 0.25 2.675
0 0.375 2.675
0.125 0.375 2.675
0.25 0.375 2.675
0.375 0.375 2.675
0.5 0.375 2.675
0.625 0.375 2.675
0.75 0.375 2.675
0.875 0.375 2.675
1 0.375 2.675
1.125 0.375 2.675
1.25 0.375 2.675
1.375 0.375 2.675
1.5 0.375 2.675
1.625 0.375 2.675
1.75 0.375 2.675
1.875 0.375 2.675
2 0.375 2.675
2.125 0.375 2.675
2.25 0.375 2.675
2.375 0.375 2.675
2.5 0.375 2.675
2.625 0.375 2.675
2.75 0.375 2.675
2.875 0.375 2.675
3 0.375 2.675
3.125 0.375 2.675
3.25 0.375 2.675
3.375 0.375 2.675
3.5 0.375 2.675
3.625 0.375 2.675
3.75 0.375 2.675
3.875 0.375 2.675
4 0.375 2.675
0 0.5 2.675
0.125 0.5 2.675
0.25 0.5 2.675
0.375 0.5 2.675
0.5 0.5 2.675
0.625 0.5 2.675
0.75 0.5 2.675
0.875 0.5 2.675
1 0.5 2.675
1.125 0.5 2.675
1.25 0.5 2.675
1.375 0.5 2.675
1.5 0.5 2.675
1.625 0.5 2.675
1.75 0.5 2.675
1.875 0.5 2.675
2 0.5 2.675
2.125 0.5 2.675
2.25 0.5 2.675
2.375 0.5 2.675
2.5 0.5 2.675
2.625 0.5 2.675
2.75 0.5 2.675
2.875 0.5 2.675
3 0.5 2.675
3.125 0.5 2.675
3.25 0.5 2.675
3.375 0.5 2.675
3.5 0.5 2.675
3.625 0.5 2.675
3.75 0.5 2.675
3.875 0.5 2.675
4 0.5 2.675
0 0.625 2.675
0.125 0.625 2.675
0.25 0.625 2.675
0.375 0.625 2.675
0.5 0.625 2.675
0.625 0.625 2.675
0.75 0.625 2.675
0.875 0.625 2.675
1 0.625 2.675
1.125 0.625 2.675
1.25 0.625 2.675
1.375 0.625 2.675
1.5 0.625 2.675
1.625 0.625 2.675
1.75 0.625 2.675
1.875 0.625 2.675
2 0.625 2.675
2.125 0.625 2.675
2.25 0.625 2.675
2.375 0.625 2.675
2.5 0.625 2.675
2.625 0.625 2.675
2.75 0.625 2.675
2.875 0.625 2.675
3 0.625 2.675
3.125 0.625 2.675
3.25 0.625 2.675
3.375 0.625 2.675
3.5 0.625 2.675
3.625 0.625 2.675
3.75 0.625 2.675
3.875 0.625 2.675
4 0.625 2.675
0 0.75 2.675
0.125 0.75 2.675
0.25 0.75 2.675
0.375 0.75 2.675
0.5 0.75 2.675
0.625 0.75 2.675
0.75 0.75 2.675
0.875 0.75 2.675
1 0.75 2.675
1.125 0.75 2.675
1.25 0.75 2.675
1.375 0.75 2.675
1.5 0.75 2.675
1.625 0.75 2.675
1.75 0.75 2.675
1.875 0.75 2.675
2 0.75 2.675
2.125 0.75 2.675
2.25 0.75 2.675
2.375 0.75 2.675
2.5 0.75 2.675
2.625 0.75 2.675
2.75 0.75 2.675
2.875 0.75 2.675
3 0.75 2.675
3.125 0.75 2.675
3.25 0.75 2.675
3.375 0.75 2.675
3.5 0.75 2.675
3.625 0.75 2.675
3.75 0.75 2.675
3.875 0.75 2.675
4 0.75 2.675
0 0.875 2.675
0.125 0.875 2.675
0.25 0.875 2.675
0.375 0.875 2.675
0.5 0.875 2.675
0.625 0.875 2.675
0.75 0.875 2.675
0.875 0.875 2.675
1 0.875 2.675
1.125 0.875 2.675
1.25 0.875 2.675
1.375 0.875 2.675
1.5 0.875 2.675
1.625 0.875 2.675
1.75 0.875 2.675
1.875 0.875 2.675
2 0.875 2.675
2.125 0.875 2.675
2.25 0.875 2.675
2.375 0.875 2.675
2.5 0.875 2.675
2.625 0.875 2.675
2.75 0.875 2.675
2.875 0.875 2.675
3 0.875 2.675
3.125 0.875 2.675
3.25 0.875 2.675
3.375 0.875 2.675
3.5 0.875 2.675
3.625 0.875 2.675
3.75 0.875 2.675
3.875 0.875 2.675
4 0.875 2.675
0 1 2.675
0.125 1 2.675
0.25 1 2.675
0.375 1 2.675
0.5 1 2.675
0.625 1 2.675
0.75 1 2.675
0.875 1 2.675
1 1 2.675
1.125 1 2.675
1.25 1 2.675
1.375 1 2.675
1.5 1 2.675
1.625 1 2.675
1.75 1 2.675
1.875 1 2.675
2 1 2.675
2.125 1 2.675
2.25 1 2.675
2.375 1 2.675
2.5 1 2.675
2.625 1 2.675
2.75 1 2.675
2.875 1 2.675
3 1 2.675
3.125 1 2.675
3.25 1 2.675
3.375 1 2.675
3.5 1 2.675
3.625 1 2.675
3.75 1 2.675
3.875 1 2.675
4 1 2.675
0 0 2.8
0.125 0 2.8
0.25 0 2.8
0.375 0 2.8
0.5 0 2.8
0.625 0 2.8
0.75 0 2.8
0.875 0 2.8
1 0 2.8
1.125 0 2.8
1.25 0 2.8
1.375 0 2.8
1.5 0 2.8
1.625 0 2.8
1.75 0 2.8
1.875 0 2.8
2 0 2.8
2.125 0 2.8
2.25 0 2.8
2.375 0 2.8
2.5 0 2.8
2.625 0 2.8
2.75 0 2.8
2.875 0 2.8
3 0 2.8
3.125 0 2.8
3.25 0 2.8
3.375 0 2.8
3.5 0 2.8
3.625 0 2.8
3.75 0 2.8
3.875 0 2.8
4 0 2.8
0 0.125 2.8
0.125 0.125 2.8
0.25 0.125 2.8
0.375 0.125 2.8
0.5 0.125 2.8
0.625 0.125 2.8
0.75 0.125 2.8
0.875 0.125 2.8
1 0.125 2.8
1.125 0.125 2.8
1.25 0.125 2.8
1.375 0.125 2.8
1.5 0.125 2.8
1.625 0.125 2.8
1.75 0.125 2.8
1.875 0.125 2.8
2 0.125 2.8
2.125 0.125 2.8
2.25 0.125 2.8
2.375 0.125 2.8
2.5 0.125 2.8
2.625 0.125 2.8
2.75 0.125 2.8
2.875 0.125 2.8
3 0.125 2.8
3.125 0.125 2.8
3.25 0.125 2.8
3.375 0.125 2.8
3.5 0.125 2.8
3.625 0.125 2.8
3.75 0.125 2.8
3.875 0.125 2.8
4 0.125 2.8
0 0.25 2.8
0.125 0.25 2.8
0.25 0.25 2.8
0.375 0.25 2.8
0.5 0.25 2.8
0.625 0.25 2.8
0.75 0.25 2.8
0.875 0.25 2.8
1 0.25 2.8
1.125 0.25 2.8
1.25 0.25 2.8
1.375 0.25 2.8
1.5 0.25 2.8
1.625 0.25 2.8
1.75 0.25 2.8
1.875 0.25 2.8
2 0.25 2.8
2.125 0.25 2.8
2.25 0.25 2.8
2.375 0.25 2.8
2.5 0.25 2.8
2.625 0.25 2.8
2.75 0.25 2.8
2.875 0.25 2.8
3 0.25 2.8
3.125 0.25 2.8
3.25 0.25 2.8
3.375 0.25 2.8
3.5 0.25 2.8
3.625 0.25 2.8
3.75 0.25 2.8
3.875 0.25 2.8
4 0.25 2.8
0 0.375 2.8
0.125 0.375 2.8
0.25 0.375 2.8
0.375 0.375 2.8
0.5 0.375 2.8
0.625 0.375 2.8
0.75 0.375 2.8
0.875 0.375 2.8
1 0.375 2.8
1.125 0.375 2.8
1.25 0.375 2.8
1.375 0.375 2.8
1.5 0.375 2.8
1.625 0.375 2.8
1.75 0.375 2.8
1.875 0.375 2.8
2 0.375 2.8
2.125 0.375 2.8
2.25 0.375 2.8
2.375 0.375 2.8
2.5 0.375 2.8
2.625 0.375 2.8
2.75 0.375 2.8
2.875 0.375 2.8
3 0.375 2.8
3.125 0.375 2.8
3.25 0.375 2.8
3.375 0.375 2.8
3.5 0.375 2.8
3.625 0.375 2.8
3.75 0.375 2.8
3.875 0.375 2.8
4 0.375 2.8
0 0.5 2.8
0.125 0.5 2.8
0.25 0.5 2.8
0.375 0.5 2.8
0.5 0.5 2.8
0.625 0.5 2.8
0.75 0.5 2.8
0.875 0.5 2.8
1 0.5 2.8
1.125 0.5 2.8
1.25 0.5 2.8
1.375 0.5 2.8
1.5 0.5 2.8
1.625 0.5 2.8
1.75 0.5 2.8
1.875 0.5 2.8
2 0.5 2.8
2.125 0.5 2.8
2.25 0.5 2.8
2.375 0.5 2.8
2.5 0.5 2.8
2.625 0.5 2.8
2.75 0.5 2.8
2.875 0.5 2.8
3 0.5 2.8
3.125 0.5 2.8
3.25 0.5 2.8
3.375 0.5 2.8
3.5 0.5 2.8
3.625 0.5 2.8
3.75 0.5 2.8
3.875 0.5 2.8
4 0.5 2.8
0 0.625 2.8
0.125 0.625 2.8
0.25 0.625 2.8
0.375 0.625 2.8
0.5 0.625 2.8
0.625 0.625 2.8
0.75 0.625 2.8
0.875 0.625 2.8
1 0.625 2.8
1.125 0.625 2.8
1.25 0.625 2.8
1.375 0.625 2.8
1.5 0.625 2.8
1.625 0.625 2.8
1.75 0.625 2.8
1.875 0.625 2.8
2 0.625 2.8
2.125 0.625 2.8
2.25 0.625 2.8
2.375 0.625 2.8
2.5 0.625 2.8
2.625 0.625 2.8
2.75 0.625 2.8
2.875 0.625 2.8
3 0.625 2.8
3.125 0.625 2.8
3.25 0.625 2.8
3.375 0.625 2.8
3.5 0.625 2.8
3.625 0.625 2.8
3.75 0.625 2.8
3.875 0.625 2.8
4 0.625 2.8
0 0.75 2.8
0.125 0.75 2.8
0.25 0.75 2.8
0.375 0.75 2.8
0.5 0.75 2.8
0.625 0.75 2.8
0.75 0.75 2.8
0.875 0.75 2.8
1 0.75 2.8
1.125 0.75 2.8
1.25 0.75 2.8
1.375 0.75 2.8
1.5 0.75 2.8
1.625 0.75 2.8
1.75 0.75 2.8
1.875 0.75 2.8
2 0.75 2.8
2.125 0.75 2.8
2.25 0.75 2.8
2.375 0.75 2.8
2.5 0.75 2.8
2.625 0.75 2.8
2.75 0.75 2.8
2.875 0.75 2.8
3 0.75 2.8
3.125 0.75 2.8
3.25 0.75 2.8
3.375 0.75 2.8
3.5 0.75 2.8
3.625 0.75 2.8
3.75 0.75 2.8
3.875 0.75 2.8
4 0.75 2.8
0 0.875 2.8
0.125 0.875 2.8
0.25 0.875 2.8
0.375 0.875 2.8
0.5 0.875 2.8
0.625 0.875 2.8
0.75 0.875 2.8
0.875 0.875 2.8
1 0.875 2.8
1.125 0.875 2.8
1.25 0.875 2.8
1.375 0.875 2.8
1.5 0.875 2.8
1.625 0.875 2.8
1.75 0.875 2.8
1.875 0.875 2.8
2 0.875 2.8
2.125 0.875 2.8
2.25 0.875 2.8
2.375 0.875 2.8
2.5 0.875 2.8
2.625 0.875 2.8
2.75 0.875 2.8
2.875 0.875 2.8
3 0.875 2.8
3.125 0.875 2.8
3.25 0.875 2.8
3.375 0.875 2.8
3.5 0.875 2.8
3.625 0.875 2.8
3.75 0.875 2.8
3.875 0.875 2.8
4 0.875 2.8
0 1 2.8
0.125 1 2.8
0.25 1 2.8
0.375 1 2.8
0.5 1 2.8
0.625 1 2.8
0.75 1 2.8
0.875 1 2.8
1 1 2.8
1.125 1 2.8
1.25 1 2.8
1.375 1 2.8
1.5 1 2.8
1.625 1 2.8
1.75 1 2.8
1.875 1 2.8
2 1 2.8
2.125 1 2.8
2.25 1 2.8
2.375 1 2.8
2.5 1 2.8
2.625 1 2.8
2.75 1 2.8
2.875 1 2.8
3 1 2.8
3.125 1 2.8
3.25 1 2.8
3.375 1 2.8
3.5 1 2.8
3.625 1 2.8
3.75 1 2.8
3.875 1 2.8
4 1 2.8
0 0 2.925
0.125 0 2.925
0.25 0 2.925
0.375 0 2.925
0.5 0 2.925
0.625 0 2.925
0.75 0 2.925
0.875 0 2.925
1 0 2.925
1.125 0 2.925
1.25 0 2.925
1.375 0 2.925
1.5 0 2.925
1.625 0 2.925
1.75 0 2.925
1.875 0 2.925
2 0 2.925
2.125 0 2.925
2.25 0 2.925
2.375 0 2.925
2.5 0 2.925
2.625 0 2.925
2.75 0 2.925
2.875 0 2.925
3 0 2.925
3.125 0 2.925
3.25 0 2.925
3.375 0 2.925
3.5 0 2.925
3.625 0 2.925
3.75 0 2.925
3.875 0 2.925
4 0 2.925
0 0.125 2.925
0.125 0.125 2.925
0.25 0.125 2.925
0.375 0.125 2.925
0.5 0.125 2.925
0.625 0.125 2.925
0.75 0.125 2.925
0.875 0.125 2.925
1 0.125 2.925
1.125 0.125 2.925
1.25 0.125 2.925
1.375 0.125 2.925
1.5 0.125 2.925
1.625 0.125 2.925
1.75 0.125 2.925
1.875 0.125 2.925
2 0.125 2.925
2.125 0.125 2.925
2.25 0.125 2.925
2.375 0.125 2.925
2.5 0.125 2.925
2.625 0.125 2.925
2.75 0.125 2.925
2.875 0.125 2.925
3 0.125 2.925
3.125 0.125 2.925
3.25 0.125 2.925
3.375 0.125 2.925
3.5 0.125 2.925
3.625 0.125 2.925
3.75 0.125 2.925
3.875 0.125 2.925
4 0.125 2.925
0 0.25 2.925
0.125 0.25 2.925
0.25 0.25 2.925
0.375 0.25 2.925
0.5 0.25 2.925
0.625 0.25 2.925
0.75 0.25 2.925
0.875 0.25 2.925
1 0.25 2.925
1.125 0.25 2.925
1.25 0.25 2.925
1.375 0.25 2.925
1.5 0.25 2.925
1.625 0.25 2.925
1.75 0.25 2.925
1.875 0.25 2.925
2 0.25 2.925
2.125 0.25 2.925
2.25 0.25 2.925
2.375 0.25 2.925
2.5 0.25 2.925
2.625 0.25 2.925
2.75 0.25 2.925
2.875 0.25 2.925
3 0.25 2.925
3.125 0.25 2.925
3.25 0.25 2.925
3.375 0.25 2.925
3.5 0.25 2.925
3.625 0.25 2.925
3.75 0.25 2.925
3.875 0.25 2.925
4 0.25 2.925
0 0.375 2.925
0.125 0.375 2.925
0.25 0.375 2.925
0.375 0.375 2.925
0.5 0.375 2.925
0.625 0.375 2.925
0.75 0.375 2.925
0.875 0.375 2.925
1 0.375 2.925
1.125 0.375 2.925
1.25 0.375 2.925
1.375 0.375 2.925
1.5 0.375 2.925
1.625 0.375 2.925
1.75 0.375 2.925
1.875 0.375 2.925
2 0.375 2.925
2.125 0.375 2.925
2.25 0.375 2.925
2.375 0.375 2.925
2.5 0.375 2.925
2.625 0.375 2.925
2.75 0.375 2.925
2.875 0.375 2.925
3 0.375 2.925
3.125 0.375 2.925
3.25 0.375 2.925
3.375 0.375 2.925
3.5 0.375 2.925
3.625 0.375 2.925
3.75 0.375 2.925
3.875 0.375 2.925
4 0.375 2.925
0 0.5 2.925
0.125 0.5 2.925
0.25 0.5 2.925
0.375 0.5 2.925
0.5 0.5 2.925
0.625 0.5 2.925
0.75 0.5 2.925
0.875 0.5 2.925
1 0.5 2.925
1.125 0.5 2.925
1.25 0.5 2.925
1.375 0.5 2.925
1.5 0.5 2.925
1.625 0.5 2.925
1.75 0.5 2.925
1.875 0.5 2.925
2 0.5 2.925
2.125 0.5 2.925
2.25 0.5 2.925
2.375 0.5 2.925
2.5 0.5 2.925
2.625 0.5 2.925
2.75 0.5 2.925
2.875 0.5 2.925
3 0.5 2.925
3.125 0.5 2.925
3.25 0.5 2.925
3.375 0.5 2.925
3.5 0.5 2.925
3.625 0.5 2.925
3.75 0.5 2.925
3.875 0.5 2.925
4 0.5 2.925
0 0.625 2.925
0.125 0.625 2.925
0.25 0.625 2.925
0.375 0.625 2.925
0.5 0.625 2.925
0.625 0.625 2.925
0.75 0.625 2.925
0.875 0.625 2.925
1 0.625 2.925
1.125 0.625 2.925
1.25 0.625 2.925
1.375 0.625 2.925
1.5 0.625 2.925
1.625 0.625 2.925
1.75 0.625 2.925
1.875 0.625 2.925
2 0.625 2.925
2.125 0.625 2.925
2.25 0.625 2.925
2.375 0.625 2.925
2.5 0.625 2.925
2.625 0.625 2.925
2.75 0.625 2.925
2.875 0.625 2.925
3 0.625 2.925
3.125 0.625 2.925
3.25 0.625 2.925
3.375 0.625 2.925
3.5 0.625 2.925
3.625 0.625 2.925
3.75 0.625 2.925
3.875 0.625 2.925
4 0.625 2.925
0 0.75 2.925
0.125 0.75 2.925
0.25 0.75 2.925
0.375 0.75 2.925
0.5 0.75 2.925
0.625 0.75 2.925
0.75 0.75 2.925
0.875 0.75 2.925
1 0.75 2.925
1.125 0.75 2.925
1.25 0.75 2.925
1.375 0.75 2.925
1.5 0.75 2.925
1.625 0.75 2.925
1.75 0.75 2.925
1.875 0.75 2.925
2 0.75 2.925
2.125 0.75 2.925
2.25 0.75 2.925
2.375 0.75 2.925
2.5 0.75 2.925
2.625 0.75 2.925
2.75 0.75 2.925
2.875 0.75 2.925
3 0.75 2.925
3.125 0.75 2.925
3.25 0.75 2.925
3.375 0.75 2.925
3.5 0.75 2.925
3.625 0.75 2.925
3.75 0.75 2.925
3.875 0.75 2.925
4 0.75 2.925
0 0.875 2.925
0.125 0.875 2.925
0.25 0.875 2.925
0.375 0.875 2.925
0.5 0.875 2.925
0.625 0.875 2.925
0.75 0.875 2.925
0.875 0.875 2.925
1 0.875 2.925
1.125 0.875 2.925
1.25 0.875 2.925
1.375 0.875 2.925
1.5 0.875 2.925
1.625 0.875 2.925
1.75 0.875 2.925
1.875 0.875 2.925
2 0.875 2.925
2.125 0.875 2.925
2.25 0.875 2.925
2.375 0.875 2.925
2.5 0.875 2.925
2.625 0.875 2.925
2.75 0.875 2.925
2.875 0.875 2.925
3 0.875 2.925
3.125 0.875 2.925
3.25 0.875 2.925
3.375 0.875 2.925
3.5 0.875 2.925
3.625 0.875 2.925
3.75 0.875 2.925
3.875 0.875 2.925
4 0.875 2.925
0 1 2.925
0.125 1 2.925
0.25 1 2.925
0.375 1 2.925
0.5 1 2.925
0.625 1 2.925
0.75 1 2.925
0.875 1 2.925
1 1 2.925
1.125 1 2.925
1.25 1 2.925
1.375 1 2.925
1.5 1 2.925
1.625 1 2.925
1.75 1 2.925
1.875 1 2.925
2 1 2.925
2.125 1 2.925
2.25 1 2.925
2.375 1 2.925
2.5 1 2.925
2.625 1 2.925
2.75 1 2.925
2.875 1 2.925
3 1 2.925
3.125 1 2.925
3.25 1 2.925
3.375 1 2.925
3.5 1 2.925
3.625 1 2.925
3.75 1 2.925
3.875 1 2.925
4 1 2.925
0 0 3.05
0.125 0 3.05
0.25 0 3.05
0.375 0 3.05
0.5 0 3.05
0.625 0 3.05
0.75 0 3.05
0.875 0 3.05
1 0 3.05
1.125 0 3.05
1.25 0 3.05
1.375 0 3.05
1.5 0 3.05
1.625 0 3.05
1.75 0 3.05
1.875 0 3.05
2 0 3.05
2.125 0 3.05
2.25 0 3.05
2.375 0 3.05
2.5 0 3.05
2.625 0 3.05
2.75 0 3.05
2.875 0 3.05
3 0 3.05
3.125 0 3.05
3.25 0 3.05
3.375 0 3.05
3.5 0 3.05
3.625 0 3.05
3.75 0 3.05
3.875 0 3.05
4 0 3.05
0 0.125 3.05
0.125 0.125 3.05
0.25 0.125 3.05
0.375 0.125 3.05
0.5 0.125 3.05
0.625 0.125 3.05
0.75 0.125 3.05
0.875 0.125 3.05
1 0.125 3.05
1.125 0.125 3.05
1.25 0.125 3.05
1.375 0.125 3.05
1.5 0.125 3.05
1.625 0.125 3.05
1.75 0.125 3.05
1.875 0.125 3.05
2 0.125 3.05
2.125 0.125 3.05
2.25 0.125 3.05
2.375 0.125 3.05
2.5 0.125 3.05
2.625 0.125 3.05
2.75 0.125 3.05
2.875 0.125 3.05
3 0.125 3.05
3.125 0.125 3.05
3.25 0.125 3.05
3.375 0.125 3.05
3.5 0.125 3.05
3.625 0.125 3.05
3.75 0.125 3.05
3.875 0.125 3.05
4 0.125 3.05
0 0.25 3.05
0.125 0.25 3.05
0.25 0.25 3.05
0.375 0.25 3.05
0.5 0.25 3.05
0.625 0.25 3.05
0.75 0.25 3.05
0.875 0.25 3.05
1 0.25 3.05
1.125 0.25 3.05
1.25 0.25 3.05
1.375 0.25 3.05
1.5 0.25 3.05
1.625 0.25 3.05
1.75 0.25 3.05
1.875 0.25 3.05
2 0.25 3.05
2.125 0.25 3.05
2.25 0.25 3.05
2.375 0.25 3.05
2.5 0.25 3.05
2.625 0.25 3.05
2.75 0.25 3.05
2.875 0.25 3.05
3 0.25 3.05
3.125 0.25 3.05
3.25 0.25 3.05
3.375 0.25 3.05
3.5 0.25 3.05
3.625 0.25 3.05
3.75 0.25 3.05
3.875 0.25 3.05
4 0.25 3.05
0 0.375 3.05
0.125 0.375 3.05
0.25 0.375 3.05
0.375 0.375 3.05
0.5 0.375 3.05
0.625 0.375 3.05
0.75 0.375 3.05
0.875 0.375 3.05
1 0.375 3.05
1.125 0.375 3.05
1.25 0.375 3.05
1.375 0.375 3.05
1.5 0.375 3.05
1.625 0.375 3.05
1.75 0.375 3.05
1.875 0.375 3.05
2 0.375 3.05
2.125 0.375 3.05
2.25 0.375 3.05
2.375 0.375 3.05
2.5 0.375 3.05
2.625 0.375 3.05
2.75 0.375 3.05
2.875 0.375 3.05
3 0.375 3.05
3.125 0.375 3.05
3.25 0.375 3.05
3.375 0.375 3.05
3.5 0.375 3.05
3.625 0.375 3.05
3.75 0.375 3.05
3.875 0.375 3.05
4 0.375 3.05
0 0.5 3.05
0.125 0.5 3.05
0.25 0.5 3.05
0.375 0.5 3.05
0.5 0.5 3.05
0.625 0.5 3.05
0.75 0.5 3.05
0.875 0.5 3.05
1 0.5 3.05
1.125 0.5 3.05
1.25 0.5 3.05
1.375 0.5 3.05
1.5 0.5 3.05
1.625 0.5 3.05
1.75 0.5 3.05
1.875 0.5 3.05
2 0.5 3.05
2.125 0.5 3.05
2.25 0.5 3.05
2.375 0.5 3.05
2.5 0.5 3.05
2.625 0.5 3.05
2.75 0.5 3.05
2.875 0.5 3.05
3 0.5 3.05
3.125 0.5 3.05
3.25 0.5 3.05
3.375 0.5 3.05
3.5 0.5 3.05
3.625 0.5 3.05
3.75 0.5 3.05
3.875 0.5 3.05
4 0.5 3.05
0 0.625 3.05
0.125 0.625 3.05
0.25 0.625 3.05
0.375 0.625 3.05
0.5 0.625 3.05
0.625 0.625 3.05
0.75 0.625 3.05
0.875 0.625 3.05
1 0.625 3.05
1.125 0.625 3.05
1.25 0.625 3.05
1.375 0.625 3.05
1.5 0.625 3.05
1.625 0.625 3.05
1.75 0.625 3.05
1.875 0.625 3.05
2 0.625 3.05
2.125 0.625 3.05
2.25 0.625 3.05
2.375 0.625 3.05
2.5 0.625 3.05
2.625 0.625 3.05
2.75 0.625 3.05
2.875 0.625 3.05
3 0.625 3.05
3.125 0.625 3.05
3.25 0.625 3.05
3.375 0.625 3.05
3.5 0.625 3.05
3.625 0.625 3.05
3.75 0.625 3.05
3.875 0.625 3.05
4 0.625 3.05
0 0.75 3.05
0.125 0.75 3.05
0.25 0.75 3.05
0.375 0.75 3.05
0.5 0.75 3.05
0.625 0.75 3.05
0.75 0.75 3.05
0.875 0.75 3.05
1 0.75 3.05
1.125 0.75 3.05
1.25 0.75 3.05
1.375 0.75 3.05
1.5 0.75 3.05
1.625 0.75 3.05
1.75 0.75 3.05
1.875 0.75 3.05
2 0.75 3.05
2.125 0.75 3.05
2.25 0.75 3.05
2.375 0.75 3.05
2.5 0.75 3.05
2.625 0.75 3.05
2.75 0.75 3.05
2.875 0.75 3.05
3 0.75 3.05
3.125 0.75 3.05
3.25 0.75 3.05
3.375 0.75 3.05
3.5 0.75 3.05
3.625 0.75 3.05
3.75 0.75 3.05
3.875 0.75 3.05
4 0.75 3.05
0 0.875 3.05
0.125 0.875 3.05
0.25 0.875 3.05
0.375 0.875 3.05
0.5 0.875 3.05
0.625 0.875 3.05
0.75 0.875 3.05
0.875 0.875 3.05
1 0.875 3.05
1.125 0.875 3.05
1.25 0.875 3.05
1.375 0.875 3.05
1.5 0.875 3.05
1.625 0.875 3.05
1.75 0.875 3.05
1.875 0.875 3.05
2 0.875 3.05
2.125 0.875 3.05
2.25 0.875 3.05
2.375 0.875 3.05
2.5 0.875 3.05
2.625 0.875 3.05
2.75 0.875 3.05
2.875 0.875 3.05
3 0.875 3.05
3.125 0.875 3.05
3.25 0.875 3.05
3.375 0.875 3.05
3.5 0.875 3.05
3.625 0.875 3.05
3.75 0.875 3.05
3.875 0.875 3.05
4 0.875 3.05
0 1 3.05
0.125 1 3.05
0.25 1 3.05
0.375 1 3.05
0.5 1 3.05
0.625 1 3.05
0.75 1 3.05
0.875 1 3.05
1 1 3.05
1.125 1 3.05
1.25 1 3.05
1.375 1 3.05
1.5 1 3.05
1.625 1 3.05
1.75 1 3.05
1.875 1 3.05
2 1 3.05
2.125 1 3.05
2.25 1 3.05
2.375 1 3.05
2.5 1 3.05
2.625 1 3.05
2.75 1 3.05
2.875 1 3.05
3 1 3.05
3.125 1 3.05
3.25 1 3.05
3.375 1 3.05
3.5 1 3.05
3.625 1 3.05
3.75 1 3.05
3.875 1 3.05
4 1 3.05
0 0 3.175
0.125 0 3.175
0.25 0 3.175
0.375 0 3.175
0.5 0 3.175
0.625 0 3.175
0.75 0 3.175
0.875 0 3.175
1 0 3.175
1.125 0 3.175
1.25 0 3.175
1.375 0 3.175
1.5 0 3.175
1.625 0 3.175
1.75 0 3.175
1.875 0 3.175
2 0 3.175
2.125 0 3.175
2.25 0 3.175
2.375 0 3.175
2.5 0 3.175
2.625 0 3.175
2.75 0 3.175
2.875 0 3.175
3 0 3.175
3.125 0 3.175
3.25 0 3.175
3.375 0 3.175
3.5 0 3.175
3.625 0 3.175
3.75 0 3.175
3.875 0 3.175
4 0 3.175
0 0.125 3.175
0.125 0.125 3.175
0.25 0.125 3.175
0.375 0.125 3.175
0.5 0.125 3.175
0.625 0.125 3.175
0.75 0.125 3.175
0.875 0.125 3.175
1 0.125 3.175
1.125 0.125 3.175
1.25 0.125 3.175
1.375 0.125 3.175
1.5 0.125 3.175
1.625 0.125 3.175
1.75 0.125 3.175
1.875 0.125 3.175
2 0.125 3.175
2.125 0.125 3.175
2.25 0.125 3.175
2.375 0.125 3.175
2.5 0.125 3.175
2.625 0.125 3.175
2.75 0.125 3.175
2.875 0.125 3.175
3 0.125 3.175
3.125 0.125 3.175
3.25 0.125 3.175
3.375 0.125 3.175
3.5 0.125 3.175
3.625 0.125 3.175
3.75 0.125 3.175
3.875 0.125 3.175
4 0.125 3.175
0 0.25 3.175
0.125 0.25 3.175
0.25 0.25 3.175
0.375 0.25 3.175
0.5 0.25 3.175
0.625 0.25 3.175
0.75 0.25 3.175
0.875 0.25 3.175
1 0.25 3.175
1.125 0.25 3.175
1.25 0.25 3.175
1.375 0.25 3.175
1.5 0.25 3.175
1.625 0.25 3.175
1.75 0.25 3.175
1.875 0.25 3.175
2 0.25 3.175
2.125 0.25 3.175
2.25 0.25 3.175
2.375 0.25 3.175
2.5 0.25 3.175
2.625 0.25 3.175
2.75 0.25 3.175
2.875 0.25 3.175
3 0.25 3.175
3.125 0.25 3.175
3.25 0.25 3.175
3.375 0.25 3.175
3.5 0.25 3.175
3.625 0.25 3.175
3.75 0.25 3.175
3.875 0.25 3.175
4 0.25 3.175
0 0.375 3.175
0.125 0.375 3.175
0.25 0.375 3.175
0.375 0.375 3.175
0.5 0.375 3.175
0.625 0.375 3.175
0.75 0.375 3.175
0.875 0.375 3.175
1 0.375 3.175
1.125 0.375 3.175
1.25 0.375 3.175
1.375 0.375 3.175
1.5 0.375 3.175
1.625 0.375 3.175
1.75 0.375 3.175
1.875 0.375 3.175
2 0.375 3.175
2.125 0.375 3.175
2.25 0.375 3.175
2.375 0.375 3.175
2.5 0.375 3.175
2.625 0.375 3.175
2.75 0.375 3.175
2.875 0.375 3.175
3 0.375 3.175
3.125 0.375 3.175
3.25 0.375 3.175
3.375 0.375 3.175
3.5 0.375 3.175
3.625 0.375 3.175
3.75 0.375 3.175
3.875 0.375 3.175
4 0.375 3.175
0 0.5 3.175
0.125 0.5 3.175
0.25 0.5 3.175
0.375 0.5 3.175
0.5 0.5 3.175
0.625 0.5 3.175
0.75 0.5 3.175
0.875 0.5 3.175
1 0.5 3.175
1.125 0.5 3.175
1.25 0.5 3.175
1.375 0.5 3.175
1.5 0.5 3.175
1.625 0.5 3.175
1.75 0.5 3.175
1.875 0.5 3.175
2 0.5 3.175
2.125 0.5 3.175
2.25 0.5 3.175
2.375 0.5 3.175
2.5 0.5 3.175
2.625 0.5 3.175
2.75 0.5 3.175
2.875 0.5 3.175
3 0.5 3.175
3.125 0.5 3.175
3.25 0.5 3.175
3.375 0.5 3.175
3.5 0.5 3.175
3.625 0.5 3.175
3.75 0.5 3.175
3.875 0.5 3.175
4 0.5 3.175
0 0.625 3.175
0.125 0.625 3.175
0.25 0.625 3.175
0.375 0.625 3.175
0.5 0.625 3.175
0.625 0.625 3.175
0.75 0.625 3.175
0.875 0.625 3.175
1 0.625 3.175
1.125 0.625 3.175
1.25 0.625 3.175
1.375 0.625 3.175
1.5 0.625 3.175
1.625 0.625 3.175
1.75 0.625 3.175
1.875 0.625 3.175
2 0.625 3.175
2.125 0.625 3.175
2.25 0.625 3.175
2.375 0.625 3.175
2.5 0.625 3.175
2.625 0.625 3.175
2.75 0.625 3.175
2.875 0.625 3.175
3 0.625 3.175
3.125 0.625 3.175
3.25 0.625 3.175
3.375 0.625 3.175
3.5 0.625 3.175
3.625 0.625 3.175
3.75 0.625 3.175
3.875 0.625 3.175
4 0.625 3.175
0 0.75 3.175
0.125 0.75 3.175
0.25 0.75 3.175
0.375 0.75 3.175
0.5 0.75 3.175
0.625 0.75 3.175
0.75 0.75 3.175
0.875 0.75 3.175
1 0.75 3.175
1.125 0.75 3.175
1.25 0.75 3.175
1.375 0.75 3.175
1.5 0.75 3.175
1.625 0.75 3.175
1.75 0.75 3.175
1.875 0.75 3.175
2 0.75 3.175
2.125 0.75 3.175
2.25 0.75 3.175
2.375 0.75 3.175
2.5 0.75 3.175
2.625 0.75 3.175
2.75 0.75 3.175
2.875 0.75 3.175
3 0.75 3.175
3.125 0.75 3.175
3.25 0.75 3.175
3.375 0.75 3.175
3.5 0.75 3.175
3.625 0.75 3.175
3.75 0.75 3.175
3.875 0.75 3.175
4 0.75 3.175
0 0.875 3.175
0.125 0.875 3.175
0.25 0.875 3.175
0.375 0.875 3.175
0.5 0.875 3.175
0.625 0.875 3.175
0.75 0.875 3.175
0.875 0.875 3.175
1 0.875 3.175
1.125 0.875 3.175
1.25 0.875 3.175
1.375 0.875 3.175
1.5 0.875 3.175
1.625 0.875 3.175
1.75 0.875 3.175
1.875 0.875 3.175
2 0.875 3.175
2.125 0.875 3.175
2.25 0.875 3.175
2.375 0.875 3.175
2.5 0.875 3.175
2.625 0.875 3.175
2.75 0.875 3.175
2.875 0.875 3.175
3 0.875 3.175
3.125 0.875 3.175
3.25 0.875 3.175
3.375 0.875 3.175
3.5 0.875 3.175
3.625 0.875 3.175
3.75 0.875 3.175
3.875 0.875 3.175
4 0.875 3.175
0 1 3.175
0.125 1 3.175
0.25 1 3.175
0.375 1 3.175
0.5 1 3.175
0.625 1 3.175
0.75 1 3.175
0.875 1 3.175
1 1 3.175
1.125 1 3.175
1.25 1 3.175
1.375 1 3.175
1.5 1 3.175
1.625 1 3.175
1.75 1 3.175
1.875 1 3.175
2 1 3.175
2.125 1 3.175
2.25 1 3.175
2.375 1 3.175
2.5 1 3.175
2.625 1 3.175
2.75 1 3.175
2.875 1 3.175
3 1 3.175
3.125 1 3.175
3.25 1 3.175
3.375 1 3.175
3.5 1 3.175
3.625 1 3.175
3.75 1 3.175
3.875 1 3.175
4 1 3.175
0 0 3.3
0.125 0 3.3
0.25 0 3.3
0.375 0 3.3
0.5 0 3.3
0.625 0 3.3
0.75 0 3.3
0.875 0 3.3
1 0 3.3
1.125 0 3.3
1.25 0 3.3
1.375 0 3.3
1.5 0 3.3
1.625 0 3.3
1.75 0 3.3
1.875 0 3.3
2 0 3.3
2.125 0 3.3
2.25 0 3.3
2.375 0 3.3
2.5 0 3.3
2.625 0 3.3
2.75 0 3.3
2.875 0 3.3
3 0 3.3
3.125 0 3.3
3.25 0 3.3
3.375 0 3.3
3.5 0 3.3
3.625 0 3.3
3.75 0 3.3
3.875 0 3.3
4 0 3.3
0 0.125 3.3
0.125 0.125 3.3
0.25 0.125 3.3
0.375 0.125 3.3
0.5 0.125 3.3
0.625 0.125 3.3
0.75 0.125 3.3
0.875 0.125 3.3
1 0.125 3.3
1.125 0.125 3.3
1.25 0.125 3.3
1.375 0.125 3.3
1.5 0.125 3.3
1.625 0.125 3.3
1.75 0.125 3.3
1.875 0.125 3.3
2 0.125 3.3
2.125 0.125 3.3
2.25 0.125 3.3
2.375 0.125 3.3
2.5 0.125 3.3
2.625 0.125 3.3
2.75 0.125 3.3
2.875 0.125 3.3
3 0.125 3.3
3.125 0.125 3.3
3.25 0.125 3.3
3.375 0.125 3.3
3.5 0.125 3.3
3.625 0.125 3.3
3.75 0.125 3.3
3.875 0.125 3.3
4 0.125 3.3
0 0.25 3.3
0.125 0.25 3.3
0.25 0.25 3.3
0.375 0.25 3.3
0.5 0.25 3.3
0.625 0.25 3.3
0.75 0.25 3.3
0.875 0.25 3.3
1 0.25 3.3
1.125 0.25 3.3
1.25 0.25 3.3
1.375 0.25 3.3
1.5 0.25 3.3
1.625 0.25 3.3
1.75 0.25 3.3
1.875 0.25 3.3
2 0.25 3.3
2.125 0.25 3.3
2.25 0.25 3.3
2.375 0.25 3.3
2.5 0.25 3.3
2.625 0.25 3.3
2.75 0.25 3.3
2.875 0.25 3.3
3 0.25 3.3
3.125 0.25 3.3
3.25 0.25 3.3
3.375 0.25 3.3
3.5 0.25 3.3
3.625 0.25 3.3
3.75 0.25 3.3
3.875 0.25 3.3
4 0.25 3.3
0 0.375 3.3
0.125 0.375 3.3
0.25 0.375 3.3
0.375 0.375 3.3
0.5 0.375 3.3
0.625 0.375 3.3
0.75 0.375 3.3
0.875 0.375 3.3
1 0.375 3.3
1.125 0.375 3.3
1.25 0.375 3.3
1.375 0.375 3.3
1.5 0.375 3.3
1.625 0.375 3.3
1.75 0.375 3.3
1.875 0.375 3.3
2 0.375 3.3
2.125 0.375 3.3
2.25 0.375 3.3
2.375 0.375 3.3
2.5 0.375 3.3
2.625 0.375 3.3
2.75 0.375 3.3
2.875 0.375 3.3
3 0.375 3.3
3.125 0.375 3.3
3.25 0.375 3.3
3.375 0.375 3.3
3.5 0.375 3.3
3.625 0.375 3.3
3.75 0.375 3.3
3.875 0.375 3.3
4 0.375 3.3
0 0.5 3.3
0.125 0.5 3.3
0.25 0.5 3.3
0.375 0.5 3.3
0.5 0.5 3.3
0.625 0.5 3.3
0.75 0.5 3.3
0.875 0.5 3.3
1 0.5 3.3
1.125 0.5 3.3
1.25 0.5 3.3
1.375 0.5 3.3
1.5 0.5 3.3
1.625 0.5 3.3
1.75 0.5 3.3
1.875 0.5 3.3
2 0.5 3.3
2.125 0.5 3.3
2.25 0.5 3.3
2.375 0.5 3.3
2.5 0.5 3.3
2.625 0.5 3.3
2.75 0.5 3.3
2.875 0.5 3.3
3 0.5 3.3
3.125 0.5 3.3
3.25 0.5 3.3
3.375 0.5 3.3
3.5 0.5 3.3
3.625 0.5 3.3
3.75 0.5 3.3
3.875 0.5 3.3
4 0.5 3.3
0 0.625 3.3
0.125 0.625 3.3
0.25 0.625 3.3
0.375 0.625 3.3
0.5 0.625 3.3
0.625 0.625 3.3
0.75 0.625 3.3
0.875 0.625 3.3
1 0.625 3.3
1.125 0.625 3.3
1.25 0.625 3.3
1.375 0.625 3.3
1.5 0.625 3.3
1.625 0.625 3.3
1.75 0.625 3.3
1.875 0.625 3.3
2 0.625 3.3
2.125 0.625 3.3
2.25 0.625 3.3
2.375 0.625 3.3
2.5 0.625 3.3
2.625 0.625 3.3
2.75 0.625 3.3
2.875 0.625 3.3
3 0.625 3.3
3.125 0.625 3.3
3.25 0.625 3.3
3.375 0.625 3.3
3.5 0.625 3.3
3.625 0.625 3.3
3.75 0.625 3.3
3.875 0.625 3.3
4 0.625 3.3
0 0.75 3.3
0.125 0.75 3.3
0.25 0.75 3.3
0.375 0.75 3.3
0.5 0.75 3.3
0.625 0.75 3.3
0.75 0.75 3.3
0.875 0.75 3.3
1 0.75 3.3
1.125 0.75 3.3
1.25 0.75 3.3
1.375 0.75 3.3
1.5 0.75 3.3
1.625 0.75 3.3
1.75 0.75 3.3
1.875 0.75 3.3
2 0.75 3.3
2.125 0.75 3.3
2.25 0.75 3.3
2.375 0.75 3.3
2.5 0.75 3.3
2.625 0.75 3.3
2.75 0.75 3.3
2.875 0.75 3.3
3 0.75 3.3
3.125 0.75 3.3
3.25 0.75 3.3
3.375 0.75 3.3
3.5 0.75 3.3
3.625 0.75 3.3
3.75 0.75 3.3
3.875 0.75 3.3
4 0.75 3.3
0 0.875 3.3
0.125 0.875 3.3
0.25 0.875 3.3
0.375 0.875 3.3
0.5 0.875 3.3
0.625 0.875 3.3
0.75 0.875 3.3
0.875 0.875 3.3
1 0.875 3.3
1.125 0.875 3.3
1.25 0.875 3.3
1.375 0.875 3.3
1.5 0.875 3.3
1.625 0.875 3.3
1.75 0.875 3.3
1.875 0.875 3.3
2 0.875 3.3
2.125 0.875 3.3
2.25 0.875 3.3
2.375 0.875 3.3
2.5 0.875 3.3
2.625 0.875 3.3
2.75 0.875 3.3
2.875 0.875 3.3
3 0.875 3.3
3.125 0.875 3.3
3.25 0.875 3.3
3.375 0.875 3.3
3.5 0.875 3.3
3.625 0.875 3.3
3.75 0.875 3.3
3.875 0.875 3.3
4 0.875 3.3
0 1 3.3
0.125 1 3.3
0.25 1 3.3
0.375 1 3.3
0.5 1 3.3
0.625 1 3.3
0.75 1 3.3
0.875 1 3.3
1 1 3.3
1.125 1 3.3
1.25 1 3.3
1.375 1 3.3
1.5 1 3.3
1.625 1 3.3
1.75 1 3.3
1.875 1 3.3
2 1 3.3
2.125 1 3.3
2.25 1 3.3
2.375 1 3.3
2.5 1 3.3
2.625 1 3.3
2.75 1 3.3
2.875 1 3.3
3 1 3.3
3.125 1 3.3
3.25 1 3.3
3.375 1 3.3
3.5 1 3.3
3.625 1 3.3
3.75 1 3.3
3.875 1 3.3
4 1 3.3

CELLS 2049 16384
OFFSETS vtktypeint64
0 8 16 24 32 40 48 56 64 72 80 88 96 104 112 120 128 136 144 152 160 168 176 184 192 200 208 216 224 232 240 248 256 264 272 280 288 296 304 312 320 328 336 344 352 360 368 376 384 392 400 408 416 424 432 440 448 456 464 472 480 488 496 504 512 520 528 536 544 552 560 568 576 584 592 600 608 616 624 632 640 648 656 664 672 680 688 696 704 712 720 728 736 744 752 760 768 776 784 792 800 808 816 824 832 840 848 856 864 872 880 888 896 904 912 920 928 936 944 952 960 968 976 984 992 1000 1008 1016 1024 1032 1040 1048 1056 1064 1072 1080 1088 1096 1104 1112 1120 1128 1136 1144 1152 1160 1168 1176 1184 1192 1200 1208 1216 1224 1232 1240 1248 1256 1264 1272 1280 1288 1296 1304 1312 1320 1328 1336 1344 1352 1360 1368 1376 1384 1392 1400 1408 1416 1424 1432 1440 1448 1456 1464 1472 1480 1488 1496 1504 1512 1520 1528 1536 1544 1552 1560 1568 1576 1584 1592 1600 1608 1616 1624 1632 1640 1648 1656 1664 1672 1680 1688 1696 1704 1712 1720 1728 1736 1744 1752 1760 1768 1776 1784 1792 1800 1808 1816 1824 1832 1840 1848 1856 1864 1872 1880 1888 1896 1904 1912 1920 1928 1936 1944 1952 1960 1968 1976 1984 1992 2000 2008 2016 2024 2032 2040 2048 2056 2064 2072 2080 2088 2096 2104 2112 2120 2128 2136 2144 2152 2160 2168 2176 2184 2192 2200 2208 2216 2224 2232 2240 2248 2256 2264 2272 2280 2288 2296 2304 2312 2320 2328 2336 2344 2352 2360 2368 2376 2384 2392 2400 2408 2416 2424 2432 2440 2448 2456 2464 2472 2480 2488 2496 2504 2512 2520 2528 2536 2544 2552 2560 2568 2576 2584 2592 2600 2608 2616 2624 2632 2640 2648 2656 2664 2672 2680 2688 2696 2704 2712 2720 2728 2736 2744 2752 2760 2768 2776 2784 2792 2800 2808 2816 2824 2832 2840 2848 2856 2864 2872 2880 2888 2896 2904 2912 2920 2928 2936 2944 2952 2960 2968 2976 2984 2992 3000 3008 3016 3024 3032 3040 3048 3056 3064 3072 3080 3088 3096 3104 3112 3120 3128 3136 3144 3152 3160 3168 3176 3184 3192 3200 3208 3216 3224 3232 3240 3248 3256 3264 3272 3280 3288 3296 3304 3312 3320 3328 3336 3344 3352 3360 3368 3376 3384 3392 3400 3408 3416 3424 3432 3440 3448 3456 3464 3472 3480 3488 3496 3504 3512 3520 3528 3536 3544 3552 3560 3568 3576 3584 3592 3600 3608 3616 3624 3632 3640 3648 3656 3664 3672 3680 3688 3696 3704 3712 3720 3728 3736 3744 3752 3760 3768 3776 3784 3792 3800 3808 3816 3824 3832 3840 3848 3856 3864 3872 3880 3888 3896 3904 3912 3920 3928 3936 3944 3952 3960 3968 3976 3984 3992 4000 4008 4016 4024 4032 4040 4048 4056 4064 4072 4080 4088 4096 4104 4112 4120 4128 4136 4144 4152 4160 4168 4176 4184 4192 4200 4208 4216 4224 4232 4240 4248 4256 4264 4272 4280 4288 4296 4304 4312 4320 4328 4336 4344 4352 4360 4368 4376 4384 4392 4400 4408 4416 4424 4432 4440 4448 4456 4464 4472 4480 4488 4496 4504 4512 4520 4528 4536 4544 4552 4560 4568 4576 4584 4592 4600 4608 4616 4624 4632 4640 4648 4656 4664 4672 4680 4688 4696 4704 4712 4720 4728 4736 4744 4752 4760 4768 4776 4784 4792 4800 4808 4816 4824 4832 4840 4848 4856 4864 4872 4880 4888 4896 4904 4912 4920 4928 4936 4944 4952 4960 4968 4976 4984 4992 5000 5008 5016 5024 5032 5040 5048 5056 5064 5072 5080 5088 5096 5104 5112 5120 5128 5136 5144 5152 5160 5168 5176 5184 5192 5200 5208 5216 5224 5232 5240 5248 5256 5264 5272 5280 5288 5296 5304 5312 5320 5328 5336 5344 5352 5360 5368 5376 5384 5392 5400 5408 5416 5424 5432 5440 5448 5456 5464 5472 5480 5488 5496 5504 5512 5520 5528 5536 5544 5552 5560 5568 5576 5584 5592 5600 5608 5616 5624 5632 5640 5648 5656 5664 5672 5680 5688 5696 5704 5712 5720 5728 5736 5744 5752 5760 5768 5776 5784 5792 5800 5808 5816 5824 5832 5840 5848 5856 5864 5872 5880 5888 5896 5904 5912 5920 5928 5936 5944 5952 5960 5968 5976 5984 5992 6000 6008 6016 6024 6032 6040 6048 6056 6064 6072 6080 6088 6096 6104 6112 6120 6128 6136 6144 6152 6160 6168 6176 6184 6192 6200 6208 6216 6224 6232 6240 6248 6256 6264 6272 6280 6288 6296 6304 6312 6320 6328 6336 6344 6352 6360 6368 6376 6384 6392 6400 6408 6416 6424 6432 6440 6448 6456 6464 6472 6480 6488 6496 6504 6512 6520 6528 6536 6544 6552 6560 6568 6576 6584 6592 6600 6608 6616 6624 6632 6640 6648 6656 6664 6672 6680 6688 6696 6704 6712 6720 6728 6736 6744 6752 6760 6768 6776 6784 6792 6800 6808 6816 6824 6832 6840 6848 6856 6864 6872 6880 6888 6896 6904 6912 6920 6928 6936 6944 6952 6960 6968 6976 6984 6992 7000 7008 7016 7024 7032 7040 7048 7056 7064 7072 7080 7088 7096 7104 7112 7120 7128 7136 7144 7152 7160 7168 7176 7184 7192 7200 7208 7216 7224 7232 7240 7248 7256 7264 7272 7280 7288 7296 7304 7312 7320 7328 7336 7344 7352 7360 7368 7376 7384 7392 7400 7408 7416 7424 7432 7440 7448 7456 7464 7472 7480 7488 7496 7504 7512 7520 7528 7536 7544 7552 7560 7568 7576 7584 7592 7600 7608 7616 7624 7632 7640 7648 7656 7664 7672 7680 7688 7696 7704 7712 7720 7728 7736 7744 7752 7760 7768 7776 7784 7792 7800 7808 7816 7824 7832 7840 7848 7856 7864 7872 7880 7888 7896 7904 7912 7920 7928 7936 7944 7952 7960 7968 7976 7984 7992 8000 8008 8016 8024 8032 8040 8048 8056 8064 8072 8080 8088 8096 8104 8112 8120 8128 8136 8144 8152 8160 8168 8176 8184 8192 8200 8208 8216 8224 8232 8240 8248 8256 8264 8272 8280 8288 8296 8304 8312 8320 8328 8336 8344 8352 8360 8368 8376 8384 8392 8400 8408 8416 8424 8432 8440 8448 8456 8464 8472 8480 8488 8496 8504 8512 8520 8528 8536 8544 8552 8560 8568 8576 8584 8592 8600 8608 8616 8624 8632 8640 8648 8656 8664 8672 8680 8688 8696 8704 8712 8720 8728 8736 8744 8752 8760 8768 8776 8784 8792 8800 8808 8816 8824 8832 8840 8848 8856 8864 8872 8880 8888 8896 8904 8912 8920 8928 8936 8944 8952 8960 8968 8976 8984 8992 9000 9008 9016 9024 9032 9040 9048 9056 9064 9072 9080 9088 9096 9104 9112 9120 9128 9136 9144 9152 9160 9168 9176 9184 9192 9200 9208 9216 9224 9232 9240 9248 9256 9264 9272 9280 9288 9296 9304 9312 9320 9328 9336 9344 9352 9360 9368 9376 9384 9392 9400 9408 9416 9424 9432 9440 9448 9456 9464 9472 9480 9488 9496 9504 9512 9520 9528 9536 9544 9552 9560 9568 9576 9584 9592 9600 9608 9616 9624 9632 9640 9648 9656 9664 9672 9680 9688 9696 9704 9712 9720 9728 9736 9744 9752 9760 9768 9776 9784 9792 9800 9808 9816 9824 9832 9840 9848 9856 9864 9872 9880 9888 9896 9904 9912 9920 9928 9936 9944 9952 9960 9968 9976 9984 9992 10000 10008 10016 10024 10032 10040 10048 10056 10064 10072 10080 10088 10096 10104 10112 10120 10128 10136 10144 10152 10160 10168 10176 10184 10192 10200 10208 10216 10224 10232 10240 10248 10256 10264 10272 10280 10288 10296 10304 10312 10320 10328 10336 10344 10352 10360 10368 10376 10384 10392 10400 10408 10416 10424 10432 10440 10448 10456 10464 10472 10480 10488 10496 10504 10512 10520 10528 10536 10544 10552 10560 10568 10576 10584 10592 10600 10608 10616 10624 10632 10640 10648 10656 10664 10672 10680 10688 10696 10704 10712 10720 10728 10736 10744 10752 10760 10768 10776 10784 10792 10800 10808 10816 10824 10832 10840 10848 10856 10864 10872 10880 10888 10896 10904 10912 10920 10928 10936 10944 10952 10960 10968 10976 10984 10992 11000 11008 11016 11024 11032 11040 11048 11056 11064 11072 11080 11088 11096 11104 11112 11120 11128 11136 11144 11152 11160 11168 11176 11184 11192 11200 11208 11216 11224 11232 11240 11248 11256 11264 11272 11280 11288 11296 11304 11312 11320 11328 11336 11344 11352 11360 11368 11376 11384 11392 11400 11408 11416 11424 11432 11440 11448 11456 11464 11472 11480 11488 11496 11504 11512 11520 11528 11536 11544 11552 11560 11568 11576 11584 11592 11600 11608 11616 11624 11632 11640 11648 11656 11664 11672 11680 11688 11696 11704 11712 11720 11728 11736 11744 11752 11760 11768 11776 11784 11792 11800 11808 11816 11824 11832 11840 11848 11856 11864 11872 11880 11888 11896 11904 11912 11920 11928 11936 11944 11952 11960 11968 11976 11984 11992 12000 12008 12016 12024 12032 12040 12048 12056 12064 12072 12080 12088 12096 12104 12112 12120 12128 12136 12144 12152 12160 12168 12176 12184 12192 12200 12208 12216 12224 12232 12240 12248 12256 12264 12272 12280 12288 12296 12304 12312 12320 12328 12336 12344 12352 12360 12368 12376 12384 12392 12400 12408 12416 12424 12432 12440 12448 12456 12464 12472 12480 12488 12496 12504 12512 12520 12528 12536 12544 12552 12560 12568 12576 12584 12592 12600 12608 12616 12624 12632 12640 12648 12656 12664 12672 12680 12688 12696 12704 12712 12720 12728 12736 12744 12752 12760 12768 12776 12784 12792 12800 12808 12816 12824 12832 12840 12848 12856 12864 12872 12880 12888 12896 12904 12912 12920 12928 12936 12944 12952 12960 12968 12976 12984 12992 13000 13008 13016 13024 13032 13040 13048 13056 13064 13072 13080 13088 13096 13104 13112 13120 13128 13136 13144 13152 13160 13168 13176 13184 13192 13200 13208 13216 13224 13232 13240 13248 13256 13264 13272 13280 13288 13296 13304 13312 13320 13328 13336 13344 13352 13360 13368 13376 13384 13392 13400 13408 13416 13424 13432 13440 13448 13456 13464 13472 13480 13488 13496 13504 13512 13520 13528 13536 13544 13552 13560 13568 13576 13584 13592 13600 13608 13616 13624 13632 13640 13648 13656 13664 13672 13680 13688 13696 13704 13712 13720 13728 13736 13744 13752 13760 13768 13776 13784 13792 13800 13808 13816 13824 13832 13840 13848 13856 13864 13872 13880 13888 13896 13904 13912 13920 13928 13936 13944 13952 13960 13968 13976 13984 13992 14000 14008 14016 14024 14032 14040 14048 14056 14064 14072 14080 14088 14096 14104 14112 14120 14128 14136 14144 14152 14160 14168 14176 14184 14192 14200 14208 14216 14224 14232 14240 14248 14256 14264 14272 14280 14288 14296 14304 14312 14320 14328 14336 14344 14352 14360 14368 14376 14384 14392 14400 14408 14416 14424 14432 14440 14448 14456 14464 14472 14480 14488 14496 14504 14512 14520 14528 14536 14544 14552 14560 14568 14576 14584 14592 14600 14608 14616 14624 14632 14640 14648 14656 14664 14672 14680 14688 14696 14704 14712 14720 14728 14736 14744 14752 14760 14768 14776 14784 14792 14800 14808 14816 14824 14832 14840 14848 14856 14864 14872 14880 14888 14896 14904 14912 14920 14928 14936 14944 14952 14960 14968 14976 14984 14992 15000 15008 15016 15024 15032 15040 15048 15056 15064 15072 15080 15088 15096 15104 15112 15120 15128 15136 15144 15152 15160 15168 15176 15184 15192 15200 15208 15216 15224 15232 15240 15248 15256 15264 15272 15280 15288 15296 15304 15312 15320 15328 15336 15344 15352 15360 15368 15376 15384 15392 15400 15408 15416 15424 15432 15440 15448 15456 15464 15472 15480 15488 15496 15504 15512 15520 15528 15536 15544 15552 15560 15568 15576 15584 15592 15600 15608 15616 15624 15632 15640 15648 15656 15664 15672 15680 15688 15696 15704 15712 15720 15728 15736 15744 15752 15760 15768 15776 15784 15792 15800 15808 15816 15824 15832 15840 15848 15856 15864 15872 15880 15888 15896 15904 15912 15920 15928 15936 15944 15952 15960 15968 15976 15984 15992 16000 16008 16016 16024 16032 16040 16048 16056 16064 16072 16080 16088 16096 16104 16112 16120 16128 16136 16144 16152 16160 16168 16176 16184 16192 16200 16208 16216 16224 16232 16240 16248 16256 16264 16272 16280 16288 16296 16304 16312 16320 16328 16336 16344 16352 16360 16368 16376 16384 
CONNECTIVITY vtktypeint64
0 1 298 297 33 34 331 330 
1 2 299 298 34 35 332 331 
2 3 300 299 35 36 333 332 
3 4 301 300 36 37 334 333 
4 5 302 301 37 38 335 334 
5 6 303 302 38 39 336 335 
6 7 304 303 39 40 337 336 
7 8 305 304 40 41 338 337 
8 9 306 305 41 42 339 338 
9 10 307 306 42 43 340 339 
10 11 308 307 43 44 341 340 
11 12 309 308 44 45 342 341 
12 13 310 309 45 46 343 342 
13 14 311 310 46 47 344 343 
14 15 312 311 47 48 345 344 
15 16 313 312 48 49 346 345 
16 17 314 313 49 50 347 346 
17 18 315 314 50 51 348 347 
18 19 316 315 51 52 349 348 
19 20 317 316 52 53 350 349 
20 21 318 317 53 54 351 350 
21 22 319 318 54 55 352 351 
22 23 320 319 55 56 353 352 
23 24 321 320 56 57 354 353 
24 25 322 321 57 58 355 354 
25 26 323 322 58 59 356 355 
26 27 324 323 59 60 357 356 
27 28 325 324 60 61 358 357 
28 29 326 325 61 62 359 358 
29 30 327 326 62 63 360 359 
30 31 328 327 63 64 361 360 
31 32 329 328 64 65 362 361 
33 34 331 330 66 67 364 363 
34 35 332 331 67 68 365 364 
35 36 333 332 68 69 366 365 
36 37 334 333 69 70 367 366 
37 38 335 334 70 71 368 367 
38 39 336 335 71 72 369 368 
39 40 337 336 72 73 370 369 
40 41 338 337 73 74 371 370 
41 42 339 338 74 75 372 371 
42 43 340 339 75 76 373 372 
43 44 341 340 76 77 374 373 
44 45 342 341 77 78 375 374 
45 46 343 342 78 79 376 375 
46 47 344 343 79 80 377 376 
47 48 345 344 80 81 378 377 
48 49 346 345 81 82 379 378 
49 50 347 346 82 83 380 379 
50 51 348 347 83 84 381 380 
51 52 349 348 84 85 382 381 
52 53 350 349 85 86 383 382 
53 54 351 350 86 87 384 383 
54 55 352 351 87 88 385 384 
55 56 353 352 88 89 386 385 
56 57 354 353 89 90 387 386 
57 58 355 354 90 91 388 387 
58 59 356 355 91 92 389 388 
59 60 357 356 92 93 390 389 
60 61 358 357 93 94 391 390 
61 62 359 358 94 95 392 391 
62 63 360 359 95 96 393 392 
63 64 361 360 96 97 394 393 
64 65 362 361 97 98 395 394 
66 67 364 363 99 100 397 396 
67 68 365 364 100 101 398 397 
68 69 366 365 101 102 399 398 
69 70 367 366 102 103 400 399 
70 71 368 367 103 104 401 400 
71 72 369 368 104 105 402 401 
72 73 370 369 105 106 403 402 
73 74 371 370 106 107 404 403 
74 75 372 371 107 108 405 404 
75 76 373 372 108 109 406 405 
76 77 374 373 109 110 407 406 
77 78 375 374 110 111 408 407 
78 79 376 375 111 112 409 408 
79 80 377 376 112 113 410 409 
80 81 378 377 113 114 411 410 
81 82 379 378 114 115 412 411 
82 83 380 379 115 116 413 412 
83 84 381 380 116 117 414 413 
84 85 382 381 117 118 415 414 
85 86 383 382 118 119 416 415 
86 87 384 383 119 120 417 416 
87 88 385 384 120 121 418 417 
88 89 386 385 121 122 419 418 
89 90 387 386 122 123 420 419 
90 91 388 387 123 124 421 420 
91 92 389 388 124 125 422 421 
92 93 390 389 125 126 423 422 
93 94 391 390 126 127 424 423 
94 95 392 391 127 128 425 424 
95 96 393 392 128 129 426 425 
96 97 394 393 129 130 427 426 
97 98 395 394 130 131 428 427 
99 100 397 396 132 133 430 429 
100 101 398 397 133 134 431 430 
101 102 399 398 134 135 432 431 
102 103 400 399 135 136 433 432 
103 104 401 400 136 137 434 433 
104 105 402 401 137 138 435 434 
105 106 403 402 138 139 436 435 
106 107 404 403 139 140 437 436 
107 108 405 404 140 141 438 437 
108 109 406 405 141 142 439 438 
109 110 407 406 142 143 440 439 
110 111 408 407 143 144 441 440 
111 112 409 408 144 145 442 441 
112 113 410 409 145 146 443 442 
113 114 411 410 146 147 444 443 
114 115 412 411 147 148 445 444 
115 116 413 412 148 149 446 445 
116 117 414 413 149 150 447 446 
117 118 415 414 150 151 448 447 
118 119 416 415 151 152 449 448 
119 120 417 416 152 153 450 449 
120 121 418 417 153 154 451 450 
121 122 419 418 154 155 452 451 
122 123 420 419 155 156 453 452 
123 124 421 420 156 157 454 453 
124 125 422 421 157 158 455 454 
125 126 423 422 158 159 456 455 
126 127 424 423 159 160 457 456 
127 128 425 424 160 161 458 457 
128 129 426 425 161 162 459 458 
129 130 427 426 162 163 460 459 
130 131 428 427 163 164 461 460 
132 133 430 429 165 166 463 462 
133 134 431 430 166 167 464 463 
134 135 432 431 167 168 465 464 
135 136 433 432 168 169 466 465 
136 137 434 433 169 170 467 466 
137 138 435 434 170 171 468 467 
138 139 436 435 171 172 469 468 
139 140 437 436 172 173 470 469 
140 141 438 437 173 174 471 470 
141 142 439 438 174 175 472 471 
142 143 440 439 175 176 473 472 
143 144 441 440 176 177 474 473 
144 145 442 441 177 178 475 474 
145 146 443 442 178 179 476 475 
146 147 444 443 179 180 477 476 
147 148 445 444 180 181 478 477 
148 149 446 445 181 182 479 478 
149 150 447 446 182 183 480 479 
150 151 448 447 183 184 481 480 
151 152 449 448 184 185 482 481 
152 153 450 449 185 186 483 482 
153 154 451 450 186 187 484 483 
154 155 452 451 187 188 485 484 
155 156 453 452 188 189 486 485 
156 157 454 453 189 190 487 486 
157 158 455 454 190 191 488 487 
158 159 456 455 191 192 489 488 
159 160 457 456 192 193 490 489 
160 161 458 457 193 194 491 490 
161 162 459 458 194 195 492 491 
162 163 460 459 195 196 493 492 
163 164 461 460 196 197 494 493 
165 166 463 462 198 199 496 495 
166 167 464 463 199 200 497 496 
167 168 465 464 200 201 498 497 
168 169 466 465 201 202 499 498 
169 170 467 466 202 203 500 499 
170 171 468 467 203 204 501 500 
171 172 469 468 204 205 502 501 
172 173 470 469 205 206 503 502 
173 174 471 470 206 207 504 503 
174 175 472 471 207 208 505 504 
175 176 473 472 208 209 506 505 
176 177 474 473 209 210 507 506 
177 178 475 474 210 211 508 507 
178 179 476 475 211 212 509 508 
179 180 477 476 212 213 510 509 
180 181 478 477 213 214 511 510 
181 182 479 478 214 215 512 511 
182 183 480 479 215 216 513 512 
183 184 481 480 216 217 514 513 
184 185 482 481 217 218 515 514 
185 186 483 482 218 219 516 515 
186 187 484 483 219 220 517 516 
187 188 485 484 220 221 518 517 
188 189 486 485 221 222 519 518 
189 190 487 486 222 223 520 519 
190 191 488 487 223 224 521 520 
191 192 489 488 224 225 522 521 
192 193 490 489 225 226 523 522 
193 194 491 490 226 227 524 523 
194 195 492 491 227 228 525 524 
195 196 493 492 228 229 526 525 
196 197 494 493 229 230 527 526 
198 199 496 495 231 232 529 528 
199 200 497 496 232 233 530 529 
200 201 498 497 233 234 531 530 
201 202 499 498 234 235 532 531 
202 203 500 499 235 236 533 532 
203 204 501 500 236 237 534 533 
204 205 502 501 237 238 535 534 
205 206 503 502 238 239 536 535 
206 207 504 503 239 240 537 536 
207 208 505 504 240 241 538 537 
208 209 506 505 241 242 539 538 
209 210 507 506 242 243 540 539 
210 211 508 507 243 244 541 540 
211 212 509 508 244 245 542 541 
212 213 510 509 245 246 543 542 
213 214 511 510 246 247 544 543 
214 215 512 511 247 248 545 544 
215 216 513 512 248 249 546 545 
216 217 514 513 249 250 547 546 
217 218 515 514 250 251 548 547 
218 219 516 515 251 252 549 548 
219 220 517 516 252 253 550 549 
220 221 518 517 253 254 551 550 
221 222 519 518 254 255 552 551 
222 223 520 519 255 256 553 552 
223 224 521 520 256 257 554 553 
224 225 522 521 257 258 555 554 
225 226 523 522 258 259 556 555 
226 227 524 523 259 260 557 556 
227 228 525 524 260 261 558 557 
228 229 526 525 261 262 559 558 
229 230 527 526 262 263 560 559 
231 232 529 528 264 265 562 561 
232 233 530 529 265 266 563 562 
233 234 531 530 266 267 564 563 
234 235 532 531 267 268 565 564 
235 236 533 532 268 269 566 565 
236 237 534 533 269 270 567 566 
237 238 535 534 270 271 568 567 
238 239 536 535 271 272 569 568 
239 240 537 536 272 273 570 569 
240 241 538 537 273 274 571 570 
241 242 539 538 274 275 572 571 
242 243 540 539 275 276 573 572 
243 244 541 540 276 277 574 573 
244 245 542 541 277 278 575 574 
245 246 543 542 278 279 576 575 
246 247 544 543 279 280 577 576 
247 248 545 544 280 281 578 577 
248 249 546 545 281 282 579 578 
249 250 547 546 282 283 580 579 
250 251 548 547 283 284 581 580 
251 252 549 548 284 285 582 581 
252 253 550 549 285 286 583 582 
253 254 551 550 286 287 584 583 
254 255 552 551 287 288 585 584 
255 256 553 552 288 289 586 585 
256 257 554 553 289 290 587 586 
257 258 555 554 290 291 588 587 
258 259 556 555 291 292 589 588 
259 260 557 556 292 293 590 589 
260 261 558 557 293 294 591 590 
261 262 559 558 294 295 592 591 
262 263 560 559 295 296 593 592 
297 298 595 594 330 331 628 627 
298 299 596 595 331 332 629 628 
299 300 597 596 332 333 630 629 
300 301 598 597 333 334 631 630 
301 302 599 598 334 335 632 631 
302 303 600 599 335 336 633 632 
303 304 601 600 336 337 634 633 
304 305 602 601 337 338 635 634 
305 306 603 602 338 339 636 635 
306 307 604 603 339 340 637 636 
307 308 605 604 340 341 638 637 
308 309 606 605 341 342 639 638 
309 310 607 606 342 343 640 639 
310 311 608 607 343 344 641 640 
311 312 609 608 344 345 642 641 
312 313 610 609 345 346 643 642 
313 314 611 610 346 347 644 643 
314 315 612 611 347 348 645 644 
315 316 613 612 348 349 646 645 
316 317 614 613 349 350 647 646 
317 318 615 614 350 351 648 647 
318 319 616 615 351 352 649 648 
319 320 617 616 352 353 650 649 
320 321 618 617 353 354 651 650 
321 322 619 618 354 355 652 651 
322 323 620 619 355 356 653 652 
323 324 621 620 356 357 654 653 
324 325 622 621 357 358 655 654 
325 326 623 622 358 359 656 655 
326 327 624 623 359 360 657 656 
327 328 625 624 360 361 658 657 
328 329 626 625 361 362 659 658 
330 331 628 627 363 364 661 660 
331 332 629 628 364 365 662 661 
332 333 630 629 365 366 663 662 
333 334 631 630 366 367 664 663 
334 335 632 631 367 368 665 664 
335 336 633 632 368 369 666 665 
336 337 634 633 369 370 667 666 
337 338 635 634 370 371 668 667 
338 339 636 635 371 372 669 668 
339 340 637 636 372 373 670 669 
340 341 638 637 373 374 671 670 
341 342 639 638 374 375 672 671 
342 343 640 639 375 376 673 672 
343 344 641 640 376 377 674 673 
344 345 642 641 377 378 675 674 
345 346 643 642 378 379 676 675 
346 347 644 643 379 380 677 676 
347 348 645 644 380 381 678 677 
348 349 646 645 381 382 679 678 
349 350 647 646 382 383 680 679 
350 351 648 647 383 384 681 680 
351 352 649 648 384 385 682 681 
352 353 650 649 385 386 683 682 
353 354 651 650 386 387 684 683 
354 355 652 651 387 388 685 684 
355 356 653 652 388 389 686 685 
356 357 654 653 389 390 687 686 
357 358 655 654 390 391 688 687 
358 359 656 655 391 392 689 688 
359 360 657 656 392 393 690 689 
360 361 658 657 393 394 691 690 
361 362 659 658 394 395 692 691 
363 364 661 660 396 397 694 693 
364 365 662 661 397 398 695 694 
365 366 663 662 398 399 696 695 
366 367 664 663 399 400 697 696 
367 368 665 664 400 401 698 697 
368 369 666 665 401 402 699 698 
369 370 667 666 402 403 700 699 
370 371 668 667 403 404 701 700 
371 372 669 668 404 405 702 701 
372 373 670 669 405 406 703 702 
373 374 671 670 406 407 704 703 
374 375 672 671 407 408 705 704 
375 376 673 672 408 409 706 705 
376 377 674 673 409 410 707 706 
377 378 675 674 410 411 708 707 
378 379 676 675 411 412 709 708 
379 380 677 676 412 413 710 709 
380 381 678 677 413 414 711 710 
381 382 679 678 414 415 712 711 
382 383 680 679 415 416 713 712 
383 384 681 680 416 417 714 713 
384 385 682 681 417 418 715 714 
385 386 683 682 418 419 716 715 
386 387 684 683 419 420 717 716 
387 388 685 684 420 421 718 717 
388 389 686 685 421 422 719 718 
389 390 687 686 422 423 720 719 
390 391 688 687 423 424 721 720 
391 392 689 688 424 425 722 721 
392 393 690 689 425 426 723 722 
393 394 691 690 426 427 724 723 
394 395 692 691 427 428 725 724 
396 397 694 693 429 430 727 726 
397 398 695 694 430 431 728 727 
398 399 696 695 431 432 729 728 
399 400 697 696 432 433 730 729 
400 401 698 697 433 434 731 730 
401 402 699 698 434 435 732 731 
402 403 700 699 435 436 733 732 
403 404 701 700 436 437 734 733 
404 405 702 701 437 438 735 734 
405 406 703 702 438 439 736 735 
406 407 704 703 439 440 737 736 
407 408 705 704 440 441 738 737 
408 409 706 705 441 442 739 738 
409 410 707 706 442 443 740 739 
410 411 708 707 443 444 741 740 
411 412 709 708 444 445 742 741 
412 413 710 709 445 446 743 742 
413 414 711 710 446 447 744 743 
414 415 712 711 447 448 745 744 
415 416 713 712 448 449 746 745 
416 417 714 713 449 450 747 746 
417 418 715 714 450 451 748 747 
418 419 716 715 451 452 749 748 
419 420 717 716 452 453 750 749 
420 421 718 717 453 454 751 750 
421 422 719 718 454 455 752 751 
422 423 720 719 455 456 753 752 
423 424 721 720 456 457 754 753 
424 425 722 721 457 458 755 754 
425 426 723 722 458 459 756 755 
426 427 724 723 459 460 757 756 
427 428 725 724 460 461 758 757 
429 430 727 726 462 463 760 759 
430 431 728 727 463 464 761 760 
431 432 729 728 464 465 762 761 
432 433 730 729 465 466 763 762 
433 434 731 730 466 467 764 763 
434 435 732 731 467 468 765 764 
435 436 733 732 468 469 766 765 
436 437 734 733 469 470 767 766 
437 438 735 734 470 471 768 767 
438 439 736 735 471 472 769 768 
439 440 737 736 472 473 770 769 
440 441 738 737 473 474 771 770 
441 442 739 738 474 475 772 771 
442 443 740 739 475 476 773 772 
443 444 741 740 476 477 774 773 
444 445 742 741 477 478 775 774 
445 446 743 742 478 479 776 775 
446 447 744 743 479 480 777 776 
447 448 745 744 480 481 778 777 
448 449 746 745 481 482 779 778 
449 450 747 746 482 483 780 779 
450 451 748 747 483 484 781 780 
451 452 749 748 484 485 782 781 
452 453 750 749 485 486 783 782 
453 454 751 750 486 487 784 783 
454 455 752 751 487 488 785 784 
455 456 753 752 488 489 786 785 
456 457 754 753 489 490 787 786 
457 458 755 754 490 491 788 787 
458 459 756 755 491 492 789 788 
459 460 757 756 492 493 790 789 
460 461 758 757 493 494 791 790 
462 463 760 759 495 496 793 792 
463 464 761 760 496 497 794 793 
464 465 762 761 497 498 795 794 
465 466 763 762 498 499 796 795 
466 467 764 763 499 500 797 796 
467 468 765 764 500 501 798 797 
468 469 766 765 501 502 799 798 
469 470 767 766 502 503 800 799 
470 471 768 767 503 504 801 800 
471 472 769 768 504 505 802 801 
472 473 770 769 505 506 803 802 
473 474 771 770 506 507 804 803 
474 475 772 771 507 508 805 804 
475 476 773 772 508 509 806 805 
476 477 774 773 509 510 807 806 
477 478 775 774 510 511 808 807 
478 479 776 775 511 512 809 808 
479 480 777 776 512 513 810 809 
480 481 778 777 513 514 811 810 
481 482 779 778 514 515 812 811 
482 483 780 779 515 516 813 812 
483 484 781 780 516 517 814 813 
484 485 782 781 517 518 815 814 
485 486 783 782 518 519 816 815 
486 487 784 783 519 520 817 816 
487 488 785 784 520 521 818 817 
488 489 786 785 521 522 819 818 
489 490 787 786 522 523 820 819 
490 491 788 787 523 524 821 820 
491 492 789 788 524 525 822 821 
492 493 790 789 525 526 823 822 
493 494 791 790 526 527 824 823 
495 496 793 792 528 529 826 825 
496 497 794 793 529 530 827 826 
497 498 795 794 530 531 828 827 
498 499 796 795 531 532 829 828 
499 500 797 796 532 533 830 829 
500 501 798 797 533 534 831 830 
501 502 799 798 534 535 832 831 
502 503 800 799 535 536 833 832 
503 504 801 800 536 537 834 833 
504 505 802 801 537 538 835 834 
505 506 803 802 538 539 836 835 
506 507 804 803 539 540 837 836 
507 508 805 804 540 541 838 837 
508 509 806 805 541 542 839 838 
509 510 807 806 542 543 840 839 
510 511 808 807 543 544 841 840 
511 512 809 808 544 545 842 841 
512 513 810 809 545 546 843 842 
513 514 811 810 546 547 844 843 
514 515 812 811 547 548 845 844 
515 516 813 812 548 549 846 845 
516 517 814 813 549 550 847 846 
517 518 815 814 550 551 848 847 
518 519 816 815 551 552 849 848 
519 520 817 816 552 553 850 849 
520 521 818 817 553 554 851 850 
521 522 819 818 554 555 852 851 
522 523 820 819 555 556 853 852 
523 524 821 820 556 557 854 853 
524 525 822 821 557 558 855 854 
525 526 823 822 558 559 856 855 
526 527 824 823 559 560 857 856 
528 529 826 825 561 562 859 858 
529 530 827 826 562 563 860 859 
530 531 828 827 563 564 861 860 
531 532 829 828 564 565 862 861 
532 533 830 829 565 566 863 862 
533 534 831 830 566 567 864 863 
534 535 832 831 567 568 865 864 
535 536 833 832 568 569 866 865 
536 537 834 833 569 570 867 866 
537 538 835 834 570 571 868 867 
538 539 836 835 571 572 869 868 
539 540 837 836 572 573 870 869 
540 541 838 837 573 574 871 870 
541 542 839 838 574 575 872 871 
542 543 840 839 575 576 873 872 
543 544 841 840 576 577 874 873 
544 545 842 841 577 578 875 874 
545 546 843 842 578 579 876 875 
546 547 844 843 579 580 877 876 
547 548 845 844 580 581 878 877 
548 549 846 845 581 582 879 878 
549 550 847 846 582 583 880 879 
550 551 848 847 583 584 881 880 
551 552 849 848 584 585 882 881 
552 553 850 849 585 586 883 882 
553 554 851 850 586 587 884 883 
554 555 852 851 587 588 885 884 
555 556 853 852 588 589 886 885 
556 557 854 853 589 590 887 886 
557 558 855 854 590 591 888 887 
558 559 856 855 591 592 889 888 
559 560 857 856 592 593 890 889 
594 595 892 891 627 628 925 924 
595 596 893 892 628 629 926 925 
596 597 894 893 629 630 927 926 
597 598 895 894 630 631 928 927 
598 599 896 895 631 632 929 928 
599 600 897 896 632 633 930 929 
600 601 898 897 633 634 931 930 
601 602 899 898 634 635 932 931 
602 603 900 899 635 636 933 932 
603 604 901 900 636 637 934 933 
604 605 902 901 637 638 935 934 
605 606 903 902 638 639 936 935 
606 607 904 903 639 640 937 936 
607 608 905 904 640 641 938 937 
608 609 906 905 641 642 939 938 
609 610 907 906 642 643 940 939 
610 611 908 907 643 644 941 940 
611 612 909 908 644 645 942 941 
612 613 910 909 645 646 943 942 
613 614 911 910 646 647 944 943 
614 615 912 911 647 648 945 944 
615 616 913 912 648 649 946 945 
616 617 914 913 649 650 947 946 
617 618 915 914 650 651 948 947 
618 619 916 915 651 652 949 948 
619 620 917 916 652 653 950 949 
620 621 918 917 653 654 951 950 
621 622 919 918 654 655 952 951 
622 623 920 919 655 656 953 952 
623 624 921 920 656 657 954 953 
624 625 922 921 657 658 955 954 
625 626 923 922 658 659 956 955 
627 628 925 924 660 661 958 957 
628 629 926 925 661 662 959 958 
629 630 927 926 662 663 960 959 
630 631 928 927 663 664 961 960 
631 632 929 928 664 665 962 961 
632 633 930 929 665 666 963 962 
633 634 931 930 666 667 964 963 
634 635 932 931 667 668 965 964 
635 636 933 932 668 669 966 965 
636 637 934 933 669 670 967 966 
637 638 935 934 670 671 968 967 
638 639 936 935 671 672 969 968 
639 640 937 936 672 673 970 969 
640 641 938 937 673 674 971 970 
641 642 939 938 674 675 972 971 
642 643 940 939 675 676 973 972 
643 644 941 940 676 677 974 973 
644 645 942 941 677 678 975 974 
645 646 943 942 678 679 976 975 
646 647 944 943 679 680 977 976 
647 648 945 944 680 681 978 977 
648 649 946 945 681 682 979 978 
649 650 947 946 682 683 980 979 
650 651 948 947 683 684 981 980 
651 652 949 948 684 685 982 981 
652 653 950 949 685 686 983 982 
653 654 951 950 686 687 984 983 
654 655 952 951 687 688 985 984 
655 656 953 952 688 689 986 985 
656 657 954 953 689 690 987 986 
657 658 955 954 690 691 988 987 
658 659 956 955 691 692 989 988 
660 661 958 957 693 694 991 990 
661 662 959 958 694 695 992 991 
662 663 960 959 695 696 993 992 
663 664 961 960 696 697 994 993 
664 665 962 961 697 698 995 994 
665 666 963 962 698 699 996 995 
666 667 964 963 699 700 997 996 
667 668 965 964 700 701 998 997 
668 669 966 965 701 702 999 998 
669 670 967 966 702 703 1000 999 
670 671 968 967 703 704 1001 1000 
671 672 969 968 704 705 1002 1001 
672 673 970 969 705 706 1003 1002 
673 674 971 970 706 707 1004 1003 
674 675 972 971 707 708 1005 1004 
675 676 973 972 708 709 1006 1005 
676 677 974 973 709 710 1007 1006 
677 678 975 974 710 711 1008 1007 
678 679 976 975 711 712 1009 1008 
679 680 977 976 712 713 1010 1009 
680 681 978 977 713 714 1011 1010 
681 682 979 978 714 715 1012 1011 
682 683 980 979 715 716 1013 1012 
683 684 981 980 716 717 1014 1013 
684 685 982 981 717 718 1015 1014 
685 686 983 982 718 719 1016 1015 
686 687 984 983 719 720 1017 1016 
687 688 985 984 720 721 1018 1017 
688 689 986 985 721 722 1019 1018 
689 690 987 986 722 723 1020 1019 
690 691 988 987 723 724 1021 1020 
691 692 989 988 724 725 1022 1021 
693 694 991 990 726 727 1024 1023 
694 695 992 991 727 728 1025 1024 
695 696 993 992 728 729 1026 1025 
696 697 994 993 729 730 1027 1026 
697 698 995 994 730 731 1028 1027 
698 699 996 995 731 732 1029 1028 
699 700 997 996 732 733 1030 1029 
700 701 998 997 733 734 1031 1030 
701 702 999 998 734 735 1032 1031 
702 703 1000 999 735 736 1033 1032 
703 704 1001 1000 736 737 1034 1033 
704 705 1002 1001 737 738 1035 1034 
705 706 1003 1002 738 739 1036 1035 
706 707 1004 1003 739 740 1037 1036 
707 708 1005 1004 740 741 1038 1037 
708 709 1006 1005 741 742 1039 1038 
709 710 1007 1006 742 743 1040 1039 
710 711 1008 1007 743 744 1041 1040 
711 712 1009 1008 744 745 1042 1041 
712 713 1010 1009 745 746 1043 1042 
713 714 1011 1010 746 747 1044 1043 
714 715 1012 1011 747 748 1045 1044 
715 716 1013 1012 748 749 1046 1045 
716 717 1014 1013 749 750 1047 1046 
717 718 1015 1014 750 751 1048 1047 
718 719 1016 1015 751 752 1049 1048 
719 720 1017 1016 752 753 1050 1049 
720 721 1018 1017 753 754 1051 1050 
721 722 1019 1018 754 755 1052 1051 
722 723 1020 1019 755 756 1053 1052 
723 724 1021 1020 756 757 1054 1053 
724 725 1022 1021 757 758 1055 1054 
726 727 1024 1023 759 760 1057 1056 
727 728 1025 1024 760 761 1058 1057 
728 729 1026 1025 761 762 1059 1058 
729 730 1027 1026 762 763 1060 1059 
730 731 1028 1027 763 764 1061 1060 
731 732 1029 1028 764 765 1062 1061 
732 733 1030 1029 765 766 1063 1062 
733 734 1031 1030 766 767 1064 1063 
734 735 1032 1031 767 768 1065 1064 
735 736 1033 1032 768 769 1066 1065 
736 737 1034 1033 769 770 1067 1066 
737 738 1035 1034 770 771 1068 1067 
738 739 1036 1035 771 772 1069 1068 
739 740 1037 1036 772 773 1070 1069 
740 741 1038 1037 773 774 1071 1070 
741 742 1039 1038 774 775 1072 1071 
742 743 1040 1039 775 776 1073 1072 
743 744 1041 1040 776 777 1074 1073 
744 745 1042 1041 777 778 1075 1074 
745 746 1043 1042 778 779 1076 1075 
746 747 1044 1043 779 780 1077 1076 
747 748 1045 1044 780 781 1078 1077 
748 749 1046 1045 781 782 1079 1078 
749 750 1047 1046 782 783 1080 1079 
750 751 1048 1047 783 784 1081 1080 
751 752 1049 1048 784 785 1082 1081 
752 753 1050 1049 785 786 1083 1082 
753 754 1051 1050 786 787 1084 1083 
754 755 1052 1051 787 788 1085 1084 
755 756 1053 1052 788 789 1086 1085 
756 757 1054 1053 789 790 1087 1086 
757 758 1055 1054 790 791 1088 1087 
759 760 1057 1056 792 793 1090 1089 
760 761 1058 1057 793 794 1091 1090 
761 762 1059 1058 794 795 1092 1091 
762 763 1060 1059 795 796 1093 1092 
763 764 1061 1060 796 797 1094 1093 
764 765 1062 1061 797 798 1095 1094 
765 766 1063 1062 798 799 1096 1095 
766 767 1064 1063 799 800 1097 1096 
767 768 1065 1064 800 801 1098 1097 
768 769 1066 1065 801 802 1099 1098 
769 770 1067 1066 802 803 1100 1099 
770 771 1068 1067 803 804 1101 1100 
771 772 1069 1068 804 805 1102 1101 
772 773 1070 1069 805 806 1103 1102 
773 774 1071 1070 806 807 1104 1103 
774 775 1072 1071 807 808 1105 1104 
775 776 1073 1072 808 809 1106 1105 
776 777 1074 1073 809 810 1107 1106 
777 778 1075 1074 810 811 1108 1107 
778 779 1076 1075 811 812 1109 1108 
779 780 1077 1076 812 813 1110 1109 
780 781 1078 1077 813 814 1111 1110 
781 782 1079 1078 814 815 1112 1111 
782 783 1080 1079 815 816 1113 1112 
783 784 1081 1080 816 817 1114 1113 
784 785 1082 1081 817 818 1115 1114 
785 786 1083 1082 818 819 1116 1115 
786 787 1084 1083 819 820 1117 1116 
787 788 1085 1084 820 821 1118 1117 
788 789 1086 1085 821 822 1119 1118 
789 790 1087 1086 822 823 1120 1119 
790 791 1088 1087 823 824 1121 1120 
792 793 1090 1089 825 826 1123 1122 
793 794 1091 1090 826 827 1124 1123 
794 795 1092 1091 827 828 1125 1124 
795 796 1093 1092 828 829 1126 1125 
796 797 1094 1093 829 830 1127 1126 
797 798 1095 1094 830 831 1128 1127 
798 799 1096 1095 831 832 1129 1128 
799 800 1097 1096 832 833 1130 1129 
800 801 1098 1097 833 834 1131 1130 
801 802 1099 1098 834 835 1132 1131 
802 803 1100 1099 835 836 1133 1132 
803 804 1101 1100 836 837 1134 1133 
804 805 1102 1101 837 838 1135 1134 
805 806 1103 1102 838 839 1136 1135 
806 807 1104 1103 839 840 1137 1136 
807 808 1105 1104 840 841 1138 1137 
808 809 1106 1105 841 842 1139 1138 
809 810 1107 1106 842 843 1140 1139 
810 811 1108 1107 843 844 1141 1140 
811 812 1109 1108 844 845 1142 1141 
812 813 1110 1109 845 846 1143 1142 
813 814 1111 1110 846 847 1144 1143 
814 815 1112 1111 847 848 1145 1144 
815 816 1113 1112 848 849 1146 1145 
816 817 1114 1113 849 850 1147 1146 
817 818 1115 1114 850 851 1148 1147 
818 819 1116 1115 851 852 1149 1148 
819 820 1117 1116 852 853 1150 1149 
820 821 1118 1117 853 854 1151 1150 
821 822 1119 1118 854 855 1152 1151 
822 823 1120 1119 855 856 1153 1152 
823 824 1121 1120 856 857 1154 1153 
825 826 1123 1122 858 859 1156 1155 
826 827 1124 1123 859 860 1157 1156 
827 828 1125 1124 860 861 1158 1157 
828 829 1126 1125 861 862 1159 1158 
829 830 1127 1126 862 863 1160 1159 
830 831 1128 1127 863 864 1161 1160 
831 832 1129 1128 864 865 1162 1161 
832 833 1130 1129 865 866 1163 1162 
833 834 1131 1130 866 867 1164 1163 
834 835 1132 1131 867 868 1165 1164 
835 836 1133 1132 868 869 1166 1165 
836 837 1134 1133 869 870 1167 1166 
837 838 1135 1134 870 871 1168 1167 
838 839 1136 1135 871 872 1169 1168 
839 840 1137 1136 872 873 1170 1169 
840 841 1138 1137 873 874 1171 1170 
841 842 1139 1138 874 875 1172 1171 
842 843 1140 1139 875 876 1173 1172 
843 844 1141 1140 876 877 1174 1173 
844 845 1142 1141 877 878 1175 1174 
845 846 1143 1142 878 879 1176 1175 
846 847 1144 1143 879 880 1177 1176 
847 848 1145 1144 880 881 1178 1177 
848 849 1146 1145 881 882 1179 1178 
849 850 1147 1146 882 883 1180 1179 
850 851 1148 1147 883 884 1181 1180 
851 852 1149 1148 884 885 1182 1181 
852 853 1150 1149 885 886 1183 1182 
853 854 1151 1150 886 887 1184 1183 
854 855 1152 1151 887 888 1185 1184 
855 856 1153 1152 888 889 1186 1185 
856 857 1154 1153 889 890 1187 1186 
891 892 1189 1188 924 925 1222 1221 
892 893 1190 1189 925 926 1223 1222 
893 894 1191 1190 926 927 1224 1223 
894 895 1192 1191 927 928 1225 1224 
895 896 1193 1192 928 929 1226 1225 
896 897 1194 1193 929 930 1227 1226 
897 898 1195 1194 930 931 1228 1227 
898 899 1196 1195 931 932 1229 1228 
899 900 1197 1196 932 933 1230 1229 
900 901 1198 1197 933 934 1231 1230 
901 902 1199 1198 934 935 1232 1231 
902 903 1200 1199 935 936 1233 1232 
903 904 1201 1200 936 937 1234 1233 
904 905 1202 1201 937 938 1235 1234 
905 906 1203 1202 938 939 1236 1235 
906 907 1204 1203 939 940 1237 1236 
907 908 1205 1204 940 941 1238 1237 
908 909 1206 1205 941 942 1239 1238 
909 910 1207 1206 942 943 1240 1239 
910 911 1208 1207 943 944 1241 1240 
911 912 1209 1208 944 945 1242 1241 
912 913 1210 1209 945 946 1243 1242 
913 914 1211 1210 946 947 1244 1243 
914 915 1212 1211 947 948 1245 1244 
915 916 1213 1212 948 949 1246 1245 
916 917 1214 1213 949 950 1247 1246 
917 918 1215 1214 950 951 1248 1247 
918 919 1216 1215 951 952 1249 1248 
919 920 1217 1216 952 953 1250 1249 
920 921 1218 1217 953 954 1251 1250 
921 922 1219 1218 954 955 1252 1251 
922 923 1220 1219 955 956 1253 1252 
924 925 1222 1221 957 958 1255 1254 
925 926 1223 1222 958 959 1256 1255 
926 927 1224 1223 959 960 1257 1256 
927 928 1225 1224 960 961 1258 1257 
928 929 1226 1225 961 962 1259 1258 
929 930 1227 1226 962 963 1260 1259 
930 931 1228 1227 963 964 1261 1260 
931 932 1229 1228 964 965 1262 1261 
932 933 1230 1229 965 966 1263 1262 
933 934 1231 1230 966 967 1264 1263 
934 935 1232 1231 967 968 1265 1264 
935 936 1233 1232 968 969 1266 1265 
936 937 1234 1233 969 970 1267 1266 
937 938 1235 1234 970 971 1268 1267 
938 939 1236 1235 971 972 1269 1268 
939 940 1237 1236 972 973 1270 1269 
940 941 1238 1237 973 974 1271 1270 
941 942 1239 1238 974 975 1272 1271 
942 943 1240 1239 975 976 1273 1272 
943 944 1241 1240 976 977 1274 1273 
944 945 1242 1241 977 978 1275 1274 
945 946 1243 1242 978 979 1276 1275 
946 947 1244 1243 979 980 1277 1276 
947 948 1245 1244 980 981 1278 1277 
948 949 1246 1245 981 982 1279 1278 
949 950 1247 1246 982 983 1280 1279 
950 951 1248 1247 983 984 1281 1280 
951 952 1249 1248 984 985 1282 1281 
952 953 1250 1249 985 986 1283 1282 
953 954 1251 1250 986 987 1284 1283 
954 955 1252 1251 987 988 1285 1284 
955 956 1253 1252 988 989 1286 1285 
957 958 1255 1254 990 991 1288 1287 
958 959 1256 1255 991 992 1289 1288 
959 960 1257 1256 992 993 1290 1289 
960 961 1258 1257 993 994 1291 1290 
961 962 1259 1258 994 995 1292 1291 
962 963 1260 1259 995 996 1293 1292 
963 964 1261 1260 996 997 1294 1293 
964 965 1262 1261 997 998 1295 1294 
965 966 1263 1262 998 999 1296 1295 
966 967 1264 1263 999 1000 1297 1296 
967 968 1265 1264 1000 1001 1298 1297 
968 969 1266 1265 1001 1002 1299 1298 
969 970 1267 1266 1002 1003 1300 1299 
970 971 1268 1267 1003 1004 1301 1300 
971 972 1269 1268 1004 1005 1302 1301 
972 973 1270 1269 1005 1006 1303 1302 
973 974 1271 1270 1006 1007 1304 1303 
974 975 1272 1271 1007 1008 1305 1304 
975 976 1273 1272 1008 1009 1306 1305 
976 977 1274 1273 1009 1010 1307 1306 
977 978 1275 1274 1010 1011 1308 1307 
978 979 1276 1275 1011 1012 1309 1308 
979 980 1277 1276 1012 1013 1310 1309 
980 981 1278 1277 1013 1014 1311 1310 
981 982 1279 1278 1014 1015 1312 1311 
982 983 1280 1279 1015 1016 1313 1312 
983 984 1281 1280 1016 1017 1314 1313 
984 985 1282 1281 1017 1018 1315 1314 
985 986 1283 1282 1018 1019 1316 1315 
986 987 1284 1283 1019 1020 1317 1316 
987 988 1285 1284 1020 1021 1318 1317 
988 989 1286 1285 1021 1022 1319 1318 
990 991 1288 1287 1023 1024 1321 1320 
991 992 1289 1288 1024 1025 1322 1321 
992 993 1290 1289 1025 1026 1323 1322 
993 994 1291 1290 1026 1027 1324 1323 
994 995 1292 1291 1027 1028 1325 1324 
995 996 1293 1292 1028 1029 1326 1325 
996 997 1294 1293 1029 1030 1327 1326 
997 998 1295 1294 1030 1031 1328 1327 
998 999 1296 1295 1031 1032 1329 1328 
999 1000 1297 1296 1032 1033 1330 1329 
1000 1001 1298 1297 1033 1034 1331 1330 
1001 1002 1299 1298 1034 1035 1332 1331 
1002 1003 1300 1299 1035 1036 1333 1332 
1003 1004 1301 1300 1036 1037 1334 1333 
1004 1005 1302 1301 1037 1038 1335 1334 
1005 1006 1303 1302 1038 1039 1336 1335 
1006 1007 1304 1303 1039 1040 1337 1336 
1007 1008 1305 1304 1040 1041 1338 1337 
1008 1009 1306 1305 1041 1042 1339 1338 
1009 1010 1307 1306 1042 1043 1340 1339 
1010 1011 1308 1307 1043 1044 1341 1340 
1011 1012 1309 1308 1044 1045 1342 1341 
1012 1013 1310 1309 1045 1046 1343 1342 
1013 1014 1311 1310 1046 1047 1344 1343 
1014 1015 1312 1311 1047 1048 1345 1344 
1015 1016 1313 1312 1048 1049 1346 1345 
1016 1017 1314 1313 1049 1050 1347 1346 
1017 1018 1315 1314 1050 1051 1348 1347 
1018 1019 1316 1315 1051 1052 1349 1348 
1019 1020 1317 1316 1052 1053 1350 1349 
1020 1021 1318 1317 1053 1054 1351 1350 
1021 1022 1319 1318 1054 1055 1352 1351 
1023 1024 1321 1320 1056 1057 1354 1353 
1024 1025 1322 1321 1057 1058 1355 1354 
1025 1026 1323 1322 1058 1059 1356 1355 
1026 1027 1324 1323 1059 1060 1357 1356 
1027 1028 1325 1324 1060 1061 1358 1357 
1028 1029 1326 1325 1061 1062 1359 1358 
1029 1030 1327 1326 1062 1063 1360 1359 
1030 1031 1328 1327 1063 1064 1361 1360 
1031 1032 1329 1328 1064 1065 1362 1361 
1032 1033 1330 1329 1065 1066 1363 1362 
1033 1034 1331 1330 1066 1067 1364 1363 
1034 1035 1332 1331 1067 1068 1365 1364 
1035 1036 1333 1332 1068 1069 1366 1365 
1036 1037 1334 1333 1069 1070 1367 1366 
1037 1038 1335 1334 1070 1071 1368 1367 
1038 1039 1336 1335 1071 1072 1369 1368 
1039 1040 1337 1336 1072 1073 1370 1369 
1040 1041 1338 1337 1073 1074 1371 1370 
1041 1042 1339 1338 1074 1075 1372 1371 
1042 1043 1340 1339 1075 1076 1373 1372 
1043 1044 1341 1340 1076 1077 1374 1373 
1044 1045 1342 1341 1077 1078 1375 1374 
1045 1046 1343 1342 1078 1079 1376 1375 
1046 1047 1344 1343 1079 1080 1377 1376 
1047 1048 1345 1344 1080 1081 1378 1377 
1048 1049 1346 1345 1081 1082 1379 1378 
1049 1050 1347 1346 1082 1083 1380 1379 
1050 1051 1348 1347 1083 1084 1381 1380 
1051 1052 1349 1348 1084 1085 1382 1381 
1052 1053 1350 1349 1085 1086 1383 1382 
1053 1054 1351 1350 1086 1087 1384 1383 
1054 1055 1352 1351 1087 1088 1385 1384 
1056 1057 1354 1353 1089 1090 1387 1386 
1057 1058 1355 1354 1090 1091 1388 1387 
1058 1059 1356 1355 1091 1092 1389 1388 
1059 1060 1357 1356 1092 1093 1390 1389 
1060 1061 1358 1357 1093 1094 1391 1390 
1061 1062 1359 1358 1094 1095 1392 1391 
1062 1063 1360 1359 1095 1096 1393 1392 
1063 1064 1361 1360 1096 1097 1394 1393 
1064 1065 1362 1361 1097 1098 1395 1394 
1065 1066 1363 1362 1098 1099 1396 1395 
1066 1067 1364 1363 1099 1100 1397 1396 
1067 1068 1365 1364 1100 1101 1398 1397 
1068 1069 1366 1365 1101 1102 1399 1398 
1069 1070 1367 1366 1102 1103 1400 1399 
1070 1071 1368 1367 1103 1104 1401 1400 
1071 1072 1369 1368 1104 1105 1402 1401 
1072 1073 1370 1369 1105 1106 1403 1402 
1073 1074 1371 1370 1106 1107 1404 1403 
1074 1075 1372 1371 1107 1108 1405 1404 
1075 1076 1373 1372 1108 1109 1406 1405 
1076 1077 1374 1373 1109 1110 1407 1406 
1077 1078 1375 1374 1110 1111 1408 1407 
1078 1079 1376 1375 1111 1112 1409 1408 
1079 1080 1377 1376 1112 1113 1410 1409 
1080 1081 1378 1377 1113 1114 1411 1410 
1081 1082 1379 1378 1114 1115 1412 1411 
1082 1083 1380 1379 1115 1116 1413 1412 
1083 1084 1381 1380 1116 1117 1414 1413 
1084 1085 1382 1381 1117 1118 1415 1414 
1085 1086 1383 1382 1118 1119 1416 1415 
1086 1087 1384 1383 1119 1120 1417 1416 
1087 1088 1385 1384 1120 1121 1418 1417 
1089 1090 1387 1386 1122 1123 1420 1419 
1090 1091 1388 1387 1123 1124 1421 1420 
1091 1092 1389 1388 1124 1125 1422 1421 
1092 1093 1390 1389 1125 1126 1423 1422 
1093 1094 1391 1390 1126 1127 1424 1423 
1094 1095 1392 1391 1127 1128 1425 1424 
1095 1096 1393 1392 1128 1129 1426 1425 
1096 1097 1394 1393 1129 1130 1427 1426 
1097 1098 1395 1394 1130 1131 1428 1427 
1098 1099 1396 1395 1131 1132 1429 1428 
1099 1100 1397 1396 1132 1133 1430 1429 
1100 1101 1398 1397 1133 1134 1431 1430 
1101 1102 1399 1398 1134 1135 1432 1431 
1102 1103 1400 1399 1135 1136 1433 1432 
1103 1104 1401 1400 1136 1137 1434 1433 
1104 1105 1402 1401 1137 1138 1435 1434 
1105 1106 1403 1402 1138 1139 1436 1435 
1106 1107 1404 1403 1139 1140 1437 1436 
1107 1108 1405 1404 1140 1141 1438 1437 
1108 1109 1406 1405 1141 1142 1439 1438 
1109 1110 1407 1406 1142 1143 1440 1439 
1110 1111 1408 1407 1143 1144 1441 1440 
1111 1112 1409 1408 1144 1145 1442 1441 
1112 1113 1410 1409 1145 1146 1443 1442 
1113 1114 1411 1410 1146 1147 1444 1443 
1114 1115 1412 1411 1147 1148 1445 1444 
1115 1116 1413 1412 1148 1149 1446 1445 
1116 1117 1414 1413 1149 1150 1447 1446 
1117 1118 1415 1414 1150 1151 1448 1447 
1118 1119 1416 1415 1151 1152 1449 1448 
1119 1120 1417 1416 1152 1153 1450 1449 
1120 1121 1418 1417 1153 1154 1451 1450 
1122 1123 1420 1419 1155 1156 1453 1452 
1123 1124 1421 1420 1156 1157 1454 1453 
1124 1125 1422 1421 1157 1158 1455 1454 
1125 1126 1423 1422 1158 1159 1456 1455 
1126 1127 1424 1423 1159 1160 1457 1456 
1127 1128 1425 1424 1160 1161 1458 1457 
1128 1129 1426 1425 1161 1162 1459 1458 
1129 1130 1427 1426 1162 1163 1460 1459 
1130 1131 1428 1427 1163 1164 1461 1460 
1131 1132 1429 1428 1164 1165 1462 1461 
1132 1133 1430 1429 1165 1166 1463 1462 
1133 1134 1431 1430 1166 1167 1464 1463 
1134 1135 1432 1431 1167 1168 1465 1464 
1135 1136 1433 1432 1168 1169 1466 1465 
1136 1137 1434 1433 1169 1170 1467 1466 
1137 1138 1435 1434 1170 1171 1468 1467 
1138 1139 1436 1435 1171 1172 1469 1468 
1139 1140 1437 1436 1172 1173 1470 1469 
1140 1141 1438 1437 1173 1174 1471 1470 
1141 1142 1439 1438 1174 1175 1472 1471 
1142 1143 1440 1439 1175 1176 1473 1472 
1143 1144 1441 1440 1176 1177 1474 1473 
1144 1145 1442 1441 1177 1178 1475 1474 
1145 1146 1443 1442 1178 1179 1476 1475 
1146 1147 1444 1443 1179 1180 1477 1476 
1147 1148 1445 1444 1180 1181 1478 1477 
1148 1149 1446 1445 1181 1182 1479 1478 
1149 1150 1447 1446 1182 1183 1480 1479 
1150 1151 1448 1447 1183 1184 1481 1480 
1151 1152 1449 1448 1184 1185 1482 1481 
1152 1153 1450 1449 1185 1186 1483 1482 
1153 1154 1451 1450 1186 1187 1484 1483 
1188 1189 1486 1485 1221 1222 1519 1518 
1189 1190 1487 1486 1222 1223 1520 1519 
1190 1191 1488 1487 1223 1224 1521 1520 
1191 1192 1489 1488 1224 1225 1522 1521 
1192 1193 1490 1489 1225 1226 1523 1522 
1193 1194 1491 1490 1226 1227 1524 1523 
1194 1195 1492 1491 1227 1228 1525 1524 
1195 1196 1493 1492 1228 1229 1526 1525 
1196 1197 1494 1493 1229 1230 1527 1526 
1197 1198 1495 1494 1230 1231 1528 1527 
1198 1199 1496 1495 1231 1232 1529 1528 
1199 1200 1497 1496 1232 1233 1530 1529 
1200 1201 1498 1497 1233 1234 1531 1530 
1201 1202 1499 1498 1234 1235 1532 1531 
1202 1203 1500 1499 1235 1236 1533 1532 
1203 1204 1501 1500 1236 1237 1534 1533 
1204 1205 1502 1501 1237 1238 1535 1534 
1205 1206 1503 1502 1238 1239 1536 1535 
1206 1207 1504 1503 1239 1240 1537 1536 
1207 1208 1505 1504 1240 1241 1538 1537 
1208 1209 1506 1505 1241 1242 1539 1538 
1209 1210 1507 1506 1242 1243 1540 1539 
1210 1211 1508 1507 1243 1244 1541 1540 
1211 1212 1509 1508 1244 1245 1542 1541 
1212 1213 1510 1509 1245 1246 1543 1542 
1213 1214 1511 1510 1246 1247 1544 1543 
1214 1215 1512 1511 1247 1248 1545 1544 
1215 1216 1513 1512 1248 1249 1546 1545 
1216 1217 1514 1513 1249 1250 1547 1546 
1217 1218 1515 1514 1250 1251 1548 1547 
1218 1219 1516 1515 1251 1252 1549 1548 
1219 1220 1517 1516 1252 1253 1550 1549 
1221 1222 1519 1518 1254 1255 1552 1551 
1222 1223 1520 1519 1255 1256 1553 1552 
1223 1224 1521 1520 1256 1257 1554 1553 
1224 1225 1522 1521 1257 1258 1555 1554 
1225 1226 1523 1522 1258 1259 1556 1555 
1226 1227 1524 1523 1259 1260 1557 1556 
1227 1228 1525 1524 1260 1261 1558 1557 
1228 1229 1526 1525 1261 1262 1559 1558 
1229 1230 1527 1526 1262 1263 1560 1559 
1230 1231 1528 1527 1263 1264 1561 1560 
1231 1232 1529 1528 1264 1265 1562 1561 
1232 1233 1530 1529 1265 1266 1563 1562 
1233 1234 1531 1530 1266 1267 1564 1563 
1234 1235 1532 1531 1267 1268 1565 1564 
1235 1236 1533 1532 1268 1269 1566 1565 
1236 1237 1534 1533 1269 1270 1567 1566 
1237 1238 1535 1534 1270 1271 1568 1567 
1238 1239 1536 1535 1271 1272 1569 1568 
1239 1240 1537 1536 1272 1273 1570 1569 
1240 1241 1538 1537 1273 1274 1571 1570 
1241 1242 1539 1538 1274 1275 1572 1571 
1242 1243 1540 1539 1275 1276 1573 1572 
1243 1244 1541 1540 1276 1277 1574 1573 
1244 1245 1542 1541 1277 1278 1575 1574 
1245 1246 1543 1542 1278 1279 1576 1575 
1246 1247 1544 1543 1279 1280 1577 1576 
1247 1248 1545 1544 1280 1281 1578 1577 
1248 1249 1546 1545 1281 1282 1579 1578 
1249 1250 1547 1546 1282 1283 1580 1579 
1250 1251 1548 1547 1283 1284 1581 1580 
1251 1252 1549 1548 1284 1285 1582 1581 
1252 1253 1550 1549 1285 1286 1583 1582 
1254 1255 1552 1551 1287 1288 1585 1584 
1255 1256 1553 1552 1288 1289 1586 1585 
1256 1257 1554 1553 1289 1290 1587 1586 
1257 1258 1555 1554 1290 1291 1588 1587 
1258 1259 1556 1555 1291 1292 1589 1588 
1259 1260 1557 1556 1292 1293 1590 1589 
1260 1261 1558 1557 1293 1294 1591 1590 
1261 1262 1559 1558 1294 1295 1592 1591 
1262 1263 1560 1559 1295 1296 1593 1592 
1263 1264 1561 1560 1296 1297 1594 1593 
1264 1265 1562 1561 1297 1298 1595 1594 
1265 1266 1563 1562 1298 1299 1596 1595 
1266 1267 1564 1563 1299 1300 1597 1596 
1267 1268 1565 1564 1300 1301 1598 1597 
1268 1269 1566 1565 1301 1302 1599 1598 
1269 1270 1567 1566 1302 1303 1600 1599 
1270 1271 1568 1567 1303 1304 1601 1600 
1271 1272 1569 1568 1304 1305 1602 1601 
1272 1273 1570 1569 1305 1306 1603 1602 
1273 1274 1571 1570 1306 1307 1604 1603 
1274 1275 1572 1571 1307 1308 1605 1604 
1275 1276 1573 1572 1308 1309 1606 1605 
1276 1277 1574 1573 1309 1310 1607 1606 
1277 1278 1575 1574 1310 1311 1608 1607 
1278 1279 1576 1575 1311 1312 1609 1608 
1279 1280 1577 1576 1312 1313 1610 1609 
1280 1281 1578 1577 1313 1314 1611 1610 
1281 1282 1579 1578 1314 1315 1612 1611 
1282 1283 1580 1579 1315 1316 1613 1612 
1283 1284 1581 1580 1316 1317 1614 1613 
1284 1285 1582 1581 1317 1318 1615 1614 
1285 1286 1583 1582 1318 1319 1616 1615 
1287 1288 1585 1584 1320 1321 1618 1617 
1288 1289 1586 1585 1321 1322 1619 1618 
1289 1290 1587 1586 1322 1323 1620 1619 
1290 1291 1588 1587 1323 1324 1621 1620 
1291 1292 1589 1588 1324 1325 1622 1621 
1292 1293 1590 1589 1325 1326 1623 1622 
1293 1294 1591 1590 1326 1327 1624 1623 
1294 1295 1592 1591 1327 1328 1625 1624 
1295 1296 1593 1592 1328 1329 1626 1625 
1296 1297 1594 1593 1329 1330 1627 1626 
1297 1298 1595 1594 1330 1331 1628 1627 
1298 1299 1596 1595 1331 1332 1629 1628 
1299 1300 1597 1596 1332 1333 1630 1629 
1300 1301 1598 1597 1333 1334 1631 1630 
1301 1302 1599 1598 1334 1335 1632 1631 
1302 1303 1600 1599 1335 1336 1633 1632 
1303 1304 1601 1600 1336 1337 1634 1633 
1304 1305 1602 1601 1337 1338 1635 1634 
1305 1306 1603 1602 1338 1339 1636 1635 
1306 1307 1604 1603 1339 1340 1637 1636 
1307 1308 1605 1604 1340 1341 1638 1637 
1308 1309 1606 1605 1341 1342 1639 1638 
1309 1310 1607 1606 1342 1343 1640 1639 
1310 1311 1608 1607 1343 1344 1641 1640 
1311 1312 1609 1608 1344 1345 1642 1641 
1312 1313 1610 1609 1345 1346 1643 1642 
1313 1314 1611 1610 1346 1347 1644 1643 
1314 1315 1612 1611 1347 1348 1645 1644 
1315 1316 1613 1612 1348 1349 1646 1645 
1316 1317 1614 1613 1349 1350 1647 1646 
1317 1318 1615 1614 1350 1351 1648 1647 
1318 1319 1616 1615 1351 1352 1649 1648 
1320 1321 1618 1617 1353 1354 1651 1650 
1321 1322 1619 1618 1354 1355 1652 1651 
1322 1323 1620 1619 1355 1356 1653 1652 
1323 1324 1621 1620 1356 1357 1654 1653 
1324 1325 1622 1621 1357 1358 1655 1654 
1325 1326 1623 1622 1358 1359 1656 1655 
1326 1327 1624 1623 1359 1360 1657 1656 
1327 1328 1625 1624 1360 1361 1658 1657 
1328 1329 1626 1625 1361 1362 1659 1658 
1329 1330 1627 1626 1362 1363 1660 1659 
1330 1331 1628 1627 1363 1364 1661 1660 
1331 1332 1629 1628 1364 1365 1662 1661 
1332 1333 1630 1629 1365 1366 1663 1662 
1333 1334 1631 1630 1366 1367 1664 1663 
1334 1335 1632 1631 1367 1368 1665 1664 
1335 1336 1633 1632 1368 1369 1666 1665 
1336 1337 1634 1633 1369 1370 1667 1666 
1337 1338 1635 1634 1370 1371 1668 1667 
1338 1339 1636 1635 1371 1372 1669 1668 
1339 1340 1637 1636 1372 1373 1670 1669 
1340 1341 1638 1637 1373 1374 1671 1670 
1341 1342 1639 1638 1374 1375 1672 1671 
1342 1343 1640 1639 1375 1376 1673 1672 
1343 1344 1641 1640 1376 1377 1674 1673 
1344 1345 1642 1641 1377 1378 1675 1674 
1345 1346 1643 1642 1378 1379 1676 1675 
1346 1347 1644 1643 1379 1380 1677 1676 
1347 1348 1645 1644 1380 1381 1678 1677 
1348 1349 1646 1645 1381 1382 1679 1678 
1349 1350 1647 1646 1382 1383 1680 1679 
1350 1351 1648 1647 1383 1384 1681 1680 
1351 1352 1649 1648 1384 1385 1682 1681 
1353 1354 1651 1650 1386 1387 1684 1683 
1354 1355 1652 1651 1387 1388 1685 1684 
1355 1356 1653 1652 1388 1389 1686 1685 
1356 1357 1654 1653 1389 1390 1687 1686 
1357 1358 1655 1654 1390 1391 1688 1687 
1358 1359 1656 1655 1391 1392 1689 1688 
1359 1360 1657 1656 1392 1393 1690 1689 
1360 1361 1658 1657 1393 1394 1691 1690 
1361 1362 1659 1658 1394 1395 1692 1691 
1362 1363 1660 1659 1395 1396 1693 1692 
1363 1364 1661 1660 1396 1397 1694 1693 
1364 1365 1662 1661 1397 1398 1695 1694 
1365 1366 1663 1662 1398 1399 1696 1695 
1366 1367 1664 1663 1399 1400 1697 1696 
1367 1368 1665 1664 1400 1401 1698 1697 
1368 1369 1666 1665 1401 1402 1699 1698 
1369 1370 1667 1666 1402 1403 1700 1699 
1370 1371 1668 1667 1403 1404 1701 1700 
1371 1372 1669 1668 1404 1405 1702 1701 
1372 1373 1670 1669 1405 1406 1703 1702 
1373 1374 1671 1670 1406 1407 1704 1703 
1374 1375 1672 1671 1407 1408 1705 1704 
1375 1376 1673 1672 1408 1409 1706 1705 
1376 1377 1674 1673 1409 1410 1707 1706 
1377 1378 1675 1674 1410 1411 1708 1707 
1378 1379 1676 1675 1411 1412 1709 1708 
1379 1380 1677 1676 1412 1413 1710 1709 
1380 1381 1678 1677 1413 1414 1711 1710 
1381 1382 1679 1678 1414 1415 1712 1711 
1382 1383 1680 1679 1415 1416 1713 1712 
1383 1384 1681 1680 1416 1417 1714 1713 
1384 1385 1682 1681 1417 1418 1715 1714 
1386 1387 1684 1683 1419 1420 1717 1716 
1387 1388 1685 1684 1420 1421 1718 1717 
1388 1389 1686 1685 1421 1422 1719 1718 
1389 1390 1687 1686 1422 1423 1720 1719 
1390 1391 1688 1687 1423 1424 1721 1720 
1391 1392 1689 1688 1424 1425 1722 1721 
1392 1393 1690 1689 1425 1426 1723 1722 
1393 1394 1691 1690 1426 1427 1724 1723 
1394 1395 1692 1691 1427 1428 1725 1724 
1395 1396 1693 1692 1428 1429 1726 1725 
1396 1397 1694 1693 1429 1430 1727 1726 
1397 1398 1695 1694 1430 1431 1728 1727 
1398 1399 1696 1695 1431 1432 1729 1728 
1399 1400 1697 1696 1432 1433 1730 1729 
1400 1401 1698 1697 1433 1434 1731 1730 
1401 1402 1699 1698 1434 1435 1732 1731 
1402 1403 1700 1699 1435 1436 1733 1732 
1403 1404 1701 1700 1436 1437 1734 1733 
1404 1405 1702 1701 1437 1438 1735 1734 
1405 1406 1703 1702 1438 1439 1736 1735 
1406 1407 1704 1703 1439 1440 1737 1736 
1407 1408 1705 1704 1440 1441 1738 1737 
1408 1409 1706 1705 1441 1442 1739 1738 
1409 1410 1707 1706 1442 1443 1740 1739 
1410 1411 1708 1707 1443 1444 1741 1740 
1411 1412 1709 1708 1444 1445 1742 1741 
1412 1413 1710 1709 1445 1446 1743 1742 
1413 1414 1711 1710 1446 1447 1744 1743 
1414 1415 1712 1711 1447 1448 1745 1744 
1415 1416 1713 1712 1448 1449 1746 1745 
1416 1417 1714 1713 1449 1450 1747 1746 
1417 1418 1715 1714 1450 1451 1748 1747 
1419 1420 1717 1716 1452 1453 1750 1749 
1420 1421 1718 1717 1453 1454 1751 1750 
1421 1422 1719 1718 1454 1455 1752 1751 
1422 1423 1720 1719 1455 1456 1753 1752 
1423 1424 1721 1720 1456 1457 1754 1753 
1424 1425 1722 1721 1457 1458 1755 1754 
1425 1426 1723 1722 1458 1459 1756 1755 
1426 1427 1724 1723 1459 1460 1757 1756 
1427 1428 1725 1724 1460 1461 1758 1757 
1428 1429 1726 1725 1461 1462 1759 1758 
1429 1430 1727 1726 1462 1463 1760 1759 
1430 1431 1728 1727 1463 1464 1761 1760 
1431 1432 1729 1728 1464 1465 1762 1761 
1432 1433 1730 1729 1465 1466 1763 1762 
1433 1434 1731 1730 1466 1467 1764 1763 
1434 1435 1732 1731 1467 1468 1765 1764 
1435 1436 1733 1732 1468 1469 1766 1765 
1436 1437 1734 1733 1469 1470 1767 1766 
1437 1438 1735 1734 1470 1471 1768 1767 
1438 1439 1736 1735 1471 1472 1769 1768 
1439 1440 1737 1736 1472 1473 1770 1769 
1440 1441 1738 1737 1473 1474 1771 1770 
1441 1442 1739 1738 1474 1475 1772 1771 
1442 1443 1740 1739 1475 1476 1773 1772 
1443 1444 1741 1740 1476 1477 1774 1773 
1444 1445 1742 1741 1477 1478 1775 1774 
1445 1446 1743 1742 1478 1479 1776 1775 
1446 1447 1744 1743 1479 1480 1777 1776 
1447 1448 1745 1744 1480 1481 1778 1777 
1448 1449 1746 1745 1481 1482 1779 1778 
1449 1450 1747 1746 1482 1483 1780 1779 
1450 1451 1748 1747 1483 1484 1781 1780 
1485 1486 1783 1782 1518 1519 1816 1815 
1486 1487 1784 1783 1519 1520 1817 1816 
1487 1488 1785 1784 1520 1521 1818 1817 
1488 1489 1786 1785 1521 1522 1819 1818 
1489 1490 1787 1786 1522 1523 1820 1819 
1490 1491 1788 1787 1523 1524 1821 1820 
1491 1492 1789 1788 1524 1525 1822 1821 
1492 1493 1790 1789 1525 1526 1823 1822 
1493 1494 1791 1790 1526 1527 1824 1823 
1494 1495 1792 1791 1527 1528 1825 1824 
1495 1496 1793 1792 1528 1529 1826 1825 
1496 1497 1794 1793 1529 1530 1827 1826 
1497 1498 1795 1794 1530 1531 1828 1827 
1498 1499 1796 1795 1531 1532 1829 1828 
1499 1500 1797 1796 1532 1533 1830 1829 
1500 1501 1798 1797 1533 1534 1831 1830 
1501 1502 1799 1798 1534 1535 1832 1831 
1502 1503 1800 1799 1535 1536 1833 1832 
1503 1504 1801 1800 1536 1537 1834 1833 
1504 1505 1802 1801 1537 1538 1835 1834 
1505 1506 1803 1802 1538 1539 1836 1835 
1506 1507 1804 1803 1539 1540 1837 1836 
1507 1508 1805 1804 1540 1541 1838 1837 
1508 1509 1806 1805 1541 1542 1839 1838 
1509 1510 1807 1806 1542 1543 1840 1839 
1510 1511 1808 1807 1543 1544 1841 1840 
1511 1512 1809 1808 1544 1545 1842 1841 
1512 1513 1810 1809 1545 1546 1843 1842 
1513 1514 1811 1810 1546 1547 1844 1843 
1514 1515 1812 1811 1547 1548 1845 1844 
1515 1516 1813 1812 1548 1549 1846 1845 
1516 1517 1814 1813 1549 1550 1847 1846 
1518 1519 1816 1815 1551 1552 1849 1848 
1519 1520 1817 1816 1552 1553 1850 1849 
1520 1521 1818 1817 1553 1554 1851 1850 
1521 1522 1819 1818 1554 1555 1852 1851 
1522 1523 1820 1819 1555 1556 1853 1852 
1523 1524 1821 1820 1556 1557 1854 1853 
1524 1525 1822 1821 1557 1558 1855 1854 
1525 1526 1823 1822 1558 1559 1856 1855 
1526 1527 1824 1823 1559 1560 1857 1856 
1527 1528 1825 1824 1560 1561 1858 1857 
1528 1529 1826 1825 1561 1562 1859 1858 
1529 1530 1827 1826 1562 1563 1860 1859 
1530 1531 1828 1827 1563 1564 1861 1860 
1531 1532 1829 1828 1564 1565 1862 1861 
1532 1533 1830 1829 1565 1566 1863 1862 
1533 1534 1831 1830 1566 1567 1864 1863 
1534 1535 1832 1831 1567 1568 1865 1864 
1535 1536 1833 1832 1568 1569 1866 1865 
1536 1537 1834 1833 1569 1570 1867 1866 
1537 1538 1835 1834 1570 1571 1868 1867 
1538 1539 1836 1835 1571 1572 1869 1868 
1539 1540 1837 1836 1572 1573 1870 1869 
1540 1541 1838 1837 1573 1574 1871 1870 
1541 1542 1839 1838 1574 1575 1872 1871 
1542 1543 1840 1839 1575 1576 1873 1872 
1543 1544 1841 1840 1576 1577 1874 1873 
1544 1545 1842 1841 1577 1578 1875 1874 
1545 1546 1843 1842 1578 1579 1876 1875 
1546 1547 1844 1843 1579 1580 1877 1876 
1547 1548 1845 1844 1580 1581 1878 1877 
1548 1549 1846 1845 1581 1582 1879 1878 
1549 1550 1847 1846 1582 1583 1880 1879 
1551 1552 1849 1848 1584 1585 1882 1881 
1552 1553 1850 1849 1585 1586 1883 1882 
1553 1554 1851 1850 1586 1587 1884 1883 
1554 1555 1852 1851 1587 1588 1885 1884 
1555 1556 1853 1852 1588 1589 1886 1885 
1556 1557 1854 1853 1589 1590 1887 1886 
1557 1558 1855 1854 1590 1591 1888 1887 
1558 1559 1856 1855 1591 1592 1889 1888 
1559 1560 1857 1856 1592 1593 1890 1889 
1560 1561 1858 1857 1593 1594 1891 1890 
1561 1562 1859 1858 1594 1595 1892 1891 
1562 1563 1860 1859 1595 1596 1893 1892 
1563 1564 1861 1860 1596 1597 1894 1893 
1564 1565 1862 1861 1597 1598 1895 1894 
1565 1566 1863 1862 1598 1599 1896 1895 
1566 1567 1864 1863 1599 1600 1897 1896 
1567 1568 1865 1864 1600 1601 1898 1897 
1568 1569 1866 1865 1601 1602 1899 1898 
1569 1570 1867 1866 1602 1603 1900 1899 
1570 1571 1868 1867 1603 1604 1901 1900 
1571 1572 1869 1868 1604 1605 1902 1901 
1572 1573 1870 1869 1605 1606 1903 1902 
1573 1574 1871 1870 1606 1607 1904 1903 
1574 1575 1872 1871 1607 1608 1905 1904 
1575 1576 1873 1872 1608 1609 1906 1905 
1576 1577 1874 1873 1609 1610 1907 1906 
1577 1578 1875 1874 1610 1611 1908 1907 
1578 1579 1876 1875 1611 1612 1909 1908 
1579 1580 1877 1876 1612 1613 1910 1909 
1580 1581 1878 1877 1613 1614 1911 1910 
1581 1582 1879 1878 1614 1615 1912 1911 
1582 1583 1880 1879 1615 1616 1913 1912 
1584 1585 1882 1881 1617 1618 1915 1914 
1585 1586 1883 1882 1618 1619 1916 1915 
1586 1587 1884 1883 1619 1620 1917 1916 
1587 1588 1885 1884 1620 1621 1918 1917 
1588 1589 1886 1885 1621 1622 1919 1918 
1589 1590 1887 1886 1622 1623 1920 1919 
1590 1591 1888 1887 1623 1624 1921 1920 
1591 1592 1889 1888 1624 1625 1922 1921 
1592 1593 1890 1889 1625 1626 1923 1922 
1593 1594 1891 1890 1626 1627 1924 1923 
1594 1595 1892 1891 1627 1628 1925 1924 
1595 1596 1893 1892 1628 1629 1926 1925 
1596 1597 1894 1893 1629 1630 1927 1926 
1597 1598 1895 1894 1630 1631 1928 1927 
1598 1599 1896 1895 1631 1632 1929 1928 
1599 1600 1897 1896 1632 1633 1930 1929 
1600 1601 1898 1897 1633 1634 1931 1930 
1601 1602 1899 1898 1634 1635 1932 1931 
1602 1603 1900 1899 1635 1636 1933 1932 
1603 1604 1901 1900 1636 1637 1934 1933 
1604 1605 1902 1901 1637 1638 1935 1934 
1605 1606 1903 1902 1638 1639 1936 1935 
1606 1607 1904 1903 1639 1640 1937 1936 
1607 1608 1905 1904 1640 1641 1938 1937 
1608 1609 1906 1905 1641 1642 1939 1938 
1609 1610 1907 1906 1642 1643 1940 1939 
1610 1611 1908 1907 1643 1644 1941 1940 
1611 1612 1909 1908 1644 1645 1942 1941 
1612 1613 1910 1909 1645 1646 1943 1942 
1613 1614 1911 1910 1646 1647 1944 1943 
1614 1615 1912 1911 1647 1648 1945 1944 
1615 1616 1913 1912 1648 1649 1946 1945 
1617 1618 1915 1914 1650 1651 1948 1947 
1618 1619 1916 1915 1651 1652 1949 1948 
1619 1620 1917 1916 1652 1653 1950 1949 
1620 1621 1918 1917 1653 1654 1951 1950 
1621 1622 1919 1918 1654 1655 1952 1951 
1622 1623 1920 1919 1655 1656 1953 1952 
1623 1624 1921 1920 1656 1657 1954 1953 
1624 1625 1922 1921 1657 1658 1955 1954 
1625 1626 1923 1922 1658 1659 1956 1955 
1626 1627 1924 1923 1659 1660 1957 1956 
1627 1628 1925 1924 1660 1661 1958 1957 
1628 1629 1926 1925 1661 1662 1959 1958 
1629 1630 1927 1926 1662 1663 1960 1959 
1630 1631 1928 1927 1663 1664 1961 1960 
1631 1632 1929 1928 1664 1665 1962 1961 
1632 1633 1930 1929 1665 1666 1963 1962 
1633 1634 1931 1930 1666 1667 1964 1963 
1634 1635 1932 1931 1667 1668 1965 1964 
1635 1636 1933 1932 1668 1669 1966 1965 
1636 1637 1934 1933 1669 1670 1967 1966 
1637 1638 1935 1934 1670 1671 1968 1967 
1638 1639 1936 1935 1671 1672 1969 1968 
1639 1640 1937 1936 1672 1673 1970 1969 
1640 1641 1938 1937 1673 1674 1971 1970 
1641 1642 1939 1938 1674 1675 1972 1971 
1642 1643 1940 1939 1675 1676 1973 1972 
1643 1644 1941 1940 1676 1677 1974 1973 
1644 1645 1942 1941 1677 1678 1975 1974 
1645 1646 1943 1942 1678 1679 1976 1975 
1646 1647 1944 1943 1679 1680 1977 1976 
1647 1648 1945 1944 1680 1681 1978 1977 
1648 1649 1946 1945 1681 1682 1979 1978 
1650 1651 1948 1947 1683 1684 1981 1980 
1651 1652 1949 1948 1684 1685 1982 1981 
1652 1653 1950 1949 1685 1686 1983 1982 
1653 1654 1951 1950 1686 1687 1984 1983 
1654 1655 1952 1951 1687 1688 1985 1984 
1655 1656 1953 1952 1688 1689 1986 1985 
1656 1657 1954 1953 1689 1690 1987 1986 
1657 1658 1955 1954 1690 1691 1988 1987 
1658 1659 1956 1955 1691 1692 1989 1988 
1659 1660 1957 1956 1692 1693 1990 1989 
1660 1661 1958 1957 1693 1694 1991 1990 
1661 1662 1959 1958 1694 1695 1992 1991 
1662 1663 1960 1959 1695 1696 1993 1992 
1663 1664 1961 1960 1696 1697 1994 1993 
1664 1665 1962 1961 1697 1698 1995 1994 
1665 1666 1963 1962 1698 1699 1996 1995 
1666 1667 1964 1963 1699 1700 1997 1996 
1667 1668 1965 1964 1700 1701 1998 1997 
1668 1669 1966 1965 1701 1702 1999 1998 
1669 1670 1967 1966 1702 1703 2000 1999 
1670 1671 1968 1967 1703 1704 2001 2000 
1671 1672 1969 1968 1704 1705 2002 2001 
1672 1673 1970 1969 1705 1706 2003 2002 
1673 1674 1971 1970 1706 1707 2004 2003 
1674 1675 1972 1971 1707 1708 2005 2004 
1675 1676 1973 1972 1708 1709 2006 2005 
1676 1677 1974 1973 1709 1710 2007 2006 
1677 1678 1975 1974 1710 1711 2008 2007 
1678 1679 1976 1975 1711 1712 2009 2008 
1679 1680 1977 1976 1712 1713 2010 2009 
1680 1681 1978 1977 1713 1714 2011 2010 
1681 1682 1979 1978 1714 1715 2012 2011 
1683 1684 1981 1980 1716 1717 2014 2013 
1684 1685 1982 1981 1717 1718 2015 2014 
1685 1686 1983 1982 1718 1719 2016 2015 
1686 1687 1984 1983 1719 1720 2017 2016 
1687 1688 1985 1984 1720 1721 2018 2017 
1688 1689 1986 1985 1721 1722 2019 2018 
1689 1690 1987 1986 1722 1723 2020 2019 
1690 1691 1988 1987 1723 1724 2021 2020 
1691 1692 1989 1988 1724 1725 2022 2021 
1692 1693 1990 1989 1725 1726 2023 2022 
1693 1694 1991 1990 1726 1727 2024 2023 
1694 1695 1992 1991 1727 1728 2025 2024 
1695 1696 1993 1992 1728 1729 2026 2025 
1696 1697 1994 1993 1729 1730 2027 2026 
1697 1698 1995 1994 1730 1731 2028 2027 
1698 1699 1996 1995 1731 1732 2029 2028 
1699 1700 1997 1996 1732 1733 2030 2029 
1700 1701 1998 1997 1733 1734 2031 2030 
1701 1702 1999 1998 1734 1735 2032 2031 
1702 1703 2000 1999 1735 1736 2033 2032 
1703 1704 2001 2000 1736 1737 2034 2033 
1704 1705 2002 2001 1737 1738 2035 2034 
1705 1706 2003 2002 1738 1739 2036 2035 
1706 1707 2004 2003 1739 1740 2037 2036 
1707 1708 2005 2004 1740 1741 2038 2037 
1708 1709 2006 2005 1741 1742 2039 2038 
1709 1710 2007 2006 1742 1743 2040 2039 
1710 1711 2008 2007 1743 1744 2041 2040 
1711 1712 2009 2008 1744 1745 2042 2041 
1712 1713 2010 2009 1745 1746 2043 2042 
1713 1714 2011 2010 1746 1747 2044 2043 
1714 1715 2012 2011 1747 1748 2045 2044 
1716 1717 2014 2013 1749 1750 2047 2046 
1717 1718 2015 2014 1750 1751 2048 2047 
1718 1719 2016 2015 1751 1752 2049 2048 
1719 1720 2017 2016 1752 1753 2050 2049 
1720 1721 2018 2017 1753 1754 2051 2050 
1721 1722 2019 2018 1754 1755 2052 2051 
1722 1723 2020 2019 1755 1756 2053 2052 
1723 1724 2021 2020 1756 1757 2054 2053 
1724 1725 2022 2021 1757 1758 2055 2054 
1725 1726 2023 2022 1758 1759 2056 2055 
1726 1727 2024 2023 1759 1760 2057 2056 
1727 1728 2025 2024 1760 1761 2058 2057 
1728 1729 2026 2025 1761 1762 2059 2058 
1729 1730 2027 2026 1762 1763 2060 2059 
1730 1731 2028 2027 1763 1764 2061 2060 
1731 1732 2029 2028 1764 1765 2062 2061 
1732 1733 2030 2029 1765 1766 2063 2062 
1733 1734 2031 2030 1766 1767 2064 2063 
1734 1735 2032 2031 1767 1768 2065 2064 
1735 1736 2033 2032 1768 1769 2066 2065 
1736 1737 2034 2033 1769 1770 2067 2066 
1737 1738 2035 2034 1770 1771 2068 2067 
1738 1739 2036 2035 1771 1772 2069 2068 
1739 1740 2037 2036 1772 1773 2070 2069 
1740 1741 2038 2037 1773 1774 2071 2070 
1741 1742 2039 2038 1774 1775 2072 2071 
1742 1743 2040 2039 1775 1776 2073 2072 
1743 1744 2041 2040 1776 1777 2074 2073 
1744 1745 2042 2041 1777 1778 2075 2074 
1745 1746 2043 2042 1778 1779 2076 2075 
1746 1747 2044 2043 1779 1780 2077 2076 
1747 1748 2045 2044 1780 1781 2078 2077 
1782 1783 2080 2079 1815 1816 2113 2112 
1783 1784 2081 2080 1816 1817 2114 2113 
1784 1785 2082 2081 1817 1818 2115 2114 
1785 1786 2083 2082 1818 1819 2116 2115 
1786 1787 2084 2083 1819 1820 2117 2116 
1787 1788 2085 2084 1820 1821 2118 2117 
1788 1789 2086 2085 1821 1822 2119 2118 
1789 1790 2087 2086 1822 1823 2120 2119 
1790 1791 2088 2087 1823 1824 2121 2120 
1791 1792 2089 2088 1824 1825 2122 2121 
1792 1793 2090 2089 1825 1826 2123 2122 
1793 1794 2091 2090 1826 1827 2124 2123 
1794 1795 2092 2091 1827 1828 2125 2124 
1795 1796 2093 2092 1828 1829 2126 2125 
1796 1797 2094 2093 1829 1830 2127 2126 
1797 1798 2095 2094 1830 1831 2128 2127 
1798 1799 2096 2095 1831 1832 2129 2128 
1799 1800 2097 2096 1832 1833 2130 2129 
1800 1801 2098 2097 1833 1834 2131 2130 
1801 1802 2099 2098 1834 1835 2132 2131 
1802 1803 2100 2099 1835 1836 2133 2132 
1803 1804 2101 2100 1836 1837 2134 2133 
1804 1805 2102 2101 1837 1838 2135 2134 
1805 1806 2103 2102 1838 1839 2136 2135 
1806 1807 2104 2103 1839 1840 2137 2136 
1807 1808 2105 2104 1840 1841 2138 2137 
1808 1809 2106 2105 1841 1842 2139 2138 
1809 1810 2107 2106 1842 1843 2140 2139 
1810 1811 2108 2107 1843 1844 2141 2140 
1811 1812 2109 2108 1844 1845 2142 2141 
1812 1813 2110 2109 1845 1846 2143 2142 
1813 1814 2111 2110 1846 1847 2144 2143 
1815 1816 2113 2112 1848 1849 2146 2145 
1816 1817 2114 2113 1849 1850 2147 2146 
1817 1818 2115 2114 1850 1851 2148 2147 
1818 1819 2116 2115 1851 1852 2149 2148 
1819 1820 2117 2116 1852 1853 2150 2149 
1820 1821 2118 2117 1853 1854 2151 2150 
1821 1822 2119 2118 1854 1855 2152 2151 
1822 1823 2120 2119 1855 1856 2153 2152 
1823 1824 2121 2120 1856 1857 2154 2153 
1824 1825 2122 2121 1857 1858 2155 2154 
1825 1826 2123 2122 1858 1859 2156 2155 
1826 1827 2124 2123 1859 1860 2157 2156 
1827 1828 2125 2124 1860 1861 2158 2157 
1828 1829 2126 2125 1861 1862 2159 2158 
1829 1830 2127 2126 1862 1863 2160 2159 
1830 1831 2128 2127 1863 1864 2161 2160 
1831 1832 2129 2128 1864 1865 2162 2161 
1832 1833 2130 2129 1865 1866 2163 2162 
1833 1834 2131 2130 1866 1867 2164 2163 
1834 1835 2132 2131 1867 1868 2165 2164 
1835 1836 2133 2132 1868 1869 2166 2165 
1836 1837 2134 2133 1869 1870 2167 2166 
1837 1838 2135 2134 1870 1871 2168 2167 
1838 1839 2136 2135 1871 1872 2169 2168 
1839 1840 2137 2136 1872 1873 2170 2169 
1840 1841 2138 2137 1873 1874 2171 2170 
1841 1842 2139 2138 1874 1875 2172 2171 
1842 1843 2140 2139 1875 1876 2173 2172 
1843 1844 2141 2140 1876 1877 2174 2173 
1844 1845 2142 2141 1877 1878 2175 2174 
1845 1846 2143 2142 1878 1879 2176 2175 
1846 1847 2144 2143 1879 1880 2177 2176 
1848 1849 2146 2145 1881 1882 2179 2178 
1849 1850 2147 2146 1882 1883 2180 2179 
1850 1851 2148 2147 1883 1884 2181 2180 
1851 1852 2149 2148 1884 1885 2182 2181 
1852 1853 2150 2149 1885 1886 2183 2182 
1853 1854 2151 2150 1886 1887 2184 2183 
1854 1855 2152 2151 1887 1888 2185 2184 
1855 1856 2153 2152 1888 1889 2186 2185 
1856 1857 2154 2153 1889 1890 2187 2186 
1857 1858 2155 2154 1890 1891 2188 2187 
1858 1859 2156 2155 1891 1892 2189 2188 
1859 1860 2157 2156 1892 1893 2190 2189 
1860 1861 2158 2157 1893 1894 2191 2190 
1861 1862 2159 2158 1894 1895 2192 2191 
1862 1863 2160 2159 1895 1896 2193 2192 
1863 1864 2161 2160 1896 1897 2194 2193 
1864 1865 2162 2161 1897 1898 2195 2194 
1865 1866 2163 2162 1898 1899 2196 2195 
1866 1867 2164 2163 1899 1900 2197 2196 
1867 1868 2165 2164 1900 1901 2198 2197 
1868 1869 2166 2165 1901 1902 2199 2198 
1869 1870 2167 2166 1902 1903 2200 2199 
1870 1871 2168 2167 1903 1904 2201 2200 
1871 1872 2169 2168 1904 1905 2202 2201 
1872 1873 2170 2169 1905 1906 2203 2202 
1873 1874 2171 2170 1906 1907 2204 2203 
1874 1875 2172 2171 1907 1908 2205 2204 
1875 1876 2173 2172 1908 1909 2206 2205 
1876 1877 2174 2173 1909 1910 2207 2206 
1877 1878 2175 2174 1910 1911 2208 2207 
1878 1879 2176 2175 1911 1912 2209 2208 
1879 1880 2177 2176 1912 1913 2210 2209 
1881 1882 2179 2178 1914 1915 2212 2211 
1882 1883 2180 2179 1915 1916 2213 2212 
1883 1884 2181 2180 1916 1917 2214 2213 
1884 1885 2182 2181 1917 1918 2215 2214 
1885 1886 2183 2182 1918 1919 2216 2215 
1886 1887 2184 2183 1919 1920 2217 2216 
1887 1888 2185 2184 1920 1921 2218 2217 
1888 1889 2186 2185 1921 1922 2219 2218 
1889 1890 2187 2186 1922 1923 2220 2219 
1890 1891 2188 2187 1923 1924 2221 2220 
1891 1892 2189 2188 1924 1925 2222 2221 
1892 1893 2190 2189 1925 1926 2223 2222 
1893 1894 2191 2190 1926 1927 2224 2223 
1894 1895 2192 2191 1927 1928 2225 2224 
1895 1896 2193 2192 1928 1929 2226 2225 
1896 1897 2194 2193 1929 1930 2227 2226 
1897 1898 2195 2194 1930 1931 2228 2227 
1898 1899 2196 2195 1931 1932 2229 2228 
1899 1900 2197 2196 1932 1933 2230 2229 
1900 1901 2198 2197 1933 1934 2231 2230 
1901 1902 2199 2198 1934 1935 2232 2231 
1902 1903 2200 2199 1935 1936 2233 2232 
1903 1904 2201 2200 1936 1937 2234 2233 
1904 1905 2202 2201 1937 1938 2235 2234 
1905 1906 2203 2202 1938 1939 2236 2235 
1906 1907 2204 2203 1939 1940 2237 2236 
1907 1908 2205 2204 1940 1941 2238 2237 
1908 1909 2206 2205 1941 1942 2239 2238 
1909 1910 2207 2206 1942 1943 2240 2239 
1910 1911 2208 2207 1943 1944 2241 2240 
1911 1912 2209 2208 1944 1945 2242 2241 
1912 1913 2210 2209 1945 1946 2243 2242 
1914 1915 2212 2211 1947 1948 2245 2244 
1915 1916 2213 2212 1948 1949 2246 2245 
1916 1917 2214 2213 1949 1950 2247 2246 
1917 1918 2215 2214 1950 1951 2248 2247 
1918 1919 2216 2215 1951 1952 2249 2248 
1919 1920 2217 2216 1952 1953 2250 2249 
1920 1921 2218 2217 1953 1954 2251 2250 
1921 1922 2219 2218 1954 1955 2252 2251 
1922 1923 2220 2219 1955 1956 2253 2252 
1923 1924 2221 2220 1956 1957 2254 2253 
1924 1925 2222 2221 1957 1958 2255 2254 
1925 1926 2223 2222 1958 1959 2256 2255 
1926 1927 2224 2223 1959 1960 2257 2256 
1927 1928 2225 2224 1960 1961 2258 2257 
1928 1929 2226 2225 1961 1962 2259 2258 
1929 1930 2227 2226 1962 1963 2260 2259 
1930 1931 2228 2227 1963 1964 2261 2260 
1931 1932 2229 2228 1964 1965 2262 2261 
1932 1933 2230 2229 1965 1966 2263 2262 
1933 1934 2231 2230 1966 1967 2264 2263 
1934 1935 2232 2231 1967 1968 2265 2264 
1935 1936 2233 2232 1968 1969 2266 2265 
1936 1937 2234 2233 1969 1970 2267 2266 
1937 1938 2235 2234 1970 1971 2268 2267 
1938 1939 2236 2235 1971 1972 2269 2268 
1939 1940 2237 2236 1972 1973 2270 2269 
1940 1941 2238 2237 1973 1974 2271 2270 
1941 1942 2239 2238 1974 1975 2272 2271 
1942 1943 2240 2239 1975 1976 2273 2272 
1943 1944 2241 2240 1976 1977 2274 2273 
1944 1945 2242 2241 1977 1978 2275 2274 
1945 1946 2243 2242 1978 1979 2276 2275 
1947 1948 2245 2244 1980 1981 2278 2277 
1948 1949 2246 2245 1981 1982 2279 2278 
1949 1950 2247 2246 1982 1983 2280 2279 
1950 1951 2248 2247 1983 1984 2281 2280 
1951 1952 2249 2248 1984 1985 2282 2281 
1952 1953 2250 2249 1985 1986 2283 2282 
1953 1954 2251 2250 1986 1987 2284 2283 
1954 1955 2252 2251 1987 1988 2285 2284 
1955 1956 2253 2252 1988 1989 2286 2285 
1956 1957 2254 2253 1989 1990 2287 2286 
1957 1958 2255 2254 1990 1991 2288 2287 
1958 1959 2256 2255 1991 1992 2289 2288 
1959 1960 2257 2256 1992 1993 2290 2289 
1960 1961 2258 2257 1993 1994 2291 2290 
1961 1962 2259 2258 1994 1995 2292 2291 
1962 1963 2260 2259 1995 1996 2293 2292 
1963 1964 2261 2260 1996 1997 2294 2293 
1964 1965 2262 2261 1997 1998 2295 2294 
1965 1966 2263 2262 1998 1999 2296 2295 
1966 1967 2264 2263 1999 2000 2297 2296 
1967 1968 2265 2264 2000 2001 2298 2297 
1968 1969 2266 2265 2001 2002 2299 2298 
1969 1970 2267 2266 2002 2003 2300 2299 
1970 1971 2268 2267 2003 2004 2301 2300 
1971 1972 2269 2268 2004 2005 2302 2301 
1972 1973 2270 2269 2005 2006 2303 2302 
1973 1974 2271 2270 2006 2007 2304 2303 
1974 1975 2272 2271 2007 2008 2305 2304 
1975 1976 2273 2272 2008 2009 2306 2305 
1976 1977 2274 2273 2009 2010 2307 2306 
1977 1978 2275 2274 2010 2011 2308 2307 
1978 1979 2276 2275 2011 2012 2309 2308 
1980 1981 2278 2277 2013 2014 2311 2310 
1981 1982 2279 2278 2014 2015 2312 2311 
1982 1983 2280 2279 2015 2016 2313 2312 
1983 1984 2281 2280 2016 2017 2314 2313 
1984 1985 2282 2281 2017 2018 2315 2314 
1985 1986 2283 2282 2018 2019 2316 2315 
1986 1987 2284 2283 2019 2020 2317 2316 
1987 1988 2285 2284 2020 2021 2318 2317 
1988 1989 2286 2285 2021 2022 2319 2318 
1989 1990 2287 2286 2022 2023 2320 2319 
1990 1991 2288 2287 2023 2024 2321 2320 
1991 1992 2289 2288 2024 2025 2322 2321 
1992 1993 2290 2289 2025 2026 2323 2322 
1993 1994 2291 2290 2026 2027 2324 2323 
1994 1995 2292 2291 2027 2028 2325 2324 
1995 1996 2293 2292 2028 2029 2326 2325 
1996 1997 2294 2293 2029 2030 2327 2326 
1997 1998 2295 2294 2030 2031 2328 2327 
1998 1999 2296 2295 2031 2032 2329 2328 
1999 2000 2297 2296 2032 2033 2330 2329 
2000 2001 2298 2297 2033 2034 2331 2330 
2001 2002 2299 2298 2034 2035 2332 2331 
2002 2003 2300 2299 2035 2036 2333 2332 
2003 2004 2301 2300 2036 2037 2334 2333 
2004 2005 2302 2301 2037 2038 2335 2334 
2005 2006 2303 2302 2038 2039 2336 2335 
2006 2007 2304 2303 2039 2040 2337 2336 
2007 2008 2305 2304 2040 2041 2338 2337 
2008 2009 2306 2305 2041 2042 2339 2338 
2009 2010 2307 2306 2042 2043 2340 2339 
2010 2011 2308 2307 2043 2044 2341 2340 
2011 2012 2309 2308 2044 2045 2342 2341 
2013 2014 2311 2310 2046 2047 2344 2343 
2014 2015 2312 2311 2047 2048 2345 2344 
2015 2016 2313 2312 2048 2049 2346 2345 
2016 2017 2314 2313 2049 2050 2347 2346 
2017 2018 2315 2314 2050 2051 2348 2347 
2018 2019 2316 2315 2051 2052 2349 2348 
2019 2020 2317 2316 2052 2053 2350 2349 
2020 2021 2318 2317 2053 2054 2351 2350 
2021 2022 2319 2318 2054 2055 2352 2351 
2022 2023 2320 2319 2055 2056 2353 2352 
2023 2024 2321 2320 2056 2057 2354 2353 
2024 2025 2322 2321 2057 2058 2355 2354 
2025 2026 2323 2322 2058 2059 2356 2355 
2026 2027 2324 2323 2059 2060 2357 2356 
2027 2028 2325 2324 2060 2061 2358 2357 
2028 2029 2326 2325 2061 2062 2359 2358 
2029 2030 2327 2326 2062 2063 2360 2359 
2030 2031 2328 2327 2063 2064 2361 2360 
2031 2032 2329 2328 2064 2065 2362 2361 
2032 2033 2330 2329 2065 2066 2363 2362 
2033 2034 2331 2330 2066 2067 2364 2363 
2034 2035 2332 2331 2067 2068 2365 2364 
2035 2036 2333 2332 2068 2069 2366 2365 
2036 2037 2334 2333 2069 2070 2367 2366 
2037 2038 2335 2334 2070 2071 2368 2367 
2038 2039 2336 2335 2071 2072 2369 2368 
2039 2040 2337 2336 2072 2073 2370 2369 
2040 2041 2338 2337 2073 2074 2371 2370 
2041 2042 2339 2338 2074 2075 2372 2371 
2042 2043 2340 2339 2075 2076 2373 2372 
2043 2044 2341 2340 2076 2077 2374 2373 
2044 2045 2342 2341 2077 2078 2375 2374 
2079 2080 2377 2376 2112 2113 2410 2409 
2080 2081 2378 2377 2113 2114 2411 2410 
2081 2082 2379 2378 2114 2115 2412 2411 
2082 2083 2380 2379 2115 2116 2413 2412 
2083 2084 2381 2380 2116 2117 2414 2413 
2084 2085 2382 2381 2117 2118 2415 2414 
2085 2086 2383 2382 2118 2119 2416 2415 
2086 2087 2384 2383 2119 2120 2417 2416 
2087 2088 2385 2384 2120 2121 2418 2417 
2088 2089 2386 2385 2121 2122 2419 2418 
2089 2090 2387 2386 2122 2123 2420 2419 
2090 2091 2388 2387 2123 2124 2421 2420 
2091 2092 2389 2388 2124 2125 2422 2421 
2092 2093 2390 2389 2125 2126 2423 2422 
2093 2094 2391 2390 2126 2127 2424 2423 
2094 2095 2392 2391 2127 2128 2425 2424 
2095 2096 2393 2392 2128 2129 2426 2425 
2096 2097 2394 2393 2129 2130 2427 2426 
2097 2098 2395 2394 2130 2131 2428 2427 
2098 2099 2396 2395 2131 2132 2429 2428 
2099 2100 2397 2396 2132 2133 2430 2429 
2100 2101 2398 2397 2133 2134 2431 2430 
2101 2102 2399 2398 2134 2135 2432 2431 
2102 2103 2400 2399 2135 2136 2433 2432 
2103 2104 2401 2400 2136 2137 2434 2433 
2104 2105 2402 2401 2137 2138 2435 2434 
2105 2106 2403 2402 2138 2139 2436 2435 
2106 2107 2404 2403 2139 2140 2437 2436 
2107 2108 2405 2404 2140 2141 2438 2437 
2108 2109 2406 2405 2141 2142 2439 2438 
2109 2110 2407 2406 2142 2143 2440 2439 
2110 2111 2408 2407 2143 2144 2441 2440 
2112 2113 2410 2409 2145 2146 2443 2442 
2113 2114 2411 2410 2146 2147 2444 2443 
2114 2115 2412 2411 2147 2148 2445 2444 
2115 2116 2413 2412 2148 2149 2446 2445 
2116 2117 2414 2413 2149 2150 2447 2446 
2117 2118 2415 2414 2150 2151 2448 2447 
2118 2119 2416 2415 2151 2152 2449 2448 
2119 2120 2417 2416 2152 2153 2450 2449 
2120 2121 2418 2417 2153 2154 2451 2450 
2121 2122 2419 2418 2154 2155 2452 2451 
2122 2123 2420 2419 2155 2156 2453 2452 
2123 2124 2421 2420 2156 2157 2454 2453 
2124 2125 2422 2421 2157 2158 2455 2454 
2125 2126 2423 2422 2158 2159 2456 2455 
2126 2127 2424 2423 2159 2160 2457 2456 
2127 2128 2425 2424 2160 2161 2458 2457 
2128 2129 2426 2425 2161 2162 2459 2458 
2129 2130 2427 2426 2162 2163 2460 2459 
2130 2131 2428 2427 2163 2164 2461 2460 
2131 2132 2429 2428 2164 2165 2462 2461 
2132 2133 2430 2429 2165 2166 2463 2462 
2133 2134 2431 2430 2166 2167 2464 2463 
2134 2135 2432 2431 2167 2168 2465 2464 
2135 2136 2433 2432 2168 2169 2466 2465 
2136 2137 2434 2433 2169 2170 2467 2466 
2137 2138 2435 2434 2170 2171 2468 2467 
2138 2139 2436 2435 2171 2172 2469 2468 
2139 2140 2437 2436 2172 2173 2470 2469 
2140 2141 2438 2437 2173 2174 2471 2470 
2141 2142 2439 2438 2174 2175 2472 2471 
2142 2143 2440 2439 2175 2176 2473 2472 
2143 2144 2441 2440 2176 2177 2474 2473 
2145 2146 2443 2442 2178 2179 2476 2475 
2146 2147 2444 2443 2179 2180 2477 2476 
2147 2148 2445 2444 2180 2181 2478 2477 
2148 2149 2446 2445 2181 2182 2479 2478 
2149 2150 2447 2446 2182 2183 2480 2479 
2150 2151 2448 2447 2183 2184 2481 2480 
2151 2152 2449 2448 2184 2185 2482 2481 
2152 2153 2450 2449 2185 2186 2483 2482 
2153 2154 2451 2450 2186 2187 2484 2483 
2154 2155 2452 2451 2187 2188 2485 2484 
2155 2156 2453 2452 2188 2189 2486 2485 
2156 2157 2454 2453 2189 2190 2487 2486 
2157 2158 2455 2454 2190 2191 2488 2487 
2158 2159 2456 2455 2191 2192 2489 2488 
2159 2160 2457 2456 2192 2193 2490 2489 
2160 2161 2458 2457 2193 2194 2491 2490 
2161 2162 2459 2458 2194 2195 2492 2491 
2162 2163 2460 2459 2195 2196 2493 2492 
2163 2164 2461 2460 2196 2197 2494 2493 
2164 2165 2462 2461 2197 2198 2495 2494 
2165 2166 2463 2462 2198 2199 2496 2495 
2166 2167 2464 2463 2199 2200 2497 2496 
2167 2168 2465 2464 2200 2201 2498 2497 
2168 2169 2466 2465 2201 2202 2499 2498 
2169 2170 2467 2466 2202 2203 2500 2499 
2170 2171 2468 2467 2203 2204 2501 2500 
2171 2172 2469 2468 2204 2205 2502 2501 
2172 2173 2470 2469 2205 2206 2503 2502 
2173 2174 2471 2470 2206 2207 2504 2503 
2174 2175 2472 2471 2207 2208 2505 2504 
2175 2176 2473 2472 2208 2209 2506 2505 
2176 2177 2474 2473 2209 2210 2507 2506 
2178 2179 2476 2475 2211 2212 2509 2508 
2179 2180 2477 2476 2212 2213 2510 2509 
2180 2181 2478 2477 2213 2214 2511 2510 
2181 2182 2479 2478 2214 2215 2512 2511 
2182 2183 2480 2479 2215 2216 2513 2512 
2183 2184 2481 2480 2216 2217 2514 2513 
2184 2185 2482 2481 2217 2218 2515 2514 
2185 2186 2483 2482 2218 2219 2516 2515 
2186 2187 2484 2483 2219 2220 2517 2516 
2187 2188 2485 2484 2220 2221 2518 2517 
2188 2189 2486 2485 2221 2222 2519 2518 
2189 2190 2487 2486 2222 2223 2520 2519 
2190 2191 2488 2487 2223 2224 2521 2520 
2191 2192 2489 2488 2224 2225 2522 2521 
2192 2193 2490 2489 2225 2226 2523 2522 
2193 2194 2491 2490 2226 2227 2524 2523 
2194 2195 2492 2491 2227 2228 2525 2524 
2195 2196 2493 2492 2228 2229 2526 2525 
2196 2197 2494 2493 2229 2230 2527 2526 
2197 2198 2495 2494 2230 2231 2528 2527 
2198 2199 2496 2495 2231 2232 2529 2528 
2199 2200 2497 2496 2232 2233 2530 2529 
2200 2201 2498 2497 2233 2234 2531 2530 
2201 2202 2499 2498 2234 2235 2532 2531 
2202 2203 2500 2499 2235 2236 2533 2532 
2203 2204 2501 2500 2236 2237 2534 2533 
2204 2205 2502 2501 2237 2238 2535 2534 
2205 2206 2503 2502 2238 2239 2536 2535 
2206 2207 2504 2503 2239 2240 2537 2536 
2207 2208 2505 2504 2240 2241 2538 2537 
2208 2209 2506 2505 2241 2242 2539 2538 
2209 2210 2507 2506 2242 2243 2540 2539 
2211 2212 2509 2508 2244 2245 2542 2541 
2212 2213 2510 2509 2245 2246 2543 2542 
2213 2214 2511 2510 2246 2247 2544 2543 
2214 2215 2512 2511 2247 2248 2545 2544 
2215 2216 2513 2512 2248 2249 2546 2545 
2216 2217 2514 2513 2249 2250 2547 2546 
2217 2218 2515 2514 2250 2251 2548 2547 
2218 2219 2516 2515 2251 2252 2549 2548 
2219 2220 2517 2516 2252 2253 2550 2549 
2220 2221 2518 2517 2253 2254 2551 2550 
2221 2222 2519 2518 2254 2255 2552 2551 
2222 2223 2520 2519 2255 2256 2553 2552 
2223 2224 2521 2520 2256 2257 2554 2553 
2224 2225 2522 2521 2257 2258 2555 2554 
2225 2226 2523 2522 2258 2259 2556 2555 
2226 2227 2524 2523 2259 2260 2557 2556 
2227 2228 2525 2524 2260 2261 2558 2557 
2228 2229 2526 2525 2261 2262 2559 2558 
2229 2230 2527 2526 2262 2263 2560 2559 
2230 2231 2528 2527 2263 2264 2561 2560 
2231 2232 2529 2528 2264 2265 2562 2561 
2232 2233 2530 2529 2265 2266 2563 2562 
2233 2234 2531 2530 2266 2267 2564 2563 
2234 2235 2532 2531 2267 2268 2565 2564 
2235 2236 2533 2532 2268 2269 2566 2565 
2236 2237 2534 2533 2269 2270 2567 2566 
2237 2238 2535 2534 2270 2271 2568 2567 
2238 2239 2536 2535 2271 2272 2569 2568 
2239 2240 2537 2536 2272 2273 2570 2569 
2240 2241 2538 2537 2273 2274 2571 2570 
2241 2242 2539 2538 2274 2275 2572 2571 
2242 2243 2540 2539 2275 2276 2573 2572 
2244 2245 2542 2541 2277 2278 2575 2574 
2245 2246 2543 2542 2278 2279 2576 2575 
2246 2247 2544 2543 2279 2280 2577 2576 
2247 2248 2545 2544 2280 2281 2578 2577 
2248 2249 2546 2545 2281 2282 2579 2578 
2249 2250 2547 2546 2282 2283 2580 2579 
2250 2251 2548 2547 2283 2284 2581 2580 
2251 2252 2549 2548 2284 2285 2582 2581 
2252 2253 2550 2549 2285 2286 2583 2582 
2253 2254 2551 2550 2286 2287 2584 2583 
2254 2255 2552 2551 2287 2288 2585 2584 
2255 2256 2553 2552 2288 2289 2586 2585 
2256 2257 2554 2553 2289 2290 2587 2586 
2257 2258 2555 2554 2290 2291 2588 2587 
2258 2259 2556 2555 2291 2292 2589 2588 
2259 2260 2557 2556 2292 2293 2590 2589 
2260 2261 2558 2557 2293 2294 2591 2590 
2261 2262 2559 2558 2294 2295 2592 2591 
2262 2263 2560 2559 2295 2296 2593 2592 
2263 2264 2561 2560 2296 2297 2594 2593 
2264 2265 2562 2561 2297 2298 2595 2594 
2265 2266 2563 2562 2298 2299 2596 2595 
2266 2267 2564 2563 2299 2300 2597 2596 
2267 2268 2565 2564 2300 2301 2598 2597 
2268 2269 2566 2565 2301 2302 2599 2598 
2269 2270 2567 2566 2302 2303 2600 2599 
2270 2271 2568 2567 2303 2304 2601 2600 
2271 2272 2569 2568 2304 2305 2602 2601 
2272 2273 2570 2569 2305 2306 2603 2602 
2273 2274 2571 2570 2306 2307 2604 2603 
2274 2275 2572 2571 2307 2308 2605 2604 
2275 2276 2573 2572 2308 2309 2606 2605 
2277 2278 2575 2574 2310 2311 2608 2607 
2278 2279 2576 2575 2311 2312 2609 2608 
2279 2280 2577 2576 2312 2313 2610 2609 
2280 2281 2578 2577 2313 2314 2611 2610 
2281 2282 2579 2578 2314 2315 2612 2611 
2282 2283 2580 2579 2315 2316 2613 2612 
2283 2284 2581 2580 2316 2317 2614 2613 
2284 2285 2582 2581 2317 2318 2615 2614 
2285 2286 2583 2582 2318 2319 2616 2615 
2286 2287 2584 2583 2319 2320 2617 2616 
2287 2288 2585 2584 2320 2321 2618 2617 
2288 2289 2586 2585 2321 2322 2619 2618 
2289 2290 2587 2586 2322 2323 2620 2619 
2290 2291 2588 2587 2323 2324 2621 2620 
2291 2292 2589 2588 2324 2325 2622 2621 
2292 2293 2590 2589 2325 2326 2623 2622 
2293 2294 2591 2590 2326 2327 2624 2623 
2294 2295 2592 2591 2327 2328 2625 2624 
2295 2296 2593 2592 2328 2329 2626 2625 
2296 2297 2594 2593 2329 2330 2627 2626 
2297 2298 2595 2594 2330 2331 2628 2627 
2298 2299 2596 2595 2331 2332 2629 2628 
2299 2300 2597 2596 2332 2333 2630 2629 
2300 2301 2598 2597 2333 2334 2631 2630 
2301 2302 2599 2598 2334 2335 2632 2631 
2302 2303 2600 2599 2335 2336 2633 2632 
2303 2304 2601 2600 2336 2337 2634 2633 
2304 2305 2602 2601 2337 2338 2635 2634 
2305 2306 2603 2602 2338 2339 2636 2635 
2306 2307 2604 2603 2339 2340 2637 2636 
2307 2308 2605 2604 2340 2341 2638 2637 
2308 2309 2606 2605 2341 2342 2639 2638 
2310 2311 2608 2607 2343 2344 2641 2640 
2311 2312 2609 2608 2344 2345 2642 2641 
2312 2313 2610 2609 2345 2346 2643 2642 
2313 2314 2611 2610 2346 2347 2644 2643 
2314 2315 2612 2611 2347 2348 2645 2644 
2315 2316 2613 2612 2348 2349 2646 2645 
2316 2317 2614 2613 2349 2350 2647 2646 
2317 2318 2615 2614 2350 2351 2648 2647 
2318 2319 2616 2615 2351 2352 2649 2648 
2319 2320 2617 2616 2352 2353 2650 2649 
2320 2321 2618 2617 2353 2354 2651 2650 
2321 2322 2619 2618 2354 2355 2652 2651 
2322 2323 2620 2619 2355 2356 2653 2652 
2323 2324 2621 2620 2356 2357 2654 2653 
2324 2325 2622 2621 2357 2358 2655 2654 
2325 2326 2623 2622 2358 2359 2656 2655 
2326 2327 2624 2623 2359 2360 2657 2656 
2327 2328 2625 2624 2360 2361 2658 2657 
2328 2329 2626 2625 2361 2362 2659 2658 
2329 2330 2627 2626 2362 2363 2660 2659 
2330 2331 2628 2627 2363 2364 2661 2660 
2331 2332 2629 2628 2364 2365 2662 2661 
2332 2333 2630 2629 2365 2366 2663 2662 
2333 2334 2631 2630 2366 2367 2664 2663 
2334 2335 2632 2631 2367 2368 2665 2664 
2335 2336 2633 2632 2368 2369 2666 2665 
2336 2337 2634 2633 2369 2370 2667 2666 
2337 2338 2635 2634 2370 2371 2668 2667 
2338 2339 2636 2635 2371 2372 2669 2668 
2339 2340 2637 2636 2372 2373 2670 2669 
2340 2341 2638 2637 2373 2374 2671 2670 
2341 2342 2639 2638 2374 2375 2672 2671 
CELL_TYPES 2048
12 12 12 12 12 12 12 12 12 12 12 12 12 12 12 12 12 12 12 12 12 12 12 12 12 12 12 12 12 12 12 12 12 12 12 12 12 12 12 12 12 12 12 12 12 12 12 12 12 12 12 12 12 12 12 12 12 12 12 12 12 12 12 12 12 12 12 12 12 12 12 12 12 12 12 12 12 12 12 12 12 12 12 12 12 12 12 12 12 12 12 12 12 12 12 12 12 12 12 12 12 12 12 12 12 12 12 12 12 12 12 12 12 12 12 12 12 12 12 12 12 12 12 12 12 12 12 12 12 12 12 12 12 12 12 12 12 12 12 12 12 12 12 12 12 12 12 12 12 12 12 12 12 12 12 12 12 12 12 12 12 12 12 12 12 12 12 12 12 12 12 12 12 12 12 12 12 12 12 12 12 12 12 12 12 12 12 12 12 12 12 12 12 12 12 12 12 12 12 12 12 12 12 12 12 12 12 12 12 12 12 12 12 12 12 12 12 12 12 12 12 12 12 12 12 12 12 12 12 12 12 12 12 12 12 12 12 12 12 12 12 12 12 12 12 12 12 12 12 12 12 12 12 12 12 12 12 12 12 12 12 12 12 12 12 12 12 12 12 12 12 12 12 12 12 12 12 12 12 12 12 12 12 12 12 12 12 12 12 12 12 12 12 12 12 12 12 12 12 12 12 12 12 12 12 12 12 12 12 12 12 12 12 12 12 12 12 12 12 12 12 12 12 12 12 12 12 12 12 12 12 12 12 12 12 12 12 12 12 12 12 12 12 12 12 12 12 12 12 12 12 12 12 12 12 12 12 12 12 12 12 12 12 12 12 12 12 12 12 12 12 12 12 12 12 12 12 12 12 12 12 12 12 12 12 12 12 12 12 12 12 12 12 12 12 12 12 12 12 12 12 12 12 12 12 12 12 12 12 12 12 12 12 12 12 12 12 12 12 12 12 12 12 12 12 12 12 12 12 12 12 12 12 12 12 12 12 12 12 12 12 12 12 12 12 12 12 12 12 12 12 12 12 12 12 12 12 12 12 12 12 12 12 12 12 12 12 12 12 12 12 12 12 12 12 12 12 12 12 12 12 12 12 12 12 12 12 12 12 12 12 12 12 12 12 12 12 12 12 12 12 12 12 12 12 12 12 12 12 12 12 12 12 12 12 12 12 12 12 12 12 12 12 12 12 12 12 12 12 12 12 12 12 12 12 12 12 12 12 12 12 12 12 12 12 12 12 12 12 12 12 12 12 12 12 12 12 12 12 12 12 12 12 12 12 12 12 12 12 12 12 12 12 12 12 12 12 12 12 12 12 12 12 12 12 12 12 12 12 12 12 12 12 12 12 12 12 12 12 12 12 12 12 12 12 12 12 12 12 12 12 12 12 12 12 12 12 12 12 12 12 12 12 12 12 12 12 12 12 12 12 12 12 12 12 12 12 12 12 12 12 12 12 12 12 12 12 12 12 12 12 12 12 12 12 12 12 12 12 12 12 12 12 12 12 12 12 12 12 12 12 12 12 12 12 12 12 12 12 12 12 12 12 12 12 12 12 12 12 12 12 12 12 12 12 12 12 12 12 12 12 12 12 12 12 12 12 12 12 12 12 12 12 12 12 12 12 12 12 12 12 12 12 12 12 12 12 12 12 12 12 12 12 12 12 12 12 12 12 12 12 12 12 12 12 12 12 12 12 12 12 12 12 12 12 12 12 12 12 12 12 12 12 12 12 12 12 12 12 12 12 12 12 12 12 12 12 12 12 12 12 12 12 12 12 12 12 12 12 12 12 12 12 12 12 12 12 12 12 12 12 12 12 12 12 12 12 12 12 12 12 12 12 12 12 12 12 12 12 12 12 12 12 12 12 12 12 12 12 12 12 12 12 12 12 12 12 12 12 12 12 12 12 12 12 12 12 12 12 12 12 12 12 12 12 12 12 12 12 12 12 12 12 12 12 12 12 12 12 12 12 12 12 12 12 12 12 12 12 12 12 12 12 12 12 12 12 12 12 12 12 12 12 12 12 12 12 12 12 12 12 12 12 12 12 12 12 12 12 12 12 12 12 12 12 12 12 12 12 12 12 12 12 12 12 12 12 12 12 12 12 12 12 12 12 12 12 12 12 12 12 12 12 12 12 12 12 12 12 12 12 12 12 12 12 12 12 12 12 12 12 12 12 12 12 12 12 12 12 12 12 12 12 12 12 12 12 12 12 12 12 12 12 12 12 12 12 12 12 12 12 12 12 12 12 12 12 12 12 12 12 12 12 12 12 12 12 12 12 12 12 12 12 12 12 12 12 12 12 12 12 12 12 12 12 12 12 12 12 12 12 12 12 12 12 12 12 12 12 12 12 12 12 12 12 12 12 12 12 12 12 12 12 12 12 12 12 12 12 12 12 12 12 12 12 12 12 12 12 12 12 12 12 12 12 12 12 12 12 12 12 12 12 12 12 12 12 12 12 12 12 12 12 12 12 12 12 12 12 12 12 12 12 12 12 12 12 12 12 12 12 12 12 12 12 12 12 12 12 12 12 12 12 12 12 12 12 12 12 12 12 12 12 12 12 12 12 12 12 12 12 12 12 12 12 12 12 12 12 12 12 12 12 12 12 12 12 12 12 12 12 12 12 12 12 12 12 12 12 12 12 12 12 12 12 12 12 12 12 12 12 12 12 12 12 12 12 12 12 12 12 12 12 12 12 12 12 12 12 12 12 12 12 12 12 12 12 12 12 12 12 12 12 12 12 12 12 12 12 12 12 12 12 12 12 12 12 12 12 12 12 12 12 12 12 12 12 12 12 12 12 12 12 12 12 12 12 12 12 12 12 12 12 12 12 12 12 12 12 12 12 12 12 12 12 12 12 12 12 12 12 12 12 12 12 12 12 12 12 12 12 12 12 12 12 12 12 12 12 12 12 12 12 12 12 12 12 12 12 12 12 12 12 12 12 12 12 12 12 12 12 12 12 12 12 12 12 12 12 12 12 12 12 12 12 12 12 12 12 12 12 12 12 12 12 12 12 12 12 12 12 12 12 12 12 12 12 12 12 12 12 12 12 12 12 12 12 12 12 12 12 12 12 12 12 12 12 12 12 12 12 12 12 12 12 12 12 12 12 12 12 12 12 12 12 12 12 12 12 12 12 12 12 12 12 12 12 12 12 12 12 12 12 12 12 12 12 12 12 12 12 12 12 12 12 12 12 12 12 12 12 12 12 12 12 12 12 12 12 12 12 12 12 12 12 12 12 12 12 12 12 12 12 12 12 12 12 12 12 12 12 12 12 12 12 12 12 12 12 12 12 12 12 12 12 12 12 12 12 12 12 12 12 12 12 12 12 12 12 12 12 12 12 12 12 12 12 12 12 12 12 12 12 12 12 12 12 12 12 12 12 12 12 12 12 12 12 12 12 12 12 12 12 12 12 12 12 12 12 12 12 12 12 12 12 12 12 12 12 12 12 12 12 12 12 12 12 12 12 12 12 12 12 12 12 12 12 12 12 12 12 12 12 12 12 12 12 12 12 12 12 12 12 12 12 12 12 12 12 12 12 12 12 12 12 12 12 12 12 12 12 12 12 12 12 12 12 12 12 12 12 12 12 12 12 12 12 12 12 12 12 12 12 12 12 12 12 12 12 12 12 12 12 12 12 12 12 12 12 12 12 12 12 12 12 12 12 12 12 12 12 12 12 12 12 12 12 12 12 12 12 12 12 12 12 12 12 12 12 12 12 12 12 12 12 12 12 12 12 12 12 12 12 12 12 12 12 12 12 12 12 12 12 12 12 12 12 12 12 12 12 12 12 12 12 12 12 12 12 12 12 12 12 12 12 12 12 12 12 12 12 12 12 12 12 12 12 12 12 12 12 12 12 12 12 12 12 12 12 12 12 12 12 12 12 12 12 12 12 12 12 12 12 12 12 12 12 12 12 12 12 12 12 12 12 12 12 12 12 12 12 12 12 12 12 12 12 12 12 12 12 12 12 12 12 12 12 12 12 12 12 12 12 12 12 12 12 12 12 12 12 12 12 12 12 12 12 12 12 12 12 12 12 12 12 12 12 12 12 12 12 12 12 12 12 12 12 12 12 12 12 12 12 12 12 12 12 12 12 12 12 12 12 12 12 12 12 12 12 12 12 12 12 12 12 12 12 12 12 12 12 12 12 12 12 12 12 12 12 12 12 12 12 12 12 12 12 12 12 12 12 12 12 12 12 12 12 12 12 12 12 12 12 12 12 12 12 12 12 12 12 12 12 12 12 12 12 12 12 12 12 12 12 12 12 12 12 12 12 12 12 12 12 12 12 12 12 12 12 12 12 12 12 12 12 12 12 12 12 12 12 12 12 12 12 12 12 12 12 12 12 12 12 12 12 12 12 12 12 12 12 12 12 12 12 12 12 12 12 12 12 12 12 12 12 12 12 12 12 12 12 12 12 12 12 12 12 12 12 12 12 12 12 12 12 12 12 12 12 12 12 12 12 12 12 12 12 12 12 12 12 12 12 12 12 12 12 12 12 12 12 12 12 12 12 12 12 12 12 12 12 12 12 12 12 12 12 12 12 12 12 12 12 12 12 12 12 12 12 12 12 12 12 12 12 12 12 12 12 12 12 12 12 12 12 12 12 12 

POINT_DATA 2673
SCALARS weights float 1
LOOKUP_TABLE default
0.244141 0.488281 0.488281 0.488281 0.488281 0.488281 0.488281 0.488281 0.488281 0.488281 0.488281 0.488281 0.488281 0.488281 0.488281 0.488281 0.488281 0.488281 0.488281 0.488281 0.488281 0.488281 0.488281 0.488281 0.488281 0.488282 0.488281 0.488281 0.488281 0.488281 0.488281 0.488281 0.244141 0.488281 0.976563 0.976562 0.976562 0.976562 0.976562 0.976563 0.976563 0.976562 0.976562 0.976563 0.976563 0.976563 0.976563 0.976562 0.976562 0.976562 0.976562 0.976562 0.976562 0.976563 0.976563 0.976563 0.976562 0.976563 0.976563 0.976562 0.976563 0.976563 0.976562 0.976562 0.976562 0.488281 0.488281 0.976562 0.976562 0.976562 0.976562 0.976562 0.976563 0.976563 0.976562 0.976562 0.976563 0.976562 0.976563 0.976563 0.976562 0.976562 0.976562 0.976562 0.976562 0.976562 0.976563 0.976563 0.976562 0.976562 0.976563 0.976563 0.976562 0.976562 0.976562 0.976562 0.976562 0.976562 0.488281 0.488281 0.976562 0.976562 0.976562 0.976562 0.976562 0.976563 0.976562 0.976562 0.976562 0.976563 0.976562 0.976562 0.976563 0.976562 0.976562 0.976562 0.976562 0.976562 0.976562 0.976563 0.976563 0.976562 0.976562 0.976563 0.976563 0.976562 0.976562 0.976562 0.976562 0.976562 0.976562 0.488281 0.488281 0.976562 0.976562 0.976562 0.976562 0.976562 0.976563 0.976562 0.976562 0.976562 0.976563 0.976562 0.976563 0.976563 0.976562 0.976562 0.976562 0.976562 0.976562 0.976562 0.976563 0.976563 0.976562 0.976562 0.976563 0.976563 0.976562 0.976562 0.976562 0.976562 0.976562 0.976562 0.488281 0.488281 0.976562 0.976562 0.976562 0.976562 0.976562 0.976562 0.976562 0.976562 0.976562 0.976562 0.976562 0.976562 0.976563 0.976562 0.976562 0.976562 0.976562 0.976562 0.976562 0.976562 0.976563 0.976562 0.976562 0.976563 0.976563 0.976562 0.976562 0.976562 0.976562 0.976562 0.976562 0.488281 0.488281 0.976562 0.976562 0.976562 0.976562 0.976562 0.976563 0.976563 0.976562 0.976562 0.976563 0.976562 0.976563 0.976563 0.976562 0.976562 0.976562 0.976562 0.976562 0.976562 0.976563 0.976563 0.976563 0.976562 0.976563 0.976563 0.976562 0.976562 0.976562 0.976562 0.976562 0.976562 0.488281 0.488281 0.976562 0.976562 0.976562 0.976562 0.976562 0.976563 0.976562 0.976562 0.976562 0.976563 0.976562 0.976563 0.976563 0.976562 0.976562 0.976562 0.976562 0.976562 0.976562 0.976563 0.976563 0.976563 0.976562 0.976563 0.976563 0.976562 0.976562 0.976562 0.976562 0.976562 0.976562 0.488281 0.244141 0.488281 0.488281 0.488281 0.488281 0.488281 0.488281 0.488281 0.488281 0.488281 0.488281 0.488281 0.488281 0.488281 0.488281 0.488281 0.488281 0.488281 0.488281 0.488281 0.488281 0.488281 0.488281 0.488281 0.488281 0.488281 0.488281 0.488281 0.488281 0.488281 0.488281 0.488281 0.244141 0.488281 0.976563 0.976563 0.976563 0.976563 0.976563 0.976563 0.976563 0.976563 0.976563 0.976563 0.976563 0.976563 0.976563 0.976563 0.976563 0.976563 0.976562 0.976562 0.976563 0.976563 0.976563 0.976563 0.976563 0.976563 0.976563 0.976562 0.976563 0.976563 0.976562 0.976563 0.976563 0.488281 0.976563 1.95313 1.95313 1.95313 1.95313 1.95313 1.95313 1.95313 1.95312 1.95313 1.95313 1.95313 1.95313 1.95313 1.95313 1.95313 1.95313 1.95312 1.95312 1.95313 1.95313 1.95313 1.95313 1.95313 1.95313 1.95313 1.95312 1.95313 1.95313 1.95312 1.95313 1.95313 0.976563 0.976563 1.95313 1.95313 1.95313 1.95313 1.95313 1.95313 1.95313 1.95312 1.95313 1.95313 1.95313 1.95313 1.95313 1.95312 1.95313 1.95313 1.95312 1.95312 1.95313 1.95313 1.95313 1.95313 1.95312 1.95313 1.95313 1.95312 1.95313 1.95313 1.95312 1.95313 1.95313 0.976563 0.976563 1.95313 1.95313 1.95313 1.95313 1.95313 1.95313 1.95313 1.95312 1.95313 1.95313 1.95313 1.95313 1.95313 1.95312 1.95313 1.95313 1.95312 1.95312 1.95313 1.95313 1.95313 1.95313 1.95312 1.95313 1.95313 1.95312 1.95313 1.95313 1.95312 1.95313 1.95313 0.976563 0.976563 1.95313 1.95313 1.95313 1.95313 1.95313 1.95313 1.95313 1.95312 1.95313 1.95313 1.95313 1.95313 1.95313 1.95313 1.95313 1.95313 1.95312 1.95312 1.95313 1.95313 1.95313 1.95313 1.95313 1.95313 1.95313 1.95312 1.95313 1.95313 1.95312 1.95313 1.95313 0.976563 0.976563 1.95313 1.95313 1.95313 1.95313 1.95313 1.95313 1.95313 1.95312 1.95312 1.95313 1.95313 1.95313 1.95313 1.95312 1.95312 1.95313 1.95312 1.95312 1.95312 1.95313 1.95313 1.95313 1.95312 1.95313 1.95313 1.95312 1.95313 1.95313 1.95312 1.95313 1.95313 0.976563 0.976563 1.95313 1.95313 1.95313 1.95313 1.95313 1.95313 1.95313 1.95313 1.95313 1.95313 1.95313 1.95313 1.95313 1.95313 1.95313 1.95313 1.95312 1.95312 1.95313 1.95313 1.95313 1.95313 1.95313 1.95313 1.95313 1.95312 1.95313 1.95313 1.95312 1.95313 1.95313 0.976563 0.976563 1.95313 1.95313 1.95313 1.95313 1.95313 1.95313 1.95313 1.95312 1.95313 1.95313 1.95313 1.95313 1.95313 1.95312 1.95312 1.95313 1.95312 1.95312 1.95313 1.95313 1.95313 1.95313 1.95312 1.95313 1.95313 1.95312 1.95313 1.95313 1.95312 1.95313 1.95313 0.976563 0.488281 0.976563 0.976563 0.976563 0.976563 0.976563 0.976563 0.976563 0.976562 0.976562 0.976563 0.976562 0.976563 0.976563 0.976562 0.976562 0.976562 0.976562 0.976562 0.976562 0.976563 0.976563 0.976563 0.976562 0.976563 0.976563 0.976562 0.976562 0.976562 0.976562 0.976562 0.976562 0.488281 0.488281 0.976563 0.976563 0.976563 0.976563 0.976563 0.976563 0.976563 0.976562 0.976563 0.976563 0.976563 0.976563 0.976563 0.976563 0.976563 0.976563 0.976562 0.976562 0.976563 0.976563 0.976563 0.976563 0.976563 0.976563 0.976563 0.976562 0.976563 0.976563 0.976562 0.976563 0.976563 0.488281 0.976563 1.95313 1.95313 1.95313 1.95313 1.95313 1.95313 1.95313 1.95312 1.95313 1.95313 1.95313 1.95313 1.95313 1.95313 1.95313 1.95313 1.95312 1.95312 1.95313 1.95313 1.95313 1.95313 1.95313 1.95313 1.95313 1.95312 1.95313 1.95313 1.95312 1.95313 1.95313 0.976563 0.976563 1.95313 1.95313 1.95313 1.95313 1.95313 1.95313 1.95313 1.95312 1.95313 1.95313 1.95313 1.95313 1.95313 1.95312 1.95313 1.95313 1.95312 1.95312 1.95313 1.95313 1.95313 1.95313 1.95312 1.95313 1.95313 1.95312 1.95313 1.95313 1.95312 1.95313 1.95313 0.976563 0.976563 1.95313 1.95313 1.95313 1.95313 1.95313 1.95313 1.95313 1.95312 1.95312 1.95313 1.95312 1.95313 1.95313 1.95312 1.95312 1.95313 1.95312 1.95312 1.95313 1.95313 1.95313 1.95313 1.95312 1.95313 1.95313 1.95312 1.95313 1.95313 1.95312 1.95313 1.95313 0.976563 0.976563 1.95313 1.95313 1.95313 1.95313 1.95313 1.95313 1.95313 1.95312 1.95313 1.95313 1.95313 1.95313 1.95313 1.95313 1.95313 1.95313 1.95312 1.95312 1.95313 1.95313 1.95313 1.95313 1.95313 1.95313 1.95313 1.95312 1.95313 1.95313 1.95312 1.95313 1.95313 0.976563 0.976563 1.95313 1.95313 1.95313 1.95313 1.95313 1.95313 1.95313 1.95312 1.95312 1.95313 1.95312 1.95313 1.95313 1.95312 1.95312 1.95313 1.95312 1.95312 1.95313 1.95313 1.95313 1.95313 1.95312 1.95313 1.95313 1.95312 1.95313 1.95313 1.95312 1.95313 1.95313 0.976563 0.976563 1.95313 1.95313 1.95313 1.95313 1.95313 1.95313 1.95313 1.95312 1.95313 1.95313 1.95313 1.95313 1.95313 1.95313 1.95312 1.95313 1.95312 1.95312 1.95313 1.95313 1.95313 1.95313 1.95313 1.95313 1.95313 1.95312 1.95313 1.95313 1.95312 1.95313 1.95313 0.976563 0.976563 1.95313 1.95313 1.95313 1.95313 1.95313 1.95313 1.95313 1.95312 1.95312 1.95313 1.95313 1.95313 1.95313 1.95313 1.95312 1.95313 1.95312 1.95312 1.95313 1.95313 1.95313 1.95313 1.95313 1.95313 1.95313 1.95312 1.95313 1.95313 1.95312 1.95313 1.95313 0.976563 0.488281 0.976562 0.976562 0.976563 0.976563 0.976562 0.976563 0.976562 0.976562 0.976562 0.976563 0.976562 0.976563 0.976563 0.976562 0.976562 0.976562 0.976562 0.976562 0.976562 0.976563 0.976563 0.976563 0.976562 0.976563 0.976563 0.976562 0.976562 0.976562 0.976562 0.976562 0.976562 0.488281 0.488281 0.976562 0.976562 0.976562 0.976562 0.976562 0.976563 0.976562 0.976562 0.976562 0.976563 0.976562 0.976563 0.976563 0.976562 0.976562 0.976562 0.976562 0.976562 0.976562 0.976563 0.976563 0.976562 0.976562 0.976563 0.976563 0.976562 0.976562 0.976562 0.976562 0.976562 0.976562 0.488281 0.976562 1.95312 1.95312 1.95312 1.95312 1.95312 1.95313 1.95312 1.95312 1.95312 1.95313 1.95312 1.95313 1.95313 1.95312 1.95312 1.95312 1.95312 1.95312 1.95312 1.95313 1.95313 1.95312 1.95312 1.95313 1.95313 1.95312 1.95313 1.95313 1.95312 1.95312 1.95312 0.976563 0.976562 1.95312 1.95312 1.95312 1.95312 1.95312 1.95313 1.95312 1.95312 1.95312 1.95313 1.95312 1.95312 1.95313 1.95312 1.95312 1.95312 1.95312 1.95312 1.95312 1.95313 1.95313 1.95312 1.95312 1.95313 1.95313 1.95312 1.95312 1.95312 1.95312 1.95312 1.95312 0.976563 0.976562 1.95312 1.95312 1.95312 1.95312 1.95312 1.95312 1.95312 1.95312 1.95312 1.95312 1.95312 1.95312 1.95313 1.95312 1.95312 1.95312 1.95312 1.95312 1.95312 1.95312 1.95313 1.95312 1.95312 1.95313 1.95313 1.95312 1.95312 1.95312 1.95312 1.95312 1.95312 0.976563 0.976562 1.95312 1.95312 1.95312 1.95312 1.95312 1.95312 1.95312 1.95312 1.95312 1.95312 1.95312 1.95312 1.95313 1.95312 1.95312 1.95312 1.95312 1.95312 1.95312 1.95312 1.95313 1.95312 1.95312 1.95313 1.95313 1.95312 1.95312 1.95312 1.95312 1.95312 1.95312 0.976563 0.976562 1.95312 1.95312 1.95312 1.95312 1.95312 1.95312 1.95312 1.95312 1.95312 1.95312 1.95312 1.95312 1.95313 1.95312 1.95312 1.95312 1.95312 1.95312 1.95312 1.95312 1.95313 1.95312 1.95312 1.95313 1.95313 1.95312 1.95312 1.95312 1.95312 1.95312 1.95312 0.976563 0.976562 1.95312 1.95312 1.95312 1.95312 1.95312 1.95313 1.95312 1.95312 1.95312 1.95313 1.95312 1.95313 1.95313 1.95312 1.95312 1.95312 1.95312 1.95312 1.95312 1.95313 1.95313 1.95312 1.95312 1.95313 1.95313 1.95312 1.95312 1.95312 1.95312 1.95312 1.95312 0.976563 0.976562 1.95312 1.95312 1.95312 1.95312 1.95312 1.95313 1.95312 1.95312 1.95312 1.95313 1.95312 1.95313 1.95313 1.95312 1.95312 1.95312 1.95312 1.95312 1.95312 1.95313 1.95313 1.95312 1.95312 1.95313 1.95313 1.95312 1.95312 1.95312 1.95312 1.95312 1.95312 0.976563 0.488281 0.976562 0.976562 0.976562 0.976562 0.976562 0.976562 0.976562 0.976562 0.976562 0.976562 0.976562 0.976562 0.976563 0.976562 0.976562 0.976562 0.976562 0.976562 0.976562 0.976562 0.976562 0.976562 0.976562 0.976562 0.976563 0.976562 0.976562 0.976562 0.976562 0.976562 0.976562 0.488281 0.488281 0.976562 0.976562 0.976562 0.976562 0.976562 0.976562 0.976562 0.976562 0.976562 0.976562 0.976562 0.976562 0.976563 0.976562 0.976562 0.976562 0.976562 0.976562 0.976562 0.976562 0.976562 0.976562 0.976562 0.976563 0.976563 0.976562 0.976562 0.976562 0.976562 0.976562 0.976562 0.488281 0.976562 1.95312 1.95312 1.95312 1.95312 1.95312 1.95312 1.95312 1.95312 1.95312 1.95312 1.95312 1.95312 1.95313 1.95312 1.95312 1.95312 1.95312 1.95312 1.95312 1.95312 1.95312 1.95312 1.95312 1.95312 1.95313 1.95312 1.95312 1.95312 1.95312 1.95312 1.95312 0.976562 0.976562 1.95312 1.95312 1.95312 1.95312 1.95312 1.95312 1.95312 1.95312 1.95312 1.95312 1.95312 1.95312 1.95312 1.95312 1.95312 1.95312 1.95312 1.95312 1.95312 1.95312 1.95312 1.95312 1.95312 1.95312 1.95313 1.95312 1.95312 1.95312 1.95312 1.95312 1.95312 0.976562 0.976562 1.95312 1.95312 1.95312 1.95312 1.95312 1.95312 1.95312 1.95312 1.95312 1.95312 1.95312 1.95312 1.95312 1.95312 1.95312 1.95312 1.95312 1.95312 1.95312 1.95312 1.95312 1.95312 1.95312 1.95312 1.95313 1.95312 1.95312 1.95312 1.95312 1.95312 1.95312 0.976562 0.976562 1.95312 1.95312 1.95312 1.95312 1.95312 1.95312 1.95312 1.95312 1.95312 1.95312 1.95312 1.95312 1.95312 1.95312 1.95312 1.95312 1.95312 1.95312 1.95312 1.95312 1.95312 1.95312 1.95312 1.95312 1.95313 1.95312 1.95312 1.95312 1.95312 1.95312 1.95312 0.976562 0.976562 1.95312 1.95312 1.95312 1.95312 1.95312 1.95312 1.95312 1.95312 1.95312 1.95312 1.95312 1.95312 1.95312 1.95312 1.95312 1.95312 1.95312 1.95312 1.95312 1.95312 1.95312 1.95312 1.95312 1.95312 1.95313 1.95312 1.95312 1.95312 1.95312 1.95312 1.95312 0.976562 0.976562 1.95312 1.95312 1.95312 1.95312 1.95312 1.95312 1.95312 1.95312 1.95312 1.95312 1.95312 1.95312 1.95313 1.95312 1.95312 1.95312 1.95312 1.95312 1.95312 1.95312 1.95312 1.95312 1.95312 1.95312 1.95313 1.95312 1.95312 1.95312 1.95312 1.95312 1.95312 0.976562 0.976562 1.95312 1.95312 1.95312 1.95312 1.95312 1.95312 1.95312 1.95312 1.95312 1.95312 1.95312 1.95312 1.95313 1.95312 1.95312 1.95312 1.95312 1.95312 1.95312 1.95312 1.95312 1.95312 1.95312 1.95312 1.95313 1.95312 1.95312 1.95312 1.95312 1.95312 1.95312 0.976562 0.488281 0.976562 0.976562 0.976562 0.976562 0.976562 0.976562 0.976562 0.976562 0.976562 0.976562 0.976562 0.976562 0.976562 0.976562 0.976562 0.976562 0.976562 0.976562 0.976562 0.976562 0.976562 0.976562 0.976562 0.976562 0.976562 0.976561 0.976562 0.976562 0.976561 0.976562 0.976562 0.488281 0.488281 0.976562 0.976562 0.976562 0.976562 0.976562 0.976562 0.976562 0.976562 0.976562 0.976562 0.976562 0.976562 0.976562 0.976562 0.976562 0.976562 0.976561 0.976561 0.976562 0.976562 0.976562 0.976562 0.976562 0.976562 0.976562 0.976561 0.976562 0.976562 0.976561 0.976562 0.976562 0.488281 0.976562 1.95312 1.95312 1.95312 1.95312 1.95312 1.95312 1.95312 1.95312 1.95312 1.95312 1.95312 1.95312 1.95312 1.95312 1.95312 1.95312 1.95312 1.95312 1.95312 1.95312 1.95312 1.95312 1.95312 1.95312 1.95312 1.95312 1.95312 1.95312 1.95312 1.95312 1.95312 0.976562 0.976562 1.95312 1.95312 1.95312 1.95312 1.95312 1.95312 1.95312 1.95312 1.95312 1.95312 1.95312 1.95312 1.95312 1.95312 1.95312 1.95312 1.95312 1.95312 1.95312 1.95312 1.95312 1.95312 1.95312 1.95312 1.95312 1.95312 1.95312 1.95312 1.95312 1.95312 1.95312 0.976562 0.976562 1.95312 1.95312 1.95312 1.95312 1.95312 1.95312 1.95312 1.95312 1.95312 1.95312 1.95312 1.95312 1.95312 1.95312 1.95312 1.95312 1.95312 1.95312 1.95312 1.95312 1.95312 1.95312 1.95312 1.95312 1.95312 1.95312 1.95312 1.95312 1.95312 1.95312 1.95312 0.976562 0.976562 1.95312 1.95312 1.95312 1.95312 1.95312 1.95312 1.95312 1.95312 1.95312 1.95312 1.95312 1.95312 1.95312 1.95312 1.95312 1.95312 1.95312 1.95312 1.95312 1.95312 1.95312 1.95312 1.95312 1.95312 1.95312 1.95312 1.95312 1.95312 1.95312 1.95312 1.95312 0.976562 0.976562 1.95312 1.95312 1.95312 1.95312 1.95312 1.95312 1.95312 1.95312 1.95312 1.95312 1.95312 1.95312 1.95312 1.95312 1.95312 1.95312 1.95312 1.95312 1.95312 1.95312 1.95312 1.95312 1.95312 1.95312 1.95312 1.95312 1.95312 1.95312 1.95312 1.95312 1.95312 0.976562 0.976562 1.95312 1.95312 1.95312 1.95312 1.95312 1.95312 1.95312 1.95312 1.95312 1.95312 1.95312 1.95312 1.95312 1.95312 1.95312 1.95312 1.95312 1.95312 1.95312 1.95312 1.95312 1.95312 1.95312 1.95312 1.95312 1.95312 1.95312 1.95312 1.95312 1.95312 1.95312 0.976562 0.976562 1.95312 1.95312 1.95312 1.95312 1.95312 1.95312 1.95312 1.95312 1.95312 1.95312 1.95312 1.95312 1.95312 1.95312 1.95312 1.95312 1.95312 1.95312 1.95312 1.95312 1.95312 1.95312 1.95312 1.95312 1.95312 1.95312 1.95312 1.95312 1.95312 1.95312 1.95312 0.976562 0.488281 0.976562 0.976562 0.976562 0.976562 0.976562 0.976562 0.976562 0.976561 0.976562 0.976562 0.976562 0.976562 0.976562 0.976562 0.976562 0.976562 0.976561 0.976561 0.976562 0.976562 0.976562 0.976562 0.976562 0.976562 0.976562 0.976561 0.976562 0.976562 0.976561 0.976562 0.976562 0.488281 0.488281 0.976562 0.976562 0.976562 0.976562 0.976562 0.976562 0.976562 0.976562 0.976562 0.976562 0.976562 0.976562 0.976563 0.976562 0.976562 0.976562 0.976562 0.976562 0.976562 0.976562 0.976563 0.976562 0.976562 0.976563 0.976563 0.976562 0.976562 0.976562 0.976562 0.976562 0.976562 0.488281 0.976562 1.95312 1.95312 1.95312 1.95312 1.95312 1.95312 1.95312 1.95312 1.95312 1.95312 1.95312 1.95313 1.95313 1.95312 1.95312 1.95312 1.95312 1.95312 1.95312 1.95312 1.95313 1.95312 1.95312 1.95313 1.95313 1.95312 1.95312 1.95312 1.95312 1.95312 1.95312 0.976563 0.976562 1.95312 1.95312 1.95312 1.95312 1.95312 1.95312 1.95312 1.95312 1.95312 1.95312 1.95312 1.95312 1.95313 1.95312 1.95312 1.95312 1.95312 1.95312 1.95312 1.95312 1.95312 1.95312 1.95312 1.95313 1.95313 1.95312 1.95312 1.95312 1.95312 1.95312 1.95312 0.976563 0.976562 1.95312 1.95312 1.95312 1.95312 1.95312 1.95312 1.95312 1.95312 1.95312 1.95312 1.95312 1.95312 1.95313 1.95312 1.95312 1.95312 1.95312 1.95312 1.95312 1.95312 1.95312 1.95312 1.95312 1.95313 1.95313 1.95312 1.95312 1.95312 1.95312 1.95312 1.95312 0.976563 0.976562 1.95312 1.95312 1.95312 1.95312 1.95312 1.95312 1.95312 1.95312 1.95312 1.95312 1.95312 1.95312 1.95313 1.95312 1.95312 1.95312 1.95312 1.95312 1.95312 1.95312 1.95312 1.95312 1.95312 1.95313 1.95313 1.95312 1.95312 1.95312 1.95312 1.95312 1.95312 0.976563 0.976562 1.95312 1.95312 1.95312 1.95312 1.95312 1.95312 1.95312 1.95312 1.95312 1.95312 1.95312 1.95312 1.95312 1.95312 1.95312 1.95312 1.95312 1.95312 1.95312 1.95312 1.95312 1.95312 1.95312 1.95313 1.95313 1.95312 1.95312 1.95312 1.95312 1.95312 1.95312 0.976562 0.976562 1.95312 1.95312 1.95312 1.95312 1.95312 1.95312 1.95312 1.95312 1.95312 1.95312 1.95312 1.95312 1.95313 1.95312 1.95312 1.95312 1.95312 1.95312 1.95312 1.95312 1.95312 1.95312 1.95312 1.95313 1.95313 1.95312 1.95312 1.95312 1.95312 1.95312 1.95312 0.976563 0.976562 1.95312 1.95312 1.95312 1.95312 1.95312 1.95313 1.95312 1.95312 1.95312 1.95312 1.95312 1.95312 1.95313 1.95312 1.95312 1.95312 1.95312 1.95312 1.95312 1.95312 1.95312 1.95312 1.95312 1.95313 1.95313 1.95312 1.95312 1.95312 1.95312 1.95312 1.95312 0.976563 0.488281 0.976562 0.976562 0.976562 0.976562 0.976562 0.976562 0.976562 0.976562 0.976562 0.976562 0.976562 0.976562 0.976562 0.976562 0.976562 0.976562 0.976562 0.976562 0.976562 0.976562 0.976562 0.976562 0.976562 0.976562 0.976563 0.976561 0.976562 0.976562 0.976561 0.976562 0.976562 0.488281 0.488281 0.976562 0.976562 0.976562 0.976562 0.976562 0.976563 0.976563 0.976562 0.976562 0.976563 0.976562 0.976562 0.976563 0.976562 0.976562 0.976562 0.976562 0.976562 0.976562 0.976563 0.976563 0.976562 0.976562 0.976563 0.976563 0.976562 0.976562 0.976562 0.976562 0.976562 0.976562 0.488281 0.976562 1.95312 1.95312 1.95312 1.95312 1.95312 1.95313 1.95312 1.95312 1.95312 1.95313 1.95312 1.95313 1.95313 1.95312 1.95312 1.95312 1.95312 1.95312 1.95312 1.95313 1.95313 1.95312 1.95312 1.95313 1.95313 1.95312 1.95312 1.95312 1.95312 1.95312 1.95312 0.976563 0.976562 1.95312 1.95312 1.95312 1.95312 1.95312 1.95313 1.95312 1.95312 1.95312 1.95313 1.95312 1.95313 1.95313 1.95312 1.95312 1.95312 1.95312 1.95312 1.95312 1.95313 1.95313 1.95312 1.95312 1.95313 1.95313 1.95312 1.95312 1.95312 1.95312 1.95312 1.95312 0.976563 0.976562 1.95312 1.95312 1.95312 1.95312 1.95312 1.95313 1.95312 1.95312 1.95312 1.95312 1.95312 1.95313 1.95313 1.95312 1.95312 1.95312 1.95312 1.95312 1.95312 1.95313 1.95313 1.95312 1.95312 1.95313 1.95313 1.95312 1.95312 1.95312 1.95312 1.95312 1.95312 0.976563 0.976562 1.95312 1.95312 1.95312 1.95312 1.95312 1.95313 1.95312 1.95312 1.95312 1.95312 1.95312 1.95313 1.95313 1.95312 1.95312 1.95312 1.95312 1.95312 1.95312 1.95313 1.95313 1.95312 1.95312 1.95313 1.95313 1.95312 1.95312 1.95312 1.95312 1.95312 1.95312 0.976563 0.976562 1.95312 1.95312 1.95312 1.95312 1.95312 1.95313 1.95312 1.95312 1.95312 1.95312 1.95312 1.95312 1.95313 1.95312 1.95312 1.95312 1.95312 1.95312 1.95312 1.95312 1.95313 1.95312 1.95312 1.95313 1.95313 1.95312 1.95312 1.95312 1.95312 1.95312 1.95312 0.976563 0.976562 1.95312 1.95312 1.95312 1.95312 1.95312 1.95313 1.95312 1.95312 1.95312 1.95313 1.95312 1.95313 1.95313 1.95312 1.95312 1.95312 1.95312 1.95312 1.95312 1.95313 1.95313 1.95312 1.95312 1.95313 1.95313 1.95312 1.95312 1.95312 1.95312 1.95312 1.95312 0.976563 0.976562 1.95312 1.95312 1.95312 1.95312 1.95312 1.95313 1.95312 1.95312 1.95312 1.95313 1.95312 1.95313 1.95313 1.95312 1.95312 1.95312 1.95312 1.95312 1.95312 1.95313 1.95313 1.95312 1.95312 1.95313 1.95313 1.95312 1.95312 1.95312 1.95312 1.95312 1.95312 0.976563 0.488281 0.976562 0.976562 0.976562 0.976562 0.976562 0.976562 0.976562 0.976562 0.976562 0.976562 0.976562 0.976562 0.976563 0.976562 0.976562 0.976562 0.976562 0.976562 0.976562 0.976562 0.976562 0.976562 0.976562 0.976563 0.976563 0.976562 0.976562 0.976562 0.976562 0.976562 0.976562 0.488281 0.24414 0.488281 0.488281 0.488281 0.488281 0.488281 0.488281 0.488281 0.488281 0.488281 0.488281 0.488281 0.488281 0.488281 0.488281 0.488281 0.488281 0.488281 0.488281 0.488281 0.488281 0.488281 0.488281 0.488281 0.488281 0.488281 0.488281 0.488281 0.488281 0.488281 0.488281 0.488281 0.24414 0.488281 0.976562 0.976562 0.976562 0.976562 0.976562 0.976562 0.976562 0.976562 0.976562 0.976562 0.976562 0.976562 0.976562 0.976562 0.976562 0.976562 0.976561 0.976561 0.976562 0.976562 0.976562 0.976562 0.976562 0.976562 0.976562 0.976561 0.976562 0.976562 0.976561 0.976562 0.976562 0.488281 0.488281 0.976562 0.976562 0.976562 0.976562 0.976562 0.976562 0.976562 0.976562 0.976562 0.976562 0.976562 0.976562 0.976562 0.976562 0.976562 0.976562 0.976561 0.976561 0.976562 0.976562 0.976562 0.976562 0.976562 0.976562 0.976562 0.976561 0.976562 0.976562 0.976561 0.976562 0.976562 0.488281 0.488281 0.976562 0.976562 0.976562 0.976562 0.976562 0.976562 0.976562 0.976562 0.976562 0.976562 0.976562 0.976562 0.976562 0.976562 0.976562 0.976562 0.976561 0.976561 0.976562 0.976562 0.976562 0.976562 0.976562 0.976562 0.976562 0.976561 0.976562 0.976562 0.976561 0.976562 0.976562 0.488281 0.488281 0.976562 0.976562 0.976562 0.976562 0.976562 0.976562 0.976562 0.976562 0.976562 0.976562 0.976562 0.976562 0.976562 0.976562 0.976562 0.976562 0.976561 0.976561 0.976562 0.976562 0.976562 0.976562 0.976562 0.976562 0.976562 0.976561 0.976562 0.976562 0.976561 0.976562 0.976562 0.488281 0.488281 0.976562 0.976562 0.976562 0.976562 0.976562 0.976562 0.976562 0.976562 0.976562 0.976562 0.976562 0.976562 0.976562 0.976562 0.976562 0.976562 0.976561 0.976561 0.976562 0.976562 0.976562 0.976562 0.976562 0.976562 0.976562 0.976561 0.976562 0.976562 0.976561 0.976562 0.976562 0.488281 0.488281 0.976562 0.976562 0.976562 0.976562 0.976562 0.976562 0.976562 0.976562 0.976562 0.976562 0.976562 0.976562 0.976562 0.976562 0.976562 0.976562 0.976561 0.976561 0.976562 0.976562 0.976562 0.976562 0.976562 0.976562 0.976562 0.976561 0.976562 0.976562 0.976561 0.976562 0.976562 0.488281 0.488281 0.976562 0.976562 0.976562 0.976562 0.976562 0.976562 0.976562 0.976562 0.976562 0.976562 0.976562 0.976562 0.976562 0.976562 0.976562 0.976562 0.976561 0.976561 0.976562 0.976562 0.976562 0.976562 0.976562 0.976562 0.976562 0.976561 0.976562 0.976562 0.976561 0.976562 0.976562 0.488281 0.24414 0.488281 0.488281 0.488281 0.488281 0.488281 0.488281 0.488281 0.488281 0.488281 0.488281 0.488281 0.488281 0.488281 0.488281 0.488281 0.488281 0.488281 0.488281 0.488281 0.488281 0.488281 0.488281 0.488281 0.488281 0.488281 0.48828 0.488281 0.488281 0.48828 0.488281 0.488281 0.24414 
VECTORS u float
0 0 0  -0.00223619 -0.00212136 -0.00549388  -0.00593638 -0.00363274 -0.00793028  -0.00977215 -0.00621335 -0.00896192  -0.0135852 -0.0100277 -0.00920796  -0.0173231 -0.0149589 -0.00901127  -0.0209377 -0.0208982 -0.00857663  -0.0244297 -0.027731 -0.00800347  -0.0277589 -0.0353439 -0.00740385  -0.0309261 -0.043694 -0.00679111  -0.0339154 -0.052692 -0.00620151  -0.0367332 -0.0622988 -0.00564027  -0.0393816 -0.072439 -0.0051043  -0.041863 -0.083069 -0.00459194  -0.0441831 -0.0941519 -0.00410366  -0.0463529 -0.10563 -0.00365353  -0.0483774 -0.117457 -0.00322199  -0.0502613 -0.129576 -0.00281978  -0.0520053 -0.14197 -0.00244522  -0.0536139 -0.154589 -0.00211787  -0.0551174 -0.1674 -0.0017817  -0.0565014 -0.18037 -0.0014863  -0.0577853 -0.19345 -0.00122547  -0.058965 -0.206629 -0.000989437  -0.060065 -0.219878 -0.000781059  -0.0610828 -0.233182 -0.000588417  -0.0620291 -0.246509 -0.000430584  -0.0629086 -0.259832 -0.000294447  -0.0637326 -0.273156 -0.000187635  -0.0645185 -0.286451 -0.000109434  -0.0652659 -0.299707 -6.50883e-05  -0.0659859 -0.31293 -2.24113e-05  -0.0666938 -0.326137 6.19888e-06  0 0 0  -0.0014151 -0.000808038 -0.00323868  -0.00396556 -0.00233359 -0.00521469  -0.00671369 -0.0050332 -0.00609088  -0.00947225 -0.00894391 -0.00634742  -0.01221 -0.0139492 -0.00626302  -0.0149058 -0.0199613 -0.00598097  -0.0175374 -0.0268714 -0.00561547  -0.0200886 -0.0345856 -0.00521183  -0.0225338 -0.0430375 -0.00479603  -0.0248711 -0.0521492 -0.00438523  -0.0270998 -0.0618592 -0.00399113  -0.0292146 -0.0721146 -0.00361466  -0.0312133 -0.0828556 -0.00325918  -0.0331064 -0.0940397 -0.00291681  -0.034892 -0.105612 -0.00259948  -0.0365773 -0.117522 -0.00230336  -0.0381632 -0.129727 -0.00201774  -0.0396607 -0.142203 -0.00175714  -0.0410638 -0.154891 -0.00151944  -0.042382 -0.16776 -0.00129223  -0.0436246 -0.180783 -0.001091  -0.0447869 -0.193921 -0.000899553  -0.0458837 -0.207148 -0.000730515  -0.0469124 -0.220436 -0.00059247  -0.0478799 -0.233768 -0.000455618  -0.0488012 -0.247123 -0.000341892  -0.0496681 -0.260468 -0.000249147  -0.0504971 -0.273814 -0.000165462  -0.0512819 -0.287116 -0.000111818  -0.0520439 -0.300386 -6.91414e-05  -0.0527747 -0.313614 -3.21865e-05  -0.0534937 -0.326809 1.5974e-05  0 0 0  -0.000865012 8.64267e-07 -0.00208378  -0.00242342 -0.00141548 -0.0031774  -0.0041658 -0.00416537 -0.00378323  -0.00595719 -0.00812563 -0.0039978  -0.00776511 -0.0131918 -0.00397396  -0.00956714 -0.0192622 -0.00381994  -0.011351 -0.0262374 -0.00358772  -0.0131016 -0.0340341 -0.00333333  -0.0148089 -0.042568 -0.00307178  -0.0164694 -0.0517714 -0.00281143  -0.0180751 -0.0615737 -0.00256133  -0.0196157 -0.0719206 -0.00231504  -0.0211046 -0.0827519 -0.00208879  -0.0225414 -0.0940201 -0.00187755  -0.0239191 -0.105671 -0.00167274  -0.0252374 -0.117657 -0.00147581  -0.0265026 -0.129938 -0.0013001  -0.0277145 -0.142475 -0.00114012  -0.0288832 -0.155225 -0.000981331  -0.0299938 -0.168151 -0.000836372  -0.0310535 -0.181221 -0.000706911  -0.032069 -0.194409 -0.000589371  -0.0330408 -0.207666 -0.000481606  -0.0339746 -0.220994 -0.000383615  -0.034868 -0.234357 -0.000302076  -0.0357258 -0.247729 -0.000228167  -0.0365541 -0.2611 -0.000170946  -0.03736 -0.274458 -0.000120163  -0.0381403 -0.287775 -7.65324e-05  -0.0388842 -0.301063 -4.22001e-05  -0.0396068 -0.314294 -2.28882e-05  -0.0403218 -0.327478 1.00136e-05  0 0 0  -0.000393011 0.000381768 -0.00102353  -0.00110836 -0.000930101 -0.00153613  -0.00192124 -0.00368658 -0.00180387  -0.00278461 -0.00767821 -0.00191259  -0.00367957 -0.0127805 -0.00190902  -0.00459456 -0.0189034 -0.00183821  -0.00553602 -0.0259273 -0.0017252  -0.00648797 -0.0337811 -0.00160813  -0.00744998 -0.042378 -0.00148249  -0.00842249 -0.0516431 -0.00135756  -0.00939178 -0.0615155 -0.00122976  -0.0103554 -0.0719319 -0.00111461  -0.0113147 -0.0828321 -0.000997782  -0.0122703 -0.0941659 -0.000900507  -0.0132213 -0.105874 -0.000797987  -0.0141565 -0.117921 -0.000705481  -0.0150867 -0.130261 -0.000628233  -0.016001 -0.142844 -0.000541449  -0.0169003 -0.155645 -0.000464678  -0.0177853 -0.168612 -0.000394344  -0.018657 -0.181722 -0.000334024  -0.0195143 -0.194937 -0.000279665  -0.0203531 -0.20823 -0.000218153  -0.0211744 -0.221578 -0.000182867  -0.0219717 -0.234965 -0.000144243  -0.0227647 -0.248353 -0.000107765  -0.0235376 -0.261739 -7.77245e-05  -0.0242968 -0.275111 -5.10216e-05  -0.0250361 -0.288441 -3.98159e-05  -0.0257676 -0.30174 -2.31266e-05  -0.0264871 -0.314975 -7.15256e-06  -0.0271897 -0.328153 1.16825e-05  0 0 0  3.27379e-05 0.000453174 8.58307e-06  0.000107527 -0.000840604 2.07424e-05  0.000179559 -0.00360665 2.98023e-05  0.0002262 -0.00762743 4.69685e-05  0.00023216 -0.0127523 4.79221e-05  0.00018847 -0.0188997 5.43594e-05  9.197e-05 -0.025962 5.72205e-05  -6.71148e-05 -0.0338521 5.57899e-05  -0.000283837 -0.0424881 6.31809e-05  -0.000556588 -0.0517974 6.27041e-05  -0.00088346 -0.0617178 5.67436e-05  -0.00126004 -0.0721815 4.95911e-05  -0.00168383 -0.0831223 5.62668e-05  -0.00215542 -0.0944973 5.126e-05  -0.00266802 -0.106252 5.34058e-05  -0.00321162 -0.118341 4.45843e-05  -0.00378871 -0.130719 4.3869e-05  -0.00439692 -0.143336 4.24385e-05  -0.00502849 -0.156165 3.74317e-05  -0.00568461 -0.169158 3.76701e-05  -0.00635481 -0.182292 3.29018e-05  -0.00703645 -0.19553 3.26633e-05  -0.0077281 -0.208843 3.40939e-05  -0.0084269 -0.222209 2.6226e-05  -0.00913954 -0.23561 2.09808e-05  -0.00984907 -0.249009 1.93119e-05  -0.0105603 -0.262401 1.81198e-05  -0.0112705 -0.275783 8.82149e-06  -0.0119815 -0.28912 1.0252e-05  -0.0126841 -0.302416 1.14441e-05  -0.013382 -0.315662 7.62939e-06  -0.0140772 -0.328834 -5.24521e-06  0 0 0  0.000462651 0.000262022 0.00103736  0.0013113 -0.00112271 0.0015707  0.00226614 -0.00392133 0.00186205  0.00322372 -0.00796133 0.00198174  0.00412554 -0.0131047 0.00200057  0.00495833 -0.0192677 0.00193834  0.00569874 -0.0263503 0.00183654  0.00633943 -0.0342559 0.00171828  0.00687623 -0.0429202 0.00159192  0.00729799 -0.0522466 0.00146413  0.00760818 -0.0621912 0.00134182  0.00781894 -0.0726718 0.00122404  0.00792754 -0.0836416 0.00111055  0.00794733 -0.0950365 0.00100756  0.00787604 -0.106818 0.000902414  0.00771832 -0.118929 0.000805855  0.00748777 -0.131322 0.000712156  0.0071888 -0.143955 0.000629902  0.00682497 -0.156796 0.000550032  0.00641084 -0.16981 0.00047636  0.0059433 -0.182949 0.000403881  0.00543571 -0.196202 0.00033927  0.00488639 -0.20952 0.00029254  0.00430369 -0.222897 0.000229597  0.00369048 -0.236295 0.000186682  0.00305915 -0.249701 0.000145435  0.00241375 -0.2631 0.00011611  0.00175524 -0.276474 8.29697e-05  0.0010829 -0.289812 5.43594e-05  0.000405312 -0.30311 3.40939e-05  -0.000280142 -0.316356 2.28882e-05  -0.000957251 -0.329536 3.09944e-06  0 0 0  0.000920072 -0.000226557 0.00207663  0.00260714 -0.00178117 0.00318098  0.00448108 -0.00463432 0.0038023  0.0063628 -0.00868136 0.00402808  0.00817525 -0.0138363 0.00402451  0.00988758 -0.0199975 0.00387526  0.0114669 -0.0270851 0.00366664  0.0129037 -0.0349973 0.00341272  0.0141774 -0.0436596 0.00315928  0.0152905 -0.0529867 0.00290537  0.0162441 -0.0629344 0.00265479  0.0170354 -0.0734195 0.00241971  0.0176752 -0.0843888 0.00218868  0.0181639 -0.0957927 0.00197291  0.0185251 -0.10757 0.00176644  0.01875 -0.119683 0.00157452  0.0188663 -0.132076 0.00139213  0.0188651 -0.144711 0.00121927  0.018769 -0.15755 0.00106764  0.0185783 -0.170561 0.000919819  0.0183098 -0.183704 0.000777483  0.0179639 -0.196947 0.000656128  0.017556 -0.210264 0.000537634  0.0170856 -0.223637 0.000443697  0.0165732 -0.237033 0.00034833  0.0160198 -0.250434 0.000263453  0.0154307 -0.263824 0.000204802  0.0148129 -0.277197 0.000142097  0.014173 -0.290528 0.000102758  0.0135145 -0.303823 5.8651e-05  0.0128417 -0.317061 3.38554e-05  0.0121679 -0.330244 -5.48363e-06  0 0 0  0.00142537 -0.00111228 0.00318885  0.00408316 -0.00286698 0.00515008  0.00696352 -0.00573689 0.00602984  0.0098123 -0.00977796 0.00628328  0.01256 -0.0149201 0.00621057  0.0151586 -0.0210802 0.00595331  0.017579 -0.0281544 0.00560904  0.0197979 -0.0360576 0.00522089  0.0218058 -0.0447031 0.00482631  0.0235959 -0.0540141 0.00442934  0.0251733 -0.0639448 0.00404787  0.02653 -0.0744117 0.0036819  0.027688 -0.0853641 0.00333047  0.0286473 -0.0967508 0.00299883  0.0294199 -0.10851 0.00268936  0.0300217 -0.120604 0.00238514  0.0304556 -0.132984 0.00210643  0.0307488 -0.145605 0.0018425  0.0308988 -0.158425 0.00159812  0.0309222 -0.171417 0.00136971  0.0308304 -0.184543 0.00116086  0.0306346 -0.19777 0.000966549  0.0303516 -0.211076 0.000792742  0.0299864 -0.224436 0.000635147  0.0295558 -0.237815 0.000500441  0.0290616 -0.251201 0.00038147  0.0285189 -0.264582 0.000283718  0.0279343 -0.277941 0.000194311  0.0273118 -0.291262 0.000128031  0.0266635 -0.30454 8.05855e-05  0.0260038 -0.317779 4.45843e-05  0.0253325 -0.330969 -6.4373e-06  0 0 0  0.00220811 -0.00247735 0.00533199  0.00599504 -0.00433129 0.00766897  0.009947 -0.00715941 0.00866055  0.0138239 -0.011173 0.00892115  0.0175358 -0.016299 0.00874519  0.0210462 -0.0224547 0.00834203  0.0243115 -0.0295119 0.00784254  0.0273131 -0.037385 0.00728607  0.030027 -0.0460045 0.00671887  0.0324712 -0.0552906 0.00616693  0.0346479 -0.0651803 0.00563192  0.036552 -0.0756197 0.00510406  0.0381974 -0.0865327 0.00462174  0.0395951 -0.0978828 0.00415945  0.0407648 -0.109614 0.0037148  0.0417099 -0.121678 0.00329089  0.0424542 -0.13403 0.00288868  0.0430033 -0.146608 0.00252771  0.043375 -0.159403 0.00218296  0.0435896 -0.17237 0.00185466  0.0436573 -0.185462 0.00156283  0.0435879 -0.198664 0.00130129  0.0434072 -0.211947 0.00104833  0.0431111 -0.225277 0.000828266  0.0427313 -0.23864 0.000635386  0.0422719 -0.251997 0.0004704  0.0417387 -0.265358 0.000325203  0.0411537 -0.278707 0.00021553  0.0405345 -0.292005 0.0001266  0.0398839 -0.305269 7.03335e-05  0.0392087 -0.318497 2.95639e-05  0.0385294 -0.331691 1.21593e-05  0 0 0  -0.00182579 -0.0029219 -0.00371408  -0.00538068 -0.0055063 -0.00566411  -0.00942281 -0.00852819 -0.00655508  -0.0135061 -0.012398 -0.00681305  -0.0174617 -0.0172293 -0.00670743  -0.0212386 -0.0229836 -0.00640321  -0.0248154 -0.0296148 -0.00598812  -0.0281894 -0.0370605 -0.00553656  -0.0313704 -0.0452413 -0.00507331  -0.0343578 -0.0540897 -0.00463223  -0.0371641 -0.0635417 -0.00421  -0.039794 -0.0735615 -0.00380468  -0.0422548 -0.0840826 -0.00342035  -0.0445532 -0.0950503 -0.00305939  -0.0467032 -0.106415 -0.00271702  -0.0486991 -0.118145 -0.00240397  -0.0505528 -0.130182 -0.00210977  -0.0522685 -0.142492 -0.00182438  -0.0538661 -0.155024 -0.00157452  -0.0553381 -0.167771 -0.00133872  -0.0567017 -0.180667 -0.00111675  -0.0579598 -0.1937 -0.00091815  -0.0591276 -0.206825 -0.000736952  -0.0602026 -0.220025 -0.000587463  -0.0611994 -0.233289 -0.000445604  -0.0621271 -0.246578 -0.000324965  -0.0629923 -0.259878 -0.000221014  -0.0638022 -0.273177 -0.000146627  -0.0645678 -0.286454 -9.05991e-05  -0.0653002 -0.299707 -5.91278e-05  -0.0660195 -0.312935 -2.16961e-05  -0.0667357 -0.326138 4.76837e-07  0 0 0  -0.00103272 -0.00177144 -0.00221014  -0.00344726 -0.00401375 -0.00377679  -0.00637472 -0.0070404 -0.00452542  -0.00939196 -0.0110259 -0.00477123  -0.0123489 -0.0159981 -0.00472689  -0.0151929 -0.0218958 -0.00451756  -0.0179095 -0.028667 -0.00423551  -0.0204959 -0.0362376 -0.0039258  -0.0229632 -0.0445469 -0.00360918  -0.0253012 -0.0535194 -0.00329447  -0.0275165 -0.0630978 -0.0029943  -0.0296086 -0.0732301 -0.00271225  -0.0315905 -0.0838591 -0.00244188  -0.0334646 -0.0949307 -0.00218606  -0.0352247 -0.106396 -0.00195217  -0.0368878 -0.118216 -0.00172663  -0.0384526 -0.130343 -0.00150871  -0.0399241 -0.142728 -0.00131536  -0.0413048 -0.155338 -0.00113678  -0.0426018 -0.168143 -0.000968218  -0.0438201 -0.181096 -0.000816822  -0.0449662 -0.194178 -0.000673532  -0.0460382 -0.207353 -0.000544071  -0.0470476 -0.220598 -0.000438213  -0.0479994 -0.233891 -0.000339985  -0.0488899 -0.247207 -0.000255108  -0.0497422 -0.260528 -0.000185728  -0.0505531 -0.273842 -0.00012517  -0.0513294 -0.287138 -8.22544e-05  -0.0520804 -0.3004 -4.74453e-05  -0.0528064 -0.313622 -2.47955e-05  -0.0535274 -0.326816 6.67572e-06  0 0 0  -0.000645407 -0.00104406 -0.0014019  -0.00212209 -0.00295065 -0.00229836  -0.00396451 -0.00594173 -0.00281072  -0.00591114 -0.0100036 -0.00300622  -0.00785953 -0.0150719 -0.00300407  -0.00976539 -0.0210797 -0.00288343  -0.0116166 -0.0279578 -0.00270963  -0.0134044 -0.0356347 -0.00251412  -0.0151274 -0.0440435 -0.00230932  -0.0167891 -0.0531166 -0.00210977  -0.0183856 -0.0627983 -0.00192237  -0.0199242 -0.0730296 -0.00173569  -0.0213974 -0.0837492 -0.00155997  -0.022813 -0.0949106 -0.00140095  -0.0241716 -0.10646 -0.00125194  -0.0254703 -0.118361 -0.00110388  -0.0267172 -0.130557 -0.000971556  -0.0279124 -0.143011 -0.000850439  -0.0290563 -0.155688 -0.000730515  -0.0301509 -0.168545 -0.000624895  -0.0311992 -0.18155 -0.000529528  -0.0322006 -0.194675 -0.000437737  -0.0331542 -0.207891 -0.000359058  -0.034076 -0.221171 -0.000288963  -0.0349581 -0.234489 -0.000222921  -0.0358043 -0.247832 -0.000174046  -0.0366187 -0.261171 -0.000125408  -0.0374038 -0.274501 -8.44002e-05  -0.0381689 -0.287809 -5.6982e-05  -0.0389092 -0.301076 -3.52859e-05  -0.039634 -0.314308 -1.71661e-05  -0.0403483 -0.327489 8.58307e-06  0 0 0  -0.000293836 -0.000668883 -0.0006845  -0.000982612 -0.00237665 -0.00111222  -0.00184757 -0.00533172 -0.00133991  -0.00279069 -0.00943303 -0.00144076  -0.00375485 -0.0145582 -0.00144911  -0.00473702 -0.020635 -0.00139618  -0.00571197 -0.0275876 -0.00130177  -0.00668949 -0.0353355 -0.00121069  -0.00766349 -0.0438207 -0.00111437  -0.00862885 -0.0529742 -0.00101852  -0.00959146 -0.0627264 -0.000921965  -0.0105494 -0.073034 -0.000832796  -0.0115039 -0.0838225 -0.000747681  -0.0124496 -0.0950528 -0.000671148  -0.0133811 -0.106672 -0.000595808  -0.0143074 -0.118628 -0.000526667  -0.0152214 -0.130882 -0.000466347  -0.0161238 -0.143387 -0.000405073  -0.0170138 -0.156109 -0.000348568  -0.0178876 -0.169008 -0.000292301  -0.0187473 -0.182057 -0.000246286  -0.0195918 -0.195214 -0.000209808  -0.0204182 -0.208462 -0.000162363  -0.0212276 -0.221765 -0.000136375  -0.0220263 -0.235107 -0.000104666  -0.0228069 -0.248468 -7.60555e-05  -0.0235708 -0.261823 -5.8651e-05  -0.0243242 -0.275165 -3.8147e-05  -0.0250614 -0.288479 -2.93255e-05  -0.0257859 -0.301758 -1.54972e-05  -0.0264964 -0.314993 -3.8147e-06  -0.0271983 -0.328166 0  0 0 0  2.43932e-05 -0.000579029 3.09944e-06  7.51913e-05 -0.00224251 6.67572e-06  0.000130504 -0.00520077 1.26362e-05  0.000161111 -0.00932175 2.19345e-05  0.000157535 -0.014484 2.98023e-05  0.000102162 -0.0205983 3.60012e-05  -5.96046e-06 -0.0275919 3.62396e-05  -0.00016427 -0.0353903 4.00543e-05  -0.000379682 -0.0439198 4.43459e-05  -0.000653625 -0.0531194 4.19617e-05  -0.000976682 -0.0629252 3.93391e-05  -0.00135338 -0.0732774 3.40939e-05  -0.00177133 -0.0841146 3.98159e-05  -0.00223231 -0.0953951 4.00543e-05  -0.0027355 -0.107054 4.07696e-05  -0.00327456 -0.11905 3.45707e-05  -0.00384974 -0.131343 3.05176e-05  -0.00445151 -0.143879 3.33786e-05  -0.0050776 -0.156634 2.86102e-05  -0.0057261 -0.169565 2.95639e-05  -0.006387 -0.182635 2.12193e-05  -0.00706315 -0.195817 2.52724e-05  -0.00774932 -0.209081 2.07424e-05  -0.00844717 -0.222401 2.3365e-05  -0.00915003 -0.235756 1.88351e-05  -0.00985861 -0.249125 1.28746e-05  -0.0105655 -0.262493 1.5974e-05  -0.0112729 -0.275842 5.48363e-06  -0.0119796 -0.289161 8.10623e-06  -0.0126815 -0.302444 2.14577e-06  -0.0133803 -0.315681 7.86781e-06  -0.0140748 -0.328849 -1.19209e-06  0 0 0  0.000344694 -0.000758886 0.000687122  0.00114229 -0.00252861 0.00111866  0.00211078 -0.00553417 0.0013628  0.00311011 -0.00967216 0.0014739  0.00405419 -0.014847 0.00149512  0.0049212 -0.0209749 0.00144625  0.00568438 -0.0279839 0.00137067  0.00633705 -0.0358025 0.00128222  0.0068779 -0.0443506 0.00118732  0.00730515 -0.0535711 0.00109625  0.00761902 -0.0634012 0.000998974  0.00782919 -0.0737786 0.000911951  0.00794077 -0.0846407 0.000825167  0.0079571 -0.0959429 0.000745535  0.0078845 -0.107625 0.000673532  0.00773335 -0.11964 0.000601292  0.00750661 -0.131951 0.000531673  0.00720716 -0.144506 0.000468969  0.00684977 -0.157277 0.000408411  0.00643158 -0.170218 0.000356436  0.0059638 -0.183299 0.000302076  0.00544977 -0.196489 0.000251532  0.00490475 -0.209758 0.000215054  0.00432515 -0.223089 0.00017643  0.00371671 -0.236446 0.000137806  0.0030849 -0.249816 0.000109911  0.00243521 -0.263187 8.46386e-05  0.0017736 -0.276539 6.36578e-05  0.00109935 -0.289859 3.95775e-05  0.000416279 -0.303139 2.71797e-05  -0.00026989 -0.316373 1.4782e-05  -0.000952005 -0.329551 2.38419e-06  0 0 0  0.000686735 -0.00122106 0.0013864  0.00225651 -0.00324446 0.00227952  0.00418907 -0.00632858 0.00280142  0.00618547 -0.0104771 0.00300288  0.00810963 -0.0156388 0.00301552  0.00989765 -0.0217554 0.00290442  0.01153 -0.0287557 0.00274396  0.012988 -0.0365644 0.00255704  0.0142764 -0.0451134 0.00236106  0.0153949 -0.0543332 0.00216627  0.0163472 -0.0641631 0.00198197  0.0171365 -0.0745356 0.00180578  0.0177724 -0.0854038 0.00163579  0.0182636 -0.0967019 0.00147533  0.0186183 -0.108389 0.00131869  0.0188453 -0.120404 0.00117302  0.0189555 -0.132713 0.00103736  0.0189538 -0.145271 0.000913858  0.0188525 -0.158039 0.00079608  0.0186625 -0.170973 0.000685453  0.0183859 -0.184053 0.000579834  0.0180378 -0.197239 0.000488758  0.0176234 -0.210504 0.000401735  0.0171547 -0.223832 0.000329971  0.0166368 -0.237179 0.000257254  0.0160704 -0.250543 0.000197649  0.0154748 -0.263908 0.000150442  0.0148494 -0.277253 0.000106335  0.0141993 -0.290567 7.70092e-05  0.0135391 -0.303845 4.57764e-05  0.0128644 -0.317079 2.40803e-05  0.0121889 -0.330264 -2.14577e-06  0 0 0  0.00104864 -0.00201172 0.00216269  0.00353876 -0.00442141 0.00370479  0.0065451 -0.00758916 0.00444508  0.00959826 -0.0117207 0.00468636  0.0125148 -0.0168431 0.00465202  0.0152282 -0.0229173 0.00446534  0.0177206 -0.0298812 0.00421023  0.0199785 -0.0376599 0.00391293  0.0220028 -0.0461819 0.00361609  0.0237966 -0.0553786 0.00331664  0.0253658 -0.0651856 0.00303292  0.0267237 -0.0755401 0.00275493  0.0278696 -0.0863878 0.00249052  0.0288218 -0.0976675 0.00224209  0.0295905 -0.109335 0.00200796  0.0301833 -0.121335 0.0017848  0.0306156 -0.133622 0.00157571  0.030895 -0.146163 0.00137782  0.031038 -0.158914 0.00119328  0.0310562 -0.171832 0.00102592  0.0309601 -0.184891 0.000864744  0.0307627 -0.198064 0.000723124  0.030473 -0.211312 0.000591993  0.0300975 -0.224618 0.000472546  0.0296469 -0.237951 0.000375032  0.0291417 -0.251306 0.000284433  0.0285857 -0.264653 0.000211  0.0279877 -0.277985 0.000148296  0.0273559 -0.29129 9.58443e-05  0.0267017 -0.304558 5.60284e-05  0.026037 -0.317786 2.86102e-05  0.0253606 -0.330984 1.43051e-06  0 0 0  0.0018014 -0.00320643 0.00358939  0.00540286 -0.00601315 0.00545716  0.00949591 -0.00923133 0.0063107  0.013584 -0.0133095 0.00658011  0.0174828 -0.0183628 0.00649023  0.0211132 -0.0243777 0.00621533  0.0244518 -0.0312837 0.00584292  0.0274924 -0.0390193 0.00543261  0.0302347 -0.0475008 0.00501299  0.0326833 -0.0566536 0.00459337  0.0348517 -0.0664256 0.00418639  0.0367475 -0.0767452 0.00380468  0.0383863 -0.0875566 0.00343776  0.0397826 -0.0988065 0.0030973  0.0409462 -0.11043 0.00276613  0.0418837 -0.1224 0.00245333  0.0426123 -0.134656 0.00215721  0.0431545 -0.147163 0.00188088  0.0435233 -0.159886 0.00162745  0.0437315 -0.172777 0.00138783  0.0437901 -0.185804 0.00117016  0.0437143 -0.198946 0.000971317  0.0435162 -0.212171 0.000786066  0.0432198 -0.225451 0.000623703  0.0428314 -0.238759 0.000477314  0.0423563 -0.252089 0.000359297  0.0418091 -0.265416 0.000250578  0.0412209 -0.278732 0.000164509  0.0405843 -0.29202 0.000102997  0.0399189 -0.305275 5.76973e-05  0.0392342 -0.3185 3.38554e-05  0.0385561 -0.331701 6.4373e-06  0 0 0  -0.0019225 -0.00372028 -0.00229311  -0.00542235 -0.00655542 -0.00359344  -0.00938991 -0.00981079 -0.0042479  -0.0134615 -0.0138043 -0.00447297  -0.0174555 -0.018651 -0.0044353  -0.0212834 -0.0243665 -0.0042479  -0.0249095 -0.0309154 -0.00398183  -0.028318 -0.0382637 -0.00368309  -0.0315197 -0.0463315 -0.00337791  -0.0345199 -0.0550814 -0.00307798  -0.0373323 -0.0644515 -0.00279999  -0.039965 -0.0743741 -0.00252748  -0.0424187 -0.084805 -0.00227427  -0.0447088 -0.0956935 -0.0020318  -0.0468398 -0.106989 -0.00180435  -0.0488217 -0.11865 -0.00159883  -0.0506654 -0.130626 -0.00140285  -0.0523798 -0.142875 -0.00121284  -0.0539634 -0.155359 -0.0010457  -0.0554342 -0.168048 -0.000890493  -0.0567863 -0.180899 -0.000749111  -0.0580368 -0.193881 -0.000613689  -0.0591912 -0.206981 -0.000494242  -0.060257 -0.220149 -0.000390291  -0.0612442 -0.233381 -0.000298262  -0.0621636 -0.246644 -0.00021553  -0.06302 -0.259927 -0.000156403  -0.0638244 -0.273211 -9.98974e-05  -0.0645878 -0.286478 -6.31809e-05  -0.0653284 -0.299726 -3.79086e-05  -0.0660486 -0.312948 -1.97887e-05  -0.0667622 -0.326146 2.6226e-06  0 0 0  -0.00103874 -0.00232182 -0.00137329  -0.00340933 -0.00496316 -0.0024302  -0.00631097 -0.00824305 -0.00297427  -0.00935695 -0.0123478 -0.00317001  -0.012377 -0.0173378 -0.00316381  -0.0152858 -0.0232035 -0.00302982  -0.0180599 -0.0299036 -0.00284219  -0.0206929 -0.0373923 -0.00263143  -0.0231781 -0.0455998 -0.00241446  -0.0255246 -0.0544832 -0.00220585  -0.027737 -0.0639759 -0.00200081  -0.0298284 -0.0740213 -0.00181031  -0.0318033 -0.0845705 -0.00163007  -0.0336587 -0.0955653 -0.00146222  -0.0354097 -0.106966 -0.00129867  -0.0370635 -0.118716 -0.00115299  -0.0386112 -0.130777 -0.0010066  -0.0400681 -0.143107 -0.000878572  -0.0414348 -0.155665 -0.000753164  -0.0427198 -0.168426 -0.000645876  -0.043925 -0.181331 -0.000545025  -0.0450532 -0.194371 -0.000449896  -0.0461178 -0.20751 -0.000361919  -0.0471134 -0.22072 -0.000290632  -0.0480542 -0.233986 -0.000226498  -0.048944 -0.247276 -0.000173807  -0.0497885 -0.260579 -0.000122786  -0.0505915 -0.273883 -8.55923e-05  -0.0513637 -0.287161 -5.19753e-05  -0.0521059 -0.300416 -3.14713e-05  -0.0528295 -0.313638 -1.74046e-05  -0.0535448 -0.326827 3.57628e-06  0 0 0  -0.000641145 -0.00151151 -0.000879049  -0.00206758 -0.00385192 -0.0014863  -0.00390339 -0.00709333 -0.00185609  -0.00588959 -0.0112621 -0.00200891  -0.00789815 -0.016357 -0.00201607  -0.00986218 -0.0223364 -0.0019381  -0.0117555 -0.0291606 -0.00181866  -0.0135729 -0.0367601 -0.00169301  -0.0153122 -0.0450865 -0.00155258  -0.0169787 -0.0540759 -0.00141311  -0.0185801 -0.0636765 -0.00128627  -0.0201123 -0.0738197 -0.00116301  -0.0215753 -0.0844658 -0.00104332  -0.02298 -0.0955509 -0.000932693  -0.0243303 -0.107035 -0.000836134  -0.0256231 -0.118865 -0.000736475  -0.0268552 -0.131 -0.000650406  -0.0280375 -0.143398 -0.000566244  -0.0291719 -0.156022 -0.000486135  -0.030256 -0.168832 -0.000416756  -0.0312912 -0.18179 -0.000351667  -0.0322821 -0.194874 -0.000291586  -0.0332286 -0.208054 -0.000232697  -0.0341365 -0.221297 -0.00019002  -0.0350115 -0.234589 -0.000147104  -0.0358489 -0.247906 -0.000111341  -0.0366569 -0.261227 -8.32081e-05  -0.0374401 -0.274545 -5.36442e-05  -0.0381942 -0.287834 -3.98159e-05  -0.0389314 -0.301099 -2.3365e-05  -0.0396543 -0.314324 -9.53674e-06  -0.0403693 -0.327499 7.62939e-06  0 0 0  -0.000289008 -0.00109306 -0.000426292  -0.000958145 -0.0032444 -0.000720739  -0.001827 -0.00643611 -0.000888348  -0.00279322 -0.0106381 -0.000964403  -0.00380033 -0.0157983 -0.000975847  -0.00481129 -0.0218578 -0.000939608  -0.0058201 -0.0287616 -0.000876904  -0.0068137 -0.036445 -0.000815153  -0.00779343 -0.0448571 -0.000747681  -0.00876379 -0.0539272 -0.000684023  -0.0097295 -0.063605 -0.000616312  -0.010685 -0.0738257 -0.000556231  -0.0116304 -0.0845445 -0.000499725  -0.0125659 -0.0956971 -0.000445127  -0.0134965 -0.107249 -0.000397205  -0.014411 -0.119139 -0.00034833  -0.0153186 -0.131332 -0.000309706  -0.0162122 -0.143784 -0.000268221  -0.0170894 -0.156453 -0.000233412  -0.0179589 -0.169305 -0.000193357  -0.0188086 -0.182303 -0.000166655  -0.0196435 -0.195421 -0.000141382  -0.0204663 -0.20863 -0.000106573  -0.0212677 -0.221903 -9.29832e-05  -0.0220573 -0.235211 -6.48499e-05  -0.0228331 -0.248546 -4.98295e-05  -0.0235951 -0.261885 -3.88622e-05  -0.0243385 -0.27521 -2.67029e-05  -0.0250754 -0.288512 -1.83582e-05  -0.0257978 -0.301778 -1.14441e-05  -0.0265088 -0.315006 -5.00679e-06  -0.0272141 -0.328178 2.6226e-06  0 0 0  2.28137e-05 -0.000986367 1.19209e-06  6.48499e-05 -0.00309315 1.19209e-06  0.000104219 -0.00628018 5.48363e-06  0.000121474 -0.0105025 6.4373e-06  0.000102162 -0.0156963 1.83582e-05  3.65973e-05 -0.0217994 1.97887e-05  -7.42078e-05 -0.0287525 2.09808e-05  -0.000239372 -0.0364839 2.83718e-05  -0.000456333 -0.0449469 2.55108e-05  -0.000724435 -0.0540694 2.71797e-05  -0.00105059 -0.0637965 2.3365e-05  -0.00142121 -0.0740724 2.12193e-05  -0.00183475 -0.0848382 2.3365e-05  -0.00229609 -0.0960407 2.40803e-05  -0.00279093 -0.107634 2.6226e-05  -0.0033257 -0.119564 2.21729e-05  -0.00389147 -0.131799 1.95503e-05  -0.00448966 -0.144283 1.97887e-05  -0.00511169 -0.156983 2.16961e-05  -0.0057528 -0.169863 2.07424e-05  -0.00641155 -0.182887 1.4782e-05  -0.00708556 -0.196026 1.78814e-05  -0.00776935 -0.209253 1.35899e-05  -0.00846195 -0.22254 1.64509e-05  -0.00916147 -0.235865 1.38283e-05  -0.00986671 -0.249209 8.34465e-06  -0.0105703 -0.262556 9.29832e-06  -0.0112782 -0.275888 4.76837e-06  -0.0119839 -0.289193 6.19888e-06  -0.0126896 -0.302467 3.8147e-06  -0.0133889 -0.315692 1.43051e-06  -0.0140831 -0.328876 2.86102e-06  0 0 0  0.000331789 -0.00117022 0.000427961  0.00107887 -0.0033744 0.000716686  0.00202766 -0.00660926 0.000893831  0.00302714 -0.0108538 0.000977993  0.00399458 -0.0160596 0.000996351  0.00487792 -0.0221754 0.000962734  0.00565171 -0.0291391 0.000915051  0.00631297 -0.0368959 0.000854731  0.00686157 -0.0453762 0.000791788  0.00729573 -0.0545246 0.000730515  0.00761712 -0.0642717 0.000667572  0.00783217 -0.074575 0.00060606  0.0079416 -0.0853654 0.000549555  0.00795865 -0.0965908 0.000497341  0.00788915 -0.108205 0.000448465  0.0077405 -0.120159 0.000396252  0.00751209 -0.132409 0.000357866  0.0072155 -0.14491 0.000310183  0.00685358 -0.157625 0.000272036  0.00643826 -0.170517 0.00023675  0.00597429 -0.183555 0.00020051  0.00546908 -0.196702 0.000168085  0.00491619 -0.209934 0.000142097  0.00433779 -0.223229 0.000118494  0.00373125 -0.236558 9.10759e-05  0.00309753 -0.249902 7.12872e-05  0.00244784 -0.263252 5.50747e-05  0.0017848 -0.276584 4.14848e-05  0.00111198 -0.289887 3.26633e-05  0.000427008 -0.303162 1.66893e-05  -0.000256777 -0.31639 1.16825e-05  -0.00094223 -0.329577 2.38419e-06  0 0 0  0.000668362 -0.0016579 0.000863552  0.00217044 -0.00409758 0.00146866  0.00407022 -0.00742608 0.00183988  0.00608087 -0.0116794 0.00199366  0.00804037 -0.0168746 0.00201058  0.0098688 -0.0229723 0.0019412  0.0115288 -0.0299187 0.00183558  0.0130111 -0.0376689 0.00170922  0.0143162 -0.0461414 0.00157642  0.0154437 -0.0552852 0.00144625  0.0163975 -0.065035 0.00132442  0.0171868 -0.0753319 0.00120401  0.017825 -0.0861242 0.001091  0.0183125 -0.0973549 0.000983238  0.0186702 -0.108972 0.000877619  0.0188959 -0.120921 0.000784636  0.0190032 -0.133169 0.000689507  0.0190027 -0.145673 0.000607967  0.0189023 -0.158384 0.000528812  0.0187082 -0.171274 0.000454426  0.0184321 -0.184307 0.000384569  0.0180781 -0.197449 0.000326157  0.0176616 -0.210679 0.000268936  0.0171888 -0.223966 0.000217676  0.0166633 -0.237289 0.00017333  0.0161006 -0.250627 0.000133038  0.0155013 -0.263971 9.70364e-05  0.0148711 -0.2773 7.10487e-05  0.0142243 -0.290601 4.8399e-05  0.0135605 -0.303864 2.88486e-05  0.0128808 -0.317093 1.4782e-05  0.0122032 -0.330286 1.66893e-06  0 0 0  0.00104496 -0.00252032 0.00134182  0.00346538 -0.00530243 0.00237918  0.00641733 -0.0087105 0.00290895  0.00946903 -0.0129557 0.00310493  0.0124282 -0.0181026 0.00309849  0.0151954 -0.0241576 0.00298476  0.0177297 -0.0310618 0.00281048  0.0200193 -0.0387726 0.00261283  0.0220599 -0.0472133 0.00241327  0.0238645 -0.0563291 0.00221252  0.0254422 -0.0660561 0.00202155  0.0267985 -0.076332 0.00183392  0.0279467 -0.0871024 0.00165963  0.0288975 -0.0983172 0.00149322  0.0296644 -0.109912 0.00133562  0.0302556 -0.121848 0.00118876  0.0306859 -0.134078 0.00105047  0.0309653 -0.146562 0.000918865  0.031106 -0.159254 0.00079608  0.0311201 -0.172126 0.000681162  0.0310218 -0.185143 0.000574589  0.0308163 -0.198269 0.000479221  0.0305197 -0.211482 0.000396013  0.0301425 -0.224752 0.000314713  0.0296922 -0.238063 0.000251532  0.029182 -0.251384 0.000190735  0.0286191 -0.264712 0.000139713  0.0280187 -0.278028 9.84669e-05  0.0273819 -0.291319 6.58035e-05  0.026727 -0.304581 3.52859e-05  0.0260556 -0.317804 1.69277e-05  0.0253763 -0.331002 -4.76837e-07  0 0 0  0.00188567 -0.00394028 0.00221157  0.00540647 -0.00696862 0.00346255  0.00939697 -0.0104002 0.00409245  0.0134544 -0.0145954 0.00430799  0.0173706 -0.0196716 0.00428438  0.0210375 -0.0256525 0.00411868  0.0244099 -0.0324958 0.00387788  0.0274799 -0.0401476 0.00360823  0.030242 -0.0485356 0.00332999  0.0327079 -0.0576125 0.00304794  0.0348856 -0.0672981 0.00278115  0.0367836 -0.0775327 0.00253057  0.0384243 -0.0882743 0.00228238  0.0398177 -0.0994453 0.00205374  0.0409752 -0.111007 0.00183225  0.0419128 -0.122911 0.00163245  0.0426474 -0.135107 0.001436  0.0431914 -0.147563 0.00124693  0.0435565 -0.160222 0.00108242  0.043762 -0.173059 0.000925064  0.043819 -0.186049 0.000779867  0.0437477 -0.199149 0.000645638  0.0435536 -0.212334 0.000522375  0.0432477 -0.225574 0.000417948  0.0428536 -0.238863 0.000324011  0.0423799 -0.252161 0.00024581  0.0418384 -0.265469 0.000172377  0.0412407 -0.278764 0.000112057  0.0406091 -0.292043 6.98566e-05  0.0399451 -0.305296 4.29153e-05  0.0392683 -0.318512 2.47955e-05  0.0385857 -0.331713 4.76837e-06  0 0 0  -0.00194895 -0.00411342 -0.00109744  -0.00544728 -0.00717618 -0.00174475  -0.00939766 -0.0105336 -0.00208879  -0.0134536 -0.0145877 -0.00220728  -0.0174439 -0.0194419 -0.00220251  -0.0212783 -0.0251429 -0.00211525  -0.0249193 -0.031663 -0.00198817  -0.0283488 -0.0389621 -0.00184226  -0.0315665 -0.0469774 -0.00168705  -0.0345761 -0.0556706 -0.00154042  -0.0373948 -0.0649889 -0.00140285  -0.0400262 -0.0748576 -0.00126219  -0.04248 -0.0852411 -0.00113583  -0.0447714 -0.0960882 -0.00101495  -0.0469036 -0.107339 -0.000901461  -0.0488828 -0.118955 -0.000796318  -0.0507193 -0.130887 -0.000699282  -0.0524237 -0.143106 -0.00060606  -0.0539997 -0.155558 -0.000522375  -0.0554652 -0.168216 -0.000437498  -0.0568173 -0.18104 -0.000376225  -0.0580616 -0.194007 -0.00030756  -0.0592115 -0.207081 -0.000247717  -0.0602753 -0.220229 -0.000197649  -0.0612628 -0.233442 -0.000149488  -0.0621803 -0.246687 -0.000108719  -0.0630333 -0.259959 -8.34465e-05  -0.0638373 -0.273232 -5.26905e-05  -0.0646043 -0.286492 -3.17097e-05  -0.0653405 -0.299732 -1.93119e-05  -0.0660636 -0.312954 -1.38283e-05  -0.0667741 -0.326161 -2.38419e-07  0 0 0  -0.0010245 -0.00260193 -0.000657558  -0.00339253 -0.00546964 -0.00118518  -0.00629389 -0.00889423 -0.00146747  -0.00934786 -0.0130818 -0.00158024  -0.0123861 -0.0180952 -0.00158238  -0.0153199 -0.0239562 -0.00151896  -0.0181154 -0.0306222 -0.00142431  -0.0207674 -0.0380688 -0.0013206  -0.0232639 -0.0462277 -0.00121307  -0.0256183 -0.055058 -0.00110555  -0.0278385 -0.0645035 -0.00100327  -0.0299283 -0.0744974 -0.00090456  -0.0318984 -0.0849976 -0.00081563  -0.0337517 -0.0959517 -0.000733614  -0.0354973 -0.107305 -0.000649214  -0.0371416 -0.119021 -0.000576258  -0.0386851 -0.131043 -0.00050354  -0.0401356 -0.14334 -0.000439882  -0.0414953 -0.155866 -0.000377417  -0.0427718 -0.168589 -0.000321627  -0.0439737 -0.181474 -0.000272751  -0.0451012 -0.194492 -0.000225306  -0.0461552 -0.207613 -0.000182867  -0.0471492 -0.220802 -0.000145435  -0.0480847 -0.234047 -0.000114202  -0.0489705 -0.247325 -8.15392e-05  -0.0498095 -0.260615 -6.27041e-05  -0.0506072 -0.273903 -4.19617e-05  -0.0513749 -0.287179 -2.55108e-05  -0.0521183 -0.300423 -1.7643e-05  -0.0528433 -0.313646 -1.04904e-05  -0.0535579 -0.326846 0  0 0 0  -0.000630677 -0.00173655 -0.000423431  -0.00205302 -0.00429989 -0.000727654  -0.00388658 -0.00770979 -0.000923395  -0.00588718 -0.0119692 -0.00100589  -0.00791234 -0.0170978 -0.00100923  -0.00990117 -0.0230756 -0.000976086  -0.0118174 -0.029865 -0.000914812  -0.0136493 -0.0374299 -0.000853062  -0.0154041 -0.0457077 -0.000778675  -0.0170808 -0.0546465 -0.000707865  -0.018679 -0.0641998 -0.000644445  -0.0202055 -0.0742951 -0.000582457  -0.0216737 -0.0848941 -0.00052166  -0.0230751 -0.0959385 -0.000467777  -0.0244102 -0.10738 -0.000416756  -0.0256962 -0.119172 -0.000367641  -0.0269294 -0.131269 -0.000329018  -0.0281074 -0.143635 -0.000282288  -0.0292277 -0.156221 -0.00023818  -0.0303082 -0.169002 -0.000209808  -0.0313361 -0.181936 -0.000175953  -0.0323205 -0.194998 -0.000146389  -0.0332646 -0.208154 -0.000114202  -0.0341716 -0.22138 -9.25064e-05  -0.0350397 -0.234657 -7.15256e-05  -0.0358732 -0.247956 -5.62668e-05  -0.0366755 -0.261265 -4.22001e-05  -0.0374484 -0.274569 -2.59876e-05  -0.0382059 -0.287853 -1.81198e-05  -0.0389423 -0.301108 -1.23978e-05  -0.039665 -0.314332 -4.76837e-06  -0.0403757 -0.327522 1.90735e-06  0 0 0  -0.000287443 -0.00129262 -0.000205755  -0.000949338 -0.00366881 -0.000355244  -0.00182515 -0.00703338 -0.000444651  -0.00280288 -0.0113279 -0.00048542  -0.00382113 -0.0165271 -0.000491858  -0.00485253 -0.0225789 -0.000472069  -0.00587118 -0.0294606 -0.000441074  -0.00687575 -0.0371085 -0.000411272  -0.00786293 -0.0454715 -0.000377178  -0.00883913 -0.0544949 -0.0003438  -0.00980282 -0.0641296 -0.000308037  -0.0107576 -0.0743025 -0.000279427  -0.0116998 -0.0849758 -0.000249863  -0.0126345 -0.0960888 -0.000223398  -0.013557 -0.107598 -0.000197887  -0.0144688 -0.119453 -0.000179052  -0.0153699 -0.131603 -0.000150442  -0.0162587 -0.144023 -0.000133991  -0.0171328 -0.156654 -0.000117779  -0.0179949 -0.169481 -9.53674e-05  -0.0188406 -0.182454 -8.46386e-05  -0.0196736 -0.195544 -6.93798e-05  -0.0204897 -0.208728 -5.4121e-05  -0.0212922 -0.221985 -4.55379e-05  -0.0220749 -0.235282 -3.0756e-05  -0.0228481 -0.248601 -2.28882e-05  -0.0236075 -0.261921 -2.12193e-05  -0.0243523 -0.275235 -1.23978e-05  -0.0250826 -0.288531 -6.91414e-06  -0.0258007 -0.301793 -6.4373e-06  -0.0265119 -0.315017 -4.29153e-06  -0.0272193 -0.328204 7.15256e-06  0 0 0  1.90884e-05 -0.00118133 -7.15256e-07  5.8502e-05 -0.00350225 1.43051e-06  8.82745e-05 -0.00686455 1.66893e-06  9.67979e-05 -0.0111817 2.6226e-06  7.30753e-05 -0.0164159 8.58307e-06  4.94719e-06 -0.0225125 9.53674e-06  -0.000115216 -0.0294446 8.58307e-06  -0.000280261 -0.0371436 1.35899e-05  -0.000500798 -0.0455606 1.16825e-05  -0.000769854 -0.0546416 1.07288e-05  -0.00108767 -0.0643221 9.05991e-06  -0.00145781 -0.0745482 7.39098e-06  -0.00187159 -0.0852726 1.07288e-05  -0.00232792 -0.0964321 1.28746e-05  -0.00282276 -0.107986 1.43051e-05  -0.00335646 -0.11988 1.26362e-05  -0.0039227 -0.132071 1.07288e-05  -0.0045135 -0.144524 8.10623e-06  -0.00513101 -0.157192 1.23978e-05  -0.00576901 -0.17004 9.29832e-06  -0.0064292 -0.183035 7.62939e-06  -0.00709796 -0.196154 8.34465e-06  -0.00777841 -0.209357 6.91414e-06  -0.00846672 -0.222628 6.91414e-06  -0.00916338 -0.235934 8.10623e-06  -0.00986934 -0.249263 5.48363e-06  -0.0105722 -0.262595 2.6226e-06  -0.0112748 -0.275915 3.57628e-06  -0.0119793 -0.289213 2.6226e-06  -0.012681 -0.30248 2.38419e-06  -0.0133822 -0.315706 4.76837e-07  -0.0140793 -0.328891 3.33786e-06  0 0 0  0.000322014 -0.00136602 0.000204563  0.00105715 -0.00378454 0.00034833  0.00199154 -0.0071913 0.000444412  0.0029853 -0.0115276 0.00048852  0.00395101 -0.0167699 0.00049758  0.0048396 -0.0228851 0.000485182  0.00562632 -0.0298316 0.000458479  0.00629497 -0.0375496 0.000428677  0.00684428 -0.0459892 0.000395775  0.00727892 -0.0550914 0.000366688  0.00760698 -0.0647975 0.000333548  0.00782228 -0.0750535 0.000302553  0.0079354 -0.0857984 0.000274181  0.00795293 -0.0969856 0.000249624  0.00788581 -0.108558 0.000226498  0.00773478 -0.120474 0.000195026  0.00750875 -0.132683 0.000175476  0.0072124 -0.145152 0.000154972  0.00685406 -0.157837 0.000134945  0.00644302 -0.170697 0.000118732  0.00598073 -0.183704 9.84669e-05  0.00547218 -0.196829 8.51154e-05  0.00492382 -0.210039 7.36713e-05  0.00434566 -0.223312 5.74589e-05  0.00373626 -0.236625 4.50611e-05  0.00310493 -0.249958 3.79086e-05  0.00245357 -0.263289 2.83718e-05  0.00179243 -0.276612 2.19345e-05  0.00111532 -0.289911 1.74046e-05  0.000433683 -0.303174 7.62939e-06  -0.000251532 -0.316404 5.48363e-06  -0.000934839 -0.329588 9.53674e-07  0 0 0  0.000654399 -0.00187624 0.000412703  0.00213462 -0.00452167 0.000721693  0.00402135 -0.00801235 0.000909567  0.00602841 -0.0123577 0.000994205  0.00799316 -0.0175872 0.00100493  0.00983489 -0.0236853 0.000973463  0.0115122 -0.0306128 0.00091958  0.01301 -0.0383199 0.0008564  0.014318 -0.0467526 0.00078845  0.0154483 -0.0558503 0.000723839  0.016408 -0.0655547 0.00066638  0.0172018 -0.0758098 0.000603676  0.01784 -0.0865563 0.000545979  0.0183318 -0.0977435 0.000494242  0.0186855 -0.109318 0.000436544  0.0189142 -0.121235 0.00039053  0.0190225 -0.133445 0.000343323  0.019021 -0.145913 0.000300169  0.0189173 -0.158597 0.000262976  0.0187235 -0.171456 0.000225067  0.0184481 -0.184458 0.000193357  0.0180957 -0.197577 0.000166416  0.017679 -0.210782 0.000135422  0.017206 -0.224051 0.000110388  0.0166814 -0.237358 8.89301e-05  0.0161145 -0.250684 6.4373e-05  0.0155125 -0.264012 4.60148e-05  0.0148852 -0.277325 3.38554e-05  0.0142345 -0.290617 2.36034e-05  0.0135672 -0.303882 1.50204e-05  0.0128875 -0.317106 1.00136e-05  0.0122066 -0.330297 5.24521e-06  0 0 0  0.0010267 -0.00278145 0.000640869  0.00343347 -0.00577462 0.001158  0.00637156 -0.00931883 0.00143695  0.00941849 -0.0136442 0.00154376  0.0123798 -0.0188258 0.00154853  0.0151558 -0.0248716 0.00149584  0.0177042 -0.0317534 0.00140762  0.0200063 -0.0394246 0.00131083  0.0220644 -0.0478195 0.00120783  0.0238812 -0.0568909 0.00110531  0.025462 -0.0665722 0.00101089  0.0268209 -0.0768017 0.000917673  0.0279695 -0.0875311 0.000829458  0.0289193 -0.098701 0.000746012  0.0296859 -0.110256 0.00066328  0.0302787 -0.122155 0.000594616  0.0307062 -0.13435 0.000526667  0.0309842 -0.1468 0.000460386  0.0311277 -0.159465 0.000400305  0.0311418 -0.172306 0.000338793  0.0310414 -0.185294 0.000288248  0.0308409 -0.198393 0.000237703  0.0305417 -0.211581 0.000195503  0.0301616 -0.224832 0.000154257  0.0297117 -0.238128 0.000127554  0.0291979 -0.251433 9.77516e-05  0.0286336 -0.264753 7.1764e-05  0.0280318 -0.278054 4.76837e-05  0.0273972 -0.291338 3.29018e-05  0.0267396 -0.304592 1.85966e-05  0.0260677 -0.317813 8.58307e-06  0.0253911 -0.331011 -3.8147e-06  0 0 0  0.00189978 -0.00430828 0.00106025  0.00540701 -0.00753725 0.00167561  0.00937167 -0.0110642 0.00201011  0.0133958 -0.0153113 0.0021317  0.0172931 -0.020411 0.00212526  0.0209666 -0.0263819 0.00204825  0.0243561 -0.0331942 0.00193548  0.0274345 -0.0408046 0.00180197  0.030207 -0.0491503 0.00166368  0.0326819 -0.0581706 0.00152183  0.0348643 -0.0678114 0.00139332  0.0367757 -0.0779999 0.00126076  0.038421 -0.0886947 0.00114155  0.0398172 -0.0998272 0.00102091  0.0409765 -0.111351 0.000919104  0.0419178 -0.12321 0.000816107  0.0426514 -0.135377 0.000716925  0.0431945 -0.147795 0.000623226  0.0435579 -0.160423 0.000546932  0.0437639 -0.173235 0.000463009  0.0438209 -0.186198 0.000389814  0.0437467 -0.199266 0.000325203  0.0435517 -0.212429 0.000268221  0.0432544 -0.225652 0.000211239  0.0428565 -0.238919 0.000161648  0.0423894 -0.252205 0.000124693  0.0418501 -0.265507 8.29697e-05  0.0412588 -0.278789 5.60284e-05  0.0406213 -0.292061 3.74317e-05  0.0399587 -0.30531 2.36034e-05  0.0392861 -0.31853 1.0252e-05  0.0386071 -0.331735 2.38419e-06  0 0 0  -0.00195839 -0.00424257 2.38419e-07  -0.00545822 -0.00737002 -4.76837e-07  -0.00940353 -0.0107667 -7.15256e-07  -0.0134552 -0.0148403 4.76837e-07  -0.017442 -0.0197055 9.53674e-07  -0.0212761 -0.0254019 2.38419e-06  -0.0249251 -0.0319085 -2.86102e-06  -0.0283582 -0.0391884 -4.76837e-07  -0.0315773 -0.0471915 0  -0.0345942 -0.055868 -2.6226e-06  -0.0374142 -0.0651666 1.19209e-06  -0.0400445 -0.0750232 -2.14577e-06  -0.0425017 -0.0853845 1.19209e-06  -0.044789 -0.0962146 -2.14577e-06  -0.0469149 -0.107453 3.09944e-06  -0.0488938 -0.119057 7.15256e-07  -0.0507367 -0.130983 1.90735e-06  -0.0524399 -0.143187 -2.38419e-06  -0.0540171 -0.155624 5.24521e-06  -0.0554729 -0.168275 6.91414e-06  -0.0568211 -0.181088 -3.33786e-06  -0.0580673 -0.194047 4.76837e-07  -0.0592198 -0.207115 -5.00679e-06  -0.0602825 -0.220255 2.38419e-07  -0.0612674 -0.233462 4.76837e-07  -0.0621822 -0.246703 -9.53674e-07  -0.0630341 -0.259966 -2.86102e-06  -0.0638404 -0.273237 -1.90735e-06  -0.0646107 -0.286501 1.19209e-06  -0.0653536 -0.299741 -4.76837e-07  -0.0660729 -0.312958 -4.29153e-06  -0.0667868 -0.326157 2.38419e-06  0 0 0  -0.00102518 -0.00268918 1.19209e-06  -0.00338769 -0.005627 3.57628e-06  -0.00628409 -0.00910406 1.66893e-06  -0.00934067 -0.0133143 -2.38419e-07  -0.012384 -0.0183467 -2.38419e-07  -0.0153241 -0.0242017 2.14577e-06  -0.0181265 -0.03086 3.8147e-06  -0.0207815 -0.0382895 2.14577e-06  -0.0232865 -0.0464356 -1.43051e-06  -0.0256449 -0.0552496 4.29153e-06  -0.0278676 -0.0646763 -2.14577e-06  -0.0299604 -0.0746566 1.66893e-06  -0.0319271 -0.0851389 1.66893e-06  -0.0337819 -0.0960772 -3.8147e-06  -0.0355263 -0.10742 1.19209e-06  -0.0371664 -0.119119 1.43051e-06  -0.0387092 -0.131132 -1.90735e-06  -0.0401583 -0.143418 4.76837e-07  -0.0415175 -0.155932 -1.66893e-06  -0.0427954 -0.168648 1.66893e-06  -0.0439911 -0.181523 2.14577e-06  -0.045115 -0.194532 0  -0.0461698 -0.207644 -2.14577e-06  -0.0471623 -0.22083 4.76837e-07  -0.0480971 -0.234072 -2.38419e-07  -0.0489764 -0.247336 2.86102e-06  -0.0498142 -0.260625 -2.6226e-06  -0.0506139 -0.273911 0  -0.0513804 -0.287183 -4.76837e-07  -0.0521255 -0.300431 4.76837e-07  -0.0528529 -0.313651 -1.19209e-06  -0.0535688 -0.326846 -2.38419e-07  0 0 0  -0.000629738 -0.00181064 -2.6226e-06  -0.00204681 -0.00443925 1.19209e-06  -0.0038828 -0.00790444 -4.76837e-07  -0.00588936 -0.0121959 2.6226e-06  -0.00792348 -0.0173364 -7.15256e-07  -0.00991577 -0.0233153 -2.6226e-06  -0.0118385 -0.0300986 4.52995e-06  -0.0136795 -0.0376481 -3.33786e-06  -0.0154352 -0.0459116 1.90735e-06  -0.0171086 -0.0548402 1.19209e-06  -0.018706 -0.0643726 1.43051e-06  -0.0202351 -0.0744533 2.38419e-07  -0.0216987 -0.0850357 3.57628e-06  -0.0230973 -0.0960673 -1.43051e-06  -0.024438 -0.107493 3.09944e-06  -0.0257223 -0.119274 1.43051e-06  -0.0269494 -0.131357 -9.53674e-07  -0.0281253 -0.143711 -2.6226e-06  -0.0292506 -0.156288 2.14577e-06  -0.030324 -0.169063 4.05312e-06  -0.0313535 -0.181986 -2.14577e-06  -0.0323358 -0.195038 0  -0.033278 -0.208192 2.86102e-06  -0.0341775 -0.221411 3.57628e-06  -0.0350449 -0.234678 1.90735e-06  -0.0358777 -0.247969 -1.43051e-06  -0.0366797 -0.261275 -1.90735e-06  -0.0374582 -0.274575 1.19209e-06  -0.0382123 -0.287859 2.86102e-06  -0.0389442 -0.301116 -4.76837e-07  -0.0396643 -0.314335 -2.86102e-06  -0.0403736 -0.327526 -2.86102e-06  0 0 0  -0.000285931 -0.00135595 3.09944e-06  -0.000948459 -0.00379992 -3.09944e-06  -0.00182462 -0.00722349 -3.33786e-06  -0.00280759 -0.011553 7.15256e-07  -0.00383508 -0.0167622 1.66893e-06  -0.00486618 -0.0228184 7.15256e-07  -0.0058881 -0.0296886 1.43051e-06  -0.00689268 -0.0373266 9.53674e-07  -0.00788665 -0.0456758 -3.09944e-06  -0.00886631 -0.0546898 -4.76837e-07  -0.00983059 -0.0643002 7.15256e-07  -0.0107814 -0.0744604 3.33786e-06  -0.0117229 -0.0851184 -4.76837e-07  -0.0126553 -0.0962168 0  -0.0135773 -0.107708 -2.38419e-07  -0.0144849 -0.119555 -2.38419e-06  -0.0153835 -0.131694 3.33786e-06  -0.0162709 -0.144099 2.14577e-06  -0.0171468 -0.156722 3.33786e-06  -0.0180073 -0.169538 2.38419e-07  -0.0188501 -0.182504 -1.66893e-06  -0.0196826 -0.195588 1.66893e-06  -0.0205004 -0.208767 0  -0.0213001 -0.222015 4.76837e-07  -0.0220835 -0.235302 1.90735e-06  -0.0228508 -0.248613 4.05312e-06  -0.0236084 -0.261933 -1.66893e-06  -0.0243511 -0.275245 3.33786e-06  -0.0250826 -0.288539 -4.52995e-06  -0.0258012 -0.301796 4.76837e-07  -0.0265162 -0.315021 -1.19209e-06  -0.0272243 -0.328204 1.66893e-06  0 0 0  2.08914e-05 -0.00123942 -3.57628e-06  5.69224e-05 -0.00363171 -1.90735e-06  8.44598e-05 -0.00705004 3.8147e-06  8.78572e-05 -0.0114038 -7.15256e-07  6.13332e-05 -0.0166495 2.38419e-07  -8.28505e-06 -0.0227494 4.29153e-06  -0.000125349 -0.0296709 -1.66893e-06  -0.000293136 -0.0373609 1.90735e-06  -0.00050962 -0.0457672 1.43051e-06  -0.000780106 -0.0548309 -7.15256e-07  -0.00110674 -0.0644952 -1.43051e-06  -0.00147665 -0.0747119 -2.14577e-06  -0.00188923 -0.085417 -1.66893e-06  -0.00234091 -0.0965647 -7.15256e-07  -0.0028348 -0.108101 1.90735e-06  -0.00336516 -0.119981 9.53674e-07  -0.00393176 -0.13216 0  -0.00452662 -0.144601 -4.76837e-07  -0.00513792 -0.157258 -2.14577e-06  -0.00577521 -0.1701 1.43051e-06  -0.00643516 -0.18309 -9.53674e-07  -0.00710464 -0.196198 -4.76837e-07  -0.00778461 -0.209394 -4.76837e-07  -0.00847411 -0.222656 -1.43051e-06  -0.0091722 -0.235958 4.76837e-07  -0.00987077 -0.249281 -1.43051e-06  -0.0105731 -0.262606 -7.15256e-07  -0.0112793 -0.275927 4.76837e-07  -0.0119824 -0.289221 1.19209e-06  -0.0126846 -0.302485 1.19209e-06  -0.0133812 -0.315708 9.53674e-07  -0.0140762 -0.32889 9.53674e-07  0 0 0  0.000318483 -0.00142962 1.43051e-06  0.00104901 -0.00391269 -2.14577e-06  0.00197902 -0.00737345 1.66893e-06  0.00297248 -0.011747 -9.53674e-07  0.00394058 -0.0170074 1.43051e-06  0.00483203 -0.0231194 1.66893e-06  0.00561881 -0.0300562 -9.53674e-07  0.00628793 -0.037769 1.19209e-06  0.00684094 -0.0461953 3.09944e-06  0.00727499 -0.0552802 7.15256e-07  0.00760257 -0.0649746 -3.8147e-06  0.00782025 -0.0752133 -1.43051e-06  0.00793231 -0.0859441 1.43051e-06  0.00795126 -0.0971157 1.43051e-06  0.00788319 -0.108673 3.09944e-06  0.00773501 -0.120575 -5.48363e-06  0.00751185 -0.132772 -9.53674e-07  0.00721407 -0.145232 2.14577e-06  0.00685573 -0.157906 -2.86102e-06  0.00644422 -0.170757 7.15256e-07  0.00597811 -0.183758 -2.14577e-06  0.00547099 -0.196873 1.90735e-06  0.00492501 -0.21008 9.53674e-07  0.00434828 -0.223344 2.38419e-06  0.00374103 -0.236649 -1.90735e-06  0.00310802 -0.249975 3.33786e-06  0.00245595 -0.263301 -1.19209e-06  0.00179124 -0.276623 1.66893e-06  0.00111651 -0.289918 2.14577e-06  0.000436783 -0.303184 -2.14577e-06  -0.000250101 -0.316405 2.38419e-07  -0.000934124 -0.329591 -3.57628e-06  0 0 0  0.000655189 -0.00194383 2.38419e-06  0.00212836 -0.0046587 1.90735e-06  0.00400954 -0.00819468 -1.90735e-06  0.006015 -0.0125775 7.15256e-07  0.00798213 -0.0178195 2.6226e-06  0.00982505 -0.0239192 4.76837e-06  0.011506 -0.0308388 -3.57628e-06  0.0130037 -0.0385366 0  0.0143182 -0.0469593 -1.90735e-06  0.015456 -0.0560395 -1.90735e-06  0.0164133 -0.0657292 5.48363e-06  0.0172069 -0.0759671 2.14577e-06  0.0178469 -0.0867021 2.38419e-07  0.0183396 -0.0978745 2.86102e-06  0.0186992 -0.109435 -4.52995e-06  0.018923 -0.121338 -2.38419e-07  0.0190294 -0.133536 -1.66893e-06  0.0190282 -0.145989 -7.15256e-07  0.0189245 -0.158668 -2.38419e-06  0.0187292 -0.171515 -2.86102e-06  0.0184505 -0.184508 1.90735e-06  0.0180988 -0.197621 2.14577e-06  0.0176835 -0.210825 7.15256e-07  0.0172093 -0.224081 -2.14577e-06  0.0166872 -0.237382 5.00679e-06  0.0161214 -0.2507 -1.19209e-06  0.0155201 -0.264021 -2.38419e-07  0.0148947 -0.277337 -5.24521e-06  0.0142412 -0.290627 2.14577e-06  0.013571 -0.303889 2.6226e-06  0.0128958 -0.31711 3.8147e-06  0.0122223 -0.330303 1.19209e-06  0 0 0  0.00102112 -0.00286257 -3.33786e-06  0.00342318 -0.00592244 -2.38419e-07  0.00634915 -0.00951445 -9.53674e-07  0.00939459 -0.0138675 9.53674e-07  0.0123557 -0.0190565 3.09944e-06  0.0151362 -0.0251056 -4.76837e-07  0.0176954 -0.0319816 5.72205e-06  0.0200042 -0.0396349 1.19209e-06  0.0220628 -0.0480274 -1.19209e-06  0.0238776 -0.0570809 -2.38419e-07  0.0254626 -0.0667416 -1.19209e-06  0.0268264 -0.0769598 -2.38419e-06  0.0279742 -0.0876748 -4.76837e-07  0.0289266 -0.0988272 -1.19209e-06  0.0296898 -0.110373 -2.6226e-06  0.0302806 -0.122256 1.43051e-06  0.0307114 -0.134441 5.00679e-06  0.030992 -0.146876 2.14577e-06  0.031132 -0.159533 4.76837e-07  0.031147 -0.172366 -1.90735e-06  0.0310473 -0.185344 2.14577e-06  0.0308456 -0.198436 -3.57628e-06  0.0305445 -0.21162 -2.14577e-06  0.0301647 -0.224864 -1.90735e-06  0.0297124 -0.238148 0  0.0291996 -0.251455 5.00679e-06  0.0286391 -0.264764 1.66893e-06  0.0280387 -0.278065 -3.09944e-06  0.0274041 -0.291345 1.19209e-06  0.0267437 -0.3046 -9.53674e-07  0.0260699 -0.317823 -2.14577e-06  0.0253949 -0.331021 -1.90735e-06  0 0 0  0.00191459 -0.0044263 2.38419e-07  0.00541645 -0.00771564 -1.66893e-06  0.00935608 -0.011278 2.86102e-06  0.0133761 -0.0155464 2.38419e-07  0.0172746 -0.0206504 3.8147e-06  0.0209418 -0.0266168 -1.66893e-06  0.0243249 -0.0334244 -1.90735e-06  0.0274097 -0.0410185 2.6226e-06  0.0301957 -0.0493558 5.00679e-06  0.032672 -0.0583622 -4.76837e-07  0.03486 -0.0679801 7.15256e-07  0.0367649 -0.0781559 1.43051e-06  0.0384101 -0.0888332 -2.86102e-06  0.039806 -0.0999498 -3.33786e-06  0.0409647 -0.111464 5.48363e-06  0.0419044 -0.123313 2.6226e-06  0.0426428 -0.135461 -1.43051e-06  0.0431886 -0.147869 0  0.0435584 -0.160489 4.76837e-07  0.0437632 -0.173297 3.09944e-06  0.0438232 -0.186248 2.6226e-06  0.0437469 -0.199305 3.33786e-06  0.043556 -0.212462 1.43051e-06  0.0432537 -0.225679 -7.15256e-07  0.0428607 -0.238943 -1.90735e-06  0.0423882 -0.252225 -9.53674e-07  0.0418482 -0.265519 -4.76837e-06  0.0412567 -0.2788 -3.57628e-06  0.040621 -0.292065 7.15256e-07  0.0399599 -0.305312 3.8147e-06  0.039288 -0.318535 -2.14577e-06  0.0386124 -0.331741 -1.90735e-06  0 0 0  -0.0019492 -0.00411486 0.00109816  -0.00544626 -0.00717571 0.00174332  -0.00939718 -0.0105379 0.00208688  -0.0134556 -0.0145869 0.002213  -0.0174476 -0.0194484 0.0022037  -0.0212823 -0.0251489 0.00211549  -0.0249215 -0.0316658 0.00198841  -0.0283491 -0.0389612 0.0018394  -0.03157 -0.0469834 0.0016892  -0.0345869 -0.055677 0.00153852  -0.0373996 -0.0649849 0.00139499  -0.0400314 -0.0748568 0.00126219  -0.0424829 -0.0852398 0.00113559  -0.0447685 -0.096082 0.00101757  -0.0468965 -0.107338 0.000901222  -0.0488772 -0.118956 0.000801802  -0.0507207 -0.130895 0.000699043  -0.0524235 -0.143109 0.000607252  -0.0540071 -0.155562 0.000524998  -0.0554659 -0.168219 0.000447273  -0.0568161 -0.18104 0.000372887  -0.0580604 -0.194002 0.000306845  -0.0592132 -0.207074 0.000244379  -0.0602763 -0.220229 0.000193596  -0.06126 -0.233448 0.000149012  -0.0621719 -0.246693 0.000106573  -0.0630329 -0.25996 7.55787e-05  -0.0638394 -0.273228 5.31673e-05  -0.0646038 -0.286489 3.48091e-05  -0.0653422 -0.299734 2.0504e-05  -0.0660639 -0.312953 1.04904e-05  -0.0667813 -0.32617 -4.76837e-07  0 0 0  -0.00102385 -0.00259996 0.000659943  -0.00339268 -0.00547046 0.00118923  -0.0062927 -0.00889417 0.00147223  -0.00934687 -0.0130834 0.00158238  -0.0123838 -0.0180995 0.00158072  -0.0153197 -0.0239531 0.00152302  -0.0181172 -0.0306251 0.00142813  -0.020763 -0.0380651 0.00132203  -0.0232635 -0.0462303 0.00121474  -0.0256213 -0.0550623 0.00111198  -0.0278403 -0.0645026 0.00100303  -0.0299284 -0.0744996 0.000906467  -0.0318973 -0.0849974 0.000817299  -0.0337514 -0.0959524 0.000727415  -0.0354965 -0.107306 0.000653744  -0.0371408 -0.11902 0.000574112  -0.0386858 -0.131042 0.00050211  -0.0401378 -0.14334 0.000436783  -0.041502 -0.155865 0.000378609  -0.0427835 -0.168591 0.000324965  -0.0439794 -0.181474 0.000272751  -0.0451045 -0.19449 0.000221968  -0.0461586 -0.207606 0.000183344  -0.0471523 -0.220806 0.000146866  -0.0480888 -0.23405 0.000110149  -0.0489714 -0.247326 8.67844e-05  -0.0498092 -0.260616 5.93662e-05  -0.0506098 -0.273902 4.19617e-05  -0.0513787 -0.287176 2.59876e-05  -0.0521185 -0.300425 1.78814e-05  -0.0528455 -0.313647 8.58307e-06  -0.0535667 -0.326843 -1.90735e-06  0 0 0  -0.000629023 -0.00173521 0.000419617  -0.002051 -0.00430012 0.000731707  -0.0038867 -0.00771107 0.00091958  -0.00588709 -0.0119705 0.00100756  -0.0079152 -0.0170971 0.00101137  -0.00990206 -0.0230727 0.000974655  -0.0118188 -0.0298669 0.00091815  -0.0136531 -0.0374264 0.000850677  -0.0154066 -0.0457071 0.000782013  -0.0170772 -0.0546506 0.000709772  -0.0186751 -0.0641996 0.000644684  -0.0202082 -0.0742974 0.000583172  -0.0216712 -0.0848915 0.000525713  -0.023072 -0.0959391 0.000466108  -0.0244126 -0.10738 0.000418663  -0.0256958 -0.11917 0.000370264  -0.0269253 -0.131266 0.000323772  -0.0281055 -0.143633 0.000281811  -0.0292332 -0.156224 0.000245571  -0.0303075 -0.169002 0.000208616  -0.0313377 -0.181937 0.000175953  -0.0323215 -0.194997 0.000146627  -0.033262 -0.208153 0.000122309  -0.0341678 -0.221382 9.58443e-05  -0.0350347 -0.234657 7.51019e-05  -0.0358713 -0.247956 5.62668e-05  -0.0366771 -0.261265 3.88622e-05  -0.0374537 -0.274566 2.95639e-05  -0.0382071 -0.287852 1.97887e-05  -0.0389431 -0.30111 9.77516e-06  -0.0396633 -0.314332 2.86102e-06  -0.0403759 -0.327521 -9.29832e-06  0 0 0  -0.000287414 -0.00129506 0.000208616  -0.000950724 -0.00366479 0.000353575  -0.00182617 -0.00703552 0.000439405  -0.00280622 -0.0113292 0.000487804  -0.00382435 -0.0165259 0.000489712  -0.00485277 -0.0225809 0.000473499  -0.00587082 -0.0294583 0.00044632  -0.00687724 -0.037111 0.000411272  -0.0078665 -0.045471 0.000375271  -0.0088439 -0.0545006 0.000341177  -0.00980961 -0.0641262 0.000310183  -0.010759 -0.0743035 0.000281811  -0.0117007 -0.0849738 0.000252485  -0.0126357 -0.0960888 0.000223875  -0.013558 -0.107595 0.000196934  -0.0144724 -0.119444 0.0001719  -0.015372 -0.131602 0.00015521  -0.016258 -0.144019 0.000138044  -0.0171299 -0.156655 0.000115156  -0.0179937 -0.169479 9.98974e-05  -0.0188434 -0.182451 8.01086e-05  -0.0196772 -0.195545 6.62804e-05  -0.020493 -0.208732 5.38826e-05  -0.0212936 -0.221984 4.33922e-05  -0.0220795 -0.235277 3.6478e-05  -0.0228515 -0.248598 2.93255e-05  -0.0236084 -0.261921 2.0504e-05  -0.0243485 -0.275234 1.23978e-05  -0.0250793 -0.28853 8.82149e-06  -0.0258019 -0.30179 3.8147e-06  -0.0265133 -0.315021 3.8147e-06  -0.0272186 -0.328197 9.53674e-07  0 0 0  2.00123e-05 -0.0011822 -2.14577e-06  5.75483e-05 -0.0035055 -1.43051e-06  8.99136e-05 -0.00686699 3.8147e-06  9.66191e-05 -0.0111808 -2.86102e-06  6.87242e-05 -0.0164114 -7.15256e-06  2.14577e-06 -0.0225125 -5.72205e-06  -0.000116169 -0.0294419 -9.29832e-06  -0.000281274 -0.0371454 -1.28746e-05  -0.000497818 -0.0455615 -1.04904e-05  -0.000768542 -0.054641 -1.21593e-05  -0.00108814 -0.0643218 -9.53674e-06  -0.00146008 -0.074551 -1.57356e-05  -0.00187159 -0.0852704 -1.23978e-05  -0.00233185 -0.0964336 -1.21593e-05  -0.00282991 -0.107982 -1.3113e-05  -0.00336051 -0.119874 -1.0252e-05  -0.00392485 -0.132071 -1.04904e-05  -0.00451398 -0.14452 -1.19209e-05  -0.00513029 -0.15719 -1.16825e-05  -0.00576758 -0.170043 -6.91414e-06  -0.00642323 -0.183038 -7.86781e-06  -0.00709629 -0.196152 -5.48363e-06  -0.00777841 -0.209359 -6.19888e-06  -0.0084722 -0.222626 -6.4373e-06  -0.00916433 -0.235934 -6.4373e-06  -0.00986743 -0.249264 -4.52995e-06  -0.0105734 -0.262597 -4.76837e-06  -0.0112784 -0.275916 -1.43051e-06  -0.011982 -0.289216 -4.29153e-06  -0.0126824 -0.302481 -1.90735e-06  -0.0133803 -0.315711 -2.38419e-06  -0.014075 -0.328884 0  0 0 0  0.00032331 -0.00137019 -0.000203848  0.00105572 -0.00379002 -0.000348806  0.00198796 -0.00719035 -0.000439882  0.00298512 -0.0115275 -0.000488997  0.00395304 -0.0167704 -0.00049448  0.00483996 -0.0228857 -0.000479698  0.00562841 -0.0298316 -0.000459433  0.00629866 -0.0375502 -0.000424623  0.00684881 -0.0459931 -0.000391245  0.00728142 -0.0550948 -0.000365019  0.00760376 -0.0647985 -0.000338554  0.00782049 -0.075053 -0.000304461  0.00793409 -0.0857995 -0.000271559  0.00795591 -0.0969833 -0.000249624  0.00788832 -0.108555 -0.000220537  0.00773716 -0.12047 -0.000206232  0.00750875 -0.132683 -0.000177383  0.00721526 -0.145152 -0.000152826  0.00686097 -0.157837 -0.000137091  0.00644469 -0.170696 -0.000117064  0.0059793 -0.183706 -0.000100136  0.00546932 -0.19683 -8.36849e-05  0.00492263 -0.210042 -7.20024e-05  0.00434375 -0.223314 -5.81741e-05  0.00373697 -0.236629 -4.8399e-05  0.00310659 -0.249958 -3.0756e-05  0.00245428 -0.263293 -2.76566e-05  0.00179124 -0.276611 -1.83582e-05  0.00111485 -0.289912 -1.40667e-05  0.000433445 -0.303175 -1.07288e-05  -0.000253439 -0.316405 -2.38419e-06  -0.0009408 -0.329585 -7.15256e-07  0 0 0  0.00065513 -0.00187606 -0.000413656  0.00213736 -0.00452816 -0.00071764  0.00402451 -0.00801164 -0.000910759  0.00603193 -0.0123584 -0.000992537  0.00799394 -0.0175838 -0.00100517  0.00983667 -0.0236824 -0.000967503  0.0115131 -0.0306159 -0.000922441  0.0130081 -0.0383191 -0.000857592  0.0143207 -0.0467538 -0.000790119  0.0154508 -0.0558521 -0.000726223  0.0164126 -0.0655537 -0.000659704  0.0172054 -0.0758114 -0.000600576  0.0178425 -0.0865593 -0.000546217  0.0183339 -0.0977421 -0.000490427  0.0186877 -0.109319 -0.000442266  0.0189157 -0.121231 -0.000391483  0.0190251 -0.133447 -0.000345469  0.0190217 -0.145914 -0.000305653  0.0189159 -0.158598 -0.000261784  0.018719 -0.17145 -0.000226498  0.0184445 -0.184461 -0.000191689  0.018096 -0.197579 -0.000160456  0.0176799 -0.210786 -0.000133514  0.017206 -0.224052 -0.000109911  0.016681 -0.23736 -8.24928e-05  0.0161147 -0.250682 -6.46114e-05  0.0155146 -0.264009 -5.07832e-05  0.0148845 -0.277324 -3.8147e-05  0.014235 -0.290622 -2.19345e-05  0.0135696 -0.303881 -1.16825e-05  0.0128932 -0.317107 -7.86781e-06  0.0122147 -0.330294 -9.53674e-07  0 0 0  0.00102556 -0.0027824 -0.000644207  0.00343338 -0.0057767 -0.00115895  0.00636926 -0.00932109 -0.00143623  0.00941366 -0.0136418 -0.00154161  0.0123767 -0.0188211 -0.00154209  0.0151542 -0.0248711 -0.00149298  0.0177043 -0.0317544 -0.00140476  0.020009 -0.0394203 -0.00130987  0.022065 -0.0478222 -0.00121093  0.0238814 -0.0568966 -0.00110698  0.0254625 -0.0665705 -0.00101185  0.0268222 -0.0768078 -0.000921249  0.027971 -0.0875352 -0.000829935  0.0289239 -0.098698 -0.000747681  0.0296868 -0.110258 -0.000666857  0.0302799 -0.122153 -0.000591278  0.0307062 -0.13435 -0.000521898  0.030987 -0.146799 -0.000454187  0.0311275 -0.159466 -0.00039959  0.0311441 -0.172306 -0.000342846  0.0310435 -0.185294 -0.000285864  0.0308416 -0.198396 -0.000244379  0.0305433 -0.211586 -0.00019908  0.0301623 -0.224837 -0.000159264  0.0297096 -0.238126 -0.000127077  0.0291996 -0.251438 -9.17912e-05  0.0286365 -0.26475 -6.7234e-05  0.0280342 -0.278055 -5.00679e-05  0.0273952 -0.291339 -3.05176e-05  0.0267401 -0.304594 -2.12193e-05  0.0260661 -0.317813 -1.04904e-05  0.0253882 -0.331012 -1.19209e-06  0 0 0  0.00189705 -0.00431347 -0.00105667  0.00540841 -0.0075416 -0.00167799  0.00937033 -0.0110665 -0.00200248  0.0133989 -0.0153085 -0.00213432  0.0172967 -0.0204058 -0.00212479  0.0209682 -0.0263812 -0.00204802  0.0243527 -0.0331917 -0.00193191  0.0274347 -0.0408055 -0.0017972  0.0302129 -0.0491506 -0.00165272  0.0326842 -0.058175 -0.00152397  0.0348675 -0.0678108 -0.00138783  0.0367773 -0.0780069 -0.00126314  0.0384183 -0.0886965 -0.00113988  0.0398057 -0.0998251 -0.00102782  0.0409682 -0.111348 -0.000913143  0.0419083 -0.123211 -0.000811577  0.0426424 -0.135376 -0.000715256  0.0431867 -0.147793 -0.00062418  0.0435555 -0.160426 -0.000542879  0.0437634 -0.173239 -0.000459433  0.0438271 -0.186197 -0.000386238  0.0437522 -0.199269 -0.000317097  0.0435581 -0.21243 -0.000262022  0.0432563 -0.225658 -0.000206709  0.0428603 -0.238916 -0.000160933  0.0423841 -0.252211 -0.000125647  0.0418487 -0.265505 -9.05991e-05  0.0412509 -0.278791 -5.98431e-05  0.040617 -0.292063 -3.57628e-05  0.0399582 -0.305306 -2.59876e-05  0.0392826 -0.318527 -1.43051e-05  0.0386019 -0.331732 -6.91414e-06  0 0 0  -0.00192458 -0.00371521 0.00229478  -0.00542408 -0.00655446 0.00359607  -0.00939322 -0.00980642 0.00424957  -0.0134638 -0.0137994 0.00448012  -0.0174548 -0.0186516 0.00443864  -0.0212841 -0.0243662 0.00424647  -0.0249081 -0.0309169 0.00397563  -0.0283146 -0.0382532 0.00368333  -0.0315193 -0.0463297 0.00338364  -0.0345184 -0.0550848 0.00307989  -0.0373288 -0.0644491 0.0027976  -0.039956 -0.0743713 0.00252843  -0.0424122 -0.0848043 0.00227261  -0.0447061 -0.0956976 0.00203586  -0.0468389 -0.106989 0.00181174  -0.0488255 -0.118651 0.00159645  -0.0506718 -0.130625 0.00140095  -0.0523851 -0.142871 0.00121975  -0.0539663 -0.155362 0.00104594  -0.0554304 -0.168047 0.000889301  -0.0567849 -0.180899 0.000745773  -0.058033 -0.193886 0.000614643  -0.0591908 -0.206976 0.000491381  -0.0602608 -0.220153 0.000393867  -0.0612447 -0.233376 0.000291824  -0.0621626 -0.246647 0.00021863  -0.0630231 -0.259925 0.000152349  -0.0638304 -0.273204 0.000105858  -0.0645976 -0.286477 6.22272e-05  -0.0653281 -0.299718 4.00543e-05  -0.0660446 -0.312948 2.45571e-05  -0.066767 -0.326152 -1.66893e-06  0 0 0  -0.00103601 -0.00232068 0.00137019  -0.00340702 -0.0049604 0.00243473  -0.00630781 -0.00824036 0.00297379  -0.00935477 -0.0123495 0.00317383  -0.012378 -0.0173384 0.00315881  -0.0152887 -0.0232001 0.00303054  -0.0180608 -0.0299027 0.00284576  -0.0206925 -0.0373871 0.00263381  -0.0231743 -0.0456014 0.00241804  -0.025521 -0.0544844 0.0022068  -0.0277359 -0.0639764 0.00200319  -0.0298285 -0.0740205 0.00180745  -0.0317994 -0.0845679 0.0016315  -0.0336592 -0.0955683 0.0014565  -0.0354109 -0.106962 0.0013032  -0.0370573 -0.118715 0.00114846  -0.0386105 -0.130778 0.00100446  -0.040071 -0.143108 0.000876665  -0.0414395 -0.155672 0.000757694  -0.0427215 -0.16842 0.000641346  -0.043925 -0.181331 0.000542879  -0.0450609 -0.194372 0.000447989  -0.0461233 -0.207508 0.000367165  -0.0471196 -0.220725 0.000289679  -0.0480599 -0.233985 0.000226021  -0.0489471 -0.247277 0.00016737  -0.0497935 -0.26058 0.000120401  -0.0505931 -0.273875 8.24928e-05  -0.0513608 -0.287161 5.38826e-05  -0.0521047 -0.300413 3.43323e-05  -0.0528286 -0.313638 1.23978e-05  -0.0535438 -0.326831 -5.00679e-06  0 0 0  -0.000642039 -0.00151147 0.00087595  -0.00206964 -0.00384882 0.00148606  -0.00390476 -0.00708872 0.0018549  -0.00589105 -0.0112595 0.00200796  -0.0078966 -0.0163568 0.00201321  -0.00986242 -0.022337 0.00194025  -0.0117546 -0.0291577 0.00182414  -0.0135756 -0.0367574 0.00169086  -0.0153155 -0.0450866 0.00155115  -0.0169821 -0.054075 0.00141835  -0.0185809 -0.063676 0.00128579  -0.0201123 -0.0738189 0.00116467  -0.0215789 -0.0844628 0.00104594  -0.0229802 -0.0955541 0.000934601  -0.0243266 -0.107032 0.000833988  -0.0256186 -0.118866 0.00073576  -0.0268531 -0.131 0.000646591  -0.0280364 -0.143401 0.000565529  -0.0291672 -0.156021 0.000488043  -0.0302534 -0.168826 0.000415802  -0.031286 -0.181789 0.000346661  -0.0322769 -0.194877 0.00029254  -0.0332263 -0.208051 0.000242233  -0.0341353 -0.221301 0.00019145  -0.0350106 -0.23459 0.000150204  -0.0358467 -0.247906 0.000113249  -0.0366533 -0.261231 8.13007e-05  -0.0374336 -0.27454 5.60284e-05  -0.0381932 -0.287835 3.98159e-05  -0.0389304 -0.3011 2.47955e-05  -0.03965 -0.314325 1.0252e-05  -0.0403655 -0.32751 -5.24521e-06  0 0 0  -0.00029359 -0.00109154 0.0004282  -0.000956982 -0.00324443 0.000719547  -0.00182608 -0.00643453 0.000886917  -0.00279343 -0.010637 0.000970125  -0.00380141 -0.015796 0.000972986  -0.00481665 -0.0218546 0.000937223  -0.00581896 -0.0287579 0.000883579  -0.00681055 -0.0364434 0.000815392  -0.00779557 -0.0448546 0.000747919  -0.00876689 -0.0539295 0.000679731  -0.00972831 -0.0636034 0.000615358  -0.0106834 -0.0738273 0.000558138  -0.0116299 -0.084542 0.000504255  -0.0125681 -0.0957015 0.000447273  -0.0134965 -0.107246 0.000398874  -0.0144132 -0.119138 0.000346422  -0.0153222 -0.131334 0.000310421  -0.0162122 -0.143782 0.000266314  -0.0170925 -0.156451 0.000229597  -0.0179551 -0.1693 0.000198126  -0.0188069 -0.1823 0.000166178  -0.0196457 -0.195422 0.000137091  -0.0204651 -0.208628 0.000109196  -0.0212705 -0.221901 8.96454e-05  -0.0220575 -0.235211 6.91414e-05  -0.0228322 -0.24855 5.57899e-05  -0.0235908 -0.261885 3.98159e-05  -0.0243368 -0.275206 2.43187e-05  -0.0250704 -0.28851 1.81198e-05  -0.0257945 -0.301782 9.53674e-06  -0.0265105 -0.315006 3.8147e-06  -0.0272155 -0.32819 -4.29153e-06  0 0 0  2.12491e-05 -0.000984907 -4.76837e-07  6.34491e-05 -0.00309524 -4.05312e-06  0.000104696 -0.00627828 -3.09944e-06  0.000121057 -0.0105008 -8.10623e-06  0.000101507 -0.0156943 -1.83582e-05  4.04716e-05 -0.0217974 -1.38283e-05  -7.25985e-05 -0.0287486 -1.95503e-05  -0.000237763 -0.0364859 -2.43187e-05  -0.000454783 -0.044948 -2.26498e-05  -0.000725627 -0.0540736 -2.57492e-05  -0.00104809 -0.0637983 -2.38419e-05  -0.00142026 -0.0740699 -2.74181e-05  -0.00183535 -0.0848389 -2.57492e-05  -0.0022943 -0.0960404 -2.40803e-05  -0.00279796 -0.107632 -2.59876e-05  -0.0033319 -0.119565 -2.26498e-05  -0.00389791 -0.131796 -2.21729e-05  -0.00449491 -0.14428 -2.31266e-05  -0.0051136 -0.15698 -2.26498e-05  -0.00575328 -0.169858 -1.78814e-05  -0.00641298 -0.182888 -1.43051e-05  -0.00708365 -0.196028 -1.3113e-05  -0.00777388 -0.209251 -1.38283e-05  -0.00846362 -0.22254 -1.57356e-05  -0.0091629 -0.235867 -1.19209e-05  -0.00986338 -0.249212 -1.00136e-05  -0.0105696 -0.262556 -1.00136e-05  -0.0112762 -0.275886 -5.00679e-06  -0.0119793 -0.289191 -5.96046e-06  -0.0126817 -0.302466 -8.34465e-06  -0.0133808 -0.315694 -3.33786e-06  -0.0140755 -0.328871 2.38419e-07  0 0 0  0.000331417 -0.00116926 -0.000423193  0.00107947 -0.00337583 -0.00071311  0.00202695 -0.00660938 -0.000890255  0.00302517 -0.0108499 -0.000977755  0.00399184 -0.016058 -0.00099349  0.00487751 -0.0221739 -0.000960827  0.00565588 -0.0291412 -0.000912428  0.00632 -0.0368949 -0.000855207  0.00686955 -0.0453797 -0.000786304  0.00729823 -0.0545282 -0.000725985  0.00761545 -0.0642763 -0.000669718  0.00782585 -0.0745714 -0.00060606  0.00793648 -0.0853631 -0.000549555  0.00795329 -0.0965903 -0.000501394  0.00788784 -0.108205 -0.000443697  0.00773668 -0.12016 -0.000400305  0.00750923 -0.132408 -0.000355005  0.00720978 -0.144908 -0.00030899  0.00685048 -0.157625 -0.000271797  0.00643682 -0.170517 -0.000236034  0.00597453 -0.183556 -0.000199318  0.00546384 -0.196703 -0.000166655  0.00491929 -0.209933 -0.000144005  0.00433707 -0.223228 -0.000116825  0.00372958 -0.236559 -9.2268e-05  0.00309944 -0.249905 -6.86646e-05  0.00245118 -0.263249 -5.57899e-05  0.00178552 -0.27658 -3.76701e-05  0.00110912 -0.28989 -2.83718e-05  0.000427723 -0.30316 -2.00272e-05  -0.000254631 -0.31639 -1.09673e-05  -0.000941038 -0.32957 2.38419e-07  0 0 0  0.000670612 -0.00165945 -0.000864983  0.00217071 -0.00409794 -0.0014708  0.00406986 -0.00742251 -0.00183773  0.00608331 -0.0116802 -0.00199461  0.00804287 -0.0168729 -0.0020051  0.00987095 -0.0229722 -0.00194001  0.0115288 -0.0299245 -0.00183606  0.0130132 -0.0376663 -0.00170827  0.0143167 -0.0461403 -0.00157809  0.0154393 -0.0552845 -0.00144887  0.016391 -0.065035 -0.00132322  0.017184 -0.0753332 -0.00120211  0.0178243 -0.0861228 -0.00109148  0.0183161 -0.0973529 -0.000979185  0.0186723 -0.108969 -0.000882626  0.0188973 -0.120923 -0.000782728  0.0190055 -0.133171 -0.000692368  0.0190048 -0.145672 -0.000608921  0.0189002 -0.158387 -0.000525951  0.0187032 -0.171274 -0.000453949  0.0184286 -0.184311 -0.000384808  0.0180805 -0.197453 -0.000320673  0.0176654 -0.210676 -0.000269413  0.0171912 -0.223967 -0.000218391  0.0166667 -0.237293 -0.000168085  0.0161057 -0.250631 -0.000128269  0.0155048 -0.263973 -0.000101089  0.0148764 -0.277295 -7.1764e-05  0.0142252 -0.2906 -4.673e-05  0.0135581 -0.303864 -2.67029e-05  0.0128794 -0.31709 -1.40667e-05  0.0122027 -0.330279 -1.19209e-06  0 0 0  0.00104348 -0.00252008 -0.00134158  0.0034627 -0.00530356 -0.00237393  0.00641692 -0.0087136 -0.00290656  0.0094735 -0.012957 -0.00310254  0.0124301 -0.0181059 -0.00309682  0.0151972 -0.0241534 -0.00298142  0.0177299 -0.0310645 -0.00280976  0.020018 -0.0387672 -0.00261641  0.0220582 -0.0472137 -0.00241423  0.0238658 -0.0563276 -0.00221395  0.0254425 -0.0660558 -0.00201797  0.0267987 -0.0763346 -0.00183749  0.0279472 -0.0871035 -0.00165796  0.0288996 -0.0983158 -0.00149441  0.0296649 -0.109911 -0.00133348  0.0302563 -0.121848 -0.00118589  0.0306876 -0.134075 -0.00104356  0.0309637 -0.14656 -0.000913143  0.0311058 -0.159256 -0.000799656  0.0311196 -0.172128 -0.000682116  0.0310185 -0.185147 -0.000575781  0.0308144 -0.198272 -0.000483751  0.0305216 -0.211479 -0.000396967  0.0301385 -0.224751 -0.000315428  0.0296886 -0.23806 -0.000251532  0.0291796 -0.251389 -0.000186205  0.0286224 -0.264715 -0.000137806  0.0280221 -0.278026 -9.60827e-05  0.0273874 -0.291317 -6.24657e-05  0.0267267 -0.304579 -4.12464e-05  0.0260556 -0.317798 -1.93119e-05  0.0253782 -0.331002 2.38419e-07  0 0 0  0.00188462 -0.00394267 -0.00221133  0.00540709 -0.00697035 -0.00346279  0.00940114 -0.0104038 -0.00409508  0.0134563 -0.0145953 -0.00431466  0.0173727 -0.0196705 -0.00428438  0.0210359 -0.0256488 -0.00411725  0.0244088 -0.0324916 -0.00387931  0.027482 -0.0401435 -0.0036025  0.0302405 -0.0485361 -0.00332284  0.0327058 -0.0576108 -0.0030489  0.0348829 -0.0672943 -0.00278735  0.0367873 -0.0775402 -0.00252914  0.0384307 -0.088274 -0.00228047  0.0398226 -0.0994467 -0.00205231  0.0409756 -0.111002 -0.00183535  0.0419126 -0.12291 -0.00162506  0.0426469 -0.135108 -0.00143218  0.0431886 -0.147553 -0.00125527  0.0435555 -0.160221 -0.00108218  0.0437636 -0.173065 -0.00092268  0.0438173 -0.18605 -0.000772238  0.04374 -0.199152 -0.000642061  0.0435481 -0.21233 -0.000520468  0.0432441 -0.225574 -0.000413656  0.0428517 -0.238862 -0.000322819  0.0423756 -0.252165 -0.000244379  0.041831 -0.265471 -0.00017786  0.0412378 -0.278765 -0.000117779  0.0406039 -0.292045 -7.22408e-05  0.0399439 -0.305293 -4.93526e-05  0.0392663 -0.318508 -2.43187e-05  0.0385776 -0.331719 -5.24521e-06  0 0 0  -0.00182059 -0.0029205 0.00371623  -0.00537519 -0.00550291 0.00566387  -0.00941667 -0.00852984 0.0065546  -0.0135031 -0.0124035 0.00682569  -0.0174662 -0.0172244 0.00671577  -0.0212374 -0.0229831 0.00639439  -0.0248135 -0.0296181 0.00598192  -0.0281917 -0.0370647 0.00553966  -0.0313746 -0.0452393 0.00508142  -0.0343639 -0.0540869 0.00462794  -0.0371696 -0.0635551 0.00420427  -0.0397975 -0.0735622 0.00380135  -0.0422584 -0.0840829 0.0034225  -0.0445564 -0.0950461 0.00306129  -0.046701 -0.10642 0.0027225  -0.0486931 -0.118139 0.00240612  -0.0505483 -0.130178 0.00210929  -0.0522676 -0.142487 0.00183177  -0.0538633 -0.15503 0.00157762  -0.0553374 -0.167769 0.00133824  -0.056699 -0.180667 0.00111556  -0.0579574 -0.193693 0.00092268  -0.0591245 -0.20682 0.000741959  -0.0602024 -0.220035 0.000585079  -0.0611975 -0.233286 0.000444889  -0.062125 -0.246578 0.00032115  -0.0629888 -0.259876 0.000225544  -0.0637965 -0.27318 0.000149012  -0.0645649 -0.286457 8.70228e-05  -0.0653052 -0.299717 5.26905e-05  -0.0660172 -0.312939 2.16961e-05  -0.0667284 -0.326137 9.53674e-07  0 0 0  -0.00103491 -0.00176881 0.00220847  -0.00345007 -0.00401435 0.00378251  -0.00637552 -0.00703883 0.00452852  -0.00939298 -0.0110263 0.00477052  -0.0123471 -0.015999 0.00472498  -0.0151898 -0.0218982 0.00452065  -0.0179073 -0.0286713 0.00424552  -0.020499 -0.0362432 0.00392842  -0.0229636 -0.044542 0.00360966  -0.0253011 -0.0535166 0.00329423  -0.0275135 -0.0631017 0.00299454  -0.0296115 -0.0732274 0.00271106  -0.0315953 -0.0838591 0.00244379  -0.0334635 -0.0949281 0.00218225  -0.0352242 -0.106397 0.00195169  -0.0368905 -0.118215 0.00172448  -0.0384548 -0.130341 0.00151038  -0.0399244 -0.142725 0.00131655  -0.041302 -0.155341 0.00113177  -0.0426004 -0.168146 0.000965118  -0.0438175 -0.181098 0.000814915  -0.0449615 -0.194176 0.000674486  -0.0460331 -0.207352 0.000552654  -0.0470457 -0.220601 0.000437021  -0.0479965 -0.233889 0.000337601  -0.0488935 -0.247204 0.000253677  -0.0497444 -0.260531 0.000187159  -0.0505571 -0.273844 0.000123024  -0.0513358 -0.287139 8.03471e-05  -0.0520816 -0.3004 5.126e-05  -0.0528131 -0.313624 2.12193e-05  -0.0535276 -0.326819 -9.53674e-06  0 0 0  -0.000647582 -0.00104554 0.00140285  -0.0021226 -0.00295098 0.00229764  -0.00395873 -0.00594588 0.00280571  -0.00590876 -0.0100011 0.00300574  -0.00785708 -0.0150735 0.00300026  -0.00976574 -0.0210795 0.00288486  -0.0116178 -0.0279582 0.00270867  -0.0134043 -0.0356358 0.00251698  -0.0151284 -0.044041 0.00231099  -0.016786 -0.0531173 0.00211453  -0.0183866 -0.0628 0.00192046  -0.0199198 -0.0730255 0.00173926  -0.0213927 -0.0837488 0.00156522  -0.022812 -0.0949101 0.00140142  -0.0241705 -0.106462 0.00124884  -0.0254687 -0.118359 0.00110698  -0.0267169 -0.130559 0.000970125  -0.0279112 -0.143011 0.000849485  -0.0290549 -0.155684 0.000734329  -0.0301476 -0.168546 0.00062418  -0.0311999 -0.181549 0.000527859  -0.0322037 -0.194676 0.000441074  -0.0331621 -0.207887 0.000362158  -0.03408 -0.22117 0.000288725  -0.0349562 -0.234489 0.000228405  -0.0358009 -0.24783 0.000169754  -0.0366187 -0.261175 0.000127077  -0.0374074 -0.274502 8.86917e-05  -0.0381711 -0.287808 5.76973e-05  -0.0389111 -0.301078 3.71933e-05  -0.0396359 -0.314308 1.7643e-05  -0.040354 -0.327491 -2.14577e-06  0 0 0  -0.000291087 -0.000672489 0.000686169  -0.00097914 -0.0023762 0.00111365  -0.00184637 -0.00533313 0.00134087  -0.00279173 -0.00942871 0.00144625  -0.00376374 -0.0145586 0.00144482  -0.00473922 -0.0206354 0.00138807  -0.00571132 -0.0275851 0.00130844  -0.0066871 -0.0353366 0.00121403  -0.00766087 -0.0438216 0.00111413  -0.00863016 -0.0529734 0.00101709  -0.00959289 -0.0627263 0.000917912  -0.0105535 -0.0730307 0.00083518  -0.0115039 -0.0838228 0.000752926  -0.0124443 -0.0950526 0.000671625  -0.0133772 -0.106672 0.000594854  -0.0143088 -0.118628 0.000526667  -0.0152221 -0.13088 0.00046587  -0.0161247 -0.143391 0.000399828  -0.0170088 -0.15611 0.000345707  -0.0178878 -0.169012 0.000296593  -0.0187466 -0.182055 0.000254154  -0.019592 -0.195216 0.00020647  -0.0204196 -0.208457 0.000169277  -0.0212321 -0.221765 0.000136137  -0.0220318 -0.235106 0.000103712  -0.0228102 -0.248464 7.9155e-05  -0.0235724 -0.261826 5.8651e-05  -0.0243256 -0.275165 3.93391e-05  -0.0250595 -0.288481 2.83718e-05  -0.0257807 -0.301758 1.28746e-05  -0.0264916 -0.314991 5.48363e-06  -0.0272021 -0.328165 -6.4373e-06  0 0 0  2.57194e-05 -0.000583977 -2.6226e-06  7.81119e-05 -0.0022471 -4.29153e-06  0.000130683 -0.00520322 -1.16825e-05  0.000163019 -0.00931969 -1.85966e-05  0.000156462 -0.0144801 -3.12328e-05  9.84073e-05 -0.0205981 -2.88486e-05  -6.25849e-06 -0.0275931 -3.43323e-05  -0.000165939 -0.0353895 -3.93391e-05  -0.000382662 -0.0439218 -3.62396e-05  -0.000653744 -0.0531242 -4.12464e-05  -0.000979066 -0.062922 -3.91006e-05  -0.00134909 -0.0732762 -4.36306e-05  -0.00177228 -0.0841164 -4.1008e-05  -0.00223684 -0.0953913 -3.62396e-05  -0.00274134 -0.107053 -3.67165e-05  -0.00327909 -0.119051 -3.62396e-05  -0.00384855 -0.131341 -3.48091e-05  -0.0044508 -0.143885 -3.62396e-05  -0.00507808 -0.156638 -3.05176e-05  -0.005723 -0.169567 -2.95639e-05  -0.00638604 -0.182635 -2.02656e-05  -0.00706077 -0.195816 -2.38419e-05  -0.00774789 -0.209083 -2.07424e-05  -0.00844693 -0.222402 -1.90735e-05  -0.00915217 -0.235756 -1.5974e-05  -0.0098567 -0.249129 -1.23978e-05  -0.0105674 -0.262493 -1.38283e-05  -0.0112703 -0.275844 -1.00136e-05  -0.0119762 -0.289165 -5.96046e-06  -0.012682 -0.302444 -7.15256e-06  -0.0133841 -0.315677 -5.00679e-06  -0.0140748 -0.32885 9.53674e-07  0 0 0  0.000342876 -0.000762761 -0.000684023  0.00113556 -0.00253403 -0.00111651  0.00210878 -0.00553572 -0.00136185  0.00310457 -0.00967163 -0.00147629  0.00405443 -0.0148439 -0.0014925  0.00492322 -0.0209745 -0.00144148  0.00568807 -0.0279834 -0.00137019  0.00633574 -0.0358 -0.00127983  0.00687385 -0.0443519 -0.00118494  0.00729895 -0.0535778 -0.0010879  0.00761795 -0.0634019 -0.00100112  0.00783193 -0.0737761 -0.000911236  0.00794327 -0.0846397 -0.000824451  0.00796247 -0.0959414 -0.000748634  0.00788915 -0.107625 -0.000671864  0.00773692 -0.119642 -0.000596285  0.00750852 -0.131949 -0.000531912  0.00721097 -0.144509 -0.000464678  0.00685191 -0.157281 -0.000408173  0.00643158 -0.170216 -0.000351667  0.00596309 -0.183299 -0.000301123  0.00545382 -0.196488 -0.000253677  0.00490618 -0.209762 -0.000217199  0.0043242 -0.223086 -0.000174284  0.00371909 -0.236451 -0.000143051  0.00309038 -0.249822 -0.000108242  0.00244117 -0.263188 -8.24928e-05  0.00177526 -0.276539 -5.84126e-05  0.00109982 -0.289859 -4.05312e-05  0.000418425 -0.30314 -3.00407e-05  -0.000271797 -0.316371 -1.64509e-05  -0.00095892 -0.329549 5.48363e-06  0 0 0  0.000685081 -0.00122422 -0.00138712  0.0022555 -0.00324768 -0.00228143  0.00418729 -0.00632918 -0.00279903  0.00618368 -0.0104762 -0.00300241  0.00811124 -0.0156441 -0.00300765  0.00990355 -0.0217596 -0.00290346  0.0115319 -0.028759 -0.00274253  0.0129942 -0.0365635 -0.0025599  0.0142819 -0.0451161 -0.00235939  0.0153958 -0.0543375 -0.00216985  0.0163462 -0.0641605 -0.00198174  0.0171361 -0.0745369 -0.00180626  0.0177746 -0.0854035 -0.00163531  0.0182688 -0.0967034 -0.00147223  0.0186235 -0.108385 -0.00131869  0.0188475 -0.120405 -0.00117493  0.018955 -0.132712 -0.00103831  0.0189519 -0.145272 -0.000912905  0.0188465 -0.158037 -0.000789404  0.0186574 -0.170974 -0.000684023  0.0183849 -0.184054 -0.000582695  0.0180392 -0.197236 -0.000484705  0.0176246 -0.210507 -0.00040102  0.0171578 -0.223827 -0.000328541  0.0166359 -0.237184 -0.000257969  0.0160749 -0.250549 -0.000197411  0.01548 -0.263908 -0.000148535  0.0148528 -0.277254 -0.000105858  0.0142059 -0.290568 -7.34329e-05  0.0135393 -0.303845 -3.76701e-05  0.0128658 -0.317077 -2.31266e-05  0.0121884 -0.33026 2.38419e-06  0 0 0  0.00104843 -0.00201339 -0.00215983  0.00353965 -0.00442368 -0.00370216  0.00654805 -0.00759119 -0.00443935  0.00960302 -0.0117226 -0.00468564  0.0125163 -0.0168448 -0.0046525  0.0152287 -0.0229188 -0.0044682  0.017719 -0.0298865 -0.00420928  0.01998 -0.0376632 -0.00391364  0.0220022 -0.046184 -0.00361633  0.0237945 -0.0553797 -0.00331974  0.0253674 -0.0651871 -0.00303006  0.0267234 -0.0755396 -0.00275397  0.0278727 -0.0863896 -0.00249219  0.0288239 -0.0976678 -0.00223804  0.0295863 -0.109333 -0.00200677  0.0301821 -0.121334 -0.00178409  0.0306144 -0.133626 -0.00156879  0.0308981 -0.146166 -0.00137782  0.0310428 -0.158912 -0.00119495  0.0310612 -0.171832 -0.00102496  0.0309627 -0.184895 -0.000864983  0.0307658 -0.19806 -0.0007267  0.0304687 -0.211315 -0.000592947  0.0300946 -0.224615 -0.000476122  0.0296474 -0.237957 -0.000375986  0.029139 -0.251307 -0.000284433  0.0285804 -0.264656 -0.000207901  0.0279832 -0.277987 -0.000149012  0.0273528 -0.291287 -9.44138e-05  0.0267012 -0.304556 -6.29425e-05  0.0260363 -0.317788 -3.00407e-05  0.0253611 -0.330978 4.29153e-06  0 0 0  0.00180127 -0.00321245 -0.00359154  0.00540563 -0.0060156 -0.00545645  0.00949863 -0.00923294 -0.00632  0.013592 -0.0133091 -0.00658512  0.0174893 -0.018361 -0.0064919  0.0211154 -0.0243747 -0.00621033  0.024453 -0.0312887 -0.00584316  0.0274882 -0.0390208 -0.00542974  0.0302387 -0.0475007 -0.00501275  0.0326887 -0.0566521 -0.00459337  0.0348548 -0.0664286 -0.00419617  0.0367545 -0.0767442 -0.00380993  0.0383927 -0.0875506 -0.00344205  0.0397816 -0.0988003 -0.00309348  0.0409402 -0.110432 -0.00276256  0.041882 -0.1224 -0.0024519  0.0426176 -0.134659 -0.00215483  0.043155 -0.14717 -0.00188398  0.0435264 -0.159883 -0.00163174  0.0437303 -0.172774 -0.00138736  0.0437896 -0.185805 -0.00116467  0.043716 -0.198943 -0.000963926  0.0435209 -0.212168 -0.000781775  0.0432189 -0.225445 -0.000620842  0.0428271 -0.238761 -0.000484467  0.0423548 -0.252092 -0.000357866  0.0418079 -0.265418 -0.000257492  0.0412149 -0.278731 -0.000166416  0.04058 -0.292017 -0.000105381  0.0399196 -0.305275 -6.60419e-05  0.0392439 -0.318506 -2.90871e-05  0.0385647 -0.331694 -4.29153e-06  0 0 0  -0.00223535 -0.00211647 0.00549269  -0.00593255 -0.00363825 0.00792813  -0.00977439 -0.0062158 0.00895929  -0.0135901 -0.010028 0.00922108  -0.0173244 -0.0149698 0.00901294  -0.0209461 -0.0208981 0.00856471  -0.024429 -0.0277309 0.00800681  -0.0277554 -0.0353444 0.00741458  -0.0309229 -0.0436919 0.00680137  -0.0339209 -0.0526968 0.00620127  -0.0367377 -0.0622972 0.00562954  -0.0393901 -0.072437 0.00509739  -0.0418726 -0.083084 0.00458407  -0.0441873 -0.0941503 0.00410485  -0.046362 -0.105631 0.0036447  -0.0483805 -0.117446 0.00322962  -0.0502536 -0.129573 0.00283122  -0.052002 -0.14197 0.00244689  -0.0536168 -0.154588 0.00211263  -0.0551116 -0.16739 0.00178957  -0.0565042 -0.180362 0.00149703  -0.0577874 -0.193441 0.00123358  -0.0589719 -0.206622 0.00099659  -0.0600677 -0.219891 0.000772953  -0.0610843 -0.23318 0.000595808  -0.0620289 -0.246504 0.000428915  -0.0629108 -0.259841 0.000289917  -0.0637343 -0.273147 0.000190973  -0.0645256 -0.286444 0.000115633  -0.0652637 -0.29971 5.53131e-05  -0.0659871 -0.312934 1.69277e-05  -0.0666921 -0.32613 -4.76837e-06  0 0 0  -0.00141313 -0.000802495 0.00324035  -0.0039645 -0.00233565 0.0052166  -0.00671044 -0.00503292 0.0060966  -0.00947019 -0.00894125 0.00635076  -0.0122128 -0.0139507 0.00626373  -0.0149099 -0.019965 0.00598955  -0.017537 -0.026874 0.00562263  -0.0200859 -0.0345884 0.00521445  -0.022532 -0.0430387 0.0047946  -0.0248688 -0.0521529 0.00438118  -0.0270969 -0.061865 0.00398493  -0.0292127 -0.0721132 0.00361633  -0.0312167 -0.082859 0.00325775  -0.0331136 -0.0940369 0.0029192  -0.0348949 -0.105606 0.00260329  -0.0365777 -0.11752 0.00230074  -0.038168 -0.12973 0.00201941  -0.0396578 -0.142196 0.00175261  -0.0410638 -0.154888 0.00151229  -0.0423844 -0.167753 0.00129342  -0.0436225 -0.180784 0.0010922  -0.0447884 -0.193914 0.000903845  -0.0458834 -0.207144 0.000739813  -0.0469134 -0.220442 0.000584841  -0.0478806 -0.23377 0.000456333  -0.0488026 -0.247118 0.000340462  -0.0496726 -0.260474 0.000252485  -0.0504975 -0.273809 0.000169992  -0.0512834 -0.287114 0.000106812  -0.0520456 -0.300388 6.50883e-05  -0.0527782 -0.313621 3.00407e-05  -0.0534999 -0.326806 -1.04904e-05  0 0 0  -0.000860944 3.27826e-06 0.0020864  -0.00241828 -0.00141403 0.00317645  -0.00416085 -0.00416443 0.00377798  -0.00595614 -0.00812396 0.00399494  -0.00776565 -0.0131917 0.00397229  -0.00956589 -0.0192667 0.00381374  -0.0113481 -0.0262451 0.00359249  -0.0130968 -0.0340334 0.00333571  -0.0148047 -0.0425704 0.0030725  -0.016466 -0.0517737 0.00281477  -0.01807 -0.0615716 0.00255871  -0.0196189 -0.071917 0.00231719  -0.0211114 -0.0827525 0.00209069  -0.0225472 -0.0940189 0.00187445  -0.023922 -0.105667 0.00166988  -0.0252442 -0.117657 0.00148153  -0.0265024 -0.129941 0.00129604  -0.0277157 -0.142471 0.00114179  -0.0288789 -0.155223 0.000981808  -0.02999 -0.168149 0.000840425  -0.0310524 -0.181225 0.000712156  -0.0320745 -0.194399 0.000593185  -0.0330479 -0.20767 0.000485182  -0.0339825 -0.220994 0.000386238  -0.0348775 -0.234353 0.000304461  -0.0357351 -0.247728 0.000231981  -0.0365634 -0.261106 0.000174522  -0.0373623 -0.274455 0.000121355  -0.0381382 -0.287779 7.98702e-05  -0.0388858 -0.301062 4.91142e-05  -0.0396085 -0.3143 2.43187e-05  -0.0403185 -0.327479 -9.53674e-06  0 0 0  -0.000391431 0.000377566 0.00102878  -0.00110586 -0.00093627 0.00154114  -0.0019235 -0.00368562 0.00180292  -0.00278449 -0.00767764 0.00191951  -0.00367856 -0.0127867 0.00190735  -0.00460464 -0.0189005 0.00183511  -0.00554508 -0.0259322 0.00172758  -0.00649375 -0.0337817 0.00160503  -0.00744855 -0.0423762 0.0014801  -0.00841606 -0.051644 0.00135565  -0.00938809 -0.0615157 0.00123  -0.0103525 -0.0719266 0.00111604  -0.0113139 -0.0828281 0.00100541  -0.0122691 -0.0941656 0.000897408  -0.0132191 -0.105875 0.000802994  -0.0141566 -0.117922 0.000709534  -0.0150833 -0.130261 0.00062418  -0.0159974 -0.142848 0.000541687  -0.0168967 -0.155637 0.000464678  -0.0177829 -0.168611 0.000397205  -0.0186563 -0.18172 0.000339508  -0.0195093 -0.194933 0.000277281  -0.0203512 -0.208232 0.000227928  -0.0211718 -0.22158 0.00018239  -0.0219789 -0.234962 0.000143766  -0.0227697 -0.248357 0.00010705  -0.0235424 -0.261745 7.7486e-05  -0.0243003 -0.27511 5.45979e-05  -0.0250368 -0.288447 3.12328e-05  -0.0257645 -0.301738 1.52588e-05  -0.0264831 -0.314984 1.35899e-05  -0.0271878 -0.328149 -9.53674e-06  0 0 0  4.09633e-05 0.000450552 -1.19209e-05  0.000112146 -0.000843823 -1.35899e-05  0.000179887 -0.00361219 -2.64645e-05  0.00022608 -0.00762048 -4.02927e-05  0.000230074 -0.0127526 -5.36442e-05  0.000186682 -0.0188987 -5.24521e-05  9.04202e-05 -0.025966 -5.91278e-05  -6.25849e-05 -0.0338531 -5.8651e-05  -0.000282168 -0.0424877 -5.4121e-05  -0.000553846 -0.0517997 -5.55515e-05  -0.000879407 -0.0617196 -5.67436e-05  -0.00125694 -0.0721791 -5.76973e-05  -0.00167763 -0.0831225 -5.24521e-05  -0.0021534 -0.0945014 -4.95911e-05  -0.0026648 -0.106257 -5.10216e-05  -0.00320899 -0.118341 -5.126e-05  -0.00378609 -0.130718 -4.79221e-05  -0.00439668 -0.143336 -4.36306e-05  -0.00503206 -0.156163 -3.69549e-05  -0.00568533 -0.169158 -4.02927e-05  -0.00634789 -0.182288 -3.50475e-05  -0.00702834 -0.195528 -3.29018e-05  -0.00772762 -0.20884 -2.24113e-05  -0.00843334 -0.22221 -2.6226e-05  -0.00913787 -0.235605 -2.45571e-05  -0.0098455 -0.249014 -1.83582e-05  -0.0105593 -0.262413 -1.52588e-05  -0.0112643 -0.275781 -1.78814e-05  -0.0119748 -0.289121 -3.57628e-06  -0.0126843 -0.302419 -5.00679e-06  -0.0133834 -0.315667 -1.04904e-05  -0.0140765 -0.328839 4.52995e-06  0 0 0  0.000460893 0.000261366 -0.0010345  0.00131774 -0.00112081 -0.0015738  0.00227317 -0.00392979 -0.00186157  0.00322545 -0.00795311 -0.0019865  0.00413018 -0.0131028 -0.00199676  0.00496209 -0.0192735 -0.00193167  0.00569999 -0.0263501 -0.00183249  0.00633788 -0.03426 -0.00171447  0.00687468 -0.0429144 -0.00158906  0.0072993 -0.0522505 -0.00145793  0.00761342 -0.0621863 -0.00134611  0.00782275 -0.0726734 -0.00122714  0.00793493 -0.0836393 -0.00111079  0.00794852 -0.0950381 -0.0010035  0.00787485 -0.106817 -0.000901461  0.00771523 -0.118928 -0.000802279  0.00748658 -0.131317 -0.000714779  0.0071857 -0.143953 -0.000626087  0.00682306 -0.156799 -0.000547647  0.00641012 -0.169806 -0.000474691  0.00593996 -0.182946 -0.000403643  0.00542641 -0.1962 -0.000341177  0.004879 -0.209522 -0.000289917  0.00430226 -0.222894 -0.000231504  0.00369239 -0.236293 -0.000190258  0.00306487 -0.249704 -0.000147104  0.00241518 -0.263106 -0.000113726  0.00175595 -0.276476 -8.10623e-05  0.00108719 -0.289817 -5.84126e-05  0.000407934 -0.30311 -3.8147e-05  -0.000283241 -0.316357 -1.40667e-05  -0.000970125 -0.329541 9.53674e-06  0 0 0  0.000922427 -0.00022608 -0.00207996  0.00261256 -0.00178057 -0.00318098  0.00447959 -0.0046342 -0.00380158  0.00636095 -0.00867724 -0.00402641  0.00817913 -0.0138339 -0.00402021  0.00989121 -0.0200038 -0.00387311  0.0114735 -0.0270843 -0.00366116  0.0129068 -0.0350007 -0.00342083  0.0141786 -0.0436574 -0.00315428  0.0152922 -0.0529917 -0.00290608  0.0162449 -0.0629328 -0.00265384  0.0170349 -0.0734163 -0.00241613  0.0176727 -0.0843892 -0.00218749  0.0181658 -0.0957859 -0.0019753  0.0185249 -0.107571 -0.0017674  0.018755 -0.119683 -0.00157499  0.0188653 -0.132076 -0.00138903  0.0188689 -0.144706 -0.00121975  0.0187681 -0.157557 -0.00106001  0.0185761 -0.170561 -0.000915051  0.0183084 -0.183697 -0.000781059  0.0179663 -0.196947 -0.000651121  0.017555 -0.210271 -0.00053668  0.0170872 -0.223634 -0.000439405  0.0165765 -0.237029 -0.000345707  0.0160184 -0.250432 -0.000270605  0.0154266 -0.263831 -0.000198364  0.0148094 -0.277194 -0.000144482  0.0141706 -0.29053 -9.87053e-05  0.0135148 -0.30382 -5.76973e-05  0.0128489 -0.317063 -2.90871e-05  0.0121803 -0.330252 2.6226e-06  0 0 0  0.00143093 -0.00111395 -0.0031898  0.00409299 -0.00286907 -0.00514722  0.00697097 -0.0057289 -0.00602055  0.00981438 -0.0097717 -0.00628567  0.0125572 -0.0149216 -0.00620532  0.0151553 -0.0210862 -0.00595593  0.0175778 -0.0281622 -0.00561428  0.0198028 -0.0360582 -0.00522041  0.0218052 -0.0446997 -0.00482416  0.0235955 -0.0540228 -0.0044353  0.0251695 -0.0639465 -0.00405025  0.0265325 -0.0744085 -0.00368309  0.0276906 -0.0853623 -0.00333714  0.0286517 -0.0967448 -0.00299406  0.0294306 -0.108514 -0.00268435  0.0300255 -0.120607 -0.00238371  0.0304582 -0.132981 -0.00209904  0.0307474 -0.145597 -0.00184107  0.0308983 -0.158425 -0.00160146  0.0309231 -0.171419 -0.00137305  0.0308378 -0.184538 -0.00115967  0.0306437 -0.197773 -0.000972033  0.0303588 -0.211079 -0.000793219  0.0299964 -0.22443 -0.000639915  0.0295594 -0.237811 -0.000501871  0.029062 -0.251203 -0.000377893  0.0285187 -0.264582 -0.000283718  0.0279343 -0.277941 -0.000197649  0.0273144 -0.291257 -0.000133038  0.0266674 -0.304539 -8.34465e-05  0.0260012 -0.317775 -4.00543e-05  0.0253272 -0.330971 6.67572e-06  0 0 0  0.00220563 -0.00248545 -0.00532126  0.00600126 -0.00433636 -0.00767446  0.00995451 -0.00715148 -0.00866675  0.0138244 -0.0111698 -0.00892448  0.0175384 -0.0163064 -0.00875068  0.0210518 -0.0224563 -0.00834942  0.024312 -0.0295107 -0.00784421  0.0273081 -0.0373868 -0.00728822  0.030035 -0.0460024 -0.00672674  0.0324796 -0.0553035 -0.00615907  0.0346568 -0.0651823 -0.00563526  0.0365601 -0.0756151 -0.00511003  0.0381993 -0.086529 -0.00462794  0.0395969 -0.097882 -0.00415349  0.0407615 -0.109614 -0.00371385  0.0417061 -0.121676 -0.00329161  0.042448 -0.134021 -0.00288796  0.0429981 -0.146608 -0.00253034  0.0433691 -0.159403 -0.00218368  0.0435815 -0.172374 -0.00185847  0.0436559 -0.18546 -0.00156283  0.0435884 -0.198667 -0.00129128  0.0434029 -0.211943 -0.00104737  0.0431058 -0.225269 -0.000829935  0.0427229 -0.238631 -0.000644207  0.0422671 -0.252002 -0.000470161  0.0417352 -0.265359 -0.000329018  0.0411501 -0.27869 -0.000222445  0.0405231 -0.291998 -0.000123262  0.0398645 -0.305258 -8.46386e-05  0.0391965 -0.318491 -3.88622e-05  0.0385218 -0.331689 -1.43051e-06  
SCALARS smooth_stress float 1
LOOKUP_TABLE default
167.564 349.253 373.786 384.545 378.385 361.346 343.52 327.021 303.883 280.449 259.75 237.823 217.287 199.463 180.835 164.589 145.207 124.44 107.322 92.8473 80.144 69.4016 59.7237 49.9762 42.0994 35.0286 30.0099 23.1371 17.1302 12.6003 8.36471 8.56094 5.47174 263.402 570.164 636.286 660.545 654.197 631.919 600.379 571.306 538.319 500.07 465.053 428.412 389.327 351.991 322.001 292.358 260.035 229.891 198.888 173.595 154.027 134.839 113.579 96.0652 82.6236 72.3762 60.8928 51.0141 42.447 29.9793 23.3117 21.207 10.9634 156.652 357.442 427.659 456.887 459.422 456.11 440.68 421.682 404.641 379.454 358.22 333.794 301.805 275.083 256.26 232.79 209.864 190.994 171.358 154.401 140.081 126.061 106.957 94.3395 85.406 76.1427 62.0624 56.4711 50.2275 37.3827 32.532 26.1213 11.3277 88.0121 201.957 255.035 293.285 307.385 313.076 313.727 307.223 297.356 284.259 272.404 258.906 240.283 224.901 211.856 195.623 180.585 166.831 155.938 143.309 127.949 117.941 106.845 95.6632 86.8551 78.4771 67.6184 58.6542 49.4981 41.8143 34.4449 26.799 12.9275 42.0333 112.345 168.008 211.937 236.407 248.242 256.617 257.575 249.33 243.023 234.862 227.078 216.098 201.482 190.084 178.563 169.11 159.585 150.193 137.07 123.26 114.89 108.766 98.5141 84.3729 77.5817 70.5038 59.0796 52.8732 46.1278 33.1963 23.2574 10.6372 60.806 157.356 219.42 258.38 278.295 289.833 295.455 289.017 277.927 268.81 254.622 240.391 226.872 215.175 203.044 189.498 179.632 165.537 151.209 139.971 128.106 116.549 107.439 97.3383 84.8881 76.6819 65.6568 58.8305 56.2736 45.5975 32.2488 21.7261 8.79672 124.539 299.629 373.515 405.731 415.48 412.43 405.522 388.037 368 351.747 328.24 300.572 278.268 262.792 242.062 219.801 205.633 186.571 166.856 152.599 134.196 121.04 109.734 94.7419 86.6355 76.4711 60.684 58.4362 53.0208 40.5199 33.7152 25.1408 10.1589 210.101 481.356 569.144 599.966 600.105 578.331 549.162 521.773 484.933 456.392 429.733 397.476 362.729 328.375 299.373 268.195 241.781 216.477 191.117 169.4 147.951 127.8 112.351 96.8762 82.9745 66.4894 54.783 54.0962 46.3951 35.2955 31.8446 27.5157 11.3351 131.533 292.164 336.918 353.077 350.289 335.031 312.386 295.003 272.681 254.857 240.739 225.919 205.753 181.622 167.034 149.93 132.22 117.146 101.423 89.3583 80.3506 65.7374 55.034 48.3712 38.8274 28.8004 25.691 25.471 21.362 16.0558 14.0418 14.1673 6.42721 309.438 673.168 754.262 784.526 774.23 741.667 703.641 661.562 613.843 565.606 518.474 471.328 431.533 395.871 356.047 321.196 283.976 244.319 209.59 182.651 157.587 134.255 118.905 99.4521 81.1667 68.8605 56.1743 44.4219 35.1576 30.3927 23.1899 19.6087 11.6714 493.496 1109.58 1287.31 1350.11 1342.31 1293.81 1228.13 1157.5 1077.81 997.86 922.855 847.215 773.643 698.898 629.049 568.438 508.274 445.384 386.702 341.374 298.995 259.046 226.151 193.742 164.372 144.606 118.071 94.5096 78.0462 62.848 50.0203 40.5734 20.2551 297.173 700.882 867.341 938.087 945.92 926.712 892.139 847.659 795.11 744.896 699.245 652.339 598.967 541.079 495.124 452.449 409.691 367.091 330.257 299.254 267.217 239.794 211.999 187.616 166.695 149.358 123.811 104.055 90.1807 71.535 57.788 44.0974 18.246 169.152 407.926 534.132 611.789 634.191 634.661 625.538 604.482 577.521 551.677 523.889 495.78 463.867 430.45 404.958 377.139 348.698 320.307 296.947 272.546 243.678 222.753 204.209 184.009 165.249 149.521 131.646 114.561 98.9345 83.2144 65.5311 49.7472 22.4205 94.0975 259.011 376.739 452.019 490.376 503.099 504.982 498.645 482.797 466.495 449.243 430.618 405.603 379.741 359.467 337.51 320.969 304.611 285.214 260.319 237.258 219.561 204.198 185.994 164.063 150.974 135.196 117.563 103.399 87.1341 67.1481 49.3372 21.8798 126.942 337.961 470.119 543.563 578.509 589.286 583.592 563.743 539.896 518.974 493.325 466.029 438.764 412.057 385.87 358.49 338.398 315.978 290.426 268.646 247.558 226.654 207.351 185.318 165.634 150.202 126.47 113.012 104.164 85.2249 65.2513 45.7459 18.6163 242.356 594.888 761.474 833.557 849.088 835.796 810.499 767.898 722.885 691.044 641.564 588.097 547.254 508.576 466.68 424.092 392.084 357.801 324.647 296.587 261.125 234.701 210.561 180.764 165.151 145.996 117.731 108.655 95.1202 76.0466 65.9726 49.7848 20.0917 399.635 936.59 1144.16 1219 1213.49 1168.71 1110.12 1046.91 966.611 904.974 843.03 778.458 714.07 646.077 588.214 527.91 473.181 420.919 375.622 335.555 291.502 251.933 219.82 186.871 158.839 130.766 109.287 98.8668 80.7842 65.4977 59.4337 51.0244 22.2552 246.161 564.109 675.911 716.276 708.887 679.185 636.118 596.869 547.2 505.443 474.574 445.1 406.987 362.214 330.774 296.731 261.831 228.766 199.99 179.309 158.546 132.076 111.868 96.1151 77.0169 59.9066 52.5615 46.2539 38.0715 31.6766 26.1378 24.2628 11.6581 278.425 634.662 752.192 798.906 789.84 756.339 718.864 672.81 620.063 567.613 520.49 473.979 427.605 390.663 358.445 319.503 276.456 237.618 202.397 179.95 157.839 132.195 116.469 96.3047 77.7073 63.8569 48.1163 39.8056 35.1593 31.8244 29.6896 26.0404 12.3136 449.185 1056.74 1294.08 1385.54 1380 1330.73 1260.98 1174.78 1081.89 992.803 915.773 840.999 762.763 690.107 621.773 559.233 494.873 428.661 374.829 335.552 294.012 252.785 221.44 185.592 155.158 130.269 103.643 86.087 71.881 62.8879 54.137 45.2029 21.5559 275.325 683.419 888.804 977.788 991.637 967.139 916.75 851.801 782.941 730.037 681.062 629.586 585.923 531.045 472.418 434.227 395.518 347.662 313.435 283.697 253.004 228.929 203.222 173.69 150.505 131.272 114.718 95.0649 78.4128 68.9112 52.2527 41.9046 20.2459 169.192 433.162 580.882 654.063 673.643 662.558 632.92 594.554 554.561 526.868 497.439 461.699 436.772 407.527 375.889 350.461 325.093 296.351 271.602 249.752 227.74 207.065 187.979 167.516 147.55 133.633 121.431 103.523 90.1013 79.026 59.6394 44.7327 20.0578 120.413 328.508 451.436 502.38 519.914 518.053 498.083 474.873 453.962 432.429 413.594 393.48 367.135 342.649 327.474 307.843 288.362 274.475 259.816 239.907 219.71 200.775 184.439 166.331 149.666 137.215 119.173 109.079 99.6634 81.4668 63.9572 46.5648 19.2305 146.473 389.544 531.515 593.821 609.941 603.539 576.919 545.216 518.65 492.597 463.523 437.236 409.54 378.468 356.274 329.724 303.745 284.803 266.708 246.273 225.925 207.88 188.91 168.052 153.247 136.543 112.778 104.138 97.3629 77.2392 63.2427 50.7738 21.0946 238.247 599.731 788.148 867.843 875.495 849.341 809.185 764.234 715.5 675.316 624.423 570.531 530.256 489.755 447.695 404.639 369.845 338.234 309.139 282.246 249.8 217.344 189.912 169.176 154.83 137.266 114.092 98.2822 84.4879 65.611 57.4924 51.323 22.326 374.996 906.267 1145.59 1238.09 1237.46 1191 1125.09 1054.87 971.719 898.933 831.537 763.683 699.95 640.888 580.922 520.719 466.256 412.023 371.272 334.271 290.2 248.597 210.119 180.111 154.739 129.731 106.648 90.1758 73.6434 56.5638 50.3144 45.7189 21.1925 227.436 539.395 671.49 724.601 724.161 696.96 653.03 605.707 554.352 505.805 468.704 436.042 398.104 362.877 328.826 293.926 259.786 223.85 199.624 180.049 157.524 137.083 114.406 95.7705 77.9856 60.567 48.4011 41.6916 35.2651 27.9034 23.9416 20.5955 9.78473 268.341 618.864 741.14 789.105 788.607 761.146 723.956 676.313 619.542 566.407 524.365 480.672 430.837 390.129 358.081 319.343 270.573 230.265 197.251 176.674 157.169 132.758 112.275 94.4337 79.9753 61.3858 44.4191 37.3548 33.9284 27.6747 27.4256 25.9648 10.6069 434.222 1036.21 1283.86 1379.38 1382.29 1342.92 1274.38 1180.16 1083.27 992.874 918.6 846.657 761.129 686.427 625.133 558.341 484.411 421.04 368.277 332.444 294.448 252.973 213.606 178.557 154.052 122.488 97.6173 84.5949 73.9362 59.5691 52.9541 47.0249 19.4658 272.404 689.04 906.524 994.534 1004.17 985.619 930.866 851.504 782.337 727.239 676.402 620.986 571.401 523.839 471.63 426.967 385.345 343.286 307.02 280.878 253.919 225.209 192.899 164.155 145.316 123.116 107.989 91.9492 79.2025 69.4183 55.3792 46.4442 21.3784 182.263 466.173 617.761 681.583 691.848 676.747 639.652 591.843 546.907 516.185 485.464 444.307 419.475 396.838 363.573 335.717 311.379 283.263 258.485 239.097 220.547 198.553 178.658 159.554 138.655 122.731 110.229 93.0048 82.416 75.1646 59.9421 49.367 22.8718 148.103 379.403 498.593 538.772 537.948 523.26 497.873 468.928 439.139 414.767 393.955 371.552 347.821 327.112 312.386 292.412 273.188 255.181 241.832 226.432 205.168 187.627 174.232 157.924 138.401 122.198 107.768 98.6615 91.7997 77.8952 60.612 46.3469 19.6525 168.871 432.915 572.81 622.528 621.794 604.948 573.302 538.24 506.363 475.666 444.692 415.781 386.952 359.535 339.055 314.443 290.373 266.439 247.696 231.229 211.001 192.953 174 157.928 144.247 125.531 104.947 94.9958 89.1365 73.1816 60.4943 52.2888 22.8693 243.275 615.757 802.785 880.685 889.647 859.315 814.887 767.678 715.92 664.73 612.285 558.565 516.73 475.982 432.148 391.983 356.729 324.037 296.885 271.817 240.455 206.584 180.936 162.579 146.526 131.367 109.141 88.8432 78.8883 61.3956 50.6709 50.3767 23.7884 368.018 899.936 1142.73 1245.1 1251.88 1206.83 1144.35 1071.73 987.263 902.873 828.884 760.945 697.091 633.521 570.997 513.664 457.997 408.303 368.144 330.392 288.245 245.404 205.595 174.901 152.763 130.718 106.035 88.745 75.322 54.2881 44.2059 44.0948 21.9175 221.25 532.168 668.125 725.492 727.441 702.1 664.108 617.554 566.864 514.455 470.634 435.916 397.857 359.26 324.514 291.462 258.325 226.276 199.613 177.36 157.531 137.705 111.518 91.8479 79.4987 63.4001 49.5112 44.5318 36.9918 25.8195 23.5087 23.6428 11.6983 266.568 619.15 740.035 782.048 785.586 767.172 724.756 672.814 621.711 566.512 519.266 476.828 432.55 391.777 348.881 311.34 271.595 229.626 203.501 178.876 151.338 130.898 110.926 95.1872 82.054 61.612 45.0066 39.41 32.8094 24.4247 23.9678 21.8039 8.92674 432.072 1040.62 1283.4 1369.03 1379.46 1345.25 1278.42 1183.45 1084.98 994.665 916.946 845.557 761.629 684.711 616.773 545.797 478.969 420.322 375.357 333.58 285.725 248.154 212.305 185.854 161.404 124.261 99.0538 83.2978 70.5663 57.3619 51.9918 43.9613 16.8064 274.702 700.61 915.698 995.873 1004.5 981.679 934.121 855.473 778.441 724.091 675.92 623.386 563.519 511.221 469.942 421.438 375.716 341.944 309.651 281.175 249.417 217.827 190.134 173.14 151.967 122.809 106.191 88.396 78.7511 68.8117 57.2527 45.8572 17.8111 189.067 483.289 636.547 693.129 693.786 675.238 642.344 591.036 541.471 509.701 478.198 441.502 411.791 384.611 357.856 332.624 304.202 275.363 253.57 234.769 212.026 190.33 175.4 162.416 140.158 118.722 106.798 93.9592 83.4078 70.579 60.6429 52.3484 22.352 155.674 396.905 518.118 554.295 544.27 519.253 497.094 470.655 435.79 411.657 388.643 362.235 340.767 321.303 303.358 285.462 267.616 245.804 231.845 220.032 199.653 183.754 170.878 155.541 138.551 120.133 106.329 96.9713 85.9874 72.5765 61.8864 54.2058 24.3239 174.951 448.991 591.515 636.775 627.352 599.171 567.455 535.421 500.411 472.391 443.798 408.354 380.416 354.002 328.787 308.129 287.708 264.534 245.882 230.055 208.326 188.554 170.876 155.241 140.431 122.683 104.543 89.5049 84.0727 77.0275 61.6188 50.6289 23.3178 248.141 630.709 818.908 893.959 898.013 863.231 817.658 767.721 718.234 664.699 611.916 560.856 515.871 466.773 422.697 386.433 349.095 319.128 292.5 263.399 229.467 202.003 183.424 160.558 135.99 119.997 104.666 85.0881 77.4128 68.5017 50.0672 46.2091 25.2056 366.779 906.644 1152.93 1255.64 1261.31 1213.99 1152.59 1082.77 1000.88 908.273 831.334 764.605 698.589 624.55 559.271 503.491 447.734 407.118 364.142 320.011 281.092 242.324 205.892 171.05 146.009 123.273 103.138 85.8207 70.7461 55.34 44.0754 47.5187 25.9097 217.785 532.17 671.635 728.393 729.543 702.314 667.182 626.01 573.567 518.07 474.531 436.714 399.72 356.801 317.808 285.367 254.591 230.836 201.455 174.933 157.294 134.879 109.11 90.1347 79.4385 64.3894 51.34 42.7171 33.8323 25.9938 25.1548 26.3814 12.1185 270.949 623.267 741.74 784.573 780.416 760.388 721.532 670.834 621.478 565.768 516.23 471.936 425.338 388.559 349.572 314.985 279.681 234.26 208.459 181.801 151.825 130.683 108.701 92.8131 80.332 64.6338 49.827 41.3084 32.9829 24.52 23.8484 22.2575 9.67694 437.563 1044.83 1285.82 1372.54 1374.47 1338.19 1273.21 1180.82 1083.65 994.401 916.744 842.076 759.004 685.249 614.787 547.938 487.339 424.975 379.115 332.697 283.744 246.515 215.138 187.846 157.052 123.644 101.806 85.6256 69.0701 58.1433 53.2126 47.896 21.6459 276.123 701.693 912.095 991.256 1008.41 982.97 930.12 855.468 779.316 724.976 678.625 631.189 573.917 515.983 465.467 418.522 376.29 340.092 306.904 274.588 242.176 214.736 197.961 181.626 152.001 119.418 104.474 92.7298 78.0716 68.4193 58.4714 48.0627 21.3038 186.592 481.48 631.564 686.273 696.116 676.426 638.596 589.517 544.398 508.166 475.549 448.399 417.33 384.173 356.301 334.231 305.68 275.543 252.719 231.963 209.875 190.589 178.745 166.937 143.463 119.93 108.256 98.6745 86.1176 72.1096 59.868 48.5427 21.7824 148.198 387.595 511.317 547.667 540.392 516.656 492.955 468.872 440.282 412.165 388.58 366.187 343.543 321.249 303.585 289.683 271.138 251.708 235.154 220.438 204.181 188.648 174.77 158.317 141.91 125.768 111.453 99.1667 87.8461 74.8414 63.4681 55.2523 25.4419 169.546 441.6 585.054 633.129 626.683 597.062 567.698 541.326 511.85 480.702 445.084 410.371 383.906 356.183 331.256 310.539 288.143 267.298 248.796 230.013 209.501 190.876 176.012 159.421 142.293 126.19 108.754 94.0159 87.1665 79.2203 66.7033 53.1075 22.6072 249.488 635.16 824.23 893.588 895.256 860.852 815.657 769.41 726.66 673.727 612.523 560.781 516.72 468.037 429.531 392.639 352.58 324.973 295.111 260.751 226.159 200.353 182.955 160.273 135.47 118.234 103.733 88.4761 79.8685 70.0102 52.8866 44.6317 23.0669 370.37 913.049 1157.82 1252.91 1264.61 1217.63 1140.55 1070.07 993.573 906.677 830.248 760.922 692.213 623.231 562.884 510.215 455.574 414.015 371.006 321.555 280.432 240.966 204.054 171.245 146.638 120.734 99.5549 84.0589 69.627 55.5282 44.5906 42.4226 21.4748 219.313 533.242 670.883 727.762 737.399 708.435 659.792 617.145 565.734 513.309 471.668 431.675 392.936 355.009 317.074 287.094 257.046 230.797 206.008 178.65 159.21 134.526 109.563 92.4198 79.7339 62.4451 48.8845 40.6939 33.2121 27.2105 25.7001 21.7645 8.02092 275.331 635.151 750.896 788.603 782.529 753.876 716.122 664.801 612.959 564.124 515.706 471.229 427.636 388.971 353.281 320.092 279.857 235.1 205.321 178.745 152.937 130.788 109.79 95.1137 79.2276 65.0907 52.8385 41.1737 31.7815 28.1397 26.1239 22.1028 10.7653 444.119 1055.75 1291.19 1372.63 1371.61 1325.47 1255.88 1169 1076.17 990.271 913.746 841.638 764.933 689.174 622.352 563.123 496.145 425.516 372.956 330.205 287.148 247.419 217.371 188.116 154.076 126.709 105.901 87.7182 70.5721 60.448 54.3837 47.8055 22.4419 278.471 693.847 893.916 975.509 994.767 968.581 912.052 850.449 787.524 728.551 678.05 633.313 581.91 525.945 475.471 430.994 387.76 344.916 308.258 279.14 251.119 223.772 203.217 179.747 151.806 126.162 110.07 99.6984 81.9812 68.7689 61.1203 48.1187 20.0184 178.592 453.433 596.384 660.78 679.169 663.175 626.787 590.675 556.987 519.612 486.957 459.688 427.69 397.206 368.727 343.232 317.75 290.682 266.122 241.467 222.783 204.878 183.968 168.255 150.643 130.201 113.521 103.745 91.7954 78.1298 66.4299 51.9407 22.7977 130.98 345.224 471.479 522.985 525.657 510.687 489.754 472.446 451.78 422.964 403.888 385.626 361.137 340.159 321.063 304.732 289.292 270.345 250.149 231.525 214.91 197.959 180.314 163.925 151.336 137.726 117.76 102.949 93.4502 78.3881 64.5737 55.0507 25.1684 153.92 407.957 553.869 609.977 612.609 595.853 571.863 549.223 522.147 487.016 452.67 421.887 398.309 372.284 346.168 322.708 299.776 279.883 259.401 238.151 220.302 202.057 184.755 166.899 152.404 138.039 117.345 102.911 90.4491 74.2138 62.393 52.3617 23.0407 241.596 612.983 798.999 873.638 883.739 856.82 815.23 770.901 724.966 674.595 613.491 559.5 521.198 479.349 438.636 398.293 358.311 332.132 303.596 267.831 238.173 212.536 188.436 165.84 144.498 125.288 106.494 94.5778 84.0745 66.325 54.0799 47.3952 22.4885 373.008 907.794 1147.09 1246.85 1257.76 1210.19 1137.6 1059.29 977.271 900.722 825.971 759.472 694.326 631.282 576.259 522.198 461.862 411.861 372.59 328.607 285.837 244.439 205.662 175.125 149.799 123.386 99.0097 83.6358 72.6404 56.3396 46.4072 39.6273 17.7358 223.26 537.733 673.245 729.511 734.455 704.729 658.977 609.596 555.35 507.388 468.209 433.018 393.378 355.521 325.055 297.151 260.312 225.448 203.745 181.19 158.931 133.738 109.999 93.7691 80.055 64.0678 48.6156 39.6106 34.1695 27.5095 23.716 19.0679 7.57551 291.659 660.187 758.832 784.28 777.24 746.608 701.259 656.399 615.178 562.59 507.409 465.19 429.88 392.022 353.625 320.982 286.109 244.686 210.198 181.542 154.373 131.129 112.819 98.8888 80.4014 65.2999 56.6658 43.2887 31.7204 30.7668 26.2735 20.0046 10.2202 466.397 1086.75 1295.1 1354.66 1350.84 1303.9 1223.92 1151.55 1083.17 996.901 908.048 836.471 768.283 693.64 628.328 569.602 504.332 436.353 382.907 337.609 290.361 249.456 218.551 191.571 161.124 132.637 110.751 91.7998 75.3822 66.4897 54.2814 41.863 19.4596 281.915 687.714 873.023 948.115 962.871 939.675 887.595 841.093 795.831 742.628 689.709 640.56 589.182 534.066 488.198 443.539 398.087 356.704 323.899 295.244 263.019 233.388 205.952 179.829 158.388 135.957 115.98 106.983 90.6623 75.5297 63.7439 45.3353 18.3075 163.039 409.054 547.519 623.812 650.562 645.631 622.088 598.35 572.481 541.179 512.48 481.978 448.272 420.476 391.415 362.08 339.388 312.988 287.012 263.493 242.235 221.702 195.565 174.502 159.861 144.305 125.524 114.316 100.094 82.3618 70.8315 55.5502 23.4109 97.6119 273.815 406.956 480.016 505.86 507.413 497.686 488.281 474.095 453.855 435.154 415.048 390.914 371.34 351.163 332.162 315.218 292.34 269.927 250.029 232.081 216.313 195.445 174.196 162.32 149.121 127.628 111.848 100.246 81.2532 67.4083 57.7904 25.1093 127.366 351.828 504.859 577.939 594.387 591.47 577.279 557.567 531.252 505.342 479.455 447.327 424.241 398.092 371.064 348.648 326.085 306.378 284.426 257.798 235.954 218.662 197.611 175.175 159.003 143.134 124.85 110.267 95.475 77.4049 60.6817 48.2534 21.2976 234.376 592.501 776.861 854.037 861.552 841.417 811.5 770.786 726.499 683.069 629.64 574.108 535.223 497.417 453.337 412.039 377.637 349.623 318.439 282.913 253.727 225.866 198.511 176.683 151.298 131.988 117.491 106.904 96.0257 72.8066 57.9306 52.5986 24.7054 383.559 919.964 1144.59 1235.57 1230.7 1182.59 1126.38 1051.17 976.81 906.082 833.346 768.364 703.776 642.783 583.907 528.385 465.886 408.574 370.921 333.259 293.969 252.304 213.661 183.609 152.207 128.831 109.637 92.1167 81.3322 63.4361 56.1724 53.879 24.0626 234.8 553.375 676.392 725.535 718.973 688.472 651.623 602.07 552.109 507.362 471.417 439.233 399.373 360.146 328.392 299.994 258.641 220.939 202.801 182.431 159.321 135.428 112.662 95.261 79.788 66.5417 52.9967 39.4756 33.6284 29.3361 26.6105 23.8167 9.88815 152.498 337.269 379.065 388.381 384.152 371.075 347.126 327.662 311.425 281.674 251.265 229.267 212.51 195.707 175.883 160.982 147.224 126.747 106.957 92.25 78.6962 65.5424 55.7915 49.0058 40.7872 34.5918 31.1148 22.8474 16.9089 16.3651 12.5914 9.32776 4.69802 242.9 554.081 647.125 668.931 664.646 645.432 603.978 571.492 546.532 504.227 454.728 415.811 383.407 348.229 314.398 283.81 254.333 223.361 194.971 171.191 146.636 124.793 108.751 96.0883 83.3387 69.7588 58.7549 48.4128 40.9684 36.3729 26.6442 19.1805 9.05875 142.465 344.011 432.904 465.936 471.053 461.468 437.116 416.318 399.047 377.606 350.729 324.994 300.31 271.672 246.327 222.028 200.555 181.656 165.379 151.553 132.709 116.539 105.28 92.3105 82.7163 71.4635 59.2132 56.0866 48.7444 41.0278 32.2248 21.9378 9.83262 76.1831 192.793 262.129 302.2 318.736 319.418 310.095 300.703 290.931 276.767 262.385 248.667 232.408 217.691 201.919 187.227 177.516 162.873 147.932 137.802 125.837 113.382 102.986 91.1525 82.0224 75.4533 66.2866 60.6752 52.7592 43.3012 35.0156 27.3862 12.3506 38.9104 116.843 184.564 226.875 248.328 254.193 251.949 249.177 245.451 237.209 225.945 214.986 202.744 193.85 184.62 175.167 166.133 153.63 140.125 128.684 121.154 114.77 104.249 92.1207 82.767 75.4054 68.2795 59.1601 51.3168 42.5647 35.023 29.6482 12.7235 56.5753 160.456 236.523 278.206 293.176 294.369 290.178 282 270.227 259.87 247.942 231.64 218.725 205.94 192.973 182.061 172.137 161.336 148.144 133.235 121.355 114.104 102.994 90.3124 80.2062 71.111 64.6982 56.9063 47.7835 40.9538 33.6273 23.9051 9.14062 116.972 295.252 385.78 420.695 422.816 415.558 404.948 384.877 365.266 346.214 317.941 290.094 270.334 251.342 230.606 211.587 196.146 180.369 162.992 145.993 129.829 114.58 101.456 89.9832 76.4914 68.5626 62.1609 56.4942 50.9066 39.3015 32.1059 27.3237 11.4734 196.698 467.478 574.56 612.034 604.044 582.233 556.954 521.161 489.454 456.285 416.933 383.452 351.555 320.517 290.177 265.573 235.006 204.33 186.571 168.471 149.068 127.448 109.106 93.4653 76.9256 68.1691 60.935 50.0589 43.6406 35.2114 31.7609 31.0401 13.537 121.51 281.432 338.024 359.483 354.253 339.158 320.066 297.321 275.956 254.448 236.108 220.231 200.198 179.806 162.03 148.907 128.934 109.498 102.165 92.2206 80.507 68.2964 57.0613 47.5983 39.731 34.4689 29.9064 21.4648 17.2749 16.5802 15.1028 13.2746 5.3595 
CELL_DATA 2048
SCALARS stress float 1
LOOKUP_TABLE default
167.564 181.689 192.096 192.449 185.936 175.41 168.111 158.91 144.973 135.476 124.274 113.549 103.737 95.7254 85.1094 79.48 65.7267 58.7135 48.6085 44.2387 35.9052 33.4963 26.2274 23.7489 18.3505 16.6781 13.3318 9.80539 7.32482 5.27552 3.0892 5.47174 95.8376 125.072 137.428 138.572 137.24 133.333 123.526 120.759 113.677 105.944 99.3589 91.2305 80.8097 71.7187 69.4479 58.3203 56.5082 48.9427 42.6228 38.1247 35.7581 29.6798 24.1758 21.9131 18.6111 18.7365 12.1465 15.7304 9.58634 7.79262 7.15433 5.49169 60.8141 75.7174 89.4415 91.4448 92.1647 93.372 90.4489 86.9487 83.256 76.5766 76.34 66.8643 62.9008 59.6537 55.4395 49.5819 45.4535 40.0899 39.7026 33.9506 32.2477 28.3753 24.7258 23.5247 21.3571 17.438 13.7414 14.8528 10.058 9.94575 7.63925 5.836 27.198 38.228 51.6485 60.7501 63.0249 64.5142 65.3924 64.4328 62.7183 61.7077 57.7799 57.9219 52.5959 49.7507 47.0122 43.5893 41.9605 39.3274 36.8178 32.838 28.9124 28.4055 25.3381 22.0746 19.8986 19.7833 16.6557 13.4044 11.183 10.6276 6.23228 7.09146 14.8354 32.0832 46.0479 53.4903 59.1413 61.5612 65.1489 62.6003 59.5788 59.0185 56.356 55.0203 50.5594 48.576 44.7452 43.2162 40.3436 37.9531 36.0943 31.3201 30.1892 27.3828 27.6391 23.4623 18.9374 18.9624 15.1024 13.9171 14.3688 9.94852 6.38788 3.54573 45.9706 64.4667 76.8226 82.0196 83.6442 85.4859 83.2591 78.0085 77.7398 72.4728 66.7742 62.2408 59.0514 56.9879 52.7348 48.8015 47.2706 39.9694 37.1922 35.3648 31.2314 27.746 24.6712 21.5657 20.9227 17.8594 13.7326 16.0784 11.9093 9.37092 6.5415 5.25099 78.5682 110.624 121.602 125.287 124.529 118.77 118.006 108.764 103.488 98.0464 90.9466 80.6102 76.3661 70.3867 61.9526 56.3124 53.2487 46.0827 43.6115 36.4305 31.1696 30.8929 26.4243 22.0807 22.0665 15.6226 13.4695 15.1558 9.87735 9.36236 8.44043 4.90791 131.533 160.631 176.288 176.789 173.5 161.532 150.854 144.149 128.533 126.325 114.415 111.505 94.2481 87.3743 79.6594 70.2704 61.9499 55.1956 46.2274 43.1309 37.2198 28.5176 26.5164 21.8548 16.9726 11.8278 13.8631 11.6079 9.75409 6.30167 7.74013 6.42721 141.874 182.04 198.436 201.544 194.301 186.021 174.1 160.44 149.52 135.638 123.086 110.419 103.827 92.5816 82.6304 73.9763 64.7931 55.0861 47.1817 42.6221 34.8206 30.0331 29.1487 20.3272 18.7402 15.0917 11.0727 10.2121 7.81528 9.97709 4.84813 6.19965 88.22 127.282 143.269 146.312 145.954 135.612 132.018 119.637 109.891 102.742 96.337 88.9605 81.1095 69.3884 62.4471 57.0271 52.4419 43.1716 42.3755 35.5998 31.9257 27.4277 25.9625 22.2384 20.4423 17.9555 13.0585 9.15214 8.4197 6.65667 5.22672 3.09196 52.3011 75.6373 93.4928 98.1264 96.1062 92.9303 90.899 83.4227 77.5181 75.2914 66.6552 66.5924 60.4992 54.9986 52.0302 48.1551 42.2032 38.2799 35.0723 31.8062 27.804 26.5761 25.0759 19.9995 18.6092 16.2088 14.5259 10.8469 11.5344 7.54154 5.83108 3.82639 28.8393 49.1913 60.7755 66.1092 66.4651 66.0835 61.8973 61.0397 58.1846 56.4246 53.1134 50.5124 45.9804 44.0705 42.0026 39.3281 38.4268 34.5656 33.0917 29.2672 26.8519 23.5805 22.1316 21.1386 18.6468 17.5793 15.7134 14.8204 12.2346 10.0895 7.62407 5.66668 23.2248 45.4112 53.3536 59.8434 61.552 60.7564 59.6284 58.5052 55.7376 53.1254 51.7175 48.1962 44.8166 43.3919 39.9175 37.6985 36.4056 35.6278 31.7358 29.1539 28.7253 25.513 24.2078 20.0015 19.9033 17.2632 14.1365 13.8135 9.65704 9.02509 7.21316 5.57589 42.9109 69.0582 82.8756 89.1103 89.7078 87.4373 80.3145 76.2785 71.4475 69.8533 64.0071 61.7174 57.162 51.5119 48.0051 43.3709 41.2914 37.1162 34.7371 33.0476 28.5252 27.3407 22.8501 20.9206 19.9203 16.4338 12.9798 13.2516 11.1681 9.77716 6.98709 4.24366 74.9061 108.383 127.642 128.198 126.592 119.629 117.596 105.671 101.488 96.5088 82.9547 78.8459 71.2602 65.85 59.2508 53.6637 48.1251 44.6963 41.2412 34.9624 30.3934 27.4018 23.2336 19.0176 18.6572 14.5132 13.1204 10.8673 6.81239 7.76908 7.72409 5.68914 114.628 157.317 181.676 181.523 177.075 167.079 156.653 145.213 129.305 121.28 112.554 106.627 94.6071 85.9841 77.7563 69.0445 60.5665 51.0537 47.5136 42.4374 35.7576 30.5807 26.2528 21.4911 16.6984 14.4078 12.4628 8.32011 8.38941 7.2314 4.86456 5.23092 136.551 174.197 197.519 201.406 192.588 183.429 175.314 162.955 147.148 135.308 126.458 114.016 99.3435 94.9115 88.3211 74.5755 63.1115 54.6269 45.5019 44.6447 35.7514 31.5901 25.6972 21.1316 17.5083 12.5168 9.43516 9.0856 8.04626 5.98576 8.87864 6.11395 82.5397 124.039 147.303 149.753 148.141 144.686 129.803 120.513 111.783 100.774 95.431 86.2915 78.7957 70.1501 61.3423 58.9134 50.0346 45.3948 41.4907 36.1361 32.5114 28.725 22.8555 18.2309 16.5393 11.4754 13.0376 11.0332 8.11671 7.87046 4.69356 6.15029 52.264 81.1363 96.6453 102.886 104.357 99.3529 91.449 84.0587 76.1165 75.9216 67.9102 61.4084 62.2661 53.8372 48.2242 46.0875 40.6551 35.4806 32.1701 29.0459 28.1745 25.7851 20.8138 18.5131 15.9326 14.1089 14.3474 9.0632 10.2465 8.52525 5.9074 7.17722 35.7878 58.0046 65.9985 70.0285 69.5636 67.6991 62.6086 59.1791 55.042 52.3695 49.7527 45.7545 43.7584 42.1164 38.6097 36.0231 34.2139 32.526 30.4155 28.8828 25.9073 22.3854 21.6302 18.2135 16.4967 16.0509 12.896 11.3092 10.0459 8.80823 5.31234 3.38755 32.5612 55.488 63.2136 63.0579 63.2942 62.6395 56.7705 55.2441 51.0299 50.5158 46.5747 47.8581 40.2584 38.2562 39.1095 35.1536 31.1127 31.5967 30.2564 27.1033 23.8179 23.994 20.9964 18.0111 17.2547 14.0198 11.5137 14.8765 12.9062 8.70015 7.18468 4.60041 47.776 73.1138 89.0005 93.3658 90.0092 88.143 81.2295 77.2452 73.1616 67.7256 60.0041 57.1611 52.3707 50.6999 45.3816 41.0875 37.625 34.0275 31.6103 28.629 26.9228 23.0412 20.9668 20.098 17.1377 14.6104 11.8209 11.7456 9.94439 6.06107 8.29431 6.67459 72.6537 110.93 127.146 130.505 128.006 119.817 115.019 110.88 99.3275 95.8035 87.5656 78.2746 73.4643 67.4364 59.5587 54.3205 50.3607 44.9916 40.7186 37.2997 30.0203 23.6983 21.379 20.7102 18.3684 17.625 12.9887 11.5078 9.19077 4.88809 5.99153 5.71863 112.809 154.641 177.856 183.546 182.017 170.789 158.509 145.332 134.502 120.718 114.152 102.709 94.161 88.1249 76.9606 70.1641 60.0105 52.2189 48.8382 41.2596 38.0697 32.6754 24.897 23.1296 16.6666 12.7942 8.73628 12.1724 6.38318 5.89943 5.94625 4.55381 131.79 176.326 193.098 197.082 197.531 187.598 177.615 160.43 149.009 134.942 127.656 112.541 104.936 90.9373 83.9108 72.5359 60.3505 52.1764 44.9456 41.5822 35.1904 30.2262 24.7613 22.8435 18.4919 12.8688 9.59835 9.23573 7.56084 6.08186 6.47933 4.4929 83.3413 127.423 143.957 149.26 146.534 142.41 133.526 120.008 111.422 102.488 95.5422 88.7202 76.4841 70.8682 64.6913 54.0512 50.838 44.5073 39.6335 38.5095 30.1219 28.8567 20.8939 22.1432 17.1636 15.9236 12.7615 10.4077 10.4502 5.457 7.50752 2.70867 54.2586 84.0377 101.983 102.746 100.494 99.6439 89.9943 82.1507 76.2835 72.4505 65.8847 59.7974 57.6377 53.8 48.7166 44.9406 39.8246 36.5507 31.7927 32.0999 27.3197 23.7147 21.254 19.4503 17.3427 14.6296 11.7052 9.59338 10.2916 8.46061 6.95737 5.3422 39.9523 60.7318 69.2237 72.0707 69.7018 65.9346 62.9694 59.4327 54.6435 53.3577 47.8174 45.9814 42.871 40.5511 37.7177 35.3977 34.2368 29.7755 29.7743 24.9156 24.2011 21.0651 22.0096 17.6691 15.0366 13.1328 13.3579 10.7325 11.1337 7.65276 8.31816 6.96479 39.8023 57.0752 68.8575 66.3213 63.9096 60.5173 58.734 53.9902 50.5772 47.2312 46.3359 41.4771 39.8623 39.4382 36.5868 33.8134 33.2371 28.482 29.0059 26.0777 24.2622 21.9945 20.157 19.2373 16.482 13.7247 13.0718 10.9039 9.89179 8.75647 5.87925 4.69977 48.7312 78.3674 87.6939 91.0177 90.818 85.6169 79.651 75.3758 69.7394 65.6851 60.6198 55.7502 52.2136 46.4362 43.1467 40.1642 38.1798 32.1778 30.5389 28.0077 26.1805 22.7395 20.1111 18.3501 17.676 14.6256 11.5598 9.50359 9.3645 7.55705 8.06128 6.89455 74.1142 110.071 126.463 135.493 130.431 126.474 118.937 109.34 100.85 92.4371 82.4438 76.7457 70.7497 62.6111 56.8771 51.4463 43.5447 43.1299 39.6904 35.3226 28.0718 25.9091 23.091 17.8733 16.3123 15.0118 10.8986 8.81816 8.81345 5.57629 4.24125 4.50057 108.442 156.276 179.352 184.739 177.14 172.153 162.657 151.057 135.974 123.261 112.502 106.552 94.4348 82.5392 76.889 67.4482 60.7019 53.3444 45.212 42.0506 36.1506 30.8091 23.1363 20.6849 19.0176 14.9218 13.059 10.5641 7.87216 5.66474 5.99829 7.14445 134.778 176.256 194.355 197.514 193.461 188.583 170.959 163.81 148.462 134.099 122.569 114.061 101.011 94.8916 79.1413 75.752 62.9568 54.1418 52.2371 40.1106 34.4547 31.027 24.9119 22.6705 18.0481 12.2032 10.3363 10.2397 5.77318 5.00886 6.39778 4.43384 82.1626 128.544 143.445 150.316 147.766 141.369 136.36 120.738 111.103 103.14 96.5095 87.9577 75.9174 69.6649 62.6672 53.0471 49.4375 45.9138 41.8019 34.7598 30.9964 27.2808 24.3475 23.2826 16.7602 12.8017 12.5604 8.15809 8.7409 8.28911 6.77035 5.17094 54.939 85.9035 100.404 103.761 103.621 99.8413 90.9763 81.7196 75.0157 72.1883 67.7162 61.2587 55.7457 51.1032 48.4308 44.8933 38.6842 36.1881 33.2629 29.3149 26.2954 23.2411 20.5453 21.2229 14.6013 13.5862 12.2229 10.9868 10.1224 6.99988 6.8109 4.5893 39.9171 63.5486 70.7147 72.2251 69.1662 66.8352 66.1487 57.6443 54.5813 51.1807 47.6025 45.4439 43.0554 39.8473 37.6893 34.8375 31.3874 28.7161 27.5098 26.0991 21.78 22.7131 20.8572 19.4071 15.4276 14.9656 13.1979 12.1626 8.38486 7.53318 7.91005 5.45569 36.0021 59.8761 68.0904 66.7921 64.0833 59.1052 56.8495 54.8862 50.0343 50.0514 45.0662 42.5105 39.5648 36.1125 35.4152 34.0045 30.7013 29.268 29.3135 27.3363 24.9815 22.757 19.3249 16.8783 18.4132 12.9503 11.9283 11.6164 11.1617 8.06203 7.77447 7.20364 50.415 78.7213 92.8327 95.169 89.2409 85.8797 81.1014 74.8326 70.9751 68.0969 60.7119 55.8821 53.1558 47.2189 44.4326 40.5655 37.0427 35.4449 31.6512 28.1238 23.3566 22.2826 21.5089 19.673 13.7206 15.0905 11.592 9.32911 12.3017 9.93219 5.59607 4.51985 74.8806 115.408 129.351 135.939 129.904 124.866 115.132 113.352 103.768 93.1473 88.7746 79.9276 71.4462 62.9417 59.0328 50.7673 47.3846 42.2234 37.6431 32.4215 27.9821 25.4811 22.3011 17.6496 14.735 12.8247 13.063 10.3239 8.95833 5.99811 3.10495 9.29057 109.343 158.109 177.897 186.405 181.258 171.762 160.61 151.687 134.85 123.986 114.782 102.878 95.856 83.9711 74.4088 66.6212 59.8196 56.9697 45.9291 41.7414 37.3513 30.5685 24.596 21.7174 18.0186 12.4315 10.9277 8.16636 7.22973 5.22718 8.26458 4.97407 136.171 176.063 195.067 197.638 191.804 186.54 175.449 160.616 148.59 134.617 124.945 110.36 99.905 92.7513 82.7875 77.3043 63.6676 53.4941 48.5862 40.8668 36.3934 28.8084 23.9537 21.277 18.3365 16.0461 11.2414 9.491 7.47905 6.25893 6.18283 5.2431 84.4514 126.403 145.689 148.513 147.456 141.209 132.746 120.139 110.192 104.197 96.6672 89.0057 80.7854 70.3216 62.5619 54.6772 50.4966 44.8665 38.0734 36.2611 29.9009 27.6538 27.1547 20.248 16.4288 13.0193 13.5981 10.0006 9.1876 7.40566 6.89913 6.79801 54.5699 84.7187 96.9869 102.141 104.84 96.8697 90.7497 82.0401 78.3691 70.7702 67.4357 64.6383 58.6084 53.8359 46.8812 45.363 39.6916 34.8133 31.9839 29.1304 25.5173 23.8508 23.8868 20.9386 18.5187 13.7015 12.9836 12.2193 8.65591 9.01783 6.27856 4.74552 37.1662 60.7168 68.5711 71.4692 68.8932 66.3596 60.8156 59.4231 55.6048 50.4559 48.1998 46.1035 42.4764 39.5008 39.0119 37.1239 33.6995 32.3627 27.882 26.7802 24.9575 22.2335 21.4176 18.662 14.6849 14.4441 13.1544 11.747 11.8387 9.55687 5.76077 6.99194 35.1124 55.256 64.543 65.2613 62.5018 59.7116 57.1298 55.9744 52.134 48.1227 47.9004 43.3599 41.0281 39.6634 36.3441 35.2569 34.1272 31.4455 28.6561 26.8613 25.3852 23.8404 21.6265 20.1436 18.2928 16.5893 14.2236 11.1364 9.79846 8.50563 8.36513 5.79063 48.0168 78.1999 87.5342 92.9063 90.7286 85.8104 82.1105 78.4415 74.5723 66.7153 58.4191 56.5211 51.884 47.5561 44.5132 40.0067 36.438 32.8304 30.1865 27.8845 25.5716 22.7015 21.9704 18.2956 16.876 14.2578 12.1227 12.0673 9.75535 9.70323 8.76458 5.09311 76.1756 113.342 128.841 131.015 130.353 124.069 116.688 107.752 102.966 93.4855 83.1727 77.3722 70.531 63.3033 60.5324 52.7888 47.5866 46.0226 39.1088 33.731 27.0875 25.8895 20.8194 18.0552 16.4647 14.2643 10.5185 9.45966 7.67308 5.68822 4.09921 4.16332 109.971 155.82 179.056 184.403 185.333 170.082 157.339 147.509 131.687 122.786 110.114 103.901 90.3011 84.8804 73.8132 72.2507 58.3548 55.6532 47.4561 43.5236 36.594 30.0121 24.3863 21.7201 18.2778 13.7172 11.8081 9.79176 8.02425 6.72933 5.47899 3.04686 139.16 183.757 196.01 199.888 193.2 182.333 171.8 156.937 146.816 134.101 122.043 113.88 103.49 92.8252 84.9166 75.0834 63.8015 54.1373 49.1038 40.188 35.4889 30.0975 26.93 22.953 16.6612 14.047 11.5041 8.93723 5.87425 8.52746 5.15464 5.52222 84.3364 125.412 142.794 147.036 146.074 136.856 128.952 122.364 110.52 101.237 95.9387 88.7977 78.7086 70.3866 65.8014 59.991 51.1236 43.9293 40.7654 36.3606 31.6884 27.3883 25.3845 20.2155 17.9556 14.2149 12.2304 10.7153 8.88702 6.82804 7.12704 4.87858 55.1133 78.8423 93.07 99.279 99.4288 95.8479 88.8218 84.637 79.2628 74.0015 67.8025 63.0271 58.3387 54.96 50.7228 44.9957 41.4216 38.5738 35.2522 31.3132 30.9475 26.8253 21.0732 20.8452 16.6552 15.668 14.6539 13.2971 9.01838 9.76844 7.79561 3.59627 31.7425 50.5636 62.9141 66.3491 66.7685 64.1674 63.1557 61.0318 56.6179 54.53 53.7612 48.72 45.7774 43.7087 40.1052 39.0286 36.4259 33.6935 31.5602 27.5653 26.5719 23.9746 20.7066 20.7246 19.6141 16.9148 12.0005 13.6891 11.3299 8.9438 9.30802 7.46402 26.959 47.7076 61.2071 62.6703 61.7439 60.5407 57.8733 57.0427 53.9515 51.5471 49.3708 48.2103 45.4617 42.5429 40.1855 37.6758 35.9547 32.6363 31.9127 30.3068 26.4822 24.5142 22.0008 18.6434 20.5709 16.6156 13.8174 13.181 10.7296 7.68514 6.44834 4.92183 43.8314 72.8737 86.5477 89.3074 87.4895 87.3269 81.3601 79.2906 70.74 69.2333 61.3616 56.7441 55.0993 49.0483 46.3142 42.4117 37.9053 38.5455 33.1878 29.1556 28.6547 24.9075 23.194 21.0245 18.5578 16.279 13.44 12.9225 10.8584 7.17792 5.743 7.23509 73.572 106.972 124.689 132.798 129.142 121.9 115.965 109.293 101.909 94.9732 86.1307 79.7783 73.2674 68.6597 58.7086 53.0171 48.1568 44.6463 39.0676 35.5096 30.578 27.1459 21.8083 20.6726 14.5515 14.0375 11.5738 12.4732 8.86492 6.60387 6.29988 5.99697 113.29 158.653 179.716 186.336 178.383 170.931 160.626 144.122 132.031 120.884 114.426 104.577 94.598 85.7415 80.6202 70.4669 59.24 52.2004 48.4354 41.7751 37.0386 30.0935 25.5071 22.1556 17.9015 14.1714 8.91894 9.09183 7.26167 5.49428 6.01343 4.52865 152.498 184.771 194.294 194.087 190.065 181.01 166.116 161.546 149.879 131.795 119.471 109.796 102.714 92.9931 82.8903 78.0916 69.1322 57.615 49.3422 42.9078 35.7884 29.754 26.0375 22.9683 17.819 16.7728 14.342 8.50543 8.40347 7.96167 4.62975 4.69802 90.4021 126.409 141.65 138.899 141.595 132.762 124.091 119.74 115.367 107.186 96.2769 90.2675 80.6296 71.8929 66.6216 56.206 50.9033 45.7105 42.3035 36.6379 31.3015 27.9488 25.0109 22.0716 20.4798 14.6872 12.953 12.6124 11.4471 8.56074 5.49205 4.36074 52.0632 75.1359 89.7084 95.6778 94.8812 92.2302 88.034 84.4536 79.4863 75.5666 71.6993 66.75 62.6626 56.4869 51.3255 47.8747 45.5707 39.4712 37.8934 34.7181 30.0518 27.2366 25.0841 20.1439 20.0209 16.2756 15.2975 15.2238 9.4612 11.5588 6.61317 5.47188 24.1199 41.4736 55.8113 61.0025 67.1749 65.1318 64.6992 63.5165 63.4748 58.2395 56.8796 53.338 49.6578 48.8833 45.223 42.804 41.2667 36.5645 34.0027 31.1883 29.8791 26.2149 24.4499 21.4745 20.3831 18.7738 15.9398 14.2142 13.8601 8.42113 8.42244 6.87875 14.7905 36.4587 50.8204 59.241 60.9094 60.9766 61.141 59.8207 58.6391 56.8554 53.9706 50.7981 48.9502 46.3583 44.1557 42.9845 39.0783 36.7204 32.837 30.6557 29.4313 29.2445 24.3394 21.8568 19.0526 17.196 16.3699 12.6362 10.6063 9.6772 8.50226 5.84473 41.7849 67.4218 81.8217 86.323 86.7027 85.7801 82.2802 78.7581 73.0094 71.3663 65.7499 61.122 57.8549 52.7768 49.6826 45.2384 44.8359 40.7016 37.8845 31.8574 29.4107 26.017 23.3935 20.7227 18.5742 16.2883 14.844 13.0562 11.4847 9.18555 6.26226 3.29589 75.1876 110.858 125.679 126.872 122.919 120.157 116.731 107.108 106.39 95.4473 85.3779 77.8438 73.5136 67.1968 60.9501 55.7157 50.3556 44.4762 39.9298 36.3209 32.2403 26.9116 25.1335 20.7335 16.4611 17.2391 13.7895 14.8045 11.5611 7.07007 9.58802 8.17747 121.51 159.922 178.101 181.382 172.872 166.286 153.78 143.541 132.415 122.033 114.075 106.155 94.0423 85.7641 76.2662 72.6405 56.2939 53.2045 48.9608 43.2597 37.2473 31.0491 26.0122 21.5861 18.1449 16.324 13.5824 7.88244 9.39243 7.18772 7.91509 5.3595 
SCALARS volume float 1
LOOKUP_TABLE default
0.315569 0.316047 0.316162 0.316194 0.316209 0.316231 0.316231 0.316248 0.31626 0.316278 0.316285 0.316302 0.316315 0.316318 0.316324 0.316339 0.316342 0.316349 0.316366 0.316367 0.316371 0.31638 0.316385 0.316385 0.31639 0.316394 0.316404 0.316404 0.316402 0.316402 0.31641 0.316411 0.315916 0.316053 0.316139 0.316187 0.316203 0.316218 0.31623 0.316238 0.316254 0.316272 0.316281 0.316295 0.316307 0.316314 0.316326 0.316332 0.316343 0.316354 0.31636 0.316365 0.316366 0.316375 0.316386 0.31639 0.316394 0.316398 0.316399 0.316401 0.316405 0.316406 0.316411 0.316405 0.316108 0.316186 0.316214 0.316241 0.316251 0.31626 0.316263 0.316274 0.316289 0.316295 0.316308 0.31632 0.316325 0.316332 0.31634 0.316351 0.316352 0.316361 0.316363 0.316374 0.316376 0.316382 0.316389 0.316382 0.316399 0.316397 0.3164 0.3164 0.316402 0.316404 0.316402 0.316405 0.316293 0.316297 0.316302 0.316296 0.316301 0.316306 0.316316 0.316321 0.316329 0.316332 0.316337 0.316343 0.31635 0.316357 0.316363 0.316368 0.316367 0.316372 0.316379 0.31638 0.316389 0.316389 0.316391 0.316394 0.316402 0.316399 0.316404 0.316398 0.3164 0.316405 0.316408 0.316407 0.316465 0.316401 0.316373 0.316368 0.316362 0.316366 0.316362 0.316367 0.31637 0.316366 0.31637 0.316378 0.316382 0.316383 0.316383 0.316387 0.316389 0.316388 0.316394 0.316392 0.316396 0.3164 0.316396 0.316397 0.316398 0.316402 0.3164 0.316405 0.316405 0.316406 0.316403 0.316405 0.316638 0.316495 0.316446 0.316432 0.316416 0.316419 0.316413 0.316414 0.316416 0.316411 0.316408 0.316409 0.31641 0.316405 0.31641 0.316406 0.316415 0.316407 0.316407 0.316409 0.316408 0.316405 0.316405 0.316403 0.316402 0.316402 0.316409 0.316409 0.316403 0.316407 0.316397 0.316404 0.316796 0.316594 0.316508 0.316478 0.316473 0.316467 0.316465 0.316463 0.316458 0.31645 0.316454 0.316444 0.316442 0.316436 0.316436 0.316426 0.316429 0.316424 0.31642 0.316416 0.316418 0.316415 0.316415 0.316407 0.31641 0.316407 0.316406 0.316408 0.316403 0.316407 0.316405 0.3164 0.317055 0.316642 0.316555 0.316531 0.316527 0.316522 0.316514 0.316506 0.316494 0.316484 0.316482 0.316471 0.316465 0.316459 0.316457 0.31645 0.316444 0.316445 0.316437 0.316434 0.31643 0.316426 0.316425 0.316416 0.316419 0.316416 0.316414 0.31641 0.316405 0.316405 0.316405 0.316407 0.315707 0.315944 0.316084 0.316152 0.316188 0.316213 0.316226 0.316247 0.316255 0.316271 0.316279 0.316291 0.316302 0.316311 0.316323 0.316334 0.316344 0.31635 0.316358 0.316367 0.316371 0.316376 0.316378 0.316391 0.316396 0.3164 0.316396 0.316405 0.316411 0.316411 0.316412 0.31641 0.316096 0.316029 0.316114 0.316173 0.316201 0.316229 0.316241 0.316252 0.316265 0.316282 0.316294 0.316301 0.316312 0.316321 0.316336 0.31634 0.31635 0.316355 0.316363 0.316368 0.316372 0.316377 0.316387 0.316389 0.316391 0.3164 0.316396 0.316402 0.316404 0.316409 0.316409 0.316407 0.316197 0.316168 0.316192 0.316221 0.316242 0.316259 0.316274 0.316282 0.316293 0.316301 0.316311 0.316318 0.316328 0.316341 0.316344 0.316352 0.31636 0.316363 0.31637 0.316376 0.316379 0.316381 0.316394 0.316392 0.316391 0.316403 0.3164 0.316398 0.3164 0.316404 0.316407 0.31641 0.316329 0.316285 0.316286 0.316285 0.316299 0.316301 0.316312 0.316319 0.316329 0.316339 0.31634 0.316346 0.316353 0.316354 0.316362 0.316371 0.316372 0.316375 0.316384 0.316381 0.316387 0.316388 0.316395 0.3164 0.316397 0.3164 0.316402 0.316399 0.316402 0.316404 0.316403 0.316402 0.316436 0.316398 0.316372 0.316359 0.316354 0.316352 0.316356 0.316364 0.316365 0.316368 0.316371 0.316377 0.316379 0.316378 0.316383 0.316383 0.316389 0.316387 0.31639 0.316395 0.316399 0.3164 0.316403 0.3164 0.316399 0.316398 0.316403 0.3164 0.316408 0.316409 0.316406 0.316402 0.31655 0.316504 0.316451 0.316428 0.316414 0.316408 0.316404 0.316403 0.316406 0.316404 0.3164 0.316404 0.316405 0.316403 0.316405 0.316404 0.316411 0.316404 0.3164 0.316403 0.316405 0.316407 0.316405 0.316408 0.316408 0.316406 0.316408 0.316405 0.316406 0.316407 0.316402 0.316404 0.316629 0.316612 0.316528 0.316486 0.316469 0.316457 0.316453 0.316444 0.316445 0.316445 0.316443 0.316435 0.316432 0.316428 0.316431 0.316424 0.316425 0.316421 0.316421 0.316415 0.316413 0.316412 0.316413 0.316416 0.316409 0.316409 0.316406 0.316409 0.316408 0.316408 0.316402 0.316404 0.316888 0.316705 0.316608 0.316553 0.316534 0.316521 0.316509 0.3165 0.316488 0.316481 0.316477 0.31647 0.316462 0.316455 0.316453 0.316448 0.316447 0.316441 0.316434 0.316432 0.316429 0.316424 0.316418 0.316418 0.316418 0.31642 0.31641 0.316413 0.316407 0.316409 0.316406 0.316407 0.31563 0.31594 0.316045 0.316122 0.316165 0.316197 0.316216 0.316235 0.316251 0.316263 0.316273 0.316288 0.316303 0.316313 0.316322 0.316332 0.316349 0.316349 0.316361 0.316364 0.316378 0.316381 0.316384 0.31639 0.316395 0.316398 0.316405 0.316409 0.316407 0.316407 0.316408 0.316409 0.316074 0.316025 0.316104 0.316159 0.316194 0.316225 0.31624 0.316252 0.31627 0.316281 0.316295 0.316306 0.316316 0.316327 0.316334 0.316339 0.316353 0.316355 0.316366 0.316367 0.316375 0.316382 0.316385 0.316388 0.31639 0.316397 0.316401 0.316406 0.316408 0.316406 0.316402 0.316408 0.316186 0.316181 0.31619 0.316219 0.316241 0.316256 0.316268 0.316285 0.3163 0.316306 0.316314 0.316324 0.316331 0.316338 0.316347 0.316348 0.316355 0.316365 0.316377 0.316372 0.316379 0.316385 0.31639 0.31639 0.316394 0.316397 0.316395 0.316404 0.316405 0.316406 0.316406 0.316406 0.316318 0.316288 0.31628 0.316283 0.316293 0.316301 0.316307 0.316317 0.31633 0.316336 0.31634 0.316348 0.316356 0.316356 0.316365 0.31637 0.316372 0.316379 0.31638 0.31638 0.31639 0.316394 0.316391 0.316399 0.316402 0.316398 0.316401 0.316404 0.316408 0.316407 0.316404 0.316401 0.316437 0.316391 0.316367 0.316356 0.316355 0.316352 0.316356 0.316358 0.316359 0.316369 0.316372 0.316374 0.316376 0.316378 0.316391 0.316387 0.316387 0.316391 0.31639 0.316396 0.316393 0.316401 0.3164 0.316404 0.316398 0.316399 0.316407 0.316406 0.316403 0.316402 0.316404 0.316403 0.316551 0.316484 0.31645 0.316422 0.31641 0.316404 0.316403 0.316399 0.316396 0.316401 0.316403 0.316401 0.316403 0.316401 0.316406 0.316404 0.3164 0.316401 0.3164 0.316404 0.316407 0.31641 0.316406 0.31641 0.316405 0.316407 0.316406 0.316406 0.316403 0.316403 0.316405 0.316404 0.31664 0.316594 0.316529 0.316492 0.316472 0.316462 0.316449 0.316444 0.31644 0.316441 0.316438 0.316435 0.316436 0.316427 0.31643 0.316423 0.316418 0.316418 0.316419 0.316417 0.316419 0.316415 0.316412 0.316412 0.316407 0.316407 0.316406 0.316409 0.316406 0.316408 0.316405 0.31641 0.316931 0.316662 0.316613 0.316569 0.316543 0.31652 0.316503 0.316497 0.316487 0.316483 0.316475 0.316468 0.316461 0.316453 0.31645 0.316447 0.316441 0.316435 0.316435 0.316436 0.316428 0.316425 0.316419 0.316417 0.316415 0.316415 0.316408 0.316409 0.31641 0.31641 0.316407 0.316402 0.315612 0.315937 0.316045 0.316113 0.316152 0.316186 0.316206 0.316233 0.316251 0.316263 0.316278 0.316293 0.3163 0.316312 0.316327 0.316337 0.316339 0.31635 0.316362 0.316368 0.316372 0.316383 0.316387 0.316387 0.316394 0.316395 0.316404 0.316408 0.316406 0.316407 0.31641 0.316412 0.316076 0.316013 0.316098 0.31615 0.316189 0.316218 0.316241 0.316255 0.316269 0.316282 0.316295 0.316307 0.316316 0.316323 0.316335 0.316342 0.316349 0.316356 0.316364 0.316367 0.316378 0.316383 0.316389 0.316388 0.316393 0.316395 0.316399 0.316405 0.316404 0.316405 0.316406 0.316414 0.316189 0.316176 0.316182 0.316216 0.316239 0.316252 0.316273 0.316288 0.316297 0.316304 0.316319 0.316328 0.31633 0.316338 0.316352 0.316352 0.316357 0.316365 0.316373 0.31638 0.316382 0.316385 0.316394 0.316395 0.316397 0.316396 0.316398 0.316405 0.3164 0.316407 0.316403 0.316403 0.316317 0.316286 0.316278 0.316284 0.316294 0.316302 0.316308 0.316321 0.316326 0.31633 0.316342 0.31635 0.316355 0.316354 0.316359 0.316371 0.316373 0.31638 0.316382 0.316382 0.31639 0.316392 0.316389 0.316395 0.316401 0.316397 0.3164 0.316405 0.316405 0.316408 0.316406 0.316402 0.316434 0.316391 0.316363 0.316353 0.316353 0.316354 0.316354 0.316357 0.316363 0.31637 0.316374 0.316372 0.316379 0.316381 0.316384 0.316386 0.316386 0.316393 0.316392 0.316393 0.316392 0.316403 0.316401 0.316407 0.316402 0.316399 0.316402 0.316406 0.3164 0.316404 0.316404 0.316402 0.316553 0.316487 0.316448 0.31642 0.316411 0.316407 0.3164 0.316397 0.316397 0.316397 0.316402 0.316401 0.316403 0.316404 0.316407 0.316404 0.316404 0.316409 0.316405 0.316401 0.316403 0.316407 0.316403 0.316406 0.316404 0.316404 0.316401 0.316407 0.316404 0.316406 0.316401 0.316399 0.316641 0.3166 0.316522 0.316493 0.316472 0.316461 0.316455 0.316445 0.31644 0.316442 0.316437 0.316437 0.316434 0.31643 0.316429 0.316427 0.316422 0.316421 0.316419 0.316415 0.316415 0.316415 0.316413 0.316413 0.31641 0.316408 0.31641 0.316409 0.316403 0.316407 0.316406 0.316409 0.316929 0.316657 0.316603 0.316565 0.316542 0.316518 0.316504 0.31649 0.316486 0.31648 0.316472 0.316467 0.31646 0.316456 0.31645 0.316449 0.316446 0.316437 0.316431 0.31643 0.316427 0.316425 0.316416 0.316417 0.316413 0.316413 0.316409 0.31641 0.316406 0.316406 0.316403 0.316403 0.315617 0.315945 0.316052 0.316121 0.316158 0.316188 0.316211 0.316238 0.316252 0.316264 0.316278 0.316288 0.316301 0.316314 0.316327 0.316333 0.31634 0.316357 0.316358 0.316367 0.316373 0.316378 0.316387 0.31639 0.316388 0.3164 0.3164 0.316404 0.316409 0.31641 0.316414 0.316409 0.316079 0.316016 0.316099 0.31615 0.316192 0.316223 0.316236 0.316251 0.316271 0.316286 0.316295 0.316305 0.316317 0.316324 0.316333 0.31634 0.316349 0.316357 0.316362 0.316367 0.316376 0.316382 0.316388 0.316391 0.316393 0.316399 0.316403 0.316404 0.316404 0.316406 0.316408 0.31641 0.316188 0.31618 0.316186 0.316211 0.316233 0.316254 0.316272 0.316284 0.316296 0.316307 0.316315 0.316326 0.316331 0.316339 0.316347 0.316354 0.316358 0.316365 0.316372 0.316379 0.316381 0.316384 0.316389 0.316393 0.316396 0.3164 0.316401 0.316403 0.316402 0.316408 0.316405 0.316408 0.316319 0.316286 0.31628 0.316284 0.316293 0.316302 0.316312 0.31632 0.316325 0.316333 0.316341 0.316346 0.316353 0.316356 0.316355 0.316366 0.316371 0.316378 0.316381 0.316379 0.316386 0.316385 0.31639 0.316396 0.316399 0.316398 0.316399 0.316401 0.316402 0.316402 0.316402 0.316408 0.316434 0.31639 0.316368 0.316356 0.31635 0.31635 0.316355 0.316358 0.316362 0.316362 0.316369 0.316374 0.31638 0.316383 0.316382 0.316386 0.316387 0.316389 0.316394 0.316397 0.316397 0.316401 0.316402 0.3164 0.316404 0.316405 0.316404 0.316405 0.316403 0.316401 0.316404 0.316402 0.316551 0.316484 0.316449 0.316426 0.316412 0.316408 0.316404 0.316399 0.316404 0.316399 0.316402 0.316402 0.3164 0.316401 0.316403 0.316401 0.316402 0.316405 0.316407 0.316405 0.316406 0.316406 0.316404 0.316403 0.316404 0.316407 0.316408 0.316412 0.316404 0.316404 0.316404 0.316405 0.316636 0.316598 0.316521 0.316493 0.31647 0.316458 0.316454 0.316445 0.316444 0.316439 0.316434 0.316433 0.316429 0.31643 0.31643 0.316427 0.316422 0.316419 0.316419 0.316418 0.316415 0.316418 0.316415 0.316412 0.316407 0.316405 0.316403 0.31641 0.316407 0.316405 0.3164 0.316404 0.316928 0.316653 0.316593 0.316563 0.316537 0.316518 0.316507 0.316489 0.316486 0.31648 0.316475 0.316467 0.316461 0.316458 0.31645 0.316446 0.316441 0.31644 0.316434 0.316429 0.316424 0.316424 0.316424 0.316421 0.316417 0.316411 0.316408 0.316411 0.316408 0.316407 0.316402 0.316407 0.315635 0.315964 0.316069 0.31613 0.316169 0.3162 0.31622 0.316239 0.316253 0.316264 0.316281 0.316289 0.3163 0.31631 0.316327 0.316335 0.316338 0.316355 0.316359 0.316363 0.316371 0.31638 0.316382 0.31639 0.316395 0.316403 0.316397 0.316406 0.316407 0.31641 0.316411 0.316408 0.316078 0.316029 0.31611 0.316162 0.316194 0.316215 0.316238 0.316253 0.316268 0.316281 0.316296 0.316302 0.316316 0.316328 0.316334 0.316341 0.316348 0.316355 0.316364 0.316367 0.316375 0.316377 0.316389 0.316392 0.316396 0.3164 0.316397 0.316402 0.316405 0.316409 0.316406 0.316405 0.316185 0.316185 0.316192 0.316219 0.316237 0.316251 0.316276 0.31628 0.316291 0.316307 0.316315 0.316323 0.316331 0.316341 0.316349 0.316353 0.316356 0.316362 0.316372 0.316375 0.316379 0.316384 0.31639 0.316391 0.316398 0.316397 0.316399 0.316404 0.316403 0.316408 0.31641 0.316408 0.316317 0.316286 0.316277 0.316283 0.316294 0.316303 0.316313 0.31632 0.316327 0.316335 0.31634 0.316346 0.316357 0.316355 0.316362 0.316368 0.31637 0.316379 0.31638 0.316383 0.316384 0.31639 0.316393 0.316395 0.316398 0.316396 0.316399 0.316398 0.316403 0.316401 0.316399 0.316406 0.316438 0.316388 0.316363 0.316353 0.316348 0.316352 0.316358 0.316362 0.316365 0.316361 0.316369 0.316373 0.31638 0.316377 0.316381 0.316388 0.316388 0.31639 0.316392 0.316391 0.316397 0.316398 0.316396 0.316398 0.316405 0.316404 0.316401 0.316405 0.316405 0.316403 0.316405 0.3164 0.316553 0.31648 0.316446 0.316422 0.31641 0.316408 0.316404 0.316402 0.316405 0.316403 0.316405 0.316401 0.316398 0.3164 0.316405 0.316407 0.316407 0.316401 0.316403 0.3164 0.316409 0.316406 0.316409 0.316402 0.316406 0.316411 0.316406 0.316405 0.316405 0.316405 0.316406 0.316403 0.316637 0.316587 0.316518 0.316487 0.316467 0.31646 0.316451 0.316452 0.316445 0.316437 0.316435 0.316433 0.316431 0.316431 0.316428 0.316425 0.316426 0.316424 0.316417 0.316412 0.316418 0.316421 0.316415 0.316408 0.316411 0.316415 0.316406 0.316406 0.316408 0.316405 0.316403 0.316404 0.316918 0.316644 0.316593 0.316553 0.316533 0.316515 0.316503 0.316495 0.316482 0.316485 0.316474 0.31647 0.316462 0.316456 0.316452 0.31645 0.31644 0.316434 0.316435 0.316432 0.316428 0.316424 0.316423 0.316415 0.316415 0.316415 0.31641 0.316407 0.316403 0.316406 0.316405 0.316406 0.31572 0.315985 0.316108 0.316162 0.316189 0.316215 0.31623 0.316245 0.316254 0.316269 0.316281 0.316293 0.316306 0.316315 0.316325 0.31634 0.316344 0.316346 0.31636 0.316369 0.316376 0.316378 0.316382 0.316389 0.316396 0.316399 0.316397 0.316407 0.316403 0.316409 0.316412 0.316405 0.316101 0.316052 0.31613 0.316173 0.316205 0.316226 0.316245 0.316254 0.31627 0.31628 0.31629 0.316301 0.316317 0.316325 0.316332 0.316343 0.316351 0.316355 0.316368 0.316374 0.316383 0.316379 0.316386 0.316393 0.316395 0.316399 0.3164 0.316406 0.316404 0.316408 0.316407 0.316411 0.316199 0.316187 0.3162 0.316218 0.31624 0.316254 0.316274 0.316285 0.316295 0.316303 0.31631 0.316319 0.316328 0.316341 0.316342 0.316351 0.316362 0.316365 0.316372 0.316373 0.316383 0.316387 0.316388 0.316393 0.316398 0.316397 0.316398 0.316403 0.316406 0.316405 0.316408 0.316408 0.316327 0.316293 0.316286 0.316285 0.316294 0.316301 0.316313 0.316318 0.316324 0.316334 0.316339 0.316345 0.316351 0.316359 0.316362 0.316365 0.316374 0.316376 0.316382 0.316383 0.316385 0.31639 0.31639 0.316398 0.316395 0.316398 0.316401 0.3164 0.316406 0.316408 0.316404 0.316409 0.316432 0.316392 0.316369 0.316355 0.316356 0.316357 0.31636 0.316361 0.316368 0.316366 0.316368 0.316375 0.316379 0.316385 0.316381 0.316387 0.316391 0.316388 0.316393 0.316394 0.316398 0.3164 0.316395 0.316404 0.316402 0.316404 0.316404 0.316407 0.316405 0.316407 0.316404 0.316405 0.316542 0.316485 0.316447 0.316421 0.316412 0.316409 0.3164 0.316401 0.316406 0.316402 0.316409 0.316402 0.316402 0.316408 0.31641 0.316409 0.31641 0.316403 0.316404 0.316405 0.316405 0.316402 0.316408 0.316405 0.316402 0.316403 0.316406 0.316403 0.316405 0.316407 0.316405 0.316405 0.316627 0.31659 0.316511 0.316482 0.316467 0.316462 0.316451 0.31645 0.316443 0.316442 0.316439 0.316435 0.316433 0.316432 0.316428 0.316422 0.316423 0.316419 0.316419 0.316421 0.316414 0.316414 0.316413 0.316413 0.316408 0.316408 0.316405 0.316405 0.316407 0.316407 0.316407 0.316404 0.316879 0.316655 0.316582 0.316546 0.316528 0.316516 0.31651 0.316504 0.316486 0.316481 0.316475 0.316469 0.316461 0.316456 0.31645 0.316448 0.316442 0.316434 0.31644 0.316431 0.316426 0.316428 0.316425 0.316415 0.316416 0.316411 0.316408 0.316413 0.316405 0.316405 0.316409 0.316408 0.315636 0.316064 0.316166 0.316203 0.316216 0.316229 0.316242 0.316255 0.316266 0.316278 0.31629 0.316296 0.316314 0.316326 0.316333 0.31634 0.316345 0.316347 0.316358 0.316369 0.316377 0.316382 0.316385 0.316388 0.316396 0.316399 0.316399 0.316401 0.316399 0.31641 0.316405 0.31641 0.315959 0.316069 0.316151 0.316188 0.316211 0.316226 0.316239 0.316248 0.316258 0.316271 0.316284 0.316295 0.316306 0.316316 0.316335 0.316334 0.316343 0.31635 0.316358 0.316368 0.316378 0.316376 0.316384 0.316387 0.3164 0.316398 0.316401 0.316407 0.316406 0.316402 0.316408 0.316412 0.316133 0.316196 0.316218 0.316238 0.316248 0.31626 0.316276 0.316283 0.316289 0.316302 0.31631 0.316318 0.316327 0.316334 0.316343 0.316349 0.316364 0.316363 0.31637 0.316374 0.31638 0.316381 0.316384 0.316389 0.316393 0.3164 0.316403 0.316401 0.316404 0.316404 0.31641 0.316406 0.316307 0.316305 0.316294 0.3163 0.316308 0.316309 0.316316 0.316317 0.316325 0.316333 0.316338 0.316346 0.316351 0.316355 0.31636 0.316365 0.316371 0.316376 0.316382 0.316375 0.316385 0.316391 0.316392 0.316392 0.316391 0.316397 0.316395 0.316401 0.316405 0.316401 0.316408 0.316406 0.316453 0.316395 0.316373 0.316365 0.316364 0.316358 0.316362 0.316365 0.316367 0.316375 0.316374 0.31638 0.316385 0.316384 0.316385 0.316383 0.316389 0.316392 0.316395 0.316395 0.316395 0.316395 0.316395 0.3164 0.316399 0.316401 0.316397 0.316405 0.3164 0.316407 0.316406 0.316406 0.3166 0.316477 0.316444 0.316426 0.316419 0.316415 0.316411 0.316407 0.316407 0.316407 0.316408 0.316405 0.316406 0.316407 0.316408 0.316404 0.316405 0.316405 0.316404 0.316403 0.316402 0.316409 0.316406 0.316408 0.31641 0.316407 0.316403 0.316404 0.316406 0.316401 0.316402 0.316408 0.316739 0.316572 0.316505 0.316481 0.316475 0.316471 0.316457 0.316453 0.316448 0.316447 0.31644 0.316438 0.316441 0.316432 0.316427 0.316422 0.316422 0.316427 0.316421 0.316421 0.31642 0.316417 0.316409 0.316414 0.316411 0.316404 0.316404 0.316403 0.316406 0.316407 0.316413 0.316408 0.316993 0.316623 0.316549 0.316528 0.316519 0.316516 0.316507 0.316501 0.316493 0.316482 0.316478 0.316471 0.316463 0.316456 0.316453 0.316449 0.316448 0.316437 0.316433 0.316426 0.316428 0.316425 0.316422 0.31642 0.316416 0.316418 0.316409 0.316415 0.31641 0.316409 0.316407 0.316407 
SCALARS volume_diff float 1
LOOKUP_TABLE default
0.313616 0.314094 0.314209 0.314241 0.314256 0.314278 0.314277 0.314295 0.314307 0.314325 0.314332 0.314349 0.314362 0.314365 0.314371 0.314385 0.314389 0.314396 0.314413 0.314414 0.314418 0.314427 0.314432 0.314432 0.314437 0.314441 0.314451 0.314451 0.314448 0.314449 0.314457 0.314458 0.313963 0.3141 0.314186 0.314234 0.31425 0.314265 0.314277 0.314285 0.314301 0.314319 0.314328 0.314342 0.314354 0.314361 0.314372 0.314379 0.31439 0.314401 0.314407 0.314412 0.314413 0.314422 0.314433 0.314436 0.314441 0.314445 0.314446 0.314448 0.314452 0.314453 0.314458 0.314452 0.314154 0.314233 0.31426 0.314288 0.314298 0.314306 0.31431 0.314321 0.314335 0.314342 0.314355 0.314367 0.314372 0.314379 0.314387 0.314398 0.314399 0.314408 0.31441 0.31442 0.314423 0.314429 0.314435 0.314428 0.314446 0.314444 0.314446 0.314447 0.314448 0.314451 0.314448 0.314452 0.31434 0.314344 0.314349 0.314343 0.314348 0.314353 0.314363 0.314368 0.314375 0.314379 0.314384 0.31439 0.314397 0.314404 0.31441 0.314415 0.314414 0.314419 0.314426 0.314427 0.314436 0.314436 0.314438 0.314441 0.314448 0.314446 0.314451 0.314445 0.314447 0.314452 0.314454 0.314454 0.314512 0.314447 0.31442 0.314415 0.314409 0.314413 0.314409 0.314414 0.314417 0.314412 0.314417 0.314425 0.314429 0.314429 0.31443 0.314434 0.314436 0.314435 0.314441 0.314439 0.314443 0.314447 0.314443 0.314444 0.314445 0.314449 0.314447 0.314452 0.314452 0.314453 0.31445 0.314452 0.314685 0.314542 0.314493 0.314479 0.314463 0.314466 0.31446 0.314461 0.314463 0.314457 0.314455 0.314455 0.314457 0.314452 0.314457 0.314453 0.314462 0.314454 0.314454 0.314456 0.314455 0.314452 0.314452 0.31445 0.314449 0.314449 0.314456 0.314455 0.31445 0.314454 0.314444 0.314451 0.314843 0.31464 0.314555 0.314525 0.31452 0.314514 0.314512 0.31451 0.314505 0.314497 0.314501 0.314491 0.314488 0.314483 0.314483 0.314473 0.314475 0.314471 0.314467 0.314462 0.314465 0.314462 0.314462 0.314454 0.314457 0.314454 0.314453 0.314455 0.31445 0.314454 0.314452 0.314447 0.315102 0.314688 0.314602 0.314578 0.314574 0.314569 0.31456 0.314553 0.314541 0.314531 0.314529 0.314518 0.314512 0.314506 0.314504 0.314497 0.314491 0.314492 0.314484 0.31448 0.314477 0.314472 0.314472 0.314463 0.314465 0.314463 0.314461 0.314457 0.314452 0.314452 0.314451 0.314454 0.313754 0.313991 0.314131 0.314199 0.314235 0.31426 0.314273 0.314294 0.314302 0.314317 0.314326 0.314338 0.314349 0.314358 0.314369 0.31438 0.314391 0.314397 0.314405 0.314414 0.314418 0.314423 0.314425 0.314438 0.314443 0.314447 0.314443 0.314452 0.314458 0.314458 0.314459 0.314457 0.314143 0.314076 0.314161 0.31422 0.314248 0.314276 0.314288 0.314298 0.314312 0.314328 0.314341 0.314348 0.314359 0.314368 0.314383 0.314387 0.314397 0.314402 0.31441 0.314415 0.314419 0.314424 0.314434 0.314436 0.314438 0.314447 0.314443 0.314449 0.31445 0.314456 0.314456 0.314454 0.314244 0.314215 0.314239 0.314268 0.314289 0.314306 0.314321 0.314329 0.31434 0.314348 0.314357 0.314365 0.314374 0.314387 0.314391 0.314399 0.314407 0.31441 0.314417 0.314422 0.314426 0.314428 0.314441 0.314439 0.314438 0.31445 0.314447 0.314445 0.314447 0.31445 0.314454 0.314457 0.314376 0.314332 0.314333 0.314332 0.314346 0.314348 0.314359 0.314366 0.314376 0.314386 0.314387 0.314393 0.3144 0.3144 0.314409 0.314418 0.314419 0.314422 0.314431 0.314428 0.314434 0.314435 0.314442 0.314447 0.314444 0.314447 0.314448 0.314446 0.314449 0.314451 0.31445 0.314449 0.314483 0.314445 0.314419 0.314406 0.314401 0.314399 0.314403 0.31441 0.314412 0.314414 0.314418 0.314424 0.314426 0.314425 0.31443 0.31443 0.314436 0.314434 0.314437 0.314441 0.314446 0.314447 0.31445 0.314447 0.314446 0.314445 0.314449 0.314447 0.314455 0.314456 0.314453 0.314449 0.314596 0.314551 0.314498 0.314475 0.314461 0.314454 0.314451 0.31445 0.314453 0.314451 0.314447 0.314451 0.314452 0.31445 0.314451 0.314451 0.314458 0.314451 0.314447 0.31445 0.314452 0.314454 0.314452 0.314454 0.314454 0.314453 0.314455 0.314452 0.314453 0.314454 0.314449 0.314451 0.314676 0.314659 0.314575 0.314533 0.314516 0.314504 0.314499 0.314491 0.314492 0.314492 0.31449 0.314482 0.314479 0.314475 0.314478 0.314471 0.314471 0.314468 0.314468 0.314462 0.31446 0.314458 0.31446 0.314463 0.314456 0.314456 0.314453 0.314455 0.314455 0.314454 0.314449 0.314451 0.314935 0.314752 0.314654 0.3146 0.314581 0.314568 0.314556 0.314547 0.314535 0.314528 0.314524 0.314517 0.314509 0.314502 0.3145 0.314495 0.314494 0.314488 0.314481 0.314479 0.314475 0.314471 0.314465 0.314465 0.314465 0.314466 0.314457 0.31446 0.314454 0.314456 0.314452 0.314454 0.313676 0.313987 0.314092 0.314169 0.314212 0.314244 0.314263 0.314282 0.314298 0.31431 0.31432 0.314335 0.314349 0.31436 0.314369 0.314379 0.314396 0.314396 0.314408 0.314411 0.314425 0.314428 0.314431 0.314437 0.314442 0.314445 0.314451 0.314455 0.314454 0.314454 0.314455 0.314456 0.314121 0.314071 0.314151 0.314206 0.31424 0.314272 0.314287 0.314299 0.314317 0.314328 0.314342 0.314353 0.314362 0.314373 0.314381 0.314386 0.3144 0.314402 0.314412 0.314414 0.314422 0.314429 0.314432 0.314435 0.314437 0.314444 0.314448 0.314453 0.314455 0.314453 0.314448 0.314455 0.314233 0.314228 0.314237 0.314266 0.314288 0.314303 0.314315 0.314332 0.314347 0.314353 0.314361 0.314371 0.314378 0.314385 0.314394 0.314395 0.314402 0.314412 0.314424 0.314419 0.314426 0.314432 0.314437 0.314437 0.314441 0.314444 0.314441 0.314451 0.314452 0.314453 0.314453 0.314453 0.314365 0.314335 0.314327 0.31433 0.314339 0.314348 0.314354 0.314364 0.314377 0.314382 0.314387 0.314394 0.314403 0.314403 0.314411 0.314417 0.314419 0.314426 0.314427 0.314427 0.314437 0.314441 0.314438 0.314446 0.314449 0.314445 0.314448 0.314451 0.314455 0.314454 0.31445 0.314448 0.314483 0.314438 0.314414 0.314403 0.314402 0.314399 0.314403 0.314405 0.314406 0.314415 0.314418 0.314421 0.314423 0.314425 0.314437 0.314434 0.314434 0.314438 0.314437 0.314443 0.31444 0.314447 0.314447 0.314451 0.314445 0.314445 0.314454 0.314452 0.31445 0.314449 0.314451 0.314449 0.314597 0.314531 0.314497 0.314469 0.314457 0.314451 0.31445 0.314446 0.314443 0.314447 0.31445 0.314448 0.314449 0.314447 0.314453 0.314451 0.314447 0.314447 0.314447 0.314451 0.314454 0.314457 0.314453 0.314457 0.314451 0.314454 0.314452 0.314453 0.31445 0.31445 0.314451 0.314451 0.314687 0.314641 0.314576 0.314538 0.314519 0.314509 0.314496 0.314491 0.314487 0.314487 0.314485 0.314482 0.314483 0.314474 0.314476 0.31447 0.314465 0.314464 0.314466 0.314463 0.314466 0.314461 0.314458 0.314459 0.314454 0.314454 0.314453 0.314456 0.314453 0.314455 0.314452 0.314457 0.314978 0.314709 0.31466 0.314616 0.314589 0.314567 0.31455 0.314544 0.314534 0.31453 0.314522 0.314515 0.314507 0.3145 0.314497 0.314494 0.314488 0.314482 0.314482 0.314483 0.314475 0.314472 0.314465 0.314464 0.314462 0.314462 0.314454 0.314456 0.314457 0.314457 0.314454 0.314449 0.313659 0.313984 0.314092 0.314159 0.314199 0.314233 0.314253 0.314279 0.314298 0.31431 0.314325 0.31434 0.314347 0.314359 0.314374 0.314384 0.314386 0.314396 0.314409 0.314414 0.314419 0.31443 0.314434 0.314433 0.314441 0.314442 0.314451 0.314454 0.314453 0.314454 0.314457 0.314459 0.314123 0.31406 0.314145 0.314197 0.314236 0.314265 0.314288 0.314302 0.314316 0.314329 0.314342 0.314354 0.314363 0.31437 0.314382 0.314389 0.314396 0.314403 0.314411 0.314414 0.314424 0.31443 0.314436 0.314435 0.314439 0.314442 0.314446 0.314452 0.314451 0.314452 0.314453 0.31446 0.314235 0.314222 0.314229 0.314263 0.314285 0.314299 0.31432 0.314335 0.314344 0.314351 0.314366 0.314375 0.314377 0.314385 0.314399 0.314399 0.314404 0.314412 0.31442 0.314427 0.314429 0.314431 0.31444 0.314442 0.314444 0.314443 0.314445 0.314452 0.314447 0.314454 0.31445 0.31445 0.314364 0.314332 0.314325 0.314331 0.314341 0.314349 0.314355 0.314367 0.314372 0.314377 0.314389 0.314397 0.314402 0.314401 0.314405 0.314418 0.31442 0.314426 0.314429 0.314428 0.314437 0.314439 0.314436 0.314442 0.314448 0.314444 0.314447 0.314452 0.314452 0.314455 0.314453 0.314449 0.314481 0.314437 0.31441 0.3144 0.3144 0.314401 0.314401 0.314404 0.31441 0.314417 0.314421 0.314419 0.314426 0.314428 0.314431 0.314433 0.314433 0.31444 0.314439 0.31444 0.314438 0.31445 0.314448 0.314454 0.314449 0.314446 0.314449 0.314453 0.314447 0.31445 0.31445 0.314448 0.3146 0.314534 0.314495 0.314467 0.314458 0.314454 0.314447 0.314444 0.314444 0.314443 0.314449 0.314448 0.314449 0.314451 0.314454 0.314451 0.314451 0.314456 0.314452 0.314448 0.31445 0.314453 0.31445 0.314453 0.31445 0.314451 0.314448 0.314454 0.314451 0.314453 0.314448 0.314446 0.314688 0.314647 0.314569 0.314539 0.314519 0.314508 0.314502 0.314492 0.314487 0.314489 0.314484 0.314484 0.31448 0.314476 0.314476 0.314474 0.314469 0.314468 0.314466 0.314462 0.314462 0.314462 0.31446 0.31446 0.314457 0.314455 0.314457 0.314456 0.314449 0.314454 0.314453 0.314456 0.314976 0.314704 0.31465 0.314612 0.314589 0.314565 0.314551 0.314537 0.314533 0.314527 0.314519 0.314514 0.314507 0.314503 0.314497 0.314496 0.314493 0.314484 0.314477 0.314477 0.314474 0.314472 0.314463 0.314464 0.31446 0.31446 0.314456 0.314457 0.314453 0.314453 0.31445 0.31445 0.313664 0.313992 0.314099 0.314168 0.314205 0.314235 0.314258 0.314285 0.314299 0.314311 0.314325 0.314335 0.314348 0.314361 0.314374 0.31438 0.314387 0.314404 0.314405 0.314413 0.31442 0.314425 0.314433 0.314436 0.314435 0.314447 0.314447 0.314451 0.314456 0.314457 0.314461 0.314456 0.314125 0.314063 0.314146 0.314197 0.314239 0.31427 0.314283 0.314298 0.314318 0.314333 0.314342 0.314352 0.314364 0.314371 0.31438 0.314387 0.314396 0.314404 0.314408 0.314414 0.314423 0.314429 0.314435 0.314438 0.31444 0.314446 0.31445 0.314451 0.314451 0.314453 0.314455 0.314456 0.314234 0.314227 0.314233 0.314257 0.314279 0.314301 0.314319 0.31433 0.314343 0.314354 0.314362 0.314372 0.314378 0.314386 0.314394 0.314401 0.314405 0.314411 0.314419 0.314426 0.314428 0.314431 0.314436 0.31444 0.314442 0.314447 0.314448 0.31445 0.314449 0.314454 0.314452 0.314454 0.314365 0.314333 0.314327 0.314331 0.31434 0.314348 0.314359 0.314367 0.314372 0.314379 0.314388 0.314393 0.3144 0.314403 0.314402 0.314413 0.314418 0.314425 0.314428 0.314426 0.314433 0.314432 0.314437 0.314442 0.314446 0.314445 0.314446 0.314447 0.314449 0.314449 0.314449 0.314455 0.314481 0.314437 0.314415 0.314403 0.314397 0.314397 0.314402 0.314405 0.314409 0.314409 0.314416 0.314421 0.314426 0.31443 0.314428 0.314433 0.314434 0.314436 0.314441 0.314444 0.314444 0.314448 0.314449 0.314447 0.314451 0.314452 0.314451 0.314452 0.31445 0.314448 0.314451 0.314449 0.314598 0.314531 0.314496 0.314473 0.314459 0.314455 0.314451 0.314446 0.314451 0.314446 0.314448 0.314449 0.314447 0.314448 0.31445 0.314447 0.314449 0.314452 0.314454 0.314452 0.314453 0.314453 0.31445 0.31445 0.314451 0.314453 0.314455 0.314459 0.314451 0.314451 0.31445 0.314452 0.314683 0.314645 0.314568 0.31454 0.314517 0.314505 0.314501 0.314492 0.314491 0.314486 0.314481 0.31448 0.314476 0.314477 0.314477 0.314473 0.314468 0.314466 0.314466 0.314465 0.314462 0.314465 0.314462 0.314459 0.314454 0.314452 0.31445 0.314457 0.314454 0.314452 0.314447 0.31445 0.314975 0.3147 0.31464 0.31461 0.314584 0.314565 0.314554 0.314536 0.314533 0.314526 0.314521 0.314514 0.314508 0.314505 0.314497 0.314493 0.314488 0.314487 0.314481 0.314475 0.314471 0.314471 0.314471 0.314468 0.314464 0.314458 0.314455 0.314458 0.314455 0.314454 0.314449 0.314454 0.313682 0.31401 0.314116 0.314177 0.314216 0.314247 0.314267 0.314286 0.314299 0.314311 0.314328 0.314336 0.314347 0.314357 0.314374 0.314382 0.314385 0.314402 0.314406 0.31441 0.314418 0.314427 0.314429 0.314437 0.314442 0.31445 0.314444 0.314453 0.314454 0.314457 0.314458 0.314455 0.314125 0.314075 0.314157 0.314209 0.31424 0.314262 0.314285 0.3143 0.314315 0.314328 0.314343 0.314349 0.314363 0.314375 0.314381 0.314388 0.314395 0.314402 0.314411 0.314413 0.314421 0.314423 0.314436 0.314439 0.314443 0.314447 0.314444 0.314449 0.314452 0.314456 0.314453 0.314452 0.314232 0.314232 0.314239 0.314265 0.314284 0.314298 0.314323 0.314327 0.314338 0.314354 0.314362 0.31437 0.314377 0.314388 0.314396 0.3144 0.314403 0.314409 0.314419 0.314422 0.314425 0.314431 0.314437 0.314438 0.314445 0.314444 0.314446 0.314451 0.31445 0.314454 0.314456 0.314455 0.314364 0.314333 0.314324 0.31433 0.314341 0.31435 0.31436 0.314367 0.314373 0.314382 0.314387 0.314393 0.314403 0.314402 0.314409 0.314414 0.314417 0.314426 0.314427 0.31443 0.31443 0.314437 0.31444 0.314442 0.314445 0.314443 0.314446 0.314445 0.31445 0.314448 0.314446 0.314453 0.314484 0.314435 0.31441 0.3144 0.314395 0.314399 0.314404 0.314409 0.314411 0.314408 0.314416 0.31442 0.314427 0.314424 0.314427 0.314435 0.314435 0.314437 0.314438 0.314438 0.314444 0.314445 0.314443 0.314445 0.314451 0.314451 0.314447 0.314452 0.314452 0.31445 0.314452 0.314447 0.3146 0.314527 0.314493 0.314469 0.314457 0.314455 0.314451 0.314449 0.314452 0.31445 0.314452 0.314448 0.314445 0.314447 0.314452 0.314454 0.314454 0.314448 0.31445 0.314447 0.314456 0.314453 0.314455 0.314449 0.314453 0.314458 0.314453 0.314452 0.314452 0.314452 0.314453 0.31445 0.314684 0.314633 0.314565 0.314534 0.314514 0.314507 0.314498 0.314499 0.314492 0.314484 0.314482 0.31448 0.314478 0.314478 0.314475 0.314472 0.314473 0.314471 0.314464 0.314459 0.314465 0.314468 0.314462 0.314454 0.314458 0.314461 0.314453 0.314453 0.314455 0.314452 0.31445 0.314451 0.314965 0.314691 0.31464 0.3146 0.31458 0.314562 0.31455 0.314542 0.314529 0.314531 0.314521 0.314517 0.314509 0.314502 0.314499 0.314497 0.314487 0.314481 0.314481 0.314479 0.314474 0.31447 0.31447 0.314462 0.314462 0.314461 0.314457 0.314454 0.31445 0.314453 0.314452 0.314453 0.313766 0.314032 0.314154 0.314209 0.314236 0.314261 0.314277 0.314292 0.314301 0.314316 0.314328 0.31434 0.314353 0.314362 0.314372 0.314387 0.314391 0.314393 0.314407 0.314416 0.314423 0.314425 0.314429 0.314436 0.314443 0.314446 0.314444 0.314454 0.31445 0.314455 0.314459 0.314452 0.314148 0.314099 0.314177 0.31422 0.314252 0.314272 0.314292 0.314301 0.314317 0.314327 0.314337 0.314348 0.314364 0.314372 0.314379 0.31439 0.314398 0.314402 0.314415 0.314421 0.314429 0.314426 0.314433 0.31444 0.314442 0.314446 0.314447 0.314453 0.314451 0.314454 0.314454 0.314458 0.314246 0.314234 0.314247 0.314265 0.314287 0.314301 0.314321 0.314332 0.314342 0.31435 0.314357 0.314366 0.314375 0.314388 0.314389 0.314398 0.314409 0.314412 0.314419 0.31442 0.31443 0.314434 0.314435 0.31444 0.314444 0.314444 0.314445 0.31445 0.314453 0.314452 0.314455 0.314455 0.314374 0.31434 0.314333 0.314332 0.314341 0.314348 0.31436 0.314365 0.314371 0.31438 0.314386 0.314392 0.314398 0.314406 0.314408 0.314411 0.314421 0.314423 0.314429 0.31443 0.314432 0.314437 0.314436 0.314445 0.314442 0.314445 0.314448 0.314447 0.314453 0.314455 0.314451 0.314456 0.314479 0.314439 0.314416 0.314402 0.314403 0.314404 0.314407 0.314408 0.314415 0.314413 0.314415 0.314422 0.314425 0.314432 0.314428 0.314434 0.314438 0.314435 0.31444 0.314441 0.314445 0.314446 0.314442 0.314451 0.314449 0.314451 0.314451 0.314454 0.314452 0.314453 0.314451 0.314452 0.314588 0.314531 0.314494 0.314468 0.314459 0.314456 0.314447 0.314448 0.314453 0.314449 0.314455 0.314449 0.314449 0.314455 0.314457 0.314456 0.314457 0.31445 0.314451 0.314452 0.314452 0.314449 0.314455 0.314452 0.314449 0.31445 0.314452 0.31445 0.314452 0.314454 0.314451 0.314452 0.314674 0.314637 0.314558 0.314529 0.314514 0.314509 0.314498 0.314497 0.31449 0.314489 0.314486 0.314481 0.31448 0.314478 0.314475 0.314469 0.31447 0.314466 0.314466 0.314468 0.314461 0.31446 0.31446 0.31446 0.314455 0.314455 0.314452 0.314452 0.314454 0.314454 0.314454 0.314451 0.314926 0.314702 0.314628 0.314593 0.314575 0.314563 0.314557 0.314551 0.314532 0.314528 0.314522 0.314516 0.314508 0.314503 0.314497 0.314495 0.314489 0.314481 0.314487 0.314478 0.314473 0.314475 0.314472 0.314462 0.314463 0.314458 0.314455 0.31446 0.314452 0.314452 0.314456 0.314455 0.313683 0.314111 0.314213 0.31425 0.314263 0.314276 0.314289 0.314302 0.314313 0.314325 0.314337 0.314343 0.314361 0.314373 0.31438 0.314387 0.314392 0.314394 0.314405 0.314416 0.314424 0.314429 0.314431 0.314435 0.314442 0.314446 0.314446 0.314448 0.314446 0.314457 0.314452 0.314457 0.314006 0.314116 0.314198 0.314235 0.314258 0.314273 0.314286 0.314295 0.314305 0.314318 0.314331 0.314342 0.314352 0.314362 0.314381 0.314381 0.31439 0.314397 0.314405 0.314415 0.314425 0.314423 0.314431 0.314434 0.314447 0.314445 0.314448 0.314454 0.314453 0.314449 0.314454 0.314459 0.31418 0.314243 0.314265 0.314285 0.314295 0.314307 0.314323 0.31433 0.314336 0.314349 0.314357 0.314365 0.314374 0.31438 0.314389 0.314396 0.314411 0.31441 0.314417 0.314421 0.314427 0.314428 0.314431 0.314436 0.314439 0.314447 0.31445 0.314448 0.314451 0.314451 0.314457 0.314453 0.314354 0.314351 0.314341 0.314347 0.314355 0.314356 0.314363 0.314364 0.314372 0.314379 0.314385 0.314393 0.314398 0.314402 0.314407 0.314411 0.314418 0.314423 0.314429 0.314422 0.314432 0.314438 0.314439 0.314439 0.314438 0.314444 0.314442 0.314448 0.314452 0.314448 0.314455 0.314453 0.3145 0.314442 0.31442 0.314412 0.314411 0.314405 0.314409 0.314412 0.314414 0.314422 0.314421 0.314427 0.314432 0.314431 0.314432 0.31443 0.314435 0.314439 0.314442 0.314442 0.314442 0.314442 0.314442 0.314447 0.314445 0.314448 0.314444 0.314452 0.314447 0.314454 0.314453 0.314453 0.314647 0.314524 0.31449 0.314473 0.314466 0.314462 0.314458 0.314454 0.314454 0.314454 0.314455 0.314452 0.314453 0.314454 0.314455 0.314451 0.314451 0.314452 0.314451 0.31445 0.314449 0.314456 0.314453 0.314455 0.314457 0.314454 0.31445 0.314451 0.314453 0.314448 0.314449 0.314455 0.314786 0.314619 0.314552 0.314528 0.314522 0.314518 0.314503 0.3145 0.314495 0.314494 0.314487 0.314485 0.314488 0.314479 0.314474 0.314469 0.314469 0.314474 0.314468 0.314468 0.314467 0.314464 0.314456 0.314461 0.314458 0.314451 0.314451 0.31445 0.314453 0.314454 0.31446 0.314455 0.31504 0.31467 0.314596 0.314575 0.314566 0.314563 0.314554 0.314548 0.31454 0.314529 0.314525 0.314518 0.31451 0.314503 0.314499 0.314496 0.314494 0.314484 0.31448 0.314473 0.314475 0.314472 0.314469 0.314467 0.314462 0.314464 0.314455 0.314461 0.314457 0.314456 0.314454 0.314454 
