# vtk DataFile Version 5.1
vtk output
ASCII

DATASET UNSTRUCTURED_GRID
POINTS 2673 float
0 0 2.3
0.125 0 2.3
0.25 0 2.3
0.375 0 2.3
0.5 0 2.3
0.625 0 2.3
0.75 0 2.3
0.875 0 2.3
1 0 2.3
1.125 0 2.3
1.25 0 2.3
1.375 0 2.3
1.5 0 2.3
1.625 0 2.3
1.75 0 2.3
1.875 0 2.3
2 0 2.3
2.125 0 2.3
2.25 0 2.3
2.375 0 2.3
2.5 0 2.3
2.625 0 2.3
2.75 0 2.3
2.875 0 2.3
3 0 2.3
3.125 0 2.3
3.25 0 2.3
3.375 0 2.3
3.5 0 2.3
3.625 0 2.3
3.75 0 2.3
3.875 0 2.3
4 0 2.3
0 0.125 2.3
0.125 0.125 2.3
0.25 0.125 2.3
0.375 0.125 2.3
0.5 0.125 2.3
0.625 0.125 2.3
0.75 0.125 2.3
0.875 0.125 2.3
1 0.125 2.3
1.125 0.125 2.3
1.25 0.125 2.3
1.375 0.125 2.3
1.5 0.125 2.3
1.625 0.125 2.3
1.75 0.125 2.3
1.875 0.125 2.3
2 0.125 2.3
2.125 0.125 2.3
2.25 0.125 2.3
2.375 0.125 2.3
2.5 0.125 2.3
2.625 0.125 2.3
2.75 0.125 2.3
2.875 0.125 2.3
3 0.125 2.3
3.125 0.125 2.3
3.25 0.125 2.3
3.375 0.125 2.3
3.5 0.125 2.3
3.625 0.125 2.3
3.75 0.125 2.3
3.875 0.125 2.3
4 0.125 2.3
0 0.25 2.3
0.125 0.25 2.3
0.25 0.25 2.3
0.375 0.25 2.3
0.5 0.25 2.3
0.625 0.25 2.3
0.75 0.25 2.3
0.875 0.25 2.3
1 0.25 2.3
1.125 0.25 2.3
1.25 0.25 2.3
1.375 0.25 2.3
1.5 0.25 2.3
1.625 0.25 2.3
1.75 0.25 2.3
1.875 0.25 2.3
2 0.25 2.3
2.125 0.25 2.3
2.25 0.25 2.3
2.375 0.25 2.3
2.5 0.25 2.3
2.625 0.25 2.3
2.75 0.25 2.3
2.875 0.25 2.3
3 0.25 2.3
3.125 0.25 2.3
3.25 0.25 2.3
3.375 0.25 2.3
3.5 0.25 2.3
3.625 0.25 2.3
3.75 0.25 2.3
3.875 0.25 2.3
4 0.25 2.3
0 0.375 2.3
0.125 0.375 2.3
0.25 0.375 2.3
0.375 0.375 2.3
0.5 0.375 2.3
0.625 0.375 2.3
0.75 0.375 2.3
0.875 0.375 2.3
1 0.375 2.3
1.125 0.375 2.3
1.25 0.375 2.3
1.375 0.375 2.3
1.5 0.375 2.3
1.625 0.375 2.3
1.75 0.375 2.3
1.875 0.375 2.3
2 0.375 2.3
2.125 0.375 2.3
2.25 0.375 2.3
2.375 0.375 2.3
2.5 0.375 2.3
2.625 0.375 2.3
2.75 0.375 2.3
2.875 0.375 2.3
3 0.375 2.3
3.125 0.375 2.3
3.25 0.375 2.3
3.375 0.375 2.3
3.5 0.375 2.3
3.625 0.375 2.3
3.75 0.375 2.3
3.875 0.375 2.3
4 0.375 2.3
0 0.5 2.3
0.125 0.5 2.3
0.25 0.5 2.3
0.375 0.5 2.3
0.5 0.5 2.3
0.625 0.5 2.3
0.75 0.5 2.3
0.875 0.5 2.3
1 0.5 2.3
1.125 0.5 2.3
1.25 0.5 2.3
1.375 0.5 2.3
1.5 0.5 2.3
1.625 0.5 2.3
1.75 0.5 2.3
1.875 0.5 2.3
2 0.5 2.3
2.125 0.5 2.3
2.25 0.5 2.3
2.375 0.5 2.3
2.5 0.5 2.3
2.625 0.5 2.3
2.75 0.5 2.3
2.875 0.5 2.3
3 0.5 2.3
3.125 0.5 2.3
3.25 0.5 2.3
3.375 0.5 2.3
3.5 0.5 2.3
3.625 0.5 2.3
3.75 0.5 2.3
3.875 0.5 2.3
4 0.5 2.3
0 0.625 2.3
0.125 0.625 2.3
0.25 0.625 2.3
0.375 0.625 2.3
0.5 0.625 2.3
0.625 0.625 2.3
0.75 0.625 2.3
0.875 0.625 2.3
1 0.625 2.3
1.125 0.625 2.3
1.25 0.625 2.3
1.375 0.625 2.3
1.5 0.625 2.3
1.625 0.625 2.3
1.75 0.625 2.3
1.875 0.625 2.3
2 0.625 2.3
2.125 0.625 2.3
2.25 0.625 2.3
2.375 0.625 2.3
2.5 0.625 2.3
2.625 0.625 2.3
2.75 0.625 2.3
2.875 0.625 2.3
3 0.625 2.3
3.125 0.625 2.3
3.25 0.625 2.3
3.375 0.625 2.3
3.5 0.625 2.3
3.625 0.625 2.3
3.75 0.625 2.3
3.875 0.625 2.3
4 0.625 2.3
0 0.75 2.3
0.125 0.75 2.3
0.25 0.75 2.3
0.375 0.75 2.3
0.5 0.75 2.3
0.625 0.75 2.3
0.75 0.75 2.3
0.875 0.75 2.3
1 0.75 2.3
1.125 0.75 2.3
1.25 0.75 2.3
1.375 0.75 2.3
1.5 0.75 2.3
1.625 0.75 2.3
1.75 0.75 2.3
1.875 0.75 2.3
2 0.75 2.3
2.125 0.75 2.3
2.25 0.75 2.3
2.375 0.75 2.3
2.5 0.75 2.3
2.625 0.75 2.3
2.75 0.75 2.3
2.875 0.75 2.3
3 0.75 2.3
3.125 0.75 2.3
3.25 0.75 2.3
3.375 0.75 2.3
3.5 0.75 2.3
3.625 0.75 2.3
3.75 0.75 2.3
3.875 0.75 2.3
4 0.75 2.3
0 0.875 2.3
0.125 0.875 2.3
0.25 0.875 2.3
0.375 0.875 2.3
0.5 0.875 2.3
0.625 0.875 2.3
0.75 0.875 2.3
0.875 0.875 2.3
1 0.875 2.3
1.125 0.875 2.3
1.25 0.875 2.3
1.375 0.875 2.3
1.5 0.875 2.3
1.625 0.875 2.3
1.75 0.875 2.3
1.875 0.875 2.3
2 0.875 2.3
2.125 0.875 2.3
2.25 0.875 2.3
2.375 0.875 2.3
2.5 0.875 2.3
2.625 0.875 2.3
2.75 0.875 2.3
2.875 0.875 2.3
3 0.875 2.3
3.125 0.875 2.3
3.25 0.875 2.3
3.375 0.875 2.3
3.5 0.875 2.3
3.625 0.875 2.3
3.75 0.875 2.3
3.875 0.875 2.3
4 0.875 2.3
0 1 2.3
0.125 1 2.3
0.25 1 2.3
0.375 1 2.3
0.5 1 2.3
0.625 1 2.3
0.75 1 2.3
0.875 1 2.3
1 1 2.3
1.125 1 2.3
1.25 1 2.3
1.375 1 2.3
1.5 1 2.3
1.625 1 2.3
1.75 1 2.3
1.875 1 2.3
2 1 2.3
2.125 1 2.3
2.25 1 2.3
2.375 1 2.3
2.5 1 2.3
2.625 1 2.3
2.75 1 2.3
2.875 1 2.3
3 1 2.3
3.125 1 2.3
3.25 1 2.3
3.375 1 2.3
3.5 1 2.3
3.625 1 2.3
3.75 1 2.3
3.875 1 2.3
4 1 2.3
0 0 2.425
0.125 0 2.425
0.25 0 2.425
0.375 0 2.425
0.5 0 2.425
0.625 0 2.425
0.75 0 2.425
0.875 0 2.425
1 0 2.425
1.125 0 2.425
1.25 0 2.425
1.375 0 2.425
1.5 0 2.425
1.625 0 2.425
1.75 0 2.425
1.875 0 2.425
2 0 2.425
2.125 0 2.425
2.25 0 2.425
2.375 0 2.425
2.5 0 2.425
2.625 0 2.425
2.75 0 2.425
2.875 0 2.425
3 0 2.425
3.125 0 2.425
3.25 0 2.425
3.375 0 2.425
3.5 0 2.425
3.625 0 2.425
3.75 0 2.425
3.875 0 2.425
4 0 2.425
0 0.125 2.425
0.125 0.125 2.425
0.25 0.125 2.425
0.375 0.125 2.425
0.5 0.125 2.425
0.625 0.125 2.425
0.75 0.125 2.425
0.875 0.125 2.425
1 0.125 2.425
1.125 0.125 2.425
1.25 0.125 2.425
1.375 0.125 2.425
1.5 0.125 2.425
1.625 0.125 2.425
1.75 0.125 2.425
1.875 0.125 2.425
2 0.125 2.425
2.125 0.125 2.425
2.25 0.125 2.425
2.375 0.125 2.425
2.5 0.125 2.425
2.625 0.125 2.425
2.75 0.125 2.425
2.875 0.125 2.425
3 0.125 2.425
3.125 0.125 2.425
3.25 0.125 2.425
3.375 0.125 2.425
3.5 0.125 2.425
3.625 0.125 2.425
3.75 0.125 2.425
3.875 0.125 2.425
4 0.125 2.425
0 0.25 2.425
0.125 0.25 2.425
0.25 0.25 2.425
0.375 0.25 2.425
0.5 0.25 2.425
0.625 0.25 2.425
0.75 0.25 2.425
0.875 0.25 2.425
1 0.25 2.425
1.125 0.25 2.425
1.25 0.25 2.425
1.375 0.25 2.425
1.5 0.25 2.425
1.625 0.25 2.425
1.75 0.25 2.425
1.875 0.25 2.425
2 0.25 2.425
2.125 0.25 2.425
2.25 0.25 2.425
2.375 0.25 2.425
2.5 0.25 2.425
2.625 0.25 2.425
2.75 0.25 2.425
2.875 0.25 2.425
3 0.25 2.425
3.125 0.25 2.425
3.25 0.25 2.425
3.375 0.25 2.425
3.5 0.25 2.425
3.625 0.25 2.425
3.75 0.25 2.425
3.875 0.25 2.425
4 0.25 2.425
0 0.375 2.425
0.125 0.375 2.425
0.25 0.375 2.425
0.375 0.375 2.425
0.5 0.375 2.425
0.625 0.375 2.425
0.75 0.375 2.425
0.875 0.375 2.425
1 0.375 2.425
1.125 0.375 2.425
1.25 0.375 2.425
1.375 0.375 2.425
1.5 0.375 2.425
1.625 0.375 2.425
1.75 0.375 2.425
1.875 0.375 2.425
2 0.375 2.425
2.125 0.375 2.425
2.25 0.375 2.425
2.375 0.375 2.425
2.5 0.375 2.425
2.625 0.375 2.425
2.75 0.375 2.425
2.875 0.375 2.425
3 0.375 2.425
3.125 0.375 2.425
3.25 0.375 2.425
3.375 0.375 2.425
3.5 0.375 2.425
3.625 0.375 2.425
3.75 0.375 2.425
3.875 0.375 2.425
4 0.375 2.425
0 0.5 2.425
0.125 0.5 2.425
0.25 0.5 2.425
0.375 0.5 2.425
0.5 0.5 2.425
0.625 0.5 2.425
0.75 0.5 2.425
0.875 0.5 2.425
1 0.5 2.425
1.125 0.5 2.425
1.25 0.5 2.425
1.375 0.5 2.425
1.5 0.5 2.425
1.625 0.5 2.425
1.75 0.5 2.425
1.875 0.5 2.425
2 0.5 2.425
2.125 0.5 2.425
2.25 0.5 2.425
2.375 0.5 2.425
2.5 0.5 2.425
2.625 0.5 2.425
2.75 0.5 2.425
2.875 0.5 2.425
3 0.5 2.425
3.125 0.5 2.425
3.25 0.5 2.425
3.375 0.5 2.425
3.5 0.5 2.425
3.625 0.5 2.425
3.75 0.5 2.425
3.875 0.5 2.425
4 0.5 2.425
0 0.625 2.425
0.125 0.625 2.425
0.25 0.625 2.425
0.375 0.625 2.425
0.5 0.625 2.425
0.625 0.625 2.425
0.75 0.625 2.425
0.875 0.625 2.425
1 0.625 2.425
1.125 0.625 2.425
1.25 0.625 2.425
1.375 0.625 2.425
1.5 0.625 2.425
1.625 0.625 2.425
1.75 0.625 2.425
1.875 0.625 2.425
2 0.625 2.425
2.125 0.625 2.425
2.25 0.625 2.425
2.375 0.625 2.425
2.5 0.625 2.425
2.625 0.625 2.425
2.75 0.625 2.425
2.875 0.625 2.425
3 0.625 2.425
3.125 0.625 2.425
3.25 0.625 2.425
3.375 0.625 2.425
3.5 0.625 2.425
3.625 0.625 2.425
3.75 0.625 2.425
3.875 0.625 2.425
4 0.625 2.425
0 0.75 2.425
0.125 0.75 2.425
0.25 0.75 2.425
0.375 0.75 2.425
0.5 0.75 2.425
0.625 0.75 2.425
0.75 0.75 2.425
0.875 0.75 2.425
1 0.75 2.425
1.125 0.75 2.425
1.25 0.75 2.425
1.375 0.75 2.425
1.5 0.75 2.425
1.625 0.75 2.425
1.75 0.75 2.425
1.875 0.75 2.425
2 0.75 2.425
2.125 0.75 2.425
2.25 0.75 2.425
2.375 0.75 2.425
2.5 0.75 2.425
2.625 0.75 2.425
2.75 0.75 2.425
2.875 0.75 2.425
3 0.75 2.425
3.125 0.75 2.425
3.25 0.75 2.425
3.375 0.75 2.425
3.5 0.75 2.425
3.625 0.75 2.425
3.75 0.75 2.425
3.875 0.75 2.425
4 0.75 2.425
0 0.875 2.425
0.125 0.875 2.425
0.25 0.875 2.425
0.375 0.875 2.425
0.5 0.875 2.425
0.625 0.875 2.425
0.75 0.875 2.425
0.875 0.875 2.425
1 0.875 2.425
1.125 0.875 2.425
1.25 0.875 2.425
1.375 0.875 2.425
1.5 0.875 2.425
1.625 0.875 2.425
1.75 0.875 2.425
1.875 0.875 2.425
2 0.875 2.425
2.125 0.875 2.425
2.25 0.875 2.425
2.375 0.875 2.425
2.5 0.875 2.425
2.625 0.875 2.425
2.75 0.875 2.425
2.875 0.875 2.425
3 0.875 2.425
3.125 0.875 2.425
3.25 0.875 2.425
3.375 0.875 2.425
3.5 0.875 2.425
3.625 0.875 2.425
3.75 0.875 2.425
3.875 0.875 2.425
4 0.875 2.425
0 1 2.425
0.125 1 2.425
0.25 1 2.425
0.375 1 2.425
0.5 1 2.425
0.625 1 2.425
0.75 1 2.425
0.875 1 2.425
1 1 2.425
1.125 1 2.425
1.25 1 2.425
1.375 1 2.425
1.5 1 2.425
1.625 1 2.425
1.75 1 2.425
1.875 1 2.425
2 1 2.425
2.125 1 2.425
2.25 1 2.425
2.375 1 2.425
2.5 1 2.425
2.625 1 2.425
2.75 1 2.425
2.875 1 2.425
3 1 2.425
3.125 1 2.425
3.25 1 2.425
3.375 1 2.425
3.5 1 2.425
3.625 1 2.425
3.75 1 2.425
3.875 1 2.425
4 1 2.425
0 0 2.55
0.125 0 2.55
0.25 0 2.55
0.375 0 2.55
0.5 0 2.55
0.625 0 2.55
0.75 0 2.55
0.875 0 2.55
1 0 2.55
1.125 0 2.55
1.25 0 2.55
1.375 0 2.55
1.5 0 2.55
1.625 0 2.55
1.75 0 2.55
1.875 0 2.55
2 0 2.55
2.125 0 2.55
2.25 0 2.55
2.375 0 2.55
2.5 0 2.55
2.625 0 2.55
2.75 0 2.55
2.875 0 2.55
3 0 2.55
3.125 0 2.55
3.25 0 2.55
3.375 0 2.55
3.5 0 2.55
3.625 0 2.55
3.75 0 2.55
3.875 0 2.55
4 0 2.55
0 0.125 2.55
0.125 0.125 2.55
0.25 0.125 2.55
0.375 0.125 2.55
0.5 0.125 2.55
0.625 0.125 2.55
0.75 0.125 2.55
0.875 0.125 2.55
1 0.125 2.55
1.125 0.125 2.55
1.25 0.125 2.55
1.375 0.125 2.55
1.5 0.125 2.55
1.625 0.125 2.55
1.75 0.125 2.55
1.875 0.125 2.55
2 0.125 2.55
2.125 0.125 2.55
2.25 0.125 2.55
2.375 0.125 2.55
2.5 0.125 2.55
2.625 0.125 2.55
2.75 0.125 2.55
2.875 0.125 2.55
3 0.125 2.55
3.125 0.125 2.55
3.25 0.125 2.55
3.375 0.125 2.55
3.5 0.125 2.55
3.625 0.125 2.55
3.75 0.125 2.55
3.875 0.125 2.55
4 0.125 2.55
0 0.25 2.55
0.125 0.25 2.55
0.25 0.25 2.55
0.375 0.25 2.55
0.5 0.25 2.55
0.625 0.25 2.55
0.75 0.25 2.55
0.875 0.25 2.55
1 0.25 2.55
1.125 0.25 2.55
1.25 0.25 2.55
1.375 0.25 2.55
1.5 0.25 2.55
1.625 0.25 2.55
1.75 0.25 2.55
1.875 0.25 2.55
2 0.25 2.55
2.125 0.25 2.55
2.25 0.25 2.55
2.375 0.25 2.55
2.5 0.25 2.55
2.625 0.25 2.55
2.75 0.25 2.55
2.875 0.25 2.55
3 0.25 2.55
3.125 0.25 2.55
3.25 0.25 2.55
3.375 0.25 2.55
3.5 0.25 2.55
3.625 0.25 2.55
3.75 0.25 2.55
3.875 0.25 2.55
4 0.25 2.55
0 0.375 2.55
0.125 0.375 2.55
0.25 0.375 2.55
0.375 0.375 2.55
0.5 0.375 2.55
0.625 0.375 2.55
0.75 0.375 2.55
0.875 0.375 2.55
1 0.375 2.55
1.125 0.375 2.55
1.25 0.375 2.55
1.375 0.375 2.55
1.5 0.375 2.55
1.625 0.375 2.55
1.75 0.375 2.55
1.875 0.375 2.55
2 0.375 2.55
2.125 0.375 2.55
2.25 0.375 2.55
2.375 0.375 2.55
2.5 0.375 2.55
2.625 0.375 2.55
2.75 0.375 2.55
2.875 0.375 2.55
3 0.375 2.55
3.125 0.375 2.55
3.25 0.375 2.55
3.375 0.375 2.55
3.5 0.375 2.55
3.625 0.375 2.55
3.75 0.375 2.55
3.875 0.375 2.55
4 0.375 2.55
0 0.5 2.55
0.125 0.5 2.55
0.25 0.5 2.55
0.375 0.5 2.55
0.5 0.5 2.55
0.625 0.5 2.55
0.75 0.5 2.55
0.875 0.5 2.55
1 0.5 2.55
1.125 0.5 2.55
1.25 0.5 2.55
1.375 0.5 2.55
1.5 0.5 2.55
1.625 0.5 2.55
1.75 0.5 2.55
1.875 0.5 2.55
2 0.5 2.55
2.125 0.5 2.55
2.25 0.5 2.55
2.375 0.5 2.55
2.5 0.5 2.55
2.625 0.5 2.55
2.75 0.5 2.55
2.875 0.5 2.55
3 0.5 2.55
3.125 0.5 2.55
3.25 0.5 2.55
3.375 0.5 2.55
3.5 0.5 2.55
3.625 0.5 2.55
3.75 0.5 2.55
3.875 0.5 2.55
4 0.5 2.55
0 0.625 2.55
0.125 0.625 2.55
0.25 0.625 2.55
0.375 0.625 2.55
0.5 0.625 2.55
0.625 0.625 2.55
0.75 0.625 2.55
0.875 0.625 2.55
1 0.625 2.55
1.125 0.625 2.55
1.25 0.625 2.55
1.375 0.625 2.55
1.5 0.625 2.55
1.625 0.625 2.55
1.75 0.625 2.55
1.875 0.625 2.55
2 0.625 2.55
2.125 0.625 2.55
2.25 0.625 2.55
2.375 0.625 2.55
2.5 0.625 2.55
2.625 0.625 2.55
2.75 0.625 2.55
2.875 0.625 2.55
3 0.625 2.55
3.125 0.625 2.55
3.25 0.625 2.55
3.375 0.625 2.55
3.5 0.625 2.55
3.625 0.625 2.55
3.75 0.625 2.55
3.875 0.625 2.55
4 0.625 2.55
0 0.75 2.55
0.125 0.75 2.55
0.25 0.75 2.55
0.375 0.75 2.55
0.5 0.75 2.55
0.625 0.75 2.55
0.75 0.75 2.55
0.875 0.75 2.55
1 0.75 2.55
1.125 0.75 2.55
1.25 0.75 2.55
1.375 0.75 2.55
1.5 0.75 2.55
1.625 0.75 2.55
1.75 0.75 2.55
1.875 0.75 2.55
2 0.75 2.55
2.125 0.75 2.55
2.25 0.75 2.55
2.375 0.75 2.55
2.5 0.75 2.55
2.625 0.75 2.55
2.75 0.75 2.55
2.875 0.75 2.55
3 0.75 2.55
3.125 0.75 2.55
3.25 0.75 2.55
3.375 0.75 2.55
3.5 0.75 2.55
3.625 0.75 2.55
3.75 0.75 2.55
3.875 0.75 2.55
4 0.75 2.55
0 0.875 2.55
0.125 0.875 2.55
0.25 0.875 2.55
0.375 0.875 2.55
0.5 0.875 2.55
0.625 0.875 2.55
0.75 0.875 2.55
0.875 0.875 2.55
1 0.875 2.55
1.125 0.875 2.55
1.25 0.875 2.55
1.375 0.875 2.55
1.5 0.875 2.55
1.625 0.875 2.55
1.75 0.875 2.55
1.875 0.875 2.55
2 0.875 2.55
2.125 0.875 2.55
2.25 0.875 2.55
2.375 0.875 2.55
2.5 0.875 2.55
2.625 0.875 2.55
2.75 0.875 2.55
2.875 0.875 2.55
3 0.875 2.55
3.125 0.875 2.55
3.25 0.875 2.55
3.375 0.875 2.55
3.5 0.875 2.55
3.625 0.875 2.55
3.75 0.875 2.55
3.875 0.875 2.55
4 0.875 2.55
0 1 2.55
0.125 1 2.55
0.25 1 2.55
0.375 1 2.55
0.5 1 2.55
0.625 1 2.55
0.75 1 2.55
0.875 1 2.55
1 1 2.55
1.125 1 2.55
1.25 1 2.55
1.375 1 2.55
1.5 1 2.55
1.625 1 2.55
1.75 1 2.55
1.875 1 2.55
2 1 2.55
2.125 1 2.55
2.25 1 2.55
2.375 1 2.55
2.5 1 2.55
2.625 1 2.55
2.75 1 2.55
2.875 1 2.55
3 1 2.55
3.125 1 2.55
3.25 1 2.55
3.375 1 2.55
3.5 1 2.55
3.625 1 2.55
3.75 1 2.55
3.875 1 2.55
4 1 2.55
0 0 2.675
0.125 0 2.675
0.25 0 2.675
0.375 0 2.675
0.5 0 2.675
0.625 0 2.675
0.75 0 2.675
0.875 0 2.675
1 0 2.675
1.125 0 2.675
1.25 0 2.675
1.375 0 2.675
1.5 0 2.675
1.625 0 2.675
1.75 0 2.675
1.875 0 2.675
2 0 2.675
2.125 0 2.675
2.25 0 2.675
2.375 0 2.675
2.5 0 2.675
2.625 0 2.675
2.75 0 2.675
2.875 0 2.675
3 0 2.675
3.125 0 2.675
3.25 0 2.675
3.375 0 2.675
3.5 0 2.675
3.625 0 2.675
3.75 0 2.675
3.875 0 2.675
4 0 2.675
0 0.125 2.675
0.125 0.125 2.675
0.25 0.125 2.675
0.375 0.125 2.675
0.5 0.125 2.675
0.625 0.125 2.675
0.75 0.125 2.675
0.875 0.125 2.675
1 0.125 2.675
1.125 0.125 2.675
1.25 0.125 2.675
1.375 0.125 2.675
1.5 0.125 2.675
1.625 0.125 2.675
1.75 0.125 2.675
1.875 0.125 2.675
2 0.125 2.675
2.125 0.125 2.675
2.25 0.125 2.675
2.375 0.125 2.675
2.5 0.125 2.675
2.625 0.125 2.675
2.75 0.125 2.675
2.875 0.125 2.675
3 0.125 2.675
3.125 0.125 2.675
3.25 0.125 2.675
3.375 0.125 2.675
3.5 0.125 2.675
3.625 0.125 2.675
3.75 0.125 2.675
3.875 0.125 2.675
4 0.125 2.675
0 0.25 2.675
0.125 0.25 2.675
0.25 0.25 2.675
0.375 0.25 2.675
0.5 0.25 2.675
0.625 0.25 2.675
0.75 0.25 2.675
0.875 0.25 2.675
1 0.25 2.675
1.125 0.25 2.675
1.25 0.25 2.675
1.375 0.25 2.675
1.5 0.25 2.675
1.625 0.25 2.675
1.75 0.25 2.675
1.875 0.25 2.675
2 0.25 2.675
2.125 0.25 2.675
2.25 0.25 2.675
2.375 0.25 2.675
2.5 0.25 2.675
2.625 0.25 2.675
2.75 0.25 2.675
2.875 0.25 2.675
3 0.25 2.675
3.125 0.25 2.675
3.25 0.25 2.675
3.375 0.25 2.675
3.5 0.25 2.675
3.625 0.25 2.675
3.75 0.25 2.675
3.875 0.25 2.675
4 0.25 2.675
0 0.375 2.675
0.125 0.375 2.675
0.25 0.375 2.675
0.375 0.375 2.675
0.5 0.375 2.675
0.625 0.375 2.675
0.75 0.375 2.675
0.875 0.375 2.675
1 0.375 2.675
1.125 0.375 2.675
1.25 0.375 2.675
1.375 0.375 2.675
1.5 0.375 2.675
1.625 0.375 2.675
1.75 0.375 2.675
1.875 0.375 2.675
2 0.375 2.675
2.125 0.375 2.675
2.25 0.375 2.675
2.375 0.375 2.675
2.5 0.375 2.675
2.625 0.375 2.675
2.75 0.375 2.675
2.875 0.375 2.675
3 0.375 2.675
3.125 0.375 2.675
3.25 0.375 2.675
3.375 0.375 2.675
3.5 0.375 2.675
3.625 0.375 2.675
3.75 0.375 2.675
3.875 0.375 2.675
4 0.375 2.675
0 0.5 2.675
0.125 0.5 2.675
0.25 0.5 2.675
0.375 0.5 2.675
0.5 0.5 2.675
0.625 0.5 2.675
0.75 0.5 2.675
0.875 0.5 2.675
1 0.5 2.675
1.125 0.5 2.675
1.25 0.5 2.675
1.375 0.5 2.675
1.5 0.5 2.675
1.625 0.5 2.675
1.75 0.5 2.675
1.875 0.5 2.675
2 0.5 2.675
2.125 0.5 2.675
2.25 0.5 2.675
2.375 0.5 2.675
2.5 0.5 2.675
2.625 0.5 2.675
2.75 0.5 2.675
2.875 0.5 2.675
3 0.5 2.675
3.125 0.5 2.675
3.25 0.5 2.675
3.375 0.5 2.675
3.5 0.5 2.675
3.625 0.5 2.675
3.75 0.5 2.675
3.875 0.5 2.675
4 0.5 2.675
0 0.625 2.675
0.125 0.625 2.675
0.25 0.625 2.675
0.375 0.625 2.675
0.5 0.625 2.675
0.625 0.625 2.675
0.75 0.625 2.675
0.875 0.625 2.675
1 0.625 2.675
1.125 0.625 2.675
1.25 0.625 2.675
1.375 0.625 2.675
1.5 0.625 2.675
1.625 0.625 2.675
1.75 0.625 2.675
1.875 0.625 2.675
2 0.625 2.675
2.125 0.625 2.675
2.25 0.625 2.675
2.375 0.625 2.675
2.5 0.625 2.675
2.625 0.625 2.675
2.75 0.625 2.675
2.875 0.625 2.675
3 0.625 2.675
3.125 0.625 2.675
3.25 0.625 2.675
3.375 0.625 2.675
3.5 0.625 2.675
3.625 0.625 2.675
3.75 0.625 2.675
3.875 0.625 2.675
4 0.625 2.675
0 0.75 2.675
0.125 0.75 2.675
0.25 0.75 2.675
0.375 0.75 2.675
0.5 0.75 2.675
0.625 0.75 2.675
0.75 0.75 2.675
0.875 0.75 2.675
1 0.75 2.675
1.125 0.75 2.675
1.25 0.75 2.675
1.375 0.75 2.675
1.5 0.75 2.675
1.625 0.75 2.675
1.75 0.75 2.675
1.875 0.75 2.675
2 0.75 2.675
2.125 0.75 2.675
2.25 0.75 2.675
2.375 0.75 2.675
2.5 0.75 2.675
2.625 0.75 2.675
2.75 0.75 2.675
2.875 0.75 2.675
3 0.75 2.675
3.125 0.75 2.675
3.25 0.75 2.675
3.375 0.75 2.675
3.5 0.75 2.675
3.625 0.75 2.675
3.75 0.75 2.675
3.875 0.75 2.675
4 0.75 2.675
0 0.875 2.675
0.125 0.875 2.675
0.25 0.875 2.675
0.375 0.875 2.675
0.5 0.875 2.675
0.625 0.875 2.675
0.75 0.875 2.675
0.875 0.875 2.675
1 0.875 2.675
1.125 0.875 2.675
1.25 0.875 2.675
1.375 0.875 2.675
1.5 0.875 2.675
1.625 0.875 2.675
1.75 0.875 2.675
1.875 0.875 2.675
2 0.875 2.675
2.125 0.875 2.675
2.25 0.875 2.675
2.375 0.875 2.675
2.5 0.875 2.675
2.625 0.875 2.675
2.75 0.875 2.675
2.875 0.875 2.675
3 0.875 2.675
3.125 0.875 2.675
3.25 0.875 2.675
3.375 0.875 2.675
3.5 0.875 2.675
3.625 0.875 2.675
3.75 0.875 2.675
3.875 0.875 2.675
4 0.875 2.675
0 1 2.675
0.125 1 2.675
0.25 1 2.675
0.375 1 2.675
0.5 1 2.675
0.625 1 2.675
0.75 1 2.675
0.875 1 2.675
1 1 2.675
1.125 1 2.675
1.25 1 2.675
1.375 1 2.675
1.5 1 2.675
1.625 1 2.675
1.75 1 2.675
1.875 1 2.675
2 1 2.675
2.125 1 2.675
2.25 1 2.675
2.375 1 2.675
2.5 1 2.675
2.625 1 2.675
2.75 1 2.675
2.875 1 2.675
3 1 2.675
3.125 1 2.675
3.25 1 2.675
3.375 1 2.675
3.5 1 2.675
3.625 1 2.675
3.75 1 2.675
3.875 1 2.675
4 1 2.675
0 0 2.8
0.125 0 2.8
0.25 0 2.8
0.375 0 2.8
0.5 0 2.8
0.625 0 2.8
0.75 0 2.8
0.875 0 2.8
1 0 2.8
1.125 0 2.8
1.25 0 2.8
1.375 0 2.8
1.5 0 2.8
1.625 0 2.8
1.75 0 2.8
1.875 0 2.8
2 0 2.8
2.125 0 2.8
2.25 0 2.8
2.375 0 2.8
2.5 0 2.8
2.625 0 2.8
2.75 0 2.8
2.875 0 2.8
3 0 2.8
3.125 0 2.8
3.25 0 2.8
3.375 0 2.8
3.5 0 2.8
3.625 0 2.8
3.75 0 2.8
3.875 0 2.8
4 0 2.8
0 0.125 2.8
0.125 0.125 2.8
0.25 0.125 2.8
0.375 0.125 2.8
0.5 0.125 2.8
0.625 0.125 2.8
0.75 0.125 2.8
0.875 0.125 2.8
1 0.125 2.8
1.125 0.125 2.8
1.25 0.125 2.8
1.375 0.125 2.8
1.5 0.125 2.8
1.625 0.125 2.8
1.75 0.125 2.8
1.875 0.125 2.8
2 0.125 2.8
2.125 0.125 2.8
2.25 0.125 2.8
2.375 0.125 2.8
2.5 0.125 2.8
2.625 0.125 2.8
2.75 0.125 2.8
2.875 0.125 2.8
3 0.125 2.8
3.125 0.125 2.8
3.25 0.125 2.8
3.375 0.125 2.8
3.5 0.125 2.8
3.625 0.125 2.8
3.75 0.125 2.8
3.875 0.125 2.8
4 0.125 2.8
0 0.25 2.8
0.125 0.25 2.8
0.25 0.25 2.8
0.375 0.25 2.8
0.5 0.25 2.8
0.625 0.25 2.8
0.75 0.25 2.8
0.875 0.25 2.8
1 0.25 2.8
1.125 0.25 2.8
1.25 0.25 2.8
1.375 0.25 2.8
1.5 0.25 2.8
1.625 0.25 2.8
1.75 0.25 2.8
1.875 0.25 2.8
2 0.25 2.8
2.125 0.25 2.8
2.25 0.25 2.8
2.375 0.25 2.8
2.5 0.25 2.8
2.625 0.25 2.8
2.75 0.25 2.8
2.875 0.25 2.8
3 0.25 2.8
3.125 0.25 2.8
3.25 0.25 2.8
3.375 0.25 2.8
3.5 0.25 2.8
3.625 0.25 2.8
3.75 0.25 2.8
3.875 0.25 2.8
4 0.25 2.8
0 0.375 2.8
0.125 0.375 2.8
0.25 0.375 2.8
0.375 0.375 2.8
0.5 0.375 2.8
0.625 0.375 2.8
0.75 0.375 2.8
0.875 0.375 2.8
1 0.375 2.8
1.125 0.375 2.8
1.25 0.375 2.8
1.375 0.375 2.8
1.5 0.375 2.8
1.625 0.375 2.8
1.75 0.375 2.8
1.875 0.375 2.8
2 0.375 2.8
2.125 0.375 2.8
2.25 0.375 2.8
2.375 0.375 2.8
2.5 0.375 2.8
2.625 0.375 2.8
2.75 0.375 2.8
2.875 0.375 2.8
3 0.375 2.8
3.125 0.375 2.8
3.25 0.375 2.8
3.375 0.375 2.8
3.5 0.375 2.8
3.625 0.375 2.8
3.75 0.375 2.8
3.875 0.375 2.8
4 0.375 2.8
0 0.5 2.8
0.125 0.5 2.8
0.25 0.5 2.8
0.375 0.5 2.8
0.5 0.5 2.8
0.625 0.5 2.8
0.75 0.5 2.8
0.875 0.5 2.8
1 0.5 2.8
1.125 0.5 2.8
1.25 0.5 2.8
1.375 0.5 2.8
1.5 0.5 2.8
1.625 0.5 2.8
1.75 0.5 2.8
1.875 0.5 2.8
2 0.5 2.8
2.125 0.5 2.8
2.25 0.5 2.8
2.375 0.5 2.8
2.5 0.5 2.8
2.625 0.5 2.8
2.75 0.5 2.8
2.875 0.5 2.8
3 0.5 2.8
3.125 0.5 2.8
3.25 0.5 2.8
3.375 0.5 2.8
3.5 0.5 2.8
3.625 0.5 2.8
3.75 0.5 2.8
3.875 0.5 2.8
4 0.5 2.8
0 0.625 2.8
0.125 0.625 2.8
0.25 0.625 2.8
0.375 0.625 2.8
0.5 0.625 2.8
0.625 0.625 2.8
0.75 0.625 2.8
0.875 0.625 2.8
1 0.625 2.8
1.125 0.625 2.8
1.25 0.625 2.8
1.375 0.625 2.8
1.5 0.625 2.8
1.625 0.625 2.8
1.75 0.625 2.8
1.875 0.625 2.8
2 0.625 2.8
2.125 0.625 2.8
2.25 0.625 2.8
2.375 0.625 2.8
2.5 0.625 2.8
2.625 0.625 2.8
2.75 0.625 2.8
2.875 0.625 2.8
3 0.625 2.8
3.125 0.625 2.8
3.25 0.625 2.8
3.375 0.625 2.8
3.5 0.625 2.8
3.625 0.625 2.8
3.75 0.625 2.8
3.875 0.625 2.8
4 0.625 2.8
0 0.75 2.8
0.125 0.75 2.8
0.25 0.75 2.8
0.375 0.75 2.8
0.5 0.75 2.8
0.625 0.75 2.8
0.75 0.75 2.8
0.875 0.75 2.8
1 0.75 2.8
1.125 0.75 2.8
1.25 0.75 2.8
1.375 0.75 2.8
1.5 0.75 2.8
1.625 0.75 2.8
1.75 0.75 2.8
1.875 0.75 2.8
2 0.75 2.8
2.125 0.75 2.8
2.25 0.75 2.8
2.375 0.75 2.8
2.5 0.75 2.8
2.625 0.75 2.8
2.75 0.75 2.8
2.875 0.75 2.8
3 0.75 2.8
3.125 0.75 2.8
3.25 0.75 2.8
3.375 0.75 2.8
3.5 0.75 2.8
3.625 0.75 2.8
3.75 0.75 2.8
3.875 0.75 2.8
4 0.75 2.8
0 0.875 2.8
0.125 0.875 2.8
0.25 0.875 2.8
0.375 0.875 2.8
0.5 0.875 2.8
0.625 0.875 2.8
0.75 0.875 2.8
0.875 0.875 2.8
1 0.875 2.8
1.125 0.875 2.8
1.25 0.875 2.8
1.375 0.875 2.8
1.5 0.875 2.8
1.625 0.875 2.8
1.75 0.875 2.8
1.875 0.875 2.8
2 0.875 2.8
2.125 0.875 2.8
2.25 0.875 2.8
2.375 0.875 2.8
2.5 0.875 2.8
2.625 0.875 2.8
2.75 0.875 2.8
2.875 0.875 2.8
3 0.875 2.8
3.125 0.875 2.8
3.25 0.875 2.8
3.375 0.875 2.8
3.5 0.875 2.8
3.625 0.875 2.8
3.75 0.875 2.8
3.875 0.875 2.8
4 0.875 2.8
0 1 2.8
0.125 1 2.8
0.25 1 2.8
0.375 1 2.8
0.5 1 2.8
0.625 1 2.8
0.75 1 2.8
0.875 1 2.8
1 1 2.8
1.125 1 2.8
1.25 1 2.8
1.375 1 2.8
1.5 1 2.8
1.625 1 2.8
1.75 1 2.8
1.875 1 2.8
2 1 2.8
2.125 1 2.8
2.25 1 2.8
2.375 1 2.8
2.5 1 2.8
2.625 1 2.8
2.75 1 2.8
2.875 1 2.8
3 1 2.8
3.125 1 2.8
3.25 1 2.8
3.375 1 2.8
3.5 1 2.8
3.625 1 2.8
3.75 1 2.8
3.875 1 2.8
4 1 2.8
0 0 2.925
0.125 0 2.925
0.25 0 2.925
0.375 0 2.925
0.5 0 2.925
0.625 0 2.925
0.75 0 2.925
0.875 0 2.925
1 0 2.925
1.125 0 2.925
1.25 0 2.925
1.375 0 2.925
1.5 0 2.925
1.625 0 2.925
1.75 0 2.925
1.875 0 2.925
2 0 2.925
2.125 0 2.925
2.25 0 2.925
2.375 0 2.925
2.5 0 2.925
2.625 0 2.925
2.75 0 2.925
2.875 0 2.925
3 0 2.925
3.125 0 2.925
3.25 0 2.925
3.375 0 2.925
3.5 0 2.925
3.625 0 2.925
3.75 0 2.925
3.875 0 2.925
4 0 2.925
0 0.125 2.925
0.125 0.125 2.925
0.25 0.125 2.925
0.375 0.125 2.925
0.5 0.125 2.925
0.625 0.125 2.925
0.75 0.125 2.925
0.875 0.125 2.925
1 0.125 2.925
1.125 0.125 2.925
1.25 0.125 2.925
1.375 0.125 2.925
1.5 0.125 2.925
1.625 0.125 2.925
1.75 0.125 2.925
1.875 0.125 2.925
2 0.125 2.925
2.125 0.125 2.925
2.25 0.125 2.925
2.375 0.125 2.925
2.5 0.125 2.925
2.625 0.125 2.925
2.75 0.125 2.925
2.875 0.125 2.925
3 0.125 2.925
3.125 0.125 2.925
3.25 0.125 2.925
3.375 0.125 2.925
3.5 0.125 2.925
3.625 0.125 2.925
3.75 0.125 2.925
3.875 0.125 2.925
4 0.125 2.925
0 0.25 2.925
0.125 0.25 2.925
0.25 0.25 2.925
0.375 0.25 2.925
0.5 0.25 2.925
0.625 0.25 2.925
0.75 0.25 2.925
0.875 0.25 2.925
1 0.25 2.925
1.125 0.25 2.925
1.25 0.25 2.925
1.375 0.25 2.925
1.5 0.25 2.925
1.625 0.25 2.925
1.75 0.25 2.925
1.875 0.25 2.925
2 0.25 2.925
2.125 0.25 2.925
2.25 0.25 2.925
2.375 0.25 2.925
2.5 0.25 2.925
2.625 0.25 2.925
2.75 0.25 2.925
2.875 0.25 2.925
3 0.25 2.925
3.125 0.25 2.925
3.25 0.25 2.925
3.375 0.25 2.925
3.5 0.25 2.925
3.625 0.25 2.925
3.75 0.25 2.925
3.875 0.25 2.925
4 0.25 2.925
0 0.375 2.925
0.125 0.375 2.925
0.25 0.375 2.925
0.375 0.375 2.925
0.5 0.375 2.925
0.625 0.375 2.925
0.75 0.375 2.925
0.875 0.375 2.925
1 0.375 2.925
1.125 0.375 2.925
1.25 0.375 2.925
1.375 0.375 2.925
1.5 0.375 2.925
1.625 0.375 2.925
1.75 0.375 2.925
1.875 0.375 2.925
2 0.375 2.925
2.125 0.375 2.925
2.25 0.375 2.925
2.375 0.375 2.925
2.5 0.375 2.925
2.625 0.375 2.925
2.75 0.375 2.925
2.875 0.375 2.925
3 0.375 2.925
3.125 0.375 2.925
3.25 0.375 2.925
3.375 0.375 2.925
3.5 0.375 2.925
3.625 0.375 2.925
3.75 0.375 2.925
3.875 0.375 2.925
4 0.375 2.925
0 0.5 2.925
0.125 0.5 2.925
0.25 0.5 2.925
0.375 0.5 2.925
0.5 0.5 2.925
0.625 0.5 2.925
0.75 0.5 2.925
0.875 0.5 2.925
1 0.5 2.925
1.125 0.5 2.925
1.25 0.5 2.925
1.375 0.5 2.925
1.5 0.5 2.925
1.625 0.5 2.925
1.75 0.5 2.925
1.875 0.5 2.925
2 0.5 2.925
2.125 0.5 2.925
2.25 0.5 2.925
2.375 0.5 2.925
2.5 0.5 2.925
2.625 0.5 2.925
2.75 0.5 2.925
2.875 0.5 2.925
3 0.5 2.925
3.125 0.5 2.925
3.25 0.5 2.925
3.375 0.5 2.925
3.5 0.5 2.925
3.625 0.5 2.925
3.75 0.5 2.925
3.875 0.5 2.925
4 0.5 2.925
0 0.625 2.925
0.125 0.625 2.925
0.25 0.625 2.925
0.375 0.625 2.925
0.5 0.625 2.925
0.625 0.625 2.925
0.75 0.625 2.925
0.875 0.625 2.925
1 0.625 2.925
1.125 0.625 2.925
1.25 0.625 2.925
1.375 0.625 2.925
1.5 0.625 2.925
1.625 0.625 2.925
1.75 0.625 2.925
1.875 0.625 2.925
2 0.625 2.925
2.125 0.625 2.925
2.25 0.625 2.925
2.375 0.625 2.925
2.5 0.625 2.925
2.625 0.625 2.925
2.75 0.625 2.925
2.875 0.625 2.925
3 0.625 2.925
3.125 0.625 2.925
3.25 0.625 2.925
3.375 0.625 2.925
3.5 0.625 2.925
3.625 0.625 2.925
3.75 0.625 2.925
3.875 0.625 2.925
4 0.625 2.925
0 0.75 2.925
0.125 0.75 2.925
0.25 0.75 2.925
0.375 0.75 2.925
0.5 0.75 2.925
0.625 0.75 2.925
0.75 0.75 2.925
0.875 0.75 2.925
1 0.75 2.925
1.125 0.75 2.925
1.25 0.75 2.925
1.375 0.75 2.925
1.5 0.75 2.925
1.625 0.75 2.925
1.75 0.75 2.925
1.875 0.75 2.925
2 0.75 2.925
2.125 0.75 2.925
2.25 0.75 2.925
2.375 0.75 2.925
2.5 0.75 2.925
2.625 0.75 2.925
2.75 0.75 2.925
2.875 0.75 2.925
3 0.75 2.925
3.125 0.75 2.925
3.25 0.75 2.925
3.375 0.75 2.925
3.5 0.75 2.925
3.625 0.75 2.925
3.75 0.75 2.925
3.875 0.75 2.925
4 0.75 2.925
0 0.875 2.925
0.125 0.875 2.925
0.25 0.875 2.925
0.375 0.875 2.925
0.5 0.875 2.925
0.625 0.875 2.925
0.75 0.875 2.925
0.875 0.875 2.925
1 0.875 2.925
1.125 0.875 2.925
1.25 0.875 2.925
1.375 0.875 2.925
1.5 0.875 2.925
1.625 0.875 2.925
1.75 0.875 2.925
1.875 0.875 2.925
2 0.875 2.925
2.125 0.875 2.925
2.25 0.875 2.925
2.375 0.875 2.925
2.5 0.875 2.925
2.625 0.875 2.925
2.75 0.875 2.925
2.875 0.875 2.925
3 0.875 2.925
3.125 0.875 2.925
3.25 0.875 2.925
3.375 0.875 2.925
3.5 0.875 2.925
3.625 0.875 2.925
3.75 0.875 2.925
3.875 0.875 2.925
4 0.875 2.925
0 1 2.925
0.125 1 2.925
0.25 1 2.925
0.375 1 2.925
0.5 1 2.925
0.625 1 2.925
0.75 1 2.925
0.875 1 2.925
1 1 2.925
1.125 1 2.925
1.25 1 2.925
1.375 1 2.925
1.5 1 2.925
1.625 1 2.925
1.75 1 2.925
1.875 1 2.925
2 1 2.925
2.125 1 2.925
2.25 1 2.925
2.375 1 2.925
2.5 1 2.925
2.625 1 2.925
2.75 1 2.925
2.875 1 2.925
3 1 2.925
3.125 1 2.925
3.25 1 2.925
3.375 1 2.925
3.5 1 2.925
3.625 1 2.925
3.75 1 2.925
3.875 1 2.925
4 1 2.925
0 0 3.05
0.125 0 3.05
0.25 0 3.05
0.375 0 3.05
0.5 0 3.05
0.625 0 3.05
0.75 0 3.05
0.875 0 3.05
1 0 3.05
1.125 0 3.05
1.25 0 3.05
1.375 0 3.05
1.5 0 3.05
1.625 0 3.05
1.75 0 3.05
1.875 0 3.05
2 0 3.05
2.125 0 3.05
2.25 0 3.05
2.375 0 3.05
2.5 0 3.05
2.625 0 3.05
2.75 0 3.05
2.875 0 3.05
3 0 3.05
3.125 0 3.05
3.25 0 3.05
3.375 0 3.05
3.5 0 3.05
3.625 0 3.05
3.75 0 3.05
3.875 0 3.05
4 0 3.05
0 0.125 3.05
0.125 0.125 3.05
0.25 0.125 3.05
0.375 0.125 3.05
0.5 0.125 3.05
0.625 0.125 3.05
0.75 0.125 3.05
0.875 0.125 3.05
1 0.125 3.05
1.125 0.125 3.05
1.25 0.125 3.05
1.375 0.125 3.05
1.5 0.125 3.05
1.625 0.125 3.05
1.75 0.125 3.05
1.875 0.125 3.05
2 0.125 3.05
2.125 0.125 3.05
2.25 0.125 3.05
2.375 0.125 3.05
2.5 0.125 3.05
2.625 0.125 3.05
2.75 0.125 3.05
2.875 0.125 3.05
3 0.125 3.05
3.125 0.125 3.05
3.25 0.125 3.05
3.375 0.125 3.05
3.5 0.125 3.05
3.625 0.125 3.05
3.75 0.125 3.05
3.875 0.125 3.05
4 0.125 3.05
0 0.25 3.05
0.125 0.25 3.05
0.25 0.25 3.05
0.375 0.25 3.05
0.5 0.25 3.05
0.625 0.25 3.05
0.75 0.25 3.05
0.875 0.25 3.05
1 0.25 3.05
1.125 0.25 3.05
1.25 0.25 3.05
1.375 0.25 3.05
1.5 0.25 3.05
1.625 0.25 3.05
1.75 0.25 3.05
1.875 0.25 3.05
2 0.25 3.05
2.125 0.25 3.05
2.25 0.25 3.05
2.375 0.25 3.05
2.5 0.25 3.05
2.625 0.25 3.05
2.75 0.25 3.05
2.875 0.25 3.05
3 0.25 3.05
3.125 0.25 3.05
3.25 0.25 3.05
3.375 0.25 3.05
3.5 0.25 3.05
3.625 0.25 3.05
3.75 0.25 3.05
3.875 0.25 3.05
4 0.25 3.05
0 0.375 3.05
0.125 0.375 3.05
0.25 0.375 3.05
0.375 0.375 3.05
0.5 0.375 3.05
0.625 0.375 3.05
0.75 0.375 3.05
0.875 0.375 3.05
1 0.375 3.05
1.125 0.375 3.05
1.25 0.375 3.05
1.375 0.375 3.05
1.5 0.375 3.05
1.625 0.375 3.05
1.75 0.375 3.05
1.875 0.375 3.05
2 0.375 3.05
2.125 0.375 3.05
2.25 0.375 3.05
2.375 0.375 3.05
2.5 0.375 3.05
2.625 0.375 3.05
2.75 0.375 3.05
2.875 0.375 3.05
3 0.375 3.05
3.125 0.375 3.05
3.25 0.375 3.05
3.375 0.375 3.05
3.5 0.375 3.05
3.625 0.375 3.05
3.75 0.375 3.05
3.875 0.375 3.05
4 0.375 3.05
0 0.5 3.05
0.125 0.5 3.05
0.25 0.5 3.05
0.375 0.5 3.05
0.5 0.5 3.05
0.625 0.5 3.05
0.75 0.5 3.05
0.875 0.5 3.05
1 0.5 3.05
1.125 0.5 3.05
1.25 0.5 3.05
1.375 0.5 3.05
1.5 0.5 3.05
1.625 0.5 3.05
1.75 0.5 3.05
1.875 0.5 3.05
2 0.5 3.05
2.125 0.5 3.05
2.25 0.5 3.05
2.375 0.5 3.05
2.5 0.5 3.05
2.625 0.5 3.05
2.75 0.5 3.05
2.875 0.5 3.05
3 0.5 3.05
3.125 0.5 3.05
3.25 0.5 3.05
3.375 0.5 3.05
3.5 0.5 3.05
3.625 0.5 3.05
3.75 0.5 3.05
3.875 0.5 3.05
4 0.5 3.05
0 0.625 3.05
0.125 0.625 3.05
0.25 0.625 3.05
0.375 0.625 3.05
0.5 0.625 3.05
0.625 0.625 3.05
0.75 0.625 3.05
0.875 0.625 3.05
1 0.625 3.05
1.125 0.625 3.05
1.25 0.625 3.05
1.375 0.625 3.05
1.5 0.625 3.05
1.625 0.625 3.05
1.75 0.625 3.05
1.875 0.625 3.05
2 0.625 3.05
2.125 0.625 3.05
2.25 0.625 3.05
2.375 0.625 3.05
2.5 0.625 3.05
2.625 0.625 3.05
2.75 0.625 3.05
2.875 0.625 3.05
3 0.625 3.05
3.125 0.625 3.05
3.25 0.625 3.05
3.375 0.625 3.05
3.5 0.625 3.05
3.625 0.625 3.05
3.75 0.625 3.05
3.875 0.625 3.05
4 0.625 3.05
0 0.75 3.05
0.125 0.75 3.05
0.25 0.75 3.05
0.375 0.75 3.05
0.5 0.75 3.05
0.625 0.75 3.05
0.75 0.75 3.05
0.875 0.75 3.05
1 0.75 3.05
1.125 0.75 3.05
1.25 0.75 3.05
1.375 0.75 3.05
1.5 0.75 3.05
1.625 0.75 3.05
1.75 0.75 3.05
1.875 0.75 3.05
2 0.75 3.05
2.125 0.75 3.05
2.25 0.75 3.05
2.375 0.75 3.05
2.5 0.75 3.05
2.625 0.75 3.05
2.75 0.75 3.05
2.875 0.75 3.05
3 0.75 3.05
3.125 0.75 3.05
3.25 0.75 3.05
3.375 0.75 3.05
3.5 0.75 3.05
3.625 0.75 3.05
3.75 0.75 3.05
3.875 0.75 3.05
4 0.75 3.05
0 0.875 3.05
0.125 0.875 3.05
0.25 0.875 3.05
0.375 0.875 3.05
0.5 0.875 3.05
0.625 0.875 3.05
0.75 0.875 3.05
0.875 0.875 3.05
1 0.875 3.05
1.125 0.875 3.05
1.25 0.875 3.05
1.375 0.875 3.05
1.5 0.875 3.05
1.625 0.875 3.05
1.75 0.875 3.05
1.875 0.875 3.05
2 0.875 3.05
2.125 0.875 3.05
2.25 0.875 3.05
2.375 0.875 3.05
2.5 0.875 3.05
2.625 0.875 3.05
2.75 0.875 3.05
2.875 0.875 3.05
3 0.875 3.05
3.125 0.875 3.05
3.25 0.875 3.05
3.375 0.875 3.05
3.5 0.875 3.05
3.625 0.875 3.05
3.75 0.875 3.05
3.875 0.875 3.05
4 0.875 3.05
0 1 3.05
0.125 1 3.05
0.25 1 3.05
0.375 1 3.05
0.5 1 3.05
0.625 1 3.05
0.75 1 3.05
0.875 1 3.05
1 1 3.05
1.125 1 3.05
1.25 1 3.05
1.375 1 3.05
1.5 1 3.05
1.625 1 3.05
1.75 1 3.05
1.875 1 3.05
2 1 3.05
2.125 1 3.05
2.25 1 3.05
2.375 1 3.05
2.5 1 3.05
2.625 1 3.05
2.75 1 3.05
2.875 1 3.05
3 1 3.05
3.125 1 3.05
3.25 1 3.05
3.375 1 3.05
3.5 1 3.05
3.625 1 3.05
3.75 1 3.05
3.875 1 3.05
4 1 3.05
0 0 3.175
0.125 0 3.175
0.25 0 3.175
0.375 0 3.175
0.5 0 3.175
0.625 0 3.175
0.75 0 3.175
0.875 0 3.175
1 0 3.175
1.125 0 3.175
1.25 0 3.175
1.375 0 3.175
1.5 0 3.175
1.625 0 3.175
1.75 0 3.175
1.875 0 3.175
2 0 3.175
2.125 0 3.175
2.25 0 3.175
2.375 0 3.175
2.5 0 3.175
2.625 0 3.175
2.75 0 3.175
2.875 0 3.175
3 0 3.175
3.125 0 3.175
3.25 0 3.175
3.375 0 3.175
3.5 0 3.175
3.625 0 3.175
3.75 0 3.175
3.875 0 3.175
4 0 3.175
0 0.125 3.175
0.125 0.125 3.175
0.25 0.125 3.175
0.375 0.125 3.175
0.5 0.125 3.175
0.625 0.125 3.175
0.75 0.125 3.175
0.875 0.125 3.175
1 0.125 3.175
1.125 0.125 3.175
1.25 0.125 3.175
1.375 0.125 3.175
1.5 0.125 3.175
1.625 0.125 3.175
1.75 0.125 3.175
1.875 0.125 3.175
2 0.125 3.175
2.125 0.125 3.175
2.25 0.125 3.175
2.375 0.125 3.175
2.5 0.125 3.175
2.625 0.125 3.175
2.75 0.125 3.175
2.875 0.125 3.175
3 0.125 3.175
3.125 0.125 3.175
3.25 0.125 3.175
3.375 0.125 3.175
3.5 0.125 3.175
3.625 0.125 3.175
3.75 0.125 3.175
3.875 0.125 3.175
4 0.125 3.175
0 0.25 3.175
0.125 0.25 3.175
0.25 0.25 3.175
0.375 0.25 3.175
0.5 0.25 3.175
0.625 0.25 3.175
0.75 0.25 3.175
0.875 0.25 3.175
1 0.25 3.175
1.125 0.25 3.175
1.25 0.25 3.175
1.375 0.25 3.175
1.5 0.25 3.175
1.625 0.25 3.175
1.75 0.25 3.175
1.875 0.25 3.175
2 0.25 3.175
2.125 0.25 3.175
2.25 0.25 3.175
2.375 0.25 3.175
2.5 0.25 3.175
2.625 0.25 3.175
2.75 0.25 3.175
2.875 0.25 3.175
3 0.25 3.175
3.125 0.25 3.175
3.25 0.25 3.175
3.375 0.25 3.175
3.5 0.25 3.175
3.625 0.25 3.175
3.75 0.25 3.175
3.875 0.25 3.175
4 0.25 3.175
0 0.375 3.175
0.125 0.375 3.175
0.25 0.375 3.175
0.375 0.375 3.175
0.5 0.375 3.175
0.625 0.375 3.175
0.75 0.375 3.175
0.875 0.375 3.175
1 0.375 3.175
1.125 0.375 3.175
1.25 0.375 3.175
1.375 0.375 3.175
1.5 0.375 3.175
1.625 0.375 3.175
1.75 0.375 3.175
1.875 0.375 3.175
2 0.375 3.175
2.125 0.375 3.175
2.25 0.375 3.175
2.375 0.375 3.175
2.5 0.375 3.175
2.625 0.375 3.175
2.75 0.375 3.175
2.875 0.375 3.175
3 0.375 3.175
3.125 0.375 3.175
3.25 0.375 3.175
3.375 0.375 3.175
3.5 0.375 3.175
3.625 0.375 3.175
3.75 0.375 3.175
3.875 0.375 3.175
4 0.375 3.175
0 0.5 3.175
0.125 0.5 3.175
0.25 0.5 3.175
0.375 0.5 3.175
0.5 0.5 3.175
0.625 0.5 3.175
0.75 0.5 3.175
0.875 0.5 3.175
1 0.5 3.175
1.125 0.5 3.175
1.25 0.5 3.175
1.375 0.5 3.175
1.5 0.5 3.175
1.625 0.5 3.175
1.75 0.5 3.175
1.875 0.5 3.175
2 0.5 3.175
2.125 0.5 3.175
2.25 0.5 3.175
2.375 0.5 3.175
2.5 0.5 3.175
2.625 0.5 3.175
2.75 0.5 3.175
2.875 0.5 3.175
3 0.5 3.175
3.125 0.5 3.175
3.25 0.5 3.175
3.375 0.5 3.175
3.5 0.5 3.175
3.625 0.5 3.175
3.75 0.5 3.175
3.875 0.5 3.175
4 0.5 3.175
0 0.625 3.175
0.125 0.625 3.175
0.25 0.625 3.175
0.375 0.625 3.175
0.5 0.625 3.175
0.625 0.625 3.175
0.75 0.625 3.175
0.875 0.625 3.175
1 0.625 3.175
1.125 0.625 3.175
1.25 0.625 3.175
1.375 0.625 3.175
1.5 0.625 3.175
1.625 0.625 3.175
1.75 0.625 3.175
1.875 0.625 3.175
2 0.625 3.175
2.125 0.625 3.175
2.25 0.625 3.175
2.375 0.625 3.175
2.5 0.625 3.175
2.625 0.625 3.175
2.75 0.625 3.175
2.875 0.625 3.175
3 0.625 3.175
3.125 0.625 3.175
3.25 0.625 3.175
3.375 0.625 3.175
3.5 0.625 3.175
3.625 0.625 3.175
3.75 0.625 3.175
3.875 0.625 3.175
4 0.625 3.175
0 0.75 3.175
0.125 0.75 3.175
0.25 0.75 3.175
0.375 0.75 3.175
0.5 0.75 3.175
0.625 0.75 3.175
0.75 0.75 3.175
0.875 0.75 3.175
1 0.75 3.175
1.125 0.75 3.175
1.25 0.75 3.175
1.375 0.75 3.175
1.5 0.75 3.175
1.625 0.75 3.175
1.75 0.75 3.175
1.875 0.75 3.175
2 0.75 3.175
2.125 0.75 3.175
2.25 0.75 3.175
2.375 0.75 3.175
2.5 0.75 3.175
2.625 0.75 3.175
2.75 0.75 3.175
2.875 0.75 3.175
3 0.75 3.175
3.125 0.75 3.175
3.25 0.75 3.175
3.375 0.75 3.175
3.5 0.75 3.175
3.625 0.75 3.175
3.75 0.75 3.175
3.875 0.75 3.175
4 0.75 3.175
0 0.875 3.175
0.125 0.875 3.175
0.25 0.875 3.175
0.375 0.875 3.175
0.5 0.875 3.175
0.625 0.875 3.175
0.75 0.875 3.175
0.875 0.875 3.175
1 0.875 3.175
1.125 0.875 3.175
1.25 0.875 3.175
1.375 0.875 3.175
1.5 0.875 3.175
1.625 0.875 3.175
1.75 0.875 3.175
1.875 0.875 3.175
2 0.875 3.175
2.125 0.875 3.175
2.25 0.875 3.175
2.375 0.875 3.175
2.5 0.875 3.175
2.625 0.875 3.175
2.75 0.875 3.175
2.875 0.875 3.175
3 0.875 3.175
3.125 0.875 3.175
3.25 0.875 3.175
3.375 0.875 3.175
3.5 0.875 3.175
3.625 0.875 3.175
3.75 0.875 3.175
3.875 0.875 3.175
4 0.875 3.175
0 1 3.175
0.125 1 3.175
0.25 1 3.175
0.375 1 3.175
0.5 1 3.175
0.625 1 3.175
0.75 1 3.175
0.875 1 3.175
1 1 3.175
1.125 1 3.175
1.25 1 3.175
1.375 1 3.175
1.5 1 3.175
1.625 1 3.175
1.75 1 3.175
1.875 1 3.175
2 1 3.175
2.125 1 3.175
2.25 1 3.175
2.375 1 3.175
2.5 1 3.175
2.625 1 3.175
2.75 1 3.175
2.875 1 3.175
3 1 3.175
3.125 1 3.175
3.25 1 3.175
3.375 1 3.175
3.5 1 3.175
3.625 1 3.175
3.75 1 3.175
3.875 1 3.175
4 1 3.175
0 0 3.3
0.125 0 3.3
0.25 0 3.3
0.375 0 3.3
0.5 0 3.3
0.625 0 3.3
0.75 0 3.3
0.875 0 3.3
1 0 3.3
1.125 0 3.3
1.25 0 3.3
1.375 0 3.3
1.5 0 3.3
1.625 0 3.3
1.75 0 3.3
1.875 0 3.3
2 0 3.3
2.125 0 3.3
2.25 0 3.3
2.375 0 3.3
2.5 0 3.3
2.625 0 3.3
2.75 0 3.3
2.875 0 3.3
3 0 3.3
3.125 0 3.3
3.25 0 3.3
3.375 0 3.3
3.5 0 3.3
3.625 0 3.3
3.75 0 3.3
3.875 0 3.3
4 0 3.3
0 0.125 3.3
0.125 0.125 3.3
0.25 0.125 3.3
0.375 0.125 3.3
0.5 0.125 3.3
0.625 0.125 3.3
0.75 0.125 3.3
0.875 0.125 3.3
1 0.125 3.3
1.125 0.125 3.3
1.25 0.125 3.3
1.375 0.125 3.3
1.5 0.125 3.3
1.625 0.125 3.3
1.75 0.125 3.3
1.875 0.125 3.3
2 0.125 3.3
2.125 0.125 3.3
2.25 0.125 3.3
2.375 0.125 3.3
2.5 0.125 3.3
2.625 0.125 3.3
2.75 0.125 3.3
2.875 0.125 3.3
3 0.125 3.3
3.125 0.125 3.3
3.25 0.125 3.3
3.375 0.125 3.3
3.5 0.125 3.3
3.625 0.125 3.3
3.75 0.125 3.3
3.875 0.125 3.3
4 0.125 3.3
0 0.25 3.3
0.125 0.25 3.3
0.25 0.25 3.3
0.375 0.25 3.3
0.5 0.25 3.3
0.625 0.25 3.3
0.75 0.25 3.3
0.875 0.25 3.3
1 0.25 3.3
1.125 0.25 3.3
1.25 0.25 3.3
1.375 0.25 3.3
1.5 0.25 3.3
1.625 0.25 3.3
1.75 0.25 3.3
1.875 0.25 3.3
2 0.25 3.3
2.125 0.25 3.3
2.25 0.25 3.3
2.375 0.25 3.3
2.5 0.25 3.3
2.625 0.25 3.3
2.75 0.25 3.3
2.875 0.25 3.3
3 0.25 3.3
3.125 0.25 3.3
3.25 0.25 3.3
3.375 0.25 3.3
3.5 0.25 3.3
3.625 0.25 3.3
3.75 0.25 3.3
3.875 0.25 3.3
4 0.25 3.3
0 0.375 3.3
0.125 0.375 3.3
0.25 0.375 3.3
0.375 0.375 3.3
0.5 0.375 3.3
0.625 0.375 3.3
0.75 0.375 3.3
0.875 0.375 3.3
1 0.375 3.3
1.125 0.375 3.3
1.25 0.375 3.3
1.375 0.375 3.3
1.5 0.375 3.3
1.625 0.375 3.3
1.75 0.375 3.3
1.875 0.375 3.3
2 0.375 3.3
2.125 0.375 3.3
2.25 0.375 3.3
2.375 0.375 3.3
2.5 0.375 3.3
2.625 0.375 3.3
2.75 0.375 3.3
2.875 0.375 3.3
3 0.375 3.3
3.125 0.375 3.3
3.25 0.375 3.3
3.375 0.375 3.3
3.5 0.375 3.3
3.625 0.375 3.3
3.75 0.375 3.3
3.875 0.375 3.3
4 0.375 3.3
0 0.5 3.3
0.125 0.5 3.3
0.25 0.5 3.3
0.375 0.5 3.3
0.5 0.5 3.3
0.625 0.5 3.3
0.75 0.5 3.3
0.875 0.5 3.3
1 0.5 3.3
1.125 0.5 3.3
1.25 0.5 3.3
1.375 0.5 3.3
1.5 0.5 3.3
1.625 0.5 3.3
1.75 0.5 3.3
1.875 0.5 3.3
2 0.5 3.3
2.125 0.5 3.3
2.25 0.5 3.3
2.375 0.5 3.3
2.5 0.5 3.3
2.625 0.5 3.3
2.75 0.5 3.3
2.875 0.5 3.3
3 0.5 3.3
3.125 0.5 3.3
3.25 0.5 3.3
3.375 0.5 3.3
3.5 0.5 3.3
3.625 0.5 3.3
3.75 0.5 3.3
3.875 0.5 3.3
4 0.5 3.3
0 0.625 3.3
0.125 0.625 3.3
0.25 0.625 3.3
0.375 0.625 3.3
0.5 0.625 3.3
0.625 0.625 3.3
0.75 0.625 3.3
0.875 0.625 3.3
1 0.625 3.3
1.125 0.625 3.3
1.25 0.625 3.3
1.375 0.625 3.3
1.5 0.625 3.3
1.625 0.625 3.3
1.75 0.625 3.3
1.875 0.625 3.3
2 0.625 3.3
2.125 0.625 3.3
2.25 0.625 3.3
2.375 0.625 3.3
2.5 0.625 3.3
2.625 0.625 3.3
2.75 0.625 3.3
2.875 0.625 3.3
3 0.625 3.3
3.125 0.625 3.3
3.25 0.625 3.3
3.375 0.625 3.3
3.5 0.625 3.3
3.625 0.625 3.3
3.75 0.625 3.3
3.875 0.625 3.3
4 0.625 3.3
0 0.75 3.3
0.125 0.75 3.3
0.25 0.75 3.3
0.375 0.75 3.3
0.5 0.75 3.3
0.625 0.75 3.3
0.75 0.75 3.3
0.875 0.75 3.3
1 0.75 3.3
1.125 0.75 3.3
1.25 0.75 3.3
1.375 0.75 3.3
1.5 0.75 3.3
1.625 0.75 3.3
1.75 0.75 3.3
1.875 0.75 3.3
2 0.75 3.3
2.125 0.75 3.3
2.25 0.75 3.3
2.375 0.75 3.3
2.5 0.75 3.3
2.625 0.75 3.3
2.75 0.75 3.3
2.875 0.75 3.3
3 0.75 3.3
3.125 0.75 3.3
3.25 0.75 3.3
3.375 0.75 3.3
3.5 0.75 3.3
3.625 0.75 3.3
3.75 0.75 3.3
3.875 0.75 3.3
4 0.75 3.3
0 0.875 3.3
0.125 0.875 3.3
0.25 0.875 3.3
0.375 0.875 3.3
0.5 0.875 3.3
0.625 0.875 3.3
0.75 0.875 3.3
0.875 0.875 3.3
1 0.875 3.3
1.125 0.875 3.3
1.25 0.875 3.3
1.375 0.875 3.3
1.5 0.875 3.3
1.625 0.875 3.3
1.75 0.875 3.3
1.875 0.875 3.3
2 0.875 3.3
2.125 0.875 3.3
2.25 0.875 3.3
2.375 0.875 3.3
2.5 0.875 3.3
2.625 0.875 3.3
2.75 0.875 3.3
2.875 0.875 3.3
3 0.875 3.3
3.125 0.875 3.3
3.25 0.875 3.3
3.375 0.875 3.3
3.5 0.875 3.3
3.625 0.875 3.3
3.75 0.875 3.3
3.875 0.875 3.3
4 0.875 3.3
0 1 3.3
0.125 1 3.3
0.25 1 3.3
0.375 1 3.3
0.5 1 3.3
0.625 1 3.3
0.75 1 3.3
0.875 1 3.3
1 1 3.3
1.125 1 3.3
1.25 1 3.3
1.375 1 3.3
1.5 1 3.3
1.625 1 3.3
1.75 1 3.3
1.875 1 3.3
2 1 3.3
2.125 1 3.3
2.25 1 3.3
2.375 1 3.3
2.5 1 3.3
2.625 1 3.3
2.75 1 3.3
2.875 1 3.3
3 1 3.3
3.125 1 3.3
3.25 1 3.3
3.375 1 3.3
3.5 1 3.3
3.625 1 3.3
3.75 1 3.3
3.875 1 3.3
4 1 3.3

CELLS 2049 16384
OFFSETS vtktypeint64
0 8 16 24 32 40 48 56 64 72 80 88 96 104 112 120 128 136 144 152 160 168 176 184 192 200 208 216 224 232 240 248 256 264 272 280 288 296 304 312 320 328 336 344 352 360 368 376 384 392 400 408 416 424 432 440 448 456 464 472 480 488 496 504 512 520 528 536 544 552 560 568 576 584 592 600 608 616 624 632 640 648 656 664 672 680 688 696 704 712 720 728 736 744 752 760 768 776 784 792 800 808 816 824 832 840 848 856 864 872 880 888 896 904 912 920 928 936 944 952 960 968 976 984 992 1000 1008 1016 1024 1032 1040 1048 1056 1064 1072 1080 1088 1096 1104 1112 1120 1128 1136 1144 1152 1160 1168 1176 1184 1192 1200 1208 1216 1224 1232 1240 1248 1256 1264 1272 1280 1288 1296 1304 1312 1320 1328 1336 1344 1352 1360 1368 1376 1384 1392 1400 1408 1416 1424 1432 1440 1448 1456 1464 1472 1480 1488 1496 1504 1512 1520 1528 1536 1544 1552 1560 1568 1576 1584 1592 1600 1608 1616 1624 1632 1640 1648 1656 1664 1672 1680 1688 1696 1704 1712 1720 1728 1736 1744 1752 1760 1768 1776 1784 1792 1800 1808 1816 1824 1832 1840 1848 1856 1864 1872 1880 1888 1896 1904 1912 1920 1928 1936 1944 1952 1960 1968 1976 1984 1992 2000 2008 2016 2024 2032 2040 2048 2056 2064 2072 2080 2088 2096 2104 2112 2120 2128 2136 2144 2152 2160 2168 2176 2184 2192 2200 2208 2216 2224 2232 2240 2248 2256 2264 2272 2280 2288 2296 2304 2312 2320 2328 2336 2344 2352 2360 2368 2376 2384 2392 2400 2408 2416 2424 2432 2440 2448 2456 2464 2472 2480 2488 2496 2504 2512 2520 2528 2536 2544 2552 2560 2568 2576 2584 2592 2600 2608 2616 2624 2632 2640 2648 2656 2664 2672 2680 2688 2696 2704 2712 2720 2728 2736 2744 2752 2760 2768 2776 2784 2792 2800 2808 2816 2824 2832 2840 2848 2856 2864 2872 2880 2888 2896 2904 2912 2920 2928 2936 2944 2952 2960 2968 2976 2984 2992 3000 3008 3016 3024 3032 3040 3048 3056 3064 3072 3080 3088 3096 3104 3112 3120 3128 3136 3144 3152 3160 3168 3176 3184 3192 3200 3208 3216 3224 3232 3240 3248 3256 3264 3272 3280 3288 3296 3304 3312 3320 3328 3336 3344 3352 3360 3368 3376 3384 3392 3400 3408 3416 3424 3432 3440 3448 3456 3464 3472 3480 3488 3496 3504 3512 3520 3528 3536 3544 3552 3560 3568 3576 3584 3592 3600 3608 3616 3624 3632 3640 3648 3656 3664 3672 3680 3688 3696 3704 3712 3720 3728 3736 3744 3752 3760 3768 3776 3784 3792 3800 3808 3816 3824 3832 3840 3848 3856 3864 3872 3880 3888 3896 3904 3912 3920 3928 3936 3944 3952 3960 3968 3976 3984 3992 4000 4008 4016 4024 4032 4040 4048 4056 4064 4072 4080 4088 4096 4104 4112 4120 4128 4136 4144 4152 4160 4168 4176 4184 4192 4200 4208 4216 4224 4232 4240 4248 4256 4264 4272 4280 4288 4296 4304 4312 4320 4328 4336 4344 4352 4360 4368 4376 4384 4392 4400 4408 4416 4424 4432 4440 4448 4456 4464 4472 4480 4488 4496 4504 4512 4520 4528 4536 4544 4552 4560 4568 4576 4584 4592 4600 4608 4616 4624 4632 4640 4648 4656 4664 4672 4680 4688 4696 4704 4712 4720 4728 4736 4744 4752 4760 4768 4776 4784 4792 4800 4808 4816 4824 4832 4840 4848 4856 4864 4872 4880 4888 4896 4904 4912 4920 4928 4936 4944 4952 4960 4968 4976 4984 4992 5000 5008 5016 5024 5032 5040 5048 5056 5064 5072 5080 5088 5096 5104 5112 5120 5128 5136 5144 5152 5160 5168 5176 5184 5192 5200 5208 5216 5224 5232 5240 5248 5256 5264 5272 5280 5288 5296 5304 5312 5320 5328 5336 5344 5352 5360 5368 5376 5384 5392 5400 5408 5416 5424 5432 5440 5448 5456 5464 5472 5480 5488 5496 5504 5512 5520 5528 5536 5544 5552 5560 5568 5576 5584 5592 5600 5608 5616 5624 5632 5640 5648 5656 5664 5672 5680 5688 5696 5704 5712 5720 5728 5736 5744 5752 5760 5768 5776 5784 5792 5800 5808 5816 5824 5832 5840 5848 5856 5864 5872 5880 5888 5896 5904 5912 5920 5928 5936 5944 5952 5960 5968 5976 5984 5992 6000 6008 6016 6024 6032 6040 6048 6056 6064 6072 6080 6088 6096 6104 6112 6120 6128 6136 6144 6152 6160 6168 6176 6184 6192 6200 6208 6216 6224 6232 6240 6248 6256 6264 6272 6280 6288 6296 6304 6312 6320 6328 6336 6344 6352 6360 6368 6376 6384 6392 6400 6408 6416 6424 6432 6440 6448 6456 6464 6472 6480 6488 6496 6504 6512 6520 6528 6536 6544 6552 6560 6568 6576 6584 6592 6600 6608 6616 6624 6632 6640 6648 6656 6664 6672 6680 6688 6696 6704 6712 6720 6728 6736 6744 6752 6760 6768 6776 6784 6792 6800 6808 6816 6824 6832 6840 6848 6856 6864 6872 6880 6888 6896 6904 6912 6920 6928 6936 6944 6952 6960 6968 6976 6984 6992 7000 7008 7016 7024 7032 7040 7048 7056 7064 7072 7080 7088 7096 7104 7112 7120 7128 7136 7144 7152 7160 7168 7176 7184 7192 7200 7208 7216 7224 7232 7240 7248 7256 7264 7272 7280 7288 7296 7304 7312 7320 7328 7336 7344 7352 7360 7368 7376 7384 7392 7400 7408 7416 7424 7432 7440 7448 7456 7464 7472 7480 7488 7496 7504 7512 7520 7528 7536 7544 7552 7560 7568 7576 7584 7592 7600 7608 7616 7624 7632 7640 7648 7656 7664 7672 7680 7688 7696 7704 7712 7720 7728 7736 7744 7752 7760 7768 7776 7784 7792 7800 7808 7816 7824 7832 7840 7848 7856 7864 7872 7880 7888 7896 7904 7912 7920 7928 7936 7944 7952 7960 7968 7976 7984 7992 8000 8008 8016 8024 8032 8040 8048 8056 8064 8072 8080 8088 8096 8104 8112 8120 8128 8136 8144 8152 8160 8168 8176 8184 8192 8200 8208 8216 8224 8232 8240 8248 8256 8264 8272 8280 8288 8296 8304 8312 8320 8328 8336 8344 8352 8360 8368 8376 8384 8392 8400 8408 8416 8424 8432 8440 8448 8456 8464 8472 8480 8488 8496 8504 8512 8520 8528 8536 8544 8552 8560 8568 8576 8584 8592 8600 8608 8616 8624 8632 8640 8648 8656 8664 8672 8680 8688 8696 8704 8712 8720 8728 8736 8744 8752 8760 8768 8776 8784 8792 8800 8808 8816 8824 8832 8840 8848 8856 8864 8872 8880 8888 8896 8904 8912 8920 8928 8936 8944 8952 8960 8968 8976 8984 8992 9000 9008 9016 9024 9032 9040 9048 9056 9064 9072 9080 9088 9096 9104 9112 9120 9128 9136 9144 9152 9160 9168 9176 9184 9192 9200 9208 9216 9224 9232 9240 9248 9256 9264 9272 9280 9288 9296 9304 9312 9320 9328 9336 9344 9352 9360 9368 9376 9384 9392 9400 9408 9416 9424 9432 9440 9448 9456 9464 9472 9480 9488 9496 9504 9512 9520 9528 9536 9544 9552 9560 9568 9576 9584 9592 9600 9608 9616 9624 9632 9640 9648 9656 9664 9672 9680 9688 9696 9704 9712 9720 9728 9736 9744 9752 9760 9768 9776 9784 9792 9800 9808 9816 9824 9832 9840 9848 9856 9864 9872 9880 9888 9896 9904 9912 9920 9928 9936 9944 9952 9960 9968 9976 9984 9992 10000 10008 10016 10024 10032 10040 10048 10056 10064 10072 10080 10088 10096 10104 10112 10120 10128 10136 10144 10152 10160 10168 10176 10184 10192 10200 10208 10216 10224 10232 10240 10248 10256 10264 10272 10280 10288 10296 10304 10312 10320 10328 10336 10344 10352 10360 10368 10376 10384 10392 10400 10408 10416 10424 10432 10440 10448 10456 10464 10472 10480 10488 10496 10504 10512 10520 10528 10536 10544 10552 10560 10568 10576 10584 10592 10600 10608 10616 10624 10632 10640 10648 10656 10664 10672 10680 10688 10696 10704 10712 10720 10728 10736 10744 10752 10760 10768 10776 10784 10792 10800 10808 10816 10824 10832 10840 10848 10856 10864 10872 10880 10888 10896 10904 10912 10920 10928 10936 10944 10952 10960 10968 10976 10984 10992 11000 11008 11016 11024 11032 11040 11048 11056 11064 11072 11080 11088 11096 11104 11112 11120 11128 11136 11144 11152 11160 11168 11176 11184 11192 11200 11208 11216 11224 11232 11240 11248 11256 11264 11272 11280 11288 11296 11304 11312 11320 11328 11336 11344 11352 11360 11368 11376 11384 11392 11400 11408 11416 11424 11432 11440 11448 11456 11464 11472 11480 11488 11496 11504 11512 11520 11528 11536 11544 11552 11560 11568 11576 11584 11592 11600 11608 11616 11624 11632 11640 11648 11656 11664 11672 11680 11688 11696 11704 11712 11720 11728 11736 11744 11752 11760 11768 11776 11784 11792 11800 11808 11816 11824 11832 11840 11848 11856 11864 11872 11880 11888 11896 11904 11912 11920 11928 11936 11944 11952 11960 11968 11976 11984 11992 12000 12008 12016 12024 12032 12040 12048 12056 12064 12072 12080 12088 12096 12104 12112 12120 12128 12136 12144 12152 12160 12168 12176 12184 12192 12200 12208 12216 12224 12232 12240 12248 12256 12264 12272 12280 12288 12296 12304 12312 12320 12328 12336 12344 12352 12360 12368 12376 12384 12392 12400 12408 12416 12424 12432 12440 12448 12456 12464 12472 12480 12488 12496 12504 12512 12520 12528 12536 12544 12552 12560 12568 12576 12584 12592 12600 12608 12616 12624 12632 12640 12648 12656 12664 12672 12680 12688 12696 12704 12712 12720 12728 12736 12744 12752 12760 12768 12776 12784 12792 12800 12808 12816 12824 12832 12840 12848 12856 12864 12872 12880 12888 12896 12904 12912 12920 12928 12936 12944 12952 12960 12968 12976 12984 12992 13000 13008 13016 13024 13032 13040 13048 13056 13064 13072 13080 13088 13096 13104 13112 13120 13128 13136 13144 13152 13160 13168 13176 13184 13192 13200 13208 13216 13224 13232 13240 13248 13256 13264 13272 13280 13288 13296 13304 13312 13320 13328 13336 13344 13352 13360 13368 13376 13384 13392 13400 13408 13416 13424 13432 13440 13448 13456 13464 13472 13480 13488 13496 13504 13512 13520 13528 13536 13544 13552 13560 13568 13576 13584 13592 13600 13608 13616 13624 13632 13640 13648 13656 13664 13672 13680 13688 13696 13704 13712 13720 13728 13736 13744 13752 13760 13768 13776 13784 13792 13800 13808 13816 13824 13832 13840 13848 13856 13864 13872 13880 13888 13896 13904 13912 13920 13928 13936 13944 13952 13960 13968 13976 13984 13992 14000 14008 14016 14024 14032 14040 14048 14056 14064 14072 14080 14088 14096 14104 14112 14120 14128 14136 14144 14152 14160 14168 14176 14184 14192 14200 14208 14216 14224 14232 14240 14248 14256 14264 14272 14280 14288 14296 14304 14312 14320 14328 14336 14344 14352 14360 14368 14376 14384 14392 14400 14408 14416 14424 14432 14440 14448 14456 14464 14472 14480 14488 14496 14504 14512 14520 14528 14536 14544 14552 14560 14568 14576 14584 14592 14600 14608 14616 14624 14632 14640 14648 14656 14664 14672 14680 14688 14696 14704 14712 14720 14728 14736 14744 14752 14760 14768 14776 14784 14792 14800 14808 14816 14824 14832 14840 14848 14856 14864 14872 14880 14888 14896 14904 14912 14920 14928 14936 14944 14952 14960 14968 14976 14984 14992 15000 15008 15016 15024 15032 15040 15048 15056 15064 15072 15080 15088 15096 15104 15112 15120 15128 15136 15144 15152 15160 15168 15176 15184 15192 15200 15208 15216 15224 15232 15240 15248 15256 15264 15272 15280 15288 15296 15304 15312 15320 15328 15336 15344 15352 15360 15368 15376 15384 15392 15400 15408 15416 15424 15432 15440 15448 15456 15464 15472 15480 15488 15496 15504 15512 15520 15528 15536 15544 15552 15560 15568 15576 15584 15592 15600 15608 15616 15624 15632 15640 15648 15656 15664 15672 15680 15688 15696 15704 15712 15720 15728 15736 15744 15752 15760 15768 15776 15784 15792 15800 15808 15816 15824 15832 15840 15848 15856 15864 15872 15880 15888 15896 15904 15912 15920 15928 15936 15944 15952 15960 15968 15976 15984 15992 16000 16008 16016 16024 16032 16040 16048 16056 16064 16072 16080 16088 16096 16104 16112 16120 16128 16136 16144 16152 16160 16168 16176 16184 16192 16200 16208 16216 16224 16232 16240 16248 16256 16264 16272 16280 16288 16296 16304 16312 16320 16328 16336 16344 16352 16360 16368 16376 16384 
CONNECTIVITY vtktypeint64
0 1 298 297 33 34 331 330 
1 2 299 298 34 35 332 331 
2 3 300 299 35 36 333 332 
3 4 301 300 36 37 334 333 
4 5 302 301 37 38 335 334 
5 6 303 302 38 39 336 335 
6 7 304 303 39 40 337 336 
7 8 305 304 40 41 338 337 
8 9 306 305 41 42 339 338 
9 10 307 306 42 43 340 339 
10 11 308 307 43 44 341 340 
11 12 309 308 44 45 342 341 
12 13 310 309 45 46 343 342 
13 14 311 310 46 47 344 343 
14 15 312 311 47 48 345 344 
15 16 313 312 48 49 346 345 
16 17 314 313 49 50 347 346 
17 18 315 314 50 51 348 347 
18 19 316 315 51 52 349 348 
19 20 317 316 52 53 350 349 
20 21 318 317 53 54 351 350 
21 22 319 318 54 55 352 351 
22 23 320 319 55 56 353 352 
23 24 321 320 56 57 354 353 
24 25 322 321 57 58 355 354 
25 26 323 322 58 59 356 355 
26 27 324 323 59 60 357 356 
27 28 325 324 60 61 358 357 
28 29 326 325 61 62 359 358 
29 30 327 326 62 63 360 359 
30 31 328 327 63 64 361 360 
31 32 329 328 64 65 362 361 
33 34 331 330 66 67 364 363 
34 35 332 331 67 68 365 364 
35 36 333 332 68 69 366 365 
36 37 334 333 69 70 367 366 
37 38 335 334 70 71 368 367 
38 39 336 335 71 72 369 368 
39 40 337 336 72 73 370 369 
40 41 338 337 73 74 371 370 
41 42 339 338 74 75 372 371 
42 43 340 339 75 76 373 372 
43 44 341 340 76 77 374 373 
44 45 342 341 77 78 375 374 
45 46 343 342 78 79 376 375 
46 47 344 343 79 80 377 376 
47 48 345 344 80 81 378 377 
48 49 346 345 81 82 379 378 
49 50 347 346 82 83 380 379 
50 51 348 347 83 84 381 380 
51 52 349 348 84 85 382 381 
52 53 350 349 85 86 383 382 
53 54 351 350 86 87 384 383 
54 55 352 351 87 88 385 384 
55 56 353 352 88 89 386 385 
56 57 354 353 89 90 387 386 
57 58 355 354 90 91 388 387 
58 59 356 355 91 92 389 388 
59 60 357 356 92 93 390 389 
60 61 358 357 93 94 391 390 
61 62 359 358 94 95 392 391 
62 63 360 359 95 96 393 392 
63 64 361 360 96 97 394 393 
64 65 362 361 97 98 395 394 
66 67 364 363 99 100 397 396 
67 68 365 364 100 101 398 397 
68 69 366 365 101 102 399 398 
69 70 367 366 102 103 400 399 
70 71 368 367 103 104 401 400 
71 72 369 368 104 105 402 401 
72 73 370 369 105 106 403 402 
73 74 371 370 106 107 404 403 
74 75 372 371 107 108 405 404 
75 76 373 372 108 109 406 405 
76 77 374 373 109 110 407 406 
77 78 375 374 110 111 408 407 
78 79 376 375 111 112 409 408 
79 80 377 376 112 113 410 409 
80 81 378 377 113 114 411 410 
81 82 379 378 114 115 412 411 
82 83 380 379 115 116 413 412 
83 84 381 380 116 117 414 413 
84 85 382 381 117 118 415 414 
85 86 383 382 118 119 416 415 
86 87 384 383 119 120 417 416 
87 88 385 384 120 121 418 417 
88 89 386 385 121 122 419 418 
89 90 387 386 122 123 420 419 
90 91 388 387 123 124 421 420 
91 92 389 388 124 125 422 421 
92 93 390 389 125 126 423 422 
93 94 391 390 126 127 424 423 
94 95 392 391 127 128 425 424 
95 96 393 392 128 129 426 425 
96 97 394 393 129 130 427 426 
97 98 395 394 130 131 428 427 
99 100 397 396 132 133 430 429 
100 101 398 397 133 134 431 430 
101 102 399 398 134 135 432 431 
102 103 400 399 135 136 433 432 
103 104 401 400 136 137 434 433 
104 105 402 401 137 138 435 434 
105 106 403 402 138 139 436 435 
106 107 404 403 139 140 437 436 
107 108 405 404 140 141 438 437 
108 109 406 405 141 142 439 438 
109 110 407 406 142 143 440 439 
110 111 408 407 143 144 441 440 
111 112 409 408 144 145 442 441 
112 113 410 409 145 146 443 442 
113 114 411 410 146 147 444 443 
114 115 412 411 147 148 445 444 
115 116 413 412 148 149 446 445 
116 117 414 413 149 150 447 446 
117 118 415 414 150 151 448 447 
118 119 416 415 151 152 449 448 
119 120 417 416 152 153 450 449 
120 121 418 417 153 154 451 450 
121 122 419 418 154 155 452 451 
122 123 420 419 155 156 453 452 
123 124 421 420 156 157 454 453 
124 125 422 421 157 158 455 454 
125 126 423 422 158 159 456 455 
126 127 424 423 159 160 457 456 
127 128 425 424 160 161 458 457 
128 129 426 425 161 162 459 458 
129 130 427 426 162 163 460 459 
130 131 428 427 163 164 461 460 
132 133 430 429 165 166 463 462 
133 134 431 430 166 167 464 463 
134 135 432 431 167 168 465 464 
135 136 433 432 168 169 466 465 
136 137 434 433 169 170 467 466 
137 138 435 434 170 171 468 467 
138 139 436 435 171 172 469 468 
139 140 437 436 172 173 470 469 
140 141 438 437 173 174 471 470 
141 142 439 438 174 175 472 471 
142 143 440 439 175 176 473 472 
143 144 441 440 176 177 474 473 
144 145 442 441 177 178 475 474 
145 146 443 442 178 179 476 475 
146 147 444 443 179 180 477 476 
147 148 445 444 180 181 478 477 
148 149 446 445 181 182 479 478 
149 150 447 446 182 183 480 479 
150 151 448 447 183 184 481 480 
151 152 449 448 184 185 482 481 
152 153 450 449 185 186 483 482 
153 154 451 450 186 187 484 483 
154 155 452 451 187 188 485 484 
155 156 453 452 188 189 486 485 
156 157 454 453 189 190 487 486 
157 158 455 454 190 191 488 487 
158 159 456 455 191 192 489 488 
159 160 457 456 192 193 490 489 
160 161 458 457 193 194 491 490 
161 162 459 458 194 195 492 491 
162 163 460 459 195 196 493 492 
163 164 461 460 196 197 494 493 
165 166 463 462 198 199 496 495 
166 167 464 463 199 200 497 496 
167 168 465 464 200 201 498 497 
168 169 466 465 201 202 499 498 
169 170 467 466 202 203 500 499 
170 171 468 467 203 204 501 500 
171 172 469 468 204 205 502 501 
172 173 470 469 205 206 503 502 
173 174 471 470 206 207 504 503 
174 175 472 471 207 208 505 504 
175 176 473 472 208 209 506 505 
176 177 474 473 209 210 507 506 
177 178 475 474 210 211 508 507 
178 179 476 475 211 212 509 508 
179 180 477 476 212 213 510 509 
180 181 478 477 213 214 511 510 
181 182 479 478 214 215 512 511 
182 183 480 479 215 216 513 512 
183 184 481 480 216 217 514 513 
184 185 482 481 217 218 515 514 
185 186 483 482 218 219 516 515 
186 187 484 483 219 220 517 516 
187 188 485 484 220 221 518 517 
188 189 486 485 221 222 519 518 
189 190 487 486 222 223 520 519 
190 191 488 487 223 224 521 520 
191 192 489 488 224 225 522 521 
192 193 490 489 225 226 523 522 
193 194 491 490 226 227 524 523 
194 195 492 491 227 228 525 524 
195 196 493 492 228 229 526 525 
196 197 494 493 229 230 527 526 
198 199 496 495 231 232 529 528 
199 200 497 496 232 233 530 529 
200 201 498 497 233 234 531 530 
201 202 499 498 234 235 532 531 
202 203 500 499 235 236 533 532 
203 204 501 500 236 237 534 533 
204 205 502 501 237 238 535 534 
205 206 503 502 238 239 536 535 
206 207 504 503 239 240 537 536 
207 208 505 504 240 241 538 537 
208 209 506 505 241 242 539 538 
209 210 507 506 242 243 540 539 
210 211 508 507 243 244 541 540 
211 212 509 508 244 245 542 541 
212 213 510 509 245 246 543 542 
213 214 511 510 246 247 544 543 
214 215 512 511 247 248 545 544 
215 216 513 512 248 249 546 545 
216 217 514 513 249 250 547 546 
217 218 515 514 250 251 548 547 
218 219 516 515 251 252 549 548 
219 220 517 516 252 253 550 549 
220 221 518 517 253 254 551 550 
221 222 519 518 254 255 552 551 
222 223 520 519 255 256 553 552 
223 224 521 520 256 257 554 553 
224 225 522 521 257 258 555 554 
225 226 523 522 258 259 556 555 
226 227 524 523 259 260 557 556 
227 228 525 524 260 261 558 557 
228 229 526 525 261 262 559 558 
229 230 527 526 262 263 560 559 
231 232 529 528 264 265 562 561 
232 233 530 529 265 266 563 562 
233 234 531 530 266 267 564 563 
234 235 532 531 267 268 565 564 
235 236 533 532 268 269 566 565 
236 237 534 533 269 270 567 566 
237 238 535 534 270 271 568 567 
238 239 536 535 271 272 569 568 
239 240 537 536 272 273 570 569 
240 241 538 537 273 274 571 570 
241 242 539 538 274 275 572 571 
242 243 540 539 275 276 573 572 
243 244 541 540 276 277 574 573 
244 245 542 541 277 278 575 574 
245 246 543 542 278 279 576 575 
246 247 544 543 279 280 577 576 
247 248 545 544 280 281 578 577 
248 249 546 545 281 282 579 578 
249 250 547 546 282 283 580 579 
250 251 548 547 283 284 581 580 
251 252 549 548 284 285 582 581 
252 253 550 549 285 286 583 582 
253 254 551 550 286 287 584 583 
254 255 552 551 287 288 585 584 
255 256 553 552 288 289 586 585 
256 257 554 553 289 290 587 586 
257 258 555 554 290 291 588 587 
258 259 556 555 291 292 589 588 
259 260 557 556 292 293 590 589 
260 261 558 557 293 294 591 590 
261 262 559 558 294 295 592 591 
262 263 560 559 295 296 593 592 
297 298 595 594 330 331 628 627 
298 299 596 595 331 332 629 628 
299 300 597 596 332 333 630 629 
300 301 598 597 333 334 631 630 
301 302 599 598 334 335 632 631 
302 303 600 599 335 336 633 632 
303 304 601 600 336 337 634 633 
304 305 602 601 337 338 635 634 
305 306 603 602 338 339 636 635 
306 307 604 603 339 340 637 636 
307 308 605 604 340 341 638 637 
308 309 606 605 341 342 639 638 
309 310 607 606 342 343 640 639 
310 311 608 607 343 344 641 640 
311 312 609 608 344 345 642 641 
312 313 610 609 345 346 643 642 
313 314 611 610 346 347 644 643 
314 315 612 611 347 348 645 644 
315 316 613 612 348 349 646 645 
316 317 614 613 349 350 647 646 
317 318 615 614 350 351 648 647 
318 319 616 615 351 352 649 648 
319 320 617 616 352 353 650 649 
320 321 618 617 353 354 651 650 
321 322 619 618 354 355 652 651 
322 323 620 619 355 356 653 652 
323 324 621 620 356 357 654 653 
324 325 622 621 357 358 655 654 
325 326 623 622 358 359 656 655 
326 327 624 623 359 360 657 656 
327 328 625 624 360 361 658 657 
328 329 626 625 361 362 659 658 
330 331 628 627 363 364 661 660 
331 332 629 628 364 365 662 661 
332 333 630 629 365 366 663 662 
333 334 631 630 366 367 664 663 
334 335 632 631 367 368 665 664 
335 336 633 632 368 369 666 665 
336 337 634 633 369 370 667 666 
337 338 635 634 370 371 668 667 
338 339 636 635 371 372 669 668 
339 340 637 636 372 373 670 669 
340 341 638 637 373 374 671 670 
341 342 639 638 374 375 672 671 
342 343 640 639 375 376 673 672 
343 344 641 640 376 377 674 673 
344 345 642 641 377 378 675 674 
345 346 643 642 378 379 676 675 
346 347 644 643 379 380 677 676 
347 348 645 644 380 381 678 677 
348 349 646 645 381 382 679 678 
349 350 647 646 382 383 680 679 
350 351 648 647 383 384 681 680 
351 352 649 648 384 385 682 681 
352 353 650 649 385 386 683 682 
353 354 651 650 386 387 684 683 
354 355 652 651 387 388 685 684 
355 356 653 652 388 389 686 685 
356 357 654 653 389 390 687 686 
357 358 655 654 390 391 688 687 
358 359 656 655 391 392 689 688 
359 360 657 656 392 393 690 689 
360 361 658 657 393 394 691 690 
361 362 659 658 394 395 692 691 
363 364 661 660 396 397 694 693 
364 365 662 661 397 398 695 694 
365 366 663 662 398 399 696 695 
366 367 664 663 399 400 697 696 
367 368 665 664 400 401 698 697 
368 369 666 665 401 402 699 698 
369 370 667 666 402 403 700 699 
370 371 668 667 403 404 701 700 
371 372 669 668 404 405 702 701 
372 373 670 669 405 406 703 702 
373 374 671 670 406 407 704 703 
374 375 672 671 407 408 705 704 
375 376 673 672 408 409 706 705 
376 377 674 673 409 410 707 706 
377 378 675 674 410 411 708 707 
378 379 676 675 411 412 709 708 
379 380 677 676 412 413 710 709 
380 381 678 677 413 414 711 710 
381 382 679 678 414 415 712 711 
382 383 680 679 415 416 713 712 
383 384 681 680 416 417 714 713 
384 385 682 681 417 418 715 714 
385 386 683 682 418 419 716 715 
386 387 684 683 419 420 717 716 
387 388 685 684 420 421 718 717 
388 389 686 685 421 422 719 718 
389 390 687 686 422 423 720 719 
390 391 688 687 423 424 721 720 
391 392 689 688 424 425 722 721 
392 393 690 689 425 426 723 722 
393 394 691 690 426 427 724 723 
394 395 692 691 427 428 725 724 
396 397 694 693 429 430 727 726 
397 398 695 694 430 431 728 727 
398 399 696 695 431 432 729 728 
399 400 697 696 432 433 730 729 
400 401 698 697 433 434 731 730 
401 402 699 698 434 435 732 731 
402 403 700 699 435 436 733 732 
403 404 701 700 436 437 734 733 
404 405 702 701 437 438 735 734 
405 406 703 702 438 439 736 735 
406 407 704 703 439 440 737 736 
407 408 705 704 440 441 738 737 
408 409 706 705 441 442 739 738 
409 410 707 706 442 443 740 739 
410 411 708 707 443 444 741 740 
411 412 709 708 444 445 742 741 
412 413 710 709 445 446 743 742 
413 414 711 710 446 447 744 743 
414 415 712 711 447 448 745 744 
415 416 713 712 448 449 746 745 
416 417 714 713 449 450 747 746 
417 418 715 714 450 451 748 747 
418 419 716 715 451 452 749 748 
419 420 717 716 452 453 750 749 
420 421 718 717 453 454 751 750 
421 422 719 718 454 455 752 751 
422 423 720 719 455 456 753 752 
423 424 721 720 456 457 754 753 
424 425 722 721 457 458 755 754 
425 426 723 722 458 459 756 755 
426 427 724 723 459 460 757 756 
427 428 725 724 460 461 758 757 
429 430 727 726 462 463 760 759 
430 431 728 727 463 464 761 760 
431 432 729 728 464 465 762 761 
432 433 730 729 465 466 763 762 
433 434 731 730 466 467 764 763 
434 435 732 731 467 468 765 764 
435 436 733 732 468 469 766 765 
436 437 734 733 469 470 767 766 
437 438 735 734 470 471 768 767 
438 439 736 735 471 472 769 768 
439 440 737 736 472 473 770 769 
440 441 738 737 473 474 771 770 
441 442 739 738 474 475 772 771 
442 443 740 739 475 476 773 772 
443 444 741 740 476 477 774 773 
444 445 742 741 477 478 775 774 
445 446 743 742 478 479 776 775 
446 447 744 743 479 480 777 776 
447 448 745 744 480 481 778 777 
448 449 746 745 481 482 779 778 
449 450 747 746 482 483 780 779 
450 451 748 747 483 484 781 780 
451 452 749 748 484 485 782 781 
452 453 750 749 485 486 783 782 
453 454 751 750 486 487 784 783 
454 455 752 751 487 488 785 784 
455 456 753 752 488 489 786 785 
456 457 754 753 489 490 787 786 
457 458 755 754 490 491 788 787 
458 459 756 755 491 492 789 788 
459 460 757 756 492 493 790 789 
460 461 758 757 493 494 791 790 
462 463 760 759 495 496 793 792 
463 464 761 760 496 497 794 793 
464 465 762 761 497 498 795 794 
465 466 763 762 498 499 796 795 
466 467 764 763 499 500 797 796 
467 468 765 764 500 501 798 797 
468 469 766 765 501 502 799 798 
469 470 767 766 502 503 800 799 
470 471 768 767 503 504 801 800 
471 472 769 768 504 505 802 801 
472 473 770 769 505 506 803 802 
473 474 771 770 506 507 804 803 
474 475 772 771 507 508 805 804 
475 476 773 772 508 509 806 805 
476 477 774 773 509 510 807 806 
477 478 775 774 510 511 808 807 
478 479 776 775 511 512 809 808 
479 480 777 776 512 513 810 809 
480 481 778 777 513 514 811 810 
481 482 779 778 514 515 812 811 
482 483 780 779 515 516 813 812 
483 484 781 780 516 517 814 813 
484 485 782 781 517 518 815 814 
485 486 783 782 518 519 816 815 
486 487 784 783 519 520 817 816 
487 488 785 784 520 521 818 817 
488 489 786 785 521 522 819 818 
489 490 787 786 522 523 820 819 
490 491 788 787 523 524 821 820 
491 492 789 788 524 525 822 821 
492 493 790 789 525 526 823 822 
493 494 791 790 526 527 824 823 
495 496 793 792 528 529 826 825 
496 497 794 793 529 530 827 826 
497 498 795 794 530 531 828 827 
498 499 796 795 531 532 829 828 
499 500 797 796 532 533 830 829 
500 501 798 797 533 534 831 830 
501 502 799 798 534 535 832 831 
502 503 800 799 535 536 833 832 
503 504 801 800 536 537 834 833 
504 505 802 801 537 538 835 834 
505 506 803 802 538 539 836 835 
506 507 804 803 539 540 837 836 
507 508 805 804 540 541 838 837 
508 509 806 805 541 542 839 838 
509 510 807 806 542 543 840 839 
510 511 808 807 543 544 841 840 
511 512 809 808 544 545 842 841 
512 513 810 809 545 546 843 842 
513 514 811 810 546 547 844 843 
514 515 812 811 547 548 845 844 
515 516 813 812 548 549 846 845 
516 517 814 813 549 550 847 846 
517 518 815 814 550 551 848 847 
518 519 816 815 551 552 849 848 
519 520 817 816 552 553 850 849 
520 521 818 817 553 554 851 850 
521 522 819 818 554 555 852 851 
522 523 820 819 555 556 853 852 
523 524 821 820 556 557 854 853 
524 525 822 821 557 558 855 854 
525 526 823 822 558 559 856 855 
526 527 824 823 559 560 857 856 
528 529 826 825 561 562 859 858 
529 530 827 826 562 563 860 859 
530 531 828 827 563 564 861 860 
531 532 829 828 564 565 862 861 
532 533 830 829 565 566 863 862 
533 534 831 830 566 567 864 863 
534 535 832 831 567 568 865 864 
535 536 833 832 568 569 866 865 
536 537 834 833 569 570 867 866 
537 538 835 834 570 571 868 867 
538 539 836 835 571 572 869 868 
539 540 837 836 572 573 870 869 
540 541 838 837 573 574 871 870 
541 542 839 838 574 575 872 871 
542 543 840 839 575 576 873 872 
543 544 841 840 576 577 874 873 
544 545 842 841 577 578 875 874 
545 546 843 842 578 579 876 875 
546 547 844 843 579 580 877 876 
547 548 845 844 580 581 878 877 
548 549 846 845 581 582 879 878 
549 550 847 846 582 583 880 879 
550 551 848 847 583 584 881 880 
551 552 849 848 584 585 882 881 
552 553 850 849 585 586 883 882 
553 554 851 850 586 587 884 883 
554 555 852 851 587 588 885 884 
555 556 853 852 588 589 886 885 
556 557 854 853 589 590 887 886 
557 558 855 854 590 591 888 887 
558 559 856 855 591 592 889 888 
559 560 857 856 592 593 890 889 
594 595 892 891 627 628 925 924 
595 596 893 892 628 629 926 925 
596 597 894 893 629 630 927 926 
597 598 895 894 630 631 928 927 
598 599 896 895 631 632 929 928 
599 600 897 896 632 633 930 929 
600 601 898 897 633 634 931 930 
601 602 899 898 634 635 932 931 
602 603 900 899 635 636 933 932 
603 604 901 900 636 637 934 933 
604 605 902 901 637 638 935 934 
605 606 903 902 638 639 936 935 
606 607 904 903 639 640 937 936 
607 608 905 904 640 641 938 937 
608 609 906 905 641 642 939 938 
609 610 907 906 642 643 940 939 
610 611 908 907 643 644 941 940 
611 612 909 908 644 645 942 941 
612 613 910 909 645 646 943 942 
613 614 911 910 646 647 944 943 
614 615 912 911 647 648 945 944 
615 616 913 912 648 649 946 945 
616 617 914 913 649 650 947 946 
617 618 915 914 650 651 948 947 
618 619 916 915 651 652 949 948 
619 620 917 916 652 653 950 949 
620 621 918 917 653 654 951 950 
621 622 919 918 654 655 952 951 
622 623 920 919 655 656 953 952 
623 624 921 920 656 657 954 953 
624 625 922 921 657 658 955 954 
625 626 923 922 658 659 956 955 
627 628 925 924 660 661 958 957 
628 629 926 925 661 662 959 958 
629 630 927 926 662 663 960 959 
630 631 928 927 663 664 961 960 
631 632 929 928 664 665 962 961 
632 633 930 929 665 666 963 962 
633 634 931 930 666 667 964 963 
634 635 932 931 667 668 965 964 
635 636 933 932 668 669 966 965 
636 637 934 933 669 670 967 966 
637 638 935 934 670 671 968 967 
638 639 936 935 671 672 969 968 
639 640 937 936 672 673 970 969 
640 641 938 937 673 674 971 970 
641 642 939 938 674 675 972 971 
642 643 940 939 675 676 973 972 
643 644 941 940 676 677 974 973 
644 645 942 941 677 678 975 974 
645 646 943 942 678 679 976 975 
646 647 944 943 679 680 977 976 
647 648 945 944 680 681 978 977 
648 649 946 945 681 682 979 978 
649 650 947 946 682 683 980 979 
650 651 948 947 683 684 981 980 
651 652 949 948 684 685 982 981 
652 653 950 949 685 686 983 982 
653 654 951 950 686 687 984 983 
654 655 952 951 687 688 985 984 
655 656 953 952 688 689 986 985 
656 657 954 953 689 690 987 986 
657 658 955 954 690 691 988 987 
658 659 956 955 691 692 989 988 
660 661 958 957 693 694 991 990 
661 662 959 958 694 695 992 991 
662 663 960 959 695 696 993 992 
663 664 961 960 696 697 994 993 
664 665 962 961 697 698 995 994 
665 666 963 962 698 699 996 995 
666 667 964 963 699 700 997 996 
667 668 965 964 700 701 998 997 
668 669 966 965 701 702 999 998 
669 670 967 966 702 703 1000 999 
670 671 968 967 703 704 1001 1000 
671 672 969 968 704 705 1002 1001 
672 673 970 969 705 706 1003 1002 
673 674 971 970 706 707 1004 1003 
674 675 972 971 707 708 1005 1004 
675 676 973 972 708 709 1006 1005 
676 677 974 973 709 710 1007 1006 
677 678 975 974 710 711 1008 1007 
678 679 976 975 711 712 1009 1008 
679 680 977 976 712 713 1010 1009 
680 681 978 977 713 714 1011 1010 
681 682 979 978 714 715 1012 1011 
682 683 980 979 715 716 1013 1012 
683 684 981 980 716 717 1014 1013 
684 685 982 981 717 718 1015 1014 
685 686 983 982 718 719 1016 1015 
686 687 984 983 719 720 1017 1016 
687 688 985 984 720 721 1018 1017 
688 689 986 985 721 722 1019 1018 
689 690 987 986 722 723 1020 1019 
690 691 988 987 723 724 1021 1020 
691 692 989 988 724 725 1022 1021 
693 694 991 990 726 727 1024 1023 
694 695 992 991 727 728 1025 1024 
695 696 993 992 728 729 1026 1025 
696 697 994 993 729 730 1027 1026 
697 698 995 994 730 731 1028 1027 
698 699 996 995 731 732 1029 1028 
699 700 997 996 732 733 1030 1029 
700 701 998 997 733 734 1031 1030 
701 702 999 998 734 735 1032 1031 
702 703 1000 999 735 736 1033 1032 
703 704 1001 1000 736 737 1034 1033 
704 705 1002 1001 737 738 1035 1034 
705 706 1003 1002 738 739 1036 1035 
706 707 1004 1003 739 740 1037 1036 
707 708 1005 1004 740 741 1038 1037 
708 709 1006 1005 741 742 1039 1038 
709 710 1007 1006 742 743 1040 1039 
710 711 1008 1007 743 744 1041 1040 
711 712 1009 1008 744 745 1042 1041 
712 713 1010 1009 745 746 1043 1042 
713 714 1011 1010 746 747 1044 1043 
714 715 1012 1011 747 748 1045 1044 
715 716 1013 1012 748 749 1046 1045 
716 717 1014 1013 749 750 1047 1046 
717 718 1015 1014 750 751 1048 1047 
718 719 1016 1015 751 752 1049 1048 
719 720 1017 1016 752 753 1050 1049 
720 721 1018 1017 753 754 1051 1050 
721 722 1019 1018 754 755 1052 1051 
722 723 1020 1019 755 756 1053 1052 
723 724 1021 1020 756 757 1054 1053 
724 725 1022 1021 757 758 1055 1054 
726 727 1024 1023 759 760 1057 1056 
727 728 1025 1024 760 761 1058 1057 
728 729 1026 1025 761 762 1059 1058 
729 730 1027 1026 762 763 1060 1059 
730 731 1028 1027 763 764 1061 1060 
731 732 1029 1028 764 765 1062 1061 
732 733 1030 1029 765 766 1063 1062 
733 734 1031 1030 766 767 1064 1063 
734 735 1032 1031 767 768 1065 1064 
735 736 1033 1032 768 769 1066 1065 
736 737 1034 1033 769 770 1067 1066 
737 738 1035 1034 770 771 1068 1067 
738 739 1036 1035 771 772 1069 1068 
739 740 1037 1036 772 773 1070 1069 
740 741 1038 1037 773 774 1071 1070 
741 742 1039 1038 774 775 1072 1071 
742 743 1040 1039 775 776 1073 1072 
743 744 1041 1040 776 777 1074 1073 
744 745 1042 1041 777 778 1075 1074 
745 746 1043 1042 778 779 1076 1075 
746 747 1044 1043 779 780 1077 1076 
747 748 1045 1044 780 781 1078 1077 
748 749 1046 1045 781 782 1079 1078 
749 750 1047 1046 782 783 1080 1079 
750 751 1048 1047 783 784 1081 1080 
751 752 1049 1048 784 785 1082 1081 
752 753 1050 1049 785 786 1083 1082 
753 754 1051 1050 786 787 1084 1083 
754 755 1052 1051 787 788 1085 1084 
755 756 1053 1052 788 789 1086 1085 
756 757 1054 1053 789 790 1087 1086 
757 758 1055 1054 790 791 1088 1087 
759 760 1057 1056 792 793 1090 1089 
760 761 1058 1057 793 794 1091 1090 
761 762 1059 1058 794 795 1092 1091 
762 763 1060 1059 795 796 1093 1092 
763 764 1061 1060 796 797 1094 1093 
764 765 1062 1061 797 798 1095 1094 
765 766 1063 1062 798 799 1096 1095 
766 767 1064 1063 799 800 1097 1096 
767 768 1065 1064 800 801 1098 1097 
768 769 1066 1065 801 802 1099 1098 
769 770 1067 1066 802 803 1100 1099 
770 771 1068 1067 803 804 1101 1100 
771 772 1069 1068 804 805 1102 1101 
772 773 1070 1069 805 806 1103 1102 
773 774 1071 1070 806 807 1104 1103 
774 775 1072 1071 807 808 1105 1104 
775 776 1073 1072 808 809 1106 1105 
776 777 1074 1073 809 810 1107 1106 
777 778 1075 1074 810 811 1108 1107 
778 779 1076 1075 811 812 1109 1108 
779 780 1077 1076 812 813 1110 1109 
780 781 1078 1077 813 814 1111 1110 
781 782 1079 1078 814 815 1112 1111 
782 783 1080 1079 815 816 1113 1112 
783 784 1081 1080 816 817 1114 1113 
784 785 1082 1081 817 818 1115 1114 
785 786 1083 1082 818 819 1116 1115 
786 787 1084 1083 819 820 1117 1116 
787 788 1085 1084 820 821 1118 1117 
788 789 1086 1085 821 822 1119 1118 
789 790 1087 1086 822 823 1120 1119 
790 791 1088 1087 823 824 1121 1120 
792 793 1090 1089 825 826 1123 1122 
793 794 1091 1090 826 827 1124 1123 
794 795 1092 1091 827 828 1125 1124 
795 796 1093 1092 828 829 1126 1125 
796 797 1094 1093 829 830 1127 1126 
797 798 1095 1094 830 831 1128 1127 
798 799 1096 1095 831 832 1129 1128 
799 800 1097 1096 832 833 1130 1129 
800 801 1098 1097 833 834 1131 1130 
801 802 1099 1098 834 835 1132 1131 
802 803 1100 1099 835 836 1133 1132 
803 804 1101 1100 836 837 1134 1133 
804 805 1102 1101 837 838 1135 1134 
805 806 1103 1102 838 839 1136 1135 
806 807 1104 1103 839 840 1137 1136 
807 808 1105 1104 840 841 1138 1137 
808 809 1106 1105 841 842 1139 1138 
809 810 1107 1106 842 843 1140 1139 
810 811 1108 1107 843 844 1141 1140 
811 812 1109 1108 844 845 1142 1141 
812 813 1110 1109 845 846 1143 1142 
813 814 1111 1110 846 847 1144 1143 
814 815 1112 1111 847 848 1145 1144 
815 816 1113 1112 848 849 1146 1145 
816 817 1114 1113 849 850 1147 1146 
817 818 1115 1114 850 851 1148 1147 
818 819 1116 1115 851 852 1149 1148 
819 820 1117 1116 852 853 1150 1149 
820 821 1118 1117 853 854 1151 1150 
821 822 1119 1118 854 855 1152 1151 
822 823 1120 1119 855 856 1153 1152 
823 824 1121 1120 856 857 1154 1153 
825 826 1123 1122 858 859 1156 1155 
826 827 1124 1123 859 860 1157 1156 
827 828 1125 1124 860 861 1158 1157 
828 829 1126 1125 861 862 1159 1158 
829 830 1127 1126 862 863 1160 1159 
830 831 1128 1127 863 864 1161 1160 
831 832 1129 1128 864 865 1162 1161 
832 833 1130 1129 865 866 1163 1162 
833 834 1131 1130 866 867 1164 1163 
834 835 1132 1131 867 868 1165 1164 
835 836 1133 1132 868 869 1166 1165 
836 837 1134 1133 869 870 1167 1166 
837 838 1135 1134 870 871 1168 1167 
838 839 1136 1135 871 872 1169 1168 
839 840 1137 1136 872 873 1170 1169 
840 841 1138 1137 873 874 1171 1170 
841 842 1139 1138 874 875 1172 1171 
842 843 1140 1139 875 876 1173 1172 
843 844 1141 1140 876 877 1174 1173 
844 845 1142 1141 877 878 1175 1174 
845 846 1143 1142 878 879 1176 1175 
846 847 1144 1143 879 880 1177 1176 
847 848 1145 1144 880 881 1178 1177 
848 849 1146 1145 881 882 1179 1178 
849 850 1147 1146 882 883 1180 1179 
850 851 1148 1147 883 884 1181 1180 
851 852 1149 1148 884 885 1182 1181 
852 853 1150 1149 885 886 1183 1182 
853 854 1151 1150 886 887 1184 1183 
854 855 1152 1151 887 888 1185 1184 
855 856 1153 1152 888 889 1186 1185 
856 857 1154 1153 889 890 1187 1186 
891 892 1189 1188 924 925 1222 1221 
892 893 1190 1189 925 926 1223 1222 
893 894 1191 1190 926 927 1224 1223 
894 895 1192 1191 927 928 1225 1224 
895 896 1193 1192 928 929 1226 1225 
896 897 1194 1193 929 930 1227 1226 
897 898 1195 1194 930 931 1228 1227 
898 899 1196 1195 931 932 1229 1228 
899 900 1197 1196 932 933 1230 1229 
900 901 1198 1197 933 934 1231 1230 
901 902 1199 1198 934 935 1232 1231 
902 903 1200 1199 935 936 1233 1232 
903 904 1201 1200 936 937 1234 1233 
904 905 1202 1201 937 938 1235 1234 
905 906 1203 1202 938 939 1236 1235 
906 907 1204 1203 939 940 1237 1236 
907 908 1205 1204 940 941 1238 1237 
908 909 1206 1205 941 942 1239 1238 
909 910 1207 1206 942 943 1240 1239 
910 911 1208 1207 943 944 1241 1240 
911 912 1209 1208 944 945 1242 1241 
912 913 1210 1209 945 946 1243 1242 
913 914 1211 1210 946 947 1244 1243 
914 915 1212 1211 947 948 1245 1244 
915 916 1213 1212 948 949 1246 1245 
916 917 1214 1213 949 950 1247 1246 
917 918 1215 1214 950 951 1248 1247 
918 919 1216 1215 951 952 1249 1248 
919 920 1217 1216 952 953 1250 1249 
920 921 1218 1217 953 954 1251 1250 
921 922 1219 1218 954 955 1252 1251 
922 923 1220 1219 955 956 1253 1252 
924 925 1222 1221 957 958 1255 1254 
925 926 1223 1222 958 959 1256 1255 
926 927 1224 1223 959 960 1257 1256 
927 928 1225 1224 960 961 1258 1257 
928 929 1226 1225 961 962 1259 1258 
929 930 1227 1226 962 963 1260 1259 
930 931 1228 1227 963 964 1261 1260 
931 932 1229 1228 964 965 1262 1261 
932 933 1230 1229 965 966 1263 1262 
933 934 1231 1230 966 967 1264 1263 
934 935 1232 1231 967 968 1265 1264 
935 936 1233 1232 968 969 1266 1265 
936 937 1234 1233 969 970 1267 1266 
937 938 1235 1234 970 971 1268 1267 
938 939 1236 1235 971 972 1269 1268 
939 940 1237 1236 972 973 1270 1269 
940 941 1238 1237 973 974 1271 1270 
941 942 1239 1238 974 975 1272 1271 
942 943 1240 1239 975 976 1273 1272 
943 944 1241 1240 976 977 1274 1273 
944 945 1242 1241 977 978 1275 1274 
945 946 1243 1242 978 979 1276 1275 
946 947 1244 1243 979 980 1277 1276 
947 948 1245 1244 980 981 1278 1277 
948 949 1246 1245 981 982 1279 1278 
949 950 1247 1246 982 983 1280 1279 
950 951 1248 1247 983 984 1281 1280 
951 952 1249 1248 984 985 1282 1281 
952 953 1250 1249 985 986 1283 1282 
953 954 1251 1250 986 987 1284 1283 
954 955 1252 1251 987 988 1285 1284 
955 956 1253 1252 988 989 1286 1285 
957 958 1255 1254 990 991 1288 1287 
958 959 1256 1255 991 992 1289 1288 
959 960 1257 1256 992 993 1290 1289 
960 961 1258 1257 993 994 1291 1290 
961 962 1259 1258 994 995 1292 1291 
962 963 1260 1259 995 996 1293 1292 
963 964 1261 1260 996 997 1294 1293 
964 965 1262 1261 997 998 1295 1294 
965 966 1263 1262 998 999 1296 1295 
966 967 1264 1263 999 1000 1297 1296 
967 968 1265 1264 1000 1001 1298 1297 
968 969 1266 1265 1001 1002 1299 1298 
969 970 1267 1266 1002 1003 1300 1299 
970 971 1268 1267 1003 1004 1301 1300 
971 972 1269 1268 1004 1005 1302 1301 
972 973 1270 1269 1005 1006 1303 1302 
973 974 1271 1270 1006 1007 1304 1303 
974 975 1272 1271 1007 1008 1305 1304 
975 976 1273 1272 1008 1009 1306 1305 
976 977 1274 1273 1009 1010 1307 1306 
977 978 1275 1274 1010 1011 1308 1307 
978 979 1276 1275 1011 1012 1309 1308 
979 980 1277 1276 1012 1013 1310 1309 
980 981 1278 1277 1013 1014 1311 1310 
981 982 1279 1278 1014 1015 1312 1311 
982 983 1280 1279 1015 1016 1313 1312 
983 984 1281 1280 1016 1017 1314 1313 
984 985 1282 1281 1017 1018 1315 1314 
985 986 1283 1282 1018 1019 1316 1315 
986 987 1284 1283 1019 1020 1317 1316 
987 988 1285 1284 1020 1021 1318 1317 
988 989 1286 1285 1021 1022 1319 1318 
990 991 1288 1287 1023 1024 1321 1320 
991 992 1289 1288 1024 1025 1322 1321 
992 993 1290 1289 1025 1026 1323 1322 
993 994 1291 1290 1026 1027 1324 1323 
994 995 1292 1291 1027 1028 1325 1324 
995 996 1293 1292 1028 1029 1326 1325 
996 997 1294 1293 1029 1030 1327 1326 
997 998 1295 1294 1030 1031 1328 1327 
998 999 1296 1295 1031 1032 1329 1328 
999 1000 1297 1296 1032 1033 1330 1329 
1000 1001 1298 1297 1033 1034 1331 1330 
1001 1002 1299 1298 1034 1035 1332 1331 
1002 1003 1300 1299 1035 1036 1333 1332 
1003 1004 1301 1300 1036 1037 1334 1333 
1004 1005 1302 1301 1037 1038 1335 1334 
1005 1006 1303 1302 1038 1039 1336 1335 
1006 1007 1304 1303 1039 1040 1337 1336 
1007 1008 1305 1304 1040 1041 1338 1337 
1008 1009 1306 1305 1041 1042 1339 1338 
1009 1010 1307 1306 1042 1043 1340 1339 
1010 1011 1308 1307 1043 1044 1341 1340 
1011 1012 1309 1308 1044 1045 1342 1341 
1012 1013 1310 1309 1045 1046 1343 1342 
1013 1014 1311 1310 1046 1047 1344 1343 
1014 1015 1312 1311 1047 1048 1345 1344 
1015 1016 1313 1312 1048 1049 1346 1345 
1016 1017 1314 1313 1049 1050 1347 1346 
1017 1018 1315 1314 1050 1051 1348 1347 
1018 1019 1316 1315 1051 1052 1349 1348 
1019 1020 1317 1316 1052 1053 1350 1349 
1020 1021 1318 1317 1053 1054 1351 1350 
1021 1022 1319 1318 1054 1055 1352 1351 
1023 1024 1321 1320 1056 1057 1354 1353 
1024 1025 1322 1321 1057 1058 1355 1354 
1025 1026 1323 1322 1058 1059 1356 1355 
1026 1027 1324 1323 1059 1060 1357 1356 
1027 1028 1325 1324 1060 1061 1358 1357 
1028 1029 1326 1325 1061 1062 1359 1358 
1029 1030 1327 1326 1062 1063 1360 1359 
1030 1031 1328 1327 1063 1064 1361 1360 
1031 1032 1329 1328 1064 1065 1362 1361 
1032 1033 1330 1329 1065 1066 1363 1362 
1033 1034 1331 1330 1066 1067 1364 1363 
1034 1035 1332 1331 1067 1068 1365 1364 
1035 1036 1333 1332 1068 1069 1366 1365 
1036 1037 1334 1333 1069 1070 1367 1366 
1037 1038 1335 1334 1070 1071 1368 1367 
1038 1039 1336 1335 1071 1072 1369 1368 
1039 1040 1337 1336 1072 1073 1370 1369 
1040 1041 1338 1337 1073 1074 1371 1370 
1041 1042 1339 1338 1074 1075 1372 1371 
1042 1043 1340 1339 1075 1076 1373 1372 
1043 1044 1341 1340 1076 1077 1374 1373 
1044 1045 1342 1341 1077 1078 1375 1374 
1045 1046 1343 1342 1078 1079 1376 1375 
1046 1047 1344 1343 1079 1080 1377 1376 
1047 1048 1345 1344 1080 1081 1378 1377 
1048 1049 1346 1345 1081 1082 1379 1378 
1049 1050 1347 1346 1082 1083 1380 1379 
1050 1051 1348 1347 1083 1084 1381 1380 
1051 1052 1349 1348 1084 1085 1382 1381 
1052 1053 1350 1349 1085 1086 1383 1382 
1053 1054 1351 1350 1086 1087 1384 1383 
1054 1055 1352 1351 1087 1088 1385 1384 
1056 1057 1354 1353 1089 1090 1387 1386 
1057 1058 1355 1354 1090 1091 1388 1387 
1058 1059 1356 1355 1091 1092 1389 1388 
1059 1060 1357 1356 1092 1093 1390 1389 
1060 1061 1358 1357 1093 1094 1391 1390 
1061 1062 1359 1358 1094 1095 1392 1391 
1062 1063 1360 1359 1095 1096 1393 1392 
1063 1064 1361 1360 1096 1097 1394 1393 
1064 1065 1362 1361 1097 1098 1395 1394 
1065 1066 1363 1362 1098 1099 1396 1395 
1066 1067 1364 1363 1099 1100 1397 1396 
1067 1068 1365 1364 1100 1101 1398 1397 
1068 1069 1366 1365 1101 1102 1399 1398 
1069 1070 1367 1366 1102 1103 1400 1399 
1070 1071 1368 1367 1103 1104 1401 1400 
1071 1072 1369 1368 1104 1105 1402 1401 
1072 1073 1370 1369 1105 1106 1403 1402 
1073 1074 1371 1370 1106 1107 1404 1403 
1074 1075 1372 1371 1107 1108 1405 1404 
1075 1076 1373 1372 1108 1109 1406 1405 
1076 1077 1374 1373 1109 1110 1407 1406 
1077 1078 1375 1374 1110 1111 1408 1407 
1078 1079 1376 1375 1111 1112 1409 1408 
1079 1080 1377 1376 1112 1113 1410 1409 
1080 1081 1378 1377 1113 1114 1411 1410 
1081 1082 1379 1378 1114 1115 1412 1411 
1082 1083 1380 1379 1115 1116 1413 1412 
1083 1084 1381 1380 1116 1117 1414 1413 
1084 1085 1382 1381 1117 1118 1415 1414 
1085 1086 1383 1382 1118 1119 1416 1415 
1086 1087 1384 1383 1119 1120 1417 1416 
1087 1088 1385 1384 1120 1121 1418 1417 
1089 1090 1387 1386 1122 1123 1420 1419 
1090 1091 1388 1387 1123 1124 1421 1420 
1091 1092 1389 1388 1124 1125 1422 1421 
1092 1093 1390 1389 1125 1126 1423 1422 
1093 1094 1391 1390 1126 1127 1424 1423 
1094 1095 1392 1391 1127 1128 1425 1424 
1095 1096 1393 1392 1128 1129 1426 1425 
1096 1097 1394 1393 1129 1130 1427 1426 
1097 1098 1395 1394 1130 1131 1428 1427 
1098 1099 1396 1395 1131 1132 1429 1428 
1099 1100 1397 1396 1132 1133 1430 1429 
1100 1101 1398 1397 1133 1134 1431 1430 
1101 1102 1399 1398 1134 1135 1432 1431 
1102 1103 1400 1399 1135 1136 1433 1432 
1103 1104 1401 1400 1136 1137 1434 1433 
1104 1105 1402 1401 1137 1138 1435 1434 
1105 1106 1403 1402 1138 1139 1436 1435 
1106 1107 1404 1403 1139 1140 1437 1436 
1107 1108 1405 1404 1140 1141 1438 1437 
1108 1109 1406 1405 1141 1142 1439 1438 
1109 1110 1407 1406 1142 1143 1440 1439 
1110 1111 1408 1407 1143 1144 1441 1440 
1111 1112 1409 1408 1144 1145 1442 1441 
1112 1113 1410 1409 1145 1146 1443 1442 
1113 1114 1411 1410 1146 1147 1444 1443 
1114 1115 1412 1411 1147 1148 1445 1444 
1115 1116 1413 1412 1148 1149 1446 1445 
1116 1117 1414 1413 1149 1150 1447 1446 
1117 1118 1415 1414 1150 1151 1448 1447 
1118 1119 1416 1415 1151 1152 1449 1448 
1119 1120 1417 1416 1152 1153 1450 1449 
1120 1121 1418 1417 1153 1154 1451 1450 
1122 1123 1420 1419 1155 1156 1453 1452 
1123 1124 1421 1420 1156 1157 1454 1453 
1124 1125 1422 1421 1157 1158 1455 1454 
1125 1126 1423 1422 1158 1159 1456 1455 
1126 1127 1424 1423 1159 1160 1457 1456 
1127 1128 1425 1424 1160 1161 1458 1457 
1128 1129 1426 1425 1161 1162 1459 1458 
1129 1130 1427 1426 1162 1163 1460 1459 
1130 1131 1428 1427 1163 1164 1461 1460 
1131 1132 1429 1428 1164 1165 1462 1461 
1132 1133 1430 1429 1165 1166 1463 1462 
1133 1134 1431 1430 1166 1167 1464 1463 
1134 1135 1432 1431 1167 1168 1465 1464 
1135 1136 1433 1432 1168 1169 1466 1465 
1136 1137 1434 1433 1169 1170 1467 1466 
1137 1138 1435 1434 1170 1171 1468 1467 
1138 1139 1436 1435 1171 1172 1469 1468 
1139 1140 1437 1436 1172 1173 1470 1469 
1140 1141 1438 1437 1173 1174 1471 1470 
1141 1142 1439 1438 1174 1175 1472 1471 
1142 1143 1440 1439 1175 1176 1473 1472 
1143 1144 1441 1440 1176 1177 1474 1473 
1144 1145 1442 1441 1177 1178 1475 1474 
1145 1146 1443 1442 1178 1179 1476 1475 
1146 1147 1444 1443 1179 1180 1477 1476 
1147 1148 1445 1444 1180 1181 1478 1477 
1148 1149 1446 1445 1181 1182 1479 1478 
1149 1150 1447 1446 1182 1183 1480 1479 
1150 1151 1448 1447 1183 1184 1481 1480 
1151 1152 1449 1448 1184 1185 1482 1481 
1152 1153 1450 1449 1185 1186 1483 1482 
1153 1154 1451 1450 1186 1187 1484 1483 
1188 1189 1486 1485 1221 1222 1519 1518 
1189 1190 1487 1486 1222 1223 1520 1519 
1190 1191 1488 1487 1223 1224 1521 1520 
1191 1192 1489 1488 1224 1225 1522 1521 
1192 1193 1490 1489 1225 1226 1523 1522 
1193 1194 1491 1490 1226 1227 1524 1523 
1194 1195 1492 1491 1227 1228 1525 1524 
1195 1196 1493 1492 1228 1229 1526 1525 
1196 1197 1494 1493 1229 1230 1527 1526 
1197 1198 1495 1494 1230 1231 1528 1527 
1198 1199 1496 1495 1231 1232 1529 1528 
1199 1200 1497 1496 1232 1233 1530 1529 
1200 1201 1498 1497 1233 1234 1531 1530 
1201 1202 1499 1498 1234 1235 1532 1531 
1202 1203 1500 1499 1235 1236 1533 1532 
1203 1204 1501 1500 1236 1237 1534 1533 
1204 1205 1502 1501 1237 1238 1535 1534 
1205 1206 1503 1502 1238 1239 1536 1535 
1206 1207 1504 1503 1239 1240 1537 1536 
1207 1208 1505 1504 1240 1241 1538 1537 
1208 1209 1506 1505 1241 1242 1539 1538 
1209 1210 1507 1506 1242 1243 1540 1539 
1210 1211 1508 1507 1243 1244 1541 1540 
1211 1212 1509 1508 1244 1245 1542 1541 
1212 1213 1510 1509 1245 1246 1543 1542 
1213 1214 1511 1510 1246 1247 1544 1543 
1214 1215 1512 1511 1247 1248 1545 1544 
1215 1216 1513 1512 1248 1249 1546 1545 
1216 1217 1514 1513 1249 1250 1547 1546 
1217 1218 1515 1514 1250 1251 1548 1547 
1218 1219 1516 1515 1251 1252 1549 1548 
1219 1220 1517 1516 1252 1253 1550 1549 
1221 1222 1519 1518 1254 1255 1552 1551 
1222 1223 1520 1519 1255 1256 1553 1552 
1223 1224 1521 1520 1256 1257 1554 1553 
1224 1225 1522 1521 1257 1258 1555 1554 
1225 1226 1523 1522 1258 1259 1556 1555 
1226 1227 1524 1523 1259 1260 1557 1556 
1227 1228 1525 1524 1260 1261 1558 1557 
1228 1229 1526 1525 1261 1262 1559 1558 
1229 1230 1527 1526 1262 1263 1560 1559 
1230 1231 1528 1527 1263 1264 1561 1560 
1231 1232 1529 1528 1264 1265 1562 1561 
1232 1233 1530 1529 1265 1266 1563 1562 
1233 1234 1531 1530 1266 1267 1564 1563 
1234 1235 1532 1531 1267 1268 1565 1564 
1235 1236 1533 1532 1268 1269 1566 1565 
1236 1237 1534 1533 1269 1270 1567 1566 
1237 1238 1535 1534 1270 1271 1568 1567 
1238 1239 1536 1535 1271 1272 1569 1568 
1239 1240 1537 1536 1272 1273 1570 1569 
1240 1241 1538 1537 1273 1274 1571 1570 
1241 1242 1539 1538 1274 1275 1572 1571 
1242 1243 1540 1539 1275 1276 1573 1572 
1243 1244 1541 1540 1276 1277 1574 1573 
1244 1245 1542 1541 1277 1278 1575 1574 
1245 1246 1543 1542 1278 1279 1576 1575 
1246 1247 1544 1543 1279 1280 1577 1576 
1247 1248 1545 1544 1280 1281 1578 1577 
1248 1249 1546 1545 1281 1282 1579 1578 
1249 1250 1547 1546 1282 1283 1580 1579 
1250 1251 1548 1547 1283 1284 1581 1580 
1251 1252 1549 1548 1284 1285 1582 1581 
1252 1253 1550 1549 1285 1286 1583 1582 
1254 1255 1552 1551 1287 1288 1585 1584 
1255 1256 1553 1552 1288 1289 1586 1585 
1256 1257 1554 1553 1289 1290 1587 1586 
1257 1258 1555 1554 1290 1291 1588 1587 
1258 1259 1556 1555 1291 1292 1589 1588 
1259 1260 1557 1556 1292 1293 1590 1589 
1260 1261 1558 1557 1293 1294 1591 1590 
1261 1262 1559 1558 1294 1295 1592 1591 
1262 1263 1560 1559 1295 1296 1593 1592 
1263 1264 1561 1560 1296 1297 1594 1593 
1264 1265 1562 1561 1297 1298 1595 1594 
1265 1266 1563 1562 1298 1299 1596 1595 
1266 1267 1564 1563 1299 1300 1597 1596 
1267 1268 1565 1564 1300 1301 1598 1597 
1268 1269 1566 1565 1301 1302 1599 1598 
1269 1270 1567 1566 1302 1303 1600 1599 
1270 1271 1568 1567 1303 1304 1601 1600 
1271 1272 1569 1568 1304 1305 1602 1601 
1272 1273 1570 1569 1305 1306 1603 1602 
1273 1274 1571 1570 1306 1307 1604 1603 
1274 1275 1572 1571 1307 1308 1605 1604 
1275 1276 1573 1572 1308 1309 1606 1605 
1276 1277 1574 1573 1309 1310 1607 1606 
1277 1278 1575 1574 1310 1311 1608 1607 
1278 1279 1576 1575 1311 1312 1609 1608 
1279 1280 1577 1576 1312 1313 1610 1609 
1280 1281 1578 1577 1313 1314 1611 1610 
1281 1282 1579 1578 1314 1315 1612 1611 
1282 1283 1580 1579 1315 1316 1613 1612 
1283 1284 1581 1580 1316 1317 1614 1613 
1284 1285 1582 1581 1317 1318 1615 1614 
1285 1286 1583 1582 1318 1319 1616 1615 
1287 1288 1585 1584 1320 1321 1618 1617 
1288 1289 1586 1585 1321 1322 1619 1618 
1289 1290 1587 1586 1322 1323 1620 1619 
1290 1291 1588 1587 1323 1324 1621 1620 
1291 1292 1589 1588 1324 1325 1622 1621 
1292 1293 1590 1589 1325 1326 1623 1622 
1293 1294 1591 1590 1326 1327 1624 1623 
1294 1295 1592 1591 1327 1328 1625 1624 
1295 1296 1593 1592 1328 1329 1626 1625 
1296 1297 1594 1593 1329 1330 1627 1626 
1297 1298 1595 1594 1330 1331 1628 1627 
1298 1299 1596 1595 1331 1332 1629 1628 
1299 1300 1597 1596 1332 1333 1630 1629 
1300 1301 1598 1597 1333 1334 1631 1630 
1301 1302 1599 1598 1334 1335 1632 1631 
1302 1303 1600 1599 1335 1336 1633 1632 
1303 1304 1601 1600 1336 1337 1634 1633 
1304 1305 1602 1601 1337 1338 1635 1634 
1305 1306 1603 1602 1338 1339 1636 1635 
1306 1307 1604 1603 1339 1340 1637 1636 
1307 1308 1605 1604 1340 1341 1638 1637 
1308 1309 1606 1605 1341 1342 1639 1638 
1309 1310 1607 1606 1342 1343 1640 1639 
1310 1311 1608 1607 1343 1344 1641 1640 
1311 1312 1609 1608 1344 1345 1642 1641 
1312 1313 1610 1609 1345 1346 1643 1642 
1313 1314 1611 1610 1346 1347 1644 1643 
1314 1315 1612 1611 1347 1348 1645 1644 
1315 1316 1613 1612 1348 1349 1646 1645 
1316 1317 1614 1613 1349 1350 1647 1646 
1317 1318 1615 1614 1350 1351 1648 1647 
1318 1319 1616 1615 1351 1352 1649 1648 
1320 1321 1618 1617 1353 1354 1651 1650 
1321 1322 1619 1618 1354 1355 1652 1651 
1322 1323 1620 1619 1355 1356 1653 1652 
1323 1324 1621 1620 1356 1357 1654 1653 
1324 1325 1622 1621 1357 1358 1655 1654 
1325 1326 1623 1622 1358 1359 1656 1655 
1326 1327 1624 1623 1359 1360 1657 1656 
1327 1328 1625 1624 1360 1361 1658 1657 
1328 1329 1626 1625 1361 1362 1659 1658 
1329 1330 1627 1626 1362 1363 1660 1659 
1330 1331 1628 1627 1363 1364 1661 1660 
1331 1332 1629 1628 1364 1365 1662 1661 
1332 1333 1630 1629 1365 1366 1663 1662 
1333 1334 1631 1630 1366 1367 1664 1663 
1334 1335 1632 1631 1367 1368 1665 1664 
1335 1336 1633 1632 1368 1369 1666 1665 
1336 1337 1634 1633 1369 1370 1667 1666 
1337 1338 1635 1634 1370 1371 1668 1667 
1338 1339 1636 1635 1371 1372 1669 1668 
1339 1340 1637 1636 1372 1373 1670 1669 
1340 1341 1638 1637 1373 1374 1671 1670 
1341 1342 1639 1638 1374 1375 1672 1671 
1342 1343 1640 1639 1375 1376 1673 1672 
1343 1344 1641 1640 1376 1377 1674 1673 
1344 1345 1642 1641 1377 1378 1675 1674 
1345 1346 1643 1642 1378 1379 1676 1675 
1346 1347 1644 1643 1379 1380 1677 1676 
1347 1348 1645 1644 1380 1381 1678 1677 
1348 1349 1646 1645 1381 1382 1679 1678 
1349 1350 1647 1646 1382 1383 1680 1679 
1350 1351 1648 1647 1383 1384 1681 1680 
1351 1352 1649 1648 1384 1385 1682 1681 
1353 1354 1651 1650 1386 1387 1684 1683 
1354 1355 1652 1651 1387 1388 1685 1684 
1355 1356 1653 1652 1388 1389 1686 1685 
1356 1357 1654 1653 1389 1390 1687 1686 
1357 1358 1655 1654 1390 1391 1688 1687 
1358 1359 1656 1655 1391 1392 1689 1688 
1359 1360 1657 1656 1392 1393 1690 1689 
1360 1361 1658 1657 1393 1394 1691 1690 
1361 1362 1659 1658 1394 1395 1692 1691 
1362 1363 1660 1659 1395 1396 1693 1692 
1363 1364 1661 1660 1396 1397 1694 1693 
1364 1365 1662 1661 1397 1398 1695 1694 
1365 1366 1663 1662 1398 1399 1696 1695 
1366 1367 1664 1663 1399 1400 1697 1696 
1367 1368 1665 1664 1400 1401 1698 1697 
1368 1369 1666 1665 1401 1402 1699 1698 
1369 1370 1667 1666 1402 1403 1700 1699 
1370 1371 1668 1667 1403 1404 1701 1700 
1371 1372 1669 1668 1404 1405 1702 1701 
1372 1373 1670 1669 1405 1406 1703 1702 
1373 1374 1671 1670 1406 1407 1704 1703 
1374 1375 1672 1671 1407 1408 1705 1704 
1375 1376 1673 1672 1408 1409 1706 1705 
1376 1377 1674 1673 1409 1410 1707 1706 
1377 1378 1675 1674 1410 1411 1708 1707 
1378 1379 1676 1675 1411 1412 1709 1708 
1379 1380 1677 1676 1412 1413 1710 1709 
1380 1381 1678 1677 1413 1414 1711 1710 
1381 1382 1679 1678 1414 1415 1712 1711 
1382 1383 1680 1679 1415 1416 1713 1712 
1383 1384 1681 1680 1416 1417 1714 1713 
1384 1385 1682 1681 1417 1418 1715 1714 
1386 1387 1684 1683 1419 1420 1717 1716 
1387 1388 1685 1684 1420 1421 1718 1717 
1388 1389 1686 1685 1421 1422 1719 1718 
1389 1390 1687 1686 1422 1423 1720 1719 
1390 1391 1688 1687 1423 1424 1721 1720 
1391 1392 1689 1688 1424 1425 1722 1721 
1392 1393 1690 1689 1425 1426 1723 1722 
1393 1394 1691 1690 1426 1427 1724 1723 
1394 1395 1692 1691 1427 1428 1725 1724 
1395 1396 1693 1692 1428 1429 1726 1725 
1396 1397 1694 1693 1429 1430 1727 1726 
1397 1398 1695 1694 1430 1431 1728 1727 
1398 1399 1696 1695 1431 1432 1729 1728 
1399 1400 1697 1696 1432 1433 1730 1729 
1400 1401 1698 1697 1433 1434 1731 1730 
1401 1402 1699 1698 1434 1435 1732 1731 
1402 1403 1700 1699 1435 1436 1733 1732 
1403 1404 1701 1700 1436 1437 1734 1733 
1404 1405 1702 1701 1437 1438 1735 1734 
1405 1406 1703 1702 1438 1439 1736 1735 
1406 1407 1704 1703 1439 1440 1737 1736 
1407 1408 1705 1704 1440 1441 1738 1737 
1408 1409 1706 1705 1441 1442 1739 1738 
1409 1410 1707 1706 1442 1443 1740 1739 
1410 1411 1708 1707 1443 1444 1741 1740 
1411 1412 1709 1708 1444 1445 1742 1741 
1412 1413 1710 1709 1445 1446 1743 1742 
1413 1414 1711 1710 1446 1447 1744 1743 
1414 1415 1712 1711 1447 1448 1745 1744 
1415 1416 1713 1712 1448 1449 1746 1745 
1416 1417 1714 1713 1449 1450 1747 1746 
1417 1418 1715 1714 1450 1451 1748 1747 
1419 1420 1717 1716 1452 1453 1750 1749 
1420 1421 1718 1717 1453 1454 1751 1750 
1421 1422 1719 1718 1454 1455 1752 1751 
1422 1423 1720 1719 1455 1456 1753 1752 
1423 1424 1721 1720 1456 1457 1754 1753 
1424 1425 1722 1721 1457 1458 1755 1754 
1425 1426 1723 1722 1458 1459 1756 1755 
1426 1427 1724 1723 1459 1460 1757 1756 
1427 1428 1725 1724 1460 1461 1758 1757 
1428 1429 1726 1725 1461 1462 1759 1758 
1429 1430 1727 1726 1462 1463 1760 1759 
1430 1431 1728 1727 1463 1464 1761 1760 
1431 1432 1729 1728 1464 1465 1762 1761 
1432 1433 1730 1729 1465 1466 1763 1762 
1433 1434 1731 1730 1466 1467 1764 1763 
1434 1435 1732 1731 1467 1468 1765 1764 
1435 1436 1733 1732 1468 1469 1766 1765 
1436 1437 1734 1733 1469 1470 1767 1766 
1437 1438 1735 1734 1470 1471 1768 1767 
1438 1439 1736 1735 1471 1472 1769 1768 
1439 1440 1737 1736 1472 1473 1770 1769 
1440 1441 1738 1737 1473 1474 1771 1770 
1441 1442 1739 1738 1474 1475 1772 1771 
1442 1443 1740 1739 1475 1476 1773 1772 
1443 1444 1741 1740 1476 1477 1774 1773 
1444 1445 1742 1741 1477 1478 1775 1774 
1445 1446 1743 1742 1478 1479 1776 1775 
1446 1447 1744 1743 1479 1480 1777 1776 
1447 1448 1745 1744 1480 1481 1778 1777 
1448 1449 1746 1745 1481 1482 1779 1778 
1449 1450 1747 1746 1482 1483 1780 1779 
1450 1451 1748 1747 1483 1484 1781 1780 
1485 1486 1783 1782 1518 1519 1816 1815 
1486 1487 1784 1783 1519 1520 1817 1816 
1487 1488 1785 1784 1520 1521 1818 1817 
1488 1489 1786 1785 1521 1522 1819 1818 
1489 1490 1787 1786 1522 1523 1820 1819 
1490 1491 1788 1787 1523 1524 1821 1820 
1491 1492 1789 1788 1524 1525 1822 1821 
1492 1493 1790 1789 1525 1526 1823 1822 
1493 1494 1791 1790 1526 1527 1824 1823 
1494 1495 1792 1791 1527 1528 1825 1824 
1495 1496 1793 1792 1528 1529 1826 1825 
1496 1497 1794 1793 1529 1530 1827 1826 
1497 1498 1795 1794 1530 1531 1828 1827 
1498 1499 1796 1795 1531 1532 1829 1828 
1499 1500 1797 1796 1532 1533 1830 1829 
1500 1501 1798 1797 1533 1534 1831 1830 
1501 1502 1799 1798 1534 1535 1832 1831 
1502 1503 1800 1799 1535 1536 1833 1832 
1503 1504 1801 1800 1536 1537 1834 1833 
1504 1505 1802 1801 1537 1538 1835 1834 
1505 1506 1803 1802 1538 1539 1836 1835 
1506 1507 1804 1803 1539 1540 1837 1836 
1507 1508 1805 1804 1540 1541 1838 1837 
1508 1509 1806 1805 1541 1542 1839 1838 
1509 1510 1807 1806 1542 1543 1840 1839 
1510 1511 1808 1807 1543 1544 1841 1840 
1511 1512 1809 1808 1544 1545 1842 1841 
1512 1513 1810 1809 1545 1546 1843 1842 
1513 1514 1811 1810 1546 1547 1844 1843 
1514 1515 1812 1811 1547 1548 1845 1844 
1515 1516 1813 1812 1548 1549 1846 1845 
1516 1517 1814 1813 1549 1550 1847 1846 
1518 1519 1816 1815 1551 1552 1849 1848 
1519 1520 1817 1816 1552 1553 1850 1849 
1520 1521 1818 1817 1553 1554 1851 1850 
1521 1522 1819 1818 1554 1555 1852 1851 
1522 1523 1820 1819 1555 1556 1853 1852 
1523 1524 1821 1820 1556 1557 1854 1853 
1524 1525 1822 1821 1557 1558 1855 1854 
1525 1526 1823 1822 1558 1559 1856 1855 
1526 1527 1824 1823 1559 1560 1857 1856 
1527 1528 1825 1824 1560 1561 1858 1857 
1528 1529 1826 1825 1561 1562 1859 1858 
1529 1530 1827 1826 1562 1563 1860 1859 
1530 1531 1828 1827 1563 1564 1861 1860 
1531 1532 1829 1828 1564 1565 1862 1861 
1532 1533 1830 1829 1565 1566 1863 1862 
1533 1534 1831 1830 1566 1567 1864 1863 
1534 1535 1832 1831 1567 1568 1865 1864 
1535 1536 1833 1832 1568 1569 1866 1865 
1536 1537 1834 1833 1569 1570 1867 1866 
1537 1538 1835 1834 1570 1571 1868 1867 
1538 1539 1836 1835 1571 1572 1869 1868 
1539 1540 1837 1836 1572 1573 1870 1869 
1540 1541 1838 1837 1573 1574 1871 1870 
1541 1542 1839 1838 1574 1575 1872 1871 
1542 1543 1840 1839 1575 1576 1873 1872 
1543 1544 1841 1840 1576 1577 1874 1873 
1544 1545 1842 1841 1577 1578 1875 1874 
1545 1546 1843 1842 1578 1579 1876 1875 
1546 1547 1844 1843 1579 1580 1877 1876 
1547 1548 1845 1844 1580 1581 1878 1877 
1548 1549 1846 1845 1581 1582 1879 1878 
1549 1550 1847 1846 1582 1583 1880 1879 
1551 1552 1849 1848 1584 1585 1882 1881 
1552 1553 1850 1849 1585 1586 1883 1882 
1553 1554 1851 1850 1586 1587 1884 1883 
1554 1555 1852 1851 1587 1588 1885 1884 
1555 1556 1853 1852 1588 1589 1886 1885 
1556 1557 1854 1853 1589 1590 1887 1886 
1557 1558 1855 1854 1590 1591 1888 1887 
1558 1559 1856 1855 1591 1592 1889 1888 
1559 1560 1857 1856 1592 1593 1890 1889 
1560 1561 1858 1857 1593 1594 1891 1890 
1561 1562 1859 1858 1594 1595 1892 1891 
1562 1563 1860 1859 1595 1596 1893 1892 
1563 1564 1861 1860 1596 1597 1894 1893 
1564 1565 1862 1861 1597 1598 1895 1894 
1565 1566 1863 1862 1598 1599 1896 1895 
1566 1567 1864 1863 1599 1600 1897 1896 
1567 1568 1865 1864 1600 1601 1898 1897 
1568 1569 1866 1865 1601 1602 1899 1898 
1569 1570 1867 1866 1602 1603 1900 1899 
1570 1571 1868 1867 1603 1604 1901 1900 
1571 1572 1869 1868 1604 1605 1902 1901 
1572 1573 1870 1869 1605 1606 1903 1902 
1573 1574 1871 1870 1606 1607 1904 1903 
1574 1575 1872 1871 1607 1608 1905 1904 
1575 1576 1873 1872 1608 1609 1906 1905 
1576 1577 1874 1873 1609 1610 1907 1906 
1577 1578 1875 1874 1610 1611 1908 1907 
1578 1579 1876 1875 1611 1612 1909 1908 
1579 1580 1877 1876 1612 1613 1910 1909 
1580 1581 1878 1877 1613 1614 1911 1910 
1581 1582 1879 1878 1614 1615 1912 1911 
1582 1583 1880 1879 1615 1616 1913 1912 
1584 1585 1882 1881 1617 1618 1915 1914 
1585 1586 1883 1882 1618 1619 1916 1915 
1586 1587 1884 1883 1619 1620 1917 1916 
1587 1588 1885 1884 1620 1621 1918 1917 
1588 1589 1886 1885 1621 1622 1919 1918 
1589 1590 1887 1886 1622 1623 1920 1919 
1590 1591 1888 1887 1623 1624 1921 1920 
1591 1592 1889 1888 1624 1625 1922 1921 
1592 1593 1890 1889 1625 1626 1923 1922 
1593 1594 1891 1890 1626 1627 1924 1923 
1594 1595 1892 1891 1627 1628 1925 1924 
1595 1596 1893 1892 1628 1629 1926 1925 
1596 1597 1894 1893 1629 1630 1927 1926 
1597 1598 1895 1894 1630 1631 1928 1927 
1598 1599 1896 1895 1631 1632 1929 1928 
1599 1600 1897 1896 1632 1633 1930 1929 
1600 1601 1898 1897 1633 1634 1931 1930 
1601 1602 1899 1898 1634 1635 1932 1931 
1602 1603 1900 1899 1635 1636 1933 1932 
1603 1604 1901 1900 1636 1637 1934 1933 
1604 1605 1902 1901 1637 1638 1935 1934 
1605 1606 1903 1902 1638 1639 1936 1935 
1606 1607 1904 1903 1639 1640 1937 1936 
1607 1608 1905 1904 1640 1641 1938 1937 
1608 1609 1906 1905 1641 1642 1939 1938 
1609 1610 1907 1906 1642 1643 1940 1939 
1610 1611 1908 1907 1643 1644 1941 1940 
1611 1612 1909 1908 1644 1645 1942 1941 
1612 1613 1910 1909 1645 1646 1943 1942 
1613 1614 1911 1910 1646 1647 1944 1943 
1614 1615 1912 1911 1647 1648 1945 1944 
1615 1616 1913 1912 1648 1649 1946 1945 
1617 1618 1915 1914 1650 1651 1948 1947 
1618 1619 1916 1915 1651 1652 1949 1948 
1619 1620 1917 1916 1652 1653 1950 1949 
1620 1621 1918 1917 1653 1654 1951 1950 
1621 1622 1919 1918 1654 1655 1952 1951 
1622 1623 1920 1919 1655 1656 1953 1952 
1623 1624 1921 1920 1656 1657 1954 1953 
1624 1625 1922 1921 1657 1658 1955 1954 
1625 1626 1923 1922 1658 1659 1956 1955 
1626 1627 1924 1923 1659 1660 1957 1956 
1627 1628 1925 1924 1660 1661 1958 1957 
1628 1629 1926 1925 1661 1662 1959 1958 
1629 1630 1927 1926 1662 1663 1960 1959 
1630 1631 1928 1927 1663 1664 1961 1960 
1631 1632 1929 1928 1664 1665 1962 1961 
1632 1633 1930 1929 1665 1666 1963 1962 
1633 1634 1931 1930 1666 1667 1964 1963 
1634 1635 1932 1931 1667 1668 1965 1964 
1635 1636 1933 1932 1668 1669 1966 1965 
1636 1637 1934 1933 1669 1670 1967 1966 
1637 1638 1935 1934 1670 1671 1968 1967 
1638 1639 1936 1935 1671 1672 1969 1968 
1639 1640 1937 1936 1672 1673 1970 1969 
1640 1641 1938 1937 1673 1674 1971 1970 
1641 1642 1939 1938 1674 1675 1972 1971 
1642 1643 1940 1939 1675 1676 1973 1972 
1643 1644 1941 1940 1676 1677 1974 1973 
1644 1645 1942 1941 1677 1678 1975 1974 
1645 1646 1943 1942 1678 1679 1976 1975 
1646 1647 1944 1943 1679 1680 1977 1976 
1647 1648 1945 1944 1680 1681 1978 1977 
1648 1649 1946 1945 1681 1682 1979 1978 
1650 1651 1948 1947 1683 1684 1981 1980 
1651 1652 1949 1948 1684 1685 1982 1981 
1652 1653 1950 1949 1685 1686 1983 1982 
1653 1654 1951 1950 1686 1687 1984 1983 
1654 1655 1952 1951 1687 1688 1985 1984 
1655 1656 1953 1952 1688 1689 1986 1985 
1656 1657 1954 1953 1689 1690 1987 1986 
1657 1658 1955 1954 1690 1691 1988 1987 
1658 1659 1956 1955 1691 1692 1989 1988 
1659 1660 1957 1956 1692 1693 1990 1989 
1660 1661 1958 1957 1693 1694 1991 1990 
1661 1662 1959 1958 1694 1695 1992 1991 
1662 1663 1960 1959 1695 1696 1993 1992 
1663 1664 1961 1960 1696 1697 1994 1993 
1664 1665 1962 1961 1697 1698 1995 1994 
1665 1666 1963 1962 1698 1699 1996 1995 
1666 1667 1964 1963 1699 1700 1997 1996 
1667 1668 1965 1964 1700 1701 1998 1997 
1668 1669 1966 1965 1701 1702 1999 1998 
1669 1670 1967 1966 1702 1703 2000 1999 
1670 1671 1968 1967 1703 1704 2001 2000 
1671 1672 1969 1968 1704 1705 2002 2001 
1672 1673 1970 1969 1705 1706 2003 2002 
1673 1674 1971 1970 1706 1707 2004 2003 
1674 1675 1972 1971 1707 1708 2005 2004 
1675 1676 1973 1972 1708 1709 2006 2005 
1676 1677 1974 1973 1709 1710 2007 2006 
1677 1678 1975 1974 1710 1711 2008 2007 
1678 1679 1976 1975 1711 1712 2009 2008 
1679 1680 1977 1976 1712 1713 2010 2009 
1680 1681 1978 1977 1713 1714 2011 2010 
1681 1682 1979 1978 1714 1715 2012 2011 
1683 1684 1981 1980 1716 1717 2014 2013 
1684 1685 1982 1981 1717 1718 2015 2014 
1685 1686 1983 1982 1718 1719 2016 2015 
1686 1687 1984 1983 1719 1720 2017 2016 
1687 1688 1985 1984 1720 1721 2018 2017 
1688 1689 1986 1985 1721 1722 2019 2018 
1689 1690 1987 1986 1722 1723 2020 2019 
1690 1691 1988 1987 1723 1724 2021 2020 
1691 1692 1989 1988 1724 1725 2022 2021 
1692 1693 1990 1989 1725 1726 2023 2022 
1693 1694 1991 1990 1726 1727 2024 2023 
1694 1695 1992 1991 1727 1728 2025 2024 
1695 1696 1993 1992 1728 1729 2026 2025 
1696 1697 1994 1993 1729 1730 2027 2026 
1697 1698 1995 1994 1730 1731 2028 2027 
1698 1699 1996 1995 1731 1732 2029 2028 
1699 1700 1997 1996 1732 1733 2030 2029 
1700 1701 1998 1997 1733 1734 2031 2030 
1701 1702 1999 1998 1734 1735 2032 2031 
1702 1703 2000 1999 1735 1736 2033 2032 
1703 1704 2001 2000 1736 1737 2034 2033 
1704 1705 2002 2001 1737 1738 2035 2034 
1705 1706 2003 2002 1738 1739 2036 2035 
1706 1707 2004 2003 1739 1740 2037 2036 
1707 1708 2005 2004 1740 1741 2038 2037 
1708 1709 2006 2005 1741 1742 2039 2038 
1709 1710 2007 2006 1742 1743 2040 2039 
1710 1711 2008 2007 1743 1744 2041 2040 
1711 1712 2009 2008 1744 1745 2042 2041 
1712 1713 2010 2009 1745 1746 2043 2042 
1713 1714 2011 2010 1746 1747 2044 2043 
1714 1715 2012 2011 1747 1748 2045 2044 
1716 1717 2014 2013 1749 1750 2047 2046 
1717 1718 2015 2014 1750 1751 2048 2047 
1718 1719 2016 2015 1751 1752 2049 2048 
1719 1720 2017 2016 1752 1753 2050 2049 
1720 1721 2018 2017 1753 1754 2051 2050 
1721 1722 2019 2018 1754 1755 2052 2051 
1722 1723 2020 2019 1755 1756 2053 2052 
1723 1724 2021 2020 1756 1757 2054 2053 
1724 1725 2022 2021 1757 1758 2055 2054 
1725 1726 2023 2022 1758 1759 2056 2055 
1726 1727 2024 2023 1759 1760 2057 2056 
1727 1728 2025 2024 1760 1761 2058 2057 
1728 1729 2026 2025 1761 1762 2059 2058 
1729 1730 2027 2026 1762 1763 2060 2059 
1730 1731 2028 2027 1763 1764 2061 2060 
1731 1732 2029 2028 1764 1765 2062 2061 
1732 1733 2030 2029 1765 1766 2063 2062 
1733 1734 2031 2030 1766 1767 2064 2063 
1734 1735 2032 2031 1767 1768 2065 2064 
1735 1736 2033 2032 1768 1769 2066 2065 
1736 1737 2034 2033 1769 1770 2067 2066 
1737 1738 2035 2034 1770 1771 2068 2067 
1738 1739 2036 2035 1771 1772 2069 2068 
1739 1740 2037 2036 1772 1773 2070 2069 
1740 1741 2038 2037 1773 1774 2071 2070 
1741 1742 2039 2038 1774 1775 2072 2071 
1742 1743 2040 2039 1775 1776 2073 2072 
1743 1744 2041 2040 1776 1777 2074 2073 
1744 1745 2042 2041 1777 1778 2075 2074 
1745 1746 2043 2042 1778 1779 2076 2075 
1746 1747 2044 2043 1779 1780 2077 2076 
1747 1748 2045 2044 1780 1781 2078 2077 
1782 1783 2080 2079 1815 1816 2113 2112 
1783 1784 2081 2080 1816 1817 2114 2113 
1784 1785 2082 2081 1817 1818 2115 2114 
1785 1786 2083 2082 1818 1819 2116 2115 
1786 1787 2084 2083 1819 1820 2117 2116 
1787 1788 2085 2084 1820 1821 2118 2117 
1788 1789 2086 2085 1821 1822 2119 2118 
1789 1790 2087 2086 1822 1823 2120 2119 
1790 1791 2088 2087 1823 1824 2121 2120 
1791 1792 2089 2088 1824 1825 2122 2121 
1792 1793 2090 2089 1825 1826 2123 2122 
1793 1794 2091 2090 1826 1827 2124 2123 
1794 1795 2092 2091 1827 1828 2125 2124 
1795 1796 2093 2092 1828 1829 2126 2125 
1796 1797 2094 2093 1829 1830 2127 2126 
1797 1798 2095 2094 1830 1831 2128 2127 
1798 1799 2096 2095 1831 1832 2129 2128 
1799 1800 2097 2096 1832 1833 2130 2129 
1800 1801 2098 2097 1833 1834 2131 2130 
1801 1802 2099 2098 1834 1835 2132 2131 
1802 1803 2100 2099 1835 1836 2133 2132 
1803 1804 2101 2100 1836 1837 2134 2133 
1804 1805 2102 2101 1837 1838 2135 2134 
1805 1806 2103 2102 1838 1839 2136 2135 
1806 1807 2104 2103 1839 1840 2137 2136 
1807 1808 2105 2104 1840 1841 2138 2137 
1808 1809 2106 2105 1841 1842 2139 2138 
1809 1810 2107 2106 1842 1843 2140 2139 
1810 1811 2108 2107 1843 1844 2141 2140 
1811 1812 2109 2108 1844 1845 2142 2141 
1812 1813 2110 2109 1845 1846 2143 2142 
1813 1814 2111 2110 1846 1847 2144 2143 
1815 1816 2113 2112 1848 1849 2146 2145 
1816 1817 2114 2113 1849 1850 2147 2146 
1817 1818 2115 2114 1850 1851 2148 2147 
1818 1819 2116 2115 1851 1852 2149 2148 
1819 1820 2117 2116 1852 1853 2150 2149 
1820 1821 2118 2117 1853 1854 2151 2150 
1821 1822 2119 2118 1854 1855 2152 2151 
1822 1823 2120 2119 1855 1856 2153 2152 
1823 1824 2121 2120 1856 1857 2154 2153 
1824 1825 2122 2121 1857 1858 2155 2154 
1825 1826 2123 2122 1858 1859 2156 2155 
1826 1827 2124 2123 1859 1860 2157 2156 
1827 1828 2125 2124 1860 1861 2158 2157 
1828 1829 2126 2125 1861 1862 2159 2158 
1829 1830 2127 2126 1862 1863 2160 2159 
1830 1831 2128 2127 1863 1864 2161 2160 
1831 1832 2129 2128 1864 1865 2162 2161 
1832 1833 2130 2129 1865 1866 2163 2162 
1833 1834 2131 2130 1866 1867 2164 2163 
1834 1835 2132 2131 1867 1868 2165 2164 
1835 1836 2133 2132 1868 1869 2166 2165 
1836 1837 2134 2133 1869 1870 2167 2166 
1837 1838 2135 2134 1870 1871 2168 2167 
1838 1839 2136 2135 1871 1872 2169 2168 
1839 1840 2137 2136 1872 1873 2170 2169 
1840 1841 2138 2137 1873 1874 2171 2170 
1841 1842 2139 2138 1874 1875 2172 2171 
1842 1843 2140 2139 1875 1876 2173 2172 
1843 1844 2141 2140 1876 1877 2174 2173 
1844 1845 2142 2141 1877 1878 2175 2174 
1845 1846 2143 2142 1878 1879 2176 2175 
1846 1847 2144 2143 1879 1880 2177 2176 
1848 1849 2146 2145 1881 1882 2179 2178 
1849 1850 2147 2146 1882 1883 2180 2179 
1850 1851 2148 2147 1883 1884 2181 2180 
1851 1852 2149 2148 1884 1885 2182 2181 
1852 1853 2150 2149 1885 1886 2183 2182 
1853 1854 2151 2150 1886 1887 2184 2183 
1854 1855 2152 2151 1887 1888 2185 2184 
1855 1856 2153 2152 1888 1889 2186 2185 
1856 1857 2154 2153 1889 1890 2187 2186 
1857 1858 2155 2154 1890 1891 2188 2187 
1858 1859 2156 2155 1891 1892 2189 2188 
1859 1860 2157 2156 1892 1893 2190 2189 
1860 1861 2158 2157 1893 1894 2191 2190 
1861 1862 2159 2158 1894 1895 2192 2191 
1862 1863 2160 2159 1895 1896 2193 2192 
1863 1864 2161 2160 1896 1897 2194 2193 
1864 1865 2162 2161 1897 1898 2195 2194 
1865 1866 2163 2162 1898 1899 2196 2195 
1866 1867 2164 2163 1899 1900 2197 2196 
1867 1868 2165 2164 1900 1901 2198 2197 
1868 1869 2166 2165 1901 1902 2199 2198 
1869 1870 2167 2166 1902 1903 2200 2199 
1870 1871 2168 2167 1903 1904 2201 2200 
1871 1872 2169 2168 1904 1905 2202 2201 
1872 1873 2170 2169 1905 1906 2203 2202 
1873 1874 2171 2170 1906 1907 2204 2203 
1874 1875 2172 2171 1907 1908 2205 2204 
1875 1876 2173 2172 1908 1909 2206 2205 
1876 1877 2174 2173 1909 1910 2207 2206 
1877 1878 2175 2174 1910 1911 2208 2207 
1878 1879 2176 2175 1911 1912 2209 2208 
1879 1880 2177 2176 1912 1913 2210 2209 
1881 1882 2179 2178 1914 1915 2212 2211 
1882 1883 2180 2179 1915 1916 2213 2212 
1883 1884 2181 2180 1916 1917 2214 2213 
1884 1885 2182 2181 1917 1918 2215 2214 
1885 1886 2183 2182 1918 1919 2216 2215 
1886 1887 2184 2183 1919 1920 2217 2216 
1887 1888 2185 2184 1920 1921 2218 2217 
1888 1889 2186 2185 1921 1922 2219 2218 
1889 1890 2187 2186 1922 1923 2220 2219 
1890 1891 2188 2187 1923 1924 2221 2220 
1891 1892 2189 2188 1924 1925 2222 2221 
1892 1893 2190 2189 1925 1926 2223 2222 
1893 1894 2191 2190 1926 1927 2224 2223 
1894 1895 2192 2191 1927 1928 2225 2224 
1895 1896 2193 2192 1928 1929 2226 2225 
1896 1897 2194 2193 1929 1930 2227 2226 
1897 1898 2195 2194 1930 1931 2228 2227 
1898 1899 2196 2195 1931 1932 2229 2228 
1899 1900 2197 2196 1932 1933 2230 2229 
1900 1901 2198 2197 1933 1934 2231 2230 
1901 1902 2199 2198 1934 1935 2232 2231 
1902 1903 2200 2199 1935 1936 2233 2232 
1903 1904 2201 2200 1936 1937 2234 2233 
1904 1905 2202 2201 1937 1938 2235 2234 
1905 1906 2203 2202 1938 1939 2236 2235 
1906 1907 2204 2203 1939 1940 2237 2236 
1907 1908 2205 2204 1940 1941 2238 2237 
1908 1909 2206 2205 1941 1942 2239 2238 
1909 1910 2207 2206 1942 1943 2240 2239 
1910 1911 2208 2207 1943 1944 2241 2240 
1911 1912 2209 2208 1944 1945 2242 2241 
1912 1913 2210 2209 1945 1946 2243 2242 
1914 1915 2212 2211 1947 1948 2245 2244 
1915 1916 2213 2212 1948 1949 2246 2245 
1916 1917 2214 2213 1949 1950 2247 2246 
1917 1918 2215 2214 1950 1951 2248 2247 
1918 1919 2216 2215 1951 1952 2249 2248 
1919 1920 2217 2216 1952 1953 2250 2249 
1920 1921 2218 2217 1953 1954 2251 2250 
1921 1922 2219 2218 1954 1955 2252 2251 
1922 1923 2220 2219 1955 1956 2253 2252 
1923 1924 2221 2220 1956 1957 2254 2253 
1924 1925 2222 2221 1957 1958 2255 2254 
1925 1926 2223 2222 1958 1959 2256 2255 
1926 1927 2224 2223 1959 1960 2257 2256 
1927 1928 2225 2224 1960 1961 2258 2257 
1928 1929 2226 2225 1961 1962 2259 2258 
1929 1930 2227 2226 1962 1963 2260 2259 
1930 1931 2228 2227 1963 1964 2261 2260 
1931 1932 2229 2228 1964 1965 2262 2261 
1932 1933 2230 2229 1965 1966 2263 2262 
1933 1934 2231 2230 1966 1967 2264 2263 
1934 1935 2232 2231 1967 1968 2265 2264 
1935 1936 2233 2232 1968 1969 2266 2265 
1936 1937 2234 2233 1969 1970 2267 2266 
1937 1938 2235 2234 1970 1971 2268 2267 
1938 1939 2236 2235 1971 1972 2269 2268 
1939 1940 2237 2236 1972 1973 2270 2269 
1940 1941 2238 2237 1973 1974 2271 2270 
1941 1942 2239 2238 1974 1975 2272 2271 
1942 1943 2240 2239 1975 1976 2273 2272 
1943 1944 2241 2240 1976 1977 2274 2273 
1944 1945 2242 2241 1977 1978 2275 2274 
1945 1946 2243 2242 1978 1979 2276 2275 
1947 1948 2245 2244 1980 1981 2278 2277 
1948 1949 2246 2245 1981 1982 2279 2278 
1949 1950 2247 2246 1982 1983 2280 2279 
1950 1951 2248 2247 1983 1984 2281 2280 
1951 1952 2249 2248 1984 1985 2282 2281 
1952 1953 2250 2249 1985 1986 2283 2282 
1953 1954 2251 2250 1986 1987 2284 2283 
1954 1955 2252 2251 1987 1988 2285 2284 
1955 1956 2253 2252 1988 1989 2286 2285 
1956 1957 2254 2253 1989 1990 2287 2286 
1957 1958 2255 2254 1990 1991 2288 2287 
1958 1959 2256 2255 1991 1992 2289 2288 
1959 1960 2257 2256 1992 1993 2290 2289 
1960 1961 2258 2257 1993 1994 2291 2290 
1961 1962 2259 2258 1994 1995 2292 2291 
1962 1963 2260 2259 1995 1996 2293 2292 
1963 1964 2261 2260 1996 1997 2294 2293 
1964 1965 2262 2261 1997 1998 2295 2294 
1965 1966 2263 2262 1998 1999 2296 2295 
1966 1967 2264 2263 1999 2000 2297 2296 
1967 1968 2265 2264 2000 2001 2298 2297 
1968 1969 2266 2265 2001 2002 2299 2298 
1969 1970 2267 2266 2002 2003 2300 2299 
1970 1971 2268 2267 2003 2004 2301 2300 
1971 1972 2269 2268 2004 2005 2302 2301 
1972 1973 2270 2269 2005 2006 2303 2302 
1973 1974 2271 2270 2006 2007 2304 2303 
1974 1975 2272 2271 2007 2008 2305 2304 
1975 1976 2273 2272 2008 2009 2306 2305 
1976 1977 2274 2273 2009 2010 2307 2306 
1977 1978 2275 2274 2010 2011 2308 2307 
1978 1979 2276 2275 2011 2012 2309 2308 
1980 1981 2278 2277 2013 2014 2311 2310 
1981 1982 2279 2278 2014 2015 2312 2311 
1982 1983 2280 2279 2015 2016 2313 2312 
1983 1984 2281 2280 2016 2017 2314 2313 
1984 1985 2282 2281 2017 2018 2315 2314 
1985 1986 2283 2282 2018 2019 2316 2315 
1986 1987 2284 2283 2019 2020 2317 2316 
1987 1988 2285 2284 2020 2021 2318 2317 
1988 1989 2286 2285 2021 2022 2319 2318 
1989 1990 2287 2286 2022 2023 2320 2319 
1990 1991 2288 2287 2023 2024 2321 2320 
1991 1992 2289 2288 2024 2025 2322 2321 
1992 1993 2290 2289 2025 2026 2323 2322 
1993 1994 2291 2290 2026 2027 2324 2323 
1994 1995 2292 2291 2027 2028 2325 2324 
1995 1996 2293 2292 2028 2029 2326 2325 
1996 1997 2294 2293 2029 2030 2327 2326 
1997 1998 2295 2294 2030 2031 2328 2327 
1998 1999 2296 2295 2031 2032 2329 2328 
1999 2000 2297 2296 2032 2033 2330 2329 
2000 2001 2298 2297 2033 2034 2331 2330 
2001 2002 2299 2298 2034 2035 2332 2331 
2002 2003 2300 2299 2035 2036 2333 2332 
2003 2004 2301 2300 2036 2037 2334 2333 
2004 2005 2302 2301 2037 2038 2335 2334 
2005 2006 2303 2302 2038 2039 2336 2335 
2006 2007 2304 2303 2039 2040 2337 2336 
2007 2008 2305 2304 2040 2041 2338 2337 
2008 2009 2306 2305 2041 2042 2339 2338 
2009 2010 2307 2306 2042 2043 2340 2339 
2010 2011 2308 2307 2043 2044 2341 2340 
2011 2012 2309 2308 2044 2045 2342 2341 
2013 2014 2311 2310 2046 2047 2344 2343 
2014 2015 2312 2311 2047 2048 2345 2344 
2015 2016 2313 2312 2048 2049 2346 2345 
2016 2017 2314 2313 2049 2050 2347 2346 
2017 2018 2315 2314 2050 2051 2348 2347 
2018 2019 2316 2315 2051 2052 2349 2348 
2019 2020 2317 2316 2052 2053 2350 2349 
2020 2021 2318 2317 2053 2054 2351 2350 
2021 2022 2319 2318 2054 2055 2352 2351 
2022 2023 2320 2319 2055 2056 2353 2352 
2023 2024 2321 2320 2056 2057 2354 2353 
2024 2025 2322 2321 2057 2058 2355 2354 
2025 2026 2323 2322 2058 2059 2356 2355 
2026 2027 2324 2323 2059 2060 2357 2356 
2027 2028 2325 2324 2060 2061 2358 2357 
2028 2029 2326 2325 2061 2062 2359 2358 
2029 2030 2327 2326 2062 2063 2360 2359 
2030 2031 2328 2327 2063 2064 2361 2360 
2031 2032 2329 2328 2064 2065 2362 2361 
2032 2033 2330 2329 2065 2066 2363 2362 
2033 2034 2331 2330 2066 2067 2364 2363 
2034 2035 2332 2331 2067 2068 2365 2364 
2035 2036 2333 2332 2068 2069 2366 2365 
2036 2037 2334 2333 2069 2070 2367 2366 
2037 2038 2335 2334 2070 2071 2368 2367 
2038 2039 2336 2335 2071 2072 2369 2368 
2039 2040 2337 2336 2072 2073 2370 2369 
2040 2041 2338 2337 2073 2074 2371 2370 
2041 2042 2339 2338 2074 2075 2372 2371 
2042 2043 2340 2339 2075 2076 2373 2372 
2043 2044 2341 2340 2076 2077 2374 2373 
2044 2045 2342 2341 2077 2078 2375 2374 
2079 2080 2377 2376 2112 2113 2410 2409 
2080 2081 2378 2377 2113 2114 2411 2410 
2081 2082 2379 2378 2114 2115 2412 2411 
2082 2083 2380 2379 2115 2116 2413 2412 
2083 2084 2381 2380 2116 2117 2414 2413 
2084 2085 2382 2381 2117 2118 2415 2414 
2085 2086 2383 2382 2118 2119 2416 2415 
2086 2087 2384 2383 2119 2120 2417 2416 
2087 2088 2385 2384 2120 2121 2418 2417 
2088 2089 2386 2385 2121 2122 2419 2418 
2089 2090 2387 2386 2122 2123 2420 2419 
2090 2091 2388 2387 2123 2124 2421 2420 
2091 2092 2389 2388 2124 2125 2422 2421 
2092 2093 2390 2389 2125 2126 2423 2422 
2093 2094 2391 2390 2126 2127 2424 2423 
2094 2095 2392 2391 2127 2128 2425 2424 
2095 2096 2393 2392 2128 2129 2426 2425 
2096 2097 2394 2393 2129 2130 2427 2426 
2097 2098 2395 2394 2130 2131 2428 2427 
2098 2099 2396 2395 2131 2132 2429 2428 
2099 2100 2397 2396 2132 2133 2430 2429 
2100 2101 2398 2397 2133 2134 2431 2430 
2101 2102 2399 2398 2134 2135 2432 2431 
2102 2103 2400 2399 2135 2136 2433 2432 
2103 2104 2401 2400 2136 2137 2434 2433 
2104 2105 2402 2401 2137 2138 2435 2434 
2105 2106 2403 2402 2138 2139 2436 2435 
2106 2107 2404 2403 2139 2140 2437 2436 
2107 2108 2405 2404 2140 2141 2438 2437 
2108 2109 2406 2405 2141 2142 2439 2438 
2109 2110 2407 2406 2142 2143 2440 2439 
2110 2111 2408 2407 2143 2144 2441 2440 
2112 2113 2410 2409 2145 2146 2443 2442 
2113 2114 2411 2410 2146 2147 2444 2443 
2114 2115 2412 2411 2147 2148 2445 2444 
2115 2116 2413 2412 2148 2149 2446 2445 
2116 2117 2414 2413 2149 2150 2447 2446 
2117 2118 2415 2414 2150 2151 2448 2447 
2118 2119 2416 2415 2151 2152 2449 2448 
2119 2120 2417 2416 2152 2153 2450 2449 
2120 2121 2418 2417 2153 2154 2451 2450 
2121 2122 2419 2418 2154 2155 2452 2451 
2122 2123 2420 2419 2155 2156 2453 2452 
2123 2124 2421 2420 2156 2157 2454 2453 
2124 2125 2422 2421 2157 2158 2455 2454 
2125 2126 2423 2422 2158 2159 2456 2455 
2126 2127 2424 2423 2159 2160 2457 2456 
2127 2128 2425 2424 2160 2161 2458 2457 
2128 2129 2426 2425 2161 2162 2459 2458 
2129 2130 2427 2426 2162 2163 2460 2459 
2130 2131 2428 2427 2163 2164 2461 2460 
2131 2132 2429 2428 2164 2165 2462 2461 
2132 2133 2430 2429 2165 2166 2463 2462 
2133 2134 2431 2430 2166 2167 2464 2463 
2134 2135 2432 2431 2167 2168 2465 2464 
2135 2136 2433 2432 2168 2169 2466 2465 
2136 2137 2434 2433 2169 2170 2467 2466 
2137 2138 2435 2434 2170 2171 2468 2467 
2138 2139 2436 2435 2171 2172 2469 2468 
2139 2140 2437 2436 2172 2173 2470 2469 
2140 2141 2438 2437 2173 2174 2471 2470 
2141 2142 2439 2438 2174 2175 2472 2471 
2142 2143 2440 2439 2175 2176 2473 2472 
2143 2144 2441 2440 2176 2177 2474 2473 
2145 2146 2443 2442 2178 2179 2476 2475 
2146 2147 2444 2443 2179 2180 2477 2476 
2147 2148 2445 2444 2180 2181 2478 2477 
2148 2149 2446 2445 2181 2182 2479 2478 
2149 2150 2447 2446 2182 2183 2480 2479 
2150 2151 2448 2447 2183 2184 2481 2480 
2151 2152 2449 2448 2184 2185 2482 2481 
2152 2153 2450 2449 2185 2186 2483 2482 
2153 2154 2451 2450 2186 2187 2484 2483 
2154 2155 2452 2451 2187 2188 2485 2484 
2155 2156 2453 2452 2188 2189 2486 2485 
2156 2157 2454 2453 2189 2190 2487 2486 
2157 2158 2455 2454 2190 2191 2488 2487 
2158 2159 2456 2455 2191 2192 2489 2488 
2159 2160 2457 2456 2192 2193 2490 2489 
2160 2161 2458 2457 2193 2194 2491 2490 
2161 2162 2459 2458 2194 2195 2492 2491 
2162 2163 2460 2459 2195 2196 2493 2492 
2163 2164 2461 2460 2196 2197 2494 2493 
2164 2165 2462 2461 2197 2198 2495 2494 
2165 2166 2463 2462 2198 2199 2496 2495 
2166 2167 2464 2463 2199 2200 2497 2496 
2167 2168 2465 2464 2200 2201 2498 2497 
2168 2169 2466 2465 2201 2202 2499 2498 
2169 2170 2467 2466 2202 2203 2500 2499 
2170 2171 2468 2467 2203 2204 2501 2500 
2171 2172 2469 2468 2204 2205 2502 2501 
2172 2173 2470 2469 2205 2206 2503 2502 
2173 2174 2471 2470 2206 2207 2504 2503 
2174 2175 2472 2471 2207 2208 2505 2504 
2175 2176 2473 2472 2208 2209 2506 2505 
2176 2177 2474 2473 2209 2210 2507 2506 
2178 2179 2476 2475 2211 2212 2509 2508 
2179 2180 2477 2476 2212 2213 2510 2509 
2180 2181 2478 2477 2213 2214 2511 2510 
2181 2182 2479 2478 2214 2215 2512 2511 
2182 2183 2480 2479 2215 2216 2513 2512 
2183 2184 2481 2480 2216 2217 2514 2513 
2184 2185 2482 2481 2217 2218 2515 2514 
2185 2186 2483 2482 2218 2219 2516 2515 
2186 2187 2484 2483 2219 2220 2517 2516 
2187 2188 2485 2484 2220 2221 2518 2517 
2188 2189 2486 2485 2221 2222 2519 2518 
2189 2190 2487 2486 2222 2223 2520 2519 
2190 2191 2488 2487 2223 2224 2521 2520 
2191 2192 2489 2488 2224 2225 2522 2521 
2192 2193 2490 2489 2225 2226 2523 2522 
2193 2194 2491 2490 2226 2227 2524 2523 
2194 2195 2492 2491 2227 2228 2525 2524 
2195 2196 2493 2492 2228 2229 2526 2525 
2196 2197 2494 2493 2229 2230 2527 2526 
2197 2198 2495 2494 2230 2231 2528 2527 
2198 2199 2496 2495 2231 2232 2529 2528 
2199 2200 2497 2496 2232 2233 2530 2529 
2200 2201 2498 2497 2233 2234 2531 2530 
2201 2202 2499 2498 2234 2235 2532 2531 
2202 2203 2500 2499 2235 2236 2533 2532 
2203 2204 2501 2500 2236 2237 2534 2533 
2204 2205 2502 2501 2237 2238 2535 2534 
2205 2206 2503 2502 2238 2239 2536 2535 
2206 2207 2504 2503 2239 2240 2537 2536 
2207 2208 2505 2504 2240 2241 2538 2537 
2208 2209 2506 2505 2241 2242 2539 2538 
2209 2210 2507 2506 2242 2243 2540 2539 
2211 2212 2509 2508 2244 2245 2542 2541 
2212 2213 2510 2509 2245 2246 2543 2542 
2213 2214 2511 2510 2246 2247 2544 2543 
2214 2215 2512 2511 2247 2248 2545 2544 
2215 2216 2513 2512 2248 2249 2546 2545 
2216 2217 2514 2513 2249 2250 2547 2546 
2217 2218 2515 2514 2250 2251 2548 2547 
2218 2219 2516 2515 2251 2252 2549 2548 
2219 2220 2517 2516 2252 2253 2550 2549 
2220 2221 2518 2517 2253 2254 2551 2550 
2221 2222 2519 2518 2254 2255 2552 2551 
2222 2223 2520 2519 2255 2256 2553 2552 
2223 2224 2521 2520 2256 2257 2554 2553 
2224 2225 2522 2521 2257 2258 2555 2554 
2225 2226 2523 2522 2258 2259 2556 2555 
2226 2227 2524 2523 2259 2260 2557 2556 
2227 2228 2525 2524 2260 2261 2558 2557 
2228 2229 2526 2525 2261 2262 2559 2558 
2229 2230 2527 2526 2262 2263 2560 2559 
2230 2231 2528 2527 2263 2264 2561 2560 
2231 2232 2529 2528 2264 2265 2562 2561 
2232 2233 2530 2529 2265 2266 2563 2562 
2233 2234 2531 2530 2266 2267 2564 2563 
2234 2235 2532 2531 2267 2268 2565 2564 
2235 2236 2533 2532 2268 2269 2566 2565 
2236 2237 2534 2533 2269 2270 2567 2566 
2237 2238 2535 2534 2270 2271 2568 2567 
2238 2239 2536 2535 2271 2272 2569 2568 
2239 2240 2537 2536 2272 2273 2570 2569 
2240 2241 2538 2537 2273 2274 2571 2570 
2241 2242 2539 2538 2274 2275 2572 2571 
2242 2243 2540 2539 2275 2276 2573 2572 
2244 2245 2542 2541 2277 2278 2575 2574 
2245 2246 2543 2542 2278 2279 2576 2575 
2246 2247 2544 2543 2279 2280 2577 2576 
2247 2248 2545 2544 2280 2281 2578 2577 
2248 2249 2546 2545 2281 2282 2579 2578 
2249 2250 2547 2546 2282 2283 2580 2579 
2250 2251 2548 2547 2283 2284 2581 2580 
2251 2252 2549 2548 2284 2285 2582 2581 
2252 2253 2550 2549 2285 2286 2583 2582 
2253 2254 2551 2550 2286 2287 2584 2583 
2254 2255 2552 2551 2287 2288 2585 2584 
2255 2256 2553 2552 2288 2289 2586 2585 
2256 2257 2554 2553 2289 2290 2587 2586 
2257 2258 2555 2554 2290 2291 2588 2587 
2258 2259 2556 2555 2291 2292 2589 2588 
2259 2260 2557 2556 2292 2293 2590 2589 
2260 2261 2558 2557 2293 2294 2591 2590 
2261 2262 2559 2558 2294 2295 2592 2591 
2262 2263 2560 2559 2295 2296 2593 2592 
2263 2264 2561 2560 2296 2297 2594 2593 
2264 2265 2562 2561 2297 2298 2595 2594 
2265 2266 2563 2562 2298 2299 2596 2595 
2266 2267 2564 2563 2299 2300 2597 2596 
2267 2268 2565 2564 2300 2301 2598 2597 
2268 2269 2566 2565 2301 2302 2599 2598 
2269 2270 2567 2566 2302 2303 2600 2599 
2270 2271 2568 2567 2303 2304 2601 2600 
2271 2272 2569 2568 2304 2305 2602 2601 
2272 2273 2570 2569 2305 2306 2603 2602 
2273 2274 2571 2570 2306 2307 2604 2603 
2274 2275 2572 2571 2307 2308 2605 2604 
2275 2276 2573 2572 2308 2309 2606 2605 
2277 2278 2575 2574 2310 2311 2608 2607 
2278 2279 2576 2575 2311 2312 2609 2608 
2279 2280 2577 2576 2312 2313 2610 2609 
2280 2281 2578 2577 2313 2314 2611 2610 
2281 2282 2579 2578 2314 2315 2612 2611 
2282 2283 2580 2579 2315 2316 2613 2612 
2283 2284 2581 2580 2316 2317 2614 2613 
2284 2285 2582 2581 2317 2318 2615 2614 
2285 2286 2583 2582 2318 2319 2616 2615 
2286 2287 2584 2583 2319 2320 2617 2616 
2287 2288 2585 2584 2320 2321 2618 2617 
2288 2289 2586 2585 2321 2322 2619 2618 
2289 2290 2587 2586 2322 2323 2620 2619 
2290 2291 2588 2587 2323 2324 2621 2620 
2291 2292 2589 2588 2324 2325 2622 2621 
2292 2293 2590 2589 2325 2326 2623 2622 
2293 2294 2591 2590 2326 2327 2624 2623 
2294 2295 2592 2591 2327 2328 2625 2624 
2295 2296 2593 2592 2328 2329 2626 2625 
2296 2297 2594 2593 2329 2330 2627 2626 
2297 2298 2595 2594 2330 2331 2628 2627 
2298 2299 2596 2595 2331 2332 2629 2628 
2299 2300 2597 2596 2332 2333 2630 2629 
2300 2301 2598 2597 2333 2334 2631 2630 
2301 2302 2599 2598 2334 2335 2632 2631 
2302 2303 2600 2599 2335 2336 2633 2632 
2303 2304 2601 2600 2336 2337 2634 2633 
2304 2305 2602 2601 2337 2338 2635 2634 
2305 2306 2603 2602 2338 2339 2636 2635 
2306 2307 2604 2603 2339 2340 2637 2636 
2307 2308 2605 2604 2340 2341 2638 2637 
2308 2309 2606 2605 2341 2342 2639 2638 
2310 2311 2608 2607 2343 2344 2641 2640 
2311 2312 2609 2608 2344 2345 2642 2641 
2312 2313 2610 2609 2345 2346 2643 2642 
2313 2314 2611 2610 2346 2347 2644 2643 
2314 2315 2612 2611 2347 2348 2645 2644 
2315 2316 2613 2612 2348 2349 2646 2645 
2316 2317 2614 2613 2349 2350 2647 2646 
2317 2318 2615 2614 2350 2351 2648 2647 
2318 2319 2616 2615 2351 2352 2649 2648 
2319 2320 2617 2616 2352 2353 2650 2649 
2320 2321 2618 2617 2353 2354 2651 2650 
2321 2322 2619 2618 2354 2355 2652 2651 
2322 2323 2620 2619 2355 2356 2653 2652 
2323 2324 2621 2620 2356 2357 2654 2653 
2324 2325 2622 2621 2357 2358 2655 2654 
2325 2326 2623 2622 2358 2359 2656 2655 
2326 2327 2624 2623 2359 2360 2657 2656 
2327 2328 2625 2624 2360 2361 2658 2657 
2328 2329 2626 2625 2361 2362 2659 2658 
2329 2330 2627 2626 2362 2363 2660 2659 
2330 2331 2628 2627 2363 2364 2661 2660 
2331 2332 2629 2628 2364 2365 2662 2661 
2332 2333 2630 2629 2365 2366 2663 2662 
2333 2334 2631 2630 2366 2367 2664 2663 
2334 2335 2632 2631 2367 2368 2665 2664 
2335 2336 2633 2632 2368 2369 2666 2665 
2336 2337 2634 2633 2369 2370 2667 2666 
2337 2338 2635 2634 2370 2371 2668 2667 
2338 2339 2636 2635 2371 2372 2669 2668 
2339 2340 2637 2636 2372 2373 2670 2669 
2340 2341 2638 2637 2373 2374 2671 2670 
2341 2342 2639 2638 2374 2375 2672 2671 
CELL_TYPES 2048
12 12 12 12 12 12 12 12 12 12 12 12 12 12 12 12 12 12 12 12 12 12 12 12 12 12 12 12 12 12 12 12 12 12 12 12 12 12 12 12 12 12 12 12 12 12 12 12 12 12 12 12 12 12 12 12 12 12 12 12 12 12 12 12 12 12 12 12 12 12 12 12 12 12 12 12 12 12 12 12 12 12 12 12 12 12 12 12 12 12 12 12 12 12 12 12 12 12 12 12 12 12 12 12 12 12 12 12 12 12 12 12 12 12 12 12 12 12 12 12 12 12 12 12 12 12 12 12 12 12 12 12 12 12 12 12 12 12 12 12 12 12 12 12 12 12 12 12 12 12 12 12 12 12 12 12 12 12 12 12 12 12 12 12 12 12 12 12 12 12 12 12 12 12 12 12 12 12 12 12 12 12 12 12 12 12 12 12 12 12 12 12 12 12 12 12 12 12 12 12 12 12 12 12 12 12 12 12 12 12 12 12 12 12 12 12 12 12 12 12 12 12 12 12 12 12 12 12 12 12 12 12 12 12 12 12 12 12 12 12 12 12 12 12 12 12 12 12 12 12 12 12 12 12 12 12 12 12 12 12 12 12 12 12 12 12 12 12 12 12 12 12 12 12 12 12 12 12 12 12 12 12 12 12 12 12 12 12 12 12 12 12 12 12 12 12 12 12 12 12 12 12 12 12 12 12 12 12 12 12 12 12 12 12 12 12 12 12 12 12 12 12 12 12 12 12 12 12 12 12 12 12 12 12 12 12 12 12 12 12 12 12 12 12 12 12 12 12 12 12 12 12 12 12 12 12 12 12 12 12 12 12 12 12 12 12 12 12 12 12 12 12 12 12 12 12 12 12 12 12 12 12 12 12 12 12 12 12 12 12 12 12 12 12 12 12 12 12 12 12 12 12 12 12 12 12 12 12 12 12 12 12 12 12 12 12 12 12 12 12 12 12 12 12 12 12 12 12 12 12 12 12 12 12 12 12 12 12 12 12 12 12 12 12 12 12 12 12 12 12 12 12 12 12 12 12 12 12 12 12 12 12 12 12 12 12 12 12 12 12 12 12 12 12 12 12 12 12 12 12 12 12 12 12 12 12 12 12 12 12 12 12 12 12 12 12 12 12 12 12 12 12 12 12 12 12 12 12 12 12 12 12 12 12 12 12 12 12 12 12 12 12 12 12 12 12 12 12 12 12 12 12 12 12 12 12 12 12 12 12 12 12 12 12 12 12 12 12 12 12 12 12 12 12 12 12 12 12 12 12 12 12 12 12 12 12 12 12 12 12 12 12 12 12 12 12 12 12 12 12 12 12 12 12 12 12 12 12 12 12 12 12 12 12 12 12 12 12 12 12 12 12 12 12 12 12 12 12 12 12 12 12 12 12 12 12 12 12 12 12 12 12 12 12 12 12 12 12 12 12 12 12 12 12 12 12 12 12 12 12 12 12 12 12 12 12 12 12 12 12 12 12 12 12 12 12 12 12 12 12 12 12 12 12 12 12 12 12 12 12 12 12 12 12 12 12 12 12 12 12 12 12 12 12 12 12 12 12 12 12 12 12 12 12 12 12 12 12 12 12 12 12 12 12 12 12 12 12 12 12 12 12 12 12 12 12 12 12 12 12 12 12 12 12 12 12 12 12 12 12 12 12 12 12 12 12 12 12 12 12 12 12 12 12 12 12 12 12 12 12 12 12 12 12 12 12 12 12 12 12 12 12 12 12 12 12 12 12 12 12 12 12 12 12 12 12 12 12 12 12 12 12 12 12 12 12 12 12 12 12 12 12 12 12 12 12 12 12 12 12 12 12 12 12 12 12 12 12 12 12 12 12 12 12 12 12 12 12 12 12 12 12 12 12 12 12 12 12 12 12 12 12 12 12 12 12 12 12 12 12 12 12 12 12 12 12 12 12 12 12 12 12 12 12 12 12 12 12 12 12 12 12 12 12 12 12 12 12 12 12 12 12 12 12 12 12 12 12 12 12 12 12 12 12 12 12 12 12 12 12 12 12 12 12 12 12 12 12 12 12 12 12 12 12 12 12 12 12 12 12 12 12 12 12 12 12 12 12 12 12 12 12 12 12 12 12 12 12 12 12 12 12 12 12 12 12 12 12 12 12 12 12 12 12 12 12 12 12 12 12 12 12 12 12 12 12 12 12 12 12 12 12 12 12 12 12 12 12 12 12 12 12 12 12 12 12 12 12 12 12 12 12 12 12 12 12 12 12 12 12 12 12 12 12 12 12 12 12 12 12 12 12 12 12 12 12 12 12 12 12 12 12 12 12 12 12 12 12 12 12 12 12 12 12 12 12 12 12 12 12 12 12 12 12 12 12 12 12 12 12 12 12 12 12 12 12 12 12 12 12 12 12 12 12 12 12 12 12 12 12 12 12 12 12 12 12 12 12 12 12 12 12 12 12 12 12 12 12 12 12 12 12 12 12 12 12 12 12 12 12 12 12 12 12 12 12 12 12 12 12 12 12 12 12 12 12 12 12 12 12 12 12 12 12 12 12 12 12 12 12 12 12 12 12 12 12 12 12 12 12 12 12 12 12 12 12 12 12 12 12 12 12 12 12 12 12 12 12 12 12 12 12 12 12 12 12 12 12 12 12 12 12 12 12 12 12 12 12 12 12 12 12 12 12 12 12 12 12 12 12 12 12 12 12 12 12 12 12 12 12 12 12 12 12 12 12 12 12 12 12 12 12 12 12 12 12 12 12 12 12 12 12 12 12 12 12 12 12 12 12 12 12 12 12 12 12 12 12 12 12 12 12 12 12 12 12 12 12 12 12 12 12 12 12 12 12 12 12 12 12 12 12 12 12 12 12 12 12 12 12 12 12 12 12 12 12 12 12 12 12 12 12 12 12 12 12 12 12 12 12 12 12 12 12 12 12 12 12 12 12 12 12 12 12 12 12 12 12 12 12 12 12 12 12 12 12 12 12 12 12 12 12 12 12 12 12 12 12 12 12 12 12 12 12 12 12 12 12 12 12 12 12 12 12 12 12 12 12 12 12 12 12 12 12 12 12 12 12 12 12 12 12 12 12 12 12 12 12 12 12 12 12 12 12 12 12 12 12 12 12 12 12 12 12 12 12 12 12 12 12 12 12 12 12 12 12 12 12 12 12 12 12 12 12 12 12 12 12 12 12 12 12 12 12 12 12 12 12 12 12 12 12 12 12 12 12 12 12 12 12 12 12 12 12 12 12 12 12 12 12 12 12 12 12 12 12 12 12 12 12 12 12 12 12 12 12 12 12 12 12 12 12 12 12 12 12 12 12 12 12 12 12 12 12 12 12 12 12 12 12 12 12 12 12 12 12 12 12 12 12 12 12 12 12 12 12 12 12 12 12 12 12 12 12 12 12 12 12 12 12 12 12 12 12 12 12 12 12 12 12 12 12 12 12 12 12 12 12 12 12 12 12 12 12 12 12 12 12 12 12 12 12 12 12 12 12 12 12 12 12 12 12 12 12 12 12 12 12 12 12 12 12 12 12 12 12 12 12 12 12 12 12 12 12 12 12 12 12 12 12 12 12 12 12 12 12 12 12 12 12 12 12 12 12 12 12 12 12 12 12 12 12 12 12 12 12 12 12 12 12 12 12 12 12 12 12 12 12 12 12 12 12 12 12 12 12 12 12 12 12 12 12 12 12 12 12 12 12 12 12 12 12 12 12 12 12 12 12 12 12 12 12 12 12 12 12 12 12 12 12 12 12 12 12 12 12 12 12 12 12 12 12 12 12 12 12 12 12 12 12 12 12 12 12 12 12 12 12 12 12 12 12 12 12 12 12 12 12 12 12 12 12 12 12 12 12 12 12 12 12 12 12 12 12 12 12 12 12 12 12 12 12 12 12 12 12 12 12 12 12 12 12 12 12 12 12 12 12 12 12 12 12 12 12 12 12 12 12 12 12 12 12 12 12 12 12 12 12 12 12 12 12 12 12 12 12 12 12 12 12 12 12 12 12 12 12 12 12 12 12 12 12 12 12 12 12 12 12 12 12 12 12 12 12 12 12 12 12 12 12 12 12 12 12 12 12 12 12 12 12 12 12 12 12 12 12 12 12 12 12 12 12 12 12 12 12 12 12 12 12 12 12 12 12 12 12 12 12 12 12 12 12 12 12 12 12 12 12 12 12 12 12 12 12 12 12 12 12 12 12 12 12 12 12 12 12 12 12 12 12 12 12 12 12 12 12 12 12 12 12 12 12 12 12 12 12 12 12 12 12 12 12 12 12 12 12 12 12 12 12 12 12 12 12 12 12 12 12 12 12 12 12 12 12 12 12 12 12 12 12 12 12 12 12 12 12 12 12 12 12 12 12 12 12 12 12 12 12 12 12 12 12 12 12 12 12 12 12 12 12 12 12 12 12 12 12 12 12 12 12 12 12 12 12 12 12 12 12 12 12 12 12 12 12 12 12 12 12 12 12 12 12 12 12 12 12 12 12 12 12 12 12 12 12 12 12 12 12 12 12 12 12 12 12 12 12 12 12 12 12 12 12 12 12 12 12 12 12 12 12 12 12 12 12 12 12 12 12 12 12 12 12 12 12 12 12 12 12 12 12 12 12 12 12 12 12 12 12 12 12 12 12 12 12 12 12 12 12 

POINT_DATA 2673
SCALARS weights float 1
LOOKUP_TABLE default
0.244141 0.488281 0.488281 0.488281 0.488281 0.488281 0.488281 0.488281 0.488281 0.488281 0.488281 0.488281 0.488281 0.488281 0.488281 0.488281 0.488281 0.488281 0.488281 0.488281 0.488281 0.488281 0.488281 0.488281 0.488281 0.488282 0.488281 0.488281 0.488281 0.488281 0.488281 0.488281 0.244141 0.488281 0.976563 0.976562 0.976562 0.976562 0.976562 0.976563 0.976563 0.976562 0.976562 0.976563 0.976563 0.976563 0.976563 0.976562 0.976562 0.976562 0.976562 0.976562 0.976562 0.976563 0.976563 0.976563 0.976562 0.976563 0.976563 0.976562 0.976563 0.976563 0.976562 0.976562 0.976562 0.488281 0.488281 0.976562 0.976562 0.976562 0.976562 0.976562 0.976563 0.976563 0.976562 0.976562 0.976563 0.976562 0.976563 0.976563 0.976562 0.976562 0.976562 0.976562 0.976562 0.976562 0.976563 0.976563 0.976562 0.976562 0.976563 0.976563 0.976562 0.976562 0.976562 0.976562 0.976562 0.976562 0.488281 0.488281 0.976562 0.976562 0.976562 0.976562 0.976562 0.976563 0.976562 0.976562 0.976562 0.976563 0.976562 0.976562 0.976563 0.976562 0.976562 0.976562 0.976562 0.976562 0.976562 0.976563 0.976563 0.976562 0.976562 0.976563 0.976563 0.976562 0.976562 0.976562 0.976562 0.976562 0.976562 0.488281 0.488281 0.976562 0.976562 0.976562 0.976562 0.976562 0.976563 0.976562 0.976562 0.976562 0.976563 0.976562 0.976563 0.976563 0.976562 0.976562 0.976562 0.976562 0.976562 0.976562 0.976563 0.976563 0.976562 0.976562 0.976563 0.976563 0.976562 0.976562 0.976562 0.976562 0.976562 0.976562 0.488281 0.488281 0.976562 0.976562 0.976562 0.976562 0.976562 0.976562 0.976562 0.976562 0.976562 0.976562 0.976562 0.976562 0.976563 0.976562 0.976562 0.976562 0.976562 0.976562 0.976562 0.976562 0.976563 0.976562 0.976562 0.976563 0.976563 0.976562 0.976562 0.976562 0.976562 0.976562 0.976562 0.488281 0.488281 0.976562 0.976562 0.976562 0.976562 0.976562 0.976563 0.976563 0.976562 0.976562 0.976563 0.976562 0.976563 0.976563 0.976562 0.976562 0.976562 0.976562 0.976562 0.976562 0.976563 0.976563 0.976563 0.976562 0.976563 0.976563 0.976562 0.976562 0.976562 0.976562 0.976562 0.976562 0.488281 0.488281 0.976562 0.976562 0.976562 0.976562 0.976562 0.976563 0.976562 0.976562 0.976562 0.976563 0.976562 0.976563 0.976563 0.976562 0.976562 0.976562 0.976562 0.976562 0.976562 0.976563 0.976563 0.976563 0.976562 0.976563 0.976563 0.976562 0.976562 0.976562 0.976562 0.976562 0.976562 0.488281 0.244141 0.488281 0.488281 0.488281 0.488281 0.488281 0.488281 0.488281 0.488281 0.488281 0.488281 0.488281 0.488281 0.488281 0.488281 0.488281 0.488281 0.488281 0.488281 0.488281 0.488281 0.488281 0.488281 0.488281 0.488281 0.488281 0.488281 0.488281 0.488281 0.488281 0.488281 0.488281 0.244141 0.488281 0.976563 0.976563 0.976563 0.976563 0.976563 0.976563 0.976563 0.976563 0.976563 0.976563 0.976563 0.976563 0.976563 0.976563 0.976563 0.976563 0.976562 0.976562 0.976563 0.976563 0.976563 0.976563 0.976563 0.976563 0.976563 0.976562 0.976563 0.976563 0.976562 0.976563 0.976563 0.488281 0.976563 1.95313 1.95313 1.95313 1.95313 1.95313 1.95313 1.95313 1.95312 1.95313 1.95313 1.95313 1.95313 1.95313 1.95313 1.95313 1.95313 1.95312 1.95312 1.95313 1.95313 1.95313 1.95313 1.95313 1.95313 1.95313 1.95312 1.95313 1.95313 1.95312 1.95313 1.95313 0.976563 0.976563 1.95313 1.95313 1.95313 1.95313 1.95313 1.95313 1.95313 1.95312 1.95313 1.95313 1.95313 1.95313 1.95313 1.95312 1.95313 1.95313 1.95312 1.95312 1.95313 1.95313 1.95313 1.95313 1.95312 1.95313 1.95313 1.95312 1.95313 1.95313 1.95312 1.95313 1.95313 0.976563 0.976563 1.95313 1.95313 1.95313 1.95313 1.95313 1.95313 1.95313 1.95312 1.95313 1.95313 1.95313 1.95313 1.95313 1.95312 1.95313 1.95313 1.95312 1.95312 1.95313 1.95313 1.95313 1.95313 1.95312 1.95313 1.95313 1.95312 1.95313 1.95313 1.95312 1.95313 1.95313 0.976563 0.976563 1.95313 1.95313 1.95313 1.95313 1.95313 1.95313 1.95313 1.95312 1.95313 1.95313 1.95313 1.95313 1.95313 1.95313 1.95313 1.95313 1.95312 1.95312 1.95313 1.95313 1.95313 1.95313 1.95313 1.95313 1.95313 1.95312 1.95313 1.95313 1.95312 1.95313 1.95313 0.976563 0.976563 1.95313 1.95313 1.95313 1.95313 1.95313 1.95313 1.95313 1.95312 1.95312 1.95313 1.95313 1.95313 1.95313 1.95312 1.95312 1.95313 1.95312 1.95312 1.95312 1.95313 1.95313 1.95313 1.95312 1.95313 1.95313 1.95312 1.95313 1.95313 1.95312 1.95313 1.95313 0.976563 0.976563 1.95313 1.95313 1.95313 1.95313 1.95313 1.95313 1.95313 1.95313 1.95313 1.95313 1.95313 1.95313 1.95313 1.95313 1.95313 1.95313 1.95312 1.95312 1.95313 1.95313 1.95313 1.95313 1.95313 1.95313 1.95313 1.95312 1.95313 1.95313 1.95312 1.95313 1.95313 0.976563 0.976563 1.95313 1.95313 1.95313 1.95313 1.95313 1.95313 1.95313 1.95312 1.95313 1.95313 1.95313 1.95313 1.95313 1.95312 1.95312 1.95313 1.95312 1.95312 1.95313 1.95313 1.95313 1.95313 1.95312 1.95313 1.95313 1.95312 1.95313 1.95313 1.95312 1.95313 1.95313 0.976563 0.488281 0.976563 0.976563 0.976563 0.976563 0.976563 0.976563 0.976563 0.976562 0.976562 0.976563 0.976562 0.976563 0.976563 0.976562 0.976562 0.976562 0.976562 0.976562 0.976562 0.976563 0.976563 0.976563 0.976562 0.976563 0.976563 0.976562 0.976562 0.976562 0.976562 0.976562 0.976562 0.488281 0.488281 0.976563 0.976563 0.976563 0.976563 0.976563 0.976563 0.976563 0.976562 0.976563 0.976563 0.976563 0.976563 0.976563 0.976563 0.976563 0.976563 0.976562 0.976562 0.976563 0.976563 0.976563 0.976563 0.976563 0.976563 0.976563 0.976562 0.976563 0.976563 0.976562 0.976563 0.976563 0.488281 0.976563 1.95313 1.95313 1.95313 1.95313 1.95313 1.95313 1.95313 1.95312 1.95313 1.95313 1.95313 1.95313 1.95313 1.95313 1.95313 1.95313 1.95312 1.95312 1.95313 1.95313 1.95313 1.95313 1.95313 1.95313 1.95313 1.95312 1.95313 1.95313 1.95312 1.95313 1.95313 0.976563 0.976563 1.95313 1.95313 1.95313 1.95313 1.95313 1.95313 1.95313 1.95312 1.95313 1.95313 1.95313 1.95313 1.95313 1.95312 1.95313 1.95313 1.95312 1.95312 1.95313 1.95313 1.95313 1.95313 1.95312 1.95313 1.95313 1.95312 1.95313 1.95313 1.95312 1.95313 1.95313 0.976563 0.976563 1.95313 1.95313 1.95313 1.95313 1.95313 1.95313 1.95313 1.95312 1.95312 1.95313 1.95312 1.95313 1.95313 1.95312 1.95312 1.95313 1.95312 1.95312 1.95313 1.95313 1.95313 1.95313 1.95312 1.95313 1.95313 1.95312 1.95313 1.95313 1.95312 1.95313 1.95313 0.976563 0.976563 1.95313 1.95313 1.95313 1.95313 1.95313 1.95313 1.95313 1.95312 1.95313 1.95313 1.95313 1.95313 1.95313 1.95313 1.95313 1.95313 1.95312 1.95312 1.95313 1.95313 1.95313 1.95313 1.95313 1.95313 1.95313 1.95312 1.95313 1.95313 1.95312 1.95313 1.95313 0.976563 0.976563 1.95313 1.95313 1.95313 1.95313 1.95313 1.95313 1.95313 1.95312 1.95312 1.95313 1.95312 1.95313 1.95313 1.95312 1.95312 1.95313 1.95312 1.95312 1.95313 1.95313 1.95313 1.95313 1.95312 1.95313 1.95313 1.95312 1.95313 1.95313 1.95312 1.95313 1.95313 0.976563 0.976563 1.95313 1.95313 1.95313 1.95313 1.95313 1.95313 1.95313 1.95312 1.95313 1.95313 1.95313 1.95313 1.95313 1.95313 1.95312 1.95313 1.95312 1.95312 1.95313 1.95313 1.95313 1.95313 1.95313 1.95313 1.95313 1.95312 1.95313 1.95313 1.95312 1.95313 1.95313 0.976563 0.976563 1.95313 1.95313 1.95313 1.95313 1.95313 1.95313 1.95313 1.95312 1.95312 1.95313 1.95313 1.95313 1.95313 1.95313 1.95312 1.95313 1.95312 1.95312 1.95313 1.95313 1.95313 1.95313 1.95313 1.95313 1.95313 1.95312 1.95313 1.95313 1.95312 1.95313 1.95313 0.976563 0.488281 0.976562 0.976562 0.976563 0.976563 0.976562 0.976563 0.976562 0.976562 0.976562 0.976563 0.976562 0.976563 0.976563 0.976562 0.976562 0.976562 0.976562 0.976562 0.976562 0.976563 0.976563 0.976563 0.976562 0.976563 0.976563 0.976562 0.976562 0.976562 0.976562 0.976562 0.976562 0.488281 0.488281 0.976562 0.976562 0.976562 0.976562 0.976562 0.976563 0.976562 0.976562 0.976562 0.976563 0.976562 0.976563 0.976563 0.976562 0.976562 0.976562 0.976562 0.976562 0.976562 0.976563 0.976563 0.976562 0.976562 0.976563 0.976563 0.976562 0.976562 0.976562 0.976562 0.976562 0.976562 0.488281 0.976562 1.95312 1.95312 1.95312 1.95312 1.95312 1.95313 1.95312 1.95312 1.95312 1.95313 1.95312 1.95313 1.95313 1.95312 1.95312 1.95312 1.95312 1.95312 1.95312 1.95313 1.95313 1.95312 1.95312 1.95313 1.95313 1.95312 1.95313 1.95313 1.95312 1.95312 1.95312 0.976563 0.976562 1.95312 1.95312 1.95312 1.95312 1.95312 1.95313 1.95312 1.95312 1.95312 1.95313 1.95312 1.95312 1.95313 1.95312 1.95312 1.95312 1.95312 1.95312 1.95312 1.95313 1.95313 1.95312 1.95312 1.95313 1.95313 1.95312 1.95312 1.95312 1.95312 1.95312 1.95312 0.976563 0.976562 1.95312 1.95312 1.95312 1.95312 1.95312 1.95312 1.95312 1.95312 1.95312 1.95312 1.95312 1.95312 1.95313 1.95312 1.95312 1.95312 1.95312 1.95312 1.95312 1.95312 1.95313 1.95312 1.95312 1.95313 1.95313 1.95312 1.95312 1.95312 1.95312 1.95312 1.95312 0.976563 0.976562 1.95312 1.95312 1.95312 1.95312 1.95312 1.95312 1.95312 1.95312 1.95312 1.95312 1.95312 1.95312 1.95313 1.95312 1.95312 1.95312 1.95312 1.95312 1.95312 1.95312 1.95313 1.95312 1.95312 1.95313 1.95313 1.95312 1.95312 1.95312 1.95312 1.95312 1.95312 0.976563 0.976562 1.95312 1.95312 1.95312 1.95312 1.95312 1.95312 1.95312 1.95312 1.95312 1.95312 1.95312 1.95312 1.95313 1.95312 1.95312 1.95312 1.95312 1.95312 1.95312 1.95312 1.95313 1.95312 1.95312 1.95313 1.95313 1.95312 1.95312 1.95312 1.95312 1.95312 1.95312 0.976563 0.976562 1.95312 1.95312 1.95312 1.95312 1.95312 1.95313 1.95312 1.95312 1.95312 1.95313 1.95312 1.95313 1.95313 1.95312 1.95312 1.95312 1.95312 1.95312 1.95312 1.95313 1.95313 1.95312 1.95312 1.95313 1.95313 1.95312 1.95312 1.95312 1.95312 1.95312 1.95312 0.976563 0.976562 1.95312 1.95312 1.95312 1.95312 1.95312 1.95313 1.95312 1.95312 1.95312 1.95313 1.95312 1.95313 1.95313 1.95312 1.95312 1.95312 1.95312 1.95312 1.95312 1.95313 1.95313 1.95312 1.95312 1.95313 1.95313 1.95312 1.95312 1.95312 1.95312 1.95312 1.95312 0.976563 0.488281 0.976562 0.976562 0.976562 0.976562 0.976562 0.976562 0.976562 0.976562 0.976562 0.976562 0.976562 0.976562 0.976563 0.976562 0.976562 0.976562 0.976562 0.976562 0.976562 0.976562 0.976562 0.976562 0.976562 0.976562 0.976563 0.976562 0.976562 0.976562 0.976562 0.976562 0.976562 0.488281 0.488281 0.976562 0.976562 0.976562 0.976562 0.976562 0.976562 0.976562 0.976562 0.976562 0.976562 0.976562 0.976562 0.976563 0.976562 0.976562 0.976562 0.976562 0.976562 0.976562 0.976562 0.976562 0.976562 0.976562 0.976563 0.976563 0.976562 0.976562 0.976562 0.976562 0.976562 0.976562 0.488281 0.976562 1.95312 1.95312 1.95312 1.95312 1.95312 1.95312 1.95312 1.95312 1.95312 1.95312 1.95312 1.95312 1.95313 1.95312 1.95312 1.95312 1.95312 1.95312 1.95312 1.95312 1.95312 1.95312 1.95312 1.95312 1.95313 1.95312 1.95312 1.95312 1.95312 1.95312 1.95312 0.976562 0.976562 1.95312 1.95312 1.95312 1.95312 1.95312 1.95312 1.95312 1.95312 1.95312 1.95312 1.95312 1.95312 1.95312 1.95312 1.95312 1.95312 1.95312 1.95312 1.95312 1.95312 1.95312 1.95312 1.95312 1.95312 1.95313 1.95312 1.95312 1.95312 1.95312 1.95312 1.95312 0.976562 0.976562 1.95312 1.95312 1.95312 1.95312 1.95312 1.95312 1.95312 1.95312 1.95312 1.95312 1.95312 1.95312 1.95312 1.95312 1.95312 1.95312 1.95312 1.95312 1.95312 1.95312 1.95312 1.95312 1.95312 1.95312 1.95313 1.95312 1.95312 1.95312 1.95312 1.95312 1.95312 0.976562 0.976562 1.95312 1.95312 1.95312 1.95312 1.95312 1.95312 1.95312 1.95312 1.95312 1.95312 1.95312 1.95312 1.95312 1.95312 1.95312 1.95312 1.95312 1.95312 1.95312 1.95312 1.95312 1.95312 1.95312 1.95312 1.95313 1.95312 1.95312 1.95312 1.95312 1.95312 1.95312 0.976562 0.976562 1.95312 1.95312 1.95312 1.95312 1.95312 1.95312 1.95312 1.95312 1.95312 1.95312 1.95312 1.95312 1.95312 1.95312 1.95312 1.95312 1.95312 1.95312 1.95312 1.95312 1.95312 1.95312 1.95312 1.95312 1.95313 1.95312 1.95312 1.95312 1.95312 1.95312 1.95312 0.976562 0.976562 1.95312 1.95312 1.95312 1.95312 1.95312 1.95312 1.95312 1.95312 1.95312 1.95312 1.95312 1.95312 1.95313 1.95312 1.95312 1.95312 1.95312 1.95312 1.95312 1.95312 1.95312 1.95312 1.95312 1.95312 1.95313 1.95312 1.95312 1.95312 1.95312 1.95312 1.95312 0.976562 0.976562 1.95312 1.95312 1.95312 1.95312 1.95312 1.95312 1.95312 1.95312 1.95312 1.95312 1.95312 1.95312 1.95313 1.95312 1.95312 1.95312 1.95312 1.95312 1.95312 1.95312 1.95312 1.95312 1.95312 1.95312 1.95313 1.95312 1.95312 1.95312 1.95312 1.95312 1.95312 0.976562 0.488281 0.976562 0.976562 0.976562 0.976562 0.976562 0.976562 0.976562 0.976562 0.976562 0.976562 0.976562 0.976562 0.976562 0.976562 0.976562 0.976562 0.976562 0.976562 0.976562 0.976562 0.976562 0.976562 0.976562 0.976562 0.976562 0.976561 0.976562 0.976562 0.976561 0.976562 0.976562 0.488281 0.488281 0.976562 0.976562 0.976562 0.976562 0.976562 0.976562 0.976562 0.976562 0.976562 0.976562 0.976562 0.976562 0.976562 0.976562 0.976562 0.976562 0.976561 0.976561 0.976562 0.976562 0.976562 0.976562 0.976562 0.976562 0.976562 0.976561 0.976562 0.976562 0.976561 0.976562 0.976562 0.488281 0.976562 1.95312 1.95312 1.95312 1.95312 1.95312 1.95312 1.95312 1.95312 1.95312 1.95312 1.95312 1.95312 1.95312 1.95312 1.95312 1.95312 1.95312 1.95312 1.95312 1.95312 1.95312 1.95312 1.95312 1.95312 1.95312 1.95312 1.95312 1.95312 1.95312 1.95312 1.95312 0.976562 0.976562 1.95312 1.95312 1.95312 1.95312 1.95312 1.95312 1.95312 1.95312 1.95312 1.95312 1.95312 1.95312 1.95312 1.95312 1.95312 1.95312 1.95312 1.95312 1.95312 1.95312 1.95312 1.95312 1.95312 1.95312 1.95312 1.95312 1.95312 1.95312 1.95312 1.95312 1.95312 0.976562 0.976562 1.95312 1.95312 1.95312 1.95312 1.95312 1.95312 1.95312 1.95312 1.95312 1.95312 1.95312 1.95312 1.95312 1.95312 1.95312 1.95312 1.95312 1.95312 1.95312 1.95312 1.95312 1.95312 1.95312 1.95312 1.95312 1.95312 1.95312 1.95312 1.95312 1.95312 1.95312 0.976562 0.976562 1.95312 1.95312 1.95312 1.95312 1.95312 1.95312 1.95312 1.95312 1.95312 1.95312 1.95312 1.95312 1.95312 1.95312 1.95312 1.95312 1.95312 1.95312 1.95312 1.95312 1.95312 1.95312 1.95312 1.95312 1.95312 1.95312 1.95312 1.95312 1.95312 1.95312 1.95312 0.976562 0.976562 1.95312 1.95312 1.95312 1.95312 1.95312 1.95312 1.95312 1.95312 1.95312 1.95312 1.95312 1.95312 1.95312 1.95312 1.95312 1.95312 1.95312 1.95312 1.95312 1.95312 1.95312 1.95312 1.95312 1.95312 1.95312 1.95312 1.95312 1.95312 1.95312 1.95312 1.95312 0.976562 0.976562 1.95312 1.95312 1.95312 1.95312 1.95312 1.95312 1.95312 1.95312 1.95312 1.95312 1.95312 1.95312 1.95312 1.95312 1.95312 1.95312 1.95312 1.95312 1.95312 1.95312 1.95312 1.95312 1.95312 1.95312 1.95312 1.95312 1.95312 1.95312 1.95312 1.95312 1.95312 0.976562 0.976562 1.95312 1.95312 1.95312 1.95312 1.95312 1.95312 1.95312 1.95312 1.95312 1.95312 1.95312 1.95312 1.95312 1.95312 1.95312 1.95312 1.95312 1.95312 1.95312 1.95312 1.95312 1.95312 1.95312 1.95312 1.95312 1.95312 1.95312 1.95312 1.95312 1.95312 1.95312 0.976562 0.488281 0.976562 0.976562 0.976562 0.976562 0.976562 0.976562 0.976562 0.976561 0.976562 0.976562 0.976562 0.976562 0.976562 0.976562 0.976562 0.976562 0.976561 0.976561 0.976562 0.976562 0.976562 0.976562 0.976562 0.976562 0.976562 0.976561 0.976562 0.976562 0.976561 0.976562 0.976562 0.488281 0.488281 0.976562 0.976562 0.976562 0.976562 0.976562 0.976562 0.976562 0.976562 0.976562 0.976562 0.976562 0.976562 0.976563 0.976562 0.976562 0.976562 0.976562 0.976562 0.976562 0.976562 0.976563 0.976562 0.976562 0.976563 0.976563 0.976562 0.976562 0.976562 0.976562 0.976562 0.976562 0.488281 0.976562 1.95312 1.95312 1.95312 1.95312 1.95312 1.95312 1.95312 1.95312 1.95312 1.95312 1.95312 1.95313 1.95313 1.95312 1.95312 1.95312 1.95312 1.95312 1.95312 1.95312 1.95313 1.95312 1.95312 1.95313 1.95313 1.95312 1.95312 1.95312 1.95312 1.95312 1.95312 0.976563 0.976562 1.95312 1.95312 1.95312 1.95312 1.95312 1.95312 1.95312 1.95312 1.95312 1.95312 1.95312 1.95312 1.95313 1.95312 1.95312 1.95312 1.95312 1.95312 1.95312 1.95312 1.95312 1.95312 1.95312 1.95313 1.95313 1.95312 1.95312 1.95312 1.95312 1.95312 1.95312 0.976563 0.976562 1.95312 1.95312 1.95312 1.95312 1.95312 1.95312 1.95312 1.95312 1.95312 1.95312 1.95312 1.95312 1.95313 1.95312 1.95312 1.95312 1.95312 1.95312 1.95312 1.95312 1.95312 1.95312 1.95312 1.95313 1.95313 1.95312 1.95312 1.95312 1.95312 1.95312 1.95312 0.976563 0.976562 1.95312 1.95312 1.95312 1.95312 1.95312 1.95312 1.95312 1.95312 1.95312 1.95312 1.95312 1.95312 1.95313 1.95312 1.95312 1.95312 1.95312 1.95312 1.95312 1.95312 1.95312 1.95312 1.95312 1.95313 1.95313 1.95312 1.95312 1.95312 1.95312 1.95312 1.95312 0.976563 0.976562 1.95312 1.95312 1.95312 1.95312 1.95312 1.95312 1.95312 1.95312 1.95312 1.95312 1.95312 1.95312 1.95312 1.95312 1.95312 1.95312 1.95312 1.95312 1.95312 1.95312 1.95312 1.95312 1.95312 1.95313 1.95313 1.95312 1.95312 1.95312 1.95312 1.95312 1.95312 0.976562 0.976562 1.95312 1.95312 1.95312 1.95312 1.95312 1.95312 1.95312 1.95312 1.95312 1.95312 1.95312 1.95312 1.95313 1.95312 1.95312 1.95312 1.95312 1.95312 1.95312 1.95312 1.95312 1.95312 1.95312 1.95313 1.95313 1.95312 1.95312 1.95312 1.95312 1.95312 1.95312 0.976563 0.976562 1.95312 1.95312 1.95312 1.95312 1.95312 1.95313 1.95312 1.95312 1.95312 1.95312 1.95312 1.95312 1.95313 1.95312 1.95312 1.95312 1.95312 1.95312 1.95312 1.95312 1.95312 1.95312 1.95312 1.95313 1.95313 1.95312 1.95312 1.95312 1.95312 1.95312 1.95312 0.976563 0.488281 0.976562 0.976562 0.976562 0.976562 0.976562 0.976562 0.976562 0.976562 0.976562 0.976562 0.976562 0.976562 0.976562 0.976562 0.976562 0.976562 0.976562 0.976562 0.976562 0.976562 0.976562 0.976562 0.976562 0.976562 0.976563 0.976561 0.976562 0.976562 0.976561 0.976562 0.976562 0.488281 0.488281 0.976562 0.976562 0.976562 0.976562 0.976562 0.976563 0.976563 0.976562 0.976562 0.976563 0.976562 0.976562 0.976563 0.976562 0.976562 0.976562 0.976562 0.976562 0.976562 0.976563 0.976563 0.976562 0.976562 0.976563 0.976563 0.976562 0.976562 0.976562 0.976562 0.976562 0.976562 0.488281 0.976562 1.95312 1.95312 1.95312 1.95312 1.95312 1.95313 1.95312 1.95312 1.95312 1.95313 1.95312 1.95313 1.95313 1.95312 1.95312 1.95312 1.95312 1.95312 1.95312 1.95313 1.95313 1.95312 1.95312 1.95313 1.95313 1.95312 1.95312 1.95312 1.95312 1.95312 1.95312 0.976563 0.976562 1.95312 1.95312 1.95312 1.95312 1.95312 1.95313 1.95312 1.95312 1.95312 1.95313 1.95312 1.95313 1.95313 1.95312 1.95312 1.95312 1.95312 1.95312 1.95312 1.95313 1.95313 1.95312 1.95312 1.95313 1.95313 1.95312 1.95312 1.95312 1.95312 1.95312 1.95312 0.976563 0.976562 1.95312 1.95312 1.95312 1.95312 1.95312 1.95313 1.95312 1.95312 1.95312 1.95312 1.95312 1.95313 1.95313 1.95312 1.95312 1.95312 1.95312 1.95312 1.95312 1.95313 1.95313 1.95312 1.95312 1.95313 1.95313 1.95312 1.95312 1.95312 1.95312 1.95312 1.95312 0.976563 0.976562 1.95312 1.95312 1.95312 1.95312 1.95312 1.95313 1.95312 1.95312 1.95312 1.95312 1.95312 1.95313 1.95313 1.95312 1.95312 1.95312 1.95312 1.95312 1.95312 1.95313 1.95313 1.95312 1.95312 1.95313 1.95313 1.95312 1.95312 1.95312 1.95312 1.95312 1.95312 0.976563 0.976562 1.95312 1.95312 1.95312 1.95312 1.95312 1.95313 1.95312 1.95312 1.95312 1.95312 1.95312 1.95312 1.95313 1.95312 1.95312 1.95312 1.95312 1.95312 1.95312 1.95312 1.95313 1.95312 1.95312 1.95313 1.95313 1.95312 1.95312 1.95312 1.95312 1.95312 1.95312 0.976563 0.976562 1.95312 1.95312 1.95312 1.95312 1.95312 1.95313 1.95312 1.95312 1.95312 1.95313 1.95312 1.95313 1.95313 1.95312 1.95312 1.95312 1.95312 1.95312 1.95312 1.95313 1.95313 1.95312 1.95312 1.95313 1.95313 1.95312 1.95312 1.95312 1.95312 1.95312 1.95312 0.976563 0.976562 1.95312 1.95312 1.95312 1.95312 1.95312 1.95313 1.95312 1.95312 1.95312 1.95313 1.95312 1.95313 1.95313 1.95312 1.95312 1.95312 1.95312 1.95312 1.95312 1.95313 1.95313 1.95312 1.95312 1.95313 1.95313 1.95312 1.95312 1.95312 1.95312 1.95312 1.95312 0.976563 0.488281 0.976562 0.976562 0.976562 0.976562 0.976562 0.976562 0.976562 0.976562 0.976562 0.976562 0.976562 0.976562 0.976563 0.976562 0.976562 0.976562 0.976562 0.976562 0.976562 0.976562 0.976562 0.976562 0.976562 0.976563 0.976563 0.976562 0.976562 0.976562 0.976562 0.976562 0.976562 0.488281 0.24414 0.488281 0.488281 0.488281 0.488281 0.488281 0.488281 0.488281 0.488281 0.488281 0.488281 0.488281 0.488281 0.488281 0.488281 0.488281 0.488281 0.488281 0.488281 0.488281 0.488281 0.488281 0.488281 0.488281 0.488281 0.488281 0.488281 0.488281 0.488281 0.488281 0.488281 0.488281 0.24414 0.488281 0.976562 0.976562 0.976562 0.976562 0.976562 0.976562 0.976562 0.976562 0.976562 0.976562 0.976562 0.976562 0.976562 0.976562 0.976562 0.976562 0.976561 0.976561 0.976562 0.976562 0.976562 0.976562 0.976562 0.976562 0.976562 0.976561 0.976562 0.976562 0.976561 0.976562 0.976562 0.488281 0.488281 0.976562 0.976562 0.976562 0.976562 0.976562 0.976562 0.976562 0.976562 0.976562 0.976562 0.976562 0.976562 0.976562 0.976562 0.976562 0.976562 0.976561 0.976561 0.976562 0.976562 0.976562 0.976562 0.976562 0.976562 0.976562 0.976561 0.976562 0.976562 0.976561 0.976562 0.976562 0.488281 0.488281 0.976562 0.976562 0.976562 0.976562 0.976562 0.976562 0.976562 0.976562 0.976562 0.976562 0.976562 0.976562 0.976562 0.976562 0.976562 0.976562 0.976561 0.976561 0.976562 0.976562 0.976562 0.976562 0.976562 0.976562 0.976562 0.976561 0.976562 0.976562 0.976561 0.976562 0.976562 0.488281 0.488281 0.976562 0.976562 0.976562 0.976562 0.976562 0.976562 0.976562 0.976562 0.976562 0.976562 0.976562 0.976562 0.976562 0.976562 0.976562 0.976562 0.976561 0.976561 0.976562 0.976562 0.976562 0.976562 0.976562 0.976562 0.976562 0.976561 0.976562 0.976562 0.976561 0.976562 0.976562 0.488281 0.488281 0.976562 0.976562 0.976562 0.976562 0.976562 0.976562 0.976562 0.976562 0.976562 0.976562 0.976562 0.976562 0.976562 0.976562 0.976562 0.976562 0.976561 0.976561 0.976562 0.976562 0.976562 0.976562 0.976562 0.976562 0.976562 0.976561 0.976562 0.976562 0.976561 0.976562 0.976562 0.488281 0.488281 0.976562 0.976562 0.976562 0.976562 0.976562 0.976562 0.976562 0.976562 0.976562 0.976562 0.976562 0.976562 0.976562 0.976562 0.976562 0.976562 0.976561 0.976561 0.976562 0.976562 0.976562 0.976562 0.976562 0.976562 0.976562 0.976561 0.976562 0.976562 0.976561 0.976562 0.976562 0.488281 0.488281 0.976562 0.976562 0.976562 0.976562 0.976562 0.976562 0.976562 0.976562 0.976562 0.976562 0.976562 0.976562 0.976562 0.976562 0.976562 0.976562 0.976561 0.976561 0.976562 0.976562 0.976562 0.976562 0.976562 0.976562 0.976562 0.976561 0.976562 0.976562 0.976561 0.976562 0.976562 0.488281 0.24414 0.488281 0.488281 0.488281 0.488281 0.488281 0.488281 0.488281 0.488281 0.488281 0.488281 0.488281 0.488281 0.488281 0.488281 0.488281 0.488281 0.488281 0.488281 0.488281 0.488281 0.488281 0.488281 0.488281 0.488281 0.488281 0.48828 0.488281 0.488281 0.48828 0.488281 0.488281 0.24414 
VECTORS u float
0 0 0  -0.018922 -0.0058177 -0.0530102  -0.0452925 -0.0101471 -0.0746279  -0.0724837 -0.0284573 -0.0821857  -0.101274 -0.0590152 -0.0822377  -0.132276 -0.0992482 -0.0780716  -0.165471 -0.14686 -0.0718105  -0.200509 -0.200208 -0.0647919  -0.236975 -0.258259 -0.0577559  -0.274532 -0.320358 -0.051089  -0.312978 -0.386133 -0.0449698  -0.352157 -0.45525 -0.0394571  -0.392005 -0.52748 -0.0345166  -0.43249 -0.602583 -0.0300984  -0.473554 -0.680325 -0.0261381  -0.5151 -0.760445 -0.0225732  -0.557127 -0.842753 -0.0193949  -0.599539 -0.926992 -0.0165181  -0.642287 -1.01298 -0.0139456  -0.685308 -1.10047 -0.0116293  -0.7285 -1.18928 -0.00957465  -0.771791 -1.27923 -0.00772095  -0.815079 -1.37009 -0.00611806  -0.858381 -1.4618 -0.00466847  -0.901578 -1.5541 -0.00343156  -0.944635 -1.6469 -0.00240326  -0.987496 -1.74002 -0.00152779  -1.03011 -1.83336 -0.000873804  -1.07251 -1.92684 -0.000368595  -1.1146 -2.02029 -5.29289e-05  -1.15646 -2.11369 0.000124693  -1.19807 -2.2069 0.000184298  -1.23954 -2.29998 0.000291824  0 0 0  -0.0101701 0.00133514 -0.0285373  -0.0268395 -0.00778497 -0.0448952  -0.044815 -0.0298758 -0.0512352  -0.0647774 -0.0632575 -0.0521138  -0.0875104 -0.105813 -0.0500531  -0.113194 -0.15571 -0.0465066  -0.141586 -0.211494 -0.0422983  -0.172316 -0.272161 -0.0379617  -0.204984 -0.336978 -0.0337505  -0.239281 -0.405474 -0.0298212  -0.274969 -0.477264 -0.0262277  -0.311871 -0.552032 -0.0229537  -0.349862 -0.629549 -0.0200148  -0.388797 -0.709498 -0.0173621  -0.428586 -0.791634 -0.0149803  -0.469122 -0.875763 -0.0128307  -0.510297 -0.961637 -0.0109141  -0.552023 -1.04903 -0.00917149  -0.594194 -1.13776 -0.0076189  -0.636715 -1.22762 -0.00624299  -0.679487 -1.31843 -0.0050149  -0.722395 -1.41003 -0.00393176  -0.7654 -1.50229 -0.00299764  -0.808393 -1.59504 -0.00219035  -0.851334 -1.68816 -0.0015161  -0.894145 -1.78151 -0.000984192  -0.936769 -1.87498 -0.000563145  -0.979201 -1.9685 -0.00026226  -1.02138 -2.06195 -7.1764e-05  -1.06331 -2.15529 5.03063e-05  -1.10498 -2.24846 0.000130177  -1.14644 -2.34145 0.000285387  0 0 0  -0.00478385 0.00419474 -0.0174613  -0.0129054 -0.00720157 -0.0256546  -0.0228057 -0.0316236 -0.0296366  -0.0350723 -0.0667833 -0.0303786  -0.0503135 -0.111002 -0.0292852  -0.0687931 -0.162747 -0.0272102  -0.0904412 -0.220702 -0.0247295  -0.115018 -0.283805 -0.0221555  -0.142229 -0.351262 -0.0196524  -0.171752 -0.422472 -0.0173008  -0.203316 -0.49698 -0.0151217  -0.23666 -0.574362 -0.0131664  -0.271621 -0.654346 -0.0113769  -0.307971 -0.736585 -0.00979638  -0.345555 -0.820849 -0.00836134  -0.384235 -0.906891 -0.00706482  -0.423838 -0.994479 -0.00590515  -0.464226 -1.08339 -0.00488186  -0.505296 -1.17345 -0.00396585  -0.546898 -1.26447 -0.00315261  -0.588903 -1.35627 -0.00245929  -0.63123 -1.44871 -0.00183606  -0.673743 -1.54166 -0.00131226  -0.716363 -1.63495 -0.000866413  -0.759013 -1.7285 -0.000525713  -0.80162 -1.82219 -0.000267267  -0.8441 -1.91591 -5.62668e-05  -0.886424 -2.00961 6.4373e-05  -0.928546 -2.10317 0.000135183  -0.970433 -2.19657 0.000153542  -1.01209 -2.28978 0.000176668  -1.05347 -2.38272 0.00033021  0 0 0  -0.000705145 0.00326216 -0.00809073  -0.00193337 -0.00955424 -0.0114541  -0.00440225 -0.0354662 -0.0126877  -0.00921747 -0.0720364 -0.012706  -0.0171166 -0.117725 -0.0119643  -0.0284963 -0.17112 -0.01085  -0.0434458 -0.230983 -0.00960946  -0.0618392 -0.296251 -0.00836039  -0.0834454 -0.366071 -0.00715828  -0.107979 -0.439745 -0.00607109  -0.135164 -0.516732 -0.00509262  -0.164694 -0.596555 -0.00423431  -0.196325 -0.678866 -0.00343633  -0.229818 -0.763315 -0.00275803  -0.26494 -0.849621 -0.00216699  -0.3015 -0.937525 -0.00162792  -0.339308 -1.02678 -0.00117111  -0.378182 -1.11719 -0.000775814  -0.417949 -1.20858 -0.000447035  -0.458459 -1.30076 -0.000168085  -0.499552 -1.39355 5.96046e-05  -0.541124 -1.48685 0.00025177  -0.583026 -1.58051 0.000383139  -0.625132 -1.67439 0.000478745  -0.667382 -1.76842 0.000526905  -0.709673 -1.86248 0.00054884  -0.751905 -1.95647 0.000531912  -0.794066 -2.05038 0.000481367  -0.836048 -2.14411 0.000413656  -0.877846 -2.23763 0.000328302  -0.919424 -2.33089 0.000269175  -0.960703 -2.42381 0.000315189  0 0 0  0.00262944 7.84993e-05 0.000615835  0.00760022 -0.0146365 0.00134802  0.0121625 -0.0418994 0.00225687  0.014621 -0.0797239 0.00306153  0.0139421 -0.12676 0.00365472  0.00955772 -0.181666 0.00402927  0.00123197 -0.243266 0.00427389  -0.011018 -0.31047 0.00442648  -0.0270269 -0.382397 0.0044682  -0.0465201 -0.45828 0.00446916  -0.0692132 -0.537523 0.00439954  -0.0947994 -0.61959 0.00428486  -0.122967 -0.704037 0.00414824  -0.153447 -0.79053 0.00400448  -0.185969 -0.878746 0.00383878  -0.220268 -0.968399 0.00364184  -0.256126 -1.05925 0.00344872  -0.293323 -1.15109 0.0032208  -0.331677 -1.24374 0.0030098  -0.370977 -1.33703 0.00278115  -0.411047 -1.43079 0.002563  -0.451761 -1.52492 0.00232649  -0.492947 -1.61927 0.00209689  -0.53447 -1.71372 0.00185251  -0.576231 -1.80821 0.00162983  -0.61813 -1.90265 0.00139213  -0.660065 -1.99695 0.00116944  -0.701966 -2.09106 0.000930786  -0.743786 -2.18495 0.000712156  -0.785467 -2.27856 0.000510454  -0.826954 -2.37187 0.000350475  -0.868124 -2.46483 0.00029254  0 0 0  0.00570941 -0.00481921 0.00889182  0.0166777 -0.0221764 0.0136831  0.0282176 -0.0510023 0.0166371  0.03793 -0.0901036 0.0181427  0.0444143 -0.138436 0.018548  0.0469219 -0.194783 0.0182617  0.0450991 -0.257985 0.0175798  0.0388868 -0.326963 0.0166719  0.0284033 -0.400823 0.0156982  0.0139034 -0.478722 0.0146747  -0.00432909 -0.560003 0.0136392  -0.0259479 -0.644114 0.0126269  -0.0506094 -0.730537 0.0116222  -0.0780284 -0.818901 0.010654  -0.107878 -0.908857 0.00973988  -0.139858 -1.00013 0.00885582  -0.173694 -1.09245 0.00800514  -0.209157 -1.18561 0.00720835  -0.246003 -1.27944 0.00644875  -0.284028 -1.37376 0.00573349  -0.32302 -1.46841 0.00505948  -0.362809 -1.5633 0.00440884  -0.403218 -1.65828 0.00381017  -0.444109 -1.75327 0.00324249  -0.485336 -1.84818 0.00272894  -0.526809 -1.94295 0.00224876  -0.568404 -2.03751 0.00180078  -0.610033 -2.13181 0.00139332  -0.65164 -2.22582 0.00102639  -0.693174 -2.31951 0.000703573  -0.734545 -2.41286 0.00045681  -0.775666 -2.50586 0.00023818  0 0 0  0.00882633 -0.0115302 0.0169334  0.0261374 -0.0322129 0.0260878  0.0449016 -0.0628139 0.0313597  0.0619883 -0.103261 0.0333562  0.0756549 -0.152893 0.0333786  0.0849867 -0.210649 0.0322969  0.0895343 -0.275409 0.0306685  0.0892055 -0.346088 0.0287874  0.0840911 -0.421743 0.026793  0.0744578 -0.501511 0.0248108  0.0605993 -0.584682 0.0228426  0.0428663 -0.67065 0.020921  0.021644 -0.758866 0.0190845  -0.00273705 -0.848938 0.0173323  -0.0299079 -0.940495 0.0156841  -0.0595691 -1.03323 0.0141122  -0.0913866 -1.12688 0.0126159  -0.12509 -1.22124 0.0112166  -0.160434 -1.31611 0.00990653  -0.197159 -1.41135 0.0086832  -0.235044 -1.50679 0.00755215  -0.273902 -1.60233 0.00650501  -0.313535 -1.69786 0.0055263  -0.353774 -1.79329 0.00461674  -0.394468 -1.88856 0.00378609  -0.4355 -1.98359 0.00307155  -0.476751 -2.07833 0.00241351  -0.518105 -2.17277 0.00181627  -0.559495 -2.26686 0.00132036  -0.600847 -2.36059 0.000895739  -0.642106 -2.45396 0.000531197  -0.68321 -2.54702 0.000206232  0 0 0  0.0120549 -0.020644 0.0250671  0.0367496 -0.0451097 0.0406392  0.063587 -0.0774043 0.0472836  0.0883345 -0.11921 0.0490539  0.10917 -0.170186 0.0483496  0.125162 -0.22939 0.0464027  0.135874 -0.295729 0.0438464  0.141217 -0.368087 0.0410004  0.141278 -0.445492 0.0380557  0.13631 -0.527033 0.035104  0.126637 -0.611968 0.0322139  0.11265 -0.699652 0.0294206  0.0947477 -0.789524 0.0267408  0.0733086 -0.881141 0.0241954  0.0487183 -0.974127 0.0217788  0.0213318 -1.06818 0.0194983  -0.00852203 -1.16301 0.0173466  -0.0405288 -1.25841 0.0153368  -0.0743933 -1.35419 0.0134401  -0.109853 -1.45019 0.0116987  -0.146673 -1.54628 0.0100574  -0.184628 -1.64235 0.00857735  -0.223508 -1.7383 0.00719142  -0.263133 -1.83406 0.00594878  -0.303332 -1.92956 0.00482273  -0.343946 -2.02475 0.00382662  -0.384877 -2.11961 0.00294495  -0.425985 -2.21409 0.0021894  -0.467185 -2.30819 0.00154042  -0.508389 -2.40189 0.00102901  -0.549558 -2.49523 0.000612736  -0.590663 -2.58832 0.000234604  0 0 0  0.0178769 -0.0334235 0.0407078  0.0518779 -0.0609189 0.0569003  0.0867372 -0.0945272 0.0633817  0.118797 -0.137714 0.0648901  0.146519 -0.190208 0.0636616  0.168972 -0.25104 0.0609694  0.185647 -0.319096 0.057564  0.196436 -0.393218 0.0538111  0.201419 -0.472399 0.0499454  0.200899 -0.555719 0.0460408  0.195215 -0.642371 0.0422053  0.184756 -0.731694 0.0385065  0.169984 -0.823092 0.0349424  0.15131 -0.916118 0.031559  0.129126 -1.0104 0.0283263  0.103848 -1.10557 0.0252883  0.0758278 -1.20142 0.0224321  0.0454073 -1.2977 0.0197268  0.0128944 -1.39421 0.0172117  -0.021395 -1.49081 0.0148692  -0.0572417 -1.58738 0.0126903  -0.0943778 -1.68382 0.0107021  -0.132594 -1.78002 0.00887227  -0.171693 -1.87596 0.0072217  -0.211472 -1.97154 0.00572848  -0.251801 -2.06674 0.00439501  -0.292493 -2.16153 0.00328231  -0.33346 -2.25592 0.00232291  -0.374556 -2.3499 0.00156856  -0.415695 -2.44346 0.00101089  -0.456831 -2.53671 0.000576496  -0.497971 -2.62975 0.000210285  0 0 0  -0.0159052 -0.0164964 -0.0366726  -0.0441374 -0.0337904 -0.0550001  -0.0760674 -0.0561552 -0.0622678  -0.10937 -0.0855676 -0.0630505  -0.143423 -0.122304 -0.0601046  -0.178093 -0.16581 -0.0552721  -0.21341 -0.215389 -0.0497477  -0.249401 -0.270297 -0.044188  -0.286079 -0.329929 -0.038934  -0.323477 -0.393794 -0.0341456  -0.361608 -0.461452 -0.0298619  -0.400451 -0.53253 -0.0260413  -0.439971 -0.606722 -0.0226476  -0.480138 -0.683715 -0.01963  -0.520905 -0.763251 -0.0169313  -0.562186 -0.845043 -0.0145302  -0.603953 -0.928875 -0.0123694  -0.646108 -1.01448 -0.0104253  -0.688572 -1.10166 -0.00869441  -0.731259 -1.1902 -0.00716066  -0.774094 -1.27991 -0.00578165  -0.817015 -1.37061 -0.00457954  -0.859934 -1.46212 -0.00351  -0.902799 -1.55431 -0.00258422  -0.945558 -1.647 -0.00181985  -0.988159 -1.74006 -0.00116301  -1.03058 -1.83336 -0.000687838  -1.07279 -1.9268 -0.000320196  -1.11476 -2.02025 -7.93934e-05  -1.15654 -2.11364 4.76837e-05  -1.19814 -2.20688 0.000114441  -1.23962 -2.29996 0.000190496  0 0 0  -0.00756105 -0.00925478 -0.0202196  -0.0250537 -0.02611 -0.0339577  -0.0469003 -0.0507555 -0.0397944  -0.0709672 -0.0836575 -0.0409043  -0.09672 -0.124162 -0.0393593  -0.124095 -0.171426 -0.0364573  -0.153085 -0.224603 -0.03298  -0.183651 -0.282949 -0.0294018  -0.215717 -0.345847 -0.0259757  -0.249179 -0.412768 -0.0228236  -0.283966 -0.483293 -0.0199759  -0.319965 -0.557046 -0.0174198  -0.357078 -0.6337 -0.015142  -0.395205 -0.712949 -0.0131061  -0.434248 -0.794531 -0.0112834  -0.474091 -0.878147 -0.0096519  -0.514645 -0.963592 -0.0081923  -0.555804 -1.05063 -0.00687456  -0.597453 -1.13904 -0.00570393  -0.63949 -1.22864 -0.00466657  -0.681808 -1.31922 -0.00374556  -0.724342 -1.41065 -0.00292873  -0.766975 -1.50273 -0.00223207  -0.809656 -1.59535 -0.00161862  -0.852306 -1.68835 -0.00111628  -0.894865 -1.78162 -0.000718832  -0.93729 -1.87504 -0.000407219  -0.979542 -1.96852 -0.000182629  -1.02159 -2.06195 -4.50611e-05  -1.06343 -2.15528 3.8147e-05  -1.10505 -2.24846 0.000103712  -1.14652 -2.34147 0.000189781  0 0 0  -0.00377605 -0.0060512 -0.0122583  -0.0127699 -0.0219605 -0.019439  -0.0251418 -0.0480714 -0.023077  -0.0401036 -0.0833778 -0.0239418  -0.0575011 -0.126666 -0.0231497  -0.0773537 -0.17687 -0.0214615  -0.0996366 -0.233037 -0.0193934  -0.124293 -0.294398 -0.017251  -0.151199 -0.360284 -0.0151877  -0.180187 -0.430111 -0.013284  -0.211092 -0.503441 -0.0115404  -0.243749 -0.57985 -0.00999618  -0.278 -0.658983 -0.00860596  -0.313678 -0.740526 -0.00738287  -0.350636 -0.824195 -0.00628686  -0.388702 -0.909703 -0.00529552  -0.427764 -0.996846 -0.00442266  -0.467652 -1.08537 -0.00364828  -0.50825 -1.17509 -0.002949  -0.549418 -1.26582 -0.00234294  -0.591029 -1.35737 -0.00182343  -0.63299 -1.4496 -0.00135231  -0.675178 -1.54235 -0.000962019  -0.717507 -1.6355 -0.000629425  -0.759895 -1.72891 -0.000377893  -0.802275 -1.8225 -0.000183821  -0.844573 -1.91613 -3.71933e-05  -0.886748 -2.00975 5.34058e-05  -0.928749 -2.10328 0.000105619  -0.970556 -2.19666 0.000119448  -1.01215 -2.28983 0.000135183  -1.05354 -2.38278 0.00021553  0 0 0  -0.000731774 -0.00604784 -0.00583839  -0.00303197 -0.0221104 -0.0089376  -0.00718495 -0.0493639 -0.0101976  -0.0137297 -0.0863442 -0.0103605  -0.0230726 -0.131641 -0.00978589  -0.0354347 -0.184084 -0.00885367  -0.0509033 -0.242698 -0.00777626  -0.0694316 -0.306614 -0.00670362  -0.0908873 -0.375134 -0.005687  -0.115067 -0.447614 -0.00477624  -0.141771 -0.523533 -0.00396633  -0.170772 -0.602436 -0.00326157  -0.201852 -0.683929 -0.00263882  -0.234788 -0.767674 -0.00210214  -0.2694 -0.853374 -0.00164247  -0.305451 -0.940731 -0.00122452  -0.34278 -1.02954 -0.000871658  -0.381198 -1.11955 -0.000566959  -0.420547 -1.21057 -0.000323534  -0.460679 -1.30243 -0.000108242  -0.501429 -1.39496 6.79493e-05  -0.542668 -1.48801 0.000205517  -0.584278 -1.58146 0.0003016  -0.626135 -1.67516 0.000374556  -0.668151 -1.76902 0.000399828  -0.710243 -1.86296 0.000414371  -0.752314 -1.95687 0.000404596  -0.79431 -2.05067 0.000353575  -0.836203 -2.14433 0.000305414  -0.877928 -2.23779 0.000236034  -0.91945 -2.33099 0.000205278  -0.960742 -2.42392 0.000217199  0 0 0  0.00178815 -0.00832528 -2.38419e-07  0.00551102 -0.0258166 0.000364065  0.00887451 -0.0543537 0.000973463  0.0102844 -0.0927114 0.00158763  0.00874698 -0.139595 0.00209713  0.00374365 -0.19386 0.0024817  -0.00493914 -0.254508 0.00276208  -0.0172949 -0.320642 0.0029695  -0.0332059 -0.391475 0.00308728  -0.052458 -0.466318 0.00314641  -0.074806 -0.544592 0.00315309  -0.099984 -0.625782 0.00310922  -0.127719 -0.709461 0.00303626  -0.15775 -0.795266 0.00295424  -0.189822 -0.882876 0.0028398  -0.223694 -0.971987 0.00271249  -0.259148 -1.06237 0.00257444  -0.295959 -1.15379 0.00241375  -0.333925 -1.24606 0.00225472  -0.37289 -1.33902 0.00209165  -0.412659 -1.43249 0.00192976  -0.45307 -1.52634 0.00174665  -0.494003 -1.62046 0.00157857  -0.535295 -1.71471 0.00139141  -0.576855 -1.80902 0.00121999  -0.618577 -1.9033 0.00103736  -0.660369 -1.99747 0.000879765  -0.702154 -2.09146 0.000689745  -0.743872 -2.18525 0.000531912  -0.785482 -2.27879 0.000388622  -0.826916 -2.37204 0.000261784  -0.868107 -2.46497 0.000185966  0 0 0  0.00411128 -0.012458 0.00555634  0.0136496 -0.0325404 0.00927901  0.024377 -0.0626734 0.0116513  0.0335531 -0.102354 0.0129356  0.039655 -0.150631 0.0133502  0.0418753 -0.20648 0.013231  0.0398899 -0.268921 0.0127976  0.0336335 -0.337005 0.0121906  0.0232213 -0.409911 0.0115149  0.0089035 -0.486888 0.010798  -0.00905657 -0.567299 0.010062  -0.0303553 -0.650578 0.00932956  -0.0546701 -0.736264 0.00860763  -0.0817207 -0.823971 0.00791287  -0.111184 -0.913331 0.00724578  -0.142789 -1.00406 0.00659227  -0.176281 -1.0959 0.00596881  -0.211399 -1.18863 0.00537372  -0.247923 -1.28206 0.00482297  -0.285639 -1.37602 0.00428033  -0.324353 -1.47037 0.00378728  -0.363876 -1.56495 0.00330019  -0.404071 -1.65969 0.00285292  -0.444752 -1.75444 0.00243068  -0.485809 -1.84915 0.00204349  -0.52712 -1.94373 0.00167942  -0.568588 -2.03814 0.00133991  -0.61012 -2.1323 0.00104785  -0.651648 -2.2262 0.000766039  -0.693116 -2.3198 0.000524521  -0.73445 -2.4131 0.00033021  -0.775567 -2.50608 0.000176191  0 0 0  0.00652142 -0.0184524 0.011024  0.0220768 -0.0421195 0.0182691  0.0404359 -0.074143 0.0225725  0.0575457 -0.115169 0.0243351  0.0712542 -0.164756 0.0245051  0.0805591 -0.222067 0.0237982  0.0850808 -0.28615 0.0226426  0.0847559 -0.356036 0.0212915  0.0797276 -0.430848 0.0198345  0.0702267 -0.509782 0.0183849  0.0565815 -0.592139 0.0169454  0.0391105 -0.677336 0.0155361  0.0181789 -0.764857 0.0141869  -0.00589061 -0.854296 0.0128982  -0.0327451 -0.945258 0.011672  -0.0620731 -1.03745 0.0105152  -0.093576 -1.13063 0.00940371  -0.126976 -1.22454 0.00836849  -0.162027 -1.31901 0.00739574  -0.198477 -1.41387 0.0064826  -0.236113 -1.50897 0.00563836  -0.274729 -1.60421 0.00485826  -0.314151 -1.69945 0.00411892  -0.354209 -1.79463 0.00344777  -0.394754 -1.88966 0.00283146  -0.435651 -1.98449 0.00229001  -0.476788 -2.07907 0.00180125  -0.518069 -2.17334 0.00135303  -0.559397 -2.26729 0.000994444  -0.600727 -2.36093 0.000663519  -0.641966 -2.45424 0.00039506  -0.683068 -2.54725 0.000156164  0 0 0  0.00881684 -0.0265132 0.016706  0.0315507 -0.054707 0.0287535  0.0585324 -0.0887275 0.0342922  0.0838619 -0.13103 0.036027  0.105076 -0.181871 0.035732  0.12124 -0.240602 0.0343847  0.132023 -0.306282 0.032546  0.137411 -0.377909 0.0304482  0.137555 -0.454542 0.028276  0.132708 -0.535322 0.0261064  0.123215 -0.619507 0.0239685  0.109443 -0.70648 0.0218976  0.0917876 -0.795694 0.0199194  0.0706146 -0.886698 0.0180256  0.0463032 -0.979117 0.0162358  0.0191972 -1.07263 0.0145416  -0.0103714 -1.16698 0.0129499  -0.0420947 -1.26193 0.0114558  -0.0756977 -1.3573 0.0100384  -0.110909 -1.45291 0.00873947  -0.147492 -1.54865 0.00752139  -0.185227 -1.64439 0.00640535  -0.223908 -1.74004 0.00537133  -0.263359 -1.83552 0.00444221  -0.303425 -1.93077 0.0036037  -0.343933 -2.02575 0.00285745  -0.384766 -2.12039 0.00219107  -0.425816 -2.2147 0.00162864  -0.46698 -2.30864 0.00114679  -0.508185 -2.40225 0.000763655  -0.549359 -2.49553 0.000457764  -0.590462 -2.58859 0.000154495  0 0 0  0.0147234 -0.0378944 0.027199  0.0463899 -0.0705394 0.0402405  0.0815171 -0.106193 0.0459642  0.114349 -0.149589 0.0476534  0.14259 -0.20167 0.0470159  0.165266 -0.261884 0.0451698  0.182033 -0.32924 0.0426962  0.192873 -0.402654 0.0399475  0.197953 -0.481112 0.0370979  0.19754 -0.56371 0.0342073  0.192003 -0.649664 0.0313663  0.18174 -0.738318 0.0286388  0.167194 -0.829094 0.0259874  0.148754 -0.92154 0.0234826  0.126838 -1.01528 0.0210946  0.101833 -1.10997 0.0188451  0.0740924 -1.20534 0.0167131  0.0439396 -1.30117 0.0147173  0.0116973 -1.39728 0.012841  -0.0223582 -1.4935 0.0110989  -0.0579796 -1.58973 0.00947881  -0.0948927 -1.68583 0.00800085  -0.132922 -1.78174 0.00664353  -0.171839 -1.87738 0.00541854  -0.211495 -1.97272 0.00430632  -0.251694 -2.06769 0.00332499  -0.2923 -2.16228 0.00248289  -0.333201 -2.25647 0.00177813  -0.374286 -2.3503 0.0012114  -0.415434 -2.44379 0.000784159  -0.456607 -2.537 0.000457048  -0.497749 -2.63003 0.000173807  0 0 0  -0.0178494 -0.0259137 -0.0229158  -0.046684 -0.045896 -0.0352054  -0.0791695 -0.0703486 -0.0407672  -0.113316 -0.100502 -0.0418818  -0.14825 -0.136753 -0.040277  -0.183621 -0.178976 -0.0372424  -0.219336 -0.2269 -0.0335944  -0.255445 -0.280112 -0.0298455  -0.29202 -0.338171 -0.0262773  -0.329139 -0.400644 -0.0230012  -0.366872 -0.467143 -0.020066  -0.405276 -0.537267 -0.0174663  -0.444329 -0.610665 -0.0151699  -0.484037 -0.687021 -0.0131295  -0.524356 -0.766022 -0.0113053  -0.565242 -0.84737 -0.00969505  -0.606613 -0.93081 -0.00825047  -0.648404 -1.01609 -0.00695133  -0.690523 -1.103 -0.00579166  -0.732914 -1.19131 -0.00477624  -0.775481 -1.28081 -0.00385427  -0.818144 -1.37133 -0.00305367  -0.860847 -1.4627 -0.00235009  -0.903529 -1.55476 -0.00173855  -0.94611 -1.64732 -0.00122952  -0.988567 -1.74029 -0.000795841  -1.03087 -1.83353 -0.000479698  -1.07298 -1.92689 -0.000241041  -1.1149 -2.02031 -8.32081e-05  -1.15665 -2.11366 4.29153e-06  -1.19825 -2.2069 5.62668e-05  -1.23971 -2.29996 0.000104427  0 0 0  -0.00820453 -0.0153282 -0.012789  -0.0264315 -0.036055 -0.0223329  -0.0492295 -0.0628959 -0.0268359  -0.0745279 -0.0963679 -0.0279338  -0.10148 -0.136339 -0.0270309  -0.129766 -0.182446 -0.0250518  -0.15929 -0.234224 -0.02263  -0.190034 -0.291161 -0.0201089  -0.221998 -0.352757 -0.0177052  -0.255178 -0.418554 -0.0154986  -0.289554 -0.488132 -0.0135143  -0.325079 -0.561098 -0.0117552  -0.361705 -0.637097 -0.0101862  -0.399351 -0.715806 -0.00880361  -0.437937 -0.796918 -0.00755668  -0.477358 -0.880156 -0.00645995  -0.517509 -0.965263 -0.00548005  -0.558288 -1.05202 -0.00458455  -0.599589 -1.14019 -0.00381255  -0.641311 -1.22957 -0.00310779  -0.683354 -1.31998 -0.00249934  -0.725616 -1.41125 -0.0019486  -0.768028 -1.50322 -0.00147986  -0.810501 -1.59572 -0.00107074  -0.85296 -1.68863 -0.00073576  -0.895356 -1.78181 -0.000473022  -0.937658 -1.87519 -0.000260115  -0.979796 -1.96861 -0.000117302  -1.02176 -2.06202 -2.02656e-05  -1.06355 -2.15534 2.59876e-05  -1.10515 -2.24851 6.79493e-05  -1.14659 -2.3415 0.00011611  0 0 0  -0.00417613 -0.0107086 -0.00783253  -0.0137198 -0.0305515 -0.0129302  -0.0271223 -0.0587278 -0.0157423  -0.0433162 -0.0945504 -0.0165367  -0.0618435 -0.137449 -0.0160642  -0.0825328 -0.186761 -0.014905  -0.105317 -0.241842 -0.013438  -0.130155 -0.302076 -0.0119042  -0.15699 -0.366875 -0.010427  -0.18574 -0.435758 -0.00907564  -0.216302 -0.508254 -0.0078516  -0.248545 -0.583944 -0.00677967  -0.282361 -0.662471 -0.00581622  -0.317607 -0.743495 -0.00497627  -0.354141 -0.826715 -0.00422621  -0.391815 -0.911851 -0.00355077  -0.430484 -0.998656 -0.00295639  -0.470029 -1.0869 -0.0024364  -0.510297 -1.17636 -0.00196958  -0.55117 -1.26688 -0.00156045  -0.592515 -1.35824 -0.00120592  -0.634221 -1.4503 -0.000894785  -0.676194 -1.54292 -0.00062871  -0.718322 -1.63594 -0.000412226  -0.760527 -1.72925 -0.000242233  -0.802752 -1.82275 -0.000109673  -0.844926 -1.91633 -2.02656e-05  -0.886986 -2.00989 4.45843e-05  -0.928911 -2.10338 7.58171e-05  -0.97066 -2.19673 8.24928e-05  -1.01223 -2.2899 0.000100851  -1.05361 -2.38285 0.000135183  0 0 0  -0.00106437 -0.00981206 -0.00376916  -0.00401974 -0.0296565 -0.00602961  -0.0091458 -0.0587244 -0.00707603  -0.0167333 -0.0962534 -0.00729489  -0.0269722 -0.141361 -0.00694227  -0.0400002 -0.19321 -0.00629878  -0.0558603 -0.251004 -0.00552082  -0.0745462 -0.31404 -0.0047431  -0.0959498 -0.381666 -0.00400662  -0.119952 -0.453325 -0.00334144  -0.146382 -0.528495 -0.00276065  -0.175048 -0.606733 -0.00224829  -0.205765 -0.687643 -0.0018146  -0.238337 -0.770884 -0.00144267  -0.272575 -0.856136 -0.00111437  -0.308279 -0.943105 -0.000828266  -0.345273 -1.03156 -0.000594616  -0.383367 -1.12128 -0.000380516  -0.422421 -1.21204 -0.000213385  -0.462274 -1.30367 -6.65188e-05  -0.502774 -1.39601 4.74453e-05  -0.543781 -1.48888 0.000145435  -0.585187 -1.58217 0.000208855  -0.626857 -1.67574 0.000255823  -0.668712 -1.76949 0.000279903  -0.71065 -1.86332 0.000277519  -0.752613 -1.95715 0.000273466  -0.794519 -2.05089 0.000235319  -0.836332 -2.14449 0.000204325  -0.878004 -2.23791 0.000162601  -0.919513 -2.3311 0.000136375  -0.960799 -2.42403 0.000126839  0 0 0  0.00145328 -0.0115018 -0.000113726  0.004343 -0.0325249 1.83582e-05  0.00678873 -0.0627231 0.000357866  0.00736326 -0.101683 0.000743628  0.00517613 -0.148536 0.00109506  -0.000287116 -0.202426 0.00138521  -0.0092327 -0.262464 0.00160837  -0.0216953 -0.327888 0.00178909  -0.0375671 -0.39798 0.00190902  -0.0566756 -0.472107 0.00198078  -0.0788006 -0.549703 0.00201297  -0.103707 -0.630282 0.00200438  -0.131141 -0.713408 0.00197411  -0.160862 -0.798713 0.00193405  -0.192627 -0.885879 0.00186253  -0.226188 -0.974599 0.00178933  -0.261341 -1.06463 0.00170803  -0.29787 -1.15575 0.00160456  -0.335579 -1.24775 0.00149846  -0.374288 -1.34046 0.00139642  -0.413831 -1.43372 0.00128961  -0.454036 -1.52738 0.00116873  -0.494776 -1.62132 0.00105476  -0.535904 -1.71542 0.000934362  -0.577326 -1.8096 0.000809908  -0.618917 -1.90376 0.000687122  -0.660603 -1.99784 0.00058198  -0.702293 -2.09176 0.000459194  -0.743951 -2.18548 0.000353098  -0.785513 -2.27898 0.000261545  -0.826921 -2.37221 0.000168562  -0.868128 -2.46514 0.000116587  0 0 0  0.00379486 -0.0153106 0.0033679  0.0123084 -0.0386269 0.00579453  0.0221097 -0.0703546 0.00741982  0.030646 -0.11068 0.0083313  0.0363265 -0.159027 0.00865865  0.0382768 -0.214634 0.00861526  0.0361432 -0.276599 0.00835824  0.0298438 -0.344111 0.00798464  0.019489 -0.416379 0.00756192  0.00528359 -0.492726 0.0070951  -0.0124927 -0.572513 0.00662923  -0.0335723 -0.655227 0.00616002  -0.0576512 -0.740389 0.00568724  -0.0844285 -0.827615 0.00523901  -0.113622 -0.916547 0.00480342  -0.144962 -1.00688 0.00436783  -0.178186 -1.09837 0.00396228  -0.213065 -1.19079 0.00357509  -0.249346 -1.28394 0.0032084  -0.286838 -1.37765 0.00285006  -0.325346 -1.47176 0.00251913  -0.364689 -1.56615 0.00220156  -0.404696 -1.66068 0.00189996  -0.44523 -1.75528 0.00161672  -0.486156 -1.84984 0.00136065  -0.527364 -1.94431 0.00111341  -0.568738 -2.0386 0.000891924  -0.610188 -2.13267 0.000697374  -0.651659 -2.22649 0.000514746  -0.693094 -2.32005 0.00034976  -0.734407 -2.4133 0.000221252  -0.77555 -2.50628 0.000111341  0 0 0  0.0062471 -0.0212351 0.00682092  0.0206003 -0.047756 0.0116122  0.0380158 -0.0813589 0.0146258  0.0546016 -0.123043 0.0159111  0.068068 -0.172765 0.0161107  0.0772668 -0.229895 0.0156918  0.0817589 -0.293594 0.0149567  0.0814562 -0.362986 0.0140767  0.0764917 -0.437236 0.013119  0.0671114 -0.515603 0.0121737  0.0536104 -0.597404 0.0112226  0.0363258 -0.682074 0.0102968  0.0155944 -0.769106 0.00941038  -0.00824857 -0.858079 0.00856256  -0.0348667 -0.948624 0.00775218  -0.0639595 -1.04043 0.00698853  -0.095232 -1.13325 0.00625157  -0.128419 -1.22685 0.00556564  -0.163247 -1.32103 0.00492573  -0.199503 -1.41563 0.00431609  -0.236946 -1.51049 0.00374961  -0.275396 -1.6055 0.00322843  -0.314658 -1.70056 0.00273824  -0.354582 -1.79556 0.0022974  -0.395005 -1.89044 0.00188041  -0.435802 -1.98513 0.00151539  -0.476857 -2.07958 0.001194  -0.518066 -2.17374 0.000899076  -0.559352 -2.26763 0.000656843  -0.600645 -2.36121 0.000437021  -0.64188 -2.45448 0.000266314  -0.682994 -2.54749 0.000103712  0 0 0  0.00866359 -0.0295394 0.0103495  0.0302824 -0.0601189 0.0183346  0.0561129 -0.0956134 0.0222533  0.08088 -0.138585 0.023623  0.101946 -0.189572 0.0235722  0.118121 -0.248132 0.0227435  0.128953 -0.31346 0.0215588  0.134407 -0.384627 0.0201759  0.134627 -0.460749 0.0187466  0.129893 -0.541006 0.0173135  0.120539 -0.624681 0.0159025  0.106926 -0.711159 0.014533  0.089453 -0.799906 0.013222  0.0684762 -0.890487 0.011975  0.0443733 -0.982501 0.0107899  0.0174892 -1.07564 0.00966668  -0.0118685 -1.16965 0.0086081  -0.0433884 -1.26429 0.0076201  -0.0767987 -1.35936 0.00668144  -0.111821 -1.45472 0.00581861  -0.148229 -1.55022 0.00500607  -0.185801 -1.64573 0.00425982  -0.224345 -1.74119 0.00357151  -0.263673 -1.83649 0.00295544  -0.303619 -1.93158 0.00240612  -0.344029 -2.0264 0.00189567  -0.384789 -2.12092 0.00145435  -0.425773 -2.21512 0.0010767  -0.466893 -2.30899 0.000764608  -0.508084 -2.40254 0.000506878  -0.549246 -2.49579 0.000297546  -0.590372 -2.58884 9.5129e-05  0 0 0  0.0150408 -0.0422217 0.0166411  0.0454256 -0.0760639 0.0255277  0.0791521 -0.112975 0.0297713  0.111348 -0.156981 0.0312164  0.139399 -0.209139 0.030968  0.162091 -0.269115 0.0298419  0.178917 -0.336072 0.0282516  0.189829 -0.409001 0.0264459  0.19498 -0.486959 0.0245702  0.194672 -0.569043 0.0226626  0.189257 -0.654509 0.0207956  0.179152 -0.742698 0.018986  0.164778 -0.833043 0.0172279  0.146529 -0.925082 0.0155764  0.124824 -1.01843 0.0139928  0.100033 -1.11276 0.0125163  0.072506 -1.20781 0.0111015  0.0425706 -1.30334 0.00978136  0.0105193 -1.39919 0.00852919  -0.0233572 -1.49516 0.00737643  -0.0587838 -1.59115 0.00630903  -0.0955355 -1.68704 0.00532532  -0.133412 -1.78278 0.00444055  -0.172198 -1.87824 0.00362062  -0.211722 -1.97342 0.00288153  -0.251814 -2.06825 0.00223351  -0.292352 -2.16274 0.00167966  -0.333164 -2.25685 0.00120378  -0.37419 -2.35062 0.000832558  -0.415313 -2.44406 0.000547886  -0.45646 -2.53724 0.000323534  -0.497629 -2.63031 0.000125408  0 0 0  -0.0185804 -0.0299833 -0.0110688  -0.0480227 -0.0526618 -0.0171411  -0.0809028 -0.0782066 -0.0200748  -0.115388 -0.108721 -0.0207994  -0.150643 -0.144803 -0.0201278  -0.186289 -0.186519 -0.0186868  -0.222209 -0.233695 -0.0169063  -0.258421 -0.286073 -0.015038  -0.294997 -0.343299 -0.0132468  -0.332045 -0.405015 -0.011579  -0.369635 -0.470821 -0.0100937  -0.407844 -0.540369 -0.00878191  -0.446676 -0.613273 -0.00762463  -0.486162 -0.68921 -0.00658774  -0.52626 -0.767854 -0.00566173  -0.56693 -0.848927 -0.00485754  -0.608086 -0.932119 -0.00412631  -0.649679 -1.01721 -0.00348973  -0.691623 -1.10393 -0.00289655  -0.733841 -1.19208 -0.00239062  -0.776249 -1.28145 -0.00192499  -0.818773 -1.37185 -0.00153303  -0.86136 -1.46312 -0.00118184  -0.903928 -1.55509 -0.000874043  -0.946425 -1.64759 -0.000615835  -0.988798 -1.74049 -0.000403166  -1.03102 -1.83365 -0.000244141  -1.0731 -1.92699 -0.000128746  -1.11501 -2.02037 -4.673e-05  -1.15675 -2.11371 -4.76837e-06  -1.19832 -2.20691 2.40803e-05  -1.23979 -2.29998 4.05312e-05  0 0 0  -0.0082789 -0.0181264 -0.00622153  -0.0270199 -0.0412516 -0.0110354  -0.0504516 -0.0693939 -0.0134492  -0.0763664 -0.103358 -0.0141027  -0.103874 -0.143253 -0.0137112  -0.132606 -0.188917 -0.0127342  -0.16242 -0.24004 -0.0115061  -0.193299 -0.296246 -0.0102131  -0.225267 -0.357128 -0.00897908  -0.258353 -0.422276 -0.00784802  -0.292555 -0.491286 -0.00682926  -0.32787 -0.563764 -0.00593066  -0.364253 -0.639333 -0.00512767  -0.401658 -0.717695 -0.00442791  -0.439996 -0.798522 -0.00379038  -0.479174 -0.881516 -0.00324035  -0.519105 -0.966414 -0.00275373  -0.559681 -1.05298 -0.00229645  -0.600796 -1.14099 -0.00190806  -0.642343 -1.23023 -0.00155473  -0.684213 -1.32053 -0.00125599  -0.726337 -1.41169 -0.000967264  -0.768613 -1.50356 -0.00073719  -0.810971 -1.596 -0.00053978  -0.853334 -1.68884 -0.00036931  -0.895647 -1.78198 -0.000238419  -0.937852 -1.8753 -0.000129223  -0.979936 -1.96869 -5.62668e-05  -1.02187 -2.0621 -4.76837e-06  -1.06363 -2.1554 1.12057e-05  -1.10522 -2.24856 3.69549e-05  -1.14666 -2.34155 5.60284e-05  0 0 0  -0.00428042 -0.012877 -0.0038321  -0.0142191 -0.0348111 -0.00644493  -0.0282174 -0.0643882 -0.00795603  -0.0450486 -0.100802 -0.00843787  -0.0641465 -0.143693 -0.00822663  -0.0852782 -0.192642 -0.00764728  -0.108359 -0.247157 -0.00688887  -0.133343 -0.306759 -0.00608277  -0.160182 -0.370946 -0.00531864  -0.188842 -0.439267 -0.00461435  -0.219236 -0.511254 -0.00398517  -0.25129 -0.586515 -0.00343037  -0.284865 -0.664655 -0.00293756  -0.319873 -0.745359 -0.00250888  -0.356179 -0.828305 -0.00212455  -0.393623 -0.913198 -0.00178719  -0.432086 -0.999794 -0.00148249  -0.471424 -1.08786 -0.00121903  -0.511504 -1.17718 -0.000986814  -0.552199 -1.26755 -0.000783443  -0.59338 -1.3588 -0.000597  -0.634943 -1.45077 -0.000441551  -0.676776 -1.54329 -0.000309706  -0.718792 -1.63624 -0.000203609  -0.760914 -1.72949 -0.000110865  -0.803038 -1.82293 -4.74453e-05  -0.845129 -1.91645 -6.91414e-06  -0.887133 -2.00999 2.5034e-05  -0.92902 -2.10347 3.98159e-05  -0.970742 -2.1968 4.1008e-05  -1.01229 -2.28996 5.91278e-05  -1.05368 -2.38291 7.4625e-05  0 0 0  -0.00119539 -0.0115902 -0.00186133  -0.00454311 -0.0333197 -0.00302625  -0.0102141 -0.0637759 -0.00361133  -0.0183769 -0.101926 -0.00377345  -0.0291221 -0.147097 -0.00360274  -0.0425339 -0.198661 -0.0032742  -0.0586485 -0.256005 -0.00287509  -0.0774513 -0.318525 -0.00246525  -0.0988641 -0.385629 -0.00207996  -0.122788 -0.456798 -0.00172353  -0.149072 -0.531522 -0.0014205  -0.177561 -0.609362 -0.00115204  -0.208073 -0.689917 -0.000926018  -0.240435 -0.772845 -0.000739574  -0.274458 -0.857826 -0.000567198  -0.309953 -0.944572 -0.000417233  -0.346737 -1.03282 -0.000300169  -0.384658 -1.12235 -0.000193834  -0.423546 -1.21296 -0.000108957  -0.463226 -1.30444 -3.3617e-05  -0.503583 -1.39665 2.59876e-05  -0.544452 -1.48942 7.34329e-05  -0.585724 -1.58262 0.000107288  -0.627277 -1.6761 0.000130653  -0.669034 -1.76979 0.000141621  -0.710892 -1.86355 0.000138044  -0.752782 -1.95732 0.000139236  -0.794637 -2.05103 0.000120163  -0.836417 -2.14461 0.000104904  -0.878061 -2.238 8.34465e-05  -0.919552 -2.33118 7.00951e-05  -0.960851 -2.42412 5.48363e-05  0 0 0  0.00129206 -0.0130054 -9.03606e-05  0.00377631 -0.0357368 -4.33922e-05  0.0056836 -0.0672743 0.000101805  0.00574142 -0.106837 0.000281572  0.00313097 -0.153823 0.000454903  -0.00262088 -0.207515 0.000607729  -0.0117415 -0.267216 0.000733852  -0.0242704 -0.332237 0.000832081  -0.0401347 -0.401896 0.000908375  -0.0591729 -0.475594 0.000945807  -0.081179 -0.552798 0.000974894  -0.105933 -0.633003 0.000979662  -0.133192 -0.715793 0.000970364  -0.162732 -0.80081 0.000960112  -0.194309 -0.887704 0.000918627  -0.227699 -0.976193 0.000887156  -0.26267 -1.06601 0.000847101  -0.299028 -1.15694 0.000798464  -0.336579 -1.24878 0.000749588  -0.37514 -1.34134 0.000701189  -0.414541 -1.43447 0.00064826  -0.454616 -1.52802 0.000588417  -0.495236 -1.62185 0.000528336  -0.536271 -1.71587 0.000474453  -0.57759 -1.80996 0.000400066  -0.619111 -1.90405 0.000349283  -0.660731 -1.99807 0.000290394  -0.702384 -2.09195 0.000232458  -0.744 -2.18564 0.000174999  -0.785534 -2.2791 0.000133753  -0.826942 -2.37231 8.84533e-05  -0.868171 -2.46526 5.72205e-05  0 0 0  0.0035987 -0.0166829 0.00159645  0.0116896 -0.0415252 0.00280619  0.020946 -0.0744919 0.00362182  0.0290287 -0.11542 0.00408435  0.0343818 -0.163958 0.00425839  0.0361382 -0.219437 0.00424242  0.0338953 -0.281161 0.00413156  0.0275658 -0.348329 0.0039475  0.0172373 -0.420241 0.0037477  0.00310361 -0.49621 0.00351715  -0.0145751 -0.575657 0.00328779  -0.0355209 -0.658027 0.00306296  -0.059448 -0.742873 0.00283146  -0.0860765 -0.829805 0.00260377  -0.115114 -0.918474 0.00239491  -0.1463 -1.00858 0.00217819  -0.179366 -1.09986 0.00197172  -0.214081 -1.19209 0.00178981  -0.250225 -1.28507 0.00160122  -0.287586 -1.37862 0.0014267  -0.325964 -1.4726 0.00125766  -0.365194 -1.56686 0.00110173  -0.405092 -1.66128 0.000945568  -0.445538 -1.75578 0.000810862  -0.48639 -1.85025 0.000683069  -0.527517 -1.94463 0.000555277  -0.568834 -2.03887 0.000444174  -0.610248 -2.13289 0.000342607  -0.651679 -2.22667 0.000255346  -0.69308 -2.32018 0.000173569  -0.734398 -2.41343 0.000112534  -0.775559 -2.50642 5.48363e-05  0 0 0  0.0060382 -0.022615 0.00325608  0.0199641 -0.0505145 0.00565839  0.0368596 -0.085214 0.00718975  0.0530208 -0.127483 0.00786066  0.0662053 -0.177398 0.0079906  0.0752724 -0.234464 0.00779676  0.0797064 -0.297963 0.00743961  0.0794164 -0.367073 0.00701022  0.0744901 -0.441013 0.00653696  0.0651735 -0.519055 0.00606418  0.0517663 -0.600534 0.00559402  0.0345923 -0.68488 0.00513244  0.0139922 -0.771607 0.00469375  -0.00971019 -0.860312 0.0042758  -0.0361882 -0.950611 0.0038693  -0.0651425 -1.0422 0.00349069  -0.0962749 -1.1348 0.00311708  -0.129327 -1.22821 0.00277925  -0.164028 -1.32222 0.00246596  -0.200154 -1.41666 0.00216031  -0.237488 -1.51138 0.00188017  -0.275835 -1.60627 0.00160956  -0.314999 -1.7012 0.00136662  -0.354831 -1.7961 0.00115156  -0.395187 -1.89089 0.000945091  -0.435917 -1.98549 0.000751019  -0.476922 -2.07988 0.000591516  -0.518091 -2.174 0.000449181  -0.559345 -2.26782 0.000328541  -0.600617 -2.36136 0.0002141  -0.641843 -2.45462 0.000131607  -0.682986 -2.54767 4.79221e-05  0 0 0  0.00843622 -0.0311489 0.00494123  0.0297123 -0.0630027 0.00891185  0.0550239 -0.0993599 0.0109313  0.0793251 -0.142813 0.0116854  0.100121 -0.193963 0.0117047  0.116184 -0.252483 0.0113187  0.127005 -0.317624 0.0107484  0.132489 -0.388536 0.0100489  0.132755 -0.464381 0.00934935  0.128089 -0.544334 0.00863171  0.118813 -0.62771 0.0079298  0.105316 -0.713889 0.0072515  0.0879562 -0.802356 0.00659323  0.0671062 -0.892669 0.00597167  0.0431299 -0.984451 0.00538516  0.0163655 -1.07738 0.00482631  -0.0128548 -1.17117 0.00429845  -0.0442462 -1.26563 0.00380468  -0.077527 -1.36054 0.00334096  -0.112438 -1.45574 0.00290561  -0.148736 -1.5511 0.0025053  -0.186209 -1.6465 0.0021255  -0.224654 -1.74183 0.00178719  -0.263895 -1.83703 0.00148511  -0.303776 -1.93203 0.00120521  -0.344116 -2.02677 0.000944376  -0.384837 -2.12122 0.000724554  -0.425785 -2.21536 0.000537634  -0.466868 -2.30919 0.000378847  -0.508028 -2.4027 0.000257969  -0.549195 -2.49595 0.000140905  -0.590346 -2.58902 3.69549e-05  0 0 0  0.0149412 -0.0445648 0.0078814  0.0449244 -0.079456 0.0123436  0.078088 -0.116828 0.0145981  0.10977 -0.16111 0.0154269  0.13753 -0.213345 0.0153558  0.160086 -0.273246 0.0148389  0.176901 -0.339999 0.0140646  0.187851 -0.412676 0.0131776  0.193047 -0.490344 0.0122373  0.192801 -0.572148 0.0112941  0.187479 -0.65732 0.0103672  0.177475 -0.745227 0.00945544  0.16322 -0.835312 0.00858808  0.145104 -0.927104 0.00776458  0.123514 -1.02022 0.00697803  0.0988445 -1.11436 0.00624704  0.0714502 -1.20922 0.00554419  0.0416441 -1.30458 0.00487733  0.00972438 -1.40025 0.0042696  -0.024025 -1.49608 0.00369358  -0.0593517 -1.59194 0.00314951  -0.0960093 -1.68771 0.00266767  -0.13378 -1.78333 0.00221753  -0.172459 -1.87871 0.0018084  -0.211904 -1.97382 0.00144434  -0.25192 -2.06857 0.00112271  -0.292393 -2.163 0.000849485  -0.333184 -2.25707 0.000614166  -0.374155 -2.3508 0.000431776  -0.415249 -2.44424 0.000284672  -0.456384 -2.53744 0.000170231  -0.497561 -2.63053 6.1512e-05  0 0 0  -0.0188928 -0.0312379 2.38419e-07  -0.048499 -0.0546741 -1.19209e-06  -0.0814538 -0.0806628 -9.53674e-06  -0.116021 -0.111341 1.90735e-06  -0.151351 -0.147398 2.38419e-07  -0.187087 -0.188989 -2.38419e-07  -0.223069 -0.235935 4.76837e-06  -0.259331 -0.28807 -1.43051e-06  -0.295923 -0.345026 -1.07288e-05  -0.332941 -0.406485 -1.19209e-06  -0.370485 -0.472087 -5.00679e-06  -0.408637 -0.541442 -1.26362e-05  -0.447418 -0.614187 -1.33514e-05  -0.486835 -0.689987 4.76837e-07  -0.526865 -0.768519 3.8147e-06  -0.567454 -0.849468 1.43051e-06  -0.608567 -0.932591 -7.15256e-07  -0.650096 -1.01759 -6.91414e-06  -0.691986 -1.10425 6.4373e-06  -0.73414 -1.19234 2.14577e-06  -0.776494 -1.28168 6.4373e-06  -0.818981 -1.37205 -5.24521e-06  -0.86152 -1.46328 -1.16825e-05  -0.904051 -1.55522 -9.53674e-07  -0.946514 -1.64769 -9.53674e-06  -0.988868 -1.74057 3.57628e-06  -1.03107 -1.83372 -1.43051e-06  -1.07315 -1.92705 -8.34465e-06  -1.11504 -2.02042 5.72205e-06  -1.15677 -2.11373 6.19888e-06  -1.19836 -2.20695 -2.6226e-06  -1.23983 -2.29998 5.96046e-06  0 0 0  -0.00833163 -0.018961 1.90735e-06  -0.0272116 -0.0428424 3.33786e-06  -0.0508242 -0.0714491 -4.05312e-06  -0.0769267 -0.105604 9.53674e-07  -0.104604 -0.145489 2.38419e-06  -0.133478 -0.191042 4.29153e-06  -0.163377 -0.241961 -5.24521e-06  -0.19431 -0.29796 -4.76837e-07  -0.226287 -0.358621 -1.19209e-06  -0.259341 -0.423554 0  -0.293499 -0.492365 -1.19209e-06  -0.328753 -0.564675 2.6226e-06  -0.365075 -0.640123 1.19209e-06  -0.402396 -0.718363 -5.72205e-06  -0.440655 -0.799078 4.29153e-06  -0.479765 -0.881986 -2.14577e-06  -0.519627 -0.966814 -3.57628e-06  -0.560138 -1.05331 3.09944e-06  -0.601193 -1.14127 -1.66893e-06  -0.642679 -1.23047 4.76837e-07  -0.684505 -1.32072 -1.43051e-05  -0.726573 -1.41185 5.24521e-06  -0.768806 -1.5037 2.38419e-06  -0.811125 -1.5961 -4.29153e-06  -0.853452 -1.68892 9.53674e-07  -0.895736 -1.78204 -2.86102e-06  -0.937927 -1.87534 3.33786e-06  -0.979998 -1.96874 2.86102e-06  -1.02192 -2.06212 4.29153e-06  -1.06367 -2.15542 4.76837e-07  -1.10525 -2.24857 5.48363e-06  -1.14669 -2.34157 7.15256e-06  0 0 0  -0.00432197 -0.0135317 4.76837e-07  -0.0143651 -0.0361163 1.90735e-06  -0.0285523 -0.0661704 -1.90735e-06  -0.0455894 -0.102791 -1.19209e-06  -0.0648721 -0.145714 -7.15256e-06  -0.0861472 -0.19457 -1.62125e-05  -0.109321 -0.248927 -3.33786e-06  -0.134349 -0.308336 2.14577e-06  -0.161202 -0.372335 -3.09944e-06  -0.18983 -0.440457 6.67572e-06  -0.220181 -0.512271 -1.66893e-06  -0.252162 -0.587385 9.53674e-07  -0.285682 -0.665409 3.33786e-06  -0.320621 -0.745998 1.90735e-06  -0.35684 -0.828843 2.14577e-06  -0.394219 -0.913664 -3.57628e-06  -0.432609 -1.00019 6.67572e-06  -0.47188 -1.0882 -3.09944e-06  -0.511895 -1.17747 -1.19209e-06  -0.552543 -1.26779 7.15256e-07  -0.593669 -1.35899 4.76837e-07  -0.635182 -1.45092 4.05312e-06  -0.676979 -1.54342 8.34465e-06  -0.718949 -1.63634 4.76837e-06  -0.76102 -1.72957 2.38419e-06  -0.803127 -1.823 1.43051e-06  -0.845196 -1.91651 2.14577e-06  -0.887187 -2.01004 1.66893e-06  -0.929051 -2.10349 2.38419e-07  -0.970778 -2.19682 -2.86102e-06  -1.01231 -2.28997 9.05991e-06  -1.05371 -2.38294 1.5974e-05  0 0 0  -0.0012424 -0.0121187 -1.66893e-06  -0.00470673 -0.0344438 9.53674e-07  -0.0105525 -0.0653504 8.10623e-06  -0.0189119 -0.103737 -1.19209e-06  -0.029827 -0.148956 -1.66893e-06  -0.0433602 -0.20046 -9.53674e-07  -0.0595556 -0.25768 4.05312e-06  -0.0783855 -0.320024 -4.76837e-07  -0.0998105 -0.386974 -4.76837e-06  -0.123708 -0.457963 4.76837e-07  -0.149948 -0.532537 6.4373e-06  -0.178381 -0.610244 1.43051e-06  -0.208834 -0.690688 3.09944e-06  -0.241123 -0.773513 -1.66893e-06  -0.275074 -0.8584 7.15256e-07  -0.3105 -0.945065 8.58307e-06  -0.347233 -1.03325 4.76837e-06  -0.385091 -1.12271 4.29153e-06  -0.423916 -1.21326 -2.86102e-06  -0.463553 -1.30472 -1.43051e-06  -0.503839 -1.39687 9.53674e-07  -0.544668 -1.4896 9.53674e-07  -0.585908 -1.58276 2.14577e-06  -0.62743 -1.67622 1.19209e-06  -0.669152 -1.76988 1.90735e-06  -0.71098 -1.86364 -1.19209e-06  -0.752846 -1.95739 5.00679e-06  -0.794682 -2.05108 1.43051e-06  -0.836435 -2.14464 0  -0.878082 -2.23804 -7.15256e-07  -0.919553 -2.33122 5.72205e-06  -0.960876 -2.42416 -3.8147e-06  0 0 0  0.00124514 -0.0134584 -4.52995e-06  0.00359657 -0.0367222 -7.62939e-06  0.0053367 -0.0686814 -5.00679e-06  0.00522405 -0.108503 -2.86102e-06  0.00247467 -0.155549 -1.43051e-06  -0.00337988 -0.209208 -1.43051e-06  -0.0125653 -0.268812 2.38419e-07  -0.0251221 -0.333682 -1.19209e-06  -0.0409824 -0.403211 7.15256e-07  -0.0599899 -0.476764 0  -0.0819685 -0.553823 1.66893e-06  -0.106678 -0.63391 5.96046e-06  -0.133881 -0.716594 0  -0.163363 -0.801506 8.58307e-06  -0.194873 -0.88831 -1.66893e-06  -0.228199 -0.97672 -2.38419e-07  -0.263113 -1.06647 -1.66893e-06  -0.299412 -1.15733 2.38419e-07  -0.336921 -1.24912 -2.14577e-06  -0.37543 -1.34164 6.19888e-06  -0.414779 -1.43471 9.53674e-07  -0.454821 -1.52821 6.91414e-06  -0.495407 -1.62202 -2.6226e-06  -0.536399 -1.71601 7.62939e-06  -0.577693 -1.81008 -2.38419e-07  -0.619184 -1.90415 1.43051e-06  -0.660784 -1.99814 4.05312e-06  -0.702416 -2.092 -1.43051e-06  -0.744018 -2.18568 -9.53674e-07  -0.785546 -2.27914 -9.53674e-07  -0.826938 -2.37235 4.76837e-06  -0.868182 -2.46531 -2.14577e-06  0 0 0  0.00354648 -0.0170834 -2.6226e-06  0.0114943 -0.0424189 7.15256e-06  0.0205917 -0.0757737 -7.15256e-07  0.0285158 -0.116954 -5.48363e-06  0.0337489 -0.165557 -6.19888e-06  0.0354286 -0.221033 -7.62939e-06  0.0331461 -0.282673 6.67572e-06  0.0268065 -0.349742 2.38419e-07  0.0164857 -0.421528 2.6226e-06  0.00237465 -0.497375 1.66893e-06  -0.0152713 -0.576689 -2.6226e-06  -0.0361758 -0.658952 -2.38419e-07  -0.0600554 -0.743697 -7.15256e-07  -0.0866302 -0.830541 -2.86102e-06  -0.115611 -0.919119 2.14577e-06  -0.146745 -1.00915 -4.76837e-07  -0.179768 -1.10035 -4.05312e-06  -0.214425 -1.19251 4.29153e-06  -0.250528 -1.28545 7.15256e-07  -0.287839 -1.37895 8.58307e-06  -0.326173 -1.47287 -1.66893e-06  -0.365355 -1.56709 2.6226e-06  -0.405227 -1.66148 2.38419e-07  -0.445643 -1.75594 4.05312e-06  -0.486462 -1.85039 6.91414e-06  -0.527573 -1.94474 3.33786e-06  -0.568872 -2.03894 -2.6226e-06  -0.610273 -2.13295 2.14577e-06  -0.6517 -2.22672 -1.19209e-06  -0.693093 -2.32023 0  -0.734391 -2.41348 -3.09944e-06  -0.775561 -2.50648 -4.76837e-07  0 0 0  0.00599377 -0.0230246 7.62939e-06  0.0197704 -0.0513625 0  0.0365158 -0.0864249 -3.8147e-06  0.05252 -0.128906 -7.15256e-06  0.0655943 -0.1789 -4.29153e-06  0.0745952 -0.23597 3.57628e-06  0.0790122 -0.299403 -5.00679e-06  0.0787148 -0.368431 1.07288e-05  0.0738114 -0.442266 6.67572e-06  0.0645158 -0.52019 8.10623e-06  0.0511469 -0.60156 5.96046e-06  0.0340098 -0.685805 -5.72205e-06  0.013451 -0.77244 -2.86102e-06  -0.010209 -0.861055 -2.38419e-06  -0.0366389 -0.95126 1.66893e-06  -0.0655495 -1.04277 5.96046e-06  -0.0966394 -1.13532 -7.86781e-06  -0.129633 -1.22866 3.8147e-06  -0.164292 -1.32261 7.62939e-06  -0.200383 -1.417 1.19209e-06  -0.237671 -1.51168 3.33786e-06  -0.275974 -1.60652 4.29153e-06  -0.315114 -1.70141 2.14577e-06  -0.354923 -1.79627 7.39098e-06  -0.395247 -1.89103 7.62939e-06  -0.435963 -1.98561 -3.33786e-06  -0.476944 -2.07996 -4.76837e-07  -0.518109 -2.17407 2.6226e-06  -0.559352 -2.26789 2.86102e-06  -0.600616 -2.36142 -6.91414e-06  -0.641846 -2.45468 2.86102e-06  -0.682982 -2.54772 -2.6226e-06  0 0 0  0.00839829 -0.0316409 1.43051e-06  0.0295413 -0.0639011 6.67572e-06  0.0546805 -0.100549 2.14577e-06  0.0788304 -0.144167 -3.8147e-06  0.0995207 -0.195379 -6.19888e-06  0.115528 -0.253904 -7.15256e-07  0.126338 -0.318992 1.04904e-05  0.131821 -0.389834 -8.82149e-06  0.13211 -0.465574 8.10623e-06  0.127467 -0.545425 3.09944e-06  0.11823 -0.628703 9.53674e-07  0.104769 -0.714782 1.90735e-06  0.0874481 -0.803158 -4.29153e-06  0.066633 -0.893387 -2.6226e-06  0.0427053 -0.985086 -2.6226e-06  0.0159872 -1.07795 7.15256e-07  -0.0131922 -1.17169 1.90735e-06  -0.0445428 -1.26608 4.52995e-06  -0.0777767 -1.36093 2.6226e-06  -0.112647 -1.45608 4.05312e-06  -0.14891 -1.55139 2.38419e-06  -0.186344 -1.64674 -4.76837e-06  -0.224767 -1.74204 7.15256e-07  -0.263971 -1.83721 1.00136e-05  -0.303824 -1.93217 6.91414e-06  -0.344161 -2.0269 -4.05312e-06  -0.384849 -2.12132 1.90735e-06  -0.425789 -2.21546 7.15256e-07  -0.46687 -2.30926 -9.53674e-07  -0.508024 -2.40277 -2.86102e-06  -0.549192 -2.49601 -4.52995e-06  -0.590351 -2.58909 -9.29832e-06  0 0 0  0.0149782 -0.0453233 4.76837e-06  0.0448051 -0.0805371 2.6226e-06  0.0777605 -0.118085 -4.05312e-06  0.109286 -0.162455 3.8147e-06  0.136928 -0.214716 -7.62939e-06  0.159425 -0.274606 2.38419e-06  0.176225 -0.341284 -9.05991e-06  0.187164 -0.413886 4.76837e-06  0.192384 -0.491466 -2.14577e-06  0.192173 -0.57317 -9.53674e-07  0.18688 -0.658252 -2.86102e-06  0.176912 -0.74606 -5.72205e-06  0.162692 -0.836053 -8.10623e-06  0.144608 -0.927761 -6.67572e-06  0.12306 -1.02081 -7.39098e-06  0.0984399 -1.11487 1.90735e-06  0.0710769 -1.20967 4.76837e-06  0.0413165 -1.30497 -5.00679e-06  0.00944328 -1.40058 1.40667e-05  -0.0242763 -1.49637 3.33786e-06  -0.0595462 -1.59218 1.90735e-06  -0.0961633 -1.68792 2.38419e-06  -0.133901 -1.78351 -4.29153e-06  -0.172555 -1.87885 -2.86102e-06  -0.211978 -1.97392 -3.09944e-06  -0.251985 -2.06867 4.29153e-06  -0.292432 -2.16307 0  -0.333198 -2.25714 2.14577e-06  -0.374157 -2.35087 -9.53674e-07  -0.415232 -2.4443 9.77516e-06  -0.456374 -2.5375 3.33786e-06  -0.49756 -2.63061 -1.26362e-05  0 0 0  -0.0185817 -0.0299916 0.0110633  -0.0480263 -0.0526705 0.0171368  -0.0809025 -0.0782006 0.0200717  -0.115389 -0.108719 0.0207999  -0.150636 -0.144796 0.0201399  -0.186292 -0.186516 0.0186939  -0.222212 -0.233703 0.0168986  -0.258427 -0.28608 0.015034  -0.295003 -0.343293 0.0132306  -0.332051 -0.405012 0.0115719  -0.36963 -0.470817 0.0100906  -0.407832 -0.540369 0.00876927  -0.446689 -0.613286 0.00761127  -0.486167 -0.689212 0.00657773  -0.526273 -0.767873 0.00567126  -0.566928 -0.848934 0.00486469  -0.608079 -0.932125 0.00412464  -0.649679 -1.01721 0.00348258  -0.691625 -1.10393 0.00290585  -0.733842 -1.19208 0.00238395  -0.776249 -1.28144 0.00193357  -0.818786 -1.37186 0.00152254  -0.861362 -1.46312 0.00115871  -0.903923 -1.55509 0.00087142  -0.946411 -1.64759 0.000612736  -0.988792 -1.7405 0.000410318  -1.03103 -1.83367 0.000241756  -1.0731 -1.927 0.000114679  -1.11502 -2.0204 4.64916e-05  -1.15674 -2.11372 1.69277e-05  -1.19833 -2.20692 -1.78814e-05  -1.2398 -2.29997 -3.45707e-05  0 0 0  -0.00827656 -0.0181267 0.00622821  -0.0270234 -0.0412537 0.0110497  -0.0504602 -0.0693908 0.0134294  -0.0763704 -0.103358 0.0141013  -0.103874 -0.143251 0.0137143  -0.132598 -0.188913 0.0127358  -0.162418 -0.24004 0.011503  -0.193299 -0.296251 0.0102088  -0.225262 -0.357135 0.00898099  -0.258344 -0.422282 0.00784707  -0.292549 -0.491279 0.00683117  -0.327873 -0.56376 0.00592637  -0.364259 -0.639354 0.00512338  -0.401654 -0.717703 0.00442004  -0.440003 -0.798528 0.00379515  -0.479187 -0.881514 0.00323915  -0.519113 -0.966407 0.00273943  -0.559685 -1.05298 0.00230336  -0.600796 -1.14099 0.00189948  -0.642339 -1.23023 0.00155759  -0.684213 -1.32052 0.00123405  -0.726341 -1.41169 0.000976324  -0.768621 -1.50356 0.000741959  -0.81097 -1.59599 0.000535011  -0.853334 -1.68884 0.000373125  -0.895641 -1.78198 0.00023365  -0.937859 -1.8753 0.000132799  -0.979945 -1.9687 6.31809e-05  -1.02189 -2.06209 7.86781e-06  -1.06364 -2.15539 -1.5974e-05  -1.10523 -2.24856 -3.09944e-05  -1.14666 -2.34155 -4.50611e-05  0 0 0  -0.00428369 -0.0128728 0.00383019  -0.0142252 -0.0348084 0.00645185  -0.0282222 -0.0643912 0.00796342  -0.0450479 -0.100798 0.00842905  -0.0641498 -0.143693 0.00821352  -0.0852851 -0.192631 0.00762415  -0.10837 -0.247155 0.00687981  -0.133348 -0.306757 0.00608134  -0.16019 -0.370953 0.00531888  -0.18884 -0.439262 0.00461793  -0.219234 -0.511252 0.0039854  -0.251285 -0.586511 0.00343442  -0.284878 -0.664664 0.0029428  -0.319878 -0.745363 0.00250721  -0.356178 -0.82831 0.00212812  -0.393628 -0.913203 0.00178552  -0.432084 -0.999797 0.00149298  -0.471423 -1.08786 0.00121498  -0.511506 -1.17718 0.000981808  -0.552198 -1.26756 0.000785828  -0.593383 -1.3588 0.000597  -0.634942 -1.45077 0.000447512  -0.67678 -1.5433 0.000314951  -0.718791 -1.63625 0.000210047  -0.760903 -1.7295 0.000117302  -0.803029 -1.82293 5.76973e-05  -0.845129 -1.91646 1.14441e-05  -0.887141 -2.01 -2.00272e-05  -0.929024 -2.10346 -3.67165e-05  -0.970753 -2.19679 -4.43459e-05  -1.01231 -2.28995 -4.50611e-05  -1.05368 -2.38291 -5.45979e-05  0 0 0  -0.0011972 -0.0115829 0.00186038  -0.00454617 -0.0333251 0.00302982  -0.0102159 -0.0637803 0.00362158  -0.0183843 -0.101919 0.00376964  -0.0291373 -0.147082 0.00360656  -0.0425471 -0.198652 0.00326753  -0.0586544 -0.256012 0.00287843  -0.0774475 -0.318527 0.00246429  -0.0988654 -0.385645 0.002074  -0.12278 -0.456805 0.00173068  -0.149067 -0.531514 0.00142908  -0.177564 -0.609362 0.00115824  -0.208084 -0.689929 0.000936031  -0.240437 -0.772851 0.000735283  -0.27446 -0.857827 0.000568628  -0.309958 -0.944572 0.000432968  -0.346743 -1.03281 0.000305176  -0.38466 -1.12235 0.000197172  -0.423547 -1.21296 0.000106335  -0.463237 -1.30445 3.17097e-05  -0.503579 -1.39665 -2.81334e-05  -0.544451 -1.48941 -6.31809e-05  -0.585725 -1.5826 -0.000104666  -0.627297 -1.6761 -0.00012207  -0.669051 -1.76978 -0.000139713  -0.710903 -1.86354 -0.000149965  -0.752789 -1.95732 -0.000126362  -0.794646 -2.05103 -0.000121832  -0.836417 -2.14461 -9.89437e-05  -0.878061 -2.238 -8.27312e-05  -0.919553 -2.33119 -6.12736e-05  -0.960849 -2.42412 -6.19888e-05  0 0 0  0.00129388 -0.0130001 8.01086e-05  0.00378171 -0.0357395 2.95639e-05  0.0056802 -0.0672676 -0.000114679  0.00574118 -0.106837 -0.000280857  0.00312841 -0.153813 -0.000458241  -0.00262707 -0.20751 -0.000609875  -0.011749 -0.267227 -0.00073719  -0.0242774 -0.33224 -0.000832081  -0.0401394 -0.401909 -0.000902891  -0.0591748 -0.475603 -0.00094676  -0.0811765 -0.55279 -0.000966072  -0.105936 -0.633002 -0.000974178  -0.133208 -0.715802 -0.000973225  -0.162743 -0.80081 -0.000945807  -0.194313 -0.887708 -0.000928164  -0.227696 -0.976194 -0.000885963  -0.262664 -1.066 -0.000844717  -0.299029 -1.15693 -0.000796318  -0.336591 -1.24878 -0.000748634  -0.375149 -1.34133 -0.000689268  -0.41454 -1.43445 -0.000634909  -0.454627 -1.528 -0.000578403  -0.495239 -1.62184 -0.000528812  -0.536278 -1.71587 -0.000463724  -0.577596 -1.80996 -0.000403166  -0.619116 -1.90405 -0.000346661  -0.66074 -1.99807 -0.000287294  -0.702388 -2.09194 -0.00022912  -0.744013 -2.18563 -0.0001719  -0.785543 -2.27909 -0.000132322  -0.82694 -2.37231 -8.58307e-05  -0.868164 -2.46526 -4.74453e-05  0 0 0  0.00359793 -0.016676 -0.00160289  0.0116911 -0.0415257 -0.0028019  0.0209572 -0.0744876 -0.00361776  0.029027 -0.115423 -0.00409532  0.0343759 -0.163943 -0.00426412  0.0361264 -0.219442 -0.00425744  0.033892 -0.281159 -0.00412679  0.0275624 -0.348343 -0.00394511  0.0172315 -0.420253 -0.00374246  0.00310373 -0.496222 -0.00351381  -0.0145731 -0.575646 -0.00328898  -0.0355266 -0.658023 -0.00306201  -0.0594577 -0.742873 -0.00283265  -0.0860823 -0.829813 -0.00261331  -0.115118 -0.918473 -0.00239015  -0.1463 -1.00858 -0.00218248  -0.179358 -1.09986 -0.00197697  -0.214077 -1.19208 -0.0017848  -0.250228 -1.28507 -0.00159788  -0.28759 -1.37862 -0.00141573  -0.325967 -1.47259 -0.00124836  -0.365192 -1.56685 -0.00109863  -0.405098 -1.66128 -0.0009408  -0.445544 -1.75578 -0.000807047  -0.486378 -1.85025 -0.000671387  -0.527518 -1.94464 -0.00054574  -0.568836 -2.03886 -0.00044179  -0.610252 -2.13287 -0.000341415  -0.651697 -2.22667 -0.000257492  -0.693095 -2.32019 -0.000178099  -0.734404 -2.41343 -0.000109911  -0.77556 -2.50642 -6.41346e-05  0 0 0  0.00603895 -0.0226101 -0.00324583  0.0199679 -0.0505196 -0.0056572  0.0368637 -0.085211 -0.00719166  0.0530164 -0.127479 -0.00787449  0.0662053 -0.177388 -0.00799561  0.075266 -0.234473 -0.00779581  0.0797045 -0.297965 -0.00744271  0.0794094 -0.367082 -0.00699401  0.0744855 -0.441023 -0.00652432  0.0651752 -0.519058 -0.00605202  0.0517762 -0.600528 -0.00558758  0.0345986 -0.684881 -0.00514317  0.0139918 -0.771616 -0.00469923  -0.00971711 -0.860312 -0.00427294  -0.0361989 -0.950602 -0.003865  -0.0651522 -1.0422 -0.0034833  -0.0962794 -1.1348 -0.00312161  -0.12932 -1.22821 -0.00277948  -0.164024 -1.32222 -0.00244927  -0.200153 -1.41667 -0.0021596  -0.237482 -1.51139 -0.00187135  -0.275826 -1.60627 -0.00160408  -0.314999 -1.7012 -0.00136447  -0.354838 -1.7961 -0.00113511  -0.39518 -1.89088 -0.000935555  -0.435915 -1.9855 -0.000754833  -0.476925 -2.07988 -0.000590801  -0.518082 -2.17399 -0.00044775  -0.559355 -2.26783 -0.000321865  -0.600619 -2.36137 -0.000222921  -0.641853 -2.45462 -0.000130653  -0.682987 -2.54767 -4.91142e-05  0 0 0  0.0084357 -0.0311503 -0.00493836  0.0297115 -0.0630087 -0.0089004  0.0550299 -0.0993593 -0.0109305  0.0793314 -0.142807 -0.011693  0.100124 -0.193959 -0.0117166  0.11618 -0.252484 -0.0113187  0.127003 -0.317629 -0.0107331  0.132484 -0.388551 -0.0100596  0.132752 -0.464382 -0.00933552  0.128088 -0.544335 -0.00862908  0.118821 -0.627701 -0.0079248  0.10532 -0.713885 -0.00725389  0.0879534 -0.802355 -0.00660467  0.0671026 -0.892668 -0.00598121  0.0431275 -0.984448 -0.00538683  0.0163686 -1.07738 -0.00482869  -0.0128603 -1.17118 -0.00429726  -0.0442429 -1.26563 -0.00379705  -0.0775206 -1.36055 -0.00333595  -0.112438 -1.45575 -0.00289559  -0.148735 -1.5511 -0.00250006  -0.186205 -1.6465 -0.00213003  -0.224659 -1.74184 -0.00178528  -0.263887 -1.83703 -0.0014677  -0.303763 -1.93203 -0.00118518  -0.344125 -2.02677 -0.000943661  -0.384834 -2.12123 -0.000724792  -0.425781 -2.21536 -0.000533342  -0.466885 -2.3092 -0.00038743  -0.508037 -2.40271 -0.000251532  -0.549202 -2.49595 -0.000149012  -0.590356 -2.58902 -5.48363e-05  0 0 0  0.014948 -0.0445659 -0.00788093  0.0449461 -0.0794711 -0.0123355  0.0780981 -0.116829 -0.0146046  0.109782 -0.161105 -0.0154166  0.137547 -0.213352 -0.0153747  0.1601 -0.27325 -0.0148351  0.176909 -0.340004 -0.0140705  0.187842 -0.412686 -0.01317  0.19305 -0.490355 -0.0122409  0.192808 -0.572153 -0.011292  0.187487 -0.657321 -0.0103679  0.177487 -0.745234 -0.00946569  0.163227 -0.835314 -0.00859642  0.145104 -0.927106 -0.00777197  0.123513 -1.02024 -0.00698495  0.0988483 -1.11436 -0.00623894  0.0714462 -1.20922 -0.00553584  0.0416372 -1.30458 -0.0048728  0.00972128 -1.40024 -0.00425291  -0.0240328 -1.49608 -0.00368166  -0.0593448 -1.59194 -0.00315404  -0.0959885 -1.68772 -0.00267124  -0.13377 -1.78335 -0.00222158  -0.172455 -1.8787 -0.00181293  -0.211909 -1.9738 -0.00143743  -0.251937 -2.06857 -0.00112414  -0.292412 -2.16298 -0.000837326  -0.333179 -2.25705 -0.00062418  -0.374176 -2.3508 -0.0004282  -0.415264 -2.44425 -0.000279665  -0.456392 -2.53744 -0.00016737  -0.497571 -2.63053 -7.48634e-05  0 0 0  -0.0178572 -0.02591 0.0229127  -0.0466937 -0.0459049 0.0352106  -0.0791764 -0.0703475 0.0407634  -0.11332 -0.100494 0.0418735  -0.148252 -0.136742 0.0402894  -0.183625 -0.17898 0.0372415  -0.219349 -0.226904 0.0335927  -0.255453 -0.280116 0.0298345  -0.292026 -0.338173 0.0262682  -0.32914 -0.400634 0.0229831  -0.366871 -0.467135 0.0200601  -0.40527 -0.53727 0.0174618  -0.444331 -0.610679 0.0151639  -0.484038 -0.687032 0.0131218  -0.52436 -0.766022 0.0113039  -0.56524 -0.847365 0.00969338  -0.606615 -0.930811 0.00823951  -0.648401 -1.0161 0.00695252  -0.690538 -1.10301 0.00580597  -0.732921 -1.1913 0.00476575  -0.775483 -1.28081 0.00386047  -0.818147 -1.37133 0.00304127  -0.860851 -1.4627 0.00233221  -0.903527 -1.55474 0.0017252  -0.94611 -1.64732 0.00121593  -0.988576 -1.7403 0.000796318  -1.03087 -1.83353 0.000473499  -1.07299 -1.92691 0.000227928  -1.11491 -2.02032 7.41482e-05  -1.15666 -2.11368 -2.38419e-06  -1.19825 -2.20691 -4.19617e-05  -1.2397 -2.29996 -8.96454e-05  0 0 0  -0.00821379 -0.0153286 0.0127964  -0.0264423 -0.0360536 0.0223422  -0.0492452 -0.0628957 0.0268261  -0.0745373 -0.0963614 0.0279274  -0.101485 -0.136328 0.0270295  -0.129774 -0.182446 0.0250554  -0.159301 -0.23423 0.0226216  -0.190044 -0.291165 0.0201027  -0.222003 -0.352759 0.0177031  -0.25517 -0.418554 0.015497  -0.289541 -0.488138 0.0135131  -0.325073 -0.561105 0.0117524  -0.36171 -0.637109 0.010179  -0.399354 -0.715814 0.00879979  -0.437929 -0.796922 0.00755715  -0.477342 -0.880159 0.00646067  -0.517499 -0.965275 0.00546503  -0.55828 -1.05202 0.00458956  -0.599591 -1.1402 0.00380349  -0.641312 -1.22958 0.00310516  -0.683351 -1.31998 0.0024879  -0.725623 -1.41125 0.00195026  -0.768031 -1.50321 0.00147557  -0.810497 -1.59571 0.00107479  -0.852961 -1.68863 0.000743151  -0.895361 -1.78182 0.000468969  -0.937662 -1.87518 0.000270128  -0.979804 -1.96861 0.000119686  -1.02177 -2.06202 2.09808e-05  -1.06356 -2.15535 -3.14713e-05  -1.10515 -2.24852 -7.03335e-05  -1.14659 -2.34152 -0.000114441  0 0 0  -0.00417359 -0.0107079 0.00782895  -0.0137147 -0.0305558 0.0129383  -0.0271219 -0.0587329 0.0157459  -0.0433189 -0.0945473 0.0165312  -0.0618523 -0.137445 0.0160487  -0.0825419 -0.186764 0.0148976  -0.105328 -0.241848 0.0134349  -0.130167 -0.302077 0.0118983  -0.157 -0.366883 0.0104322  -0.18574 -0.435761 0.00907469  -0.216292 -0.508258 0.00786114  -0.248546 -0.583951 0.00678253  -0.282365 -0.662481 0.0058198  -0.317612 -0.743499 0.00497508  -0.354141 -0.826717 0.0042274  -0.391813 -0.911851 0.0035553  -0.430487 -0.99865 0.00296235  -0.470029 -1.0869 0.00242567  -0.510306 -1.17637 0.00195837  -0.551169 -1.26688 0.00157022  -0.592514 -1.35824 0.00120115  -0.634218 -1.4503 0.000891685  -0.676188 -1.54291 0.000637293  -0.718325 -1.63593 0.000417948  -0.760538 -1.72926 0.000250816  -0.802755 -1.82275 0.000112534  -0.844927 -1.91633 2.55108e-05  -0.886995 -2.0099 -3.45707e-05  -0.928924 -2.10338 -6.53267e-05  -0.970673 -2.19673 -8.51154e-05  -1.01224 -2.2899 -9.03606e-05  -1.05363 -2.38284 -0.000127316  0 0 0  -0.00106516 -0.00981906 0.0037744  -0.00401931 -0.0296556 0.00603509  -0.00914544 -0.0587185 0.00707769  -0.0167326 -0.0962547 0.00730515  -0.0269725 -0.141363 0.00694704  -0.0400025 -0.193214 0.00628805  -0.0558658 -0.251007 0.00551891  -0.0745454 -0.314047 0.00474119  -0.0959542 -0.381671 0.0040071  -0.119961 -0.453328 0.00334668  -0.146381 -0.528498 0.00276995  -0.175048 -0.606737 0.00225639  -0.20577 -0.687649 0.00182462  -0.238346 -0.770894 0.00144339  -0.272572 -0.856133 0.00111222  -0.308271 -0.943114 0.000841856  -0.345258 -1.03157 0.000595331  -0.383368 -1.12129 0.000387669  -0.422425 -1.21205 0.000215292  -0.46228 -1.30368 7.20024e-05  -0.50277 -1.396 -4.91142e-05  -0.543782 -1.48887 -0.000134468  -0.585177 -1.58216 -0.000204325  -0.626856 -1.67574 -0.000241756  -0.668711 -1.7695 -0.000282526  -0.710653 -1.86332 -0.000284672  -0.752616 -1.95714 -0.000262022  -0.79453 -2.05089 -0.000237703  -0.836347 -2.14449 -0.000200272  -0.87802 -2.23791 -0.000159979  -0.919511 -2.3311 -0.000132084  -0.960817 -2.42403 -0.000133038  0 0 0  0.00145955 -0.0115072 0.000102043  0.00434852 -0.0325226 -3.21865e-05  0.00679404 -0.0627244 -0.000363588  0.00736892 -0.101677 -0.00073719  0.00516933 -0.148541 -0.00109601  -0.000289559 -0.202424 -0.00138879  -0.00923413 -0.262466 -0.0016222  -0.0216934 -0.32789 -0.00178766  -0.0375651 -0.397978 -0.00190735  -0.0566766 -0.472113 -0.0019784  -0.0788034 -0.549703 -0.00200152  -0.103712 -0.630284 -0.00200081  -0.131143 -0.713413 -0.0019803  -0.160868 -0.798726 -0.00193  -0.192625 -0.885879 -0.00186968  -0.226192 -0.974597 -0.00178337  -0.261343 -1.06463 -0.00169635  -0.29788 -1.15575 -0.00160027  -0.335585 -1.24775 -0.00150228  -0.374299 -1.34047 -0.00139284  -0.413826 -1.43371 -0.00127649  -0.454029 -1.52737 -0.00116587  -0.494771 -1.62132 -0.00104809  -0.535907 -1.71542 -0.000933647  -0.577318 -1.80961 -0.000812769  -0.61891 -1.90377 -0.000686884  -0.660591 -1.99784 -0.000576496  -0.7023 -2.09176 -0.000463963  -0.743958 -2.18548 -0.000349522  -0.785519 -2.27897 -0.000259161  -0.826929 -2.37219 -0.000170231  -0.868137 -2.46513 -0.000109911  0 0 0  0.00379121 -0.0153176 -0.00337648  0.0123066 -0.0386299 -0.00579381  0.0221117 -0.0703521 -0.00741839  0.0306498 -0.110669 -0.00833821  0.036321 -0.15903 -0.00866318  0.0382726 -0.214632 -0.00862098  0.0361371 -0.276597 -0.00835872  0.0298464 -0.344109 -0.00798106  0.0194923 -0.416384 -0.00755453  0.00529027 -0.492725 -0.00709176  -0.0124955 -0.572517 -0.00663018  -0.0335791 -0.655229 -0.0061574  -0.0576546 -0.740393 -0.00569654  -0.0844289 -0.827612 -0.00524664  -0.113623 -0.91654 -0.0048027  -0.144967 -1.00689 -0.00437117  -0.178199 -1.09838 -0.00396156  -0.213062 -1.1908 -0.00357914  -0.249346 -1.28395 -0.00320125  -0.286843 -1.37766 -0.00284052  -0.325344 -1.47176 -0.00250411  -0.36468 -1.56614 -0.00219297  -0.404701 -1.66068 -0.00189066  -0.445232 -1.75528 -0.00161624  -0.486157 -1.84985 -0.00135541  -0.527354 -1.94431 -0.00110507  -0.568721 -2.03859 -0.000882149  -0.610187 -2.13267 -0.000689983  -0.651664 -2.22649 -0.000514746  -0.6931 -2.32004 -0.000354528  -0.734415 -2.41329 -0.000222921  -0.775563 -2.50627 -0.000121117  0 0 0  0.00624114 -0.0212295 -0.00680304  0.0205961 -0.0477628 -0.0116122  0.0380155 -0.0813518 -0.0146258  0.0546066 -0.123029 -0.0159268  0.0680674 -0.172763 -0.016125  0.0772696 -0.229898 -0.0156956  0.0817558 -0.293595 -0.0149558  0.0814548 -0.362981 -0.0140638  0.0764861 -0.437241 -0.0131137  0.0671049 -0.515604 -0.0121598  0.0536103 -0.597403 -0.0112212  0.0363216 -0.682074 -0.0103099  0.0155886 -0.7691 -0.00941777  -0.00825226 -0.858074 -0.0085609  -0.0348649 -0.948618 -0.00774884  -0.0639639 -1.04044 -0.00698209  -0.0952404 -1.13326 -0.006253  -0.128419 -1.22686 -0.0055654  -0.163246 -1.32104 -0.00491667  -0.1995 -1.41563 -0.00431871  -0.236943 -1.5105 -0.00374627  -0.275387 -1.60551 -0.00321126  -0.314663 -1.70056 -0.0027318  -0.354579 -1.79556 -0.00228715  -0.395009 -1.89044 -0.00188255  -0.435805 -1.98512 -0.00151205  -0.476856 -2.07957 -0.00118709  -0.518065 -2.17374 -0.000903606  -0.559353 -2.26762 -0.000642538  -0.60065 -2.3612 -0.000444651  -0.641878 -2.45448 -0.000262976  -0.682996 -2.54751 -0.000107288  0 0 0  0.00866799 -0.0295384 -0.0103469  0.0302886 -0.0601398 -0.0183232  0.0561193 -0.0956093 -0.0222487  0.0808918 -0.13858 -0.0236368  0.101954 -0.189566 -0.0235744  0.118122 -0.248139 -0.022747  0.12896 -0.313462 -0.0215492  0.134407 -0.384629 -0.0201812  0.134624 -0.460747 -0.0187342  0.129881 -0.541005 -0.0173104  0.120536 -0.624677 -0.0159016  0.10693 -0.711166 -0.0145407  0.089458 -0.799911 -0.0132315  0.0684772 -0.890482 -0.0119774  0.044376 -0.982496 -0.0107849  0.0174787 -1.07564 -0.00967073  -0.0118787 -1.16965 -0.00860333  -0.0433977 -1.26429 -0.00761104  -0.0767865 -1.35936 -0.00667524  -0.111818 -1.45472 -0.00580359  -0.148231 -1.55022 -0.00500369  -0.185788 -1.64574 -0.00426173  -0.224332 -1.74119 -0.0035696  -0.263661 -1.83649 -0.0029521  -0.303606 -1.93158 -0.00237942  -0.344022 -2.0264 -0.00188684  -0.384787 -2.12092 -0.00145483  -0.425768 -2.21511 -0.0010736  -0.466895 -2.30898 -0.00077343  -0.508083 -2.40253 -0.000507355  -0.549251 -2.49579 -0.000293732  -0.590389 -2.58885 -0.000106573  0 0 0  0.0150359 -0.0422305 -0.0166359  0.0454246 -0.0760819 -0.0255256  0.0791523 -0.112961 -0.0297801  0.111333 -0.156969 -0.0312049  0.139396 -0.209133 -0.0309861  0.162082 -0.269118 -0.0298398  0.178921 -0.336066 -0.0282629  0.189829 -0.408999 -0.0264473  0.194979 -0.486953 -0.02456  0.194663 -0.569047 -0.0226607  0.18926 -0.654507 -0.0207951  0.179154 -0.742694 -0.0189862  0.164785 -0.833046 -0.0172451  0.146542 -0.925099 -0.015578  0.124833 -1.01844 -0.0139985  0.100035 -1.11277 -0.0125058  0.0724938 -1.20781 -0.0110929  0.0425522 -1.30335 -0.00976586  0.0105164 -1.39918 -0.00852537  -0.0233467 -1.49516 -0.00737667  -0.0587893 -1.59116 -0.00630975  -0.0955355 -1.68705 -0.00533795  -0.133399 -1.78277 -0.00442743  -0.172188 -1.87825 -0.00361323  -0.211709 -1.97342 -0.00287414  -0.251805 -2.06826 -0.00222754  -0.29233 -2.16273 -0.00166583  -0.333165 -2.25684 -0.00122595  -0.374186 -2.35061 -0.000836611  -0.415313 -2.44406 -0.000544548  -0.456464 -2.53726 -0.000323296  -0.497641 -2.63034 -0.000126362  0 0 0  -0.0159128 -0.0164968 0.0366874  -0.0441529 -0.0338001 0.055001  -0.0760761 -0.0561516 0.0622532  -0.109381 -0.0855545 0.0630438  -0.143431 -0.122285 0.060106  -0.178101 -0.165804 0.0552785  -0.213408 -0.215376 0.0497506  -0.249405 -0.2703 0.0441628  -0.286087 -0.329944 0.0389175  -0.323484 -0.393796 0.0341337  -0.361613 -0.461454 0.0298409  -0.400453 -0.532546 0.0260298  -0.439968 -0.606729 0.0226402  -0.480127 -0.683721 0.0196249  -0.520881 -0.763252 0.0169327  -0.562197 -0.845055 0.0145223  -0.603958 -0.928872 0.0123606  -0.646109 -1.01448 0.0104325  -0.688555 -1.10165 0.00870681  -0.731255 -1.1902 0.00715137  -0.774076 -1.27991 0.0057826  -0.816997 -1.37061 0.00456691  -0.859927 -1.46213 0.00349832  -0.902802 -1.55431 0.00257802  -0.945564 -1.64699 0.00179768  -0.988163 -1.74005 0.00116587  -1.03057 -1.83337 0.000669479  -1.07276 -1.9268 0.000306845  -1.11476 -2.02026 8.41618e-05  -1.15654 -2.11365 -3.69549e-05  -1.19814 -2.2069 -9.65595e-05  -1.23961 -2.29997 -0.000184536  0 0 0  -0.00755768 -0.00925759 0.0202291  -0.0250539 -0.0261177 0.033967  -0.0469067 -0.0507576 0.0397964  -0.0709777 -0.0836463 0.0408983  -0.0967265 -0.124148 0.0393615  -0.124105 -0.171421 0.0364497  -0.153091 -0.224599 0.0329723  -0.183655 -0.282954 0.0293849  -0.215716 -0.345848 0.025975  -0.249193 -0.412771 0.0228281  -0.283973 -0.483292 0.0199804  -0.319972 -0.557056 0.0174201  -0.357077 -0.633708 0.0151386  -0.395204 -0.71296 0.0131047  -0.434245 -0.794531 0.0112834  -0.474092 -0.878159 0.00965524  -0.514647 -0.963601 0.00817943  -0.555807 -1.05063 0.00687718  -0.597443 -1.13903 0.0057044  -0.639488 -1.22863 0.00466132  -0.681809 -1.31921 0.00374651  -0.724338 -1.41064 0.00293088  -0.766978 -1.50273 0.00222206  -0.809663 -1.59534 0.00162101  -0.852312 -1.68835 0.00112605  -0.894868 -1.78162 0.000713348  -0.937287 -1.87505 0.000416279  -0.979533 -1.96852 0.000189304  -1.02159 -2.06198 4.00543e-05  -1.06342 -2.1553 -4.36306e-05  -1.10506 -2.24847 -0.000105858  -1.1465 -2.34146 -0.000184536  0 0 0  -0.00377186 -0.00605057 0.0122519  -0.0127762 -0.0219598 0.0194516  -0.0251479 -0.0480729 0.0230744  -0.0401087 -0.0833738 0.0239422  -0.0575132 -0.126653 0.0231404  -0.0773639 -0.176857 0.0214591  -0.0996511 -0.233037 0.0193863  -0.124305 -0.2944 0.0172436  -0.151199 -0.360283 0.0151815  -0.180185 -0.430124 0.0132787  -0.211092 -0.50345 0.0115499  -0.243749 -0.579852 0.0100009  -0.278005 -0.658993 0.00861144  -0.313682 -0.740534 0.00738621  -0.35064 -0.824198 0.00628686  -0.388707 -0.909715 0.00529838  -0.427754 -0.99685 0.0044241  -0.467653 -1.08537 0.00363851  -0.508243 -1.17509 0.00294781  -0.549419 -1.26581 0.00234962  -0.591028 -1.35737 0.00181127  -0.632987 -1.44959 0.00135589  -0.675177 -1.54235 0.000964165  -0.717509 -1.6355 0.000641346  -0.759905 -1.72892 0.000381708  -0.802274 -1.82249 0.000181675  -0.844575 -1.91613 3.86238e-05  -0.886743 -2.00976 -5.07832e-05  -0.928751 -2.10328 -9.44138e-05  -0.970556 -2.19665 -0.000123501  -1.01216 -2.28983 -0.000132322  -1.05353 -2.38277 -0.00020647  0 0 0  -0.00073383 -0.00605062 0.00584149  -0.00303806 -0.0221053 0.00893903  -0.00719887 -0.0493631 0.0101931  -0.0137336 -0.0863429 0.0103548  -0.0230688 -0.131624 0.00979018  -0.0354398 -0.184082 0.008847  -0.0509079 -0.242703 0.00777459  -0.0694344 -0.30662 0.00669312  -0.0908853 -0.375141 0.0056951  -0.115064 -0.44762 0.00477552  -0.141772 -0.523538 0.00397778  -0.170775 -0.602429 0.0032692  -0.201861 -0.683932 0.0026505  -0.2348 -0.767676 0.0021069  -0.269402 -0.853372 0.00162911  -0.305456 -0.94073 0.00123382  -0.342789 -1.02953 0.000882864  -0.381202 -1.11954 0.000578642  -0.420554 -1.21057 0.000321627  -0.460677 -1.30243 0.000123501  -0.50143 -1.39496 -6.12736e-05  -0.542666 -1.48801 -0.000198126  -0.584272 -1.58146 -0.000299215  -0.626131 -1.67517 -0.000364065  -0.668149 -1.76903 -0.000413418  -0.710233 -1.86295 -0.000418663  -0.752311 -1.95686 -0.000393629  -0.794319 -2.05067 -0.000349045  -0.83621 -2.14433 -0.000298023  -0.877935 -2.23778 -0.000245333  -0.91946 -2.33099 -0.000194311  -0.960734 -2.42389 -0.000212669  0 0 0  0.00178567 -0.00832313 -7.86781e-06  0.00550374 -0.0258123 -0.000371218  0.00887555 -0.0543519 -0.000980854  0.0102794 -0.0927082 -0.00157666  0.00874454 -0.139581 -0.00209045  0.00373614 -0.193862 -0.00248885  -0.00494844 -0.25451 -0.00277472  -0.017307 -0.320645 -0.00296664  -0.0332137 -0.391478 -0.00308681  -0.0524654 -0.466314 -0.00314307  -0.0748121 -0.54459 -0.00314713  -0.0999804 -0.625779 -0.00310659  -0.127723 -0.709471 -0.00303936  -0.157746 -0.79527 -0.00295877  -0.189819 -0.882878 -0.00283813  -0.223695 -0.971989 -0.00270033  -0.259143 -1.06237 -0.00255919  -0.295953 -1.15379 -0.00240946  -0.333937 -1.24606 -0.00225425  -0.372893 -1.33902 -0.00208735  -0.412658 -1.43249 -0.00192094  -0.453069 -1.52635 -0.00174928  -0.493989 -1.62045 -0.0015645  -0.53529 -1.71471 -0.0013938  -0.57685 -1.80902 -0.00122428  -0.618568 -1.90329 -0.00103474  -0.660361 -1.99746 -0.000870943  -0.702152 -2.09147 -0.000697851  -0.743872 -2.18525 -0.000535011  -0.785477 -2.27878 -0.000379324  -0.82692 -2.37204 -0.000261545  -0.868091 -2.46496 -0.000191689  0 0 0  0.00410953 -0.0124577 -0.00556397  0.0136484 -0.032538 -0.00928473  0.0243813 -0.0626721 -0.0116513  0.0335596 -0.10236 -0.0129397  0.0396595 -0.15063 -0.0133531  0.0418805 -0.206487 -0.013237  0.0398908 -0.268924 -0.0127969  0.0336341 -0.337014 -0.0121927  0.023226 -0.409914 -0.011508  0.00890589 -0.486884 -0.0107868  -0.00905848 -0.56729 -0.0100648  -0.0303558 -0.650578 -0.0093329  -0.0546796 -0.736268 -0.00861931  -0.0817249 -0.823965 -0.00792146  -0.111191 -0.913331 -0.00724411  -0.142797 -1.00406 -0.00658703  -0.176286 -1.0959 -0.00596786  -0.211395 -1.18863 -0.00538135  -0.247927 -1.28207 -0.00480843  -0.28564 -1.37603 -0.00427341  -0.324347 -1.47037 -0.00376558  -0.363883 -1.56497 -0.00328732  -0.404057 -1.65968 -0.00284338  -0.444748 -1.75445 -0.00243354  -0.485799 -1.84915 -0.00204372  -0.527104 -1.94373 -0.00166678  -0.568571 -2.03814 -0.00133228  -0.610111 -2.13231 -0.00103664  -0.651643 -2.2262 -0.000762463  -0.693113 -2.3198 -0.000529528  -0.734443 -2.41309 -0.000335693  -0.77556 -2.50607 -0.000170708  0 0 0  0.00652844 -0.0184491 -0.0110211  0.0220809 -0.0421128 -0.0182579  0.0404354 -0.0741447 -0.0225832  0.0575464 -0.11517 -0.0243549  0.0712472 -0.164758 -0.0245147  0.0805506 -0.222075 -0.0237989  0.0850779 -0.286148 -0.0226436  0.0847545 -0.356037 -0.021277  0.0797297 -0.430847 -0.0198321  0.0702336 -0.509771 -0.0183733  0.0565842 -0.592145 -0.016943  0.0391197 -0.677337 -0.0155499  0.0181769 -0.76487 -0.0142031  -0.00588882 -0.854296 -0.0128956  -0.0327445 -0.945256 -0.0116701  -0.0620763 -1.03745 -0.0105097  -0.0935895 -1.13063 -0.00940323  -0.126981 -1.22454 -0.00837088  -0.162032 -1.31902 -0.00739336  -0.198477 -1.41388 -0.00648475  -0.236104 -1.50897 -0.00562978  -0.274734 -1.6042 -0.00483608  -0.314145 -1.69945 -0.00411415  -0.354203 -1.79463 -0.00344491  -0.394746 -1.88967 -0.00283074  -0.435629 -1.9845 -0.00228286  -0.476763 -2.07906 -0.00178838  -0.518051 -2.17334 -0.00136995  -0.559391 -2.2673 -0.00097847  -0.600714 -2.36093 -0.000669003  -0.64196 -2.45424 -0.000399113  -0.68305 -2.54727 -0.000155926  0 0 0  0.00881909 -0.0265015 -0.0166993  0.0315524 -0.054705 -0.0287426  0.05854 -0.088728 -0.0342951  0.0838643 -0.131026 -0.0360339  0.105073 -0.181871 -0.0357342  0.121231 -0.240608 -0.0343916  0.132018 -0.306282 -0.032536  0.13741 -0.377908 -0.0304487  0.137548 -0.454534 -0.0282705  0.132705 -0.53531 -0.0261021  0.123208 -0.619515 -0.0239775  0.109452 -0.706483 -0.0219109  0.0917926 -0.795696 -0.0199227  0.0706171 -0.886703 -0.0180247  0.0463026 -0.979117 -0.0162325  0.0192006 -1.07263 -0.0145433  -0.0103786 -1.16699 -0.0129409  -0.0420983 -1.26193 -0.0114474  -0.0757031 -1.3573 -0.0100377  -0.110918 -1.45292 -0.00872874  -0.147488 -1.54864 -0.00751686  -0.18523 -1.64439 -0.00640726  -0.223913 -1.74004 -0.0053699  -0.263363 -1.83553 -0.00443602  -0.303424 -1.93079 -0.00359178  -0.343923 -2.02574 -0.00284004  -0.384753 -2.12038 -0.00218511  -0.425808 -2.21469 -0.00162339  -0.466979 -2.30864 -0.00115848  -0.508183 -2.40225 -0.000760317  -0.549364 -2.49554 -0.000440121  -0.590471 -2.58859 -0.000159979  0 0 0  0.0147264 -0.0378845 -0.0271809  0.0463873 -0.0705335 -0.0402489  0.0815084 -0.106194 -0.0459552  0.114355 -0.149581 -0.0476515  0.142595 -0.20167 -0.0470347  0.165267 -0.26189 -0.0451756  0.182039 -0.329251 -0.0427063  0.192884 -0.402655 -0.0399485  0.197954 -0.481112 -0.03708  0.197544 -0.563707 -0.034205  0.192006 -0.64967 -0.0313809  0.181749 -0.738323 -0.0286388  0.167196 -0.829105 -0.0260074  0.14876 -0.921565 -0.0234714  0.126853 -1.01529 -0.0210898  0.101837 -1.10997 -0.018827  0.07408 -1.20534 -0.0167022  0.0439315 -1.30117 -0.0147016  0.0116897 -1.39728 -0.0128293  -0.0223703 -1.4935 -0.0111001  -0.0579765 -1.58972 -0.00948358  -0.0948992 -1.68584 -0.00800729  -0.132918 -1.78174 -0.00663948  -0.171842 -1.8774 -0.00541186  -0.211493 -1.97273 -0.00429511  -0.251676 -2.06768 -0.00331521  -0.292289 -2.16226 -0.0024755  -0.333195 -2.25648 -0.00178456  -0.374285 -2.35031 -0.00120616  -0.415437 -2.44379 -0.000785828  -0.456603 -2.537 -0.000459909  -0.497755 -2.63006 -0.000172377  0 0 0  -0.0189315 -0.00581518 0.0530317  -0.0452991 -0.010153 0.0746317  -0.072506 -0.0284516 0.0821738  -0.101287 -0.058996 0.0822282  -0.132285 -0.09923 0.0780752  -0.165471 -0.146837 0.0718188  -0.200516 -0.200212 0.0647893  -0.236977 -0.258271 0.0577245  -0.274535 -0.320393 0.051064  -0.312972 -0.386139 0.0449843  -0.352171 -0.455254 0.0394497  -0.39204 -0.527494 0.034497  -0.432495 -0.602585 0.030097  -0.473546 -0.680334 0.0261221  -0.51509 -0.760453 0.022593  -0.55713 -0.842746 0.019393  -0.599558 -0.927002 0.0165083  -0.642302 -1.01298 0.0139492  -0.685296 -1.10047 0.0116413  -0.728476 -1.18927 0.00956774  -0.771773 -1.27922 0.00772977  -0.81508 -1.3701 0.00610042  -0.85838 -1.46179 0.00466418  -0.901582 -1.5541 0.00341606  -0.944646 -1.64691 0.00238299  -0.987497 -1.74002 0.00153232  -1.03013 -1.83338 0.000844002  -1.07249 -1.92685 0.000353336  -1.11458 -2.02031 6.38962e-05  -1.15644 -2.11369 -0.000112295  -1.19804 -2.20691 -0.000155449  -1.23952 -2.29999 -0.000304222  0 0 0  -0.0101712 0.00133485 0.0285482  -0.0268419 -0.00778183 0.044904  -0.0448299 -0.0298717 0.0512502  -0.0647892 -0.0632429 0.0521097  -0.0875112 -0.105812 0.0500484  -0.11319 -0.155694 0.0465064  -0.141597 -0.211493 0.0422919  -0.172328 -0.272164 0.0379295  -0.204997 -0.336987 0.033747  -0.239285 -0.405477 0.029824  -0.274974 -0.477272 0.026228  -0.311884 -0.55206 0.0229554  -0.349867 -0.629551 0.02001  -0.388802 -0.709493 0.0173657  -0.42859 -0.791642 0.0149856  -0.46912 -0.875766 0.01283  -0.510304 -0.961639 0.0109067  -0.552035 -1.04904 0.00917506  -0.5942 -1.13775 0.00762343  -0.636711 -1.22761 0.00624657  -0.679474 -1.31842 0.00501609  -0.722394 -1.41003 0.00394034  -0.765402 -1.5023 0.00298834  -0.808394 -1.59505 0.00218678  -0.851336 -1.68816 0.00151587  -0.894138 -1.78151 0.000969887  -0.93678 -1.87499 0.000572443  -0.979198 -1.96849 0.000267506  -1.02137 -2.06195 6.03199e-05  -1.06331 -2.1553 -4.86374e-05  -1.10497 -2.24847 -0.00013566  -1.14641 -2.34145 -0.000276804  0 0 0  -0.00478622 0.0041866 0.0174546  -0.0129122 -0.00719045 0.0256634  -0.0228165 -0.0316232 0.0296352  -0.0350812 -0.0667831 0.0303793  -0.0503179 -0.111011 0.0292792  -0.0687876 -0.162751 0.0272005  -0.090432 -0.220697 0.0247219  -0.115019 -0.283808 0.02214  -0.142235 -0.351271 0.0196469  -0.17176 -0.422487 0.0172982  -0.203317 -0.496975 0.0151336  -0.236681 -0.574383 0.0131626  -0.271617 -0.654349 0.0113802  -0.307966 -0.736601 0.00980091  -0.345557 -0.820867 0.00836062  -0.384221 -0.906892 0.00705743  -0.423834 -0.994484 0.0059135  -0.464238 -1.0834 0.00488043  -0.505299 -1.17345 0.00396752  -0.546899 -1.26447 0.00315213  -0.588904 -1.35627 0.00245214  -0.631224 -1.44871 0.0018363  -0.673752 -1.54165 0.00131631  -0.716372 -1.63495 0.000874043  -0.75901 -1.7285 0.000522614  -0.801612 -1.82218 0.000254393  -0.844106 -1.91591 5.81741e-05  -0.886426 -2.00959 -6.41346e-05  -0.928549 -2.10317 -0.000119209  -0.970448 -2.19659 -0.000161886  -1.01208 -2.28979 -0.000173569  -1.05345 -2.38273 -0.000313997  0 0 0  -0.000702888 0.0032616 0.00808954  -0.00192298 -0.00954857 0.0114622  -0.00439587 -0.0354755 0.0126789  -0.00921592 -0.0720448 0.0127091  -0.0171283 -0.117737 0.0119693  -0.0284989 -0.171118 0.0108438  -0.0434411 -0.23098 0.00959635  -0.0618398 -0.296252 0.00834823  -0.0834514 -0.366071 0.00717378  -0.107995 -0.439751 0.00606823  -0.135162 -0.516731 0.00510693  -0.164693 -0.596566 0.00422931  -0.196332 -0.678874 0.00345778  -0.229815 -0.763317 0.0027566  -0.264944 -0.849617 0.00214839  -0.301499 -0.937507 0.00163794  -0.339308 -1.02678 0.00118113  -0.378183 -1.1172 0.000784159  -0.417946 -1.20859 0.00045228  -0.458456 -1.30075 0.000185728  -0.499553 -1.39356 -5.57899e-05  -0.541105 -1.48686 -0.000239134  -0.583009 -1.58051 -0.000379324  -0.625139 -1.6744 -0.000468016  -0.667382 -1.76841 -0.000528574  -0.709663 -1.86247 -0.00055337  -0.751915 -1.95649 -0.000528097  -0.794054 -2.05038 -0.000473738  -0.836053 -2.14411 -0.000407457  -0.87785 -2.23763 -0.000340462  -0.919441 -2.33089 -0.000254869  -0.960708 -2.4238 -0.000315189  0 0 0  0.00262764 7.58171e-05 -0.00061655  0.00760004 -0.0146309 -0.00136328  0.0121692 -0.0418983 -0.00227141  0.0146281 -0.0797381 -0.00305033  0.0139464 -0.126776 -0.00363731  0.00956148 -0.181669 -0.00403905  0.00123727 -0.243265 -0.00428653  -0.0110167 -0.310472 -0.00441313  -0.0270283 -0.382409 -0.00447369  -0.0465223 -0.458294 -0.00445557  -0.0692172 -0.537526 -0.00439692  -0.0948033 -0.619585 -0.00429106  -0.12297 -0.704048 -0.00415921  -0.153454 -0.790532 -0.00400591  -0.185967 -0.878733 -0.00383162  -0.220267 -0.968378 -0.00363135  -0.256139 -1.05925 -0.00342774  -0.293338 -1.1511 -0.00322104  -0.331682 -1.24375 -0.00300598  -0.370968 -1.33703 -0.00278091  -0.411049 -1.4308 -0.00255919  -0.451752 -1.52492 -0.00231814  -0.492931 -1.61927 -0.00208426  -0.534466 -1.71373 -0.00185871  -0.576231 -1.80822 -0.00163054  -0.618114 -1.90265 -0.00139189  -0.66006 -1.99696 -0.0011673  -0.701963 -2.09107 -0.000930309  -0.743785 -2.18495 -0.00071764  -0.785453 -2.27856 -0.000515223  -0.826955 -2.37188 -0.000356913  -0.868125 -2.46481 -0.000284672  0 0 0  0.0057079 -0.00481546 -0.0088985  0.0166824 -0.0221717 -0.0136895  0.0282155 -0.0509945 -0.016643  0.0379221 -0.0901121 -0.0181553  0.0444044 -0.13845 -0.0185432  0.0469143 -0.194779 -0.0182686  0.0450936 -0.257972 -0.0175791  0.0388794 -0.32697 -0.0166781  0.0283955 -0.400827 -0.015692  0.0138891 -0.478724 -0.0146639  -0.00433314 -0.56001 -0.0136423  -0.0259552 -0.644092 -0.0126204  -0.050633 -0.730521 -0.0116332  -0.0780438 -0.818889 -0.0106671  -0.107875 -0.908842 -0.00974607  -0.139849 -1.00012 -0.00884867  -0.1737 -1.09245 -0.00800776  -0.20917 -1.18562 -0.00720763  -0.246017 -1.27944 -0.00644088  -0.28403 -1.37376 -0.0057199  -0.323007 -1.46843 -0.00504446  -0.362796 -1.56331 -0.00439334  -0.4032 -1.65829 -0.00380278  -0.444098 -1.75328 -0.0032444  -0.485342 -1.84819 -0.00273252  -0.526805 -1.94295 -0.00222969  -0.568401 -2.03751 -0.00179768  -0.610029 -2.13181 -0.00139713  -0.651639 -2.22583 -0.00102019  -0.693151 -2.31951 -0.000704288  -0.734538 -2.41288 -0.000457048  -0.775641 -2.50585 -0.000233412  0 0 0  0.00882396 -0.0115312 -0.0169246  0.0261313 -0.0322114 -0.0260737  0.0448865 -0.0627883 -0.0313649  0.0619756 -0.103267 -0.0333834  0.0756428 -0.152895 -0.0333853  0.08498 -0.210643 -0.0322962  0.0895292 -0.275405 -0.030669  0.0891976 -0.346097 -0.0287783  0.0840923 -0.421741 -0.0267966  0.0744529 -0.50151 -0.0247989  0.0605875 -0.584672 -0.02284  0.0428606 -0.670635 -0.0209377  0.0216417 -0.758868 -0.0191138  -0.00273883 -0.848946 -0.0173316  -0.0299089 -0.940493 -0.015677  -0.0595616 -1.03324 -0.0140989  -0.0913844 -1.12689 -0.0126166  -0.125098 -1.22125 -0.0112224  -0.160436 -1.31613 -0.00990629  -0.197154 -1.41136 -0.00868535  -0.235044 -1.50678 -0.00753593  -0.273903 -1.60232 -0.00648355  -0.31354 -1.69785 -0.00550842  -0.353779 -1.79329 -0.00461102  -0.394475 -1.88856 -0.00379205  -0.435502 -1.98359 -0.00306368  -0.476741 -2.07834 -0.00239706  -0.518096 -2.17277 -0.00183702  -0.559493 -2.26687 -0.0013175  -0.600836 -2.36059 -0.000901461  -0.64211 -2.45396 -0.000526905  -0.683192 -2.54698 -0.000211  0 0 0  0.0120579 -0.0206552 -0.0250566  0.0367645 -0.0451089 -0.0406291  0.0636021 -0.0773975 -0.0472918  0.0883505 -0.119212 -0.0490589  0.109176 -0.170187 -0.0483575  0.12516 -0.229401 -0.0464034  0.135872 -0.295713 -0.0438411  0.14119 -0.368092 -0.0409987  0.141264 -0.445479 -0.0380399  0.136302 -0.527022 -0.0351105  0.126636 -0.611966 -0.0322275  0.112657 -0.699648 -0.029434  0.0947497 -0.789521 -0.0267439  0.0733004 -0.881145 -0.0241804  0.048713 -0.974132 -0.0217714  0.0213246 -1.06819 -0.0194945  -0.008533 -1.16303 -0.0173357  -0.0405352 -1.25841 -0.0153203  -0.0744133 -1.3542 -0.0134423  -0.109873 -1.45019 -0.0116858  -0.146685 -1.54628 -0.010057  -0.18463 -1.64233 -0.00857115  -0.223521 -1.7383 -0.00718927  -0.263136 -1.83406 -0.00594068  -0.303341 -1.92956 -0.00481319  -0.343941 -2.02475 -0.00380802  -0.384873 -2.11961 -0.0029285  -0.425977 -2.2141 -0.002177  -0.467176 -2.30819 -0.00155187  -0.508382 -2.40188 -0.00101137  -0.549562 -2.49524 -0.000603914  -0.59064 -2.5883 -0.000210285  0 0 0  0.0178884 -0.0334485 -0.0406814  0.0518764 -0.0609124 -0.0569122  0.0867439 -0.0945141 -0.0633759  0.118813 -0.137714 -0.0648909  0.146527 -0.190198 -0.0636778  0.168964 -0.251043 -0.0609939  0.185646 -0.319074 -0.057575  0.196417 -0.39323 -0.053813  0.201423 -0.472406 -0.0499275  0.200907 -0.55571 -0.0460441  0.195207 -0.642373 -0.0422258  0.184764 -0.731673 -0.0385153  0.169984 -0.823082 -0.034961  0.151298 -0.916129 -0.0315382  0.129115 -1.01039 -0.0283163  0.103828 -1.1056 -0.0252614  0.0758131 -1.20143 -0.0224116  0.0454051 -1.29771 -0.0197082  0.0128915 -1.39422 -0.0171947  -0.0214062 -1.49083 -0.0148673  -0.0572374 -1.5874 -0.0126863  -0.0943646 -1.68382 -0.0107081  -0.132593 -1.78005 -0.00887537  -0.171699 -1.87596 -0.00719857  -0.211492 -1.97154 -0.00571728  -0.251795 -2.06673 -0.00440526  -0.292497 -2.16153 -0.00326562  -0.33346 -2.25591 -0.0023303  -0.374563 -2.34987 -0.00155997  -0.415709 -2.44344 -0.00100088  -0.456842 -2.5367 -0.000584602  -0.497972 -2.62975 -0.000207186  
SCALARS smooth_stress float 1
LOOKUP_TABLE default
150.873 293.371 282.161 276.145 267.206 253.083 235.848 217.6 199.033 180.987 163.217 146.173 130.641 116.225 102.479 89.6626 77.7266 66.7024 57.011 48.2211 40.1823 32.8787 26.5212 20.8234 15.757 11.722 8.5061 6.36639 4.30662 2.88178 2.05275 1.50178 0.823082 229.852 455.178 451.474 451.811 444.76 427.646 404.684 377.99 349.23 319.786 289.778 261.242 234.408 209.144 185.744 163.476 142.616 123.65 106.709 91.4199 77.7707 65.2727 53.8495 43.8748 35.5383 28.3179 21.9561 17.4222 13.0332 9.2543 6.46772 4.28315 1.89716 124.414 251.823 268.571 291.042 302.036 302.822 296.228 283.67 267.78 249.484 228.989 209.201 190.156 171.465 154.693 138.572 123.48 109.817 97.4473 86.1297 75.7261 66.6326 57.992 49.9615 43.2563 37.0427 30.7334 25.5637 20.4238 15.3665 10.9963 6.85394 2.5228 63.9665 140.294 178.421 218.054 238.461 246.341 245.078 237.659 226.833 213.567 198.777 183.615 168.811 154.945 142.051 129.546 118.025 107.576 97.7115 88.4192 79.965 72.0411 64.4332 57.2482 50.5146 43.8183 37.0605 31.4285 25.6031 19.6344 14.187 8.87965 3.16851 37.6896 119.767 196.092 242.366 261.429 265.567 260.829 250.442 237.268 222.187 206.899 192.105 177.056 163.127 150.31 137.683 126.102 115.869 105.627 96.1264 88.1397 79.7631 71.0573 63.3067 56.3711 48.9902 41.5465 34.918 28.59 22.123 15.7363 10.1637 3.76162 66.3859 197.643 295.389 339.807 351.612 346.675 333.023 314.243 293.234 271.724 250.649 230.672 211.555 193.402 176.229 160.258 145.942 132.617 120.381 108.697 97.8597 88.0611 77.9265 68.3655 60.1626 52.1398 44.2952 36.5794 29.5002 23.2226 16.4392 10.4971 4.01977 128.355 328.014 432.515 473.966 477.223 461.495 437.139 408.488 377.666 346.747 317.005 288.838 262.622 238.411 215.223 194.138 174.98 156.207 139.813 124.663 110.345 97.4984 85.1328 73.3076 63.2844 53.9462 45.1382 37.008 28.9676 22.2454 15.4405 9.89539 4.01835 206.057 487.355 594.121 628.689 621.311 594.302 558.142 518.391 477.439 436.229 396.475 359.153 324.508 292.519 262.57 234.871 209.24 185.378 163.616 143.697 125.59 108.763 93.185 79.0898 66.7298 55.4048 44.9782 35.8757 27.6797 20.0062 13.2637 9.11306 3.93235 124.929 287.494 340.065 354.842 348.251 331.997 310.883 288.082 264.989 241.902 219.57 198.364 178.807 160.783 143.888 128.096 113.535 100.626 88.5191 77.0925 66.7921 57.365 48.6909 41.1791 34.2765 27.9796 22.3659 17.4497 13.5281 9.5008 6.13171 4.35816 1.89194 272.177 557.952 577.49 578.733 560.755 528.663 489.419 447.474 405.619 366.005 328.18 292.416 260.13 230.897 203.11 177.62 153.957 131.985 112.686 95.0024 78.846 64.3633 51.8463 40.3809 30.4133 22.4854 16.0909 11.6331 8.06946 5.44669 3.84402 3.27867 1.70317 416.451 875.399 938.374 957.949 938.727 893.544 835.795 771.194 704.674 639.907 576.703 516.964 461.774 410.902 363.554 319.494 278.566 241.465 207.911 177.103 149.993 125.446 103.326 83.3365 66.5716 52.9681 41.0252 31.705 23.7142 17.0984 12.0583 8.354 3.61061 227.939 499.643 578.685 627.511 638.112 625.408 599.798 564.904 525.936 485.436 443.708 403.392 364.921 328.111 294.775 263.669 234.826 208.593 184.09 161.738 142.452 124.957 108.384 93.1225 80.0331 68.5343 57.1324 46.9164 37.1329 28.3184 20.3135 12.5144 4.53033 127.075 299.131 391.79 461.691 489.74 492.766 480.604 459.093 433.302 405.129 375.811 346.441 317.786 291.118 266.711 243.462 221.831 201.856 182.758 164.988 149.679 135.004 120.753 107.356 94.3727 82.1762 70.1202 58.7893 47.4002 36.5082 26.2026 16.3392 5.91165 94.566 273.632 414.756 495.118 523.038 521.852 505.325 480.596 452.186 421.799 391.85 362.96 334.615 308.52 284.431 260.848 239.022 219.378 200.105 182.071 166.288 150.587 134.852 120.389 106.371 92.6915 79.3503 66.2668 53.7905 41.3432 29.7188 19.3121 7.09921 151.242 419.906 600.143 683.648 701.257 684.898 652.665 612.293 569.07 525.895 484.266 444.669 407.586 372.638 339.606 309.331 281.611 255.521 231.217 208.637 187.873 168.62 149.338 131.632 115.516 99.8506 84.8422 69.878 56.4524 43.7604 31.0583 20.3416 7.77569 262.177 660.974 866.868 951.997 955.498 919.313 866.354 805.899 743.118 681.378 622.119 566.441 514.809 466.594 420.85 379.611 342.062 305.423 272.222 242.381 214.45 188.957 164.92 142.336 122.494 104.079 86.9621 70.3662 55.1368 42.0841 29.0435 18.8885 7.6399 403.771 959.309 1182.5 1262.1 1247.09 1188.39 1112.07 1029.65 946.294 863.877 784.802 710.644 642.044 578.474 518.529 463.413 413.564 366.23 322.58 283.477 246.586 213.004 183.02 155.327 130.189 107.34 87.2702 68.9986 52.5031 38.0712 25.6621 17.5716 7.39663 241.681 561.544 675.011 712.028 699.412 664.366 620.24 573.354 526.48 480.189 435.725 393.508 354.713 319.01 285.235 253.953 225.705 199.694 175.364 153.012 132.096 113.21 96.4358 81.4232 67.3381 54.5449 43.7222 34.1884 25.9403 18.2457 12.0615 8.61276 3.72197 231.143 512.085 582.622 603.43 590.526 557.377 513.767 465.971 418.768 374.499 332.906 294.417 260.221 229.835 201.119 174.96 151.783 130.313 110.695 92.9954 76.939 62.3786 50.0785 38.8533 28.804 21.0342 15.0264 10.6641 7.50063 5.15189 3.52661 3.29348 1.83325 357.374 820.5 970.476 1018.03 1000.79 947.574 876.599 798.234 719.91 645.744 576.616 512.765 454.536 402.077 353.516 309.14 269.145 232.879 199.516 169.023 141.917 117.446 96.4465 77.1239 60.4159 47.5565 36.5756 27.9138 21.2313 15.6012 10.7421 7.53234 3.33105 203.096 499.301 636.698 690.457 689.306 659.75 616.856 567.675 517.927 469.818 424.708 382.869 343.226 306.969 274.135 243.872 216.368 191.413 168.104 146.497 127.858 111.565 96.5605 82.6313 70.7121 60.2854 50.1736 40.7875 32.5668 25.1762 17.486 10.4769 3.76516 133.216 339.394 452.406 504.93 513.019 496.857 469.46 437.443 404.694 372.9 342.542 313.828 286.697 262.199 239.736 218.124 198.578 180.492 163.161 146.93 132.476 119.799 107.623 95.9347 84.4444 73.6998 63.3551 52.2564 42.0585 32.4813 22.7825 13.9725 4.99299 127.214 336.163 460.51 516.372 525.275 508.508 480.714 449.361 417.048 385.894 356.664 328.428 302.545 279.097 257.411 236.585 216.742 198.583 181.556 165.54 149.769 135.876 123.071 109.975 96.5375 83.9376 72.6353 60.5638 48.448 36.8036 26.7184 17.3428 6.17313 180.023 463.849 622.28 691.59 697.977 671.572 631.422 586.562 541.013 497.471 456.601 417.366 381.455 348.599 318.349 290.447 264.071 238.948 215.472 194.83 174.908 156.73 139.532 122.736 106.984 91.7611 78.0772 64.4523 51.3416 39.1548 28.2033 18.8619 7.22151 271.927 672.586 870.495 954.469 954.62 912.71 853.653 788.763 723.551 661.802 603.278 548.167 497.311 450.21 406.426 366.104 329.336 294 261.013 232.319 205.332 180.126 157.148 135.497 115.681 97.7878 80.9882 65.0154 51.006 38.2504 26.6481 17.9286 7.32325 394.733 939.812 1168.5 1258.84 1247.18 1186.08 1105.65 1018.9 932.914 850.366 771.95 698.502 630.979 567.961 508.555 454.596 405.791 358.857 315.704 277.358 241.11 207.848 178.119 150.604 125.087 102.626 82.7938 65.1214 49.0048 35.0374 24.1453 16.8521 7.13912 231.967 543.42 663.34 708.659 699.235 663.736 618.146 569.369 521.238 474.469 430.152 388.579 350.364 314.724 281.066 250.786 223.358 196.867 172.484 150.79 130.512 111.878 94.8627 79.4417 65.1971 52.5986 41.9784 32.7132 24.1146 16.8926 11.4941 8.17696 3.58988 214.678 488.479 572.503 600.898 594.059 564.912 522.641 474.949 427.037 380.858 337.812 298.303 262.677 230.875 201.216 174.066 150.894 129.832 109.97 92.3156 76.263 61.8152 49.4309 38.3512 28.1762 20.2918 14.6068 10.3989 7.28784 5.09039 3.61538 3.23903 1.80914 335.094 794.064 968.34 1026.5 1017.43 968.509 896.426 815.125 733.543 655.137 582.341 515.749 455.397 401.11 351.063 305.599 265.731 229.398 195.746 165.472 138.104 113.847 93.2106 75.0733 58.5929 44.992 34.2419 26.2504 20.3961 14.9209 10.0991 7.24161 3.23541 198.51 507.077 663.179 717.45 714.236 680.887 631.585 576.129 521.149 468.539 419.721 375.195 334.524 298.238 265.305 234.904 207.35 182.442 159.863 138.969 119.929 104.37 90.5141 77.8157 66.6578 55.9962 46.278 37.7537 30.6694 23.7182 16.3284 10.0079 3.69402 144.24 372.403 492.147 533.775 530.098 503.95 468.449 430.402 393.374 358.679 326.38 296.711 269.825 246.143 224.496 203.505 184.641 167.769 151.922 137.157 122.735 111.116 99.9207 89.0048 78.9088 68.4372 59.039 49.0546 39.4287 30.6693 21.8061 13.4757 4.84128 147.08 377.827 495.85 535.239 530.406 503.628 469.036 433.147 398.374 366.356 336.726 308.87 284.24 262.07 241.362 221.464 202.982 186.485 170.788 156.03 140.789 127.685 115.503 102.955 90.9881 78.7053 67.883 57.3617 45.9217 34.7933 24.9706 16.074 5.79132 195.508 492.723 642.026 698.799 696.256 663.64 619.272 571.619 524.713 480.783 440.141 401.637 366.795 335.465 306.513 279.054 253.077 229.493 207.358 187.67 167.957 149.952 133.589 116.84 101.582 86.8879 73.3177 61.1331 48.656 36.5924 26.2094 17.161 6.48016 279.137 684.267 874.972 952.414 949.859 906.278 845.245 778.858 712.607 650.419 592.414 537.407 486.977 441.437 399.289 359.247 321.917 287.635 255.871 227.643 201.085 175.762 152.715 131.161 111.585 94.1265 77.5271 62.7323 49.1821 35.923 25.3371 17.3479 6.93783 394.826 936.314 1159.11 1247.73 1238.86 1180.76 1100.77 1013.08 926.267 843.473 765.097 691.84 624.396 562.436 504.276 450.933 401.92 355.35 312.52 274.141 239.244 206.058 175.436 147.633 122.417 100.62 80.9054 63.7898 47.9975 33.6041 23.3106 16.8166 7.23044 230.262 537.853 655.119 700.804 694.081 661.154 616.408 567.143 518.73 471.901 427.285 386.162 347.995 312.535 279.177 249.409 222.226 195.617 171.055 149.483 129.976 111.342 93.9938 78.269 64.0937 51.8174 41.2091 31.9812 23.4172 16.2618 11.1736 8.02597 3.55498 208.957 480.888 569.553 599.564 594.119 566.148 524.653 477.51 429.708 383.011 339.931 300.538 264.139 231.292 201.633 174.485 150.632 129.285 109.532 91.5822 75.4908 61.6585 49.3803 37.9999 27.9973 20.1458 14.324 10.076 6.81331 4.60345 3.4397 3.33976 1.82465 327.741 786.446 968.686 1028.99 1021.61 973.974 902.709 821.076 738.59 659.281 585.508 518.002 456.727 401.018 350.415 304.637 264.635 228.417 194.291 163.51 136.346 113.028 92.3928 73.9702 57.7822 44.135 33.3811 25.18 19.1338 13.822 9.50869 7.16079 3.18919 197.919 511.51 673.645 727.644 723.084 688.502 637.923 580.538 523.339 469.608 419.361 373.307 332.493 295.377 261.479 231.056 204.048 179.697 156.822 136.208 117.779 101.968 87.7825 75.4812 64.7645 54.2394 45.1251 36.6589 29.2236 22.7073 15.9969 10.0668 3.78632 148.899 385.075 507.639 546.096 537.637 507.727 469.18 428.727 390.241 354.714 321.455 290.955 264.076 240.169 218.243 197.631 179.228 162.458 147.075 133.481 119.876 107.95 96.1872 85.4542 76.228 66.2239 57.635 48.4147 38.2659 29.9123 21.752 13.7179 5.08737 154.352 392.911 509.714 544.477 533.974 502.946 465.611 427.696 391.956 359.424 329.398 301.764 277.499 255.893 235.355 215.187 197.779 181.82 166.624 152.806 138.108 124.705 111.763 99.5405 88.3788 76.4536 66.0946 56.2487 45.0913 34.4702 24.4963 15.6913 5.84059 201.489 503.932 650.104 702.346 695.917 660.765 614.786 565.82 518.605 474.076 433.159 395.71 361.85 331.128 302.002 274.485 249.138 226.408 205.124 185.468 165.838 147.363 130.823 114.613 99.6437 85.1704 71.56 59.6643 47.6768 35.8357 25.5689 16.8276 6.32611 282.553 690.149 877.692 951.51 946.723 902.401 841.086 774.432 708.895 646.2 587.697 533.137 483.123 438.083 395.911 356.239 319.042 285.275 254.069 225.562 198.761 173.453 150.756 129.662 110.269 92.7739 76.8169 61.7552 47.8541 35.0474 24.8404 17.0671 6.65791 395.643 936.974 1157.98 1244.7 1234.95 1177.16 1097.48 1010.38 924.209 841.349 762.9 689.488 621.492 559.742 502.085 448.664 399.694 353.805 311.094 272.894 237.718 204.26 173.805 146.464 121.524 99.6661 80.7974 63.3026 47.4306 33.6941 23.3291 16.6643 7.08287 229.992 536.969 653.801 698.938 692.22 659.628 614.882 565.832 517.747 471.176 426.634 385.409 346.892 311.413 278.368 248.449 221.195 195.011 170.537 149.195 129.64 110.816 93.5265 77.8175 63.7677 51.5827 41.0128 31.8227 23.5247 16.4358 11.3854 8.20573 3.57608 211.521 484.23 570.429 599.775 593.867 565.19 523.282 475.631 427.56 381.224 338.515 299.151 263.084 230.399 201.457 174.951 150.418 129.005 109.268 91.1168 75.6045 62.1857 49.5791 37.8649 28.0896 20.2818 14.3679 10.0774 6.65446 4.59863 3.21428 3.07822 1.84615 330.938 789.772 967.409 1026.61 1018.68 970.105 899.284 817.649 734.861 656.221 583.448 516.507 455.441 399.735 350.186 305.008 264.215 228.258 194.714 164.144 137.477 114.398 92.8701 73.4648 57.5965 44.4633 33.8557 25.6607 19.0833 13.9638 9.56717 6.98207 3.3111 198.092 509.149 667.392 721.01 717.727 683.911 634.775 578.369 521.725 468.833 419.423 374.453 333.481 296.067 262.463 231.954 205.199 181.285 158.977 138.702 120.004 103.483 88.6204 75.8956 65.1958 55.0717 45.8914 37.4097 29.8108 23.2042 16.254 10.1436 3.9087 146.658 378.717 499.38 539.066 533.258 505.702 468.712 429.359 391.795 356.561 323.85 294.098 267.441 243.524 220.855 200.023 181.97 165.066 149.629 135.684 121.715 108.88 97.3245 86.9622 77.2899 67.4804 58.2193 48.6925 38.9529 30.6427 21.9905 13.532 4.9483 150.915 385.789 502.953 539.879 531.877 503.196 467.499 430.485 395.022 362.421 333.144 305.434 280.85 259.346 238.055 217.917 200.54 183.708 168.229 154.209 139.447 125.987 113.306 100.991 89.1305 77.4788 67.3084 56.8333 45.5202 35.1693 24.9803 15.7791 5.84694 198.836 499.053 646.37 700.261 695.843 662.166 616.844 568.443 521.234 477.173 436.736 398.692 363.93 333.297 303.915 276.122 251.319 227.787 205.86 186.302 167.094 149.039 132.419 116.031 100.507 86.1576 73.4183 60.5428 47.7127 36.155 25.7755 17.3601 6.76867 281.001 687.691 876.486 951.687 948.009 903.9 842.365 775.783 710.625 648.573 589.91 535.462 485.382 439.708 396.815 356.692 320.096 286.638 255.079 226.007 199.216 173.822 151.492 130.748 111.226 93.7103 77.5105 61.6281 47.8772 35.6513 24.9307 17.256 6.93557 395.347 937.585 1159.94 1247.63 1238.18 1179.2 1098.69 1011.29 925.24 842.654 763.918 691.124 623.784 560.619 502.569 449.247 399.569 354.762 312.783 273.401 237.253 203.836 174.408 147.003 121.763 100.656 81.0757 62.8125 47.7623 34.4045 23.3939 16.3412 6.89387 230.251 538.269 655.835 701.212 694.485 660.979 615.608 566.472 518.197 471.557 426.961 385.921 347.799 311.656 278.735 248.886 220.819 195.237 171.431 149.496 129.268 110.676 94.0233 77.9624 63.5141 52.2151 41.4908 31.76 23.6485 16.5426 11.3476 7.95842 3.38458 223.643 501.299 577.775 601.926 591.262 559.013 515.909 468.388 420.693 375.451 333.837 295.465 261.024 229.538 200.974 175.323 151.178 129.567 110.212 92.3107 76.2784 62.6163 50.1213 38.5668 28.8459 20.9211 14.5556 10.2514 7.01711 4.90452 3.78946 3.27742 1.70181 346.843 808.092 968.146 1019.46 1005.33 952.953 881.696 802.577 722.806 646.999 577.054 512.776 454.361 400.623 351.87 307.759 266.974 230.592 197.959 167.517 140.119 116.542 94.7377 75.8434 60.2666 46.6694 35.7062 27.188 20.1443 14.8511 10.6031 7.47555 3.30287 200.461 501.872 646.807 699.493 697.241 665.955 620.659 569.217 517.191 467.456 421.516 379.133 339.161 302.855 269.795 239.168 212.064 187.655 165.199 144.69 125.675 108.698 93.3383 80.4437 69.2693 58.4604 48.9856 40.2109 32.2447 24.7721 17.1345 10.7466 4.08347 137.703 352.919 468.513 515.954 518.747 498.582 467.976 433.365 399.201 366.073 335.294 306.564 279.68 255.702 232.497 211.067 192.537 174.956 158.422 143.445 129.066 115.545 103.719 92.7922 81.7095 71.0612 61.1867 51.696 42.1552 32.6326 22.8953 14.0799 5.13084 135.917 354.032 474.878 523.536 526.48 505.804 475.496 442.049 409.057 377.447 348.371 320.717 295.432 272.973 250.513 229.641 211.084 193.091 176.447 160.659 145.852 132.238 118.97 106.123 93.3912 81.5341 70.4623 59.522 47.8769 36.65 26.0323 16.2554 6.01086 187.067 477.015 631.013 694.368 696.855 667.868 625.664 579.383 533.515 490.189 449.962 411.335 375.788 343.855 313.245 285.051 259.687 235.342 212.283 191.202 172.001 154.002 136.633 120.126 104.223 89.8841 76.4781 62.9732 49.8934 37.8769 26.8673 17.5892 6.88465 275.243 678.999 873.763 953.787 952.415 909.433 848.793 783.103 718.487 656.837 598.549 543.71 493.235 446.468 402.698 362.624 325.597 291.805 259.664 229.763 203.348 178.054 154.885 133.667 114.062 96.4768 79.3973 63.3796 50.2791 37.5341 25.4178 17.3242 7.13247 395.12 941.072 1168.25 1256.7 1245.72 1184.98 1103.55 1015.83 929.962 847.379 768.992 696.333 628.844 565.536 506.852 452.86 402.795 357.506 315.447 275.573 239.265 206.607 176.97 148.577 123.882 102.953 82.1574 63.7566 49.0369 34.9842 23.1152 16.1701 6.8567 231.468 542.896 662.701 707.745 699.255 664.175 618.034 568.401 520.056 473.449 429.031 387.983 349.821 313.883 280.484 249.982 222.069 196.278 172.589 150.315 129.297 111.09 94.7445 78.5377 64.5121 53.1754 42.1276 32.25 23.8118 16.4842 11.1069 7.71108 3.24646 251.525 532.692 576.31 587.821 570.874 536.523 494.834 451.023 407.426 365.894 327.39 291.884 259.508 229.385 201.257 175.946 152.627 130.863 111.587 93.7571 77.2049 63.1 51.2075 40.0872 29.9965 22.0679 15.5553 10.9737 7.51838 5.13614 4.29464 3.52475 1.56243 385.356 841.855 945.878 979.637 960.153 909.481 844.781 775.283 705.151 636.93 572.353 512.561 457.661 406.225 358.011 314.093 274.052 237.237 203.928 173.13 145.158 121.193 100.136 81.4055 64.887 50.397 38.7254 29.6032 22.3293 16.3858 11.7119 7.86144 3.0085 212.371 492.449 600.287 651.539 656.505 635.941 602.143 562.092 519.682 476.372 433.812 393.283 355.439 319.874 286.416 254.88 226.671 201.435 177.546 155.783 136.242 118.998 102.891 89.0122 76.8018 64.4569 53.9439 44.3786 35.6545 27.0848 18.5635 11.3107 3.91868 124.73 310.222 415.968 478.784 498.033 492.721 474.336 449.116 420.929 391.135 361.34 332.392 305.258 280.083 255.821 232.812 212.137 192.891 174.551 158.287 142.976 127.992 114.181 101.855 90.1793 78.5114 67.4706 56.9625 45.9756 34.9884 24.8336 15.5084 5.54283 105.112 295.525 431.885 502.688 523.119 515.903 494.978 467.709 438.271 407.474 377.637 349.302 322.296 297.39 273.478 250.858 230.317 210.515 192.158 175.256 159.214 143.601 128.715 115.073 101.784 89.0157 76.5963 64.82 51.9085 39.4785 28.4443 17.8451 6.54092 162.119 436.834 609.393 687.859 700.72 679.591 643.475 601.391 557.909 514.481 473.431 434.264 397.268 362.855 330.83 301.638 274.719 248.869 225.332 203.227 182.113 163.112 144.918 128.112 111.849 96.1391 81.5306 67.8161 54.1875 41.2918 29.302 18.6664 7.05181 264.813 665.552 871.022 955.618 956.919 917.013 860.457 798.332 735.047 673.059 614.36 558.664 507.132 459.191 414.15 373.811 336.201 300.632 268.234 238.213 211.013 185.861 161.741 139.984 120.096 101.336 84.1673 68.1574 54.0461 40.43 27.3235 18.0798 7.21042 398.002 951.313 1181.96 1266.01 1250.08 1188.79 1109.73 1024.71 940.306 858.003 779.469 705.562 637.174 573.48 513.215 458.887 409.317 362.411 319.516 280.133 244.6 211.918 181.012 152.987 128.399 105.974 85.5563 67.5943 51.5619 36.7288 24.293 16.9398 7.24458 236.385 554.006 673.691 714.625 701.574 665.203 619.91 571.341 523.869 477.749 433.394 391.646 352.986 316.803 282.576 251.936 224.409 197.962 173.801 151.768 131.173 112.655 95.6922 80.2046 66.6355 54.1452 43.02 33.6462 24.9269 17.2653 11.5147 8.21574 3.61529 135.285 275.71 284.62 286.163 276.442 259.667 239.999 219.608 199.441 180.034 162.006 145.161 129.376 114.664 100.834 88.152 76.5765 65.8185 56.061 47.0826 39.0279 31.932 25.9626 20.4409 15.2714 11.3039 8.20888 5.72519 3.89248 2.73021 2.1598 1.70822 0.738103 206.03 430.874 461.219 472.405 462.496 439.493 410.599 379.373 347.692 316.387 285.889 256.996 230.242 205.11 181.269 159.182 139.194 120.82 103.825 88.3784 74.5789 62.5954 52.116 42.4678 33.6451 26.1415 20.2293 15.5152 11.9802 8.84022 6.1148 3.9873 1.44534 111.023 243.811 283.821 308.875 314.914 309.117 296.635 280.392 262.257 242.816 222.09 201.811 183.328 165.624 148.857 132.739 118.086 105.174 92.9026 81.6663 71.5887 62.9432 54.7364 47.3283 40.6862 34.0312 28.2281 23.2374 18.8086 14.3036 9.84569 5.83241 1.89397 58.9182 142.79 192.306 228.282 243.266 245.631 240.407 230.775 218.431 204.251 189.314 174.681 161.046 147.853 135.355 123.434 112.209 102.101 92.4901 83.8402 75.722 67.6561 60.2162 53.7486 47.8542 41.802 35.6118 29.7032 23.6748 18.148 13.2161 8.20526 2.86435 42.5009 129.9 204.25 246.172 261.282 261.754 254.189 242.389 228.524 213.098 198.025 183.552 169.469 156.237 143.737 131.991 121.154 110.723 101.025 92.4349 83.868 75.2775 67.5136 60.4623 53.5951 46.9757 40.3994 34.0294 27.1346 20.7376 15.1306 9.55714 3.49219 72.7396 206.077 299.146 342.456 351.716 343.415 327.36 307.739 286.559 264.871 244.204 224.179 204.93 187.272 171.038 155.904 141.887 128.355 116.506 105.64 94.4308 84.5662 75.3497 66.7751 58.4407 50.0799 42.6982 35.7008 28.5967 21.7096 15.2665 9.7533 3.62429 129.051 328.735 434.884 477.984 479.303 460.465 433.75 404.085 372.798 341.844 312.275 284.122 258.009 233.757 210.846 190.257 171.322 153.04 136.847 121.937 107.976 95.2698 82.9458 72.0932 62.1041 52.2669 43.8263 35.7259 28.1353 21.011 14.2882 9.35689 3.59175 200.394 479.307 594.654 634.535 625.054 594.629 556.427 515.212 473.584 432.683 392.968 355.694 321.575 289.25 258.528 231.49 206.85 183.207 161.537 141.629 124.001 107.338 91.7969 78.2164 65.5447 53.9406 44.0808 35.1389 26.6729 19.0867 12.8062 8.86975 3.75449 120.223 280.892 339.75 358.485 350.591 332.166 310.221 286.625 263.246 240.4 217.979 196.903 177.61 159.202 141.917 126.87 113.002 99.7276 87.5216 76.3665 66.2722 56.7331 48.3204 40.8831 33.828 27.3863 21.9575 17.3402 12.9538 9.00209 5.97934 4.36095 1.97245 
CELL_DATA 2048
SCALARS stress float 1
LOOKUP_TABLE default
150.873 142.498 139.663 136.481 130.724 122.359 113.489 104.111 94.9221 86.0647 77.1521 69.0211 61.6198 54.6057 47.8735 41.7891 35.9375 30.7648 26.2461 21.9749 18.2074 14.6714 11.8498 8.97356 6.78341 4.93859 3.5675 2.79889 1.50773 1.37405 0.678697 0.823082 78.9791 82.8275 86.4849 89.181 88.3733 86.1894 82.6464 77.7439 72.4531 66.3461 60.2154 54.8531 48.9136 44.0054 39.2596 34.5536 30.3358 26.6114 23.0862 20.1126 17.4758 14.9182 12.41 10.6413 9.13999 7.45589 5.99409 5.06177 3.66484 2.70768 1.70729 1.07408 45.4354 44.5814 54.6773 60.6984 63.7829 64.4758 62.9162 60.3639 57.2189 53.4653 48.9624 45.1706 41.219 37.3266 34.1016 30.6568 27.9335 24.936 22.8136 20.1173 18.0204 16.2181 14.4456 12.4645 11.0105 9.43636 7.84704 6.66076 5.03646 3.95749 2.62385 1.44872 18.5311 31.7461 47.416 55.2627 58.7172 59.3654 58.3207 56.0584 53.1922 49.6905 46.6588 42.8237 39.5977 36.8013 33.8215 30.9662 28.4688 26.2381 23.7238 21.7645 20.0628 17.7397 16.0298 14.3084 12.7312 10.6402 9.13692 7.78373 6.12214 4.51835 3.0873 1.71978 19.1585 50.3312 66.5985 73.089 74.36 73.1246 70.018 66.0452 61.9728 57.3312 53.2184 49.4044 45.2304 41.4975 38.1898 34.7052 31.9614 29.2003 26.4649 24.1732 22.1391 19.8215 17.4663 15.5022 13.8293 11.7895 9.97991 8.01746 6.66665 4.8159 3.31475 2.04183 47.2275 80.9256 97.5334 102.586 101.577 97.6134 92.2673 85.9121 79.304 73.1161 66.9832 61.066 55.8544 50.8195 45.7217 41.641 37.634 33.8216 30.8942 27.1645 24.3828 21.7177 18.921 16.476 14.3552 12.1658 10.36 8.222 6.59409 5.14597 3.16255 1.97794 81.1279 118.733 135.323 138.523 134.537 127.769 119.49 110.818 101.632 92.6954 84.21 76.5792 69.1221 62.6145 56.0677 50.7072 44.9977 39.7541 35.3429 31.2615 27.5364 23.8615 20.6326 17.278 15.1753 12.25 10.3624 8.06362 6.08793 4.41745 2.71449 2.04041 124.929 162.565 177.5 177.342 170.908 161.089 149.795 138.288 126.701 115.201 104.368 93.9953 84.8113 75.9715 67.9161 60.1803 53.3549 47.2715 41.2477 35.8448 30.9473 26.4176 22.2733 18.9059 15.3706 12.609 9.7569 7.69282 5.83532 3.66549 2.46622 1.89194 121.304 143.277 152.052 150.536 143.013 132.567 121.004 108.871 97.7157 87.3031 77.6606 68.5822 60.9072 53.7643 46.8662 41.0908 35.1392 30.1434 25.5312 21.2501 17.4137 14.0709 11.2542 8.30335 6.35298 4.41045 3.17434 2.09241 1.67043 0.894474 0.896797 0.880089 65.2954 90.3452 101.226 102.325 98.0928 92.225 85.316 78.0133 70.8444 64.2581 57.703 51.776 46.1007 40.9858 36.1935 31.8673 27.853 24.6801 20.848 18.0536 15.5052 13.1834 10.968 8.93621 7.44072 6.44606 5.03828 3.97769 2.94047 2.33869 1.46061 0.833358 38.229 53.9497 64.5931 68.3256 67.3332 64.9351 61.094 56.8104 52.4885 48.362 44.3952 40.3158 36.5725 32.9871 29.9155 27.1215 24.504 21.7392 19.375 17.3312 15.8358 13.8002 12.4402 10.8166 9.58327 8.02155 6.89311 5.44363 4.34728 3.32553 2.19235 1.17417 24.8799 41.7783 53.0481 57.6695 57.9507 56.2052 53.2921 50.237 46.9328 43.7792 40.4971 37.6171 34.4693 32.1447 29.6129 27.2662 24.9134 23.1233 20.8089 19.0535 17.4933 15.8334 14.2457 12.6051 10.8532 9.89991 8.24514 6.77895 5.22726 3.97372 2.52406 1.56898 31.9965 55.2108 68.6266 73.4072 72.5816 69.5471 65.4523 61.172 56.5761 52.3239 48.3505 44.3899 41.0829 37.6965 34.6667 31.6192 29.1214 26.3516 24.1938 21.8888 19.7124 17.7843 15.9312 14.3006 12.2411 10.707 8.95175 7.37298 5.82129 4.19793 3.28677 1.76861 52.8594 82.1965 98.7203 103.088 100.569 95.5252 89.1171 82.3094 75.7787 69.4919 63.4512 57.8055 52.7521 47.705 43.3092 39.4787 35.4504 31.9806 28.31 25.5475 22.8649 20.1975 17.4988 15.5356 13.2764 11.4862 9.40199 7.57195 6.18597 4.33261 2.80181 1.98731 80.962 116.942 136.494 139.73 134.889 126.835 117.737 108.247 99.1168 90.2437 81.9278 74.4186 67.2108 60.5156 54.0964 48.589 43.5644 38.2199 33.8985 29.9618 25.7303 22.6658 19.4248 16.5687 13.8287 11.5415 9.39426 6.99001 5.42124 3.89888 2.56972 1.63425 116.752 157.297 177.649 179.537 171.624 160.745 148.612 136.66 124.832 113.455 102.7 92.4443 83.4624 74.7653 66.5822 59.2743 52.8957 46.1714 40.6737 35.2462 30.0578 25.7872 21.9577 18.2864 14.7752 11.7902 9.56614 7.17251 5.2397 3.50524 2.42456 1.83003 109.839 137.665 149.628 151.214 145.763 136.034 124.162 111.935 100.247 89.2337 78.7091 69.4646 61.2673 53.8962 46.5922 40.4111 35.1415 29.8888 25.1313 21.0827 17.1926 13.7015 11.0519 8.24383 5.90383 4.36689 3.07468 2.3227 1.41508 1.1719 0.563436 0.95316 60.9357 91.8386 104.444 106.603 103.244 96.6352 88.656 80.2769 72.0079 64.1349 57.6134 51.2557 45.1822 39.9732 35.2444 30.8749 26.7678 23.2654 20.0273 17.0992 14.3199 12.0588 10.1578 8.20862 7.02631 5.6093 4.45557 3.77814 3.03438 2.13577 1.28045 0.664445 38.6355 60.0724 70.2291 72.7109 70.6712 66.6142 61.3802 56.1283 51.3574 46.3646 41.8764 37.9335 34.0898 31.0781 27.7571 24.8978 22.4816 20.1216 18.0478 15.7152 13.9976 12.8644 11.0876 10.0162 8.68414 7.474 6.23569 4.9654 4.07985 2.97429 1.77836 1.09319 31.4715 50.3782 58.3575 59.9958 58.3622 54.7848 51.154 47.347 43.3925 40.2232 37.0438 34.1488 31.5507 29.3074 26.9336 24.6196 22.7738 20.8347 19.1102 17.4881 15.5609 14.4137 12.9376 11.7856 10.1003 9.08342 7.50231 6.19215 5.02397 3.52944 2.48474 1.15666 38.8661 61.5812 71.5297 73.7378 71.5699 67.5069 62.7712 57.9352 53.4554 49.2113 45.2348 41.1465 38.1403 34.7056 32.3436 29.5234 26.9046 24.5602 22.5729 20.4238 18.1486 16.9292 14.9961 13.1732 11.4783 9.57431 8.6714 6.84909 5.18233 3.84769 2.87407 1.67888 56.3014 84.8371 99.5775 102.903 100.121 94.1517 87.3506 80.4539 73.3325 67.3015 61.2355 55.7523 50.3859 46.1305 41.7924 37.714 34.2592 30.3201 27.1826 24.7108 21.6106 19.4828 16.7123 14.5883 12.3907 10.607 8.67753 6.95566 5.40229 4.18471 2.67773 1.78671 81.8039 116.684 135.044 138.914 134.408 126.211 116.725 106.823 97.4892 89.0477 80.579 72.9974 65.9886 59.5219 53.3554 47.769 42.5109 37.6944 33.4068 29.3011 25.6053 21.9686 19.1972 15.9716 13.5209 11.1365 8.74331 7.28067 5.19824 3.62646 2.55614 1.91499 115.215 154.155 174.238 177.234 170.84 160.528 148.262 135.836 123.911 112.271 101.727 91.708 82.7492 73.7469 65.9717 58.9579 52.2297 45.5705 40.0687 34.801 30.4066 25.6266 21.4913 17.7064 14.4292 11.6041 9.01795 6.95658 4.74584 3.40181 2.16251 1.75985 104.839 136.136 149.073 150.983 146.099 137.016 125.429 113.424 101.432 89.9456 79.9235 70.2058 61.7393 53.9719 46.7552 40.3077 35.0336 29.7681 25.1815 20.92 17.0678 13.8534 10.8241 8.23138 5.79715 4.2239 2.94131 2.06024 1.48981 1.01359 0.866451 0.855983 59.4807 93.3299 106.225 108.331 105.189 98.5287 89.966 81.2767 72.945 65.1919 57.5895 50.9874 45.2952 39.785 34.8448 30.5691 26.6252 22.9079 19.5761 16.4534 13.9687 11.6842 9.87893 8.4767 6.70512 5.3595 4.21077 3.40702 2.8887 1.77163 1.29587 0.761822 39.4585 63.3258 73.7138 75.194 72.2927 67.7114 62.0933 56.3516 50.8054 45.7323 41.2185 36.7209 33.0597 29.7753 26.8466 23.8696 21.2645 19.0081 16.9092 15.1411 13.2334 12.2427 10.5397 9.45014 8.09057 7.04721 5.88599 4.81516 3.70075 3.13283 1.95925 1.17457 34.6742 54.3869 61.6835 61.8902 58.9813 54.5324 50.1784 45.7687 42.2233 38.58 35.3409 32.4286 29.8929 27.3894 25.4086 23.1716 21.5628 19.7225 18.1679 16.5777 15.021 13.7822 12.0527 11.1351 9.64669 8.31084 7.49955 5.95831 4.69307 3.53512 2.41206 1.41686 42.0685 64.4008 73.5321 74.5121 71.3564 66.5346 61.5738 56.4192 51.8327 47.4374 43.655 39.8712 37.0614 34.0227 31.251 28.2124 26.2134 23.9129 21.9064 19.7831 17.7857 16.0434 14.3477 12.5264 11.1423 9.36909 7.87205 6.81682 5.206 3.77569 2.51176 1.53892 58.2721 86.3955 100.172 102.834 99.2215 93.1786 86.2044 78.9103 72.3736 65.8389 60.2267 54.5153 49.9222 45.0963 41.1704 37.0465 33.2033 30.1189 26.7837 24.3072 21.1876 18.7644 16.3135 14.1828 12.0998 10.2265 8.31987 6.97067 5.27317 3.7205 2.61726 1.47566 82.76 117.213 135.049 137.92 133.537 125.45 115.974 106.417 96.8077 88.2279 79.9568 72.1442 65.2713 59.1198 53.1027 47.2969 42.1175 37.4103 32.9537 28.9969 25.3651 21.7777 18.4986 15.6965 13.1342 11.011 8.80548 6.97913 5.12224 3.39537 2.55899 1.76048 115.047 153.435 173.291 176.041 169.967 159.82 147.798 135.247 123.737 111.982 101.306 91.4219 82.1157 73.9227 65.5354 58.9439 52.0942 45.7225 39.6929 34.9201 29.8479 25.4606 21.4153 17.656 14.3022 11.4819 9.10519 6.90146 4.81332 3.30081 2.30848 1.79512 104.118 135.795 148.549 150.959 146.078 136.955 125.253 113.404 101.448 90.1857 79.8761 70.5329 61.6606 53.92 46.9859 40.4359 34.8544 29.6285 24.9539 20.5267 16.9764 13.7609 10.9418 8.00256 5.96624 4.15848 3.00026 2.07421 1.18905 0.910995 0.648661 0.968665 59.3036 93.4444 106.133 108.737 105.236 98.8726 90.689 81.6343 73.0265 65.1061 57.6894 51.1976 45.1078 39.538 34.6143 30.1239 26.6849 22.914 19.3607 16.5377 13.8958 11.8211 9.62825 7.98643 6.61657 5.30807 4.17876 3.30744 2.71737 1.84087 1.16062 0.602723 39.6757 63.4913 73.9822 75.3285 72.7755 67.8959 62.1665 56.3606 50.9385 45.8622 40.9715 36.9325 33.1918 29.6239 26.4509 23.7371 21.1734 19.119 17.0267 15.2034 13.345 11.7774 10.2102 9.31085 8.12814 6.98422 6.15062 4.70312 3.68406 2.97107 1.86472 1.24721 35.091 54.9713 62.0844 62.2193 58.9555 54.582 50.02 45.7878 42.0045 38.5674 35.1822 32.1601 29.6899 27.546 25.2027 22.9434 21.5056 19.1024 18.019 16.436 14.9183 13.6302 11.9521 10.8034 9.66308 8.35311 7.40344 5.99851 4.71291 3.48245 2.39453 1.24873 42.5183 64.8006 73.854 74.7016 71.3576 66.6458 61.5439 56.4038 51.516 47.2629 43.3722 39.7536 36.6411 33.6491 30.8857 28.1115 26.0583 23.7424 22.0504 19.8658 17.7202 15.8044 14.1501 12.573 10.8888 9.07969 8.20686 6.49318 5.21255 3.85237 2.53237 1.63608 58.63 86.8463 100.103 102.636 99.297 93.1734 85.9319 78.8329 72.3168 65.4978 59.8682 54.4478 49.6378 45.0975 40.8291 36.9787 33.3142 29.8443 26.765 24.0063 21.1826 18.8753 16.5243 13.9953 12.2352 10.129 8.35704 6.6278 5.07659 3.71881 2.8401 1.67546 82.891 117.141 134.772 138.023 133.253 125.291 115.882 106.279 96.9581 88.1789 79.902 72.0761 65.1084 58.8295 52.6654 47.1493 41.9358 37.3305 32.8625 28.8863 24.8295 21.4713 18.5311 15.9204 13.0051 10.9331 9.03499 6.66026 5.14426 3.59649 2.39284 1.74631 114.945 153.542 173.534 176.073 170.139 159.701 147.562 135.224 123.539 111.918 101.427 91.2539 82.1004 73.2743 65.6354 58.3346 51.8219 45.372 39.7498 34.8321 30.0397 25.4682 21.1823 17.5638 14.2457 11.5529 8.87286 6.94318 4.8667 3.45492 2.32117 1.78096 107.403 136.914 149.171 151.096 145.734 136.423 124.651 112.322 100.386 89.2046 79.2487 69.4934 61.3975 53.4205 47.131 40.3979 34.7296 29.7924 24.8935 20.7426 17.3588 14.0896 10.7868 8.13375 5.98701 4.1701 3.03905 1.96384 1.42737 1.07121 0.58341 0.877483 60.1142 92.6801 104.722 107.241 103.602 97.2051 89.2349 80.4598 72.1798 64.6846 57.453 51.016 45.0354 39.6548 34.9219 30.3969 26.5913 23.0624 20.1082 17.0211 14.4179 12.0775 9.76404 8.22113 6.68284 5.574 4.427 3.67018 2.73382 2.07312 1.27828 0.862233 38.9984 61.4409 71.4987 73.3668 71.44 66.8842 61.8269 55.9967 51.129 45.9066 41.7491 37.4433 33.5564 30.3587 27.3005 24.4081 22.0838 19.6561 17.7295 15.7151 13.8676 12.2802 11.0616 9.7131 8.53675 7.2411 6.02765 4.94494 4.04987 3.13403 1.93132 1.19653 32.8931 52.155 59.756 60.8296 58.3433 54.8252 50.5111 46.6891 42.8885 39.2643 36.3472 33.312 31.1555 28.4019 25.9699 24.0104 22.1076 20.3181 18.6577 16.8962 15.3336 13.7278 12.6849 11.2261 9.9085 8.66547 7.39371 6.07048 4.78904 3.81925 2.39313 1.25582 40.4126 62.9468 72.3851 74.049 71.4212 67.065 62.3055 57.2234 52.5087 48.409 44.7389 40.5683 37.5697 34.6923 31.7069 29.0865 26.7162 24.1574 22.181 20.1025 18.1742 16.6787 14.6778 12.9235 11.1442 9.77585 8.43029 6.83688 5.40663 3.8941 2.6121 1.70631 57.2752 85.6231 99.8119 102.72 99.6604 93.5457 86.6326 79.5692 72.8626 66.799 60.7882 55.1549 50.1573 45.852 41.202 37.3212 33.7319 30.2221 26.897 24.4341 21.608 18.9955 16.7127 14.4748 12.2721 10.6327 8.80685 6.78388 5.27518 3.7188 2.60681 1.75083 82.2052 117.078 135.111 138.511 133.908 125.771 116.137 106.518 97.2877 88.6724 80.2036 73.0208 65.7793 59.2461 53.0932 47.4536 42.2108 38.0482 33.11 29.0459 25.223 21.6363 18.7456 15.844 13.4792 11.0239 8.59295 6.7643 5.54494 3.57618 2.4807 1.76298 115.306 154.476 174.284 177.321 170.951 160.188 148.157 135.528 123.906 112.194 101.422 91.8183 82.6265 73.6547 66.1701 58.7458 51.9168 46.1261 40.1836 34.7305 29.6658 25.5022 21.8706 17.3457 14.3588 12.0576 9.00742 6.93652 4.90213 3.31887 2.25266 1.60363 116.24 140.742 150.947 150.711 143.721 133.134 121.701 109.714 98.2718 87.5887 77.7948 68.928 61.2047 53.5157 46.9072 40.8866 35.1644 29.8806 25.6452 21.0293 17.1477 14.0203 11.2246 8.42167 6.30344 4.46051 2.88594 2.3626 1.2633 1.14263 0.992205 0.824323 63.0859 90.9126 102.057 103.518 99.7076 93.4254 85.9214 78.5735 70.8999 63.7832 57.2967 51.5456 45.7401 40.6544 35.6643 31.4531 27.3542 24.0174 20.559 17.5181 14.8839 12.5459 10.229 9.0624 7.45434 6.03714 5.11244 3.72697 2.99617 2.14346 1.31878 0.738834 38.2626 56.3768 67.1198 69.9706 68.3955 65.2956 60.8652 56.3389 51.6132 47.2596 43.3826 39.2465 35.578 32.2769 28.9635 26.0594 23.7177 21.1723 18.8941 17.1451 15.106 13.5186 11.8614 10.531 9.06776 7.86646 6.69984 5.60194 4.52081 3.12077 2.13477 1.28587 27.5492 45.2427 54.9231 58.489 57.9118 55.4867 52.2812 48.8558 45.6901 42.3213 39.063 36.0198 33.3681 31.0068 28.219 26.1364 24.0138 21.8868 20.1073 18.2999 16.7029 15.0079 13.5765 12.1376 10.5887 9.18642 8.10609 6.8514 5.32668 3.87216 2.48985 1.39262 35.062 57.771 69.6986 73.4053 72.0306 68.7208 64.3003 59.8827 55.3188 51.046 47.1814 43.4867 39.9523 36.826 33.6899 30.8216 28.1915 25.7001 23.4385 20.9756 19.3674 17.2452 15.3714 13.525 11.9376 10.3273 8.57717 7.25594 5.33987 4.20225 2.74942 1.65611 54.3168 83.6071 99.1699 103.129 100.44 94.9848 88.109 81.3601 74.7892 68.4557 62.5442 56.8727 52.0264 46.7786 42.4974 38.7255 35.0929 31.5302 28.1572 25.0162 22.3226 19.6104 17.3414 15.0993 12.846 10.9484 8.97958 7.30259 5.69241 4.34767 2.73617 1.77141 81.4459 117.447 135.915 139.421 134.626 126.497 117.116 107.662 98.4382 89.5322 81.5536 73.5716 66.6518 59.9764 54.0521 48.2788 42.7818 38.1874 33.5121 29.5901 26.1082 22.5498 19.2934 16.1562 13.8906 11.3839 9.0291 7.12029 5.79552 3.58342 2.36802 1.84726 116.162 156.951 176.99 179.15 171.833 161.204 148.485 136.231 124.391 112.958 102.457 92.2862 83.0898 74.5116 66.1478 58.9184 52.4885 45.7463 40.5331 34.868 30.033 25.8888 21.4829 17.8385 14.969 11.7899 9.27262 7.03341 4.93977 3.32341 2.21196 1.64283 135.285 140.425 144.196 141.968 134.474 125.193 114.806 104.802 94.6383 85.3956 76.6107 68.55 60.8256 53.8388 46.9949 41.1571 35.4194 30.3991 25.6619 21.4207 17.6072 14.3248 11.6378 8.80317 6.46827 4.83565 3.37323 2.35196 1.54053 1.18968 0.970118 0.738103 70.7449 84.4196 92.179 94.0628 91.9911 87.8347 82.7661 76.9991 71.2524 65.1007 58.7826 53.0524 47.8141 42.6312 37.8042 33.2257 29.3915 25.6101 22.1542 19.1416 16.4095 14.2539 11.8995 10.1274 8.24631 6.5913 5.42914 4.36091 3.72686 2.38315 1.57184 0.707237 40.2777 48.3691 58.8535 63.7795 65.0808 64.2102 61.824 58.8034 55.2022 51.2605 46.9466 43.0299 39.432 35.7468 32.6748 29.0347 26.4346 23.7377 21.4007 18.9698 17.0678 15.212 13.371 11.9305 10.3821 8.81157 7.39605 6.05133 4.66951 3.5241 2.3666 1.18674 18.6406 35.5031 49.5801 56.0689 58.3368 58.0032 56.3696 53.7784 50.6466 47.1412 43.9655 40.7386 37.8452 34.8291 32.1043 29.6202 27.1199 24.8084 22.5434 20.9263 18.7581 16.6183 15.0149 13.4322 12.1095 10.4989 8.90521 7.3506 5.60335 4.35104 2.97432 1.67761 23.8603 51.8961 67.2706 73.2522 73.6241 71.7895 68.0272 64.2134 59.8851 55.425 51.4933 47.3541 43.5316 40.0313 36.7719 33.4949 30.9184 27.8759 25.7978 23.1674 21.0162 18.885 16.9954 15.0197 13.0337 11.3336 9.66161 8.112 6.06862 4.71458 3.09063 1.81458 48.8793 81.441 98.5384 103.395 101.444 96.5577 90.9857 84.5123 77.9478 71.6129 65.6725 59.6591 54.3847 49.324 44.9109 40.7261 36.7478 32.8125 30.0195 26.6548 23.5924 21.0726 18.3967 16.3633 14.024 11.6885 10.0145 7.91266 6.50345 4.42294 3.03837 1.80972 80.1713 118.243 136.661 139.389 135.075 127.388 118.819 109.768 100.569 91.7143 83.2751 75.5158 68.4498 61.5989 55.0116 49.6088 44.2389 39.2409 34.7744 30.4886 27.2399 23.3649 20.1116 17.2217 14.4951 12.0593 10.0641 7.73464 5.98453 4.1001 2.72677 1.78203 120.223 160.67 179.08 179.405 171.186 160.98 149.24 137.384 125.862 114.538 103.441 93.4627 84.1469 75.0546 66.8624 60.0073 52.9947 46.7329 40.7887 35.5779 30.6943 26.0387 22.2817 18.6015 15.2265 12.1598 9.79769 7.54252 5.41124 3.59084 2.38849 1.97245 
SCALARS volume float 1
LOOKUP_TABLE default
0.307703 0.313343 0.314465 0.314809 0.314928 0.315027 0.315128 0.315242 0.315354 0.315471 0.315572 0.315674 0.315775 0.315857 0.31594 0.316005 0.316065 0.316121 0.316169 0.316212 0.316254 0.316283 0.316322 0.316346 0.316373 0.316379 0.316396 0.316414 0.31642 0.316426 0.316426 0.316404 0.312125 0.313298 0.314214 0.314518 0.314684 0.31479 0.314907 0.315042 0.315188 0.315327 0.315452 0.315567 0.315683 0.315786 0.315877 0.315952 0.316024 0.316087 0.316143 0.316195 0.316233 0.316272 0.316307 0.316339 0.316368 0.31639 0.3164 0.316417 0.316417 0.316424 0.316423 0.316421 0.314265 0.314826 0.314919 0.315049 0.315112 0.315162 0.315235 0.315322 0.31542 0.315519 0.315623 0.315727 0.315813 0.315896 0.315972 0.316029 0.316095 0.316147 0.316197 0.316237 0.316268 0.316298 0.316331 0.316348 0.316363 0.316375 0.316393 0.316415 0.316409 0.316413 0.316408 0.316415 0.315986 0.315883 0.31573 0.315659 0.315647 0.31565 0.315677 0.315714 0.315764 0.315829 0.315893 0.31596 0.316022 0.316077 0.316124 0.316164 0.316199 0.316241 0.316277 0.316299 0.316319 0.316338 0.31635 0.316374 0.316383 0.316397 0.316394 0.316397 0.316407 0.316407 0.316403 0.316395 0.31728 0.316751 0.316416 0.316254 0.316176 0.31613 0.316122 0.316126 0.316142 0.316163 0.31619 0.316219 0.316251 0.316274 0.3163 0.316324 0.316335 0.316356 0.31637 0.316383 0.316379 0.316392 0.316399 0.316404 0.316409 0.316414 0.316412 0.316412 0.316415 0.316409 0.316402 0.31638 0.318412 0.31744 0.317 0.316763 0.316654 0.316598 0.316566 0.316534 0.316521 0.316511 0.316504 0.3165 0.316497 0.316492 0.316493 0.316483 0.316481 0.316472 0.316468 0.31646 0.316452 0.316461 0.316449 0.316445 0.316453 0.316423 0.31642 0.316428 0.31642 0.316413 0.3164 0.31638 0.319253 0.318117 0.317482 0.31721 0.3171 0.317039 0.316982 0.31693 0.316886 0.31684 0.3168 0.316764 0.31673 0.316696 0.316678 0.316647 0.316629 0.316605 0.316575 0.316564 0.316541 0.316524 0.316503 0.316487 0.316481 0.316464 0.316442 0.316443 0.316432 0.316425 0.316407 0.316381 0.32098 0.318559 0.317854 0.317647 0.317551 0.317469 0.317382 0.317304 0.317225 0.317152 0.317078 0.31701 0.316959 0.316901 0.316848 0.316805 0.316767 0.316725 0.316686 0.316657 0.316615 0.316585 0.316559 0.316544 0.316512 0.316496 0.316471 0.316464 0.316449 0.316422 0.316403 0.316391 0.308793 0.312059 0.313462 0.314213 0.314612 0.314854 0.315036 0.315188 0.315319 0.315432 0.315552 0.315644 0.315749 0.315826 0.315919 0.315982 0.316051 0.316102 0.316159 0.316199 0.316244 0.316284 0.316322 0.316348 0.316369 0.316391 0.316406 0.316422 0.316424 0.316425 0.316426 0.316409 0.313641 0.312928 0.313771 0.314232 0.314578 0.314823 0.315029 0.315203 0.315343 0.315471 0.315582 0.315686 0.315775 0.315863 0.315946 0.316015 0.316071 0.31613 0.316171 0.316214 0.316256 0.316291 0.316328 0.316351 0.316369 0.316388 0.316395 0.31641 0.316416 0.316421 0.316414 0.316416 0.314916 0.314508 0.314545 0.314741 0.314925 0.31509 0.315241 0.315371 0.315494 0.315606 0.315708 0.3158 0.31587 0.315953 0.316014 0.316072 0.316126 0.316177 0.316215 0.316253 0.316282 0.316308 0.316334 0.316359 0.316368 0.31639 0.31639 0.316408 0.31641 0.316413 0.31641 0.316414 0.31609 0.315603 0.315474 0.315433 0.315473 0.31554 0.315619 0.315691 0.315771 0.315853 0.315919 0.315985 0.316039 0.316092 0.316139 0.316181 0.316214 0.316256 0.316286 0.316308 0.316322 0.316343 0.316361 0.316373 0.31639 0.316401 0.316399 0.316404 0.31641 0.316408 0.316402 0.316399 0.316925 0.316594 0.316261 0.316099 0.316038 0.316024 0.316043 0.316071 0.316107 0.316143 0.316179 0.316212 0.316249 0.316266 0.316294 0.316313 0.316334 0.316356 0.316373 0.316376 0.31639 0.316397 0.316403 0.316407 0.316415 0.316416 0.316413 0.316418 0.31642 0.316404 0.316399 0.316382 0.317643 0.31739 0.316972 0.316703 0.316571 0.316502 0.316488 0.316461 0.316456 0.31646 0.316463 0.316463 0.316467 0.316465 0.316466 0.316457 0.316464 0.31646 0.316467 0.316458 0.316452 0.316457 0.316456 0.316449 0.31644 0.316434 0.31643 0.316426 0.316422 0.31641 0.316402 0.316381 0.317939 0.318232 0.317602 0.31726 0.317065 0.316962 0.316903 0.316849 0.316812 0.31678 0.31675 0.316716 0.316692 0.316666 0.316646 0.316616 0.316604 0.316582 0.31656 0.31655 0.316531 0.316511 0.316506 0.316492 0.316477 0.316464 0.316448 0.316443 0.316431 0.316418 0.316409 0.316384 0.3197 0.318966 0.31822 0.317795 0.31758 0.317455 0.317348 0.317263 0.31719 0.317118 0.317058 0.316993 0.31694 0.316888 0.316847 0.316793 0.316758 0.316714 0.316682 0.316645 0.316614 0.316579 0.316562 0.316537 0.316511 0.316495 0.316467 0.316455 0.316433 0.316425 0.316403 0.316396 0.307948 0.311917 0.313012 0.313729 0.31422 0.314583 0.314864 0.315079 0.315259 0.315406 0.31554 0.315633 0.31574 0.315826 0.315909 0.315982 0.316054 0.316109 0.316163 0.31621 0.316252 0.316292 0.316324 0.31635 0.316372 0.3164 0.316411 0.316424 0.316436 0.316432 0.316432 0.316415 0.313362 0.312775 0.313618 0.314103 0.314488 0.314769 0.314994 0.315189 0.315343 0.315476 0.315593 0.3157 0.31579 0.315879 0.315955 0.316022 0.316076 0.316129 0.316185 0.316226 0.316262 0.316298 0.316332 0.316346 0.316367 0.31638 0.316398 0.316405 0.316414 0.316419 0.316423 0.316418 0.314752 0.314513 0.314444 0.314677 0.314886 0.31508 0.315245 0.315394 0.315522 0.315637 0.315736 0.315828 0.315908 0.315973 0.316033 0.316087 0.316138 0.31619 0.316225 0.316258 0.316294 0.316318 0.316336 0.316356 0.316379 0.316394 0.316397 0.316412 0.316406 0.31641 0.316408 0.316411 0.316005 0.315535 0.315367 0.315335 0.315408 0.315499 0.315599 0.315691 0.31578 0.31586 0.31594 0.316 0.316058 0.316113 0.316153 0.316191 0.316229 0.31626 0.316287 0.316308 0.316336 0.316357 0.316369 0.316376 0.31639 0.316398 0.316402 0.316411 0.316412 0.316402 0.316403 0.316405 0.316921 0.316475 0.316172 0.316024 0.315977 0.315977 0.31601 0.316051 0.316094 0.316131 0.316178 0.316214 0.316247 0.316272 0.316297 0.316323 0.316339 0.316351 0.316376 0.316377 0.316396 0.316399 0.316403 0.316411 0.316412 0.316414 0.316422 0.316418 0.316413 0.316401 0.316407 0.316392 0.317734 0.317222 0.316918 0.316658 0.316532 0.316462 0.316442 0.316433 0.316432 0.316441 0.316447 0.31645 0.316455 0.316458 0.316457 0.316456 0.316463 0.316451 0.316462 0.316457 0.316459 0.316458 0.316451 0.31644 0.31644 0.316442 0.316431 0.316422 0.316421 0.316407 0.3164 0.31638 0.318123 0.318113 0.317567 0.317262 0.317071 0.316954 0.316878 0.316833 0.316784 0.31676 0.316724 0.316706 0.316684 0.316658 0.31663 0.316604 0.31659 0.316573 0.316557 0.316545 0.316532 0.316516 0.316503 0.316487 0.316475 0.316466 0.316445 0.316437 0.316432 0.316416 0.316397 0.316378 0.320151 0.318664 0.318233 0.317865 0.317613 0.317446 0.317322 0.317235 0.317151 0.317086 0.317023 0.316963 0.316911 0.316861 0.316821 0.316778 0.316738 0.3167 0.316671 0.316641 0.316609 0.316578 0.316556 0.316527 0.316512 0.316488 0.316462 0.316453 0.316444 0.316423 0.31641 0.316395 0.307667 0.311766 0.312867 0.313564 0.31406 0.314442 0.31475 0.315008 0.315205 0.315372 0.315516 0.315625 0.315733 0.315827 0.315904 0.315979 0.316052 0.316114 0.316169 0.316216 0.316255 0.316284 0.316321 0.316356 0.316365 0.316393 0.316413 0.316427 0.316439 0.316438 0.316434 0.316418 0.313394 0.312637 0.3135 0.314004 0.314402 0.314712 0.31496 0.315161 0.315331 0.315476 0.315601 0.315707 0.315796 0.315886 0.315957 0.316021 0.316083 0.316131 0.316186 0.316227 0.316266 0.31629 0.316332 0.316356 0.316366 0.316378 0.316398 0.316407 0.316414 0.316421 0.316421 0.316421 0.314746 0.314459 0.314389 0.314634 0.314855 0.315058 0.315236 0.315396 0.315525 0.315639 0.315741 0.31583 0.315909 0.315979 0.316045 0.316099 0.316146 0.316192 0.316231 0.316255 0.31629 0.316315 0.316339 0.316365 0.316377 0.316393 0.316401 0.316414 0.316412 0.316406 0.316413 0.316411 0.315993 0.3155 0.31534 0.315312 0.315388 0.315479 0.315591 0.315698 0.315779 0.31586 0.315946 0.316002 0.316064 0.316114 0.316156 0.316197 0.316231 0.316264 0.316295 0.316313 0.31633 0.316356 0.31637 0.316376 0.31639 0.316403 0.3164 0.316409 0.316402 0.3164 0.316407 0.316397 0.316893 0.316442 0.316137 0.315999 0.315949 0.315963 0.315996 0.316041 0.316092 0.316133 0.316179 0.316213 0.316247 0.31627 0.316301 0.316321 0.31634 0.316357 0.316367 0.316377 0.31639 0.316396 0.316408 0.316415 0.316416 0.316413 0.316414 0.316419 0.316417 0.316406 0.316401 0.31639 0.317707 0.317204 0.316881 0.316638 0.316509 0.316451 0.316427 0.316429 0.316426 0.316421 0.316444 0.316444 0.316448 0.316456 0.316457 0.316456 0.316464 0.316464 0.316462 0.316462 0.316458 0.316454 0.316451 0.31644 0.316444 0.316438 0.316431 0.316429 0.316423 0.316409 0.316398 0.316381 0.318077 0.318106 0.317522 0.317244 0.317057 0.316951 0.316865 0.316822 0.316776 0.316743 0.316724 0.316692 0.316671 0.316651 0.316628 0.316605 0.316592 0.316578 0.316563 0.316542 0.316527 0.31652 0.316503 0.316487 0.316473 0.316464 0.316447 0.316441 0.316431 0.316415 0.316401 0.316389 0.320164 0.318582 0.318171 0.317841 0.317614 0.317446 0.31731 0.317216 0.317138 0.31707 0.317006 0.316953 0.316902 0.316853 0.31681 0.316768 0.316725 0.316695 0.316663 0.316633 0.316602 0.316577 0.316549 0.316534 0.316506 0.316491 0.316467 0.316453 0.316437 0.316422 0.31641 0.316402 0.307681 0.311825 0.312919 0.31359 0.314073 0.314443 0.314748 0.314993 0.315195 0.315368 0.315516 0.315633 0.315733 0.315826 0.315906 0.315986 0.316051 0.316108 0.31616 0.316207 0.316249 0.316292 0.316325 0.316356 0.316383 0.31641 0.316416 0.316425 0.316432 0.316436 0.316433 0.316414 0.313401 0.312662 0.313513 0.314001 0.314387 0.314694 0.314942 0.315145 0.315322 0.315469 0.315584 0.315699 0.315793 0.315879 0.315948 0.316017 0.316083 0.316133 0.316184 0.316223 0.316261 0.316299 0.316325 0.316347 0.316372 0.316391 0.316397 0.316406 0.31641 0.31642 0.316419 0.316422 0.314745 0.314464 0.314394 0.314625 0.314839 0.315051 0.315221 0.315383 0.31552 0.315633 0.315729 0.315829 0.315901 0.31598 0.316044 0.3161 0.316146 0.316192 0.316231 0.316256 0.316285 0.316324 0.316342 0.316364 0.316373 0.316392 0.316399 0.316409 0.316412 0.31641 0.316413 0.316412 0.31599 0.315503 0.315339 0.315303 0.315376 0.315475 0.315583 0.315684 0.315782 0.315865 0.315931 0.315997 0.316061 0.316111 0.316148 0.316195 0.316234 0.316266 0.316289 0.316317 0.316339 0.316356 0.316366 0.31638 0.316389 0.316401 0.316402 0.31641 0.316416 0.316414 0.316412 0.316399 0.316888 0.31643 0.316125 0.315996 0.315947 0.315958 0.315993 0.316039 0.316093 0.316136 0.316174 0.316215 0.316246 0.316271 0.316297 0.31632 0.316338 0.316356 0.316373 0.316387 0.316395 0.316402 0.316411 0.316417 0.316417 0.316414 0.316417 0.316423 0.316413 0.316407 0.316402 0.316396 0.317694 0.317171 0.31687 0.316627 0.316511 0.316451 0.316424 0.316429 0.316427 0.316427 0.316442 0.316448 0.316451 0.316462 0.316457 0.316461 0.316465 0.316459 0.316461 0.316458 0.31646 0.316459 0.316452 0.316444 0.31645 0.316438 0.31643 0.316429 0.316417 0.316417 0.3164 0.316383 0.318057 0.318063 0.317493 0.317224 0.317053 0.316951 0.31687 0.316821 0.316778 0.316742 0.316721 0.316691 0.316671 0.316652 0.316632 0.316611 0.316595 0.316574 0.316561 0.316543 0.316532 0.316518 0.316493 0.316484 0.316479 0.316466 0.316449 0.316437 0.316421 0.316418 0.316397 0.316384 0.320152 0.318514 0.318106 0.317805 0.317592 0.317431 0.317316 0.317222 0.31714 0.317067 0.317008 0.316947 0.316894 0.316853 0.316813 0.31677 0.316722 0.316697 0.316663 0.316629 0.316606 0.316579 0.316557 0.31653 0.316511 0.316495 0.316474 0.316459 0.316439 0.316422 0.316409 0.316402 0.308 0.312087 0.313157 0.313796 0.314231 0.314561 0.314834 0.315052 0.31523 0.315386 0.315522 0.315632 0.315736 0.315833 0.315911 0.315981 0.31605 0.316106 0.316158 0.316211 0.316258 0.316299 0.316316 0.316346 0.316371 0.316391 0.316415 0.316429 0.316435 0.316439 0.316426 0.316405 0.313387 0.312824 0.31364 0.314098 0.314436 0.314715 0.314941 0.315142 0.315311 0.315455 0.315576 0.315679 0.315786 0.315879 0.315953 0.316016 0.316077 0.316132 0.316177 0.316221 0.316257 0.316297 0.316321 0.316349 0.316374 0.316387 0.3164 0.316411 0.316412 0.316428 0.316425 0.316417 0.314754 0.314527 0.314443 0.314657 0.314846 0.315048 0.31522 0.315372 0.315509 0.315623 0.315727 0.315819 0.315894 0.31597 0.316037 0.316095 0.316135 0.316187 0.316219 0.31626 0.316294 0.316323 0.316345 0.316368 0.316381 0.31639 0.316397 0.31641 0.316411 0.316414 0.316413 0.316415 0.316003 0.315541 0.31536 0.315332 0.315387 0.315478 0.315583 0.315678 0.315777 0.315859 0.315927 0.315995 0.316056 0.316109 0.316146 0.316195 0.316232 0.316261 0.316285 0.316307 0.316337 0.31635 0.316364 0.316382 0.31639 0.316398 0.316407 0.316409 0.316409 0.316411 0.316411 0.316397 0.316898 0.316436 0.316144 0.316018 0.315964 0.315972 0.316008 0.316053 0.316091 0.316137 0.316173 0.316209 0.316246 0.316276 0.316303 0.316328 0.316336 0.316358 0.316374 0.316377 0.316385 0.316392 0.316405 0.316407 0.316415 0.316414 0.316419 0.316413 0.316409 0.316401 0.316399 0.316382 0.317702 0.317164 0.316867 0.316632 0.316519 0.316465 0.316442 0.316443 0.316434 0.316441 0.316442 0.31645 0.316456 0.316459 0.316453 0.316464 0.316455 0.316455 0.316463 0.316458 0.316458 0.316455 0.316455 0.316451 0.316442 0.316438 0.316426 0.31642 0.316422 0.316414 0.316396 0.316377 0.318067 0.31801 0.31747 0.317206 0.317042 0.316947 0.316878 0.316831 0.316785 0.316763 0.316729 0.316704 0.316678 0.316659 0.316641 0.31662 0.316594 0.316574 0.316568 0.316546 0.316531 0.316519 0.316505 0.316487 0.316473 0.316464 0.316454 0.316436 0.316429 0.31642 0.316397 0.316381 0.320087 0.318477 0.318063 0.317766 0.31757 0.31742 0.317319 0.317224 0.317155 0.317086 0.31702 0.316967 0.316911 0.316859 0.316818 0.316776 0.316732 0.316703 0.316668 0.31663 0.31661 0.316579 0.316565 0.31653 0.316508 0.316492 0.316479 0.316456 0.316442 0.316425 0.316408 0.316394 0.308846 0.312439 0.313624 0.314219 0.314568 0.3148 0.314991 0.315152 0.3153 0.315429 0.315559 0.31566 0.315756 0.315842 0.315924 0.315988 0.316062 0.316115 0.316168 0.316202 0.316255 0.31629 0.316313 0.316347 0.31637 0.316386 0.316411 0.316422 0.316431 0.316436 0.31643 0.316404 0.313656 0.313073 0.313798 0.314182 0.314497 0.314748 0.314962 0.315147 0.315308 0.315453 0.315585 0.315686 0.315782 0.31587 0.315947 0.316014 0.316078 0.316129 0.316184 0.316216 0.316261 0.316297 0.316326 0.316348 0.316372 0.316388 0.316399 0.316413 0.316417 0.31642 0.316418 0.316424 0.314908 0.314563 0.314545 0.314708 0.314877 0.315063 0.315212 0.315351 0.315483 0.315597 0.315705 0.315794 0.315884 0.315955 0.316021 0.316086 0.316129 0.316176 0.316223 0.316251 0.316288 0.316319 0.316336 0.316352 0.316375 0.316389 0.316397 0.316411 0.316411 0.316406 0.316409 0.316417 0.316077 0.315596 0.315446 0.315404 0.315443 0.31552 0.315612 0.315689 0.315773 0.315856 0.315922 0.315985 0.316048 0.316103 0.316145 0.316184 0.316225 0.316263 0.316286 0.316318 0.316331 0.316344 0.316363 0.31638 0.316388 0.316393 0.3164 0.316413 0.316412 0.316413 0.316409 0.316402 0.316892 0.316503 0.31621 0.316069 0.31602 0.316021 0.316035 0.316078 0.31611 0.316154 0.316187 0.316212 0.316247 0.316275 0.316302 0.316319 0.316331 0.316361 0.316374 0.316383 0.316393 0.316396 0.3164 0.316408 0.316407 0.316415 0.316414 0.316417 0.316414 0.316401 0.316396 0.31638 0.3176 0.317246 0.316889 0.316663 0.316554 0.316503 0.316478 0.31647 0.316457 0.316457 0.31646 0.316463 0.316457 0.316456 0.316469 0.316467 0.316455 0.31647 0.316469 0.316464 0.31646 0.316459 0.316446 0.316452 0.316437 0.31644 0.316432 0.316424 0.316424 0.316409 0.3164 0.316383 0.317893 0.31803 0.317459 0.317192 0.317046 0.316968 0.316901 0.316853 0.316811 0.316771 0.316749 0.316712 0.316683 0.316666 0.316643 0.316619 0.316603 0.316582 0.316565 0.316552 0.316532 0.316518 0.316495 0.316487 0.316471 0.316461 0.316453 0.316435 0.316423 0.31642 0.316406 0.316384 0.319669 0.318605 0.318015 0.317702 0.317535 0.317421 0.317339 0.317261 0.317176 0.317103 0.31705 0.316987 0.316933 0.316881 0.316831 0.316795 0.316746 0.316711 0.316674 0.316637 0.31661 0.316582 0.316556 0.316538 0.31651 0.316494 0.31648 0.316466 0.316442 0.316431 0.316415 0.316394 0.308271 0.313458 0.314423 0.314754 0.314908 0.315038 0.315158 0.315272 0.315405 0.315515 0.31562 0.315719 0.315812 0.315887 0.315959 0.316005 0.316084 0.316129 0.316186 0.316224 0.316266 0.316294 0.316313 0.316339 0.316366 0.316392 0.316407 0.316418 0.31642 0.316406 0.316422 0.316414 0.312445 0.313345 0.314194 0.314491 0.314667 0.314796 0.314938 0.315078 0.315225 0.315366 0.315494 0.315616 0.31572 0.315814 0.315897 0.315975 0.316052 0.316104 0.316161 0.316202 0.316247 0.316279 0.316312 0.316342 0.31636 0.316382 0.316395 0.316409 0.316424 0.316416 0.316419 0.316423 0.31439 0.314833 0.314879 0.315018 0.315092 0.31517 0.315253 0.315345 0.315464 0.315573 0.315671 0.315764 0.315851 0.315933 0.316001 0.316062 0.316117 0.316158 0.31621 0.316236 0.31628 0.316308 0.316329 0.316349 0.316369 0.31639 0.316396 0.316401 0.316407 0.316413 0.316413 0.316413 0.315944 0.315827 0.315676 0.315618 0.315614 0.315637 0.315682 0.315726 0.31579 0.31585 0.315922 0.315973 0.316035 0.316094 0.316138 0.316175 0.316218 0.316253 0.316279 0.316306 0.316326 0.316353 0.316366 0.316375 0.316388 0.316396 0.3164 0.316402 0.316404 0.316412 0.316399 0.316392 0.317089 0.316619 0.316332 0.316186 0.316136 0.316112 0.316117 0.316135 0.316152 0.316172 0.316208 0.316224 0.316257 0.316281 0.316309 0.31632 0.316338 0.316353 0.316359 0.316381 0.316384 0.316394 0.316396 0.316403 0.316399 0.316407 0.316403 0.316412 0.316409 0.316397 0.316392 0.316385 0.318088 0.317241 0.316914 0.316724 0.316623 0.316584 0.316543 0.31652 0.316511 0.316501 0.316502 0.316492 0.316485 0.316473 0.316476 0.316477 0.316468 0.316468 0.316461 0.316467 0.316455 0.316462 0.316446 0.316443 0.31644 0.316427 0.316421 0.316418 0.316415 0.316407 0.316404 0.316379 0.318802 0.317919 0.317418 0.317191 0.317077 0.31702 0.316963 0.316909 0.316867 0.31682 0.316781 0.316751 0.316719 0.316688 0.316661 0.316643 0.316609 0.316588 0.316576 0.316553 0.316522 0.316515 0.316497 0.316485 0.316476 0.316462 0.316452 0.31644 0.316426 0.316421 0.316403 0.316373 0.320534 0.318383 0.317799 0.317608 0.317523 0.317448 0.317362 0.317282 0.317212 0.31713 0.317062 0.317006 0.316944 0.316895 0.316841 0.316797 0.316752 0.316723 0.316679 0.316647 0.316623 0.316592 0.316564 0.316541 0.316511 0.316494 0.316476 0.316471 0.316438 0.316431 0.316415 0.316391 
SCALARS volume_diff float 1
LOOKUP_TABLE default
0.305749 0.31139 0.312512 0.312856 0.312975 0.313074 0.313175 0.313288 0.313401 0.313518 0.313619 0.313721 0.313822 0.313904 0.313987 0.314051 0.314112 0.314167 0.314216 0.314259 0.314301 0.31433 0.314369 0.314393 0.31442 0.314426 0.314443 0.314461 0.314467 0.314473 0.314473 0.314451 0.310172 0.311345 0.312261 0.312565 0.31273 0.312837 0.312954 0.313089 0.313235 0.313374 0.313499 0.313614 0.31373 0.313833 0.313924 0.313999 0.31407 0.314134 0.31419 0.314242 0.31428 0.314319 0.314354 0.314386 0.314414 0.314437 0.314447 0.314464 0.314464 0.314471 0.31447 0.314468 0.312312 0.312873 0.312966 0.313096 0.313159 0.313209 0.313282 0.313369 0.313467 0.313566 0.31367 0.313773 0.31386 0.313942 0.314019 0.314076 0.314142 0.314194 0.314244 0.314284 0.314315 0.314345 0.314377 0.314395 0.31441 0.314422 0.31444 0.314462 0.314456 0.314459 0.314455 0.314462 0.314033 0.31393 0.313777 0.313706 0.313693 0.313697 0.313724 0.31376 0.313811 0.313876 0.31394 0.314007 0.314068 0.314124 0.314171 0.314211 0.314246 0.314288 0.314324 0.314346 0.314366 0.314385 0.314397 0.314421 0.31443 0.314443 0.314441 0.314444 0.314454 0.314454 0.31445 0.314442 0.315326 0.314798 0.314463 0.314301 0.314222 0.314177 0.314168 0.314173 0.314188 0.314209 0.314237 0.314266 0.314297 0.314321 0.314347 0.314371 0.314382 0.314402 0.314417 0.31443 0.314426 0.314439 0.314445 0.314451 0.314456 0.314461 0.314458 0.314459 0.314461 0.314456 0.314449 0.314427 0.316459 0.315487 0.315047 0.31481 0.314701 0.314645 0.314613 0.314581 0.314568 0.314558 0.314551 0.314547 0.314544 0.314538 0.31454 0.31453 0.314528 0.314519 0.314515 0.314507 0.314499 0.314508 0.314496 0.314491 0.3145 0.31447 0.314467 0.314475 0.314466 0.31446 0.314447 0.314427 0.3173 0.316164 0.315529 0.315257 0.315146 0.315086 0.315029 0.314977 0.314933 0.314887 0.314847 0.314811 0.314777 0.314743 0.314724 0.314694 0.314676 0.314652 0.314622 0.314611 0.314588 0.314571 0.31455 0.314534 0.314527 0.314511 0.314489 0.31449 0.314479 0.314472 0.314454 0.314428 0.319027 0.316605 0.315901 0.315694 0.315598 0.315516 0.315429 0.315351 0.315272 0.315198 0.315125 0.315057 0.315005 0.314948 0.314895 0.314852 0.314814 0.314772 0.314733 0.314704 0.314662 0.314632 0.314606 0.314591 0.314559 0.314543 0.314518 0.314511 0.314496 0.314468 0.314449 0.314438 0.30684 0.310106 0.311508 0.31226 0.312659 0.312901 0.313083 0.313235 0.313366 0.313479 0.313599 0.313691 0.313796 0.313873 0.313965 0.314029 0.314098 0.314148 0.314205 0.314246 0.314291 0.314331 0.314369 0.314395 0.314416 0.314438 0.314453 0.314469 0.314471 0.314471 0.314473 0.314456 0.311688 0.310975 0.311818 0.312279 0.312625 0.31287 0.313075 0.31325 0.31339 0.313517 0.313629 0.313732 0.313821 0.313909 0.313993 0.314062 0.314118 0.314177 0.314218 0.314261 0.314303 0.314338 0.314375 0.314398 0.314416 0.314435 0.314442 0.314457 0.314462 0.314467 0.31446 0.314463 0.312963 0.312555 0.312592 0.312788 0.312972 0.313137 0.313288 0.313417 0.313541 0.313653 0.313755 0.313847 0.313916 0.313999 0.314061 0.314119 0.314173 0.314224 0.314262 0.3143 0.314329 0.314355 0.31438 0.314406 0.314415 0.314437 0.314436 0.314455 0.314457 0.314459 0.314457 0.314461 0.314137 0.31365 0.31352 0.31348 0.31352 0.313587 0.313666 0.313738 0.313818 0.3139 0.313966 0.314031 0.314086 0.314139 0.314186 0.314227 0.314261 0.314302 0.314333 0.314355 0.314369 0.31439 0.314408 0.31442 0.314436 0.314448 0.314445 0.314451 0.314457 0.314455 0.314449 0.314446 0.314972 0.314641 0.314307 0.314146 0.314085 0.314071 0.31409 0.314118 0.314153 0.31419 0.314226 0.314259 0.314296 0.314313 0.314341 0.31436 0.31438 0.314403 0.31442 0.314423 0.314437 0.314444 0.31445 0.314454 0.314462 0.314463 0.31446 0.314465 0.314466 0.314451 0.314445 0.314429 0.31569 0.315437 0.315019 0.31475 0.314618 0.314549 0.314535 0.314508 0.314503 0.314507 0.31451 0.31451 0.314514 0.314512 0.314513 0.314504 0.314511 0.314507 0.314514 0.314504 0.314499 0.314503 0.314503 0.314496 0.314487 0.314481 0.314477 0.314473 0.314469 0.314457 0.314449 0.314428 0.315986 0.316279 0.315649 0.315307 0.315112 0.315009 0.31495 0.314896 0.314859 0.314827 0.314796 0.314763 0.314739 0.314713 0.314693 0.314663 0.31465 0.314629 0.314607 0.314597 0.314578 0.314558 0.314553 0.314539 0.314524 0.314511 0.314495 0.31449 0.314478 0.314465 0.314456 0.314431 0.317747 0.317013 0.316267 0.315842 0.315627 0.315501 0.315394 0.31531 0.315237 0.315165 0.315104 0.315039 0.314987 0.314935 0.314894 0.31484 0.314805 0.314761 0.314728 0.314692 0.314661 0.314626 0.314609 0.314584 0.314558 0.314542 0.314514 0.314502 0.31448 0.314472 0.31445 0.314443 0.305995 0.309964 0.311059 0.311776 0.312267 0.31263 0.31291 0.313126 0.313305 0.313453 0.313587 0.31368 0.313787 0.313873 0.313956 0.314029 0.314101 0.314155 0.31421 0.314257 0.314299 0.314339 0.314371 0.314397 0.314419 0.314447 0.314458 0.314471 0.314483 0.314479 0.314479 0.314462 0.311408 0.310822 0.311664 0.31215 0.312535 0.312816 0.313041 0.313236 0.31339 0.313523 0.31364 0.313747 0.313837 0.313926 0.314002 0.314069 0.314123 0.314176 0.314232 0.314273 0.314309 0.314345 0.314379 0.314393 0.314414 0.314427 0.314445 0.314451 0.314461 0.314466 0.31447 0.314465 0.312799 0.31256 0.312491 0.312724 0.312933 0.313127 0.313292 0.313441 0.313569 0.313683 0.313783 0.313875 0.313955 0.31402 0.31408 0.314134 0.314185 0.314236 0.314272 0.314305 0.314341 0.314365 0.314383 0.314403 0.314426 0.314441 0.314444 0.314459 0.314453 0.314457 0.314455 0.314458 0.314052 0.313582 0.313414 0.313382 0.313455 0.313546 0.313646 0.313738 0.313827 0.313907 0.313987 0.314047 0.314105 0.31416 0.3142 0.314238 0.314276 0.314307 0.314334 0.314355 0.314383 0.314404 0.314416 0.314423 0.314437 0.314445 0.314448 0.314458 0.314459 0.314449 0.31445 0.314452 0.314968 0.314522 0.314219 0.314071 0.314024 0.314024 0.314057 0.314098 0.314141 0.314178 0.314225 0.314261 0.314294 0.314319 0.314344 0.31437 0.314386 0.314398 0.314423 0.314424 0.314443 0.314446 0.31445 0.314458 0.314459 0.314461 0.314468 0.314465 0.31446 0.314448 0.314454 0.314439 0.315781 0.315268 0.314965 0.314705 0.314579 0.314509 0.314489 0.31448 0.314479 0.314488 0.314494 0.314497 0.314502 0.314505 0.314504 0.314503 0.31451 0.314498 0.314509 0.314504 0.314506 0.314505 0.314497 0.314487 0.314487 0.314489 0.314478 0.314469 0.314468 0.314454 0.314447 0.314427 0.31617 0.316159 0.315614 0.315309 0.315117 0.315001 0.314925 0.314879 0.314831 0.314807 0.314771 0.314753 0.31473 0.314705 0.314677 0.314651 0.314637 0.31462 0.314604 0.314592 0.314579 0.314562 0.31455 0.314534 0.314522 0.314513 0.314492 0.314484 0.314478 0.314462 0.314444 0.314425 0.318197 0.31671 0.31628 0.315912 0.31566 0.315492 0.315369 0.315282 0.315198 0.315133 0.31507 0.31501 0.314958 0.314908 0.314868 0.314825 0.314785 0.314746 0.314718 0.314687 0.314656 0.314625 0.314603 0.314574 0.314558 0.314535 0.314509 0.3145 0.314491 0.314469 0.314457 0.314441 0.305714 0.309812 0.310914 0.311611 0.312107 0.312489 0.312797 0.313055 0.313252 0.313419 0.313563 0.313672 0.31378 0.313874 0.313951 0.314026 0.314099 0.314161 0.314216 0.314263 0.314301 0.314331 0.314368 0.314403 0.314412 0.31444 0.31446 0.314474 0.314486 0.314484 0.314481 0.314465 0.311441 0.310684 0.311547 0.31205 0.312449 0.312759 0.313007 0.313208 0.313378 0.313523 0.313647 0.313754 0.313843 0.313933 0.314004 0.314068 0.31413 0.314178 0.314233 0.314274 0.314313 0.314337 0.314379 0.314403 0.314413 0.314425 0.314445 0.314454 0.314461 0.314468 0.314468 0.314468 0.312793 0.312506 0.312436 0.312681 0.312902 0.313105 0.313283 0.313443 0.313572 0.313686 0.313788 0.313877 0.313956 0.314026 0.314092 0.314146 0.314193 0.314239 0.314278 0.314302 0.314336 0.314362 0.314386 0.314412 0.314424 0.31444 0.314448 0.314461 0.314459 0.314453 0.31446 0.314457 0.31404 0.313547 0.313387 0.313359 0.313435 0.313526 0.313637 0.313745 0.313826 0.313907 0.313993 0.314049 0.31411 0.31416 0.314203 0.314244 0.314278 0.314311 0.314342 0.31436 0.314377 0.314403 0.314417 0.314423 0.314436 0.31445 0.314447 0.314456 0.314449 0.314447 0.314454 0.314444 0.31494 0.314489 0.314184 0.314046 0.313996 0.31401 0.314043 0.314088 0.314139 0.31418 0.314226 0.31426 0.314294 0.314317 0.314348 0.314368 0.314387 0.314404 0.314414 0.314424 0.314437 0.314443 0.314455 0.314462 0.314462 0.31446 0.314461 0.314466 0.314463 0.314453 0.314448 0.314437 0.315754 0.315251 0.314928 0.314685 0.314556 0.314498 0.314474 0.314475 0.314473 0.314468 0.314491 0.31449 0.314495 0.314503 0.314504 0.314503 0.314511 0.314511 0.314509 0.314509 0.314505 0.314501 0.314498 0.314487 0.314491 0.314485 0.314477 0.314476 0.31447 0.314455 0.314445 0.314428 0.316124 0.316153 0.315569 0.315291 0.315104 0.314998 0.314912 0.314869 0.314823 0.314789 0.314771 0.314739 0.314718 0.314698 0.314675 0.314651 0.314639 0.314625 0.31461 0.314589 0.314574 0.314567 0.31455 0.314534 0.31452 0.31451 0.314494 0.314488 0.314478 0.314462 0.314448 0.314436 0.318211 0.316629 0.316218 0.315888 0.315661 0.315493 0.315357 0.315263 0.315185 0.315117 0.315053 0.315 0.314948 0.3149 0.314857 0.314814 0.314772 0.314742 0.314709 0.31468 0.314649 0.314624 0.314596 0.314581 0.314553 0.314538 0.314514 0.3145 0.314484 0.314469 0.314457 0.314449 0.305728 0.309871 0.310965 0.311637 0.31212 0.31249 0.312794 0.31304 0.313242 0.313415 0.313562 0.31368 0.31378 0.313873 0.313952 0.314033 0.314098 0.314155 0.314207 0.314254 0.314296 0.314339 0.314372 0.314403 0.31443 0.314457 0.314463 0.314472 0.314478 0.314483 0.31448 0.314461 0.311448 0.310709 0.31156 0.312047 0.312434 0.312741 0.312988 0.313192 0.313369 0.313516 0.31363 0.313746 0.31384 0.313926 0.313995 0.314064 0.314129 0.31418 0.314231 0.314269 0.314308 0.314345 0.314372 0.314394 0.314419 0.314438 0.314443 0.314453 0.314457 0.314467 0.314466 0.314469 0.312792 0.312511 0.312441 0.312672 0.312886 0.313098 0.313268 0.31343 0.313567 0.31368 0.313776 0.313876 0.313948 0.314027 0.31409 0.314147 0.314193 0.314238 0.314278 0.314303 0.314332 0.314371 0.314389 0.314411 0.31442 0.314438 0.314446 0.314455 0.314458 0.314457 0.314459 0.314458 0.314037 0.31355 0.313386 0.31335 0.313423 0.313522 0.313629 0.313731 0.313829 0.313912 0.313978 0.314044 0.314108 0.314158 0.314195 0.314242 0.314281 0.314313 0.314336 0.314364 0.314386 0.314403 0.314413 0.314427 0.314435 0.314448 0.314448 0.314457 0.314463 0.314461 0.314459 0.314446 0.314935 0.314477 0.314171 0.314043 0.313994 0.314005 0.31404 0.314086 0.31414 0.314183 0.314221 0.314262 0.314293 0.314318 0.314344 0.314367 0.314385 0.314403 0.31442 0.314434 0.314441 0.314449 0.314457 0.314464 0.314464 0.31446 0.314464 0.31447 0.31446 0.314454 0.314448 0.314443 0.31574 0.315218 0.314917 0.314673 0.314558 0.314498 0.314471 0.314476 0.314474 0.314474 0.314489 0.314494 0.314498 0.314509 0.314504 0.314508 0.314512 0.314506 0.314508 0.314505 0.314507 0.314506 0.314499 0.314491 0.314497 0.314485 0.314477 0.314476 0.314464 0.314464 0.314447 0.31443 0.316104 0.31611 0.31554 0.315271 0.3151 0.314998 0.314916 0.314868 0.314825 0.314789 0.314768 0.314738 0.314718 0.314698 0.314678 0.314658 0.314642 0.314621 0.314608 0.31459 0.314579 0.314565 0.31454 0.314531 0.314526 0.314513 0.314495 0.314484 0.314468 0.314464 0.314444 0.314431 0.318199 0.316561 0.316153 0.315852 0.315639 0.315478 0.315363 0.315269 0.315187 0.315114 0.315055 0.314994 0.314941 0.3149 0.31486 0.314817 0.314769 0.314744 0.31471 0.314675 0.314653 0.314626 0.314604 0.314577 0.314558 0.314541 0.314521 0.314506 0.314486 0.314469 0.314456 0.314449 0.306047 0.310134 0.311204 0.311843 0.312278 0.312608 0.312881 0.313099 0.313277 0.313433 0.313569 0.313679 0.313783 0.31388 0.313957 0.314028 0.314096 0.314152 0.314205 0.314258 0.314305 0.314346 0.314363 0.314393 0.314418 0.314438 0.314462 0.314476 0.314481 0.314485 0.314473 0.314452 0.311433 0.310871 0.311687 0.312145 0.312482 0.312762 0.312988 0.313189 0.313358 0.313502 0.313623 0.313726 0.313833 0.313926 0.314 0.314062 0.314124 0.314179 0.314224 0.314268 0.314304 0.314344 0.314368 0.314396 0.314421 0.314434 0.314447 0.314458 0.314458 0.314475 0.314472 0.314464 0.312801 0.312574 0.31249 0.312704 0.312893 0.313094 0.313267 0.313419 0.313556 0.31367 0.313774 0.313866 0.313941 0.314017 0.314084 0.314142 0.314182 0.314234 0.314266 0.314307 0.314341 0.31437 0.314392 0.314415 0.314428 0.314437 0.314444 0.314457 0.314458 0.314461 0.31446 0.314462 0.31405 0.313588 0.313407 0.313379 0.313433 0.313525 0.31363 0.313725 0.313824 0.313906 0.313974 0.314042 0.314103 0.314156 0.314192 0.314242 0.314279 0.314308 0.314332 0.314354 0.314384 0.314397 0.31441 0.314429 0.314437 0.314445 0.314454 0.314456 0.314456 0.314458 0.314458 0.314444 0.314945 0.314483 0.314191 0.314065 0.314011 0.314019 0.314054 0.3141 0.314138 0.314184 0.31422 0.314256 0.314293 0.314323 0.31435 0.314374 0.314383 0.314405 0.314421 0.314424 0.314431 0.314439 0.314452 0.314454 0.314462 0.314461 0.314466 0.31446 0.314456 0.314448 0.314446 0.314429 0.315749 0.315211 0.314914 0.314678 0.314566 0.314511 0.314489 0.314489 0.314481 0.314488 0.314488 0.314497 0.314503 0.314506 0.3145 0.314511 0.314502 0.314502 0.31451 0.314505 0.314505 0.314502 0.314501 0.314498 0.314489 0.314484 0.314473 0.314467 0.314468 0.314461 0.314443 0.314424 0.316114 0.316057 0.315517 0.315253 0.315089 0.314994 0.314925 0.314877 0.314832 0.31481 0.314776 0.31475 0.314725 0.314706 0.314687 0.314667 0.31464 0.314621 0.314615 0.314593 0.314578 0.314566 0.314552 0.314534 0.31452 0.314511 0.314501 0.314483 0.314476 0.314467 0.314444 0.314428 0.318134 0.316524 0.31611 0.315813 0.315617 0.315467 0.315366 0.315271 0.315202 0.315133 0.315067 0.315014 0.314957 0.314906 0.314865 0.314823 0.314779 0.31475 0.314715 0.314677 0.314657 0.314626 0.314612 0.314577 0.314555 0.314539 0.314526 0.314503 0.314489 0.314471 0.314455 0.314441 0.306893 0.310486 0.311671 0.312265 0.312615 0.312847 0.313038 0.313199 0.313346 0.313476 0.313606 0.313707 0.313803 0.313889 0.313971 0.314035 0.314109 0.314162 0.314215 0.314248 0.314302 0.314337 0.31436 0.314394 0.314417 0.314433 0.314458 0.314469 0.314477 0.314483 0.314477 0.314451 0.311703 0.31112 0.311845 0.312229 0.312544 0.312795 0.313009 0.313194 0.313355 0.3135 0.313632 0.313733 0.313829 0.313917 0.313994 0.314061 0.314125 0.314176 0.314231 0.314263 0.314307 0.314344 0.314373 0.314395 0.314419 0.314435 0.314446 0.31446 0.314464 0.314467 0.314465 0.314471 0.312955 0.312609 0.312592 0.312755 0.312924 0.31311 0.313259 0.313398 0.31353 0.313644 0.313752 0.313841 0.313931 0.314002 0.314068 0.314133 0.314176 0.314223 0.31427 0.314298 0.314335 0.314366 0.314383 0.314399 0.314422 0.314436 0.314444 0.314457 0.314457 0.314453 0.314456 0.314464 0.314124 0.313643 0.313493 0.31345 0.313489 0.313566 0.313659 0.313736 0.313819 0.313902 0.313969 0.314032 0.314095 0.31415 0.314192 0.314231 0.314272 0.31431 0.314333 0.314364 0.314378 0.314391 0.314409 0.314426 0.314435 0.314439 0.314446 0.31446 0.314459 0.314459 0.314456 0.314449 0.314938 0.31455 0.314257 0.314116 0.314067 0.314067 0.314082 0.314125 0.314157 0.314201 0.314234 0.314259 0.314293 0.314322 0.314349 0.314366 0.314378 0.314408 0.314421 0.31443 0.31444 0.314443 0.314447 0.314455 0.314454 0.314462 0.314461 0.314464 0.314461 0.314448 0.314443 0.314427 0.315646 0.315293 0.314935 0.31471 0.314601 0.31455 0.314524 0.314517 0.314504 0.314504 0.314507 0.31451 0.314504 0.314502 0.314516 0.314514 0.314501 0.314517 0.314515 0.314511 0.314507 0.314506 0.314493 0.314499 0.314484 0.314487 0.314479 0.314471 0.314471 0.314455 0.314446 0.31443 0.31594 0.316077 0.315506 0.315239 0.315093 0.315015 0.314948 0.3149 0.314858 0.314818 0.314796 0.314759 0.31473 0.314713 0.31469 0.314666 0.314649 0.314629 0.314612 0.314599 0.314579 0.314564 0.314542 0.314534 0.314518 0.314508 0.3145 0.314482 0.31447 0.314466 0.314453 0.314431 0.317716 0.316652 0.316062 0.315749 0.315582 0.315468 0.315386 0.315308 0.315223 0.31515 0.315097 0.315034 0.314979 0.314928 0.314878 0.314842 0.314793 0.314758 0.314721 0.314684 0.314657 0.314629 0.314603 0.314585 0.314557 0.31454 0.314527 0.314512 0.314489 0.314478 0.314462 0.314441 0.306318 0.311505 0.31247 0.312801 0.312955 0.313085 0.313205 0.313319 0.313452 0.313562 0.313667 0.313766 0.313859 0.313934 0.314006 0.314052 0.314131 0.314176 0.314233 0.314271 0.314313 0.314341 0.31436 0.314386 0.314413 0.314439 0.314454 0.314465 0.314467 0.314453 0.314469 0.31446 0.310492 0.311392 0.312241 0.312538 0.312714 0.312843 0.312985 0.313125 0.313272 0.313413 0.313541 0.313662 0.313767 0.313861 0.313944 0.314022 0.314099 0.31415 0.314208 0.314249 0.314294 0.314326 0.314359 0.314389 0.314406 0.314428 0.314442 0.314455 0.314471 0.314463 0.314465 0.314469 0.312437 0.31288 0.312926 0.313064 0.313139 0.313217 0.3133 0.313392 0.313511 0.31362 0.313718 0.313811 0.313898 0.31398 0.314048 0.314109 0.314164 0.314205 0.314257 0.314283 0.314327 0.314354 0.314376 0.314396 0.314416 0.314437 0.314443 0.314448 0.314453 0.314459 0.31446 0.31446 0.313991 0.313873 0.313723 0.313665 0.31366 0.313684 0.313729 0.313773 0.313837 0.313897 0.313969 0.31402 0.314082 0.314141 0.314185 0.314222 0.314265 0.3143 0.314326 0.314353 0.314372 0.3144 0.314413 0.314422 0.314435 0.314443 0.314447 0.314449 0.314451 0.314459 0.314446 0.314439 0.315136 0.314665 0.314379 0.314233 0.314183 0.314159 0.314164 0.314182 0.314199 0.314219 0.314255 0.314271 0.314303 0.314328 0.314356 0.314367 0.314385 0.3144 0.314406 0.314428 0.314431 0.314441 0.314443 0.31445 0.314446 0.314454 0.31445 0.314459 0.314456 0.314444 0.314439 0.314432 0.316135 0.315288 0.314961 0.314771 0.31467 0.31463 0.31459 0.314567 0.314558 0.314548 0.314549 0.314539 0.314532 0.31452 0.314523 0.314524 0.314515 0.314515 0.314508 0.314514 0.314502 0.314509 0.314493 0.31449 0.314487 0.314474 0.314468 0.314465 0.314462 0.314454 0.31445 0.314426 0.316849 0.315966 0.315465 0.315238 0.315124 0.315067 0.31501 0.314956 0.314913 0.314867 0.314828 0.314798 0.314766 0.314734 0.314708 0.31469 0.314656 0.314635 0.314623 0.3146 0.314569 0.314562 0.314544 0.314532 0.314522 0.314509 0.314499 0.314486 0.314473 0.314468 0.31445 0.31442 0.318581 0.31643 0.315846 0.315655 0.31557 0.315495 0.315409 0.315329 0.315259 0.315177 0.315109 0.315053 0.314991 0.314942 0.314888 0.314844 0.314799 0.31477 0.314726 0.314694 0.31467 0.314639 0.314611 0.314588 0.314558 0.314541 0.314522 0.314518 0.314485 0.314478 0.314462 0.314438 
