# vtk DataFile Version 5.1
vtk output
ASCII

DATASET UNSTRUCTURED_GRID
POINTS 18785 float
0 0 0.7
0.125 0 0.7
0.25 0 0.7
0.375 0 0.7
0.5 0 0.7
0.625 0 0.7
0.75 0 0.7
0.875 0 0.7
1 0 0.7
1.125 0 0.7
1.25 0 0.7
1.375 0 0.7
1.5 0 0.7
1.625 0 0.7
1.75 0 0.7
1.875 0 0.7
2 0 0.7
2.125 0 0.7
2.25 0 0.7
2.375 0 0.7
2.5 0 0.7
2.625 0 0.7
2.75 0 0.7
2.875 0 0.7
3 0 0.7
3.125 0 0.7
3.25 0 0.7
3.375 0 0.7
3.5 0 0.7
3.625 0 0.7
3.75 0 0.7
3.875 0 0.7
4 0 0.7
0 0.125 0.7
0.125 0.125 0.7
0.25 0.125 0.7
0.375 0.125 0.7
0.5 0.125 0.7
0.625 0.125 0.7
0.75 0.125 0.7
0.875 0.125 0.7
1 0.125 0.7
1.125 0.125 0.7
1.25 0.125 0.7
1.375 0.125 0.7
1.5 0.125 0.7
1.625 0.125 0.7
1.75 0.125 0.7
1.875 0.125 0.7
2 0.125 0.7
2.125 0.125 0.7
2.25 0.125 0.7
2.375 0.125 0.7
2.5 0.125 0.7
2.625 0.125 0.7
2.75 0.125 0.7
2.875 0.125 0.7
3 0.125 0.7
3.125 0.125 0.7
3.25 0.125 0.7
3.375 0.125 0.7
3.5 0.125 0.7
3.625 0.125 0.7
3.75 0.125 0.7
3.875 0.125 0.7
4 0.125 0.7
0 0.25 0.7
0.125 0.25 0.7
0.25 0.25 0.7
0.375 0.25 0.7
0.5 0.25 0.7
0.625 0.25 0.7
0.75 0.25 0.7
0.875 0.25 0.7
1 0.25 0.7
1.125 0.25 0.7
1.25 0.25 0.7
1.375 0.25 0.7
1.5 0.25 0.7
1.625 0.25 0.7
1.75 0.25 0.7
1.875 0.25 0.7
2 0.25 0.7
2.125 0.25 0.7
2.25 0.25 0.7
2.375 0.25 0.7
2.5 0.25 0.7
2.625 0.25 0.7
2.75 0.25 0.7
2.875 0.25 0.7
3 0.25 0.7
3.125 0.25 0.7
3.25 0.25 0.7
3.375 0.25 0.7
3.5 0.25 0.7
3.625 0.25 0.7
3.75 0.25 0.7
3.875 0.25 0.7
4 0.25 0.7
0 0.375 0.7
0.125 0.375 0.7
0.25 0.375 0.7
0.375 0.375 0.7
0.5 0.375 0.7
0.625 0.375 0.7
0.75 0.375 0.7
0.875 0.375 0.7
1 0.375 0.7
1.125 0.375 0.7
1.25 0.375 0.7
1.375 0.375 0.7
1.5 0.375 0.7
1.625 0.375 0.7
1.75 0.375 0.7
1.875 0.375 0.7
2 0.375 0.7
2.125 0.375 0.7
2.25 0.375 0.7
2.375 0.375 0.7
2.5 0.375 0.7
2.625 0.375 0.7
2.75 0.375 0.7
2.875 0.375 0.7
3 0.375 0.7
3.125 0.375 0.7
3.25 0.375 0.7
3.375 0.375 0.7
3.5 0.375 0.7
3.625 0.375 0.7
3.75 0.375 0.7
3.875 0.375 0.7
4 0.375 0.7
0 0.5 0.7
0.125 0.5 0.7
0.25 0.5 0.7
0.375 0.5 0.7
0.5 0.5 0.7
0.625 0.5 0.7
0.75 0.5 0.7
0.875 0.5 0.7
1 0.5 0.7
1.125 0.5 0.7
1.25 0.5 0.7
1.375 0.5 0.7
1.5 0.5 0.7
1.625 0.5 0.7
1.75 0.5 0.7
1.875 0.5 0.7
2 0.5 0.7
2.125 0.5 0.7
2.25 0.5 0.7
2.375 0.5 0.7
2.5 0.5 0.7
2.625 0.5 0.7
2.75 0.5 0.7
2.875 0.5 0.7
3 0.5 0.7
3.125 0.5 0.7
3.25 0.5 0.7
3.375 0.5 0.7
3.5 0.5 0.7
3.625 0.5 0.7
3.75 0.5 0.7
3.875 0.5 0.7
4 0.5 0.7
0 0.625 0.7
0.125 0.625 0.7
0.25 0.625 0.7
0.375 0.625 0.7
0.5 0.625 0.7
0.625 0.625 0.7
0.75 0.625 0.7
0.875 0.625 0.7
1 0.625 0.7
1.125 0.625 0.7
1.25 0.625 0.7
1.375 0.625 0.7
1.5 0.625 0.7
1.625 0.625 0.7
1.75 0.625 0.7
1.875 0.625 0.7
2 0.625 0.7
2.125 0.625 0.7
2.25 0.625 0.7
2.375 0.625 0.7
2.5 0.625 0.7
2.625 0.625 0.7
2.75 0.625 0.7
2.875 0.625 0.7
3 0.625 0.7
3.125 0.625 0.7
3.25 0.625 0.7
3.375 0.625 0.7
3.5 0.625 0.7
3.625 0.625 0.7
3.75 0.625 0.7
3.875 0.625 0.7
4 0.625 0.7
0 0.75 0.7
0.125 0.75 0.7
0.25 0.75 0.7
0.375 0.75 0.7
0.5 0.75 0.7
0.625 0.75 0.7
0.75 0.75 0.7
0.875 0.75 0.7
1 0.75 0.7
1.125 0.75 0.7
1.25 0.75 0.7
1.375 0.75 0.7
1.5 0.75 0.7
1.625 0.75 0.7
1.75 0.75 0.7
1.875 0.75 0.7
2 0.75 0.7
2.125 0.75 0.7
2.25 0.75 0.7
2.375 0.75 0.7
2.5 0.75 0.7
2.625 0.75 0.7
2.75 0.75 0.7
2.875 0.75 0.7
3 0.75 0.7
3.125 0.75 0.7
3.25 0.75 0.7
3.375 0.75 0.7
3.5 0.75 0.7
3.625 0.75 0.7
3.75 0.75 0.7
3.875 0.75 0.7
4 0.75 0.7
0 0.875 0.7
0.125 0.875 0.7
0.25 0.875 0.7
0.375 0.875 0.7
0.5 0.875 0.7
0.625 0.875 0.7
0.75 0.875 0.7
0.875 0.875 0.7
1 0.875 0.7
1.125 0.875 0.7
1.25 0.875 0.7
1.375 0.875 0.7
1.5 0.875 0.7
1.625 0.875 0.7
1.75 0.875 0.7
1.875 0.875 0.7
2 0.875 0.7
2.125 0.875 0.7
2.25 0.875 0.7
2.375 0.875 0.7
2.5 0.875 0.7
2.625 0.875 0.7
2.75 0.875 0.7
2.875 0.875 0.7
3 0.875 0.7
3.125 0.875 0.7
3.25 0.875 0.7
3.375 0.875 0.7
3.5 0.875 0.7
3.625 0.875 0.7
3.75 0.875 0.7
3.875 0.875 0.7
4 0.875 0.7
0 1 0.7
0.125 1 0.7
0.25 1 0.7
0.375 1 0.7
0.5 1 0.7
0.625 1 0.7
0.75 1 0.7
0.875 1 0.7
1 1 0.7
1.125 1 0.7
1.25 1 0.7
1.375 1 0.7
1.5 1 0.7
1.625 1 0.7
1.75 1 0.7
1.875 1 0.7
2 1 0.7
2.125 1 0.7
2.25 1 0.7
2.375 1 0.7
2.5 1 0.7
2.625 1 0.7
2.75 1 0.7
2.875 1 0.7
3 1 0.7
3.125 1 0.7
3.25 1 0.7
3.375 1 0.7
3.5 1 0.7
3.625 1 0.7
3.75 1 0.7
3.875 1 0.7
4 1 0.7
0 0 0.825
0.125 0 0.825
0.25 0 0.825
0.375 0 0.825
0.5 0 0.825
0.625 0 0.825
0.75 0 0.825
0.875 0 0.825
1 0 0.825
1.125 0 0.825
1.25 0 0.825
1.375 0 0.825
1.5 0 0.825
1.625 0 0.825
1.75 0 0.825
1.875 0 0.825
2 0 0.825
2.125 0 0.825
2.25 0 0.825
2.375 0 0.825
2.5 0 0.825
2.625 0 0.825
2.75 0 0.825
2.875 0 0.825
3 0 0.825
3.125 0 0.825
3.25 0 0.825
3.375 0 0.825
3.5 0 0.825
3.625 0 0.825
3.75 0 0.825
3.875 0 0.825
4 0 0.825
0 0.125 0.825
0.125 0.125 0.825
0.25 0.125 0.825
0.375 0.125 0.825
0.5 0.125 0.825
0.625 0.125 0.825
0.75 0.125 0.825
0.875 0.125 0.825
1 0.125 0.825
1.125 0.125 0.825
1.25 0.125 0.825
1.375 0.125 0.825
1.5 0.125 0.825
1.625 0.125 0.825
1.75 0.125 0.825
1.875 0.125 0.825
2 0.125 0.825
2.125 0.125 0.825
2.25 0.125 0.825
2.375 0.125 0.825
2.5 0.125 0.825
2.625 0.125 0.825
2.75 0.125 0.825
2.875 0.125 0.825
3 0.125 0.825
3.125 0.125 0.825
3.25 0.125 0.825
3.375 0.125 0.825
3.5 0.125 0.825
3.625 0.125 0.825
3.75 0.125 0.825
3.875 0.125 0.825
4 0.125 0.825
0 0.25 0.825
0.125 0.25 0.825
0.25 0.25 0.825
0.375 0.25 0.825
0.5 0.25 0.825
0.625 0.25 0.825
0.75 0.25 0.825
0.875 0.25 0.825
1 0.25 0.825
1.125 0.25 0.825
1.25 0.25 0.825
1.375 0.25 0.825
1.5 0.25 0.825
1.625 0.25 0.825
1.75 0.25 0.825
1.875 0.25 0.825
2 0.25 0.825
2.125 0.25 0.825
2.25 0.25 0.825
2.375 0.25 0.825
2.5 0.25 0.825
2.625 0.25 0.825
2.75 0.25 0.825
2.875 0.25 0.825
3 0.25 0.825
3.125 0.25 0.825
3.25 0.25 0.825
3.375 0.25 0.825
3.5 0.25 0.825
3.625 0.25 0.825
3.75 0.25 0.825
3.875 0.25 0.825
4 0.25 0.825
0 0.375 0.825
0.125 0.375 0.825
0.25 0.375 0.825
0.375 0.375 0.825
0.5 0.375 0.825
0.625 0.375 0.825
0.75 0.375 0.825
0.875 0.375 0.825
1 0.375 0.825
1.125 0.375 0.825
1.25 0.375 0.825
1.375 0.375 0.825
1.5 0.375 0.825
1.625 0.375 0.825
1.75 0.375 0.825
1.875 0.375 0.825
2 0.375 0.825
2.125 0.375 0.825
2.25 0.375 0.825
2.375 0.375 0.825
2.5 0.375 0.825
2.625 0.375 0.825
2.75 0.375 0.825
2.875 0.375 0.825
3 0.375 0.825
3.125 0.375 0.825
3.25 0.375 0.825
3.375 0.375 0.825
3.5 0.375 0.825
3.625 0.375 0.825
3.75 0.375 0.825
3.875 0.375 0.825
4 0.375 0.825
0 0.5 0.825
0.125 0.5 0.825
0.25 0.5 0.825
0.375 0.5 0.825
0.5 0.5 0.825
0.625 0.5 0.825
0.75 0.5 0.825
0.875 0.5 0.825
1 0.5 0.825
1.125 0.5 0.825
1.25 0.5 0.825
1.375 0.5 0.825
1.5 0.5 0.825
1.625 0.5 0.825
1.75 0.5 0.825
1.875 0.5 0.825
2 0.5 0.825
2.125 0.5 0.825
2.25 0.5 0.825
2.375 0.5 0.825
2.5 0.5 0.825
2.625 0.5 0.825
2.75 0.5 0.825
2.875 0.5 0.825
3 0.5 0.825
3.125 0.5 0.825
3.25 0.5 0.825
3.375 0.5 0.825
3.5 0.5 0.825
3.625 0.5 0.825
3.75 0.5 0.825
3.875 0.5 0.825
4 0.5 0.825
0 0.625 0.825
0.125 0.625 0.825
0.25 0.625 0.825
0.375 0.625 0.825
0.5 0.625 0.825
0.625 0.625 0.825
0.75 0.625 0.825
0.875 0.625 0.825
1 0.625 0.825
1.125 0.625 0.825
1.25 0.625 0.825
1.375 0.625 0.825
1.5 0.625 0.825
1.625 0.625 0.825
1.75 0.625 0.825
1.875 0.625 0.825
2 0.625 0.825
2.125 0.625 0.825
2.25 0.625 0.825
2.375 0.625 0.825
2.5 0.625 0.825
2.625 0.625 0.825
2.75 0.625 0.825
2.875 0.625 0.825
3 0.625 0.825
3.125 0.625 0.825
3.25 0.625 0.825
3.375 0.625 0.825
3.5 0.625 0.825
3.625 0.625 0.825
3.75 0.625 0.825
3.875 0.625 0.825
4 0.625 0.825
0 0.75 0.825
0.125 0.75 0.825
0.25 0.75 0.825
0.375 0.75 0.825
0.5 0.75 0.825
0.625 0.75 0.825
0.75 0.75 0.825
0.875 0.75 0.825
1 0.75 0.825
1.125 0.75 0.825
1.25 0.75 0.825
1.375 0.75 0.825
1.5 0.75 0.825
1.625 0.75 0.825
1.75 0.75 0.825
1.875 0.75 0.825
2 0.75 0.825
2.125 0.75 0.825
2.25 0.75 0.825
2.375 0.75 0.825
2.5 0.75 0.825
2.625 0.75 0.825
2.75 0.75 0.825
2.875 0.75 0.825
3 0.75 0.825
3.125 0.75 0.825
3.25 0.75 0.825
3.375 0.75 0.825
3.5 0.75 0.825
3.625 0.75 0.825
3.75 0.75 0.825
3.875 0.75 0.825
4 0.75 0.825
0 0.875 0.825
0.125 0.875 0.825
0.25 0.875 0.825
0.375 0.875 0.825
0.5 0.875 0.825
0.625 0.875 0.825
0.75 0.875 0.825
0.875 0.875 0.825
1 0.875 0.825
1.125 0.875 0.825
1.25 0.875 0.825
1.375 0.875 0.825
1.5 0.875 0.825
1.625 0.875 0.825
1.75 0.875 0.825
1.875 0.875 0.825
2 0.875 0.825
2.125 0.875 0.825
2.25 0.875 0.825
2.375 0.875 0.825
2.5 0.875 0.825
2.625 0.875 0.825
2.75 0.875 0.825
2.875 0.875 0.825
3 0.875 0.825
3.125 0.875 0.825
3.25 0.875 0.825
3.375 0.875 0.825
3.5 0.875 0.825
3.625 0.875 0.825
3.75 0.875 0.825
3.875 0.875 0.825
4 0.875 0.825
0 1 0.825
0.125 1 0.825
0.25 1 0.825
0.375 1 0.825
0.5 1 0.825
0.625 1 0.825
0.75 1 0.825
0.875 1 0.825
1 1 0.825
1.125 1 0.825
1.25 1 0.825
1.375 1 0.825
1.5 1 0.825
1.625 1 0.825
1.75 1 0.825
1.875 1 0.825
2 1 0.825
2.125 1 0.825
2.25 1 0.825
2.375 1 0.825
2.5 1 0.825
2.625 1 0.825
2.75 1 0.825
2.875 1 0.825
3 1 0.825
3.125 1 0.825
3.25 1 0.825
3.375 1 0.825
3.5 1 0.825
3.625 1 0.825
3.75 1 0.825
3.875 1 0.825
4 1 0.825
0 0 0.95
0.125 0 0.95
0.25 0 0.95
0.375 0 0.95
0.5 0 0.95
0.625 0 0.95
0.75 0 0.95
0.875 0 0.95
1 0 0.95
1.125 0 0.95
1.25 0 0.95
1.375 0 0.95
1.5 0 0.95
1.625 0 0.95
1.75 0 0.95
1.875 0 0.95
2 0 0.95
2.125 0 0.95
2.25 0 0.95
2.375 0 0.95
2.5 0 0.95
2.625 0 0.95
2.75 0 0.95
2.875 0 0.95
3 0 0.95
3.125 0 0.95
3.25 0 0.95
3.375 0 0.95
3.5 0 0.95
3.625 0 0.95
3.75 0 0.95
3.875 0 0.95
4 0 0.95
0 0.125 0.95
0.125 0.125 0.95
0.25 0.125 0.95
0.375 0.125 0.95
0.5 0.125 0.95
0.625 0.125 0.95
0.75 0.125 0.95
0.875 0.125 0.95
1 0.125 0.95
1.125 0.125 0.95
1.25 0.125 0.95
1.375 0.125 0.95
1.5 0.125 0.95
1.625 0.125 0.95
1.75 0.125 0.95
1.875 0.125 0.95
2 0.125 0.95
2.125 0.125 0.95
2.25 0.125 0.95
2.375 0.125 0.95
2.5 0.125 0.95
2.625 0.125 0.95
2.75 0.125 0.95
2.875 0.125 0.95
3 0.125 0.95
3.125 0.125 0.95
3.25 0.125 0.95
3.375 0.125 0.95
3.5 0.125 0.95
3.625 0.125 0.95
3.75 0.125 0.95
3.875 0.125 0.95
4 0.125 0.95
0 0.25 0.95
0.125 0.25 0.95
0.25 0.25 0.95
0.375 0.25 0.95
0.5 0.25 0.95
0.625 0.25 0.95
0.75 0.25 0.95
0.875 0.25 0.95
1 0.25 0.95
1.125 0.25 0.95
1.25 0.25 0.95
1.375 0.25 0.95
1.5 0.25 0.95
1.625 0.25 0.95
1.75 0.25 0.95
1.875 0.25 0.95
2 0.25 0.95
2.125 0.25 0.95
2.25 0.25 0.95
2.375 0.25 0.95
2.5 0.25 0.95
2.625 0.25 0.95
2.75 0.25 0.95
2.875 0.25 0.95
3 0.25 0.95
3.125 0.25 0.95
3.25 0.25 0.95
3.375 0.25 0.95
3.5 0.25 0.95
3.625 0.25 0.95
3.75 0.25 0.95
3.875 0.25 0.95
4 0.25 0.95
0 0.375 0.95
0.125 0.375 0.95
0.25 0.375 0.95
0.375 0.375 0.95
0.5 0.375 0.95
0.625 0.375 0.95
0.75 0.375 0.95
0.875 0.375 0.95
1 0.375 0.95
1.125 0.375 0.95
1.25 0.375 0.95
1.375 0.375 0.95
1.5 0.375 0.95
1.625 0.375 0.95
1.75 0.375 0.95
1.875 0.375 0.95
2 0.375 0.95
2.125 0.375 0.95
2.25 0.375 0.95
2.375 0.375 0.95
2.5 0.375 0.95
2.625 0.375 0.95
2.75 0.375 0.95
2.875 0.375 0.95
3 0.375 0.95
3.125 0.375 0.95
3.25 0.375 0.95
3.375 0.375 0.95
3.5 0.375 0.95
3.625 0.375 0.95
3.75 0.375 0.95
3.875 0.375 0.95
4 0.375 0.95
0 0.5 0.95
0.125 0.5 0.95
0.25 0.5 0.95
0.375 0.5 0.95
0.5 0.5 0.95
0.625 0.5 0.95
0.75 0.5 0.95
0.875 0.5 0.95
1 0.5 0.95
1.125 0.5 0.95
1.25 0.5 0.95
1.375 0.5 0.95
1.5 0.5 0.95
1.625 0.5 0.95
1.75 0.5 0.95
1.875 0.5 0.95
2 0.5 0.95
2.125 0.5 0.95
2.25 0.5 0.95
2.375 0.5 0.95
2.5 0.5 0.95
2.625 0.5 0.95
2.75 0.5 0.95
2.875 0.5 0.95
3 0.5 0.95
3.125 0.5 0.95
3.25 0.5 0.95
3.375 0.5 0.95
3.5 0.5 0.95
3.625 0.5 0.95
3.75 0.5 0.95
3.875 0.5 0.95
4 0.5 0.95
0 0.625 0.95
0.125 0.625 0.95
0.25 0.625 0.95
0.375 0.625 0.95
0.5 0.625 0.95
0.625 0.625 0.95
0.75 0.625 0.95
0.875 0.625 0.95
1 0.625 0.95
1.125 0.625 0.95
1.25 0.625 0.95
1.375 0.625 0.95
1.5 0.625 0.95
1.625 0.625 0.95
1.75 0.625 0.95
1.875 0.625 0.95
2 0.625 0.95
2.125 0.625 0.95
2.25 0.625 0.95
2.375 0.625 0.95
2.5 0.625 0.95
2.625 0.625 0.95
2.75 0.625 0.95
2.875 0.625 0.95
3 0.625 0.95
3.125 0.625 0.95
3.25 0.625 0.95
3.375 0.625 0.95
3.5 0.625 0.95
3.625 0.625 0.95
3.75 0.625 0.95
3.875 0.625 0.95
4 0.625 0.95
0 0.75 0.95
0.125 0.75 0.95
0.25 0.75 0.95
0.375 0.75 0.95
0.5 0.75 0.95
0.625 0.75 0.95
0.75 0.75 0.95
0.875 0.75 0.95
1 0.75 0.95
1.125 0.75 0.95
1.25 0.75 0.95
1.375 0.75 0.95
1.5 0.75 0.95
1.625 0.75 0.95
1.75 0.75 0.95
1.875 0.75 0.95
2 0.75 0.95
2.125 0.75 0.95
2.25 0.75 0.95
2.375 0.75 0.95
2.5 0.75 0.95
2.625 0.75 0.95
2.75 0.75 0.95
2.875 0.75 0.95
3 0.75 0.95
3.125 0.75 0.95
3.25 0.75 0.95
3.375 0.75 0.95
3.5 0.75 0.95
3.625 0.75 0.95
3.75 0.75 0.95
3.875 0.75 0.95
4 0.75 0.95
0 0.875 0.95
0.125 0.875 0.95
0.25 0.875 0.95
0.375 0.875 0.95
0.5 0.875 0.95
0.625 0.875 0.95
0.75 0.875 0.95
0.875 0.875 0.95
1 0.875 0.95
1.125 0.875 0.95
1.25 0.875 0.95
1.375 0.875 0.95
1.5 0.875 0.95
1.625 0.875 0.95
1.75 0.875 0.95
1.875 0.875 0.95
2 0.875 0.95
2.125 0.875 0.95
2.25 0.875 0.95
2.375 0.875 0.95
2.5 0.875 0.95
2.625 0.875 0.95
2.75 0.875 0.95
2.875 0.875 0.95
3 0.875 0.95
3.125 0.875 0.95
3.25 0.875 0.95
3.375 0.875 0.95
3.5 0.875 0.95
3.625 0.875 0.95
3.75 0.875 0.95
3.875 0.875 0.95
4 0.875 0.95
0 1 0.95
0.125 1 0.95
0.25 1 0.95
0.375 1 0.95
0.5 1 0.95
0.625 1 0.95
0.75 1 0.95
0.875 1 0.95
1 1 0.95
1.125 1 0.95
1.25 1 0.95
1.375 1 0.95
1.5 1 0.95
1.625 1 0.95
1.75 1 0.95
1.875 1 0.95
2 1 0.95
2.125 1 0.95
2.25 1 0.95
2.375 1 0.95
2.5 1 0.95
2.625 1 0.95
2.75 1 0.95
2.875 1 0.95
3 1 0.95
3.125 1 0.95
3.25 1 0.95
3.375 1 0.95
3.5 1 0.95
3.625 1 0.95
3.75 1 0.95
3.875 1 0.95
4 1 0.95
0 0 1.075
0.125 0 1.075
0.25 0 1.075
0.375 0 1.075
0.5 0 1.075
0.625 0 1.075
0.75 0 1.075
0.875 0 1.075
1 0 1.075
1.125 0 1.075
1.25 0 1.075
1.375 0 1.075
1.5 0 1.075
1.625 0 1.075
1.75 0 1.075
1.875 0 1.075
2 0 1.075
2.125 0 1.075
2.25 0 1.075
2.375 0 1.075
2.5 0 1.075
2.625 0 1.075
2.75 0 1.075
2.875 0 1.075
3 0 1.075
3.125 0 1.075
3.25 0 1.075
3.375 0 1.075
3.5 0 1.075
3.625 0 1.075
3.75 0 1.075
3.875 0 1.075
4 0 1.075
0 0.125 1.075
0.125 0.125 1.075
0.25 0.125 1.075
0.375 0.125 1.075
0.5 0.125 1.075
0.625 0.125 1.075
0.75 0.125 1.075
0.875 0.125 1.075
1 0.125 1.075
1.125 0.125 1.075
1.25 0.125 1.075
1.375 0.125 1.075
1.5 0.125 1.075
1.625 0.125 1.075
1.75 0.125 1.075
1.875 0.125 1.075
2 0.125 1.075
2.125 0.125 1.075
2.25 0.125 1.075
2.375 0.125 1.075
2.5 0.125 1.075
2.625 0.125 1.075
2.75 0.125 1.075
2.875 0.125 1.075
3 0.125 1.075
3.125 0.125 1.075
3.25 0.125 1.075
3.375 0.125 1.075
3.5 0.125 1.075
3.625 0.125 1.075
3.75 0.125 1.075
3.875 0.125 1.075
4 0.125 1.075
0 0.25 1.075
0.125 0.25 1.075
0.25 0.25 1.075
0.375 0.25 1.075
0.5 0.25 1.075
0.625 0.25 1.075
0.75 0.25 1.075
0.875 0.25 1.075
1 0.25 1.075
1.125 0.25 1.075
1.25 0.25 1.075
1.375 0.25 1.075
1.5 0.25 1.075
1.625 0.25 1.075
1.75 0.25 1.075
1.875 0.25 1.075
2 0.25 1.075
2.125 0.25 1.075
2.25 0.25 1.075
2.375 0.25 1.075
2.5 0.25 1.075
2.625 0.25 1.075
2.75 0.25 1.075
2.875 0.25 1.075
3 0.25 1.075
3.125 0.25 1.075
3.25 0.25 1.075
3.375 0.25 1.075
3.5 0.25 1.075
3.625 0.25 1.075
3.75 0.25 1.075
3.875 0.25 1.075
4 0.25 1.075
0 0.375 1.075
0.125 0.375 1.075
0.25 0.375 1.075
0.375 0.375 1.075
0.5 0.375 1.075
0.625 0.375 1.075
0.75 0.375 1.075
0.875 0.375 1.075
1 0.375 1.075
1.125 0.375 1.075
1.25 0.375 1.075
1.375 0.375 1.075
1.5 0.375 1.075
1.625 0.375 1.075
1.75 0.375 1.075
1.875 0.375 1.075
2 0.375 1.075
2.125 0.375 1.075
2.25 0.375 1.075
2.375 0.375 1.075
2.5 0.375 1.075
2.625 0.375 1.075
2.75 0.375 1.075
2.875 0.375 1.075
3 0.375 1.075
3.125 0.375 1.075
3.25 0.375 1.075
3.375 0.375 1.075
3.5 0.375 1.075
3.625 0.375 1.075
3.75 0.375 1.075
3.875 0.375 1.075
4 0.375 1.075
0 0.5 1.075
0.125 0.5 1.075
0.25 0.5 1.075
0.375 0.5 1.075
0.5 0.5 1.075
0.625 0.5 1.075
0.75 0.5 1.075
0.875 0.5 1.075
1 0.5 1.075
1.125 0.5 1.075
1.25 0.5 1.075
1.375 0.5 1.075
1.5 0.5 1.075
1.625 0.5 1.075
1.75 0.5 1.075
1.875 0.5 1.075
2 0.5 1.075
2.125 0.5 1.075
2.25 0.5 1.075
2.375 0.5 1.075
2.5 0.5 1.075
2.625 0.5 1.075
2.75 0.5 1.075
2.875 0.5 1.075
3 0.5 1.075
3.125 0.5 1.075
3.25 0.5 1.075
3.375 0.5 1.075
3.5 0.5 1.075
3.625 0.5 1.075
3.75 0.5 1.075
3.875 0.5 1.075
4 0.5 1.075
0 0.625 1.075
0.125 0.625 1.075
0.25 0.625 1.075
0.375 0.625 1.075
0.5 0.625 1.075
0.625 0.625 1.075
0.75 0.625 1.075
0.875 0.625 1.075
1 0.625 1.075
1.125 0.625 1.075
1.25 0.625 1.075
1.375 0.625 1.075
1.5 0.625 1.075
1.625 0.625 1.075
1.75 0.625 1.075
1.875 0.625 1.075
2 0.625 1.075
2.125 0.625 1.075
2.25 0.625 1.075
2.375 0.625 1.075
2.5 0.625 1.075
2.625 0.625 1.075
2.75 0.625 1.075
2.875 0.625 1.075
3 0.625 1.075
3.125 0.625 1.075
3.25 0.625 1.075
3.375 0.625 1.075
3.5 0.625 1.075
3.625 0.625 1.075
3.75 0.625 1.075
3.875 0.625 1.075
4 0.625 1.075
0 0.75 1.075
0.125 0.75 1.075
0.25 0.75 1.075
0.375 0.75 1.075
0.5 0.75 1.075
0.625 0.75 1.075
0.75 0.75 1.075
0.875 0.75 1.075
1 0.75 1.075
1.125 0.75 1.075
1.25 0.75 1.075
1.375 0.75 1.075
1.5 0.75 1.075
1.625 0.75 1.075
1.75 0.75 1.075
1.875 0.75 1.075
2 0.75 1.075
2.125 0.75 1.075
2.25 0.75 1.075
2.375 0.75 1.075
2.5 0.75 1.075
2.625 0.75 1.075
2.75 0.75 1.075
2.875 0.75 1.075
3 0.75 1.075
3.125 0.75 1.075
3.25 0.75 1.075
3.375 0.75 1.075
3.5 0.75 1.075
3.625 0.75 1.075
3.75 0.75 1.075
3.875 0.75 1.075
4 0.75 1.075
0 0.875 1.075
0.125 0.875 1.075
0.25 0.875 1.075
0.375 0.875 1.075
0.5 0.875 1.075
0.625 0.875 1.075
0.75 0.875 1.075
0.875 0.875 1.075
1 0.875 1.075
1.125 0.875 1.075
1.25 0.875 1.075
1.375 0.875 1.075
1.5 0.875 1.075
1.625 0.875 1.075
1.75 0.875 1.075
1.875 0.875 1.075
2 0.875 1.075
2.125 0.875 1.075
2.25 0.875 1.075
2.375 0.875 1.075
2.5 0.875 1.075
2.625 0.875 1.075
2.75 0.875 1.075
2.875 0.875 1.075
3 0.875 1.075
3.125 0.875 1.075
3.25 0.875 1.075
3.375 0.875 1.075
3.5 0.875 1.075
3.625 0.875 1.075
3.75 0.875 1.075
3.875 0.875 1.075
4 0.875 1.075
0 1 1.075
0.125 1 1.075
0.25 1 1.075
0.375 1 1.075
0.5 1 1.075
0.625 1 1.075
0.75 1 1.075
0.875 1 1.075
1 1 1.075
1.125 1 1.075
1.25 1 1.075
1.375 1 1.075
1.5 1 1.075
1.625 1 1.075
1.75 1 1.075
1.875 1 1.075
2 1 1.075
2.125 1 1.075
2.25 1 1.075
2.375 1 1.075
2.5 1 1.075
2.625 1 1.075
2.75 1 1.075
2.875 1 1.075
3 1 1.075
3.125 1 1.075
3.25 1 1.075
3.375 1 1.075
3.5 1 1.075
3.625 1 1.075
3.75 1 1.075
3.875 1 1.075
4 1 1.075
0 0 1.2
0.125 0 1.2
0.25 0 1.2
0.375 0 1.2
0.5 0 1.2
0.625 0 1.2
0.75 0 1.2
0.875 0 1.2
1 0 1.2
1.125 0 1.2
1.25 0 1.2
1.375 0 1.2
1.5 0 1.2
1.625 0 1.2
1.75 0 1.2
1.875 0 1.2
2 0 1.2
2.125 0 1.2
2.25 0 1.2
2.375 0 1.2
2.5 0 1.2
2.625 0 1.2
2.75 0 1.2
2.875 0 1.2
3 0 1.2
3.125 0 1.2
3.25 0 1.2
3.375 0 1.2
3.5 0 1.2
3.625 0 1.2
3.75 0 1.2
3.875 0 1.2
4 0 1.2
0 0.125 1.2
0.125 0.125 1.2
0.25 0.125 1.2
0.375 0.125 1.2
0.5 0.125 1.2
0.625 0.125 1.2
0.75 0.125 1.2
0.875 0.125 1.2
1 0.125 1.2
1.125 0.125 1.2
1.25 0.125 1.2
1.375 0.125 1.2
1.5 0.125 1.2
1.625 0.125 1.2
1.75 0.125 1.2
1.875 0.125 1.2
2 0.125 1.2
2.125 0.125 1.2
2.25 0.125 1.2
2.375 0.125 1.2
2.5 0.125 1.2
2.625 0.125 1.2
2.75 0.125 1.2
2.875 0.125 1.2
3 0.125 1.2
3.125 0.125 1.2
3.25 0.125 1.2
3.375 0.125 1.2
3.5 0.125 1.2
3.625 0.125 1.2
3.75 0.125 1.2
3.875 0.125 1.2
4 0.125 1.2
0 0.25 1.2
0.125 0.25 1.2
0.25 0.25 1.2
0.375 0.25 1.2
0.5 0.25 1.2
0.625 0.25 1.2
0.75 0.25 1.2
0.875 0.25 1.2
1 0.25 1.2
1.125 0.25 1.2
1.25 0.25 1.2
1.375 0.25 1.2
1.5 0.25 1.2
1.625 0.25 1.2
1.75 0.25 1.2
1.875 0.25 1.2
2 0.25 1.2
2.125 0.25 1.2
2.25 0.25 1.2
2.375 0.25 1.2
2.5 0.25 1.2
2.625 0.25 1.2
2.75 0.25 1.2
2.875 0.25 1.2
3 0.25 1.2
3.125 0.25 1.2
3.25 0.25 1.2
3.375 0.25 1.2
3.5 0.25 1.2
3.625 0.25 1.2
3.75 0.25 1.2
3.875 0.25 1.2
4 0.25 1.2
0 0.375 1.2
0.125 0.375 1.2
0.25 0.375 1.2
0.375 0.375 1.2
0.5 0.375 1.2
0.625 0.375 1.2
0.75 0.375 1.2
0.875 0.375 1.2
1 0.375 1.2
1.125 0.375 1.2
1.25 0.375 1.2
1.375 0.375 1.2
1.5 0.375 1.2
1.625 0.375 1.2
1.75 0.375 1.2
1.875 0.375 1.2
2 0.375 1.2
2.125 0.375 1.2
2.25 0.375 1.2
2.375 0.375 1.2
2.5 0.375 1.2
2.625 0.375 1.2
2.75 0.375 1.2
2.875 0.375 1.2
3 0.375 1.2
3.125 0.375 1.2
3.25 0.375 1.2
3.375 0.375 1.2
3.5 0.375 1.2
3.625 0.375 1.2
3.75 0.375 1.2
3.875 0.375 1.2
4 0.375 1.2
0 0.5 1.2
0.125 0.5 1.2
0.25 0.5 1.2
0.375 0.5 1.2
0.5 0.5 1.2
0.625 0.5 1.2
0.75 0.5 1.2
0.875 0.5 1.2
1 0.5 1.2
1.125 0.5 1.2
1.25 0.5 1.2
1.375 0.5 1.2
1.5 0.5 1.2
1.625 0.5 1.2
1.75 0.5 1.2
1.875 0.5 1.2
2 0.5 1.2
2.125 0.5 1.2
2.25 0.5 1.2
2.375 0.5 1.2
2.5 0.5 1.2
2.625 0.5 1.2
2.75 0.5 1.2
2.875 0.5 1.2
3 0.5 1.2
3.125 0.5 1.2
3.25 0.5 1.2
3.375 0.5 1.2
3.5 0.5 1.2
3.625 0.5 1.2
3.75 0.5 1.2
3.875 0.5 1.2
4 0.5 1.2
0 0.625 1.2
0.125 0.625 1.2
0.25 0.625 1.2
0.375 0.625 1.2
0.5 0.625 1.2
0.625 0.625 1.2
0.75 0.625 1.2
0.875 0.625 1.2
1 0.625 1.2
1.125 0.625 1.2
1.25 0.625 1.2
1.375 0.625 1.2
1.5 0.625 1.2
1.625 0.625 1.2
1.75 0.625 1.2
1.875 0.625 1.2
2 0.625 1.2
2.125 0.625 1.2
2.25 0.625 1.2
2.375 0.625 1.2
2.5 0.625 1.2
2.625 0.625 1.2
2.75 0.625 1.2
2.875 0.625 1.2
3 0.625 1.2
3.125 0.625 1.2
3.25 0.625 1.2
3.375 0.625 1.2
3.5 0.625 1.2
3.625 0.625 1.2
3.75 0.625 1.2
3.875 0.625 1.2
4 0.625 1.2
0 0.75 1.2
0.125 0.75 1.2
0.25 0.75 1.2
0.375 0.75 1.2
0.5 0.75 1.2
0.625 0.75 1.2
0.75 0.75 1.2
0.875 0.75 1.2
1 0.75 1.2
1.125 0.75 1.2
1.25 0.75 1.2
1.375 0.75 1.2
1.5 0.75 1.2
1.625 0.75 1.2
1.75 0.75 1.2
1.875 0.75 1.2
2 0.75 1.2
2.125 0.75 1.2
2.25 0.75 1.2
2.375 0.75 1.2
2.5 0.75 1.2
2.625 0.75 1.2
2.75 0.75 1.2
2.875 0.75 1.2
3 0.75 1.2
3.125 0.75 1.2
3.25 0.75 1.2
3.375 0.75 1.2
3.5 0.75 1.2
3.625 0.75 1.2
3.75 0.75 1.2
3.875 0.75 1.2
4 0.75 1.2
0 0.875 1.2
0.125 0.875 1.2
0.25 0.875 1.2
0.375 0.875 1.2
0.5 0.875 1.2
0.625 0.875 1.2
0.75 0.875 1.2
0.875 0.875 1.2
1 0.875 1.2
1.125 0.875 1.2
1.25 0.875 1.2
1.375 0.875 1.2
1.5 0.875 1.2
1.625 0.875 1.2
1.75 0.875 1.2
1.875 0.875 1.2
2 0.875 1.2
2.125 0.875 1.2
2.25 0.875 1.2
2.375 0.875 1.2
2.5 0.875 1.2
2.625 0.875 1.2
2.75 0.875 1.2
2.875 0.875 1.2
3 0.875 1.2
3.125 0.875 1.2
3.25 0.875 1.2
3.375 0.875 1.2
3.5 0.875 1.2
3.625 0.875 1.2
3.75 0.875 1.2
3.875 0.875 1.2
4 0.875 1.2
0 1 1.2
0.125 1 1.2
0.25 1 1.2
0.375 1 1.2
0.5 1 1.2
0.625 1 1.2
0.75 1 1.2
0.875 1 1.2
1 1 1.2
1.125 1 1.2
1.25 1 1.2
1.375 1 1.2
1.5 1 1.2
1.625 1 1.2
1.75 1 1.2
1.875 1 1.2
2 1 1.2
2.125 1 1.2
2.25 1 1.2
2.375 1 1.2
2.5 1 1.2
2.625 1 1.2
2.75 1 1.2
2.875 1 1.2
3 1 1.2
3.125 1 1.2
3.25 1 1.2
3.375 1 1.2
3.5 1 1.2
3.625 1 1.2
3.75 1 1.2
3.875 1 1.2
4 1 1.2
0 0 1.325
0.125 0 1.325
0.25 0 1.325
0.375 0 1.325
0.5 0 1.325
0.625 0 1.325
0.75 0 1.325
0.875 0 1.325
1 0 1.325
1.125 0 1.325
1.25 0 1.325
1.375 0 1.325
1.5 0 1.325
1.625 0 1.325
1.75 0 1.325
1.875 0 1.325
2 0 1.325
2.125 0 1.325
2.25 0 1.325
2.375 0 1.325
2.5 0 1.325
2.625 0 1.325
2.75 0 1.325
2.875 0 1.325
3 0 1.325
3.125 0 1.325
3.25 0 1.325
3.375 0 1.325
3.5 0 1.325
3.625 0 1.325
3.75 0 1.325
3.875 0 1.325
4 0 1.325
0 0.125 1.325
0.125 0.125 1.325
0.25 0.125 1.325
0.375 0.125 1.325
0.5 0.125 1.325
0.625 0.125 1.325
0.75 0.125 1.325
0.875 0.125 1.325
1 0.125 1.325
1.125 0.125 1.325
1.25 0.125 1.325
1.375 0.125 1.325
1.5 0.125 1.325
1.625 0.125 1.325
1.75 0.125 1.325
1.875 0.125 1.325
2 0.125 1.325
2.125 0.125 1.325
2.25 0.125 1.325
2.375 0.125 1.325
2.5 0.125 1.325
2.625 0.125 1.325
2.75 0.125 1.325
2.875 0.125 1.325
3 0.125 1.325
3.125 0.125 1.325
3.25 0.125 1.325
3.375 0.125 1.325
3.5 0.125 1.325
3.625 0.125 1.325
3.75 0.125 1.325
3.875 0.125 1.325
4 0.125 1.325
0 0.25 1.325
0.125 0.25 1.325
0.25 0.25 1.325
0.375 0.25 1.325
0.5 0.25 1.325
0.625 0.25 1.325
0.75 0.25 1.325
0.875 0.25 1.325
1 0.25 1.325
1.125 0.25 1.325
1.25 0.25 1.325
1.375 0.25 1.325
1.5 0.25 1.325
1.625 0.25 1.325
1.75 0.25 1.325
1.875 0.25 1.325
2 0.25 1.325
2.125 0.25 1.325
2.25 0.25 1.325
2.375 0.25 1.325
2.5 0.25 1.325
2.625 0.25 1.325
2.75 0.25 1.325
2.875 0.25 1.325
3 0.25 1.325
3.125 0.25 1.325
3.25 0.25 1.325
3.375 0.25 1.325
3.5 0.25 1.325
3.625 0.25 1.325
3.75 0.25 1.325
3.875 0.25 1.325
4 0.25 1.325
0 0.375 1.325
0.125 0.375 1.325
0.25 0.375 1.325
0.375 0.375 1.325
0.5 0.375 1.325
0.625 0.375 1.325
0.75 0.375 1.325
0.875 0.375 1.325
1 0.375 1.325
1.125 0.375 1.325
1.25 0.375 1.325
1.375 0.375 1.325
1.5 0.375 1.325
1.625 0.375 1.325
1.75 0.375 1.325
1.875 0.375 1.325
2 0.375 1.325
2.125 0.375 1.325
2.25 0.375 1.325
2.375 0.375 1.325
2.5 0.375 1.325
2.625 0.375 1.325
2.75 0.375 1.325
2.875 0.375 1.325
3 0.375 1.325
3.125 0.375 1.325
3.25 0.375 1.325
3.375 0.375 1.325
3.5 0.375 1.325
3.625 0.375 1.325
3.75 0.375 1.325
3.875 0.375 1.325
4 0.375 1.325
0 0.5 1.325
0.125 0.5 1.325
0.25 0.5 1.325
0.375 0.5 1.325
0.5 0.5 1.325
0.625 0.5 1.325
0.75 0.5 1.325
0.875 0.5 1.325
1 0.5 1.325
1.125 0.5 1.325
1.25 0.5 1.325
1.375 0.5 1.325
1.5 0.5 1.325
1.625 0.5 1.325
1.75 0.5 1.325
1.875 0.5 1.325
2 0.5 1.325
2.125 0.5 1.325
2.25 0.5 1.325
2.375 0.5 1.325
2.5 0.5 1.325
2.625 0.5 1.325
2.75 0.5 1.325
2.875 0.5 1.325
3 0.5 1.325
3.125 0.5 1.325
3.25 0.5 1.325
3.375 0.5 1.325
3.5 0.5 1.325
3.625 0.5 1.325
3.75 0.5 1.325
3.875 0.5 1.325
4 0.5 1.325
0 0.625 1.325
0.125 0.625 1.325
0.25 0.625 1.325
0.375 0.625 1.325
0.5 0.625 1.325
0.625 0.625 1.325
0.75 0.625 1.325
0.875 0.625 1.325
1 0.625 1.325
1.125 0.625 1.325
1.25 0.625 1.325
1.375 0.625 1.325
1.5 0.625 1.325
1.625 0.625 1.325
1.75 0.625 1.325
1.875 0.625 1.325
2 0.625 1.325
2.125 0.625 1.325
2.25 0.625 1.325
2.375 0.625 1.325
2.5 0.625 1.325
2.625 0.625 1.325
2.75 0.625 1.325
2.875 0.625 1.325
3 0.625 1.325
3.125 0.625 1.325
3.25 0.625 1.325
3.375 0.625 1.325
3.5 0.625 1.325
3.625 0.625 1.325
3.75 0.625 1.325
3.875 0.625 1.325
4 0.625 1.325
0 0.75 1.325
0.125 0.75 1.325
0.25 0.75 1.325
0.375 0.75 1.325
0.5 0.75 1.325
0.625 0.75 1.325
0.75 0.75 1.325
0.875 0.75 1.325
1 0.75 1.325
1.125 0.75 1.325
1.25 0.75 1.325
1.375 0.75 1.325
1.5 0.75 1.325
1.625 0.75 1.325
1.75 0.75 1.325
1.875 0.75 1.325
2 0.75 1.325
2.125 0.75 1.325
2.25 0.75 1.325
2.375 0.75 1.325
2.5 0.75 1.325
2.625 0.75 1.325
2.75 0.75 1.325
2.875 0.75 1.325
3 0.75 1.325
3.125 0.75 1.325
3.25 0.75 1.325
3.375 0.75 1.325
3.5 0.75 1.325
3.625 0.75 1.325
3.75 0.75 1.325
3.875 0.75 1.325
4 0.75 1.325
0 0.875 1.325
0.125 0.875 1.325
0.25 0.875 1.325
0.375 0.875 1.325
0.5 0.875 1.325
0.625 0.875 1.325
0.75 0.875 1.325
0.875 0.875 1.325
1 0.875 1.325
1.125 0.875 1.325
1.25 0.875 1.325
1.375 0.875 1.325
1.5 0.875 1.325
1.625 0.875 1.325
1.75 0.875 1.325
1.875 0.875 1.325
2 0.875 1.325
2.125 0.875 1.325
2.25 0.875 1.325
2.375 0.875 1.325
2.5 0.875 1.325
2.625 0.875 1.325
2.75 0.875 1.325
2.875 0.875 1.325
3 0.875 1.325
3.125 0.875 1.325
3.25 0.875 1.325
3.375 0.875 1.325
3.5 0.875 1.325
3.625 0.875 1.325
3.75 0.875 1.325
3.875 0.875 1.325
4 0.875 1.325
0 1 1.325
0.125 1 1.325
0.25 1 1.325
0.375 1 1.325
0.5 1 1.325
0.625 1 1.325
0.75 1 1.325
0.875 1 1.325
1 1 1.325
1.125 1 1.325
1.25 1 1.325
1.375 1 1.325
1.5 1 1.325
1.625 1 1.325
1.75 1 1.325
1.875 1 1.325
2 1 1.325
2.125 1 1.325
2.25 1 1.325
2.375 1 1.325
2.5 1 1.325
2.625 1 1.325
2.75 1 1.325
2.875 1 1.325
3 1 1.325
3.125 1 1.325
3.25 1 1.325
3.375 1 1.325
3.5 1 1.325
3.625 1 1.325
3.75 1 1.325
3.875 1 1.325
4 1 1.325
0 0 1.45
0.125 0 1.45
0.25 0 1.45
0.375 0 1.45
0.5 0 1.45
0.625 0 1.45
0.75 0 1.45
0.875 0 1.45
1 0 1.45
1.125 0 1.45
1.25 0 1.45
1.375 0 1.45
1.5 0 1.45
1.625 0 1.45
1.75 0 1.45
1.875 0 1.45
2 0 1.45
2.125 0 1.45
2.25 0 1.45
2.375 0 1.45
2.5 0 1.45
2.625 0 1.45
2.75 0 1.45
2.875 0 1.45
3 0 1.45
3.125 0 1.45
3.25 0 1.45
3.375 0 1.45
3.5 0 1.45
3.625 0 1.45
3.75 0 1.45
3.875 0 1.45
4 0 1.45
0 0.125 1.45
0.125 0.125 1.45
0.25 0.125 1.45
0.375 0.125 1.45
0.5 0.125 1.45
0.625 0.125 1.45
0.75 0.125 1.45
0.875 0.125 1.45
1 0.125 1.45
1.125 0.125 1.45
1.25 0.125 1.45
1.375 0.125 1.45
1.5 0.125 1.45
1.625 0.125 1.45
1.75 0.125 1.45
1.875 0.125 1.45
2 0.125 1.45
2.125 0.125 1.45
2.25 0.125 1.45
2.375 0.125 1.45
2.5 0.125 1.45
2.625 0.125 1.45
2.75 0.125 1.45
2.875 0.125 1.45
3 0.125 1.45
3.125 0.125 1.45
3.25 0.125 1.45
3.375 0.125 1.45
3.5 0.125 1.45
3.625 0.125 1.45
3.75 0.125 1.45
3.875 0.125 1.45
4 0.125 1.45
0 0.25 1.45
0.125 0.25 1.45
0.25 0.25 1.45
0.375 0.25 1.45
0.5 0.25 1.45
0.625 0.25 1.45
0.75 0.25 1.45
0.875 0.25 1.45
1 0.25 1.45
1.125 0.25 1.45
1.25 0.25 1.45
1.375 0.25 1.45
1.5 0.25 1.45
1.625 0.25 1.45
1.75 0.25 1.45
1.875 0.25 1.45
2 0.25 1.45
2.125 0.25 1.45
2.25 0.25 1.45
2.375 0.25 1.45
2.5 0.25 1.45
2.625 0.25 1.45
2.75 0.25 1.45
2.875 0.25 1.45
3 0.25 1.45
3.125 0.25 1.45
3.25 0.25 1.45
3.375 0.25 1.45
3.5 0.25 1.45
3.625 0.25 1.45
3.75 0.25 1.45
3.875 0.25 1.45
4 0.25 1.45
0 0.375 1.45
0.125 0.375 1.45
0.25 0.375 1.45
0.375 0.375 1.45
0.5 0.375 1.45
0.625 0.375 1.45
0.75 0.375 1.45
0.875 0.375 1.45
1 0.375 1.45
1.125 0.375 1.45
1.25 0.375 1.45
1.375 0.375 1.45
1.5 0.375 1.45
1.625 0.375 1.45
1.75 0.375 1.45
1.875 0.375 1.45
2 0.375 1.45
2.125 0.375 1.45
2.25 0.375 1.45
2.375 0.375 1.45
2.5 0.375 1.45
2.625 0.375 1.45
2.75 0.375 1.45
2.875 0.375 1.45
3 0.375 1.45
3.125 0.375 1.45
3.25 0.375 1.45
3.375 0.375 1.45
3.5 0.375 1.45
3.625 0.375 1.45
3.75 0.375 1.45
3.875 0.375 1.45
4 0.375 1.45
0 0.5 1.45
0.125 0.5 1.45
0.25 0.5 1.45
0.375 0.5 1.45
0.5 0.5 1.45
0.625 0.5 1.45
0.75 0.5 1.45
0.875 0.5 1.45
1 0.5 1.45
1.125 0.5 1.45
1.25 0.5 1.45
1.375 0.5 1.45
1.5 0.5 1.45
1.625 0.5 1.45
1.75 0.5 1.45
1.875 0.5 1.45
2 0.5 1.45
2.125 0.5 1.45
2.25 0.5 1.45
2.375 0.5 1.45
2.5 0.5 1.45
2.625 0.5 1.45
2.75 0.5 1.45
2.875 0.5 1.45
3 0.5 1.45
3.125 0.5 1.45
3.25 0.5 1.45
3.375 0.5 1.45
3.5 0.5 1.45
3.625 0.5 1.45
3.75 0.5 1.45
3.875 0.5 1.45
4 0.5 1.45
0 0.625 1.45
0.125 0.625 1.45
0.25 0.625 1.45
0.375 0.625 1.45
0.5 0.625 1.45
0.625 0.625 1.45
0.75 0.625 1.45
0.875 0.625 1.45
1 0.625 1.45
1.125 0.625 1.45
1.25 0.625 1.45
1.375 0.625 1.45
1.5 0.625 1.45
1.625 0.625 1.45
1.75 0.625 1.45
1.875 0.625 1.45
2 0.625 1.45
2.125 0.625 1.45
2.25 0.625 1.45
2.375 0.625 1.45
2.5 0.625 1.45
2.625 0.625 1.45
2.75 0.625 1.45
2.875 0.625 1.45
3 0.625 1.45
3.125 0.625 1.45
3.25 0.625 1.45
3.375 0.625 1.45
3.5 0.625 1.45
3.625 0.625 1.45
3.75 0.625 1.45
3.875 0.625 1.45
4 0.625 1.45
0 0.75 1.45
0.125 0.75 1.45
0.25 0.75 1.45
0.375 0.75 1.45
0.5 0.75 1.45
0.625 0.75 1.45
0.75 0.75 1.45
0.875 0.75 1.45
1 0.75 1.45
1.125 0.75 1.45
1.25 0.75 1.45
1.375 0.75 1.45
1.5 0.75 1.45
1.625 0.75 1.45
1.75 0.75 1.45
1.875 0.75 1.45
2 0.75 1.45
2.125 0.75 1.45
2.25 0.75 1.45
2.375 0.75 1.45
2.5 0.75 1.45
2.625 0.75 1.45
2.75 0.75 1.45
2.875 0.75 1.45
3 0.75 1.45
3.125 0.75 1.45
3.25 0.75 1.45
3.375 0.75 1.45
3.5 0.75 1.45
3.625 0.75 1.45
3.75 0.75 1.45
3.875 0.75 1.45
4 0.75 1.45
0 0.875 1.45
0.125 0.875 1.45
0.25 0.875 1.45
0.375 0.875 1.45
0.5 0.875 1.45
0.625 0.875 1.45
0.75 0.875 1.45
0.875 0.875 1.45
1 0.875 1.45
1.125 0.875 1.45
1.25 0.875 1.45
1.375 0.875 1.45
1.5 0.875 1.45
1.625 0.875 1.45
1.75 0.875 1.45
1.875 0.875 1.45
2 0.875 1.45
2.125 0.875 1.45
2.25 0.875 1.45
2.375 0.875 1.45
2.5 0.875 1.45
2.625 0.875 1.45
2.75 0.875 1.45
2.875 0.875 1.45
3 0.875 1.45
3.125 0.875 1.45
3.25 0.875 1.45
3.375 0.875 1.45
3.5 0.875 1.45
3.625 0.875 1.45
3.75 0.875 1.45
3.875 0.875 1.45
4 0.875 1.45
0 1 1.45
0.125 1 1.45
0.25 1 1.45
0.375 1 1.45
0.5 1 1.45
0.625 1 1.45
0.75 1 1.45
0.875 1 1.45
1 1 1.45
1.125 1 1.45
1.25 1 1.45
1.375 1 1.45
1.5 1 1.45
1.625 1 1.45
1.75 1 1.45
1.875 1 1.45
2 1 1.45
2.125 1 1.45
2.25 1 1.45
2.375 1 1.45
2.5 1 1.45
2.625 1 1.45
2.75 1 1.45
2.875 1 1.45
3 1 1.45
3.125 1 1.45
3.25 1 1.45
3.375 1 1.45
3.5 1 1.45
3.625 1 1.45
3.75 1 1.45
3.875 1 1.45
4 1 1.45
0 0 1.575
0.125 0 1.575
0.25 0 1.575
0.375 0 1.575
0.5 0 1.575
0.625 0 1.575
0.75 0 1.575
0.875 0 1.575
1 0 1.575
1.125 0 1.575
1.25 0 1.575
1.375 0 1.575
1.5 0 1.575
1.625 0 1.575
1.75 0 1.575
1.875 0 1.575
2 0 1.575
2.125 0 1.575
2.25 0 1.575
2.375 0 1.575
2.5 0 1.575
2.625 0 1.575
2.75 0 1.575
2.875 0 1.575
3 0 1.575
3.125 0 1.575
3.25 0 1.575
3.375 0 1.575
3.5 0 1.575
3.625 0 1.575
3.75 0 1.575
3.875 0 1.575
4 0 1.575
0 0.125 1.575
0.125 0.125 1.575
0.25 0.125 1.575
0.375 0.125 1.575
0.5 0.125 1.575
0.625 0.125 1.575
0.75 0.125 1.575
0.875 0.125 1.575
1 0.125 1.575
1.125 0.125 1.575
1.25 0.125 1.575
1.375 0.125 1.575
1.5 0.125 1.575
1.625 0.125 1.575
1.75 0.125 1.575
1.875 0.125 1.575
2 0.125 1.575
2.125 0.125 1.575
2.25 0.125 1.575
2.375 0.125 1.575
2.5 0.125 1.575
2.625 0.125 1.575
2.75 0.125 1.575
2.875 0.125 1.575
3 0.125 1.575
3.125 0.125 1.575
3.25 0.125 1.575
3.375 0.125 1.575
3.5 0.125 1.575
3.625 0.125 1.575
3.75 0.125 1.575
3.875 0.125 1.575
4 0.125 1.575
0 0.25 1.575
0.125 0.25 1.575
0.25 0.25 1.575
0.375 0.25 1.575
0.5 0.25 1.575
0.625 0.25 1.575
0.75 0.25 1.575
0.875 0.25 1.575
1 0.25 1.575
1.125 0.25 1.575
1.25 0.25 1.575
1.375 0.25 1.575
1.5 0.25 1.575
1.625 0.25 1.575
1.75 0.25 1.575
1.875 0.25 1.575
2 0.25 1.575
2.125 0.25 1.575
2.25 0.25 1.575
2.375 0.25 1.575
2.5 0.25 1.575
2.625 0.25 1.575
2.75 0.25 1.575
2.875 0.25 1.575
3 0.25 1.575
3.125 0.25 1.575
3.25 0.25 1.575
3.375 0.25 1.575
3.5 0.25 1.575
3.625 0.25 1.575
3.75 0.25 1.575
3.875 0.25 1.575
4 0.25 1.575
0 0.375 1.575
0.125 0.375 1.575
0.25 0.375 1.575
0.375 0.375 1.575
0.5 0.375 1.575
0.625 0.375 1.575
0.75 0.375 1.575
0.875 0.375 1.575
1 0.375 1.575
1.125 0.375 1.575
1.25 0.375 1.575
1.375 0.375 1.575
1.5 0.375 1.575
1.625 0.375 1.575
1.75 0.375 1.575
1.875 0.375 1.575
2 0.375 1.575
2.125 0.375 1.575
2.25 0.375 1.575
2.375 0.375 1.575
2.5 0.375 1.575
2.625 0.375 1.575
2.75 0.375 1.575
2.875 0.375 1.575
3 0.375 1.575
3.125 0.375 1.575
3.25 0.375 1.575
3.375 0.375 1.575
3.5 0.375 1.575
3.625 0.375 1.575
3.75 0.375 1.575
3.875 0.375 1.575
4 0.375 1.575
0 0.5 1.575
0.125 0.5 1.575
0.25 0.5 1.575
0.375 0.5 1.575
0.5 0.5 1.575
0.625 0.5 1.575
0.75 0.5 1.575
0.875 0.5 1.575
1 0.5 1.575
1.125 0.5 1.575
1.25 0.5 1.575
1.375 0.5 1.575
1.5 0.5 1.575
1.625 0.5 1.575
1.75 0.5 1.575
1.875 0.5 1.575
2 0.5 1.575
2.125 0.5 1.575
2.25 0.5 1.575
2.375 0.5 1.575
2.5 0.5 1.575
2.625 0.5 1.575
2.75 0.5 1.575
2.875 0.5 1.575
3 0.5 1.575
3.125 0.5 1.575
3.25 0.5 1.575
3.375 0.5 1.575
3.5 0.5 1.575
3.625 0.5 1.575
3.75 0.5 1.575
3.875 0.5 1.575
4 0.5 1.575
0 0.625 1.575
0.125 0.625 1.575
0.25 0.625 1.575
0.375 0.625 1.575
0.5 0.625 1.575
0.625 0.625 1.575
0.75 0.625 1.575
0.875 0.625 1.575
1 0.625 1.575
1.125 0.625 1.575
1.25 0.625 1.575
1.375 0.625 1.575
1.5 0.625 1.575
1.625 0.625 1.575
1.75 0.625 1.575
1.875 0.625 1.575
2 0.625 1.575
2.125 0.625 1.575
2.25 0.625 1.575
2.375 0.625 1.575
2.5 0.625 1.575
2.625 0.625 1.575
2.75 0.625 1.575
2.875 0.625 1.575
3 0.625 1.575
3.125 0.625 1.575
3.25 0.625 1.575
3.375 0.625 1.575
3.5 0.625 1.575
3.625 0.625 1.575
3.75 0.625 1.575
3.875 0.625 1.575
4 0.625 1.575
0 0.75 1.575
0.125 0.75 1.575
0.25 0.75 1.575
0.375 0.75 1.575
0.5 0.75 1.575
0.625 0.75 1.575
0.75 0.75 1.575
0.875 0.75 1.575
1 0.75 1.575
1.125 0.75 1.575
1.25 0.75 1.575
1.375 0.75 1.575
1.5 0.75 1.575
1.625 0.75 1.575
1.75 0.75 1.575
1.875 0.75 1.575
2 0.75 1.575
2.125 0.75 1.575
2.25 0.75 1.575
2.375 0.75 1.575
2.5 0.75 1.575
2.625 0.75 1.575
2.75 0.75 1.575
2.875 0.75 1.575
3 0.75 1.575
3.125 0.75 1.575
3.25 0.75 1.575
3.375 0.75 1.575
3.5 0.75 1.575
3.625 0.75 1.575
3.75 0.75 1.575
3.875 0.75 1.575
4 0.75 1.575
0 0.875 1.575
0.125 0.875 1.575
0.25 0.875 1.575
0.375 0.875 1.575
0.5 0.875 1.575
0.625 0.875 1.575
0.75 0.875 1.575
0.875 0.875 1.575
1 0.875 1.575
1.125 0.875 1.575
1.25 0.875 1.575
1.375 0.875 1.575
1.5 0.875 1.575
1.625 0.875 1.575
1.75 0.875 1.575
1.875 0.875 1.575
2 0.875 1.575
2.125 0.875 1.575
2.25 0.875 1.575
2.375 0.875 1.575
2.5 0.875 1.575
2.625 0.875 1.575
2.75 0.875 1.575
2.875 0.875 1.575
3 0.875 1.575
3.125 0.875 1.575
3.25 0.875 1.575
3.375 0.875 1.575
3.5 0.875 1.575
3.625 0.875 1.575
3.75 0.875 1.575
3.875 0.875 1.575
4 0.875 1.575
0 1 1.575
0.125 1 1.575
0.25 1 1.575
0.375 1 1.575
0.5 1 1.575
0.625 1 1.575
0.75 1 1.575
0.875 1 1.575
1 1 1.575
1.125 1 1.575
1.25 1 1.575
1.375 1 1.575
1.5 1 1.575
1.625 1 1.575
1.75 1 1.575
1.875 1 1.575
2 1 1.575
2.125 1 1.575
2.25 1 1.575
2.375 1 1.575
2.5 1 1.575
2.625 1 1.575
2.75 1 1.575
2.875 1 1.575
3 1 1.575
3.125 1 1.575
3.25 1 1.575
3.375 1 1.575
3.5 1 1.575
3.625 1 1.575
3.75 1 1.575
3.875 1 1.575
4 1 1.575
0 0 1.7
0.125 0 1.7
0.25 0 1.7
0.375 0 1.7
0.5 0 1.7
0.625 0 1.7
0.75 0 1.7
0.875 0 1.7
1 0 1.7
1.125 0 1.7
1.25 0 1.7
1.375 0 1.7
1.5 0 1.7
1.625 0 1.7
1.75 0 1.7
1.875 0 1.7
2 0 1.7
2.125 0 1.7
2.25 0 1.7
2.375 0 1.7
2.5 0 1.7
2.625 0 1.7
2.75 0 1.7
2.875 0 1.7
3 0 1.7
3.125 0 1.7
3.25 0 1.7
3.375 0 1.7
3.5 0 1.7
3.625 0 1.7
3.75 0 1.7
3.875 0 1.7
4 0 1.7
0 0.125 1.7
0.125 0.125 1.7
0.25 0.125 1.7
0.375 0.125 1.7
0.5 0.125 1.7
0.625 0.125 1.7
0.75 0.125 1.7
0.875 0.125 1.7
1 0.125 1.7
1.125 0.125 1.7
1.25 0.125 1.7
1.375 0.125 1.7
1.5 0.125 1.7
1.625 0.125 1.7
1.75 0.125 1.7
1.875 0.125 1.7
2 0.125 1.7
2.125 0.125 1.7
2.25 0.125 1.7
2.375 0.125 1.7
2.5 0.125 1.7
2.625 0.125 1.7
2.75 0.125 1.7
2.875 0.125 1.7
3 0.125 1.7
3.125 0.125 1.7
3.25 0.125 1.7
3.375 0.125 1.7
3.5 0.125 1.7
3.625 0.125 1.7
3.75 0.125 1.7
3.875 0.125 1.7
4 0.125 1.7
0 0.25 1.7
0.125 0.25 1.7
0.25 0.25 1.7
0.375 0.25 1.7
0.5 0.25 1.7
0.625 0.25 1.7
0.75 0.25 1.7
0.875 0.25 1.7
1 0.25 1.7
1.125 0.25 1.7
1.25 0.25 1.7
1.375 0.25 1.7
1.5 0.25 1.7
1.625 0.25 1.7
1.75 0.25 1.7
1.875 0.25 1.7
2 0.25 1.7
2.125 0.25 1.7
2.25 0.25 1.7
2.375 0.25 1.7
2.5 0.25 1.7
2.625 0.25 1.7
2.75 0.25 1.7
2.875 0.25 1.7
3 0.25 1.7
3.125 0.25 1.7
3.25 0.25 1.7
3.375 0.25 1.7
3.5 0.25 1.7
3.625 0.25 1.7
3.75 0.25 1.7
3.875 0.25 1.7
4 0.25 1.7
0 0.375 1.7
0.125 0.375 1.7
0.25 0.375 1.7
0.375 0.375 1.7
0.5 0.375 1.7
0.625 0.375 1.7
0.75 0.375 1.7
0.875 0.375 1.7
1 0.375 1.7
1.125 0.375 1.7
1.25 0.375 1.7
1.375 0.375 1.7
1.5 0.375 1.7
1.625 0.375 1.7
1.75 0.375 1.7
1.875 0.375 1.7
2 0.375 1.7
2.125 0.375 1.7
2.25 0.375 1.7
2.375 0.375 1.7
2.5 0.375 1.7
2.625 0.375 1.7
2.75 0.375 1.7
2.875 0.375 1.7
3 0.375 1.7
3.125 0.375 1.7
3.25 0.375 1.7
3.375 0.375 1.7
3.5 0.375 1.7
3.625 0.375 1.7
3.75 0.375 1.7
3.875 0.375 1.7
4 0.375 1.7
0 0.5 1.7
0.125 0.5 1.7
0.25 0.5 1.7
0.375 0.5 1.7
0.5 0.5 1.7
0.625 0.5 1.7
0.75 0.5 1.7
0.875 0.5 1.7
1 0.5 1.7
1.125 0.5 1.7
1.25 0.5 1.7
1.375 0.5 1.7
1.5 0.5 1.7
1.625 0.5 1.7
1.75 0.5 1.7
1.875 0.5 1.7
2 0.5 1.7
2.125 0.5 1.7
2.25 0.5 1.7
2.375 0.5 1.7
2.5 0.5 1.7
2.625 0.5 1.7
2.75 0.5 1.7
2.875 0.5 1.7
3 0.5 1.7
3.125 0.5 1.7
3.25 0.5 1.7
3.375 0.5 1.7
3.5 0.5 1.7
3.625 0.5 1.7
3.75 0.5 1.7
3.875 0.5 1.7
4 0.5 1.7
0 0.625 1.7
0.125 0.625 1.7
0.25 0.625 1.7
0.375 0.625 1.7
0.5 0.625 1.7
0.625 0.625 1.7
0.75 0.625 1.7
0.875 0.625 1.7
1 0.625 1.7
1.125 0.625 1.7
1.25 0.625 1.7
1.375 0.625 1.7
1.5 0.625 1.7
1.625 0.625 1.7
1.75 0.625 1.7
1.875 0.625 1.7
2 0.625 1.7
2.125 0.625 1.7
2.25 0.625 1.7
2.375 0.625 1.7
2.5 0.625 1.7
2.625 0.625 1.7
2.75 0.625 1.7
2.875 0.625 1.7
3 0.625 1.7
3.125 0.625 1.7
3.25 0.625 1.7
3.375 0.625 1.7
3.5 0.625 1.7
3.625 0.625 1.7
3.75 0.625 1.7
3.875 0.625 1.7
4 0.625 1.7
0 0.75 1.7
0.125 0.75 1.7
0.25 0.75 1.7
0.375 0.75 1.7
0.5 0.75 1.7
0.625 0.75 1.7
0.75 0.75 1.7
0.875 0.75 1.7
1 0.75 1.7
1.125 0.75 1.7
1.25 0.75 1.7
1.375 0.75 1.7
1.5 0.75 1.7
1.625 0.75 1.7
1.75 0.75 1.7
1.875 0.75 1.7
2 0.75 1.7
2.125 0.75 1.7
2.25 0.75 1.7
2.375 0.75 1.7
2.5 0.75 1.7
2.625 0.75 1.7
2.75 0.75 1.7
2.875 0.75 1.7
3 0.75 1.7
3.125 0.75 1.7
3.25 0.75 1.7
3.375 0.75 1.7
3.5 0.75 1.7
3.625 0.75 1.7
3.75 0.75 1.7
3.875 0.75 1.7
4 0.75 1.7
0 0.875 1.7
0.125 0.875 1.7
0.25 0.875 1.7
0.375 0.875 1.7
0.5 0.875 1.7
0.625 0.875 1.7
0.75 0.875 1.7
0.875 0.875 1.7
1 0.875 1.7
1.125 0.875 1.7
1.25 0.875 1.7
1.375 0.875 1.7
1.5 0.875 1.7
1.625 0.875 1.7
1.75 0.875 1.7
1.875 0.875 1.7
2 0.875 1.7
2.125 0.875 1.7
2.25 0.875 1.7
2.375 0.875 1.7
2.5 0.875 1.7
2.625 0.875 1.7
2.75 0.875 1.7
2.875 0.875 1.7
3 0.875 1.7
3.125 0.875 1.7
3.25 0.875 1.7
3.375 0.875 1.7
3.5 0.875 1.7
3.625 0.875 1.7
3.75 0.875 1.7
3.875 0.875 1.7
4 0.875 1.7
0 1 1.7
0.125 1 1.7
0.25 1 1.7
0.375 1 1.7
0.5 1 1.7
0.625 1 1.7
0.75 1 1.7
0.875 1 1.7
1 1 1.7
1.125 1 1.7
1.25 1 1.7
1.375 1 1.7
1.5 1 1.7
1.625 1 1.7
1.75 1 1.7
1.875 1 1.7
2 1 1.7
2.125 1 1.7
2.25 1 1.7
2.375 1 1.7
2.5 1 1.7
2.625 1 1.7
2.75 1 1.7
2.875 1 1.7
3 1 1.7
3.125 1 1.7
3.25 1 1.7
3.375 1 1.7
3.5 1 1.7
3.625 1 1.7
3.75 1 1.7
3.875 1 1.7
4 1 1.7
0 0.0625 0.7
0.0625 0.125 0.7625
0.0625 0.0625 0.7625
0.0625 0.0625 0.7
0.0625 0.125 0.7
0.125 0.125 0.7625
0.0625 0.0625 0.825
0.125 0.0625 0.825
0.0625 0 0.825
0 0 0.7625
0.0625 0 0.7625
0 0.125 0.7625
0 0.0625 0.7625
0.0625 0.125 0.825
0 0.0625 0.825
0.125 0 0.7625
0.0625 0 0.7
0.125 0.0625 0.7625
0.125 0.0625 0.7
0.1875 0.125 0.7625
0.1875 0.0625 0.7625
0.1875 0.0625 0.7
0.1875 0.125 0.7
0.25 0.125 0.7625
0.1875 0.0625 0.825
0.25 0.0625 0.825
0.1875 0 0.825
0.1875 0 0.7625
0.1875 0.125 0.825
0.25 0 0.7625
0.1875 0 0.7
0.25 0.0625 0.7625
0.25 0.0625 0.7
0.3125 0.125 0.7625
0.3125 0.0625 0.7625
0.3125 0.0625 0.7
0.3125 0.125 0.7
0.375 0.125 0.7625
0.3125 0.0625 0.825
0.375 0.0625 0.825
0.3125 0 0.825
0.3125 0 0.7625
0.3125 0.125 0.825
0.375 0 0.7625
0.3125 0 0.7
0.375 0.0625 0.7625
0.375 0.0625 0.7
0.4375 0.125 0.7625
0.4375 0.0625 0.7625
0.4375 0.0625 0.7
0.4375 0.125 0.7
0.5 0.125 0.7625
0.4375 0.0625 0.825
0.5 0.0625 0.825
0.4375 0 0.825
0.4375 0 0.7625
0.4375 0.125 0.825
0.5 0 0.7625
0.4375 0 0.7
0.5 0.0625 0.7625
0.5 0.0625 0.7
0.5625 0.125 0.7625
0.5625 0.0625 0.7625
0.5625 0.0625 0.7
0.5625 0.125 0.7
0.625 0.125 0.7625
0.5625 0.0625 0.825
0.625 0.0625 0.825
0.5625 0 0.825
0.5625 0 0.7625
0.5625 0.125 0.825
0.625 0 0.7625
0.5625 0 0.7
0.625 0.0625 0.7625
0.625 0.0625 0.7
0.6875 0.125 0.7625
0.6875 0.0625 0.7625
0.6875 0.0625 0.7
0.6875 0.125 0.7
0.75 0.125 0.7625
0.6875 0.0625 0.825
0.75 0.0625 0.825
0.6875 0 0.825
0.6875 0 0.7625
0.6875 0.125 0.825
0.75 0 0.7625
0.6875 0 0.7
0.75 0.0625 0.7625
0.75 0.0625 0.7
0.8125 0.125 0.7625
0.8125 0.0625 0.7625
0.8125 0.0625 0.7
0.8125 0.125 0.7
0.875 0.125 0.7625
0.8125 0.0625 0.825
0.875 0.0625 0.825
0.8125 0 0.825
0.8125 0 0.7625
0.8125 0.125 0.825
0.875 0 0.7625
0.8125 0 0.7
0.875 0.0625 0.7625
0.875 0.0625 0.7
0.9375 0.125 0.7625
0.9375 0.0625 0.7625
0.9375 0.0625 0.7
0.9375 0.125 0.7
1 0.125 0.7625
0.9375 0.0625 0.825
1 0.0625 0.825
0.9375 0 0.825
0.9375 0 0.7625
0.9375 0.125 0.825
1 0 0.7625
0.9375 0 0.7
1 0.0625 0.7625
1 0.0625 0.7
1.0625 0.125 0.7625
1.0625 0.0625 0.7625
1.0625 0.0625 0.7
1.0625 0.125 0.7
1.125 0.125 0.7625
1.0625 0.0625 0.825
1.125 0.0625 0.825
1.0625 0 0.825
1.0625 0 0.7625
1.0625 0.125 0.825
1.125 0 0.7625
1.0625 0 0.7
1.125 0.0625 0.7625
1.125 0.0625 0.7
1.1875 0.125 0.7625
1.1875 0.0625 0.7625
1.1875 0.0625 0.7
1.1875 0.125 0.7
1.25 0.125 0.7625
1.1875 0.0625 0.825
1.25 0.0625 0.825
1.1875 0 0.825
1.1875 0 0.7625
1.1875 0.125 0.825
1.25 0 0.7625
1.1875 0 0.7
1.25 0.0625 0.7625
1.25 0.0625 0.7
1.3125 0.125 0.7625
1.3125 0.0625 0.7625
1.3125 0.0625 0.7
1.3125 0.125 0.7
1.375 0.125 0.7625
1.3125 0.0625 0.825
1.375 0.0625 0.825
1.3125 0 0.825
1.3125 0 0.7625
1.3125 0.125 0.825
1.375 0 0.7625
1.3125 0 0.7
1.375 0.0625 0.7625
1.375 0.0625 0.7
1.4375 0.125 0.7625
1.4375 0.0625 0.7625
1.4375 0.0625 0.7
1.4375 0.125 0.7
1.5 0.125 0.7625
1.4375 0.0625 0.825
1.5 0.0625 0.825
1.4375 0 0.825
1.4375 0 0.7625
1.4375 0.125 0.825
1.5 0 0.7625
1.4375 0 0.7
1.5 0.0625 0.7625
1.5 0.0625 0.7
1.5625 0.125 0.7625
1.5625 0.0625 0.7625
1.5625 0.0625 0.7
1.5625 0.125 0.7
1.625 0.125 0.7625
1.5625 0.0625 0.825
1.625 0.0625 0.825
1.5625 0 0.825
1.5625 0 0.7625
1.5625 0.125 0.825
1.625 0 0.7625
1.5625 0 0.7
1.625 0.0625 0.7625
1.625 0.0625 0.7
1.6875 0.125 0.7625
1.6875 0.0625 0.7625
1.6875 0.0625 0.7
1.6875 0.125 0.7
1.75 0.125 0.7625
1.6875 0.0625 0.825
1.75 0.0625 0.825
1.6875 0 0.825
1.6875 0 0.7625
1.6875 0.125 0.825
1.75 0 0.7625
1.6875 0 0.7
1.75 0.0625 0.7625
1.75 0.0625 0.7
1.8125 0.125 0.7625
1.8125 0.0625 0.7625
1.8125 0.0625 0.7
1.8125 0.125 0.7
1.875 0.125 0.7625
1.8125 0.0625 0.825
1.875 0.0625 0.825
1.8125 0 0.825
1.8125 0 0.7625
1.8125 0.125 0.825
1.875 0 0.7625
1.8125 0 0.7
1.875 0.0625 0.7625
1.875 0.0625 0.7
1.9375 0.125 0.7625
1.9375 0.0625 0.7625
1.9375 0.0625 0.7
1.9375 0.125 0.7
2 0.125 0.7625
1.9375 0.0625 0.825
2 0.0625 0.825
1.9375 0 0.825
1.9375 0 0.7625
1.9375 0.125 0.825
2 0 0.7625
1.9375 0 0.7
2 0.0625 0.7625
2 0.0625 0.7
2.0625 0.125 0.7625
2.0625 0.0625 0.7625
2.0625 0.0625 0.7
2.0625 0.125 0.7
2.125 0.125 0.7625
2.0625 0.0625 0.825
2.125 0.0625 0.825
2.0625 0 0.825
2.0625 0 0.7625
2.0625 0.125 0.825
2.125 0 0.7625
2.0625 0 0.7
2.125 0.0625 0.7625
2.125 0.0625 0.7
2.1875 0.125 0.7625
2.1875 0.0625 0.7625
2.1875 0.0625 0.7
2.1875 0.125 0.7
2.25 0.125 0.7625
2.1875 0.0625 0.825
2.25 0.0625 0.825
2.1875 0 0.825
2.1875 0 0.7625
2.1875 0.125 0.825
2.25 0 0.7625
2.1875 0 0.7
2.25 0.0625 0.7625
2.25 0.0625 0.7
2.3125 0.125 0.7625
2.3125 0.0625 0.7625
2.3125 0.0625 0.7
2.3125 0.125 0.7
2.375 0.125 0.7625
2.3125 0.0625 0.825
2.375 0.0625 0.825
2.3125 0 0.825
2.3125 0 0.7625
2.3125 0.125 0.825
2.375 0 0.7625
2.3125 0 0.7
2.375 0.0625 0.7625
2.375 0.0625 0.7
2.4375 0.125 0.7625
2.4375 0.0625 0.7625
2.4375 0.0625 0.7
2.4375 0.125 0.7
2.5 0.125 0.7625
2.4375 0.0625 0.825
2.5 0.0625 0.825
2.4375 0 0.825
2.4375 0 0.7625
2.4375 0.125 0.825
2.5 0 0.7625
2.4375 0 0.7
2.5 0.0625 0.7625
2.5 0.0625 0.7
2.5625 0.125 0.7625
2.5625 0.0625 0.7625
2.5625 0.0625 0.7
2.5625 0.125 0.7
2.625 0.125 0.7625
2.5625 0.0625 0.825
2.625 0.0625 0.825
2.5625 0 0.825
2.5625 0 0.7625
2.5625 0.125 0.825
2.625 0 0.7625
2.5625 0 0.7
2.625 0.0625 0.7625
2.625 0.0625 0.7
2.6875 0.125 0.7625
2.6875 0.0625 0.7625
2.6875 0.0625 0.7
2.6875 0.125 0.7
2.75 0.125 0.7625
2.6875 0.0625 0.825
2.75 0.0625 0.825
2.6875 0 0.825
2.6875 0 0.7625
2.6875 0.125 0.825
2.75 0 0.7625
2.6875 0 0.7
2.75 0.0625 0.7625
2.75 0.0625 0.7
2.8125 0.125 0.7625
2.8125 0.0625 0.7625
2.8125 0.0625 0.7
2.8125 0.125 0.7
2.875 0.125 0.7625
2.8125 0.0625 0.825
2.875 0.0625 0.825
2.8125 0 0.825
2.8125 0 0.7625
2.8125 0.125 0.825
2.875 0 0.7625
2.8125 0 0.7
2.875 0.0625 0.7625
2.875 0.0625 0.7
2.9375 0.125 0.7625
2.9375 0.0625 0.7625
2.9375 0.0625 0.7
2.9375 0.125 0.7
3 0.125 0.7625
2.9375 0.0625 0.825
3 0.0625 0.825
2.9375 0 0.825
2.9375 0 0.7625
2.9375 0.125 0.825
3 0 0.7625
2.9375 0 0.7
3 0.0625 0.7625
3 0.0625 0.7
3.0625 0.125 0.7625
3.0625 0.0625 0.7625
3.0625 0.0625 0.7
3.0625 0.125 0.7
3.125 0.125 0.7625
3.0625 0.0625 0.825
3.125 0.0625 0.825
3.0625 0 0.825
3.0625 0 0.7625
3.0625 0.125 0.825
3.125 0 0.7625
3.0625 0 0.7
3.125 0.0625 0.7625
3.125 0.0625 0.7
3.1875 0.125 0.7625
3.1875 0.0625 0.7625
3.1875 0.0625 0.7
3.1875 0.125 0.7
3.25 0.125 0.7625
3.1875 0.0625 0.825
3.25 0.0625 0.825
3.1875 0 0.825
3.1875 0 0.7625
3.1875 0.125 0.825
3.25 0 0.7625
3.1875 0 0.7
3.25 0.0625 0.7625
3.25 0.0625 0.7
3.3125 0.125 0.7625
3.3125 0.0625 0.7625
3.3125 0.0625 0.7
3.3125 0.125 0.7
3.375 0.125 0.7625
3.3125 0.0625 0.825
3.375 0.0625 0.825
3.3125 0 0.825
3.3125 0 0.7625
3.3125 0.125 0.825
3.375 0 0.7625
3.3125 0 0.7
3.375 0.0625 0.7625
3.375 0.0625 0.7
3.4375 0.125 0.7625
3.4375 0.0625 0.7625
3.4375 0.0625 0.7
3.4375 0.125 0.7
3.5 0.125 0.7625
3.4375 0.0625 0.825
3.5 0.0625 0.825
3.4375 0 0.825
3.4375 0 0.7625
3.4375 0.125 0.825
3.5 0 0.7625
3.4375 0 0.7
3.5 0.0625 0.7625
3.5 0.0625 0.7
3.5625 0.125 0.7625
3.5625 0.0625 0.7625
3.5625 0.0625 0.7
3.5625 0.125 0.7
3.625 0.125 0.7625
3.5625 0.0625 0.825
3.625 0.0625 0.825
3.5625 0 0.825
3.5625 0 0.7625
3.5625 0.125 0.825
3.625 0 0.7625
3.5625 0 0.7
3.625 0.0625 0.7625
3.625 0.0625 0.7
3.6875 0.125 0.7625
3.6875 0.0625 0.7625
3.6875 0.0625 0.7
3.6875 0.125 0.7
3.75 0.125 0.7625
3.6875 0.0625 0.825
3.75 0.0625 0.825
3.6875 0 0.825
3.6875 0 0.7625
3.6875 0.125 0.825
3.75 0 0.7625
3.6875 0 0.7
3.75 0.0625 0.7625
3.75 0.0625 0.7
3.8125 0.125 0.7625
3.8125 0.0625 0.7625
3.8125 0.0625 0.7
3.8125 0.125 0.7
3.875 0.125 0.7625
3.8125 0.0625 0.825
3.875 0.0625 0.825
3.8125 0 0.825
3.8125 0 0.7625
3.8125 0.125 0.825
3.875 0 0.7625
3.8125 0 0.7
3.875 0.0625 0.7625
3.875 0.0625 0.7
3.9375 0.125 0.7625
3.9375 0.0625 0.7625
3.9375 0.0625 0.7
3.9375 0.125 0.7
4 0.125 0.7625
3.9375 0.0625 0.825
4 0.0625 0.825
3.9375 0 0.825
3.9375 0 0.7625
3.9375 0.125 0.825
4 0 0.7625
3.9375 0 0.7
4 0.0625 0.7625
4 0.0625 0.7
0 0.1875 0.7
0.0625 0.25 0.7625
0.0625 0.1875 0.7625
0.0625 0.1875 0.7
0.0625 0.25 0.7
0.125 0.25 0.7625
0.0625 0.1875 0.825
0.125 0.1875 0.825
0 0.25 0.7625
0 0.1875 0.7625
0.0625 0.25 0.825
0 0.1875 0.825
0.125 0.1875 0.7625
0.125 0.1875 0.7
0.1875 0.25 0.7625
0.1875 0.1875 0.7625
0.1875 0.1875 0.7
0.1875 0.25 0.7
0.25 0.25 0.7625
0.1875 0.1875 0.825
0.25 0.1875 0.825
0.1875 0.25 0.825
0.25 0.1875 0.7625
0.25 0.1875 0.7
0.3125 0.25 0.7625
0.3125 0.1875 0.7625
0.3125 0.1875 0.7
0.3125 0.25 0.7
0.375 0.25 0.7625
0.3125 0.1875 0.825
0.375 0.1875 0.825
0.3125 0.25 0.825
0.375 0.1875 0.7625
0.375 0.1875 0.7
0.4375 0.25 0.7625
0.4375 0.1875 0.7625
0.4375 0.1875 0.7
0.4375 0.25 0.7
0.5 0.25 0.7625
0.4375 0.1875 0.825
0.5 0.1875 0.825
0.4375 0.25 0.825
0.5 0.1875 0.7625
0.5 0.1875 0.7
0.5625 0.25 0.7625
0.5625 0.1875 0.7625
0.5625 0.1875 0.7
0.5625 0.25 0.7
0.625 0.25 0.7625
0.5625 0.1875 0.825
0.625 0.1875 0.825
0.5625 0.25 0.825
0.625 0.1875 0.7625
0.625 0.1875 0.7
0.6875 0.25 0.7625
0.6875 0.1875 0.7625
0.6875 0.1875 0.7
0.6875 0.25 0.7
0.75 0.25 0.7625
0.6875 0.1875 0.825
0.75 0.1875 0.825
0.6875 0.25 0.825
0.75 0.1875 0.7625
0.75 0.1875 0.7
0.8125 0.25 0.7625
0.8125 0.1875 0.7625
0.8125 0.1875 0.7
0.8125 0.25 0.7
0.875 0.25 0.7625
0.8125 0.1875 0.825
0.875 0.1875 0.825
0.8125 0.25 0.825
0.875 0.1875 0.7625
0.875 0.1875 0.7
0.9375 0.25 0.7625
0.9375 0.1875 0.7625
0.9375 0.1875 0.7
0.9375 0.25 0.7
1 0.25 0.7625
0.9375 0.1875 0.825
1 0.1875 0.825
0.9375 0.25 0.825
1 0.1875 0.7625
1 0.1875 0.7
1.0625 0.25 0.7625
1.0625 0.1875 0.7625
1.0625 0.1875 0.7
1.0625 0.25 0.7
1.125 0.25 0.7625
1.0625 0.1875 0.825
1.125 0.1875 0.825
1.0625 0.25 0.825
1.125 0.1875 0.7625
1.125 0.1875 0.7
1.1875 0.25 0.7625
1.1875 0.1875 0.7625
1.1875 0.1875 0.7
1.1875 0.25 0.7
1.25 0.25 0.7625
1.1875 0.1875 0.825
1.25 0.1875 0.825
1.1875 0.25 0.825
1.25 0.1875 0.7625
1.25 0.1875 0.7
1.3125 0.25 0.7625
1.3125 0.1875 0.7625
1.3125 0.1875 0.7
1.3125 0.25 0.7
1.375 0.25 0.7625
1.3125 0.1875 0.825
1.375 0.1875 0.825
1.3125 0.25 0.825
1.375 0.1875 0.7625
1.375 0.1875 0.7
1.4375 0.25 0.7625
1.4375 0.1875 0.7625
1.4375 0.1875 0.7
1.4375 0.25 0.7
1.5 0.25 0.7625
1.4375 0.1875 0.825
1.5 0.1875 0.825
1.4375 0.25 0.825
1.5 0.1875 0.7625
1.5 0.1875 0.7
1.5625 0.25 0.7625
1.5625 0.1875 0.7625
1.5625 0.1875 0.7
1.5625 0.25 0.7
1.625 0.25 0.7625
1.5625 0.1875 0.825
1.625 0.1875 0.825
1.5625 0.25 0.825
1.625 0.1875 0.7625
1.625 0.1875 0.7
1.6875 0.25 0.7625
1.6875 0.1875 0.7625
1.6875 0.1875 0.7
1.6875 0.25 0.7
1.75 0.25 0.7625
1.6875 0.1875 0.825
1.75 0.1875 0.825
1.6875 0.25 0.825
1.75 0.1875 0.7625
1.75 0.1875 0.7
1.8125 0.25 0.7625
1.8125 0.1875 0.7625
1.8125 0.1875 0.7
1.8125 0.25 0.7
1.875 0.25 0.7625
1.8125 0.1875 0.825
1.875 0.1875 0.825
1.8125 0.25 0.825
1.875 0.1875 0.7625
1.875 0.1875 0.7
1.9375 0.25 0.7625
1.9375 0.1875 0.7625
1.9375 0.1875 0.7
1.9375 0.25 0.7
2 0.25 0.7625
1.9375 0.1875 0.825
2 0.1875 0.825
1.9375 0.25 0.825
2 0.1875 0.7625
2 0.1875 0.7
2.0625 0.25 0.7625
2.0625 0.1875 0.7625
2.0625 0.1875 0.7
2.0625 0.25 0.7
2.125 0.25 0.7625
2.0625 0.1875 0.825
2.125 0.1875 0.825
2.0625 0.25 0.825
2.125 0.1875 0.7625
2.125 0.1875 0.7
2.1875 0.25 0.7625
2.1875 0.1875 0.7625
2.1875 0.1875 0.7
2.1875 0.25 0.7
2.25 0.25 0.7625
2.1875 0.1875 0.825
2.25 0.1875 0.825
2.1875 0.25 0.825
2.25 0.1875 0.7625
2.25 0.1875 0.7
2.3125 0.25 0.7625
2.3125 0.1875 0.7625
2.3125 0.1875 0.7
2.3125 0.25 0.7
2.375 0.25 0.7625
2.3125 0.1875 0.825
2.375 0.1875 0.825
2.3125 0.25 0.825
2.375 0.1875 0.7625
2.375 0.1875 0.7
2.4375 0.25 0.7625
2.4375 0.1875 0.7625
2.4375 0.1875 0.7
2.4375 0.25 0.7
2.5 0.25 0.7625
2.4375 0.1875 0.825
2.5 0.1875 0.825
2.4375 0.25 0.825
2.5 0.1875 0.7625
2.5 0.1875 0.7
2.5625 0.25 0.7625
2.5625 0.1875 0.7625
2.5625 0.1875 0.7
2.5625 0.25 0.7
2.625 0.25 0.7625
2.5625 0.1875 0.825
2.625 0.1875 0.825
2.5625 0.25 0.825
2.625 0.1875 0.7625
2.625 0.1875 0.7
2.6875 0.25 0.7625
2.6875 0.1875 0.7625
2.6875 0.1875 0.7
2.6875 0.25 0.7
2.75 0.25 0.7625
2.6875 0.1875 0.825
2.75 0.1875 0.825
2.6875 0.25 0.825
2.75 0.1875 0.7625
2.75 0.1875 0.7
2.8125 0.25 0.7625
2.8125 0.1875 0.7625
2.8125 0.1875 0.7
2.8125 0.25 0.7
2.875 0.25 0.7625
2.8125 0.1875 0.825
2.875 0.1875 0.825
2.8125 0.25 0.825
2.875 0.1875 0.7625
2.875 0.1875 0.7
2.9375 0.25 0.7625
2.9375 0.1875 0.7625
2.9375 0.1875 0.7
2.9375 0.25 0.7
3 0.25 0.7625
2.9375 0.1875 0.825
3 0.1875 0.825
2.9375 0.25 0.825
3 0.1875 0.7625
3 0.1875 0.7
3.0625 0.25 0.7625
3.0625 0.1875 0.7625
3.0625 0.1875 0.7
3.0625 0.25 0.7
3.125 0.25 0.7625
3.0625 0.1875 0.825
3.125 0.1875 0.825
3.0625 0.25 0.825
3.125 0.1875 0.7625
3.125 0.1875 0.7
3.1875 0.25 0.7625
3.1875 0.1875 0.7625
3.1875 0.1875 0.7
3.1875 0.25 0.7
3.25 0.25 0.7625
3.1875 0.1875 0.825
3.25 0.1875 0.825
3.1875 0.25 0.825
3.25 0.1875 0.7625
3.25 0.1875 0.7
3.3125 0.25 0.7625
3.3125 0.1875 0.7625
3.3125 0.1875 0.7
3.3125 0.25 0.7
3.375 0.25 0.7625
3.3125 0.1875 0.825
3.375 0.1875 0.825
3.3125 0.25 0.825
3.375 0.1875 0.7625
3.375 0.1875 0.7
3.4375 0.25 0.7625
3.4375 0.1875 0.7625
3.4375 0.1875 0.7
3.4375 0.25 0.7
3.5 0.25 0.7625
3.4375 0.1875 0.825
3.5 0.1875 0.825
3.4375 0.25 0.825
3.5 0.1875 0.7625
3.5 0.1875 0.7
3.5625 0.25 0.7625
3.5625 0.1875 0.7625
3.5625 0.1875 0.7
3.5625 0.25 0.7
3.625 0.25 0.7625
3.5625 0.1875 0.825
3.625 0.1875 0.825
3.5625 0.25 0.825
3.625 0.1875 0.7625
3.625 0.1875 0.7
3.6875 0.25 0.7625
3.6875 0.1875 0.7625
3.6875 0.1875 0.7
3.6875 0.25 0.7
3.75 0.25 0.7625
3.6875 0.1875 0.825
3.75 0.1875 0.825
3.6875 0.25 0.825
3.75 0.1875 0.7625
3.75 0.1875 0.7
3.8125 0.25 0.7625
3.8125 0.1875 0.7625
3.8125 0.1875 0.7
3.8125 0.25 0.7
3.875 0.25 0.7625
3.8125 0.1875 0.825
3.875 0.1875 0.825
3.8125 0.25 0.825
3.875 0.1875 0.7625
3.875 0.1875 0.7
3.9375 0.25 0.7625
3.9375 0.1875 0.7625
3.9375 0.1875 0.7
3.9375 0.25 0.7
4 0.25 0.7625
3.9375 0.1875 0.825
4 0.1875 0.825
3.9375 0.25 0.825
4 0.1875 0.7625
4 0.1875 0.7
0 0.3125 0.7
0.0625 0.375 0.7625
0.0625 0.3125 0.7625
0.0625 0.3125 0.7
0.0625 0.375 0.7
0.125 0.375 0.7625
0.0625 0.3125 0.825
0.125 0.3125 0.825
0 0.375 0.7625
0 0.3125 0.7625
0.0625 0.375 0.825
0 0.3125 0.825
0.125 0.3125 0.7625
0.125 0.3125 0.7
0.1875 0.375 0.7625
0.1875 0.3125 0.7625
0.1875 0.3125 0.7
0.1875 0.375 0.7
0.25 0.375 0.7625
0.1875 0.3125 0.825
0.25 0.3125 0.825
0.1875 0.375 0.825
0.25 0.3125 0.7625
0.25 0.3125 0.7
0.3125 0.375 0.7625
0.3125 0.3125 0.7625
0.3125 0.3125 0.7
0.3125 0.375 0.7
0.375 0.375 0.7625
0.3125 0.3125 0.825
0.375 0.3125 0.825
0.3125 0.375 0.825
0.375 0.3125 0.7625
0.375 0.3125 0.7
0.4375 0.375 0.7625
0.4375 0.3125 0.7625
0.4375 0.3125 0.7
0.4375 0.375 0.7
0.5 0.375 0.7625
0.4375 0.3125 0.825
0.5 0.3125 0.825
0.4375 0.375 0.825
0.5 0.3125 0.7625
0.5 0.3125 0.7
0.5625 0.375 0.7625
0.5625 0.3125 0.7625
0.5625 0.3125 0.7
0.5625 0.375 0.7
0.625 0.375 0.7625
0.5625 0.3125 0.825
0.625 0.3125 0.825
0.5625 0.375 0.825
0.625 0.3125 0.7625
0.625 0.3125 0.7
0.6875 0.375 0.7625
0.6875 0.3125 0.7625
0.6875 0.3125 0.7
0.6875 0.375 0.7
0.75 0.375 0.7625
0.6875 0.3125 0.825
0.75 0.3125 0.825
0.6875 0.375 0.825
0.75 0.3125 0.7625
0.75 0.3125 0.7
0.8125 0.375 0.7625
0.8125 0.3125 0.7625
0.8125 0.3125 0.7
0.8125 0.375 0.7
0.875 0.375 0.7625
0.8125 0.3125 0.825
0.875 0.3125 0.825
0.8125 0.375 0.825
0.875 0.3125 0.7625
0.875 0.3125 0.7
0.9375 0.375 0.7625
0.9375 0.3125 0.7625
0.9375 0.3125 0.7
0.9375 0.375 0.7
1 0.375 0.7625
0.9375 0.3125 0.825
1 0.3125 0.825
0.9375 0.375 0.825
1 0.3125 0.7625
1 0.3125 0.7
1.0625 0.375 0.7625
1.0625 0.3125 0.7625
1.0625 0.3125 0.7
1.0625 0.375 0.7
1.125 0.375 0.7625
1.0625 0.3125 0.825
1.125 0.3125 0.825
1.0625 0.375 0.825
1.125 0.3125 0.7625
1.125 0.3125 0.7
1.1875 0.375 0.7625
1.1875 0.3125 0.7625
1.1875 0.3125 0.7
1.1875 0.375 0.7
1.25 0.375 0.7625
1.1875 0.3125 0.825
1.25 0.3125 0.825
1.1875 0.375 0.825
1.25 0.3125 0.7625
1.25 0.3125 0.7
1.3125 0.375 0.7625
1.3125 0.3125 0.7625
1.3125 0.3125 0.7
1.3125 0.375 0.7
1.375 0.375 0.7625
1.3125 0.3125 0.825
1.375 0.3125 0.825
1.3125 0.375 0.825
1.375 0.3125 0.7625
1.375 0.3125 0.7
1.4375 0.375 0.7625
1.4375 0.3125 0.7625
1.4375 0.3125 0.7
1.4375 0.375 0.7
1.5 0.375 0.7625
1.4375 0.3125 0.825
1.5 0.3125 0.825
1.4375 0.375 0.825
1.5 0.3125 0.7625
1.5 0.3125 0.7
1.5625 0.375 0.7625
1.5625 0.3125 0.7625
1.5625 0.3125 0.7
1.5625 0.375 0.7
1.625 0.375 0.7625
1.5625 0.3125 0.825
1.625 0.3125 0.825
1.5625 0.375 0.825
1.625 0.3125 0.7625
1.625 0.3125 0.7
1.6875 0.375 0.7625
1.6875 0.3125 0.7625
1.6875 0.3125 0.7
1.6875 0.375 0.7
1.75 0.375 0.7625
1.6875 0.3125 0.825
1.75 0.3125 0.825
1.6875 0.375 0.825
1.75 0.3125 0.7625
1.75 0.3125 0.7
1.8125 0.375 0.7625
1.8125 0.3125 0.7625
1.8125 0.3125 0.7
1.8125 0.375 0.7
1.875 0.375 0.7625
1.8125 0.3125 0.825
1.875 0.3125 0.825
1.8125 0.375 0.825
1.875 0.3125 0.7625
1.875 0.3125 0.7
1.9375 0.375 0.7625
1.9375 0.3125 0.7625
1.9375 0.3125 0.7
1.9375 0.375 0.7
2 0.375 0.7625
1.9375 0.3125 0.825
2 0.3125 0.825
1.9375 0.375 0.825
2 0.3125 0.7625
2 0.3125 0.7
2.0625 0.375 0.7625
2.0625 0.3125 0.7625
2.0625 0.3125 0.7
2.0625 0.375 0.7
2.125 0.375 0.7625
2.0625 0.3125 0.825
2.125 0.3125 0.825
2.0625 0.375 0.825
2.125 0.3125 0.7625
2.125 0.3125 0.7
2.1875 0.375 0.7625
2.1875 0.3125 0.7625
2.1875 0.3125 0.7
2.1875 0.375 0.7
2.25 0.375 0.7625
2.1875 0.3125 0.825
2.25 0.3125 0.825
2.1875 0.375 0.825
2.25 0.3125 0.7625
2.25 0.3125 0.7
2.3125 0.375 0.7625
2.3125 0.3125 0.7625
2.3125 0.3125 0.7
2.3125 0.375 0.7
2.375 0.375 0.7625
2.3125 0.3125 0.825
2.375 0.3125 0.825
2.3125 0.375 0.825
2.375 0.3125 0.7625
2.375 0.3125 0.7
2.4375 0.375 0.7625
2.4375 0.3125 0.7625
2.4375 0.3125 0.7
2.4375 0.375 0.7
2.5 0.375 0.7625
2.4375 0.3125 0.825
2.5 0.3125 0.825
2.4375 0.375 0.825
2.5 0.3125 0.7625
2.5 0.3125 0.7
2.5625 0.375 0.7625
2.5625 0.3125 0.7625
2.5625 0.3125 0.7
2.5625 0.375 0.7
2.625 0.375 0.7625
2.5625 0.3125 0.825
2.625 0.3125 0.825
2.5625 0.375 0.825
2.625 0.3125 0.7625
2.625 0.3125 0.7
2.6875 0.375 0.7625
2.6875 0.3125 0.7625
2.6875 0.3125 0.7
2.6875 0.375 0.7
2.75 0.375 0.7625
2.6875 0.3125 0.825
2.75 0.3125 0.825
2.6875 0.375 0.825
2.75 0.3125 0.7625
2.75 0.3125 0.7
2.8125 0.375 0.7625
2.8125 0.3125 0.7625
2.8125 0.3125 0.7
2.8125 0.375 0.7
2.875 0.375 0.7625
2.8125 0.3125 0.825
2.875 0.3125 0.825
2.8125 0.375 0.825
2.875 0.3125 0.7625
2.875 0.3125 0.7
2.9375 0.375 0.7625
2.9375 0.3125 0.7625
2.9375 0.3125 0.7
2.9375 0.375 0.7
3 0.375 0.7625
2.9375 0.3125 0.825
3 0.3125 0.825
2.9375 0.375 0.825
3 0.3125 0.7625
3 0.3125 0.7
3.0625 0.375 0.7625
3.0625 0.3125 0.7625
3.0625 0.3125 0.7
3.0625 0.375 0.7
3.125 0.375 0.7625
3.0625 0.3125 0.825
3.125 0.3125 0.825
3.0625 0.375 0.825
3.125 0.3125 0.7625
3.125 0.3125 0.7
3.1875 0.375 0.7625
3.1875 0.3125 0.7625
3.1875 0.3125 0.7
3.1875 0.375 0.7
3.25 0.375 0.7625
3.1875 0.3125 0.825
3.25 0.3125 0.825
3.1875 0.375 0.825
3.25 0.3125 0.7625
3.25 0.3125 0.7
3.3125 0.375 0.7625
3.3125 0.3125 0.7625
3.3125 0.3125 0.7
3.3125 0.375 0.7
3.375 0.375 0.7625
3.3125 0.3125 0.825
3.375 0.3125 0.825
3.3125 0.375 0.825
3.375 0.3125 0.7625
3.375 0.3125 0.7
3.4375 0.375 0.7625
3.4375 0.3125 0.7625
3.4375 0.3125 0.7
3.4375 0.375 0.7
3.5 0.375 0.7625
3.4375 0.3125 0.825
3.5 0.3125 0.825
3.4375 0.375 0.825
3.5 0.3125 0.7625
3.5 0.3125 0.7
3.5625 0.375 0.7625
3.5625 0.3125 0.7625
3.5625 0.3125 0.7
3.5625 0.375 0.7
3.625 0.375 0.7625
3.5625 0.3125 0.825
3.625 0.3125 0.825
3.5625 0.375 0.825
3.625 0.3125 0.7625
3.625 0.3125 0.7
3.6875 0.375 0.7625
3.6875 0.3125 0.7625
3.6875 0.3125 0.7
3.6875 0.375 0.7
3.75 0.375 0.7625
3.6875 0.3125 0.825
3.75 0.3125 0.825
3.6875 0.375 0.825
3.75 0.3125 0.7625
3.75 0.3125 0.7
3.8125 0.375 0.7625
3.8125 0.3125 0.7625
3.8125 0.3125 0.7
3.8125 0.375 0.7
3.875 0.375 0.7625
3.8125 0.3125 0.825
3.875 0.3125 0.825
3.8125 0.375 0.825
3.875 0.3125 0.7625
3.875 0.3125 0.7
3.9375 0.375 0.7625
3.9375 0.3125 0.7625
3.9375 0.3125 0.7
3.9375 0.375 0.7
4 0.375 0.7625
3.9375 0.3125 0.825
4 0.3125 0.825
3.9375 0.375 0.825
4 0.3125 0.7625
4 0.3125 0.7
0 0.4375 0.7
0.0625 0.5 0.7625
0.0625 0.4375 0.7625
0.0625 0.4375 0.7
0.0625 0.5 0.7
0.125 0.5 0.7625
0.0625 0.4375 0.825
0.125 0.4375 0.825
0 0.5 0.7625
0 0.4375 0.7625
0.0625 0.5 0.825
0 0.4375 0.825
0.125 0.4375 0.7625
0.125 0.4375 0.7
0.1875 0.5 0.7625
0.1875 0.4375 0.7625
0.1875 0.4375 0.7
0.1875 0.5 0.7
0.25 0.5 0.7625
0.1875 0.4375 0.825
0.25 0.4375 0.825
0.1875 0.5 0.825
0.25 0.4375 0.7625
0.25 0.4375 0.7
0.3125 0.5 0.7625
0.3125 0.4375 0.7625
0.3125 0.4375 0.7
0.3125 0.5 0.7
0.375 0.5 0.7625
0.3125 0.4375 0.825
0.375 0.4375 0.825
0.3125 0.5 0.825
0.375 0.4375 0.7625
0.375 0.4375 0.7
0.4375 0.5 0.7625
0.4375 0.4375 0.7625
0.4375 0.4375 0.7
0.4375 0.5 0.7
0.5 0.5 0.7625
0.4375 0.4375 0.825
0.5 0.4375 0.825
0.4375 0.5 0.825
0.5 0.4375 0.7625
0.5 0.4375 0.7
0.5625 0.5 0.7625
0.5625 0.4375 0.7625
0.5625 0.4375 0.7
0.5625 0.5 0.7
0.625 0.5 0.7625
0.5625 0.4375 0.825
0.625 0.4375 0.825
0.5625 0.5 0.825
0.625 0.4375 0.7625
0.625 0.4375 0.7
0.6875 0.5 0.7625
0.6875 0.4375 0.7625
0.6875 0.4375 0.7
0.6875 0.5 0.7
0.75 0.5 0.7625
0.6875 0.4375 0.825
0.75 0.4375 0.825
0.6875 0.5 0.825
0.75 0.4375 0.7625
0.75 0.4375 0.7
0.8125 0.5 0.7625
0.8125 0.4375 0.7625
0.8125 0.4375 0.7
0.8125 0.5 0.7
0.875 0.5 0.7625
0.8125 0.4375 0.825
0.875 0.4375 0.825
0.8125 0.5 0.825
0.875 0.4375 0.7625
0.875 0.4375 0.7
0.9375 0.5 0.7625
0.9375 0.4375 0.7625
0.9375 0.4375 0.7
0.9375 0.5 0.7
1 0.5 0.7625
0.9375 0.4375 0.825
1 0.4375 0.825
0.9375 0.5 0.825
1 0.4375 0.7625
1 0.4375 0.7
1.0625 0.5 0.7625
1.0625 0.4375 0.7625
1.0625 0.4375 0.7
1.0625 0.5 0.7
1.125 0.5 0.7625
1.0625 0.4375 0.825
1.125 0.4375 0.825
1.0625 0.5 0.825
1.125 0.4375 0.7625
1.125 0.4375 0.7
1.1875 0.5 0.7625
1.1875 0.4375 0.7625
1.1875 0.4375 0.7
1.1875 0.5 0.7
1.25 0.5 0.7625
1.1875 0.4375 0.825
1.25 0.4375 0.825
1.1875 0.5 0.825
1.25 0.4375 0.7625
1.25 0.4375 0.7
1.3125 0.5 0.7625
1.3125 0.4375 0.7625
1.3125 0.4375 0.7
1.3125 0.5 0.7
1.375 0.5 0.7625
1.3125 0.4375 0.825
1.375 0.4375 0.825
1.3125 0.5 0.825
1.375 0.4375 0.7625
1.375 0.4375 0.7
1.4375 0.5 0.7625
1.4375 0.4375 0.7625
1.4375 0.4375 0.7
1.4375 0.5 0.7
1.5 0.5 0.7625
1.4375 0.4375 0.825
1.5 0.4375 0.825
1.4375 0.5 0.825
1.5 0.4375 0.7625
1.5 0.4375 0.7
1.5625 0.5 0.7625
1.5625 0.4375 0.7625
1.5625 0.4375 0.7
1.5625 0.5 0.7
1.625 0.5 0.7625
1.5625 0.4375 0.825
1.625 0.4375 0.825
1.5625 0.5 0.825
1.625 0.4375 0.7625
1.625 0.4375 0.7
1.6875 0.5 0.7625
1.6875 0.4375 0.7625
1.6875 0.4375 0.7
1.6875 0.5 0.7
1.75 0.5 0.7625
1.6875 0.4375 0.825
1.75 0.4375 0.825
1.6875 0.5 0.825
1.75 0.4375 0.7625
1.75 0.4375 0.7
1.8125 0.5 0.7625
1.8125 0.4375 0.7625
1.8125 0.4375 0.7
1.8125 0.5 0.7
1.875 0.5 0.7625
1.8125 0.4375 0.825
1.875 0.4375 0.825
1.8125 0.5 0.825
1.875 0.4375 0.7625
1.875 0.4375 0.7
1.9375 0.5 0.7625
1.9375 0.4375 0.7625
1.9375 0.4375 0.7
1.9375 0.5 0.7
2 0.5 0.7625
1.9375 0.4375 0.825
2 0.4375 0.825
1.9375 0.5 0.825
2 0.4375 0.7625
2 0.4375 0.7
2.0625 0.5 0.7625
2.0625 0.4375 0.7625
2.0625 0.4375 0.7
2.0625 0.5 0.7
2.125 0.5 0.7625
2.0625 0.4375 0.825
2.125 0.4375 0.825
2.0625 0.5 0.825
2.125 0.4375 0.7625
2.125 0.4375 0.7
2.1875 0.5 0.7625
2.1875 0.4375 0.7625
2.1875 0.4375 0.7
2.1875 0.5 0.7
2.25 0.5 0.7625
2.1875 0.4375 0.825
2.25 0.4375 0.825
2.1875 0.5 0.825
2.25 0.4375 0.7625
2.25 0.4375 0.7
2.3125 0.5 0.7625
2.3125 0.4375 0.7625
2.3125 0.4375 0.7
2.3125 0.5 0.7
2.375 0.5 0.7625
2.3125 0.4375 0.825
2.375 0.4375 0.825
2.3125 0.5 0.825
2.375 0.4375 0.7625
2.375 0.4375 0.7
2.4375 0.5 0.7625
2.4375 0.4375 0.7625
2.4375 0.4375 0.7
2.4375 0.5 0.7
2.5 0.5 0.7625
2.4375 0.4375 0.825
2.5 0.4375 0.825
2.4375 0.5 0.825
2.5 0.4375 0.7625
2.5 0.4375 0.7
2.5625 0.5 0.7625
2.5625 0.4375 0.7625
2.5625 0.4375 0.7
2.5625 0.5 0.7
2.625 0.5 0.7625
2.5625 0.4375 0.825
2.625 0.4375 0.825
2.5625 0.5 0.825
2.625 0.4375 0.7625
2.625 0.4375 0.7
2.6875 0.5 0.7625
2.6875 0.4375 0.7625
2.6875 0.4375 0.7
2.6875 0.5 0.7
2.75 0.5 0.7625
2.6875 0.4375 0.825
2.75 0.4375 0.825
2.6875 0.5 0.825
2.75 0.4375 0.7625
2.75 0.4375 0.7
2.8125 0.5 0.7625
2.8125 0.4375 0.7625
2.8125 0.4375 0.7
2.8125 0.5 0.7
2.875 0.5 0.7625
2.8125 0.4375 0.825
2.875 0.4375 0.825
2.8125 0.5 0.825
2.875 0.4375 0.7625
2.875 0.4375 0.7
2.9375 0.5 0.7625
2.9375 0.4375 0.7625
2.9375 0.4375 0.7
2.9375 0.5 0.7
3 0.5 0.7625
2.9375 0.4375 0.825
3 0.4375 0.825
2.9375 0.5 0.825
3 0.4375 0.7625
3 0.4375 0.7
3.0625 0.5 0.7625
3.0625 0.4375 0.7625
3.0625 0.4375 0.7
3.0625 0.5 0.7
3.125 0.5 0.7625
3.0625 0.4375 0.825
3.125 0.4375 0.825
3.0625 0.5 0.825
3.125 0.4375 0.7625
3.125 0.4375 0.7
3.1875 0.5 0.7625
3.1875 0.4375 0.7625
3.1875 0.4375 0.7
3.1875 0.5 0.7
3.25 0.5 0.7625
3.1875 0.4375 0.825
3.25 0.4375 0.825
3.1875 0.5 0.825
3.25 0.4375 0.7625
3.25 0.4375 0.7
3.3125 0.5 0.7625
3.3125 0.4375 0.7625
3.3125 0.4375 0.7
3.3125 0.5 0.7
3.375 0.5 0.7625
3.3125 0.4375 0.825
3.375 0.4375 0.825
3.3125 0.5 0.825
3.375 0.4375 0.7625
3.375 0.4375 0.7
3.4375 0.5 0.7625
3.4375 0.4375 0.7625
3.4375 0.4375 0.7
3.4375 0.5 0.7
3.5 0.5 0.7625
3.4375 0.4375 0.825
3.5 0.4375 0.825
3.4375 0.5 0.825
3.5 0.4375 0.7625
3.5 0.4375 0.7
3.5625 0.5 0.7625
3.5625 0.4375 0.7625
3.5625 0.4375 0.7
3.5625 0.5 0.7
3.625 0.5 0.7625
3.5625 0.4375 0.825
3.625 0.4375 0.825
3.5625 0.5 0.825
3.625 0.4375 0.7625
3.625 0.4375 0.7
3.6875 0.5 0.7625
3.6875 0.4375 0.7625
3.6875 0.4375 0.7
3.6875 0.5 0.7
3.75 0.5 0.7625
3.6875 0.4375 0.825
3.75 0.4375 0.825
3.6875 0.5 0.825
3.75 0.4375 0.7625
3.75 0.4375 0.7
3.8125 0.5 0.7625
3.8125 0.4375 0.7625
3.8125 0.4375 0.7
3.8125 0.5 0.7
3.875 0.5 0.7625
3.8125 0.4375 0.825
3.875 0.4375 0.825
3.8125 0.5 0.825
3.875 0.4375 0.7625
3.875 0.4375 0.7
3.9375 0.5 0.7625
3.9375 0.4375 0.7625
3.9375 0.4375 0.7
3.9375 0.5 0.7
4 0.5 0.7625
3.9375 0.4375 0.825
4 0.4375 0.825
3.9375 0.5 0.825
4 0.4375 0.7625
4 0.4375 0.7
0 0.5625 0.7
0.0625 0.625 0.7625
0.0625 0.5625 0.7625
0.0625 0.5625 0.7
0.0625 0.625 0.7
0.125 0.625 0.7625
0.0625 0.5625 0.825
0.125 0.5625 0.825
0 0.625 0.7625
0 0.5625 0.7625
0.0625 0.625 0.825
0 0.5625 0.825
0.125 0.5625 0.7625
0.125 0.5625 0.7
0.1875 0.625 0.7625
0.1875 0.5625 0.7625
0.1875 0.5625 0.7
0.1875 0.625 0.7
0.25 0.625 0.7625
0.1875 0.5625 0.825
0.25 0.5625 0.825
0.1875 0.625 0.825
0.25 0.5625 0.7625
0.25 0.5625 0.7
0.3125 0.625 0.7625
0.3125 0.5625 0.7625
0.3125 0.5625 0.7
0.3125 0.625 0.7
0.375 0.625 0.7625
0.3125 0.5625 0.825
0.375 0.5625 0.825
0.3125 0.625 0.825
0.375 0.5625 0.7625
0.375 0.5625 0.7
0.4375 0.625 0.7625
0.4375 0.5625 0.7625
0.4375 0.5625 0.7
0.4375 0.625 0.7
0.5 0.625 0.7625
0.4375 0.5625 0.825
0.5 0.5625 0.825
0.4375 0.625 0.825
0.5 0.5625 0.7625
0.5 0.5625 0.7
0.5625 0.625 0.7625
0.5625 0.5625 0.7625
0.5625 0.5625 0.7
0.5625 0.625 0.7
0.625 0.625 0.7625
0.5625 0.5625 0.825
0.625 0.5625 0.825
0.5625 0.625 0.825
0.625 0.5625 0.7625
0.625 0.5625 0.7
0.6875 0.625 0.7625
0.6875 0.5625 0.7625
0.6875 0.5625 0.7
0.6875 0.625 0.7
0.75 0.625 0.7625
0.6875 0.5625 0.825
0.75 0.5625 0.825
0.6875 0.625 0.825
0.75 0.5625 0.7625
0.75 0.5625 0.7
0.8125 0.625 0.7625
0.8125 0.5625 0.7625
0.8125 0.5625 0.7
0.8125 0.625 0.7
0.875 0.625 0.7625
0.8125 0.5625 0.825
0.875 0.5625 0.825
0.8125 0.625 0.825
0.875 0.5625 0.7625
0.875 0.5625 0.7
0.9375 0.625 0.7625
0.9375 0.5625 0.7625
0.9375 0.5625 0.7
0.9375 0.625 0.7
1 0.625 0.7625
0.9375 0.5625 0.825
1 0.5625 0.825
0.9375 0.625 0.825
1 0.5625 0.7625
1 0.5625 0.7
1.0625 0.625 0.7625
1.0625 0.5625 0.7625
1.0625 0.5625 0.7
1.0625 0.625 0.7
1.125 0.625 0.7625
1.0625 0.5625 0.825
1.125 0.5625 0.825
1.0625 0.625 0.825
1.125 0.5625 0.7625
1.125 0.5625 0.7
1.1875 0.625 0.7625
1.1875 0.5625 0.7625
1.1875 0.5625 0.7
1.1875 0.625 0.7
1.25 0.625 0.7625
1.1875 0.5625 0.825
1.25 0.5625 0.825
1.1875 0.625 0.825
1.25 0.5625 0.7625
1.25 0.5625 0.7
1.3125 0.625 0.7625
1.3125 0.5625 0.7625
1.3125 0.5625 0.7
1.3125 0.625 0.7
1.375 0.625 0.7625
1.3125 0.5625 0.825
1.375 0.5625 0.825
1.3125 0.625 0.825
1.375 0.5625 0.7625
1.375 0.5625 0.7
1.4375 0.625 0.7625
1.4375 0.5625 0.7625
1.4375 0.5625 0.7
1.4375 0.625 0.7
1.5 0.625 0.7625
1.4375 0.5625 0.825
1.5 0.5625 0.825
1.4375 0.625 0.825
1.5 0.5625 0.7625
1.5 0.5625 0.7
1.5625 0.625 0.7625
1.5625 0.5625 0.7625
1.5625 0.5625 0.7
1.5625 0.625 0.7
1.625 0.625 0.7625
1.5625 0.5625 0.825
1.625 0.5625 0.825
1.5625 0.625 0.825
1.625 0.5625 0.7625
1.625 0.5625 0.7
1.6875 0.625 0.7625
1.6875 0.5625 0.7625
1.6875 0.5625 0.7
1.6875 0.625 0.7
1.75 0.625 0.7625
1.6875 0.5625 0.825
1.75 0.5625 0.825
1.6875 0.625 0.825
1.75 0.5625 0.7625
1.75 0.5625 0.7
1.8125 0.625 0.7625
1.8125 0.5625 0.7625
1.8125 0.5625 0.7
1.8125 0.625 0.7
1.875 0.625 0.7625
1.8125 0.5625 0.825
1.875 0.5625 0.825
1.8125 0.625 0.825
1.875 0.5625 0.7625
1.875 0.5625 0.7
1.9375 0.625 0.7625
1.9375 0.5625 0.7625
1.9375 0.5625 0.7
1.9375 0.625 0.7
2 0.625 0.7625
1.9375 0.5625 0.825
2 0.5625 0.825
1.9375 0.625 0.825
2 0.5625 0.7625
2 0.5625 0.7
2.0625 0.625 0.7625
2.0625 0.5625 0.7625
2.0625 0.5625 0.7
2.0625 0.625 0.7
2.125 0.625 0.7625
2.0625 0.5625 0.825
2.125 0.5625 0.825
2.0625 0.625 0.825
2.125 0.5625 0.7625
2.125 0.5625 0.7
2.1875 0.625 0.7625
2.1875 0.5625 0.7625
2.1875 0.5625 0.7
2.1875 0.625 0.7
2.25 0.625 0.7625
2.1875 0.5625 0.825
2.25 0.5625 0.825
2.1875 0.625 0.825
2.25 0.5625 0.7625
2.25 0.5625 0.7
2.3125 0.625 0.7625
2.3125 0.5625 0.7625
2.3125 0.5625 0.7
2.3125 0.625 0.7
2.375 0.625 0.7625
2.3125 0.5625 0.825
2.375 0.5625 0.825
2.3125 0.625 0.825
2.375 0.5625 0.7625
2.375 0.5625 0.7
2.4375 0.625 0.7625
2.4375 0.5625 0.7625
2.4375 0.5625 0.7
2.4375 0.625 0.7
2.5 0.625 0.7625
2.4375 0.5625 0.825
2.5 0.5625 0.825
2.4375 0.625 0.825
2.5 0.5625 0.7625
2.5 0.5625 0.7
2.5625 0.625 0.7625
2.5625 0.5625 0.7625
2.5625 0.5625 0.7
2.5625 0.625 0.7
2.625 0.625 0.7625
2.5625 0.5625 0.825
2.625 0.5625 0.825
2.5625 0.625 0.825
2.625 0.5625 0.7625
2.625 0.5625 0.7
2.6875 0.625 0.7625
2.6875 0.5625 0.7625
2.6875 0.5625 0.7
2.6875 0.625 0.7
2.75 0.625 0.7625
2.6875 0.5625 0.825
2.75 0.5625 0.825
2.6875 0.625 0.825
2.75 0.5625 0.7625
2.75 0.5625 0.7
2.8125 0.625 0.7625
2.8125 0.5625 0.7625
2.8125 0.5625 0.7
2.8125 0.625 0.7
2.875 0.625 0.7625
2.8125 0.5625 0.825
2.875 0.5625 0.825
2.8125 0.625 0.825
2.875 0.5625 0.7625
2.875 0.5625 0.7
2.9375 0.625 0.7625
2.9375 0.5625 0.7625
2.9375 0.5625 0.7
2.9375 0.625 0.7
3 0.625 0.7625
2.9375 0.5625 0.825
3 0.5625 0.825
2.9375 0.625 0.825
3 0.5625 0.7625
3 0.5625 0.7
3.0625 0.625 0.7625
3.0625 0.5625 0.7625
3.0625 0.5625 0.7
3.0625 0.625 0.7
3.125 0.625 0.7625
3.0625 0.5625 0.825
3.125 0.5625 0.825
3.0625 0.625 0.825
3.125 0.5625 0.7625
3.125 0.5625 0.7
3.1875 0.625 0.7625
3.1875 0.5625 0.7625
3.1875 0.5625 0.7
3.1875 0.625 0.7
3.25 0.625 0.7625
3.1875 0.5625 0.825
3.25 0.5625 0.825
3.1875 0.625 0.825
3.25 0.5625 0.7625
3.25 0.5625 0.7
3.3125 0.625 0.7625
3.3125 0.5625 0.7625
3.3125 0.5625 0.7
3.3125 0.625 0.7
3.375 0.625 0.7625
3.3125 0.5625 0.825
3.375 0.5625 0.825
3.3125 0.625 0.825
3.375 0.5625 0.7625
3.375 0.5625 0.7
3.4375 0.625 0.7625
3.4375 0.5625 0.7625
3.4375 0.5625 0.7
3.4375 0.625 0.7
3.5 0.625 0.7625
3.4375 0.5625 0.825
3.5 0.5625 0.825
3.4375 0.625 0.825
3.5 0.5625 0.7625
3.5 0.5625 0.7
3.5625 0.625 0.7625
3.5625 0.5625 0.7625
3.5625 0.5625 0.7
3.5625 0.625 0.7
3.625 0.625 0.7625
3.5625 0.5625 0.825
3.625 0.5625 0.825
3.5625 0.625 0.825
3.625 0.5625 0.7625
3.625 0.5625 0.7
3.6875 0.625 0.7625
3.6875 0.5625 0.7625
3.6875 0.5625 0.7
3.6875 0.625 0.7
3.75 0.625 0.7625
3.6875 0.5625 0.825
3.75 0.5625 0.825
3.6875 0.625 0.825
3.75 0.5625 0.7625
3.75 0.5625 0.7
3.8125 0.625 0.7625
3.8125 0.5625 0.7625
3.8125 0.5625 0.7
3.8125 0.625 0.7
3.875 0.625 0.7625
3.8125 0.5625 0.825
3.875 0.5625 0.825
3.8125 0.625 0.825
3.875 0.5625 0.7625
3.875 0.5625 0.7
3.9375 0.625 0.7625
3.9375 0.5625 0.7625
3.9375 0.5625 0.7
3.9375 0.625 0.7
4 0.625 0.7625
3.9375 0.5625 0.825
4 0.5625 0.825
3.9375 0.625 0.825
4 0.5625 0.7625
4 0.5625 0.7
0 0.6875 0.7
0.0625 0.75 0.7625
0.0625 0.6875 0.7625
0.0625 0.6875 0.7
0.0625 0.75 0.7
0.125 0.75 0.7625
0.0625 0.6875 0.825
0.125 0.6875 0.825
0 0.75 0.7625
0 0.6875 0.7625
0.0625 0.75 0.825
0 0.6875 0.825
0.125 0.6875 0.7625
0.125 0.6875 0.7
0.1875 0.75 0.7625
0.1875 0.6875 0.7625
0.1875 0.6875 0.7
0.1875 0.75 0.7
0.25 0.75 0.7625
0.1875 0.6875 0.825
0.25 0.6875 0.825
0.1875 0.75 0.825
0.25 0.6875 0.7625
0.25 0.6875 0.7
0.3125 0.75 0.7625
0.3125 0.6875 0.7625
0.3125 0.6875 0.7
0.3125 0.75 0.7
0.375 0.75 0.7625
0.3125 0.6875 0.825
0.375 0.6875 0.825
0.3125 0.75 0.825
0.375 0.6875 0.7625
0.375 0.6875 0.7
0.4375 0.75 0.7625
0.4375 0.6875 0.7625
0.4375 0.6875 0.7
0.4375 0.75 0.7
0.5 0.75 0.7625
0.4375 0.6875 0.825
0.5 0.6875 0.825
0.4375 0.75 0.825
0.5 0.6875 0.7625
0.5 0.6875 0.7
0.5625 0.75 0.7625
0.5625 0.6875 0.7625
0.5625 0.6875 0.7
0.5625 0.75 0.7
0.625 0.75 0.7625
0.5625 0.6875 0.825
0.625 0.6875 0.825
0.5625 0.75 0.825
0.625 0.6875 0.7625
0.625 0.6875 0.7
0.6875 0.75 0.7625
0.6875 0.6875 0.7625
0.6875 0.6875 0.7
0.6875 0.75 0.7
0.75 0.75 0.7625
0.6875 0.6875 0.825
0.75 0.6875 0.825
0.6875 0.75 0.825
0.75 0.6875 0.7625
0.75 0.6875 0.7
0.8125 0.75 0.7625
0.8125 0.6875 0.7625
0.8125 0.6875 0.7
0.8125 0.75 0.7
0.875 0.75 0.7625
0.8125 0.6875 0.825
0.875 0.6875 0.825
0.8125 0.75 0.825
0.875 0.6875 0.7625
0.875 0.6875 0.7
0.9375 0.75 0.7625
0.9375 0.6875 0.7625
0.9375 0.6875 0.7
0.9375 0.75 0.7
1 0.75 0.7625
0.9375 0.6875 0.825
1 0.6875 0.825
0.9375 0.75 0.825
1 0.6875 0.7625
1 0.6875 0.7
1.0625 0.75 0.7625
1.0625 0.6875 0.7625
1.0625 0.6875 0.7
1.0625 0.75 0.7
1.125 0.75 0.7625
1.0625 0.6875 0.825
1.125 0.6875 0.825
1.0625 0.75 0.825
1.125 0.6875 0.7625
1.125 0.6875 0.7
1.1875 0.75 0.7625
1.1875 0.6875 0.7625
1.1875 0.6875 0.7
1.1875 0.75 0.7
1.25 0.75 0.7625
1.1875 0.6875 0.825
1.25 0.6875 0.825
1.1875 0.75 0.825
1.25 0.6875 0.7625
1.25 0.6875 0.7
1.3125 0.75 0.7625
1.3125 0.6875 0.7625
1.3125 0.6875 0.7
1.3125 0.75 0.7
1.375 0.75 0.7625
1.3125 0.6875 0.825
1.375 0.6875 0.825
1.3125 0.75 0.825
1.375 0.6875 0.7625
1.375 0.6875 0.7
1.4375 0.75 0.7625
1.4375 0.6875 0.7625
1.4375 0.6875 0.7
1.4375 0.75 0.7
1.5 0.75 0.7625
1.4375 0.6875 0.825
1.5 0.6875 0.825
1.4375 0.75 0.825
1.5 0.6875 0.7625
1.5 0.6875 0.7
1.5625 0.75 0.7625
1.5625 0.6875 0.7625
1.5625 0.6875 0.7
1.5625 0.75 0.7
1.625 0.75 0.7625
1.5625 0.6875 0.825
1.625 0.6875 0.825
1.5625 0.75 0.825
1.625 0.6875 0.7625
1.625 0.6875 0.7
1.6875 0.75 0.7625
1.6875 0.6875 0.7625
1.6875 0.6875 0.7
1.6875 0.75 0.7
1.75 0.75 0.7625
1.6875 0.6875 0.825
1.75 0.6875 0.825
1.6875 0.75 0.825
1.75 0.6875 0.7625
1.75 0.6875 0.7
1.8125 0.75 0.7625
1.8125 0.6875 0.7625
1.8125 0.6875 0.7
1.8125 0.75 0.7
1.875 0.75 0.7625
1.8125 0.6875 0.825
1.875 0.6875 0.825
1.8125 0.75 0.825
1.875 0.6875 0.7625
1.875 0.6875 0.7
1.9375 0.75 0.7625
1.9375 0.6875 0.7625
1.9375 0.6875 0.7
1.9375 0.75 0.7
2 0.75 0.7625
1.9375 0.6875 0.825
2 0.6875 0.825
1.9375 0.75 0.825
2 0.6875 0.7625
2 0.6875 0.7
2.0625 0.75 0.7625
2.0625 0.6875 0.7625
2.0625 0.6875 0.7
2.0625 0.75 0.7
2.125 0.75 0.7625
2.0625 0.6875 0.825
2.125 0.6875 0.825
2.0625 0.75 0.825
2.125 0.6875 0.7625
2.125 0.6875 0.7
2.1875 0.75 0.7625
2.1875 0.6875 0.7625
2.1875 0.6875 0.7
2.1875 0.75 0.7
2.25 0.75 0.7625
2.1875 0.6875 0.825
2.25 0.6875 0.825
2.1875 0.75 0.825
2.25 0.6875 0.7625
2.25 0.6875 0.7
2.3125 0.75 0.7625
2.3125 0.6875 0.7625
2.3125 0.6875 0.7
2.3125 0.75 0.7
2.375 0.75 0.7625
2.3125 0.6875 0.825
2.375 0.6875 0.825
2.3125 0.75 0.825
2.375 0.6875 0.7625
2.375 0.6875 0.7
2.4375 0.75 0.7625
2.4375 0.6875 0.7625
2.4375 0.6875 0.7
2.4375 0.75 0.7
2.5 0.75 0.7625
2.4375 0.6875 0.825
2.5 0.6875 0.825
2.4375 0.75 0.825
2.5 0.6875 0.7625
2.5 0.6875 0.7
2.5625 0.75 0.7625
2.5625 0.6875 0.7625
2.5625 0.6875 0.7
2.5625 0.75 0.7
2.625 0.75 0.7625
2.5625 0.6875 0.825
2.625 0.6875 0.825
2.5625 0.75 0.825
2.625 0.6875 0.7625
2.625 0.6875 0.7
2.6875 0.75 0.7625
2.6875 0.6875 0.7625
2.6875 0.6875 0.7
2.6875 0.75 0.7
2.75 0.75 0.7625
2.6875 0.6875 0.825
2.75 0.6875 0.825
2.6875 0.75 0.825
2.75 0.6875 0.7625
2.75 0.6875 0.7
2.8125 0.75 0.7625
2.8125 0.6875 0.7625
2.8125 0.6875 0.7
2.8125 0.75 0.7
2.875 0.75 0.7625
2.8125 0.6875 0.825
2.875 0.6875 0.825
2.8125 0.75 0.825
2.875 0.6875 0.7625
2.875 0.6875 0.7
2.9375 0.75 0.7625
2.9375 0.6875 0.7625
2.9375 0.6875 0.7
2.9375 0.75 0.7
3 0.75 0.7625
2.9375 0.6875 0.825
3 0.6875 0.825
2.9375 0.75 0.825
3 0.6875 0.7625
3 0.6875 0.7
3.0625 0.75 0.7625
3.0625 0.6875 0.7625
3.0625 0.6875 0.7
3.0625 0.75 0.7
3.125 0.75 0.7625
3.0625 0.6875 0.825
3.125 0.6875 0.825
3.0625 0.75 0.825
3.125 0.6875 0.7625
3.125 0.6875 0.7
3.1875 0.75 0.7625
3.1875 0.6875 0.7625
3.1875 0.6875 0.7
3.1875 0.75 0.7
3.25 0.75 0.7625
3.1875 0.6875 0.825
3.25 0.6875 0.825
3.1875 0.75 0.825
3.25 0.6875 0.7625
3.25 0.6875 0.7
3.3125 0.75 0.7625
3.3125 0.6875 0.7625
3.3125 0.6875 0.7
3.3125 0.75 0.7
3.375 0.75 0.7625
3.3125 0.6875 0.825
3.375 0.6875 0.825
3.3125 0.75 0.825
3.375 0.6875 0.7625
3.375 0.6875 0.7
3.4375 0.75 0.7625
3.4375 0.6875 0.7625
3.4375 0.6875 0.7
3.4375 0.75 0.7
3.5 0.75 0.7625
3.4375 0.6875 0.825
3.5 0.6875 0.825
3.4375 0.75 0.825
3.5 0.6875 0.7625
3.5 0.6875 0.7
3.5625 0.75 0.7625
3.5625 0.6875 0.7625
3.5625 0.6875 0.7
3.5625 0.75 0.7
3.625 0.75 0.7625
3.5625 0.6875 0.825
3.625 0.6875 0.825
3.5625 0.75 0.825
3.625 0.6875 0.7625
3.625 0.6875 0.7
3.6875 0.75 0.7625
3.6875 0.6875 0.7625
3.6875 0.6875 0.7
3.6875 0.75 0.7
3.75 0.75 0.7625
3.6875 0.6875 0.825
3.75 0.6875 0.825
3.6875 0.75 0.825
3.75 0.6875 0.7625
3.75 0.6875 0.7
3.8125 0.75 0.7625
3.8125 0.6875 0.7625
3.8125 0.6875 0.7
3.8125 0.75 0.7
3.875 0.75 0.7625
3.8125 0.6875 0.825
3.875 0.6875 0.825
3.8125 0.75 0.825
3.875 0.6875 0.7625
3.875 0.6875 0.7
3.9375 0.75 0.7625
3.9375 0.6875 0.7625
3.9375 0.6875 0.7
3.9375 0.75 0.7
4 0.75 0.7625
3.9375 0.6875 0.825
4 0.6875 0.825
3.9375 0.75 0.825
4 0.6875 0.7625
4 0.6875 0.7
0 0.8125 0.7
0.0625 0.875 0.7625
0.0625 0.8125 0.7625
0.0625 0.8125 0.7
0.0625 0.875 0.7
0.125 0.875 0.7625
0.0625 0.8125 0.825
0.125 0.8125 0.825
0 0.875 0.7625
0 0.8125 0.7625
0.0625 0.875 0.825
0 0.8125 0.825
0.125 0.8125 0.7625
0.125 0.8125 0.7
0.1875 0.875 0.7625
0.1875 0.8125 0.7625
0.1875 0.8125 0.7
0.1875 0.875 0.7
0.25 0.875 0.7625
0.1875 0.8125 0.825
0.25 0.8125 0.825
0.1875 0.875 0.825
0.25 0.8125 0.7625
0.25 0.8125 0.7
0.3125 0.875 0.7625
0.3125 0.8125 0.7625
0.3125 0.8125 0.7
0.3125 0.875 0.7
0.375 0.875 0.7625
0.3125 0.8125 0.825
0.375 0.8125 0.825
0.3125 0.875 0.825
0.375 0.8125 0.7625
0.375 0.8125 0.7
0.4375 0.875 0.7625
0.4375 0.8125 0.7625
0.4375 0.8125 0.7
0.4375 0.875 0.7
0.5 0.875 0.7625
0.4375 0.8125 0.825
0.5 0.8125 0.825
0.4375 0.875 0.825
0.5 0.8125 0.7625
0.5 0.8125 0.7
0.5625 0.875 0.7625
0.5625 0.8125 0.7625
0.5625 0.8125 0.7
0.5625 0.875 0.7
0.625 0.875 0.7625
0.5625 0.8125 0.825
0.625 0.8125 0.825
0.5625 0.875 0.825
0.625 0.8125 0.7625
0.625 0.8125 0.7
0.6875 0.875 0.7625
0.6875 0.8125 0.7625
0.6875 0.8125 0.7
0.6875 0.875 0.7
0.75 0.875 0.7625
0.6875 0.8125 0.825
0.75 0.8125 0.825
0.6875 0.875 0.825
0.75 0.8125 0.7625
0.75 0.8125 0.7
0.8125 0.875 0.7625
0.8125 0.8125 0.7625
0.8125 0.8125 0.7
0.8125 0.875 0.7
0.875 0.875 0.7625
0.8125 0.8125 0.825
0.875 0.8125 0.825
0.8125 0.875 0.825
0.875 0.8125 0.7625
0.875 0.8125 0.7
0.9375 0.875 0.7625
0.9375 0.8125 0.7625
0.9375 0.8125 0.7
0.9375 0.875 0.7
1 0.875 0.7625
0.9375 0.8125 0.825
1 0.8125 0.825
0.9375 0.875 0.825
1 0.8125 0.7625
1 0.8125 0.7
1.0625 0.875 0.7625
1.0625 0.8125 0.7625
1.0625 0.8125 0.7
1.0625 0.875 0.7
1.125 0.875 0.7625
1.0625 0.8125 0.825
1.125 0.8125 0.825
1.0625 0.875 0.825
1.125 0.8125 0.7625
1.125 0.8125 0.7
1.1875 0.875 0.7625
1.1875 0.8125 0.7625
1.1875 0.8125 0.7
1.1875 0.875 0.7
1.25 0.875 0.7625
1.1875 0.8125 0.825
1.25 0.8125 0.825
1.1875 0.875 0.825
1.25 0.8125 0.7625
1.25 0.8125 0.7
1.3125 0.875 0.7625
1.3125 0.8125 0.7625
1.3125 0.8125 0.7
1.3125 0.875 0.7
1.375 0.875 0.7625
1.3125 0.8125 0.825
1.375 0.8125 0.825
1.3125 0.875 0.825
1.375 0.8125 0.7625
1.375 0.8125 0.7
1.4375 0.875 0.7625
1.4375 0.8125 0.7625
1.4375 0.8125 0.7
1.4375 0.875 0.7
1.5 0.875 0.7625
1.4375 0.8125 0.825
1.5 0.8125 0.825
1.4375 0.875 0.825
1.5 0.8125 0.7625
1.5 0.8125 0.7
1.5625 0.875 0.7625
1.5625 0.8125 0.7625
1.5625 0.8125 0.7
1.5625 0.875 0.7
1.625 0.875 0.7625
1.5625 0.8125 0.825
1.625 0.8125 0.825
1.5625 0.875 0.825
1.625 0.8125 0.7625
1.625 0.8125 0.7
1.6875 0.875 0.7625
1.6875 0.8125 0.7625
1.6875 0.8125 0.7
1.6875 0.875 0.7
1.75 0.875 0.7625
1.6875 0.8125 0.825
1.75 0.8125 0.825
1.6875 0.875 0.825
1.75 0.8125 0.7625
1.75 0.8125 0.7
1.8125 0.875 0.7625
1.8125 0.8125 0.7625
1.8125 0.8125 0.7
1.8125 0.875 0.7
1.875 0.875 0.7625
1.8125 0.8125 0.825
1.875 0.8125 0.825
1.8125 0.875 0.825
1.875 0.8125 0.7625
1.875 0.8125 0.7
1.9375 0.875 0.7625
1.9375 0.8125 0.7625
1.9375 0.8125 0.7
1.9375 0.875 0.7
2 0.875 0.7625
1.9375 0.8125 0.825
2 0.8125 0.825
1.9375 0.875 0.825
2 0.8125 0.7625
2 0.8125 0.7
2.0625 0.875 0.7625
2.0625 0.8125 0.7625
2.0625 0.8125 0.7
2.0625 0.875 0.7
2.125 0.875 0.7625
2.0625 0.8125 0.825
2.125 0.8125 0.825
2.0625 0.875 0.825
2.125 0.8125 0.7625
2.125 0.8125 0.7
2.1875 0.875 0.7625
2.1875 0.8125 0.7625
2.1875 0.8125 0.7
2.1875 0.875 0.7
2.25 0.875 0.7625
2.1875 0.8125 0.825
2.25 0.8125 0.825
2.1875 0.875 0.825
2.25 0.8125 0.7625
2.25 0.8125 0.7
2.3125 0.875 0.7625
2.3125 0.8125 0.7625
2.3125 0.8125 0.7
2.3125 0.875 0.7
2.375 0.875 0.7625
2.3125 0.8125 0.825
2.375 0.8125 0.825
2.3125 0.875 0.825
2.375 0.8125 0.7625
2.375 0.8125 0.7
2.4375 0.875 0.7625
2.4375 0.8125 0.7625
2.4375 0.8125 0.7
2.4375 0.875 0.7
2.5 0.875 0.7625
2.4375 0.8125 0.825
2.5 0.8125 0.825
2.4375 0.875 0.825
2.5 0.8125 0.7625
2.5 0.8125 0.7
2.5625 0.875 0.7625
2.5625 0.8125 0.7625
2.5625 0.8125 0.7
2.5625 0.875 0.7
2.625 0.875 0.7625
2.5625 0.8125 0.825
2.625 0.8125 0.825
2.5625 0.875 0.825
2.625 0.8125 0.7625
2.625 0.8125 0.7
2.6875 0.875 0.7625
2.6875 0.8125 0.7625
2.6875 0.8125 0.7
2.6875 0.875 0.7
2.75 0.875 0.7625
2.6875 0.8125 0.825
2.75 0.8125 0.825
2.6875 0.875 0.825
2.75 0.8125 0.7625
2.75 0.8125 0.7
2.8125 0.875 0.7625
2.8125 0.8125 0.7625
2.8125 0.8125 0.7
2.8125 0.875 0.7
2.875 0.875 0.7625
2.8125 0.8125 0.825
2.875 0.8125 0.825
2.8125 0.875 0.825
2.875 0.8125 0.7625
2.875 0.8125 0.7
2.9375 0.875 0.7625
2.9375 0.8125 0.7625
2.9375 0.8125 0.7
2.9375 0.875 0.7
3 0.875 0.7625
2.9375 0.8125 0.825
3 0.8125 0.825
2.9375 0.875 0.825
3 0.8125 0.7625
3 0.8125 0.7
3.0625 0.875 0.7625
3.0625 0.8125 0.7625
3.0625 0.8125 0.7
3.0625 0.875 0.7
3.125 0.875 0.7625
3.0625 0.8125 0.825
3.125 0.8125 0.825
3.0625 0.875 0.825
3.125 0.8125 0.7625
3.125 0.8125 0.7
3.1875 0.875 0.7625
3.1875 0.8125 0.7625
3.1875 0.8125 0.7
3.1875 0.875 0.7
3.25 0.875 0.7625
3.1875 0.8125 0.825
3.25 0.8125 0.825
3.1875 0.875 0.825
3.25 0.8125 0.7625
3.25 0.8125 0.7
3.3125 0.875 0.7625
3.3125 0.8125 0.7625
3.3125 0.8125 0.7
3.3125 0.875 0.7
3.375 0.875 0.7625
3.3125 0.8125 0.825
3.375 0.8125 0.825
3.3125 0.875 0.825
3.375 0.8125 0.7625
3.375 0.8125 0.7
3.4375 0.875 0.7625
3.4375 0.8125 0.7625
3.4375 0.8125 0.7
3.4375 0.875 0.7
3.5 0.875 0.7625
3.4375 0.8125 0.825
3.5 0.8125 0.825
3.4375 0.875 0.825
3.5 0.8125 0.7625
3.5 0.8125 0.7
3.5625 0.875 0.7625
3.5625 0.8125 0.7625
3.5625 0.8125 0.7
3.5625 0.875 0.7
3.625 0.875 0.7625
3.5625 0.8125 0.825
3.625 0.8125 0.825
3.5625 0.875 0.825
3.625 0.8125 0.7625
3.625 0.8125 0.7
3.6875 0.875 0.7625
3.6875 0.8125 0.7625
3.6875 0.8125 0.7
3.6875 0.875 0.7
3.75 0.875 0.7625
3.6875 0.8125 0.825
3.75 0.8125 0.825
3.6875 0.875 0.825
3.75 0.8125 0.7625
3.75 0.8125 0.7
3.8125 0.875 0.7625
3.8125 0.8125 0.7625
3.8125 0.8125 0.7
3.8125 0.875 0.7
3.875 0.875 0.7625
3.8125 0.8125 0.825
3.875 0.8125 0.825
3.8125 0.875 0.825
3.875 0.8125 0.7625
3.875 0.8125 0.7
3.9375 0.875 0.7625
3.9375 0.8125 0.7625
3.9375 0.8125 0.7
3.9375 0.875 0.7
4 0.875 0.7625
3.9375 0.8125 0.825
4 0.8125 0.825
3.9375 0.875 0.825
4 0.8125 0.7625
4 0.8125 0.7
0 0.9375 0.7
0.0625 1 0.7625
0.0625 0.9375 0.7625
0.0625 0.9375 0.7
0.0625 1 0.7
0.125 1 0.7625
0.0625 0.9375 0.825
0.125 0.9375 0.825
0 1 0.7625
0 0.9375 0.7625
0.0625 1 0.825
0 0.9375 0.825
0.125 0.9375 0.7625
0.125 0.9375 0.7
0.1875 1 0.7625
0.1875 0.9375 0.7625
0.1875 0.9375 0.7
0.1875 1 0.7
0.25 1 0.7625
0.1875 0.9375 0.825
0.25 0.9375 0.825
0.1875 1 0.825
0.25 0.9375 0.7625
0.25 0.9375 0.7
0.3125 1 0.7625
0.3125 0.9375 0.7625
0.3125 0.9375 0.7
0.3125 1 0.7
0.375 1 0.7625
0.3125 0.9375 0.825
0.375 0.9375 0.825
0.3125 1 0.825
0.375 0.9375 0.7625
0.375 0.9375 0.7
0.4375 1 0.7625
0.4375 0.9375 0.7625
0.4375 0.9375 0.7
0.4375 1 0.7
0.5 1 0.7625
0.4375 0.9375 0.825
0.5 0.9375 0.825
0.4375 1 0.825
0.5 0.9375 0.7625
0.5 0.9375 0.7
0.5625 1 0.7625
0.5625 0.9375 0.7625
0.5625 0.9375 0.7
0.5625 1 0.7
0.625 1 0.7625
0.5625 0.9375 0.825
0.625 0.9375 0.825
0.5625 1 0.825
0.625 0.9375 0.7625
0.625 0.9375 0.7
0.6875 1 0.7625
0.6875 0.9375 0.7625
0.6875 0.9375 0.7
0.6875 1 0.7
0.75 1 0.7625
0.6875 0.9375 0.825
0.75 0.9375 0.825
0.6875 1 0.825
0.75 0.9375 0.7625
0.75 0.9375 0.7
0.8125 1 0.7625
0.8125 0.9375 0.7625
0.8125 0.9375 0.7
0.8125 1 0.7
0.875 1 0.7625
0.8125 0.9375 0.825
0.875 0.9375 0.825
0.8125 1 0.825
0.875 0.9375 0.7625
0.875 0.9375 0.7
0.9375 1 0.7625
0.9375 0.9375 0.7625
0.9375 0.9375 0.7
0.9375 1 0.7
1 1 0.7625
0.9375 0.9375 0.825
1 0.9375 0.825
0.9375 1 0.825
1 0.9375 0.7625
1 0.9375 0.7
1.0625 1 0.7625
1.0625 0.9375 0.7625
1.0625 0.9375 0.7
1.0625 1 0.7
1.125 1 0.7625
1.0625 0.9375 0.825
1.125 0.9375 0.825
1.0625 1 0.825
1.125 0.9375 0.7625
1.125 0.9375 0.7
1.1875 1 0.7625
1.1875 0.9375 0.7625
1.1875 0.9375 0.7
1.1875 1 0.7
1.25 1 0.7625
1.1875 0.9375 0.825
1.25 0.9375 0.825
1.1875 1 0.825
1.25 0.9375 0.7625
1.25 0.9375 0.7
1.3125 1 0.7625
1.3125 0.9375 0.7625
1.3125 0.9375 0.7
1.3125 1 0.7
1.375 1 0.7625
1.3125 0.9375 0.825
1.375 0.9375 0.825
1.3125 1 0.825
1.375 0.9375 0.7625
1.375 0.9375 0.7
1.4375 1 0.7625
1.4375 0.9375 0.7625
1.4375 0.9375 0.7
1.4375 1 0.7
1.5 1 0.7625
1.4375 0.9375 0.825
1.5 0.9375 0.825
1.4375 1 0.825
1.5 0.9375 0.7625
1.5 0.9375 0.7
1.5625 1 0.7625
1.5625 0.9375 0.7625
1.5625 0.9375 0.7
1.5625 1 0.7
1.625 1 0.7625
1.5625 0.9375 0.825
1.625 0.9375 0.825
1.5625 1 0.825
1.625 0.9375 0.7625
1.625 0.9375 0.7
1.6875 1 0.7625
1.6875 0.9375 0.7625
1.6875 0.9375 0.7
1.6875 1 0.7
1.75 1 0.7625
1.6875 0.9375 0.825
1.75 0.9375 0.825
1.6875 1 0.825
1.75 0.9375 0.7625
1.75 0.9375 0.7
1.8125 1 0.7625
1.8125 0.9375 0.7625
1.8125 0.9375 0.7
1.8125 1 0.7
1.875 1 0.7625
1.8125 0.9375 0.825
1.875 0.9375 0.825
1.8125 1 0.825
1.875 0.9375 0.7625
1.875 0.9375 0.7
1.9375 1 0.7625
1.9375 0.9375 0.7625
1.9375 0.9375 0.7
1.9375 1 0.7
2 1 0.7625
1.9375 0.9375 0.825
2 0.9375 0.825
1.9375 1 0.825
2 0.9375 0.7625
2 0.9375 0.7
2.0625 1 0.7625
2.0625 0.9375 0.7625
2.0625 0.9375 0.7
2.0625 1 0.7
2.125 1 0.7625
2.0625 0.9375 0.825
2.125 0.9375 0.825
2.0625 1 0.825
2.125 0.9375 0.7625
2.125 0.9375 0.7
2.1875 1 0.7625
2.1875 0.9375 0.7625
2.1875 0.9375 0.7
2.1875 1 0.7
2.25 1 0.7625
2.1875 0.9375 0.825
2.25 0.9375 0.825
2.1875 1 0.825
2.25 0.9375 0.7625
2.25 0.9375 0.7
2.3125 1 0.7625
2.3125 0.9375 0.7625
2.3125 0.9375 0.7
2.3125 1 0.7
2.375 1 0.7625
2.3125 0.9375 0.825
2.375 0.9375 0.825
2.3125 1 0.825
2.375 0.9375 0.7625
2.375 0.9375 0.7
2.4375 1 0.7625
2.4375 0.9375 0.7625
2.4375 0.9375 0.7
2.4375 1 0.7
2.5 1 0.7625
2.4375 0.9375 0.825
2.5 0.9375 0.825
2.4375 1 0.825
2.5 0.9375 0.7625
2.5 0.9375 0.7
2.5625 1 0.7625
2.5625 0.9375 0.7625
2.5625 0.9375 0.7
2.5625 1 0.7
2.625 1 0.7625
2.5625 0.9375 0.825
2.625 0.9375 0.825
2.5625 1 0.825
2.625 0.9375 0.7625
2.625 0.9375 0.7
2.6875 1 0.7625
2.6875 0.9375 0.7625
2.6875 0.9375 0.7
2.6875 1 0.7
2.75 1 0.7625
2.6875 0.9375 0.825
2.75 0.9375 0.825
2.6875 1 0.825
2.75 0.9375 0.7625
2.75 0.9375 0.7
2.8125 1 0.7625
2.8125 0.9375 0.7625
2.8125 0.9375 0.7
2.8125 1 0.7
2.875 1 0.7625
2.8125 0.9375 0.825
2.875 0.9375 0.825
2.8125 1 0.825
2.875 0.9375 0.7625
2.875 0.9375 0.7
2.9375 1 0.7625
2.9375 0.9375 0.7625
2.9375 0.9375 0.7
2.9375 1 0.7
3 1 0.7625
2.9375 0.9375 0.825
3 0.9375 0.825
2.9375 1 0.825
3 0.9375 0.7625
3 0.9375 0.7
3.0625 1 0.7625
3.0625 0.9375 0.7625
3.0625 0.9375 0.7
3.0625 1 0.7
3.125 1 0.7625
3.0625 0.9375 0.825
3.125 0.9375 0.825
3.0625 1 0.825
3.125 0.9375 0.7625
3.125 0.9375 0.7
3.1875 1 0.7625
3.1875 0.9375 0.7625
3.1875 0.9375 0.7
3.1875 1 0.7
3.25 1 0.7625
3.1875 0.9375 0.825
3.25 0.9375 0.825
3.1875 1 0.825
3.25 0.9375 0.7625
3.25 0.9375 0.7
3.3125 1 0.7625
3.3125 0.9375 0.7625
3.3125 0.9375 0.7
3.3125 1 0.7
3.375 1 0.7625
3.3125 0.9375 0.825
3.375 0.9375 0.825
3.3125 1 0.825
3.375 0.9375 0.7625
3.375 0.9375 0.7
3.4375 1 0.7625
3.4375 0.9375 0.7625
3.4375 0.9375 0.7
3.4375 1 0.7
3.5 1 0.7625
3.4375 0.9375 0.825
3.5 0.9375 0.825
3.4375 1 0.825
3.5 0.9375 0.7625
3.5 0.9375 0.7
3.5625 1 0.7625
3.5625 0.9375 0.7625
3.5625 0.9375 0.7
3.5625 1 0.7
3.625 1 0.7625
3.5625 0.9375 0.825
3.625 0.9375 0.825
3.5625 1 0.825
3.625 0.9375 0.7625
3.625 0.9375 0.7
3.6875 1 0.7625
3.6875 0.9375 0.7625
3.6875 0.9375 0.7
3.6875 1 0.7
3.75 1 0.7625
3.6875 0.9375 0.825
3.75 0.9375 0.825
3.6875 1 0.825
3.75 0.9375 0.7625
3.75 0.9375 0.7
3.8125 1 0.7625
3.8125 0.9375 0.7625
3.8125 0.9375 0.7
3.8125 1 0.7
3.875 1 0.7625
3.8125 0.9375 0.825
3.875 0.9375 0.825
3.8125 1 0.825
3.875 0.9375 0.7625
3.875 0.9375 0.7
3.9375 1 0.7625
3.9375 0.9375 0.7625
3.9375 0.9375 0.7
3.9375 1 0.7
4 1 0.7625
3.9375 0.9375 0.825
4 0.9375 0.825
3.9375 1 0.825
4 0.9375 0.7625
4 0.9375 0.7
0.0625 0.125 0.8875
0.0625 0.0625 0.8875
0.125 0.125 0.8875
0.0625 0.0625 0.95
0.125 0.0625 0.95
0.0625 0 0.95
0 0 0.8875
0.0625 0 0.8875
0 0.125 0.8875
0 0.0625 0.8875
0.0625 0.125 0.95
0 0.0625 0.95
0.125 0 0.8875
0.125 0.0625 0.8875
0.1875 0.125 0.8875
0.1875 0.0625 0.8875
0.25 0.125 0.8875
0.1875 0.0625 0.95
0.25 0.0625 0.95
0.1875 0 0.95
0.1875 0 0.8875
0.1875 0.125 0.95
0.25 0 0.8875
0.25 0.0625 0.8875
0.3125 0.125 0.8875
0.3125 0.0625 0.8875
0.375 0.125 0.8875
0.3125 0.0625 0.95
0.375 0.0625 0.95
0.3125 0 0.95
0.3125 0 0.8875
0.3125 0.125 0.95
0.375 0 0.8875
0.375 0.0625 0.8875
0.4375 0.125 0.8875
0.4375 0.0625 0.8875
0.5 0.125 0.8875
0.4375 0.0625 0.95
0.5 0.0625 0.95
0.4375 0 0.95
0.4375 0 0.8875
0.4375 0.125 0.95
0.5 0 0.8875
0.5 0.0625 0.8875
0.5625 0.125 0.8875
0.5625 0.0625 0.8875
0.625 0.125 0.8875
0.5625 0.0625 0.95
0.625 0.0625 0.95
0.5625 0 0.95
0.5625 0 0.8875
0.5625 0.125 0.95
0.625 0 0.8875
0.625 0.0625 0.8875
0.6875 0.125 0.8875
0.6875 0.0625 0.8875
0.75 0.125 0.8875
0.6875 0.0625 0.95
0.75 0.0625 0.95
0.6875 0 0.95
0.6875 0 0.8875
0.6875 0.125 0.95
0.75 0 0.8875
0.75 0.0625 0.8875
0.8125 0.125 0.8875
0.8125 0.0625 0.8875
0.875 0.125 0.8875
0.8125 0.0625 0.95
0.875 0.0625 0.95
0.8125 0 0.95
0.8125 0 0.8875
0.8125 0.125 0.95
0.875 0 0.8875
0.875 0.0625 0.8875
0.9375 0.125 0.8875
0.9375 0.0625 0.8875
1 0.125 0.8875
0.9375 0.0625 0.95
1 0.0625 0.95
0.9375 0 0.95
0.9375 0 0.8875
0.9375 0.125 0.95
1 0 0.8875
1 0.0625 0.8875
1.0625 0.125 0.8875
1.0625 0.0625 0.8875
1.125 0.125 0.8875
1.0625 0.0625 0.95
1.125 0.0625 0.95
1.0625 0 0.95
1.0625 0 0.8875
1.0625 0.125 0.95
1.125 0 0.8875
1.125 0.0625 0.8875
1.1875 0.125 0.8875
1.1875 0.0625 0.8875
1.25 0.125 0.8875
1.1875 0.0625 0.95
1.25 0.0625 0.95
1.1875 0 0.95
1.1875 0 0.8875
1.1875 0.125 0.95
1.25 0 0.8875
1.25 0.0625 0.8875
1.3125 0.125 0.8875
1.3125 0.0625 0.8875
1.375 0.125 0.8875
1.3125 0.0625 0.95
1.375 0.0625 0.95
1.3125 0 0.95
1.3125 0 0.8875
1.3125 0.125 0.95
1.375 0 0.8875
1.375 0.0625 0.8875
1.4375 0.125 0.8875
1.4375 0.0625 0.8875
1.5 0.125 0.8875
1.4375 0.0625 0.95
1.5 0.0625 0.95
1.4375 0 0.95
1.4375 0 0.8875
1.4375 0.125 0.95
1.5 0 0.8875
1.5 0.0625 0.8875
1.5625 0.125 0.8875
1.5625 0.0625 0.8875
1.625 0.125 0.8875
1.5625 0.0625 0.95
1.625 0.0625 0.95
1.5625 0 0.95
1.5625 0 0.8875
1.5625 0.125 0.95
1.625 0 0.8875
1.625 0.0625 0.8875
1.6875 0.125 0.8875
1.6875 0.0625 0.8875
1.75 0.125 0.8875
1.6875 0.0625 0.95
1.75 0.0625 0.95
1.6875 0 0.95
1.6875 0 0.8875
1.6875 0.125 0.95
1.75 0 0.8875
1.75 0.0625 0.8875
1.8125 0.125 0.8875
1.8125 0.0625 0.8875
1.875 0.125 0.8875
1.8125 0.0625 0.95
1.875 0.0625 0.95
1.8125 0 0.95
1.8125 0 0.8875
1.8125 0.125 0.95
1.875 0 0.8875
1.875 0.0625 0.8875
1.9375 0.125 0.8875
1.9375 0.0625 0.8875
2 0.125 0.8875
1.9375 0.0625 0.95
2 0.0625 0.95
1.9375 0 0.95
1.9375 0 0.8875
1.9375 0.125 0.95
2 0 0.8875
2 0.0625 0.8875
2.0625 0.125 0.8875
2.0625 0.0625 0.8875
2.125 0.125 0.8875
2.0625 0.0625 0.95
2.125 0.0625 0.95
2.0625 0 0.95
2.0625 0 0.8875
2.0625 0.125 0.95
2.125 0 0.8875
2.125 0.0625 0.8875
2.1875 0.125 0.8875
2.1875 0.0625 0.8875
2.25 0.125 0.8875
2.1875 0.0625 0.95
2.25 0.0625 0.95
2.1875 0 0.95
2.1875 0 0.8875
2.1875 0.125 0.95
2.25 0 0.8875
2.25 0.0625 0.8875
2.3125 0.125 0.8875
2.3125 0.0625 0.8875
2.375 0.125 0.8875
2.3125 0.0625 0.95
2.375 0.0625 0.95
2.3125 0 0.95
2.3125 0 0.8875
2.3125 0.125 0.95
2.375 0 0.8875
2.375 0.0625 0.8875
2.4375 0.125 0.8875
2.4375 0.0625 0.8875
2.5 0.125 0.8875
2.4375 0.0625 0.95
2.5 0.0625 0.95
2.4375 0 0.95
2.4375 0 0.8875
2.4375 0.125 0.95
2.5 0 0.8875
2.5 0.0625 0.8875
2.5625 0.125 0.8875
2.5625 0.0625 0.8875
2.625 0.125 0.8875
2.5625 0.0625 0.95
2.625 0.0625 0.95
2.5625 0 0.95
2.5625 0 0.8875
2.5625 0.125 0.95
2.625 0 0.8875
2.625 0.0625 0.8875
2.6875 0.125 0.8875
2.6875 0.0625 0.8875
2.75 0.125 0.8875
2.6875 0.0625 0.95
2.75 0.0625 0.95
2.6875 0 0.95
2.6875 0 0.8875
2.6875 0.125 0.95
2.75 0 0.8875
2.75 0.0625 0.8875
2.8125 0.125 0.8875
2.8125 0.0625 0.8875
2.875 0.125 0.8875
2.8125 0.0625 0.95
2.875 0.0625 0.95
2.8125 0 0.95
2.8125 0 0.8875
2.8125 0.125 0.95
2.875 0 0.8875
2.875 0.0625 0.8875
2.9375 0.125 0.8875
2.9375 0.0625 0.8875
3 0.125 0.8875
2.9375 0.0625 0.95
3 0.0625 0.95
2.9375 0 0.95
2.9375 0 0.8875
2.9375 0.125 0.95
3 0 0.8875
3 0.0625 0.8875
3.0625 0.125 0.8875
3.0625 0.0625 0.8875
3.125 0.125 0.8875
3.0625 0.0625 0.95
3.125 0.0625 0.95
3.0625 0 0.95
3.0625 0 0.8875
3.0625 0.125 0.95
3.125 0 0.8875
3.125 0.0625 0.8875
3.1875 0.125 0.8875
3.1875 0.0625 0.8875
3.25 0.125 0.8875
3.1875 0.0625 0.95
3.25 0.0625 0.95
3.1875 0 0.95
3.1875 0 0.8875
3.1875 0.125 0.95
3.25 0 0.8875
3.25 0.0625 0.8875
3.3125 0.125 0.8875
3.3125 0.0625 0.8875
3.375 0.125 0.8875
3.3125 0.0625 0.95
3.375 0.0625 0.95
3.3125 0 0.95
3.3125 0 0.8875
3.3125 0.125 0.95
3.375 0 0.8875
3.375 0.0625 0.8875
3.4375 0.125 0.8875
3.4375 0.0625 0.8875
3.5 0.125 0.8875
3.4375 0.0625 0.95
3.5 0.0625 0.95
3.4375 0 0.95
3.4375 0 0.8875
3.4375 0.125 0.95
3.5 0 0.8875
3.5 0.0625 0.8875
3.5625 0.125 0.8875
3.5625 0.0625 0.8875
3.625 0.125 0.8875
3.5625 0.0625 0.95
3.625 0.0625 0.95
3.5625 0 0.95
3.5625 0 0.8875
3.5625 0.125 0.95
3.625 0 0.8875
3.625 0.0625 0.8875
3.6875 0.125 0.8875
3.6875 0.0625 0.8875
3.75 0.125 0.8875
3.6875 0.0625 0.95
3.75 0.0625 0.95
3.6875 0 0.95
3.6875 0 0.8875
3.6875 0.125 0.95
3.75 0 0.8875
3.75 0.0625 0.8875
3.8125 0.125 0.8875
3.8125 0.0625 0.8875
3.875 0.125 0.8875
3.8125 0.0625 0.95
3.875 0.0625 0.95
3.8125 0 0.95
3.8125 0 0.8875
3.8125 0.125 0.95
3.875 0 0.8875
3.875 0.0625 0.8875
3.9375 0.125 0.8875
3.9375 0.0625 0.8875
4 0.125 0.8875
3.9375 0.0625 0.95
4 0.0625 0.95
3.9375 0 0.95
3.9375 0 0.8875
3.9375 0.125 0.95
4 0 0.8875
4 0.0625 0.8875
0.0625 0.25 0.8875
0.0625 0.1875 0.8875
0.125 0.25 0.8875
0.0625 0.1875 0.95
0.125 0.1875 0.95
0 0.25 0.8875
0 0.1875 0.8875
0.0625 0.25 0.95
0 0.1875 0.95
0.125 0.1875 0.8875
0.1875 0.25 0.8875
0.1875 0.1875 0.8875
0.25 0.25 0.8875
0.1875 0.1875 0.95
0.25 0.1875 0.95
0.1875 0.25 0.95
0.25 0.1875 0.8875
0.3125 0.25 0.8875
0.3125 0.1875 0.8875
0.375 0.25 0.8875
0.3125 0.1875 0.95
0.375 0.1875 0.95
0.3125 0.25 0.95
0.375 0.1875 0.8875
0.4375 0.25 0.8875
0.4375 0.1875 0.8875
0.5 0.25 0.8875
0.4375 0.1875 0.95
0.5 0.1875 0.95
0.4375 0.25 0.95
0.5 0.1875 0.8875
0.5625 0.25 0.8875
0.5625 0.1875 0.8875
0.625 0.25 0.8875
0.5625 0.1875 0.95
0.625 0.1875 0.95
0.5625 0.25 0.95
0.625 0.1875 0.8875
0.6875 0.25 0.8875
0.6875 0.1875 0.8875
0.75 0.25 0.8875
0.6875 0.1875 0.95
0.75 0.1875 0.95
0.6875 0.25 0.95
0.75 0.1875 0.8875
0.8125 0.25 0.8875
0.8125 0.1875 0.8875
0.875 0.25 0.8875
0.8125 0.1875 0.95
0.875 0.1875 0.95
0.8125 0.25 0.95
0.875 0.1875 0.8875
0.9375 0.25 0.8875
0.9375 0.1875 0.8875
1 0.25 0.8875
0.9375 0.1875 0.95
1 0.1875 0.95
0.9375 0.25 0.95
1 0.1875 0.8875
1.0625 0.25 0.8875
1.0625 0.1875 0.8875
1.125 0.25 0.8875
1.0625 0.1875 0.95
1.125 0.1875 0.95
1.0625 0.25 0.95
1.125 0.1875 0.8875
1.1875 0.25 0.8875
1.1875 0.1875 0.8875
1.25 0.25 0.8875
1.1875 0.1875 0.95
1.25 0.1875 0.95
1.1875 0.25 0.95
1.25 0.1875 0.8875
1.3125 0.25 0.8875
1.3125 0.1875 0.8875
1.375 0.25 0.8875
1.3125 0.1875 0.95
1.375 0.1875 0.95
1.3125 0.25 0.95
1.375 0.1875 0.8875
1.4375 0.25 0.8875
1.4375 0.1875 0.8875
1.5 0.25 0.8875
1.4375 0.1875 0.95
1.5 0.1875 0.95
1.4375 0.25 0.95
1.5 0.1875 0.8875
1.5625 0.25 0.8875
1.5625 0.1875 0.8875
1.625 0.25 0.8875
1.5625 0.1875 0.95
1.625 0.1875 0.95
1.5625 0.25 0.95
1.625 0.1875 0.8875
1.6875 0.25 0.8875
1.6875 0.1875 0.8875
1.75 0.25 0.8875
1.6875 0.1875 0.95
1.75 0.1875 0.95
1.6875 0.25 0.95
1.75 0.1875 0.8875
1.8125 0.25 0.8875
1.8125 0.1875 0.8875
1.875 0.25 0.8875
1.8125 0.1875 0.95
1.875 0.1875 0.95
1.8125 0.25 0.95
1.875 0.1875 0.8875
1.9375 0.25 0.8875
1.9375 0.1875 0.8875
2 0.25 0.8875
1.9375 0.1875 0.95
2 0.1875 0.95
1.9375 0.25 0.95
2 0.1875 0.8875
2.0625 0.25 0.8875
2.0625 0.1875 0.8875
2.125 0.25 0.8875
2.0625 0.1875 0.95
2.125 0.1875 0.95
2.0625 0.25 0.95
2.125 0.1875 0.8875
2.1875 0.25 0.8875
2.1875 0.1875 0.8875
2.25 0.25 0.8875
2.1875 0.1875 0.95
2.25 0.1875 0.95
2.1875 0.25 0.95
2.25 0.1875 0.8875
2.3125 0.25 0.8875
2.3125 0.1875 0.8875
2.375 0.25 0.8875
2.3125 0.1875 0.95
2.375 0.1875 0.95
2.3125 0.25 0.95
2.375 0.1875 0.8875
2.4375 0.25 0.8875
2.4375 0.1875 0.8875
2.5 0.25 0.8875
2.4375 0.1875 0.95
2.5 0.1875 0.95
2.4375 0.25 0.95
2.5 0.1875 0.8875
2.5625 0.25 0.8875
2.5625 0.1875 0.8875
2.625 0.25 0.8875
2.5625 0.1875 0.95
2.625 0.1875 0.95
2.5625 0.25 0.95
2.625 0.1875 0.8875
2.6875 0.25 0.8875
2.6875 0.1875 0.8875
2.75 0.25 0.8875
2.6875 0.1875 0.95
2.75 0.1875 0.95
2.6875 0.25 0.95
2.75 0.1875 0.8875
2.8125 0.25 0.8875
2.8125 0.1875 0.8875
2.875 0.25 0.8875
2.8125 0.1875 0.95
2.875 0.1875 0.95
2.8125 0.25 0.95
2.875 0.1875 0.8875
2.9375 0.25 0.8875
2.9375 0.1875 0.8875
3 0.25 0.8875
2.9375 0.1875 0.95
3 0.1875 0.95
2.9375 0.25 0.95
3 0.1875 0.8875
3.0625 0.25 0.8875
3.0625 0.1875 0.8875
3.125 0.25 0.8875
3.0625 0.1875 0.95
3.125 0.1875 0.95
3.0625 0.25 0.95
3.125 0.1875 0.8875
3.1875 0.25 0.8875
3.1875 0.1875 0.8875
3.25 0.25 0.8875
3.1875 0.1875 0.95
3.25 0.1875 0.95
3.1875 0.25 0.95
3.25 0.1875 0.8875
3.3125 0.25 0.8875
3.3125 0.1875 0.8875
3.375 0.25 0.8875
3.3125 0.1875 0.95
3.375 0.1875 0.95
3.3125 0.25 0.95
3.375 0.1875 0.8875
3.4375 0.25 0.8875
3.4375 0.1875 0.8875
3.5 0.25 0.8875
3.4375 0.1875 0.95
3.5 0.1875 0.95
3.4375 0.25 0.95
3.5 0.1875 0.8875
3.5625 0.25 0.8875
3.5625 0.1875 0.8875
3.625 0.25 0.8875
3.5625 0.1875 0.95
3.625 0.1875 0.95
3.5625 0.25 0.95
3.625 0.1875 0.8875
3.6875 0.25 0.8875
3.6875 0.1875 0.8875
3.75 0.25 0.8875
3.6875 0.1875 0.95
3.75 0.1875 0.95
3.6875 0.25 0.95
3.75 0.1875 0.8875
3.8125 0.25 0.8875
3.8125 0.1875 0.8875
3.875 0.25 0.8875
3.8125 0.1875 0.95
3.875 0.1875 0.95
3.8125 0.25 0.95
3.875 0.1875 0.8875
3.9375 0.25 0.8875
3.9375 0.1875 0.8875
4 0.25 0.8875
3.9375 0.1875 0.95
4 0.1875 0.95
3.9375 0.25 0.95
4 0.1875 0.8875
0.0625 0.375 0.8875
0.0625 0.3125 0.8875
0.125 0.375 0.8875
0.0625 0.3125 0.95
0.125 0.3125 0.95
0 0.375 0.8875
0 0.3125 0.8875
0.0625 0.375 0.95
0 0.3125 0.95
0.125 0.3125 0.8875
0.1875 0.375 0.8875
0.1875 0.3125 0.8875
0.25 0.375 0.8875
0.1875 0.3125 0.95
0.25 0.3125 0.95
0.1875 0.375 0.95
0.25 0.3125 0.8875
0.3125 0.375 0.8875
0.3125 0.3125 0.8875
0.375 0.375 0.8875
0.3125 0.3125 0.95
0.375 0.3125 0.95
0.3125 0.375 0.95
0.375 0.3125 0.8875
0.4375 0.375 0.8875
0.4375 0.3125 0.8875
0.5 0.375 0.8875
0.4375 0.3125 0.95
0.5 0.3125 0.95
0.4375 0.375 0.95
0.5 0.3125 0.8875
0.5625 0.375 0.8875
0.5625 0.3125 0.8875
0.625 0.375 0.8875
0.5625 0.3125 0.95
0.625 0.3125 0.95
0.5625 0.375 0.95
0.625 0.3125 0.8875
0.6875 0.375 0.8875
0.6875 0.3125 0.8875
0.75 0.375 0.8875
0.6875 0.3125 0.95
0.75 0.3125 0.95
0.6875 0.375 0.95
0.75 0.3125 0.8875
0.8125 0.375 0.8875
0.8125 0.3125 0.8875
0.875 0.375 0.8875
0.8125 0.3125 0.95
0.875 0.3125 0.95
0.8125 0.375 0.95
0.875 0.3125 0.8875
0.9375 0.375 0.8875
0.9375 0.3125 0.8875
1 0.375 0.8875
0.9375 0.3125 0.95
1 0.3125 0.95
0.9375 0.375 0.95
1 0.3125 0.8875
1.0625 0.375 0.8875
1.0625 0.3125 0.8875
1.125 0.375 0.8875
1.0625 0.3125 0.95
1.125 0.3125 0.95
1.0625 0.375 0.95
1.125 0.3125 0.8875
1.1875 0.375 0.8875
1.1875 0.3125 0.8875
1.25 0.375 0.8875
1.1875 0.3125 0.95
1.25 0.3125 0.95
1.1875 0.375 0.95
1.25 0.3125 0.8875
1.3125 0.375 0.8875
1.3125 0.3125 0.8875
1.375 0.375 0.8875
1.3125 0.3125 0.95
1.375 0.3125 0.95
1.3125 0.375 0.95
1.375 0.3125 0.8875
1.4375 0.375 0.8875
1.4375 0.3125 0.8875
1.5 0.375 0.8875
1.4375 0.3125 0.95
1.5 0.3125 0.95
1.4375 0.375 0.95
1.5 0.3125 0.8875
1.5625 0.375 0.8875
1.5625 0.3125 0.8875
1.625 0.375 0.8875
1.5625 0.3125 0.95
1.625 0.3125 0.95
1.5625 0.375 0.95
1.625 0.3125 0.8875
1.6875 0.375 0.8875
1.6875 0.3125 0.8875
1.75 0.375 0.8875
1.6875 0.3125 0.95
1.75 0.3125 0.95
1.6875 0.375 0.95
1.75 0.3125 0.8875
1.8125 0.375 0.8875
1.8125 0.3125 0.8875
1.875 0.375 0.8875
1.8125 0.3125 0.95
1.875 0.3125 0.95
1.8125 0.375 0.95
1.875 0.3125 0.8875
1.9375 0.375 0.8875
1.9375 0.3125 0.8875
2 0.375 0.8875
1.9375 0.3125 0.95
2 0.3125 0.95
1.9375 0.375 0.95
2 0.3125 0.8875
2.0625 0.375 0.8875
2.0625 0.3125 0.8875
2.125 0.375 0.8875
2.0625 0.3125 0.95
2.125 0.3125 0.95
2.0625 0.375 0.95
2.125 0.3125 0.8875
2.1875 0.375 0.8875
2.1875 0.3125 0.8875
2.25 0.375 0.8875
2.1875 0.3125 0.95
2.25 0.3125 0.95
2.1875 0.375 0.95
2.25 0.3125 0.8875
2.3125 0.375 0.8875
2.3125 0.3125 0.8875
2.375 0.375 0.8875
2.3125 0.3125 0.95
2.375 0.3125 0.95
2.3125 0.375 0.95
2.375 0.3125 0.8875
2.4375 0.375 0.8875
2.4375 0.3125 0.8875
2.5 0.375 0.8875
2.4375 0.3125 0.95
2.5 0.3125 0.95
2.4375 0.375 0.95
2.5 0.3125 0.8875
2.5625 0.375 0.8875
2.5625 0.3125 0.8875
2.625 0.375 0.8875
2.5625 0.3125 0.95
2.625 0.3125 0.95
2.5625 0.375 0.95
2.625 0.3125 0.8875
2.6875 0.375 0.8875
2.6875 0.3125 0.8875
2.75 0.375 0.8875
2.6875 0.3125 0.95
2.75 0.3125 0.95
2.6875 0.375 0.95
2.75 0.3125 0.8875
2.8125 0.375 0.8875
2.8125 0.3125 0.8875
2.875 0.375 0.8875
2.8125 0.3125 0.95
2.875 0.3125 0.95
2.8125 0.375 0.95
2.875 0.3125 0.8875
2.9375 0.375 0.8875
2.9375 0.3125 0.8875
3 0.375 0.8875
2.9375 0.3125 0.95
3 0.3125 0.95
2.9375 0.375 0.95
3 0.3125 0.8875
3.0625 0.375 0.8875
3.0625 0.3125 0.8875
3.125 0.375 0.8875
3.0625 0.3125 0.95
3.125 0.3125 0.95
3.0625 0.375 0.95
3.125 0.3125 0.8875
3.1875 0.375 0.8875
3.1875 0.3125 0.8875
3.25 0.375 0.8875
3.1875 0.3125 0.95
3.25 0.3125 0.95
3.1875 0.375 0.95
3.25 0.3125 0.8875
3.3125 0.375 0.8875
3.3125 0.3125 0.8875
3.375 0.375 0.8875
3.3125 0.3125 0.95
3.375 0.3125 0.95
3.3125 0.375 0.95
3.375 0.3125 0.8875
3.4375 0.375 0.8875
3.4375 0.3125 0.8875
3.5 0.375 0.8875
3.4375 0.3125 0.95
3.5 0.3125 0.95
3.4375 0.375 0.95
3.5 0.3125 0.8875
3.5625 0.375 0.8875
3.5625 0.3125 0.8875
3.625 0.375 0.8875
3.5625 0.3125 0.95
3.625 0.3125 0.95
3.5625 0.375 0.95
3.625 0.3125 0.8875
3.6875 0.375 0.8875
3.6875 0.3125 0.8875
3.75 0.375 0.8875
3.6875 0.3125 0.95
3.75 0.3125 0.95
3.6875 0.375 0.95
3.75 0.3125 0.8875
3.8125 0.375 0.8875
3.8125 0.3125 0.8875
3.875 0.375 0.8875
3.8125 0.3125 0.95
3.875 0.3125 0.95
3.8125 0.375 0.95
3.875 0.3125 0.8875
3.9375 0.375 0.8875
3.9375 0.3125 0.8875
4 0.375 0.8875
3.9375 0.3125 0.95
4 0.3125 0.95
3.9375 0.375 0.95
4 0.3125 0.8875
0.0625 0.5 0.8875
0.0625 0.4375 0.8875
0.125 0.5 0.8875
0.0625 0.4375 0.95
0.125 0.4375 0.95
0 0.5 0.8875
0 0.4375 0.8875
0.0625 0.5 0.95
0 0.4375 0.95
0.125 0.4375 0.8875
0.1875 0.5 0.8875
0.1875 0.4375 0.8875
0.25 0.5 0.8875
0.1875 0.4375 0.95
0.25 0.4375 0.95
0.1875 0.5 0.95
0.25 0.4375 0.8875
0.3125 0.5 0.8875
0.3125 0.4375 0.8875
0.375 0.5 0.8875
0.3125 0.4375 0.95
0.375 0.4375 0.95
0.3125 0.5 0.95
0.375 0.4375 0.8875
0.4375 0.5 0.8875
0.4375 0.4375 0.8875
0.5 0.5 0.8875
0.4375 0.4375 0.95
0.5 0.4375 0.95
0.4375 0.5 0.95
0.5 0.4375 0.8875
0.5625 0.5 0.8875
0.5625 0.4375 0.8875
0.625 0.5 0.8875
0.5625 0.4375 0.95
0.625 0.4375 0.95
0.5625 0.5 0.95
0.625 0.4375 0.8875
0.6875 0.5 0.8875
0.6875 0.4375 0.8875
0.75 0.5 0.8875
0.6875 0.4375 0.95
0.75 0.4375 0.95
0.6875 0.5 0.95
0.75 0.4375 0.8875
0.8125 0.5 0.8875
0.8125 0.4375 0.8875
0.875 0.5 0.8875
0.8125 0.4375 0.95
0.875 0.4375 0.95
0.8125 0.5 0.95
0.875 0.4375 0.8875
0.9375 0.5 0.8875
0.9375 0.4375 0.8875
1 0.5 0.8875
0.9375 0.4375 0.95
1 0.4375 0.95
0.9375 0.5 0.95
1 0.4375 0.8875
1.0625 0.5 0.8875
1.0625 0.4375 0.8875
1.125 0.5 0.8875
1.0625 0.4375 0.95
1.125 0.4375 0.95
1.0625 0.5 0.95
1.125 0.4375 0.8875
1.1875 0.5 0.8875
1.1875 0.4375 0.8875
1.25 0.5 0.8875
1.1875 0.4375 0.95
1.25 0.4375 0.95
1.1875 0.5 0.95
1.25 0.4375 0.8875
1.3125 0.5 0.8875
1.3125 0.4375 0.8875
1.375 0.5 0.8875
1.3125 0.4375 0.95
1.375 0.4375 0.95
1.3125 0.5 0.95
1.375 0.4375 0.8875
1.4375 0.5 0.8875
1.4375 0.4375 0.8875
1.5 0.5 0.8875
1.4375 0.4375 0.95
1.5 0.4375 0.95
1.4375 0.5 0.95
1.5 0.4375 0.8875
1.5625 0.5 0.8875
1.5625 0.4375 0.8875
1.625 0.5 0.8875
1.5625 0.4375 0.95
1.625 0.4375 0.95
1.5625 0.5 0.95
1.625 0.4375 0.8875
1.6875 0.5 0.8875
1.6875 0.4375 0.8875
1.75 0.5 0.8875
1.6875 0.4375 0.95
1.75 0.4375 0.95
1.6875 0.5 0.95
1.75 0.4375 0.8875
1.8125 0.5 0.8875
1.8125 0.4375 0.8875
1.875 0.5 0.8875
1.8125 0.4375 0.95
1.875 0.4375 0.95
1.8125 0.5 0.95
1.875 0.4375 0.8875
1.9375 0.5 0.8875
1.9375 0.4375 0.8875
2 0.5 0.8875
1.9375 0.4375 0.95
2 0.4375 0.95
1.9375 0.5 0.95
2 0.4375 0.8875
2.0625 0.5 0.8875
2.0625 0.4375 0.8875
2.125 0.5 0.8875
2.0625 0.4375 0.95
2.125 0.4375 0.95
2.0625 0.5 0.95
2.125 0.4375 0.8875
2.1875 0.5 0.8875
2.1875 0.4375 0.8875
2.25 0.5 0.8875
2.1875 0.4375 0.95
2.25 0.4375 0.95
2.1875 0.5 0.95
2.25 0.4375 0.8875
2.3125 0.5 0.8875
2.3125 0.4375 0.8875
2.375 0.5 0.8875
2.3125 0.4375 0.95
2.375 0.4375 0.95
2.3125 0.5 0.95
2.375 0.4375 0.8875
2.4375 0.5 0.8875
2.4375 0.4375 0.8875
2.5 0.5 0.8875
2.4375 0.4375 0.95
2.5 0.4375 0.95
2.4375 0.5 0.95
2.5 0.4375 0.8875
2.5625 0.5 0.8875
2.5625 0.4375 0.8875
2.625 0.5 0.8875
2.5625 0.4375 0.95
2.625 0.4375 0.95
2.5625 0.5 0.95
2.625 0.4375 0.8875
2.6875 0.5 0.8875
2.6875 0.4375 0.8875
2.75 0.5 0.8875
2.6875 0.4375 0.95
2.75 0.4375 0.95
2.6875 0.5 0.95
2.75 0.4375 0.8875
2.8125 0.5 0.8875
2.8125 0.4375 0.8875
2.875 0.5 0.8875
2.8125 0.4375 0.95
2.875 0.4375 0.95
2.8125 0.5 0.95
2.875 0.4375 0.8875
2.9375 0.5 0.8875
2.9375 0.4375 0.8875
3 0.5 0.8875
2.9375 0.4375 0.95
3 0.4375 0.95
2.9375 0.5 0.95
3 0.4375 0.8875
3.0625 0.5 0.8875
3.0625 0.4375 0.8875
3.125 0.5 0.8875
3.0625 0.4375 0.95
3.125 0.4375 0.95
3.0625 0.5 0.95
3.125 0.4375 0.8875
3.1875 0.5 0.8875
3.1875 0.4375 0.8875
3.25 0.5 0.8875
3.1875 0.4375 0.95
3.25 0.4375 0.95
3.1875 0.5 0.95
3.25 0.4375 0.8875
3.3125 0.5 0.8875
3.3125 0.4375 0.8875
3.375 0.5 0.8875
3.3125 0.4375 0.95
3.375 0.4375 0.95
3.3125 0.5 0.95
3.375 0.4375 0.8875
3.4375 0.5 0.8875
3.4375 0.4375 0.8875
3.5 0.5 0.8875
3.4375 0.4375 0.95
3.5 0.4375 0.95
3.4375 0.5 0.95
3.5 0.4375 0.8875
3.5625 0.5 0.8875
3.5625 0.4375 0.8875
3.625 0.5 0.8875
3.5625 0.4375 0.95
3.625 0.4375 0.95
3.5625 0.5 0.95
3.625 0.4375 0.8875
3.6875 0.5 0.8875
3.6875 0.4375 0.8875
3.75 0.5 0.8875
3.6875 0.4375 0.95
3.75 0.4375 0.95
3.6875 0.5 0.95
3.75 0.4375 0.8875
3.8125 0.5 0.8875
3.8125 0.4375 0.8875
3.875 0.5 0.8875
3.8125 0.4375 0.95
3.875 0.4375 0.95
3.8125 0.5 0.95
3.875 0.4375 0.8875
3.9375 0.5 0.8875
3.9375 0.4375 0.8875
4 0.5 0.8875
3.9375 0.4375 0.95
4 0.4375 0.95
3.9375 0.5 0.95
4 0.4375 0.8875
0.0625 0.625 0.8875
0.0625 0.5625 0.8875
0.125 0.625 0.8875
0.0625 0.5625 0.95
0.125 0.5625 0.95
0 0.625 0.8875
0 0.5625 0.8875
0.0625 0.625 0.95
0 0.5625 0.95
0.125 0.5625 0.8875
0.1875 0.625 0.8875
0.1875 0.5625 0.8875
0.25 0.625 0.8875
0.1875 0.5625 0.95
0.25 0.5625 0.95
0.1875 0.625 0.95
0.25 0.5625 0.8875
0.3125 0.625 0.8875
0.3125 0.5625 0.8875
0.375 0.625 0.8875
0.3125 0.5625 0.95
0.375 0.5625 0.95
0.3125 0.625 0.95
0.375 0.5625 0.8875
0.4375 0.625 0.8875
0.4375 0.5625 0.8875
0.5 0.625 0.8875
0.4375 0.5625 0.95
0.5 0.5625 0.95
0.4375 0.625 0.95
0.5 0.5625 0.8875
0.5625 0.625 0.8875
0.5625 0.5625 0.8875
0.625 0.625 0.8875
0.5625 0.5625 0.95
0.625 0.5625 0.95
0.5625 0.625 0.95
0.625 0.5625 0.8875
0.6875 0.625 0.8875
0.6875 0.5625 0.8875
0.75 0.625 0.8875
0.6875 0.5625 0.95
0.75 0.5625 0.95
0.6875 0.625 0.95
0.75 0.5625 0.8875
0.8125 0.625 0.8875
0.8125 0.5625 0.8875
0.875 0.625 0.8875
0.8125 0.5625 0.95
0.875 0.5625 0.95
0.8125 0.625 0.95
0.875 0.5625 0.8875
0.9375 0.625 0.8875
0.9375 0.5625 0.8875
1 0.625 0.8875
0.9375 0.5625 0.95
1 0.5625 0.95
0.9375 0.625 0.95
1 0.5625 0.8875
1.0625 0.625 0.8875
1.0625 0.5625 0.8875
1.125 0.625 0.8875
1.0625 0.5625 0.95
1.125 0.5625 0.95
1.0625 0.625 0.95
1.125 0.5625 0.8875
1.1875 0.625 0.8875
1.1875 0.5625 0.8875
1.25 0.625 0.8875
1.1875 0.5625 0.95
1.25 0.5625 0.95
1.1875 0.625 0.95
1.25 0.5625 0.8875
1.3125 0.625 0.8875
1.3125 0.5625 0.8875
1.375 0.625 0.8875
1.3125 0.5625 0.95
1.375 0.5625 0.95
1.3125 0.625 0.95
1.375 0.5625 0.8875
1.4375 0.625 0.8875
1.4375 0.5625 0.8875
1.5 0.625 0.8875
1.4375 0.5625 0.95
1.5 0.5625 0.95
1.4375 0.625 0.95
1.5 0.5625 0.8875
1.5625 0.625 0.8875
1.5625 0.5625 0.8875
1.625 0.625 0.8875
1.5625 0.5625 0.95
1.625 0.5625 0.95
1.5625 0.625 0.95
1.625 0.5625 0.8875
1.6875 0.625 0.8875
1.6875 0.5625 0.8875
1.75 0.625 0.8875
1.6875 0.5625 0.95
1.75 0.5625 0.95
1.6875 0.625 0.95
1.75 0.5625 0.8875
1.8125 0.625 0.8875
1.8125 0.5625 0.8875
1.875 0.625 0.8875
1.8125 0.5625 0.95
1.875 0.5625 0.95
1.8125 0.625 0.95
1.875 0.5625 0.8875
1.9375 0.625 0.8875
1.9375 0.5625 0.8875
2 0.625 0.8875
1.9375 0.5625 0.95
2 0.5625 0.95
1.9375 0.625 0.95
2 0.5625 0.8875
2.0625 0.625 0.8875
2.0625 0.5625 0.8875
2.125 0.625 0.8875
2.0625 0.5625 0.95
2.125 0.5625 0.95
2.0625 0.625 0.95
2.125 0.5625 0.8875
2.1875 0.625 0.8875
2.1875 0.5625 0.8875
2.25 0.625 0.8875
2.1875 0.5625 0.95
2.25 0.5625 0.95
2.1875 0.625 0.95
2.25 0.5625 0.8875
2.3125 0.625 0.8875
2.3125 0.5625 0.8875
2.375 0.625 0.8875
2.3125 0.5625 0.95
2.375 0.5625 0.95
2.3125 0.625 0.95
2.375 0.5625 0.8875
2.4375 0.625 0.8875
2.4375 0.5625 0.8875
2.5 0.625 0.8875
2.4375 0.5625 0.95
2.5 0.5625 0.95
2.4375 0.625 0.95
2.5 0.5625 0.8875
2.5625 0.625 0.8875
2.5625 0.5625 0.8875
2.625 0.625 0.8875
2.5625 0.5625 0.95
2.625 0.5625 0.95
2.5625 0.625 0.95
2.625 0.5625 0.8875
2.6875 0.625 0.8875
2.6875 0.5625 0.8875
2.75 0.625 0.8875
2.6875 0.5625 0.95
2.75 0.5625 0.95
2.6875 0.625 0.95
2.75 0.5625 0.8875
2.8125 0.625 0.8875
2.8125 0.5625 0.8875
2.875 0.625 0.8875
2.8125 0.5625 0.95
2.875 0.5625 0.95
2.8125 0.625 0.95
2.875 0.5625 0.8875
2.9375 0.625 0.8875
2.9375 0.5625 0.8875
3 0.625 0.8875
2.9375 0.5625 0.95
3 0.5625 0.95
2.9375 0.625 0.95
3 0.5625 0.8875
3.0625 0.625 0.8875
3.0625 0.5625 0.8875
3.125 0.625 0.8875
3.0625 0.5625 0.95
3.125 0.5625 0.95
3.0625 0.625 0.95
3.125 0.5625 0.8875
3.1875 0.625 0.8875
3.1875 0.5625 0.8875
3.25 0.625 0.8875
3.1875 0.5625 0.95
3.25 0.5625 0.95
3.1875 0.625 0.95
3.25 0.5625 0.8875
3.3125 0.625 0.8875
3.3125 0.5625 0.8875
3.375 0.625 0.8875
3.3125 0.5625 0.95
3.375 0.5625 0.95
3.3125 0.625 0.95
3.375 0.5625 0.8875
3.4375 0.625 0.8875
3.4375 0.5625 0.8875
3.5 0.625 0.8875
3.4375 0.5625 0.95
3.5 0.5625 0.95
3.4375 0.625 0.95
3.5 0.5625 0.8875
3.5625 0.625 0.8875
3.5625 0.5625 0.8875
3.625 0.625 0.8875
3.5625 0.5625 0.95
3.625 0.5625 0.95
3.5625 0.625 0.95
3.625 0.5625 0.8875
3.6875 0.625 0.8875
3.6875 0.5625 0.8875
3.75 0.625 0.8875
3.6875 0.5625 0.95
3.75 0.5625 0.95
3.6875 0.625 0.95
3.75 0.5625 0.8875
3.8125 0.625 0.8875
3.8125 0.5625 0.8875
3.875 0.625 0.8875
3.8125 0.5625 0.95
3.875 0.5625 0.95
3.8125 0.625 0.95
3.875 0.5625 0.8875
3.9375 0.625 0.8875
3.9375 0.5625 0.8875
4 0.625 0.8875
3.9375 0.5625 0.95
4 0.5625 0.95
3.9375 0.625 0.95
4 0.5625 0.8875
0.0625 0.75 0.8875
0.0625 0.6875 0.8875
0.125 0.75 0.8875
0.0625 0.6875 0.95
0.125 0.6875 0.95
0 0.75 0.8875
0 0.6875 0.8875
0.0625 0.75 0.95
0 0.6875 0.95
0.125 0.6875 0.8875
0.1875 0.75 0.8875
0.1875 0.6875 0.8875
0.25 0.75 0.8875
0.1875 0.6875 0.95
0.25 0.6875 0.95
0.1875 0.75 0.95
0.25 0.6875 0.8875
0.3125 0.75 0.8875
0.3125 0.6875 0.8875
0.375 0.75 0.8875
0.3125 0.6875 0.95
0.375 0.6875 0.95
0.3125 0.75 0.95
0.375 0.6875 0.8875
0.4375 0.75 0.8875
0.4375 0.6875 0.8875
0.5 0.75 0.8875
0.4375 0.6875 0.95
0.5 0.6875 0.95
0.4375 0.75 0.95
0.5 0.6875 0.8875
0.5625 0.75 0.8875
0.5625 0.6875 0.8875
0.625 0.75 0.8875
0.5625 0.6875 0.95
0.625 0.6875 0.95
0.5625 0.75 0.95
0.625 0.6875 0.8875
0.6875 0.75 0.8875
0.6875 0.6875 0.8875
0.75 0.75 0.8875
0.6875 0.6875 0.95
0.75 0.6875 0.95
0.6875 0.75 0.95
0.75 0.6875 0.8875
0.8125 0.75 0.8875
0.8125 0.6875 0.8875
0.875 0.75 0.8875
0.8125 0.6875 0.95
0.875 0.6875 0.95
0.8125 0.75 0.95
0.875 0.6875 0.8875
0.9375 0.75 0.8875
0.9375 0.6875 0.8875
1 0.75 0.8875
0.9375 0.6875 0.95
1 0.6875 0.95
0.9375 0.75 0.95
1 0.6875 0.8875
1.0625 0.75 0.8875
1.0625 0.6875 0.8875
1.125 0.75 0.8875
1.0625 0.6875 0.95
1.125 0.6875 0.95
1.0625 0.75 0.95
1.125 0.6875 0.8875
1.1875 0.75 0.8875
1.1875 0.6875 0.8875
1.25 0.75 0.8875
1.1875 0.6875 0.95
1.25 0.6875 0.95
1.1875 0.75 0.95
1.25 0.6875 0.8875
1.3125 0.75 0.8875
1.3125 0.6875 0.8875
1.375 0.75 0.8875
1.3125 0.6875 0.95
1.375 0.6875 0.95
1.3125 0.75 0.95
1.375 0.6875 0.8875
1.4375 0.75 0.8875
1.4375 0.6875 0.8875
1.5 0.75 0.8875
1.4375 0.6875 0.95
1.5 0.6875 0.95
1.4375 0.75 0.95
1.5 0.6875 0.8875
1.5625 0.75 0.8875
1.5625 0.6875 0.8875
1.625 0.75 0.8875
1.5625 0.6875 0.95
1.625 0.6875 0.95
1.5625 0.75 0.95
1.625 0.6875 0.8875
1.6875 0.75 0.8875
1.6875 0.6875 0.8875
1.75 0.75 0.8875
1.6875 0.6875 0.95
1.75 0.6875 0.95
1.6875 0.75 0.95
1.75 0.6875 0.8875
1.8125 0.75 0.8875
1.8125 0.6875 0.8875
1.875 0.75 0.8875
1.8125 0.6875 0.95
1.875 0.6875 0.95
1.8125 0.75 0.95
1.875 0.6875 0.8875
1.9375 0.75 0.8875
1.9375 0.6875 0.8875
2 0.75 0.8875
1.9375 0.6875 0.95
2 0.6875 0.95
1.9375 0.75 0.95
2 0.6875 0.8875
2.0625 0.75 0.8875
2.0625 0.6875 0.8875
2.125 0.75 0.8875
2.0625 0.6875 0.95
2.125 0.6875 0.95
2.0625 0.75 0.95
2.125 0.6875 0.8875
2.1875 0.75 0.8875
2.1875 0.6875 0.8875
2.25 0.75 0.8875
2.1875 0.6875 0.95
2.25 0.6875 0.95
2.1875 0.75 0.95
2.25 0.6875 0.8875
2.3125 0.75 0.8875
2.3125 0.6875 0.8875
2.375 0.75 0.8875
2.3125 0.6875 0.95
2.375 0.6875 0.95
2.3125 0.75 0.95
2.375 0.6875 0.8875
2.4375 0.75 0.8875
2.4375 0.6875 0.8875
2.5 0.75 0.8875
2.4375 0.6875 0.95
2.5 0.6875 0.95
2.4375 0.75 0.95
2.5 0.6875 0.8875
2.5625 0.75 0.8875
2.5625 0.6875 0.8875
2.625 0.75 0.8875
2.5625 0.6875 0.95
2.625 0.6875 0.95
2.5625 0.75 0.95
2.625 0.6875 0.8875
2.6875 0.75 0.8875
2.6875 0.6875 0.8875
2.75 0.75 0.8875
2.6875 0.6875 0.95
2.75 0.6875 0.95
2.6875 0.75 0.95
2.75 0.6875 0.8875
2.8125 0.75 0.8875
2.8125 0.6875 0.8875
2.875 0.75 0.8875
2.8125 0.6875 0.95
2.875 0.6875 0.95
2.8125 0.75 0.95
2.875 0.6875 0.8875
2.9375 0.75 0.8875
2.9375 0.6875 0.8875
3 0.75 0.8875
2.9375 0.6875 0.95
3 0.6875 0.95
2.9375 0.75 0.95
3 0.6875 0.8875
3.0625 0.75 0.8875
3.0625 0.6875 0.8875
3.125 0.75 0.8875
3.0625 0.6875 0.95
3.125 0.6875 0.95
3.0625 0.75 0.95
3.125 0.6875 0.8875
3.1875 0.75 0.8875
3.1875 0.6875 0.8875
3.25 0.75 0.8875
3.1875 0.6875 0.95
3.25 0.6875 0.95
3.1875 0.75 0.95
3.25 0.6875 0.8875
3.3125 0.75 0.8875
3.3125 0.6875 0.8875
3.375 0.75 0.8875
3.3125 0.6875 0.95
3.375 0.6875 0.95
3.3125 0.75 0.95
3.375 0.6875 0.8875
3.4375 0.75 0.8875
3.4375 0.6875 0.8875
3.5 0.75 0.8875
3.4375 0.6875 0.95
3.5 0.6875 0.95
3.4375 0.75 0.95
3.5 0.6875 0.8875
3.5625 0.75 0.8875
3.5625 0.6875 0.8875
3.625 0.75 0.8875
3.5625 0.6875 0.95
3.625 0.6875 0.95
3.5625 0.75 0.95
3.625 0.6875 0.8875
3.6875 0.75 0.8875
3.6875 0.6875 0.8875
3.75 0.75 0.8875
3.6875 0.6875 0.95
3.75 0.6875 0.95
3.6875 0.75 0.95
3.75 0.6875 0.8875
3.8125 0.75 0.8875
3.8125 0.6875 0.8875
3.875 0.75 0.8875
3.8125 0.6875 0.95
3.875 0.6875 0.95
3.8125 0.75 0.95
3.875 0.6875 0.8875
3.9375 0.75 0.8875
3.9375 0.6875 0.8875
4 0.75 0.8875
3.9375 0.6875 0.95
4 0.6875 0.95
3.9375 0.75 0.95
4 0.6875 0.8875
0.0625 0.875 0.8875
0.0625 0.8125 0.8875
0.125 0.875 0.8875
0.0625 0.8125 0.95
0.125 0.8125 0.95
0 0.875 0.8875
0 0.8125 0.8875
0.0625 0.875 0.95
0 0.8125 0.95
0.125 0.8125 0.8875
0.1875 0.875 0.8875
0.1875 0.8125 0.8875
0.25 0.875 0.8875
0.1875 0.8125 0.95
0.25 0.8125 0.95
0.1875 0.875 0.95
0.25 0.8125 0.8875
0.3125 0.875 0.8875
0.3125 0.8125 0.8875
0.375 0.875 0.8875
0.3125 0.8125 0.95
0.375 0.8125 0.95
0.3125 0.875 0.95
0.375 0.8125 0.8875
0.4375 0.875 0.8875
0.4375 0.8125 0.8875
0.5 0.875 0.8875
0.4375 0.8125 0.95
0.5 0.8125 0.95
0.4375 0.875 0.95
0.5 0.8125 0.8875
0.5625 0.875 0.8875
0.5625 0.8125 0.8875
0.625 0.875 0.8875
0.5625 0.8125 0.95
0.625 0.8125 0.95
0.5625 0.875 0.95
0.625 0.8125 0.8875
0.6875 0.875 0.8875
0.6875 0.8125 0.8875
0.75 0.875 0.8875
0.6875 0.8125 0.95
0.75 0.8125 0.95
0.6875 0.875 0.95
0.75 0.8125 0.8875
0.8125 0.875 0.8875
0.8125 0.8125 0.8875
0.875 0.875 0.8875
0.8125 0.8125 0.95
0.875 0.8125 0.95
0.8125 0.875 0.95
0.875 0.8125 0.8875
0.9375 0.875 0.8875
0.9375 0.8125 0.8875
1 0.875 0.8875
0.9375 0.8125 0.95
1 0.8125 0.95
0.9375 0.875 0.95
1 0.8125 0.8875
1.0625 0.875 0.8875
1.0625 0.8125 0.8875
1.125 0.875 0.8875
1.0625 0.8125 0.95
1.125 0.8125 0.95
1.0625 0.875 0.95
1.125 0.8125 0.8875
1.1875 0.875 0.8875
1.1875 0.8125 0.8875
1.25 0.875 0.8875
1.1875 0.8125 0.95
1.25 0.8125 0.95
1.1875 0.875 0.95
1.25 0.8125 0.8875
1.3125 0.875 0.8875
1.3125 0.8125 0.8875
1.375 0.875 0.8875
1.3125 0.8125 0.95
1.375 0.8125 0.95
1.3125 0.875 0.95
1.375 0.8125 0.8875
1.4375 0.875 0.8875
1.4375 0.8125 0.8875
1.5 0.875 0.8875
1.4375 0.8125 0.95
1.5 0.8125 0.95
1.4375 0.875 0.95
1.5 0.8125 0.8875
1.5625 0.875 0.8875
1.5625 0.8125 0.8875
1.625 0.875 0.8875
1.5625 0.8125 0.95
1.625 0.8125 0.95
1.5625 0.875 0.95
1.625 0.8125 0.8875
1.6875 0.875 0.8875
1.6875 0.8125 0.8875
1.75 0.875 0.8875
1.6875 0.8125 0.95
1.75 0.8125 0.95
1.6875 0.875 0.95
1.75 0.8125 0.8875
1.8125 0.875 0.8875
1.8125 0.8125 0.8875
1.875 0.875 0.8875
1.8125 0.8125 0.95
1.875 0.8125 0.95
1.8125 0.875 0.95
1.875 0.8125 0.8875
1.9375 0.875 0.8875
1.9375 0.8125 0.8875
2 0.875 0.8875
1.9375 0.8125 0.95
2 0.8125 0.95
1.9375 0.875 0.95
2 0.8125 0.8875
2.0625 0.875 0.8875
2.0625 0.8125 0.8875
2.125 0.875 0.8875
2.0625 0.8125 0.95
2.125 0.8125 0.95
2.0625 0.875 0.95
2.125 0.8125 0.8875
2.1875 0.875 0.8875
2.1875 0.8125 0.8875
2.25 0.875 0.8875
2.1875 0.8125 0.95
2.25 0.8125 0.95
2.1875 0.875 0.95
2.25 0.8125 0.8875
2.3125 0.875 0.8875
2.3125 0.8125 0.8875
2.375 0.875 0.8875
2.3125 0.8125 0.95
2.375 0.8125 0.95
2.3125 0.875 0.95
2.375 0.8125 0.8875
2.4375 0.875 0.8875
2.4375 0.8125 0.8875
2.5 0.875 0.8875
2.4375 0.8125 0.95
2.5 0.8125 0.95
2.4375 0.875 0.95
2.5 0.8125 0.8875
2.5625 0.875 0.8875
2.5625 0.8125 0.8875
2.625 0.875 0.8875
2.5625 0.8125 0.95
2.625 0.8125 0.95
2.5625 0.875 0.95
2.625 0.8125 0.8875
2.6875 0.875 0.8875
2.6875 0.8125 0.8875
2.75 0.875 0.8875
2.6875 0.8125 0.95
2.75 0.8125 0.95
2.6875 0.875 0.95
2.75 0.8125 0.8875
2.8125 0.875 0.8875
2.8125 0.8125 0.8875
2.875 0.875 0.8875
2.8125 0.8125 0.95
2.875 0.8125 0.95
2.8125 0.875 0.95
2.875 0.8125 0.8875
2.9375 0.875 0.8875
2.9375 0.8125 0.8875
3 0.875 0.8875
2.9375 0.8125 0.95
3 0.8125 0.95
2.9375 0.875 0.95
3 0.8125 0.8875
3.0625 0.875 0.8875
3.0625 0.8125 0.8875
3.125 0.875 0.8875
3.0625 0.8125 0.95
3.125 0.8125 0.95
3.0625 0.875 0.95
3.125 0.8125 0.8875
3.1875 0.875 0.8875
3.1875 0.8125 0.8875
3.25 0.875 0.8875
3.1875 0.8125 0.95
3.25 0.8125 0.95
3.1875 0.875 0.95
3.25 0.8125 0.8875
3.3125 0.875 0.8875
3.3125 0.8125 0.8875
3.375 0.875 0.8875
3.3125 0.8125 0.95
3.375 0.8125 0.95
3.3125 0.875 0.95
3.375 0.8125 0.8875
3.4375 0.875 0.8875
3.4375 0.8125 0.8875
3.5 0.875 0.8875
3.4375 0.8125 0.95
3.5 0.8125 0.95
3.4375 0.875 0.95
3.5 0.8125 0.8875
3.5625 0.875 0.8875
3.5625 0.8125 0.8875
3.625 0.875 0.8875
3.5625 0.8125 0.95
3.625 0.8125 0.95
3.5625 0.875 0.95
3.625 0.8125 0.8875
3.6875 0.875 0.8875
3.6875 0.8125 0.8875
3.75 0.875 0.8875
3.6875 0.8125 0.95
3.75 0.8125 0.95
3.6875 0.875 0.95
3.75 0.8125 0.8875
3.8125 0.875 0.8875
3.8125 0.8125 0.8875
3.875 0.875 0.8875
3.8125 0.8125 0.95
3.875 0.8125 0.95
3.8125 0.875 0.95
3.875 0.8125 0.8875
3.9375 0.875 0.8875
3.9375 0.8125 0.8875
4 0.875 0.8875
3.9375 0.8125 0.95
4 0.8125 0.95
3.9375 0.875 0.95
4 0.8125 0.8875
0.0625 1 0.8875
0.0625 0.9375 0.8875
0.125 1 0.8875
0.0625 0.9375 0.95
0.125 0.9375 0.95
0 1 0.8875
0 0.9375 0.8875
0.0625 1 0.95
0 0.9375 0.95
0.125 0.9375 0.8875
0.1875 1 0.8875
0.1875 0.9375 0.8875
0.25 1 0.8875
0.1875 0.9375 0.95
0.25 0.9375 0.95
0.1875 1 0.95
0.25 0.9375 0.8875
0.3125 1 0.8875
0.3125 0.9375 0.8875
0.375 1 0.8875
0.3125 0.9375 0.95
0.375 0.9375 0.95
0.3125 1 0.95
0.375 0.9375 0.8875
0.4375 1 0.8875
0.4375 0.9375 0.8875
0.5 1 0.8875
0.4375 0.9375 0.95
0.5 0.9375 0.95
0.4375 1 0.95
0.5 0.9375 0.8875
0.5625 1 0.8875
0.5625 0.9375 0.8875
0.625 1 0.8875
0.5625 0.9375 0.95
0.625 0.9375 0.95
0.5625 1 0.95
0.625 0.9375 0.8875
0.6875 1 0.8875
0.6875 0.9375 0.8875
0.75 1 0.8875
0.6875 0.9375 0.95
0.75 0.9375 0.95
0.6875 1 0.95
0.75 0.9375 0.8875
0.8125 1 0.8875
0.8125 0.9375 0.8875
0.875 1 0.8875
0.8125 0.9375 0.95
0.875 0.9375 0.95
0.8125 1 0.95
0.875 0.9375 0.8875
0.9375 1 0.8875
0.9375 0.9375 0.8875
1 1 0.8875
0.9375 0.9375 0.95
1 0.9375 0.95
0.9375 1 0.95
1 0.9375 0.8875
1.0625 1 0.8875
1.0625 0.9375 0.8875
1.125 1 0.8875
1.0625 0.9375 0.95
1.125 0.9375 0.95
1.0625 1 0.95
1.125 0.9375 0.8875
1.1875 1 0.8875
1.1875 0.9375 0.8875
1.25 1 0.8875
1.1875 0.9375 0.95
1.25 0.9375 0.95
1.1875 1 0.95
1.25 0.9375 0.8875
1.3125 1 0.8875
1.3125 0.9375 0.8875
1.375 1 0.8875
1.3125 0.9375 0.95
1.375 0.9375 0.95
1.3125 1 0.95
1.375 0.9375 0.8875
1.4375 1 0.8875
1.4375 0.9375 0.8875
1.5 1 0.8875
1.4375 0.9375 0.95
1.5 0.9375 0.95
1.4375 1 0.95
1.5 0.9375 0.8875
1.5625 1 0.8875
1.5625 0.9375 0.8875
1.625 1 0.8875
1.5625 0.9375 0.95
1.625 0.9375 0.95
1.5625 1 0.95
1.625 0.9375 0.8875
1.6875 1 0.8875
1.6875 0.9375 0.8875
1.75 1 0.8875
1.6875 0.9375 0.95
1.75 0.9375 0.95
1.6875 1 0.95
1.75 0.9375 0.8875
1.8125 1 0.8875
1.8125 0.9375 0.8875
1.875 1 0.8875
1.8125 0.9375 0.95
1.875 0.9375 0.95
1.8125 1 0.95
1.875 0.9375 0.8875
1.9375 1 0.8875
1.9375 0.9375 0.8875
2 1 0.8875
1.9375 0.9375 0.95
2 0.9375 0.95
1.9375 1 0.95
2 0.9375 0.8875
2.0625 1 0.8875
2.0625 0.9375 0.8875
2.125 1 0.8875
2.0625 0.9375 0.95
2.125 0.9375 0.95
2.0625 1 0.95
2.125 0.9375 0.8875
2.1875 1 0.8875
2.1875 0.9375 0.8875
2.25 1 0.8875
2.1875 0.9375 0.95
2.25 0.9375 0.95
2.1875 1 0.95
2.25 0.9375 0.8875
2.3125 1 0.8875
2.3125 0.9375 0.8875
2.375 1 0.8875
2.3125 0.9375 0.95
2.375 0.9375 0.95
2.3125 1 0.95
2.375 0.9375 0.8875
2.4375 1 0.8875
2.4375 0.9375 0.8875
2.5 1 0.8875
2.4375 0.9375 0.95
2.5 0.9375 0.95
2.4375 1 0.95
2.5 0.9375 0.8875
2.5625 1 0.8875
2.5625 0.9375 0.8875
2.625 1 0.8875
2.5625 0.9375 0.95
2.625 0.9375 0.95
2.5625 1 0.95
2.625 0.9375 0.8875
2.6875 1 0.8875
2.6875 0.9375 0.8875
2.75 1 0.8875
2.6875 0.9375 0.95
2.75 0.9375 0.95
2.6875 1 0.95
2.75 0.9375 0.8875
2.8125 1 0.8875
2.8125 0.9375 0.8875
2.875 1 0.8875
2.8125 0.9375 0.95
2.875 0.9375 0.95
2.8125 1 0.95
2.875 0.9375 0.8875
2.9375 1 0.8875
2.9375 0.9375 0.8875
3 1 0.8875
2.9375 0.9375 0.95
3 0.9375 0.95
2.9375 1 0.95
3 0.9375 0.8875
3.0625 1 0.8875
3.0625 0.9375 0.8875
3.125 1 0.8875
3.0625 0.9375 0.95
3.125 0.9375 0.95
3.0625 1 0.95
3.125 0.9375 0.8875
3.1875 1 0.8875
3.1875 0.9375 0.8875
3.25 1 0.8875
3.1875 0.9375 0.95
3.25 0.9375 0.95
3.1875 1 0.95
3.25 0.9375 0.8875
3.3125 1 0.8875
3.3125 0.9375 0.8875
3.375 1 0.8875
3.3125 0.9375 0.95
3.375 0.9375 0.95
3.3125 1 0.95
3.375 0.9375 0.8875
3.4375 1 0.8875
3.4375 0.9375 0.8875
3.5 1 0.8875
3.4375 0.9375 0.95
3.5 0.9375 0.95
3.4375 1 0.95
3.5 0.9375 0.8875
3.5625 1 0.8875
3.5625 0.9375 0.8875
3.625 1 0.8875
3.5625 0.9375 0.95
3.625 0.9375 0.95
3.5625 1 0.95
3.625 0.9375 0.8875
3.6875 1 0.8875
3.6875 0.9375 0.8875
3.75 1 0.8875
3.6875 0.9375 0.95
3.75 0.9375 0.95
3.6875 1 0.95
3.75 0.9375 0.8875
3.8125 1 0.8875
3.8125 0.9375 0.8875
3.875 1 0.8875
3.8125 0.9375 0.95
3.875 0.9375 0.95
3.8125 1 0.95
3.875 0.9375 0.8875
3.9375 1 0.8875
3.9375 0.9375 0.8875
4 1 0.8875
3.9375 0.9375 0.95
4 0.9375 0.95
3.9375 1 0.95
4 0.9375 0.8875
0.0625 0.125 1.0125
0.0625 0.0625 1.0125
0.125 0.125 1.0125
0.0625 0.0625 1.075
0.125 0.0625 1.075
0.0625 0 1.075
0 0 1.0125
0.0625 0 1.0125
0 0.125 1.0125
0 0.0625 1.0125
0.0625 0.125 1.075
0 0.0625 1.075
0.125 0 1.0125
0.125 0.0625 1.0125
0.1875 0.125 1.0125
0.1875 0.0625 1.0125
0.25 0.125 1.0125
0.1875 0.0625 1.075
0.25 0.0625 1.075
0.1875 0 1.075
0.1875 0 1.0125
0.1875 0.125 1.075
0.25 0 1.0125
0.25 0.0625 1.0125
0.3125 0.125 1.0125
0.3125 0.0625 1.0125
0.375 0.125 1.0125
0.3125 0.0625 1.075
0.375 0.0625 1.075
0.3125 0 1.075
0.3125 0 1.0125
0.3125 0.125 1.075
0.375 0 1.0125
0.375 0.0625 1.0125
0.4375 0.125 1.0125
0.4375 0.0625 1.0125
0.5 0.125 1.0125
0.4375 0.0625 1.075
0.5 0.0625 1.075
0.4375 0 1.075
0.4375 0 1.0125
0.4375 0.125 1.075
0.5 0 1.0125
0.5 0.0625 1.0125
0.5625 0.125 1.0125
0.5625 0.0625 1.0125
0.625 0.125 1.0125
0.5625 0.0625 1.075
0.625 0.0625 1.075
0.5625 0 1.075
0.5625 0 1.0125
0.5625 0.125 1.075
0.625 0 1.0125
0.625 0.0625 1.0125
0.6875 0.125 1.0125
0.6875 0.0625 1.0125
0.75 0.125 1.0125
0.6875 0.0625 1.075
0.75 0.0625 1.075
0.6875 0 1.075
0.6875 0 1.0125
0.6875 0.125 1.075
0.75 0 1.0125
0.75 0.0625 1.0125
0.8125 0.125 1.0125
0.8125 0.0625 1.0125
0.875 0.125 1.0125
0.8125 0.0625 1.075
0.875 0.0625 1.075
0.8125 0 1.075
0.8125 0 1.0125
0.8125 0.125 1.075
0.875 0 1.0125
0.875 0.0625 1.0125
0.9375 0.125 1.0125
0.9375 0.0625 1.0125
1 0.125 1.0125
0.9375 0.0625 1.075
1 0.0625 1.075
0.9375 0 1.075
0.9375 0 1.0125
0.9375 0.125 1.075
1 0 1.0125
1 0.0625 1.0125
1.0625 0.125 1.0125
1.0625 0.0625 1.0125
1.125 0.125 1.0125
1.0625 0.0625 1.075
1.125 0.0625 1.075
1.0625 0 1.075
1.0625 0 1.0125
1.0625 0.125 1.075
1.125 0 1.0125
1.125 0.0625 1.0125
1.1875 0.125 1.0125
1.1875 0.0625 1.0125
1.25 0.125 1.0125
1.1875 0.0625 1.075
1.25 0.0625 1.075
1.1875 0 1.075
1.1875 0 1.0125
1.1875 0.125 1.075
1.25 0 1.0125
1.25 0.0625 1.0125
1.3125 0.125 1.0125
1.3125 0.0625 1.0125
1.375 0.125 1.0125
1.3125 0.0625 1.075
1.375 0.0625 1.075
1.3125 0 1.075
1.3125 0 1.0125
1.3125 0.125 1.075
1.375 0 1.0125
1.375 0.0625 1.0125
1.4375 0.125 1.0125
1.4375 0.0625 1.0125
1.5 0.125 1.0125
1.4375 0.0625 1.075
1.5 0.0625 1.075
1.4375 0 1.075
1.4375 0 1.0125
1.4375 0.125 1.075
1.5 0 1.0125
1.5 0.0625 1.0125
1.5625 0.125 1.0125
1.5625 0.0625 1.0125
1.625 0.125 1.0125
1.5625 0.0625 1.075
1.625 0.0625 1.075
1.5625 0 1.075
1.5625 0 1.0125
1.5625 0.125 1.075
1.625 0 1.0125
1.625 0.0625 1.0125
1.6875 0.125 1.0125
1.6875 0.0625 1.0125
1.75 0.125 1.0125
1.6875 0.0625 1.075
1.75 0.0625 1.075
1.6875 0 1.075
1.6875 0 1.0125
1.6875 0.125 1.075
1.75 0 1.0125
1.75 0.0625 1.0125
1.8125 0.125 1.0125
1.8125 0.0625 1.0125
1.875 0.125 1.0125
1.8125 0.0625 1.075
1.875 0.0625 1.075
1.8125 0 1.075
1.8125 0 1.0125
1.8125 0.125 1.075
1.875 0 1.0125
1.875 0.0625 1.0125
1.9375 0.125 1.0125
1.9375 0.0625 1.0125
2 0.125 1.0125
1.9375 0.0625 1.075
2 0.0625 1.075
1.9375 0 1.075
1.9375 0 1.0125
1.9375 0.125 1.075
2 0 1.0125
2 0.0625 1.0125
2.0625 0.125 1.0125
2.0625 0.0625 1.0125
2.125 0.125 1.0125
2.0625 0.0625 1.075
2.125 0.0625 1.075
2.0625 0 1.075
2.0625 0 1.0125
2.0625 0.125 1.075
2.125 0 1.0125
2.125 0.0625 1.0125
2.1875 0.125 1.0125
2.1875 0.0625 1.0125
2.25 0.125 1.0125
2.1875 0.0625 1.075
2.25 0.0625 1.075
2.1875 0 1.075
2.1875 0 1.0125
2.1875 0.125 1.075
2.25 0 1.0125
2.25 0.0625 1.0125
2.3125 0.125 1.0125
2.3125 0.0625 1.0125
2.375 0.125 1.0125
2.3125 0.0625 1.075
2.375 0.0625 1.075
2.3125 0 1.075
2.3125 0 1.0125
2.3125 0.125 1.075
2.375 0 1.0125
2.375 0.0625 1.0125
2.4375 0.125 1.0125
2.4375 0.0625 1.0125
2.5 0.125 1.0125
2.4375 0.0625 1.075
2.5 0.0625 1.075
2.4375 0 1.075
2.4375 0 1.0125
2.4375 0.125 1.075
2.5 0 1.0125
2.5 0.0625 1.0125
2.5625 0.125 1.0125
2.5625 0.0625 1.0125
2.625 0.125 1.0125
2.5625 0.0625 1.075
2.625 0.0625 1.075
2.5625 0 1.075
2.5625 0 1.0125
2.5625 0.125 1.075
2.625 0 1.0125
2.625 0.0625 1.0125
2.6875 0.125 1.0125
2.6875 0.0625 1.0125
2.75 0.125 1.0125
2.6875 0.0625 1.075
2.75 0.0625 1.075
2.6875 0 1.075
2.6875 0 1.0125
2.6875 0.125 1.075
2.75 0 1.0125
2.75 0.0625 1.0125
2.8125 0.125 1.0125
2.8125 0.0625 1.0125
2.875 0.125 1.0125
2.8125 0.0625 1.075
2.875 0.0625 1.075
2.8125 0 1.075
2.8125 0 1.0125
2.8125 0.125 1.075
2.875 0 1.0125
2.875 0.0625 1.0125
2.9375 0.125 1.0125
2.9375 0.0625 1.0125
3 0.125 1.0125
2.9375 0.0625 1.075
3 0.0625 1.075
2.9375 0 1.075
2.9375 0 1.0125
2.9375 0.125 1.075
3 0 1.0125
3 0.0625 1.0125
3.0625 0.125 1.0125
3.0625 0.0625 1.0125
3.125 0.125 1.0125
3.0625 0.0625 1.075
3.125 0.0625 1.075
3.0625 0 1.075
3.0625 0 1.0125
3.0625 0.125 1.075
3.125 0 1.0125
3.125 0.0625 1.0125
3.1875 0.125 1.0125
3.1875 0.0625 1.0125
3.25 0.125 1.0125
3.1875 0.0625 1.075
3.25 0.0625 1.075
3.1875 0 1.075
3.1875 0 1.0125
3.1875 0.125 1.075
3.25 0 1.0125
3.25 0.0625 1.0125
3.3125 0.125 1.0125
3.3125 0.0625 1.0125
3.375 0.125 1.0125
3.3125 0.0625 1.075
3.375 0.0625 1.075
3.3125 0 1.075
3.3125 0 1.0125
3.3125 0.125 1.075
3.375 0 1.0125
3.375 0.0625 1.0125
3.4375 0.125 1.0125
3.4375 0.0625 1.0125
3.5 0.125 1.0125
3.4375 0.0625 1.075
3.5 0.0625 1.075
3.4375 0 1.075
3.4375 0 1.0125
3.4375 0.125 1.075
3.5 0 1.0125
3.5 0.0625 1.0125
3.5625 0.125 1.0125
3.5625 0.0625 1.0125
3.625 0.125 1.0125
3.5625 0.0625 1.075
3.625 0.0625 1.075
3.5625 0 1.075
3.5625 0 1.0125
3.5625 0.125 1.075
3.625 0 1.0125
3.625 0.0625 1.0125
3.6875 0.125 1.0125
3.6875 0.0625 1.0125
3.75 0.125 1.0125
3.6875 0.0625 1.075
3.75 0.0625 1.075
3.6875 0 1.075
3.6875 0 1.0125
3.6875 0.125 1.075
3.75 0 1.0125
3.75 0.0625 1.0125
3.8125 0.125 1.0125
3.8125 0.0625 1.0125
3.875 0.125 1.0125
3.8125 0.0625 1.075
3.875 0.0625 1.075
3.8125 0 1.075
3.8125 0 1.0125
3.8125 0.125 1.075
3.875 0 1.0125
3.875 0.0625 1.0125
3.9375 0.125 1.0125
3.9375 0.0625 1.0125
4 0.125 1.0125
3.9375 0.0625 1.075
4 0.0625 1.075
3.9375 0 1.075
3.9375 0 1.0125
3.9375 0.125 1.075
4 0 1.0125
4 0.0625 1.0125
0.0625 0.25 1.0125
0.0625 0.1875 1.0125
0.125 0.25 1.0125
0.0625 0.1875 1.075
0.125 0.1875 1.075
0 0.25 1.0125
0 0.1875 1.0125
0.0625 0.25 1.075
0 0.1875 1.075
0.125 0.1875 1.0125
0.1875 0.25 1.0125
0.1875 0.1875 1.0125
0.25 0.25 1.0125
0.1875 0.1875 1.075
0.25 0.1875 1.075
0.1875 0.25 1.075
0.25 0.1875 1.0125
0.3125 0.25 1.0125
0.3125 0.1875 1.0125
0.375 0.25 1.0125
0.3125 0.1875 1.075
0.375 0.1875 1.075
0.3125 0.25 1.075
0.375 0.1875 1.0125
0.4375 0.25 1.0125
0.4375 0.1875 1.0125
0.5 0.25 1.0125
0.4375 0.1875 1.075
0.5 0.1875 1.075
0.4375 0.25 1.075
0.5 0.1875 1.0125
0.5625 0.25 1.0125
0.5625 0.1875 1.0125
0.625 0.25 1.0125
0.5625 0.1875 1.075
0.625 0.1875 1.075
0.5625 0.25 1.075
0.625 0.1875 1.0125
0.6875 0.25 1.0125
0.6875 0.1875 1.0125
0.75 0.25 1.0125
0.6875 0.1875 1.075
0.75 0.1875 1.075
0.6875 0.25 1.075
0.75 0.1875 1.0125
0.8125 0.25 1.0125
0.8125 0.1875 1.0125
0.875 0.25 1.0125
0.8125 0.1875 1.075
0.875 0.1875 1.075
0.8125 0.25 1.075
0.875 0.1875 1.0125
0.9375 0.25 1.0125
0.9375 0.1875 1.0125
1 0.25 1.0125
0.9375 0.1875 1.075
1 0.1875 1.075
0.9375 0.25 1.075
1 0.1875 1.0125
1.0625 0.25 1.0125
1.0625 0.1875 1.0125
1.125 0.25 1.0125
1.0625 0.1875 1.075
1.125 0.1875 1.075
1.0625 0.25 1.075
1.125 0.1875 1.0125
1.1875 0.25 1.0125
1.1875 0.1875 1.0125
1.25 0.25 1.0125
1.1875 0.1875 1.075
1.25 0.1875 1.075
1.1875 0.25 1.075
1.25 0.1875 1.0125
1.3125 0.25 1.0125
1.3125 0.1875 1.0125
1.375 0.25 1.0125
1.3125 0.1875 1.075
1.375 0.1875 1.075
1.3125 0.25 1.075
1.375 0.1875 1.0125
1.4375 0.25 1.0125
1.4375 0.1875 1.0125
1.5 0.25 1.0125
1.4375 0.1875 1.075
1.5 0.1875 1.075
1.4375 0.25 1.075
1.5 0.1875 1.0125
1.5625 0.25 1.0125
1.5625 0.1875 1.0125
1.625 0.25 1.0125
1.5625 0.1875 1.075
1.625 0.1875 1.075
1.5625 0.25 1.075
1.625 0.1875 1.0125
1.6875 0.25 1.0125
1.6875 0.1875 1.0125
1.75 0.25 1.0125
1.6875 0.1875 1.075
1.75 0.1875 1.075
1.6875 0.25 1.075
1.75 0.1875 1.0125
1.8125 0.25 1.0125
1.8125 0.1875 1.0125
1.875 0.25 1.0125
1.8125 0.1875 1.075
1.875 0.1875 1.075
1.8125 0.25 1.075
1.875 0.1875 1.0125
1.9375 0.25 1.0125
1.9375 0.1875 1.0125
2 0.25 1.0125
1.9375 0.1875 1.075
2 0.1875 1.075
1.9375 0.25 1.075
2 0.1875 1.0125
2.0625 0.25 1.0125
2.0625 0.1875 1.0125
2.125 0.25 1.0125
2.0625 0.1875 1.075
2.125 0.1875 1.075
2.0625 0.25 1.075
2.125 0.1875 1.0125
2.1875 0.25 1.0125
2.1875 0.1875 1.0125
2.25 0.25 1.0125
2.1875 0.1875 1.075
2.25 0.1875 1.075
2.1875 0.25 1.075
2.25 0.1875 1.0125
2.3125 0.25 1.0125
2.3125 0.1875 1.0125
2.375 0.25 1.0125
2.3125 0.1875 1.075
2.375 0.1875 1.075
2.3125 0.25 1.075
2.375 0.1875 1.0125
2.4375 0.25 1.0125
2.4375 0.1875 1.0125
2.5 0.25 1.0125
2.4375 0.1875 1.075
2.5 0.1875 1.075
2.4375 0.25 1.075
2.5 0.1875 1.0125
2.5625 0.25 1.0125
2.5625 0.1875 1.0125
2.625 0.25 1.0125
2.5625 0.1875 1.075
2.625 0.1875 1.075
2.5625 0.25 1.075
2.625 0.1875 1.0125
2.6875 0.25 1.0125
2.6875 0.1875 1.0125
2.75 0.25 1.0125
2.6875 0.1875 1.075
2.75 0.1875 1.075
2.6875 0.25 1.075
2.75 0.1875 1.0125
2.8125 0.25 1.0125
2.8125 0.1875 1.0125
2.875 0.25 1.0125
2.8125 0.1875 1.075
2.875 0.1875 1.075
2.8125 0.25 1.075
2.875 0.1875 1.0125
2.9375 0.25 1.0125
2.9375 0.1875 1.0125
3 0.25 1.0125
2.9375 0.1875 1.075
3 0.1875 1.075
2.9375 0.25 1.075
3 0.1875 1.0125
3.0625 0.25 1.0125
3.0625 0.1875 1.0125
3.125 0.25 1.0125
3.0625 0.1875 1.075
3.125 0.1875 1.075
3.0625 0.25 1.075
3.125 0.1875 1.0125
3.1875 0.25 1.0125
3.1875 0.1875 1.0125
3.25 0.25 1.0125
3.1875 0.1875 1.075
3.25 0.1875 1.075
3.1875 0.25 1.075
3.25 0.1875 1.0125
3.3125 0.25 1.0125
3.3125 0.1875 1.0125
3.375 0.25 1.0125
3.3125 0.1875 1.075
3.375 0.1875 1.075
3.3125 0.25 1.075
3.375 0.1875 1.0125
3.4375 0.25 1.0125
3.4375 0.1875 1.0125
3.5 0.25 1.0125
3.4375 0.1875 1.075
3.5 0.1875 1.075
3.4375 0.25 1.075
3.5 0.1875 1.0125
3.5625 0.25 1.0125
3.5625 0.1875 1.0125
3.625 0.25 1.0125
3.5625 0.1875 1.075
3.625 0.1875 1.075
3.5625 0.25 1.075
3.625 0.1875 1.0125
3.6875 0.25 1.0125
3.6875 0.1875 1.0125
3.75 0.25 1.0125
3.6875 0.1875 1.075
3.75 0.1875 1.075
3.6875 0.25 1.075
3.75 0.1875 1.0125
3.8125 0.25 1.0125
3.8125 0.1875 1.0125
3.875 0.25 1.0125
3.8125 0.1875 1.075
3.875 0.1875 1.075
3.8125 0.25 1.075
3.875 0.1875 1.0125
3.9375 0.25 1.0125
3.9375 0.1875 1.0125
4 0.25 1.0125
3.9375 0.1875 1.075
4 0.1875 1.075
3.9375 0.25 1.075
4 0.1875 1.0125
0.0625 0.375 1.0125
0.0625 0.3125 1.0125
0.125 0.375 1.0125
0.0625 0.3125 1.075
0.125 0.3125 1.075
0 0.375 1.0125
0 0.3125 1.0125
0.0625 0.375 1.075
0 0.3125 1.075
0.125 0.3125 1.0125
0.1875 0.375 1.0125
0.1875 0.3125 1.0125
0.25 0.375 1.0125
0.1875 0.3125 1.075
0.25 0.3125 1.075
0.1875 0.375 1.075
0.25 0.3125 1.0125
0.3125 0.375 1.0125
0.3125 0.3125 1.0125
0.375 0.375 1.0125
0.3125 0.3125 1.075
0.375 0.3125 1.075
0.3125 0.375 1.075
0.375 0.3125 1.0125
0.4375 0.375 1.0125
0.4375 0.3125 1.0125
0.5 0.375 1.0125
0.4375 0.3125 1.075
0.5 0.3125 1.075
0.4375 0.375 1.075
0.5 0.3125 1.0125
0.5625 0.375 1.0125
0.5625 0.3125 1.0125
0.625 0.375 1.0125
0.5625 0.3125 1.075
0.625 0.3125 1.075
0.5625 0.375 1.075
0.625 0.3125 1.0125
0.6875 0.375 1.0125
0.6875 0.3125 1.0125
0.75 0.375 1.0125
0.6875 0.3125 1.075
0.75 0.3125 1.075
0.6875 0.375 1.075
0.75 0.3125 1.0125
0.8125 0.375 1.0125
0.8125 0.3125 1.0125
0.875 0.375 1.0125
0.8125 0.3125 1.075
0.875 0.3125 1.075
0.8125 0.375 1.075
0.875 0.3125 1.0125
0.9375 0.375 1.0125
0.9375 0.3125 1.0125
1 0.375 1.0125
0.9375 0.3125 1.075
1 0.3125 1.075
0.9375 0.375 1.075
1 0.3125 1.0125
1.0625 0.375 1.0125
1.0625 0.3125 1.0125
1.125 0.375 1.0125
1.0625 0.3125 1.075
1.125 0.3125 1.075
1.0625 0.375 1.075
1.125 0.3125 1.0125
1.1875 0.375 1.0125
1.1875 0.3125 1.0125
1.25 0.375 1.0125
1.1875 0.3125 1.075
1.25 0.3125 1.075
1.1875 0.375 1.075
1.25 0.3125 1.0125
1.3125 0.375 1.0125
1.3125 0.3125 1.0125
1.375 0.375 1.0125
1.3125 0.3125 1.075
1.375 0.3125 1.075
1.3125 0.375 1.075
1.375 0.3125 1.0125
1.4375 0.375 1.0125
1.4375 0.3125 1.0125
1.5 0.375 1.0125
1.4375 0.3125 1.075
1.5 0.3125 1.075
1.4375 0.375 1.075
1.5 0.3125 1.0125
1.5625 0.375 1.0125
1.5625 0.3125 1.0125
1.625 0.375 1.0125
1.5625 0.3125 1.075
1.625 0.3125 1.075
1.5625 0.375 1.075
1.625 0.3125 1.0125
1.6875 0.375 1.0125
1.6875 0.3125 1.0125
1.75 0.375 1.0125
1.6875 0.3125 1.075
1.75 0.3125 1.075
1.6875 0.375 1.075
1.75 0.3125 1.0125
1.8125 0.375 1.0125
1.8125 0.3125 1.0125
1.875 0.375 1.0125
1.8125 0.3125 1.075
1.875 0.3125 1.075
1.8125 0.375 1.075
1.875 0.3125 1.0125
1.9375 0.375 1.0125
1.9375 0.3125 1.0125
2 0.375 1.0125
1.9375 0.3125 1.075
2 0.3125 1.075
1.9375 0.375 1.075
2 0.3125 1.0125
2.0625 0.375 1.0125
2.0625 0.3125 1.0125
2.125 0.375 1.0125
2.0625 0.3125 1.075
2.125 0.3125 1.075
2.0625 0.375 1.075
2.125 0.3125 1.0125
2.1875 0.375 1.0125
2.1875 0.3125 1.0125
2.25 0.375 1.0125
2.1875 0.3125 1.075
2.25 0.3125 1.075
2.1875 0.375 1.075
2.25 0.3125 1.0125
2.3125 0.375 1.0125
2.3125 0.3125 1.0125
2.375 0.375 1.0125
2.3125 0.3125 1.075
2.375 0.3125 1.075
2.3125 0.375 1.075
2.375 0.3125 1.0125
2.4375 0.375 1.0125
2.4375 0.3125 1.0125
2.5 0.375 1.0125
2.4375 0.3125 1.075
2.5 0.3125 1.075
2.4375 0.375 1.075
2.5 0.3125 1.0125
2.5625 0.375 1.0125
2.5625 0.3125 1.0125
2.625 0.375 1.0125
2.5625 0.3125 1.075
2.625 0.3125 1.075
2.5625 0.375 1.075
2.625 0.3125 1.0125
2.6875 0.375 1.0125
2.6875 0.3125 1.0125
2.75 0.375 1.0125
2.6875 0.3125 1.075
2.75 0.3125 1.075
2.6875 0.375 1.075
2.75 0.3125 1.0125
2.8125 0.375 1.0125
2.8125 0.3125 1.0125
2.875 0.375 1.0125
2.8125 0.3125 1.075
2.875 0.3125 1.075
2.8125 0.375 1.075
2.875 0.3125 1.0125
2.9375 0.375 1.0125
2.9375 0.3125 1.0125
3 0.375 1.0125
2.9375 0.3125 1.075
3 0.3125 1.075
2.9375 0.375 1.075
3 0.3125 1.0125
3.0625 0.375 1.0125
3.0625 0.3125 1.0125
3.125 0.375 1.0125
3.0625 0.3125 1.075
3.125 0.3125 1.075
3.0625 0.375 1.075
3.125 0.3125 1.0125
3.1875 0.375 1.0125
3.1875 0.3125 1.0125
3.25 0.375 1.0125
3.1875 0.3125 1.075
3.25 0.3125 1.075
3.1875 0.375 1.075
3.25 0.3125 1.0125
3.3125 0.375 1.0125
3.3125 0.3125 1.0125
3.375 0.375 1.0125
3.3125 0.3125 1.075
3.375 0.3125 1.075
3.3125 0.375 1.075
3.375 0.3125 1.0125
3.4375 0.375 1.0125
3.4375 0.3125 1.0125
3.5 0.375 1.0125
3.4375 0.3125 1.075
3.5 0.3125 1.075
3.4375 0.375 1.075
3.5 0.3125 1.0125
3.5625 0.375 1.0125
3.5625 0.3125 1.0125
3.625 0.375 1.0125
3.5625 0.3125 1.075
3.625 0.3125 1.075
3.5625 0.375 1.075
3.625 0.3125 1.0125
3.6875 0.375 1.0125
3.6875 0.3125 1.0125
3.75 0.375 1.0125
3.6875 0.3125 1.075
3.75 0.3125 1.075
3.6875 0.375 1.075
3.75 0.3125 1.0125
3.8125 0.375 1.0125
3.8125 0.3125 1.0125
3.875 0.375 1.0125
3.8125 0.3125 1.075
3.875 0.3125 1.075
3.8125 0.375 1.075
3.875 0.3125 1.0125
3.9375 0.375 1.0125
3.9375 0.3125 1.0125
4 0.375 1.0125
3.9375 0.3125 1.075
4 0.3125 1.075
3.9375 0.375 1.075
4 0.3125 1.0125
0.0625 0.5 1.0125
0.0625 0.4375 1.0125
0.125 0.5 1.0125
0.0625 0.4375 1.075
0.125 0.4375 1.075
0 0.5 1.0125
0 0.4375 1.0125
0.0625 0.5 1.075
0 0.4375 1.075
0.125 0.4375 1.0125
0.1875 0.5 1.0125
0.1875 0.4375 1.0125
0.25 0.5 1.0125
0.1875 0.4375 1.075
0.25 0.4375 1.075
0.1875 0.5 1.075
0.25 0.4375 1.0125
0.3125 0.5 1.0125
0.3125 0.4375 1.0125
0.375 0.5 1.0125
0.3125 0.4375 1.075
0.375 0.4375 1.075
0.3125 0.5 1.075
0.375 0.4375 1.0125
0.4375 0.5 1.0125
0.4375 0.4375 1.0125
0.5 0.5 1.0125
0.4375 0.4375 1.075
0.5 0.4375 1.075
0.4375 0.5 1.075
0.5 0.4375 1.0125
0.5625 0.5 1.0125
0.5625 0.4375 1.0125
0.625 0.5 1.0125
0.5625 0.4375 1.075
0.625 0.4375 1.075
0.5625 0.5 1.075
0.625 0.4375 1.0125
0.6875 0.5 1.0125
0.6875 0.4375 1.0125
0.75 0.5 1.0125
0.6875 0.4375 1.075
0.75 0.4375 1.075
0.6875 0.5 1.075
0.75 0.4375 1.0125
0.8125 0.5 1.0125
0.8125 0.4375 1.0125
0.875 0.5 1.0125
0.8125 0.4375 1.075
0.875 0.4375 1.075
0.8125 0.5 1.075
0.875 0.4375 1.0125
0.9375 0.5 1.0125
0.9375 0.4375 1.0125
1 0.5 1.0125
0.9375 0.4375 1.075
1 0.4375 1.075
0.9375 0.5 1.075
1 0.4375 1.0125
1.0625 0.5 1.0125
1.0625 0.4375 1.0125
1.125 0.5 1.0125
1.0625 0.4375 1.075
1.125 0.4375 1.075
1.0625 0.5 1.075
1.125 0.4375 1.0125
1.1875 0.5 1.0125
1.1875 0.4375 1.0125
1.25 0.5 1.0125
1.1875 0.4375 1.075
1.25 0.4375 1.075
1.1875 0.5 1.075
1.25 0.4375 1.0125
1.3125 0.5 1.0125
1.3125 0.4375 1.0125
1.375 0.5 1.0125
1.3125 0.4375 1.075
1.375 0.4375 1.075
1.3125 0.5 1.075
1.375 0.4375 1.0125
1.4375 0.5 1.0125
1.4375 0.4375 1.0125
1.5 0.5 1.0125
1.4375 0.4375 1.075
1.5 0.4375 1.075
1.4375 0.5 1.075
1.5 0.4375 1.0125
1.5625 0.5 1.0125
1.5625 0.4375 1.0125
1.625 0.5 1.0125
1.5625 0.4375 1.075
1.625 0.4375 1.075
1.5625 0.5 1.075
1.625 0.4375 1.0125
1.6875 0.5 1.0125
1.6875 0.4375 1.0125
1.75 0.5 1.0125
1.6875 0.4375 1.075
1.75 0.4375 1.075
1.6875 0.5 1.075
1.75 0.4375 1.0125
1.8125 0.5 1.0125
1.8125 0.4375 1.0125
1.875 0.5 1.0125
1.8125 0.4375 1.075
1.875 0.4375 1.075
1.8125 0.5 1.075
1.875 0.4375 1.0125
1.9375 0.5 1.0125
1.9375 0.4375 1.0125
2 0.5 1.0125
1.9375 0.4375 1.075
2 0.4375 1.075
1.9375 0.5 1.075
2 0.4375 1.0125
2.0625 0.5 1.0125
2.0625 0.4375 1.0125
2.125 0.5 1.0125
2.0625 0.4375 1.075
2.125 0.4375 1.075
2.0625 0.5 1.075
2.125 0.4375 1.0125
2.1875 0.5 1.0125
2.1875 0.4375 1.0125
2.25 0.5 1.0125
2.1875 0.4375 1.075
2.25 0.4375 1.075
2.1875 0.5 1.075
2.25 0.4375 1.0125
2.3125 0.5 1.0125
2.3125 0.4375 1.0125
2.375 0.5 1.0125
2.3125 0.4375 1.075
2.375 0.4375 1.075
2.3125 0.5 1.075
2.375 0.4375 1.0125
2.4375 0.5 1.0125
2.4375 0.4375 1.0125
2.5 0.5 1.0125
2.4375 0.4375 1.075
2.5 0.4375 1.075
2.4375 0.5 1.075
2.5 0.4375 1.0125
2.5625 0.5 1.0125
2.5625 0.4375 1.0125
2.625 0.5 1.0125
2.5625 0.4375 1.075
2.625 0.4375 1.075
2.5625 0.5 1.075
2.625 0.4375 1.0125
2.6875 0.5 1.0125
2.6875 0.4375 1.0125
2.75 0.5 1.0125
2.6875 0.4375 1.075
2.75 0.4375 1.075
2.6875 0.5 1.075
2.75 0.4375 1.0125
2.8125 0.5 1.0125
2.8125 0.4375 1.0125
2.875 0.5 1.0125
2.8125 0.4375 1.075
2.875 0.4375 1.075
2.8125 0.5 1.075
2.875 0.4375 1.0125
2.9375 0.5 1.0125
2.9375 0.4375 1.0125
3 0.5 1.0125
2.9375 0.4375 1.075
3 0.4375 1.075
2.9375 0.5 1.075
3 0.4375 1.0125
3.0625 0.5 1.0125
3.0625 0.4375 1.0125
3.125 0.5 1.0125
3.0625 0.4375 1.075
3.125 0.4375 1.075
3.0625 0.5 1.075
3.125 0.4375 1.0125
3.1875 0.5 1.0125
3.1875 0.4375 1.0125
3.25 0.5 1.0125
3.1875 0.4375 1.075
3.25 0.4375 1.075
3.1875 0.5 1.075
3.25 0.4375 1.0125
3.3125 0.5 1.0125
3.3125 0.4375 1.0125
3.375 0.5 1.0125
3.3125 0.4375 1.075
3.375 0.4375 1.075
3.3125 0.5 1.075
3.375 0.4375 1.0125
3.4375 0.5 1.0125
3.4375 0.4375 1.0125
3.5 0.5 1.0125
3.4375 0.4375 1.075
3.5 0.4375 1.075
3.4375 0.5 1.075
3.5 0.4375 1.0125
3.5625 0.5 1.0125
3.5625 0.4375 1.0125
3.625 0.5 1.0125
3.5625 0.4375 1.075
3.625 0.4375 1.075
3.5625 0.5 1.075
3.625 0.4375 1.0125
3.6875 0.5 1.0125
3.6875 0.4375 1.0125
3.75 0.5 1.0125
3.6875 0.4375 1.075
3.75 0.4375 1.075
3.6875 0.5 1.075
3.75 0.4375 1.0125
3.8125 0.5 1.0125
3.8125 0.4375 1.0125
3.875 0.5 1.0125
3.8125 0.4375 1.075
3.875 0.4375 1.075
3.8125 0.5 1.075
3.875 0.4375 1.0125
3.9375 0.5 1.0125
3.9375 0.4375 1.0125
4 0.5 1.0125
3.9375 0.4375 1.075
4 0.4375 1.075
3.9375 0.5 1.075
4 0.4375 1.0125
0.0625 0.625 1.0125
0.0625 0.5625 1.0125
0.125 0.625 1.0125
0.0625 0.5625 1.075
0.125 0.5625 1.075
0 0.625 1.0125
0 0.5625 1.0125
0.0625 0.625 1.075
0 0.5625 1.075
0.125 0.5625 1.0125
0.1875 0.625 1.0125
0.1875 0.5625 1.0125
0.25 0.625 1.0125
0.1875 0.5625 1.075
0.25 0.5625 1.075
0.1875 0.625 1.075
0.25 0.5625 1.0125
0.3125 0.625 1.0125
0.3125 0.5625 1.0125
0.375 0.625 1.0125
0.3125 0.5625 1.075
0.375 0.5625 1.075
0.3125 0.625 1.075
0.375 0.5625 1.0125
0.4375 0.625 1.0125
0.4375 0.5625 1.0125
0.5 0.625 1.0125
0.4375 0.5625 1.075
0.5 0.5625 1.075
0.4375 0.625 1.075
0.5 0.5625 1.0125
0.5625 0.625 1.0125
0.5625 0.5625 1.0125
0.625 0.625 1.0125
0.5625 0.5625 1.075
0.625 0.5625 1.075
0.5625 0.625 1.075
0.625 0.5625 1.0125
0.6875 0.625 1.0125
0.6875 0.5625 1.0125
0.75 0.625 1.0125
0.6875 0.5625 1.075
0.75 0.5625 1.075
0.6875 0.625 1.075
0.75 0.5625 1.0125
0.8125 0.625 1.0125
0.8125 0.5625 1.0125
0.875 0.625 1.0125
0.8125 0.5625 1.075
0.875 0.5625 1.075
0.8125 0.625 1.075
0.875 0.5625 1.0125
0.9375 0.625 1.0125
0.9375 0.5625 1.0125
1 0.625 1.0125
0.9375 0.5625 1.075
1 0.5625 1.075
0.9375 0.625 1.075
1 0.5625 1.0125
1.0625 0.625 1.0125
1.0625 0.5625 1.0125
1.125 0.625 1.0125
1.0625 0.5625 1.075
1.125 0.5625 1.075
1.0625 0.625 1.075
1.125 0.5625 1.0125
1.1875 0.625 1.0125
1.1875 0.5625 1.0125
1.25 0.625 1.0125
1.1875 0.5625 1.075
1.25 0.5625 1.075
1.1875 0.625 1.075
1.25 0.5625 1.0125
1.3125 0.625 1.0125
1.3125 0.5625 1.0125
1.375 0.625 1.0125
1.3125 0.5625 1.075
1.375 0.5625 1.075
1.3125 0.625 1.075
1.375 0.5625 1.0125
1.4375 0.625 1.0125
1.4375 0.5625 1.0125
1.5 0.625 1.0125
1.4375 0.5625 1.075
1.5 0.5625 1.075
1.4375 0.625 1.075
1.5 0.5625 1.0125
1.5625 0.625 1.0125
1.5625 0.5625 1.0125
1.625 0.625 1.0125
1.5625 0.5625 1.075
1.625 0.5625 1.075
1.5625 0.625 1.075
1.625 0.5625 1.0125
1.6875 0.625 1.0125
1.6875 0.5625 1.0125
1.75 0.625 1.0125
1.6875 0.5625 1.075
1.75 0.5625 1.075
1.6875 0.625 1.075
1.75 0.5625 1.0125
1.8125 0.625 1.0125
1.8125 0.5625 1.0125
1.875 0.625 1.0125
1.8125 0.5625 1.075
1.875 0.5625 1.075
1.8125 0.625 1.075
1.875 0.5625 1.0125
1.9375 0.625 1.0125
1.9375 0.5625 1.0125
2 0.625 1.0125
1.9375 0.5625 1.075
2 0.5625 1.075
1.9375 0.625 1.075
2 0.5625 1.0125
2.0625 0.625 1.0125
2.0625 0.5625 1.0125
2.125 0.625 1.0125
2.0625 0.5625 1.075
2.125 0.5625 1.075
2.0625 0.625 1.075
2.125 0.5625 1.0125
2.1875 0.625 1.0125
2.1875 0.5625 1.0125
2.25 0.625 1.0125
2.1875 0.5625 1.075
2.25 0.5625 1.075
2.1875 0.625 1.075
2.25 0.5625 1.0125
2.3125 0.625 1.0125
2.3125 0.5625 1.0125
2.375 0.625 1.0125
2.3125 0.5625 1.075
2.375 0.5625 1.075
2.3125 0.625 1.075
2.375 0.5625 1.0125
2.4375 0.625 1.0125
2.4375 0.5625 1.0125
2.5 0.625 1.0125
2.4375 0.5625 1.075
2.5 0.5625 1.075
2.4375 0.625 1.075
2.5 0.5625 1.0125
2.5625 0.625 1.0125
2.5625 0.5625 1.0125
2.625 0.625 1.0125
2.5625 0.5625 1.075
2.625 0.5625 1.075
2.5625 0.625 1.075
2.625 0.5625 1.0125
2.6875 0.625 1.0125
2.6875 0.5625 1.0125
2.75 0.625 1.0125
2.6875 0.5625 1.075
2.75 0.5625 1.075
2.6875 0.625 1.075
2.75 0.5625 1.0125
2.8125 0.625 1.0125
2.8125 0.5625 1.0125
2.875 0.625 1.0125
2.8125 0.5625 1.075
2.875 0.5625 1.075
2.8125 0.625 1.075
2.875 0.5625 1.0125
2.9375 0.625 1.0125
2.9375 0.5625 1.0125
3 0.625 1.0125
2.9375 0.5625 1.075
3 0.5625 1.075
2.9375 0.625 1.075
3 0.5625 1.0125
3.0625 0.625 1.0125
3.0625 0.5625 1.0125
3.125 0.625 1.0125
3.0625 0.5625 1.075
3.125 0.5625 1.075
3.0625 0.625 1.075
3.125 0.5625 1.0125
3.1875 0.625 1.0125
3.1875 0.5625 1.0125
3.25 0.625 1.0125
3.1875 0.5625 1.075
3.25 0.5625 1.075
3.1875 0.625 1.075
3.25 0.5625 1.0125
3.3125 0.625 1.0125
3.3125 0.5625 1.0125
3.375 0.625 1.0125
3.3125 0.5625 1.075
3.375 0.5625 1.075
3.3125 0.625 1.075
3.375 0.5625 1.0125
3.4375 0.625 1.0125
3.4375 0.5625 1.0125
3.5 0.625 1.0125
3.4375 0.5625 1.075
3.5 0.5625 1.075
3.4375 0.625 1.075
3.5 0.5625 1.0125
3.5625 0.625 1.0125
3.5625 0.5625 1.0125
3.625 0.625 1.0125
3.5625 0.5625 1.075
3.625 0.5625 1.075
3.5625 0.625 1.075
3.625 0.5625 1.0125
3.6875 0.625 1.0125
3.6875 0.5625 1.0125
3.75 0.625 1.0125
3.6875 0.5625 1.075
3.75 0.5625 1.075
3.6875 0.625 1.075
3.75 0.5625 1.0125
3.8125 0.625 1.0125
3.8125 0.5625 1.0125
3.875 0.625 1.0125
3.8125 0.5625 1.075
3.875 0.5625 1.075
3.8125 0.625 1.075
3.875 0.5625 1.0125
3.9375 0.625 1.0125
3.9375 0.5625 1.0125
4 0.625 1.0125
3.9375 0.5625 1.075
4 0.5625 1.075
3.9375 0.625 1.075
4 0.5625 1.0125
0.0625 0.75 1.0125
0.0625 0.6875 1.0125
0.125 0.75 1.0125
0.0625 0.6875 1.075
0.125 0.6875 1.075
0 0.75 1.0125
0 0.6875 1.0125
0.0625 0.75 1.075
0 0.6875 1.075
0.125 0.6875 1.0125
0.1875 0.75 1.0125
0.1875 0.6875 1.0125
0.25 0.75 1.0125
0.1875 0.6875 1.075
0.25 0.6875 1.075
0.1875 0.75 1.075
0.25 0.6875 1.0125
0.3125 0.75 1.0125
0.3125 0.6875 1.0125
0.375 0.75 1.0125
0.3125 0.6875 1.075
0.375 0.6875 1.075
0.3125 0.75 1.075
0.375 0.6875 1.0125
0.4375 0.75 1.0125
0.4375 0.6875 1.0125
0.5 0.75 1.0125
0.4375 0.6875 1.075
0.5 0.6875 1.075
0.4375 0.75 1.075
0.5 0.6875 1.0125
0.5625 0.75 1.0125
0.5625 0.6875 1.0125
0.625 0.75 1.0125
0.5625 0.6875 1.075
0.625 0.6875 1.075
0.5625 0.75 1.075
0.625 0.6875 1.0125
0.6875 0.75 1.0125
0.6875 0.6875 1.0125
0.75 0.75 1.0125
0.6875 0.6875 1.075
0.75 0.6875 1.075
0.6875 0.75 1.075
0.75 0.6875 1.0125
0.8125 0.75 1.0125
0.8125 0.6875 1.0125
0.875 0.75 1.0125
0.8125 0.6875 1.075
0.875 0.6875 1.075
0.8125 0.75 1.075
0.875 0.6875 1.0125
0.9375 0.75 1.0125
0.9375 0.6875 1.0125
1 0.75 1.0125
0.9375 0.6875 1.075
1 0.6875 1.075
0.9375 0.75 1.075
1 0.6875 1.0125
1.0625 0.75 1.0125
1.0625 0.6875 1.0125
1.125 0.75 1.0125
1.0625 0.6875 1.075
1.125 0.6875 1.075
1.0625 0.75 1.075
1.125 0.6875 1.0125
1.1875 0.75 1.0125
1.1875 0.6875 1.0125
1.25 0.75 1.0125
1.1875 0.6875 1.075
1.25 0.6875 1.075
1.1875 0.75 1.075
1.25 0.6875 1.0125
1.3125 0.75 1.0125
1.3125 0.6875 1.0125
1.375 0.75 1.0125
1.3125 0.6875 1.075
1.375 0.6875 1.075
1.3125 0.75 1.075
1.375 0.6875 1.0125
1.4375 0.75 1.0125
1.4375 0.6875 1.0125
1.5 0.75 1.0125
1.4375 0.6875 1.075
1.5 0.6875 1.075
1.4375 0.75 1.075
1.5 0.6875 1.0125
1.5625 0.75 1.0125
1.5625 0.6875 1.0125
1.625 0.75 1.0125
1.5625 0.6875 1.075
1.625 0.6875 1.075
1.5625 0.75 1.075
1.625 0.6875 1.0125
1.6875 0.75 1.0125
1.6875 0.6875 1.0125
1.75 0.75 1.0125
1.6875 0.6875 1.075
1.75 0.6875 1.075
1.6875 0.75 1.075
1.75 0.6875 1.0125
1.8125 0.75 1.0125
1.8125 0.6875 1.0125
1.875 0.75 1.0125
1.8125 0.6875 1.075
1.875 0.6875 1.075
1.8125 0.75 1.075
1.875 0.6875 1.0125
1.9375 0.75 1.0125
1.9375 0.6875 1.0125
2 0.75 1.0125
1.9375 0.6875 1.075
2 0.6875 1.075
1.9375 0.75 1.075
2 0.6875 1.0125
2.0625 0.75 1.0125
2.0625 0.6875 1.0125
2.125 0.75 1.0125
2.0625 0.6875 1.075
2.125 0.6875 1.075
2.0625 0.75 1.075
2.125 0.6875 1.0125
2.1875 0.75 1.0125
2.1875 0.6875 1.0125
2.25 0.75 1.0125
2.1875 0.6875 1.075
2.25 0.6875 1.075
2.1875 0.75 1.075
2.25 0.6875 1.0125
2.3125 0.75 1.0125
2.3125 0.6875 1.0125
2.375 0.75 1.0125
2.3125 0.6875 1.075
2.375 0.6875 1.075
2.3125 0.75 1.075
2.375 0.6875 1.0125
2.4375 0.75 1.0125
2.4375 0.6875 1.0125
2.5 0.75 1.0125
2.4375 0.6875 1.075
2.5 0.6875 1.075
2.4375 0.75 1.075
2.5 0.6875 1.0125
2.5625 0.75 1.0125
2.5625 0.6875 1.0125
2.625 0.75 1.0125
2.5625 0.6875 1.075
2.625 0.6875 1.075
2.5625 0.75 1.075
2.625 0.6875 1.0125
2.6875 0.75 1.0125
2.6875 0.6875 1.0125
2.75 0.75 1.0125
2.6875 0.6875 1.075
2.75 0.6875 1.075
2.6875 0.75 1.075
2.75 0.6875 1.0125
2.8125 0.75 1.0125
2.8125 0.6875 1.0125
2.875 0.75 1.0125
2.8125 0.6875 1.075
2.875 0.6875 1.075
2.8125 0.75 1.075
2.875 0.6875 1.0125
2.9375 0.75 1.0125
2.9375 0.6875 1.0125
3 0.75 1.0125
2.9375 0.6875 1.075
3 0.6875 1.075
2.9375 0.75 1.075
3 0.6875 1.0125
3.0625 0.75 1.0125
3.0625 0.6875 1.0125
3.125 0.75 1.0125
3.0625 0.6875 1.075
3.125 0.6875 1.075
3.0625 0.75 1.075
3.125 0.6875 1.0125
3.1875 0.75 1.0125
3.1875 0.6875 1.0125
3.25 0.75 1.0125
3.1875 0.6875 1.075
3.25 0.6875 1.075
3.1875 0.75 1.075
3.25 0.6875 1.0125
3.3125 0.75 1.0125
3.3125 0.6875 1.0125
3.375 0.75 1.0125
3.3125 0.6875 1.075
3.375 0.6875 1.075
3.3125 0.75 1.075
3.375 0.6875 1.0125
3.4375 0.75 1.0125
3.4375 0.6875 1.0125
3.5 0.75 1.0125
3.4375 0.6875 1.075
3.5 0.6875 1.075
3.4375 0.75 1.075
3.5 0.6875 1.0125
3.5625 0.75 1.0125
3.5625 0.6875 1.0125
3.625 0.75 1.0125
3.5625 0.6875 1.075
3.625 0.6875 1.075
3.5625 0.75 1.075
3.625 0.6875 1.0125
3.6875 0.75 1.0125
3.6875 0.6875 1.0125
3.75 0.75 1.0125
3.6875 0.6875 1.075
3.75 0.6875 1.075
3.6875 0.75 1.075
3.75 0.6875 1.0125
3.8125 0.75 1.0125
3.8125 0.6875 1.0125
3.875 0.75 1.0125
3.8125 0.6875 1.075
3.875 0.6875 1.075
3.8125 0.75 1.075
3.875 0.6875 1.0125
3.9375 0.75 1.0125
3.9375 0.6875 1.0125
4 0.75 1.0125
3.9375 0.6875 1.075
4 0.6875 1.075
3.9375 0.75 1.075
4 0.6875 1.0125
0.0625 0.875 1.0125
0.0625 0.8125 1.0125
0.125 0.875 1.0125
0.0625 0.8125 1.075
0.125 0.8125 1.075
0 0.875 1.0125
0 0.8125 1.0125
0.0625 0.875 1.075
0 0.8125 1.075
0.125 0.8125 1.0125
0.1875 0.875 1.0125
0.1875 0.8125 1.0125
0.25 0.875 1.0125
0.1875 0.8125 1.075
0.25 0.8125 1.075
0.1875 0.875 1.075
0.25 0.8125 1.0125
0.3125 0.875 1.0125
0.3125 0.8125 1.0125
0.375 0.875 1.0125
0.3125 0.8125 1.075
0.375 0.8125 1.075
0.3125 0.875 1.075
0.375 0.8125 1.0125
0.4375 0.875 1.0125
0.4375 0.8125 1.0125
0.5 0.875 1.0125
0.4375 0.8125 1.075
0.5 0.8125 1.075
0.4375 0.875 1.075
0.5 0.8125 1.0125
0.5625 0.875 1.0125
0.5625 0.8125 1.0125
0.625 0.875 1.0125
0.5625 0.8125 1.075
0.625 0.8125 1.075
0.5625 0.875 1.075
0.625 0.8125 1.0125
0.6875 0.875 1.0125
0.6875 0.8125 1.0125
0.75 0.875 1.0125
0.6875 0.8125 1.075
0.75 0.8125 1.075
0.6875 0.875 1.075
0.75 0.8125 1.0125
0.8125 0.875 1.0125
0.8125 0.8125 1.0125
0.875 0.875 1.0125
0.8125 0.8125 1.075
0.875 0.8125 1.075
0.8125 0.875 1.075
0.875 0.8125 1.0125
0.9375 0.875 1.0125
0.9375 0.8125 1.0125
1 0.875 1.0125
0.9375 0.8125 1.075
1 0.8125 1.075
0.9375 0.875 1.075
1 0.8125 1.0125
1.0625 0.875 1.0125
1.0625 0.8125 1.0125
1.125 0.875 1.0125
1.0625 0.8125 1.075
1.125 0.8125 1.075
1.0625 0.875 1.075
1.125 0.8125 1.0125
1.1875 0.875 1.0125
1.1875 0.8125 1.0125
1.25 0.875 1.0125
1.1875 0.8125 1.075
1.25 0.8125 1.075
1.1875 0.875 1.075
1.25 0.8125 1.0125
1.3125 0.875 1.0125
1.3125 0.8125 1.0125
1.375 0.875 1.0125
1.3125 0.8125 1.075
1.375 0.8125 1.075
1.3125 0.875 1.075
1.375 0.8125 1.0125
1.4375 0.875 1.0125
1.4375 0.8125 1.0125
1.5 0.875 1.0125
1.4375 0.8125 1.075
1.5 0.8125 1.075
1.4375 0.875 1.075
1.5 0.8125 1.0125
1.5625 0.875 1.0125
1.5625 0.8125 1.0125
1.625 0.875 1.0125
1.5625 0.8125 1.075
1.625 0.8125 1.075
1.5625 0.875 1.075
1.625 0.8125 1.0125
1.6875 0.875 1.0125
1.6875 0.8125 1.0125
1.75 0.875 1.0125
1.6875 0.8125 1.075
1.75 0.8125 1.075
1.6875 0.875 1.075
1.75 0.8125 1.0125
1.8125 0.875 1.0125
1.8125 0.8125 1.0125
1.875 0.875 1.0125
1.8125 0.8125 1.075
1.875 0.8125 1.075
1.8125 0.875 1.075
1.875 0.8125 1.0125
1.9375 0.875 1.0125
1.9375 0.8125 1.0125
2 0.875 1.0125
1.9375 0.8125 1.075
2 0.8125 1.075
1.9375 0.875 1.075
2 0.8125 1.0125
2.0625 0.875 1.0125
2.0625 0.8125 1.0125
2.125 0.875 1.0125
2.0625 0.8125 1.075
2.125 0.8125 1.075
2.0625 0.875 1.075
2.125 0.8125 1.0125
2.1875 0.875 1.0125
2.1875 0.8125 1.0125
2.25 0.875 1.0125
2.1875 0.8125 1.075
2.25 0.8125 1.075
2.1875 0.875 1.075
2.25 0.8125 1.0125
2.3125 0.875 1.0125
2.3125 0.8125 1.0125
2.375 0.875 1.0125
2.3125 0.8125 1.075
2.375 0.8125 1.075
2.3125 0.875 1.075
2.375 0.8125 1.0125
2.4375 0.875 1.0125
2.4375 0.8125 1.0125
2.5 0.875 1.0125
2.4375 0.8125 1.075
2.5 0.8125 1.075
2.4375 0.875 1.075
2.5 0.8125 1.0125
2.5625 0.875 1.0125
2.5625 0.8125 1.0125
2.625 0.875 1.0125
2.5625 0.8125 1.075
2.625 0.8125 1.075
2.5625 0.875 1.075
2.625 0.8125 1.0125
2.6875 0.875 1.0125
2.6875 0.8125 1.0125
2.75 0.875 1.0125
2.6875 0.8125 1.075
2.75 0.8125 1.075
2.6875 0.875 1.075
2.75 0.8125 1.0125
2.8125 0.875 1.0125
2.8125 0.8125 1.0125
2.875 0.875 1.0125
2.8125 0.8125 1.075
2.875 0.8125 1.075
2.8125 0.875 1.075
2.875 0.8125 1.0125
2.9375 0.875 1.0125
2.9375 0.8125 1.0125
3 0.875 1.0125
2.9375 0.8125 1.075
3 0.8125 1.075
2.9375 0.875 1.075
3 0.8125 1.0125
3.0625 0.875 1.0125
3.0625 0.8125 1.0125
3.125 0.875 1.0125
3.0625 0.8125 1.075
3.125 0.8125 1.075
3.0625 0.875 1.075
3.125 0.8125 1.0125
3.1875 0.875 1.0125
3.1875 0.8125 1.0125
3.25 0.875 1.0125
3.1875 0.8125 1.075
3.25 0.8125 1.075
3.1875 0.875 1.075
3.25 0.8125 1.0125
3.3125 0.875 1.0125
3.3125 0.8125 1.0125
3.375 0.875 1.0125
3.3125 0.8125 1.075
3.375 0.8125 1.075
3.3125 0.875 1.075
3.375 0.8125 1.0125
3.4375 0.875 1.0125
3.4375 0.8125 1.0125
3.5 0.875 1.0125
3.4375 0.8125 1.075
3.5 0.8125 1.075
3.4375 0.875 1.075
3.5 0.8125 1.0125
3.5625 0.875 1.0125
3.5625 0.8125 1.0125
3.625 0.875 1.0125
3.5625 0.8125 1.075
3.625 0.8125 1.075
3.5625 0.875 1.075
3.625 0.8125 1.0125
3.6875 0.875 1.0125
3.6875 0.8125 1.0125
3.75 0.875 1.0125
3.6875 0.8125 1.075
3.75 0.8125 1.075
3.6875 0.875 1.075
3.75 0.8125 1.0125
3.8125 0.875 1.0125
3.8125 0.8125 1.0125
3.875 0.875 1.0125
3.8125 0.8125 1.075
3.875 0.8125 1.075
3.8125 0.875 1.075
3.875 0.8125 1.0125
3.9375 0.875 1.0125
3.9375 0.8125 1.0125
4 0.875 1.0125
3.9375 0.8125 1.075
4 0.8125 1.075
3.9375 0.875 1.075
4 0.8125 1.0125
0.0625 1 1.0125
0.0625 0.9375 1.0125
0.125 1 1.0125
0.0625 0.9375 1.075
0.125 0.9375 1.075
0 1 1.0125
0 0.9375 1.0125
0.0625 1 1.075
0 0.9375 1.075
0.125 0.9375 1.0125
0.1875 1 1.0125
0.1875 0.9375 1.0125
0.25 1 1.0125
0.1875 0.9375 1.075
0.25 0.9375 1.075
0.1875 1 1.075
0.25 0.9375 1.0125
0.3125 1 1.0125
0.3125 0.9375 1.0125
0.375 1 1.0125
0.3125 0.9375 1.075
0.375 0.9375 1.075
0.3125 1 1.075
0.375 0.9375 1.0125
0.4375 1 1.0125
0.4375 0.9375 1.0125
0.5 1 1.0125
0.4375 0.9375 1.075
0.5 0.9375 1.075
0.4375 1 1.075
0.5 0.9375 1.0125
0.5625 1 1.0125
0.5625 0.9375 1.0125
0.625 1 1.0125
0.5625 0.9375 1.075
0.625 0.9375 1.075
0.5625 1 1.075
0.625 0.9375 1.0125
0.6875 1 1.0125
0.6875 0.9375 1.0125
0.75 1 1.0125
0.6875 0.9375 1.075
0.75 0.9375 1.075
0.6875 1 1.075
0.75 0.9375 1.0125
0.8125 1 1.0125
0.8125 0.9375 1.0125
0.875 1 1.0125
0.8125 0.9375 1.075
0.875 0.9375 1.075
0.8125 1 1.075
0.875 0.9375 1.0125
0.9375 1 1.0125
0.9375 0.9375 1.0125
1 1 1.0125
0.9375 0.9375 1.075
1 0.9375 1.075
0.9375 1 1.075
1 0.9375 1.0125
1.0625 1 1.0125
1.0625 0.9375 1.0125
1.125 1 1.0125
1.0625 0.9375 1.075
1.125 0.9375 1.075
1.0625 1 1.075
1.125 0.9375 1.0125
1.1875 1 1.0125
1.1875 0.9375 1.0125
1.25 1 1.0125
1.1875 0.9375 1.075
1.25 0.9375 1.075
1.1875 1 1.075
1.25 0.9375 1.0125
1.3125 1 1.0125
1.3125 0.9375 1.0125
1.375 1 1.0125
1.3125 0.9375 1.075
1.375 0.9375 1.075
1.3125 1 1.075
1.375 0.9375 1.0125
1.4375 1 1.0125
1.4375 0.9375 1.0125
1.5 1 1.0125
1.4375 0.9375 1.075
1.5 0.9375 1.075
1.4375 1 1.075
1.5 0.9375 1.0125
1.5625 1 1.0125
1.5625 0.9375 1.0125
1.625 1 1.0125
1.5625 0.9375 1.075
1.625 0.9375 1.075
1.5625 1 1.075
1.625 0.9375 1.0125
1.6875 1 1.0125
1.6875 0.9375 1.0125
1.75 1 1.0125
1.6875 0.9375 1.075
1.75 0.9375 1.075
1.6875 1 1.075
1.75 0.9375 1.0125
1.8125 1 1.0125
1.8125 0.9375 1.0125
1.875 1 1.0125
1.8125 0.9375 1.075
1.875 0.9375 1.075
1.8125 1 1.075
1.875 0.9375 1.0125
1.9375 1 1.0125
1.9375 0.9375 1.0125
2 1 1.0125
1.9375 0.9375 1.075
2 0.9375 1.075
1.9375 1 1.075
2 0.9375 1.0125
2.0625 1 1.0125
2.0625 0.9375 1.0125
2.125 1 1.0125
2.0625 0.9375 1.075
2.125 0.9375 1.075
2.0625 1 1.075
2.125 0.9375 1.0125
2.1875 1 1.0125
2.1875 0.9375 1.0125
2.25 1 1.0125
2.1875 0.9375 1.075
2.25 0.9375 1.075
2.1875 1 1.075
2.25 0.9375 1.0125
2.3125 1 1.0125
2.3125 0.9375 1.0125
2.375 1 1.0125
2.3125 0.9375 1.075
2.375 0.9375 1.075
2.3125 1 1.075
2.375 0.9375 1.0125
2.4375 1 1.0125
2.4375 0.9375 1.0125
2.5 1 1.0125
2.4375 0.9375 1.075
2.5 0.9375 1.075
2.4375 1 1.075
2.5 0.9375 1.0125
2.5625 1 1.0125
2.5625 0.9375 1.0125
2.625 1 1.0125
2.5625 0.9375 1.075
2.625 0.9375 1.075
2.5625 1 1.075
2.625 0.9375 1.0125
2.6875 1 1.0125
2.6875 0.9375 1.0125
2.75 1 1.0125
2.6875 0.9375 1.075
2.75 0.9375 1.075
2.6875 1 1.075
2.75 0.9375 1.0125
2.8125 1 1.0125
2.8125 0.9375 1.0125
2.875 1 1.0125
2.8125 0.9375 1.075
2.875 0.9375 1.075
2.8125 1 1.075
2.875 0.9375 1.0125
2.9375 1 1.0125
2.9375 0.9375 1.0125
3 1 1.0125
2.9375 0.9375 1.075
3 0.9375 1.075
2.9375 1 1.075
3 0.9375 1.0125
3.0625 1 1.0125
3.0625 0.9375 1.0125
3.125 1 1.0125
3.0625 0.9375 1.075
3.125 0.9375 1.075
3.0625 1 1.075
3.125 0.9375 1.0125
3.1875 1 1.0125
3.1875 0.9375 1.0125
3.25 1 1.0125
3.1875 0.9375 1.075
3.25 0.9375 1.075
3.1875 1 1.075
3.25 0.9375 1.0125
3.3125 1 1.0125
3.3125 0.9375 1.0125
3.375 1 1.0125
3.3125 0.9375 1.075
3.375 0.9375 1.075
3.3125 1 1.075
3.375 0.9375 1.0125
3.4375 1 1.0125
3.4375 0.9375 1.0125
3.5 1 1.0125
3.4375 0.9375 1.075
3.5 0.9375 1.075
3.4375 1 1.075
3.5 0.9375 1.0125
3.5625 1 1.0125
3.5625 0.9375 1.0125
3.625 1 1.0125
3.5625 0.9375 1.075
3.625 0.9375 1.075
3.5625 1 1.075
3.625 0.9375 1.0125
3.6875 1 1.0125
3.6875 0.9375 1.0125
3.75 1 1.0125
3.6875 0.9375 1.075
3.75 0.9375 1.075
3.6875 1 1.075
3.75 0.9375 1.0125
3.8125 1 1.0125
3.8125 0.9375 1.0125
3.875 1 1.0125
3.8125 0.9375 1.075
3.875 0.9375 1.075
3.8125 1 1.075
3.875 0.9375 1.0125
3.9375 1 1.0125
3.9375 0.9375 1.0125
4 1 1.0125
3.9375 0.9375 1.075
4 0.9375 1.075
3.9375 1 1.075
4 0.9375 1.0125
0.0625 0.125 1.1375
0.0625 0.0625 1.1375
0.125 0.125 1.1375
0.0625 0.0625 1.2
0.125 0.0625 1.2
0.0625 0 1.2
0 0 1.1375
0.0625 0 1.1375
0 0.125 1.1375
0 0.0625 1.1375
0.0625 0.125 1.2
0 0.0625 1.2
0.125 0 1.1375
0.125 0.0625 1.1375
0.1875 0.125 1.1375
0.1875 0.0625 1.1375
0.25 0.125 1.1375
0.1875 0.0625 1.2
0.25 0.0625 1.2
0.1875 0 1.2
0.1875 0 1.1375
0.1875 0.125 1.2
0.25 0 1.1375
0.25 0.0625 1.1375
0.3125 0.125 1.1375
0.3125 0.0625 1.1375
0.375 0.125 1.1375
0.3125 0.0625 1.2
0.375 0.0625 1.2
0.3125 0 1.2
0.3125 0 1.1375
0.3125 0.125 1.2
0.375 0 1.1375
0.375 0.0625 1.1375
0.4375 0.125 1.1375
0.4375 0.0625 1.1375
0.5 0.125 1.1375
0.4375 0.0625 1.2
0.5 0.0625 1.2
0.4375 0 1.2
0.4375 0 1.1375
0.4375 0.125 1.2
0.5 0 1.1375
0.5 0.0625 1.1375
0.5625 0.125 1.1375
0.5625 0.0625 1.1375
0.625 0.125 1.1375
0.5625 0.0625 1.2
0.625 0.0625 1.2
0.5625 0 1.2
0.5625 0 1.1375
0.5625 0.125 1.2
0.625 0 1.1375
0.625 0.0625 1.1375
0.6875 0.125 1.1375
0.6875 0.0625 1.1375
0.75 0.125 1.1375
0.6875 0.0625 1.2
0.75 0.0625 1.2
0.6875 0 1.2
0.6875 0 1.1375
0.6875 0.125 1.2
0.75 0 1.1375
0.75 0.0625 1.1375
0.8125 0.125 1.1375
0.8125 0.0625 1.1375
0.875 0.125 1.1375
0.8125 0.0625 1.2
0.875 0.0625 1.2
0.8125 0 1.2
0.8125 0 1.1375
0.8125 0.125 1.2
0.875 0 1.1375
0.875 0.0625 1.1375
0.9375 0.125 1.1375
0.9375 0.0625 1.1375
1 0.125 1.1375
0.9375 0.0625 1.2
1 0.0625 1.2
0.9375 0 1.2
0.9375 0 1.1375
0.9375 0.125 1.2
1 0 1.1375
1 0.0625 1.1375
1.0625 0.125 1.1375
1.0625 0.0625 1.1375
1.125 0.125 1.1375
1.0625 0.0625 1.2
1.125 0.0625 1.2
1.0625 0 1.2
1.0625 0 1.1375
1.0625 0.125 1.2
1.125 0 1.1375
1.125 0.0625 1.1375
1.1875 0.125 1.1375
1.1875 0.0625 1.1375
1.25 0.125 1.1375
1.1875 0.0625 1.2
1.25 0.0625 1.2
1.1875 0 1.2
1.1875 0 1.1375
1.1875 0.125 1.2
1.25 0 1.1375
1.25 0.0625 1.1375
1.3125 0.125 1.1375
1.3125 0.0625 1.1375
1.375 0.125 1.1375
1.3125 0.0625 1.2
1.375 0.0625 1.2
1.3125 0 1.2
1.3125 0 1.1375
1.3125 0.125 1.2
1.375 0 1.1375
1.375 0.0625 1.1375
1.4375 0.125 1.1375
1.4375 0.0625 1.1375
1.5 0.125 1.1375
1.4375 0.0625 1.2
1.5 0.0625 1.2
1.4375 0 1.2
1.4375 0 1.1375
1.4375 0.125 1.2
1.5 0 1.1375
1.5 0.0625 1.1375
1.5625 0.125 1.1375
1.5625 0.0625 1.1375
1.625 0.125 1.1375
1.5625 0.0625 1.2
1.625 0.0625 1.2
1.5625 0 1.2
1.5625 0 1.1375
1.5625 0.125 1.2
1.625 0 1.1375
1.625 0.0625 1.1375
1.6875 0.125 1.1375
1.6875 0.0625 1.1375
1.75 0.125 1.1375
1.6875 0.0625 1.2
1.75 0.0625 1.2
1.6875 0 1.2
1.6875 0 1.1375
1.6875 0.125 1.2
1.75 0 1.1375
1.75 0.0625 1.1375
1.8125 0.125 1.1375
1.8125 0.0625 1.1375
1.875 0.125 1.1375
1.8125 0.0625 1.2
1.875 0.0625 1.2
1.8125 0 1.2
1.8125 0 1.1375
1.8125 0.125 1.2
1.875 0 1.1375
1.875 0.0625 1.1375
1.9375 0.125 1.1375
1.9375 0.0625 1.1375
2 0.125 1.1375
1.9375 0.0625 1.2
2 0.0625 1.2
1.9375 0 1.2
1.9375 0 1.1375
1.9375 0.125 1.2
2 0 1.1375
2 0.0625 1.1375
2.0625 0.125 1.1375
2.0625 0.0625 1.1375
2.125 0.125 1.1375
2.0625 0.0625 1.2
2.125 0.0625 1.2
2.0625 0 1.2
2.0625 0 1.1375
2.0625 0.125 1.2
2.125 0 1.1375
2.125 0.0625 1.1375
2.1875 0.125 1.1375
2.1875 0.0625 1.1375
2.25 0.125 1.1375
2.1875 0.0625 1.2
2.25 0.0625 1.2
2.1875 0 1.2
2.1875 0 1.1375
2.1875 0.125 1.2
2.25 0 1.1375
2.25 0.0625 1.1375
2.3125 0.125 1.1375
2.3125 0.0625 1.1375
2.375 0.125 1.1375
2.3125 0.0625 1.2
2.375 0.0625 1.2
2.3125 0 1.2
2.3125 0 1.1375
2.3125 0.125 1.2
2.375 0 1.1375
2.375 0.0625 1.1375
2.4375 0.125 1.1375
2.4375 0.0625 1.1375
2.5 0.125 1.1375
2.4375 0.0625 1.2
2.5 0.0625 1.2
2.4375 0 1.2
2.4375 0 1.1375
2.4375 0.125 1.2
2.5 0 1.1375
2.5 0.0625 1.1375
2.5625 0.125 1.1375
2.5625 0.0625 1.1375
2.625 0.125 1.1375
2.5625 0.0625 1.2
2.625 0.0625 1.2
2.5625 0 1.2
2.5625 0 1.1375
2.5625 0.125 1.2
2.625 0 1.1375
2.625 0.0625 1.1375
2.6875 0.125 1.1375
2.6875 0.0625 1.1375
2.75 0.125 1.1375
2.6875 0.0625 1.2
2.75 0.0625 1.2
2.6875 0 1.2
2.6875 0 1.1375
2.6875 0.125 1.2
2.75 0 1.1375
2.75 0.0625 1.1375
2.8125 0.125 1.1375
2.8125 0.0625 1.1375
2.875 0.125 1.1375
2.8125 0.0625 1.2
2.875 0.0625 1.2
2.8125 0 1.2
2.8125 0 1.1375
2.8125 0.125 1.2
2.875 0 1.1375
2.875 0.0625 1.1375
2.9375 0.125 1.1375
2.9375 0.0625 1.1375
3 0.125 1.1375
2.9375 0.0625 1.2
3 0.0625 1.2
2.9375 0 1.2
2.9375 0 1.1375
2.9375 0.125 1.2
3 0 1.1375
3 0.0625 1.1375
3.0625 0.125 1.1375
3.0625 0.0625 1.1375
3.125 0.125 1.1375
3.0625 0.0625 1.2
3.125 0.0625 1.2
3.0625 0 1.2
3.0625 0 1.1375
3.0625 0.125 1.2
3.125 0 1.1375
3.125 0.0625 1.1375
3.1875 0.125 1.1375
3.1875 0.0625 1.1375
3.25 0.125 1.1375
3.1875 0.0625 1.2
3.25 0.0625 1.2
3.1875 0 1.2
3.1875 0 1.1375
3.1875 0.125 1.2
3.25 0 1.1375
3.25 0.0625 1.1375
3.3125 0.125 1.1375
3.3125 0.0625 1.1375
3.375 0.125 1.1375
3.3125 0.0625 1.2
3.375 0.0625 1.2
3.3125 0 1.2
3.3125 0 1.1375
3.3125 0.125 1.2
3.375 0 1.1375
3.375 0.0625 1.1375
3.4375 0.125 1.1375
3.4375 0.0625 1.1375
3.5 0.125 1.1375
3.4375 0.0625 1.2
3.5 0.0625 1.2
3.4375 0 1.2
3.4375 0 1.1375
3.4375 0.125 1.2
3.5 0 1.1375
3.5 0.0625 1.1375
3.5625 0.125 1.1375
3.5625 0.0625 1.1375
3.625 0.125 1.1375
3.5625 0.0625 1.2
3.625 0.0625 1.2
3.5625 0 1.2
3.5625 0 1.1375
3.5625 0.125 1.2
3.625 0 1.1375
3.625 0.0625 1.1375
3.6875 0.125 1.1375
3.6875 0.0625 1.1375
3.75 0.125 1.1375
3.6875 0.0625 1.2
3.75 0.0625 1.2
3.6875 0 1.2
3.6875 0 1.1375
3.6875 0.125 1.2
3.75 0 1.1375
3.75 0.0625 1.1375
3.8125 0.125 1.1375
3.8125 0.0625 1.1375
3.875 0.125 1.1375
3.8125 0.0625 1.2
3.875 0.0625 1.2
3.8125 0 1.2
3.8125 0 1.1375
3.8125 0.125 1.2
3.875 0 1.1375
3.875 0.0625 1.1375
3.9375 0.125 1.1375
3.9375 0.0625 1.1375
4 0.125 1.1375
3.9375 0.0625 1.2
4 0.0625 1.2
3.9375 0 1.2
3.9375 0 1.1375
3.9375 0.125 1.2
4 0 1.1375
4 0.0625 1.1375
0.0625 0.25 1.1375
0.0625 0.1875 1.1375
0.125 0.25 1.1375
0.0625 0.1875 1.2
0.125 0.1875 1.2
0 0.25 1.1375
0 0.1875 1.1375
0.0625 0.25 1.2
0 0.1875 1.2
0.125 0.1875 1.1375
0.1875 0.25 1.1375
0.1875 0.1875 1.1375
0.25 0.25 1.1375
0.1875 0.1875 1.2
0.25 0.1875 1.2
0.1875 0.25 1.2
0.25 0.1875 1.1375
0.3125 0.25 1.1375
0.3125 0.1875 1.1375
0.375 0.25 1.1375
0.3125 0.1875 1.2
0.375 0.1875 1.2
0.3125 0.25 1.2
0.375 0.1875 1.1375
0.4375 0.25 1.1375
0.4375 0.1875 1.1375
0.5 0.25 1.1375
0.4375 0.1875 1.2
0.5 0.1875 1.2
0.4375 0.25 1.2
0.5 0.1875 1.1375
0.5625 0.25 1.1375
0.5625 0.1875 1.1375
0.625 0.25 1.1375
0.5625 0.1875 1.2
0.625 0.1875 1.2
0.5625 0.25 1.2
0.625 0.1875 1.1375
0.6875 0.25 1.1375
0.6875 0.1875 1.1375
0.75 0.25 1.1375
0.6875 0.1875 1.2
0.75 0.1875 1.2
0.6875 0.25 1.2
0.75 0.1875 1.1375
0.8125 0.25 1.1375
0.8125 0.1875 1.1375
0.875 0.25 1.1375
0.8125 0.1875 1.2
0.875 0.1875 1.2
0.8125 0.25 1.2
0.875 0.1875 1.1375
0.9375 0.25 1.1375
0.9375 0.1875 1.1375
1 0.25 1.1375
0.9375 0.1875 1.2
1 0.1875 1.2
0.9375 0.25 1.2
1 0.1875 1.1375
1.0625 0.25 1.1375
1.0625 0.1875 1.1375
1.125 0.25 1.1375
1.0625 0.1875 1.2
1.125 0.1875 1.2
1.0625 0.25 1.2
1.125 0.1875 1.1375
1.1875 0.25 1.1375
1.1875 0.1875 1.1375
1.25 0.25 1.1375
1.1875 0.1875 1.2
1.25 0.1875 1.2
1.1875 0.25 1.2
1.25 0.1875 1.1375
1.3125 0.25 1.1375
1.3125 0.1875 1.1375
1.375 0.25 1.1375
1.3125 0.1875 1.2
1.375 0.1875 1.2
1.3125 0.25 1.2
1.375 0.1875 1.1375
1.4375 0.25 1.1375
1.4375 0.1875 1.1375
1.5 0.25 1.1375
1.4375 0.1875 1.2
1.5 0.1875 1.2
1.4375 0.25 1.2
1.5 0.1875 1.1375
1.5625 0.25 1.1375
1.5625 0.1875 1.1375
1.625 0.25 1.1375
1.5625 0.1875 1.2
1.625 0.1875 1.2
1.5625 0.25 1.2
1.625 0.1875 1.1375
1.6875 0.25 1.1375
1.6875 0.1875 1.1375
1.75 0.25 1.1375
1.6875 0.1875 1.2
1.75 0.1875 1.2
1.6875 0.25 1.2
1.75 0.1875 1.1375
1.8125 0.25 1.1375
1.8125 0.1875 1.1375
1.875 0.25 1.1375
1.8125 0.1875 1.2
1.875 0.1875 1.2
1.8125 0.25 1.2
1.875 0.1875 1.1375
1.9375 0.25 1.1375
1.9375 0.1875 1.1375
2 0.25 1.1375
1.9375 0.1875 1.2
2 0.1875 1.2
1.9375 0.25 1.2
2 0.1875 1.1375
2.0625 0.25 1.1375
2.0625 0.1875 1.1375
2.125 0.25 1.1375
2.0625 0.1875 1.2
2.125 0.1875 1.2
2.0625 0.25 1.2
2.125 0.1875 1.1375
2.1875 0.25 1.1375
2.1875 0.1875 1.1375
2.25 0.25 1.1375
2.1875 0.1875 1.2
2.25 0.1875 1.2
2.1875 0.25 1.2
2.25 0.1875 1.1375
2.3125 0.25 1.1375
2.3125 0.1875 1.1375
2.375 0.25 1.1375
2.3125 0.1875 1.2
2.375 0.1875 1.2
2.3125 0.25 1.2
2.375 0.1875 1.1375
2.4375 0.25 1.1375
2.4375 0.1875 1.1375
2.5 0.25 1.1375
2.4375 0.1875 1.2
2.5 0.1875 1.2
2.4375 0.25 1.2
2.5 0.1875 1.1375
2.5625 0.25 1.1375
2.5625 0.1875 1.1375
2.625 0.25 1.1375
2.5625 0.1875 1.2
2.625 0.1875 1.2
2.5625 0.25 1.2
2.625 0.1875 1.1375
2.6875 0.25 1.1375
2.6875 0.1875 1.1375
2.75 0.25 1.1375
2.6875 0.1875 1.2
2.75 0.1875 1.2
2.6875 0.25 1.2
2.75 0.1875 1.1375
2.8125 0.25 1.1375
2.8125 0.1875 1.1375
2.875 0.25 1.1375
2.8125 0.1875 1.2
2.875 0.1875 1.2
2.8125 0.25 1.2
2.875 0.1875 1.1375
2.9375 0.25 1.1375
2.9375 0.1875 1.1375
3 0.25 1.1375
2.9375 0.1875 1.2
3 0.1875 1.2
2.9375 0.25 1.2
3 0.1875 1.1375
3.0625 0.25 1.1375
3.0625 0.1875 1.1375
3.125 0.25 1.1375
3.0625 0.1875 1.2
3.125 0.1875 1.2
3.0625 0.25 1.2
3.125 0.1875 1.1375
3.1875 0.25 1.1375
3.1875 0.1875 1.1375
3.25 0.25 1.1375
3.1875 0.1875 1.2
3.25 0.1875 1.2
3.1875 0.25 1.2
3.25 0.1875 1.1375
3.3125 0.25 1.1375
3.3125 0.1875 1.1375
3.375 0.25 1.1375
3.3125 0.1875 1.2
3.375 0.1875 1.2
3.3125 0.25 1.2
3.375 0.1875 1.1375
3.4375 0.25 1.1375
3.4375 0.1875 1.1375
3.5 0.25 1.1375
3.4375 0.1875 1.2
3.5 0.1875 1.2
3.4375 0.25 1.2
3.5 0.1875 1.1375
3.5625 0.25 1.1375
3.5625 0.1875 1.1375
3.625 0.25 1.1375
3.5625 0.1875 1.2
3.625 0.1875 1.2
3.5625 0.25 1.2
3.625 0.1875 1.1375
3.6875 0.25 1.1375
3.6875 0.1875 1.1375
3.75 0.25 1.1375
3.6875 0.1875 1.2
3.75 0.1875 1.2
3.6875 0.25 1.2
3.75 0.1875 1.1375
3.8125 0.25 1.1375
3.8125 0.1875 1.1375
3.875 0.25 1.1375
3.8125 0.1875 1.2
3.875 0.1875 1.2
3.8125 0.25 1.2
3.875 0.1875 1.1375
3.9375 0.25 1.1375
3.9375 0.1875 1.1375
4 0.25 1.1375
3.9375 0.1875 1.2
4 0.1875 1.2
3.9375 0.25 1.2
4 0.1875 1.1375
0.0625 0.375 1.1375
0.0625 0.3125 1.1375
0.125 0.375 1.1375
0.0625 0.3125 1.2
0.125 0.3125 1.2
0 0.375 1.1375
0 0.3125 1.1375
0.0625 0.375 1.2
0 0.3125 1.2
0.125 0.3125 1.1375
0.1875 0.375 1.1375
0.1875 0.3125 1.1375
0.25 0.375 1.1375
0.1875 0.3125 1.2
0.25 0.3125 1.2
0.1875 0.375 1.2
0.25 0.3125 1.1375
0.3125 0.375 1.1375
0.3125 0.3125 1.1375
0.375 0.375 1.1375
0.3125 0.3125 1.2
0.375 0.3125 1.2
0.3125 0.375 1.2
0.375 0.3125 1.1375
0.4375 0.375 1.1375
0.4375 0.3125 1.1375
0.5 0.375 1.1375
0.4375 0.3125 1.2
0.5 0.3125 1.2
0.4375 0.375 1.2
0.5 0.3125 1.1375
0.5625 0.375 1.1375
0.5625 0.3125 1.1375
0.625 0.375 1.1375
0.5625 0.3125 1.2
0.625 0.3125 1.2
0.5625 0.375 1.2
0.625 0.3125 1.1375
0.6875 0.375 1.1375
0.6875 0.3125 1.1375
0.75 0.375 1.1375
0.6875 0.3125 1.2
0.75 0.3125 1.2
0.6875 0.375 1.2
0.75 0.3125 1.1375
0.8125 0.375 1.1375
0.8125 0.3125 1.1375
0.875 0.375 1.1375
0.8125 0.3125 1.2
0.875 0.3125 1.2
0.8125 0.375 1.2
0.875 0.3125 1.1375
0.9375 0.375 1.1375
0.9375 0.3125 1.1375
1 0.375 1.1375
0.9375 0.3125 1.2
1 0.3125 1.2
0.9375 0.375 1.2
1 0.3125 1.1375
1.0625 0.375 1.1375
1.0625 0.3125 1.1375
1.125 0.375 1.1375
1.0625 0.3125 1.2
1.125 0.3125 1.2
1.0625 0.375 1.2
1.125 0.3125 1.1375
1.1875 0.375 1.1375
1.1875 0.3125 1.1375
1.25 0.375 1.1375
1.1875 0.3125 1.2
1.25 0.3125 1.2
1.1875 0.375 1.2
1.25 0.3125 1.1375
1.3125 0.375 1.1375
1.3125 0.3125 1.1375
1.375 0.375 1.1375
1.3125 0.3125 1.2
1.375 0.3125 1.2
1.3125 0.375 1.2
1.375 0.3125 1.1375
1.4375 0.375 1.1375
1.4375 0.3125 1.1375
1.5 0.375 1.1375
1.4375 0.3125 1.2
1.5 0.3125 1.2
1.4375 0.375 1.2
1.5 0.3125 1.1375
1.5625 0.375 1.1375
1.5625 0.3125 1.1375
1.625 0.375 1.1375
1.5625 0.3125 1.2
1.625 0.3125 1.2
1.5625 0.375 1.2
1.625 0.3125 1.1375
1.6875 0.375 1.1375
1.6875 0.3125 1.1375
1.75 0.375 1.1375
1.6875 0.3125 1.2
1.75 0.3125 1.2
1.6875 0.375 1.2
1.75 0.3125 1.1375
1.8125 0.375 1.1375
1.8125 0.3125 1.1375
1.875 0.375 1.1375
1.8125 0.3125 1.2
1.875 0.3125 1.2
1.8125 0.375 1.2
1.875 0.3125 1.1375
1.9375 0.375 1.1375
1.9375 0.3125 1.1375
2 0.375 1.1375
1.9375 0.3125 1.2
2 0.3125 1.2
1.9375 0.375 1.2
2 0.3125 1.1375
2.0625 0.375 1.1375
2.0625 0.3125 1.1375
2.125 0.375 1.1375
2.0625 0.3125 1.2
2.125 0.3125 1.2
2.0625 0.375 1.2
2.125 0.3125 1.1375
2.1875 0.375 1.1375
2.1875 0.3125 1.1375
2.25 0.375 1.1375
2.1875 0.3125 1.2
2.25 0.3125 1.2
2.1875 0.375 1.2
2.25 0.3125 1.1375
2.3125 0.375 1.1375
2.3125 0.3125 1.1375
2.375 0.375 1.1375
2.3125 0.3125 1.2
2.375 0.3125 1.2
2.3125 0.375 1.2
2.375 0.3125 1.1375
2.4375 0.375 1.1375
2.4375 0.3125 1.1375
2.5 0.375 1.1375
2.4375 0.3125 1.2
2.5 0.3125 1.2
2.4375 0.375 1.2
2.5 0.3125 1.1375
2.5625 0.375 1.1375
2.5625 0.3125 1.1375
2.625 0.375 1.1375
2.5625 0.3125 1.2
2.625 0.3125 1.2
2.5625 0.375 1.2
2.625 0.3125 1.1375
2.6875 0.375 1.1375
2.6875 0.3125 1.1375
2.75 0.375 1.1375
2.6875 0.3125 1.2
2.75 0.3125 1.2
2.6875 0.375 1.2
2.75 0.3125 1.1375
2.8125 0.375 1.1375
2.8125 0.3125 1.1375
2.875 0.375 1.1375
2.8125 0.3125 1.2
2.875 0.3125 1.2
2.8125 0.375 1.2
2.875 0.3125 1.1375
2.9375 0.375 1.1375
2.9375 0.3125 1.1375
3 0.375 1.1375
2.9375 0.3125 1.2
3 0.3125 1.2
2.9375 0.375 1.2
3 0.3125 1.1375
3.0625 0.375 1.1375
3.0625 0.3125 1.1375
3.125 0.375 1.1375
3.0625 0.3125 1.2
3.125 0.3125 1.2
3.0625 0.375 1.2
3.125 0.3125 1.1375
3.1875 0.375 1.1375
3.1875 0.3125 1.1375
3.25 0.375 1.1375
3.1875 0.3125 1.2
3.25 0.3125 1.2
3.1875 0.375 1.2
3.25 0.3125 1.1375
3.3125 0.375 1.1375
3.3125 0.3125 1.1375
3.375 0.375 1.1375
3.3125 0.3125 1.2
3.375 0.3125 1.2
3.3125 0.375 1.2
3.375 0.3125 1.1375
3.4375 0.375 1.1375
3.4375 0.3125 1.1375
3.5 0.375 1.1375
3.4375 0.3125 1.2
3.5 0.3125 1.2
3.4375 0.375 1.2
3.5 0.3125 1.1375
3.5625 0.375 1.1375
3.5625 0.3125 1.1375
3.625 0.375 1.1375
3.5625 0.3125 1.2
3.625 0.3125 1.2
3.5625 0.375 1.2
3.625 0.3125 1.1375
3.6875 0.375 1.1375
3.6875 0.3125 1.1375
3.75 0.375 1.1375
3.6875 0.3125 1.2
3.75 0.3125 1.2
3.6875 0.375 1.2
3.75 0.3125 1.1375
3.8125 0.375 1.1375
3.8125 0.3125 1.1375
3.875 0.375 1.1375
3.8125 0.3125 1.2
3.875 0.3125 1.2
3.8125 0.375 1.2
3.875 0.3125 1.1375
3.9375 0.375 1.1375
3.9375 0.3125 1.1375
4 0.375 1.1375
3.9375 0.3125 1.2
4 0.3125 1.2
3.9375 0.375 1.2
4 0.3125 1.1375
0.0625 0.5 1.1375
0.0625 0.4375 1.1375
0.125 0.5 1.1375
0.0625 0.4375 1.2
0.125 0.4375 1.2
0 0.5 1.1375
0 0.4375 1.1375
0.0625 0.5 1.2
0 0.4375 1.2
0.125 0.4375 1.1375
0.1875 0.5 1.1375
0.1875 0.4375 1.1375
0.25 0.5 1.1375
0.1875 0.4375 1.2
0.25 0.4375 1.2
0.1875 0.5 1.2
0.25 0.4375 1.1375
0.3125 0.5 1.1375
0.3125 0.4375 1.1375
0.375 0.5 1.1375
0.3125 0.4375 1.2
0.375 0.4375 1.2
0.3125 0.5 1.2
0.375 0.4375 1.1375
0.4375 0.5 1.1375
0.4375 0.4375 1.1375
0.5 0.5 1.1375
0.4375 0.4375 1.2
0.5 0.4375 1.2
0.4375 0.5 1.2
0.5 0.4375 1.1375
0.5625 0.5 1.1375
0.5625 0.4375 1.1375
0.625 0.5 1.1375
0.5625 0.4375 1.2
0.625 0.4375 1.2
0.5625 0.5 1.2
0.625 0.4375 1.1375
0.6875 0.5 1.1375
0.6875 0.4375 1.1375
0.75 0.5 1.1375
0.6875 0.4375 1.2
0.75 0.4375 1.2
0.6875 0.5 1.2
0.75 0.4375 1.1375
0.8125 0.5 1.1375
0.8125 0.4375 1.1375
0.875 0.5 1.1375
0.8125 0.4375 1.2
0.875 0.4375 1.2
0.8125 0.5 1.2
0.875 0.4375 1.1375
0.9375 0.5 1.1375
0.9375 0.4375 1.1375
1 0.5 1.1375
0.9375 0.4375 1.2
1 0.4375 1.2
0.9375 0.5 1.2
1 0.4375 1.1375
1.0625 0.5 1.1375
1.0625 0.4375 1.1375
1.125 0.5 1.1375
1.0625 0.4375 1.2
1.125 0.4375 1.2
1.0625 0.5 1.2
1.125 0.4375 1.1375
1.1875 0.5 1.1375
1.1875 0.4375 1.1375
1.25 0.5 1.1375
1.1875 0.4375 1.2
1.25 0.4375 1.2
1.1875 0.5 1.2
1.25 0.4375 1.1375
1.3125 0.5 1.1375
1.3125 0.4375 1.1375
1.375 0.5 1.1375
1.3125 0.4375 1.2
1.375 0.4375 1.2
1.3125 0.5 1.2
1.375 0.4375 1.1375
1.4375 0.5 1.1375
1.4375 0.4375 1.1375
1.5 0.5 1.1375
1.4375 0.4375 1.2
1.5 0.4375 1.2
1.4375 0.5 1.2
1.5 0.4375 1.1375
1.5625 0.5 1.1375
1.5625 0.4375 1.1375
1.625 0.5 1.1375
1.5625 0.4375 1.2
1.625 0.4375 1.2
1.5625 0.5 1.2
1.625 0.4375 1.1375
1.6875 0.5 1.1375
1.6875 0.4375 1.1375
1.75 0.5 1.1375
1.6875 0.4375 1.2
1.75 0.4375 1.2
1.6875 0.5 1.2
1.75 0.4375 1.1375
1.8125 0.5 1.1375
1.8125 0.4375 1.1375
1.875 0.5 1.1375
1.8125 0.4375 1.2
1.875 0.4375 1.2
1.8125 0.5 1.2
1.875 0.4375 1.1375
1.9375 0.5 1.1375
1.9375 0.4375 1.1375
2 0.5 1.1375
1.9375 0.4375 1.2
2 0.4375 1.2
1.9375 0.5 1.2
2 0.4375 1.1375
2.0625 0.5 1.1375
2.0625 0.4375 1.1375
2.125 0.5 1.1375
2.0625 0.4375 1.2
2.125 0.4375 1.2
2.0625 0.5 1.2
2.125 0.4375 1.1375
2.1875 0.5 1.1375
2.1875 0.4375 1.1375
2.25 0.5 1.1375
2.1875 0.4375 1.2
2.25 0.4375 1.2
2.1875 0.5 1.2
2.25 0.4375 1.1375
2.3125 0.5 1.1375
2.3125 0.4375 1.1375
2.375 0.5 1.1375
2.3125 0.4375 1.2
2.375 0.4375 1.2
2.3125 0.5 1.2
2.375 0.4375 1.1375
2.4375 0.5 1.1375
2.4375 0.4375 1.1375
2.5 0.5 1.1375
2.4375 0.4375 1.2
2.5 0.4375 1.2
2.4375 0.5 1.2
2.5 0.4375 1.1375
2.5625 0.5 1.1375
2.5625 0.4375 1.1375
2.625 0.5 1.1375
2.5625 0.4375 1.2
2.625 0.4375 1.2
2.5625 0.5 1.2
2.625 0.4375 1.1375
2.6875 0.5 1.1375
2.6875 0.4375 1.1375
2.75 0.5 1.1375
2.6875 0.4375 1.2
2.75 0.4375 1.2
2.6875 0.5 1.2
2.75 0.4375 1.1375
2.8125 0.5 1.1375
2.8125 0.4375 1.1375
2.875 0.5 1.1375
2.8125 0.4375 1.2
2.875 0.4375 1.2
2.8125 0.5 1.2
2.875 0.4375 1.1375
2.9375 0.5 1.1375
2.9375 0.4375 1.1375
3 0.5 1.1375
2.9375 0.4375 1.2
3 0.4375 1.2
2.9375 0.5 1.2
3 0.4375 1.1375
3.0625 0.5 1.1375
3.0625 0.4375 1.1375
3.125 0.5 1.1375
3.0625 0.4375 1.2
3.125 0.4375 1.2
3.0625 0.5 1.2
3.125 0.4375 1.1375
3.1875 0.5 1.1375
3.1875 0.4375 1.1375
3.25 0.5 1.1375
3.1875 0.4375 1.2
3.25 0.4375 1.2
3.1875 0.5 1.2
3.25 0.4375 1.1375
3.3125 0.5 1.1375
3.3125 0.4375 1.1375
3.375 0.5 1.1375
3.3125 0.4375 1.2
3.375 0.4375 1.2
3.3125 0.5 1.2
3.375 0.4375 1.1375
3.4375 0.5 1.1375
3.4375 0.4375 1.1375
3.5 0.5 1.1375
3.4375 0.4375 1.2
3.5 0.4375 1.2
3.4375 0.5 1.2
3.5 0.4375 1.1375
3.5625 0.5 1.1375
3.5625 0.4375 1.1375
3.625 0.5 1.1375
3.5625 0.4375 1.2
3.625 0.4375 1.2
3.5625 0.5 1.2
3.625 0.4375 1.1375
3.6875 0.5 1.1375
3.6875 0.4375 1.1375
3.75 0.5 1.1375
3.6875 0.4375 1.2
3.75 0.4375 1.2
3.6875 0.5 1.2
3.75 0.4375 1.1375
3.8125 0.5 1.1375
3.8125 0.4375 1.1375
3.875 0.5 1.1375
3.8125 0.4375 1.2
3.875 0.4375 1.2
3.8125 0.5 1.2
3.875 0.4375 1.1375
3.9375 0.5 1.1375
3.9375 0.4375 1.1375
4 0.5 1.1375
3.9375 0.4375 1.2
4 0.4375 1.2
3.9375 0.5 1.2
4 0.4375 1.1375
0.0625 0.625 1.1375
0.0625 0.5625 1.1375
0.125 0.625 1.1375
0.0625 0.5625 1.2
0.125 0.5625 1.2
0 0.625 1.1375
0 0.5625 1.1375
0.0625 0.625 1.2
0 0.5625 1.2
0.125 0.5625 1.1375
0.1875 0.625 1.1375
0.1875 0.5625 1.1375
0.25 0.625 1.1375
0.1875 0.5625 1.2
0.25 0.5625 1.2
0.1875 0.625 1.2
0.25 0.5625 1.1375
0.3125 0.625 1.1375
0.3125 0.5625 1.1375
0.375 0.625 1.1375
0.3125 0.5625 1.2
0.375 0.5625 1.2
0.3125 0.625 1.2
0.375 0.5625 1.1375
0.4375 0.625 1.1375
0.4375 0.5625 1.1375
0.5 0.625 1.1375
0.4375 0.5625 1.2
0.5 0.5625 1.2
0.4375 0.625 1.2
0.5 0.5625 1.1375
0.5625 0.625 1.1375
0.5625 0.5625 1.1375
0.625 0.625 1.1375
0.5625 0.5625 1.2
0.625 0.5625 1.2
0.5625 0.625 1.2
0.625 0.5625 1.1375
0.6875 0.625 1.1375
0.6875 0.5625 1.1375
0.75 0.625 1.1375
0.6875 0.5625 1.2
0.75 0.5625 1.2
0.6875 0.625 1.2
0.75 0.5625 1.1375
0.8125 0.625 1.1375
0.8125 0.5625 1.1375
0.875 0.625 1.1375
0.8125 0.5625 1.2
0.875 0.5625 1.2
0.8125 0.625 1.2
0.875 0.5625 1.1375
0.9375 0.625 1.1375
0.9375 0.5625 1.1375
1 0.625 1.1375
0.9375 0.5625 1.2
1 0.5625 1.2
0.9375 0.625 1.2
1 0.5625 1.1375
1.0625 0.625 1.1375
1.0625 0.5625 1.1375
1.125 0.625 1.1375
1.0625 0.5625 1.2
1.125 0.5625 1.2
1.0625 0.625 1.2
1.125 0.5625 1.1375
1.1875 0.625 1.1375
1.1875 0.5625 1.1375
1.25 0.625 1.1375
1.1875 0.5625 1.2
1.25 0.5625 1.2
1.1875 0.625 1.2
1.25 0.5625 1.1375
1.3125 0.625 1.1375
1.3125 0.5625 1.1375
1.375 0.625 1.1375
1.3125 0.5625 1.2
1.375 0.5625 1.2
1.3125 0.625 1.2
1.375 0.5625 1.1375
1.4375 0.625 1.1375
1.4375 0.5625 1.1375
1.5 0.625 1.1375
1.4375 0.5625 1.2
1.5 0.5625 1.2
1.4375 0.625 1.2
1.5 0.5625 1.1375
1.5625 0.625 1.1375
1.5625 0.5625 1.1375
1.625 0.625 1.1375
1.5625 0.5625 1.2
1.625 0.5625 1.2
1.5625 0.625 1.2
1.625 0.5625 1.1375
1.6875 0.625 1.1375
1.6875 0.5625 1.1375
1.75 0.625 1.1375
1.6875 0.5625 1.2
1.75 0.5625 1.2
1.6875 0.625 1.2
1.75 0.5625 1.1375
1.8125 0.625 1.1375
1.8125 0.5625 1.1375
1.875 0.625 1.1375
1.8125 0.5625 1.2
1.875 0.5625 1.2
1.8125 0.625 1.2
1.875 0.5625 1.1375
1.9375 0.625 1.1375
1.9375 0.5625 1.1375
2 0.625 1.1375
1.9375 0.5625 1.2
2 0.5625 1.2
1.9375 0.625 1.2
2 0.5625 1.1375
2.0625 0.625 1.1375
2.0625 0.5625 1.1375
2.125 0.625 1.1375
2.0625 0.5625 1.2
2.125 0.5625 1.2
2.0625 0.625 1.2
2.125 0.5625 1.1375
2.1875 0.625 1.1375
2.1875 0.5625 1.1375
2.25 0.625 1.1375
2.1875 0.5625 1.2
2.25 0.5625 1.2
2.1875 0.625 1.2
2.25 0.5625 1.1375
2.3125 0.625 1.1375
2.3125 0.5625 1.1375
2.375 0.625 1.1375
2.3125 0.5625 1.2
2.375 0.5625 1.2
2.3125 0.625 1.2
2.375 0.5625 1.1375
2.4375 0.625 1.1375
2.4375 0.5625 1.1375
2.5 0.625 1.1375
2.4375 0.5625 1.2
2.5 0.5625 1.2
2.4375 0.625 1.2
2.5 0.5625 1.1375
2.5625 0.625 1.1375
2.5625 0.5625 1.1375
2.625 0.625 1.1375
2.5625 0.5625 1.2
2.625 0.5625 1.2
2.5625 0.625 1.2
2.625 0.5625 1.1375
2.6875 0.625 1.1375
2.6875 0.5625 1.1375
2.75 0.625 1.1375
2.6875 0.5625 1.2
2.75 0.5625 1.2
2.6875 0.625 1.2
2.75 0.5625 1.1375
2.8125 0.625 1.1375
2.8125 0.5625 1.1375
2.875 0.625 1.1375
2.8125 0.5625 1.2
2.875 0.5625 1.2
2.8125 0.625 1.2
2.875 0.5625 1.1375
2.9375 0.625 1.1375
2.9375 0.5625 1.1375
3 0.625 1.1375
2.9375 0.5625 1.2
3 0.5625 1.2
2.9375 0.625 1.2
3 0.5625 1.1375
3.0625 0.625 1.1375
3.0625 0.5625 1.1375
3.125 0.625 1.1375
3.0625 0.5625 1.2
3.125 0.5625 1.2
3.0625 0.625 1.2
3.125 0.5625 1.1375
3.1875 0.625 1.1375
3.1875 0.5625 1.1375
3.25 0.625 1.1375
3.1875 0.5625 1.2
3.25 0.5625 1.2
3.1875 0.625 1.2
3.25 0.5625 1.1375
3.3125 0.625 1.1375
3.3125 0.5625 1.1375
3.375 0.625 1.1375
3.3125 0.5625 1.2
3.375 0.5625 1.2
3.3125 0.625 1.2
3.375 0.5625 1.1375
3.4375 0.625 1.1375
3.4375 0.5625 1.1375
3.5 0.625 1.1375
3.4375 0.5625 1.2
3.5 0.5625 1.2
3.4375 0.625 1.2
3.5 0.5625 1.1375
3.5625 0.625 1.1375
3.5625 0.5625 1.1375
3.625 0.625 1.1375
3.5625 0.5625 1.2
3.625 0.5625 1.2
3.5625 0.625 1.2
3.625 0.5625 1.1375
3.6875 0.625 1.1375
3.6875 0.5625 1.1375
3.75 0.625 1.1375
3.6875 0.5625 1.2
3.75 0.5625 1.2
3.6875 0.625 1.2
3.75 0.5625 1.1375
3.8125 0.625 1.1375
3.8125 0.5625 1.1375
3.875 0.625 1.1375
3.8125 0.5625 1.2
3.875 0.5625 1.2
3.8125 0.625 1.2
3.875 0.5625 1.1375
3.9375 0.625 1.1375
3.9375 0.5625 1.1375
4 0.625 1.1375
3.9375 0.5625 1.2
4 0.5625 1.2
3.9375 0.625 1.2
4 0.5625 1.1375
0.0625 0.75 1.1375
0.0625 0.6875 1.1375
0.125 0.75 1.1375
0.0625 0.6875 1.2
0.125 0.6875 1.2
0 0.75 1.1375
0 0.6875 1.1375
0.0625 0.75 1.2
0 0.6875 1.2
0.125 0.6875 1.1375
0.1875 0.75 1.1375
0.1875 0.6875 1.1375
0.25 0.75 1.1375
0.1875 0.6875 1.2
0.25 0.6875 1.2
0.1875 0.75 1.2
0.25 0.6875 1.1375
0.3125 0.75 1.1375
0.3125 0.6875 1.1375
0.375 0.75 1.1375
0.3125 0.6875 1.2
0.375 0.6875 1.2
0.3125 0.75 1.2
0.375 0.6875 1.1375
0.4375 0.75 1.1375
0.4375 0.6875 1.1375
0.5 0.75 1.1375
0.4375 0.6875 1.2
0.5 0.6875 1.2
0.4375 0.75 1.2
0.5 0.6875 1.1375
0.5625 0.75 1.1375
0.5625 0.6875 1.1375
0.625 0.75 1.1375
0.5625 0.6875 1.2
0.625 0.6875 1.2
0.5625 0.75 1.2
0.625 0.6875 1.1375
0.6875 0.75 1.1375
0.6875 0.6875 1.1375
0.75 0.75 1.1375
0.6875 0.6875 1.2
0.75 0.6875 1.2
0.6875 0.75 1.2
0.75 0.6875 1.1375
0.8125 0.75 1.1375
0.8125 0.6875 1.1375
0.875 0.75 1.1375
0.8125 0.6875 1.2
0.875 0.6875 1.2
0.8125 0.75 1.2
0.875 0.6875 1.1375
0.9375 0.75 1.1375
0.9375 0.6875 1.1375
1 0.75 1.1375
0.9375 0.6875 1.2
1 0.6875 1.2
0.9375 0.75 1.2
1 0.6875 1.1375
1.0625 0.75 1.1375
1.0625 0.6875 1.1375
1.125 0.75 1.1375
1.0625 0.6875 1.2
1.125 0.6875 1.2
1.0625 0.75 1.2
1.125 0.6875 1.1375
1.1875 0.75 1.1375
1.1875 0.6875 1.1375
1.25 0.75 1.1375
1.1875 0.6875 1.2
1.25 0.6875 1.2
1.1875 0.75 1.2
1.25 0.6875 1.1375
1.3125 0.75 1.1375
1.3125 0.6875 1.1375
1.375 0.75 1.1375
1.3125 0.6875 1.2
1.375 0.6875 1.2
1.3125 0.75 1.2
1.375 0.6875 1.1375
1.4375 0.75 1.1375
1.4375 0.6875 1.1375
1.5 0.75 1.1375
1.4375 0.6875 1.2
1.5 0.6875 1.2
1.4375 0.75 1.2
1.5 0.6875 1.1375
1.5625 0.75 1.1375
1.5625 0.6875 1.1375
1.625 0.75 1.1375
1.5625 0.6875 1.2
1.625 0.6875 1.2
1.5625 0.75 1.2
1.625 0.6875 1.1375
1.6875 0.75 1.1375
1.6875 0.6875 1.1375
1.75 0.75 1.1375
1.6875 0.6875 1.2
1.75 0.6875 1.2
1.6875 0.75 1.2
1.75 0.6875 1.1375
1.8125 0.75 1.1375
1.8125 0.6875 1.1375
1.875 0.75 1.1375
1.8125 0.6875 1.2
1.875 0.6875 1.2
1.8125 0.75 1.2
1.875 0.6875 1.1375
1.9375 0.75 1.1375
1.9375 0.6875 1.1375
2 0.75 1.1375
1.9375 0.6875 1.2
2 0.6875 1.2
1.9375 0.75 1.2
2 0.6875 1.1375
2.0625 0.75 1.1375
2.0625 0.6875 1.1375
2.125 0.75 1.1375
2.0625 0.6875 1.2
2.125 0.6875 1.2
2.0625 0.75 1.2
2.125 0.6875 1.1375
2.1875 0.75 1.1375
2.1875 0.6875 1.1375
2.25 0.75 1.1375
2.1875 0.6875 1.2
2.25 0.6875 1.2
2.1875 0.75 1.2
2.25 0.6875 1.1375
2.3125 0.75 1.1375
2.3125 0.6875 1.1375
2.375 0.75 1.1375
2.3125 0.6875 1.2
2.375 0.6875 1.2
2.3125 0.75 1.2
2.375 0.6875 1.1375
2.4375 0.75 1.1375
2.4375 0.6875 1.1375
2.5 0.75 1.1375
2.4375 0.6875 1.2
2.5 0.6875 1.2
2.4375 0.75 1.2
2.5 0.6875 1.1375
2.5625 0.75 1.1375
2.5625 0.6875 1.1375
2.625 0.75 1.1375
2.5625 0.6875 1.2
2.625 0.6875 1.2
2.5625 0.75 1.2
2.625 0.6875 1.1375
2.6875 0.75 1.1375
2.6875 0.6875 1.1375
2.75 0.75 1.1375
2.6875 0.6875 1.2
2.75 0.6875 1.2
2.6875 0.75 1.2
2.75 0.6875 1.1375
2.8125 0.75 1.1375
2.8125 0.6875 1.1375
2.875 0.75 1.1375
2.8125 0.6875 1.2
2.875 0.6875 1.2
2.8125 0.75 1.2
2.875 0.6875 1.1375
2.9375 0.75 1.1375
2.9375 0.6875 1.1375
3 0.75 1.1375
2.9375 0.6875 1.2
3 0.6875 1.2
2.9375 0.75 1.2
3 0.6875 1.1375
3.0625 0.75 1.1375
3.0625 0.6875 1.1375
3.125 0.75 1.1375
3.0625 0.6875 1.2
3.125 0.6875 1.2
3.0625 0.75 1.2
3.125 0.6875 1.1375
3.1875 0.75 1.1375
3.1875 0.6875 1.1375
3.25 0.75 1.1375
3.1875 0.6875 1.2
3.25 0.6875 1.2
3.1875 0.75 1.2
3.25 0.6875 1.1375
3.3125 0.75 1.1375
3.3125 0.6875 1.1375
3.375 0.75 1.1375
3.3125 0.6875 1.2
3.375 0.6875 1.2
3.3125 0.75 1.2
3.375 0.6875 1.1375
3.4375 0.75 1.1375
3.4375 0.6875 1.1375
3.5 0.75 1.1375
3.4375 0.6875 1.2
3.5 0.6875 1.2
3.4375 0.75 1.2
3.5 0.6875 1.1375
3.5625 0.75 1.1375
3.5625 0.6875 1.1375
3.625 0.75 1.1375
3.5625 0.6875 1.2
3.625 0.6875 1.2
3.5625 0.75 1.2
3.625 0.6875 1.1375
3.6875 0.75 1.1375
3.6875 0.6875 1.1375
3.75 0.75 1.1375
3.6875 0.6875 1.2
3.75 0.6875 1.2
3.6875 0.75 1.2
3.75 0.6875 1.1375
3.8125 0.75 1.1375
3.8125 0.6875 1.1375
3.875 0.75 1.1375
3.8125 0.6875 1.2
3.875 0.6875 1.2
3.8125 0.75 1.2
3.875 0.6875 1.1375
3.9375 0.75 1.1375
3.9375 0.6875 1.1375
4 0.75 1.1375
3.9375 0.6875 1.2
4 0.6875 1.2
3.9375 0.75 1.2
4 0.6875 1.1375
0.0625 0.875 1.1375
0.0625 0.8125 1.1375
0.125 0.875 1.1375
0.0625 0.8125 1.2
0.125 0.8125 1.2
0 0.875 1.1375
0 0.8125 1.1375
0.0625 0.875 1.2
0 0.8125 1.2
0.125 0.8125 1.1375
0.1875 0.875 1.1375
0.1875 0.8125 1.1375
0.25 0.875 1.1375
0.1875 0.8125 1.2
0.25 0.8125 1.2
0.1875 0.875 1.2
0.25 0.8125 1.1375
0.3125 0.875 1.1375
0.3125 0.8125 1.1375
0.375 0.875 1.1375
0.3125 0.8125 1.2
0.375 0.8125 1.2
0.3125 0.875 1.2
0.375 0.8125 1.1375
0.4375 0.875 1.1375
0.4375 0.8125 1.1375
0.5 0.875 1.1375
0.4375 0.8125 1.2
0.5 0.8125 1.2
0.4375 0.875 1.2
0.5 0.8125 1.1375
0.5625 0.875 1.1375
0.5625 0.8125 1.1375
0.625 0.875 1.1375
0.5625 0.8125 1.2
0.625 0.8125 1.2
0.5625 0.875 1.2
0.625 0.8125 1.1375
0.6875 0.875 1.1375
0.6875 0.8125 1.1375
0.75 0.875 1.1375
0.6875 0.8125 1.2
0.75 0.8125 1.2
0.6875 0.875 1.2
0.75 0.8125 1.1375
0.8125 0.875 1.1375
0.8125 0.8125 1.1375
0.875 0.875 1.1375
0.8125 0.8125 1.2
0.875 0.8125 1.2
0.8125 0.875 1.2
0.875 0.8125 1.1375
0.9375 0.875 1.1375
0.9375 0.8125 1.1375
1 0.875 1.1375
0.9375 0.8125 1.2
1 0.8125 1.2
0.9375 0.875 1.2
1 0.8125 1.1375
1.0625 0.875 1.1375
1.0625 0.8125 1.1375
1.125 0.875 1.1375
1.0625 0.8125 1.2
1.125 0.8125 1.2
1.0625 0.875 1.2
1.125 0.8125 1.1375
1.1875 0.875 1.1375
1.1875 0.8125 1.1375
1.25 0.875 1.1375
1.1875 0.8125 1.2
1.25 0.8125 1.2
1.1875 0.875 1.2
1.25 0.8125 1.1375
1.3125 0.875 1.1375
1.3125 0.8125 1.1375
1.375 0.875 1.1375
1.3125 0.8125 1.2
1.375 0.8125 1.2
1.3125 0.875 1.2
1.375 0.8125 1.1375
1.4375 0.875 1.1375
1.4375 0.8125 1.1375
1.5 0.875 1.1375
1.4375 0.8125 1.2
1.5 0.8125 1.2
1.4375 0.875 1.2
1.5 0.8125 1.1375
1.5625 0.875 1.1375
1.5625 0.8125 1.1375
1.625 0.875 1.1375
1.5625 0.8125 1.2
1.625 0.8125 1.2
1.5625 0.875 1.2
1.625 0.8125 1.1375
1.6875 0.875 1.1375
1.6875 0.8125 1.1375
1.75 0.875 1.1375
1.6875 0.8125 1.2
1.75 0.8125 1.2
1.6875 0.875 1.2
1.75 0.8125 1.1375
1.8125 0.875 1.1375
1.8125 0.8125 1.1375
1.875 0.875 1.1375
1.8125 0.8125 1.2
1.875 0.8125 1.2
1.8125 0.875 1.2
1.875 0.8125 1.1375
1.9375 0.875 1.1375
1.9375 0.8125 1.1375
2 0.875 1.1375
1.9375 0.8125 1.2
2 0.8125 1.2
1.9375 0.875 1.2
2 0.8125 1.1375
2.0625 0.875 1.1375
2.0625 0.8125 1.1375
2.125 0.875 1.1375
2.0625 0.8125 1.2
2.125 0.8125 1.2
2.0625 0.875 1.2
2.125 0.8125 1.1375
2.1875 0.875 1.1375
2.1875 0.8125 1.1375
2.25 0.875 1.1375
2.1875 0.8125 1.2
2.25 0.8125 1.2
2.1875 0.875 1.2
2.25 0.8125 1.1375
2.3125 0.875 1.1375
2.3125 0.8125 1.1375
2.375 0.875 1.1375
2.3125 0.8125 1.2
2.375 0.8125 1.2
2.3125 0.875 1.2
2.375 0.8125 1.1375
2.4375 0.875 1.1375
2.4375 0.8125 1.1375
2.5 0.875 1.1375
2.4375 0.8125 1.2
2.5 0.8125 1.2
2.4375 0.875 1.2
2.5 0.8125 1.1375
2.5625 0.875 1.1375
2.5625 0.8125 1.1375
2.625 0.875 1.1375
2.5625 0.8125 1.2
2.625 0.8125 1.2
2.5625 0.875 1.2
2.625 0.8125 1.1375
2.6875 0.875 1.1375
2.6875 0.8125 1.1375
2.75 0.875 1.1375
2.6875 0.8125 1.2
2.75 0.8125 1.2
2.6875 0.875 1.2
2.75 0.8125 1.1375
2.8125 0.875 1.1375
2.8125 0.8125 1.1375
2.875 0.875 1.1375
2.8125 0.8125 1.2
2.875 0.8125 1.2
2.8125 0.875 1.2
2.875 0.8125 1.1375
2.9375 0.875 1.1375
2.9375 0.8125 1.1375
3 0.875 1.1375
2.9375 0.8125 1.2
3 0.8125 1.2
2.9375 0.875 1.2
3 0.8125 1.1375
3.0625 0.875 1.1375
3.0625 0.8125 1.1375
3.125 0.875 1.1375
3.0625 0.8125 1.2
3.125 0.8125 1.2
3.0625 0.875 1.2
3.125 0.8125 1.1375
3.1875 0.875 1.1375
3.1875 0.8125 1.1375
3.25 0.875 1.1375
3.1875 0.8125 1.2
3.25 0.8125 1.2
3.1875 0.875 1.2
3.25 0.8125 1.1375
3.3125 0.875 1.1375
3.3125 0.8125 1.1375
3.375 0.875 1.1375
3.3125 0.8125 1.2
3.375 0.8125 1.2
3.3125 0.875 1.2
3.375 0.8125 1.1375
3.4375 0.875 1.1375
3.4375 0.8125 1.1375
3.5 0.875 1.1375
3.4375 0.8125 1.2
3.5 0.8125 1.2
3.4375 0.875 1.2
3.5 0.8125 1.1375
3.5625 0.875 1.1375
3.5625 0.8125 1.1375
3.625 0.875 1.1375
3.5625 0.8125 1.2
3.625 0.8125 1.2
3.5625 0.875 1.2
3.625 0.8125 1.1375
3.6875 0.875 1.1375
3.6875 0.8125 1.1375
3.75 0.875 1.1375
3.6875 0.8125 1.2
3.75 0.8125 1.2
3.6875 0.875 1.2
3.75 0.8125 1.1375
3.8125 0.875 1.1375
3.8125 0.8125 1.1375
3.875 0.875 1.1375
3.8125 0.8125 1.2
3.875 0.8125 1.2
3.8125 0.875 1.2
3.875 0.8125 1.1375
3.9375 0.875 1.1375
3.9375 0.8125 1.1375
4 0.875 1.1375
3.9375 0.8125 1.2
4 0.8125 1.2
3.9375 0.875 1.2
4 0.8125 1.1375
0.0625 1 1.1375
0.0625 0.9375 1.1375
0.125 1 1.1375
0.0625 0.9375 1.2
0.125 0.9375 1.2
0 1 1.1375
0 0.9375 1.1375
0.0625 1 1.2
0 0.9375 1.2
0.125 0.9375 1.1375
0.1875 1 1.1375
0.1875 0.9375 1.1375
0.25 1 1.1375
0.1875 0.9375 1.2
0.25 0.9375 1.2
0.1875 1 1.2
0.25 0.9375 1.1375
0.3125 1 1.1375
0.3125 0.9375 1.1375
0.375 1 1.1375
0.3125 0.9375 1.2
0.375 0.9375 1.2
0.3125 1 1.2
0.375 0.9375 1.1375
0.4375 1 1.1375
0.4375 0.9375 1.1375
0.5 1 1.1375
0.4375 0.9375 1.2
0.5 0.9375 1.2
0.4375 1 1.2
0.5 0.9375 1.1375
0.5625 1 1.1375
0.5625 0.9375 1.1375
0.625 1 1.1375
0.5625 0.9375 1.2
0.625 0.9375 1.2
0.5625 1 1.2
0.625 0.9375 1.1375
0.6875 1 1.1375
0.6875 0.9375 1.1375
0.75 1 1.1375
0.6875 0.9375 1.2
0.75 0.9375 1.2
0.6875 1 1.2
0.75 0.9375 1.1375
0.8125 1 1.1375
0.8125 0.9375 1.1375
0.875 1 1.1375
0.8125 0.9375 1.2
0.875 0.9375 1.2
0.8125 1 1.2
0.875 0.9375 1.1375
0.9375 1 1.1375
0.9375 0.9375 1.1375
1 1 1.1375
0.9375 0.9375 1.2
1 0.9375 1.2
0.9375 1 1.2
1 0.9375 1.1375
1.0625 1 1.1375
1.0625 0.9375 1.1375
1.125 1 1.1375
1.0625 0.9375 1.2
1.125 0.9375 1.2
1.0625 1 1.2
1.125 0.9375 1.1375
1.1875 1 1.1375
1.1875 0.9375 1.1375
1.25 1 1.1375
1.1875 0.9375 1.2
1.25 0.9375 1.2
1.1875 1 1.2
1.25 0.9375 1.1375
1.3125 1 1.1375
1.3125 0.9375 1.1375
1.375 1 1.1375
1.3125 0.9375 1.2
1.375 0.9375 1.2
1.3125 1 1.2
1.375 0.9375 1.1375
1.4375 1 1.1375
1.4375 0.9375 1.1375
1.5 1 1.1375
1.4375 0.9375 1.2
1.5 0.9375 1.2
1.4375 1 1.2
1.5 0.9375 1.1375
1.5625 1 1.1375
1.5625 0.9375 1.1375
1.625 1 1.1375
1.5625 0.9375 1.2
1.625 0.9375 1.2
1.5625 1 1.2
1.625 0.9375 1.1375
1.6875 1 1.1375
1.6875 0.9375 1.1375
1.75 1 1.1375
1.6875 0.9375 1.2
1.75 0.9375 1.2
1.6875 1 1.2
1.75 0.9375 1.1375
1.8125 1 1.1375
1.8125 0.9375 1.1375
1.875 1 1.1375
1.8125 0.9375 1.2
1.875 0.9375 1.2
1.8125 1 1.2
1.875 0.9375 1.1375
1.9375 1 1.1375
1.9375 0.9375 1.1375
2 1 1.1375
1.9375 0.9375 1.2
2 0.9375 1.2
1.9375 1 1.2
2 0.9375 1.1375
2.0625 1 1.1375
2.0625 0.9375 1.1375
2.125 1 1.1375
2.0625 0.9375 1.2
2.125 0.9375 1.2
2.0625 1 1.2
2.125 0.9375 1.1375
2.1875 1 1.1375
2.1875 0.9375 1.1375
2.25 1 1.1375
2.1875 0.9375 1.2
2.25 0.9375 1.2
2.1875 1 1.2
2.25 0.9375 1.1375
2.3125 1 1.1375
2.3125 0.9375 1.1375
2.375 1 1.1375
2.3125 0.9375 1.2
2.375 0.9375 1.2
2.3125 1 1.2
2.375 0.9375 1.1375
2.4375 1 1.1375
2.4375 0.9375 1.1375
2.5 1 1.1375
2.4375 0.9375 1.2
2.5 0.9375 1.2
2.4375 1 1.2
2.5 0.9375 1.1375
2.5625 1 1.1375
2.5625 0.9375 1.1375
2.625 1 1.1375
2.5625 0.9375 1.2
2.625 0.9375 1.2
2.5625 1 1.2
2.625 0.9375 1.1375
2.6875 1 1.1375
2.6875 0.9375 1.1375
2.75 1 1.1375
2.6875 0.9375 1.2
2.75 0.9375 1.2
2.6875 1 1.2
2.75 0.9375 1.1375
2.8125 1 1.1375
2.8125 0.9375 1.1375
2.875 1 1.1375
2.8125 0.9375 1.2
2.875 0.9375 1.2
2.8125 1 1.2
2.875 0.9375 1.1375
2.9375 1 1.1375
2.9375 0.9375 1.1375
3 1 1.1375
2.9375 0.9375 1.2
3 0.9375 1.2
2.9375 1 1.2
3 0.9375 1.1375
3.0625 1 1.1375
3.0625 0.9375 1.1375
3.125 1 1.1375
3.0625 0.9375 1.2
3.125 0.9375 1.2
3.0625 1 1.2
3.125 0.9375 1.1375
3.1875 1 1.1375
3.1875 0.9375 1.1375
3.25 1 1.1375
3.1875 0.9375 1.2
3.25 0.9375 1.2
3.1875 1 1.2
3.25 0.9375 1.1375
3.3125 1 1.1375
3.3125 0.9375 1.1375
3.375 1 1.1375
3.3125 0.9375 1.2
3.375 0.9375 1.2
3.3125 1 1.2
3.375 0.9375 1.1375
3.4375 1 1.1375
3.4375 0.9375 1.1375
3.5 1 1.1375
3.4375 0.9375 1.2
3.5 0.9375 1.2
3.4375 1 1.2
3.5 0.9375 1.1375
3.5625 1 1.1375
3.5625 0.9375 1.1375
3.625 1 1.1375
3.5625 0.9375 1.2
3.625 0.9375 1.2
3.5625 1 1.2
3.625 0.9375 1.1375
3.6875 1 1.1375
3.6875 0.9375 1.1375
3.75 1 1.1375
3.6875 0.9375 1.2
3.75 0.9375 1.2
3.6875 1 1.2
3.75 0.9375 1.1375
3.8125 1 1.1375
3.8125 0.9375 1.1375
3.875 1 1.1375
3.8125 0.9375 1.2
3.875 0.9375 1.2
3.8125 1 1.2
3.875 0.9375 1.1375
3.9375 1 1.1375
3.9375 0.9375 1.1375
4 1 1.1375
3.9375 0.9375 1.2
4 0.9375 1.2
3.9375 1 1.2
4 0.9375 1.1375
0.0625 0.125 1.2625
0.0625 0.0625 1.2625
0.125 0.125 1.2625
0.0625 0.0625 1.325
0.125 0.0625 1.325
0.0625 0 1.325
0 0 1.2625
0.0625 0 1.2625
0 0.125 1.2625
0 0.0625 1.2625
0.0625 0.125 1.325
0 0.0625 1.325
0.125 0 1.2625
0.125 0.0625 1.2625
0.1875 0.125 1.2625
0.1875 0.0625 1.2625
0.25 0.125 1.2625
0.1875 0.0625 1.325
0.25 0.0625 1.325
0.1875 0 1.325
0.1875 0 1.2625
0.1875 0.125 1.325
0.25 0 1.2625
0.25 0.0625 1.2625
0.3125 0.125 1.2625
0.3125 0.0625 1.2625
0.375 0.125 1.2625
0.3125 0.0625 1.325
0.375 0.0625 1.325
0.3125 0 1.325
0.3125 0 1.2625
0.3125 0.125 1.325
0.375 0 1.2625
0.375 0.0625 1.2625
0.4375 0.125 1.2625
0.4375 0.0625 1.2625
0.5 0.125 1.2625
0.4375 0.0625 1.325
0.5 0.0625 1.325
0.4375 0 1.325
0.4375 0 1.2625
0.4375 0.125 1.325
0.5 0 1.2625
0.5 0.0625 1.2625
0.5625 0.125 1.2625
0.5625 0.0625 1.2625
0.625 0.125 1.2625
0.5625 0.0625 1.325
0.625 0.0625 1.325
0.5625 0 1.325
0.5625 0 1.2625
0.5625 0.125 1.325
0.625 0 1.2625
0.625 0.0625 1.2625
0.6875 0.125 1.2625
0.6875 0.0625 1.2625
0.75 0.125 1.2625
0.6875 0.0625 1.325
0.75 0.0625 1.325
0.6875 0 1.325
0.6875 0 1.2625
0.6875 0.125 1.325
0.75 0 1.2625
0.75 0.0625 1.2625
0.8125 0.125 1.2625
0.8125 0.0625 1.2625
0.875 0.125 1.2625
0.8125 0.0625 1.325
0.875 0.0625 1.325
0.8125 0 1.325
0.8125 0 1.2625
0.8125 0.125 1.325
0.875 0 1.2625
0.875 0.0625 1.2625
0.9375 0.125 1.2625
0.9375 0.0625 1.2625
1 0.125 1.2625
0.9375 0.0625 1.325
1 0.0625 1.325
0.9375 0 1.325
0.9375 0 1.2625
0.9375 0.125 1.325
1 0 1.2625
1 0.0625 1.2625
1.0625 0.125 1.2625
1.0625 0.0625 1.2625
1.125 0.125 1.2625
1.0625 0.0625 1.325
1.125 0.0625 1.325
1.0625 0 1.325
1.0625 0 1.2625
1.0625 0.125 1.325
1.125 0 1.2625
1.125 0.0625 1.2625
1.1875 0.125 1.2625
1.1875 0.0625 1.2625
1.25 0.125 1.2625
1.1875 0.0625 1.325
1.25 0.0625 1.325
1.1875 0 1.325
1.1875 0 1.2625
1.1875 0.125 1.325
1.25 0 1.2625
1.25 0.0625 1.2625
1.3125 0.125 1.2625
1.3125 0.0625 1.2625
1.375 0.125 1.2625
1.3125 0.0625 1.325
1.375 0.0625 1.325
1.3125 0 1.325
1.3125 0 1.2625
1.3125 0.125 1.325
1.375 0 1.2625
1.375 0.0625 1.2625
1.4375 0.125 1.2625
1.4375 0.0625 1.2625
1.5 0.125 1.2625
1.4375 0.0625 1.325
1.5 0.0625 1.325
1.4375 0 1.325
1.4375 0 1.2625
1.4375 0.125 1.325
1.5 0 1.2625
1.5 0.0625 1.2625
1.5625 0.125 1.2625
1.5625 0.0625 1.2625
1.625 0.125 1.2625
1.5625 0.0625 1.325
1.625 0.0625 1.325
1.5625 0 1.325
1.5625 0 1.2625
1.5625 0.125 1.325
1.625 0 1.2625
1.625 0.0625 1.2625
1.6875 0.125 1.2625
1.6875 0.0625 1.2625
1.75 0.125 1.2625
1.6875 0.0625 1.325
1.75 0.0625 1.325
1.6875 0 1.325
1.6875 0 1.2625
1.6875 0.125 1.325
1.75 0 1.2625
1.75 0.0625 1.2625
1.8125 0.125 1.2625
1.8125 0.0625 1.2625
1.875 0.125 1.2625
1.8125 0.0625 1.325
1.875 0.0625 1.325
1.8125 0 1.325
1.8125 0 1.2625
1.8125 0.125 1.325
1.875 0 1.2625
1.875 0.0625 1.2625
1.9375 0.125 1.2625
1.9375 0.0625 1.2625
2 0.125 1.2625
1.9375 0.0625 1.325
2 0.0625 1.325
1.9375 0 1.325
1.9375 0 1.2625
1.9375 0.125 1.325
2 0 1.2625
2 0.0625 1.2625
2.0625 0.125 1.2625
2.0625 0.0625 1.2625
2.125 0.125 1.2625
2.0625 0.0625 1.325
2.125 0.0625 1.325
2.0625 0 1.325
2.0625 0 1.2625
2.0625 0.125 1.325
2.125 0 1.2625
2.125 0.0625 1.2625
2.1875 0.125 1.2625
2.1875 0.0625 1.2625
2.25 0.125 1.2625
2.1875 0.0625 1.325
2.25 0.0625 1.325
2.1875 0 1.325
2.1875 0 1.2625
2.1875 0.125 1.325
2.25 0 1.2625
2.25 0.0625 1.2625
2.3125 0.125 1.2625
2.3125 0.0625 1.2625
2.375 0.125 1.2625
2.3125 0.0625 1.325
2.375 0.0625 1.325
2.3125 0 1.325
2.3125 0 1.2625
2.3125 0.125 1.325
2.375 0 1.2625
2.375 0.0625 1.2625
2.4375 0.125 1.2625
2.4375 0.0625 1.2625
2.5 0.125 1.2625
2.4375 0.0625 1.325
2.5 0.0625 1.325
2.4375 0 1.325
2.4375 0 1.2625
2.4375 0.125 1.325
2.5 0 1.2625
2.5 0.0625 1.2625
2.5625 0.125 1.2625
2.5625 0.0625 1.2625
2.625 0.125 1.2625
2.5625 0.0625 1.325
2.625 0.0625 1.325
2.5625 0 1.325
2.5625 0 1.2625
2.5625 0.125 1.325
2.625 0 1.2625
2.625 0.0625 1.2625
2.6875 0.125 1.2625
2.6875 0.0625 1.2625
2.75 0.125 1.2625
2.6875 0.0625 1.325
2.75 0.0625 1.325
2.6875 0 1.325
2.6875 0 1.2625
2.6875 0.125 1.325
2.75 0 1.2625
2.75 0.0625 1.2625
2.8125 0.125 1.2625
2.8125 0.0625 1.2625
2.875 0.125 1.2625
2.8125 0.0625 1.325
2.875 0.0625 1.325
2.8125 0 1.325
2.8125 0 1.2625
2.8125 0.125 1.325
2.875 0 1.2625
2.875 0.0625 1.2625
2.9375 0.125 1.2625
2.9375 0.0625 1.2625
3 0.125 1.2625
2.9375 0.0625 1.325
3 0.0625 1.325
2.9375 0 1.325
2.9375 0 1.2625
2.9375 0.125 1.325
3 0 1.2625
3 0.0625 1.2625
3.0625 0.125 1.2625
3.0625 0.0625 1.2625
3.125 0.125 1.2625
3.0625 0.0625 1.325
3.125 0.0625 1.325
3.0625 0 1.325
3.0625 0 1.2625
3.0625 0.125 1.325
3.125 0 1.2625
3.125 0.0625 1.2625
3.1875 0.125 1.2625
3.1875 0.0625 1.2625
3.25 0.125 1.2625
3.1875 0.0625 1.325
3.25 0.0625 1.325
3.1875 0 1.325
3.1875 0 1.2625
3.1875 0.125 1.325
3.25 0 1.2625
3.25 0.0625 1.2625
3.3125 0.125 1.2625
3.3125 0.0625 1.2625
3.375 0.125 1.2625
3.3125 0.0625 1.325
3.375 0.0625 1.325
3.3125 0 1.325
3.3125 0 1.2625
3.3125 0.125 1.325
3.375 0 1.2625
3.375 0.0625 1.2625
3.4375 0.125 1.2625
3.4375 0.0625 1.2625
3.5 0.125 1.2625
3.4375 0.0625 1.325
3.5 0.0625 1.325
3.4375 0 1.325
3.4375 0 1.2625
3.4375 0.125 1.325
3.5 0 1.2625
3.5 0.0625 1.2625
3.5625 0.125 1.2625
3.5625 0.0625 1.2625
3.625 0.125 1.2625
3.5625 0.0625 1.325
3.625 0.0625 1.325
3.5625 0 1.325
3.5625 0 1.2625
3.5625 0.125 1.325
3.625 0 1.2625
3.625 0.0625 1.2625
3.6875 0.125 1.2625
3.6875 0.0625 1.2625
3.75 0.125 1.2625
3.6875 0.0625 1.325
3.75 0.0625 1.325
3.6875 0 1.325
3.6875 0 1.2625
3.6875 0.125 1.325
3.75 0 1.2625
3.75 0.0625 1.2625
3.8125 0.125 1.2625
3.8125 0.0625 1.2625
3.875 0.125 1.2625
3.8125 0.0625 1.325
3.875 0.0625 1.325
3.8125 0 1.325
3.8125 0 1.2625
3.8125 0.125 1.325
3.875 0 1.2625
3.875 0.0625 1.2625
3.9375 0.125 1.2625
3.9375 0.0625 1.2625
4 0.125 1.2625
3.9375 0.0625 1.325
4 0.0625 1.325
3.9375 0 1.325
3.9375 0 1.2625
3.9375 0.125 1.325
4 0 1.2625
4 0.0625 1.2625
0.0625 0.25 1.2625
0.0625 0.1875 1.2625
0.125 0.25 1.2625
0.0625 0.1875 1.325
0.125 0.1875 1.325
0 0.25 1.2625
0 0.1875 1.2625
0.0625 0.25 1.325
0 0.1875 1.325
0.125 0.1875 1.2625
0.1875 0.25 1.2625
0.1875 0.1875 1.2625
0.25 0.25 1.2625
0.1875 0.1875 1.325
0.25 0.1875 1.325
0.1875 0.25 1.325
0.25 0.1875 1.2625
0.3125 0.25 1.2625
0.3125 0.1875 1.2625
0.375 0.25 1.2625
0.3125 0.1875 1.325
0.375 0.1875 1.325
0.3125 0.25 1.325
0.375 0.1875 1.2625
0.4375 0.25 1.2625
0.4375 0.1875 1.2625
0.5 0.25 1.2625
0.4375 0.1875 1.325
0.5 0.1875 1.325
0.4375 0.25 1.325
0.5 0.1875 1.2625
0.5625 0.25 1.2625
0.5625 0.1875 1.2625
0.625 0.25 1.2625
0.5625 0.1875 1.325
0.625 0.1875 1.325
0.5625 0.25 1.325
0.625 0.1875 1.2625
0.6875 0.25 1.2625
0.6875 0.1875 1.2625
0.75 0.25 1.2625
0.6875 0.1875 1.325
0.75 0.1875 1.325
0.6875 0.25 1.325
0.75 0.1875 1.2625
0.8125 0.25 1.2625
0.8125 0.1875 1.2625
0.875 0.25 1.2625
0.8125 0.1875 1.325
0.875 0.1875 1.325
0.8125 0.25 1.325
0.875 0.1875 1.2625
0.9375 0.25 1.2625
0.9375 0.1875 1.2625
1 0.25 1.2625
0.9375 0.1875 1.325
1 0.1875 1.325
0.9375 0.25 1.325
1 0.1875 1.2625
1.0625 0.25 1.2625
1.0625 0.1875 1.2625
1.125 0.25 1.2625
1.0625 0.1875 1.325
1.125 0.1875 1.325
1.0625 0.25 1.325
1.125 0.1875 1.2625
1.1875 0.25 1.2625
1.1875 0.1875 1.2625
1.25 0.25 1.2625
1.1875 0.1875 1.325
1.25 0.1875 1.325
1.1875 0.25 1.325
1.25 0.1875 1.2625
1.3125 0.25 1.2625
1.3125 0.1875 1.2625
1.375 0.25 1.2625
1.3125 0.1875 1.325
1.375 0.1875 1.325
1.3125 0.25 1.325
1.375 0.1875 1.2625
1.4375 0.25 1.2625
1.4375 0.1875 1.2625
1.5 0.25 1.2625
1.4375 0.1875 1.325
1.5 0.1875 1.325
1.4375 0.25 1.325
1.5 0.1875 1.2625
1.5625 0.25 1.2625
1.5625 0.1875 1.2625
1.625 0.25 1.2625
1.5625 0.1875 1.325
1.625 0.1875 1.325
1.5625 0.25 1.325
1.625 0.1875 1.2625
1.6875 0.25 1.2625
1.6875 0.1875 1.2625
1.75 0.25 1.2625
1.6875 0.1875 1.325
1.75 0.1875 1.325
1.6875 0.25 1.325
1.75 0.1875 1.2625
1.8125 0.25 1.2625
1.8125 0.1875 1.2625
1.875 0.25 1.2625
1.8125 0.1875 1.325
1.875 0.1875 1.325
1.8125 0.25 1.325
1.875 0.1875 1.2625
1.9375 0.25 1.2625
1.9375 0.1875 1.2625
2 0.25 1.2625
1.9375 0.1875 1.325
2 0.1875 1.325
1.9375 0.25 1.325
2 0.1875 1.2625
2.0625 0.25 1.2625
2.0625 0.1875 1.2625
2.125 0.25 1.2625
2.0625 0.1875 1.325
2.125 0.1875 1.325
2.0625 0.25 1.325
2.125 0.1875 1.2625
2.1875 0.25 1.2625
2.1875 0.1875 1.2625
2.25 0.25 1.2625
2.1875 0.1875 1.325
2.25 0.1875 1.325
2.1875 0.25 1.325
2.25 0.1875 1.2625
2.3125 0.25 1.2625
2.3125 0.1875 1.2625
2.375 0.25 1.2625
2.3125 0.1875 1.325
2.375 0.1875 1.325
2.3125 0.25 1.325
2.375 0.1875 1.2625
2.4375 0.25 1.2625
2.4375 0.1875 1.2625
2.5 0.25 1.2625
2.4375 0.1875 1.325
2.5 0.1875 1.325
2.4375 0.25 1.325
2.5 0.1875 1.2625
2.5625 0.25 1.2625
2.5625 0.1875 1.2625
2.625 0.25 1.2625
2.5625 0.1875 1.325
2.625 0.1875 1.325
2.5625 0.25 1.325
2.625 0.1875 1.2625
2.6875 0.25 1.2625
2.6875 0.1875 1.2625
2.75 0.25 1.2625
2.6875 0.1875 1.325
2.75 0.1875 1.325
2.6875 0.25 1.325
2.75 0.1875 1.2625
2.8125 0.25 1.2625
2.8125 0.1875 1.2625
2.875 0.25 1.2625
2.8125 0.1875 1.325
2.875 0.1875 1.325
2.8125 0.25 1.325
2.875 0.1875 1.2625
2.9375 0.25 1.2625
2.9375 0.1875 1.2625
3 0.25 1.2625
2.9375 0.1875 1.325
3 0.1875 1.325
2.9375 0.25 1.325
3 0.1875 1.2625
3.0625 0.25 1.2625
3.0625 0.1875 1.2625
3.125 0.25 1.2625
3.0625 0.1875 1.325
3.125 0.1875 1.325
3.0625 0.25 1.325
3.125 0.1875 1.2625
3.1875 0.25 1.2625
3.1875 0.1875 1.2625
3.25 0.25 1.2625
3.1875 0.1875 1.325
3.25 0.1875 1.325
3.1875 0.25 1.325
3.25 0.1875 1.2625
3.3125 0.25 1.2625
3.3125 0.1875 1.2625
3.375 0.25 1.2625
3.3125 0.1875 1.325
3.375 0.1875 1.325
3.3125 0.25 1.325
3.375 0.1875 1.2625
3.4375 0.25 1.2625
3.4375 0.1875 1.2625
3.5 0.25 1.2625
3.4375 0.1875 1.325
3.5 0.1875 1.325
3.4375 0.25 1.325
3.5 0.1875 1.2625
3.5625 0.25 1.2625
3.5625 0.1875 1.2625
3.625 0.25 1.2625
3.5625 0.1875 1.325
3.625 0.1875 1.325
3.5625 0.25 1.325
3.625 0.1875 1.2625
3.6875 0.25 1.2625
3.6875 0.1875 1.2625
3.75 0.25 1.2625
3.6875 0.1875 1.325
3.75 0.1875 1.325
3.6875 0.25 1.325
3.75 0.1875 1.2625
3.8125 0.25 1.2625
3.8125 0.1875 1.2625
3.875 0.25 1.2625
3.8125 0.1875 1.325
3.875 0.1875 1.325
3.8125 0.25 1.325
3.875 0.1875 1.2625
3.9375 0.25 1.2625
3.9375 0.1875 1.2625
4 0.25 1.2625
3.9375 0.1875 1.325
4 0.1875 1.325
3.9375 0.25 1.325
4 0.1875 1.2625
0.0625 0.375 1.2625
0.0625 0.3125 1.2625
0.125 0.375 1.2625
0.0625 0.3125 1.325
0.125 0.3125 1.325
0 0.375 1.2625
0 0.3125 1.2625
0.0625 0.375 1.325
0 0.3125 1.325
0.125 0.3125 1.2625
0.1875 0.375 1.2625
0.1875 0.3125 1.2625
0.25 0.375 1.2625
0.1875 0.3125 1.325
0.25 0.3125 1.325
0.1875 0.375 1.325
0.25 0.3125 1.2625
0.3125 0.375 1.2625
0.3125 0.3125 1.2625
0.375 0.375 1.2625
0.3125 0.3125 1.325
0.375 0.3125 1.325
0.3125 0.375 1.325
0.375 0.3125 1.2625
0.4375 0.375 1.2625
0.4375 0.3125 1.2625
0.5 0.375 1.2625
0.4375 0.3125 1.325
0.5 0.3125 1.325
0.4375 0.375 1.325
0.5 0.3125 1.2625
0.5625 0.375 1.2625
0.5625 0.3125 1.2625
0.625 0.375 1.2625
0.5625 0.3125 1.325
0.625 0.3125 1.325
0.5625 0.375 1.325
0.625 0.3125 1.2625
0.6875 0.375 1.2625
0.6875 0.3125 1.2625
0.75 0.375 1.2625
0.6875 0.3125 1.325
0.75 0.3125 1.325
0.6875 0.375 1.325
0.75 0.3125 1.2625
0.8125 0.375 1.2625
0.8125 0.3125 1.2625
0.875 0.375 1.2625
0.8125 0.3125 1.325
0.875 0.3125 1.325
0.8125 0.375 1.325
0.875 0.3125 1.2625
0.9375 0.375 1.2625
0.9375 0.3125 1.2625
1 0.375 1.2625
0.9375 0.3125 1.325
1 0.3125 1.325
0.9375 0.375 1.325
1 0.3125 1.2625
1.0625 0.375 1.2625
1.0625 0.3125 1.2625
1.125 0.375 1.2625
1.0625 0.3125 1.325
1.125 0.3125 1.325
1.0625 0.375 1.325
1.125 0.3125 1.2625
1.1875 0.375 1.2625
1.1875 0.3125 1.2625
1.25 0.375 1.2625
1.1875 0.3125 1.325
1.25 0.3125 1.325
1.1875 0.375 1.325
1.25 0.3125 1.2625
1.3125 0.375 1.2625
1.3125 0.3125 1.2625
1.375 0.375 1.2625
1.3125 0.3125 1.325
1.375 0.3125 1.325
1.3125 0.375 1.325
1.375 0.3125 1.2625
1.4375 0.375 1.2625
1.4375 0.3125 1.2625
1.5 0.375 1.2625
1.4375 0.3125 1.325
1.5 0.3125 1.325
1.4375 0.375 1.325
1.5 0.3125 1.2625
1.5625 0.375 1.2625
1.5625 0.3125 1.2625
1.625 0.375 1.2625
1.5625 0.3125 1.325
1.625 0.3125 1.325
1.5625 0.375 1.325
1.625 0.3125 1.2625
1.6875 0.375 1.2625
1.6875 0.3125 1.2625
1.75 0.375 1.2625
1.6875 0.3125 1.325
1.75 0.3125 1.325
1.6875 0.375 1.325
1.75 0.3125 1.2625
1.8125 0.375 1.2625
1.8125 0.3125 1.2625
1.875 0.375 1.2625
1.8125 0.3125 1.325
1.875 0.3125 1.325
1.8125 0.375 1.325
1.875 0.3125 1.2625
1.9375 0.375 1.2625
1.9375 0.3125 1.2625
2 0.375 1.2625
1.9375 0.3125 1.325
2 0.3125 1.325
1.9375 0.375 1.325
2 0.3125 1.2625
2.0625 0.375 1.2625
2.0625 0.3125 1.2625
2.125 0.375 1.2625
2.0625 0.3125 1.325
2.125 0.3125 1.325
2.0625 0.375 1.325
2.125 0.3125 1.2625
2.1875 0.375 1.2625
2.1875 0.3125 1.2625
2.25 0.375 1.2625
2.1875 0.3125 1.325
2.25 0.3125 1.325
2.1875 0.375 1.325
2.25 0.3125 1.2625
2.3125 0.375 1.2625
2.3125 0.3125 1.2625
2.375 0.375 1.2625
2.3125 0.3125 1.325
2.375 0.3125 1.325
2.3125 0.375 1.325
2.375 0.3125 1.2625
2.4375 0.375 1.2625
2.4375 0.3125 1.2625
2.5 0.375 1.2625
2.4375 0.3125 1.325
2.5 0.3125 1.325
2.4375 0.375 1.325
2.5 0.3125 1.2625
2.5625 0.375 1.2625
2.5625 0.3125 1.2625
2.625 0.375 1.2625
2.5625 0.3125 1.325
2.625 0.3125 1.325
2.5625 0.375 1.325
2.625 0.3125 1.2625
2.6875 0.375 1.2625
2.6875 0.3125 1.2625
2.75 0.375 1.2625
2.6875 0.3125 1.325
2.75 0.3125 1.325
2.6875 0.375 1.325
2.75 0.3125 1.2625
2.8125 0.375 1.2625
2.8125 0.3125 1.2625
2.875 0.375 1.2625
2.8125 0.3125 1.325
2.875 0.3125 1.325
2.8125 0.375 1.325
2.875 0.3125 1.2625
2.9375 0.375 1.2625
2.9375 0.3125 1.2625
3 0.375 1.2625
2.9375 0.3125 1.325
3 0.3125 1.325
2.9375 0.375 1.325
3 0.3125 1.2625
3.0625 0.375 1.2625
3.0625 0.3125 1.2625
3.125 0.375 1.2625
3.0625 0.3125 1.325
3.125 0.3125 1.325
3.0625 0.375 1.325
3.125 0.3125 1.2625
3.1875 0.375 1.2625
3.1875 0.3125 1.2625
3.25 0.375 1.2625
3.1875 0.3125 1.325
3.25 0.3125 1.325
3.1875 0.375 1.325
3.25 0.3125 1.2625
3.3125 0.375 1.2625
3.3125 0.3125 1.2625
3.375 0.375 1.2625
3.3125 0.3125 1.325
3.375 0.3125 1.325
3.3125 0.375 1.325
3.375 0.3125 1.2625
3.4375 0.375 1.2625
3.4375 0.3125 1.2625
3.5 0.375 1.2625
3.4375 0.3125 1.325
3.5 0.3125 1.325
3.4375 0.375 1.325
3.5 0.3125 1.2625
3.5625 0.375 1.2625
3.5625 0.3125 1.2625
3.625 0.375 1.2625
3.5625 0.3125 1.325
3.625 0.3125 1.325
3.5625 0.375 1.325
3.625 0.3125 1.2625
3.6875 0.375 1.2625
3.6875 0.3125 1.2625
3.75 0.375 1.2625
3.6875 0.3125 1.325
3.75 0.3125 1.325
3.6875 0.375 1.325
3.75 0.3125 1.2625
3.8125 0.375 1.2625
3.8125 0.3125 1.2625
3.875 0.375 1.2625
3.8125 0.3125 1.325
3.875 0.3125 1.325
3.8125 0.375 1.325
3.875 0.3125 1.2625
3.9375 0.375 1.2625
3.9375 0.3125 1.2625
4 0.375 1.2625
3.9375 0.3125 1.325
4 0.3125 1.325
3.9375 0.375 1.325
4 0.3125 1.2625
0.0625 0.5 1.2625
0.0625 0.4375 1.2625
0.125 0.5 1.2625
0.0625 0.4375 1.325
0.125 0.4375 1.325
0 0.5 1.2625
0 0.4375 1.2625
0.0625 0.5 1.325
0 0.4375 1.325
0.125 0.4375 1.2625
0.1875 0.5 1.2625
0.1875 0.4375 1.2625
0.25 0.5 1.2625
0.1875 0.4375 1.325
0.25 0.4375 1.325
0.1875 0.5 1.325
0.25 0.4375 1.2625
0.3125 0.5 1.2625
0.3125 0.4375 1.2625
0.375 0.5 1.2625
0.3125 0.4375 1.325
0.375 0.4375 1.325
0.3125 0.5 1.325
0.375 0.4375 1.2625
0.4375 0.5 1.2625
0.4375 0.4375 1.2625
0.5 0.5 1.2625
0.4375 0.4375 1.325
0.5 0.4375 1.325
0.4375 0.5 1.325
0.5 0.4375 1.2625
0.5625 0.5 1.2625
0.5625 0.4375 1.2625
0.625 0.5 1.2625
0.5625 0.4375 1.325
0.625 0.4375 1.325
0.5625 0.5 1.325
0.625 0.4375 1.2625
0.6875 0.5 1.2625
0.6875 0.4375 1.2625
0.75 0.5 1.2625
0.6875 0.4375 1.325
0.75 0.4375 1.325
0.6875 0.5 1.325
0.75 0.4375 1.2625
0.8125 0.5 1.2625
0.8125 0.4375 1.2625
0.875 0.5 1.2625
0.8125 0.4375 1.325
0.875 0.4375 1.325
0.8125 0.5 1.325
0.875 0.4375 1.2625
0.9375 0.5 1.2625
0.9375 0.4375 1.2625
1 0.5 1.2625
0.9375 0.4375 1.325
1 0.4375 1.325
0.9375 0.5 1.325
1 0.4375 1.2625
1.0625 0.5 1.2625
1.0625 0.4375 1.2625
1.125 0.5 1.2625
1.0625 0.4375 1.325
1.125 0.4375 1.325
1.0625 0.5 1.325
1.125 0.4375 1.2625
1.1875 0.5 1.2625
1.1875 0.4375 1.2625
1.25 0.5 1.2625
1.1875 0.4375 1.325
1.25 0.4375 1.325
1.1875 0.5 1.325
1.25 0.4375 1.2625
1.3125 0.5 1.2625
1.3125 0.4375 1.2625
1.375 0.5 1.2625
1.3125 0.4375 1.325
1.375 0.4375 1.325
1.3125 0.5 1.325
1.375 0.4375 1.2625
1.4375 0.5 1.2625
1.4375 0.4375 1.2625
1.5 0.5 1.2625
1.4375 0.4375 1.325
1.5 0.4375 1.325
1.4375 0.5 1.325
1.5 0.4375 1.2625
1.5625 0.5 1.2625
1.5625 0.4375 1.2625
1.625 0.5 1.2625
1.5625 0.4375 1.325
1.625 0.4375 1.325
1.5625 0.5 1.325
1.625 0.4375 1.2625
1.6875 0.5 1.2625
1.6875 0.4375 1.2625
1.75 0.5 1.2625
1.6875 0.4375 1.325
1.75 0.4375 1.325
1.6875 0.5 1.325
1.75 0.4375 1.2625
1.8125 0.5 1.2625
1.8125 0.4375 1.2625
1.875 0.5 1.2625
1.8125 0.4375 1.325
1.875 0.4375 1.325
1.8125 0.5 1.325
1.875 0.4375 1.2625
1.9375 0.5 1.2625
1.9375 0.4375 1.2625
2 0.5 1.2625
1.9375 0.4375 1.325
2 0.4375 1.325
1.9375 0.5 1.325
2 0.4375 1.2625
2.0625 0.5 1.2625
2.0625 0.4375 1.2625
2.125 0.5 1.2625
2.0625 0.4375 1.325
2.125 0.4375 1.325
2.0625 0.5 1.325
2.125 0.4375 1.2625
2.1875 0.5 1.2625
2.1875 0.4375 1.2625
2.25 0.5 1.2625
2.1875 0.4375 1.325
2.25 0.4375 1.325
2.1875 0.5 1.325
2.25 0.4375 1.2625
2.3125 0.5 1.2625
2.3125 0.4375 1.2625
2.375 0.5 1.2625
2.3125 0.4375 1.325
2.375 0.4375 1.325
2.3125 0.5 1.325
2.375 0.4375 1.2625
2.4375 0.5 1.2625
2.4375 0.4375 1.2625
2.5 0.5 1.2625
2.4375 0.4375 1.325
2.5 0.4375 1.325
2.4375 0.5 1.325
2.5 0.4375 1.2625
2.5625 0.5 1.2625
2.5625 0.4375 1.2625
2.625 0.5 1.2625
2.5625 0.4375 1.325
2.625 0.4375 1.325
2.5625 0.5 1.325
2.625 0.4375 1.2625
2.6875 0.5 1.2625
2.6875 0.4375 1.2625
2.75 0.5 1.2625
2.6875 0.4375 1.325
2.75 0.4375 1.325
2.6875 0.5 1.325
2.75 0.4375 1.2625
2.8125 0.5 1.2625
2.8125 0.4375 1.2625
2.875 0.5 1.2625
2.8125 0.4375 1.325
2.875 0.4375 1.325
2.8125 0.5 1.325
2.875 0.4375 1.2625
2.9375 0.5 1.2625
2.9375 0.4375 1.2625
3 0.5 1.2625
2.9375 0.4375 1.325
3 0.4375 1.325
2.9375 0.5 1.325
3 0.4375 1.2625
3.0625 0.5 1.2625
3.0625 0.4375 1.2625
3.125 0.5 1.2625
3.0625 0.4375 1.325
3.125 0.4375 1.325
3.0625 0.5 1.325
3.125 0.4375 1.2625
3.1875 0.5 1.2625
3.1875 0.4375 1.2625
3.25 0.5 1.2625
3.1875 0.4375 1.325
3.25 0.4375 1.325
3.1875 0.5 1.325
3.25 0.4375 1.2625
3.3125 0.5 1.2625
3.3125 0.4375 1.2625
3.375 0.5 1.2625
3.3125 0.4375 1.325
3.375 0.4375 1.325
3.3125 0.5 1.325
3.375 0.4375 1.2625
3.4375 0.5 1.2625
3.4375 0.4375 1.2625
3.5 0.5 1.2625
3.4375 0.4375 1.325
3.5 0.4375 1.325
3.4375 0.5 1.325
3.5 0.4375 1.2625
3.5625 0.5 1.2625
3.5625 0.4375 1.2625
3.625 0.5 1.2625
3.5625 0.4375 1.325
3.625 0.4375 1.325
3.5625 0.5 1.325
3.625 0.4375 1.2625
3.6875 0.5 1.2625
3.6875 0.4375 1.2625
3.75 0.5 1.2625
3.6875 0.4375 1.325
3.75 0.4375 1.325
3.6875 0.5 1.325
3.75 0.4375 1.2625
3.8125 0.5 1.2625
3.8125 0.4375 1.2625
3.875 0.5 1.2625
3.8125 0.4375 1.325
3.875 0.4375 1.325
3.8125 0.5 1.325
3.875 0.4375 1.2625
3.9375 0.5 1.2625
3.9375 0.4375 1.2625
4 0.5 1.2625
3.9375 0.4375 1.325
4 0.4375 1.325
3.9375 0.5 1.325
4 0.4375 1.2625
0.0625 0.625 1.2625
0.0625 0.5625 1.2625
0.125 0.625 1.2625
0.0625 0.5625 1.325
0.125 0.5625 1.325
0 0.625 1.2625
0 0.5625 1.2625
0.0625 0.625 1.325
0 0.5625 1.325
0.125 0.5625 1.2625
0.1875 0.625 1.2625
0.1875 0.5625 1.2625
0.25 0.625 1.2625
0.1875 0.5625 1.325
0.25 0.5625 1.325
0.1875 0.625 1.325
0.25 0.5625 1.2625
0.3125 0.625 1.2625
0.3125 0.5625 1.2625
0.375 0.625 1.2625
0.3125 0.5625 1.325
0.375 0.5625 1.325
0.3125 0.625 1.325
0.375 0.5625 1.2625
0.4375 0.625 1.2625
0.4375 0.5625 1.2625
0.5 0.625 1.2625
0.4375 0.5625 1.325
0.5 0.5625 1.325
0.4375 0.625 1.325
0.5 0.5625 1.2625
0.5625 0.625 1.2625
0.5625 0.5625 1.2625
0.625 0.625 1.2625
0.5625 0.5625 1.325
0.625 0.5625 1.325
0.5625 0.625 1.325
0.625 0.5625 1.2625
0.6875 0.625 1.2625
0.6875 0.5625 1.2625
0.75 0.625 1.2625
0.6875 0.5625 1.325
0.75 0.5625 1.325
0.6875 0.625 1.325
0.75 0.5625 1.2625
0.8125 0.625 1.2625
0.8125 0.5625 1.2625
0.875 0.625 1.2625
0.8125 0.5625 1.325
0.875 0.5625 1.325
0.8125 0.625 1.325
0.875 0.5625 1.2625
0.9375 0.625 1.2625
0.9375 0.5625 1.2625
1 0.625 1.2625
0.9375 0.5625 1.325
1 0.5625 1.325
0.9375 0.625 1.325
1 0.5625 1.2625
1.0625 0.625 1.2625
1.0625 0.5625 1.2625
1.125 0.625 1.2625
1.0625 0.5625 1.325
1.125 0.5625 1.325
1.0625 0.625 1.325
1.125 0.5625 1.2625
1.1875 0.625 1.2625
1.1875 0.5625 1.2625
1.25 0.625 1.2625
1.1875 0.5625 1.325
1.25 0.5625 1.325
1.1875 0.625 1.325
1.25 0.5625 1.2625
1.3125 0.625 1.2625
1.3125 0.5625 1.2625
1.375 0.625 1.2625
1.3125 0.5625 1.325
1.375 0.5625 1.325
1.3125 0.625 1.325
1.375 0.5625 1.2625
1.4375 0.625 1.2625
1.4375 0.5625 1.2625
1.5 0.625 1.2625
1.4375 0.5625 1.325
1.5 0.5625 1.325
1.4375 0.625 1.325
1.5 0.5625 1.2625
1.5625 0.625 1.2625
1.5625 0.5625 1.2625
1.625 0.625 1.2625
1.5625 0.5625 1.325
1.625 0.5625 1.325
1.5625 0.625 1.325
1.625 0.5625 1.2625
1.6875 0.625 1.2625
1.6875 0.5625 1.2625
1.75 0.625 1.2625
1.6875 0.5625 1.325
1.75 0.5625 1.325
1.6875 0.625 1.325
1.75 0.5625 1.2625
1.8125 0.625 1.2625
1.8125 0.5625 1.2625
1.875 0.625 1.2625
1.8125 0.5625 1.325
1.875 0.5625 1.325
1.8125 0.625 1.325
1.875 0.5625 1.2625
1.9375 0.625 1.2625
1.9375 0.5625 1.2625
2 0.625 1.2625
1.9375 0.5625 1.325
2 0.5625 1.325
1.9375 0.625 1.325
2 0.5625 1.2625
2.0625 0.625 1.2625
2.0625 0.5625 1.2625
2.125 0.625 1.2625
2.0625 0.5625 1.325
2.125 0.5625 1.325
2.0625 0.625 1.325
2.125 0.5625 1.2625
2.1875 0.625 1.2625
2.1875 0.5625 1.2625
2.25 0.625 1.2625
2.1875 0.5625 1.325
2.25 0.5625 1.325
2.1875 0.625 1.325
2.25 0.5625 1.2625
2.3125 0.625 1.2625
2.3125 0.5625 1.2625
2.375 0.625 1.2625
2.3125 0.5625 1.325
2.375 0.5625 1.325
2.3125 0.625 1.325
2.375 0.5625 1.2625
2.4375 0.625 1.2625
2.4375 0.5625 1.2625
2.5 0.625 1.2625
2.4375 0.5625 1.325
2.5 0.5625 1.325
2.4375 0.625 1.325
2.5 0.5625 1.2625
2.5625 0.625 1.2625
2.5625 0.5625 1.2625
2.625 0.625 1.2625
2.5625 0.5625 1.325
2.625 0.5625 1.325
2.5625 0.625 1.325
2.625 0.5625 1.2625
2.6875 0.625 1.2625
2.6875 0.5625 1.2625
2.75 0.625 1.2625
2.6875 0.5625 1.325
2.75 0.5625 1.325
2.6875 0.625 1.325
2.75 0.5625 1.2625
2.8125 0.625 1.2625
2.8125 0.5625 1.2625
2.875 0.625 1.2625
2.8125 0.5625 1.325
2.875 0.5625 1.325
2.8125 0.625 1.325
2.875 0.5625 1.2625
2.9375 0.625 1.2625
2.9375 0.5625 1.2625
3 0.625 1.2625
2.9375 0.5625 1.325
3 0.5625 1.325
2.9375 0.625 1.325
3 0.5625 1.2625
3.0625 0.625 1.2625
3.0625 0.5625 1.2625
3.125 0.625 1.2625
3.0625 0.5625 1.325
3.125 0.5625 1.325
3.0625 0.625 1.325
3.125 0.5625 1.2625
3.1875 0.625 1.2625
3.1875 0.5625 1.2625
3.25 0.625 1.2625
3.1875 0.5625 1.325
3.25 0.5625 1.325
3.1875 0.625 1.325
3.25 0.5625 1.2625
3.3125 0.625 1.2625
3.3125 0.5625 1.2625
3.375 0.625 1.2625
3.3125 0.5625 1.325
3.375 0.5625 1.325
3.3125 0.625 1.325
3.375 0.5625 1.2625
3.4375 0.625 1.2625
3.4375 0.5625 1.2625
3.5 0.625 1.2625
3.4375 0.5625 1.325
3.5 0.5625 1.325
3.4375 0.625 1.325
3.5 0.5625 1.2625
3.5625 0.625 1.2625
3.5625 0.5625 1.2625
3.625 0.625 1.2625
3.5625 0.5625 1.325
3.625 0.5625 1.325
3.5625 0.625 1.325
3.625 0.5625 1.2625
3.6875 0.625 1.2625
3.6875 0.5625 1.2625
3.75 0.625 1.2625
3.6875 0.5625 1.325
3.75 0.5625 1.325
3.6875 0.625 1.325
3.75 0.5625 1.2625
3.8125 0.625 1.2625
3.8125 0.5625 1.2625
3.875 0.625 1.2625
3.8125 0.5625 1.325
3.875 0.5625 1.325
3.8125 0.625 1.325
3.875 0.5625 1.2625
3.9375 0.625 1.2625
3.9375 0.5625 1.2625
4 0.625 1.2625
3.9375 0.5625 1.325
4 0.5625 1.325
3.9375 0.625 1.325
4 0.5625 1.2625
0.0625 0.75 1.2625
0.0625 0.6875 1.2625
0.125 0.75 1.2625
0.0625 0.6875 1.325
0.125 0.6875 1.325
0 0.75 1.2625
0 0.6875 1.2625
0.0625 0.75 1.325
0 0.6875 1.325
0.125 0.6875 1.2625
0.1875 0.75 1.2625
0.1875 0.6875 1.2625
0.25 0.75 1.2625
0.1875 0.6875 1.325
0.25 0.6875 1.325
0.1875 0.75 1.325
0.25 0.6875 1.2625
0.3125 0.75 1.2625
0.3125 0.6875 1.2625
0.375 0.75 1.2625
0.3125 0.6875 1.325
0.375 0.6875 1.325
0.3125 0.75 1.325
0.375 0.6875 1.2625
0.4375 0.75 1.2625
0.4375 0.6875 1.2625
0.5 0.75 1.2625
0.4375 0.6875 1.325
0.5 0.6875 1.325
0.4375 0.75 1.325
0.5 0.6875 1.2625
0.5625 0.75 1.2625
0.5625 0.6875 1.2625
0.625 0.75 1.2625
0.5625 0.6875 1.325
0.625 0.6875 1.325
0.5625 0.75 1.325
0.625 0.6875 1.2625
0.6875 0.75 1.2625
0.6875 0.6875 1.2625
0.75 0.75 1.2625
0.6875 0.6875 1.325
0.75 0.6875 1.325
0.6875 0.75 1.325
0.75 0.6875 1.2625
0.8125 0.75 1.2625
0.8125 0.6875 1.2625
0.875 0.75 1.2625
0.8125 0.6875 1.325
0.875 0.6875 1.325
0.8125 0.75 1.325
0.875 0.6875 1.2625
0.9375 0.75 1.2625
0.9375 0.6875 1.2625
1 0.75 1.2625
0.9375 0.6875 1.325
1 0.6875 1.325
0.9375 0.75 1.325
1 0.6875 1.2625
1.0625 0.75 1.2625
1.0625 0.6875 1.2625
1.125 0.75 1.2625
1.0625 0.6875 1.325
1.125 0.6875 1.325
1.0625 0.75 1.325
1.125 0.6875 1.2625
1.1875 0.75 1.2625
1.1875 0.6875 1.2625
1.25 0.75 1.2625
1.1875 0.6875 1.325
1.25 0.6875 1.325
1.1875 0.75 1.325
1.25 0.6875 1.2625
1.3125 0.75 1.2625
1.3125 0.6875 1.2625
1.375 0.75 1.2625
1.3125 0.6875 1.325
1.375 0.6875 1.325
1.3125 0.75 1.325
1.375 0.6875 1.2625
1.4375 0.75 1.2625
1.4375 0.6875 1.2625
1.5 0.75 1.2625
1.4375 0.6875 1.325
1.5 0.6875 1.325
1.4375 0.75 1.325
1.5 0.6875 1.2625
1.5625 0.75 1.2625
1.5625 0.6875 1.2625
1.625 0.75 1.2625
1.5625 0.6875 1.325
1.625 0.6875 1.325
1.5625 0.75 1.325
1.625 0.6875 1.2625
1.6875 0.75 1.2625
1.6875 0.6875 1.2625
1.75 0.75 1.2625
1.6875 0.6875 1.325
1.75 0.6875 1.325
1.6875 0.75 1.325
1.75 0.6875 1.2625
1.8125 0.75 1.2625
1.8125 0.6875 1.2625
1.875 0.75 1.2625
1.8125 0.6875 1.325
1.875 0.6875 1.325
1.8125 0.75 1.325
1.875 0.6875 1.2625
1.9375 0.75 1.2625
1.9375 0.6875 1.2625
2 0.75 1.2625
1.9375 0.6875 1.325
2 0.6875 1.325
1.9375 0.75 1.325
2 0.6875 1.2625
2.0625 0.75 1.2625
2.0625 0.6875 1.2625
2.125 0.75 1.2625
2.0625 0.6875 1.325
2.125 0.6875 1.325
2.0625 0.75 1.325
2.125 0.6875 1.2625
2.1875 0.75 1.2625
2.1875 0.6875 1.2625
2.25 0.75 1.2625
2.1875 0.6875 1.325
2.25 0.6875 1.325
2.1875 0.75 1.325
2.25 0.6875 1.2625
2.3125 0.75 1.2625
2.3125 0.6875 1.2625
2.375 0.75 1.2625
2.3125 0.6875 1.325
2.375 0.6875 1.325
2.3125 0.75 1.325
2.375 0.6875 1.2625
2.4375 0.75 1.2625
2.4375 0.6875 1.2625
2.5 0.75 1.2625
2.4375 0.6875 1.325
2.5 0.6875 1.325
2.4375 0.75 1.325
2.5 0.6875 1.2625
2.5625 0.75 1.2625
2.5625 0.6875 1.2625
2.625 0.75 1.2625
2.5625 0.6875 1.325
2.625 0.6875 1.325
2.5625 0.75 1.325
2.625 0.6875 1.2625
2.6875 0.75 1.2625
2.6875 0.6875 1.2625
2.75 0.75 1.2625
2.6875 0.6875 1.325
2.75 0.6875 1.325
2.6875 0.75 1.325
2.75 0.6875 1.2625
2.8125 0.75 1.2625
2.8125 0.6875 1.2625
2.875 0.75 1.2625
2.8125 0.6875 1.325
2.875 0.6875 1.325
2.8125 0.75 1.325
2.875 0.6875 1.2625
2.9375 0.75 1.2625
2.9375 0.6875 1.2625
3 0.75 1.2625
2.9375 0.6875 1.325
3 0.6875 1.325
2.9375 0.75 1.325
3 0.6875 1.2625
3.0625 0.75 1.2625
3.0625 0.6875 1.2625
3.125 0.75 1.2625
3.0625 0.6875 1.325
3.125 0.6875 1.325
3.0625 0.75 1.325
3.125 0.6875 1.2625
3.1875 0.75 1.2625
3.1875 0.6875 1.2625
3.25 0.75 1.2625
3.1875 0.6875 1.325
3.25 0.6875 1.325
3.1875 0.75 1.325
3.25 0.6875 1.2625
3.3125 0.75 1.2625
3.3125 0.6875 1.2625
3.375 0.75 1.2625
3.3125 0.6875 1.325
3.375 0.6875 1.325
3.3125 0.75 1.325
3.375 0.6875 1.2625
3.4375 0.75 1.2625
3.4375 0.6875 1.2625
3.5 0.75 1.2625
3.4375 0.6875 1.325
3.5 0.6875 1.325
3.4375 0.75 1.325
3.5 0.6875 1.2625
3.5625 0.75 1.2625
3.5625 0.6875 1.2625
3.625 0.75 1.2625
3.5625 0.6875 1.325
3.625 0.6875 1.325
3.5625 0.75 1.325
3.625 0.6875 1.2625
3.6875 0.75 1.2625
3.6875 0.6875 1.2625
3.75 0.75 1.2625
3.6875 0.6875 1.325
3.75 0.6875 1.325
3.6875 0.75 1.325
3.75 0.6875 1.2625
3.8125 0.75 1.2625
3.8125 0.6875 1.2625
3.875 0.75 1.2625
3.8125 0.6875 1.325
3.875 0.6875 1.325
3.8125 0.75 1.325
3.875 0.6875 1.2625
3.9375 0.75 1.2625
3.9375 0.6875 1.2625
4 0.75 1.2625
3.9375 0.6875 1.325
4 0.6875 1.325
3.9375 0.75 1.325
4 0.6875 1.2625
0.0625 0.875 1.2625
0.0625 0.8125 1.2625
0.125 0.875 1.2625
0.0625 0.8125 1.325
0.125 0.8125 1.325
0 0.875 1.2625
0 0.8125 1.2625
0.0625 0.875 1.325
0 0.8125 1.325
0.125 0.8125 1.2625
0.1875 0.875 1.2625
0.1875 0.8125 1.2625
0.25 0.875 1.2625
0.1875 0.8125 1.325
0.25 0.8125 1.325
0.1875 0.875 1.325
0.25 0.8125 1.2625
0.3125 0.875 1.2625
0.3125 0.8125 1.2625
0.375 0.875 1.2625
0.3125 0.8125 1.325
0.375 0.8125 1.325
0.3125 0.875 1.325
0.375 0.8125 1.2625
0.4375 0.875 1.2625
0.4375 0.8125 1.2625
0.5 0.875 1.2625
0.4375 0.8125 1.325
0.5 0.8125 1.325
0.4375 0.875 1.325
0.5 0.8125 1.2625
0.5625 0.875 1.2625
0.5625 0.8125 1.2625
0.625 0.875 1.2625
0.5625 0.8125 1.325
0.625 0.8125 1.325
0.5625 0.875 1.325
0.625 0.8125 1.2625
0.6875 0.875 1.2625
0.6875 0.8125 1.2625
0.75 0.875 1.2625
0.6875 0.8125 1.325
0.75 0.8125 1.325
0.6875 0.875 1.325
0.75 0.8125 1.2625
0.8125 0.875 1.2625
0.8125 0.8125 1.2625
0.875 0.875 1.2625
0.8125 0.8125 1.325
0.875 0.8125 1.325
0.8125 0.875 1.325
0.875 0.8125 1.2625
0.9375 0.875 1.2625
0.9375 0.8125 1.2625
1 0.875 1.2625
0.9375 0.8125 1.325
1 0.8125 1.325
0.9375 0.875 1.325
1 0.8125 1.2625
1.0625 0.875 1.2625
1.0625 0.8125 1.2625
1.125 0.875 1.2625
1.0625 0.8125 1.325
1.125 0.8125 1.325
1.0625 0.875 1.325
1.125 0.8125 1.2625
1.1875 0.875 1.2625
1.1875 0.8125 1.2625
1.25 0.875 1.2625
1.1875 0.8125 1.325
1.25 0.8125 1.325
1.1875 0.875 1.325
1.25 0.8125 1.2625
1.3125 0.875 1.2625
1.3125 0.8125 1.2625
1.375 0.875 1.2625
1.3125 0.8125 1.325
1.375 0.8125 1.325
1.3125 0.875 1.325
1.375 0.8125 1.2625
1.4375 0.875 1.2625
1.4375 0.8125 1.2625
1.5 0.875 1.2625
1.4375 0.8125 1.325
1.5 0.8125 1.325
1.4375 0.875 1.325
1.5 0.8125 1.2625
1.5625 0.875 1.2625
1.5625 0.8125 1.2625
1.625 0.875 1.2625
1.5625 0.8125 1.325
1.625 0.8125 1.325
1.5625 0.875 1.325
1.625 0.8125 1.2625
1.6875 0.875 1.2625
1.6875 0.8125 1.2625
1.75 0.875 1.2625
1.6875 0.8125 1.325
1.75 0.8125 1.325
1.6875 0.875 1.325
1.75 0.8125 1.2625
1.8125 0.875 1.2625
1.8125 0.8125 1.2625
1.875 0.875 1.2625
1.8125 0.8125 1.325
1.875 0.8125 1.325
1.8125 0.875 1.325
1.875 0.8125 1.2625
1.9375 0.875 1.2625
1.9375 0.8125 1.2625
2 0.875 1.2625
1.9375 0.8125 1.325
2 0.8125 1.325
1.9375 0.875 1.325
2 0.8125 1.2625
2.0625 0.875 1.2625
2.0625 0.8125 1.2625
2.125 0.875 1.2625
2.0625 0.8125 1.325
2.125 0.8125 1.325
2.0625 0.875 1.325
2.125 0.8125 1.2625
2.1875 0.875 1.2625
2.1875 0.8125 1.2625
2.25 0.875 1.2625
2.1875 0.8125 1.325
2.25 0.8125 1.325
2.1875 0.875 1.325
2.25 0.8125 1.2625
2.3125 0.875 1.2625
2.3125 0.8125 1.2625
2.375 0.875 1.2625
2.3125 0.8125 1.325
2.375 0.8125 1.325
2.3125 0.875 1.325
2.375 0.8125 1.2625
2.4375 0.875 1.2625
2.4375 0.8125 1.2625
2.5 0.875 1.2625
2.4375 0.8125 1.325
2.5 0.8125 1.325
2.4375 0.875 1.325
2.5 0.8125 1.2625
2.5625 0.875 1.2625
2.5625 0.8125 1.2625
2.625 0.875 1.2625
2.5625 0.8125 1.325
2.625 0.8125 1.325
2.5625 0.875 1.325
2.625 0.8125 1.2625
2.6875 0.875 1.2625
2.6875 0.8125 1.2625
2.75 0.875 1.2625
2.6875 0.8125 1.325
2.75 0.8125 1.325
2.6875 0.875 1.325
2.75 0.8125 1.2625
2.8125 0.875 1.2625
2.8125 0.8125 1.2625
2.875 0.875 1.2625
2.8125 0.8125 1.325
2.875 0.8125 1.325
2.8125 0.875 1.325
2.875 0.8125 1.2625
2.9375 0.875 1.2625
2.9375 0.8125 1.2625
3 0.875 1.2625
2.9375 0.8125 1.325
3 0.8125 1.325
2.9375 0.875 1.325
3 0.8125 1.2625
3.0625 0.875 1.2625
3.0625 0.8125 1.2625
3.125 0.875 1.2625
3.0625 0.8125 1.325
3.125 0.8125 1.325
3.0625 0.875 1.325
3.125 0.8125 1.2625
3.1875 0.875 1.2625
3.1875 0.8125 1.2625
3.25 0.875 1.2625
3.1875 0.8125 1.325
3.25 0.8125 1.325
3.1875 0.875 1.325
3.25 0.8125 1.2625
3.3125 0.875 1.2625
3.3125 0.8125 1.2625
3.375 0.875 1.2625
3.3125 0.8125 1.325
3.375 0.8125 1.325
3.3125 0.875 1.325
3.375 0.8125 1.2625
3.4375 0.875 1.2625
3.4375 0.8125 1.2625
3.5 0.875 1.2625
3.4375 0.8125 1.325
3.5 0.8125 1.325
3.4375 0.875 1.325
3.5 0.8125 1.2625
3.5625 0.875 1.2625
3.5625 0.8125 1.2625
3.625 0.875 1.2625
3.5625 0.8125 1.325
3.625 0.8125 1.325
3.5625 0.875 1.325
3.625 0.8125 1.2625
3.6875 0.875 1.2625
3.6875 0.8125 1.2625
3.75 0.875 1.2625
3.6875 0.8125 1.325
3.75 0.8125 1.325
3.6875 0.875 1.325
3.75 0.8125 1.2625
3.8125 0.875 1.2625
3.8125 0.8125 1.2625
3.875 0.875 1.2625
3.8125 0.8125 1.325
3.875 0.8125 1.325
3.8125 0.875 1.325
3.875 0.8125 1.2625
3.9375 0.875 1.2625
3.9375 0.8125 1.2625
4 0.875 1.2625
3.9375 0.8125 1.325
4 0.8125 1.325
3.9375 0.875 1.325
4 0.8125 1.2625
0.0625 1 1.2625
0.0625 0.9375 1.2625
0.125 1 1.2625
0.0625 0.9375 1.325
0.125 0.9375 1.325
0 1 1.2625
0 0.9375 1.2625
0.0625 1 1.325
0 0.9375 1.325
0.125 0.9375 1.2625
0.1875 1 1.2625
0.1875 0.9375 1.2625
0.25 1 1.2625
0.1875 0.9375 1.325
0.25 0.9375 1.325
0.1875 1 1.325
0.25 0.9375 1.2625
0.3125 1 1.2625
0.3125 0.9375 1.2625
0.375 1 1.2625
0.3125 0.9375 1.325
0.375 0.9375 1.325
0.3125 1 1.325
0.375 0.9375 1.2625
0.4375 1 1.2625
0.4375 0.9375 1.2625
0.5 1 1.2625
0.4375 0.9375 1.325
0.5 0.9375 1.325
0.4375 1 1.325
0.5 0.9375 1.2625
0.5625 1 1.2625
0.5625 0.9375 1.2625
0.625 1 1.2625
0.5625 0.9375 1.325
0.625 0.9375 1.325
0.5625 1 1.325
0.625 0.9375 1.2625
0.6875 1 1.2625
0.6875 0.9375 1.2625
0.75 1 1.2625
0.6875 0.9375 1.325
0.75 0.9375 1.325
0.6875 1 1.325
0.75 0.9375 1.2625
0.8125 1 1.2625
0.8125 0.9375 1.2625
0.875 1 1.2625
0.8125 0.9375 1.325
0.875 0.9375 1.325
0.8125 1 1.325
0.875 0.9375 1.2625
0.9375 1 1.2625
0.9375 0.9375 1.2625
1 1 1.2625
0.9375 0.9375 1.325
1 0.9375 1.325
0.9375 1 1.325
1 0.9375 1.2625
1.0625 1 1.2625
1.0625 0.9375 1.2625
1.125 1 1.2625
1.0625 0.9375 1.325
1.125 0.9375 1.325
1.0625 1 1.325
1.125 0.9375 1.2625
1.1875 1 1.2625
1.1875 0.9375 1.2625
1.25 1 1.2625
1.1875 0.9375 1.325
1.25 0.9375 1.325
1.1875 1 1.325
1.25 0.9375 1.2625
1.3125 1 1.2625
1.3125 0.9375 1.2625
1.375 1 1.2625
1.3125 0.9375 1.325
1.375 0.9375 1.325
1.3125 1 1.325
1.375 0.9375 1.2625
1.4375 1 1.2625
1.4375 0.9375 1.2625
1.5 1 1.2625
1.4375 0.9375 1.325
1.5 0.9375 1.325
1.4375 1 1.325
1.5 0.9375 1.2625
1.5625 1 1.2625
1.5625 0.9375 1.2625
1.625 1 1.2625
1.5625 0.9375 1.325
1.625 0.9375 1.325
1.5625 1 1.325
1.625 0.9375 1.2625
1.6875 1 1.2625
1.6875 0.9375 1.2625
1.75 1 1.2625
1.6875 0.9375 1.325
1.75 0.9375 1.325
1.6875 1 1.325
1.75 0.9375 1.2625
1.8125 1 1.2625
1.8125 0.9375 1.2625
1.875 1 1.2625
1.8125 0.9375 1.325
1.875 0.9375 1.325
1.8125 1 1.325
1.875 0.9375 1.2625
1.9375 1 1.2625
1.9375 0.9375 1.2625
2 1 1.2625
1.9375 0.9375 1.325
2 0.9375 1.325
1.9375 1 1.325
2 0.9375 1.2625
2.0625 1 1.2625
2.0625 0.9375 1.2625
2.125 1 1.2625
2.0625 0.9375 1.325
2.125 0.9375 1.325
2.0625 1 1.325
2.125 0.9375 1.2625
2.1875 1 1.2625
2.1875 0.9375 1.2625
2.25 1 1.2625
2.1875 0.9375 1.325
2.25 0.9375 1.325
2.1875 1 1.325
2.25 0.9375 1.2625
2.3125 1 1.2625
2.3125 0.9375 1.2625
2.375 1 1.2625
2.3125 0.9375 1.325
2.375 0.9375 1.325
2.3125 1 1.325
2.375 0.9375 1.2625
2.4375 1 1.2625
2.4375 0.9375 1.2625
2.5 1 1.2625
2.4375 0.9375 1.325
2.5 0.9375 1.325
2.4375 1 1.325
2.5 0.9375 1.2625
2.5625 1 1.2625
2.5625 0.9375 1.2625
2.625 1 1.2625
2.5625 0.9375 1.325
2.625 0.9375 1.325
2.5625 1 1.325
2.625 0.9375 1.2625
2.6875 1 1.2625
2.6875 0.9375 1.2625
2.75 1 1.2625
2.6875 0.9375 1.325
2.75 0.9375 1.325
2.6875 1 1.325
2.75 0.9375 1.2625
2.8125 1 1.2625
2.8125 0.9375 1.2625
2.875 1 1.2625
2.8125 0.9375 1.325
2.875 0.9375 1.325
2.8125 1 1.325
2.875 0.9375 1.2625
2.9375 1 1.2625
2.9375 0.9375 1.2625
3 1 1.2625
2.9375 0.9375 1.325
3 0.9375 1.325
2.9375 1 1.325
3 0.9375 1.2625
3.0625 1 1.2625
3.0625 0.9375 1.2625
3.125 1 1.2625
3.0625 0.9375 1.325
3.125 0.9375 1.325
3.0625 1 1.325
3.125 0.9375 1.2625
3.1875 1 1.2625
3.1875 0.9375 1.2625
3.25 1 1.2625
3.1875 0.9375 1.325
3.25 0.9375 1.325
3.1875 1 1.325
3.25 0.9375 1.2625
3.3125 1 1.2625
3.3125 0.9375 1.2625
3.375 1 1.2625
3.3125 0.9375 1.325
3.375 0.9375 1.325
3.3125 1 1.325
3.375 0.9375 1.2625
3.4375 1 1.2625
3.4375 0.9375 1.2625
3.5 1 1.2625
3.4375 0.9375 1.325
3.5 0.9375 1.325
3.4375 1 1.325
3.5 0.9375 1.2625
3.5625 1 1.2625
3.5625 0.9375 1.2625
3.625 1 1.2625
3.5625 0.9375 1.325
3.625 0.9375 1.325
3.5625 1 1.325
3.625 0.9375 1.2625
3.6875 1 1.2625
3.6875 0.9375 1.2625
3.75 1 1.2625
3.6875 0.9375 1.325
3.75 0.9375 1.325
3.6875 1 1.325
3.75 0.9375 1.2625
3.8125 1 1.2625
3.8125 0.9375 1.2625
3.875 1 1.2625
3.8125 0.9375 1.325
3.875 0.9375 1.325
3.8125 1 1.325
3.875 0.9375 1.2625
3.9375 1 1.2625
3.9375 0.9375 1.2625
4 1 1.2625
3.9375 0.9375 1.325
4 0.9375 1.325
3.9375 1 1.325
4 0.9375 1.2625
0.0625 0.125 1.3875
0.0625 0.0625 1.3875
0.125 0.125 1.3875
0.0625 0.0625 1.45
0.125 0.0625 1.45
0.0625 0 1.45
0 0 1.3875
0.0625 0 1.3875
0 0.125 1.3875
0 0.0625 1.3875
0.0625 0.125 1.45
0 0.0625 1.45
0.125 0 1.3875
0.125 0.0625 1.3875
0.1875 0.125 1.3875
0.1875 0.0625 1.3875
0.25 0.125 1.3875
0.1875 0.0625 1.45
0.25 0.0625 1.45
0.1875 0 1.45
0.1875 0 1.3875
0.1875 0.125 1.45
0.25 0 1.3875
0.25 0.0625 1.3875
0.3125 0.125 1.3875
0.3125 0.0625 1.3875
0.375 0.125 1.3875
0.3125 0.0625 1.45
0.375 0.0625 1.45
0.3125 0 1.45
0.3125 0 1.3875
0.3125 0.125 1.45
0.375 0 1.3875
0.375 0.0625 1.3875
0.4375 0.125 1.3875
0.4375 0.0625 1.3875
0.5 0.125 1.3875
0.4375 0.0625 1.45
0.5 0.0625 1.45
0.4375 0 1.45
0.4375 0 1.3875
0.4375 0.125 1.45
0.5 0 1.3875
0.5 0.0625 1.3875
0.5625 0.125 1.3875
0.5625 0.0625 1.3875
0.625 0.125 1.3875
0.5625 0.0625 1.45
0.625 0.0625 1.45
0.5625 0 1.45
0.5625 0 1.3875
0.5625 0.125 1.45
0.625 0 1.3875
0.625 0.0625 1.3875
0.6875 0.125 1.3875
0.6875 0.0625 1.3875
0.75 0.125 1.3875
0.6875 0.0625 1.45
0.75 0.0625 1.45
0.6875 0 1.45
0.6875 0 1.3875
0.6875 0.125 1.45
0.75 0 1.3875
0.75 0.0625 1.3875
0.8125 0.125 1.3875
0.8125 0.0625 1.3875
0.875 0.125 1.3875
0.8125 0.0625 1.45
0.875 0.0625 1.45
0.8125 0 1.45
0.8125 0 1.3875
0.8125 0.125 1.45
0.875 0 1.3875
0.875 0.0625 1.3875
0.9375 0.125 1.3875
0.9375 0.0625 1.3875
1 0.125 1.3875
0.9375 0.0625 1.45
1 0.0625 1.45
0.9375 0 1.45
0.9375 0 1.3875
0.9375 0.125 1.45
1 0 1.3875
1 0.0625 1.3875
1.0625 0.125 1.3875
1.0625 0.0625 1.3875
1.125 0.125 1.3875
1.0625 0.0625 1.45
1.125 0.0625 1.45
1.0625 0 1.45
1.0625 0 1.3875
1.0625 0.125 1.45
1.125 0 1.3875
1.125 0.0625 1.3875
1.1875 0.125 1.3875
1.1875 0.0625 1.3875
1.25 0.125 1.3875
1.1875 0.0625 1.45
1.25 0.0625 1.45
1.1875 0 1.45
1.1875 0 1.3875
1.1875 0.125 1.45
1.25 0 1.3875
1.25 0.0625 1.3875
1.3125 0.125 1.3875
1.3125 0.0625 1.3875
1.375 0.125 1.3875
1.3125 0.0625 1.45
1.375 0.0625 1.45
1.3125 0 1.45
1.3125 0 1.3875
1.3125 0.125 1.45
1.375 0 1.3875
1.375 0.0625 1.3875
1.4375 0.125 1.3875
1.4375 0.0625 1.3875
1.5 0.125 1.3875
1.4375 0.0625 1.45
1.5 0.0625 1.45
1.4375 0 1.45
1.4375 0 1.3875
1.4375 0.125 1.45
1.5 0 1.3875
1.5 0.0625 1.3875
1.5625 0.125 1.3875
1.5625 0.0625 1.3875
1.625 0.125 1.3875
1.5625 0.0625 1.45
1.625 0.0625 1.45
1.5625 0 1.45
1.5625 0 1.3875
1.5625 0.125 1.45
1.625 0 1.3875
1.625 0.0625 1.3875
1.6875 0.125 1.3875
1.6875 0.0625 1.3875
1.75 0.125 1.3875
1.6875 0.0625 1.45
1.75 0.0625 1.45
1.6875 0 1.45
1.6875 0 1.3875
1.6875 0.125 1.45
1.75 0 1.3875
1.75 0.0625 1.3875
1.8125 0.125 1.3875
1.8125 0.0625 1.3875
1.875 0.125 1.3875
1.8125 0.0625 1.45
1.875 0.0625 1.45
1.8125 0 1.45
1.8125 0 1.3875
1.8125 0.125 1.45
1.875 0 1.3875
1.875 0.0625 1.3875
1.9375 0.125 1.3875
1.9375 0.0625 1.3875
2 0.125 1.3875
1.9375 0.0625 1.45
2 0.0625 1.45
1.9375 0 1.45
1.9375 0 1.3875
1.9375 0.125 1.45
2 0 1.3875
2 0.0625 1.3875
2.0625 0.125 1.3875
2.0625 0.0625 1.3875
2.125 0.125 1.3875
2.0625 0.0625 1.45
2.125 0.0625 1.45
2.0625 0 1.45
2.0625 0 1.3875
2.0625 0.125 1.45
2.125 0 1.3875
2.125 0.0625 1.3875
2.1875 0.125 1.3875
2.1875 0.0625 1.3875
2.25 0.125 1.3875
2.1875 0.0625 1.45
2.25 0.0625 1.45
2.1875 0 1.45
2.1875 0 1.3875
2.1875 0.125 1.45
2.25 0 1.3875
2.25 0.0625 1.3875
2.3125 0.125 1.3875
2.3125 0.0625 1.3875
2.375 0.125 1.3875
2.3125 0.0625 1.45
2.375 0.0625 1.45
2.3125 0 1.45
2.3125 0 1.3875
2.3125 0.125 1.45
2.375 0 1.3875
2.375 0.0625 1.3875
2.4375 0.125 1.3875
2.4375 0.0625 1.3875
2.5 0.125 1.3875
2.4375 0.0625 1.45
2.5 0.0625 1.45
2.4375 0 1.45
2.4375 0 1.3875
2.4375 0.125 1.45
2.5 0 1.3875
2.5 0.0625 1.3875
2.5625 0.125 1.3875
2.5625 0.0625 1.3875
2.625 0.125 1.3875
2.5625 0.0625 1.45
2.625 0.0625 1.45
2.5625 0 1.45
2.5625 0 1.3875
2.5625 0.125 1.45
2.625 0 1.3875
2.625 0.0625 1.3875
2.6875 0.125 1.3875
2.6875 0.0625 1.3875
2.75 0.125 1.3875
2.6875 0.0625 1.45
2.75 0.0625 1.45
2.6875 0 1.45
2.6875 0 1.3875
2.6875 0.125 1.45
2.75 0 1.3875
2.75 0.0625 1.3875
2.8125 0.125 1.3875
2.8125 0.0625 1.3875
2.875 0.125 1.3875
2.8125 0.0625 1.45
2.875 0.0625 1.45
2.8125 0 1.45
2.8125 0 1.3875
2.8125 0.125 1.45
2.875 0 1.3875
2.875 0.0625 1.3875
2.9375 0.125 1.3875
2.9375 0.0625 1.3875
3 0.125 1.3875
2.9375 0.0625 1.45
3 0.0625 1.45
2.9375 0 1.45
2.9375 0 1.3875
2.9375 0.125 1.45
3 0 1.3875
3 0.0625 1.3875
3.0625 0.125 1.3875
3.0625 0.0625 1.3875
3.125 0.125 1.3875
3.0625 0.0625 1.45
3.125 0.0625 1.45
3.0625 0 1.45
3.0625 0 1.3875
3.0625 0.125 1.45
3.125 0 1.3875
3.125 0.0625 1.3875
3.1875 0.125 1.3875
3.1875 0.0625 1.3875
3.25 0.125 1.3875
3.1875 0.0625 1.45
3.25 0.0625 1.45
3.1875 0 1.45
3.1875 0 1.3875
3.1875 0.125 1.45
3.25 0 1.3875
3.25 0.0625 1.3875
3.3125 0.125 1.3875
3.3125 0.0625 1.3875
3.375 0.125 1.3875
3.3125 0.0625 1.45
3.375 0.0625 1.45
3.3125 0 1.45
3.3125 0 1.3875
3.3125 0.125 1.45
3.375 0 1.3875
3.375 0.0625 1.3875
3.4375 0.125 1.3875
3.4375 0.0625 1.3875
3.5 0.125 1.3875
3.4375 0.0625 1.45
3.5 0.0625 1.45
3.4375 0 1.45
3.4375 0 1.3875
3.4375 0.125 1.45
3.5 0 1.3875
3.5 0.0625 1.3875
3.5625 0.125 1.3875
3.5625 0.0625 1.3875
3.625 0.125 1.3875
3.5625 0.0625 1.45
3.625 0.0625 1.45
3.5625 0 1.45
3.5625 0 1.3875
3.5625 0.125 1.45
3.625 0 1.3875
3.625 0.0625 1.3875
3.6875 0.125 1.3875
3.6875 0.0625 1.3875
3.75 0.125 1.3875
3.6875 0.0625 1.45
3.75 0.0625 1.45
3.6875 0 1.45
3.6875 0 1.3875
3.6875 0.125 1.45
3.75 0 1.3875
3.75 0.0625 1.3875
3.8125 0.125 1.3875
3.8125 0.0625 1.3875
3.875 0.125 1.3875
3.8125 0.0625 1.45
3.875 0.0625 1.45
3.8125 0 1.45
3.8125 0 1.3875
3.8125 0.125 1.45
3.875 0 1.3875
3.875 0.0625 1.3875
3.9375 0.125 1.3875
3.9375 0.0625 1.3875
4 0.125 1.3875
3.9375 0.0625 1.45
4 0.0625 1.45
3.9375 0 1.45
3.9375 0 1.3875
3.9375 0.125 1.45
4 0 1.3875
4 0.0625 1.3875
0.0625 0.25 1.3875
0.0625 0.1875 1.3875
0.125 0.25 1.3875
0.0625 0.1875 1.45
0.125 0.1875 1.45
0 0.25 1.3875
0 0.1875 1.3875
0.0625 0.25 1.45
0 0.1875 1.45
0.125 0.1875 1.3875
0.1875 0.25 1.3875
0.1875 0.1875 1.3875
0.25 0.25 1.3875
0.1875 0.1875 1.45
0.25 0.1875 1.45
0.1875 0.25 1.45
0.25 0.1875 1.3875
0.3125 0.25 1.3875
0.3125 0.1875 1.3875
0.375 0.25 1.3875
0.3125 0.1875 1.45
0.375 0.1875 1.45
0.3125 0.25 1.45
0.375 0.1875 1.3875
0.4375 0.25 1.3875
0.4375 0.1875 1.3875
0.5 0.25 1.3875
0.4375 0.1875 1.45
0.5 0.1875 1.45
0.4375 0.25 1.45
0.5 0.1875 1.3875
0.5625 0.25 1.3875
0.5625 0.1875 1.3875
0.625 0.25 1.3875
0.5625 0.1875 1.45
0.625 0.1875 1.45
0.5625 0.25 1.45
0.625 0.1875 1.3875
0.6875 0.25 1.3875
0.6875 0.1875 1.3875
0.75 0.25 1.3875
0.6875 0.1875 1.45
0.75 0.1875 1.45
0.6875 0.25 1.45
0.75 0.1875 1.3875
0.8125 0.25 1.3875
0.8125 0.1875 1.3875
0.875 0.25 1.3875
0.8125 0.1875 1.45
0.875 0.1875 1.45
0.8125 0.25 1.45
0.875 0.1875 1.3875
0.9375 0.25 1.3875
0.9375 0.1875 1.3875
1 0.25 1.3875
0.9375 0.1875 1.45
1 0.1875 1.45
0.9375 0.25 1.45
1 0.1875 1.3875
1.0625 0.25 1.3875
1.0625 0.1875 1.3875
1.125 0.25 1.3875
1.0625 0.1875 1.45
1.125 0.1875 1.45
1.0625 0.25 1.45
1.125 0.1875 1.3875
1.1875 0.25 1.3875
1.1875 0.1875 1.3875
1.25 0.25 1.3875
1.1875 0.1875 1.45
1.25 0.1875 1.45
1.1875 0.25 1.45
1.25 0.1875 1.3875
1.3125 0.25 1.3875
1.3125 0.1875 1.3875
1.375 0.25 1.3875
1.3125 0.1875 1.45
1.375 0.1875 1.45
1.3125 0.25 1.45
1.375 0.1875 1.3875
1.4375 0.25 1.3875
1.4375 0.1875 1.3875
1.5 0.25 1.3875
1.4375 0.1875 1.45
1.5 0.1875 1.45
1.4375 0.25 1.45
1.5 0.1875 1.3875
1.5625 0.25 1.3875
1.5625 0.1875 1.3875
1.625 0.25 1.3875
1.5625 0.1875 1.45
1.625 0.1875 1.45
1.5625 0.25 1.45
1.625 0.1875 1.3875
1.6875 0.25 1.3875
1.6875 0.1875 1.3875
1.75 0.25 1.3875
1.6875 0.1875 1.45
1.75 0.1875 1.45
1.6875 0.25 1.45
1.75 0.1875 1.3875
1.8125 0.25 1.3875
1.8125 0.1875 1.3875
1.875 0.25 1.3875
1.8125 0.1875 1.45
1.875 0.1875 1.45
1.8125 0.25 1.45
1.875 0.1875 1.3875
1.9375 0.25 1.3875
1.9375 0.1875 1.3875
2 0.25 1.3875
1.9375 0.1875 1.45
2 0.1875 1.45
1.9375 0.25 1.45
2 0.1875 1.3875
2.0625 0.25 1.3875
2.0625 0.1875 1.3875
2.125 0.25 1.3875
2.0625 0.1875 1.45
2.125 0.1875 1.45
2.0625 0.25 1.45
2.125 0.1875 1.3875
2.1875 0.25 1.3875
2.1875 0.1875 1.3875
2.25 0.25 1.3875
2.1875 0.1875 1.45
2.25 0.1875 1.45
2.1875 0.25 1.45
2.25 0.1875 1.3875
2.3125 0.25 1.3875
2.3125 0.1875 1.3875
2.375 0.25 1.3875
2.3125 0.1875 1.45
2.375 0.1875 1.45
2.3125 0.25 1.45
2.375 0.1875 1.3875
2.4375 0.25 1.3875
2.4375 0.1875 1.3875
2.5 0.25 1.3875
2.4375 0.1875 1.45
2.5 0.1875 1.45
2.4375 0.25 1.45
2.5 0.1875 1.3875
2.5625 0.25 1.3875
2.5625 0.1875 1.3875
2.625 0.25 1.3875
2.5625 0.1875 1.45
2.625 0.1875 1.45
2.5625 0.25 1.45
2.625 0.1875 1.3875
2.6875 0.25 1.3875
2.6875 0.1875 1.3875
2.75 0.25 1.3875
2.6875 0.1875 1.45
2.75 0.1875 1.45
2.6875 0.25 1.45
2.75 0.1875 1.3875
2.8125 0.25 1.3875
2.8125 0.1875 1.3875
2.875 0.25 1.3875
2.8125 0.1875 1.45
2.875 0.1875 1.45
2.8125 0.25 1.45
2.875 0.1875 1.3875
2.9375 0.25 1.3875
2.9375 0.1875 1.3875
3 0.25 1.3875
2.9375 0.1875 1.45
3 0.1875 1.45
2.9375 0.25 1.45
3 0.1875 1.3875
3.0625 0.25 1.3875
3.0625 0.1875 1.3875
3.125 0.25 1.3875
3.0625 0.1875 1.45
3.125 0.1875 1.45
3.0625 0.25 1.45
3.125 0.1875 1.3875
3.1875 0.25 1.3875
3.1875 0.1875 1.3875
3.25 0.25 1.3875
3.1875 0.1875 1.45
3.25 0.1875 1.45
3.1875 0.25 1.45
3.25 0.1875 1.3875
3.3125 0.25 1.3875
3.3125 0.1875 1.3875
3.375 0.25 1.3875
3.3125 0.1875 1.45
3.375 0.1875 1.45
3.3125 0.25 1.45
3.375 0.1875 1.3875
3.4375 0.25 1.3875
3.4375 0.1875 1.3875
3.5 0.25 1.3875
3.4375 0.1875 1.45
3.5 0.1875 1.45
3.4375 0.25 1.45
3.5 0.1875 1.3875
3.5625 0.25 1.3875
3.5625 0.1875 1.3875
3.625 0.25 1.3875
3.5625 0.1875 1.45
3.625 0.1875 1.45
3.5625 0.25 1.45
3.625 0.1875 1.3875
3.6875 0.25 1.3875
3.6875 0.1875 1.3875
3.75 0.25 1.3875
3.6875 0.1875 1.45
3.75 0.1875 1.45
3.6875 0.25 1.45
3.75 0.1875 1.3875
3.8125 0.25 1.3875
3.8125 0.1875 1.3875
3.875 0.25 1.3875
3.8125 0.1875 1.45
3.875 0.1875 1.45
3.8125 0.25 1.45
3.875 0.1875 1.3875
3.9375 0.25 1.3875
3.9375 0.1875 1.3875
4 0.25 1.3875
3.9375 0.1875 1.45
4 0.1875 1.45
3.9375 0.25 1.45
4 0.1875 1.3875
0.0625 0.375 1.3875
0.0625 0.3125 1.3875
0.125 0.375 1.3875
0.0625 0.3125 1.45
0.125 0.3125 1.45
0 0.375 1.3875
0 0.3125 1.3875
0.0625 0.375 1.45
0 0.3125 1.45
0.125 0.3125 1.3875
0.1875 0.375 1.3875
0.1875 0.3125 1.3875
0.25 0.375 1.3875
0.1875 0.3125 1.45
0.25 0.3125 1.45
0.1875 0.375 1.45
0.25 0.3125 1.3875
0.3125 0.375 1.3875
0.3125 0.3125 1.3875
0.375 0.375 1.3875
0.3125 0.3125 1.45
0.375 0.3125 1.45
0.3125 0.375 1.45
0.375 0.3125 1.3875
0.4375 0.375 1.3875
0.4375 0.3125 1.3875
0.5 0.375 1.3875
0.4375 0.3125 1.45
0.5 0.3125 1.45
0.4375 0.375 1.45
0.5 0.3125 1.3875
0.5625 0.375 1.3875
0.5625 0.3125 1.3875
0.625 0.375 1.3875
0.5625 0.3125 1.45
0.625 0.3125 1.45
0.5625 0.375 1.45
0.625 0.3125 1.3875
0.6875 0.375 1.3875
0.6875 0.3125 1.3875
0.75 0.375 1.3875
0.6875 0.3125 1.45
0.75 0.3125 1.45
0.6875 0.375 1.45
0.75 0.3125 1.3875
0.8125 0.375 1.3875
0.8125 0.3125 1.3875
0.875 0.375 1.3875
0.8125 0.3125 1.45
0.875 0.3125 1.45
0.8125 0.375 1.45
0.875 0.3125 1.3875
0.9375 0.375 1.3875
0.9375 0.3125 1.3875
1 0.375 1.3875
0.9375 0.3125 1.45
1 0.3125 1.45
0.9375 0.375 1.45
1 0.3125 1.3875
1.0625 0.375 1.3875
1.0625 0.3125 1.3875
1.125 0.375 1.3875
1.0625 0.3125 1.45
1.125 0.3125 1.45
1.0625 0.375 1.45
1.125 0.3125 1.3875
1.1875 0.375 1.3875
1.1875 0.3125 1.3875
1.25 0.375 1.3875
1.1875 0.3125 1.45
1.25 0.3125 1.45
1.1875 0.375 1.45
1.25 0.3125 1.3875
1.3125 0.375 1.3875
1.3125 0.3125 1.3875
1.375 0.375 1.3875
1.3125 0.3125 1.45
1.375 0.3125 1.45
1.3125 0.375 1.45
1.375 0.3125 1.3875
1.4375 0.375 1.3875
1.4375 0.3125 1.3875
1.5 0.375 1.3875
1.4375 0.3125 1.45
1.5 0.3125 1.45
1.4375 0.375 1.45
1.5 0.3125 1.3875
1.5625 0.375 1.3875
1.5625 0.3125 1.3875
1.625 0.375 1.3875
1.5625 0.3125 1.45
1.625 0.3125 1.45
1.5625 0.375 1.45
1.625 0.3125 1.3875
1.6875 0.375 1.3875
1.6875 0.3125 1.3875
1.75 0.375 1.3875
1.6875 0.3125 1.45
1.75 0.3125 1.45
1.6875 0.375 1.45
1.75 0.3125 1.3875
1.8125 0.375 1.3875
1.8125 0.3125 1.3875
1.875 0.375 1.3875
1.8125 0.3125 1.45
1.875 0.3125 1.45
1.8125 0.375 1.45
1.875 0.3125 1.3875
1.9375 0.375 1.3875
1.9375 0.3125 1.3875
2 0.375 1.3875
1.9375 0.3125 1.45
2 0.3125 1.45
1.9375 0.375 1.45
2 0.3125 1.3875
2.0625 0.375 1.3875
2.0625 0.3125 1.3875
2.125 0.375 1.3875
2.0625 0.3125 1.45
2.125 0.3125 1.45
2.0625 0.375 1.45
2.125 0.3125 1.3875
2.1875 0.375 1.3875
2.1875 0.3125 1.3875
2.25 0.375 1.3875
2.1875 0.3125 1.45
2.25 0.3125 1.45
2.1875 0.375 1.45
2.25 0.3125 1.3875
2.3125 0.375 1.3875
2.3125 0.3125 1.3875
2.375 0.375 1.3875
2.3125 0.3125 1.45
2.375 0.3125 1.45
2.3125 0.375 1.45
2.375 0.3125 1.3875
2.4375 0.375 1.3875
2.4375 0.3125 1.3875
2.5 0.375 1.3875
2.4375 0.3125 1.45
2.5 0.3125 1.45
2.4375 0.375 1.45
2.5 0.3125 1.3875
2.5625 0.375 1.3875
2.5625 0.3125 1.3875
2.625 0.375 1.3875
2.5625 0.3125 1.45
2.625 0.3125 1.45
2.5625 0.375 1.45
2.625 0.3125 1.3875
2.6875 0.375 1.3875
2.6875 0.3125 1.3875
2.75 0.375 1.3875
2.6875 0.3125 1.45
2.75 0.3125 1.45
2.6875 0.375 1.45
2.75 0.3125 1.3875
2.8125 0.375 1.3875
2.8125 0.3125 1.3875
2.875 0.375 1.3875
2.8125 0.3125 1.45
2.875 0.3125 1.45
2.8125 0.375 1.45
2.875 0.3125 1.3875
2.9375 0.375 1.3875
2.9375 0.3125 1.3875
3 0.375 1.3875
2.9375 0.3125 1.45
3 0.3125 1.45
2.9375 0.375 1.45
3 0.3125 1.3875
3.0625 0.375 1.3875
3.0625 0.3125 1.3875
3.125 0.375 1.3875
3.0625 0.3125 1.45
3.125 0.3125 1.45
3.0625 0.375 1.45
3.125 0.3125 1.3875
3.1875 0.375 1.3875
3.1875 0.3125 1.3875
3.25 0.375 1.3875
3.1875 0.3125 1.45
3.25 0.3125 1.45
3.1875 0.375 1.45
3.25 0.3125 1.3875
3.3125 0.375 1.3875
3.3125 0.3125 1.3875
3.375 0.375 1.3875
3.3125 0.3125 1.45
3.375 0.3125 1.45
3.3125 0.375 1.45
3.375 0.3125 1.3875
3.4375 0.375 1.3875
3.4375 0.3125 1.3875
3.5 0.375 1.3875
3.4375 0.3125 1.45
3.5 0.3125 1.45
3.4375 0.375 1.45
3.5 0.3125 1.3875
3.5625 0.375 1.3875
3.5625 0.3125 1.3875
3.625 0.375 1.3875
3.5625 0.3125 1.45
3.625 0.3125 1.45
3.5625 0.375 1.45
3.625 0.3125 1.3875
3.6875 0.375 1.3875
3.6875 0.3125 1.3875
3.75 0.375 1.3875
3.6875 0.3125 1.45
3.75 0.3125 1.45
3.6875 0.375 1.45
3.75 0.3125 1.3875
3.8125 0.375 1.3875
3.8125 0.3125 1.3875
3.875 0.375 1.3875
3.8125 0.3125 1.45
3.875 0.3125 1.45
3.8125 0.375 1.45
3.875 0.3125 1.3875
3.9375 0.375 1.3875
3.9375 0.3125 1.3875
4 0.375 1.3875
3.9375 0.3125 1.45
4 0.3125 1.45
3.9375 0.375 1.45
4 0.3125 1.3875
0.0625 0.5 1.3875
0.0625 0.4375 1.3875
0.125 0.5 1.3875
0.0625 0.4375 1.45
0.125 0.4375 1.45
0 0.5 1.3875
0 0.4375 1.3875
0.0625 0.5 1.45
0 0.4375 1.45
0.125 0.4375 1.3875
0.1875 0.5 1.3875
0.1875 0.4375 1.3875
0.25 0.5 1.3875
0.1875 0.4375 1.45
0.25 0.4375 1.45
0.1875 0.5 1.45
0.25 0.4375 1.3875
0.3125 0.5 1.3875
0.3125 0.4375 1.3875
0.375 0.5 1.3875
0.3125 0.4375 1.45
0.375 0.4375 1.45
0.3125 0.5 1.45
0.375 0.4375 1.3875
0.4375 0.5 1.3875
0.4375 0.4375 1.3875
0.5 0.5 1.3875
0.4375 0.4375 1.45
0.5 0.4375 1.45
0.4375 0.5 1.45
0.5 0.4375 1.3875
0.5625 0.5 1.3875
0.5625 0.4375 1.3875
0.625 0.5 1.3875
0.5625 0.4375 1.45
0.625 0.4375 1.45
0.5625 0.5 1.45
0.625 0.4375 1.3875
0.6875 0.5 1.3875
0.6875 0.4375 1.3875
0.75 0.5 1.3875
0.6875 0.4375 1.45
0.75 0.4375 1.45
0.6875 0.5 1.45
0.75 0.4375 1.3875
0.8125 0.5 1.3875
0.8125 0.4375 1.3875
0.875 0.5 1.3875
0.8125 0.4375 1.45
0.875 0.4375 1.45
0.8125 0.5 1.45
0.875 0.4375 1.3875
0.9375 0.5 1.3875
0.9375 0.4375 1.3875
1 0.5 1.3875
0.9375 0.4375 1.45
1 0.4375 1.45
0.9375 0.5 1.45
1 0.4375 1.3875
1.0625 0.5 1.3875
1.0625 0.4375 1.3875
1.125 0.5 1.3875
1.0625 0.4375 1.45
1.125 0.4375 1.45
1.0625 0.5 1.45
1.125 0.4375 1.3875
1.1875 0.5 1.3875
1.1875 0.4375 1.3875
1.25 0.5 1.3875
1.1875 0.4375 1.45
1.25 0.4375 1.45
1.1875 0.5 1.45
1.25 0.4375 1.3875
1.3125 0.5 1.3875
1.3125 0.4375 1.3875
1.375 0.5 1.3875
1.3125 0.4375 1.45
1.375 0.4375 1.45
1.3125 0.5 1.45
1.375 0.4375 1.3875
1.4375 0.5 1.3875
1.4375 0.4375 1.3875
1.5 0.5 1.3875
1.4375 0.4375 1.45
1.5 0.4375 1.45
1.4375 0.5 1.45
1.5 0.4375 1.3875
1.5625 0.5 1.3875
1.5625 0.4375 1.3875
1.625 0.5 1.3875
1.5625 0.4375 1.45
1.625 0.4375 1.45
1.5625 0.5 1.45
1.625 0.4375 1.3875
1.6875 0.5 1.3875
1.6875 0.4375 1.3875
1.75 0.5 1.3875
1.6875 0.4375 1.45
1.75 0.4375 1.45
1.6875 0.5 1.45
1.75 0.4375 1.3875
1.8125 0.5 1.3875
1.8125 0.4375 1.3875
1.875 0.5 1.3875
1.8125 0.4375 1.45
1.875 0.4375 1.45
1.8125 0.5 1.45
1.875 0.4375 1.3875
1.9375 0.5 1.3875
1.9375 0.4375 1.3875
2 0.5 1.3875
1.9375 0.4375 1.45
2 0.4375 1.45
1.9375 0.5 1.45
2 0.4375 1.3875
2.0625 0.5 1.3875
2.0625 0.4375 1.3875
2.125 0.5 1.3875
2.0625 0.4375 1.45
2.125 0.4375 1.45
2.0625 0.5 1.45
2.125 0.4375 1.3875
2.1875 0.5 1.3875
2.1875 0.4375 1.3875
2.25 0.5 1.3875
2.1875 0.4375 1.45
2.25 0.4375 1.45
2.1875 0.5 1.45
2.25 0.4375 1.3875
2.3125 0.5 1.3875
2.3125 0.4375 1.3875
2.375 0.5 1.3875
2.3125 0.4375 1.45
2.375 0.4375 1.45
2.3125 0.5 1.45
2.375 0.4375 1.3875
2.4375 0.5 1.3875
2.4375 0.4375 1.3875
2.5 0.5 1.3875
2.4375 0.4375 1.45
2.5 0.4375 1.45
2.4375 0.5 1.45
2.5 0.4375 1.3875
2.5625 0.5 1.3875
2.5625 0.4375 1.3875
2.625 0.5 1.3875
2.5625 0.4375 1.45
2.625 0.4375 1.45
2.5625 0.5 1.45
2.625 0.4375 1.3875
2.6875 0.5 1.3875
2.6875 0.4375 1.3875
2.75 0.5 1.3875
2.6875 0.4375 1.45
2.75 0.4375 1.45
2.6875 0.5 1.45
2.75 0.4375 1.3875
2.8125 0.5 1.3875
2.8125 0.4375 1.3875
2.875 0.5 1.3875
2.8125 0.4375 1.45
2.875 0.4375 1.45
2.8125 0.5 1.45
2.875 0.4375 1.3875
2.9375 0.5 1.3875
2.9375 0.4375 1.3875
3 0.5 1.3875
2.9375 0.4375 1.45
3 0.4375 1.45
2.9375 0.5 1.45
3 0.4375 1.3875
3.0625 0.5 1.3875
3.0625 0.4375 1.3875
3.125 0.5 1.3875
3.0625 0.4375 1.45
3.125 0.4375 1.45
3.0625 0.5 1.45
3.125 0.4375 1.3875
3.1875 0.5 1.3875
3.1875 0.4375 1.3875
3.25 0.5 1.3875
3.1875 0.4375 1.45
3.25 0.4375 1.45
3.1875 0.5 1.45
3.25 0.4375 1.3875
3.3125 0.5 1.3875
3.3125 0.4375 1.3875
3.375 0.5 1.3875
3.3125 0.4375 1.45
3.375 0.4375 1.45
3.3125 0.5 1.45
3.375 0.4375 1.3875
3.4375 0.5 1.3875
3.4375 0.4375 1.3875
3.5 0.5 1.3875
3.4375 0.4375 1.45
3.5 0.4375 1.45
3.4375 0.5 1.45
3.5 0.4375 1.3875
3.5625 0.5 1.3875
3.5625 0.4375 1.3875
3.625 0.5 1.3875
3.5625 0.4375 1.45
3.625 0.4375 1.45
3.5625 0.5 1.45
3.625 0.4375 1.3875
3.6875 0.5 1.3875
3.6875 0.4375 1.3875
3.75 0.5 1.3875
3.6875 0.4375 1.45
3.75 0.4375 1.45
3.6875 0.5 1.45
3.75 0.4375 1.3875
3.8125 0.5 1.3875
3.8125 0.4375 1.3875
3.875 0.5 1.3875
3.8125 0.4375 1.45
3.875 0.4375 1.45
3.8125 0.5 1.45
3.875 0.4375 1.3875
3.9375 0.5 1.3875
3.9375 0.4375 1.3875
4 0.5 1.3875
3.9375 0.4375 1.45
4 0.4375 1.45
3.9375 0.5 1.45
4 0.4375 1.3875
0.0625 0.625 1.3875
0.0625 0.5625 1.3875
0.125 0.625 1.3875
0.0625 0.5625 1.45
0.125 0.5625 1.45
0 0.625 1.3875
0 0.5625 1.3875
0.0625 0.625 1.45
0 0.5625 1.45
0.125 0.5625 1.3875
0.1875 0.625 1.3875
0.1875 0.5625 1.3875
0.25 0.625 1.3875
0.1875 0.5625 1.45
0.25 0.5625 1.45
0.1875 0.625 1.45
0.25 0.5625 1.3875
0.3125 0.625 1.3875
0.3125 0.5625 1.3875
0.375 0.625 1.3875
0.3125 0.5625 1.45
0.375 0.5625 1.45
0.3125 0.625 1.45
0.375 0.5625 1.3875
0.4375 0.625 1.3875
0.4375 0.5625 1.3875
0.5 0.625 1.3875
0.4375 0.5625 1.45
0.5 0.5625 1.45
0.4375 0.625 1.45
0.5 0.5625 1.3875
0.5625 0.625 1.3875
0.5625 0.5625 1.3875
0.625 0.625 1.3875
0.5625 0.5625 1.45
0.625 0.5625 1.45
0.5625 0.625 1.45
0.625 0.5625 1.3875
0.6875 0.625 1.3875
0.6875 0.5625 1.3875
0.75 0.625 1.3875
0.6875 0.5625 1.45
0.75 0.5625 1.45
0.6875 0.625 1.45
0.75 0.5625 1.3875
0.8125 0.625 1.3875
0.8125 0.5625 1.3875
0.875 0.625 1.3875
0.8125 0.5625 1.45
0.875 0.5625 1.45
0.8125 0.625 1.45
0.875 0.5625 1.3875
0.9375 0.625 1.3875
0.9375 0.5625 1.3875
1 0.625 1.3875
0.9375 0.5625 1.45
1 0.5625 1.45
0.9375 0.625 1.45
1 0.5625 1.3875
1.0625 0.625 1.3875
1.0625 0.5625 1.3875
1.125 0.625 1.3875
1.0625 0.5625 1.45
1.125 0.5625 1.45
1.0625 0.625 1.45
1.125 0.5625 1.3875
1.1875 0.625 1.3875
1.1875 0.5625 1.3875
1.25 0.625 1.3875
1.1875 0.5625 1.45
1.25 0.5625 1.45
1.1875 0.625 1.45
1.25 0.5625 1.3875
1.3125 0.625 1.3875
1.3125 0.5625 1.3875
1.375 0.625 1.3875
1.3125 0.5625 1.45
1.375 0.5625 1.45
1.3125 0.625 1.45
1.375 0.5625 1.3875
1.4375 0.625 1.3875
1.4375 0.5625 1.3875
1.5 0.625 1.3875
1.4375 0.5625 1.45
1.5 0.5625 1.45
1.4375 0.625 1.45
1.5 0.5625 1.3875
1.5625 0.625 1.3875
1.5625 0.5625 1.3875
1.625 0.625 1.3875
1.5625 0.5625 1.45
1.625 0.5625 1.45
1.5625 0.625 1.45
1.625 0.5625 1.3875
1.6875 0.625 1.3875
1.6875 0.5625 1.3875
1.75 0.625 1.3875
1.6875 0.5625 1.45
1.75 0.5625 1.45
1.6875 0.625 1.45
1.75 0.5625 1.3875
1.8125 0.625 1.3875
1.8125 0.5625 1.3875
1.875 0.625 1.3875
1.8125 0.5625 1.45
1.875 0.5625 1.45
1.8125 0.625 1.45
1.875 0.5625 1.3875
1.9375 0.625 1.3875
1.9375 0.5625 1.3875
2 0.625 1.3875
1.9375 0.5625 1.45
2 0.5625 1.45
1.9375 0.625 1.45
2 0.5625 1.3875
2.0625 0.625 1.3875
2.0625 0.5625 1.3875
2.125 0.625 1.3875
2.0625 0.5625 1.45
2.125 0.5625 1.45
2.0625 0.625 1.45
2.125 0.5625 1.3875
2.1875 0.625 1.3875
2.1875 0.5625 1.3875
2.25 0.625 1.3875
2.1875 0.5625 1.45
2.25 0.5625 1.45
2.1875 0.625 1.45
2.25 0.5625 1.3875
2.3125 0.625 1.3875
2.3125 0.5625 1.3875
2.375 0.625 1.3875
2.3125 0.5625 1.45
2.375 0.5625 1.45
2.3125 0.625 1.45
2.375 0.5625 1.3875
2.4375 0.625 1.3875
2.4375 0.5625 1.3875
2.5 0.625 1.3875
2.4375 0.5625 1.45
2.5 0.5625 1.45
2.4375 0.625 1.45
2.5 0.5625 1.3875
2.5625 0.625 1.3875
2.5625 0.5625 1.3875
2.625 0.625 1.3875
2.5625 0.5625 1.45
2.625 0.5625 1.45
2.5625 0.625 1.45
2.625 0.5625 1.3875
2.6875 0.625 1.3875
2.6875 0.5625 1.3875
2.75 0.625 1.3875
2.6875 0.5625 1.45
2.75 0.5625 1.45
2.6875 0.625 1.45
2.75 0.5625 1.3875
2.8125 0.625 1.3875
2.8125 0.5625 1.3875
2.875 0.625 1.3875
2.8125 0.5625 1.45
2.875 0.5625 1.45
2.8125 0.625 1.45
2.875 0.5625 1.3875
2.9375 0.625 1.3875
2.9375 0.5625 1.3875
3 0.625 1.3875
2.9375 0.5625 1.45
3 0.5625 1.45
2.9375 0.625 1.45
3 0.5625 1.3875
3.0625 0.625 1.3875
3.0625 0.5625 1.3875
3.125 0.625 1.3875
3.0625 0.5625 1.45
3.125 0.5625 1.45
3.0625 0.625 1.45
3.125 0.5625 1.3875
3.1875 0.625 1.3875
3.1875 0.5625 1.3875
3.25 0.625 1.3875
3.1875 0.5625 1.45
3.25 0.5625 1.45
3.1875 0.625 1.45
3.25 0.5625 1.3875
3.3125 0.625 1.3875
3.3125 0.5625 1.3875
3.375 0.625 1.3875
3.3125 0.5625 1.45
3.375 0.5625 1.45
3.3125 0.625 1.45
3.375 0.5625 1.3875
3.4375 0.625 1.3875
3.4375 0.5625 1.3875
3.5 0.625 1.3875
3.4375 0.5625 1.45
3.5 0.5625 1.45
3.4375 0.625 1.45
3.5 0.5625 1.3875
3.5625 0.625 1.3875
3.5625 0.5625 1.3875
3.625 0.625 1.3875
3.5625 0.5625 1.45
3.625 0.5625 1.45
3.5625 0.625 1.45
3.625 0.5625 1.3875
3.6875 0.625 1.3875
3.6875 0.5625 1.3875
3.75 0.625 1.3875
3.6875 0.5625 1.45
3.75 0.5625 1.45
3.6875 0.625 1.45
3.75 0.5625 1.3875
3.8125 0.625 1.3875
3.8125 0.5625 1.3875
3.875 0.625 1.3875
3.8125 0.5625 1.45
3.875 0.5625 1.45
3.8125 0.625 1.45
3.875 0.5625 1.3875
3.9375 0.625 1.3875
3.9375 0.5625 1.3875
4 0.625 1.3875
3.9375 0.5625 1.45
4 0.5625 1.45
3.9375 0.625 1.45
4 0.5625 1.3875
0.0625 0.75 1.3875
0.0625 0.6875 1.3875
0.125 0.75 1.3875
0.0625 0.6875 1.45
0.125 0.6875 1.45
0 0.75 1.3875
0 0.6875 1.3875
0.0625 0.75 1.45
0 0.6875 1.45
0.125 0.6875 1.3875
0.1875 0.75 1.3875
0.1875 0.6875 1.3875
0.25 0.75 1.3875
0.1875 0.6875 1.45
0.25 0.6875 1.45
0.1875 0.75 1.45
0.25 0.6875 1.3875
0.3125 0.75 1.3875
0.3125 0.6875 1.3875
0.375 0.75 1.3875
0.3125 0.6875 1.45
0.375 0.6875 1.45
0.3125 0.75 1.45
0.375 0.6875 1.3875
0.4375 0.75 1.3875
0.4375 0.6875 1.3875
0.5 0.75 1.3875
0.4375 0.6875 1.45
0.5 0.6875 1.45
0.4375 0.75 1.45
0.5 0.6875 1.3875
0.5625 0.75 1.3875
0.5625 0.6875 1.3875
0.625 0.75 1.3875
0.5625 0.6875 1.45
0.625 0.6875 1.45
0.5625 0.75 1.45
0.625 0.6875 1.3875
0.6875 0.75 1.3875
0.6875 0.6875 1.3875
0.75 0.75 1.3875
0.6875 0.6875 1.45
0.75 0.6875 1.45
0.6875 0.75 1.45
0.75 0.6875 1.3875
0.8125 0.75 1.3875
0.8125 0.6875 1.3875
0.875 0.75 1.3875
0.8125 0.6875 1.45
0.875 0.6875 1.45
0.8125 0.75 1.45
0.875 0.6875 1.3875
0.9375 0.75 1.3875
0.9375 0.6875 1.3875
1 0.75 1.3875
0.9375 0.6875 1.45
1 0.6875 1.45
0.9375 0.75 1.45
1 0.6875 1.3875
1.0625 0.75 1.3875
1.0625 0.6875 1.3875
1.125 0.75 1.3875
1.0625 0.6875 1.45
1.125 0.6875 1.45
1.0625 0.75 1.45
1.125 0.6875 1.3875
1.1875 0.75 1.3875
1.1875 0.6875 1.3875
1.25 0.75 1.3875
1.1875 0.6875 1.45
1.25 0.6875 1.45
1.1875 0.75 1.45
1.25 0.6875 1.3875
1.3125 0.75 1.3875
1.3125 0.6875 1.3875
1.375 0.75 1.3875
1.3125 0.6875 1.45
1.375 0.6875 1.45
1.3125 0.75 1.45
1.375 0.6875 1.3875
1.4375 0.75 1.3875
1.4375 0.6875 1.3875
1.5 0.75 1.3875
1.4375 0.6875 1.45
1.5 0.6875 1.45
1.4375 0.75 1.45
1.5 0.6875 1.3875
1.5625 0.75 1.3875
1.5625 0.6875 1.3875
1.625 0.75 1.3875
1.5625 0.6875 1.45
1.625 0.6875 1.45
1.5625 0.75 1.45
1.625 0.6875 1.3875
1.6875 0.75 1.3875
1.6875 0.6875 1.3875
1.75 0.75 1.3875
1.6875 0.6875 1.45
1.75 0.6875 1.45
1.6875 0.75 1.45
1.75 0.6875 1.3875
1.8125 0.75 1.3875
1.8125 0.6875 1.3875
1.875 0.75 1.3875
1.8125 0.6875 1.45
1.875 0.6875 1.45
1.8125 0.75 1.45
1.875 0.6875 1.3875
1.9375 0.75 1.3875
1.9375 0.6875 1.3875
2 0.75 1.3875
1.9375 0.6875 1.45
2 0.6875 1.45
1.9375 0.75 1.45
2 0.6875 1.3875
2.0625 0.75 1.3875
2.0625 0.6875 1.3875
2.125 0.75 1.3875
2.0625 0.6875 1.45
2.125 0.6875 1.45
2.0625 0.75 1.45
2.125 0.6875 1.3875
2.1875 0.75 1.3875
2.1875 0.6875 1.3875
2.25 0.75 1.3875
2.1875 0.6875 1.45
2.25 0.6875 1.45
2.1875 0.75 1.45
2.25 0.6875 1.3875
2.3125 0.75 1.3875
2.3125 0.6875 1.3875
2.375 0.75 1.3875
2.3125 0.6875 1.45
2.375 0.6875 1.45
2.3125 0.75 1.45
2.375 0.6875 1.3875
2.4375 0.75 1.3875
2.4375 0.6875 1.3875
2.5 0.75 1.3875
2.4375 0.6875 1.45
2.5 0.6875 1.45
2.4375 0.75 1.45
2.5 0.6875 1.3875
2.5625 0.75 1.3875
2.5625 0.6875 1.3875
2.625 0.75 1.3875
2.5625 0.6875 1.45
2.625 0.6875 1.45
2.5625 0.75 1.45
2.625 0.6875 1.3875
2.6875 0.75 1.3875
2.6875 0.6875 1.3875
2.75 0.75 1.3875
2.6875 0.6875 1.45
2.75 0.6875 1.45
2.6875 0.75 1.45
2.75 0.6875 1.3875
2.8125 0.75 1.3875
2.8125 0.6875 1.3875
2.875 0.75 1.3875
2.8125 0.6875 1.45
2.875 0.6875 1.45
2.8125 0.75 1.45
2.875 0.6875 1.3875
2.9375 0.75 1.3875
2.9375 0.6875 1.3875
3 0.75 1.3875
2.9375 0.6875 1.45
3 0.6875 1.45
2.9375 0.75 1.45
3 0.6875 1.3875
3.0625 0.75 1.3875
3.0625 0.6875 1.3875
3.125 0.75 1.3875
3.0625 0.6875 1.45
3.125 0.6875 1.45
3.0625 0.75 1.45
3.125 0.6875 1.3875
3.1875 0.75 1.3875
3.1875 0.6875 1.3875
3.25 0.75 1.3875
3.1875 0.6875 1.45
3.25 0.6875 1.45
3.1875 0.75 1.45
3.25 0.6875 1.3875
3.3125 0.75 1.3875
3.3125 0.6875 1.3875
3.375 0.75 1.3875
3.3125 0.6875 1.45
3.375 0.6875 1.45
3.3125 0.75 1.45
3.375 0.6875 1.3875
3.4375 0.75 1.3875
3.4375 0.6875 1.3875
3.5 0.75 1.3875
3.4375 0.6875 1.45
3.5 0.6875 1.45
3.4375 0.75 1.45
3.5 0.6875 1.3875
3.5625 0.75 1.3875
3.5625 0.6875 1.3875
3.625 0.75 1.3875
3.5625 0.6875 1.45
3.625 0.6875 1.45
3.5625 0.75 1.45
3.625 0.6875 1.3875
3.6875 0.75 1.3875
3.6875 0.6875 1.3875
3.75 0.75 1.3875
3.6875 0.6875 1.45
3.75 0.6875 1.45
3.6875 0.75 1.45
3.75 0.6875 1.3875
3.8125 0.75 1.3875
3.8125 0.6875 1.3875
3.875 0.75 1.3875
3.8125 0.6875 1.45
3.875 0.6875 1.45
3.8125 0.75 1.45
3.875 0.6875 1.3875
3.9375 0.75 1.3875
3.9375 0.6875 1.3875
4 0.75 1.3875
3.9375 0.6875 1.45
4 0.6875 1.45
3.9375 0.75 1.45
4 0.6875 1.3875
0.0625 0.875 1.3875
0.0625 0.8125 1.3875
0.125 0.875 1.3875
0.0625 0.8125 1.45
0.125 0.8125 1.45
0 0.875 1.3875
0 0.8125 1.3875
0.0625 0.875 1.45
0 0.8125 1.45
0.125 0.8125 1.3875
0.1875 0.875 1.3875
0.1875 0.8125 1.3875
0.25 0.875 1.3875
0.1875 0.8125 1.45
0.25 0.8125 1.45
0.1875 0.875 1.45
0.25 0.8125 1.3875
0.3125 0.875 1.3875
0.3125 0.8125 1.3875
0.375 0.875 1.3875
0.3125 0.8125 1.45
0.375 0.8125 1.45
0.3125 0.875 1.45
0.375 0.8125 1.3875
0.4375 0.875 1.3875
0.4375 0.8125 1.3875
0.5 0.875 1.3875
0.4375 0.8125 1.45
0.5 0.8125 1.45
0.4375 0.875 1.45
0.5 0.8125 1.3875
0.5625 0.875 1.3875
0.5625 0.8125 1.3875
0.625 0.875 1.3875
0.5625 0.8125 1.45
0.625 0.8125 1.45
0.5625 0.875 1.45
0.625 0.8125 1.3875
0.6875 0.875 1.3875
0.6875 0.8125 1.3875
0.75 0.875 1.3875
0.6875 0.8125 1.45
0.75 0.8125 1.45
0.6875 0.875 1.45
0.75 0.8125 1.3875
0.8125 0.875 1.3875
0.8125 0.8125 1.3875
0.875 0.875 1.3875
0.8125 0.8125 1.45
0.875 0.8125 1.45
0.8125 0.875 1.45
0.875 0.8125 1.3875
0.9375 0.875 1.3875
0.9375 0.8125 1.3875
1 0.875 1.3875
0.9375 0.8125 1.45
1 0.8125 1.45
0.9375 0.875 1.45
1 0.8125 1.3875
1.0625 0.875 1.3875
1.0625 0.8125 1.3875
1.125 0.875 1.3875
1.0625 0.8125 1.45
1.125 0.8125 1.45
1.0625 0.875 1.45
1.125 0.8125 1.3875
1.1875 0.875 1.3875
1.1875 0.8125 1.3875
1.25 0.875 1.3875
1.1875 0.8125 1.45
1.25 0.8125 1.45
1.1875 0.875 1.45
1.25 0.8125 1.3875
1.3125 0.875 1.3875
1.3125 0.8125 1.3875
1.375 0.875 1.3875
1.3125 0.8125 1.45
1.375 0.8125 1.45
1.3125 0.875 1.45
1.375 0.8125 1.3875
1.4375 0.875 1.3875
1.4375 0.8125 1.3875
1.5 0.875 1.3875
1.4375 0.8125 1.45
1.5 0.8125 1.45
1.4375 0.875 1.45
1.5 0.8125 1.3875
1.5625 0.875 1.3875
1.5625 0.8125 1.3875
1.625 0.875 1.3875
1.5625 0.8125 1.45
1.625 0.8125 1.45
1.5625 0.875 1.45
1.625 0.8125 1.3875
1.6875 0.875 1.3875
1.6875 0.8125 1.3875
1.75 0.875 1.3875
1.6875 0.8125 1.45
1.75 0.8125 1.45
1.6875 0.875 1.45
1.75 0.8125 1.3875
1.8125 0.875 1.3875
1.8125 0.8125 1.3875
1.875 0.875 1.3875
1.8125 0.8125 1.45
1.875 0.8125 1.45
1.8125 0.875 1.45
1.875 0.8125 1.3875
1.9375 0.875 1.3875
1.9375 0.8125 1.3875
2 0.875 1.3875
1.9375 0.8125 1.45
2 0.8125 1.45
1.9375 0.875 1.45
2 0.8125 1.3875
2.0625 0.875 1.3875
2.0625 0.8125 1.3875
2.125 0.875 1.3875
2.0625 0.8125 1.45
2.125 0.8125 1.45
2.0625 0.875 1.45
2.125 0.8125 1.3875
2.1875 0.875 1.3875
2.1875 0.8125 1.3875
2.25 0.875 1.3875
2.1875 0.8125 1.45
2.25 0.8125 1.45
2.1875 0.875 1.45
2.25 0.8125 1.3875
2.3125 0.875 1.3875
2.3125 0.8125 1.3875
2.375 0.875 1.3875
2.3125 0.8125 1.45
2.375 0.8125 1.45
2.3125 0.875 1.45
2.375 0.8125 1.3875
2.4375 0.875 1.3875
2.4375 0.8125 1.3875
2.5 0.875 1.3875
2.4375 0.8125 1.45
2.5 0.8125 1.45
2.4375 0.875 1.45
2.5 0.8125 1.3875
2.5625 0.875 1.3875
2.5625 0.8125 1.3875
2.625 0.875 1.3875
2.5625 0.8125 1.45
2.625 0.8125 1.45
2.5625 0.875 1.45
2.625 0.8125 1.3875
2.6875 0.875 1.3875
2.6875 0.8125 1.3875
2.75 0.875 1.3875
2.6875 0.8125 1.45
2.75 0.8125 1.45
2.6875 0.875 1.45
2.75 0.8125 1.3875
2.8125 0.875 1.3875
2.8125 0.8125 1.3875
2.875 0.875 1.3875
2.8125 0.8125 1.45
2.875 0.8125 1.45
2.8125 0.875 1.45
2.875 0.8125 1.3875
2.9375 0.875 1.3875
2.9375 0.8125 1.3875
3 0.875 1.3875
2.9375 0.8125 1.45
3 0.8125 1.45
2.9375 0.875 1.45
3 0.8125 1.3875
3.0625 0.875 1.3875
3.0625 0.8125 1.3875
3.125 0.875 1.3875
3.0625 0.8125 1.45
3.125 0.8125 1.45
3.0625 0.875 1.45
3.125 0.8125 1.3875
3.1875 0.875 1.3875
3.1875 0.8125 1.3875
3.25 0.875 1.3875
3.1875 0.8125 1.45
3.25 0.8125 1.45
3.1875 0.875 1.45
3.25 0.8125 1.3875
3.3125 0.875 1.3875
3.3125 0.8125 1.3875
3.375 0.875 1.3875
3.3125 0.8125 1.45
3.375 0.8125 1.45
3.3125 0.875 1.45
3.375 0.8125 1.3875
3.4375 0.875 1.3875
3.4375 0.8125 1.3875
3.5 0.875 1.3875
3.4375 0.8125 1.45
3.5 0.8125 1.45
3.4375 0.875 1.45
3.5 0.8125 1.3875
3.5625 0.875 1.3875
3.5625 0.8125 1.3875
3.625 0.875 1.3875
3.5625 0.8125 1.45
3.625 0.8125 1.45
3.5625 0.875 1.45
3.625 0.8125 1.3875
3.6875 0.875 1.3875
3.6875 0.8125 1.3875
3.75 0.875 1.3875
3.6875 0.8125 1.45
3.75 0.8125 1.45
3.6875 0.875 1.45
3.75 0.8125 1.3875
3.8125 0.875 1.3875
3.8125 0.8125 1.3875
3.875 0.875 1.3875
3.8125 0.8125 1.45
3.875 0.8125 1.45
3.8125 0.875 1.45
3.875 0.8125 1.3875
3.9375 0.875 1.3875
3.9375 0.8125 1.3875
4 0.875 1.3875
3.9375 0.8125 1.45
4 0.8125 1.45
3.9375 0.875 1.45
4 0.8125 1.3875
0.0625 1 1.3875
0.0625 0.9375 1.3875
0.125 1 1.3875
0.0625 0.9375 1.45
0.125 0.9375 1.45
0 1 1.3875
0 0.9375 1.3875
0.0625 1 1.45
0 0.9375 1.45
0.125 0.9375 1.3875
0.1875 1 1.3875
0.1875 0.9375 1.3875
0.25 1 1.3875
0.1875 0.9375 1.45
0.25 0.9375 1.45
0.1875 1 1.45
0.25 0.9375 1.3875
0.3125 1 1.3875
0.3125 0.9375 1.3875
0.375 1 1.3875
0.3125 0.9375 1.45
0.375 0.9375 1.45
0.3125 1 1.45
0.375 0.9375 1.3875
0.4375 1 1.3875
0.4375 0.9375 1.3875
0.5 1 1.3875
0.4375 0.9375 1.45
0.5 0.9375 1.45
0.4375 1 1.45
0.5 0.9375 1.3875
0.5625 1 1.3875
0.5625 0.9375 1.3875
0.625 1 1.3875
0.5625 0.9375 1.45
0.625 0.9375 1.45
0.5625 1 1.45
0.625 0.9375 1.3875
0.6875 1 1.3875
0.6875 0.9375 1.3875
0.75 1 1.3875
0.6875 0.9375 1.45
0.75 0.9375 1.45
0.6875 1 1.45
0.75 0.9375 1.3875
0.8125 1 1.3875
0.8125 0.9375 1.3875
0.875 1 1.3875
0.8125 0.9375 1.45
0.875 0.9375 1.45
0.8125 1 1.45
0.875 0.9375 1.3875
0.9375 1 1.3875
0.9375 0.9375 1.3875
1 1 1.3875
0.9375 0.9375 1.45
1 0.9375 1.45
0.9375 1 1.45
1 0.9375 1.3875
1.0625 1 1.3875
1.0625 0.9375 1.3875
1.125 1 1.3875
1.0625 0.9375 1.45
1.125 0.9375 1.45
1.0625 1 1.45
1.125 0.9375 1.3875
1.1875 1 1.3875
1.1875 0.9375 1.3875
1.25 1 1.3875
1.1875 0.9375 1.45
1.25 0.9375 1.45
1.1875 1 1.45
1.25 0.9375 1.3875
1.3125 1 1.3875
1.3125 0.9375 1.3875
1.375 1 1.3875
1.3125 0.9375 1.45
1.375 0.9375 1.45
1.3125 1 1.45
1.375 0.9375 1.3875
1.4375 1 1.3875
1.4375 0.9375 1.3875
1.5 1 1.3875
1.4375 0.9375 1.45
1.5 0.9375 1.45
1.4375 1 1.45
1.5 0.9375 1.3875
1.5625 1 1.3875
1.5625 0.9375 1.3875
1.625 1 1.3875
1.5625 0.9375 1.45
1.625 0.9375 1.45
1.5625 1 1.45
1.625 0.9375 1.3875
1.6875 1 1.3875
1.6875 0.9375 1.3875
1.75 1 1.3875
1.6875 0.9375 1.45
1.75 0.9375 1.45
1.6875 1 1.45
1.75 0.9375 1.3875
1.8125 1 1.3875
1.8125 0.9375 1.3875
1.875 1 1.3875
1.8125 0.9375 1.45
1.875 0.9375 1.45
1.8125 1 1.45
1.875 0.9375 1.3875
1.9375 1 1.3875
1.9375 0.9375 1.3875
2 1 1.3875
1.9375 0.9375 1.45
2 0.9375 1.45
1.9375 1 1.45
2 0.9375 1.3875
2.0625 1 1.3875
2.0625 0.9375 1.3875
2.125 1 1.3875
2.0625 0.9375 1.45
2.125 0.9375 1.45
2.0625 1 1.45
2.125 0.9375 1.3875
2.1875 1 1.3875
2.1875 0.9375 1.3875
2.25 1 1.3875
2.1875 0.9375 1.45
2.25 0.9375 1.45
2.1875 1 1.45
2.25 0.9375 1.3875
2.3125 1 1.3875
2.3125 0.9375 1.3875
2.375 1 1.3875
2.3125 0.9375 1.45
2.375 0.9375 1.45
2.3125 1 1.45
2.375 0.9375 1.3875
2.4375 1 1.3875
2.4375 0.9375 1.3875
2.5 1 1.3875
2.4375 0.9375 1.45
2.5 0.9375 1.45
2.4375 1 1.45
2.5 0.9375 1.3875
2.5625 1 1.3875
2.5625 0.9375 1.3875
2.625 1 1.3875
2.5625 0.9375 1.45
2.625 0.9375 1.45
2.5625 1 1.45
2.625 0.9375 1.3875
2.6875 1 1.3875
2.6875 0.9375 1.3875
2.75 1 1.3875
2.6875 0.9375 1.45
2.75 0.9375 1.45
2.6875 1 1.45
2.75 0.9375 1.3875
2.8125 1 1.3875
2.8125 0.9375 1.3875
2.875 1 1.3875
2.8125 0.9375 1.45
2.875 0.9375 1.45
2.8125 1 1.45
2.875 0.9375 1.3875
2.9375 1 1.3875
2.9375 0.9375 1.3875
3 1 1.3875
2.9375 0.9375 1.45
3 0.9375 1.45
2.9375 1 1.45
3 0.9375 1.3875
3.0625 1 1.3875
3.0625 0.9375 1.3875
3.125 1 1.3875
3.0625 0.9375 1.45
3.125 0.9375 1.45
3.0625 1 1.45
3.125 0.9375 1.3875
3.1875 1 1.3875
3.1875 0.9375 1.3875
3.25 1 1.3875
3.1875 0.9375 1.45
3.25 0.9375 1.45
3.1875 1 1.45
3.25 0.9375 1.3875
3.3125 1 1.3875
3.3125 0.9375 1.3875
3.375 1 1.3875
3.3125 0.9375 1.45
3.375 0.9375 1.45
3.3125 1 1.45
3.375 0.9375 1.3875
3.4375 1 1.3875
3.4375 0.9375 1.3875
3.5 1 1.3875
3.4375 0.9375 1.45
3.5 0.9375 1.45
3.4375 1 1.45
3.5 0.9375 1.3875
3.5625 1 1.3875
3.5625 0.9375 1.3875
3.625 1 1.3875
3.5625 0.9375 1.45
3.625 0.9375 1.45
3.5625 1 1.45
3.625 0.9375 1.3875
3.6875 1 1.3875
3.6875 0.9375 1.3875
3.75 1 1.3875
3.6875 0.9375 1.45
3.75 0.9375 1.45
3.6875 1 1.45
3.75 0.9375 1.3875
3.8125 1 1.3875
3.8125 0.9375 1.3875
3.875 1 1.3875
3.8125 0.9375 1.45
3.875 0.9375 1.45
3.8125 1 1.45
3.875 0.9375 1.3875
3.9375 1 1.3875
3.9375 0.9375 1.3875
4 1 1.3875
3.9375 0.9375 1.45
4 0.9375 1.45
3.9375 1 1.45
4 0.9375 1.3875
0.0625 0.125 1.5125
0.0625 0.0625 1.5125
0.125 0.125 1.5125
0.0625 0.0625 1.575
0.125 0.0625 1.575
0.0625 0 1.575
0 0 1.5125
0.0625 0 1.5125
0 0.125 1.5125
0 0.0625 1.5125
0.0625 0.125 1.575
0 0.0625 1.575
0.125 0 1.5125
0.125 0.0625 1.5125
0.1875 0.125 1.5125
0.1875 0.0625 1.5125
0.25 0.125 1.5125
0.1875 0.0625 1.575
0.25 0.0625 1.575
0.1875 0 1.575
0.1875 0 1.5125
0.1875 0.125 1.575
0.25 0 1.5125
0.25 0.0625 1.5125
0.3125 0.125 1.5125
0.3125 0.0625 1.5125
0.375 0.125 1.5125
0.3125 0.0625 1.575
0.375 0.0625 1.575
0.3125 0 1.575
0.3125 0 1.5125
0.3125 0.125 1.575
0.375 0 1.5125
0.375 0.0625 1.5125
0.4375 0.125 1.5125
0.4375 0.0625 1.5125
0.5 0.125 1.5125
0.4375 0.0625 1.575
0.5 0.0625 1.575
0.4375 0 1.575
0.4375 0 1.5125
0.4375 0.125 1.575
0.5 0 1.5125
0.5 0.0625 1.5125
0.5625 0.125 1.5125
0.5625 0.0625 1.5125
0.625 0.125 1.5125
0.5625 0.0625 1.575
0.625 0.0625 1.575
0.5625 0 1.575
0.5625 0 1.5125
0.5625 0.125 1.575
0.625 0 1.5125
0.625 0.0625 1.5125
0.6875 0.125 1.5125
0.6875 0.0625 1.5125
0.75 0.125 1.5125
0.6875 0.0625 1.575
0.75 0.0625 1.575
0.6875 0 1.575
0.6875 0 1.5125
0.6875 0.125 1.575
0.75 0 1.5125
0.75 0.0625 1.5125
0.8125 0.125 1.5125
0.8125 0.0625 1.5125
0.875 0.125 1.5125
0.8125 0.0625 1.575
0.875 0.0625 1.575
0.8125 0 1.575
0.8125 0 1.5125
0.8125 0.125 1.575
0.875 0 1.5125
0.875 0.0625 1.5125
0.9375 0.125 1.5125
0.9375 0.0625 1.5125
1 0.125 1.5125
0.9375 0.0625 1.575
1 0.0625 1.575
0.9375 0 1.575
0.9375 0 1.5125
0.9375 0.125 1.575
1 0 1.5125
1 0.0625 1.5125
1.0625 0.125 1.5125
1.0625 0.0625 1.5125
1.125 0.125 1.5125
1.0625 0.0625 1.575
1.125 0.0625 1.575
1.0625 0 1.575
1.0625 0 1.5125
1.0625 0.125 1.575
1.125 0 1.5125
1.125 0.0625 1.5125
1.1875 0.125 1.5125
1.1875 0.0625 1.5125
1.25 0.125 1.5125
1.1875 0.0625 1.575
1.25 0.0625 1.575
1.1875 0 1.575
1.1875 0 1.5125
1.1875 0.125 1.575
1.25 0 1.5125
1.25 0.0625 1.5125
1.3125 0.125 1.5125
1.3125 0.0625 1.5125
1.375 0.125 1.5125
1.3125 0.0625 1.575
1.375 0.0625 1.575
1.3125 0 1.575
1.3125 0 1.5125
1.3125 0.125 1.575
1.375 0 1.5125
1.375 0.0625 1.5125
1.4375 0.125 1.5125
1.4375 0.0625 1.5125
1.5 0.125 1.5125
1.4375 0.0625 1.575
1.5 0.0625 1.575
1.4375 0 1.575
1.4375 0 1.5125
1.4375 0.125 1.575
1.5 0 1.5125
1.5 0.0625 1.5125
1.5625 0.125 1.5125
1.5625 0.0625 1.5125
1.625 0.125 1.5125
1.5625 0.0625 1.575
1.625 0.0625 1.575
1.5625 0 1.575
1.5625 0 1.5125
1.5625 0.125 1.575
1.625 0 1.5125
1.625 0.0625 1.5125
1.6875 0.125 1.5125
1.6875 0.0625 1.5125
1.75 0.125 1.5125
1.6875 0.0625 1.575
1.75 0.0625 1.575
1.6875 0 1.575
1.6875 0 1.5125
1.6875 0.125 1.575
1.75 0 1.5125
1.75 0.0625 1.5125
1.8125 0.125 1.5125
1.8125 0.0625 1.5125
1.875 0.125 1.5125
1.8125 0.0625 1.575
1.875 0.0625 1.575
1.8125 0 1.575
1.8125 0 1.5125
1.8125 0.125 1.575
1.875 0 1.5125
1.875 0.0625 1.5125
1.9375 0.125 1.5125
1.9375 0.0625 1.5125
2 0.125 1.5125
1.9375 0.0625 1.575
2 0.0625 1.575
1.9375 0 1.575
1.9375 0 1.5125
1.9375 0.125 1.575
2 0 1.5125
2 0.0625 1.5125
2.0625 0.125 1.5125
2.0625 0.0625 1.5125
2.125 0.125 1.5125
2.0625 0.0625 1.575
2.125 0.0625 1.575
2.0625 0 1.575
2.0625 0 1.5125
2.0625 0.125 1.575
2.125 0 1.5125
2.125 0.0625 1.5125
2.1875 0.125 1.5125
2.1875 0.0625 1.5125
2.25 0.125 1.5125
2.1875 0.0625 1.575
2.25 0.0625 1.575
2.1875 0 1.575
2.1875 0 1.5125
2.1875 0.125 1.575
2.25 0 1.5125
2.25 0.0625 1.5125
2.3125 0.125 1.5125
2.3125 0.0625 1.5125
2.375 0.125 1.5125
2.3125 0.0625 1.575
2.375 0.0625 1.575
2.3125 0 1.575
2.3125 0 1.5125
2.3125 0.125 1.575
2.375 0 1.5125
2.375 0.0625 1.5125
2.4375 0.125 1.5125
2.4375 0.0625 1.5125
2.5 0.125 1.5125
2.4375 0.0625 1.575
2.5 0.0625 1.575
2.4375 0 1.575
2.4375 0 1.5125
2.4375 0.125 1.575
2.5 0 1.5125
2.5 0.0625 1.5125
2.5625 0.125 1.5125
2.5625 0.0625 1.5125
2.625 0.125 1.5125
2.5625 0.0625 1.575
2.625 0.0625 1.575
2.5625 0 1.575
2.5625 0 1.5125
2.5625 0.125 1.575
2.625 0 1.5125
2.625 0.0625 1.5125
2.6875 0.125 1.5125
2.6875 0.0625 1.5125
2.75 0.125 1.5125
2.6875 0.0625 1.575
2.75 0.0625 1.575
2.6875 0 1.575
2.6875 0 1.5125
2.6875 0.125 1.575
2.75 0 1.5125
2.75 0.0625 1.5125
2.8125 0.125 1.5125
2.8125 0.0625 1.5125
2.875 0.125 1.5125
2.8125 0.0625 1.575
2.875 0.0625 1.575
2.8125 0 1.575
2.8125 0 1.5125
2.8125 0.125 1.575
2.875 0 1.5125
2.875 0.0625 1.5125
2.9375 0.125 1.5125
2.9375 0.0625 1.5125
3 0.125 1.5125
2.9375 0.0625 1.575
3 0.0625 1.575
2.9375 0 1.575
2.9375 0 1.5125
2.9375 0.125 1.575
3 0 1.5125
3 0.0625 1.5125
3.0625 0.125 1.5125
3.0625 0.0625 1.5125
3.125 0.125 1.5125
3.0625 0.0625 1.575
3.125 0.0625 1.575
3.0625 0 1.575
3.0625 0 1.5125
3.0625 0.125 1.575
3.125 0 1.5125
3.125 0.0625 1.5125
3.1875 0.125 1.5125
3.1875 0.0625 1.5125
3.25 0.125 1.5125
3.1875 0.0625 1.575
3.25 0.0625 1.575
3.1875 0 1.575
3.1875 0 1.5125
3.1875 0.125 1.575
3.25 0 1.5125
3.25 0.0625 1.5125
3.3125 0.125 1.5125
3.3125 0.0625 1.5125
3.375 0.125 1.5125
3.3125 0.0625 1.575
3.375 0.0625 1.575
3.3125 0 1.575
3.3125 0 1.5125
3.3125 0.125 1.575
3.375 0 1.5125
3.375 0.0625 1.5125
3.4375 0.125 1.5125
3.4375 0.0625 1.5125
3.5 0.125 1.5125
3.4375 0.0625 1.575
3.5 0.0625 1.575
3.4375 0 1.575
3.4375 0 1.5125
3.4375 0.125 1.575
3.5 0 1.5125
3.5 0.0625 1.5125
3.5625 0.125 1.5125
3.5625 0.0625 1.5125
3.625 0.125 1.5125
3.5625 0.0625 1.575
3.625 0.0625 1.575
3.5625 0 1.575
3.5625 0 1.5125
3.5625 0.125 1.575
3.625 0 1.5125
3.625 0.0625 1.5125
3.6875 0.125 1.5125
3.6875 0.0625 1.5125
3.75 0.125 1.5125
3.6875 0.0625 1.575
3.75 0.0625 1.575
3.6875 0 1.575
3.6875 0 1.5125
3.6875 0.125 1.575
3.75 0 1.5125
3.75 0.0625 1.5125
3.8125 0.125 1.5125
3.8125 0.0625 1.5125
3.875 0.125 1.5125
3.8125 0.0625 1.575
3.875 0.0625 1.575
3.8125 0 1.575
3.8125 0 1.5125
3.8125 0.125 1.575
3.875 0 1.5125
3.875 0.0625 1.5125
3.9375 0.125 1.5125
3.9375 0.0625 1.5125
4 0.125 1.5125
3.9375 0.0625 1.575
4 0.0625 1.575
3.9375 0 1.575
3.9375 0 1.5125
3.9375 0.125 1.575
4 0 1.5125
4 0.0625 1.5125
0.0625 0.25 1.5125
0.0625 0.1875 1.5125
0.125 0.25 1.5125
0.0625 0.1875 1.575
0.125 0.1875 1.575
0 0.25 1.5125
0 0.1875 1.5125
0.0625 0.25 1.575
0 0.1875 1.575
0.125 0.1875 1.5125
0.1875 0.25 1.5125
0.1875 0.1875 1.5125
0.25 0.25 1.5125
0.1875 0.1875 1.575
0.25 0.1875 1.575
0.1875 0.25 1.575
0.25 0.1875 1.5125
0.3125 0.25 1.5125
0.3125 0.1875 1.5125
0.375 0.25 1.5125
0.3125 0.1875 1.575
0.375 0.1875 1.575
0.3125 0.25 1.575
0.375 0.1875 1.5125
0.4375 0.25 1.5125
0.4375 0.1875 1.5125
0.5 0.25 1.5125
0.4375 0.1875 1.575
0.5 0.1875 1.575
0.4375 0.25 1.575
0.5 0.1875 1.5125
0.5625 0.25 1.5125
0.5625 0.1875 1.5125
0.625 0.25 1.5125
0.5625 0.1875 1.575
0.625 0.1875 1.575
0.5625 0.25 1.575
0.625 0.1875 1.5125
0.6875 0.25 1.5125
0.6875 0.1875 1.5125
0.75 0.25 1.5125
0.6875 0.1875 1.575
0.75 0.1875 1.575
0.6875 0.25 1.575
0.75 0.1875 1.5125
0.8125 0.25 1.5125
0.8125 0.1875 1.5125
0.875 0.25 1.5125
0.8125 0.1875 1.575
0.875 0.1875 1.575
0.8125 0.25 1.575
0.875 0.1875 1.5125
0.9375 0.25 1.5125
0.9375 0.1875 1.5125
1 0.25 1.5125
0.9375 0.1875 1.575
1 0.1875 1.575
0.9375 0.25 1.575
1 0.1875 1.5125
1.0625 0.25 1.5125
1.0625 0.1875 1.5125
1.125 0.25 1.5125
1.0625 0.1875 1.575
1.125 0.1875 1.575
1.0625 0.25 1.575
1.125 0.1875 1.5125
1.1875 0.25 1.5125
1.1875 0.1875 1.5125
1.25 0.25 1.5125
1.1875 0.1875 1.575
1.25 0.1875 1.575
1.1875 0.25 1.575
1.25 0.1875 1.5125
1.3125 0.25 1.5125
1.3125 0.1875 1.5125
1.375 0.25 1.5125
1.3125 0.1875 1.575
1.375 0.1875 1.575
1.3125 0.25 1.575
1.375 0.1875 1.5125
1.4375 0.25 1.5125
1.4375 0.1875 1.5125
1.5 0.25 1.5125
1.4375 0.1875 1.575
1.5 0.1875 1.575
1.4375 0.25 1.575
1.5 0.1875 1.5125
1.5625 0.25 1.5125
1.5625 0.1875 1.5125
1.625 0.25 1.5125
1.5625 0.1875 1.575
1.625 0.1875 1.575
1.5625 0.25 1.575
1.625 0.1875 1.5125
1.6875 0.25 1.5125
1.6875 0.1875 1.5125
1.75 0.25 1.5125
1.6875 0.1875 1.575
1.75 0.1875 1.575
1.6875 0.25 1.575
1.75 0.1875 1.5125
1.8125 0.25 1.5125
1.8125 0.1875 1.5125
1.875 0.25 1.5125
1.8125 0.1875 1.575
1.875 0.1875 1.575
1.8125 0.25 1.575
1.875 0.1875 1.5125
1.9375 0.25 1.5125
1.9375 0.1875 1.5125
2 0.25 1.5125
1.9375 0.1875 1.575
2 0.1875 1.575
1.9375 0.25 1.575
2 0.1875 1.5125
2.0625 0.25 1.5125
2.0625 0.1875 1.5125
2.125 0.25 1.5125
2.0625 0.1875 1.575
2.125 0.1875 1.575
2.0625 0.25 1.575
2.125 0.1875 1.5125
2.1875 0.25 1.5125
2.1875 0.1875 1.5125
2.25 0.25 1.5125
2.1875 0.1875 1.575
2.25 0.1875 1.575
2.1875 0.25 1.575
2.25 0.1875 1.5125
2.3125 0.25 1.5125
2.3125 0.1875 1.5125
2.375 0.25 1.5125
2.3125 0.1875 1.575
2.375 0.1875 1.575
2.3125 0.25 1.575
2.375 0.1875 1.5125
2.4375 0.25 1.5125
2.4375 0.1875 1.5125
2.5 0.25 1.5125
2.4375 0.1875 1.575
2.5 0.1875 1.575
2.4375 0.25 1.575
2.5 0.1875 1.5125
2.5625 0.25 1.5125
2.5625 0.1875 1.5125
2.625 0.25 1.5125
2.5625 0.1875 1.575
2.625 0.1875 1.575
2.5625 0.25 1.575
2.625 0.1875 1.5125
2.6875 0.25 1.5125
2.6875 0.1875 1.5125
2.75 0.25 1.5125
2.6875 0.1875 1.575
2.75 0.1875 1.575
2.6875 0.25 1.575
2.75 0.1875 1.5125
2.8125 0.25 1.5125
2.8125 0.1875 1.5125
2.875 0.25 1.5125
2.8125 0.1875 1.575
2.875 0.1875 1.575
2.8125 0.25 1.575
2.875 0.1875 1.5125
2.9375 0.25 1.5125
2.9375 0.1875 1.5125
3 0.25 1.5125
2.9375 0.1875 1.575
3 0.1875 1.575
2.9375 0.25 1.575
3 0.1875 1.5125
3.0625 0.25 1.5125
3.0625 0.1875 1.5125
3.125 0.25 1.5125
3.0625 0.1875 1.575
3.125 0.1875 1.575
3.0625 0.25 1.575
3.125 0.1875 1.5125
3.1875 0.25 1.5125
3.1875 0.1875 1.5125
3.25 0.25 1.5125
3.1875 0.1875 1.575
3.25 0.1875 1.575
3.1875 0.25 1.575
3.25 0.1875 1.5125
3.3125 0.25 1.5125
3.3125 0.1875 1.5125
3.375 0.25 1.5125
3.3125 0.1875 1.575
3.375 0.1875 1.575
3.3125 0.25 1.575
3.375 0.1875 1.5125
3.4375 0.25 1.5125
3.4375 0.1875 1.5125
3.5 0.25 1.5125
3.4375 0.1875 1.575
3.5 0.1875 1.575
3.4375 0.25 1.575
3.5 0.1875 1.5125
3.5625 0.25 1.5125
3.5625 0.1875 1.5125
3.625 0.25 1.5125
3.5625 0.1875 1.575
3.625 0.1875 1.575
3.5625 0.25 1.575
3.625 0.1875 1.5125
3.6875 0.25 1.5125
3.6875 0.1875 1.5125
3.75 0.25 1.5125
3.6875 0.1875 1.575
3.75 0.1875 1.575
3.6875 0.25 1.575
3.75 0.1875 1.5125
3.8125 0.25 1.5125
3.8125 0.1875 1.5125
3.875 0.25 1.5125
3.8125 0.1875 1.575
3.875 0.1875 1.575
3.8125 0.25 1.575
3.875 0.1875 1.5125
3.9375 0.25 1.5125
3.9375 0.1875 1.5125
4 0.25 1.5125
3.9375 0.1875 1.575
4 0.1875 1.575
3.9375 0.25 1.575
4 0.1875 1.5125
0.0625 0.375 1.5125
0.0625 0.3125 1.5125
0.125 0.375 1.5125
0.0625 0.3125 1.575
0.125 0.3125 1.575
0 0.375 1.5125
0 0.3125 1.5125
0.0625 0.375 1.575
0 0.3125 1.575
0.125 0.3125 1.5125
0.1875 0.375 1.5125
0.1875 0.3125 1.5125
0.25 0.375 1.5125
0.1875 0.3125 1.575
0.25 0.3125 1.575
0.1875 0.375 1.575
0.25 0.3125 1.5125
0.3125 0.375 1.5125
0.3125 0.3125 1.5125
0.375 0.375 1.5125
0.3125 0.3125 1.575
0.375 0.3125 1.575
0.3125 0.375 1.575
0.375 0.3125 1.5125
0.4375 0.375 1.5125
0.4375 0.3125 1.5125
0.5 0.375 1.5125
0.4375 0.3125 1.575
0.5 0.3125 1.575
0.4375 0.375 1.575
0.5 0.3125 1.5125
0.5625 0.375 1.5125
0.5625 0.3125 1.5125
0.625 0.375 1.5125
0.5625 0.3125 1.575
0.625 0.3125 1.575
0.5625 0.375 1.575
0.625 0.3125 1.5125
0.6875 0.375 1.5125
0.6875 0.3125 1.5125
0.75 0.375 1.5125
0.6875 0.3125 1.575
0.75 0.3125 1.575
0.6875 0.375 1.575
0.75 0.3125 1.5125
0.8125 0.375 1.5125
0.8125 0.3125 1.5125
0.875 0.375 1.5125
0.8125 0.3125 1.575
0.875 0.3125 1.575
0.8125 0.375 1.575
0.875 0.3125 1.5125
0.9375 0.375 1.5125
0.9375 0.3125 1.5125
1 0.375 1.5125
0.9375 0.3125 1.575
1 0.3125 1.575
0.9375 0.375 1.575
1 0.3125 1.5125
1.0625 0.375 1.5125
1.0625 0.3125 1.5125
1.125 0.375 1.5125
1.0625 0.3125 1.575
1.125 0.3125 1.575
1.0625 0.375 1.575
1.125 0.3125 1.5125
1.1875 0.375 1.5125
1.1875 0.3125 1.5125
1.25 0.375 1.5125
1.1875 0.3125 1.575
1.25 0.3125 1.575
1.1875 0.375 1.575
1.25 0.3125 1.5125
1.3125 0.375 1.5125
1.3125 0.3125 1.5125
1.375 0.375 1.5125
1.3125 0.3125 1.575
1.375 0.3125 1.575
1.3125 0.375 1.575
1.375 0.3125 1.5125
1.4375 0.375 1.5125
1.4375 0.3125 1.5125
1.5 0.375 1.5125
1.4375 0.3125 1.575
1.5 0.3125 1.575
1.4375 0.375 1.575
1.5 0.3125 1.5125
1.5625 0.375 1.5125
1.5625 0.3125 1.5125
1.625 0.375 1.5125
1.5625 0.3125 1.575
1.625 0.3125 1.575
1.5625 0.375 1.575
1.625 0.3125 1.5125
1.6875 0.375 1.5125
1.6875 0.3125 1.5125
1.75 0.375 1.5125
1.6875 0.3125 1.575
1.75 0.3125 1.575
1.6875 0.375 1.575
1.75 0.3125 1.5125
1.8125 0.375 1.5125
1.8125 0.3125 1.5125
1.875 0.375 1.5125
1.8125 0.3125 1.575
1.875 0.3125 1.575
1.8125 0.375 1.575
1.875 0.3125 1.5125
1.9375 0.375 1.5125
1.9375 0.3125 1.5125
2 0.375 1.5125
1.9375 0.3125 1.575
2 0.3125 1.575
1.9375 0.375 1.575
2 0.3125 1.5125
2.0625 0.375 1.5125
2.0625 0.3125 1.5125
2.125 0.375 1.5125
2.0625 0.3125 1.575
2.125 0.3125 1.575
2.0625 0.375 1.575
2.125 0.3125 1.5125
2.1875 0.375 1.5125
2.1875 0.3125 1.5125
2.25 0.375 1.5125
2.1875 0.3125 1.575
2.25 0.3125 1.575
2.1875 0.375 1.575
2.25 0.3125 1.5125
2.3125 0.375 1.5125
2.3125 0.3125 1.5125
2.375 0.375 1.5125
2.3125 0.3125 1.575
2.375 0.3125 1.575
2.3125 0.375 1.575
2.375 0.3125 1.5125
2.4375 0.375 1.5125
2.4375 0.3125 1.5125
2.5 0.375 1.5125
2.4375 0.3125 1.575
2.5 0.3125 1.575
2.4375 0.375 1.575
2.5 0.3125 1.5125
2.5625 0.375 1.5125
2.5625 0.3125 1.5125
2.625 0.375 1.5125
2.5625 0.3125 1.575
2.625 0.3125 1.575
2.5625 0.375 1.575
2.625 0.3125 1.5125
2.6875 0.375 1.5125
2.6875 0.3125 1.5125
2.75 0.375 1.5125
2.6875 0.3125 1.575
2.75 0.3125 1.575
2.6875 0.375 1.575
2.75 0.3125 1.5125
2.8125 0.375 1.5125
2.8125 0.3125 1.5125
2.875 0.375 1.5125
2.8125 0.3125 1.575
2.875 0.3125 1.575
2.8125 0.375 1.575
2.875 0.3125 1.5125
2.9375 0.375 1.5125
2.9375 0.3125 1.5125
3 0.375 1.5125
2.9375 0.3125 1.575
3 0.3125 1.575
2.9375 0.375 1.575
3 0.3125 1.5125
3.0625 0.375 1.5125
3.0625 0.3125 1.5125
3.125 0.375 1.5125
3.0625 0.3125 1.575
3.125 0.3125 1.575
3.0625 0.375 1.575
3.125 0.3125 1.5125
3.1875 0.375 1.5125
3.1875 0.3125 1.5125
3.25 0.375 1.5125
3.1875 0.3125 1.575
3.25 0.3125 1.575
3.1875 0.375 1.575
3.25 0.3125 1.5125
3.3125 0.375 1.5125
3.3125 0.3125 1.5125
3.375 0.375 1.5125
3.3125 0.3125 1.575
3.375 0.3125 1.575
3.3125 0.375 1.575
3.375 0.3125 1.5125
3.4375 0.375 1.5125
3.4375 0.3125 1.5125
3.5 0.375 1.5125
3.4375 0.3125 1.575
3.5 0.3125 1.575
3.4375 0.375 1.575
3.5 0.3125 1.5125
3.5625 0.375 1.5125
3.5625 0.3125 1.5125
3.625 0.375 1.5125
3.5625 0.3125 1.575
3.625 0.3125 1.575
3.5625 0.375 1.575
3.625 0.3125 1.5125
3.6875 0.375 1.5125
3.6875 0.3125 1.5125
3.75 0.375 1.5125
3.6875 0.3125 1.575
3.75 0.3125 1.575
3.6875 0.375 1.575
3.75 0.3125 1.5125
3.8125 0.375 1.5125
3.8125 0.3125 1.5125
3.875 0.375 1.5125
3.8125 0.3125 1.575
3.875 0.3125 1.575
3.8125 0.375 1.575
3.875 0.3125 1.5125
3.9375 0.375 1.5125
3.9375 0.3125 1.5125
4 0.375 1.5125
3.9375 0.3125 1.575
4 0.3125 1.575
3.9375 0.375 1.575
4 0.3125 1.5125
0.0625 0.5 1.5125
0.0625 0.4375 1.5125
0.125 0.5 1.5125
0.0625 0.4375 1.575
0.125 0.4375 1.575
0 0.5 1.5125
0 0.4375 1.5125
0.0625 0.5 1.575
0 0.4375 1.575
0.125 0.4375 1.5125
0.1875 0.5 1.5125
0.1875 0.4375 1.5125
0.25 0.5 1.5125
0.1875 0.4375 1.575
0.25 0.4375 1.575
0.1875 0.5 1.575
0.25 0.4375 1.5125
0.3125 0.5 1.5125
0.3125 0.4375 1.5125
0.375 0.5 1.5125
0.3125 0.4375 1.575
0.375 0.4375 1.575
0.3125 0.5 1.575
0.375 0.4375 1.5125
0.4375 0.5 1.5125
0.4375 0.4375 1.5125
0.5 0.5 1.5125
0.4375 0.4375 1.575
0.5 0.4375 1.575
0.4375 0.5 1.575
0.5 0.4375 1.5125
0.5625 0.5 1.5125
0.5625 0.4375 1.5125
0.625 0.5 1.5125
0.5625 0.4375 1.575
0.625 0.4375 1.575
0.5625 0.5 1.575
0.625 0.4375 1.5125
0.6875 0.5 1.5125
0.6875 0.4375 1.5125
0.75 0.5 1.5125
0.6875 0.4375 1.575
0.75 0.4375 1.575
0.6875 0.5 1.575
0.75 0.4375 1.5125
0.8125 0.5 1.5125
0.8125 0.4375 1.5125
0.875 0.5 1.5125
0.8125 0.4375 1.575
0.875 0.4375 1.575
0.8125 0.5 1.575
0.875 0.4375 1.5125
0.9375 0.5 1.5125
0.9375 0.4375 1.5125
1 0.5 1.5125
0.9375 0.4375 1.575
1 0.4375 1.575
0.9375 0.5 1.575
1 0.4375 1.5125
1.0625 0.5 1.5125
1.0625 0.4375 1.5125
1.125 0.5 1.5125
1.0625 0.4375 1.575
1.125 0.4375 1.575
1.0625 0.5 1.575
1.125 0.4375 1.5125
1.1875 0.5 1.5125
1.1875 0.4375 1.5125
1.25 0.5 1.5125
1.1875 0.4375 1.575
1.25 0.4375 1.575
1.1875 0.5 1.575
1.25 0.4375 1.5125
1.3125 0.5 1.5125
1.3125 0.4375 1.5125
1.375 0.5 1.5125
1.3125 0.4375 1.575
1.375 0.4375 1.575
1.3125 0.5 1.575
1.375 0.4375 1.5125
1.4375 0.5 1.5125
1.4375 0.4375 1.5125
1.5 0.5 1.5125
1.4375 0.4375 1.575
1.5 0.4375 1.575
1.4375 0.5 1.575
1.5 0.4375 1.5125
1.5625 0.5 1.5125
1.5625 0.4375 1.5125
1.625 0.5 1.5125
1.5625 0.4375 1.575
1.625 0.4375 1.575
1.5625 0.5 1.575
1.625 0.4375 1.5125
1.6875 0.5 1.5125
1.6875 0.4375 1.5125
1.75 0.5 1.5125
1.6875 0.4375 1.575
1.75 0.4375 1.575
1.6875 0.5 1.575
1.75 0.4375 1.5125
1.8125 0.5 1.5125
1.8125 0.4375 1.5125
1.875 0.5 1.5125
1.8125 0.4375 1.575
1.875 0.4375 1.575
1.8125 0.5 1.575
1.875 0.4375 1.5125
1.9375 0.5 1.5125
1.9375 0.4375 1.5125
2 0.5 1.5125
1.9375 0.4375 1.575
2 0.4375 1.575
1.9375 0.5 1.575
2 0.4375 1.5125
2.0625 0.5 1.5125
2.0625 0.4375 1.5125
2.125 0.5 1.5125
2.0625 0.4375 1.575
2.125 0.4375 1.575
2.0625 0.5 1.575
2.125 0.4375 1.5125
2.1875 0.5 1.5125
2.1875 0.4375 1.5125
2.25 0.5 1.5125
2.1875 0.4375 1.575
2.25 0.4375 1.575
2.1875 0.5 1.575
2.25 0.4375 1.5125
2.3125 0.5 1.5125
2.3125 0.4375 1.5125
2.375 0.5 1.5125
2.3125 0.4375 1.575
2.375 0.4375 1.575
2.3125 0.5 1.575
2.375 0.4375 1.5125
2.4375 0.5 1.5125
2.4375 0.4375 1.5125
2.5 0.5 1.5125
2.4375 0.4375 1.575
2.5 0.4375 1.575
2.4375 0.5 1.575
2.5 0.4375 1.5125
2.5625 0.5 1.5125
2.5625 0.4375 1.5125
2.625 0.5 1.5125
2.5625 0.4375 1.575
2.625 0.4375 1.575
2.5625 0.5 1.575
2.625 0.4375 1.5125
2.6875 0.5 1.5125
2.6875 0.4375 1.5125
2.75 0.5 1.5125
2.6875 0.4375 1.575
2.75 0.4375 1.575
2.6875 0.5 1.575
2.75 0.4375 1.5125
2.8125 0.5 1.5125
2.8125 0.4375 1.5125
2.875 0.5 1.5125
2.8125 0.4375 1.575
2.875 0.4375 1.575
2.8125 0.5 1.575
2.875 0.4375 1.5125
2.9375 0.5 1.5125
2.9375 0.4375 1.5125
3 0.5 1.5125
2.9375 0.4375 1.575
3 0.4375 1.575
2.9375 0.5 1.575
3 0.4375 1.5125
3.0625 0.5 1.5125
3.0625 0.4375 1.5125
3.125 0.5 1.5125
3.0625 0.4375 1.575
3.125 0.4375 1.575
3.0625 0.5 1.575
3.125 0.4375 1.5125
3.1875 0.5 1.5125
3.1875 0.4375 1.5125
3.25 0.5 1.5125
3.1875 0.4375 1.575
3.25 0.4375 1.575
3.1875 0.5 1.575
3.25 0.4375 1.5125
3.3125 0.5 1.5125
3.3125 0.4375 1.5125
3.375 0.5 1.5125
3.3125 0.4375 1.575
3.375 0.4375 1.575
3.3125 0.5 1.575
3.375 0.4375 1.5125
3.4375 0.5 1.5125
3.4375 0.4375 1.5125
3.5 0.5 1.5125
3.4375 0.4375 1.575
3.5 0.4375 1.575
3.4375 0.5 1.575
3.5 0.4375 1.5125
3.5625 0.5 1.5125
3.5625 0.4375 1.5125
3.625 0.5 1.5125
3.5625 0.4375 1.575
3.625 0.4375 1.575
3.5625 0.5 1.575
3.625 0.4375 1.5125
3.6875 0.5 1.5125
3.6875 0.4375 1.5125
3.75 0.5 1.5125
3.6875 0.4375 1.575
3.75 0.4375 1.575
3.6875 0.5 1.575
3.75 0.4375 1.5125
3.8125 0.5 1.5125
3.8125 0.4375 1.5125
3.875 0.5 1.5125
3.8125 0.4375 1.575
3.875 0.4375 1.575
3.8125 0.5 1.575
3.875 0.4375 1.5125
3.9375 0.5 1.5125
3.9375 0.4375 1.5125
4 0.5 1.5125
3.9375 0.4375 1.575
4 0.4375 1.575
3.9375 0.5 1.575
4 0.4375 1.5125
0.0625 0.625 1.5125
0.0625 0.5625 1.5125
0.125 0.625 1.5125
0.0625 0.5625 1.575
0.125 0.5625 1.575
0 0.625 1.5125
0 0.5625 1.5125
0.0625 0.625 1.575
0 0.5625 1.575
0.125 0.5625 1.5125
0.1875 0.625 1.5125
0.1875 0.5625 1.5125
0.25 0.625 1.5125
0.1875 0.5625 1.575
0.25 0.5625 1.575
0.1875 0.625 1.575
0.25 0.5625 1.5125
0.3125 0.625 1.5125
0.3125 0.5625 1.5125
0.375 0.625 1.5125
0.3125 0.5625 1.575
0.375 0.5625 1.575
0.3125 0.625 1.575
0.375 0.5625 1.5125
0.4375 0.625 1.5125
0.4375 0.5625 1.5125
0.5 0.625 1.5125
0.4375 0.5625 1.575
0.5 0.5625 1.575
0.4375 0.625 1.575
0.5 0.5625 1.5125
0.5625 0.625 1.5125
0.5625 0.5625 1.5125
0.625 0.625 1.5125
0.5625 0.5625 1.575
0.625 0.5625 1.575
0.5625 0.625 1.575
0.625 0.5625 1.5125
0.6875 0.625 1.5125
0.6875 0.5625 1.5125
0.75 0.625 1.5125
0.6875 0.5625 1.575
0.75 0.5625 1.575
0.6875 0.625 1.575
0.75 0.5625 1.5125
0.8125 0.625 1.5125
0.8125 0.5625 1.5125
0.875 0.625 1.5125
0.8125 0.5625 1.575
0.875 0.5625 1.575
0.8125 0.625 1.575
0.875 0.5625 1.5125
0.9375 0.625 1.5125
0.9375 0.5625 1.5125
1 0.625 1.5125
0.9375 0.5625 1.575
1 0.5625 1.575
0.9375 0.625 1.575
1 0.5625 1.5125
1.0625 0.625 1.5125
1.0625 0.5625 1.5125
1.125 0.625 1.5125
1.0625 0.5625 1.575
1.125 0.5625 1.575
1.0625 0.625 1.575
1.125 0.5625 1.5125
1.1875 0.625 1.5125
1.1875 0.5625 1.5125
1.25 0.625 1.5125
1.1875 0.5625 1.575
1.25 0.5625 1.575
1.1875 0.625 1.575
1.25 0.5625 1.5125
1.3125 0.625 1.5125
1.3125 0.5625 1.5125
1.375 0.625 1.5125
1.3125 0.5625 1.575
1.375 0.5625 1.575
1.3125 0.625 1.575
1.375 0.5625 1.5125
1.4375 0.625 1.5125
1.4375 0.5625 1.5125
1.5 0.625 1.5125
1.4375 0.5625 1.575
1.5 0.5625 1.575
1.4375 0.625 1.575
1.5 0.5625 1.5125
1.5625 0.625 1.5125
1.5625 0.5625 1.5125
1.625 0.625 1.5125
1.5625 0.5625 1.575
1.625 0.5625 1.575
1.5625 0.625 1.575
1.625 0.5625 1.5125
1.6875 0.625 1.5125
1.6875 0.5625 1.5125
1.75 0.625 1.5125
1.6875 0.5625 1.575
1.75 0.5625 1.575
1.6875 0.625 1.575
1.75 0.5625 1.5125
1.8125 0.625 1.5125
1.8125 0.5625 1.5125
1.875 0.625 1.5125
1.8125 0.5625 1.575
1.875 0.5625 1.575
1.8125 0.625 1.575
1.875 0.5625 1.5125
1.9375 0.625 1.5125
1.9375 0.5625 1.5125
2 0.625 1.5125
1.9375 0.5625 1.575
2 0.5625 1.575
1.9375 0.625 1.575
2 0.5625 1.5125
2.0625 0.625 1.5125
2.0625 0.5625 1.5125
2.125 0.625 1.5125
2.0625 0.5625 1.575
2.125 0.5625 1.575
2.0625 0.625 1.575
2.125 0.5625 1.5125
2.1875 0.625 1.5125
2.1875 0.5625 1.5125
2.25 0.625 1.5125
2.1875 0.5625 1.575
2.25 0.5625 1.575
2.1875 0.625 1.575
2.25 0.5625 1.5125
2.3125 0.625 1.5125
2.3125 0.5625 1.5125
2.375 0.625 1.5125
2.3125 0.5625 1.575
2.375 0.5625 1.575
2.3125 0.625 1.575
2.375 0.5625 1.5125
2.4375 0.625 1.5125
2.4375 0.5625 1.5125
2.5 0.625 1.5125
2.4375 0.5625 1.575
2.5 0.5625 1.575
2.4375 0.625 1.575
2.5 0.5625 1.5125
2.5625 0.625 1.5125
2.5625 0.5625 1.5125
2.625 0.625 1.5125
2.5625 0.5625 1.575
2.625 0.5625 1.575
2.5625 0.625 1.575
2.625 0.5625 1.5125
2.6875 0.625 1.5125
2.6875 0.5625 1.5125
2.75 0.625 1.5125
2.6875 0.5625 1.575
2.75 0.5625 1.575
2.6875 0.625 1.575
2.75 0.5625 1.5125
2.8125 0.625 1.5125
2.8125 0.5625 1.5125
2.875 0.625 1.5125
2.8125 0.5625 1.575
2.875 0.5625 1.575
2.8125 0.625 1.575
2.875 0.5625 1.5125
2.9375 0.625 1.5125
2.9375 0.5625 1.5125
3 0.625 1.5125
2.9375 0.5625 1.575
3 0.5625 1.575
2.9375 0.625 1.575
3 0.5625 1.5125
3.0625 0.625 1.5125
3.0625 0.5625 1.5125
3.125 0.625 1.5125
3.0625 0.5625 1.575
3.125 0.5625 1.575
3.0625 0.625 1.575
3.125 0.5625 1.5125
3.1875 0.625 1.5125
3.1875 0.5625 1.5125
3.25 0.625 1.5125
3.1875 0.5625 1.575
3.25 0.5625 1.575
3.1875 0.625 1.575
3.25 0.5625 1.5125
3.3125 0.625 1.5125
3.3125 0.5625 1.5125
3.375 0.625 1.5125
3.3125 0.5625 1.575
3.375 0.5625 1.575
3.3125 0.625 1.575
3.375 0.5625 1.5125
3.4375 0.625 1.5125
3.4375 0.5625 1.5125
3.5 0.625 1.5125
3.4375 0.5625 1.575
3.5 0.5625 1.575
3.4375 0.625 1.575
3.5 0.5625 1.5125
3.5625 0.625 1.5125
3.5625 0.5625 1.5125
3.625 0.625 1.5125
3.5625 0.5625 1.575
3.625 0.5625 1.575
3.5625 0.625 1.575
3.625 0.5625 1.5125
3.6875 0.625 1.5125
3.6875 0.5625 1.5125
3.75 0.625 1.5125
3.6875 0.5625 1.575
3.75 0.5625 1.575
3.6875 0.625 1.575
3.75 0.5625 1.5125
3.8125 0.625 1.5125
3.8125 0.5625 1.5125
3.875 0.625 1.5125
3.8125 0.5625 1.575
3.875 0.5625 1.575
3.8125 0.625 1.575
3.875 0.5625 1.5125
3.9375 0.625 1.5125
3.9375 0.5625 1.5125
4 0.625 1.5125
3.9375 0.5625 1.575
4 0.5625 1.575
3.9375 0.625 1.575
4 0.5625 1.5125
0.0625 0.75 1.5125
0.0625 0.6875 1.5125
0.125 0.75 1.5125
0.0625 0.6875 1.575
0.125 0.6875 1.575
0 0.75 1.5125
0 0.6875 1.5125
0.0625 0.75 1.575
0 0.6875 1.575
0.125 0.6875 1.5125
0.1875 0.75 1.5125
0.1875 0.6875 1.5125
0.25 0.75 1.5125
0.1875 0.6875 1.575
0.25 0.6875 1.575
0.1875 0.75 1.575
0.25 0.6875 1.5125
0.3125 0.75 1.5125
0.3125 0.6875 1.5125
0.375 0.75 1.5125
0.3125 0.6875 1.575
0.375 0.6875 1.575
0.3125 0.75 1.575
0.375 0.6875 1.5125
0.4375 0.75 1.5125
0.4375 0.6875 1.5125
0.5 0.75 1.5125
0.4375 0.6875 1.575
0.5 0.6875 1.575
0.4375 0.75 1.575
0.5 0.6875 1.5125
0.5625 0.75 1.5125
0.5625 0.6875 1.5125
0.625 0.75 1.5125
0.5625 0.6875 1.575
0.625 0.6875 1.575
0.5625 0.75 1.575
0.625 0.6875 1.5125
0.6875 0.75 1.5125
0.6875 0.6875 1.5125
0.75 0.75 1.5125
0.6875 0.6875 1.575
0.75 0.6875 1.575
0.6875 0.75 1.575
0.75 0.6875 1.5125
0.8125 0.75 1.5125
0.8125 0.6875 1.5125
0.875 0.75 1.5125
0.8125 0.6875 1.575
0.875 0.6875 1.575
0.8125 0.75 1.575
0.875 0.6875 1.5125
0.9375 0.75 1.5125
0.9375 0.6875 1.5125
1 0.75 1.5125
0.9375 0.6875 1.575
1 0.6875 1.575
0.9375 0.75 1.575
1 0.6875 1.5125
1.0625 0.75 1.5125
1.0625 0.6875 1.5125
1.125 0.75 1.5125
1.0625 0.6875 1.575
1.125 0.6875 1.575
1.0625 0.75 1.575
1.125 0.6875 1.5125
1.1875 0.75 1.5125
1.1875 0.6875 1.5125
1.25 0.75 1.5125
1.1875 0.6875 1.575
1.25 0.6875 1.575
1.1875 0.75 1.575
1.25 0.6875 1.5125
1.3125 0.75 1.5125
1.3125 0.6875 1.5125
1.375 0.75 1.5125
1.3125 0.6875 1.575
1.375 0.6875 1.575
1.3125 0.75 1.575
1.375 0.6875 1.5125
1.4375 0.75 1.5125
1.4375 0.6875 1.5125
1.5 0.75 1.5125
1.4375 0.6875 1.575
1.5 0.6875 1.575
1.4375 0.75 1.575
1.5 0.6875 1.5125
1.5625 0.75 1.5125
1.5625 0.6875 1.5125
1.625 0.75 1.5125
1.5625 0.6875 1.575
1.625 0.6875 1.575
1.5625 0.75 1.575
1.625 0.6875 1.5125
1.6875 0.75 1.5125
1.6875 0.6875 1.5125
1.75 0.75 1.5125
1.6875 0.6875 1.575
1.75 0.6875 1.575
1.6875 0.75 1.575
1.75 0.6875 1.5125
1.8125 0.75 1.5125
1.8125 0.6875 1.5125
1.875 0.75 1.5125
1.8125 0.6875 1.575
1.875 0.6875 1.575
1.8125 0.75 1.575
1.875 0.6875 1.5125
1.9375 0.75 1.5125
1.9375 0.6875 1.5125
2 0.75 1.5125
1.9375 0.6875 1.575
2 0.6875 1.575
1.9375 0.75 1.575
2 0.6875 1.5125
2.0625 0.75 1.5125
2.0625 0.6875 1.5125
2.125 0.75 1.5125
2.0625 0.6875 1.575
2.125 0.6875 1.575
2.0625 0.75 1.575
2.125 0.6875 1.5125
2.1875 0.75 1.5125
2.1875 0.6875 1.5125
2.25 0.75 1.5125
2.1875 0.6875 1.575
2.25 0.6875 1.575
2.1875 0.75 1.575
2.25 0.6875 1.5125
2.3125 0.75 1.5125
2.3125 0.6875 1.5125
2.375 0.75 1.5125
2.3125 0.6875 1.575
2.375 0.6875 1.575
2.3125 0.75 1.575
2.375 0.6875 1.5125
2.4375 0.75 1.5125
2.4375 0.6875 1.5125
2.5 0.75 1.5125
2.4375 0.6875 1.575
2.5 0.6875 1.575
2.4375 0.75 1.575
2.5 0.6875 1.5125
2.5625 0.75 1.5125
2.5625 0.6875 1.5125
2.625 0.75 1.5125
2.5625 0.6875 1.575
2.625 0.6875 1.575
2.5625 0.75 1.575
2.625 0.6875 1.5125
2.6875 0.75 1.5125
2.6875 0.6875 1.5125
2.75 0.75 1.5125
2.6875 0.6875 1.575
2.75 0.6875 1.575
2.6875 0.75 1.575
2.75 0.6875 1.5125
2.8125 0.75 1.5125
2.8125 0.6875 1.5125
2.875 0.75 1.5125
2.8125 0.6875 1.575
2.875 0.6875 1.575
2.8125 0.75 1.575
2.875 0.6875 1.5125
2.9375 0.75 1.5125
2.9375 0.6875 1.5125
3 0.75 1.5125
2.9375 0.6875 1.575
3 0.6875 1.575
2.9375 0.75 1.575
3 0.6875 1.5125
3.0625 0.75 1.5125
3.0625 0.6875 1.5125
3.125 0.75 1.5125
3.0625 0.6875 1.575
3.125 0.6875 1.575
3.0625 0.75 1.575
3.125 0.6875 1.5125
3.1875 0.75 1.5125
3.1875 0.6875 1.5125
3.25 0.75 1.5125
3.1875 0.6875 1.575
3.25 0.6875 1.575
3.1875 0.75 1.575
3.25 0.6875 1.5125
3.3125 0.75 1.5125
3.3125 0.6875 1.5125
3.375 0.75 1.5125
3.3125 0.6875 1.575
3.375 0.6875 1.575
3.3125 0.75 1.575
3.375 0.6875 1.5125
3.4375 0.75 1.5125
3.4375 0.6875 1.5125
3.5 0.75 1.5125
3.4375 0.6875 1.575
3.5 0.6875 1.575
3.4375 0.75 1.575
3.5 0.6875 1.5125
3.5625 0.75 1.5125
3.5625 0.6875 1.5125
3.625 0.75 1.5125
3.5625 0.6875 1.575
3.625 0.6875 1.575
3.5625 0.75 1.575
3.625 0.6875 1.5125
3.6875 0.75 1.5125
3.6875 0.6875 1.5125
3.75 0.75 1.5125
3.6875 0.6875 1.575
3.75 0.6875 1.575
3.6875 0.75 1.575
3.75 0.6875 1.5125
3.8125 0.75 1.5125
3.8125 0.6875 1.5125
3.875 0.75 1.5125
3.8125 0.6875 1.575
3.875 0.6875 1.575
3.8125 0.75 1.575
3.875 0.6875 1.5125
3.9375 0.75 1.5125
3.9375 0.6875 1.5125
4 0.75 1.5125
3.9375 0.6875 1.575
4 0.6875 1.575
3.9375 0.75 1.575
4 0.6875 1.5125
0.0625 0.875 1.5125
0.0625 0.8125 1.5125
0.125 0.875 1.5125
0.0625 0.8125 1.575
0.125 0.8125 1.575
0 0.875 1.5125
0 0.8125 1.5125
0.0625 0.875 1.575
0 0.8125 1.575
0.125 0.8125 1.5125
0.1875 0.875 1.5125
0.1875 0.8125 1.5125
0.25 0.875 1.5125
0.1875 0.8125 1.575
0.25 0.8125 1.575
0.1875 0.875 1.575
0.25 0.8125 1.5125
0.3125 0.875 1.5125
0.3125 0.8125 1.5125
0.375 0.875 1.5125
0.3125 0.8125 1.575
0.375 0.8125 1.575
0.3125 0.875 1.575
0.375 0.8125 1.5125
0.4375 0.875 1.5125
0.4375 0.8125 1.5125
0.5 0.875 1.5125
0.4375 0.8125 1.575
0.5 0.8125 1.575
0.4375 0.875 1.575
0.5 0.8125 1.5125
0.5625 0.875 1.5125
0.5625 0.8125 1.5125
0.625 0.875 1.5125
0.5625 0.8125 1.575
0.625 0.8125 1.575
0.5625 0.875 1.575
0.625 0.8125 1.5125
0.6875 0.875 1.5125
0.6875 0.8125 1.5125
0.75 0.875 1.5125
0.6875 0.8125 1.575
0.75 0.8125 1.575
0.6875 0.875 1.575
0.75 0.8125 1.5125
0.8125 0.875 1.5125
0.8125 0.8125 1.5125
0.875 0.875 1.5125
0.8125 0.8125 1.575
0.875 0.8125 1.575
0.8125 0.875 1.575
0.875 0.8125 1.5125
0.9375 0.875 1.5125
0.9375 0.8125 1.5125
1 0.875 1.5125
0.9375 0.8125 1.575
1 0.8125 1.575
0.9375 0.875 1.575
1 0.8125 1.5125
1.0625 0.875 1.5125
1.0625 0.8125 1.5125
1.125 0.875 1.5125
1.0625 0.8125 1.575
1.125 0.8125 1.575
1.0625 0.875 1.575
1.125 0.8125 1.5125
1.1875 0.875 1.5125
1.1875 0.8125 1.5125
1.25 0.875 1.5125
1.1875 0.8125 1.575
1.25 0.8125 1.575
1.1875 0.875 1.575
1.25 0.8125 1.5125
1.3125 0.875 1.5125
1.3125 0.8125 1.5125
1.375 0.875 1.5125
1.3125 0.8125 1.575
1.375 0.8125 1.575
1.3125 0.875 1.575
1.375 0.8125 1.5125
1.4375 0.875 1.5125
1.4375 0.8125 1.5125
1.5 0.875 1.5125
1.4375 0.8125 1.575
1.5 0.8125 1.575
1.4375 0.875 1.575
1.5 0.8125 1.5125
1.5625 0.875 1.5125
1.5625 0.8125 1.5125
1.625 0.875 1.5125
1.5625 0.8125 1.575
1.625 0.8125 1.575
1.5625 0.875 1.575
1.625 0.8125 1.5125
1.6875 0.875 1.5125
1.6875 0.8125 1.5125
1.75 0.875 1.5125
1.6875 0.8125 1.575
1.75 0.8125 1.575
1.6875 0.875 1.575
1.75 0.8125 1.5125
1.8125 0.875 1.5125
1.8125 0.8125 1.5125
1.875 0.875 1.5125
1.8125 0.8125 1.575
1.875 0.8125 1.575
1.8125 0.875 1.575
1.875 0.8125 1.5125
1.9375 0.875 1.5125
1.9375 0.8125 1.5125
2 0.875 1.5125
1.9375 0.8125 1.575
2 0.8125 1.575
1.9375 0.875 1.575
2 0.8125 1.5125
2.0625 0.875 1.5125
2.0625 0.8125 1.5125
2.125 0.875 1.5125
2.0625 0.8125 1.575
2.125 0.8125 1.575
2.0625 0.875 1.575
2.125 0.8125 1.5125
2.1875 0.875 1.5125
2.1875 0.8125 1.5125
2.25 0.875 1.5125
2.1875 0.8125 1.575
2.25 0.8125 1.575
2.1875 0.875 1.575
2.25 0.8125 1.5125
2.3125 0.875 1.5125
2.3125 0.8125 1.5125
2.375 0.875 1.5125
2.3125 0.8125 1.575
2.375 0.8125 1.575
2.3125 0.875 1.575
2.375 0.8125 1.5125
2.4375 0.875 1.5125
2.4375 0.8125 1.5125
2.5 0.875 1.5125
2.4375 0.8125 1.575
2.5 0.8125 1.575
2.4375 0.875 1.575
2.5 0.8125 1.5125
2.5625 0.875 1.5125
2.5625 0.8125 1.5125
2.625 0.875 1.5125
2.5625 0.8125 1.575
2.625 0.8125 1.575
2.5625 0.875 1.575
2.625 0.8125 1.5125
2.6875 0.875 1.5125
2.6875 0.8125 1.5125
2.75 0.875 1.5125
2.6875 0.8125 1.575
2.75 0.8125 1.575
2.6875 0.875 1.575
2.75 0.8125 1.5125
2.8125 0.875 1.5125
2.8125 0.8125 1.5125
2.875 0.875 1.5125
2.8125 0.8125 1.575
2.875 0.8125 1.575
2.8125 0.875 1.575
2.875 0.8125 1.5125
2.9375 0.875 1.5125
2.9375 0.8125 1.5125
3 0.875 1.5125
2.9375 0.8125 1.575
3 0.8125 1.575
2.9375 0.875 1.575
3 0.8125 1.5125
3.0625 0.875 1.5125
3.0625 0.8125 1.5125
3.125 0.875 1.5125
3.0625 0.8125 1.575
3.125 0.8125 1.575
3.0625 0.875 1.575
3.125 0.8125 1.5125
3.1875 0.875 1.5125
3.1875 0.8125 1.5125
3.25 0.875 1.5125
3.1875 0.8125 1.575
3.25 0.8125 1.575
3.1875 0.875 1.575
3.25 0.8125 1.5125
3.3125 0.875 1.5125
3.3125 0.8125 1.5125
3.375 0.875 1.5125
3.3125 0.8125 1.575
3.375 0.8125 1.575
3.3125 0.875 1.575
3.375 0.8125 1.5125
3.4375 0.875 1.5125
3.4375 0.8125 1.5125
3.5 0.875 1.5125
3.4375 0.8125 1.575
3.5 0.8125 1.575
3.4375 0.875 1.575
3.5 0.8125 1.5125
3.5625 0.875 1.5125
3.5625 0.8125 1.5125
3.625 0.875 1.5125
3.5625 0.8125 1.575
3.625 0.8125 1.575
3.5625 0.875 1.575
3.625 0.8125 1.5125
3.6875 0.875 1.5125
3.6875 0.8125 1.5125
3.75 0.875 1.5125
3.6875 0.8125 1.575
3.75 0.8125 1.575
3.6875 0.875 1.575
3.75 0.8125 1.5125
3.8125 0.875 1.5125
3.8125 0.8125 1.5125
3.875 0.875 1.5125
3.8125 0.8125 1.575
3.875 0.8125 1.575
3.8125 0.875 1.575
3.875 0.8125 1.5125
3.9375 0.875 1.5125
3.9375 0.8125 1.5125
4 0.875 1.5125
3.9375 0.8125 1.575
4 0.8125 1.575
3.9375 0.875 1.575
4 0.8125 1.5125
0.0625 1 1.5125
0.0625 0.9375 1.5125
0.125 1 1.5125
0.0625 0.9375 1.575
0.125 0.9375 1.575
0 1 1.5125
0 0.9375 1.5125
0.0625 1 1.575
0 0.9375 1.575
0.125 0.9375 1.5125
0.1875 1 1.5125
0.1875 0.9375 1.5125
0.25 1 1.5125
0.1875 0.9375 1.575
0.25 0.9375 1.575
0.1875 1 1.575
0.25 0.9375 1.5125
0.3125 1 1.5125
0.3125 0.9375 1.5125
0.375 1 1.5125
0.3125 0.9375 1.575
0.375 0.9375 1.575
0.3125 1 1.575
0.375 0.9375 1.5125
0.4375 1 1.5125
0.4375 0.9375 1.5125
0.5 1 1.5125
0.4375 0.9375 1.575
0.5 0.9375 1.575
0.4375 1 1.575
0.5 0.9375 1.5125
0.5625 1 1.5125
0.5625 0.9375 1.5125
0.625 1 1.5125
0.5625 0.9375 1.575
0.625 0.9375 1.575
0.5625 1 1.575
0.625 0.9375 1.5125
0.6875 1 1.5125
0.6875 0.9375 1.5125
0.75 1 1.5125
0.6875 0.9375 1.575
0.75 0.9375 1.575
0.6875 1 1.575
0.75 0.9375 1.5125
0.8125 1 1.5125
0.8125 0.9375 1.5125
0.875 1 1.5125
0.8125 0.9375 1.575
0.875 0.9375 1.575
0.8125 1 1.575
0.875 0.9375 1.5125
0.9375 1 1.5125
0.9375 0.9375 1.5125
1 1 1.5125
0.9375 0.9375 1.575
1 0.9375 1.575
0.9375 1 1.575
1 0.9375 1.5125
1.0625 1 1.5125
1.0625 0.9375 1.5125
1.125 1 1.5125
1.0625 0.9375 1.575
1.125 0.9375 1.575
1.0625 1 1.575
1.125 0.9375 1.5125
1.1875 1 1.5125
1.1875 0.9375 1.5125
1.25 1 1.5125
1.1875 0.9375 1.575
1.25 0.9375 1.575
1.1875 1 1.575
1.25 0.9375 1.5125
1.3125 1 1.5125
1.3125 0.9375 1.5125
1.375 1 1.5125
1.3125 0.9375 1.575
1.375 0.9375 1.575
1.3125 1 1.575
1.375 0.9375 1.5125
1.4375 1 1.5125
1.4375 0.9375 1.5125
1.5 1 1.5125
1.4375 0.9375 1.575
1.5 0.9375 1.575
1.4375 1 1.575
1.5 0.9375 1.5125
1.5625 1 1.5125
1.5625 0.9375 1.5125
1.625 1 1.5125
1.5625 0.9375 1.575
1.625 0.9375 1.575
1.5625 1 1.575
1.625 0.9375 1.5125
1.6875 1 1.5125
1.6875 0.9375 1.5125
1.75 1 1.5125
1.6875 0.9375 1.575
1.75 0.9375 1.575
1.6875 1 1.575
1.75 0.9375 1.5125
1.8125 1 1.5125
1.8125 0.9375 1.5125
1.875 1 1.5125
1.8125 0.9375 1.575
1.875 0.9375 1.575
1.8125 1 1.575
1.875 0.9375 1.5125
1.9375 1 1.5125
1.9375 0.9375 1.5125
2 1 1.5125
1.9375 0.9375 1.575
2 0.9375 1.575
1.9375 1 1.575
2 0.9375 1.5125
2.0625 1 1.5125
2.0625 0.9375 1.5125
2.125 1 1.5125
2.0625 0.9375 1.575
2.125 0.9375 1.575
2.0625 1 1.575
2.125 0.9375 1.5125
2.1875 1 1.5125
2.1875 0.9375 1.5125
2.25 1 1.5125
2.1875 0.9375 1.575
2.25 0.9375 1.575
2.1875 1 1.575
2.25 0.9375 1.5125
2.3125 1 1.5125
2.3125 0.9375 1.5125
2.375 1 1.5125
2.3125 0.9375 1.575
2.375 0.9375 1.575
2.3125 1 1.575
2.375 0.9375 1.5125
2.4375 1 1.5125
2.4375 0.9375 1.5125
2.5 1 1.5125
2.4375 0.9375 1.575
2.5 0.9375 1.575
2.4375 1 1.575
2.5 0.9375 1.5125
2.5625 1 1.5125
2.5625 0.9375 1.5125
2.625 1 1.5125
2.5625 0.9375 1.575
2.625 0.9375 1.575
2.5625 1 1.575
2.625 0.9375 1.5125
2.6875 1 1.5125
2.6875 0.9375 1.5125
2.75 1 1.5125
2.6875 0.9375 1.575
2.75 0.9375 1.575
2.6875 1 1.575
2.75 0.9375 1.5125
2.8125 1 1.5125
2.8125 0.9375 1.5125
2.875 1 1.5125
2.8125 0.9375 1.575
2.875 0.9375 1.575
2.8125 1 1.575
2.875 0.9375 1.5125
2.9375 1 1.5125
2.9375 0.9375 1.5125
3 1 1.5125
2.9375 0.9375 1.575
3 0.9375 1.575
2.9375 1 1.575
3 0.9375 1.5125
3.0625 1 1.5125
3.0625 0.9375 1.5125
3.125 1 1.5125
3.0625 0.9375 1.575
3.125 0.9375 1.575
3.0625 1 1.575
3.125 0.9375 1.5125
3.1875 1 1.5125
3.1875 0.9375 1.5125
3.25 1 1.5125
3.1875 0.9375 1.575
3.25 0.9375 1.575
3.1875 1 1.575
3.25 0.9375 1.5125
3.3125 1 1.5125
3.3125 0.9375 1.5125
3.375 1 1.5125
3.3125 0.9375 1.575
3.375 0.9375 1.575
3.3125 1 1.575
3.375 0.9375 1.5125
3.4375 1 1.5125
3.4375 0.9375 1.5125
3.5 1 1.5125
3.4375 0.9375 1.575
3.5 0.9375 1.575
3.4375 1 1.575
3.5 0.9375 1.5125
3.5625 1 1.5125
3.5625 0.9375 1.5125
3.625 1 1.5125
3.5625 0.9375 1.575
3.625 0.9375 1.575
3.5625 1 1.575
3.625 0.9375 1.5125
3.6875 1 1.5125
3.6875 0.9375 1.5125
3.75 1 1.5125
3.6875 0.9375 1.575
3.75 0.9375 1.575
3.6875 1 1.575
3.75 0.9375 1.5125
3.8125 1 1.5125
3.8125 0.9375 1.5125
3.875 1 1.5125
3.8125 0.9375 1.575
3.875 0.9375 1.575
3.8125 1 1.575
3.875 0.9375 1.5125
3.9375 1 1.5125
3.9375 0.9375 1.5125
4 1 1.5125
3.9375 0.9375 1.575
4 0.9375 1.575
3.9375 1 1.575
4 0.9375 1.5125
0.0625 0.125 1.6375
0.0625 0.0625 1.6375
0.125 0.125 1.6375
0.0625 0.0625 1.7
0.125 0.0625 1.7
0.0625 0 1.7
0 0 1.6375
0.0625 0 1.6375
0 0.125 1.6375
0 0.0625 1.6375
0.0625 0.125 1.7
0 0.0625 1.7
0.125 0 1.6375
0.125 0.0625 1.6375
0.1875 0.125 1.6375
0.1875 0.0625 1.6375
0.25 0.125 1.6375
0.1875 0.0625 1.7
0.25 0.0625 1.7
0.1875 0 1.7
0.1875 0 1.6375
0.1875 0.125 1.7
0.25 0 1.6375
0.25 0.0625 1.6375
0.3125 0.125 1.6375
0.3125 0.0625 1.6375
0.375 0.125 1.6375
0.3125 0.0625 1.7
0.375 0.0625 1.7
0.3125 0 1.7
0.3125 0 1.6375
0.3125 0.125 1.7
0.375 0 1.6375
0.375 0.0625 1.6375
0.4375 0.125 1.6375
0.4375 0.0625 1.6375
0.5 0.125 1.6375
0.4375 0.0625 1.7
0.5 0.0625 1.7
0.4375 0 1.7
0.4375 0 1.6375
0.4375 0.125 1.7
0.5 0 1.6375
0.5 0.0625 1.6375
0.5625 0.125 1.6375
0.5625 0.0625 1.6375
0.625 0.125 1.6375
0.5625 0.0625 1.7
0.625 0.0625 1.7
0.5625 0 1.7
0.5625 0 1.6375
0.5625 0.125 1.7
0.625 0 1.6375
0.625 0.0625 1.6375
0.6875 0.125 1.6375
0.6875 0.0625 1.6375
0.75 0.125 1.6375
0.6875 0.0625 1.7
0.75 0.0625 1.7
0.6875 0 1.7
0.6875 0 1.6375
0.6875 0.125 1.7
0.75 0 1.6375
0.75 0.0625 1.6375
0.8125 0.125 1.6375
0.8125 0.0625 1.6375
0.875 0.125 1.6375
0.8125 0.0625 1.7
0.875 0.0625 1.7
0.8125 0 1.7
0.8125 0 1.6375
0.8125 0.125 1.7
0.875 0 1.6375
0.875 0.0625 1.6375
0.9375 0.125 1.6375
0.9375 0.0625 1.6375
1 0.125 1.6375
0.9375 0.0625 1.7
1 0.0625 1.7
0.9375 0 1.7
0.9375 0 1.6375
0.9375 0.125 1.7
1 0 1.6375
1 0.0625 1.6375
1.0625 0.125 1.6375
1.0625 0.0625 1.6375
1.125 0.125 1.6375
1.0625 0.0625 1.7
1.125 0.0625 1.7
1.0625 0 1.7
1.0625 0 1.6375
1.0625 0.125 1.7
1.125 0 1.6375
1.125 0.0625 1.6375
1.1875 0.125 1.6375
1.1875 0.0625 1.6375
1.25 0.125 1.6375
1.1875 0.0625 1.7
1.25 0.0625 1.7
1.1875 0 1.7
1.1875 0 1.6375
1.1875 0.125 1.7
1.25 0 1.6375
1.25 0.0625 1.6375
1.3125 0.125 1.6375
1.3125 0.0625 1.6375
1.375 0.125 1.6375
1.3125 0.0625 1.7
1.375 0.0625 1.7
1.3125 0 1.7
1.3125 0 1.6375
1.3125 0.125 1.7
1.375 0 1.6375
1.375 0.0625 1.6375
1.4375 0.125 1.6375
1.4375 0.0625 1.6375
1.5 0.125 1.6375
1.4375 0.0625 1.7
1.5 0.0625 1.7
1.4375 0 1.7
1.4375 0 1.6375
1.4375 0.125 1.7
1.5 0 1.6375
1.5 0.0625 1.6375
1.5625 0.125 1.6375
1.5625 0.0625 1.6375
1.625 0.125 1.6375
1.5625 0.0625 1.7
1.625 0.0625 1.7
1.5625 0 1.7
1.5625 0 1.6375
1.5625 0.125 1.7
1.625 0 1.6375
1.625 0.0625 1.6375
1.6875 0.125 1.6375
1.6875 0.0625 1.6375
1.75 0.125 1.6375
1.6875 0.0625 1.7
1.75 0.0625 1.7
1.6875 0 1.7
1.6875 0 1.6375
1.6875 0.125 1.7
1.75 0 1.6375
1.75 0.0625 1.6375
1.8125 0.125 1.6375
1.8125 0.0625 1.6375
1.875 0.125 1.6375
1.8125 0.0625 1.7
1.875 0.0625 1.7
1.8125 0 1.7
1.8125 0 1.6375
1.8125 0.125 1.7
1.875 0 1.6375
1.875 0.0625 1.6375
1.9375 0.125 1.6375
1.9375 0.0625 1.6375
2 0.125 1.6375
1.9375 0.0625 1.7
2 0.0625 1.7
1.9375 0 1.7
1.9375 0 1.6375
1.9375 0.125 1.7
2 0 1.6375
2 0.0625 1.6375
2.0625 0.125 1.6375
2.0625 0.0625 1.6375
2.125 0.125 1.6375
2.0625 0.0625 1.7
2.125 0.0625 1.7
2.0625 0 1.7
2.0625 0 1.6375
2.0625 0.125 1.7
2.125 0 1.6375
2.125 0.0625 1.6375
2.1875 0.125 1.6375
2.1875 0.0625 1.6375
2.25 0.125 1.6375
2.1875 0.0625 1.7
2.25 0.0625 1.7
2.1875 0 1.7
2.1875 0 1.6375
2.1875 0.125 1.7
2.25 0 1.6375
2.25 0.0625 1.6375
2.3125 0.125 1.6375
2.3125 0.0625 1.6375
2.375 0.125 1.6375
2.3125 0.0625 1.7
2.375 0.0625 1.7
2.3125 0 1.7
2.3125 0 1.6375
2.3125 0.125 1.7
2.375 0 1.6375
2.375 0.0625 1.6375
2.4375 0.125 1.6375
2.4375 0.0625 1.6375
2.5 0.125 1.6375
2.4375 0.0625 1.7
2.5 0.0625 1.7
2.4375 0 1.7
2.4375 0 1.6375
2.4375 0.125 1.7
2.5 0 1.6375
2.5 0.0625 1.6375
2.5625 0.125 1.6375
2.5625 0.0625 1.6375
2.625 0.125 1.6375
2.5625 0.0625 1.7
2.625 0.0625 1.7
2.5625 0 1.7
2.5625 0 1.6375
2.5625 0.125 1.7
2.625 0 1.6375
2.625 0.0625 1.6375
2.6875 0.125 1.6375
2.6875 0.0625 1.6375
2.75 0.125 1.6375
2.6875 0.0625 1.7
2.75 0.0625 1.7
2.6875 0 1.7
2.6875 0 1.6375
2.6875 0.125 1.7
2.75 0 1.6375
2.75 0.0625 1.6375
2.8125 0.125 1.6375
2.8125 0.0625 1.6375
2.875 0.125 1.6375
2.8125 0.0625 1.7
2.875 0.0625 1.7
2.8125 0 1.7
2.8125 0 1.6375
2.8125 0.125 1.7
2.875 0 1.6375
2.875 0.0625 1.6375
2.9375 0.125 1.6375
2.9375 0.0625 1.6375
3 0.125 1.6375
2.9375 0.0625 1.7
3 0.0625 1.7
2.9375 0 1.7
2.9375 0 1.6375
2.9375 0.125 1.7
3 0 1.6375
3 0.0625 1.6375
3.0625 0.125 1.6375
3.0625 0.0625 1.6375
3.125 0.125 1.6375
3.0625 0.0625 1.7
3.125 0.0625 1.7
3.0625 0 1.7
3.0625 0 1.6375
3.0625 0.125 1.7
3.125 0 1.6375
3.125 0.0625 1.6375
3.1875 0.125 1.6375
3.1875 0.0625 1.6375
3.25 0.125 1.6375
3.1875 0.0625 1.7
3.25 0.0625 1.7
3.1875 0 1.7
3.1875 0 1.6375
3.1875 0.125 1.7
3.25 0 1.6375
3.25 0.0625 1.6375
3.3125 0.125 1.6375
3.3125 0.0625 1.6375
3.375 0.125 1.6375
3.3125 0.0625 1.7
3.375 0.0625 1.7
3.3125 0 1.7
3.3125 0 1.6375
3.3125 0.125 1.7
3.375 0 1.6375
3.375 0.0625 1.6375
3.4375 0.125 1.6375
3.4375 0.0625 1.6375
3.5 0.125 1.6375
3.4375 0.0625 1.7
3.5 0.0625 1.7
3.4375 0 1.7
3.4375 0 1.6375
3.4375 0.125 1.7
3.5 0 1.6375
3.5 0.0625 1.6375
3.5625 0.125 1.6375
3.5625 0.0625 1.6375
3.625 0.125 1.6375
3.5625 0.0625 1.7
3.625 0.0625 1.7
3.5625 0 1.7
3.5625 0 1.6375
3.5625 0.125 1.7
3.625 0 1.6375
3.625 0.0625 1.6375
3.6875 0.125 1.6375
3.6875 0.0625 1.6375
3.75 0.125 1.6375
3.6875 0.0625 1.7
3.75 0.0625 1.7
3.6875 0 1.7
3.6875 0 1.6375
3.6875 0.125 1.7
3.75 0 1.6375
3.75 0.0625 1.6375
3.8125 0.125 1.6375
3.8125 0.0625 1.6375
3.875 0.125 1.6375
3.8125 0.0625 1.7
3.875 0.0625 1.7
3.8125 0 1.7
3.8125 0 1.6375
3.8125 0.125 1.7
3.875 0 1.6375
3.875 0.0625 1.6375
3.9375 0.125 1.6375
3.9375 0.0625 1.6375
4 0.125 1.6375
3.9375 0.0625 1.7
4 0.0625 1.7
3.9375 0 1.7
3.9375 0 1.6375
3.9375 0.125 1.7
4 0 1.6375
4 0.0625 1.6375
0.0625 0.25 1.6375
0.0625 0.1875 1.6375
0.125 0.25 1.6375
0.0625 0.1875 1.7
0.125 0.1875 1.7
0 0.25 1.6375
0 0.1875 1.6375
0.0625 0.25 1.7
0 0.1875 1.7
0.125 0.1875 1.6375
0.1875 0.25 1.6375
0.1875 0.1875 1.6375
0.25 0.25 1.6375
0.1875 0.1875 1.7
0.25 0.1875 1.7
0.1875 0.25 1.7
0.25 0.1875 1.6375
0.3125 0.25 1.6375
0.3125 0.1875 1.6375
0.375 0.25 1.6375
0.3125 0.1875 1.7
0.375 0.1875 1.7
0.3125 0.25 1.7
0.375 0.1875 1.6375
0.4375 0.25 1.6375
0.4375 0.1875 1.6375
0.5 0.25 1.6375
0.4375 0.1875 1.7
0.5 0.1875 1.7
0.4375 0.25 1.7
0.5 0.1875 1.6375
0.5625 0.25 1.6375
0.5625 0.1875 1.6375
0.625 0.25 1.6375
0.5625 0.1875 1.7
0.625 0.1875 1.7
0.5625 0.25 1.7
0.625 0.1875 1.6375
0.6875 0.25 1.6375
0.6875 0.1875 1.6375
0.75 0.25 1.6375
0.6875 0.1875 1.7
0.75 0.1875 1.7
0.6875 0.25 1.7
0.75 0.1875 1.6375
0.8125 0.25 1.6375
0.8125 0.1875 1.6375
0.875 0.25 1.6375
0.8125 0.1875 1.7
0.875 0.1875 1.7
0.8125 0.25 1.7
0.875 0.1875 1.6375
0.9375 0.25 1.6375
0.9375 0.1875 1.6375
1 0.25 1.6375
0.9375 0.1875 1.7
1 0.1875 1.7
0.9375 0.25 1.7
1 0.1875 1.6375
1.0625 0.25 1.6375
1.0625 0.1875 1.6375
1.125 0.25 1.6375
1.0625 0.1875 1.7
1.125 0.1875 1.7
1.0625 0.25 1.7
1.125 0.1875 1.6375
1.1875 0.25 1.6375
1.1875 0.1875 1.6375
1.25 0.25 1.6375
1.1875 0.1875 1.7
1.25 0.1875 1.7
1.1875 0.25 1.7
1.25 0.1875 1.6375
1.3125 0.25 1.6375
1.3125 0.1875 1.6375
1.375 0.25 1.6375
1.3125 0.1875 1.7
1.375 0.1875 1.7
1.3125 0.25 1.7
1.375 0.1875 1.6375
1.4375 0.25 1.6375
1.4375 0.1875 1.6375
1.5 0.25 1.6375
1.4375 0.1875 1.7
1.5 0.1875 1.7
1.4375 0.25 1.7
1.5 0.1875 1.6375
1.5625 0.25 1.6375
1.5625 0.1875 1.6375
1.625 0.25 1.6375
1.5625 0.1875 1.7
1.625 0.1875 1.7
1.5625 0.25 1.7
1.625 0.1875 1.6375
1.6875 0.25 1.6375
1.6875 0.1875 1.6375
1.75 0.25 1.6375
1.6875 0.1875 1.7
1.75 0.1875 1.7
1.6875 0.25 1.7
1.75 0.1875 1.6375
1.8125 0.25 1.6375
1.8125 0.1875 1.6375
1.875 0.25 1.6375
1.8125 0.1875 1.7
1.875 0.1875 1.7
1.8125 0.25 1.7
1.875 0.1875 1.6375
1.9375 0.25 1.6375
1.9375 0.1875 1.6375
2 0.25 1.6375
1.9375 0.1875 1.7
2 0.1875 1.7
1.9375 0.25 1.7
2 0.1875 1.6375
2.0625 0.25 1.6375
2.0625 0.1875 1.6375
2.125 0.25 1.6375
2.0625 0.1875 1.7
2.125 0.1875 1.7
2.0625 0.25 1.7
2.125 0.1875 1.6375
2.1875 0.25 1.6375
2.1875 0.1875 1.6375
2.25 0.25 1.6375
2.1875 0.1875 1.7
2.25 0.1875 1.7
2.1875 0.25 1.7
2.25 0.1875 1.6375
2.3125 0.25 1.6375
2.3125 0.1875 1.6375
2.375 0.25 1.6375
2.3125 0.1875 1.7
2.375 0.1875 1.7
2.3125 0.25 1.7
2.375 0.1875 1.6375
2.4375 0.25 1.6375
2.4375 0.1875 1.6375
2.5 0.25 1.6375
2.4375 0.1875 1.7
2.5 0.1875 1.7
2.4375 0.25 1.7
2.5 0.1875 1.6375
2.5625 0.25 1.6375
2.5625 0.1875 1.6375
2.625 0.25 1.6375
2.5625 0.1875 1.7
2.625 0.1875 1.7
2.5625 0.25 1.7
2.625 0.1875 1.6375
2.6875 0.25 1.6375
2.6875 0.1875 1.6375
2.75 0.25 1.6375
2.6875 0.1875 1.7
2.75 0.1875 1.7
2.6875 0.25 1.7
2.75 0.1875 1.6375
2.8125 0.25 1.6375
2.8125 0.1875 1.6375
2.875 0.25 1.6375
2.8125 0.1875 1.7
2.875 0.1875 1.7
2.8125 0.25 1.7
2.875 0.1875 1.6375
2.9375 0.25 1.6375
2.9375 0.1875 1.6375
3 0.25 1.6375
2.9375 0.1875 1.7
3 0.1875 1.7
2.9375 0.25 1.7
3 0.1875 1.6375
3.0625 0.25 1.6375
3.0625 0.1875 1.6375
3.125 0.25 1.6375
3.0625 0.1875 1.7
3.125 0.1875 1.7
3.0625 0.25 1.7
3.125 0.1875 1.6375
3.1875 0.25 1.6375
3.1875 0.1875 1.6375
3.25 0.25 1.6375
3.1875 0.1875 1.7
3.25 0.1875 1.7
3.1875 0.25 1.7
3.25 0.1875 1.6375
3.3125 0.25 1.6375
3.3125 0.1875 1.6375
3.375 0.25 1.6375
3.3125 0.1875 1.7
3.375 0.1875 1.7
3.3125 0.25 1.7
3.375 0.1875 1.6375
3.4375 0.25 1.6375
3.4375 0.1875 1.6375
3.5 0.25 1.6375
3.4375 0.1875 1.7
3.5 0.1875 1.7
3.4375 0.25 1.7
3.5 0.1875 1.6375
3.5625 0.25 1.6375
3.5625 0.1875 1.6375
3.625 0.25 1.6375
3.5625 0.1875 1.7
3.625 0.1875 1.7
3.5625 0.25 1.7
3.625 0.1875 1.6375
3.6875 0.25 1.6375
3.6875 0.1875 1.6375
3.75 0.25 1.6375
3.6875 0.1875 1.7
3.75 0.1875 1.7
3.6875 0.25 1.7
3.75 0.1875 1.6375
3.8125 0.25 1.6375
3.8125 0.1875 1.6375
3.875 0.25 1.6375
3.8125 0.1875 1.7
3.875 0.1875 1.7
3.8125 0.25 1.7
3.875 0.1875 1.6375
3.9375 0.25 1.6375
3.9375 0.1875 1.6375
4 0.25 1.6375
3.9375 0.1875 1.7
4 0.1875 1.7
3.9375 0.25 1.7
4 0.1875 1.6375
0.0625 0.375 1.6375
0.0625 0.3125 1.6375
0.125 0.375 1.6375
0.0625 0.3125 1.7
0.125 0.3125 1.7
0 0.375 1.6375
0 0.3125 1.6375
0.0625 0.375 1.7
0 0.3125 1.7
0.125 0.3125 1.6375
0.1875 0.375 1.6375
0.1875 0.3125 1.6375
0.25 0.375 1.6375
0.1875 0.3125 1.7
0.25 0.3125 1.7
0.1875 0.375 1.7
0.25 0.3125 1.6375
0.3125 0.375 1.6375
0.3125 0.3125 1.6375
0.375 0.375 1.6375
0.3125 0.3125 1.7
0.375 0.3125 1.7
0.3125 0.375 1.7
0.375 0.3125 1.6375
0.4375 0.375 1.6375
0.4375 0.3125 1.6375
0.5 0.375 1.6375
0.4375 0.3125 1.7
0.5 0.3125 1.7
0.4375 0.375 1.7
0.5 0.3125 1.6375
0.5625 0.375 1.6375
0.5625 0.3125 1.6375
0.625 0.375 1.6375
0.5625 0.3125 1.7
0.625 0.3125 1.7
0.5625 0.375 1.7
0.625 0.3125 1.6375
0.6875 0.375 1.6375
0.6875 0.3125 1.6375
0.75 0.375 1.6375
0.6875 0.3125 1.7
0.75 0.3125 1.7
0.6875 0.375 1.7
0.75 0.3125 1.6375
0.8125 0.375 1.6375
0.8125 0.3125 1.6375
0.875 0.375 1.6375
0.8125 0.3125 1.7
0.875 0.3125 1.7
0.8125 0.375 1.7
0.875 0.3125 1.6375
0.9375 0.375 1.6375
0.9375 0.3125 1.6375
1 0.375 1.6375
0.9375 0.3125 1.7
1 0.3125 1.7
0.9375 0.375 1.7
1 0.3125 1.6375
1.0625 0.375 1.6375
1.0625 0.3125 1.6375
1.125 0.375 1.6375
1.0625 0.3125 1.7
1.125 0.3125 1.7
1.0625 0.375 1.7
1.125 0.3125 1.6375
1.1875 0.375 1.6375
1.1875 0.3125 1.6375
1.25 0.375 1.6375
1.1875 0.3125 1.7
1.25 0.3125 1.7
1.1875 0.375 1.7
1.25 0.3125 1.6375
1.3125 0.375 1.6375
1.3125 0.3125 1.6375
1.375 0.375 1.6375
1.3125 0.3125 1.7
1.375 0.3125 1.7
1.3125 0.375 1.7
1.375 0.3125 1.6375
1.4375 0.375 1.6375
1.4375 0.3125 1.6375
1.5 0.375 1.6375
1.4375 0.3125 1.7
1.5 0.3125 1.7
1.4375 0.375 1.7
1.5 0.3125 1.6375
1.5625 0.375 1.6375
1.5625 0.3125 1.6375
1.625 0.375 1.6375
1.5625 0.3125 1.7
1.625 0.3125 1.7
1.5625 0.375 1.7
1.625 0.3125 1.6375
1.6875 0.375 1.6375
1.6875 0.3125 1.6375
1.75 0.375 1.6375
1.6875 0.3125 1.7
1.75 0.3125 1.7
1.6875 0.375 1.7
1.75 0.3125 1.6375
1.8125 0.375 1.6375
1.8125 0.3125 1.6375
1.875 0.375 1.6375
1.8125 0.3125 1.7
1.875 0.3125 1.7
1.8125 0.375 1.7
1.875 0.3125 1.6375
1.9375 0.375 1.6375
1.9375 0.3125 1.6375
2 0.375 1.6375
1.9375 0.3125 1.7
2 0.3125 1.7
1.9375 0.375 1.7
2 0.3125 1.6375
2.0625 0.375 1.6375
2.0625 0.3125 1.6375
2.125 0.375 1.6375
2.0625 0.3125 1.7
2.125 0.3125 1.7
2.0625 0.375 1.7
2.125 0.3125 1.6375
2.1875 0.375 1.6375
2.1875 0.3125 1.6375
2.25 0.375 1.6375
2.1875 0.3125 1.7
2.25 0.3125 1.7
2.1875 0.375 1.7
2.25 0.3125 1.6375
2.3125 0.375 1.6375
2.3125 0.3125 1.6375
2.375 0.375 1.6375
2.3125 0.3125 1.7
2.375 0.3125 1.7
2.3125 0.375 1.7
2.375 0.3125 1.6375
2.4375 0.375 1.6375
2.4375 0.3125 1.6375
2.5 0.375 1.6375
2.4375 0.3125 1.7
2.5 0.3125 1.7
2.4375 0.375 1.7
2.5 0.3125 1.6375
2.5625 0.375 1.6375
2.5625 0.3125 1.6375
2.625 0.375 1.6375
2.5625 0.3125 1.7
2.625 0.3125 1.7
2.5625 0.375 1.7
2.625 0.3125 1.6375
2.6875 0.375 1.6375
2.6875 0.3125 1.6375
2.75 0.375 1.6375
2.6875 0.3125 1.7
2.75 0.3125 1.7
2.6875 0.375 1.7
2.75 0.3125 1.6375
2.8125 0.375 1.6375
2.8125 0.3125 1.6375
2.875 0.375 1.6375
2.8125 0.3125 1.7
2.875 0.3125 1.7
2.8125 0.375 1.7
2.875 0.3125 1.6375
2.9375 0.375 1.6375
2.9375 0.3125 1.6375
3 0.375 1.6375
2.9375 0.3125 1.7
3 0.3125 1.7
2.9375 0.375 1.7
3 0.3125 1.6375
3.0625 0.375 1.6375
3.0625 0.3125 1.6375
3.125 0.375 1.6375
3.0625 0.3125 1.7
3.125 0.3125 1.7
3.0625 0.375 1.7
3.125 0.3125 1.6375
3.1875 0.375 1.6375
3.1875 0.3125 1.6375
3.25 0.375 1.6375
3.1875 0.3125 1.7
3.25 0.3125 1.7
3.1875 0.375 1.7
3.25 0.3125 1.6375
3.3125 0.375 1.6375
3.3125 0.3125 1.6375
3.375 0.375 1.6375
3.3125 0.3125 1.7
3.375 0.3125 1.7
3.3125 0.375 1.7
3.375 0.3125 1.6375
3.4375 0.375 1.6375
3.4375 0.3125 1.6375
3.5 0.375 1.6375
3.4375 0.3125 1.7
3.5 0.3125 1.7
3.4375 0.375 1.7
3.5 0.3125 1.6375
3.5625 0.375 1.6375
3.5625 0.3125 1.6375
3.625 0.375 1.6375
3.5625 0.3125 1.7
3.625 0.3125 1.7
3.5625 0.375 1.7
3.625 0.3125 1.6375
3.6875 0.375 1.6375
3.6875 0.3125 1.6375
3.75 0.375 1.6375
3.6875 0.3125 1.7
3.75 0.3125 1.7
3.6875 0.375 1.7
3.75 0.3125 1.6375
3.8125 0.375 1.6375
3.8125 0.3125 1.6375
3.875 0.375 1.6375
3.8125 0.3125 1.7
3.875 0.3125 1.7
3.8125 0.375 1.7
3.875 0.3125 1.6375
3.9375 0.375 1.6375
3.9375 0.3125 1.6375
4 0.375 1.6375
3.9375 0.3125 1.7
4 0.3125 1.7
3.9375 0.375 1.7
4 0.3125 1.6375
0.0625 0.5 1.6375
0.0625 0.4375 1.6375
0.125 0.5 1.6375
0.0625 0.4375 1.7
0.125 0.4375 1.7
0 0.5 1.6375
0 0.4375 1.6375
0.0625 0.5 1.7
0 0.4375 1.7
0.125 0.4375 1.6375
0.1875 0.5 1.6375
0.1875 0.4375 1.6375
0.25 0.5 1.6375
0.1875 0.4375 1.7
0.25 0.4375 1.7
0.1875 0.5 1.7
0.25 0.4375 1.6375
0.3125 0.5 1.6375
0.3125 0.4375 1.6375
0.375 0.5 1.6375
0.3125 0.4375 1.7
0.375 0.4375 1.7
0.3125 0.5 1.7
0.375 0.4375 1.6375
0.4375 0.5 1.6375
0.4375 0.4375 1.6375
0.5 0.5 1.6375
0.4375 0.4375 1.7
0.5 0.4375 1.7
0.4375 0.5 1.7
0.5 0.4375 1.6375
0.5625 0.5 1.6375
0.5625 0.4375 1.6375
0.625 0.5 1.6375
0.5625 0.4375 1.7
0.625 0.4375 1.7
0.5625 0.5 1.7
0.625 0.4375 1.6375
0.6875 0.5 1.6375
0.6875 0.4375 1.6375
0.75 0.5 1.6375
0.6875 0.4375 1.7
0.75 0.4375 1.7
0.6875 0.5 1.7
0.75 0.4375 1.6375
0.8125 0.5 1.6375
0.8125 0.4375 1.6375
0.875 0.5 1.6375
0.8125 0.4375 1.7
0.875 0.4375 1.7
0.8125 0.5 1.7
0.875 0.4375 1.6375
0.9375 0.5 1.6375
0.9375 0.4375 1.6375
1 0.5 1.6375
0.9375 0.4375 1.7
1 0.4375 1.7
0.9375 0.5 1.7
1 0.4375 1.6375
1.0625 0.5 1.6375
1.0625 0.4375 1.6375
1.125 0.5 1.6375
1.0625 0.4375 1.7
1.125 0.4375 1.7
1.0625 0.5 1.7
1.125 0.4375 1.6375
1.1875 0.5 1.6375
1.1875 0.4375 1.6375
1.25 0.5 1.6375
1.1875 0.4375 1.7
1.25 0.4375 1.7
1.1875 0.5 1.7
1.25 0.4375 1.6375
1.3125 0.5 1.6375
1.3125 0.4375 1.6375
1.375 0.5 1.6375
1.3125 0.4375 1.7
1.375 0.4375 1.7
1.3125 0.5 1.7
1.375 0.4375 1.6375
1.4375 0.5 1.6375
1.4375 0.4375 1.6375
1.5 0.5 1.6375
1.4375 0.4375 1.7
1.5 0.4375 1.7
1.4375 0.5 1.7
1.5 0.4375 1.6375
1.5625 0.5 1.6375
1.5625 0.4375 1.6375
1.625 0.5 1.6375
1.5625 0.4375 1.7
1.625 0.4375 1.7
1.5625 0.5 1.7
1.625 0.4375 1.6375
1.6875 0.5 1.6375
1.6875 0.4375 1.6375
1.75 0.5 1.6375
1.6875 0.4375 1.7
1.75 0.4375 1.7
1.6875 0.5 1.7
1.75 0.4375 1.6375
1.8125 0.5 1.6375
1.8125 0.4375 1.6375
1.875 0.5 1.6375
1.8125 0.4375 1.7
1.875 0.4375 1.7
1.8125 0.5 1.7
1.875 0.4375 1.6375
1.9375 0.5 1.6375
1.9375 0.4375 1.6375
2 0.5 1.6375
1.9375 0.4375 1.7
2 0.4375 1.7
1.9375 0.5 1.7
2 0.4375 1.6375
2.0625 0.5 1.6375
2.0625 0.4375 1.6375
2.125 0.5 1.6375
2.0625 0.4375 1.7
2.125 0.4375 1.7
2.0625 0.5 1.7
2.125 0.4375 1.6375
2.1875 0.5 1.6375
2.1875 0.4375 1.6375
2.25 0.5 1.6375
2.1875 0.4375 1.7
2.25 0.4375 1.7
2.1875 0.5 1.7
2.25 0.4375 1.6375
2.3125 0.5 1.6375
2.3125 0.4375 1.6375
2.375 0.5 1.6375
2.3125 0.4375 1.7
2.375 0.4375 1.7
2.3125 0.5 1.7
2.375 0.4375 1.6375
2.4375 0.5 1.6375
2.4375 0.4375 1.6375
2.5 0.5 1.6375
2.4375 0.4375 1.7
2.5 0.4375 1.7
2.4375 0.5 1.7
2.5 0.4375 1.6375
2.5625 0.5 1.6375
2.5625 0.4375 1.6375
2.625 0.5 1.6375
2.5625 0.4375 1.7
2.625 0.4375 1.7
2.5625 0.5 1.7
2.625 0.4375 1.6375
2.6875 0.5 1.6375
2.6875 0.4375 1.6375
2.75 0.5 1.6375
2.6875 0.4375 1.7
2.75 0.4375 1.7
2.6875 0.5 1.7
2.75 0.4375 1.6375
2.8125 0.5 1.6375
2.8125 0.4375 1.6375
2.875 0.5 1.6375
2.8125 0.4375 1.7
2.875 0.4375 1.7
2.8125 0.5 1.7
2.875 0.4375 1.6375
2.9375 0.5 1.6375
2.9375 0.4375 1.6375
3 0.5 1.6375
2.9375 0.4375 1.7
3 0.4375 1.7
2.9375 0.5 1.7
3 0.4375 1.6375
3.0625 0.5 1.6375
3.0625 0.4375 1.6375
3.125 0.5 1.6375
3.0625 0.4375 1.7
3.125 0.4375 1.7
3.0625 0.5 1.7
3.125 0.4375 1.6375
3.1875 0.5 1.6375
3.1875 0.4375 1.6375
3.25 0.5 1.6375
3.1875 0.4375 1.7
3.25 0.4375 1.7
3.1875 0.5 1.7
3.25 0.4375 1.6375
3.3125 0.5 1.6375
3.3125 0.4375 1.6375
3.375 0.5 1.6375
3.3125 0.4375 1.7
3.375 0.4375 1.7
3.3125 0.5 1.7
3.375 0.4375 1.6375
3.4375 0.5 1.6375
3.4375 0.4375 1.6375
3.5 0.5 1.6375
3.4375 0.4375 1.7
3.5 0.4375 1.7
3.4375 0.5 1.7
3.5 0.4375 1.6375
3.5625 0.5 1.6375
3.5625 0.4375 1.6375
3.625 0.5 1.6375
3.5625 0.4375 1.7
3.625 0.4375 1.7
3.5625 0.5 1.7
3.625 0.4375 1.6375
3.6875 0.5 1.6375
3.6875 0.4375 1.6375
3.75 0.5 1.6375
3.6875 0.4375 1.7
3.75 0.4375 1.7
3.6875 0.5 1.7
3.75 0.4375 1.6375
3.8125 0.5 1.6375
3.8125 0.4375 1.6375
3.875 0.5 1.6375
3.8125 0.4375 1.7
3.875 0.4375 1.7
3.8125 0.5 1.7
3.875 0.4375 1.6375
3.9375 0.5 1.6375
3.9375 0.4375 1.6375
4 0.5 1.6375
3.9375 0.4375 1.7
4 0.4375 1.7
3.9375 0.5 1.7
4 0.4375 1.6375
0.0625 0.625 1.6375
0.0625 0.5625 1.6375
0.125 0.625 1.6375
0.0625 0.5625 1.7
0.125 0.5625 1.7
0 0.625 1.6375
0 0.5625 1.6375
0.0625 0.625 1.7
0 0.5625 1.7
0.125 0.5625 1.6375
0.1875 0.625 1.6375
0.1875 0.5625 1.6375
0.25 0.625 1.6375
0.1875 0.5625 1.7
0.25 0.5625 1.7
0.1875 0.625 1.7
0.25 0.5625 1.6375
0.3125 0.625 1.6375
0.3125 0.5625 1.6375
0.375 0.625 1.6375
0.3125 0.5625 1.7
0.375 0.5625 1.7
0.3125 0.625 1.7
0.375 0.5625 1.6375
0.4375 0.625 1.6375
0.4375 0.5625 1.6375
0.5 0.625 1.6375
0.4375 0.5625 1.7
0.5 0.5625 1.7
0.4375 0.625 1.7
0.5 0.5625 1.6375
0.5625 0.625 1.6375
0.5625 0.5625 1.6375
0.625 0.625 1.6375
0.5625 0.5625 1.7
0.625 0.5625 1.7
0.5625 0.625 1.7
0.625 0.5625 1.6375
0.6875 0.625 1.6375
0.6875 0.5625 1.6375
0.75 0.625 1.6375
0.6875 0.5625 1.7
0.75 0.5625 1.7
0.6875 0.625 1.7
0.75 0.5625 1.6375
0.8125 0.625 1.6375
0.8125 0.5625 1.6375
0.875 0.625 1.6375
0.8125 0.5625 1.7
0.875 0.5625 1.7
0.8125 0.625 1.7
0.875 0.5625 1.6375
0.9375 0.625 1.6375
0.9375 0.5625 1.6375
1 0.625 1.6375
0.9375 0.5625 1.7
1 0.5625 1.7
0.9375 0.625 1.7
1 0.5625 1.6375
1.0625 0.625 1.6375
1.0625 0.5625 1.6375
1.125 0.625 1.6375
1.0625 0.5625 1.7
1.125 0.5625 1.7
1.0625 0.625 1.7
1.125 0.5625 1.6375
1.1875 0.625 1.6375
1.1875 0.5625 1.6375
1.25 0.625 1.6375
1.1875 0.5625 1.7
1.25 0.5625 1.7
1.1875 0.625 1.7
1.25 0.5625 1.6375
1.3125 0.625 1.6375
1.3125 0.5625 1.6375
1.375 0.625 1.6375
1.3125 0.5625 1.7
1.375 0.5625 1.7
1.3125 0.625 1.7
1.375 0.5625 1.6375
1.4375 0.625 1.6375
1.4375 0.5625 1.6375
1.5 0.625 1.6375
1.4375 0.5625 1.7
1.5 0.5625 1.7
1.4375 0.625 1.7
1.5 0.5625 1.6375
1.5625 0.625 1.6375
1.5625 0.5625 1.6375
1.625 0.625 1.6375
1.5625 0.5625 1.7
1.625 0.5625 1.7
1.5625 0.625 1.7
1.625 0.5625 1.6375
1.6875 0.625 1.6375
1.6875 0.5625 1.6375
1.75 0.625 1.6375
1.6875 0.5625 1.7
1.75 0.5625 1.7
1.6875 0.625 1.7
1.75 0.5625 1.6375
1.8125 0.625 1.6375
1.8125 0.5625 1.6375
1.875 0.625 1.6375
1.8125 0.5625 1.7
1.875 0.5625 1.7
1.8125 0.625 1.7
1.875 0.5625 1.6375
1.9375 0.625 1.6375
1.9375 0.5625 1.6375
2 0.625 1.6375
1.9375 0.5625 1.7
2 0.5625 1.7
1.9375 0.625 1.7
2 0.5625 1.6375
2.0625 0.625 1.6375
2.0625 0.5625 1.6375
2.125 0.625 1.6375
2.0625 0.5625 1.7
2.125 0.5625 1.7
2.0625 0.625 1.7
2.125 0.5625 1.6375
2.1875 0.625 1.6375
2.1875 0.5625 1.6375
2.25 0.625 1.6375
2.1875 0.5625 1.7
2.25 0.5625 1.7
2.1875 0.625 1.7
2.25 0.5625 1.6375
2.3125 0.625 1.6375
2.3125 0.5625 1.6375
2.375 0.625 1.6375
2.3125 0.5625 1.7
2.375 0.5625 1.7
2.3125 0.625 1.7
2.375 0.5625 1.6375
2.4375 0.625 1.6375
2.4375 0.5625 1.6375
2.5 0.625 1.6375
2.4375 0.5625 1.7
2.5 0.5625 1.7
2.4375 0.625 1.7
2.5 0.5625 1.6375
2.5625 0.625 1.6375
2.5625 0.5625 1.6375
2.625 0.625 1.6375
2.5625 0.5625 1.7
2.625 0.5625 1.7
2.5625 0.625 1.7
2.625 0.5625 1.6375
2.6875 0.625 1.6375
2.6875 0.5625 1.6375
2.75 0.625 1.6375
2.6875 0.5625 1.7
2.75 0.5625 1.7
2.6875 0.625 1.7
2.75 0.5625 1.6375
2.8125 0.625 1.6375
2.8125 0.5625 1.6375
2.875 0.625 1.6375
2.8125 0.5625 1.7
2.875 0.5625 1.7
2.8125 0.625 1.7
2.875 0.5625 1.6375
2.9375 0.625 1.6375
2.9375 0.5625 1.6375
3 0.625 1.6375
2.9375 0.5625 1.7
3 0.5625 1.7
2.9375 0.625 1.7
3 0.5625 1.6375
3.0625 0.625 1.6375
3.0625 0.5625 1.6375
3.125 0.625 1.6375
3.0625 0.5625 1.7
3.125 0.5625 1.7
3.0625 0.625 1.7
3.125 0.5625 1.6375
3.1875 0.625 1.6375
3.1875 0.5625 1.6375
3.25 0.625 1.6375
3.1875 0.5625 1.7
3.25 0.5625 1.7
3.1875 0.625 1.7
3.25 0.5625 1.6375
3.3125 0.625 1.6375
3.3125 0.5625 1.6375
3.375 0.625 1.6375
3.3125 0.5625 1.7
3.375 0.5625 1.7
3.3125 0.625 1.7
3.375 0.5625 1.6375
3.4375 0.625 1.6375
3.4375 0.5625 1.6375
3.5 0.625 1.6375
3.4375 0.5625 1.7
3.5 0.5625 1.7
3.4375 0.625 1.7
3.5 0.5625 1.6375
3.5625 0.625 1.6375
3.5625 0.5625 1.6375
3.625 0.625 1.6375
3.5625 0.5625 1.7
3.625 0.5625 1.7
3.5625 0.625 1.7
3.625 0.5625 1.6375
3.6875 0.625 1.6375
3.6875 0.5625 1.6375
3.75 0.625 1.6375
3.6875 0.5625 1.7
3.75 0.5625 1.7
3.6875 0.625 1.7
3.75 0.5625 1.6375
3.8125 0.625 1.6375
3.8125 0.5625 1.6375
3.875 0.625 1.6375
3.8125 0.5625 1.7
3.875 0.5625 1.7
3.8125 0.625 1.7
3.875 0.5625 1.6375
3.9375 0.625 1.6375
3.9375 0.5625 1.6375
4 0.625 1.6375
3.9375 0.5625 1.7
4 0.5625 1.7
3.9375 0.625 1.7
4 0.5625 1.6375
0.0625 0.75 1.6375
0.0625 0.6875 1.6375
0.125 0.75 1.6375
0.0625 0.6875 1.7
0.125 0.6875 1.7
0 0.75 1.6375
0 0.6875 1.6375
0.0625 0.75 1.7
0 0.6875 1.7
0.125 0.6875 1.6375
0.1875 0.75 1.6375
0.1875 0.6875 1.6375
0.25 0.75 1.6375
0.1875 0.6875 1.7
0.25 0.6875 1.7
0.1875 0.75 1.7
0.25 0.6875 1.6375
0.3125 0.75 1.6375
0.3125 0.6875 1.6375
0.375 0.75 1.6375
0.3125 0.6875 1.7
0.375 0.6875 1.7
0.3125 0.75 1.7
0.375 0.6875 1.6375
0.4375 0.75 1.6375
0.4375 0.6875 1.6375
0.5 0.75 1.6375
0.4375 0.6875 1.7
0.5 0.6875 1.7
0.4375 0.75 1.7
0.5 0.6875 1.6375
0.5625 0.75 1.6375
0.5625 0.6875 1.6375
0.625 0.75 1.6375
0.5625 0.6875 1.7
0.625 0.6875 1.7
0.5625 0.75 1.7
0.625 0.6875 1.6375
0.6875 0.75 1.6375
0.6875 0.6875 1.6375
0.75 0.75 1.6375
0.6875 0.6875 1.7
0.75 0.6875 1.7
0.6875 0.75 1.7
0.75 0.6875 1.6375
0.8125 0.75 1.6375
0.8125 0.6875 1.6375
0.875 0.75 1.6375
0.8125 0.6875 1.7
0.875 0.6875 1.7
0.8125 0.75 1.7
0.875 0.6875 1.6375
0.9375 0.75 1.6375
0.9375 0.6875 1.6375
1 0.75 1.6375
0.9375 0.6875 1.7
1 0.6875 1.7
0.9375 0.75 1.7
1 0.6875 1.6375
1.0625 0.75 1.6375
1.0625 0.6875 1.6375
1.125 0.75 1.6375
1.0625 0.6875 1.7
1.125 0.6875 1.7
1.0625 0.75 1.7
1.125 0.6875 1.6375
1.1875 0.75 1.6375
1.1875 0.6875 1.6375
1.25 0.75 1.6375
1.1875 0.6875 1.7
1.25 0.6875 1.7
1.1875 0.75 1.7
1.25 0.6875 1.6375
1.3125 0.75 1.6375
1.3125 0.6875 1.6375
1.375 0.75 1.6375
1.3125 0.6875 1.7
1.375 0.6875 1.7
1.3125 0.75 1.7
1.375 0.6875 1.6375
1.4375 0.75 1.6375
1.4375 0.6875 1.6375
1.5 0.75 1.6375
1.4375 0.6875 1.7
1.5 0.6875 1.7
1.4375 0.75 1.7
1.5 0.6875 1.6375
1.5625 0.75 1.6375
1.5625 0.6875 1.6375
1.625 0.75 1.6375
1.5625 0.6875 1.7
1.625 0.6875 1.7
1.5625 0.75 1.7
1.625 0.6875 1.6375
1.6875 0.75 1.6375
1.6875 0.6875 1.6375
1.75 0.75 1.6375
1.6875 0.6875 1.7
1.75 0.6875 1.7
1.6875 0.75 1.7
1.75 0.6875 1.6375
1.8125 0.75 1.6375
1.8125 0.6875 1.6375
1.875 0.75 1.6375
1.8125 0.6875 1.7
1.875 0.6875 1.7
1.8125 0.75 1.7
1.875 0.6875 1.6375
1.9375 0.75 1.6375
1.9375 0.6875 1.6375
2 0.75 1.6375
1.9375 0.6875 1.7
2 0.6875 1.7
1.9375 0.75 1.7
2 0.6875 1.6375
2.0625 0.75 1.6375
2.0625 0.6875 1.6375
2.125 0.75 1.6375
2.0625 0.6875 1.7
2.125 0.6875 1.7
2.0625 0.75 1.7
2.125 0.6875 1.6375
2.1875 0.75 1.6375
2.1875 0.6875 1.6375
2.25 0.75 1.6375
2.1875 0.6875 1.7
2.25 0.6875 1.7
2.1875 0.75 1.7
2.25 0.6875 1.6375
2.3125 0.75 1.6375
2.3125 0.6875 1.6375
2.375 0.75 1.6375
2.3125 0.6875 1.7
2.375 0.6875 1.7
2.3125 0.75 1.7
2.375 0.6875 1.6375
2.4375 0.75 1.6375
2.4375 0.6875 1.6375
2.5 0.75 1.6375
2.4375 0.6875 1.7
2.5 0.6875 1.7
2.4375 0.75 1.7
2.5 0.6875 1.6375
2.5625 0.75 1.6375
2.5625 0.6875 1.6375
2.625 0.75 1.6375
2.5625 0.6875 1.7
2.625 0.6875 1.7
2.5625 0.75 1.7
2.625 0.6875 1.6375
2.6875 0.75 1.6375
2.6875 0.6875 1.6375
2.75 0.75 1.6375
2.6875 0.6875 1.7
2.75 0.6875 1.7
2.6875 0.75 1.7
2.75 0.6875 1.6375
2.8125 0.75 1.6375
2.8125 0.6875 1.6375
2.875 0.75 1.6375
2.8125 0.6875 1.7
2.875 0.6875 1.7
2.8125 0.75 1.7
2.875 0.6875 1.6375
2.9375 0.75 1.6375
2.9375 0.6875 1.6375
3 0.75 1.6375
2.9375 0.6875 1.7
3 0.6875 1.7
2.9375 0.75 1.7
3 0.6875 1.6375
3.0625 0.75 1.6375
3.0625 0.6875 1.6375
3.125 0.75 1.6375
3.0625 0.6875 1.7
3.125 0.6875 1.7
3.0625 0.75 1.7
3.125 0.6875 1.6375
3.1875 0.75 1.6375
3.1875 0.6875 1.6375
3.25 0.75 1.6375
3.1875 0.6875 1.7
3.25 0.6875 1.7
3.1875 0.75 1.7
3.25 0.6875 1.6375
3.3125 0.75 1.6375
3.3125 0.6875 1.6375
3.375 0.75 1.6375
3.3125 0.6875 1.7
3.375 0.6875 1.7
3.3125 0.75 1.7
3.375 0.6875 1.6375
3.4375 0.75 1.6375
3.4375 0.6875 1.6375
3.5 0.75 1.6375
3.4375 0.6875 1.7
3.5 0.6875 1.7
3.4375 0.75 1.7
3.5 0.6875 1.6375
3.5625 0.75 1.6375
3.5625 0.6875 1.6375
3.625 0.75 1.6375
3.5625 0.6875 1.7
3.625 0.6875 1.7
3.5625 0.75 1.7
3.625 0.6875 1.6375
3.6875 0.75 1.6375
3.6875 0.6875 1.6375
3.75 0.75 1.6375
3.6875 0.6875 1.7
3.75 0.6875 1.7
3.6875 0.75 1.7
3.75 0.6875 1.6375
3.8125 0.75 1.6375
3.8125 0.6875 1.6375
3.875 0.75 1.6375
3.8125 0.6875 1.7
3.875 0.6875 1.7
3.8125 0.75 1.7
3.875 0.6875 1.6375
3.9375 0.75 1.6375
3.9375 0.6875 1.6375
4 0.75 1.6375
3.9375 0.6875 1.7
4 0.6875 1.7
3.9375 0.75 1.7
4 0.6875 1.6375
0.0625 0.875 1.6375
0.0625 0.8125 1.6375
0.125 0.875 1.6375
0.0625 0.8125 1.7
0.125 0.8125 1.7
0 0.875 1.6375
0 0.8125 1.6375
0.0625 0.875 1.7
0 0.8125 1.7
0.125 0.8125 1.6375
0.1875 0.875 1.6375
0.1875 0.8125 1.6375
0.25 0.875 1.6375
0.1875 0.8125 1.7
0.25 0.8125 1.7
0.1875 0.875 1.7
0.25 0.8125 1.6375
0.3125 0.875 1.6375
0.3125 0.8125 1.6375
0.375 0.875 1.6375
0.3125 0.8125 1.7
0.375 0.8125 1.7
0.3125 0.875 1.7
0.375 0.8125 1.6375
0.4375 0.875 1.6375
0.4375 0.8125 1.6375
0.5 0.875 1.6375
0.4375 0.8125 1.7
0.5 0.8125 1.7
0.4375 0.875 1.7
0.5 0.8125 1.6375
0.5625 0.875 1.6375
0.5625 0.8125 1.6375
0.625 0.875 1.6375
0.5625 0.8125 1.7
0.625 0.8125 1.7
0.5625 0.875 1.7
0.625 0.8125 1.6375
0.6875 0.875 1.6375
0.6875 0.8125 1.6375
0.75 0.875 1.6375
0.6875 0.8125 1.7
0.75 0.8125 1.7
0.6875 0.875 1.7
0.75 0.8125 1.6375
0.8125 0.875 1.6375
0.8125 0.8125 1.6375
0.875 0.875 1.6375
0.8125 0.8125 1.7
0.875 0.8125 1.7
0.8125 0.875 1.7
0.875 0.8125 1.6375
0.9375 0.875 1.6375
0.9375 0.8125 1.6375
1 0.875 1.6375
0.9375 0.8125 1.7
1 0.8125 1.7
0.9375 0.875 1.7
1 0.8125 1.6375
1.0625 0.875 1.6375
1.0625 0.8125 1.6375
1.125 0.875 1.6375
1.0625 0.8125 1.7
1.125 0.8125 1.7
1.0625 0.875 1.7
1.125 0.8125 1.6375
1.1875 0.875 1.6375
1.1875 0.8125 1.6375
1.25 0.875 1.6375
1.1875 0.8125 1.7
1.25 0.8125 1.7
1.1875 0.875 1.7
1.25 0.8125 1.6375
1.3125 0.875 1.6375
1.3125 0.8125 1.6375
1.375 0.875 1.6375
1.3125 0.8125 1.7
1.375 0.8125 1.7
1.3125 0.875 1.7
1.375 0.8125 1.6375
1.4375 0.875 1.6375
1.4375 0.8125 1.6375
1.5 0.875 1.6375
1.4375 0.8125 1.7
1.5 0.8125 1.7
1.4375 0.875 1.7
1.5 0.8125 1.6375
1.5625 0.875 1.6375
1.5625 0.8125 1.6375
1.625 0.875 1.6375
1.5625 0.8125 1.7
1.625 0.8125 1.7
1.5625 0.875 1.7
1.625 0.8125 1.6375
1.6875 0.875 1.6375
1.6875 0.8125 1.6375
1.75 0.875 1.6375
1.6875 0.8125 1.7
1.75 0.8125 1.7
1.6875 0.875 1.7
1.75 0.8125 1.6375
1.8125 0.875 1.6375
1.8125 0.8125 1.6375
1.875 0.875 1.6375
1.8125 0.8125 1.7
1.875 0.8125 1.7
1.8125 0.875 1.7
1.875 0.8125 1.6375
1.9375 0.875 1.6375
1.9375 0.8125 1.6375
2 0.875 1.6375
1.9375 0.8125 1.7
2 0.8125 1.7
1.9375 0.875 1.7
2 0.8125 1.6375
2.0625 0.875 1.6375
2.0625 0.8125 1.6375
2.125 0.875 1.6375
2.0625 0.8125 1.7
2.125 0.8125 1.7
2.0625 0.875 1.7
2.125 0.8125 1.6375
2.1875 0.875 1.6375
2.1875 0.8125 1.6375
2.25 0.875 1.6375
2.1875 0.8125 1.7
2.25 0.8125 1.7
2.1875 0.875 1.7
2.25 0.8125 1.6375
2.3125 0.875 1.6375
2.3125 0.8125 1.6375
2.375 0.875 1.6375
2.3125 0.8125 1.7
2.375 0.8125 1.7
2.3125 0.875 1.7
2.375 0.8125 1.6375
2.4375 0.875 1.6375
2.4375 0.8125 1.6375
2.5 0.875 1.6375
2.4375 0.8125 1.7
2.5 0.8125 1.7
2.4375 0.875 1.7
2.5 0.8125 1.6375
2.5625 0.875 1.6375
2.5625 0.8125 1.6375
2.625 0.875 1.6375
2.5625 0.8125 1.7
2.625 0.8125 1.7
2.5625 0.875 1.7
2.625 0.8125 1.6375
2.6875 0.875 1.6375
2.6875 0.8125 1.6375
2.75 0.875 1.6375
2.6875 0.8125 1.7
2.75 0.8125 1.7
2.6875 0.875 1.7
2.75 0.8125 1.6375
2.8125 0.875 1.6375
2.8125 0.8125 1.6375
2.875 0.875 1.6375
2.8125 0.8125 1.7
2.875 0.8125 1.7
2.8125 0.875 1.7
2.875 0.8125 1.6375
2.9375 0.875 1.6375
2.9375 0.8125 1.6375
3 0.875 1.6375
2.9375 0.8125 1.7
3 0.8125 1.7
2.9375 0.875 1.7
3 0.8125 1.6375
3.0625 0.875 1.6375
3.0625 0.8125 1.6375
3.125 0.875 1.6375
3.0625 0.8125 1.7
3.125 0.8125 1.7
3.0625 0.875 1.7
3.125 0.8125 1.6375
3.1875 0.875 1.6375
3.1875 0.8125 1.6375
3.25 0.875 1.6375
3.1875 0.8125 1.7
3.25 0.8125 1.7
3.1875 0.875 1.7
3.25 0.8125 1.6375
3.3125 0.875 1.6375
3.3125 0.8125 1.6375
3.375 0.875 1.6375
3.3125 0.8125 1.7
3.375 0.8125 1.7
3.3125 0.875 1.7
3.375 0.8125 1.6375
3.4375 0.875 1.6375
3.4375 0.8125 1.6375
3.5 0.875 1.6375
3.4375 0.8125 1.7
3.5 0.8125 1.7
3.4375 0.875 1.7
3.5 0.8125 1.6375
3.5625 0.875 1.6375
3.5625 0.8125 1.6375
3.625 0.875 1.6375
3.5625 0.8125 1.7
3.625 0.8125 1.7
3.5625 0.875 1.7
3.625 0.8125 1.6375
3.6875 0.875 1.6375
3.6875 0.8125 1.6375
3.75 0.875 1.6375
3.6875 0.8125 1.7
3.75 0.8125 1.7
3.6875 0.875 1.7
3.75 0.8125 1.6375
3.8125 0.875 1.6375
3.8125 0.8125 1.6375
3.875 0.875 1.6375
3.8125 0.8125 1.7
3.875 0.8125 1.7
3.8125 0.875 1.7
3.875 0.8125 1.6375
3.9375 0.875 1.6375
3.9375 0.8125 1.6375
4 0.875 1.6375
3.9375 0.8125 1.7
4 0.8125 1.7
3.9375 0.875 1.7
4 0.8125 1.6375
0.0625 1 1.6375
0.0625 0.9375 1.6375
0.125 1 1.6375
0.0625 0.9375 1.7
0.125 0.9375 1.7
0 1 1.6375
0 0.9375 1.6375
0.0625 1 1.7
0 0.9375 1.7
0.125 0.9375 1.6375
0.1875 1 1.6375
0.1875 0.9375 1.6375
0.25 1 1.6375
0.1875 0.9375 1.7
0.25 0.9375 1.7
0.1875 1 1.7
0.25 0.9375 1.6375
0.3125 1 1.6375
0.3125 0.9375 1.6375
0.375 1 1.6375
0.3125 0.9375 1.7
0.375 0.9375 1.7
0.3125 1 1.7
0.375 0.9375 1.6375
0.4375 1 1.6375
0.4375 0.9375 1.6375
0.5 1 1.6375
0.4375 0.9375 1.7
0.5 0.9375 1.7
0.4375 1 1.7
0.5 0.9375 1.6375
0.5625 1 1.6375
0.5625 0.9375 1.6375
0.625 1 1.6375
0.5625 0.9375 1.7
0.625 0.9375 1.7
0.5625 1 1.7
0.625 0.9375 1.6375
0.6875 1 1.6375
0.6875 0.9375 1.6375
0.75 1 1.6375
0.6875 0.9375 1.7
0.75 0.9375 1.7
0.6875 1 1.7
0.75 0.9375 1.6375
0.8125 1 1.6375
0.8125 0.9375 1.6375
0.875 1 1.6375
0.8125 0.9375 1.7
0.875 0.9375 1.7
0.8125 1 1.7
0.875 0.9375 1.6375
0.9375 1 1.6375
0.9375 0.9375 1.6375
1 1 1.6375
0.9375 0.9375 1.7
1 0.9375 1.7
0.9375 1 1.7
1 0.9375 1.6375
1.0625 1 1.6375
1.0625 0.9375 1.6375
1.125 1 1.6375
1.0625 0.9375 1.7
1.125 0.9375 1.7
1.0625 1 1.7
1.125 0.9375 1.6375
1.1875 1 1.6375
1.1875 0.9375 1.6375
1.25 1 1.6375
1.1875 0.9375 1.7
1.25 0.9375 1.7
1.1875 1 1.7
1.25 0.9375 1.6375
1.3125 1 1.6375
1.3125 0.9375 1.6375
1.375 1 1.6375
1.3125 0.9375 1.7
1.375 0.9375 1.7
1.3125 1 1.7
1.375 0.9375 1.6375
1.4375 1 1.6375
1.4375 0.9375 1.6375
1.5 1 1.6375
1.4375 0.9375 1.7
1.5 0.9375 1.7
1.4375 1 1.7
1.5 0.9375 1.6375
1.5625 1 1.6375
1.5625 0.9375 1.6375
1.625 1 1.6375
1.5625 0.9375 1.7
1.625 0.9375 1.7
1.5625 1 1.7
1.625 0.9375 1.6375
1.6875 1 1.6375
1.6875 0.9375 1.6375
1.75 1 1.6375
1.6875 0.9375 1.7
1.75 0.9375 1.7
1.6875 1 1.7
1.75 0.9375 1.6375
1.8125 1 1.6375
1.8125 0.9375 1.6375
1.875 1 1.6375
1.8125 0.9375 1.7
1.875 0.9375 1.7
1.8125 1 1.7
1.875 0.9375 1.6375
1.9375 1 1.6375
1.9375 0.9375 1.6375
2 1 1.6375
1.9375 0.9375 1.7
2 0.9375 1.7
1.9375 1 1.7
2 0.9375 1.6375
2.0625 1 1.6375
2.0625 0.9375 1.6375
2.125 1 1.6375
2.0625 0.9375 1.7
2.125 0.9375 1.7
2.0625 1 1.7
2.125 0.9375 1.6375
2.1875 1 1.6375
2.1875 0.9375 1.6375
2.25 1 1.6375
2.1875 0.9375 1.7
2.25 0.9375 1.7
2.1875 1 1.7
2.25 0.9375 1.6375
2.3125 1 1.6375
2.3125 0.9375 1.6375
2.375 1 1.6375
2.3125 0.9375 1.7
2.375 0.9375 1.7
2.3125 1 1.7
2.375 0.9375 1.6375
2.4375 1 1.6375
2.4375 0.9375 1.6375
2.5 1 1.6375
2.4375 0.9375 1.7
2.5 0.9375 1.7
2.4375 1 1.7
2.5 0.9375 1.6375
2.5625 1 1.6375
2.5625 0.9375 1.6375
2.625 1 1.6375
2.5625 0.9375 1.7
2.625 0.9375 1.7
2.5625 1 1.7
2.625 0.9375 1.6375
2.6875 1 1.6375
2.6875 0.9375 1.6375
2.75 1 1.6375
2.6875 0.9375 1.7
2.75 0.9375 1.7
2.6875 1 1.7
2.75 0.9375 1.6375
2.8125 1 1.6375
2.8125 0.9375 1.6375
2.875 1 1.6375
2.8125 0.9375 1.7
2.875 0.9375 1.7
2.8125 1 1.7
2.875 0.9375 1.6375
2.9375 1 1.6375
2.9375 0.9375 1.6375
3 1 1.6375
2.9375 0.9375 1.7
3 0.9375 1.7
2.9375 1 1.7
3 0.9375 1.6375
3.0625 1 1.6375
3.0625 0.9375 1.6375
3.125 1 1.6375
3.0625 0.9375 1.7
3.125 0.9375 1.7
3.0625 1 1.7
3.125 0.9375 1.6375
3.1875 1 1.6375
3.1875 0.9375 1.6375
3.25 1 1.6375
3.1875 0.9375 1.7
3.25 0.9375 1.7
3.1875 1 1.7
3.25 0.9375 1.6375
3.3125 1 1.6375
3.3125 0.9375 1.6375
3.375 1 1.6375
3.3125 0.9375 1.7
3.375 0.9375 1.7
3.3125 1 1.7
3.375 0.9375 1.6375
3.4375 1 1.6375
3.4375 0.9375 1.6375
3.5 1 1.6375
3.4375 0.9375 1.7
3.5 0.9375 1.7
3.4375 1 1.7
3.5 0.9375 1.6375
3.5625 1 1.6375
3.5625 0.9375 1.6375
3.625 1 1.6375
3.5625 0.9375 1.7
3.625 0.9375 1.7
3.5625 1 1.7
3.625 0.9375 1.6375
3.6875 1 1.6375
3.6875 0.9375 1.6375
3.75 1 1.6375
3.6875 0.9375 1.7
3.75 0.9375 1.7
3.6875 1 1.7
3.75 0.9375 1.6375
3.8125 1 1.6375
3.8125 0.9375 1.6375
3.875 1 1.6375
3.8125 0.9375 1.7
3.875 0.9375 1.7
3.8125 1 1.7
3.875 0.9375 1.6375
3.9375 1 1.6375
3.9375 0.9375 1.6375
4 1 1.6375
3.9375 0.9375 1.7
4 0.9375 1.7
3.9375 1 1.7
4 0.9375 1.6375

CELLS 12289 122880
OFFSETS vtktypeint64
0 10 20 30 40 50 60 70 80 90 100 110 120 130 140 150 160 170 180 190 200 210 220 230 240 250 260 270 280 290 300 310 320 330 340 350 360 370 380 390 400 410 420 430 440 450 460 470 480 490 500 510 520 530 540 550 560 570 580 590 600 610 620 630 640 650 660 670 680 690 700 710 720 730 740 750 760 770 780 790 800 810 820 830 840 850 860 870 880 890 900 910 920 930 940 950 960 970 980 990 1000 1010 1020 1030 1040 1050 1060 1070 1080 1090 1100 1110 1120 1130 1140 1150 1160 1170 1180 1190 1200 1210 1220 1230 1240 1250 1260 1270 1280 1290 1300 1310 1320 1330 1340 1350 1360 1370 1380 1390 1400 1410 1420 1430 1440 1450 1460 1470 1480 1490 1500 1510 1520 1530 1540 1550 1560 1570 1580 1590 1600 1610 1620 1630 1640 1650 1660 1670 1680 1690 1700 1710 1720 1730 1740 1750 1760 1770 1780 1790 1800 1810 1820 1830 1840 1850 1860 1870 1880 1890 1900 1910 1920 1930 1940 1950 1960 1970 1980 1990 2000 2010 2020 2030 2040 2050 2060 2070 2080 2090 2100 2110 2120 2130 2140 2150 2160 2170 2180 2190 2200 2210 2220 2230 2240 2250 2260 2270 2280 2290 2300 2310 2320 2330 2340 2350 2360 2370 2380 2390 2400 2410 2420 2430 2440 2450 2460 2470 2480 2490 2500 2510 2520 2530 2540 2550 2560 2570 2580 2590 2600 2610 2620 2630 2640 2650 2660 2670 2680 2690 2700 2710 2720 2730 2740 2750 2760 2770 2780 2790 2800 2810 2820 2830 2840 2850 2860 2870 2880 2890 2900 2910 2920 2930 2940 2950 2960 2970 2980 2990 3000 3010 3020 3030 3040 3050 3060 3070 3080 3090 3100 3110 3120 3130 3140 3150 3160 3170 3180 3190 3200 3210 3220 3230 3240 3250 3260 3270 3280 3290 3300 3310 3320 3330 3340 3350 3360 3370 3380 3390 3400 3410 3420 3430 3440 3450 3460 3470 3480 3490 3500 3510 3520 3530 3540 3550 3560 3570 3580 3590 3600 3610 3620 3630 3640 3650 3660 3670 3680 3690 3700 3710 3720 3730 3740 3750 3760 3770 3780 3790 3800 3810 3820 3830 3840 3850 3860 3870 3880 3890 3900 3910 3920 3930 3940 3950 3960 3970 3980 3990 4000 4010 4020 4030 4040 4050 4060 4070 4080 4090 4100 4110 4120 4130 4140 4150 4160 4170 4180 4190 4200 4210 4220 4230 4240 4250 4260 4270 4280 4290 4300 4310 4320 4330 4340 4350 4360 4370 4380 4390 4400 4410 4420 4430 4440 4450 4460 4470 4480 4490 4500 4510 4520 4530 4540 4550 4560 4570 4580 4590 4600 4610 4620 4630 4640 4650 4660 4670 4680 4690 4700 4710 4720 4730 4740 4750 4760 4770 4780 4790 4800 4810 4820 4830 4840 4850 4860 4870 4880 4890 4900 4910 4920 4930 4940 4950 4960 4970 4980 4990 5000 5010 5020 5030 5040 5050 5060 5070 5080 5090 5100 5110 5120 5130 5140 5150 5160 5170 5180 5190 5200 5210 5220 5230 5240 5250 5260 5270 5280 5290 5300 5310 5320 5330 5340 5350 5360 5370 5380 5390 5400 5410 5420 5430 5440 5450 5460 5470 5480 5490 5500 5510 5520 5530 5540 5550 5560 5570 5580 5590 5600 5610 5620 5630 5640 5650 5660 5670 5680 5690 5700 5710 5720 5730 5740 5750 5760 5770 5780 5790 5800 5810 5820 5830 5840 5850 5860 5870 5880 5890 5900 5910 5920 5930 5940 5950 5960 5970 5980 5990 6000 6010 6020 6030 6040 6050 6060 6070 6080 6090 6100 6110 6120 6130 6140 6150 6160 6170 6180 6190 6200 6210 6220 6230 6240 6250 6260 6270 6280 6290 6300 6310 6320 6330 6340 6350 6360 6370 6380 6390 6400 6410 6420 6430 6440 6450 6460 6470 6480 6490 6500 6510 6520 6530 6540 6550 6560 6570 6580 6590 6600 6610 6620 6630 6640 6650 6660 6670 6680 6690 6700 6710 6720 6730 6740 6750 6760 6770 6780 6790 6800 6810 6820 6830 6840 6850 6860 6870 6880 6890 6900 6910 6920 6930 6940 6950 6960 6970 6980 6990 7000 7010 7020 7030 7040 7050 7060 7070 7080 7090 7100 7110 7120 7130 7140 7150 7160 7170 7180 7190 7200 7210 7220 7230 7240 7250 7260 7270 7280 7290 7300 7310 7320 7330 7340 7350 7360 7370 7380 7390 7400 7410 7420 7430 7440 7450 7460 7470 7480 7490 7500 7510 7520 7530 7540 7550 7560 7570 7580 7590 7600 7610 7620 7630 7640 7650 7660 7670 7680 7690 7700 7710 7720 7730 7740 7750 7760 7770 7780 7790 7800 7810 7820 7830 7840 7850 7860 7870 7880 7890 7900 7910 7920 7930 7940 7950 7960 7970 7980 7990 8000 8010 8020 8030 8040 8050 8060 8070 8080 8090 8100 8110 8120 8130 8140 8150 8160 8170 8180 8190 8200 8210 8220 8230 8240 8250 8260 8270 8280 8290 8300 8310 8320 8330 8340 8350 8360 8370 8380 8390 8400 8410 8420 8430 8440 8450 8460 8470 8480 8490 8500 8510 8520 8530 8540 8550 8560 8570 8580 8590 8600 8610 8620 8630 8640 8650 8660 8670 8680 8690 8700 8710 8720 8730 8740 8750 8760 8770 8780 8790 8800 8810 8820 8830 8840 8850 8860 8870 8880 8890 8900 8910 8920 8930 8940 8950 8960 8970 8980 8990 9000 9010 9020 9030 9040 9050 9060 9070 9080 9090 9100 9110 9120 9130 9140 9150 9160 9170 9180 9190 9200 9210 9220 9230 9240 9250 9260 9270 9280 9290 9300 9310 9320 9330 9340 9350 9360 9370 9380 9390 9400 9410 9420 9430 9440 9450 9460 9470 9480 9490 9500 9510 9520 9530 9540 9550 9560 9570 9580 9590 9600 9610 9620 9630 9640 9650 9660 9670 9680 9690 9700 9710 9720 9730 9740 9750 9760 9770 9780 9790 9800 9810 9820 9830 9840 9850 9860 9870 9880 9890 9900 9910 9920 9930 9940 9950 9960 9970 9980 9990 10000 10010 10020 10030 10040 10050 10060 10070 10080 10090 10100 10110 10120 10130 10140 10150 10160 10170 10180 10190 10200 10210 10220 10230 10240 10250 10260 10270 10280 10290 10300 10310 10320 10330 10340 10350 10360 10370 10380 10390 10400 10410 10420 10430 10440 10450 10460 10470 10480 10490 10500 10510 10520 10530 10540 10550 10560 10570 10580 10590 10600 10610 10620 10630 10640 10650 10660 10670 10680 10690 10700 10710 10720 10730 10740 10750 10760 10770 10780 10790 10800 10810 10820 10830 10840 10850 10860 10870 10880 10890 10900 10910 10920 10930 10940 10950 10960 10970 10980 10990 11000 11010 11020 11030 11040 11050 11060 11070 11080 11090 11100 11110 11120 11130 11140 11150 11160 11170 11180 11190 11200 11210 11220 11230 11240 11250 11260 11270 11280 11290 11300 11310 11320 11330 11340 11350 11360 11370 11380 11390 11400 11410 11420 11430 11440 11450 11460 11470 11480 11490 11500 11510 11520 11530 11540 11550 11560 11570 11580 11590 11600 11610 11620 11630 11640 11650 11660 11670 11680 11690 11700 11710 11720 11730 11740 11750 11760 11770 11780 11790 11800 11810 11820 11830 11840 11850 11860 11870 11880 11890 11900 11910 11920 11930 11940 11950 11960 11970 11980 11990 12000 12010 12020 12030 12040 12050 12060 12070 12080 12090 12100 12110 12120 12130 12140 12150 12160 12170 12180 12190 12200 12210 12220 12230 12240 12250 12260 12270 12280 12290 12300 12310 12320 12330 12340 12350 12360 12370 12380 12390 12400 12410 12420 12430 12440 12450 12460 12470 12480 12490 12500 12510 12520 12530 12540 12550 12560 12570 12580 12590 12600 12610 12620 12630 12640 12650 12660 12670 12680 12690 12700 12710 12720 12730 12740 12750 12760 12770 12780 12790 12800 12810 12820 12830 12840 12850 12860 12870 12880 12890 12900 12910 12920 12930 12940 12950 12960 12970 12980 12990 13000 13010 13020 13030 13040 13050 13060 13070 13080 13090 13100 13110 13120 13130 13140 13150 13160 13170 13180 13190 13200 13210 13220 13230 13240 13250 13260 13270 13280 13290 13300 13310 13320 13330 13340 13350 13360 13370 13380 13390 13400 13410 13420 13430 13440 13450 13460 13470 13480 13490 13500 13510 13520 13530 13540 13550 13560 13570 13580 13590 13600 13610 13620 13630 13640 13650 13660 13670 13680 13690 13700 13710 13720 13730 13740 13750 13760 13770 13780 13790 13800 13810 13820 13830 13840 13850 13860 13870 13880 13890 13900 13910 13920 13930 13940 13950 13960 13970 13980 13990 14000 14010 14020 14030 14040 14050 14060 14070 14080 14090 14100 14110 14120 14130 14140 14150 14160 14170 14180 14190 14200 14210 14220 14230 14240 14250 14260 14270 14280 14290 14300 14310 14320 14330 14340 14350 14360 14370 14380 14390 14400 14410 14420 14430 14440 14450 14460 14470 14480 14490 14500 14510 14520 14530 14540 14550 14560 14570 14580 14590 14600 14610 14620 14630 14640 14650 14660 14670 14680 14690 14700 14710 14720 14730 14740 14750 14760 14770 14780 14790 14800 14810 14820 14830 14840 14850 14860 14870 14880 14890 14900 14910 14920 14930 14940 14950 14960 14970 14980 14990 15000 15010 15020 15030 15040 15050 15060 15070 15080 15090 15100 15110 15120 15130 15140 15150 15160 15170 15180 15190 15200 15210 15220 15230 15240 15250 15260 15270 15280 15290 15300 15310 15320 15330 15340 15350 15360 15370 15380 15390 15400 15410 15420 15430 15440 15450 15460 15470 15480 15490 15500 15510 15520 15530 15540 15550 15560 15570 15580 15590 15600 15610 15620 15630 15640 15650 15660 15670 15680 15690 15700 15710 15720 15730 15740 15750 15760 15770 15780 15790 15800 15810 15820 15830 15840 15850 15860 15870 15880 15890 15900 15910 15920 15930 15940 15950 15960 15970 15980 15990 16000 16010 16020 16030 16040 16050 16060 16070 16080 16090 16100 16110 16120 16130 16140 16150 16160 16170 16180 16190 16200 16210 16220 16230 16240 16250 16260 16270 16280 16290 16300 16310 16320 16330 16340 16350 16360 16370 16380 16390 16400 16410 16420 16430 16440 16450 16460 16470 16480 16490 16500 16510 16520 16530 16540 16550 16560 16570 16580 16590 16600 16610 16620 16630 16640 16650 16660 16670 16680 16690 16700 16710 16720 16730 16740 16750 16760 16770 16780 16790 16800 16810 16820 16830 16840 16850 16860 16870 16880 16890 16900 16910 16920 16930 16940 16950 16960 16970 16980 16990 17000 17010 17020 17030 17040 17050 17060 17070 17080 17090 17100 17110 17120 17130 17140 17150 17160 17170 17180 17190 17200 17210 17220 17230 17240 17250 17260 17270 17280 17290 17300 17310 17320 17330 17340 17350 17360 17370 17380 17390 17400 17410 17420 17430 17440 17450 17460 17470 17480 17490 17500 17510 17520 17530 17540 17550 17560 17570 17580 17590 17600 17610 17620 17630 17640 17650 17660 17670 17680 17690 17700 17710 17720 17730 17740 17750 17760 17770 17780 17790 17800 17810 17820 17830 17840 17850 17860 17870 17880 17890 17900 17910 17920 17930 17940 17950 17960 17970 17980 17990 18000 18010 18020 18030 18040 18050 18060 18070 18080 18090 18100 18110 18120 18130 18140 18150 18160 18170 18180 18190 18200 18210 18220 18230 18240 18250 18260 18270 18280 18290 18300 18310 18320 18330 18340 18350 18360 18370 18380 18390 18400 18410 18420 18430 18440 18450 18460 18470 18480 18490 18500 18510 18520 18530 18540 18550 18560 18570 18580 18590 18600 18610 18620 18630 18640 18650 18660 18670 18680 18690 18700 18710 18720 18730 18740 18750 18760 18770 18780 18790 18800 18810 18820 18830 18840 18850 18860 18870 18880 18890 18900 18910 18920 18930 18940 18950 18960 18970 18980 18990 19000 19010 19020 19030 19040 19050 19060 19070 19080 19090 19100 19110 19120 19130 19140 19150 19160 19170 19180 19190 19200 19210 19220 19230 19240 19250 19260 19270 19280 19290 19300 19310 19320 19330 19340 19350 19360 19370 19380 19390 19400 19410 19420 19430 19440 19450 19460 19470 19480 19490 19500 19510 19520 19530 19540 19550 19560 19570 19580 19590 19600 19610 19620 19630 19640 19650 19660 19670 19680 19690 19700 19710 19720 19730 19740 19750 19760 19770 19780 19790 19800 19810 19820 19830 19840 19850 19860 19870 19880 19890 19900 19910 19920 19930 19940 19950 19960 19970 19980 19990 20000 20010 20020 20030 20040 20050 20060 20070 20080 20090 20100 20110 20120 20130 20140 20150 20160 20170 20180 20190 20200 20210 20220 20230 20240 20250 20260 20270 20280 20290 20300 20310 20320 20330 20340 20350 20360 20370 20380 20390 20400 20410 20420 20430 20440 20450 20460 20470 20480 20490 20500 20510 20520 20530 20540 20550 20560 20570 20580 20590 20600 20610 20620 20630 20640 20650 20660 20670 20680 20690 20700 20710 20720 20730 20740 20750 20760 20770 20780 20790 20800 20810 20820 20830 20840 20850 20860 20870 20880 20890 20900 20910 20920 20930 20940 20950 20960 20970 20980 20990 21000 21010 21020 21030 21040 21050 21060 21070 21080 21090 21100 21110 21120 21130 21140 21150 21160 21170 21180 21190 21200 21210 21220 21230 21240 21250 21260 21270 21280 21290 21300 21310 21320 21330 21340 21350 21360 21370 21380 21390 21400 21410 21420 21430 21440 21450 21460 21470 21480 21490 21500 21510 21520 21530 21540 21550 21560 21570 21580 21590 21600 21610 21620 21630 21640 21650 21660 21670 21680 21690 21700 21710 21720 21730 21740 21750 21760 21770 21780 21790 21800 21810 21820 21830 21840 21850 21860 21870 21880 21890 21900 21910 21920 21930 21940 21950 21960 21970 21980 21990 22000 22010 22020 22030 22040 22050 22060 22070 22080 22090 22100 22110 22120 22130 22140 22150 22160 22170 22180 22190 22200 22210 22220 22230 22240 22250 22260 22270 22280 22290 22300 22310 22320 22330 22340 22350 22360 22370 22380 22390 22400 22410 22420 22430 22440 22450 22460 22470 22480 22490 22500 22510 22520 22530 22540 22550 22560 22570 22580 22590 22600 22610 22620 22630 22640 22650 22660 22670 22680 22690 22700 22710 22720 22730 22740 22750 22760 22770 22780 22790 22800 22810 22820 22830 22840 22850 22860 22870 22880 22890 22900 22910 22920 22930 22940 22950 22960 22970 22980 22990 23000 23010 23020 23030 23040 23050 23060 23070 23080 23090 23100 23110 23120 23130 23140 23150 23160 23170 23180 23190 23200 23210 23220 23230 23240 23250 23260 23270 23280 23290 23300 23310 23320 23330 23340 23350 23360 23370 23380 23390 23400 23410 23420 23430 23440 23450 23460 23470 23480 23490 23500 23510 23520 23530 23540 23550 23560 23570 23580 23590 23600 23610 23620 23630 23640 23650 23660 23670 23680 23690 23700 23710 23720 23730 23740 23750 23760 23770 23780 23790 23800 23810 23820 23830 23840 23850 23860 23870 23880 23890 23900 23910 23920 23930 23940 23950 23960 23970 23980 23990 24000 24010 24020 24030 24040 24050 24060 24070 24080 24090 24100 24110 24120 24130 24140 24150 24160 24170 24180 24190 24200 24210 24220 24230 24240 24250 24260 24270 24280 24290 24300 24310 24320 24330 24340 24350 24360 24370 24380 24390 24400 24410 24420 24430 24440 24450 24460 24470 24480 24490 24500 24510 24520 24530 24540 24550 24560 24570 24580 24590 24600 24610 24620 24630 24640 24650 24660 24670 24680 24690 24700 24710 24720 24730 24740 24750 24760 24770 24780 24790 24800 24810 24820 24830 24840 24850 24860 24870 24880 24890 24900 24910 24920 24930 24940 24950 24960 24970 24980 24990 25000 25010 25020 25030 25040 25050 25060 25070 25080 25090 25100 25110 25120 25130 25140 25150 25160 25170 25180 25190 25200 25210 25220 25230 25240 25250 25260 25270 25280 25290 25300 25310 25320 25330 25340 25350 25360 25370 25380 25390 25400 25410 25420 25430 25440 25450 25460 25470 25480 25490 25500 25510 25520 25530 25540 25550 25560 25570 25580 25590 25600 25610 25620 25630 25640 25650 25660 25670 25680 25690 25700 25710 25720 25730 25740 25750 25760 25770 25780 25790 25800 25810 25820 25830 25840 25850 25860 25870 25880 25890 25900 25910 25920 25930 25940 25950 25960 25970 25980 25990 26000 26010 26020 26030 26040 26050 26060 26070 26080 26090 26100 26110 26120 26130 26140 26150 26160 26170 26180 26190 26200 26210 26220 26230 26240 26250 26260 26270 26280 26290 26300 26310 26320 26330 26340 26350 26360 26370 26380 26390 26400 26410 26420 26430 26440 26450 26460 26470 26480 26490 26500 26510 26520 26530 26540 26550 26560 26570 26580 26590 26600 26610 26620 26630 26640 26650 26660 26670 26680 26690 26700 26710 26720 26730 26740 26750 26760 26770 26780 26790 26800 26810 26820 26830 26840 26850 26860 26870 26880 26890 26900 26910 26920 26930 26940 26950 26960 26970 26980 26990 27000 27010 27020 27030 27040 27050 27060 27070 27080 27090 27100 27110 27120 27130 27140 27150 27160 27170 27180 27190 27200 27210 27220 27230 27240 27250 27260 27270 27280 27290 27300 27310 27320 27330 27340 27350 27360 27370 27380 27390 27400 27410 27420 27430 27440 27450 27460 27470 27480 27490 27500 27510 27520 27530 27540 27550 27560 27570 27580 27590 27600 27610 27620 27630 27640 27650 27660 27670 27680 27690 27700 27710 27720 27730 27740 27750 27760 27770 27780 27790 27800 27810 27820 27830 27840 27850 27860 27870 27880 27890 27900 27910 27920 27930 27940 27950 27960 27970 27980 27990 28000 28010 28020 28030 28040 28050 28060 28070 28080 28090 28100 28110 28120 28130 28140 28150 28160 28170 28180 28190 28200 28210 28220 28230 28240 28250 28260 28270 28280 28290 28300 28310 28320 28330 28340 28350 28360 28370 28380 28390 28400 28410 28420 28430 28440 28450 28460 28470 28480 28490 28500 28510 28520 28530 28540 28550 28560 28570 28580 28590 28600 28610 28620 28630 28640 28650 28660 28670 28680 28690 28700 28710 28720 28730 28740 28750 28760 28770 28780 28790 28800 28810 28820 28830 28840 28850 28860 28870 28880 28890 28900 28910 28920 28930 28940 28950 28960 28970 28980 28990 29000 29010 29020 29030 29040 29050 29060 29070 29080 29090 29100 29110 29120 29130 29140 29150 29160 29170 29180 29190 29200 29210 29220 29230 29240 29250 29260 29270 29280 29290 29300 29310 29320 29330 29340 29350 29360 29370 29380 29390 29400 29410 29420 29430 29440 29450 29460 29470 29480 29490 29500 29510 29520 29530 29540 29550 29560 29570 29580 29590 29600 29610 29620 29630 29640 29650 29660 29670 29680 29690 29700 29710 29720 29730 29740 29750 29760 29770 29780 29790 29800 29810 29820 29830 29840 29850 29860 29870 29880 29890 29900 29910 29920 29930 29940 29950 29960 29970 29980 29990 30000 30010 30020 30030 30040 30050 30060 30070 30080 30090 30100 30110 30120 30130 30140 30150 30160 30170 30180 30190 30200 30210 30220 30230 30240 30250 30260 30270 30280 30290 30300 30310 30320 30330 30340 30350 30360 30370 30380 30390 30400 30410 30420 30430 30440 30450 30460 30470 30480 30490 30500 30510 30520 30530 30540 30550 30560 30570 30580 30590 30600 30610 30620 30630 30640 30650 30660 30670 30680 30690 30700 30710 30720 30730 30740 30750 30760 30770 30780 30790 30800 30810 30820 30830 30840 30850 30860 30870 30880 30890 30900 30910 30920 30930 30940 30950 30960 30970 30980 30990 31000 31010 31020 31030 31040 31050 31060 31070 31080 31090 31100 31110 31120 31130 31140 31150 31160 31170 31180 31190 31200 31210 31220 31230 31240 31250 31260 31270 31280 31290 31300 31310 31320 31330 31340 31350 31360 31370 31380 31390 31400 31410 31420 31430 31440 31450 31460 31470 31480 31490 31500 31510 31520 31530 31540 31550 31560 31570 31580 31590 31600 31610 31620 31630 31640 31650 31660 31670 31680 31690 31700 31710 31720 31730 31740 31750 31760 31770 31780 31790 31800 31810 31820 31830 31840 31850 31860 31870 31880 31890 31900 31910 31920 31930 31940 31950 31960 31970 31980 31990 32000 32010 32020 32030 32040 32050 32060 32070 32080 32090 32100 32110 32120 32130 32140 32150 32160 32170 32180 32190 32200 32210 32220 32230 32240 32250 32260 32270 32280 32290 32300 32310 32320 32330 32340 32350 32360 32370 32380 32390 32400 32410 32420 32430 32440 32450 32460 32470 32480 32490 32500 32510 32520 32530 32540 32550 32560 32570 32580 32590 32600 32610 32620 32630 32640 32650 32660 32670 32680 32690 32700 32710 32720 32730 32740 32750 32760 32770 32780 32790 32800 32810 32820 32830 32840 32850 32860 32870 32880 32890 32900 32910 32920 32930 32940 32950 32960 32970 32980 32990 33000 33010 33020 33030 33040 33050 33060 33070 33080 33090 33100 33110 33120 33130 33140 33150 33160 33170 33180 33190 33200 33210 33220 33230 33240 33250 33260 33270 33280 33290 33300 33310 33320 33330 33340 33350 33360 33370 33380 33390 33400 33410 33420 33430 33440 33450 33460 33470 33480 33490 33500 33510 33520 33530 33540 33550 33560 33570 33580 33590 33600 33610 33620 33630 33640 33650 33660 33670 33680 33690 33700 33710 33720 33730 33740 33750 33760 33770 33780 33790 33800 33810 33820 33830 33840 33850 33860 33870 33880 33890 33900 33910 33920 33930 33940 33950 33960 33970 33980 33990 34000 34010 34020 34030 34040 34050 34060 34070 34080 34090 34100 34110 34120 34130 34140 34150 34160 34170 34180 34190 34200 34210 34220 34230 34240 34250 34260 34270 34280 34290 34300 34310 34320 34330 34340 34350 34360 34370 34380 34390 34400 34410 34420 34430 34440 34450 34460 34470 34480 34490 34500 34510 34520 34530 34540 34550 34560 34570 34580 34590 34600 34610 34620 34630 34640 34650 34660 34670 34680 34690 34700 34710 34720 34730 34740 34750 34760 34770 34780 34790 34800 34810 34820 34830 34840 34850 34860 34870 34880 34890 34900 34910 34920 34930 34940 34950 34960 34970 34980 34990 35000 35010 35020 35030 35040 35050 35060 35070 35080 35090 35100 35110 35120 35130 35140 35150 35160 35170 35180 35190 35200 35210 35220 35230 35240 35250 35260 35270 35280 35290 35300 35310 35320 35330 35340 35350 35360 35370 35380 35390 35400 35410 35420 35430 35440 35450 35460 35470 35480 35490 35500 35510 35520 35530 35540 35550 35560 35570 35580 35590 35600 35610 35620 35630 35640 35650 35660 35670 35680 35690 35700 35710 35720 35730 35740 35750 35760 35770 35780 35790 35800 35810 35820 35830 35840 35850 35860 35870 35880 35890 35900 35910 35920 35930 35940 35950 35960 35970 35980 35990 36000 36010 36020 36030 36040 36050 36060 36070 36080 36090 36100 36110 36120 36130 36140 36150 36160 36170 36180 36190 36200 36210 36220 36230 36240 36250 36260 36270 36280 36290 36300 36310 36320 36330 36340 36350 36360 36370 36380 36390 36400 36410 36420 36430 36440 36450 36460 36470 36480 36490 36500 36510 36520 36530 36540 36550 36560 36570 36580 36590 36600 36610 36620 36630 36640 36650 36660 36670 36680 36690 36700 36710 36720 36730 36740 36750 36760 36770 36780 36790 36800 36810 36820 36830 36840 36850 36860 36870 36880 36890 36900 36910 36920 36930 36940 36950 36960 36970 36980 36990 37000 37010 37020 37030 37040 37050 37060 37070 37080 37090 37100 37110 37120 37130 37140 37150 37160 37170 37180 37190 37200 37210 37220 37230 37240 37250 37260 37270 37280 37290 37300 37310 37320 37330 37340 37350 37360 37370 37380 37390 37400 37410 37420 37430 37440 37450 37460 37470 37480 37490 37500 37510 37520 37530 37540 37550 37560 37570 37580 37590 37600 37610 37620 37630 37640 37650 37660 37670 37680 37690 37700 37710 37720 37730 37740 37750 37760 37770 37780 37790 37800 37810 37820 37830 37840 37850 37860 37870 37880 37890 37900 37910 37920 37930 37940 37950 37960 37970 37980 37990 38000 38010 38020 38030 38040 38050 38060 38070 38080 38090 38100 38110 38120 38130 38140 38150 38160 38170 38180 38190 38200 38210 38220 38230 38240 38250 38260 38270 38280 38290 38300 38310 38320 38330 38340 38350 38360 38370 38380 38390 38400 38410 38420 38430 38440 38450 38460 38470 38480 38490 38500 38510 38520 38530 38540 38550 38560 38570 38580 38590 38600 38610 38620 38630 38640 38650 38660 38670 38680 38690 38700 38710 38720 38730 38740 38750 38760 38770 38780 38790 38800 38810 38820 38830 38840 38850 38860 38870 38880 38890 38900 38910 38920 38930 38940 38950 38960 38970 38980 38990 39000 39010 39020 39030 39040 39050 39060 39070 39080 39090 39100 39110 39120 39130 39140 39150 39160 39170 39180 39190 39200 39210 39220 39230 39240 39250 39260 39270 39280 39290 39300 39310 39320 39330 39340 39350 39360 39370 39380 39390 39400 39410 39420 39430 39440 39450 39460 39470 39480 39490 39500 39510 39520 39530 39540 39550 39560 39570 39580 39590 39600 39610 39620 39630 39640 39650 39660 39670 39680 39690 39700 39710 39720 39730 39740 39750 39760 39770 39780 39790 39800 39810 39820 39830 39840 39850 39860 39870 39880 39890 39900 39910 39920 39930 39940 39950 39960 39970 39980 39990 40000 40010 40020 40030 40040 40050 40060 40070 40080 40090 40100 40110 40120 40130 40140 40150 40160 40170 40180 40190 40200 40210 40220 40230 40240 40250 40260 40270 40280 40290 40300 40310 40320 40330 40340 40350 40360 40370 40380 40390 40400 40410 40420 40430 40440 40450 40460 40470 40480 40490 40500 40510 40520 40530 40540 40550 40560 40570 40580 40590 40600 40610 40620 40630 40640 40650 40660 40670 40680 40690 40700 40710 40720 40730 40740 40750 40760 40770 40780 40790 40800 40810 40820 40830 40840 40850 40860 40870 40880 40890 40900 40910 40920 40930 40940 40950 40960 40970 40980 40990 41000 41010 41020 41030 41040 41050 41060 41070 41080 41090 41100 41110 41120 41130 41140 41150 41160 41170 41180 41190 41200 41210 41220 41230 41240 41250 41260 41270 41280 41290 41300 41310 41320 41330 41340 41350 41360 41370 41380 41390 41400 41410 41420 41430 41440 41450 41460 41470 41480 41490 41500 41510 41520 41530 41540 41550 41560 41570 41580 41590 41600 41610 41620 41630 41640 41650 41660 41670 41680 41690 41700 41710 41720 41730 41740 41750 41760 41770 41780 41790 41800 41810 41820 41830 41840 41850 41860 41870 41880 41890 41900 41910 41920 41930 41940 41950 41960 41970 41980 41990 42000 42010 42020 42030 42040 42050 42060 42070 42080 42090 42100 42110 42120 42130 42140 42150 42160 42170 42180 42190 42200 42210 42220 42230 42240 42250 42260 42270 42280 42290 42300 42310 42320 42330 42340 42350 42360 42370 42380 42390 42400 42410 42420 42430 42440 42450 42460 42470 42480 42490 42500 42510 42520 42530 42540 42550 42560 42570 42580 42590 42600 42610 42620 42630 42640 42650 42660 42670 42680 42690 42700 42710 42720 42730 42740 42750 42760 42770 42780 42790 42800 42810 42820 42830 42840 42850 42860 42870 42880 42890 42900 42910 42920 42930 42940 42950 42960 42970 42980 42990 43000 43010 43020 43030 43040 43050 43060 43070 43080 43090 43100 43110 43120 43130 43140 43150 43160 43170 43180 43190 43200 43210 43220 43230 43240 43250 43260 43270 43280 43290 43300 43310 43320 43330 43340 43350 43360 43370 43380 43390 43400 43410 43420 43430 43440 43450 43460 43470 43480 43490 43500 43510 43520 43530 43540 43550 43560 43570 43580 43590 43600 43610 43620 43630 43640 43650 43660 43670 43680 43690 43700 43710 43720 43730 43740 43750 43760 43770 43780 43790 43800 43810 43820 43830 43840 43850 43860 43870 43880 43890 43900 43910 43920 43930 43940 43950 43960 43970 43980 43990 44000 44010 44020 44030 44040 44050 44060 44070 44080 44090 44100 44110 44120 44130 44140 44150 44160 44170 44180 44190 44200 44210 44220 44230 44240 44250 44260 44270 44280 44290 44300 44310 44320 44330 44340 44350 44360 44370 44380 44390 44400 44410 44420 44430 44440 44450 44460 44470 44480 44490 44500 44510 44520 44530 44540 44550 44560 44570 44580 44590 44600 44610 44620 44630 44640 44650 44660 44670 44680 44690 44700 44710 44720 44730 44740 44750 44760 44770 44780 44790 44800 44810 44820 44830 44840 44850 44860 44870 44880 44890 44900 44910 44920 44930 44940 44950 44960 44970 44980 44990 45000 45010 45020 45030 45040 45050 45060 45070 45080 45090 45100 45110 45120 45130 45140 45150 45160 45170 45180 45190 45200 45210 45220 45230 45240 45250 45260 45270 45280 45290 45300 45310 45320 45330 45340 45350 45360 45370 45380 45390 45400 45410 45420 45430 45440 45450 45460 45470 45480 45490 45500 45510 45520 45530 45540 45550 45560 45570 45580 45590 45600 45610 45620 45630 45640 45650 45660 45670 45680 45690 45700 45710 45720 45730 45740 45750 45760 45770 45780 45790 45800 45810 45820 45830 45840 45850 45860 45870 45880 45890 45900 45910 45920 45930 45940 45950 45960 45970 45980 45990 46000 46010 46020 46030 46040 46050 46060 46070 46080 46090 46100 46110 46120 46130 46140 46150 46160 46170 46180 46190 46200 46210 46220 46230 46240 46250 46260 46270 46280 46290 46300 46310 46320 46330 46340 46350 46360 46370 46380 46390 46400 46410 46420 46430 46440 46450 46460 46470 46480 46490 46500 46510 46520 46530 46540 46550 46560 46570 46580 46590 46600 46610 46620 46630 46640 46650 46660 46670 46680 46690 46700 46710 46720 46730 46740 46750 46760 46770 46780 46790 46800 46810 46820 46830 46840 46850 46860 46870 46880 46890 46900 46910 46920 46930 46940 46950 46960 46970 46980 46990 47000 47010 47020 47030 47040 47050 47060 47070 47080 47090 47100 47110 47120 47130 47140 47150 47160 47170 47180 47190 47200 47210 47220 47230 47240 47250 47260 47270 47280 47290 47300 47310 47320 47330 47340 47350 47360 47370 47380 47390 47400 47410 47420 47430 47440 47450 47460 47470 47480 47490 47500 47510 47520 47530 47540 47550 47560 47570 47580 47590 47600 47610 47620 47630 47640 47650 47660 47670 47680 47690 47700 47710 47720 47730 47740 47750 47760 47770 47780 47790 47800 47810 47820 47830 47840 47850 47860 47870 47880 47890 47900 47910 47920 47930 47940 47950 47960 47970 47980 47990 48000 48010 48020 48030 48040 48050 48060 48070 48080 48090 48100 48110 48120 48130 48140 48150 48160 48170 48180 48190 48200 48210 48220 48230 48240 48250 48260 48270 48280 48290 48300 48310 48320 48330 48340 48350 48360 48370 48380 48390 48400 48410 48420 48430 48440 48450 48460 48470 48480 48490 48500 48510 48520 48530 48540 48550 48560 48570 48580 48590 48600 48610 48620 48630 48640 48650 48660 48670 48680 48690 48700 48710 48720 48730 48740 48750 48760 48770 48780 48790 48800 48810 48820 48830 48840 48850 48860 48870 48880 48890 48900 48910 48920 48930 48940 48950 48960 48970 48980 48990 49000 49010 49020 49030 49040 49050 49060 49070 49080 49090 49100 49110 49120 49130 49140 49150 49160 49170 49180 49190 49200 49210 49220 49230 49240 49250 49260 49270 49280 49290 49300 49310 49320 49330 49340 49350 49360 49370 49380 49390 49400 49410 49420 49430 49440 49450 49460 49470 49480 49490 49500 49510 49520 49530 49540 49550 49560 49570 49580 49590 49600 49610 49620 49630 49640 49650 49660 49670 49680 49690 49700 49710 49720 49730 49740 49750 49760 49770 49780 49790 49800 49810 49820 49830 49840 49850 49860 49870 49880 49890 49900 49910 49920 49930 49940 49950 49960 49970 49980 49990 50000 50010 50020 50030 50040 50050 50060 50070 50080 50090 50100 50110 50120 50130 50140 50150 50160 50170 50180 50190 50200 50210 50220 50230 50240 50250 50260 50270 50280 50290 50300 50310 50320 50330 50340 50350 50360 50370 50380 50390 50400 50410 50420 50430 50440 50450 50460 50470 50480 50490 50500 50510 50520 50530 50540 50550 50560 50570 50580 50590 50600 50610 50620 50630 50640 50650 50660 50670 50680 50690 50700 50710 50720 50730 50740 50750 50760 50770 50780 50790 50800 50810 50820 50830 50840 50850 50860 50870 50880 50890 50900 50910 50920 50930 50940 50950 50960 50970 50980 50990 51000 51010 51020 51030 51040 51050 51060 51070 51080 51090 51100 51110 51120 51130 51140 51150 51160 51170 51180 51190 51200 51210 51220 51230 51240 51250 51260 51270 51280 51290 51300 51310 51320 51330 51340 51350 51360 51370 51380 51390 51400 51410 51420 51430 51440 51450 51460 51470 51480 51490 51500 51510 51520 51530 51540 51550 51560 51570 51580 51590 51600 51610 51620 51630 51640 51650 51660 51670 51680 51690 51700 51710 51720 51730 51740 51750 51760 51770 51780 51790 51800 51810 51820 51830 51840 51850 51860 51870 51880 51890 51900 51910 51920 51930 51940 51950 51960 51970 51980 51990 52000 52010 52020 52030 52040 52050 52060 52070 52080 52090 52100 52110 52120 52130 52140 52150 52160 52170 52180 52190 52200 52210 52220 52230 52240 52250 52260 52270 52280 52290 52300 52310 52320 52330 52340 52350 52360 52370 52380 52390 52400 52410 52420 52430 52440 52450 52460 52470 52480 52490 52500 52510 52520 52530 52540 52550 52560 52570 52580 52590 52600 52610 52620 52630 52640 52650 52660 52670 52680 52690 52700 52710 52720 52730 52740 52750 52760 52770 52780 52790 52800 52810 52820 52830 52840 52850 52860 52870 52880 52890 52900 52910 52920 52930 52940 52950 52960 52970 52980 52990 53000 53010 53020 53030 53040 53050 53060 53070 53080 53090 53100 53110 53120 53130 53140 53150 53160 53170 53180 53190 53200 53210 53220 53230 53240 53250 53260 53270 53280 53290 53300 53310 53320 53330 53340 53350 53360 53370 53380 53390 53400 53410 53420 53430 53440 53450 53460 53470 53480 53490 53500 53510 53520 53530 53540 53550 53560 53570 53580 53590 53600 53610 53620 53630 53640 53650 53660 53670 53680 53690 53700 53710 53720 53730 53740 53750 53760 53770 53780 53790 53800 53810 53820 53830 53840 53850 53860 53870 53880 53890 53900 53910 53920 53930 53940 53950 53960 53970 53980 53990 54000 54010 54020 54030 54040 54050 54060 54070 54080 54090 54100 54110 54120 54130 54140 54150 54160 54170 54180 54190 54200 54210 54220 54230 54240 54250 54260 54270 54280 54290 54300 54310 54320 54330 54340 54350 54360 54370 54380 54390 54400 54410 54420 54430 54440 54450 54460 54470 54480 54490 54500 54510 54520 54530 54540 54550 54560 54570 54580 54590 54600 54610 54620 54630 54640 54650 54660 54670 54680 54690 54700 54710 54720 54730 54740 54750 54760 54770 54780 54790 54800 54810 54820 54830 54840 54850 54860 54870 54880 54890 54900 54910 54920 54930 54940 54950 54960 54970 54980 54990 55000 55010 55020 55030 55040 55050 55060 55070 55080 55090 55100 55110 55120 55130 55140 55150 55160 55170 55180 55190 55200 55210 55220 55230 55240 55250 55260 55270 55280 55290 55300 55310 55320 55330 55340 55350 55360 55370 55380 55390 55400 55410 55420 55430 55440 55450 55460 55470 55480 55490 55500 55510 55520 55530 55540 55550 55560 55570 55580 55590 55600 55610 55620 55630 55640 55650 55660 55670 55680 55690 55700 55710 55720 55730 55740 55750 55760 55770 55780 55790 55800 55810 55820 55830 55840 55850 55860 55870 55880 55890 55900 55910 55920 55930 55940 55950 55960 55970 55980 55990 56000 56010 56020 56030 56040 56050 56060 56070 56080 56090 56100 56110 56120 56130 56140 56150 56160 56170 56180 56190 56200 56210 56220 56230 56240 56250 56260 56270 56280 56290 56300 56310 56320 56330 56340 56350 56360 56370 56380 56390 56400 56410 56420 56430 56440 56450 56460 56470 56480 56490 56500 56510 56520 56530 56540 56550 56560 56570 56580 56590 56600 56610 56620 56630 56640 56650 56660 56670 56680 56690 56700 56710 56720 56730 56740 56750 56760 56770 56780 56790 56800 56810 56820 56830 56840 56850 56860 56870 56880 56890 56900 56910 56920 56930 56940 56950 56960 56970 56980 56990 57000 57010 57020 57030 57040 57050 57060 57070 57080 57090 57100 57110 57120 57130 57140 57150 57160 57170 57180 57190 57200 57210 57220 57230 57240 57250 57260 57270 57280 57290 57300 57310 57320 57330 57340 57350 57360 57370 57380 57390 57400 57410 57420 57430 57440 57450 57460 57470 57480 57490 57500 57510 57520 57530 57540 57550 57560 57570 57580 57590 57600 57610 57620 57630 57640 57650 57660 57670 57680 57690 57700 57710 57720 57730 57740 57750 57760 57770 57780 57790 57800 57810 57820 57830 57840 57850 57860 57870 57880 57890 57900 57910 57920 57930 57940 57950 57960 57970 57980 57990 58000 58010 58020 58030 58040 58050 58060 58070 58080 58090 58100 58110 58120 58130 58140 58150 58160 58170 58180 58190 58200 58210 58220 58230 58240 58250 58260 58270 58280 58290 58300 58310 58320 58330 58340 58350 58360 58370 58380 58390 58400 58410 58420 58430 58440 58450 58460 58470 58480 58490 58500 58510 58520 58530 58540 58550 58560 58570 58580 58590 58600 58610 58620 58630 58640 58650 58660 58670 58680 58690 58700 58710 58720 58730 58740 58750 58760 58770 58780 58790 58800 58810 58820 58830 58840 58850 58860 58870 58880 58890 58900 58910 58920 58930 58940 58950 58960 58970 58980 58990 59000 59010 59020 59030 59040 59050 59060 59070 59080 59090 59100 59110 59120 59130 59140 59150 59160 59170 59180 59190 59200 59210 59220 59230 59240 59250 59260 59270 59280 59290 59300 59310 59320 59330 59340 59350 59360 59370 59380 59390 59400 59410 59420 59430 59440 59450 59460 59470 59480 59490 59500 59510 59520 59530 59540 59550 59560 59570 59580 59590 59600 59610 59620 59630 59640 59650 59660 59670 59680 59690 59700 59710 59720 59730 59740 59750 59760 59770 59780 59790 59800 59810 59820 59830 59840 59850 59860 59870 59880 59890 59900 59910 59920 59930 59940 59950 59960 59970 59980 59990 60000 60010 60020 60030 60040 60050 60060 60070 60080 60090 60100 60110 60120 60130 60140 60150 60160 60170 60180 60190 60200 60210 60220 60230 60240 60250 60260 60270 60280 60290 60300 60310 60320 60330 60340 60350 60360 60370 60380 60390 60400 60410 60420 60430 60440 60450 60460 60470 60480 60490 60500 60510 60520 60530 60540 60550 60560 60570 60580 60590 60600 60610 60620 60630 60640 60650 60660 60670 60680 60690 60700 60710 60720 60730 60740 60750 60760 60770 60780 60790 60800 60810 60820 60830 60840 60850 60860 60870 60880 60890 60900 60910 60920 60930 60940 60950 60960 60970 60980 60990 61000 61010 61020 61030 61040 61050 61060 61070 61080 61090 61100 61110 61120 61130 61140 61150 61160 61170 61180 61190 61200 61210 61220 61230 61240 61250 61260 61270 61280 61290 61300 61310 61320 61330 61340 61350 61360 61370 61380 61390 61400 61410 61420 61430 61440 61450 61460 61470 61480 61490 61500 61510 61520 61530 61540 61550 61560 61570 61580 61590 61600 61610 61620 61630 61640 61650 61660 61670 61680 61690 61700 61710 61720 61730 61740 61750 61760 61770 61780 61790 61800 61810 61820 61830 61840 61850 61860 61870 61880 61890 61900 61910 61920 61930 61940 61950 61960 61970 61980 61990 62000 62010 62020 62030 62040 62050 62060 62070 62080 62090 62100 62110 62120 62130 62140 62150 62160 62170 62180 62190 62200 62210 62220 62230 62240 62250 62260 62270 62280 62290 62300 62310 62320 62330 62340 62350 62360 62370 62380 62390 62400 62410 62420 62430 62440 62450 62460 62470 62480 62490 62500 62510 62520 62530 62540 62550 62560 62570 62580 62590 62600 62610 62620 62630 62640 62650 62660 62670 62680 62690 62700 62710 62720 62730 62740 62750 62760 62770 62780 62790 62800 62810 62820 62830 62840 62850 62860 62870 62880 62890 62900 62910 62920 62930 62940 62950 62960 62970 62980 62990 63000 63010 63020 63030 63040 63050 63060 63070 63080 63090 63100 63110 63120 63130 63140 63150 63160 63170 63180 63190 63200 63210 63220 63230 63240 63250 63260 63270 63280 63290 63300 63310 63320 63330 63340 63350 63360 63370 63380 63390 63400 63410 63420 63430 63440 63450 63460 63470 63480 63490 63500 63510 63520 63530 63540 63550 63560 63570 63580 63590 63600 63610 63620 63630 63640 63650 63660 63670 63680 63690 63700 63710 63720 63730 63740 63750 63760 63770 63780 63790 63800 63810 63820 63830 63840 63850 63860 63870 63880 63890 63900 63910 63920 63930 63940 63950 63960 63970 63980 63990 64000 64010 64020 64030 64040 64050 64060 64070 64080 64090 64100 64110 64120 64130 64140 64150 64160 64170 64180 64190 64200 64210 64220 64230 64240 64250 64260 64270 64280 64290 64300 64310 64320 64330 64340 64350 64360 64370 64380 64390 64400 64410 64420 64430 64440 64450 64460 64470 64480 64490 64500 64510 64520 64530 64540 64550 64560 64570 64580 64590 64600 64610 64620 64630 64640 64650 64660 64670 64680 64690 64700 64710 64720 64730 64740 64750 64760 64770 64780 64790 64800 64810 64820 64830 64840 64850 64860 64870 64880 64890 64900 64910 64920 64930 64940 64950 64960 64970 64980 64990 65000 65010 65020 65030 65040 65050 65060 65070 65080 65090 65100 65110 65120 65130 65140 65150 65160 65170 65180 65190 65200 65210 65220 65230 65240 65250 65260 65270 65280 65290 65300 65310 65320 65330 65340 65350 65360 65370 65380 65390 65400 65410 65420 65430 65440 65450 65460 65470 65480 65490 65500 65510 65520 65530 65540 65550 65560 65570 65580 65590 65600 65610 65620 65630 65640 65650 65660 65670 65680 65690 65700 65710 65720 65730 65740 65750 65760 65770 65780 65790 65800 65810 65820 65830 65840 65850 65860 65870 65880 65890 65900 65910 65920 65930 65940 65950 65960 65970 65980 65990 66000 66010 66020 66030 66040 66050 66060 66070 66080 66090 66100 66110 66120 66130 66140 66150 66160 66170 66180 66190 66200 66210 66220 66230 66240 66250 66260 66270 66280 66290 66300 66310 66320 66330 66340 66350 66360 66370 66380 66390 66400 66410 66420 66430 66440 66450 66460 66470 66480 66490 66500 66510 66520 66530 66540 66550 66560 66570 66580 66590 66600 66610 66620 66630 66640 66650 66660 66670 66680 66690 66700 66710 66720 66730 66740 66750 66760 66770 66780 66790 66800 66810 66820 66830 66840 66850 66860 66870 66880 66890 66900 66910 66920 66930 66940 66950 66960 66970 66980 66990 67000 67010 67020 67030 67040 67050 67060 67070 67080 67090 67100 67110 67120 67130 67140 67150 67160 67170 67180 67190 67200 67210 67220 67230 67240 67250 67260 67270 67280 67290 67300 67310 67320 67330 67340 67350 67360 67370 67380 67390 67400 67410 67420 67430 67440 67450 67460 67470 67480 67490 67500 67510 67520 67530 67540 67550 67560 67570 67580 67590 67600 67610 67620 67630 67640 67650 67660 67670 67680 67690 67700 67710 67720 67730 67740 67750 67760 67770 67780 67790 67800 67810 67820 67830 67840 67850 67860 67870 67880 67890 67900 67910 67920 67930 67940 67950 67960 67970 67980 67990 68000 68010 68020 68030 68040 68050 68060 68070 68080 68090 68100 68110 68120 68130 68140 68150 68160 68170 68180 68190 68200 68210 68220 68230 68240 68250 68260 68270 68280 68290 68300 68310 68320 68330 68340 68350 68360 68370 68380 68390 68400 68410 68420 68430 68440 68450 68460 68470 68480 68490 68500 68510 68520 68530 68540 68550 68560 68570 68580 68590 68600 68610 68620 68630 68640 68650 68660 68670 68680 68690 68700 68710 68720 68730 68740 68750 68760 68770 68780 68790 68800 68810 68820 68830 68840 68850 68860 68870 68880 68890 68900 68910 68920 68930 68940 68950 68960 68970 68980 68990 69000 69010 69020 69030 69040 69050 69060 69070 69080 69090 69100 69110 69120 69130 69140 69150 69160 69170 69180 69190 69200 69210 69220 69230 69240 69250 69260 69270 69280 69290 69300 69310 69320 69330 69340 69350 69360 69370 69380 69390 69400 69410 69420 69430 69440 69450 69460 69470 69480 69490 69500 69510 69520 69530 69540 69550 69560 69570 69580 69590 69600 69610 69620 69630 69640 69650 69660 69670 69680 69690 69700 69710 69720 69730 69740 69750 69760 69770 69780 69790 69800 69810 69820 69830 69840 69850 69860 69870 69880 69890 69900 69910 69920 69930 69940 69950 69960 69970 69980 69990 70000 70010 70020 70030 70040 70050 70060 70070 70080 70090 70100 70110 70120 70130 70140 70150 70160 70170 70180 70190 70200 70210 70220 70230 70240 70250 70260 70270 70280 70290 70300 70310 70320 70330 70340 70350 70360 70370 70380 70390 70400 70410 70420 70430 70440 70450 70460 70470 70480 70490 70500 70510 70520 70530 70540 70550 70560 70570 70580 70590 70600 70610 70620 70630 70640 70650 70660 70670 70680 70690 70700 70710 70720 70730 70740 70750 70760 70770 70780 70790 70800 70810 70820 70830 70840 70850 70860 70870 70880 70890 70900 70910 70920 70930 70940 70950 70960 70970 70980 70990 71000 71010 71020 71030 71040 71050 71060 71070 71080 71090 71100 71110 71120 71130 71140 71150 71160 71170 71180 71190 71200 71210 71220 71230 71240 71250 71260 71270 71280 71290 71300 71310 71320 71330 71340 71350 71360 71370 71380 71390 71400 71410 71420 71430 71440 71450 71460 71470 71480 71490 71500 71510 71520 71530 71540 71550 71560 71570 71580 71590 71600 71610 71620 71630 71640 71650 71660 71670 71680 71690 71700 71710 71720 71730 71740 71750 71760 71770 71780 71790 71800 71810 71820 71830 71840 71850 71860 71870 71880 71890 71900 71910 71920 71930 71940 71950 71960 71970 71980 71990 72000 72010 72020 72030 72040 72050 72060 72070 72080 72090 72100 72110 72120 72130 72140 72150 72160 72170 72180 72190 72200 72210 72220 72230 72240 72250 72260 72270 72280 72290 72300 72310 72320 72330 72340 72350 72360 72370 72380 72390 72400 72410 72420 72430 72440 72450 72460 72470 72480 72490 72500 72510 72520 72530 72540 72550 72560 72570 72580 72590 72600 72610 72620 72630 72640 72650 72660 72670 72680 72690 72700 72710 72720 72730 72740 72750 72760 72770 72780 72790 72800 72810 72820 72830 72840 72850 72860 72870 72880 72890 72900 72910 72920 72930 72940 72950 72960 72970 72980 72990 73000 73010 73020 73030 73040 73050 73060 73070 73080 73090 73100 73110 73120 73130 73140 73150 73160 73170 73180 73190 73200 73210 73220 73230 73240 73250 73260 73270 73280 73290 73300 73310 73320 73330 73340 73350 73360 73370 73380 73390 73400 73410 73420 73430 73440 73450 73460 73470 73480 73490 73500 73510 73520 73530 73540 73550 73560 73570 73580 73590 73600 73610 73620 73630 73640 73650 73660 73670 73680 73690 73700 73710 73720 73730 73740 73750 73760 73770 73780 73790 73800 73810 73820 73830 73840 73850 73860 73870 73880 73890 73900 73910 73920 73930 73940 73950 73960 73970 73980 73990 74000 74010 74020 74030 74040 74050 74060 74070 74080 74090 74100 74110 74120 74130 74140 74150 74160 74170 74180 74190 74200 74210 74220 74230 74240 74250 74260 74270 74280 74290 74300 74310 74320 74330 74340 74350 74360 74370 74380 74390 74400 74410 74420 74430 74440 74450 74460 74470 74480 74490 74500 74510 74520 74530 74540 74550 74560 74570 74580 74590 74600 74610 74620 74630 74640 74650 74660 74670 74680 74690 74700 74710 74720 74730 74740 74750 74760 74770 74780 74790 74800 74810 74820 74830 74840 74850 74860 74870 74880 74890 74900 74910 74920 74930 74940 74950 74960 74970 74980 74990 75000 75010 75020 75030 75040 75050 75060 75070 75080 75090 75100 75110 75120 75130 75140 75150 75160 75170 75180 75190 75200 75210 75220 75230 75240 75250 75260 75270 75280 75290 75300 75310 75320 75330 75340 75350 75360 75370 75380 75390 75400 75410 75420 75430 75440 75450 75460 75470 75480 75490 75500 75510 75520 75530 75540 75550 75560 75570 75580 75590 75600 75610 75620 75630 75640 75650 75660 75670 75680 75690 75700 75710 75720 75730 75740 75750 75760 75770 75780 75790 75800 75810 75820 75830 75840 75850 75860 75870 75880 75890 75900 75910 75920 75930 75940 75950 75960 75970 75980 75990 76000 76010 76020 76030 76040 76050 76060 76070 76080 76090 76100 76110 76120 76130 76140 76150 76160 76170 76180 76190 76200 76210 76220 76230 76240 76250 76260 76270 76280 76290 76300 76310 76320 76330 76340 76350 76360 76370 76380 76390 76400 76410 76420 76430 76440 76450 76460 76470 76480 76490 76500 76510 76520 76530 76540 76550 76560 76570 76580 76590 76600 76610 76620 76630 76640 76650 76660 76670 76680 76690 76700 76710 76720 76730 76740 76750 76760 76770 76780 76790 76800 76810 76820 76830 76840 76850 76860 76870 76880 76890 76900 76910 76920 76930 76940 76950 76960 76970 76980 76990 77000 77010 77020 77030 77040 77050 77060 77070 77080 77090 77100 77110 77120 77130 77140 77150 77160 77170 77180 77190 77200 77210 77220 77230 77240 77250 77260 77270 77280 77290 77300 77310 77320 77330 77340 77350 77360 77370 77380 77390 77400 77410 77420 77430 77440 77450 77460 77470 77480 77490 77500 77510 77520 77530 77540 77550 77560 77570 77580 77590 77600 77610 77620 77630 77640 77650 77660 77670 77680 77690 77700 77710 77720 77730 77740 77750 77760 77770 77780 77790 77800 77810 77820 77830 77840 77850 77860 77870 77880 77890 77900 77910 77920 77930 77940 77950 77960 77970 77980 77990 78000 78010 78020 78030 78040 78050 78060 78070 78080 78090 78100 78110 78120 78130 78140 78150 78160 78170 78180 78190 78200 78210 78220 78230 78240 78250 78260 78270 78280 78290 78300 78310 78320 78330 78340 78350 78360 78370 78380 78390 78400 78410 78420 78430 78440 78450 78460 78470 78480 78490 78500 78510 78520 78530 78540 78550 78560 78570 78580 78590 78600 78610 78620 78630 78640 78650 78660 78670 78680 78690 78700 78710 78720 78730 78740 78750 78760 78770 78780 78790 78800 78810 78820 78830 78840 78850 78860 78870 78880 78890 78900 78910 78920 78930 78940 78950 78960 78970 78980 78990 79000 79010 79020 79030 79040 79050 79060 79070 79080 79090 79100 79110 79120 79130 79140 79150 79160 79170 79180 79190 79200 79210 79220 79230 79240 79250 79260 79270 79280 79290 79300 79310 79320 79330 79340 79350 79360 79370 79380 79390 79400 79410 79420 79430 79440 79450 79460 79470 79480 79490 79500 79510 79520 79530 79540 79550 79560 79570 79580 79590 79600 79610 79620 79630 79640 79650 79660 79670 79680 79690 79700 79710 79720 79730 79740 79750 79760 79770 79780 79790 79800 79810 79820 79830 79840 79850 79860 79870 79880 79890 79900 79910 79920 79930 79940 79950 79960 79970 79980 79990 80000 80010 80020 80030 80040 80050 80060 80070 80080 80090 80100 80110 80120 80130 80140 80150 80160 80170 80180 80190 80200 80210 80220 80230 80240 80250 80260 80270 80280 80290 80300 80310 80320 80330 80340 80350 80360 80370 80380 80390 80400 80410 80420 80430 80440 80450 80460 80470 80480 80490 80500 80510 80520 80530 80540 80550 80560 80570 80580 80590 80600 80610 80620 80630 80640 80650 80660 80670 80680 80690 80700 80710 80720 80730 80740 80750 80760 80770 80780 80790 80800 80810 80820 80830 80840 80850 80860 80870 80880 80890 80900 80910 80920 80930 80940 80950 80960 80970 80980 80990 81000 81010 81020 81030 81040 81050 81060 81070 81080 81090 81100 81110 81120 81130 81140 81150 81160 81170 81180 81190 81200 81210 81220 81230 81240 81250 81260 81270 81280 81290 81300 81310 81320 81330 81340 81350 81360 81370 81380 81390 81400 81410 81420 81430 81440 81450 81460 81470 81480 81490 81500 81510 81520 81530 81540 81550 81560 81570 81580 81590 81600 81610 81620 81630 81640 81650 81660 81670 81680 81690 81700 81710 81720 81730 81740 81750 81760 81770 81780 81790 81800 81810 81820 81830 81840 81850 81860 81870 81880 81890 81900 81910 81920 81930 81940 81950 81960 81970 81980 81990 82000 82010 82020 82030 82040 82050 82060 82070 82080 82090 82100 82110 82120 82130 82140 82150 82160 82170 82180 82190 82200 82210 82220 82230 82240 82250 82260 82270 82280 82290 82300 82310 82320 82330 82340 82350 82360 82370 82380 82390 82400 82410 82420 82430 82440 82450 82460 82470 82480 82490 82500 82510 82520 82530 82540 82550 82560 82570 82580 82590 82600 82610 82620 82630 82640 82650 82660 82670 82680 82690 82700 82710 82720 82730 82740 82750 82760 82770 82780 82790 82800 82810 82820 82830 82840 82850 82860 82870 82880 82890 82900 82910 82920 82930 82940 82950 82960 82970 82980 82990 83000 83010 83020 83030 83040 83050 83060 83070 83080 83090 83100 83110 83120 83130 83140 83150 83160 83170 83180 83190 83200 83210 83220 83230 83240 83250 83260 83270 83280 83290 83300 83310 83320 83330 83340 83350 83360 83370 83380 83390 83400 83410 83420 83430 83440 83450 83460 83470 83480 83490 83500 83510 83520 83530 83540 83550 83560 83570 83580 83590 83600 83610 83620 83630 83640 83650 83660 83670 83680 83690 83700 83710 83720 83730 83740 83750 83760 83770 83780 83790 83800 83810 83820 83830 83840 83850 83860 83870 83880 83890 83900 83910 83920 83930 83940 83950 83960 83970 83980 83990 84000 84010 84020 84030 84040 84050 84060 84070 84080 84090 84100 84110 84120 84130 84140 84150 84160 84170 84180 84190 84200 84210 84220 84230 84240 84250 84260 84270 84280 84290 84300 84310 84320 84330 84340 84350 84360 84370 84380 84390 84400 84410 84420 84430 84440 84450 84460 84470 84480 84490 84500 84510 84520 84530 84540 84550 84560 84570 84580 84590 84600 84610 84620 84630 84640 84650 84660 84670 84680 84690 84700 84710 84720 84730 84740 84750 84760 84770 84780 84790 84800 84810 84820 84830 84840 84850 84860 84870 84880 84890 84900 84910 84920 84930 84940 84950 84960 84970 84980 84990 85000 85010 85020 85030 85040 85050 85060 85070 85080 85090 85100 85110 85120 85130 85140 85150 85160 85170 85180 85190 85200 85210 85220 85230 85240 85250 85260 85270 85280 85290 85300 85310 85320 85330 85340 85350 85360 85370 85380 85390 85400 85410 85420 85430 85440 85450 85460 85470 85480 85490 85500 85510 85520 85530 85540 85550 85560 85570 85580 85590 85600 85610 85620 85630 85640 85650 85660 85670 85680 85690 85700 85710 85720 85730 85740 85750 85760 85770 85780 85790 85800 85810 85820 85830 85840 85850 85860 85870 85880 85890 85900 85910 85920 85930 85940 85950 85960 85970 85980 85990 86000 86010 86020 86030 86040 86050 86060 86070 86080 86090 86100 86110 86120 86130 86140 86150 86160 86170 86180 86190 86200 86210 86220 86230 86240 86250 86260 86270 86280 86290 86300 86310 86320 86330 86340 86350 86360 86370 86380 86390 86400 86410 86420 86430 86440 86450 86460 86470 86480 86490 86500 86510 86520 86530 86540 86550 86560 86570 86580 86590 86600 86610 86620 86630 86640 86650 86660 86670 86680 86690 86700 86710 86720 86730 86740 86750 86760 86770 86780 86790 86800 86810 86820 86830 86840 86850 86860 86870 86880 86890 86900 86910 86920 86930 86940 86950 86960 86970 86980 86990 87000 87010 87020 87030 87040 87050 87060 87070 87080 87090 87100 87110 87120 87130 87140 87150 87160 87170 87180 87190 87200 87210 87220 87230 87240 87250 87260 87270 87280 87290 87300 87310 87320 87330 87340 87350 87360 87370 87380 87390 87400 87410 87420 87430 87440 87450 87460 87470 87480 87490 87500 87510 87520 87530 87540 87550 87560 87570 87580 87590 87600 87610 87620 87630 87640 87650 87660 87670 87680 87690 87700 87710 87720 87730 87740 87750 87760 87770 87780 87790 87800 87810 87820 87830 87840 87850 87860 87870 87880 87890 87900 87910 87920 87930 87940 87950 87960 87970 87980 87990 88000 88010 88020 88030 88040 88050 88060 88070 88080 88090 88100 88110 88120 88130 88140 88150 88160 88170 88180 88190 88200 88210 88220 88230 88240 88250 88260 88270 88280 88290 88300 88310 88320 88330 88340 88350 88360 88370 88380 88390 88400 88410 88420 88430 88440 88450 88460 88470 88480 88490 88500 88510 88520 88530 88540 88550 88560 88570 88580 88590 88600 88610 88620 88630 88640 88650 88660 88670 88680 88690 88700 88710 88720 88730 88740 88750 88760 88770 88780 88790 88800 88810 88820 88830 88840 88850 88860 88870 88880 88890 88900 88910 88920 88930 88940 88950 88960 88970 88980 88990 89000 89010 89020 89030 89040 89050 89060 89070 89080 89090 89100 89110 89120 89130 89140 89150 89160 89170 89180 89190 89200 89210 89220 89230 89240 89250 89260 89270 89280 89290 89300 89310 89320 89330 89340 89350 89360 89370 89380 89390 89400 89410 89420 89430 89440 89450 89460 89470 89480 89490 89500 89510 89520 89530 89540 89550 89560 89570 89580 89590 89600 89610 89620 89630 89640 89650 89660 89670 89680 89690 89700 89710 89720 89730 89740 89750 89760 89770 89780 89790 89800 89810 89820 89830 89840 89850 89860 89870 89880 89890 89900 89910 89920 89930 89940 89950 89960 89970 89980 89990 90000 90010 90020 90030 90040 90050 90060 90070 90080 90090 90100 90110 90120 90130 90140 90150 90160 90170 90180 90190 90200 90210 90220 90230 90240 90250 90260 90270 90280 90290 90300 90310 90320 90330 90340 90350 90360 90370 90380 90390 90400 90410 90420 90430 90440 90450 90460 90470 90480 90490 90500 90510 90520 90530 90540 90550 90560 90570 90580 90590 90600 90610 90620 90630 90640 90650 90660 90670 90680 90690 90700 90710 90720 90730 90740 90750 90760 90770 90780 90790 90800 90810 90820 90830 90840 90850 90860 90870 90880 90890 90900 90910 90920 90930 90940 90950 90960 90970 90980 90990 91000 91010 91020 91030 91040 91050 91060 91070 91080 91090 91100 91110 91120 91130 91140 91150 91160 91170 91180 91190 91200 91210 91220 91230 91240 91250 91260 91270 91280 91290 91300 91310 91320 91330 91340 91350 91360 91370 91380 91390 91400 91410 91420 91430 91440 91450 91460 91470 91480 91490 91500 91510 91520 91530 91540 91550 91560 91570 91580 91590 91600 91610 91620 91630 91640 91650 91660 91670 91680 91690 91700 91710 91720 91730 91740 91750 91760 91770 91780 91790 91800 91810 91820 91830 91840 91850 91860 91870 91880 91890 91900 91910 91920 91930 91940 91950 91960 91970 91980 91990 92000 92010 92020 92030 92040 92050 92060 92070 92080 92090 92100 92110 92120 92130 92140 92150 92160 92170 92180 92190 92200 92210 92220 92230 92240 92250 92260 92270 92280 92290 92300 92310 92320 92330 92340 92350 92360 92370 92380 92390 92400 92410 92420 92430 92440 92450 92460 92470 92480 92490 92500 92510 92520 92530 92540 92550 92560 92570 92580 92590 92600 92610 92620 92630 92640 92650 92660 92670 92680 92690 92700 92710 92720 92730 92740 92750 92760 92770 92780 92790 92800 92810 92820 92830 92840 92850 92860 92870 92880 92890 92900 92910 92920 92930 92940 92950 92960 92970 92980 92990 93000 93010 93020 93030 93040 93050 93060 93070 93080 93090 93100 93110 93120 93130 93140 93150 93160 93170 93180 93190 93200 93210 93220 93230 93240 93250 93260 93270 93280 93290 93300 93310 93320 93330 93340 93350 93360 93370 93380 93390 93400 93410 93420 93430 93440 93450 93460 93470 93480 93490 93500 93510 93520 93530 93540 93550 93560 93570 93580 93590 93600 93610 93620 93630 93640 93650 93660 93670 93680 93690 93700 93710 93720 93730 93740 93750 93760 93770 93780 93790 93800 93810 93820 93830 93840 93850 93860 93870 93880 93890 93900 93910 93920 93930 93940 93950 93960 93970 93980 93990 94000 94010 94020 94030 94040 94050 94060 94070 94080 94090 94100 94110 94120 94130 94140 94150 94160 94170 94180 94190 94200 94210 94220 94230 94240 94250 94260 94270 94280 94290 94300 94310 94320 94330 94340 94350 94360 94370 94380 94390 94400 94410 94420 94430 94440 94450 94460 94470 94480 94490 94500 94510 94520 94530 94540 94550 94560 94570 94580 94590 94600 94610 94620 94630 94640 94650 94660 94670 94680 94690 94700 94710 94720 94730 94740 94750 94760 94770 94780 94790 94800 94810 94820 94830 94840 94850 94860 94870 94880 94890 94900 94910 94920 94930 94940 94950 94960 94970 94980 94990 95000 95010 95020 95030 95040 95050 95060 95070 95080 95090 95100 95110 95120 95130 95140 95150 95160 95170 95180 95190 95200 95210 95220 95230 95240 95250 95260 95270 95280 95290 95300 95310 95320 95330 95340 95350 95360 95370 95380 95390 95400 95410 95420 95430 95440 95450 95460 95470 95480 95490 95500 95510 95520 95530 95540 95550 95560 95570 95580 95590 95600 95610 95620 95630 95640 95650 95660 95670 95680 95690 95700 95710 95720 95730 95740 95750 95760 95770 95780 95790 95800 95810 95820 95830 95840 95850 95860 95870 95880 95890 95900 95910 95920 95930 95940 95950 95960 95970 95980 95990 96000 96010 96020 96030 96040 96050 96060 96070 96080 96090 96100 96110 96120 96130 96140 96150 96160 96170 96180 96190 96200 96210 96220 96230 96240 96250 96260 96270 96280 96290 96300 96310 96320 96330 96340 96350 96360 96370 96380 96390 96400 96410 96420 96430 96440 96450 96460 96470 96480 96490 96500 96510 96520 96530 96540 96550 96560 96570 96580 96590 96600 96610 96620 96630 96640 96650 96660 96670 96680 96690 96700 96710 96720 96730 96740 96750 96760 96770 96780 96790 96800 96810 96820 96830 96840 96850 96860 96870 96880 96890 96900 96910 96920 96930 96940 96950 96960 96970 96980 96990 97000 97010 97020 97030 97040 97050 97060 97070 97080 97090 97100 97110 97120 97130 97140 97150 97160 97170 97180 97190 97200 97210 97220 97230 97240 97250 97260 97270 97280 97290 97300 97310 97320 97330 97340 97350 97360 97370 97380 97390 97400 97410 97420 97430 97440 97450 97460 97470 97480 97490 97500 97510 97520 97530 97540 97550 97560 97570 97580 97590 97600 97610 97620 97630 97640 97650 97660 97670 97680 97690 97700 97710 97720 97730 97740 97750 97760 97770 97780 97790 97800 97810 97820 97830 97840 97850 97860 97870 97880 97890 97900 97910 97920 97930 97940 97950 97960 97970 97980 97990 98000 98010 98020 98030 98040 98050 98060 98070 98080 98090 98100 98110 98120 98130 98140 98150 98160 98170 98180 98190 98200 98210 98220 98230 98240 98250 98260 98270 98280 98290 98300 98310 98320 98330 98340 98350 98360 98370 98380 98390 98400 98410 98420 98430 98440 98450 98460 98470 98480 98490 98500 98510 98520 98530 98540 98550 98560 98570 98580 98590 98600 98610 98620 98630 98640 98650 98660 98670 98680 98690 98700 98710 98720 98730 98740 98750 98760 98770 98780 98790 98800 98810 98820 98830 98840 98850 98860 98870 98880 98890 98900 98910 98920 98930 98940 98950 98960 98970 98980 98990 99000 99010 99020 99030 99040 99050 99060 99070 99080 99090 99100 99110 99120 99130 99140 99150 99160 99170 99180 99190 99200 99210 99220 99230 99240 99250 99260 99270 99280 99290 99300 99310 99320 99330 99340 99350 99360 99370 99380 99390 99400 99410 99420 99430 99440 99450 99460 99470 99480 99490 99500 99510 99520 99530 99540 99550 99560 99570 99580 99590 99600 99610 99620 99630 99640 99650 99660 99670 99680 99690 99700 99710 99720 99730 99740 99750 99760 99770 99780 99790 99800 99810 99820 99830 99840 99850 99860 99870 99880 99890 99900 99910 99920 99930 99940 99950 99960 99970 99980 99990 100000 100010 100020 100030 100040 100050 100060 100070 100080 100090 100100 100110 100120 100130 100140 100150 100160 100170 100180 100190 100200 100210 100220 100230 100240 100250 100260 100270 100280 100290 100300 100310 100320 100330 100340 100350 100360 100370 100380 100390 100400 100410 100420 100430 100440 100450 100460 100470 100480 100490 100500 100510 100520 100530 100540 100550 100560 100570 100580 100590 100600 100610 100620 100630 100640 100650 100660 100670 100680 100690 100700 100710 100720 100730 100740 100750 100760 100770 100780 100790 100800 100810 100820 100830 100840 100850 100860 100870 100880 100890 100900 100910 100920 100930 100940 100950 100960 100970 100980 100990 101000 101010 101020 101030 101040 101050 101060 101070 101080 101090 101100 101110 101120 101130 101140 101150 101160 101170 101180 101190 101200 101210 101220 101230 101240 101250 101260 101270 101280 101290 101300 101310 101320 101330 101340 101350 101360 101370 101380 101390 101400 101410 101420 101430 101440 101450 101460 101470 101480 101490 101500 101510 101520 101530 101540 101550 101560 101570 101580 101590 101600 101610 101620 101630 101640 101650 101660 101670 101680 101690 101700 101710 101720 101730 101740 101750 101760 101770 101780 101790 101800 101810 101820 101830 101840 101850 101860 101870 101880 101890 101900 101910 101920 101930 101940 101950 101960 101970 101980 101990 102000 102010 102020 102030 102040 102050 102060 102070 102080 102090 102100 102110 102120 102130 102140 102150 102160 102170 102180 102190 102200 102210 102220 102230 102240 102250 102260 102270 102280 102290 102300 102310 102320 102330 102340 102350 102360 102370 102380 102390 102400 102410 102420 102430 102440 102450 102460 102470 102480 102490 102500 102510 102520 102530 102540 102550 102560 102570 102580 102590 102600 102610 102620 102630 102640 102650 102660 102670 102680 102690 102700 102710 102720 102730 102740 102750 102760 102770 102780 102790 102800 102810 102820 102830 102840 102850 102860 102870 102880 102890 102900 102910 102920 102930 102940 102950 102960 102970 102980 102990 103000 103010 103020 103030 103040 103050 103060 103070 103080 103090 103100 103110 103120 103130 103140 103150 103160 103170 103180 103190 103200 103210 103220 103230 103240 103250 103260 103270 103280 103290 103300 103310 103320 103330 103340 103350 103360 103370 103380 103390 103400 103410 103420 103430 103440 103450 103460 103470 103480 103490 103500 103510 103520 103530 103540 103550 103560 103570 103580 103590 103600 103610 103620 103630 103640 103650 103660 103670 103680 103690 103700 103710 103720 103730 103740 103750 103760 103770 103780 103790 103800 103810 103820 103830 103840 103850 103860 103870 103880 103890 103900 103910 103920 103930 103940 103950 103960 103970 103980 103990 104000 104010 104020 104030 104040 104050 104060 104070 104080 104090 104100 104110 104120 104130 104140 104150 104160 104170 104180 104190 104200 104210 104220 104230 104240 104250 104260 104270 104280 104290 104300 104310 104320 104330 104340 104350 104360 104370 104380 104390 104400 104410 104420 104430 104440 104450 104460 104470 104480 104490 104500 104510 104520 104530 104540 104550 104560 104570 104580 104590 104600 104610 104620 104630 104640 104650 104660 104670 104680 104690 104700 104710 104720 104730 104740 104750 104760 104770 104780 104790 104800 104810 104820 104830 104840 104850 104860 104870 104880 104890 104900 104910 104920 104930 104940 104950 104960 104970 104980 104990 105000 105010 105020 105030 105040 105050 105060 105070 105080 105090 105100 105110 105120 105130 105140 105150 105160 105170 105180 105190 105200 105210 105220 105230 105240 105250 105260 105270 105280 105290 105300 105310 105320 105330 105340 105350 105360 105370 105380 105390 105400 105410 105420 105430 105440 105450 105460 105470 105480 105490 105500 105510 105520 105530 105540 105550 105560 105570 105580 105590 105600 105610 105620 105630 105640 105650 105660 105670 105680 105690 105700 105710 105720 105730 105740 105750 105760 105770 105780 105790 105800 105810 105820 105830 105840 105850 105860 105870 105880 105890 105900 105910 105920 105930 105940 105950 105960 105970 105980 105990 106000 106010 106020 106030 106040 106050 106060 106070 106080 106090 106100 106110 106120 106130 106140 106150 106160 106170 106180 106190 106200 106210 106220 106230 106240 106250 106260 106270 106280 106290 106300 106310 106320 106330 106340 106350 106360 106370 106380 106390 106400 106410 106420 106430 106440 106450 106460 106470 106480 106490 106500 106510 106520 106530 106540 106550 106560 106570 106580 106590 106600 106610 106620 106630 106640 106650 106660 106670 106680 106690 106700 106710 106720 106730 106740 106750 106760 106770 106780 106790 106800 106810 106820 106830 106840 106850 106860 106870 106880 106890 106900 106910 106920 106930 106940 106950 106960 106970 106980 106990 107000 107010 107020 107030 107040 107050 107060 107070 107080 107090 107100 107110 107120 107130 107140 107150 107160 107170 107180 107190 107200 107210 107220 107230 107240 107250 107260 107270 107280 107290 107300 107310 107320 107330 107340 107350 107360 107370 107380 107390 107400 107410 107420 107430 107440 107450 107460 107470 107480 107490 107500 107510 107520 107530 107540 107550 107560 107570 107580 107590 107600 107610 107620 107630 107640 107650 107660 107670 107680 107690 107700 107710 107720 107730 107740 107750 107760 107770 107780 107790 107800 107810 107820 107830 107840 107850 107860 107870 107880 107890 107900 107910 107920 107930 107940 107950 107960 107970 107980 107990 108000 108010 108020 108030 108040 108050 108060 108070 108080 108090 108100 108110 108120 108130 108140 108150 108160 108170 108180 108190 108200 108210 108220 108230 108240 108250 108260 108270 108280 108290 108300 108310 108320 108330 108340 108350 108360 108370 108380 108390 108400 108410 108420 108430 108440 108450 108460 108470 108480 108490 108500 108510 108520 108530 108540 108550 108560 108570 108580 108590 108600 108610 108620 108630 108640 108650 108660 108670 108680 108690 108700 108710 108720 108730 108740 108750 108760 108770 108780 108790 108800 108810 108820 108830 108840 108850 108860 108870 108880 108890 108900 108910 108920 108930 108940 108950 108960 108970 108980 108990 109000 109010 109020 109030 109040 109050 109060 109070 109080 109090 109100 109110 109120 109130 109140 109150 109160 109170 109180 109190 109200 109210 109220 109230 109240 109250 109260 109270 109280 109290 109300 109310 109320 109330 109340 109350 109360 109370 109380 109390 109400 109410 109420 109430 109440 109450 109460 109470 109480 109490 109500 109510 109520 109530 109540 109550 109560 109570 109580 109590 109600 109610 109620 109630 109640 109650 109660 109670 109680 109690 109700 109710 109720 109730 109740 109750 109760 109770 109780 109790 109800 109810 109820 109830 109840 109850 109860 109870 109880 109890 109900 109910 109920 109930 109940 109950 109960 109970 109980 109990 110000 110010 110020 110030 110040 110050 110060 110070 110080 110090 110100 110110 110120 110130 110140 110150 110160 110170 110180 110190 110200 110210 110220 110230 110240 110250 110260 110270 110280 110290 110300 110310 110320 110330 110340 110350 110360 110370 110380 110390 110400 110410 110420 110430 110440 110450 110460 110470 110480 110490 110500 110510 110520 110530 110540 110550 110560 110570 110580 110590 110600 110610 110620 110630 110640 110650 110660 110670 110680 110690 110700 110710 110720 110730 110740 110750 110760 110770 110780 110790 110800 110810 110820 110830 110840 110850 110860 110870 110880 110890 110900 110910 110920 110930 110940 110950 110960 110970 110980 110990 111000 111010 111020 111030 111040 111050 111060 111070 111080 111090 111100 111110 111120 111130 111140 111150 111160 111170 111180 111190 111200 111210 111220 111230 111240 111250 111260 111270 111280 111290 111300 111310 111320 111330 111340 111350 111360 111370 111380 111390 111400 111410 111420 111430 111440 111450 111460 111470 111480 111490 111500 111510 111520 111530 111540 111550 111560 111570 111580 111590 111600 111610 111620 111630 111640 111650 111660 111670 111680 111690 111700 111710 111720 111730 111740 111750 111760 111770 111780 111790 111800 111810 111820 111830 111840 111850 111860 111870 111880 111890 111900 111910 111920 111930 111940 111950 111960 111970 111980 111990 112000 112010 112020 112030 112040 112050 112060 112070 112080 112090 112100 112110 112120 112130 112140 112150 112160 112170 112180 112190 112200 112210 112220 112230 112240 112250 112260 112270 112280 112290 112300 112310 112320 112330 112340 112350 112360 112370 112380 112390 112400 112410 112420 112430 112440 112450 112460 112470 112480 112490 112500 112510 112520 112530 112540 112550 112560 112570 112580 112590 112600 112610 112620 112630 112640 112650 112660 112670 112680 112690 112700 112710 112720 112730 112740 112750 112760 112770 112780 112790 112800 112810 112820 112830 112840 112850 112860 112870 112880 112890 112900 112910 112920 112930 112940 112950 112960 112970 112980 112990 113000 113010 113020 113030 113040 113050 113060 113070 113080 113090 113100 113110 113120 113130 113140 113150 113160 113170 113180 113190 113200 113210 113220 113230 113240 113250 113260 113270 113280 113290 113300 113310 113320 113330 113340 113350 113360 113370 113380 113390 113400 113410 113420 113430 113440 113450 113460 113470 113480 113490 113500 113510 113520 113530 113540 113550 113560 113570 113580 113590 113600 113610 113620 113630 113640 113650 113660 113670 113680 113690 113700 113710 113720 113730 113740 113750 113760 113770 113780 113790 113800 113810 113820 113830 113840 113850 113860 113870 113880 113890 113900 113910 113920 113930 113940 113950 113960 113970 113980 113990 114000 114010 114020 114030 114040 114050 114060 114070 114080 114090 114100 114110 114120 114130 114140 114150 114160 114170 114180 114190 114200 114210 114220 114230 114240 114250 114260 114270 114280 114290 114300 114310 114320 114330 114340 114350 114360 114370 114380 114390 114400 114410 114420 114430 114440 114450 114460 114470 114480 114490 114500 114510 114520 114530 114540 114550 114560 114570 114580 114590 114600 114610 114620 114630 114640 114650 114660 114670 114680 114690 114700 114710 114720 114730 114740 114750 114760 114770 114780 114790 114800 114810 114820 114830 114840 114850 114860 114870 114880 114890 114900 114910 114920 114930 114940 114950 114960 114970 114980 114990 115000 115010 115020 115030 115040 115050 115060 115070 115080 115090 115100 115110 115120 115130 115140 115150 115160 115170 115180 115190 115200 115210 115220 115230 115240 115250 115260 115270 115280 115290 115300 115310 115320 115330 115340 115350 115360 115370 115380 115390 115400 115410 115420 115430 115440 115450 115460 115470 115480 115490 115500 115510 115520 115530 115540 115550 115560 115570 115580 115590 115600 115610 115620 115630 115640 115650 115660 115670 115680 115690 115700 115710 115720 115730 115740 115750 115760 115770 115780 115790 115800 115810 115820 115830 115840 115850 115860 115870 115880 115890 115900 115910 115920 115930 115940 115950 115960 115970 115980 115990 116000 116010 116020 116030 116040 116050 116060 116070 116080 116090 116100 116110 116120 116130 116140 116150 116160 116170 116180 116190 116200 116210 116220 116230 116240 116250 116260 116270 116280 116290 116300 116310 116320 116330 116340 116350 116360 116370 116380 116390 116400 116410 116420 116430 116440 116450 116460 116470 116480 116490 116500 116510 116520 116530 116540 116550 116560 116570 116580 116590 116600 116610 116620 116630 116640 116650 116660 116670 116680 116690 116700 116710 116720 116730 116740 116750 116760 116770 116780 116790 116800 116810 116820 116830 116840 116850 116860 116870 116880 116890 116900 116910 116920 116930 116940 116950 116960 116970 116980 116990 117000 117010 117020 117030 117040 117050 117060 117070 117080 117090 117100 117110 117120 117130 117140 117150 117160 117170 117180 117190 117200 117210 117220 117230 117240 117250 117260 117270 117280 117290 117300 117310 117320 117330 117340 117350 117360 117370 117380 117390 117400 117410 117420 117430 117440 117450 117460 117470 117480 117490 117500 117510 117520 117530 117540 117550 117560 117570 117580 117590 117600 117610 117620 117630 117640 117650 117660 117670 117680 117690 117700 117710 117720 117730 117740 117750 117760 117770 117780 117790 117800 117810 117820 117830 117840 117850 117860 117870 117880 117890 117900 117910 117920 117930 117940 117950 117960 117970 117980 117990 118000 118010 118020 118030 118040 118050 118060 118070 118080 118090 118100 118110 118120 118130 118140 118150 118160 118170 118180 118190 118200 118210 118220 118230 118240 118250 118260 118270 118280 118290 118300 118310 118320 118330 118340 118350 118360 118370 118380 118390 118400 118410 118420 118430 118440 118450 118460 118470 118480 118490 118500 118510 118520 118530 118540 118550 118560 118570 118580 118590 118600 118610 118620 118630 118640 118650 118660 118670 118680 118690 118700 118710 118720 118730 118740 118750 118760 118770 118780 118790 118800 118810 118820 118830 118840 118850 118860 118870 118880 118890 118900 118910 118920 118930 118940 118950 118960 118970 118980 118990 119000 119010 119020 119030 119040 119050 119060 119070 119080 119090 119100 119110 119120 119130 119140 119150 119160 119170 119180 119190 119200 119210 119220 119230 119240 119250 119260 119270 119280 119290 119300 119310 119320 119330 119340 119350 119360 119370 119380 119390 119400 119410 119420 119430 119440 119450 119460 119470 119480 119490 119500 119510 119520 119530 119540 119550 119560 119570 119580 119590 119600 119610 119620 119630 119640 119650 119660 119670 119680 119690 119700 119710 119720 119730 119740 119750 119760 119770 119780 119790 119800 119810 119820 119830 119840 119850 119860 119870 119880 119890 119900 119910 119920 119930 119940 119950 119960 119970 119980 119990 120000 120010 120020 120030 120040 120050 120060 120070 120080 120090 120100 120110 120120 120130 120140 120150 120160 120170 120180 120190 120200 120210 120220 120230 120240 120250 120260 120270 120280 120290 120300 120310 120320 120330 120340 120350 120360 120370 120380 120390 120400 120410 120420 120430 120440 120450 120460 120470 120480 120490 120500 120510 120520 120530 120540 120550 120560 120570 120580 120590 120600 120610 120620 120630 120640 120650 120660 120670 120680 120690 120700 120710 120720 120730 120740 120750 120760 120770 120780 120790 120800 120810 120820 120830 120840 120850 120860 120870 120880 120890 120900 120910 120920 120930 120940 120950 120960 120970 120980 120990 121000 121010 121020 121030 121040 121050 121060 121070 121080 121090 121100 121110 121120 121130 121140 121150 121160 121170 121180 121190 121200 121210 121220 121230 121240 121250 121260 121270 121280 121290 121300 121310 121320 121330 121340 121350 121360 121370 121380 121390 121400 121410 121420 121430 121440 121450 121460 121470 121480 121490 121500 121510 121520 121530 121540 121550 121560 121570 121580 121590 121600 121610 121620 121630 121640 121650 121660 121670 121680 121690 121700 121710 121720 121730 121740 121750 121760 121770 121780 121790 121800 121810 121820 121830 121840 121850 121860 121870 121880 121890 121900 121910 121920 121930 121940 121950 121960 121970 121980 121990 122000 122010 122020 122030 122040 122050 122060 122070 122080 122090 122100 122110 122120 122130 122140 122150 122160 122170 122180 122190 122200 122210 122220 122230 122240 122250 122260 122270 122280 122290 122300 122310 122320 122330 122340 122350 122360 122370 122380 122390 122400 122410 122420 122430 122440 122450 122460 122470 122480 122490 122500 122510 122520 122530 122540 122550 122560 122570 122580 122590 122600 122610 122620 122630 122640 122650 122660 122670 122680 122690 122700 122710 122720 122730 122740 122750 122760 122770 122780 122790 122800 122810 122820 122830 122840 122850 122860 122870 122880 
CONNECTIVITY vtktypeint64
0 33 331 34 2673 2674 2675 2676 2677 2678 
297 331 298 0 2679 2680 2681 2682 2675 2683 
0 33 330 331 2673 2684 2685 2675 2674 2686 
297 331 0 330 2679 2675 2682 2687 2686 2685 
298 0 331 1 2683 2675 2680 2688 2689 2690 
331 0 34 1 2675 2676 2678 2690 2689 2691 
1 34 332 35 2691 2692 2693 2694 2695 2696 
298 332 299 1 2697 2698 2699 2688 2693 2700 
1 34 331 332 2691 2678 2690 2693 2692 2701 
298 332 1 331 2697 2693 2688 2680 2701 2690 
299 1 332 2 2700 2693 2698 2702 2703 2704 
332 1 35 2 2693 2694 2696 2704 2703 2705 
2 35 333 36 2705 2706 2707 2708 2709 2710 
299 333 300 2 2711 2712 2713 2702 2707 2714 
2 35 332 333 2705 2696 2704 2707 2706 2715 
299 333 2 332 2711 2707 2702 2698 2715 2704 
300 2 333 3 2714 2707 2712 2716 2717 2718 
333 2 36 3 2707 2708 2710 2718 2717 2719 
3 36 334 37 2719 2720 2721 2722 2723 2724 
300 334 301 3 2725 2726 2727 2716 2721 2728 
3 36 333 334 2719 2710 2718 2721 2720 2729 
300 334 3 333 2725 2721 2716 2712 2729 2718 
301 3 334 4 2728 2721 2726 2730 2731 2732 
334 3 37 4 2721 2722 2724 2732 2731 2733 
4 37 335 38 2733 2734 2735 2736 2737 2738 
301 335 302 4 2739 2740 2741 2730 2735 2742 
4 37 334 335 2733 2724 2732 2735 2734 2743 
301 335 4 334 2739 2735 2730 2726 2743 2732 
302 4 335 5 2742 2735 2740 2744 2745 2746 
335 4 38 5 2735 2736 2738 2746 2745 2747 
5 38 336 39 2747 2748 2749 2750 2751 2752 
302 336 303 5 2753 2754 2755 2744 2749 2756 
5 38 335 336 2747 2738 2746 2749 2748 2757 
302 336 5 335 2753 2749 2744 2740 2757 2746 
303 5 336 6 2756 2749 2754 2758 2759 2760 
336 5 39 6 2749 2750 2752 2760 2759 2761 
6 39 337 40 2761 2762 2763 2764 2765 2766 
303 337 304 6 2767 2768 2769 2758 2763 2770 
6 39 336 337 2761 2752 2760 2763 2762 2771 
303 337 6 336 2767 2763 2758 2754 2771 2760 
304 6 337 7 2770 2763 2768 2772 2773 2774 
337 6 40 7 2763 2764 2766 2774 2773 2775 
7 40 338 41 2775 2776 2777 2778 2779 2780 
304 338 305 7 2781 2782 2783 2772 2777 2784 
7 40 337 338 2775 2766 2774 2777 2776 2785 
304 338 7 337 2781 2777 2772 2768 2785 2774 
305 7 338 8 2784 2777 2782 2786 2787 2788 
338 7 41 8 2777 2778 2780 2788 2787 2789 
8 41 339 42 2789 2790 2791 2792 2793 2794 
305 339 306 8 2795 2796 2797 2786 2791 2798 
8 41 338 339 2789 2780 2788 2791 2790 2799 
305 339 8 338 2795 2791 2786 2782 2799 2788 
306 8 339 9 2798 2791 2796 2800 2801 2802 
339 8 42 9 2791 2792 2794 2802 2801 2803 
9 42 340 43 2803 2804 2805 2806 2807 2808 
306 340 307 9 2809 2810 2811 2800 2805 2812 
9 42 339 340 2803 2794 2802 2805 2804 2813 
306 340 9 339 2809 2805 2800 2796 2813 2802 
307 9 340 10 2812 2805 2810 2814 2815 2816 
340 9 43 10 2805 2806 2808 2816 2815 2817 
10 43 341 44 2817 2818 2819 2820 2821 2822 
307 341 308 10 2823 2824 2825 2814 2819 2826 
10 43 340 341 2817 2808 2816 2819 2818 2827 
307 341 10 340 2823 2819 2814 2810 2827 2816 
308 10 341 11 2826 2819 2824 2828 2829 2830 
341 10 44 11 2819 2820 2822 2830 2829 2831 
11 44 342 45 2831 2832 2833 2834 2835 2836 
308 342 309 11 2837 2838 2839 2828 2833 2840 
11 44 341 342 2831 2822 2830 2833 2832 2841 
308 342 11 341 2837 2833 2828 2824 2841 2830 
309 11 342 12 2840 2833 2838 2842 2843 2844 
342 11 45 12 2833 2834 2836 2844 2843 2845 
12 45 343 46 2845 2846 2847 2848 2849 2850 
309 343 310 12 2851 2852 2853 2842 2847 2854 
12 45 342 343 2845 2836 2844 2847 2846 2855 
309 343 12 342 2851 2847 2842 2838 2855 2844 
310 12 343 13 2854 2847 2852 2856 2857 2858 
343 12 46 13 2847 2848 2850 2858 2857 2859 
13 46 344 47 2859 2860 2861 2862 2863 2864 
310 344 311 13 2865 2866 2867 2856 2861 2868 
13 46 343 344 2859 2850 2858 2861 2860 2869 
310 344 13 343 2865 2861 2856 2852 2869 2858 
311 13 344 14 2868 2861 2866 2870 2871 2872 
344 13 47 14 2861 2862 2864 2872 2871 2873 
14 47 345 48 2873 2874 2875 2876 2877 2878 
311 345 312 14 2879 2880 2881 2870 2875 2882 
14 47 344 345 2873 2864 2872 2875 2874 2883 
311 345 14 344 2879 2875 2870 2866 2883 2872 
312 14 345 15 2882 2875 2880 2884 2885 2886 
345 14 48 15 2875 2876 2878 2886 2885 2887 
15 48 346 49 2887 2888 2889 2890 2891 2892 
312 346 313 15 2893 2894 2895 2884 2889 2896 
15 48 345 346 2887 2878 2886 2889 2888 2897 
312 346 15 345 2893 2889 2884 2880 2897 2886 
313 15 346 16 2896 2889 2894 2898 2899 2900 
346 15 49 16 2889 2890 2892 2900 2899 2901 
16 49 347 50 2901 2902 2903 2904 2905 2906 
313 347 314 16 2907 2908 2909 2898 2903 2910 
16 49 346 347 2901 2892 2900 2903 2902 2911 
313 347 16 346 2907 2903 2898 2894 2911 2900 
314 16 347 17 2910 2903 2908 2912 2913 2914 
347 16 50 17 2903 2904 2906 2914 2913 2915 
17 50 348 51 2915 2916 2917 2918 2919 2920 
314 348 315 17 2921 2922 2923 2912 2917 2924 
17 50 347 348 2915 2906 2914 2917 2916 2925 
314 348 17 347 2921 2917 2912 2908 2925 2914 
315 17 348 18 2924 2917 2922 2926 2927 2928 
348 17 51 18 2917 2918 2920 2928 2927 2929 
18 51 349 52 2929 2930 2931 2932 2933 2934 
315 349 316 18 2935 2936 2937 2926 2931 2938 
18 51 348 349 2929 2920 2928 2931 2930 2939 
315 349 18 348 2935 2931 2926 2922 2939 2928 
316 18 349 19 2938 2931 2936 2940 2941 2942 
349 18 52 19 2931 2932 2934 2942 2941 2943 
19 52 350 53 2943 2944 2945 2946 2947 2948 
316 350 317 19 2949 2950 2951 2940 2945 2952 
19 52 349 350 2943 2934 2942 2945 2944 2953 
316 350 19 349 2949 2945 2940 2936 2953 2942 
317 19 350 20 2952 2945 2950 2954 2955 2956 
350 19 53 20 2945 2946 2948 2956 2955 2957 
20 53 351 54 2957 2958 2959 2960 2961 2962 
317 351 318 20 2963 2964 2965 2954 2959 2966 
20 53 350 351 2957 2948 2956 2959 2958 2967 
317 351 20 350 2963 2959 2954 2950 2967 2956 
318 20 351 21 2966 2959 2964 2968 2969 2970 
351 20 54 21 2959 2960 2962 2970 2969 2971 
21 54 352 55 2971 2972 2973 2974 2975 2976 
318 352 319 21 2977 2978 2979 2968 2973 2980 
21 54 351 352 2971 2962 2970 2973 2972 2981 
318 352 21 351 2977 2973 2968 2964 2981 2970 
319 21 352 22 2980 2973 2978 2982 2983 2984 
352 21 55 22 2973 2974 2976 2984 2983 2985 
22 55 353 56 2985 2986 2987 2988 2989 2990 
319 353 320 22 2991 2992 2993 2982 2987 2994 
22 55 352 353 2985 2976 2984 2987 2986 2995 
319 353 22 352 2991 2987 2982 2978 2995 2984 
320 22 353 23 2994 2987 2992 2996 2997 2998 
353 22 56 23 2987 2988 2990 2998 2997 2999 
23 56 354 57 2999 3000 3001 3002 3003 3004 
320 354 321 23 3005 3006 3007 2996 3001 3008 
23 56 353 354 2999 2990 2998 3001 3000 3009 
320 354 23 353 3005 3001 2996 2992 3009 2998 
321 23 354 24 3008 3001 3006 3010 3011 3012 
354 23 57 24 3001 3002 3004 3012 3011 3013 
24 57 355 58 3013 3014 3015 3016 3017 3018 
321 355 322 24 3019 3020 3021 3010 3015 3022 
24 57 354 355 3013 3004 3012 3015 3014 3023 
321 355 24 354 3019 3015 3010 3006 3023 3012 
322 24 355 25 3022 3015 3020 3024 3025 3026 
355 24 58 25 3015 3016 3018 3026 3025 3027 
25 58 356 59 3027 3028 3029 3030 3031 3032 
322 356 323 25 3033 3034 3035 3024 3029 3036 
25 58 355 356 3027 3018 3026 3029 3028 3037 
322 356 25 355 3033 3029 3024 3020 3037 3026 
323 25 356 26 3036 3029 3034 3038 3039 3040 
356 25 59 26 3029 3030 3032 3040 3039 3041 
26 59 357 60 3041 3042 3043 3044 3045 3046 
323 357 324 26 3047 3048 3049 3038 3043 3050 
26 59 356 357 3041 3032 3040 3043 3042 3051 
323 357 26 356 3047 3043 3038 3034 3051 3040 
324 26 357 27 3050 3043 3048 3052 3053 3054 
357 26 60 27 3043 3044 3046 3054 3053 3055 
27 60 358 61 3055 3056 3057 3058 3059 3060 
324 358 325 27 3061 3062 3063 3052 3057 3064 
27 60 357 358 3055 3046 3054 3057 3056 3065 
324 358 27 357 3061 3057 3052 3048 3065 3054 
325 27 358 28 3064 3057 3062 3066 3067 3068 
358 27 61 28 3057 3058 3060 3068 3067 3069 
28 61 359 62 3069 3070 3071 3072 3073 3074 
325 359 326 28 3075 3076 3077 3066 3071 3078 
28 61 358 359 3069 3060 3068 3071 3070 3079 
325 359 28 358 3075 3071 3066 3062 3079 3068 
326 28 359 29 3078 3071 3076 3080 3081 3082 
359 28 62 29 3071 3072 3074 3082 3081 3083 
29 62 360 63 3083 3084 3085 3086 3087 3088 
326 360 327 29 3089 3090 3091 3080 3085 3092 
29 62 359 360 3083 3074 3082 3085 3084 3093 
326 360 29 359 3089 3085 3080 3076 3093 3082 
327 29 360 30 3092 3085 3090 3094 3095 3096 
360 29 63 30 3085 3086 3088 3096 3095 3097 
30 63 361 64 3097 3098 3099 3100 3101 3102 
327 361 328 30 3103 3104 3105 3094 3099 3106 
30 63 360 361 3097 3088 3096 3099 3098 3107 
327 361 30 360 3103 3099 3094 3090 3107 3096 
328 30 361 31 3106 3099 3104 3108 3109 3110 
361 30 64 31 3099 3100 3102 3110 3109 3111 
31 64 362 65 3111 3112 3113 3114 3115 3116 
328 362 329 31 3117 3118 3119 3108 3113 3120 
31 64 361 362 3111 3102 3110 3113 3112 3121 
328 362 31 361 3117 3113 3108 3104 3121 3110 
329 31 362 32 3120 3113 3118 3122 3123 3124 
362 31 65 32 3113 3114 3116 3124 3123 3125 
33 66 364 67 3126 3127 3128 3129 3130 3131 
330 364 331 33 3132 3133 2686 2684 3128 2674 
33 66 363 364 3126 3134 3135 3128 3127 3136 
330 364 33 363 3132 3128 2684 3137 3136 3135 
331 33 364 34 2674 3128 3133 2678 2677 3138 
364 33 67 34 3128 3129 3131 3138 2677 3139 
34 67 365 68 3139 3140 3141 3142 3143 3144 
331 365 332 34 3145 3146 2701 2678 3141 2692 
34 67 364 365 3139 3131 3138 3141 3140 3147 
331 365 34 364 3145 3141 2678 3133 3147 3138 
332 34 365 35 2692 3141 3146 2696 2695 3148 
365 34 68 35 3141 3142 3144 3148 2695 3149 
35 68 366 69 3149 3150 3151 3152 3153 3154 
332 366 333 35 3155 3156 2715 2696 3151 2706 
35 68 365 366 3149 3144 3148 3151 3150 3157 
332 366 35 365 3155 3151 2696 3146 3157 3148 
333 35 366 36 2706 3151 3156 2710 2709 3158 
366 35 69 36 3151 3152 3154 3158 2709 3159 
36 69 367 70 3159 3160 3161 3162 3163 3164 
333 367 334 36 3165 3166 2729 2710 3161 2720 
36 69 366 367 3159 3154 3158 3161 3160 3167 
333 367 36 366 3165 3161 2710 3156 3167 3158 
334 36 367 37 2720 3161 3166 2724 2723 3168 
367 36 70 37 3161 3162 3164 3168 2723 3169 
37 70 368 71 3169 3170 3171 3172 3173 3174 
334 368 335 37 3175 3176 2743 2724 3171 2734 
37 70 367 368 3169 3164 3168 3171 3170 3177 
334 368 37 367 3175 3171 2724 3166 3177 3168 
335 37 368 38 2734 3171 3176 2738 2737 3178 
368 37 71 38 3171 3172 3174 3178 2737 3179 
38 71 369 72 3179 3180 3181 3182 3183 3184 
335 369 336 38 3185 3186 2757 2738 3181 2748 
38 71 368 369 3179 3174 3178 3181 3180 3187 
335 369 38 368 3185 3181 2738 3176 3187 3178 
336 38 369 39 2748 3181 3186 2752 2751 3188 
369 38 72 39 3181 3182 3184 3188 2751 3189 
39 72 370 73 3189 3190 3191 3192 3193 3194 
336 370 337 39 3195 3196 2771 2752 3191 2762 
39 72 369 370 3189 3184 3188 3191 3190 3197 
336 370 39 369 3195 3191 2752 3186 3197 3188 
337 39 370 40 2762 3191 3196 2766 2765 3198 
370 39 73 40 3191 3192 3194 3198 2765 3199 
40 73 371 74 3199 3200 3201 3202 3203 3204 
337 371 338 40 3205 3206 2785 2766 3201 2776 
40 73 370 371 3199 3194 3198 3201 3200 3207 
337 371 40 370 3205 3201 2766 3196 3207 3198 
338 40 371 41 2776 3201 3206 2780 2779 3208 
371 40 74 41 3201 3202 3204 3208 2779 3209 
41 74 372 75 3209 3210 3211 3212 3213 3214 
338 372 339 41 3215 3216 2799 2780 3211 2790 
41 74 371 372 3209 3204 3208 3211 3210 3217 
338 372 41 371 3215 3211 2780 3206 3217 3208 
339 41 372 42 2790 3211 3216 2794 2793 3218 
372 41 75 42 3211 3212 3214 3218 2793 3219 
42 75 373 76 3219 3220 3221 3222 3223 3224 
339 373 340 42 3225 3226 2813 2794 3221 2804 
42 75 372 373 3219 3214 3218 3221 3220 3227 
339 373 42 372 3225 3221 2794 3216 3227 3218 
340 42 373 43 2804 3221 3226 2808 2807 3228 
373 42 76 43 3221 3222 3224 3228 2807 3229 
43 76 374 77 3229 3230 3231 3232 3233 3234 
340 374 341 43 3235 3236 2827 2808 3231 2818 
43 76 373 374 3229 3224 3228 3231 3230 3237 
340 374 43 373 3235 3231 2808 3226 3237 3228 
341 43 374 44 2818 3231 3236 2822 2821 3238 
374 43 77 44 3231 3232 3234 3238 2821 3239 
44 77 375 78 3239 3240 3241 3242 3243 3244 
341 375 342 44 3245 3246 2841 2822 3241 2832 
44 77 374 375 3239 3234 3238 3241 3240 3247 
341 375 44 374 3245 3241 2822 3236 3247 3238 
342 44 375 45 2832 3241 3246 2836 2835 3248 
375 44 78 45 3241 3242 3244 3248 2835 3249 
45 78 376 79 3249 3250 3251 3252 3253 3254 
342 376 343 45 3255 3256 2855 2836 3251 2846 
45 78 375 376 3249 3244 3248 3251 3250 3257 
342 376 45 375 3255 3251 2836 3246 3257 3248 
343 45 376 46 2846 3251 3256 2850 2849 3258 
376 45 79 46 3251 3252 3254 3258 2849 3259 
46 79 377 80 3259 3260 3261 3262 3263 3264 
343 377 344 46 3265 3266 2869 2850 3261 2860 
46 79 376 377 3259 3254 3258 3261 3260 3267 
343 377 46 376 3265 3261 2850 3256 3267 3258 
344 46 377 47 2860 3261 3266 2864 2863 3268 
377 46 80 47 3261 3262 3264 3268 2863 3269 
47 80 378 81 3269 3270 3271 3272 3273 3274 
344 378 345 47 3275 3276 2883 2864 3271 2874 
47 80 377 378 3269 3264 3268 3271 3270 3277 
344 378 47 377 3275 3271 2864 3266 3277 3268 
345 47 378 48 2874 3271 3276 2878 2877 3278 
378 47 81 48 3271 3272 3274 3278 2877 3279 
48 81 379 82 3279 3280 3281 3282 3283 3284 
345 379 346 48 3285 3286 2897 2878 3281 2888 
48 81 378 379 3279 3274 3278 3281 3280 3287 
345 379 48 378 3285 3281 2878 3276 3287 3278 
346 48 379 49 2888 3281 3286 2892 2891 3288 
379 48 82 49 3281 3282 3284 3288 2891 3289 
49 82 380 83 3289 3290 3291 3292 3293 3294 
346 380 347 49 3295 3296 2911 2892 3291 2902 
49 82 379 380 3289 3284 3288 3291 3290 3297 
346 380 49 379 3295 3291 2892 3286 3297 3288 
347 49 380 50 2902 3291 3296 2906 2905 3298 
380 49 83 50 3291 3292 3294 3298 2905 3299 
50 83 381 84 3299 3300 3301 3302 3303 3304 
347 381 348 50 3305 3306 2925 2906 3301 2916 
50 83 380 381 3299 3294 3298 3301 3300 3307 
347 381 50 380 3305 3301 2906 3296 3307 3298 
348 50 381 51 2916 3301 3306 2920 2919 3308 
381 50 84 51 3301 3302 3304 3308 2919 3309 
51 84 382 85 3309 3310 3311 3312 3313 3314 
348 382 349 51 3315 3316 2939 2920 3311 2930 
51 84 381 382 3309 3304 3308 3311 3310 3317 
348 382 51 381 3315 3311 2920 3306 3317 3308 
349 51 382 52 2930 3311 3316 2934 2933 3318 
382 51 85 52 3311 3312 3314 3318 2933 3319 
52 85 383 86 3319 3320 3321 3322 3323 3324 
349 383 350 52 3325 3326 2953 2934 3321 2944 
52 85 382 383 3319 3314 3318 3321 3320 3327 
349 383 52 382 3325 3321 2934 3316 3327 3318 
350 52 383 53 2944 3321 3326 2948 2947 3328 
383 52 86 53 3321 3322 3324 3328 2947 3329 
53 86 384 87 3329 3330 3331 3332 3333 3334 
350 384 351 53 3335 3336 2967 2948 3331 2958 
53 86 383 384 3329 3324 3328 3331 3330 3337 
350 384 53 383 3335 3331 2948 3326 3337 3328 
351 53 384 54 2958 3331 3336 2962 2961 3338 
384 53 87 54 3331 3332 3334 3338 2961 3339 
54 87 385 88 3339 3340 3341 3342 3343 3344 
351 385 352 54 3345 3346 2981 2962 3341 2972 
54 87 384 385 3339 3334 3338 3341 3340 3347 
351 385 54 384 3345 3341 2962 3336 3347 3338 
352 54 385 55 2972 3341 3346 2976 2975 3348 
385 54 88 55 3341 3342 3344 3348 2975 3349 
55 88 386 89 3349 3350 3351 3352 3353 3354 
352 386 353 55 3355 3356 2995 2976 3351 2986 
55 88 385 386 3349 3344 3348 3351 3350 3357 
352 386 55 385 3355 3351 2976 3346 3357 3348 
353 55 386 56 2986 3351 3356 2990 2989 3358 
386 55 89 56 3351 3352 3354 3358 2989 3359 
56 89 387 90 3359 3360 3361 3362 3363 3364 
353 387 354 56 3365 3366 3009 2990 3361 3000 
56 89 386 387 3359 3354 3358 3361 3360 3367 
353 387 56 386 3365 3361 2990 3356 3367 3358 
354 56 387 57 3000 3361 3366 3004 3003 3368 
387 56 90 57 3361 3362 3364 3368 3003 3369 
57 90 388 91 3369 3370 3371 3372 3373 3374 
354 388 355 57 3375 3376 3023 3004 3371 3014 
57 90 387 388 3369 3364 3368 3371 3370 3377 
354 388 57 387 3375 3371 3004 3366 3377 3368 
355 57 388 58 3014 3371 3376 3018 3017 3378 
388 57 91 58 3371 3372 3374 3378 3017 3379 
58 91 389 92 3379 3380 3381 3382 3383 3384 
355 389 356 58 3385 3386 3037 3018 3381 3028 
58 91 388 389 3379 3374 3378 3381 3380 3387 
355 389 58 388 3385 3381 3018 3376 3387 3378 
356 58 389 59 3028 3381 3386 3032 3031 3388 
389 58 92 59 3381 3382 3384 3388 3031 3389 
59 92 390 93 3389 3390 3391 3392 3393 3394 
356 390 357 59 3395 3396 3051 3032 3391 3042 
59 92 389 390 3389 3384 3388 3391 3390 3397 
356 390 59 389 3395 3391 3032 3386 3397 3388 
357 59 390 60 3042 3391 3396 3046 3045 3398 
390 59 93 60 3391 3392 3394 3398 3045 3399 
60 93 391 94 3399 3400 3401 3402 3403 3404 
357 391 358 60 3405 3406 3065 3046 3401 3056 
60 93 390 391 3399 3394 3398 3401 3400 3407 
357 391 60 390 3405 3401 3046 3396 3407 3398 
358 60 391 61 3056 3401 3406 3060 3059 3408 
391 60 94 61 3401 3402 3404 3408 3059 3409 
61 94 392 95 3409 3410 3411 3412 3413 3414 
358 392 359 61 3415 3416 3079 3060 3411 3070 
61 94 391 392 3409 3404 3408 3411 3410 3417 
358 392 61 391 3415 3411 3060 3406 3417 3408 
359 61 392 62 3070 3411 3416 3074 3073 3418 
392 61 95 62 3411 3412 3414 3418 3073 3419 
62 95 393 96 3419 3420 3421 3422 3423 3424 
359 393 360 62 3425 3426 3093 3074 3421 3084 
62 95 392 393 3419 3414 3418 3421 3420 3427 
359 393 62 392 3425 3421 3074 3416 3427 3418 
360 62 393 63 3084 3421 3426 3088 3087 3428 
393 62 96 63 3421 3422 3424 3428 3087 3429 
63 96 394 97 3429 3430 3431 3432 3433 3434 
360 394 361 63 3435 3436 3107 3088 3431 3098 
63 96 393 394 3429 3424 3428 3431 3430 3437 
360 394 63 393 3435 3431 3088 3426 3437 3428 
361 63 394 64 3098 3431 3436 3102 3101 3438 
394 63 97 64 3431 3432 3434 3438 3101 3439 
64 97 395 98 3439 3440 3441 3442 3443 3444 
361 395 362 64 3445 3446 3121 3102 3441 3112 
64 97 394 395 3439 3434 3438 3441 3440 3447 
361 395 64 394 3445 3441 3102 3436 3447 3438 
362 64 395 65 3112 3441 3446 3116 3115 3448 
395 64 98 65 3441 3442 3444 3448 3115 3449 
66 99 397 100 3450 3451 3452 3453 3454 3455 
363 397 364 66 3456 3457 3136 3134 3452 3127 
66 99 396 397 3450 3458 3459 3452 3451 3460 
363 397 66 396 3456 3452 3134 3461 3460 3459 
364 66 397 67 3127 3452 3457 3131 3130 3462 
397 66 100 67 3452 3453 3455 3462 3130 3463 
67 100 398 101 3463 3464 3465 3466 3467 3468 
364 398 365 67 3469 3470 3147 3131 3465 3140 
67 100 397 398 3463 3455 3462 3465 3464 3471 
364 398 67 397 3469 3465 3131 3457 3471 3462 
365 67 398 68 3140 3465 3470 3144 3143 3472 
398 67 101 68 3465 3466 3468 3472 3143 3473 
68 101 399 102 3473 3474 3475 3476 3477 3478 
365 399 366 68 3479 3480 3157 3144 3475 3150 
68 101 398 399 3473 3468 3472 3475 3474 3481 
365 399 68 398 3479 3475 3144 3470 3481 3472 
366 68 399 69 3150 3475 3480 3154 3153 3482 
399 68 102 69 3475 3476 3478 3482 3153 3483 
69 102 400 103 3483 3484 3485 3486 3487 3488 
366 400 367 69 3489 3490 3167 3154 3485 3160 
69 102 399 400 3483 3478 3482 3485 3484 3491 
366 400 69 399 3489 3485 3154 3480 3491 3482 
367 69 400 70 3160 3485 3490 3164 3163 3492 
400 69 103 70 3485 3486 3488 3492 3163 3493 
70 103 401 104 3493 3494 3495 3496 3497 3498 
367 401 368 70 3499 3500 3177 3164 3495 3170 
70 103 400 401 3493 3488 3492 3495 3494 3501 
367 401 70 400 3499 3495 3164 3490 3501 3492 
368 70 401 71 3170 3495 3500 3174 3173 3502 
401 70 104 71 3495 3496 3498 3502 3173 3503 
71 104 402 105 3503 3504 3505 3506 3507 3508 
368 402 369 71 3509 3510 3187 3174 3505 3180 
71 104 401 402 3503 3498 3502 3505 3504 3511 
368 402 71 401 3509 3505 3174 3500 3511 3502 
369 71 402 72 3180 3505 3510 3184 3183 3512 
402 71 105 72 3505 3506 3508 3512 3183 3513 
72 105 403 106 3513 3514 3515 3516 3517 3518 
369 403 370 72 3519 3520 3197 3184 3515 3190 
72 105 402 403 3513 3508 3512 3515 3514 3521 
369 403 72 402 3519 3515 3184 3510 3521 3512 
370 72 403 73 3190 3515 3520 3194 3193 3522 
403 72 106 73 3515 3516 3518 3522 3193 3523 
73 106 404 107 3523 3524 3525 3526 3527 3528 
370 404 371 73 3529 3530 3207 3194 3525 3200 
73 106 403 404 3523 3518 3522 3525 3524 3531 
370 404 73 403 3529 3525 3194 3520 3531 3522 
371 73 404 74 3200 3525 3530 3204 3203 3532 
404 73 107 74 3525 3526 3528 3532 3203 3533 
74 107 405 108 3533 3534 3535 3536 3537 3538 
371 405 372 74 3539 3540 3217 3204 3535 3210 
74 107 404 405 3533 3528 3532 3535 3534 3541 
371 405 74 404 3539 3535 3204 3530 3541 3532 
372 74 405 75 3210 3535 3540 3214 3213 3542 
405 74 108 75 3535 3536 3538 3542 3213 3543 
75 108 406 109 3543 3544 3545 3546 3547 3548 
372 406 373 75 3549 3550 3227 3214 3545 3220 
75 108 405 406 3543 3538 3542 3545 3544 3551 
372 406 75 405 3549 3545 3214 3540 3551 3542 
373 75 406 76 3220 3545 3550 3224 3223 3552 
406 75 109 76 3545 3546 3548 3552 3223 3553 
76 109 407 110 3553 3554 3555 3556 3557 3558 
373 407 374 76 3559 3560 3237 3224 3555 3230 
76 109 406 407 3553 3548 3552 3555 3554 3561 
373 407 76 406 3559 3555 3224 3550 3561 3552 
374 76 407 77 3230 3555 3560 3234 3233 3562 
407 76 110 77 3555 3556 3558 3562 3233 3563 
77 110 408 111 3563 3564 3565 3566 3567 3568 
374 408 375 77 3569 3570 3247 3234 3565 3240 
77 110 407 408 3563 3558 3562 3565 3564 3571 
374 408 77 407 3569 3565 3234 3560 3571 3562 
375 77 408 78 3240 3565 3570 3244 3243 3572 
408 77 111 78 3565 3566 3568 3572 3243 3573 
78 111 409 112 3573 3574 3575 3576 3577 3578 
375 409 376 78 3579 3580 3257 3244 3575 3250 
78 111 408 409 3573 3568 3572 3575 3574 3581 
375 409 78 408 3579 3575 3244 3570 3581 3572 
376 78 409 79 3250 3575 3580 3254 3253 3582 
409 78 112 79 3575 3576 3578 3582 3253 3583 
79 112 410 113 3583 3584 3585 3586 3587 3588 
376 410 377 79 3589 3590 3267 3254 3585 3260 
79 112 409 410 3583 3578 3582 3585 3584 3591 
376 410 79 409 3589 3585 3254 3580 3591 3582 
377 79 410 80 3260 3585 3590 3264 3263 3592 
410 79 113 80 3585 3586 3588 3592 3263 3593 
80 113 411 114 3593 3594 3595 3596 3597 3598 
377 411 378 80 3599 3600 3277 3264 3595 3270 
80 113 410 411 3593 3588 3592 3595 3594 3601 
377 411 80 410 3599 3595 3264 3590 3601 3592 
378 80 411 81 3270 3595 3600 3274 3273 3602 
411 80 114 81 3595 3596 3598 3602 3273 3603 
81 114 412 115 3603 3604 3605 3606 3607 3608 
378 412 379 81 3609 3610 3287 3274 3605 3280 
81 114 411 412 3603 3598 3602 3605 3604 3611 
378 412 81 411 3609 3605 3274 3600 3611 3602 
379 81 412 82 3280 3605 3610 3284 3283 3612 
412 81 115 82 3605 3606 3608 3612 3283 3613 
82 115 413 116 3613 3614 3615 3616 3617 3618 
379 413 380 82 3619 3620 3297 3284 3615 3290 
82 115 412 413 3613 3608 3612 3615 3614 3621 
379 413 82 412 3619 3615 3284 3610 3621 3612 
380 82 413 83 3290 3615 3620 3294 3293 3622 
413 82 116 83 3615 3616 3618 3622 3293 3623 
83 116 414 117 3623 3624 3625 3626 3627 3628 
380 414 381 83 3629 3630 3307 3294 3625 3300 
83 116 413 414 3623 3618 3622 3625 3624 3631 
380 414 83 413 3629 3625 3294 3620 3631 3622 
381 83 414 84 3300 3625 3630 3304 3303 3632 
414 83 117 84 3625 3626 3628 3632 3303 3633 
84 117 415 118 3633 3634 3635 3636 3637 3638 
381 415 382 84 3639 3640 3317 3304 3635 3310 
84 117 414 415 3633 3628 3632 3635 3634 3641 
381 415 84 414 3639 3635 3304 3630 3641 3632 
382 84 415 85 3310 3635 3640 3314 3313 3642 
415 84 118 85 3635 3636 3638 3642 3313 3643 
85 118 416 119 3643 3644 3645 3646 3647 3648 
382 416 383 85 3649 3650 3327 3314 3645 3320 
85 118 415 416 3643 3638 3642 3645 3644 3651 
382 416 85 415 3649 3645 3314 3640 3651 3642 
383 85 416 86 3320 3645 3650 3324 3323 3652 
416 85 119 86 3645 3646 3648 3652 3323 3653 
86 119 417 120 3653 3654 3655 3656 3657 3658 
383 417 384 86 3659 3660 3337 3324 3655 3330 
86 119 416 417 3653 3648 3652 3655 3654 3661 
383 417 86 416 3659 3655 3324 3650 3661 3652 
384 86 417 87 3330 3655 3660 3334 3333 3662 
417 86 120 87 3655 3656 3658 3662 3333 3663 
87 120 418 121 3663 3664 3665 3666 3667 3668 
384 418 385 87 3669 3670 3347 3334 3665 3340 
87 120 417 418 3663 3658 3662 3665 3664 3671 
384 418 87 417 3669 3665 3334 3660 3671 3662 
385 87 418 88 3340 3665 3670 3344 3343 3672 
418 87 121 88 3665 3666 3668 3672 3343 3673 
88 121 419 122 3673 3674 3675 3676 3677 3678 
385 419 386 88 3679 3680 3357 3344 3675 3350 
88 121 418 419 3673 3668 3672 3675 3674 3681 
385 419 88 418 3679 3675 3344 3670 3681 3672 
386 88 419 89 3350 3675 3680 3354 3353 3682 
419 88 122 89 3675 3676 3678 3682 3353 3683 
89 122 420 123 3683 3684 3685 3686 3687 3688 
386 420 387 89 3689 3690 3367 3354 3685 3360 
89 122 419 420 3683 3678 3682 3685 3684 3691 
386 420 89 419 3689 3685 3354 3680 3691 3682 
387 89 420 90 3360 3685 3690 3364 3363 3692 
420 89 123 90 3685 3686 3688 3692 3363 3693 
90 123 421 124 3693 3694 3695 3696 3697 3698 
387 421 388 90 3699 3700 3377 3364 3695 3370 
90 123 420 421 3693 3688 3692 3695 3694 3701 
387 421 90 420 3699 3695 3364 3690 3701 3692 
388 90 421 91 3370 3695 3700 3374 3373 3702 
421 90 124 91 3695 3696 3698 3702 3373 3703 
91 124 422 125 3703 3704 3705 3706 3707 3708 
388 422 389 91 3709 3710 3387 3374 3705 3380 
91 124 421 422 3703 3698 3702 3705 3704 3711 
388 422 91 421 3709 3705 3374 3700 3711 3702 
389 91 422 92 3380 3705 3710 3384 3383 3712 
422 91 125 92 3705 3706 3708 3712 3383 3713 
92 125 423 126 3713 3714 3715 3716 3717 3718 
389 423 390 92 3719 3720 3397 3384 3715 3390 
92 125 422 423 3713 3708 3712 3715 3714 3721 
389 423 92 422 3719 3715 3384 3710 3721 3712 
390 92 423 93 3390 3715 3720 3394 3393 3722 
423 92 126 93 3715 3716 3718 3722 3393 3723 
93 126 424 127 3723 3724 3725 3726 3727 3728 
390 424 391 93 3729 3730 3407 3394 3725 3400 
93 126 423 424 3723 3718 3722 3725 3724 3731 
390 424 93 423 3729 3725 3394 3720 3731 3722 
391 93 424 94 3400 3725 3730 3404 3403 3732 
424 93 127 94 3725 3726 3728 3732 3403 3733 
94 127 425 128 3733 3734 3735 3736 3737 3738 
391 425 392 94 3739 3740 3417 3404 3735 3410 
94 127 424 425 3733 3728 3732 3735 3734 3741 
391 425 94 424 3739 3735 3404 3730 3741 3732 
392 94 425 95 3410 3735 3740 3414 3413 3742 
425 94 128 95 3735 3736 3738 3742 3413 3743 
95 128 426 129 3743 3744 3745 3746 3747 3748 
392 426 393 95 3749 3750 3427 3414 3745 3420 
95 128 425 426 3743 3738 3742 3745 3744 3751 
392 426 95 425 3749 3745 3414 3740 3751 3742 
393 95 426 96 3420 3745 3750 3424 3423 3752 
426 95 129 96 3745 3746 3748 3752 3423 3753 
96 129 427 130 3753 3754 3755 3756 3757 3758 
393 427 394 96 3759 3760 3437 3424 3755 3430 
96 129 426 427 3753 3748 3752 3755 3754 3761 
393 427 96 426 3759 3755 3424 3750 3761 3752 
394 96 427 97 3430 3755 3760 3434 3433 3762 
427 96 130 97 3755 3756 3758 3762 3433 3763 
97 130 428 131 3763 3764 3765 3766 3767 3768 
394 428 395 97 3769 3770 3447 3434 3765 3440 
97 130 427 428 3763 3758 3762 3765 3764 3771 
394 428 97 427 3769 3765 3434 3760 3771 3762 
395 97 428 98 3440 3765 3770 3444 3443 3772 
428 97 131 98 3765 3766 3768 3772 3443 3773 
99 132 430 133 3774 3775 3776 3777 3778 3779 
396 430 397 99 3780 3781 3460 3458 3776 3451 
99 132 429 430 3774 3782 3783 3776 3775 3784 
396 430 99 429 3780 3776 3458 3785 3784 3783 
397 99 430 100 3451 3776 3781 3455 3454 3786 
430 99 133 100 3776 3777 3779 3786 3454 3787 
100 133 431 134 3787 3788 3789 3790 3791 3792 
397 431 398 100 3793 3794 3471 3455 3789 3464 
100 133 430 431 3787 3779 3786 3789 3788 3795 
397 431 100 430 3793 3789 3455 3781 3795 3786 
398 100 431 101 3464 3789 3794 3468 3467 3796 
431 100 134 101 3789 3790 3792 3796 3467 3797 
101 134 432 135 3797 3798 3799 3800 3801 3802 
398 432 399 101 3803 3804 3481 3468 3799 3474 
101 134 431 432 3797 3792 3796 3799 3798 3805 
398 432 101 431 3803 3799 3468 3794 3805 3796 
399 101 432 102 3474 3799 3804 3478 3477 3806 
432 101 135 102 3799 3800 3802 3806 3477 3807 
102 135 433 136 3807 3808 3809 3810 3811 3812 
399 433 400 102 3813 3814 3491 3478 3809 3484 
102 135 432 433 3807 3802 3806 3809 3808 3815 
399 433 102 432 3813 3809 3478 3804 3815 3806 
400 102 433 103 3484 3809 3814 3488 3487 3816 
433 102 136 103 3809 3810 3812 3816 3487 3817 
103 136 434 137 3817 3818 3819 3820 3821 3822 
400 434 401 103 3823 3824 3501 3488 3819 3494 
103 136 433 434 3817 3812 3816 3819 3818 3825 
400 434 103 433 3823 3819 3488 3814 3825 3816 
401 103 434 104 3494 3819 3824 3498 3497 3826 
434 103 137 104 3819 3820 3822 3826 3497 3827 
104 137 435 138 3827 3828 3829 3830 3831 3832 
401 435 402 104 3833 3834 3511 3498 3829 3504 
104 137 434 435 3827 3822 3826 3829 3828 3835 
401 435 104 434 3833 3829 3498 3824 3835 3826 
402 104 435 105 3504 3829 3834 3508 3507 3836 
435 104 138 105 3829 3830 3832 3836 3507 3837 
105 138 436 139 3837 3838 3839 3840 3841 3842 
402 436 403 105 3843 3844 3521 3508 3839 3514 
105 138 435 436 3837 3832 3836 3839 3838 3845 
402 436 105 435 3843 3839 3508 3834 3845 3836 
403 105 436 106 3514 3839 3844 3518 3517 3846 
436 105 139 106 3839 3840 3842 3846 3517 3847 
106 139 437 140 3847 3848 3849 3850 3851 3852 
403 437 404 106 3853 3854 3531 3518 3849 3524 
106 139 436 437 3847 3842 3846 3849 3848 3855 
403 437 106 436 3853 3849 3518 3844 3855 3846 
404 106 437 107 3524 3849 3854 3528 3527 3856 
437 106 140 107 3849 3850 3852 3856 3527 3857 
107 140 438 141 3857 3858 3859 3860 3861 3862 
404 438 405 107 3863 3864 3541 3528 3859 3534 
107 140 437 438 3857 3852 3856 3859 3858 3865 
404 438 107 437 3863 3859 3528 3854 3865 3856 
405 107 438 108 3534 3859 3864 3538 3537 3866 
438 107 141 108 3859 3860 3862 3866 3537 3867 
108 141 439 142 3867 3868 3869 3870 3871 3872 
405 439 406 108 3873 3874 3551 3538 3869 3544 
108 141 438 439 3867 3862 3866 3869 3868 3875 
405 439 108 438 3873 3869 3538 3864 3875 3866 
406 108 439 109 3544 3869 3874 3548 3547 3876 
439 108 142 109 3869 3870 3872 3876 3547 3877 
109 142 440 143 3877 3878 3879 3880 3881 3882 
406 440 407 109 3883 3884 3561 3548 3879 3554 
109 142 439 440 3877 3872 3876 3879 3878 3885 
406 440 109 439 3883 3879 3548 3874 3885 3876 
407 109 440 110 3554 3879 3884 3558 3557 3886 
440 109 143 110 3879 3880 3882 3886 3557 3887 
110 143 441 144 3887 3888 3889 3890 3891 3892 
407 441 408 110 3893 3894 3571 3558 3889 3564 
110 143 440 441 3887 3882 3886 3889 3888 3895 
407 441 110 440 3893 3889 3558 3884 3895 3886 
408 110 441 111 3564 3889 3894 3568 3567 3896 
441 110 144 111 3889 3890 3892 3896 3567 3897 
111 144 442 145 3897 3898 3899 3900 3901 3902 
408 442 409 111 3903 3904 3581 3568 3899 3574 
111 144 441 442 3897 3892 3896 3899 3898 3905 
408 442 111 441 3903 3899 3568 3894 3905 3896 
409 111 442 112 3574 3899 3904 3578 3577 3906 
442 111 145 112 3899 3900 3902 3906 3577 3907 
112 145 443 146 3907 3908 3909 3910 3911 3912 
409 443 410 112 3913 3914 3591 3578 3909 3584 
112 145 442 443 3907 3902 3906 3909 3908 3915 
409 443 112 442 3913 3909 3578 3904 3915 3906 
410 112 443 113 3584 3909 3914 3588 3587 3916 
443 112 146 113 3909 3910 3912 3916 3587 3917 
113 146 444 147 3917 3918 3919 3920 3921 3922 
410 444 411 113 3923 3924 3601 3588 3919 3594 
113 146 443 444 3917 3912 3916 3919 3918 3925 
410 444 113 443 3923 3919 3588 3914 3925 3916 
411 113 444 114 3594 3919 3924 3598 3597 3926 
444 113 147 114 3919 3920 3922 3926 3597 3927 
114 147 445 148 3927 3928 3929 3930 3931 3932 
411 445 412 114 3933 3934 3611 3598 3929 3604 
114 147 444 445 3927 3922 3926 3929 3928 3935 
411 445 114 444 3933 3929 3598 3924 3935 3926 
412 114 445 115 3604 3929 3934 3608 3607 3936 
445 114 148 115 3929 3930 3932 3936 3607 3937 
115 148 446 149 3937 3938 3939 3940 3941 3942 
412 446 413 115 3943 3944 3621 3608 3939 3614 
115 148 445 446 3937 3932 3936 3939 3938 3945 
412 446 115 445 3943 3939 3608 3934 3945 3936 
413 115 446 116 3614 3939 3944 3618 3617 3946 
446 115 149 116 3939 3940 3942 3946 3617 3947 
116 149 447 150 3947 3948 3949 3950 3951 3952 
413 447 414 116 3953 3954 3631 3618 3949 3624 
116 149 446 447 3947 3942 3946 3949 3948 3955 
413 447 116 446 3953 3949 3618 3944 3955 3946 
414 116 447 117 3624 3949 3954 3628 3627 3956 
447 116 150 117 3949 3950 3952 3956 3627 3957 
117 150 448 151 3957 3958 3959 3960 3961 3962 
414 448 415 117 3963 3964 3641 3628 3959 3634 
117 150 447 448 3957 3952 3956 3959 3958 3965 
414 448 117 447 3963 3959 3628 3954 3965 3956 
415 117 448 118 3634 3959 3964 3638 3637 3966 
448 117 151 118 3959 3960 3962 3966 3637 3967 
118 151 449 152 3967 3968 3969 3970 3971 3972 
415 449 416 118 3973 3974 3651 3638 3969 3644 
118 151 448 449 3967 3962 3966 3969 3968 3975 
415 449 118 448 3973 3969 3638 3964 3975 3966 
416 118 449 119 3644 3969 3974 3648 3647 3976 
449 118 152 119 3969 3970 3972 3976 3647 3977 
119 152 450 153 3977 3978 3979 3980 3981 3982 
416 450 417 119 3983 3984 3661 3648 3979 3654 
119 152 449 450 3977 3972 3976 3979 3978 3985 
416 450 119 449 3983 3979 3648 3974 3985 3976 
417 119 450 120 3654 3979 3984 3658 3657 3986 
450 119 153 120 3979 3980 3982 3986 3657 3987 
120 153 451 154 3987 3988 3989 3990 3991 3992 
417 451 418 120 3993 3994 3671 3658 3989 3664 
120 153 450 451 3987 3982 3986 3989 3988 3995 
417 451 120 450 3993 3989 3658 3984 3995 3986 
418 120 451 121 3664 3989 3994 3668 3667 3996 
451 120 154 121 3989 3990 3992 3996 3667 3997 
121 154 452 155 3997 3998 3999 4000 4001 4002 
418 452 419 121 4003 4004 3681 3668 3999 3674 
121 154 451 452 3997 3992 3996 3999 3998 4005 
418 452 121 451 4003 3999 3668 3994 4005 3996 
419 121 452 122 3674 3999 4004 3678 3677 4006 
452 121 155 122 3999 4000 4002 4006 3677 4007 
122 155 453 156 4007 4008 4009 4010 4011 4012 
419 453 420 122 4013 4014 3691 3678 4009 3684 
122 155 452 453 4007 4002 4006 4009 4008 4015 
419 453 122 452 4013 4009 3678 4004 4015 4006 
420 122 453 123 3684 4009 4014 3688 3687 4016 
453 122 156 123 4009 4010 4012 4016 3687 4017 
123 156 454 157 4017 4018 4019 4020 4021 4022 
420 454 421 123 4023 4024 3701 3688 4019 3694 
123 156 453 454 4017 4012 4016 4019 4018 4025 
420 454 123 453 4023 4019 3688 4014 4025 4016 
421 123 454 124 3694 4019 4024 3698 3697 4026 
454 123 157 124 4019 4020 4022 4026 3697 4027 
124 157 455 158 4027 4028 4029 4030 4031 4032 
421 455 422 124 4033 4034 3711 3698 4029 3704 
124 157 454 455 4027 4022 4026 4029 4028 4035 
421 455 124 454 4033 4029 3698 4024 4035 4026 
422 124 455 125 3704 4029 4034 3708 3707 4036 
455 124 158 125 4029 4030 4032 4036 3707 4037 
125 158 456 159 4037 4038 4039 4040 4041 4042 
422 456 423 125 4043 4044 3721 3708 4039 3714 
125 158 455 456 4037 4032 4036 4039 4038 4045 
422 456 125 455 4043 4039 3708 4034 4045 4036 
423 125 456 126 3714 4039 4044 3718 3717 4046 
456 125 159 126 4039 4040 4042 4046 3717 4047 
126 159 457 160 4047 4048 4049 4050 4051 4052 
423 457 424 126 4053 4054 3731 3718 4049 3724 
126 159 456 457 4047 4042 4046 4049 4048 4055 
423 457 126 456 4053 4049 3718 4044 4055 4046 
424 126 457 127 3724 4049 4054 3728 3727 4056 
457 126 160 127 4049 4050 4052 4056 3727 4057 
127 160 458 161 4057 4058 4059 4060 4061 4062 
424 458 425 127 4063 4064 3741 3728 4059 3734 
127 160 457 458 4057 4052 4056 4059 4058 4065 
424 458 127 457 4063 4059 3728 4054 4065 4056 
425 127 458 128 3734 4059 4064 3738 3737 4066 
458 127 161 128 4059 4060 4062 4066 3737 4067 
128 161 459 162 4067 4068 4069 4070 4071 4072 
425 459 426 128 4073 4074 3751 3738 4069 3744 
128 161 458 459 4067 4062 4066 4069 4068 4075 
425 459 128 458 4073 4069 3738 4064 4075 4066 
426 128 459 129 3744 4069 4074 3748 3747 4076 
459 128 162 129 4069 4070 4072 4076 3747 4077 
129 162 460 163 4077 4078 4079 4080 4081 4082 
426 460 427 129 4083 4084 3761 3748 4079 3754 
129 162 459 460 4077 4072 4076 4079 4078 4085 
426 460 129 459 4083 4079 3748 4074 4085 4076 
427 129 460 130 3754 4079 4084 3758 3757 4086 
460 129 163 130 4079 4080 4082 4086 3757 4087 
130 163 461 164 4087 4088 4089 4090 4091 4092 
427 461 428 130 4093 4094 3771 3758 4089 3764 
130 163 460 461 4087 4082 4086 4089 4088 4095 
427 461 130 460 4093 4089 3758 4084 4095 4086 
428 130 461 131 3764 4089 4094 3768 3767 4096 
461 130 164 131 4089 4090 4092 4096 3767 4097 
132 165 463 166 4098 4099 4100 4101 4102 4103 
429 463 430 132 4104 4105 3784 3782 4100 3775 
132 165 462 463 4098 4106 4107 4100 4099 4108 
429 463 132 462 4104 4100 3782 4109 4108 4107 
430 132 463 133 3775 4100 4105 3779 3778 4110 
463 132 166 133 4100 4101 4103 4110 3778 4111 
133 166 464 167 4111 4112 4113 4114 4115 4116 
430 464 431 133 4117 4118 3795 3779 4113 3788 
133 166 463 464 4111 4103 4110 4113 4112 4119 
430 464 133 463 4117 4113 3779 4105 4119 4110 
431 133 464 134 3788 4113 4118 3792 3791 4120 
464 133 167 134 4113 4114 4116 4120 3791 4121 
134 167 465 168 4121 4122 4123 4124 4125 4126 
431 465 432 134 4127 4128 3805 3792 4123 3798 
134 167 464 465 4121 4116 4120 4123 4122 4129 
431 465 134 464 4127 4123 3792 4118 4129 4120 
432 134 465 135 3798 4123 4128 3802 3801 4130 
465 134 168 135 4123 4124 4126 4130 3801 4131 
135 168 466 169 4131 4132 4133 4134 4135 4136 
432 466 433 135 4137 4138 3815 3802 4133 3808 
135 168 465 466 4131 4126 4130 4133 4132 4139 
432 466 135 465 4137 4133 3802 4128 4139 4130 
433 135 466 136 3808 4133 4138 3812 3811 4140 
466 135 169 136 4133 4134 4136 4140 3811 4141 
136 169 467 170 4141 4142 4143 4144 4145 4146 
433 467 434 136 4147 4148 3825 3812 4143 3818 
136 169 466 467 4141 4136 4140 4143 4142 4149 
433 467 136 466 4147 4143 3812 4138 4149 4140 
434 136 467 137 3818 4143 4148 3822 3821 4150 
467 136 170 137 4143 4144 4146 4150 3821 4151 
137 170 468 171 4151 4152 4153 4154 4155 4156 
434 468 435 137 4157 4158 3835 3822 4153 3828 
137 170 467 468 4151 4146 4150 4153 4152 4159 
434 468 137 467 4157 4153 3822 4148 4159 4150 
435 137 468 138 3828 4153 4158 3832 3831 4160 
468 137 171 138 4153 4154 4156 4160 3831 4161 
138 171 469 172 4161 4162 4163 4164 4165 4166 
435 469 436 138 4167 4168 3845 3832 4163 3838 
138 171 468 469 4161 4156 4160 4163 4162 4169 
435 469 138 468 4167 4163 3832 4158 4169 4160 
436 138 469 139 3838 4163 4168 3842 3841 4170 
469 138 172 139 4163 4164 4166 4170 3841 4171 
139 172 470 173 4171 4172 4173 4174 4175 4176 
436 470 437 139 4177 4178 3855 3842 4173 3848 
139 172 469 470 4171 4166 4170 4173 4172 4179 
436 470 139 469 4177 4173 3842 4168 4179 4170 
437 139 470 140 3848 4173 4178 3852 3851 4180 
470 139 173 140 4173 4174 4176 4180 3851 4181 
140 173 471 174 4181 4182 4183 4184 4185 4186 
437 471 438 140 4187 4188 3865 3852 4183 3858 
140 173 470 471 4181 4176 4180 4183 4182 4189 
437 471 140 470 4187 4183 3852 4178 4189 4180 
438 140 471 141 3858 4183 4188 3862 3861 4190 
471 140 174 141 4183 4184 4186 4190 3861 4191 
141 174 472 175 4191 4192 4193 4194 4195 4196 
438 472 439 141 4197 4198 3875 3862 4193 3868 
141 174 471 472 4191 4186 4190 4193 4192 4199 
438 472 141 471 4197 4193 3862 4188 4199 4190 
439 141 472 142 3868 4193 4198 3872 3871 4200 
472 141 175 142 4193 4194 4196 4200 3871 4201 
142 175 473 176 4201 4202 4203 4204 4205 4206 
439 473 440 142 4207 4208 3885 3872 4203 3878 
142 175 472 473 4201 4196 4200 4203 4202 4209 
439 473 142 472 4207 4203 3872 4198 4209 4200 
440 142 473 143 3878 4203 4208 3882 3881 4210 
473 142 176 143 4203 4204 4206 4210 3881 4211 
143 176 474 177 4211 4212 4213 4214 4215 4216 
440 474 441 143 4217 4218 3895 3882 4213 3888 
143 176 473 474 4211 4206 4210 4213 4212 4219 
440 474 143 473 4217 4213 3882 4208 4219 4210 
441 143 474 144 3888 4213 4218 3892 3891 4220 
474 143 177 144 4213 4214 4216 4220 3891 4221 
144 177 475 178 4221 4222 4223 4224 4225 4226 
441 475 442 144 4227 4228 3905 3892 4223 3898 
144 177 474 475 4221 4216 4220 4223 4222 4229 
441 475 144 474 4227 4223 3892 4218 4229 4220 
442 144 475 145 3898 4223 4228 3902 3901 4230 
475 144 178 145 4223 4224 4226 4230 3901 4231 
145 178 476 179 4231 4232 4233 4234 4235 4236 
442 476 443 145 4237 4238 3915 3902 4233 3908 
145 178 475 476 4231 4226 4230 4233 4232 4239 
442 476 145 475 4237 4233 3902 4228 4239 4230 
443 145 476 146 3908 4233 4238 3912 3911 4240 
476 145 179 146 4233 4234 4236 4240 3911 4241 
146 179 477 180 4241 4242 4243 4244 4245 4246 
443 477 444 146 4247 4248 3925 3912 4243 3918 
146 179 476 477 4241 4236 4240 4243 4242 4249 
443 477 146 476 4247 4243 3912 4238 4249 4240 
444 146 477 147 3918 4243 4248 3922 3921 4250 
477 146 180 147 4243 4244 4246 4250 3921 4251 
147 180 478 181 4251 4252 4253 4254 4255 4256 
444 478 445 147 4257 4258 3935 3922 4253 3928 
147 180 477 478 4251 4246 4250 4253 4252 4259 
444 478 147 477 4257 4253 3922 4248 4259 4250 
445 147 478 148 3928 4253 4258 3932 3931 4260 
478 147 181 148 4253 4254 4256 4260 3931 4261 
148 181 479 182 4261 4262 4263 4264 4265 4266 
445 479 446 148 4267 4268 3945 3932 4263 3938 
148 181 478 479 4261 4256 4260 4263 4262 4269 
445 479 148 478 4267 4263 3932 4258 4269 4260 
446 148 479 149 3938 4263 4268 3942 3941 4270 
479 148 182 149 4263 4264 4266 4270 3941 4271 
149 182 480 183 4271 4272 4273 4274 4275 4276 
446 480 447 149 4277 4278 3955 3942 4273 3948 
149 182 479 480 4271 4266 4270 4273 4272 4279 
446 480 149 479 4277 4273 3942 4268 4279 4270 
447 149 480 150 3948 4273 4278 3952 3951 4280 
480 149 183 150 4273 4274 4276 4280 3951 4281 
150 183 481 184 4281 4282 4283 4284 4285 4286 
447 481 448 150 4287 4288 3965 3952 4283 3958 
150 183 480 481 4281 4276 4280 4283 4282 4289 
447 481 150 480 4287 4283 3952 4278 4289 4280 
448 150 481 151 3958 4283 4288 3962 3961 4290 
481 150 184 151 4283 4284 4286 4290 3961 4291 
151 184 482 185 4291 4292 4293 4294 4295 4296 
448 482 449 151 4297 4298 3975 3962 4293 3968 
151 184 481 482 4291 4286 4290 4293 4292 4299 
448 482 151 481 4297 4293 3962 4288 4299 4290 
449 151 482 152 3968 4293 4298 3972 3971 4300 
482 151 185 152 4293 4294 4296 4300 3971 4301 
152 185 483 186 4301 4302 4303 4304 4305 4306 
449 483 450 152 4307 4308 3985 3972 4303 3978 
152 185 482 483 4301 4296 4300 4303 4302 4309 
449 483 152 482 4307 4303 3972 4298 4309 4300 
450 152 483 153 3978 4303 4308 3982 3981 4310 
483 152 186 153 4303 4304 4306 4310 3981 4311 
153 186 484 187 4311 4312 4313 4314 4315 4316 
450 484 451 153 4317 4318 3995 3982 4313 3988 
153 186 483 484 4311 4306 4310 4313 4312 4319 
450 484 153 483 4317 4313 3982 4308 4319 4310 
451 153 484 154 3988 4313 4318 3992 3991 4320 
484 153 187 154 4313 4314 4316 4320 3991 4321 
154 187 485 188 4321 4322 4323 4324 4325 4326 
451 485 452 154 4327 4328 4005 3992 4323 3998 
154 187 484 485 4321 4316 4320 4323 4322 4329 
451 485 154 484 4327 4323 3992 4318 4329 4320 
452 154 485 155 3998 4323 4328 4002 4001 4330 
485 154 188 155 4323 4324 4326 4330 4001 4331 
155 188 486 189 4331 4332 4333 4334 4335 4336 
452 486 453 155 4337 4338 4015 4002 4333 4008 
155 188 485 486 4331 4326 4330 4333 4332 4339 
452 486 155 485 4337 4333 4002 4328 4339 4330 
453 155 486 156 4008 4333 4338 4012 4011 4340 
486 155 189 156 4333 4334 4336 4340 4011 4341 
156 189 487 190 4341 4342 4343 4344 4345 4346 
453 487 454 156 4347 4348 4025 4012 4343 4018 
156 189 486 487 4341 4336 4340 4343 4342 4349 
453 487 156 486 4347 4343 4012 4338 4349 4340 
454 156 487 157 4018 4343 4348 4022 4021 4350 
487 156 190 157 4343 4344 4346 4350 4021 4351 
157 190 488 191 4351 4352 4353 4354 4355 4356 
454 488 455 157 4357 4358 4035 4022 4353 4028 
157 190 487 488 4351 4346 4350 4353 4352 4359 
454 488 157 487 4357 4353 4022 4348 4359 4350 
455 157 488 158 4028 4353 4358 4032 4031 4360 
488 157 191 158 4353 4354 4356 4360 4031 4361 
158 191 489 192 4361 4362 4363 4364 4365 4366 
455 489 456 158 4367 4368 4045 4032 4363 4038 
158 191 488 489 4361 4356 4360 4363 4362 4369 
455 489 158 488 4367 4363 4032 4358 4369 4360 
456 158 489 159 4038 4363 4368 4042 4041 4370 
489 158 192 159 4363 4364 4366 4370 4041 4371 
159 192 490 193 4371 4372 4373 4374 4375 4376 
456 490 457 159 4377 4378 4055 4042 4373 4048 
159 192 489 490 4371 4366 4370 4373 4372 4379 
456 490 159 489 4377 4373 4042 4368 4379 4370 
457 159 490 160 4048 4373 4378 4052 4051 4380 
490 159 193 160 4373 4374 4376 4380 4051 4381 
160 193 491 194 4381 4382 4383 4384 4385 4386 
457 491 458 160 4387 4388 4065 4052 4383 4058 
160 193 490 491 4381 4376 4380 4383 4382 4389 
457 491 160 490 4387 4383 4052 4378 4389 4380 
458 160 491 161 4058 4383 4388 4062 4061 4390 
491 160 194 161 4383 4384 4386 4390 4061 4391 
161 194 492 195 4391 4392 4393 4394 4395 4396 
458 492 459 161 4397 4398 4075 4062 4393 4068 
161 194 491 492 4391 4386 4390 4393 4392 4399 
458 492 161 491 4397 4393 4062 4388 4399 4390 
459 161 492 162 4068 4393 4398 4072 4071 4400 
492 161 195 162 4393 4394 4396 4400 4071 4401 
162 195 493 196 4401 4402 4403 4404 4405 4406 
459 493 460 162 4407 4408 4085 4072 4403 4078 
162 195 492 493 4401 4396 4400 4403 4402 4409 
459 493 162 492 4407 4403 4072 4398 4409 4400 
460 162 493 163 4078 4403 4408 4082 4081 4410 
493 162 196 163 4403 4404 4406 4410 4081 4411 
163 196 494 197 4411 4412 4413 4414 4415 4416 
460 494 461 163 4417 4418 4095 4082 4413 4088 
163 196 493 494 4411 4406 4410 4413 4412 4419 
460 494 163 493 4417 4413 4082 4408 4419 4410 
461 163 494 164 4088 4413 4418 4092 4091 4420 
494 163 197 164 4413 4414 4416 4420 4091 4421 
165 198 496 199 4422 4423 4424 4425 4426 4427 
462 496 463 165 4428 4429 4108 4106 4424 4099 
165 198 495 496 4422 4430 4431 4424 4423 4432 
462 496 165 495 4428 4424 4106 4433 4432 4431 
463 165 496 166 4099 4424 4429 4103 4102 4434 
496 165 199 166 4424 4425 4427 4434 4102 4435 
166 199 497 200 4435 4436 4437 4438 4439 4440 
463 497 464 166 4441 4442 4119 4103 4437 4112 
166 199 496 497 4435 4427 4434 4437 4436 4443 
463 497 166 496 4441 4437 4103 4429 4443 4434 
464 166 497 167 4112 4437 4442 4116 4115 4444 
497 166 200 167 4437 4438 4440 4444 4115 4445 
167 200 498 201 4445 4446 4447 4448 4449 4450 
464 498 465 167 4451 4452 4129 4116 4447 4122 
167 200 497 498 4445 4440 4444 4447 4446 4453 
464 498 167 497 4451 4447 4116 4442 4453 4444 
465 167 498 168 4122 4447 4452 4126 4125 4454 
498 167 201 168 4447 4448 4450 4454 4125 4455 
168 201 499 202 4455 4456 4457 4458 4459 4460 
465 499 466 168 4461 4462 4139 4126 4457 4132 
168 201 498 499 4455 4450 4454 4457 4456 4463 
465 499 168 498 4461 4457 4126 4452 4463 4454 
466 168 499 169 4132 4457 4462 4136 4135 4464 
499 168 202 169 4457 4458 4460 4464 4135 4465 
169 202 500 203 4465 4466 4467 4468 4469 4470 
466 500 467 169 4471 4472 4149 4136 4467 4142 
169 202 499 500 4465 4460 4464 4467 4466 4473 
466 500 169 499 4471 4467 4136 4462 4473 4464 
467 169 500 170 4142 4467 4472 4146 4145 4474 
500 169 203 170 4467 4468 4470 4474 4145 4475 
170 203 501 204 4475 4476 4477 4478 4479 4480 
467 501 468 170 4481 4482 4159 4146 4477 4152 
170 203 500 501 4475 4470 4474 4477 4476 4483 
467 501 170 500 4481 4477 4146 4472 4483 4474 
468 170 501 171 4152 4477 4482 4156 4155 4484 
501 170 204 171 4477 4478 4480 4484 4155 4485 
171 204 502 205 4485 4486 4487 4488 4489 4490 
468 502 469 171 4491 4492 4169 4156 4487 4162 
171 204 501 502 4485 4480 4484 4487 4486 4493 
468 502 171 501 4491 4487 4156 4482 4493 4484 
469 171 502 172 4162 4487 4492 4166 4165 4494 
502 171 205 172 4487 4488 4490 4494 4165 4495 
172 205 503 206 4495 4496 4497 4498 4499 4500 
469 503 470 172 4501 4502 4179 4166 4497 4172 
172 205 502 503 4495 4490 4494 4497 4496 4503 
469 503 172 502 4501 4497 4166 4492 4503 4494 
470 172 503 173 4172 4497 4502 4176 4175 4504 
503 172 206 173 4497 4498 4500 4504 4175 4505 
173 206 504 207 4505 4506 4507 4508 4509 4510 
470 504 471 173 4511 4512 4189 4176 4507 4182 
173 206 503 504 4505 4500 4504 4507 4506 4513 
470 504 173 503 4511 4507 4176 4502 4513 4504 
471 173 504 174 4182 4507 4512 4186 4185 4514 
504 173 207 174 4507 4508 4510 4514 4185 4515 
174 207 505 208 4515 4516 4517 4518 4519 4520 
471 505 472 174 4521 4522 4199 4186 4517 4192 
174 207 504 505 4515 4510 4514 4517 4516 4523 
471 505 174 504 4521 4517 4186 4512 4523 4514 
472 174 505 175 4192 4517 4522 4196 4195 4524 
505 174 208 175 4517 4518 4520 4524 4195 4525 
175 208 506 209 4525 4526 4527 4528 4529 4530 
472 506 473 175 4531 4532 4209 4196 4527 4202 
175 208 505 506 4525 4520 4524 4527 4526 4533 
472 506 175 505 4531 4527 4196 4522 4533 4524 
473 175 506 176 4202 4527 4532 4206 4205 4534 
506 175 209 176 4527 4528 4530 4534 4205 4535 
176 209 507 210 4535 4536 4537 4538 4539 4540 
473 507 474 176 4541 4542 4219 4206 4537 4212 
176 209 506 507 4535 4530 4534 4537 4536 4543 
473 507 176 506 4541 4537 4206 4532 4543 4534 
474 176 507 177 4212 4537 4542 4216 4215 4544 
507 176 210 177 4537 4538 4540 4544 4215 4545 
177 210 508 211 4545 4546 4547 4548 4549 4550 
474 508 475 177 4551 4552 4229 4216 4547 4222 
177 210 507 508 4545 4540 4544 4547 4546 4553 
474 508 177 507 4551 4547 4216 4542 4553 4544 
475 177 508 178 4222 4547 4552 4226 4225 4554 
508 177 211 178 4547 4548 4550 4554 4225 4555 
178 211 509 212 4555 4556 4557 4558 4559 4560 
475 509 476 178 4561 4562 4239 4226 4557 4232 
178 211 508 509 4555 4550 4554 4557 4556 4563 
475 509 178 508 4561 4557 4226 4552 4563 4554 
476 178 509 179 4232 4557 4562 4236 4235 4564 
509 178 212 179 4557 4558 4560 4564 4235 4565 
179 212 510 213 4565 4566 4567 4568 4569 4570 
476 510 477 179 4571 4572 4249 4236 4567 4242 
179 212 509 510 4565 4560 4564 4567 4566 4573 
476 510 179 509 4571 4567 4236 4562 4573 4564 
477 179 510 180 4242 4567 4572 4246 4245 4574 
510 179 213 180 4567 4568 4570 4574 4245 4575 
180 213 511 214 4575 4576 4577 4578 4579 4580 
477 511 478 180 4581 4582 4259 4246 4577 4252 
180 213 510 511 4575 4570 4574 4577 4576 4583 
477 511 180 510 4581 4577 4246 4572 4583 4574 
478 180 511 181 4252 4577 4582 4256 4255 4584 
511 180 214 181 4577 4578 4580 4584 4255 4585 
181 214 512 215 4585 4586 4587 4588 4589 4590 
478 512 479 181 4591 4592 4269 4256 4587 4262 
181 214 511 512 4585 4580 4584 4587 4586 4593 
478 512 181 511 4591 4587 4256 4582 4593 4584 
479 181 512 182 4262 4587 4592 4266 4265 4594 
512 181 215 182 4587 4588 4590 4594 4265 4595 
182 215 513 216 4595 4596 4597 4598 4599 4600 
479 513 480 182 4601 4602 4279 4266 4597 4272 
182 215 512 513 4595 4590 4594 4597 4596 4603 
479 513 182 512 4601 4597 4266 4592 4603 4594 
480 182 513 183 4272 4597 4602 4276 4275 4604 
513 182 216 183 4597 4598 4600 4604 4275 4605 
183 216 514 217 4605 4606 4607 4608 4609 4610 
480 514 481 183 4611 4612 4289 4276 4607 4282 
183 216 513 514 4605 4600 4604 4607 4606 4613 
480 514 183 513 4611 4607 4276 4602 4613 4604 
481 183 514 184 4282 4607 4612 4286 4285 4614 
514 183 217 184 4607 4608 4610 4614 4285 4615 
184 217 515 218 4615 4616 4617 4618 4619 4620 
481 515 482 184 4621 4622 4299 4286 4617 4292 
184 217 514 515 4615 4610 4614 4617 4616 4623 
481 515 184 514 4621 4617 4286 4612 4623 4614 
482 184 515 185 4292 4617 4622 4296 4295 4624 
515 184 218 185 4617 4618 4620 4624 4295 4625 
185 218 516 219 4625 4626 4627 4628 4629 4630 
482 516 483 185 4631 4632 4309 4296 4627 4302 
185 218 515 516 4625 4620 4624 4627 4626 4633 
482 516 185 515 4631 4627 4296 4622 4633 4624 
483 185 516 186 4302 4627 4632 4306 4305 4634 
516 185 219 186 4627 4628 4630 4634 4305 4635 
186 219 517 220 4635 4636 4637 4638 4639 4640 
483 517 484 186 4641 4642 4319 4306 4637 4312 
186 219 516 517 4635 4630 4634 4637 4636 4643 
483 517 186 516 4641 4637 4306 4632 4643 4634 
484 186 517 187 4312 4637 4642 4316 4315 4644 
517 186 220 187 4637 4638 4640 4644 4315 4645 
187 220 518 221 4645 4646 4647 4648 4649 4650 
484 518 485 187 4651 4652 4329 4316 4647 4322 
187 220 517 518 4645 4640 4644 4647 4646 4653 
484 518 187 517 4651 4647 4316 4642 4653 4644 
485 187 518 188 4322 4647 4652 4326 4325 4654 
518 187 221 188 4647 4648 4650 4654 4325 4655 
188 221 519 222 4655 4656 4657 4658 4659 4660 
485 519 486 188 4661 4662 4339 4326 4657 4332 
188 221 518 519 4655 4650 4654 4657 4656 4663 
485 519 188 518 4661 4657 4326 4652 4663 4654 
486 188 519 189 4332 4657 4662 4336 4335 4664 
519 188 222 189 4657 4658 4660 4664 4335 4665 
189 222 520 223 4665 4666 4667 4668 4669 4670 
486 520 487 189 4671 4672 4349 4336 4667 4342 
189 222 519 520 4665 4660 4664 4667 4666 4673 
486 520 189 519 4671 4667 4336 4662 4673 4664 
487 189 520 190 4342 4667 4672 4346 4345 4674 
520 189 223 190 4667 4668 4670 4674 4345 4675 
190 223 521 224 4675 4676 4677 4678 4679 4680 
487 521 488 190 4681 4682 4359 4346 4677 4352 
190 223 520 521 4675 4670 4674 4677 4676 4683 
487 521 190 520 4681 4677 4346 4672 4683 4674 
488 190 521 191 4352 4677 4682 4356 4355 4684 
521 190 224 191 4677 4678 4680 4684 4355 4685 
191 224 522 225 4685 4686 4687 4688 4689 4690 
488 522 489 191 4691 4692 4369 4356 4687 4362 
191 224 521 522 4685 4680 4684 4687 4686 4693 
488 522 191 521 4691 4687 4356 4682 4693 4684 
489 191 522 192 4362 4687 4692 4366 4365 4694 
522 191 225 192 4687 4688 4690 4694 4365 4695 
192 225 523 226 4695 4696 4697 4698 4699 4700 
489 523 490 192 4701 4702 4379 4366 4697 4372 
192 225 522 523 4695 4690 4694 4697 4696 4703 
489 523 192 522 4701 4697 4366 4692 4703 4694 
490 192 523 193 4372 4697 4702 4376 4375 4704 
523 192 226 193 4697 4698 4700 4704 4375 4705 
193 226 524 227 4705 4706 4707 4708 4709 4710 
490 524 491 193 4711 4712 4389 4376 4707 4382 
193 226 523 524 4705 4700 4704 4707 4706 4713 
490 524 193 523 4711 4707 4376 4702 4713 4704 
491 193 524 194 4382 4707 4712 4386 4385 4714 
524 193 227 194 4707 4708 4710 4714 4385 4715 
194 227 525 228 4715 4716 4717 4718 4719 4720 
491 525 492 194 4721 4722 4399 4386 4717 4392 
194 227 524 525 4715 4710 4714 4717 4716 4723 
491 525 194 524 4721 4717 4386 4712 4723 4714 
492 194 525 195 4392 4717 4722 4396 4395 4724 
525 194 228 195 4717 4718 4720 4724 4395 4725 
195 228 526 229 4725 4726 4727 4728 4729 4730 
492 526 493 195 4731 4732 4409 4396 4727 4402 
195 228 525 526 4725 4720 4724 4727 4726 4733 
492 526 195 525 4731 4727 4396 4722 4733 4724 
493 195 526 196 4402 4727 4732 4406 4405 4734 
526 195 229 196 4727 4728 4730 4734 4405 4735 
196 229 527 230 4735 4736 4737 4738 4739 4740 
493 527 494 196 4741 4742 4419 4406 4737 4412 
196 229 526 527 4735 4730 4734 4737 4736 4743 
493 527 196 526 4741 4737 4406 4732 4743 4734 
494 196 527 197 4412 4737 4742 4416 4415 4744 
527 196 230 197 4737 4738 4740 4744 4415 4745 
198 231 529 232 4746 4747 4748 4749 4750 4751 
495 529 496 198 4752 4753 4432 4430 4748 4423 
198 231 528 529 4746 4754 4755 4748 4747 4756 
495 529 198 528 4752 4748 4430 4757 4756 4755 
496 198 529 199 4423 4748 4753 4427 4426 4758 
529 198 232 199 4748 4749 4751 4758 4426 4759 
199 232 530 233 4759 4760 4761 4762 4763 4764 
496 530 497 199 4765 4766 4443 4427 4761 4436 
199 232 529 530 4759 4751 4758 4761 4760 4767 
496 530 199 529 4765 4761 4427 4753 4767 4758 
497 199 530 200 4436 4761 4766 4440 4439 4768 
530 199 233 200 4761 4762 4764 4768 4439 4769 
200 233 531 234 4769 4770 4771 4772 4773 4774 
497 531 498 200 4775 4776 4453 4440 4771 4446 
200 233 530 531 4769 4764 4768 4771 4770 4777 
497 531 200 530 4775 4771 4440 4766 4777 4768 
498 200 531 201 4446 4771 4776 4450 4449 4778 
531 200 234 201 4771 4772 4774 4778 4449 4779 
201 234 532 235 4779 4780 4781 4782 4783 4784 
498 532 499 201 4785 4786 4463 4450 4781 4456 
201 234 531 532 4779 4774 4778 4781 4780 4787 
498 532 201 531 4785 4781 4450 4776 4787 4778 
499 201 532 202 4456 4781 4786 4460 4459 4788 
532 201 235 202 4781 4782 4784 4788 4459 4789 
202 235 533 236 4789 4790 4791 4792 4793 4794 
499 533 500 202 4795 4796 4473 4460 4791 4466 
202 235 532 533 4789 4784 4788 4791 4790 4797 
499 533 202 532 4795 4791 4460 4786 4797 4788 
500 202 533 203 4466 4791 4796 4470 4469 4798 
533 202 236 203 4791 4792 4794 4798 4469 4799 
203 236 534 237 4799 4800 4801 4802 4803 4804 
500 534 501 203 4805 4806 4483 4470 4801 4476 
203 236 533 534 4799 4794 4798 4801 4800 4807 
500 534 203 533 4805 4801 4470 4796 4807 4798 
501 203 534 204 4476 4801 4806 4480 4479 4808 
534 203 237 204 4801 4802 4804 4808 4479 4809 
204 237 535 238 4809 4810 4811 4812 4813 4814 
501 535 502 204 4815 4816 4493 4480 4811 4486 
204 237 534 535 4809 4804 4808 4811 4810 4817 
501 535 204 534 4815 4811 4480 4806 4817 4808 
502 204 535 205 4486 4811 4816 4490 4489 4818 
535 204 238 205 4811 4812 4814 4818 4489 4819 
205 238 536 239 4819 4820 4821 4822 4823 4824 
502 536 503 205 4825 4826 4503 4490 4821 4496 
205 238 535 536 4819 4814 4818 4821 4820 4827 
502 536 205 535 4825 4821 4490 4816 4827 4818 
503 205 536 206 4496 4821 4826 4500 4499 4828 
536 205 239 206 4821 4822 4824 4828 4499 4829 
206 239 537 240 4829 4830 4831 4832 4833 4834 
503 537 504 206 4835 4836 4513 4500 4831 4506 
206 239 536 537 4829 4824 4828 4831 4830 4837 
503 537 206 536 4835 4831 4500 4826 4837 4828 
504 206 537 207 4506 4831 4836 4510 4509 4838 
537 206 240 207 4831 4832 4834 4838 4509 4839 
207 240 538 241 4839 4840 4841 4842 4843 4844 
504 538 505 207 4845 4846 4523 4510 4841 4516 
207 240 537 538 4839 4834 4838 4841 4840 4847 
504 538 207 537 4845 4841 4510 4836 4847 4838 
505 207 538 208 4516 4841 4846 4520 4519 4848 
538 207 241 208 4841 4842 4844 4848 4519 4849 
208 241 539 242 4849 4850 4851 4852 4853 4854 
505 539 506 208 4855 4856 4533 4520 4851 4526 
208 241 538 539 4849 4844 4848 4851 4850 4857 
505 539 208 538 4855 4851 4520 4846 4857 4848 
506 208 539 209 4526 4851 4856 4530 4529 4858 
539 208 242 209 4851 4852 4854 4858 4529 4859 
209 242 540 243 4859 4860 4861 4862 4863 4864 
506 540 507 209 4865 4866 4543 4530 4861 4536 
209 242 539 540 4859 4854 4858 4861 4860 4867 
506 540 209 539 4865 4861 4530 4856 4867 4858 
507 209 540 210 4536 4861 4866 4540 4539 4868 
540 209 243 210 4861 4862 4864 4868 4539 4869 
210 243 541 244 4869 4870 4871 4872 4873 4874 
507 541 508 210 4875 4876 4553 4540 4871 4546 
210 243 540 541 4869 4864 4868 4871 4870 4877 
507 541 210 540 4875 4871 4540 4866 4877 4868 
508 210 541 211 4546 4871 4876 4550 4549 4878 
541 210 244 211 4871 4872 4874 4878 4549 4879 
211 244 542 245 4879 4880 4881 4882 4883 4884 
508 542 509 211 4885 4886 4563 4550 4881 4556 
211 244 541 542 4879 4874 4878 4881 4880 4887 
508 542 211 541 4885 4881 4550 4876 4887 4878 
509 211 542 212 4556 4881 4886 4560 4559 4888 
542 211 245 212 4881 4882 4884 4888 4559 4889 
212 245 543 246 4889 4890 4891 4892 4893 4894 
509 543 510 212 4895 4896 4573 4560 4891 4566 
212 245 542 543 4889 4884 4888 4891 4890 4897 
509 543 212 542 4895 4891 4560 4886 4897 4888 
510 212 543 213 4566 4891 4896 4570 4569 4898 
543 212 246 213 4891 4892 4894 4898 4569 4899 
213 246 544 247 4899 4900 4901 4902 4903 4904 
510 544 511 213 4905 4906 4583 4570 4901 4576 
213 246 543 544 4899 4894 4898 4901 4900 4907 
510 544 213 543 4905 4901 4570 4896 4907 4898 
511 213 544 214 4576 4901 4906 4580 4579 4908 
544 213 247 214 4901 4902 4904 4908 4579 4909 
214 247 545 248 4909 4910 4911 4912 4913 4914 
511 545 512 214 4915 4916 4593 4580 4911 4586 
214 247 544 545 4909 4904 4908 4911 4910 4917 
511 545 214 544 4915 4911 4580 4906 4917 4908 
512 214 545 215 4586 4911 4916 4590 4589 4918 
545 214 248 215 4911 4912 4914 4918 4589 4919 
215 248 546 249 4919 4920 4921 4922 4923 4924 
512 546 513 215 4925 4926 4603 4590 4921 4596 
215 248 545 546 4919 4914 4918 4921 4920 4927 
512 546 215 545 4925 4921 4590 4916 4927 4918 
513 215 546 216 4596 4921 4926 4600 4599 4928 
546 215 249 216 4921 4922 4924 4928 4599 4929 
216 249 547 250 4929 4930 4931 4932 4933 4934 
513 547 514 216 4935 4936 4613 4600 4931 4606 
216 249 546 547 4929 4924 4928 4931 4930 4937 
513 547 216 546 4935 4931 4600 4926 4937 4928 
514 216 547 217 4606 4931 4936 4610 4609 4938 
547 216 250 217 4931 4932 4934 4938 4609 4939 
217 250 548 251 4939 4940 4941 4942 4943 4944 
514 548 515 217 4945 4946 4623 4610 4941 4616 
217 250 547 548 4939 4934 4938 4941 4940 4947 
514 548 217 547 4945 4941 4610 4936 4947 4938 
515 217 548 218 4616 4941 4946 4620 4619 4948 
548 217 251 218 4941 4942 4944 4948 4619 4949 
218 251 549 252 4949 4950 4951 4952 4953 4954 
515 549 516 218 4955 4956 4633 4620 4951 4626 
218 251 548 549 4949 4944 4948 4951 4950 4957 
515 549 218 548 4955 4951 4620 4946 4957 4948 
516 218 549 219 4626 4951 4956 4630 4629 4958 
549 218 252 219 4951 4952 4954 4958 4629 4959 
219 252 550 253 4959 4960 4961 4962 4963 4964 
516 550 517 219 4965 4966 4643 4630 4961 4636 
219 252 549 550 4959 4954 4958 4961 4960 4967 
516 550 219 549 4965 4961 4630 4956 4967 4958 
517 219 550 220 4636 4961 4966 4640 4639 4968 
550 219 253 220 4961 4962 4964 4968 4639 4969 
220 253 551 254 4969 4970 4971 4972 4973 4974 
517 551 518 220 4975 4976 4653 4640 4971 4646 
220 253 550 551 4969 4964 4968 4971 4970 4977 
517 551 220 550 4975 4971 4640 4966 4977 4968 
518 220 551 221 4646 4971 4976 4650 4649 4978 
551 220 254 221 4971 4972 4974 4978 4649 4979 
221 254 552 255 4979 4980 4981 4982 4983 4984 
518 552 519 221 4985 4986 4663 4650 4981 4656 
221 254 551 552 4979 4974 4978 4981 4980 4987 
518 552 221 551 4985 4981 4650 4976 4987 4978 
519 221 552 222 4656 4981 4986 4660 4659 4988 
552 221 255 222 4981 4982 4984 4988 4659 4989 
222 255 553 256 4989 4990 4991 4992 4993 4994 
519 553 520 222 4995 4996 4673 4660 4991 4666 
222 255 552 553 4989 4984 4988 4991 4990 4997 
519 553 222 552 4995 4991 4660 4986 4997 4988 
520 222 553 223 4666 4991 4996 4670 4669 4998 
553 222 256 223 4991 4992 4994 4998 4669 4999 
223 256 554 257 4999 5000 5001 5002 5003 5004 
520 554 521 223 5005 5006 4683 4670 5001 4676 
223 256 553 554 4999 4994 4998 5001 5000 5007 
520 554 223 553 5005 5001 4670 4996 5007 4998 
521 223 554 224 4676 5001 5006 4680 4679 5008 
554 223 257 224 5001 5002 5004 5008 4679 5009 
224 257 555 258 5009 5010 5011 5012 5013 5014 
521 555 522 224 5015 5016 4693 4680 5011 4686 
224 257 554 555 5009 5004 5008 5011 5010 5017 
521 555 224 554 5015 5011 4680 5006 5017 5008 
522 224 555 225 4686 5011 5016 4690 4689 5018 
555 224 258 225 5011 5012 5014 5018 4689 5019 
225 258 556 259 5019 5020 5021 5022 5023 5024 
522 556 523 225 5025 5026 4703 4690 5021 4696 
225 258 555 556 5019 5014 5018 5021 5020 5027 
522 556 225 555 5025 5021 4690 5016 5027 5018 
523 225 556 226 4696 5021 5026 4700 4699 5028 
556 225 259 226 5021 5022 5024 5028 4699 5029 
226 259 557 260 5029 5030 5031 5032 5033 5034 
523 557 524 226 5035 5036 4713 4700 5031 4706 
226 259 556 557 5029 5024 5028 5031 5030 5037 
523 557 226 556 5035 5031 4700 5026 5037 5028 
524 226 557 227 4706 5031 5036 4710 4709 5038 
557 226 260 227 5031 5032 5034 5038 4709 5039 
227 260 558 261 5039 5040 5041 5042 5043 5044 
524 558 525 227 5045 5046 4723 4710 5041 4716 
227 260 557 558 5039 5034 5038 5041 5040 5047 
524 558 227 557 5045 5041 4710 5036 5047 5038 
525 227 558 228 4716 5041 5046 4720 4719 5048 
558 227 261 228 5041 5042 5044 5048 4719 5049 
228 261 559 262 5049 5050 5051 5052 5053 5054 
525 559 526 228 5055 5056 4733 4720 5051 4726 
228 261 558 559 5049 5044 5048 5051 5050 5057 
525 559 228 558 5055 5051 4720 5046 5057 5048 
526 228 559 229 4726 5051 5056 4730 4729 5058 
559 228 262 229 5051 5052 5054 5058 4729 5059 
229 262 560 263 5059 5060 5061 5062 5063 5064 
526 560 527 229 5065 5066 4743 4730 5061 4736 
229 262 559 560 5059 5054 5058 5061 5060 5067 
526 560 229 559 5065 5061 4730 5056 5067 5058 
527 229 560 230 4736 5061 5066 4740 4739 5068 
560 229 263 230 5061 5062 5064 5068 4739 5069 
231 264 562 265 5070 5071 5072 5073 5074 5075 
528 562 529 231 5076 5077 4756 4754 5072 4747 
231 264 561 562 5070 5078 5079 5072 5071 5080 
528 562 231 561 5076 5072 4754 5081 5080 5079 
529 231 562 232 4747 5072 5077 4751 4750 5082 
562 231 265 232 5072 5073 5075 5082 4750 5083 
232 265 563 266 5083 5084 5085 5086 5087 5088 
529 563 530 232 5089 5090 4767 4751 5085 4760 
232 265 562 563 5083 5075 5082 5085 5084 5091 
529 563 232 562 5089 5085 4751 5077 5091 5082 
530 232 563 233 4760 5085 5090 4764 4763 5092 
563 232 266 233 5085 5086 5088 5092 4763 5093 
233 266 564 267 5093 5094 5095 5096 5097 5098 
530 564 531 233 5099 5100 4777 4764 5095 4770 
233 266 563 564 5093 5088 5092 5095 5094 5101 
530 564 233 563 5099 5095 4764 5090 5101 5092 
531 233 564 234 4770 5095 5100 4774 4773 5102 
564 233 267 234 5095 5096 5098 5102 4773 5103 
234 267 565 268 5103 5104 5105 5106 5107 5108 
531 565 532 234 5109 5110 4787 4774 5105 4780 
234 267 564 565 5103 5098 5102 5105 5104 5111 
531 565 234 564 5109 5105 4774 5100 5111 5102 
532 234 565 235 4780 5105 5110 4784 4783 5112 
565 234 268 235 5105 5106 5108 5112 4783 5113 
235 268 566 269 5113 5114 5115 5116 5117 5118 
532 566 533 235 5119 5120 4797 4784 5115 4790 
235 268 565 566 5113 5108 5112 5115 5114 5121 
532 566 235 565 5119 5115 4784 5110 5121 5112 
533 235 566 236 4790 5115 5120 4794 4793 5122 
566 235 269 236 5115 5116 5118 5122 4793 5123 
236 269 567 270 5123 5124 5125 5126 5127 5128 
533 567 534 236 5129 5130 4807 4794 5125 4800 
236 269 566 567 5123 5118 5122 5125 5124 5131 
533 567 236 566 5129 5125 4794 5120 5131 5122 
534 236 567 237 4800 5125 5130 4804 4803 5132 
567 236 270 237 5125 5126 5128 5132 4803 5133 
237 270 568 271 5133 5134 5135 5136 5137 5138 
534 568 535 237 5139 5140 4817 4804 5135 4810 
237 270 567 568 5133 5128 5132 5135 5134 5141 
534 568 237 567 5139 5135 4804 5130 5141 5132 
535 237 568 238 4810 5135 5140 4814 4813 5142 
568 237 271 238 5135 5136 5138 5142 4813 5143 
238 271 569 272 5143 5144 5145 5146 5147 5148 
535 569 536 238 5149 5150 4827 4814 5145 4820 
238 271 568 569 5143 5138 5142 5145 5144 5151 
535 569 238 568 5149 5145 4814 5140 5151 5142 
536 238 569 239 4820 5145 5150 4824 4823 5152 
569 238 272 239 5145 5146 5148 5152 4823 5153 
239 272 570 273 5153 5154 5155 5156 5157 5158 
536 570 537 239 5159 5160 4837 4824 5155 4830 
239 272 569 570 5153 5148 5152 5155 5154 5161 
536 570 239 569 5159 5155 4824 5150 5161 5152 
537 239 570 240 4830 5155 5160 4834 4833 5162 
570 239 273 240 5155 5156 5158 5162 4833 5163 
240 273 571 274 5163 5164 5165 5166 5167 5168 
537 571 538 240 5169 5170 4847 4834 5165 4840 
240 273 570 571 5163 5158 5162 5165 5164 5171 
537 571 240 570 5169 5165 4834 5160 5171 5162 
538 240 571 241 4840 5165 5170 4844 4843 5172 
571 240 274 241 5165 5166 5168 5172 4843 5173 
241 274 572 275 5173 5174 5175 5176 5177 5178 
538 572 539 241 5179 5180 4857 4844 5175 4850 
241 274 571 572 5173 5168 5172 5175 5174 5181 
538 572 241 571 5179 5175 4844 5170 5181 5172 
539 241 572 242 4850 5175 5180 4854 4853 5182 
572 241 275 242 5175 5176 5178 5182 4853 5183 
242 275 573 276 5183 5184 5185 5186 5187 5188 
539 573 540 242 5189 5190 4867 4854 5185 4860 
242 275 572 573 5183 5178 5182 5185 5184 5191 
539 573 242 572 5189 5185 4854 5180 5191 5182 
540 242 573 243 4860 5185 5190 4864 4863 5192 
573 242 276 243 5185 5186 5188 5192 4863 5193 
243 276 574 277 5193 5194 5195 5196 5197 5198 
540 574 541 243 5199 5200 4877 4864 5195 4870 
243 276 573 574 5193 5188 5192 5195 5194 5201 
540 574 243 573 5199 5195 4864 5190 5201 5192 
541 243 574 244 4870 5195 5200 4874 4873 5202 
574 243 277 244 5195 5196 5198 5202 4873 5203 
244 277 575 278 5203 5204 5205 5206 5207 5208 
541 575 542 244 5209 5210 4887 4874 5205 4880 
244 277 574 575 5203 5198 5202 5205 5204 5211 
541 575 244 574 5209 5205 4874 5200 5211 5202 
542 244 575 245 4880 5205 5210 4884 4883 5212 
575 244 278 245 5205 5206 5208 5212 4883 5213 
245 278 576 279 5213 5214 5215 5216 5217 5218 
542 576 543 245 5219 5220 4897 4884 5215 4890 
245 278 575 576 5213 5208 5212 5215 5214 5221 
542 576 245 575 5219 5215 4884 5210 5221 5212 
543 245 576 246 4890 5215 5220 4894 4893 5222 
576 245 279 246 5215 5216 5218 5222 4893 5223 
246 279 577 280 5223 5224 5225 5226 5227 5228 
543 577 544 246 5229 5230 4907 4894 5225 4900 
246 279 576 577 5223 5218 5222 5225 5224 5231 
543 577 246 576 5229 5225 4894 5220 5231 5222 
544 246 577 247 4900 5225 5230 4904 4903 5232 
577 246 280 247 5225 5226 5228 5232 4903 5233 
247 280 578 281 5233 5234 5235 5236 5237 5238 
544 578 545 247 5239 5240 4917 4904 5235 4910 
247 280 577 578 5233 5228 5232 5235 5234 5241 
544 578 247 577 5239 5235 4904 5230 5241 5232 
545 247 578 248 4910 5235 5240 4914 4913 5242 
578 247 281 248 5235 5236 5238 5242 4913 5243 
248 281 579 282 5243 5244 5245 5246 5247 5248 
545 579 546 248 5249 5250 4927 4914 5245 4920 
248 281 578 579 5243 5238 5242 5245 5244 5251 
545 579 248 578 5249 5245 4914 5240 5251 5242 
546 248 579 249 4920 5245 5250 4924 4923 5252 
579 248 282 249 5245 5246 5248 5252 4923 5253 
249 282 580 283 5253 5254 5255 5256 5257 5258 
546 580 547 249 5259 5260 4937 4924 5255 4930 
249 282 579 580 5253 5248 5252 5255 5254 5261 
546 580 249 579 5259 5255 4924 5250 5261 5252 
547 249 580 250 4930 5255 5260 4934 4933 5262 
580 249 283 250 5255 5256 5258 5262 4933 5263 
250 283 581 284 5263 5264 5265 5266 5267 5268 
547 581 548 250 5269 5270 4947 4934 5265 4940 
250 283 580 581 5263 5258 5262 5265 5264 5271 
547 581 250 580 5269 5265 4934 5260 5271 5262 
548 250 581 251 4940 5265 5270 4944 4943 5272 
581 250 284 251 5265 5266 5268 5272 4943 5273 
251 284 582 285 5273 5274 5275 5276 5277 5278 
548 582 549 251 5279 5280 4957 4944 5275 4950 
251 284 581 582 5273 5268 5272 5275 5274 5281 
548 582 251 581 5279 5275 4944 5270 5281 5272 
549 251 582 252 4950 5275 5280 4954 4953 5282 
582 251 285 252 5275 5276 5278 5282 4953 5283 
252 285 583 286 5283 5284 5285 5286 5287 5288 
549 583 550 252 5289 5290 4967 4954 5285 4960 
252 285 582 583 5283 5278 5282 5285 5284 5291 
549 583 252 582 5289 5285 4954 5280 5291 5282 
550 252 583 253 4960 5285 5290 4964 4963 5292 
583 252 286 253 5285 5286 5288 5292 4963 5293 
253 286 584 287 5293 5294 5295 5296 5297 5298 
550 584 551 253 5299 5300 4977 4964 5295 4970 
253 286 583 584 5293 5288 5292 5295 5294 5301 
550 584 253 583 5299 5295 4964 5290 5301 5292 
551 253 584 254 4970 5295 5300 4974 4973 5302 
584 253 287 254 5295 5296 5298 5302 4973 5303 
254 287 585 288 5303 5304 5305 5306 5307 5308 
551 585 552 254 5309 5310 4987 4974 5305 4980 
254 287 584 585 5303 5298 5302 5305 5304 5311 
551 585 254 584 5309 5305 4974 5300 5311 5302 
552 254 585 255 4980 5305 5310 4984 4983 5312 
585 254 288 255 5305 5306 5308 5312 4983 5313 
255 288 586 289 5313 5314 5315 5316 5317 5318 
552 586 553 255 5319 5320 4997 4984 5315 4990 
255 288 585 586 5313 5308 5312 5315 5314 5321 
552 586 255 585 5319 5315 4984 5310 5321 5312 
553 255 586 256 4990 5315 5320 4994 4993 5322 
586 255 289 256 5315 5316 5318 5322 4993 5323 
256 289 587 290 5323 5324 5325 5326 5327 5328 
553 587 554 256 5329 5330 5007 4994 5325 5000 
256 289 586 587 5323 5318 5322 5325 5324 5331 
553 587 256 586 5329 5325 4994 5320 5331 5322 
554 256 587 257 5000 5325 5330 5004 5003 5332 
587 256 290 257 5325 5326 5328 5332 5003 5333 
257 290 588 291 5333 5334 5335 5336 5337 5338 
554 588 555 257 5339 5340 5017 5004 5335 5010 
257 290 587 588 5333 5328 5332 5335 5334 5341 
554 588 257 587 5339 5335 5004 5330 5341 5332 
555 257 588 258 5010 5335 5340 5014 5013 5342 
588 257 291 258 5335 5336 5338 5342 5013 5343 
258 291 589 292 5343 5344 5345 5346 5347 5348 
555 589 556 258 5349 5350 5027 5014 5345 5020 
258 291 588 589 5343 5338 5342 5345 5344 5351 
555 589 258 588 5349 5345 5014 5340 5351 5342 
556 258 589 259 5020 5345 5350 5024 5023 5352 
589 258 292 259 5345 5346 5348 5352 5023 5353 
259 292 590 293 5353 5354 5355 5356 5357 5358 
556 590 557 259 5359 5360 5037 5024 5355 5030 
259 292 589 590 5353 5348 5352 5355 5354 5361 
556 590 259 589 5359 5355 5024 5350 5361 5352 
557 259 590 260 5030 5355 5360 5034 5033 5362 
590 259 293 260 5355 5356 5358 5362 5033 5363 
260 293 591 294 5363 5364 5365 5366 5367 5368 
557 591 558 260 5369 5370 5047 5034 5365 5040 
260 293 590 591 5363 5358 5362 5365 5364 5371 
557 591 260 590 5369 5365 5034 5360 5371 5362 
558 260 591 261 5040 5365 5370 5044 5043 5372 
591 260 294 261 5365 5366 5368 5372 5043 5373 
261 294 592 295 5373 5374 5375 5376 5377 5378 
558 592 559 261 5379 5380 5057 5044 5375 5050 
261 294 591 592 5373 5368 5372 5375 5374 5381 
558 592 261 591 5379 5375 5044 5370 5381 5372 
559 261 592 262 5050 5375 5380 5054 5053 5382 
592 261 295 262 5375 5376 5378 5382 5053 5383 
262 295 593 296 5383 5384 5385 5386 5387 5388 
559 593 560 262 5389 5390 5067 5054 5385 5060 
262 295 592 593 5383 5378 5382 5385 5384 5391 
559 593 262 592 5389 5385 5054 5380 5391 5382 
560 262 593 263 5060 5385 5390 5064 5063 5392 
593 262 296 263 5385 5386 5388 5392 5063 5393 
297 330 628 331 2687 5394 5395 2679 2686 5396 
594 628 595 297 5397 5398 5399 5400 5395 5401 
297 330 627 628 2687 5402 5403 5395 5394 5404 
594 628 297 627 5397 5395 5400 5405 5404 5403 
595 297 628 298 5401 5395 5398 5406 2681 5407 
628 297 331 298 5395 2679 5396 5407 2681 2680 
298 331 629 332 2680 5408 5409 2697 2701 5410 
595 629 596 298 5411 5412 5413 5406 5409 5414 
298 331 628 629 2680 5396 5407 5409 5408 5415 
595 629 298 628 5411 5409 5406 5398 5415 5407 
596 298 629 299 5414 5409 5412 5416 2699 5417 
629 298 332 299 5409 2697 5410 5417 2699 2698 
299 332 630 333 2698 5418 5419 2711 2715 5420 
596 630 597 299 5421 5422 5423 5416 5419 5424 
299 332 629 630 2698 5410 5417 5419 5418 5425 
596 630 299 629 5421 5419 5416 5412 5425 5417 
597 299 630 300 5424 5419 5422 5426 2713 5427 
630 299 333 300 5419 2711 5420 5427 2713 2712 
300 333 631 334 2712 5428 5429 2725 2729 5430 
597 631 598 300 5431 5432 5433 5426 5429 5434 
300 333 630 631 2712 5420 5427 5429 5428 5435 
597 631 300 630 5431 5429 5426 5422 5435 5427 
598 300 631 301 5434 5429 5432 5436 2727 5437 
631 300 334 301 5429 2725 5430 5437 2727 2726 
301 334 632 335 2726 5438 5439 2739 2743 5440 
598 632 599 301 5441 5442 5443 5436 5439 5444 
301 334 631 632 2726 5430 5437 5439 5438 5445 
598 632 301 631 5441 5439 5436 5432 5445 5437 
599 301 632 302 5444 5439 5442 5446 2741 5447 
632 301 335 302 5439 2739 5440 5447 2741 2740 
302 335 633 336 2740 5448 5449 2753 2757 5450 
599 633 600 302 5451 5452 5453 5446 5449 5454 
302 335 632 633 2740 5440 5447 5449 5448 5455 
599 633 302 632 5451 5449 5446 5442 5455 5447 
600 302 633 303 5454 5449 5452 5456 2755 5457 
633 302 336 303 5449 2753 5450 5457 2755 2754 
303 336 634 337 2754 5458 5459 2767 2771 5460 
600 634 601 303 5461 5462 5463 5456 5459 5464 
303 336 633 634 2754 5450 5457 5459 5458 5465 
600 634 303 633 5461 5459 5456 5452 5465 5457 
601 303 634 304 5464 5459 5462 5466 2769 5467 
634 303 337 304 5459 2767 5460 5467 2769 2768 
304 337 635 338 2768 5468 5469 2781 2785 5470 
601 635 602 304 5471 5472 5473 5466 5469 5474 
304 337 634 635 2768 5460 5467 5469 5468 5475 
601 635 304 634 5471 5469 5466 5462 5475 5467 
602 304 635 305 5474 5469 5472 5476 2783 5477 
635 304 338 305 5469 2781 5470 5477 2783 2782 
305 338 636 339 2782 5478 5479 2795 2799 5480 
602 636 603 305 5481 5482 5483 5476 5479 5484 
305 338 635 636 2782 5470 5477 5479 5478 5485 
602 636 305 635 5481 5479 5476 5472 5485 5477 
603 305 636 306 5484 5479 5482 5486 2797 5487 
636 305 339 306 5479 2795 5480 5487 2797 2796 
306 339 637 340 2796 5488 5489 2809 2813 5490 
603 637 604 306 5491 5492 5493 5486 5489 5494 
306 339 636 637 2796 5480 5487 5489 5488 5495 
603 637 306 636 5491 5489 5486 5482 5495 5487 
604 306 637 307 5494 5489 5492 5496 2811 5497 
637 306 340 307 5489 2809 5490 5497 2811 2810 
307 340 638 341 2810 5498 5499 2823 2827 5500 
604 638 605 307 5501 5502 5503 5496 5499 5504 
307 340 637 638 2810 5490 5497 5499 5498 5505 
604 638 307 637 5501 5499 5496 5492 5505 5497 
605 307 638 308 5504 5499 5502 5506 2825 5507 
638 307 341 308 5499 2823 5500 5507 2825 2824 
308 341 639 342 2824 5508 5509 2837 2841 5510 
605 639 606 308 5511 5512 5513 5506 5509 5514 
308 341 638 639 2824 5500 5507 5509 5508 5515 
605 639 308 638 5511 5509 5506 5502 5515 5507 
606 308 639 309 5514 5509 5512 5516 2839 5517 
639 308 342 309 5509 2837 5510 5517 2839 2838 
309 342 640 343 2838 5518 5519 2851 2855 5520 
606 640 607 309 5521 5522 5523 5516 5519 5524 
309 342 639 640 2838 5510 5517 5519 5518 5525 
606 640 309 639 5521 5519 5516 5512 5525 5517 
607 309 640 310 5524 5519 5522 5526 2853 5527 
640 309 343 310 5519 2851 5520 5527 2853 2852 
310 343 641 344 2852 5528 5529 2865 2869 5530 
607 641 608 310 5531 5532 5533 5526 5529 5534 
310 343 640 641 2852 5520 5527 5529 5528 5535 
607 641 310 640 5531 5529 5526 5522 5535 5527 
608 310 641 311 5534 5529 5532 5536 2867 5537 
641 310 344 311 5529 2865 5530 5537 2867 2866 
311 344 642 345 2866 5538 5539 2879 2883 5540 
608 642 609 311 5541 5542 5543 5536 5539 5544 
311 344 641 642 2866 5530 5537 5539 5538 5545 
608 642 311 641 5541 5539 5536 5532 5545 5537 
609 311 642 312 5544 5539 5542 5546 2881 5547 
642 311 345 312 5539 2879 5540 5547 2881 2880 
312 345 643 346 2880 5548 5549 2893 2897 5550 
609 643 610 312 5551 5552 5553 5546 5549 5554 
312 345 642 643 2880 5540 5547 5549 5548 5555 
609 643 312 642 5551 5549 5546 5542 5555 5547 
610 312 643 313 5554 5549 5552 5556 2895 5557 
643 312 346 313 5549 2893 5550 5557 2895 2894 
313 346 644 347 2894 5558 5559 2907 2911 5560 
610 644 611 313 5561 5562 5563 5556 5559 5564 
313 346 643 644 2894 5550 5557 5559 5558 5565 
610 644 313 643 5561 5559 5556 5552 5565 5557 
611 313 644 314 5564 5559 5562 5566 2909 5567 
644 313 347 314 5559 2907 5560 5567 2909 2908 
314 347 645 348 2908 5568 5569 2921 2925 5570 
611 645 612 314 5571 5572 5573 5566 5569 5574 
314 347 644 645 2908 5560 5567 5569 5568 5575 
611 645 314 644 5571 5569 5566 5562 5575 5567 
612 314 645 315 5574 5569 5572 5576 2923 5577 
645 314 348 315 5569 2921 5570 5577 2923 2922 
315 348 646 349 2922 5578 5579 2935 2939 5580 
612 646 613 315 5581 5582 5583 5576 5579 5584 
315 348 645 646 2922 5570 5577 5579 5578 5585 
612 646 315 645 5581 5579 5576 5572 5585 5577 
613 315 646 316 5584 5579 5582 5586 2937 5587 
646 315 349 316 5579 2935 5580 5587 2937 2936 
316 349 647 350 2936 5588 5589 2949 2953 5590 
613 647 614 316 5591 5592 5593 5586 5589 5594 
316 349 646 647 2936 5580 5587 5589 5588 5595 
613 647 316 646 5591 5589 5586 5582 5595 5587 
614 316 647 317 5594 5589 5592 5596 2951 5597 
647 316 350 317 5589 2949 5590 5597 2951 2950 
317 350 648 351 2950 5598 5599 2963 2967 5600 
614 648 615 317 5601 5602 5603 5596 5599 5604 
317 350 647 648 2950 5590 5597 5599 5598 5605 
614 648 317 647 5601 5599 5596 5592 5605 5597 
615 317 648 318 5604 5599 5602 5606 2965 5607 
648 317 351 318 5599 2963 5600 5607 2965 2964 
318 351 649 352 2964 5608 5609 2977 2981 5610 
615 649 616 318 5611 5612 5613 5606 5609 5614 
318 351 648 649 2964 5600 5607 5609 5608 5615 
615 649 318 648 5611 5609 5606 5602 5615 5607 
616 318 649 319 5614 5609 5612 5616 2979 5617 
649 318 352 319 5609 2977 5610 5617 2979 2978 
319 352 650 353 2978 5618 5619 2991 2995 5620 
616 650 617 319 5621 5622 5623 5616 5619 5624 
319 352 649 650 2978 5610 5617 5619 5618 5625 
616 650 319 649 5621 5619 5616 5612 5625 5617 
617 319 650 320 5624 5619 5622 5626 2993 5627 
650 319 353 320 5619 2991 5620 5627 2993 2992 
320 353 651 354 2992 5628 5629 3005 3009 5630 
617 651 618 320 5631 5632 5633 5626 5629 5634 
320 353 650 651 2992 5620 5627 5629 5628 5635 
617 651 320 650 5631 5629 5626 5622 5635 5627 
618 320 651 321 5634 5629 5632 5636 3007 5637 
651 320 354 321 5629 3005 5630 5637 3007 3006 
321 354 652 355 3006 5638 5639 3019 3023 5640 
618 652 619 321 5641 5642 5643 5636 5639 5644 
321 354 651 652 3006 5630 5637 5639 5638 5645 
618 652 321 651 5641 5639 5636 5632 5645 5637 
619 321 652 322 5644 5639 5642 5646 3021 5647 
652 321 355 322 5639 3019 5640 5647 3021 3020 
322 355 653 356 3020 5648 5649 3033 3037 5650 
619 653 620 322 5651 5652 5653 5646 5649 5654 
322 355 652 653 3020 5640 5647 5649 5648 5655 
619 653 322 652 5651 5649 5646 5642 5655 5647 
620 322 653 323 5654 5649 5652 5656 3035 5657 
653 322 356 323 5649 3033 5650 5657 3035 3034 
323 356 654 357 3034 5658 5659 3047 3051 5660 
620 654 621 323 5661 5662 5663 5656 5659 5664 
323 356 653 654 3034 5650 5657 5659 5658 5665 
620 654 323 653 5661 5659 5656 5652 5665 5657 
621 323 654 324 5664 5659 5662 5666 3049 5667 
654 323 357 324 5659 3047 5660 5667 3049 3048 
324 357 655 358 3048 5668 5669 3061 3065 5670 
621 655 622 324 5671 5672 5673 5666 5669 5674 
324 357 654 655 3048 5660 5667 5669 5668 5675 
621 655 324 654 5671 5669 5666 5662 5675 5667 
622 324 655 325 5674 5669 5672 5676 3063 5677 
655 324 358 325 5669 3061 5670 5677 3063 3062 
325 358 656 359 3062 5678 5679 3075 3079 5680 
622 656 623 325 5681 5682 5683 5676 5679 5684 
325 358 655 656 3062 5670 5677 5679 5678 5685 
622 656 325 655 5681 5679 5676 5672 5685 5677 
623 325 656 326 5684 5679 5682 5686 3077 5687 
656 325 359 326 5679 3075 5680 5687 3077 3076 
326 359 657 360 3076 5688 5689 3089 3093 5690 
623 657 624 326 5691 5692 5693 5686 5689 5694 
326 359 656 657 3076 5680 5687 5689 5688 5695 
623 657 326 656 5691 5689 5686 5682 5695 5687 
624 326 657 327 5694 5689 5692 5696 3091 5697 
657 326 360 327 5689 3089 5690 5697 3091 3090 
327 360 658 361 3090 5698 5699 3103 3107 5700 
624 658 625 327 5701 5702 5703 5696 5699 5704 
327 360 657 658 3090 5690 5697 5699 5698 5705 
624 658 327 657 5701 5699 5696 5692 5705 5697 
625 327 658 328 5704 5699 5702 5706 3105 5707 
658 327 361 328 5699 3103 5700 5707 3105 3104 
328 361 659 362 3104 5708 5709 3117 3121 5710 
625 659 626 328 5711 5712 5713 5706 5709 5714 
328 361 658 659 3104 5700 5707 5709 5708 5715 
625 659 328 658 5711 5709 5706 5702 5715 5707 
626 328 659 329 5714 5709 5712 5716 3119 5717 
659 328 362 329 5709 3117 5710 5717 3119 3118 
330 363 661 364 3137 5718 5719 3132 3136 5720 
627 661 628 330 5721 5722 5404 5402 5719 5394 
330 363 660 661 3137 5723 5724 5719 5718 5725 
627 661 330 660 5721 5719 5402 5726 5725 5724 
628 330 661 331 5394 5719 5722 5396 2686 5727 
661 330 364 331 5719 3132 5720 5727 2686 3133 
331 364 662 365 3133 5728 5729 3145 3147 5730 
628 662 629 331 5731 5732 5415 5396 5729 5408 
331 364 661 662 3133 5720 5727 5729 5728 5733 
628 662 331 661 5731 5729 5396 5722 5733 5727 
629 331 662 332 5408 5729 5732 5410 2701 5734 
662 331 365 332 5729 3145 5730 5734 2701 3146 
332 365 663 366 3146 5735 5736 3155 3157 5737 
629 663 630 332 5738 5739 5425 5410 5736 5418 
332 365 662 663 3146 5730 5734 5736 5735 5740 
629 663 332 662 5738 5736 5410 5732 5740 5734 
630 332 663 333 5418 5736 5739 5420 2715 5741 
663 332 366 333 5736 3155 5737 5741 2715 3156 
333 366 664 367 3156 5742 5743 3165 3167 5744 
630 664 631 333 5745 5746 5435 5420 5743 5428 
333 366 663 664 3156 5737 5741 5743 5742 5747 
630 664 333 663 5745 5743 5420 5739 5747 5741 
631 333 664 334 5428 5743 5746 5430 2729 5748 
664 333 367 334 5743 3165 5744 5748 2729 3166 
334 367 665 368 3166 5749 5750 3175 3177 5751 
631 665 632 334 5752 5753 5445 5430 5750 5438 
334 367 664 665 3166 5744 5748 5750 5749 5754 
631 665 334 664 5752 5750 5430 5746 5754 5748 
632 334 665 335 5438 5750 5753 5440 2743 5755 
665 334 368 335 5750 3175 5751 5755 2743 3176 
335 368 666 369 3176 5756 5757 3185 3187 5758 
632 666 633 335 5759 5760 5455 5440 5757 5448 
335 368 665 666 3176 5751 5755 5757 5756 5761 
632 666 335 665 5759 5757 5440 5753 5761 5755 
633 335 666 336 5448 5757 5760 5450 2757 5762 
666 335 369 336 5757 3185 5758 5762 2757 3186 
336 369 667 370 3186 5763 5764 3195 3197 5765 
633 667 634 336 5766 5767 5465 5450 5764 5458 
336 369 666 667 3186 5758 5762 5764 5763 5768 
633 667 336 666 5766 5764 5450 5760 5768 5762 
634 336 667 337 5458 5764 5767 5460 2771 5769 
667 336 370 337 5764 3195 5765 5769 2771 3196 
337 370 668 371 3196 5770 5771 3205 3207 5772 
634 668 635 337 5773 5774 5475 5460 5771 5468 
337 370 667 668 3196 5765 5769 5771 5770 5775 
634 668 337 667 5773 5771 5460 5767 5775 5769 
635 337 668 338 5468 5771 5774 5470 2785 5776 
668 337 371 338 5771 3205 5772 5776 2785 3206 
338 371 669 372 3206 5777 5778 3215 3217 5779 
635 669 636 338 5780 5781 5485 5470 5778 5478 
338 371 668 669 3206 5772 5776 5778 5777 5782 
635 669 338 668 5780 5778 5470 5774 5782 5776 
636 338 669 339 5478 5778 5781 5480 2799 5783 
669 338 372 339 5778 3215 5779 5783 2799 3216 
339 372 670 373 3216 5784 5785 3225 3227 5786 
636 670 637 339 5787 5788 5495 5480 5785 5488 
339 372 669 670 3216 5779 5783 5785 5784 5789 
636 670 339 669 5787 5785 5480 5781 5789 5783 
637 339 670 340 5488 5785 5788 5490 2813 5790 
670 339 373 340 5785 3225 5786 5790 2813 3226 
340 373 671 374 3226 5791 5792 3235 3237 5793 
637 671 638 340 5794 5795 5505 5490 5792 5498 
340 373 670 671 3226 5786 5790 5792 5791 5796 
637 671 340 670 5794 5792 5490 5788 5796 5790 
638 340 671 341 5498 5792 5795 5500 2827 5797 
671 340 374 341 5792 3235 5793 5797 2827 3236 
341 374 672 375 3236 5798 5799 3245 3247 5800 
638 672 639 341 5801 5802 5515 5500 5799 5508 
341 374 671 672 3236 5793 5797 5799 5798 5803 
638 672 341 671 5801 5799 5500 5795 5803 5797 
639 341 672 342 5508 5799 5802 5510 2841 5804 
672 341 375 342 5799 3245 5800 5804 2841 3246 
342 375 673 376 3246 5805 5806 3255 3257 5807 
639 673 640 342 5808 5809 5525 5510 5806 5518 
342 375 672 673 3246 5800 5804 5806 5805 5810 
639 673 342 672 5808 5806 5510 5802 5810 5804 
640 342 673 343 5518 5806 5809 5520 2855 5811 
673 342 376 343 5806 3255 5807 5811 2855 3256 
343 376 674 377 3256 5812 5813 3265 3267 5814 
640 674 641 343 5815 5816 5535 5520 5813 5528 
343 376 673 674 3256 5807 5811 5813 5812 5817 
640 674 343 673 5815 5813 5520 5809 5817 5811 
641 343 674 344 5528 5813 5816 5530 2869 5818 
674 343 377 344 5813 3265 5814 5818 2869 3266 
344 377 675 378 3266 5819 5820 3275 3277 5821 
641 675 642 344 5822 5823 5545 5530 5820 5538 
344 377 674 675 3266 5814 5818 5820 5819 5824 
641 675 344 674 5822 5820 5530 5816 5824 5818 
642 344 675 345 5538 5820 5823 5540 2883 5825 
675 344 378 345 5820 3275 5821 5825 2883 3276 
345 378 676 379 3276 5826 5827 3285 3287 5828 
642 676 643 345 5829 5830 5555 5540 5827 5548 
345 378 675 676 3276 5821 5825 5827 5826 5831 
642 676 345 675 5829 5827 5540 5823 5831 5825 
643 345 676 346 5548 5827 5830 5550 2897 5832 
676 345 379 346 5827 3285 5828 5832 2897 3286 
346 379 677 380 3286 5833 5834 3295 3297 5835 
643 677 644 346 5836 5837 5565 5550 5834 5558 
346 379 676 677 3286 5828 5832 5834 5833 5838 
643 677 346 676 5836 5834 5550 5830 5838 5832 
644 346 677 347 5558 5834 5837 5560 2911 5839 
677 346 380 347 5834 3295 5835 5839 2911 3296 
347 380 678 381 3296 5840 5841 3305 3307 5842 
644 678 645 347 5843 5844 5575 5560 5841 5568 
347 380 677 678 3296 5835 5839 5841 5840 5845 
644 678 347 677 5843 5841 5560 5837 5845 5839 
645 347 678 348 5568 5841 5844 5570 2925 5846 
678 347 381 348 5841 3305 5842 5846 2925 3306 
348 381 679 382 3306 5847 5848 3315 3317 5849 
645 679 646 348 5850 5851 5585 5570 5848 5578 
348 381 678 679 3306 5842 5846 5848 5847 5852 
645 679 348 678 5850 5848 5570 5844 5852 5846 
646 348 679 349 5578 5848 5851 5580 2939 5853 
679 348 382 349 5848 3315 5849 5853 2939 3316 
349 382 680 383 3316 5854 5855 3325 3327 5856 
646 680 647 349 5857 5858 5595 5580 5855 5588 
349 382 679 680 3316 5849 5853 5855 5854 5859 
646 680 349 679 5857 5855 5580 5851 5859 5853 
647 349 680 350 5588 5855 5858 5590 2953 5860 
680 349 383 350 5855 3325 5856 5860 2953 3326 
350 383 681 384 3326 5861 5862 3335 3337 5863 
647 681 648 350 5864 5865 5605 5590 5862 5598 
350 383 680 681 3326 5856 5860 5862 5861 5866 
647 681 350 680 5864 5862 5590 5858 5866 5860 
648 350 681 351 5598 5862 5865 5600 2967 5867 
681 350 384 351 5862 3335 5863 5867 2967 3336 
351 384 682 385 3336 5868 5869 3345 3347 5870 
648 682 649 351 5871 5872 5615 5600 5869 5608 
351 384 681 682 3336 5863 5867 5869 5868 5873 
648 682 351 681 5871 5869 5600 5865 5873 5867 
649 351 682 352 5608 5869 5872 5610 2981 5874 
682 351 385 352 5869 3345 5870 5874 2981 3346 
352 385 683 386 3346 5875 5876 3355 3357 5877 
649 683 650 352 5878 5879 5625 5610 5876 5618 
352 385 682 683 3346 5870 5874 5876 5875 5880 
649 683 352 682 5878 5876 5610 5872 5880 5874 
650 352 683 353 5618 5876 5879 5620 2995 5881 
683 352 386 353 5876 3355 5877 5881 2995 3356 
353 386 684 387 3356 5882 5883 3365 3367 5884 
650 684 651 353 5885 5886 5635 5620 5883 5628 
353 386 683 684 3356 5877 5881 5883 5882 5887 
650 684 353 683 5885 5883 5620 5879 5887 5881 
651 353 684 354 5628 5883 5886 5630 3009 5888 
684 353 387 354 5883 3365 5884 5888 3009 3366 
354 387 685 388 3366 5889 5890 3375 3377 5891 
651 685 652 354 5892 5893 5645 5630 5890 5638 
354 387 684 685 3366 5884 5888 5890 5889 5894 
651 685 354 684 5892 5890 5630 5886 5894 5888 
652 354 685 355 5638 5890 5893 5640 3023 5895 
685 354 388 355 5890 3375 5891 5895 3023 3376 
355 388 686 389 3376 5896 5897 3385 3387 5898 
652 686 653 355 5899 5900 5655 5640 5897 5648 
355 388 685 686 3376 5891 5895 5897 5896 5901 
652 686 355 685 5899 5897 5640 5893 5901 5895 
653 355 686 356 5648 5897 5900 5650 3037 5902 
686 355 389 356 5897 3385 5898 5902 3037 3386 
356 389 687 390 3386 5903 5904 3395 3397 5905 
653 687 654 356 5906 5907 5665 5650 5904 5658 
356 389 686 687 3386 5898 5902 5904 5903 5908 
653 687 356 686 5906 5904 5650 5900 5908 5902 
654 356 687 357 5658 5904 5907 5660 3051 5909 
687 356 390 357 5904 3395 5905 5909 3051 3396 
357 390 688 391 3396 5910 5911 3405 3407 5912 
654 688 655 357 5913 5914 5675 5660 5911 5668 
357 390 687 688 3396 5905 5909 5911 5910 5915 
654 688 357 687 5913 5911 5660 5907 5915 5909 
655 357 688 358 5668 5911 5914 5670 3065 5916 
688 357 391 358 5911 3405 5912 5916 3065 3406 
358 391 689 392 3406 5917 5918 3415 3417 5919 
655 689 656 358 5920 5921 5685 5670 5918 5678 
358 391 688 689 3406 5912 5916 5918 5917 5922 
655 689 358 688 5920 5918 5670 5914 5922 5916 
656 358 689 359 5678 5918 5921 5680 3079 5923 
689 358 392 359 5918 3415 5919 5923 3079 3416 
359 392 690 393 3416 5924 5925 3425 3427 5926 
656 690 657 359 5927 5928 5695 5680 5925 5688 
359 392 689 690 3416 5919 5923 5925 5924 5929 
656 690 359 689 5927 5925 5680 5921 5929 5923 
657 359 690 360 5688 5925 5928 5690 3093 5930 
690 359 393 360 5925 3425 5926 5930 3093 3426 
360 393 691 394 3426 5931 5932 3435 3437 5933 
657 691 658 360 5934 5935 5705 5690 5932 5698 
360 393 690 691 3426 5926 5930 5932 5931 5936 
657 691 360 690 5934 5932 5690 5928 5936 5930 
658 360 691 361 5698 5932 5935 5700 3107 5937 
691 360 394 361 5932 3435 5933 5937 3107 3436 
361 394 692 395 3436 5938 5939 3445 3447 5940 
658 692 659 361 5941 5942 5715 5700 5939 5708 
361 394 691 692 3436 5933 5937 5939 5938 5943 
658 692 361 691 5941 5939 5700 5935 5943 5937 
659 361 692 362 5708 5939 5942 5710 3121 5944 
692 361 395 362 5939 3445 5940 5944 3121 3446 
363 396 694 397 3461 5945 5946 3456 3460 5947 
660 694 661 363 5948 5949 5725 5723 5946 5718 
363 396 693 694 3461 5950 5951 5946 5945 5952 
660 694 363 693 5948 5946 5723 5953 5952 5951 
661 363 694 364 5718 5946 5949 5720 3136 5954 
694 363 397 364 5946 3456 5947 5954 3136 3457 
364 397 695 398 3457 5955 5956 3469 3471 5957 
661 695 662 364 5958 5959 5733 5720 5956 5728 
364 397 694 695 3457 5947 5954 5956 5955 5960 
661 695 364 694 5958 5956 5720 5949 5960 5954 
662 364 695 365 5728 5956 5959 5730 3147 5961 
695 364 398 365 5956 3469 5957 5961 3147 3470 
365 398 696 399 3470 5962 5963 3479 3481 5964 
662 696 663 365 5965 5966 5740 5730 5963 5735 
365 398 695 696 3470 5957 5961 5963 5962 5967 
662 696 365 695 5965 5963 5730 5959 5967 5961 
663 365 696 366 5735 5963 5966 5737 3157 5968 
696 365 399 366 5963 3479 5964 5968 3157 3480 
366 399 697 400 3480 5969 5970 3489 3491 5971 
663 697 664 366 5972 5973 5747 5737 5970 5742 
366 399 696 697 3480 5964 5968 5970 5969 5974 
663 697 366 696 5972 5970 5737 5966 5974 5968 
664 366 697 367 5742 5970 5973 5744 3167 5975 
697 366 400 367 5970 3489 5971 5975 3167 3490 
367 400 698 401 3490 5976 5977 3499 3501 5978 
664 698 665 367 5979 5980 5754 5744 5977 5749 
367 400 697 698 3490 5971 5975 5977 5976 5981 
664 698 367 697 5979 5977 5744 5973 5981 5975 
665 367 698 368 5749 5977 5980 5751 3177 5982 
698 367 401 368 5977 3499 5978 5982 3177 3500 
368 401 699 402 3500 5983 5984 3509 3511 5985 
665 699 666 368 5986 5987 5761 5751 5984 5756 
368 401 698 699 3500 5978 5982 5984 5983 5988 
665 699 368 698 5986 5984 5751 5980 5988 5982 
666 368 699 369 5756 5984 5987 5758 3187 5989 
699 368 402 369 5984 3509 5985 5989 3187 3510 
369 402 700 403 3510 5990 5991 3519 3521 5992 
666 700 667 369 5993 5994 5768 5758 5991 5763 
369 402 699 700 3510 5985 5989 5991 5990 5995 
666 700 369 699 5993 5991 5758 5987 5995 5989 
667 369 700 370 5763 5991 5994 5765 3197 5996 
700 369 403 370 5991 3519 5992 5996 3197 3520 
370 403 701 404 3520 5997 5998 3529 3531 5999 
667 701 668 370 6000 6001 5775 5765 5998 5770 
370 403 700 701 3520 5992 5996 5998 5997 6002 
667 701 370 700 6000 5998 5765 5994 6002 5996 
668 370 701 371 5770 5998 6001 5772 3207 6003 
701 370 404 371 5998 3529 5999 6003 3207 3530 
371 404 702 405 3530 6004 6005 3539 3541 6006 
668 702 669 371 6007 6008 5782 5772 6005 5777 
371 404 701 702 3530 5999 6003 6005 6004 6009 
668 702 371 701 6007 6005 5772 6001 6009 6003 
669 371 702 372 5777 6005 6008 5779 3217 6010 
702 371 405 372 6005 3539 6006 6010 3217 3540 
372 405 703 406 3540 6011 6012 3549 3551 6013 
669 703 670 372 6014 6015 5789 5779 6012 5784 
372 405 702 703 3540 6006 6010 6012 6011 6016 
669 703 372 702 6014 6012 5779 6008 6016 6010 
670 372 703 373 5784 6012 6015 5786 3227 6017 
703 372 406 373 6012 3549 6013 6017 3227 3550 
373 406 704 407 3550 6018 6019 3559 3561 6020 
670 704 671 373 6021 6022 5796 5786 6019 5791 
373 406 703 704 3550 6013 6017 6019 6018 6023 
670 704 373 703 6021 6019 5786 6015 6023 6017 
671 373 704 374 5791 6019 6022 5793 3237 6024 
704 373 407 374 6019 3559 6020 6024 3237 3560 
374 407 705 408 3560 6025 6026 3569 3571 6027 
671 705 672 374 6028 6029 5803 5793 6026 5798 
374 407 704 705 3560 6020 6024 6026 6025 6030 
671 705 374 704 6028 6026 5793 6022 6030 6024 
672 374 705 375 5798 6026 6029 5800 3247 6031 
705 374 408 375 6026 3569 6027 6031 3247 3570 
375 408 706 409 3570 6032 6033 3579 3581 6034 
672 706 673 375 6035 6036 5810 5800 6033 5805 
375 408 705 706 3570 6027 6031 6033 6032 6037 
672 706 375 705 6035 6033 5800 6029 6037 6031 
673 375 706 376 5805 6033 6036 5807 3257 6038 
706 375 409 376 6033 3579 6034 6038 3257 3580 
376 409 707 410 3580 6039 6040 3589 3591 6041 
673 707 674 376 6042 6043 5817 5807 6040 5812 
376 409 706 707 3580 6034 6038 6040 6039 6044 
673 707 376 706 6042 6040 5807 6036 6044 6038 
674 376 707 377 5812 6040 6043 5814 3267 6045 
707 376 410 377 6040 3589 6041 6045 3267 3590 
377 410 708 411 3590 6046 6047 3599 3601 6048 
674 708 675 377 6049 6050 5824 5814 6047 5819 
377 410 707 708 3590 6041 6045 6047 6046 6051 
674 708 377 707 6049 6047 5814 6043 6051 6045 
675 377 708 378 5819 6047 6050 5821 3277 6052 
708 377 411 378 6047 3599 6048 6052 3277 3600 
378 411 709 412 3600 6053 6054 3609 3611 6055 
675 709 676 378 6056 6057 5831 5821 6054 5826 
378 411 708 709 3600 6048 6052 6054 6053 6058 
675 709 378 708 6056 6054 5821 6050 6058 6052 
676 378 709 379 5826 6054 6057 5828 3287 6059 
709 378 412 379 6054 3609 6055 6059 3287 3610 
379 412 710 413 3610 6060 6061 3619 3621 6062 
676 710 677 379 6063 6064 5838 5828 6061 5833 
379 412 709 710 3610 6055 6059 6061 6060 6065 
676 710 379 709 6063 6061 5828 6057 6065 6059 
677 379 710 380 5833 6061 6064 5835 3297 6066 
710 379 413 380 6061 3619 6062 6066 3297 3620 
380 413 711 414 3620 6067 6068 3629 3631 6069 
677 711 678 380 6070 6071 5845 5835 6068 5840 
380 413 710 711 3620 6062 6066 6068 6067 6072 
677 711 380 710 6070 6068 5835 6064 6072 6066 
678 380 711 381 5840 6068 6071 5842 3307 6073 
711 380 414 381 6068 3629 6069 6073 3307 3630 
381 414 712 415 3630 6074 6075 3639 3641 6076 
678 712 679 381 6077 6078 5852 5842 6075 5847 
381 414 711 712 3630 6069 6073 6075 6074 6079 
678 712 381 711 6077 6075 5842 6071 6079 6073 
679 381 712 382 5847 6075 6078 5849 3317 6080 
712 381 415 382 6075 3639 6076 6080 3317 3640 
382 415 713 416 3640 6081 6082 3649 3651 6083 
679 713 680 382 6084 6085 5859 5849 6082 5854 
382 415 712 713 3640 6076 6080 6082 6081 6086 
679 713 382 712 6084 6082 5849 6078 6086 6080 
680 382 713 383 5854 6082 6085 5856 3327 6087 
713 382 416 383 6082 3649 6083 6087 3327 3650 
383 416 714 417 3650 6088 6089 3659 3661 6090 
680 714 681 383 6091 6092 5866 5856 6089 5861 
383 416 713 714 3650 6083 6087 6089 6088 6093 
680 714 383 713 6091 6089 5856 6085 6093 6087 
681 383 714 384 5861 6089 6092 5863 3337 6094 
714 383 417 384 6089 3659 6090 6094 3337 3660 
384 417 715 418 3660 6095 6096 3669 3671 6097 
681 715 682 384 6098 6099 5873 5863 6096 5868 
384 417 714 715 3660 6090 6094 6096 6095 6100 
681 715 384 714 6098 6096 5863 6092 6100 6094 
682 384 715 385 5868 6096 6099 5870 3347 6101 
715 384 418 385 6096 3669 6097 6101 3347 3670 
385 418 716 419 3670 6102 6103 3679 3681 6104 
682 716 683 385 6105 6106 5880 5870 6103 5875 
385 418 715 716 3670 6097 6101 6103 6102 6107 
682 716 385 715 6105 6103 5870 6099 6107 6101 
683 385 716 386 5875 6103 6106 5877 3357 6108 
716 385 419 386 6103 3679 6104 6108 3357 3680 
386 419 717 420 3680 6109 6110 3689 3691 6111 
683 717 684 386 6112 6113 5887 5877 6110 5882 
386 419 716 717 3680 6104 6108 6110 6109 6114 
683 717 386 716 6112 6110 5877 6106 6114 6108 
684 386 717 387 5882 6110 6113 5884 3367 6115 
717 386 420 387 6110 3689 6111 6115 3367 3690 
387 420 718 421 3690 6116 6117 3699 3701 6118 
684 718 685 387 6119 6120 5894 5884 6117 5889 
387 420 717 718 3690 6111 6115 6117 6116 6121 
684 718 387 717 6119 6117 5884 6113 6121 6115 
685 387 718 388 5889 6117 6120 5891 3377 6122 
718 387 421 388 6117 3699 6118 6122 3377 3700 
388 421 719 422 3700 6123 6124 3709 3711 6125 
685 719 686 388 6126 6127 5901 5891 6124 5896 
388 421 718 719 3700 6118 6122 6124 6123 6128 
685 719 388 718 6126 6124 5891 6120 6128 6122 
686 388 719 389 5896 6124 6127 5898 3387 6129 
719 388 422 389 6124 3709 6125 6129 3387 3710 
389 422 720 423 3710 6130 6131 3719 3721 6132 
686 720 687 389 6133 6134 5908 5898 6131 5903 
389 422 719 720 3710 6125 6129 6131 6130 6135 
686 720 389 719 6133 6131 5898 6127 6135 6129 
687 389 720 390 5903 6131 6134 5905 3397 6136 
720 389 423 390 6131 3719 6132 6136 3397 3720 
390 423 721 424 3720 6137 6138 3729 3731 6139 
687 721 688 390 6140 6141 5915 5905 6138 5910 
390 423 720 721 3720 6132 6136 6138 6137 6142 
687 721 390 720 6140 6138 5905 6134 6142 6136 
688 390 721 391 5910 6138 6141 5912 3407 6143 
721 390 424 391 6138 3729 6139 6143 3407 3730 
391 424 722 425 3730 6144 6145 3739 3741 6146 
688 722 689 391 6147 6148 5922 5912 6145 5917 
391 424 721 722 3730 6139 6143 6145 6144 6149 
688 722 391 721 6147 6145 5912 6141 6149 6143 
689 391 722 392 5917 6145 6148 5919 3417 6150 
722 391 425 392 6145 3739 6146 6150 3417 3740 
392 425 723 426 3740 6151 6152 3749 3751 6153 
689 723 690 392 6154 6155 5929 5919 6152 5924 
392 425 722 723 3740 6146 6150 6152 6151 6156 
689 723 392 722 6154 6152 5919 6148 6156 6150 
690 392 723 393 5924 6152 6155 5926 3427 6157 
723 392 426 393 6152 3749 6153 6157 3427 3750 
393 426 724 427 3750 6158 6159 3759 3761 6160 
690 724 691 393 6161 6162 5936 5926 6159 5931 
393 426 723 724 3750 6153 6157 6159 6158 6163 
690 724 393 723 6161 6159 5926 6155 6163 6157 
691 393 724 394 5931 6159 6162 5933 3437 6164 
724 393 427 394 6159 3759 6160 6164 3437 3760 
394 427 725 428 3760 6165 6166 3769 3771 6167 
691 725 692 394 6168 6169 5943 5933 6166 5938 
394 427 724 725 3760 6160 6164 6166 6165 6170 
691 725 394 724 6168 6166 5933 6162 6170 6164 
692 394 725 395 5938 6166 6169 5940 3447 6171 
725 394 428 395 6166 3769 6167 6171 3447 3770 
396 429 727 430 3785 6172 6173 3780 3784 6174 
693 727 694 396 6175 6176 5952 5950 6173 5945 
396 429 726 727 3785 6177 6178 6173 6172 6179 
693 727 396 726 6175 6173 5950 6180 6179 6178 
694 396 727 397 5945 6173 6176 5947 3460 6181 
727 396 430 397 6173 3780 6174 6181 3460 3781 
397 430 728 431 3781 6182 6183 3793 3795 6184 
694 728 695 397 6185 6186 5960 5947 6183 5955 
397 430 727 728 3781 6174 6181 6183 6182 6187 
694 728 397 727 6185 6183 5947 6176 6187 6181 
695 397 728 398 5955 6183 6186 5957 3471 6188 
728 397 431 398 6183 3793 6184 6188 3471 3794 
398 431 729 432 3794 6189 6190 3803 3805 6191 
695 729 696 398 6192 6193 5967 5957 6190 5962 
398 431 728 729 3794 6184 6188 6190 6189 6194 
695 729 398 728 6192 6190 5957 6186 6194 6188 
696 398 729 399 5962 6190 6193 5964 3481 6195 
729 398 432 399 6190 3803 6191 6195 3481 3804 
399 432 730 433 3804 6196 6197 3813 3815 6198 
696 730 697 399 6199 6200 5974 5964 6197 5969 
399 432 729 730 3804 6191 6195 6197 6196 6201 
696 730 399 729 6199 6197 5964 6193 6201 6195 
697 399 730 400 5969 6197 6200 5971 3491 6202 
730 399 433 400 6197 3813 6198 6202 3491 3814 
400 433 731 434 3814 6203 6204 3823 3825 6205 
697 731 698 400 6206 6207 5981 5971 6204 5976 
400 433 730 731 3814 6198 6202 6204 6203 6208 
697 731 400 730 6206 6204 5971 6200 6208 6202 
698 400 731 401 5976 6204 6207 5978 3501 6209 
731 400 434 401 6204 3823 6205 6209 3501 3824 
401 434 732 435 3824 6210 6211 3833 3835 6212 
698 732 699 401 6213 6214 5988 5978 6211 5983 
401 434 731 732 3824 6205 6209 6211 6210 6215 
698 732 401 731 6213 6211 5978 6207 6215 6209 
699 401 732 402 5983 6211 6214 5985 3511 6216 
732 401 435 402 6211 3833 6212 6216 3511 3834 
402 435 733 436 3834 6217 6218 3843 3845 6219 
699 733 700 402 6220 6221 5995 5985 6218 5990 
402 435 732 733 3834 6212 6216 6218 6217 6222 
699 733 402 732 6220 6218 5985 6214 6222 6216 
700 402 733 403 5990 6218 6221 5992 3521 6223 
733 402 436 403 6218 3843 6219 6223 3521 3844 
403 436 734 437 3844 6224 6225 3853 3855 6226 
700 734 701 403 6227 6228 6002 5992 6225 5997 
403 436 733 734 3844 6219 6223 6225 6224 6229 
700 734 403 733 6227 6225 5992 6221 6229 6223 
701 403 734 404 5997 6225 6228 5999 3531 6230 
734 403 437 404 6225 3853 6226 6230 3531 3854 
404 437 735 438 3854 6231 6232 3863 3865 6233 
701 735 702 404 6234 6235 6009 5999 6232 6004 
404 437 734 735 3854 6226 6230 6232 6231 6236 
701 735 404 734 6234 6232 5999 6228 6236 6230 
702 404 735 405 6004 6232 6235 6006 3541 6237 
735 404 438 405 6232 3863 6233 6237 3541 3864 
405 438 736 439 3864 6238 6239 3873 3875 6240 
702 736 703 405 6241 6242 6016 6006 6239 6011 
405 438 735 736 3864 6233 6237 6239 6238 6243 
702 736 405 735 6241 6239 6006 6235 6243 6237 
703 405 736 406 6011 6239 6242 6013 3551 6244 
736 405 439 406 6239 3873 6240 6244 3551 3874 
406 439 737 440 3874 6245 6246 3883 3885 6247 
703 737 704 406 6248 6249 6023 6013 6246 6018 
406 439 736 737 3874 6240 6244 6246 6245 6250 
703 737 406 736 6248 6246 6013 6242 6250 6244 
704 406 737 407 6018 6246 6249 6020 3561 6251 
737 406 440 407 6246 3883 6247 6251 3561 3884 
407 440 738 441 3884 6252 6253 3893 3895 6254 
704 738 705 407 6255 6256 6030 6020 6253 6025 
407 440 737 738 3884 6247 6251 6253 6252 6257 
704 738 407 737 6255 6253 6020 6249 6257 6251 
705 407 738 408 6025 6253 6256 6027 3571 6258 
738 407 441 408 6253 3893 6254 6258 3571 3894 
408 441 739 442 3894 6259 6260 3903 3905 6261 
705 739 706 408 6262 6263 6037 6027 6260 6032 
408 441 738 739 3894 6254 6258 6260 6259 6264 
705 739 408 738 6262 6260 6027 6256 6264 6258 
706 408 739 409 6032 6260 6263 6034 3581 6265 
739 408 442 409 6260 3903 6261 6265 3581 3904 
409 442 740 443 3904 6266 6267 3913 3915 6268 
706 740 707 409 6269 6270 6044 6034 6267 6039 
409 442 739 740 3904 6261 6265 6267 6266 6271 
706 740 409 739 6269 6267 6034 6263 6271 6265 
707 409 740 410 6039 6267 6270 6041 3591 6272 
740 409 443 410 6267 3913 6268 6272 3591 3914 
410 443 741 444 3914 6273 6274 3923 3925 6275 
707 741 708 410 6276 6277 6051 6041 6274 6046 
410 443 740 741 3914 6268 6272 6274 6273 6278 
707 741 410 740 6276 6274 6041 6270 6278 6272 
708 410 741 411 6046 6274 6277 6048 3601 6279 
741 410 444 411 6274 3923 6275 6279 3601 3924 
411 444 742 445 3924 6280 6281 3933 3935 6282 
708 742 709 411 6283 6284 6058 6048 6281 6053 
411 444 741 742 3924 6275 6279 6281 6280 6285 
708 742 411 741 6283 6281 6048 6277 6285 6279 
709 411 742 412 6053 6281 6284 6055 3611 6286 
742 411 445 412 6281 3933 6282 6286 3611 3934 
412 445 743 446 3934 6287 6288 3943 3945 6289 
709 743 710 412 6290 6291 6065 6055 6288 6060 
412 445 742 743 3934 6282 6286 6288 6287 6292 
709 743 412 742 6290 6288 6055 6284 6292 6286 
710 412 743 413 6060 6288 6291 6062 3621 6293 
743 412 446 413 6288 3943 6289 6293 3621 3944 
413 446 744 447 3944 6294 6295 3953 3955 6296 
710 744 711 413 6297 6298 6072 6062 6295 6067 
413 446 743 744 3944 6289 6293 6295 6294 6299 
710 744 413 743 6297 6295 6062 6291 6299 6293 
711 413 744 414 6067 6295 6298 6069 3631 6300 
744 413 447 414 6295 3953 6296 6300 3631 3954 
414 447 745 448 3954 6301 6302 3963 3965 6303 
711 745 712 414 6304 6305 6079 6069 6302 6074 
414 447 744 745 3954 6296 6300 6302 6301 6306 
711 745 414 744 6304 6302 6069 6298 6306 6300 
712 414 745 415 6074 6302 6305 6076 3641 6307 
745 414 448 415 6302 3963 6303 6307 3641 3964 
415 448 746 449 3964 6308 6309 3973 3975 6310 
712 746 713 415 6311 6312 6086 6076 6309 6081 
415 448 745 746 3964 6303 6307 6309 6308 6313 
712 746 415 745 6311 6309 6076 6305 6313 6307 
713 415 746 416 6081 6309 6312 6083 3651 6314 
746 415 449 416 6309 3973 6310 6314 3651 3974 
416 449 747 450 3974 6315 6316 3983 3985 6317 
713 747 714 416 6318 6319 6093 6083 6316 6088 
416 449 746 747 3974 6310 6314 6316 6315 6320 
713 747 416 746 6318 6316 6083 6312 6320 6314 
714 416 747 417 6088 6316 6319 6090 3661 6321 
747 416 450 417 6316 3983 6317 6321 3661 3984 
417 450 748 451 3984 6322 6323 3993 3995 6324 
714 748 715 417 6325 6326 6100 6090 6323 6095 
417 450 747 748 3984 6317 6321 6323 6322 6327 
714 748 417 747 6325 6323 6090 6319 6327 6321 
715 417 748 418 6095 6323 6326 6097 3671 6328 
748 417 451 418 6323 3993 6324 6328 3671 3994 
418 451 749 452 3994 6329 6330 4003 4005 6331 
715 749 716 418 6332 6333 6107 6097 6330 6102 
418 451 748 749 3994 6324 6328 6330 6329 6334 
715 749 418 748 6332 6330 6097 6326 6334 6328 
716 418 749 419 6102 6330 6333 6104 3681 6335 
749 418 452 419 6330 4003 6331 6335 3681 4004 
419 452 750 453 4004 6336 6337 4013 4015 6338 
716 750 717 419 6339 6340 6114 6104 6337 6109 
419 452 749 750 4004 6331 6335 6337 6336 6341 
716 750 419 749 6339 6337 6104 6333 6341 6335 
717 419 750 420 6109 6337 6340 6111 3691 6342 
750 419 453 420 6337 4013 6338 6342 3691 4014 
420 453 751 454 4014 6343 6344 4023 4025 6345 
717 751 718 420 6346 6347 6121 6111 6344 6116 
420 453 750 751 4014 6338 6342 6344 6343 6348 
717 751 420 750 6346 6344 6111 6340 6348 6342 
718 420 751 421 6116 6344 6347 6118 3701 6349 
751 420 454 421 6344 4023 6345 6349 3701 4024 
421 454 752 455 4024 6350 6351 4033 4035 6352 
718 752 719 421 6353 6354 6128 6118 6351 6123 
421 454 751 752 4024 6345 6349 6351 6350 6355 
718 752 421 751 6353 6351 6118 6347 6355 6349 
719 421 752 422 6123 6351 6354 6125 3711 6356 
752 421 455 422 6351 4033 6352 6356 3711 4034 
422 455 753 456 4034 6357 6358 4043 4045 6359 
719 753 720 422 6360 6361 6135 6125 6358 6130 
422 455 752 753 4034 6352 6356 6358 6357 6362 
719 753 422 752 6360 6358 6125 6354 6362 6356 
720 422 753 423 6130 6358 6361 6132 3721 6363 
753 422 456 423 6358 4043 6359 6363 3721 4044 
423 456 754 457 4044 6364 6365 4053 4055 6366 
720 754 721 423 6367 6368 6142 6132 6365 6137 
423 456 753 754 4044 6359 6363 6365 6364 6369 
720 754 423 753 6367 6365 6132 6361 6369 6363 
721 423 754 424 6137 6365 6368 6139 3731 6370 
754 423 457 424 6365 4053 6366 6370 3731 4054 
424 457 755 458 4054 6371 6372 4063 4065 6373 
721 755 722 424 6374 6375 6149 6139 6372 6144 
424 457 754 755 4054 6366 6370 6372 6371 6376 
721 755 424 754 6374 6372 6139 6368 6376 6370 
722 424 755 425 6144 6372 6375 6146 3741 6377 
755 424 458 425 6372 4063 6373 6377 3741 4064 
425 458 756 459 4064 6378 6379 4073 4075 6380 
722 756 723 425 6381 6382 6156 6146 6379 6151 
425 458 755 756 4064 6373 6377 6379 6378 6383 
722 756 425 755 6381 6379 6146 6375 6383 6377 
723 425 756 426 6151 6379 6382 6153 3751 6384 
756 425 459 426 6379 4073 6380 6384 3751 4074 
426 459 757 460 4074 6385 6386 4083 4085 6387 
723 757 724 426 6388 6389 6163 6153 6386 6158 
426 459 756 757 4074 6380 6384 6386 6385 6390 
723 757 426 756 6388 6386 6153 6382 6390 6384 
724 426 757 427 6158 6386 6389 6160 3761 6391 
757 426 460 427 6386 4083 6387 6391 3761 4084 
427 460 758 461 4084 6392 6393 4093 4095 6394 
724 758 725 427 6395 6396 6170 6160 6393 6165 
427 460 757 758 4084 6387 6391 6393 6392 6397 
724 758 427 757 6395 6393 6160 6389 6397 6391 
725 427 758 428 6165 6393 6396 6167 3771 6398 
758 427 461 428 6393 4093 6394 6398 3771 4094 
429 462 760 463 4109 6399 6400 4104 4108 6401 
726 760 727 429 6402 6403 6179 6177 6400 6172 
429 462 759 760 4109 6404 6405 6400 6399 6406 
726 760 429 759 6402 6400 6177 6407 6406 6405 
727 429 760 430 6172 6400 6403 6174 3784 6408 
760 429 463 430 6400 4104 6401 6408 3784 4105 
430 463 761 464 4105 6409 6410 4117 4119 6411 
727 761 728 430 6412 6413 6187 6174 6410 6182 
430 463 760 761 4105 6401 6408 6410 6409 6414 
727 761 430 760 6412 6410 6174 6403 6414 6408 
728 430 761 431 6182 6410 6413 6184 3795 6415 
761 430 464 431 6410 4117 6411 6415 3795 4118 
431 464 762 465 4118 6416 6417 4127 4129 6418 
728 762 729 431 6419 6420 6194 6184 6417 6189 
431 464 761 762 4118 6411 6415 6417 6416 6421 
728 762 431 761 6419 6417 6184 6413 6421 6415 
729 431 762 432 6189 6417 6420 6191 3805 6422 
762 431 465 432 6417 4127 6418 6422 3805 4128 
432 465 763 466 4128 6423 6424 4137 4139 6425 
729 763 730 432 6426 6427 6201 6191 6424 6196 
432 465 762 763 4128 6418 6422 6424 6423 6428 
729 763 432 762 6426 6424 6191 6420 6428 6422 
730 432 763 433 6196 6424 6427 6198 3815 6429 
763 432 466 433 6424 4137 6425 6429 3815 4138 
433 466 764 467 4138 6430 6431 4147 4149 6432 
730 764 731 433 6433 6434 6208 6198 6431 6203 
433 466 763 764 4138 6425 6429 6431 6430 6435 
730 764 433 763 6433 6431 6198 6427 6435 6429 
731 433 764 434 6203 6431 6434 6205 3825 6436 
764 433 467 434 6431 4147 6432 6436 3825 4148 
434 467 765 468 4148 6437 6438 4157 4159 6439 
731 765 732 434 6440 6441 6215 6205 6438 6210 
434 467 764 765 4148 6432 6436 6438 6437 6442 
731 765 434 764 6440 6438 6205 6434 6442 6436 
732 434 765 435 6210 6438 6441 6212 3835 6443 
765 434 468 435 6438 4157 6439 6443 3835 4158 
435 468 766 469 4158 6444 6445 4167 4169 6446 
732 766 733 435 6447 6448 6222 6212 6445 6217 
435 468 765 766 4158 6439 6443 6445 6444 6449 
732 766 435 765 6447 6445 6212 6441 6449 6443 
733 435 766 436 6217 6445 6448 6219 3845 6450 
766 435 469 436 6445 4167 6446 6450 3845 4168 
436 469 767 470 4168 6451 6452 4177 4179 6453 
733 767 734 436 6454 6455 6229 6219 6452 6224 
436 469 766 767 4168 6446 6450 6452 6451 6456 
733 767 436 766 6454 6452 6219 6448 6456 6450 
734 436 767 437 6224 6452 6455 6226 3855 6457 
767 436 470 437 6452 4177 6453 6457 3855 4178 
437 470 768 471 4178 6458 6459 4187 4189 6460 
734 768 735 437 6461 6462 6236 6226 6459 6231 
437 470 767 768 4178 6453 6457 6459 6458 6463 
734 768 437 767 6461 6459 6226 6455 6463 6457 
735 437 768 438 6231 6459 6462 6233 3865 6464 
768 437 471 438 6459 4187 6460 6464 3865 4188 
438 471 769 472 4188 6465 6466 4197 4199 6467 
735 769 736 438 6468 6469 6243 6233 6466 6238 
438 471 768 769 4188 6460 6464 6466 6465 6470 
735 769 438 768 6468 6466 6233 6462 6470 6464 
736 438 769 439 6238 6466 6469 6240 3875 6471 
769 438 472 439 6466 4197 6467 6471 3875 4198 
439 472 770 473 4198 6472 6473 4207 4209 6474 
736 770 737 439 6475 6476 6250 6240 6473 6245 
439 472 769 770 4198 6467 6471 6473 6472 6477 
736 770 439 769 6475 6473 6240 6469 6477 6471 
737 439 770 440 6245 6473 6476 6247 3885 6478 
770 439 473 440 6473 4207 6474 6478 3885 4208 
440 473 771 474 4208 6479 6480 4217 4219 6481 
737 771 738 440 6482 6483 6257 6247 6480 6252 
440 473 770 771 4208 6474 6478 6480 6479 6484 
737 771 440 770 6482 6480 6247 6476 6484 6478 
738 440 771 441 6252 6480 6483 6254 3895 6485 
771 440 474 441 6480 4217 6481 6485 3895 4218 
441 474 772 475 4218 6486 6487 4227 4229 6488 
738 772 739 441 6489 6490 6264 6254 6487 6259 
441 474 771 772 4218 6481 6485 6487 6486 6491 
738 772 441 771 6489 6487 6254 6483 6491 6485 
739 441 772 442 6259 6487 6490 6261 3905 6492 
772 441 475 442 6487 4227 6488 6492 3905 4228 
442 475 773 476 4228 6493 6494 4237 4239 6495 
739 773 740 442 6496 6497 6271 6261 6494 6266 
442 475 772 773 4228 6488 6492 6494 6493 6498 
739 773 442 772 6496 6494 6261 6490 6498 6492 
740 442 773 443 6266 6494 6497 6268 3915 6499 
773 442 476 443 6494 4237 6495 6499 3915 4238 
443 476 774 477 4238 6500 6501 4247 4249 6502 
740 774 741 443 6503 6504 6278 6268 6501 6273 
443 476 773 774 4238 6495 6499 6501 6500 6505 
740 774 443 773 6503 6501 6268 6497 6505 6499 
741 443 774 444 6273 6501 6504 6275 3925 6506 
774 443 477 444 6501 4247 6502 6506 3925 4248 
444 477 775 478 4248 6507 6508 4257 4259 6509 
741 775 742 444 6510 6511 6285 6275 6508 6280 
444 477 774 775 4248 6502 6506 6508 6507 6512 
741 775 444 774 6510 6508 6275 6504 6512 6506 
742 444 775 445 6280 6508 6511 6282 3935 6513 
775 444 478 445 6508 4257 6509 6513 3935 4258 
445 478 776 479 4258 6514 6515 4267 4269 6516 
742 776 743 445 6517 6518 6292 6282 6515 6287 
445 478 775 776 4258 6509 6513 6515 6514 6519 
742 776 445 775 6517 6515 6282 6511 6519 6513 
743 445 776 446 6287 6515 6518 6289 3945 6520 
776 445 479 446 6515 4267 6516 6520 3945 4268 
446 479 777 480 4268 6521 6522 4277 4279 6523 
743 777 744 446 6524 6525 6299 6289 6522 6294 
446 479 776 777 4268 6516 6520 6522 6521 6526 
743 777 446 776 6524 6522 6289 6518 6526 6520 
744 446 777 447 6294 6522 6525 6296 3955 6527 
777 446 480 447 6522 4277 6523 6527 3955 4278 
447 480 778 481 4278 6528 6529 4287 4289 6530 
744 778 745 447 6531 6532 6306 6296 6529 6301 
447 480 777 778 4278 6523 6527 6529 6528 6533 
744 778 447 777 6531 6529 6296 6525 6533 6527 
745 447 778 448 6301 6529 6532 6303 3965 6534 
778 447 481 448 6529 4287 6530 6534 3965 4288 
448 481 779 482 4288 6535 6536 4297 4299 6537 
745 779 746 448 6538 6539 6313 6303 6536 6308 
448 481 778 779 4288 6530 6534 6536 6535 6540 
745 779 448 778 6538 6536 6303 6532 6540 6534 
746 448 779 449 6308 6536 6539 6310 3975 6541 
779 448 482 449 6536 4297 6537 6541 3975 4298 
449 482 780 483 4298 6542 6543 4307 4309 6544 
746 780 747 449 6545 6546 6320 6310 6543 6315 
449 482 779 780 4298 6537 6541 6543 6542 6547 
746 780 449 779 6545 6543 6310 6539 6547 6541 
747 449 780 450 6315 6543 6546 6317 3985 6548 
780 449 483 450 6543 4307 6544 6548 3985 4308 
450 483 781 484 4308 6549 6550 4317 4319 6551 
747 781 748 450 6552 6553 6327 6317 6550 6322 
450 483 780 781 4308 6544 6548 6550 6549 6554 
747 781 450 780 6552 6550 6317 6546 6554 6548 
748 450 781 451 6322 6550 6553 6324 3995 6555 
781 450 484 451 6550 4317 6551 6555 3995 4318 
451 484 782 485 4318 6556 6557 4327 4329 6558 
748 782 749 451 6559 6560 6334 6324 6557 6329 
451 484 781 782 4318 6551 6555 6557 6556 6561 
748 782 451 781 6559 6557 6324 6553 6561 6555 
749 451 782 452 6329 6557 6560 6331 4005 6562 
782 451 485 452 6557 4327 6558 6562 4005 4328 
452 485 783 486 4328 6563 6564 4337 4339 6565 
749 783 750 452 6566 6567 6341 6331 6564 6336 
452 485 782 783 4328 6558 6562 6564 6563 6568 
749 783 452 782 6566 6564 6331 6560 6568 6562 
750 452 783 453 6336 6564 6567 6338 4015 6569 
783 452 486 453 6564 4337 6565 6569 4015 4338 
453 486 784 487 4338 6570 6571 4347 4349 6572 
750 784 751 453 6573 6574 6348 6338 6571 6343 
453 486 783 784 4338 6565 6569 6571 6570 6575 
750 784 453 783 6573 6571 6338 6567 6575 6569 
751 453 784 454 6343 6571 6574 6345 4025 6576 
784 453 487 454 6571 4347 6572 6576 4025 4348 
454 487 785 488 4348 6577 6578 4357 4359 6579 
751 785 752 454 6580 6581 6355 6345 6578 6350 
454 487 784 785 4348 6572 6576 6578 6577 6582 
751 785 454 784 6580 6578 6345 6574 6582 6576 
752 454 785 455 6350 6578 6581 6352 4035 6583 
785 454 488 455 6578 4357 6579 6583 4035 4358 
455 488 786 489 4358 6584 6585 4367 4369 6586 
752 786 753 455 6587 6588 6362 6352 6585 6357 
455 488 785 786 4358 6579 6583 6585 6584 6589 
752 786 455 785 6587 6585 6352 6581 6589 6583 
753 455 786 456 6357 6585 6588 6359 4045 6590 
786 455 489 456 6585 4367 6586 6590 4045 4368 
456 489 787 490 4368 6591 6592 4377 4379 6593 
753 787 754 456 6594 6595 6369 6359 6592 6364 
456 489 786 787 4368 6586 6590 6592 6591 6596 
753 787 456 786 6594 6592 6359 6588 6596 6590 
754 456 787 457 6364 6592 6595 6366 4055 6597 
787 456 490 457 6592 4377 6593 6597 4055 4378 
457 490 788 491 4378 6598 6599 4387 4389 6600 
754 788 755 457 6601 6602 6376 6366 6599 6371 
457 490 787 788 4378 6593 6597 6599 6598 6603 
754 788 457 787 6601 6599 6366 6595 6603 6597 
755 457 788 458 6371 6599 6602 6373 4065 6604 
788 457 491 458 6599 4387 6600 6604 4065 4388 
458 491 789 492 4388 6605 6606 4397 4399 6607 
755 789 756 458 6608 6609 6383 6373 6606 6378 
458 491 788 789 4388 6600 6604 6606 6605 6610 
755 789 458 788 6608 6606 6373 6602 6610 6604 
756 458 789 459 6378 6606 6609 6380 4075 6611 
789 458 492 459 6606 4397 6607 6611 4075 4398 
459 492 790 493 4398 6612 6613 4407 4409 6614 
756 790 757 459 6615 6616 6390 6380 6613 6385 
459 492 789 790 4398 6607 6611 6613 6612 6617 
756 790 459 789 6615 6613 6380 6609 6617 6611 
757 459 790 460 6385 6613 6616 6387 4085 6618 
790 459 493 460 6613 4407 6614 6618 4085 4408 
460 493 791 494 4408 6619 6620 4417 4419 6621 
757 791 758 460 6622 6623 6397 6387 6620 6392 
460 493 790 791 4408 6614 6618 6620 6619 6624 
757 791 460 790 6622 6620 6387 6616 6624 6618 
758 460 791 461 6392 6620 6623 6394 4095 6625 
791 460 494 461 6620 4417 6621 6625 4095 4418 
462 495 793 496 4433 6626 6627 4428 4432 6628 
759 793 760 462 6629 6630 6406 6404 6627 6399 
462 495 792 793 4433 6631 6632 6627 6626 6633 
759 793 462 792 6629 6627 6404 6634 6633 6632 
760 462 793 463 6399 6627 6630 6401 4108 6635 
793 462 496 463 6627 4428 6628 6635 4108 4429 
463 496 794 497 4429 6636 6637 4441 4443 6638 
760 794 761 463 6639 6640 6414 6401 6637 6409 
463 496 793 794 4429 6628 6635 6637 6636 6641 
760 794 463 793 6639 6637 6401 6630 6641 6635 
761 463 794 464 6409 6637 6640 6411 4119 6642 
794 463 497 464 6637 4441 6638 6642 4119 4442 
464 497 795 498 4442 6643 6644 4451 4453 6645 
761 795 762 464 6646 6647 6421 6411 6644 6416 
464 497 794 795 4442 6638 6642 6644 6643 6648 
761 795 464 794 6646 6644 6411 6640 6648 6642 
762 464 795 465 6416 6644 6647 6418 4129 6649 
795 464 498 465 6644 4451 6645 6649 4129 4452 
465 498 796 499 4452 6650 6651 4461 4463 6652 
762 796 763 465 6653 6654 6428 6418 6651 6423 
465 498 795 796 4452 6645 6649 6651 6650 6655 
762 796 465 795 6653 6651 6418 6647 6655 6649 
763 465 796 466 6423 6651 6654 6425 4139 6656 
796 465 499 466 6651 4461 6652 6656 4139 4462 
466 499 797 500 4462 6657 6658 4471 4473 6659 
763 797 764 466 6660 6661 6435 6425 6658 6430 
466 499 796 797 4462 6652 6656 6658 6657 6662 
763 797 466 796 6660 6658 6425 6654 6662 6656 
764 466 797 467 6430 6658 6661 6432 4149 6663 
797 466 500 467 6658 4471 6659 6663 4149 4472 
467 500 798 501 4472 6664 6665 4481 4483 6666 
764 798 765 467 6667 6668 6442 6432 6665 6437 
467 500 797 798 4472 6659 6663 6665 6664 6669 
764 798 467 797 6667 6665 6432 6661 6669 6663 
765 467 798 468 6437 6665 6668 6439 4159 6670 
798 467 501 468 6665 4481 6666 6670 4159 4482 
468 501 799 502 4482 6671 6672 4491 4493 6673 
765 799 766 468 6674 6675 6449 6439 6672 6444 
468 501 798 799 4482 6666 6670 6672 6671 6676 
765 799 468 798 6674 6672 6439 6668 6676 6670 
766 468 799 469 6444 6672 6675 6446 4169 6677 
799 468 502 469 6672 4491 6673 6677 4169 4492 
469 502 800 503 4492 6678 6679 4501 4503 6680 
766 800 767 469 6681 6682 6456 6446 6679 6451 
469 502 799 800 4492 6673 6677 6679 6678 6683 
766 800 469 799 6681 6679 6446 6675 6683 6677 
767 469 800 470 6451 6679 6682 6453 4179 6684 
800 469 503 470 6679 4501 6680 6684 4179 4502 
470 503 801 504 4502 6685 6686 4511 4513 6687 
767 801 768 470 6688 6689 6463 6453 6686 6458 
470 503 800 801 4502 6680 6684 6686 6685 6690 
767 801 470 800 6688 6686 6453 6682 6690 6684 
768 470 801 471 6458 6686 6689 6460 4189 6691 
801 470 504 471 6686 4511 6687 6691 4189 4512 
471 504 802 505 4512 6692 6693 4521 4523 6694 
768 802 769 471 6695 6696 6470 6460 6693 6465 
471 504 801 802 4512 6687 6691 6693 6692 6697 
768 802 471 801 6695 6693 6460 6689 6697 6691 
769 471 802 472 6465 6693 6696 6467 4199 6698 
802 471 505 472 6693 4521 6694 6698 4199 4522 
472 505 803 506 4522 6699 6700 4531 4533 6701 
769 803 770 472 6702 6703 6477 6467 6700 6472 
472 505 802 803 4522 6694 6698 6700 6699 6704 
769 803 472 802 6702 6700 6467 6696 6704 6698 
770 472 803 473 6472 6700 6703 6474 4209 6705 
803 472 506 473 6700 4531 6701 6705 4209 4532 
473 506 804 507 4532 6706 6707 4541 4543 6708 
770 804 771 473 6709 6710 6484 6474 6707 6479 
473 506 803 804 4532 6701 6705 6707 6706 6711 
770 804 473 803 6709 6707 6474 6703 6711 6705 
771 473 804 474 6479 6707 6710 6481 4219 6712 
804 473 507 474 6707 4541 6708 6712 4219 4542 
474 507 805 508 4542 6713 6714 4551 4553 6715 
771 805 772 474 6716 6717 6491 6481 6714 6486 
474 507 804 805 4542 6708 6712 6714 6713 6718 
771 805 474 804 6716 6714 6481 6710 6718 6712 
772 474 805 475 6486 6714 6717 6488 4229 6719 
805 474 508 475 6714 4551 6715 6719 4229 4552 
475 508 806 509 4552 6720 6721 4561 4563 6722 
772 806 773 475 6723 6724 6498 6488 6721 6493 
475 508 805 806 4552 6715 6719 6721 6720 6725 
772 806 475 805 6723 6721 6488 6717 6725 6719 
773 475 806 476 6493 6721 6724 6495 4239 6726 
806 475 509 476 6721 4561 6722 6726 4239 4562 
476 509 807 510 4562 6727 6728 4571 4573 6729 
773 807 774 476 6730 6731 6505 6495 6728 6500 
476 509 806 807 4562 6722 6726 6728 6727 6732 
773 807 476 806 6730 6728 6495 6724 6732 6726 
774 476 807 477 6500 6728 6731 6502 4249 6733 
807 476 510 477 6728 4571 6729 6733 4249 4572 
477 510 808 511 4572 6734 6735 4581 4583 6736 
774 808 775 477 6737 6738 6512 6502 6735 6507 
477 510 807 808 4572 6729 6733 6735 6734 6739 
774 808 477 807 6737 6735 6502 6731 6739 6733 
775 477 808 478 6507 6735 6738 6509 4259 6740 
808 477 511 478 6735 4581 6736 6740 4259 4582 
478 511 809 512 4582 6741 6742 4591 4593 6743 
775 809 776 478 6744 6745 6519 6509 6742 6514 
478 511 808 809 4582 6736 6740 6742 6741 6746 
775 809 478 808 6744 6742 6509 6738 6746 6740 
776 478 809 479 6514 6742 6745 6516 4269 6747 
809 478 512 479 6742 4591 6743 6747 4269 4592 
479 512 810 513 4592 6748 6749 4601 4603 6750 
776 810 777 479 6751 6752 6526 6516 6749 6521 
479 512 809 810 4592 6743 6747 6749 6748 6753 
776 810 479 809 6751 6749 6516 6745 6753 6747 
777 479 810 480 6521 6749 6752 6523 4279 6754 
810 479 513 480 6749 4601 6750 6754 4279 4602 
480 513 811 514 4602 6755 6756 4611 4613 6757 
777 811 778 480 6758 6759 6533 6523 6756 6528 
480 513 810 811 4602 6750 6754 6756 6755 6760 
777 811 480 810 6758 6756 6523 6752 6760 6754 
778 480 811 481 6528 6756 6759 6530 4289 6761 
811 480 514 481 6756 4611 6757 6761 4289 4612 
481 514 812 515 4612 6762 6763 4621 4623 6764 
778 812 779 481 6765 6766 6540 6530 6763 6535 
481 514 811 812 4612 6757 6761 6763 6762 6767 
778 812 481 811 6765 6763 6530 6759 6767 6761 
779 481 812 482 6535 6763 6766 6537 4299 6768 
812 481 515 482 6763 4621 6764 6768 4299 4622 
482 515 813 516 4622 6769 6770 4631 4633 6771 
779 813 780 482 6772 6773 6547 6537 6770 6542 
482 515 812 813 4622 6764 6768 6770 6769 6774 
779 813 482 812 6772 6770 6537 6766 6774 6768 
780 482 813 483 6542 6770 6773 6544 4309 6775 
813 482 516 483 6770 4631 6771 6775 4309 4632 
483 516 814 517 4632 6776 6777 4641 4643 6778 
780 814 781 483 6779 6780 6554 6544 6777 6549 
483 516 813 814 4632 6771 6775 6777 6776 6781 
780 814 483 813 6779 6777 6544 6773 6781 6775 
781 483 814 484 6549 6777 6780 6551 4319 6782 
814 483 517 484 6777 4641 6778 6782 4319 4642 
484 517 815 518 4642 6783 6784 4651 4653 6785 
781 815 782 484 6786 6787 6561 6551 6784 6556 
484 517 814 815 4642 6778 6782 6784 6783 6788 
781 815 484 814 6786 6784 6551 6780 6788 6782 
782 484 815 485 6556 6784 6787 6558 4329 6789 
815 484 518 485 6784 4651 6785 6789 4329 4652 
485 518 816 519 4652 6790 6791 4661 4663 6792 
782 816 783 485 6793 6794 6568 6558 6791 6563 
485 518 815 816 4652 6785 6789 6791 6790 6795 
782 816 485 815 6793 6791 6558 6787 6795 6789 
783 485 816 486 6563 6791 6794 6565 4339 6796 
816 485 519 486 6791 4661 6792 6796 4339 4662 
486 519 817 520 4662 6797 6798 4671 4673 6799 
783 817 784 486 6800 6801 6575 6565 6798 6570 
486 519 816 817 4662 6792 6796 6798 6797 6802 
783 817 486 816 6800 6798 6565 6794 6802 6796 
784 486 817 487 6570 6798 6801 6572 4349 6803 
817 486 520 487 6798 4671 6799 6803 4349 4672 
487 520 818 521 4672 6804 6805 4681 4683 6806 
784 818 785 487 6807 6808 6582 6572 6805 6577 
487 520 817 818 4672 6799 6803 6805 6804 6809 
784 818 487 817 6807 6805 6572 6801 6809 6803 
785 487 818 488 6577 6805 6808 6579 4359 6810 
818 487 521 488 6805 4681 6806 6810 4359 4682 
488 521 819 522 4682 6811 6812 4691 4693 6813 
785 819 786 488 6814 6815 6589 6579 6812 6584 
488 521 818 819 4682 6806 6810 6812 6811 6816 
785 819 488 818 6814 6812 6579 6808 6816 6810 
786 488 819 489 6584 6812 6815 6586 4369 6817 
819 488 522 489 6812 4691 6813 6817 4369 4692 
489 522 820 523 4692 6818 6819 4701 4703 6820 
786 820 787 489 6821 6822 6596 6586 6819 6591 
489 522 819 820 4692 6813 6817 6819 6818 6823 
786 820 489 819 6821 6819 6586 6815 6823 6817 
787 489 820 490 6591 6819 6822 6593 4379 6824 
820 489 523 490 6819 4701 6820 6824 4379 4702 
490 523 821 524 4702 6825 6826 4711 4713 6827 
787 821 788 490 6828 6829 6603 6593 6826 6598 
490 523 820 821 4702 6820 6824 6826 6825 6830 
787 821 490 820 6828 6826 6593 6822 6830 6824 
788 490 821 491 6598 6826 6829 6600 4389 6831 
821 490 524 491 6826 4711 6827 6831 4389 4712 
491 524 822 525 4712 6832 6833 4721 4723 6834 
788 822 789 491 6835 6836 6610 6600 6833 6605 
491 524 821 822 4712 6827 6831 6833 6832 6837 
788 822 491 821 6835 6833 6600 6829 6837 6831 
789 491 822 492 6605 6833 6836 6607 4399 6838 
822 491 525 492 6833 4721 6834 6838 4399 4722 
492 525 823 526 4722 6839 6840 4731 4733 6841 
789 823 790 492 6842 6843 6617 6607 6840 6612 
492 525 822 823 4722 6834 6838 6840 6839 6844 
789 823 492 822 6842 6840 6607 6836 6844 6838 
790 492 823 493 6612 6840 6843 6614 4409 6845 
823 492 526 493 6840 4731 6841 6845 4409 4732 
493 526 824 527 4732 6846 6847 4741 4743 6848 
790 824 791 493 6849 6850 6624 6614 6847 6619 
493 526 823 824 4732 6841 6845 6847 6846 6851 
790 824 493 823 6849 6847 6614 6843 6851 6845 
791 493 824 494 6619 6847 6850 6621 4419 6852 
824 493 527 494 6847 4741 6848 6852 4419 4742 
495 528 826 529 4757 6853 6854 4752 4756 6855 
792 826 793 495 6856 6857 6633 6631 6854 6626 
495 528 825 826 4757 6858 6859 6854 6853 6860 
792 826 495 825 6856 6854 6631 6861 6860 6859 
793 495 826 496 6626 6854 6857 6628 4432 6862 
826 495 529 496 6854 4752 6855 6862 4432 4753 
496 529 827 530 4753 6863 6864 4765 4767 6865 
793 827 794 496 6866 6867 6641 6628 6864 6636 
496 529 826 827 4753 6855 6862 6864 6863 6868 
793 827 496 826 6866 6864 6628 6857 6868 6862 
794 496 827 497 6636 6864 6867 6638 4443 6869 
827 496 530 497 6864 4765 6865 6869 4443 4766 
497 530 828 531 4766 6870 6871 4775 4777 6872 
794 828 795 497 6873 6874 6648 6638 6871 6643 
497 530 827 828 4766 6865 6869 6871 6870 6875 
794 828 497 827 6873 6871 6638 6867 6875 6869 
795 497 828 498 6643 6871 6874 6645 4453 6876 
828 497 531 498 6871 4775 6872 6876 4453 4776 
498 531 829 532 4776 6877 6878 4785 4787 6879 
795 829 796 498 6880 6881 6655 6645 6878 6650 
498 531 828 829 4776 6872 6876 6878 6877 6882 
795 829 498 828 6880 6878 6645 6874 6882 6876 
796 498 829 499 6650 6878 6881 6652 4463 6883 
829 498 532 499 6878 4785 6879 6883 4463 4786 
499 532 830 533 4786 6884 6885 4795 4797 6886 
796 830 797 499 6887 6888 6662 6652 6885 6657 
499 532 829 830 4786 6879 6883 6885 6884 6889 
796 830 499 829 6887 6885 6652 6881 6889 6883 
797 499 830 500 6657 6885 6888 6659 4473 6890 
830 499 533 500 6885 4795 6886 6890 4473 4796 
500 533 831 534 4796 6891 6892 4805 4807 6893 
797 831 798 500 6894 6895 6669 6659 6892 6664 
500 533 830 831 4796 6886 6890 6892 6891 6896 
797 831 500 830 6894 6892 6659 6888 6896 6890 
798 500 831 501 6664 6892 6895 6666 4483 6897 
831 500 534 501 6892 4805 6893 6897 4483 4806 
501 534 832 535 4806 6898 6899 4815 4817 6900 
798 832 799 501 6901 6902 6676 6666 6899 6671 
501 534 831 832 4806 6893 6897 6899 6898 6903 
798 832 501 831 6901 6899 6666 6895 6903 6897 
799 501 832 502 6671 6899 6902 6673 4493 6904 
832 501 535 502 6899 4815 6900 6904 4493 4816 
502 535 833 536 4816 6905 6906 4825 4827 6907 
799 833 800 502 6908 6909 6683 6673 6906 6678 
502 535 832 833 4816 6900 6904 6906 6905 6910 
799 833 502 832 6908 6906 6673 6902 6910 6904 
800 502 833 503 6678 6906 6909 6680 4503 6911 
833 502 536 503 6906 4825 6907 6911 4503 4826 
503 536 834 537 4826 6912 6913 4835 4837 6914 
800 834 801 503 6915 6916 6690 6680 6913 6685 
503 536 833 834 4826 6907 6911 6913 6912 6917 
800 834 503 833 6915 6913 6680 6909 6917 6911 
801 503 834 504 6685 6913 6916 6687 4513 6918 
834 503 537 504 6913 4835 6914 6918 4513 4836 
504 537 835 538 4836 6919 6920 4845 4847 6921 
801 835 802 504 6922 6923 6697 6687 6920 6692 
504 537 834 835 4836 6914 6918 6920 6919 6924 
801 835 504 834 6922 6920 6687 6916 6924 6918 
802 504 835 505 6692 6920 6923 6694 4523 6925 
835 504 538 505 6920 4845 6921 6925 4523 4846 
505 538 836 539 4846 6926 6927 4855 4857 6928 
802 836 803 505 6929 6930 6704 6694 6927 6699 
505 538 835 836 4846 6921 6925 6927 6926 6931 
802 836 505 835 6929 6927 6694 6923 6931 6925 
803 505 836 506 6699 6927 6930 6701 4533 6932 
836 505 539 506 6927 4855 6928 6932 4533 4856 
506 539 837 540 4856 6933 6934 4865 4867 6935 
803 837 804 506 6936 6937 6711 6701 6934 6706 
506 539 836 837 4856 6928 6932 6934 6933 6938 
803 837 506 836 6936 6934 6701 6930 6938 6932 
804 506 837 507 6706 6934 6937 6708 4543 6939 
837 506 540 507 6934 4865 6935 6939 4543 4866 
507 540 838 541 4866 6940 6941 4875 4877 6942 
804 838 805 507 6943 6944 6718 6708 6941 6713 
507 540 837 838 4866 6935 6939 6941 6940 6945 
804 838 507 837 6943 6941 6708 6937 6945 6939 
805 507 838 508 6713 6941 6944 6715 4553 6946 
838 507 541 508 6941 4875 6942 6946 4553 4876 
508 541 839 542 4876 6947 6948 4885 4887 6949 
805 839 806 508 6950 6951 6725 6715 6948 6720 
508 541 838 839 4876 6942 6946 6948 6947 6952 
805 839 508 838 6950 6948 6715 6944 6952 6946 
806 508 839 509 6720 6948 6951 6722 4563 6953 
839 508 542 509 6948 4885 6949 6953 4563 4886 
509 542 840 543 4886 6954 6955 4895 4897 6956 
806 840 807 509 6957 6958 6732 6722 6955 6727 
509 542 839 840 4886 6949 6953 6955 6954 6959 
806 840 509 839 6957 6955 6722 6951 6959 6953 
807 509 840 510 6727 6955 6958 6729 4573 6960 
840 509 543 510 6955 4895 6956 6960 4573 4896 
510 543 841 544 4896 6961 6962 4905 4907 6963 
807 841 808 510 6964 6965 6739 6729 6962 6734 
510 543 840 841 4896 6956 6960 6962 6961 6966 
807 841 510 840 6964 6962 6729 6958 6966 6960 
808 510 841 511 6734 6962 6965 6736 4583 6967 
841 510 544 511 6962 4905 6963 6967 4583 4906 
511 544 842 545 4906 6968 6969 4915 4917 6970 
808 842 809 511 6971 6972 6746 6736 6969 6741 
511 544 841 842 4906 6963 6967 6969 6968 6973 
808 842 511 841 6971 6969 6736 6965 6973 6967 
809 511 842 512 6741 6969 6972 6743 4593 6974 
842 511 545 512 6969 4915 6970 6974 4593 4916 
512 545 843 546 4916 6975 6976 4925 4927 6977 
809 843 810 512 6978 6979 6753 6743 6976 6748 
512 545 842 843 4916 6970 6974 6976 6975 6980 
809 843 512 842 6978 6976 6743 6972 6980 6974 
810 512 843 513 6748 6976 6979 6750 4603 6981 
843 512 546 513 6976 4925 6977 6981 4603 4926 
513 546 844 547 4926 6982 6983 4935 4937 6984 
810 844 811 513 6985 6986 6760 6750 6983 6755 
513 546 843 844 4926 6977 6981 6983 6982 6987 
810 844 513 843 6985 6983 6750 6979 6987 6981 
811 513 844 514 6755 6983 6986 6757 4613 6988 
844 513 547 514 6983 4935 6984 6988 4613 4936 
514 547 845 548 4936 6989 6990 4945 4947 6991 
811 845 812 514 6992 6993 6767 6757 6990 6762 
514 547 844 845 4936 6984 6988 6990 6989 6994 
811 845 514 844 6992 6990 6757 6986 6994 6988 
812 514 845 515 6762 6990 6993 6764 4623 6995 
845 514 548 515 6990 4945 6991 6995 4623 4946 
515 548 846 549 4946 6996 6997 4955 4957 6998 
812 846 813 515 6999 7000 6774 6764 6997 6769 
515 548 845 846 4946 6991 6995 6997 6996 7001 
812 846 515 845 6999 6997 6764 6993 7001 6995 
813 515 846 516 6769 6997 7000 6771 4633 7002 
846 515 549 516 6997 4955 6998 7002 4633 4956 
516 549 847 550 4956 7003 7004 4965 4967 7005 
813 847 814 516 7006 7007 6781 6771 7004 6776 
516 549 846 847 4956 6998 7002 7004 7003 7008 
813 847 516 846 7006 7004 6771 7000 7008 7002 
814 516 847 517 6776 7004 7007 6778 4643 7009 
847 516 550 517 7004 4965 7005 7009 4643 4966 
517 550 848 551 4966 7010 7011 4975 4977 7012 
814 848 815 517 7013 7014 6788 6778 7011 6783 
517 550 847 848 4966 7005 7009 7011 7010 7015 
814 848 517 847 7013 7011 6778 7007 7015 7009 
815 517 848 518 6783 7011 7014 6785 4653 7016 
848 517 551 518 7011 4975 7012 7016 4653 4976 
518 551 849 552 4976 7017 7018 4985 4987 7019 
815 849 816 518 7020 7021 6795 6785 7018 6790 
518 551 848 849 4976 7012 7016 7018 7017 7022 
815 849 518 848 7020 7018 6785 7014 7022 7016 
816 518 849 519 6790 7018 7021 6792 4663 7023 
849 518 552 519 7018 4985 7019 7023 4663 4986 
519 552 850 553 4986 7024 7025 4995 4997 7026 
816 850 817 519 7027 7028 6802 6792 7025 6797 
519 552 849 850 4986 7019 7023 7025 7024 7029 
816 850 519 849 7027 7025 6792 7021 7029 7023 
817 519 850 520 6797 7025 7028 6799 4673 7030 
850 519 553 520 7025 4995 7026 7030 4673 4996 
520 553 851 554 4996 7031 7032 5005 5007 7033 
817 851 818 520 7034 7035 6809 6799 7032 6804 
520 553 850 851 4996 7026 7030 7032 7031 7036 
817 851 520 850 7034 7032 6799 7028 7036 7030 
818 520 851 521 6804 7032 7035 6806 4683 7037 
851 520 554 521 7032 5005 7033 7037 4683 5006 
521 554 852 555 5006 7038 7039 5015 5017 7040 
818 852 819 521 7041 7042 6816 6806 7039 6811 
521 554 851 852 5006 7033 7037 7039 7038 7043 
818 852 521 851 7041 7039 6806 7035 7043 7037 
819 521 852 522 6811 7039 7042 6813 4693 7044 
852 521 555 522 7039 5015 7040 7044 4693 5016 
522 555 853 556 5016 7045 7046 5025 5027 7047 
819 853 820 522 7048 7049 6823 6813 7046 6818 
522 555 852 853 5016 7040 7044 7046 7045 7050 
819 853 522 852 7048 7046 6813 7042 7050 7044 
820 522 853 523 6818 7046 7049 6820 4703 7051 
853 522 556 523 7046 5025 7047 7051 4703 5026 
523 556 854 557 5026 7052 7053 5035 5037 7054 
820 854 821 523 7055 7056 6830 6820 7053 6825 
523 556 853 854 5026 7047 7051 7053 7052 7057 
820 854 523 853 7055 7053 6820 7049 7057 7051 
821 523 854 524 6825 7053 7056 6827 4713 7058 
854 523 557 524 7053 5035 7054 7058 4713 5036 
524 557 855 558 5036 7059 7060 5045 5047 7061 
821 855 822 524 7062 7063 6837 6827 7060 6832 
524 557 854 855 5036 7054 7058 7060 7059 7064 
821 855 524 854 7062 7060 6827 7056 7064 7058 
822 524 855 525 6832 7060 7063 6834 4723 7065 
855 524 558 525 7060 5045 7061 7065 4723 5046 
525 558 856 559 5046 7066 7067 5055 5057 7068 
822 856 823 525 7069 7070 6844 6834 7067 6839 
525 558 855 856 5046 7061 7065 7067 7066 7071 
822 856 525 855 7069 7067 6834 7063 7071 7065 
823 525 856 526 6839 7067 7070 6841 4733 7072 
856 525 559 526 7067 5055 7068 7072 4733 5056 
526 559 857 560 5056 7073 7074 5065 5067 7075 
823 857 824 526 7076 7077 6851 6841 7074 6846 
526 559 856 857 5056 7068 7072 7074 7073 7078 
823 857 526 856 7076 7074 6841 7070 7078 7072 
824 526 857 527 6846 7074 7077 6848 4743 7079 
857 526 560 527 7074 5065 7075 7079 4743 5066 
528 561 859 562 5081 7080 7081 5076 5080 7082 
825 859 826 528 7083 7084 6860 6858 7081 6853 
528 561 858 859 5081 7085 7086 7081 7080 7087 
825 859 528 858 7083 7081 6858 7088 7087 7086 
826 528 859 529 6853 7081 7084 6855 4756 7089 
859 528 562 529 7081 5076 7082 7089 4756 5077 
529 562 860 563 5077 7090 7091 5089 5091 7092 
826 860 827 529 7093 7094 6868 6855 7091 6863 
529 562 859 860 5077 7082 7089 7091 7090 7095 
826 860 529 859 7093 7091 6855 7084 7095 7089 
827 529 860 530 6863 7091 7094 6865 4767 7096 
860 529 563 530 7091 5089 7092 7096 4767 5090 
530 563 861 564 5090 7097 7098 5099 5101 7099 
827 861 828 530 7100 7101 6875 6865 7098 6870 
530 563 860 861 5090 7092 7096 7098 7097 7102 
827 861 530 860 7100 7098 6865 7094 7102 7096 
828 530 861 531 6870 7098 7101 6872 4777 7103 
861 530 564 531 7098 5099 7099 7103 4777 5100 
531 564 862 565 5100 7104 7105 5109 5111 7106 
828 862 829 531 7107 7108 6882 6872 7105 6877 
531 564 861 862 5100 7099 7103 7105 7104 7109 
828 862 531 861 7107 7105 6872 7101 7109 7103 
829 531 862 532 6877 7105 7108 6879 4787 7110 
862 531 565 532 7105 5109 7106 7110 4787 5110 
532 565 863 566 5110 7111 7112 5119 5121 7113 
829 863 830 532 7114 7115 6889 6879 7112 6884 
532 565 862 863 5110 7106 7110 7112 7111 7116 
829 863 532 862 7114 7112 6879 7108 7116 7110 
830 532 863 533 6884 7112 7115 6886 4797 7117 
863 532 566 533 7112 5119 7113 7117 4797 5120 
533 566 864 567 5120 7118 7119 5129 5131 7120 
830 864 831 533 7121 7122 6896 6886 7119 6891 
533 566 863 864 5120 7113 7117 7119 7118 7123 
830 864 533 863 7121 7119 6886 7115 7123 7117 
831 533 864 534 6891 7119 7122 6893 4807 7124 
864 533 567 534 7119 5129 7120 7124 4807 5130 
534 567 865 568 5130 7125 7126 5139 5141 7127 
831 865 832 534 7128 7129 6903 6893 7126 6898 
534 567 864 865 5130 7120 7124 7126 7125 7130 
831 865 534 864 7128 7126 6893 7122 7130 7124 
832 534 865 535 6898 7126 7129 6900 4817 7131 
865 534 568 535 7126 5139 7127 7131 4817 5140 
535 568 866 569 5140 7132 7133 5149 5151 7134 
832 866 833 535 7135 7136 6910 6900 7133 6905 
535 568 865 866 5140 7127 7131 7133 7132 7137 
832 866 535 865 7135 7133 6900 7129 7137 7131 
833 535 866 536 6905 7133 7136 6907 4827 7138 
866 535 569 536 7133 5149 7134 7138 4827 5150 
536 569 867 570 5150 7139 7140 5159 5161 7141 
833 867 834 536 7142 7143 6917 6907 7140 6912 
536 569 866 867 5150 7134 7138 7140 7139 7144 
833 867 536 866 7142 7140 6907 7136 7144 7138 
834 536 867 537 6912 7140 7143 6914 4837 7145 
867 536 570 537 7140 5159 7141 7145 4837 5160 
537 570 868 571 5160 7146 7147 5169 5171 7148 
834 868 835 537 7149 7150 6924 6914 7147 6919 
537 570 867 868 5160 7141 7145 7147 7146 7151 
834 868 537 867 7149 7147 6914 7143 7151 7145 
835 537 868 538 6919 7147 7150 6921 4847 7152 
868 537 571 538 7147 5169 7148 7152 4847 5170 
538 571 869 572 5170 7153 7154 5179 5181 7155 
835 869 836 538 7156 7157 6931 6921 7154 6926 
538 571 868 869 5170 7148 7152 7154 7153 7158 
835 869 538 868 7156 7154 6921 7150 7158 7152 
836 538 869 539 6926 7154 7157 6928 4857 7159 
869 538 572 539 7154 5179 7155 7159 4857 5180 
539 572 870 573 5180 7160 7161 5189 5191 7162 
836 870 837 539 7163 7164 6938 6928 7161 6933 
539 572 869 870 5180 7155 7159 7161 7160 7165 
836 870 539 869 7163 7161 6928 7157 7165 7159 
837 539 870 540 6933 7161 7164 6935 4867 7166 
870 539 573 540 7161 5189 7162 7166 4867 5190 
540 573 871 574 5190 7167 7168 5199 5201 7169 
837 871 838 540 7170 7171 6945 6935 7168 6940 
540 573 870 871 5190 7162 7166 7168 7167 7172 
837 871 540 870 7170 7168 6935 7164 7172 7166 
838 540 871 541 6940 7168 7171 6942 4877 7173 
871 540 574 541 7168 5199 7169 7173 4877 5200 
541 574 872 575 5200 7174 7175 5209 5211 7176 
838 872 839 541 7177 7178 6952 6942 7175 6947 
541 574 871 872 5200 7169 7173 7175 7174 7179 
838 872 541 871 7177 7175 6942 7171 7179 7173 
839 541 872 542 6947 7175 7178 6949 4887 7180 
872 541 575 542 7175 5209 7176 7180 4887 5210 
542 575 873 576 5210 7181 7182 5219 5221 7183 
839 873 840 542 7184 7185 6959 6949 7182 6954 
542 575 872 873 5210 7176 7180 7182 7181 7186 
839 873 542 872 7184 7182 6949 7178 7186 7180 
840 542 873 543 6954 7182 7185 6956 4897 7187 
873 542 576 543 7182 5219 7183 7187 4897 5220 
543 576 874 577 5220 7188 7189 5229 5231 7190 
840 874 841 543 7191 7192 6966 6956 7189 6961 
543 576 873 874 5220 7183 7187 7189 7188 7193 
840 874 543 873 7191 7189 6956 7185 7193 7187 
841 543 874 544 6961 7189 7192 6963 4907 7194 
874 543 577 544 7189 5229 7190 7194 4907 5230 
544 577 875 578 5230 7195 7196 5239 5241 7197 
841 875 842 544 7198 7199 6973 6963 7196 6968 
544 577 874 875 5230 7190 7194 7196 7195 7200 
841 875 544 874 7198 7196 6963 7192 7200 7194 
842 544 875 545 6968 7196 7199 6970 4917 7201 
875 544 578 545 7196 5239 7197 7201 4917 5240 
545 578 876 579 5240 7202 7203 5249 5251 7204 
842 876 843 545 7205 7206 6980 6970 7203 6975 
545 578 875 876 5240 7197 7201 7203 7202 7207 
842 876 545 875 7205 7203 6970 7199 7207 7201 
843 545 876 546 6975 7203 7206 6977 4927 7208 
876 545 579 546 7203 5249 7204 7208 4927 5250 
546 579 877 580 5250 7209 7210 5259 5261 7211 
843 877 844 546 7212 7213 6987 6977 7210 6982 
546 579 876 877 5250 7204 7208 7210 7209 7214 
843 877 546 876 7212 7210 6977 7206 7214 7208 
844 546 877 547 6982 7210 7213 6984 4937 7215 
877 546 580 547 7210 5259 7211 7215 4937 5260 
547 580 878 581 5260 7216 7217 5269 5271 7218 
844 878 845 547 7219 7220 6994 6984 7217 6989 
547 580 877 878 5260 7211 7215 7217 7216 7221 
844 878 547 877 7219 7217 6984 7213 7221 7215 
845 547 878 548 6989 7217 7220 6991 4947 7222 
878 547 581 548 7217 5269 7218 7222 4947 5270 
548 581 879 582 5270 7223 7224 5279 5281 7225 
845 879 846 548 7226 7227 7001 6991 7224 6996 
548 581 878 879 5270 7218 7222 7224 7223 7228 
845 879 548 878 7226 7224 6991 7220 7228 7222 
846 548 879 549 6996 7224 7227 6998 4957 7229 
879 548 582 549 7224 5279 7225 7229 4957 5280 
549 582 880 583 5280 7230 7231 5289 5291 7232 
846 880 847 549 7233 7234 7008 6998 7231 7003 
549 582 879 880 5280 7225 7229 7231 7230 7235 
846 880 549 879 7233 7231 6998 7227 7235 7229 
847 549 880 550 7003 7231 7234 7005 4967 7236 
880 549 583 550 7231 5289 7232 7236 4967 5290 
550 583 881 584 5290 7237 7238 5299 5301 7239 
847 881 848 550 7240 7241 7015 7005 7238 7010 
550 583 880 881 5290 7232 7236 7238 7237 7242 
847 881 550 880 7240 7238 7005 7234 7242 7236 
848 550 881 551 7010 7238 7241 7012 4977 7243 
881 550 584 551 7238 5299 7239 7243 4977 5300 
551 584 882 585 5300 7244 7245 5309 5311 7246 
848 882 849 551 7247 7248 7022 7012 7245 7017 
551 584 881 882 5300 7239 7243 7245 7244 7249 
848 882 551 881 7247 7245 7012 7241 7249 7243 
849 551 882 552 7017 7245 7248 7019 4987 7250 
882 551 585 552 7245 5309 7246 7250 4987 5310 
552 585 883 586 5310 7251 7252 5319 5321 7253 
849 883 850 552 7254 7255 7029 7019 7252 7024 
552 585 882 883 5310 7246 7250 7252 7251 7256 
849 883 552 882 7254 7252 7019 7248 7256 7250 
850 552 883 553 7024 7252 7255 7026 4997 7257 
883 552 586 553 7252 5319 7253 7257 4997 5320 
553 586 884 587 5320 7258 7259 5329 5331 7260 
850 884 851 553 7261 7262 7036 7026 7259 7031 
553 586 883 884 5320 7253 7257 7259 7258 7263 
850 884 553 883 7261 7259 7026 7255 7263 7257 
851 553 884 554 7031 7259 7262 7033 5007 7264 
884 553 587 554 7259 5329 7260 7264 5007 5330 
554 587 885 588 5330 7265 7266 5339 5341 7267 
851 885 852 554 7268 7269 7043 7033 7266 7038 
554 587 884 885 5330 7260 7264 7266 7265 7270 
851 885 554 884 7268 7266 7033 7262 7270 7264 
852 554 885 555 7038 7266 7269 7040 5017 7271 
885 554 588 555 7266 5339 7267 7271 5017 5340 
555 588 886 589 5340 7272 7273 5349 5351 7274 
852 886 853 555 7275 7276 7050 7040 7273 7045 
555 588 885 886 5340 7267 7271 7273 7272 7277 
852 886 555 885 7275 7273 7040 7269 7277 7271 
853 555 886 556 7045 7273 7276 7047 5027 7278 
886 555 589 556 7273 5349 7274 7278 5027 5350 
556 589 887 590 5350 7279 7280 5359 5361 7281 
853 887 854 556 7282 7283 7057 7047 7280 7052 
556 589 886 887 5350 7274 7278 7280 7279 7284 
853 887 556 886 7282 7280 7047 7276 7284 7278 
854 556 887 557 7052 7280 7283 7054 5037 7285 
887 556 590 557 7280 5359 7281 7285 5037 5360 
557 590 888 591 5360 7286 7287 5369 5371 7288 
854 888 855 557 7289 7290 7064 7054 7287 7059 
557 590 887 888 5360 7281 7285 7287 7286 7291 
854 888 557 887 7289 7287 7054 7283 7291 7285 
855 557 888 558 7059 7287 7290 7061 5047 7292 
888 557 591 558 7287 5369 7288 7292 5047 5370 
558 591 889 592 5370 7293 7294 5379 5381 7295 
855 889 856 558 7296 7297 7071 7061 7294 7066 
558 591 888 889 5370 7288 7292 7294 7293 7298 
855 889 558 888 7296 7294 7061 7290 7298 7292 
856 558 889 559 7066 7294 7297 7068 5057 7299 
889 558 592 559 7294 5379 7295 7299 5057 5380 
559 592 890 593 5380 7300 7301 5389 5391 7302 
856 890 857 559 7303 7304 7078 7068 7301 7073 
559 592 889 890 5380 7295 7299 7301 7300 7305 
856 890 559 889 7303 7301 7068 7297 7305 7299 
857 559 890 560 7073 7301 7304 7075 5067 7306 
890 559 593 560 7301 5389 7302 7306 5067 5390 
594 627 925 628 5405 7307 7308 5397 5404 7309 
891 925 892 594 7310 7311 7312 7313 7308 7314 
594 627 924 925 5405 7315 7316 7308 7307 7317 
891 925 594 924 7310 7308 7313 7318 7317 7316 
892 594 925 595 7314 7308 7311 7319 5399 7320 
925 594 628 595 7308 5397 7309 7320 5399 5398 
595 628 926 629 5398 7321 7322 5411 5415 7323 
892 926 893 595 7324 7325 7326 7319 7322 7327 
595 628 925 926 5398 7309 7320 7322 7321 7328 
892 926 595 925 7324 7322 7319 7311 7328 7320 
893 595 926 596 7327 7322 7325 7329 5413 7330 
926 595 629 596 7322 5411 7323 7330 5413 5412 
596 629 927 630 5412 7331 7332 5421 5425 7333 
893 927 894 596 7334 7335 7336 7329 7332 7337 
596 629 926 927 5412 7323 7330 7332 7331 7338 
893 927 596 926 7334 7332 7329 7325 7338 7330 
894 596 927 597 7337 7332 7335 7339 5423 7340 
927 596 630 597 7332 5421 7333 7340 5423 5422 
597 630 928 631 5422 7341 7342 5431 5435 7343 
894 928 895 597 7344 7345 7346 7339 7342 7347 
597 630 927 928 5422 7333 7340 7342 7341 7348 
894 928 597 927 7344 7342 7339 7335 7348 7340 
895 597 928 598 7347 7342 7345 7349 5433 7350 
928 597 631 598 7342 5431 7343 7350 5433 5432 
598 631 929 632 5432 7351 7352 5441 5445 7353 
895 929 896 598 7354 7355 7356 7349 7352 7357 
598 631 928 929 5432 7343 7350 7352 7351 7358 
895 929 598 928 7354 7352 7349 7345 7358 7350 
896 598 929 599 7357 7352 7355 7359 5443 7360 
929 598 632 599 7352 5441 7353 7360 5443 5442 
599 632 930 633 5442 7361 7362 5451 5455 7363 
896 930 897 599 7364 7365 7366 7359 7362 7367 
599 632 929 930 5442 7353 7360 7362 7361 7368 
896 930 599 929 7364 7362 7359 7355 7368 7360 
897 599 930 600 7367 7362 7365 7369 5453 7370 
930 599 633 600 7362 5451 7363 7370 5453 5452 
600 633 931 634 5452 7371 7372 5461 5465 7373 
897 931 898 600 7374 7375 7376 7369 7372 7377 
600 633 930 931 5452 7363 7370 7372 7371 7378 
897 931 600 930 7374 7372 7369 7365 7378 7370 
898 600 931 601 7377 7372 7375 7379 5463 7380 
931 600 634 601 7372 5461 7373 7380 5463 5462 
601 634 932 635 5462 7381 7382 5471 5475 7383 
898 932 899 601 7384 7385 7386 7379 7382 7387 
601 634 931 932 5462 7373 7380 7382 7381 7388 
898 932 601 931 7384 7382 7379 7375 7388 7380 
899 601 932 602 7387 7382 7385 7389 5473 7390 
932 601 635 602 7382 5471 7383 7390 5473 5472 
602 635 933 636 5472 7391 7392 5481 5485 7393 
899 933 900 602 7394 7395 7396 7389 7392 7397 
602 635 932 933 5472 7383 7390 7392 7391 7398 
899 933 602 932 7394 7392 7389 7385 7398 7390 
900 602 933 603 7397 7392 7395 7399 5483 7400 
933 602 636 603 7392 5481 7393 7400 5483 5482 
603 636 934 637 5482 7401 7402 5491 5495 7403 
900 934 901 603 7404 7405 7406 7399 7402 7407 
603 636 933 934 5482 7393 7400 7402 7401 7408 
900 934 603 933 7404 7402 7399 7395 7408 7400 
901 603 934 604 7407 7402 7405 7409 5493 7410 
934 603 637 604 7402 5491 7403 7410 5493 5492 
604 637 935 638 5492 7411 7412 5501 5505 7413 
901 935 902 604 7414 7415 7416 7409 7412 7417 
604 637 934 935 5492 7403 7410 7412 7411 7418 
901 935 604 934 7414 7412 7409 7405 7418 7410 
902 604 935 605 7417 7412 7415 7419 5503 7420 
935 604 638 605 7412 5501 7413 7420 5503 5502 
605 638 936 639 5502 7421 7422 5511 5515 7423 
902 936 903 605 7424 7425 7426 7419 7422 7427 
605 638 935 936 5502 7413 7420 7422 7421 7428 
902 936 605 935 7424 7422 7419 7415 7428 7420 
903 605 936 606 7427 7422 7425 7429 5513 7430 
936 605 639 606 7422 5511 7423 7430 5513 5512 
606 639 937 640 5512 7431 7432 5521 5525 7433 
903 937 904 606 7434 7435 7436 7429 7432 7437 
606 639 936 937 5512 7423 7430 7432 7431 7438 
903 937 606 936 7434 7432 7429 7425 7438 7430 
904 606 937 607 7437 7432 7435 7439 5523 7440 
937 606 640 607 7432 5521 7433 7440 5523 5522 
607 640 938 641 5522 7441 7442 5531 5535 7443 
904 938 905 607 7444 7445 7446 7439 7442 7447 
607 640 937 938 5522 7433 7440 7442 7441 7448 
904 938 607 937 7444 7442 7439 7435 7448 7440 
905 607 938 608 7447 7442 7445 7449 5533 7450 
938 607 641 608 7442 5531 7443 7450 5533 5532 
608 641 939 642 5532 7451 7452 5541 5545 7453 
905 939 906 608 7454 7455 7456 7449 7452 7457 
608 641 938 939 5532 7443 7450 7452 7451 7458 
905 939 608 938 7454 7452 7449 7445 7458 7450 
906 608 939 609 7457 7452 7455 7459 5543 7460 
939 608 642 609 7452 5541 7453 7460 5543 5542 
609 642 940 643 5542 7461 7462 5551 5555 7463 
906 940 907 609 7464 7465 7466 7459 7462 7467 
609 642 939 940 5542 7453 7460 7462 7461 7468 
906 940 609 939 7464 7462 7459 7455 7468 7460 
907 609 940 610 7467 7462 7465 7469 5553 7470 
940 609 643 610 7462 5551 7463 7470 5553 5552 
610 643 941 644 5552 7471 7472 5561 5565 7473 
907 941 908 610 7474 7475 7476 7469 7472 7477 
610 643 940 941 5552 7463 7470 7472 7471 7478 
907 941 610 940 7474 7472 7469 7465 7478 7470 
908 610 941 611 7477 7472 7475 7479 5563 7480 
941 610 644 611 7472 5561 7473 7480 5563 5562 
611 644 942 645 5562 7481 7482 5571 5575 7483 
908 942 909 611 7484 7485 7486 7479 7482 7487 
611 644 941 942 5562 7473 7480 7482 7481 7488 
908 942 611 941 7484 7482 7479 7475 7488 7480 
909 611 942 612 7487 7482 7485 7489 5573 7490 
942 611 645 612 7482 5571 7483 7490 5573 5572 
612 645 943 646 5572 7491 7492 5581 5585 7493 
909 943 910 612 7494 7495 7496 7489 7492 7497 
612 645 942 943 5572 7483 7490 7492 7491 7498 
909 943 612 942 7494 7492 7489 7485 7498 7490 
910 612 943 613 7497 7492 7495 7499 5583 7500 
943 612 646 613 7492 5581 7493 7500 5583 5582 
613 646 944 647 5582 7501 7502 5591 5595 7503 
910 944 911 613 7504 7505 7506 7499 7502 7507 
613 646 943 944 5582 7493 7500 7502 7501 7508 
910 944 613 943 7504 7502 7499 7495 7508 7500 
911 613 944 614 7507 7502 7505 7509 5593 7510 
944 613 647 614 7502 5591 7503 7510 5593 5592 
614 647 945 648 5592 7511 7512 5601 5605 7513 
911 945 912 614 7514 7515 7516 7509 7512 7517 
614 647 944 945 5592 7503 7510 7512 7511 7518 
911 945 614 944 7514 7512 7509 7505 7518 7510 
912 614 945 615 7517 7512 7515 7519 5603 7520 
945 614 648 615 7512 5601 7513 7520 5603 5602 
615 648 946 649 5602 7521 7522 5611 5615 7523 
912 946 913 615 7524 7525 7526 7519 7522 7527 
615 648 945 946 5602 7513 7520 7522 7521 7528 
912 946 615 945 7524 7522 7519 7515 7528 7520 
913 615 946 616 7527 7522 7525 7529 5613 7530 
946 615 649 616 7522 5611 7523 7530 5613 5612 
616 649 947 650 5612 7531 7532 5621 5625 7533 
913 947 914 616 7534 7535 7536 7529 7532 7537 
616 649 946 947 5612 7523 7530 7532 7531 7538 
913 947 616 946 7534 7532 7529 7525 7538 7530 
914 616 947 617 7537 7532 7535 7539 5623 7540 
947 616 650 617 7532 5621 7533 7540 5623 5622 
617 650 948 651 5622 7541 7542 5631 5635 7543 
914 948 915 617 7544 7545 7546 7539 7542 7547 
617 650 947 948 5622 7533 7540 7542 7541 7548 
914 948 617 947 7544 7542 7539 7535 7548 7540 
915 617 948 618 7547 7542 7545 7549 5633 7550 
948 617 651 618 7542 5631 7543 7550 5633 5632 
618 651 949 652 5632 7551 7552 5641 5645 7553 
915 949 916 618 7554 7555 7556 7549 7552 7557 
618 651 948 949 5632 7543 7550 7552 7551 7558 
915 949 618 948 7554 7552 7549 7545 7558 7550 
916 618 949 619 7557 7552 7555 7559 5643 7560 
949 618 652 619 7552 5641 7553 7560 5643 5642 
619 652 950 653 5642 7561 7562 5651 5655 7563 
916 950 917 619 7564 7565 7566 7559 7562 7567 
619 652 949 950 5642 7553 7560 7562 7561 7568 
916 950 619 949 7564 7562 7559 7555 7568 7560 
917 619 950 620 7567 7562 7565 7569 5653 7570 
950 619 653 620 7562 5651 7563 7570 5653 5652 
620 653 951 654 5652 7571 7572 5661 5665 7573 
917 951 918 620 7574 7575 7576 7569 7572 7577 
620 653 950 951 5652 7563 7570 7572 7571 7578 
917 951 620 950 7574 7572 7569 7565 7578 7570 
918 620 951 621 7577 7572 7575 7579 5663 7580 
951 620 654 621 7572 5661 7573 7580 5663 5662 
621 654 952 655 5662 7581 7582 5671 5675 7583 
918 952 919 621 7584 7585 7586 7579 7582 7587 
621 654 951 952 5662 7573 7580 7582 7581 7588 
918 952 621 951 7584 7582 7579 7575 7588 7580 
919 621 952 622 7587 7582 7585 7589 5673 7590 
952 621 655 622 7582 5671 7583 7590 5673 5672 
622 655 953 656 5672 7591 7592 5681 5685 7593 
919 953 920 622 7594 7595 7596 7589 7592 7597 
622 655 952 953 5672 7583 7590 7592 7591 7598 
919 953 622 952 7594 7592 7589 7585 7598 7590 
920 622 953 623 7597 7592 7595 7599 5683 7600 
953 622 656 623 7592 5681 7593 7600 5683 5682 
623 656 954 657 5682 7601 7602 5691 5695 7603 
920 954 921 623 7604 7605 7606 7599 7602 7607 
623 656 953 954 5682 7593 7600 7602 7601 7608 
920 954 623 953 7604 7602 7599 7595 7608 7600 
921 623 954 624 7607 7602 7605 7609 5693 7610 
954 623 657 624 7602 5691 7603 7610 5693 5692 
624 657 955 658 5692 7611 7612 5701 5705 7613 
921 955 922 624 7614 7615 7616 7609 7612 7617 
624 657 954 955 5692 7603 7610 7612 7611 7618 
921 955 624 954 7614 7612 7609 7605 7618 7610 
922 624 955 625 7617 7612 7615 7619 5703 7620 
955 624 658 625 7612 5701 7613 7620 5703 5702 
625 658 956 659 5702 7621 7622 5711 5715 7623 
922 956 923 625 7624 7625 7626 7619 7622 7627 
625 658 955 956 5702 7613 7620 7622 7621 7628 
922 956 625 955 7624 7622 7619 7615 7628 7620 
923 625 956 626 7627 7622 7625 7629 5713 7630 
956 625 659 626 7622 5711 7623 7630 5713 5712 
627 660 958 661 5726 7631 7632 5721 5725 7633 
924 958 925 627 7634 7635 7317 7315 7632 7307 
627 660 957 958 5726 7636 7637 7632 7631 7638 
924 958 627 957 7634 7632 7315 7639 7638 7637 
925 627 958 628 7307 7632 7635 7309 5404 7640 
958 627 661 628 7632 5721 7633 7640 5404 5722 
628 661 959 662 5722 7641 7642 5731 5733 7643 
925 959 926 628 7644 7645 7328 7309 7642 7321 
628 661 958 959 5722 7633 7640 7642 7641 7646 
925 959 628 958 7644 7642 7309 7635 7646 7640 
926 628 959 629 7321 7642 7645 7323 5415 7647 
959 628 662 629 7642 5731 7643 7647 5415 5732 
629 662 960 663 5732 7648 7649 5738 5740 7650 
926 960 927 629 7651 7652 7338 7323 7649 7331 
629 662 959 960 5732 7643 7647 7649 7648 7653 
926 960 629 959 7651 7649 7323 7645 7653 7647 
927 629 960 630 7331 7649 7652 7333 5425 7654 
960 629 663 630 7649 5738 7650 7654 5425 5739 
630 663 961 664 5739 7655 7656 5745 5747 7657 
927 961 928 630 7658 7659 7348 7333 7656 7341 
630 663 960 961 5739 7650 7654 7656 7655 7660 
927 961 630 960 7658 7656 7333 7652 7660 7654 
928 630 961 631 7341 7656 7659 7343 5435 7661 
961 630 664 631 7656 5745 7657 7661 5435 5746 
631 664 962 665 5746 7662 7663 5752 5754 7664 
928 962 929 631 7665 7666 7358 7343 7663 7351 
631 664 961 962 5746 7657 7661 7663 7662 7667 
928 962 631 961 7665 7663 7343 7659 7667 7661 
929 631 962 632 7351 7663 7666 7353 5445 7668 
962 631 665 632 7663 5752 7664 7668 5445 5753 
632 665 963 666 5753 7669 7670 5759 5761 7671 
929 963 930 632 7672 7673 7368 7353 7670 7361 
632 665 962 963 5753 7664 7668 7670 7669 7674 
929 963 632 962 7672 7670 7353 7666 7674 7668 
930 632 963 633 7361 7670 7673 7363 5455 7675 
963 632 666 633 7670 5759 7671 7675 5455 5760 
633 666 964 667 5760 7676 7677 5766 5768 7678 
930 964 931 633 7679 7680 7378 7363 7677 7371 
633 666 963 964 5760 7671 7675 7677 7676 7681 
930 964 633 963 7679 7677 7363 7673 7681 7675 
931 633 964 634 7371 7677 7680 7373 5465 7682 
964 633 667 634 7677 5766 7678 7682 5465 5767 
634 667 965 668 5767 7683 7684 5773 5775 7685 
931 965 932 634 7686 7687 7388 7373 7684 7381 
634 667 964 965 5767 7678 7682 7684 7683 7688 
931 965 634 964 7686 7684 7373 7680 7688 7682 
932 634 965 635 7381 7684 7687 7383 5475 7689 
965 634 668 635 7684 5773 7685 7689 5475 5774 
635 668 966 669 5774 7690 7691 5780 5782 7692 
932 966 933 635 7693 7694 7398 7383 7691 7391 
635 668 965 966 5774 7685 7689 7691 7690 7695 
932 966 635 965 7693 7691 7383 7687 7695 7689 
933 635 966 636 7391 7691 7694 7393 5485 7696 
966 635 669 636 7691 5780 7692 7696 5485 5781 
636 669 967 670 5781 7697 7698 5787 5789 7699 
933 967 934 636 7700 7701 7408 7393 7698 7401 
636 669 966 967 5781 7692 7696 7698 7697 7702 
933 967 636 966 7700 7698 7393 7694 7702 7696 
934 636 967 637 7401 7698 7701 7403 5495 7703 
967 636 670 637 7698 5787 7699 7703 5495 5788 
637 670 968 671 5788 7704 7705 5794 5796 7706 
934 968 935 637 7707 7708 7418 7403 7705 7411 
637 670 967 968 5788 7699 7703 7705 7704 7709 
934 968 637 967 7707 7705 7403 7701 7709 7703 
935 637 968 638 7411 7705 7708 7413 5505 7710 
968 637 671 638 7705 5794 7706 7710 5505 5795 
638 671 969 672 5795 7711 7712 5801 5803 7713 
935 969 936 638 7714 7715 7428 7413 7712 7421 
638 671 968 969 5795 7706 7710 7712 7711 7716 
935 969 638 968 7714 7712 7413 7708 7716 7710 
936 638 969 639 7421 7712 7715 7423 5515 7717 
969 638 672 639 7712 5801 7713 7717 5515 5802 
639 672 970 673 5802 7718 7719 5808 5810 7720 
936 970 937 639 7721 7722 7438 7423 7719 7431 
639 672 969 970 5802 7713 7717 7719 7718 7723 
936 970 639 969 7721 7719 7423 7715 7723 7717 
937 639 970 640 7431 7719 7722 7433 5525 7724 
970 639 673 640 7719 5808 7720 7724 5525 5809 
640 673 971 674 5809 7725 7726 5815 5817 7727 
937 971 938 640 7728 7729 7448 7433 7726 7441 
640 673 970 971 5809 7720 7724 7726 7725 7730 
937 971 640 970 7728 7726 7433 7722 7730 7724 
938 640 971 641 7441 7726 7729 7443 5535 7731 
971 640 674 641 7726 5815 7727 7731 5535 5816 
641 674 972 675 5816 7732 7733 5822 5824 7734 
938 972 939 641 7735 7736 7458 7443 7733 7451 
641 674 971 972 5816 7727 7731 7733 7732 7737 
938 972 641 971 7735 7733 7443 7729 7737 7731 
939 641 972 642 7451 7733 7736 7453 5545 7738 
972 641 675 642 7733 5822 7734 7738 5545 5823 
642 675 973 676 5823 7739 7740 5829 5831 7741 
939 973 940 642 7742 7743 7468 7453 7740 7461 
642 675 972 973 5823 7734 7738 7740 7739 7744 
939 973 642 972 7742 7740 7453 7736 7744 7738 
940 642 973 643 7461 7740 7743 7463 5555 7745 
973 642 676 643 7740 5829 7741 7745 5555 5830 
643 676 974 677 5830 7746 7747 5836 5838 7748 
940 974 941 643 7749 7750 7478 7463 7747 7471 
643 676 973 974 5830 7741 7745 7747 7746 7751 
940 974 643 973 7749 7747 7463 7743 7751 7745 
941 643 974 644 7471 7747 7750 7473 5565 7752 
974 643 677 644 7747 5836 7748 7752 5565 5837 
644 677 975 678 5837 7753 7754 5843 5845 7755 
941 975 942 644 7756 7757 7488 7473 7754 7481 
644 677 974 975 5837 7748 7752 7754 7753 7758 
941 975 644 974 7756 7754 7473 7750 7758 7752 
942 644 975 645 7481 7754 7757 7483 5575 7759 
975 644 678 645 7754 5843 7755 7759 5575 5844 
645 678 976 679 5844 7760 7761 5850 5852 7762 
942 976 943 645 7763 7764 7498 7483 7761 7491 
645 678 975 976 5844 7755 7759 7761 7760 7765 
942 976 645 975 7763 7761 7483 7757 7765 7759 
943 645 976 646 7491 7761 7764 7493 5585 7766 
976 645 679 646 7761 5850 7762 7766 5585 5851 
646 679 977 680 5851 7767 7768 5857 5859 7769 
943 977 944 646 7770 7771 7508 7493 7768 7501 
646 679 976 977 5851 7762 7766 7768 7767 7772 
943 977 646 976 7770 7768 7493 7764 7772 7766 
944 646 977 647 7501 7768 7771 7503 5595 7773 
977 646 680 647 7768 5857 7769 7773 5595 5858 
647 680 978 681 5858 7774 7775 5864 5866 7776 
944 978 945 647 7777 7778 7518 7503 7775 7511 
647 680 977 978 5858 7769 7773 7775 7774 7779 
944 978 647 977 7777 7775 7503 7771 7779 7773 
945 647 978 648 7511 7775 7778 7513 5605 7780 
978 647 681 648 7775 5864 7776 7780 5605 5865 
648 681 979 682 5865 7781 7782 5871 5873 7783 
945 979 946 648 7784 7785 7528 7513 7782 7521 
648 681 978 979 5865 7776 7780 7782 7781 7786 
945 979 648 978 7784 7782 7513 7778 7786 7780 
946 648 979 649 7521 7782 7785 7523 5615 7787 
979 648 682 649 7782 5871 7783 7787 5615 5872 
649 682 980 683 5872 7788 7789 5878 5880 7790 
946 980 947 649 7791 7792 7538 7523 7789 7531 
649 682 979 980 5872 7783 7787 7789 7788 7793 
946 980 649 979 7791 7789 7523 7785 7793 7787 
947 649 980 650 7531 7789 7792 7533 5625 7794 
980 649 683 650 7789 5878 7790 7794 5625 5879 
650 683 981 684 5879 7795 7796 5885 5887 7797 
947 981 948 650 7798 7799 7548 7533 7796 7541 
650 683 980 981 5879 7790 7794 7796 7795 7800 
947 981 650 980 7798 7796 7533 7792 7800 7794 
948 650 981 651 7541 7796 7799 7543 5635 7801 
981 650 684 651 7796 5885 7797 7801 5635 5886 
651 684 982 685 5886 7802 7803 5892 5894 7804 
948 982 949 651 7805 7806 7558 7543 7803 7551 
651 684 981 982 5886 7797 7801 7803 7802 7807 
948 982 651 981 7805 7803 7543 7799 7807 7801 
949 651 982 652 7551 7803 7806 7553 5645 7808 
982 651 685 652 7803 5892 7804 7808 5645 5893 
652 685 983 686 5893 7809 7810 5899 5901 7811 
949 983 950 652 7812 7813 7568 7553 7810 7561 
652 685 982 983 5893 7804 7808 7810 7809 7814 
949 983 652 982 7812 7810 7553 7806 7814 7808 
950 652 983 653 7561 7810 7813 7563 5655 7815 
983 652 686 653 7810 5899 7811 7815 5655 5900 
653 686 984 687 5900 7816 7817 5906 5908 7818 
950 984 951 653 7819 7820 7578 7563 7817 7571 
653 686 983 984 5900 7811 7815 7817 7816 7821 
950 984 653 983 7819 7817 7563 7813 7821 7815 
951 653 984 654 7571 7817 7820 7573 5665 7822 
984 653 687 654 7817 5906 7818 7822 5665 5907 
654 687 985 688 5907 7823 7824 5913 5915 7825 
951 985 952 654 7826 7827 7588 7573 7824 7581 
654 687 984 985 5907 7818 7822 7824 7823 7828 
951 985 654 984 7826 7824 7573 7820 7828 7822 
952 654 985 655 7581 7824 7827 7583 5675 7829 
985 654 688 655 7824 5913 7825 7829 5675 5914 
655 688 986 689 5914 7830 7831 5920 5922 7832 
952 986 953 655 7833 7834 7598 7583 7831 7591 
655 688 985 986 5914 7825 7829 7831 7830 7835 
952 986 655 985 7833 7831 7583 7827 7835 7829 
953 655 986 656 7591 7831 7834 7593 5685 7836 
986 655 689 656 7831 5920 7832 7836 5685 5921 
656 689 987 690 5921 7837 7838 5927 5929 7839 
953 987 954 656 7840 7841 7608 7593 7838 7601 
656 689 986 987 5921 7832 7836 7838 7837 7842 
953 987 656 986 7840 7838 7593 7834 7842 7836 
954 656 987 657 7601 7838 7841 7603 5695 7843 
987 656 690 657 7838 5927 7839 7843 5695 5928 
657 690 988 691 5928 7844 7845 5934 5936 7846 
954 988 955 657 7847 7848 7618 7603 7845 7611 
657 690 987 988 5928 7839 7843 7845 7844 7849 
954 988 657 987 7847 7845 7603 7841 7849 7843 
955 657 988 658 7611 7845 7848 7613 5705 7850 
988 657 691 658 7845 5934 7846 7850 5705 5935 
658 691 989 692 5935 7851 7852 5941 5943 7853 
955 989 956 658 7854 7855 7628 7613 7852 7621 
658 691 988 989 5935 7846 7850 7852 7851 7856 
955 989 658 988 7854 7852 7613 7848 7856 7850 
956 658 989 659 7621 7852 7855 7623 5715 7857 
989 658 692 659 7852 5941 7853 7857 5715 5942 
660 693 991 694 5953 7858 7859 5948 5952 7860 
957 991 958 660 7861 7862 7638 7636 7859 7631 
660 693 990 991 5953 7863 7864 7859 7858 7865 
957 991 660 990 7861 7859 7636 7866 7865 7864 
958 660 991 661 7631 7859 7862 7633 5725 7867 
991 660 694 661 7859 5948 7860 7867 5725 5949 
661 694 992 695 5949 7868 7869 5958 5960 7870 
958 992 959 661 7871 7872 7646 7633 7869 7641 
661 694 991 992 5949 7860 7867 7869 7868 7873 
958 992 661 991 7871 7869 7633 7862 7873 7867 
959 661 992 662 7641 7869 7872 7643 5733 7874 
992 661 695 662 7869 5958 7870 7874 5733 5959 
662 695 993 696 5959 7875 7876 5965 5967 7877 
959 993 960 662 7878 7879 7653 7643 7876 7648 
662 695 992 993 5959 7870 7874 7876 7875 7880 
959 993 662 992 7878 7876 7643 7872 7880 7874 
960 662 993 663 7648 7876 7879 7650 5740 7881 
993 662 696 663 7876 5965 7877 7881 5740 5966 
663 696 994 697 5966 7882 7883 5972 5974 7884 
960 994 961 663 7885 7886 7660 7650 7883 7655 
663 696 993 994 5966 7877 7881 7883 7882 7887 
960 994 663 993 7885 7883 7650 7879 7887 7881 
961 663 994 664 7655 7883 7886 7657 5747 7888 
994 663 697 664 7883 5972 7884 7888 5747 5973 
664 697 995 698 5973 7889 7890 5979 5981 7891 
961 995 962 664 7892 7893 7667 7657 7890 7662 
664 697 994 995 5973 7884 7888 7890 7889 7894 
961 995 664 994 7892 7890 7657 7886 7894 7888 
962 664 995 665 7662 7890 7893 7664 5754 7895 
995 664 698 665 7890 5979 7891 7895 5754 5980 
665 698 996 699 5980 7896 7897 5986 5988 7898 
962 996 963 665 7899 7900 7674 7664 7897 7669 
665 698 995 996 5980 7891 7895 7897 7896 7901 
962 996 665 995 7899 7897 7664 7893 7901 7895 
963 665 996 666 7669 7897 7900 7671 5761 7902 
996 665 699 666 7897 5986 7898 7902 5761 5987 
666 699 997 700 5987 7903 7904 5993 5995 7905 
963 997 964 666 7906 7907 7681 7671 7904 7676 
666 699 996 997 5987 7898 7902 7904 7903 7908 
963 997 666 996 7906 7904 7671 7900 7908 7902 
964 666 997 667 7676 7904 7907 7678 5768 7909 
997 666 700 667 7904 5993 7905 7909 5768 5994 
667 700 998 701 5994 7910 7911 6000 6002 7912 
964 998 965 667 7913 7914 7688 7678 7911 7683 
667 700 997 998 5994 7905 7909 7911 7910 7915 
964 998 667 997 7913 7911 7678 7907 7915 7909 
965 667 998 668 7683 7911 7914 7685 5775 7916 
998 667 701 668 7911 6000 7912 7916 5775 6001 
668 701 999 702 6001 7917 7918 6007 6009 7919 
965 999 966 668 7920 7921 7695 7685 7918 7690 
668 701 998 999 6001 7912 7916 7918 7917 7922 
965 999 668 998 7920 7918 7685 7914 7922 7916 
966 668 999 669 7690 7918 7921 7692 5782 7923 
999 668 702 669 7918 6007 7919 7923 5782 6008 
669 702 1000 703 6008 7924 7925 6014 6016 7926 
966 1000 967 669 7927 7928 7702 7692 7925 7697 
669 702 999 1000 6008 7919 7923 7925 7924 7929 
966 1000 669 999 7927 7925 7692 7921 7929 7923 
967 669 1000 670 7697 7925 7928 7699 5789 7930 
1000 669 703 670 7925 6014 7926 7930 5789 6015 
670 703 1001 704 6015 7931 7932 6021 6023 7933 
967 1001 968 670 7934 7935 7709 7699 7932 7704 
670 703 1000 1001 6015 7926 7930 7932 7931 7936 
967 1001 670 1000 7934 7932 7699 7928 7936 7930 
968 670 1001 671 7704 7932 7935 7706 5796 7937 
1001 670 704 671 7932 6021 7933 7937 5796 6022 
671 704 1002 705 6022 7938 7939 6028 6030 7940 
968 1002 969 671 7941 7942 7716 7706 7939 7711 
671 704 1001 1002 6022 7933 7937 7939 7938 7943 
968 1002 671 1001 7941 7939 7706 7935 7943 7937 
969 671 1002 672 7711 7939 7942 7713 5803 7944 
1002 671 705 672 7939 6028 7940 7944 5803 6029 
672 705 1003 706 6029 7945 7946 6035 6037 7947 
969 1003 970 672 7948 7949 7723 7713 7946 7718 
672 705 1002 1003 6029 7940 7944 7946 7945 7950 
969 1003 672 1002 7948 7946 7713 7942 7950 7944 
970 672 1003 673 7718 7946 7949 7720 5810 7951 
1003 672 706 673 7946 6035 7947 7951 5810 6036 
673 706 1004 707 6036 7952 7953 6042 6044 7954 
970 1004 971 673 7955 7956 7730 7720 7953 7725 
673 706 1003 1004 6036 7947 7951 7953 7952 7957 
970 1004 673 1003 7955 7953 7720 7949 7957 7951 
971 673 1004 674 7725 7953 7956 7727 5817 7958 
1004 673 707 674 7953 6042 7954 7958 5817 6043 
674 707 1005 708 6043 7959 7960 6049 6051 7961 
971 1005 972 674 7962 7963 7737 7727 7960 7732 
674 707 1004 1005 6043 7954 7958 7960 7959 7964 
971 1005 674 1004 7962 7960 7727 7956 7964 7958 
972 674 1005 675 7732 7960 7963 7734 5824 7965 
1005 674 708 675 7960 6049 7961 7965 5824 6050 
675 708 1006 709 6050 7966 7967 6056 6058 7968 
972 1006 973 675 7969 7970 7744 7734 7967 7739 
675 708 1005 1006 6050 7961 7965 7967 7966 7971 
972 1006 675 1005 7969 7967 7734 7963 7971 7965 
973 675 1006 676 7739 7967 7970 7741 5831 7972 
1006 675 709 676 7967 6056 7968 7972 5831 6057 
676 709 1007 710 6057 7973 7974 6063 6065 7975 
973 1007 974 676 7976 7977 7751 7741 7974 7746 
676 709 1006 1007 6057 7968 7972 7974 7973 7978 
973 1007 676 1006 7976 7974 7741 7970 7978 7972 
974 676 1007 677 7746 7974 7977 7748 5838 7979 
1007 676 710 677 7974 6063 7975 7979 5838 6064 
677 710 1008 711 6064 7980 7981 6070 6072 7982 
974 1008 975 677 7983 7984 7758 7748 7981 7753 
677 710 1007 1008 6064 7975 7979 7981 7980 7985 
974 1008 677 1007 7983 7981 7748 7977 7985 7979 
975 677 1008 678 7753 7981 7984 7755 5845 7986 
1008 677 711 678 7981 6070 7982 7986 5845 6071 
678 711 1009 712 6071 7987 7988 6077 6079 7989 
975 1009 976 678 7990 7991 7765 7755 7988 7760 
678 711 1008 1009 6071 7982 7986 7988 7987 7992 
975 1009 678 1008 7990 7988 7755 7984 7992 7986 
976 678 1009 679 7760 7988 7991 7762 5852 7993 
1009 678 712 679 7988 6077 7989 7993 5852 6078 
679 712 1010 713 6078 7994 7995 6084 6086 7996 
976 1010 977 679 7997 7998 7772 7762 7995 7767 
679 712 1009 1010 6078 7989 7993 7995 7994 7999 
976 1010 679 1009 7997 7995 7762 7991 7999 7993 
977 679 1010 680 7767 7995 7998 7769 5859 8000 
1010 679 713 680 7995 6084 7996 8000 5859 6085 
680 713 1011 714 6085 8001 8002 6091 6093 8003 
977 1011 978 680 8004 8005 7779 7769 8002 7774 
680 713 1010 1011 6085 7996 8000 8002 8001 8006 
977 1011 680 1010 8004 8002 7769 7998 8006 8000 
978 680 1011 681 7774 8002 8005 7776 5866 8007 
1011 680 714 681 8002 6091 8003 8007 5866 6092 
681 714 1012 715 6092 8008 8009 6098 6100 8010 
978 1012 979 681 8011 8012 7786 7776 8009 7781 
681 714 1011 1012 6092 8003 8007 8009 8008 8013 
978 1012 681 1011 8011 8009 7776 8005 8013 8007 
979 681 1012 682 7781 8009 8012 7783 5873 8014 
1012 681 715 682 8009 6098 8010 8014 5873 6099 
682 715 1013 716 6099 8015 8016 6105 6107 8017 
979 1013 980 682 8018 8019 7793 7783 8016 7788 
682 715 1012 1013 6099 8010 8014 8016 8015 8020 
979 1013 682 1012 8018 8016 7783 8012 8020 8014 
980 682 1013 683 7788 8016 8019 7790 5880 8021 
1013 682 716 683 8016 6105 8017 8021 5880 6106 
683 716 1014 717 6106 8022 8023 6112 6114 8024 
980 1014 981 683 8025 8026 7800 7790 8023 7795 
683 716 1013 1014 6106 8017 8021 8023 8022 8027 
980 1014 683 1013 8025 8023 7790 8019 8027 8021 
981 683 1014 684 7795 8023 8026 7797 5887 8028 
1014 683 717 684 8023 6112 8024 8028 5887 6113 
684 717 1015 718 6113 8029 8030 6119 6121 8031 
981 1015 982 684 8032 8033 7807 7797 8030 7802 
684 717 1014 1015 6113 8024 8028 8030 8029 8034 
981 1015 684 1014 8032 8030 7797 8026 8034 8028 
982 684 1015 685 7802 8030 8033 7804 5894 8035 
1015 684 718 685 8030 6119 8031 8035 5894 6120 
685 718 1016 719 6120 8036 8037 6126 6128 8038 
982 1016 983 685 8039 8040 7814 7804 8037 7809 
685 718 1015 1016 6120 8031 8035 8037 8036 8041 
982 1016 685 1015 8039 8037 7804 8033 8041 8035 
983 685 1016 686 7809 8037 8040 7811 5901 8042 
1016 685 719 686 8037 6126 8038 8042 5901 6127 
686 719 1017 720 6127 8043 8044 6133 6135 8045 
983 1017 984 686 8046 8047 7821 7811 8044 7816 
686 719 1016 1017 6127 8038 8042 8044 8043 8048 
983 1017 686 1016 8046 8044 7811 8040 8048 8042 
984 686 1017 687 7816 8044 8047 7818 5908 8049 
1017 686 720 687 8044 6133 8045 8049 5908 6134 
687 720 1018 721 6134 8050 8051 6140 6142 8052 
984 1018 985 687 8053 8054 7828 7818 8051 7823 
687 720 1017 1018 6134 8045 8049 8051 8050 8055 
984 1018 687 1017 8053 8051 7818 8047 8055 8049 
985 687 1018 688 7823 8051 8054 7825 5915 8056 
1018 687 721 688 8051 6140 8052 8056 5915 6141 
688 721 1019 722 6141 8057 8058 6147 6149 8059 
985 1019 986 688 8060 8061 7835 7825 8058 7830 
688 721 1018 1019 6141 8052 8056 8058 8057 8062 
985 1019 688 1018 8060 8058 7825 8054 8062 8056 
986 688 1019 689 7830 8058 8061 7832 5922 8063 
1019 688 722 689 8058 6147 8059 8063 5922 6148 
689 722 1020 723 6148 8064 8065 6154 6156 8066 
986 1020 987 689 8067 8068 7842 7832 8065 7837 
689 722 1019 1020 6148 8059 8063 8065 8064 8069 
986 1020 689 1019 8067 8065 7832 8061 8069 8063 
987 689 1020 690 7837 8065 8068 7839 5929 8070 
1020 689 723 690 8065 6154 8066 8070 5929 6155 
690 723 1021 724 6155 8071 8072 6161 6163 8073 
987 1021 988 690 8074 8075 7849 7839 8072 7844 
690 723 1020 1021 6155 8066 8070 8072 8071 8076 
987 1021 690 1020 8074 8072 7839 8068 8076 8070 
988 690 1021 691 7844 8072 8075 7846 5936 8077 
1021 690 724 691 8072 6161 8073 8077 5936 6162 
691 724 1022 725 6162 8078 8079 6168 6170 8080 
988 1022 989 691 8081 8082 7856 7846 8079 7851 
691 724 1021 1022 6162 8073 8077 8079 8078 8083 
988 1022 691 1021 8081 8079 7846 8075 8083 8077 
989 691 1022 692 7851 8079 8082 7853 5943 8084 
1022 691 725 692 8079 6168 8080 8084 5943 6169 
693 726 1024 727 6180 8085 8086 6175 6179 8087 
990 1024 991 693 8088 8089 7865 7863 8086 7858 
693 726 1023 1024 6180 8090 8091 8086 8085 8092 
990 1024 693 1023 8088 8086 7863 8093 8092 8091 
991 693 1024 694 7858 8086 8089 7860 5952 8094 
1024 693 727 694 8086 6175 8087 8094 5952 6176 
694 727 1025 728 6176 8095 8096 6185 6187 8097 
991 1025 992 694 8098 8099 7873 7860 8096 7868 
694 727 1024 1025 6176 8087 8094 8096 8095 8100 
991 1025 694 1024 8098 8096 7860 8089 8100 8094 
992 694 1025 695 7868 8096 8099 7870 5960 8101 
1025 694 728 695 8096 6185 8097 8101 5960 6186 
695 728 1026 729 6186 8102 8103 6192 6194 8104 
992 1026 993 695 8105 8106 7880 7870 8103 7875 
695 728 1025 1026 6186 8097 8101 8103 8102 8107 
992 1026 695 1025 8105 8103 7870 8099 8107 8101 
993 695 1026 696 7875 8103 8106 7877 5967 8108 
1026 695 729 696 8103 6192 8104 8108 5967 6193 
696 729 1027 730 6193 8109 8110 6199 6201 8111 
993 1027 994 696 8112 8113 7887 7877 8110 7882 
696 729 1026 1027 6193 8104 8108 8110 8109 8114 
993 1027 696 1026 8112 8110 7877 8106 8114 8108 
994 696 1027 697 7882 8110 8113 7884 5974 8115 
1027 696 730 697 8110 6199 8111 8115 5974 6200 
697 730 1028 731 6200 8116 8117 6206 6208 8118 
994 1028 995 697 8119 8120 7894 7884 8117 7889 
697 730 1027 1028 6200 8111 8115 8117 8116 8121 
994 1028 697 1027 8119 8117 7884 8113 8121 8115 
995 697 1028 698 7889 8117 8120 7891 5981 8122 
1028 697 731 698 8117 6206 8118 8122 5981 6207 
698 731 1029 732 6207 8123 8124 6213 6215 8125 
995 1029 996 698 8126 8127 7901 7891 8124 7896 
698 731 1028 1029 6207 8118 8122 8124 8123 8128 
995 1029 698 1028 8126 8124 7891 8120 8128 8122 
996 698 1029 699 7896 8124 8127 7898 5988 8129 
1029 698 732 699 8124 6213 8125 8129 5988 6214 
699 732 1030 733 6214 8130 8131 6220 6222 8132 
996 1030 997 699 8133 8134 7908 7898 8131 7903 
699 732 1029 1030 6214 8125 8129 8131 8130 8135 
996 1030 699 1029 8133 8131 7898 8127 8135 8129 
997 699 1030 700 7903 8131 8134 7905 5995 8136 
1030 699 733 700 8131 6220 8132 8136 5995 6221 
700 733 1031 734 6221 8137 8138 6227 6229 8139 
997 1031 998 700 8140 8141 7915 7905 8138 7910 
700 733 1030 1031 6221 8132 8136 8138 8137 8142 
997 1031 700 1030 8140 8138 7905 8134 8142 8136 
998 700 1031 701 7910 8138 8141 7912 6002 8143 
1031 700 734 701 8138 6227 8139 8143 6002 6228 
701 734 1032 735 6228 8144 8145 6234 6236 8146 
998 1032 999 701 8147 8148 7922 7912 8145 7917 
701 734 1031 1032 6228 8139 8143 8145 8144 8149 
998 1032 701 1031 8147 8145 7912 8141 8149 8143 
999 701 1032 702 7917 8145 8148 7919 6009 8150 
1032 701 735 702 8145 6234 8146 8150 6009 6235 
702 735 1033 736 6235 8151 8152 6241 6243 8153 
999 1033 1000 702 8154 8155 7929 7919 8152 7924 
702 735 1032 1033 6235 8146 8150 8152 8151 8156 
999 1033 702 1032 8154 8152 7919 8148 8156 8150 
1000 702 1033 703 7924 8152 8155 7926 6016 8157 
1033 702 736 703 8152 6241 8153 8157 6016 6242 
703 736 1034 737 6242 8158 8159 6248 6250 8160 
1000 1034 1001 703 8161 8162 7936 7926 8159 7931 
703 736 1033 1034 6242 8153 8157 8159 8158 8163 
1000 1034 703 1033 8161 8159 7926 8155 8163 8157 
1001 703 1034 704 7931 8159 8162 7933 6023 8164 
1034 703 737 704 8159 6248 8160 8164 6023 6249 
704 737 1035 738 6249 8165 8166 6255 6257 8167 
1001 1035 1002 704 8168 8169 7943 7933 8166 7938 
704 737 1034 1035 6249 8160 8164 8166 8165 8170 
1001 1035 704 1034 8168 8166 7933 8162 8170 8164 
1002 704 1035 705 7938 8166 8169 7940 6030 8171 
1035 704 738 705 8166 6255 8167 8171 6030 6256 
705 738 1036 739 6256 8172 8173 6262 6264 8174 
1002 1036 1003 705 8175 8176 7950 7940 8173 7945 
705 738 1035 1036 6256 8167 8171 8173 8172 8177 
1002 1036 705 1035 8175 8173 7940 8169 8177 8171 
1003 705 1036 706 7945 8173 8176 7947 6037 8178 
1036 705 739 706 8173 6262 8174 8178 6037 6263 
706 739 1037 740 6263 8179 8180 6269 6271 8181 
1003 1037 1004 706 8182 8183 7957 7947 8180 7952 
706 739 1036 1037 6263 8174 8178 8180 8179 8184 
1003 1037 706 1036 8182 8180 7947 8176 8184 8178 
1004 706 1037 707 7952 8180 8183 7954 6044 8185 
1037 706 740 707 8180 6269 8181 8185 6044 6270 
707 740 1038 741 6270 8186 8187 6276 6278 8188 
1004 1038 1005 707 8189 8190 7964 7954 8187 7959 
707 740 1037 1038 6270 8181 8185 8187 8186 8191 
1004 1038 707 1037 8189 8187 7954 8183 8191 8185 
1005 707 1038 708 7959 8187 8190 7961 6051 8192 
1038 707 741 708 8187 6276 8188 8192 6051 6277 
708 741 1039 742 6277 8193 8194 6283 6285 8195 
1005 1039 1006 708 8196 8197 7971 7961 8194 7966 
708 741 1038 1039 6277 8188 8192 8194 8193 8198 
1005 1039 708 1038 8196 8194 7961 8190 8198 8192 
1006 708 1039 709 7966 8194 8197 7968 6058 8199 
1039 708 742 709 8194 6283 8195 8199 6058 6284 
709 742 1040 743 6284 8200 8201 6290 6292 8202 
1006 1040 1007 709 8203 8204 7978 7968 8201 7973 
709 742 1039 1040 6284 8195 8199 8201 8200 8205 
1006 1040 709 1039 8203 8201 7968 8197 8205 8199 
1007 709 1040 710 7973 8201 8204 7975 6065 8206 
1040 709 743 710 8201 6290 8202 8206 6065 6291 
710 743 1041 744 6291 8207 8208 6297 6299 8209 
1007 1041 1008 710 8210 8211 7985 7975 8208 7980 
710 743 1040 1041 6291 8202 8206 8208 8207 8212 
1007 1041 710 1040 8210 8208 7975 8204 8212 8206 
1008 710 1041 711 7980 8208 8211 7982 6072 8213 
1041 710 744 711 8208 6297 8209 8213 6072 6298 
711 744 1042 745 6298 8214 8215 6304 6306 8216 
1008 1042 1009 711 8217 8218 7992 7982 8215 7987 
711 744 1041 1042 6298 8209 8213 8215 8214 8219 
1008 1042 711 1041 8217 8215 7982 8211 8219 8213 
1009 711 1042 712 7987 8215 8218 7989 6079 8220 
1042 711 745 712 8215 6304 8216 8220 6079 6305 
712 745 1043 746 6305 8221 8222 6311 6313 8223 
1009 1043 1010 712 8224 8225 7999 7989 8222 7994 
712 745 1042 1043 6305 8216 8220 8222 8221 8226 
1009 1043 712 1042 8224 8222 7989 8218 8226 8220 
1010 712 1043 713 7994 8222 8225 7996 6086 8227 
1043 712 746 713 8222 6311 8223 8227 6086 6312 
713 746 1044 747 6312 8228 8229 6318 6320 8230 
1010 1044 1011 713 8231 8232 8006 7996 8229 8001 
713 746 1043 1044 6312 8223 8227 8229 8228 8233 
1010 1044 713 1043 8231 8229 7996 8225 8233 8227 
1011 713 1044 714 8001 8229 8232 8003 6093 8234 
1044 713 747 714 8229 6318 8230 8234 6093 6319 
714 747 1045 748 6319 8235 8236 6325 6327 8237 
1011 1045 1012 714 8238 8239 8013 8003 8236 8008 
714 747 1044 1045 6319 8230 8234 8236 8235 8240 
1011 1045 714 1044 8238 8236 8003 8232 8240 8234 
1012 714 1045 715 8008 8236 8239 8010 6100 8241 
1045 714 748 715 8236 6325 8237 8241 6100 6326 
715 748 1046 749 6326 8242 8243 6332 6334 8244 
1012 1046 1013 715 8245 8246 8020 8010 8243 8015 
715 748 1045 1046 6326 8237 8241 8243 8242 8247 
1012 1046 715 1045 8245 8243 8010 8239 8247 8241 
1013 715 1046 716 8015 8243 8246 8017 6107 8248 
1046 715 749 716 8243 6332 8244 8248 6107 6333 
716 749 1047 750 6333 8249 8250 6339 6341 8251 
1013 1047 1014 716 8252 8253 8027 8017 8250 8022 
716 749 1046 1047 6333 8244 8248 8250 8249 8254 
1013 1047 716 1046 8252 8250 8017 8246 8254 8248 
1014 716 1047 717 8022 8250 8253 8024 6114 8255 
1047 716 750 717 8250 6339 8251 8255 6114 6340 
717 750 1048 751 6340 8256 8257 6346 6348 8258 
1014 1048 1015 717 8259 8260 8034 8024 8257 8029 
717 750 1047 1048 6340 8251 8255 8257 8256 8261 
1014 1048 717 1047 8259 8257 8024 8253 8261 8255 
1015 717 1048 718 8029 8257 8260 8031 6121 8262 
1048 717 751 718 8257 6346 8258 8262 6121 6347 
718 751 1049 752 6347 8263 8264 6353 6355 8265 
1015 1049 1016 718 8266 8267 8041 8031 8264 8036 
718 751 1048 1049 6347 8258 8262 8264 8263 8268 
1015 1049 718 1048 8266 8264 8031 8260 8268 8262 
1016 718 1049 719 8036 8264 8267 8038 6128 8269 
1049 718 752 719 8264 6353 8265 8269 6128 6354 
719 752 1050 753 6354 8270 8271 6360 6362 8272 
1016 1050 1017 719 8273 8274 8048 8038 8271 8043 
719 752 1049 1050 6354 8265 8269 8271 8270 8275 
1016 1050 719 1049 8273 8271 8038 8267 8275 8269 
1017 719 1050 720 8043 8271 8274 8045 6135 8276 
1050 719 753 720 8271 6360 8272 8276 6135 6361 
720 753 1051 754 6361 8277 8278 6367 6369 8279 
1017 1051 1018 720 8280 8281 8055 8045 8278 8050 
720 753 1050 1051 6361 8272 8276 8278 8277 8282 
1017 1051 720 1050 8280 8278 8045 8274 8282 8276 
1018 720 1051 721 8050 8278 8281 8052 6142 8283 
1051 720 754 721 8278 6367 8279 8283 6142 6368 
721 754 1052 755 6368 8284 8285 6374 6376 8286 
1018 1052 1019 721 8287 8288 8062 8052 8285 8057 
721 754 1051 1052 6368 8279 8283 8285 8284 8289 
1018 1052 721 1051 8287 8285 8052 8281 8289 8283 
1019 721 1052 722 8057 8285 8288 8059 6149 8290 
1052 721 755 722 8285 6374 8286 8290 6149 6375 
722 755 1053 756 6375 8291 8292 6381 6383 8293 
1019 1053 1020 722 8294 8295 8069 8059 8292 8064 
722 755 1052 1053 6375 8286 8290 8292 8291 8296 
1019 1053 722 1052 8294 8292 8059 8288 8296 8290 
1020 722 1053 723 8064 8292 8295 8066 6156 8297 
1053 722 756 723 8292 6381 8293 8297 6156 6382 
723 756 1054 757 6382 8298 8299 6388 6390 8300 
1020 1054 1021 723 8301 8302 8076 8066 8299 8071 
723 756 1053 1054 6382 8293 8297 8299 8298 8303 
1020 1054 723 1053 8301 8299 8066 8295 8303 8297 
1021 723 1054 724 8071 8299 8302 8073 6163 8304 
1054 723 757 724 8299 6388 8300 8304 6163 6389 
724 757 1055 758 6389 8305 8306 6395 6397 8307 
1021 1055 1022 724 8308 8309 8083 8073 8306 8078 
724 757 1054 1055 6389 8300 8304 8306 8305 8310 
1021 1055 724 1054 8308 8306 8073 8302 8310 8304 
1022 724 1055 725 8078 8306 8309 8080 6170 8311 
1055 724 758 725 8306 6395 8307 8311 6170 6396 
726 759 1057 760 6407 8312 8313 6402 6406 8314 
1023 1057 1024 726 8315 8316 8092 8090 8313 8085 
726 759 1056 1057 6407 8317 8318 8313 8312 8319 
1023 1057 726 1056 8315 8313 8090 8320 8319 8318 
1024 726 1057 727 8085 8313 8316 8087 6179 8321 
1057 726 760 727 8313 6402 8314 8321 6179 6403 
727 760 1058 761 6403 8322 8323 6412 6414 8324 
1024 1058 1025 727 8325 8326 8100 8087 8323 8095 
727 760 1057 1058 6403 8314 8321 8323 8322 8327 
1024 1058 727 1057 8325 8323 8087 8316 8327 8321 
1025 727 1058 728 8095 8323 8326 8097 6187 8328 
1058 727 761 728 8323 6412 8324 8328 6187 6413 
728 761 1059 762 6413 8329 8330 6419 6421 8331 
1025 1059 1026 728 8332 8333 8107 8097 8330 8102 
728 761 1058 1059 6413 8324 8328 8330 8329 8334 
1025 1059 728 1058 8332 8330 8097 8326 8334 8328 
1026 728 1059 729 8102 8330 8333 8104 6194 8335 
1059 728 762 729 8330 6419 8331 8335 6194 6420 
729 762 1060 763 6420 8336 8337 6426 6428 8338 
1026 1060 1027 729 8339 8340 8114 8104 8337 8109 
729 762 1059 1060 6420 8331 8335 8337 8336 8341 
1026 1060 729 1059 8339 8337 8104 8333 8341 8335 
1027 729 1060 730 8109 8337 8340 8111 6201 8342 
1060 729 763 730 8337 6426 8338 8342 6201 6427 
730 763 1061 764 6427 8343 8344 6433 6435 8345 
1027 1061 1028 730 8346 8347 8121 8111 8344 8116 
730 763 1060 1061 6427 8338 8342 8344 8343 8348 
1027 1061 730 1060 8346 8344 8111 8340 8348 8342 
1028 730 1061 731 8116 8344 8347 8118 6208 8349 
1061 730 764 731 8344 6433 8345 8349 6208 6434 
731 764 1062 765 6434 8350 8351 6440 6442 8352 
1028 1062 1029 731 8353 8354 8128 8118 8351 8123 
731 764 1061 1062 6434 8345 8349 8351 8350 8355 
1028 1062 731 1061 8353 8351 8118 8347 8355 8349 
1029 731 1062 732 8123 8351 8354 8125 6215 8356 
1062 731 765 732 8351 6440 8352 8356 6215 6441 
732 765 1063 766 6441 8357 8358 6447 6449 8359 
1029 1063 1030 732 8360 8361 8135 8125 8358 8130 
732 765 1062 1063 6441 8352 8356 8358 8357 8362 
1029 1063 732 1062 8360 8358 8125 8354 8362 8356 
1030 732 1063 733 8130 8358 8361 8132 6222 8363 
1063 732 766 733 8358 6447 8359 8363 6222 6448 
733 766 1064 767 6448 8364 8365 6454 6456 8366 
1030 1064 1031 733 8367 8368 8142 8132 8365 8137 
733 766 1063 1064 6448 8359 8363 8365 8364 8369 
1030 1064 733 1063 8367 8365 8132 8361 8369 8363 
1031 733 1064 734 8137 8365 8368 8139 6229 8370 
1064 733 767 734 8365 6454 8366 8370 6229 6455 
734 767 1065 768 6455 8371 8372 6461 6463 8373 
1031 1065 1032 734 8374 8375 8149 8139 8372 8144 
734 767 1064 1065 6455 8366 8370 8372 8371 8376 
1031 1065 734 1064 8374 8372 8139 8368 8376 8370 
1032 734 1065 735 8144 8372 8375 8146 6236 8377 
1065 734 768 735 8372 6461 8373 8377 6236 6462 
735 768 1066 769 6462 8378 8379 6468 6470 8380 
1032 1066 1033 735 8381 8382 8156 8146 8379 8151 
735 768 1065 1066 6462 8373 8377 8379 8378 8383 
1032 1066 735 1065 8381 8379 8146 8375 8383 8377 
1033 735 1066 736 8151 8379 8382 8153 6243 8384 
1066 735 769 736 8379 6468 8380 8384 6243 6469 
736 769 1067 770 6469 8385 8386 6475 6477 8387 
1033 1067 1034 736 8388 8389 8163 8153 8386 8158 
736 769 1066 1067 6469 8380 8384 8386 8385 8390 
1033 1067 736 1066 8388 8386 8153 8382 8390 8384 
1034 736 1067 737 8158 8386 8389 8160 6250 8391 
1067 736 770 737 8386 6475 8387 8391 6250 6476 
737 770 1068 771 6476 8392 8393 6482 6484 8394 
1034 1068 1035 737 8395 8396 8170 8160 8393 8165 
737 770 1067 1068 6476 8387 8391 8393 8392 8397 
1034 1068 737 1067 8395 8393 8160 8389 8397 8391 
1035 737 1068 738 8165 8393 8396 8167 6257 8398 
1068 737 771 738 8393 6482 8394 8398 6257 6483 
738 771 1069 772 6483 8399 8400 6489 6491 8401 
1035 1069 1036 738 8402 8403 8177 8167 8400 8172 
738 771 1068 1069 6483 8394 8398 8400 8399 8404 
1035 1069 738 1068 8402 8400 8167 8396 8404 8398 
1036 738 1069 739 8172 8400 8403 8174 6264 8405 
1069 738 772 739 8400 6489 8401 8405 6264 6490 
739 772 1070 773 6490 8406 8407 6496 6498 8408 
1036 1070 1037 739 8409 8410 8184 8174 8407 8179 
739 772 1069 1070 6490 8401 8405 8407 8406 8411 
1036 1070 739 1069 8409 8407 8174 8403 8411 8405 
1037 739 1070 740 8179 8407 8410 8181 6271 8412 
1070 739 773 740 8407 6496 8408 8412 6271 6497 
740 773 1071 774 6497 8413 8414 6503 6505 8415 
1037 1071 1038 740 8416 8417 8191 8181 8414 8186 
740 773 1070 1071 6497 8408 8412 8414 8413 8418 
1037 1071 740 1070 8416 8414 8181 8410 8418 8412 
1038 740 1071 741 8186 8414 8417 8188 6278 8419 
1071 740 774 741 8414 6503 8415 8419 6278 6504 
741 774 1072 775 6504 8420 8421 6510 6512 8422 
1038 1072 1039 741 8423 8424 8198 8188 8421 8193 
741 774 1071 1072 6504 8415 8419 8421 8420 8425 
1038 1072 741 1071 8423 8421 8188 8417 8425 8419 
1039 741 1072 742 8193 8421 8424 8195 6285 8426 
1072 741 775 742 8421 6510 8422 8426 6285 6511 
742 775 1073 776 6511 8427 8428 6517 6519 8429 
1039 1073 1040 742 8430 8431 8205 8195 8428 8200 
742 775 1072 1073 6511 8422 8426 8428 8427 8432 
1039 1073 742 1072 8430 8428 8195 8424 8432 8426 
1040 742 1073 743 8200 8428 8431 8202 6292 8433 
1073 742 776 743 8428 6517 8429 8433 6292 6518 
743 776 1074 777 6518 8434 8435 6524 6526 8436 
1040 1074 1041 743 8437 8438 8212 8202 8435 8207 
743 776 1073 1074 6518 8429 8433 8435 8434 8439 
1040 1074 743 1073 8437 8435 8202 8431 8439 8433 
1041 743 1074 744 8207 8435 8438 8209 6299 8440 
1074 743 777 744 8435 6524 8436 8440 6299 6525 
744 777 1075 778 6525 8441 8442 6531 6533 8443 
1041 1075 1042 744 8444 8445 8219 8209 8442 8214 
744 777 1074 1075 6525 8436 8440 8442 8441 8446 
1041 1075 744 1074 8444 8442 8209 8438 8446 8440 
1042 744 1075 745 8214 8442 8445 8216 6306 8447 
1075 744 778 745 8442 6531 8443 8447 6306 6532 
745 778 1076 779 6532 8448 8449 6538 6540 8450 
1042 1076 1043 745 8451 8452 8226 8216 8449 8221 
745 778 1075 1076 6532 8443 8447 8449 8448 8453 
1042 1076 745 1075 8451 8449 8216 8445 8453 8447 
1043 745 1076 746 8221 8449 8452 8223 6313 8454 
1076 745 779 746 8449 6538 8450 8454 6313 6539 
746 779 1077 780 6539 8455 8456 6545 6547 8457 
1043 1077 1044 746 8458 8459 8233 8223 8456 8228 
746 779 1076 1077 6539 8450 8454 8456 8455 8460 
1043 1077 746 1076 8458 8456 8223 8452 8460 8454 
1044 746 1077 747 8228 8456 8459 8230 6320 8461 
1077 746 780 747 8456 6545 8457 8461 6320 6546 
747 780 1078 781 6546 8462 8463 6552 6554 8464 
1044 1078 1045 747 8465 8466 8240 8230 8463 8235 
747 780 1077 1078 6546 8457 8461 8463 8462 8467 
1044 1078 747 1077 8465 8463 8230 8459 8467 8461 
1045 747 1078 748 8235 8463 8466 8237 6327 8468 
1078 747 781 748 8463 6552 8464 8468 6327 6553 
748 781 1079 782 6553 8469 8470 6559 6561 8471 
1045 1079 1046 748 8472 8473 8247 8237 8470 8242 
748 781 1078 1079 6553 8464 8468 8470 8469 8474 
1045 1079 748 1078 8472 8470 8237 8466 8474 8468 
1046 748 1079 749 8242 8470 8473 8244 6334 8475 
1079 748 782 749 8470 6559 8471 8475 6334 6560 
749 782 1080 783 6560 8476 8477 6566 6568 8478 
1046 1080 1047 749 8479 8480 8254 8244 8477 8249 
749 782 1079 1080 6560 8471 8475 8477 8476 8481 
1046 1080 749 1079 8479 8477 8244 8473 8481 8475 
1047 749 1080 750 8249 8477 8480 8251 6341 8482 
1080 749 783 750 8477 6566 8478 8482 6341 6567 
750 783 1081 784 6567 8483 8484 6573 6575 8485 
1047 1081 1048 750 8486 8487 8261 8251 8484 8256 
750 783 1080 1081 6567 8478 8482 8484 8483 8488 
1047 1081 750 1080 8486 8484 8251 8480 8488 8482 
1048 750 1081 751 8256 8484 8487 8258 6348 8489 
1081 750 784 751 8484 6573 8485 8489 6348 6574 
751 784 1082 785 6574 8490 8491 6580 6582 8492 
1048 1082 1049 751 8493 8494 8268 8258 8491 8263 
751 784 1081 1082 6574 8485 8489 8491 8490 8495 
1048 1082 751 1081 8493 8491 8258 8487 8495 8489 
1049 751 1082 752 8263 8491 8494 8265 6355 8496 
1082 751 785 752 8491 6580 8492 8496 6355 6581 
752 785 1083 786 6581 8497 8498 6587 6589 8499 
1049 1083 1050 752 8500 8501 8275 8265 8498 8270 
752 785 1082 1083 6581 8492 8496 8498 8497 8502 
1049 1083 752 1082 8500 8498 8265 8494 8502 8496 
1050 752 1083 753 8270 8498 8501 8272 6362 8503 
1083 752 786 753 8498 6587 8499 8503 6362 6588 
753 786 1084 787 6588 8504 8505 6594 6596 8506 
1050 1084 1051 753 8507 8508 8282 8272 8505 8277 
753 786 1083 1084 6588 8499 8503 8505 8504 8509 
1050 1084 753 1083 8507 8505 8272 8501 8509 8503 
1051 753 1084 754 8277 8505 8508 8279 6369 8510 
1084 753 787 754 8505 6594 8506 8510 6369 6595 
754 787 1085 788 6595 8511 8512 6601 6603 8513 
1051 1085 1052 754 8514 8515 8289 8279 8512 8284 
754 787 1084 1085 6595 8506 8510 8512 8511 8516 
1051 1085 754 1084 8514 8512 8279 8508 8516 8510 
1052 754 1085 755 8284 8512 8515 8286 6376 8517 
1085 754 788 755 8512 6601 8513 8517 6376 6602 
755 788 1086 789 6602 8518 8519 6608 6610 8520 
1052 1086 1053 755 8521 8522 8296 8286 8519 8291 
755 788 1085 1086 6602 8513 8517 8519 8518 8523 
1052 1086 755 1085 8521 8519 8286 8515 8523 8517 
1053 755 1086 756 8291 8519 8522 8293 6383 8524 
1086 755 789 756 8519 6608 8520 8524 6383 6609 
756 789 1087 790 6609 8525 8526 6615 6617 8527 
1053 1087 1054 756 8528 8529 8303 8293 8526 8298 
756 789 1086 1087 6609 8520 8524 8526 8525 8530 
1053 1087 756 1086 8528 8526 8293 8522 8530 8524 
1054 756 1087 757 8298 8526 8529 8300 6390 8531 
1087 756 790 757 8526 6615 8527 8531 6390 6616 
757 790 1088 791 6616 8532 8533 6622 6624 8534 
1054 1088 1055 757 8535 8536 8310 8300 8533 8305 
757 790 1087 1088 6616 8527 8531 8533 8532 8537 
1054 1088 757 1087 8535 8533 8300 8529 8537 8531 
1055 757 1088 758 8305 8533 8536 8307 6397 8538 
1088 757 791 758 8533 6622 8534 8538 6397 6623 
759 792 1090 793 6634 8539 8540 6629 6633 8541 
1056 1090 1057 759 8542 8543 8319 8317 8540 8312 
759 792 1089 1090 6634 8544 8545 8540 8539 8546 
1056 1090 759 1089 8542 8540 8317 8547 8546 8545 
1057 759 1090 760 8312 8540 8543 8314 6406 8548 
1090 759 793 760 8540 6629 8541 8548 6406 6630 
760 793 1091 794 6630 8549 8550 6639 6641 8551 
1057 1091 1058 760 8552 8553 8327 8314 8550 8322 
760 793 1090 1091 6630 8541 8548 8550 8549 8554 
1057 1091 760 1090 8552 8550 8314 8543 8554 8548 
1058 760 1091 761 8322 8550 8553 8324 6414 8555 
1091 760 794 761 8550 6639 8551 8555 6414 6640 
761 794 1092 795 6640 8556 8557 6646 6648 8558 
1058 1092 1059 761 8559 8560 8334 8324 8557 8329 
761 794 1091 1092 6640 8551 8555 8557 8556 8561 
1058 1092 761 1091 8559 8557 8324 8553 8561 8555 
1059 761 1092 762 8329 8557 8560 8331 6421 8562 
1092 761 795 762 8557 6646 8558 8562 6421 6647 
762 795 1093 796 6647 8563 8564 6653 6655 8565 
1059 1093 1060 762 8566 8567 8341 8331 8564 8336 
762 795 1092 1093 6647 8558 8562 8564 8563 8568 
1059 1093 762 1092 8566 8564 8331 8560 8568 8562 
1060 762 1093 763 8336 8564 8567 8338 6428 8569 
1093 762 796 763 8564 6653 8565 8569 6428 6654 
763 796 1094 797 6654 8570 8571 6660 6662 8572 
1060 1094 1061 763 8573 8574 8348 8338 8571 8343 
763 796 1093 1094 6654 8565 8569 8571 8570 8575 
1060 1094 763 1093 8573 8571 8338 8567 8575 8569 
1061 763 1094 764 8343 8571 8574 8345 6435 8576 
1094 763 797 764 8571 6660 8572 8576 6435 6661 
764 797 1095 798 6661 8577 8578 6667 6669 8579 
1061 1095 1062 764 8580 8581 8355 8345 8578 8350 
764 797 1094 1095 6661 8572 8576 8578 8577 8582 
1061 1095 764 1094 8580 8578 8345 8574 8582 8576 
1062 764 1095 765 8350 8578 8581 8352 6442 8583 
1095 764 798 765 8578 6667 8579 8583 6442 6668 
765 798 1096 799 6668 8584 8585 6674 6676 8586 
1062 1096 1063 765 8587 8588 8362 8352 8585 8357 
765 798 1095 1096 6668 8579 8583 8585 8584 8589 
1062 1096 765 1095 8587 8585 8352 8581 8589 8583 
1063 765 1096 766 8357 8585 8588 8359 6449 8590 
1096 765 799 766 8585 6674 8586 8590 6449 6675 
766 799 1097 800 6675 8591 8592 6681 6683 8593 
1063 1097 1064 766 8594 8595 8369 8359 8592 8364 
766 799 1096 1097 6675 8586 8590 8592 8591 8596 
1063 1097 766 1096 8594 8592 8359 8588 8596 8590 
1064 766 1097 767 8364 8592 8595 8366 6456 8597 
1097 766 800 767 8592 6681 8593 8597 6456 6682 
767 800 1098 801 6682 8598 8599 6688 6690 8600 
1064 1098 1065 767 8601 8602 8376 8366 8599 8371 
767 800 1097 1098 6682 8593 8597 8599 8598 8603 
1064 1098 767 1097 8601 8599 8366 8595 8603 8597 
1065 767 1098 768 8371 8599 8602 8373 6463 8604 
1098 767 801 768 8599 6688 8600 8604 6463 6689 
768 801 1099 802 6689 8605 8606 6695 6697 8607 
1065 1099 1066 768 8608 8609 8383 8373 8606 8378 
768 801 1098 1099 6689 8600 8604 8606 8605 8610 
1065 1099 768 1098 8608 8606 8373 8602 8610 8604 
1066 768 1099 769 8378 8606 8609 8380 6470 8611 
1099 768 802 769 8606 6695 8607 8611 6470 6696 
769 802 1100 803 6696 8612 8613 6702 6704 8614 
1066 1100 1067 769 8615 8616 8390 8380 8613 8385 
769 802 1099 1100 6696 8607 8611 8613 8612 8617 
1066 1100 769 1099 8615 8613 8380 8609 8617 8611 
1067 769 1100 770 8385 8613 8616 8387 6477 8618 
1100 769 803 770 8613 6702 8614 8618 6477 6703 
770 803 1101 804 6703 8619 8620 6709 6711 8621 
1067 1101 1068 770 8622 8623 8397 8387 8620 8392 
770 803 1100 1101 6703 8614 8618 8620 8619 8624 
1067 1101 770 1100 8622 8620 8387 8616 8624 8618 
1068 770 1101 771 8392 8620 8623 8394 6484 8625 
1101 770 804 771 8620 6709 8621 8625 6484 6710 
771 804 1102 805 6710 8626 8627 6716 6718 8628 
1068 1102 1069 771 8629 8630 8404 8394 8627 8399 
771 804 1101 1102 6710 8621 8625 8627 8626 8631 
1068 1102 771 1101 8629 8627 8394 8623 8631 8625 
1069 771 1102 772 8399 8627 8630 8401 6491 8632 
1102 771 805 772 8627 6716 8628 8632 6491 6717 
772 805 1103 806 6717 8633 8634 6723 6725 8635 
1069 1103 1070 772 8636 8637 8411 8401 8634 8406 
772 805 1102 1103 6717 8628 8632 8634 8633 8638 
1069 1103 772 1102 8636 8634 8401 8630 8638 8632 
1070 772 1103 773 8406 8634 8637 8408 6498 8639 
1103 772 806 773 8634 6723 8635 8639 6498 6724 
773 806 1104 807 6724 8640 8641 6730 6732 8642 
1070 1104 1071 773 8643 8644 8418 8408 8641 8413 
773 806 1103 1104 6724 8635 8639 8641 8640 8645 
1070 1104 773 1103 8643 8641 8408 8637 8645 8639 
1071 773 1104 774 8413 8641 8644 8415 6505 8646 
1104 773 807 774 8641 6730 8642 8646 6505 6731 
774 807 1105 808 6731 8647 8648 6737 6739 8649 
1071 1105 1072 774 8650 8651 8425 8415 8648 8420 
774 807 1104 1105 6731 8642 8646 8648 8647 8652 
1071 1105 774 1104 8650 8648 8415 8644 8652 8646 
1072 774 1105 775 8420 8648 8651 8422 6512 8653 
1105 774 808 775 8648 6737 8649 8653 6512 6738 
775 808 1106 809 6738 8654 8655 6744 6746 8656 
1072 1106 1073 775 8657 8658 8432 8422 8655 8427 
775 808 1105 1106 6738 8649 8653 8655 8654 8659 
1072 1106 775 1105 8657 8655 8422 8651 8659 8653 
1073 775 1106 776 8427 8655 8658 8429 6519 8660 
1106 775 809 776 8655 6744 8656 8660 6519 6745 
776 809 1107 810 6745 8661 8662 6751 6753 8663 
1073 1107 1074 776 8664 8665 8439 8429 8662 8434 
776 809 1106 1107 6745 8656 8660 8662 8661 8666 
1073 1107 776 1106 8664 8662 8429 8658 8666 8660 
1074 776 1107 777 8434 8662 8665 8436 6526 8667 
1107 776 810 777 8662 6751 8663 8667 6526 6752 
777 810 1108 811 6752 8668 8669 6758 6760 8670 
1074 1108 1075 777 8671 8672 8446 8436 8669 8441 
777 810 1107 1108 6752 8663 8667 8669 8668 8673 
1074 1108 777 1107 8671 8669 8436 8665 8673 8667 
1075 777 1108 778 8441 8669 8672 8443 6533 8674 
1108 777 811 778 8669 6758 8670 8674 6533 6759 
778 811 1109 812 6759 8675 8676 6765 6767 8677 
1075 1109 1076 778 8678 8679 8453 8443 8676 8448 
778 811 1108 1109 6759 8670 8674 8676 8675 8680 
1075 1109 778 1108 8678 8676 8443 8672 8680 8674 
1076 778 1109 779 8448 8676 8679 8450 6540 8681 
1109 778 812 779 8676 6765 8677 8681 6540 6766 
779 812 1110 813 6766 8682 8683 6772 6774 8684 
1076 1110 1077 779 8685 8686 8460 8450 8683 8455 
779 812 1109 1110 6766 8677 8681 8683 8682 8687 
1076 1110 779 1109 8685 8683 8450 8679 8687 8681 
1077 779 1110 780 8455 8683 8686 8457 6547 8688 
1110 779 813 780 8683 6772 8684 8688 6547 6773 
780 813 1111 814 6773 8689 8690 6779 6781 8691 
1077 1111 1078 780 8692 8693 8467 8457 8690 8462 
780 813 1110 1111 6773 8684 8688 8690 8689 8694 
1077 1111 780 1110 8692 8690 8457 8686 8694 8688 
1078 780 1111 781 8462 8690 8693 8464 6554 8695 
1111 780 814 781 8690 6779 8691 8695 6554 6780 
781 814 1112 815 6780 8696 8697 6786 6788 8698 
1078 1112 1079 781 8699 8700 8474 8464 8697 8469 
781 814 1111 1112 6780 8691 8695 8697 8696 8701 
1078 1112 781 1111 8699 8697 8464 8693 8701 8695 
1079 781 1112 782 8469 8697 8700 8471 6561 8702 
1112 781 815 782 8697 6786 8698 8702 6561 6787 
782 815 1113 816 6787 8703 8704 6793 6795 8705 
1079 1113 1080 782 8706 8707 8481 8471 8704 8476 
782 815 1112 1113 6787 8698 8702 8704 8703 8708 
1079 1113 782 1112 8706 8704 8471 8700 8708 8702 
1080 782 1113 783 8476 8704 8707 8478 6568 8709 
1113 782 816 783 8704 6793 8705 8709 6568 6794 
783 816 1114 817 6794 8710 8711 6800 6802 8712 
1080 1114 1081 783 8713 8714 8488 8478 8711 8483 
783 816 1113 1114 6794 8705 8709 8711 8710 8715 
1080 1114 783 1113 8713 8711 8478 8707 8715 8709 
1081 783 1114 784 8483 8711 8714 8485 6575 8716 
1114 783 817 784 8711 6800 8712 8716 6575 6801 
784 817 1115 818 6801 8717 8718 6807 6809 8719 
1081 1115 1082 784 8720 8721 8495 8485 8718 8490 
784 817 1114 1115 6801 8712 8716 8718 8717 8722 
1081 1115 784 1114 8720 8718 8485 8714 8722 8716 
1082 784 1115 785 8490 8718 8721 8492 6582 8723 
1115 784 818 785 8718 6807 8719 8723 6582 6808 
785 818 1116 819 6808 8724 8725 6814 6816 8726 
1082 1116 1083 785 8727 8728 8502 8492 8725 8497 
785 818 1115 1116 6808 8719 8723 8725 8724 8729 
1082 1116 785 1115 8727 8725 8492 8721 8729 8723 
1083 785 1116 786 8497 8725 8728 8499 6589 8730 
1116 785 819 786 8725 6814 8726 8730 6589 6815 
786 819 1117 820 6815 8731 8732 6821 6823 8733 
1083 1117 1084 786 8734 8735 8509 8499 8732 8504 
786 819 1116 1117 6815 8726 8730 8732 8731 8736 
1083 1117 786 1116 8734 8732 8499 8728 8736 8730 
1084 786 1117 787 8504 8732 8735 8506 6596 8737 
1117 786 820 787 8732 6821 8733 8737 6596 6822 
787 820 1118 821 6822 8738 8739 6828 6830 8740 
1084 1118 1085 787 8741 8742 8516 8506 8739 8511 
787 820 1117 1118 6822 8733 8737 8739 8738 8743 
1084 1118 787 1117 8741 8739 8506 8735 8743 8737 
1085 787 1118 788 8511 8739 8742 8513 6603 8744 
1118 787 821 788 8739 6828 8740 8744 6603 6829 
788 821 1119 822 6829 8745 8746 6835 6837 8747 
1085 1119 1086 788 8748 8749 8523 8513 8746 8518 
788 821 1118 1119 6829 8740 8744 8746 8745 8750 
1085 1119 788 1118 8748 8746 8513 8742 8750 8744 
1086 788 1119 789 8518 8746 8749 8520 6610 8751 
1119 788 822 789 8746 6835 8747 8751 6610 6836 
789 822 1120 823 6836 8752 8753 6842 6844 8754 
1086 1120 1087 789 8755 8756 8530 8520 8753 8525 
789 822 1119 1120 6836 8747 8751 8753 8752 8757 
1086 1120 789 1119 8755 8753 8520 8749 8757 8751 
1087 789 1120 790 8525 8753 8756 8527 6617 8758 
1120 789 823 790 8753 6842 8754 8758 6617 6843 
790 823 1121 824 6843 8759 8760 6849 6851 8761 
1087 1121 1088 790 8762 8763 8537 8527 8760 8532 
790 823 1120 1121 6843 8754 8758 8760 8759 8764 
1087 1121 790 1120 8762 8760 8527 8756 8764 8758 
1088 790 1121 791 8532 8760 8763 8534 6624 8765 
1121 790 824 791 8760 6849 8761 8765 6624 6850 
792 825 1123 826 6861 8766 8767 6856 6860 8768 
1089 1123 1090 792 8769 8770 8546 8544 8767 8539 
792 825 1122 1123 6861 8771 8772 8767 8766 8773 
1089 1123 792 1122 8769 8767 8544 8774 8773 8772 
1090 792 1123 793 8539 8767 8770 8541 6633 8775 
1123 792 826 793 8767 6856 8768 8775 6633 6857 
793 826 1124 827 6857 8776 8777 6866 6868 8778 
1090 1124 1091 793 8779 8780 8554 8541 8777 8549 
793 826 1123 1124 6857 8768 8775 8777 8776 8781 
1090 1124 793 1123 8779 8777 8541 8770 8781 8775 
1091 793 1124 794 8549 8777 8780 8551 6641 8782 
1124 793 827 794 8777 6866 8778 8782 6641 6867 
794 827 1125 828 6867 8783 8784 6873 6875 8785 
1091 1125 1092 794 8786 8787 8561 8551 8784 8556 
794 827 1124 1125 6867 8778 8782 8784 8783 8788 
1091 1125 794 1124 8786 8784 8551 8780 8788 8782 
1092 794 1125 795 8556 8784 8787 8558 6648 8789 
1125 794 828 795 8784 6873 8785 8789 6648 6874 
795 828 1126 829 6874 8790 8791 6880 6882 8792 
1092 1126 1093 795 8793 8794 8568 8558 8791 8563 
795 828 1125 1126 6874 8785 8789 8791 8790 8795 
1092 1126 795 1125 8793 8791 8558 8787 8795 8789 
1093 795 1126 796 8563 8791 8794 8565 6655 8796 
1126 795 829 796 8791 6880 8792 8796 6655 6881 
796 829 1127 830 6881 8797 8798 6887 6889 8799 
1093 1127 1094 796 8800 8801 8575 8565 8798 8570 
796 829 1126 1127 6881 8792 8796 8798 8797 8802 
1093 1127 796 1126 8800 8798 8565 8794 8802 8796 
1094 796 1127 797 8570 8798 8801 8572 6662 8803 
1127 796 830 797 8798 6887 8799 8803 6662 6888 
797 830 1128 831 6888 8804 8805 6894 6896 8806 
1094 1128 1095 797 8807 8808 8582 8572 8805 8577 
797 830 1127 1128 6888 8799 8803 8805 8804 8809 
1094 1128 797 1127 8807 8805 8572 8801 8809 8803 
1095 797 1128 798 8577 8805 8808 8579 6669 8810 
1128 797 831 798 8805 6894 8806 8810 6669 6895 
798 831 1129 832 6895 8811 8812 6901 6903 8813 
1095 1129 1096 798 8814 8815 8589 8579 8812 8584 
798 831 1128 1129 6895 8806 8810 8812 8811 8816 
1095 1129 798 1128 8814 8812 8579 8808 8816 8810 
1096 798 1129 799 8584 8812 8815 8586 6676 8817 
1129 798 832 799 8812 6901 8813 8817 6676 6902 
799 832 1130 833 6902 8818 8819 6908 6910 8820 
1096 1130 1097 799 8821 8822 8596 8586 8819 8591 
799 832 1129 1130 6902 8813 8817 8819 8818 8823 
1096 1130 799 1129 8821 8819 8586 8815 8823 8817 
1097 799 1130 800 8591 8819 8822 8593 6683 8824 
1130 799 833 800 8819 6908 8820 8824 6683 6909 
800 833 1131 834 6909 8825 8826 6915 6917 8827 
1097 1131 1098 800 8828 8829 8603 8593 8826 8598 
800 833 1130 1131 6909 8820 8824 8826 8825 8830 
1097 1131 800 1130 8828 8826 8593 8822 8830 8824 
1098 800 1131 801 8598 8826 8829 8600 6690 8831 
1131 800 834 801 8826 6915 8827 8831 6690 6916 
801 834 1132 835 6916 8832 8833 6922 6924 8834 
1098 1132 1099 801 8835 8836 8610 8600 8833 8605 
801 834 1131 1132 6916 8827 8831 8833 8832 8837 
1098 1132 801 1131 8835 8833 8600 8829 8837 8831 
1099 801 1132 802 8605 8833 8836 8607 6697 8838 
1132 801 835 802 8833 6922 8834 8838 6697 6923 
802 835 1133 836 6923 8839 8840 6929 6931 8841 
1099 1133 1100 802 8842 8843 8617 8607 8840 8612 
802 835 1132 1133 6923 8834 8838 8840 8839 8844 
1099 1133 802 1132 8842 8840 8607 8836 8844 8838 
1100 802 1133 803 8612 8840 8843 8614 6704 8845 
1133 802 836 803 8840 6929 8841 8845 6704 6930 
803 836 1134 837 6930 8846 8847 6936 6938 8848 
1100 1134 1101 803 8849 8850 8624 8614 8847 8619 
803 836 1133 1134 6930 8841 8845 8847 8846 8851 
1100 1134 803 1133 8849 8847 8614 8843 8851 8845 
1101 803 1134 804 8619 8847 8850 8621 6711 8852 
1134 803 837 804 8847 6936 8848 8852 6711 6937 
804 837 1135 838 6937 8853 8854 6943 6945 8855 
1101 1135 1102 804 8856 8857 8631 8621 8854 8626 
804 837 1134 1135 6937 8848 8852 8854 8853 8858 
1101 1135 804 1134 8856 8854 8621 8850 8858 8852 
1102 804 1135 805 8626 8854 8857 8628 6718 8859 
1135 804 838 805 8854 6943 8855 8859 6718 6944 
805 838 1136 839 6944 8860 8861 6950 6952 8862 
1102 1136 1103 805 8863 8864 8638 8628 8861 8633 
805 838 1135 1136 6944 8855 8859 8861 8860 8865 
1102 1136 805 1135 8863 8861 8628 8857 8865 8859 
1103 805 1136 806 8633 8861 8864 8635 6725 8866 
1136 805 839 806 8861 6950 8862 8866 6725 6951 
806 839 1137 840 6951 8867 8868 6957 6959 8869 
1103 1137 1104 806 8870 8871 8645 8635 8868 8640 
806 839 1136 1137 6951 8862 8866 8868 8867 8872 
1103 1137 806 1136 8870 8868 8635 8864 8872 8866 
1104 806 1137 807 8640 8868 8871 8642 6732 8873 
1137 806 840 807 8868 6957 8869 8873 6732 6958 
807 840 1138 841 6958 8874 8875 6964 6966 8876 
1104 1138 1105 807 8877 8878 8652 8642 8875 8647 
807 840 1137 1138 6958 8869 8873 8875 8874 8879 
1104 1138 807 1137 8877 8875 8642 8871 8879 8873 
1105 807 1138 808 8647 8875 8878 8649 6739 8880 
1138 807 841 808 8875 6964 8876 8880 6739 6965 
808 841 1139 842 6965 8881 8882 6971 6973 8883 
1105 1139 1106 808 8884 8885 8659 8649 8882 8654 
808 841 1138 1139 6965 8876 8880 8882 8881 8886 
1105 1139 808 1138 8884 8882 8649 8878 8886 8880 
1106 808 1139 809 8654 8882 8885 8656 6746 8887 
1139 808 842 809 8882 6971 8883 8887 6746 6972 
809 842 1140 843 6972 8888 8889 6978 6980 8890 
1106 1140 1107 809 8891 8892 8666 8656 8889 8661 
809 842 1139 1140 6972 8883 8887 8889 8888 8893 
1106 1140 809 1139 8891 8889 8656 8885 8893 8887 
1107 809 1140 810 8661 8889 8892 8663 6753 8894 
1140 809 843 810 8889 6978 8890 8894 6753 6979 
810 843 1141 844 6979 8895 8896 6985 6987 8897 
1107 1141 1108 810 8898 8899 8673 8663 8896 8668 
810 843 1140 1141 6979 8890 8894 8896 8895 8900 
1107 1141 810 1140 8898 8896 8663 8892 8900 8894 
1108 810 1141 811 8668 8896 8899 8670 6760 8901 
1141 810 844 811 8896 6985 8897 8901 6760 6986 
811 844 1142 845 6986 8902 8903 6992 6994 8904 
1108 1142 1109 811 8905 8906 8680 8670 8903 8675 
811 844 1141 1142 6986 8897 8901 8903 8902 8907 
1108 1142 811 1141 8905 8903 8670 8899 8907 8901 
1109 811 1142 812 8675 8903 8906 8677 6767 8908 
1142 811 845 812 8903 6992 8904 8908 6767 6993 
812 845 1143 846 6993 8909 8910 6999 7001 8911 
1109 1143 1110 812 8912 8913 8687 8677 8910 8682 
812 845 1142 1143 6993 8904 8908 8910 8909 8914 
1109 1143 812 1142 8912 8910 8677 8906 8914 8908 
1110 812 1143 813 8682 8910 8913 8684 6774 8915 
1143 812 846 813 8910 6999 8911 8915 6774 7000 
813 846 1144 847 7000 8916 8917 7006 7008 8918 
1110 1144 1111 813 8919 8920 8694 8684 8917 8689 
813 846 1143 1144 7000 8911 8915 8917 8916 8921 
1110 1144 813 1143 8919 8917 8684 8913 8921 8915 
1111 813 1144 814 8689 8917 8920 8691 6781 8922 
1144 813 847 814 8917 7006 8918 8922 6781 7007 
814 847 1145 848 7007 8923 8924 7013 7015 8925 
1111 1145 1112 814 8926 8927 8701 8691 8924 8696 
814 847 1144 1145 7007 8918 8922 8924 8923 8928 
1111 1145 814 1144 8926 8924 8691 8920 8928 8922 
1112 814 1145 815 8696 8924 8927 8698 6788 8929 
1145 814 848 815 8924 7013 8925 8929 6788 7014 
815 848 1146 849 7014 8930 8931 7020 7022 8932 
1112 1146 1113 815 8933 8934 8708 8698 8931 8703 
815 848 1145 1146 7014 8925 8929 8931 8930 8935 
1112 1146 815 1145 8933 8931 8698 8927 8935 8929 
1113 815 1146 816 8703 8931 8934 8705 6795 8936 
1146 815 849 816 8931 7020 8932 8936 6795 7021 
816 849 1147 850 7021 8937 8938 7027 7029 8939 
1113 1147 1114 816 8940 8941 8715 8705 8938 8710 
816 849 1146 1147 7021 8932 8936 8938 8937 8942 
1113 1147 816 1146 8940 8938 8705 8934 8942 8936 
1114 816 1147 817 8710 8938 8941 8712 6802 8943 
1147 816 850 817 8938 7027 8939 8943 6802 7028 
817 850 1148 851 7028 8944 8945 7034 7036 8946 
1114 1148 1115 817 8947 8948 8722 8712 8945 8717 
817 850 1147 1148 7028 8939 8943 8945 8944 8949 
1114 1148 817 1147 8947 8945 8712 8941 8949 8943 
1115 817 1148 818 8717 8945 8948 8719 6809 8950 
1148 817 851 818 8945 7034 8946 8950 6809 7035 
818 851 1149 852 7035 8951 8952 7041 7043 8953 
1115 1149 1116 818 8954 8955 8729 8719 8952 8724 
818 851 1148 1149 7035 8946 8950 8952 8951 8956 
1115 1149 818 1148 8954 8952 8719 8948 8956 8950 
1116 818 1149 819 8724 8952 8955 8726 6816 8957 
1149 818 852 819 8952 7041 8953 8957 6816 7042 
819 852 1150 853 7042 8958 8959 7048 7050 8960 
1116 1150 1117 819 8961 8962 8736 8726 8959 8731 
819 852 1149 1150 7042 8953 8957 8959 8958 8963 
1116 1150 819 1149 8961 8959 8726 8955 8963 8957 
1117 819 1150 820 8731 8959 8962 8733 6823 8964 
1150 819 853 820 8959 7048 8960 8964 6823 7049 
820 853 1151 854 7049 8965 8966 7055 7057 8967 
1117 1151 1118 820 8968 8969 8743 8733 8966 8738 
820 853 1150 1151 7049 8960 8964 8966 8965 8970 
1117 1151 820 1150 8968 8966 8733 8962 8970 8964 
1118 820 1151 821 8738 8966 8969 8740 6830 8971 
1151 820 854 821 8966 7055 8967 8971 6830 7056 
821 854 1152 855 7056 8972 8973 7062 7064 8974 
1118 1152 1119 821 8975 8976 8750 8740 8973 8745 
821 854 1151 1152 7056 8967 8971 8973 8972 8977 
1118 1152 821 1151 8975 8973 8740 8969 8977 8971 
1119 821 1152 822 8745 8973 8976 8747 6837 8978 
1152 821 855 822 8973 7062 8974 8978 6837 7063 
822 855 1153 856 7063 8979 8980 7069 7071 8981 
1119 1153 1120 822 8982 8983 8757 8747 8980 8752 
822 855 1152 1153 7063 8974 8978 8980 8979 8984 
1119 1153 822 1152 8982 8980 8747 8976 8984 8978 
1120 822 1153 823 8752 8980 8983 8754 6844 8985 
1153 822 856 823 8980 7069 8981 8985 6844 7070 
823 856 1154 857 7070 8986 8987 7076 7078 8988 
1120 1154 1121 823 8989 8990 8764 8754 8987 8759 
823 856 1153 1154 7070 8981 8985 8987 8986 8991 
1120 1154 823 1153 8989 8987 8754 8983 8991 8985 
1121 823 1154 824 8759 8987 8990 8761 6851 8992 
1154 823 857 824 8987 7076 8988 8992 6851 7077 
825 858 1156 859 7088 8993 8994 7083 7087 8995 
1122 1156 1123 825 8996 8997 8773 8771 8994 8766 
825 858 1155 1156 7088 8998 8999 8994 8993 9000 
1122 1156 825 1155 8996 8994 8771 9001 9000 8999 
1123 825 1156 826 8766 8994 8997 8768 6860 9002 
1156 825 859 826 8994 7083 8995 9002 6860 7084 
826 859 1157 860 7084 9003 9004 7093 7095 9005 
1123 1157 1124 826 9006 9007 8781 8768 9004 8776 
826 859 1156 1157 7084 8995 9002 9004 9003 9008 
1123 1157 826 1156 9006 9004 8768 8997 9008 9002 
1124 826 1157 827 8776 9004 9007 8778 6868 9009 
1157 826 860 827 9004 7093 9005 9009 6868 7094 
827 860 1158 861 7094 9010 9011 7100 7102 9012 
1124 1158 1125 827 9013 9014 8788 8778 9011 8783 
827 860 1157 1158 7094 9005 9009 9011 9010 9015 
1124 1158 827 1157 9013 9011 8778 9007 9015 9009 
1125 827 1158 828 8783 9011 9014 8785 6875 9016 
1158 827 861 828 9011 7100 9012 9016 6875 7101 
828 861 1159 862 7101 9017 9018 7107 7109 9019 
1125 1159 1126 828 9020 9021 8795 8785 9018 8790 
828 861 1158 1159 7101 9012 9016 9018 9017 9022 
1125 1159 828 1158 9020 9018 8785 9014 9022 9016 
1126 828 1159 829 8790 9018 9021 8792 6882 9023 
1159 828 862 829 9018 7107 9019 9023 6882 7108 
829 862 1160 863 7108 9024 9025 7114 7116 9026 
1126 1160 1127 829 9027 9028 8802 8792 9025 8797 
829 862 1159 1160 7108 9019 9023 9025 9024 9029 
1126 1160 829 1159 9027 9025 8792 9021 9029 9023 
1127 829 1160 830 8797 9025 9028 8799 6889 9030 
1160 829 863 830 9025 7114 9026 9030 6889 7115 
830 863 1161 864 7115 9031 9032 7121 7123 9033 
1127 1161 1128 830 9034 9035 8809 8799 9032 8804 
830 863 1160 1161 7115 9026 9030 9032 9031 9036 
1127 1161 830 1160 9034 9032 8799 9028 9036 9030 
1128 830 1161 831 8804 9032 9035 8806 6896 9037 
1161 830 864 831 9032 7121 9033 9037 6896 7122 
831 864 1162 865 7122 9038 9039 7128 7130 9040 
1128 1162 1129 831 9041 9042 8816 8806 9039 8811 
831 864 1161 1162 7122 9033 9037 9039 9038 9043 
1128 1162 831 1161 9041 9039 8806 9035 9043 9037 
1129 831 1162 832 8811 9039 9042 8813 6903 9044 
1162 831 865 832 9039 7128 9040 9044 6903 7129 
832 865 1163 866 7129 9045 9046 7135 7137 9047 
1129 1163 1130 832 9048 9049 8823 8813 9046 8818 
832 865 1162 1163 7129 9040 9044 9046 9045 9050 
1129 1163 832 1162 9048 9046 8813 9042 9050 9044 
1130 832 1163 833 8818 9046 9049 8820 6910 9051 
1163 832 866 833 9046 7135 9047 9051 6910 7136 
833 866 1164 867 7136 9052 9053 7142 7144 9054 
1130 1164 1131 833 9055 9056 8830 8820 9053 8825 
833 866 1163 1164 7136 9047 9051 9053 9052 9057 
1130 1164 833 1163 9055 9053 8820 9049 9057 9051 
1131 833 1164 834 8825 9053 9056 8827 6917 9058 
1164 833 867 834 9053 7142 9054 9058 6917 7143 
834 867 1165 868 7143 9059 9060 7149 7151 9061 
1131 1165 1132 834 9062 9063 8837 8827 9060 8832 
834 867 1164 1165 7143 9054 9058 9060 9059 9064 
1131 1165 834 1164 9062 9060 8827 9056 9064 9058 
1132 834 1165 835 8832 9060 9063 8834 6924 9065 
1165 834 868 835 9060 7149 9061 9065 6924 7150 
835 868 1166 869 7150 9066 9067 7156 7158 9068 
1132 1166 1133 835 9069 9070 8844 8834 9067 8839 
835 868 1165 1166 7150 9061 9065 9067 9066 9071 
1132 1166 835 1165 9069 9067 8834 9063 9071 9065 
1133 835 1166 836 8839 9067 9070 8841 6931 9072 
1166 835 869 836 9067 7156 9068 9072 6931 7157 
836 869 1167 870 7157 9073 9074 7163 7165 9075 
1133 1167 1134 836 9076 9077 8851 8841 9074 8846 
836 869 1166 1167 7157 9068 9072 9074 9073 9078 
1133 1167 836 1166 9076 9074 8841 9070 9078 9072 
1134 836 1167 837 8846 9074 9077 8848 6938 9079 
1167 836 870 837 9074 7163 9075 9079 6938 7164 
837 870 1168 871 7164 9080 9081 7170 7172 9082 
1134 1168 1135 837 9083 9084 8858 8848 9081 8853 
837 870 1167 1168 7164 9075 9079 9081 9080 9085 
1134 1168 837 1167 9083 9081 8848 9077 9085 9079 
1135 837 1168 838 8853 9081 9084 8855 6945 9086 
1168 837 871 838 9081 7170 9082 9086 6945 7171 
838 871 1169 872 7171 9087 9088 7177 7179 9089 
1135 1169 1136 838 9090 9091 8865 8855 9088 8860 
838 871 1168 1169 7171 9082 9086 9088 9087 9092 
1135 1169 838 1168 9090 9088 8855 9084 9092 9086 
1136 838 1169 839 8860 9088 9091 8862 6952 9093 
1169 838 872 839 9088 7177 9089 9093 6952 7178 
839 872 1170 873 7178 9094 9095 7184 7186 9096 
1136 1170 1137 839 9097 9098 8872 8862 9095 8867 
839 872 1169 1170 7178 9089 9093 9095 9094 9099 
1136 1170 839 1169 9097 9095 8862 9091 9099 9093 
1137 839 1170 840 8867 9095 9098 8869 6959 9100 
1170 839 873 840 9095 7184 9096 9100 6959 7185 
840 873 1171 874 7185 9101 9102 7191 7193 9103 
1137 1171 1138 840 9104 9105 8879 8869 9102 8874 
840 873 1170 1171 7185 9096 9100 9102 9101 9106 
1137 1171 840 1170 9104 9102 8869 9098 9106 9100 
1138 840 1171 841 8874 9102 9105 8876 6966 9107 
1171 840 874 841 9102 7191 9103 9107 6966 7192 
841 874 1172 875 7192 9108 9109 7198 7200 9110 
1138 1172 1139 841 9111 9112 8886 8876 9109 8881 
841 874 1171 1172 7192 9103 9107 9109 9108 9113 
1138 1172 841 1171 9111 9109 8876 9105 9113 9107 
1139 841 1172 842 8881 9109 9112 8883 6973 9114 
1172 841 875 842 9109 7198 9110 9114 6973 7199 
842 875 1173 876 7199 9115 9116 7205 7207 9117 
1139 1173 1140 842 9118 9119 8893 8883 9116 8888 
842 875 1172 1173 7199 9110 9114 9116 9115 9120 
1139 1173 842 1172 9118 9116 8883 9112 9120 9114 
1140 842 1173 843 8888 9116 9119 8890 6980 9121 
1173 842 876 843 9116 7205 9117 9121 6980 7206 
843 876 1174 877 7206 9122 9123 7212 7214 9124 
1140 1174 1141 843 9125 9126 8900 8890 9123 8895 
843 876 1173 1174 7206 9117 9121 9123 9122 9127 
1140 1174 843 1173 9125 9123 8890 9119 9127 9121 
1141 843 1174 844 8895 9123 9126 8897 6987 9128 
1174 843 877 844 9123 7212 9124 9128 6987 7213 
844 877 1175 878 7213 9129 9130 7219 7221 9131 
1141 1175 1142 844 9132 9133 8907 8897 9130 8902 
844 877 1174 1175 7213 9124 9128 9130 9129 9134 
1141 1175 844 1174 9132 9130 8897 9126 9134 9128 
1142 844 1175 845 8902 9130 9133 8904 6994 9135 
1175 844 878 845 9130 7219 9131 9135 6994 7220 
845 878 1176 879 7220 9136 9137 7226 7228 9138 
1142 1176 1143 845 9139 9140 8914 8904 9137 8909 
845 878 1175 1176 7220 9131 9135 9137 9136 9141 
1142 1176 845 1175 9139 9137 8904 9133 9141 9135 
1143 845 1176 846 8909 9137 9140 8911 7001 9142 
1176 845 879 846 9137 7226 9138 9142 7001 7227 
846 879 1177 880 7227 9143 9144 7233 7235 9145 
1143 1177 1144 846 9146 9147 8921 8911 9144 8916 
846 879 1176 1177 7227 9138 9142 9144 9143 9148 
1143 1177 846 1176 9146 9144 8911 9140 9148 9142 
1144 846 1177 847 8916 9144 9147 8918 7008 9149 
1177 846 880 847 9144 7233 9145 9149 7008 7234 
847 880 1178 881 7234 9150 9151 7240 7242 9152 
1144 1178 1145 847 9153 9154 8928 8918 9151 8923 
847 880 1177 1178 7234 9145 9149 9151 9150 9155 
1144 1178 847 1177 9153 9151 8918 9147 9155 9149 
1145 847 1178 848 8923 9151 9154 8925 7015 9156 
1178 847 881 848 9151 7240 9152 9156 7015 7241 
848 881 1179 882 7241 9157 9158 7247 7249 9159 
1145 1179 1146 848 9160 9161 8935 8925 9158 8930 
848 881 1178 1179 7241 9152 9156 9158 9157 9162 
1145 1179 848 1178 9160 9158 8925 9154 9162 9156 
1146 848 1179 849 8930 9158 9161 8932 7022 9163 
1179 848 882 849 9158 7247 9159 9163 7022 7248 
849 882 1180 883 7248 9164 9165 7254 7256 9166 
1146 1180 1147 849 9167 9168 8942 8932 9165 8937 
849 882 1179 1180 7248 9159 9163 9165 9164 9169 
1146 1180 849 1179 9167 9165 8932 9161 9169 9163 
1147 849 1180 850 8937 9165 9168 8939 7029 9170 
1180 849 883 850 9165 7254 9166 9170 7029 7255 
850 883 1181 884 7255 9171 9172 7261 7263 9173 
1147 1181 1148 850 9174 9175 8949 8939 9172 8944 
850 883 1180 1181 7255 9166 9170 9172 9171 9176 
1147 1181 850 1180 9174 9172 8939 9168 9176 9170 
1148 850 1181 851 8944 9172 9175 8946 7036 9177 
1181 850 884 851 9172 7261 9173 9177 7036 7262 
851 884 1182 885 7262 9178 9179 7268 7270 9180 
1148 1182 1149 851 9181 9182 8956 8946 9179 8951 
851 884 1181 1182 7262 9173 9177 9179 9178 9183 
1148 1182 851 1181 9181 9179 8946 9175 9183 9177 
1149 851 1182 852 8951 9179 9182 8953 7043 9184 
1182 851 885 852 9179 7268 9180 9184 7043 7269 
852 885 1183 886 7269 9185 9186 7275 7277 9187 
1149 1183 1150 852 9188 9189 8963 8953 9186 8958 
852 885 1182 1183 7269 9180 9184 9186 9185 9190 
1149 1183 852 1182 9188 9186 8953 9182 9190 9184 
1150 852 1183 853 8958 9186 9189 8960 7050 9191 
1183 852 886 853 9186 7275 9187 9191 7050 7276 
853 886 1184 887 7276 9192 9193 7282 7284 9194 
1150 1184 1151 853 9195 9196 8970 8960 9193 8965 
853 886 1183 1184 7276 9187 9191 9193 9192 9197 
1150 1184 853 1183 9195 9193 8960 9189 9197 9191 
1151 853 1184 854 8965 9193 9196 8967 7057 9198 
1184 853 887 854 9193 7282 9194 9198 7057 7283 
854 887 1185 888 7283 9199 9200 7289 7291 9201 
1151 1185 1152 854 9202 9203 8977 8967 9200 8972 
854 887 1184 1185 7283 9194 9198 9200 9199 9204 
1151 1185 854 1184 9202 9200 8967 9196 9204 9198 
1152 854 1185 855 8972 9200 9203 8974 7064 9205 
1185 854 888 855 9200 7289 9201 9205 7064 7290 
855 888 1186 889 7290 9206 9207 7296 7298 9208 
1152 1186 1153 855 9209 9210 8984 8974 9207 8979 
855 888 1185 1186 7290 9201 9205 9207 9206 9211 
1152 1186 855 1185 9209 9207 8974 9203 9211 9205 
1153 855 1186 856 8979 9207 9210 8981 7071 9212 
1186 855 889 856 9207 7296 9208 9212 7071 7297 
856 889 1187 890 7297 9213 9214 7303 7305 9215 
1153 1187 1154 856 9216 9217 8991 8981 9214 8986 
856 889 1186 1187 7297 9208 9212 9214 9213 9218 
1153 1187 856 1186 9216 9214 8981 9210 9218 9212 
1154 856 1187 857 8986 9214 9217 8988 7078 9219 
1187 856 890 857 9214 7303 9215 9219 7078 7304 
891 924 1222 925 7318 9220 9221 7310 7317 9222 
1188 1222 1189 891 9223 9224 9225 9226 9221 9227 
891 924 1221 1222 7318 9228 9229 9221 9220 9230 
1188 1222 891 1221 9223 9221 9226 9231 9230 9229 
1189 891 1222 892 9227 9221 9224 9232 7312 9233 
1222 891 925 892 9221 7310 9222 9233 7312 7311 
892 925 1223 926 7311 9234 9235 7324 7328 9236 
1189 1223 1190 892 9237 9238 9239 9232 9235 9240 
892 925 1222 1223 7311 9222 9233 9235 9234 9241 
1189 1223 892 1222 9237 9235 9232 9224 9241 9233 
1190 892 1223 893 9240 9235 9238 9242 7326 9243 
1223 892 926 893 9235 7324 9236 9243 7326 7325 
893 926 1224 927 7325 9244 9245 7334 7338 9246 
1190 1224 1191 893 9247 9248 9249 9242 9245 9250 
893 926 1223 1224 7325 9236 9243 9245 9244 9251 
1190 1224 893 1223 9247 9245 9242 9238 9251 9243 
1191 893 1224 894 9250 9245 9248 9252 7336 9253 
1224 893 927 894 9245 7334 9246 9253 7336 7335 
894 927 1225 928 7335 9254 9255 7344 7348 9256 
1191 1225 1192 894 9257 9258 9259 9252 9255 9260 
894 927 1224 1225 7335 9246 9253 9255 9254 9261 
1191 1225 894 1224 9257 9255 9252 9248 9261 9253 
1192 894 1225 895 9260 9255 9258 9262 7346 9263 
1225 894 928 895 9255 7344 9256 9263 7346 7345 
895 928 1226 929 7345 9264 9265 7354 7358 9266 
1192 1226 1193 895 9267 9268 9269 9262 9265 9270 
895 928 1225 1226 7345 9256 9263 9265 9264 9271 
1192 1226 895 1225 9267 9265 9262 9258 9271 9263 
1193 895 1226 896 9270 9265 9268 9272 7356 9273 
1226 895 929 896 9265 7354 9266 9273 7356 7355 
896 929 1227 930 7355 9274 9275 7364 7368 9276 
1193 1227 1194 896 9277 9278 9279 9272 9275 9280 
896 929 1226 1227 7355 9266 9273 9275 9274 9281 
1193 1227 896 1226 9277 9275 9272 9268 9281 9273 
1194 896 1227 897 9280 9275 9278 9282 7366 9283 
1227 896 930 897 9275 7364 9276 9283 7366 7365 
897 930 1228 931 7365 9284 9285 7374 7378 9286 
1194 1228 1195 897 9287 9288 9289 9282 9285 9290 
897 930 1227 1228 7365 9276 9283 9285 9284 9291 
1194 1228 897 1227 9287 9285 9282 9278 9291 9283 
1195 897 1228 898 9290 9285 9288 9292 7376 9293 
1228 897 931 898 9285 7374 9286 9293 7376 7375 
898 931 1229 932 7375 9294 9295 7384 7388 9296 
1195 1229 1196 898 9297 9298 9299 9292 9295 9300 
898 931 1228 1229 7375 9286 9293 9295 9294 9301 
1195 1229 898 1228 9297 9295 9292 9288 9301 9293 
1196 898 1229 899 9300 9295 9298 9302 7386 9303 
1229 898 932 899 9295 7384 9296 9303 7386 7385 
899 932 1230 933 7385 9304 9305 7394 7398 9306 
1196 1230 1197 899 9307 9308 9309 9302 9305 9310 
899 932 1229 1230 7385 9296 9303 9305 9304 9311 
1196 1230 899 1229 9307 9305 9302 9298 9311 9303 
1197 899 1230 900 9310 9305 9308 9312 7396 9313 
1230 899 933 900 9305 7394 9306 9313 7396 7395 
900 933 1231 934 7395 9314 9315 7404 7408 9316 
1197 1231 1198 900 9317 9318 9319 9312 9315 9320 
900 933 1230 1231 7395 9306 9313 9315 9314 9321 
1197 1231 900 1230 9317 9315 9312 9308 9321 9313 
1198 900 1231 901 9320 9315 9318 9322 7406 9323 
1231 900 934 901 9315 7404 9316 9323 7406 7405 
901 934 1232 935 7405 9324 9325 7414 7418 9326 
1198 1232 1199 901 9327 9328 9329 9322 9325 9330 
901 934 1231 1232 7405 9316 9323 9325 9324 9331 
1198 1232 901 1231 9327 9325 9322 9318 9331 9323 
1199 901 1232 902 9330 9325 9328 9332 7416 9333 
1232 901 935 902 9325 7414 9326 9333 7416 7415 
902 935 1233 936 7415 9334 9335 7424 7428 9336 
1199 1233 1200 902 9337 9338 9339 9332 9335 9340 
902 935 1232 1233 7415 9326 9333 9335 9334 9341 
1199 1233 902 1232 9337 9335 9332 9328 9341 9333 
1200 902 1233 903 9340 9335 9338 9342 7426 9343 
1233 902 936 903 9335 7424 9336 9343 7426 7425 
903 936 1234 937 7425 9344 9345 7434 7438 9346 
1200 1234 1201 903 9347 9348 9349 9342 9345 9350 
903 936 1233 1234 7425 9336 9343 9345 9344 9351 
1200 1234 903 1233 9347 9345 9342 9338 9351 9343 
1201 903 1234 904 9350 9345 9348 9352 7436 9353 
1234 903 937 904 9345 7434 9346 9353 7436 7435 
904 937 1235 938 7435 9354 9355 7444 7448 9356 
1201 1235 1202 904 9357 9358 9359 9352 9355 9360 
904 937 1234 1235 7435 9346 9353 9355 9354 9361 
1201 1235 904 1234 9357 9355 9352 9348 9361 9353 
1202 904 1235 905 9360 9355 9358 9362 7446 9363 
1235 904 938 905 9355 7444 9356 9363 7446 7445 
905 938 1236 939 7445 9364 9365 7454 7458 9366 
1202 1236 1203 905 9367 9368 9369 9362 9365 9370 
905 938 1235 1236 7445 9356 9363 9365 9364 9371 
1202 1236 905 1235 9367 9365 9362 9358 9371 9363 
1203 905 1236 906 9370 9365 9368 9372 7456 9373 
1236 905 939 906 9365 7454 9366 9373 7456 7455 
906 939 1237 940 7455 9374 9375 7464 7468 9376 
1203 1237 1204 906 9377 9378 9379 9372 9375 9380 
906 939 1236 1237 7455 9366 9373 9375 9374 9381 
1203 1237 906 1236 9377 9375 9372 9368 9381 9373 
1204 906 1237 907 9380 9375 9378 9382 7466 9383 
1237 906 940 907 9375 7464 9376 9383 7466 7465 
907 940 1238 941 7465 9384 9385 7474 7478 9386 
1204 1238 1205 907 9387 9388 9389 9382 9385 9390 
907 940 1237 1238 7465 9376 9383 9385 9384 9391 
1204 1238 907 1237 9387 9385 9382 9378 9391 9383 
1205 907 1238 908 9390 9385 9388 9392 7476 9393 
1238 907 941 908 9385 7474 9386 9393 7476 7475 
908 941 1239 942 7475 9394 9395 7484 7488 9396 
1205 1239 1206 908 9397 9398 9399 9392 9395 9400 
908 941 1238 1239 7475 9386 9393 9395 9394 9401 
1205 1239 908 1238 9397 9395 9392 9388 9401 9393 
1206 908 1239 909 9400 9395 9398 9402 7486 9403 
1239 908 942 909 9395 7484 9396 9403 7486 7485 
909 942 1240 943 7485 9404 9405 7494 7498 9406 
1206 1240 1207 909 9407 9408 9409 9402 9405 9410 
909 942 1239 1240 7485 9396 9403 9405 9404 9411 
1206 1240 909 1239 9407 9405 9402 9398 9411 9403 
1207 909 1240 910 9410 9405 9408 9412 7496 9413 
1240 909 943 910 9405 7494 9406 9413 7496 7495 
910 943 1241 944 7495 9414 9415 7504 7508 9416 
1207 1241 1208 910 9417 9418 9419 9412 9415 9420 
910 943 1240 1241 7495 9406 9413 9415 9414 9421 
1207 1241 910 1240 9417 9415 9412 9408 9421 9413 
1208 910 1241 911 9420 9415 9418 9422 7506 9423 
1241 910 944 911 9415 7504 9416 9423 7506 7505 
911 944 1242 945 7505 9424 9425 7514 7518 9426 
1208 1242 1209 911 9427 9428 9429 9422 9425 9430 
911 944 1241 1242 7505 9416 9423 9425 9424 9431 
1208 1242 911 1241 9427 9425 9422 9418 9431 9423 
1209 911 1242 912 9430 9425 9428 9432 7516 9433 
1242 911 945 912 9425 7514 9426 9433 7516 7515 
912 945 1243 946 7515 9434 9435 7524 7528 9436 
1209 1243 1210 912 9437 9438 9439 9432 9435 9440 
912 945 1242 1243 7515 9426 9433 9435 9434 9441 
1209 1243 912 1242 9437 9435 9432 9428 9441 9433 
1210 912 1243 913 9440 9435 9438 9442 7526 9443 
1243 912 946 913 9435 7524 9436 9443 7526 7525 
913 946 1244 947 7525 9444 9445 7534 7538 9446 
1210 1244 1211 913 9447 9448 9449 9442 9445 9450 
913 946 1243 1244 7525 9436 9443 9445 9444 9451 
1210 1244 913 1243 9447 9445 9442 9438 9451 9443 
1211 913 1244 914 9450 9445 9448 9452 7536 9453 
1244 913 947 914 9445 7534 9446 9453 7536 7535 
914 947 1245 948 7535 9454 9455 7544 7548 9456 
1211 1245 1212 914 9457 9458 9459 9452 9455 9460 
914 947 1244 1245 7535 9446 9453 9455 9454 9461 
1211 1245 914 1244 9457 9455 9452 9448 9461 9453 
1212 914 1245 915 9460 9455 9458 9462 7546 9463 
1245 914 948 915 9455 7544 9456 9463 7546 7545 
915 948 1246 949 7545 9464 9465 7554 7558 9466 
1212 1246 1213 915 9467 9468 9469 9462 9465 9470 
915 948 1245 1246 7545 9456 9463 9465 9464 9471 
1212 1246 915 1245 9467 9465 9462 9458 9471 9463 
1213 915 1246 916 9470 9465 9468 9472 7556 9473 
1246 915 949 916 9465 7554 9466 9473 7556 7555 
916 949 1247 950 7555 9474 9475 7564 7568 9476 
1213 1247 1214 916 9477 9478 9479 9472 9475 9480 
916 949 1246 1247 7555 9466 9473 9475 9474 9481 
1213 1247 916 1246 9477 9475 9472 9468 9481 9473 
1214 916 1247 917 9480 9475 9478 9482 7566 9483 
1247 916 950 917 9475 7564 9476 9483 7566 7565 
917 950 1248 951 7565 9484 9485 7574 7578 9486 
1214 1248 1215 917 9487 9488 9489 9482 9485 9490 
917 950 1247 1248 7565 9476 9483 9485 9484 9491 
1214 1248 917 1247 9487 9485 9482 9478 9491 9483 
1215 917 1248 918 9490 9485 9488 9492 7576 9493 
1248 917 951 918 9485 7574 9486 9493 7576 7575 
918 951 1249 952 7575 9494 9495 7584 7588 9496 
1215 1249 1216 918 9497 9498 9499 9492 9495 9500 
918 951 1248 1249 7575 9486 9493 9495 9494 9501 
1215 1249 918 1248 9497 9495 9492 9488 9501 9493 
1216 918 1249 919 9500 9495 9498 9502 7586 9503 
1249 918 952 919 9495 7584 9496 9503 7586 7585 
919 952 1250 953 7585 9504 9505 7594 7598 9506 
1216 1250 1217 919 9507 9508 9509 9502 9505 9510 
919 952 1249 1250 7585 9496 9503 9505 9504 9511 
1216 1250 919 1249 9507 9505 9502 9498 9511 9503 
1217 919 1250 920 9510 9505 9508 9512 7596 9513 
1250 919 953 920 9505 7594 9506 9513 7596 7595 
920 953 1251 954 7595 9514 9515 7604 7608 9516 
1217 1251 1218 920 9517 9518 9519 9512 9515 9520 
920 953 1250 1251 7595 9506 9513 9515 9514 9521 
1217 1251 920 1250 9517 9515 9512 9508 9521 9513 
1218 920 1251 921 9520 9515 9518 9522 7606 9523 
1251 920 954 921 9515 7604 9516 9523 7606 7605 
921 954 1252 955 7605 9524 9525 7614 7618 9526 
1218 1252 1219 921 9527 9528 9529 9522 9525 9530 
921 954 1251 1252 7605 9516 9523 9525 9524 9531 
1218 1252 921 1251 9527 9525 9522 9518 9531 9523 
1219 921 1252 922 9530 9525 9528 9532 7616 9533 
1252 921 955 922 9525 7614 9526 9533 7616 7615 
922 955 1253 956 7615 9534 9535 7624 7628 9536 
1219 1253 1220 922 9537 9538 9539 9532 9535 9540 
922 955 1252 1253 7615 9526 9533 9535 9534 9541 
1219 1253 922 1252 9537 9535 9532 9528 9541 9533 
1220 922 1253 923 9540 9535 9538 9542 7626 9543 
1253 922 956 923 9535 7624 9536 9543 7626 7625 
924 957 1255 958 7639 9544 9545 7634 7638 9546 
1221 1255 1222 924 9547 9548 9230 9228 9545 9220 
924 957 1254 1255 7639 9549 9550 9545 9544 9551 
1221 1255 924 1254 9547 9545 9228 9552 9551 9550 
1222 924 1255 925 9220 9545 9548 9222 7317 9553 
1255 924 958 925 9545 7634 9546 9553 7317 7635 
925 958 1256 959 7635 9554 9555 7644 7646 9556 
1222 1256 1223 925 9557 9558 9241 9222 9555 9234 
925 958 1255 1256 7635 9546 9553 9555 9554 9559 
1222 1256 925 1255 9557 9555 9222 9548 9559 9553 
1223 925 1256 926 9234 9555 9558 9236 7328 9560 
1256 925 959 926 9555 7644 9556 9560 7328 7645 
926 959 1257 960 7645 9561 9562 7651 7653 9563 
1223 1257 1224 926 9564 9565 9251 9236 9562 9244 
926 959 1256 1257 7645 9556 9560 9562 9561 9566 
1223 1257 926 1256 9564 9562 9236 9558 9566 9560 
1224 926 1257 927 9244 9562 9565 9246 7338 9567 
1257 926 960 927 9562 7651 9563 9567 7338 7652 
927 960 1258 961 7652 9568 9569 7658 7660 9570 
1224 1258 1225 927 9571 9572 9261 9246 9569 9254 
927 960 1257 1258 7652 9563 9567 9569 9568 9573 
1224 1258 927 1257 9571 9569 9246 9565 9573 9567 
1225 927 1258 928 9254 9569 9572 9256 7348 9574 
1258 927 961 928 9569 7658 9570 9574 7348 7659 
928 961 1259 962 7659 9575 9576 7665 7667 9577 
1225 1259 1226 928 9578 9579 9271 9256 9576 9264 
928 961 1258 1259 7659 9570 9574 9576 9575 9580 
1225 1259 928 1258 9578 9576 9256 9572 9580 9574 
1226 928 1259 929 9264 9576 9579 9266 7358 9581 
1259 928 962 929 9576 7665 9577 9581 7358 7666 
929 962 1260 963 7666 9582 9583 7672 7674 9584 
1226 1260 1227 929 9585 9586 9281 9266 9583 9274 
929 962 1259 1260 7666 9577 9581 9583 9582 9587 
1226 1260 929 1259 9585 9583 9266 9579 9587 9581 
1227 929 1260 930 9274 9583 9586 9276 7368 9588 
1260 929 963 930 9583 7672 9584 9588 7368 7673 
930 963 1261 964 7673 9589 9590 7679 7681 9591 
1227 1261 1228 930 9592 9593 9291 9276 9590 9284 
930 963 1260 1261 7673 9584 9588 9590 9589 9594 
1227 1261 930 1260 9592 9590 9276 9586 9594 9588 
1228 930 1261 931 9284 9590 9593 9286 7378 9595 
1261 930 964 931 9590 7679 9591 9595 7378 7680 
931 964 1262 965 7680 9596 9597 7686 7688 9598 
1228 1262 1229 931 9599 9600 9301 9286 9597 9294 
931 964 1261 1262 7680 9591 9595 9597 9596 9601 
1228 1262 931 1261 9599 9597 9286 9593 9601 9595 
1229 931 1262 932 9294 9597 9600 9296 7388 9602 
1262 931 965 932 9597 7686 9598 9602 7388 7687 
932 965 1263 966 7687 9603 9604 7693 7695 9605 
1229 1263 1230 932 9606 9607 9311 9296 9604 9304 
932 965 1262 1263 7687 9598 9602 9604 9603 9608 
1229 1263 932 1262 9606 9604 9296 9600 9608 9602 
1230 932 1263 933 9304 9604 9607 9306 7398 9609 
1263 932 966 933 9604 7693 9605 9609 7398 7694 
933 966 1264 967 7694 9610 9611 7700 7702 9612 
1230 1264 1231 933 9613 9614 9321 9306 9611 9314 
933 966 1263 1264 7694 9605 9609 9611 9610 9615 
1230 1264 933 1263 9613 9611 9306 9607 9615 9609 
1231 933 1264 934 9314 9611 9614 9316 7408 9616 
1264 933 967 934 9611 7700 9612 9616 7408 7701 
934 967 1265 968 7701 9617 9618 7707 7709 9619 
1231 1265 1232 934 9620 9621 9331 9316 9618 9324 
934 967 1264 1265 7701 9612 9616 9618 9617 9622 
1231 1265 934 1264 9620 9618 9316 9614 9622 9616 
1232 934 1265 935 9324 9618 9621 9326 7418 9623 
1265 934 968 935 9618 7707 9619 9623 7418 7708 
935 968 1266 969 7708 9624 9625 7714 7716 9626 
1232 1266 1233 935 9627 9628 9341 9326 9625 9334 
935 968 1265 1266 7708 9619 9623 9625 9624 9629 
1232 1266 935 1265 9627 9625 9326 9621 9629 9623 
1233 935 1266 936 9334 9625 9628 9336 7428 9630 
1266 935 969 936 9625 7714 9626 9630 7428 7715 
936 969 1267 970 7715 9631 9632 7721 7723 9633 
1233 1267 1234 936 9634 9635 9351 9336 9632 9344 
936 969 1266 1267 7715 9626 9630 9632 9631 9636 
1233 1267 936 1266 9634 9632 9336 9628 9636 9630 
1234 936 1267 937 9344 9632 9635 9346 7438 9637 
1267 936 970 937 9632 7721 9633 9637 7438 7722 
937 970 1268 971 7722 9638 9639 7728 7730 9640 
1234 1268 1235 937 9641 9642 9361 9346 9639 9354 
937 970 1267 1268 7722 9633 9637 9639 9638 9643 
1234 1268 937 1267 9641 9639 9346 9635 9643 9637 
1235 937 1268 938 9354 9639 9642 9356 7448 9644 
1268 937 971 938 9639 7728 9640 9644 7448 7729 
938 971 1269 972 7729 9645 9646 7735 7737 9647 
1235 1269 1236 938 9648 9649 9371 9356 9646 9364 
938 971 1268 1269 7729 9640 9644 9646 9645 9650 
1235 1269 938 1268 9648 9646 9356 9642 9650 9644 
1236 938 1269 939 9364 9646 9649 9366 7458 9651 
1269 938 972 939 9646 7735 9647 9651 7458 7736 
939 972 1270 973 7736 9652 9653 7742 7744 9654 
1236 1270 1237 939 9655 9656 9381 9366 9653 9374 
939 972 1269 1270 7736 9647 9651 9653 9652 9657 
1236 1270 939 1269 9655 9653 9366 9649 9657 9651 
1237 939 1270 940 9374 9653 9656 9376 7468 9658 
1270 939 973 940 9653 7742 9654 9658 7468 7743 
940 973 1271 974 7743 9659 9660 7749 7751 9661 
1237 1271 1238 940 9662 9663 9391 9376 9660 9384 
940 973 1270 1271 7743 9654 9658 9660 9659 9664 
1237 1271 940 1270 9662 9660 9376 9656 9664 9658 
1238 940 1271 941 9384 9660 9663 9386 7478 9665 
1271 940 974 941 9660 7749 9661 9665 7478 7750 
941 974 1272 975 7750 9666 9667 7756 7758 9668 
1238 1272 1239 941 9669 9670 9401 9386 9667 9394 
941 974 1271 1272 7750 9661 9665 9667 9666 9671 
1238 1272 941 1271 9669 9667 9386 9663 9671 9665 
1239 941 1272 942 9394 9667 9670 9396 7488 9672 
1272 941 975 942 9667 7756 9668 9672 7488 7757 
942 975 1273 976 7757 9673 9674 7763 7765 9675 
1239 1273 1240 942 9676 9677 9411 9396 9674 9404 
942 975 1272 1273 7757 9668 9672 9674 9673 9678 
1239 1273 942 1272 9676 9674 9396 9670 9678 9672 
1240 942 1273 943 9404 9674 9677 9406 7498 9679 
1273 942 976 943 9674 7763 9675 9679 7498 7764 
943 976 1274 977 7764 9680 9681 7770 7772 9682 
1240 1274 1241 943 9683 9684 9421 9406 9681 9414 
943 976 1273 1274 7764 9675 9679 9681 9680 9685 
1240 1274 943 1273 9683 9681 9406 9677 9685 9679 
1241 943 1274 944 9414 9681 9684 9416 7508 9686 
1274 943 977 944 9681 7770 9682 9686 7508 7771 
944 977 1275 978 7771 9687 9688 7777 7779 9689 
1241 1275 1242 944 9690 9691 9431 9416 9688 9424 
944 977 1274 1275 7771 9682 9686 9688 9687 9692 
1241 1275 944 1274 9690 9688 9416 9684 9692 9686 
1242 944 1275 945 9424 9688 9691 9426 7518 9693 
1275 944 978 945 9688 7777 9689 9693 7518 7778 
945 978 1276 979 7778 9694 9695 7784 7786 9696 
1242 1276 1243 945 9697 9698 9441 9426 9695 9434 
945 978 1275 1276 7778 9689 9693 9695 9694 9699 
1242 1276 945 1275 9697 9695 9426 9691 9699 9693 
1243 945 1276 946 9434 9695 9698 9436 7528 9700 
1276 945 979 946 9695 7784 9696 9700 7528 7785 
946 979 1277 980 7785 9701 9702 7791 7793 9703 
1243 1277 1244 946 9704 9705 9451 9436 9702 9444 
946 979 1276 1277 7785 9696 9700 9702 9701 9706 
1243 1277 946 1276 9704 9702 9436 9698 9706 9700 
1244 946 1277 947 9444 9702 9705 9446 7538 9707 
1277 946 980 947 9702 7791 9703 9707 7538 7792 
947 980 1278 981 7792 9708 9709 7798 7800 9710 
1244 1278 1245 947 9711 9712 9461 9446 9709 9454 
947 980 1277 1278 7792 9703 9707 9709 9708 9713 
1244 1278 947 1277 9711 9709 9446 9705 9713 9707 
1245 947 1278 948 9454 9709 9712 9456 7548 9714 
1278 947 981 948 9709 7798 9710 9714 7548 7799 
948 981 1279 982 7799 9715 9716 7805 7807 9717 
1245 1279 1246 948 9718 9719 9471 9456 9716 9464 
948 981 1278 1279 7799 9710 9714 9716 9715 9720 
1245 1279 948 1278 9718 9716 9456 9712 9720 9714 
1246 948 1279 949 9464 9716 9719 9466 7558 9721 
1279 948 982 949 9716 7805 9717 9721 7558 7806 
949 982 1280 983 7806 9722 9723 7812 7814 9724 
1246 1280 1247 949 9725 9726 9481 9466 9723 9474 
949 982 1279 1280 7806 9717 9721 9723 9722 9727 
1246 1280 949 1279 9725 9723 9466 9719 9727 9721 
1247 949 1280 950 9474 9723 9726 9476 7568 9728 
1280 949 983 950 9723 7812 9724 9728 7568 7813 
950 983 1281 984 7813 9729 9730 7819 7821 9731 
1247 1281 1248 950 9732 9733 9491 9476 9730 9484 
950 983 1280 1281 7813 9724 9728 9730 9729 9734 
1247 1281 950 1280 9732 9730 9476 9726 9734 9728 
1248 950 1281 951 9484 9730 9733 9486 7578 9735 
1281 950 984 951 9730 7819 9731 9735 7578 7820 
951 984 1282 985 7820 9736 9737 7826 7828 9738 
1248 1282 1249 951 9739 9740 9501 9486 9737 9494 
951 984 1281 1282 7820 9731 9735 9737 9736 9741 
1248 1282 951 1281 9739 9737 9486 9733 9741 9735 
1249 951 1282 952 9494 9737 9740 9496 7588 9742 
1282 951 985 952 9737 7826 9738 9742 7588 7827 
952 985 1283 986 7827 9743 9744 7833 7835 9745 
1249 1283 1250 952 9746 9747 9511 9496 9744 9504 
952 985 1282 1283 7827 9738 9742 9744 9743 9748 
1249 1283 952 1282 9746 9744 9496 9740 9748 9742 
1250 952 1283 953 9504 9744 9747 9506 7598 9749 
1283 952 986 953 9744 7833 9745 9749 7598 7834 
953 986 1284 987 7834 9750 9751 7840 7842 9752 
1250 1284 1251 953 9753 9754 9521 9506 9751 9514 
953 986 1283 1284 7834 9745 9749 9751 9750 9755 
1250 1284 953 1283 9753 9751 9506 9747 9755 9749 
1251 953 1284 954 9514 9751 9754 9516 7608 9756 
1284 953 987 954 9751 7840 9752 9756 7608 7841 
954 987 1285 988 7841 9757 9758 7847 7849 9759 
1251 1285 1252 954 9760 9761 9531 9516 9758 9524 
954 987 1284 1285 7841 9752 9756 9758 9757 9762 
1251 1285 954 1284 9760 9758 9516 9754 9762 9756 
1252 954 1285 955 9524 9758 9761 9526 7618 9763 
1285 954 988 955 9758 7847 9759 9763 7618 7848 
955 988 1286 989 7848 9764 9765 7854 7856 9766 
1252 1286 1253 955 9767 9768 9541 9526 9765 9534 
955 988 1285 1286 7848 9759 9763 9765 9764 9769 
1252 1286 955 1285 9767 9765 9526 9761 9769 9763 
1253 955 1286 956 9534 9765 9768 9536 7628 9770 
1286 955 989 956 9765 7854 9766 9770 7628 7855 
957 990 1288 991 7866 9771 9772 7861 7865 9773 
1254 1288 1255 957 9774 9775 9551 9549 9772 9544 
957 990 1287 1288 7866 9776 9777 9772 9771 9778 
1254 1288 957 1287 9774 9772 9549 9779 9778 9777 
1255 957 1288 958 9544 9772 9775 9546 7638 9780 
1288 957 991 958 9772 7861 9773 9780 7638 7862 
958 991 1289 992 7862 9781 9782 7871 7873 9783 
1255 1289 1256 958 9784 9785 9559 9546 9782 9554 
958 991 1288 1289 7862 9773 9780 9782 9781 9786 
1255 1289 958 1288 9784 9782 9546 9775 9786 9780 
1256 958 1289 959 9554 9782 9785 9556 7646 9787 
1289 958 992 959 9782 7871 9783 9787 7646 7872 
959 992 1290 993 7872 9788 9789 7878 7880 9790 
1256 1290 1257 959 9791 9792 9566 9556 9789 9561 
959 992 1289 1290 7872 9783 9787 9789 9788 9793 
1256 1290 959 1289 9791 9789 9556 9785 9793 9787 
1257 959 1290 960 9561 9789 9792 9563 7653 9794 
1290 959 993 960 9789 7878 9790 9794 7653 7879 
960 993 1291 994 7879 9795 9796 7885 7887 9797 
1257 1291 1258 960 9798 9799 9573 9563 9796 9568 
960 993 1290 1291 7879 9790 9794 9796 9795 9800 
1257 1291 960 1290 9798 9796 9563 9792 9800 9794 
1258 960 1291 961 9568 9796 9799 9570 7660 9801 
1291 960 994 961 9796 7885 9797 9801 7660 7886 
961 994 1292 995 7886 9802 9803 7892 7894 9804 
1258 1292 1259 961 9805 9806 9580 9570 9803 9575 
961 994 1291 1292 7886 9797 9801 9803 9802 9807 
1258 1292 961 1291 9805 9803 9570 9799 9807 9801 
1259 961 1292 962 9575 9803 9806 9577 7667 9808 
1292 961 995 962 9803 7892 9804 9808 7667 7893 
962 995 1293 996 7893 9809 9810 7899 7901 9811 
1259 1293 1260 962 9812 9813 9587 9577 9810 9582 
962 995 1292 1293 7893 9804 9808 9810 9809 9814 
1259 1293 962 1292 9812 9810 9577 9806 9814 9808 
1260 962 1293 963 9582 9810 9813 9584 7674 9815 
1293 962 996 963 9810 7899 9811 9815 7674 7900 
963 996 1294 997 7900 9816 9817 7906 7908 9818 
1260 1294 1261 963 9819 9820 9594 9584 9817 9589 
963 996 1293 1294 7900 9811 9815 9817 9816 9821 
1260 1294 963 1293 9819 9817 9584 9813 9821 9815 
1261 963 1294 964 9589 9817 9820 9591 7681 9822 
1294 963 997 964 9817 7906 9818 9822 7681 7907 
964 997 1295 998 7907 9823 9824 7913 7915 9825 
1261 1295 1262 964 9826 9827 9601 9591 9824 9596 
964 997 1294 1295 7907 9818 9822 9824 9823 9828 
1261 1295 964 1294 9826 9824 9591 9820 9828 9822 
1262 964 1295 965 9596 9824 9827 9598 7688 9829 
1295 964 998 965 9824 7913 9825 9829 7688 7914 
965 998 1296 999 7914 9830 9831 7920 7922 9832 
1262 1296 1263 965 9833 9834 9608 9598 9831 9603 
965 998 1295 1296 7914 9825 9829 9831 9830 9835 
1262 1296 965 1295 9833 9831 9598 9827 9835 9829 
1263 965 1296 966 9603 9831 9834 9605 7695 9836 
1296 965 999 966 9831 7920 9832 9836 7695 7921 
966 999 1297 1000 7921 9837 9838 7927 7929 9839 
1263 1297 1264 966 9840 9841 9615 9605 9838 9610 
966 999 1296 1297 7921 9832 9836 9838 9837 9842 
1263 1297 966 1296 9840 9838 9605 9834 9842 9836 
1264 966 1297 967 9610 9838 9841 9612 7702 9843 
1297 966 1000 967 9838 7927 9839 9843 7702 7928 
967 1000 1298 1001 7928 9844 9845 7934 7936 9846 
1264 1298 1265 967 9847 9848 9622 9612 9845 9617 
967 1000 1297 1298 7928 9839 9843 9845 9844 9849 
1264 1298 967 1297 9847 9845 9612 9841 9849 9843 
1265 967 1298 968 9617 9845 9848 9619 7709 9850 
1298 967 1001 968 9845 7934 9846 9850 7709 7935 
968 1001 1299 1002 7935 9851 9852 7941 7943 9853 
1265 1299 1266 968 9854 9855 9629 9619 9852 9624 
968 1001 1298 1299 7935 9846 9850 9852 9851 9856 
1265 1299 968 1298 9854 9852 9619 9848 9856 9850 
1266 968 1299 969 9624 9852 9855 9626 7716 9857 
1299 968 1002 969 9852 7941 9853 9857 7716 7942 
969 1002 1300 1003 7942 9858 9859 7948 7950 9860 
1266 1300 1267 969 9861 9862 9636 9626 9859 9631 
969 1002 1299 1300 7942 9853 9857 9859 9858 9863 
1266 1300 969 1299 9861 9859 9626 9855 9863 9857 
1267 969 1300 970 9631 9859 9862 9633 7723 9864 
1300 969 1003 970 9859 7948 9860 9864 7723 7949 
970 1003 1301 1004 7949 9865 9866 7955 7957 9867 
1267 1301 1268 970 9868 9869 9643 9633 9866 9638 
970 1003 1300 1301 7949 9860 9864 9866 9865 9870 
1267 1301 970 1300 9868 9866 9633 9862 9870 9864 
1268 970 1301 971 9638 9866 9869 9640 7730 9871 
1301 970 1004 971 9866 7955 9867 9871 7730 7956 
971 1004 1302 1005 7956 9872 9873 7962 7964 9874 
1268 1302 1269 971 9875 9876 9650 9640 9873 9645 
971 1004 1301 1302 7956 9867 9871 9873 9872 9877 
1268 1302 971 1301 9875 9873 9640 9869 9877 9871 
1269 971 1302 972 9645 9873 9876 9647 7737 9878 
1302 971 1005 972 9873 7962 9874 9878 7737 7963 
972 1005 1303 1006 7963 9879 9880 7969 7971 9881 
1269 1303 1270 972 9882 9883 9657 9647 9880 9652 
972 1005 1302 1303 7963 9874 9878 9880 9879 9884 
1269 1303 972 1302 9882 9880 9647 9876 9884 9878 
1270 972 1303 973 9652 9880 9883 9654 7744 9885 
1303 972 1006 973 9880 7969 9881 9885 7744 7970 
973 1006 1304 1007 7970 9886 9887 7976 7978 9888 
1270 1304 1271 973 9889 9890 9664 9654 9887 9659 
973 1006 1303 1304 7970 9881 9885 9887 9886 9891 
1270 1304 973 1303 9889 9887 9654 9883 9891 9885 
1271 973 1304 974 9659 9887 9890 9661 7751 9892 
1304 973 1007 974 9887 7976 9888 9892 7751 7977 
974 1007 1305 1008 7977 9893 9894 7983 7985 9895 
1271 1305 1272 974 9896 9897 9671 9661 9894 9666 
974 1007 1304 1305 7977 9888 9892 9894 9893 9898 
1271 1305 974 1304 9896 9894 9661 9890 9898 9892 
1272 974 1305 975 9666 9894 9897 9668 7758 9899 
1305 974 1008 975 9894 7983 9895 9899 7758 7984 
975 1008 1306 1009 7984 9900 9901 7990 7992 9902 
1272 1306 1273 975 9903 9904 9678 9668 9901 9673 
975 1008 1305 1306 7984 9895 9899 9901 9900 9905 
1272 1306 975 1305 9903 9901 9668 9897 9905 9899 
1273 975 1306 976 9673 9901 9904 9675 7765 9906 
1306 975 1009 976 9901 7990 9902 9906 7765 7991 
976 1009 1307 1010 7991 9907 9908 7997 7999 9909 
1273 1307 1274 976 9910 9911 9685 9675 9908 9680 
976 1009 1306 1307 7991 9902 9906 9908 9907 9912 
1273 1307 976 1306 9910 9908 9675 9904 9912 9906 
1274 976 1307 977 9680 9908 9911 9682 7772 9913 
1307 976 1010 977 9908 7997 9909 9913 7772 7998 
977 1010 1308 1011 7998 9914 9915 8004 8006 9916 
1274 1308 1275 977 9917 9918 9692 9682 9915 9687 
977 1010 1307 1308 7998 9909 9913 9915 9914 9919 
1274 1308 977 1307 9917 9915 9682 9911 9919 9913 
1275 977 1308 978 9687 9915 9918 9689 7779 9920 
1308 977 1011 978 9915 8004 9916 9920 7779 8005 
978 1011 1309 1012 8005 9921 9922 8011 8013 9923 
1275 1309 1276 978 9924 9925 9699 9689 9922 9694 
978 1011 1308 1309 8005 9916 9920 9922 9921 9926 
1275 1309 978 1308 9924 9922 9689 9918 9926 9920 
1276 978 1309 979 9694 9922 9925 9696 7786 9927 
1309 978 1012 979 9922 8011 9923 9927 7786 8012 
979 1012 1310 1013 8012 9928 9929 8018 8020 9930 
1276 1310 1277 979 9931 9932 9706 9696 9929 9701 
979 1012 1309 1310 8012 9923 9927 9929 9928 9933 
1276 1310 979 1309 9931 9929 9696 9925 9933 9927 
1277 979 1310 980 9701 9929 9932 9703 7793 9934 
1310 979 1013 980 9929 8018 9930 9934 7793 8019 
980 1013 1311 1014 8019 9935 9936 8025 8027 9937 
1277 1311 1278 980 9938 9939 9713 9703 9936 9708 
980 1013 1310 1311 8019 9930 9934 9936 9935 9940 
1277 1311 980 1310 9938 9936 9703 9932 9940 9934 
1278 980 1311 981 9708 9936 9939 9710 7800 9941 
1311 980 1014 981 9936 8025 9937 9941 7800 8026 
981 1014 1312 1015 8026 9942 9943 8032 8034 9944 
1278 1312 1279 981 9945 9946 9720 9710 9943 9715 
981 1014 1311 1312 8026 9937 9941 9943 9942 9947 
1278 1312 981 1311 9945 9943 9710 9939 9947 9941 
1279 981 1312 982 9715 9943 9946 9717 7807 9948 
1312 981 1015 982 9943 8032 9944 9948 7807 8033 
982 1015 1313 1016 8033 9949 9950 8039 8041 9951 
1279 1313 1280 982 9952 9953 9727 9717 9950 9722 
982 1015 1312 1313 8033 9944 9948 9950 9949 9954 
1279 1313 982 1312 9952 9950 9717 9946 9954 9948 
1280 982 1313 983 9722 9950 9953 9724 7814 9955 
1313 982 1016 983 9950 8039 9951 9955 7814 8040 
983 1016 1314 1017 8040 9956 9957 8046 8048 9958 
1280 1314 1281 983 9959 9960 9734 9724 9957 9729 
983 1016 1313 1314 8040 9951 9955 9957 9956 9961 
1280 1314 983 1313 9959 9957 9724 9953 9961 9955 
1281 983 1314 984 9729 9957 9960 9731 7821 9962 
1314 983 1017 984 9957 8046 9958 9962 7821 8047 
984 1017 1315 1018 8047 9963 9964 8053 8055 9965 
1281 1315 1282 984 9966 9967 9741 9731 9964 9736 
984 1017 1314 1315 8047 9958 9962 9964 9963 9968 
1281 1315 984 1314 9966 9964 9731 9960 9968 9962 
1282 984 1315 985 9736 9964 9967 9738 7828 9969 
1315 984 1018 985 9964 8053 9965 9969 7828 8054 
985 1018 1316 1019 8054 9970 9971 8060 8062 9972 
1282 1316 1283 985 9973 9974 9748 9738 9971 9743 
985 1018 1315 1316 8054 9965 9969 9971 9970 9975 
1282 1316 985 1315 9973 9971 9738 9967 9975 9969 
1283 985 1316 986 9743 9971 9974 9745 7835 9976 
1316 985 1019 986 9971 8060 9972 9976 7835 8061 
986 1019 1317 1020 8061 9977 9978 8067 8069 9979 
1283 1317 1284 986 9980 9981 9755 9745 9978 9750 
986 1019 1316 1317 8061 9972 9976 9978 9977 9982 
1283 1317 986 1316 9980 9978 9745 9974 9982 9976 
1284 986 1317 987 9750 9978 9981 9752 7842 9983 
1317 986 1020 987 9978 8067 9979 9983 7842 8068 
987 1020 1318 1021 8068 9984 9985 8074 8076 9986 
1284 1318 1285 987 9987 9988 9762 9752 9985 9757 
987 1020 1317 1318 8068 9979 9983 9985 9984 9989 
1284 1318 987 1317 9987 9985 9752 9981 9989 9983 
1285 987 1318 988 9757 9985 9988 9759 7849 9990 
1318 987 1021 988 9985 8074 9986 9990 7849 8075 
988 1021 1319 1022 8075 9991 9992 8081 8083 9993 
1285 1319 1286 988 9994 9995 9769 9759 9992 9764 
988 1021 1318 1319 8075 9986 9990 9992 9991 9996 
1285 1319 988 1318 9994 9992 9759 9988 9996 9990 
1286 988 1319 989 9764 9992 9995 9766 7856 9997 
1319 988 1022 989 9992 8081 9993 9997 7856 8082 
990 1023 1321 1024 8093 9998 9999 8088 8092 10000 
1287 1321 1288 990 10001 10002 9778 9776 9999 9771 
990 1023 1320 1321 8093 10003 10004 9999 9998 10005 
1287 1321 990 1320 10001 9999 9776 10006 10005 10004 
1288 990 1321 991 9771 9999 10002 9773 7865 10007 
1321 990 1024 991 9999 8088 10000 10007 7865 8089 
991 1024 1322 1025 8089 10008 10009 8098 8100 10010 
1288 1322 1289 991 10011 10012 9786 9773 10009 9781 
991 1024 1321 1322 8089 10000 10007 10009 10008 10013 
1288 1322 991 1321 10011 10009 9773 10002 10013 10007 
1289 991 1322 992 9781 10009 10012 9783 7873 10014 
1322 991 1025 992 10009 8098 10010 10014 7873 8099 
992 1025 1323 1026 8099 10015 10016 8105 8107 10017 
1289 1323 1290 992 10018 10019 9793 9783 10016 9788 
992 1025 1322 1323 8099 10010 10014 10016 10015 10020 
1289 1323 992 1322 10018 10016 9783 10012 10020 10014 
1290 992 1323 993 9788 10016 10019 9790 7880 10021 
1323 992 1026 993 10016 8105 10017 10021 7880 8106 
993 1026 1324 1027 8106 10022 10023 8112 8114 10024 
1290 1324 1291 993 10025 10026 9800 9790 10023 9795 
993 1026 1323 1324 8106 10017 10021 10023 10022 10027 
1290 1324 993 1323 10025 10023 9790 10019 10027 10021 
1291 993 1324 994 9795 10023 10026 9797 7887 10028 
1324 993 1027 994 10023 8112 10024 10028 7887 8113 
994 1027 1325 1028 8113 10029 10030 8119 8121 10031 
1291 1325 1292 994 10032 10033 9807 9797 10030 9802 
994 1027 1324 1325 8113 10024 10028 10030 10029 10034 
1291 1325 994 1324 10032 10030 9797 10026 10034 10028 
1292 994 1325 995 9802 10030 10033 9804 7894 10035 
1325 994 1028 995 10030 8119 10031 10035 7894 8120 
995 1028 1326 1029 8120 10036 10037 8126 8128 10038 
1292 1326 1293 995 10039 10040 9814 9804 10037 9809 
995 1028 1325 1326 8120 10031 10035 10037 10036 10041 
1292 1326 995 1325 10039 10037 9804 10033 10041 10035 
1293 995 1326 996 9809 10037 10040 9811 7901 10042 
1326 995 1029 996 10037 8126 10038 10042 7901 8127 
996 1029 1327 1030 8127 10043 10044 8133 8135 10045 
1293 1327 1294 996 10046 10047 9821 9811 10044 9816 
996 1029 1326 1327 8127 10038 10042 10044 10043 10048 
1293 1327 996 1326 10046 10044 9811 10040 10048 10042 
1294 996 1327 997 9816 10044 10047 9818 7908 10049 
1327 996 1030 997 10044 8133 10045 10049 7908 8134 
997 1030 1328 1031 8134 10050 10051 8140 8142 10052 
1294 1328 1295 997 10053 10054 9828 9818 10051 9823 
997 1030 1327 1328 8134 10045 10049 10051 10050 10055 
1294 1328 997 1327 10053 10051 9818 10047 10055 10049 
1295 997 1328 998 9823 10051 10054 9825 7915 10056 
1328 997 1031 998 10051 8140 10052 10056 7915 8141 
998 1031 1329 1032 8141 10057 10058 8147 8149 10059 
1295 1329 1296 998 10060 10061 9835 9825 10058 9830 
998 1031 1328 1329 8141 10052 10056 10058 10057 10062 
1295 1329 998 1328 10060 10058 9825 10054 10062 10056 
1296 998 1329 999 9830 10058 10061 9832 7922 10063 
1329 998 1032 999 10058 8147 10059 10063 7922 8148 
999 1032 1330 1033 8148 10064 10065 8154 8156 10066 
1296 1330 1297 999 10067 10068 9842 9832 10065 9837 
999 1032 1329 1330 8148 10059 10063 10065 10064 10069 
1296 1330 999 1329 10067 10065 9832 10061 10069 10063 
1297 999 1330 1000 9837 10065 10068 9839 7929 10070 
1330 999 1033 1000 10065 8154 10066 10070 7929 8155 
1000 1033 1331 1034 8155 10071 10072 8161 8163 10073 
1297 1331 1298 1000 10074 10075 9849 9839 10072 9844 
1000 1033 1330 1331 8155 10066 10070 10072 10071 10076 
1297 1331 1000 1330 10074 10072 9839 10068 10076 10070 
1298 1000 1331 1001 9844 10072 10075 9846 7936 10077 
1331 1000 1034 1001 10072 8161 10073 10077 7936 8162 
1001 1034 1332 1035 8162 10078 10079 8168 8170 10080 
1298 1332 1299 1001 10081 10082 9856 9846 10079 9851 
1001 1034 1331 1332 8162 10073 10077 10079 10078 10083 
1298 1332 1001 1331 10081 10079 9846 10075 10083 10077 
1299 1001 1332 1002 9851 10079 10082 9853 7943 10084 
1332 1001 1035 1002 10079 8168 10080 10084 7943 8169 
1002 1035 1333 1036 8169 10085 10086 8175 8177 10087 
1299 1333 1300 1002 10088 10089 9863 9853 10086 9858 
1002 1035 1332 1333 8169 10080 10084 10086 10085 10090 
1299 1333 1002 1332 10088 10086 9853 10082 10090 10084 
1300 1002 1333 1003 9858 10086 10089 9860 7950 10091 
1333 1002 1036 1003 10086 8175 10087 10091 7950 8176 
1003 1036 1334 1037 8176 10092 10093 8182 8184 10094 
1300 1334 1301 1003 10095 10096 9870 9860 10093 9865 
1003 1036 1333 1334 8176 10087 10091 10093 10092 10097 
1300 1334 1003 1333 10095 10093 9860 10089 10097 10091 
1301 1003 1334 1004 9865 10093 10096 9867 7957 10098 
1334 1003 1037 1004 10093 8182 10094 10098 7957 8183 
1004 1037 1335 1038 8183 10099 10100 8189 8191 10101 
1301 1335 1302 1004 10102 10103 9877 9867 10100 9872 
1004 1037 1334 1335 8183 10094 10098 10100 10099 10104 
1301 1335 1004 1334 10102 10100 9867 10096 10104 10098 
1302 1004 1335 1005 9872 10100 10103 9874 7964 10105 
1335 1004 1038 1005 10100 8189 10101 10105 7964 8190 
1005 1038 1336 1039 8190 10106 10107 8196 8198 10108 
1302 1336 1303 1005 10109 10110 9884 9874 10107 9879 
1005 1038 1335 1336 8190 10101 10105 10107 10106 10111 
1302 1336 1005 1335 10109 10107 9874 10103 10111 10105 
1303 1005 1336 1006 9879 10107 10110 9881 7971 10112 
1336 1005 1039 1006 10107 8196 10108 10112 7971 8197 
1006 1039 1337 1040 8197 10113 10114 8203 8205 10115 
1303 1337 1304 1006 10116 10117 9891 9881 10114 9886 
1006 1039 1336 1337 8197 10108 10112 10114 10113 10118 
1303 1337 1006 1336 10116 10114 9881 10110 10118 10112 
1304 1006 1337 1007 9886 10114 10117 9888 7978 10119 
1337 1006 1040 1007 10114 8203 10115 10119 7978 8204 
1007 1040 1338 1041 8204 10120 10121 8210 8212 10122 
1304 1338 1305 1007 10123 10124 9898 9888 10121 9893 
1007 1040 1337 1338 8204 10115 10119 10121 10120 10125 
1304 1338 1007 1337 10123 10121 9888 10117 10125 10119 
1305 1007 1338 1008 9893 10121 10124 9895 7985 10126 
1338 1007 1041 1008 10121 8210 10122 10126 7985 8211 
1008 1041 1339 1042 8211 10127 10128 8217 8219 10129 
1305 1339 1306 1008 10130 10131 9905 9895 10128 9900 
1008 1041 1338 1339 8211 10122 10126 10128 10127 10132 
1305 1339 1008 1338 10130 10128 9895 10124 10132 10126 
1306 1008 1339 1009 9900 10128 10131 9902 7992 10133 
1339 1008 1042 1009 10128 8217 10129 10133 7992 8218 
1009 1042 1340 1043 8218 10134 10135 8224 8226 10136 
1306 1340 1307 1009 10137 10138 9912 9902 10135 9907 
1009 1042 1339 1340 8218 10129 10133 10135 10134 10139 
1306 1340 1009 1339 10137 10135 9902 10131 10139 10133 
1307 1009 1340 1010 9907 10135 10138 9909 7999 10140 
1340 1009 1043 1010 10135 8224 10136 10140 7999 8225 
1010 1043 1341 1044 8225 10141 10142 8231 8233 10143 
1307 1341 1308 1010 10144 10145 9919 9909 10142 9914 
1010 1043 1340 1341 8225 10136 10140 10142 10141 10146 
1307 1341 1010 1340 10144 10142 9909 10138 10146 10140 
1308 1010 1341 1011 9914 10142 10145 9916 8006 10147 
1341 1010 1044 1011 10142 8231 10143 10147 8006 8232 
1011 1044 1342 1045 8232 10148 10149 8238 8240 10150 
1308 1342 1309 1011 10151 10152 9926 9916 10149 9921 
1011 1044 1341 1342 8232 10143 10147 10149 10148 10153 
1308 1342 1011 1341 10151 10149 9916 10145 10153 10147 
1309 1011 1342 1012 9921 10149 10152 9923 8013 10154 
1342 1011 1045 1012 10149 8238 10150 10154 8013 8239 
1012 1045 1343 1046 8239 10155 10156 8245 8247 10157 
1309 1343 1310 1012 10158 10159 9933 9923 10156 9928 
1012 1045 1342 1343 8239 10150 10154 10156 10155 10160 
1309 1343 1012 1342 10158 10156 9923 10152 10160 10154 
1310 1012 1343 1013 9928 10156 10159 9930 8020 10161 
1343 1012 1046 1013 10156 8245 10157 10161 8020 8246 
1013 1046 1344 1047 8246 10162 10163 8252 8254 10164 
1310 1344 1311 1013 10165 10166 9940 9930 10163 9935 
1013 1046 1343 1344 8246 10157 10161 10163 10162 10167 
1310 1344 1013 1343 10165 10163 9930 10159 10167 10161 
1311 1013 1344 1014 9935 10163 10166 9937 8027 10168 
1344 1013 1047 1014 10163 8252 10164 10168 8027 8253 
1014 1047 1345 1048 8253 10169 10170 8259 8261 10171 
1311 1345 1312 1014 10172 10173 9947 9937 10170 9942 
1014 1047 1344 1345 8253 10164 10168 10170 10169 10174 
1311 1345 1014 1344 10172 10170 9937 10166 10174 10168 
1312 1014 1345 1015 9942 10170 10173 9944 8034 10175 
1345 1014 1048 1015 10170 8259 10171 10175 8034 8260 
1015 1048 1346 1049 8260 10176 10177 8266 8268 10178 
1312 1346 1313 1015 10179 10180 9954 9944 10177 9949 
1015 1048 1345 1346 8260 10171 10175 10177 10176 10181 
1312 1346 1015 1345 10179 10177 9944 10173 10181 10175 
1313 1015 1346 1016 9949 10177 10180 9951 8041 10182 
1346 1015 1049 1016 10177 8266 10178 10182 8041 8267 
1016 1049 1347 1050 8267 10183 10184 8273 8275 10185 
1313 1347 1314 1016 10186 10187 9961 9951 10184 9956 
1016 1049 1346 1347 8267 10178 10182 10184 10183 10188 
1313 1347 1016 1346 10186 10184 9951 10180 10188 10182 
1314 1016 1347 1017 9956 10184 10187 9958 8048 10189 
1347 1016 1050 1017 10184 8273 10185 10189 8048 8274 
1017 1050 1348 1051 8274 10190 10191 8280 8282 10192 
1314 1348 1315 1017 10193 10194 9968 9958 10191 9963 
1017 1050 1347 1348 8274 10185 10189 10191 10190 10195 
1314 1348 1017 1347 10193 10191 9958 10187 10195 10189 
1315 1017 1348 1018 9963 10191 10194 9965 8055 10196 
1348 1017 1051 1018 10191 8280 10192 10196 8055 8281 
1018 1051 1349 1052 8281 10197 10198 8287 8289 10199 
1315 1349 1316 1018 10200 10201 9975 9965 10198 9970 
1018 1051 1348 1349 8281 10192 10196 10198 10197 10202 
1315 1349 1018 1348 10200 10198 9965 10194 10202 10196 
1316 1018 1349 1019 9970 10198 10201 9972 8062 10203 
1349 1018 1052 1019 10198 8287 10199 10203 8062 8288 
1019 1052 1350 1053 8288 10204 10205 8294 8296 10206 
1316 1350 1317 1019 10207 10208 9982 9972 10205 9977 
1019 1052 1349 1350 8288 10199 10203 10205 10204 10209 
1316 1350 1019 1349 10207 10205 9972 10201 10209 10203 
1317 1019 1350 1020 9977 10205 10208 9979 8069 10210 
1350 1019 1053 1020 10205 8294 10206 10210 8069 8295 
1020 1053 1351 1054 8295 10211 10212 8301 8303 10213 
1317 1351 1318 1020 10214 10215 9989 9979 10212 9984 
1020 1053 1350 1351 8295 10206 10210 10212 10211 10216 
1317 1351 1020 1350 10214 10212 9979 10208 10216 10210 
1318 1020 1351 1021 9984 10212 10215 9986 8076 10217 
1351 1020 1054 1021 10212 8301 10213 10217 8076 8302 
1021 1054 1352 1055 8302 10218 10219 8308 8310 10220 
1318 1352 1319 1021 10221 10222 9996 9986 10219 9991 
1021 1054 1351 1352 8302 10213 10217 10219 10218 10223 
1318 1352 1021 1351 10221 10219 9986 10215 10223 10217 
1319 1021 1352 1022 9991 10219 10222 9993 8083 10224 
1352 1021 1055 1022 10219 8308 10220 10224 8083 8309 
1023 1056 1354 1057 8320 10225 10226 8315 8319 10227 
1320 1354 1321 1023 10228 10229 10005 10003 10226 9998 
1023 1056 1353 1354 8320 10230 10231 10226 10225 10232 
1320 1354 1023 1353 10228 10226 10003 10233 10232 10231 
1321 1023 1354 1024 9998 10226 10229 10000 8092 10234 
1354 1023 1057 1024 10226 8315 10227 10234 8092 8316 
1024 1057 1355 1058 8316 10235 10236 8325 8327 10237 
1321 1355 1322 1024 10238 10239 10013 10000 10236 10008 
1024 1057 1354 1355 8316 10227 10234 10236 10235 10240 
1321 1355 1024 1354 10238 10236 10000 10229 10240 10234 
1322 1024 1355 1025 10008 10236 10239 10010 8100 10241 
1355 1024 1058 1025 10236 8325 10237 10241 8100 8326 
1025 1058 1356 1059 8326 10242 10243 8332 8334 10244 
1322 1356 1323 1025 10245 10246 10020 10010 10243 10015 
1025 1058 1355 1356 8326 10237 10241 10243 10242 10247 
1322 1356 1025 1355 10245 10243 10010 10239 10247 10241 
1323 1025 1356 1026 10015 10243 10246 10017 8107 10248 
1356 1025 1059 1026 10243 8332 10244 10248 8107 8333 
1026 1059 1357 1060 8333 10249 10250 8339 8341 10251 
1323 1357 1324 1026 10252 10253 10027 10017 10250 10022 
1026 1059 1356 1357 8333 10244 10248 10250 10249 10254 
1323 1357 1026 1356 10252 10250 10017 10246 10254 10248 
1324 1026 1357 1027 10022 10250 10253 10024 8114 10255 
1357 1026 1060 1027 10250 8339 10251 10255 8114 8340 
1027 1060 1358 1061 8340 10256 10257 8346 8348 10258 
1324 1358 1325 1027 10259 10260 10034 10024 10257 10029 
1027 1060 1357 1358 8340 10251 10255 10257 10256 10261 
1324 1358 1027 1357 10259 10257 10024 10253 10261 10255 
1325 1027 1358 1028 10029 10257 10260 10031 8121 10262 
1358 1027 1061 1028 10257 8346 10258 10262 8121 8347 
1028 1061 1359 1062 8347 10263 10264 8353 8355 10265 
1325 1359 1326 1028 10266 10267 10041 10031 10264 10036 
1028 1061 1358 1359 8347 10258 10262 10264 10263 10268 
1325 1359 1028 1358 10266 10264 10031 10260 10268 10262 
1326 1028 1359 1029 10036 10264 10267 10038 8128 10269 
1359 1028 1062 1029 10264 8353 10265 10269 8128 8354 
1029 1062 1360 1063 8354 10270 10271 8360 8362 10272 
1326 1360 1327 1029 10273 10274 10048 10038 10271 10043 
1029 1062 1359 1360 8354 10265 10269 10271 10270 10275 
1326 1360 1029 1359 10273 10271 10038 10267 10275 10269 
1327 1029 1360 1030 10043 10271 10274 10045 8135 10276 
1360 1029 1063 1030 10271 8360 10272 10276 8135 8361 
1030 1063 1361 1064 8361 10277 10278 8367 8369 10279 
1327 1361 1328 1030 10280 10281 10055 10045 10278 10050 
1030 1063 1360 1361 8361 10272 10276 10278 10277 10282 
1327 1361 1030 1360 10280 10278 10045 10274 10282 10276 
1328 1030 1361 1031 10050 10278 10281 10052 8142 10283 
1361 1030 1064 1031 10278 8367 10279 10283 8142 8368 
1031 1064 1362 1065 8368 10284 10285 8374 8376 10286 
1328 1362 1329 1031 10287 10288 10062 10052 10285 10057 
1031 1064 1361 1362 8368 10279 10283 10285 10284 10289 
1328 1362 1031 1361 10287 10285 10052 10281 10289 10283 
1329 1031 1362 1032 10057 10285 10288 10059 8149 10290 
1362 1031 1065 1032 10285 8374 10286 10290 8149 8375 
1032 1065 1363 1066 8375 10291 10292 8381 8383 10293 
1329 1363 1330 1032 10294 10295 10069 10059 10292 10064 
1032 1065 1362 1363 8375 10286 10290 10292 10291 10296 
1329 1363 1032 1362 10294 10292 10059 10288 10296 10290 
1330 1032 1363 1033 10064 10292 10295 10066 8156 10297 
1363 1032 1066 1033 10292 8381 10293 10297 8156 8382 
1033 1066 1364 1067 8382 10298 10299 8388 8390 10300 
1330 1364 1331 1033 10301 10302 10076 10066 10299 10071 
1033 1066 1363 1364 8382 10293 10297 10299 10298 10303 
1330 1364 1033 1363 10301 10299 10066 10295 10303 10297 
1331 1033 1364 1034 10071 10299 10302 10073 8163 10304 
1364 1033 1067 1034 10299 8388 10300 10304 8163 8389 
1034 1067 1365 1068 8389 10305 10306 8395 8397 10307 
1331 1365 1332 1034 10308 10309 10083 10073 10306 10078 
1034 1067 1364 1365 8389 10300 10304 10306 10305 10310 
1331 1365 1034 1364 10308 10306 10073 10302 10310 10304 
1332 1034 1365 1035 10078 10306 10309 10080 8170 10311 
1365 1034 1068 1035 10306 8395 10307 10311 8170 8396 
1035 1068 1366 1069 8396 10312 10313 8402 8404 10314 
1332 1366 1333 1035 10315 10316 10090 10080 10313 10085 
1035 1068 1365 1366 8396 10307 10311 10313 10312 10317 
1332 1366 1035 1365 10315 10313 10080 10309 10317 10311 
1333 1035 1366 1036 10085 10313 10316 10087 8177 10318 
1366 1035 1069 1036 10313 8402 10314 10318 8177 8403 
1036 1069 1367 1070 8403 10319 10320 8409 8411 10321 
1333 1367 1334 1036 10322 10323 10097 10087 10320 10092 
1036 1069 1366 1367 8403 10314 10318 10320 10319 10324 
1333 1367 1036 1366 10322 10320 10087 10316 10324 10318 
1334 1036 1367 1037 10092 10320 10323 10094 8184 10325 
1367 1036 1070 1037 10320 8409 10321 10325 8184 8410 
1037 1070 1368 1071 8410 10326 10327 8416 8418 10328 
1334 1368 1335 1037 10329 10330 10104 10094 10327 10099 
1037 1070 1367 1368 8410 10321 10325 10327 10326 10331 
1334 1368 1037 1367 10329 10327 10094 10323 10331 10325 
1335 1037 1368 1038 10099 10327 10330 10101 8191 10332 
1368 1037 1071 1038 10327 8416 10328 10332 8191 8417 
1038 1071 1369 1072 8417 10333 10334 8423 8425 10335 
1335 1369 1336 1038 10336 10337 10111 10101 10334 10106 
1038 1071 1368 1369 8417 10328 10332 10334 10333 10338 
1335 1369 1038 1368 10336 10334 10101 10330 10338 10332 
1336 1038 1369 1039 10106 10334 10337 10108 8198 10339 
1369 1038 1072 1039 10334 8423 10335 10339 8198 8424 
1039 1072 1370 1073 8424 10340 10341 8430 8432 10342 
1336 1370 1337 1039 10343 10344 10118 10108 10341 10113 
1039 1072 1369 1370 8424 10335 10339 10341 10340 10345 
1336 1370 1039 1369 10343 10341 10108 10337 10345 10339 
1337 1039 1370 1040 10113 10341 10344 10115 8205 10346 
1370 1039 1073 1040 10341 8430 10342 10346 8205 8431 
1040 1073 1371 1074 8431 10347 10348 8437 8439 10349 
1337 1371 1338 1040 10350 10351 10125 10115 10348 10120 
1040 1073 1370 1371 8431 10342 10346 10348 10347 10352 
1337 1371 1040 1370 10350 10348 10115 10344 10352 10346 
1338 1040 1371 1041 10120 10348 10351 10122 8212 10353 
1371 1040 1074 1041 10348 8437 10349 10353 8212 8438 
1041 1074 1372 1075 8438 10354 10355 8444 8446 10356 
1338 1372 1339 1041 10357 10358 10132 10122 10355 10127 
1041 1074 1371 1372 8438 10349 10353 10355 10354 10359 
1338 1372 1041 1371 10357 10355 10122 10351 10359 10353 
1339 1041 1372 1042 10127 10355 10358 10129 8219 10360 
1372 1041 1075 1042 10355 8444 10356 10360 8219 8445 
1042 1075 1373 1076 8445 10361 10362 8451 8453 10363 
1339 1373 1340 1042 10364 10365 10139 10129 10362 10134 
1042 1075 1372 1373 8445 10356 10360 10362 10361 10366 
1339 1373 1042 1372 10364 10362 10129 10358 10366 10360 
1340 1042 1373 1043 10134 10362 10365 10136 8226 10367 
1373 1042 1076 1043 10362 8451 10363 10367 8226 8452 
1043 1076 1374 1077 8452 10368 10369 8458 8460 10370 
1340 1374 1341 1043 10371 10372 10146 10136 10369 10141 
1043 1076 1373 1374 8452 10363 10367 10369 10368 10373 
1340 1374 1043 1373 10371 10369 10136 10365 10373 10367 
1341 1043 1374 1044 10141 10369 10372 10143 8233 10374 
1374 1043 1077 1044 10369 8458 10370 10374 8233 8459 
1044 1077 1375 1078 8459 10375 10376 8465 8467 10377 
1341 1375 1342 1044 10378 10379 10153 10143 10376 10148 
1044 1077 1374 1375 8459 10370 10374 10376 10375 10380 
1341 1375 1044 1374 10378 10376 10143 10372 10380 10374 
1342 1044 1375 1045 10148 10376 10379 10150 8240 10381 
1375 1044 1078 1045 10376 8465 10377 10381 8240 8466 
1045 1078 1376 1079 8466 10382 10383 8472 8474 10384 
1342 1376 1343 1045 10385 10386 10160 10150 10383 10155 
1045 1078 1375 1376 8466 10377 10381 10383 10382 10387 
1342 1376 1045 1375 10385 10383 10150 10379 10387 10381 
1343 1045 1376 1046 10155 10383 10386 10157 8247 10388 
1376 1045 1079 1046 10383 8472 10384 10388 8247 8473 
1046 1079 1377 1080 8473 10389 10390 8479 8481 10391 
1343 1377 1344 1046 10392 10393 10167 10157 10390 10162 
1046 1079 1376 1377 8473 10384 10388 10390 10389 10394 
1343 1377 1046 1376 10392 10390 10157 10386 10394 10388 
1344 1046 1377 1047 10162 10390 10393 10164 8254 10395 
1377 1046 1080 1047 10390 8479 10391 10395 8254 8480 
1047 1080 1378 1081 8480 10396 10397 8486 8488 10398 
1344 1378 1345 1047 10399 10400 10174 10164 10397 10169 
1047 1080 1377 1378 8480 10391 10395 10397 10396 10401 
1344 1378 1047 1377 10399 10397 10164 10393 10401 10395 
1345 1047 1378 1048 10169 10397 10400 10171 8261 10402 
1378 1047 1081 1048 10397 8486 10398 10402 8261 8487 
1048 1081 1379 1082 8487 10403 10404 8493 8495 10405 
1345 1379 1346 1048 10406 10407 10181 10171 10404 10176 
1048 1081 1378 1379 8487 10398 10402 10404 10403 10408 
1345 1379 1048 1378 10406 10404 10171 10400 10408 10402 
1346 1048 1379 1049 10176 10404 10407 10178 8268 10409 
1379 1048 1082 1049 10404 8493 10405 10409 8268 8494 
1049 1082 1380 1083 8494 10410 10411 8500 8502 10412 
1346 1380 1347 1049 10413 10414 10188 10178 10411 10183 
1049 1082 1379 1380 8494 10405 10409 10411 10410 10415 
1346 1380 1049 1379 10413 10411 10178 10407 10415 10409 
1347 1049 1380 1050 10183 10411 10414 10185 8275 10416 
1380 1049 1083 1050 10411 8500 10412 10416 8275 8501 
1050 1083 1381 1084 8501 10417 10418 8507 8509 10419 
1347 1381 1348 1050 10420 10421 10195 10185 10418 10190 
1050 1083 1380 1381 8501 10412 10416 10418 10417 10422 
1347 1381 1050 1380 10420 10418 10185 10414 10422 10416 
1348 1050 1381 1051 10190 10418 10421 10192 8282 10423 
1381 1050 1084 1051 10418 8507 10419 10423 8282 8508 
1051 1084 1382 1085 8508 10424 10425 8514 8516 10426 
1348 1382 1349 1051 10427 10428 10202 10192 10425 10197 
1051 1084 1381 1382 8508 10419 10423 10425 10424 10429 
1348 1382 1051 1381 10427 10425 10192 10421 10429 10423 
1349 1051 1382 1052 10197 10425 10428 10199 8289 10430 
1382 1051 1085 1052 10425 8514 10426 10430 8289 8515 
1052 1085 1383 1086 8515 10431 10432 8521 8523 10433 
1349 1383 1350 1052 10434 10435 10209 10199 10432 10204 
1052 1085 1382 1383 8515 10426 10430 10432 10431 10436 
1349 1383 1052 1382 10434 10432 10199 10428 10436 10430 
1350 1052 1383 1053 10204 10432 10435 10206 8296 10437 
1383 1052 1086 1053 10432 8521 10433 10437 8296 8522 
1053 1086 1384 1087 8522 10438 10439 8528 8530 10440 
1350 1384 1351 1053 10441 10442 10216 10206 10439 10211 
1053 1086 1383 1384 8522 10433 10437 10439 10438 10443 
1350 1384 1053 1383 10441 10439 10206 10435 10443 10437 
1351 1053 1384 1054 10211 10439 10442 10213 8303 10444 
1384 1053 1087 1054 10439 8528 10440 10444 8303 8529 
1054 1087 1385 1088 8529 10445 10446 8535 8537 10447 
1351 1385 1352 1054 10448 10449 10223 10213 10446 10218 
1054 1087 1384 1385 8529 10440 10444 10446 10445 10450 
1351 1385 1054 1384 10448 10446 10213 10442 10450 10444 
1352 1054 1385 1055 10218 10446 10449 10220 8310 10451 
1385 1054 1088 1055 10446 8535 10447 10451 8310 8536 
1056 1089 1387 1090 8547 10452 10453 8542 8546 10454 
1353 1387 1354 1056 10455 10456 10232 10230 10453 10225 
1056 1089 1386 1387 8547 10457 10458 10453 10452 10459 
1353 1387 1056 1386 10455 10453 10230 10460 10459 10458 
1354 1056 1387 1057 10225 10453 10456 10227 8319 10461 
1387 1056 1090 1057 10453 8542 10454 10461 8319 8543 
1057 1090 1388 1091 8543 10462 10463 8552 8554 10464 
1354 1388 1355 1057 10465 10466 10240 10227 10463 10235 
1057 1090 1387 1388 8543 10454 10461 10463 10462 10467 
1354 1388 1057 1387 10465 10463 10227 10456 10467 10461 
1355 1057 1388 1058 10235 10463 10466 10237 8327 10468 
1388 1057 1091 1058 10463 8552 10464 10468 8327 8553 
1058 1091 1389 1092 8553 10469 10470 8559 8561 10471 
1355 1389 1356 1058 10472 10473 10247 10237 10470 10242 
1058 1091 1388 1389 8553 10464 10468 10470 10469 10474 
1355 1389 1058 1388 10472 10470 10237 10466 10474 10468 
1356 1058 1389 1059 10242 10470 10473 10244 8334 10475 
1389 1058 1092 1059 10470 8559 10471 10475 8334 8560 
1059 1092 1390 1093 8560 10476 10477 8566 8568 10478 
1356 1390 1357 1059 10479 10480 10254 10244 10477 10249 
1059 1092 1389 1390 8560 10471 10475 10477 10476 10481 
1356 1390 1059 1389 10479 10477 10244 10473 10481 10475 
1357 1059 1390 1060 10249 10477 10480 10251 8341 10482 
1390 1059 1093 1060 10477 8566 10478 10482 8341 8567 
1060 1093 1391 1094 8567 10483 10484 8573 8575 10485 
1357 1391 1358 1060 10486 10487 10261 10251 10484 10256 
1060 1093 1390 1391 8567 10478 10482 10484 10483 10488 
1357 1391 1060 1390 10486 10484 10251 10480 10488 10482 
1358 1060 1391 1061 10256 10484 10487 10258 8348 10489 
1391 1060 1094 1061 10484 8573 10485 10489 8348 8574 
1061 1094 1392 1095 8574 10490 10491 8580 8582 10492 
1358 1392 1359 1061 10493 10494 10268 10258 10491 10263 
1061 1094 1391 1392 8574 10485 10489 10491 10490 10495 
1358 1392 1061 1391 10493 10491 10258 10487 10495 10489 
1359 1061 1392 1062 10263 10491 10494 10265 8355 10496 
1392 1061 1095 1062 10491 8580 10492 10496 8355 8581 
1062 1095 1393 1096 8581 10497 10498 8587 8589 10499 
1359 1393 1360 1062 10500 10501 10275 10265 10498 10270 
1062 1095 1392 1393 8581 10492 10496 10498 10497 10502 
1359 1393 1062 1392 10500 10498 10265 10494 10502 10496 
1360 1062 1393 1063 10270 10498 10501 10272 8362 10503 
1393 1062 1096 1063 10498 8587 10499 10503 8362 8588 
1063 1096 1394 1097 8588 10504 10505 8594 8596 10506 
1360 1394 1361 1063 10507 10508 10282 10272 10505 10277 
1063 1096 1393 1394 8588 10499 10503 10505 10504 10509 
1360 1394 1063 1393 10507 10505 10272 10501 10509 10503 
1361 1063 1394 1064 10277 10505 10508 10279 8369 10510 
1394 1063 1097 1064 10505 8594 10506 10510 8369 8595 
1064 1097 1395 1098 8595 10511 10512 8601 8603 10513 
1361 1395 1362 1064 10514 10515 10289 10279 10512 10284 
1064 1097 1394 1395 8595 10506 10510 10512 10511 10516 
1361 1395 1064 1394 10514 10512 10279 10508 10516 10510 
1362 1064 1395 1065 10284 10512 10515 10286 8376 10517 
1395 1064 1098 1065 10512 8601 10513 10517 8376 8602 
1065 1098 1396 1099 8602 10518 10519 8608 8610 10520 
1362 1396 1363 1065 10521 10522 10296 10286 10519 10291 
1065 1098 1395 1396 8602 10513 10517 10519 10518 10523 
1362 1396 1065 1395 10521 10519 10286 10515 10523 10517 
1363 1065 1396 1066 10291 10519 10522 10293 8383 10524 
1396 1065 1099 1066 10519 8608 10520 10524 8383 8609 
1066 1099 1397 1100 8609 10525 10526 8615 8617 10527 
1363 1397 1364 1066 10528 10529 10303 10293 10526 10298 
1066 1099 1396 1397 8609 10520 10524 10526 10525 10530 
1363 1397 1066 1396 10528 10526 10293 10522 10530 10524 
1364 1066 1397 1067 10298 10526 10529 10300 8390 10531 
1397 1066 1100 1067 10526 8615 10527 10531 8390 8616 
1067 1100 1398 1101 8616 10532 10533 8622 8624 10534 
1364 1398 1365 1067 10535 10536 10310 10300 10533 10305 
1067 1100 1397 1398 8616 10527 10531 10533 10532 10537 
1364 1398 1067 1397 10535 10533 10300 10529 10537 10531 
1365 1067 1398 1068 10305 10533 10536 10307 8397 10538 
1398 1067 1101 1068 10533 8622 10534 10538 8397 8623 
1068 1101 1399 1102 8623 10539 10540 8629 8631 10541 
1365 1399 1366 1068 10542 10543 10317 10307 10540 10312 
1068 1101 1398 1399 8623 10534 10538 10540 10539 10544 
1365 1399 1068 1398 10542 10540 10307 10536 10544 10538 
1366 1068 1399 1069 10312 10540 10543 10314 8404 10545 
1399 1068 1102 1069 10540 8629 10541 10545 8404 8630 
1069 1102 1400 1103 8630 10546 10547 8636 8638 10548 
1366 1400 1367 1069 10549 10550 10324 10314 10547 10319 
1069 1102 1399 1400 8630 10541 10545 10547 10546 10551 
1366 1400 1069 1399 10549 10547 10314 10543 10551 10545 
1367 1069 1400 1070 10319 10547 10550 10321 8411 10552 
1400 1069 1103 1070 10547 8636 10548 10552 8411 8637 
1070 1103 1401 1104 8637 10553 10554 8643 8645 10555 
1367 1401 1368 1070 10556 10557 10331 10321 10554 10326 
1070 1103 1400 1401 8637 10548 10552 10554 10553 10558 
1367 1401 1070 1400 10556 10554 10321 10550 10558 10552 
1368 1070 1401 1071 10326 10554 10557 10328 8418 10559 
1401 1070 1104 1071 10554 8643 10555 10559 8418 8644 
1071 1104 1402 1105 8644 10560 10561 8650 8652 10562 
1368 1402 1369 1071 10563 10564 10338 10328 10561 10333 
1071 1104 1401 1402 8644 10555 10559 10561 10560 10565 
1368 1402 1071 1401 10563 10561 10328 10557 10565 10559 
1369 1071 1402 1072 10333 10561 10564 10335 8425 10566 
1402 1071 1105 1072 10561 8650 10562 10566 8425 8651 
1072 1105 1403 1106 8651 10567 10568 8657 8659 10569 
1369 1403 1370 1072 10570 10571 10345 10335 10568 10340 
1072 1105 1402 1403 8651 10562 10566 10568 10567 10572 
1369 1403 1072 1402 10570 10568 10335 10564 10572 10566 
1370 1072 1403 1073 10340 10568 10571 10342 8432 10573 
1403 1072 1106 1073 10568 8657 10569 10573 8432 8658 
1073 1106 1404 1107 8658 10574 10575 8664 8666 10576 
1370 1404 1371 1073 10577 10578 10352 10342 10575 10347 
1073 1106 1403 1404 8658 10569 10573 10575 10574 10579 
1370 1404 1073 1403 10577 10575 10342 10571 10579 10573 
1371 1073 1404 1074 10347 10575 10578 10349 8439 10580 
1404 1073 1107 1074 10575 8664 10576 10580 8439 8665 
1074 1107 1405 1108 8665 10581 10582 8671 8673 10583 
1371 1405 1372 1074 10584 10585 10359 10349 10582 10354 
1074 1107 1404 1405 8665 10576 10580 10582 10581 10586 
1371 1405 1074 1404 10584 10582 10349 10578 10586 10580 
1372 1074 1405 1075 10354 10582 10585 10356 8446 10587 
1405 1074 1108 1075 10582 8671 10583 10587 8446 8672 
1075 1108 1406 1109 8672 10588 10589 8678 8680 10590 
1372 1406 1373 1075 10591 10592 10366 10356 10589 10361 
1075 1108 1405 1406 8672 10583 10587 10589 10588 10593 
1372 1406 1075 1405 10591 10589 10356 10585 10593 10587 
1373 1075 1406 1076 10361 10589 10592 10363 8453 10594 
1406 1075 1109 1076 10589 8678 10590 10594 8453 8679 
1076 1109 1407 1110 8679 10595 10596 8685 8687 10597 
1373 1407 1374 1076 10598 10599 10373 10363 10596 10368 
1076 1109 1406 1407 8679 10590 10594 10596 10595 10600 
1373 1407 1076 1406 10598 10596 10363 10592 10600 10594 
1374 1076 1407 1077 10368 10596 10599 10370 8460 10601 
1407 1076 1110 1077 10596 8685 10597 10601 8460 8686 
1077 1110 1408 1111 8686 10602 10603 8692 8694 10604 
1374 1408 1375 1077 10605 10606 10380 10370 10603 10375 
1077 1110 1407 1408 8686 10597 10601 10603 10602 10607 
1374 1408 1077 1407 10605 10603 10370 10599 10607 10601 
1375 1077 1408 1078 10375 10603 10606 10377 8467 10608 
1408 1077 1111 1078 10603 8692 10604 10608 8467 8693 
1078 1111 1409 1112 8693 10609 10610 8699 8701 10611 
1375 1409 1376 1078 10612 10613 10387 10377 10610 10382 
1078 1111 1408 1409 8693 10604 10608 10610 10609 10614 
1375 1409 1078 1408 10612 10610 10377 10606 10614 10608 
1376 1078 1409 1079 10382 10610 10613 10384 8474 10615 
1409 1078 1112 1079 10610 8699 10611 10615 8474 8700 
1079 1112 1410 1113 8700 10616 10617 8706 8708 10618 
1376 1410 1377 1079 10619 10620 10394 10384 10617 10389 
1079 1112 1409 1410 8700 10611 10615 10617 10616 10621 
1376 1410 1079 1409 10619 10617 10384 10613 10621 10615 
1377 1079 1410 1080 10389 10617 10620 10391 8481 10622 
1410 1079 1113 1080 10617 8706 10618 10622 8481 8707 
1080 1113 1411 1114 8707 10623 10624 8713 8715 10625 
1377 1411 1378 1080 10626 10627 10401 10391 10624 10396 
1080 1113 1410 1411 8707 10618 10622 10624 10623 10628 
1377 1411 1080 1410 10626 10624 10391 10620 10628 10622 
1378 1080 1411 1081 10396 10624 10627 10398 8488 10629 
1411 1080 1114 1081 10624 8713 10625 10629 8488 8714 
1081 1114 1412 1115 8714 10630 10631 8720 8722 10632 
1378 1412 1379 1081 10633 10634 10408 10398 10631 10403 
1081 1114 1411 1412 8714 10625 10629 10631 10630 10635 
1378 1412 1081 1411 10633 10631 10398 10627 10635 10629 
1379 1081 1412 1082 10403 10631 10634 10405 8495 10636 
1412 1081 1115 1082 10631 8720 10632 10636 8495 8721 
1082 1115 1413 1116 8721 10637 10638 8727 8729 10639 
1379 1413 1380 1082 10640 10641 10415 10405 10638 10410 
1082 1115 1412 1413 8721 10632 10636 10638 10637 10642 
1379 1413 1082 1412 10640 10638 10405 10634 10642 10636 
1380 1082 1413 1083 10410 10638 10641 10412 8502 10643 
1413 1082 1116 1083 10638 8727 10639 10643 8502 8728 
1083 1116 1414 1117 8728 10644 10645 8734 8736 10646 
1380 1414 1381 1083 10647 10648 10422 10412 10645 10417 
1083 1116 1413 1414 8728 10639 10643 10645 10644 10649 
1380 1414 1083 1413 10647 10645 10412 10641 10649 10643 
1381 1083 1414 1084 10417 10645 10648 10419 8509 10650 
1414 1083 1117 1084 10645 8734 10646 10650 8509 8735 
1084 1117 1415 1118 8735 10651 10652 8741 8743 10653 
1381 1415 1382 1084 10654 10655 10429 10419 10652 10424 
1084 1117 1414 1415 8735 10646 10650 10652 10651 10656 
1381 1415 1084 1414 10654 10652 10419 10648 10656 10650 
1382 1084 1415 1085 10424 10652 10655 10426 8516 10657 
1415 1084 1118 1085 10652 8741 10653 10657 8516 8742 
1085 1118 1416 1119 8742 10658 10659 8748 8750 10660 
1382 1416 1383 1085 10661 10662 10436 10426 10659 10431 
1085 1118 1415 1416 8742 10653 10657 10659 10658 10663 
1382 1416 1085 1415 10661 10659 10426 10655 10663 10657 
1383 1085 1416 1086 10431 10659 10662 10433 8523 10664 
1416 1085 1119 1086 10659 8748 10660 10664 8523 8749 
1086 1119 1417 1120 8749 10665 10666 8755 8757 10667 
1383 1417 1384 1086 10668 10669 10443 10433 10666 10438 
1086 1119 1416 1417 8749 10660 10664 10666 10665 10670 
1383 1417 1086 1416 10668 10666 10433 10662 10670 10664 
1384 1086 1417 1087 10438 10666 10669 10440 8530 10671 
1417 1086 1120 1087 10666 8755 10667 10671 8530 8756 
1087 1120 1418 1121 8756 10672 10673 8762 8764 10674 
1384 1418 1385 1087 10675 10676 10450 10440 10673 10445 
1087 1120 1417 1418 8756 10667 10671 10673 10672 10677 
1384 1418 1087 1417 10675 10673 10440 10669 10677 10671 
1385 1087 1418 1088 10445 10673 10676 10447 8537 10678 
1418 1087 1121 1088 10673 8762 10674 10678 8537 8763 
1089 1122 1420 1123 8774 10679 10680 8769 8773 10681 
1386 1420 1387 1089 10682 10683 10459 10457 10680 10452 
1089 1122 1419 1420 8774 10684 10685 10680 10679 10686 
1386 1420 1089 1419 10682 10680 10457 10687 10686 10685 
1387 1089 1420 1090 10452 10680 10683 10454 8546 10688 
1420 1089 1123 1090 10680 8769 10681 10688 8546 8770 
1090 1123 1421 1124 8770 10689 10690 8779 8781 10691 
1387 1421 1388 1090 10692 10693 10467 10454 10690 10462 
1090 1123 1420 1421 8770 10681 10688 10690 10689 10694 
1387 1421 1090 1420 10692 10690 10454 10683 10694 10688 
1388 1090 1421 1091 10462 10690 10693 10464 8554 10695 
1421 1090 1124 1091 10690 8779 10691 10695 8554 8780 
1091 1124 1422 1125 8780 10696 10697 8786 8788 10698 
1388 1422 1389 1091 10699 10700 10474 10464 10697 10469 
1091 1124 1421 1422 8780 10691 10695 10697 10696 10701 
1388 1422 1091 1421 10699 10697 10464 10693 10701 10695 
1389 1091 1422 1092 10469 10697 10700 10471 8561 10702 
1422 1091 1125 1092 10697 8786 10698 10702 8561 8787 
1092 1125 1423 1126 8787 10703 10704 8793 8795 10705 
1389 1423 1390 1092 10706 10707 10481 10471 10704 10476 
1092 1125 1422 1423 8787 10698 10702 10704 10703 10708 
1389 1423 1092 1422 10706 10704 10471 10700 10708 10702 
1390 1092 1423 1093 10476 10704 10707 10478 8568 10709 
1423 1092 1126 1093 10704 8793 10705 10709 8568 8794 
1093 1126 1424 1127 8794 10710 10711 8800 8802 10712 
1390 1424 1391 1093 10713 10714 10488 10478 10711 10483 
1093 1126 1423 1424 8794 10705 10709 10711 10710 10715 
1390 1424 1093 1423 10713 10711 10478 10707 10715 10709 
1391 1093 1424 1094 10483 10711 10714 10485 8575 10716 
1424 1093 1127 1094 10711 8800 10712 10716 8575 8801 
1094 1127 1425 1128 8801 10717 10718 8807 8809 10719 
1391 1425 1392 1094 10720 10721 10495 10485 10718 10490 
1094 1127 1424 1425 8801 10712 10716 10718 10717 10722 
1391 1425 1094 1424 10720 10718 10485 10714 10722 10716 
1392 1094 1425 1095 10490 10718 10721 10492 8582 10723 
1425 1094 1128 1095 10718 8807 10719 10723 8582 8808 
1095 1128 1426 1129 8808 10724 10725 8814 8816 10726 
1392 1426 1393 1095 10727 10728 10502 10492 10725 10497 
1095 1128 1425 1426 8808 10719 10723 10725 10724 10729 
1392 1426 1095 1425 10727 10725 10492 10721 10729 10723 
1393 1095 1426 1096 10497 10725 10728 10499 8589 10730 
1426 1095 1129 1096 10725 8814 10726 10730 8589 8815 
1096 1129 1427 1130 8815 10731 10732 8821 8823 10733 
1393 1427 1394 1096 10734 10735 10509 10499 10732 10504 
1096 1129 1426 1427 8815 10726 10730 10732 10731 10736 
1393 1427 1096 1426 10734 10732 10499 10728 10736 10730 
1394 1096 1427 1097 10504 10732 10735 10506 8596 10737 
1427 1096 1130 1097 10732 8821 10733 10737 8596 8822 
1097 1130 1428 1131 8822 10738 10739 8828 8830 10740 
1394 1428 1395 1097 10741 10742 10516 10506 10739 10511 
1097 1130 1427 1428 8822 10733 10737 10739 10738 10743 
1394 1428 1097 1427 10741 10739 10506 10735 10743 10737 
1395 1097 1428 1098 10511 10739 10742 10513 8603 10744 
1428 1097 1131 1098 10739 8828 10740 10744 8603 8829 
1098 1131 1429 1132 8829 10745 10746 8835 8837 10747 
1395 1429 1396 1098 10748 10749 10523 10513 10746 10518 
1098 1131 1428 1429 8829 10740 10744 10746 10745 10750 
1395 1429 1098 1428 10748 10746 10513 10742 10750 10744 
1396 1098 1429 1099 10518 10746 10749 10520 8610 10751 
1429 1098 1132 1099 10746 8835 10747 10751 8610 8836 
1099 1132 1430 1133 8836 10752 10753 8842 8844 10754 
1396 1430 1397 1099 10755 10756 10530 10520 10753 10525 
1099 1132 1429 1430 8836 10747 10751 10753 10752 10757 
1396 1430 1099 1429 10755 10753 10520 10749 10757 10751 
1397 1099 1430 1100 10525 10753 10756 10527 8617 10758 
1430 1099 1133 1100 10753 8842 10754 10758 8617 8843 
1100 1133 1431 1134 8843 10759 10760 8849 8851 10761 
1397 1431 1398 1100 10762 10763 10537 10527 10760 10532 
1100 1133 1430 1431 8843 10754 10758 10760 10759 10764 
1397 1431 1100 1430 10762 10760 10527 10756 10764 10758 
1398 1100 1431 1101 10532 10760 10763 10534 8624 10765 
1431 1100 1134 1101 10760 8849 10761 10765 8624 8850 
1101 1134 1432 1135 8850 10766 10767 8856 8858 10768 
1398 1432 1399 1101 10769 10770 10544 10534 10767 10539 
1101 1134 1431 1432 8850 10761 10765 10767 10766 10771 
1398 1432 1101 1431 10769 10767 10534 10763 10771 10765 
1399 1101 1432 1102 10539 10767 10770 10541 8631 10772 
1432 1101 1135 1102 10767 8856 10768 10772 8631 8857 
1102 1135 1433 1136 8857 10773 10774 8863 8865 10775 
1399 1433 1400 1102 10776 10777 10551 10541 10774 10546 
1102 1135 1432 1433 8857 10768 10772 10774 10773 10778 
1399 1433 1102 1432 10776 10774 10541 10770 10778 10772 
1400 1102 1433 1103 10546 10774 10777 10548 8638 10779 
1433 1102 1136 1103 10774 8863 10775 10779 8638 8864 
1103 1136 1434 1137 8864 10780 10781 8870 8872 10782 
1400 1434 1401 1103 10783 10784 10558 10548 10781 10553 
1103 1136 1433 1434 8864 10775 10779 10781 10780 10785 
1400 1434 1103 1433 10783 10781 10548 10777 10785 10779 
1401 1103 1434 1104 10553 10781 10784 10555 8645 10786 
1434 1103 1137 1104 10781 8870 10782 10786 8645 8871 
1104 1137 1435 1138 8871 10787 10788 8877 8879 10789 
1401 1435 1402 1104 10790 10791 10565 10555 10788 10560 
1104 1137 1434 1435 8871 10782 10786 10788 10787 10792 
1401 1435 1104 1434 10790 10788 10555 10784 10792 10786 
1402 1104 1435 1105 10560 10788 10791 10562 8652 10793 
1435 1104 1138 1105 10788 8877 10789 10793 8652 8878 
1105 1138 1436 1139 8878 10794 10795 8884 8886 10796 
1402 1436 1403 1105 10797 10798 10572 10562 10795 10567 
1105 1138 1435 1436 8878 10789 10793 10795 10794 10799 
1402 1436 1105 1435 10797 10795 10562 10791 10799 10793 
1403 1105 1436 1106 10567 10795 10798 10569 8659 10800 
1436 1105 1139 1106 10795 8884 10796 10800 8659 8885 
1106 1139 1437 1140 8885 10801 10802 8891 8893 10803 
1403 1437 1404 1106 10804 10805 10579 10569 10802 10574 
1106 1139 1436 1437 8885 10796 10800 10802 10801 10806 
1403 1437 1106 1436 10804 10802 10569 10798 10806 10800 
1404 1106 1437 1107 10574 10802 10805 10576 8666 10807 
1437 1106 1140 1107 10802 8891 10803 10807 8666 8892 
1107 1140 1438 1141 8892 10808 10809 8898 8900 10810 
1404 1438 1405 1107 10811 10812 10586 10576 10809 10581 
1107 1140 1437 1438 8892 10803 10807 10809 10808 10813 
1404 1438 1107 1437 10811 10809 10576 10805 10813 10807 
1405 1107 1438 1108 10581 10809 10812 10583 8673 10814 
1438 1107 1141 1108 10809 8898 10810 10814 8673 8899 
1108 1141 1439 1142 8899 10815 10816 8905 8907 10817 
1405 1439 1406 1108 10818 10819 10593 10583 10816 10588 
1108 1141 1438 1439 8899 10810 10814 10816 10815 10820 
1405 1439 1108 1438 10818 10816 10583 10812 10820 10814 
1406 1108 1439 1109 10588 10816 10819 10590 8680 10821 
1439 1108 1142 1109 10816 8905 10817 10821 8680 8906 
1109 1142 1440 1143 8906 10822 10823 8912 8914 10824 
1406 1440 1407 1109 10825 10826 10600 10590 10823 10595 
1109 1142 1439 1440 8906 10817 10821 10823 10822 10827 
1406 1440 1109 1439 10825 10823 10590 10819 10827 10821 
1407 1109 1440 1110 10595 10823 10826 10597 8687 10828 
1440 1109 1143 1110 10823 8912 10824 10828 8687 8913 
1110 1143 1441 1144 8913 10829 10830 8919 8921 10831 
1407 1441 1408 1110 10832 10833 10607 10597 10830 10602 
1110 1143 1440 1441 8913 10824 10828 10830 10829 10834 
1407 1441 1110 1440 10832 10830 10597 10826 10834 10828 
1408 1110 1441 1111 10602 10830 10833 10604 8694 10835 
1441 1110 1144 1111 10830 8919 10831 10835 8694 8920 
1111 1144 1442 1145 8920 10836 10837 8926 8928 10838 
1408 1442 1409 1111 10839 10840 10614 10604 10837 10609 
1111 1144 1441 1442 8920 10831 10835 10837 10836 10841 
1408 1442 1111 1441 10839 10837 10604 10833 10841 10835 
1409 1111 1442 1112 10609 10837 10840 10611 8701 10842 
1442 1111 1145 1112 10837 8926 10838 10842 8701 8927 
1112 1145 1443 1146 8927 10843 10844 8933 8935 10845 
1409 1443 1410 1112 10846 10847 10621 10611 10844 10616 
1112 1145 1442 1443 8927 10838 10842 10844 10843 10848 
1409 1443 1112 1442 10846 10844 10611 10840 10848 10842 
1410 1112 1443 1113 10616 10844 10847 10618 8708 10849 
1443 1112 1146 1113 10844 8933 10845 10849 8708 8934 
1113 1146 1444 1147 8934 10850 10851 8940 8942 10852 
1410 1444 1411 1113 10853 10854 10628 10618 10851 10623 
1113 1146 1443 1444 8934 10845 10849 10851 10850 10855 
1410 1444 1113 1443 10853 10851 10618 10847 10855 10849 
1411 1113 1444 1114 10623 10851 10854 10625 8715 10856 
1444 1113 1147 1114 10851 8940 10852 10856 8715 8941 
1114 1147 1445 1148 8941 10857 10858 8947 8949 10859 
1411 1445 1412 1114 10860 10861 10635 10625 10858 10630 
1114 1147 1444 1445 8941 10852 10856 10858 10857 10862 
1411 1445 1114 1444 10860 10858 10625 10854 10862 10856 
1412 1114 1445 1115 10630 10858 10861 10632 8722 10863 
1445 1114 1148 1115 10858 8947 10859 10863 8722 8948 
1115 1148 1446 1149 8948 10864 10865 8954 8956 10866 
1412 1446 1413 1115 10867 10868 10642 10632 10865 10637 
1115 1148 1445 1446 8948 10859 10863 10865 10864 10869 
1412 1446 1115 1445 10867 10865 10632 10861 10869 10863 
1413 1115 1446 1116 10637 10865 10868 10639 8729 10870 
1446 1115 1149 1116 10865 8954 10866 10870 8729 8955 
1116 1149 1447 1150 8955 10871 10872 8961 8963 10873 
1413 1447 1414 1116 10874 10875 10649 10639 10872 10644 
1116 1149 1446 1447 8955 10866 10870 10872 10871 10876 
1413 1447 1116 1446 10874 10872 10639 10868 10876 10870 
1414 1116 1447 1117 10644 10872 10875 10646 8736 10877 
1447 1116 1150 1117 10872 8961 10873 10877 8736 8962 
1117 1150 1448 1151 8962 10878 10879 8968 8970 10880 
1414 1448 1415 1117 10881 10882 10656 10646 10879 10651 
1117 1150 1447 1448 8962 10873 10877 10879 10878 10883 
1414 1448 1117 1447 10881 10879 10646 10875 10883 10877 
1415 1117 1448 1118 10651 10879 10882 10653 8743 10884 
1448 1117 1151 1118 10879 8968 10880 10884 8743 8969 
1118 1151 1449 1152 8969 10885 10886 8975 8977 10887 
1415 1449 1416 1118 10888 10889 10663 10653 10886 10658 
1118 1151 1448 1449 8969 10880 10884 10886 10885 10890 
1415 1449 1118 1448 10888 10886 10653 10882 10890 10884 
1416 1118 1449 1119 10658 10886 10889 10660 8750 10891 
1449 1118 1152 1119 10886 8975 10887 10891 8750 8976 
1119 1152 1450 1153 8976 10892 10893 8982 8984 10894 
1416 1450 1417 1119 10895 10896 10670 10660 10893 10665 
1119 1152 1449 1450 8976 10887 10891 10893 10892 10897 
1416 1450 1119 1449 10895 10893 10660 10889 10897 10891 
1417 1119 1450 1120 10665 10893 10896 10667 8757 10898 
1450 1119 1153 1120 10893 8982 10894 10898 8757 8983 
1120 1153 1451 1154 8983 10899 10900 8989 8991 10901 
1417 1451 1418 1120 10902 10903 10677 10667 10900 10672 
1120 1153 1450 1451 8983 10894 10898 10900 10899 10904 
1417 1451 1120 1450 10902 10900 10667 10896 10904 10898 
1418 1120 1451 1121 10672 10900 10903 10674 8764 10905 
1451 1120 1154 1121 10900 8989 10901 10905 8764 8990 
1122 1155 1453 1156 9001 10906 10907 8996 9000 10908 
1419 1453 1420 1122 10909 10910 10686 10684 10907 10679 
1122 1155 1452 1453 9001 10911 10912 10907 10906 10913 
1419 1453 1122 1452 10909 10907 10684 10914 10913 10912 
1420 1122 1453 1123 10679 10907 10910 10681 8773 10915 
1453 1122 1156 1123 10907 8996 10908 10915 8773 8997 
1123 1156 1454 1157 8997 10916 10917 9006 9008 10918 
1420 1454 1421 1123 10919 10920 10694 10681 10917 10689 
1123 1156 1453 1454 8997 10908 10915 10917 10916 10921 
1420 1454 1123 1453 10919 10917 10681 10910 10921 10915 
1421 1123 1454 1124 10689 10917 10920 10691 8781 10922 
1454 1123 1157 1124 10917 9006 10918 10922 8781 9007 
1124 1157 1455 1158 9007 10923 10924 9013 9015 10925 
1421 1455 1422 1124 10926 10927 10701 10691 10924 10696 
1124 1157 1454 1455 9007 10918 10922 10924 10923 10928 
1421 1455 1124 1454 10926 10924 10691 10920 10928 10922 
1422 1124 1455 1125 10696 10924 10927 10698 8788 10929 
1455 1124 1158 1125 10924 9013 10925 10929 8788 9014 
1125 1158 1456 1159 9014 10930 10931 9020 9022 10932 
1422 1456 1423 1125 10933 10934 10708 10698 10931 10703 
1125 1158 1455 1456 9014 10925 10929 10931 10930 10935 
1422 1456 1125 1455 10933 10931 10698 10927 10935 10929 
1423 1125 1456 1126 10703 10931 10934 10705 8795 10936 
1456 1125 1159 1126 10931 9020 10932 10936 8795 9021 
1126 1159 1457 1160 9021 10937 10938 9027 9029 10939 
1423 1457 1424 1126 10940 10941 10715 10705 10938 10710 
1126 1159 1456 1457 9021 10932 10936 10938 10937 10942 
1423 1457 1126 1456 10940 10938 10705 10934 10942 10936 
1424 1126 1457 1127 10710 10938 10941 10712 8802 10943 
1457 1126 1160 1127 10938 9027 10939 10943 8802 9028 
1127 1160 1458 1161 9028 10944 10945 9034 9036 10946 
1424 1458 1425 1127 10947 10948 10722 10712 10945 10717 
1127 1160 1457 1458 9028 10939 10943 10945 10944 10949 
1424 1458 1127 1457 10947 10945 10712 10941 10949 10943 
1425 1127 1458 1128 10717 10945 10948 10719 8809 10950 
1458 1127 1161 1128 10945 9034 10946 10950 8809 9035 
1128 1161 1459 1162 9035 10951 10952 9041 9043 10953 
1425 1459 1426 1128 10954 10955 10729 10719 10952 10724 
1128 1161 1458 1459 9035 10946 10950 10952 10951 10956 
1425 1459 1128 1458 10954 10952 10719 10948 10956 10950 
1426 1128 1459 1129 10724 10952 10955 10726 8816 10957 
1459 1128 1162 1129 10952 9041 10953 10957 8816 9042 
1129 1162 1460 1163 9042 10958 10959 9048 9050 10960 
1426 1460 1427 1129 10961 10962 10736 10726 10959 10731 
1129 1162 1459 1460 9042 10953 10957 10959 10958 10963 
1426 1460 1129 1459 10961 10959 10726 10955 10963 10957 
1427 1129 1460 1130 10731 10959 10962 10733 8823 10964 
1460 1129 1163 1130 10959 9048 10960 10964 8823 9049 
1130 1163 1461 1164 9049 10965 10966 9055 9057 10967 
1427 1461 1428 1130 10968 10969 10743 10733 10966 10738 
1130 1163 1460 1461 9049 10960 10964 10966 10965 10970 
1427 1461 1130 1460 10968 10966 10733 10962 10970 10964 
1428 1130 1461 1131 10738 10966 10969 10740 8830 10971 
1461 1130 1164 1131 10966 9055 10967 10971 8830 9056 
1131 1164 1462 1165 9056 10972 10973 9062 9064 10974 
1428 1462 1429 1131 10975 10976 10750 10740 10973 10745 
1131 1164 1461 1462 9056 10967 10971 10973 10972 10977 
1428 1462 1131 1461 10975 10973 10740 10969 10977 10971 
1429 1131 1462 1132 10745 10973 10976 10747 8837 10978 
1462 1131 1165 1132 10973 9062 10974 10978 8837 9063 
1132 1165 1463 1166 9063 10979 10980 9069 9071 10981 
1429 1463 1430 1132 10982 10983 10757 10747 10980 10752 
1132 1165 1462 1463 9063 10974 10978 10980 10979 10984 
1429 1463 1132 1462 10982 10980 10747 10976 10984 10978 
1430 1132 1463 1133 10752 10980 10983 10754 8844 10985 
1463 1132 1166 1133 10980 9069 10981 10985 8844 9070 
1133 1166 1464 1167 9070 10986 10987 9076 9078 10988 
1430 1464 1431 1133 10989 10990 10764 10754 10987 10759 
1133 1166 1463 1464 9070 10981 10985 10987 10986 10991 
1430 1464 1133 1463 10989 10987 10754 10983 10991 10985 
1431 1133 1464 1134 10759 10987 10990 10761 8851 10992 
1464 1133 1167 1134 10987 9076 10988 10992 8851 9077 
1134 1167 1465 1168 9077 10993 10994 9083 9085 10995 
1431 1465 1432 1134 10996 10997 10771 10761 10994 10766 
1134 1167 1464 1465 9077 10988 10992 10994 10993 10998 
1431 1465 1134 1464 10996 10994 10761 10990 10998 10992 
1432 1134 1465 1135 10766 10994 10997 10768 8858 10999 
1465 1134 1168 1135 10994 9083 10995 10999 8858 9084 
1135 1168 1466 1169 9084 11000 11001 9090 9092 11002 
1432 1466 1433 1135 11003 11004 10778 10768 11001 10773 
1135 1168 1465 1466 9084 10995 10999 11001 11000 11005 
1432 1466 1135 1465 11003 11001 10768 10997 11005 10999 
1433 1135 1466 1136 10773 11001 11004 10775 8865 11006 
1466 1135 1169 1136 11001 9090 11002 11006 8865 9091 
1136 1169 1467 1170 9091 11007 11008 9097 9099 11009 
1433 1467 1434 1136 11010 11011 10785 10775 11008 10780 
1136 1169 1466 1467 9091 11002 11006 11008 11007 11012 
1433 1467 1136 1466 11010 11008 10775 11004 11012 11006 
1434 1136 1467 1137 10780 11008 11011 10782 8872 11013 
1467 1136 1170 1137 11008 9097 11009 11013 8872 9098 
1137 1170 1468 1171 9098 11014 11015 9104 9106 11016 
1434 1468 1435 1137 11017 11018 10792 10782 11015 10787 
1137 1170 1467 1468 9098 11009 11013 11015 11014 11019 
1434 1468 1137 1467 11017 11015 10782 11011 11019 11013 
1435 1137 1468 1138 10787 11015 11018 10789 8879 11020 
1468 1137 1171 1138 11015 9104 11016 11020 8879 9105 
1138 1171 1469 1172 9105 11021 11022 9111 9113 11023 
1435 1469 1436 1138 11024 11025 10799 10789 11022 10794 
1138 1171 1468 1469 9105 11016 11020 11022 11021 11026 
1435 1469 1138 1468 11024 11022 10789 11018 11026 11020 
1436 1138 1469 1139 10794 11022 11025 10796 8886 11027 
1469 1138 1172 1139 11022 9111 11023 11027 8886 9112 
1139 1172 1470 1173 9112 11028 11029 9118 9120 11030 
1436 1470 1437 1139 11031 11032 10806 10796 11029 10801 
1139 1172 1469 1470 9112 11023 11027 11029 11028 11033 
1436 1470 1139 1469 11031 11029 10796 11025 11033 11027 
1437 1139 1470 1140 10801 11029 11032 10803 8893 11034 
1470 1139 1173 1140 11029 9118 11030 11034 8893 9119 
1140 1173 1471 1174 9119 11035 11036 9125 9127 11037 
1437 1471 1438 1140 11038 11039 10813 10803 11036 10808 
1140 1173 1470 1471 9119 11030 11034 11036 11035 11040 
1437 1471 1140 1470 11038 11036 10803 11032 11040 11034 
1438 1140 1471 1141 10808 11036 11039 10810 8900 11041 
1471 1140 1174 1141 11036 9125 11037 11041 8900 9126 
1141 1174 1472 1175 9126 11042 11043 9132 9134 11044 
1438 1472 1439 1141 11045 11046 10820 10810 11043 10815 
1141 1174 1471 1472 9126 11037 11041 11043 11042 11047 
1438 1472 1141 1471 11045 11043 10810 11039 11047 11041 
1439 1141 1472 1142 10815 11043 11046 10817 8907 11048 
1472 1141 1175 1142 11043 9132 11044 11048 8907 9133 
1142 1175 1473 1176 9133 11049 11050 9139 9141 11051 
1439 1473 1440 1142 11052 11053 10827 10817 11050 10822 
1142 1175 1472 1473 9133 11044 11048 11050 11049 11054 
1439 1473 1142 1472 11052 11050 10817 11046 11054 11048 
1440 1142 1473 1143 10822 11050 11053 10824 8914 11055 
1473 1142 1176 1143 11050 9139 11051 11055 8914 9140 
1143 1176 1474 1177 9140 11056 11057 9146 9148 11058 
1440 1474 1441 1143 11059 11060 10834 10824 11057 10829 
1143 1176 1473 1474 9140 11051 11055 11057 11056 11061 
1440 1474 1143 1473 11059 11057 10824 11053 11061 11055 
1441 1143 1474 1144 10829 11057 11060 10831 8921 11062 
1474 1143 1177 1144 11057 9146 11058 11062 8921 9147 
1144 1177 1475 1178 9147 11063 11064 9153 9155 11065 
1441 1475 1442 1144 11066 11067 10841 10831 11064 10836 
1144 1177 1474 1475 9147 11058 11062 11064 11063 11068 
1441 1475 1144 1474 11066 11064 10831 11060 11068 11062 
1442 1144 1475 1145 10836 11064 11067 10838 8928 11069 
1475 1144 1178 1145 11064 9153 11065 11069 8928 9154 
1145 1178 1476 1179 9154 11070 11071 9160 9162 11072 
1442 1476 1443 1145 11073 11074 10848 10838 11071 10843 
1145 1178 1475 1476 9154 11065 11069 11071 11070 11075 
1442 1476 1145 1475 11073 11071 10838 11067 11075 11069 
1443 1145 1476 1146 10843 11071 11074 10845 8935 11076 
1476 1145 1179 1146 11071 9160 11072 11076 8935 9161 
1146 1179 1477 1180 9161 11077 11078 9167 9169 11079 
1443 1477 1444 1146 11080 11081 10855 10845 11078 10850 
1146 1179 1476 1477 9161 11072 11076 11078 11077 11082 
1443 1477 1146 1476 11080 11078 10845 11074 11082 11076 
1444 1146 1477 1147 10850 11078 11081 10852 8942 11083 
1477 1146 1180 1147 11078 9167 11079 11083 8942 9168 
1147 1180 1478 1181 9168 11084 11085 9174 9176 11086 
1444 1478 1445 1147 11087 11088 10862 10852 11085 10857 
1147 1180 1477 1478 9168 11079 11083 11085 11084 11089 
1444 1478 1147 1477 11087 11085 10852 11081 11089 11083 
1445 1147 1478 1148 10857 11085 11088 10859 8949 11090 
1478 1147 1181 1148 11085 9174 11086 11090 8949 9175 
1148 1181 1479 1182 9175 11091 11092 9181 9183 11093 
1445 1479 1446 1148 11094 11095 10869 10859 11092 10864 
1148 1181 1478 1479 9175 11086 11090 11092 11091 11096 
1445 1479 1148 1478 11094 11092 10859 11088 11096 11090 
1446 1148 1479 1149 10864 11092 11095 10866 8956 11097 
1479 1148 1182 1149 11092 9181 11093 11097 8956 9182 
1149 1182 1480 1183 9182 11098 11099 9188 9190 11100 
1446 1480 1447 1149 11101 11102 10876 10866 11099 10871 
1149 1182 1479 1480 9182 11093 11097 11099 11098 11103 
1446 1480 1149 1479 11101 11099 10866 11095 11103 11097 
1447 1149 1480 1150 10871 11099 11102 10873 8963 11104 
1480 1149 1183 1150 11099 9188 11100 11104 8963 9189 
1150 1183 1481 1184 9189 11105 11106 9195 9197 11107 
1447 1481 1448 1150 11108 11109 10883 10873 11106 10878 
1150 1183 1480 1481 9189 11100 11104 11106 11105 11110 
1447 1481 1150 1480 11108 11106 10873 11102 11110 11104 
1448 1150 1481 1151 10878 11106 11109 10880 8970 11111 
1481 1150 1184 1151 11106 9195 11107 11111 8970 9196 
1151 1184 1482 1185 9196 11112 11113 9202 9204 11114 
1448 1482 1449 1151 11115 11116 10890 10880 11113 10885 
1151 1184 1481 1482 9196 11107 11111 11113 11112 11117 
1448 1482 1151 1481 11115 11113 10880 11109 11117 11111 
1449 1151 1482 1152 10885 11113 11116 10887 8977 11118 
1482 1151 1185 1152 11113 9202 11114 11118 8977 9203 
1152 1185 1483 1186 9203 11119 11120 9209 9211 11121 
1449 1483 1450 1152 11122 11123 10897 10887 11120 10892 
1152 1185 1482 1483 9203 11114 11118 11120 11119 11124 
1449 1483 1152 1482 11122 11120 10887 11116 11124 11118 
1450 1152 1483 1153 10892 11120 11123 10894 8984 11125 
1483 1152 1186 1153 11120 9209 11121 11125 8984 9210 
1153 1186 1484 1187 9210 11126 11127 9216 9218 11128 
1450 1484 1451 1153 11129 11130 10904 10894 11127 10899 
1153 1186 1483 1484 9210 11121 11125 11127 11126 11131 
1450 1484 1153 1483 11129 11127 10894 11123 11131 11125 
1451 1153 1484 1154 10899 11127 11130 10901 8991 11132 
1484 1153 1187 1154 11127 9216 11128 11132 8991 9217 
1188 1221 1519 1222 9231 11133 11134 9223 9230 11135 
1485 1519 1486 1188 11136 11137 11138 11139 11134 11140 
1188 1221 1518 1519 9231 11141 11142 11134 11133 11143 
1485 1519 1188 1518 11136 11134 11139 11144 11143 11142 
1486 1188 1519 1189 11140 11134 11137 11145 9225 11146 
1519 1188 1222 1189 11134 9223 11135 11146 9225 9224 
1189 1222 1520 1223 9224 11147 11148 9237 9241 11149 
1486 1520 1487 1189 11150 11151 11152 11145 11148 11153 
1189 1222 1519 1520 9224 11135 11146 11148 11147 11154 
1486 1520 1189 1519 11150 11148 11145 11137 11154 11146 
1487 1189 1520 1190 11153 11148 11151 11155 9239 11156 
1520 1189 1223 1190 11148 9237 11149 11156 9239 9238 
1190 1223 1521 1224 9238 11157 11158 9247 9251 11159 
1487 1521 1488 1190 11160 11161 11162 11155 11158 11163 
1190 1223 1520 1521 9238 11149 11156 11158 11157 11164 
1487 1521 1190 1520 11160 11158 11155 11151 11164 11156 
1488 1190 1521 1191 11163 11158 11161 11165 9249 11166 
1521 1190 1224 1191 11158 9247 11159 11166 9249 9248 
1191 1224 1522 1225 9248 11167 11168 9257 9261 11169 
1488 1522 1489 1191 11170 11171 11172 11165 11168 11173 
1191 1224 1521 1522 9248 11159 11166 11168 11167 11174 
1488 1522 1191 1521 11170 11168 11165 11161 11174 11166 
1489 1191 1522 1192 11173 11168 11171 11175 9259 11176 
1522 1191 1225 1192 11168 9257 11169 11176 9259 9258 
1192 1225 1523 1226 9258 11177 11178 9267 9271 11179 
1489 1523 1490 1192 11180 11181 11182 11175 11178 11183 
1192 1225 1522 1523 9258 11169 11176 11178 11177 11184 
1489 1523 1192 1522 11180 11178 11175 11171 11184 11176 
1490 1192 1523 1193 11183 11178 11181 11185 9269 11186 
1523 1192 1226 1193 11178 9267 11179 11186 9269 9268 
1193 1226 1524 1227 9268 11187 11188 9277 9281 11189 
1490 1524 1491 1193 11190 11191 11192 11185 11188 11193 
1193 1226 1523 1524 9268 11179 11186 11188 11187 11194 
1490 1524 1193 1523 11190 11188 11185 11181 11194 11186 
1491 1193 1524 1194 11193 11188 11191 11195 9279 11196 
1524 1193 1227 1194 11188 9277 11189 11196 9279 9278 
1194 1227 1525 1228 9278 11197 11198 9287 9291 11199 
1491 1525 1492 1194 11200 11201 11202 11195 11198 11203 
1194 1227 1524 1525 9278 11189 11196 11198 11197 11204 
1491 1525 1194 1524 11200 11198 11195 11191 11204 11196 
1492 1194 1525 1195 11203 11198 11201 11205 9289 11206 
1525 1194 1228 1195 11198 9287 11199 11206 9289 9288 
1195 1228 1526 1229 9288 11207 11208 9297 9301 11209 
1492 1526 1493 1195 11210 11211 11212 11205 11208 11213 
1195 1228 1525 1526 9288 11199 11206 11208 11207 11214 
1492 1526 1195 1525 11210 11208 11205 11201 11214 11206 
1493 1195 1526 1196 11213 11208 11211 11215 9299 11216 
1526 1195 1229 1196 11208 9297 11209 11216 9299 9298 
1196 1229 1527 1230 9298 11217 11218 9307 9311 11219 
1493 1527 1494 1196 11220 11221 11222 11215 11218 11223 
1196 1229 1526 1527 9298 11209 11216 11218 11217 11224 
1493 1527 1196 1526 11220 11218 11215 11211 11224 11216 
1494 1196 1527 1197 11223 11218 11221 11225 9309 11226 
1527 1196 1230 1197 11218 9307 11219 11226 9309 9308 
1197 1230 1528 1231 9308 11227 11228 9317 9321 11229 
1494 1528 1495 1197 11230 11231 11232 11225 11228 11233 
1197 1230 1527 1528 9308 11219 11226 11228 11227 11234 
1494 1528 1197 1527 11230 11228 11225 11221 11234 11226 
1495 1197 1528 1198 11233 11228 11231 11235 9319 11236 
1528 1197 1231 1198 11228 9317 11229 11236 9319 9318 
1198 1231 1529 1232 9318 11237 11238 9327 9331 11239 
1495 1529 1496 1198 11240 11241 11242 11235 11238 11243 
1198 1231 1528 1529 9318 11229 11236 11238 11237 11244 
1495 1529 1198 1528 11240 11238 11235 11231 11244 11236 
1496 1198 1529 1199 11243 11238 11241 11245 9329 11246 
1529 1198 1232 1199 11238 9327 11239 11246 9329 9328 
1199 1232 1530 1233 9328 11247 11248 9337 9341 11249 
1496 1530 1497 1199 11250 11251 11252 11245 11248 11253 
1199 1232 1529 1530 9328 11239 11246 11248 11247 11254 
1496 1530 1199 1529 11250 11248 11245 11241 11254 11246 
1497 1199 1530 1200 11253 11248 11251 11255 9339 11256 
1530 1199 1233 1200 11248 9337 11249 11256 9339 9338 
1200 1233 1531 1234 9338 11257 11258 9347 9351 11259 
1497 1531 1498 1200 11260 11261 11262 11255 11258 11263 
1200 1233 1530 1531 9338 11249 11256 11258 11257 11264 
1497 1531 1200 1530 11260 11258 11255 11251 11264 11256 
1498 1200 1531 1201 11263 11258 11261 11265 9349 11266 
1531 1200 1234 1201 11258 9347 11259 11266 9349 9348 
1201 1234 1532 1235 9348 11267 11268 9357 9361 11269 
1498 1532 1499 1201 11270 11271 11272 11265 11268 11273 
1201 1234 1531 1532 9348 11259 11266 11268 11267 11274 
1498 1532 1201 1531 11270 11268 11265 11261 11274 11266 
1499 1201 1532 1202 11273 11268 11271 11275 9359 11276 
1532 1201 1235 1202 11268 9357 11269 11276 9359 9358 
1202 1235 1533 1236 9358 11277 11278 9367 9371 11279 
1499 1533 1500 1202 11280 11281 11282 11275 11278 11283 
1202 1235 1532 1533 9358 11269 11276 11278 11277 11284 
1499 1533 1202 1532 11280 11278 11275 11271 11284 11276 
1500 1202 1533 1203 11283 11278 11281 11285 9369 11286 
1533 1202 1236 1203 11278 9367 11279 11286 9369 9368 
1203 1236 1534 1237 9368 11287 11288 9377 9381 11289 
1500 1534 1501 1203 11290 11291 11292 11285 11288 11293 
1203 1236 1533 1534 9368 11279 11286 11288 11287 11294 
1500 1534 1203 1533 11290 11288 11285 11281 11294 11286 
1501 1203 1534 1204 11293 11288 11291 11295 9379 11296 
1534 1203 1237 1204 11288 9377 11289 11296 9379 9378 
1204 1237 1535 1238 9378 11297 11298 9387 9391 11299 
1501 1535 1502 1204 11300 11301 11302 11295 11298 11303 
1204 1237 1534 1535 9378 11289 11296 11298 11297 11304 
1501 1535 1204 1534 11300 11298 11295 11291 11304 11296 
1502 1204 1535 1205 11303 11298 11301 11305 9389 11306 
1535 1204 1238 1205 11298 9387 11299 11306 9389 9388 
1205 1238 1536 1239 9388 11307 11308 9397 9401 11309 
1502 1536 1503 1205 11310 11311 11312 11305 11308 11313 
1205 1238 1535 1536 9388 11299 11306 11308 11307 11314 
1502 1536 1205 1535 11310 11308 11305 11301 11314 11306 
1503 1205 1536 1206 11313 11308 11311 11315 9399 11316 
1536 1205 1239 1206 11308 9397 11309 11316 9399 9398 
1206 1239 1537 1240 9398 11317 11318 9407 9411 11319 
1503 1537 1504 1206 11320 11321 11322 11315 11318 11323 
1206 1239 1536 1537 9398 11309 11316 11318 11317 11324 
1503 1537 1206 1536 11320 11318 11315 11311 11324 11316 
1504 1206 1537 1207 11323 11318 11321 11325 9409 11326 
1537 1206 1240 1207 11318 9407 11319 11326 9409 9408 
1207 1240 1538 1241 9408 11327 11328 9417 9421 11329 
1504 1538 1505 1207 11330 11331 11332 11325 11328 11333 
1207 1240 1537 1538 9408 11319 11326 11328 11327 11334 
1504 1538 1207 1537 11330 11328 11325 11321 11334 11326 
1505 1207 1538 1208 11333 11328 11331 11335 9419 11336 
1538 1207 1241 1208 11328 9417 11329 11336 9419 9418 
1208 1241 1539 1242 9418 11337 11338 9427 9431 11339 
1505 1539 1506 1208 11340 11341 11342 11335 11338 11343 
1208 1241 1538 1539 9418 11329 11336 11338 11337 11344 
1505 1539 1208 1538 11340 11338 11335 11331 11344 11336 
1506 1208 1539 1209 11343 11338 11341 11345 9429 11346 
1539 1208 1242 1209 11338 9427 11339 11346 9429 9428 
1209 1242 1540 1243 9428 11347 11348 9437 9441 11349 
1506 1540 1507 1209 11350 11351 11352 11345 11348 11353 
1209 1242 1539 1540 9428 11339 11346 11348 11347 11354 
1506 1540 1209 1539 11350 11348 11345 11341 11354 11346 
1507 1209 1540 1210 11353 11348 11351 11355 9439 11356 
1540 1209 1243 1210 11348 9437 11349 11356 9439 9438 
1210 1243 1541 1244 9438 11357 11358 9447 9451 11359 
1507 1541 1508 1210 11360 11361 11362 11355 11358 11363 
1210 1243 1540 1541 9438 11349 11356 11358 11357 11364 
1507 1541 1210 1540 11360 11358 11355 11351 11364 11356 
1508 1210 1541 1211 11363 11358 11361 11365 9449 11366 
1541 1210 1244 1211 11358 9447 11359 11366 9449 9448 
1211 1244 1542 1245 9448 11367 11368 9457 9461 11369 
1508 1542 1509 1211 11370 11371 11372 11365 11368 11373 
1211 1244 1541 1542 9448 11359 11366 11368 11367 11374 
1508 1542 1211 1541 11370 11368 11365 11361 11374 11366 
1509 1211 1542 1212 11373 11368 11371 11375 9459 11376 
1542 1211 1245 1212 11368 9457 11369 11376 9459 9458 
1212 1245 1543 1246 9458 11377 11378 9467 9471 11379 
1509 1543 1510 1212 11380 11381 11382 11375 11378 11383 
1212 1245 1542 1543 9458 11369 11376 11378 11377 11384 
1509 1543 1212 1542 11380 11378 11375 11371 11384 11376 
1510 1212 1543 1213 11383 11378 11381 11385 9469 11386 
1543 1212 1246 1213 11378 9467 11379 11386 9469 9468 
1213 1246 1544 1247 9468 11387 11388 9477 9481 11389 
1510 1544 1511 1213 11390 11391 11392 11385 11388 11393 
1213 1246 1543 1544 9468 11379 11386 11388 11387 11394 
1510 1544 1213 1543 11390 11388 11385 11381 11394 11386 
1511 1213 1544 1214 11393 11388 11391 11395 9479 11396 
1544 1213 1247 1214 11388 9477 11389 11396 9479 9478 
1214 1247 1545 1248 9478 11397 11398 9487 9491 11399 
1511 1545 1512 1214 11400 11401 11402 11395 11398 11403 
1214 1247 1544 1545 9478 11389 11396 11398 11397 11404 
1511 1545 1214 1544 11400 11398 11395 11391 11404 11396 
1512 1214 1545 1215 11403 11398 11401 11405 9489 11406 
1545 1214 1248 1215 11398 9487 11399 11406 9489 9488 
1215 1248 1546 1249 9488 11407 11408 9497 9501 11409 
1512 1546 1513 1215 11410 11411 11412 11405 11408 11413 
1215 1248 1545 1546 9488 11399 11406 11408 11407 11414 
1512 1546 1215 1545 11410 11408 11405 11401 11414 11406 
1513 1215 1546 1216 11413 11408 11411 11415 9499 11416 
1546 1215 1249 1216 11408 9497 11409 11416 9499 9498 
1216 1249 1547 1250 9498 11417 11418 9507 9511 11419 
1513 1547 1514 1216 11420 11421 11422 11415 11418 11423 
1216 1249 1546 1547 9498 11409 11416 11418 11417 11424 
1513 1547 1216 1546 11420 11418 11415 11411 11424 11416 
1514 1216 1547 1217 11423 11418 11421 11425 9509 11426 
1547 1216 1250 1217 11418 9507 11419 11426 9509 9508 
1217 1250 1548 1251 9508 11427 11428 9517 9521 11429 
1514 1548 1515 1217 11430 11431 11432 11425 11428 11433 
1217 1250 1547 1548 9508 11419 11426 11428 11427 11434 
1514 1548 1217 1547 11430 11428 11425 11421 11434 11426 
1515 1217 1548 1218 11433 11428 11431 11435 9519 11436 
1548 1217 1251 1218 11428 9517 11429 11436 9519 9518 
1218 1251 1549 1252 9518 11437 11438 9527 9531 11439 
1515 1549 1516 1218 11440 11441 11442 11435 11438 11443 
1218 1251 1548 1549 9518 11429 11436 11438 11437 11444 
1515 1549 1218 1548 11440 11438 11435 11431 11444 11436 
1516 1218 1549 1219 11443 11438 11441 11445 9529 11446 
1549 1218 1252 1219 11438 9527 11439 11446 9529 9528 
1219 1252 1550 1253 9528 11447 11448 9537 9541 11449 
1516 1550 1517 1219 11450 11451 11452 11445 11448 11453 
1219 1252 1549 1550 9528 11439 11446 11448 11447 11454 
1516 1550 1219 1549 11450 11448 11445 11441 11454 11446 
1517 1219 1550 1220 11453 11448 11451 11455 9539 11456 
1550 1219 1253 1220 11448 9537 11449 11456 9539 9538 
1221 1254 1552 1255 9552 11457 11458 9547 9551 11459 
1518 1552 1519 1221 11460 11461 11143 11141 11458 11133 
1221 1254 1551 1552 9552 11462 11463 11458 11457 11464 
1518 1552 1221 1551 11460 11458 11141 11465 11464 11463 
1519 1221 1552 1222 11133 11458 11461 11135 9230 11466 
1552 1221 1255 1222 11458 9547 11459 11466 9230 9548 
1222 1255 1553 1256 9548 11467 11468 9557 9559 11469 
1519 1553 1520 1222 11470 11471 11154 11135 11468 11147 
1222 1255 1552 1553 9548 11459 11466 11468 11467 11472 
1519 1553 1222 1552 11470 11468 11135 11461 11472 11466 
1520 1222 1553 1223 11147 11468 11471 11149 9241 11473 
1553 1222 1256 1223 11468 9557 11469 11473 9241 9558 
1223 1256 1554 1257 9558 11474 11475 9564 9566 11476 
1520 1554 1521 1223 11477 11478 11164 11149 11475 11157 
1223 1256 1553 1554 9558 11469 11473 11475 11474 11479 
1520 1554 1223 1553 11477 11475 11149 11471 11479 11473 
1521 1223 1554 1224 11157 11475 11478 11159 9251 11480 
1554 1223 1257 1224 11475 9564 11476 11480 9251 9565 
1224 1257 1555 1258 9565 11481 11482 9571 9573 11483 
1521 1555 1522 1224 11484 11485 11174 11159 11482 11167 
1224 1257 1554 1555 9565 11476 11480 11482 11481 11486 
1521 1555 1224 1554 11484 11482 11159 11478 11486 11480 
1522 1224 1555 1225 11167 11482 11485 11169 9261 11487 
1555 1224 1258 1225 11482 9571 11483 11487 9261 9572 
1225 1258 1556 1259 9572 11488 11489 9578 9580 11490 
1522 1556 1523 1225 11491 11492 11184 11169 11489 11177 
1225 1258 1555 1556 9572 11483 11487 11489 11488 11493 
1522 1556 1225 1555 11491 11489 11169 11485 11493 11487 
1523 1225 1556 1226 11177 11489 11492 11179 9271 11494 
1556 1225 1259 1226 11489 9578 11490 11494 9271 9579 
1226 1259 1557 1260 9579 11495 11496 9585 9587 11497 
1523 1557 1524 1226 11498 11499 11194 11179 11496 11187 
1226 1259 1556 1557 9579 11490 11494 11496 11495 11500 
1523 1557 1226 1556 11498 11496 11179 11492 11500 11494 
1524 1226 1557 1227 11187 11496 11499 11189 9281 11501 
1557 1226 1260 1227 11496 9585 11497 11501 9281 9586 
1227 1260 1558 1261 9586 11502 11503 9592 9594 11504 
1524 1558 1525 1227 11505 11506 11204 11189 11503 11197 
1227 1260 1557 1558 9586 11497 11501 11503 11502 11507 
1524 1558 1227 1557 11505 11503 11189 11499 11507 11501 
1525 1227 1558 1228 11197 11503 11506 11199 9291 11508 
1558 1227 1261 1228 11503 9592 11504 11508 9291 9593 
1228 1261 1559 1262 9593 11509 11510 9599 9601 11511 
1525 1559 1526 1228 11512 11513 11214 11199 11510 11207 
1228 1261 1558 1559 9593 11504 11508 11510 11509 11514 
1525 1559 1228 1558 11512 11510 11199 11506 11514 11508 
1526 1228 1559 1229 11207 11510 11513 11209 9301 11515 
1559 1228 1262 1229 11510 9599 11511 11515 9301 9600 
1229 1262 1560 1263 9600 11516 11517 9606 9608 11518 
1526 1560 1527 1229 11519 11520 11224 11209 11517 11217 
1229 1262 1559 1560 9600 11511 11515 11517 11516 11521 
1526 1560 1229 1559 11519 11517 11209 11513 11521 11515 
1527 1229 1560 1230 11217 11517 11520 11219 9311 11522 
1560 1229 1263 1230 11517 9606 11518 11522 9311 9607 
1230 1263 1561 1264 9607 11523 11524 9613 9615 11525 
1527 1561 1528 1230 11526 11527 11234 11219 11524 11227 
1230 1263 1560 1561 9607 11518 11522 11524 11523 11528 
1527 1561 1230 1560 11526 11524 11219 11520 11528 11522 
1528 1230 1561 1231 11227 11524 11527 11229 9321 11529 
1561 1230 1264 1231 11524 9613 11525 11529 9321 9614 
1231 1264 1562 1265 9614 11530 11531 9620 9622 11532 
1528 1562 1529 1231 11533 11534 11244 11229 11531 11237 
1231 1264 1561 1562 9614 11525 11529 11531 11530 11535 
1528 1562 1231 1561 11533 11531 11229 11527 11535 11529 
1529 1231 1562 1232 11237 11531 11534 11239 9331 11536 
1562 1231 1265 1232 11531 9620 11532 11536 9331 9621 
1232 1265 1563 1266 9621 11537 11538 9627 9629 11539 
1529 1563 1530 1232 11540 11541 11254 11239 11538 11247 
1232 1265 1562 1563 9621 11532 11536 11538 11537 11542 
1529 1563 1232 1562 11540 11538 11239 11534 11542 11536 
1530 1232 1563 1233 11247 11538 11541 11249 9341 11543 
1563 1232 1266 1233 11538 9627 11539 11543 9341 9628 
1233 1266 1564 1267 9628 11544 11545 9634 9636 11546 
1530 1564 1531 1233 11547 11548 11264 11249 11545 11257 
1233 1266 1563 1564 9628 11539 11543 11545 11544 11549 
1530 1564 1233 1563 11547 11545 11249 11541 11549 11543 
1531 1233 1564 1234 11257 11545 11548 11259 9351 11550 
1564 1233 1267 1234 11545 9634 11546 11550 9351 9635 
1234 1267 1565 1268 9635 11551 11552 9641 9643 11553 
1531 1565 1532 1234 11554 11555 11274 11259 11552 11267 
1234 1267 1564 1565 9635 11546 11550 11552 11551 11556 
1531 1565 1234 1564 11554 11552 11259 11548 11556 11550 
1532 1234 1565 1235 11267 11552 11555 11269 9361 11557 
1565 1234 1268 1235 11552 9641 11553 11557 9361 9642 
1235 1268 1566 1269 9642 11558 11559 9648 9650 11560 
1532 1566 1533 1235 11561 11562 11284 11269 11559 11277 
1235 1268 1565 1566 9642 11553 11557 11559 11558 11563 
1532 1566 1235 1565 11561 11559 11269 11555 11563 11557 
1533 1235 1566 1236 11277 11559 11562 11279 9371 11564 
1566 1235 1269 1236 11559 9648 11560 11564 9371 9649 
1236 1269 1567 1270 9649 11565 11566 9655 9657 11567 
1533 1567 1534 1236 11568 11569 11294 11279 11566 11287 
1236 1269 1566 1567 9649 11560 11564 11566 11565 11570 
1533 1567 1236 1566 11568 11566 11279 11562 11570 11564 
1534 1236 1567 1237 11287 11566 11569 11289 9381 11571 
1567 1236 1270 1237 11566 9655 11567 11571 9381 9656 
1237 1270 1568 1271 9656 11572 11573 9662 9664 11574 
1534 1568 1535 1237 11575 11576 11304 11289 11573 11297 
1237 1270 1567 1568 9656 11567 11571 11573 11572 11577 
1534 1568 1237 1567 11575 11573 11289 11569 11577 11571 
1535 1237 1568 1238 11297 11573 11576 11299 9391 11578 
1568 1237 1271 1238 11573 9662 11574 11578 9391 9663 
1238 1271 1569 1272 9663 11579 11580 9669 9671 11581 
1535 1569 1536 1238 11582 11583 11314 11299 11580 11307 
1238 1271 1568 1569 9663 11574 11578 11580 11579 11584 
1535 1569 1238 1568 11582 11580 11299 11576 11584 11578 
1536 1238 1569 1239 11307 11580 11583 11309 9401 11585 
1569 1238 1272 1239 11580 9669 11581 11585 9401 9670 
1239 1272 1570 1273 9670 11586 11587 9676 9678 11588 
1536 1570 1537 1239 11589 11590 11324 11309 11587 11317 
1239 1272 1569 1570 9670 11581 11585 11587 11586 11591 
1536 1570 1239 1569 11589 11587 11309 11583 11591 11585 
1537 1239 1570 1240 11317 11587 11590 11319 9411 11592 
1570 1239 1273 1240 11587 9676 11588 11592 9411 9677 
1240 1273 1571 1274 9677 11593 11594 9683 9685 11595 
1537 1571 1538 1240 11596 11597 11334 11319 11594 11327 
1240 1273 1570 1571 9677 11588 11592 11594 11593 11598 
1537 1571 1240 1570 11596 11594 11319 11590 11598 11592 
1538 1240 1571 1241 11327 11594 11597 11329 9421 11599 
1571 1240 1274 1241 11594 9683 11595 11599 9421 9684 
1241 1274 1572 1275 9684 11600 11601 9690 9692 11602 
1538 1572 1539 1241 11603 11604 11344 11329 11601 11337 
1241 1274 1571 1572 9684 11595 11599 11601 11600 11605 
1538 1572 1241 1571 11603 11601 11329 11597 11605 11599 
1539 1241 1572 1242 11337 11601 11604 11339 9431 11606 
1572 1241 1275 1242 11601 9690 11602 11606 9431 9691 
1242 1275 1573 1276 9691 11607 11608 9697 9699 11609 
1539 1573 1540 1242 11610 11611 11354 11339 11608 11347 
1242 1275 1572 1573 9691 11602 11606 11608 11607 11612 
1539 1573 1242 1572 11610 11608 11339 11604 11612 11606 
1540 1242 1573 1243 11347 11608 11611 11349 9441 11613 
1573 1242 1276 1243 11608 9697 11609 11613 9441 9698 
1243 1276 1574 1277 9698 11614 11615 9704 9706 11616 
1540 1574 1541 1243 11617 11618 11364 11349 11615 11357 
1243 1276 1573 1574 9698 11609 11613 11615 11614 11619 
1540 1574 1243 1573 11617 11615 11349 11611 11619 11613 
1541 1243 1574 1244 11357 11615 11618 11359 9451 11620 
1574 1243 1277 1244 11615 9704 11616 11620 9451 9705 
1244 1277 1575 1278 9705 11621 11622 9711 9713 11623 
1541 1575 1542 1244 11624 11625 11374 11359 11622 11367 
1244 1277 1574 1575 9705 11616 11620 11622 11621 11626 
1541 1575 1244 1574 11624 11622 11359 11618 11626 11620 
1542 1244 1575 1245 11367 11622 11625 11369 9461 11627 
1575 1244 1278 1245 11622 9711 11623 11627 9461 9712 
1245 1278 1576 1279 9712 11628 11629 9718 9720 11630 
1542 1576 1543 1245 11631 11632 11384 11369 11629 11377 
1245 1278 1575 1576 9712 11623 11627 11629 11628 11633 
1542 1576 1245 1575 11631 11629 11369 11625 11633 11627 
1543 1245 1576 1246 11377 11629 11632 11379 9471 11634 
1576 1245 1279 1246 11629 9718 11630 11634 9471 9719 
1246 1279 1577 1280 9719 11635 11636 9725 9727 11637 
1543 1577 1544 1246 11638 11639 11394 11379 11636 11387 
1246 1279 1576 1577 9719 11630 11634 11636 11635 11640 
1543 1577 1246 1576 11638 11636 11379 11632 11640 11634 
1544 1246 1577 1247 11387 11636 11639 11389 9481 11641 
1577 1246 1280 1247 11636 9725 11637 11641 9481 9726 
1247 1280 1578 1281 9726 11642 11643 9732 9734 11644 
1544 1578 1545 1247 11645 11646 11404 11389 11643 11397 
1247 1280 1577 1578 9726 11637 11641 11643 11642 11647 
1544 1578 1247 1577 11645 11643 11389 11639 11647 11641 
1545 1247 1578 1248 11397 11643 11646 11399 9491 11648 
1578 1247 1281 1248 11643 9732 11644 11648 9491 9733 
1248 1281 1579 1282 9733 11649 11650 9739 9741 11651 
1545 1579 1546 1248 11652 11653 11414 11399 11650 11407 
1248 1281 1578 1579 9733 11644 11648 11650 11649 11654 
1545 1579 1248 1578 11652 11650 11399 11646 11654 11648 
1546 1248 1579 1249 11407 11650 11653 11409 9501 11655 
1579 1248 1282 1249 11650 9739 11651 11655 9501 9740 
1249 1282 1580 1283 9740 11656 11657 9746 9748 11658 
1546 1580 1547 1249 11659 11660 11424 11409 11657 11417 
1249 1282 1579 1580 9740 11651 11655 11657 11656 11661 
1546 1580 1249 1579 11659 11657 11409 11653 11661 11655 
1547 1249 1580 1250 11417 11657 11660 11419 9511 11662 
1580 1249 1283 1250 11657 9746 11658 11662 9511 9747 
1250 1283 1581 1284 9747 11663 11664 9753 9755 11665 
1547 1581 1548 1250 11666 11667 11434 11419 11664 11427 
1250 1283 1580 1581 9747 11658 11662 11664 11663 11668 
1547 1581 1250 1580 11666 11664 11419 11660 11668 11662 
1548 1250 1581 1251 11427 11664 11667 11429 9521 11669 
1581 1250 1284 1251 11664 9753 11665 11669 9521 9754 
1251 1284 1582 1285 9754 11670 11671 9760 9762 11672 
1548 1582 1549 1251 11673 11674 11444 11429 11671 11437 
1251 1284 1581 1582 9754 11665 11669 11671 11670 11675 
1548 1582 1251 1581 11673 11671 11429 11667 11675 11669 
1549 1251 1582 1252 11437 11671 11674 11439 9531 11676 
1582 1251 1285 1252 11671 9760 11672 11676 9531 9761 
1252 1285 1583 1286 9761 11677 11678 9767 9769 11679 
1549 1583 1550 1252 11680 11681 11454 11439 11678 11447 
1252 1285 1582 1583 9761 11672 11676 11678 11677 11682 
1549 1583 1252 1582 11680 11678 11439 11674 11682 11676 
1550 1252 1583 1253 11447 11678 11681 11449 9541 11683 
1583 1252 1286 1253 11678 9767 11679 11683 9541 9768 
1254 1287 1585 1288 9779 11684 11685 9774 9778 11686 
1551 1585 1552 1254 11687 11688 11464 11462 11685 11457 
1254 1287 1584 1585 9779 11689 11690 11685 11684 11691 
1551 1585 1254 1584 11687 11685 11462 11692 11691 11690 
1552 1254 1585 1255 11457 11685 11688 11459 9551 11693 
1585 1254 1288 1255 11685 9774 11686 11693 9551 9775 
1255 1288 1586 1289 9775 11694 11695 9784 9786 11696 
1552 1586 1553 1255 11697 11698 11472 11459 11695 11467 
1255 1288 1585 1586 9775 11686 11693 11695 11694 11699 
1552 1586 1255 1585 11697 11695 11459 11688 11699 11693 
1553 1255 1586 1256 11467 11695 11698 11469 9559 11700 
1586 1255 1289 1256 11695 9784 11696 11700 9559 9785 
1256 1289 1587 1290 9785 11701 11702 9791 9793 11703 
1553 1587 1554 1256 11704 11705 11479 11469 11702 11474 
1256 1289 1586 1587 9785 11696 11700 11702 11701 11706 
1553 1587 1256 1586 11704 11702 11469 11698 11706 11700 
1554 1256 1587 1257 11474 11702 11705 11476 9566 11707 
1587 1256 1290 1257 11702 9791 11703 11707 9566 9792 
1257 1290 1588 1291 9792 11708 11709 9798 9800 11710 
1554 1588 1555 1257 11711 11712 11486 11476 11709 11481 
1257 1290 1587 1588 9792 11703 11707 11709 11708 11713 
1554 1588 1257 1587 11711 11709 11476 11705 11713 11707 
1555 1257 1588 1258 11481 11709 11712 11483 9573 11714 
1588 1257 1291 1258 11709 9798 11710 11714 9573 9799 
1258 1291 1589 1292 9799 11715 11716 9805 9807 11717 
1555 1589 1556 1258 11718 11719 11493 11483 11716 11488 
1258 1291 1588 1589 9799 11710 11714 11716 11715 11720 
1555 1589 1258 1588 11718 11716 11483 11712 11720 11714 
1556 1258 1589 1259 11488 11716 11719 11490 9580 11721 
1589 1258 1292 1259 11716 9805 11717 11721 9580 9806 
1259 1292 1590 1293 9806 11722 11723 9812 9814 11724 
1556 1590 1557 1259 11725 11726 11500 11490 11723 11495 
1259 1292 1589 1590 9806 11717 11721 11723 11722 11727 
1556 1590 1259 1589 11725 11723 11490 11719 11727 11721 
1557 1259 1590 1260 11495 11723 11726 11497 9587 11728 
1590 1259 1293 1260 11723 9812 11724 11728 9587 9813 
1260 1293 1591 1294 9813 11729 11730 9819 9821 11731 
1557 1591 1558 1260 11732 11733 11507 11497 11730 11502 
1260 1293 1590 1591 9813 11724 11728 11730 11729 11734 
1557 1591 1260 1590 11732 11730 11497 11726 11734 11728 
1558 1260 1591 1261 11502 11730 11733 11504 9594 11735 
1591 1260 1294 1261 11730 9819 11731 11735 9594 9820 
1261 1294 1592 1295 9820 11736 11737 9826 9828 11738 
1558 1592 1559 1261 11739 11740 11514 11504 11737 11509 
1261 1294 1591 1592 9820 11731 11735 11737 11736 11741 
1558 1592 1261 1591 11739 11737 11504 11733 11741 11735 
1559 1261 1592 1262 11509 11737 11740 11511 9601 11742 
1592 1261 1295 1262 11737 9826 11738 11742 9601 9827 
1262 1295 1593 1296 9827 11743 11744 9833 9835 11745 
1559 1593 1560 1262 11746 11747 11521 11511 11744 11516 
1262 1295 1592 1593 9827 11738 11742 11744 11743 11748 
1559 1593 1262 1592 11746 11744 11511 11740 11748 11742 
1560 1262 1593 1263 11516 11744 11747 11518 9608 11749 
1593 1262 1296 1263 11744 9833 11745 11749 9608 9834 
1263 1296 1594 1297 9834 11750 11751 9840 9842 11752 
1560 1594 1561 1263 11753 11754 11528 11518 11751 11523 
1263 1296 1593 1594 9834 11745 11749 11751 11750 11755 
1560 1594 1263 1593 11753 11751 11518 11747 11755 11749 
1561 1263 1594 1264 11523 11751 11754 11525 9615 11756 
1594 1263 1297 1264 11751 9840 11752 11756 9615 9841 
1264 1297 1595 1298 9841 11757 11758 9847 9849 11759 
1561 1595 1562 1264 11760 11761 11535 11525 11758 11530 
1264 1297 1594 1595 9841 11752 11756 11758 11757 11762 
1561 1595 1264 1594 11760 11758 11525 11754 11762 11756 
1562 1264 1595 1265 11530 11758 11761 11532 9622 11763 
1595 1264 1298 1265 11758 9847 11759 11763 9622 9848 
1265 1298 1596 1299 9848 11764 11765 9854 9856 11766 
1562 1596 1563 1265 11767 11768 11542 11532 11765 11537 
1265 1298 1595 1596 9848 11759 11763 11765 11764 11769 
1562 1596 1265 1595 11767 11765 11532 11761 11769 11763 
1563 1265 1596 1266 11537 11765 11768 11539 9629 11770 
1596 1265 1299 1266 11765 9854 11766 11770 9629 9855 
1266 1299 1597 1300 9855 11771 11772 9861 9863 11773 
1563 1597 1564 1266 11774 11775 11549 11539 11772 11544 
1266 1299 1596 1597 9855 11766 11770 11772 11771 11776 
1563 1597 1266 1596 11774 11772 11539 11768 11776 11770 
1564 1266 1597 1267 11544 11772 11775 11546 9636 11777 
1597 1266 1300 1267 11772 9861 11773 11777 9636 9862 
1267 1300 1598 1301 9862 11778 11779 9868 9870 11780 
1564 1598 1565 1267 11781 11782 11556 11546 11779 11551 
1267 1300 1597 1598 9862 11773 11777 11779 11778 11783 
1564 1598 1267 1597 11781 11779 11546 11775 11783 11777 
1565 1267 1598 1268 11551 11779 11782 11553 9643 11784 
1598 1267 1301 1268 11779 9868 11780 11784 9643 9869 
1268 1301 1599 1302 9869 11785 11786 9875 9877 11787 
1565 1599 1566 1268 11788 11789 11563 11553 11786 11558 
1268 1301 1598 1599 9869 11780 11784 11786 11785 11790 
1565 1599 1268 1598 11788 11786 11553 11782 11790 11784 
1566 1268 1599 1269 11558 11786 11789 11560 9650 11791 
1599 1268 1302 1269 11786 9875 11787 11791 9650 9876 
1269 1302 1600 1303 9876 11792 11793 9882 9884 11794 
1566 1600 1567 1269 11795 11796 11570 11560 11793 11565 
1269 1302 1599 1600 9876 11787 11791 11793 11792 11797 
1566 1600 1269 1599 11795 11793 11560 11789 11797 11791 
1567 1269 1600 1270 11565 11793 11796 11567 9657 11798 
1600 1269 1303 1270 11793 9882 11794 11798 9657 9883 
1270 1303 1601 1304 9883 11799 11800 9889 9891 11801 
1567 1601 1568 1270 11802 11803 11577 11567 11800 11572 
1270 1303 1600 1601 9883 11794 11798 11800 11799 11804 
1567 1601 1270 1600 11802 11800 11567 11796 11804 11798 
1568 1270 1601 1271 11572 11800 11803 11574 9664 11805 
1601 1270 1304 1271 11800 9889 11801 11805 9664 9890 
1271 1304 1602 1305 9890 11806 11807 9896 9898 11808 
1568 1602 1569 1271 11809 11810 11584 11574 11807 11579 
1271 1304 1601 1602 9890 11801 11805 11807 11806 11811 
1568 1602 1271 1601 11809 11807 11574 11803 11811 11805 
1569 1271 1602 1272 11579 11807 11810 11581 9671 11812 
1602 1271 1305 1272 11807 9896 11808 11812 9671 9897 
1272 1305 1603 1306 9897 11813 11814 9903 9905 11815 
1569 1603 1570 1272 11816 11817 11591 11581 11814 11586 
1272 1305 1602 1603 9897 11808 11812 11814 11813 11818 
1569 1603 1272 1602 11816 11814 11581 11810 11818 11812 
1570 1272 1603 1273 11586 11814 11817 11588 9678 11819 
1603 1272 1306 1273 11814 9903 11815 11819 9678 9904 
1273 1306 1604 1307 9904 11820 11821 9910 9912 11822 
1570 1604 1571 1273 11823 11824 11598 11588 11821 11593 
1273 1306 1603 1604 9904 11815 11819 11821 11820 11825 
1570 1604 1273 1603 11823 11821 11588 11817 11825 11819 
1571 1273 1604 1274 11593 11821 11824 11595 9685 11826 
1604 1273 1307 1274 11821 9910 11822 11826 9685 9911 
1274 1307 1605 1308 9911 11827 11828 9917 9919 11829 
1571 1605 1572 1274 11830 11831 11605 11595 11828 11600 
1274 1307 1604 1605 9911 11822 11826 11828 11827 11832 
1571 1605 1274 1604 11830 11828 11595 11824 11832 11826 
1572 1274 1605 1275 11600 11828 11831 11602 9692 11833 
1605 1274 1308 1275 11828 9917 11829 11833 9692 9918 
1275 1308 1606 1309 9918 11834 11835 9924 9926 11836 
1572 1606 1573 1275 11837 11838 11612 11602 11835 11607 
1275 1308 1605 1606 9918 11829 11833 11835 11834 11839 
1572 1606 1275 1605 11837 11835 11602 11831 11839 11833 
1573 1275 1606 1276 11607 11835 11838 11609 9699 11840 
1606 1275 1309 1276 11835 9924 11836 11840 9699 9925 
1276 1309 1607 1310 9925 11841 11842 9931 9933 11843 
1573 1607 1574 1276 11844 11845 11619 11609 11842 11614 
1276 1309 1606 1607 9925 11836 11840 11842 11841 11846 
1573 1607 1276 1606 11844 11842 11609 11838 11846 11840 
1574 1276 1607 1277 11614 11842 11845 11616 9706 11847 
1607 1276 1310 1277 11842 9931 11843 11847 9706 9932 
1277 1310 1608 1311 9932 11848 11849 9938 9940 11850 
1574 1608 1575 1277 11851 11852 11626 11616 11849 11621 
1277 1310 1607 1608 9932 11843 11847 11849 11848 11853 
1574 1608 1277 1607 11851 11849 11616 11845 11853 11847 
1575 1277 1608 1278 11621 11849 11852 11623 9713 11854 
1608 1277 1311 1278 11849 9938 11850 11854 9713 9939 
1278 1311 1609 1312 9939 11855 11856 9945 9947 11857 
1575 1609 1576 1278 11858 11859 11633 11623 11856 11628 
1278 1311 1608 1609 9939 11850 11854 11856 11855 11860 
1575 1609 1278 1608 11858 11856 11623 11852 11860 11854 
1576 1278 1609 1279 11628 11856 11859 11630 9720 11861 
1609 1278 1312 1279 11856 9945 11857 11861 9720 9946 
1279 1312 1610 1313 9946 11862 11863 9952 9954 11864 
1576 1610 1577 1279 11865 11866 11640 11630 11863 11635 
1279 1312 1609 1610 9946 11857 11861 11863 11862 11867 
1576 1610 1279 1609 11865 11863 11630 11859 11867 11861 
1577 1279 1610 1280 11635 11863 11866 11637 9727 11868 
1610 1279 1313 1280 11863 9952 11864 11868 9727 9953 
1280 1313 1611 1314 9953 11869 11870 9959 9961 11871 
1577 1611 1578 1280 11872 11873 11647 11637 11870 11642 
1280 1313 1610 1611 9953 11864 11868 11870 11869 11874 
1577 1611 1280 1610 11872 11870 11637 11866 11874 11868 
1578 1280 1611 1281 11642 11870 11873 11644 9734 11875 
1611 1280 1314 1281 11870 9959 11871 11875 9734 9960 
1281 1314 1612 1315 9960 11876 11877 9966 9968 11878 
1578 1612 1579 1281 11879 11880 11654 11644 11877 11649 
1281 1314 1611 1612 9960 11871 11875 11877 11876 11881 
1578 1612 1281 1611 11879 11877 11644 11873 11881 11875 
1579 1281 1612 1282 11649 11877 11880 11651 9741 11882 
1612 1281 1315 1282 11877 9966 11878 11882 9741 9967 
1282 1315 1613 1316 9967 11883 11884 9973 9975 11885 
1579 1613 1580 1282 11886 11887 11661 11651 11884 11656 
1282 1315 1612 1613 9967 11878 11882 11884 11883 11888 
1579 1613 1282 1612 11886 11884 11651 11880 11888 11882 
1580 1282 1613 1283 11656 11884 11887 11658 9748 11889 
1613 1282 1316 1283 11884 9973 11885 11889 9748 9974 
1283 1316 1614 1317 9974 11890 11891 9980 9982 11892 
1580 1614 1581 1283 11893 11894 11668 11658 11891 11663 
1283 1316 1613 1614 9974 11885 11889 11891 11890 11895 
1580 1614 1283 1613 11893 11891 11658 11887 11895 11889 
1581 1283 1614 1284 11663 11891 11894 11665 9755 11896 
1614 1283 1317 1284 11891 9980 11892 11896 9755 9981 
1284 1317 1615 1318 9981 11897 11898 9987 9989 11899 
1581 1615 1582 1284 11900 11901 11675 11665 11898 11670 
1284 1317 1614 1615 9981 11892 11896 11898 11897 11902 
1581 1615 1284 1614 11900 11898 11665 11894 11902 11896 
1582 1284 1615 1285 11670 11898 11901 11672 9762 11903 
1615 1284 1318 1285 11898 9987 11899 11903 9762 9988 
1285 1318 1616 1319 9988 11904 11905 9994 9996 11906 
1582 1616 1583 1285 11907 11908 11682 11672 11905 11677 
1285 1318 1615 1616 9988 11899 11903 11905 11904 11909 
1582 1616 1285 1615 11907 11905 11672 11901 11909 11903 
1583 1285 1616 1286 11677 11905 11908 11679 9769 11910 
1616 1285 1319 1286 11905 9994 11906 11910 9769 9995 
1287 1320 1618 1321 10006 11911 11912 10001 10005 11913 
1584 1618 1585 1287 11914 11915 11691 11689 11912 11684 
1287 1320 1617 1618 10006 11916 11917 11912 11911 11918 
1584 1618 1287 1617 11914 11912 11689 11919 11918 11917 
1585 1287 1618 1288 11684 11912 11915 11686 9778 11920 
1618 1287 1321 1288 11912 10001 11913 11920 9778 10002 
1288 1321 1619 1322 10002 11921 11922 10011 10013 11923 
1585 1619 1586 1288 11924 11925 11699 11686 11922 11694 
1288 1321 1618 1619 10002 11913 11920 11922 11921 11926 
1585 1619 1288 1618 11924 11922 11686 11915 11926 11920 
1586 1288 1619 1289 11694 11922 11925 11696 9786 11927 
1619 1288 1322 1289 11922 10011 11923 11927 9786 10012 
1289 1322 1620 1323 10012 11928 11929 10018 10020 11930 
1586 1620 1587 1289 11931 11932 11706 11696 11929 11701 
1289 1322 1619 1620 10012 11923 11927 11929 11928 11933 
1586 1620 1289 1619 11931 11929 11696 11925 11933 11927 
1587 1289 1620 1290 11701 11929 11932 11703 9793 11934 
1620 1289 1323 1290 11929 10018 11930 11934 9793 10019 
1290 1323 1621 1324 10019 11935 11936 10025 10027 11937 
1587 1621 1588 1290 11938 11939 11713 11703 11936 11708 
1290 1323 1620 1621 10019 11930 11934 11936 11935 11940 
1587 1621 1290 1620 11938 11936 11703 11932 11940 11934 
1588 1290 1621 1291 11708 11936 11939 11710 9800 11941 
1621 1290 1324 1291 11936 10025 11937 11941 9800 10026 
1291 1324 1622 1325 10026 11942 11943 10032 10034 11944 
1588 1622 1589 1291 11945 11946 11720 11710 11943 11715 
1291 1324 1621 1622 10026 11937 11941 11943 11942 11947 
1588 1622 1291 1621 11945 11943 11710 11939 11947 11941 
1589 1291 1622 1292 11715 11943 11946 11717 9807 11948 
1622 1291 1325 1292 11943 10032 11944 11948 9807 10033 
1292 1325 1623 1326 10033 11949 11950 10039 10041 11951 
1589 1623 1590 1292 11952 11953 11727 11717 11950 11722 
1292 1325 1622 1623 10033 11944 11948 11950 11949 11954 
1589 1623 1292 1622 11952 11950 11717 11946 11954 11948 
1590 1292 1623 1293 11722 11950 11953 11724 9814 11955 
1623 1292 1326 1293 11950 10039 11951 11955 9814 10040 
1293 1326 1624 1327 10040 11956 11957 10046 10048 11958 
1590 1624 1591 1293 11959 11960 11734 11724 11957 11729 
1293 1326 1623 1624 10040 11951 11955 11957 11956 11961 
1590 1624 1293 1623 11959 11957 11724 11953 11961 11955 
1591 1293 1624 1294 11729 11957 11960 11731 9821 11962 
1624 1293 1327 1294 11957 10046 11958 11962 9821 10047 
1294 1327 1625 1328 10047 11963 11964 10053 10055 11965 
1591 1625 1592 1294 11966 11967 11741 11731 11964 11736 
1294 1327 1624 1625 10047 11958 11962 11964 11963 11968 
1591 1625 1294 1624 11966 11964 11731 11960 11968 11962 
1592 1294 1625 1295 11736 11964 11967 11738 9828 11969 
1625 1294 1328 1295 11964 10053 11965 11969 9828 10054 
1295 1328 1626 1329 10054 11970 11971 10060 10062 11972 
1592 1626 1593 1295 11973 11974 11748 11738 11971 11743 
1295 1328 1625 1626 10054 11965 11969 11971 11970 11975 
1592 1626 1295 1625 11973 11971 11738 11967 11975 11969 
1593 1295 1626 1296 11743 11971 11974 11745 9835 11976 
1626 1295 1329 1296 11971 10060 11972 11976 9835 10061 
1296 1329 1627 1330 10061 11977 11978 10067 10069 11979 
1593 1627 1594 1296 11980 11981 11755 11745 11978 11750 
1296 1329 1626 1627 10061 11972 11976 11978 11977 11982 
1593 1627 1296 1626 11980 11978 11745 11974 11982 11976 
1594 1296 1627 1297 11750 11978 11981 11752 9842 11983 
1627 1296 1330 1297 11978 10067 11979 11983 9842 10068 
1297 1330 1628 1331 10068 11984 11985 10074 10076 11986 
1594 1628 1595 1297 11987 11988 11762 11752 11985 11757 
1297 1330 1627 1628 10068 11979 11983 11985 11984 11989 
1594 1628 1297 1627 11987 11985 11752 11981 11989 11983 
1595 1297 1628 1298 11757 11985 11988 11759 9849 11990 
1628 1297 1331 1298 11985 10074 11986 11990 9849 10075 
1298 1331 1629 1332 10075 11991 11992 10081 10083 11993 
1595 1629 1596 1298 11994 11995 11769 11759 11992 11764 
1298 1331 1628 1629 10075 11986 11990 11992 11991 11996 
1595 1629 1298 1628 11994 11992 11759 11988 11996 11990 
1596 1298 1629 1299 11764 11992 11995 11766 9856 11997 
1629 1298 1332 1299 11992 10081 11993 11997 9856 10082 
1299 1332 1630 1333 10082 11998 11999 10088 10090 12000 
1596 1630 1597 1299 12001 12002 11776 11766 11999 11771 
1299 1332 1629 1630 10082 11993 11997 11999 11998 12003 
1596 1630 1299 1629 12001 11999 11766 11995 12003 11997 
1597 1299 1630 1300 11771 11999 12002 11773 9863 12004 
1630 1299 1333 1300 11999 10088 12000 12004 9863 10089 
1300 1333 1631 1334 10089 12005 12006 10095 10097 12007 
1597 1631 1598 1300 12008 12009 11783 11773 12006 11778 
1300 1333 1630 1631 10089 12000 12004 12006 12005 12010 
1597 1631 1300 1630 12008 12006 11773 12002 12010 12004 
1598 1300 1631 1301 11778 12006 12009 11780 9870 12011 
1631 1300 1334 1301 12006 10095 12007 12011 9870 10096 
1301 1334 1632 1335 10096 12012 12013 10102 10104 12014 
1598 1632 1599 1301 12015 12016 11790 11780 12013 11785 
1301 1334 1631 1632 10096 12007 12011 12013 12012 12017 
1598 1632 1301 1631 12015 12013 11780 12009 12017 12011 
1599 1301 1632 1302 11785 12013 12016 11787 9877 12018 
1632 1301 1335 1302 12013 10102 12014 12018 9877 10103 
1302 1335 1633 1336 10103 12019 12020 10109 10111 12021 
1599 1633 1600 1302 12022 12023 11797 11787 12020 11792 
1302 1335 1632 1633 10103 12014 12018 12020 12019 12024 
1599 1633 1302 1632 12022 12020 11787 12016 12024 12018 
1600 1302 1633 1303 11792 12020 12023 11794 9884 12025 
1633 1302 1336 1303 12020 10109 12021 12025 9884 10110 
1303 1336 1634 1337 10110 12026 12027 10116 10118 12028 
1600 1634 1601 1303 12029 12030 11804 11794 12027 11799 
1303 1336 1633 1634 10110 12021 12025 12027 12026 12031 
1600 1634 1303 1633 12029 12027 11794 12023 12031 12025 
1601 1303 1634 1304 11799 12027 12030 11801 9891 12032 
1634 1303 1337 1304 12027 10116 12028 12032 9891 10117 
1304 1337 1635 1338 10117 12033 12034 10123 10125 12035 
1601 1635 1602 1304 12036 12037 11811 11801 12034 11806 
1304 1337 1634 1635 10117 12028 12032 12034 12033 12038 
1601 1635 1304 1634 12036 12034 11801 12030 12038 12032 
1602 1304 1635 1305 11806 12034 12037 11808 9898 12039 
1635 1304 1338 1305 12034 10123 12035 12039 9898 10124 
1305 1338 1636 1339 10124 12040 12041 10130 10132 12042 
1602 1636 1603 1305 12043 12044 11818 11808 12041 11813 
1305 1338 1635 1636 10124 12035 12039 12041 12040 12045 
1602 1636 1305 1635 12043 12041 11808 12037 12045 12039 
1603 1305 1636 1306 11813 12041 12044 11815 9905 12046 
1636 1305 1339 1306 12041 10130 12042 12046 9905 10131 
1306 1339 1637 1340 10131 12047 12048 10137 10139 12049 
1603 1637 1604 1306 12050 12051 11825 11815 12048 11820 
1306 1339 1636 1637 10131 12042 12046 12048 12047 12052 
1603 1637 1306 1636 12050 12048 11815 12044 12052 12046 
1604 1306 1637 1307 11820 12048 12051 11822 9912 12053 
1637 1306 1340 1307 12048 10137 12049 12053 9912 10138 
1307 1340 1638 1341 10138 12054 12055 10144 10146 12056 
1604 1638 1605 1307 12057 12058 11832 11822 12055 11827 
1307 1340 1637 1638 10138 12049 12053 12055 12054 12059 
1604 1638 1307 1637 12057 12055 11822 12051 12059 12053 
1605 1307 1638 1308 11827 12055 12058 11829 9919 12060 
1638 1307 1341 1308 12055 10144 12056 12060 9919 10145 
1308 1341 1639 1342 10145 12061 12062 10151 10153 12063 
1605 1639 1606 1308 12064 12065 11839 11829 12062 11834 
1308 1341 1638 1639 10145 12056 12060 12062 12061 12066 
1605 1639 1308 1638 12064 12062 11829 12058 12066 12060 
1606 1308 1639 1309 11834 12062 12065 11836 9926 12067 
1639 1308 1342 1309 12062 10151 12063 12067 9926 10152 
1309 1342 1640 1343 10152 12068 12069 10158 10160 12070 
1606 1640 1607 1309 12071 12072 11846 11836 12069 11841 
1309 1342 1639 1640 10152 12063 12067 12069 12068 12073 
1606 1640 1309 1639 12071 12069 11836 12065 12073 12067 
1607 1309 1640 1310 11841 12069 12072 11843 9933 12074 
1640 1309 1343 1310 12069 10158 12070 12074 9933 10159 
1310 1343 1641 1344 10159 12075 12076 10165 10167 12077 
1607 1641 1608 1310 12078 12079 11853 11843 12076 11848 
1310 1343 1640 1641 10159 12070 12074 12076 12075 12080 
1607 1641 1310 1640 12078 12076 11843 12072 12080 12074 
1608 1310 1641 1311 11848 12076 12079 11850 9940 12081 
1641 1310 1344 1311 12076 10165 12077 12081 9940 10166 
1311 1344 1642 1345 10166 12082 12083 10172 10174 12084 
1608 1642 1609 1311 12085 12086 11860 11850 12083 11855 
1311 1344 1641 1642 10166 12077 12081 12083 12082 12087 
1608 1642 1311 1641 12085 12083 11850 12079 12087 12081 
1609 1311 1642 1312 11855 12083 12086 11857 9947 12088 
1642 1311 1345 1312 12083 10172 12084 12088 9947 10173 
1312 1345 1643 1346 10173 12089 12090 10179 10181 12091 
1609 1643 1610 1312 12092 12093 11867 11857 12090 11862 
1312 1345 1642 1643 10173 12084 12088 12090 12089 12094 
1609 1643 1312 1642 12092 12090 11857 12086 12094 12088 
1610 1312 1643 1313 11862 12090 12093 11864 9954 12095 
1643 1312 1346 1313 12090 10179 12091 12095 9954 10180 
1313 1346 1644 1347 10180 12096 12097 10186 10188 12098 
1610 1644 1611 1313 12099 12100 11874 11864 12097 11869 
1313 1346 1643 1644 10180 12091 12095 12097 12096 12101 
1610 1644 1313 1643 12099 12097 11864 12093 12101 12095 
1611 1313 1644 1314 11869 12097 12100 11871 9961 12102 
1644 1313 1347 1314 12097 10186 12098 12102 9961 10187 
1314 1347 1645 1348 10187 12103 12104 10193 10195 12105 
1611 1645 1612 1314 12106 12107 11881 11871 12104 11876 
1314 1347 1644 1645 10187 12098 12102 12104 12103 12108 
1611 1645 1314 1644 12106 12104 11871 12100 12108 12102 
1612 1314 1645 1315 11876 12104 12107 11878 9968 12109 
1645 1314 1348 1315 12104 10193 12105 12109 9968 10194 
1315 1348 1646 1349 10194 12110 12111 10200 10202 12112 
1612 1646 1613 1315 12113 12114 11888 11878 12111 11883 
1315 1348 1645 1646 10194 12105 12109 12111 12110 12115 
1612 1646 1315 1645 12113 12111 11878 12107 12115 12109 
1613 1315 1646 1316 11883 12111 12114 11885 9975 12116 
1646 1315 1349 1316 12111 10200 12112 12116 9975 10201 
1316 1349 1647 1350 10201 12117 12118 10207 10209 12119 
1613 1647 1614 1316 12120 12121 11895 11885 12118 11890 
1316 1349 1646 1647 10201 12112 12116 12118 12117 12122 
1613 1647 1316 1646 12120 12118 11885 12114 12122 12116 
1614 1316 1647 1317 11890 12118 12121 11892 9982 12123 
1647 1316 1350 1317 12118 10207 12119 12123 9982 10208 
1317 1350 1648 1351 10208 12124 12125 10214 10216 12126 
1614 1648 1615 1317 12127 12128 11902 11892 12125 11897 
1317 1350 1647 1648 10208 12119 12123 12125 12124 12129 
1614 1648 1317 1647 12127 12125 11892 12121 12129 12123 
1615 1317 1648 1318 11897 12125 12128 11899 9989 12130 
1648 1317 1351 1318 12125 10214 12126 12130 9989 10215 
1318 1351 1649 1352 10215 12131 12132 10221 10223 12133 
1615 1649 1616 1318 12134 12135 11909 11899 12132 11904 
1318 1351 1648 1649 10215 12126 12130 12132 12131 12136 
1615 1649 1318 1648 12134 12132 11899 12128 12136 12130 
1616 1318 1649 1319 11904 12132 12135 11906 9996 12137 
1649 1318 1352 1319 12132 10221 12133 12137 9996 10222 
1320 1353 1651 1354 10233 12138 12139 10228 10232 12140 
1617 1651 1618 1320 12141 12142 11918 11916 12139 11911 
1320 1353 1650 1651 10233 12143 12144 12139 12138 12145 
1617 1651 1320 1650 12141 12139 11916 12146 12145 12144 
1618 1320 1651 1321 11911 12139 12142 11913 10005 12147 
1651 1320 1354 1321 12139 10228 12140 12147 10005 10229 
1321 1354 1652 1355 10229 12148 12149 10238 10240 12150 
1618 1652 1619 1321 12151 12152 11926 11913 12149 11921 
1321 1354 1651 1652 10229 12140 12147 12149 12148 12153 
1618 1652 1321 1651 12151 12149 11913 12142 12153 12147 
1619 1321 1652 1322 11921 12149 12152 11923 10013 12154 
1652 1321 1355 1322 12149 10238 12150 12154 10013 10239 
1322 1355 1653 1356 10239 12155 12156 10245 10247 12157 
1619 1653 1620 1322 12158 12159 11933 11923 12156 11928 
1322 1355 1652 1653 10239 12150 12154 12156 12155 12160 
1619 1653 1322 1652 12158 12156 11923 12152 12160 12154 
1620 1322 1653 1323 11928 12156 12159 11930 10020 12161 
1653 1322 1356 1323 12156 10245 12157 12161 10020 10246 
1323 1356 1654 1357 10246 12162 12163 10252 10254 12164 
1620 1654 1621 1323 12165 12166 11940 11930 12163 11935 
1323 1356 1653 1654 10246 12157 12161 12163 12162 12167 
1620 1654 1323 1653 12165 12163 11930 12159 12167 12161 
1621 1323 1654 1324 11935 12163 12166 11937 10027 12168 
1654 1323 1357 1324 12163 10252 12164 12168 10027 10253 
1324 1357 1655 1358 10253 12169 12170 10259 10261 12171 
1621 1655 1622 1324 12172 12173 11947 11937 12170 11942 
1324 1357 1654 1655 10253 12164 12168 12170 12169 12174 
1621 1655 1324 1654 12172 12170 11937 12166 12174 12168 
1622 1324 1655 1325 11942 12170 12173 11944 10034 12175 
1655 1324 1358 1325 12170 10259 12171 12175 10034 10260 
1325 1358 1656 1359 10260 12176 12177 10266 10268 12178 
1622 1656 1623 1325 12179 12180 11954 11944 12177 11949 
1325 1358 1655 1656 10260 12171 12175 12177 12176 12181 
1622 1656 1325 1655 12179 12177 11944 12173 12181 12175 
1623 1325 1656 1326 11949 12177 12180 11951 10041 12182 
1656 1325 1359 1326 12177 10266 12178 12182 10041 10267 
1326 1359 1657 1360 10267 12183 12184 10273 10275 12185 
1623 1657 1624 1326 12186 12187 11961 11951 12184 11956 
1326 1359 1656 1657 10267 12178 12182 12184 12183 12188 
1623 1657 1326 1656 12186 12184 11951 12180 12188 12182 
1624 1326 1657 1327 11956 12184 12187 11958 10048 12189 
1657 1326 1360 1327 12184 10273 12185 12189 10048 10274 
1327 1360 1658 1361 10274 12190 12191 10280 10282 12192 
1624 1658 1625 1327 12193 12194 11968 11958 12191 11963 
1327 1360 1657 1658 10274 12185 12189 12191 12190 12195 
1624 1658 1327 1657 12193 12191 11958 12187 12195 12189 
1625 1327 1658 1328 11963 12191 12194 11965 10055 12196 
1658 1327 1361 1328 12191 10280 12192 12196 10055 10281 
1328 1361 1659 1362 10281 12197 12198 10287 10289 12199 
1625 1659 1626 1328 12200 12201 11975 11965 12198 11970 
1328 1361 1658 1659 10281 12192 12196 12198 12197 12202 
1625 1659 1328 1658 12200 12198 11965 12194 12202 12196 
1626 1328 1659 1329 11970 12198 12201 11972 10062 12203 
1659 1328 1362 1329 12198 10287 12199 12203 10062 10288 
1329 1362 1660 1363 10288 12204 12205 10294 10296 12206 
1626 1660 1627 1329 12207 12208 11982 11972 12205 11977 
1329 1362 1659 1660 10288 12199 12203 12205 12204 12209 
1626 1660 1329 1659 12207 12205 11972 12201 12209 12203 
1627 1329 1660 1330 11977 12205 12208 11979 10069 12210 
1660 1329 1363 1330 12205 10294 12206 12210 10069 10295 
1330 1363 1661 1364 10295 12211 12212 10301 10303 12213 
1627 1661 1628 1330 12214 12215 11989 11979 12212 11984 
1330 1363 1660 1661 10295 12206 12210 12212 12211 12216 
1627 1661 1330 1660 12214 12212 11979 12208 12216 12210 
1628 1330 1661 1331 11984 12212 12215 11986 10076 12217 
1661 1330 1364 1331 12212 10301 12213 12217 10076 10302 
1331 1364 1662 1365 10302 12218 12219 10308 10310 12220 
1628 1662 1629 1331 12221 12222 11996 11986 12219 11991 
1331 1364 1661 1662 10302 12213 12217 12219 12218 12223 
1628 1662 1331 1661 12221 12219 11986 12215 12223 12217 
1629 1331 1662 1332 11991 12219 12222 11993 10083 12224 
1662 1331 1365 1332 12219 10308 12220 12224 10083 10309 
1332 1365 1663 1366 10309 12225 12226 10315 10317 12227 
1629 1663 1630 1332 12228 12229 12003 11993 12226 11998 
1332 1365 1662 1663 10309 12220 12224 12226 12225 12230 
1629 1663 1332 1662 12228 12226 11993 12222 12230 12224 
1630 1332 1663 1333 11998 12226 12229 12000 10090 12231 
1663 1332 1366 1333 12226 10315 12227 12231 10090 10316 
1333 1366 1664 1367 10316 12232 12233 10322 10324 12234 
1630 1664 1631 1333 12235 12236 12010 12000 12233 12005 
1333 1366 1663 1664 10316 12227 12231 12233 12232 12237 
1630 1664 1333 1663 12235 12233 12000 12229 12237 12231 
1631 1333 1664 1334 12005 12233 12236 12007 10097 12238 
1664 1333 1367 1334 12233 10322 12234 12238 10097 10323 
1334 1367 1665 1368 10323 12239 12240 10329 10331 12241 
1631 1665 1632 1334 12242 12243 12017 12007 12240 12012 
1334 1367 1664 1665 10323 12234 12238 12240 12239 12244 
1631 1665 1334 1664 12242 12240 12007 12236 12244 12238 
1632 1334 1665 1335 12012 12240 12243 12014 10104 12245 
1665 1334 1368 1335 12240 10329 12241 12245 10104 10330 
1335 1368 1666 1369 10330 12246 12247 10336 10338 12248 
1632 1666 1633 1335 12249 12250 12024 12014 12247 12019 
1335 1368 1665 1666 10330 12241 12245 12247 12246 12251 
1632 1666 1335 1665 12249 12247 12014 12243 12251 12245 
1633 1335 1666 1336 12019 12247 12250 12021 10111 12252 
1666 1335 1369 1336 12247 10336 12248 12252 10111 10337 
1336 1369 1667 1370 10337 12253 12254 10343 10345 12255 
1633 1667 1634 1336 12256 12257 12031 12021 12254 12026 
1336 1369 1666 1667 10337 12248 12252 12254 12253 12258 
1633 1667 1336 1666 12256 12254 12021 12250 12258 12252 
1634 1336 1667 1337 12026 12254 12257 12028 10118 12259 
1667 1336 1370 1337 12254 10343 12255 12259 10118 10344 
1337 1370 1668 1371 10344 12260 12261 10350 10352 12262 
1634 1668 1635 1337 12263 12264 12038 12028 12261 12033 
1337 1370 1667 1668 10344 12255 12259 12261 12260 12265 
1634 1668 1337 1667 12263 12261 12028 12257 12265 12259 
1635 1337 1668 1338 12033 12261 12264 12035 10125 12266 
1668 1337 1371 1338 12261 10350 12262 12266 10125 10351 
1338 1371 1669 1372 10351 12267 12268 10357 10359 12269 
1635 1669 1636 1338 12270 12271 12045 12035 12268 12040 
1338 1371 1668 1669 10351 12262 12266 12268 12267 12272 
1635 1669 1338 1668 12270 12268 12035 12264 12272 12266 
1636 1338 1669 1339 12040 12268 12271 12042 10132 12273 
1669 1338 1372 1339 12268 10357 12269 12273 10132 10358 
1339 1372 1670 1373 10358 12274 12275 10364 10366 12276 
1636 1670 1637 1339 12277 12278 12052 12042 12275 12047 
1339 1372 1669 1670 10358 12269 12273 12275 12274 12279 
1636 1670 1339 1669 12277 12275 12042 12271 12279 12273 
1637 1339 1670 1340 12047 12275 12278 12049 10139 12280 
1670 1339 1373 1340 12275 10364 12276 12280 10139 10365 
1340 1373 1671 1374 10365 12281 12282 10371 10373 12283 
1637 1671 1638 1340 12284 12285 12059 12049 12282 12054 
1340 1373 1670 1671 10365 12276 12280 12282 12281 12286 
1637 1671 1340 1670 12284 12282 12049 12278 12286 12280 
1638 1340 1671 1341 12054 12282 12285 12056 10146 12287 
1671 1340 1374 1341 12282 10371 12283 12287 10146 10372 
1341 1374 1672 1375 10372 12288 12289 10378 10380 12290 
1638 1672 1639 1341 12291 12292 12066 12056 12289 12061 
1341 1374 1671 1672 10372 12283 12287 12289 12288 12293 
1638 1672 1341 1671 12291 12289 12056 12285 12293 12287 
1639 1341 1672 1342 12061 12289 12292 12063 10153 12294 
1672 1341 1375 1342 12289 10378 12290 12294 10153 10379 
1342 1375 1673 1376 10379 12295 12296 10385 10387 12297 
1639 1673 1640 1342 12298 12299 12073 12063 12296 12068 
1342 1375 1672 1673 10379 12290 12294 12296 12295 12300 
1639 1673 1342 1672 12298 12296 12063 12292 12300 12294 
1640 1342 1673 1343 12068 12296 12299 12070 10160 12301 
1673 1342 1376 1343 12296 10385 12297 12301 10160 10386 
1343 1376 1674 1377 10386 12302 12303 10392 10394 12304 
1640 1674 1641 1343 12305 12306 12080 12070 12303 12075 
1343 1376 1673 1674 10386 12297 12301 12303 12302 12307 
1640 1674 1343 1673 12305 12303 12070 12299 12307 12301 
1641 1343 1674 1344 12075 12303 12306 12077 10167 12308 
1674 1343 1377 1344 12303 10392 12304 12308 10167 10393 
1344 1377 1675 1378 10393 12309 12310 10399 10401 12311 
1641 1675 1642 1344 12312 12313 12087 12077 12310 12082 
1344 1377 1674 1675 10393 12304 12308 12310 12309 12314 
1641 1675 1344 1674 12312 12310 12077 12306 12314 12308 
1642 1344 1675 1345 12082 12310 12313 12084 10174 12315 
1675 1344 1378 1345 12310 10399 12311 12315 10174 10400 
1345 1378 1676 1379 10400 12316 12317 10406 10408 12318 
1642 1676 1643 1345 12319 12320 12094 12084 12317 12089 
1345 1378 1675 1676 10400 12311 12315 12317 12316 12321 
1642 1676 1345 1675 12319 12317 12084 12313 12321 12315 
1643 1345 1676 1346 12089 12317 12320 12091 10181 12322 
1676 1345 1379 1346 12317 10406 12318 12322 10181 10407 
1346 1379 1677 1380 10407 12323 12324 10413 10415 12325 
1643 1677 1644 1346 12326 12327 12101 12091 12324 12096 
1346 1379 1676 1677 10407 12318 12322 12324 12323 12328 
1643 1677 1346 1676 12326 12324 12091 12320 12328 12322 
1644 1346 1677 1347 12096 12324 12327 12098 10188 12329 
1677 1346 1380 1347 12324 10413 12325 12329 10188 10414 
1347 1380 1678 1381 10414 12330 12331 10420 10422 12332 
1644 1678 1645 1347 12333 12334 12108 12098 12331 12103 
1347 1380 1677 1678 10414 12325 12329 12331 12330 12335 
1644 1678 1347 1677 12333 12331 12098 12327 12335 12329 
1645 1347 1678 1348 12103 12331 12334 12105 10195 12336 
1678 1347 1381 1348 12331 10420 12332 12336 10195 10421 
1348 1381 1679 1382 10421 12337 12338 10427 10429 12339 
1645 1679 1646 1348 12340 12341 12115 12105 12338 12110 
1348 1381 1678 1679 10421 12332 12336 12338 12337 12342 
1645 1679 1348 1678 12340 12338 12105 12334 12342 12336 
1646 1348 1679 1349 12110 12338 12341 12112 10202 12343 
1679 1348 1382 1349 12338 10427 12339 12343 10202 10428 
1349 1382 1680 1383 10428 12344 12345 10434 10436 12346 
1646 1680 1647 1349 12347 12348 12122 12112 12345 12117 
1349 1382 1679 1680 10428 12339 12343 12345 12344 12349 
1646 1680 1349 1679 12347 12345 12112 12341 12349 12343 
1647 1349 1680 1350 12117 12345 12348 12119 10209 12350 
1680 1349 1383 1350 12345 10434 12346 12350 10209 10435 
1350 1383 1681 1384 10435 12351 12352 10441 10443 12353 
1647 1681 1648 1350 12354 12355 12129 12119 12352 12124 
1350 1383 1680 1681 10435 12346 12350 12352 12351 12356 
1647 1681 1350 1680 12354 12352 12119 12348 12356 12350 
1648 1350 1681 1351 12124 12352 12355 12126 10216 12357 
1681 1350 1384 1351 12352 10441 12353 12357 10216 10442 
1351 1384 1682 1385 10442 12358 12359 10448 10450 12360 
1648 1682 1649 1351 12361 12362 12136 12126 12359 12131 
1351 1384 1681 1682 10442 12353 12357 12359 12358 12363 
1648 1682 1351 1681 12361 12359 12126 12355 12363 12357 
1649 1351 1682 1352 12131 12359 12362 12133 10223 12364 
1682 1351 1385 1352 12359 10448 12360 12364 10223 10449 
1353 1386 1684 1387 10460 12365 12366 10455 10459 12367 
1650 1684 1651 1353 12368 12369 12145 12143 12366 12138 
1353 1386 1683 1684 10460 12370 12371 12366 12365 12372 
1650 1684 1353 1683 12368 12366 12143 12373 12372 12371 
1651 1353 1684 1354 12138 12366 12369 12140 10232 12374 
1684 1353 1387 1354 12366 10455 12367 12374 10232 10456 
1354 1387 1685 1388 10456 12375 12376 10465 10467 12377 
1651 1685 1652 1354 12378 12379 12153 12140 12376 12148 
1354 1387 1684 1685 10456 12367 12374 12376 12375 12380 
1651 1685 1354 1684 12378 12376 12140 12369 12380 12374 
1652 1354 1685 1355 12148 12376 12379 12150 10240 12381 
1685 1354 1388 1355 12376 10465 12377 12381 10240 10466 
1355 1388 1686 1389 10466 12382 12383 10472 10474 12384 
1652 1686 1653 1355 12385 12386 12160 12150 12383 12155 
1355 1388 1685 1686 10466 12377 12381 12383 12382 12387 
1652 1686 1355 1685 12385 12383 12150 12379 12387 12381 
1653 1355 1686 1356 12155 12383 12386 12157 10247 12388 
1686 1355 1389 1356 12383 10472 12384 12388 10247 10473 
1356 1389 1687 1390 10473 12389 12390 10479 10481 12391 
1653 1687 1654 1356 12392 12393 12167 12157 12390 12162 
1356 1389 1686 1687 10473 12384 12388 12390 12389 12394 
1653 1687 1356 1686 12392 12390 12157 12386 12394 12388 
1654 1356 1687 1357 12162 12390 12393 12164 10254 12395 
1687 1356 1390 1357 12390 10479 12391 12395 10254 10480 
1357 1390 1688 1391 10480 12396 12397 10486 10488 12398 
1654 1688 1655 1357 12399 12400 12174 12164 12397 12169 
1357 1390 1687 1688 10480 12391 12395 12397 12396 12401 
1654 1688 1357 1687 12399 12397 12164 12393 12401 12395 
1655 1357 1688 1358 12169 12397 12400 12171 10261 12402 
1688 1357 1391 1358 12397 10486 12398 12402 10261 10487 
1358 1391 1689 1392 10487 12403 12404 10493 10495 12405 
1655 1689 1656 1358 12406 12407 12181 12171 12404 12176 
1358 1391 1688 1689 10487 12398 12402 12404 12403 12408 
1655 1689 1358 1688 12406 12404 12171 12400 12408 12402 
1656 1358 1689 1359 12176 12404 12407 12178 10268 12409 
1689 1358 1392 1359 12404 10493 12405 12409 10268 10494 
1359 1392 1690 1393 10494 12410 12411 10500 10502 12412 
1656 1690 1657 1359 12413 12414 12188 12178 12411 12183 
1359 1392 1689 1690 10494 12405 12409 12411 12410 12415 
1656 1690 1359 1689 12413 12411 12178 12407 12415 12409 
1657 1359 1690 1360 12183 12411 12414 12185 10275 12416 
1690 1359 1393 1360 12411 10500 12412 12416 10275 10501 
1360 1393 1691 1394 10501 12417 12418 10507 10509 12419 
1657 1691 1658 1360 12420 12421 12195 12185 12418 12190 
1360 1393 1690 1691 10501 12412 12416 12418 12417 12422 
1657 1691 1360 1690 12420 12418 12185 12414 12422 12416 
1658 1360 1691 1361 12190 12418 12421 12192 10282 12423 
1691 1360 1394 1361 12418 10507 12419 12423 10282 10508 
1361 1394 1692 1395 10508 12424 12425 10514 10516 12426 
1658 1692 1659 1361 12427 12428 12202 12192 12425 12197 
1361 1394 1691 1692 10508 12419 12423 12425 12424 12429 
1658 1692 1361 1691 12427 12425 12192 12421 12429 12423 
1659 1361 1692 1362 12197 12425 12428 12199 10289 12430 
1692 1361 1395 1362 12425 10514 12426 12430 10289 10515 
1362 1395 1693 1396 10515 12431 12432 10521 10523 12433 
1659 1693 1660 1362 12434 12435 12209 12199 12432 12204 
1362 1395 1692 1693 10515 12426 12430 12432 12431 12436 
1659 1693 1362 1692 12434 12432 12199 12428 12436 12430 
1660 1362 1693 1363 12204 12432 12435 12206 10296 12437 
1693 1362 1396 1363 12432 10521 12433 12437 10296 10522 
1363 1396 1694 1397 10522 12438 12439 10528 10530 12440 
1660 1694 1661 1363 12441 12442 12216 12206 12439 12211 
1363 1396 1693 1694 10522 12433 12437 12439 12438 12443 
1660 1694 1363 1693 12441 12439 12206 12435 12443 12437 
1661 1363 1694 1364 12211 12439 12442 12213 10303 12444 
1694 1363 1397 1364 12439 10528 12440 12444 10303 10529 
1364 1397 1695 1398 10529 12445 12446 10535 10537 12447 
1661 1695 1662 1364 12448 12449 12223 12213 12446 12218 
1364 1397 1694 1695 10529 12440 12444 12446 12445 12450 
1661 1695 1364 1694 12448 12446 12213 12442 12450 12444 
1662 1364 1695 1365 12218 12446 12449 12220 10310 12451 
1695 1364 1398 1365 12446 10535 12447 12451 10310 10536 
1365 1398 1696 1399 10536 12452 12453 10542 10544 12454 
1662 1696 1663 1365 12455 12456 12230 12220 12453 12225 
1365 1398 1695 1696 10536 12447 12451 12453 12452 12457 
1662 1696 1365 1695 12455 12453 12220 12449 12457 12451 
1663 1365 1696 1366 12225 12453 12456 12227 10317 12458 
1696 1365 1399 1366 12453 10542 12454 12458 10317 10543 
1366 1399 1697 1400 10543 12459 12460 10549 10551 12461 
1663 1697 1664 1366 12462 12463 12237 12227 12460 12232 
1366 1399 1696 1697 10543 12454 12458 12460 12459 12464 
1663 1697 1366 1696 12462 12460 12227 12456 12464 12458 
1664 1366 1697 1367 12232 12460 12463 12234 10324 12465 
1697 1366 1400 1367 12460 10549 12461 12465 10324 10550 
1367 1400 1698 1401 10550 12466 12467 10556 10558 12468 
1664 1698 1665 1367 12469 12470 12244 12234 12467 12239 
1367 1400 1697 1698 10550 12461 12465 12467 12466 12471 
1664 1698 1367 1697 12469 12467 12234 12463 12471 12465 
1665 1367 1698 1368 12239 12467 12470 12241 10331 12472 
1698 1367 1401 1368 12467 10556 12468 12472 10331 10557 
1368 1401 1699 1402 10557 12473 12474 10563 10565 12475 
1665 1699 1666 1368 12476 12477 12251 12241 12474 12246 
1368 1401 1698 1699 10557 12468 12472 12474 12473 12478 
1665 1699 1368 1698 12476 12474 12241 12470 12478 12472 
1666 1368 1699 1369 12246 12474 12477 12248 10338 12479 
1699 1368 1402 1369 12474 10563 12475 12479 10338 10564 
1369 1402 1700 1403 10564 12480 12481 10570 10572 12482 
1666 1700 1667 1369 12483 12484 12258 12248 12481 12253 
1369 1402 1699 1700 10564 12475 12479 12481 12480 12485 
1666 1700 1369 1699 12483 12481 12248 12477 12485 12479 
1667 1369 1700 1370 12253 12481 12484 12255 10345 12486 
1700 1369 1403 1370 12481 10570 12482 12486 10345 10571 
1370 1403 1701 1404 10571 12487 12488 10577 10579 12489 
1667 1701 1668 1370 12490 12491 12265 12255 12488 12260 
1370 1403 1700 1701 10571 12482 12486 12488 12487 12492 
1667 1701 1370 1700 12490 12488 12255 12484 12492 12486 
1668 1370 1701 1371 12260 12488 12491 12262 10352 12493 
1701 1370 1404 1371 12488 10577 12489 12493 10352 10578 
1371 1404 1702 1405 10578 12494 12495 10584 10586 12496 
1668 1702 1669 1371 12497 12498 12272 12262 12495 12267 
1371 1404 1701 1702 10578 12489 12493 12495 12494 12499 
1668 1702 1371 1701 12497 12495 12262 12491 12499 12493 
1669 1371 1702 1372 12267 12495 12498 12269 10359 12500 
1702 1371 1405 1372 12495 10584 12496 12500 10359 10585 
1372 1405 1703 1406 10585 12501 12502 10591 10593 12503 
1669 1703 1670 1372 12504 12505 12279 12269 12502 12274 
1372 1405 1702 1703 10585 12496 12500 12502 12501 12506 
1669 1703 1372 1702 12504 12502 12269 12498 12506 12500 
1670 1372 1703 1373 12274 12502 12505 12276 10366 12507 
1703 1372 1406 1373 12502 10591 12503 12507 10366 10592 
1373 1406 1704 1407 10592 12508 12509 10598 10600 12510 
1670 1704 1671 1373 12511 12512 12286 12276 12509 12281 
1373 1406 1703 1704 10592 12503 12507 12509 12508 12513 
1670 1704 1373 1703 12511 12509 12276 12505 12513 12507 
1671 1373 1704 1374 12281 12509 12512 12283 10373 12514 
1704 1373 1407 1374 12509 10598 12510 12514 10373 10599 
1374 1407 1705 1408 10599 12515 12516 10605 10607 12517 
1671 1705 1672 1374 12518 12519 12293 12283 12516 12288 
1374 1407 1704 1705 10599 12510 12514 12516 12515 12520 
1671 1705 1374 1704 12518 12516 12283 12512 12520 12514 
1672 1374 1705 1375 12288 12516 12519 12290 10380 12521 
1705 1374 1408 1375 12516 10605 12517 12521 10380 10606 
1375 1408 1706 1409 10606 12522 12523 10612 10614 12524 
1672 1706 1673 1375 12525 12526 12300 12290 12523 12295 
1375 1408 1705 1706 10606 12517 12521 12523 12522 12527 
1672 1706 1375 1705 12525 12523 12290 12519 12527 12521 
1673 1375 1706 1376 12295 12523 12526 12297 10387 12528 
1706 1375 1409 1376 12523 10612 12524 12528 10387 10613 
1376 1409 1707 1410 10613 12529 12530 10619 10621 12531 
1673 1707 1674 1376 12532 12533 12307 12297 12530 12302 
1376 1409 1706 1707 10613 12524 12528 12530 12529 12534 
1673 1707 1376 1706 12532 12530 12297 12526 12534 12528 
1674 1376 1707 1377 12302 12530 12533 12304 10394 12535 
1707 1376 1410 1377 12530 10619 12531 12535 10394 10620 
1377 1410 1708 1411 10620 12536 12537 10626 10628 12538 
1674 1708 1675 1377 12539 12540 12314 12304 12537 12309 
1377 1410 1707 1708 10620 12531 12535 12537 12536 12541 
1674 1708 1377 1707 12539 12537 12304 12533 12541 12535 
1675 1377 1708 1378 12309 12537 12540 12311 10401 12542 
1708 1377 1411 1378 12537 10626 12538 12542 10401 10627 
1378 1411 1709 1412 10627 12543 12544 10633 10635 12545 
1675 1709 1676 1378 12546 12547 12321 12311 12544 12316 
1378 1411 1708 1709 10627 12538 12542 12544 12543 12548 
1675 1709 1378 1708 12546 12544 12311 12540 12548 12542 
1676 1378 1709 1379 12316 12544 12547 12318 10408 12549 
1709 1378 1412 1379 12544 10633 12545 12549 10408 10634 
1379 1412 1710 1413 10634 12550 12551 10640 10642 12552 
1676 1710 1677 1379 12553 12554 12328 12318 12551 12323 
1379 1412 1709 1710 10634 12545 12549 12551 12550 12555 
1676 1710 1379 1709 12553 12551 12318 12547 12555 12549 
1677 1379 1710 1380 12323 12551 12554 12325 10415 12556 
1710 1379 1413 1380 12551 10640 12552 12556 10415 10641 
1380 1413 1711 1414 10641 12557 12558 10647 10649 12559 
1677 1711 1678 1380 12560 12561 12335 12325 12558 12330 
1380 1413 1710 1711 10641 12552 12556 12558 12557 12562 
1677 1711 1380 1710 12560 12558 12325 12554 12562 12556 
1678 1380 1711 1381 12330 12558 12561 12332 10422 12563 
1711 1380 1414 1381 12558 10647 12559 12563 10422 10648 
1381 1414 1712 1415 10648 12564 12565 10654 10656 12566 
1678 1712 1679 1381 12567 12568 12342 12332 12565 12337 
1381 1414 1711 1712 10648 12559 12563 12565 12564 12569 
1678 1712 1381 1711 12567 12565 12332 12561 12569 12563 
1679 1381 1712 1382 12337 12565 12568 12339 10429 12570 
1712 1381 1415 1382 12565 10654 12566 12570 10429 10655 
1382 1415 1713 1416 10655 12571 12572 10661 10663 12573 
1679 1713 1680 1382 12574 12575 12349 12339 12572 12344 
1382 1415 1712 1713 10655 12566 12570 12572 12571 12576 
1679 1713 1382 1712 12574 12572 12339 12568 12576 12570 
1680 1382 1713 1383 12344 12572 12575 12346 10436 12577 
1713 1382 1416 1383 12572 10661 12573 12577 10436 10662 
1383 1416 1714 1417 10662 12578 12579 10668 10670 12580 
1680 1714 1681 1383 12581 12582 12356 12346 12579 12351 
1383 1416 1713 1714 10662 12573 12577 12579 12578 12583 
1680 1714 1383 1713 12581 12579 12346 12575 12583 12577 
1681 1383 1714 1384 12351 12579 12582 12353 10443 12584 
1714 1383 1417 1384 12579 10668 12580 12584 10443 10669 
1384 1417 1715 1418 10669 12585 12586 10675 10677 12587 
1681 1715 1682 1384 12588 12589 12363 12353 12586 12358 
1384 1417 1714 1715 10669 12580 12584 12586 12585 12590 
1681 1715 1384 1714 12588 12586 12353 12582 12590 12584 
1682 1384 1715 1385 12358 12586 12589 12360 10450 12591 
1715 1384 1418 1385 12586 10675 12587 12591 10450 10676 
1386 1419 1717 1420 10687 12592 12593 10682 10686 12594 
1683 1717 1684 1386 12595 12596 12372 12370 12593 12365 
1386 1419 1716 1717 10687 12597 12598 12593 12592 12599 
1683 1717 1386 1716 12595 12593 12370 12600 12599 12598 
1684 1386 1717 1387 12365 12593 12596 12367 10459 12601 
1717 1386 1420 1387 12593 10682 12594 12601 10459 10683 
1387 1420 1718 1421 10683 12602 12603 10692 10694 12604 
1684 1718 1685 1387 12605 12606 12380 12367 12603 12375 
1387 1420 1717 1718 10683 12594 12601 12603 12602 12607 
1684 1718 1387 1717 12605 12603 12367 12596 12607 12601 
1685 1387 1718 1388 12375 12603 12606 12377 10467 12608 
1718 1387 1421 1388 12603 10692 12604 12608 10467 10693 
1388 1421 1719 1422 10693 12609 12610 10699 10701 12611 
1685 1719 1686 1388 12612 12613 12387 12377 12610 12382 
1388 1421 1718 1719 10693 12604 12608 12610 12609 12614 
1685 1719 1388 1718 12612 12610 12377 12606 12614 12608 
1686 1388 1719 1389 12382 12610 12613 12384 10474 12615 
1719 1388 1422 1389 12610 10699 12611 12615 10474 10700 
1389 1422 1720 1423 10700 12616 12617 10706 10708 12618 
1686 1720 1687 1389 12619 12620 12394 12384 12617 12389 
1389 1422 1719 1720 10700 12611 12615 12617 12616 12621 
1686 1720 1389 1719 12619 12617 12384 12613 12621 12615 
1687 1389 1720 1390 12389 12617 12620 12391 10481 12622 
1720 1389 1423 1390 12617 10706 12618 12622 10481 10707 
1390 1423 1721 1424 10707 12623 12624 10713 10715 12625 
1687 1721 1688 1390 12626 12627 12401 12391 12624 12396 
1390 1423 1720 1721 10707 12618 12622 12624 12623 12628 
1687 1721 1390 1720 12626 12624 12391 12620 12628 12622 
1688 1390 1721 1391 12396 12624 12627 12398 10488 12629 
1721 1390 1424 1391 12624 10713 12625 12629 10488 10714 
1391 1424 1722 1425 10714 12630 12631 10720 10722 12632 
1688 1722 1689 1391 12633 12634 12408 12398 12631 12403 
1391 1424 1721 1722 10714 12625 12629 12631 12630 12635 
1688 1722 1391 1721 12633 12631 12398 12627 12635 12629 
1689 1391 1722 1392 12403 12631 12634 12405 10495 12636 
1722 1391 1425 1392 12631 10720 12632 12636 10495 10721 
1392 1425 1723 1426 10721 12637 12638 10727 10729 12639 
1689 1723 1690 1392 12640 12641 12415 12405 12638 12410 
1392 1425 1722 1723 10721 12632 12636 12638 12637 12642 
1689 1723 1392 1722 12640 12638 12405 12634 12642 12636 
1690 1392 1723 1393 12410 12638 12641 12412 10502 12643 
1723 1392 1426 1393 12638 10727 12639 12643 10502 10728 
1393 1426 1724 1427 10728 12644 12645 10734 10736 12646 
1690 1724 1691 1393 12647 12648 12422 12412 12645 12417 
1393 1426 1723 1724 10728 12639 12643 12645 12644 12649 
1690 1724 1393 1723 12647 12645 12412 12641 12649 12643 
1691 1393 1724 1394 12417 12645 12648 12419 10509 12650 
1724 1393 1427 1394 12645 10734 12646 12650 10509 10735 
1394 1427 1725 1428 10735 12651 12652 10741 10743 12653 
1691 1725 1692 1394 12654 12655 12429 12419 12652 12424 
1394 1427 1724 1725 10735 12646 12650 12652 12651 12656 
1691 1725 1394 1724 12654 12652 12419 12648 12656 12650 
1692 1394 1725 1395 12424 12652 12655 12426 10516 12657 
1725 1394 1428 1395 12652 10741 12653 12657 10516 10742 
1395 1428 1726 1429 10742 12658 12659 10748 10750 12660 
1692 1726 1693 1395 12661 12662 12436 12426 12659 12431 
1395 1428 1725 1726 10742 12653 12657 12659 12658 12663 
1692 1726 1395 1725 12661 12659 12426 12655 12663 12657 
1693 1395 1726 1396 12431 12659 12662 12433 10523 12664 
1726 1395 1429 1396 12659 10748 12660 12664 10523 10749 
1396 1429 1727 1430 10749 12665 12666 10755 10757 12667 
1693 1727 1694 1396 12668 12669 12443 12433 12666 12438 
1396 1429 1726 1727 10749 12660 12664 12666 12665 12670 
1693 1727 1396 1726 12668 12666 12433 12662 12670 12664 
1694 1396 1727 1397 12438 12666 12669 12440 10530 12671 
1727 1396 1430 1397 12666 10755 12667 12671 10530 10756 
1397 1430 1728 1431 10756 12672 12673 10762 10764 12674 
1694 1728 1695 1397 12675 12676 12450 12440 12673 12445 
1397 1430 1727 1728 10756 12667 12671 12673 12672 12677 
1694 1728 1397 1727 12675 12673 12440 12669 12677 12671 
1695 1397 1728 1398 12445 12673 12676 12447 10537 12678 
1728 1397 1431 1398 12673 10762 12674 12678 10537 10763 
1398 1431 1729 1432 10763 12679 12680 10769 10771 12681 
1695 1729 1696 1398 12682 12683 12457 12447 12680 12452 
1398 1431 1728 1729 10763 12674 12678 12680 12679 12684 
1695 1729 1398 1728 12682 12680 12447 12676 12684 12678 
1696 1398 1729 1399 12452 12680 12683 12454 10544 12685 
1729 1398 1432 1399 12680 10769 12681 12685 10544 10770 
1399 1432 1730 1433 10770 12686 12687 10776 10778 12688 
1696 1730 1697 1399 12689 12690 12464 12454 12687 12459 
1399 1432 1729 1730 10770 12681 12685 12687 12686 12691 
1696 1730 1399 1729 12689 12687 12454 12683 12691 12685 
1697 1399 1730 1400 12459 12687 12690 12461 10551 12692 
1730 1399 1433 1400 12687 10776 12688 12692 10551 10777 
1400 1433 1731 1434 10777 12693 12694 10783 10785 12695 
1697 1731 1698 1400 12696 12697 12471 12461 12694 12466 
1400 1433 1730 1731 10777 12688 12692 12694 12693 12698 
1697 1731 1400 1730 12696 12694 12461 12690 12698 12692 
1698 1400 1731 1401 12466 12694 12697 12468 10558 12699 
1731 1400 1434 1401 12694 10783 12695 12699 10558 10784 
1401 1434 1732 1435 10784 12700 12701 10790 10792 12702 
1698 1732 1699 1401 12703 12704 12478 12468 12701 12473 
1401 1434 1731 1732 10784 12695 12699 12701 12700 12705 
1698 1732 1401 1731 12703 12701 12468 12697 12705 12699 
1699 1401 1732 1402 12473 12701 12704 12475 10565 12706 
1732 1401 1435 1402 12701 10790 12702 12706 10565 10791 
1402 1435 1733 1436 10791 12707 12708 10797 10799 12709 
1699 1733 1700 1402 12710 12711 12485 12475 12708 12480 
1402 1435 1732 1733 10791 12702 12706 12708 12707 12712 
1699 1733 1402 1732 12710 12708 12475 12704 12712 12706 
1700 1402 1733 1403 12480 12708 12711 12482 10572 12713 
1733 1402 1436 1403 12708 10797 12709 12713 10572 10798 
1403 1436 1734 1437 10798 12714 12715 10804 10806 12716 
1700 1734 1701 1403 12717 12718 12492 12482 12715 12487 
1403 1436 1733 1734 10798 12709 12713 12715 12714 12719 
1700 1734 1403 1733 12717 12715 12482 12711 12719 12713 
1701 1403 1734 1404 12487 12715 12718 12489 10579 12720 
1734 1403 1437 1404 12715 10804 12716 12720 10579 10805 
1404 1437 1735 1438 10805 12721 12722 10811 10813 12723 
1701 1735 1702 1404 12724 12725 12499 12489 12722 12494 
1404 1437 1734 1735 10805 12716 12720 12722 12721 12726 
1701 1735 1404 1734 12724 12722 12489 12718 12726 12720 
1702 1404 1735 1405 12494 12722 12725 12496 10586 12727 
1735 1404 1438 1405 12722 10811 12723 12727 10586 10812 
1405 1438 1736 1439 10812 12728 12729 10818 10820 12730 
1702 1736 1703 1405 12731 12732 12506 12496 12729 12501 
1405 1438 1735 1736 10812 12723 12727 12729 12728 12733 
1702 1736 1405 1735 12731 12729 12496 12725 12733 12727 
1703 1405 1736 1406 12501 12729 12732 12503 10593 12734 
1736 1405 1439 1406 12729 10818 12730 12734 10593 10819 
1406 1439 1737 1440 10819 12735 12736 10825 10827 12737 
1703 1737 1704 1406 12738 12739 12513 12503 12736 12508 
1406 1439 1736 1737 10819 12730 12734 12736 12735 12740 
1703 1737 1406 1736 12738 12736 12503 12732 12740 12734 
1704 1406 1737 1407 12508 12736 12739 12510 10600 12741 
1737 1406 1440 1407 12736 10825 12737 12741 10600 10826 
1407 1440 1738 1441 10826 12742 12743 10832 10834 12744 
1704 1738 1705 1407 12745 12746 12520 12510 12743 12515 
1407 1440 1737 1738 10826 12737 12741 12743 12742 12747 
1704 1738 1407 1737 12745 12743 12510 12739 12747 12741 
1705 1407 1738 1408 12515 12743 12746 12517 10607 12748 
1738 1407 1441 1408 12743 10832 12744 12748 10607 10833 
1408 1441 1739 1442 10833 12749 12750 10839 10841 12751 
1705 1739 1706 1408 12752 12753 12527 12517 12750 12522 
1408 1441 1738 1739 10833 12744 12748 12750 12749 12754 
1705 1739 1408 1738 12752 12750 12517 12746 12754 12748 
1706 1408 1739 1409 12522 12750 12753 12524 10614 12755 
1739 1408 1442 1409 12750 10839 12751 12755 10614 10840 
1409 1442 1740 1443 10840 12756 12757 10846 10848 12758 
1706 1740 1707 1409 12759 12760 12534 12524 12757 12529 
1409 1442 1739 1740 10840 12751 12755 12757 12756 12761 
1706 1740 1409 1739 12759 12757 12524 12753 12761 12755 
1707 1409 1740 1410 12529 12757 12760 12531 10621 12762 
1740 1409 1443 1410 12757 10846 12758 12762 10621 10847 
1410 1443 1741 1444 10847 12763 12764 10853 10855 12765 
1707 1741 1708 1410 12766 12767 12541 12531 12764 12536 
1410 1443 1740 1741 10847 12758 12762 12764 12763 12768 
1707 1741 1410 1740 12766 12764 12531 12760 12768 12762 
1708 1410 1741 1411 12536 12764 12767 12538 10628 12769 
1741 1410 1444 1411 12764 10853 12765 12769 10628 10854 
1411 1444 1742 1445 10854 12770 12771 10860 10862 12772 
1708 1742 1709 1411 12773 12774 12548 12538 12771 12543 
1411 1444 1741 1742 10854 12765 12769 12771 12770 12775 
1708 1742 1411 1741 12773 12771 12538 12767 12775 12769 
1709 1411 1742 1412 12543 12771 12774 12545 10635 12776 
1742 1411 1445 1412 12771 10860 12772 12776 10635 10861 
1412 1445 1743 1446 10861 12777 12778 10867 10869 12779 
1709 1743 1710 1412 12780 12781 12555 12545 12778 12550 
1412 1445 1742 1743 10861 12772 12776 12778 12777 12782 
1709 1743 1412 1742 12780 12778 12545 12774 12782 12776 
1710 1412 1743 1413 12550 12778 12781 12552 10642 12783 
1743 1412 1446 1413 12778 10867 12779 12783 10642 10868 
1413 1446 1744 1447 10868 12784 12785 10874 10876 12786 
1710 1744 1711 1413 12787 12788 12562 12552 12785 12557 
1413 1446 1743 1744 10868 12779 12783 12785 12784 12789 
1710 1744 1413 1743 12787 12785 12552 12781 12789 12783 
1711 1413 1744 1414 12557 12785 12788 12559 10649 12790 
1744 1413 1447 1414 12785 10874 12786 12790 10649 10875 
1414 1447 1745 1448 10875 12791 12792 10881 10883 12793 
1711 1745 1712 1414 12794 12795 12569 12559 12792 12564 
1414 1447 1744 1745 10875 12786 12790 12792 12791 12796 
1711 1745 1414 1744 12794 12792 12559 12788 12796 12790 
1712 1414 1745 1415 12564 12792 12795 12566 10656 12797 
1745 1414 1448 1415 12792 10881 12793 12797 10656 10882 
1415 1448 1746 1449 10882 12798 12799 10888 10890 12800 
1712 1746 1713 1415 12801 12802 12576 12566 12799 12571 
1415 1448 1745 1746 10882 12793 12797 12799 12798 12803 
1712 1746 1415 1745 12801 12799 12566 12795 12803 12797 
1713 1415 1746 1416 12571 12799 12802 12573 10663 12804 
1746 1415 1449 1416 12799 10888 12800 12804 10663 10889 
1416 1449 1747 1450 10889 12805 12806 10895 10897 12807 
1713 1747 1714 1416 12808 12809 12583 12573 12806 12578 
1416 1449 1746 1747 10889 12800 12804 12806 12805 12810 
1713 1747 1416 1746 12808 12806 12573 12802 12810 12804 
1714 1416 1747 1417 12578 12806 12809 12580 10670 12811 
1747 1416 1450 1417 12806 10895 12807 12811 10670 10896 
1417 1450 1748 1451 10896 12812 12813 10902 10904 12814 
1714 1748 1715 1417 12815 12816 12590 12580 12813 12585 
1417 1450 1747 1748 10896 12807 12811 12813 12812 12817 
1714 1748 1417 1747 12815 12813 12580 12809 12817 12811 
1715 1417 1748 1418 12585 12813 12816 12587 10677 12818 
1748 1417 1451 1418 12813 10902 12814 12818 10677 10903 
1419 1452 1750 1453 10914 12819 12820 10909 10913 12821 
1716 1750 1717 1419 12822 12823 12599 12597 12820 12592 
1419 1452 1749 1750 10914 12824 12825 12820 12819 12826 
1716 1750 1419 1749 12822 12820 12597 12827 12826 12825 
1717 1419 1750 1420 12592 12820 12823 12594 10686 12828 
1750 1419 1453 1420 12820 10909 12821 12828 10686 10910 
1420 1453 1751 1454 10910 12829 12830 10919 10921 12831 
1717 1751 1718 1420 12832 12833 12607 12594 12830 12602 
1420 1453 1750 1751 10910 12821 12828 12830 12829 12834 
1717 1751 1420 1750 12832 12830 12594 12823 12834 12828 
1718 1420 1751 1421 12602 12830 12833 12604 10694 12835 
1751 1420 1454 1421 12830 10919 12831 12835 10694 10920 
1421 1454 1752 1455 10920 12836 12837 10926 10928 12838 
1718 1752 1719 1421 12839 12840 12614 12604 12837 12609 
1421 1454 1751 1752 10920 12831 12835 12837 12836 12841 
1718 1752 1421 1751 12839 12837 12604 12833 12841 12835 
1719 1421 1752 1422 12609 12837 12840 12611 10701 12842 
1752 1421 1455 1422 12837 10926 12838 12842 10701 10927 
1422 1455 1753 1456 10927 12843 12844 10933 10935 12845 
1719 1753 1720 1422 12846 12847 12621 12611 12844 12616 
1422 1455 1752 1753 10927 12838 12842 12844 12843 12848 
1719 1753 1422 1752 12846 12844 12611 12840 12848 12842 
1720 1422 1753 1423 12616 12844 12847 12618 10708 12849 
1753 1422 1456 1423 12844 10933 12845 12849 10708 10934 
1423 1456 1754 1457 10934 12850 12851 10940 10942 12852 
1720 1754 1721 1423 12853 12854 12628 12618 12851 12623 
1423 1456 1753 1754 10934 12845 12849 12851 12850 12855 
1720 1754 1423 1753 12853 12851 12618 12847 12855 12849 
1721 1423 1754 1424 12623 12851 12854 12625 10715 12856 
1754 1423 1457 1424 12851 10940 12852 12856 10715 10941 
1424 1457 1755 1458 10941 12857 12858 10947 10949 12859 
1721 1755 1722 1424 12860 12861 12635 12625 12858 12630 
1424 1457 1754 1755 10941 12852 12856 12858 12857 12862 
1721 1755 1424 1754 12860 12858 12625 12854 12862 12856 
1722 1424 1755 1425 12630 12858 12861 12632 10722 12863 
1755 1424 1458 1425 12858 10947 12859 12863 10722 10948 
1425 1458 1756 1459 10948 12864 12865 10954 10956 12866 
1722 1756 1723 1425 12867 12868 12642 12632 12865 12637 
1425 1458 1755 1756 10948 12859 12863 12865 12864 12869 
1722 1756 1425 1755 12867 12865 12632 12861 12869 12863 
1723 1425 1756 1426 12637 12865 12868 12639 10729 12870 
1756 1425 1459 1426 12865 10954 12866 12870 10729 10955 
1426 1459 1757 1460 10955 12871 12872 10961 10963 12873 
1723 1757 1724 1426 12874 12875 12649 12639 12872 12644 
1426 1459 1756 1757 10955 12866 12870 12872 12871 12876 
1723 1757 1426 1756 12874 12872 12639 12868 12876 12870 
1724 1426 1757 1427 12644 12872 12875 12646 10736 12877 
1757 1426 1460 1427 12872 10961 12873 12877 10736 10962 
1427 1460 1758 1461 10962 12878 12879 10968 10970 12880 
1724 1758 1725 1427 12881 12882 12656 12646 12879 12651 
1427 1460 1757 1758 10962 12873 12877 12879 12878 12883 
1724 1758 1427 1757 12881 12879 12646 12875 12883 12877 
1725 1427 1758 1428 12651 12879 12882 12653 10743 12884 
1758 1427 1461 1428 12879 10968 12880 12884 10743 10969 
1428 1461 1759 1462 10969 12885 12886 10975 10977 12887 
1725 1759 1726 1428 12888 12889 12663 12653 12886 12658 
1428 1461 1758 1759 10969 12880 12884 12886 12885 12890 
1725 1759 1428 1758 12888 12886 12653 12882 12890 12884 
1726 1428 1759 1429 12658 12886 12889 12660 10750 12891 
1759 1428 1462 1429 12886 10975 12887 12891 10750 10976 
1429 1462 1760 1463 10976 12892 12893 10982 10984 12894 
1726 1760 1727 1429 12895 12896 12670 12660 12893 12665 
1429 1462 1759 1760 10976 12887 12891 12893 12892 12897 
1726 1760 1429 1759 12895 12893 12660 12889 12897 12891 
1727 1429 1760 1430 12665 12893 12896 12667 10757 12898 
1760 1429 1463 1430 12893 10982 12894 12898 10757 10983 
1430 1463 1761 1464 10983 12899 12900 10989 10991 12901 
1727 1761 1728 1430 12902 12903 12677 12667 12900 12672 
1430 1463 1760 1761 10983 12894 12898 12900 12899 12904 
1727 1761 1430 1760 12902 12900 12667 12896 12904 12898 
1728 1430 1761 1431 12672 12900 12903 12674 10764 12905 
1761 1430 1464 1431 12900 10989 12901 12905 10764 10990 
1431 1464 1762 1465 10990 12906 12907 10996 10998 12908 
1728 1762 1729 1431 12909 12910 12684 12674 12907 12679 
1431 1464 1761 1762 10990 12901 12905 12907 12906 12911 
1728 1762 1431 1761 12909 12907 12674 12903 12911 12905 
1729 1431 1762 1432 12679 12907 12910 12681 10771 12912 
1762 1431 1465 1432 12907 10996 12908 12912 10771 10997 
1432 1465 1763 1466 10997 12913 12914 11003 11005 12915 
1729 1763 1730 1432 12916 12917 12691 12681 12914 12686 
1432 1465 1762 1763 10997 12908 12912 12914 12913 12918 
1729 1763 1432 1762 12916 12914 12681 12910 12918 12912 
1730 1432 1763 1433 12686 12914 12917 12688 10778 12919 
1763 1432 1466 1433 12914 11003 12915 12919 10778 11004 
1433 1466 1764 1467 11004 12920 12921 11010 11012 12922 
1730 1764 1731 1433 12923 12924 12698 12688 12921 12693 
1433 1466 1763 1764 11004 12915 12919 12921 12920 12925 
1730 1764 1433 1763 12923 12921 12688 12917 12925 12919 
1731 1433 1764 1434 12693 12921 12924 12695 10785 12926 
1764 1433 1467 1434 12921 11010 12922 12926 10785 11011 
1434 1467 1765 1468 11011 12927 12928 11017 11019 12929 
1731 1765 1732 1434 12930 12931 12705 12695 12928 12700 
1434 1467 1764 1765 11011 12922 12926 12928 12927 12932 
1731 1765 1434 1764 12930 12928 12695 12924 12932 12926 
1732 1434 1765 1435 12700 12928 12931 12702 10792 12933 
1765 1434 1468 1435 12928 11017 12929 12933 10792 11018 
1435 1468 1766 1469 11018 12934 12935 11024 11026 12936 
1732 1766 1733 1435 12937 12938 12712 12702 12935 12707 
1435 1468 1765 1766 11018 12929 12933 12935 12934 12939 
1732 1766 1435 1765 12937 12935 12702 12931 12939 12933 
1733 1435 1766 1436 12707 12935 12938 12709 10799 12940 
1766 1435 1469 1436 12935 11024 12936 12940 10799 11025 
1436 1469 1767 1470 11025 12941 12942 11031 11033 12943 
1733 1767 1734 1436 12944 12945 12719 12709 12942 12714 
1436 1469 1766 1767 11025 12936 12940 12942 12941 12946 
1733 1767 1436 1766 12944 12942 12709 12938 12946 12940 
1734 1436 1767 1437 12714 12942 12945 12716 10806 12947 
1767 1436 1470 1437 12942 11031 12943 12947 10806 11032 
1437 1470 1768 1471 11032 12948 12949 11038 11040 12950 
1734 1768 1735 1437 12951 12952 12726 12716 12949 12721 
1437 1470 1767 1768 11032 12943 12947 12949 12948 12953 
1734 1768 1437 1767 12951 12949 12716 12945 12953 12947 
1735 1437 1768 1438 12721 12949 12952 12723 10813 12954 
1768 1437 1471 1438 12949 11038 12950 12954 10813 11039 
1438 1471 1769 1472 11039 12955 12956 11045 11047 12957 
1735 1769 1736 1438 12958 12959 12733 12723 12956 12728 
1438 1471 1768 1769 11039 12950 12954 12956 12955 12960 
1735 1769 1438 1768 12958 12956 12723 12952 12960 12954 
1736 1438 1769 1439 12728 12956 12959 12730 10820 12961 
1769 1438 1472 1439 12956 11045 12957 12961 10820 11046 
1439 1472 1770 1473 11046 12962 12963 11052 11054 12964 
1736 1770 1737 1439 12965 12966 12740 12730 12963 12735 
1439 1472 1769 1770 11046 12957 12961 12963 12962 12967 
1736 1770 1439 1769 12965 12963 12730 12959 12967 12961 
1737 1439 1770 1440 12735 12963 12966 12737 10827 12968 
1770 1439 1473 1440 12963 11052 12964 12968 10827 11053 
1440 1473 1771 1474 11053 12969 12970 11059 11061 12971 
1737 1771 1738 1440 12972 12973 12747 12737 12970 12742 
1440 1473 1770 1771 11053 12964 12968 12970 12969 12974 
1737 1771 1440 1770 12972 12970 12737 12966 12974 12968 
1738 1440 1771 1441 12742 12970 12973 12744 10834 12975 
1771 1440 1474 1441 12970 11059 12971 12975 10834 11060 
1441 1474 1772 1475 11060 12976 12977 11066 11068 12978 
1738 1772 1739 1441 12979 12980 12754 12744 12977 12749 
1441 1474 1771 1772 11060 12971 12975 12977 12976 12981 
1738 1772 1441 1771 12979 12977 12744 12973 12981 12975 
1739 1441 1772 1442 12749 12977 12980 12751 10841 12982 
1772 1441 1475 1442 12977 11066 12978 12982 10841 11067 
1442 1475 1773 1476 11067 12983 12984 11073 11075 12985 
1739 1773 1740 1442 12986 12987 12761 12751 12984 12756 
1442 1475 1772 1773 11067 12978 12982 12984 12983 12988 
1739 1773 1442 1772 12986 12984 12751 12980 12988 12982 
1740 1442 1773 1443 12756 12984 12987 12758 10848 12989 
1773 1442 1476 1443 12984 11073 12985 12989 10848 11074 
1443 1476 1774 1477 11074 12990 12991 11080 11082 12992 
1740 1774 1741 1443 12993 12994 12768 12758 12991 12763 
1443 1476 1773 1774 11074 12985 12989 12991 12990 12995 
1740 1774 1443 1773 12993 12991 12758 12987 12995 12989 
1741 1443 1774 1444 12763 12991 12994 12765 10855 12996 
1774 1443 1477 1444 12991 11080 12992 12996 10855 11081 
1444 1477 1775 1478 11081 12997 12998 11087 11089 12999 
1741 1775 1742 1444 13000 13001 12775 12765 12998 12770 
1444 1477 1774 1775 11081 12992 12996 12998 12997 13002 
1741 1775 1444 1774 13000 12998 12765 12994 13002 12996 
1742 1444 1775 1445 12770 12998 13001 12772 10862 13003 
1775 1444 1478 1445 12998 11087 12999 13003 10862 11088 
1445 1478 1776 1479 11088 13004 13005 11094 11096 13006 
1742 1776 1743 1445 13007 13008 12782 12772 13005 12777 
1445 1478 1775 1776 11088 12999 13003 13005 13004 13009 
1742 1776 1445 1775 13007 13005 12772 13001 13009 13003 
1743 1445 1776 1446 12777 13005 13008 12779 10869 13010 
1776 1445 1479 1446 13005 11094 13006 13010 10869 11095 
1446 1479 1777 1480 11095 13011 13012 11101 11103 13013 
1743 1777 1744 1446 13014 13015 12789 12779 13012 12784 
1446 1479 1776 1777 11095 13006 13010 13012 13011 13016 
1743 1777 1446 1776 13014 13012 12779 13008 13016 13010 
1744 1446 1777 1447 12784 13012 13015 12786 10876 13017 
1777 1446 1480 1447 13012 11101 13013 13017 10876 11102 
1447 1480 1778 1481 11102 13018 13019 11108 11110 13020 
1744 1778 1745 1447 13021 13022 12796 12786 13019 12791 
1447 1480 1777 1778 11102 13013 13017 13019 13018 13023 
1744 1778 1447 1777 13021 13019 12786 13015 13023 13017 
1745 1447 1778 1448 12791 13019 13022 12793 10883 13024 
1778 1447 1481 1448 13019 11108 13020 13024 10883 11109 
1448 1481 1779 1482 11109 13025 13026 11115 11117 13027 
1745 1779 1746 1448 13028 13029 12803 12793 13026 12798 
1448 1481 1778 1779 11109 13020 13024 13026 13025 13030 
1745 1779 1448 1778 13028 13026 12793 13022 13030 13024 
1746 1448 1779 1449 12798 13026 13029 12800 10890 13031 
1779 1448 1482 1449 13026 11115 13027 13031 10890 11116 
1449 1482 1780 1483 11116 13032 13033 11122 11124 13034 
1746 1780 1747 1449 13035 13036 12810 12800 13033 12805 
1449 1482 1779 1780 11116 13027 13031 13033 13032 13037 
1746 1780 1449 1779 13035 13033 12800 13029 13037 13031 
1747 1449 1780 1450 12805 13033 13036 12807 10897 13038 
1780 1449 1483 1450 13033 11122 13034 13038 10897 11123 
1450 1483 1781 1484 11123 13039 13040 11129 11131 13041 
1747 1781 1748 1450 13042 13043 12817 12807 13040 12812 
1450 1483 1780 1781 11123 13034 13038 13040 13039 13044 
1747 1781 1450 1780 13042 13040 12807 13036 13044 13038 
1748 1450 1781 1451 12812 13040 13043 12814 10904 13045 
1781 1450 1484 1451 13040 11129 13041 13045 10904 11130 
1485 1518 1816 1519 11144 13046 13047 11136 11143 13048 
1782 1816 1783 1485 13049 13050 13051 13052 13047 13053 
1485 1518 1815 1816 11144 13054 13055 13047 13046 13056 
1782 1816 1485 1815 13049 13047 13052 13057 13056 13055 
1783 1485 1816 1486 13053 13047 13050 13058 11138 13059 
1816 1485 1519 1486 13047 11136 13048 13059 11138 11137 
1486 1519 1817 1520 11137 13060 13061 11150 11154 13062 
1783 1817 1784 1486 13063 13064 13065 13058 13061 13066 
1486 1519 1816 1817 11137 13048 13059 13061 13060 13067 
1783 1817 1486 1816 13063 13061 13058 13050 13067 13059 
1784 1486 1817 1487 13066 13061 13064 13068 11152 13069 
1817 1486 1520 1487 13061 11150 13062 13069 11152 11151 
1487 1520 1818 1521 11151 13070 13071 11160 11164 13072 
1784 1818 1785 1487 13073 13074 13075 13068 13071 13076 
1487 1520 1817 1818 11151 13062 13069 13071 13070 13077 
1784 1818 1487 1817 13073 13071 13068 13064 13077 13069 
1785 1487 1818 1488 13076 13071 13074 13078 11162 13079 
1818 1487 1521 1488 13071 11160 13072 13079 11162 11161 
1488 1521 1819 1522 11161 13080 13081 11170 11174 13082 
1785 1819 1786 1488 13083 13084 13085 13078 13081 13086 
1488 1521 1818 1819 11161 13072 13079 13081 13080 13087 
1785 1819 1488 1818 13083 13081 13078 13074 13087 13079 
1786 1488 1819 1489 13086 13081 13084 13088 11172 13089 
1819 1488 1522 1489 13081 11170 13082 13089 11172 11171 
1489 1522 1820 1523 11171 13090 13091 11180 11184 13092 
1786 1820 1787 1489 13093 13094 13095 13088 13091 13096 
1489 1522 1819 1820 11171 13082 13089 13091 13090 13097 
1786 1820 1489 1819 13093 13091 13088 13084 13097 13089 
1787 1489 1820 1490 13096 13091 13094 13098 11182 13099 
1820 1489 1523 1490 13091 11180 13092 13099 11182 11181 
1490 1523 1821 1524 11181 13100 13101 11190 11194 13102 
1787 1821 1788 1490 13103 13104 13105 13098 13101 13106 
1490 1523 1820 1821 11181 13092 13099 13101 13100 13107 
1787 1821 1490 1820 13103 13101 13098 13094 13107 13099 
1788 1490 1821 1491 13106 13101 13104 13108 11192 13109 
1821 1490 1524 1491 13101 11190 13102 13109 11192 11191 
1491 1524 1822 1525 11191 13110 13111 11200 11204 13112 
1788 1822 1789 1491 13113 13114 13115 13108 13111 13116 
1491 1524 1821 1822 11191 13102 13109 13111 13110 13117 
1788 1822 1491 1821 13113 13111 13108 13104 13117 13109 
1789 1491 1822 1492 13116 13111 13114 13118 11202 13119 
1822 1491 1525 1492 13111 11200 13112 13119 11202 11201 
1492 1525 1823 1526 11201 13120 13121 11210 11214 13122 
1789 1823 1790 1492 13123 13124 13125 13118 13121 13126 
1492 1525 1822 1823 11201 13112 13119 13121 13120 13127 
1789 1823 1492 1822 13123 13121 13118 13114 13127 13119 
1790 1492 1823 1493 13126 13121 13124 13128 11212 13129 
1823 1492 1526 1493 13121 11210 13122 13129 11212 11211 
1493 1526 1824 1527 11211 13130 13131 11220 11224 13132 
1790 1824 1791 1493 13133 13134 13135 13128 13131 13136 
1493 1526 1823 1824 11211 13122 13129 13131 13130 13137 
1790 1824 1493 1823 13133 13131 13128 13124 13137 13129 
1791 1493 1824 1494 13136 13131 13134 13138 11222 13139 
1824 1493 1527 1494 13131 11220 13132 13139 11222 11221 
1494 1527 1825 1528 11221 13140 13141 11230 11234 13142 
1791 1825 1792 1494 13143 13144 13145 13138 13141 13146 
1494 1527 1824 1825 11221 13132 13139 13141 13140 13147 
1791 1825 1494 1824 13143 13141 13138 13134 13147 13139 
1792 1494 1825 1495 13146 13141 13144 13148 11232 13149 
1825 1494 1528 1495 13141 11230 13142 13149 11232 11231 
1495 1528 1826 1529 11231 13150 13151 11240 11244 13152 
1792 1826 1793 1495 13153 13154 13155 13148 13151 13156 
1495 1528 1825 1826 11231 13142 13149 13151 13150 13157 
1792 1826 1495 1825 13153 13151 13148 13144 13157 13149 
1793 1495 1826 1496 13156 13151 13154 13158 11242 13159 
1826 1495 1529 1496 13151 11240 13152 13159 11242 11241 
1496 1529 1827 1530 11241 13160 13161 11250 11254 13162 
1793 1827 1794 1496 13163 13164 13165 13158 13161 13166 
1496 1529 1826 1827 11241 13152 13159 13161 13160 13167 
1793 1827 1496 1826 13163 13161 13158 13154 13167 13159 
1794 1496 1827 1497 13166 13161 13164 13168 11252 13169 
1827 1496 1530 1497 13161 11250 13162 13169 11252 11251 
1497 1530 1828 1531 11251 13170 13171 11260 11264 13172 
1794 1828 1795 1497 13173 13174 13175 13168 13171 13176 
1497 1530 1827 1828 11251 13162 13169 13171 13170 13177 
1794 1828 1497 1827 13173 13171 13168 13164 13177 13169 
1795 1497 1828 1498 13176 13171 13174 13178 11262 13179 
1828 1497 1531 1498 13171 11260 13172 13179 11262 11261 
1498 1531 1829 1532 11261 13180 13181 11270 11274 13182 
1795 1829 1796 1498 13183 13184 13185 13178 13181 13186 
1498 1531 1828 1829 11261 13172 13179 13181 13180 13187 
1795 1829 1498 1828 13183 13181 13178 13174 13187 13179 
1796 1498 1829 1499 13186 13181 13184 13188 11272 13189 
1829 1498 1532 1499 13181 11270 13182 13189 11272 11271 
1499 1532 1830 1533 11271 13190 13191 11280 11284 13192 
1796 1830 1797 1499 13193 13194 13195 13188 13191 13196 
1499 1532 1829 1830 11271 13182 13189 13191 13190 13197 
1796 1830 1499 1829 13193 13191 13188 13184 13197 13189 
1797 1499 1830 1500 13196 13191 13194 13198 11282 13199 
1830 1499 1533 1500 13191 11280 13192 13199 11282 11281 
1500 1533 1831 1534 11281 13200 13201 11290 11294 13202 
1797 1831 1798 1500 13203 13204 13205 13198 13201 13206 
1500 1533 1830 1831 11281 13192 13199 13201 13200 13207 
1797 1831 1500 1830 13203 13201 13198 13194 13207 13199 
1798 1500 1831 1501 13206 13201 13204 13208 11292 13209 
1831 1500 1534 1501 13201 11290 13202 13209 11292 11291 
1501 1534 1832 1535 11291 13210 13211 11300 11304 13212 
1798 1832 1799 1501 13213 13214 13215 13208 13211 13216 
1501 1534 1831 1832 11291 13202 13209 13211 13210 13217 
1798 1832 1501 1831 13213 13211 13208 13204 13217 13209 
1799 1501 1832 1502 13216 13211 13214 13218 11302 13219 
1832 1501 1535 1502 13211 11300 13212 13219 11302 11301 
1502 1535 1833 1536 11301 13220 13221 11310 11314 13222 
1799 1833 1800 1502 13223 13224 13225 13218 13221 13226 
1502 1535 1832 1833 11301 13212 13219 13221 13220 13227 
1799 1833 1502 1832 13223 13221 13218 13214 13227 13219 
1800 1502 1833 1503 13226 13221 13224 13228 11312 13229 
1833 1502 1536 1503 13221 11310 13222 13229 11312 11311 
1503 1536 1834 1537 11311 13230 13231 11320 11324 13232 
1800 1834 1801 1503 13233 13234 13235 13228 13231 13236 
1503 1536 1833 1834 11311 13222 13229 13231 13230 13237 
1800 1834 1503 1833 13233 13231 13228 13224 13237 13229 
1801 1503 1834 1504 13236 13231 13234 13238 11322 13239 
1834 1503 1537 1504 13231 11320 13232 13239 11322 11321 
1504 1537 1835 1538 11321 13240 13241 11330 11334 13242 
1801 1835 1802 1504 13243 13244 13245 13238 13241 13246 
1504 1537 1834 1835 11321 13232 13239 13241 13240 13247 
1801 1835 1504 1834 13243 13241 13238 13234 13247 13239 
1802 1504 1835 1505 13246 13241 13244 13248 11332 13249 
1835 1504 1538 1505 13241 11330 13242 13249 11332 11331 
1505 1538 1836 1539 11331 13250 13251 11340 11344 13252 
1802 1836 1803 1505 13253 13254 13255 13248 13251 13256 
1505 1538 1835 1836 11331 13242 13249 13251 13250 13257 
1802 1836 1505 1835 13253 13251 13248 13244 13257 13249 
1803 1505 1836 1506 13256 13251 13254 13258 11342 13259 
1836 1505 1539 1506 13251 11340 13252 13259 11342 11341 
1506 1539 1837 1540 11341 13260 13261 11350 11354 13262 
1803 1837 1804 1506 13263 13264 13265 13258 13261 13266 
1506 1539 1836 1837 11341 13252 13259 13261 13260 13267 
1803 1837 1506 1836 13263 13261 13258 13254 13267 13259 
1804 1506 1837 1507 13266 13261 13264 13268 11352 13269 
1837 1506 1540 1507 13261 11350 13262 13269 11352 11351 
1507 1540 1838 1541 11351 13270 13271 11360 11364 13272 
1804 1838 1805 1507 13273 13274 13275 13268 13271 13276 
1507 1540 1837 1838 11351 13262 13269 13271 13270 13277 
1804 1838 1507 1837 13273 13271 13268 13264 13277 13269 
1805 1507 1838 1508 13276 13271 13274 13278 11362 13279 
1838 1507 1541 1508 13271 11360 13272 13279 11362 11361 
1508 1541 1839 1542 11361 13280 13281 11370 11374 13282 
1805 1839 1806 1508 13283 13284 13285 13278 13281 13286 
1508 1541 1838 1839 11361 13272 13279 13281 13280 13287 
1805 1839 1508 1838 13283 13281 13278 13274 13287 13279 
1806 1508 1839 1509 13286 13281 13284 13288 11372 13289 
1839 1508 1542 1509 13281 11370 13282 13289 11372 11371 
1509 1542 1840 1543 11371 13290 13291 11380 11384 13292 
1806 1840 1807 1509 13293 13294 13295 13288 13291 13296 
1509 1542 1839 1840 11371 13282 13289 13291 13290 13297 
1806 1840 1509 1839 13293 13291 13288 13284 13297 13289 
1807 1509 1840 1510 13296 13291 13294 13298 11382 13299 
1840 1509 1543 1510 13291 11380 13292 13299 11382 11381 
1510 1543 1841 1544 11381 13300 13301 11390 11394 13302 
1807 1841 1808 1510 13303 13304 13305 13298 13301 13306 
1510 1543 1840 1841 11381 13292 13299 13301 13300 13307 
1807 1841 1510 1840 13303 13301 13298 13294 13307 13299 
1808 1510 1841 1511 13306 13301 13304 13308 11392 13309 
1841 1510 1544 1511 13301 11390 13302 13309 11392 11391 
1511 1544 1842 1545 11391 13310 13311 11400 11404 13312 
1808 1842 1809 1511 13313 13314 13315 13308 13311 13316 
1511 1544 1841 1842 11391 13302 13309 13311 13310 13317 
1808 1842 1511 1841 13313 13311 13308 13304 13317 13309 
1809 1511 1842 1512 13316 13311 13314 13318 11402 13319 
1842 1511 1545 1512 13311 11400 13312 13319 11402 11401 
1512 1545 1843 1546 11401 13320 13321 11410 11414 13322 
1809 1843 1810 1512 13323 13324 13325 13318 13321 13326 
1512 1545 1842 1843 11401 13312 13319 13321 13320 13327 
1809 1843 1512 1842 13323 13321 13318 13314 13327 13319 
1810 1512 1843 1513 13326 13321 13324 13328 11412 13329 
1843 1512 1546 1513 13321 11410 13322 13329 11412 11411 
1513 1546 1844 1547 11411 13330 13331 11420 11424 13332 
1810 1844 1811 1513 13333 13334 13335 13328 13331 13336 
1513 1546 1843 1844 11411 13322 13329 13331 13330 13337 
1810 1844 1513 1843 13333 13331 13328 13324 13337 13329 
1811 1513 1844 1514 13336 13331 13334 13338 11422 13339 
1844 1513 1547 1514 13331 11420 13332 13339 11422 11421 
1514 1547 1845 1548 11421 13340 13341 11430 11434 13342 
1811 1845 1812 1514 13343 13344 13345 13338 13341 13346 
1514 1547 1844 1845 11421 13332 13339 13341 13340 13347 
1811 1845 1514 1844 13343 13341 13338 13334 13347 13339 
1812 1514 1845 1515 13346 13341 13344 13348 11432 13349 
1845 1514 1548 1515 13341 11430 13342 13349 11432 11431 
1515 1548 1846 1549 11431 13350 13351 11440 11444 13352 
1812 1846 1813 1515 13353 13354 13355 13348 13351 13356 
1515 1548 1845 1846 11431 13342 13349 13351 13350 13357 
1812 1846 1515 1845 13353 13351 13348 13344 13357 13349 
1813 1515 1846 1516 13356 13351 13354 13358 11442 13359 
1846 1515 1549 1516 13351 11440 13352 13359 11442 11441 
1516 1549 1847 1550 11441 13360 13361 11450 11454 13362 
1813 1847 1814 1516 13363 13364 13365 13358 13361 13366 
1516 1549 1846 1847 11441 13352 13359 13361 13360 13367 
1813 1847 1516 1846 13363 13361 13358 13354 13367 13359 
1814 1516 1847 1517 13366 13361 13364 13368 11452 13369 
1847 1516 1550 1517 13361 11450 13362 13369 11452 11451 
1518 1551 1849 1552 11465 13370 13371 11460 11464 13372 
1815 1849 1816 1518 13373 13374 13056 13054 13371 13046 
1518 1551 1848 1849 11465 13375 13376 13371 13370 13377 
1815 1849 1518 1848 13373 13371 13054 13378 13377 13376 
1816 1518 1849 1519 13046 13371 13374 13048 11143 13379 
1849 1518 1552 1519 13371 11460 13372 13379 11143 11461 
1519 1552 1850 1553 11461 13380 13381 11470 11472 13382 
1816 1850 1817 1519 13383 13384 13067 13048 13381 13060 
1519 1552 1849 1850 11461 13372 13379 13381 13380 13385 
1816 1850 1519 1849 13383 13381 13048 13374 13385 13379 
1817 1519 1850 1520 13060 13381 13384 13062 11154 13386 
1850 1519 1553 1520 13381 11470 13382 13386 11154 11471 
1520 1553 1851 1554 11471 13387 13388 11477 11479 13389 
1817 1851 1818 1520 13390 13391 13077 13062 13388 13070 
1520 1553 1850 1851 11471 13382 13386 13388 13387 13392 
1817 1851 1520 1850 13390 13388 13062 13384 13392 13386 
1818 1520 1851 1521 13070 13388 13391 13072 11164 13393 
1851 1520 1554 1521 13388 11477 13389 13393 11164 11478 
1521 1554 1852 1555 11478 13394 13395 11484 11486 13396 
1818 1852 1819 1521 13397 13398 13087 13072 13395 13080 
1521 1554 1851 1852 11478 13389 13393 13395 13394 13399 
1818 1852 1521 1851 13397 13395 13072 13391 13399 13393 
1819 1521 1852 1522 13080 13395 13398 13082 11174 13400 
1852 1521 1555 1522 13395 11484 13396 13400 11174 11485 
1522 1555 1853 1556 11485 13401 13402 11491 11493 13403 
1819 1853 1820 1522 13404 13405 13097 13082 13402 13090 
1522 1555 1852 1853 11485 13396 13400 13402 13401 13406 
1819 1853 1522 1852 13404 13402 13082 13398 13406 13400 
1820 1522 1853 1523 13090 13402 13405 13092 11184 13407 
1853 1522 1556 1523 13402 11491 13403 13407 11184 11492 
1523 1556 1854 1557 11492 13408 13409 11498 11500 13410 
1820 1854 1821 1523 13411 13412 13107 13092 13409 13100 
1523 1556 1853 1854 11492 13403 13407 13409 13408 13413 
1820 1854 1523 1853 13411 13409 13092 13405 13413 13407 
1821 1523 1854 1524 13100 13409 13412 13102 11194 13414 
1854 1523 1557 1524 13409 11498 13410 13414 11194 11499 
1524 1557 1855 1558 11499 13415 13416 11505 11507 13417 
1821 1855 1822 1524 13418 13419 13117 13102 13416 13110 
1524 1557 1854 1855 11499 13410 13414 13416 13415 13420 
1821 1855 1524 1854 13418 13416 13102 13412 13420 13414 
1822 1524 1855 1525 13110 13416 13419 13112 11204 13421 
1855 1524 1558 1525 13416 11505 13417 13421 11204 11506 
1525 1558 1856 1559 11506 13422 13423 11512 11514 13424 
1822 1856 1823 1525 13425 13426 13127 13112 13423 13120 
1525 1558 1855 1856 11506 13417 13421 13423 13422 13427 
1822 1856 1525 1855 13425 13423 13112 13419 13427 13421 
1823 1525 1856 1526 13120 13423 13426 13122 11214 13428 
1856 1525 1559 1526 13423 11512 13424 13428 11214 11513 
1526 1559 1857 1560 11513 13429 13430 11519 11521 13431 
1823 1857 1824 1526 13432 13433 13137 13122 13430 13130 
1526 1559 1856 1857 11513 13424 13428 13430 13429 13434 
1823 1857 1526 1856 13432 13430 13122 13426 13434 13428 
1824 1526 1857 1527 13130 13430 13433 13132 11224 13435 
1857 1526 1560 1527 13430 11519 13431 13435 11224 11520 
1527 1560 1858 1561 11520 13436 13437 11526 11528 13438 
1824 1858 1825 1527 13439 13440 13147 13132 13437 13140 
1527 1560 1857 1858 11520 13431 13435 13437 13436 13441 
1824 1858 1527 1857 13439 13437 13132 13433 13441 13435 
1825 1527 1858 1528 13140 13437 13440 13142 11234 13442 
1858 1527 1561 1528 13437 11526 13438 13442 11234 11527 
1528 1561 1859 1562 11527 13443 13444 11533 11535 13445 
1825 1859 1826 1528 13446 13447 13157 13142 13444 13150 
1528 1561 1858 1859 11527 13438 13442 13444 13443 13448 
1825 1859 1528 1858 13446 13444 13142 13440 13448 13442 
1826 1528 1859 1529 13150 13444 13447 13152 11244 13449 
1859 1528 1562 1529 13444 11533 13445 13449 11244 11534 
1529 1562 1860 1563 11534 13450 13451 11540 11542 13452 
1826 1860 1827 1529 13453 13454 13167 13152 13451 13160 
1529 1562 1859 1860 11534 13445 13449 13451 13450 13455 
1826 1860 1529 1859 13453 13451 13152 13447 13455 13449 
1827 1529 1860 1530 13160 13451 13454 13162 11254 13456 
1860 1529 1563 1530 13451 11540 13452 13456 11254 11541 
1530 1563 1861 1564 11541 13457 13458 11547 11549 13459 
1827 1861 1828 1530 13460 13461 13177 13162 13458 13170 
1530 1563 1860 1861 11541 13452 13456 13458 13457 13462 
1827 1861 1530 1860 13460 13458 13162 13454 13462 13456 
1828 1530 1861 1531 13170 13458 13461 13172 11264 13463 
1861 1530 1564 1531 13458 11547 13459 13463 11264 11548 
1531 1564 1862 1565 11548 13464 13465 11554 11556 13466 
1828 1862 1829 1531 13467 13468 13187 13172 13465 13180 
1531 1564 1861 1862 11548 13459 13463 13465 13464 13469 
1828 1862 1531 1861 13467 13465 13172 13461 13469 13463 
1829 1531 1862 1532 13180 13465 13468 13182 11274 13470 
1862 1531 1565 1532 13465 11554 13466 13470 11274 11555 
1532 1565 1863 1566 11555 13471 13472 11561 11563 13473 
1829 1863 1830 1532 13474 13475 13197 13182 13472 13190 
1532 1565 1862 1863 11555 13466 13470 13472 13471 13476 
1829 1863 1532 1862 13474 13472 13182 13468 13476 13470 
1830 1532 1863 1533 13190 13472 13475 13192 11284 13477 
1863 1532 1566 1533 13472 11561 13473 13477 11284 11562 
1533 1566 1864 1567 11562 13478 13479 11568 11570 13480 
1830 1864 1831 1533 13481 13482 13207 13192 13479 13200 
1533 1566 1863 1864 11562 13473 13477 13479 13478 13483 
1830 1864 1533 1863 13481 13479 13192 13475 13483 13477 
1831 1533 1864 1534 13200 13479 13482 13202 11294 13484 
1864 1533 1567 1534 13479 11568 13480 13484 11294 11569 
1534 1567 1865 1568 11569 13485 13486 11575 11577 13487 
1831 1865 1832 1534 13488 13489 13217 13202 13486 13210 
1534 1567 1864 1865 11569 13480 13484 13486 13485 13490 
1831 1865 1534 1864 13488 13486 13202 13482 13490 13484 
1832 1534 1865 1535 13210 13486 13489 13212 11304 13491 
1865 1534 1568 1535 13486 11575 13487 13491 11304 11576 
1535 1568 1866 1569 11576 13492 13493 11582 11584 13494 
1832 1866 1833 1535 13495 13496 13227 13212 13493 13220 
1535 1568 1865 1866 11576 13487 13491 13493 13492 13497 
1832 1866 1535 1865 13495 13493 13212 13489 13497 13491 
1833 1535 1866 1536 13220 13493 13496 13222 11314 13498 
1866 1535 1569 1536 13493 11582 13494 13498 11314 11583 
1536 1569 1867 1570 11583 13499 13500 11589 11591 13501 
1833 1867 1834 1536 13502 13503 13237 13222 13500 13230 
1536 1569 1866 1867 11583 13494 13498 13500 13499 13504 
1833 1867 1536 1866 13502 13500 13222 13496 13504 13498 
1834 1536 1867 1537 13230 13500 13503 13232 11324 13505 
1867 1536 1570 1537 13500 11589 13501 13505 11324 11590 
1537 1570 1868 1571 11590 13506 13507 11596 11598 13508 
1834 1868 1835 1537 13509 13510 13247 13232 13507 13240 
1537 1570 1867 1868 11590 13501 13505 13507 13506 13511 
1834 1868 1537 1867 13509 13507 13232 13503 13511 13505 
1835 1537 1868 1538 13240 13507 13510 13242 11334 13512 
1868 1537 1571 1538 13507 11596 13508 13512 11334 11597 
1538 1571 1869 1572 11597 13513 13514 11603 11605 13515 
1835 1869 1836 1538 13516 13517 13257 13242 13514 13250 
1538 1571 1868 1869 11597 13508 13512 13514 13513 13518 
1835 1869 1538 1868 13516 13514 13242 13510 13518 13512 
1836 1538 1869 1539 13250 13514 13517 13252 11344 13519 
1869 1538 1572 1539 13514 11603 13515 13519 11344 11604 
1539 1572 1870 1573 11604 13520 13521 11610 11612 13522 
1836 1870 1837 1539 13523 13524 13267 13252 13521 13260 
1539 1572 1869 1870 11604 13515 13519 13521 13520 13525 
1836 1870 1539 1869 13523 13521 13252 13517 13525 13519 
1837 1539 1870 1540 13260 13521 13524 13262 11354 13526 
1870 1539 1573 1540 13521 11610 13522 13526 11354 11611 
1540 1573 1871 1574 11611 13527 13528 11617 11619 13529 
1837 1871 1838 1540 13530 13531 13277 13262 13528 13270 
1540 1573 1870 1871 11611 13522 13526 13528 13527 13532 
1837 1871 1540 1870 13530 13528 13262 13524 13532 13526 
1838 1540 1871 1541 13270 13528 13531 13272 11364 13533 
1871 1540 1574 1541 13528 11617 13529 13533 11364 11618 
1541 1574 1872 1575 11618 13534 13535 11624 11626 13536 
1838 1872 1839 1541 13537 13538 13287 13272 13535 13280 
1541 1574 1871 1872 11618 13529 13533 13535 13534 13539 
1838 1872 1541 1871 13537 13535 13272 13531 13539 13533 
1839 1541 1872 1542 13280 13535 13538 13282 11374 13540 
1872 1541 1575 1542 13535 11624 13536 13540 11374 11625 
1542 1575 1873 1576 11625 13541 13542 11631 11633 13543 
1839 1873 1840 1542 13544 13545 13297 13282 13542 13290 
1542 1575 1872 1873 11625 13536 13540 13542 13541 13546 
1839 1873 1542 1872 13544 13542 13282 13538 13546 13540 
1840 1542 1873 1543 13290 13542 13545 13292 11384 13547 
1873 1542 1576 1543 13542 11631 13543 13547 11384 11632 
1543 1576 1874 1577 11632 13548 13549 11638 11640 13550 
1840 1874 1841 1543 13551 13552 13307 13292 13549 13300 
1543 1576 1873 1874 11632 13543 13547 13549 13548 13553 
1840 1874 1543 1873 13551 13549 13292 13545 13553 13547 
1841 1543 1874 1544 13300 13549 13552 13302 11394 13554 
1874 1543 1577 1544 13549 11638 13550 13554 11394 11639 
1544 1577 1875 1578 11639 13555 13556 11645 11647 13557 
1841 1875 1842 1544 13558 13559 13317 13302 13556 13310 
1544 1577 1874 1875 11639 13550 13554 13556 13555 13560 
1841 1875 1544 1874 13558 13556 13302 13552 13560 13554 
1842 1544 1875 1545 13310 13556 13559 13312 11404 13561 
1875 1544 1578 1545 13556 11645 13557 13561 11404 11646 
1545 1578 1876 1579 11646 13562 13563 11652 11654 13564 
1842 1876 1843 1545 13565 13566 13327 13312 13563 13320 
1545 1578 1875 1876 11646 13557 13561 13563 13562 13567 
1842 1876 1545 1875 13565 13563 13312 13559 13567 13561 
1843 1545 1876 1546 13320 13563 13566 13322 11414 13568 
1876 1545 1579 1546 13563 11652 13564 13568 11414 11653 
1546 1579 1877 1580 11653 13569 13570 11659 11661 13571 
1843 1877 1844 1546 13572 13573 13337 13322 13570 13330 
1546 1579 1876 1877 11653 13564 13568 13570 13569 13574 
1843 1877 1546 1876 13572 13570 13322 13566 13574 13568 
1844 1546 1877 1547 13330 13570 13573 13332 11424 13575 
1877 1546 1580 1547 13570 11659 13571 13575 11424 11660 
1547 1580 1878 1581 11660 13576 13577 11666 11668 13578 
1844 1878 1845 1547 13579 13580 13347 13332 13577 13340 
1547 1580 1877 1878 11660 13571 13575 13577 13576 13581 
1844 1878 1547 1877 13579 13577 13332 13573 13581 13575 
1845 1547 1878 1548 13340 13577 13580 13342 11434 13582 
1878 1547 1581 1548 13577 11666 13578 13582 11434 11667 
1548 1581 1879 1582 11667 13583 13584 11673 11675 13585 
1845 1879 1846 1548 13586 13587 13357 13342 13584 13350 
1548 1581 1878 1879 11667 13578 13582 13584 13583 13588 
1845 1879 1548 1878 13586 13584 13342 13580 13588 13582 
1846 1548 1879 1549 13350 13584 13587 13352 11444 13589 
1879 1548 1582 1549 13584 11673 13585 13589 11444 11674 
1549 1582 1880 1583 11674 13590 13591 11680 11682 13592 
1846 1880 1847 1549 13593 13594 13367 13352 13591 13360 
1549 1582 1879 1880 11674 13585 13589 13591 13590 13595 
1846 1880 1549 1879 13593 13591 13352 13587 13595 13589 
1847 1549 1880 1550 13360 13591 13594 13362 11454 13596 
1880 1549 1583 1550 13591 11680 13592 13596 11454 11681 
1551 1584 1882 1585 11692 13597 13598 11687 11691 13599 
1848 1882 1849 1551 13600 13601 13377 13375 13598 13370 
1551 1584 1881 1882 11692 13602 13603 13598 13597 13604 
1848 1882 1551 1881 13600 13598 13375 13605 13604 13603 
1849 1551 1882 1552 13370 13598 13601 13372 11464 13606 
1882 1551 1585 1552 13598 11687 13599 13606 11464 11688 
1552 1585 1883 1586 11688 13607 13608 11697 11699 13609 
1849 1883 1850 1552 13610 13611 13385 13372 13608 13380 
1552 1585 1882 1883 11688 13599 13606 13608 13607 13612 
1849 1883 1552 1882 13610 13608 13372 13601 13612 13606 
1850 1552 1883 1553 13380 13608 13611 13382 11472 13613 
1883 1552 1586 1553 13608 11697 13609 13613 11472 11698 
1553 1586 1884 1587 11698 13614 13615 11704 11706 13616 
1850 1884 1851 1553 13617 13618 13392 13382 13615 13387 
1553 1586 1883 1884 11698 13609 13613 13615 13614 13619 
1850 1884 1553 1883 13617 13615 13382 13611 13619 13613 
1851 1553 1884 1554 13387 13615 13618 13389 11479 13620 
1884 1553 1587 1554 13615 11704 13616 13620 11479 11705 
1554 1587 1885 1588 11705 13621 13622 11711 11713 13623 
1851 1885 1852 1554 13624 13625 13399 13389 13622 13394 
1554 1587 1884 1885 11705 13616 13620 13622 13621 13626 
1851 1885 1554 1884 13624 13622 13389 13618 13626 13620 
1852 1554 1885 1555 13394 13622 13625 13396 11486 13627 
1885 1554 1588 1555 13622 11711 13623 13627 11486 11712 
1555 1588 1886 1589 11712 13628 13629 11718 11720 13630 
1852 1886 1853 1555 13631 13632 13406 13396 13629 13401 
1555 1588 1885 1886 11712 13623 13627 13629 13628 13633 
1852 1886 1555 1885 13631 13629 13396 13625 13633 13627 
1853 1555 1886 1556 13401 13629 13632 13403 11493 13634 
1886 1555 1589 1556 13629 11718 13630 13634 11493 11719 
1556 1589 1887 1590 11719 13635 13636 11725 11727 13637 
1853 1887 1854 1556 13638 13639 13413 13403 13636 13408 
1556 1589 1886 1887 11719 13630 13634 13636 13635 13640 
1853 1887 1556 1886 13638 13636 13403 13632 13640 13634 
1854 1556 1887 1557 13408 13636 13639 13410 11500 13641 
1887 1556 1590 1557 13636 11725 13637 13641 11500 11726 
1557 1590 1888 1591 11726 13642 13643 11732 11734 13644 
1854 1888 1855 1557 13645 13646 13420 13410 13643 13415 
1557 1590 1887 1888 11726 13637 13641 13643 13642 13647 
1854 1888 1557 1887 13645 13643 13410 13639 13647 13641 
1855 1557 1888 1558 13415 13643 13646 13417 11507 13648 
1888 1557 1591 1558 13643 11732 13644 13648 11507 11733 
1558 1591 1889 1592 11733 13649 13650 11739 11741 13651 
1855 1889 1856 1558 13652 13653 13427 13417 13650 13422 
1558 1591 1888 1889 11733 13644 13648 13650 13649 13654 
1855 1889 1558 1888 13652 13650 13417 13646 13654 13648 
1856 1558 1889 1559 13422 13650 13653 13424 11514 13655 
1889 1558 1592 1559 13650 11739 13651 13655 11514 11740 
1559 1592 1890 1593 11740 13656 13657 11746 11748 13658 
1856 1890 1857 1559 13659 13660 13434 13424 13657 13429 
1559 1592 1889 1890 11740 13651 13655 13657 13656 13661 
1856 1890 1559 1889 13659 13657 13424 13653 13661 13655 
1857 1559 1890 1560 13429 13657 13660 13431 11521 13662 
1890 1559 1593 1560 13657 11746 13658 13662 11521 11747 
1560 1593 1891 1594 11747 13663 13664 11753 11755 13665 
1857 1891 1858 1560 13666 13667 13441 13431 13664 13436 
1560 1593 1890 1891 11747 13658 13662 13664 13663 13668 
1857 1891 1560 1890 13666 13664 13431 13660 13668 13662 
1858 1560 1891 1561 13436 13664 13667 13438 11528 13669 
1891 1560 1594 1561 13664 11753 13665 13669 11528 11754 
1561 1594 1892 1595 11754 13670 13671 11760 11762 13672 
1858 1892 1859 1561 13673 13674 13448 13438 13671 13443 
1561 1594 1891 1892 11754 13665 13669 13671 13670 13675 
1858 1892 1561 1891 13673 13671 13438 13667 13675 13669 
1859 1561 1892 1562 13443 13671 13674 13445 11535 13676 
1892 1561 1595 1562 13671 11760 13672 13676 11535 11761 
1562 1595 1893 1596 11761 13677 13678 11767 11769 13679 
1859 1893 1860 1562 13680 13681 13455 13445 13678 13450 
1562 1595 1892 1893 11761 13672 13676 13678 13677 13682 
1859 1893 1562 1892 13680 13678 13445 13674 13682 13676 
1860 1562 1893 1563 13450 13678 13681 13452 11542 13683 
1893 1562 1596 1563 13678 11767 13679 13683 11542 11768 
1563 1596 1894 1597 11768 13684 13685 11774 11776 13686 
1860 1894 1861 1563 13687 13688 13462 13452 13685 13457 
1563 1596 1893 1894 11768 13679 13683 13685 13684 13689 
1860 1894 1563 1893 13687 13685 13452 13681 13689 13683 
1861 1563 1894 1564 13457 13685 13688 13459 11549 13690 
1894 1563 1597 1564 13685 11774 13686 13690 11549 11775 
1564 1597 1895 1598 11775 13691 13692 11781 11783 13693 
1861 1895 1862 1564 13694 13695 13469 13459 13692 13464 
1564 1597 1894 1895 11775 13686 13690 13692 13691 13696 
1861 1895 1564 1894 13694 13692 13459 13688 13696 13690 
1862 1564 1895 1565 13464 13692 13695 13466 11556 13697 
1895 1564 1598 1565 13692 11781 13693 13697 11556 11782 
1565 1598 1896 1599 11782 13698 13699 11788 11790 13700 
1862 1896 1863 1565 13701 13702 13476 13466 13699 13471 
1565 1598 1895 1896 11782 13693 13697 13699 13698 13703 
1862 1896 1565 1895 13701 13699 13466 13695 13703 13697 
1863 1565 1896 1566 13471 13699 13702 13473 11563 13704 
1896 1565 1599 1566 13699 11788 13700 13704 11563 11789 
1566 1599 1897 1600 11789 13705 13706 11795 11797 13707 
1863 1897 1864 1566 13708 13709 13483 13473 13706 13478 
1566 1599 1896 1897 11789 13700 13704 13706 13705 13710 
1863 1897 1566 1896 13708 13706 13473 13702 13710 13704 
1864 1566 1897 1567 13478 13706 13709 13480 11570 13711 
1897 1566 1600 1567 13706 11795 13707 13711 11570 11796 
1567 1600 1898 1601 11796 13712 13713 11802 11804 13714 
1864 1898 1865 1567 13715 13716 13490 13480 13713 13485 
1567 1600 1897 1898 11796 13707 13711 13713 13712 13717 
1864 1898 1567 1897 13715 13713 13480 13709 13717 13711 
1865 1567 1898 1568 13485 13713 13716 13487 11577 13718 
1898 1567 1601 1568 13713 11802 13714 13718 11577 11803 
1568 1601 1899 1602 11803 13719 13720 11809 11811 13721 
1865 1899 1866 1568 13722 13723 13497 13487 13720 13492 
1568 1601 1898 1899 11803 13714 13718 13720 13719 13724 
1865 1899 1568 1898 13722 13720 13487 13716 13724 13718 
1866 1568 1899 1569 13492 13720 13723 13494 11584 13725 
1899 1568 1602 1569 13720 11809 13721 13725 11584 11810 
1569 1602 1900 1603 11810 13726 13727 11816 11818 13728 
1866 1900 1867 1569 13729 13730 13504 13494 13727 13499 
1569 1602 1899 1900 11810 13721 13725 13727 13726 13731 
1866 1900 1569 1899 13729 13727 13494 13723 13731 13725 
1867 1569 1900 1570 13499 13727 13730 13501 11591 13732 
1900 1569 1603 1570 13727 11816 13728 13732 11591 11817 
1570 1603 1901 1604 11817 13733 13734 11823 11825 13735 
1867 1901 1868 1570 13736 13737 13511 13501 13734 13506 
1570 1603 1900 1901 11817 13728 13732 13734 13733 13738 
1867 1901 1570 1900 13736 13734 13501 13730 13738 13732 
1868 1570 1901 1571 13506 13734 13737 13508 11598 13739 
1901 1570 1604 1571 13734 11823 13735 13739 11598 11824 
1571 1604 1902 1605 11824 13740 13741 11830 11832 13742 
1868 1902 1869 1571 13743 13744 13518 13508 13741 13513 
1571 1604 1901 1902 11824 13735 13739 13741 13740 13745 
1868 1902 1571 1901 13743 13741 13508 13737 13745 13739 
1869 1571 1902 1572 13513 13741 13744 13515 11605 13746 
1902 1571 1605 1572 13741 11830 13742 13746 11605 11831 
1572 1605 1903 1606 11831 13747 13748 11837 11839 13749 
1869 1903 1870 1572 13750 13751 13525 13515 13748 13520 
1572 1605 1902 1903 11831 13742 13746 13748 13747 13752 
1869 1903 1572 1902 13750 13748 13515 13744 13752 13746 
1870 1572 1903 1573 13520 13748 13751 13522 11612 13753 
1903 1572 1606 1573 13748 11837 13749 13753 11612 11838 
1573 1606 1904 1607 11838 13754 13755 11844 11846 13756 
1870 1904 1871 1573 13757 13758 13532 13522 13755 13527 
1573 1606 1903 1904 11838 13749 13753 13755 13754 13759 
1870 1904 1573 1903 13757 13755 13522 13751 13759 13753 
1871 1573 1904 1574 13527 13755 13758 13529 11619 13760 
1904 1573 1607 1574 13755 11844 13756 13760 11619 11845 
1574 1607 1905 1608 11845 13761 13762 11851 11853 13763 
1871 1905 1872 1574 13764 13765 13539 13529 13762 13534 
1574 1607 1904 1905 11845 13756 13760 13762 13761 13766 
1871 1905 1574 1904 13764 13762 13529 13758 13766 13760 
1872 1574 1905 1575 13534 13762 13765 13536 11626 13767 
1905 1574 1608 1575 13762 11851 13763 13767 11626 11852 
1575 1608 1906 1609 11852 13768 13769 11858 11860 13770 
1872 1906 1873 1575 13771 13772 13546 13536 13769 13541 
1575 1608 1905 1906 11852 13763 13767 13769 13768 13773 
1872 1906 1575 1905 13771 13769 13536 13765 13773 13767 
1873 1575 1906 1576 13541 13769 13772 13543 11633 13774 
1906 1575 1609 1576 13769 11858 13770 13774 11633 11859 
1576 1609 1907 1610 11859 13775 13776 11865 11867 13777 
1873 1907 1874 1576 13778 13779 13553 13543 13776 13548 
1576 1609 1906 1907 11859 13770 13774 13776 13775 13780 
1873 1907 1576 1906 13778 13776 13543 13772 13780 13774 
1874 1576 1907 1577 13548 13776 13779 13550 11640 13781 
1907 1576 1610 1577 13776 11865 13777 13781 11640 11866 
1577 1610 1908 1611 11866 13782 13783 11872 11874 13784 
1874 1908 1875 1577 13785 13786 13560 13550 13783 13555 
1577 1610 1907 1908 11866 13777 13781 13783 13782 13787 
1874 1908 1577 1907 13785 13783 13550 13779 13787 13781 
1875 1577 1908 1578 13555 13783 13786 13557 11647 13788 
1908 1577 1611 1578 13783 11872 13784 13788 11647 11873 
1578 1611 1909 1612 11873 13789 13790 11879 11881 13791 
1875 1909 1876 1578 13792 13793 13567 13557 13790 13562 
1578 1611 1908 1909 11873 13784 13788 13790 13789 13794 
1875 1909 1578 1908 13792 13790 13557 13786 13794 13788 
1876 1578 1909 1579 13562 13790 13793 13564 11654 13795 
1909 1578 1612 1579 13790 11879 13791 13795 11654 11880 
1579 1612 1910 1613 11880 13796 13797 11886 11888 13798 
1876 1910 1877 1579 13799 13800 13574 13564 13797 13569 
1579 1612 1909 1910 11880 13791 13795 13797 13796 13801 
1876 1910 1579 1909 13799 13797 13564 13793 13801 13795 
1877 1579 1910 1580 13569 13797 13800 13571 11661 13802 
1910 1579 1613 1580 13797 11886 13798 13802 11661 11887 
1580 1613 1911 1614 11887 13803 13804 11893 11895 13805 
1877 1911 1878 1580 13806 13807 13581 13571 13804 13576 
1580 1613 1910 1911 11887 13798 13802 13804 13803 13808 
1877 1911 1580 1910 13806 13804 13571 13800 13808 13802 
1878 1580 1911 1581 13576 13804 13807 13578 11668 13809 
1911 1580 1614 1581 13804 11893 13805 13809 11668 11894 
1581 1614 1912 1615 11894 13810 13811 11900 11902 13812 
1878 1912 1879 1581 13813 13814 13588 13578 13811 13583 
1581 1614 1911 1912 11894 13805 13809 13811 13810 13815 
1878 1912 1581 1911 13813 13811 13578 13807 13815 13809 
1879 1581 1912 1582 13583 13811 13814 13585 11675 13816 
1912 1581 1615 1582 13811 11900 13812 13816 11675 11901 
1582 1615 1913 1616 11901 13817 13818 11907 11909 13819 
1879 1913 1880 1582 13820 13821 13595 13585 13818 13590 
1582 1615 1912 1913 11901 13812 13816 13818 13817 13822 
1879 1913 1582 1912 13820 13818 13585 13814 13822 13816 
1880 1582 1913 1583 13590 13818 13821 13592 11682 13823 
1913 1582 1616 1583 13818 11907 13819 13823 11682 11908 
1584 1617 1915 1618 11919 13824 13825 11914 11918 13826 
1881 1915 1882 1584 13827 13828 13604 13602 13825 13597 
1584 1617 1914 1915 11919 13829 13830 13825 13824 13831 
1881 1915 1584 1914 13827 13825 13602 13832 13831 13830 
1882 1584 1915 1585 13597 13825 13828 13599 11691 13833 
1915 1584 1618 1585 13825 11914 13826 13833 11691 11915 
1585 1618 1916 1619 11915 13834 13835 11924 11926 13836 
1882 1916 1883 1585 13837 13838 13612 13599 13835 13607 
1585 1618 1915 1916 11915 13826 13833 13835 13834 13839 
1882 1916 1585 1915 13837 13835 13599 13828 13839 13833 
1883 1585 1916 1586 13607 13835 13838 13609 11699 13840 
1916 1585 1619 1586 13835 11924 13836 13840 11699 11925 
1586 1619 1917 1620 11925 13841 13842 11931 11933 13843 
1883 1917 1884 1586 13844 13845 13619 13609 13842 13614 
1586 1619 1916 1917 11925 13836 13840 13842 13841 13846 
1883 1917 1586 1916 13844 13842 13609 13838 13846 13840 
1884 1586 1917 1587 13614 13842 13845 13616 11706 13847 
1917 1586 1620 1587 13842 11931 13843 13847 11706 11932 
1587 1620 1918 1621 11932 13848 13849 11938 11940 13850 
1884 1918 1885 1587 13851 13852 13626 13616 13849 13621 
1587 1620 1917 1918 11932 13843 13847 13849 13848 13853 
1884 1918 1587 1917 13851 13849 13616 13845 13853 13847 
1885 1587 1918 1588 13621 13849 13852 13623 11713 13854 
1918 1587 1621 1588 13849 11938 13850 13854 11713 11939 
1588 1621 1919 1622 11939 13855 13856 11945 11947 13857 
1885 1919 1886 1588 13858 13859 13633 13623 13856 13628 
1588 1621 1918 1919 11939 13850 13854 13856 13855 13860 
1885 1919 1588 1918 13858 13856 13623 13852 13860 13854 
1886 1588 1919 1589 13628 13856 13859 13630 11720 13861 
1919 1588 1622 1589 13856 11945 13857 13861 11720 11946 
1589 1622 1920 1623 11946 13862 13863 11952 11954 13864 
1886 1920 1887 1589 13865 13866 13640 13630 13863 13635 
1589 1622 1919 1920 11946 13857 13861 13863 13862 13867 
1886 1920 1589 1919 13865 13863 13630 13859 13867 13861 
1887 1589 1920 1590 13635 13863 13866 13637 11727 13868 
1920 1589 1623 1590 13863 11952 13864 13868 11727 11953 
1590 1623 1921 1624 11953 13869 13870 11959 11961 13871 
1887 1921 1888 1590 13872 13873 13647 13637 13870 13642 
1590 1623 1920 1921 11953 13864 13868 13870 13869 13874 
1887 1921 1590 1920 13872 13870 13637 13866 13874 13868 
1888 1590 1921 1591 13642 13870 13873 13644 11734 13875 
1921 1590 1624 1591 13870 11959 13871 13875 11734 11960 
1591 1624 1922 1625 11960 13876 13877 11966 11968 13878 
1888 1922 1889 1591 13879 13880 13654 13644 13877 13649 
1591 1624 1921 1922 11960 13871 13875 13877 13876 13881 
1888 1922 1591 1921 13879 13877 13644 13873 13881 13875 
1889 1591 1922 1592 13649 13877 13880 13651 11741 13882 
1922 1591 1625 1592 13877 11966 13878 13882 11741 11967 
1592 1625 1923 1626 11967 13883 13884 11973 11975 13885 
1889 1923 1890 1592 13886 13887 13661 13651 13884 13656 
1592 1625 1922 1923 11967 13878 13882 13884 13883 13888 
1889 1923 1592 1922 13886 13884 13651 13880 13888 13882 
1890 1592 1923 1593 13656 13884 13887 13658 11748 13889 
1923 1592 1626 1593 13884 11973 13885 13889 11748 11974 
1593 1626 1924 1627 11974 13890 13891 11980 11982 13892 
1890 1924 1891 1593 13893 13894 13668 13658 13891 13663 
1593 1626 1923 1924 11974 13885 13889 13891 13890 13895 
1890 1924 1593 1923 13893 13891 13658 13887 13895 13889 
1891 1593 1924 1594 13663 13891 13894 13665 11755 13896 
1924 1593 1627 1594 13891 11980 13892 13896 11755 11981 
1594 1627 1925 1628 11981 13897 13898 11987 11989 13899 
1891 1925 1892 1594 13900 13901 13675 13665 13898 13670 
1594 1627 1924 1925 11981 13892 13896 13898 13897 13902 
1891 1925 1594 1924 13900 13898 13665 13894 13902 13896 
1892 1594 1925 1595 13670 13898 13901 13672 11762 13903 
1925 1594 1628 1595 13898 11987 13899 13903 11762 11988 
1595 1628 1926 1629 11988 13904 13905 11994 11996 13906 
1892 1926 1893 1595 13907 13908 13682 13672 13905 13677 
1595 1628 1925 1926 11988 13899 13903 13905 13904 13909 
1892 1926 1595 1925 13907 13905 13672 13901 13909 13903 
1893 1595 1926 1596 13677 13905 13908 13679 11769 13910 
1926 1595 1629 1596 13905 11994 13906 13910 11769 11995 
1596 1629 1927 1630 11995 13911 13912 12001 12003 13913 
1893 1927 1894 1596 13914 13915 13689 13679 13912 13684 
1596 1629 1926 1927 11995 13906 13910 13912 13911 13916 
1893 1927 1596 1926 13914 13912 13679 13908 13916 13910 
1894 1596 1927 1597 13684 13912 13915 13686 11776 13917 
1927 1596 1630 1597 13912 12001 13913 13917 11776 12002 
1597 1630 1928 1631 12002 13918 13919 12008 12010 13920 
1894 1928 1895 1597 13921 13922 13696 13686 13919 13691 
1597 1630 1927 1928 12002 13913 13917 13919 13918 13923 
1894 1928 1597 1927 13921 13919 13686 13915 13923 13917 
1895 1597 1928 1598 13691 13919 13922 13693 11783 13924 
1928 1597 1631 1598 13919 12008 13920 13924 11783 12009 
1598 1631 1929 1632 12009 13925 13926 12015 12017 13927 
1895 1929 1896 1598 13928 13929 13703 13693 13926 13698 
1598 1631 1928 1929 12009 13920 13924 13926 13925 13930 
1895 1929 1598 1928 13928 13926 13693 13922 13930 13924 
1896 1598 1929 1599 13698 13926 13929 13700 11790 13931 
1929 1598 1632 1599 13926 12015 13927 13931 11790 12016 
1599 1632 1930 1633 12016 13932 13933 12022 12024 13934 
1896 1930 1897 1599 13935 13936 13710 13700 13933 13705 
1599 1632 1929 1930 12016 13927 13931 13933 13932 13937 
1896 1930 1599 1929 13935 13933 13700 13929 13937 13931 
1897 1599 1930 1600 13705 13933 13936 13707 11797 13938 
1930 1599 1633 1600 13933 12022 13934 13938 11797 12023 
1600 1633 1931 1634 12023 13939 13940 12029 12031 13941 
1897 1931 1898 1600 13942 13943 13717 13707 13940 13712 
1600 1633 1930 1931 12023 13934 13938 13940 13939 13944 
1897 1931 1600 1930 13942 13940 13707 13936 13944 13938 
1898 1600 1931 1601 13712 13940 13943 13714 11804 13945 
1931 1600 1634 1601 13940 12029 13941 13945 11804 12030 
1601 1634 1932 1635 12030 13946 13947 12036 12038 13948 
1898 1932 1899 1601 13949 13950 13724 13714 13947 13719 
1601 1634 1931 1932 12030 13941 13945 13947 13946 13951 
1898 1932 1601 1931 13949 13947 13714 13943 13951 13945 
1899 1601 1932 1602 13719 13947 13950 13721 11811 13952 
1932 1601 1635 1602 13947 12036 13948 13952 11811 12037 
1602 1635 1933 1636 12037 13953 13954 12043 12045 13955 
1899 1933 1900 1602 13956 13957 13731 13721 13954 13726 
1602 1635 1932 1933 12037 13948 13952 13954 13953 13958 
1899 1933 1602 1932 13956 13954 13721 13950 13958 13952 
1900 1602 1933 1603 13726 13954 13957 13728 11818 13959 
1933 1602 1636 1603 13954 12043 13955 13959 11818 12044 
1603 1636 1934 1637 12044 13960 13961 12050 12052 13962 
1900 1934 1901 1603 13963 13964 13738 13728 13961 13733 
1603 1636 1933 1934 12044 13955 13959 13961 13960 13965 
1900 1934 1603 1933 13963 13961 13728 13957 13965 13959 
1901 1603 1934 1604 13733 13961 13964 13735 11825 13966 
1934 1603 1637 1604 13961 12050 13962 13966 11825 12051 
1604 1637 1935 1638 12051 13967 13968 12057 12059 13969 
1901 1935 1902 1604 13970 13971 13745 13735 13968 13740 
1604 1637 1934 1935 12051 13962 13966 13968 13967 13972 
1901 1935 1604 1934 13970 13968 13735 13964 13972 13966 
1902 1604 1935 1605 13740 13968 13971 13742 11832 13973 
1935 1604 1638 1605 13968 12057 13969 13973 11832 12058 
1605 1638 1936 1639 12058 13974 13975 12064 12066 13976 
1902 1936 1903 1605 13977 13978 13752 13742 13975 13747 
1605 1638 1935 1936 12058 13969 13973 13975 13974 13979 
1902 1936 1605 1935 13977 13975 13742 13971 13979 13973 
1903 1605 1936 1606 13747 13975 13978 13749 11839 13980 
1936 1605 1639 1606 13975 12064 13976 13980 11839 12065 
1606 1639 1937 1640 12065 13981 13982 12071 12073 13983 
1903 1937 1904 1606 13984 13985 13759 13749 13982 13754 
1606 1639 1936 1937 12065 13976 13980 13982 13981 13986 
1903 1937 1606 1936 13984 13982 13749 13978 13986 13980 
1904 1606 1937 1607 13754 13982 13985 13756 11846 13987 
1937 1606 1640 1607 13982 12071 13983 13987 11846 12072 
1607 1640 1938 1641 12072 13988 13989 12078 12080 13990 
1904 1938 1905 1607 13991 13992 13766 13756 13989 13761 
1607 1640 1937 1938 12072 13983 13987 13989 13988 13993 
1904 1938 1607 1937 13991 13989 13756 13985 13993 13987 
1905 1607 1938 1608 13761 13989 13992 13763 11853 13994 
1938 1607 1641 1608 13989 12078 13990 13994 11853 12079 
1608 1641 1939 1642 12079 13995 13996 12085 12087 13997 
1905 1939 1906 1608 13998 13999 13773 13763 13996 13768 
1608 1641 1938 1939 12079 13990 13994 13996 13995 14000 
1905 1939 1608 1938 13998 13996 13763 13992 14000 13994 
1906 1608 1939 1609 13768 13996 13999 13770 11860 14001 
1939 1608 1642 1609 13996 12085 13997 14001 11860 12086 
1609 1642 1940 1643 12086 14002 14003 12092 12094 14004 
1906 1940 1907 1609 14005 14006 13780 13770 14003 13775 
1609 1642 1939 1940 12086 13997 14001 14003 14002 14007 
1906 1940 1609 1939 14005 14003 13770 13999 14007 14001 
1907 1609 1940 1610 13775 14003 14006 13777 11867 14008 
1940 1609 1643 1610 14003 12092 14004 14008 11867 12093 
1610 1643 1941 1644 12093 14009 14010 12099 12101 14011 
1907 1941 1908 1610 14012 14013 13787 13777 14010 13782 
1610 1643 1940 1941 12093 14004 14008 14010 14009 14014 
1907 1941 1610 1940 14012 14010 13777 14006 14014 14008 
1908 1610 1941 1611 13782 14010 14013 13784 11874 14015 
1941 1610 1644 1611 14010 12099 14011 14015 11874 12100 
1611 1644 1942 1645 12100 14016 14017 12106 12108 14018 
1908 1942 1909 1611 14019 14020 13794 13784 14017 13789 
1611 1644 1941 1942 12100 14011 14015 14017 14016 14021 
1908 1942 1611 1941 14019 14017 13784 14013 14021 14015 
1909 1611 1942 1612 13789 14017 14020 13791 11881 14022 
1942 1611 1645 1612 14017 12106 14018 14022 11881 12107 
1612 1645 1943 1646 12107 14023 14024 12113 12115 14025 
1909 1943 1910 1612 14026 14027 13801 13791 14024 13796 
1612 1645 1942 1943 12107 14018 14022 14024 14023 14028 
1909 1943 1612 1942 14026 14024 13791 14020 14028 14022 
1910 1612 1943 1613 13796 14024 14027 13798 11888 14029 
1943 1612 1646 1613 14024 12113 14025 14029 11888 12114 
1613 1646 1944 1647 12114 14030 14031 12120 12122 14032 
1910 1944 1911 1613 14033 14034 13808 13798 14031 13803 
1613 1646 1943 1944 12114 14025 14029 14031 14030 14035 
1910 1944 1613 1943 14033 14031 13798 14027 14035 14029 
1911 1613 1944 1614 13803 14031 14034 13805 11895 14036 
1944 1613 1647 1614 14031 12120 14032 14036 11895 12121 
1614 1647 1945 1648 12121 14037 14038 12127 12129 14039 
1911 1945 1912 1614 14040 14041 13815 13805 14038 13810 
1614 1647 1944 1945 12121 14032 14036 14038 14037 14042 
1911 1945 1614 1944 14040 14038 13805 14034 14042 14036 
1912 1614 1945 1615 13810 14038 14041 13812 11902 14043 
1945 1614 1648 1615 14038 12127 14039 14043 11902 12128 
1615 1648 1946 1649 12128 14044 14045 12134 12136 14046 
1912 1946 1913 1615 14047 14048 13822 13812 14045 13817 
1615 1648 1945 1946 12128 14039 14043 14045 14044 14049 
1912 1946 1615 1945 14047 14045 13812 14041 14049 14043 
1913 1615 1946 1616 13817 14045 14048 13819 11909 14050 
1946 1615 1649 1616 14045 12134 14046 14050 11909 12135 
1617 1650 1948 1651 12146 14051 14052 12141 12145 14053 
1914 1948 1915 1617 14054 14055 13831 13829 14052 13824 
1617 1650 1947 1948 12146 14056 14057 14052 14051 14058 
1914 1948 1617 1947 14054 14052 13829 14059 14058 14057 
1915 1617 1948 1618 13824 14052 14055 13826 11918 14060 
1948 1617 1651 1618 14052 12141 14053 14060 11918 12142 
1618 1651 1949 1652 12142 14061 14062 12151 12153 14063 
1915 1949 1916 1618 14064 14065 13839 13826 14062 13834 
1618 1651 1948 1949 12142 14053 14060 14062 14061 14066 
1915 1949 1618 1948 14064 14062 13826 14055 14066 14060 
1916 1618 1949 1619 13834 14062 14065 13836 11926 14067 
1949 1618 1652 1619 14062 12151 14063 14067 11926 12152 
1619 1652 1950 1653 12152 14068 14069 12158 12160 14070 
1916 1950 1917 1619 14071 14072 13846 13836 14069 13841 
1619 1652 1949 1950 12152 14063 14067 14069 14068 14073 
1916 1950 1619 1949 14071 14069 13836 14065 14073 14067 
1917 1619 1950 1620 13841 14069 14072 13843 11933 14074 
1950 1619 1653 1620 14069 12158 14070 14074 11933 12159 
1620 1653 1951 1654 12159 14075 14076 12165 12167 14077 
1917 1951 1918 1620 14078 14079 13853 13843 14076 13848 
1620 1653 1950 1951 12159 14070 14074 14076 14075 14080 
1917 1951 1620 1950 14078 14076 13843 14072 14080 14074 
1918 1620 1951 1621 13848 14076 14079 13850 11940 14081 
1951 1620 1654 1621 14076 12165 14077 14081 11940 12166 
1621 1654 1952 1655 12166 14082 14083 12172 12174 14084 
1918 1952 1919 1621 14085 14086 13860 13850 14083 13855 
1621 1654 1951 1952 12166 14077 14081 14083 14082 14087 
1918 1952 1621 1951 14085 14083 13850 14079 14087 14081 
1919 1621 1952 1622 13855 14083 14086 13857 11947 14088 
1952 1621 1655 1622 14083 12172 14084 14088 11947 12173 
1622 1655 1953 1656 12173 14089 14090 12179 12181 14091 
1919 1953 1920 1622 14092 14093 13867 13857 14090 13862 
1622 1655 1952 1953 12173 14084 14088 14090 14089 14094 
1919 1953 1622 1952 14092 14090 13857 14086 14094 14088 
1920 1622 1953 1623 13862 14090 14093 13864 11954 14095 
1953 1622 1656 1623 14090 12179 14091 14095 11954 12180 
1623 1656 1954 1657 12180 14096 14097 12186 12188 14098 
1920 1954 1921 1623 14099 14100 13874 13864 14097 13869 
1623 1656 1953 1954 12180 14091 14095 14097 14096 14101 
1920 1954 1623 1953 14099 14097 13864 14093 14101 14095 
1921 1623 1954 1624 13869 14097 14100 13871 11961 14102 
1954 1623 1657 1624 14097 12186 14098 14102 11961 12187 
1624 1657 1955 1658 12187 14103 14104 12193 12195 14105 
1921 1955 1922 1624 14106 14107 13881 13871 14104 13876 
1624 1657 1954 1955 12187 14098 14102 14104 14103 14108 
1921 1955 1624 1954 14106 14104 13871 14100 14108 14102 
1922 1624 1955 1625 13876 14104 14107 13878 11968 14109 
1955 1624 1658 1625 14104 12193 14105 14109 11968 12194 
1625 1658 1956 1659 12194 14110 14111 12200 12202 14112 
1922 1956 1923 1625 14113 14114 13888 13878 14111 13883 
1625 1658 1955 1956 12194 14105 14109 14111 14110 14115 
1922 1956 1625 1955 14113 14111 13878 14107 14115 14109 
1923 1625 1956 1626 13883 14111 14114 13885 11975 14116 
1956 1625 1659 1626 14111 12200 14112 14116 11975 12201 
1626 1659 1957 1660 12201 14117 14118 12207 12209 14119 
1923 1957 1924 1626 14120 14121 13895 13885 14118 13890 
1626 1659 1956 1957 12201 14112 14116 14118 14117 14122 
1923 1957 1626 1956 14120 14118 13885 14114 14122 14116 
1924 1626 1957 1627 13890 14118 14121 13892 11982 14123 
1957 1626 1660 1627 14118 12207 14119 14123 11982 12208 
1627 1660 1958 1661 12208 14124 14125 12214 12216 14126 
1924 1958 1925 1627 14127 14128 13902 13892 14125 13897 
1627 1660 1957 1958 12208 14119 14123 14125 14124 14129 
1924 1958 1627 1957 14127 14125 13892 14121 14129 14123 
1925 1627 1958 1628 13897 14125 14128 13899 11989 14130 
1958 1627 1661 1628 14125 12214 14126 14130 11989 12215 
1628 1661 1959 1662 12215 14131 14132 12221 12223 14133 
1925 1959 1926 1628 14134 14135 13909 13899 14132 13904 
1628 1661 1958 1959 12215 14126 14130 14132 14131 14136 
1925 1959 1628 1958 14134 14132 13899 14128 14136 14130 
1926 1628 1959 1629 13904 14132 14135 13906 11996 14137 
1959 1628 1662 1629 14132 12221 14133 14137 11996 12222 
1629 1662 1960 1663 12222 14138 14139 12228 12230 14140 
1926 1960 1927 1629 14141 14142 13916 13906 14139 13911 
1629 1662 1959 1960 12222 14133 14137 14139 14138 14143 
1926 1960 1629 1959 14141 14139 13906 14135 14143 14137 
1927 1629 1960 1630 13911 14139 14142 13913 12003 14144 
1960 1629 1663 1630 14139 12228 14140 14144 12003 12229 
1630 1663 1961 1664 12229 14145 14146 12235 12237 14147 
1927 1961 1928 1630 14148 14149 13923 13913 14146 13918 
1630 1663 1960 1961 12229 14140 14144 14146 14145 14150 
1927 1961 1630 1960 14148 14146 13913 14142 14150 14144 
1928 1630 1961 1631 13918 14146 14149 13920 12010 14151 
1961 1630 1664 1631 14146 12235 14147 14151 12010 12236 
1631 1664 1962 1665 12236 14152 14153 12242 12244 14154 
1928 1962 1929 1631 14155 14156 13930 13920 14153 13925 
1631 1664 1961 1962 12236 14147 14151 14153 14152 14157 
1928 1962 1631 1961 14155 14153 13920 14149 14157 14151 
1929 1631 1962 1632 13925 14153 14156 13927 12017 14158 
1962 1631 1665 1632 14153 12242 14154 14158 12017 12243 
1632 1665 1963 1666 12243 14159 14160 12249 12251 14161 
1929 1963 1930 1632 14162 14163 13937 13927 14160 13932 
1632 1665 1962 1963 12243 14154 14158 14160 14159 14164 
1929 1963 1632 1962 14162 14160 13927 14156 14164 14158 
1930 1632 1963 1633 13932 14160 14163 13934 12024 14165 
1963 1632 1666 1633 14160 12249 14161 14165 12024 12250 
1633 1666 1964 1667 12250 14166 14167 12256 12258 14168 
1930 1964 1931 1633 14169 14170 13944 13934 14167 13939 
1633 1666 1963 1964 12250 14161 14165 14167 14166 14171 
1930 1964 1633 1963 14169 14167 13934 14163 14171 14165 
1931 1633 1964 1634 13939 14167 14170 13941 12031 14172 
1964 1633 1667 1634 14167 12256 14168 14172 12031 12257 
1634 1667 1965 1668 12257 14173 14174 12263 12265 14175 
1931 1965 1932 1634 14176 14177 13951 13941 14174 13946 
1634 1667 1964 1965 12257 14168 14172 14174 14173 14178 
1931 1965 1634 1964 14176 14174 13941 14170 14178 14172 
1932 1634 1965 1635 13946 14174 14177 13948 12038 14179 
1965 1634 1668 1635 14174 12263 14175 14179 12038 12264 
1635 1668 1966 1669 12264 14180 14181 12270 12272 14182 
1932 1966 1933 1635 14183 14184 13958 13948 14181 13953 
1635 1668 1965 1966 12264 14175 14179 14181 14180 14185 
1932 1966 1635 1965 14183 14181 13948 14177 14185 14179 
1933 1635 1966 1636 13953 14181 14184 13955 12045 14186 
1966 1635 1669 1636 14181 12270 14182 14186 12045 12271 
1636 1669 1967 1670 12271 14187 14188 12277 12279 14189 
1933 1967 1934 1636 14190 14191 13965 13955 14188 13960 
1636 1669 1966 1967 12271 14182 14186 14188 14187 14192 
1933 1967 1636 1966 14190 14188 13955 14184 14192 14186 
1934 1636 1967 1637 13960 14188 14191 13962 12052 14193 
1967 1636 1670 1637 14188 12277 14189 14193 12052 12278 
1637 1670 1968 1671 12278 14194 14195 12284 12286 14196 
1934 1968 1935 1637 14197 14198 13972 13962 14195 13967 
1637 1670 1967 1968 12278 14189 14193 14195 14194 14199 
1934 1968 1637 1967 14197 14195 13962 14191 14199 14193 
1935 1637 1968 1638 13967 14195 14198 13969 12059 14200 
1968 1637 1671 1638 14195 12284 14196 14200 12059 12285 
1638 1671 1969 1672 12285 14201 14202 12291 12293 14203 
1935 1969 1936 1638 14204 14205 13979 13969 14202 13974 
1638 1671 1968 1969 12285 14196 14200 14202 14201 14206 
1935 1969 1638 1968 14204 14202 13969 14198 14206 14200 
1936 1638 1969 1639 13974 14202 14205 13976 12066 14207 
1969 1638 1672 1639 14202 12291 14203 14207 12066 12292 
1639 1672 1970 1673 12292 14208 14209 12298 12300 14210 
1936 1970 1937 1639 14211 14212 13986 13976 14209 13981 
1639 1672 1969 1970 12292 14203 14207 14209 14208 14213 
1936 1970 1639 1969 14211 14209 13976 14205 14213 14207 
1937 1639 1970 1640 13981 14209 14212 13983 12073 14214 
1970 1639 1673 1640 14209 12298 14210 14214 12073 12299 
1640 1673 1971 1674 12299 14215 14216 12305 12307 14217 
1937 1971 1938 1640 14218 14219 13993 13983 14216 13988 
1640 1673 1970 1971 12299 14210 14214 14216 14215 14220 
1937 1971 1640 1970 14218 14216 13983 14212 14220 14214 
1938 1640 1971 1641 13988 14216 14219 13990 12080 14221 
1971 1640 1674 1641 14216 12305 14217 14221 12080 12306 
1641 1674 1972 1675 12306 14222 14223 12312 12314 14224 
1938 1972 1939 1641 14225 14226 14000 13990 14223 13995 
1641 1674 1971 1972 12306 14217 14221 14223 14222 14227 
1938 1972 1641 1971 14225 14223 13990 14219 14227 14221 
1939 1641 1972 1642 13995 14223 14226 13997 12087 14228 
1972 1641 1675 1642 14223 12312 14224 14228 12087 12313 
1642 1675 1973 1676 12313 14229 14230 12319 12321 14231 
1939 1973 1940 1642 14232 14233 14007 13997 14230 14002 
1642 1675 1972 1973 12313 14224 14228 14230 14229 14234 
1939 1973 1642 1972 14232 14230 13997 14226 14234 14228 
1940 1642 1973 1643 14002 14230 14233 14004 12094 14235 
1973 1642 1676 1643 14230 12319 14231 14235 12094 12320 
1643 1676 1974 1677 12320 14236 14237 12326 12328 14238 
1940 1974 1941 1643 14239 14240 14014 14004 14237 14009 
1643 1676 1973 1974 12320 14231 14235 14237 14236 14241 
1940 1974 1643 1973 14239 14237 14004 14233 14241 14235 
1941 1643 1974 1644 14009 14237 14240 14011 12101 14242 
1974 1643 1677 1644 14237 12326 14238 14242 12101 12327 
1644 1677 1975 1678 12327 14243 14244 12333 12335 14245 
1941 1975 1942 1644 14246 14247 14021 14011 14244 14016 
1644 1677 1974 1975 12327 14238 14242 14244 14243 14248 
1941 1975 1644 1974 14246 14244 14011 14240 14248 14242 
1942 1644 1975 1645 14016 14244 14247 14018 12108 14249 
1975 1644 1678 1645 14244 12333 14245 14249 12108 12334 
1645 1678 1976 1679 12334 14250 14251 12340 12342 14252 
1942 1976 1943 1645 14253 14254 14028 14018 14251 14023 
1645 1678 1975 1976 12334 14245 14249 14251 14250 14255 
1942 1976 1645 1975 14253 14251 14018 14247 14255 14249 
1943 1645 1976 1646 14023 14251 14254 14025 12115 14256 
1976 1645 1679 1646 14251 12340 14252 14256 12115 12341 
1646 1679 1977 1680 12341 14257 14258 12347 12349 14259 
1943 1977 1944 1646 14260 14261 14035 14025 14258 14030 
1646 1679 1976 1977 12341 14252 14256 14258 14257 14262 
1943 1977 1646 1976 14260 14258 14025 14254 14262 14256 
1944 1646 1977 1647 14030 14258 14261 14032 12122 14263 
1977 1646 1680 1647 14258 12347 14259 14263 12122 12348 
1647 1680 1978 1681 12348 14264 14265 12354 12356 14266 
1944 1978 1945 1647 14267 14268 14042 14032 14265 14037 
1647 1680 1977 1978 12348 14259 14263 14265 14264 14269 
1944 1978 1647 1977 14267 14265 14032 14261 14269 14263 
1945 1647 1978 1648 14037 14265 14268 14039 12129 14270 
1978 1647 1681 1648 14265 12354 14266 14270 12129 12355 
1648 1681 1979 1682 12355 14271 14272 12361 12363 14273 
1945 1979 1946 1648 14274 14275 14049 14039 14272 14044 
1648 1681 1978 1979 12355 14266 14270 14272 14271 14276 
1945 1979 1648 1978 14274 14272 14039 14268 14276 14270 
1946 1648 1979 1649 14044 14272 14275 14046 12136 14277 
1979 1648 1682 1649 14272 12361 14273 14277 12136 12362 
1650 1683 1981 1684 12373 14278 14279 12368 12372 14280 
1947 1981 1948 1650 14281 14282 14058 14056 14279 14051 
1650 1683 1980 1981 12373 14283 14284 14279 14278 14285 
1947 1981 1650 1980 14281 14279 14056 14286 14285 14284 
1948 1650 1981 1651 14051 14279 14282 14053 12145 14287 
1981 1650 1684 1651 14279 12368 14280 14287 12145 12369 
1651 1684 1982 1685 12369 14288 14289 12378 12380 14290 
1948 1982 1949 1651 14291 14292 14066 14053 14289 14061 
1651 1684 1981 1982 12369 14280 14287 14289 14288 14293 
1948 1982 1651 1981 14291 14289 14053 14282 14293 14287 
1949 1651 1982 1652 14061 14289 14292 14063 12153 14294 
1982 1651 1685 1652 14289 12378 14290 14294 12153 12379 
1652 1685 1983 1686 12379 14295 14296 12385 12387 14297 
1949 1983 1950 1652 14298 14299 14073 14063 14296 14068 
1652 1685 1982 1983 12379 14290 14294 14296 14295 14300 
1949 1983 1652 1982 14298 14296 14063 14292 14300 14294 
1950 1652 1983 1653 14068 14296 14299 14070 12160 14301 
1983 1652 1686 1653 14296 12385 14297 14301 12160 12386 
1653 1686 1984 1687 12386 14302 14303 12392 12394 14304 
1950 1984 1951 1653 14305 14306 14080 14070 14303 14075 
1653 1686 1983 1984 12386 14297 14301 14303 14302 14307 
1950 1984 1653 1983 14305 14303 14070 14299 14307 14301 
1951 1653 1984 1654 14075 14303 14306 14077 12167 14308 
1984 1653 1687 1654 14303 12392 14304 14308 12167 12393 
1654 1687 1985 1688 12393 14309 14310 12399 12401 14311 
1951 1985 1952 1654 14312 14313 14087 14077 14310 14082 
1654 1687 1984 1985 12393 14304 14308 14310 14309 14314 
1951 1985 1654 1984 14312 14310 14077 14306 14314 14308 
1952 1654 1985 1655 14082 14310 14313 14084 12174 14315 
1985 1654 1688 1655 14310 12399 14311 14315 12174 12400 
1655 1688 1986 1689 12400 14316 14317 12406 12408 14318 
1952 1986 1953 1655 14319 14320 14094 14084 14317 14089 
1655 1688 1985 1986 12400 14311 14315 14317 14316 14321 
1952 1986 1655 1985 14319 14317 14084 14313 14321 14315 
1953 1655 1986 1656 14089 14317 14320 14091 12181 14322 
1986 1655 1689 1656 14317 12406 14318 14322 12181 12407 
1656 1689 1987 1690 12407 14323 14324 12413 12415 14325 
1953 1987 1954 1656 14326 14327 14101 14091 14324 14096 
1656 1689 1986 1987 12407 14318 14322 14324 14323 14328 
1953 1987 1656 1986 14326 14324 14091 14320 14328 14322 
1954 1656 1987 1657 14096 14324 14327 14098 12188 14329 
1987 1656 1690 1657 14324 12413 14325 14329 12188 12414 
1657 1690 1988 1691 12414 14330 14331 12420 12422 14332 
1954 1988 1955 1657 14333 14334 14108 14098 14331 14103 
1657 1690 1987 1988 12414 14325 14329 14331 14330 14335 
1954 1988 1657 1987 14333 14331 14098 14327 14335 14329 
1955 1657 1988 1658 14103 14331 14334 14105 12195 14336 
1988 1657 1691 1658 14331 12420 14332 14336 12195 12421 
1658 1691 1989 1692 12421 14337 14338 12427 12429 14339 
1955 1989 1956 1658 14340 14341 14115 14105 14338 14110 
1658 1691 1988 1989 12421 14332 14336 14338 14337 14342 
1955 1989 1658 1988 14340 14338 14105 14334 14342 14336 
1956 1658 1989 1659 14110 14338 14341 14112 12202 14343 
1989 1658 1692 1659 14338 12427 14339 14343 12202 12428 
1659 1692 1990 1693 12428 14344 14345 12434 12436 14346 
1956 1990 1957 1659 14347 14348 14122 14112 14345 14117 
1659 1692 1989 1990 12428 14339 14343 14345 14344 14349 
1956 1990 1659 1989 14347 14345 14112 14341 14349 14343 
1957 1659 1990 1660 14117 14345 14348 14119 12209 14350 
1990 1659 1693 1660 14345 12434 14346 14350 12209 12435 
1660 1693 1991 1694 12435 14351 14352 12441 12443 14353 
1957 1991 1958 1660 14354 14355 14129 14119 14352 14124 
1660 1693 1990 1991 12435 14346 14350 14352 14351 14356 
1957 1991 1660 1990 14354 14352 14119 14348 14356 14350 
1958 1660 1991 1661 14124 14352 14355 14126 12216 14357 
1991 1660 1694 1661 14352 12441 14353 14357 12216 12442 
1661 1694 1992 1695 12442 14358 14359 12448 12450 14360 
1958 1992 1959 1661 14361 14362 14136 14126 14359 14131 
1661 1694 1991 1992 12442 14353 14357 14359 14358 14363 
1958 1992 1661 1991 14361 14359 14126 14355 14363 14357 
1959 1661 1992 1662 14131 14359 14362 14133 12223 14364 
1992 1661 1695 1662 14359 12448 14360 14364 12223 12449 
1662 1695 1993 1696 12449 14365 14366 12455 12457 14367 
1959 1993 1960 1662 14368 14369 14143 14133 14366 14138 
1662 1695 1992 1993 12449 14360 14364 14366 14365 14370 
1959 1993 1662 1992 14368 14366 14133 14362 14370 14364 
1960 1662 1993 1663 14138 14366 14369 14140 12230 14371 
1993 1662 1696 1663 14366 12455 14367 14371 12230 12456 
1663 1696 1994 1697 12456 14372 14373 12462 12464 14374 
1960 1994 1961 1663 14375 14376 14150 14140 14373 14145 
1663 1696 1993 1994 12456 14367 14371 14373 14372 14377 
1960 1994 1663 1993 14375 14373 14140 14369 14377 14371 
1961 1663 1994 1664 14145 14373 14376 14147 12237 14378 
1994 1663 1697 1664 14373 12462 14374 14378 12237 12463 
1664 1697 1995 1698 12463 14379 14380 12469 12471 14381 
1961 1995 1962 1664 14382 14383 14157 14147 14380 14152 
1664 1697 1994 1995 12463 14374 14378 14380 14379 14384 
1961 1995 1664 1994 14382 14380 14147 14376 14384 14378 
1962 1664 1995 1665 14152 14380 14383 14154 12244 14385 
1995 1664 1698 1665 14380 12469 14381 14385 12244 12470 
1665 1698 1996 1699 12470 14386 14387 12476 12478 14388 
1962 1996 1963 1665 14389 14390 14164 14154 14387 14159 
1665 1698 1995 1996 12470 14381 14385 14387 14386 14391 
1962 1996 1665 1995 14389 14387 14154 14383 14391 14385 
1963 1665 1996 1666 14159 14387 14390 14161 12251 14392 
1996 1665 1699 1666 14387 12476 14388 14392 12251 12477 
1666 1699 1997 1700 12477 14393 14394 12483 12485 14395 
1963 1997 1964 1666 14396 14397 14171 14161 14394 14166 
1666 1699 1996 1997 12477 14388 14392 14394 14393 14398 
1963 1997 1666 1996 14396 14394 14161 14390 14398 14392 
1964 1666 1997 1667 14166 14394 14397 14168 12258 14399 
1997 1666 1700 1667 14394 12483 14395 14399 12258 12484 
1667 1700 1998 1701 12484 14400 14401 12490 12492 14402 
1964 1998 1965 1667 14403 14404 14178 14168 14401 14173 
1667 1700 1997 1998 12484 14395 14399 14401 14400 14405 
1964 1998 1667 1997 14403 14401 14168 14397 14405 14399 
1965 1667 1998 1668 14173 14401 14404 14175 12265 14406 
1998 1667 1701 1668 14401 12490 14402 14406 12265 12491 
1668 1701 1999 1702 12491 14407 14408 12497 12499 14409 
1965 1999 1966 1668 14410 14411 14185 14175 14408 14180 
1668 1701 1998 1999 12491 14402 14406 14408 14407 14412 
1965 1999 1668 1998 14410 14408 14175 14404 14412 14406 
1966 1668 1999 1669 14180 14408 14411 14182 12272 14413 
1999 1668 1702 1669 14408 12497 14409 14413 12272 12498 
1669 1702 2000 1703 12498 14414 14415 12504 12506 14416 
1966 2000 1967 1669 14417 14418 14192 14182 14415 14187 
1669 1702 1999 2000 12498 14409 14413 14415 14414 14419 
1966 2000 1669 1999 14417 14415 14182 14411 14419 14413 
1967 1669 2000 1670 14187 14415 14418 14189 12279 14420 
2000 1669 1703 1670 14415 12504 14416 14420 12279 12505 
1670 1703 2001 1704 12505 14421 14422 12511 12513 14423 
1967 2001 1968 1670 14424 14425 14199 14189 14422 14194 
1670 1703 2000 2001 12505 14416 14420 14422 14421 14426 
1967 2001 1670 2000 14424 14422 14189 14418 14426 14420 
1968 1670 2001 1671 14194 14422 14425 14196 12286 14427 
2001 1670 1704 1671 14422 12511 14423 14427 12286 12512 
1671 1704 2002 1705 12512 14428 14429 12518 12520 14430 
1968 2002 1969 1671 14431 14432 14206 14196 14429 14201 
1671 1704 2001 2002 12512 14423 14427 14429 14428 14433 
1968 2002 1671 2001 14431 14429 14196 14425 14433 14427 
1969 1671 2002 1672 14201 14429 14432 14203 12293 14434 
2002 1671 1705 1672 14429 12518 14430 14434 12293 12519 
1672 1705 2003 1706 12519 14435 14436 12525 12527 14437 
1969 2003 1970 1672 14438 14439 14213 14203 14436 14208 
1672 1705 2002 2003 12519 14430 14434 14436 14435 14440 
1969 2003 1672 2002 14438 14436 14203 14432 14440 14434 
1970 1672 2003 1673 14208 14436 14439 14210 12300 14441 
2003 1672 1706 1673 14436 12525 14437 14441 12300 12526 
1673 1706 2004 1707 12526 14442 14443 12532 12534 14444 
1970 2004 1971 1673 14445 14446 14220 14210 14443 14215 
1673 1706 2003 2004 12526 14437 14441 14443 14442 14447 
1970 2004 1673 2003 14445 14443 14210 14439 14447 14441 
1971 1673 2004 1674 14215 14443 14446 14217 12307 14448 
2004 1673 1707 1674 14443 12532 14444 14448 12307 12533 
1674 1707 2005 1708 12533 14449 14450 12539 12541 14451 
1971 2005 1972 1674 14452 14453 14227 14217 14450 14222 
1674 1707 2004 2005 12533 14444 14448 14450 14449 14454 
1971 2005 1674 2004 14452 14450 14217 14446 14454 14448 
1972 1674 2005 1675 14222 14450 14453 14224 12314 14455 
2005 1674 1708 1675 14450 12539 14451 14455 12314 12540 
1675 1708 2006 1709 12540 14456 14457 12546 12548 14458 
1972 2006 1973 1675 14459 14460 14234 14224 14457 14229 
1675 1708 2005 2006 12540 14451 14455 14457 14456 14461 
1972 2006 1675 2005 14459 14457 14224 14453 14461 14455 
1973 1675 2006 1676 14229 14457 14460 14231 12321 14462 
2006 1675 1709 1676 14457 12546 14458 14462 12321 12547 
1676 1709 2007 1710 12547 14463 14464 12553 12555 14465 
1973 2007 1974 1676 14466 14467 14241 14231 14464 14236 
1676 1709 2006 2007 12547 14458 14462 14464 14463 14468 
1973 2007 1676 2006 14466 14464 14231 14460 14468 14462 
1974 1676 2007 1677 14236 14464 14467 14238 12328 14469 
2007 1676 1710 1677 14464 12553 14465 14469 12328 12554 
1677 1710 2008 1711 12554 14470 14471 12560 12562 14472 
1974 2008 1975 1677 14473 14474 14248 14238 14471 14243 
1677 1710 2007 2008 12554 14465 14469 14471 14470 14475 
1974 2008 1677 2007 14473 14471 14238 14467 14475 14469 
1975 1677 2008 1678 14243 14471 14474 14245 12335 14476 
2008 1677 1711 1678 14471 12560 14472 14476 12335 12561 
1678 1711 2009 1712 12561 14477 14478 12567 12569 14479 
1975 2009 1976 1678 14480 14481 14255 14245 14478 14250 
1678 1711 2008 2009 12561 14472 14476 14478 14477 14482 
1975 2009 1678 2008 14480 14478 14245 14474 14482 14476 
1976 1678 2009 1679 14250 14478 14481 14252 12342 14483 
2009 1678 1712 1679 14478 12567 14479 14483 12342 12568 
1679 1712 2010 1713 12568 14484 14485 12574 12576 14486 
1976 2010 1977 1679 14487 14488 14262 14252 14485 14257 
1679 1712 2009 2010 12568 14479 14483 14485 14484 14489 
1976 2010 1679 2009 14487 14485 14252 14481 14489 14483 
1977 1679 2010 1680 14257 14485 14488 14259 12349 14490 
2010 1679 1713 1680 14485 12574 14486 14490 12349 12575 
1680 1713 2011 1714 12575 14491 14492 12581 12583 14493 
1977 2011 1978 1680 14494 14495 14269 14259 14492 14264 
1680 1713 2010 2011 12575 14486 14490 14492 14491 14496 
1977 2011 1680 2010 14494 14492 14259 14488 14496 14490 
1978 1680 2011 1681 14264 14492 14495 14266 12356 14497 
2011 1680 1714 1681 14492 12581 14493 14497 12356 12582 
1681 1714 2012 1715 12582 14498 14499 12588 12590 14500 
1978 2012 1979 1681 14501 14502 14276 14266 14499 14271 
1681 1714 2011 2012 12582 14493 14497 14499 14498 14503 
1978 2012 1681 2011 14501 14499 14266 14495 14503 14497 
1979 1681 2012 1682 14271 14499 14502 14273 12363 14504 
2012 1681 1715 1682 14499 12588 14500 14504 12363 12589 
1683 1716 2014 1717 12600 14505 14506 12595 12599 14507 
1980 2014 1981 1683 14508 14509 14285 14283 14506 14278 
1683 1716 2013 2014 12600 14510 14511 14506 14505 14512 
1980 2014 1683 2013 14508 14506 14283 14513 14512 14511 
1981 1683 2014 1684 14278 14506 14509 14280 12372 14514 
2014 1683 1717 1684 14506 12595 14507 14514 12372 12596 
1684 1717 2015 1718 12596 14515 14516 12605 12607 14517 
1981 2015 1982 1684 14518 14519 14293 14280 14516 14288 
1684 1717 2014 2015 12596 14507 14514 14516 14515 14520 
1981 2015 1684 2014 14518 14516 14280 14509 14520 14514 
1982 1684 2015 1685 14288 14516 14519 14290 12380 14521 
2015 1684 1718 1685 14516 12605 14517 14521 12380 12606 
1685 1718 2016 1719 12606 14522 14523 12612 12614 14524 
1982 2016 1983 1685 14525 14526 14300 14290 14523 14295 
1685 1718 2015 2016 12606 14517 14521 14523 14522 14527 
1982 2016 1685 2015 14525 14523 14290 14519 14527 14521 
1983 1685 2016 1686 14295 14523 14526 14297 12387 14528 
2016 1685 1719 1686 14523 12612 14524 14528 12387 12613 
1686 1719 2017 1720 12613 14529 14530 12619 12621 14531 
1983 2017 1984 1686 14532 14533 14307 14297 14530 14302 
1686 1719 2016 2017 12613 14524 14528 14530 14529 14534 
1983 2017 1686 2016 14532 14530 14297 14526 14534 14528 
1984 1686 2017 1687 14302 14530 14533 14304 12394 14535 
2017 1686 1720 1687 14530 12619 14531 14535 12394 12620 
1687 1720 2018 1721 12620 14536 14537 12626 12628 14538 
1984 2018 1985 1687 14539 14540 14314 14304 14537 14309 
1687 1720 2017 2018 12620 14531 14535 14537 14536 14541 
1984 2018 1687 2017 14539 14537 14304 14533 14541 14535 
1985 1687 2018 1688 14309 14537 14540 14311 12401 14542 
2018 1687 1721 1688 14537 12626 14538 14542 12401 12627 
1688 1721 2019 1722 12627 14543 14544 12633 12635 14545 
1985 2019 1986 1688 14546 14547 14321 14311 14544 14316 
1688 1721 2018 2019 12627 14538 14542 14544 14543 14548 
1985 2019 1688 2018 14546 14544 14311 14540 14548 14542 
1986 1688 2019 1689 14316 14544 14547 14318 12408 14549 
2019 1688 1722 1689 14544 12633 14545 14549 12408 12634 
1689 1722 2020 1723 12634 14550 14551 12640 12642 14552 
1986 2020 1987 1689 14553 14554 14328 14318 14551 14323 
1689 1722 2019 2020 12634 14545 14549 14551 14550 14555 
1986 2020 1689 2019 14553 14551 14318 14547 14555 14549 
1987 1689 2020 1690 14323 14551 14554 14325 12415 14556 
2020 1689 1723 1690 14551 12640 14552 14556 12415 12641 
1690 1723 2021 1724 12641 14557 14558 12647 12649 14559 
1987 2021 1988 1690 14560 14561 14335 14325 14558 14330 
1690 1723 2020 2021 12641 14552 14556 14558 14557 14562 
1987 2021 1690 2020 14560 14558 14325 14554 14562 14556 
1988 1690 2021 1691 14330 14558 14561 14332 12422 14563 
2021 1690 1724 1691 14558 12647 14559 14563 12422 12648 
1691 1724 2022 1725 12648 14564 14565 12654 12656 14566 
1988 2022 1989 1691 14567 14568 14342 14332 14565 14337 
1691 1724 2021 2022 12648 14559 14563 14565 14564 14569 
1988 2022 1691 2021 14567 14565 14332 14561 14569 14563 
1989 1691 2022 1692 14337 14565 14568 14339 12429 14570 
2022 1691 1725 1692 14565 12654 14566 14570 12429 12655 
1692 1725 2023 1726 12655 14571 14572 12661 12663 14573 
1989 2023 1990 1692 14574 14575 14349 14339 14572 14344 
1692 1725 2022 2023 12655 14566 14570 14572 14571 14576 
1989 2023 1692 2022 14574 14572 14339 14568 14576 14570 
1990 1692 2023 1693 14344 14572 14575 14346 12436 14577 
2023 1692 1726 1693 14572 12661 14573 14577 12436 12662 
1693 1726 2024 1727 12662 14578 14579 12668 12670 14580 
1990 2024 1991 1693 14581 14582 14356 14346 14579 14351 
1693 1726 2023 2024 12662 14573 14577 14579 14578 14583 
1990 2024 1693 2023 14581 14579 14346 14575 14583 14577 
1991 1693 2024 1694 14351 14579 14582 14353 12443 14584 
2024 1693 1727 1694 14579 12668 14580 14584 12443 12669 
1694 1727 2025 1728 12669 14585 14586 12675 12677 14587 
1991 2025 1992 1694 14588 14589 14363 14353 14586 14358 
1694 1727 2024 2025 12669 14580 14584 14586 14585 14590 
1991 2025 1694 2024 14588 14586 14353 14582 14590 14584 
1992 1694 2025 1695 14358 14586 14589 14360 12450 14591 
2025 1694 1728 1695 14586 12675 14587 14591 12450 12676 
1695 1728 2026 1729 12676 14592 14593 12682 12684 14594 
1992 2026 1993 1695 14595 14596 14370 14360 14593 14365 
1695 1728 2025 2026 12676 14587 14591 14593 14592 14597 
1992 2026 1695 2025 14595 14593 14360 14589 14597 14591 
1993 1695 2026 1696 14365 14593 14596 14367 12457 14598 
2026 1695 1729 1696 14593 12682 14594 14598 12457 12683 
1696 1729 2027 1730 12683 14599 14600 12689 12691 14601 
1993 2027 1994 1696 14602 14603 14377 14367 14600 14372 
1696 1729 2026 2027 12683 14594 14598 14600 14599 14604 
1993 2027 1696 2026 14602 14600 14367 14596 14604 14598 
1994 1696 2027 1697 14372 14600 14603 14374 12464 14605 
2027 1696 1730 1697 14600 12689 14601 14605 12464 12690 
1697 1730 2028 1731 12690 14606 14607 12696 12698 14608 
1994 2028 1995 1697 14609 14610 14384 14374 14607 14379 
1697 1730 2027 2028 12690 14601 14605 14607 14606 14611 
1994 2028 1697 2027 14609 14607 14374 14603 14611 14605 
1995 1697 2028 1698 14379 14607 14610 14381 12471 14612 
2028 1697 1731 1698 14607 12696 14608 14612 12471 12697 
1698 1731 2029 1732 12697 14613 14614 12703 12705 14615 
1995 2029 1996 1698 14616 14617 14391 14381 14614 14386 
1698 1731 2028 2029 12697 14608 14612 14614 14613 14618 
1995 2029 1698 2028 14616 14614 14381 14610 14618 14612 
1996 1698 2029 1699 14386 14614 14617 14388 12478 14619 
2029 1698 1732 1699 14614 12703 14615 14619 12478 12704 
1699 1732 2030 1733 12704 14620 14621 12710 12712 14622 
1996 2030 1997 1699 14623 14624 14398 14388 14621 14393 
1699 1732 2029 2030 12704 14615 14619 14621 14620 14625 
1996 2030 1699 2029 14623 14621 14388 14617 14625 14619 
1997 1699 2030 1700 14393 14621 14624 14395 12485 14626 
2030 1699 1733 1700 14621 12710 14622 14626 12485 12711 
1700 1733 2031 1734 12711 14627 14628 12717 12719 14629 
1997 2031 1998 1700 14630 14631 14405 14395 14628 14400 
1700 1733 2030 2031 12711 14622 14626 14628 14627 14632 
1997 2031 1700 2030 14630 14628 14395 14624 14632 14626 
1998 1700 2031 1701 14400 14628 14631 14402 12492 14633 
2031 1700 1734 1701 14628 12717 14629 14633 12492 12718 
1701 1734 2032 1735 12718 14634 14635 12724 12726 14636 
1998 2032 1999 1701 14637 14638 14412 14402 14635 14407 
1701 1734 2031 2032 12718 14629 14633 14635 14634 14639 
1998 2032 1701 2031 14637 14635 14402 14631 14639 14633 
1999 1701 2032 1702 14407 14635 14638 14409 12499 14640 
2032 1701 1735 1702 14635 12724 14636 14640 12499 12725 
1702 1735 2033 1736 12725 14641 14642 12731 12733 14643 
1999 2033 2000 1702 14644 14645 14419 14409 14642 14414 
1702 1735 2032 2033 12725 14636 14640 14642 14641 14646 
1999 2033 1702 2032 14644 14642 14409 14638 14646 14640 
2000 1702 2033 1703 14414 14642 14645 14416 12506 14647 
2033 1702 1736 1703 14642 12731 14643 14647 12506 12732 
1703 1736 2034 1737 12732 14648 14649 12738 12740 14650 
2000 2034 2001 1703 14651 14652 14426 14416 14649 14421 
1703 1736 2033 2034 12732 14643 14647 14649 14648 14653 
2000 2034 1703 2033 14651 14649 14416 14645 14653 14647 
2001 1703 2034 1704 14421 14649 14652 14423 12513 14654 
2034 1703 1737 1704 14649 12738 14650 14654 12513 12739 
1704 1737 2035 1738 12739 14655 14656 12745 12747 14657 
2001 2035 2002 1704 14658 14659 14433 14423 14656 14428 
1704 1737 2034 2035 12739 14650 14654 14656 14655 14660 
2001 2035 1704 2034 14658 14656 14423 14652 14660 14654 
2002 1704 2035 1705 14428 14656 14659 14430 12520 14661 
2035 1704 1738 1705 14656 12745 14657 14661 12520 12746 
1705 1738 2036 1739 12746 14662 14663 12752 12754 14664 
2002 2036 2003 1705 14665 14666 14440 14430 14663 14435 
1705 1738 2035 2036 12746 14657 14661 14663 14662 14667 
2002 2036 1705 2035 14665 14663 14430 14659 14667 14661 
2003 1705 2036 1706 14435 14663 14666 14437 12527 14668 
2036 1705 1739 1706 14663 12752 14664 14668 12527 12753 
1706 1739 2037 1740 12753 14669 14670 12759 12761 14671 
2003 2037 2004 1706 14672 14673 14447 14437 14670 14442 
1706 1739 2036 2037 12753 14664 14668 14670 14669 14674 
2003 2037 1706 2036 14672 14670 14437 14666 14674 14668 
2004 1706 2037 1707 14442 14670 14673 14444 12534 14675 
2037 1706 1740 1707 14670 12759 14671 14675 12534 12760 
1707 1740 2038 1741 12760 14676 14677 12766 12768 14678 
2004 2038 2005 1707 14679 14680 14454 14444 14677 14449 
1707 1740 2037 2038 12760 14671 14675 14677 14676 14681 
2004 2038 1707 2037 14679 14677 14444 14673 14681 14675 
2005 1707 2038 1708 14449 14677 14680 14451 12541 14682 
2038 1707 1741 1708 14677 12766 14678 14682 12541 12767 
1708 1741 2039 1742 12767 14683 14684 12773 12775 14685 
2005 2039 2006 1708 14686 14687 14461 14451 14684 14456 
1708 1741 2038 2039 12767 14678 14682 14684 14683 14688 
2005 2039 1708 2038 14686 14684 14451 14680 14688 14682 
2006 1708 2039 1709 14456 14684 14687 14458 12548 14689 
2039 1708 1742 1709 14684 12773 14685 14689 12548 12774 
1709 1742 2040 1743 12774 14690 14691 12780 12782 14692 
2006 2040 2007 1709 14693 14694 14468 14458 14691 14463 
1709 1742 2039 2040 12774 14685 14689 14691 14690 14695 
2006 2040 1709 2039 14693 14691 14458 14687 14695 14689 
2007 1709 2040 1710 14463 14691 14694 14465 12555 14696 
2040 1709 1743 1710 14691 12780 14692 14696 12555 12781 
1710 1743 2041 1744 12781 14697 14698 12787 12789 14699 
2007 2041 2008 1710 14700 14701 14475 14465 14698 14470 
1710 1743 2040 2041 12781 14692 14696 14698 14697 14702 
2007 2041 1710 2040 14700 14698 14465 14694 14702 14696 
2008 1710 2041 1711 14470 14698 14701 14472 12562 14703 
2041 1710 1744 1711 14698 12787 14699 14703 12562 12788 
1711 1744 2042 1745 12788 14704 14705 12794 12796 14706 
2008 2042 2009 1711 14707 14708 14482 14472 14705 14477 
1711 1744 2041 2042 12788 14699 14703 14705 14704 14709 
2008 2042 1711 2041 14707 14705 14472 14701 14709 14703 
2009 1711 2042 1712 14477 14705 14708 14479 12569 14710 
2042 1711 1745 1712 14705 12794 14706 14710 12569 12795 
1712 1745 2043 1746 12795 14711 14712 12801 12803 14713 
2009 2043 2010 1712 14714 14715 14489 14479 14712 14484 
1712 1745 2042 2043 12795 14706 14710 14712 14711 14716 
2009 2043 1712 2042 14714 14712 14479 14708 14716 14710 
2010 1712 2043 1713 14484 14712 14715 14486 12576 14717 
2043 1712 1746 1713 14712 12801 14713 14717 12576 12802 
1713 1746 2044 1747 12802 14718 14719 12808 12810 14720 
2010 2044 2011 1713 14721 14722 14496 14486 14719 14491 
1713 1746 2043 2044 12802 14713 14717 14719 14718 14723 
2010 2044 1713 2043 14721 14719 14486 14715 14723 14717 
2011 1713 2044 1714 14491 14719 14722 14493 12583 14724 
2044 1713 1747 1714 14719 12808 14720 14724 12583 12809 
1714 1747 2045 1748 12809 14725 14726 12815 12817 14727 
2011 2045 2012 1714 14728 14729 14503 14493 14726 14498 
1714 1747 2044 2045 12809 14720 14724 14726 14725 14730 
2011 2045 1714 2044 14728 14726 14493 14722 14730 14724 
2012 1714 2045 1715 14498 14726 14729 14500 12590 14731 
2045 1714 1748 1715 14726 12815 14727 14731 12590 12816 
1716 1749 2047 1750 12827 14732 14733 12822 12826 14734 
2013 2047 2014 1716 14735 14736 14512 14510 14733 14505 
1716 1749 2046 2047 12827 14737 14738 14733 14732 14739 
2013 2047 1716 2046 14735 14733 14510 14740 14739 14738 
2014 1716 2047 1717 14505 14733 14736 14507 12599 14741 
2047 1716 1750 1717 14733 12822 14734 14741 12599 12823 
1717 1750 2048 1751 12823 14742 14743 12832 12834 14744 
2014 2048 2015 1717 14745 14746 14520 14507 14743 14515 
1717 1750 2047 2048 12823 14734 14741 14743 14742 14747 
2014 2048 1717 2047 14745 14743 14507 14736 14747 14741 
2015 1717 2048 1718 14515 14743 14746 14517 12607 14748 
2048 1717 1751 1718 14743 12832 14744 14748 12607 12833 
1718 1751 2049 1752 12833 14749 14750 12839 12841 14751 
2015 2049 2016 1718 14752 14753 14527 14517 14750 14522 
1718 1751 2048 2049 12833 14744 14748 14750 14749 14754 
2015 2049 1718 2048 14752 14750 14517 14746 14754 14748 
2016 1718 2049 1719 14522 14750 14753 14524 12614 14755 
2049 1718 1752 1719 14750 12839 14751 14755 12614 12840 
1719 1752 2050 1753 12840 14756 14757 12846 12848 14758 
2016 2050 2017 1719 14759 14760 14534 14524 14757 14529 
1719 1752 2049 2050 12840 14751 14755 14757 14756 14761 
2016 2050 1719 2049 14759 14757 14524 14753 14761 14755 
2017 1719 2050 1720 14529 14757 14760 14531 12621 14762 
2050 1719 1753 1720 14757 12846 14758 14762 12621 12847 
1720 1753 2051 1754 12847 14763 14764 12853 12855 14765 
2017 2051 2018 1720 14766 14767 14541 14531 14764 14536 
1720 1753 2050 2051 12847 14758 14762 14764 14763 14768 
2017 2051 1720 2050 14766 14764 14531 14760 14768 14762 
2018 1720 2051 1721 14536 14764 14767 14538 12628 14769 
2051 1720 1754 1721 14764 12853 14765 14769 12628 12854 
1721 1754 2052 1755 12854 14770 14771 12860 12862 14772 
2018 2052 2019 1721 14773 14774 14548 14538 14771 14543 
1721 1754 2051 2052 12854 14765 14769 14771 14770 14775 
2018 2052 1721 2051 14773 14771 14538 14767 14775 14769 
2019 1721 2052 1722 14543 14771 14774 14545 12635 14776 
2052 1721 1755 1722 14771 12860 14772 14776 12635 12861 
1722 1755 2053 1756 12861 14777 14778 12867 12869 14779 
2019 2053 2020 1722 14780 14781 14555 14545 14778 14550 
1722 1755 2052 2053 12861 14772 14776 14778 14777 14782 
2019 2053 1722 2052 14780 14778 14545 14774 14782 14776 
2020 1722 2053 1723 14550 14778 14781 14552 12642 14783 
2053 1722 1756 1723 14778 12867 14779 14783 12642 12868 
1723 1756 2054 1757 12868 14784 14785 12874 12876 14786 
2020 2054 2021 1723 14787 14788 14562 14552 14785 14557 
1723 1756 2053 2054 12868 14779 14783 14785 14784 14789 
2020 2054 1723 2053 14787 14785 14552 14781 14789 14783 
2021 1723 2054 1724 14557 14785 14788 14559 12649 14790 
2054 1723 1757 1724 14785 12874 14786 14790 12649 12875 
1724 1757 2055 1758 12875 14791 14792 12881 12883 14793 
2021 2055 2022 1724 14794 14795 14569 14559 14792 14564 
1724 1757 2054 2055 12875 14786 14790 14792 14791 14796 
2021 2055 1724 2054 14794 14792 14559 14788 14796 14790 
2022 1724 2055 1725 14564 14792 14795 14566 12656 14797 
2055 1724 1758 1725 14792 12881 14793 14797 12656 12882 
1725 1758 2056 1759 12882 14798 14799 12888 12890 14800 
2022 2056 2023 1725 14801 14802 14576 14566 14799 14571 
1725 1758 2055 2056 12882 14793 14797 14799 14798 14803 
2022 2056 1725 2055 14801 14799 14566 14795 14803 14797 
2023 1725 2056 1726 14571 14799 14802 14573 12663 14804 
2056 1725 1759 1726 14799 12888 14800 14804 12663 12889 
1726 1759 2057 1760 12889 14805 14806 12895 12897 14807 
2023 2057 2024 1726 14808 14809 14583 14573 14806 14578 
1726 1759 2056 2057 12889 14800 14804 14806 14805 14810 
2023 2057 1726 2056 14808 14806 14573 14802 14810 14804 
2024 1726 2057 1727 14578 14806 14809 14580 12670 14811 
2057 1726 1760 1727 14806 12895 14807 14811 12670 12896 
1727 1760 2058 1761 12896 14812 14813 12902 12904 14814 
2024 2058 2025 1727 14815 14816 14590 14580 14813 14585 
1727 1760 2057 2058 12896 14807 14811 14813 14812 14817 
2024 2058 1727 2057 14815 14813 14580 14809 14817 14811 
2025 1727 2058 1728 14585 14813 14816 14587 12677 14818 
2058 1727 1761 1728 14813 12902 14814 14818 12677 12903 
1728 1761 2059 1762 12903 14819 14820 12909 12911 14821 
2025 2059 2026 1728 14822 14823 14597 14587 14820 14592 
1728 1761 2058 2059 12903 14814 14818 14820 14819 14824 
2025 2059 1728 2058 14822 14820 14587 14816 14824 14818 
2026 1728 2059 1729 14592 14820 14823 14594 12684 14825 
2059 1728 1762 1729 14820 12909 14821 14825 12684 12910 
1729 1762 2060 1763 12910 14826 14827 12916 12918 14828 
2026 2060 2027 1729 14829 14830 14604 14594 14827 14599 
1729 1762 2059 2060 12910 14821 14825 14827 14826 14831 
2026 2060 1729 2059 14829 14827 14594 14823 14831 14825 
2027 1729 2060 1730 14599 14827 14830 14601 12691 14832 
2060 1729 1763 1730 14827 12916 14828 14832 12691 12917 
1730 1763 2061 1764 12917 14833 14834 12923 12925 14835 
2027 2061 2028 1730 14836 14837 14611 14601 14834 14606 
1730 1763 2060 2061 12917 14828 14832 14834 14833 14838 
2027 2061 1730 2060 14836 14834 14601 14830 14838 14832 
2028 1730 2061 1731 14606 14834 14837 14608 12698 14839 
2061 1730 1764 1731 14834 12923 14835 14839 12698 12924 
1731 1764 2062 1765 12924 14840 14841 12930 12932 14842 
2028 2062 2029 1731 14843 14844 14618 14608 14841 14613 
1731 1764 2061 2062 12924 14835 14839 14841 14840 14845 
2028 2062 1731 2061 14843 14841 14608 14837 14845 14839 
2029 1731 2062 1732 14613 14841 14844 14615 12705 14846 
2062 1731 1765 1732 14841 12930 14842 14846 12705 12931 
1732 1765 2063 1766 12931 14847 14848 12937 12939 14849 
2029 2063 2030 1732 14850 14851 14625 14615 14848 14620 
1732 1765 2062 2063 12931 14842 14846 14848 14847 14852 
2029 2063 1732 2062 14850 14848 14615 14844 14852 14846 
2030 1732 2063 1733 14620 14848 14851 14622 12712 14853 
2063 1732 1766 1733 14848 12937 14849 14853 12712 12938 
1733 1766 2064 1767 12938 14854 14855 12944 12946 14856 
2030 2064 2031 1733 14857 14858 14632 14622 14855 14627 
1733 1766 2063 2064 12938 14849 14853 14855 14854 14859 
2030 2064 1733 2063 14857 14855 14622 14851 14859 14853 
2031 1733 2064 1734 14627 14855 14858 14629 12719 14860 
2064 1733 1767 1734 14855 12944 14856 14860 12719 12945 
1734 1767 2065 1768 12945 14861 14862 12951 12953 14863 
2031 2065 2032 1734 14864 14865 14639 14629 14862 14634 
1734 1767 2064 2065 12945 14856 14860 14862 14861 14866 
2031 2065 1734 2064 14864 14862 14629 14858 14866 14860 
2032 1734 2065 1735 14634 14862 14865 14636 12726 14867 
2065 1734 1768 1735 14862 12951 14863 14867 12726 12952 
1735 1768 2066 1769 12952 14868 14869 12958 12960 14870 
2032 2066 2033 1735 14871 14872 14646 14636 14869 14641 
1735 1768 2065 2066 12952 14863 14867 14869 14868 14873 
2032 2066 1735 2065 14871 14869 14636 14865 14873 14867 
2033 1735 2066 1736 14641 14869 14872 14643 12733 14874 
2066 1735 1769 1736 14869 12958 14870 14874 12733 12959 
1736 1769 2067 1770 12959 14875 14876 12965 12967 14877 
2033 2067 2034 1736 14878 14879 14653 14643 14876 14648 
1736 1769 2066 2067 12959 14870 14874 14876 14875 14880 
2033 2067 1736 2066 14878 14876 14643 14872 14880 14874 
2034 1736 2067 1737 14648 14876 14879 14650 12740 14881 
2067 1736 1770 1737 14876 12965 14877 14881 12740 12966 
1737 1770 2068 1771 12966 14882 14883 12972 12974 14884 
2034 2068 2035 1737 14885 14886 14660 14650 14883 14655 
1737 1770 2067 2068 12966 14877 14881 14883 14882 14887 
2034 2068 1737 2067 14885 14883 14650 14879 14887 14881 
2035 1737 2068 1738 14655 14883 14886 14657 12747 14888 
2068 1737 1771 1738 14883 12972 14884 14888 12747 12973 
1738 1771 2069 1772 12973 14889 14890 12979 12981 14891 
2035 2069 2036 1738 14892 14893 14667 14657 14890 14662 
1738 1771 2068 2069 12973 14884 14888 14890 14889 14894 
2035 2069 1738 2068 14892 14890 14657 14886 14894 14888 
2036 1738 2069 1739 14662 14890 14893 14664 12754 14895 
2069 1738 1772 1739 14890 12979 14891 14895 12754 12980 
1739 1772 2070 1773 12980 14896 14897 12986 12988 14898 
2036 2070 2037 1739 14899 14900 14674 14664 14897 14669 
1739 1772 2069 2070 12980 14891 14895 14897 14896 14901 
2036 2070 1739 2069 14899 14897 14664 14893 14901 14895 
2037 1739 2070 1740 14669 14897 14900 14671 12761 14902 
2070 1739 1773 1740 14897 12986 14898 14902 12761 12987 
1740 1773 2071 1774 12987 14903 14904 12993 12995 14905 
2037 2071 2038 1740 14906 14907 14681 14671 14904 14676 
1740 1773 2070 2071 12987 14898 14902 14904 14903 14908 
2037 2071 1740 2070 14906 14904 14671 14900 14908 14902 
2038 1740 2071 1741 14676 14904 14907 14678 12768 14909 
2071 1740 1774 1741 14904 12993 14905 14909 12768 12994 
1741 1774 2072 1775 12994 14910 14911 13000 13002 14912 
2038 2072 2039 1741 14913 14914 14688 14678 14911 14683 
1741 1774 2071 2072 12994 14905 14909 14911 14910 14915 
2038 2072 1741 2071 14913 14911 14678 14907 14915 14909 
2039 1741 2072 1742 14683 14911 14914 14685 12775 14916 
2072 1741 1775 1742 14911 13000 14912 14916 12775 13001 
1742 1775 2073 1776 13001 14917 14918 13007 13009 14919 
2039 2073 2040 1742 14920 14921 14695 14685 14918 14690 
1742 1775 2072 2073 13001 14912 14916 14918 14917 14922 
2039 2073 1742 2072 14920 14918 14685 14914 14922 14916 
2040 1742 2073 1743 14690 14918 14921 14692 12782 14923 
2073 1742 1776 1743 14918 13007 14919 14923 12782 13008 
1743 1776 2074 1777 13008 14924 14925 13014 13016 14926 
2040 2074 2041 1743 14927 14928 14702 14692 14925 14697 
1743 1776 2073 2074 13008 14919 14923 14925 14924 14929 
2040 2074 1743 2073 14927 14925 14692 14921 14929 14923 
2041 1743 2074 1744 14697 14925 14928 14699 12789 14930 
2074 1743 1777 1744 14925 13014 14926 14930 12789 13015 
1744 1777 2075 1778 13015 14931 14932 13021 13023 14933 
2041 2075 2042 1744 14934 14935 14709 14699 14932 14704 
1744 1777 2074 2075 13015 14926 14930 14932 14931 14936 
2041 2075 1744 2074 14934 14932 14699 14928 14936 14930 
2042 1744 2075 1745 14704 14932 14935 14706 12796 14937 
2075 1744 1778 1745 14932 13021 14933 14937 12796 13022 
1745 1778 2076 1779 13022 14938 14939 13028 13030 14940 
2042 2076 2043 1745 14941 14942 14716 14706 14939 14711 
1745 1778 2075 2076 13022 14933 14937 14939 14938 14943 
2042 2076 1745 2075 14941 14939 14706 14935 14943 14937 
2043 1745 2076 1746 14711 14939 14942 14713 12803 14944 
2076 1745 1779 1746 14939 13028 14940 14944 12803 13029 
1746 1779 2077 1780 13029 14945 14946 13035 13037 14947 
2043 2077 2044 1746 14948 14949 14723 14713 14946 14718 
1746 1779 2076 2077 13029 14940 14944 14946 14945 14950 
2043 2077 1746 2076 14948 14946 14713 14942 14950 14944 
2044 1746 2077 1747 14718 14946 14949 14720 12810 14951 
2077 1746 1780 1747 14946 13035 14947 14951 12810 13036 
1747 1780 2078 1781 13036 14952 14953 13042 13044 14954 
2044 2078 2045 1747 14955 14956 14730 14720 14953 14725 
1747 1780 2077 2078 13036 14947 14951 14953 14952 14957 
2044 2078 1747 2077 14955 14953 14720 14949 14957 14951 
2045 1747 2078 1748 14725 14953 14956 14727 12817 14958 
2078 1747 1781 1748 14953 13042 14954 14958 12817 13043 
1782 1815 2113 1816 13057 14959 14960 13049 13056 14961 
2079 2113 2080 1782 14962 14963 14964 14965 14960 14966 
1782 1815 2112 2113 13057 14967 14968 14960 14959 14969 
2079 2113 1782 2112 14962 14960 14965 14970 14969 14968 
2080 1782 2113 1783 14966 14960 14963 14971 13051 14972 
2113 1782 1816 1783 14960 13049 14961 14972 13051 13050 
1783 1816 2114 1817 13050 14973 14974 13063 13067 14975 
2080 2114 2081 1783 14976 14977 14978 14971 14974 14979 
1783 1816 2113 2114 13050 14961 14972 14974 14973 14980 
2080 2114 1783 2113 14976 14974 14971 14963 14980 14972 
2081 1783 2114 1784 14979 14974 14977 14981 13065 14982 
2114 1783 1817 1784 14974 13063 14975 14982 13065 13064 
1784 1817 2115 1818 13064 14983 14984 13073 13077 14985 
2081 2115 2082 1784 14986 14987 14988 14981 14984 14989 
1784 1817 2114 2115 13064 14975 14982 14984 14983 14990 
2081 2115 1784 2114 14986 14984 14981 14977 14990 14982 
2082 1784 2115 1785 14989 14984 14987 14991 13075 14992 
2115 1784 1818 1785 14984 13073 14985 14992 13075 13074 
1785 1818 2116 1819 13074 14993 14994 13083 13087 14995 
2082 2116 2083 1785 14996 14997 14998 14991 14994 14999 
1785 1818 2115 2116 13074 14985 14992 14994 14993 15000 
2082 2116 1785 2115 14996 14994 14991 14987 15000 14992 
2083 1785 2116 1786 14999 14994 14997 15001 13085 15002 
2116 1785 1819 1786 14994 13083 14995 15002 13085 13084 
1786 1819 2117 1820 13084 15003 15004 13093 13097 15005 
2083 2117 2084 1786 15006 15007 15008 15001 15004 15009 
1786 1819 2116 2117 13084 14995 15002 15004 15003 15010 
2083 2117 1786 2116 15006 15004 15001 14997 15010 15002 
2084 1786 2117 1787 15009 15004 15007 15011 13095 15012 
2117 1786 1820 1787 15004 13093 15005 15012 13095 13094 
1787 1820 2118 1821 13094 15013 15014 13103 13107 15015 
2084 2118 2085 1787 15016 15017 15018 15011 15014 15019 
1787 1820 2117 2118 13094 15005 15012 15014 15013 15020 
2084 2118 1787 2117 15016 15014 15011 15007 15020 15012 
2085 1787 2118 1788 15019 15014 15017 15021 13105 15022 
2118 1787 1821 1788 15014 13103 15015 15022 13105 13104 
1788 1821 2119 1822 13104 15023 15024 13113 13117 15025 
2085 2119 2086 1788 15026 15027 15028 15021 15024 15029 
1788 1821 2118 2119 13104 15015 15022 15024 15023 15030 
2085 2119 1788 2118 15026 15024 15021 15017 15030 15022 
2086 1788 2119 1789 15029 15024 15027 15031 13115 15032 
2119 1788 1822 1789 15024 13113 15025 15032 13115 13114 
1789 1822 2120 1823 13114 15033 15034 13123 13127 15035 
2086 2120 2087 1789 15036 15037 15038 15031 15034 15039 
1789 1822 2119 2120 13114 15025 15032 15034 15033 15040 
2086 2120 1789 2119 15036 15034 15031 15027 15040 15032 
2087 1789 2120 1790 15039 15034 15037 15041 13125 15042 
2120 1789 1823 1790 15034 13123 15035 15042 13125 13124 
1790 1823 2121 1824 13124 15043 15044 13133 13137 15045 
2087 2121 2088 1790 15046 15047 15048 15041 15044 15049 
1790 1823 2120 2121 13124 15035 15042 15044 15043 15050 
2087 2121 1790 2120 15046 15044 15041 15037 15050 15042 
2088 1790 2121 1791 15049 15044 15047 15051 13135 15052 
2121 1790 1824 1791 15044 13133 15045 15052 13135 13134 
1791 1824 2122 1825 13134 15053 15054 13143 13147 15055 
2088 2122 2089 1791 15056 15057 15058 15051 15054 15059 
1791 1824 2121 2122 13134 15045 15052 15054 15053 15060 
2088 2122 1791 2121 15056 15054 15051 15047 15060 15052 
2089 1791 2122 1792 15059 15054 15057 15061 13145 15062 
2122 1791 1825 1792 15054 13143 15055 15062 13145 13144 
1792 1825 2123 1826 13144 15063 15064 13153 13157 15065 
2089 2123 2090 1792 15066 15067 15068 15061 15064 15069 
1792 1825 2122 2123 13144 15055 15062 15064 15063 15070 
2089 2123 1792 2122 15066 15064 15061 15057 15070 15062 
2090 1792 2123 1793 15069 15064 15067 15071 13155 15072 
2123 1792 1826 1793 15064 13153 15065 15072 13155 13154 
1793 1826 2124 1827 13154 15073 15074 13163 13167 15075 
2090 2124 2091 1793 15076 15077 15078 15071 15074 15079 
1793 1826 2123 2124 13154 15065 15072 15074 15073 15080 
2090 2124 1793 2123 15076 15074 15071 15067 15080 15072 
2091 1793 2124 1794 15079 15074 15077 15081 13165 15082 
2124 1793 1827 1794 15074 13163 15075 15082 13165 13164 
1794 1827 2125 1828 13164 15083 15084 13173 13177 15085 
2091 2125 2092 1794 15086 15087 15088 15081 15084 15089 
1794 1827 2124 2125 13164 15075 15082 15084 15083 15090 
2091 2125 1794 2124 15086 15084 15081 15077 15090 15082 
2092 1794 2125 1795 15089 15084 15087 15091 13175 15092 
2125 1794 1828 1795 15084 13173 15085 15092 13175 13174 
1795 1828 2126 1829 13174 15093 15094 13183 13187 15095 
2092 2126 2093 1795 15096 15097 15098 15091 15094 15099 
1795 1828 2125 2126 13174 15085 15092 15094 15093 15100 
2092 2126 1795 2125 15096 15094 15091 15087 15100 15092 
2093 1795 2126 1796 15099 15094 15097 15101 13185 15102 
2126 1795 1829 1796 15094 13183 15095 15102 13185 13184 
1796 1829 2127 1830 13184 15103 15104 13193 13197 15105 
2093 2127 2094 1796 15106 15107 15108 15101 15104 15109 
1796 1829 2126 2127 13184 15095 15102 15104 15103 15110 
2093 2127 1796 2126 15106 15104 15101 15097 15110 15102 
2094 1796 2127 1797 15109 15104 15107 15111 13195 15112 
2127 1796 1830 1797 15104 13193 15105 15112 13195 13194 
1797 1830 2128 1831 13194 15113 15114 13203 13207 15115 
2094 2128 2095 1797 15116 15117 15118 15111 15114 15119 
1797 1830 2127 2128 13194 15105 15112 15114 15113 15120 
2094 2128 1797 2127 15116 15114 15111 15107 15120 15112 
2095 1797 2128 1798 15119 15114 15117 15121 13205 15122 
2128 1797 1831 1798 15114 13203 15115 15122 13205 13204 
1798 1831 2129 1832 13204 15123 15124 13213 13217 15125 
2095 2129 2096 1798 15126 15127 15128 15121 15124 15129 
1798 1831 2128 2129 13204 15115 15122 15124 15123 15130 
2095 2129 1798 2128 15126 15124 15121 15117 15130 15122 
2096 1798 2129 1799 15129 15124 15127 15131 13215 15132 
2129 1798 1832 1799 15124 13213 15125 15132 13215 13214 
1799 1832 2130 1833 13214 15133 15134 13223 13227 15135 
2096 2130 2097 1799 15136 15137 15138 15131 15134 15139 
1799 1832 2129 2130 13214 15125 15132 15134 15133 15140 
2096 2130 1799 2129 15136 15134 15131 15127 15140 15132 
2097 1799 2130 1800 15139 15134 15137 15141 13225 15142 
2130 1799 1833 1800 15134 13223 15135 15142 13225 13224 
1800 1833 2131 1834 13224 15143 15144 13233 13237 15145 
2097 2131 2098 1800 15146 15147 15148 15141 15144 15149 
1800 1833 2130 2131 13224 15135 15142 15144 15143 15150 
2097 2131 1800 2130 15146 15144 15141 15137 15150 15142 
2098 1800 2131 1801 15149 15144 15147 15151 13235 15152 
2131 1800 1834 1801 15144 13233 15145 15152 13235 13234 
1801 1834 2132 1835 13234 15153 15154 13243 13247 15155 
2098 2132 2099 1801 15156 15157 15158 15151 15154 15159 
1801 1834 2131 2132 13234 15145 15152 15154 15153 15160 
2098 2132 1801 2131 15156 15154 15151 15147 15160 15152 
2099 1801 2132 1802 15159 15154 15157 15161 13245 15162 
2132 1801 1835 1802 15154 13243 15155 15162 13245 13244 
1802 1835 2133 1836 13244 15163 15164 13253 13257 15165 
2099 2133 2100 1802 15166 15167 15168 15161 15164 15169 
1802 1835 2132 2133 13244 15155 15162 15164 15163 15170 
2099 2133 1802 2132 15166 15164 15161 15157 15170 15162 
2100 1802 2133 1803 15169 15164 15167 15171 13255 15172 
2133 1802 1836 1803 15164 13253 15165 15172 13255 13254 
1803 1836 2134 1837 13254 15173 15174 13263 13267 15175 
2100 2134 2101 1803 15176 15177 15178 15171 15174 15179 
1803 1836 2133 2134 13254 15165 15172 15174 15173 15180 
2100 2134 1803 2133 15176 15174 15171 15167 15180 15172 
2101 1803 2134 1804 15179 15174 15177 15181 13265 15182 
2134 1803 1837 1804 15174 13263 15175 15182 13265 13264 
1804 1837 2135 1838 13264 15183 15184 13273 13277 15185 
2101 2135 2102 1804 15186 15187 15188 15181 15184 15189 
1804 1837 2134 2135 13264 15175 15182 15184 15183 15190 
2101 2135 1804 2134 15186 15184 15181 15177 15190 15182 
2102 1804 2135 1805 15189 15184 15187 15191 13275 15192 
2135 1804 1838 1805 15184 13273 15185 15192 13275 13274 
1805 1838 2136 1839 13274 15193 15194 13283 13287 15195 
2102 2136 2103 1805 15196 15197 15198 15191 15194 15199 
1805 1838 2135 2136 13274 15185 15192 15194 15193 15200 
2102 2136 1805 2135 15196 15194 15191 15187 15200 15192 
2103 1805 2136 1806 15199 15194 15197 15201 13285 15202 
2136 1805 1839 1806 15194 13283 15195 15202 13285 13284 
1806 1839 2137 1840 13284 15203 15204 13293 13297 15205 
2103 2137 2104 1806 15206 15207 15208 15201 15204 15209 
1806 1839 2136 2137 13284 15195 15202 15204 15203 15210 
2103 2137 1806 2136 15206 15204 15201 15197 15210 15202 
2104 1806 2137 1807 15209 15204 15207 15211 13295 15212 
2137 1806 1840 1807 15204 13293 15205 15212 13295 13294 
1807 1840 2138 1841 13294 15213 15214 13303 13307 15215 
2104 2138 2105 1807 15216 15217 15218 15211 15214 15219 
1807 1840 2137 2138 13294 15205 15212 15214 15213 15220 
2104 2138 1807 2137 15216 15214 15211 15207 15220 15212 
2105 1807 2138 1808 15219 15214 15217 15221 13305 15222 
2138 1807 1841 1808 15214 13303 15215 15222 13305 13304 
1808 1841 2139 1842 13304 15223 15224 13313 13317 15225 
2105 2139 2106 1808 15226 15227 15228 15221 15224 15229 
1808 1841 2138 2139 13304 15215 15222 15224 15223 15230 
2105 2139 1808 2138 15226 15224 15221 15217 15230 15222 
2106 1808 2139 1809 15229 15224 15227 15231 13315 15232 
2139 1808 1842 1809 15224 13313 15225 15232 13315 13314 
1809 1842 2140 1843 13314 15233 15234 13323 13327 15235 
2106 2140 2107 1809 15236 15237 15238 15231 15234 15239 
1809 1842 2139 2140 13314 15225 15232 15234 15233 15240 
2106 2140 1809 2139 15236 15234 15231 15227 15240 15232 
2107 1809 2140 1810 15239 15234 15237 15241 13325 15242 
2140 1809 1843 1810 15234 13323 15235 15242 13325 13324 
1810 1843 2141 1844 13324 15243 15244 13333 13337 15245 
2107 2141 2108 1810 15246 15247 15248 15241 15244 15249 
1810 1843 2140 2141 13324 15235 15242 15244 15243 15250 
2107 2141 1810 2140 15246 15244 15241 15237 15250 15242 
2108 1810 2141 1811 15249 15244 15247 15251 13335 15252 
2141 1810 1844 1811 15244 13333 15245 15252 13335 13334 
1811 1844 2142 1845 13334 15253 15254 13343 13347 15255 
2108 2142 2109 1811 15256 15257 15258 15251 15254 15259 
1811 1844 2141 2142 13334 15245 15252 15254 15253 15260 
2108 2142 1811 2141 15256 15254 15251 15247 15260 15252 
2109 1811 2142 1812 15259 15254 15257 15261 13345 15262 
2142 1811 1845 1812 15254 13343 15255 15262 13345 13344 
1812 1845 2143 1846 13344 15263 15264 13353 13357 15265 
2109 2143 2110 1812 15266 15267 15268 15261 15264 15269 
1812 1845 2142 2143 13344 15255 15262 15264 15263 15270 
2109 2143 1812 2142 15266 15264 15261 15257 15270 15262 
2110 1812 2143 1813 15269 15264 15267 15271 13355 15272 
2143 1812 1846 1813 15264 13353 15265 15272 13355 13354 
1813 1846 2144 1847 13354 15273 15274 13363 13367 15275 
2110 2144 2111 1813 15276 15277 15278 15271 15274 15279 
1813 1846 2143 2144 13354 15265 15272 15274 15273 15280 
2110 2144 1813 2143 15276 15274 15271 15267 15280 15272 
2111 1813 2144 1814 15279 15274 15277 15281 13365 15282 
2144 1813 1847 1814 15274 13363 15275 15282 13365 13364 
1815 1848 2146 1849 13378 15283 15284 13373 13377 15285 
2112 2146 2113 1815 15286 15287 14969 14967 15284 14959 
1815 1848 2145 2146 13378 15288 15289 15284 15283 15290 
2112 2146 1815 2145 15286 15284 14967 15291 15290 15289 
2113 1815 2146 1816 14959 15284 15287 14961 13056 15292 
2146 1815 1849 1816 15284 13373 15285 15292 13056 13374 
1816 1849 2147 1850 13374 15293 15294 13383 13385 15295 
2113 2147 2114 1816 15296 15297 14980 14961 15294 14973 
1816 1849 2146 2147 13374 15285 15292 15294 15293 15298 
2113 2147 1816 2146 15296 15294 14961 15287 15298 15292 
2114 1816 2147 1817 14973 15294 15297 14975 13067 15299 
2147 1816 1850 1817 15294 13383 15295 15299 13067 13384 
1817 1850 2148 1851 13384 15300 15301 13390 13392 15302 
2114 2148 2115 1817 15303 15304 14990 14975 15301 14983 
1817 1850 2147 2148 13384 15295 15299 15301 15300 15305 
2114 2148 1817 2147 15303 15301 14975 15297 15305 15299 
2115 1817 2148 1818 14983 15301 15304 14985 13077 15306 
2148 1817 1851 1818 15301 13390 15302 15306 13077 13391 
1818 1851 2149 1852 13391 15307 15308 13397 13399 15309 
2115 2149 2116 1818 15310 15311 15000 14985 15308 14993 
1818 1851 2148 2149 13391 15302 15306 15308 15307 15312 
2115 2149 1818 2148 15310 15308 14985 15304 15312 15306 
2116 1818 2149 1819 14993 15308 15311 14995 13087 15313 
2149 1818 1852 1819 15308 13397 15309 15313 13087 13398 
1819 1852 2150 1853 13398 15314 15315 13404 13406 15316 
2116 2150 2117 1819 15317 15318 15010 14995 15315 15003 
1819 1852 2149 2150 13398 15309 15313 15315 15314 15319 
2116 2150 1819 2149 15317 15315 14995 15311 15319 15313 
2117 1819 2150 1820 15003 15315 15318 15005 13097 15320 
2150 1819 1853 1820 15315 13404 15316 15320 13097 13405 
1820 1853 2151 1854 13405 15321 15322 13411 13413 15323 
2117 2151 2118 1820 15324 15325 15020 15005 15322 15013 
1820 1853 2150 2151 13405 15316 15320 15322 15321 15326 
2117 2151 1820 2150 15324 15322 15005 15318 15326 15320 
2118 1820 2151 1821 15013 15322 15325 15015 13107 15327 
2151 1820 1854 1821 15322 13411 15323 15327 13107 13412 
1821 1854 2152 1855 13412 15328 15329 13418 13420 15330 
2118 2152 2119 1821 15331 15332 15030 15015 15329 15023 
1821 1854 2151 2152 13412 15323 15327 15329 15328 15333 
2118 2152 1821 2151 15331 15329 15015 15325 15333 15327 
2119 1821 2152 1822 15023 15329 15332 15025 13117 15334 
2152 1821 1855 1822 15329 13418 15330 15334 13117 13419 
1822 1855 2153 1856 13419 15335 15336 13425 13427 15337 
2119 2153 2120 1822 15338 15339 15040 15025 15336 15033 
1822 1855 2152 2153 13419 15330 15334 15336 15335 15340 
2119 2153 1822 2152 15338 15336 15025 15332 15340 15334 
2120 1822 2153 1823 15033 15336 15339 15035 13127 15341 
2153 1822 1856 1823 15336 13425 15337 15341 13127 13426 
1823 1856 2154 1857 13426 15342 15343 13432 13434 15344 
2120 2154 2121 1823 15345 15346 15050 15035 15343 15043 
1823 1856 2153 2154 13426 15337 15341 15343 15342 15347 
2120 2154 1823 2153 15345 15343 15035 15339 15347 15341 
2121 1823 2154 1824 15043 15343 15346 15045 13137 15348 
2154 1823 1857 1824 15343 13432 15344 15348 13137 13433 
1824 1857 2155 1858 13433 15349 15350 13439 13441 15351 
2121 2155 2122 1824 15352 15353 15060 15045 15350 15053 
1824 1857 2154 2155 13433 15344 15348 15350 15349 15354 
2121 2155 1824 2154 15352 15350 15045 15346 15354 15348 
2122 1824 2155 1825 15053 15350 15353 15055 13147 15355 
2155 1824 1858 1825 15350 13439 15351 15355 13147 13440 
1825 1858 2156 1859 13440 15356 15357 13446 13448 15358 
2122 2156 2123 1825 15359 15360 15070 15055 15357 15063 
1825 1858 2155 2156 13440 15351 15355 15357 15356 15361 
2122 2156 1825 2155 15359 15357 15055 15353 15361 15355 
2123 1825 2156 1826 15063 15357 15360 15065 13157 15362 
2156 1825 1859 1826 15357 13446 15358 15362 13157 13447 
1826 1859 2157 1860 13447 15363 15364 13453 13455 15365 
2123 2157 2124 1826 15366 15367 15080 15065 15364 15073 
1826 1859 2156 2157 13447 15358 15362 15364 15363 15368 
2123 2157 1826 2156 15366 15364 15065 15360 15368 15362 
2124 1826 2157 1827 15073 15364 15367 15075 13167 15369 
2157 1826 1860 1827 15364 13453 15365 15369 13167 13454 
1827 1860 2158 1861 13454 15370 15371 13460 13462 15372 
2124 2158 2125 1827 15373 15374 15090 15075 15371 15083 
1827 1860 2157 2158 13454 15365 15369 15371 15370 15375 
2124 2158 1827 2157 15373 15371 15075 15367 15375 15369 
2125 1827 2158 1828 15083 15371 15374 15085 13177 15376 
2158 1827 1861 1828 15371 13460 15372 15376 13177 13461 
1828 1861 2159 1862 13461 15377 15378 13467 13469 15379 
2125 2159 2126 1828 15380 15381 15100 15085 15378 15093 
1828 1861 2158 2159 13461 15372 15376 15378 15377 15382 
2125 2159 1828 2158 15380 15378 15085 15374 15382 15376 
2126 1828 2159 1829 15093 15378 15381 15095 13187 15383 
2159 1828 1862 1829 15378 13467 15379 15383 13187 13468 
1829 1862 2160 1863 13468 15384 15385 13474 13476 15386 
2126 2160 2127 1829 15387 15388 15110 15095 15385 15103 
1829 1862 2159 2160 13468 15379 15383 15385 15384 15389 
2126 2160 1829 2159 15387 15385 15095 15381 15389 15383 
2127 1829 2160 1830 15103 15385 15388 15105 13197 15390 
2160 1829 1863 1830 15385 13474 15386 15390 13197 13475 
1830 1863 2161 1864 13475 15391 15392 13481 13483 15393 
2127 2161 2128 1830 15394 15395 15120 15105 15392 15113 
1830 1863 2160 2161 13475 15386 15390 15392 15391 15396 
2127 2161 1830 2160 15394 15392 15105 15388 15396 15390 
2128 1830 2161 1831 15113 15392 15395 15115 13207 15397 
2161 1830 1864 1831 15392 13481 15393 15397 13207 13482 
1831 1864 2162 1865 13482 15398 15399 13488 13490 15400 
2128 2162 2129 1831 15401 15402 15130 15115 15399 15123 
1831 1864 2161 2162 13482 15393 15397 15399 15398 15403 
2128 2162 1831 2161 15401 15399 15115 15395 15403 15397 
2129 1831 2162 1832 15123 15399 15402 15125 13217 15404 
2162 1831 1865 1832 15399 13488 15400 15404 13217 13489 
1832 1865 2163 1866 13489 15405 15406 13495 13497 15407 
2129 2163 2130 1832 15408 15409 15140 15125 15406 15133 
1832 1865 2162 2163 13489 15400 15404 15406 15405 15410 
2129 2163 1832 2162 15408 15406 15125 15402 15410 15404 
2130 1832 2163 1833 15133 15406 15409 15135 13227 15411 
2163 1832 1866 1833 15406 13495 15407 15411 13227 13496 
1833 1866 2164 1867 13496 15412 15413 13502 13504 15414 
2130 2164 2131 1833 15415 15416 15150 15135 15413 15143 
1833 1866 2163 2164 13496 15407 15411 15413 15412 15417 
2130 2164 1833 2163 15415 15413 15135 15409 15417 15411 
2131 1833 2164 1834 15143 15413 15416 15145 13237 15418 
2164 1833 1867 1834 15413 13502 15414 15418 13237 13503 
1834 1867 2165 1868 13503 15419 15420 13509 13511 15421 
2131 2165 2132 1834 15422 15423 15160 15145 15420 15153 
1834 1867 2164 2165 13503 15414 15418 15420 15419 15424 
2131 2165 1834 2164 15422 15420 15145 15416 15424 15418 
2132 1834 2165 1835 15153 15420 15423 15155 13247 15425 
2165 1834 1868 1835 15420 13509 15421 15425 13247 13510 
1835 1868 2166 1869 13510 15426 15427 13516 13518 15428 
2132 2166 2133 1835 15429 15430 15170 15155 15427 15163 
1835 1868 2165 2166 13510 15421 15425 15427 15426 15431 
2132 2166 1835 2165 15429 15427 15155 15423 15431 15425 
2133 1835 2166 1836 15163 15427 15430 15165 13257 15432 
2166 1835 1869 1836 15427 13516 15428 15432 13257 13517 
1836 1869 2167 1870 13517 15433 15434 13523 13525 15435 
2133 2167 2134 1836 15436 15437 15180 15165 15434 15173 
1836 1869 2166 2167 13517 15428 15432 15434 15433 15438 
2133 2167 1836 2166 15436 15434 15165 15430 15438 15432 
2134 1836 2167 1837 15173 15434 15437 15175 13267 15439 
2167 1836 1870 1837 15434 13523 15435 15439 13267 13524 
1837 1870 2168 1871 13524 15440 15441 13530 13532 15442 
2134 2168 2135 1837 15443 15444 15190 15175 15441 15183 
1837 1870 2167 2168 13524 15435 15439 15441 15440 15445 
2134 2168 1837 2167 15443 15441 15175 15437 15445 15439 
2135 1837 2168 1838 15183 15441 15444 15185 13277 15446 
2168 1837 1871 1838 15441 13530 15442 15446 13277 13531 
1838 1871 2169 1872 13531 15447 15448 13537 13539 15449 
2135 2169 2136 1838 15450 15451 15200 15185 15448 15193 
1838 1871 2168 2169 13531 15442 15446 15448 15447 15452 
2135 2169 1838 2168 15450 15448 15185 15444 15452 15446 
2136 1838 2169 1839 15193 15448 15451 15195 13287 15453 
2169 1838 1872 1839 15448 13537 15449 15453 13287 13538 
1839 1872 2170 1873 13538 15454 15455 13544 13546 15456 
2136 2170 2137 1839 15457 15458 15210 15195 15455 15203 
1839 1872 2169 2170 13538 15449 15453 15455 15454 15459 
2136 2170 1839 2169 15457 15455 15195 15451 15459 15453 
2137 1839 2170 1840 15203 15455 15458 15205 13297 15460 
2170 1839 1873 1840 15455 13544 15456 15460 13297 13545 
1840 1873 2171 1874 13545 15461 15462 13551 13553 15463 
2137 2171 2138 1840 15464 15465 15220 15205 15462 15213 
1840 1873 2170 2171 13545 15456 15460 15462 15461 15466 
2137 2171 1840 2170 15464 15462 15205 15458 15466 15460 
2138 1840 2171 1841 15213 15462 15465 15215 13307 15467 
2171 1840 1874 1841 15462 13551 15463 15467 13307 13552 
1841 1874 2172 1875 13552 15468 15469 13558 13560 15470 
2138 2172 2139 1841 15471 15472 15230 15215 15469 15223 
1841 1874 2171 2172 13552 15463 15467 15469 15468 15473 
2138 2172 1841 2171 15471 15469 15215 15465 15473 15467 
2139 1841 2172 1842 15223 15469 15472 15225 13317 15474 
2172 1841 1875 1842 15469 13558 15470 15474 13317 13559 
1842 1875 2173 1876 13559 15475 15476 13565 13567 15477 
2139 2173 2140 1842 15478 15479 15240 15225 15476 15233 
1842 1875 2172 2173 13559 15470 15474 15476 15475 15480 
2139 2173 1842 2172 15478 15476 15225 15472 15480 15474 
2140 1842 2173 1843 15233 15476 15479 15235 13327 15481 
2173 1842 1876 1843 15476 13565 15477 15481 13327 13566 
1843 1876 2174 1877 13566 15482 15483 13572 13574 15484 
2140 2174 2141 1843 15485 15486 15250 15235 15483 15243 
1843 1876 2173 2174 13566 15477 15481 15483 15482 15487 
2140 2174 1843 2173 15485 15483 15235 15479 15487 15481 
2141 1843 2174 1844 15243 15483 15486 15245 13337 15488 
2174 1843 1877 1844 15483 13572 15484 15488 13337 13573 
1844 1877 2175 1878 13573 15489 15490 13579 13581 15491 
2141 2175 2142 1844 15492 15493 15260 15245 15490 15253 
1844 1877 2174 2175 13573 15484 15488 15490 15489 15494 
2141 2175 1844 2174 15492 15490 15245 15486 15494 15488 
2142 1844 2175 1845 15253 15490 15493 15255 13347 15495 
2175 1844 1878 1845 15490 13579 15491 15495 13347 13580 
1845 1878 2176 1879 13580 15496 15497 13586 13588 15498 
2142 2176 2143 1845 15499 15500 15270 15255 15497 15263 
1845 1878 2175 2176 13580 15491 15495 15497 15496 15501 
2142 2176 1845 2175 15499 15497 15255 15493 15501 15495 
2143 1845 2176 1846 15263 15497 15500 15265 13357 15502 
2176 1845 1879 1846 15497 13586 15498 15502 13357 13587 
1846 1879 2177 1880 13587 15503 15504 13593 13595 15505 
2143 2177 2144 1846 15506 15507 15280 15265 15504 15273 
1846 1879 2176 2177 13587 15498 15502 15504 15503 15508 
2143 2177 1846 2176 15506 15504 15265 15500 15508 15502 
2144 1846 2177 1847 15273 15504 15507 15275 13367 15509 
2177 1846 1880 1847 15504 13593 15505 15509 13367 13594 
1848 1881 2179 1882 13605 15510 15511 13600 13604 15512 
2145 2179 2146 1848 15513 15514 15290 15288 15511 15283 
1848 1881 2178 2179 13605 15515 15516 15511 15510 15517 
2145 2179 1848 2178 15513 15511 15288 15518 15517 15516 
2146 1848 2179 1849 15283 15511 15514 15285 13377 15519 
2179 1848 1882 1849 15511 13600 15512 15519 13377 13601 
1849 1882 2180 1883 13601 15520 15521 13610 13612 15522 
2146 2180 2147 1849 15523 15524 15298 15285 15521 15293 
1849 1882 2179 2180 13601 15512 15519 15521 15520 15525 
2146 2180 1849 2179 15523 15521 15285 15514 15525 15519 
2147 1849 2180 1850 15293 15521 15524 15295 13385 15526 
2180 1849 1883 1850 15521 13610 15522 15526 13385 13611 
1850 1883 2181 1884 13611 15527 15528 13617 13619 15529 
2147 2181 2148 1850 15530 15531 15305 15295 15528 15300 
1850 1883 2180 2181 13611 15522 15526 15528 15527 15532 
2147 2181 1850 2180 15530 15528 15295 15524 15532 15526 
2148 1850 2181 1851 15300 15528 15531 15302 13392 15533 
2181 1850 1884 1851 15528 13617 15529 15533 13392 13618 
1851 1884 2182 1885 13618 15534 15535 13624 13626 15536 
2148 2182 2149 1851 15537 15538 15312 15302 15535 15307 
1851 1884 2181 2182 13618 15529 15533 15535 15534 15539 
2148 2182 1851 2181 15537 15535 15302 15531 15539 15533 
2149 1851 2182 1852 15307 15535 15538 15309 13399 15540 
2182 1851 1885 1852 15535 13624 15536 15540 13399 13625 
1852 1885 2183 1886 13625 15541 15542 13631 13633 15543 
2149 2183 2150 1852 15544 15545 15319 15309 15542 15314 
1852 1885 2182 2183 13625 15536 15540 15542 15541 15546 
2149 2183 1852 2182 15544 15542 15309 15538 15546 15540 
2150 1852 2183 1853 15314 15542 15545 15316 13406 15547 
2183 1852 1886 1853 15542 13631 15543 15547 13406 13632 
1853 1886 2184 1887 13632 15548 15549 13638 13640 15550 
2150 2184 2151 1853 15551 15552 15326 15316 15549 15321 
1853 1886 2183 2184 13632 15543 15547 15549 15548 15553 
2150 2184 1853 2183 15551 15549 15316 15545 15553 15547 
2151 1853 2184 1854 15321 15549 15552 15323 13413 15554 
2184 1853 1887 1854 15549 13638 15550 15554 13413 13639 
1854 1887 2185 1888 13639 15555 15556 13645 13647 15557 
2151 2185 2152 1854 15558 15559 15333 15323 15556 15328 
1854 1887 2184 2185 13639 15550 15554 15556 15555 15560 
2151 2185 1854 2184 15558 15556 15323 15552 15560 15554 
2152 1854 2185 1855 15328 15556 15559 15330 13420 15561 
2185 1854 1888 1855 15556 13645 15557 15561 13420 13646 
1855 1888 2186 1889 13646 15562 15563 13652 13654 15564 
2152 2186 2153 1855 15565 15566 15340 15330 15563 15335 
1855 1888 2185 2186 13646 15557 15561 15563 15562 15567 
2152 2186 1855 2185 15565 15563 15330 15559 15567 15561 
2153 1855 2186 1856 15335 15563 15566 15337 13427 15568 
2186 1855 1889 1856 15563 13652 15564 15568 13427 13653 
1856 1889 2187 1890 13653 15569 15570 13659 13661 15571 
2153 2187 2154 1856 15572 15573 15347 15337 15570 15342 
1856 1889 2186 2187 13653 15564 15568 15570 15569 15574 
2153 2187 1856 2186 15572 15570 15337 15566 15574 15568 
2154 1856 2187 1857 15342 15570 15573 15344 13434 15575 
2187 1856 1890 1857 15570 13659 15571 15575 13434 13660 
1857 1890 2188 1891 13660 15576 15577 13666 13668 15578 
2154 2188 2155 1857 15579 15580 15354 15344 15577 15349 
1857 1890 2187 2188 13660 15571 15575 15577 15576 15581 
2154 2188 1857 2187 15579 15577 15344 15573 15581 15575 
2155 1857 2188 1858 15349 15577 15580 15351 13441 15582 
2188 1857 1891 1858 15577 13666 15578 15582 13441 13667 
1858 1891 2189 1892 13667 15583 15584 13673 13675 15585 
2155 2189 2156 1858 15586 15587 15361 15351 15584 15356 
1858 1891 2188 2189 13667 15578 15582 15584 15583 15588 
2155 2189 1858 2188 15586 15584 15351 15580 15588 15582 
2156 1858 2189 1859 15356 15584 15587 15358 13448 15589 
2189 1858 1892 1859 15584 13673 15585 15589 13448 13674 
1859 1892 2190 1893 13674 15590 15591 13680 13682 15592 
2156 2190 2157 1859 15593 15594 15368 15358 15591 15363 
1859 1892 2189 2190 13674 15585 15589 15591 15590 15595 
2156 2190 1859 2189 15593 15591 15358 15587 15595 15589 
2157 1859 2190 1860 15363 15591 15594 15365 13455 15596 
2190 1859 1893 1860 15591 13680 15592 15596 13455 13681 
1860 1893 2191 1894 13681 15597 15598 13687 13689 15599 
2157 2191 2158 1860 15600 15601 15375 15365 15598 15370 
1860 1893 2190 2191 13681 15592 15596 15598 15597 15602 
2157 2191 1860 2190 15600 15598 15365 15594 15602 15596 
2158 1860 2191 1861 15370 15598 15601 15372 13462 15603 
2191 1860 1894 1861 15598 13687 15599 15603 13462 13688 
1861 1894 2192 1895 13688 15604 15605 13694 13696 15606 
2158 2192 2159 1861 15607 15608 15382 15372 15605 15377 
1861 1894 2191 2192 13688 15599 15603 15605 15604 15609 
2158 2192 1861 2191 15607 15605 15372 15601 15609 15603 
2159 1861 2192 1862 15377 15605 15608 15379 13469 15610 
2192 1861 1895 1862 15605 13694 15606 15610 13469 13695 
1862 1895 2193 1896 13695 15611 15612 13701 13703 15613 
2159 2193 2160 1862 15614 15615 15389 15379 15612 15384 
1862 1895 2192 2193 13695 15606 15610 15612 15611 15616 
2159 2193 1862 2192 15614 15612 15379 15608 15616 15610 
2160 1862 2193 1863 15384 15612 15615 15386 13476 15617 
2193 1862 1896 1863 15612 13701 15613 15617 13476 13702 
1863 1896 2194 1897 13702 15618 15619 13708 13710 15620 
2160 2194 2161 1863 15621 15622 15396 15386 15619 15391 
1863 1896 2193 2194 13702 15613 15617 15619 15618 15623 
2160 2194 1863 2193 15621 15619 15386 15615 15623 15617 
2161 1863 2194 1864 15391 15619 15622 15393 13483 15624 
2194 1863 1897 1864 15619 13708 15620 15624 13483 13709 
1864 1897 2195 1898 13709 15625 15626 13715 13717 15627 
2161 2195 2162 1864 15628 15629 15403 15393 15626 15398 
1864 1897 2194 2195 13709 15620 15624 15626 15625 15630 
2161 2195 1864 2194 15628 15626 15393 15622 15630 15624 
2162 1864 2195 1865 15398 15626 15629 15400 13490 15631 
2195 1864 1898 1865 15626 13715 15627 15631 13490 13716 
1865 1898 2196 1899 13716 15632 15633 13722 13724 15634 
2162 2196 2163 1865 15635 15636 15410 15400 15633 15405 
1865 1898 2195 2196 13716 15627 15631 15633 15632 15637 
2162 2196 1865 2195 15635 15633 15400 15629 15637 15631 
2163 1865 2196 1866 15405 15633 15636 15407 13497 15638 
2196 1865 1899 1866 15633 13722 15634 15638 13497 13723 
1866 1899 2197 1900 13723 15639 15640 13729 13731 15641 
2163 2197 2164 1866 15642 15643 15417 15407 15640 15412 
1866 1899 2196 2197 13723 15634 15638 15640 15639 15644 
2163 2197 1866 2196 15642 15640 15407 15636 15644 15638 
2164 1866 2197 1867 15412 15640 15643 15414 13504 15645 
2197 1866 1900 1867 15640 13729 15641 15645 13504 13730 
1867 1900 2198 1901 13730 15646 15647 13736 13738 15648 
2164 2198 2165 1867 15649 15650 15424 15414 15647 15419 
1867 1900 2197 2198 13730 15641 15645 15647 15646 15651 
2164 2198 1867 2197 15649 15647 15414 15643 15651 15645 
2165 1867 2198 1868 15419 15647 15650 15421 13511 15652 
2198 1867 1901 1868 15647 13736 15648 15652 13511 13737 
1868 1901 2199 1902 13737 15653 15654 13743 13745 15655 
2165 2199 2166 1868 15656 15657 15431 15421 15654 15426 
1868 1901 2198 2199 13737 15648 15652 15654 15653 15658 
2165 2199 1868 2198 15656 15654 15421 15650 15658 15652 
2166 1868 2199 1869 15426 15654 15657 15428 13518 15659 
2199 1868 1902 1869 15654 13743 15655 15659 13518 13744 
1869 1902 2200 1903 13744 15660 15661 13750 13752 15662 
2166 2200 2167 1869 15663 15664 15438 15428 15661 15433 
1869 1902 2199 2200 13744 15655 15659 15661 15660 15665 
2166 2200 1869 2199 15663 15661 15428 15657 15665 15659 
2167 1869 2200 1870 15433 15661 15664 15435 13525 15666 
2200 1869 1903 1870 15661 13750 15662 15666 13525 13751 
1870 1903 2201 1904 13751 15667 15668 13757 13759 15669 
2167 2201 2168 1870 15670 15671 15445 15435 15668 15440 
1870 1903 2200 2201 13751 15662 15666 15668 15667 15672 
2167 2201 1870 2200 15670 15668 15435 15664 15672 15666 
2168 1870 2201 1871 15440 15668 15671 15442 13532 15673 
2201 1870 1904 1871 15668 13757 15669 15673 13532 13758 
1871 1904 2202 1905 13758 15674 15675 13764 13766 15676 
2168 2202 2169 1871 15677 15678 15452 15442 15675 15447 
1871 1904 2201 2202 13758 15669 15673 15675 15674 15679 
2168 2202 1871 2201 15677 15675 15442 15671 15679 15673 
2169 1871 2202 1872 15447 15675 15678 15449 13539 15680 
2202 1871 1905 1872 15675 13764 15676 15680 13539 13765 
1872 1905 2203 1906 13765 15681 15682 13771 13773 15683 
2169 2203 2170 1872 15684 15685 15459 15449 15682 15454 
1872 1905 2202 2203 13765 15676 15680 15682 15681 15686 
2169 2203 1872 2202 15684 15682 15449 15678 15686 15680 
2170 1872 2203 1873 15454 15682 15685 15456 13546 15687 
2203 1872 1906 1873 15682 13771 15683 15687 13546 13772 
1873 1906 2204 1907 13772 15688 15689 13778 13780 15690 
2170 2204 2171 1873 15691 15692 15466 15456 15689 15461 
1873 1906 2203 2204 13772 15683 15687 15689 15688 15693 
2170 2204 1873 2203 15691 15689 15456 15685 15693 15687 
2171 1873 2204 1874 15461 15689 15692 15463 13553 15694 
2204 1873 1907 1874 15689 13778 15690 15694 13553 13779 
1874 1907 2205 1908 13779 15695 15696 13785 13787 15697 
2171 2205 2172 1874 15698 15699 15473 15463 15696 15468 
1874 1907 2204 2205 13779 15690 15694 15696 15695 15700 
2171 2205 1874 2204 15698 15696 15463 15692 15700 15694 
2172 1874 2205 1875 15468 15696 15699 15470 13560 15701 
2205 1874 1908 1875 15696 13785 15697 15701 13560 13786 
1875 1908 2206 1909 13786 15702 15703 13792 13794 15704 
2172 2206 2173 1875 15705 15706 15480 15470 15703 15475 
1875 1908 2205 2206 13786 15697 15701 15703 15702 15707 
2172 2206 1875 2205 15705 15703 15470 15699 15707 15701 
2173 1875 2206 1876 15475 15703 15706 15477 13567 15708 
2206 1875 1909 1876 15703 13792 15704 15708 13567 13793 
1876 1909 2207 1910 13793 15709 15710 13799 13801 15711 
2173 2207 2174 1876 15712 15713 15487 15477 15710 15482 
1876 1909 2206 2207 13793 15704 15708 15710 15709 15714 
2173 2207 1876 2206 15712 15710 15477 15706 15714 15708 
2174 1876 2207 1877 15482 15710 15713 15484 13574 15715 
2207 1876 1910 1877 15710 13799 15711 15715 13574 13800 
1877 1910 2208 1911 13800 15716 15717 13806 13808 15718 
2174 2208 2175 1877 15719 15720 15494 15484 15717 15489 
1877 1910 2207 2208 13800 15711 15715 15717 15716 15721 
2174 2208 1877 2207 15719 15717 15484 15713 15721 15715 
2175 1877 2208 1878 15489 15717 15720 15491 13581 15722 
2208 1877 1911 1878 15717 13806 15718 15722 13581 13807 
1878 1911 2209 1912 13807 15723 15724 13813 13815 15725 
2175 2209 2176 1878 15726 15727 15501 15491 15724 15496 
1878 1911 2208 2209 13807 15718 15722 15724 15723 15728 
2175 2209 1878 2208 15726 15724 15491 15720 15728 15722 
2176 1878 2209 1879 15496 15724 15727 15498 13588 15729 
2209 1878 1912 1879 15724 13813 15725 15729 13588 13814 
1879 1912 2210 1913 13814 15730 15731 13820 13822 15732 
2176 2210 2177 1879 15733 15734 15508 15498 15731 15503 
1879 1912 2209 2210 13814 15725 15729 15731 15730 15735 
2176 2210 1879 2209 15733 15731 15498 15727 15735 15729 
2177 1879 2210 1880 15503 15731 15734 15505 13595 15736 
2210 1879 1913 1880 15731 13820 15732 15736 13595 13821 
1881 1914 2212 1915 13832 15737 15738 13827 13831 15739 
2178 2212 2179 1881 15740 15741 15517 15515 15738 15510 
1881 1914 2211 2212 13832 15742 15743 15738 15737 15744 
2178 2212 1881 2211 15740 15738 15515 15745 15744 15743 
2179 1881 2212 1882 15510 15738 15741 15512 13604 15746 
2212 1881 1915 1882 15738 13827 15739 15746 13604 13828 
1882 1915 2213 1916 13828 15747 15748 13837 13839 15749 
2179 2213 2180 1882 15750 15751 15525 15512 15748 15520 
1882 1915 2212 2213 13828 15739 15746 15748 15747 15752 
2179 2213 1882 2212 15750 15748 15512 15741 15752 15746 
2180 1882 2213 1883 15520 15748 15751 15522 13612 15753 
2213 1882 1916 1883 15748 13837 15749 15753 13612 13838 
1883 1916 2214 1917 13838 15754 15755 13844 13846 15756 
2180 2214 2181 1883 15757 15758 15532 15522 15755 15527 
1883 1916 2213 2214 13838 15749 15753 15755 15754 15759 
2180 2214 1883 2213 15757 15755 15522 15751 15759 15753 
2181 1883 2214 1884 15527 15755 15758 15529 13619 15760 
2214 1883 1917 1884 15755 13844 15756 15760 13619 13845 
1884 1917 2215 1918 13845 15761 15762 13851 13853 15763 
2181 2215 2182 1884 15764 15765 15539 15529 15762 15534 
1884 1917 2214 2215 13845 15756 15760 15762 15761 15766 
2181 2215 1884 2214 15764 15762 15529 15758 15766 15760 
2182 1884 2215 1885 15534 15762 15765 15536 13626 15767 
2215 1884 1918 1885 15762 13851 15763 15767 13626 13852 
1885 1918 2216 1919 13852 15768 15769 13858 13860 15770 
2182 2216 2183 1885 15771 15772 15546 15536 15769 15541 
1885 1918 2215 2216 13852 15763 15767 15769 15768 15773 
2182 2216 1885 2215 15771 15769 15536 15765 15773 15767 
2183 1885 2216 1886 15541 15769 15772 15543 13633 15774 
2216 1885 1919 1886 15769 13858 15770 15774 13633 13859 
1886 1919 2217 1920 13859 15775 15776 13865 13867 15777 
2183 2217 2184 1886 15778 15779 15553 15543 15776 15548 
1886 1919 2216 2217 13859 15770 15774 15776 15775 15780 
2183 2217 1886 2216 15778 15776 15543 15772 15780 15774 
2184 1886 2217 1887 15548 15776 15779 15550 13640 15781 
2217 1886 1920 1887 15776 13865 15777 15781 13640 13866 
1887 1920 2218 1921 13866 15782 15783 13872 13874 15784 
2184 2218 2185 1887 15785 15786 15560 15550 15783 15555 
1887 1920 2217 2218 13866 15777 15781 15783 15782 15787 
2184 2218 1887 2217 15785 15783 15550 15779 15787 15781 
2185 1887 2218 1888 15555 15783 15786 15557 13647 15788 
2218 1887 1921 1888 15783 13872 15784 15788 13647 13873 
1888 1921 2219 1922 13873 15789 15790 13879 13881 15791 
2185 2219 2186 1888 15792 15793 15567 15557 15790 15562 
1888 1921 2218 2219 13873 15784 15788 15790 15789 15794 
2185 2219 1888 2218 15792 15790 15557 15786 15794 15788 
2186 1888 2219 1889 15562 15790 15793 15564 13654 15795 
2219 1888 1922 1889 15790 13879 15791 15795 13654 13880 
1889 1922 2220 1923 13880 15796 15797 13886 13888 15798 
2186 2220 2187 1889 15799 15800 15574 15564 15797 15569 
1889 1922 2219 2220 13880 15791 15795 15797 15796 15801 
2186 2220 1889 2219 15799 15797 15564 15793 15801 15795 
2187 1889 2220 1890 15569 15797 15800 15571 13661 15802 
2220 1889 1923 1890 15797 13886 15798 15802 13661 13887 
1890 1923 2221 1924 13887 15803 15804 13893 13895 15805 
2187 2221 2188 1890 15806 15807 15581 15571 15804 15576 
1890 1923 2220 2221 13887 15798 15802 15804 15803 15808 
2187 2221 1890 2220 15806 15804 15571 15800 15808 15802 
2188 1890 2221 1891 15576 15804 15807 15578 13668 15809 
2221 1890 1924 1891 15804 13893 15805 15809 13668 13894 
1891 1924 2222 1925 13894 15810 15811 13900 13902 15812 
2188 2222 2189 1891 15813 15814 15588 15578 15811 15583 
1891 1924 2221 2222 13894 15805 15809 15811 15810 15815 
2188 2222 1891 2221 15813 15811 15578 15807 15815 15809 
2189 1891 2222 1892 15583 15811 15814 15585 13675 15816 
2222 1891 1925 1892 15811 13900 15812 15816 13675 13901 
1892 1925 2223 1926 13901 15817 15818 13907 13909 15819 
2189 2223 2190 1892 15820 15821 15595 15585 15818 15590 
1892 1925 2222 2223 13901 15812 15816 15818 15817 15822 
2189 2223 1892 2222 15820 15818 15585 15814 15822 15816 
2190 1892 2223 1893 15590 15818 15821 15592 13682 15823 
2223 1892 1926 1893 15818 13907 15819 15823 13682 13908 
1893 1926 2224 1927 13908 15824 15825 13914 13916 15826 
2190 2224 2191 1893 15827 15828 15602 15592 15825 15597 
1893 1926 2223 2224 13908 15819 15823 15825 15824 15829 
2190 2224 1893 2223 15827 15825 15592 15821 15829 15823 
2191 1893 2224 1894 15597 15825 15828 15599 13689 15830 
2224 1893 1927 1894 15825 13914 15826 15830 13689 13915 
1894 1927 2225 1928 13915 15831 15832 13921 13923 15833 
2191 2225 2192 1894 15834 15835 15609 15599 15832 15604 
1894 1927 2224 2225 13915 15826 15830 15832 15831 15836 
2191 2225 1894 2224 15834 15832 15599 15828 15836 15830 
2192 1894 2225 1895 15604 15832 15835 15606 13696 15837 
2225 1894 1928 1895 15832 13921 15833 15837 13696 13922 
1895 1928 2226 1929 13922 15838 15839 13928 13930 15840 
2192 2226 2193 1895 15841 15842 15616 15606 15839 15611 
1895 1928 2225 2226 13922 15833 15837 15839 15838 15843 
2192 2226 1895 2225 15841 15839 15606 15835 15843 15837 
2193 1895 2226 1896 15611 15839 15842 15613 13703 15844 
2226 1895 1929 1896 15839 13928 15840 15844 13703 13929 
1896 1929 2227 1930 13929 15845 15846 13935 13937 15847 
2193 2227 2194 1896 15848 15849 15623 15613 15846 15618 
1896 1929 2226 2227 13929 15840 15844 15846 15845 15850 
2193 2227 1896 2226 15848 15846 15613 15842 15850 15844 
2194 1896 2227 1897 15618 15846 15849 15620 13710 15851 
2227 1896 1930 1897 15846 13935 15847 15851 13710 13936 
1897 1930 2228 1931 13936 15852 15853 13942 13944 15854 
2194 2228 2195 1897 15855 15856 15630 15620 15853 15625 
1897 1930 2227 2228 13936 15847 15851 15853 15852 15857 
2194 2228 1897 2227 15855 15853 15620 15849 15857 15851 
2195 1897 2228 1898 15625 15853 15856 15627 13717 15858 
2228 1897 1931 1898 15853 13942 15854 15858 13717 13943 
1898 1931 2229 1932 13943 15859 15860 13949 13951 15861 
2195 2229 2196 1898 15862 15863 15637 15627 15860 15632 
1898 1931 2228 2229 13943 15854 15858 15860 15859 15864 
2195 2229 1898 2228 15862 15860 15627 15856 15864 15858 
2196 1898 2229 1899 15632 15860 15863 15634 13724 15865 
2229 1898 1932 1899 15860 13949 15861 15865 13724 13950 
1899 1932 2230 1933 13950 15866 15867 13956 13958 15868 
2196 2230 2197 1899 15869 15870 15644 15634 15867 15639 
1899 1932 2229 2230 13950 15861 15865 15867 15866 15871 
2196 2230 1899 2229 15869 15867 15634 15863 15871 15865 
2197 1899 2230 1900 15639 15867 15870 15641 13731 15872 
2230 1899 1933 1900 15867 13956 15868 15872 13731 13957 
1900 1933 2231 1934 13957 15873 15874 13963 13965 15875 
2197 2231 2198 1900 15876 15877 15651 15641 15874 15646 
1900 1933 2230 2231 13957 15868 15872 15874 15873 15878 
2197 2231 1900 2230 15876 15874 15641 15870 15878 15872 
2198 1900 2231 1901 15646 15874 15877 15648 13738 15879 
2231 1900 1934 1901 15874 13963 15875 15879 13738 13964 
1901 1934 2232 1935 13964 15880 15881 13970 13972 15882 
2198 2232 2199 1901 15883 15884 15658 15648 15881 15653 
1901 1934 2231 2232 13964 15875 15879 15881 15880 15885 
2198 2232 1901 2231 15883 15881 15648 15877 15885 15879 
2199 1901 2232 1902 15653 15881 15884 15655 13745 15886 
2232 1901 1935 1902 15881 13970 15882 15886 13745 13971 
1902 1935 2233 1936 13971 15887 15888 13977 13979 15889 
2199 2233 2200 1902 15890 15891 15665 15655 15888 15660 
1902 1935 2232 2233 13971 15882 15886 15888 15887 15892 
2199 2233 1902 2232 15890 15888 15655 15884 15892 15886 
2200 1902 2233 1903 15660 15888 15891 15662 13752 15893 
2233 1902 1936 1903 15888 13977 15889 15893 13752 13978 
1903 1936 2234 1937 13978 15894 15895 13984 13986 15896 
2200 2234 2201 1903 15897 15898 15672 15662 15895 15667 
1903 1936 2233 2234 13978 15889 15893 15895 15894 15899 
2200 2234 1903 2233 15897 15895 15662 15891 15899 15893 
2201 1903 2234 1904 15667 15895 15898 15669 13759 15900 
2234 1903 1937 1904 15895 13984 15896 15900 13759 13985 
1904 1937 2235 1938 13985 15901 15902 13991 13993 15903 
2201 2235 2202 1904 15904 15905 15679 15669 15902 15674 
1904 1937 2234 2235 13985 15896 15900 15902 15901 15906 
2201 2235 1904 2234 15904 15902 15669 15898 15906 15900 
2202 1904 2235 1905 15674 15902 15905 15676 13766 15907 
2235 1904 1938 1905 15902 13991 15903 15907 13766 13992 
1905 1938 2236 1939 13992 15908 15909 13998 14000 15910 
2202 2236 2203 1905 15911 15912 15686 15676 15909 15681 
1905 1938 2235 2236 13992 15903 15907 15909 15908 15913 
2202 2236 1905 2235 15911 15909 15676 15905 15913 15907 
2203 1905 2236 1906 15681 15909 15912 15683 13773 15914 
2236 1905 1939 1906 15909 13998 15910 15914 13773 13999 
1906 1939 2237 1940 13999 15915 15916 14005 14007 15917 
2203 2237 2204 1906 15918 15919 15693 15683 15916 15688 
1906 1939 2236 2237 13999 15910 15914 15916 15915 15920 
2203 2237 1906 2236 15918 15916 15683 15912 15920 15914 
2204 1906 2237 1907 15688 15916 15919 15690 13780 15921 
2237 1906 1940 1907 15916 14005 15917 15921 13780 14006 
1907 1940 2238 1941 14006 15922 15923 14012 14014 15924 
2204 2238 2205 1907 15925 15926 15700 15690 15923 15695 
1907 1940 2237 2238 14006 15917 15921 15923 15922 15927 
2204 2238 1907 2237 15925 15923 15690 15919 15927 15921 
2205 1907 2238 1908 15695 15923 15926 15697 13787 15928 
2238 1907 1941 1908 15923 14012 15924 15928 13787 14013 
1908 1941 2239 1942 14013 15929 15930 14019 14021 15931 
2205 2239 2206 1908 15932 15933 15707 15697 15930 15702 
1908 1941 2238 2239 14013 15924 15928 15930 15929 15934 
2205 2239 1908 2238 15932 15930 15697 15926 15934 15928 
2206 1908 2239 1909 15702 15930 15933 15704 13794 15935 
2239 1908 1942 1909 15930 14019 15931 15935 13794 14020 
1909 1942 2240 1943 14020 15936 15937 14026 14028 15938 
2206 2240 2207 1909 15939 15940 15714 15704 15937 15709 
1909 1942 2239 2240 14020 15931 15935 15937 15936 15941 
2206 2240 1909 2239 15939 15937 15704 15933 15941 15935 
2207 1909 2240 1910 15709 15937 15940 15711 13801 15942 
2240 1909 1943 1910 15937 14026 15938 15942 13801 14027 
1910 1943 2241 1944 14027 15943 15944 14033 14035 15945 
2207 2241 2208 1910 15946 15947 15721 15711 15944 15716 
1910 1943 2240 2241 14027 15938 15942 15944 15943 15948 
2207 2241 1910 2240 15946 15944 15711 15940 15948 15942 
2208 1910 2241 1911 15716 15944 15947 15718 13808 15949 
2241 1910 1944 1911 15944 14033 15945 15949 13808 14034 
1911 1944 2242 1945 14034 15950 15951 14040 14042 15952 
2208 2242 2209 1911 15953 15954 15728 15718 15951 15723 
1911 1944 2241 2242 14034 15945 15949 15951 15950 15955 
2208 2242 1911 2241 15953 15951 15718 15947 15955 15949 
2209 1911 2242 1912 15723 15951 15954 15725 13815 15956 
2242 1911 1945 1912 15951 14040 15952 15956 13815 14041 
1912 1945 2243 1946 14041 15957 15958 14047 14049 15959 
2209 2243 2210 1912 15960 15961 15735 15725 15958 15730 
1912 1945 2242 2243 14041 15952 15956 15958 15957 15962 
2209 2243 1912 2242 15960 15958 15725 15954 15962 15956 
2210 1912 2243 1913 15730 15958 15961 15732 13822 15963 
2243 1912 1946 1913 15958 14047 15959 15963 13822 14048 
1914 1947 2245 1948 14059 15964 15965 14054 14058 15966 
2211 2245 2212 1914 15967 15968 15744 15742 15965 15737 
1914 1947 2244 2245 14059 15969 15970 15965 15964 15971 
2211 2245 1914 2244 15967 15965 15742 15972 15971 15970 
2212 1914 2245 1915 15737 15965 15968 15739 13831 15973 
2245 1914 1948 1915 15965 14054 15966 15973 13831 14055 
1915 1948 2246 1949 14055 15974 15975 14064 14066 15976 
2212 2246 2213 1915 15977 15978 15752 15739 15975 15747 
1915 1948 2245 2246 14055 15966 15973 15975 15974 15979 
2212 2246 1915 2245 15977 15975 15739 15968 15979 15973 
2213 1915 2246 1916 15747 15975 15978 15749 13839 15980 
2246 1915 1949 1916 15975 14064 15976 15980 13839 14065 
1916 1949 2247 1950 14065 15981 15982 14071 14073 15983 
2213 2247 2214 1916 15984 15985 15759 15749 15982 15754 
1916 1949 2246 2247 14065 15976 15980 15982 15981 15986 
2213 2247 1916 2246 15984 15982 15749 15978 15986 15980 
2214 1916 2247 1917 15754 15982 15985 15756 13846 15987 
2247 1916 1950 1917 15982 14071 15983 15987 13846 14072 
1917 1950 2248 1951 14072 15988 15989 14078 14080 15990 
2214 2248 2215 1917 15991 15992 15766 15756 15989 15761 
1917 1950 2247 2248 14072 15983 15987 15989 15988 15993 
2214 2248 1917 2247 15991 15989 15756 15985 15993 15987 
2215 1917 2248 1918 15761 15989 15992 15763 13853 15994 
2248 1917 1951 1918 15989 14078 15990 15994 13853 14079 
1918 1951 2249 1952 14079 15995 15996 14085 14087 15997 
2215 2249 2216 1918 15998 15999 15773 15763 15996 15768 
1918 1951 2248 2249 14079 15990 15994 15996 15995 16000 
2215 2249 1918 2248 15998 15996 15763 15992 16000 15994 
2216 1918 2249 1919 15768 15996 15999 15770 13860 16001 
2249 1918 1952 1919 15996 14085 15997 16001 13860 14086 
1919 1952 2250 1953 14086 16002 16003 14092 14094 16004 
2216 2250 2217 1919 16005 16006 15780 15770 16003 15775 
1919 1952 2249 2250 14086 15997 16001 16003 16002 16007 
2216 2250 1919 2249 16005 16003 15770 15999 16007 16001 
2217 1919 2250 1920 15775 16003 16006 15777 13867 16008 
2250 1919 1953 1920 16003 14092 16004 16008 13867 14093 
1920 1953 2251 1954 14093 16009 16010 14099 14101 16011 
2217 2251 2218 1920 16012 16013 15787 15777 16010 15782 
1920 1953 2250 2251 14093 16004 16008 16010 16009 16014 
2217 2251 1920 2250 16012 16010 15777 16006 16014 16008 
2218 1920 2251 1921 15782 16010 16013 15784 13874 16015 
2251 1920 1954 1921 16010 14099 16011 16015 13874 14100 
1921 1954 2252 1955 14100 16016 16017 14106 14108 16018 
2218 2252 2219 1921 16019 16020 15794 15784 16017 15789 
1921 1954 2251 2252 14100 16011 16015 16017 16016 16021 
2218 2252 1921 2251 16019 16017 15784 16013 16021 16015 
2219 1921 2252 1922 15789 16017 16020 15791 13881 16022 
2252 1921 1955 1922 16017 14106 16018 16022 13881 14107 
1922 1955 2253 1956 14107 16023 16024 14113 14115 16025 
2219 2253 2220 1922 16026 16027 15801 15791 16024 15796 
1922 1955 2252 2253 14107 16018 16022 16024 16023 16028 
2219 2253 1922 2252 16026 16024 15791 16020 16028 16022 
2220 1922 2253 1923 15796 16024 16027 15798 13888 16029 
2253 1922 1956 1923 16024 14113 16025 16029 13888 14114 
1923 1956 2254 1957 14114 16030 16031 14120 14122 16032 
2220 2254 2221 1923 16033 16034 15808 15798 16031 15803 
1923 1956 2253 2254 14114 16025 16029 16031 16030 16035 
2220 2254 1923 2253 16033 16031 15798 16027 16035 16029 
2221 1923 2254 1924 15803 16031 16034 15805 13895 16036 
2254 1923 1957 1924 16031 14120 16032 16036 13895 14121 
1924 1957 2255 1958 14121 16037 16038 14127 14129 16039 
2221 2255 2222 1924 16040 16041 15815 15805 16038 15810 
1924 1957 2254 2255 14121 16032 16036 16038 16037 16042 
2221 2255 1924 2254 16040 16038 15805 16034 16042 16036 
2222 1924 2255 1925 15810 16038 16041 15812 13902 16043 
2255 1924 1958 1925 16038 14127 16039 16043 13902 14128 
1925 1958 2256 1959 14128 16044 16045 14134 14136 16046 
2222 2256 2223 1925 16047 16048 15822 15812 16045 15817 
1925 1958 2255 2256 14128 16039 16043 16045 16044 16049 
2222 2256 1925 2255 16047 16045 15812 16041 16049 16043 
2223 1925 2256 1926 15817 16045 16048 15819 13909 16050 
2256 1925 1959 1926 16045 14134 16046 16050 13909 14135 
1926 1959 2257 1960 14135 16051 16052 14141 14143 16053 
2223 2257 2224 1926 16054 16055 15829 15819 16052 15824 
1926 1959 2256 2257 14135 16046 16050 16052 16051 16056 
2223 2257 1926 2256 16054 16052 15819 16048 16056 16050 
2224 1926 2257 1927 15824 16052 16055 15826 13916 16057 
2257 1926 1960 1927 16052 14141 16053 16057 13916 14142 
1927 1960 2258 1961 14142 16058 16059 14148 14150 16060 
2224 2258 2225 1927 16061 16062 15836 15826 16059 15831 
1927 1960 2257 2258 14142 16053 16057 16059 16058 16063 
2224 2258 1927 2257 16061 16059 15826 16055 16063 16057 
2225 1927 2258 1928 15831 16059 16062 15833 13923 16064 
2258 1927 1961 1928 16059 14148 16060 16064 13923 14149 
1928 1961 2259 1962 14149 16065 16066 14155 14157 16067 
2225 2259 2226 1928 16068 16069 15843 15833 16066 15838 
1928 1961 2258 2259 14149 16060 16064 16066 16065 16070 
2225 2259 1928 2258 16068 16066 15833 16062 16070 16064 
2226 1928 2259 1929 15838 16066 16069 15840 13930 16071 
2259 1928 1962 1929 16066 14155 16067 16071 13930 14156 
1929 1962 2260 1963 14156 16072 16073 14162 14164 16074 
2226 2260 2227 1929 16075 16076 15850 15840 16073 15845 
1929 1962 2259 2260 14156 16067 16071 16073 16072 16077 
2226 2260 1929 2259 16075 16073 15840 16069 16077 16071 
2227 1929 2260 1930 15845 16073 16076 15847 13937 16078 
2260 1929 1963 1930 16073 14162 16074 16078 13937 14163 
1930 1963 2261 1964 14163 16079 16080 14169 14171 16081 
2227 2261 2228 1930 16082 16083 15857 15847 16080 15852 
1930 1963 2260 2261 14163 16074 16078 16080 16079 16084 
2227 2261 1930 2260 16082 16080 15847 16076 16084 16078 
2228 1930 2261 1931 15852 16080 16083 15854 13944 16085 
2261 1930 1964 1931 16080 14169 16081 16085 13944 14170 
1931 1964 2262 1965 14170 16086 16087 14176 14178 16088 
2228 2262 2229 1931 16089 16090 15864 15854 16087 15859 
1931 1964 2261 2262 14170 16081 16085 16087 16086 16091 
2228 2262 1931 2261 16089 16087 15854 16083 16091 16085 
2229 1931 2262 1932 15859 16087 16090 15861 13951 16092 
2262 1931 1965 1932 16087 14176 16088 16092 13951 14177 
1932 1965 2263 1966 14177 16093 16094 14183 14185 16095 
2229 2263 2230 1932 16096 16097 15871 15861 16094 15866 
1932 1965 2262 2263 14177 16088 16092 16094 16093 16098 
2229 2263 1932 2262 16096 16094 15861 16090 16098 16092 
2230 1932 2263 1933 15866 16094 16097 15868 13958 16099 
2263 1932 1966 1933 16094 14183 16095 16099 13958 14184 
1933 1966 2264 1967 14184 16100 16101 14190 14192 16102 
2230 2264 2231 1933 16103 16104 15878 15868 16101 15873 
1933 1966 2263 2264 14184 16095 16099 16101 16100 16105 
2230 2264 1933 2263 16103 16101 15868 16097 16105 16099 
2231 1933 2264 1934 15873 16101 16104 15875 13965 16106 
2264 1933 1967 1934 16101 14190 16102 16106 13965 14191 
1934 1967 2265 1968 14191 16107 16108 14197 14199 16109 
2231 2265 2232 1934 16110 16111 15885 15875 16108 15880 
1934 1967 2264 2265 14191 16102 16106 16108 16107 16112 
2231 2265 1934 2264 16110 16108 15875 16104 16112 16106 
2232 1934 2265 1935 15880 16108 16111 15882 13972 16113 
2265 1934 1968 1935 16108 14197 16109 16113 13972 14198 
1935 1968 2266 1969 14198 16114 16115 14204 14206 16116 
2232 2266 2233 1935 16117 16118 15892 15882 16115 15887 
1935 1968 2265 2266 14198 16109 16113 16115 16114 16119 
2232 2266 1935 2265 16117 16115 15882 16111 16119 16113 
2233 1935 2266 1936 15887 16115 16118 15889 13979 16120 
2266 1935 1969 1936 16115 14204 16116 16120 13979 14205 
1936 1969 2267 1970 14205 16121 16122 14211 14213 16123 
2233 2267 2234 1936 16124 16125 15899 15889 16122 15894 
1936 1969 2266 2267 14205 16116 16120 16122 16121 16126 
2233 2267 1936 2266 16124 16122 15889 16118 16126 16120 
2234 1936 2267 1937 15894 16122 16125 15896 13986 16127 
2267 1936 1970 1937 16122 14211 16123 16127 13986 14212 
1937 1970 2268 1971 14212 16128 16129 14218 14220 16130 
2234 2268 2235 1937 16131 16132 15906 15896 16129 15901 
1937 1970 2267 2268 14212 16123 16127 16129 16128 16133 
2234 2268 1937 2267 16131 16129 15896 16125 16133 16127 
2235 1937 2268 1938 15901 16129 16132 15903 13993 16134 
2268 1937 1971 1938 16129 14218 16130 16134 13993 14219 
1938 1971 2269 1972 14219 16135 16136 14225 14227 16137 
2235 2269 2236 1938 16138 16139 15913 15903 16136 15908 
1938 1971 2268 2269 14219 16130 16134 16136 16135 16140 
2235 2269 1938 2268 16138 16136 15903 16132 16140 16134 
2236 1938 2269 1939 15908 16136 16139 15910 14000 16141 
2269 1938 1972 1939 16136 14225 16137 16141 14000 14226 
1939 1972 2270 1973 14226 16142 16143 14232 14234 16144 
2236 2270 2237 1939 16145 16146 15920 15910 16143 15915 
1939 1972 2269 2270 14226 16137 16141 16143 16142 16147 
2236 2270 1939 2269 16145 16143 15910 16139 16147 16141 
2237 1939 2270 1940 15915 16143 16146 15917 14007 16148 
2270 1939 1973 1940 16143 14232 16144 16148 14007 14233 
1940 1973 2271 1974 14233 16149 16150 14239 14241 16151 
2237 2271 2238 1940 16152 16153 15927 15917 16150 15922 
1940 1973 2270 2271 14233 16144 16148 16150 16149 16154 
2237 2271 1940 2270 16152 16150 15917 16146 16154 16148 
2238 1940 2271 1941 15922 16150 16153 15924 14014 16155 
2271 1940 1974 1941 16150 14239 16151 16155 14014 14240 
1941 1974 2272 1975 14240 16156 16157 14246 14248 16158 
2238 2272 2239 1941 16159 16160 15934 15924 16157 15929 
1941 1974 2271 2272 14240 16151 16155 16157 16156 16161 
2238 2272 1941 2271 16159 16157 15924 16153 16161 16155 
2239 1941 2272 1942 15929 16157 16160 15931 14021 16162 
2272 1941 1975 1942 16157 14246 16158 16162 14021 14247 
1942 1975 2273 1976 14247 16163 16164 14253 14255 16165 
2239 2273 2240 1942 16166 16167 15941 15931 16164 15936 
1942 1975 2272 2273 14247 16158 16162 16164 16163 16168 
2239 2273 1942 2272 16166 16164 15931 16160 16168 16162 
2240 1942 2273 1943 15936 16164 16167 15938 14028 16169 
2273 1942 1976 1943 16164 14253 16165 16169 14028 14254 
1943 1976 2274 1977 14254 16170 16171 14260 14262 16172 
2240 2274 2241 1943 16173 16174 15948 15938 16171 15943 
1943 1976 2273 2274 14254 16165 16169 16171 16170 16175 
2240 2274 1943 2273 16173 16171 15938 16167 16175 16169 
2241 1943 2274 1944 15943 16171 16174 15945 14035 16176 
2274 1943 1977 1944 16171 14260 16172 16176 14035 14261 
1944 1977 2275 1978 14261 16177 16178 14267 14269 16179 
2241 2275 2242 1944 16180 16181 15955 15945 16178 15950 
1944 1977 2274 2275 14261 16172 16176 16178 16177 16182 
2241 2275 1944 2274 16180 16178 15945 16174 16182 16176 
2242 1944 2275 1945 15950 16178 16181 15952 14042 16183 
2275 1944 1978 1945 16178 14267 16179 16183 14042 14268 
1945 1978 2276 1979 14268 16184 16185 14274 14276 16186 
2242 2276 2243 1945 16187 16188 15962 15952 16185 15957 
1945 1978 2275 2276 14268 16179 16183 16185 16184 16189 
2242 2276 1945 2275 16187 16185 15952 16181 16189 16183 
2243 1945 2276 1946 15957 16185 16188 15959 14049 16190 
2276 1945 1979 1946 16185 14274 16186 16190 14049 14275 
1947 1980 2278 1981 14286 16191 16192 14281 14285 16193 
2244 2278 2245 1947 16194 16195 15971 15969 16192 15964 
1947 1980 2277 2278 14286 16196 16197 16192 16191 16198 
2244 2278 1947 2277 16194 16192 15969 16199 16198 16197 
2245 1947 2278 1948 15964 16192 16195 15966 14058 16200 
2278 1947 1981 1948 16192 14281 16193 16200 14058 14282 
1948 1981 2279 1982 14282 16201 16202 14291 14293 16203 
2245 2279 2246 1948 16204 16205 15979 15966 16202 15974 
1948 1981 2278 2279 14282 16193 16200 16202 16201 16206 
2245 2279 1948 2278 16204 16202 15966 16195 16206 16200 
2246 1948 2279 1949 15974 16202 16205 15976 14066 16207 
2279 1948 1982 1949 16202 14291 16203 16207 14066 14292 
1949 1982 2280 1983 14292 16208 16209 14298 14300 16210 
2246 2280 2247 1949 16211 16212 15986 15976 16209 15981 
1949 1982 2279 2280 14292 16203 16207 16209 16208 16213 
2246 2280 1949 2279 16211 16209 15976 16205 16213 16207 
2247 1949 2280 1950 15981 16209 16212 15983 14073 16214 
2280 1949 1983 1950 16209 14298 16210 16214 14073 14299 
1950 1983 2281 1984 14299 16215 16216 14305 14307 16217 
2247 2281 2248 1950 16218 16219 15993 15983 16216 15988 
1950 1983 2280 2281 14299 16210 16214 16216 16215 16220 
2247 2281 1950 2280 16218 16216 15983 16212 16220 16214 
2248 1950 2281 1951 15988 16216 16219 15990 14080 16221 
2281 1950 1984 1951 16216 14305 16217 16221 14080 14306 
1951 1984 2282 1985 14306 16222 16223 14312 14314 16224 
2248 2282 2249 1951 16225 16226 16000 15990 16223 15995 
1951 1984 2281 2282 14306 16217 16221 16223 16222 16227 
2248 2282 1951 2281 16225 16223 15990 16219 16227 16221 
2249 1951 2282 1952 15995 16223 16226 15997 14087 16228 
2282 1951 1985 1952 16223 14312 16224 16228 14087 14313 
1952 1985 2283 1986 14313 16229 16230 14319 14321 16231 
2249 2283 2250 1952 16232 16233 16007 15997 16230 16002 
1952 1985 2282 2283 14313 16224 16228 16230 16229 16234 
2249 2283 1952 2282 16232 16230 15997 16226 16234 16228 
2250 1952 2283 1953 16002 16230 16233 16004 14094 16235 
2283 1952 1986 1953 16230 14319 16231 16235 14094 14320 
1953 1986 2284 1987 14320 16236 16237 14326 14328 16238 
2250 2284 2251 1953 16239 16240 16014 16004 16237 16009 
1953 1986 2283 2284 14320 16231 16235 16237 16236 16241 
2250 2284 1953 2283 16239 16237 16004 16233 16241 16235 
2251 1953 2284 1954 16009 16237 16240 16011 14101 16242 
2284 1953 1987 1954 16237 14326 16238 16242 14101 14327 
1954 1987 2285 1988 14327 16243 16244 14333 14335 16245 
2251 2285 2252 1954 16246 16247 16021 16011 16244 16016 
1954 1987 2284 2285 14327 16238 16242 16244 16243 16248 
2251 2285 1954 2284 16246 16244 16011 16240 16248 16242 
2252 1954 2285 1955 16016 16244 16247 16018 14108 16249 
2285 1954 1988 1955 16244 14333 16245 16249 14108 14334 
1955 1988 2286 1989 14334 16250 16251 14340 14342 16252 
2252 2286 2253 1955 16253 16254 16028 16018 16251 16023 
1955 1988 2285 2286 14334 16245 16249 16251 16250 16255 
2252 2286 1955 2285 16253 16251 16018 16247 16255 16249 
2253 1955 2286 1956 16023 16251 16254 16025 14115 16256 
2286 1955 1989 1956 16251 14340 16252 16256 14115 14341 
1956 1989 2287 1990 14341 16257 16258 14347 14349 16259 
2253 2287 2254 1956 16260 16261 16035 16025 16258 16030 
1956 1989 2286 2287 14341 16252 16256 16258 16257 16262 
2253 2287 1956 2286 16260 16258 16025 16254 16262 16256 
2254 1956 2287 1957 16030 16258 16261 16032 14122 16263 
2287 1956 1990 1957 16258 14347 16259 16263 14122 14348 
1957 1990 2288 1991 14348 16264 16265 14354 14356 16266 
2254 2288 2255 1957 16267 16268 16042 16032 16265 16037 
1957 1990 2287 2288 14348 16259 16263 16265 16264 16269 
2254 2288 1957 2287 16267 16265 16032 16261 16269 16263 
2255 1957 2288 1958 16037 16265 16268 16039 14129 16270 
2288 1957 1991 1958 16265 14354 16266 16270 14129 14355 
1958 1991 2289 1992 14355 16271 16272 14361 14363 16273 
2255 2289 2256 1958 16274 16275 16049 16039 16272 16044 
1958 1991 2288 2289 14355 16266 16270 16272 16271 16276 
2255 2289 1958 2288 16274 16272 16039 16268 16276 16270 
2256 1958 2289 1959 16044 16272 16275 16046 14136 16277 
2289 1958 1992 1959 16272 14361 16273 16277 14136 14362 
1959 1992 2290 1993 14362 16278 16279 14368 14370 16280 
2256 2290 2257 1959 16281 16282 16056 16046 16279 16051 
1959 1992 2289 2290 14362 16273 16277 16279 16278 16283 
2256 2290 1959 2289 16281 16279 16046 16275 16283 16277 
2257 1959 2290 1960 16051 16279 16282 16053 14143 16284 
2290 1959 1993 1960 16279 14368 16280 16284 14143 14369 
1960 1993 2291 1994 14369 16285 16286 14375 14377 16287 
2257 2291 2258 1960 16288 16289 16063 16053 16286 16058 
1960 1993 2290 2291 14369 16280 16284 16286 16285 16290 
2257 2291 1960 2290 16288 16286 16053 16282 16290 16284 
2258 1960 2291 1961 16058 16286 16289 16060 14150 16291 
2291 1960 1994 1961 16286 14375 16287 16291 14150 14376 
1961 1994 2292 1995 14376 16292 16293 14382 14384 16294 
2258 2292 2259 1961 16295 16296 16070 16060 16293 16065 
1961 1994 2291 2292 14376 16287 16291 16293 16292 16297 
2258 2292 1961 2291 16295 16293 16060 16289 16297 16291 
2259 1961 2292 1962 16065 16293 16296 16067 14157 16298 
2292 1961 1995 1962 16293 14382 16294 16298 14157 14383 
1962 1995 2293 1996 14383 16299 16300 14389 14391 16301 
2259 2293 2260 1962 16302 16303 16077 16067 16300 16072 
1962 1995 2292 2293 14383 16294 16298 16300 16299 16304 
2259 2293 1962 2292 16302 16300 16067 16296 16304 16298 
2260 1962 2293 1963 16072 16300 16303 16074 14164 16305 
2293 1962 1996 1963 16300 14389 16301 16305 14164 14390 
1963 1996 2294 1997 14390 16306 16307 14396 14398 16308 
2260 2294 2261 1963 16309 16310 16084 16074 16307 16079 
1963 1996 2293 2294 14390 16301 16305 16307 16306 16311 
2260 2294 1963 2293 16309 16307 16074 16303 16311 16305 
2261 1963 2294 1964 16079 16307 16310 16081 14171 16312 
2294 1963 1997 1964 16307 14396 16308 16312 14171 14397 
1964 1997 2295 1998 14397 16313 16314 14403 14405 16315 
2261 2295 2262 1964 16316 16317 16091 16081 16314 16086 
1964 1997 2294 2295 14397 16308 16312 16314 16313 16318 
2261 2295 1964 2294 16316 16314 16081 16310 16318 16312 
2262 1964 2295 1965 16086 16314 16317 16088 14178 16319 
2295 1964 1998 1965 16314 14403 16315 16319 14178 14404 
1965 1998 2296 1999 14404 16320 16321 14410 14412 16322 
2262 2296 2263 1965 16323 16324 16098 16088 16321 16093 
1965 1998 2295 2296 14404 16315 16319 16321 16320 16325 
2262 2296 1965 2295 16323 16321 16088 16317 16325 16319 
2263 1965 2296 1966 16093 16321 16324 16095 14185 16326 
2296 1965 1999 1966 16321 14410 16322 16326 14185 14411 
1966 1999 2297 2000 14411 16327 16328 14417 14419 16329 
2263 2297 2264 1966 16330 16331 16105 16095 16328 16100 
1966 1999 2296 2297 14411 16322 16326 16328 16327 16332 
2263 2297 1966 2296 16330 16328 16095 16324 16332 16326 
2264 1966 2297 1967 16100 16328 16331 16102 14192 16333 
2297 1966 2000 1967 16328 14417 16329 16333 14192 14418 
1967 2000 2298 2001 14418 16334 16335 14424 14426 16336 
2264 2298 2265 1967 16337 16338 16112 16102 16335 16107 
1967 2000 2297 2298 14418 16329 16333 16335 16334 16339 
2264 2298 1967 2297 16337 16335 16102 16331 16339 16333 
2265 1967 2298 1968 16107 16335 16338 16109 14199 16340 
2298 1967 2001 1968 16335 14424 16336 16340 14199 14425 
1968 2001 2299 2002 14425 16341 16342 14431 14433 16343 
2265 2299 2266 1968 16344 16345 16119 16109 16342 16114 
1968 2001 2298 2299 14425 16336 16340 16342 16341 16346 
2265 2299 1968 2298 16344 16342 16109 16338 16346 16340 
2266 1968 2299 1969 16114 16342 16345 16116 14206 16347 
2299 1968 2002 1969 16342 14431 16343 16347 14206 14432 
1969 2002 2300 2003 14432 16348 16349 14438 14440 16350 
2266 2300 2267 1969 16351 16352 16126 16116 16349 16121 
1969 2002 2299 2300 14432 16343 16347 16349 16348 16353 
2266 2300 1969 2299 16351 16349 16116 16345 16353 16347 
2267 1969 2300 1970 16121 16349 16352 16123 14213 16354 
2300 1969 2003 1970 16349 14438 16350 16354 14213 14439 
1970 2003 2301 2004 14439 16355 16356 14445 14447 16357 
2267 2301 2268 1970 16358 16359 16133 16123 16356 16128 
1970 2003 2300 2301 14439 16350 16354 16356 16355 16360 
2267 2301 1970 2300 16358 16356 16123 16352 16360 16354 
2268 1970 2301 1971 16128 16356 16359 16130 14220 16361 
2301 1970 2004 1971 16356 14445 16357 16361 14220 14446 
1971 2004 2302 2005 14446 16362 16363 14452 14454 16364 
2268 2302 2269 1971 16365 16366 16140 16130 16363 16135 
1971 2004 2301 2302 14446 16357 16361 16363 16362 16367 
2268 2302 1971 2301 16365 16363 16130 16359 16367 16361 
2269 1971 2302 1972 16135 16363 16366 16137 14227 16368 
2302 1971 2005 1972 16363 14452 16364 16368 14227 14453 
1972 2005 2303 2006 14453 16369 16370 14459 14461 16371 
2269 2303 2270 1972 16372 16373 16147 16137 16370 16142 
1972 2005 2302 2303 14453 16364 16368 16370 16369 16374 
2269 2303 1972 2302 16372 16370 16137 16366 16374 16368 
2270 1972 2303 1973 16142 16370 16373 16144 14234 16375 
2303 1972 2006 1973 16370 14459 16371 16375 14234 14460 
1973 2006 2304 2007 14460 16376 16377 14466 14468 16378 
2270 2304 2271 1973 16379 16380 16154 16144 16377 16149 
1973 2006 2303 2304 14460 16371 16375 16377 16376 16381 
2270 2304 1973 2303 16379 16377 16144 16373 16381 16375 
2271 1973 2304 1974 16149 16377 16380 16151 14241 16382 
2304 1973 2007 1974 16377 14466 16378 16382 14241 14467 
1974 2007 2305 2008 14467 16383 16384 14473 14475 16385 
2271 2305 2272 1974 16386 16387 16161 16151 16384 16156 
1974 2007 2304 2305 14467 16378 16382 16384 16383 16388 
2271 2305 1974 2304 16386 16384 16151 16380 16388 16382 
2272 1974 2305 1975 16156 16384 16387 16158 14248 16389 
2305 1974 2008 1975 16384 14473 16385 16389 14248 14474 
1975 2008 2306 2009 14474 16390 16391 14480 14482 16392 
2272 2306 2273 1975 16393 16394 16168 16158 16391 16163 
1975 2008 2305 2306 14474 16385 16389 16391 16390 16395 
2272 2306 1975 2305 16393 16391 16158 16387 16395 16389 
2273 1975 2306 1976 16163 16391 16394 16165 14255 16396 
2306 1975 2009 1976 16391 14480 16392 16396 14255 14481 
1976 2009 2307 2010 14481 16397 16398 14487 14489 16399 
2273 2307 2274 1976 16400 16401 16175 16165 16398 16170 
1976 2009 2306 2307 14481 16392 16396 16398 16397 16402 
2273 2307 1976 2306 16400 16398 16165 16394 16402 16396 
2274 1976 2307 1977 16170 16398 16401 16172 14262 16403 
2307 1976 2010 1977 16398 14487 16399 16403 14262 14488 
1977 2010 2308 2011 14488 16404 16405 14494 14496 16406 
2274 2308 2275 1977 16407 16408 16182 16172 16405 16177 
1977 2010 2307 2308 14488 16399 16403 16405 16404 16409 
2274 2308 1977 2307 16407 16405 16172 16401 16409 16403 
2275 1977 2308 1978 16177 16405 16408 16179 14269 16410 
2308 1977 2011 1978 16405 14494 16406 16410 14269 14495 
1978 2011 2309 2012 14495 16411 16412 14501 14503 16413 
2275 2309 2276 1978 16414 16415 16189 16179 16412 16184 
1978 2011 2308 2309 14495 16406 16410 16412 16411 16416 
2275 2309 1978 2308 16414 16412 16179 16408 16416 16410 
2276 1978 2309 1979 16184 16412 16415 16186 14276 16417 
2309 1978 2012 1979 16412 14501 16413 16417 14276 14502 
1980 2013 2311 2014 14513 16418 16419 14508 14512 16420 
2277 2311 2278 1980 16421 16422 16198 16196 16419 16191 
1980 2013 2310 2311 14513 16423 16424 16419 16418 16425 
2277 2311 1980 2310 16421 16419 16196 16426 16425 16424 
2278 1980 2311 1981 16191 16419 16422 16193 14285 16427 
2311 1980 2014 1981 16419 14508 16420 16427 14285 14509 
1981 2014 2312 2015 14509 16428 16429 14518 14520 16430 
2278 2312 2279 1981 16431 16432 16206 16193 16429 16201 
1981 2014 2311 2312 14509 16420 16427 16429 16428 16433 
2278 2312 1981 2311 16431 16429 16193 16422 16433 16427 
2279 1981 2312 1982 16201 16429 16432 16203 14293 16434 
2312 1981 2015 1982 16429 14518 16430 16434 14293 14519 
1982 2015 2313 2016 14519 16435 16436 14525 14527 16437 
2279 2313 2280 1982 16438 16439 16213 16203 16436 16208 
1982 2015 2312 2313 14519 16430 16434 16436 16435 16440 
2279 2313 1982 2312 16438 16436 16203 16432 16440 16434 
2280 1982 2313 1983 16208 16436 16439 16210 14300 16441 
2313 1982 2016 1983 16436 14525 16437 16441 14300 14526 
1983 2016 2314 2017 14526 16442 16443 14532 14534 16444 
2280 2314 2281 1983 16445 16446 16220 16210 16443 16215 
1983 2016 2313 2314 14526 16437 16441 16443 16442 16447 
2280 2314 1983 2313 16445 16443 16210 16439 16447 16441 
2281 1983 2314 1984 16215 16443 16446 16217 14307 16448 
2314 1983 2017 1984 16443 14532 16444 16448 14307 14533 
1984 2017 2315 2018 14533 16449 16450 14539 14541 16451 
2281 2315 2282 1984 16452 16453 16227 16217 16450 16222 
1984 2017 2314 2315 14533 16444 16448 16450 16449 16454 
2281 2315 1984 2314 16452 16450 16217 16446 16454 16448 
2282 1984 2315 1985 16222 16450 16453 16224 14314 16455 
2315 1984 2018 1985 16450 14539 16451 16455 14314 14540 
1985 2018 2316 2019 14540 16456 16457 14546 14548 16458 
2282 2316 2283 1985 16459 16460 16234 16224 16457 16229 
1985 2018 2315 2316 14540 16451 16455 16457 16456 16461 
2282 2316 1985 2315 16459 16457 16224 16453 16461 16455 
2283 1985 2316 1986 16229 16457 16460 16231 14321 16462 
2316 1985 2019 1986 16457 14546 16458 16462 14321 14547 
1986 2019 2317 2020 14547 16463 16464 14553 14555 16465 
2283 2317 2284 1986 16466 16467 16241 16231 16464 16236 
1986 2019 2316 2317 14547 16458 16462 16464 16463 16468 
2283 2317 1986 2316 16466 16464 16231 16460 16468 16462 
2284 1986 2317 1987 16236 16464 16467 16238 14328 16469 
2317 1986 2020 1987 16464 14553 16465 16469 14328 14554 
1987 2020 2318 2021 14554 16470 16471 14560 14562 16472 
2284 2318 2285 1987 16473 16474 16248 16238 16471 16243 
1987 2020 2317 2318 14554 16465 16469 16471 16470 16475 
2284 2318 1987 2317 16473 16471 16238 16467 16475 16469 
2285 1987 2318 1988 16243 16471 16474 16245 14335 16476 
2318 1987 2021 1988 16471 14560 16472 16476 14335 14561 
1988 2021 2319 2022 14561 16477 16478 14567 14569 16479 
2285 2319 2286 1988 16480 16481 16255 16245 16478 16250 
1988 2021 2318 2319 14561 16472 16476 16478 16477 16482 
2285 2319 1988 2318 16480 16478 16245 16474 16482 16476 
2286 1988 2319 1989 16250 16478 16481 16252 14342 16483 
2319 1988 2022 1989 16478 14567 16479 16483 14342 14568 
1989 2022 2320 2023 14568 16484 16485 14574 14576 16486 
2286 2320 2287 1989 16487 16488 16262 16252 16485 16257 
1989 2022 2319 2320 14568 16479 16483 16485 16484 16489 
2286 2320 1989 2319 16487 16485 16252 16481 16489 16483 
2287 1989 2320 1990 16257 16485 16488 16259 14349 16490 
2320 1989 2023 1990 16485 14574 16486 16490 14349 14575 
1990 2023 2321 2024 14575 16491 16492 14581 14583 16493 
2287 2321 2288 1990 16494 16495 16269 16259 16492 16264 
1990 2023 2320 2321 14575 16486 16490 16492 16491 16496 
2287 2321 1990 2320 16494 16492 16259 16488 16496 16490 
2288 1990 2321 1991 16264 16492 16495 16266 14356 16497 
2321 1990 2024 1991 16492 14581 16493 16497 14356 14582 
1991 2024 2322 2025 14582 16498 16499 14588 14590 16500 
2288 2322 2289 1991 16501 16502 16276 16266 16499 16271 
1991 2024 2321 2322 14582 16493 16497 16499 16498 16503 
2288 2322 1991 2321 16501 16499 16266 16495 16503 16497 
2289 1991 2322 1992 16271 16499 16502 16273 14363 16504 
2322 1991 2025 1992 16499 14588 16500 16504 14363 14589 
1992 2025 2323 2026 14589 16505 16506 14595 14597 16507 
2289 2323 2290 1992 16508 16509 16283 16273 16506 16278 
1992 2025 2322 2323 14589 16500 16504 16506 16505 16510 
2289 2323 1992 2322 16508 16506 16273 16502 16510 16504 
2290 1992 2323 1993 16278 16506 16509 16280 14370 16511 
2323 1992 2026 1993 16506 14595 16507 16511 14370 14596 
1993 2026 2324 2027 14596 16512 16513 14602 14604 16514 
2290 2324 2291 1993 16515 16516 16290 16280 16513 16285 
1993 2026 2323 2324 14596 16507 16511 16513 16512 16517 
2290 2324 1993 2323 16515 16513 16280 16509 16517 16511 
2291 1993 2324 1994 16285 16513 16516 16287 14377 16518 
2324 1993 2027 1994 16513 14602 16514 16518 14377 14603 
1994 2027 2325 2028 14603 16519 16520 14609 14611 16521 
2291 2325 2292 1994 16522 16523 16297 16287 16520 16292 
1994 2027 2324 2325 14603 16514 16518 16520 16519 16524 
2291 2325 1994 2324 16522 16520 16287 16516 16524 16518 
2292 1994 2325 1995 16292 16520 16523 16294 14384 16525 
2325 1994 2028 1995 16520 14609 16521 16525 14384 14610 
1995 2028 2326 2029 14610 16526 16527 14616 14618 16528 
2292 2326 2293 1995 16529 16530 16304 16294 16527 16299 
1995 2028 2325 2326 14610 16521 16525 16527 16526 16531 
2292 2326 1995 2325 16529 16527 16294 16523 16531 16525 
2293 1995 2326 1996 16299 16527 16530 16301 14391 16532 
2326 1995 2029 1996 16527 14616 16528 16532 14391 14617 
1996 2029 2327 2030 14617 16533 16534 14623 14625 16535 
2293 2327 2294 1996 16536 16537 16311 16301 16534 16306 
1996 2029 2326 2327 14617 16528 16532 16534 16533 16538 
2293 2327 1996 2326 16536 16534 16301 16530 16538 16532 
2294 1996 2327 1997 16306 16534 16537 16308 14398 16539 
2327 1996 2030 1997 16534 14623 16535 16539 14398 14624 
1997 2030 2328 2031 14624 16540 16541 14630 14632 16542 
2294 2328 2295 1997 16543 16544 16318 16308 16541 16313 
1997 2030 2327 2328 14624 16535 16539 16541 16540 16545 
2294 2328 1997 2327 16543 16541 16308 16537 16545 16539 
2295 1997 2328 1998 16313 16541 16544 16315 14405 16546 
2328 1997 2031 1998 16541 14630 16542 16546 14405 14631 
1998 2031 2329 2032 14631 16547 16548 14637 14639 16549 
2295 2329 2296 1998 16550 16551 16325 16315 16548 16320 
1998 2031 2328 2329 14631 16542 16546 16548 16547 16552 
2295 2329 1998 2328 16550 16548 16315 16544 16552 16546 
2296 1998 2329 1999 16320 16548 16551 16322 14412 16553 
2329 1998 2032 1999 16548 14637 16549 16553 14412 14638 
1999 2032 2330 2033 14638 16554 16555 14644 14646 16556 
2296 2330 2297 1999 16557 16558 16332 16322 16555 16327 
1999 2032 2329 2330 14638 16549 16553 16555 16554 16559 
2296 2330 1999 2329 16557 16555 16322 16551 16559 16553 
2297 1999 2330 2000 16327 16555 16558 16329 14419 16560 
2330 1999 2033 2000 16555 14644 16556 16560 14419 14645 
2000 2033 2331 2034 14645 16561 16562 14651 14653 16563 
2297 2331 2298 2000 16564 16565 16339 16329 16562 16334 
2000 2033 2330 2331 14645 16556 16560 16562 16561 16566 
2297 2331 2000 2330 16564 16562 16329 16558 16566 16560 
2298 2000 2331 2001 16334 16562 16565 16336 14426 16567 
2331 2000 2034 2001 16562 14651 16563 16567 14426 14652 
2001 2034 2332 2035 14652 16568 16569 14658 14660 16570 
2298 2332 2299 2001 16571 16572 16346 16336 16569 16341 
2001 2034 2331 2332 14652 16563 16567 16569 16568 16573 
2298 2332 2001 2331 16571 16569 16336 16565 16573 16567 
2299 2001 2332 2002 16341 16569 16572 16343 14433 16574 
2332 2001 2035 2002 16569 14658 16570 16574 14433 14659 
2002 2035 2333 2036 14659 16575 16576 14665 14667 16577 
2299 2333 2300 2002 16578 16579 16353 16343 16576 16348 
2002 2035 2332 2333 14659 16570 16574 16576 16575 16580 
2299 2333 2002 2332 16578 16576 16343 16572 16580 16574 
2300 2002 2333 2003 16348 16576 16579 16350 14440 16581 
2333 2002 2036 2003 16576 14665 16577 16581 14440 14666 
2003 2036 2334 2037 14666 16582 16583 14672 14674 16584 
2300 2334 2301 2003 16585 16586 16360 16350 16583 16355 
2003 2036 2333 2334 14666 16577 16581 16583 16582 16587 
2300 2334 2003 2333 16585 16583 16350 16579 16587 16581 
2301 2003 2334 2004 16355 16583 16586 16357 14447 16588 
2334 2003 2037 2004 16583 14672 16584 16588 14447 14673 
2004 2037 2335 2038 14673 16589 16590 14679 14681 16591 
2301 2335 2302 2004 16592 16593 16367 16357 16590 16362 
2004 2037 2334 2335 14673 16584 16588 16590 16589 16594 
2301 2335 2004 2334 16592 16590 16357 16586 16594 16588 
2302 2004 2335 2005 16362 16590 16593 16364 14454 16595 
2335 2004 2038 2005 16590 14679 16591 16595 14454 14680 
2005 2038 2336 2039 14680 16596 16597 14686 14688 16598 
2302 2336 2303 2005 16599 16600 16374 16364 16597 16369 
2005 2038 2335 2336 14680 16591 16595 16597 16596 16601 
2302 2336 2005 2335 16599 16597 16364 16593 16601 16595 
2303 2005 2336 2006 16369 16597 16600 16371 14461 16602 
2336 2005 2039 2006 16597 14686 16598 16602 14461 14687 
2006 2039 2337 2040 14687 16603 16604 14693 14695 16605 
2303 2337 2304 2006 16606 16607 16381 16371 16604 16376 
2006 2039 2336 2337 14687 16598 16602 16604 16603 16608 
2303 2337 2006 2336 16606 16604 16371 16600 16608 16602 
2304 2006 2337 2007 16376 16604 16607 16378 14468 16609 
2337 2006 2040 2007 16604 14693 16605 16609 14468 14694 
2007 2040 2338 2041 14694 16610 16611 14700 14702 16612 
2304 2338 2305 2007 16613 16614 16388 16378 16611 16383 
2007 2040 2337 2338 14694 16605 16609 16611 16610 16615 
2304 2338 2007 2337 16613 16611 16378 16607 16615 16609 
2305 2007 2338 2008 16383 16611 16614 16385 14475 16616 
2338 2007 2041 2008 16611 14700 16612 16616 14475 14701 
2008 2041 2339 2042 14701 16617 16618 14707 14709 16619 
2305 2339 2306 2008 16620 16621 16395 16385 16618 16390 
2008 2041 2338 2339 14701 16612 16616 16618 16617 16622 
2305 2339 2008 2338 16620 16618 16385 16614 16622 16616 
2306 2008 2339 2009 16390 16618 16621 16392 14482 16623 
2339 2008 2042 2009 16618 14707 16619 16623 14482 14708 
2009 2042 2340 2043 14708 16624 16625 14714 14716 16626 
2306 2340 2307 2009 16627 16628 16402 16392 16625 16397 
2009 2042 2339 2340 14708 16619 16623 16625 16624 16629 
2306 2340 2009 2339 16627 16625 16392 16621 16629 16623 
2307 2009 2340 2010 16397 16625 16628 16399 14489 16630 
2340 2009 2043 2010 16625 14714 16626 16630 14489 14715 
2010 2043 2341 2044 14715 16631 16632 14721 14723 16633 
2307 2341 2308 2010 16634 16635 16409 16399 16632 16404 
2010 2043 2340 2341 14715 16626 16630 16632 16631 16636 
2307 2341 2010 2340 16634 16632 16399 16628 16636 16630 
2308 2010 2341 2011 16404 16632 16635 16406 14496 16637 
2341 2010 2044 2011 16632 14721 16633 16637 14496 14722 
2011 2044 2342 2045 14722 16638 16639 14728 14730 16640 
2308 2342 2309 2011 16641 16642 16416 16406 16639 16411 
2011 2044 2341 2342 14722 16633 16637 16639 16638 16643 
2308 2342 2011 2341 16641 16639 16406 16635 16643 16637 
2309 2011 2342 2012 16411 16639 16642 16413 14503 16644 
2342 2011 2045 2012 16639 14728 16640 16644 14503 14729 
2013 2046 2344 2047 14740 16645 16646 14735 14739 16647 
2310 2344 2311 2013 16648 16649 16425 16423 16646 16418 
2013 2046 2343 2344 14740 16650 16651 16646 16645 16652 
2310 2344 2013 2343 16648 16646 16423 16653 16652 16651 
2311 2013 2344 2014 16418 16646 16649 16420 14512 16654 
2344 2013 2047 2014 16646 14735 16647 16654 14512 14736 
2014 2047 2345 2048 14736 16655 16656 14745 14747 16657 
2311 2345 2312 2014 16658 16659 16433 16420 16656 16428 
2014 2047 2344 2345 14736 16647 16654 16656 16655 16660 
2311 2345 2014 2344 16658 16656 16420 16649 16660 16654 
2312 2014 2345 2015 16428 16656 16659 16430 14520 16661 
2345 2014 2048 2015 16656 14745 16657 16661 14520 14746 
2015 2048 2346 2049 14746 16662 16663 14752 14754 16664 
2312 2346 2313 2015 16665 16666 16440 16430 16663 16435 
2015 2048 2345 2346 14746 16657 16661 16663 16662 16667 
2312 2346 2015 2345 16665 16663 16430 16659 16667 16661 
2313 2015 2346 2016 16435 16663 16666 16437 14527 16668 
2346 2015 2049 2016 16663 14752 16664 16668 14527 14753 
2016 2049 2347 2050 14753 16669 16670 14759 14761 16671 
2313 2347 2314 2016 16672 16673 16447 16437 16670 16442 
2016 2049 2346 2347 14753 16664 16668 16670 16669 16674 
2313 2347 2016 2346 16672 16670 16437 16666 16674 16668 
2314 2016 2347 2017 16442 16670 16673 16444 14534 16675 
2347 2016 2050 2017 16670 14759 16671 16675 14534 14760 
2017 2050 2348 2051 14760 16676 16677 14766 14768 16678 
2314 2348 2315 2017 16679 16680 16454 16444 16677 16449 
2017 2050 2347 2348 14760 16671 16675 16677 16676 16681 
2314 2348 2017 2347 16679 16677 16444 16673 16681 16675 
2315 2017 2348 2018 16449 16677 16680 16451 14541 16682 
2348 2017 2051 2018 16677 14766 16678 16682 14541 14767 
2018 2051 2349 2052 14767 16683 16684 14773 14775 16685 
2315 2349 2316 2018 16686 16687 16461 16451 16684 16456 
2018 2051 2348 2349 14767 16678 16682 16684 16683 16688 
2315 2349 2018 2348 16686 16684 16451 16680 16688 16682 
2316 2018 2349 2019 16456 16684 16687 16458 14548 16689 
2349 2018 2052 2019 16684 14773 16685 16689 14548 14774 
2019 2052 2350 2053 14774 16690 16691 14780 14782 16692 
2316 2350 2317 2019 16693 16694 16468 16458 16691 16463 
2019 2052 2349 2350 14774 16685 16689 16691 16690 16695 
2316 2350 2019 2349 16693 16691 16458 16687 16695 16689 
2317 2019 2350 2020 16463 16691 16694 16465 14555 16696 
2350 2019 2053 2020 16691 14780 16692 16696 14555 14781 
2020 2053 2351 2054 14781 16697 16698 14787 14789 16699 
2317 2351 2318 2020 16700 16701 16475 16465 16698 16470 
2020 2053 2350 2351 14781 16692 16696 16698 16697 16702 
2317 2351 2020 2350 16700 16698 16465 16694 16702 16696 
2318 2020 2351 2021 16470 16698 16701 16472 14562 16703 
2351 2020 2054 2021 16698 14787 16699 16703 14562 14788 
2021 2054 2352 2055 14788 16704 16705 14794 14796 16706 
2318 2352 2319 2021 16707 16708 16482 16472 16705 16477 
2021 2054 2351 2352 14788 16699 16703 16705 16704 16709 
2318 2352 2021 2351 16707 16705 16472 16701 16709 16703 
2319 2021 2352 2022 16477 16705 16708 16479 14569 16710 
2352 2021 2055 2022 16705 14794 16706 16710 14569 14795 
2022 2055 2353 2056 14795 16711 16712 14801 14803 16713 
2319 2353 2320 2022 16714 16715 16489 16479 16712 16484 
2022 2055 2352 2353 14795 16706 16710 16712 16711 16716 
2319 2353 2022 2352 16714 16712 16479 16708 16716 16710 
2320 2022 2353 2023 16484 16712 16715 16486 14576 16717 
2353 2022 2056 2023 16712 14801 16713 16717 14576 14802 
2023 2056 2354 2057 14802 16718 16719 14808 14810 16720 
2320 2354 2321 2023 16721 16722 16496 16486 16719 16491 
2023 2056 2353 2354 14802 16713 16717 16719 16718 16723 
2320 2354 2023 2353 16721 16719 16486 16715 16723 16717 
2321 2023 2354 2024 16491 16719 16722 16493 14583 16724 
2354 2023 2057 2024 16719 14808 16720 16724 14583 14809 
2024 2057 2355 2058 14809 16725 16726 14815 14817 16727 
2321 2355 2322 2024 16728 16729 16503 16493 16726 16498 
2024 2057 2354 2355 14809 16720 16724 16726 16725 16730 
2321 2355 2024 2354 16728 16726 16493 16722 16730 16724 
2322 2024 2355 2025 16498 16726 16729 16500 14590 16731 
2355 2024 2058 2025 16726 14815 16727 16731 14590 14816 
2025 2058 2356 2059 14816 16732 16733 14822 14824 16734 
2322 2356 2323 2025 16735 16736 16510 16500 16733 16505 
2025 2058 2355 2356 14816 16727 16731 16733 16732 16737 
2322 2356 2025 2355 16735 16733 16500 16729 16737 16731 
2323 2025 2356 2026 16505 16733 16736 16507 14597 16738 
2356 2025 2059 2026 16733 14822 16734 16738 14597 14823 
2026 2059 2357 2060 14823 16739 16740 14829 14831 16741 
2323 2357 2324 2026 16742 16743 16517 16507 16740 16512 
2026 2059 2356 2357 14823 16734 16738 16740 16739 16744 
2323 2357 2026 2356 16742 16740 16507 16736 16744 16738 
2324 2026 2357 2027 16512 16740 16743 16514 14604 16745 
2357 2026 2060 2027 16740 14829 16741 16745 14604 14830 
2027 2060 2358 2061 14830 16746 16747 14836 14838 16748 
2324 2358 2325 2027 16749 16750 16524 16514 16747 16519 
2027 2060 2357 2358 14830 16741 16745 16747 16746 16751 
2324 2358 2027 2357 16749 16747 16514 16743 16751 16745 
2325 2027 2358 2028 16519 16747 16750 16521 14611 16752 
2358 2027 2061 2028 16747 14836 16748 16752 14611 14837 
2028 2061 2359 2062 14837 16753 16754 14843 14845 16755 
2325 2359 2326 2028 16756 16757 16531 16521 16754 16526 
2028 2061 2358 2359 14837 16748 16752 16754 16753 16758 
2325 2359 2028 2358 16756 16754 16521 16750 16758 16752 
2326 2028 2359 2029 16526 16754 16757 16528 14618 16759 
2359 2028 2062 2029 16754 14843 16755 16759 14618 14844 
2029 2062 2360 2063 14844 16760 16761 14850 14852 16762 
2326 2360 2327 2029 16763 16764 16538 16528 16761 16533 
2029 2062 2359 2360 14844 16755 16759 16761 16760 16765 
2326 2360 2029 2359 16763 16761 16528 16757 16765 16759 
2327 2029 2360 2030 16533 16761 16764 16535 14625 16766 
2360 2029 2063 2030 16761 14850 16762 16766 14625 14851 
2030 2063 2361 2064 14851 16767 16768 14857 14859 16769 
2327 2361 2328 2030 16770 16771 16545 16535 16768 16540 
2030 2063 2360 2361 14851 16762 16766 16768 16767 16772 
2327 2361 2030 2360 16770 16768 16535 16764 16772 16766 
2328 2030 2361 2031 16540 16768 16771 16542 14632 16773 
2361 2030 2064 2031 16768 14857 16769 16773 14632 14858 
2031 2064 2362 2065 14858 16774 16775 14864 14866 16776 
2328 2362 2329 2031 16777 16778 16552 16542 16775 16547 
2031 2064 2361 2362 14858 16769 16773 16775 16774 16779 
2328 2362 2031 2361 16777 16775 16542 16771 16779 16773 
2329 2031 2362 2032 16547 16775 16778 16549 14639 16780 
2362 2031 2065 2032 16775 14864 16776 16780 14639 14865 
2032 2065 2363 2066 14865 16781 16782 14871 14873 16783 
2329 2363 2330 2032 16784 16785 16559 16549 16782 16554 
2032 2065 2362 2363 14865 16776 16780 16782 16781 16786 
2329 2363 2032 2362 16784 16782 16549 16778 16786 16780 
2330 2032 2363 2033 16554 16782 16785 16556 14646 16787 
2363 2032 2066 2033 16782 14871 16783 16787 14646 14872 
2033 2066 2364 2067 14872 16788 16789 14878 14880 16790 
2330 2364 2331 2033 16791 16792 16566 16556 16789 16561 
2033 2066 2363 2364 14872 16783 16787 16789 16788 16793 
2330 2364 2033 2363 16791 16789 16556 16785 16793 16787 
2331 2033 2364 2034 16561 16789 16792 16563 14653 16794 
2364 2033 2067 2034 16789 14878 16790 16794 14653 14879 
2034 2067 2365 2068 14879 16795 16796 14885 14887 16797 
2331 2365 2332 2034 16798 16799 16573 16563 16796 16568 
2034 2067 2364 2365 14879 16790 16794 16796 16795 16800 
2331 2365 2034 2364 16798 16796 16563 16792 16800 16794 
2332 2034 2365 2035 16568 16796 16799 16570 14660 16801 
2365 2034 2068 2035 16796 14885 16797 16801 14660 14886 
2035 2068 2366 2069 14886 16802 16803 14892 14894 16804 
2332 2366 2333 2035 16805 16806 16580 16570 16803 16575 
2035 2068 2365 2366 14886 16797 16801 16803 16802 16807 
2332 2366 2035 2365 16805 16803 16570 16799 16807 16801 
2333 2035 2366 2036 16575 16803 16806 16577 14667 16808 
2366 2035 2069 2036 16803 14892 16804 16808 14667 14893 
2036 2069 2367 2070 14893 16809 16810 14899 14901 16811 
2333 2367 2334 2036 16812 16813 16587 16577 16810 16582 
2036 2069 2366 2367 14893 16804 16808 16810 16809 16814 
2333 2367 2036 2366 16812 16810 16577 16806 16814 16808 
2334 2036 2367 2037 16582 16810 16813 16584 14674 16815 
2367 2036 2070 2037 16810 14899 16811 16815 14674 14900 
2037 2070 2368 2071 14900 16816 16817 14906 14908 16818 
2334 2368 2335 2037 16819 16820 16594 16584 16817 16589 
2037 2070 2367 2368 14900 16811 16815 16817 16816 16821 
2334 2368 2037 2367 16819 16817 16584 16813 16821 16815 
2335 2037 2368 2038 16589 16817 16820 16591 14681 16822 
2368 2037 2071 2038 16817 14906 16818 16822 14681 14907 
2038 2071 2369 2072 14907 16823 16824 14913 14915 16825 
2335 2369 2336 2038 16826 16827 16601 16591 16824 16596 
2038 2071 2368 2369 14907 16818 16822 16824 16823 16828 
2335 2369 2038 2368 16826 16824 16591 16820 16828 16822 
2336 2038 2369 2039 16596 16824 16827 16598 14688 16829 
2369 2038 2072 2039 16824 14913 16825 16829 14688 14914 
2039 2072 2370 2073 14914 16830 16831 14920 14922 16832 
2336 2370 2337 2039 16833 16834 16608 16598 16831 16603 
2039 2072 2369 2370 14914 16825 16829 16831 16830 16835 
2336 2370 2039 2369 16833 16831 16598 16827 16835 16829 
2337 2039 2370 2040 16603 16831 16834 16605 14695 16836 
2370 2039 2073 2040 16831 14920 16832 16836 14695 14921 
2040 2073 2371 2074 14921 16837 16838 14927 14929 16839 
2337 2371 2338 2040 16840 16841 16615 16605 16838 16610 
2040 2073 2370 2371 14921 16832 16836 16838 16837 16842 
2337 2371 2040 2370 16840 16838 16605 16834 16842 16836 
2338 2040 2371 2041 16610 16838 16841 16612 14702 16843 
2371 2040 2074 2041 16838 14927 16839 16843 14702 14928 
2041 2074 2372 2075 14928 16844 16845 14934 14936 16846 
2338 2372 2339 2041 16847 16848 16622 16612 16845 16617 
2041 2074 2371 2372 14928 16839 16843 16845 16844 16849 
2338 2372 2041 2371 16847 16845 16612 16841 16849 16843 
2339 2041 2372 2042 16617 16845 16848 16619 14709 16850 
2372 2041 2075 2042 16845 14934 16846 16850 14709 14935 
2042 2075 2373 2076 14935 16851 16852 14941 14943 16853 
2339 2373 2340 2042 16854 16855 16629 16619 16852 16624 
2042 2075 2372 2373 14935 16846 16850 16852 16851 16856 
2339 2373 2042 2372 16854 16852 16619 16848 16856 16850 
2340 2042 2373 2043 16624 16852 16855 16626 14716 16857 
2373 2042 2076 2043 16852 14941 16853 16857 14716 14942 
2043 2076 2374 2077 14942 16858 16859 14948 14950 16860 
2340 2374 2341 2043 16861 16862 16636 16626 16859 16631 
2043 2076 2373 2374 14942 16853 16857 16859 16858 16863 
2340 2374 2043 2373 16861 16859 16626 16855 16863 16857 
2341 2043 2374 2044 16631 16859 16862 16633 14723 16864 
2374 2043 2077 2044 16859 14948 16860 16864 14723 14949 
2044 2077 2375 2078 14949 16865 16866 14955 14957 16867 
2341 2375 2342 2044 16868 16869 16643 16633 16866 16638 
2044 2077 2374 2375 14949 16860 16864 16866 16865 16870 
2341 2375 2044 2374 16868 16866 16633 16862 16870 16864 
2342 2044 2375 2045 16638 16866 16869 16640 14730 16871 
2375 2044 2078 2045 16866 14955 16867 16871 14730 14956 
2079 2112 2410 2113 14970 16872 16873 14962 14969 16874 
2376 2410 2377 2079 16875 16876 16877 16878 16873 16879 
2079 2112 2409 2410 14970 16880 16881 16873 16872 16882 
2376 2410 2079 2409 16875 16873 16878 16883 16882 16881 
2377 2079 2410 2080 16879 16873 16876 16884 14964 16885 
2410 2079 2113 2080 16873 14962 16874 16885 14964 14963 
2080 2113 2411 2114 14963 16886 16887 14976 14980 16888 
2377 2411 2378 2080 16889 16890 16891 16884 16887 16892 
2080 2113 2410 2411 14963 16874 16885 16887 16886 16893 
2377 2411 2080 2410 16889 16887 16884 16876 16893 16885 
2378 2080 2411 2081 16892 16887 16890 16894 14978 16895 
2411 2080 2114 2081 16887 14976 16888 16895 14978 14977 
2081 2114 2412 2115 14977 16896 16897 14986 14990 16898 
2378 2412 2379 2081 16899 16900 16901 16894 16897 16902 
2081 2114 2411 2412 14977 16888 16895 16897 16896 16903 
2378 2412 2081 2411 16899 16897 16894 16890 16903 16895 
2379 2081 2412 2082 16902 16897 16900 16904 14988 16905 
2412 2081 2115 2082 16897 14986 16898 16905 14988 14987 
2082 2115 2413 2116 14987 16906 16907 14996 15000 16908 
2379 2413 2380 2082 16909 16910 16911 16904 16907 16912 
2082 2115 2412 2413 14987 16898 16905 16907 16906 16913 
2379 2413 2082 2412 16909 16907 16904 16900 16913 16905 
2380 2082 2413 2083 16912 16907 16910 16914 14998 16915 
2413 2082 2116 2083 16907 14996 16908 16915 14998 14997 
2083 2116 2414 2117 14997 16916 16917 15006 15010 16918 
2380 2414 2381 2083 16919 16920 16921 16914 16917 16922 
2083 2116 2413 2414 14997 16908 16915 16917 16916 16923 
2380 2414 2083 2413 16919 16917 16914 16910 16923 16915 
2381 2083 2414 2084 16922 16917 16920 16924 15008 16925 
2414 2083 2117 2084 16917 15006 16918 16925 15008 15007 
2084 2117 2415 2118 15007 16926 16927 15016 15020 16928 
2381 2415 2382 2084 16929 16930 16931 16924 16927 16932 
2084 2117 2414 2415 15007 16918 16925 16927 16926 16933 
2381 2415 2084 2414 16929 16927 16924 16920 16933 16925 
2382 2084 2415 2085 16932 16927 16930 16934 15018 16935 
2415 2084 2118 2085 16927 15016 16928 16935 15018 15017 
2085 2118 2416 2119 15017 16936 16937 15026 15030 16938 
2382 2416 2383 2085 16939 16940 16941 16934 16937 16942 
2085 2118 2415 2416 15017 16928 16935 16937 16936 16943 
2382 2416 2085 2415 16939 16937 16934 16930 16943 16935 
2383 2085 2416 2086 16942 16937 16940 16944 15028 16945 
2416 2085 2119 2086 16937 15026 16938 16945 15028 15027 
2086 2119 2417 2120 15027 16946 16947 15036 15040 16948 
2383 2417 2384 2086 16949 16950 16951 16944 16947 16952 
2086 2119 2416 2417 15027 16938 16945 16947 16946 16953 
2383 2417 2086 2416 16949 16947 16944 16940 16953 16945 
2384 2086 2417 2087 16952 16947 16950 16954 15038 16955 
2417 2086 2120 2087 16947 15036 16948 16955 15038 15037 
2087 2120 2418 2121 15037 16956 16957 15046 15050 16958 
2384 2418 2385 2087 16959 16960 16961 16954 16957 16962 
2087 2120 2417 2418 15037 16948 16955 16957 16956 16963 
2384 2418 2087 2417 16959 16957 16954 16950 16963 16955 
2385 2087 2418 2088 16962 16957 16960 16964 15048 16965 
2418 2087 2121 2088 16957 15046 16958 16965 15048 15047 
2088 2121 2419 2122 15047 16966 16967 15056 15060 16968 
2385 2419 2386 2088 16969 16970 16971 16964 16967 16972 
2088 2121 2418 2419 15047 16958 16965 16967 16966 16973 
2385 2419 2088 2418 16969 16967 16964 16960 16973 16965 
2386 2088 2419 2089 16972 16967 16970 16974 15058 16975 
2419 2088 2122 2089 16967 15056 16968 16975 15058 15057 
2089 2122 2420 2123 15057 16976 16977 15066 15070 16978 
2386 2420 2387 2089 16979 16980 16981 16974 16977 16982 
2089 2122 2419 2420 15057 16968 16975 16977 16976 16983 
2386 2420 2089 2419 16979 16977 16974 16970 16983 16975 
2387 2089 2420 2090 16982 16977 16980 16984 15068 16985 
2420 2089 2123 2090 16977 15066 16978 16985 15068 15067 
2090 2123 2421 2124 15067 16986 16987 15076 15080 16988 
2387 2421 2388 2090 16989 16990 16991 16984 16987 16992 
2090 2123 2420 2421 15067 16978 16985 16987 16986 16993 
2387 2421 2090 2420 16989 16987 16984 16980 16993 16985 
2388 2090 2421 2091 16992 16987 16990 16994 15078 16995 
2421 2090 2124 2091 16987 15076 16988 16995 15078 15077 
2091 2124 2422 2125 15077 16996 16997 15086 15090 16998 
2388 2422 2389 2091 16999 17000 17001 16994 16997 17002 
2091 2124 2421 2422 15077 16988 16995 16997 16996 17003 
2388 2422 2091 2421 16999 16997 16994 16990 17003 16995 
2389 2091 2422 2092 17002 16997 17000 17004 15088 17005 
2422 2091 2125 2092 16997 15086 16998 17005 15088 15087 
2092 2125 2423 2126 15087 17006 17007 15096 15100 17008 
2389 2423 2390 2092 17009 17010 17011 17004 17007 17012 
2092 2125 2422 2423 15087 16998 17005 17007 17006 17013 
2389 2423 2092 2422 17009 17007 17004 17000 17013 17005 
2390 2092 2423 2093 17012 17007 17010 17014 15098 17015 
2423 2092 2126 2093 17007 15096 17008 17015 15098 15097 
2093 2126 2424 2127 15097 17016 17017 15106 15110 17018 
2390 2424 2391 2093 17019 17020 17021 17014 17017 17022 
2093 2126 2423 2424 15097 17008 17015 17017 17016 17023 
2390 2424 2093 2423 17019 17017 17014 17010 17023 17015 
2391 2093 2424 2094 17022 17017 17020 17024 15108 17025 
2424 2093 2127 2094 17017 15106 17018 17025 15108 15107 
2094 2127 2425 2128 15107 17026 17027 15116 15120 17028 
2391 2425 2392 2094 17029 17030 17031 17024 17027 17032 
2094 2127 2424 2425 15107 17018 17025 17027 17026 17033 
2391 2425 2094 2424 17029 17027 17024 17020 17033 17025 
2392 2094 2425 2095 17032 17027 17030 17034 15118 17035 
2425 2094 2128 2095 17027 15116 17028 17035 15118 15117 
2095 2128 2426 2129 15117 17036 17037 15126 15130 17038 
2392 2426 2393 2095 17039 17040 17041 17034 17037 17042 
2095 2128 2425 2426 15117 17028 17035 17037 17036 17043 
2392 2426 2095 2425 17039 17037 17034 17030 17043 17035 
2393 2095 2426 2096 17042 17037 17040 17044 15128 17045 
2426 2095 2129 2096 17037 15126 17038 17045 15128 15127 
2096 2129 2427 2130 15127 17046 17047 15136 15140 17048 
2393 2427 2394 2096 17049 17050 17051 17044 17047 17052 
2096 2129 2426 2427 15127 17038 17045 17047 17046 17053 
2393 2427 2096 2426 17049 17047 17044 17040 17053 17045 
2394 2096 2427 2097 17052 17047 17050 17054 15138 17055 
2427 2096 2130 2097 17047 15136 17048 17055 15138 15137 
2097 2130 2428 2131 15137 17056 17057 15146 15150 17058 
2394 2428 2395 2097 17059 17060 17061 17054 17057 17062 
2097 2130 2427 2428 15137 17048 17055 17057 17056 17063 
2394 2428 2097 2427 17059 17057 17054 17050 17063 17055 
2395 2097 2428 2098 17062 17057 17060 17064 15148 17065 
2428 2097 2131 2098 17057 15146 17058 17065 15148 15147 
2098 2131 2429 2132 15147 17066 17067 15156 15160 17068 
2395 2429 2396 2098 17069 17070 17071 17064 17067 17072 
2098 2131 2428 2429 15147 17058 17065 17067 17066 17073 
2395 2429 2098 2428 17069 17067 17064 17060 17073 17065 
2396 2098 2429 2099 17072 17067 17070 17074 15158 17075 
2429 2098 2132 2099 17067 15156 17068 17075 15158 15157 
2099 2132 2430 2133 15157 17076 17077 15166 15170 17078 
2396 2430 2397 2099 17079 17080 17081 17074 17077 17082 
2099 2132 2429 2430 15157 17068 17075 17077 17076 17083 
2396 2430 2099 2429 17079 17077 17074 17070 17083 17075 
2397 2099 2430 2100 17082 17077 17080 17084 15168 17085 
2430 2099 2133 2100 17077 15166 17078 17085 15168 15167 
2100 2133 2431 2134 15167 17086 17087 15176 15180 17088 
2397 2431 2398 2100 17089 17090 17091 17084 17087 17092 
2100 2133 2430 2431 15167 17078 17085 17087 17086 17093 
2397 2431 2100 2430 17089 17087 17084 17080 17093 17085 
2398 2100 2431 2101 17092 17087 17090 17094 15178 17095 
2431 2100 2134 2101 17087 15176 17088 17095 15178 15177 
2101 2134 2432 2135 15177 17096 17097 15186 15190 17098 
2398 2432 2399 2101 17099 17100 17101 17094 17097 17102 
2101 2134 2431 2432 15177 17088 17095 17097 17096 17103 
2398 2432 2101 2431 17099 17097 17094 17090 17103 17095 
2399 2101 2432 2102 17102 17097 17100 17104 15188 17105 
2432 2101 2135 2102 17097 15186 17098 17105 15188 15187 
2102 2135 2433 2136 15187 17106 17107 15196 15200 17108 
2399 2433 2400 2102 17109 17110 17111 17104 17107 17112 
2102 2135 2432 2433 15187 17098 17105 17107 17106 17113 
2399 2433 2102 2432 17109 17107 17104 17100 17113 17105 
2400 2102 2433 2103 17112 17107 17110 17114 15198 17115 
2433 2102 2136 2103 17107 15196 17108 17115 15198 15197 
2103 2136 2434 2137 15197 17116 17117 15206 15210 17118 
2400 2434 2401 2103 17119 17120 17121 17114 17117 17122 
2103 2136 2433 2434 15197 17108 17115 17117 17116 17123 
2400 2434 2103 2433 17119 17117 17114 17110 17123 17115 
2401 2103 2434 2104 17122 17117 17120 17124 15208 17125 
2434 2103 2137 2104 17117 15206 17118 17125 15208 15207 
2104 2137 2435 2138 15207 17126 17127 15216 15220 17128 
2401 2435 2402 2104 17129 17130 17131 17124 17127 17132 
2104 2137 2434 2435 15207 17118 17125 17127 17126 17133 
2401 2435 2104 2434 17129 17127 17124 17120 17133 17125 
2402 2104 2435 2105 17132 17127 17130 17134 15218 17135 
2435 2104 2138 2105 17127 15216 17128 17135 15218 15217 
2105 2138 2436 2139 15217 17136 17137 15226 15230 17138 
2402 2436 2403 2105 17139 17140 17141 17134 17137 17142 
2105 2138 2435 2436 15217 17128 17135 17137 17136 17143 
2402 2436 2105 2435 17139 17137 17134 17130 17143 17135 
2403 2105 2436 2106 17142 17137 17140 17144 15228 17145 
2436 2105 2139 2106 17137 15226 17138 17145 15228 15227 
2106 2139 2437 2140 15227 17146 17147 15236 15240 17148 
2403 2437 2404 2106 17149 17150 17151 17144 17147 17152 
2106 2139 2436 2437 15227 17138 17145 17147 17146 17153 
2403 2437 2106 2436 17149 17147 17144 17140 17153 17145 
2404 2106 2437 2107 17152 17147 17150 17154 15238 17155 
2437 2106 2140 2107 17147 15236 17148 17155 15238 15237 
2107 2140 2438 2141 15237 17156 17157 15246 15250 17158 
2404 2438 2405 2107 17159 17160 17161 17154 17157 17162 
2107 2140 2437 2438 15237 17148 17155 17157 17156 17163 
2404 2438 2107 2437 17159 17157 17154 17150 17163 17155 
2405 2107 2438 2108 17162 17157 17160 17164 15248 17165 
2438 2107 2141 2108 17157 15246 17158 17165 15248 15247 
2108 2141 2439 2142 15247 17166 17167 15256 15260 17168 
2405 2439 2406 2108 17169 17170 17171 17164 17167 17172 
2108 2141 2438 2439 15247 17158 17165 17167 17166 17173 
2405 2439 2108 2438 17169 17167 17164 17160 17173 17165 
2406 2108 2439 2109 17172 17167 17170 17174 15258 17175 
2439 2108 2142 2109 17167 15256 17168 17175 15258 15257 
2109 2142 2440 2143 15257 17176 17177 15266 15270 17178 
2406 2440 2407 2109 17179 17180 17181 17174 17177 17182 
2109 2142 2439 2440 15257 17168 17175 17177 17176 17183 
2406 2440 2109 2439 17179 17177 17174 17170 17183 17175 
2407 2109 2440 2110 17182 17177 17180 17184 15268 17185 
2440 2109 2143 2110 17177 15266 17178 17185 15268 15267 
2110 2143 2441 2144 15267 17186 17187 15276 15280 17188 
2407 2441 2408 2110 17189 17190 17191 17184 17187 17192 
2110 2143 2440 2441 15267 17178 17185 17187 17186 17193 
2407 2441 2110 2440 17189 17187 17184 17180 17193 17185 
2408 2110 2441 2111 17192 17187 17190 17194 15278 17195 
2441 2110 2144 2111 17187 15276 17188 17195 15278 15277 
2112 2145 2443 2146 15291 17196 17197 15286 15290 17198 
2409 2443 2410 2112 17199 17200 16882 16880 17197 16872 
2112 2145 2442 2443 15291 17201 17202 17197 17196 17203 
2409 2443 2112 2442 17199 17197 16880 17204 17203 17202 
2410 2112 2443 2113 16872 17197 17200 16874 14969 17205 
2443 2112 2146 2113 17197 15286 17198 17205 14969 15287 
2113 2146 2444 2147 15287 17206 17207 15296 15298 17208 
2410 2444 2411 2113 17209 17210 16893 16874 17207 16886 
2113 2146 2443 2444 15287 17198 17205 17207 17206 17211 
2410 2444 2113 2443 17209 17207 16874 17200 17211 17205 
2411 2113 2444 2114 16886 17207 17210 16888 14980 17212 
2444 2113 2147 2114 17207 15296 17208 17212 14980 15297 
2114 2147 2445 2148 15297 17213 17214 15303 15305 17215 
2411 2445 2412 2114 17216 17217 16903 16888 17214 16896 
2114 2147 2444 2445 15297 17208 17212 17214 17213 17218 
2411 2445 2114 2444 17216 17214 16888 17210 17218 17212 
2412 2114 2445 2115 16896 17214 17217 16898 14990 17219 
2445 2114 2148 2115 17214 15303 17215 17219 14990 15304 
2115 2148 2446 2149 15304 17220 17221 15310 15312 17222 
2412 2446 2413 2115 17223 17224 16913 16898 17221 16906 
2115 2148 2445 2446 15304 17215 17219 17221 17220 17225 
2412 2446 2115 2445 17223 17221 16898 17217 17225 17219 
2413 2115 2446 2116 16906 17221 17224 16908 15000 17226 
2446 2115 2149 2116 17221 15310 17222 17226 15000 15311 
2116 2149 2447 2150 15311 17227 17228 15317 15319 17229 
2413 2447 2414 2116 17230 17231 16923 16908 17228 16916 
2116 2149 2446 2447 15311 17222 17226 17228 17227 17232 
2413 2447 2116 2446 17230 17228 16908 17224 17232 17226 
2414 2116 2447 2117 16916 17228 17231 16918 15010 17233 
2447 2116 2150 2117 17228 15317 17229 17233 15010 15318 
2117 2150 2448 2151 15318 17234 17235 15324 15326 17236 
2414 2448 2415 2117 17237 17238 16933 16918 17235 16926 
2117 2150 2447 2448 15318 17229 17233 17235 17234 17239 
2414 2448 2117 2447 17237 17235 16918 17231 17239 17233 
2415 2117 2448 2118 16926 17235 17238 16928 15020 17240 
2448 2117 2151 2118 17235 15324 17236 17240 15020 15325 
2118 2151 2449 2152 15325 17241 17242 15331 15333 17243 
2415 2449 2416 2118 17244 17245 16943 16928 17242 16936 
2118 2151 2448 2449 15325 17236 17240 17242 17241 17246 
2415 2449 2118 2448 17244 17242 16928 17238 17246 17240 
2416 2118 2449 2119 16936 17242 17245 16938 15030 17247 
2449 2118 2152 2119 17242 15331 17243 17247 15030 15332 
2119 2152 2450 2153 15332 17248 17249 15338 15340 17250 
2416 2450 2417 2119 17251 17252 16953 16938 17249 16946 
2119 2152 2449 2450 15332 17243 17247 17249 17248 17253 
2416 2450 2119 2449 17251 17249 16938 17245 17253 17247 
2417 2119 2450 2120 16946 17249 17252 16948 15040 17254 
2450 2119 2153 2120 17249 15338 17250 17254 15040 15339 
2120 2153 2451 2154 15339 17255 17256 15345 15347 17257 
2417 2451 2418 2120 17258 17259 16963 16948 17256 16956 
2120 2153 2450 2451 15339 17250 17254 17256 17255 17260 
2417 2451 2120 2450 17258 17256 16948 17252 17260 17254 
2418 2120 2451 2121 16956 17256 17259 16958 15050 17261 
2451 2120 2154 2121 17256 15345 17257 17261 15050 15346 
2121 2154 2452 2155 15346 17262 17263 15352 15354 17264 
2418 2452 2419 2121 17265 17266 16973 16958 17263 16966 
2121 2154 2451 2452 15346 17257 17261 17263 17262 17267 
2418 2452 2121 2451 17265 17263 16958 17259 17267 17261 
2419 2121 2452 2122 16966 17263 17266 16968 15060 17268 
2452 2121 2155 2122 17263 15352 17264 17268 15060 15353 
2122 2155 2453 2156 15353 17269 17270 15359 15361 17271 
2419 2453 2420 2122 17272 17273 16983 16968 17270 16976 
2122 2155 2452 2453 15353 17264 17268 17270 17269 17274 
2419 2453 2122 2452 17272 17270 16968 17266 17274 17268 
2420 2122 2453 2123 16976 17270 17273 16978 15070 17275 
2453 2122 2156 2123 17270 15359 17271 17275 15070 15360 
2123 2156 2454 2157 15360 17276 17277 15366 15368 17278 
2420 2454 2421 2123 17279 17280 16993 16978 17277 16986 
2123 2156 2453 2454 15360 17271 17275 17277 17276 17281 
2420 2454 2123 2453 17279 17277 16978 17273 17281 17275 
2421 2123 2454 2124 16986 17277 17280 16988 15080 17282 
2454 2123 2157 2124 17277 15366 17278 17282 15080 15367 
2124 2157 2455 2158 15367 17283 17284 15373 15375 17285 
2421 2455 2422 2124 17286 17287 17003 16988 17284 16996 
2124 2157 2454 2455 15367 17278 17282 17284 17283 17288 
2421 2455 2124 2454 17286 17284 16988 17280 17288 17282 
2422 2124 2455 2125 16996 17284 17287 16998 15090 17289 
2455 2124 2158 2125 17284 15373 17285 17289 15090 15374 
2125 2158 2456 2159 15374 17290 17291 15380 15382 17292 
2422 2456 2423 2125 17293 17294 17013 16998 17291 17006 
2125 2158 2455 2456 15374 17285 17289 17291 17290 17295 
2422 2456 2125 2455 17293 17291 16998 17287 17295 17289 
2423 2125 2456 2126 17006 17291 17294 17008 15100 17296 
2456 2125 2159 2126 17291 15380 17292 17296 15100 15381 
2126 2159 2457 2160 15381 17297 17298 15387 15389 17299 
2423 2457 2424 2126 17300 17301 17023 17008 17298 17016 
2126 2159 2456 2457 15381 17292 17296 17298 17297 17302 
2423 2457 2126 2456 17300 17298 17008 17294 17302 17296 
2424 2126 2457 2127 17016 17298 17301 17018 15110 17303 
2457 2126 2160 2127 17298 15387 17299 17303 15110 15388 
2127 2160 2458 2161 15388 17304 17305 15394 15396 17306 
2424 2458 2425 2127 17307 17308 17033 17018 17305 17026 
2127 2160 2457 2458 15388 17299 17303 17305 17304 17309 
2424 2458 2127 2457 17307 17305 17018 17301 17309 17303 
2425 2127 2458 2128 17026 17305 17308 17028 15120 17310 
2458 2127 2161 2128 17305 15394 17306 17310 15120 15395 
2128 2161 2459 2162 15395 17311 17312 15401 15403 17313 
2425 2459 2426 2128 17314 17315 17043 17028 17312 17036 
2128 2161 2458 2459 15395 17306 17310 17312 17311 17316 
2425 2459 2128 2458 17314 17312 17028 17308 17316 17310 
2426 2128 2459 2129 17036 17312 17315 17038 15130 17317 
2459 2128 2162 2129 17312 15401 17313 17317 15130 15402 
2129 2162 2460 2163 15402 17318 17319 15408 15410 17320 
2426 2460 2427 2129 17321 17322 17053 17038 17319 17046 
2129 2162 2459 2460 15402 17313 17317 17319 17318 17323 
2426 2460 2129 2459 17321 17319 17038 17315 17323 17317 
2427 2129 2460 2130 17046 17319 17322 17048 15140 17324 
2460 2129 2163 2130 17319 15408 17320 17324 15140 15409 
2130 2163 2461 2164 15409 17325 17326 15415 15417 17327 
2427 2461 2428 2130 17328 17329 17063 17048 17326 17056 
2130 2163 2460 2461 15409 17320 17324 17326 17325 17330 
2427 2461 2130 2460 17328 17326 17048 17322 17330 17324 
2428 2130 2461 2131 17056 17326 17329 17058 15150 17331 
2461 2130 2164 2131 17326 15415 17327 17331 15150 15416 
2131 2164 2462 2165 15416 17332 17333 15422 15424 17334 
2428 2462 2429 2131 17335 17336 17073 17058 17333 17066 
2131 2164 2461 2462 15416 17327 17331 17333 17332 17337 
2428 2462 2131 2461 17335 17333 17058 17329 17337 17331 
2429 2131 2462 2132 17066 17333 17336 17068 15160 17338 
2462 2131 2165 2132 17333 15422 17334 17338 15160 15423 
2132 2165 2463 2166 15423 17339 17340 15429 15431 17341 
2429 2463 2430 2132 17342 17343 17083 17068 17340 17076 
2132 2165 2462 2463 15423 17334 17338 17340 17339 17344 
2429 2463 2132 2462 17342 17340 17068 17336 17344 17338 
2430 2132 2463 2133 17076 17340 17343 17078 15170 17345 
2463 2132 2166 2133 17340 15429 17341 17345 15170 15430 
2133 2166 2464 2167 15430 17346 17347 15436 15438 17348 
2430 2464 2431 2133 17349 17350 17093 17078 17347 17086 
2133 2166 2463 2464 15430 17341 17345 17347 17346 17351 
2430 2464 2133 2463 17349 17347 17078 17343 17351 17345 
2431 2133 2464 2134 17086 17347 17350 17088 15180 17352 
2464 2133 2167 2134 17347 15436 17348 17352 15180 15437 
2134 2167 2465 2168 15437 17353 17354 15443 15445 17355 
2431 2465 2432 2134 17356 17357 17103 17088 17354 17096 
2134 2167 2464 2465 15437 17348 17352 17354 17353 17358 
2431 2465 2134 2464 17356 17354 17088 17350 17358 17352 
2432 2134 2465 2135 17096 17354 17357 17098 15190 17359 
2465 2134 2168 2135 17354 15443 17355 17359 15190 15444 
2135 2168 2466 2169 15444 17360 17361 15450 15452 17362 
2432 2466 2433 2135 17363 17364 17113 17098 17361 17106 
2135 2168 2465 2466 15444 17355 17359 17361 17360 17365 
2432 2466 2135 2465 17363 17361 17098 17357 17365 17359 
2433 2135 2466 2136 17106 17361 17364 17108 15200 17366 
2466 2135 2169 2136 17361 15450 17362 17366 15200 15451 
2136 2169 2467 2170 15451 17367 17368 15457 15459 17369 
2433 2467 2434 2136 17370 17371 17123 17108 17368 17116 
2136 2169 2466 2467 15451 17362 17366 17368 17367 17372 
2433 2467 2136 2466 17370 17368 17108 17364 17372 17366 
2434 2136 2467 2137 17116 17368 17371 17118 15210 17373 
2467 2136 2170 2137 17368 15457 17369 17373 15210 15458 
2137 2170 2468 2171 15458 17374 17375 15464 15466 17376 
2434 2468 2435 2137 17377 17378 17133 17118 17375 17126 
2137 2170 2467 2468 15458 17369 17373 17375 17374 17379 
2434 2468 2137 2467 17377 17375 17118 17371 17379 17373 
2435 2137 2468 2138 17126 17375 17378 17128 15220 17380 
2468 2137 2171 2138 17375 15464 17376 17380 15220 15465 
2138 2171 2469 2172 15465 17381 17382 15471 15473 17383 
2435 2469 2436 2138 17384 17385 17143 17128 17382 17136 
2138 2171 2468 2469 15465 17376 17380 17382 17381 17386 
2435 2469 2138 2468 17384 17382 17128 17378 17386 17380 
2436 2138 2469 2139 17136 17382 17385 17138 15230 17387 
2469 2138 2172 2139 17382 15471 17383 17387 15230 15472 
2139 2172 2470 2173 15472 17388 17389 15478 15480 17390 
2436 2470 2437 2139 17391 17392 17153 17138 17389 17146 
2139 2172 2469 2470 15472 17383 17387 17389 17388 17393 
2436 2470 2139 2469 17391 17389 17138 17385 17393 17387 
2437 2139 2470 2140 17146 17389 17392 17148 15240 17394 
2470 2139 2173 2140 17389 15478 17390 17394 15240 15479 
2140 2173 2471 2174 15479 17395 17396 15485 15487 17397 
2437 2471 2438 2140 17398 17399 17163 17148 17396 17156 
2140 2173 2470 2471 15479 17390 17394 17396 17395 17400 
2437 2471 2140 2470 17398 17396 17148 17392 17400 17394 
2438 2140 2471 2141 17156 17396 17399 17158 15250 17401 
2471 2140 2174 2141 17396 15485 17397 17401 15250 15486 
2141 2174 2472 2175 15486 17402 17403 15492 15494 17404 
2438 2472 2439 2141 17405 17406 17173 17158 17403 17166 
2141 2174 2471 2472 15486 17397 17401 17403 17402 17407 
2438 2472 2141 2471 17405 17403 17158 17399 17407 17401 
2439 2141 2472 2142 17166 17403 17406 17168 15260 17408 
2472 2141 2175 2142 17403 15492 17404 17408 15260 15493 
2142 2175 2473 2176 15493 17409 17410 15499 15501 17411 
2439 2473 2440 2142 17412 17413 17183 17168 17410 17176 
2142 2175 2472 2473 15493 17404 17408 17410 17409 17414 
2439 2473 2142 2472 17412 17410 17168 17406 17414 17408 
2440 2142 2473 2143 17176 17410 17413 17178 15270 17415 
2473 2142 2176 2143 17410 15499 17411 17415 15270 15500 
2143 2176 2474 2177 15500 17416 17417 15506 15508 17418 
2440 2474 2441 2143 17419 17420 17193 17178 17417 17186 
2143 2176 2473 2474 15500 17411 17415 17417 17416 17421 
2440 2474 2143 2473 17419 17417 17178 17413 17421 17415 
2441 2143 2474 2144 17186 17417 17420 17188 15280 17422 
2474 2143 2177 2144 17417 15506 17418 17422 15280 15507 
2145 2178 2476 2179 15518 17423 17424 15513 15517 17425 
2442 2476 2443 2145 17426 17427 17203 17201 17424 17196 
2145 2178 2475 2476 15518 17428 17429 17424 17423 17430 
2442 2476 2145 2475 17426 17424 17201 17431 17430 17429 
2443 2145 2476 2146 17196 17424 17427 17198 15290 17432 
2476 2145 2179 2146 17424 15513 17425 17432 15290 15514 
2146 2179 2477 2180 15514 17433 17434 15523 15525 17435 
2443 2477 2444 2146 17436 17437 17211 17198 17434 17206 
2146 2179 2476 2477 15514 17425 17432 17434 17433 17438 
2443 2477 2146 2476 17436 17434 17198 17427 17438 17432 
2444 2146 2477 2147 17206 17434 17437 17208 15298 17439 
2477 2146 2180 2147 17434 15523 17435 17439 15298 15524 
2147 2180 2478 2181 15524 17440 17441 15530 15532 17442 
2444 2478 2445 2147 17443 17444 17218 17208 17441 17213 
2147 2180 2477 2478 15524 17435 17439 17441 17440 17445 
2444 2478 2147 2477 17443 17441 17208 17437 17445 17439 
2445 2147 2478 2148 17213 17441 17444 17215 15305 17446 
2478 2147 2181 2148 17441 15530 17442 17446 15305 15531 
2148 2181 2479 2182 15531 17447 17448 15537 15539 17449 
2445 2479 2446 2148 17450 17451 17225 17215 17448 17220 
2148 2181 2478 2479 15531 17442 17446 17448 17447 17452 
2445 2479 2148 2478 17450 17448 17215 17444 17452 17446 
2446 2148 2479 2149 17220 17448 17451 17222 15312 17453 
2479 2148 2182 2149 17448 15537 17449 17453 15312 15538 
2149 2182 2480 2183 15538 17454 17455 15544 15546 17456 
2446 2480 2447 2149 17457 17458 17232 17222 17455 17227 
2149 2182 2479 2480 15538 17449 17453 17455 17454 17459 
2446 2480 2149 2479 17457 17455 17222 17451 17459 17453 
2447 2149 2480 2150 17227 17455 17458 17229 15319 17460 
2480 2149 2183 2150 17455 15544 17456 17460 15319 15545 
2150 2183 2481 2184 15545 17461 17462 15551 15553 17463 
2447 2481 2448 2150 17464 17465 17239 17229 17462 17234 
2150 2183 2480 2481 15545 17456 17460 17462 17461 17466 
2447 2481 2150 2480 17464 17462 17229 17458 17466 17460 
2448 2150 2481 2151 17234 17462 17465 17236 15326 17467 
2481 2150 2184 2151 17462 15551 17463 17467 15326 15552 
2151 2184 2482 2185 15552 17468 17469 15558 15560 17470 
2448 2482 2449 2151 17471 17472 17246 17236 17469 17241 
2151 2184 2481 2482 15552 17463 17467 17469 17468 17473 
2448 2482 2151 2481 17471 17469 17236 17465 17473 17467 
2449 2151 2482 2152 17241 17469 17472 17243 15333 17474 
2482 2151 2185 2152 17469 15558 17470 17474 15333 15559 
2152 2185 2483 2186 15559 17475 17476 15565 15567 17477 
2449 2483 2450 2152 17478 17479 17253 17243 17476 17248 
2152 2185 2482 2483 15559 17470 17474 17476 17475 17480 
2449 2483 2152 2482 17478 17476 17243 17472 17480 17474 
2450 2152 2483 2153 17248 17476 17479 17250 15340 17481 
2483 2152 2186 2153 17476 15565 17477 17481 15340 15566 
2153 2186 2484 2187 15566 17482 17483 15572 15574 17484 
2450 2484 2451 2153 17485 17486 17260 17250 17483 17255 
2153 2186 2483 2484 15566 17477 17481 17483 17482 17487 
2450 2484 2153 2483 17485 17483 17250 17479 17487 17481 
2451 2153 2484 2154 17255 17483 17486 17257 15347 17488 
2484 2153 2187 2154 17483 15572 17484 17488 15347 15573 
2154 2187 2485 2188 15573 17489 17490 15579 15581 17491 
2451 2485 2452 2154 17492 17493 17267 17257 17490 17262 
2154 2187 2484 2485 15573 17484 17488 17490 17489 17494 
2451 2485 2154 2484 17492 17490 17257 17486 17494 17488 
2452 2154 2485 2155 17262 17490 17493 17264 15354 17495 
2485 2154 2188 2155 17490 15579 17491 17495 15354 15580 
2155 2188 2486 2189 15580 17496 17497 15586 15588 17498 
2452 2486 2453 2155 17499 17500 17274 17264 17497 17269 
2155 2188 2485 2486 15580 17491 17495 17497 17496 17501 
2452 2486 2155 2485 17499 17497 17264 17493 17501 17495 
2453 2155 2486 2156 17269 17497 17500 17271 15361 17502 
2486 2155 2189 2156 17497 15586 17498 17502 15361 15587 
2156 2189 2487 2190 15587 17503 17504 15593 15595 17505 
2453 2487 2454 2156 17506 17507 17281 17271 17504 17276 
2156 2189 2486 2487 15587 17498 17502 17504 17503 17508 
2453 2487 2156 2486 17506 17504 17271 17500 17508 17502 
2454 2156 2487 2157 17276 17504 17507 17278 15368 17509 
2487 2156 2190 2157 17504 15593 17505 17509 15368 15594 
2157 2190 2488 2191 15594 17510 17511 15600 15602 17512 
2454 2488 2455 2157 17513 17514 17288 17278 17511 17283 
2157 2190 2487 2488 15594 17505 17509 17511 17510 17515 
2454 2488 2157 2487 17513 17511 17278 17507 17515 17509 
2455 2157 2488 2158 17283 17511 17514 17285 15375 17516 
2488 2157 2191 2158 17511 15600 17512 17516 15375 15601 
2158 2191 2489 2192 15601 17517 17518 15607 15609 17519 
2455 2489 2456 2158 17520 17521 17295 17285 17518 17290 
2158 2191 2488 2489 15601 17512 17516 17518 17517 17522 
2455 2489 2158 2488 17520 17518 17285 17514 17522 17516 
2456 2158 2489 2159 17290 17518 17521 17292 15382 17523 
2489 2158 2192 2159 17518 15607 17519 17523 15382 15608 
2159 2192 2490 2193 15608 17524 17525 15614 15616 17526 
2456 2490 2457 2159 17527 17528 17302 17292 17525 17297 
2159 2192 2489 2490 15608 17519 17523 17525 17524 17529 
2456 2490 2159 2489 17527 17525 17292 17521 17529 17523 
2457 2159 2490 2160 17297 17525 17528 17299 15389 17530 
2490 2159 2193 2160 17525 15614 17526 17530 15389 15615 
2160 2193 2491 2194 15615 17531 17532 15621 15623 17533 
2457 2491 2458 2160 17534 17535 17309 17299 17532 17304 
2160 2193 2490 2491 15615 17526 17530 17532 17531 17536 
2457 2491 2160 2490 17534 17532 17299 17528 17536 17530 
2458 2160 2491 2161 17304 17532 17535 17306 15396 17537 
2491 2160 2194 2161 17532 15621 17533 17537 15396 15622 
2161 2194 2492 2195 15622 17538 17539 15628 15630 17540 
2458 2492 2459 2161 17541 17542 17316 17306 17539 17311 
2161 2194 2491 2492 15622 17533 17537 17539 17538 17543 
2458 2492 2161 2491 17541 17539 17306 17535 17543 17537 
2459 2161 2492 2162 17311 17539 17542 17313 15403 17544 
2492 2161 2195 2162 17539 15628 17540 17544 15403 15629 
2162 2195 2493 2196 15629 17545 17546 15635 15637 17547 
2459 2493 2460 2162 17548 17549 17323 17313 17546 17318 
2162 2195 2492 2493 15629 17540 17544 17546 17545 17550 
2459 2493 2162 2492 17548 17546 17313 17542 17550 17544 
2460 2162 2493 2163 17318 17546 17549 17320 15410 17551 
2493 2162 2196 2163 17546 15635 17547 17551 15410 15636 
2163 2196 2494 2197 15636 17552 17553 15642 15644 17554 
2460 2494 2461 2163 17555 17556 17330 17320 17553 17325 
2163 2196 2493 2494 15636 17547 17551 17553 17552 17557 
2460 2494 2163 2493 17555 17553 17320 17549 17557 17551 
2461 2163 2494 2164 17325 17553 17556 17327 15417 17558 
2494 2163 2197 2164 17553 15642 17554 17558 15417 15643 
2164 2197 2495 2198 15643 17559 17560 15649 15651 17561 
2461 2495 2462 2164 17562 17563 17337 17327 17560 17332 
2164 2197 2494 2495 15643 17554 17558 17560 17559 17564 
2461 2495 2164 2494 17562 17560 17327 17556 17564 17558 
2462 2164 2495 2165 17332 17560 17563 17334 15424 17565 
2495 2164 2198 2165 17560 15649 17561 17565 15424 15650 
2165 2198 2496 2199 15650 17566 17567 15656 15658 17568 
2462 2496 2463 2165 17569 17570 17344 17334 17567 17339 
2165 2198 2495 2496 15650 17561 17565 17567 17566 17571 
2462 2496 2165 2495 17569 17567 17334 17563 17571 17565 
2463 2165 2496 2166 17339 17567 17570 17341 15431 17572 
2496 2165 2199 2166 17567 15656 17568 17572 15431 15657 
2166 2199 2497 2200 15657 17573 17574 15663 15665 17575 
2463 2497 2464 2166 17576 17577 17351 17341 17574 17346 
2166 2199 2496 2497 15657 17568 17572 17574 17573 17578 
2463 2497 2166 2496 17576 17574 17341 17570 17578 17572 
2464 2166 2497 2167 17346 17574 17577 17348 15438 17579 
2497 2166 2200 2167 17574 15663 17575 17579 15438 15664 
2167 2200 2498 2201 15664 17580 17581 15670 15672 17582 
2464 2498 2465 2167 17583 17584 17358 17348 17581 17353 
2167 2200 2497 2498 15664 17575 17579 17581 17580 17585 
2464 2498 2167 2497 17583 17581 17348 17577 17585 17579 
2465 2167 2498 2168 17353 17581 17584 17355 15445 17586 
2498 2167 2201 2168 17581 15670 17582 17586 15445 15671 
2168 2201 2499 2202 15671 17587 17588 15677 15679 17589 
2465 2499 2466 2168 17590 17591 17365 17355 17588 17360 
2168 2201 2498 2499 15671 17582 17586 17588 17587 17592 
2465 2499 2168 2498 17590 17588 17355 17584 17592 17586 
2466 2168 2499 2169 17360 17588 17591 17362 15452 17593 
2499 2168 2202 2169 17588 15677 17589 17593 15452 15678 
2169 2202 2500 2203 15678 17594 17595 15684 15686 17596 
2466 2500 2467 2169 17597 17598 17372 17362 17595 17367 
2169 2202 2499 2500 15678 17589 17593 17595 17594 17599 
2466 2500 2169 2499 17597 17595 17362 17591 17599 17593 
2467 2169 2500 2170 17367 17595 17598 17369 15459 17600 
2500 2169 2203 2170 17595 15684 17596 17600 15459 15685 
2170 2203 2501 2204 15685 17601 17602 15691 15693 17603 
2467 2501 2468 2170 17604 17605 17379 17369 17602 17374 
2170 2203 2500 2501 15685 17596 17600 17602 17601 17606 
2467 2501 2170 2500 17604 17602 17369 17598 17606 17600 
2468 2170 2501 2171 17374 17602 17605 17376 15466 17607 
2501 2170 2204 2171 17602 15691 17603 17607 15466 15692 
2171 2204 2502 2205 15692 17608 17609 15698 15700 17610 
2468 2502 2469 2171 17611 17612 17386 17376 17609 17381 
2171 2204 2501 2502 15692 17603 17607 17609 17608 17613 
2468 2502 2171 2501 17611 17609 17376 17605 17613 17607 
2469 2171 2502 2172 17381 17609 17612 17383 15473 17614 
2502 2171 2205 2172 17609 15698 17610 17614 15473 15699 
2172 2205 2503 2206 15699 17615 17616 15705 15707 17617 
2469 2503 2470 2172 17618 17619 17393 17383 17616 17388 
2172 2205 2502 2503 15699 17610 17614 17616 17615 17620 
2469 2503 2172 2502 17618 17616 17383 17612 17620 17614 
2470 2172 2503 2173 17388 17616 17619 17390 15480 17621 
2503 2172 2206 2173 17616 15705 17617 17621 15480 15706 
2173 2206 2504 2207 15706 17622 17623 15712 15714 17624 
2470 2504 2471 2173 17625 17626 17400 17390 17623 17395 
2173 2206 2503 2504 15706 17617 17621 17623 17622 17627 
2470 2504 2173 2503 17625 17623 17390 17619 17627 17621 
2471 2173 2504 2174 17395 17623 17626 17397 15487 17628 
2504 2173 2207 2174 17623 15712 17624 17628 15487 15713 
2174 2207 2505 2208 15713 17629 17630 15719 15721 17631 
2471 2505 2472 2174 17632 17633 17407 17397 17630 17402 
2174 2207 2504 2505 15713 17624 17628 17630 17629 17634 
2471 2505 2174 2504 17632 17630 17397 17626 17634 17628 
2472 2174 2505 2175 17402 17630 17633 17404 15494 17635 
2505 2174 2208 2175 17630 15719 17631 17635 15494 15720 
2175 2208 2506 2209 15720 17636 17637 15726 15728 17638 
2472 2506 2473 2175 17639 17640 17414 17404 17637 17409 
2175 2208 2505 2506 15720 17631 17635 17637 17636 17641 
2472 2506 2175 2505 17639 17637 17404 17633 17641 17635 
2473 2175 2506 2176 17409 17637 17640 17411 15501 17642 
2506 2175 2209 2176 17637 15726 17638 17642 15501 15727 
2176 2209 2507 2210 15727 17643 17644 15733 15735 17645 
2473 2507 2474 2176 17646 17647 17421 17411 17644 17416 
2176 2209 2506 2507 15727 17638 17642 17644 17643 17648 
2473 2507 2176 2506 17646 17644 17411 17640 17648 17642 
2474 2176 2507 2177 17416 17644 17647 17418 15508 17649 
2507 2176 2210 2177 17644 15733 17645 17649 15508 15734 
2178 2211 2509 2212 15745 17650 17651 15740 15744 17652 
2475 2509 2476 2178 17653 17654 17430 17428 17651 17423 
2178 2211 2508 2509 15745 17655 17656 17651 17650 17657 
2475 2509 2178 2508 17653 17651 17428 17658 17657 17656 
2476 2178 2509 2179 17423 17651 17654 17425 15517 17659 
2509 2178 2212 2179 17651 15740 17652 17659 15517 15741 
2179 2212 2510 2213 15741 17660 17661 15750 15752 17662 
2476 2510 2477 2179 17663 17664 17438 17425 17661 17433 
2179 2212 2509 2510 15741 17652 17659 17661 17660 17665 
2476 2510 2179 2509 17663 17661 17425 17654 17665 17659 
2477 2179 2510 2180 17433 17661 17664 17435 15525 17666 
2510 2179 2213 2180 17661 15750 17662 17666 15525 15751 
2180 2213 2511 2214 15751 17667 17668 15757 15759 17669 
2477 2511 2478 2180 17670 17671 17445 17435 17668 17440 
2180 2213 2510 2511 15751 17662 17666 17668 17667 17672 
2477 2511 2180 2510 17670 17668 17435 17664 17672 17666 
2478 2180 2511 2181 17440 17668 17671 17442 15532 17673 
2511 2180 2214 2181 17668 15757 17669 17673 15532 15758 
2181 2214 2512 2215 15758 17674 17675 15764 15766 17676 
2478 2512 2479 2181 17677 17678 17452 17442 17675 17447 
2181 2214 2511 2512 15758 17669 17673 17675 17674 17679 
2478 2512 2181 2511 17677 17675 17442 17671 17679 17673 
2479 2181 2512 2182 17447 17675 17678 17449 15539 17680 
2512 2181 2215 2182 17675 15764 17676 17680 15539 15765 
2182 2215 2513 2216 15765 17681 17682 15771 15773 17683 
2479 2513 2480 2182 17684 17685 17459 17449 17682 17454 
2182 2215 2512 2513 15765 17676 17680 17682 17681 17686 
2479 2513 2182 2512 17684 17682 17449 17678 17686 17680 
2480 2182 2513 2183 17454 17682 17685 17456 15546 17687 
2513 2182 2216 2183 17682 15771 17683 17687 15546 15772 
2183 2216 2514 2217 15772 17688 17689 15778 15780 17690 
2480 2514 2481 2183 17691 17692 17466 17456 17689 17461 
2183 2216 2513 2514 15772 17683 17687 17689 17688 17693 
2480 2514 2183 2513 17691 17689 17456 17685 17693 17687 
2481 2183 2514 2184 17461 17689 17692 17463 15553 17694 
2514 2183 2217 2184 17689 15778 17690 17694 15553 15779 
2184 2217 2515 2218 15779 17695 17696 15785 15787 17697 
2481 2515 2482 2184 17698 17699 17473 17463 17696 17468 
2184 2217 2514 2515 15779 17690 17694 17696 17695 17700 
2481 2515 2184 2514 17698 17696 17463 17692 17700 17694 
2482 2184 2515 2185 17468 17696 17699 17470 15560 17701 
2515 2184 2218 2185 17696 15785 17697 17701 15560 15786 
2185 2218 2516 2219 15786 17702 17703 15792 15794 17704 
2482 2516 2483 2185 17705 17706 17480 17470 17703 17475 
2185 2218 2515 2516 15786 17697 17701 17703 17702 17707 
2482 2516 2185 2515 17705 17703 17470 17699 17707 17701 
2483 2185 2516 2186 17475 17703 17706 17477 15567 17708 
2516 2185 2219 2186 17703 15792 17704 17708 15567 15793 
2186 2219 2517 2220 15793 17709 17710 15799 15801 17711 
2483 2517 2484 2186 17712 17713 17487 17477 17710 17482 
2186 2219 2516 2517 15793 17704 17708 17710 17709 17714 
2483 2517 2186 2516 17712 17710 17477 17706 17714 17708 
2484 2186 2517 2187 17482 17710 17713 17484 15574 17715 
2517 2186 2220 2187 17710 15799 17711 17715 15574 15800 
2187 2220 2518 2221 15800 17716 17717 15806 15808 17718 
2484 2518 2485 2187 17719 17720 17494 17484 17717 17489 
2187 2220 2517 2518 15800 17711 17715 17717 17716 17721 
2484 2518 2187 2517 17719 17717 17484 17713 17721 17715 
2485 2187 2518 2188 17489 17717 17720 17491 15581 17722 
2518 2187 2221 2188 17717 15806 17718 17722 15581 15807 
2188 2221 2519 2222 15807 17723 17724 15813 15815 17725 
2485 2519 2486 2188 17726 17727 17501 17491 17724 17496 
2188 2221 2518 2519 15807 17718 17722 17724 17723 17728 
2485 2519 2188 2518 17726 17724 17491 17720 17728 17722 
2486 2188 2519 2189 17496 17724 17727 17498 15588 17729 
2519 2188 2222 2189 17724 15813 17725 17729 15588 15814 
2189 2222 2520 2223 15814 17730 17731 15820 15822 17732 
2486 2520 2487 2189 17733 17734 17508 17498 17731 17503 
2189 2222 2519 2520 15814 17725 17729 17731 17730 17735 
2486 2520 2189 2519 17733 17731 17498 17727 17735 17729 
2487 2189 2520 2190 17503 17731 17734 17505 15595 17736 
2520 2189 2223 2190 17731 15820 17732 17736 15595 15821 
2190 2223 2521 2224 15821 17737 17738 15827 15829 17739 
2487 2521 2488 2190 17740 17741 17515 17505 17738 17510 
2190 2223 2520 2521 15821 17732 17736 17738 17737 17742 
2487 2521 2190 2520 17740 17738 17505 17734 17742 17736 
2488 2190 2521 2191 17510 17738 17741 17512 15602 17743 
2521 2190 2224 2191 17738 15827 17739 17743 15602 15828 
2191 2224 2522 2225 15828 17744 17745 15834 15836 17746 
2488 2522 2489 2191 17747 17748 17522 17512 17745 17517 
2191 2224 2521 2522 15828 17739 17743 17745 17744 17749 
2488 2522 2191 2521 17747 17745 17512 17741 17749 17743 
2489 2191 2522 2192 17517 17745 17748 17519 15609 17750 
2522 2191 2225 2192 17745 15834 17746 17750 15609 15835 
2192 2225 2523 2226 15835 17751 17752 15841 15843 17753 
2489 2523 2490 2192 17754 17755 17529 17519 17752 17524 
2192 2225 2522 2523 15835 17746 17750 17752 17751 17756 
2489 2523 2192 2522 17754 17752 17519 17748 17756 17750 
2490 2192 2523 2193 17524 17752 17755 17526 15616 17757 
2523 2192 2226 2193 17752 15841 17753 17757 15616 15842 
2193 2226 2524 2227 15842 17758 17759 15848 15850 17760 
2490 2524 2491 2193 17761 17762 17536 17526 17759 17531 
2193 2226 2523 2524 15842 17753 17757 17759 17758 17763 
2490 2524 2193 2523 17761 17759 17526 17755 17763 17757 
2491 2193 2524 2194 17531 17759 17762 17533 15623 17764 
2524 2193 2227 2194 17759 15848 17760 17764 15623 15849 
2194 2227 2525 2228 15849 17765 17766 15855 15857 17767 
2491 2525 2492 2194 17768 17769 17543 17533 17766 17538 
2194 2227 2524 2525 15849 17760 17764 17766 17765 17770 
2491 2525 2194 2524 17768 17766 17533 17762 17770 17764 
2492 2194 2525 2195 17538 17766 17769 17540 15630 17771 
2525 2194 2228 2195 17766 15855 17767 17771 15630 15856 
2195 2228 2526 2229 15856 17772 17773 15862 15864 17774 
2492 2526 2493 2195 17775 17776 17550 17540 17773 17545 
2195 2228 2525 2526 15856 17767 17771 17773 17772 17777 
2492 2526 2195 2525 17775 17773 17540 17769 17777 17771 
2493 2195 2526 2196 17545 17773 17776 17547 15637 17778 
2526 2195 2229 2196 17773 15862 17774 17778 15637 15863 
2196 2229 2527 2230 15863 17779 17780 15869 15871 17781 
2493 2527 2494 2196 17782 17783 17557 17547 17780 17552 
2196 2229 2526 2527 15863 17774 17778 17780 17779 17784 
2493 2527 2196 2526 17782 17780 17547 17776 17784 17778 
2494 2196 2527 2197 17552 17780 17783 17554 15644 17785 
2527 2196 2230 2197 17780 15869 17781 17785 15644 15870 
2197 2230 2528 2231 15870 17786 17787 15876 15878 17788 
2494 2528 2495 2197 17789 17790 17564 17554 17787 17559 
2197 2230 2527 2528 15870 17781 17785 17787 17786 17791 
2494 2528 2197 2527 17789 17787 17554 17783 17791 17785 
2495 2197 2528 2198 17559 17787 17790 17561 15651 17792 
2528 2197 2231 2198 17787 15876 17788 17792 15651 15877 
2198 2231 2529 2232 15877 17793 17794 15883 15885 17795 
2495 2529 2496 2198 17796 17797 17571 17561 17794 17566 
2198 2231 2528 2529 15877 17788 17792 17794 17793 17798 
2495 2529 2198 2528 17796 17794 17561 17790 17798 17792 
2496 2198 2529 2199 17566 17794 17797 17568 15658 17799 
2529 2198 2232 2199 17794 15883 17795 17799 15658 15884 
2199 2232 2530 2233 15884 17800 17801 15890 15892 17802 
2496 2530 2497 2199 17803 17804 17578 17568 17801 17573 
2199 2232 2529 2530 15884 17795 17799 17801 17800 17805 
2496 2530 2199 2529 17803 17801 17568 17797 17805 17799 
2497 2199 2530 2200 17573 17801 17804 17575 15665 17806 
2530 2199 2233 2200 17801 15890 17802 17806 15665 15891 
2200 2233 2531 2234 15891 17807 17808 15897 15899 17809 
2497 2531 2498 2200 17810 17811 17585 17575 17808 17580 
2200 2233 2530 2531 15891 17802 17806 17808 17807 17812 
2497 2531 2200 2530 17810 17808 17575 17804 17812 17806 
2498 2200 2531 2201 17580 17808 17811 17582 15672 17813 
2531 2200 2234 2201 17808 15897 17809 17813 15672 15898 
2201 2234 2532 2235 15898 17814 17815 15904 15906 17816 
2498 2532 2499 2201 17817 17818 17592 17582 17815 17587 
2201 2234 2531 2532 15898 17809 17813 17815 17814 17819 
2498 2532 2201 2531 17817 17815 17582 17811 17819 17813 
2499 2201 2532 2202 17587 17815 17818 17589 15679 17820 
2532 2201 2235 2202 17815 15904 17816 17820 15679 15905 
2202 2235 2533 2236 15905 17821 17822 15911 15913 17823 
2499 2533 2500 2202 17824 17825 17599 17589 17822 17594 
2202 2235 2532 2533 15905 17816 17820 17822 17821 17826 
2499 2533 2202 2532 17824 17822 17589 17818 17826 17820 
2500 2202 2533 2203 17594 17822 17825 17596 15686 17827 
2533 2202 2236 2203 17822 15911 17823 17827 15686 15912 
2203 2236 2534 2237 15912 17828 17829 15918 15920 17830 
2500 2534 2501 2203 17831 17832 17606 17596 17829 17601 
2203 2236 2533 2534 15912 17823 17827 17829 17828 17833 
2500 2534 2203 2533 17831 17829 17596 17825 17833 17827 
2501 2203 2534 2204 17601 17829 17832 17603 15693 17834 
2534 2203 2237 2204 17829 15918 17830 17834 15693 15919 
2204 2237 2535 2238 15919 17835 17836 15925 15927 17837 
2501 2535 2502 2204 17838 17839 17613 17603 17836 17608 
2204 2237 2534 2535 15919 17830 17834 17836 17835 17840 
2501 2535 2204 2534 17838 17836 17603 17832 17840 17834 
2502 2204 2535 2205 17608 17836 17839 17610 15700 17841 
2535 2204 2238 2205 17836 15925 17837 17841 15700 15926 
2205 2238 2536 2239 15926 17842 17843 15932 15934 17844 
2502 2536 2503 2205 17845 17846 17620 17610 17843 17615 
2205 2238 2535 2536 15926 17837 17841 17843 17842 17847 
2502 2536 2205 2535 17845 17843 17610 17839 17847 17841 
2503 2205 2536 2206 17615 17843 17846 17617 15707 17848 
2536 2205 2239 2206 17843 15932 17844 17848 15707 15933 
2206 2239 2537 2240 15933 17849 17850 15939 15941 17851 
2503 2537 2504 2206 17852 17853 17627 17617 17850 17622 
2206 2239 2536 2537 15933 17844 17848 17850 17849 17854 
2503 2537 2206 2536 17852 17850 17617 17846 17854 17848 
2504 2206 2537 2207 17622 17850 17853 17624 15714 17855 
2537 2206 2240 2207 17850 15939 17851 17855 15714 15940 
2207 2240 2538 2241 15940 17856 17857 15946 15948 17858 
2504 2538 2505 2207 17859 17860 17634 17624 17857 17629 
2207 2240 2537 2538 15940 17851 17855 17857 17856 17861 
2504 2538 2207 2537 17859 17857 17624 17853 17861 17855 
2505 2207 2538 2208 17629 17857 17860 17631 15721 17862 
2538 2207 2241 2208 17857 15946 17858 17862 15721 15947 
2208 2241 2539 2242 15947 17863 17864 15953 15955 17865 
2505 2539 2506 2208 17866 17867 17641 17631 17864 17636 
2208 2241 2538 2539 15947 17858 17862 17864 17863 17868 
2505 2539 2208 2538 17866 17864 17631 17860 17868 17862 
2506 2208 2539 2209 17636 17864 17867 17638 15728 17869 
2539 2208 2242 2209 17864 15953 17865 17869 15728 15954 
2209 2242 2540 2243 15954 17870 17871 15960 15962 17872 
2506 2540 2507 2209 17873 17874 17648 17638 17871 17643 
2209 2242 2539 2540 15954 17865 17869 17871 17870 17875 
2506 2540 2209 2539 17873 17871 17638 17867 17875 17869 
2507 2209 2540 2210 17643 17871 17874 17645 15735 17876 
2540 2209 2243 2210 17871 15960 17872 17876 15735 15961 
2211 2244 2542 2245 15972 17877 17878 15967 15971 17879 
2508 2542 2509 2211 17880 17881 17657 17655 17878 17650 
2211 2244 2541 2542 15972 17882 17883 17878 17877 17884 
2508 2542 2211 2541 17880 17878 17655 17885 17884 17883 
2509 2211 2542 2212 17650 17878 17881 17652 15744 17886 
2542 2211 2245 2212 17878 15967 17879 17886 15744 15968 
2212 2245 2543 2246 15968 17887 17888 15977 15979 17889 
2509 2543 2510 2212 17890 17891 17665 17652 17888 17660 
2212 2245 2542 2543 15968 17879 17886 17888 17887 17892 
2509 2543 2212 2542 17890 17888 17652 17881 17892 17886 
2510 2212 2543 2213 17660 17888 17891 17662 15752 17893 
2543 2212 2246 2213 17888 15977 17889 17893 15752 15978 
2213 2246 2544 2247 15978 17894 17895 15984 15986 17896 
2510 2544 2511 2213 17897 17898 17672 17662 17895 17667 
2213 2246 2543 2544 15978 17889 17893 17895 17894 17899 
2510 2544 2213 2543 17897 17895 17662 17891 17899 17893 
2511 2213 2544 2214 17667 17895 17898 17669 15759 17900 
2544 2213 2247 2214 17895 15984 17896 17900 15759 15985 
2214 2247 2545 2248 15985 17901 17902 15991 15993 17903 
2511 2545 2512 2214 17904 17905 17679 17669 17902 17674 
2214 2247 2544 2545 15985 17896 17900 17902 17901 17906 
2511 2545 2214 2544 17904 17902 17669 17898 17906 17900 
2512 2214 2545 2215 17674 17902 17905 17676 15766 17907 
2545 2214 2248 2215 17902 15991 17903 17907 15766 15992 
2215 2248 2546 2249 15992 17908 17909 15998 16000 17910 
2512 2546 2513 2215 17911 17912 17686 17676 17909 17681 
2215 2248 2545 2546 15992 17903 17907 17909 17908 17913 
2512 2546 2215 2545 17911 17909 17676 17905 17913 17907 
2513 2215 2546 2216 17681 17909 17912 17683 15773 17914 
2546 2215 2249 2216 17909 15998 17910 17914 15773 15999 
2216 2249 2547 2250 15999 17915 17916 16005 16007 17917 
2513 2547 2514 2216 17918 17919 17693 17683 17916 17688 
2216 2249 2546 2547 15999 17910 17914 17916 17915 17920 
2513 2547 2216 2546 17918 17916 17683 17912 17920 17914 
2514 2216 2547 2217 17688 17916 17919 17690 15780 17921 
2547 2216 2250 2217 17916 16005 17917 17921 15780 16006 
2217 2250 2548 2251 16006 17922 17923 16012 16014 17924 
2514 2548 2515 2217 17925 17926 17700 17690 17923 17695 
2217 2250 2547 2548 16006 17917 17921 17923 17922 17927 
2514 2548 2217 2547 17925 17923 17690 17919 17927 17921 
2515 2217 2548 2218 17695 17923 17926 17697 15787 17928 
2548 2217 2251 2218 17923 16012 17924 17928 15787 16013 
2218 2251 2549 2252 16013 17929 17930 16019 16021 17931 
2515 2549 2516 2218 17932 17933 17707 17697 17930 17702 
2218 2251 2548 2549 16013 17924 17928 17930 17929 17934 
2515 2549 2218 2548 17932 17930 17697 17926 17934 17928 
2516 2218 2549 2219 17702 17930 17933 17704 15794 17935 
2549 2218 2252 2219 17930 16019 17931 17935 15794 16020 
2219 2252 2550 2253 16020 17936 17937 16026 16028 17938 
2516 2550 2517 2219 17939 17940 17714 17704 17937 17709 
2219 2252 2549 2550 16020 17931 17935 17937 17936 17941 
2516 2550 2219 2549 17939 17937 17704 17933 17941 17935 
2517 2219 2550 2220 17709 17937 17940 17711 15801 17942 
2550 2219 2253 2220 17937 16026 17938 17942 15801 16027 
2220 2253 2551 2254 16027 17943 17944 16033 16035 17945 
2517 2551 2518 2220 17946 17947 17721 17711 17944 17716 
2220 2253 2550 2551 16027 17938 17942 17944 17943 17948 
2517 2551 2220 2550 17946 17944 17711 17940 17948 17942 
2518 2220 2551 2221 17716 17944 17947 17718 15808 17949 
2551 2220 2254 2221 17944 16033 17945 17949 15808 16034 
2221 2254 2552 2255 16034 17950 17951 16040 16042 17952 
2518 2552 2519 2221 17953 17954 17728 17718 17951 17723 
2221 2254 2551 2552 16034 17945 17949 17951 17950 17955 
2518 2552 2221 2551 17953 17951 17718 17947 17955 17949 
2519 2221 2552 2222 17723 17951 17954 17725 15815 17956 
2552 2221 2255 2222 17951 16040 17952 17956 15815 16041 
2222 2255 2553 2256 16041 17957 17958 16047 16049 17959 
2519 2553 2520 2222 17960 17961 17735 17725 17958 17730 
2222 2255 2552 2553 16041 17952 17956 17958 17957 17962 
2519 2553 2222 2552 17960 17958 17725 17954 17962 17956 
2520 2222 2553 2223 17730 17958 17961 17732 15822 17963 
2553 2222 2256 2223 17958 16047 17959 17963 15822 16048 
2223 2256 2554 2257 16048 17964 17965 16054 16056 17966 
2520 2554 2521 2223 17967 17968 17742 17732 17965 17737 
2223 2256 2553 2554 16048 17959 17963 17965 17964 17969 
2520 2554 2223 2553 17967 17965 17732 17961 17969 17963 
2521 2223 2554 2224 17737 17965 17968 17739 15829 17970 
2554 2223 2257 2224 17965 16054 17966 17970 15829 16055 
2224 2257 2555 2258 16055 17971 17972 16061 16063 17973 
2521 2555 2522 2224 17974 17975 17749 17739 17972 17744 
2224 2257 2554 2555 16055 17966 17970 17972 17971 17976 
2521 2555 2224 2554 17974 17972 17739 17968 17976 17970 
2522 2224 2555 2225 17744 17972 17975 17746 15836 17977 
2555 2224 2258 2225 17972 16061 17973 17977 15836 16062 
2225 2258 2556 2259 16062 17978 17979 16068 16070 17980 
2522 2556 2523 2225 17981 17982 17756 17746 17979 17751 
2225 2258 2555 2556 16062 17973 17977 17979 17978 17983 
2522 2556 2225 2555 17981 17979 17746 17975 17983 17977 
2523 2225 2556 2226 17751 17979 17982 17753 15843 17984 
2556 2225 2259 2226 17979 16068 17980 17984 15843 16069 
2226 2259 2557 2260 16069 17985 17986 16075 16077 17987 
2523 2557 2524 2226 17988 17989 17763 17753 17986 17758 
2226 2259 2556 2557 16069 17980 17984 17986 17985 17990 
2523 2557 2226 2556 17988 17986 17753 17982 17990 17984 
2524 2226 2557 2227 17758 17986 17989 17760 15850 17991 
2557 2226 2260 2227 17986 16075 17987 17991 15850 16076 
2227 2260 2558 2261 16076 17992 17993 16082 16084 17994 
2524 2558 2525 2227 17995 17996 17770 17760 17993 17765 
2227 2260 2557 2558 16076 17987 17991 17993 17992 17997 
2524 2558 2227 2557 17995 17993 17760 17989 17997 17991 
2525 2227 2558 2228 17765 17993 17996 17767 15857 17998 
2558 2227 2261 2228 17993 16082 17994 17998 15857 16083 
2228 2261 2559 2262 16083 17999 18000 16089 16091 18001 
2525 2559 2526 2228 18002 18003 17777 17767 18000 17772 
2228 2261 2558 2559 16083 17994 17998 18000 17999 18004 
2525 2559 2228 2558 18002 18000 17767 17996 18004 17998 
2526 2228 2559 2229 17772 18000 18003 17774 15864 18005 
2559 2228 2262 2229 18000 16089 18001 18005 15864 16090 
2229 2262 2560 2263 16090 18006 18007 16096 16098 18008 
2526 2560 2527 2229 18009 18010 17784 17774 18007 17779 
2229 2262 2559 2560 16090 18001 18005 18007 18006 18011 
2526 2560 2229 2559 18009 18007 17774 18003 18011 18005 
2527 2229 2560 2230 17779 18007 18010 17781 15871 18012 
2560 2229 2263 2230 18007 16096 18008 18012 15871 16097 
2230 2263 2561 2264 16097 18013 18014 16103 16105 18015 
2527 2561 2528 2230 18016 18017 17791 17781 18014 17786 
2230 2263 2560 2561 16097 18008 18012 18014 18013 18018 
2527 2561 2230 2560 18016 18014 17781 18010 18018 18012 
2528 2230 2561 2231 17786 18014 18017 17788 15878 18019 
2561 2230 2264 2231 18014 16103 18015 18019 15878 16104 
2231 2264 2562 2265 16104 18020 18021 16110 16112 18022 
2528 2562 2529 2231 18023 18024 17798 17788 18021 17793 
2231 2264 2561 2562 16104 18015 18019 18021 18020 18025 
2528 2562 2231 2561 18023 18021 17788 18017 18025 18019 
2529 2231 2562 2232 17793 18021 18024 17795 15885 18026 
2562 2231 2265 2232 18021 16110 18022 18026 15885 16111 
2232 2265 2563 2266 16111 18027 18028 16117 16119 18029 
2529 2563 2530 2232 18030 18031 17805 17795 18028 17800 
2232 2265 2562 2563 16111 18022 18026 18028 18027 18032 
2529 2563 2232 2562 18030 18028 17795 18024 18032 18026 
2530 2232 2563 2233 17800 18028 18031 17802 15892 18033 
2563 2232 2266 2233 18028 16117 18029 18033 15892 16118 
2233 2266 2564 2267 16118 18034 18035 16124 16126 18036 
2530 2564 2531 2233 18037 18038 17812 17802 18035 17807 
2233 2266 2563 2564 16118 18029 18033 18035 18034 18039 
2530 2564 2233 2563 18037 18035 17802 18031 18039 18033 
2531 2233 2564 2234 17807 18035 18038 17809 15899 18040 
2564 2233 2267 2234 18035 16124 18036 18040 15899 16125 
2234 2267 2565 2268 16125 18041 18042 16131 16133 18043 
2531 2565 2532 2234 18044 18045 17819 17809 18042 17814 
2234 2267 2564 2565 16125 18036 18040 18042 18041 18046 
2531 2565 2234 2564 18044 18042 17809 18038 18046 18040 
2532 2234 2565 2235 17814 18042 18045 17816 15906 18047 
2565 2234 2268 2235 18042 16131 18043 18047 15906 16132 
2235 2268 2566 2269 16132 18048 18049 16138 16140 18050 
2532 2566 2533 2235 18051 18052 17826 17816 18049 17821 
2235 2268 2565 2566 16132 18043 18047 18049 18048 18053 
2532 2566 2235 2565 18051 18049 17816 18045 18053 18047 
2533 2235 2566 2236 17821 18049 18052 17823 15913 18054 
2566 2235 2269 2236 18049 16138 18050 18054 15913 16139 
2236 2269 2567 2270 16139 18055 18056 16145 16147 18057 
2533 2567 2534 2236 18058 18059 17833 17823 18056 17828 
2236 2269 2566 2567 16139 18050 18054 18056 18055 18060 
2533 2567 2236 2566 18058 18056 17823 18052 18060 18054 
2534 2236 2567 2237 17828 18056 18059 17830 15920 18061 
2567 2236 2270 2237 18056 16145 18057 18061 15920 16146 
2237 2270 2568 2271 16146 18062 18063 16152 16154 18064 
2534 2568 2535 2237 18065 18066 17840 17830 18063 17835 
2237 2270 2567 2568 16146 18057 18061 18063 18062 18067 
2534 2568 2237 2567 18065 18063 17830 18059 18067 18061 
2535 2237 2568 2238 17835 18063 18066 17837 15927 18068 
2568 2237 2271 2238 18063 16152 18064 18068 15927 16153 
2238 2271 2569 2272 16153 18069 18070 16159 16161 18071 
2535 2569 2536 2238 18072 18073 17847 17837 18070 17842 
2238 2271 2568 2569 16153 18064 18068 18070 18069 18074 
2535 2569 2238 2568 18072 18070 17837 18066 18074 18068 
2536 2238 2569 2239 17842 18070 18073 17844 15934 18075 
2569 2238 2272 2239 18070 16159 18071 18075 15934 16160 
2239 2272 2570 2273 16160 18076 18077 16166 16168 18078 
2536 2570 2537 2239 18079 18080 17854 17844 18077 17849 
2239 2272 2569 2570 16160 18071 18075 18077 18076 18081 
2536 2570 2239 2569 18079 18077 17844 18073 18081 18075 
2537 2239 2570 2240 17849 18077 18080 17851 15941 18082 
2570 2239 2273 2240 18077 16166 18078 18082 15941 16167 
2240 2273 2571 2274 16167 18083 18084 16173 16175 18085 
2537 2571 2538 2240 18086 18087 17861 17851 18084 17856 
2240 2273 2570 2571 16167 18078 18082 18084 18083 18088 
2537 2571 2240 2570 18086 18084 17851 18080 18088 18082 
2538 2240 2571 2241 17856 18084 18087 17858 15948 18089 
2571 2240 2274 2241 18084 16173 18085 18089 15948 16174 
2241 2274 2572 2275 16174 18090 18091 16180 16182 18092 
2538 2572 2539 2241 18093 18094 17868 17858 18091 17863 
2241 2274 2571 2572 16174 18085 18089 18091 18090 18095 
2538 2572 2241 2571 18093 18091 17858 18087 18095 18089 
2539 2241 2572 2242 17863 18091 18094 17865 15955 18096 
2572 2241 2275 2242 18091 16180 18092 18096 15955 16181 
2242 2275 2573 2276 16181 18097 18098 16187 16189 18099 
2539 2573 2540 2242 18100 18101 17875 17865 18098 17870 
2242 2275 2572 2573 16181 18092 18096 18098 18097 18102 
2539 2573 2242 2572 18100 18098 17865 18094 18102 18096 
2540 2242 2573 2243 17870 18098 18101 17872 15962 18103 
2573 2242 2276 2243 18098 16187 18099 18103 15962 16188 
2244 2277 2575 2278 16199 18104 18105 16194 16198 18106 
2541 2575 2542 2244 18107 18108 17884 17882 18105 17877 
2244 2277 2574 2575 16199 18109 18110 18105 18104 18111 
2541 2575 2244 2574 18107 18105 17882 18112 18111 18110 
2542 2244 2575 2245 17877 18105 18108 17879 15971 18113 
2575 2244 2278 2245 18105 16194 18106 18113 15971 16195 
2245 2278 2576 2279 16195 18114 18115 16204 16206 18116 
2542 2576 2543 2245 18117 18118 17892 17879 18115 17887 
2245 2278 2575 2576 16195 18106 18113 18115 18114 18119 
2542 2576 2245 2575 18117 18115 17879 18108 18119 18113 
2543 2245 2576 2246 17887 18115 18118 17889 15979 18120 
2576 2245 2279 2246 18115 16204 18116 18120 15979 16205 
2246 2279 2577 2280 16205 18121 18122 16211 16213 18123 
2543 2577 2544 2246 18124 18125 17899 17889 18122 17894 
2246 2279 2576 2577 16205 18116 18120 18122 18121 18126 
2543 2577 2246 2576 18124 18122 17889 18118 18126 18120 
2544 2246 2577 2247 17894 18122 18125 17896 15986 18127 
2577 2246 2280 2247 18122 16211 18123 18127 15986 16212 
2247 2280 2578 2281 16212 18128 18129 16218 16220 18130 
2544 2578 2545 2247 18131 18132 17906 17896 18129 17901 
2247 2280 2577 2578 16212 18123 18127 18129 18128 18133 
2544 2578 2247 2577 18131 18129 17896 18125 18133 18127 
2545 2247 2578 2248 17901 18129 18132 17903 15993 18134 
2578 2247 2281 2248 18129 16218 18130 18134 15993 16219 
2248 2281 2579 2282 16219 18135 18136 16225 16227 18137 
2545 2579 2546 2248 18138 18139 17913 17903 18136 17908 
2248 2281 2578 2579 16219 18130 18134 18136 18135 18140 
2545 2579 2248 2578 18138 18136 17903 18132 18140 18134 
2546 2248 2579 2249 17908 18136 18139 17910 16000 18141 
2579 2248 2282 2249 18136 16225 18137 18141 16000 16226 
2249 2282 2580 2283 16226 18142 18143 16232 16234 18144 
2546 2580 2547 2249 18145 18146 17920 17910 18143 17915 
2249 2282 2579 2580 16226 18137 18141 18143 18142 18147 
2546 2580 2249 2579 18145 18143 17910 18139 18147 18141 
2547 2249 2580 2250 17915 18143 18146 17917 16007 18148 
2580 2249 2283 2250 18143 16232 18144 18148 16007 16233 
2250 2283 2581 2284 16233 18149 18150 16239 16241 18151 
2547 2581 2548 2250 18152 18153 17927 17917 18150 17922 
2250 2283 2580 2581 16233 18144 18148 18150 18149 18154 
2547 2581 2250 2580 18152 18150 17917 18146 18154 18148 
2548 2250 2581 2251 17922 18150 18153 17924 16014 18155 
2581 2250 2284 2251 18150 16239 18151 18155 16014 16240 
2251 2284 2582 2285 16240 18156 18157 16246 16248 18158 
2548 2582 2549 2251 18159 18160 17934 17924 18157 17929 
2251 2284 2581 2582 16240 18151 18155 18157 18156 18161 
2548 2582 2251 2581 18159 18157 17924 18153 18161 18155 
2549 2251 2582 2252 17929 18157 18160 17931 16021 18162 
2582 2251 2285 2252 18157 16246 18158 18162 16021 16247 
2252 2285 2583 2286 16247 18163 18164 16253 16255 18165 
2549 2583 2550 2252 18166 18167 17941 17931 18164 17936 
2252 2285 2582 2583 16247 18158 18162 18164 18163 18168 
2549 2583 2252 2582 18166 18164 17931 18160 18168 18162 
2550 2252 2583 2253 17936 18164 18167 17938 16028 18169 
2583 2252 2286 2253 18164 16253 18165 18169 16028 16254 
2253 2286 2584 2287 16254 18170 18171 16260 16262 18172 
2550 2584 2551 2253 18173 18174 17948 17938 18171 17943 
2253 2286 2583 2584 16254 18165 18169 18171 18170 18175 
2550 2584 2253 2583 18173 18171 17938 18167 18175 18169 
2551 2253 2584 2254 17943 18171 18174 17945 16035 18176 
2584 2253 2287 2254 18171 16260 18172 18176 16035 16261 
2254 2287 2585 2288 16261 18177 18178 16267 16269 18179 
2551 2585 2552 2254 18180 18181 17955 17945 18178 17950 
2254 2287 2584 2585 16261 18172 18176 18178 18177 18182 
2551 2585 2254 2584 18180 18178 17945 18174 18182 18176 
2552 2254 2585 2255 17950 18178 18181 17952 16042 18183 
2585 2254 2288 2255 18178 16267 18179 18183 16042 16268 
2255 2288 2586 2289 16268 18184 18185 16274 16276 18186 
2552 2586 2553 2255 18187 18188 17962 17952 18185 17957 
2255 2288 2585 2586 16268 18179 18183 18185 18184 18189 
2552 2586 2255 2585 18187 18185 17952 18181 18189 18183 
2553 2255 2586 2256 17957 18185 18188 17959 16049 18190 
2586 2255 2289 2256 18185 16274 18186 18190 16049 16275 
2256 2289 2587 2290 16275 18191 18192 16281 16283 18193 
2553 2587 2554 2256 18194 18195 17969 17959 18192 17964 
2256 2289 2586 2587 16275 18186 18190 18192 18191 18196 
2553 2587 2256 2586 18194 18192 17959 18188 18196 18190 
2554 2256 2587 2257 17964 18192 18195 17966 16056 18197 
2587 2256 2290 2257 18192 16281 18193 18197 16056 16282 
2257 2290 2588 2291 16282 18198 18199 16288 16290 18200 
2554 2588 2555 2257 18201 18202 17976 17966 18199 17971 
2257 2290 2587 2588 16282 18193 18197 18199 18198 18203 
2554 2588 2257 2587 18201 18199 17966 18195 18203 18197 
2555 2257 2588 2258 17971 18199 18202 17973 16063 18204 
2588 2257 2291 2258 18199 16288 18200 18204 16063 16289 
2258 2291 2589 2292 16289 18205 18206 16295 16297 18207 
2555 2589 2556 2258 18208 18209 17983 17973 18206 17978 
2258 2291 2588 2589 16289 18200 18204 18206 18205 18210 
2555 2589 2258 2588 18208 18206 17973 18202 18210 18204 
2556 2258 2589 2259 17978 18206 18209 17980 16070 18211 
2589 2258 2292 2259 18206 16295 18207 18211 16070 16296 
2259 2292 2590 2293 16296 18212 18213 16302 16304 18214 
2556 2590 2557 2259 18215 18216 17990 17980 18213 17985 
2259 2292 2589 2590 16296 18207 18211 18213 18212 18217 
2556 2590 2259 2589 18215 18213 17980 18209 18217 18211 
2557 2259 2590 2260 17985 18213 18216 17987 16077 18218 
2590 2259 2293 2260 18213 16302 18214 18218 16077 16303 
2260 2293 2591 2294 16303 18219 18220 16309 16311 18221 
2557 2591 2558 2260 18222 18223 17997 17987 18220 17992 
2260 2293 2590 2591 16303 18214 18218 18220 18219 18224 
2557 2591 2260 2590 18222 18220 17987 18216 18224 18218 
2558 2260 2591 2261 17992 18220 18223 17994 16084 18225 
2591 2260 2294 2261 18220 16309 18221 18225 16084 16310 
2261 2294 2592 2295 16310 18226 18227 16316 16318 18228 
2558 2592 2559 2261 18229 18230 18004 17994 18227 17999 
2261 2294 2591 2592 16310 18221 18225 18227 18226 18231 
2558 2592 2261 2591 18229 18227 17994 18223 18231 18225 
2559 2261 2592 2262 17999 18227 18230 18001 16091 18232 
2592 2261 2295 2262 18227 16316 18228 18232 16091 16317 
2262 2295 2593 2296 16317 18233 18234 16323 16325 18235 
2559 2593 2560 2262 18236 18237 18011 18001 18234 18006 
2262 2295 2592 2593 16317 18228 18232 18234 18233 18238 
2559 2593 2262 2592 18236 18234 18001 18230 18238 18232 
2560 2262 2593 2263 18006 18234 18237 18008 16098 18239 
2593 2262 2296 2263 18234 16323 18235 18239 16098 16324 
2263 2296 2594 2297 16324 18240 18241 16330 16332 18242 
2560 2594 2561 2263 18243 18244 18018 18008 18241 18013 
2263 2296 2593 2594 16324 18235 18239 18241 18240 18245 
2560 2594 2263 2593 18243 18241 18008 18237 18245 18239 
2561 2263 2594 2264 18013 18241 18244 18015 16105 18246 
2594 2263 2297 2264 18241 16330 18242 18246 16105 16331 
2264 2297 2595 2298 16331 18247 18248 16337 16339 18249 
2561 2595 2562 2264 18250 18251 18025 18015 18248 18020 
2264 2297 2594 2595 16331 18242 18246 18248 18247 18252 
2561 2595 2264 2594 18250 18248 18015 18244 18252 18246 
2562 2264 2595 2265 18020 18248 18251 18022 16112 18253 
2595 2264 2298 2265 18248 16337 18249 18253 16112 16338 
2265 2298 2596 2299 16338 18254 18255 16344 16346 18256 
2562 2596 2563 2265 18257 18258 18032 18022 18255 18027 
2265 2298 2595 2596 16338 18249 18253 18255 18254 18259 
2562 2596 2265 2595 18257 18255 18022 18251 18259 18253 
2563 2265 2596 2266 18027 18255 18258 18029 16119 18260 
2596 2265 2299 2266 18255 16344 18256 18260 16119 16345 
2266 2299 2597 2300 16345 18261 18262 16351 16353 18263 
2563 2597 2564 2266 18264 18265 18039 18029 18262 18034 
2266 2299 2596 2597 16345 18256 18260 18262 18261 18266 
2563 2597 2266 2596 18264 18262 18029 18258 18266 18260 
2564 2266 2597 2267 18034 18262 18265 18036 16126 18267 
2597 2266 2300 2267 18262 16351 18263 18267 16126 16352 
2267 2300 2598 2301 16352 18268 18269 16358 16360 18270 
2564 2598 2565 2267 18271 18272 18046 18036 18269 18041 
2267 2300 2597 2598 16352 18263 18267 18269 18268 18273 
2564 2598 2267 2597 18271 18269 18036 18265 18273 18267 
2565 2267 2598 2268 18041 18269 18272 18043 16133 18274 
2598 2267 2301 2268 18269 16358 18270 18274 16133 16359 
2268 2301 2599 2302 16359 18275 18276 16365 16367 18277 
2565 2599 2566 2268 18278 18279 18053 18043 18276 18048 
2268 2301 2598 2599 16359 18270 18274 18276 18275 18280 
2565 2599 2268 2598 18278 18276 18043 18272 18280 18274 
2566 2268 2599 2269 18048 18276 18279 18050 16140 18281 
2599 2268 2302 2269 18276 16365 18277 18281 16140 16366 
2269 2302 2600 2303 16366 18282 18283 16372 16374 18284 
2566 2600 2567 2269 18285 18286 18060 18050 18283 18055 
2269 2302 2599 2600 16366 18277 18281 18283 18282 18287 
2566 2600 2269 2599 18285 18283 18050 18279 18287 18281 
2567 2269 2600 2270 18055 18283 18286 18057 16147 18288 
2600 2269 2303 2270 18283 16372 18284 18288 16147 16373 
2270 2303 2601 2304 16373 18289 18290 16379 16381 18291 
2567 2601 2568 2270 18292 18293 18067 18057 18290 18062 
2270 2303 2600 2601 16373 18284 18288 18290 18289 18294 
2567 2601 2270 2600 18292 18290 18057 18286 18294 18288 
2568 2270 2601 2271 18062 18290 18293 18064 16154 18295 
2601 2270 2304 2271 18290 16379 18291 18295 16154 16380 
2271 2304 2602 2305 16380 18296 18297 16386 16388 18298 
2568 2602 2569 2271 18299 18300 18074 18064 18297 18069 
2271 2304 2601 2602 16380 18291 18295 18297 18296 18301 
2568 2602 2271 2601 18299 18297 18064 18293 18301 18295 
2569 2271 2602 2272 18069 18297 18300 18071 16161 18302 
2602 2271 2305 2272 18297 16386 18298 18302 16161 16387 
2272 2305 2603 2306 16387 18303 18304 16393 16395 18305 
2569 2603 2570 2272 18306 18307 18081 18071 18304 18076 
2272 2305 2602 2603 16387 18298 18302 18304 18303 18308 
2569 2603 2272 2602 18306 18304 18071 18300 18308 18302 
2570 2272 2603 2273 18076 18304 18307 18078 16168 18309 
2603 2272 2306 2273 18304 16393 18305 18309 16168 16394 
2273 2306 2604 2307 16394 18310 18311 16400 16402 18312 
2570 2604 2571 2273 18313 18314 18088 18078 18311 18083 
2273 2306 2603 2604 16394 18305 18309 18311 18310 18315 
2570 2604 2273 2603 18313 18311 18078 18307 18315 18309 
2571 2273 2604 2274 18083 18311 18314 18085 16175 18316 
2604 2273 2307 2274 18311 16400 18312 18316 16175 16401 
2274 2307 2605 2308 16401 18317 18318 16407 16409 18319 
2571 2605 2572 2274 18320 18321 18095 18085 18318 18090 
2274 2307 2604 2605 16401 18312 18316 18318 18317 18322 
2571 2605 2274 2604 18320 18318 18085 18314 18322 18316 
2572 2274 2605 2275 18090 18318 18321 18092 16182 18323 
2605 2274 2308 2275 18318 16407 18319 18323 16182 16408 
2275 2308 2606 2309 16408 18324 18325 16414 16416 18326 
2572 2606 2573 2275 18327 18328 18102 18092 18325 18097 
2275 2308 2605 2606 16408 18319 18323 18325 18324 18329 
2572 2606 2275 2605 18327 18325 18092 18321 18329 18323 
2573 2275 2606 2276 18097 18325 18328 18099 16189 18330 
2606 2275 2309 2276 18325 16414 18326 18330 16189 16415 
2277 2310 2608 2311 16426 18331 18332 16421 16425 18333 
2574 2608 2575 2277 18334 18335 18111 18109 18332 18104 
2277 2310 2607 2608 16426 18336 18337 18332 18331 18338 
2574 2608 2277 2607 18334 18332 18109 18339 18338 18337 
2575 2277 2608 2278 18104 18332 18335 18106 16198 18340 
2608 2277 2311 2278 18332 16421 18333 18340 16198 16422 
2278 2311 2609 2312 16422 18341 18342 16431 16433 18343 
2575 2609 2576 2278 18344 18345 18119 18106 18342 18114 
2278 2311 2608 2609 16422 18333 18340 18342 18341 18346 
2575 2609 2278 2608 18344 18342 18106 18335 18346 18340 
2576 2278 2609 2279 18114 18342 18345 18116 16206 18347 
2609 2278 2312 2279 18342 16431 18343 18347 16206 16432 
2279 2312 2610 2313 16432 18348 18349 16438 16440 18350 
2576 2610 2577 2279 18351 18352 18126 18116 18349 18121 
2279 2312 2609 2610 16432 18343 18347 18349 18348 18353 
2576 2610 2279 2609 18351 18349 18116 18345 18353 18347 
2577 2279 2610 2280 18121 18349 18352 18123 16213 18354 
2610 2279 2313 2280 18349 16438 18350 18354 16213 16439 
2280 2313 2611 2314 16439 18355 18356 16445 16447 18357 
2577 2611 2578 2280 18358 18359 18133 18123 18356 18128 
2280 2313 2610 2611 16439 18350 18354 18356 18355 18360 
2577 2611 2280 2610 18358 18356 18123 18352 18360 18354 
2578 2280 2611 2281 18128 18356 18359 18130 16220 18361 
2611 2280 2314 2281 18356 16445 18357 18361 16220 16446 
2281 2314 2612 2315 16446 18362 18363 16452 16454 18364 
2578 2612 2579 2281 18365 18366 18140 18130 18363 18135 
2281 2314 2611 2612 16446 18357 18361 18363 18362 18367 
2578 2612 2281 2611 18365 18363 18130 18359 18367 18361 
2579 2281 2612 2282 18135 18363 18366 18137 16227 18368 
2612 2281 2315 2282 18363 16452 18364 18368 16227 16453 
2282 2315 2613 2316 16453 18369 18370 16459 16461 18371 
2579 2613 2580 2282 18372 18373 18147 18137 18370 18142 
2282 2315 2612 2613 16453 18364 18368 18370 18369 18374 
2579 2613 2282 2612 18372 18370 18137 18366 18374 18368 
2580 2282 2613 2283 18142 18370 18373 18144 16234 18375 
2613 2282 2316 2283 18370 16459 18371 18375 16234 16460 
2283 2316 2614 2317 16460 18376 18377 16466 16468 18378 
2580 2614 2581 2283 18379 18380 18154 18144 18377 18149 
2283 2316 2613 2614 16460 18371 18375 18377 18376 18381 
2580 2614 2283 2613 18379 18377 18144 18373 18381 18375 
2581 2283 2614 2284 18149 18377 18380 18151 16241 18382 
2614 2283 2317 2284 18377 16466 18378 18382 16241 16467 
2284 2317 2615 2318 16467 18383 18384 16473 16475 18385 
2581 2615 2582 2284 18386 18387 18161 18151 18384 18156 
2284 2317 2614 2615 16467 18378 18382 18384 18383 18388 
2581 2615 2284 2614 18386 18384 18151 18380 18388 18382 
2582 2284 2615 2285 18156 18384 18387 18158 16248 18389 
2615 2284 2318 2285 18384 16473 18385 18389 16248 16474 
2285 2318 2616 2319 16474 18390 18391 16480 16482 18392 
2582 2616 2583 2285 18393 18394 18168 18158 18391 18163 
2285 2318 2615 2616 16474 18385 18389 18391 18390 18395 
2582 2616 2285 2615 18393 18391 18158 18387 18395 18389 
2583 2285 2616 2286 18163 18391 18394 18165 16255 18396 
2616 2285 2319 2286 18391 16480 18392 18396 16255 16481 
2286 2319 2617 2320 16481 18397 18398 16487 16489 18399 
2583 2617 2584 2286 18400 18401 18175 18165 18398 18170 
2286 2319 2616 2617 16481 18392 18396 18398 18397 18402 
2583 2617 2286 2616 18400 18398 18165 18394 18402 18396 
2584 2286 2617 2287 18170 18398 18401 18172 16262 18403 
2617 2286 2320 2287 18398 16487 18399 18403 16262 16488 
2287 2320 2618 2321 16488 18404 18405 16494 16496 18406 
2584 2618 2585 2287 18407 18408 18182 18172 18405 18177 
2287 2320 2617 2618 16488 18399 18403 18405 18404 18409 
2584 2618 2287 2617 18407 18405 18172 18401 18409 18403 
2585 2287 2618 2288 18177 18405 18408 18179 16269 18410 
2618 2287 2321 2288 18405 16494 18406 18410 16269 16495 
2288 2321 2619 2322 16495 18411 18412 16501 16503 18413 
2585 2619 2586 2288 18414 18415 18189 18179 18412 18184 
2288 2321 2618 2619 16495 18406 18410 18412 18411 18416 
2585 2619 2288 2618 18414 18412 18179 18408 18416 18410 
2586 2288 2619 2289 18184 18412 18415 18186 16276 18417 
2619 2288 2322 2289 18412 16501 18413 18417 16276 16502 
2289 2322 2620 2323 16502 18418 18419 16508 16510 18420 
2586 2620 2587 2289 18421 18422 18196 18186 18419 18191 
2289 2322 2619 2620 16502 18413 18417 18419 18418 18423 
2586 2620 2289 2619 18421 18419 18186 18415 18423 18417 
2587 2289 2620 2290 18191 18419 18422 18193 16283 18424 
2620 2289 2323 2290 18419 16508 18420 18424 16283 16509 
2290 2323 2621 2324 16509 18425 18426 16515 16517 18427 
2587 2621 2588 2290 18428 18429 18203 18193 18426 18198 
2290 2323 2620 2621 16509 18420 18424 18426 18425 18430 
2587 2621 2290 2620 18428 18426 18193 18422 18430 18424 
2588 2290 2621 2291 18198 18426 18429 18200 16290 18431 
2621 2290 2324 2291 18426 16515 18427 18431 16290 16516 
2291 2324 2622 2325 16516 18432 18433 16522 16524 18434 
2588 2622 2589 2291 18435 18436 18210 18200 18433 18205 
2291 2324 2621 2622 16516 18427 18431 18433 18432 18437 
2588 2622 2291 2621 18435 18433 18200 18429 18437 18431 
2589 2291 2622 2292 18205 18433 18436 18207 16297 18438 
2622 2291 2325 2292 18433 16522 18434 18438 16297 16523 
2292 2325 2623 2326 16523 18439 18440 16529 16531 18441 
2589 2623 2590 2292 18442 18443 18217 18207 18440 18212 
2292 2325 2622 2623 16523 18434 18438 18440 18439 18444 
2589 2623 2292 2622 18442 18440 18207 18436 18444 18438 
2590 2292 2623 2293 18212 18440 18443 18214 16304 18445 
2623 2292 2326 2293 18440 16529 18441 18445 16304 16530 
2293 2326 2624 2327 16530 18446 18447 16536 16538 18448 
2590 2624 2591 2293 18449 18450 18224 18214 18447 18219 
2293 2326 2623 2624 16530 18441 18445 18447 18446 18451 
2590 2624 2293 2623 18449 18447 18214 18443 18451 18445 
2591 2293 2624 2294 18219 18447 18450 18221 16311 18452 
2624 2293 2327 2294 18447 16536 18448 18452 16311 16537 
2294 2327 2625 2328 16537 18453 18454 16543 16545 18455 
2591 2625 2592 2294 18456 18457 18231 18221 18454 18226 
2294 2327 2624 2625 16537 18448 18452 18454 18453 18458 
2591 2625 2294 2624 18456 18454 18221 18450 18458 18452 
2592 2294 2625 2295 18226 18454 18457 18228 16318 18459 
2625 2294 2328 2295 18454 16543 18455 18459 16318 16544 
2295 2328 2626 2329 16544 18460 18461 16550 16552 18462 
2592 2626 2593 2295 18463 18464 18238 18228 18461 18233 
2295 2328 2625 2626 16544 18455 18459 18461 18460 18465 
2592 2626 2295 2625 18463 18461 18228 18457 18465 18459 
2593 2295 2626 2296 18233 18461 18464 18235 16325 18466 
2626 2295 2329 2296 18461 16550 18462 18466 16325 16551 
2296 2329 2627 2330 16551 18467 18468 16557 16559 18469 
2593 2627 2594 2296 18470 18471 18245 18235 18468 18240 
2296 2329 2626 2627 16551 18462 18466 18468 18467 18472 
2593 2627 2296 2626 18470 18468 18235 18464 18472 18466 
2594 2296 2627 2297 18240 18468 18471 18242 16332 18473 
2627 2296 2330 2297 18468 16557 18469 18473 16332 16558 
2297 2330 2628 2331 16558 18474 18475 16564 16566 18476 
2594 2628 2595 2297 18477 18478 18252 18242 18475 18247 
2297 2330 2627 2628 16558 18469 18473 18475 18474 18479 
2594 2628 2297 2627 18477 18475 18242 18471 18479 18473 
2595 2297 2628 2298 18247 18475 18478 18249 16339 18480 
2628 2297 2331 2298 18475 16564 18476 18480 16339 16565 
2298 2331 2629 2332 16565 18481 18482 16571 16573 18483 
2595 2629 2596 2298 18484 18485 18259 18249 18482 18254 
2298 2331 2628 2629 16565 18476 18480 18482 18481 18486 
2595 2629 2298 2628 18484 18482 18249 18478 18486 18480 
2596 2298 2629 2299 18254 18482 18485 18256 16346 18487 
2629 2298 2332 2299 18482 16571 18483 18487 16346 16572 
2299 2332 2630 2333 16572 18488 18489 16578 16580 18490 
2596 2630 2597 2299 18491 18492 18266 18256 18489 18261 
2299 2332 2629 2630 16572 18483 18487 18489 18488 18493 
2596 2630 2299 2629 18491 18489 18256 18485 18493 18487 
2597 2299 2630 2300 18261 18489 18492 18263 16353 18494 
2630 2299 2333 2300 18489 16578 18490 18494 16353 16579 
2300 2333 2631 2334 16579 18495 18496 16585 16587 18497 
2597 2631 2598 2300 18498 18499 18273 18263 18496 18268 
2300 2333 2630 2631 16579 18490 18494 18496 18495 18500 
2597 2631 2300 2630 18498 18496 18263 18492 18500 18494 
2598 2300 2631 2301 18268 18496 18499 18270 16360 18501 
2631 2300 2334 2301 18496 16585 18497 18501 16360 16586 
2301 2334 2632 2335 16586 18502 18503 16592 16594 18504 
2598 2632 2599 2301 18505 18506 18280 18270 18503 18275 
2301 2334 2631 2632 16586 18497 18501 18503 18502 18507 
2598 2632 2301 2631 18505 18503 18270 18499 18507 18501 
2599 2301 2632 2302 18275 18503 18506 18277 16367 18508 
2632 2301 2335 2302 18503 16592 18504 18508 16367 16593 
2302 2335 2633 2336 16593 18509 18510 16599 16601 18511 
2599 2633 2600 2302 18512 18513 18287 18277 18510 18282 
2302 2335 2632 2633 16593 18504 18508 18510 18509 18514 
2599 2633 2302 2632 18512 18510 18277 18506 18514 18508 
2600 2302 2633 2303 18282 18510 18513 18284 16374 18515 
2633 2302 2336 2303 18510 16599 18511 18515 16374 16600 
2303 2336 2634 2337 16600 18516 18517 16606 16608 18518 
2600 2634 2601 2303 18519 18520 18294 18284 18517 18289 
2303 2336 2633 2634 16600 18511 18515 18517 18516 18521 
2600 2634 2303 2633 18519 18517 18284 18513 18521 18515 
2601 2303 2634 2304 18289 18517 18520 18291 16381 18522 
2634 2303 2337 2304 18517 16606 18518 18522 16381 16607 
2304 2337 2635 2338 16607 18523 18524 16613 16615 18525 
2601 2635 2602 2304 18526 18527 18301 18291 18524 18296 
2304 2337 2634 2635 16607 18518 18522 18524 18523 18528 
2601 2635 2304 2634 18526 18524 18291 18520 18528 18522 
2602 2304 2635 2305 18296 18524 18527 18298 16388 18529 
2635 2304 2338 2305 18524 16613 18525 18529 16388 16614 
2305 2338 2636 2339 16614 18530 18531 16620 16622 18532 
2602 2636 2603 2305 18533 18534 18308 18298 18531 18303 
2305 2338 2635 2636 16614 18525 18529 18531 18530 18535 
2602 2636 2305 2635 18533 18531 18298 18527 18535 18529 
2603 2305 2636 2306 18303 18531 18534 18305 16395 18536 
2636 2305 2339 2306 18531 16620 18532 18536 16395 16621 
2306 2339 2637 2340 16621 18537 18538 16627 16629 18539 
2603 2637 2604 2306 18540 18541 18315 18305 18538 18310 
2306 2339 2636 2637 16621 18532 18536 18538 18537 18542 
2603 2637 2306 2636 18540 18538 18305 18534 18542 18536 
2604 2306 2637 2307 18310 18538 18541 18312 16402 18543 
2637 2306 2340 2307 18538 16627 18539 18543 16402 16628 
2307 2340 2638 2341 16628 18544 18545 16634 16636 18546 
2604 2638 2605 2307 18547 18548 18322 18312 18545 18317 
2307 2340 2637 2638 16628 18539 18543 18545 18544 18549 
2604 2638 2307 2637 18547 18545 18312 18541 18549 18543 
2605 2307 2638 2308 18317 18545 18548 18319 16409 18550 
2638 2307 2341 2308 18545 16634 18546 18550 16409 16635 
2308 2341 2639 2342 16635 18551 18552 16641 16643 18553 
2605 2639 2606 2308 18554 18555 18329 18319 18552 18324 
2308 2341 2638 2639 16635 18546 18550 18552 18551 18556 
2605 2639 2308 2638 18554 18552 18319 18548 18556 18550 
2606 2308 2639 2309 18324 18552 18555 18326 16416 18557 
2639 2308 2342 2309 18552 16641 18553 18557 16416 16642 
2310 2343 2641 2344 16653 18558 18559 16648 16652 18560 
2607 2641 2608 2310 18561 18562 18338 18336 18559 18331 
2310 2343 2640 2641 16653 18563 18564 18559 18558 18565 
2607 2641 2310 2640 18561 18559 18336 18566 18565 18564 
2608 2310 2641 2311 18331 18559 18562 18333 16425 18567 
2641 2310 2344 2311 18559 16648 18560 18567 16425 16649 
2311 2344 2642 2345 16649 18568 18569 16658 16660 18570 
2608 2642 2609 2311 18571 18572 18346 18333 18569 18341 
2311 2344 2641 2642 16649 18560 18567 18569 18568 18573 
2608 2642 2311 2641 18571 18569 18333 18562 18573 18567 
2609 2311 2642 2312 18341 18569 18572 18343 16433 18574 
2642 2311 2345 2312 18569 16658 18570 18574 16433 16659 
2312 2345 2643 2346 16659 18575 18576 16665 16667 18577 
2609 2643 2610 2312 18578 18579 18353 18343 18576 18348 
2312 2345 2642 2643 16659 18570 18574 18576 18575 18580 
2609 2643 2312 2642 18578 18576 18343 18572 18580 18574 
2610 2312 2643 2313 18348 18576 18579 18350 16440 18581 
2643 2312 2346 2313 18576 16665 18577 18581 16440 16666 
2313 2346 2644 2347 16666 18582 18583 16672 16674 18584 
2610 2644 2611 2313 18585 18586 18360 18350 18583 18355 
2313 2346 2643 2644 16666 18577 18581 18583 18582 18587 
2610 2644 2313 2643 18585 18583 18350 18579 18587 18581 
2611 2313 2644 2314 18355 18583 18586 18357 16447 18588 
2644 2313 2347 2314 18583 16672 18584 18588 16447 16673 
2314 2347 2645 2348 16673 18589 18590 16679 16681 18591 
2611 2645 2612 2314 18592 18593 18367 18357 18590 18362 
2314 2347 2644 2645 16673 18584 18588 18590 18589 18594 
2611 2645 2314 2644 18592 18590 18357 18586 18594 18588 
2612 2314 2645 2315 18362 18590 18593 18364 16454 18595 
2645 2314 2348 2315 18590 16679 18591 18595 16454 16680 
2315 2348 2646 2349 16680 18596 18597 16686 16688 18598 
2612 2646 2613 2315 18599 18600 18374 18364 18597 18369 
2315 2348 2645 2646 16680 18591 18595 18597 18596 18601 
2612 2646 2315 2645 18599 18597 18364 18593 18601 18595 
2613 2315 2646 2316 18369 18597 18600 18371 16461 18602 
2646 2315 2349 2316 18597 16686 18598 18602 16461 16687 
2316 2349 2647 2350 16687 18603 18604 16693 16695 18605 
2613 2647 2614 2316 18606 18607 18381 18371 18604 18376 
2316 2349 2646 2647 16687 18598 18602 18604 18603 18608 
2613 2647 2316 2646 18606 18604 18371 18600 18608 18602 
2614 2316 2647 2317 18376 18604 18607 18378 16468 18609 
2647 2316 2350 2317 18604 16693 18605 18609 16468 16694 
2317 2350 2648 2351 16694 18610 18611 16700 16702 18612 
2614 2648 2615 2317 18613 18614 18388 18378 18611 18383 
2317 2350 2647 2648 16694 18605 18609 18611 18610 18615 
2614 2648 2317 2647 18613 18611 18378 18607 18615 18609 
2615 2317 2648 2318 18383 18611 18614 18385 16475 18616 
2648 2317 2351 2318 18611 16700 18612 18616 16475 16701 
2318 2351 2649 2352 16701 18617 18618 16707 16709 18619 
2615 2649 2616 2318 18620 18621 18395 18385 18618 18390 
2318 2351 2648 2649 16701 18612 18616 18618 18617 18622 
2615 2649 2318 2648 18620 18618 18385 18614 18622 18616 
2616 2318 2649 2319 18390 18618 18621 18392 16482 18623 
2649 2318 2352 2319 18618 16707 18619 18623 16482 16708 
2319 2352 2650 2353 16708 18624 18625 16714 16716 18626 
2616 2650 2617 2319 18627 18628 18402 18392 18625 18397 
2319 2352 2649 2650 16708 18619 18623 18625 18624 18629 
2616 2650 2319 2649 18627 18625 18392 18621 18629 18623 
2617 2319 2650 2320 18397 18625 18628 18399 16489 18630 
2650 2319 2353 2320 18625 16714 18626 18630 16489 16715 
2320 2353 2651 2354 16715 18631 18632 16721 16723 18633 
2617 2651 2618 2320 18634 18635 18409 18399 18632 18404 
2320 2353 2650 2651 16715 18626 18630 18632 18631 18636 
2617 2651 2320 2650 18634 18632 18399 18628 18636 18630 
2618 2320 2651 2321 18404 18632 18635 18406 16496 18637 
2651 2320 2354 2321 18632 16721 18633 18637 16496 16722 
2321 2354 2652 2355 16722 18638 18639 16728 16730 18640 
2618 2652 2619 2321 18641 18642 18416 18406 18639 18411 
2321 2354 2651 2652 16722 18633 18637 18639 18638 18643 
2618 2652 2321 2651 18641 18639 18406 18635 18643 18637 
2619 2321 2652 2322 18411 18639 18642 18413 16503 18644 
2652 2321 2355 2322 18639 16728 18640 18644 16503 16729 
2322 2355 2653 2356 16729 18645 18646 16735 16737 18647 
2619 2653 2620 2322 18648 18649 18423 18413 18646 18418 
2322 2355 2652 2653 16729 18640 18644 18646 18645 18650 
2619 2653 2322 2652 18648 18646 18413 18642 18650 18644 
2620 2322 2653 2323 18418 18646 18649 18420 16510 18651 
2653 2322 2356 2323 18646 16735 18647 18651 16510 16736 
2323 2356 2654 2357 16736 18652 18653 16742 16744 18654 
2620 2654 2621 2323 18655 18656 18430 18420 18653 18425 
2323 2356 2653 2654 16736 18647 18651 18653 18652 18657 
2620 2654 2323 2653 18655 18653 18420 18649 18657 18651 
2621 2323 2654 2324 18425 18653 18656 18427 16517 18658 
2654 2323 2357 2324 18653 16742 18654 18658 16517 16743 
2324 2357 2655 2358 16743 18659 18660 16749 16751 18661 
2621 2655 2622 2324 18662 18663 18437 18427 18660 18432 
2324 2357 2654 2655 16743 18654 18658 18660 18659 18664 
2621 2655 2324 2654 18662 18660 18427 18656 18664 18658 
2622 2324 2655 2325 18432 18660 18663 18434 16524 18665 
2655 2324 2358 2325 18660 16749 18661 18665 16524 16750 
2325 2358 2656 2359 16750 18666 18667 16756 16758 18668 
2622 2656 2623 2325 18669 18670 18444 18434 18667 18439 
2325 2358 2655 2656 16750 18661 18665 18667 18666 18671 
2622 2656 2325 2655 18669 18667 18434 18663 18671 18665 
2623 2325 2656 2326 18439 18667 18670 18441 16531 18672 
2656 2325 2359 2326 18667 16756 18668 18672 16531 16757 
2326 2359 2657 2360 16757 18673 18674 16763 16765 18675 
2623 2657 2624 2326 18676 18677 18451 18441 18674 18446 
2326 2359 2656 2657 16757 18668 18672 18674 18673 18678 
2623 2657 2326 2656 18676 18674 18441 18670 18678 18672 
2624 2326 2657 2327 18446 18674 18677 18448 16538 18679 
2657 2326 2360 2327 18674 16763 18675 18679 16538 16764 
2327 2360 2658 2361 16764 18680 18681 16770 16772 18682 
2624 2658 2625 2327 18683 18684 18458 18448 18681 18453 
2327 2360 2657 2658 16764 18675 18679 18681 18680 18685 
2624 2658 2327 2657 18683 18681 18448 18677 18685 18679 
2625 2327 2658 2328 18453 18681 18684 18455 16545 18686 
2658 2327 2361 2328 18681 16770 18682 18686 16545 16771 
2328 2361 2659 2362 16771 18687 18688 16777 16779 18689 
2625 2659 2626 2328 18690 18691 18465 18455 18688 18460 
2328 2361 2658 2659 16771 18682 18686 18688 18687 18692 
2625 2659 2328 2658 18690 18688 18455 18684 18692 18686 
2626 2328 2659 2329 18460 18688 18691 18462 16552 18693 
2659 2328 2362 2329 18688 16777 18689 18693 16552 16778 
2329 2362 2660 2363 16778 18694 18695 16784 16786 18696 
2626 2660 2627 2329 18697 18698 18472 18462 18695 18467 
2329 2362 2659 2660 16778 18689 18693 18695 18694 18699 
2626 2660 2329 2659 18697 18695 18462 18691 18699 18693 
2627 2329 2660 2330 18467 18695 18698 18469 16559 18700 
2660 2329 2363 2330 18695 16784 18696 18700 16559 16785 
2330 2363 2661 2364 16785 18701 18702 16791 16793 18703 
2627 2661 2628 2330 18704 18705 18479 18469 18702 18474 
2330 2363 2660 2661 16785 18696 18700 18702 18701 18706 
2627 2661 2330 2660 18704 18702 18469 18698 18706 18700 
2628 2330 2661 2331 18474 18702 18705 18476 16566 18707 
2661 2330 2364 2331 18702 16791 18703 18707 16566 16792 
2331 2364 2662 2365 16792 18708 18709 16798 16800 18710 
2628 2662 2629 2331 18711 18712 18486 18476 18709 18481 
2331 2364 2661 2662 16792 18703 18707 18709 18708 18713 
2628 2662 2331 2661 18711 18709 18476 18705 18713 18707 
2629 2331 2662 2332 18481 18709 18712 18483 16573 18714 
2662 2331 2365 2332 18709 16798 18710 18714 16573 16799 
2332 2365 2663 2366 16799 18715 18716 16805 16807 18717 
2629 2663 2630 2332 18718 18719 18493 18483 18716 18488 
2332 2365 2662 2663 16799 18710 18714 18716 18715 18720 
2629 2663 2332 2662 18718 18716 18483 18712 18720 18714 
2630 2332 2663 2333 18488 18716 18719 18490 16580 18721 
2663 2332 2366 2333 18716 16805 18717 18721 16580 16806 
2333 2366 2664 2367 16806 18722 18723 16812 16814 18724 
2630 2664 2631 2333 18725 18726 18500 18490 18723 18495 
2333 2366 2663 2664 16806 18717 18721 18723 18722 18727 
2630 2664 2333 2663 18725 18723 18490 18719 18727 18721 
2631 2333 2664 2334 18495 18723 18726 18497 16587 18728 
2664 2333 2367 2334 18723 16812 18724 18728 16587 16813 
2334 2367 2665 2368 16813 18729 18730 16819 16821 18731 
2631 2665 2632 2334 18732 18733 18507 18497 18730 18502 
2334 2367 2664 2665 16813 18724 18728 18730 18729 18734 
2631 2665 2334 2664 18732 18730 18497 18726 18734 18728 
2632 2334 2665 2335 18502 18730 18733 18504 16594 18735 
2665 2334 2368 2335 18730 16819 18731 18735 16594 16820 
2335 2368 2666 2369 16820 18736 18737 16826 16828 18738 
2632 2666 2633 2335 18739 18740 18514 18504 18737 18509 
2335 2368 2665 2666 16820 18731 18735 18737 18736 18741 
2632 2666 2335 2665 18739 18737 18504 18733 18741 18735 
2633 2335 2666 2336 18509 18737 18740 18511 16601 18742 
2666 2335 2369 2336 18737 16826 18738 18742 16601 16827 
2336 2369 2667 2370 16827 18743 18744 16833 16835 18745 
2633 2667 2634 2336 18746 18747 18521 18511 18744 18516 
2336 2369 2666 2667 16827 18738 18742 18744 18743 18748 
2633 2667 2336 2666 18746 18744 18511 18740 18748 18742 
2634 2336 2667 2337 18516 18744 18747 18518 16608 18749 
2667 2336 2370 2337 18744 16833 18745 18749 16608 16834 
2337 2370 2668 2371 16834 18750 18751 16840 16842 18752 
2634 2668 2635 2337 18753 18754 18528 18518 18751 18523 
2337 2370 2667 2668 16834 18745 18749 18751 18750 18755 
2634 2668 2337 2667 18753 18751 18518 18747 18755 18749 
2635 2337 2668 2338 18523 18751 18754 18525 16615 18756 
2668 2337 2371 2338 18751 16840 18752 18756 16615 16841 
2338 2371 2669 2372 16841 18757 18758 16847 16849 18759 
2635 2669 2636 2338 18760 18761 18535 18525 18758 18530 
2338 2371 2668 2669 16841 18752 18756 18758 18757 18762 
2635 2669 2338 2668 18760 18758 18525 18754 18762 18756 
2636 2338 2669 2339 18530 18758 18761 18532 16622 18763 
2669 2338 2372 2339 18758 16847 18759 18763 16622 16848 
2339 2372 2670 2373 16848 18764 18765 16854 16856 18766 
2636 2670 2637 2339 18767 18768 18542 18532 18765 18537 
2339 2372 2669 2670 16848 18759 18763 18765 18764 18769 
2636 2670 2339 2669 18767 18765 18532 18761 18769 18763 
2637 2339 2670 2340 18537 18765 18768 18539 16629 18770 
2670 2339 2373 2340 18765 16854 18766 18770 16629 16855 
2340 2373 2671 2374 16855 18771 18772 16861 16863 18773 
2637 2671 2638 2340 18774 18775 18549 18539 18772 18544 
2340 2373 2670 2671 16855 18766 18770 18772 18771 18776 
2637 2671 2340 2670 18774 18772 18539 18768 18776 18770 
2638 2340 2671 2341 18544 18772 18775 18546 16636 18777 
2671 2340 2374 2341 18772 16861 18773 18777 16636 16862 
2341 2374 2672 2375 16862 18778 18779 16868 16870 18780 
2638 2672 2639 2341 18781 18782 18556 18546 18779 18551 
2341 2374 2671 2672 16862 18773 18777 18779 18778 18783 
2638 2672 2341 2671 18781 18779 18546 18775 18783 18777 
2639 2341 2672 2342 18551 18779 18782 18553 16643 18784 
2672 2341 2375 2342 18779 16868 18780 18784 16643 16869 
CELL_TYPES 12288
24 24 24 24 24 24 24 24 24 24 24 24 24 24 24 24 24 24 24 24 24 24 24 24 24 24 24 24 24 24 24 24 24 24 24 24 24 24 24 24 24 24 24 24 24 24 24 24 24 24 24 24 24 24 24 24 24 24 24 24 24 24 24 24 24 24 24 24 24 24 24 24 24 24 24 24 24 24 24 24 24 24 24 24 24 24 24 24 24 24 24 24 24 24 24 24 24 24 24 24 24 24 24 24 24 24 24 24 24 24 24 24 24 24 24 24 24 24 24 24 24 24 24 24 24 24 24 24 24 24 24 24 24 24 24 24 24 24 24 24 24 24 24 24 24 24 24 24 24 24 24 24 24 24 24 24 24 24 24 24 24 24 24 24 24 24 24 24 24 24 24 24 24 24 24 24 24 24 24 24 24 24 24 24 24 24 24 24 24 24 24 24 24 24 24 24 24 24 24 24 24 24 24 24 24 24 24 24 24 24 24 24 24 24 24 24 24 24 24 24 24 24 24 24 24 24 24 24 24 24 24 24 24 24 24 24 24 24 24 24 24 24 24 24 24 24 24 24 24 24 24 24 24 24 24 24 24 24 24 24 24 24 24 24 24 24 24 24 24 24 24 24 24 24 24 24 24 24 24 24 24 24 24 24 24 24 24 24 24 24 24 24 24 24 24 24 24 24 24 24 24 24 24 24 24 24 24 24 24 24 24 24 24 24 24 24 24 24 24 24 24 24 24 24 24 24 24 24 24 24 24 24 24 24 24 24 24 24 24 24 24 24 24 24 24 24 24 24 24 24 24 24 24 24 24 24 24 24 24 24 24 24 24 24 24 24 24 24 24 24 24 24 24 24 24 24 24 24 24 24 24 24 24 24 24 24 24 24 24 24 24 24 24 24 24 24 24 24 24 24 24 24 24 24 24 24 24 24 24 24 24 24 24 24 24 24 24 24 24 24 24 24 24 24 24 24 24 24 24 24 24 24 24 24 24 24 24 24 24 24 24 24 24 24 24 24 24 24 24 24 24 24 24 24 24 24 24 24 24 24 24 24 24 24 24 24 24 24 24 24 24 24 24 24 24 24 24 24 24 24 24 24 24 24 24 24 24 24 24 24 24 24 24 24 24 24 24 24 24 24 24 24 24 24 24 24 24 24 24 24 24 24 24 24 24 24 24 24 24 24 24 24 24 24 24 24 24 24 24 24 24 24 24 24 24 24 24 24 24 24 24 24 24 24 24 24 24 24 24 24 24 24 24 24 24 24 24 24 24 24 24 24 24 24 24 24 24 24 24 24 24 24 24 24 24 24 24 24 24 24 24 24 24 24 24 24 24 24 24 24 24 24 24 24 24 24 24 24 24 24 24 24 24 24 24 24 24 24 24 24 24 24 24 24 24 24 24 24 24 24 24 24 24 24 24 24 24 24 24 24 24 24 24 24 24 24 24 24 24 24 24 24 24 24 24 24 24 24 24 24 24 24 24 24 24 24 24 24 24 24 24 24 24 24 24 24 24 24 24 24 24 24 24 24 24 24 24 24 24 24 24 24 24 24 24 24 24 24 24 24 24 24 24 24 24 24 24 24 24 24 24 24 24 24 24 24 24 24 24 24 24 24 24 24 24 24 24 24 24 24 24 24 24 24 24 24 24 24 24 24 24 24 24 24 24 24 24 24 24 24 24 24 24 24 24 24 24 24 24 24 24 24 24 24 24 24 24 24 24 24 24 24 24 24 24 24 24 24 24 24 24 24 24 24 24 24 24 24 24 24 24 24 24 24 24 24 24 24 24 24 24 24 24 24 24 24 24 24 24 24 24 24 24 24 24 24 24 24 24 24 24 24 24 24 24 24 24 24 24 24 24 24 24 24 24 24 24 24 24 24 24 24 24 24 24 24 24 24 24 24 24 24 24 24 24 24 24 24 24 24 24 24 24 24 24 24 24 24 24 24 24 24 24 24 24 24 24 24 24 24 24 24 24 24 24 24 24 24 24 24 24 24 24 24 24 24 24 24 24 24 24 24 24 24 24 24 24 24 24 24 24 24 24 24 24 24 24 24 24 24 24 24 24 24 24 24 24 24 24 24 24 24 24 24 24 24 24 24 24 24 24 24 24 24 24 24 24 24 24 24 24 24 24 24 24 24 24 24 24 24 24 24 24 24 24 24 24 24 24 24 24 24 24 24 24 24 24 24 24 24 24 24 24 24 24 24 24 24 24 24 24 24 24 24 24 24 24 24 24 24 24 24 24 24 24 24 24 24 24 24 24 24 24 24 24 24 24 24 24 24 24 24 24 24 24 24 24 24 24 24 24 24 24 24 24 24 24 24 24 24 24 24 24 24 24 24 24 24 24 24 24 24 24 24 24 24 24 24 24 24 24 24 24 24 24 24 24 24 24 24 24 24 24 24 24 24 24 24 24 24 24 24 24 24 24 24 24 24 24 24 24 24 24 24 24 24 24 24 24 24 24 24 24 24 24 24 24 24 24 24 24 24 24 24 24 24 24 24 24 24 24 24 24 24 24 24 24 24 24 24 24 24 24 24 24 24 24 24 24 24 24 24 24 24 24 24 24 24 24 24 24 24 24 24 24 24 24 24 24 24 24 24 24 24 24 24 24 24 24 24 24 24 24 24 24 24 24 24 24 24 24 24 24 24 24 24 24 24 24 24 24 24 24 24 24 24 24 24 24 24 24 24 24 24 24 24 24 24 24 24 24 24 24 24 24 24 24 24 24 24 24 24 24 24 24 24 24 24 24 24 24 24 24 24 24 24 24 24 24 24 24 24 24 24 24 24 24 24 24 24 24 24 24 24 24 24 24 24 24 24 24 24 24 24 24 24 24 24 24 24 24 24 24 24 24 24 24 24 24 24 24 24 24 24 24 24 24 24 24 24 24 24 24 24 24 24 24 24 24 24 24 24 24 24 24 24 24 24 24 24 24 24 24 24 24 24 24 24 24 24 24 24 24 24 24 24 24 24 24 24 24 24 24 24 24 24 24 24 24 24 24 24 24 24 24 24 24 24 24 24 24 24 24 24 24 24 24 24 24 24 24 24 24 24 24 24 24 24 24 24 24 24 24 24 24 24 24 24 24 24 24 24 24 24 24 24 24 24 24 24 24 24 24 24 24 24 24 24 24 24 24 24 24 24 24 24 24 24 24 24 24 24 24 24 24 24 24 24 24 24 24 24 24 24 24 24 24 24 24 24 24 24 24 24 24 24 24 24 24 24 24 24 24 24 24 24 24 24 24 24 24 24 24 24 24 24 24 24 24 24 24 24 24 24 24 24 24 24 24 24 24 24 24 24 24 24 24 24 24 24 24 24 24 24 24 24 24 24 24 24 24 24 24 24 24 24 24 24 24 24 24 24 24 24 24 24 24 24 24 24 24 24 24 24 24 24 24 24 24 24 24 24 24 24 24 24 24 24 24 24 24 24 24 24 24 24 24 24 24 24 24 24 24 24 24 24 24 24 24 24 24 24 24 24 24 24 24 24 24 24 24 24 24 24 24 24 24 24 24 24 24 24 24 24 24 24 24 24 24 24 24 24 24 24 24 24 24 24 24 24 24 24 24 24 24 24 24 24 24 24 24 24 24 24 24 24 24 24 24 24 24 24 24 24 24 24 24 24 24 24 24 24 24 24 24 24 24 24 24 24 24 24 24 24 24 24 24 24 24 24 24 24 24 24 24 24 24 24 24 24 24 24 24 24 24 24 24 24 24 24 24 24 24 24 24 24 24 24 24 24 24 24 24 24 24 24 24 24 24 24 24 24 24 24 24 24 24 24 24 24 24 24 24 24 24 24 24 24 24 24 24 24 24 24 24 24 24 24 24 24 24 24 24 24 24 24 24 24 24 24 24 24 24 24 24 24 24 24 24 24 24 24 24 24 24 24 24 24 24 24 24 24 24 24 24 24 24 24 24 24 24 24 24 24 24 24 24 24 24 24 24 24 24 24 24 24 24 24 24 24 24 24 24 24 24 24 24 24 24 24 24 24 24 24 24 24 24 24 24 24 24 24 24 24 24 24 24 24 24 24 24 24 24 24 24 24 24 24 24 24 24 24 24 24 24 24 24 24 24 24 24 24 24 24 24 24 24 24 24 24 24 24 24 24 24 24 24 24 24 24 24 24 24 24 24 24 24 24 24 24 24 24 24 24 24 24 24 24 24 24 24 24 24 24 24 24 24 24 24 24 24 24 24 24 24 24 24 24 24 24 24 24 24 24 24 24 24 24 24 24 24 24 24 24 24 24 24 24 24 24 24 24 24 24 24 24 24 24 24 24 24 24 24 24 24 24 24 24 24 24 24 24 24 24 24 24 24 24 24 24 24 24 24 24 24 24 24 24 24 24 24 24 24 24 24 24 24 24 24 24 24 24 24 24 24 24 24 24 24 24 24 24 24 24 24 24 24 24 24 24 24 24 24 24 24 24 24 24 24 24 24 24 24 24 24 24 24 24 24 24 24 24 24 24 24 24 24 24 24 24 24 24 24 24 24 24 24 24 24 24 24 24 24 24 24 24 24 24 24 24 24 24 24 24 24 24 24 24 24 24 24 24 24 24 24 24 24 24 24 24 24 24 24 24 24 24 24 24 24 24 24 24 24 24 24 24 24 24 24 24 24 24 24 24 24 24 24 24 24 24 24 24 24 24 24 24 24 24 24 24 24 24 24 24 24 24 24 24 24 24 24 24 24 24 24 24 24 24 24 24 24 24 24 24 24 24 24 24 24 24 24 24 24 24 24 24 24 24 24 24 24 24 24 24 24 24 24 24 24 24 24 24 24 24 24 24 24 24 24 24 24 24 24 24 24 24 24 24 24 24 24 24 24 24 24 24 24 24 24 24 24 24 24 24 24 24 24 24 24 24 24 24 24 24 24 24 24 24 24 24 24 24 24 24 24 24 24 24 24 24 24 24 24 24 24 24 24 24 24 24 24 24 24 24 24 24 24 24 24 24 24 24 24 24 24 24 24 24 24 24 24 24 24 24 24 24 24 24 24 24 24 24 24 24 24 24 24 24 24 24 24 24 24 24 24 24 24 24 24 24 24 24 24 24 24 24 24 24 24 24 24 24 24 24 24 24 24 24 24 24 24 24 24 24 24 24 24 24 24 24 24 24 24 24 24 24 24 24 24 24 24 24 24 24 24 24 24 24 24 24 24 24 24 24 24 24 24 24 24 24 24 24 24 24 24 24 24 24 24 24 24 24 24 24 24 24 24 24 24 24 24 24 24 24 24 24 24 24 24 24 24 24 24 24 24 24 24 24 24 24 24 24 24 24 24 24 24 24 24 24 24 24 24 24 24 24 24 24 24 24 24 24 24 24 24 24 24 24 24 24 24 24 24 24 24 24 24 24 24 24 24 24 24 24 24 24 24 24 24 24 24 24 24 24 24 24 24 24 24 24 24 24 24 24 24 24 24 24 24 24 24 24 24 24 24 24 24 24 24 24 24 24 24 24 24 24 24 24 24 24 24 24 24 24 24 24 24 24 24 24 24 24 24 24 24 24 24 24 24 24 24 24 24 24 24 24 24 24 24 24 24 24 24 24 24 24 24 24 24 24 24 24 24 24 24 24 24 24 24 24 24 24 24 24 24 24 24 24 24 24 24 24 24 24 24 24 24 24 24 24 24 24 24 24 24 24 24 24 24 24 24 24 24 24 24 24 24 24 24 24 24 24 24 24 24 24 24 24 24 24 24 24 24 24 24 24 24 24 24 24 24 24 24 24 24 24 24 24 24 24 24 24 24 24 24 24 24 24 24 24 24 24 24 24 24 24 24 24 24 24 24 24 24 24 24 24 24 24 24 24 24 24 24 24 24 24 24 24 24 24 24 24 24 24 24 24 24 24 24 24 24 24 24 24 24 24 24 24 24 24 24 24 24 24 24 24 24 24 24 24 24 24 24 24 24 24 24 24 24 24 24 24 24 24 24 24 24 24 24 24 24 24 24 24 24 24 24 24 24 24 24 24 24 24 24 24 24 24 24 24 24 24 24 24 24 24 24 24 24 24 24 24 24 24 24 24 24 24 24 24 24 24 24 24 24 24 24 24 24 24 24 24 24 24 24 24 24 24 24 24 24 24 24 24 24 24 24 24 24 24 24 24 24 24 24 24 24 24 24 24 24 24 24 24 24 24 24 24 24 24 24 24 24 24 24 24 24 24 24 24 24 24 24 24 24 24 24 24 24 24 24 24 24 24 24 24 24 24 24 24 24 24 24 24 24 24 24 24 24 24 24 24 24 24 24 24 24 24 24 24 24 24 24 24 24 24 24 24 24 24 24 24 24 24 24 24 24 24 24 24 24 24 24 24 24 24 24 24 24 24 24 24 24 24 24 24 24 24 24 24 24 24 24 24 24 24 24 24 24 24 24 24 24 24 24 24 24 24 24 24 24 24 24 24 24 24 24 24 24 24 24 24 24 24 24 24 24 24 24 24 24 24 24 24 24 24 24 24 24 24 24 24 24 24 24 24 24 24 24 24 24 24 24 24 24 24 24 24 24 24 24 24 24 24 24 24 24 24 24 24 24 24 24 24 24 24 24 24 24 24 24 24 24 24 24 24 24 24 24 24 24 24 24 24 24 24 24 24 24 24 24 24 24 24 24 24 24 24 24 24 24 24 24 24 24 24 24 24 24 24 24 24 24 24 24 24 24 24 24 24 24 24 24 24 24 24 24 24 24 24 24 24 24 24 24 24 24 24 24 24 24 24 24 24 24 24 24 24 24 24 24 24 24 24 24 24 24 24 24 24 24 24 24 24 24 24 24 24 24 24 24 24 24 24 24 24 24 24 24 24 24 24 24 24 24 24 24 24 24 24 24 24 24 24 24 24 24 24 24 24 24 24 24 24 24 24 24 24 24 24 24 24 24 24 24 24 24 24 24 24 24 24 24 24 24 24 24 24 24 24 24 24 24 24 24 24 24 24 24 24 24 24 24 24 24 24 24 24 24 24 24 24 24 24 24 24 24 24 24 24 24 24 24 24 24 24 24 24 24 24 24 24 24 24 24 24 24 24 24 24 24 24 24 24 24 24 24 24 24 24 24 24 24 24 24 24 24 24 24 24 24 24 24 24 24 24 24 24 24 24 24 24 24 24 24 24 24 24 24 24 24 24 24 24 24 24 24 24 24 24 24 24 24 24 24 24 24 24 24 24 24 24 24 24 24 24 24 24 24 24 24 24 24 24 24 24 24 24 24 24 24 24 24 24 24 24 24 24 24 24 24 24 24 24 24 24 24 24 24 24 24 24 24 24 24 24 24 24 24 24 24 24 24 24 24 24 24 24 24 24 24 24 24 24 24 24 24 24 24 24 24 24 24 24 24 24 24 24 24 24 24 24 24 24 24 24 24 24 24 24 24 24 24 24 24 24 24 24 24 24 24 24 24 24 24 24 24 24 24 24 24 24 24 24 24 24 24 24 24 24 24 24 24 24 24 24 24 24 24 24 24 24 24 24 24 24 24 24 24 24 24 24 24 24 24 24 24 24 24 24 24 24 24 24 24 24 24 24 24 24 24 24 24 24 24 24 24 24 24 24 24 24 24 24 24 24 24 24 24 24 24 24 24 24 24 24 24 24 24 24 24 24 24 24 24 24 24 24 24 24 24 24 24 24 24 24 24 24 24 24 24 24 24 24 24 24 24 24 24 24 24 24 24 24 24 24 24 24 24 24 24 24 24 24 24 24 24 24 24 24 24 24 24 24 24 24 24 24 24 24 24 24 24 24 24 24 24 24 24 24 24 24 24 24 24 24 24 24 24 24 24 24 24 24 24 24 24 24 24 24 24 24 24 24 24 24 24 24 24 24 24 24 24 24 24 24 24 24 24 24 24 24 24 24 24 24 24 24 24 24 24 24 24 24 24 24 24 24 24 24 24 24 24 24 24 24 24 24 24 24 24 24 24 24 24 24 24 24 24 24 24 24 24 24 24 24 24 24 24 24 24 24 24 24 24 24 24 24 24 24 24 24 24 24 24 24 24 24 24 24 24 24 24 24 24 24 24 24 24 24 24 24 24 24 24 24 24 24 24 24 24 24 24 24 24 24 24 24 24 24 24 24 24 24 24 24 24 24 24 24 24 24 24 24 24 24 24 24 24 24 24 24 24 24 24 24 24 24 24 24 24 24 24 24 24 24 24 24 24 24 24 24 24 24 24 24 24 24 24 24 24 24 24 24 24 24 24 24 24 24 24 24 24 24 24 24 24 24 24 24 24 24 24 24 24 24 24 24 24 24 24 24 24 24 24 24 24 24 24 24 24 24 24 24 24 24 24 24 24 24 24 24 24 24 24 24 24 24 24 24 24 24 24 24 24 24 24 24 24 24 24 24 24 24 24 24 24 24 24 24 24 24 24 24 24 24 24 24 24 24 24 24 24 24 24 24 24 24 24 24 24 24 24 24 24 24 24 24 24 24 24 24 24 24 24 24 24 24 24 24 24 24 24 24 24 24 24 24 24 24 24 24 24 24 24 24 24 24 24 24 24 24 24 24 24 24 24 24 24 24 24 24 24 24 24 24 24 24 24 24 24 24 24 24 24 24 24 24 24 24 24 24 24 24 24 24 24 24 24 24 24 24 24 24 24 24 24 24 24 24 24 24 24 24 24 24 24 24 24 24 24 24 24 24 24 24 24 24 24 24 24 24 24 24 24 24 24 24 24 24 24 24 24 24 24 24 24 24 24 24 24 24 24 24 24 24 24 24 24 24 24 24 24 24 24 24 24 24 24 24 24 24 24 24 24 24 24 24 24 24 24 24 24 24 24 24 24 24 24 24 24 24 24 24 24 24 24 24 24 24 24 24 24 24 24 24 24 24 24 24 24 24 24 24 24 24 24 24 24 24 24 24 24 24 24 24 24 24 24 24 24 24 24 24 24 24 24 24 24 24 24 24 24 24 24 24 24 24 24 24 24 24 24 24 24 24 24 24 24 24 24 24 24 24 24 24 24 24 24 24 24 24 24 24 24 24 24 24 24 24 24 24 24 24 24 24 24 24 24 24 24 24 24 24 24 24 24 24 24 24 24 24 24 24 24 24 24 24 24 24 24 24 24 24 24 24 24 24 24 24 24 24 24 24 24 24 24 24 24 24 24 24 24 24 24 24 24 24 24 24 24 24 24 24 24 24 24 24 24 24 24 24 24 24 24 24 24 24 24 24 24 24 24 24 24 24 24 24 24 24 24 24 24 24 24 24 24 24 24 24 24 24 24 24 24 24 24 24 24 24 24 24 24 24 24 24 24 24 24 24 24 24 24 24 24 24 24 24 24 24 24 24 24 24 24 24 24 24 24 24 24 24 24 24 24 24 24 24 24 24 24 24 24 24 24 24 24 24 24 24 24 24 24 24 24 24 24 24 24 24 24 24 24 24 24 24 24 24 24 24 24 24 24 24 24 24 24 24 24 24 24 24 24 24 24 24 24 24 24 24 24 24 24 24 24 24 24 24 24 24 24 24 24 24 24 24 24 24 24 24 24 24 24 24 24 24 24 24 24 24 24 24 24 24 24 24 24 24 24 24 24 24 24 24 24 24 24 24 24 24 24 24 24 24 24 24 24 24 24 24 24 24 24 24 24 24 24 24 24 24 24 24 24 24 24 24 24 24 24 24 24 24 24 24 24 24 24 24 24 24 24 24 24 24 24 24 24 24 24 24 24 24 24 24 24 24 24 24 24 24 24 24 24 24 24 24 24 24 24 24 24 24 24 24 24 24 24 24 24 24 24 24 24 24 24 24 24 24 24 24 24 24 24 24 24 24 24 24 24 24 24 24 24 24 24 24 24 24 24 24 24 24 24 24 24 24 24 24 24 24 24 24 24 24 24 24 24 24 24 24 24 24 24 24 24 24 24 24 24 24 24 24 24 24 24 24 24 24 24 24 24 24 24 24 24 24 24 24 24 24 24 24 24 24 24 24 24 24 24 24 24 24 24 24 24 24 24 24 24 24 24 24 24 24 24 24 24 24 24 24 24 24 24 24 24 24 24 24 24 24 24 24 24 24 24 24 24 24 24 24 24 24 24 24 24 24 24 24 24 24 24 24 24 24 24 24 24 24 24 24 24 24 24 24 24 24 24 24 24 24 24 24 24 24 24 24 24 24 24 24 24 24 24 24 24 24 24 24 24 24 24 24 24 24 24 24 24 24 24 24 24 24 24 24 24 24 24 24 24 24 24 24 24 24 24 24 24 24 24 24 24 24 24 24 24 24 24 24 24 24 24 24 24 24 24 24 24 24 24 24 24 24 24 24 24 24 24 24 24 24 24 24 24 24 24 24 24 24 24 24 24 24 24 24 24 24 24 24 24 24 24 24 24 24 24 24 24 24 24 24 24 24 24 24 24 24 24 24 24 24 24 24 24 24 24 24 24 24 24 24 24 24 24 24 24 24 24 24 24 24 24 24 24 24 24 24 24 24 24 24 24 24 24 24 24 24 24 24 24 24 24 24 24 24 24 24 24 24 24 24 24 24 24 24 24 24 24 24 24 24 24 24 24 24 24 24 24 24 24 24 24 24 24 24 24 24 24 24 24 24 24 24 24 24 24 24 24 24 24 24 24 24 24 24 24 24 24 24 24 24 24 24 24 24 24 24 24 24 24 24 24 24 24 24 24 24 24 24 24 24 24 24 24 24 24 24 24 24 24 24 24 24 24 24 24 24 24 24 24 24 24 24 24 24 24 24 24 24 24 24 24 24 24 24 24 24 24 24 24 24 24 24 24 24 24 24 24 24 24 24 24 24 24 24 24 24 24 24 24 24 24 24 24 24 24 24 24 24 24 24 24 24 24 24 24 24 24 24 24 24 24 24 24 24 24 24 24 24 24 24 24 24 24 24 24 24 24 24 24 24 24 24 24 24 24 24 24 24 24 24 24 24 24 24 24 24 24 24 24 24 24 24 24 24 24 24 24 24 24 24 24 24 24 24 24 24 24 24 24 24 24 24 24 24 24 24 24 24 24 24 24 24 24 24 24 24 24 24 24 24 24 24 24 24 24 24 24 24 24 24 24 24 24 24 24 24 24 24 24 24 24 24 24 24 24 24 24 24 24 24 24 24 24 24 24 24 24 24 24 24 24 24 24 24 24 24 24 24 24 24 24 24 24 24 24 24 24 24 24 24 24 24 24 24 24 24 24 24 24 24 24 24 24 24 24 24 24 24 24 24 24 24 24 24 24 24 24 24 24 24 24 24 24 24 24 24 24 24 24 24 24 24 24 24 24 24 24 24 24 24 24 24 24 24 24 24 24 24 24 24 24 24 24 24 24 24 24 24 24 24 24 24 24 24 24 24 24 24 24 24 24 24 24 24 24 24 24 24 24 24 24 24 24 24 24 24 24 24 24 24 24 24 24 24 24 24 24 24 24 24 24 24 24 24 24 24 24 24 24 24 24 24 24 24 24 24 24 24 24 24 24 24 24 24 24 24 24 24 24 24 24 24 24 24 24 24 24 24 24 24 24 24 24 24 24 24 24 24 24 24 24 24 24 24 24 24 24 24 24 24 24 24 24 24 24 24 24 24 24 24 24 24 24 24 24 24 24 24 24 24 24 24 24 24 24 24 24 24 24 24 24 24 24 24 24 24 24 24 24 24 24 24 24 24 24 24 24 24 24 24 24 24 24 24 24 24 24 24 24 24 24 24 24 24 24 24 24 24 24 24 24 24 24 24 24 24 24 24 24 24 24 24 24 24 24 24 24 24 24 24 24 24 24 24 24 24 24 24 24 24 24 24 24 24 24 24 24 24 24 24 24 24 24 24 24 24 24 24 24 24 24 24 24 24 24 24 24 24 24 24 24 24 24 24 24 24 24 24 24 24 24 24 24 24 24 24 24 24 24 24 24 24 24 24 24 24 24 24 24 24 24 24 24 24 24 24 24 24 24 24 24 24 24 24 24 24 24 24 24 24 24 24 24 24 24 24 24 24 24 24 24 24 24 24 24 24 24 24 24 24 24 24 24 24 24 24 24 24 24 24 24 24 24 24 24 24 24 24 24 24 24 24 24 24 24 24 24 24 24 24 24 24 24 24 24 24 24 24 24 24 24 24 24 24 24 24 24 24 24 24 24 24 24 24 24 24 24 24 24 24 24 24 24 24 24 24 24 24 24 24 24 24 24 24 24 24 24 24 24 24 24 24 24 24 24 24 24 24 24 24 24 24 24 24 24 24 24 24 24 24 24 24 24 24 24 24 24 24 24 24 24 24 24 24 24 24 24 24 24 24 24 24 24 24 24 24 24 24 24 24 24 24 24 24 24 24 24 24 24 24 24 24 24 24 24 24 24 24 24 24 24 24 24 24 24 24 24 24 24 24 24 24 24 24 24 24 24 24 24 24 24 24 24 24 24 24 24 24 24 24 24 24 24 24 24 24 24 24 24 24 24 24 24 24 24 24 24 24 24 24 24 24 24 24 24 24 24 24 24 24 24 24 24 24 24 24 24 24 24 24 24 24 24 24 24 24 24 24 24 24 24 24 24 24 24 24 24 24 24 24 24 24 24 24 24 24 24 24 24 24 24 24 24 24 24 24 24 24 24 24 24 24 24 24 24 24 24 24 24 24 24 24 24 24 24 24 24 24 24 24 24 24 24 24 24 24 24 24 24 24 24 24 24 24 24 24 24 24 24 24 24 24 24 24 24 24 24 24 24 24 24 24 24 24 24 24 24 24 24 24 24 24 24 24 24 24 24 24 24 24 24 24 24 24 24 24 24 24 24 24 24 24 24 24 24 24 24 24 24 24 24 24 24 24 24 24 24 24 24 24 24 24 24 24 24 24 24 24 24 24 24 24 24 24 24 24 24 24 24 24 24 24 24 24 24 24 24 24 24 24 24 24 24 24 24 24 24 24 24 24 24 24 24 24 24 24 24 24 24 24 24 24 24 24 24 24 24 24 24 24 24 24 24 24 24 24 24 24 24 24 24 24 24 24 24 24 24 24 24 24 24 24 24 24 24 24 24 24 24 24 24 24 24 24 24 24 24 24 24 24 24 24 24 24 24 24 24 24 24 24 24 24 24 24 24 24 24 24 24 24 24 24 24 24 24 24 24 24 24 24 24 24 24 24 24 24 24 24 24 24 24 24 24 24 24 24 24 24 24 24 24 24 24 24 24 24 24 24 24 24 24 24 24 24 24 24 24 24 24 24 24 24 24 24 24 24 24 24 24 24 24 24 24 24 24 24 24 24 24 24 24 24 24 24 24 24 24 24 24 24 24 24 24 24 24 24 24 24 24 24 24 24 24 24 24 24 24 24 24 24 24 24 24 24 24 24 24 24 24 24 24 24 24 24 24 24 24 24 24 24 24 24 24 24 24 24 24 24 24 24 24 24 24 24 24 24 24 24 24 24 24 24 24 24 24 24 24 24 24 24 24 24 24 24 24 24 24 24 24 24 24 24 24 24 24 24 24 24 24 24 24 24 24 24 24 24 24 24 24 24 24 24 24 24 24 24 24 24 24 24 24 24 24 24 24 24 24 24 24 24 24 24 24 24 24 24 24 24 24 24 24 24 24 24 24 24 24 24 24 24 24 24 24 24 24 24 24 24 24 24 24 24 24 24 24 24 24 24 24 24 24 24 24 24 24 24 24 24 24 24 24 24 24 24 24 24 24 24 24 24 24 24 24 24 24 24 24 24 24 24 24 24 24 24 24 24 24 24 24 24 24 24 24 24 24 24 24 24 24 24 24 24 24 24 24 24 24 24 24 24 24 24 24 24 24 24 24 24 24 24 24 24 24 24 24 24 24 24 24 24 24 24 24 24 24 24 24 24 24 24 24 24 24 24 24 24 24 24 24 24 24 24 24 24 24 24 24 24 24 24 24 24 24 24 24 24 24 24 24 24 24 24 24 24 24 24 24 24 24 24 24 24 24 24 24 24 24 24 24 24 24 24 24 24 24 24 24 24 24 24 24 24 24 24 24 24 24 24 24 24 24 24 24 24 24 24 24 24 24 24 24 24 24 24 24 24 24 24 24 24 24 24 24 24 24 24 24 24 24 24 24 24 24 24 24 24 24 24 24 24 24 24 24 24 24 24 24 24 24 24 24 24 24 24 24 24 24 24 24 24 24 24 24 24 24 24 24 24 24 24 24 24 24 24 24 24 24 24 24 24 24 24 24 24 24 24 24 24 24 24 24 24 24 24 24 24 24 24 24 24 24 24 24 24 24 24 24 24 24 24 24 24 24 24 24 24 24 24 24 24 24 24 24 24 24 24 24 24 24 24 24 24 24 24 24 24 24 24 24 24 24 24 24 24 24 24 24 24 24 24 24 24 24 24 24 24 24 24 24 24 24 24 24 24 24 24 24 24 24 24 24 24 24 24 24 24 24 24 24 24 24 24 24 24 24 24 24 24 24 24 24 24 24 24 24 24 24 24 24 24 24 24 24 24 24 24 24 24 24 24 24 24 24 24 24 24 24 24 24 24 24 24 24 24 24 24 24 24 24 24 24 24 24 24 24 24 24 24 24 24 24 24 24 24 24 24 24 24 24 24 24 24 24 24 24 24 24 24 24 24 24 24 24 24 24 24 24 24 24 24 24 24 24 24 24 24 24 24 24 24 24 24 24 24 24 24 24 24 24 24 24 24 24 24 24 24 24 24 24 24 24 24 24 24 24 24 24 24 24 24 24 24 24 24 24 24 24 24 24 24 24 24 24 24 24 24 24 24 24 24 24 24 24 24 24 24 24 24 24 24 24 24 24 24 24 24 24 24 24 24 24 24 24 24 24 24 24 24 24 24 24 24 24 24 24 24 24 24 24 24 24 24 24 24 24 24 24 24 24 24 24 24 24 24 24 24 24 24 24 24 24 24 24 24 24 24 24 24 24 24 24 24 24 24 24 24 24 24 24 24 24 24 24 24 24 24 24 24 24 24 24 24 24 24 24 24 24 24 24 24 24 24 24 24 24 24 24 24 24 24 24 24 24 24 24 24 24 24 24 24 24 24 24 24 24 24 24 24 24 24 24 24 24 24 24 24 24 24 24 24 24 24 24 24 24 24 24 24 24 24 24 24 24 24 24 24 24 24 24 24 24 24 24 24 24 24 24 24 24 24 24 24 24 24 24 24 24 24 24 24 24 24 24 24 24 24 24 24 24 24 24 24 24 24 24 24 24 24 24 24 24 24 24 24 24 24 24 24 24 24 24 24 24 24 24 24 24 24 24 24 24 24 24 24 24 24 24 24 24 24 24 24 24 24 24 24 24 24 24 24 24 24 24 24 24 24 24 24 24 24 24 24 24 24 24 24 24 24 24 24 24 24 24 24 24 24 24 24 24 24 24 24 24 24 24 24 24 24 24 24 24 24 24 24 24 24 24 24 24 24 24 24 24 24 24 24 24 24 24 24 24 24 24 24 24 24 24 24 24 24 24 24 24 24 24 24 24 24 24 24 24 24 24 24 24 24 24 24 24 24 24 24 24 24 24 24 24 24 24 24 24 24 24 24 24 24 24 24 24 24 24 24 24 24 24 24 24 24 24 24 24 24 24 24 24 24 24 24 24 24 24 24 24 24 24 24 24 24 24 24 24 24 24 24 24 24 24 24 24 24 24 24 24 24 24 24 24 24 24 24 24 24 24 24 24 24 24 24 24 24 24 24 24 24 24 24 24 24 24 24 24 24 24 24 24 24 24 24 24 24 24 24 24 24 24 24 24 24 24 24 24 24 24 24 24 24 24 24 24 24 24 24 24 24 24 24 24 24 24 24 24 24 24 24 24 24 24 24 24 24 24 24 24 24 24 24 24 24 24 24 24 24 24 24 24 24 24 24 24 24 24 24 24 24 24 24 24 24 24 24 24 24 24 24 24 24 24 24 24 24 24 24 24 24 24 24 24 24 24 24 24 24 24 24 24 24 24 24 24 24 24 24 24 24 24 24 24 24 24 24 24 24 24 24 24 24 24 24 24 24 24 24 24 24 24 24 24 24 24 24 24 24 24 24 24 24 24 24 24 24 24 24 24 24 24 24 24 24 24 24 24 24 24 24 24 24 24 24 24 24 24 24 24 24 24 24 24 24 24 24 24 24 24 24 24 24 24 24 24 24 24 24 24 24 24 24 24 24 24 24 24 24 24 24 24 24 24 24 24 24 24 24 24 24 24 24 24 24 24 24 24 24 24 24 24 24 24 24 24 24 24 24 24 24 24 24 24 24 24 24 24 24 24 24 24 24 24 24 24 24 24 24 24 24 24 24 24 24 24 24 24 24 24 24 24 24 24 24 24 24 24 24 24 24 24 24 24 24 24 24 24 24 24 24 24 24 24 24 24 24 24 24 24 24 24 24 24 24 24 24 24 24 24 24 24 24 24 24 24 24 24 24 24 24 24 24 24 24 24 24 24 24 24 24 24 24 24 24 24 24 24 24 24 24 24 24 24 24 24 24 24 24 24 24 24 24 24 24 24 24 24 24 24 24 24 24 24 24 24 24 24 24 24 24 24 24 24 24 24 24 24 24 24 24 24 24 24 24 24 24 24 24 24 24 24 24 24 24 24 24 24 24 24 24 24 24 24 24 24 24 24 24 24 24 24 24 24 24 24 24 24 24 24 24 24 24 24 24 24 24 24 24 24 24 24 24 24 24 24 24 24 24 24 24 24 24 24 24 24 24 24 24 24 24 24 24 24 24 24 24 24 24 24 24 24 24 24 24 24 24 24 24 24 24 24 24 24 24 24 24 24 24 24 24 24 24 24 24 24 24 24 24 24 24 24 24 24 24 24 24 24 24 24 24 24 24 24 24 24 24 24 24 24 24 24 24 24 24 24 24 24 24 24 24 24 24 24 24 24 24 24 24 24 24 24 24 24 24 24 24 24 24 24 24 24 24 24 24 24 24 24 24 24 24 24 24 24 24 24 24 24 24 24 24 24 24 24 24 24 24 24 24 24 24 24 24 24 24 24 24 24 24 24 24 24 24 24 24 24 24 24 24 24 24 24 24 24 24 24 24 24 24 24 24 24 24 24 24 24 24 24 24 24 24 24 24 24 24 24 24 24 24 24 24 24 24 24 24 24 24 24 24 24 24 24 24 24 24 24 24 24 24 24 24 24 24 24 24 24 24 24 24 24 24 24 24 24 24 24 24 24 24 24 24 24 24 24 24 24 24 24 24 24 24 24 24 24 24 24 24 24 24 24 24 24 24 24 24 24 24 24 24 24 24 24 24 24 24 24 24 24 24 24 24 24 24 24 24 24 24 24 24 24 24 24 24 24 24 24 24 24 24 24 24 24 24 24 24 24 24 24 24 24 24 24 24 24 24 24 24 24 24 24 24 24 24 24 24 24 24 24 24 24 24 24 24 24 24 24 24 24 24 24 24 24 24 24 24 24 24 24 24 24 24 24 24 24 24 24 24 24 24 24 24 24 24 24 24 24 24 24 24 24 24 24 24 24 24 24 24 24 24 24 24 24 24 24 24 24 24 24 24 24 24 24 24 24 24 24 24 24 24 24 24 24 24 24 24 24 24 24 24 24 24 24 24 24 24 24 24 24 24 24 24 24 24 24 24 24 24 24 24 24 24 24 24 24 24 24 24 24 24 24 24 24 24 24 24 24 24 24 24 24 24 24 24 24 24 24 24 24 24 24 24 24 24 24 24 24 24 24 24 24 24 24 24 24 24 24 24 24 24 24 24 24 24 24 24 24 24 24 24 24 24 24 24 24 24 24 24 24 24 24 24 24 24 24 24 24 24 24 24 24 24 24 24 24 24 24 24 24 24 24 24 24 24 24 24 24 24 24 24 24 24 24 24 24 24 24 24 24 24 24 24 24 24 24 24 24 24 24 24 24 24 24 24 24 24 24 24 24 24 24 24 24 24 24 24 24 24 24 24 24 24 24 24 24 24 24 24 24 24 24 24 24 24 24 24 24 24 24 24 24 24 24 24 24 24 24 24 24 24 24 24 24 24 24 24 24 24 24 24 24 24 24 24 24 24 24 24 24 24 24 24 24 24 24 24 24 24 24 24 24 24 24 24 24 24 24 24 24 24 24 24 24 24 24 24 24 24 24 24 24 24 24 24 24 24 24 24 24 24 24 24 24 24 24 24 24 24 24 24 24 24 24 24 24 24 24 24 24 24 24 24 24 24 24 24 24 24 24 24 24 24 24 24 24 24 24 24 24 24 24 24 24 24 24 24 24 24 24 24 24 24 24 24 24 24 24 24 24 24 24 24 24 24 24 24 24 24 24 24 24 24 24 24 24 24 24 24 24 24 24 24 24 24 24 24 24 24 24 24 24 24 24 24 24 24 24 24 24 24 24 24 24 24 24 24 24 24 24 24 24 24 24 24 24 24 24 24 24 24 24 24 24 24 24 24 24 24 24 24 24 24 24 24 24 24 24 24 24 24 24 24 24 24 24 24 24 24 24 24 24 24 24 24 24 24 24 24 24 24 24 24 24 24 24 24 24 24 24 24 24 24 24 24 24 24 24 24 24 24 24 24 24 24 24 24 24 24 24 24 24 24 24 24 24 24 24 24 24 24 24 24 24 24 24 24 24 24 24 24 24 24 24 24 24 24 24 24 24 24 24 24 24 24 24 24 24 24 24 24 24 24 24 24 24 24 24 24 24 24 24 24 24 24 24 24 24 24 24 24 24 24 24 24 24 24 24 24 24 24 24 24 24 24 24 24 24 24 24 24 24 24 24 24 24 24 24 24 24 24 24 24 24 24 24 24 24 24 24 24 24 24 24 24 24 24 24 24 24 24 24 24 24 24 24 24 24 24 24 24 24 24 24 24 24 24 24 24 24 24 24 24 24 24 24 24 24 24 24 24 24 24 24 24 24 24 24 24 24 24 24 24 24 24 24 24 24 24 24 24 24 24 24 24 24 24 24 24 24 24 24 24 24 24 24 24 24 24 24 24 24 24 24 24 24 24 24 24 24 24 24 24 24 24 24 24 24 24 24 24 24 24 24 24 24 24 24 24 24 24 24 24 24 24 24 24 24 24 24 24 24 24 24 24 24 24 24 24 24 24 24 24 24 24 24 24 24 24 24 24 24 24 24 24 24 24 24 24 24 24 24 24 24 24 24 24 24 24 24 24 24 24 24 24 24 24 24 24 24 24 24 24 24 24 24 24 24 24 24 24 24 24 24 24 24 24 24 24 24 24 24 24 24 24 24 24 24 24 24 24 24 24 24 24 24 24 24 24 24 24 24 24 24 24 24 24 24 24 24 24 24 24 24 24 24 24 24 24 24 24 24 24 24 24 24 24 24 24 24 24 24 24 24 24 24 24 24 24 24 24 24 24 24 24 24 24 24 24 24 24 24 24 24 24 24 24 24 24 24 24 24 24 24 24 24 24 24 24 24 24 24 24 24 24 24 24 24 24 24 24 24 24 24 24 24 24 24 24 24 24 24 24 24 24 24 24 24 24 24 24 24 24 24 24 24 24 24 24 24 24 24 24 24 24 24 24 24 24 24 24 24 24 24 24 24 24 24 24 24 24 24 24 24 24 24 24 24 24 24 24 24 24 24 24 24 24 24 24 24 24 24 24 24 24 24 24 24 24 24 24 24 24 24 24 24 24 24 24 24 24 24 24 24 24 24 24 24 24 24 24 24 24 24 24 24 24 24 24 24 24 24 24 24 24 24 24 24 24 24 24 24 24 24 24 24 24 24 24 24 24 24 24 24 24 24 24 24 24 24 24 24 24 24 24 24 24 24 24 24 24 24 24 24 24 24 24 24 24 24 24 24 24 24 24 24 24 24 24 24 24 24 24 24 24 24 24 24 24 24 24 24 24 24 24 24 24 24 24 24 24 24 24 24 24 24 24 24 24 24 24 24 24 24 24 24 24 24 24 24 24 24 24 24 24 24 24 24 24 24 24 24 24 24 24 24 24 24 24 24 24 24 24 24 24 24 24 24 24 24 24 24 24 24 24 24 24 24 24 24 24 24 24 24 24 24 24 24 24 24 24 24 24 24 24 24 24 24 24 24 24 24 24 24 24 24 24 24 24 24 24 24 24 24 24 24 24 24 24 24 24 24 24 24 24 24 24 24 24 24 24 24 24 24 24 24 24 24 24 24 24 24 24 24 24 24 24 24 24 24 24 24 24 24 24 24 24 24 24 24 24 24 24 24 24 24 24 24 24 24 24 24 24 24 24 24 24 24 24 24 24 24 24 24 24 24 24 24 24 24 24 24 24 24 24 24 24 24 24 24 24 24 24 24 24 24 24 24 24 24 24 24 24 24 24 24 24 24 24 24 24 24 24 24 24 24 24 24 24 24 24 24 24 24 24 24 24 24 24 24 24 24 24 24 24 24 24 24 24 24 24 24 24 24 24 24 24 24 24 24 24 24 24 24 24 24 24 24 24 24 24 24 24 24 24 24 24 24 24 24 24 24 24 24 24 24 24 24 24 24 24 24 24 24 24 24 24 24 24 24 24 24 24 24 24 24 24 24 24 24 24 24 24 24 24 24 24 24 24 24 24 24 24 24 24 24 24 24 24 24 24 24 24 24 24 24 24 24 24 24 24 24 24 24 24 24 24 24 24 24 24 24 24 24 24 24 24 24 24 24 24 24 24 24 24 24 24 24 24 24 24 24 24 24 24 24 24 24 24 24 24 24 24 24 24 24 24 24 24 24 24 24 24 24 24 24 24 24 24 24 24 24 24 24 24 24 24 24 24 24 24 24 24 24 24 24 24 24 24 24 24 24 24 24 24 24 24 24 24 24 24 24 24 24 24 24 24 24 24 24 24 24 24 24 24 24 24 24 24 24 24 24 24 24 24 24 24 24 24 24 24 24 24 24 24 24 24 24 24 24 24 24 24 24 24 24 24 24 24 24 24 24 24 24 24 24 24 24 24 24 24 24 24 24 24 24 24 24 24 24 24 24 24 24 24 24 24 24 24 24 24 24 24 24 24 24 24 24 24 24 24 24 24 24 24 24 24 24 24 24 24 24 24 24 24 24 24 24 24 24 24 24 24 24 24 24 24 24 24 24 24 24 24 24 24 24 24 24 24 24 24 24 24 24 24 24 24 24 24 24 24 24 24 24 24 24 24 24 24 24 24 24 24 24 24 24 24 24 24 24 24 24 24 24 24 24 24 24 24 24 24 24 24 24 24 24 24 24 24 24 24 24 24 24 24 24 24 24 24 24 24 24 24 24 24 24 24 24 24 24 24 24 24 24 24 24 24 24 24 24 24 24 24 24 24 24 24 24 24 24 24 24 24 24 24 24 24 24 24 24 24 24 24 24 24 24 24 24 24 24 24 24 24 24 24 24 24 24 24 24 24 24 24 24 24 24 24 24 24 24 24 24 24 24 24 24 24 24 24 24 24 24 24 24 24 24 24 24 24 24 24 24 24 24 24 24 24 24 24 24 24 24 24 24 24 24 24 24 24 24 24 24 24 24 24 24 24 24 24 24 24 24 24 24 24 24 24 24 24 24 24 24 24 24 24 24 24 24 24 24 24 24 24 24 24 24 24 24 24 24 24 24 24 24 24 24 24 24 24 24 24 24 24 24 24 24 24 24 24 24 24 24 24 24 24 24 24 24 24 24 24 24 24 24 24 24 24 24 24 24 24 24 24 24 24 24 24 24 24 24 24 24 24 24 24 24 24 24 24 24 24 24 24 24 24 24 24 24 24 24 24 24 24 24 24 24 24 24 24 24 24 24 24 24 24 24 24 24 24 24 24 24 24 24 24 24 24 24 24 24 24 24 24 24 24 24 24 24 24 24 24 24 24 24 24 24 24 24 24 24 24 24 24 24 24 24 24 24 24 24 24 24 24 24 24 24 24 24 24 24 24 24 24 24 24 24 24 24 24 24 24 24 24 24 24 24 24 24 24 24 24 24 24 24 24 24 24 24 24 24 24 24 24 24 24 24 24 24 24 24 24 24 24 24 24 24 24 24 24 24 24 24 24 24 24 24 24 24 24 24 24 24 24 24 24 24 24 24 24 24 24 24 24 24 24 24 24 24 24 24 24 24 24 24 24 24 24 24 24 24 24 24 24 24 24 24 24 24 24 24 24 24 24 24 24 24 24 24 24 24 24 24 24 24 24 24 24 24 24 24 24 24 24 24 24 24 24 24 24 24 24 24 24 24 24 24 24 24 24 24 24 24 24 24 24 24 24 24 24 24 24 24 24 24 24 24 24 24 24 24 24 24 24 24 24 24 24 24 24 24 24 24 24 24 24 24 24 24 24 24 24 24 24 24 24 24 24 24 24 24 24 24 24 24 24 24 24 24 24 24 24 24 24 24 24 24 24 24 24 24 24 24 24 24 24 24 24 24 24 24 24 24 24 24 24 24 24 24 24 24 24 24 24 24 24 24 24 24 24 24 24 24 24 24 24 24 24 24 24 24 24 24 24 24 24 24 24 24 24 24 24 24 24 24 24 24 24 24 24 24 24 24 24 24 24 24 24 24 24 24 24 24 24 24 24 24 24 24 24 24 24 24 24 24 24 24 24 24 24 24 24 24 24 24 24 24 24 24 24 24 24 24 24 24 24 24 24 24 24 24 24 24 24 24 24 24 24 24 24 24 24 24 24 24 24 24 24 24 24 24 24 24 24 24 24 24 24 24 24 24 24 24 24 24 24 24 24 24 24 24 24 24 24 24 24 24 24 24 24 24 24 24 24 24 24 24 24 24 24 24 24 24 24 24 24 24 24 24 24 24 24 24 24 24 24 24 24 24 24 24 24 24 24 24 24 24 24 24 24 24 24 24 24 24 24 24 24 24 24 24 24 24 24 24 24 24 24 24 24 24 24 24 24 24 24 24 24 24 24 24 24 24 24 24 24 24 24 24 24 24 24 24 24 24 24 24 24 24 24 24 24 24 24 24 24 24 24 24 24 24 24 24 24 24 24 24 24 24 24 24 24 24 24 24 24 24 24 24 24 24 24 24 24 24 24 24 24 24 24 24 24 24 24 24 24 24 24 24 24 24 24 24 24 24 24 24 24 24 24 24 24 24 24 24 24 24 24 24 24 24 24 24 24 24 24 24 24 24 24 24 24 24 24 24 24 24 24 24 24 24 24 24 24 24 24 24 24 24 24 24 24 24 24 24 24 24 24 24 24 24 24 24 24 24 24 24 24 24 24 24 24 24 24 24 24 24 24 24 24 24 24 24 24 24 24 24 24 24 24 24 24 24 24 24 24 24 24 24 24 24 24 24 24 24 24 24 24 24 24 24 24 24 24 24 24 24 24 24 24 24 24 24 24 24 24 24 24 24 24 24 24 24 24 24 24 24 24 24 24 24 24 24 24 24 24 24 24 24 24 24 24 24 24 24 24 24 24 24 24 24 24 24 24 24 24 24 24 24 24 24 24 24 24 24 24 24 24 24 24 24 24 24 24 24 24 24 24 24 24 24 24 24 24 24 24 24 24 24 24 24 24 24 24 24 24 24 24 24 24 24 24 24 24 24 24 24 24 24 24 24 24 24 24 24 24 24 24 24 24 24 24 24 24 24 24 24 24 24 24 24 24 24 24 24 24 24 24 24 24 24 24 24 24 24 24 24 24 24 24 24 24 24 24 24 24 24 24 24 24 24 24 24 24 24 24 24 24 24 24 24 24 24 24 24 24 24 24 24 24 24 24 24 24 24 24 24 24 24 24 24 24 24 24 24 24 24 24 24 24 24 24 24 24 24 24 24 24 24 24 24 24 24 24 24 24 24 24 24 24 24 24 24 24 24 24 24 24 24 24 24 24 24 24 24 24 24 24 24 24 24 24 24 24 24 24 24 24 24 24 24 24 24 24 24 24 24 24 24 24 24 24 24 24 24 24 24 24 24 24 24 24 24 24 24 24 24 24 24 24 24 24 24 24 24 24 24 24 24 24 24 24 24 24 24 24 24 24 24 24 24 24 24 24 24 24 24 24 24 24 24 24 24 24 24 24 24 24 24 24 24 24 24 24 24 24 24 24 24 24 24 24 24 24 24 24 24 24 24 24 24 24 24 24 24 24 24 24 24 24 24 24 24 24 24 24 24 24 24 24 24 24 24 24 24 24 24 24 24 24 24 24 24 24 24 24 24 24 24 24 24 24 24 24 24 24 24 24 24 24 24 24 24 24 24 24 24 24 24 24 24 24 24 24 24 24 24 24 24 24 24 24 24 24 24 24 24 24 24 24 24 24 24 24 24 24 24 24 24 24 24 24 24 24 24 24 24 24 24 24 24 24 24 24 24 24 24 24 24 24 24 24 24 24 24 24 24 24 24 24 24 24 24 24 24 24 24 24 24 24 24 24 24 24 24 24 24 24 24 24 24 24 24 24 24 24 24 24 24 24 24 24 24 24 24 24 24 24 24 24 24 24 24 24 24 24 24 24 24 24 24 24 24 24 24 24 24 24 24 24 24 24 24 24 24 24 24 24 24 24 24 24 24 24 24 24 24 24 24 24 24 24 24 24 24 24 24 24 24 24 24 24 24 24 24 24 24 24 24 24 24 24 24 24 24 24 24 24 24 24 24 24 24 24 24 24 24 24 24 24 24 24 24 24 24 24 24 24 24 24 24 24 24 24 24 24 24 24 24 24 24 24 24 24 24 24 24 24 24 24 24 24 24 24 24 24 24 24 24 24 24 24 24 24 24 24 24 24 24 24 24 24 24 24 24 24 24 24 24 24 24 24 24 24 24 24 24 24 24 24 24 24 24 24 24 24 24 24 24 24 24 24 24 24 24 24 24 24 24 24 24 24 24 24 24 24 24 24 24 24 24 24 24 24 24 24 24 24 24 24 24 24 24 24 24 24 24 24 24 24 24 24 24 24 24 24 24 24 24 24 24 24 24 24 24 24 24 24 24 24 24 24 24 24 24 24 24 24 24 24 24 24 24 24 24 24 24 24 24 24 24 24 24 24 24 24 24 24 24 24 24 24 24 24 24 24 24 24 24 24 24 24 24 24 24 24 24 24 24 24 24 24 24 24 24 24 24 24 24 24 24 24 24 24 24 24 24 24 24 24 24 24 24 24 24 24 24 24 24 24 24 24 24 24 24 24 24 24 24 24 24 24 24 24 24 24 24 24 24 24 24 24 24 24 24 24 24 24 24 24 24 24 24 24 24 24 24 24 24 24 24 24 24 24 24 24 24 24 24 24 24 24 24 24 24 24 24 24 24 24 24 24 24 24 24 24 24 24 24 24 24 24 24 24 24 24 24 24 24 24 24 24 24 24 24 24 24 24 24 24 24 24 24 24 24 24 24 24 24 24 24 24 24 24 24 24 24 24 24 24 24 24 24 24 24 24 24 24 24 24 24 24 24 24 24 24 24 24 24 24 24 24 24 24 24 24 24 24 24 24 24 24 24 24 24 24 24 24 24 24 24 24 24 24 24 24 24 24 24 24 24 24 24 24 24 24 24 24 24 24 24 24 24 24 24 24 24 24 24 24 24 24 24 24 24 24 24 24 24 24 24 24 24 24 24 24 24 24 24 24 24 24 24 24 24 24 24 24 24 24 24 24 24 24 24 24 24 24 24 24 24 24 24 24 24 24 24 24 24 24 24 24 24 24 24 24 24 24 24 24 24 24 24 24 24 24 24 24 24 24 24 24 24 24 24 24 24 24 24 24 24 24 24 24 24 24 24 24 24 24 24 24 24 24 24 24 24 24 24 24 24 24 24 24 24 24 24 24 24 24 24 24 24 24 24 24 24 24 24 24 24 24 24 24 24 24 24 24 24 24 24 24 24 24 24 24 24 24 24 24 24 24 24 24 24 24 24 24 24 24 24 24 24 24 24 24 24 24 24 24 24 24 24 24 24 24 24 24 24 24 24 24 24 24 24 24 24 24 24 24 24 24 24 24 24 24 24 24 24 24 24 24 24 24 24 24 24 24 24 24 24 24 24 24 24 24 24 24 24 24 24 24 24 24 24 24 24 24 24 24 24 24 24 24 24 24 24 24 24 24 24 24 24 24 24 24 24 24 24 24 24 24 24 24 24 24 24 24 24 24 24 24 24 24 24 24 24 24 24 24 24 24 24 24 24 24 24 24 24 24 24 24 24 24 24 24 24 24 24 24 24 24 24 24 24 24 24 24 24 24 24 24 24 24 24 24 24 24 24 24 24 24 24 24 24 24 24 24 24 24 24 24 24 24 24 24 24 24 24 24 24 24 24 24 24 24 24 24 24 24 24 24 24 24 24 24 24 24 24 24 24 24 24 24 24 24 24 24 24 24 24 24 24 24 24 24 24 24 24 24 24 24 24 24 24 24 24 24 24 24 24 24 24 24 24 24 24 24 24 24 24 24 24 24 24 24 24 24 24 24 24 24 24 24 24 24 24 24 24 24 24 24 24 24 24 24 24 24 24 24 24 24 24 24 24 24 24 24 24 24 24 24 24 24 24 24 24 24 24 24 24 24 24 24 24 24 24 24 24 24 24 24 24 24 24 24 24 24 24 24 24 24 24 24 24 24 24 24 24 24 24 24 24 24 24 24 24 24 24 24 24 24 24 24 24 24 24 24 24 24 24 24 24 24 24 24 24 24 24 24 24 24 24 24 24 24 24 24 24 24 24 24 24 24 24 24 24 24 24 24 24 24 24 24 24 24 24 24 24 24 24 24 24 24 24 24 24 24 24 24 24 24 24 24 24 24 24 24 24 24 24 24 24 24 24 24 24 24 24 24 24 24 24 24 24 24 24 24 24 24 24 24 24 24 24 24 24 24 24 24 24 24 24 24 24 24 24 24 24 24 24 24 24 24 24 24 24 24 24 24 24 24 24 24 24 24 24 24 24 24 24 24 24 24 24 24 24 24 24 24 24 24 24 24 24 24 24 24 24 24 24 24 24 24 24 24 24 24 24 24 24 24 24 24 24 24 24 24 24 24 24 24 24 24 24 24 24 24 24 24 24 24 24 24 24 24 24 24 24 24 24 24 24 24 24 24 24 24 24 24 24 24 24 24 24 24 24 24 24 24 24 24 24 24 24 24 24 24 24 24 24 24 24 24 24 24 24 24 24 24 24 24 24 24 24 24 24 24 24 24 24 24 24 24 24 24 24 24 24 24 24 24 24 24 24 24 24 24 24 24 24 24 24 24 24 24 24 24 24 24 24 24 24 24 24 24 24 24 24 24 24 24 24 24 24 24 24 24 24 24 24 24 24 24 24 24 24 24 24 24 24 24 24 24 24 24 24 24 24 24 24 24 24 24 24 24 24 24 24 24 24 24 24 24 24 24 24 24 24 24 24 24 24 24 24 24 24 24 24 24 24 24 24 24 24 24 24 24 24 24 24 24 24 24 24 24 24 24 24 24 24 24 24 24 24 24 24 24 24 24 24 24 24 24 24 24 24 24 24 24 24 24 24 24 24 24 24 24 24 24 24 24 24 24 24 24 24 24 24 24 24 24 24 24 24 24 24 24 24 24 24 24 24 24 24 24 24 24 24 24 24 24 24 24 24 24 24 24 24 24 24 24 24 24 24 24 24 24 24 24 24 24 24 24 24 24 24 24 24 24 24 24 24 24 24 24 24 24 24 24 24 24 24 24 24 24 24 24 24 24 24 24 24 24 24 24 24 24 24 24 24 24 24 24 24 24 24 24 24 24 24 24 24 24 24 24 24 24 24 24 24 24 24 24 24 24 24 24 24 24 24 24 24 24 24 24 24 24 24 24 24 24 24 24 24 24 24 24 24 24 24 24 24 24 24 24 24 24 24 24 24 24 24 24 24 24 24 24 

POINT_DATA 18785
SCALARS weights float 1
LOOKUP_TABLE default
0.195312 0.260417 0.260417 0.260417 0.260417 0.260417 0.260417 0.260417 0.260417 0.260416 0.260417 0.260417 0.260417 0.260417 0.260416 0.260417 0.260417 0.260417 0.260417 0.260417 0.260417 0.260417 0.260417 0.260417 0.260416 0.260417 0.260416 0.260417 0.260416 0.260416 0.260417 0.260417 0.0651044 0.260417 0.390625 0.390625 0.390625 0.390625 0.390625 0.390625 0.390625 0.390625 0.390625 0.390625 0.390625 0.390625 0.390625 0.390625 0.390625 0.390625 0.390625 0.390625 0.390625 0.390625 0.390625 0.390625 0.390625 0.390625 0.390625 0.390624 0.390625 0.390625 0.390624 0.390625 0.390625 0.130209 0.260417 0.390625 0.390625 0.390625 0.390625 0.390625 0.390625 0.390625 0.390625 0.390625 0.390625 0.390625 0.390625 0.390625 0.390625 0.390625 0.390625 0.390625 0.390625 0.390625 0.390625 0.390625 0.390625 0.390625 0.390625 0.390625 0.390624 0.390625 0.390625 0.390624 0.390625 0.390625 0.130209 0.260417 0.390625 0.390625 0.390625 0.390625 0.390625 0.390625 0.390625 0.390625 0.390625 0.390625 0.390625 0.390625 0.390625 0.390625 0.390625 0.390625 0.390625 0.390625 0.390625 0.390625 0.390625 0.390625 0.390625 0.390625 0.390625 0.390624 0.390625 0.390625 0.390624 0.390625 0.390625 0.130209 0.260417 0.390625 0.390625 0.390625 0.390625 0.390625 0.390625 0.390625 0.390625 0.390625 0.390625 0.390625 0.390625 0.390625 0.390625 0.390625 0.390625 0.390625 0.390625 0.390625 0.390625 0.390625 0.390625 0.390625 0.390625 0.390625 0.390624 0.390625 0.390625 0.390624 0.390625 0.390625 0.130209 0.260417 0.390625 0.390625 0.390625 0.390625 0.390625 0.390625 0.390625 0.390625 0.390625 0.390625 0.390625 0.390625 0.390625 0.390625 0.390625 0.390625 0.390625 0.390625 0.390625 0.390625 0.390625 0.390625 0.390625 0.390625 0.390625 0.390624 0.390625 0.390625 0.390624 0.390625 0.390625 0.130209 0.260417 0.390625 0.390625 0.390625 0.390625 0.390625 0.390625 0.390625 0.390625 0.390625 0.390625 0.390625 0.390625 0.390625 0.390625 0.390625 0.390625 0.390625 0.390625 0.390626 0.390625 0.390625 0.390625 0.390625 0.390625 0.390625 0.390624 0.390625 0.390625 0.390624 0.390625 0.390625 0.130209 0.260417 0.390625 0.390625 0.390625 0.390625 0.390625 0.390625 0.390625 0.390625 0.390625 0.390625 0.390625 0.390625 0.390625 0.390625 0.390625 0.390625 0.390625 0.390625 0.390625 0.390625 0.390625 0.390625 0.390625 0.390625 0.390625 0.390624 0.390625 0.390625 0.390624 0.390625 0.390625 0.130209 0.0651042 0.130208 0.130208 0.130208 0.130208 0.130208 0.130208 0.130208 0.130208 0.130208 0.130208 0.130208 0.130208 0.130208 0.130208 0.130208 0.130209 0.130208 0.130208 0.130209 0.130208 0.130208 0.130208 0.130208 0.130208 0.130208 0.130208 0.130208 0.130209 0.130208 0.130208 0.130209 0.0651043 0.260417 0.390625 0.390625 0.390625 0.390625 0.390625 0.390625 0.390625 0.390625 0.390625 0.390625 0.390625 0.390625 0.390625 0.390625 0.390625 0.390625 0.390625 0.390625 0.390625 0.390625 0.390625 0.390625 0.390625 0.390625 0.390625 0.390624 0.390625 0.390625 0.390625 0.390625 0.390625 0.130209 0.390625 0.78125 0.78125 0.78125 0.78125 0.78125 0.78125 0.78125 0.78125 0.78125 0.78125 0.78125 0.78125 0.78125 0.78125 0.78125 0.78125 0.781251 0.78125 0.781251 0.78125 0.781251 0.78125 0.78125 0.78125 0.78125 0.781249 0.78125 0.781251 0.781249 0.781251 0.781251 0.390626 0.390625 0.78125 0.78125 0.78125 0.78125 0.78125 0.78125 0.78125 0.78125 0.78125 0.78125 0.78125 0.78125 0.78125 0.78125 0.78125 0.78125 0.781251 0.78125 0.781251 0.781251 0.781251 0.78125 0.78125 0.78125 0.78125 0.781249 0.78125 0.781251 0.781249 0.781251 0.781251 0.390626 0.390625 0.78125 0.78125 0.78125 0.78125 0.78125 0.78125 0.78125 0.78125 0.78125 0.78125 0.78125 0.78125 0.78125 0.78125 0.78125 0.78125 0.781251 0.78125 0.781251 0.78125 0.781251 0.78125 0.78125 0.78125 0.78125 0.781249 0.78125 0.781251 0.781249 0.781251 0.781251 0.390626 0.390625 0.78125 0.78125 0.78125 0.78125 0.78125 0.78125 0.78125 0.78125 0.78125 0.78125 0.78125 0.78125 0.78125 0.78125 0.78125 0.78125 0.78125 0.78125 0.781251 0.78125 0.781251 0.78125 0.78125 0.78125 0.78125 0.781249 0.78125 0.781251 0.781249 0.78125 0.78125 0.390626 0.390625 0.78125 0.78125 0.78125 0.78125 0.78125 0.78125 0.78125 0.78125 0.78125 0.78125 0.78125 0.78125 0.78125 0.78125 0.78125 0.781251 0.781251 0.78125 0.781251 0.781251 0.781251 0.78125 0.78125 0.78125 0.78125 0.781249 0.78125 0.781251 0.781249 0.781251 0.781251 0.390626 0.390625 0.78125 0.78125 0.78125 0.78125 0.78125 0.78125 0.78125 0.78125 0.78125 0.78125 0.781251 0.78125 0.78125 0.78125 0.78125 0.781251 0.781251 0.78125 0.781251 0.781251 0.781251 0.78125 0.78125 0.78125 0.78125 0.781249 0.78125 0.781251 0.781249 0.781251 0.781251 0.390626 0.390625 0.78125 0.78125 0.78125 0.78125 0.78125 0.78125 0.78125 0.78125 0.78125 0.78125 0.78125 0.78125 0.78125 0.78125 0.78125 0.78125 0.78125 0.78125 0.781251 0.78125 0.78125 0.78125 0.78125 0.78125 0.78125 0.781249 0.78125 0.78125 0.781249 0.78125 0.78125 0.390626 0.130208 0.390625 0.390625 0.390625 0.390625 0.390625 0.390625 0.390625 0.390625 0.390625 0.390625 0.390625 0.390625 0.390625 0.390625 0.390625 0.390625 0.390625 0.390625 0.390625 0.390625 0.390625 0.390625 0.390625 0.390625 0.390625 0.390625 0.390625 0.390626 0.390625 0.390625 0.390625 0.260417 0.260417 0.390625 0.390625 0.390625 0.390625 0.390625 0.390625 0.390625 0.390625 0.390625 0.390625 0.390625 0.390625 0.390625 0.390625 0.390625 0.390625 0.390625 0.390625 0.390626 0.390625 0.390625 0.390625 0.390625 0.390625 0.390625 0.390624 0.390625 0.390625 0.390625 0.390625 0.390625 0.130209 0.390625 0.78125 0.78125 0.78125 0.78125 0.78125 0.78125 0.78125 0.78125 0.78125 0.78125 0.781251 0.78125 0.78125 0.78125 0.78125 0.781251 0.781251 0.78125 0.781251 0.781251 0.781251 0.78125 0.781251 0.78125 0.78125 0.781249 0.78125 0.781251 0.78125 0.781251 0.781251 0.390626 0.390625 0.78125 0.78125 0.78125 0.78125 0.78125 0.78125 0.78125 0.78125 0.78125 0.78125 0.781251 0.78125 0.78125 0.78125 0.78125 0.781251 0.781251 0.78125 0.781251 0.781251 0.781251 0.78125 0.78125 0.78125 0.781251 0.78125 0.78125 0.781251 0.78125 0.781251 0.781251 0.390626 0.390625 0.78125 0.78125 0.78125 0.78125 0.78125 0.78125 0.78125 0.78125 0.78125 0.78125 0.781251 0.78125 0.78125 0.78125 0.78125 0.781251 0.781251 0.78125 0.781251 0.781251 0.781251 0.78125 0.78125 0.78125 0.78125 0.781249 0.78125 0.781251 0.78125 0.781251 0.781251 0.390626 0.390625 0.78125 0.78125 0.78125 0.78125 0.78125 0.78125 0.78125 0.78125 0.78125 0.78125 0.781251 0.78125 0.78125 0.78125 0.78125 0.781251 0.781251 0.78125 0.781251 0.781251 0.781251 0.78125 0.78125 0.78125 0.78125 0.781249 0.78125 0.781251 0.781249 0.781251 0.781251 0.390626 0.390625 0.78125 0.78125 0.78125 0.78125 0.78125 0.78125 0.78125 0.78125 0.78125 0.78125 0.781251 0.78125 0.78125 0.78125 0.78125 0.781251 0.781251 0.781251 0.781251 0.781251 0.781251 0.78125 0.781251 0.78125 0.781251 0.781249 0.78125 0.781251 0.78125 0.781251 0.781251 0.390626 0.390625 0.78125 0.78125 0.78125 0.78125 0.78125 0.78125 0.78125 0.78125 0.78125 0.78125 0.781251 0.78125 0.78125 0.78125 0.78125 0.781251 0.781251 0.781251 0.781251 0.781251 0.781251 0.78125 0.781251 0.78125 0.781251 0.78125 0.78125 0.781251 0.78125 0.781251 0.781251 0.390626 0.390625 0.78125 0.78125 0.78125 0.78125 0.78125 0.78125 0.78125 0.78125 0.78125 0.78125 0.781251 0.78125 0.78125 0.78125 0.78125 0.781251 0.781251 0.78125 0.781251 0.78125 0.781251 0.78125 0.78125 0.78125 0.78125 0.781249 0.78125 0.781251 0.781249 0.781251 0.781251 0.390626 0.130208 0.390625 0.390625 0.390625 0.390625 0.390625 0.390625 0.390625 0.390625 0.390625 0.390625 0.390625 0.390625 0.390625 0.390625 0.390625 0.390625 0.390625 0.390625 0.390626 0.390625 0.390625 0.390625 0.390625 0.390625 0.390625 0.390625 0.390625 0.390626 0.390625 0.390625 0.390626 0.260417 0.260417 0.390625 0.390625 0.390625 0.390625 0.390625 0.390625 0.390625 0.390625 0.390625 0.390625 0.390625 0.390625 0.390625 0.390625 0.390625 0.390625 0.390625 0.390625 0.390625 0.390625 0.390625 0.390625 0.390625 0.390625 0.390625 0.390624 0.390625 0.390625 0.390625 0.390625 0.390625 0.130209 0.390625 0.78125 0.78125 0.78125 0.78125 0.78125 0.78125 0.78125 0.78125 0.78125 0.78125 0.781251 0.78125 0.78125 0.78125 0.78125 0.781251 0.781251 0.78125 0.781251 0.781251 0.781251 0.78125 0.78125 0.78125 0.78125 0.781249 0.78125 0.781251 0.78125 0.781251 0.781251 0.390626 0.390625 0.78125 0.78125 0.78125 0.78125 0.78125 0.78125 0.78125 0.78125 0.78125 0.78125 0.781251 0.78125 0.78125 0.78125 0.78125 0.781251 0.781251 0.78125 0.781251 0.781251 0.781251 0.78125 0.78125 0.78125 0.78125 0.78125 0.78125 0.781251 0.78125 0.781251 0.781251 0.390626 0.390625 0.78125 0.78125 0.78125 0.78125 0.78125 0.78125 0.78125 0.78125 0.78125 0.78125 0.781251 0.78125 0.78125 0.78125 0.78125 0.781251 0.781251 0.78125 0.781251 0.781251 0.781251 0.78125 0.78125 0.78125 0.78125 0.781249 0.78125 0.781251 0.781249 0.781251 0.781251 0.390626 0.390625 0.78125 0.78125 0.78125 0.78125 0.78125 0.78125 0.78125 0.78125 0.78125 0.78125 0.781251 0.78125 0.78125 0.78125 0.78125 0.781251 0.781251 0.78125 0.781251 0.781251 0.781251 0.78125 0.78125 0.78125 0.78125 0.781249 0.78125 0.781251 0.781249 0.781251 0.781251 0.390626 0.390625 0.78125 0.78125 0.78125 0.78125 0.78125 0.78125 0.78125 0.78125 0.78125 0.78125 0.781251 0.78125 0.78125 0.78125 0.78125 0.781251 0.781251 0.781251 0.781251 0.781251 0.781251 0.78125 0.781251 0.78125 0.78125 0.78125 0.78125 0.781251 0.78125 0.781251 0.781251 0.390626 0.390625 0.78125 0.78125 0.78125 0.78125 0.78125 0.78125 0.78125 0.78125 0.78125 0.78125 0.781251 0.78125 0.78125 0.78125 0.78125 0.781251 0.781251 0.78125 0.781251 0.781251 0.781251 0.78125 0.781251 0.78125 0.78125 0.78125 0.78125 0.781251 0.78125 0.781251 0.781251 0.390626 0.390625 0.78125 0.78125 0.78125 0.78125 0.78125 0.78125 0.78125 0.78125 0.78125 0.78125 0.78125 0.78125 0.78125 0.78125 0.78125 0.78125 0.781251 0.78125 0.781251 0.78125 0.781251 0.78125 0.78125 0.78125 0.78125 0.781249 0.78125 0.781251 0.781249 0.781251 0.781251 0.390626 0.130208 0.390625 0.390625 0.390625 0.390625 0.390625 0.390625 0.390625 0.390625 0.390625 0.390625 0.390625 0.390625 0.390625 0.390625 0.390625 0.390625 0.390625 0.390625 0.390626 0.390625 0.390625 0.390625 0.390625 0.390625 0.390625 0.390625 0.390625 0.390626 0.390625 0.390625 0.390626 0.260417 0.260417 0.390625 0.390625 0.390625 0.390625 0.390625 0.390625 0.390625 0.390625 0.390625 0.390625 0.390625 0.390625 0.390625 0.390625 0.390625 0.390625 0.390625 0.390625 0.390625 0.390625 0.390625 0.390625 0.390625 0.390625 0.390625 0.390624 0.390625 0.390625 0.390625 0.390625 0.390625 0.130209 0.390625 0.78125 0.78125 0.78125 0.78125 0.78125 0.78125 0.78125 0.78125 0.78125 0.78125 0.78125 0.78125 0.78125 0.78125 0.78125 0.781251 0.781251 0.78125 0.781251 0.781251 0.781251 0.78125 0.78125 0.78125 0.78125 0.781249 0.78125 0.781251 0.781249 0.781251 0.781251 0.390626 0.390625 0.78125 0.78125 0.78125 0.78125 0.78125 0.78125 0.78125 0.78125 0.78125 0.78125 0.781251 0.78125 0.78125 0.78125 0.78125 0.781251 0.781251 0.78125 0.781251 0.781251 0.781251 0.78125 0.78125 0.78125 0.78125 0.781249 0.78125 0.781251 0.781249 0.781251 0.781251 0.390626 0.390625 0.78125 0.78125 0.78125 0.78125 0.78125 0.78125 0.78125 0.78125 0.78125 0.78125 0.781251 0.78125 0.78125 0.78125 0.78125 0.781251 0.781251 0.78125 0.781251 0.781251 0.781251 0.78125 0.78125 0.78125 0.78125 0.781249 0.78125 0.781251 0.781249 0.781251 0.781251 0.390626 0.390625 0.78125 0.78125 0.78125 0.78125 0.78125 0.78125 0.78125 0.78125 0.78125 0.78125 0.78125 0.78125 0.78125 0.78125 0.78125 0.78125 0.781251 0.78125 0.781251 0.78125 0.781251 0.78125 0.78125 0.78125 0.78125 0.781249 0.78125 0.781251 0.781249 0.781251 0.781251 0.390626 0.390625 0.78125 0.78125 0.78125 0.78125 0.78125 0.78125 0.78125 0.78125 0.78125 0.78125 0.781251 0.78125 0.78125 0.78125 0.78125 0.781251 0.781251 0.78125 0.781251 0.781251 0.781251 0.78125 0.781251 0.78125 0.78125 0.78125 0.78125 0.781251 0.781249 0.781251 0.781251 0.390626 0.390625 0.78125 0.78125 0.78125 0.78125 0.78125 0.78125 0.78125 0.78125 0.78125 0.78125 0.781251 0.78125 0.78125 0.78125 0.78125 0.781251 0.781251 0.781251 0.781251 0.781251 0.781251 0.78125 0.781251 0.78125 0.78125 0.781249 0.78125 0.781251 0.78125 0.781251 0.781251 0.390626 0.390625 0.78125 0.78125 0.78125 0.78125 0.78125 0.78125 0.78125 0.78125 0.78125 0.78125 0.78125 0.78125 0.78125 0.78125 0.78125 0.781251 0.781251 0.78125 0.781251 0.78125 0.781251 0.78125 0.78125 0.78125 0.78125 0.781249 0.78125 0.781251 0.781249 0.78125 0.781251 0.390626 0.130208 0.390625 0.390625 0.390625 0.390625 0.390625 0.390625 0.390625 0.390625 0.390625 0.390625 0.390625 0.390625 0.390625 0.390625 0.390625 0.390625 0.390625 0.390625 0.390625 0.390625 0.390625 0.390625 0.390625 0.390625 0.390625 0.390625 0.390625 0.390626 0.390625 0.390625 0.390625 0.260417 0.260417 0.390625 0.390625 0.390625 0.390625 0.390625 0.390625 0.390625 0.390625 0.390625 0.390625 0.390625 0.390625 0.390625 0.390625 0.390625 0.390625 0.390625 0.390625 0.390626 0.390626 0.390626 0.390625 0.390625 0.390625 0.390625 0.390625 0.390625 0.390625 0.390625 0.390625 0.390625 0.130209 0.390625 0.781251 0.781251 0.78125 0.781251 0.781251 0.781251 0.78125 0.78125 0.78125 0.781251 0.781251 0.781251 0.781251 0.78125 0.781251 0.781251 0.781251 0.781251 0.781251 0.781251 0.781251 0.78125 0.781251 0.78125 0.781251 0.78125 0.78125 0.781251 0.78125 0.781251 0.781251 0.390626 0.390625 0.781251 0.781251 0.781251 0.781251 0.781251 0.781251 0.78125 0.78125 0.78125 0.781251 0.781251 0.781251 0.781251 0.78125 0.781251 0.781251 0.781251 0.781251 0.781251 0.781251 0.781251 0.78125 0.781251 0.78125 0.781251 0.78125 0.78125 0.781251 0.78125 0.781251 0.781251 0.390626 0.390625 0.781251 0.781251 0.78125 0.78125 0.781251 0.781251 0.78125 0.78125 0.78125 0.781251 0.781251 0.781251 0.781251 0.78125 0.781251 0.781251 0.781251 0.781251 0.781252 0.781251 0.781251 0.78125 0.781251 0.78125 0.781251 0.78125 0.78125 0.781251 0.78125 0.781251 0.781251 0.390626 0.390625 0.781251 0.781251 0.78125 0.78125 0.78125 0.78125 0.78125 0.78125 0.78125 0.78125 0.781251 0.781251 0.781251 0.78125 0.781251 0.781251 0.781251 0.781251 0.781251 0.781251 0.781251 0.78125 0.781251 0.78125 0.781251 0.78125 0.78125 0.781251 0.78125 0.781251 0.781251 0.390626 0.390625 0.781251 0.781251 0.781251 0.781251 0.781251 0.781251 0.78125 0.78125 0.78125 0.781251 0.781251 0.781251 0.781251 0.78125 0.781251 0.781251 0.781251 0.781251 0.781252 0.781251 0.781251 0.78125 0.781251 0.78125 0.781251 0.78125 0.781251 0.781251 0.78125 0.781251 0.781251 0.390626 0.390625 0.781251 0.781251 0.781251 0.781251 0.781251 0.781251 0.781251 0.78125 0.78125 0.781251 0.781251 0.781251 0.781251 0.78125 0.781251 0.781251 0.781251 0.781251 0.781252 0.781251 0.781251 0.781251 0.781251 0.78125 0.781251 0.78125 0.781251 0.781251 0.78125 0.781251 0.781251 0.390626 0.390625 0.78125 0.78125 0.78125 0.78125 0.78125 0.781251 0.78125 0.78125 0.78125 0.78125 0.781251 0.78125 0.78125 0.78125 0.78125 0.781251 0.781251 0.781251 0.781251 0.781251 0.781251 0.78125 0.781251 0.78125 0.781251 0.78125 0.78125 0.781251 0.78125 0.781251 0.781251 0.390626 0.130208 0.390625 0.390625 0.390625 0.390625 0.390625 0.390625 0.390625 0.390625 0.390625 0.390625 0.390625 0.390625 0.390625 0.390625 0.390625 0.390626 0.390626 0.390625 0.390626 0.390625 0.390626 0.390625 0.390625 0.390625 0.390625 0.390625 0.390625 0.390626 0.390625 0.390625 0.390626 0.260417 0.260417 0.390625 0.390625 0.390625 0.390625 0.390625 0.390625 0.390625 0.390625 0.390625 0.390625 0.390625 0.390625 0.390625 0.390625 0.390625 0.390625 0.390625 0.390625 0.390625 0.390625 0.390625 0.390625 0.390625 0.390625 0.390625 0.390624 0.390625 0.390625 0.390625 0.390625 0.390625 0.130209 0.390625 0.78125 0.78125 0.78125 0.78125 0.78125 0.78125 0.78125 0.78125 0.78125 0.78125 0.78125 0.78125 0.78125 0.78125 0.78125 0.781251 0.781251 0.78125 0.781251 0.781251 0.781251 0.78125 0.78125 0.78125 0.78125 0.781249 0.78125 0.781251 0.781249 0.78125 0.781251 0.390626 0.390625 0.78125 0.78125 0.78125 0.78125 0.78125 0.78125 0.78125 0.78125 0.78125 0.78125 0.781251 0.78125 0.78125 0.78125 0.78125 0.781251 0.781251 0.78125 0.781251 0.781251 0.781251 0.78125 0.78125 0.78125 0.78125 0.781249 0.78125 0.781251 0.781249 0.781251 0.781251 0.390626 0.390625 0.78125 0.78125 0.78125 0.78125 0.78125 0.78125 0.78125 0.78125 0.78125 0.78125 0.781251 0.78125 0.78125 0.78125 0.78125 0.781251 0.781251 0.78125 0.781251 0.781251 0.781251 0.78125 0.78125 0.78125 0.78125 0.781249 0.78125 0.781251 0.781249 0.781251 0.781251 0.390626 0.390625 0.78125 0.78125 0.78125 0.78125 0.78125 0.78125 0.78125 0.78125 0.78125 0.78125 0.781251 0.78125 0.78125 0.78125 0.78125 0.781251 0.781251 0.78125 0.781251 0.781251 0.781251 0.78125 0.78125 0.78125 0.78125 0.781249 0.78125 0.781251 0.781249 0.78125 0.781251 0.390626 0.390625 0.78125 0.78125 0.78125 0.78125 0.78125 0.78125 0.78125 0.78125 0.78125 0.78125 0.781251 0.78125 0.78125 0.78125 0.78125 0.781251 0.781251 0.78125 0.781251 0.781251 0.781251 0.78125 0.781251 0.78125 0.78125 0.781249 0.78125 0.781251 0.781249 0.781251 0.781251 0.390626 0.390625 0.78125 0.78125 0.78125 0.78125 0.78125 0.78125 0.78125 0.78125 0.78125 0.78125 0.781251 0.78125 0.78125 0.78125 0.78125 0.781251 0.781251 0.78125 0.781251 0.781251 0.781251 0.78125 0.781251 0.78125 0.78125 0.781249 0.78125 0.781251 0.78125 0.781251 0.781251 0.390626 0.390625 0.78125 0.78125 0.78125 0.78125 0.78125 0.78125 0.78125 0.78125 0.78125 0.78125 0.781251 0.78125 0.78125 0.78125 0.78125 0.781251 0.781251 0.78125 0.781251 0.78125 0.781251 0.78125 0.78125 0.78125 0.78125 0.781249 0.78125 0.781251 0.781249 0.781251 0.781251 0.390626 0.130208 0.390625 0.390625 0.390625 0.390625 0.390625 0.390625 0.390625 0.390625 0.390625 0.390625 0.390625 0.390625 0.390625 0.390625 0.390625 0.390625 0.390625 0.390625 0.390626 0.390625 0.390625 0.390625 0.390625 0.390625 0.390625 0.390625 0.390625 0.390626 0.390625 0.390625 0.390626 0.260417 0.260417 0.390625 0.390625 0.390625 0.390625 0.390625 0.390625 0.390625 0.390625 0.390625 0.390625 0.390625 0.390625 0.390625 0.390625 0.390625 0.390625 0.390625 0.390625 0.390625 0.390625 0.390625 0.390625 0.390625 0.390625 0.390625 0.390624 0.390625 0.390625 0.390624 0.390625 0.390625 0.130209 0.390625 0.78125 0.78125 0.78125 0.78125 0.78125 0.78125 0.78125 0.78125 0.781249 0.78125 0.78125 0.78125 0.78125 0.78125 0.78125 0.78125 0.78125 0.78125 0.781251 0.78125 0.781251 0.78125 0.78125 0.78125 0.78125 0.781249 0.78125 0.78125 0.781249 0.78125 0.781251 0.390626 0.390625 0.78125 0.78125 0.78125 0.78125 0.78125 0.78125 0.78125 0.78125 0.78125 0.78125 0.78125 0.78125 0.78125 0.78125 0.78125 0.78125 0.781251 0.78125 0.781251 0.78125 0.781251 0.78125 0.78125 0.78125 0.78125 0.781249 0.78125 0.781251 0.781249 0.781251 0.781251 0.390626 0.390625 0.78125 0.78125 0.78125 0.78125 0.78125 0.78125 0.78125 0.78125 0.78125 0.78125 0.78125 0.78125 0.78125 0.78125 0.78125 0.78125 0.78125 0.78125 0.781251 0.78125 0.781251 0.78125 0.78125 0.78125 0.78125 0.781249 0.78125 0.781251 0.781249 0.78125 0.78125 0.390626 0.390625 0.78125 0.78125 0.78125 0.78125 0.78125 0.78125 0.78125 0.78125 0.781249 0.78125 0.78125 0.78125 0.78125 0.78125 0.78125 0.78125 0.78125 0.78125 0.781251 0.78125 0.78125 0.78125 0.78125 0.78125 0.78125 0.781249 0.78125 0.78125 0.781249 0.78125 0.781251 0.390626 0.390625 0.78125 0.78125 0.78125 0.78125 0.78125 0.78125 0.78125 0.78125 0.78125 0.78125 0.781251 0.78125 0.78125 0.78125 0.78125 0.781251 0.781251 0.78125 0.781251 0.78125 0.781251 0.78125 0.78125 0.78125 0.78125 0.781249 0.78125 0.781251 0.781249 0.781251 0.781251 0.390626 0.390625 0.78125 0.78125 0.78125 0.78125 0.78125 0.78125 0.78125 0.78125 0.78125 0.78125 0.78125 0.78125 0.78125 0.78125 0.78125 0.781251 0.781251 0.78125 0.781251 0.781251 0.781251 0.78125 0.78125 0.78125 0.78125 0.781249 0.78125 0.781251 0.781249 0.781251 0.781251 0.390626 0.390625 0.78125 0.78125 0.78125 0.78125 0.78125 0.78125 0.781249 0.781249 0.781249 0.78125 0.78125 0.78125 0.78125 0.781249 0.78125 0.78125 0.78125 0.78125 0.781251 0.78125 0.78125 0.78125 0.78125 0.781249 0.78125 0.781249 0.78125 0.78125 0.781249 0.78125 0.78125 0.390626 0.130208 0.390625 0.390625 0.390625 0.390625 0.390625 0.390625 0.390625 0.390625 0.390625 0.390625 0.390625 0.390625 0.390625 0.390625 0.390625 0.390625 0.390625 0.390625 0.390625 0.390625 0.390625 0.390625 0.390625 0.390625 0.390625 0.390625 0.390625 0.390626 0.390625 0.390625 0.390625 0.260417 0.0651041 0.130208 0.130208 0.130208 0.130208 0.130208 0.130208 0.130208 0.130208 0.130208 0.130208 0.130208 0.130208 0.130208 0.130208 0.130208 0.130208 0.130208 0.130208 0.130208 0.130208 0.130208 0.130208 0.130208 0.130208 0.130208 0.130208 0.130208 0.130208 0.130208 0.130208 0.130208 0.0651043 0.130208 0.390625 0.390625 0.390625 0.390625 0.390625 0.390625 0.390625 0.390625 0.390625 0.390625 0.390625 0.390625 0.390625 0.390625 0.390625 0.390625 0.390625 0.390625 0.390625 0.390625 0.390625 0.390625 0.390625 0.390625 0.390625 0.390625 0.390624 0.390626 0.390625 0.390625 0.390625 0.260417 0.130208 0.390625 0.390625 0.390625 0.390625 0.390625 0.390625 0.390625 0.390625 0.390625 0.390625 0.390625 0.390625 0.390625 0.390625 0.390625 0.390625 0.390625 0.390625 0.390625 0.390625 0.390625 0.390625 0.390625 0.390625 0.390625 0.390625 0.390625 0.390626 0.390625 0.390625 0.390625 0.260417 0.130208 0.390625 0.390625 0.390625 0.390625 0.390625 0.390625 0.390625 0.390625 0.390625 0.390625 0.390625 0.390625 0.390625 0.390625 0.390625 0.390625 0.390625 0.390625 0.390625 0.390625 0.390625 0.390625 0.390625 0.390625 0.390625 0.390625 0.390625 0.390626 0.390625 0.390625 0.390625 0.260417 0.130208 0.390625 0.390625 0.390625 0.390625 0.390625 0.390625 0.390625 0.390625 0.390625 0.390625 0.390625 0.390625 0.390625 0.390625 0.390625 0.390625 0.390625 0.390625 0.390625 0.390625 0.390625 0.390625 0.390625 0.390625 0.390625 0.390625 0.390624 0.390626 0.390625 0.390625 0.390625 0.260417 0.130208 0.390625 0.390625 0.390625 0.390625 0.390625 0.390625 0.390625 0.390625 0.390625 0.390625 0.390625 0.390625 0.390625 0.390625 0.390625 0.390625 0.390625 0.390625 0.390625 0.390625 0.390625 0.390625 0.390625 0.390625 0.390625 0.390625 0.390625 0.390626 0.390625 0.390625 0.390625 0.260417 0.130208 0.390625 0.390625 0.390625 0.390625 0.390625 0.390625 0.390625 0.390625 0.390625 0.390625 0.390625 0.390625 0.390625 0.390625 0.390625 0.390625 0.390625 0.390625 0.390626 0.390625 0.390625 0.390625 0.390625 0.390625 0.390625 0.390625 0.390625 0.390626 0.390625 0.390625 0.390625 0.260417 0.130208 0.390625 0.390625 0.390625 0.390625 0.390625 0.390625 0.390625 0.390625 0.390625 0.390625 0.390625 0.390625 0.390625 0.390625 0.390625 0.390625 0.390625 0.390625 0.390625 0.390625 0.390625 0.390625 0.390625 0.390625 0.390625 0.390625 0.390624 0.390625 0.390625 0.390625 0.390625 0.260417 0.0651041 0.260417 0.260416 0.260417 0.260416 0.260416 0.260416 0.260416 0.260416 0.260416 0.260416 0.260417 0.260417 0.260416 0.260416 0.260416 0.260417 0.260417 0.260417 0.260417 0.260417 0.260417 0.260416 0.260416 0.260417 0.260416 0.260417 0.260416 0.260417 0.260416 0.260417 0.260417 0.195313 0.0651042 0.130208 0.195312 0.0651042 0.0976563 0.195312 0.130208 0.195312 0.0976562 0.0651041 0.0651041 0.0976562 0.0651041 0.195312 0.0976562 0.0976562 0.0651041 0.130208 0.0976563 0.130208 0.195312 0.0651042 0.0976562 0.195312 0.130208 0.195312 0.0976562 0.0651041 0.195312 0.0976562 0.0651041 0.130208 0.0976563 0.130208 0.195312 0.0651042 0.0976563 0.195312 0.130208 0.195312 0.0976562 0.0651041 0.195313 0.0976562 0.0651042 0.130208 0.0976562 0.130208 0.195312 0.0651042 0.0976562 0.195312 0.130208 0.195312 0.0976562 0.0651041 0.195312 0.0976562 0.0651041 0.130208 0.0976563 0.130208 0.195312 0.0651042 0.0976562 0.195312 0.130208 0.195312 0.0976562 0.0651041 0.195312 0.0976562 0.0651041 0.130208 0.0976562 0.130208 0.195312 0.0651042 0.0976563 0.195312 0.130208 0.195312 0.0976563 0.0651042 0.195313 0.0976562 0.0651042 0.130208 0.0976562 0.130208 0.195312 0.0651042 0.0976562 0.195312 0.130208 0.195312 0.0976562 0.0651041 0.195312 0.0976561 0.0651041 0.130208 0.0976562 0.130208 0.195312 0.0651042 0.0976563 0.195312 0.130208 0.195312 0.0976562 0.0651041 0.195312 0.0976562 0.0651041 0.130208 0.0976563 0.130208 0.195312 0.0651041 0.0976562 0.195312 0.130208 0.195312 0.0976561 0.0651041 0.195312 0.0976562 0.0651041 0.130208 0.0976562 0.130208 0.195312 0.0651041 0.0976562 0.195312 0.130208 0.195312 0.0976562 0.0651041 0.195312 0.0976562 0.0651041 0.130208 0.0976563 0.130208 0.195313 0.0651042 0.0976563 0.195313 0.130208 0.195313 0.0976563 0.0651042 0.195313 0.0976562 0.0651042 0.130208 0.0976563 0.130208 0.195313 0.0651042 0.0976563 0.195312 0.130208 0.195312 0.0976562 0.0651041 0.195313 0.0976562 0.0651041 0.130208 0.0976562 0.130208 0.195312 0.0651042 0.0976563 0.195313 0.130208 0.195312 0.0976563 0.0651042 0.195312 0.0976563 0.0651042 0.130208 0.0976563 0.130208 0.195312 0.0651042 0.0976562 0.195312 0.130208 0.195312 0.0976563 0.0651042 0.195312 0.0976562 0.0651041 0.130208 0.0976562 0.130208 0.195312 0.0651041 0.0976562 0.195312 0.130208 0.195313 0.0976562 0.0651041 0.195312 0.0976562 0.0651041 0.130208 0.0976564 0.130208 0.195313 0.0651042 0.0976563 0.195313 0.130208 0.195313 0.0976562 0.0651041 0.195313 0.0976562 0.0651041 0.130208 0.0976563 0.130208 0.195313 0.0651042 0.0976563 0.195313 0.130208 0.195313 0.0976563 0.0651042 0.195313 0.0976563 0.0651042 0.130208 0.0976563 0.130208 0.195312 0.0651041 0.0976562 0.195312 0.130208 0.195312 0.0976562 0.0651041 0.195313 0.0976562 0.065104 0.130208 0.0976562 0.130208 0.195313 0.0651042 0.0976563 0.195313 0.130208 0.195313 0.0976563 0.0651042 0.195313 0.0976564 0.0651042 0.130209 0.0976565 0.130208 0.195313 0.0651041 0.0976561 0.195313 0.130208 0.195312 0.0976561 0.0651041 0.195313 0.0976563 0.065104 0.130208 0.0976562 0.130208 0.195313 0.0651042 0.0976564 0.195313 0.130209 0.195313 0.0976564 0.0651043 0.195313 0.0976563 0.0651043 0.130208 0.0976563 0.130208 0.195312 0.0651041 0.0976562 0.195312 0.130208 0.195312 0.0976562 0.0651042 0.195312 0.0976562 0.0651041 0.130208 0.0976562 0.130208 0.195312 0.0651042 0.0976563 0.195313 0.130208 0.195313 0.0976563 0.0651042 0.195312 0.0976563 0.0651041 0.130208 0.0976563 0.130208 0.195313 0.0651042 0.0976563 0.195312 0.130208 0.195312 0.0976563 0.0651042 0.195313 0.0976562 0.0651041 0.130208 0.0976561 0.130208 0.195312 0.065104 0.0976561 0.195312 0.130208 0.195313 0.0976561 0.0651041 0.195312 0.0976562 0.065104 0.130208 0.0976564 0.130209 0.195313 0.0651042 0.0976562 0.195312 0.130208 0.195312 0.0976562 0.0651041 0.195313 0.097656 0.0651041 0.130208 0.0976561 0.130208 0.195312 0.065104 0.097656 0.195312 0.130208 0.195312 0.097656 0.065104 0.195312 0.0976562 0.065104 0.130208 0.0976564 0.130209 0.195313 0.0651043 0.0976564 0.195313 0.130209 0.195313 0.0976564 0.0651043 0.195313 0.0976563 0.0651042 0.130208 0.0976564 0.130208 0.195312 0.065104 0.0976558 0.195312 0.130208 0.195312 0.0976558 0.0651039 0.195312 0.0976562 0.0651037 0.130208 0.0976561 0.130208 0.195312 0.0651041 0.097656 0.195313 0.130208 0.195313 0.097656 0.0651041 0.195312 0.0976563 0.0651039 0.130208 0.0976563 0.130209 0.195313 0.0651042 0.0976562 0.195312 0.130209 0.195313 0.0976562 0.0651042 0.195313 0.0976561 0.065104 0.130208 0.0976564 0.130209 0.195313 0.0651044 0.0976565 0.0976565 0.130208 0.0976564 0.0976564 0.0651042 0.195313 0.0325522 0.0651044 0.0651044 0.0325522 0.0651042 0.130208 0.195312 0.0651042 0.0976562 0.195312 0.130208 0.195312 0.0976562 0.0651042 0.195312 0.0976562 0.130208 0.0976563 0.130208 0.195312 0.0651042 0.0976562 0.195312 0.130208 0.195312 0.195312 0.130208 0.0976563 0.130208 0.195312 0.0651042 0.0976563 0.195312 0.130208 0.195312 0.195312 0.130208 0.0976562 0.130208 0.195312 0.0651042 0.0976562 0.195312 0.130208 0.195312 0.195312 0.130208 0.0976563 0.130208 0.195312 0.0651042 0.0976562 0.195312 0.130208 0.195312 0.195312 0.130208 0.0976562 0.130208 0.195313 0.0651042 0.0976563 0.195312 0.130208 0.195312 0.195313 0.130208 0.0976562 0.130208 0.195312 0.0651042 0.0976562 0.195312 0.130208 0.195312 0.195312 0.130208 0.0976562 0.130208 0.195312 0.0651042 0.0976562 0.195312 0.130208 0.195312 0.195312 0.130208 0.0976563 0.130208 0.195312 0.0651041 0.0976562 0.195312 0.130208 0.195312 0.195312 0.130208 0.0976562 0.130208 0.195312 0.0651042 0.0976562 0.195312 0.130208 0.195312 0.195312 0.130208 0.0976563 0.130208 0.195313 0.0651042 0.0976563 0.195313 0.130208 0.195313 0.195313 0.130208 0.0976564 0.130208 0.195313 0.0651042 0.0976563 0.195312 0.130208 0.195312 0.195313 0.130208 0.0976562 0.130208 0.195312 0.0651042 0.0976563 0.195313 0.130208 0.195312 0.195312 0.130208 0.0976563 0.130208 0.195312 0.0651042 0.0976562 0.195312 0.130208 0.195312 0.195312 0.130208 0.0976562 0.130208 0.195312 0.0651041 0.0976562 0.195312 0.130208 0.195313 0.195312 0.130208 0.0976564 0.130208 0.195313 0.0651042 0.0976563 0.195313 0.130208 0.195313 0.195313 0.130208 0.0976564 0.130208 0.195313 0.0651042 0.0976563 0.195313 0.130208 0.195313 0.195313 0.130208 0.0976563 0.130208 0.195313 0.0651041 0.0976561 0.195312 0.130208 0.195312 0.195313 0.130208 0.0976562 0.130208 0.195313 0.0651042 0.0976563 0.195313 0.130208 0.195313 0.195313 0.130209 0.0976565 0.130208 0.195313 0.0651041 0.0976561 0.195313 0.130208 0.195312 0.195313 0.130208 0.0976562 0.130208 0.195313 0.0651042 0.0976564 0.195313 0.130209 0.195313 0.195313 0.130208 0.0976563 0.130208 0.195312 0.0651041 0.0976562 0.195312 0.130208 0.195312 0.195312 0.130208 0.0976562 0.130208 0.195312 0.0651042 0.0976563 0.195313 0.130208 0.195313 0.195312 0.130208 0.0976563 0.130208 0.195313 0.0651042 0.0976563 0.195312 0.130208 0.195312 0.195313 0.130208 0.0976561 0.130208 0.195312 0.065104 0.0976561 0.195312 0.130208 0.195313 0.195312 0.130208 0.0976564 0.130209 0.195313 0.0651042 0.0976562 0.195312 0.130208 0.195312 0.195313 0.130208 0.0976561 0.130208 0.195312 0.065104 0.097656 0.195312 0.130208 0.195313 0.195312 0.130208 0.0976564 0.130209 0.195313 0.0651043 0.0976564 0.195313 0.130209 0.195313 0.195313 0.130208 0.0976564 0.130208 0.195312 0.065104 0.0976558 0.195312 0.130208 0.195312 0.195312 0.130208 0.0976561 0.130208 0.195312 0.0651041 0.097656 0.195313 0.130208 0.195313 0.195312 0.130208 0.0976563 0.130209 0.195313 0.0651042 0.0976562 0.195312 0.130209 0.195313 0.195313 0.130208 0.0976564 0.130209 0.195313 0.0651044 0.0976565 0.0976565 0.130208 0.0976564 0.195313 0.0651044 0.0325522 0.0651042 0.130208 0.195312 0.0651042 0.0976562 0.195312 0.130208 0.195313 0.0976562 0.0651042 0.195312 0.0976563 0.130208 0.0976563 0.130208 0.195312 0.0651042 0.0976562 0.195312 0.130208 0.195312 0.195312 0.130208 0.0976563 0.130208 0.195312 0.0651042 0.0976562 0.195312 0.130208 0.195312 0.195313 0.130208 0.0976563 0.130208 0.195312 0.0651042 0.0976562 0.195312 0.130208 0.195312 0.195312 0.130208 0.0976563 0.130208 0.195312 0.0651042 0.0976562 0.195312 0.130208 0.195312 0.195312 0.130208 0.0976563 0.130208 0.195312 0.0651042 0.0976562 0.195312 0.130208 0.195313 0.195313 0.130208 0.0976562 0.130208 0.195312 0.0651042 0.0976562 0.195312 0.130208 0.195312 0.195312 0.130208 0.0976563 0.130208 0.195312 0.0651042 0.0976562 0.195312 0.130208 0.195312 0.195312 0.130208 0.0976563 0.130208 0.195312 0.0651041 0.0976562 0.195312 0.130208 0.195312 0.195312 0.130208 0.0976562 0.130208 0.195312 0.0651042 0.0976562 0.195312 0.130208 0.195313 0.195312 0.130208 0.0976563 0.130208 0.195313 0.0651042 0.0976563 0.195313 0.130208 0.195313 0.195313 0.130208 0.0976564 0.130208 0.195313 0.0651042 0.0976563 0.195312 0.130208 0.195312 0.195313 0.130208 0.0976562 0.130208 0.195312 0.0651042 0.0976563 0.195313 0.130208 0.195313 0.195312 0.130208 0.0976563 0.130208 0.195313 0.0651042 0.0976562 0.195312 0.130208 0.195312 0.195312 0.130208 0.0976562 0.130208 0.195312 0.0651041 0.0976562 0.195312 0.130208 0.195313 0.195312 0.130208 0.0976564 0.130208 0.195313 0.0651042 0.0976563 0.195313 0.130208 0.195313 0.195313 0.130208 0.0976564 0.130208 0.195313 0.0651042 0.0976563 0.195313 0.130208 0.195313 0.195313 0.130208 0.0976563 0.130208 0.195313 0.0651041 0.0976561 0.195312 0.130208 0.195312 0.195313 0.130208 0.0976562 0.130208 0.195313 0.0651042 0.0976563 0.195313 0.130208 0.195313 0.195313 0.130209 0.0976565 0.130209 0.195313 0.0651041 0.0976561 0.195313 0.130208 0.195312 0.195313 0.130208 0.0976562 0.130208 0.195313 0.0651042 0.0976564 0.195313 0.130209 0.195313 0.195313 0.130208 0.0976564 0.130208 0.195313 0.0651041 0.0976562 0.195312 0.130208 0.195312 0.195313 0.130208 0.0976562 0.130208 0.195312 0.0651042 0.0976563 0.195313 0.130208 0.195313 0.195312 0.130208 0.0976563 0.130208 0.195313 0.0651042 0.0976563 0.195312 0.130208 0.195312 0.195313 0.130208 0.0976561 0.130208 0.195312 0.065104 0.097656 0.195312 0.130208 0.195313 0.195312 0.130208 0.0976564 0.130209 0.195313 0.0651042 0.0976562 0.195312 0.130208 0.195312 0.195313 0.130208 0.0976561 0.130208 0.195312 0.065104 0.097656 0.195312 0.130208 0.195313 0.195312 0.130208 0.0976564 0.130209 0.195313 0.0651043 0.0976564 0.195313 0.130209 0.195313 0.195313 0.130208 0.0976564 0.130208 0.195312 0.065104 0.0976558 0.195312 0.130208 0.195312 0.195312 0.130208 0.0976561 0.130208 0.195313 0.0651041 0.097656 0.195313 0.130208 0.195313 0.195313 0.130208 0.0976563 0.130209 0.195313 0.0651042 0.0976562 0.195312 0.130209 0.195313 0.195313 0.130208 0.0976564 0.130209 0.195313 0.0651044 0.0976565 0.0976565 0.130208 0.0976564 0.195313 0.0651044 0.0325522 0.0651042 0.130208 0.195312 0.0651041 0.0976562 0.195312 0.130208 0.195312 0.0976562 0.0651041 0.195312 0.0976562 0.130208 0.0976562 0.130208 0.195312 0.0651041 0.0976562 0.195312 0.130208 0.195312 0.195312 0.130208 0.0976562 0.130208 0.195312 0.0651042 0.0976563 0.195312 0.130208 0.195312 0.195312 0.130208 0.0976562 0.130208 0.195312 0.0651041 0.0976562 0.195312 0.130208 0.195312 0.195312 0.130208 0.0976562 0.130208 0.195312 0.0651041 0.0976562 0.195312 0.130208 0.195312 0.195312 0.130208 0.0976562 0.130208 0.195312 0.0651042 0.0976563 0.195312 0.130208 0.195312 0.195313 0.130208 0.0976562 0.130208 0.195312 0.0651041 0.0976562 0.195312 0.130208 0.195312 0.195312 0.130208 0.0976562 0.130208 0.195312 0.0651042 0.0976562 0.195312 0.130208 0.195312 0.195312 0.130208 0.0976562 0.130208 0.195312 0.0651041 0.0976562 0.195312 0.130208 0.195312 0.195312 0.130208 0.0976562 0.130208 0.195312 0.0651041 0.0976562 0.195312 0.130208 0.195312 0.195312 0.130208 0.0976562 0.130208 0.195313 0.0651042 0.0976563 0.195313 0.130208 0.195313 0.195313 0.130208 0.0976563 0.130208 0.195312 0.0651042 0.0976563 0.195312 0.130208 0.195312 0.195313 0.130208 0.0976562 0.130208 0.195312 0.0651041 0.0976563 0.195312 0.130208 0.195312 0.195312 0.130208 0.0976562 0.130208 0.195312 0.0651041 0.0976562 0.195312 0.130208 0.195312 0.195312 0.130208 0.0976562 0.130208 0.195312 0.0651041 0.0976562 0.195312 0.130208 0.195313 0.195312 0.130208 0.0976563 0.130208 0.195313 0.0651042 0.0976563 0.195313 0.130208 0.195313 0.195313 0.130208 0.0976563 0.130208 0.195313 0.0651042 0.0976563 0.195313 0.130208 0.195313 0.195313 0.130208 0.0976563 0.130208 0.195312 0.0651041 0.0976562 0.195312 0.130208 0.195312 0.195312 0.130208 0.0976562 0.130208 0.195313 0.0651042 0.0976563 0.195313 0.130208 0.195313 0.195313 0.130209 0.0976565 0.130208 0.195313 0.0651041 0.0976561 0.195312 0.130208 0.195312 0.195313 0.130208 0.0976562 0.130208 0.195313 0.0651042 0.0976564 0.195313 0.130209 0.195313 0.195313 0.130208 0.0976563 0.130208 0.195312 0.0651041 0.0976562 0.195312 0.130208 0.195312 0.195312 0.130208 0.0976562 0.130208 0.195312 0.0651042 0.0976563 0.195313 0.130208 0.195313 0.195312 0.130208 0.0976563 0.130208 0.195312 0.0651042 0.0976563 0.195312 0.130208 0.195312 0.195313 0.130208 0.0976561 0.130208 0.195312 0.065104 0.0976561 0.195312 0.130208 0.195313 0.195312 0.130208 0.0976564 0.130209 0.195313 0.0651042 0.0976562 0.195312 0.130208 0.195312 0.195313 0.130208 0.0976561 0.130208 0.195312 0.065104 0.097656 0.195312 0.130208 0.195312 0.195312 0.130208 0.0976564 0.130209 0.195313 0.0651043 0.0976564 0.195313 0.130209 0.195313 0.195313 0.130208 0.0976563 0.130208 0.195312 0.065104 0.0976558 0.195312 0.130208 0.195312 0.195312 0.130208 0.0976561 0.130208 0.195312 0.0651041 0.097656 0.195313 0.130208 0.195313 0.195312 0.130208 0.0976563 0.130209 0.195313 0.0651041 0.0976562 0.195312 0.130209 0.195313 0.195313 0.130208 0.0976563 0.130209 0.195313 0.0651043 0.0976565 0.0976565 0.130208 0.0976564 0.195313 0.0651044 0.0325522 0.0651042 0.130208 0.195312 0.0651042 0.0976563 0.195312 0.130208 0.195312 0.0976562 0.0651041 0.195312 0.0976562 0.130208 0.0976563 0.130208 0.195312 0.0651042 0.0976563 0.195312 0.130208 0.195312 0.195312 0.130208 0.0976563 0.130208 0.195312 0.0651042 0.0976563 0.195312 0.130208 0.195312 0.195312 0.130208 0.0976562 0.130208 0.195312 0.0651042 0.0976562 0.195312 0.130208 0.195312 0.195312 0.130208 0.0976563 0.130208 0.195312 0.0651042 0.0976563 0.195312 0.130208 0.195312 0.195312 0.130208 0.0976563 0.130208 0.195312 0.0651042 0.0976563 0.195312 0.130208 0.195312 0.195313 0.130208 0.0976562 0.130208 0.195312 0.0651042 0.0976563 0.195312 0.130208 0.195312 0.195312 0.130208 0.0976562 0.130208 0.195312 0.0651042 0.0976563 0.195312 0.130208 0.195312 0.195312 0.130208 0.0976563 0.130208 0.195312 0.0651041 0.0976562 0.195312 0.130208 0.195312 0.195312 0.130208 0.0976562 0.130208 0.195312 0.0651041 0.0976562 0.195312 0.130208 0.195312 0.195312 0.130208 0.0976563 0.130208 0.195313 0.0651042 0.0976563 0.195313 0.130208 0.195313 0.195313 0.130208 0.0976564 0.130208 0.195313 0.0651042 0.0976563 0.195312 0.130208 0.195312 0.195313 0.130208 0.0976562 0.130208 0.195312 0.0651042 0.0976563 0.195313 0.130208 0.195312 0.195312 0.130208 0.0976563 0.130208 0.195312 0.0651042 0.0976563 0.195312 0.130208 0.195312 0.195313 0.130208 0.0976562 0.130208 0.195312 0.0651041 0.0976562 0.195312 0.130208 0.195313 0.195312 0.130208 0.0976564 0.130208 0.195313 0.0651042 0.0976563 0.195313 0.130208 0.195313 0.195313 0.130208 0.0976564 0.130209 0.195313 0.0651042 0.0976563 0.195313 0.130208 0.195313 0.195313 0.130208 0.0976563 0.130208 0.195313 0.0651041 0.0976562 0.195312 0.130208 0.195312 0.195313 0.130208 0.0976562 0.130208 0.195313 0.0651042 0.0976563 0.195313 0.130208 0.195313 0.195313 0.130209 0.0976565 0.130208 0.195313 0.0651041 0.0976561 0.195313 0.130208 0.195312 0.195313 0.130208 0.0976562 0.130208 0.195313 0.0651042 0.0976564 0.195313 0.130209 0.195313 0.195313 0.130208 0.0976563 0.130208 0.195312 0.0651041 0.0976562 0.195312 0.130208 0.195312 0.195312 0.130208 0.0976562 0.130208 0.195312 0.0651042 0.0976563 0.195313 0.130208 0.195313 0.195312 0.130208 0.0976563 0.130208 0.195313 0.0651042 0.0976563 0.195312 0.130208 0.195312 0.195313 0.130208 0.0976561 0.130208 0.195312 0.065104 0.0976561 0.195313 0.130208 0.195313 0.195312 0.130208 0.0976564 0.130209 0.195313 0.0651042 0.0976563 0.195312 0.130208 0.195312 0.195313 0.130208 0.0976561 0.130208 0.195312 0.065104 0.0976561 0.195312 0.130208 0.195312 0.195312 0.130208 0.0976564 0.130209 0.195313 0.0651043 0.0976564 0.195313 0.130209 0.195313 0.195313 0.130208 0.0976564 0.130208 0.195312 0.065104 0.0976558 0.195312 0.130208 0.195312 0.195312 0.130208 0.0976561 0.130208 0.195312 0.0651041 0.097656 0.195313 0.130208 0.195313 0.195313 0.130208 0.0976563 0.130209 0.195313 0.0651042 0.0976562 0.195312 0.130209 0.195313 0.195313 0.130208 0.0976564 0.130209 0.195313 0.0651044 0.0976565 0.0976565 0.130208 0.0976564 0.195313 0.0651044 0.0325522 0.0651042 0.130208 0.195313 0.0651042 0.0976563 0.195312 0.130208 0.195313 0.0976562 0.0651042 0.195313 0.0976563 0.130208 0.0976563 0.130208 0.195313 0.0651042 0.0976563 0.195312 0.130208 0.195313 0.195313 0.130208 0.0976563 0.130208 0.195313 0.0651042 0.0976563 0.195312 0.130208 0.195313 0.195313 0.130208 0.0976563 0.130208 0.195312 0.0651042 0.0976563 0.195312 0.130208 0.195313 0.195313 0.130208 0.0976563 0.130208 0.195313 0.0651042 0.0976562 0.195312 0.130208 0.195313 0.195312 0.130208 0.0976563 0.130208 0.195313 0.0651042 0.0976563 0.195312 0.130208 0.195313 0.195313 0.130208 0.0976563 0.130208 0.195312 0.0651042 0.0976563 0.195312 0.130208 0.195312 0.195312 0.130208 0.0976563 0.130208 0.195312 0.0651042 0.0976563 0.195312 0.130208 0.195313 0.195312 0.130208 0.0976563 0.130208 0.195312 0.0651042 0.0976562 0.195312 0.130208 0.195312 0.195312 0.130208 0.0976563 0.130208 0.195312 0.0651042 0.0976562 0.195312 0.130208 0.195313 0.195312 0.130208 0.0976563 0.130208 0.195313 0.0651042 0.0976563 0.195313 0.130208 0.195313 0.195313 0.130208 0.0976564 0.130208 0.195313 0.0651042 0.0976563 0.195312 0.130208 0.195312 0.195313 0.130208 0.0976563 0.130208 0.195313 0.0651042 0.0976563 0.195313 0.130208 0.195313 0.195313 0.130208 0.0976563 0.130208 0.195313 0.0651042 0.0976563 0.195312 0.130208 0.195312 0.195313 0.130208 0.0976562 0.130208 0.195312 0.0651042 0.0976562 0.195312 0.130208 0.195313 0.195312 0.130208 0.0976564 0.130208 0.195313 0.0651043 0.0976563 0.195313 0.130208 0.195313 0.195313 0.130208 0.0976564 0.130209 0.195313 0.0651043 0.0976564 0.195313 0.130208 0.195313 0.195313 0.130208 0.0976564 0.130208 0.195313 0.0651041 0.0976562 0.195312 0.130208 0.195313 0.195313 0.130208 0.0976562 0.130208 0.195313 0.0651042 0.0976564 0.195313 0.130208 0.195313 0.195313 0.130209 0.0976565 0.130209 0.195313 0.0651042 0.0976562 0.195313 0.130208 0.195313 0.195313 0.130208 0.0976562 0.130208 0.195313 0.0651043 0.0976564 0.195313 0.130209 0.195313 0.195313 0.130208 0.0976564 0.130208 0.195313 0.0651041 0.0976562 0.195312 0.130208 0.195313 0.195313 0.130208 0.0976562 0.130208 0.195313 0.0651042 0.0976563 0.195313 0.130208 0.195313 0.195313 0.130208 0.0976563 0.130208 0.195313 0.0651042 0.0976563 0.195312 0.130208 0.195312 0.195313 0.130208 0.0976562 0.130208 0.195312 0.0651041 0.0976561 0.195312 0.130208 0.195313 0.195312 0.130208 0.0976564 0.130209 0.195313 0.0651042 0.0976563 0.195312 0.130208 0.195312 0.195313 0.130208 0.0976561 0.130208 0.195312 0.0651041 0.0976561 0.195312 0.130208 0.195313 0.195312 0.130208 0.0976564 0.130209 0.195313 0.0651043 0.0976565 0.195313 0.130209 0.195313 0.195313 0.130209 0.0976564 0.130208 0.195312 0.065104 0.0976558 0.195312 0.130208 0.195312 0.195312 0.130208 0.0976561 0.130208 0.195313 0.0651041 0.097656 0.195313 0.130208 0.195313 0.195313 0.130208 0.0976563 0.130209 0.195313 0.0651042 0.0976562 0.195312 0.130209 0.195313 0.195313 0.130208 0.0976564 0.130209 0.195313 0.0651044 0.0976566 0.0976566 0.130208 0.0976565 0.195313 0.0651044 0.0325522 0.0651042 0.130208 0.195312 0.0651042 0.0976562 0.195312 0.130208 0.195312 0.0976562 0.0651042 0.195312 0.0976563 0.130208 0.0976563 0.130208 0.195312 0.0651042 0.0976562 0.195312 0.130208 0.195312 0.195312 0.130208 0.0976563 0.130208 0.195313 0.0651042 0.0976562 0.195312 0.130208 0.195313 0.195312 0.130208 0.0976563 0.130208 0.195312 0.0651042 0.0976562 0.195312 0.130208 0.195312 0.195312 0.130208 0.0976563 0.130208 0.195312 0.0651042 0.0976562 0.195312 0.130208 0.195312 0.195312 0.130208 0.0976563 0.130208 0.195313 0.0651042 0.0976562 0.195312 0.130208 0.195312 0.195312 0.130208 0.0976563 0.130208 0.195312 0.0651042 0.0976562 0.195312 0.130208 0.195312 0.195312 0.130208 0.0976563 0.130208 0.195312 0.0651042 0.0976562 0.195312 0.130208 0.195312 0.195312 0.130208 0.0976563 0.130208 0.195312 0.0651041 0.0976561 0.195312 0.130208 0.195312 0.195312 0.130208 0.0976563 0.130208 0.195312 0.0651042 0.0976562 0.195312 0.130208 0.195312 0.195312 0.130208 0.0976563 0.130208 0.195313 0.0651042 0.0976563 0.195313 0.130208 0.195313 0.195313 0.130208 0.0976564 0.130208 0.195313 0.0651042 0.0976562 0.195312 0.130208 0.195312 0.195313 0.130208 0.0976563 0.130208 0.195312 0.0651042 0.0976562 0.195312 0.130208 0.195313 0.195312 0.130208 0.0976563 0.130208 0.195312 0.0651042 0.0976562 0.195312 0.130208 0.195312 0.195312 0.130208 0.0976562 0.130208 0.195312 0.0651042 0.0976562 0.195312 0.130208 0.195313 0.195312 0.130208 0.0976564 0.130208 0.195313 0.0651043 0.0976563 0.195313 0.130208 0.195313 0.195313 0.130208 0.0976564 0.130208 0.195313 0.0651042 0.0976563 0.195313 0.130208 0.195313 0.195313 0.130208 0.0976564 0.130208 0.195313 0.0651041 0.0976561 0.195312 0.130208 0.195312 0.195312 0.130208 0.0976562 0.130208 0.195313 0.0651042 0.0976563 0.195313 0.130208 0.195313 0.195313 0.130209 0.0976565 0.130208 0.195313 0.0651042 0.0976561 0.195312 0.130208 0.195312 0.195313 0.130208 0.0976562 0.130208 0.195313 0.0651043 0.0976563 0.195313 0.130209 0.195313 0.195313 0.130208 0.0976564 0.130208 0.195312 0.0651041 0.0976561 0.195312 0.130208 0.195313 0.195312 0.130208 0.0976562 0.130208 0.195312 0.0651042 0.0976562 0.195313 0.130208 0.195313 0.195312 0.130208 0.0976563 0.130208 0.195313 0.0651042 0.0976562 0.195312 0.130208 0.195312 0.195313 0.130208 0.0976562 0.130208 0.195312 0.0651041 0.097656 0.195312 0.130208 0.195313 0.195312 0.130208 0.0976564 0.130209 0.195313 0.0651042 0.0976562 0.195312 0.130208 0.195312 0.195313 0.130208 0.0976561 0.130208 0.195312 0.0651041 0.097656 0.195312 0.130208 0.195313 0.195312 0.130208 0.0976564 0.130209 0.195313 0.0651043 0.0976564 0.195313 0.130209 0.195313 0.195313 0.130208 0.0976564 0.130208 0.195312 0.065104 0.0976558 0.195312 0.130208 0.195312 0.195312 0.130208 0.0976561 0.130208 0.195312 0.0651041 0.097656 0.195313 0.130208 0.195313 0.195312 0.130208 0.0976563 0.130209 0.195313 0.0651042 0.0976561 0.195312 0.130209 0.195313 0.195313 0.130208 0.0976564 0.130209 0.195313 0.0651044 0.0976565 0.0976565 0.130208 0.0976564 0.195313 0.0651044 0.0325522 0.0651042 0.0651042 0.195312 0.0651041 0.0325521 0.0976562 0.130208 0.195312 0.0325521 0.0651041 0.0976562 0.0976562 0.130208 0.0976562 0.0651042 0.195312 0.0651041 0.0325521 0.0976562 0.130208 0.195312 0.0976562 0.130208 0.0976562 0.0651042 0.195312 0.0651041 0.0325521 0.0976562 0.130208 0.195312 0.0976562 0.130208 0.0976562 0.0651042 0.195312 0.0651041 0.0325521 0.0976562 0.130208 0.195312 0.0976562 0.130208 0.0976562 0.0651042 0.195312 0.0651041 0.0325521 0.0976562 0.130208 0.195312 0.0976562 0.130208 0.0976562 0.0651042 0.195312 0.0651041 0.0325521 0.0976562 0.130208 0.195312 0.0976562 0.130208 0.0976562 0.0651042 0.195312 0.0651041 0.0325521 0.0976562 0.130208 0.195312 0.0976562 0.130208 0.0976562 0.0651042 0.195312 0.0651041 0.0325521 0.0976563 0.130208 0.195312 0.0976562 0.130208 0.0976562 0.0651042 0.195312 0.0651041 0.0325521 0.0976562 0.130208 0.195312 0.0976562 0.130208 0.0976562 0.0651042 0.195312 0.0651041 0.0325521 0.0976562 0.130208 0.195312 0.0976562 0.130208 0.0976562 0.0651042 0.195312 0.0651042 0.0325521 0.0976563 0.130208 0.195313 0.0976563 0.130208 0.0976563 0.0651043 0.195312 0.0651042 0.0325522 0.0976563 0.130208 0.195312 0.0976563 0.130208 0.0976562 0.0651042 0.195312 0.0651041 0.0325521 0.0976562 0.130208 0.195312 0.0976562 0.130208 0.0976562 0.0651042 0.195312 0.0651041 0.0325521 0.0976562 0.130208 0.195312 0.0976562 0.130208 0.0976562 0.0651041 0.195312 0.0651041 0.0325521 0.0976562 0.130208 0.195312 0.0976562 0.130208 0.0976564 0.0651043 0.195312 0.0651042 0.0325522 0.0976564 0.130208 0.195312 0.0976564 0.130208 0.0976563 0.0651043 0.195313 0.0651042 0.0325522 0.0976564 0.130208 0.195313 0.0976564 0.130208 0.0976563 0.0651043 0.195312 0.0651041 0.0325521 0.0976562 0.130208 0.195312 0.0976563 0.130208 0.0976562 0.0651042 0.195313 0.0651042 0.0325521 0.0976564 0.130208 0.195313 0.0976563 0.130208 0.0976565 0.0651044 0.195312 0.0651041 0.0325522 0.0976562 0.130208 0.195312 0.0976565 0.130208 0.0976562 0.0651042 0.195313 0.0651042 0.0325521 0.0976563 0.130208 0.195313 0.0976564 0.130208 0.0976563 0.0651042 0.195312 0.0651041 0.0325521 0.0976561 0.130208 0.195312 0.0976562 0.130208 0.0976562 0.0651042 0.195312 0.0651042 0.0325521 0.0976562 0.130208 0.195312 0.0976562 0.130208 0.0976563 0.0651042 0.195312 0.0651042 0.0325522 0.0976562 0.130208 0.195312 0.0976563 0.130208 0.0976561 0.0651041 0.195312 0.065104 0.032552 0.0976562 0.130208 0.195313 0.0976561 0.130208 0.0976564 0.0651044 0.195313 0.0651042 0.0325522 0.0976562 0.130208 0.195312 0.0976565 0.130208 0.0976561 0.0651041 0.195312 0.065104 0.032552 0.0976562 0.130208 0.195312 0.097656 0.130208 0.0976564 0.0651044 0.195313 0.0651043 0.0325522 0.0976564 0.130209 0.195313 0.0976565 0.130208 0.0976564 0.0651043 0.195312 0.0651039 0.0325521 0.0976561 0.130208 0.195312 0.0976564 0.130208 0.0976561 0.0651043 0.195312 0.065104 0.0325522 0.0976563 0.130208 0.195313 0.0976565 0.130208 0.0976563 0.0651044 0.195313 0.0651041 0.0325522 0.0976563 0.130208 0.195312 0.0976566 0.130208 0.0976564 0.0651044 0.195313 0.0651043 0.0325522 0.0651043 0.130208 0.0976563 0.0976564 0.0651043 0.0325521 0.130208 0.195312 0.195313 0.130208 0.195313 0.0976562 0.0651041 0.0651042 0.0976562 0.0651042 0.195313 0.0976563 0.0976562 0.130208 0.130208 0.195313 0.195313 0.130208 0.195313 0.0976562 0.0651042 0.195313 0.0976562 0.130208 0.130208 0.195313 0.195313 0.130208 0.195313 0.0976563 0.0651042 0.195313 0.0976562 0.130208 0.130208 0.195312 0.195312 0.130208 0.195313 0.0976562 0.0651042 0.195313 0.0976562 0.130208 0.130208 0.195312 0.195313 0.130208 0.195313 0.0976562 0.0651041 0.195313 0.0976562 0.130208 0.130208 0.195313 0.195312 0.130208 0.195313 0.0976563 0.0651042 0.195313 0.0976562 0.130208 0.130208 0.195312 0.195312 0.130208 0.195312 0.0976562 0.0651042 0.195313 0.0976562 0.130208 0.130208 0.195312 0.195312 0.130208 0.195312 0.0976562 0.0651041 0.195312 0.0976562 0.130208 0.130208 0.195312 0.195312 0.130208 0.195312 0.0976562 0.0651041 0.195312 0.0976562 0.130208 0.130208 0.195312 0.195313 0.130208 0.195313 0.0976562 0.0651041 0.195313 0.0976562 0.130208 0.130208 0.195313 0.195313 0.130208 0.195313 0.0976563 0.0651042 0.195313 0.0976563 0.130208 0.130208 0.195313 0.195313 0.130208 0.195312 0.0976562 0.0651042 0.195313 0.0976562 0.130208 0.130208 0.195313 0.195313 0.130208 0.195313 0.0976563 0.0651042 0.195313 0.0976563 0.130208 0.130208 0.195313 0.195312 0.130208 0.195312 0.0976563 0.0651042 0.195313 0.0976562 0.130208 0.130208 0.195312 0.195313 0.130208 0.195313 0.0976562 0.0651041 0.195312 0.0976562 0.130208 0.130208 0.195313 0.195313 0.130208 0.195313 0.0976562 0.0651042 0.195313 0.0976562 0.130208 0.130209 0.195313 0.195313 0.130208 0.195313 0.0976563 0.0651042 0.195313 0.0976563 0.130208 0.130208 0.195313 0.195312 0.130208 0.195313 0.0976562 0.0651042 0.195313 0.0976563 0.130208 0.130208 0.195313 0.195313 0.130209 0.195313 0.0976564 0.0651042 0.195313 0.0976564 0.130209 0.130209 0.195313 0.195313 0.130208 0.195313 0.0976561 0.0651041 0.195313 0.0976563 0.130208 0.130208 0.195313 0.195313 0.130209 0.195313 0.0976564 0.0651043 0.195313 0.0976563 0.130208 0.130208 0.195313 0.195312 0.130208 0.195313 0.0976563 0.0651042 0.195313 0.0976562 0.130208 0.130208 0.195312 0.195313 0.130208 0.195313 0.0976563 0.0651042 0.195313 0.0976563 0.130208 0.130208 0.195313 0.195312 0.130208 0.195312 0.0976563 0.0651042 0.195313 0.0976562 0.130208 0.130208 0.195312 0.195313 0.130208 0.195313 0.0976561 0.0651041 0.195312 0.0976563 0.130208 0.130209 0.195313 0.195312 0.130209 0.195312 0.0976562 0.0651042 0.195313 0.097656 0.130208 0.130208 0.195312 0.195313 0.130208 0.195313 0.097656 0.065104 0.195312 0.0976563 0.130208 0.130209 0.195313 0.195313 0.130209 0.195313 0.0976564 0.0651043 0.195313 0.0976563 0.130209 0.130208 0.195312 0.195312 0.130208 0.195312 0.0976558 0.0651039 0.195312 0.0976562 0.130208 0.130208 0.195313 0.195313 0.130208 0.195313 0.0976561 0.0651041 0.195313 0.0976563 0.130208 0.130209 0.195313 0.195312 0.130209 0.195313 0.0976562 0.0651042 0.195313 0.0976561 0.130208 0.130209 0.195313 0.0976566 0.130208 0.0976564 0.0976565 0.0651042 0.195313 0.0325522 0.0651044 0.130208 0.195312 0.195313 0.130208 0.195313 0.0976562 0.0651042 0.195313 0.0976563 0.130208 0.130208 0.195313 0.195313 0.130208 0.195313 0.195313 0.130208 0.130208 0.195313 0.195313 0.130208 0.195313 0.195313 0.130208 0.130208 0.195312 0.195312 0.130208 0.195313 0.195313 0.130208 0.130208 0.195313 0.195313 0.130208 0.195313 0.195313 0.130208 0.130208 0.195313 0.195313 0.130208 0.195313 0.195313 0.130208 0.130208 0.195312 0.195312 0.130208 0.195313 0.195313 0.130208 0.130208 0.195312 0.195313 0.130208 0.195313 0.195312 0.130208 0.130208 0.195312 0.195312 0.130208 0.195312 0.195312 0.130208 0.130208 0.195312 0.195313 0.130208 0.195313 0.195312 0.130208 0.130208 0.195313 0.195313 0.130208 0.195313 0.195313 0.130208 0.130208 0.195313 0.195313 0.130208 0.195313 0.195313 0.130208 0.130208 0.195313 0.195313 0.130208 0.195313 0.195313 0.130208 0.130208 0.195313 0.195312 0.130208 0.195313 0.195313 0.130208 0.130208 0.195312 0.195313 0.130208 0.195313 0.195312 0.130208 0.130208 0.195313 0.195313 0.130208 0.195313 0.195313 0.130208 0.130209 0.195313 0.195313 0.130208 0.195313 0.195313 0.130208 0.130208 0.195313 0.195312 0.130208 0.195313 0.195313 0.130208 0.130208 0.195313 0.195313 0.130209 0.195313 0.195313 0.130209 0.130209 0.195313 0.195313 0.130208 0.195313 0.195313 0.130208 0.130208 0.195313 0.195313 0.130209 0.195313 0.195313 0.130208 0.130208 0.195313 0.195312 0.130208 0.195313 0.195313 0.130208 0.130208 0.195313 0.195313 0.130208 0.195313 0.195313 0.130208 0.130208 0.195313 0.195312 0.130208 0.195312 0.195313 0.130208 0.130208 0.195312 0.195313 0.130208 0.195313 0.195312 0.130208 0.130209 0.195313 0.195312 0.130209 0.195312 0.195313 0.130208 0.130208 0.195312 0.195313 0.130208 0.195313 0.195312 0.130208 0.130209 0.195313 0.195313 0.130209 0.195313 0.195313 0.130209 0.130208 0.195312 0.195312 0.130208 0.195312 0.195312 0.130208 0.130208 0.195313 0.195313 0.130209 0.195313 0.195313 0.130208 0.130209 0.195313 0.195312 0.130209 0.195313 0.195313 0.130208 0.130209 0.195313 0.0976566 0.130208 0.0976565 0.195313 0.0651044 0.130208 0.195313 0.195312 0.130208 0.195313 0.0976562 0.0651042 0.195313 0.0976563 0.130208 0.130208 0.195313 0.195313 0.130208 0.195313 0.195313 0.130208 0.130208 0.195313 0.195313 0.130208 0.195313 0.195313 0.130208 0.130208 0.195313 0.195312 0.130208 0.195313 0.195313 0.130208 0.130208 0.195312 0.195313 0.130208 0.195313 0.195313 0.130208 0.130208 0.195313 0.195313 0.130208 0.195313 0.195313 0.130208 0.130208 0.195312 0.195312 0.130208 0.195313 0.195313 0.130208 0.130208 0.195312 0.195313 0.130208 0.195313 0.195312 0.130208 0.130208 0.195312 0.195312 0.130208 0.195312 0.195312 0.130208 0.130208 0.195312 0.195313 0.130208 0.195313 0.195313 0.130208 0.130208 0.195313 0.195313 0.130208 0.195313 0.195313 0.130208 0.130208 0.195313 0.195313 0.130208 0.195313 0.195313 0.130208 0.130208 0.195313 0.195313 0.130208 0.195313 0.195313 0.130208 0.130208 0.195313 0.195312 0.130208 0.195313 0.195313 0.130208 0.130208 0.195312 0.195313 0.130208 0.195313 0.195312 0.130208 0.130208 0.195313 0.195313 0.130208 0.195313 0.195313 0.130208 0.130209 0.195313 0.195313 0.130208 0.195313 0.195313 0.130208 0.130208 0.195313 0.195312 0.130208 0.195313 0.195313 0.130208 0.130208 0.195313 0.195313 0.130209 0.195313 0.195313 0.130209 0.130209 0.195313 0.195313 0.130208 0.195313 0.195313 0.130208 0.130209 0.195313 0.195313 0.130209 0.195313 0.195313 0.130209 0.130208 0.195313 0.195312 0.130208 0.195313 0.195313 0.130208 0.130208 0.195313 0.195313 0.130208 0.195313 0.195313 0.130208 0.130208 0.195313 0.195312 0.130208 0.195312 0.195313 0.130208 0.130208 0.195312 0.195313 0.130208 0.195313 0.195312 0.130208 0.130209 0.195313 0.195312 0.130209 0.195312 0.195313 0.130208 0.130208 0.195312 0.195313 0.130208 0.195313 0.195312 0.130208 0.130209 0.195313 0.195313 0.130209 0.195313 0.195313 0.130209 0.130208 0.195312 0.195312 0.130208 0.195312 0.195312 0.130208 0.130208 0.195313 0.195313 0.130209 0.195313 0.195313 0.130208 0.130209 0.195313 0.195312 0.130209 0.195313 0.195313 0.130208 0.130209 0.195313 0.0976566 0.130208 0.0976564 0.195313 0.0651044 0.130208 0.195312 0.195312 0.130208 0.195313 0.0976562 0.0651042 0.195313 0.0976563 0.130208 0.130208 0.195312 0.195312 0.130208 0.195313 0.195313 0.130208 0.130208 0.195312 0.195312 0.130208 0.195313 0.195313 0.130208 0.130208 0.195312 0.195312 0.130208 0.195313 0.195313 0.130208 0.130208 0.195312 0.195312 0.130208 0.195313 0.195313 0.130208 0.130208 0.195313 0.195312 0.130208 0.195313 0.195313 0.130208 0.130208 0.195312 0.195312 0.130208 0.195312 0.195312 0.130208 0.130208 0.195312 0.195312 0.130208 0.195312 0.195312 0.130208 0.130208 0.195312 0.195312 0.130208 0.195312 0.195312 0.130208 0.130208 0.195312 0.195312 0.130208 0.195313 0.195312 0.130208 0.130208 0.195313 0.195313 0.130208 0.195313 0.195313 0.130208 0.130208 0.195313 0.195312 0.130208 0.195312 0.195313 0.130208 0.130208 0.195312 0.195313 0.130208 0.195313 0.195313 0.130208 0.130208 0.195312 0.195312 0.130208 0.195312 0.195313 0.130208 0.130208 0.195312 0.195312 0.130208 0.195313 0.195312 0.130208 0.130208 0.195313 0.195313 0.130208 0.195313 0.195313 0.130208 0.130209 0.195313 0.195313 0.130208 0.195313 0.195313 0.130208 0.130208 0.195313 0.195312 0.130208 0.195313 0.195313 0.130208 0.130208 0.195313 0.195313 0.130208 0.195313 0.195313 0.130209 0.130209 0.195313 0.195313 0.130208 0.195313 0.195313 0.130208 0.130208 0.195313 0.195313 0.130209 0.195313 0.195313 0.130208 0.130208 0.195312 0.195312 0.130208 0.195312 0.195313 0.130208 0.130208 0.195312 0.195313 0.130208 0.195313 0.195313 0.130208 0.130208 0.195313 0.195312 0.130208 0.195312 0.195313 0.130208 0.130208 0.195312 0.195313 0.130208 0.195313 0.195312 0.130208 0.130209 0.195313 0.195312 0.130208 0.195312 0.195313 0.130208 0.130208 0.195312 0.195312 0.130208 0.195313 0.195312 0.130208 0.130209 0.195313 0.195313 0.130209 0.195313 0.195313 0.130208 0.130208 0.195312 0.195312 0.130208 0.195312 0.195312 0.130208 0.130208 0.195312 0.195313 0.130208 0.195313 0.195313 0.130208 0.130209 0.195313 0.195312 0.130209 0.195313 0.195313 0.130208 0.130209 0.195313 0.0976565 0.130208 0.0976564 0.195313 0.0651044 0.130208 0.195312 0.195313 0.130208 0.195313 0.0976563 0.0651042 0.195313 0.0976563 0.130208 0.130208 0.195312 0.195313 0.130208 0.195313 0.195313 0.130208 0.130208 0.195313 0.195313 0.130208 0.195313 0.195313 0.130208 0.130208 0.195312 0.195313 0.130208 0.195313 0.195313 0.130208 0.130208 0.195312 0.195313 0.130208 0.195313 0.195313 0.130208 0.130208 0.195313 0.195313 0.130208 0.195313 0.195313 0.130208 0.130208 0.195312 0.195312 0.130208 0.195312 0.195313 0.130208 0.130208 0.195312 0.195313 0.130208 0.195313 0.195312 0.130208 0.130208 0.195312 0.195312 0.130208 0.195312 0.195312 0.130208 0.130208 0.195312 0.195313 0.130208 0.195313 0.195313 0.130208 0.130208 0.195313 0.195313 0.130208 0.195313 0.195313 0.130208 0.130208 0.195313 0.195313 0.130208 0.195313 0.195313 0.130208 0.130208 0.195313 0.195313 0.130208 0.195313 0.195313 0.130208 0.130208 0.195313 0.195312 0.130208 0.195313 0.195313 0.130208 0.130208 0.195312 0.195313 0.130208 0.195313 0.195312 0.130208 0.130208 0.195313 0.195313 0.130208 0.195313 0.195313 0.130208 0.130209 0.195313 0.195313 0.130208 0.195313 0.195313 0.130208 0.130208 0.195313 0.195313 0.130208 0.195313 0.195313 0.130208 0.130208 0.195313 0.195313 0.130209 0.195313 0.195313 0.130209 0.130209 0.195313 0.195313 0.130208 0.195313 0.195313 0.130208 0.130209 0.195313 0.195313 0.130209 0.195313 0.195313 0.130208 0.130208 0.195313 0.195312 0.130208 0.195313 0.195313 0.130208 0.130208 0.195313 0.195313 0.130208 0.195313 0.195313 0.130208 0.130208 0.195313 0.195313 0.130208 0.195312 0.195313 0.130208 0.130208 0.195312 0.195313 0.130208 0.195313 0.195312 0.130208 0.130209 0.195313 0.195312 0.130209 0.195312 0.195313 0.130208 0.130208 0.195312 0.195313 0.130208 0.195313 0.195312 0.130208 0.130209 0.195313 0.195313 0.130209 0.195313 0.195313 0.130209 0.130208 0.195312 0.195312 0.130208 0.195312 0.195312 0.130208 0.130208 0.195312 0.195313 0.130208 0.195313 0.195313 0.130208 0.130209 0.195313 0.195313 0.130209 0.195313 0.195313 0.130208 0.130209 0.195313 0.0976566 0.130208 0.0976564 0.195313 0.0651044 0.130208 0.195313 0.195313 0.130208 0.195313 0.0976562 0.0651042 0.195313 0.0976564 0.130208 0.130208 0.195313 0.195313 0.130208 0.195313 0.195313 0.130208 0.130208 0.195313 0.195313 0.130208 0.195313 0.195313 0.130208 0.130208 0.195313 0.195313 0.130208 0.195313 0.195313 0.130208 0.130208 0.195313 0.195313 0.130208 0.195313 0.195313 0.130208 0.130208 0.195313 0.195313 0.130208 0.195313 0.195313 0.130208 0.130208 0.195313 0.195312 0.130208 0.195313 0.195313 0.130208 0.130208 0.195312 0.195313 0.130208 0.195313 0.195313 0.130208 0.130208 0.195313 0.195312 0.130208 0.195313 0.195313 0.130208 0.130208 0.195313 0.195313 0.130208 0.195313 0.195313 0.130208 0.130208 0.195313 0.195313 0.130208 0.195313 0.195313 0.130208 0.130208 0.195313 0.195313 0.130208 0.195313 0.195313 0.130208 0.130208 0.195313 0.195313 0.130208 0.195313 0.195313 0.130208 0.130208 0.195313 0.195312 0.130208 0.195313 0.195313 0.130208 0.130208 0.195312 0.195313 0.130208 0.195313 0.195312 0.130208 0.130208 0.195313 0.195313 0.130208 0.195313 0.195313 0.130208 0.130209 0.195313 0.195313 0.130209 0.195313 0.195313 0.130209 0.130208 0.195313 0.195313 0.130208 0.195313 0.195313 0.130208 0.130208 0.195313 0.195313 0.130209 0.195313 0.195313 0.130209 0.130209 0.195313 0.195313 0.130209 0.195313 0.195313 0.130208 0.130209 0.195313 0.195313 0.130209 0.195313 0.195313 0.130209 0.130208 0.195313 0.195312 0.130208 0.195313 0.195313 0.130208 0.130208 0.195313 0.195313 0.130208 0.195313 0.195313 0.130208 0.130208 0.195313 0.195312 0.130209 0.195313 0.195313 0.130208 0.130208 0.195312 0.195313 0.130208 0.195313 0.195312 0.130208 0.130209 0.195313 0.195312 0.130209 0.195312 0.195313 0.130208 0.130208 0.195312 0.195313 0.130208 0.195313 0.195312 0.130208 0.130209 0.195313 0.195313 0.130209 0.195313 0.195313 0.130209 0.130208 0.195312 0.195312 0.130208 0.195312 0.195312 0.130208 0.130208 0.195313 0.195313 0.130209 0.195313 0.195313 0.130208 0.130209 0.195313 0.195313 0.130209 0.195313 0.195313 0.130208 0.130209 0.195313 0.0976566 0.130209 0.0976565 0.195313 0.0651044 0.130208 0.195313 0.195312 0.130208 0.195313 0.0976562 0.0651042 0.195312 0.0976563 0.130208 0.130208 0.195313 0.195312 0.130208 0.195313 0.195312 0.130208 0.130208 0.195313 0.195312 0.130208 0.195313 0.195313 0.130208 0.130208 0.195313 0.195312 0.130208 0.195313 0.195312 0.130208 0.130208 0.195313 0.195312 0.130208 0.195313 0.195312 0.130208 0.130208 0.195313 0.195312 0.130208 0.195313 0.195313 0.130208 0.130208 0.195312 0.195312 0.130208 0.195312 0.195312 0.130208 0.130208 0.195312 0.195312 0.130208 0.195313 0.195312 0.130208 0.130208 0.195312 0.195312 0.130208 0.195312 0.195312 0.130208 0.130208 0.195312 0.195312 0.130208 0.195313 0.195312 0.130208 0.130208 0.195313 0.195313 0.130208 0.195313 0.195313 0.130208 0.130208 0.195313 0.195312 0.130208 0.195313 0.195313 0.130208 0.130208 0.195313 0.195313 0.130208 0.195313 0.195312 0.130208 0.130208 0.195313 0.195312 0.130208 0.195313 0.195313 0.130208 0.130208 0.195312 0.195312 0.130208 0.195313 0.195312 0.130208 0.130208 0.195313 0.195313 0.130208 0.195313 0.195313 0.130208 0.130208 0.195313 0.195313 0.130208 0.195313 0.195313 0.130208 0.130208 0.195313 0.195312 0.130208 0.195313 0.195313 0.130208 0.130208 0.195313 0.195313 0.130209 0.195313 0.195313 0.130209 0.130208 0.195313 0.195313 0.130208 0.195313 0.195313 0.130208 0.130208 0.195313 0.195313 0.130209 0.195313 0.195313 0.130209 0.130208 0.195313 0.195312 0.130208 0.195313 0.195312 0.130208 0.130208 0.195313 0.195313 0.130208 0.195313 0.195312 0.130208 0.130208 0.195313 0.195312 0.130208 0.195312 0.195313 0.130208 0.130208 0.195312 0.195312 0.130208 0.195313 0.195312 0.130208 0.130209 0.195313 0.195312 0.130209 0.195312 0.195313 0.130208 0.130208 0.195312 0.195312 0.130208 0.195313 0.195312 0.130208 0.130209 0.195313 0.195313 0.130209 0.195313 0.195313 0.130209 0.130208 0.195312 0.195312 0.130208 0.195312 0.195312 0.130208 0.130208 0.195313 0.195313 0.130208 0.195313 0.195313 0.130208 0.130209 0.195313 0.195312 0.130209 0.195313 0.195313 0.130208 0.130209 0.195313 0.0976566 0.130208 0.0976564 0.195313 0.0651044 0.0651042 0.195312 0.0976563 0.130208 0.195312 0.0325521 0.0651041 0.0976563 0.0976563 0.130208 0.0651042 0.195312 0.0976563 0.130208 0.195312 0.0976563 0.130208 0.0651042 0.195312 0.0976563 0.130208 0.195312 0.0976563 0.130208 0.0651042 0.195312 0.0976562 0.130208 0.195312 0.0976563 0.130208 0.0651042 0.195312 0.0976562 0.130208 0.195312 0.0976563 0.130208 0.0651042 0.195312 0.0976562 0.130208 0.195312 0.0976563 0.130208 0.0651042 0.195312 0.0976562 0.130208 0.195312 0.0976563 0.130208 0.0651042 0.195312 0.0976563 0.130208 0.195312 0.0976562 0.130208 0.0651042 0.195312 0.0976562 0.130208 0.195312 0.0976563 0.130208 0.0651042 0.195312 0.0976563 0.130208 0.195312 0.0976563 0.130208 0.0651042 0.195313 0.0976563 0.130208 0.195313 0.0976564 0.130208 0.0651043 0.195312 0.0976563 0.130208 0.195312 0.0976564 0.130208 0.0651042 0.195312 0.0976562 0.130208 0.195312 0.0976562 0.130208 0.0651042 0.195312 0.0976562 0.130208 0.195312 0.0976563 0.130208 0.0651041 0.195312 0.0976563 0.130208 0.195313 0.0976562 0.130208 0.0651043 0.195313 0.0976564 0.130208 0.195313 0.0976564 0.130208 0.0651043 0.195313 0.0976564 0.130208 0.195313 0.0976564 0.130208 0.0651043 0.195312 0.0976562 0.130208 0.195312 0.0976564 0.130208 0.0651042 0.195313 0.0976564 0.130208 0.195313 0.0976563 0.130209 0.0651044 0.195313 0.0976562 0.130208 0.195312 0.0976565 0.130208 0.0651042 0.195313 0.0976564 0.130209 0.195313 0.0976564 0.130208 0.0651042 0.195312 0.0976562 0.130208 0.195312 0.0976563 0.130208 0.0651042 0.195312 0.0976563 0.130208 0.195313 0.0976563 0.130208 0.0651042 0.195313 0.0976563 0.130208 0.195312 0.0976563 0.130208 0.0651041 0.195312 0.0976562 0.130208 0.195313 0.0976562 0.130208 0.0651044 0.195313 0.0976562 0.130208 0.195312 0.0976566 0.130208 0.0651041 0.195312 0.0976562 0.130208 0.195312 0.097656 0.130208 0.0651044 0.195313 0.0976565 0.130209 0.195313 0.0976565 0.130208 0.0651043 0.195312 0.0976561 0.130208 0.195312 0.0976564 0.130208 0.0651043 0.195312 0.0976563 0.130208 0.195313 0.0976565 0.130208 0.0651044 0.195313 0.0976564 0.130209 0.195313 0.0976566 0.130208 0.0651044 0.195313 0.0651043 0.130208 0.0976564 0.0976564 0.0651043 0.130208 0.195313 0.195313 0.130208 0.195313 0.0976562 0.0651042 0.0651042 0.0976563 0.0651042 0.195313 0.0976563 0.0976563 0.130208 0.130208 0.195313 0.195313 0.130208 0.195313 0.0976562 0.0651042 0.195313 0.0976563 0.130208 0.130208 0.195313 0.195313 0.130208 0.195313 0.0976562 0.0651042 0.195313 0.0976563 0.130208 0.130208 0.195313 0.195313 0.130208 0.195313 0.0976562 0.0651042 0.195313 0.0976563 0.130208 0.130208 0.195313 0.195313 0.130208 0.195313 0.0976562 0.0651042 0.195313 0.0976563 0.130208 0.130208 0.195313 0.195313 0.130208 0.195313 0.0976562 0.0651042 0.195313 0.0976563 0.130208 0.130208 0.195313 0.195312 0.130208 0.195312 0.0976562 0.0651042 0.195313 0.0976562 0.130208 0.130208 0.195312 0.195313 0.130208 0.195312 0.0976562 0.0651041 0.195312 0.0976562 0.130208 0.130208 0.195312 0.195313 0.130208 0.195312 0.0976561 0.0651041 0.195312 0.0976562 0.130208 0.130208 0.195313 0.195313 0.130208 0.195313 0.0976562 0.0651042 0.195312 0.0976563 0.130208 0.130208 0.195313 0.195313 0.130208 0.195313 0.0976563 0.0651042 0.195313 0.0976563 0.130208 0.130208 0.195313 0.195313 0.130208 0.195312 0.0976562 0.0651042 0.195313 0.0976562 0.130208 0.130208 0.195313 0.195313 0.130208 0.195313 0.0976563 0.0651042 0.195313 0.0976563 0.130208 0.130208 0.195313 0.195313 0.130208 0.195312 0.0976563 0.0651042 0.195313 0.0976562 0.130208 0.130208 0.195312 0.195313 0.130208 0.195313 0.0976562 0.0651041 0.195312 0.0976563 0.130208 0.130209 0.195313 0.195313 0.130208 0.195313 0.0976562 0.0651042 0.195313 0.0976563 0.130208 0.130209 0.195313 0.195313 0.130208 0.195313 0.0976563 0.0651042 0.195313 0.0976564 0.130208 0.130208 0.195313 0.195313 0.130208 0.195313 0.0976562 0.0651042 0.195313 0.0976563 0.130208 0.130208 0.195313 0.195313 0.130208 0.195313 0.0976563 0.0651042 0.195313 0.0976564 0.130209 0.130209 0.195313 0.195313 0.130208 0.195313 0.0976561 0.0651041 0.195313 0.0976563 0.130208 0.130209 0.195313 0.195313 0.130209 0.195313 0.0976564 0.0651043 0.195313 0.0976564 0.130209 0.130208 0.195313 0.195312 0.130208 0.195312 0.0976562 0.0651042 0.195313 0.0976563 0.130208 0.130208 0.195313 0.195313 0.130208 0.195313 0.0976562 0.0651042 0.195313 0.0976564 0.130208 0.130209 0.195313 0.195313 0.130208 0.195312 0.0976562 0.0651042 0.195313 0.0976562 0.130208 0.130208 0.195312 0.195313 0.130208 0.195313 0.0976561 0.0651041 0.195312 0.0976563 0.130208 0.130209 0.195313 0.195312 0.130208 0.195312 0.0976562 0.0651042 0.195313 0.0976561 0.130208 0.130208 0.195312 0.195313 0.130208 0.195313 0.097656 0.065104 0.195312 0.0976563 0.130208 0.130209 0.195313 0.195313 0.130209 0.195313 0.0976564 0.0651043 0.195313 0.0976564 0.130209 0.130208 0.195312 0.195312 0.130208 0.195312 0.0976558 0.065104 0.195312 0.0976563 0.130208 0.130208 0.195313 0.195313 0.130208 0.195313 0.097656 0.0651041 0.195313 0.0976564 0.130208 0.130209 0.195313 0.195313 0.130209 0.195313 0.0976562 0.0651042 0.195313 0.0976561 0.130208 0.130209 0.195313 0.0976566 0.130208 0.0976564 0.0976564 0.0651043 0.195313 0.0325522 0.0651044 0.130208 0.195313 0.195313 0.130208 0.195313 0.0976563 0.0651042 0.195313 0.0976563 0.130208 0.130208 0.195313 0.195313 0.130208 0.195313 0.195313 0.130208 0.130208 0.195313 0.195313 0.130208 0.195313 0.195313 0.130208 0.130208 0.195313 0.195313 0.130208 0.195313 0.195312 0.130208 0.130208 0.195313 0.195313 0.130208 0.195313 0.195312 0.130208 0.130208 0.195313 0.195313 0.130208 0.195313 0.195313 0.130208 0.130208 0.195313 0.195312 0.130208 0.195312 0.195312 0.130208 0.130208 0.195313 0.195313 0.130208 0.195312 0.195312 0.130208 0.130208 0.195313 0.195313 0.130208 0.195312 0.195312 0.130208 0.130208 0.195313 0.195313 0.130208 0.195313 0.195312 0.130208 0.130208 0.195313 0.195313 0.130208 0.195313 0.195313 0.130208 0.130208 0.195313 0.195313 0.130208 0.195312 0.195313 0.130208 0.130208 0.195313 0.195313 0.130208 0.195313 0.195313 0.130208 0.130208 0.195313 0.195313 0.130208 0.195312 0.195313 0.130208 0.130208 0.195312 0.195313 0.130208 0.195313 0.195312 0.130208 0.130209 0.195313 0.195313 0.130208 0.195313 0.195313 0.130208 0.130209 0.195313 0.195313 0.130208 0.195313 0.195313 0.130209 0.130208 0.195313 0.195313 0.130208 0.195313 0.195313 0.130208 0.130208 0.195313 0.195313 0.130208 0.195313 0.195313 0.130209 0.130209 0.195313 0.195313 0.130208 0.195313 0.195313 0.130208 0.130209 0.195313 0.195313 0.130209 0.195313 0.195313 0.130209 0.130208 0.195313 0.195313 0.130208 0.195313 0.195313 0.130208 0.130208 0.195313 0.195313 0.130208 0.195313 0.195313 0.130208 0.130209 0.195313 0.195313 0.130208 0.195312 0.195313 0.130208 0.130208 0.195312 0.195313 0.130208 0.195313 0.195312 0.130208 0.130209 0.195313 0.195312 0.130208 0.195312 0.195313 0.130208 0.130208 0.195312 0.195313 0.130208 0.195313 0.195312 0.130208 0.130209 0.195313 0.195313 0.130209 0.195313 0.195313 0.130209 0.130208 0.195312 0.195312 0.130208 0.195312 0.195312 0.130208 0.130208 0.195313 0.195313 0.130208 0.195313 0.195313 0.130208 0.130209 0.195313 0.195313 0.130209 0.195313 0.195313 0.130208 0.130209 0.195313 0.0976566 0.130208 0.0976564 0.195313 0.0651044 0.130208 0.195313 0.195313 0.130208 0.195313 0.0976563 0.0651042 0.195313 0.0976563 0.130208 0.130208 0.195313 0.195313 0.130208 0.195313 0.195313 0.130208 0.130208 0.195313 0.195313 0.130208 0.195313 0.195313 0.130208 0.130208 0.195313 0.195313 0.130208 0.195313 0.195313 0.130208 0.130208 0.195313 0.195313 0.130208 0.195313 0.195312 0.130208 0.130208 0.195313 0.195313 0.130208 0.195313 0.195313 0.130208 0.130208 0.195313 0.195313 0.130208 0.195312 0.195312 0.130208 0.130208 0.195313 0.195313 0.130208 0.195313 0.195312 0.130208 0.130208 0.195313 0.195313 0.130208 0.195312 0.195312 0.130208 0.130208 0.195313 0.195313 0.130208 0.195313 0.195312 0.130208 0.130209 0.195313 0.195313 0.130208 0.195313 0.195313 0.130208 0.130209 0.195313 0.195313 0.130208 0.195313 0.195313 0.130208 0.130208 0.195313 0.195313 0.130208 0.195313 0.195313 0.130208 0.130208 0.195313 0.195313 0.130208 0.195313 0.195313 0.130208 0.130208 0.195313 0.195313 0.130208 0.195313 0.195312 0.130208 0.130209 0.195313 0.195313 0.130208 0.195313 0.195313 0.130208 0.130209 0.195313 0.195313 0.130208 0.195313 0.195313 0.130209 0.130208 0.195313 0.195313 0.130208 0.195313 0.195313 0.130208 0.130208 0.195313 0.195313 0.130208 0.195313 0.195313 0.130209 0.130209 0.195313 0.195313 0.130208 0.195313 0.195313 0.130208 0.130209 0.195313 0.195313 0.130209 0.195313 0.195313 0.130209 0.130208 0.195313 0.195312 0.130208 0.195313 0.195313 0.130208 0.130208 0.195313 0.195313 0.130208 0.195313 0.195313 0.130208 0.130209 0.195313 0.195313 0.130208 0.195312 0.195313 0.130208 0.130208 0.195312 0.195313 0.130208 0.195313 0.195312 0.130208 0.130209 0.195313 0.195312 0.130208 0.195312 0.195313 0.130208 0.130208 0.195312 0.195313 0.130208 0.195313 0.195312 0.130208 0.130209 0.195313 0.195313 0.130209 0.195313 0.195313 0.130209 0.130208 0.195312 0.195312 0.130208 0.195312 0.195312 0.130208 0.130208 0.195313 0.195313 0.130208 0.195313 0.195313 0.130208 0.130209 0.195313 0.195313 0.130209 0.195313 0.195313 0.130208 0.130209 0.195313 0.0976566 0.130208 0.0976564 0.195313 0.0651044 0.130208 0.195313 0.195313 0.130208 0.195312 0.0976563 0.0651042 0.195312 0.0976563 0.130208 0.130208 0.195313 0.195313 0.130208 0.195312 0.195313 0.130208 0.130208 0.195313 0.195313 0.130208 0.195312 0.195313 0.130208 0.130208 0.195313 0.195313 0.130208 0.195312 0.195312 0.130208 0.130208 0.195313 0.195313 0.130208 0.195313 0.195312 0.130208 0.130208 0.195313 0.195313 0.130208 0.195312 0.195313 0.130208 0.130208 0.195313 0.195312 0.130208 0.195312 0.195312 0.130208 0.130208 0.195312 0.195313 0.130208 0.195312 0.195312 0.130208 0.130208 0.195312 0.195313 0.130208 0.195312 0.195312 0.130208 0.130208 0.195313 0.195313 0.130208 0.195313 0.195312 0.130208 0.130208 0.195313 0.195313 0.130208 0.195313 0.195313 0.130208 0.130208 0.195313 0.195313 0.130208 0.195312 0.195313 0.130208 0.130208 0.195313 0.195313 0.130208 0.195313 0.195313 0.130208 0.130208 0.195313 0.195312 0.130208 0.195312 0.195313 0.130208 0.130208 0.195312 0.195313 0.130208 0.195313 0.195312 0.130208 0.130209 0.195313 0.195313 0.130208 0.195313 0.195313 0.130208 0.130209 0.195313 0.195313 0.130208 0.195313 0.195313 0.130208 0.130208 0.195313 0.195313 0.130208 0.195312 0.195313 0.130208 0.130208 0.195313 0.195313 0.130208 0.195313 0.195313 0.130209 0.130209 0.195313 0.195313 0.130208 0.195312 0.195313 0.130208 0.130209 0.195313 0.195313 0.130209 0.195313 0.195313 0.130209 0.130208 0.195313 0.195312 0.130208 0.195312 0.195313 0.130208 0.130208 0.195313 0.195313 0.130208 0.195313 0.195312 0.130208 0.130208 0.195313 0.195313 0.130208 0.195312 0.195313 0.130208 0.130208 0.195312 0.195313 0.130208 0.195313 0.195312 0.130208 0.130209 0.195313 0.195312 0.130208 0.195312 0.195313 0.130208 0.130208 0.195312 0.195313 0.130208 0.195313 0.195312 0.130208 0.130209 0.195313 0.195313 0.130209 0.195313 0.195313 0.130209 0.130208 0.195312 0.195312 0.130208 0.195312 0.195312 0.130208 0.130208 0.195313 0.195313 0.130208 0.195313 0.195313 0.130208 0.130209 0.195313 0.195313 0.130209 0.195313 0.195313 0.130208 0.130209 0.195313 0.0976566 0.130208 0.0976564 0.195313 0.0651044 0.130208 0.195313 0.195313 0.130208 0.195313 0.0976563 0.0651042 0.195313 0.0976563 0.130208 0.130208 0.195313 0.195313 0.130208 0.195313 0.195313 0.130208 0.130208 0.195313 0.195313 0.130208 0.195313 0.195313 0.130208 0.130208 0.195313 0.195313 0.130208 0.195313 0.195313 0.130208 0.130208 0.195313 0.195313 0.130208 0.195313 0.195313 0.130208 0.130208 0.195313 0.195313 0.130208 0.195313 0.195313 0.130208 0.130208 0.195313 0.195313 0.130208 0.195312 0.195313 0.130208 0.130208 0.195313 0.195313 0.130208 0.195312 0.195312 0.130208 0.130208 0.195313 0.195313 0.130208 0.195312 0.195312 0.130208 0.130208 0.195313 0.195313 0.130208 0.195313 0.195312 0.130208 0.130208 0.195313 0.195313 0.130208 0.195313 0.195313 0.130208 0.130209 0.195313 0.195313 0.130208 0.195312 0.195313 0.130208 0.130208 0.195313 0.195313 0.130208 0.195313 0.195313 0.130208 0.130208 0.195313 0.195313 0.130208 0.195312 0.195313 0.130208 0.130208 0.195312 0.195313 0.130208 0.195313 0.195312 0.130208 0.130209 0.195313 0.195313 0.130208 0.195313 0.195313 0.130208 0.130209 0.195313 0.195313 0.130208 0.195313 0.195313 0.130209 0.130208 0.195313 0.195313 0.130208 0.195313 0.195313 0.130208 0.130208 0.195313 0.195313 0.130208 0.195313 0.195313 0.130209 0.130209 0.195313 0.195313 0.130208 0.195313 0.195313 0.130208 0.130209 0.195313 0.195313 0.130209 0.195313 0.195313 0.130209 0.130208 0.195313 0.195313 0.130208 0.195313 0.195313 0.130208 0.130208 0.195313 0.195313 0.130208 0.195313 0.195313 0.130208 0.130209 0.195313 0.195313 0.130208 0.195312 0.195313 0.130208 0.130208 0.195312 0.195313 0.130208 0.195313 0.195312 0.130208 0.130209 0.195313 0.195312 0.130208 0.195312 0.195313 0.130208 0.130208 0.195312 0.195313 0.130208 0.195313 0.195312 0.130208 0.130209 0.195313 0.195313 0.130209 0.195313 0.195313 0.130209 0.130208 0.195312 0.195312 0.130208 0.195312 0.195312 0.130208 0.130208 0.195313 0.195313 0.130208 0.195313 0.195313 0.130208 0.130209 0.195313 0.195313 0.130209 0.195313 0.195313 0.130208 0.130209 0.195313 0.0976566 0.130208 0.0976564 0.195313 0.0651044 0.130208 0.195313 0.195313 0.130208 0.195313 0.0976563 0.0651042 0.195313 0.0976563 0.130208 0.130208 0.195313 0.195313 0.130208 0.195313 0.195313 0.130208 0.130208 0.195313 0.195313 0.130208 0.195313 0.195313 0.130208 0.130208 0.195313 0.195313 0.130208 0.195313 0.195313 0.130208 0.130208 0.195313 0.195313 0.130208 0.195313 0.195313 0.130208 0.130208 0.195313 0.195313 0.130208 0.195313 0.195313 0.130208 0.130208 0.195313 0.195313 0.130208 0.195313 0.195313 0.130208 0.130208 0.195313 0.195313 0.130208 0.195313 0.195312 0.130208 0.130208 0.195313 0.195313 0.130208 0.195312 0.195312 0.130208 0.130208 0.195313 0.195313 0.130208 0.195313 0.195313 0.130208 0.130209 0.195313 0.195313 0.130208 0.195313 0.195313 0.130209 0.130209 0.195313 0.195313 0.130208 0.195313 0.195313 0.130208 0.130208 0.195313 0.195313 0.130208 0.195313 0.195313 0.130208 0.130208 0.195313 0.195313 0.130208 0.195313 0.195313 0.130208 0.130208 0.195313 0.195313 0.130208 0.195313 0.195312 0.130208 0.130209 0.195313 0.195313 0.130208 0.195313 0.195313 0.130208 0.130209 0.195313 0.195313 0.130208 0.195313 0.195313 0.130209 0.130208 0.195313 0.195313 0.130208 0.195313 0.195313 0.130208 0.130209 0.195313 0.195313 0.130209 0.195313 0.195313 0.130209 0.130209 0.195313 0.195313 0.130208 0.195313 0.195313 0.130208 0.130209 0.195313 0.195313 0.130209 0.195313 0.195313 0.130209 0.130208 0.195313 0.195313 0.130208 0.195313 0.195313 0.130208 0.130208 0.195313 0.195313 0.130208 0.195313 0.195313 0.130208 0.130209 0.195313 0.195313 0.130208 0.195312 0.195313 0.130208 0.130208 0.195312 0.195313 0.130208 0.195313 0.195312 0.130209 0.130209 0.195313 0.195312 0.130209 0.195312 0.195313 0.130208 0.130208 0.195312 0.195313 0.130208 0.195313 0.195312 0.130208 0.130209 0.195313 0.195313 0.130209 0.195313 0.195313 0.130209 0.130208 0.195312 0.195312 0.130208 0.195312 0.195312 0.130208 0.130208 0.195313 0.195313 0.130208 0.195313 0.195313 0.130208 0.130209 0.195313 0.195313 0.130209 0.195313 0.195313 0.130208 0.130209 0.195313 0.0976566 0.130208 0.0976565 0.195313 0.0651044 0.130208 0.195313 0.195313 0.130208 0.195313 0.0976562 0.0651042 0.195312 0.0976563 0.130208 0.130208 0.195313 0.195313 0.130208 0.195313 0.195312 0.130208 0.130208 0.195313 0.195313 0.130208 0.195313 0.195312 0.130208 0.130208 0.195313 0.195313 0.130208 0.195313 0.195312 0.130208 0.130208 0.195313 0.195313 0.130208 0.195313 0.195312 0.130208 0.130208 0.195313 0.195313 0.130208 0.195313 0.195313 0.130208 0.130208 0.195313 0.195312 0.130208 0.195312 0.195312 0.130208 0.130208 0.195313 0.195313 0.130208 0.195313 0.195312 0.130208 0.130208 0.195313 0.195312 0.130208 0.195312 0.195312 0.130208 0.130208 0.195313 0.195313 0.130208 0.195313 0.195312 0.130208 0.130208 0.195313 0.195313 0.130208 0.195313 0.195313 0.130208 0.130208 0.195313 0.195313 0.130208 0.195313 0.195313 0.130208 0.130208 0.195313 0.195313 0.130208 0.195313 0.195312 0.130208 0.130208 0.195313 0.195312 0.130208 0.195313 0.195312 0.130208 0.130208 0.195312 0.195313 0.130208 0.195313 0.195312 0.130208 0.130209 0.195313 0.195313 0.130208 0.195313 0.195313 0.130208 0.130209 0.195313 0.195313 0.130208 0.195313 0.195313 0.130209 0.130208 0.195313 0.195313 0.130208 0.195313 0.195313 0.130208 0.130208 0.195313 0.195313 0.130208 0.195313 0.195313 0.130209 0.130209 0.195313 0.195313 0.130208 0.195313 0.195313 0.130208 0.130209 0.195313 0.195313 0.130209 0.195313 0.195313 0.130209 0.130208 0.195313 0.195312 0.130208 0.195313 0.195312 0.130208 0.130208 0.195313 0.195313 0.130208 0.195313 0.195312 0.130208 0.130208 0.195313 0.195313 0.130208 0.195312 0.195313 0.130208 0.130208 0.195312 0.195313 0.130208 0.195313 0.195312 0.130208 0.130209 0.195313 0.195312 0.130208 0.195312 0.195313 0.130208 0.130208 0.195312 0.195313 0.130208 0.195313 0.195312 0.130208 0.130209 0.195313 0.195313 0.130209 0.195313 0.195313 0.130209 0.130208 0.195312 0.195312 0.130208 0.195312 0.195312 0.130208 0.130208 0.195313 0.195313 0.130208 0.195313 0.195312 0.130208 0.130209 0.195313 0.195313 0.130209 0.195313 0.195313 0.130208 0.130209 0.195313 0.0976566 0.130208 0.0976564 0.195313 0.0651044 0.0651043 0.195312 0.0976563 0.130208 0.195312 0.0325521 0.0651042 0.0976563 0.0976563 0.130208 0.0651043 0.195312 0.0976563 0.130208 0.195312 0.0976563 0.130208 0.0651043 0.195313 0.0976563 0.130208 0.195312 0.0976563 0.130208 0.0651042 0.195312 0.0976563 0.130208 0.195312 0.0976563 0.130208 0.0651043 0.195312 0.0976563 0.130208 0.195312 0.0976563 0.130208 0.0651043 0.195313 0.0976563 0.130208 0.195312 0.0976563 0.130208 0.0651042 0.195312 0.0976563 0.130208 0.195312 0.0976563 0.130208 0.0651042 0.195312 0.0976563 0.130208 0.195312 0.0976562 0.130208 0.0651043 0.195312 0.0976563 0.130208 0.195312 0.0976563 0.130208 0.0651043 0.195312 0.0976563 0.130208 0.195312 0.0976563 0.130208 0.0651043 0.195313 0.0976564 0.130208 0.195313 0.0976564 0.130208 0.0651043 0.195313 0.0976563 0.130208 0.195312 0.0976564 0.130208 0.0651042 0.195313 0.0976563 0.130208 0.195312 0.0976563 0.130208 0.0651042 0.195313 0.0976563 0.130208 0.195312 0.0976563 0.130208 0.0651042 0.195312 0.0976563 0.130208 0.195313 0.0976562 0.130208 0.0651044 0.195313 0.0976564 0.130208 0.195313 0.0976564 0.130208 0.0651044 0.195313 0.0976564 0.130208 0.195313 0.0976564 0.130208 0.0651043 0.195313 0.0976562 0.130208 0.195312 0.0976564 0.130208 0.0651042 0.195313 0.0976565 0.130208 0.195313 0.0976563 0.130209 0.0651044 0.195313 0.0976563 0.130208 0.195312 0.0976565 0.130208 0.0651043 0.195313 0.0976564 0.130208 0.195313 0.0976564 0.130208 0.0651043 0.195313 0.0976562 0.130208 0.195312 0.0976563 0.130208 0.0651042 0.195312 0.0976563 0.130208 0.195313 0.0976563 0.130208 0.0651043 0.195313 0.0976563 0.130208 0.195312 0.0976564 0.130208 0.0651042 0.195312 0.0976563 0.130208 0.195313 0.0976562 0.130208 0.0651045 0.195313 0.0976563 0.130208 0.195312 0.0976566 0.130208 0.0651041 0.195312 0.0976563 0.130208 0.195312 0.097656 0.130208 0.0651045 0.195313 0.0976565 0.130209 0.195313 0.0976565 0.130208 0.0651043 0.195312 0.0976561 0.130208 0.195312 0.0976564 0.130208 0.0651043 0.195313 0.0976563 0.130208 0.195313 0.0976565 0.130208 0.0651044 0.195313 0.0976564 0.130208 0.195313 0.0976566 0.130208 0.0651044 0.195313 0.0651044 0.130208 0.0976563 0.0976564 0.0651044 0.130208 0.195312 0.195312 0.130208 0.195312 0.0976562 0.0651041 0.0651041 0.0976563 0.0651042 0.195312 0.0976563 0.0976562 0.130208 0.130208 0.195312 0.195312 0.130208 0.195312 0.0976562 0.0651041 0.195312 0.0976562 0.130208 0.130208 0.195312 0.195312 0.130208 0.195312 0.0976562 0.0651042 0.195313 0.0976562 0.130208 0.130208 0.195312 0.195312 0.130208 0.195312 0.0976562 0.0651041 0.195312 0.0976562 0.130208 0.130208 0.195312 0.195312 0.130208 0.195312 0.0976562 0.0651041 0.195312 0.0976562 0.130208 0.130208 0.195313 0.195312 0.130208 0.195312 0.0976562 0.0651042 0.195313 0.0976562 0.130208 0.130208 0.195312 0.195312 0.130208 0.195312 0.0976562 0.0651041 0.195312 0.0976562 0.130208 0.130208 0.195312 0.195312 0.130208 0.195312 0.0976562 0.0651041 0.195312 0.0976562 0.130208 0.130208 0.195312 0.195312 0.130208 0.195312 0.0976561 0.0651041 0.195312 0.0976562 0.130208 0.130208 0.195312 0.195313 0.130208 0.195312 0.0976562 0.0651041 0.195312 0.0976562 0.130208 0.130208 0.195313 0.195313 0.130208 0.195313 0.0976563 0.0651042 0.195313 0.0976563 0.130208 0.130208 0.195313 0.195312 0.130208 0.195312 0.0976562 0.0651041 0.195313 0.0976562 0.130208 0.130208 0.195312 0.195313 0.130208 0.195312 0.0976563 0.0651042 0.195313 0.0976563 0.130208 0.130208 0.195313 0.195312 0.130208 0.195312 0.0976563 0.0651042 0.195313 0.0976562 0.130208 0.130208 0.195312 0.195312 0.130208 0.195313 0.0976562 0.0651041 0.195312 0.0976562 0.130208 0.130208 0.195313 0.195313 0.130208 0.195313 0.0976562 0.0651041 0.195313 0.0976562 0.130208 0.130209 0.195313 0.195313 0.130208 0.195313 0.0976563 0.0651042 0.195313 0.0976563 0.130208 0.130208 0.195313 0.195312 0.130208 0.195312 0.0976562 0.0651041 0.195313 0.0976563 0.130208 0.130208 0.195313 0.195313 0.130208 0.195313 0.0976563 0.0651042 0.195313 0.0976564 0.130209 0.130209 0.195313 0.195313 0.130208 0.195312 0.0976561 0.0651041 0.195313 0.0976563 0.130208 0.130208 0.195313 0.195313 0.130209 0.195313 0.0976564 0.0651043 0.195313 0.0976563 0.130208 0.130208 0.195312 0.195312 0.130208 0.195312 0.0976562 0.0651042 0.195313 0.0976562 0.130208 0.130208 0.195312 0.195313 0.130208 0.195313 0.0976562 0.0651042 0.195312 0.0976563 0.130208 0.130208 0.195313 0.195312 0.130208 0.195312 0.0976563 0.0651042 0.195313 0.0976562 0.130208 0.130208 0.195312 0.195313 0.130208 0.195313 0.0976561 0.0651041 0.195312 0.0976563 0.130208 0.130209 0.195313 0.195312 0.130208 0.195312 0.0976562 0.0651041 0.195313 0.097656 0.130208 0.130208 0.195312 0.195312 0.130208 0.195313 0.097656 0.065104 0.195312 0.0976563 0.130208 0.130209 0.195313 0.195313 0.130209 0.195313 0.0976564 0.0651043 0.195313 0.0976563 0.130208 0.130208 0.195312 0.195312 0.130208 0.195312 0.0976558 0.0651039 0.195312 0.0976562 0.130208 0.130208 0.195312 0.195313 0.130208 0.195313 0.097656 0.0651041 0.195313 0.0976563 0.130208 0.130209 0.195313 0.195312 0.130209 0.195313 0.0976562 0.0651042 0.195313 0.0976561 0.130208 0.130209 0.195313 0.0976565 0.130208 0.0976564 0.0976564 0.0651042 0.195313 0.0325522 0.0651044 0.130208 0.195312 0.195312 0.130208 0.195313 0.0976563 0.0651042 0.195312 0.0976563 0.130208 0.130208 0.195313 0.195312 0.130208 0.195313 0.195312 0.130208 0.130208 0.195312 0.195312 0.130208 0.195312 0.195313 0.130208 0.130208 0.195312 0.195312 0.130208 0.195312 0.195312 0.130208 0.130208 0.195312 0.195313 0.130208 0.195312 0.195312 0.130208 0.130208 0.195313 0.195312 0.130208 0.195312 0.195313 0.130208 0.130208 0.195312 0.195312 0.130208 0.195312 0.195312 0.130208 0.130208 0.195312 0.195312 0.130208 0.195312 0.195312 0.130208 0.130208 0.195312 0.195312 0.130208 0.195312 0.195312 0.130208 0.130208 0.195312 0.195312 0.130208 0.195313 0.195312 0.130208 0.130208 0.195313 0.195313 0.130208 0.195313 0.195313 0.130208 0.130208 0.195313 0.195313 0.130208 0.195312 0.195313 0.130208 0.130208 0.195313 0.195313 0.130208 0.195313 0.195313 0.130208 0.130208 0.195313 0.195312 0.130208 0.195312 0.195313 0.130208 0.130208 0.195312 0.195313 0.130208 0.195313 0.195312 0.130208 0.130208 0.195313 0.195313 0.130208 0.195313 0.195313 0.130208 0.130209 0.195313 0.195313 0.130208 0.195313 0.195313 0.130208 0.130208 0.195313 0.195312 0.130208 0.195312 0.195313 0.130208 0.130208 0.195313 0.195313 0.130208 0.195313 0.195313 0.130209 0.130209 0.195313 0.195313 0.130208 0.195312 0.195313 0.130208 0.130208 0.195313 0.195313 0.130209 0.195313 0.195313 0.130208 0.130208 0.195313 0.195312 0.130208 0.195312 0.195313 0.130208 0.130208 0.195312 0.195313 0.130208 0.195313 0.195312 0.130208 0.130208 0.195313 0.195312 0.130208 0.195312 0.195313 0.130208 0.130208 0.195312 0.195313 0.130208 0.195313 0.195312 0.130208 0.130209 0.195313 0.195312 0.130208 0.195312 0.195313 0.130208 0.130208 0.195312 0.195313 0.130208 0.195313 0.195312 0.130208 0.130209 0.195313 0.195313 0.130209 0.195313 0.195313 0.130208 0.130208 0.195312 0.195312 0.130208 0.195312 0.195312 0.130208 0.130208 0.195313 0.195313 0.130208 0.195313 0.195313 0.130208 0.130209 0.195313 0.195312 0.130209 0.195313 0.195313 0.130208 0.130209 0.195313 0.0976565 0.130208 0.0976564 0.195313 0.0651044 0.130208 0.195313 0.195312 0.130208 0.195313 0.0976562 0.0651042 0.195313 0.0976563 0.130208 0.130208 0.195313 0.195312 0.130208 0.195313 0.195313 0.130208 0.130208 0.195313 0.195313 0.130208 0.195313 0.195313 0.130208 0.130208 0.195312 0.195312 0.130208 0.195312 0.195312 0.130208 0.130208 0.195312 0.195313 0.130208 0.195312 0.195312 0.130208 0.130208 0.195313 0.195312 0.130208 0.195313 0.195313 0.130208 0.130208 0.195312 0.195312 0.130208 0.195312 0.195312 0.130208 0.130208 0.195312 0.195312 0.130208 0.195312 0.195312 0.130208 0.130208 0.195312 0.195312 0.130208 0.195312 0.195312 0.130208 0.130208 0.195312 0.195312 0.130208 0.195313 0.195312 0.130208 0.130208 0.195313 0.195313 0.130208 0.195313 0.195313 0.130208 0.130208 0.195313 0.195312 0.130208 0.195312 0.195313 0.130208 0.130208 0.195312 0.195313 0.130208 0.195313 0.195313 0.130208 0.130208 0.195313 0.195312 0.130208 0.195312 0.195313 0.130208 0.130208 0.195312 0.195313 0.130208 0.195313 0.195312 0.130208 0.130208 0.195313 0.195313 0.130208 0.195313 0.195313 0.130208 0.130209 0.195313 0.195313 0.130208 0.195313 0.195313 0.130208 0.130208 0.195313 0.195312 0.130208 0.195312 0.195313 0.130208 0.130208 0.195313 0.195313 0.130208 0.195313 0.195313 0.130209 0.130209 0.195313 0.195313 0.130208 0.195313 0.195313 0.130208 0.130209 0.195313 0.195313 0.130209 0.195313 0.195313 0.130208 0.130208 0.195313 0.195312 0.130208 0.195312 0.195313 0.130208 0.130208 0.195313 0.195313 0.130208 0.195313 0.195313 0.130208 0.130208 0.195313 0.195312 0.130208 0.195312 0.195313 0.130208 0.130208 0.195312 0.195313 0.130208 0.195313 0.195312 0.130208 0.130209 0.195313 0.195312 0.130208 0.195312 0.195313 0.130208 0.130208 0.195312 0.195312 0.130208 0.195313 0.195312 0.130208 0.130209 0.195313 0.195313 0.130209 0.195313 0.195313 0.130209 0.130208 0.195312 0.195312 0.130208 0.195312 0.195312 0.130208 0.130208 0.195313 0.195313 0.130208 0.195313 0.195313 0.130208 0.130209 0.195313 0.195312 0.130209 0.195313 0.195313 0.130208 0.130209 0.195313 0.0976565 0.130208 0.0976564 0.195313 0.0651044 0.130208 0.195312 0.195312 0.130208 0.195312 0.0976562 0.0651042 0.195312 0.0976563 0.130208 0.130208 0.195312 0.195312 0.130208 0.195312 0.195312 0.130208 0.130208 0.195312 0.195312 0.130208 0.195312 0.195313 0.130208 0.130208 0.195312 0.195312 0.130208 0.195312 0.195312 0.130208 0.130208 0.195312 0.195312 0.130208 0.195312 0.195312 0.130208 0.130208 0.195312 0.195312 0.130208 0.195312 0.195313 0.130208 0.130208 0.195312 0.195312 0.130208 0.195312 0.195312 0.130208 0.130208 0.195312 0.195312 0.130208 0.195312 0.195312 0.130208 0.130208 0.195312 0.195312 0.130208 0.195312 0.195312 0.130208 0.130208 0.195312 0.195312 0.130208 0.195312 0.195312 0.130208 0.130208 0.195313 0.195313 0.130208 0.195313 0.195313 0.130208 0.130208 0.195313 0.195312 0.130208 0.195312 0.195313 0.130208 0.130208 0.195312 0.195313 0.130208 0.195312 0.195312 0.130208 0.130208 0.195312 0.195312 0.130208 0.195312 0.195313 0.130208 0.130208 0.195312 0.195312 0.130208 0.195313 0.195312 0.130208 0.130208 0.195313 0.195313 0.130208 0.195313 0.195313 0.130208 0.130208 0.195313 0.195313 0.130208 0.195313 0.195313 0.130208 0.130208 0.195312 0.195312 0.130208 0.195312 0.195313 0.130208 0.130208 0.195313 0.195313 0.130208 0.195313 0.195313 0.130209 0.130209 0.195313 0.195313 0.130208 0.195312 0.195313 0.130208 0.130208 0.195313 0.195313 0.130208 0.195313 0.195313 0.130208 0.130208 0.195312 0.195312 0.130208 0.195312 0.195312 0.130208 0.130208 0.195312 0.195313 0.130208 0.195313 0.195312 0.130208 0.130208 0.195313 0.195312 0.130208 0.195312 0.195313 0.130208 0.130208 0.195312 0.195312 0.130208 0.195313 0.195312 0.130208 0.130209 0.195313 0.195312 0.130208 0.195312 0.195313 0.130208 0.130208 0.195312 0.195312 0.130208 0.195312 0.195312 0.130208 0.130209 0.195313 0.195313 0.130209 0.195313 0.195313 0.130208 0.130208 0.195312 0.195312 0.130208 0.195312 0.195312 0.130208 0.130208 0.195312 0.195313 0.130208 0.195313 0.195312 0.130208 0.130209 0.195313 0.195312 0.130209 0.195313 0.195313 0.130208 0.130209 0.195313 0.0976565 0.130208 0.0976564 0.195313 0.0651043 0.130208 0.195312 0.195313 0.130208 0.195312 0.0976563 0.0651042 0.195313 0.0976563 0.130208 0.130208 0.195312 0.195313 0.130208 0.195312 0.195313 0.130208 0.130208 0.195313 0.195313 0.130208 0.195312 0.195313 0.130208 0.130208 0.195312 0.195312 0.130208 0.195312 0.195313 0.130208 0.130208 0.195312 0.195313 0.130208 0.195312 0.195313 0.130208 0.130208 0.195313 0.195313 0.130208 0.195312 0.195313 0.130208 0.130208 0.195312 0.195312 0.130208 0.195312 0.195313 0.130208 0.130208 0.195312 0.195312 0.130208 0.195312 0.195312 0.130208 0.130208 0.195312 0.195312 0.130208 0.195312 0.195312 0.130208 0.130208 0.195312 0.195313 0.130208 0.195313 0.195312 0.130208 0.130208 0.195313 0.195313 0.130208 0.195313 0.195313 0.130208 0.130208 0.195313 0.195313 0.130208 0.195312 0.195313 0.130208 0.130208 0.195312 0.195313 0.130208 0.195313 0.195313 0.130208 0.130208 0.195313 0.195312 0.130208 0.195312 0.195313 0.130208 0.130208 0.195312 0.195313 0.130208 0.195313 0.195312 0.130208 0.130208 0.195313 0.195313 0.130208 0.195313 0.195313 0.130208 0.130209 0.195313 0.195313 0.130208 0.195313 0.195313 0.130208 0.130208 0.195313 0.195312 0.130208 0.195312 0.195313 0.130208 0.130208 0.195313 0.195313 0.130208 0.195313 0.195313 0.130209 0.130209 0.195313 0.195313 0.130208 0.195312 0.195313 0.130208 0.130209 0.195313 0.195313 0.130209 0.195313 0.195313 0.130208 0.130208 0.195313 0.195312 0.130208 0.195312 0.195313 0.130208 0.130208 0.195312 0.195313 0.130208 0.195313 0.195313 0.130208 0.130208 0.195313 0.195312 0.130208 0.195312 0.195313 0.130208 0.130208 0.195312 0.195313 0.130208 0.195313 0.195312 0.130208 0.130209 0.195313 0.195312 0.130208 0.195312 0.195313 0.130208 0.130208 0.195312 0.195313 0.130208 0.195313 0.195312 0.130208 0.130209 0.195313 0.195313 0.130209 0.195313 0.195313 0.130208 0.130208 0.195312 0.195312 0.130208 0.195312 0.195312 0.130208 0.130208 0.195312 0.195313 0.130208 0.195313 0.195313 0.130208 0.130209 0.195313 0.195313 0.130209 0.195313 0.195313 0.130208 0.130209 0.195313 0.0976565 0.130208 0.0976564 0.195313 0.0651044 0.130208 0.195313 0.195313 0.130208 0.195313 0.0976563 0.0651042 0.195313 0.0976563 0.130208 0.130208 0.195313 0.195313 0.130208 0.195313 0.195313 0.130208 0.130208 0.195313 0.195313 0.130208 0.195313 0.195313 0.130208 0.130208 0.195313 0.195313 0.130208 0.195313 0.195313 0.130208 0.130208 0.195313 0.195313 0.130208 0.195313 0.195313 0.130208 0.130208 0.195313 0.195313 0.130208 0.195313 0.195313 0.130208 0.130208 0.195313 0.195312 0.130208 0.195312 0.195313 0.130208 0.130208 0.195312 0.195313 0.130208 0.195313 0.195312 0.130208 0.130208 0.195312 0.195312 0.130208 0.195312 0.195312 0.130208 0.130208 0.195313 0.195313 0.130208 0.195313 0.195313 0.130208 0.130208 0.195313 0.195313 0.130208 0.195313 0.195313 0.130208 0.130208 0.195313 0.195313 0.130208 0.195313 0.195313 0.130208 0.130208 0.195313 0.195313 0.130208 0.195313 0.195313 0.130208 0.130208 0.195313 0.195312 0.130208 0.195313 0.195313 0.130208 0.130208 0.195312 0.195313 0.130208 0.195313 0.195312 0.130208 0.130209 0.195313 0.195313 0.130208 0.195313 0.195313 0.130208 0.130209 0.195313 0.195313 0.130208 0.195313 0.195313 0.130208 0.130208 0.195313 0.195313 0.130208 0.195313 0.195313 0.130208 0.130208 0.195313 0.195313 0.130208 0.195313 0.195313 0.130209 0.130209 0.195313 0.195313 0.130208 0.195313 0.195313 0.130208 0.130209 0.195313 0.195313 0.130209 0.195313 0.195313 0.130209 0.130208 0.195313 0.195312 0.130208 0.195313 0.195313 0.130208 0.130208 0.195313 0.195313 0.130208 0.195313 0.195313 0.130208 0.130208 0.195313 0.195312 0.130208 0.195312 0.195313 0.130208 0.130208 0.195312 0.195313 0.130208 0.195313 0.195312 0.130208 0.130209 0.195313 0.195312 0.130208 0.195312 0.195313 0.130208 0.130208 0.195312 0.195313 0.130208 0.195313 0.195312 0.130208 0.130209 0.195313 0.195313 0.130209 0.195313 0.195313 0.130209 0.130208 0.195312 0.195312 0.130208 0.195312 0.195312 0.130208 0.130208 0.195313 0.195313 0.130208 0.195313 0.195313 0.130208 0.130209 0.195313 0.195312 0.130209 0.195313 0.195313 0.130208 0.130209 0.195313 0.0976565 0.130208 0.0976564 0.195313 0.0651044 0.130208 0.195313 0.195312 0.130208 0.195312 0.0976562 0.0651042 0.195312 0.0976563 0.130208 0.130208 0.195313 0.195312 0.130208 0.195312 0.195312 0.130208 0.130208 0.195313 0.195312 0.130208 0.195313 0.195312 0.130208 0.130208 0.195312 0.195312 0.130208 0.195313 0.195312 0.130208 0.130208 0.195312 0.195312 0.130208 0.195313 0.195312 0.130208 0.130208 0.195313 0.195312 0.130208 0.195313 0.195312 0.130208 0.130208 0.195312 0.195312 0.130208 0.195312 0.195312 0.130208 0.130208 0.195312 0.195312 0.130208 0.195312 0.195312 0.130208 0.130208 0.195312 0.195312 0.130208 0.195312 0.195312 0.130208 0.130208 0.195312 0.195312 0.130208 0.195313 0.195312 0.130208 0.130208 0.195313 0.195313 0.130208 0.195313 0.195313 0.130208 0.130208 0.195313 0.195312 0.130208 0.195312 0.195313 0.130208 0.130208 0.195313 0.195313 0.130208 0.195313 0.195312 0.130208 0.130208 0.195313 0.195312 0.130208 0.195312 0.195312 0.130208 0.130208 0.195312 0.195312 0.130208 0.195313 0.195312 0.130208 0.130208 0.195313 0.195313 0.130208 0.195313 0.195313 0.130208 0.130208 0.195313 0.195313 0.130208 0.195313 0.195313 0.130208 0.130208 0.195313 0.195312 0.130208 0.195312 0.195312 0.130208 0.130208 0.195313 0.195313 0.130208 0.195313 0.195313 0.130209 0.130209 0.195313 0.195313 0.130208 0.195313 0.195313 0.130208 0.130208 0.195313 0.195313 0.130209 0.195313 0.195313 0.130208 0.130208 0.195313 0.195312 0.130208 0.195313 0.195312 0.130208 0.130208 0.195313 0.195313 0.130208 0.195313 0.195312 0.130208 0.130208 0.195313 0.195312 0.130208 0.195312 0.195313 0.130208 0.130208 0.195312 0.195312 0.130208 0.195313 0.195312 0.130208 0.130209 0.195313 0.195312 0.130208 0.195312 0.195313 0.130208 0.130208 0.195312 0.195312 0.130208 0.195313 0.195312 0.130208 0.130209 0.195313 0.195313 0.130209 0.195313 0.195313 0.130209 0.130208 0.195312 0.195312 0.130208 0.195312 0.195312 0.130208 0.130208 0.195313 0.195313 0.130208 0.195313 0.195312 0.130208 0.130209 0.195313 0.195312 0.130209 0.195313 0.195313 0.130208 0.130209 0.195313 0.0976565 0.130208 0.0976564 0.195313 0.0651044 0.0651042 0.195312 0.0976562 0.130208 0.195312 0.0325521 0.0651042 0.0976563 0.0976563 0.130208 0.0651042 0.195312 0.0976562 0.130208 0.195312 0.0976563 0.130208 0.0651042 0.195312 0.0976562 0.130208 0.195312 0.0976563 0.130208 0.0651042 0.195312 0.0976562 0.130208 0.195312 0.0976563 0.130208 0.0651042 0.195312 0.0976562 0.130208 0.195312 0.0976563 0.130208 0.0651042 0.195312 0.0976562 0.130208 0.195312 0.0976563 0.130208 0.0651042 0.195312 0.0976562 0.130208 0.195312 0.0976562 0.130208 0.0651042 0.195312 0.0976563 0.130208 0.195312 0.0976562 0.130208 0.0651042 0.195312 0.0976562 0.130208 0.195312 0.0976563 0.130208 0.0651042 0.195312 0.0976562 0.130208 0.195312 0.0976563 0.130208 0.0651043 0.195312 0.0976563 0.130208 0.195313 0.0976563 0.130208 0.0651043 0.195312 0.0976563 0.130208 0.195312 0.0976564 0.130208 0.0651042 0.195312 0.0976562 0.130208 0.195312 0.0976562 0.130208 0.0651042 0.195312 0.0976562 0.130208 0.195312 0.0976563 0.130208 0.0651042 0.195312 0.0976562 0.130208 0.195312 0.0976562 0.130208 0.0651044 0.195313 0.0976564 0.130208 0.195312 0.0976564 0.130208 0.0651044 0.195313 0.0976564 0.130208 0.195313 0.0976564 0.130208 0.0651043 0.195312 0.0976562 0.130208 0.195312 0.0976564 0.130208 0.0651042 0.195313 0.0976564 0.130208 0.195313 0.0976563 0.130209 0.0651044 0.195313 0.0976562 0.130208 0.195312 0.0976565 0.130208 0.0651042 0.195313 0.0976563 0.130208 0.195313 0.0976564 0.130208 0.0651042 0.195312 0.0976561 0.130208 0.195312 0.0976563 0.130208 0.0651042 0.195312 0.0976563 0.130208 0.195312 0.0976562 0.130208 0.0651043 0.195312 0.0976563 0.130208 0.195312 0.0976563 0.130208 0.0651041 0.195312 0.0976562 0.130208 0.195313 0.0976561 0.130208 0.0651044 0.195313 0.0976562 0.130208 0.195312 0.0976565 0.130208 0.0651041 0.195312 0.0976562 0.130208 0.195312 0.097656 0.130208 0.0651044 0.195313 0.0976564 0.130208 0.195313 0.0976565 0.130208 0.0651043 0.195312 0.0976561 0.130208 0.195312 0.0976564 0.130208 0.0651043 0.195312 0.0976563 0.130208 0.195313 0.0976565 0.130208 0.0651044 0.195313 0.0976563 0.130208 0.195312 0.0976566 0.130208 0.0651044 0.195313 0.0651043 0.130208 0.0976563 0.0976564 0.0651043 0.130208 0.195313 0.195313 0.130208 0.195313 0.0976563 0.0651042 0.0651042 0.0976564 0.0651042 0.195313 0.0976563 0.0976564 0.130208 0.130208 0.195313 0.195313 0.130208 0.195313 0.0976563 0.0651042 0.195313 0.0976563 0.130208 0.130208 0.195313 0.195313 0.130208 0.195313 0.0976563 0.0651042 0.195313 0.0976564 0.130208 0.130208 0.195313 0.195313 0.130208 0.195313 0.0976563 0.0651042 0.195313 0.0976563 0.130208 0.130208 0.195313 0.195313 0.130208 0.195313 0.0976563 0.0651042 0.195313 0.0976564 0.130208 0.130208 0.195313 0.195313 0.130208 0.195313 0.0976564 0.0651042 0.195313 0.0976564 0.130208 0.130208 0.195313 0.195312 0.130208 0.195313 0.0976563 0.0651042 0.195313 0.0976563 0.130208 0.130208 0.195313 0.195313 0.130208 0.195313 0.0976563 0.0651042 0.195313 0.0976563 0.130208 0.130208 0.195313 0.195313 0.130208 0.195313 0.0976562 0.0651042 0.195313 0.0976563 0.130208 0.130208 0.195313 0.195313 0.130208 0.195313 0.0976563 0.0651042 0.195313 0.0976564 0.130208 0.130208 0.195313 0.195313 0.130209 0.195313 0.0976564 0.0651043 0.195313 0.0976564 0.130208 0.130209 0.195313 0.195313 0.130209 0.195313 0.0976563 0.0651042 0.195313 0.0976563 0.130208 0.130208 0.195313 0.195313 0.130208 0.195313 0.0976564 0.0651042 0.195313 0.0976564 0.130208 0.130208 0.195313 0.195313 0.130208 0.195313 0.0976564 0.0651043 0.195313 0.0976563 0.130208 0.130208 0.195312 0.195313 0.130208 0.195313 0.0976563 0.0651042 0.195313 0.0976564 0.130208 0.130209 0.195313 0.195313 0.130209 0.195313 0.0976563 0.0651042 0.195313 0.0976564 0.130208 0.130209 0.195313 0.195313 0.130209 0.195313 0.0976564 0.0651043 0.195313 0.0976565 0.130209 0.130208 0.195313 0.195313 0.130208 0.195313 0.0976563 0.0651042 0.195313 0.0976564 0.130208 0.130208 0.195313 0.195313 0.130209 0.195313 0.0976564 0.0651043 0.195313 0.0976565 0.130209 0.130209 0.195313 0.195313 0.130209 0.195313 0.0976562 0.0651042 0.195313 0.0976564 0.130208 0.130209 0.195313 0.195313 0.130209 0.195313 0.0976565 0.0651044 0.195313 0.0976565 0.130209 0.130208 0.195313 0.195312 0.130208 0.195313 0.0976564 0.0651043 0.195313 0.0976564 0.130208 0.130208 0.195313 0.195313 0.130209 0.195313 0.0976564 0.0651043 0.195313 0.0976564 0.130208 0.130209 0.195313 0.195313 0.130209 0.195313 0.0976564 0.0651043 0.195313 0.0976563 0.130208 0.130208 0.195312 0.195313 0.130208 0.195313 0.0976562 0.0651042 0.195312 0.0976564 0.130208 0.130209 0.195313 0.195312 0.130209 0.195312 0.0976563 0.0651042 0.195313 0.0976561 0.130208 0.130208 0.195312 0.195313 0.130208 0.195313 0.0976561 0.0651041 0.195312 0.0976564 0.130208 0.130209 0.195313 0.195313 0.130209 0.195313 0.0976565 0.0651044 0.195313 0.0976564 0.130209 0.130208 0.195312 0.195312 0.130208 0.195312 0.0976559 0.065104 0.195312 0.0976564 0.130208 0.130208 0.195313 0.195313 0.130209 0.195313 0.0976562 0.0651042 0.195313 0.0976564 0.130208 0.130209 0.195313 0.195313 0.130209 0.195313 0.0976563 0.0651042 0.195313 0.0976562 0.130208 0.130209 0.195313 0.0976565 0.130209 0.0976565 0.0976565 0.0651043 0.195313 0.0325522 0.0651044 0.130208 0.195313 0.195313 0.130208 0.195313 0.0976564 0.0651042 0.195313 0.0976563 0.130208 0.130208 0.195313 0.195313 0.130208 0.195313 0.195313 0.130208 0.130208 0.195313 0.195313 0.130208 0.195313 0.195313 0.130208 0.130208 0.195313 0.195313 0.130208 0.195313 0.195313 0.130208 0.130208 0.195313 0.195313 0.130208 0.195313 0.195313 0.130208 0.130208 0.195313 0.195313 0.130209 0.195313 0.195313 0.130208 0.130208 0.195313 0.195313 0.130208 0.195313 0.195313 0.130208 0.130208 0.195313 0.195313 0.130208 0.195313 0.195313 0.130208 0.130208 0.195313 0.195313 0.130208 0.195313 0.195313 0.130208 0.130208 0.195313 0.195313 0.130208 0.195313 0.195313 0.130208 0.130208 0.195313 0.195313 0.130209 0.195313 0.195313 0.130208 0.130209 0.195313 0.195313 0.130209 0.195313 0.195313 0.130208 0.130208 0.195313 0.195313 0.130208 0.195313 0.195313 0.130208 0.130208 0.195313 0.195313 0.130209 0.195313 0.195313 0.130208 0.130208 0.195312 0.195313 0.130208 0.195313 0.195313 0.130208 0.130209 0.195313 0.195313 0.130209 0.195313 0.195313 0.130208 0.130209 0.195313 0.195313 0.130209 0.195313 0.195313 0.130209 0.130208 0.195313 0.195313 0.130209 0.195313 0.195313 0.130208 0.130208 0.195313 0.195313 0.130209 0.195313 0.195313 0.130209 0.130209 0.195313 0.195313 0.130209 0.195313 0.195313 0.130208 0.130209 0.195313 0.195313 0.130209 0.195313 0.195313 0.130209 0.130208 0.195313 0.195313 0.130208 0.195313 0.195313 0.130208 0.130208 0.195313 0.195313 0.130209 0.195313 0.195313 0.130208 0.130209 0.195313 0.195313 0.130209 0.195313 0.195313 0.130208 0.130208 0.195312 0.195313 0.130208 0.195313 0.195312 0.130208 0.130209 0.195313 0.195312 0.130209 0.195312 0.195313 0.130208 0.130208 0.195312 0.195313 0.130208 0.195313 0.195312 0.130208 0.130209 0.195313 0.195313 0.130209 0.195313 0.195313 0.130209 0.130208 0.195312 0.195312 0.130208 0.195312 0.195312 0.130208 0.130208 0.195313 0.195313 0.130209 0.195313 0.195313 0.130208 0.130209 0.195313 0.195313 0.130209 0.195313 0.195313 0.130208 0.130209 0.195313 0.0976565 0.130209 0.0976565 0.195313 0.0651044 0.130208 0.195313 0.195313 0.130208 0.195313 0.0976564 0.0651042 0.195313 0.0976564 0.130208 0.130208 0.195313 0.195313 0.130208 0.195313 0.195313 0.130208 0.130208 0.195313 0.195313 0.130208 0.195313 0.195313 0.130208 0.130208 0.195313 0.195313 0.130208 0.195313 0.195313 0.130208 0.130208 0.195313 0.195313 0.130208 0.195313 0.195313 0.130208 0.130208 0.195313 0.195313 0.130209 0.195313 0.195313 0.130208 0.130208 0.195313 0.195313 0.130208 0.195313 0.195313 0.130208 0.130208 0.195313 0.195313 0.130208 0.195313 0.195313 0.130208 0.130208 0.195313 0.195313 0.130208 0.195313 0.195313 0.130208 0.130208 0.195313 0.195313 0.130208 0.195313 0.195313 0.130208 0.130209 0.195313 0.195313 0.130209 0.195313 0.195313 0.130209 0.130209 0.195313 0.195313 0.130209 0.195313 0.195313 0.130208 0.130208 0.195313 0.195313 0.130208 0.195313 0.195313 0.130208 0.130208 0.195313 0.195313 0.130209 0.195313 0.195313 0.130208 0.130208 0.195313 0.195313 0.130208 0.195313 0.195313 0.130208 0.130209 0.195313 0.195313 0.130209 0.195313 0.195313 0.130208 0.130209 0.195313 0.195313 0.130209 0.195313 0.195313 0.130209 0.130208 0.195313 0.195313 0.130209 0.195313 0.195313 0.130208 0.130208 0.195313 0.195313 0.130209 0.195313 0.195313 0.130209 0.130209 0.195313 0.195313 0.130209 0.195313 0.195313 0.130208 0.130209 0.195313 0.195313 0.130209 0.195313 0.195313 0.130209 0.130208 0.195313 0.195312 0.130208 0.195313 0.195313 0.130208 0.130208 0.195313 0.195313 0.130209 0.195313 0.195313 0.130208 0.130209 0.195313 0.195313 0.130209 0.195313 0.195313 0.130208 0.130208 0.195312 0.195313 0.130208 0.195313 0.195312 0.130208 0.130209 0.195313 0.195312 0.130209 0.195312 0.195313 0.130208 0.130208 0.195312 0.195313 0.130208 0.195313 0.195312 0.130208 0.130209 0.195313 0.195313 0.130209 0.195313 0.195313 0.130209 0.130208 0.195312 0.195312 0.130208 0.195312 0.195312 0.130208 0.130208 0.195313 0.195313 0.130209 0.195313 0.195313 0.130208 0.130209 0.195313 0.195313 0.130209 0.195313 0.195313 0.130208 0.130209 0.195313 0.0976565 0.130209 0.0976565 0.195313 0.0651044 0.130208 0.195313 0.195313 0.130208 0.195313 0.0976563 0.0651042 0.195313 0.0976563 0.130208 0.130208 0.195313 0.195313 0.130208 0.195313 0.195313 0.130208 0.130208 0.195313 0.195313 0.130208 0.195313 0.195313 0.130208 0.130208 0.195313 0.195313 0.130208 0.195313 0.195313 0.130208 0.130208 0.195313 0.195313 0.130208 0.195313 0.195313 0.130208 0.130208 0.195313 0.195313 0.130208 0.195313 0.195313 0.130208 0.130208 0.195313 0.195312 0.130208 0.195313 0.195313 0.130208 0.130208 0.195312 0.195313 0.130208 0.195313 0.195313 0.130208 0.130208 0.195312 0.195313 0.130208 0.195313 0.195313 0.130208 0.130208 0.195313 0.195313 0.130208 0.195313 0.195313 0.130208 0.130208 0.195313 0.195313 0.130208 0.195313 0.195313 0.130208 0.130209 0.195313 0.195313 0.130208 0.195313 0.195313 0.130208 0.130208 0.195313 0.195313 0.130208 0.195313 0.195313 0.130208 0.130208 0.195313 0.195312 0.130208 0.195313 0.195313 0.130208 0.130208 0.195312 0.195313 0.130208 0.195313 0.195313 0.130208 0.130209 0.195313 0.195313 0.130208 0.195313 0.195313 0.130208 0.130209 0.195313 0.195313 0.130209 0.195313 0.195313 0.130208 0.130208 0.195313 0.195313 0.130208 0.195313 0.195313 0.130208 0.130208 0.195313 0.195313 0.130209 0.195313 0.195313 0.130209 0.130209 0.195313 0.195313 0.130209 0.195313 0.195313 0.130208 0.130209 0.195313 0.195313 0.130209 0.195313 0.195313 0.130209 0.130208 0.195313 0.195312 0.130208 0.195313 0.195313 0.130208 0.130208 0.195313 0.195313 0.130208 0.195313 0.195313 0.130208 0.130209 0.195313 0.195313 0.130209 0.195313 0.195313 0.130208 0.130208 0.195312 0.195313 0.130208 0.195313 0.195312 0.130208 0.130209 0.195313 0.195312 0.130209 0.195312 0.195313 0.130208 0.130208 0.195312 0.195313 0.130208 0.195313 0.195312 0.130208 0.130209 0.195313 0.195313 0.130209 0.195313 0.195313 0.130209 0.130208 0.195312 0.195312 0.130208 0.195312 0.195312 0.130208 0.130208 0.195313 0.195313 0.130209 0.195313 0.195313 0.130208 0.130209 0.195313 0.195313 0.130209 0.195313 0.195313 0.130208 0.130209 0.195313 0.0976565 0.130209 0.0976565 0.195313 0.0651044 0.130208 0.195313 0.195313 0.130208 0.195313 0.0976564 0.0651042 0.195313 0.0976563 0.130208 0.130208 0.195313 0.195313 0.130208 0.195313 0.195313 0.130208 0.130208 0.195313 0.195313 0.130208 0.195313 0.195313 0.130208 0.130208 0.195313 0.195313 0.130208 0.195313 0.195313 0.130208 0.130208 0.195313 0.195313 0.130208 0.195313 0.195313 0.130208 0.130208 0.195313 0.195313 0.130208 0.195313 0.195313 0.130208 0.130208 0.195313 0.195313 0.130208 0.195313 0.195313 0.130208 0.130208 0.195313 0.195313 0.130208 0.195313 0.195313 0.130208 0.130208 0.195313 0.195313 0.130208 0.195313 0.195313 0.130208 0.130208 0.195313 0.195313 0.130208 0.195313 0.195313 0.130208 0.130209 0.195313 0.195313 0.130209 0.195313 0.195313 0.130208 0.130209 0.195313 0.195313 0.130209 0.195313 0.195313 0.130208 0.130208 0.195313 0.195313 0.130208 0.195313 0.195313 0.130208 0.130208 0.195313 0.195313 0.130208 0.195313 0.195313 0.130208 0.130208 0.195312 0.195313 0.130208 0.195313 0.195313 0.130208 0.130209 0.195313 0.195313 0.130209 0.195313 0.195313 0.130208 0.130209 0.195313 0.195313 0.130209 0.195313 0.195313 0.130209 0.130209 0.195313 0.195313 0.130208 0.195313 0.195313 0.130208 0.130208 0.195313 0.195313 0.130209 0.195313 0.195313 0.130209 0.130209 0.195313 0.195313 0.130209 0.195313 0.195313 0.130208 0.130209 0.195313 0.195313 0.130209 0.195313 0.195313 0.130209 0.130208 0.195313 0.195313 0.130208 0.195313 0.195313 0.130208 0.130208 0.195313 0.195313 0.130209 0.195313 0.195313 0.130208 0.130209 0.195313 0.195313 0.130209 0.195313 0.195313 0.130208 0.130208 0.195312 0.195313 0.130208 0.195313 0.195312 0.130208 0.130209 0.195313 0.195312 0.130209 0.195312 0.195313 0.130208 0.130208 0.195312 0.195313 0.130208 0.195313 0.195312 0.130208 0.130209 0.195313 0.195313 0.130209 0.195313 0.195313 0.130209 0.130208 0.195312 0.195312 0.130208 0.195312 0.195312 0.130208 0.130208 0.195313 0.195313 0.130209 0.195313 0.195313 0.130208 0.130209 0.195313 0.195313 0.130209 0.195313 0.195313 0.130208 0.130209 0.195313 0.0976566 0.130209 0.0976565 0.195313 0.0651044 0.130208 0.195313 0.195313 0.130208 0.195313 0.0976564 0.0651043 0.195313 0.0976564 0.130208 0.130208 0.195313 0.195313 0.130208 0.195313 0.195313 0.130208 0.130208 0.195313 0.195313 0.130209 0.195313 0.195313 0.130208 0.130208 0.195313 0.195313 0.130208 0.195313 0.195313 0.130208 0.130208 0.195313 0.195313 0.130208 0.195313 0.195313 0.130208 0.130208 0.195313 0.195313 0.130209 0.195313 0.195313 0.130208 0.130208 0.195313 0.195313 0.130208 0.195313 0.195313 0.130208 0.130208 0.195313 0.195313 0.130208 0.195313 0.195313 0.130208 0.130208 0.195313 0.195313 0.130208 0.195313 0.195313 0.130208 0.130208 0.195313 0.195313 0.130208 0.195313 0.195313 0.130208 0.130209 0.195313 0.195313 0.130209 0.195313 0.195313 0.130209 0.130209 0.195313 0.195313 0.130209 0.195313 0.195313 0.130208 0.130208 0.195313 0.195313 0.130208 0.195313 0.195313 0.130208 0.130208 0.195313 0.195313 0.130209 0.195313 0.195313 0.130208 0.130208 0.195313 0.195313 0.130208 0.195313 0.195313 0.130208 0.130209 0.195313 0.195313 0.130209 0.195313 0.195313 0.130209 0.130209 0.195313 0.195313 0.130209 0.195313 0.195313 0.130209 0.130209 0.195313 0.195313 0.130209 0.195313 0.195313 0.130208 0.130208 0.195313 0.195313 0.130209 0.195313 0.195313 0.130209 0.130209 0.195313 0.195313 0.130209 0.195313 0.195313 0.130208 0.130209 0.195313 0.195313 0.130209 0.195313 0.195313 0.130209 0.130209 0.195313 0.195313 0.130208 0.195313 0.195313 0.130208 0.130208 0.195313 0.195313 0.130209 0.195313 0.195313 0.130208 0.130209 0.195313 0.195313 0.130209 0.195313 0.195313 0.130208 0.130208 0.195312 0.195313 0.130208 0.195313 0.195312 0.130209 0.130209 0.195313 0.195312 0.130209 0.195312 0.195313 0.130208 0.130208 0.195312 0.195313 0.130208 0.195313 0.195312 0.130208 0.130209 0.195313 0.195313 0.130209 0.195313 0.195313 0.130209 0.130208 0.195312 0.195312 0.130208 0.195312 0.195312 0.130208 0.130208 0.195313 0.195313 0.130209 0.195313 0.195313 0.130208 0.130209 0.195313 0.195313 0.130209 0.195313 0.195313 0.130208 0.130209 0.195313 0.0976566 0.130209 0.0976566 0.195313 0.0651044 0.130208 0.195313 0.195313 0.130208 0.195313 0.0976563 0.0651042 0.195313 0.0976564 0.130208 0.130208 0.195313 0.195313 0.130208 0.195313 0.195313 0.130208 0.130208 0.195313 0.195313 0.130208 0.195313 0.195313 0.130208 0.130208 0.195313 0.195313 0.130208 0.195313 0.195313 0.130208 0.130208 0.195313 0.195313 0.130208 0.195313 0.195313 0.130208 0.130208 0.195313 0.195313 0.130208 0.195313 0.195313 0.130208 0.130208 0.195313 0.195312 0.130208 0.195313 0.195313 0.130208 0.130208 0.195313 0.195313 0.130208 0.195313 0.195313 0.130208 0.130208 0.195313 0.195312 0.130208 0.195313 0.195313 0.130208 0.130208 0.195313 0.195313 0.130208 0.195313 0.195313 0.130208 0.130208 0.195313 0.195313 0.130209 0.195313 0.195313 0.130209 0.130208 0.195313 0.195313 0.130209 0.195313 0.195313 0.130208 0.130208 0.195313 0.195313 0.130208 0.195313 0.195313 0.130208 0.130208 0.195313 0.195312 0.130208 0.195313 0.195313 0.130208 0.130208 0.195312 0.195313 0.130208 0.195313 0.195312 0.130208 0.130209 0.195313 0.195313 0.130209 0.195313 0.195313 0.130208 0.130209 0.195313 0.195313 0.130209 0.195313 0.195313 0.130209 0.130208 0.195313 0.195313 0.130208 0.195313 0.195313 0.130208 0.130208 0.195313 0.195313 0.130209 0.195313 0.195313 0.130209 0.130209 0.195313 0.195313 0.130209 0.195313 0.195313 0.130208 0.130209 0.195313 0.195313 0.130209 0.195313 0.195313 0.130209 0.130208 0.195313 0.195312 0.130208 0.195313 0.195313 0.130208 0.130208 0.195313 0.195313 0.130209 0.195313 0.195313 0.130208 0.130208 0.195313 0.195313 0.130209 0.195313 0.195313 0.130208 0.130208 0.195312 0.195313 0.130208 0.195313 0.195312 0.130208 0.130209 0.195313 0.195312 0.130209 0.195312 0.195313 0.130208 0.130208 0.195312 0.195313 0.130208 0.195313 0.195312 0.130208 0.130209 0.195313 0.195313 0.130209 0.195313 0.195313 0.130209 0.130208 0.195312 0.195312 0.130208 0.195312 0.195312 0.130208 0.130208 0.195313 0.195313 0.130209 0.195313 0.195313 0.130208 0.130209 0.195313 0.195313 0.130209 0.195313 0.195313 0.130208 0.130209 0.195313 0.0976565 0.130209 0.0976565 0.195313 0.0651044 0.0651042 0.195313 0.0976562 0.130208 0.195313 0.0325521 0.0651042 0.0976563 0.0976563 0.130208 0.0651042 0.195313 0.0976562 0.130208 0.195313 0.0976563 0.130208 0.0651042 0.195313 0.0976562 0.130208 0.195313 0.0976563 0.130208 0.0651042 0.195313 0.0976562 0.130208 0.195313 0.0976563 0.130208 0.0651042 0.195312 0.0976562 0.130208 0.195313 0.0976563 0.130208 0.0651042 0.195313 0.0976562 0.130208 0.195313 0.0976563 0.130208 0.0651042 0.195313 0.0976562 0.130208 0.195313 0.0976563 0.130208 0.0651042 0.195312 0.0976563 0.130208 0.195313 0.0976563 0.130208 0.0651042 0.195312 0.0976562 0.130208 0.195312 0.0976563 0.130208 0.0651042 0.195312 0.0976562 0.130208 0.195313 0.0976563 0.130208 0.0651043 0.195313 0.0976563 0.130208 0.195313 0.0976564 0.130208 0.0651043 0.195313 0.0976563 0.130208 0.195313 0.0976564 0.130208 0.0651042 0.195313 0.0976562 0.130208 0.195313 0.0976563 0.130208 0.0651042 0.195313 0.0976562 0.130208 0.195313 0.0976563 0.130208 0.0651041 0.195312 0.0976562 0.130208 0.195313 0.0976562 0.130208 0.0651043 0.195313 0.0976564 0.130208 0.195313 0.0976565 0.130208 0.0651043 0.195313 0.0976563 0.130208 0.195313 0.0976565 0.130208 0.0651043 0.195313 0.0976562 0.130208 0.195313 0.0976564 0.130208 0.0651042 0.195313 0.0976564 0.130209 0.195313 0.0976564 0.130209 0.0651044 0.195313 0.0976562 0.130208 0.195313 0.0976566 0.130208 0.0651042 0.195313 0.0976563 0.130209 0.195313 0.0976564 0.130208 0.0651042 0.195313 0.0976561 0.130208 0.195313 0.0976563 0.130208 0.0651042 0.195313 0.0976563 0.130208 0.195313 0.0976563 0.130208 0.0651043 0.195313 0.0976562 0.130208 0.195312 0.0976564 0.130208 0.0651041 0.195312 0.0976562 0.130208 0.195313 0.0976562 0.130208 0.0651044 0.195313 0.0976562 0.130209 0.195312 0.0976566 0.130208 0.0651041 0.195312 0.0976562 0.130208 0.195313 0.0976561 0.130208 0.0651044 0.195313 0.0976564 0.130209 0.195313 0.0976566 0.130208 0.0651043 0.195312 0.0976561 0.130208 0.195312 0.0976565 0.130208 0.0651043 0.195313 0.0976563 0.130209 0.195313 0.0976565 0.130208 0.0651044 0.195313 0.0976563 0.130209 0.195313 0.0976567 0.130208 0.0651044 0.195313 0.0651043 0.130208 0.0976565 0.0976565 0.0651043 0.130208 0.195313 0.195313 0.130208 0.195313 0.0976563 0.0651042 0.0651042 0.0976563 0.0651042 0.195313 0.0976562 0.0976563 0.130208 0.130208 0.195313 0.195313 0.130208 0.195313 0.0976562 0.0651042 0.195313 0.0976562 0.130208 0.130208 0.195313 0.195313 0.130208 0.195313 0.0976563 0.0651042 0.195313 0.0976563 0.130208 0.130208 0.195313 0.195313 0.130208 0.195312 0.0976562 0.0651042 0.195313 0.0976562 0.130208 0.130208 0.195313 0.195313 0.130208 0.195313 0.0976562 0.0651042 0.195313 0.0976563 0.130208 0.130208 0.195313 0.195313 0.130208 0.195313 0.0976563 0.0651042 0.195313 0.0976563 0.130208 0.130208 0.195313 0.195312 0.130208 0.195312 0.0976562 0.0651042 0.195313 0.0976562 0.130208 0.130208 0.195312 0.195313 0.130208 0.195312 0.0976562 0.0651041 0.195312 0.0976562 0.130208 0.130208 0.195312 0.195312 0.130208 0.195312 0.0976562 0.0651041 0.195312 0.0976562 0.130208 0.130208 0.195313 0.195313 0.130208 0.195313 0.0976562 0.0651042 0.195312 0.0976563 0.130208 0.130208 0.195313 0.195313 0.130208 0.195313 0.0976563 0.0651042 0.195313 0.0976563 0.130208 0.130208 0.195313 0.195313 0.130208 0.195312 0.0976562 0.0651042 0.195313 0.0976562 0.130208 0.130208 0.195313 0.195313 0.130208 0.195313 0.0976563 0.0651042 0.195313 0.0976563 0.130208 0.130208 0.195313 0.195312 0.130208 0.195312 0.0976563 0.0651042 0.195313 0.0976562 0.130208 0.130208 0.195312 0.195313 0.130208 0.195313 0.0976562 0.0651041 0.195312 0.0976563 0.130208 0.130209 0.195313 0.195313 0.130208 0.195313 0.0976562 0.0651042 0.195313 0.0976563 0.130208 0.130209 0.195313 0.195313 0.130208 0.195313 0.0976563 0.0651042 0.195313 0.0976564 0.130209 0.130208 0.195313 0.195313 0.130208 0.195312 0.0976562 0.0651042 0.195313 0.0976563 0.130208 0.130208 0.195313 0.195313 0.130208 0.195313 0.0976564 0.0651042 0.195313 0.0976564 0.130209 0.130209 0.195313 0.195313 0.130208 0.195312 0.0976561 0.0651041 0.195313 0.0976563 0.130208 0.130209 0.195313 0.195313 0.130209 0.195313 0.0976565 0.0651043 0.195313 0.0976564 0.130209 0.130208 0.195313 0.195312 0.130208 0.195312 0.0976563 0.0651042 0.195313 0.0976563 0.130208 0.130208 0.195313 0.195313 0.130208 0.195313 0.0976563 0.0651042 0.195313 0.0976563 0.130208 0.130208 0.195313 0.195313 0.130208 0.195312 0.0976563 0.0651042 0.195313 0.0976562 0.130208 0.130208 0.195312 0.195313 0.130208 0.195313 0.0976561 0.0651041 0.195312 0.0976563 0.130208 0.130209 0.195313 0.195312 0.130208 0.195312 0.0976562 0.0651042 0.195313 0.0976561 0.130208 0.130208 0.195312 0.195313 0.130208 0.195313 0.097656 0.065104 0.195312 0.0976563 0.130208 0.130209 0.195313 0.195313 0.130209 0.195313 0.0976564 0.0651043 0.195313 0.0976564 0.130209 0.130208 0.195312 0.195312 0.130208 0.195312 0.0976558 0.065104 0.195312 0.0976563 0.130208 0.130208 0.195313 0.195313 0.130208 0.195313 0.0976561 0.0651041 0.195313 0.0976564 0.130208 0.130209 0.195313 0.195313 0.130209 0.195313 0.0976562 0.0651042 0.195313 0.0976561 0.130208 0.130209 0.195313 0.0976566 0.130208 0.0976565 0.0976565 0.0651043 0.195313 0.0325522 0.0651044 0.130208 0.195313 0.195313 0.130208 0.195313 0.0976563 0.0651042 0.195313 0.0976562 0.130208 0.130208 0.195313 0.195313 0.130208 0.195313 0.195313 0.130208 0.130208 0.195313 0.195313 0.130208 0.195313 0.195313 0.130208 0.130208 0.195313 0.195313 0.130208 0.195313 0.195313 0.130208 0.130208 0.195313 0.195313 0.130208 0.195313 0.195313 0.130208 0.130208 0.195313 0.195313 0.130208 0.195313 0.195313 0.130208 0.130208 0.195313 0.195312 0.130208 0.195312 0.195312 0.130208 0.130208 0.195313 0.195313 0.130208 0.195312 0.195312 0.130208 0.130208 0.195312 0.195313 0.130208 0.195312 0.195312 0.130208 0.130208 0.195313 0.195313 0.130208 0.195313 0.195312 0.130208 0.130208 0.195313 0.195313 0.130208 0.195313 0.195313 0.130209 0.130208 0.195313 0.195313 0.130208 0.195312 0.195313 0.130208 0.130208 0.195313 0.195313 0.130208 0.195313 0.195313 0.130208 0.130208 0.195313 0.195313 0.130208 0.195312 0.195313 0.130208 0.130208 0.195312 0.195313 0.130208 0.195313 0.195312 0.130208 0.130209 0.195313 0.195313 0.130208 0.195313 0.195313 0.130208 0.130209 0.195313 0.195313 0.130208 0.195313 0.195313 0.130209 0.130208 0.195313 0.195313 0.130208 0.195313 0.195313 0.130208 0.130208 0.195313 0.195313 0.130208 0.195313 0.195313 0.130209 0.130209 0.195313 0.195313 0.130208 0.195313 0.195313 0.130208 0.130209 0.195313 0.195313 0.130209 0.195313 0.195313 0.130209 0.130208 0.195313 0.195312 0.130208 0.195313 0.195313 0.130208 0.130208 0.195313 0.195313 0.130208 0.195313 0.195313 0.130208 0.130208 0.195313 0.195313 0.130208 0.195312 0.195313 0.130208 0.130208 0.195312 0.195313 0.130208 0.195313 0.195312 0.130208 0.130209 0.195313 0.195312 0.130208 0.195312 0.195313 0.130208 0.130208 0.195312 0.195313 0.130208 0.195313 0.195312 0.130208 0.130209 0.195313 0.195313 0.130209 0.195313 0.195313 0.130209 0.130208 0.195312 0.195312 0.130208 0.195312 0.195312 0.130208 0.130208 0.195313 0.195313 0.130208 0.195313 0.195313 0.130208 0.130209 0.195313 0.195313 0.130209 0.195313 0.195313 0.130208 0.130209 0.195313 0.0976566 0.130208 0.0976565 0.195313 0.0651044 0.130208 0.195313 0.195313 0.130208 0.195313 0.0976563 0.0651042 0.195313 0.0976563 0.130208 0.130208 0.195313 0.195313 0.130208 0.195313 0.195313 0.130208 0.130208 0.195313 0.195313 0.130208 0.195313 0.195313 0.130208 0.130208 0.195313 0.195313 0.130208 0.195313 0.195313 0.130208 0.130208 0.195313 0.195313 0.130208 0.195313 0.195313 0.130208 0.130208 0.195313 0.195313 0.130208 0.195313 0.195313 0.130208 0.130208 0.195313 0.195312 0.130208 0.195312 0.195312 0.130208 0.130208 0.195313 0.195313 0.130208 0.195313 0.195312 0.130208 0.130208 0.195313 0.195312 0.130208 0.195312 0.195312 0.130208 0.130208 0.195313 0.195313 0.130208 0.195313 0.195312 0.130208 0.130208 0.195313 0.195313 0.130208 0.195313 0.195313 0.130209 0.130209 0.195313 0.195313 0.130208 0.195312 0.195313 0.130208 0.130208 0.195313 0.195313 0.130208 0.195313 0.195313 0.130208 0.130208 0.195313 0.195313 0.130208 0.195313 0.195313 0.130208 0.130208 0.195312 0.195313 0.130208 0.195313 0.195312 0.130208 0.130209 0.195313 0.195313 0.130208 0.195313 0.195313 0.130208 0.130209 0.195313 0.195313 0.130208 0.195313 0.195313 0.130209 0.130208 0.195313 0.195313 0.130208 0.195313 0.195313 0.130208 0.130208 0.195313 0.195313 0.130208 0.195313 0.195313 0.130209 0.130209 0.195313 0.195313 0.130208 0.195313 0.195313 0.130208 0.130209 0.195313 0.195313 0.130209 0.195313 0.195313 0.130209 0.130208 0.195313 0.195312 0.130208 0.195313 0.195313 0.130208 0.130208 0.195313 0.195313 0.130208 0.195313 0.195313 0.130208 0.130208 0.195313 0.195313 0.130208 0.195312 0.195313 0.130208 0.130208 0.195312 0.195313 0.130208 0.195313 0.195312 0.130208 0.130209 0.195313 0.195312 0.130208 0.195312 0.195313 0.130208 0.130208 0.195312 0.195313 0.130208 0.195313 0.195312 0.130208 0.130209 0.195313 0.195313 0.130209 0.195313 0.195313 0.130209 0.130208 0.195312 0.195312 0.130208 0.195312 0.195312 0.130208 0.130208 0.195313 0.195313 0.130208 0.195313 0.195313 0.130208 0.130209 0.195313 0.195313 0.130209 0.195313 0.195313 0.130208 0.130209 0.195313 0.0976566 0.130208 0.0976565 0.195313 0.0651044 0.130208 0.195313 0.195313 0.130208 0.195312 0.0976562 0.0651042 0.195313 0.0976562 0.130208 0.130208 0.195313 0.195313 0.130208 0.195312 0.195313 0.130208 0.130208 0.195313 0.195313 0.130208 0.195312 0.195313 0.130208 0.130208 0.195313 0.195313 0.130208 0.195312 0.195313 0.130208 0.130208 0.195313 0.195313 0.130208 0.195312 0.195313 0.130208 0.130208 0.195313 0.195313 0.130208 0.195312 0.195313 0.130208 0.130208 0.195313 0.195312 0.130208 0.195312 0.195312 0.130208 0.130208 0.195312 0.195313 0.130208 0.195312 0.195312 0.130208 0.130208 0.195312 0.195312 0.130208 0.195312 0.195312 0.130208 0.130208 0.195312 0.195313 0.130208 0.195312 0.195312 0.130208 0.130208 0.195313 0.195313 0.130208 0.195313 0.195313 0.130208 0.130208 0.195313 0.195313 0.130208 0.195312 0.195313 0.130208 0.130208 0.195313 0.195313 0.130208 0.195312 0.195313 0.130208 0.130208 0.195313 0.195312 0.130208 0.195312 0.195313 0.130208 0.130208 0.195312 0.195313 0.130208 0.195313 0.195312 0.130208 0.130209 0.195313 0.195313 0.130208 0.195313 0.195313 0.130208 0.130209 0.195313 0.195313 0.130208 0.195313 0.195313 0.130209 0.130208 0.195313 0.195313 0.130208 0.195312 0.195313 0.130208 0.130208 0.195313 0.195313 0.130208 0.195313 0.195313 0.130209 0.130209 0.195313 0.195313 0.130208 0.195312 0.195313 0.130208 0.130209 0.195313 0.195313 0.130209 0.195313 0.195313 0.130209 0.130208 0.195313 0.195312 0.130208 0.195312 0.195313 0.130208 0.130208 0.195313 0.195313 0.130208 0.195313 0.195313 0.130208 0.130208 0.195313 0.195313 0.130208 0.195312 0.195313 0.130208 0.130208 0.195312 0.195313 0.130208 0.195313 0.195312 0.130208 0.130209 0.195313 0.195312 0.130208 0.195312 0.195313 0.130208 0.130208 0.195312 0.195313 0.130208 0.195313 0.195312 0.130208 0.130209 0.195313 0.195313 0.130209 0.195313 0.195313 0.130209 0.130208 0.195312 0.195312 0.130208 0.195312 0.195312 0.130208 0.130208 0.195313 0.195313 0.130208 0.195313 0.195313 0.130208 0.130209 0.195313 0.195313 0.130209 0.195313 0.195313 0.130208 0.130209 0.195313 0.0976566 0.130208 0.0976564 0.195313 0.0651044 0.130208 0.195313 0.195313 0.130208 0.195313 0.0976563 0.0651042 0.195313 0.0976562 0.130208 0.130208 0.195313 0.195313 0.130208 0.195313 0.195313 0.130208 0.130208 0.195313 0.195313 0.130208 0.195313 0.195313 0.130208 0.130208 0.195313 0.195313 0.130208 0.195312 0.195313 0.130208 0.130208 0.195313 0.195313 0.130208 0.195313 0.195313 0.130208 0.130208 0.195313 0.195313 0.130208 0.195313 0.195313 0.130208 0.130208 0.195313 0.195313 0.130208 0.195312 0.195313 0.130208 0.130208 0.195312 0.195313 0.130208 0.195312 0.195312 0.130208 0.130208 0.195313 0.195313 0.130208 0.195312 0.195312 0.130208 0.130208 0.195313 0.195313 0.130208 0.195313 0.195312 0.130208 0.130208 0.195313 0.195313 0.130208 0.195313 0.195313 0.130208 0.130208 0.195313 0.195313 0.130208 0.195312 0.195313 0.130208 0.130208 0.195313 0.195313 0.130208 0.195313 0.195313 0.130208 0.130208 0.195313 0.195313 0.130208 0.195312 0.195313 0.130208 0.130208 0.195312 0.195313 0.130208 0.195313 0.195312 0.130208 0.130209 0.195313 0.195313 0.130208 0.195313 0.195313 0.130208 0.130209 0.195313 0.195313 0.130208 0.195313 0.195313 0.130209 0.130208 0.195313 0.195313 0.130208 0.195312 0.195313 0.130208 0.130208 0.195313 0.195313 0.130208 0.195313 0.195313 0.130209 0.130209 0.195313 0.195313 0.130208 0.195312 0.195313 0.130208 0.130209 0.195313 0.195313 0.130209 0.195313 0.195313 0.130209 0.130208 0.195313 0.195312 0.130208 0.195313 0.195313 0.130208 0.130208 0.195313 0.195313 0.130208 0.195313 0.195313 0.130208 0.130208 0.195313 0.195313 0.130208 0.195312 0.195313 0.130208 0.130208 0.195312 0.195313 0.130208 0.195313 0.195312 0.130208 0.130209 0.195313 0.195312 0.130208 0.195312 0.195313 0.130208 0.130208 0.195312 0.195313 0.130208 0.195313 0.195312 0.130208 0.130209 0.195313 0.195313 0.130209 0.195313 0.195313 0.130209 0.130208 0.195312 0.195312 0.130208 0.195312 0.195312 0.130208 0.130208 0.195313 0.195313 0.130208 0.195313 0.195313 0.130208 0.130209 0.195313 0.195313 0.130209 0.195313 0.195313 0.130208 0.130209 0.195313 0.0976566 0.130208 0.0976565 0.195313 0.0651044 0.130208 0.195313 0.195313 0.130208 0.195313 0.0976563 0.0651042 0.195313 0.0976563 0.130208 0.130208 0.195313 0.195313 0.130208 0.195313 0.195313 0.130208 0.130208 0.195313 0.195313 0.130208 0.195313 0.195313 0.130208 0.130208 0.195313 0.195313 0.130208 0.195313 0.195313 0.130208 0.130208 0.195313 0.195313 0.130208 0.195313 0.195313 0.130208 0.130208 0.195313 0.195313 0.130208 0.195313 0.195313 0.130208 0.130208 0.195313 0.195313 0.130208 0.195313 0.195313 0.130208 0.130208 0.195313 0.195313 0.130208 0.195313 0.195312 0.130208 0.130208 0.195313 0.195313 0.130208 0.195312 0.195312 0.130208 0.130208 0.195313 0.195313 0.130208 0.195313 0.195313 0.130208 0.130208 0.195313 0.195313 0.130208 0.195313 0.195313 0.130209 0.130209 0.195313 0.195313 0.130208 0.195313 0.195313 0.130208 0.130208 0.195313 0.195313 0.130208 0.195313 0.195313 0.130208 0.130208 0.195313 0.195313 0.130208 0.195313 0.195313 0.130208 0.130208 0.195313 0.195313 0.130208 0.195313 0.195312 0.130208 0.130209 0.195313 0.195313 0.130208 0.195313 0.195313 0.130209 0.130209 0.195313 0.195313 0.130208 0.195313 0.195313 0.130209 0.130208 0.195313 0.195313 0.130208 0.195313 0.195313 0.130208 0.130208 0.195313 0.195313 0.130209 0.195313 0.195313 0.130209 0.130209 0.195313 0.195313 0.130208 0.195313 0.195313 0.130208 0.130209 0.195313 0.195313 0.130209 0.195313 0.195313 0.130209 0.130208 0.195313 0.195313 0.130208 0.195313 0.195313 0.130208 0.130208 0.195313 0.195313 0.130208 0.195313 0.195313 0.130208 0.130209 0.195313 0.195313 0.130208 0.195312 0.195313 0.130208 0.130208 0.195312 0.195313 0.130208 0.195313 0.195312 0.130209 0.130209 0.195313 0.195312 0.130209 0.195312 0.195313 0.130208 0.130208 0.195312 0.195313 0.130208 0.195313 0.195312 0.130208 0.130209 0.195313 0.195313 0.130209 0.195313 0.195313 0.130209 0.130208 0.195312 0.195312 0.130208 0.195312 0.195312 0.130208 0.130208 0.195313 0.195313 0.130208 0.195313 0.195313 0.130208 0.130209 0.195313 0.195313 0.130209 0.195313 0.195313 0.130208 0.130209 0.195313 0.0976566 0.130208 0.0976565 0.195313 0.0651044 0.130208 0.195313 0.195313 0.130208 0.195313 0.0976562 0.0651042 0.195312 0.0976563 0.130208 0.130208 0.195313 0.195313 0.130208 0.195313 0.195312 0.130208 0.130208 0.195313 0.195313 0.130208 0.195313 0.195312 0.130208 0.130208 0.195313 0.195313 0.130208 0.195313 0.195312 0.130208 0.130208 0.195313 0.195313 0.130208 0.195313 0.195312 0.130208 0.130208 0.195313 0.195313 0.130208 0.195313 0.195313 0.130208 0.130208 0.195313 0.195312 0.130208 0.195312 0.195312 0.130208 0.130208 0.195312 0.195313 0.130208 0.195312 0.195312 0.130208 0.130208 0.195312 0.195312 0.130208 0.195312 0.195312 0.130208 0.130208 0.195313 0.195313 0.130208 0.195313 0.195312 0.130208 0.130208 0.195313 0.195313 0.130208 0.195313 0.195313 0.130209 0.130208 0.195313 0.195313 0.130208 0.195312 0.195313 0.130208 0.130208 0.195313 0.195313 0.130208 0.195313 0.195312 0.130208 0.130208 0.195313 0.195312 0.130208 0.195312 0.195313 0.130208 0.130208 0.195312 0.195313 0.130208 0.195313 0.195312 0.130208 0.130208 0.195313 0.195313 0.130208 0.195313 0.195313 0.130208 0.130209 0.195313 0.195313 0.130208 0.195313 0.195313 0.130209 0.130208 0.195313 0.195313 0.130208 0.195313 0.195313 0.130208 0.130208 0.195313 0.195313 0.130208 0.195313 0.195313 0.130209 0.130209 0.195313 0.195313 0.130208 0.195313 0.195313 0.130208 0.130209 0.195313 0.195313 0.130209 0.195313 0.195313 0.130209 0.130208 0.195313 0.195312 0.130208 0.195313 0.195312 0.130208 0.130208 0.195313 0.195313 0.130208 0.195313 0.195312 0.130208 0.130208 0.195313 0.195313 0.130208 0.195312 0.195313 0.130208 0.130208 0.195312 0.195313 0.130208 0.195313 0.195312 0.130208 0.130209 0.195313 0.195312 0.130208 0.195312 0.195313 0.130208 0.130208 0.195312 0.195313 0.130208 0.195313 0.195312 0.130208 0.130209 0.195313 0.195313 0.130209 0.195313 0.195313 0.130209 0.130208 0.195312 0.195312 0.130208 0.195312 0.195312 0.130208 0.130208 0.195313 0.195313 0.130208 0.195313 0.195312 0.130208 0.130209 0.195313 0.195312 0.130209 0.195313 0.195313 0.130208 0.130209 0.195313 0.0976566 0.130208 0.0976565 0.195313 0.0651044 0.0651042 0.195312 0.0976563 0.130208 0.195312 0.0325521 0.0651042 0.0976563 0.0976562 0.130208 0.0651042 0.195312 0.0976563 0.130208 0.195312 0.0976563 0.130208 0.0651042 0.195312 0.0976563 0.130208 0.195312 0.0976563 0.130208 0.0651042 0.195312 0.0976563 0.130208 0.195312 0.0976563 0.130208 0.0651042 0.195312 0.0976563 0.130208 0.195312 0.0976563 0.130208 0.0651042 0.195313 0.0976563 0.130208 0.195312 0.0976563 0.130208 0.0651042 0.195312 0.0976563 0.130208 0.195312 0.0976563 0.130208 0.0651042 0.195312 0.0976563 0.130208 0.195312 0.0976562 0.130208 0.0651043 0.195312 0.0976563 0.130208 0.195312 0.0976563 0.130208 0.0651042 0.195312 0.0976563 0.130208 0.195312 0.0976563 0.130208 0.0651043 0.195313 0.0976564 0.130208 0.195313 0.0976563 0.130208 0.0651043 0.195313 0.0976563 0.130208 0.195312 0.0976564 0.130208 0.0651042 0.195312 0.0976563 0.130208 0.195312 0.0976562 0.130208 0.0651042 0.195313 0.0976562 0.130208 0.195312 0.0976563 0.130208 0.0651042 0.195312 0.0976563 0.130208 0.195313 0.0976562 0.130208 0.0651044 0.195313 0.0976564 0.130208 0.195313 0.0976564 0.130208 0.0651044 0.195313 0.0976564 0.130208 0.195313 0.0976564 0.130208 0.0651043 0.195313 0.0976562 0.130208 0.195312 0.0976564 0.130208 0.0651042 0.195313 0.0976565 0.130208 0.195313 0.0976563 0.130209 0.0651044 0.195313 0.0976563 0.130208 0.195312 0.0976565 0.130208 0.0651042 0.195313 0.0976564 0.130208 0.195313 0.0976564 0.130208 0.0651042 0.195312 0.0976562 0.130208 0.195312 0.0976563 0.130208 0.0651042 0.195312 0.0976563 0.130208 0.195312 0.0976562 0.130208 0.0651043 0.195313 0.0976563 0.130208 0.195312 0.0976563 0.130208 0.0651041 0.195312 0.0976563 0.130208 0.195313 0.0976561 0.130208 0.0651044 0.195313 0.0976563 0.130208 0.195312 0.0976565 0.130208 0.0651041 0.195312 0.0976562 0.130208 0.195312 0.097656 0.130208 0.0651044 0.195313 0.0976565 0.130209 0.195313 0.0976565 0.130209 0.0651043 0.195312 0.0976561 0.130208 0.195312 0.0976564 0.130208 0.0651043 0.195312 0.0976563 0.130208 0.195313 0.0976565 0.130208 0.0651044 0.195313 0.0976564 0.130208 0.195313 0.0976566 0.130208 0.0651044 0.195313 0.0651044 0.130208 0.0976564 0.0976564 0.0651044 0.130208 0.195312 0.195312 0.130208 0.195312 0.0976562 0.0651041 0.0651041 0.0976562 0.0651041 0.195312 0.0976562 0.0976562 0.130208 0.130208 0.195312 0.195312 0.130208 0.195312 0.0976562 0.0651041 0.195312 0.0976562 0.130208 0.130208 0.195312 0.195312 0.130208 0.195312 0.0976563 0.0651042 0.195312 0.0976562 0.130208 0.130208 0.195312 0.195312 0.130208 0.195312 0.0976562 0.0651041 0.195312 0.0976562 0.130208 0.130208 0.195312 0.195312 0.130208 0.195312 0.0976562 0.0651041 0.195312 0.0976562 0.130208 0.130208 0.195312 0.195312 0.130208 0.195312 0.0976563 0.0651042 0.195313 0.0976562 0.130208 0.130208 0.195312 0.195312 0.130208 0.195312 0.0976562 0.0651041 0.195312 0.0976561 0.130208 0.130208 0.195312 0.195312 0.130208 0.195312 0.0976562 0.0651041 0.195312 0.0976562 0.130208 0.130208 0.195312 0.195312 0.130208 0.195312 0.0976562 0.0651041 0.195312 0.0976562 0.130208 0.130208 0.195312 0.195312 0.130208 0.195312 0.0976562 0.0651041 0.195312 0.0976562 0.130208 0.130208 0.195313 0.195313 0.130208 0.195313 0.0976563 0.0651042 0.195313 0.0976562 0.130208 0.130208 0.195313 0.195312 0.130208 0.195312 0.0976562 0.0651041 0.195313 0.0976562 0.130208 0.130208 0.195312 0.195312 0.130208 0.195312 0.0976563 0.0651042 0.195312 0.0976563 0.130208 0.130208 0.195312 0.195312 0.130208 0.195312 0.0976563 0.0651042 0.195313 0.0976561 0.130208 0.130208 0.195312 0.195312 0.130208 0.195313 0.0976562 0.0651041 0.195312 0.0976562 0.130208 0.130208 0.195313 0.195313 0.130208 0.195313 0.0976562 0.0651041 0.195313 0.0976562 0.130208 0.130208 0.195313 0.195313 0.130208 0.195313 0.0976563 0.0651042 0.195313 0.0976563 0.130208 0.130208 0.195312 0.195312 0.130208 0.195312 0.0976562 0.0651041 0.195313 0.0976562 0.130208 0.130208 0.195313 0.195313 0.130208 0.195313 0.0976564 0.0651042 0.195313 0.0976564 0.130209 0.130208 0.195313 0.195313 0.130208 0.195312 0.0976561 0.0651041 0.195313 0.0976563 0.130208 0.130208 0.195313 0.195313 0.130209 0.195313 0.0976565 0.0651043 0.195313 0.0976563 0.130208 0.130208 0.195312 0.195312 0.130208 0.195312 0.0976563 0.0651042 0.195312 0.0976562 0.130208 0.130208 0.195312 0.195313 0.130208 0.195313 0.0976563 0.0651042 0.195312 0.0976563 0.130208 0.130208 0.195313 0.195312 0.130208 0.195312 0.0976563 0.0651042 0.195313 0.0976562 0.130208 0.130208 0.195312 0.195312 0.130208 0.195313 0.0976561 0.0651041 0.195312 0.0976562 0.130208 0.130208 0.195313 0.195312 0.130208 0.195312 0.0976562 0.0651041 0.195313 0.097656 0.130208 0.130208 0.195312 0.195312 0.130208 0.195312 0.097656 0.065104 0.195312 0.0976562 0.130208 0.130209 0.195313 0.195313 0.130209 0.195313 0.0976564 0.0651043 0.195313 0.0976563 0.130208 0.130208 0.195312 0.195312 0.130208 0.195312 0.0976558 0.0651039 0.195312 0.0976562 0.130208 0.130208 0.195312 0.195313 0.130208 0.195313 0.0976561 0.0651041 0.195312 0.0976563 0.130208 0.130209 0.195313 0.195312 0.130209 0.195313 0.0976562 0.0651042 0.195313 0.0976561 0.130208 0.130209 0.195313 0.0976566 0.130208 0.0976564 0.0976565 0.0651042 0.195313 0.0325522 0.0651044 0.130208 0.195312 0.195312 0.130208 0.195312 0.0976562 0.0651041 0.195312 0.0976562 0.130208 0.130208 0.195312 0.195312 0.130208 0.195312 0.195312 0.130208 0.130208 0.195312 0.195312 0.130208 0.195312 0.195312 0.130208 0.130208 0.195312 0.195312 0.130208 0.195312 0.195312 0.130208 0.130208 0.195312 0.195312 0.130208 0.195312 0.195312 0.130208 0.130208 0.195312 0.195312 0.130208 0.195312 0.195313 0.130208 0.130208 0.195312 0.195312 0.130208 0.195312 0.195312 0.130208 0.130208 0.195312 0.195312 0.130208 0.195312 0.195312 0.130208 0.130208 0.195312 0.195312 0.130208 0.195312 0.195312 0.130208 0.130208 0.195312 0.195312 0.130208 0.195312 0.195312 0.130208 0.130208 0.195313 0.195313 0.130208 0.195313 0.195313 0.130208 0.130208 0.195313 0.195312 0.130208 0.195312 0.195313 0.130208 0.130208 0.195312 0.195313 0.130208 0.195312 0.195312 0.130208 0.130208 0.195312 0.195312 0.130208 0.195312 0.195312 0.130208 0.130208 0.195312 0.195312 0.130208 0.195313 0.195312 0.130208 0.130208 0.195313 0.195313 0.130208 0.195313 0.195313 0.130208 0.130208 0.195313 0.195313 0.130208 0.195313 0.195313 0.130208 0.130208 0.195313 0.195312 0.130208 0.195312 0.195312 0.130208 0.130208 0.195313 0.195313 0.130208 0.195313 0.195313 0.130209 0.130208 0.195313 0.195313 0.130208 0.195312 0.195313 0.130208 0.130208 0.195313 0.195313 0.130209 0.195313 0.195313 0.130208 0.130208 0.195312 0.195312 0.130208 0.195312 0.195312 0.130208 0.130208 0.195312 0.195313 0.130208 0.195313 0.195312 0.130208 0.130208 0.195313 0.195312 0.130208 0.195312 0.195313 0.130208 0.130208 0.195312 0.195312 0.130208 0.195313 0.195312 0.130208 0.130208 0.195313 0.195312 0.130208 0.195312 0.195313 0.130208 0.130208 0.195312 0.195312 0.130208 0.195312 0.195312 0.130208 0.130209 0.195313 0.195313 0.130209 0.195313 0.195313 0.130209 0.130208 0.195312 0.195312 0.130208 0.195312 0.195312 0.130208 0.130208 0.195312 0.195313 0.130208 0.195313 0.195312 0.130208 0.130209 0.195313 0.195312 0.130209 0.195313 0.195313 0.130208 0.130209 0.195313 0.0976566 0.130208 0.0976565 0.195313 0.0651044 0.130208 0.195312 0.195312 0.130208 0.195312 0.0976562 0.0651041 0.195312 0.0976562 0.130208 0.130208 0.195312 0.195312 0.130208 0.195312 0.195312 0.130208 0.130208 0.195312 0.195312 0.130208 0.195312 0.195312 0.130208 0.130208 0.195312 0.195312 0.130208 0.195312 0.195312 0.130208 0.130208 0.195312 0.195312 0.130208 0.195312 0.195312 0.130208 0.130208 0.195313 0.195312 0.130208 0.195312 0.195312 0.130208 0.130208 0.195312 0.195312 0.130208 0.195312 0.195312 0.130208 0.130208 0.195312 0.195312 0.130208 0.195312 0.195312 0.130208 0.130208 0.195312 0.195312 0.130208 0.195312 0.195312 0.130208 0.130208 0.195312 0.195312 0.130208 0.195313 0.195312 0.130208 0.130208 0.195313 0.195313 0.130208 0.195313 0.195313 0.130208 0.130208 0.195313 0.195312 0.130208 0.195312 0.195313 0.130208 0.130208 0.195312 0.195312 0.130208 0.195313 0.195312 0.130208 0.130208 0.195312 0.195312 0.130208 0.195312 0.195312 0.130208 0.130208 0.195312 0.195312 0.130208 0.195313 0.195312 0.130208 0.130208 0.195313 0.195313 0.130208 0.195313 0.195313 0.130208 0.130208 0.195313 0.195313 0.130208 0.195313 0.195313 0.130208 0.130208 0.195313 0.195312 0.130208 0.195312 0.195313 0.130208 0.130208 0.195313 0.195313 0.130208 0.195313 0.195313 0.130209 0.130208 0.195313 0.195313 0.130208 0.195312 0.195313 0.130208 0.130208 0.195313 0.195313 0.130209 0.195313 0.195313 0.130208 0.130208 0.195312 0.195312 0.130208 0.195312 0.195312 0.130208 0.130208 0.195312 0.195313 0.130208 0.195313 0.195312 0.130208 0.130208 0.195313 0.195312 0.130208 0.195312 0.195313 0.130208 0.130208 0.195312 0.195312 0.130208 0.195313 0.195312 0.130208 0.130209 0.195313 0.195312 0.130208 0.195312 0.195313 0.130208 0.130208 0.195312 0.195312 0.130208 0.195312 0.195312 0.130208 0.130209 0.195313 0.195313 0.130209 0.195313 0.195313 0.130208 0.130208 0.195312 0.195312 0.130208 0.195312 0.195312 0.130208 0.130208 0.195312 0.195313 0.130208 0.195313 0.195312 0.130208 0.130209 0.195313 0.195312 0.130209 0.195313 0.195313 0.130208 0.130209 0.195313 0.0976566 0.130208 0.0976565 0.195313 0.0651044 0.130208 0.195312 0.195312 0.130208 0.195312 0.0976562 0.0651041 0.195312 0.0976562 0.130208 0.130208 0.195312 0.195312 0.130208 0.195312 0.195312 0.130208 0.130208 0.195312 0.195312 0.130208 0.195312 0.195312 0.130208 0.130208 0.195312 0.195312 0.130208 0.195312 0.195312 0.130208 0.130208 0.195312 0.195312 0.130208 0.195312 0.195312 0.130208 0.130208 0.195312 0.195312 0.130208 0.195312 0.195312 0.130208 0.130208 0.195312 0.195312 0.130208 0.195312 0.195312 0.130208 0.130208 0.195312 0.195312 0.130208 0.195312 0.195312 0.130208 0.130208 0.195312 0.195312 0.130208 0.195312 0.195312 0.130208 0.130208 0.195312 0.195312 0.130208 0.195312 0.195312 0.130208 0.130208 0.195313 0.195313 0.130208 0.195313 0.195313 0.130208 0.130208 0.195313 0.195312 0.130208 0.195312 0.195313 0.130208 0.130208 0.195312 0.195312 0.130208 0.195312 0.195312 0.130208 0.130208 0.195312 0.195312 0.130208 0.195312 0.195312 0.130208 0.130208 0.195312 0.195312 0.130208 0.195313 0.195312 0.130208 0.130208 0.195313 0.195313 0.130208 0.195313 0.195313 0.130208 0.130208 0.195313 0.195313 0.130208 0.195313 0.195313 0.130208 0.130208 0.195312 0.195312 0.130208 0.195312 0.195312 0.130208 0.130208 0.195313 0.195313 0.130208 0.195313 0.195313 0.130209 0.130208 0.195313 0.195312 0.130208 0.195312 0.195313 0.130208 0.130208 0.195313 0.195313 0.130208 0.195313 0.195313 0.130208 0.130208 0.195312 0.195312 0.130208 0.195312 0.195312 0.130208 0.130208 0.195312 0.195313 0.130208 0.195313 0.195312 0.130208 0.130208 0.195313 0.195312 0.130208 0.195312 0.195313 0.130208 0.130208 0.195312 0.195312 0.130208 0.195313 0.195312 0.130208 0.130208 0.195313 0.195312 0.130208 0.195312 0.195313 0.130208 0.130208 0.195312 0.195312 0.130208 0.195312 0.195312 0.130208 0.130209 0.195313 0.195313 0.130209 0.195313 0.195313 0.130208 0.130208 0.195312 0.195312 0.130208 0.195312 0.195312 0.130208 0.130208 0.195312 0.195313 0.130208 0.195313 0.195312 0.130208 0.130209 0.195313 0.195312 0.130208 0.195313 0.195313 0.130208 0.130209 0.195313 0.0976565 0.130208 0.0976564 0.195313 0.0651044 0.130208 0.195312 0.195312 0.130208 0.195312 0.0976562 0.0651041 0.195312 0.0976562 0.130208 0.130208 0.195312 0.195312 0.130208 0.195312 0.195312 0.130208 0.130208 0.195312 0.195312 0.130208 0.195312 0.195312 0.130208 0.130208 0.195312 0.195312 0.130208 0.195312 0.195312 0.130208 0.130208 0.195312 0.195312 0.130208 0.195312 0.195312 0.130208 0.130208 0.195312 0.195312 0.130208 0.195312 0.195313 0.130208 0.130208 0.195312 0.195312 0.130208 0.195312 0.195312 0.130208 0.130208 0.195312 0.195312 0.130208 0.195312 0.195312 0.130208 0.130208 0.195312 0.195312 0.130208 0.195312 0.195312 0.130208 0.130208 0.195312 0.195312 0.130208 0.195312 0.195312 0.130208 0.130208 0.195313 0.195313 0.130208 0.195313 0.195313 0.130208 0.130208 0.195313 0.195312 0.130208 0.195312 0.195313 0.130208 0.130208 0.195312 0.195313 0.130208 0.195312 0.195312 0.130208 0.130208 0.195312 0.195312 0.130208 0.195312 0.195313 0.130208 0.130208 0.195312 0.195312 0.130208 0.195313 0.195312 0.130208 0.130208 0.195313 0.195313 0.130208 0.195313 0.195313 0.130208 0.130208 0.195313 0.195313 0.130208 0.195313 0.195313 0.130208 0.130208 0.195313 0.195312 0.130208 0.195312 0.195313 0.130208 0.130208 0.195313 0.195313 0.130208 0.195313 0.195313 0.130209 0.130208 0.195313 0.195313 0.130208 0.195312 0.195313 0.130208 0.130208 0.195313 0.195313 0.130208 0.195313 0.195313 0.130208 0.130208 0.195312 0.195312 0.130208 0.195312 0.195312 0.130208 0.130208 0.195312 0.195313 0.130208 0.195313 0.195312 0.130208 0.130208 0.195313 0.195312 0.130208 0.195312 0.195313 0.130208 0.130208 0.195312 0.195312 0.130208 0.195313 0.195312 0.130208 0.130209 0.195313 0.195312 0.130208 0.195312 0.195313 0.130208 0.130208 0.195312 0.195312 0.130208 0.195312 0.195312 0.130208 0.130209 0.195313 0.195313 0.130209 0.195313 0.195313 0.130208 0.130208 0.195312 0.195312 0.130208 0.195312 0.195312 0.130208 0.130208 0.195312 0.195313 0.130208 0.195313 0.195312 0.130208 0.130209 0.195313 0.195312 0.130209 0.195313 0.195313 0.130208 0.130209 0.195313 0.0976566 0.130208 0.0976565 0.195313 0.0651044 0.130208 0.195313 0.195312 0.130208 0.195313 0.0976562 0.0651042 0.195312 0.0976562 0.130208 0.130208 0.195313 0.195312 0.130208 0.195313 0.195313 0.130208 0.130208 0.195313 0.195312 0.130208 0.195313 0.195313 0.130208 0.130208 0.195312 0.195312 0.130208 0.195313 0.195312 0.130208 0.130208 0.195313 0.195312 0.130208 0.195313 0.195312 0.130208 0.130208 0.195313 0.195312 0.130208 0.195313 0.195313 0.130208 0.130208 0.195312 0.195312 0.130208 0.195312 0.195312 0.130208 0.130208 0.195312 0.195312 0.130208 0.195313 0.195312 0.130208 0.130208 0.195312 0.195312 0.130208 0.195312 0.195312 0.130208 0.130208 0.195312 0.195312 0.130208 0.195313 0.195312 0.130208 0.130208 0.195313 0.195313 0.130208 0.195313 0.195313 0.130208 0.130208 0.195313 0.195312 0.130208 0.195312 0.195313 0.130208 0.130208 0.195313 0.195313 0.130208 0.195313 0.195313 0.130208 0.130208 0.195313 0.195312 0.130208 0.195312 0.195313 0.130208 0.130208 0.195312 0.195312 0.130208 0.195313 0.195312 0.130208 0.130208 0.195313 0.195313 0.130208 0.195313 0.195313 0.130208 0.130208 0.195313 0.195313 0.130208 0.195313 0.195313 0.130208 0.130208 0.195313 0.195312 0.130208 0.195313 0.195313 0.130208 0.130208 0.195313 0.195313 0.130208 0.195313 0.195313 0.130209 0.130209 0.195313 0.195313 0.130208 0.195313 0.195313 0.130208 0.130208 0.195313 0.195313 0.130209 0.195313 0.195313 0.130209 0.130208 0.195313 0.195312 0.130208 0.195312 0.195313 0.130208 0.130208 0.195313 0.195313 0.130208 0.195313 0.195312 0.130208 0.130208 0.195313 0.195312 0.130208 0.195312 0.195313 0.130208 0.130208 0.195312 0.195313 0.130208 0.195313 0.195312 0.130208 0.130209 0.195313 0.195312 0.130208 0.195312 0.195313 0.130208 0.130208 0.195312 0.195312 0.130208 0.195313 0.195312 0.130208 0.130209 0.195313 0.195313 0.130209 0.195313 0.195313 0.130209 0.130208 0.195312 0.195312 0.130208 0.195312 0.195312 0.130208 0.130208 0.195313 0.195313 0.130208 0.195313 0.195313 0.130208 0.130209 0.195313 0.195312 0.130209 0.195313 0.195313 0.130208 0.130209 0.195313 0.0976566 0.130208 0.0976565 0.195313 0.0651044 0.130208 0.195312 0.195312 0.130208 0.195312 0.0976561 0.0651041 0.195312 0.0976562 0.130208 0.130208 0.195312 0.195312 0.130208 0.195312 0.195312 0.130208 0.130208 0.195312 0.195312 0.130208 0.195312 0.195312 0.130208 0.130208 0.195312 0.195312 0.130208 0.195312 0.195312 0.130208 0.130208 0.195312 0.195312 0.130208 0.195312 0.195312 0.130208 0.130208 0.195313 0.195312 0.130208 0.195312 0.195312 0.130208 0.130208 0.195312 0.195312 0.130208 0.195312 0.195312 0.130208 0.130208 0.195312 0.195312 0.130208 0.195312 0.195312 0.130208 0.130208 0.195312 0.195312 0.130208 0.195312 0.195312 0.130208 0.130208 0.195312 0.195312 0.130208 0.195312 0.195312 0.130208 0.130208 0.195313 0.195313 0.130208 0.195313 0.195313 0.130208 0.130208 0.195313 0.195312 0.130208 0.195312 0.195312 0.130208 0.130208 0.195312 0.195312 0.130208 0.195312 0.195312 0.130208 0.130208 0.195312 0.195312 0.130208 0.195312 0.195312 0.130208 0.130208 0.195312 0.195312 0.130208 0.195313 0.195312 0.130208 0.130208 0.195313 0.195313 0.130208 0.195313 0.195313 0.130208 0.130208 0.195313 0.195313 0.130208 0.195313 0.195313 0.130208 0.130208 0.195313 0.195312 0.130208 0.195312 0.195312 0.130208 0.130208 0.195313 0.195313 0.130208 0.195313 0.195313 0.130209 0.130208 0.195313 0.195312 0.130208 0.195312 0.195313 0.130208 0.130208 0.195313 0.195313 0.130209 0.195313 0.195313 0.130208 0.130208 0.195312 0.195312 0.130208 0.195312 0.195312 0.130208 0.130208 0.195312 0.195313 0.130208 0.195313 0.195312 0.130208 0.130208 0.195313 0.195312 0.130208 0.195312 0.195312 0.130208 0.130208 0.195312 0.195312 0.130208 0.195313 0.195312 0.130208 0.130208 0.195313 0.195312 0.130208 0.195312 0.195313 0.130208 0.130208 0.195312 0.195312 0.130208 0.195313 0.195312 0.130208 0.130209 0.195313 0.195313 0.130209 0.195313 0.195313 0.130208 0.130208 0.195312 0.195312 0.130208 0.195312 0.195312 0.130208 0.130208 0.195312 0.195313 0.130208 0.195313 0.195312 0.130208 0.130209 0.195313 0.195312 0.130209 0.195313 0.195313 0.130208 0.130209 0.195313 0.0976566 0.130208 0.0976564 0.195313 0.0651044 0.0651042 0.195312 0.0976562 0.130208 0.195312 0.0325521 0.0651041 0.0976562 0.0976562 0.130208 0.0651042 0.195312 0.0976562 0.130208 0.195312 0.0976562 0.130208 0.0651042 0.195312 0.0976562 0.130208 0.195312 0.0976562 0.130208 0.0651042 0.195312 0.0976562 0.130208 0.195312 0.0976562 0.130208 0.0651042 0.195312 0.0976562 0.130208 0.195312 0.0976562 0.130208 0.0651042 0.195312 0.0976562 0.130208 0.195312 0.0976562 0.130208 0.0651042 0.195312 0.0976562 0.130208 0.195312 0.0976562 0.130208 0.0651042 0.195312 0.0976563 0.130208 0.195312 0.0976562 0.130208 0.0651042 0.195312 0.0976562 0.130208 0.195312 0.0976562 0.130208 0.0651042 0.195312 0.0976562 0.130208 0.195312 0.0976562 0.130208 0.0651042 0.195312 0.0976563 0.130208 0.195312 0.0976563 0.130208 0.0651043 0.195312 0.0976562 0.130208 0.195312 0.0976563 0.130208 0.0651042 0.195312 0.0976562 0.130208 0.195312 0.0976562 0.130208 0.0651042 0.195312 0.0976562 0.130208 0.195312 0.0976562 0.130208 0.0651041 0.195312 0.0976562 0.130208 0.195312 0.0976561 0.130208 0.0651043 0.195312 0.0976564 0.130208 0.195312 0.0976563 0.130208 0.0651043 0.195313 0.0976563 0.130208 0.195313 0.0976563 0.130208 0.0651043 0.195312 0.0976562 0.130208 0.195312 0.0976563 0.130208 0.0651042 0.195313 0.0976564 0.130208 0.195313 0.0976562 0.130209 0.0651044 0.195312 0.0976562 0.130208 0.195312 0.0976565 0.130208 0.0651042 0.195313 0.0976563 0.130208 0.195313 0.0976563 0.130208 0.0651042 0.195312 0.0976561 0.130208 0.195312 0.0976562 0.130208 0.0651042 0.195312 0.0976563 0.130208 0.195312 0.0976562 0.130208 0.0651042 0.195312 0.0976562 0.130208 0.195312 0.0976563 0.130208 0.0651041 0.195312 0.0976562 0.130208 0.195313 0.0976561 0.130208 0.0651044 0.195313 0.0976562 0.130208 0.195312 0.0976565 0.130208 0.0651041 0.195312 0.0976562 0.130208 0.195312 0.097656 0.130208 0.0651044 0.195313 0.0976565 0.130208 0.195313 0.0976564 0.130208 0.0651043 0.195312 0.0976561 0.130208 0.195312 0.0976563 0.130208 0.0651043 0.195312 0.0976563 0.130208 0.195313 0.0976564 0.130208 0.0651044 0.195313 0.0976563 0.130208 0.195312 0.0976565 0.130208 0.0651044 0.195313 0.0651043 0.130208 0.0976564 0.0976563 0.0651044 0.130208 0.195312 0.195312 0.0651041 0.0976562 0.0325521 0.0651041 0.0651042 0.0976562 0.0651041 0.0976562 0.032552 0.0976562 0.130208 0.130208 0.195312 0.195312 0.0651041 0.0976562 0.0325521 0.0651042 0.0976562 0.0976562 0.130208 0.130208 0.195312 0.195312 0.0651041 0.0976562 0.0325521 0.0651042 0.0976562 0.0976562 0.130208 0.130208 0.195312 0.195312 0.0651041 0.0976562 0.0325521 0.0651042 0.0976562 0.0976562 0.130208 0.130208 0.195312 0.195312 0.0651041 0.0976562 0.0325521 0.0651042 0.0976562 0.0976562 0.130208 0.130208 0.195313 0.195312 0.0651041 0.0976562 0.0325521 0.0651042 0.0976562 0.0976562 0.130208 0.130208 0.195312 0.195312 0.0651041 0.0976562 0.0325521 0.0651042 0.0976562 0.0976561 0.130208 0.130208 0.195312 0.195312 0.0651041 0.0976562 0.032552 0.0651041 0.0976561 0.0976562 0.130208 0.130208 0.195312 0.195312 0.0651041 0.0976561 0.0325521 0.0651041 0.0976562 0.0976562 0.130208 0.130208 0.195312 0.195312 0.0651041 0.0976562 0.0325521 0.0651042 0.0976562 0.0976562 0.130208 0.130208 0.195313 0.195313 0.0651041 0.0976563 0.0325521 0.0651042 0.0976562 0.0976563 0.130208 0.130208 0.195313 0.195312 0.0651041 0.0976562 0.0325521 0.0651042 0.0976563 0.0976562 0.130208 0.130208 0.195312 0.195313 0.0651041 0.0976562 0.0325521 0.0651042 0.0976562 0.0976563 0.130208 0.130208 0.195312 0.195312 0.0651042 0.0976562 0.0325521 0.0651042 0.0976562 0.0976562 0.130208 0.130208 0.195312 0.195312 0.0651041 0.0976562 0.032552 0.0651041 0.0976561 0.0976562 0.130208 0.130208 0.195313 0.195313 0.0651041 0.0976562 0.0325521 0.0651042 0.0976562 0.0976562 0.130208 0.130208 0.195313 0.195313 0.0651041 0.0976563 0.0325521 0.0651042 0.0976563 0.0976563 0.130208 0.130208 0.195312 0.195312 0.0651042 0.0976563 0.0325521 0.0651042 0.0976563 0.0976563 0.130208 0.130208 0.195313 0.195313 0.0651042 0.0976563 0.0325521 0.0651042 0.0976563 0.0976564 0.130209 0.130208 0.195313 0.195313 0.0651042 0.0976563 0.0325521 0.0651041 0.0976564 0.0976563 0.130208 0.130208 0.195313 0.195313 0.0651043 0.0976563 0.0325521 0.0651043 0.0976564 0.0976563 0.130208 0.130208 0.195312 0.195312 0.0651041 0.0976562 0.0325521 0.0651042 0.0976563 0.0976562 0.130208 0.130208 0.195312 0.195313 0.0651041 0.0976562 0.0325521 0.0651042 0.0976562 0.0976563 0.130208 0.130208 0.195313 0.195312 0.0651042 0.0976562 0.0325521 0.0651042 0.0976562 0.0976562 0.130208 0.130208 0.195312 0.195312 0.0651041 0.0976562 0.0325521 0.0651041 0.0976561 0.0976563 0.130208 0.130209 0.195313 0.195312 0.0651042 0.0976561 0.0325521 0.0651042 0.0976564 0.097656 0.130208 0.130208 0.195312 0.195312 0.0651039 0.0976561 0.032552 0.065104 0.0976559 0.0976562 0.130208 0.130209 0.195313 0.195313 0.0651042 0.0976564 0.0325522 0.0651043 0.0976564 0.0976563 0.130208 0.130208 0.195312 0.195312 0.0651042 0.0976561 0.0325521 0.0651039 0.0976563 0.0976562 0.130208 0.130208 0.195312 0.195313 0.0651043 0.0976563 0.0325522 0.0651041 0.0976565 0.0976563 0.130208 0.130209 0.195313 0.195312 0.0651044 0.0976562 0.0325522 0.0651042 0.0976566 0.0976561 0.130208 0.130209 0.195313 0.0976566 0.065104 0.0651043 0.0325521 0.0651043 0.0976562 0.0325522 0.0651044 0.130208 0.195312 0.195312 0.0651041 0.0976562 0.0976562 0.0651041 0.0976562 0.032552 0.130208 0.130208 0.195312 0.195312 0.0651041 0.0976562 0.0976562 0.130208 0.130208 0.195312 0.195312 0.0651041 0.0976562 0.0976562 0.130208 0.130208 0.195312 0.195312 0.0651041 0.0976562 0.0976562 0.130208 0.130208 0.195312 0.195312 0.0651041 0.0976562 0.0976562 0.130208 0.130208 0.195313 0.195312 0.0651041 0.0976562 0.0976562 0.130208 0.130208 0.195312 0.195312 0.0651041 0.0976562 0.0976562 0.130208 0.130208 0.195312 0.195312 0.0651041 0.0976562 0.0976561 0.130208 0.130208 0.195312 0.195312 0.0651041 0.0976562 0.0976562 0.130208 0.130208 0.195312 0.195312 0.0651041 0.0976562 0.0976562 0.130208 0.130208 0.195313 0.195313 0.0651041 0.0976563 0.0976562 0.130208 0.130208 0.195313 0.195312 0.0651041 0.0976562 0.0976563 0.130208 0.130208 0.195312 0.195313 0.0651041 0.0976562 0.0976562 0.130208 0.130208 0.195313 0.195312 0.0651042 0.0976563 0.0976562 0.130208 0.130208 0.195312 0.195312 0.0651041 0.0976562 0.0976561 0.130208 0.130208 0.195313 0.195313 0.0651041 0.0976562 0.0976562 0.130208 0.130208 0.195313 0.195313 0.0651041 0.0976563 0.0976563 0.130208 0.130208 0.195313 0.195312 0.0651042 0.0976563 0.0976563 0.130208 0.130208 0.195313 0.195313 0.0651042 0.0976564 0.0976563 0.130209 0.130208 0.195313 0.195313 0.0651042 0.0976563 0.0976564 0.130208 0.130208 0.195313 0.195313 0.0651043 0.0976563 0.0976564 0.130208 0.130208 0.195312 0.195312 0.0651042 0.0976562 0.0976563 0.130208 0.130208 0.195312 0.195313 0.0651041 0.0976563 0.0976562 0.130208 0.130208 0.195313 0.195312 0.0651042 0.0976562 0.0976562 0.130208 0.130208 0.195312 0.195312 0.0651041 0.0976562 0.0976561 0.130208 0.130209 0.195313 0.195312 0.0651042 0.0976561 0.0976564 0.130208 0.130208 0.195312 0.195312 0.0651039 0.0976561 0.0976559 0.130208 0.130209 0.195313 0.195313 0.0651042 0.0976564 0.0976564 0.130209 0.130208 0.195312 0.195312 0.0651042 0.0976561 0.0976563 0.130208 0.130208 0.195312 0.195313 0.0651043 0.0976563 0.0976565 0.130208 0.130209 0.195313 0.195312 0.0651044 0.0976562 0.0976566 0.130208 0.130209 0.195313 0.0976566 0.0651041 0.0651043 0.0976562 0.0651044 0.130208 0.195312 0.195312 0.0651041 0.0976562 0.0976562 0.0651041 0.0976562 0.032552 0.130208 0.130208 0.195312 0.195312 0.0651041 0.0976562 0.0976562 0.130208 0.130208 0.195312 0.195312 0.0651041 0.0976562 0.0976562 0.130208 0.130208 0.195312 0.195312 0.0651041 0.0976562 0.0976562 0.130208 0.130208 0.195312 0.195312 0.0651041 0.0976562 0.0976562 0.130208 0.130208 0.195313 0.195312 0.0651041 0.0976562 0.0976562 0.130208 0.130208 0.195312 0.195312 0.0651041 0.0976562 0.0976562 0.130208 0.130208 0.195312 0.195312 0.0651041 0.0976562 0.0976561 0.130208 0.130208 0.195312 0.195312 0.0651041 0.0976562 0.0976562 0.130208 0.130208 0.195312 0.195312 0.0651041 0.0976562 0.0976562 0.130208 0.130208 0.195313 0.195313 0.0651042 0.0976563 0.0976563 0.130208 0.130208 0.195313 0.195312 0.0651041 0.0976562 0.0976563 0.130208 0.130208 0.195312 0.195313 0.0651041 0.0976562 0.0976562 0.130208 0.130208 0.195312 0.195312 0.0651042 0.0976563 0.0976562 0.130208 0.130208 0.195312 0.195312 0.0651041 0.0976562 0.0976561 0.130208 0.130208 0.195313 0.195313 0.0651041 0.0976562 0.0976563 0.130208 0.130208 0.195313 0.195313 0.0651042 0.0976563 0.0976563 0.130208 0.130208 0.195313 0.195312 0.0651042 0.0976563 0.0976563 0.130208 0.130208 0.195313 0.195313 0.0651042 0.0976564 0.0976563 0.130209 0.130209 0.195313 0.195313 0.0651042 0.0976563 0.0976565 0.130208 0.130208 0.195313 0.195313 0.0651043 0.0976563 0.0976564 0.130208 0.130208 0.195312 0.195312 0.0651042 0.0976563 0.0976563 0.130208 0.130208 0.195312 0.195313 0.0651041 0.0976563 0.0976562 0.130208 0.130208 0.195313 0.195312 0.0651042 0.0976562 0.0976563 0.130208 0.130208 0.195312 0.195312 0.0651041 0.0976562 0.0976562 0.130208 0.130209 0.195313 0.195312 0.0651042 0.0976561 0.0976564 0.130208 0.130208 0.195312 0.195312 0.0651039 0.0976561 0.097656 0.130208 0.130209 0.195313 0.195313 0.0651042 0.0976564 0.0976564 0.130209 0.130208 0.195312 0.195312 0.0651042 0.0976561 0.0976563 0.130208 0.130208 0.195313 0.195313 0.0651043 0.0976563 0.0976565 0.130208 0.130209 0.195313 0.195312 0.0651044 0.0976562 0.0976566 0.130208 0.130209 0.195313 0.0976566 0.065104 0.0651043 0.0976562 0.0651044 0.130208 0.195312 0.195312 0.0651041 0.0976562 0.0976562 0.0651041 0.0976562 0.032552 0.130208 0.130208 0.195312 0.195312 0.0651041 0.0976562 0.0976562 0.130208 0.130208 0.195312 0.195312 0.0651041 0.0976562 0.0976562 0.130208 0.130208 0.195312 0.195312 0.0651041 0.0976562 0.0976562 0.130208 0.130208 0.195312 0.195312 0.0651041 0.0976562 0.0976562 0.130208 0.130208 0.195312 0.195312 0.0651041 0.0976562 0.0976562 0.130208 0.130208 0.195312 0.195312 0.0651041 0.0976562 0.0976562 0.130208 0.130208 0.195312 0.195312 0.065104 0.0976562 0.0976561 0.130208 0.130208 0.195312 0.195312 0.0651041 0.0976561 0.0976562 0.130208 0.130208 0.195312 0.195312 0.0651041 0.0976562 0.0976562 0.130208 0.130208 0.195313 0.195313 0.0651041 0.0976562 0.0976562 0.130208 0.130208 0.195313 0.195312 0.0651041 0.0976562 0.0976562 0.130208 0.130208 0.195312 0.195312 0.0651041 0.0976562 0.0976562 0.130208 0.130208 0.195312 0.195312 0.0651041 0.0976562 0.0976562 0.130208 0.130208 0.195312 0.195312 0.0651041 0.0976562 0.0976561 0.130208 0.130208 0.195313 0.195313 0.0651041 0.0976562 0.0976562 0.130208 0.130208 0.195313 0.195313 0.0651041 0.0976563 0.0976563 0.130208 0.130208 0.195312 0.195312 0.0651042 0.0976563 0.0976563 0.130208 0.130208 0.195313 0.195313 0.0651042 0.0976563 0.0976563 0.130209 0.130208 0.195313 0.195312 0.0651042 0.0976563 0.0976564 0.130208 0.130208 0.195313 0.195313 0.0651043 0.0976563 0.0976564 0.130208 0.130208 0.195312 0.195312 0.0651041 0.0976562 0.0976562 0.130208 0.130208 0.195312 0.195313 0.0651041 0.0976562 0.0976561 0.130208 0.130208 0.195313 0.195312 0.0651042 0.0976562 0.0976562 0.130208 0.130208 0.195312 0.195312 0.0651041 0.0976562 0.0976561 0.130208 0.130209 0.195313 0.195312 0.0651042 0.0976561 0.0976564 0.130208 0.130208 0.195312 0.195312 0.0651039 0.0976561 0.0976559 0.130208 0.130209 0.195313 0.195313 0.0651042 0.0976564 0.0976564 0.130208 0.130208 0.195312 0.195312 0.0651042 0.0976561 0.0976563 0.130208 0.130208 0.195312 0.195313 0.0651043 0.0976563 0.0976564 0.130208 0.130209 0.195313 0.195312 0.0651044 0.0976562 0.0976565 0.130208 0.130209 0.195313 0.0976566 0.065104 0.0651043 0.0976562 0.0651044 0.130208 0.195312 0.195312 0.0651041 0.0976562 0.0976562 0.0651041 0.0976562 0.032552 0.130208 0.130208 0.195312 0.195312 0.0651041 0.0976562 0.0976562 0.130208 0.130208 0.195312 0.195312 0.0651041 0.0976562 0.0976562 0.130208 0.130208 0.195312 0.195312 0.0651041 0.0976562 0.0976562 0.130208 0.130208 0.195312 0.195312 0.0651041 0.0976562 0.0976562 0.130208 0.130208 0.195313 0.195312 0.0651041 0.0976562 0.0976562 0.130208 0.130208 0.195312 0.195312 0.0651041 0.0976562 0.0976562 0.130208 0.130208 0.195312 0.195312 0.065104 0.0976562 0.0976561 0.130208 0.130208 0.195312 0.195312 0.0651041 0.0976561 0.0976562 0.130208 0.130208 0.195312 0.195312 0.0651041 0.0976562 0.0976562 0.130208 0.130208 0.195313 0.195313 0.0651041 0.0976562 0.0976562 0.130208 0.130208 0.195313 0.195312 0.0651041 0.0976562 0.0976563 0.130208 0.130208 0.195312 0.195313 0.0651041 0.0976562 0.0976562 0.130208 0.130208 0.195312 0.195312 0.0651041 0.0976562 0.0976562 0.130208 0.130208 0.195312 0.195313 0.0651041 0.0976562 0.0976561 0.130208 0.130208 0.195313 0.195313 0.0651041 0.0976562 0.0976562 0.130208 0.130209 0.195313 0.195313 0.0651041 0.0976563 0.0976563 0.130208 0.130208 0.195312 0.195312 0.0651042 0.0976563 0.0976563 0.130208 0.130208 0.195313 0.195313 0.0651042 0.0976563 0.0976563 0.130209 0.130209 0.195313 0.195313 0.0651042 0.0976563 0.0976565 0.130208 0.130208 0.195313 0.195313 0.0651043 0.0976563 0.0976564 0.130208 0.130208 0.195312 0.195312 0.0651041 0.0976562 0.0976563 0.130208 0.130208 0.195312 0.195313 0.0651041 0.0976562 0.0976562 0.130208 0.130208 0.195313 0.195312 0.0651042 0.0976562 0.0976563 0.130208 0.130208 0.195312 0.195313 0.0651041 0.0976562 0.0976562 0.130208 0.130209 0.195313 0.195312 0.0651042 0.0976561 0.0976564 0.130208 0.130208 0.195312 0.195313 0.0651039 0.0976561 0.0976559 0.130208 0.130209 0.195313 0.195313 0.0651042 0.0976564 0.0976564 0.130208 0.130208 0.195312 0.195312 0.0651042 0.0976561 0.0976563 0.130208 0.130208 0.195312 0.195313 0.0651043 0.0976563 0.0976565 0.130208 0.130209 0.195313 0.195312 0.0651044 0.0976562 0.0976566 0.130208 0.130209 0.195313 0.0976566 0.065104 0.0651043 0.0976562 0.0651044 0.130208 0.195313 0.195313 0.0651041 0.0976562 0.0976562 0.0651042 0.0976562 0.0325521 0.130208 0.130208 0.195313 0.195313 0.0651041 0.0976562 0.0976562 0.130208 0.130208 0.195313 0.195312 0.0651041 0.0976562 0.0976562 0.130208 0.130208 0.195313 0.195312 0.0651041 0.0976562 0.0976562 0.130208 0.130208 0.195313 0.195313 0.0651041 0.0976562 0.0976562 0.130208 0.130208 0.195313 0.195312 0.0651042 0.0976563 0.0976562 0.130208 0.130208 0.195313 0.195312 0.0651041 0.0976562 0.0976562 0.130208 0.130208 0.195312 0.195312 0.0651041 0.0976562 0.0976561 0.130208 0.130208 0.195312 0.195312 0.0651041 0.0976562 0.0976562 0.130208 0.130208 0.195312 0.195313 0.0651041 0.0976562 0.0976562 0.130208 0.130208 0.195313 0.195313 0.0651042 0.0976563 0.0976563 0.130208 0.130208 0.195313 0.195312 0.0651042 0.0976562 0.0976563 0.130208 0.130208 0.195313 0.195313 0.0651041 0.0976562 0.0976562 0.130208 0.130208 0.195313 0.195312 0.0651042 0.0976563 0.0976562 0.130208 0.130208 0.195312 0.195312 0.0651041 0.0976562 0.0976561 0.130208 0.130208 0.195313 0.195313 0.0651041 0.0976562 0.0976563 0.130208 0.130208 0.195313 0.195313 0.0651042 0.0976563 0.0976563 0.130208 0.130208 0.195313 0.195312 0.0651042 0.0976563 0.0976564 0.130208 0.130208 0.195313 0.195313 0.0651042 0.0976564 0.0976563 0.130209 0.130209 0.195313 0.195313 0.0651043 0.0976563 0.0976565 0.130208 0.130208 0.195313 0.195313 0.0651043 0.0976563 0.0976564 0.130209 0.130208 0.195313 0.195312 0.0651042 0.0976563 0.0976563 0.130208 0.130208 0.195313 0.195313 0.0651042 0.0976563 0.0976562 0.130208 0.130208 0.195313 0.195312 0.0651042 0.0976563 0.0976563 0.130208 0.130208 0.195312 0.195313 0.0651041 0.0976563 0.0976562 0.130208 0.130209 0.195313 0.195312 0.0651042 0.0976561 0.0976564 0.130208 0.130208 0.195312 0.195312 0.065104 0.0976561 0.097656 0.130208 0.130209 0.195313 0.195313 0.0651043 0.0976564 0.0976564 0.130209 0.130208 0.195312 0.195312 0.0651042 0.0976562 0.0976563 0.130208 0.130208 0.195313 0.195313 0.0651044 0.0976563 0.0976565 0.130208 0.130209 0.195313 0.195312 0.0651044 0.0976562 0.0976566 0.130208 0.130209 0.195313 0.0976566 0.0651041 0.0651043 0.0976562 0.0651044 0.130208 0.195312 0.195312 0.0651041 0.0976562 0.0976561 0.0651041 0.0976562 0.032552 0.130208 0.130208 0.195312 0.195312 0.0651041 0.0976562 0.0976562 0.130208 0.130208 0.195312 0.195312 0.0651041 0.0976562 0.0976562 0.130208 0.130208 0.195312 0.195312 0.0651041 0.0976562 0.0976562 0.130208 0.130208 0.195312 0.195312 0.0651041 0.0976562 0.0976562 0.130208 0.130208 0.195313 0.195312 0.0651041 0.0976562 0.0976562 0.130208 0.130208 0.195312 0.195312 0.0651041 0.0976562 0.0976561 0.130208 0.130208 0.195312 0.195312 0.065104 0.0976561 0.0976561 0.130208 0.130208 0.195312 0.195312 0.0651041 0.0976561 0.0976562 0.130208 0.130208 0.195312 0.195312 0.0651041 0.0976562 0.0976562 0.130208 0.130208 0.195313 0.195313 0.0651041 0.0976562 0.0976562 0.130208 0.130208 0.195313 0.195312 0.0651041 0.0976562 0.0976562 0.130208 0.130208 0.195312 0.195312 0.0651041 0.0976562 0.0976562 0.130208 0.130208 0.195313 0.195312 0.0651041 0.0976562 0.0976562 0.130208 0.130208 0.195312 0.195312 0.0651041 0.0976562 0.0976561 0.130208 0.130208 0.195313 0.195313 0.0651041 0.0976562 0.0976562 0.130208 0.130208 0.195313 0.195313 0.0651041 0.0976563 0.0976563 0.130208 0.130208 0.195313 0.195312 0.0651042 0.0976563 0.0976563 0.130208 0.130208 0.195313 0.195313 0.0651042 0.0976563 0.0976562 0.130209 0.130208 0.195313 0.195312 0.0651042 0.0976563 0.0976564 0.130208 0.130208 0.195313 0.195313 0.0651042 0.0976563 0.0976563 0.130208 0.130208 0.195312 0.195312 0.0651041 0.0976562 0.0976562 0.130208 0.130208 0.195312 0.195313 0.0651041 0.0976562 0.0976561 0.130208 0.130208 0.195313 0.195312 0.0651042 0.0976562 0.0976562 0.130208 0.130208 0.195312 0.195312 0.0651041 0.0976562 0.0976561 0.130208 0.130208 0.195313 0.195312 0.0651042 0.0976561 0.0976564 0.130208 0.130208 0.195312 0.195312 0.0651039 0.0976561 0.0976559 0.130208 0.130209 0.195313 0.195313 0.0651042 0.0976564 0.0976564 0.130209 0.130208 0.195312 0.195312 0.0651041 0.0976561 0.0976563 0.130208 0.130208 0.195313 0.195313 0.0651043 0.0976563 0.0976564 0.130208 0.130209 0.195313 0.195312 0.0651043 0.0976562 0.0976565 0.130208 0.130209 0.195313 0.0976566 0.065104 0.0651042 0.0976562 0.0651044 0.0651042 0.195312 0.0976562 0.065104 0.0976561 0.0325521 0.0651041 0.0651041 0.032552 0.130208 0.0651042 0.195312 0.0976562 0.0651041 0.0976561 0.0651041 0.130208 0.0651042 0.195312 0.0976562 0.0651041 0.0976562 0.0651041 0.130208 0.0651042 0.195312 0.0976562 0.0651041 0.0976561 0.0651041 0.130208 0.0651042 0.195312 0.0976562 0.065104 0.0976561 0.0651041 0.130208 0.0651042 0.195312 0.0976562 0.0651041 0.0976562 0.0651041 0.130208 0.0651042 0.195312 0.0976562 0.0651041 0.0976561 0.0651041 0.130208 0.0651042 0.195312 0.0976563 0.065104 0.0976561 0.065104 0.130208 0.0651042 0.195312 0.0976562 0.065104 0.0976561 0.0651041 0.130208 0.0651042 0.195312 0.0976562 0.0651041 0.0976561 0.0651041 0.130208 0.0651042 0.195312 0.0976563 0.0651041 0.0976562 0.0651041 0.130208 0.0651043 0.195312 0.0976563 0.0651041 0.0976561 0.0651042 0.130208 0.0651042 0.195312 0.0976562 0.065104 0.0976561 0.0651041 0.130208 0.0651042 0.195312 0.0976562 0.0651041 0.0976562 0.0651041 0.130208 0.0651041 0.195312 0.0976562 0.065104 0.0976561 0.0651041 0.130208 0.0651043 0.195312 0.0976564 0.0651041 0.0976561 0.0651041 0.130208 0.0651043 0.195313 0.0976564 0.0651041 0.0976562 0.0651042 0.130208 0.0651042 0.195312 0.0976562 0.0651041 0.0976562 0.0651042 0.130208 0.0651042 0.195313 0.0976564 0.0651042 0.0976563 0.0651041 0.130209 0.0651044 0.195313 0.0976562 0.0651042 0.0976562 0.0651043 0.130208 0.0651042 0.195313 0.0976563 0.0651042 0.0976562 0.0651042 0.130208 0.0651042 0.195312 0.0976561 0.0651041 0.0976562 0.0651041 0.130208 0.0651041 0.195312 0.0976563 0.0651041 0.0976562 0.065104 0.130208 0.0651042 0.195312 0.0976563 0.0651041 0.0976562 0.0651041 0.130208 0.0651041 0.195312 0.0976562 0.065104 0.0976562 0.0651041 0.130208 0.0651044 0.195313 0.0976562 0.0651042 0.097656 0.0651043 0.130208 0.065104 0.195312 0.0976562 0.0651039 0.097656 0.0651039 0.130208 0.0651044 0.195313 0.0976565 0.0651042 0.0976563 0.0651042 0.130208 0.0651043 0.195312 0.0976561 0.0651041 0.0976561 0.0651042 0.130208 0.0651042 0.195312 0.0976563 0.0651043 0.0976562 0.0651043 0.130208 0.0651044 0.195313 0.0976563 0.0651043 0.0976561 0.0651044 0.130208 0.0651044 0.195313 0.0651043 0.065104 0.0651042 0.0651042 0.0651044 
VECTORS u float
0 0 0  -0.00611015 -0.00326192 -0.00561726  -0.0104079 -0.00561539 -0.00734544  -0.0146677 -0.00933697 -0.00784397  -0.0189274 -0.0143863 -0.00775838  -0.0230986 -0.0206194 -0.00739849  -0.0271271 -0.0278883 -0.00692958  -0.0309821 -0.0360988 -0.00641525  -0.0346493 -0.0451537 -0.00590408  -0.0381225 -0.0549798 -0.00540805  -0.0414062 -0.0655174 -0.00493658  -0.0445039 -0.0766927 -0.00448453  -0.0474219 -0.0884603 -0.00405627  -0.050164 -0.100752 -0.00365311  -0.0527375 -0.113518 -0.00327146  -0.0551506 -0.126708 -0.00291419  -0.0574176 -0.140276 -0.00258029  -0.0595348 -0.15417 -0.0022614  -0.0615213 -0.168351 -0.00197077  -0.0633707 -0.182777 -0.00169986  -0.0650985 -0.197404 -0.00143856  -0.0667143 -0.212208 -0.00121289  -0.0682149 -0.22714 -0.00100106  -0.0696132 -0.242177 -0.000812709  -0.0709295 -0.257295 -0.000644624  -0.0721564 -0.272462 -0.0005036  -0.0733097 -0.287659 -0.000373065  -0.0743959 -0.302868 -0.000264287  -0.0754173 -0.318066 -0.000184417  -0.076401 -0.333246 -0.000116825  -0.077348 -0.34839 -7.34329e-05  -0.0782642 -0.363495 -4.88758e-05  -0.0791712 -0.37857 -2.31862e-05  0 0 0  -0.00385482 -0.00132662 -0.00424349  -0.00711428 -0.00390875 -0.00550151  -0.0102772 -0.0077588 -0.00583905  -0.0134148 -0.0129141 -0.00577533  -0.0165131 -0.019261 -0.00552648  -0.0195507 -0.0266729 -0.00518352  -0.0224974 -0.0350303 -0.00480491  -0.0253318 -0.0442459 -0.00442702  -0.0280501 -0.0542251 -0.0040561  -0.0306445 -0.0649135 -0.00369543  -0.0331161 -0.0762415 -0.00335968  -0.0354681 -0.0881442 -0.00304157  -0.0377055 -0.100571 -0.00273669  -0.0398308 -0.113469 -0.00245267  -0.0418522 -0.126777 -0.00218272  -0.0437686 -0.140452 -0.0019334  -0.045577 -0.154447 -0.00169492  -0.0473025 -0.168724 -0.00147885  -0.0489302 -0.183231 -0.00127441  -0.0504715 -0.197938 -0.00108546  -0.0519323 -0.212806 -0.000912488  -0.0533183 -0.227801 -0.000755727  -0.0546298 -0.242892 -0.00061208  -0.0558729 -0.25805 -0.000490665  -0.0570576 -0.273264 -0.000380576  -0.0581815 -0.28849 -0.000284672  -0.0592587 -0.303721 -0.000206232  -0.0602915 -0.318943 -0.000143826  -0.0612791 -0.334133 -9.69172e-05  -0.0622418 -0.349289 -6.11544e-05  -0.0631793 -0.364399 -3.74913e-05  -0.0640984 -0.379467 -1.58548e-05  0 0 0  -0.00232226 -0.00019896 -0.00291497  -0.00432296 -0.00265814 -0.00372875  -0.00640503 -0.00660951 -0.00391364  -0.00850928 -0.0118796 -0.00385118  -0.010599 -0.0183387 -0.00367528  -0.0126609 -0.0258583 -0.00344259  -0.0146906 -0.0343281 -0.00319183  -0.016677 -0.0436594 -0.00294489  -0.018611 -0.0537652 -0.0026924  -0.0204899 -0.0645701 -0.00245267  -0.0223089 -0.0760131 -0.00222743  -0.0240695 -0.0880294 -0.00201303  -0.0257722 -0.100567 -0.00181389  -0.0274221 -0.113564 -0.00162613  -0.0290104 -0.126971 -0.00144625  -0.0305457 -0.140739 -0.00127542  -0.0320313 -0.154819 -0.00112081  -0.0334585 -0.169167 -0.000974417  -0.0348375 -0.183746 -0.000836849  -0.0361688 -0.198515 -0.000715137  -0.0374501 -0.21344 -0.000599504  -0.0386827 -0.228487 -0.000497162  -0.0398748 -0.24362 -0.000402451  -0.0410244 -0.258817 -0.000323474  -0.0421371 -0.27406 -0.000250459  -0.0432069 -0.289313 -0.000189781  -0.0442462 -0.304571 -0.000136614  -0.0452561 -0.319806 -9.61423e-05  -0.0462363 -0.335012 -6.43134e-05  -0.047194 -0.350179 -4.32134e-05  -0.0481293 -0.365294 -2.37823e-05  -0.0490499 -0.380352 -2.98023e-07  0 0 0  -0.00107381 0.000293016 -0.00144804  -0.00198027 -0.00196314 -0.00187099  -0.00297949 -0.00594983 -0.00195849  -0.00402522 -0.0113062 -0.00191981  -0.00509906 -0.0178533 -0.00182796  -0.00619131 -0.0254594 -0.00170952  -0.00730032 -0.0340165 -0.00158322  -0.00842708 -0.0434304 -0.00145304  -0.00956452 -0.0536226 -0.00132865  -0.0107098 -0.0645172 -0.00120729  -0.0118531 -0.0760473 -0.00109005  -0.013008 -0.0881509 -0.000984371  -0.0141582 -0.10077 -0.000880599  -0.0153102 -0.113845 -0.000788271  -0.016456 -0.127326 -0.000696421  -0.0175999 -0.141166 -0.00061357  -0.0187271 -0.155309 -0.000535429  -0.0198519 -0.169716 -0.000467002  -0.0209608 -0.184349 -0.000400007  -0.0220559 -0.199166 -0.000332952  -0.023144 -0.214134 -0.000280797  -0.0242169 -0.229218 -0.000230491  -0.0252683 -0.244383 -0.000190377  -0.0263076 -0.259613 -0.000145257  -0.0273263 -0.274876 -0.000113845  -0.0283279 -0.290152 -8.15988e-05  -0.0293164 -0.305422 -6.22272e-05  -0.030288 -0.320675 -4.22001e-05  -0.0312474 -0.335893 -2.63453e-05  -0.0321875 -0.351069 -1.61529e-05  -0.0331149 -0.36619 -7.09295e-06  -0.0340257 -0.381241 4.58956e-06  0 0 0  6.96927e-05 0.000391185 5.6386e-05  0.000147611 -0.0018194 3.23653e-05  0.000210881 -0.00582454 2.36034e-05  0.000225365 -0.0112344 1.91927e-05  0.000180125 -0.0178329 2.23517e-05  6.69956e-05 -0.0254909 2.68817e-05  -0.000120223 -0.0341037 2.93255e-05  -0.000383019 -0.0435705 3.21865e-05  -0.000720739 -0.053821 4.18425e-05  -0.00112545 -0.064775 4.39286e-05  -0.0015949 -0.0763672 4.93526e-05  -0.0021286 -0.0885287 5.05447e-05  -0.00272298 -0.101206 5.10812e-05  -0.00335765 -0.114332 5.13792e-05  -0.00405121 -0.127867 5.17964e-05  -0.00478721 -0.14175 5.32269e-05  -0.00555611 -0.15594 4.78029e-05  -0.00636339 -0.17039 4.9293e-05  -0.00719762 -0.185061 4.68493e-05  -0.00805569 -0.19991 4.47035e-05  -0.00893593 -0.214905 4.10676e-05  -0.00983047 -0.230013 3.54052e-05  -0.0107379 -0.245205 3.40939e-05  -0.0116553 -0.260454 3.19481e-05  -0.0125761 -0.275732 2.94447e-05  -0.0135033 -0.291021 2.34842e-05  -0.0144331 -0.306304 1.96099e-05  -0.0153606 -0.321559 1.70469e-05  -0.0162847 -0.336787 1.06096e-05  -0.017206 -0.351965 1.60933e-06  -0.0181191 -0.367093 3.93391e-06  -0.0190325 -0.382142 -6.49691e-06  0 0 0  0.00119628 0.000162303 0.0015524  0.00226372 -0.00218511 0.00192302  0.00338465 -0.00624466 0.00199252  0.00446409 -0.011673 0.00195271  0.00544542 -0.0182865 0.0018639  0.00630534 -0.0259605 0.0017522  0.00703561 -0.0345914 0.00163692  0.00763261 -0.0440875 0.00151968  0.00809598 -0.0543674 0.00140291  0.00843215 -0.0653527 0.00129044  0.00863791 -0.0769776 0.00118876  0.00872481 -0.0891735 0.00108325  0.00869691 -0.101879 0.000986338  0.00856543 -0.115043 0.000894547  0.00832868 -0.128601 0.000802338  0.00800538 -0.142514 0.000718951  0.00759387 -0.156733 0.000635445  0.0071063 -0.171203 0.000562251  0.00655198 -0.185892 0.000493109  0.00593519 -0.200757 0.000425339  0.00526285 -0.215771 0.000362158  0.0045445 -0.230891 0.000306189  0.0037818 -0.246092 0.000256896  0.00298738 -0.261347 0.000209391  0.00215864 -0.276632 0.000170946  0.00131345 -0.291925 0.000130117  0.000451326 -0.307207 9.80496e-05  -0.000427485 -0.322465 7.33137e-05  -0.00132251 -0.337693 4.69685e-05  -0.00222611 -0.35287 2.85506e-05  -0.00312924 -0.367997 7.80821e-06  -0.00403237 -0.383044 -6.3777e-06  0 0 0  0.00239901 -0.000438035 0.00300324  0.00456265 -0.00307423 0.00374782  0.00676256 -0.00719023 0.00391018  0.00889027 -0.0126064 0.00384772  0.0108809 -0.0192006 0.00368088  0.0127058 -0.026861 0.00346756  0.0143503 -0.0354872 0.00323337  0.0158 -0.0449837 0.00299656  0.0170536 -0.0552646 0.00276434  0.0181221 -0.0662586 0.00253946  0.0189984 -0.0778893 0.00232005  0.0197014 -0.0900965 0.00211251  0.0202264 -0.102808 0.00191653  0.0205957 -0.11598 0.00172883  0.0208148 -0.12955 0.0015496  0.0208941 -0.143468 0.00138205  0.0208385 -0.157689 0.00122237  0.0206664 -0.172161 0.00107044  0.0203829 -0.186853 0.000936329  0.0200007 -0.201721 0.000801682  0.0195317 -0.216732 0.000682414  0.0189836 -0.23185 0.00057447  0.0183597 -0.247051 0.000475883  0.0176837 -0.2623 0.000389099  0.0169468 -0.277582 0.000301421  0.0161741 -0.292871 0.000235856  0.0153656 -0.308148 0.000172734  0.0145257 -0.323402 0.00012666  0.0136576 -0.338617 8.6844e-05  0.0127735 -0.353789 4.98891e-05  0.0118814 -0.368911 2.25902e-05  0.0109739 -0.383971 -1.055e-05  0 0 0  0.00389437 -0.00159144 0.00435352  0.00726381 -0.00450861 0.00546533  0.0105357 -0.00861788 0.00576866  0.0136902 -0.0139874 0.00571489  0.016678 -0.0205446 0.00548375  0.019456 -0.0281769 0.00516933  0.0220013 -0.0367791 0.00482017  0.0242972 -0.0462546 0.00446528  0.0263388 -0.0565161 0.00411582  0.0281194 -0.0674922 0.00377607  0.0296609 -0.0791051 0.00344825  0.0309567 -0.0912935 0.00313663  0.0320293 -0.103992 0.00284106  0.0328859 -0.117147 0.00255841  0.0335428 -0.130703 0.00229126  0.0340075 -0.144605 0.0020386  0.034297 -0.15881 0.0017994  0.0344207 -0.173271 0.00157934  0.0343988 -0.187948 0.00136864  0.0342438 -0.202801 0.00117779  0.0339608 -0.217795 0.00099498  0.0335658 -0.232892 0.000837147  0.0330718 -0.248075 0.000687242  0.0324926 -0.263311 0.000551283  0.0318444 -0.278574 0.000436187  0.0311248 -0.29385 0.000333607  0.030354 -0.309116 0.000248551  0.0295386 -0.324359 0.000175238  0.028693 -0.339558 0.000123143  0.0278177 -0.354719 7.9751e-05  0.0269208 -0.369832 3.99947e-05  0.0260205 -0.384899 6.79493e-06  0 0 0  0.00593255 -0.00352746 0.00549459  0.0104219 -0.00639242 0.00720674  0.0147734 -0.0104418 0.00767136  0.0190086 -0.0157832 0.0076009  0.0230328 -0.0223117 0.00728482  0.0267817 -0.0299063 0.00686324  0.0302286 -0.0384712 0.0063917  0.0333548 -0.0478996 0.00591809  0.0361574 -0.0581194 0.00544465  0.0386417 -0.0690488 0.00499535  0.040817 -0.0806239 0.00456089  0.0426946 -0.092771 0.00414538  0.0442832 -0.105435 0.00374925  0.0456091 -0.118552 0.00337869  0.0466777 -0.132073 0.00301838  0.0475037 -0.145941 0.00268525  0.0481136 -0.160104 0.00236857  0.0485168 -0.174537 0.00206977  0.0487359 -0.189171 0.00179702  0.0487733 -0.203992 0.00154036  0.048655 -0.218954 0.00130278  0.0484004 -0.234021 0.00108582  0.0480051 -0.249172 0.000889003  0.047507 -0.264377 0.000714064  0.0469086 -0.279616 0.000558972  0.0462272 -0.294861 0.000427842  0.0454662 -0.310105 0.000310361  0.044657 -0.325326 0.000216365  0.0437961 -0.340508 0.000142813  0.0429082 -0.355654 9.75132e-05  0.0420034 -0.370757 5.60284e-05  0.0410872 -0.385828 2.33054e-05  0 0 0  -0.00488617 -0.0045657 -0.00355679  -0.00969781 -0.00740006 -0.00526345  -0.0144598 -0.0111691 -0.00583339  -0.0190229 -0.01615 -0.00584435  -0.0233653 -0.0222681 -0.00560242  -0.0274787 -0.0294119 -0.00524729  -0.0313709 -0.0374913 -0.00485903  -0.035047 -0.0464293 -0.00446719  -0.0385158 -0.0561478 -0.0040862  -0.0417866 -0.0665749 -0.00372624  -0.0448653 -0.0776546 -0.00338429  -0.0477647 -0.0893256 -0.00306064  -0.0504824 -0.101528 -0.0027557  -0.0530416 -0.114212 -0.00247103  -0.0554366 -0.127325 -0.00219929  -0.0576804 -0.140818 -0.00195092  -0.0597785 -0.154648 -0.00171047  -0.061743 -0.168759 -0.00148886  -0.0635722 -0.183127 -0.00128734  -0.0652812 -0.197701 -0.00109696  -0.0668721 -0.21245 -0.000924051  -0.0683589 -0.227341 -0.000767827  -0.069746 -0.242339 -0.000624597  -0.0710382 -0.257421 -0.000500917  -0.0722511 -0.272556 -0.000388801  -0.0733838 -0.287729 -0.00029701  -0.0744562 -0.302915 -0.000219643  -0.0754693 -0.318098 -0.00015533  -0.0764368 -0.333261 -0.000108659  -0.0773706 -0.348401 -7.48038e-05  -0.0782833 -0.363507 -5.45979e-05  -0.0791981 -0.378591 -3.62992e-05  0 0 0  -0.00270332 -0.00234661 -0.00269693  -0.00647135 -0.00537864 -0.00395417  -0.0101074 -0.00940414 -0.00437361  -0.0135211 -0.0145755 -0.004381  -0.016777 -0.020861 -0.00419939  -0.0198929 -0.0281756 -0.00393564  -0.0228712 -0.0364206 -0.00364077  -0.0257145 -0.0455192 -0.00334501  -0.0284275 -0.0553943 -0.00306016  -0.0310063 -0.0659797 -0.00278741  -0.0334646 -0.0772077 -0.00253147  -0.0357991 -0.0890177 -0.0022893  -0.0380175 -0.101358 -0.00205982  -0.0401237 -0.114169 -0.00184709  -0.0421218 -0.1274 -0.0016436  -0.044018 -0.141005 -0.00145561  -0.045814 -0.154936 -0.00127894  -0.0475159 -0.169144 -0.00111473  -0.0491292 -0.183594 -0.000960588  -0.0506494 -0.198246 -0.000820816  -0.0520918 -0.213062 -0.000687957  -0.0534585 -0.22801 -0.000572324  -0.0547521 -0.243064 -0.000469148  -0.0559797 -0.25819 -0.000373721  -0.0571463 -0.273365 -0.000290394  -0.0582588 -0.28857 -0.000222445  -0.0593181 -0.303779 -0.000163496  -0.0603373 -0.31898 -0.000115395  -0.0613222 -0.334161 -8.29697e-05  -0.0622721 -0.349307 -5.49555e-05  -0.0632019 -0.364411 -3.78489e-05  -0.0641239 -0.37949 -2.00868e-05  0 0 0  -0.00155941 -0.00112453 -0.00186956  -0.00389411 -0.0040324 -0.00269896  -0.00630343 -0.00817488 -0.00295055  -0.00860181 -0.013489 -0.00293934  -0.0108033 -0.0199066 -0.00280589  -0.0129261 -0.027345 -0.00262457  -0.0149822 -0.0357177 -0.00242597  -0.016976 -0.044939 -0.00222695  -0.0189066 -0.05494 -0.00203359  -0.0207733 -0.0656482 -0.00185215  -0.0225819 -0.0769924 -0.00167871  -0.0243256 -0.0889191 -0.00151592  -0.0260155 -0.101365 -0.00136214  -0.0276458 -0.11428 -0.00122082  -0.0292215 -0.12761 -0.00108677  -0.0307415 -0.141302 -0.000960708  -0.0322082 -0.155316 -0.000840604  -0.0336246 -0.1696 -0.000734866  -0.0349889 -0.184122 -0.000631809  -0.036304 -0.198838 -0.000535965  -0.0375712 -0.213706 -0.000454187  -0.0387926 -0.228708 -0.000375509  -0.0399694 -0.243802 -0.000305831  -0.0411057 -0.258965 -0.000245273  -0.0422032 -0.274173 -0.000191569  -0.0432646 -0.289405 -0.000145257  -0.0442934 -0.304631 -0.000107408  -0.0452933 -0.319853 -7.69496e-05  -0.0462639 -0.335043 -5.42998e-05  -0.0472169 -0.350198 -3.48091e-05  -0.0481474 -0.365311 -2.35438e-05  -0.0490701 -0.380374 -7.27177e-06  0 0 0  -0.000709958 -0.000638783 -0.000947058  -0.00179268 -0.0033229 -0.00136316  -0.00295779 -0.00749287 -0.00148708  -0.00411227 -0.012896 -0.00147545  -0.00524557 -0.0194109 -0.00140446  -0.0063715 -0.0269411 -0.00131041  -0.00749969 -0.0354045 -0.00120836  -0.00862783 -0.0447175 -0.00110418  -0.00976408 -0.0548085 -0.00100702  -0.0109024 -0.0656033 -0.000914037  -0.0120453 -0.0770385 -0.000825465  -0.0131859 -0.0890498 -0.000743866  -0.0143259 -0.10158 -0.000661492  -0.0154612 -0.114572 -0.000591755  -0.0165985 -0.127977 -0.000522435  -0.0177246 -0.141739 -0.000464499  -0.0188482 -0.155815 -0.000405073  -0.0199583 -0.17016 -0.000347376  -0.0210607 -0.184735 -0.000298142  -0.0221479 -0.199499 -0.000254154  -0.0232244 -0.214414 -0.000213385  -0.0242841 -0.229448 -0.000173032  -0.025326 -0.244576 -0.000141203  -0.0263569 -0.25977 -0.00011003  -0.0273671 -0.275002 -8.63075e-05  -0.0283647 -0.290249 -6.54459e-05  -0.0293458 -0.305497 -4.79817e-05  -0.0303109 -0.320726 -3.31998e-05  -0.0312586 -0.335927 -2.3663e-05  -0.0321991 -0.351092 -1.53184e-05  -0.0331204 -0.366206 -8.70228e-06  -0.0340407 -0.381261 -5.78165e-06  0 0 0  2.53767e-05 -0.000544578 1.03116e-05  0.000106901 -0.00316969 1.63913e-05  0.000153035 -0.0073573 9.71556e-06  0.000152946 -0.0128118 3.39746e-06  9.42945e-05 -0.0193845 4.52995e-06  -2.92063e-05 -0.0269729 6.61612e-06  -0.000224948 -0.0354903 1.19209e-05  -0.000489593 -0.0448622 1.8239e-05  -0.000824451 -0.0550124 2.34246e-05  -0.00122607 -0.0658695 2.98619e-05  -0.00169277 -0.0773616 3.23057e-05  -0.0022186 -0.0894346 3.60608e-05  -0.00280309 -0.102021 3.8147e-05  -0.00343764 -0.11507 3.73125e-05  -0.0041213 -0.128525 3.8147e-05  -0.00484836 -0.142334 3.94583e-05  -0.00561285 -0.156455 3.79682e-05  -0.00641203 -0.170841 3.62396e-05  -0.00724077 -0.185452 3.48687e-05  -0.00809383 -0.200249 3.27826e-05  -0.00896716 -0.215194 3.02196e-05  -0.00985789 -0.230253 2.91467e-05  -0.0107563 -0.245402 2.68817e-05  -0.0116718 -0.260611 2.37823e-05  -0.0125895 -0.275857 2.14577e-05  -0.0135124 -0.291119 1.75834e-05  -0.0144398 -0.306377 1.44839e-05  -0.015363 -0.321616 1.00732e-05  -0.0162852 -0.336824 8.64267e-06  -0.0172036 -0.351989 4.94719e-06  -0.0181165 -0.367106 1.13249e-06  -0.0190258 -0.382152 -2.5034e-06  0 0 0  0.000759095 -0.000765085 0.000959039  0.00199482 -0.00352132 0.00138646  0.00325069 -0.00776654 0.00149506  0.00439662 -0.013243 0.00147486  0.00541067 -0.0198332 0.0014044  0.00628698 -0.0274397 0.00131929  0.00702143 -0.0359831 0.00122774  0.00762308 -0.0453839 0.00113815  0.00808752 -0.0555623 0.00105125  0.00842083 -0.0664503 0.000968039  0.00862885 -0.0779799 0.000889182  0.00871813 -0.0900837 0.000811577  0.0086931 -0.102705 0.000738621  0.00856185 -0.115784 0.000671685  0.00832999 -0.129269 0.000602245  0.00800633 -0.143107 0.000538409  0.00760055 -0.157251 0.000479758  0.00711536 -0.171661 0.000421822  0.00656199 -0.186287 0.000370026  0.00594616 -0.201102 0.000319958  0.00527692 -0.216059 0.000276387  0.00455904 -0.231136 0.000234902  0.00379896 -0.246293 0.000193954  0.00300717 -0.261511 0.00015837  0.00218081 -0.276759 0.000128627  0.00133014 -0.292027 0.000100017  0.000461102 -0.307285 7.59959e-05  -0.000418901 -0.322525 5.58496e-05  -0.00131106 -0.337732 3.95179e-05  -0.00221348 -0.3529 2.50936e-05  -0.00311613 -0.368014 1.26362e-05  -0.00402212 -0.383068 -4.58956e-06  0 0 0  0.00158697 -0.00135827 0.00187033  0.00407842 -0.00440615 0.00269377  0.00655529 -0.00871402 0.0029276  0.00883096 -0.0141791 0.00290871  0.0108992 -0.0207468 0.00278276  0.0127622 -0.0283409 0.00261492  0.0144199 -0.0368789 0.00243479  0.0158775 -0.0462776 0.00225294  0.0171348 -0.0564626 0.00207555  0.0181977 -0.0673571 0.00190598  0.0190769 -0.0788936 0.0017423  0.019774 -0.0910075 0.00158674  0.0203016 -0.103635 0.00143957  0.0206668 -0.116724 0.00129914  0.0208828 -0.130216 0.00116742  0.0209575 -0.144061 0.00103921  0.0209022 -0.15821 0.000920475  0.0207274 -0.172622 0.000806153  0.0204437 -0.187253 0.000702977  0.0200613 -0.202065 0.000605762  0.0195894 -0.217023 0.000519156  0.0190377 -0.232096 0.000435829  0.0184162 -0.24725 0.000359118  0.0177336 -0.262464 0.000293195  0.0169954 -0.277712 0.000233889  0.0162163 -0.29297 0.000181496  0.0154004 -0.308225 0.000136197  0.0145557 -0.323456 9.98974e-05  0.0136862 -0.338659 7.06315e-05  0.0128002 -0.353816 4.62532e-05  0.011899 -0.368934 2.3663e-05  0.011004 -0.383994 3.21865e-06  0 0 0  0.00273326 -0.00256729 0.00271934  0.00660151 -0.00590944 0.00390619  0.0102693 -0.0101913 0.00429285  0.0136394 -0.015592 0.00430012  0.0167384 -0.0221087 0.00413597  0.0195748 -0.029663 0.00389665  0.0221444 -0.038173 0.0036301  0.0244479 -0.0475472 0.00335717  0.026489 -0.0577121 0.00309116  0.0282701 -0.0685851 0.00283635  0.0298018 -0.080108 0.00258821  0.0310963 -0.0922066 0.00235665  0.0321624 -0.104821 0.00213343  0.0330142 -0.117894 0.00192261  0.0336655 -0.13137 0.00172234  0.0341258 -0.145201 0.00153387  0.0344114 -0.159334 0.00135815  0.0345352 -0.17373 0.00119007  0.0345063 -0.188347 0.00103277  0.0343425 -0.203142 0.000887573  0.0340562 -0.218085 0.000757873  0.0336533 -0.23314 0.000632226  0.0331581 -0.248277 0.000522554  0.0325713 -0.263475 0.000424206  0.0319118 -0.278702 0.00033474  0.0311875 -0.293948 0.000259936  0.0304077 -0.309186 0.000195622  0.0295839 -0.324407 0.000141919  0.0287278 -0.339599 9.89437e-05  0.0278473 -0.354748 6.53267e-05  0.0269518 -0.369858 4.13656e-05  0.026051 -0.384933 1.69873e-05  0 0 0  0.00484395 -0.00484538 0.00357759  0.00978023 -0.00803095 0.00509977  0.0145114 -0.0121397 0.00565171  0.0189621 -0.0174488 0.00568527  0.0231006 -0.0238973 0.00547713  0.0269091 -0.0314005 0.00516421  0.0303823 -0.0398576 0.00481063  0.0335203 -0.049186 0.00445044  0.0363237 -0.0593053 0.00409865  0.0388043 -0.0701364 0.00375664  0.0409706 -0.0816181 0.0034309  0.0428416 -0.0936795 0.00311971  0.0444312 -0.106254 0.00282651  0.045746 -0.11929 0.00254178  0.0468116 -0.132731 0.00227773  0.0476341 -0.146526 0.00202715  0.0482414 -0.160629 0.00178862  0.0486391 -0.174987 0.00156784  0.0488458 -0.189569 0.00135809  0.0488822 -0.204329 0.00117183  0.0487597 -0.219237 0.000993729  0.0484929 -0.234263 0.000828147  0.0480978 -0.249368 0.000684559  0.0475914 -0.264533 0.000554979  0.0469804 -0.279735 0.000434756  0.0462902 -0.29495 0.00033778  0.0455251 -0.310171 0.00025034  0.0447044 -0.325366 0.000181437  0.0438395 -0.340544 0.000128448  0.0429416 -0.355676 8.83937e-05  0.0420272 -0.370776 6.15716e-05  0.0411248 -0.385859 3.38554e-05  0 0 0  -0.0049107 -0.0053465 -0.00206602  -0.00952302 -0.00853022 -0.0032897  -0.0142953 -0.0124156 -0.00380307  -0.0189567 -0.0173814 -0.00388342  -0.0233871 -0.0234398 -0.00375217  -0.0275681 -0.0305101 -0.00352758  -0.0315033 -0.0385108 -0.00326574  -0.0352011 -0.0473619 -0.00300437  -0.0386801 -0.0569961 -0.00274682  -0.0419518 -0.0673513 -0.0025025  -0.0450273 -0.0783598 -0.00227278  -0.0479167 -0.0899652 -0.00205755  -0.0506303 -0.1021 -0.0018521  -0.0531733 -0.114727 -0.00166237  -0.0555638 -0.127784 -0.00148076  -0.057801 -0.141223 -0.00131363  -0.0598922 -0.155002 -0.00115782  -0.0618429 -0.169073 -0.00100422  -0.0636621 -0.183393 -0.000872791  -0.065361 -0.197929 -0.000748694  -0.0669482 -0.212646 -0.000632882  -0.0684261 -0.227504 -0.000530481  -0.0698013 -0.24247 -0.000432551  -0.0710843 -0.257525 -0.00034827  -0.0722899 -0.27264 -0.000278115  -0.0734217 -0.287791 -0.000217497  -0.074486 -0.302962 -0.000162601  -0.0754955 -0.318131 -0.000122249  -0.0764608 -0.333287 -9.07183e-05  -0.0773945 -0.348419 -7.08103e-05  -0.0783091 -0.363521 -5.88298e-05  -0.0792239 -0.378608 -4.50015e-05  0 0 0  -0.00248406 -0.00292511 -0.00151908  -0.00617446 -0.00631858 -0.00248355  -0.00991338 -0.0105015 -0.0028674  -0.0134668 -0.0157132 -0.0029279  -0.0168319 -0.0219782 -0.00282419  -0.0200207 -0.029235 -0.0026502  -0.023043 -0.0374153 -0.00245142  -0.0259061 -0.0464416 -0.00225055  -0.0286261 -0.0562434 -0.00205505  -0.031208 -0.0667553 -0.00187093  -0.0336583 -0.0779119 -0.00169945  -0.0359846 -0.0896587 -0.00153601  -0.0381929 -0.101935 -0.00138378  -0.0402881 -0.114686 -0.0012399  -0.0422758 -0.127861 -0.00110412  -0.0441622 -0.141414 -0.000976503  -0.045944 -0.155291 -0.000860631  -0.0476339 -0.169458 -0.000750184  -0.0492339 -0.183866 -0.000646949  -0.0507495 -0.198478 -0.000553668  -0.0521815 -0.213259 -0.000468791  -0.0535367 -0.228175 -0.000392079  -0.0548203 -0.2432 -0.000321329  -0.0560398 -0.258301 -0.000259042  -0.0571976 -0.273454 -0.000204027  -0.0582976 -0.288635 -0.000161827  -0.0593541 -0.303832 -0.000120401  -0.0603633 -0.319015 -9.04202e-05  -0.0613425 -0.334186 -6.73532e-05  -0.0622923 -0.349328 -5.06639e-05  -0.0632226 -0.364434 -3.98159e-05  -0.0641425 -0.379504 -2.77758e-05  0 0 0  -0.00140313 -0.00156574 -0.00104618  -0.00365354 -0.00481433 -0.00169373  -0.00614947 -0.00915578 -0.00194252  -0.00856394 -0.0145497 -0.00196981  -0.010859 -0.0209772 -0.00189418  -0.0130458 -0.0283838 -0.00177258  -0.0151353 -0.0367006 -0.00163448  -0.0171434 -0.0458585 -0.0014962  -0.0190818 -0.0557887 -0.00136769  -0.0209479 -0.066423 -0.00124192  -0.0227498 -0.0777029 -0.00112599  -0.0244876 -0.0895634 -0.0010168  -0.0261692 -0.101946 -0.000912964  -0.0277908 -0.114803 -0.000816822  -0.029356 -0.128075 -0.000728965  -0.0308686 -0.141716 -0.000643909  -0.0323248 -0.155679 -0.000564516  -0.0337298 -0.169921 -0.000494421  -0.0350823 -0.184398 -0.000423968  -0.0363908 -0.199072 -0.000364125  -0.0376477 -0.21391 -0.000308454  -0.0388598 -0.228876 -0.000253737  -0.0400298 -0.243943 -0.000210822  -0.0411568 -0.259081 -0.000169158  -0.0422447 -0.274265 -0.000133514  -0.0433035 -0.289473 -0.000103951  -0.0443227 -0.304689 -7.90954e-05  -0.045315 -0.319893 -5.88894e-05  -0.0462856 -0.335075 -4.15444e-05  -0.047231 -0.350224 -3.3319e-05  -0.0481613 -0.365333 -2.54512e-05  -0.0490813 -0.380397 -1.61529e-05  0 0 0  -0.000635706 -0.00101864 -0.000529945  -0.00167756 -0.0040189 -0.000860929  -0.00288782 -0.00839698 -0.000983953  -0.00410926 -0.0139066 -0.000993729  -0.00530094 -0.0204486 -0.000951886  -0.00646412 -0.0279624 -0.000887096  -0.00761402 -0.0363788 -0.000816524  -0.00875324 -0.0456308 -0.00074482  -0.00989175 -0.0556561 -0.000676334  -0.0110288 -0.0663827 -0.000612974  -0.0121657 -0.0777536 -0.000551164  -0.0133026 -0.089699 -0.000497162  -0.0144348 -0.102166 -0.000444293  -0.0155686 -0.115099 -0.000397205  -0.0166937 -0.128448 -0.000351965  -0.0178146 -0.142157 -0.00031054  -0.0189288 -0.156186 -0.000270307  -0.0200348 -0.170485 -0.000233769  -0.0211282 -0.185018 -0.000201821  -0.0222077 -0.199739 -0.000170112  -0.0232739 -0.214618 -0.000142574  -0.0243292 -0.229624 -0.0001176  -0.0253654 -0.244722 -9.48906e-05  -0.0263908 -0.259888 -7.68304e-05  -0.027396 -0.275096 -6.31809e-05  -0.0283878 -0.290324 -4.50015e-05  -0.0293612 -0.305555 -3.25441e-05  -0.0303247 -0.320771 -2.47955e-05  -0.0312715 -0.335961 -2.05636e-05  -0.0322044 -0.35112 -1.5676e-05  -0.0331287 -0.36623 -9.95398e-06  -0.0340486 -0.381284 -6.19888e-06  0 0 0  1.81049e-05 -0.000903308 4.70877e-06  7.83801e-05 -0.0038386 3.03984e-06  0.000115931 -0.00823647 -2.563e-06  0.000105917 -0.0138017 -4.29153e-06  3.38554e-05 -0.0204115 -4.23193e-06  -9.58443e-05 -0.0279844 5.96046e-07  -0.000295103 -0.0364629 4.35114e-06  -0.000562429 -0.0457772 9.71556e-06  -0.000896573 -0.0558613 1.58548e-05  -0.00129831 -0.0666503 1.82986e-05  -0.00176179 -0.0780779 2.19941e-05  -0.00228655 -0.0900903 2.25902e-05  -0.00286448 -0.102613 2.57492e-05  -0.00349534 -0.115601 2.86698e-05  -0.00417352 -0.129001 2.6226e-05  -0.00489759 -0.14276 2.79546e-05  -0.0056572 -0.156831 2.69413e-05  -0.00645232 -0.171172 2.49743e-05  -0.00727391 -0.185741 2.52128e-05  -0.00812054 -0.200497 2.36034e-05  -0.0089922 -0.215402 2.31862e-05  -0.00987768 -0.230433 2.14577e-05  -0.0107737 -0.24555 1.82986e-05  -0.0116832 -0.260735 1.67489e-05  -0.0126014 -0.275957 1.60933e-05  -0.0135193 -0.291196 1.34706e-05  -0.0144424 -0.306438 1.04904e-05  -0.0153654 -0.321662 8.04663e-06  -0.0162854 -0.336859 5.96046e-06  -0.0172033 -0.352017 3.75509e-06  -0.0181193 -0.36713 -1.19209e-07  -0.0190253 -0.382183 -4.29153e-06  0 0 0  0.000663981 -0.00112599 0.000535607  0.00182986 -0.00419891 0.000861287  0.00310937 -0.00865185 0.00097537  0.00430226 -0.0142379 0.000980377  0.00534981 -0.0208618 0.000939429  0.00624609 -0.0284536 0.000882268  0.00699383 -0.0369542 0.000822604  0.00759947 -0.0462978 0.000761628  0.00806892 -0.0564146 0.00070256  0.00840569 -0.0672331 0.000648201  0.00861442 -0.078699 0.000595212  0.0087049 -0.0907371 0.000544667  0.00868094 -0.103297 0.000496686  0.00854969 -0.116321 0.000448823  0.00832117 -0.129751 0.000408709  0.00799966 -0.143534 0.000364065  0.0075953 -0.157629 0.00032419  0.0071156 -0.171992 0.000286102  0.00656509 -0.18658 0.000252664  0.00595188 -0.201354 0.000219226  0.00528479 -0.216274 0.000189066  0.00456762 -0.231316 0.000159681  0.00380707 -0.246445 0.000133455  0.00301075 -0.261635 0.00011307  0.0021894 -0.27686 8.86321e-05  0.00134039 -0.292106 7.20024e-05  0.000472069 -0.307347 5.78165e-05  -0.000408888 -0.322575 4.27961e-05  -0.00130177 -0.337769 3.11732e-05  -0.00220323 -0.352927 2.31862e-05  -0.00310731 -0.36804 1.22786e-05  -0.00401115 -0.383097 2.74181e-06  0 0 0  0.00141206 -0.00175631 0.00104254  0.00379246 -0.00514257 0.001679  0.00633055 -0.00965112 0.00191438  0.00869972 -0.0152074 0.00193691  0.010836 -0.0217929 0.00186598  0.0127433 -0.0293616 0.00175619  0.0144272 -0.0378542 0.00163293  0.0158954 -0.0471951 0.00151062  0.0171608 -0.0573139 0.00138915  0.0182285 -0.0681418 0.00127786  0.0191063 -0.0796127 0.00116736  0.0198029 -0.0916631 0.00106531  0.0203314 -0.104232 0.000964999  0.0206956 -0.117259 0.00087148  0.0209116 -0.130697 0.000783443  0.0209882 -0.14449 0.000698566  0.0209334 -0.158591 0.000620663  0.0207586 -0.172954 0.000543296  0.0204744 -0.187544 0.000476599  0.0200918 -0.202317 0.000413179  0.0196202 -0.21724 0.000353038  0.0190675 -0.232278 0.000297189  0.0184414 -0.247404 0.000248551  0.0177579 -0.262589 0.000203013  0.0170217 -0.277813 0.000163734  0.0162392 -0.293049 0.000128269  0.0154197 -0.308284 0.000101328  0.0145724 -0.323507 7.50422e-05  0.0137014 -0.338697 5.6684e-05  0.0128202 -0.353847 3.96967e-05  0.0119188 -0.36896 2.55704e-05  0.0110183 -0.384025 9.41753e-06  0 0 0  0.00249919 -0.00306112 0.00153238  0.00625381 -0.00678086 0.00244778  0.0100038 -0.0112264 0.00280875  0.0134885 -0.0166755 0.00286317  0.0166749 -0.0231833 0.00277239  0.0195662 -0.0307001 0.00261271  0.0221695 -0.0391536 0.00243419  0.0244905 -0.0484626 0.00225115  0.0265375 -0.0585592 0.00207067  0.0283229 -0.069369 0.00190198  0.0298551 -0.0808242 0.00173551  0.03115 -0.0928589 0.00157976  0.0322149 -0.105411 0.00143385  0.0330662 -0.118425 0.00129145  0.0337147 -0.131848 0.00115973  0.0341759 -0.145627 0.00103396  0.0344584 -0.159711 0.000916362  0.0345802 -0.174064 0.000804603  0.0345531 -0.188636 0.000702083  0.034385 -0.203392 0.000606596  0.0340965 -0.218298 0.000516355  0.0336964 -0.233319 0.00043565  0.0331974 -0.248429 0.000360191  0.032608 -0.263597 0.000295639  0.0319428 -0.278803 0.000238299  0.0312154 -0.294026 0.000186443  0.0304341 -0.309248 0.000141621  0.0296087 -0.324454 0.00011003  0.0287504 -0.339633 7.90954e-05  0.0278678 -0.354775 5.82337e-05  0.0269716 -0.369882 4.11272e-05  0.0260692 -0.384953 2.21729e-05  0 0 0  0.0047161 -0.00559127 0.00202805  0.00951722 -0.0091005 0.00319833  0.0142603 -0.0133007 0.00368536  0.0187904 -0.0186006 0.00376713  0.0230063 -0.0250082 0.00365764  0.0268663 -0.0324497 0.0034532  0.0303743 -0.0408423 0.00322348  0.0335302 -0.0500989 0.0029847  0.0363407 -0.0601476 0.00274581  0.0388286 -0.070912 0.00251907  0.0409942 -0.0823252 0.00230205  0.0428689 -0.0943221 0.00209594  0.0444564 -0.106835 0.00190163  0.0457726 -0.119814 0.00171173  0.046838 -0.1332 0.00153255  0.0476613 -0.146944 0.00136632  0.0482693 -0.160998 0.00120968  0.0486662 -0.175315 0.00106364  0.048877 -0.189854 0.000924647  0.0489135 -0.204573 0.000799775  0.048789 -0.219444 0.000680029  0.0485179 -0.234432 0.00057435  0.0481226 -0.249513 0.000473201  0.0476117 -0.264651 0.000385284  0.0470006 -0.279825 0.000311315  0.0463114 -0.295021 0.000243843  0.0455449 -0.310222 0.000185192  0.044723 -0.32541 0.000140369  0.0438566 -0.340571 0.000106394  0.0429614 -0.355704 7.89165e-05  0.0420516 -0.370804 5.8651e-05  0.0411448 -0.385884 4.27365e-05  0 0 0  -0.00500311 -0.00571596 -0.000974178  -0.00951965 -0.0091338 -0.00158226  -0.0142279 -0.0131156 -0.00187433  -0.0188929 -0.0181001 -0.00194228  -0.0233602 -0.0241392 -0.00189233  -0.0275782 -0.0311644 -0.00178254  -0.0315396 -0.0391217 -0.00164998  -0.0352562 -0.0479286 -0.0015192  -0.0387439 -0.0575183 -0.00139213  -0.0420214 -0.067828 -0.00126803  -0.0450935 -0.078793 -0.00115502  -0.0479848 -0.0903555 -0.00104737  -0.0506988 -0.102455 -0.000943422  -0.053239 -0.115046 -0.000846028  -0.055622 -0.128069 -0.000758171  -0.0578488 -0.141479 -0.000672936  -0.0599391 -0.155224 -0.000595093  -0.0618861 -0.169268 -0.000522137  -0.0637038 -0.183564 -0.000453115  -0.0654004 -0.198081 -0.000395536  -0.0669789 -0.212769 -0.00033617  -0.0684519 -0.227602 -0.000280619  -0.069824 -0.242562 -0.000237346  -0.0711055 -0.257597 -0.000196218  -0.0723069 -0.272699 -0.000160456  -0.0734355 -0.287836 -0.000132799  -0.0744984 -0.302997 -0.000104666  -0.0755026 -0.318161 -8.60691e-05  -0.0764732 -0.33331 -6.98566e-05  -0.0774019 -0.34844 -6.36578e-05  -0.0783222 -0.363543 -5.82933e-05  -0.0792334 -0.378626 -4.69685e-05  0 0 0  -0.0024388 -0.0031989 -0.000708342  -0.00607502 -0.00681528 -0.00119734  -0.00981238 -0.0111148 -0.00141788  -0.0134064 -0.0163712 -0.00146914  -0.0168229 -0.0226354 -0.00142682  -0.0200561 -0.0298715 -0.0013423  -0.0231071 -0.0380157 -0.00124013  -0.0259904 -0.0470018 -0.00113845  -0.0287182 -0.0567577 -0.00104189  -0.0313034 -0.0672267 -0.000947833  -0.033751 -0.0783443 -0.000859976  -0.0360751 -0.0900493 -0.000778794  -0.0382783 -0.102287 -0.00070262  -0.0403721 -0.115005 -0.000631332  -0.0423553 -0.128147 -0.000561476  -0.0442287 -0.141668 -0.000498533  -0.0460091 -0.155517 -0.00044024  -0.0476966 -0.169656 -0.000385165  -0.0492887 -0.184036 -0.000335813  -0.050797 -0.198627 -0.000289917  -0.0522249 -0.213385 -0.000249386  -0.0535753 -0.228284 -0.000209212  -0.0548561 -0.24329 -0.000174284  -0.0560668 -0.258373 -0.000145197  -0.0572205 -0.27351 -0.000118852  -0.05832 -0.288684 -9.65595e-05  -0.0593693 -0.303869 -7.64132e-05  -0.0603766 -0.31905 -6.07967e-05  -0.061352 -0.334213 -5.34058e-05  -0.0623059 -0.349349 -4.62532e-05  -0.0632317 -0.364451 -3.85046e-05  -0.0641525 -0.379529 -3.3021e-05  0 0 0  -0.00135287 -0.00177844 -0.00048399  -0.00356217 -0.00522205 -0.000813365  -0.0060614 -0.00968939 -0.000962019  -0.00852245 -0.0151497 -0.000988603  -0.0108633 -0.0215978 -0.000958681  -0.013086 -0.0289981 -0.000898957  -0.0152035 -0.0372882 -0.000829101  -0.017227 -0.0464109 -0.000757933  -0.019172 -0.0563021 -0.000690699  -0.0210404 -0.0668958 -0.000629067  -0.0228393 -0.0781325 -0.00056982  -0.024578 -0.0899533 -0.000516772  -0.0262512 -0.102302 -0.000464439  -0.0278685 -0.115121 -0.000414252  -0.0294296 -0.128362 -0.000371099  -0.0309343 -0.141973 -0.000327826  -0.0323858 -0.155905 -0.000288367  -0.0337856 -0.17012 -0.000254035  -0.0351357 -0.184571 -0.000219226  -0.0364351 -0.199222 -0.000189304  -0.0376878 -0.21404 -0.000161409  -0.0388961 -0.228987 -0.00013721  -0.0400596 -0.244034 -0.000113726  -0.0411813 -0.259155 -9.48906e-05  -0.042269 -0.274327 -7.56979e-05  -0.0433164 -0.289524 -5.94854e-05  -0.0443358 -0.304728 -4.8399e-05  -0.0453255 -0.319927 -4.07696e-05  -0.0462954 -0.335102 -3.51667e-05  -0.0472393 -0.350245 -3.03984e-05  -0.0481715 -0.365352 -2.53916e-05  -0.0490911 -0.380419 -1.69277e-05  0 0 0  -0.000610903 -0.00119641 -0.000246525  -0.001633 -0.00436816 -0.000411987  -0.0028486 -0.00887692 -0.000487685  -0.00409591 -0.0144659 -0.000500083  -0.00531697 -0.0210461 -0.000483274  -0.00650412 -0.0285615 -0.000452042  -0.00766915 -0.0369595 -0.000411868  -0.00882065 -0.0461812 -0.000376582  -0.00996006 -0.0561689 -0.000344038  -0.0110989 -0.0668553 -0.000309587  -0.0122366 -0.0781846 -0.000277996  -0.0133696 -0.0900902 -0.000249743  -0.0145012 -0.102525 -0.000224352  -0.015627 -0.115422 -0.00019896  -0.016749 -0.128737 -0.000177741  -0.017867 -0.142416 -0.000153661  -0.0189755 -0.156415 -0.000137448  -0.0200729 -0.170685 -0.000120044  -0.0211635 -0.185192 -0.000100017  -0.0222392 -0.19989 -8.7738e-05  -0.0233057 -0.21475 -7.58171e-05  -0.0243526 -0.229734 -6.02007e-05  -0.0253878 -0.244815 -5.36442e-05  -0.026407 -0.259966 -4.20809e-05  -0.0274105 -0.275158 -3.03984e-05  -0.0284023 -0.290376 -2.87294e-05  -0.0293739 -0.305594 -2.38419e-05  -0.0303323 -0.320806 -1.65701e-05  -0.0312798 -0.33599 -1.51396e-05  -0.0322096 -0.351141 -1.33514e-05  -0.0331361 -0.366251 -1.32322e-05  -0.0340488 -0.381306 -1.26362e-05  0 0 0  1.66744e-05 -0.00106546 8.34465e-07  6.4224e-05 -0.0041602 -7.15256e-07  9.54866e-05 -0.00869197 -2.38419e-06  7.84397e-05 -0.0143455 -4.64916e-06  2.44379e-06 -0.0209942 -2.86102e-06  -0.000133634 -0.0285766 -7.15256e-07  -0.000335515 -0.0370371 3.93391e-06  -0.000604987 -0.0463243 5.36442e-06  -0.000939846 -0.0563712 7.98702e-06  -0.00134063 -0.0671229 9.89437e-06  -0.00180316 -0.0785128 1.32322e-05  -0.00232422 -0.0904832 1.62125e-05  -0.00290179 -0.102973 1.54972e-05  -0.00353038 -0.115928 1.72853e-05  -0.0042057 -0.129292 1.66893e-05  -0.00492406 -0.143021 1.85966e-05  -0.00568295 -0.157064 1.5974e-05  -0.00647163 -0.171376 1.74046e-05  -0.00729418 -0.185917 1.60933e-05  -0.00813842 -0.200649 1.32322e-05  -0.00900459 -0.215536 1.60933e-05  -0.00989008 -0.230545 1.29938e-05  -0.0107865 -0.245647 1.0848e-05  -0.0116935 -0.260815 1.10865e-05  -0.0126069 -0.276022 1.09673e-05  -0.0135238 -0.291253 8.46386e-06  -0.0144451 -0.306479 8.70228e-06  -0.0153661 -0.321696 3.57628e-06  -0.0162907 -0.336888 2.14577e-06  -0.0172055 -0.35204 3.09944e-06  -0.0181196 -0.367151 -1.90735e-06  -0.0190282 -0.382209 -4.64916e-06  0 0 0  0.000634357 -0.00129288 0.000245452  0.00175804 -0.00453216 0.000411272  0.00302929 -0.00911742 0.000479221  0.00423604 -0.0147893 0.000492692  0.00530052 -0.0214461 0.000475526  0.00621116 -0.0290447 0.00044632  0.0069679 -0.0375299 0.000417113  0.00757802 -0.0468447 0.000388265  0.00804961 -0.056923 0.000356793  0.0083909 -0.0677083 0.000330806  0.00860107 -0.0791327 0.000303984  0.00869477 -0.0911384 0.000280261  0.00866973 -0.10366 0.000253558  0.00854146 -0.116646 0.00023222  0.00831497 -0.13004 0.000210285  0.00799298 -0.143796 0.000189543  0.00759196 -0.157862 0.00017333  0.00710797 -0.172199 0.000150323  0.00656104 -0.186758 0.00013423  0.00594735 -0.201509 0.000116587  0.00528169 -0.216408 0.000101686  0.00456953 -0.23143 8.84533e-05  0.00380754 -0.246543 7.4029e-05  0.00301743 -0.261714 6.2108e-05  0.00219154 -0.276927 5.24521e-05  0.0013411 -0.292162 4.37498e-05  0.000475168 -0.307391 3.51667e-05  -0.000404358 -0.322608 2.8491e-05  -0.00129938 -0.3378 1.84774e-05  -0.00220084 -0.352952 1.52588e-05  -0.00310254 -0.368064 1.14441e-05  -0.00400209 -0.383119 1.28746e-05  0 0 0  0.00135598 -0.00195104 0.000482917  0.00367069 -0.00552058 0.000805736  0.00620133 -0.0101566 0.000946283  0.00860202 -0.0157841 0.000973105  0.0107756 -0.0223942 0.000942111  0.0127105 -0.0299623 0.000890017  0.0144113 -0.0384308 0.000827551  0.0158923 -0.0477399 0.0007658  0.0171614 -0.0578254 0.000706315  0.0182348 -0.0686134 0.000650287  0.0191129 -0.0800489 0.000595331  0.0198109 -0.0920585 0.000543475  0.0203385 -0.104593 0.000496268  0.0207074 -0.117585 0.00044632  0.0209222 -0.130989 0.000404  0.0209987 -0.14475 0.000364304  0.0209455 -0.158823 0.000323296  0.0207701 -0.173163 0.000285029  0.0204892 -0.187724 0.000252843  0.0201058 -0.202475 0.000219345  0.0196304 -0.217375 0.000188351  0.0190756 -0.232391 0.000163078  0.0184557 -0.247499 0.000138998  0.0177705 -0.262671 0.00011313  0.017029 -0.27788 9.50098e-05  0.0162468 -0.293104 7.7486e-05  0.015429 -0.308331 5.98431e-05  0.0145798 -0.323541 5.1856e-05  0.0137093 -0.338725 4.1008e-05  0.0128217 -0.353872 3.12328e-05  0.0119259 -0.368983 2.2769e-05  0.0110297 -0.384049 1.65701e-05  0 0 0  0.00243214 -0.00330848 0.00071466  0.00611728 -0.00724167 0.00117826  0.00985593 -0.0118029 0.00138879  0.0133736 -0.017297 0.00143635  0.0166016 -0.0238116 0.00139916  0.0195281 -0.0313106 0.00132179  0.0221541 -0.0397334 0.00123239  0.0244876 -0.0490106 0.00114322  0.0265435 -0.0590686 0.00105214  0.028331 -0.0698395 0.000966787  0.0298688 -0.0812552 0.000884414  0.0311613 -0.0932527 0.000805378  0.0322303 -0.10577 0.000734687  0.0330808 -0.118751 0.000664353  0.0337291 -0.13214 0.000596166  0.0341904 -0.145887 0.00053525  0.0344732 -0.159944 0.000475883  0.0345936 -0.174267 0.000422001  0.0345674 -0.188815 0.000369906  0.0344012 -0.203547 0.000321984  0.0341108 -0.218432 0.000277638  0.0337105 -0.233431 0.000236273  0.0332093 -0.248524 0.000198007  0.0326221 -0.263675 0.000167012  0.0319574 -0.278867 0.000138283  0.0312274 -0.294079 0.000112176  0.0304461 -0.309292 9.01222e-05  0.0296204 -0.324489 7.41482e-05  0.0287623 -0.339662 6.07967e-05  0.0278802 -0.354801 4.57764e-05  0.0269806 -0.369903 3.89814e-05  0.0260863 -0.384981 2.83718e-05  0 0 0  0.00474657 -0.00595355 0.000956178  0.00945675 -0.00967067 0.00152981  0.0141334 -0.0139532 0.00181282  0.0186653 -0.0192691 0.00188339  0.0229087 -0.0256624 0.00184155  0.026803 -0.0330721 0.00174701  0.0303321 -0.0414265 0.00162935  0.033501 -0.0506457 0.00151229  0.0363237 -0.0606548 0.00139534  0.0388114 -0.0713782 0.00128424  0.0409867 -0.0827525 0.00117445  0.0428621 -0.0947086 0.00106931  0.0444494 -0.107191 0.00097394  0.0457669 -0.120134 0.000878692  0.0468335 -0.133489 0.000789881  0.0476606 -0.1472 0.000706434  0.0482664 -0.16122 0.000631094  0.0486679 -0.175513 0.000557423  0.048877 -0.190023 0.000488281  0.048914 -0.204718 0.000422716  0.0487916 -0.219576 0.000368118  0.0485222 -0.234542 0.000314355  0.0481288 -0.249602 0.000263572  0.0476174 -0.264726 0.000217676  0.0470121 -0.279893 0.000183225  0.0463147 -0.295072 0.000144362  0.0455511 -0.310264 0.000120401  0.0447309 -0.325443 9.36985e-05  0.0438626 -0.340596 7.80821e-05  0.0429709 -0.355723 6.47306e-05  0.0420628 -0.370823 5.04255e-05  0.0411577 -0.385906 4.55379e-05  0 0 0  -0.00503403 -0.00582536 -2.59876e-05  -0.00953028 -0.00932373 -3.56436e-05  -0.014209 -0.013343 -3.61204e-05  -0.0188709 -0.0183434 -3.68357e-05  -0.0233434 -0.0243718 -3.23057e-05  -0.027572 -0.0313909 -2.99215e-05  -0.0315465 -0.0393282 -2.75373e-05  -0.0352702 -0.0481225 -2.88486e-05  -0.0387622 -0.0576973 -2.68221e-05  -0.0420381 -0.0679918 -2.77758e-05  -0.0451186 -0.0789419 -2.89679e-05  -0.0480075 -0.090492 -3.016e-05  -0.050716 -0.102582 -2.94447e-05  -0.0532556 -0.115158 -2.99215e-05  -0.0556399 -0.128171 -2.95639e-05  -0.0578649 -0.14157 -3.48091e-05  -0.0599484 -0.155308 -2.99215e-05  -0.0618989 -0.169339 -3.68357e-05  -0.0637102 -0.183626 -3.12328e-05  -0.0654106 -0.198135 -3.65973e-05  -0.0669887 -0.212817 -3.55244e-05  -0.0684605 -0.227651 -3.8743e-05  -0.069834 -0.242593 -3.86238e-05  -0.0711126 -0.257624 -3.8743e-05  -0.0723152 -0.272723 -4.24385e-05  -0.0734386 -0.28786 -4.23193e-05  -0.0744991 -0.303018 -4.44651e-05  -0.0755093 -0.318175 -4.93526e-05  -0.0764723 -0.333329 -4.68493e-05  -0.0774076 -0.348455 -4.93526e-05  -0.0783272 -0.363559 -5.1856e-05  -0.0792391 -0.378642 -5.42402e-05  0 0 0  -0.00242855 -0.00328376 -5.00679e-06  -0.00604972 -0.00697005 -2.41995e-05  -0.00978279 -0.0113158 -2.7895e-05  -0.0133863 -0.0165893 -2.90871e-05  -0.0168158 -0.022857 -2.46763e-05  -0.0200606 -0.0300869 -2.39611e-05  -0.0231225 -0.0382189 -2.06232e-05  -0.0260122 -0.04719 -2.09808e-05  -0.0287442 -0.0569359 -1.83582e-05  -0.0313306 -0.0673916 -2.13385e-05  -0.0337802 -0.0784944 -1.90735e-05  -0.0361034 -0.0901883 -1.96695e-05  -0.0383055 -0.102412 -2.15769e-05  -0.0403956 -0.115116 -2.20537e-05  -0.0423762 -0.128249 -2.03848e-05  -0.0442529 -0.14176 -2.30074e-05  -0.0460312 -0.155599 -2.26498e-05  -0.0477154 -0.169727 -2.20537e-05  -0.0493042 -0.184101 -2.38419e-05  -0.0508151 -0.198683 -2.57492e-05  -0.0522392 -0.213435 -2.67029e-05  -0.0535872 -0.228328 -2.70605e-05  -0.0548654 -0.243325 -2.47955e-05  -0.0560763 -0.258405 -3.20673e-05  -0.0572298 -0.27354 -2.7895e-05  -0.0583262 -0.288709 -3.45707e-05  -0.0593748 -0.303889 -3.24249e-05  -0.0603843 -0.319067 -3.56436e-05  -0.0613596 -0.334231 -3.71933e-05  -0.062309 -0.349367 -3.69549e-05  -0.063237 -0.364468 -3.79086e-05  -0.0641572 -0.379546 -3.88622e-05  0 0 0  -0.00134102 -0.00184213 -1.06096e-05  -0.00353806 -0.0053488 -1.63317e-05  -0.00603199 -0.00986281 -2.07424e-05  -0.00850531 -0.0153477 -1.80006e-05  -0.0108623 -0.0218058 -1.72853e-05  -0.0130956 -0.0292033 -1.51396e-05  -0.0152223 -0.0374876 -1.16825e-05  -0.0172524 -0.0465992 -1.13249e-05  -0.0191965 -0.0564763 -1.2517e-05  -0.0210668 -0.0670577 -1.26362e-05  -0.0228665 -0.078284 -1.10865e-05  -0.0246038 -0.0900934 -1.45435e-05  -0.0262769 -0.102427 -9.65595e-06  -0.0278943 -0.115236 -1.35899e-05  -0.0294511 -0.128465 -1.10865e-05  -0.0309564 -0.142063 -1.06096e-05  -0.0324066 -0.155989 -1.34706e-05  -0.033803 -0.170192 -1.51396e-05  -0.0351515 -0.184637 -1.45435e-05  -0.0364506 -0.199279 -1.60933e-05  -0.0377028 -0.214087 -1.44243e-05  -0.038908 -0.229029 -1.94311e-05  -0.0400705 -0.244072 -1.88351e-05  -0.0411921 -0.25919 -1.5378e-05  -0.0422771 -0.274355 -1.69277e-05  -0.0433278 -0.289546 -2.15769e-05  -0.0443437 -0.304749 -2.08616e-05  -0.0453322 -0.319942 -2.26498e-05  -0.0463004 -0.335118 -2.43187e-05  -0.0472453 -0.35026 -2.2769e-05  -0.0481758 -0.365369 -2.37226e-05  -0.0490985 -0.380434 -2.67029e-05  0 0 0  -0.000604093 -0.00124815 -7.62939e-06  -0.00162008 -0.00447509 -7.7486e-06  -0.00283575 -0.00903156 -1.18017e-05  -0.00409031 -0.0146495 -8.22544e-06  -0.0053215 -0.0212424 -8.34465e-06  -0.0065152 -0.0287629 -6.4373e-06  -0.00768661 -0.0371541 -3.69549e-06  -0.00884044 -0.0463674 -3.93391e-06  -0.00998557 -0.0563416 -5.72205e-06  -0.011124 -0.0670188 -3.8147e-06  -0.0122583 -0.0783339 -3.69549e-06  -0.0133898 -0.0902298 -4.17233e-06  -0.0145183 -0.102649 -3.33786e-06  -0.0156485 -0.115537 -1.66893e-06  -0.0167665 -0.128838 -1.90735e-06  -0.017884 -0.142509 -4.52995e-06  -0.0189896 -0.156497 -3.21865e-06  -0.0200884 -0.170761 -2.98023e-06  -0.021173 -0.185257 -4.05312e-06  -0.0222511 -0.199948 -4.52995e-06  -0.023314 -0.214802 -6.79493e-06  -0.024363 -0.229777 -4.64916e-06  -0.0253942 -0.244853 -5.36442e-06  -0.0264173 -0.260001 -6.91414e-06  -0.0274179 -0.275186 -6.31809e-06  -0.0284045 -0.290402 -1.22786e-05  -0.0293756 -0.305617 -1.01328e-05  -0.0303366 -0.320826 -1.18017e-05  -0.0312798 -0.336007 -1.22786e-05  -0.0322161 -0.351157 -1.20401e-05  -0.033138 -0.366264 -1.21593e-05  -0.0340464 -0.381322 -1.21593e-05  0 0 0  1.58399e-05 -0.00111133 -2.38419e-07  6.12736e-05 -0.00425968 -2.02656e-06  8.78274e-05 -0.00883806 -4.76837e-07  6.87838e-05 -0.0145216 1.54972e-06  -7.21216e-06 -0.0211854 1.90735e-06  -0.000145614 -0.0287724 2.6226e-06  -0.000349462 -0.0372313 3.57628e-06  -0.000620365 -0.0465082 4.29153e-06  -0.000956297 -0.0565472 3.8147e-06  -0.00135469 -0.0672874 5.36442e-06  -0.00181556 -0.0786646 5.48363e-06  -0.00233746 -0.09062 8.70228e-06  -0.00291514 -0.103098 5.84126e-06  -0.00354171 -0.116042 7.03335e-06  -0.00421751 -0.129395 6.67572e-06  -0.00493515 -0.143116 5.126e-06  -0.00568914 -0.157146 7.51019e-06  -0.00647998 -0.171451 7.39098e-06  -0.00730109 -0.185982 3.57628e-06  -0.00814247 -0.200708 6.91414e-06  -0.00900841 -0.215589 5.48363e-06  -0.00989413 -0.230588 4.17233e-06  -0.0107861 -0.245687 5.60284e-06  -0.011694 -0.260848 3.69549e-06  -0.0126092 -0.276054 5.00679e-06  -0.0135262 -0.291277 3.09944e-06  -0.0144467 -0.306504 2.14577e-06  -0.0153687 -0.321717 2.86102e-06  -0.016289 -0.336907 2.26498e-06  -0.0172057 -0.352059 -1.19209e-06  -0.0181217 -0.367169 -1.54972e-06  -0.0190303 -0.382222 -1.19209e-06  0 0 0  0.000626326 -0.00134146 3.69549e-06  0.00173602 -0.00463355 8.22544e-06  0.00300342 -0.00926423 9.53674e-06  0.00421065 -0.0149676 1.03712e-05  0.0052821 -0.0216417 1.0848e-05  0.00619763 -0.0292426 1.14441e-05  0.00695676 -0.0377235 1.28746e-05  0.00757062 -0.04703 1.23978e-05  0.00804245 -0.0571012 1.10865e-05  0.00838196 -0.067871 1.33514e-05  0.00859404 -0.0792849 1.2517e-05  0.00868618 -0.0912771 1.4782e-05  0.00866461 -0.103785 1.5378e-05  0.00853646 -0.11676 1.38283e-05  0.00830841 -0.130146 1.69277e-05  0.00798917 -0.143889 1.65701e-05  0.00758815 -0.157948 1.69277e-05  0.00710797 -0.172273 1.64509e-05  0.00656009 -0.186825 1.69277e-05  0.00594878 -0.201569 1.52588e-05  0.00528336 -0.21646 1.83582e-05  0.00456667 -0.231476 1.51396e-05  0.00381231 -0.246581 1.56164e-05  0.00301719 -0.26175 1.71661e-05  0.00219488 -0.276959 1.44243e-05  0.00134516 -0.292188 1.39475e-05  0.00047946 -0.307417 1.4782e-05  -0.000406265 -0.322629 1.27554e-05  -0.00129628 -0.337816 1.26362e-05  -0.00219679 -0.352969 1.06096e-05  -0.00309944 -0.368079 1.03712e-05  -0.00400567 -0.383142 7.03335e-06  0 0 0  0.00133882 -0.00200963 8.10623e-06  0.00363582 -0.00563765 1.5974e-05  0.00615698 -0.01032 2.07424e-05  0.00856513 -0.0159725 1.97887e-05  0.0107508 -0.0225945 2.16961e-05  0.0126945 -0.030163 2.03848e-05  0.014402 -0.0386278 2.18153e-05  0.0158867 -0.0479285 2.12193e-05  0.0171614 -0.0579998 2.12193e-05  0.0182316 -0.0687787 2.28882e-05  0.0191132 -0.0801973 2.41995e-05  0.0198123 -0.0921994 2.21729e-05  0.0203387 -0.104719 2.36034e-05  0.0207081 -0.1177 2.563e-05  0.0209246 -0.131092 2.71797e-05  0.0209997 -0.144846 2.45571e-05  0.020947 -0.158908 2.8491e-05  0.020772 -0.173238 2.46763e-05  0.0204914 -0.187792 2.74181e-05  0.0201077 -0.202533 2.63453e-05  0.0196335 -0.217425 2.65837e-05  0.0190842 -0.232438 2.76566e-05  0.0184574 -0.247541 2.71797e-05  0.0177705 -0.262704 2.74181e-05  0.0170321 -0.277906 2.61068e-05  0.0162504 -0.29313 2.45571e-05  0.0154321 -0.308351 2.83718e-05  0.0145791 -0.323564 2.46763e-05  0.0137155 -0.338741 2.41995e-05  0.0128264 -0.353891 2.51532e-05  0.0119295 -0.368995 2.45571e-05  0.0110302 -0.384065 2.58684e-05  0 0 0  0.0024171 -0.00338459 1.70469e-05  0.0060797 -0.00738418 2.5034e-05  0.00980556 -0.0119887 2.75373e-05  0.0133296 -0.0175037 2.93255e-05  0.016571 -0.0240205 2.88486e-05  0.0195072 -0.0315154 3.05176e-05  0.022139 -0.0399327 2.94447e-05  0.0244813 -0.0491986 3.14713e-05  0.0265396 -0.0592464 3.03984e-05  0.0283316 -0.0700008 3.03984e-05  0.029869 -0.0814058 3.25441e-05  0.0311624 -0.0933904 3.016e-05  0.0322289 -0.105896 3.26633e-05  0.0330802 -0.118866 3.27826e-05  0.0337305 -0.132244 3.48091e-05  0.0341923 -0.14598 3.61204e-05  0.0344756 -0.160029 3.68357e-05  0.0345972 -0.174342 3.51667e-05  0.0345669 -0.18888 3.69549e-05  0.0344024 -0.203607 3.8147e-05  0.034116 -0.218482 3.56436e-05  0.0337129 -0.233476 4.05312e-05  0.033211 -0.248561 3.73125e-05  0.0326242 -0.26371 3.70741e-05  0.031961 -0.278898 3.86238e-05  0.0312297 -0.294102 3.96967e-05  0.0304499 -0.309311 3.80278e-05  0.0296237 -0.324506 4.04119e-05  0.0287647 -0.339677 3.71933e-05  0.0278826 -0.354821 3.94583e-05  0.0269849 -0.369921 3.46899e-05  0.0260811 -0.384996 3.3617e-05  0 0 0  0.00476666 -0.00606573 4.04119e-05  0.00944635 -0.0098508 2.34842e-05  0.014097 -0.0141672 3.40939e-05  0.0186221 -0.0194923 3.43323e-05  0.0228725 -0.0258812 3.79086e-05  0.0267725 -0.0332845 3.85046e-05  0.0303125 -0.0416269 3.61204e-05  0.033486 -0.0508307 3.99351e-05  0.0363121 -0.0608269 3.95775e-05  0.038805 -0.0715407 3.82662e-05  0.0409795 -0.082905 4.1008e-05  0.0428549 -0.0948452 3.86238e-05  0.0444428 -0.107315 4.11272e-05  0.0457627 -0.120247 4.18425e-05  0.0468308 -0.133588 4.68493e-05  0.0476573 -0.147294 4.36306e-05  0.0482616 -0.161303 4.73261e-05  0.0486658 -0.175585 4.93526e-05  0.0488756 -0.190089 5.04255e-05  0.048912 -0.204781 4.92334e-05  0.0487897 -0.219623 4.79221e-05  0.048526 -0.234588 5.04255e-05  0.0481305 -0.249643 4.85182e-05  0.0476205 -0.264756 5.14984e-05  0.0470111 -0.279917 4.88758e-05  0.04632 -0.295098 5.30481e-05  0.0455534 -0.310283 4.99487e-05  0.0447347 -0.32546 5.126e-05  0.0438721 -0.340614 5.01871e-05  0.0429764 -0.355742 4.79221e-05  0.0420675 -0.37084 4.74453e-05  0.0411549 -0.385924 4.93526e-05  0 0 0  -0.00499208 -0.00571646 0.00090909  -0.00951408 -0.00915057 0.00150371  -0.014221 -0.0131314 0.00179756  -0.0188867 -0.0181165 0.00187171  -0.023356 -0.0241521 0.00182843  -0.027577 -0.0311817 0.00172341  -0.0315393 -0.0391379 0.00159609  -0.0352598 -0.0479447 0.00146544  -0.0387471 -0.0575335 0.00133526  -0.0420239 -0.0678437 0.00121379  -0.0451013 -0.0788118 0.00109816  -0.0479873 -0.090371 0.000987053  -0.0506967 -0.102475 0.000887275  -0.0532409 -0.115066 0.000787139  -0.0556246 -0.128088 0.00069809  -0.0578511 -0.141497 0.000611067  -0.0599368 -0.155244 0.000529766  -0.0618844 -0.169286 0.000455141  -0.0637047 -0.183585 0.000385523  -0.0654004 -0.198099 0.000323653  -0.0669813 -0.212786 0.00026536  -0.0684519 -0.227628 0.000208735  -0.0698285 -0.242579 0.000160217  -0.0711081 -0.25762 0.000115037  -0.0723076 -0.272719 7.66516e-05  -0.0734322 -0.287861 4.27961e-05  -0.0744987 -0.303018 1.84774e-05  -0.0755055 -0.318186 -6.4373e-06  -0.076472 -0.333336 -2.53916e-05  -0.0774062 -0.34846 -3.70741e-05  -0.0783229 -0.363571 -4.43459e-05  -0.0792296 -0.37865 -5.54323e-05  0 0 0  -0.00243288 -0.00320813 0.000695944  -0.00606802 -0.00682698 0.00114155  -0.00980854 -0.0111285 0.00135994  -0.0134085 -0.0163842 0.00141466  -0.0168226 -0.0226491 0.0013783  -0.0200552 -0.0298859 0.00129652  -0.0231075 -0.0380291 0.0011996  -0.0259917 -0.0470143 0.00109851  -0.0287209 -0.0567723 0.00100076  -0.0313045 -0.0672429 0.000909328  -0.0337536 -0.0783608 0.000822306  -0.0360771 -0.0900682 0.000738502  -0.0382811 -0.102307 0.000660896  -0.0403715 -0.115023 0.000589371  -0.0423548 -0.128164 0.000520587  -0.0442331 -0.141686 0.000456214  -0.0460124 -0.155537 0.000395417  -0.0476964 -0.169674 0.000341535  -0.0492883 -0.184057 0.000288963  -0.0507996 -0.198645 0.000240803  -0.0522282 -0.213409 0.000193954  -0.0535769 -0.228307 0.000157833  -0.0548563 -0.24331 0.000118613  -0.0560684 -0.258393 8.44002e-05  -0.0572243 -0.273537 5.51939e-05  -0.05832 -0.288708 3.12328e-05  -0.0593719 -0.303892 1.09673e-05  -0.0603814 -0.319073 -5.72205e-06  -0.0613551 -0.334238 -2.15769e-05  -0.062304 -0.349374 -3.18289e-05  -0.0632341 -0.364478 -3.42131e-05  -0.0641568 -0.379552 -4.57764e-05  0 0 0  -0.00134623 -0.00178367 0.000461459  -0.00356084 -0.00522804 0.000772834  -0.00605839 -0.00969881 0.000921249  -0.00852138 -0.0151618 0.000953197  -0.0108631 -0.0216106 0.000928283  -0.0130864 -0.0290093 0.000868917  -0.0152028 -0.0373013 0.000802159  -0.0172296 -0.0464252 0.000735164  -0.0191711 -0.0563154 0.000666738  -0.0210413 -0.0669128 0.000605345  -0.0228413 -0.0781521 0.000546217  -0.0245786 -0.0899708 0.000491381  -0.0262542 -0.10232 0.00044179  -0.0278711 -0.11514 0.00039053  -0.0294313 -0.128381 0.00034678  -0.0309368 -0.141989 0.000302315  -0.032388 -0.155924 0.000263214  -0.0337882 -0.170139 0.000226617  -0.0351343 -0.18459 0.000193834  -0.0364373 -0.199242 0.000161052  -0.0376866 -0.214058 0.000129819  -0.0388963 -0.229008 0.000104427  -0.0400603 -0.244056 7.98702e-05  -0.0411839 -0.259177 5.59092e-05  -0.0422707 -0.274348 3.65973e-05  -0.0433197 -0.289548 2.18153e-05  -0.0443399 -0.304753 5.84126e-06  -0.0453291 -0.31995 -5.24521e-06  -0.0462983 -0.335125 -1.32322e-05  -0.0472438 -0.350269 -1.88351e-05  -0.0481739 -0.365379 -2.68221e-05  -0.0490968 -0.380443 -2.94447e-05  0 0 0  -0.000605807 -0.0011982 0.0002321  -0.00163046 -0.00437355 0.000391603  -0.00284725 -0.00888583 0.000466228  -0.0040969 -0.0144773 0.000483155  -0.00531745 -0.0210574 0.000469685  -0.00650513 -0.0285703 0.000437379  -0.00766903 -0.0369716 0.000405073  -0.00882334 -0.0461951 0.000368118  -0.00996351 -0.0561821 0.000334501  -0.0111018 -0.0668708 0.00030303  -0.0122362 -0.0781995 0.000273466  -0.0133713 -0.090111 0.000243425  -0.014501 -0.102542 0.000218511  -0.0156283 -0.11544 0.000194788  -0.0167519 -0.128757 0.000171065  -0.0178665 -0.142436 0.000147104  -0.0189764 -0.156435 0.000129819  -0.0200763 -0.170706 0.000112176  -0.0211663 -0.185212 9.50098e-05  -0.0222449 -0.199912 7.67708e-05  -0.023309 -0.214769 6.41346e-05  -0.0243576 -0.229757 4.98295e-05  -0.0253904 -0.244837 3.68357e-05  -0.0264091 -0.259988 2.80142e-05  -0.027411 -0.275178 1.8239e-05  -0.0284016 -0.290396 9.53674e-06  -0.0293746 -0.30562 2.5034e-06  -0.0303354 -0.320829 -4.29153e-06  -0.0312815 -0.336013 -7.03335e-06  -0.0322149 -0.351167 -1.27554e-05  -0.0331368 -0.366276 -1.54972e-05  -0.0340545 -0.381332 -1.62125e-05  0 0 0  1.72257e-05 -0.00106546 -5.126e-06  6.30617e-05 -0.00416324 -2.74181e-06  9.4384e-05 -0.00869855 1.54972e-06  7.51019e-05 -0.0143556 5.60284e-06  1.01328e-06 -0.0210056 6.31809e-06  -0.000134647 -0.028587 6.67572e-06  -0.000338852 -0.0370488 4.76837e-06  -0.000607789 -0.0463389 2.26498e-06  -0.000940919 -0.0563879 2.38419e-07  -0.00134087 -0.0671399 -2.38419e-07  -0.00180435 -0.0785298 -2.6226e-06  -0.00232649 -0.090499 -1.54972e-06  -0.00290513 -0.102992 -4.76837e-06  -0.00353241 -0.115945 -3.57628e-06  -0.00420642 -0.129312 -3.69549e-06  -0.00492585 -0.143039 -3.93391e-06  -0.00568557 -0.157083 -2.6226e-06  -0.0064733 -0.171395 -3.93391e-06  -0.00729418 -0.185939 -2.98023e-06  -0.0081408 -0.20067 -2.86102e-06  -0.00900626 -0.215559 -3.33786e-06  -0.0098877 -0.23057 -1.07288e-06  -0.0107872 -0.245669 -2.86102e-06  -0.011694 -0.260837 -2.98023e-06  -0.0126104 -0.276045 -2.86102e-06  -0.0135269 -0.291275 -1.66893e-06  -0.0144494 -0.306506 -4.41074e-06  -0.015368 -0.321721 -1.19209e-06  -0.0162864 -0.336912 -2.5034e-06  -0.0172057 -0.352068 -4.76837e-07  -0.0181196 -0.36718 -4.05312e-06  -0.0190291 -0.382232 -1.54972e-06  0 0 0  0.000631958 -0.00129235 -0.000239372  0.00175473 -0.00453401 -0.000392437  0.00302649 -0.00912446 -0.000458479  0.00422984 -0.0147981 -0.000468373  0.00529844 -0.0214585 -0.000453591  0.006208 -0.0290599 -0.000423312  0.00696433 -0.0375449 -0.000393152  0.00757682 -0.046858 -0.000363708  0.0080471 -0.05694 -0.000333667  0.00838542 -0.0677258 -0.000302196  0.00859976 -0.0791505 -0.000277281  0.00869083 -0.0911529 -0.000249028  0.00866854 -0.103678 -0.000225663  0.00853884 -0.116664 -0.000200629  0.00831175 -0.130062 -0.00017941  0.0079906 -0.143815 -0.000159621  0.00758719 -0.157883 -0.000139713  0.00710869 -0.172219 -0.000119328  0.00655723 -0.186779 -0.000101447  0.00594759 -0.201528 -8.52346e-05  0.00528026 -0.216431 -6.79493e-05  0.00456858 -0.231453 -5.75781e-05  0.00380707 -0.246561 -4.33922e-05  0.00301456 -0.261736 -3.27826e-05  0.00219226 -0.27695 -2.15769e-05  0.00134277 -0.292182 -1.43051e-05  0.000477314 -0.307416 -7.51019e-06  -0.000409126 -0.322634 4.76837e-07  -0.00130105 -0.337824 4.17233e-06  -0.00220323 -0.352978 7.27177e-06  -0.00310421 -0.368089 1.0848e-05  -0.004004 -0.38315 8.9407e-06  0 0 0  0.00134856 -0.00195163 -0.000465989  0.00366458 -0.00552219 -0.000765204  0.00619417 -0.010164 -0.000902414  0.00859594 -0.015793 -0.000933766  0.0107729 -0.0224093 -0.000900626  0.0127069 -0.0299765 -0.000848293  0.01441 -0.0384457 -0.000786781  0.0158916 -0.0477553 -0.000724792  0.0171597 -0.0578404 -0.000663638  0.0182312 -0.0686302 -0.000603199  0.0191109 -0.0800658 -0.000550032  0.0198097 -0.0920779 -0.000498414  0.0203362 -0.10461 -0.000446081  0.0207045 -0.117604 -0.000397563  0.0209211 -0.131009 -0.000353336  0.0209982 -0.144769 -0.000310898  0.0209403 -0.158841 -0.000270009  0.0207677 -0.173182 -0.000233293  0.0204856 -0.187747 -0.000198722  0.0200994 -0.202495 -0.00016439  0.0196314 -0.217395 -0.000133753  0.0190778 -0.232415 -0.000108242  0.0184541 -0.247521 -8.40425e-05  0.0177701 -0.262691 -6.17504e-05  0.0170302 -0.277902 -4.29153e-05  0.0162494 -0.293125 -2.34842e-05  0.0154293 -0.308354 -1.22786e-05  0.0145829 -0.323565 1.19209e-07  0.0137117 -0.33875 1.00136e-05  0.012826 -0.353899 1.69277e-05  0.0119262 -0.369007 2.2769e-05  0.0110273 -0.384073 2.90871e-05  0 0 0  0.00242053 -0.00331187 -0.000676513  0.00610682 -0.00724566 -0.00112033  0.00984713 -0.011811 -0.00132978  0.0133649 -0.0173109 -0.00137949  0.0165966 -0.023824 -0.00134075  0.0195235 -0.0313239 -0.00126481  0.0221498 -0.0397501 -0.00117397  0.0244839 -0.0490268 -0.00108278  0.0265423 -0.0590867 -0.00099206  0.0283324 -0.0698568 -0.000902534  0.0298661 -0.0812726 -0.000818491  0.0311599 -0.0932727 -0.000740767  0.0322284 -0.105789 -0.000666499  0.0330789 -0.11877 -0.000593781  0.0337285 -0.132159 -0.000525832  0.0341878 -0.145907 -0.000463128  0.0344751 -0.159965 -0.000404716  0.0345924 -0.174287 -0.000347495  0.0345652 -0.188835 -0.000295639  0.0344005 -0.203568 -0.000248075  0.0341115 -0.218451 -0.000201583  0.0337088 -0.233456 -0.000161886  0.033211 -0.248545 -0.000120282  0.0326204 -0.263699 -8.97646e-05  0.0319543 -0.278891 -5.99623e-05  0.0312295 -0.294101 -3.50475e-05  0.0304441 -0.309316 -1.63317e-05  0.0296195 -0.324513 2.86102e-06  0.0287609 -0.339686 1.56164e-05  0.0278771 -0.354827 2.53916e-05  0.0269861 -0.36993 3.51667e-05  0.0260811 -0.385008 4.00543e-05  0 0 0  0.00473695 -0.00596333 -0.000877738  0.00944909 -0.0096845 -0.0014745  0.0141293 -0.0139653 -0.00174451  0.0186584 -0.0192826 -0.00181067  0.0229055 -0.0256763 -0.00177026  0.026799 -0.0330878 -0.0016731  0.0303279 -0.0414417 -0.00155985  0.033498 -0.0506619 -0.00143611  0.0363209 -0.0606691 -0.00131583  0.0388155 -0.0713959 -0.00119865  0.0409878 -0.0827696 -0.00109017  0.0428599 -0.0947303 -0.000985384  0.044448 -0.107206 -0.000884175  0.0457652 -0.120153 -0.000791073  0.0468314 -0.133506 -0.000700474  0.0476642 -0.147216 -0.000616431  0.0482674 -0.161242 -0.000535727  0.0486665 -0.175531 -0.000460148  0.0488739 -0.190043 -0.000391603  0.048914 -0.204744 -0.000327826  0.0487912 -0.219593 -0.000266314  0.0485256 -0.234562 -0.000210047  0.0481274 -0.249625 -0.000165343  0.047616 -0.26475 -0.000120401  0.0470119 -0.279911 -8.23736e-05  0.046315 -0.295099 -4.8399e-05  0.0455515 -0.310287 -1.83582e-05  0.0447311 -0.325467 2.26498e-06  0.0438654 -0.340622 2.11e-05  0.042969 -0.355752 2.98023e-05  0.0420635 -0.37085 4.54187e-05  0.0411553 -0.385933 5.16176e-05  0 0 0  -0.00489108 -0.00535898 0.00197387  -0.0095166 -0.00856444 0.00318742  -0.0142834 -0.0124457 0.00371671  -0.0189433 -0.0174125 0.00381684  -0.0233819 -0.0234665 0.00369215  -0.0275672 -0.0305354 0.00346994  -0.0315048 -0.0385356 0.00320983  -0.0352044 -0.047391 0.00294805  -0.0386854 -0.0570323 0.00269091  -0.0419565 -0.0673836 0.00244868  -0.0450318 -0.0783933 0.00221932  -0.0479215 -0.0899965 0.00200176  -0.0506382 -0.102138 0.00179255  -0.053182 -0.114764 0.0016011  -0.0555677 -0.127818 0.00142241  -0.0578032 -0.141262 0.00125241  -0.059895 -0.155038 0.00109065  -0.0618455 -0.169113 0.000944138  -0.063669 -0.183435 0.000805616  -0.0653675 -0.197972 0.000675321  -0.0669501 -0.212687 0.00056386  -0.0684268 -0.227544 0.000450969  -0.0698068 -0.242513 0.000355482  -0.0710895 -0.257569 0.000272274  -0.0722928 -0.272686 0.000195384  -0.0734243 -0.287838 0.000130057  -0.0744889 -0.303005 7.62939e-05  -0.0754974 -0.318179 3.18289e-05  -0.0764606 -0.333335 7.15256e-07  -0.0773983 -0.348469 -2.72989e-05  -0.0783083 -0.363577 -4.1604e-05  -0.0792196 -0.378658 -5.55515e-05  0 0 0  -0.00246682 -0.00294737 0.00149381  -0.00616345 -0.00634531 0.00240982  -0.0099043 -0.0105262 0.00280786  -0.0134606 -0.0157386 0.00287771  -0.016829 -0.0220041 0.0027796  -0.020019 -0.029264 0.00260746  -0.0230429 -0.0374442 0.00241053  -0.0259098 -0.0464726 0.00220966  -0.02863 -0.0562743 0.00201929  -0.0312105 -0.0667854 0.00183284  -0.033663 -0.0779448 0.00165939  -0.0359875 -0.0896919 0.00149596  -0.0381995 -0.101969 0.00134361  -0.0402915 -0.114723 0.00119567  -0.0422795 -0.1279 0.00106287  -0.0441638 -0.141451 0.000934482  -0.0459464 -0.15533 0.000816226  -0.0476403 -0.169497 0.000703216  -0.0492377 -0.183907 0.00059998  -0.0507531 -0.198522 0.000503302  -0.0521815 -0.2133 0.00041914  -0.053539 -0.228218 0.000336289  -0.0548227 -0.243242 0.000264525  -0.0560422 -0.258348 0.000203133  -0.0571997 -0.273497 0.00014627  -0.0583019 -0.288682 9.57251e-05  -0.0593536 -0.303879 5.57899e-05  -0.0603664 -0.319066 2.24113e-05  -0.0613463 -0.334237 -3.57628e-06  -0.062295 -0.349376 -2.20537e-05  -0.063225 -0.364485 -3.71933e-05  -0.0641465 -0.379558 -5.23329e-05  0 0 0  -0.00138243 -0.00157873 0.0010035  -0.00364749 -0.0048364 0.00163674  -0.00614348 -0.00917692 0.00190139  -0.00856096 -0.0145707 0.00193942  -0.0108591 -0.0210005 0.00186551  -0.0130453 -0.0284087 0.00174487  -0.015138 -0.0367284 0.0016098  -0.0171506 -0.0458869 0.00147545  -0.0190852 -0.05582 0.00134313  -0.0209521 -0.0664552 0.00122035  -0.0227554 -0.0777353 0.00110137  -0.0244926 -0.089596 0.000993013  -0.0261723 -0.101982 0.000890732  -0.0277945 -0.114836 0.000793457  -0.0293611 -0.128112 0.00070262  -0.0308695 -0.141755 0.000619769  -0.0323284 -0.15572 0.000539064  -0.0337331 -0.16996 0.000464201  -0.0350857 -0.184438 0.000396967  -0.0363934 -0.199115 0.000331521  -0.0376501 -0.213951 0.000275612  -0.0388651 -0.228919 0.000221133  -0.0400329 -0.243986 0.000172973  -0.0411572 -0.259122 0.000135422  -0.0422509 -0.274311 9.60827e-05  -0.0433021 -0.28952 6.23465e-05  -0.0443244 -0.304737 3.3021e-05  -0.04532 -0.319941 1.20401e-05  -0.0462899 -0.335124 -2.38419e-06  -0.0472336 -0.350272 -1.4782e-05  -0.0481646 -0.365384 -2.55108e-05  -0.0490863 -0.380448 -4.3273e-05  0 0 0  -0.00062307 -0.00102365 0.000502706  -0.00167453 -0.00403073 0.00083077  -0.00288886 -0.00841326 0.000962734  -0.00411078 -0.0139274 0.00098145  -0.00530142 -0.0204734 0.000941157  -0.00646657 -0.0279892 0.000877619  -0.00761551 -0.0364071 0.000807166  -0.00875807 -0.0456623 0.000736475  -0.00989592 -0.0556877 0.000668049  -0.0110335 -0.0664157 0.000605702  -0.0121673 -0.0777846 0.000548005  -0.0133063 -0.0897319 0.000491142  -0.0144438 -0.102202 0.000439167  -0.0155709 -0.115137 0.00039041  -0.0166981 -0.128485 0.000345349  -0.017819 -0.142195 0.000301957  -0.0189316 -0.156226 0.000264168  -0.020036 -0.170526 0.000226855  -0.0211298 -0.185056 0.000190854  -0.0222116 -0.19978 0.000161529  -0.0232806 -0.214663 0.000129342  -0.0243328 -0.229664 0.000106454  -0.0253711 -0.244766 8.40425e-05  -0.0263925 -0.259933 5.98431e-05  -0.0273993 -0.275141 4.41074e-05  -0.028388 -0.290369 2.92063e-05  -0.0293674 -0.3056 1.50204e-05  -0.0303309 -0.32082 3.21865e-06  -0.0312741 -0.336013 -6.4373e-06  -0.0322094 -0.351168 -7.7486e-06  -0.0331349 -0.366282 -1.72853e-05  -0.0340488 -0.381338 -2.12193e-05  0 0 0  2.28882e-05 -0.000902146 -9.89437e-06  7.98404e-05 -0.00384274 -5.84126e-06  0.00011301 -0.00824833 5.48363e-06  9.87649e-05 -0.0138228 9.05991e-06  2.99811e-05 -0.0204352 8.9407e-06  -0.000102043 -0.0280117 7.7486e-06  -0.000300527 -0.0364925 4.05312e-06  -0.00056529 -0.045807 -2.02656e-06  -0.000901699 -0.0558924 -3.33786e-06  -0.00130105 -0.0666833 -7.39098e-06  -0.00176609 -0.0781131 -1.20401e-05  -0.00228834 -0.0901213 -1.22786e-05  -0.00287044 -0.10265 -1.4782e-05  -0.00349939 -0.115639 -1.39475e-05  -0.00417793 -0.129039 -1.12057e-05  -0.00490069 -0.142798 -1.46627e-05  -0.0056591 -0.156871 -1.57356e-05  -0.00645185 -0.171213 -1.49012e-05  -0.00727606 -0.185781 -1.29938e-05  -0.00812507 -0.200537 -1.23978e-05  -0.00899601 -0.215444 -1.33514e-05  -0.00987816 -0.230478 -1.27554e-05  -0.0107808 -0.245595 -1.03712e-05  -0.0116875 -0.260781 -8.82149e-06  -0.0126028 -0.276005 -8.70228e-06  -0.0135231 -0.291244 -6.79493e-06  -0.0144446 -0.306485 -8.34465e-06  -0.0153663 -0.321709 -6.19888e-06  -0.0162892 -0.336909 -6.79493e-06  -0.0172081 -0.352071 -2.26498e-06  -0.0181184 -0.367182 -3.21865e-06  -0.0190287 -0.382238 -1.3113e-06  0 0 0  0.000659063 -0.00112277 -0.00052762  0.00182524 -0.0042035 -0.000837326  0.00310212 -0.00866371 -0.000949502  0.00429332 -0.0142577 -0.000956893  0.00534022 -0.0208856 -0.000915766  0.00623852 -0.0284817 -0.000860929  0.00698906 -0.036983 -0.000797153  0.0075947 -0.0463263 -0.000735402  0.00806415 -0.0564446 -0.000676394  0.00840056 -0.06727 -0.000620008  0.00860953 -0.0787325 -0.000569224  0.00869918 -0.0907735 -0.000513434  0.00867724 -0.103334 -0.000465035  0.00854635 -0.116357 -0.000419021  0.00831699 -0.129786 -0.000374079  0.00799751 -0.143574 -0.000330567  0.00759292 -0.157671 -0.00029254  0.00711346 -0.172032 -0.000252366  0.00655985 -0.18662 -0.000220656  0.00594783 -0.201393 -0.000185728  0.00527859 -0.216318 -0.000155449  0.00456333 -0.23136 -0.000126839  0.00380158 -0.24649 -0.00010407  0.00301194 -0.261679 -7.87973e-05  0.00218725 -0.276908 -5.91278e-05  0.00133896 -0.292154 -4.25577e-05  0.000470877 -0.307395 -2.5034e-05  -0.000411987 -0.322621 -1.57356e-05  -0.00130486 -0.33782 -5.00679e-06  -0.00220442 -0.352978 3.93391e-06  -0.00310636 -0.36809 1.32322e-05  -0.00401521 -0.383153 1.66893e-05  0 0 0  0.00139774 -0.00175506 -0.00101614  0.00378194 -0.00514793 -0.00162852  0.00631604 -0.00966364 -0.00186741  0.00868887 -0.0152284 -0.00189805  0.0108287 -0.0218174 -0.00182569  0.012735 -0.0293935 -0.00171518  0.0144229 -0.0378833 -0.00159299  0.0158917 -0.0472245 -0.00146604  0.0171556 -0.0573448 -0.0013479  0.0182245 -0.068175 -0.00123  0.0191021 -0.0796456 -0.00112116  0.0197998 -0.0916992 -0.00101686  0.020327 -0.104267 -0.00091815  0.0206925 -0.117298 -0.00082314  0.0209093 -0.130735 -0.000733376  0.0209823 -0.144529 -0.000650287  0.0209296 -0.15863 -0.000567555  0.0207553 -0.172997 -0.000493526  0.0204692 -0.187587 -0.000423431  0.0200877 -0.202362 -0.000358224  0.0196152 -0.217283 -0.000298142  0.019063 -0.232322 -0.000244021  0.0184386 -0.247448 -0.000196218  0.017756 -0.262634 -0.000148892  0.0170188 -0.277856 -0.000110745  0.0162358 -0.293095 -7.60555e-05  0.0154183 -0.308336 -4.57764e-05  0.014571 -0.323554 -2.41995e-05  0.0137012 -0.338744 -6.31809e-06  0.012815 -0.353897 9.89437e-06  0.0119178 -0.369012 2.2769e-05  0.0110197 -0.384076 3.33786e-05  0 0 0  0.002469 -0.00306308 -0.00147426  0.00623322 -0.00679225 -0.00236857  0.00998762 -0.0112486 -0.00274241  0.0134753 -0.0167035 -0.00280547  0.0166656 -0.0232109 -0.00271523  0.0195608 -0.0307282 -0.00255716  0.0221636 -0.0391821 -0.0023762  0.0244859 -0.0484959 -0.0021919  0.0265344 -0.058591 -0.00201249  0.0283166 -0.0694033 -0.00183749  0.0298518 -0.0808572 -0.00167155  0.0311487 -0.0928921 -0.00151336  0.0322108 -0.105449 -0.00136399  0.0330628 -0.118465 -0.00122309  0.033712 -0.131885 -0.00108874  0.0341692 -0.145665 -0.000962734  0.0344548 -0.159752 -0.000845671  0.0345745 -0.174106 -0.000733256  0.0345469 -0.188677 -0.000626445  0.0343843 -0.203434 -0.000529766  0.0340941 -0.218341 -0.000439644  0.0336936 -0.233362 -0.00035882  0.0331926 -0.248472 -0.000285864  0.0326073 -0.263642 -0.000216007  0.0319419 -0.278848 -0.000158787  0.0312145 -0.294073 -0.000109076  0.0304317 -0.309296 -6.56843e-05  0.0296078 -0.324503 -3.016e-05  0.028748 -0.339685 -5.84126e-06  0.0278671 -0.354826 1.66893e-05  0.0269735 -0.369934 3.18289e-05  0.0260749 -0.385011 4.78029e-05  0 0 0  0.00469105 -0.00561285 -0.00193048  0.00950283 -0.00912863 -0.00311136  0.0142455 -0.0133284 -0.00360727  0.0187795 -0.0186273 -0.00369942  0.0229951 -0.0250357 -0.00358844  0.0268611 -0.032479 -0.00338387  0.030369 -0.0408699 -0.00315309  0.0335249 -0.0501328 -0.00290644  0.0363383 -0.0601798 -0.0026685  0.0388231 -0.0709472 -0.00244224  0.040995 -0.0823607 -0.00221884  0.0428673 -0.0943554 -0.0020113  0.0444542 -0.106876 -0.00181282  0.0457742 -0.119852 -0.00162208  0.0468345 -0.133238 -0.0014466  0.0476625 -0.146985 -0.00127316  0.0482621 -0.161039 -0.00111818  0.0486617 -0.175353 -0.000968695  0.0488729 -0.189895 -0.000829101  0.048907 -0.204613 -0.000703692  0.0487821 -0.219487 -0.000581145  0.0485189 -0.234478 -0.000472188  0.0481255 -0.249557 -0.000374913  0.047617 -0.264696 -0.000286937  0.0470052 -0.279874 -0.000209332  0.0463045 -0.29507 -0.000141382  0.0455413 -0.310269 -8.83341e-05  0.0447247 -0.325459 -4.14848e-05  0.0438521 -0.340625 -6.91414e-06  0.0429637 -0.355754 1.93119e-05  0.0420506 -0.370856 4.25577e-05  0.0411401 -0.385932 5.62668e-05  0 0 0  -0.0049094 -0.004665 0.00336432  -0.00968032 -0.00745982 0.00513816  -0.0144282 -0.0112163 0.00575638  -0.0190023 -0.0161892 0.00578892  -0.0233564 -0.0223005 0.00554895  -0.0274801 -0.0294519 0.00519574  -0.0313743 -0.0375351 0.00480616  -0.035055 -0.0464754 0.00440955  -0.0385234 -0.0561954 0.00403559  -0.0417939 -0.0666243 0.00366771  -0.0448744 -0.0777018 0.00332892  -0.0477728 -0.0893732 0.00300562  -0.0504918 -0.101579 0.00270212  -0.0530474 -0.114266 0.00240922  -0.0554411 -0.127379 0.00214076  -0.0576884 -0.140875 0.00188589  -0.0597892 -0.154703 0.00164914  -0.0617499 -0.168818 0.00142646  -0.063581 -0.183188 0.0012213  -0.0652874 -0.197761 0.00103092  -0.0668795 -0.212514 0.000852823  -0.0683672 -0.227404 0.000697374  -0.069752 -0.242407 0.000550866  -0.0710492 -0.257485 0.00042367  -0.072258 -0.272625 0.000307798  -0.0733912 -0.287797 0.000211239  -0.0744619 -0.302983 0.000128269  -0.0754824 -0.318167 6.47306e-05  -0.076443 -0.333336 1.60933e-05  -0.077378 -0.348474 -1.89543e-05  -0.0782976 -0.363582 -4.43459e-05  -0.0792062 -0.378666 -6.30617e-05  0 0 0  -0.00267945 -0.0024284 0.00255966  -0.00645752 -0.00543183 0.00387251  -0.0100913 -0.00943908 0.00432432  -0.0135104 -0.014609 0.0043422  -0.0167737 -0.0208971 0.00415885  -0.0198929 -0.028212 0.00389433  -0.0228739 -0.0364631 0.00360215  -0.0257193 -0.0455631 0.00330603  -0.0284328 -0.0554432 0.00301981  -0.0310155 -0.0660269 0.0027504  -0.0334709 -0.0772573 0.00249016  -0.0358063 -0.0890707 0.00224912  -0.0380238 -0.101411 0.00201857  -0.0401303 -0.114223 0.00180233  -0.0421277 -0.127458 0.00160027  -0.0440253 -0.141062 0.0014112  -0.045821 -0.154993 0.00123298  -0.0475187 -0.169202 0.00106573  -0.0491316 -0.183655 0.000911593  -0.0506554 -0.198307 0.000770688  -0.0520999 -0.213124 0.000635862  -0.0534639 -0.228076 0.000519395  -0.0547581 -0.243131 0.00041151  -0.0559845 -0.258254 0.000317454  -0.0571542 -0.273434 0.000231862  -0.0582619 -0.288635 0.000158787  -0.0593221 -0.303849 9.78708e-05  -0.0603411 -0.319052 4.95911e-05  -0.0613234 -0.334234 9.29832e-06  -0.0622752 -0.349379 -1.43051e-05  -0.0632088 -0.364489 -3.76701e-05  -0.0641272 -0.379566 -6.04391e-05  0 0 0  -0.00153769 -0.0011493 0.00173962  -0.00388274 -0.00406805 0.00264299  -0.00629792 -0.00821133 0.00292504  -0.00860029 -0.0135213 0.00291562  -0.0108047 -0.0199424 0.00278151  -0.0129302 -0.0273861 0.00259995  -0.0149874 -0.0357594 0.00240004  -0.0169809 -0.0449864 0.00220084  -0.0189127 -0.0549863 0.00201046  -0.0207793 -0.0656949 0.00182939  -0.0225861 -0.0770423 0.00165558  -0.0243342 -0.088969 0.0014931  -0.0260209 -0.101419 0.00134003  -0.027653 -0.114333 0.00119448  -0.0292273 -0.127665 0.00106144  -0.0307465 -0.141359 0.000934005  -0.0322142 -0.155371 0.000815868  -0.0336285 -0.169659 0.0007056  -0.0349953 -0.184181 0.000601649  -0.0363076 -0.198896 0.000507712  -0.0375762 -0.213769 0.000422001  -0.0387971 -0.228772 0.00034225  -0.0399745 -0.243868 0.000271559  -0.0411086 -0.259032 0.000206947  -0.042207 -0.274241 0.000151515  -0.0432696 -0.289472 0.000102401  -0.0442982 -0.304702 6.29425e-05  -0.0452993 -0.319923 3.20673e-05  -0.0462728 -0.335117 7.03335e-06  -0.0472202 -0.350272 -1.43051e-05  -0.0481515 -0.365388 -2.95639e-05  -0.0490689 -0.380453 -4.3869e-05  0 0 0  -0.000695892 -0.000638068 0.000872254  -0.00178517 -0.00334302 0.00134075  -0.00295749 -0.00751963 0.00148129  -0.00411507 -0.0129308 0.00147045  -0.00524932 -0.019448 0.00139785  -0.00637859 -0.0269828 0.00129962  -0.00750488 -0.0354463 0.0012008  -0.00863588 -0.0447626 0.00109673  -0.00977099 -0.0548548 0.000999451  -0.0109093 -0.0656528 0.000906944  -0.0120491 -0.0770888 0.000818729  -0.0131903 -0.0891004 0.000735164  -0.0143337 -0.101633 0.000659108  -0.0154713 -0.114629 0.000585437  -0.0166036 -0.128032 0.000518918  -0.0177312 -0.141797 0.000454426  -0.0188529 -0.155874 0.000394344  -0.0199625 -0.17022 0.000342131  -0.0210645 -0.184793 0.000291348  -0.022156 -0.199558 0.000246048  -0.0232289 -0.214473 0.000201583  -0.0242887 -0.229513 0.000163078  -0.0253279 -0.24464 0.000127316  -0.026361 -0.259836 9.69172e-05  -0.0273719 -0.275069 7.05719e-05  -0.0283694 -0.290317 4.63724e-05  -0.0293469 -0.305564 2.89679e-05  -0.0303125 -0.320799 1.33514e-05  -0.0312634 -0.336004 -1.3113e-06  -0.0322027 -0.35117 -1.01328e-05  -0.0331278 -0.366282 -1.64509e-05  -0.0340436 -0.381338 -2.80142e-05  0 0 0  3.61651e-05 -0.000533015 -2.65837e-05  0.000101984 -0.00318325 -1.12057e-05  0.000143588 -0.00738409 3.69549e-06  0.000139236 -0.0128478 6.19888e-06  8.37445e-05 -0.0194227 6.19888e-06  -3.86834e-05 -0.0270145 9.53674e-07  -0.000231802 -0.0355347 -1.19209e-06  -0.000497043 -0.0449081 -8.9407e-06  -0.000828743 -0.055059 -1.20401e-05  -0.00123072 -0.065917 -1.7643e-05  -0.00169778 -0.0774139 -2.11e-05  -0.00222659 -0.0894855 -2.22921e-05  -0.00281096 -0.102075 -2.37226e-05  -0.00344563 -0.115126 -2.67029e-05  -0.00412917 -0.128581 -2.41995e-05  -0.00485492 -0.142392 -2.57492e-05  -0.00562048 -0.156514 -2.40803e-05  -0.0064187 -0.170903 -2.46763e-05  -0.00724554 -0.185513 -2.24113e-05  -0.00809956 -0.20031 -2.30074e-05  -0.00897098 -0.215255 -1.89543e-05  -0.00986147 -0.230319 -1.91927e-05  -0.0107625 -0.245469 -1.64509e-05  -0.011677 -0.260679 -1.5974e-05  -0.0125949 -0.275926 -1.28746e-05  -0.0135179 -0.291192 -1.5378e-05  -0.0144439 -0.30645 -1.00136e-05  -0.0153663 -0.321687 -9.05991e-06  -0.0162868 -0.336899 -7.03335e-06  -0.0172052 -0.352065 -3.93391e-06  -0.0181224 -0.36718 -1.66893e-06  -0.0190284 -0.382234 -1.43051e-06  0 0 0  0.000755593 -0.000749767 -0.000922918  0.00197905 -0.00353128 -0.001351  0.00323105 -0.00778943 -0.00146461  0.00438088 -0.0132795 -0.00144875  0.00539654 -0.0198754 -0.00137961  0.00627583 -0.0274825 -0.00129402  0.00701511 -0.0360281 -0.00120473  0.00761521 -0.045431 -0.00111163  0.0080806 -0.0556111 -0.00102401  0.00841498 -0.066501 -0.000940681  0.00862265 -0.0780291 -0.000859141  0.00871241 -0.0901365 -0.000782013  0.00868571 -0.102757 -0.000707269  0.00855279 -0.115838 -0.000639319  0.00832355 -0.129324 -0.000572443  0.00799799 -0.143163 -0.000509262  0.00759077 -0.157311 -0.000446558  0.00710654 -0.171722 -0.000390291  0.00655818 -0.186351 -0.000338316  0.00594163 -0.201166 -0.000288725  0.00527072 -0.216126 -0.000244975  0.00455189 -0.231199 -0.000198126  0.00379515 -0.246361 -0.000162244  0.00299859 -0.261577 -0.000129104  0.00217366 -0.276831 -9.78708e-05  0.00132895 -0.292096 -7.00951e-05  0.000458717 -0.307359 -4.73261e-05  -0.000422478 -0.322598 -2.99215e-05  -0.00131607 -0.337809 -1.80006e-05  -0.00221658 -0.352976 5.96046e-07  -0.00311708 -0.368093 1.04904e-05  -0.00401831 -0.383147 2.34842e-05  0 0 0  0.00157362 -0.00134051 -0.00177956  0.00405142 -0.00441664 -0.00263  0.00652924 -0.00874215 -0.00288343  0.00881284 -0.0142189 -0.00286865  0.0108856 -0.0207875 -0.0027442  0.0127521 -0.0283833 -0.00257576  0.0144106 -0.0369238 -0.00239575  0.0158699 -0.0463273 -0.00220978  0.0171286 -0.0565113 -0.00203025  0.0181916 -0.0674073 -0.0018568  0.0190707 -0.0789461 -0.00169575  0.0197675 -0.0910596 -0.0015384  0.0202926 -0.10369 -0.00138915  0.0206603 -0.116779 -0.00124693  0.020876 -0.130272 -0.00111198  0.0209515 -0.144119 -0.000988126  0.0208972 -0.158269 -0.000868559  0.0207224 -0.172682 -0.000755906  0.0204375 -0.187316 -0.000647783  0.0200572 -0.202131 -0.000551343  0.0195851 -0.21709 -0.000462532  0.0190341 -0.232162 -0.000381231  0.0184112 -0.24732 -0.000307322  0.0177264 -0.262534 -0.000238299  0.0169926 -0.277781 -0.000180602  0.0162141 -0.293041 -0.000128031  0.0153971 -0.308298 -8.69036e-05  0.0145526 -0.323531 -5.17368e-05  0.0136828 -0.338733 -2.20537e-05  0.0127981 -0.353894 9.53674e-07  0.0119019 -0.369013 2.28882e-05  0.0110025 -0.384077 3.94583e-05  0 0 0  0.00270163 -0.00255328 -0.00255489  0.00656903 -0.00593472 -0.0038209  0.0102471 -0.0102304 -0.00423384  0.013625 -0.0156345 -0.00424969  0.0167276 -0.0221531 -0.00408506  0.0195655 -0.0297064 -0.00383985  0.0221381 -0.0382184 -0.00357127  0.0244424 -0.0475962 -0.00329947  0.0264815 -0.0577611 -0.00303042  0.0282642 -0.0686381 -0.0027715  0.0297973 -0.0801576 -0.00252545  0.0310907 -0.0922611 -0.00229037  0.0321585 -0.104874 -0.00206566  0.033012 -0.117948 -0.00185525  0.0336605 -0.131428 -0.00165427  0.0341201 -0.145259 -0.00146389  0.0344071 -0.159396 -0.00128293  0.0345309 -0.173792 -0.00111592  0.0345016 -0.188411 -0.000959277  0.0343363 -0.203209 -0.000813961  0.0340486 -0.218151 -0.0006814  0.0336502 -0.233207 -0.000558019  0.0331516 -0.248347 -0.000447273  0.0325665 -0.263547 -0.000347137  0.0319059 -0.278775 -0.000259995  0.0311813 -0.294021 -0.000183225  0.0304039 -0.309262 -0.000116229  0.0295825 -0.324483 -6.34193e-05  0.0287273 -0.339675 -2.58684e-05  0.0278437 -0.354827 7.39098e-06  0.0269532 -0.369938 3.1352e-05  0.026053 -0.385014 5.20945e-05  0 0 0  0.00475255 -0.00492489 -0.00330341  0.00975272 -0.0080905 -0.00501239  0.0144921 -0.0121918 -0.0055939  0.0189484 -0.0174913 -0.0056262  0.023089 -0.0239429 -0.00541234  0.0269039 -0.0314445 -0.00509131  0.0303779 -0.0399026 -0.00473547  0.0335121 -0.0492327 -0.00437558  0.0363164 -0.0593556 -0.0040189  0.0387975 -0.0701911 -0.0036757  0.0409695 -0.0816723 -0.00334716  0.0428392 -0.0937307 -0.00303614  0.044428 -0.106308 -0.00273716  0.0457402 -0.119349 -0.002455  0.0468031 -0.13279 -0.00218725  0.0476332 -0.146585 -0.00193465  0.0482395 -0.160686 -0.00169456  0.0486338 -0.175047 -0.00147331  0.0488427 -0.189629 -0.00126338  0.0488794 -0.204395 -0.00107145  0.0487542 -0.219306 -0.000892162  0.04849 -0.234329 -0.000729084  0.0480902 -0.249438 -0.000582695  0.0475874 -0.264607 -0.000447273  0.0469813 -0.279808 -0.000335336  0.0462925 -0.295022 -0.000229955  0.0455213 -0.310241 -0.0001508  0.0447006 -0.325442 -7.79629e-05  0.0438375 -0.340618 -2.65837e-05  0.0429411 -0.355758 1.44243e-05  0.0420332 -0.370859 4.60148e-05  0.0411243 -0.385947 5.90086e-05  0 0 0  -0.00587492 -0.00329995 0.00540125  -0.0102636 -0.00570038 0.00726724  -0.0145955 -0.00938262 0.00778389  -0.0188952 -0.0144254 0.00770712  -0.0230893 -0.0206586 0.00734675  -0.0271311 -0.0279337 0.00687647  -0.0309927 -0.0361496 0.0063616  -0.0346609 -0.0452093 0.00585234  -0.038138 -0.0550402 0.00535965  -0.0414183 -0.0655787 0.00488245  -0.0445162 -0.0767582 0.00443113  -0.047428 -0.0885191 0.00400329  -0.0501747 -0.100816 0.00359905  -0.052749 -0.113587 0.00321221  -0.0551646 -0.126781 0.00285053  -0.0574259 -0.140347 0.00251794  -0.0595467 -0.154238 0.0021987  -0.0615361 -0.168423 0.00190592  -0.0633783 -0.18285 0.00163233  -0.0651078 -0.197481 0.00137639  -0.0667179 -0.21228 0.00114334  -0.0682228 -0.227218 0.00093174  -0.0696287 -0.242257 0.000741482  -0.0709369 -0.257376 0.00056994  -0.0721664 -0.272549 0.00041604  -0.0733151 -0.287743 0.000290751  -0.0744004 -0.302955 0.000177979  -0.0754249 -0.318155 9.60827e-05  -0.076411 -0.333332 2.83718e-05  -0.077354 -0.348485 -2.11e-05  -0.0782697 -0.363592 -4.92334e-05  -0.0791767 -0.378672 -6.96182e-05  0 0 0  -0.00384501 -0.00146132 0.00418556  -0.00715157 -0.00393569 0.0054456  -0.0102908 -0.00778776 0.00578701  -0.0134143 -0.012954 0.00573015  -0.0165167 -0.019309 0.00548029  -0.0195536 -0.0267241 0.00514197  -0.0225047 -0.0350866 0.00476611  -0.0253397 -0.0443013 0.00438905  -0.0280581 -0.0542864 0.00401211  -0.0306522 -0.0649787 0.00365722  -0.0331249 -0.0763064 0.0033201  -0.0354795 -0.0882129 0.0029999  -0.0377152 -0.100642 0.00269651  -0.0398397 -0.113535 0.00240922  -0.0418591 -0.126848 0.00214219  -0.0437729 -0.140527 0.00188923  -0.0455914 -0.154524 0.00165057  -0.0473092 -0.168801 0.00143075  -0.0489378 -0.183309 0.00122678  -0.0504808 -0.198015 0.00103474  -0.05194 -0.212883 0.000862122  -0.0533252 -0.227883 0.000702858  -0.0546386 -0.242974 0.00055778  -0.0558794 -0.25814 0.000434279  -0.0570619 -0.273347 0.00031805  -0.0581841 -0.288579 0.000225782  -0.0592606 -0.303815 0.000141621  -0.060292 -0.319035 7.43866e-05  -0.0612843 -0.334229 2.90871e-05  -0.0622475 -0.349384 -9.41753e-06  -0.063184 -0.364497 -4.1604e-05  -0.0641072 -0.379576 -6.65188e-05  0 0 0  -0.00229978 -0.000228673 0.0028795  -0.00434545 -0.00270389 0.00369608  -0.00642559 -0.00666018 0.00387692  -0.00851887 -0.0119285 0.00381863  -0.0106067 -0.0183894 0.00364673  -0.0126706 -0.0259123 0.00341809  -0.0146994 -0.0343874 0.00316727  -0.0166838 -0.0437182 0.0029186  -0.0186203 -0.0538266 0.00266933  -0.0204965 -0.0646363 0.00242889  -0.0223151 -0.0760807 0.00220537  -0.0240759 -0.0881017 0.00199437  -0.0257826 -0.100637 0.0017885  -0.0274304 -0.113638 0.00159633  -0.0290164 -0.127046 0.0014205  -0.030555 -0.140813 0.00124919  -0.0320375 -0.154893 0.00109565  -0.0334671 -0.169247 0.000947833  -0.0348458 -0.183826 0.000812888  -0.0361714 -0.198599 0.000685573  -0.0374553 -0.213522 0.00056982  -0.0386882 -0.22857 0.00046432  -0.0398817 -0.243708 0.000367641  -0.0410247 -0.258906 0.00028801  -0.0421395 -0.274147 0.000213861  -0.0432084 -0.289405 0.000147223  -0.04425 -0.304662 9.44138e-05  -0.0452585 -0.319901 5.17368e-05  -0.0462432 -0.335108 1.94311e-05  -0.0471973 -0.350277 -8.82149e-06  -0.04813 -0.365398 -3.09944e-05  -0.049051 -0.380469 -5.40018e-05  0 0 0  -0.00107861 0.000268757 0.00143778  -0.00201286 -0.00200394 0.00185788  -0.0029965 -0.00599512 0.00194204  -0.00403866 -0.0113581 0.00190318  -0.00510824 -0.0179066 0.00181389  -0.00619954 -0.0255159 0.00170004  -0.00731349 -0.034075 0.00157154  -0.00843543 -0.0434919 0.00144577  -0.00956941 -0.0536851 0.00132501  -0.0107154 -0.0645843 0.0011996  -0.0118665 -0.0761184 0.00108659  -0.0130167 -0.0882259 0.000975728  -0.0141683 -0.10084 0.000878811  -0.0153185 -0.113921 0.000782132  -0.0164632 -0.127404 0.00069046  -0.0175996 -0.14124 0.000609875  -0.0187347 -0.155386 0.000525832  -0.0198555 -0.169797 0.000458837  -0.0209677 -0.184431 0.000390649  -0.0220687 -0.19925 0.000324845  -0.0231514 -0.214218 0.000273466  -0.0242209 -0.2293 0.000220895  -0.0252764 -0.244474 0.000172496  -0.0263085 -0.259701 0.000136733  -0.0273314 -0.274967 9.95398e-05  -0.0283363 -0.290246 6.65188e-05  -0.0293229 -0.30552 4.12464e-05  -0.0302985 -0.320775 1.96695e-05  -0.0312498 -0.335988 7.03335e-06  -0.0321946 -0.351166 -7.86781e-06  -0.0331156 -0.366296 -1.84774e-05  -0.034025 -0.381353 -3.5882e-05  0 0 0  1.30534e-05 0.000361979 -3.94583e-05  0.000114411 -0.00185311 -2.76566e-05  0.000189811 -0.00586918 -2.03848e-05  0.000210643 -0.0112873 -2.21729e-05  0.000168741 -0.0178922 -1.60933e-05  5.79953e-05 -0.0255502 -1.54972e-05  -0.000128806 -0.0341624 -2.09808e-05  -0.000392437 -0.0436345 -2.7895e-05  -0.000729322 -0.0538873 -3.00407e-05  -0.00113392 -0.0648422 -3.23057e-05  -0.00160396 -0.0764364 -3.57628e-05  -0.00213146 -0.0885988 -3.68357e-05  -0.00272703 -0.101277 -3.92199e-05  -0.00336933 -0.11441 -3.82662e-05  -0.00406015 -0.127944 -3.92199e-05  -0.00479281 -0.141826 -3.82662e-05  -0.00556493 -0.156022 -3.56436e-05  -0.00636744 -0.170473 -3.55244e-05  -0.00720429 -0.185143 -3.57628e-05  -0.00806475 -0.199996 -3.17097e-05  -0.00894022 -0.214991 -2.86102e-05  -0.0098381 -0.230103 -2.67029e-05  -0.0107455 -0.245294 -2.55108e-05  -0.0116639 -0.260541 -2.3365e-05  -0.0125856 -0.275821 -1.87159e-05  -0.01351 -0.291114 -1.5378e-05  -0.0144327 -0.306396 -1.38283e-05  -0.0153658 -0.321658 -1.15633e-05  -0.0162866 -0.336883 -1.0848e-05  -0.0172081 -0.352064 -5.84126e-06  -0.0181224 -0.36719 -2.98023e-06  -0.0190344 -0.382248 -3.45707e-06  0 0 0  0.00109039 0.000133872 -0.00151157  0.0022186 -0.00222117 -0.00190079  0.00335896 -0.00628895 -0.00197077  0.00444335 -0.0117247 -0.00192809  0.00542897 -0.0183451 -0.00183547  0.00629187 -0.0260217 -0.00172925  0.00702804 -0.0346552 -0.00161219  0.00762486 -0.0441521 -0.00149274  0.00809026 -0.0544348 -0.00137269  0.00841928 -0.0654217 -0.00126517  0.00862956 -0.0770476 -0.00115633  0.00871563 -0.0892453 -0.00105345  0.00868952 -0.101953 -0.000953317  0.00855124 -0.115119 -0.000858307  0.00831842 -0.128684 -0.000769734  0.0079937 -0.142591 -0.000683784  0.00758791 -0.156811 -0.000605106  0.0070982 -0.171283 -0.00052762  0.00654435 -0.185973 -0.000456452  0.00593162 -0.200845 -0.000392795  0.00525737 -0.215855 -0.000326514  0.0045352 -0.230981 -0.000275373  0.00377798 -0.246179 -0.000223398  0.00298071 -0.261439 -0.000177383  0.00215507 -0.276724 -0.000136852  0.00130773 -0.292021 -0.000103951  0.000439882 -0.307308 -7.06911e-05  -0.00043726 -0.322566 -4.64916e-05  -0.00132823 -0.337791 -2.36034e-05  -0.00222826 -0.352972 -1.19209e-06  -0.00313497 -0.368101 9.17912e-06  -0.00404048 -0.383161 2.80142e-05  0 0 0  0.00224058 -0.000471771 -0.00293899  0.00450793 -0.00311589 -0.00370443  0.00673762 -0.00724393 -0.00386441  0.00887543 -0.0126646 -0.00380516  0.0108699 -0.0192619 -0.00364196  0.0126941 -0.0269234 -0.0034256  0.0143368 -0.035553 -0.00319278  0.0157889 -0.0450485 -0.00295448  0.0170463 -0.0553356 -0.00271833  0.0181139 -0.066327 -0.00249052  0.0189934 -0.0779613 -0.00227559  0.0196947 -0.0901648 -0.00206542  0.0202243 -0.102882 -0.00186348  0.0205885 -0.116052 -0.0016762  0.0208058 -0.129626 -0.00149429  0.0208802 -0.143548 -0.00132823  0.0208297 -0.157767 -0.00116968  0.0206556 -0.172247 -0.00101864  0.0203719 -0.186939 -0.000880599  0.0199912 -0.201806 -0.0007478  0.0195224 -0.21682 -0.000631809  0.0189726 -0.231939 -0.00051856  0.0183566 -0.247141 -0.000421047  0.0176766 -0.262393 -0.000331044  0.0169451 -0.277674 -0.00025034  0.0161688 -0.292965 -0.000185132  0.0153601 -0.308246 -0.000120997  0.0145183 -0.323501 -7.7486e-05  0.0136571 -0.338721 -3.76701e-05  0.0127742 -0.353895 -5.00679e-06  0.0118787 -0.369017 2.16961e-05  0.0109739 -0.384086 4.98295e-05  0 0 0  0.00367667 -0.00161344 -0.00425565  0.00722659 -0.00457126 -0.00539684  0.0105315 -0.00868833 -0.00570929  0.013684 -0.0140544 -0.00565457  0.0166645 -0.0206099 -0.00542629  0.0194438 -0.0282423 -0.00511169  0.0219907 -0.0368449 -0.00476265  0.0242873 -0.0463232 -0.0044055  0.0263265 -0.0565878 -0.00405145  0.0281103 -0.0675632 -0.00371182  0.0296501 -0.0791751 -0.00338292  0.0309488 -0.0913646 -0.00307047  0.0320216 -0.10407 -0.00277066  0.0328784 -0.117226 -0.00248528  0.0335317 -0.130782 -0.0022229  0.0339961 -0.144686 -0.00196505  0.034286 -0.158894 -0.00172555  0.0344136 -0.173356 -0.0015012  0.0343933 -0.188035 -0.00129557  0.0342324 -0.202888 -0.00110161  0.0339501 -0.217882 -0.000923872  0.033561 -0.232986 -0.000755191  0.033067 -0.24817 -0.000612974  0.0324867 -0.263409 -0.000478745  0.0318317 -0.27867 -0.000360131  0.0311217 -0.293947 -0.000257611  0.0303483 -0.309211 -0.000170469  0.0295327 -0.324456 -0.000101924  0.0286889 -0.339665 -4.42266e-05  0.0278175 -0.354826 -1.54972e-06  0.0269227 -0.36994 3.25441e-05  0.0260196 -0.385026 6.28233e-05  0 0 0  0.00594984 -0.00367403 -0.00533485  0.0105303 -0.00649792 -0.0071162  0.0148223 -0.0105058 -0.00759196  0.0190167 -0.0158419 -0.00753093  0.0230271 -0.0223683 -0.00721395  0.0267729 -0.0299696 -0.00678658  0.0302208 -0.0385351 -0.00631678  0.0333436 -0.0479736 -0.00583899  0.0361466 -0.0581895 -0.00536609  0.0386344 -0.0691253 -0.00490975  0.0408078 -0.0807008 -0.00447655  0.0426863 -0.0928515 -0.00405848  0.044278 -0.105514 -0.00365889  0.0456003 -0.118634 -0.00328541  0.0466678 -0.13215 -0.00292623  0.0475008 -0.146022 -0.00259066  0.0481091 -0.160194 -0.0022738  0.0485125 -0.174621 -0.0019747  0.0487309 -0.189262 -0.00169539  0.0487719 -0.204087 -0.00143838  0.0486515 -0.219048 -0.00120246  0.0483906 -0.234118 -0.000987172  0.0480042 -0.249271 -0.000787973  0.0474992 -0.264479 -0.00061512  0.0469062 -0.279714 -0.000455379  0.0462224 -0.294959 -0.0003227  0.0454617 -0.310201 -0.000208497  0.0446544 -0.325429 -0.000115275  0.0437949 -0.340618 -4.58956e-05  0.0429063 -0.355763 9.29832e-06  0.0419965 -0.37087 4.49419e-05  0.0410929 -0.38595 6.8903e-05  0 0 0  -0.00108907 -0.000776373 -0.00198674  -0.00128713 -0.00140001 -0.00221819  -0.00254186 -0.0010221 -0.00357223  -0.00202112 -0.000458181 -0.00305933  -0.00302001 -0.00189897 -0.00344235  -0.00124902 -0.00167963 -0.00171435  -0.00350749 -0.00335373 -0.00310642  -0.00247576 -0.00308456 -0.00195664  0 0 0  -0.00255728 -0.0028482 -0.0025053  0 0 0  0 0 0  -0.000939775 -0.00096976 -0.00144118  0 0 0  -0.00521246 -0.00399812 -0.00452203  -0.00339862 -0.00212506 -0.00367564  -0.00392258 -0.00287733 -0.00402069  -0.00486299 -0.00218891 -0.00495595  -0.00491548 -0.00319705 -0.00426525  -0.0061786 -0.0041203 -0.00494576  -0.00684161 -0.00333304 -0.00579274  -0.00549959 -0.00247567 -0.00501013  -0.0067409 -0.00471738 -0.00476694  -0.00577812 -0.00475621 -0.00401431  -0.00798437 -0.00633398 -0.00458449  -0.0072901 -0.00587024 -0.00458223  -0.00762644 -0.00513208 -0.00562608  -0.00459754 -0.0037645 -0.00346935  -0.00995871 -0.00656522 -0.0063206  -0.00826479 -0.00426703 -0.00662667  -0.00828874 -0.00558643 -0.00551891  -0.00871247 -0.00470892 -0.00639695  -0.00849801 -0.00653515 -0.00501192  -0.0103289 -0.00734234 -0.00583214  -0.0105584 -0.00642912 -0.00665742  -0.00869954 -0.0056701 -0.00570846  -0.0102006 -0.00865129 -0.0051325  -0.0101328 -0.00812485 -0.00493425  -0.0122021 -0.010221 -0.00508869  -0.0121019 -0.00911516 -0.00564289  -0.0122926 -0.00827556 -0.00668585  -0.00832921 -0.00725051 -0.0042451  -0.0145547 -0.0103159 -0.00685525  -0.0125359 -0.00730219 -0.00765502  -0.0123063 -0.00942316 -0.0059799  -0.0124006 -0.008489 -0.00682551  -0.0118628 -0.0110763 -0.00514215  -0.0142539 -0.0118092 -0.00600231  -0.0142401 -0.0108781 -0.00681502  -0.0118489 -0.0101784 -0.00582659  -0.0134969 -0.0138097 -0.00509357  -0.0142213 -0.0126098 -0.00514412  -0.0161865 -0.0152996 -0.00510734  -0.0167675 -0.013508 -0.00588334  -0.0168111 -0.012672 -0.00688064  -0.0118375 -0.0118402 -0.00441509  -0.0190062 -0.0153284 -0.00681198  -0.0168062 -0.0117069 -0.00782865  -0.0161609 -0.0145085 -0.00594753  -0.0160777 -0.013592 -0.00675935  -0.0150996 -0.0168233 -0.00499552  -0.0180402 -0.0174896 -0.00583702  -0.0178961 -0.0165939 -0.00662225  -0.0149702 -0.015945 -0.00566173  -0.0166796 -0.0201173 -0.00487167  -0.0181068 -0.0182661 -0.00502318  -0.0199789 -0.0215037 -0.00489706  -0.0212205 -0.0190734 -0.00574476  -0.0211709 -0.0182769 -0.0066843  -0.0151671 -0.0175782 -0.00430822  -0.0232772 -0.0214961 -0.00650835  -0.0210294 -0.0173652 -0.00759029  -0.0198794 -0.0207511 -0.00568837  -0.0197031 -0.0198838 -0.00646001  -0.0182309 -0.0236699 -0.0047245  -0.0216873 -0.0242694 -0.00551623  -0.021481 -0.0234308 -0.00626338  -0.0180424 -0.0228393 -0.00535923  -0.019756 -0.0274742 -0.00456429  -0.021811 -0.0250005 -0.00475216  -0.0235955 -0.0287398 -0.00459009  -0.0254461 -0.0257151 -0.00543201  -0.0253412 -0.0249742 -0.00630927  -0.0183505 -0.0243901 -0.00407541  -0.0273492 -0.0286957 -0.00609183  -0.0251328 -0.0241311 -0.00716972  -0.0234543 -0.028035 -0.00532883  -0.0232334 -0.0272314 -0.00605595  -0.0212499 -0.031509 -0.00439739  -0.025185 -0.0320363 -0.00513357  -0.0249493 -0.031262 -0.00583613  -0.0210371 -0.0307354 -0.00499648  -0.022716 -0.0357684 -0.00422573  -0.0253366 -0.0327138 -0.00442046  -0.0270299 -0.0369089 -0.00424796  -0.0294501 -0.0333422 -0.00505465  -0.0293146 -0.0326573 -0.00587034  -0.0213982 -0.0321826 -0.00379038  -0.0312226 -0.036836 -0.00563991  -0.0290774 -0.0318823 -0.00667256  -0.026872 -0.036257 -0.004933  -0.0266349 -0.0355192 -0.00560969  -0.0241497 -0.040242 -0.00405729  -0.0285204 -0.0406948 -0.00473499  -0.0282788 -0.0399876 -0.00539005  -0.023927 -0.0395321 -0.00461835  -0.025553 -0.0449195 -0.00388712  -0.0286837 -0.0413181 -0.00407708  -0.0302927 -0.0459321 -0.00390303  -0.0332335 -0.041859 -0.00466096  -0.0330828 -0.041232 -0.00541484  -0.0243089 -0.0408637 -0.00349152  -0.0348914 -0.0458273 -0.00518513  -0.032837 -0.040524 -0.00616324  -0.0301286 -0.0453342 -0.00453717  -0.0298883 -0.0446592 -0.00516421  -0.0269245 -0.0497891 -0.00372148  -0.031695 -0.050167 -0.00434369  -0.0314555 -0.0495185 -0.00494999  -0.0267026 -0.049138 -0.00423962  -0.0282643 -0.0548444 -0.00355768  -0.0318609 -0.0507397 -0.00373733  -0.0333872 -0.0557331 -0.00357109  -0.0368037 -0.0511947 -0.0042733  -0.0366515 -0.0506215 -0.0049659  -0.0270865 -0.0503601 -0.00320148  -0.0383624 -0.0555948 -0.00474697  -0.036409 -0.049974 -0.00565392  -0.0332217 -0.0551851 -0.00415361  -0.0329901 -0.0545681 -0.00473142  -0.029572 -0.0600758 -0.00339967  -0.0347085 -0.0603818 -0.00396967  -0.0344783 -0.0597893 -0.00452739  -0.0293603 -0.0594822 -0.00387305  -0.030851 -0.0654782 -0.00324142  -0.0348725 -0.0609044 -0.0034129  -0.0363164 -0.0662439 -0.00325459  -0.0401725 -0.0612763 -0.00390399  -0.0400201 -0.0607524 -0.00453758  -0.0297319 -0.0605985 -0.00292301  -0.0416334 -0.0660745 -0.00433052  -0.0397874 -0.0601615 -0.00517064  -0.0361544 -0.0657463 -0.00378549  -0.0359321 -0.0651832 -0.00431657  -0.0320959 -0.0710364 -0.00309283  -0.0375643 -0.0712718 -0.00361365  -0.0373437 -0.0707349 -0.00411969  -0.0318937 -0.0704974 -0.00352818  -0.033312 -0.0767516 -0.00294513  -0.0377227 -0.0717467 -0.00310469  -0.039088 -0.0774031 -0.00295693  -0.0433482 -0.0720397 -0.00355071  -0.0431982 -0.0715613 -0.00413066  -0.0322492 -0.0715138 -0.00265914  -0.044721 -0.0772013 -0.00393462  -0.0429753 -0.0710285 -0.00470901  -0.0389326 -0.0769488 -0.00343788  -0.0387216 -0.0764388 -0.00392073  -0.0344971 -0.0826088 -0.0028047  -0.0402664 -0.0827732 -0.00327516  -0.0400586 -0.0822885 -0.0037359  -0.0343035 -0.0821204 -0.00319898  -0.0356544 -0.0886052 -0.00266421  -0.0404162 -0.0832022 -0.00281119  -0.0417105 -0.0891465 -0.00267518  -0.0463332 -0.0834173 -0.00322008  -0.0461938 -0.0829872 -0.0037477  -0.0346457 -0.0830408 -0.00240749  -0.0476245 -0.0889134 -0.00355631  -0.0459826 -0.0825056 -0.00427109  -0.0415605 -0.0887375 -0.00311261  -0.0413619 -0.0882779 -0.00354707  -0.036781 -0.0947317 -0.00252885  -0.04282 -0.0948322 -0.00295496  -0.0426255 -0.0943935 -0.00337225  -0.0366006 -0.0942935 -0.00288683  -0.0378828 -0.100985 -0.00239706  -0.0429648 -0.0952199 -0.00254023  -0.0441837 -0.101421 -0.00240803  -0.0491406 -0.0953609 -0.00290591  -0.0490099 -0.0949743 -0.0033803  -0.0369214 -0.0951217 -0.00217342  -0.0503548 -0.101158 -0.00320488  -0.0488108 -0.0945412 -0.00385076  -0.044044 -0.10105 -0.00280142  -0.0438567 -0.100642 -0.00319427  -0.0389524 -0.107352 -0.00227296  -0.045233 -0.107392 -0.00265431  -0.0450501 -0.107001 -0.00302845  -0.038783 -0.106962 -0.00259316  -0.0399966 -0.113834 -0.00214916  -0.0453684 -0.107739 -0.00228149  -0.0465187 -0.114171 -0.00215596  -0.0517796 -0.10781 -0.00261211  -0.0516552 -0.107464 -0.00303596  -0.0390816 -0.107704 -0.00195253  -0.0529163 -0.113883 -0.00287127  -0.0514678 -0.107077 -0.00345951  -0.0463861 -0.113841 -0.00251091  -0.0462093 -0.113475 -0.00286078  -0.0410123 -0.120419 -0.00202954  -0.0475088 -0.120397 -0.00237346  -0.0473359 -0.120051 -0.00270677  -0.0408535 -0.120068 -0.00231916  -0.0420051 -0.127104 -0.00191247  -0.0476356 -0.120709 -0.00203925  -0.0487192 -0.127348 -0.00192177  -0.0542569 -0.120716 -0.00233215  -0.0541383 -0.120406 -0.00270903  -0.0411351 -0.120731 -0.0017432  -0.055319 -0.12703 -0.00255316  -0.0539602 -0.120062 -0.0030911  -0.0485984 -0.127054 -0.00223422  -0.0484308 -0.126728 -0.00254977  -0.042969 -0.133879 -0.00180262  -0.0496541 -0.133803 -0.00210804  -0.0494916 -0.133495 -0.00240499  -0.0428195 -0.133569 -0.00205833  -0.0439091 -0.140741 -0.00169373  -0.0497702 -0.134075 -0.00180948  -0.0507948 -0.140898 -0.00170243  -0.0565737 -0.134027 -0.00207222  -0.0564667 -0.133749 -0.00240874  -0.0430835 -0.134155 -0.00155056  -0.0575714 -0.140557 -0.00226295  -0.0563018 -0.133447 -0.00274527  -0.0506784 -0.140637 -0.00197995  -0.0505276 -0.140352 -0.00225782  -0.044822 -0.147683 -0.00159162  -0.0516753 -0.147555 -0.00185829  -0.0515244 -0.147287 -0.00212026  -0.0446827 -0.14741 -0.00181127  -0.0457122 -0.154702 -0.00148863  -0.0517848 -0.147797 -0.00159734  -0.0527442 -0.15478 -0.00149238  -0.0587444 -0.147689 -0.00183082  -0.0586441 -0.147449 -0.00212598  -0.0449269 -0.147927 -0.0013662  -0.0596814 -0.154415 -0.00198537  -0.0584905 -0.147181 -0.00241959  -0.0526395 -0.154549 -0.00173646  -0.0524969 -0.154297 -0.00197989  -0.0465772 -0.161787 -0.00138712  -0.0535772 -0.161615 -0.00162381  -0.0534401 -0.161379 -0.00185162  -0.0464499 -0.161551 -0.00158459  -0.0474212 -0.168941 -0.00129515  -0.053678 -0.161826 -0.00139636  -0.0545807 -0.168944 -0.00130224  -0.0607765 -0.161668 -0.00159937  -0.0606823 -0.161456 -0.00185704  -0.0466745 -0.162003 -0.0011943  -0.0616519 -0.168561 -0.00172782  -0.0605409 -0.161224 -0.00211561  -0.0544832 -0.168745 -0.00151092  -0.0543554 -0.16853 -0.00172329  -0.0482421 -0.176151 -0.00120366  -0.0553651 -0.175937 -0.00140983  -0.0552402 -0.175732 -0.0016064  -0.0481246 -0.175946 -0.00137436  -0.0490425 -0.183419 -0.00111562  -0.0554559 -0.176117 -0.00120932  -0.0563061 -0.183353 -0.00112343  -0.0626693 -0.175913 -0.00138825  -0.0625854 -0.175729 -0.00161034  -0.0483325 -0.176337 -0.00103515  -0.0634904 -0.182956 -0.00149244  -0.0624585 -0.175531 -0.00183034  -0.056216 -0.183182 -0.0013054  -0.0560997 -0.182998 -0.00148594  -0.049818 -0.190733 -0.00103241  -0.0570452 -0.190479 -0.00120807  -0.0569291 -0.190306 -0.00137621  -0.0497105 -0.190559 -0.00117797  -0.0505722 -0.198095 -0.000952184  -0.0571284 -0.190635 -0.00103879  -0.0579243 -0.197968 -0.000958085  -0.0644383 -0.190388 -0.00118905  -0.0643647 -0.190232 -0.00138044  -0.0498984 -0.190893 -0.000887275  -0.0652084 -0.197553 -0.00126588  -0.0642459 -0.190067 -0.00156844  -0.0578461 -0.197822 -0.00111121  -0.0577378 -0.197665 -0.00126439  -0.051307 -0.205496 -0.000874341  -0.0586224 -0.205206 -0.00102395  -0.0585175 -0.205062 -0.00116491  -0.0512111 -0.205351 -0.000999391  -0.0520236 -0.212936 -0.000800371  -0.0586951 -0.205339 -0.000882149  -0.0594444 -0.212751 -0.000807762  -0.0660877 -0.205052 -0.0010106  -0.0660205 -0.204922 -0.00116873  -0.0513799 -0.205633 -0.000753582  -0.0668082 -0.212329 -0.00106698  -0.0659175 -0.204783 -0.00132489  -0.0593729 -0.212628 -0.000936389  -0.0592778 -0.212503 -0.00106293  -0.0527184 -0.220406 -0.000730991  -0.0601046 -0.220086 -0.000853419  -0.0600138 -0.219968 -0.000971913  -0.0526361 -0.220283 -0.000832796  -0.0533957 -0.227907 -0.000662327  -0.060169 -0.220194 -0.000736356  -0.0608745 -0.227673 -0.000669241  -0.0676272 -0.219878 -0.000844657  -0.0675685 -0.219767 -0.000974715  -0.052783 -0.220518 -0.00063014  -0.0683019 -0.227238 -0.000881076  -0.0674763 -0.219654 -0.00110394  -0.060811 -0.227571 -0.00077486  -0.0607235 -0.227467 -0.000879467  -0.0540552 -0.23543 -0.000600815  -0.0614989 -0.235084 -0.00070411  -0.061419 -0.234989 -0.000799358  -0.053982 -0.235328 -0.000683188  -0.0546989 -0.242979 -0.000540555  -0.0615542 -0.23517 -0.000606775  -0.0622189 -0.2427 -0.000547111  -0.0690618 -0.234824 -0.000692666  -0.0690079 -0.234733 -0.000800967  -0.0541127 -0.235521 -0.00051856  -0.069695 -0.242256 -0.000719488  -0.068924 -0.234642 -0.000908613  -0.0621617 -0.242615 -0.000631928  -0.0620852 -0.242532 -0.000714779  -0.0553217 -0.250541 -0.00048542  -0.0628085 -0.250169 -0.000567138  -0.0627363 -0.250093 -0.000644624  -0.0552576 -0.250459 -0.000551522  -0.0559316 -0.25812 -0.000432432  -0.0628593 -0.250241 -0.000491261  -0.0634818 -0.257804 -0.000437915  -0.0703974 -0.249867 -0.000562489  -0.0703545 -0.249796 -0.000644028  -0.0553725 -0.250615 -0.000420034  -0.0709972 -0.257356 -0.000570595  -0.070282 -0.249726 -0.000727117  -0.0634344 -0.257736 -0.000502765  -0.0633709 -0.257673 -0.00056839  -0.0565267 -0.26571 -0.000382006  -0.0640414 -0.265319 -0.000446796  -0.0639844 -0.265259 -0.000505567  -0.0564706 -0.265651 -0.000435293  -0.0571079 -0.273312 -0.000334322  -0.064086 -0.265374 -0.00038898  -0.0646753 -0.272961 -0.000338316  -0.0716517 -0.264981 -0.000445485  -0.0716155 -0.264926 -0.000506282  -0.0565703 -0.26577 -0.00033325  -0.0722165 -0.272506 -0.000445187  -0.0715535 -0.26487 -0.000571489  -0.0646341 -0.272911 -0.000392199  -0.0645785 -0.272862 -0.000443459  -0.0576718 -0.280916 -0.000291646  -0.0652108 -0.280508 -0.000340939  -0.0651579 -0.280466 -0.000384986  -0.0576255 -0.280871 -0.000333905  -0.0582244 -0.288526 -0.000252545  -0.065248 -0.280552 -0.000299811  -0.0658 -0.28815 -0.000257552  -0.0728233 -0.280138 -0.000340641  -0.0727911 -0.28009 -0.000387847  -0.0577087 -0.280963 -0.000256479  -0.0733588 -0.287689 -0.000332355  -0.0727413 -0.280053 -0.000436366  -0.0657673 -0.288109 -0.000295758  -0.0657203 -0.288076 -0.000334442  -0.058764 -0.296135 -0.000216424  -0.0663145 -0.295713 -0.000254214  -0.0662718 -0.295684 -0.00028342  -0.0587256 -0.296104 -0.000244975  -0.0592937 -0.303743 -0.000184119  -0.0663407 -0.295743 -0.000223756  -0.0668695 -0.303347 -0.000191987  -0.0739267 -0.295318 -0.000257194  -0.0739033 -0.295286 -0.000290096  -0.0587924 -0.29617 -0.000191152  -0.0744348 -0.302884 -0.000241101  -0.0738587 -0.295257 -0.000316441  -0.0668452 -0.303318 -0.000215113  -0.0668051 -0.303295 -0.000236392  -0.0598116 -0.311351 -0.000156105  -0.0673611 -0.310918 -0.000181139  -0.0673296 -0.3109 -0.000199735  -0.0597818 -0.31133 -0.000174582  -0.0603168 -0.318956 -0.000129402  -0.0673881 -0.310944 -0.000161171  -0.0678923 -0.31854 -0.000135243  -0.0749674 -0.310503 -0.000187218  -0.0749435 -0.31048 -0.000206769  -0.0598314 -0.311378 -0.000138998  -0.0754461 -0.318076 -0.000167549  -0.0749104 -0.310461 -0.000220776  -0.0678668 -0.318518 -0.000149548  -0.0678396 -0.318507 -0.000165939  -0.0608122 -0.326553 -0.000107467  -0.068367 -0.326111 -0.000124335  -0.0683396 -0.326097 -0.000138342  -0.0607879 -0.326537 -0.000120044  -0.0613048 -0.334143 -9.04799e-05  -0.0683839 -0.326126 -0.000111639  -0.0688694 -0.333711 -9.4533e-05  -0.0759568 -0.325677 -0.000128806  -0.0759385 -0.325663 -0.000141323  -0.0608327 -0.32657 -9.92417e-05  -0.0764225 -0.333247 -0.000112474  -0.0759134 -0.325656 -0.00015223  -0.0688539 -0.333697 -0.000103891  -0.0688324 -0.333692 -0.000108063  -0.0617833 -0.341721 -7.34329e-05  -0.0693302 -0.341273 -8.2612e-05  -0.0693142 -0.341268 -8.58903e-05  -0.061764 -0.341712 -7.62939e-05  -0.0622582 -0.349291 -5.80549e-05  -0.0693462 -0.341284 -7.95722e-05  -0.0698166 -0.348855 -6.56843e-05  -0.0769081 -0.340831 -8.97646e-05  -0.0768907 -0.340819 -9.23276e-05  -0.0617986 -0.341734 -6.87242e-05  -0.0773587 -0.34839 -7.52807e-05  -0.0768743 -0.340814 -0.000100076  -0.0698023 -0.348843 -6.49691e-05  -0.069787 -0.34884 -6.96778e-05  -0.0627267 -0.356851 -4.78029e-05  -0.070267 -0.356401 -5.63264e-05  -0.0702572 -0.356394 -5.67436e-05  -0.0627122 -0.356846 -4.8995e-05  -0.0631912 -0.364401 -3.5882e-05  -0.0702789 -0.35641 -5.57303e-05  -0.0707405 -0.363958 -4.79817e-05  -0.0778258 -0.355953 -6.27637e-05  -0.0778151 -0.355941 -6.25253e-05  -0.0627363 -0.35686 -4.72069e-05  -0.0782743 -0.363493 -5.25117e-05  -0.0778039 -0.355941 -6.6936e-05  -0.0707259 -0.363948 -4.50015e-05  -0.0707145 -0.363947 -4.17829e-05  -0.0636494 -0.371937 -2.67029e-05  -0.0711873 -0.371489 -3.60608e-05  -0.0711741 -0.371483 -3.3319e-05  -0.0636384 -0.371935 -3.02792e-05  -0.0641124 -0.379473 -1.91331e-05  -0.0711989 -0.371499 -3.77893e-05  -0.0716586 -0.379042 -2.70605e-05  -0.0787382 -0.371047 -4.65512e-05  -0.0787301 -0.371038 -4.42266e-05  -0.063664 -0.371949 -3.0458e-05  -0.0791845 -0.378571 -3.24249e-05  -0.0787177 -0.371029 -3.79086e-05  -0.0716429 -0.379024 -2.31266e-05  -0.0716305 -0.379021 -2.29478e-05  0 0 0  -0.000650723 -8.9705e-05 -0.00135773  -0.000766333 -0.0003407 -0.00161511  -0.00164964 -2.67029e-05 -0.00257492  -0.00125279 0.000228584 -0.0020659  -0.00176992 -0.000751913 -0.00238311  -0.0007089 -0.00057736 -0.00123602  -0.00201394 -0.00161344 -0.00231725  0 0 0  0 0 0  -0.000555035 -0.000294775 -0.000983536  0 0 0  -0.00232498 -0.00121044 -0.00296849  -0.00304098 -0.000653699 -0.00364208  -0.00290869 -0.00190303 -0.00293028  -0.00384937 -0.00245713 -0.00362617  -0.00434031 -0.00175604 -0.00421262  -0.00330186 -0.00122213 -0.00342298  -0.00408424 -0.00343825 -0.00325274  -0.00353974 -0.00297642 -0.0029428  -0.00509872 -0.00462013 -0.00333661  -0.00269035 -0.00240292 -0.00238049  -0.00534165 -0.00400029 -0.00402057  -0.00565225 -0.00320695 -0.00462228  -0.00523305 -0.00529099 -0.00339609  -0.00680223 -0.00584649 -0.00421321  -0.00696528 -0.00499901 -0.00477159  -0.00535676 -0.00445922 -0.00384831  -0.00636944 -0.00747474 -0.00345629  -0.0066452 -0.00652333 -0.00357878  -0.00813413 -0.00872189 -0.00366813  -0.00511464 -0.00594491 -0.00288343  -0.00821844 -0.00800045 -0.00429934  -0.00827616 -0.00712055 -0.00487727  -0.00748131 -0.00996277 -0.00344807  -0.00961035 -0.0104635 -0.00429797  -0.00959268 -0.00957529 -0.00485384  -0.00745791 -0.00908752 -0.00389117  -0.00857899 -0.0127547 -0.00340867  -0.00958633 -0.0112006 -0.00369906  -0.0109962 -0.013971 -0.00366211  -0.00746897 -0.010684 -0.00297153  -0.0109706 -0.0132237 -0.00425279  -0.0108988 -0.0123384 -0.00481272  -0.00965858 -0.0158319 -0.00333619  -0.0123149 -0.0162722 -0.00416833  -0.0121992 -0.0154009 -0.00471312  -0.00955474 -0.0149681 -0.00376785  -0.0107245 -0.0191822 -0.00324839  -0.0123754 -0.0170116 -0.00359786  -0.0137239 -0.0203257 -0.00350368  -0.0097146 -0.0165598 -0.00288409  -0.0136351 -0.0195955 -0.00406009  -0.0134914 -0.0187447 -0.00459886  -0.0117772 -0.0227933 -0.00314832  -0.0149383 -0.0231783 -0.00393647  -0.014771 -0.02235 -0.00445956  -0.0116327 -0.0219685 -0.00356197  -0.0128166 -0.0266541 -0.00303876  -0.0150458 -0.0238908 -0.0033977  -0.0163442 -0.0277052 -0.0032801  -0.0118728 -0.0235001 -0.00272125  -0.016219 -0.0270111 -0.0038017  -0.0160422 -0.0262139 -0.00431198  -0.0138437 -0.0307494 -0.00292647  -0.0174813 -0.0310805 -0.00366163  -0.0172932 -0.0303062 -0.00415927  -0.0136806 -0.0299767 -0.00332117  -0.014858 -0.0350702 -0.00281179  -0.0176173 -0.0317493 -0.00315702  -0.0188631 -0.0360207 -0.00303358  -0.0139617 -0.031416 -0.00252718  -0.0187211 -0.0353723 -0.00352025  -0.0185299 -0.0346321 -0.00399953  -0.0158582 -0.039602 -0.00269705  -0.0199377 -0.0398774 -0.00337905  -0.0197431 -0.0391639 -0.00384402  -0.0156887 -0.0388892 -0.00306779  -0.0168459 -0.0443398 -0.00258648  -0.0200859 -0.0404985 -0.00290912  -0.0212849 -0.0451853 -0.00278509  -0.0159865 -0.0402232 -0.0023253  -0.0211332 -0.0445884 -0.00323802  -0.0209407 -0.0439066 -0.00368309  -0.017818 -0.0492699 -0.00247562  -0.0223087 -0.0494892 -0.00309908  -0.0221149 -0.0488366 -0.00353128  -0.0176493 -0.0486156 -0.00281715  -0.018775 -0.054388 -0.00236261  -0.022457 -0.0500602 -0.00266594  -0.0236073 -0.0551259 -0.00254571  -0.0179495 -0.0498435 -0.00212955  -0.023459 -0.0545763 -0.00296038  -0.0232674 -0.0539556 -0.00337386  -0.0197164 -0.0596787 -0.00225914  -0.0245862 -0.0598406 -0.00283086  -0.0243971 -0.059244 -0.00322765  -0.0195569 -0.0590803 -0.0025726  -0.0206468 -0.0651408 -0.00215149  -0.0247321 -0.0603649 -0.00243187  -0.0258337 -0.0657774 -0.00231934  -0.0198452 -0.0602057 -0.00194204  -0.0256866 -0.0652744 -0.00269884  -0.0255072 -0.0647052 -0.0030731  -0.0215597 -0.0707579 -0.00205296  -0.0267699 -0.0708663 -0.00257462  -0.0265914 -0.0703202 -0.00293648  -0.0214055 -0.0702109 -0.00233924  -0.0224587 -0.0765321 -0.00195324  -0.026912 -0.0713428 -0.00221109  -0.0279691 -0.0770676 -0.00210476  -0.0216848 -0.0712403 -0.00176424  -0.0278289 -0.0766098 -0.00245011  -0.0276561 -0.0760943 -0.00279373  -0.0233415 -0.0824442 -0.00185817  -0.0288669 -0.082498 -0.00233328  -0.0286974 -0.0820055 -0.00266355  -0.023196 -0.081951 -0.00212163  -0.0242114 -0.0884996 -0.00176406  -0.0289997 -0.0829304 -0.00200254  -0.0300128 -0.0889388 -0.00190437  -0.0234603 -0.0828814 -0.00159597  -0.0298787 -0.0885261 -0.0022155  -0.0297151 -0.0880592 -0.00252652  -0.0250664 -0.0946798 -0.00167722  -0.0308717 -0.0946803 -0.00210637  -0.0307127 -0.094235 -0.00240356  -0.0249246 -0.0942329 -0.00191301  -0.0259051 -0.100988 -0.00158739  -0.0310004 -0.0950729 -0.00180662  -0.031967 -0.101335 -0.00171226  -0.0251775 -0.095076 -0.00143862  -0.0318433 -0.100961 -0.00199383  -0.0316919 -0.100544 -0.00227469  -0.0267317 -0.107407 -0.00150508  -0.0327935 -0.107358 -0.00188851  -0.0326449 -0.10696 -0.00215846  -0.0266027 -0.107007 -0.00171936  -0.027546 -0.113942 -0.00142324  -0.0329136 -0.10771 -0.00162202  -0.0338391 -0.114202 -0.00153238  -0.0268364 -0.107763 -0.00129062  -0.0337223 -0.113866 -0.0017876  -0.0335807 -0.113493 -0.00203794  -0.0283419 -0.120574 -0.00134373  -0.0346313 -0.120477 -0.00168955  -0.0344911 -0.120119 -0.00192934  -0.0282211 -0.120214 -0.00153261  -0.0291259 -0.127306 -0.00126493  -0.0347452 -0.120793 -0.00144869  -0.0356287 -0.127486 -0.0013665  -0.0284404 -0.120894 -0.00115335  -0.0355209 -0.127186 -0.00159061  -0.0353854 -0.126852 -0.00181395  -0.0298961 -0.134126 -0.00119209  -0.036391 -0.133986 -0.00149995  -0.0362597 -0.13367 -0.00171053  -0.0297824 -0.133807 -0.00136238  -0.0306544 -0.141034 -0.00111711  -0.0364937 -0.134264 -0.00128603  -0.0373411 -0.141137 -0.0012064  -0.0299873 -0.134409 -0.00102323  -0.03724 -0.140872 -0.0014044  -0.0371139 -0.14058 -0.0016036  -0.0313969 -0.148019 -0.00104731  -0.0380707 -0.147836 -0.00131953  -0.0379472 -0.147559 -0.0015049  -0.0312936 -0.147738 -0.00119448  -0.0321281 -0.155079 -0.000979006  -0.0381689 -0.148083 -0.00113177  -0.0389755 -0.155111 -0.00105876  -0.0314803 -0.148268 -0.000900447  -0.0388811 -0.154877 -0.00123501  -0.0387661 -0.15462 -0.00141037  -0.0328469 -0.162202 -0.000917256  -0.0396748 -0.161982 -0.00115359  -0.0395625 -0.161739 -0.00131828  -0.0327508 -0.161957 -0.00104696  -0.0335491 -0.169392 -0.000852466  -0.0397646 -0.1622 -0.000990272  -0.0405376 -0.169358 -0.000923753  -0.0329216 -0.162422 -0.00078702  -0.0404508 -0.169155 -0.00107509  -0.0403457 -0.168932 -0.00122869  -0.0342414 -0.17664 -0.000794888  -0.0412114 -0.176385 -0.00100011  -0.0411057 -0.176178 -0.00114185  -0.034152 -0.176429 -0.000904322  -0.0349221 -0.183941 -0.000733018  -0.0412886 -0.176573 -0.000858366  -0.0420263 -0.183847 -0.000797391  -0.034312 -0.176831 -0.000682294  -0.0419476 -0.183671 -0.000924468  -0.0418501 -0.183476 -0.00105423  -0.0355861 -0.191289 -0.000679076  -0.0426717 -0.191003 -0.000858068  -0.0425775 -0.190825 -0.000978827  -0.0355077 -0.191105 -0.000776231  -0.0362432 -0.198683 -0.000624001  -0.0427442 -0.191165 -0.000734031  -0.0434463 -0.198534 -0.000679731  -0.0356507 -0.191453 -0.000582337  -0.0433793 -0.198382 -0.000790536  -0.0432901 -0.198217 -0.000902355  -0.0368874 -0.20611 -0.000575066  -0.0440671 -0.205799 -0.000726938  -0.0439835 -0.205644 -0.000829339  -0.0368149 -0.205955 -0.000657439  -0.0375199 -0.213577 -0.000526905  -0.0441344 -0.205933 -0.00062418  -0.0448043 -0.213377 -0.00057137  -0.0369434 -0.206251 -0.000493467  -0.0447414 -0.213249 -0.000664294  -0.0446625 -0.213115 -0.000756919  -0.0381362 -0.221072 -0.000482261  -0.0454009 -0.220734 -0.000607729  -0.045325 -0.220607 -0.000693381  -0.0380681 -0.220944 -0.000547469  -0.0387428 -0.228598 -0.000434995  -0.0454602 -0.220848 -0.000522435  -0.0461018 -0.228354 -0.000474513  -0.0381861 -0.221189 -0.000415087  -0.046046 -0.228249 -0.000550866  -0.0459762 -0.228138 -0.000626862  -0.0393417 -0.236143 -0.000394583  -0.0466747 -0.235782 -0.000498593  -0.046608 -0.235677 -0.000569344  -0.039283 -0.236037 -0.000451446  -0.0399277 -0.24371 -0.000353634  -0.0467284 -0.235876 -0.000429571  -0.0473382 -0.243429 -0.000386178  -0.0393851 -0.236238 -0.000340581  -0.047292 -0.24334 -0.000447929  -0.0472302 -0.243252 -0.000509322  -0.0405021 -0.251294 -0.000318885  -0.0478928 -0.250915 -0.000401199  -0.0478361 -0.250829 -0.000455141  -0.0404518 -0.251206 -0.000365436  -0.0410681 -0.258889 -0.000281513  -0.0479374 -0.250991 -0.000348568  -0.0485249 -0.258575 -0.000308573  -0.0405421 -0.251374 -0.000276327  -0.0484829 -0.258503 -0.000357389  -0.0484321 -0.25843 -0.00040549  -0.0416243 -0.266497 -0.000251114  -0.049058 -0.266102 -0.000317276  -0.0490069 -0.266036 -0.000360072  -0.041584 -0.266431 -0.000286281  -0.0421741 -0.274114 -0.000220299  -0.0490973 -0.266161 -0.000273585  -0.0496583 -0.273768 -0.000240743  -0.0416589 -0.26656 -0.000216722  -0.0496242 -0.273713 -0.000279725  -0.0495818 -0.273658 -0.000317872  -0.0427089 -0.281731 -0.000193059  -0.0501773 -0.281324 -0.000245094  -0.0501361 -0.281273 -0.000277996  -0.0426743 -0.281683 -0.000221312  -0.0432403 -0.289354 -0.000166357  -0.0502079 -0.281371 -0.000211716  -0.0507483 -0.288983 -0.000182152  -0.0427375 -0.281784 -0.000168324  -0.05072 -0.28894 -0.000211656  -0.0506794 -0.288898 -0.000237763  -0.0437603 -0.296976 -0.000143111  -0.0512519 -0.296555 -0.000181139  -0.0512156 -0.29652 -0.000203133  -0.043726 -0.296939 -0.000162721  -0.0442743 -0.304597 -0.000122607  -0.0512748 -0.296591 -0.000158727  -0.0517926 -0.304203 -0.000134885  -0.0437846 -0.297017 -0.000127375  -0.0517702 -0.30417 -0.000153482  -0.0517402 -0.304143 -0.000172377  -0.0447769 -0.312212 -0.000101984  -0.0522833 -0.311784 -0.000131905  -0.0522583 -0.311757 -0.00014466  -0.0447538 -0.312186 -0.000117242  -0.0452766 -0.319824 -8.54731e-05  -0.0523043 -0.311809 -0.000115752  -0.0528035 -0.319415 -9.73344e-05  -0.0447969 -0.312238 -9.17912e-05  -0.0527883 -0.31939 -0.000110626  -0.0527625 -0.319373 -0.00011915  -0.045769 -0.327425 -7.12276e-05  -0.0532813 -0.32699 -9.16719e-05  -0.0532629 -0.326973 -0.000101388  -0.0457485 -0.32741 -7.78437e-05  -0.0462501 -0.335021 -5.77569e-05  -0.053299 -0.327007 -8.29697e-05  -0.0537858 -0.3346 -6.77109e-05  -0.0457802 -0.327448 -6.44922e-05  -0.0537701 -0.334581 -7.30753e-05  -0.0537567 -0.334574 -8.20756e-05  -0.0467322 -0.342607 -4.76241e-05  -0.0542521 -0.342165 -6.10352e-05  -0.0542367 -0.342155 -6.52671e-05  -0.0467186 -0.342598 -5.39422e-05  -0.0472066 -0.350183 -3.79086e-05  -0.0542684 -0.342179 -5.62668e-05  -0.0547388 -0.349752 -4.54187e-05  -0.0467439 -0.342622 -4.41074e-05  -0.0547268 -0.349737 -4.98295e-05  -0.0547097 -0.349732 -5.13792e-05  -0.0476735 -0.357742 -2.86102e-05  -0.0551963 -0.357297 -3.93391e-05  -0.0551825 -0.357293 -3.75509e-05  -0.0476632 -0.357737 -3.0458e-05  -0.0481386 -0.365296 -2.22325e-05  -0.0552061 -0.357308 -3.73125e-05  -0.055671 -0.364859 -2.98023e-05  -0.047684 -0.357755 -2.74181e-05  -0.0556607 -0.364848 -2.96831e-05  -0.0556483 -0.364846 -2.64049e-05  -0.0485985 -0.372831 -1.26958e-05  -0.0561247 -0.372387 -2.12789e-05  -0.0561087 -0.372381 -1.89543e-05  -0.0485895 -0.37283 -1.12653e-05  -0.0490592 -0.380358 -1.66893e-06  -0.0561335 -0.372396 -2.19941e-05  -0.0565951 -0.379931 -1.53184e-05  -0.0486081 -0.372843 -1.56164e-05  -0.0565848 -0.379916 -1.0848e-05  -0.0565658 -0.379906 -5.72205e-06  0 0 0  -0.000301465 0.00018996 -0.000679016  -0.000413522 9.19402e-05 -0.000967562  -0.000947028 0.000416726 -0.00155103  -0.000592783 0.000513375 -0.00102264  -0.000805654 -0.000274032 -0.00119489  -0.000386767 -0.000127584 -0.000753522  -0.00108555 -0.000824869 -0.0014298  0 0 0  0 0 0  -0.000251077 -1.71065e-05 -0.000491083  0 0 0  -0.00127289 -0.000456482 -0.00181955  -0.00169393 0.000114173 -0.00220948  -0.00132382 -0.0012871 -0.00147253  -0.00209513 -0.00152895 -0.00222147  -0.00238182 -0.000830531 -0.00255549  -0.0015105 -0.000597298 -0.00171131  -0.00187699 -0.00275183 -0.00164139  -0.0019051 -0.00201565 -0.00181031  -0.00278726 -0.00360101 -0.00204575  -0.00122474 -0.00176942 -0.00120121  -0.00293155 -0.0030176 -0.00245786  -0.00311086 -0.00223449 -0.00280499  -0.0024209 -0.00460213 -0.00170958  -0.00378844 -0.0048793 -0.00256222  -0.00387207 -0.00404069 -0.00287807  -0.00246859 -0.00376856 -0.00192553  -0.00297898 -0.00681335 -0.00173777  -0.00369737 -0.00552154 -0.00218546  -0.00458294 -0.00776383 -0.00222766  -0.00237587 -0.00523728 -0.00145662  -0.00462523 -0.00707513 -0.00260329  -0.00464723 -0.00621089 -0.00293672  -0.00352931 -0.0093413 -0.00173104  -0.00546417 -0.00959107 -0.00259537  -0.00543502 -0.00871167 -0.00291258  -0.00349605 -0.00846764 -0.00194383  -0.00408259 -0.0121778 -0.00170571  -0.00545999 -0.0102988 -0.00224274  -0.00631508 -0.0131286 -0.00221181  -0.00353891 -0.0100438 -0.00149494  -0.00628659 -0.0124039 -0.00256151  -0.0062241 -0.0115295 -0.00288385  -0.00463229 -0.0152991 -0.0016675  -0.00710535 -0.0155083 -0.00250512  -0.00701833 -0.0146437 -0.002823  -0.00455821 -0.0144376 -0.00187564  -0.00518644 -0.0186963 -0.00162113  -0.00715643 -0.0162271 -0.0021686  -0.00798339 -0.0195987 -0.0021069  -0.00468045 -0.0160162 -0.00144649  -0.0079152 -0.0188822 -0.00243664  -0.00780767 -0.0180372 -0.00274932  -0.00573862 -0.0223505 -0.00156915  -0.00872004 -0.0225187 -0.00235951  -0.00859815 -0.0216931 -0.00266701  -0.0056417 -0.0215275 -0.00176913  -0.00629473 -0.0262557 -0.0015108  -0.00880182 -0.0232192 -0.00204122  -0.00960988 -0.0270877 -0.00196761  -0.00580812 -0.0230495 -0.00136095  -0.00951558 -0.0264023 -0.00227463  -0.00938743 -0.0256042 -0.00257403  -0.00685179 -0.0303922 -0.00145715  -0.0103077 -0.0305198 -0.00219351  -0.0101743 -0.0297464 -0.0024851  -0.00674057 -0.029622 -0.00164795  -0.00741142 -0.0347576 -0.00139606  -0.0104101 -0.0311849 -0.0018931  -0.0112028 -0.0355105 -0.00181514  -0.00693387 -0.0310572 -0.00125986  -0.0110958 -0.0348639 -0.00210446  -0.0109585 -0.0341223 -0.0023874  -0.00797224 -0.0393331 -0.00133795  -0.0118781 -0.0394207 -0.00201815  -0.0117387 -0.0387035 -0.00229347  -0.00786096 -0.0386185 -0.00151914  -0.00854033 -0.0441163 -0.00127912  -0.0119868 -0.0400402 -0.00174063  -0.0127643 -0.0447816 -0.00166363  -0.0080623 -0.0399541 -0.00115621  -0.0126535 -0.0441837 -0.00193238  -0.0125156 -0.0434983 -0.00219584  -0.00910521 -0.0490905 -0.00122374  -0.0134252 -0.0491372 -0.00185126  -0.0132861 -0.048479 -0.00210792  -0.00899351 -0.0484305 -0.00139058  -0.00967407 -0.0542526 -0.00116819  -0.0135359 -0.049712 -0.00159389  -0.0142987 -0.054831 -0.00151938  -0.00919509 -0.049666 -0.0010556  -0.0141879 -0.0542793 -0.0017671  -0.0140525 -0.0536512 -0.00201076  -0.0102432 -0.0595868 -0.00111532  -0.0149447 -0.0595936 -0.00168645  -0.0148109 -0.0589899 -0.00192159  -0.0101367 -0.0589817 -0.00126976  -0.0108153 -0.0650914 -0.00105989  -0.0150548 -0.060122 -0.00145179  -0.0158029 -0.0655861 -0.00138217  -0.0103325 -0.0601175 -0.000959992  -0.0156947 -0.0650775 -0.00160742  -0.0155661 -0.0645049 -0.00182915  -0.011387 -0.0707547 -0.00100958  -0.0164388 -0.0707219 -0.00153238  -0.0163071 -0.0701715 -0.00174683  -0.0112818 -0.0702039 -0.00115001  -0.0119587 -0.076573 -0.000958681  -0.0165453 -0.0712041 -0.00131738  -0.0172797 -0.07698 -0.00125098  -0.0114723 -0.0712408 -0.000868917  -0.0171733 -0.0765178 -0.00145566  -0.0170479 -0.0759961 -0.00166047  -0.0125306 -0.0825297 -0.000911117  -0.017904 -0.0824558 -0.00138682  -0.0177824 -0.0819582 -0.00158083  -0.0124322 -0.0820273 -0.00103945  -0.0131041 -0.0886253 -0.000864089  -0.0180057 -0.0828936 -0.00118822  -0.0187234 -0.0889516 -0.00112915  -0.0126147 -0.0829701 -0.00078392  -0.0186247 -0.0885322 -0.00131387  -0.0185086 -0.088059 -0.00149822  -0.0136769 -0.0948491 -0.000819802  -0.0193399 -0.0947354 -0.00124776  -0.0192224 -0.0942832 -0.00142401  -0.0135803 -0.094396 -0.000933528  -0.0142477 -0.101197 -0.000770092  -0.0194366 -0.0951338 -0.00107008  -0.0201404 -0.101444 -0.00101209  -0.0137539 -0.0952483 -0.000703692  -0.0200478 -0.101066 -0.00118011  -0.0199356 -0.100639 -0.00134468  -0.0148193 -0.107657 -0.000730395  -0.0207472 -0.107508 -0.00111794  -0.0206398 -0.107103 -0.00127727  -0.0147327 -0.107249 -0.000833929  -0.0153934 -0.11423 -0.000689924  -0.0208377 -0.107865 -0.000959516  -0.0215266 -0.114401 -0.000905573  -0.014894 -0.108017 -0.000626743  -0.0214406 -0.114061 -0.00105739  -0.0213369 -0.113679 -0.00120437  -0.0159634 -0.120899 -0.000650883  -0.0221262 -0.120715 -0.000997305  -0.022024 -0.120352 -0.00114018  -0.0158826 -0.120535 -0.000744522  -0.016534 -0.127671 -0.000608027  -0.022209 -0.121034 -0.000855148  -0.0228834 -0.127771 -0.000804424  -0.0160306 -0.121222 -0.000558138  -0.0228029 -0.127467 -0.000937939  -0.0227057 -0.127126 -0.00107098  -0.0170999 -0.134523 -0.000573158  -0.0234727 -0.134306 -0.000884175  -0.0233785 -0.133982 -0.00100827  -0.0170276 -0.134198 -0.000657022  -0.0176659 -0.141465 -0.000538051  -0.0235497 -0.134589 -0.000757396  -0.0242099 -0.141501 -0.000712276  -0.0171622 -0.134813 -0.000494063  -0.0241339 -0.141232 -0.000828445  -0.0240473 -0.140931 -0.000944793  -0.0182283 -0.148482 -0.000505924  -0.0247893 -0.148232 -0.000777364  -0.0246987 -0.147948 -0.000886321  -0.0181634 -0.148198 -0.00057739  -0.0187907 -0.155573 -0.000470817  -0.0248606 -0.148484 -0.000666559  -0.0255051 -0.155548 -0.00062263  -0.0182869 -0.148737 -0.000433922  -0.0254362 -0.15531 -0.00072515  -0.0253558 -0.155047 -0.000826061  -0.0193486 -0.162728 -0.000438154  -0.0260751 -0.16245 -0.000677288  -0.0259984 -0.162203 -0.000775456  -0.0192888 -0.16248 -0.000499606  -0.0199075 -0.169947 -0.000406325  -0.0261412 -0.162671 -0.000581324  -0.0267713 -0.169865 -0.000539184  -0.0194032 -0.162951 -0.000375032  -0.0267079 -0.169656 -0.000630856  -0.0266352 -0.169427 -0.000720084  -0.0204628 -0.177221 -0.000377059  -0.0273316 -0.176917 -0.000586152  -0.0272574 -0.1767 -0.000669122  -0.0204065 -0.177002 -0.00043273  -0.0210161 -0.184548 -0.000348687  -0.0273926 -0.177108 -0.0005036  -0.0280039 -0.184415 -0.000464618  -0.02051 -0.177416 -0.000322878  -0.0279472 -0.184232 -0.000541508  -0.0278788 -0.184032 -0.000615656  -0.0215614 -0.191919 -0.000321925  -0.0285552 -0.191592 -0.000501752  -0.0284903 -0.191406 -0.000572383  -0.0215099 -0.191733 -0.000366688  -0.0221076 -0.199338 -0.000293434  -0.0286093 -0.19176 -0.00043124  -0.0292089 -0.199157 -0.000394464  -0.0216057 -0.192091 -0.000277221  -0.0291584 -0.199001 -0.000461936  -0.0290945 -0.198829 -0.000523865  -0.0226467 -0.206789 -0.000269413  -0.0297511 -0.206441 -0.000424266  -0.0296943 -0.206282 -0.000486732  -0.0226018 -0.206627 -0.000307858  -0.0231876 -0.214277 -0.0002473  -0.0297997 -0.206583 -0.000365376  -0.0303802 -0.21405 -0.000332832  -0.0226862 -0.206933 -0.000232995  -0.0303352 -0.213919 -0.000387073  -0.030282 -0.213778 -0.000440001  -0.0237186 -0.221791 -0.000224173  -0.0309112 -0.221424 -0.000354707  -0.0308619 -0.221294 -0.000404716  -0.0236821 -0.221659 -0.000256121  -0.0242517 -0.229334 -0.000201881  -0.0309536 -0.221541 -0.000303864  -0.0315237 -0.229069 -0.000273943  -0.0237546 -0.221912 -0.000192583  -0.0314827 -0.228961 -0.000320077  -0.031435 -0.228844 -0.000364423  -0.0247777 -0.236896 -0.000181258  -0.0320442 -0.236514 -0.000289798  -0.0319993 -0.236407 -0.000332534  -0.0247436 -0.236788 -0.000207782  -0.0253012 -0.244482 -0.000165164  -0.0320807 -0.236609 -0.000249147  -0.032635 -0.244182 -0.000223458  -0.0248065 -0.236997 -0.000156224  -0.0326002 -0.24409 -0.000259876  -0.0325596 -0.243994 -0.000296116  -0.0258174 -0.252077 -0.00014621  -0.0331483 -0.251681 -0.00023222  -0.0331106 -0.251594 -0.000267386  -0.0257897 -0.251989 -0.000166237  -0.0263338 -0.259689 -0.000125289  -0.0331802 -0.251762 -0.00019896  -0.0337188 -0.25936 -0.000176668  -0.0258429 -0.252162 -0.00012517  -0.0336878 -0.259285 -0.000206411  -0.0336559 -0.259207 -0.000232577  -0.0268414 -0.267307 -0.000110924  -0.0342233 -0.2669 -0.000184476  -0.0341885 -0.266826 -0.000208199  -0.0268209 -0.267238 -0.000130057  -0.0273497 -0.274937 -9.91225e-05  -0.0342503 -0.266964 -0.000157356  -0.0347745 -0.274583 -0.000138462  -0.0268612 -0.267376 -9.7692e-05  -0.0347486 -0.274521 -0.000161171  -0.0347214 -0.274462 -0.000182271  -0.0278513 -0.282563 -8.66055e-05  -0.0352707 -0.282148 -0.000142753  -0.0352473 -0.282091 -0.000158966  -0.027828 -0.282509 -9.5129e-05  -0.0283499 -0.290198 -7.34329e-05  -0.0352919 -0.282197 -0.000121057  -0.0358043 -0.289821 -0.000104189  -0.0278664 -0.282617 -7.60555e-05  -0.0357852 -0.289774 -0.00012207  -0.0357609 -0.289725 -0.000133157  -0.0288422 -0.297827 -6.50287e-05  -0.0362942 -0.2974 -0.000105917  -0.0362697 -0.297359 -0.000117838  -0.0288236 -0.297786 -7.65324e-05  -0.0293341 -0.305455 -5.47171e-05  -0.0363128 -0.29744 -9.24468e-05  -0.0368123 -0.305061 -8.08239e-05  -0.0288556 -0.297869 -5.48959e-05  -0.0367942 -0.305023 -9.11355e-05  -0.0367765 -0.304992 -9.9659e-05  -0.0298193 -0.313076 -4.81606e-05  -0.0372918 -0.312643 -7.77841e-05  -0.0372748 -0.312615 -8.2612e-05  -0.029804 -0.313051 -5.42402e-05  -0.0302999 -0.320695 -3.5584e-05  -0.0373056 -0.312674 -6.58631e-05  -0.0377955 -0.320285 -5.63264e-05  -0.0298283 -0.31311 -4.04119e-05  -0.0377815 -0.320257 -6.22869e-05  -0.0377667 -0.320236 -6.95586e-05  -0.0307782 -0.328306 -2.97427e-05  -0.0382695 -0.327866 -5.17368e-05  -0.0382533 -0.327847 -5.72205e-05  -0.0307693 -0.328286 -3.43323e-05  -0.0312541 -0.335907 -2.5332e-05  -0.03828 -0.327885 -4.5836e-05  -0.0387588 -0.335484 -3.85642e-05  -0.0307853 -0.328326 -2.89083e-05  -0.0387495 -0.335464 -4.1306e-05  -0.0387366 -0.335451 -4.38094e-05  -0.0317247 -0.343492 -1.83582e-05  -0.0392241 -0.34305 -3.43323e-05  -0.0392151 -0.343037 -3.48091e-05  -0.0317173 -0.343481 -2.04444e-05  -0.0321941 -0.351076 -1.42455e-05  -0.0392318 -0.343065 -3.29614e-05  -0.0397019 -0.350644 -2.64645e-05  -0.0317297 -0.343511 -2.00868e-05  -0.0396955 -0.350629 -2.74777e-05  -0.0396881 -0.350622 -2.71201e-05  -0.032656 -0.358638 -1.06096e-05  -0.0401628 -0.358192 -2.22325e-05  -0.040154 -0.358186 -2.39015e-05  -0.0326524 -0.358634 -9.71556e-06  -0.0331185 -0.366193 -5.90086e-06  -0.0401683 -0.358202 -2.03252e-05  -0.0406303 -0.365758 -1.49012e-05  -0.0326595 -0.35865 -1.24574e-05  -0.0406237 -0.365744 -1.41859e-05  -0.0406215 -0.36574 -1.37091e-05  -0.0335765 -0.373726 -5.78165e-06  -0.0410857 -0.373279 -9.89437e-06  -0.0410774 -0.373274 -7.15256e-06  -0.0335672 -0.373721 -2.68221e-06  -0.0340335 -0.381244 -1.19209e-07  -0.0410919 -0.37329 -1.12653e-05  -0.041553 -0.380815 -5.126e-06  -0.0335796 -0.373736 -6.79493e-06  -0.0415447 -0.3808 -3.15905e-06  -0.0415323 -0.380792 7.86781e-06  0 0 0  1.21146e-05 0.000251472 1.7643e-05  -0.000108272 0.000240594 -0.000288785  -0.000296883 0.000575721 -0.000492811  2.51234e-05 0.000566423 3.52859e-05  5.11408e-05 -0.000180095 2.89679e-05  -0.000112057 3.02494e-05 -0.000239849  -0.000316396 -0.000550002 -0.000479937  0 0 0  0 0 0  1.39028e-05 3.92199e-05 2.09808e-05  0 0 0  -0.000375099 -0.000184596 -0.000596821  -0.000507087 0.000391036 -0.000709951  0.000100657 -0.00116232 3.18289e-05  -0.000611439 -0.00117269 -0.000730574  -0.000701815 -0.000471503 -0.000824988  0.000110924 -0.000466555 4.51207e-05  0.000126779 -0.00260606 1.89543e-05  -0.000550255 -0.00164682 -0.000599444  -0.000816792 -0.00318143 -0.000682175  7.34925e-05 -0.0016354 2.16961e-05  -0.000853106 -0.00261393 -0.000816703  -0.000901297 -0.00182235 -0.000919282  0.000162572 -0.00446621 1.80602e-05  -0.00111511 -0.00446948 -0.000850499  -0.00112936 -0.00363165 -0.000940323  0.0001885 -0.00363117 3.20673e-05  0.000178993 -0.00668719 1.31726e-05  -0.00109977 -0.00510007 -0.000730693  -0.00138387 -0.00735664 -0.000744104  0.000134587 -0.00509301 1.06096e-05  -0.00137711 -0.00668263 -0.000866115  -0.0013645 -0.00581449 -0.000965059  0.000192136 -0.00924051 1.00136e-05  -0.00165296 -0.00922734 -0.000861764  -0.00162154 -0.00835407 -0.000955224  0.000228167 -0.00836855 2.34246e-05  0.000185668 -0.0121025 8.58307e-06  -0.00167337 -0.00992382 -0.000749528  -0.00196251 -0.012789 -0.00073725  0.000158519 -0.00993636 3.63588e-06  -0.00192937 -0.0120767 -0.000849724  -0.00188512 -0.0112045 -0.000948906  0.0001688 -0.0152516 9.17912e-06  -0.00221747 -0.0152141 -0.000829101  -0.00215942 -0.0143528 -0.000924349  0.000213325 -0.0143898 1.93119e-05  0.000133276 -0.0186763 1.22786e-05  -0.0022589 -0.0159279 -0.000724733  -0.00255978 -0.0193377 -0.000700772  0.000131547 -0.015961 2.02656e-06  -0.00251079 -0.0186267 -0.000805974  -0.00244665 -0.0177841 -0.000901699  8.2016e-05 -0.0223565 1.23382e-05  -0.00281423 -0.0222993 -0.000780344  -0.00274122 -0.0214727 -0.00087297  0.000134051 -0.0215339 2.41399e-05  1.39475e-05 -0.0262881 1.44243e-05  -0.002868 -0.0229948 -0.000677705  -0.00318515 -0.0269007 -0.000651062  4.18425e-05 -0.0230531 4.47035e-06  -0.00312591 -0.0262182 -0.000748396  -0.00304937 -0.0254187 -0.000840008  -7.15852e-05 -0.0304523 1.64509e-05  -0.00344658 -0.0303719 -0.000721693  -0.00336695 -0.0295985 -0.000810623  -1.60336e-05 -0.0296798 2.67625e-05  -0.000176191 -0.0348449 2.06232e-05  -0.00351071 -0.0310332 -0.000626206  -0.00384617 -0.0353942 -0.00059855  -0.0001176 -0.031116 7.92742e-06  -0.00377727 -0.0347501 -0.000688672  -0.00369716 -0.0340077 -0.000777304  -0.00029701 -0.039447 2.19941e-05  -0.00412184 -0.0393424 -0.000659049  -0.00403607 -0.0386239 -0.000743866  -0.000241041 -0.03873 2.92063e-05  -0.000440121 -0.0442599 2.50936e-05  -0.00419027 -0.0399635 -0.000570893  -0.00454396 -0.0447417 -0.000542402  -0.000347733 -0.0400694 1.49012e-05  -0.00447315 -0.0441403 -0.000628471  -0.00439179 -0.0434526 -0.000711203  -0.000597835 -0.0492632 2.64645e-05  -0.00483835 -0.0491333 -0.000601172  -0.00475323 -0.048469 -0.000678658  -0.000542879 -0.0485992 3.31402e-05  -0.000774741 -0.0544548 3.3915e-05  -0.00490808 -0.0497088 -0.000516713  -0.0052799 -0.054866 -0.000490308  -0.000646353 -0.0498397 2.12789e-05  -0.00520897 -0.0543114 -0.000569522  -0.0051285 -0.0536768 -0.000642002  -0.000967145 -0.0598192 3.24845e-05  -0.00559092 -0.0596637 -0.000542223  -0.00551009 -0.059055 -0.000617623  -0.000914454 -0.05921 3.98159e-05  -0.00118017 -0.0653538 3.67761e-05  -0.0056628 -0.0601933 -0.000467241  -0.00605023 -0.0656946 -0.000441134  -0.00101602 -0.0603524 2.43783e-05  -0.00598395 -0.0651844 -0.000513852  -0.00590444 -0.064606 -0.00058192  -0.0014056 -0.0710477 3.45111e-05  -0.00638437 -0.0708632 -0.000487089  -0.00630367 -0.0703101 -0.000552416  -0.00135207 -0.0704911 4.20809e-05  -0.00164843 -0.076894 3.97563e-05  -0.00644946 -0.0713499 -0.000420809  -0.00685549 -0.077162 -0.000396192  -0.00144994 -0.0715336 2.99215e-05  -0.00679088 -0.0766969 -0.000458717  -0.00671434 -0.0761707 -0.000522256  -0.00190341 -0.0828806 4.10676e-05  -0.00720561 -0.0826707 -0.000436604  -0.00712943 -0.0821652 -0.000498056  -0.00185335 -0.0823731 4.76241e-05  -0.00217652 -0.0890069 4.30942e-05  -0.00726819 -0.0831123 -0.000373542  -0.00769007 -0.0892077 -0.000353575  -0.00194716 -0.0833246 3.24249e-05  -0.00762773 -0.0887845 -0.000410378  -0.00755632 -0.0883046 -0.000466645  -0.00246239 -0.0952609 4.31538e-05  -0.00805986 -0.0950248 -0.000389159  -0.00798798 -0.0945702 -0.000445902  -0.00241721 -0.0948021 4.95315e-05  -0.00276387 -0.101637 4.44055e-05  -0.00811839 -0.0954238 -0.000333846  -0.00855184 -0.10177 -0.000312209  -0.00250399 -0.0956618 3.52859e-05  -0.00849593 -0.101388 -0.000364661  -0.00842738 -0.100958 -0.000415742  -0.00307739 -0.108124 4.24385e-05  -0.00893784 -0.107863 -0.000345469  -0.00886953 -0.107451 -0.000393808  -0.00303257 -0.107712 4.95315e-05  -0.00340188 -0.114722 4.42266e-05  -0.00899231 -0.108224 -0.000295758  -0.00943816 -0.114794 -0.000276923  -0.00311315 -0.108488 3.68357e-05  -0.00938559 -0.114449 -0.000324309  -0.00932407 -0.114061 -0.000368178  -0.00374007 -0.121417 4.22001e-05  -0.00984156 -0.121134 -0.00030452  -0.00978005 -0.120765 -0.000346363  -0.00369847 -0.121048 5.07236e-05  -0.00408864 -0.128213 4.66108e-05  -0.00989091 -0.121457 -0.000261486  -0.0103478 -0.128226 -0.000241816  -0.00377262 -0.121746 3.68357e-05  -0.0102997 -0.127918 -0.000282466  -0.0102441 -0.127571 -0.000319958  -0.00444734 -0.135094 4.29153e-05  -0.010764 -0.134787 -0.000264525  -0.0107094 -0.134458 -0.000303805  -0.00441277 -0.134765 5.02467e-05  -0.0048188 -0.142058 4.63724e-05  -0.0108111 -0.135076 -0.000227273  -0.0112774 -0.142014 -0.000212431  -0.00447822 -0.135384 3.8147e-05  -0.0112319 -0.14174 -0.000247061  -0.011181 -0.141435 -0.000281751  -0.005198 -0.149099 4.34518e-05  -0.011704 -0.148772 -0.000232041  -0.0116532 -0.148482 -0.000263035  -0.0051651 -0.148806 4.99487e-05  -0.00558615 -0.156209 4.44055e-05  -0.0117466 -0.149026 -0.00019902  -0.0122216 -0.156115 -0.00018245  -0.00522542 -0.149354 3.82066e-05  -0.0121799 -0.155873 -0.000214219  -0.0121336 -0.155604 -0.000242293  -0.00598335 -0.163386 4.23789e-05  -0.0126586 -0.163039 -0.000197351  -0.012614 -0.162786 -0.000224471  -0.00595331 -0.16313 4.74453e-05  -0.00638795 -0.170627 4.35114e-05  -0.0126989 -0.163264 -0.000167131  -0.0131776 -0.170482 -0.000156045  -0.00600863 -0.163614 3.80278e-05  -0.0131404 -0.170271 -0.000180483  -0.0130987 -0.170034 -0.000205636  -0.00680017 -0.177918 4.33326e-05  -0.0136249 -0.177555 -0.000169277  -0.0135829 -0.177333 -0.00019294  -0.00677705 -0.177695 4.48823e-05  -0.0072217 -0.185265 4.05312e-05  -0.0136578 -0.17775 -0.000143588  -0.0141416 -0.185078 -0.000130594  -0.00682116 -0.178117 3.64184e-05  -0.0141091 -0.184892 -0.000154436  -0.0140707 -0.184688 -0.000174642  -0.00764346 -0.192652 4.13656e-05  -0.0145965 -0.192274 -0.000142634  -0.01456 -0.192083 -0.000162959  -0.00762391 -0.192463 4.673e-05  -0.00807524 -0.200086 3.92199e-05  -0.0146258 -0.192444 -0.000120461  -0.0151131 -0.199859 -0.000108182  -0.00766301 -0.192824 3.3617e-05  -0.0150847 -0.199699 -0.000126123  -0.0150523 -0.199524 -0.000144422  -0.00851035 -0.207552 3.69549e-05  -0.0155733 -0.207159 -0.00011766  -0.0155425 -0.206994 -0.000135064  -0.00849128 -0.207386 4.29153e-05  -0.00895262 -0.215054 3.66569e-05  -0.0156 -0.207303 -9.95398e-05  -0.0160892 -0.214792 -9.28044e-05  -0.00852656 -0.2077 3.1054e-05  -0.016062 -0.214654 -0.000106871  -0.0160336 -0.214506 -0.000119507  -0.00939488 -0.22258 3.43919e-05  -0.0165539 -0.222177 -9.66191e-05  -0.0165236 -0.222039 -0.000109792  -0.00937963 -0.222441 3.79682e-05  -0.00984526 -0.230137 3.23653e-05  -0.0165746 -0.222299 -8.13603e-05  -0.0170629 -0.229841 -7.34329e-05  -0.00940752 -0.222705 3.08752e-05  -0.0170417 -0.229725 -8.57711e-05  -0.0170166 -0.229603 -9.63211e-05  -0.0102952 -0.237708 3.19481e-05  -0.0175307 -0.237295 -7.67112e-05  -0.0175092 -0.237184 -8.69036e-05  -0.0102832 -0.237596 3.61204e-05  -0.0107496 -0.245304 2.95043e-05  -0.0175507 -0.237397 -6.60419e-05  -0.0180373 -0.24498 -5.65052e-05  -0.0103059 -0.237816 2.71797e-05  -0.0180209 -0.244886 -6.71148e-05  -0.0180008 -0.244787 -7.73072e-05  -0.0112064 -0.25291 2.83718e-05  -0.0185082 -0.252488 -5.82933e-05  -0.0184844 -0.252393 -6.75321e-05  -0.0111945 -0.252815 3.26037e-05  -0.0116661 -0.260531 2.7597e-05  -0.018523 -0.252572 -5.04851e-05  -0.0190089 -0.260182 -4.16636e-05  -0.0112121 -0.252997 2.3663e-05  -0.018995 -0.260103 -4.82202e-05  -0.0189791 -0.260026 -5.69224e-05  -0.0121231 -0.268159 2.8491e-05  -0.0194807 -0.267728 -4.3571e-05  -0.0194652 -0.267655 -4.8697e-05  -0.012115 -0.268084 2.89083e-05  -0.0125835 -0.275793 2.51532e-05  -0.0194924 -0.267795 -3.64184e-05  -0.0199749 -0.275422 -3.1054e-05  -0.0121286 -0.268228 2.16365e-05  -0.019963 -0.27536 -3.71337e-05  -0.0199473 -0.275295 -4.20213e-05  -0.0130427 -0.283427 2.5332e-05  -0.0204461 -0.282991 -3.19481e-05  -0.0204298 -0.282936 -3.62992e-05  -0.0130405 -0.283372 2.55108e-05  -0.0135067 -0.291067 2.12789e-05  -0.0204535 -0.283044 -2.40207e-05  -0.0209334 -0.290677 -2.30074e-05  -0.013051 -0.283484 1.87159e-05  -0.0209262 -0.290628 -2.77162e-05  -0.0209122 -0.29058 -2.72393e-05  -0.0139701 -0.298703 1.81198e-05  -0.0214014 -0.298261 -2.16961e-05  -0.021395 -0.298219 -2.77162e-05  -0.0139675 -0.298659 2.02656e-05  -0.0144353 -0.306336 1.80602e-05  -0.0214128 -0.298304 -1.94907e-05  -0.0218878 -0.305932 -1.49608e-05  -0.0139735 -0.298745 1.63913e-05  -0.0218794 -0.305891 -1.71661e-05  -0.0218728 -0.305859 -2.0206e-05  -0.0148978 -0.313961 1.26362e-05  -0.0223579 -0.313519 -1.72853e-05  -0.0223463 -0.313487 -1.97887e-05  -0.0148935 -0.313929 1.78814e-05  -0.0153608 -0.321584 1.40071e-05  -0.0223627 -0.313549 -1.26362e-05  -0.0228341 -0.321166 -1.055e-05  -0.014899 -0.313994 1.16229e-05  -0.0228305 -0.321138 -1.38283e-05  -0.0228226 -0.321112 -1.43051e-05  -0.0158226 -0.329194 1.22786e-05  -0.0233004 -0.328748 -1.12653e-05  -0.0232942 -0.328726 -1.35303e-05  -0.0158238 -0.329173 1.3113e-05  -0.0162857 -0.3368 9.0003e-06  -0.0233052 -0.328773 -9.59635e-06  -0.0237713 -0.336373 -7.92742e-06  -0.0158219 -0.32922 1.06096e-05  -0.0237672 -0.336352 -7.39098e-06  -0.0237648 -0.336337 -6.73532e-06  -0.0167439 -0.344391 8.10623e-06  -0.0242314 -0.343941 -6.73532e-06  -0.0242281 -0.343927 -3.63588e-06  -0.0167444 -0.344376 8.76188e-06  -0.0172048 -0.351971 3.39746e-06  -0.0242341 -0.343956 -6.61612e-06  -0.0246978 -0.351539 -5.72205e-06  -0.0167432 -0.344408 5.54323e-06  -0.0246968 -0.351522 -5.48363e-06  -0.024694 -0.351515 -4.94719e-06  -0.0176635 -0.359538 4.41074e-06  -0.0251577 -0.359089 -2.02656e-06  -0.0251555 -0.35908 -1.84774e-06  -0.0176625 -0.359532 3.99351e-06  -0.0181222 -0.367094 3.8743e-06  -0.0251603 -0.359099 -3.21865e-06  -0.0256186 -0.366655 -2.86102e-06  -0.0176616 -0.359552 2.20537e-06  -0.0256162 -0.366644 -2.74181e-06  -0.0256162 -0.366638 5.36442e-07  -0.0185752 -0.374625 5.36442e-07  -0.0260737 -0.374175 -1.01328e-06  -0.0260758 -0.374171 -2.26498e-06  -0.0185747 -0.374624 3.57628e-07  -0.0190289 -0.382137 -2.14577e-06  -0.0260756 -0.374182 -1.78814e-06  -0.0265336 -0.381701 -1.96695e-06  -0.0185711 -0.374632 -1.49012e-06  -0.0265269 -0.381687 3.45707e-06  -0.0265274 -0.381688 2.20537e-06  0 0 0  0.000324629 0.0001387 0.000710547  0.000185296 0.000208497 0.000393987  0.000333555 0.000542939 0.000568271  0.000631042 0.000439227 0.00108743  0.000899643 -0.000400782 0.00124371  0.000153936 4.82798e-06 0.000280261  0.000409558 -0.000609636 0.000481784  0 0 0  0 0 0  0.000281706 -7.74264e-05 0.000532806  0 0 0  0.000481144 -0.000245452 0.00063324  0.000633612 0.000324667 0.000798523  0.00151494 -0.00146514 0.00152475  0.000795931 -0.00126159 0.000778377  0.000898764 -0.000571489 0.000918746  0.00172076 -0.00078243 0.00179029  0.00212154 -0.00295973 0.00166857  0.000724643 -0.00173402 0.000627339  0.00105307 -0.00328225 0.000702024  0.00136511 -0.00193673 0.00123274  0.00112468 -0.00272006 0.000843883  0.00119936 -0.00193602 0.000982463  0.00273293 -0.00485647 0.00173259  0.0014382 -0.00459772 0.000877678  0.00149077 -0.0037694 0.00100887  0.00282907 -0.0040313 0.00197667  0.00332376 -0.00709653 0.00175142  0.00137892 -0.00522316 0.000739753  0.00169402 -0.00749451 0.000754833  0.00263312 -0.00548142 0.00146627  0.00174582 -0.00682604 0.000883996  0.00178826 -0.00596517 0.00101352  0.00389427 -0.00966322 0.00173998  0.00203326 -0.00938761 0.000879109  0.00206777 -0.00851858 0.00100517  0.00393707 -0.00879848 0.00197929  0.00443798 -0.012534 0.00171787  0.00198901 -0.0100823 0.000749707  0.00226402 -0.0129626 0.000741065  0.00383869 -0.0103583 0.00149202  0.00230354 -0.0122554 0.000864863  0.0023334 -0.0113885 0.00098896  0.00495231 -0.0156921 0.00167668  0.00254911 -0.015412 0.000844777  0.00257957 -0.0145542 0.000967145  0.00497204 -0.0148363 0.00190812  0.00543362 -0.0191247 0.00163585  0.00251526 -0.0161207 0.000724137  0.00274295 -0.0195494 0.000706494  0.00492078 -0.0164003 0.00144029  0.00277424 -0.0188415 0.000824749  0.00280231 -0.0180013 0.000944972  0.00588369 -0.0228148 0.00158542  0.00297314 -0.0225303 0.000799537  0.00300282 -0.0217088 0.000914514  0.00589389 -0.0219944 0.00180763  0.00629926 -0.0267556 0.00153661  0.00294369 -0.0232245 0.000685036  0.00311953 -0.027151 0.000665247  0.00586748 -0.0235091 0.00136095  0.00314873 -0.0264659 0.000777602  0.0031758 -0.0256709 0.000890851  0.00668395 -0.0309303 0.00148219  0.00329721 -0.0306398 0.000749052  0.00332683 -0.0298671 0.000862658  0.00668788 -0.0301586 0.00169259  0.00703162 -0.0353362 0.00143176  0.00326824 -0.0313029 0.00064069  0.00339144 -0.0356836 0.000620604  0.00667185 -0.0315951 0.00127113  0.00342047 -0.0350392 0.000726044  0.0034492 -0.0342959 0.000833988  0.00734788 -0.039953 0.00137848  0.00351745 -0.0396536 0.000698626  0.00354624 -0.0389318 0.000799656  0.00735331 -0.0392321 0.00157696  0.00763071 -0.0447792 0.0013296  0.00348794 -0.0402736 0.000598609  0.00355852 -0.0450745 0.000580192  0.00734246 -0.0405756 0.00118339  0.00358891 -0.0444722 0.000676394  0.00361538 -0.0437817 0.000776589  0.00787973 -0.0497977 0.00127566  0.00363314 -0.0494855 0.000651002  0.00366282 -0.048819 0.000744224  0.00788116 -0.0491311 0.00146115  0.00809407 -0.0550039 0.00122684  0.0036056 -0.0500614 0.000556827  0.00362396 -0.055242 0.000539184  0.00787163 -0.0503761 0.00109392  0.00365245 -0.054686 0.000629485  0.0036813 -0.0540481 0.000724792  0.0082773 -0.0603848 0.0011763  0.00364769 -0.0600608 0.00060457  0.0036757 -0.0594491 0.000692129  0.00828147 -0.0597739 0.00134522  0.00842822 -0.0659357 0.00112873  0.00362039 -0.0605918 0.000518143  0.00359261 -0.066119 0.000500381  0.00826967 -0.0609173 0.00100762  0.00361907 -0.0656052 0.000584304  0.00364542 -0.0650224 0.000670075  0.00854754 -0.0716456 0.00108087  0.00356364 -0.0713086 0.000557721  0.00359201 -0.0707492 0.0006392  0.00855112 -0.0710859 0.00123674  0.00863373 -0.0775091 0.00103748  0.00353837 -0.0717951 0.000479043  0.00346208 -0.0776325 0.000461578  0.00853992 -0.0721329 0.000926137  0.00348759 -0.0771653 0.000537395  0.00351334 -0.0766344 0.000618398  0.00869417 -0.0835128 0.000990093  0.00338757 -0.0831614 0.00051415  0.00341606 -0.0826516 0.000587523  0.00869691 -0.0830023 0.00113237  0.0087229 -0.089655 0.000947773  0.00336432 -0.0836055 0.000442982  0.00324345 -0.0897239 0.000423729  0.00868988 -0.0839591 0.000849187  0.00326538 -0.0892965 0.000493646  0.0032934 -0.0888145 0.000566661  0.00872612 -0.0959237 0.000904083  0.0031209 -0.0955593 0.000471413  0.00314903 -0.0950978 0.000539124  0.00872481 -0.0954619 0.00103462  0.00869536 -0.102316 0.000863016  0.00310087 -0.0959627 0.000405312  0.00293851 -0.102331 0.000388741  0.00872099 -0.0963273 0.000774026  0.00295937 -0.101946 0.000454307  0.00298142 -0.101511 0.000521302  0.0086422 -0.10882 0.000818551  0.00277686 -0.108442 0.000431478  0.00279844 -0.10803 0.000493586  0.00864422 -0.108403 0.000939727  0.008564 -0.115434 0.000783145  0.00275707 -0.108808 0.00036931  0.0025562 -0.115398 0.00035429  0.00864112 -0.109185 0.000703454  0.00257397 -0.115049 0.000412464  0.00259554 -0.114659 0.000473499  0.00845957 -0.122145 0.000740528  0.00235486 -0.121756 0.000391185  0.0023756 -0.121384 0.000446856  0.0084585 -0.121773 0.000846148  0.00833082 -0.128953 0.000701308  0.00233531 -0.122083 0.000337183  0.00209749 -0.12887 0.000321448  0.00845742 -0.122476 0.00063473  0.00211596 -0.128559 0.000372887  0.0021348 -0.128209 0.000427186  0.00817966 -0.135848 0.000663996  0.00185943 -0.135448 0.000353992  0.00187612 -0.135114 0.000403166  0.0081768 -0.135516 0.000758111  0.00800776 -0.142826 0.000628769  0.00184357 -0.135738 0.000305355  0.00157428 -0.142697 0.000288486  0.00818038 -0.136141 0.000568449  0.00158954 -0.142418 0.000336707  0.0016017 -0.142108 0.000383914  0.00781417 -0.149879 0.000593722  0.001302 -0.149467 0.000315309  0.00131702 -0.149174 0.000362158  0.00780988 -0.149585 0.000676215  0.00759864 -0.157004 0.000557899  0.00129151 -0.149723 0.000274062  0.000988483 -0.156831 0.000259757  0.00781322 -0.15014 0.000509381  0.0010016 -0.156587 0.000301361  0.00101471 -0.156315 0.000343025  0.00736547 -0.164191 0.000525594  0.000686407 -0.163771 0.000281811  0.000699043 -0.163513 0.000321031  0.0073607 -0.163934 0.00059706  0.00711203 -0.171441 0.000491679  0.000672579 -0.163998 0.000243008  0.000344276 -0.171233 0.00023061  0.00736856 -0.16442 0.000451148  0.000356674 -0.171017 0.000267684  0.000366688 -0.170779 0.000306726  0.00684476 -0.178744 0.000459075  1.7643e-05 -0.178316 0.000251174  2.74181e-05 -0.178089 0.000285923  0.00683904 -0.178519 0.000526488  0.00655961 -0.1861 0.000432134  6.91414e-06 -0.178513 0.000215828  -0.000344038 -0.185852 0.000204742  0.00684738 -0.178946 0.000394046  -0.000333309 -0.185665 0.000235379  -0.000328779 -0.185459 0.00026685  0.00626016 -0.193496 0.000399768  -0.00069809 -0.19306 0.000218987  -0.000687599 -0.192865 0.000251234  0.0062511 -0.193302 0.000457883  0.00594282 -0.200937 0.000372529  -0.000704765 -0.193232 0.00019151  -0.00107718 -0.20066 0.000178337  0.00626326 -0.19367 0.000344336  -0.00107098 -0.200497 0.000205994  -0.00106454 -0.200318 0.000236154  0.00561571 -0.208409 0.000345588  -0.00145292 -0.207968 0.000191152  -0.00144601 -0.207802 0.000217617  0.0056088 -0.208244 0.000391364  0.00527287 -0.215919 0.000320673  -0.00145674 -0.208116 0.000164926  -0.00184751 -0.215614 0.000153899  0.00561976 -0.20856 0.000297964  -0.0018456 -0.215474 0.000177503  -0.00184035 -0.215325 0.000203073  0.00491929 -0.223453 0.000295401  -0.00224328 -0.223008 0.000162899  -0.00223947 -0.222868 0.000185728  0.00491047 -0.223316 0.000335157  0.00455213 -0.231016 0.000270724  -0.00224566 -0.223133 0.000142097  -0.00265074 -0.230681 0.000132024  0.00492239 -0.223582 0.000254273  -0.00264859 -0.230567 0.000152409  -0.00264859 -0.230441 0.000172019  0.00417638 -0.238595 0.000246465  -0.00306296 -0.238143 0.000139356  -0.00306106 -0.238028 0.000158012  0.00416899 -0.238477 0.000279367  0.00379181 -0.246192 0.000228226  -0.00306511 -0.238249 0.000122786  -0.00348306 -0.245837 0.000111461  0.00418496 -0.238701 0.000211835  -0.00348043 -0.24574 0.000128031  -0.00348353 -0.245639 0.00014776  0.00339818 -0.253803 0.000204027  -0.00390863 -0.253351 0.000116885  -0.0039041 -0.253254 0.000131667  0.0033884 -0.253708 0.00023061  0.00299501 -0.261427 0.000183403  -0.00390768 -0.253435 0.000101149  -0.0043354 -0.261052 9.26852e-05  0.00340748 -0.253892 0.000175476  -0.00433636 -0.260974 0.000107229  -0.0043366 -0.260891 0.000123858  0.0025878 -0.269057 0.000165224  -0.00477076 -0.268603 9.57251e-05  -0.00477409 -0.268527 0.000110149  0.00257611 -0.268981 0.000186384  0.00217056 -0.276695 0.0001508  -0.00476933 -0.268671 8.40425e-05  -0.00520825 -0.276301 7.53999e-05  0.00259781 -0.26913 0.00014174  -0.00520802 -0.276239 8.60095e-05  -0.00521088 -0.276172 0.000100553  0.00175095 -0.284332 0.000131726  -0.00565052 -0.283875 7.62939e-05  -0.0056529 -0.283815 8.65459e-05  0.00174046 -0.284273 0.000149727  0.00132322 -0.291973 0.000116229  -0.00564837 -0.283931 6.76513e-05  -0.00609374 -0.291566 5.99027e-05  0.00176024 -0.284388 0.00011605  -0.00609398 -0.291513 6.85453e-05  -0.00609708 -0.291466 7.9751e-05  0.00089407 -0.299606 0.000102341  -0.00654078 -0.299151 5.88894e-05  -0.00654054 -0.299106 6.84857e-05  0.000887394 -0.299564 0.000115633  0.000456333 -0.307244 8.69632e-05  -0.00653982 -0.299194 5.23329e-05  -0.00699019 -0.306825 4.73261e-05  0.00090003 -0.299652 8.80957e-05  -0.00699115 -0.306785 5.03659e-05  -0.0069921 -0.30675 5.96046e-05  1.97887e-05 -0.31487 7.59363e-05  -0.00744295 -0.314413 4.33326e-05  -0.00744343 -0.31438 5.0962e-05  1.19209e-05 -0.314838 8.44598e-05  -0.000422478 -0.322492 6.44922e-05  -0.00744128 -0.314445 3.73125e-05  -0.00789118 -0.322065 3.42131e-05  2.38419e-05 -0.314904 6.50287e-05  -0.0078938 -0.322034 3.92199e-05  -0.00789785 -0.322007 4.38094e-05  -0.000867844 -0.330102 5.30481e-05  -0.00834846 -0.329648 3.19481e-05  -0.00835013 -0.329622 3.72529e-05  -0.000874281 -0.330082 5.6982e-05  -0.00131798 -0.337709 4.36902e-05  -0.00834703 -0.32967 2.78354e-05  -0.00880003 -0.337274 2.57492e-05  -0.000861645 -0.330127 4.79817e-05  -0.00880361 -0.337253 2.62856e-05  -0.00880551 -0.337234 3.17693e-05  -0.00176549 -0.3453 3.62992e-05  -0.00925899 -0.344845 2.18153e-05  -0.0092628 -0.344826 2.26498e-05  -0.00177407 -0.345281 3.62992e-05  -0.00221896 -0.352881 2.69413e-05  -0.00925517 -0.344862 2.06232e-05  -0.00970864 -0.352444 1.44839e-05  -0.00176144 -0.345319 3.0756e-05  -0.00971365 -0.352425 1.35899e-05  -0.00971723 -0.352414 1.75834e-05  -0.00266957 -0.360445 1.85966e-05  -0.0101695 -0.35999 1.07288e-05  -0.0101726 -0.359981 1.16825e-05  -0.00267529 -0.360436 2.03252e-05  -0.00312352 -0.368001 1.06692e-05  -0.0101643 -0.360004 1.04904e-05  -0.0106161 -0.367555 5.60284e-06  -0.00266337 -0.360459 1.88351e-05  -0.0106254 -0.367546 6.31809e-06  -0.0106254 -0.367542 9.05991e-06  -0.00357533 -0.375533 1.78814e-06  -0.0110779 -0.375078 5.96046e-08  -0.0110791 -0.375075 -4.76837e-07  -0.00358224 -0.375531 3.21865e-06  -0.00402594 -0.383053 -5.78165e-06  -0.0110738 -0.375086 1.66893e-06  -0.0115235 -0.382605 -3.8743e-06  -0.00356936 -0.375544 4.35114e-06  -0.0115261 -0.382595 -6.85453e-06  -0.0115321 -0.382591 -6.79493e-06  0 0 0  0.000668272 -0.000195682 0.00138211  0.000495806 -1.04904e-05 0.00106728  0.000971064 0.000312984 0.00161535  0.00126254 8.22544e-05 0.00212532  0.00183894 -0.000985801 0.00241524  0.000437677 -0.000210226 0.000789583  0.00118193 -0.000996649 0.00141883  0 0 0  0 0 0  0.00058572 -0.000420272 0.00102532  0 0 0  0.0013812 -0.000629544 0.00184035  0.00180063 -7.73072e-05 0.00228012  0.00307521 -0.00224322 0.00295269  0.00227201 -0.00178796 0.00224686  0.00255804 -0.00112379 0.00262356  0.00347087 -0.00156933 0.00347239  0.00430113 -0.00383204 0.00324714  0.00207208 -0.00226599 0.00182182  0.00300816 -0.00389373 0.00204736  0.00280966 -0.00272256 0.00238752  0.00318393 -0.00332868 0.00246316  0.00337923 -0.00256228 0.00284165  0.00550461 -0.00577945 0.00338274  0.00408277 -0.00524998 0.00256521  0.0042043 -0.00443709 0.00292015  0.00566894 -0.00496292 0.00385761  0.00666919 -0.00803292 0.00343496  0.00395203 -0.0058791 0.00217474  0.00486442 -0.00817305 0.00221997  0.00533792 -0.00641519 0.00286126  0.00496036 -0.0075013 0.00259811  0.00503334 -0.00665313 0.00295842  0.00779516 -0.0105983 0.003425  0.00580692 -0.0100689 0.00258857  0.00584877 -0.00921136 0.00293803  0.007844 -0.00974119 0.00389016  0.00887585 -0.0134623 0.00338602  0.00574127 -0.0107644 0.0022226  0.00657767 -0.0136478 0.00219852  0.00771847 -0.0113007 0.00293702  0.0066222 -0.0129384 0.00255549  0.00663972 -0.01208 0.00290459  0.00991422 -0.0166094 0.00331539  0.00739825 -0.0160932 0.00250089  0.00740308 -0.0152406 0.00284231  0.00990683 -0.0157589 0.00376946  0.0109049 -0.0200331 0.00323576  0.00736952 -0.0168038 0.00215125  0.00812131 -0.0202307 0.00209773  0.00989151 -0.0173246 0.00285256  0.0081383 -0.0195236 0.00243735  0.00812864 -0.0186865 0.00277531  0.0118507 -0.0237191 0.00314027  0.00883412 -0.0232123 0.0023644  0.00882059 -0.0223931 0.00269288  0.0118179 -0.0229006 0.00357503  0.0127468 -0.0276546 0.00304347  0.00882822 -0.0239074 0.00203514  0.0094927 -0.0278352 0.00197077  0.0118562 -0.0244159 0.00269985  0.00949341 -0.0271522 0.00229043  0.00947201 -0.0263576 0.00261152  0.0135953 -0.0318271 0.00293773  0.0101079 -0.0313286 0.00221014  0.0100883 -0.0305566 0.00252092  0.013554 -0.0310558 0.00335062  0.0143951 -0.0362327 0.00283563  0.0101141 -0.0319898 0.00190121  0.0106913 -0.0363787 0.0018338  0.0136168 -0.032491 0.00252348  0.0106837 -0.0357339 0.00213516  0.0106611 -0.0349892 0.00243562  0.0151454 -0.0408488 0.00272715  0.0112177 -0.0403517 0.00205588  0.0111947 -0.0396332 0.00234449  0.0150998 -0.0401285 0.00311345  0.0158473 -0.0456745 0.00262415  0.0112278 -0.0409741 0.00176316  0.0117213 -0.0457814 0.0016976  0.0151741 -0.0414699 0.00234306  0.0117092 -0.0451789 0.00197929  0.0116848 -0.0444874 0.00226116  0.0165002 -0.0506926 0.00252044  0.0121598 -0.0501992 0.00189883  0.0121398 -0.049534 0.00217134  0.0164526 -0.0500263 0.00287884  0.017102 -0.0559026 0.00242019  0.0121723 -0.0507773 0.00163025  0.0125835 -0.055968 0.00156546  0.0165317 -0.0512717 0.00216192  0.0125693 -0.0554106 0.00182295  0.0125468 -0.0547706 0.00208491  0.0176598 -0.0612872 0.00231802  0.0129399 -0.0607957 0.00174582  0.0129184 -0.0601799 0.00199813  0.0176129 -0.0606726 0.00264901  0.0181669 -0.0668418 0.00222254  0.0129536 -0.0613267 0.00149912  0.0132843 -0.0668628 0.00143611  0.0176895 -0.0618204 0.00198764  0.0132712 -0.066348 0.00167632  0.0132489 -0.065764 0.0019176  0.0186305 -0.0725539 0.00212544  0.013562 -0.0720602 0.00160474  0.0135428 -0.0714993 0.00183415  0.0185839 -0.0719928 0.00242794  0.019045 -0.0784227 0.00203139  0.0135744 -0.0725507 0.00137615  0.0138282 -0.078397 0.00131673  0.018661 -0.0730438 0.00182331  0.0138146 -0.0779288 0.00153673  0.0137916 -0.0773939 0.00175834  0.0194167 -0.0844287 0.00193709  0.0140295 -0.0839358 0.00146502  0.0140074 -0.0834253 0.00167364  0.0193739 -0.0839206 0.00221461  0.0197434 -0.0905775 0.00184888  0.0140415 -0.0843831 0.0012567  0.0142211 -0.0905093 0.00120103  0.0194489 -0.0848779 0.00166196  0.0142089 -0.0900806 0.00139976  0.014184 -0.0896004 0.00159746  0.0200293 -0.0968497 0.00176078  0.0143527 -0.096354 0.0013324  0.0143324 -0.0958897 0.00152361  0.0199862 -0.0963867 0.00201124  0.0202714 -0.103247 0.00167727  0.0143653 -0.0967572 0.00114322  0.0144734 -0.103136 0.00108922  0.0200579 -0.0972554 0.00151056  0.0144624 -0.102749 0.00126916  0.0144389 -0.102311 0.00144941  0.0204743 -0.109754 0.00159371  0.0145361 -0.109257 0.00120693  0.0145178 -0.108839 0.00137901  0.0204324 -0.109335 0.00181818  0.0206385 -0.116373 0.00151491  0.0145468 -0.109623 0.00103682  0.014591 -0.116224 0.000985801  0.0205033 -0.110122 0.00136685  0.0145782 -0.115875 0.00114793  0.0145589 -0.11548 0.00131267  0.020766 -0.123087 0.00143361  0.01459 -0.122589 0.00108528  0.0145693 -0.122215 0.00123799  0.0207236 -0.122712 0.00163603  0.0208534 -0.1299 0.00135767  0.0146043 -0.122919 0.000933647  0.0145851 -0.129716 0.000884473  0.0207939 -0.123418 0.00123113  0.0145721 -0.1294 0.00103199  0.0145499 -0.129049 0.00117648  0.0209095 -0.136796 0.00128216  0.0145235 -0.136298 0.000971258  0.0145026 -0.135964 0.00110829  0.0208724 -0.136465 0.00146198  0.0209303 -0.143779 0.00120872  0.0145353 -0.136593 0.000835836  0.014461 -0.143559 0.000789642  0.0209382 -0.137092 0.00110024  0.014447 -0.143281 0.000917375  0.0144274 -0.142965 0.00105244  0.0209205 -0.150833 0.00113708  0.0143454 -0.150334 0.000865281  0.0143237 -0.150039 0.000987709  0.0208831 -0.150538 0.00129956  0.0208757 -0.157962 0.00107145  0.0143623 -0.150594 0.000741899  0.0142312 -0.157709 0.000700474  0.0209455 -0.151095 0.000976741  0.0142164 -0.157462 0.000813544  0.0141959 -0.157187 0.000930309  0.0208023 -0.16515 0.00100273  0.0140641 -0.16465 0.000763059  0.014044 -0.164392 0.000871003  0.020767 -0.164891 0.00114197  0.0207024 -0.172403 0.00093925  0.0140798 -0.164879 0.000656664  0.0139043 -0.17212 0.000616074  0.0208297 -0.165381 0.000861049  0.0138886 -0.171904 0.000716329  0.0138645 -0.171662 0.000819147  0.0205724 -0.179705 0.00087595  0.0136912 -0.179207 0.000666738  0.0136681 -0.178984 0.000761747  0.0205398 -0.179478 0.00100344  0.0204182 -0.187062 0.000820458  0.0137081 -0.179409 0.000574887  0.0134869 -0.186754 0.000537932  0.0205998 -0.179907 0.000753284  0.0134721 -0.186565 0.00062412  0.0134492 -0.186357 0.000712395  0.0202382 -0.19446 0.000759661  0.0132329 -0.193963 0.000581086  0.0132124 -0.193767 0.000661075  0.0202029 -0.194262 0.000869513  0.0200362 -0.201898 0.00070411  0.0132494 -0.194136 0.000501573  0.0129905 -0.201568 0.000463903  0.0202651 -0.194634 0.000654638  0.0129745 -0.201402 0.000538766  0.0129504 -0.201225 0.000615537  0.0198126 -0.209374 0.000650883  0.0126975 -0.208879 0.000497758  0.0126793 -0.208711 0.000569224  0.0197771 -0.209207 0.000738859  0.0195668 -0.216881 0.000600815  0.012711 -0.209028 0.000429869  0.0124192 -0.216528 0.000395775  0.0198376 -0.209524 0.000561178  0.0124066 -0.216388 0.000459075  0.0123849 -0.216236 0.000524282  0.0193014 -0.224415 0.00055033  0.0120962 -0.223922 0.00042212  0.0120766 -0.223782 0.000479281  0.0192702 -0.224277 0.000626564  0.0190148 -0.231977 0.000506222  0.0121086 -0.224052 0.000365913  0.0117855 -0.231605 0.00033623  0.0193233 -0.224543 0.000476062  0.0117695 -0.231487 0.000387073  0.011749 -0.231359 0.000439346  0.0187111 -0.239554 0.00045836  0.01143 -0.239065 0.000352263  0.0114141 -0.238947 0.000403702  0.0186779 -0.239437 0.000519574  0.0183921 -0.247152 0.00041914  0.0114472 -0.239171 0.00030607  0.0110965 -0.246761 0.000279009  0.0187364 -0.23966 0.00039649  0.0110826 -0.246663 0.000323176  0.0110631 -0.246561 0.000368178  0.01806 -0.254758 0.000378489  0.0107181 -0.254274 0.000290453  0.0107007 -0.254179 0.00033015  0.0180321 -0.254667 0.000431418  0.0177128 -0.262381 0.000342488  0.0107338 -0.254361 0.000251472  0.010359 -0.261979 0.000226855  0.0180824 -0.254848 0.00032562  0.0103431 -0.261898 0.000263751  0.0103235 -0.261816 0.000297904  0.0173509 -0.270009 0.000304282  0.00995874 -0.269529 0.000234246  0.00993872 -0.269452 0.000263453  0.0173228 -0.269933 0.000342846  0.0169749 -0.277643 0.00026691  0.00997424 -0.269598 0.000203311  0.00957942 -0.277228 0.000180125  0.0173717 -0.270081 0.000263989  0.00956368 -0.277163 0.000207722  0.0095439 -0.277098 0.000238776  0.0165906 -0.285281 0.000237107  0.00916266 -0.284801 0.000183582  0.00914288 -0.284744 0.000207841  0.0165658 -0.285221 0.000267923  0.0161967 -0.292918 0.000208259  0.00917864 -0.284854 0.000160515  0.00876522 -0.292491 0.000142395  0.0166104 -0.285335 0.000205755  0.00875473 -0.292441 0.000163198  0.00873613 -0.292389 0.000187278  0.0157948 -0.30055 0.000180542  0.00833678 -0.300075 0.000138998  0.00832033 -0.300031 0.000159085  0.0157738 -0.300506 0.000201344  0.0153854 -0.308183 0.000154734  0.0083487 -0.30012 0.000122964  0.00792336 -0.30775 0.000108063  0.0158134 -0.300596 0.000156939  0.00791407 -0.307707 0.000123382  0.00790238 -0.307672 0.000135183  0.0149684 -0.315805 0.00013417  0.00748467 -0.315336 0.00010556  0.00747395 -0.315301 0.000117958  0.0149491 -0.315773 0.000146806  0.0145426 -0.323424 0.000112057  0.00749731 -0.315367 9.2566e-05  0.00706387 -0.322989 7.7486e-05  0.0149822 -0.31584 0.000117898  0.00705266 -0.322955 9.0003e-05  0.00704145 -0.322931 0.000101149  0.0141115 -0.33103 9.59039e-05  0.00661659 -0.330565 7.45058e-05  0.00660372 -0.330542 8.23736e-05  0.014096 -0.33101 0.000105143  0.0136743 -0.338636 7.83205e-05  0.00662494 -0.33059 6.54459e-05  0.00618339 -0.338192 5.51939e-05  0.0141225 -0.331058 8.48174e-05  0.00617433 -0.33817 5.91278e-05  0.00616264 -0.338152 6.93798e-05  0.0132353 -0.346218 6.4075e-05  0.00572801 -0.345758 4.88162e-05  0.00571799 -0.345742 5.62668e-05  0.0132196 -0.346204 6.8903e-05  0.0127883 -0.3538 4.8399e-05  0.00573945 -0.345776 4.39882e-05  0.00528932 -0.353355 3.45707e-05  0.0132449 -0.34624 5.78165e-05  0.00528169 -0.353337 3.91006e-05  0.00526977 -0.353325 4.29153e-05  0.0123432 -0.361362 3.43919e-05  0.0048306 -0.360903 2.58684e-05  0.00482011 -0.360894 2.97427e-05  0.0123305 -0.361355 3.77893e-05  0.0118909 -0.368918 2.25902e-05  0.00483942 -0.360919 2.61068e-05  0.00438881 -0.368472 1.68681e-05  0.0123522 -0.361378 3.35574e-05  0.00437975 -0.368459 1.46031e-05  0.00436997 -0.368449 1.59144e-05  0.011441 -0.376452 1.2219e-05  0.00392938 -0.375992 6.55651e-06  0.00391531 -0.375987 4.58956e-06  0.0114291 -0.376443 8.04663e-06  0.0109887 -0.383977 -5.96046e-06  0.00393867 -0.376001 8.40425e-06  0.00348902 -0.38353 -1.60933e-06  0.0114493 -0.376465 1.2815e-05  0.00348043 -0.383512 -4.88758e-06  0.00346613 -0.383506 -1.20997e-05  0 0 0  0.00112396 -0.00098896 0.00199467  0.000877246 -0.000514388 0.00170469  0.00166845 -0.000221431 0.00261229  0.00202204 -0.000677645 0.00310355  0.0030766 -0.00215667 0.00349343  0.000802867 -0.000736058 0.00126719  0.0021386 -0.00185984 0.00230229  0 0 0  0 0 0  0.0010125 -0.00121593 0.00149328  0 0 0  0.0024491 -0.00147253 0.00297701  0.00312351 -0.000931978 0.00368559  0.00501646 -0.00362074 0.00426364  0.00399226 -0.00284261 0.00362295  0.00445504 -0.00219184 0.00424027  0.00558834 -0.00291616 0.00503021  0.00689402 -0.00528228 0.00471485  0.0036815 -0.0033493 0.00293684  0.00526804 -0.00508237 0.00331384  0.00465803 -0.00414574 0.00344908  0.00552914 -0.00449103 0.00398982  0.0058426 -0.00372881 0.00461084  0.00868469 -0.00722885 0.00494373  0.00702944 -0.00643933 0.00416958  0.00721848 -0.00563115 0.00475633  0.00891367 -0.00639927 0.00565934  0.0104093 -0.0094732 0.00504971  0.00684044 -0.00709134 0.00353205  0.0083476 -0.00938785 0.00362056  0.00847447 -0.00790906 0.00417197  0.00847766 -0.00869656 0.00424623  0.00858456 -0.00784832 0.00484192  0.0120784 -0.012011 0.00506014  0.00987715 -0.0112486 0.00424469  0.00992474 -0.0103908 0.00482529  0.0121353 -0.0111438 0.00576234  0.013686 -0.0148532 0.00501716  0.00979394 -0.0119615 0.00364125  0.0111771 -0.0148268 0.0036099  0.0119908 -0.0127417 0.00432879  0.0112243 -0.0141037 0.00420332  0.0112314 -0.0132424 0.00478113  0.0152391 -0.0179797 0.00492656  0.0125191 -0.0172408 0.00412309  0.0125008 -0.0163893 0.00469005  0.0152104 -0.0171227 0.00560832  0.0167322 -0.0213841 0.0048148  0.0125012 -0.0179599 0.00354797  0.0137641 -0.0213717 0.00346339  0.0152225 -0.0187082 0.00423139  0.0137639 -0.0206558 0.00402677  0.0137228 -0.0198188 0.00458336  0.0181667 -0.0250527 0.00467777  0.0149515 -0.0243341 0.00390923  0.0149009 -0.0235139 0.00445175  0.0180961 -0.0242302 0.00532871  0.0195379 -0.0289736 0.0045346  0.0149681 -0.025032 0.00336355  0.0161145 -0.0289479 0.00325972  0.0181908 -0.0257552 0.00402105  0.0160882 -0.0282628 0.00378948  0.0160236 -0.0274673 0.00431979  0.0208498 -0.0331326 0.00438058  0.0171669 -0.0324301 0.00365889  0.0171019 -0.0316579 0.0041706  0.0207604 -0.0323608 0.00499225  0.0220923 -0.0375231 0.00422591  0.0172024 -0.0330933 0.00314564  0.0182294 -0.0374745 0.00303322  0.0208943 -0.033798 0.00376219  0.018191 -0.0368275 0.00353044  0.0181188 -0.0360836 0.00402856  0.0232746 -0.042127 0.00406462  0.019157 -0.0414405 0.00339776  0.0190879 -0.0407212 0.00387895  0.0231819 -0.0414082 0.00463945  0.0243905 -0.0469444 0.00391138  0.0191985 -0.0420626 0.00291979  0.0201118 -0.0468647 0.0028066  0.0233303 -0.0427502 0.0034917  0.0200665 -0.0462613 0.00326979  0.0199944 -0.045572 0.00373298  0.0254439 -0.051952 0.0037545  0.0209179 -0.0512782 0.00313699  0.0208464 -0.0506094 0.00358176  0.025351 -0.0512869 0.00428617  0.0264295 -0.057151 0.0036025  0.020964 -0.0518565 0.00269365  0.0217626 -0.0570409 0.00258511  0.0255016 -0.0525304 0.00322253  0.0217148 -0.0564844 0.00301236  0.0216429 -0.0558463 0.00344157  0.0273535 -0.0625256 0.00345242  0.0224559 -0.061864 0.00288528  0.0223856 -0.0612495 0.00329608  0.0272595 -0.0619144 0.00394195  0.0282114 -0.0680737 0.00330442  0.0225019 -0.062396 0.00247759  0.0231863 -0.0679289 0.00237232  0.0274113 -0.0630591 0.00296098  0.0231411 -0.067417 0.00276387  0.0230712 -0.0668336 0.00315982  0.0290111 -0.0737762 0.00315851  0.0237714 -0.073127 0.00264364  0.0237043 -0.0725664 0.00301862  0.0289216 -0.0732184 0.00360924  0.0297471 -0.0796362 0.0030182  0.0238166 -0.0736158 0.00226891  0.024394 -0.0794617 0.00216812  0.0290674 -0.0742646 0.0027101  0.02435 -0.0789922 0.0025267  0.0242821 -0.0784585 0.00288635  0.0304239 -0.0856362 0.0028801  0.0248719 -0.0849976 0.00240833  0.0248107 -0.0844879 0.00275379  0.0303402 -0.0851262 0.00328904  0.0310427 -0.0917762 0.00274616  0.0249181 -0.0854446 0.00206792  0.0253923 -0.0915722 0.00197375  0.0304791 -0.0860832 0.00246948  0.0253478 -0.0911429 0.0022999  0.0252813 -0.09066 0.00262946  0.0316029 -0.0980413 0.00261289  0.0257722 -0.0974132 0.00218904  0.0257083 -0.0969493 0.00249851  0.0315223 -0.0975783 0.00298679  0.0321099 -0.10443 0.0024876  0.0258154 -0.097818 0.0018791  0.0261911 -0.104194 0.00178748  0.0316581 -0.0984467 0.00224316  0.0261481 -0.103808 0.00208324  0.0260834 -0.103368 0.00238162  0.0325636 -0.110931 0.00235981  0.0264761 -0.110313 0.00197536  0.0264177 -0.109893 0.00225824  0.0324842 -0.11051 0.00269526  0.0329642 -0.117542 0.00224006  0.0265189 -0.110679 0.00169855  0.0268018 -0.117279 0.00161076  0.0326158 -0.111297 0.00202531  0.0267599 -0.116929 0.00187677  0.0267009 -0.116533 0.00214499  0.0333135 -0.12425 0.00211889  0.0269988 -0.123641 0.00177574  0.0269433 -0.123262 0.00203043  0.0332375 -0.123872 0.00242054  0.0336176 -0.131056 0.00200546  0.0270395 -0.12397 0.00152439  0.0272377 -0.130765 0.0014466  0.0333655 -0.124579 0.00182003  0.0271958 -0.130451 0.00168091  0.0271395 -0.1301 0.00192195  0.0338705 -0.137944 0.0018943  0.027351 -0.137348 0.00158602  0.0272989 -0.13701 0.00181019  0.0337964 -0.13761 0.00216115  0.0340765 -0.144919 0.00178617  0.0273916 -0.13764 0.00136328  0.027508 -0.144605 0.00128722  0.03392 -0.138238 0.00162613  0.0274684 -0.144325 0.00149554  0.0274134 -0.144011 0.00171006  0.0342438 -0.151964 0.00168025  0.027545 -0.151376 0.00140959  0.0274928 -0.15108 0.00160718  0.0341733 -0.151668 0.00191694  0.0343649 -0.159087 0.00157714  0.0275838 -0.151639 0.00121135  0.0276234 -0.158749 0.00113899  0.0342915 -0.152228 0.0014438  0.0275865 -0.158502 0.00132543  0.0275297 -0.158227 0.00151062  0.034446 -0.166267 0.00147653  0.0275919 -0.16569 0.00124007  0.0275378 -0.165428 0.0014143  0.0343776 -0.166007 0.00168353  0.0344882 -0.173512 0.00138575  0.0276287 -0.165919 0.00106931  0.0275996 -0.173158 0.000998616  0.0344927 -0.166497 0.00127149  0.0275612 -0.17294 0.00116318  0.0275092 -0.172696 0.00132674  0.0344925 -0.180808 0.00128973  0.0275021 -0.180239 0.00108248  0.0274534 -0.18001 0.00123906  0.0344303 -0.180579 0.00147104  0.0344639 -0.188155 0.00120062  0.0275388 -0.180439 0.000933349  0.0274456 -0.187781 0.000868499  0.0345387 -0.18101 0.00111175  0.0274131 -0.187593 0.00100887  0.0273621 -0.187383 0.00114965  0.0343983 -0.195545 0.00111502  0.0272887 -0.194987 0.000937164  0.0272422 -0.194791 0.00106841  0.0343392 -0.19535 0.00127202  0.0343018 -0.202978 0.00103331  0.0273252 -0.19516 0.000807345  0.0271747 -0.202587 0.000748634  0.0344412 -0.19572 0.000960112  0.0271411 -0.202425 0.000867128  0.027092 -0.202247 0.000990212  0.0341744 -0.210443 0.00095439  0.0269668 -0.209898 0.000802815  0.0269196 -0.209726 0.000914335  0.0341167 -0.210275 0.00108379  0.0340173 -0.217945 0.000876904  0.026999 -0.210047 0.000691533  0.0267973 -0.217541 0.000638187  0.034215 -0.210595 0.000820994  0.0267658 -0.2174 0.000739753  0.0267186 -0.21725 0.000838697  0.0338321 -0.225469 0.000801206  0.0265391 -0.224932 0.000675261  0.0264959 -0.224793 0.000770211  0.0337772 -0.225329 0.000912547  0.0336192 -0.233021 0.00073421  0.026572 -0.225057 0.000586689  0.0263231 -0.232606 0.000535667  0.0338695 -0.225594 0.000693262  0.0262949 -0.232489 0.000621915  0.0262477 -0.23236 0.000707328  0.0333843 -0.240588 0.000667334  0.0260251 -0.240062 0.000564516  0.0259826 -0.239944 0.000640571  0.03333 -0.240471 0.000757515  0.0331237 -0.248178 0.000603795  0.0260539 -0.240168 0.000487924  0.0257659 -0.247754 0.000442147  0.0334177 -0.240696 0.000575483  0.0257351 -0.247658 0.000509501  0.0256939 -0.247554 0.00058043  0.0328431 -0.255779 0.000545681  0.0254273 -0.255262 0.000462651  0.0253892 -0.255167 0.000524819  0.0327921 -0.255683 0.000619113  0.0325396 -0.263391 0.000488579  0.02546 -0.255347 0.000401497  0.0251343 -0.262962 0.000360548  0.0328746 -0.255866 0.000470996  0.0251057 -0.262877 0.000415385  0.0250697 -0.262794 0.000471115  0.0322208 -0.271009 0.00043571  0.0247669 -0.270502 0.00036931  0.0247321 -0.270427 0.000417769  0.0321784 -0.270939 0.000492871  0.0318832 -0.278639 0.000384927  0.0247946 -0.270573 0.000322104  0.0244381 -0.278201 0.000284016  0.0322516 -0.27108 0.000376999  0.0244091 -0.278136 0.000325978  0.0243776 -0.278072 0.000373065  0.0315299 -0.286268 0.000341415  0.0240431 -0.285771 0.000290036  0.0240159 -0.285709 0.0003286  0.0314906 -0.286209 0.000387609  0.0311604 -0.293898 0.00029844  0.0240664 -0.285822 0.000250578  0.0236886 -0.293455 0.000223756  0.0315583 -0.286321 0.000296533  0.0236638 -0.293404 0.000253677  0.0236344 -0.293355 0.000289857  0.0307784 -0.301524 0.000257909  0.0232732 -0.301035 0.000219882  0.0232463 -0.30099 0.000247657  0.0307453 -0.30148 0.0002895  0.0303838 -0.309148 0.000220716  0.0232966 -0.301076 0.000190914  0.0228913 -0.308702 0.000168264  0.0308034 -0.301565 0.000224829  0.0228705 -0.308663 0.000188172  0.0228465 -0.308629 0.000213504  0.0299807 -0.316767 0.000189662  0.0224619 -0.316284 0.000161231  0.0224388 -0.316252 0.000179946  0.0299525 -0.316735 0.000210524  0.0295651 -0.324379 0.000159264  0.02248 -0.316317 0.000143826  0.0220599 -0.323929 0.00012064  0.0299995 -0.316796 0.00016588  0.0220437 -0.323899 0.000135481  0.0220244 -0.323876 0.000152647  0.0291431 -0.331978 0.000133336  0.0216196 -0.331504 0.000112474  0.0215991 -0.331485 0.000126421  0.0291214 -0.331957 0.000148356  0.028712 -0.339573 0.00011152  0.0216341 -0.331528 0.000103593  0.021199 -0.339126 8.49962e-05  0.0291603 -0.332002 0.000118852  0.0211849 -0.339103 9.50098e-05  0.0211656 -0.339086 0.000105798  0.0282769 -0.347154 9.05395e-05  0.0207469 -0.346689 7.58767e-05  0.0207298 -0.346669 8.52942e-05  0.0282574 -0.347139 0.000100732  0.0278344 -0.354729 7.27177e-05  0.0207601 -0.346704 7.00951e-05  0.0203173 -0.354279 5.78165e-05  0.0282907 -0.347173 8.01682e-05  0.0203049 -0.354265 5.88298e-05  0.0202866 -0.354251 6.3777e-05  0.0273893 -0.362288 5.72205e-05  0.0198576 -0.361826 4.39882e-05  0.0198455 -0.361815 4.60744e-05  0.0273719 -0.362276 5.64456e-05  0.0269361 -0.369839 4.22001e-05  0.0198722 -0.361838 4.27365e-05  0.0194201 -0.369394 3.20077e-05  0.0274017 -0.362304 5.43594e-05  0.0194104 -0.369377 2.90275e-05  0.0193946 -0.36937 3.15309e-05  0.0264874 -0.377379 2.83122e-05  0.0189581 -0.376915 1.7941e-05  0.0189459 -0.376904 1.7643e-05  0.0264721 -0.377366 2.72393e-05  0.0260353 -0.384912 1.06692e-05  0.0189688 -0.376929 2.01464e-05  0.0185227 -0.38446 7.98702e-06  0.0264986 -0.377393 2.80738e-05  0.0185099 -0.384443 3.33786e-06  0.0184941 -0.384436 -3.57628e-06  0 0 0  0.00198127 -0.00291884 0.00273484  0.00150521 -0.00166613 0.00234985  0.00256854 -0.00135201 0.00355476  0.00319107 -0.00209057 0.00438988  0.00512047 -0.00432527 0.00446177  0.001417 -0.00194466 0.00172645  0.00358175 -0.00360405 0.00313061  0 0 0  0 0 0  0.00174967 -0.00311798 0.00196958  0 0 0  0.00392583 -0.00312006 0.0040226  0.00477724 -0.00250483 0.00494075  0.0075981 -0.00560731 0.00551963  0.00621282 -0.0045588 0.00488722  0.00681067 -0.00381672 0.00577486  0.00821994 -0.00481647 0.00655079  0.0100334 -0.00725657 0.00619864  0.00585487 -0.00514829 0.00397128  0.00808144 -0.00690705 0.0045011  0.00735316 -0.00630283 0.00450277  0.00837663 -0.00622988 0.00542748  0.0087713 -0.00540292 0.00630987  0.0123541 -0.00914055 0.00650853  0.0104551 -0.00813383 0.00570983  0.0106955 -0.00727457 0.00655675  0.0126112 -0.00824666 0.00749421  0.0146457 -0.011349 0.00668609  0.0102498 -0.00885111 0.0048275  0.0123164 -0.0111076 0.00496966  0.0122018 -0.00991237 0.00548232  0.0124586 -0.0103642 0.00584763  0.0125897 -0.00947505 0.00670367  0.0168566 -0.01386 0.0066995  0.0143977 -0.0128837 0.00587106  0.014451 -0.0119956 0.00669867  0.0169181 -0.0129518 0.00766146  0.0190142 -0.0166774 0.00665462  0.0143124 -0.0136321 0.00502217  0.016229 -0.0164622 0.00499129  0.0167792 -0.0146362 0.00571644  0.0162749 -0.0157122 0.00582755  0.0162734 -0.0148298 0.00665116  0.0210921 -0.0197757 0.00653571  0.0180887 -0.0188252 0.00572735  0.0180485 -0.0179579 0.00652659  0.0210541 -0.0189016 0.00745636  0.023102 -0.0231622 0.00638521  0.018076 -0.0195625 0.00491881  0.0198461 -0.0229484 0.00480843  0.0210738 -0.0205269 0.00560153  0.0198362 -0.0222203 0.00559831  0.0197681 -0.021374 0.00638396  0.0250291 -0.0268033 0.00620604  0.0215162 -0.0258752 0.00544041  0.0214328 -0.0250498 0.00620258  0.0249432 -0.0259739 0.00707614  0.0268824 -0.0307073 0.00601625  0.0215415 -0.0265824 0.00467521  0.0231665 -0.0304788 0.00453174  0.0250455 -0.0275146 0.00532728  0.0231284 -0.0297881 0.00527602  0.023029 -0.0289905 0.00601542  0.0286523 -0.0348379 0.00580823  0.0246682 -0.0339362 0.00509351  0.0245646 -0.033161 0.00581098  0.028545 -0.0340661 0.00662583  0.0303395 -0.039212 0.00560158  0.0247144 -0.0346027 0.00437677  0.0261894 -0.0389651 0.00422251  0.028689 -0.035506 0.00498807  0.0261345 -0.0383183 0.0049147  0.0260245 -0.0375749 0.00560832  0.0319467 -0.0437903 0.00539362  0.0275282 -0.0429121 0.00473034  0.0274208 -0.0421926 0.00539899  0.0318317 -0.0430733 0.00615251  0.0334675 -0.0485858 0.00518352  0.0275857 -0.0435309 0.00406343  0.0289104 -0.0483194 0.00390565  0.0319924 -0.0444087 0.0046286  0.0288491 -0.04772 0.00454855  0.0287381 -0.0470304 0.00519323  0.034909 -0.053568 0.00497758  0.0300959 -0.0527171 0.00436789  0.0299879 -0.052051 0.00498658  0.0347975 -0.0529086 0.00568068  0.036271 -0.058751 0.00477099  0.0301585 -0.0532911 0.00374979  0.0313354 -0.0584652 0.00359625  0.034964 -0.0541422 0.00427198  0.0312705 -0.0579052 0.00418949  0.0311617 -0.0572727 0.00478393  0.0375509 -0.0640977 0.00457257  0.0323747 -0.063272 0.00401413  0.0322686 -0.0626599 0.00458205  0.0374365 -0.0634943 0.00521702  0.0387489 -0.06963 0.00437784  0.0324374 -0.0638023 0.00344354  0.0334696 -0.0693191 0.00329775  0.0376042 -0.0646265 0.00392503  0.0334058 -0.0688111 0.00384092  0.0332984 -0.0682282 0.00438905  0.0398738 -0.0753092 0.00418395  0.034368 -0.0745053 0.00367045  0.0342638 -0.0739449 0.00419271  0.0397663 -0.0747543 0.00477499  0.040921 -0.0811531 0.00399566  0.0344284 -0.0749914 0.00315148  0.0353212 -0.0808255 0.00301093  0.0399258 -0.075792 0.00359273  0.0352637 -0.0803566 0.00350761  0.0351592 -0.0798266 0.00400752  0.0418941 -0.0871307 0.00381017  0.0360889 -0.0863486 0.00334632  0.0359912 -0.0858392 0.00382227  0.0417932 -0.0866248 0.00435179  0.0427935 -0.0932525 0.00363249  0.0361468 -0.0867921 0.00287342  0.0369067 -0.0929076 0.00273991  0.0419428 -0.0875725 0.00327134  0.036849 -0.0924804 0.00319082  0.0367501 -0.0919961 0.00364262  0.0436236 -0.099495 0.00345957  0.0375468 -0.0987358 0.00303459  0.0374509 -0.0982715 0.00346506  0.0435251 -0.0990347 0.00394696  0.0443795 -0.105869 0.00328755  0.0376033 -0.0991374 0.00260746  0.0382376 -0.105505 0.00248057  0.0436716 -0.0998966 0.00296956  0.0381792 -0.105118 0.00288612  0.038085 -0.104679 0.00329697  0.045073 -0.112346 0.00312191  0.0387537 -0.111609 0.00274116  0.0386628 -0.111187 0.00313014  0.0449766 -0.111931 0.00356078  0.0456983 -0.118943 0.00296003  0.0388095 -0.111974 0.00235462  0.0393248 -0.118562 0.00223225  0.0451204 -0.112709 0.00267971  0.0392703 -0.118214 0.00259966  0.0391774 -0.117818 0.00297064  0.0462633 -0.12563 0.00280422  0.0397289 -0.124912 0.00246185  0.0396388 -0.124534 0.00281101  0.0461735 -0.125255 0.00319105  0.0467659 -0.132421 0.00264835  0.0397795 -0.125239 0.00211376  0.0401835 -0.132024 0.00200087  0.0463107 -0.125956 0.00240964  0.0401305 -0.131713 0.00232798  0.0400418 -0.131359 0.00265831  0.0472069 -0.139287 0.00250101  0.0404811 -0.138592 0.00219721  0.0403954 -0.138257 0.00250733  0.0471194 -0.138956 0.00284851  0.0475903 -0.146249 0.00235677  0.0405319 -0.138885 0.00189084  0.0408299 -0.145837 0.00178194  0.0472518 -0.139581 0.00214952  0.0407796 -0.14556 0.00207102  0.0406916 -0.145248 0.00236446  0.0479212 -0.153276 0.00221509  0.0410273 -0.1526 0.00194746  0.0409465 -0.152299 0.00222296  0.0478377 -0.152983 0.00252318  0.0481961 -0.160379 0.00207704  0.0410767 -0.152859 0.00167298  0.0412779 -0.159959 0.00157356  0.0479665 -0.153532 0.00190508  0.0412288 -0.159712 0.00182742  0.0411479 -0.159433 0.00208664  0.0484238 -0.167543 0.00194854  0.0413828 -0.166887 0.00171316  0.0413039 -0.166621 0.00195438  0.048342 -0.167283 0.00221515  0.0485988 -0.174775 0.00181788  0.0414321 -0.167114 0.00147247  0.0415411 -0.17434 0.00137788  0.0484662 -0.167768 0.00167674  0.0414951 -0.174123 0.00160241  0.0414131 -0.173883 0.00182515  0.0487266 -0.182048 0.00169337  0.0415618 -0.181413 0.00149351  0.0414879 -0.18118 0.00170183  0.0486519 -0.181819 0.0019291  0.0488081 -0.189379 0.00157803  0.0416083 -0.18161 0.00128764  0.0416341 -0.188941 0.00119692  0.0487676 -0.182244 0.00146157  0.0415902 -0.188752 0.00139099  0.0415154 -0.188542 0.00158739  0.0488489 -0.196749 0.0014649  0.0415781 -0.196132 0.00128925  0.0415099 -0.195937 0.00147212  0.0487735 -0.196557 0.0016647  0.0488436 -0.204167 0.00135684  0.0416224 -0.196307 0.00111145  0.0415726 -0.203722 0.00103134  0.0488868 -0.196922 0.00126427  0.0415313 -0.203558 0.00119615  0.0414608 -0.203379 0.00136286  0.0488048 -0.211613 0.0012514  0.0414469 -0.211015 0.00110179  0.0413818 -0.210847 0.001257  0.048733 -0.211451 0.00141823  0.0487239 -0.219101 0.00114781  0.0414908 -0.211164 0.000950515  0.0413704 -0.218649 0.000875771  0.0488381 -0.211762 0.0010798  0.0413301 -0.21851 0.00101638  0.0412626 -0.218362 0.0011518  0.0486069 -0.226604 0.00104964  0.0411811 -0.226028 0.000928044  0.0411191 -0.225888 0.00105453  0.0485458 -0.226471 0.00119257  0.0484571 -0.234145 0.000956535  0.0412233 -0.226152 0.000801921  0.0410428 -0.233689 0.000732243  0.0486455 -0.226731 0.000908911  0.0410018 -0.233572 0.000844955  0.0409422 -0.233446 0.000961542  0.0482805 -0.241697 0.000871241  0.0407956 -0.241135 0.000769496  0.0407391 -0.241019 0.000874698  0.0482183 -0.241581 0.000983536  0.0480621 -0.249271 0.000789046  0.0408335 -0.241239 0.000667036  0.0405998 -0.248813 0.000604391  0.0483127 -0.2418 0.000754714  0.0405619 -0.248716 0.000696003  0.0405064 -0.248613 0.000790656  0.0478239 -0.256853 0.000708997  0.0403044 -0.256308 0.000626385  0.0402498 -0.256213 0.000712693  0.0477726 -0.256762 0.000799417  0.0475588 -0.264455 0.000634015  0.0403378 -0.256394 0.000543237  0.0400541 -0.263997 0.000488937  0.0478582 -0.256936 0.000617325  0.04002 -0.263917 0.000560164  0.0399694 -0.263835 0.000635445  0.0472684 -0.272057 0.000563562  0.0397148 -0.271531 0.000498354  0.0396681 -0.27146 0.000567198  0.0472212 -0.271989 0.000636339  0.0469527 -0.279674 0.000495911  0.0397494 -0.271597 0.000435293  0.0394223 -0.279214 0.000385821  0.0472975 -0.272124 0.00049299  0.0393932 -0.27915 0.000442684  0.0393479 -0.279091 0.000501037  0.0466206 -0.287284 0.000434458  0.0390501 -0.286771 0.000392079  0.0390108 -0.286715 0.0004403  0.0465758 -0.287234 0.000486851  0.0462673 -0.294907 0.000384033  0.039079 -0.286827 0.000343382  0.0387197 -0.294446 0.000298738  0.0466466 -0.287336 0.000382125  0.0386896 -0.294399 0.000340164  0.0386531 -0.29435 0.000386059  0.0458977 -0.302519 0.000330925  0.0383148 -0.302019 0.000292718  0.0382807 -0.301975 0.000332475  0.0458581 -0.302477 0.000366569  0.0455046 -0.310135 0.000281513  0.0383408 -0.302056 0.000259817  0.0379488 -0.309676 0.000224352  0.045917 -0.302553 0.000292778  0.0379272 -0.309641 0.000251353  0.037889 -0.30961 0.000280023  0.0450997 -0.317734 0.000238836  0.0375242 -0.317251 0.000213861  0.0374961 -0.317221 0.000239253  0.0450683 -0.317714 0.000266433  0.044683 -0.325342 0.000200868  0.0375471 -0.317279 0.000189781  0.0371318 -0.324883 0.000162244  0.0451217 -0.317765 0.000213802  0.037111 -0.324859 0.00017941  0.0370834 -0.324837 0.000199556  0.0442591 -0.332932 0.000165105  0.0366895 -0.332456 0.000150084  0.0366621 -0.332433 0.000164926  0.0442297 -0.332912 0.000173688  0.0438221 -0.340517 0.000135601  0.0367062 -0.332476 0.000138879  0.0362735 -0.340069 0.000115931  0.0442767 -0.332953 0.000152111  0.0362575 -0.340045 0.000124812  0.0362315 -0.340032 0.000135124  0.0433786 -0.348093 0.000112355  0.0358179 -0.347623 0.000101507  0.0358007 -0.347606 0.00011158  0.0433533 -0.348078 0.000115216  0.0429268 -0.355659 9.31621e-05  0.0358331 -0.34764 9.57251e-05  0.0353885 -0.355211 7.92146e-05  0.043396 -0.348108 0.000106812  0.0353746 -0.355193 8.27909e-05  0.0353572 -0.355186 8.5175e-05  0.0424738 -0.363211 7.55787e-05  0.0349252 -0.36275 6.71148e-05  0.0349126 -0.362739 6.9797e-05  0.0424595 -0.363203 7.68304e-05  0.0420151 -0.370761 6.15716e-05  0.0349407 -0.362766 6.53863e-05  0.0344882 -0.370316 5.24521e-05  0.0424891 -0.363225 7.40886e-05  0.0344744 -0.3703 5.03659e-05  0.0344586 -0.370291 5.08428e-05  0.041563 -0.378298 5.09024e-05  0.0340209 -0.377842 3.5584e-05  0.034004 -0.377826 3.73721e-05  0.0415461 -0.378287 4.52399e-05  0.0411077 -0.385842 2.99811e-05  0.0340366 -0.377852 3.88622e-05  0.0335813 -0.385396 2.75373e-05  0.0415754 -0.378315 4.8995e-05  0.033567 -0.385378 2.25306e-05  0.0335503 -0.385366 1.54972e-05  -0.000893552 -0.00116839 -0.00112116  -0.00114882 -0.0018368 -0.00129259  -0.00251951 -0.00268987 -0.00204402  -0.00121028 -0.00199322 -0.00100362  -0.00334219 -0.00402462 -0.00178033  -0.00257546 -0.00351397 -0.00113893  0 0 0  -0.00255959 -0.00334788 -0.00150329  0 0 0  0 0 0  -0.000890475 -0.00125256 -0.000830531  0 0 0  -0.00486368 -0.00503444 -0.00274265  -0.00336879 -0.00376992 -0.00238079  -0.00438653 -0.00421606 -0.00273186  -0.00559606 -0.00527362 -0.00316525  -0.00628401 -0.00590613 -0.00319308  -0.00552247 -0.00565303 -0.00241739  -0.00771719 -0.00737962 -0.00287664  -0.00718203 -0.00685841 -0.00276977  -0.00717205 -0.00641403 -0.00360566  -0.00429477 -0.00454509 -0.00208682  -0.00957288 -0.00802509 -0.00424647  -0.00780761 -0.00691297 -0.00370216  -0.00817177 -0.0078401 -0.00347096  -0.00997975 -0.00875483 -0.00402993  -0.00999808 -0.010014 -0.0036183  -0.00988311 -0.00925649 -0.00315922  -0.0120121 -0.0113967 -0.00332832  -0.0119154 -0.0103277 -0.003609  -0.0119745 -0.00978391 -0.0046016  -0.008068 -0.0082941 -0.00272387  -0.0143622 -0.0118522 -0.00481147  -0.0120956 -0.0108692 -0.00420362  -0.0117725 -0.0124698 -0.00367129  -0.0141555 -0.0132683 -0.00427169  -0.0134988 -0.0152039 -0.00365919  -0.0140963 -0.0138022 -0.00339812  -0.0161263 -0.0164835 -0.00340235  -0.0166498 -0.0147561 -0.00387633  -0.0167049 -0.014194 -0.00487816  -0.0117136 -0.0129712 -0.00292498  -0.0189906 -0.0168253 -0.0048641  -0.0161615 -0.0159521 -0.00425774  -0.0151767 -0.0182058 -0.00360352  -0.0181155 -0.0189111 -0.00419587  -0.0168179 -0.0214751 -0.00351703  -0.0181026 -0.0194364 -0.00335997  -0.0200258 -0.0226513 -0.00328648  -0.021202 -0.0202802 -0.00383496  -0.0212212 -0.019735 -0.00479352  -0.0151705 -0.0187136 -0.00288916  -0.0233897 -0.0229071 -0.0046801  -0.0200171 -0.0221329 -0.00409788  -0.0184138 -0.0249903 -0.00341231  -0.0218696 -0.0256117 -0.00397825  -0.0199738 -0.028755 -0.00329608  -0.0218958 -0.0261141 -0.0031957  -0.0237117 -0.0298201 -0.00308865  -0.0255069 -0.0268541 -0.00364786  -0.0254952 -0.0263392 -0.00454557  -0.0184463 -0.0254825 -0.00274211  -0.0275413 -0.0300105 -0.00439036  -0.0236704 -0.0293314 -0.00384194  -0.0214908 -0.0327472 -0.00317347  -0.0254257 -0.0332844 -0.00370222  -0.0229741 -0.0369638 -0.00304878  -0.0254776 -0.0337569 -0.00297433  -0.0271929 -0.0379144 -0.00285703  -0.0295628 -0.0343987 -0.00339961  -0.0295255 -0.0339184 -0.00423187  -0.0215504 -0.0332113 -0.00255185  -0.0314553 -0.0380467 -0.00406295  -0.0271285 -0.0374571 -0.00355548  -0.0244174 -0.0413893 -0.00292301  -0.028791 -0.0418466 -0.00341237  -0.0258282 -0.0460215 -0.00279933  -0.0288594 -0.0422845 -0.00274181  -0.0304784 -0.0468581 -0.00262517  -0.0333788 -0.0428336 -0.00313389  -0.0333266 -0.0423903 -0.00390261  -0.0244915 -0.0418236 -0.00234938  -0.0351425 -0.0469346 -0.00373709  -0.0304047 -0.0464388 -0.00326759  -0.0272006 -0.0508446 -0.00267738  -0.0319749 -0.0512241 -0.00312668  -0.0285442 -0.0558556 -0.0025574  -0.0320516 -0.0516282 -0.00251096  -0.0335797 -0.0565822 -0.00240153  -0.0369637 -0.0520853 -0.00287449  -0.0369058 -0.0516803 -0.0035764  -0.0272821 -0.0512462 -0.00215197  -0.0386167 -0.0566076 -0.00341856  -0.0335006 -0.0561957 -0.00298899  -0.0298485 -0.0610407 -0.00244236  -0.0349876 -0.0613474 -0.00285423  -0.0311227 -0.0663993 -0.00233054  -0.0350658 -0.0617175 -0.00229102  -0.0365093 -0.0670207 -0.00218672  -0.0403401 -0.0620897 -0.00262135  -0.040274 -0.0617196 -0.00326616  -0.0299313 -0.0614108 -0.0019623  -0.0418847 -0.0669938 -0.00311494  -0.0364295 -0.0666652 -0.00272214  -0.0323647 -0.0719161 -0.0022223  -0.0378342 -0.0721497 -0.00259525  -0.0335755 -0.0775903 -0.00211626  -0.0379122 -0.0724843 -0.00208485  -0.0392758 -0.0781062 -0.00198525  -0.0435132 -0.0727765 -0.0023849  -0.0434455 -0.0724401 -0.00296837  -0.0324475 -0.0722525 -0.00178385  -0.0449638 -0.0780357 -0.00282806  -0.0391995 -0.0777865 -0.00247288  -0.0347537 -0.0834052 -0.00201142  -0.0405253 -0.0835711 -0.00235265  -0.0359071 -0.0893641 -0.00191247  -0.0406018 -0.0838758 -0.00188929  -0.041889 -0.0897853 -0.00179464  -0.0464941 -0.0840923 -0.00216496  -0.0464289 -0.0837832 -0.00269228  -0.0348356 -0.0837119 -0.00161606  -0.0478543 -0.0896694 -0.00255889  -0.0418125 -0.0894924 -0.00223595  -0.0370253 -0.0954539 -0.00181651  -0.0430681 -0.0955513 -0.00212479  -0.0381187 -0.101669 -0.00172126  -0.0431402 -0.0958257 -0.00170594  -0.0443535 -0.101996 -0.00161695  -0.0492924 -0.0959657 -0.00195271  -0.0492353 -0.0956911 -0.00243312  -0.0371025 -0.0957295 -0.00145972  -0.05057 -0.101837 -0.00230324  -0.0442824 -0.101731 -0.00201422  -0.0391825 -0.108 -0.00163215  -0.0454633 -0.108035 -0.00190723  -0.0402194 -0.114447 -0.00154322  -0.045532 -0.108284 -0.0015325  -0.046676 -0.114686 -0.00144923  -0.0519186 -0.108354 -0.00175428  -0.0518633 -0.108107 -0.00218433  -0.0392526 -0.10825 -0.0013113  -0.0531194 -0.114492 -0.00206661  -0.0466104 -0.114451 -0.00180459  -0.0412283 -0.120996 -0.00145578  -0.0477263 -0.120973 -0.00170386  -0.0422137 -0.127648 -0.00137353  -0.0477905 -0.121196 -0.00136906  -0.0488684 -0.127807 -0.00129199  -0.0543875 -0.121204 -0.00157017  -0.0543339 -0.120981 -0.00195158  -0.041293 -0.121219 -0.00116992  -0.0555117 -0.127571 -0.00183928  -0.0488058 -0.127595 -0.00160754  -0.0431688 -0.13439 -0.00129378  -0.049857 -0.134311 -0.00151575  -0.0441006 -0.141222 -0.00121391  -0.0499157 -0.134511 -0.00121713  -0.0509311 -0.141305 -0.00114655  -0.0566981 -0.134458 -0.00139582  -0.0566483 -0.134257 -0.0017342  -0.0432311 -0.13459 -0.00103921  -0.057753 -0.141033 -0.00163335  -0.0508727 -0.141115 -0.00142425  -0.045007 -0.148135 -0.00114197  -0.0518603 -0.148003 -0.00133693  -0.0458899 -0.155124 -0.00106865  -0.0519178 -0.148179 -0.00107741  -0.0528734 -0.155133 -0.00100899  -0.0588613 -0.14807 -0.00123388  -0.0588143 -0.147896 -0.00153464  -0.0450637 -0.14831 -0.000917673  -0.0598462 -0.154833 -0.00143325  -0.0528176 -0.15497 -0.00125092  -0.0467472 -0.162183 -0.000999451  -0.053746 -0.162007 -0.00116867  -0.047586 -0.169311 -0.000932813  -0.0537989 -0.162161 -0.000942409  -0.0546951 -0.169254 -0.000876963  -0.0608792 -0.161999 -0.00108045  -0.060838 -0.161846 -0.00133878  -0.0467989 -0.162337 -0.000803828  -0.061801 -0.168925 -0.00124705  -0.054647 -0.169109 -0.00109017  -0.0483971 -0.176494 -0.000865579  -0.0555224 -0.176276 -0.00101596  -0.0491905 -0.183739 -0.000804007  -0.0555665 -0.176409 -0.000817597  -0.0564096 -0.183621 -0.000758469  -0.0627673 -0.176201 -0.000940919  -0.0627301 -0.176068 -0.00116378  -0.0484447 -0.176631 -0.00069648  -0.0636289 -0.183267 -0.00107843  -0.0563655 -0.183498 -0.00094074  -0.0499592 -0.191029 -0.000744879  -0.0571856 -0.190773 -0.000872374  -0.0507073 -0.198368 -0.000684857  -0.0572267 -0.190887 -0.000703573  -0.0580189 -0.198198 -0.000649691  -0.0645247 -0.190637 -0.000809968  -0.0644927 -0.190521 -0.00100058  -0.0500004 -0.191146 -0.000600338  -0.0653267 -0.197821 -0.000922322  -0.0579789 -0.198089 -0.000805259  -0.0514364 -0.205746 -0.000630617  -0.0587497 -0.205453 -0.000742674  -0.052146 -0.213164 -0.000577509  -0.0587852 -0.20555 -0.0006001  -0.0595305 -0.212947 -0.00054884  -0.0661674 -0.205266 -0.00068897  -0.0661368 -0.205167 -0.000850022  -0.0514736 -0.205846 -0.00050962  -0.06692 -0.212552 -0.000778913  -0.0594933 -0.212853 -0.00067848  -0.0528309 -0.220614 -0.000527024  -0.0602167 -0.220291 -0.000620306  -0.0535049 -0.228095 -0.000480115  -0.0602508 -0.220373 -0.000502169  -0.0609522 -0.227836 -0.000459313  -0.0676966 -0.220054 -0.000579059  -0.067672 -0.219972 -0.000712991  -0.0528693 -0.220701 -0.000428259  -0.068397 -0.227423 -0.000645578  -0.0609188 -0.227759 -0.000565767  -0.0541558 -0.235603 -0.000436127  -0.061599 -0.235249 -0.00051266  -0.0547915 -0.243134 -0.000394821  -0.0616283 -0.23532 -0.000415921  -0.0622849 -0.242832 -0.000375211  -0.069124 -0.23497 -0.00048089  -0.0690987 -0.234898 -0.000587463  -0.0541844 -0.235673 -0.000355065  -0.0697782 -0.242404 -0.000528276  -0.0622561 -0.242767 -0.000461996  -0.0554087 -0.250679 -0.00035423  -0.0628955 -0.250304 -0.000416756  -0.0560133 -0.258244 -0.000314832  -0.0629227 -0.250361 -0.000340283  -0.0635407 -0.257912 -0.000302911  -0.0704494 -0.249986 -0.000389338  -0.0704334 -0.249928 -0.000477731  -0.0554376 -0.250739 -0.000290155  -0.0710664 -0.257471 -0.000422359  -0.0635128 -0.257859 -0.000370383  -0.0565996 -0.265819 -0.000281036  -0.0641172 -0.265426 -0.000329435  -0.0571744 -0.273408 -0.000246942  -0.0641403 -0.26547 -0.000269115  -0.0647242 -0.273046 -0.000240445  -0.0716932 -0.265072 -0.00031352  -0.0716791 -0.265029 -0.000379145  -0.0566242 -0.265867 -0.000231445  -0.0722725 -0.272595 -0.000332057  -0.0647035 -0.273003 -0.000291705  -0.0577331 -0.281 -0.000218511  -0.0652738 -0.280591 -0.000256598  -0.0582817 -0.288602 -0.000190914  -0.0652895 -0.280624 -0.000212729  -0.0658441 -0.288216 -0.000188768  -0.0728645 -0.280208 -0.00024575  -0.0728498 -0.280173 -0.000296116  -0.057755 -0.281039 -0.000182152  -0.0734055 -0.287758 -0.000256956  -0.0658257 -0.288182 -0.000224352  -0.0588152 -0.296202 -0.000165582  -0.0663629 -0.295775 -0.000193894  -0.0593388 -0.3038 -0.000139475  -0.0663803 -0.295803 -0.000164211  -0.066905 -0.303396 -0.000140965  -0.0739608 -0.295373 -0.000190258  -0.0739443 -0.295342 -0.000222325  -0.0588312 -0.296228 -0.000141919  -0.0744729 -0.302934 -0.000191152  -0.0668881 -0.303368 -0.000167549  -0.0598507 -0.311398 -0.000121117  -0.0674052 -0.310964 -0.000143051  -0.0603526 -0.318995 -0.00010407  -0.0674176 -0.310984 -0.000121772  -0.0679176 -0.318576 -0.000105739  -0.074996 -0.310543 -0.000142455  -0.0749822 -0.310519 -0.000165582  -0.0598626 -0.311421 -0.000104964  -0.0754848 -0.318112 -0.000139773  -0.0679042 -0.318554 -0.000120878  -0.0608447 -0.326584 -8.79765e-05  -0.0683997 -0.326142 -0.000103474  -0.0613332 -0.334168 -7.55787e-05  -0.0684094 -0.326158 -9.23872e-05  -0.0688927 -0.333739 -7.80821e-05  -0.0759814 -0.325707 -0.000106096  -0.075974 -0.325693 -0.000118613  -0.0608556 -0.326601 -7.77841e-05  -0.0764506 -0.33327 -9.95398e-05  -0.0688834 -0.333721 -8.81553e-05  -0.0618095 -0.341742 -6.33001e-05  -0.0693607 -0.341294 -7.47442e-05  -0.0622828 -0.349312 -5.17964e-05  -0.0693696 -0.341308 -7.01547e-05  -0.0698369 -0.348874 -6.03795e-05  -0.0769305 -0.340853 -8.39829e-05  -0.0769191 -0.340838 -8.70228e-05  -0.0618193 -0.341759 -5.96642e-05  -0.0773826 -0.348408 -7.25389e-05  -0.0698266 -0.348861 -6.35386e-05  -0.0627513 -0.356868 -4.70877e-05  -0.0702915 -0.356415 -5.6088e-05  -0.063211 -0.364418 -3.75509e-05  -0.070303 -0.356427 -5.37038e-05  -0.0707614 -0.363977 -4.8399e-05  -0.0778501 -0.355969 -6.33001e-05  -0.0778418 -0.355958 -6.69956e-05  -0.0627568 -0.35688 -4.54187e-05  -0.0782967 -0.363512 -5.76973e-05  -0.0707517 -0.363966 -4.84586e-05  -0.0636723 -0.371957 -3.12924e-05  -0.0712118 -0.371508 -4.06504e-05  -0.0641325 -0.379491 -2.29478e-05  -0.071218 -0.371515 -4.15444e-05  -0.0716779 -0.379054 -3.29614e-05  -0.0787635 -0.371062 -5.30481e-05  -0.0787506 -0.371055 -4.58956e-05  -0.0636804 -0.371969 -3.42727e-05  -0.0792112 -0.378595 -3.75509e-05  -0.0716703 -0.379045 -3.14116e-05  -0.000519954 -0.000440523 -0.000760734  -0.000669666 -0.000722021 -0.000938594  -0.00141735 -0.00137718 -0.00140095  -0.000658147 -0.000826105 -0.000708222  -0.00181554 -0.00209887 -0.00128901  0 0 0  0 0 0  -0.000522591 -0.000527054 -0.000562787  0 0 0  -0.00181367 -0.00187463 -0.00172162  -0.002529 -0.00275671 -0.00187224  -0.0033531 -0.00338243 -0.00231063  -0.00375162 -0.00447495 -0.00217992  -0.00326514 -0.00367038 -0.00175017  -0.00482175 -0.00546984 -0.00208879  -0.00245382 -0.00302909 -0.00142068  -0.00492948 -0.0051035 -0.00269729  -0.00499046 -0.00645499 -0.00235927  -0.00649726 -0.00706686 -0.00291902  -0.00622183 -0.0087242 -0.00244814  -0.00639659 -0.00748393 -0.00229079  -0.00795478 -0.00975722 -0.00240707  -0.00490037 -0.00684237 -0.00185251  -0.00803727 -0.0093006 -0.00303775  -0.00741798 -0.0112635 -0.00247484  -0.00952801 -0.0118019 -0.00307626  -0.0085898 -0.0140769 -0.00246042  -0.00947177 -0.012277 -0.00245345  -0.0109482 -0.0150659 -0.00245041  -0.00737187 -0.0117165 -0.00197607  -0.010978 -0.0145778 -0.00306165  -0.00972641 -0.0171565 -0.00241625  -0.0123889 -0.017622 -0.00301164  -0.0108419 -0.0204957 -0.00235468  -0.0123851 -0.0181128 -0.00241643  -0.013782 -0.0214185 -0.00235957  -0.00972575 -0.0176326 -0.0019424  -0.013764 -0.0209266 -0.0029366  -0.0119304 -0.0240835 -0.00228411  -0.0151106 -0.0244831 -0.00285  -0.0129974 -0.0279139 -0.00220132  -0.0151435 -0.0249644 -0.00229132  -0.016471 -0.028754 -0.00221193  -0.0119638 -0.0245577 -0.00183719  -0.0164207 -0.0282819 -0.00274873  -0.0140445 -0.0319719 -0.00211865  -0.0177069 -0.0323102 -0.00264734  -0.0150731 -0.0362549 -0.00203264  -0.0177665 -0.0327675 -0.00212812  -0.0190288 -0.0370076 -0.00204349  -0.0141 -0.0324281 -0.00170577  -0.0189608 -0.0365599 -0.00254041  -0.0160804 -0.0407439 -0.00194669  -0.0201898 -0.0410224 -0.00243616  -0.017073 -0.0454401 -0.00186247  -0.020263 -0.0414516 -0.00195742  -0.0214674 -0.0461049 -0.00187302  -0.0161492 -0.0411744 -0.00156575  -0.0213906 -0.045687 -0.00233066  -0.0180469 -0.0503248 -0.00178283  -0.0225666 -0.0505458 -0.00222957  -0.0190057 -0.0554016 -0.0017007  -0.0226465 -0.0509441 -0.00179094  -0.0237985 -0.0559745 -0.00171012  -0.0181193 -0.0507267 -0.00143194  -0.0237166 -0.0555892 -0.00213146  -0.0199454 -0.0606479 -0.00162327  -0.0248432 -0.0608092 -0.00203449  -0.020873 -0.0660673 -0.00154614  -0.0249245 -0.0611759 -0.00163347  -0.0260245 -0.0665515 -0.0015564  -0.0200213 -0.061016 -0.00130522  -0.0259428 -0.0661989 -0.00193959  -0.0217818 -0.0716441 -0.00147414  -0.0270209 -0.071748 -0.00184852  -0.0226766 -0.0773767 -0.00140148  -0.0271013 -0.072084 -0.00148314  -0.0281543 -0.0777746 -0.0014134  -0.0218567 -0.0719827 -0.00118417  -0.0280734 -0.0774493 -0.00175905  -0.023556 -0.0832514 -0.00133401  -0.0291035 -0.0833001 -0.00167358  -0.0244181 -0.0892657 -0.0012663  -0.0291836 -0.0836043 -0.00134331  -0.0301906 -0.0895808 -0.0012753  -0.0236253 -0.0835597 -0.00107116  -0.0301121 -0.0892875 -0.00159079  -0.0252661 -0.0954078 -0.00120199  -0.0311004 -0.0954046 -0.00150907  -0.0261017 -0.101679 -0.00113732  -0.0311731 -0.0956824 -0.00120926  -0.0321366 -0.101915 -0.00114739  -0.025334 -0.095689 -0.000966132  -0.0320634 -0.101648 -0.00143081  -0.0269207 -0.108063 -0.0010764  -0.0330074 -0.10801 -0.00135487  -0.0277272 -0.114561 -0.00101793  -0.0330766 -0.108258 -0.00108874  -0.0339961 -0.11472 -0.00102723  -0.0269866 -0.108316 -0.000865996  -0.0339301 -0.114484 -0.00128126  -0.0285192 -0.12116 -0.000961542  -0.0348331 -0.121059 -0.00121117  -0.0292979 -0.12786 -0.000907242  -0.034896 -0.121282 -0.000971735  -0.0357757 -0.127948 -0.000916958  -0.0285791 -0.121386 -0.00077337  -0.0357126 -0.127735 -0.00114149  -0.0300616 -0.134647 -0.000854015  -0.0365762 -0.134504 -0.00107324  -0.0308119 -0.141524 -0.000800908  -0.0366355 -0.1347 -0.000861645  -0.0374775 -0.141548 -0.000810623  -0.0301173 -0.134846 -0.000685573  -0.0374196 -0.141358 -0.00101066  -0.0315487 -0.148479 -0.000750661  -0.0382404 -0.148294 -0.000947595  -0.0322731 -0.155509 -0.00070262  -0.0382988 -0.148468 -0.000759959  -0.0390997 -0.15547 -0.000709355  -0.0316024 -0.148655 -0.000603557  -0.0390475 -0.155304 -0.000885248  -0.0329833 -0.162607 -0.00065589  -0.0398335 -0.162384 -0.000827193  -0.0336857 -0.16977 -0.000614941  -0.0398843 -0.162537 -0.000666082  -0.0406497 -0.169676 -0.000621438  -0.0330329 -0.162764 -0.000528634  -0.0406022 -0.169529 -0.000774503  -0.0343695 -0.176992 -0.000569999  -0.0413513 -0.176734 -0.000718236  -0.035042 -0.184268 -0.000527084  -0.0413971 -0.17687 -0.000579894  -0.0421286 -0.184121 -0.000537455  -0.0344114 -0.177128 -0.000458062  -0.042084 -0.183993 -0.000665605  -0.0357032 -0.19159 -0.000489175  -0.0428016 -0.191301 -0.000616372  -0.0363531 -0.198961 -0.000450313  -0.0428445 -0.191419 -0.000495374  -0.0435421 -0.198767 -0.000458658  -0.0357428 -0.191709 -0.000393093  -0.0435019 -0.198658 -0.000568748  -0.0369887 -0.206368 -0.000411868  -0.0441868 -0.20605 -0.000522971  -0.0376127 -0.21381 -0.000380754  -0.0442238 -0.206149 -0.000421464  -0.0448895 -0.213576 -0.00038749  -0.037025 -0.206468 -0.000334263  -0.0448539 -0.213481 -0.000481009  -0.0382254 -0.221287 -0.000347972  -0.045507 -0.220945 -0.000437498  -0.03883 -0.228793 -0.000312448  -0.0455389 -0.221029 -0.00035429  -0.0461762 -0.228521 -0.000322878  -0.038259 -0.221374 -0.00028199  -0.0461423 -0.228439 -0.000398338  -0.0394199 -0.236321 -0.000283182  -0.0467689 -0.23596 -0.000362337  -0.0400038 -0.243874 -0.000256836  -0.0467989 -0.23603 -0.000294566  -0.0474029 -0.243567 -0.000265241  -0.0394483 -0.236394 -0.000230789  -0.0473759 -0.243501 -0.000324905  -0.0405729 -0.251439 -0.000228286  -0.0479739 -0.251058 -0.000293732  -0.0411348 -0.259022 -0.000206292  -0.0479972 -0.251115 -0.000238776  -0.0485792 -0.258687 -0.000210941  -0.0405967 -0.251501 -0.000187099  -0.0485556 -0.258631 -0.000262022  -0.0416832 -0.266614 -0.000183046  -0.0491269 -0.266216 -0.000233054  -0.0422268 -0.274219 -0.00016284  -0.0491498 -0.266264 -0.000191987  -0.0497055 -0.273856 -0.00016892  -0.0417042 -0.266662 -0.000151217  -0.049685 -0.273811 -0.000204504  -0.0427597 -0.281823 -0.000144601  -0.0502338 -0.281414 -0.000180662  -0.0432839 -0.289435 -0.000122964  -0.0502534 -0.281451 -0.000147462  -0.0507874 -0.289053 -0.000130832  -0.0427756 -0.281863 -0.000118613  -0.0507698 -0.289017 -0.000158489  -0.0437984 -0.297046 -0.000107288  -0.0512965 -0.296622 -0.000138581  -0.0443084 -0.304658 -9.17912e-05  -0.0513108 -0.296651 -0.000115573  -0.0518274 -0.30426 -0.000100553  -0.0438144 -0.297076 -9.03606e-05  -0.0518131 -0.30423 -0.000118434  -0.0448105 -0.312265 -7.98106e-05  -0.0523212 -0.311832 -0.000101566  -0.0453048 -0.319868 -6.80089e-05  -0.0523319 -0.311857 -8.37445e-05  -0.0528312 -0.319455 -7.4029e-05  -0.044821 -0.312289 -6.85453e-05  -0.0528204 -0.319434 -8.89897e-05  -0.0457909 -0.327463 -5.79953e-05  -0.0533104 -0.327024 -7.2062e-05  -0.0462756 -0.335054 -4.84586e-05  -0.0533237 -0.327043 -6.30617e-05  -0.0538085 -0.33463 -5.64456e-05  -0.0458024 -0.327482 -5.13792e-05  -0.0537994 -0.334612 -6.44326e-05  -0.0467522 -0.342634 -4.01735e-05  -0.0542793 -0.342191 -5.45979e-05  -0.0472238 -0.350207 -3.40343e-05  -0.0542846 -0.342203 -4.85778e-05  -0.0547571 -0.349774 -4.17829e-05  -0.0467601 -0.342648 -3.62992e-05  -0.0547512 -0.34976 -4.55379e-05  -0.0476933 -0.357765 -2.89083e-05  -0.0552163 -0.357317 -3.75509e-05  -0.0481541 -0.365316 -2.39015e-05  -0.055223 -0.357329 -3.62992e-05  -0.0556872 -0.364882 -3.23057e-05  -0.0476973 -0.35778 -2.78354e-05  -0.0556803 -0.364867 -3.06964e-05  -0.0486138 -0.37285 -1.75834e-05  -0.0561426 -0.372405 -2.30074e-05  -0.0490725 -0.380382 -9.29832e-06  -0.0561497 -0.372419 -2.563e-05  -0.0566075 -0.37995 -1.77026e-05  -0.04862 -0.372865 -2.06232e-05  -0.0566037 -0.379938 -1.8537e-05  -0.000235114 -0.000141501 -0.000383675  -0.000362534 -0.000253767 -0.000574172  -0.000637613 -0.000858873 -0.000708699  -0.000360206 -0.000340372 -0.000433147  -0.000969931 -0.00122115 -0.00078994  0 0 0  0 0 0  -0.000239771 -0.000224113 -0.000284374  0 0 0  -0.000966333 -0.00104615 -0.00106257  -0.0011467 -0.00208771 -0.000950754  -0.00179291 -0.0023528 -0.00142056  -0.0017214 -0.00372282 -0.00110418  -0.00173029 -0.00259668 -0.00107002  -0.00260834 -0.00432879 -0.0012812  -0.00110923 -0.00232029 -0.000719905  -0.00267865 -0.00401711 -0.00165272  -0.00231498 -0.00570381 -0.00119513  -0.00360265 -0.00600308 -0.00178361  -0.00292128 -0.00800309 -0.00123769  -0.00353429 -0.00636697 -0.00139934  -0.00446716 -0.00869703 -0.00146741  -0.0022727 -0.00605214 -0.000938594  -0.00452226 -0.00829083 -0.00185072  -0.00351927 -0.0105916 -0.00124973  -0.00542399 -0.0108584 -0.00186801  -0.00411454 -0.013459 -0.00123882  -0.00539052 -0.0112946 -0.00149113  -0.00629437 -0.0141598 -0.00148433  -0.00350037 -0.011014 -0.000999868  -0.00630766 -0.0137045 -0.00185502  -0.00469947 -0.0165941 -0.00121599  -0.00717264 -0.0168132 -0.0018189  -0.00528085 -0.0199847 -0.0011819  -0.00717568 -0.017277 -0.00146264  -0.00804019 -0.0206524 -0.00142461  -0.00470805 -0.0170484 -0.000977874  -0.00801969 -0.0201813 -0.00177085  -0.00585371 -0.0236234 -0.00114352  -0.00885254 -0.0237973 -0.00171483  -0.0064261 -0.0275023 -0.0011012  -0.00888544 -0.0242633 -0.00138032  -0.00971502 -0.0281168 -0.00133002  -0.00588435 -0.0240832 -0.000922322  -0.00967187 -0.0276535 -0.00165224  -0.0069952 -0.031608 -0.00105751  -0.0104824 -0.0317388 -0.00158876  -0.00756258 -0.035937 -0.00101358  -0.0105328 -0.0321904 -0.00127858  -0.0113369 -0.0364879 -0.00122488  -0.00703973 -0.0320571 -0.000852227  -0.011281 -0.036045 -0.00152189  -0.00813144 -0.0404736 -0.000969827  -0.0120702 -0.0405636 -0.00145864  -0.00870049 -0.0452165 -0.000925183  -0.0121319 -0.040989 -0.00117356  -0.0129137 -0.0456969 -0.001122  -0.00818372 -0.0409011 -0.000780761  -0.0128506 -0.0452836 -0.00139534  -0.00926626 -0.0501486 -0.000882804  -0.0136217 -0.0501951 -0.00133419  -0.00983703 -0.05527 -0.000843167  -0.013689 -0.0505935 -0.00107044  -0.0144522 -0.0556784 -0.00102103  -0.00932229 -0.0505462 -0.000709534  -0.0143844 -0.0552932 -0.0012722  -0.0104033 -0.0605613 -0.000801742  -0.015141 -0.0605666 -0.00121474  -0.0109736 -0.0660263 -0.000763476  -0.0152081 -0.0609331 -0.000976145  -0.0159546 -0.0663648 -0.000927985  -0.0104599 -0.0609308 -0.000644624  -0.0158885 -0.0660099 -0.0011555  -0.0115414 -0.0716464 -0.000724554  -0.0166291 -0.0716108 -0.00110024  -0.0121121 -0.0774238 -0.000687361  -0.0166941 -0.0719476 -0.000883043  -0.0174258 -0.0776918 -0.000837564  -0.0115967 -0.071986 -0.000581145  -0.0173609 -0.0773662 -0.00104564  -0.0126793 -0.0833414 -0.000652254  -0.0180857 -0.0832647 -0.000994503  -0.0132505 -0.0894004 -0.000620067  -0.0181512 -0.0835717 -0.000796497  -0.018867 -0.0895982 -0.000756741  -0.0127335 -0.0836519 -0.000523925  -0.0188036 -0.0893029 -0.000944257  -0.013818 -0.0955849 -0.000586748  -0.019514 -0.0954677 -0.000892818  -0.0143868 -0.101897 -0.000554025  -0.0195746 -0.0957474 -0.00071758  -0.020274 -0.102027 -0.000679016  -0.0138692 -0.0958664 -0.000470638  -0.0202163 -0.10176 -0.00084722  -0.0149524 -0.10832 -0.000523686  -0.0209103 -0.108167 -0.000802457  -0.0155205 -0.114857 -0.000494063  -0.0209676 -0.108418 -0.000642359  -0.021652 -0.114924 -0.000604391  -0.015 -0.108573 -0.000419974  -0.0215961 -0.114685 -0.000755847  -0.0160872 -0.121494 -0.000465572  -0.0222771 -0.121305 -0.000716388  -0.0166517 -0.128231 -0.000436783  -0.0223308 -0.121531 -0.000571966  -0.0230014 -0.128239 -0.000540972  -0.0161307 -0.121722 -0.000374079  -0.0229487 -0.128024 -0.000673711  -0.0172125 -0.135056 -0.000411093  -0.023614 -0.134832 -0.000633717  -0.0177749 -0.141964 -0.000386834  -0.023662 -0.135029 -0.000506938  -0.024318 -0.141916 -0.000474989  -0.017256 -0.135257 -0.000330567  -0.0242695 -0.141724 -0.000593007  -0.0183337 -0.14895 -0.000359833  -0.02492 -0.148697 -0.000557899  -0.0188923 -0.156013 -0.000337541  -0.0249653 -0.148874 -0.00044632  -0.025605 -0.155915 -0.000415623  -0.0183713 -0.149131 -0.0002895  -0.0255618 -0.155744 -0.000520468  -0.019448 -0.163139 -0.000314295  -0.0261965 -0.162858 -0.000485003  -0.0200024 -0.170335 -0.000290811  -0.0262387 -0.163016 -0.000389993  -0.0268633 -0.170188 -0.0003618  -0.0194814 -0.163297 -0.000251651  -0.0268214 -0.170038 -0.000452459  -0.0205524 -0.177581 -0.000267386  -0.027441 -0.177273 -0.000421584  -0.0210989 -0.184885 -0.000251055  -0.0274789 -0.177412 -0.000337481  -0.0280874 -0.184695 -0.000313103  -0.020582 -0.17772 -0.000216007  -0.0280516 -0.184563 -0.000389516  -0.021641 -0.19223 -0.000231266  -0.0286548 -0.1919 -0.000359833  -0.022181 -0.199623 -0.000212014  -0.0286875 -0.192018 -0.000289202  -0.0292804 -0.199394 -0.000264406  -0.0216672 -0.19235 -0.000185013  -0.0292504 -0.199282 -0.000331163  -0.022718 -0.207054 -0.000195086  -0.0298367 -0.206701 -0.000304997  -0.0232522 -0.21452 -0.000177979  -0.0298679 -0.206802 -0.000246286  -0.0304468 -0.214255 -0.000224054  -0.0227425 -0.207156 -0.00015682  -0.0304182 -0.214157 -0.000277579  -0.0237811 -0.222013 -0.000159919  -0.0309913 -0.221643 -0.000253916  -0.0243075 -0.229539 -0.000143468  -0.0310163 -0.221731 -0.000204682  -0.03158 -0.229242 -0.000185668  -0.0238018 -0.222103 -0.000129402  -0.0315526 -0.229159 -0.000229776  -0.0248277 -0.237082 -0.00013119  -0.0321121 -0.236696 -0.000209928  -0.0253475 -0.24465 -0.000117838  -0.0321357 -0.23677 -0.000168741  -0.0326846 -0.244325 -0.000152588  -0.0248485 -0.237158 -0.000106633  -0.0326643 -0.244257 -0.00019002  -0.0258646 -0.252232 -0.0001055  -0.0332074 -0.251832 -0.0001688  -0.0263729 -0.259828 -9.08971e-05  -0.0332279 -0.251893 -0.000137269  -0.0337601 -0.259479 -0.000122905  -0.0258796 -0.252294 -8.744e-05  -0.0337429 -0.259421 -0.000150323  -0.0268788 -0.267431 -8.2612e-05  -0.0342712 -0.267018 -0.000134349  -0.0273829 -0.275046 -7.43866e-05  -0.0342898 -0.267069 -0.000110269  -0.0348103 -0.274676 -9.7692e-05  -0.0268927 -0.267483 -6.7234e-05  -0.0347958 -0.274628 -0.000120163  -0.0278797 -0.282662 -6.33597e-05  -0.0353127 -0.282241 -0.000105083  -0.0283761 -0.290283 -5.37038e-05  -0.0353262 -0.28228 -8.51154e-05  -0.0358355 -0.289895 -7.55787e-05  -0.0278935 -0.282705 -5.31673e-05  -0.0358198 -0.289857 -8.95262e-05  -0.0288661 -0.297901 -4.69685e-05  -0.0363259 -0.297473 -7.93934e-05  -0.0293548 -0.305523 -4.05312e-05  -0.0363374 -0.297504 -6.65784e-05  -0.0368369 -0.305117 -5.73397e-05  -0.0288751 -0.297936 -3.86834e-05  -0.0368264 -0.305088 -6.92606e-05  -0.0298381 -0.313134 -3.37362e-05  -0.0373173 -0.312698 -5.72205e-05  -0.030318 -0.320745 -2.90871e-05  -0.0373278 -0.312723 -5.06639e-05  -0.0378137 -0.320329 -4.04716e-05  -0.0298433 -0.313161 -2.94447e-05  -0.0378034 -0.320306 -4.85778e-05  -0.0307934 -0.328346 -2.60472e-05  -0.0382869 -0.327904 -4.17829e-05  -0.031266 -0.335939 -2.11e-05  -0.0382965 -0.327922 -3.71933e-05  -0.0387728 -0.335517 -3.21865e-05  -0.0307977 -0.328364 -2.21729e-05  -0.0387669 -0.335496 -3.72529e-05  -0.031734 -0.343523 -1.65105e-05  -0.0392396 -0.343079 -3.14116e-05  -0.0322037 -0.351101 -1.46627e-05  -0.0392485 -0.343094 -2.86698e-05  -0.0397155 -0.350669 -2.32458e-05  -0.031738 -0.343542 -1.62125e-05  -0.03971 -0.350653 -2.5034e-05  -0.0326655 -0.358661 -1.26958e-05  -0.0401733 -0.358213 -1.94907e-05  -0.0331278 -0.366213 -1.00136e-05  -0.0401804 -0.358225 -1.89543e-05  -0.0406444 -0.365779 -1.508e-05  -0.0326669 -0.358673 -1.33514e-05  -0.0406375 -0.365764 -1.62721e-05  -0.0335858 -0.373745 -7.62939e-06  -0.0410981 -0.373299 -1.07288e-05  -0.0340457 -0.381269 -3.93391e-06  -0.0411048 -0.373311 -1.17421e-05  -0.0415623 -0.380837 -8.64267e-06  -0.0335898 -0.373759 -8.40425e-06  -0.0415568 -0.380823 -5.78165e-06  1.27032e-05 -7.47442e-05 8.22544e-06  -0.000103809 -8.84533e-05 -0.000188172  3.26335e-05 -0.000750631 1.24574e-05  -0.000106737 -0.000167102 -0.000144958  -0.000286303 -0.000912011 -0.000261605  0 0 0  0 0 0  8.93325e-06 -0.00015527 8.52346e-06  0 0 0  -0.000271924 -0.000757813 -0.000355721  6.55353e-05 -0.00194269 9.41753e-06  -0.000523567 -0.00196216 -0.000472486  9.2566e-05 -0.00355777 8.46386e-06  -0.000506118 -0.00218281 -0.000354648  -0.00077264 -0.00385621 -0.000431001  5.75036e-05 -0.00216249 7.86781e-06  -0.00078772 -0.00357017 -0.000552893  0.00012061 -0.00554374 4.76837e-06  -0.00107771 -0.0055553 -0.000597119  0.000132978 -0.00785598 1.60933e-06  -0.00106019 -0.00589198 -0.000468254  -0.00136235 -0.0082418 -0.00049448  0.000105858 -0.00587723 1.01328e-06  -0.00137311 -0.00785989 -0.000622213  0.000137061 -0.0104702 -1.72853e-06  -0.00167373 -0.0104623 -0.00062722  0.000124693 -0.0133645 -2.68221e-06  -0.00167179 -0.0108763 -0.000503242  -0.00198492 -0.0137856 -0.000500202  0.000118226 -0.0108803 -5.1856e-06  -0.00197691 -0.0133466 -0.000622928  0.000101268 -0.0165292 -4.41074e-06  -0.00228381 -0.0164997 -0.000611961  6.11544e-05 -0.0199527 -1.2517e-06  -0.00229985 -0.0169488 -0.000492692  -0.00261724 -0.0203672 -0.00047791  7.81417e-05 -0.0169777 -6.25849e-06  -0.00259274 -0.0199084 -0.00059247  7.39098e-06 -0.0236209 7.15256e-07  -0.00290793 -0.0235656 -0.000573397  -6.68168e-05 -0.0275288 3.21865e-06  -0.00293994 -0.0240201 -0.000463903  -0.00326508 -0.0279174 -0.00044167  -2.3663e-05 -0.0240769 -3.03984e-06  -0.00323021 -0.0274602 -0.000548601  -0.000155389 -0.0316642 4.52995e-06  -0.00356263 -0.0315848 -0.000528872  -0.000264823 -0.0360215 8.22544e-06  -0.00359857 -0.0320301 -0.000425518  -0.00394034 -0.0363684 -0.00040561  -0.000186563 -0.0321114 1.84774e-06  -0.00389844 -0.0359291 -0.000504017  -0.000386715 -0.0405888 9.89437e-06  -0.00424737 -0.0404843 -0.000479937  -0.00052923 -0.045362 1.45435e-05  -0.0042876 -0.0409087 -0.000385761  -0.00464374 -0.0456565 -0.000366628  -0.000420094 -0.0410131 6.61612e-06  -0.00459927 -0.0452418 -0.000456631  -0.000687122 -0.0503246 1.69873e-05  -0.00496161 -0.0501931 -0.000433028  -0.000863671 -0.0554748 1.91927e-05  -0.00500858 -0.0505909 -0.000347376  -0.00538027 -0.0557148 -0.000330687  -0.000720501 -0.050724 1.16825e-05  -0.00533485 -0.0553296 -0.000412047  -0.00105584 -0.0607983 2.05636e-05  -0.00571513 -0.0606401 -0.000391483  -0.00126481 -0.0662931 2.41399e-05  -0.00576079 -0.0610079 -0.000313818  -0.00614941 -0.0664767 -0.000297666  -0.0010885 -0.0611683 1.7345e-05  -0.00610459 -0.06612 -0.000371158  -0.00148785 -0.0719449 2.45571e-05  -0.00650239 -0.0717593 -0.000351369  -0.00172961 -0.0777496 2.72989e-05  -0.0065459 -0.0720965 -0.000280976  -0.00694883 -0.0778781 -0.00026381  -0.00152016 -0.0722816 2.01464e-05  -0.00690866 -0.0775515 -0.000330329  -0.00198638 -0.0836987 2.76566e-05  -0.00732148 -0.0834878 -0.000313938  -0.00225639 -0.0897895 2.97427e-05  -0.0073638 -0.0837962 -0.000249505  -0.00778174 -0.0898607 -0.000235438  -0.00201666 -0.0840094 2.22325e-05  -0.00774038 -0.0895633 -0.00029701  -0.00253892 -0.0960011 2.96831e-05  -0.00816619 -0.0957639 -0.000279605  -0.00283539 -0.102341 3.24249e-05  -0.00820553 -0.0960444 -0.000222445  -0.00863838 -0.102358 -0.000209033  -0.00256717 -0.0962857 2.36034e-05  -0.00859976 -0.10209 -0.000262618  -0.00314569 -0.108793 3.21865e-05  -0.00903809 -0.108528 -0.000246286  -0.00346887 -0.115357 3.3319e-05  -0.00907767 -0.108781 -0.000196993  -0.00952065 -0.115323 -0.000184715  -0.00317419 -0.109048 2.62856e-05  -0.00948381 -0.11508 -0.000231624  -0.00380373 -0.122019 3.24249e-05  -0.0099349 -0.121731 -0.000216603  -0.00414848 -0.128782 3.17097e-05  -0.0099715 -0.12196 -0.000174046  -0.0104238 -0.1287 -0.000161588  -0.00382805 -0.122248 2.68817e-05  -0.0103918 -0.128482 -0.000202894  -0.00450802 -0.135628 3.33786e-05  -0.010851 -0.13532 -0.000188529  -0.00487351 -0.142563 3.29018e-05  -0.0108833 -0.135524 -0.000151038  -0.0113467 -0.142438 -0.000142455  -0.00452888 -0.135834 2.8789e-05  -0.0113157 -0.142241 -0.000176787  -0.00525045 -0.149571 3.29018e-05  -0.011785 -0.149243 -0.000164807  -0.00563884 -0.156656 3.27229e-05  -0.0118132 -0.149422 -0.000130832  -0.0122838 -0.156489 -0.00012219  -0.0052712 -0.149754 2.6226e-05  -0.0122554 -0.156316 -0.000154376  -0.00602984 -0.163804 3.30806e-05  -0.0127323 -0.163455 -0.000139892  -0.00643206 -0.171016 3.05176e-05  -0.0127592 -0.163615 -0.000111759  -0.0132341 -0.170812 -0.000104368  -0.00604844 -0.163965 2.8193e-05  -0.0132062 -0.170659 -0.000128627  -0.0068419 -0.178283 3.17097e-05  -0.0136876 -0.177918 -0.000118554  -0.00725889 -0.185602 3.06964e-05  -0.013711 -0.178056 -9.32217e-05  -0.0141945 -0.185365 -8.67844e-05  -0.00685906 -0.178426 2.55704e-05  -0.0141711 -0.185228 -0.000108361  -0.00767994 -0.192968 2.94447e-05  -0.0146532 -0.192588 -0.000100493  -0.00810981 -0.200378 2.95043e-05  -0.0146756 -0.192708 -8.11219e-05  -0.0151584 -0.200105 -7.236e-05  -0.00769448 -0.193092 2.46167e-05  -0.0151384 -0.199988 -9.17315e-05  -0.00854111 -0.207821 2.70605e-05  -0.0156233 -0.207427 -8.28505e-05  -0.00897884 -0.215303 2.7597e-05  -0.0156429 -0.207532 -6.81877e-05  -0.0161269 -0.215 -6.04391e-05  -0.00855374 -0.207928 2.43783e-05  -0.0161099 -0.214901 -7.51019e-05  -0.00942278 -0.22281 2.5332e-05  -0.0165961 -0.222402 -6.87242e-05  -0.00986791 -0.230346 2.61664e-05  -0.0166106 -0.222491 -5.48363e-05  -0.017096 -0.230018 -4.79221e-05  -0.00943232 -0.2229 2.13981e-05  -0.0170827 -0.229933 -6.00219e-05  -0.0103161 -0.237901 2.34842e-05  -0.0175686 -0.237485 -5.50747e-05  -0.0107636 -0.245479 2.47359e-05  -0.0175824 -0.23756 -4.22001e-05  -0.0180655 -0.245128 -3.80874e-05  -0.0103242 -0.23798 1.74046e-05  -0.0180509 -0.245055 -4.76241e-05  -0.0112205 -0.253069 2.23517e-05  -0.0185373 -0.252643 -4.14252e-05  -0.0116796 -0.260673 2.13981e-05  -0.0185494 -0.252706 -3.25441e-05  -0.019032 -0.260303 -3.03984e-05  -0.011224 -0.25313 1.78218e-05  -0.0190229 -0.260246 -3.70741e-05  -0.0121374 -0.268287 1.97887e-05  -0.0195074 -0.267853 -3.26037e-05  -0.0125968 -0.275907 1.88947e-05  -0.0195119 -0.267905 -2.41399e-05  -0.0199924 -0.27552 -2.21729e-05  -0.01214 -0.268339 1.70469e-05  -0.0199847 -0.27547 -2.58088e-05  -0.0130556 -0.283527 1.66893e-05  -0.0204663 -0.283092 -2.39015e-05  -0.0135164 -0.291155 1.63317e-05  -0.0204728 -0.283132 -2.00868e-05  -0.0209506 -0.290754 -1.57952e-05  -0.0130596 -0.28357 1.28746e-05  -0.0209417 -0.290715 -1.8537e-05  -0.0139771 -0.298779 1.49608e-05  -0.0214202 -0.298339 -1.8239e-05  -0.0144413 -0.306405 1.18017e-05  -0.0214272 -0.298372 -1.53184e-05  -0.0219007 -0.305991 -1.19805e-05  -0.0139809 -0.298816 1.19805e-05  -0.0218942 -0.30596 -1.3113e-05  -0.0149019 -0.314019 1.07884e-05  -0.0223672 -0.313576 -1.11461e-05  -0.0153637 -0.321634 1.03712e-05  -0.0223742 -0.313603 -8.40425e-06  -0.0228422 -0.321213 -8.28505e-06  -0.0149031 -0.314048 9.65595e-06  -0.0228388 -0.321187 -8.46386e-06  -0.0158236 -0.329239 8.88109e-06  -0.0233078 -0.328791 -9.0003e-06  -0.0162861 -0.336836 6.79493e-06  -0.0233114 -0.32881 -8.22544e-06  -0.0237758 -0.336407 -7.92742e-06  -0.0158262 -0.32926 5.66244e-06  -0.0237741 -0.336388 -8.16584e-06  -0.0167458 -0.344424 5.06639e-06  -0.0242372 -0.343973 -7.98702e-06  -0.0172029 -0.351999 4.76837e-06  -0.0242403 -0.34399 -6.4373e-06  -0.0247042 -0.351566 -5.48363e-06  -0.0167446 -0.344439 3.33786e-06  -0.0247014 -0.351548 -5.48363e-06  -0.0176604 -0.359562 3.8743e-06  -0.0251639 -0.359111 -5.48363e-06  -0.0181174 -0.367112 2.14577e-06  -0.0251639 -0.359124 -5.60284e-06  -0.0256231 -0.366678 -4.52995e-06  -0.0176592 -0.359576 1.90735e-06  -0.0256209 -0.366662 -3.75509e-06  -0.0185707 -0.374644 1.13249e-06  -0.0260777 -0.374196 -4.47035e-06  -0.0190263 -0.382164 -5.42402e-06  -0.0260797 -0.374208 -6.07967e-06  -0.0265336 -0.381732 -3.99351e-06  -0.0185714 -0.374661 -2.38419e-06  -0.0265317 -0.381716 -3.8147e-06  0.000262342 -0.000188231 0.000399411  0.000142433 -0.000112414 0.00020504  0.000698745 -0.00096935 0.000728786  0.00013721 -0.000189245 0.000149965  0.000353023 -0.000965178 0.000274181  0 0 0  0 0 0  0.000255264 -0.000272393 0.000297427  0 0 0  0.000382841 -0.000814497 0.000366271  0.00127731 -0.00224894 0.00096333  0.000668645 -0.00204104 0.000491083  0.00190088 -0.00391155 0.0011152  0.000639126 -0.00226051 0.00037539  0.000956476 -0.00394827 0.00043416  0.00121987 -0.00247222 0.000732243  0.0010002 -0.00366706 0.000564158  0.00254545 -0.0059402 0.00119525  0.00132585 -0.00567245 0.00060451  0.00317439 -0.00826579 0.00123304  0.00128314 -0.00600755 0.000472069  0.00160578 -0.00837129 0.000488937  0.00247505 -0.00627589 0.000936925  0.00164676 -0.00799155 0.000620902  0.00377712 -0.0108957 0.00123775  0.00194779 -0.0106148 0.000623047  0.00434721 -0.0137981 0.00122762  0.00191134 -0.0110258 0.00049448  0.00219482 -0.0139514 0.000490725  0.00372145 -0.0113092 0.000985622  0.00222808 -0.0135174 0.000614345  0.00488216 -0.0169708 0.00120276  0.00248182 -0.016688 0.000602841  0.00538015 -0.0204021 0.00117177  0.00245327 -0.0171348 0.000481009  0.00268364 -0.0205736 0.000470817  0.0048452 -0.0174206 0.000962257  0.00271243 -0.0201162 0.000587761  0.00584233 -0.024079 0.00113565  0.00291568 -0.0237946 0.00056994  0.00626647 -0.0279974 0.0011009  0.00288653 -0.0242479 0.000455976  0.00306588 -0.0281621 0.000445187  0.00581712 -0.0245351 0.000911832  0.00309205 -0.0277089 0.000553191  0.00665623 -0.032144 0.00106174  0.00324178 -0.0318519 0.00053376  0.00700879 -0.0365137 0.00102496  0.0032177 -0.0322968 0.000428975  0.00334275 -0.0366566 0.000415027  0.00663859 -0.0325904 0.000853121  0.00336486 -0.0362175 0.000516772  0.0073294 -0.0410941 0.000988722  0.00346237 -0.0407923 0.000497282  0.00761318 -0.0458812 0.000950694  0.00344205 -0.041217 0.000399888  0.00351274 -0.0459887 0.000387371  0.00731462 -0.041521 0.000792027  0.00353503 -0.0455733 0.000482917  0.00786269 -0.050859 0.000913799  0.00358093 -0.0505481 0.000464499  0.0080781 -0.056026 0.000877857  0.0035584 -0.0509454 0.000372708  0.00358152 -0.0560925 0.000360191  0.00785112 -0.0512587 0.000732005  0.00360179 -0.0557069 0.000448167  0.0082618 -0.0613669 0.000841916  0.00359702 -0.0610415 0.000429928  0.0084126 -0.0668769 0.000806153  0.00357759 -0.06141 0.000345647  0.00354838 -0.0668995 0.000335455  0.00825524 -0.0617359 0.000675976  0.00356853 -0.0665439 0.000414789  0.00853384 -0.0725451 0.000773072  0.00351465 -0.0722079 0.000398815  0.00862074 -0.0783682 0.000743032  0.00349569 -0.0725444 0.000321746  0.00342226 -0.0783495 0.000308931  0.0085268 -0.072886 0.000619709  0.00344026 -0.0780228 0.00038296  0.00868368 -0.084332 0.000709653  0.00334239 -0.0839816 0.000367761  0.00871217 -0.0904368 0.000678658  0.00332534 -0.0842904 0.000296474  0.00320542 -0.0903792 0.000285447  0.00867605 -0.0846451 0.000569046  0.00322187 -0.0900787 0.000355124  0.00871396 -0.0966694 0.00064683  0.00308061 -0.0963032 0.000338733  0.0086875 -0.103027 0.000616968  0.00306296 -0.0965876 0.000271201  0.00290394 -0.102923 0.000260413  0.00870609 -0.0969527 0.000519276  0.00291955 -0.102651 0.00032407  0.00863588 -0.109494 0.000586092  0.00273824 -0.109115 0.000309289  0.00855768 -0.116074 0.000560284  0.00272191 -0.109371 0.000249445  0.00252211 -0.115932 0.000238478  0.00862873 -0.10975 0.00047195  0.00253832 -0.115689 0.000295103  0.00845528 -0.122753 0.000532568  0.00231946 -0.12236 0.000281394  0.00832689 -0.129527 0.000506282  0.00230396 -0.12259 0.000228047  0.00207043 -0.129349 0.000218093  0.00844908 -0.122983 0.000427663  0.00208139 -0.129131 0.000267208  0.00817621 -0.136387 0.000477254  0.00182772 -0.135986 0.000254333  0.00800395 -0.143337 0.000451565  0.00181651 -0.136191 0.00020647  0.00154734 -0.143124 0.000197589  0.00817168 -0.136594 0.00038588  0.00155878 -0.142929 0.000241995  0.00781107 -0.150357 0.000427008  0.00127506 -0.149943 0.000231206  0.00759888 -0.157453 0.000403106  0.00126338 -0.150125 0.000187099  0.000965357 -0.157209 0.000177681  0.00780725 -0.15054 0.00034368  0.000976086 -0.157034 0.000218332  0.00736785 -0.164614 0.000377178  0.000663042 -0.164192 0.0002051  0.00711656 -0.171837 0.000355005  0.000653982 -0.164352 0.000165462  0.000328779 -0.171562 0.000157595  0.00736451 -0.164776 0.000303984  0.000336885 -0.171408 0.000192046  0.00684857 -0.179113 0.000332355  -2.14577e-06 -0.178682 0.000182331  0.00656319 -0.186443 0.000311732  -1.09673e-05 -0.178826 0.000148296  -0.000358343 -0.186143 0.00014019  0.0068481 -0.179258 0.000268579  -0.000351906 -0.186008 0.000171125  0.00626636 -0.193815 0.000290155  -0.000711918 -0.193378 0.0001598  0.00594926 -0.201234 0.000271142  -0.000718832 -0.193502 0.000131071  -0.00108743 -0.200911 0.000122368  0.00626493 -0.193941 0.000234008  -0.00108123 -0.200793 0.000150084  0.00562215 -0.208684 0.000251472  -0.00146484 -0.208242 0.000139594  0.00527954 -0.216173 0.000232399  -0.00146914 -0.208347 0.00011313  -0.00185823 -0.215826 0.000105023  0.00562429 -0.208792 0.000203311  -0.00185347 -0.215727 0.000128686  0.00492716 -0.223686 0.000216246  -0.00225139 -0.223239 0.000119448  0.00456357 -0.231229 0.000198305  -0.00225854 -0.223329 9.89437e-05  -0.00265861 -0.230863 9.23872e-05  0.00493169 -0.223779 0.000173807  -0.00265479 -0.230778 0.000111699  0.00419068 -0.23879 0.000180602  -0.00306797 -0.238338 0.000101149  0.00380516 -0.246368 0.000163555  -0.00306988 -0.238413 8.41618e-05  -0.00348806 -0.245988 7.59959e-05  0.00419259 -0.238866 0.000146449  -0.0034852 -0.245916 9.18508e-05  0.00341177 -0.253964 0.000150979  -0.00390768 -0.253508 8.46982e-05  0.00300908 -0.261573 0.000136912  -0.00390983 -0.25357 7.03335e-05  -0.0043366 -0.261175 6.53267e-05  0.00341392 -0.254027 0.000121653  -0.00433755 -0.261115 7.85589e-05  0.00260115 -0.269186 0.00012213  -0.00477099 -0.26873 7.21216e-05  0.00218463 -0.276811 0.000109792  -0.00477052 -0.268782 5.87106e-05  -0.00520992 -0.276401 5.20349e-05  0.00260448 -0.269239 0.000101507  -0.00520706 -0.276352 6.38962e-05  0.00176406 -0.284434 9.77516e-05  -0.00564814 -0.283978 5.68628e-05  0.00133681 -0.292064 8.69036e-05  -0.00565028 -0.284018 4.83394e-05  -0.00609446 -0.291645 4.52399e-05  0.00176978 -0.284477 8.0049e-05  -0.00609255 -0.291608 4.89354e-05  0.000906229 -0.299688 7.53403e-05  -0.00653934 -0.299232 4.47035e-05  0.000468731 -0.307314 6.90222e-05  -0.00654006 -0.299264 3.54648e-05  -0.00698781 -0.306887 3.32594e-05  0.000909805 -0.299721 6.34789e-05  -0.00698662 -0.306853 4.10676e-05  3.0756e-05 -0.31493 5.79953e-05  -0.00743794 -0.314474 3.26037e-05  -0.000412464 -0.322546 4.91142e-05  -0.00743914 -0.314501 3.00407e-05  -0.00788808 -0.322113 2.57492e-05  3.31402e-05 -0.314958 4.84586e-05  -0.00788903 -0.322086 2.90871e-05  -0.0008564 -0.330148 4.13656e-05  -0.0083425 -0.329692 2.51532e-05  -0.00130463 -0.337748 3.5584e-05  -0.00834227 -0.329713 2.16961e-05  -0.00879383 -0.337309 1.7941e-05  -0.000854254 -0.330172 3.48091e-05  -0.00879574 -0.337291 2.02656e-05  -0.00175309 -0.345331 3.09944e-05  -0.00925064 -0.344878 1.66297e-05  -0.0022068 -0.352907 2.5332e-05  -0.00925064 -0.344893 1.508e-05  -0.00970745 -0.352471 1.25766e-05  -0.00175142 -0.345349 2.73585e-05  -0.00970745 -0.352454 1.2517e-05  -0.00265861 -0.360471 1.94311e-05  -0.0101616 -0.360014 9.89437e-06  -0.00311184 -0.368021 1.23382e-05  -0.0101609 -0.360029 8.46386e-06  -0.0106158 -0.367582 5.78165e-06  -0.00265646 -0.360487 1.54972e-05  -0.0106161 -0.367565 5.36442e-06  -0.00356221 -0.375556 7.80821e-06  -0.011071 -0.375099 1.96695e-06  -0.00401068 -0.383077 1.19209e-07  -0.0110688 -0.375113 5.42402e-06  -0.0115182 -0.382635 -1.49012e-06  -0.00355911 -0.375571 7.92742e-06  -0.0115223 -0.382617 -3.09944e-06  0.000545375 -0.000538409 0.000770807  0.000408821 -0.000328362 0.000589132  0.0014621 -0.00158036 0.00141311  0.000401959 -0.000414729 0.000439405  0.00104071 -0.00137359 0.000796258  0 0 0  0 0 0  0.000542298 -0.000632942 0.000578523  0 0 0  0.00108847 -0.00121397 0.0010699  0.00264548 -0.00306839 0.00187099  0.00193782 -0.00258583 0.00142807  0.0039137 -0.00482649 0.00216818  0.00186428 -0.00282228 0.00108415  0.00278175 -0.00459272 0.00127709  0.00254485 -0.0033142 0.00142217  0.0028801 -0.00429511 0.00165212  0.00518829 -0.00690216 0.00233662  0.00382796 -0.00634664 0.00177664  0.00643435 -0.00924057 0.00241911  0.00373656 -0.00669754 0.00139159  0.0046798 -0.00907946 0.00145155  0.00507078 -0.00726527 0.00183165  0.00476494 -0.00868446 0.00183475  0.00762752 -0.0118594 0.00244111  0.00566331 -0.0113112 0.00184661  0.00876677 -0.0147493 0.00242555  0.00559443 -0.0117338 0.00147152  0.00646317 -0.0146567 0.00146329  0.00754288 -0.0122941 0.00194347  0.00652009 -0.0142123 0.00183171  0.00984746 -0.0179036 0.00238371  0.00733066 -0.0173782 0.00179714  0.0108722 -0.0213234 0.00232631  0.00728691 -0.0178324 0.00144029  0.00806063 -0.0212656 0.00140691  0.00979793 -0.0183672 0.00191069  0.00809312 -0.020805 0.00175142  0.0118429 -0.0249885 0.00226033  0.00881064 -0.0244778 0.00170106  0.0127572 -0.0289002 0.00218773  0.00878614 -0.0249369 0.00136513  0.00946373 -0.028852 0.0013231  0.0118175 -0.025454 0.00181395  0.00948167 -0.0283954 0.0016458  0.0136198 -0.0330438 0.00211149  0.0101078 -0.0325418 0.00158852  0.0144287 -0.0374115 0.00203496  0.0100955 -0.0329893 0.00127578  0.0106819 -0.0373528 0.00122911  0.0136133 -0.0334919 0.00169414  0.0106915 -0.0369113 0.00153196  0.015187 -0.0419905 0.0019567  0.0112277 -0.041496 0.00147384  0.0158905 -0.0467772 0.00188231  0.0112211 -0.0419206 0.00118405  0.0117208 -0.0466977 0.00113785  0.0151885 -0.0424173 0.0015707  0.0117234 -0.0462824 0.00141704  0.0165486 -0.0517551 0.00180697  0.0121772 -0.0512636 0.00136119  0.0171533 -0.0569248 0.00173342  0.0121762 -0.051662 0.00109303  0.012588 -0.0568184 0.00104743  0.016555 -0.0521561 0.0014503  0.0125885 -0.0564332 0.00130451  0.0177097 -0.0622681 0.00166196  0.0129589 -0.0617749 0.00125206  0.0182165 -0.0677825 0.00159329  0.0129611 -0.0621442 0.00100392  0.0132927 -0.0676458 0.000964522  0.0177193 -0.0626389 0.00133377  0.013289 -0.0672898 0.00119996  0.0186794 -0.0734558 0.00152135  0.0135808 -0.0729604 0.00114858  0.0190963 -0.0792829 0.00145495  0.0135834 -0.0733026 0.000921667  0.0138363 -0.0791175 0.000882268  0.0186918 -0.0737961 0.00122207  0.0138322 -0.0787882 0.00109744  0.0194672 -0.0852526 0.00138915  0.0140495 -0.0847579 0.00104976  0.019792 -0.0913621 0.00132567  0.0140523 -0.0850698 0.000843942  0.0142326 -0.0911644 0.000805497  0.0194768 -0.0855655 0.00111508  0.0142293 -0.0908657 0.00100136  0.0200779 -0.0975976 0.00126469  0.0143733 -0.0971013 0.000955164  0.0203191 -0.103958 0.00120258  0.0143763 -0.0973819 0.000768721  0.014484 -0.103732 0.000731528  0.0200882 -0.0978803 0.00101513  0.0144815 -0.103462 0.000910521  0.020523 -0.110428 0.00114214  0.0145556 -0.109933 0.000865221  0.0206861 -0.117012 0.00108784  0.0145621 -0.110189 0.000695407  0.0146037 -0.116761 0.000662327  0.0205337 -0.110685 0.000919044  0.0146005 -0.116514 0.000824869  0.0208111 -0.123692 0.00102848  0.0146101 -0.123197 0.000779569  0.0208998 -0.130474 0.000975132  0.0146157 -0.123426 0.000626862  0.0145968 -0.130197 0.000596583  0.0208232 -0.123925 0.000826359  0.0145929 -0.129976 0.000739217  0.0209557 -0.137341 0.000921905  0.0145466 -0.136842 0.000700831  0.0209768 -0.144291 0.000868738  0.0145494 -0.137046 0.000563562  0.0144765 -0.143987 0.00053066  0.0209672 -0.137545 0.000739694  0.0144718 -0.143791 0.000657916  0.0209653 -0.151314 0.000817895  0.0143678 -0.150816 0.000620306  0.0209208 -0.158415 0.000771761  0.0143743 -0.150998 0.000501275  0.0142474 -0.158088 0.000472248  0.020978 -0.151499 0.00066036  0.0142407 -0.157914 0.000586808  0.020848 -0.165573 0.00072366  0.0140898 -0.165075 0.000550389  0.0207462 -0.1728 0.000674605  0.0140946 -0.165237 0.00044322  0.0139213 -0.172453 0.000415742  0.0208609 -0.165739 0.000581443  0.0139153 -0.172301 0.00051409  0.0206201 -0.180078 0.000633955  0.013716 -0.179579 0.000481248  0.0204606 -0.187408 0.000589907  0.0137239 -0.17972 0.000389576  0.0135031 -0.187045 0.000365257  0.0206306 -0.180219 0.000510693  0.0134985 -0.186908 0.000450909  0.0202861 -0.19478 0.000550091  0.0132573 -0.194284 0.000420272  0.0200791 -0.202198 0.00050813  0.0132647 -0.194408 0.000340164  0.0130072 -0.201819 0.000315785  0.0202954 -0.194906 0.000443578  0.0130012 -0.201703 0.000389576  0.0198541 -0.20965 0.000472724  0.0127227 -0.209156 0.000360072  0.0196068 -0.217138 0.000435948  0.0127313 -0.209261 0.000294089  0.0124378 -0.216743 0.000272155  0.0198662 -0.209758 0.000382364  0.0124311 -0.216644 0.000333309  0.0193427 -0.224651 0.000400126  0.0121217 -0.224157 0.000307381  0.0190563 -0.232192 0.000365794  0.0121279 -0.224249 0.000250399  0.0118046 -0.231786 0.000229776  0.0193548 -0.224741 0.000323474  0.0117965 -0.2317 0.000282347  0.0187526 -0.239749 0.000333667  0.0114563 -0.239261 0.000257373  0.0184321 -0.247329 0.000303686  0.0114653 -0.239337 0.000209928  0.0111127 -0.246913 0.000193119  0.0187631 -0.239825 0.000274122  0.011106 -0.24684 0.000234365  0.0180969 -0.254921 0.000275373  0.0107431 -0.254436 0.000212729  0.0177479 -0.262528 0.000248969  0.0107505 -0.254498 0.000174284  0.010376 -0.262105 0.000159025  0.0181079 -0.254984 0.000224531  0.0103676 -0.262045 0.000190735  0.0173845 -0.270141 0.000222862  0.00998378 -0.269659 0.000171065  0.0170095 -0.277762 0.000198483  0.00999165 -0.269709 0.000142574  0.00959706 -0.277329 0.000128031  0.0173974 -0.270193 0.00018239  0.00959134 -0.277278 0.000155866  0.0166264 -0.28538 0.000177026  0.00918579 -0.284904 0.000137925  0.0162292 -0.293009 0.000153363  0.00919342 -0.284944 0.000115097  0.00878501 -0.292572 9.95398e-05  0.0166368 -0.285424 0.000146031  0.00877666 -0.292532 0.000119388  0.0158269 -0.300628 0.000137269  0.00835824 -0.300155 0.000106692  0.0154111 -0.308251 0.000118256  0.00836253 -0.300187 8.9705e-05  0.00793767 -0.307812 7.89165e-05  0.0158343 -0.300661 0.00011307  0.00793576 -0.307777 9.5427e-05  0.0149939 -0.315865 0.000104547  0.00750494 -0.315398 7.86185e-05  0.0145633 -0.323479 8.67248e-05  0.00750971 -0.315422 6.79493e-05  0.00707603 -0.323037 6.06775e-05  0.0149999 -0.315895 8.76784e-05  0.00707269 -0.323008 6.73532e-05  0.0141335 -0.331079 7.42674e-05  0.00663424 -0.330614 5.75185e-05  0.0136957 -0.338673 6.49095e-05  0.00663686 -0.330633 5.06639e-05  0.00619578 -0.33823 4.35114e-05  0.0141408 -0.331101 6.53863e-05  0.00619173 -0.338208 4.81606e-05  0.0132561 -0.346255 5.40614e-05  0.00574636 -0.345794 4.05908e-05  0.0128105 -0.353827 4.21405e-05  0.00575066 -0.345809 3.63588e-05  0.00530243 -0.353385 3.0458e-05  0.0132635 -0.346273 4.66704e-05  0.00529671 -0.353367 3.17097e-05  0.0123625 -0.361389 3.39746e-05  0.00484705 -0.360931 2.25306e-05  0.0119102 -0.368942 2.5034e-05  0.00485253 -0.360945 2.49147e-05  0.00440264 -0.368499 2.0802e-05  0.0123708 -0.361405 3.52859e-05  0.00439739 -0.36848 1.94311e-05  0.0114634 -0.376477 1.62125e-05  0.00394702 -0.376018 1.20401e-05  0.0110135 -0.384004 6.73532e-06  0.0039537 -0.376029 1.16229e-05  0.00350332 -0.38356 3.51667e-06  0.0114682 -0.376492 1.55568e-05  0.00349808 -0.383542 1.72853e-06  0.000939466 -0.00137842 0.00111347  0.000750847 -0.000858665 0.000955939  0.00254689 -0.00283849 0.00205296  0.000747316 -0.000975847 0.000707507  0.00192371 -0.00230396 0.00129086  0 0 0  0 0 0  0.000953063 -0.00147468 0.000850499  0 0 0  0.00197507 -0.00211269 0.0017345  0.00444452 -0.00457823 0.00271499  0.00347853 -0.00371891 0.00230747  0.0063985 -0.00640446 0.00314909  0.00337316 -0.00399494 0.00175089  0.00494292 -0.00587797 0.00207102  0.00431842 -0.0048691 0.00206673  0.00507507 -0.00553429 0.00267178  0.00829318 -0.00845766 0.00340909  0.0066655 -0.0076052 0.00288308  0.0101261 -0.010768 0.00354671  0.00653681 -0.00799578 0.00226218  0.00809366 -0.0103707 0.00236803  0.0081515 -0.00887853 0.00267559  0.00821128 -0.00993764 0.00299096  0.0118832 -0.0133354 0.00359452  0.00969163 -0.0125375 0.00302464  0.0135636 -0.0161897 0.00358355  0.00959703 -0.012987 0.00240773  0.0110337 -0.0158796 0.00240487  0.0117837 -0.0138091 0.00286019  0.0111056 -0.0154107 0.00300723  0.0151757 -0.0193073 0.00353289  0.012454 -0.01855 0.00296265  0.0167135 -0.0227 0.00345588  0.0124025 -0.01902 0.00237381  0.0137025 -0.0224304 0.00232226  0.0151193 -0.0197914 0.0028289  0.013739 -0.0219564 0.00289577  0.0181831 -0.0263383 0.00336051  0.0149564 -0.0256104 0.00281233  0.0195795 -0.0302308 0.00325686  0.0149355 -0.0260792 0.00225884  0.0161043 -0.0299771 0.00218737  0.0181588 -0.0268139 0.00269663  0.016117 -0.0295141 0.00272459  0.0209088 -0.0343536 0.00314534  0.0172121 -0.0336495 0.00262886  0.0221667 -0.0387067 0.00303531  0.0172085 -0.034098 0.00211191  0.0182509 -0.038453 0.00203526  0.0209042 -0.0348069 0.00252265  0.0182488 -0.0380105 0.00253481  0.0233572 -0.043271 0.00291872  0.0192227 -0.0425837 0.0024389  0.0244781 -0.0480466 0.00280505  0.0192286 -0.0430096 0.00195867  0.0201463 -0.0477808 0.00188291  0.0233657 -0.0436985 0.00234228  0.0201374 -0.0473654 0.00234443  0.0255332 -0.0530137 0.00269234  0.0209923 -0.0523404 0.00225061  0.0265203 -0.0581734 0.0025813  0.0210054 -0.0527396 0.00180674  0.021805 -0.0578917 0.00173259  0.0255474 -0.0534123 0.00216019  0.0217906 -0.0575049 0.00215811  0.027446 -0.0635042 0.00247437  0.0225312 -0.0628457 0.00206822  0.0283021 -0.0690113 0.00236791  0.0225458 -0.0632141 0.00165975  0.0232323 -0.0687148 0.00159144  0.0274636 -0.0638738 0.00198519  0.0232167 -0.0683573 0.00198001  0.0291009 -0.0746769 0.00226259  0.0238458 -0.074029 0.00189352  0.029838 -0.0804948 0.00216407  0.0238639 -0.0743669 0.00152045  0.0244397 -0.0801795 0.00145245  0.0291208 -0.0750142 0.00181627  0.0244232 -0.0798507 0.00181103  0.0305121 -0.0864571 0.00206339  0.0249472 -0.0858204 0.00172609  0.0311298 -0.0925609 0.00196832  0.0249636 -0.08613 0.00138628  0.0254358 -0.0922254 0.00132334  0.0305332 -0.0867671 0.00165588  0.0254207 -0.091926 0.00164789  0.0316901 -0.0987866 0.00187552  0.025843 -0.0981603 0.00157118  0.0321938 -0.10514 0.00178456  0.0258596 -0.098442 0.00126123  0.0262362 -0.104789 0.00120103  0.0317111 -0.0990673 0.0015071  0.0262184 -0.104518 0.00149256  0.032647 -0.111603 0.00169402  0.0265472 -0.110986 0.00141943  0.0330473 -0.118179 0.00160778  0.0265636 -0.111243 0.00114113  0.0268458 -0.117813 0.00108272  0.0326667 -0.111859 0.00136161  0.0268281 -0.117568 0.00134611  0.0333967 -0.124853 0.00152344  0.0270665 -0.124247 0.00127518  0.0336971 -0.131627 0.0014416  0.0270839 -0.124477 0.00102657  0.0272803 -0.131245 0.000971198  0.0334166 -0.125083 0.0012235  0.0272626 -0.131024 0.00120795  0.0339497 -0.138485 0.00136107  0.0274172 -0.137889 0.00114149  0.0341561 -0.145431 0.00128376  0.0274349 -0.138093 0.000919223  0.0275495 -0.145034 0.00086838  0.0339688 -0.138691 0.00109476  0.0275304 -0.144838 0.0010764  0.0343184 -0.152446 0.00120801  0.0276089 -0.151859 0.00101519  0.034441 -0.159537 0.00113767  0.0276248 -0.15204 0.000816822  0.0276647 -0.159129 0.000769794  0.0343392 -0.152627 0.000973701  0.0276484 -0.158954 0.000953317  0.0345213 -0.16669 0.00106663  0.0276535 -0.166115 0.000894129  0.0345626 -0.173908 0.000997126  0.0276682 -0.166274 0.000721931  0.0276413 -0.17349 0.000675559  0.0345392 -0.166853 0.000858545  0.0276263 -0.173335 0.000836134  0.0345659 -0.181176 0.000932634  0.0275621 -0.180611 0.000782371  0.0345333 -0.188503 0.000869155  0.0275798 -0.180752 0.000632644  0.0274868 -0.188073 0.000590026  0.0345838 -0.18132 0.000751972  0.0274727 -0.18794 0.00072825  0.0344698 -0.195865 0.000807345  0.0273483 -0.19531 0.000677347  0.0343702 -0.203274 0.000747561  0.0273635 -0.195432 0.000549495  0.0272155 -0.202839 0.000510573  0.0344853 -0.195988 0.000651538  0.0272 -0.202723 0.000629008  0.0342398 -0.210718 0.000688672  0.0270219 -0.210171 0.000581086  0.0340819 -0.218196 0.00063777  0.0270362 -0.210279 0.000469625  0.0268366 -0.217756 0.000434875  0.0342567 -0.210823 0.000559449  0.0268197 -0.217657 0.000534534  0.033895 -0.2257 0.000585854  0.0265961 -0.225165 0.000492811  0.0336809 -0.233232 0.000535429  0.0266104 -0.225256 0.000399768  0.0263586 -0.232788 0.00036633  0.0339093 -0.225793 0.000474155  0.0263472 -0.232703 0.000450313  0.0334432 -0.240782 0.000487626  0.0260775 -0.240258 0.000409842  0.0331819 -0.248354 0.000443697  0.0260921 -0.240332 0.000334263  0.0258002 -0.247907 0.000304759  0.0334601 -0.240858 0.000398636  0.0257897 -0.247834 0.00037241  0.0328996 -0.255937 0.000401556  0.025481 -0.255423 0.000337422  0.0325952 -0.263536 0.00036037  0.0254917 -0.255487 0.000277162  0.0251665 -0.263085 0.000250638  0.0329142 -0.256002 0.000326991  0.0251534 -0.263026 0.000304639  0.0322738 -0.27114 0.000323296  0.024812 -0.270635 0.00027287  0.0319309 -0.278752 0.00028646  0.0248256 -0.270686 0.000225604  0.0244682 -0.278301 0.000200868  0.032285 -0.271191 0.000264287  0.0244558 -0.27825 0.000242591  0.0315752 -0.286364 0.000252306  0.0240853 -0.28587 0.000214934  0.0312026 -0.293985 0.000223696  0.0240967 -0.285911 0.000178337  0.0237155 -0.293532 0.000158429  0.0315881 -0.286408 0.000210524  0.0237031 -0.293492 0.00018847  0.0308187 -0.301598 0.000195265  0.0233097 -0.301113 0.000163376  0.0304234 -0.309213 0.000167787  0.0233183 -0.301142 0.000139117  0.0229144 -0.308762 0.000122309  0.0308311 -0.301632 0.000163376  0.0229065 -0.308732 0.000142753  0.0300174 -0.316822 0.000146031  0.0224941 -0.316344 0.000124216  0.0295985 -0.324429 0.000124335  0.0225015 -0.31637 0.000105143  0.0220807 -0.323978 9.52482e-05  0.0300267 -0.316847 0.000124156  0.0220716 -0.323951 0.000107765  0.0291729 -0.332021 0.000105321  0.0216436 -0.33155 9.20892e-05  0.0287385 -0.339611 9.00626e-05  0.0216548 -0.331571 7.84993e-05  0.0212183 -0.339163 6.78301e-05  0.0291839 -0.332042 9.20892e-05  0.02121 -0.33914 7.41482e-05  0.0283003 -0.347187 7.59363e-05  0.0207722 -0.346721 6.48499e-05  0.0278563 -0.354757 6.38962e-05  0.0207794 -0.346738 5.8949e-05  0.0203371 -0.354311 4.78625e-05  0.0283113 -0.347206 6.70552e-05  0.0203285 -0.354291 5.17368e-05  0.0274122 -0.362314 5.14388e-05  0.0198803 -0.361851 4.08888e-05  0.0269632 -0.369865 4.31538e-05  0.0198927 -0.361866 4.07696e-05  0.0194433 -0.369419 3.45707e-05  0.0274217 -0.362329 5.01871e-05  0.0194302 -0.369404 3.27826e-05  0.0265114 -0.377403 3.11732e-05  0.0189815 -0.376941 2.22921e-05  0.0260596 -0.38494 1.5974e-05  0.0189896 -0.376953 2.49743e-05  0.0185404 -0.384487 1.86563e-05  0.0265219 -0.377416 3.15905e-05  0.0185313 -0.384473 1.04904e-05  0.00185926 -0.00344801 0.00151473  0.00134275 -0.00207847 0.00132883  0.00472967 -0.00531435 0.0026654  0.00137524 -0.00226629 0.000963986  0.00335954 -0.00421405 0.00176507  0 0 0  0 0 0  0.00179245 -0.00350052 0.00113106  0 0 0  0.00335467 -0.00394714 0.00236225  0.00720803 -0.00678957 0.00356328  0.00564614 -0.00563115 0.00312859  0.00961253 -0.00861955 0.00412542  0.00553656 -0.00596976 0.00237918  0.00775155 -0.00787735 0.00282258  0.00712553 -0.00724214 0.00270915  0.00787872 -0.00745344 0.00362867  0.0120214 -0.010527 0.00447428  0.0100657 -0.00944483 0.00393623  0.0143663 -0.0127779 0.00466484  0.00993276 -0.00990433 0.00308973  0.0120548 -0.0122053 0.00324607  0.0119226 -0.0110474 0.00350606  0.0121734 -0.0117189 0.00409943  0.0166551 -0.0152737 0.00473434  0.0141995 -0.0142517 0.00416076  0.0188745 -0.0180819 0.00472903  0.0141006 -0.0147476 0.00331295  0.0160707 -0.017581 0.0033173  0.0165642 -0.0157982 0.00376177  0.0161512 -0.017081 0.00415349  0.0210074 -0.0211524 0.00466925  0.0180205 -0.0201771 0.00409967  0.0230584 -0.0245089 0.00456965  0.0179611 -0.0206711 0.00328183  0.0197732 -0.0240408 0.00321525  0.0209419 -0.0216631 0.00373077  0.0198157 -0.0235509 0.00401253  0.0250194 -0.0281093 0.00444806  0.0215288 -0.0271736 0.00390381  0.0268983 -0.0319746 0.00431114  0.0215016 -0.0276522 0.00313419  0.0231498 -0.0315213 0.00303721  0.0249811 -0.0285977 0.0035643  0.0231672 -0.0310505 0.00378621  0.0286877 -0.036063 0.00416875  0.0247259 -0.0351607 0.00365686  0.0303875 -0.0403947 0.00401801  0.0247162 -0.0356158 0.00293589  0.026206 -0.0399479 0.00283045  0.0286641 -0.0365216 0.00333941  0.026206 -0.0395017 0.00352734  0.0320038 -0.0449292 0.00386941  0.0276111 -0.0440555 0.00339377  0.033533 -0.0496847 0.00371784  0.0276136 -0.0444803 0.00272399  0.0289437 -0.049235 0.00261825  0.031996 -0.0453566 0.00310326  0.0289379 -0.0488203 0.00326109  0.0349795 -0.0546219 0.00356901  0.030188 -0.0537757 0.00313121  0.0363412 -0.0597633 0.00342214  0.030198 -0.0541714 0.00251395  0.0313786 -0.0593101 0.00240988  0.0349773 -0.0550185 0.00286347  0.0313652 -0.058925 0.00300246  0.0376238 -0.0650701 0.00328052  0.0324693 -0.0642473 0.00287598  0.0388238 -0.070559 0.00313807  0.0324832 -0.0646136 0.0023101  0.033516 -0.0701004 0.00221264  0.0376254 -0.065435 0.00263172  0.0335002 -0.0697473 0.00275391  0.0399481 -0.0761994 0.00300336  0.0344611 -0.075401 0.00263226  0.0409905 -0.0820045 0.00286633  0.0344747 -0.0757375 0.00211304  0.0353688 -0.0815365 0.00202042  0.0399501 -0.0765334 0.00240803  0.0353549 -0.081213 0.00251466  0.041965 -0.0879414 0.00273627  0.0361804 -0.0871657 0.00239927  0.0428647 -0.0940285 0.00260913  0.0361952 -0.087472 0.00192815  0.0369545 -0.0935549 0.00183982  0.0419693 -0.0882463 0.0021978  0.0369402 -0.0932624 0.00228947  0.0436933 -0.100231 0.00248379  0.0376368 -0.0994785 0.00217962  0.044451 -0.106569 0.00236499  0.0376503 -0.0997565 0.0017519  0.0382838 -0.106094 0.0016675  0.0436985 -0.100507 0.00199646  0.0382687 -0.105825 0.00207299  0.0451425 -0.113013 0.00224519  0.0388407 -0.112282 0.00196844  0.0457664 -0.119575 0.00212479  0.0388566 -0.112531 0.00158459  0.039371 -0.11909 0.00150275  0.0451468 -0.113261 0.00180304  0.039354 -0.11885 0.00186622  0.0463291 -0.126224 0.00201565  0.0398108 -0.125514 0.00176775  0.0468309 -0.132985 0.00190568  0.0398265 -0.12574 0.00142384  0.0402297 -0.132496 0.00134802  0.0463364 -0.126453 0.00162208  0.0402126 -0.132281 0.00167292  0.0472701 -0.139819 0.00180084  0.0405611 -0.13913 0.00158131  0.0476546 -0.14675 0.00169718  0.0405767 -0.139334 0.00127333  0.0408754 -0.146263 0.00120026  0.0472782 -0.140023 0.00144809  0.0408597 -0.146067 0.00149065  0.0479875 -0.153747 0.00159693  0.0411065 -0.153077 0.00140107  0.0482597 -0.160826 0.0014987  0.0411234 -0.153257 0.00113052  0.0413218 -0.160334 0.00106275  0.0479925 -0.153927 0.0012871  0.0413063 -0.160162 0.00131571  0.048485 -0.167957 0.00140679  0.0414603 -0.167308 0.00123632  0.048656 -0.17516 0.00131524  0.0414741 -0.167466 0.000999391  0.0415826 -0.174669 0.000934899  0.048492 -0.168117 0.00113612  0.0415695 -0.174515 0.00115693  0.0487862 -0.182407 0.00122845  0.0416358 -0.181778 0.00107956  0.048867 -0.189719 0.00114173  0.0416517 -0.181917 0.000874281  0.0416777 -0.189229 0.000813484  0.0487971 -0.182549 0.000992715  0.041662 -0.189096 0.00100398  0.0489049 -0.197065 0.00106299  0.0416491 -0.196452 0.000931978  0.0489011 -0.204458 0.000987291  0.0416663 -0.196573 0.000755668  0.0416169 -0.203968 0.000701487  0.048914 -0.197184 0.000860214  0.0415988 -0.203855 0.000863075  0.048857 -0.211877 0.000910223  0.0415156 -0.211287 0.000798821  0.0487781 -0.219346 0.000837564  0.0415311 -0.211392 0.000648499  0.0414121 -0.218858 0.000598729  0.0488715 -0.211985 0.00073868  0.0413976 -0.218761 0.000736356  0.0486631 -0.226831 0.000769019  0.0412474 -0.226258 0.000676095  0.0485094 -0.234351 0.000701785  0.0412602 -0.226345 0.000552058  0.0410786 -0.233866 0.000505149  0.0486724 -0.226918 0.000624418  0.0410662 -0.233782 0.00061965  0.0483294 -0.241883 0.000641763  0.0408568 -0.241327 0.000561535  0.0481126 -0.249442 0.000580966  0.040869 -0.241398 0.000460744  0.0406342 -0.248963 0.000418484  0.0483344 -0.241955 0.000520825  0.0406237 -0.248891 0.000509441  0.0478749 -0.257006 0.000523686  0.0403612 -0.256467 0.000460923  0.0476046 -0.264593 0.000469387  0.040374 -0.256528 0.000379503  0.0400887 -0.264118 0.000341892  0.0478809 -0.257069 0.00042969  0.0400751 -0.264058 0.000414729  0.0473144 -0.272177 0.00042057  0.039768 -0.271656 0.000368774  0.0469964 -0.279781 0.000373602  0.0397801 -0.271707 0.000305891  0.0394533 -0.279311 0.000274241  0.0473194 -0.272228 0.000347316  0.0394399 -0.279263 0.000329792  0.0466616 -0.28738 0.000328064  0.0390966 -0.286869 0.000293791  0.046304 -0.294987 0.000291228  0.039108 -0.286911 0.000242949  0.0387459 -0.294521 0.000214398  0.0466652 -0.287417 0.0002774  0.0387359 -0.294485 0.000256002  0.0459301 -0.302585 0.00025332  0.0383577 -0.302092 0.000224292  0.0455382 -0.310194 0.000218332  0.0383668 -0.302123 0.000187874  0.0379741 -0.309731 0.000164866  0.0459387 -0.30262 0.000214338  0.0379651 -0.309702 0.000194728  0.0451348 -0.317789 0.000191689  0.0375602 -0.317306 0.000166833  0.0447154 -0.325382 0.00016135  0.0375674 -0.317329 0.000143647  0.0371521 -0.32493 0.000124991  0.0451431 -0.317811 0.000163794  0.0371454 -0.324903 0.00014329  0.0442886 -0.332967 0.000139058  0.0367184 -0.332497 0.000123024  0.043849 -0.340549 0.000120699  0.0367272 -0.332516 0.000107586  0.0362945 -0.340101 9.26256e-05  0.0442946 -0.332987 0.00012064  0.0362864 -0.340081 0.000102162  0.043407 -0.348116 0.000100791  0.0358453 -0.347657 8.84533e-05  0.0429521 -0.355682 8.64863e-05  0.0358534 -0.347671 8.07047e-05  0.0354083 -0.355239 7.00355e-05  0.0434139 -0.348132 9.17912e-05  0.0353966 -0.355221 7.236e-05  0.0424984 -0.363237 7.18832e-05  0.03495 -0.362779 5.97239e-05  0.0420394 -0.370783 6.21676e-05  0.0349605 -0.362792 5.72205e-05  0.0345075 -0.370343 4.85182e-05  0.04251 -0.363254 6.70552e-05  0.0345006 -0.370326 4.93526e-05  0.041585 -0.378325 5.28693e-05  0.0340462 -0.377866 3.82066e-05  0.0411282 -0.38587 3.618e-05  0.0340548 -0.377878 4.1008e-05  0.0336037 -0.38542 3.11136e-05  0.0415993 -0.37834 5.28693e-05  0.0335937 -0.385407 2.8491e-05  -0.000881623 -0.0013611 -0.000613689  -0.00114548 -0.00205341 -0.000701308  -0.00244231 -0.0030966 -0.00110269  -0.00121639 -0.0021487 -0.000483394  -0.00333488 -0.00433862 -0.000834823  -0.0026604 -0.00373798 -0.000531197  0 0 0  -0.00269103 -0.00367138 -0.000828624  0 0 0  0 0 0  -0.000879105 -0.00138159 -0.000388503  0 0 0  -0.00497729 -0.00557711 -0.00148964  -0.00335243 -0.00424 -0.00129807  -0.00422567 -0.00479599 -0.00151372  -0.00549999 -0.00593092 -0.00175941  -0.00609814 -0.00661078 -0.00181818  -0.00548677 -0.0061016 -0.00115049  -0.0076513 -0.00793113 -0.00138628  -0.0072304 -0.00736118 -0.00131977  -0.00718464 -0.00713368 -0.0019964  -0.00421645 -0.00494255 -0.000993848  -0.00950707 -0.00888006 -0.00241077  -0.0076609 -0.00769728 -0.00210357  -0.00799608 -0.00863566 -0.00201452  -0.00982624 -0.00961653 -0.00233161  -0.00984877 -0.0108609 -0.00213253  -0.00979686 -0.00987384 -0.00153959  -0.0119211 -0.0120549 -0.0016439  -0.0118685 -0.0109889 -0.00175536  -0.0118678 -0.0107025 -0.00265384  -0.00795922 -0.00886168 -0.00133073  -0.0142497 -0.0128197 -0.00282443  -0.0119527 -0.0117784 -0.002473  -0.0116639 -0.0133501 -0.00218689  -0.0140467 -0.0141991 -0.00253689  -0.0134321 -0.0160949 -0.00219655  -0.0140151 -0.014483 -0.00169027  -0.0160622 -0.0171724 -0.00170481  -0.0165794 -0.0154705 -0.00192404  -0.0166053 -0.0151698 -0.00289047  -0.0116303 -0.0136156 -0.00145829  -0.0189185 -0.0177946 -0.0029093  -0.0160888 -0.0168832 -0.00255072  -0.0151535 -0.019099 -0.00217319  -0.0180818 -0.0198357 -0.00252521  -0.0168291 -0.0223597 -0.00212646  -0.0180626 -0.0201236 -0.00168967  -0.0200091 -0.0233276 -0.00165999  -0.0211518 -0.0209901 -0.00192499  -0.0211767 -0.0206907 -0.00287771  -0.0151362 -0.0193736 -0.00145507  -0.0233742 -0.0238417 -0.00282121  -0.0200182 -0.0230436 -0.00247526  -0.0184584 -0.0258607 -0.00206816  -0.0219016 -0.0264999 -0.00240672  -0.0200443 -0.0296033 -0.00199854  -0.0219005 -0.0267773 -0.0016129  -0.0237367 -0.0304649 -0.00156224  -0.0254982 -0.0275335 -0.00184095  -0.0255076 -0.0272456 -0.00274539  -0.0184609 -0.0261327 -0.00138843  -0.0275779 -0.0308876 -0.00265634  -0.0237292 -0.0301937 -0.0023284  -0.0215836 -0.0335712 -0.00192404  -0.0255054 -0.0341203 -0.00224209  -0.0230814 -0.0377599 -0.00184619  -0.0255183 -0.0343842 -0.0015049  -0.0272459 -0.0385209 -0.0014466  -0.0295866 -0.0350337 -0.00171626  -0.0295827 -0.0347659 -0.00256252  -0.0216026 -0.0338311 -0.00129235  -0.0315278 -0.0388612 -0.00245917  -0.0272269 -0.0382642 -0.00215435  -0.0245386 -0.0421599 -0.00177097  -0.0288998 -0.0426253 -0.00206685  -0.025957 -0.0467627 -0.00169647  -0.0289243 -0.0428693 -0.00138915  -0.0305507 -0.0474226 -0.0013293  -0.0334264 -0.0434234 -0.00158799  -0.0334111 -0.0431755 -0.00236273  -0.0245671 -0.0424034 -0.00119078  -0.0352385 -0.0476863 -0.00226378  -0.0305215 -0.0471828 -0.00197983  -0.0273361 -0.0515569 -0.00162125  -0.0321016 -0.0519407 -0.00189364  -0.0286813 -0.0565379 -0.00154877  -0.0321301 -0.0521679 -0.00127232  -0.033662 -0.0570994 -0.00121605  -0.0370245 -0.0526289 -0.00145471  -0.0370041 -0.0523986 -0.00216746  -0.0273719 -0.0517824 -0.00108922  -0.0387205 -0.0572955 -0.00207019  -0.0336317 -0.0568804 -0.00180972  -0.0299884 -0.0616947 -0.00147915  -0.0351183 -0.0620009 -0.00172722  -0.0312626 -0.067024 -0.00141001  -0.0351515 -0.062211 -0.00116038  -0.0365969 -0.0674934 -0.00110734  -0.0404067 -0.0625862 -0.00132942  -0.0403818 -0.0623766 -0.0019784  -0.0300272 -0.0619051 -0.000994325  -0.0419967 -0.0676247 -0.00188363  -0.0365618 -0.0672919 -0.00164819  -0.0325042 -0.0725137 -0.00134313  -0.0379657 -0.0727469 -0.00157285  -0.0337147 -0.078158 -0.00127947  -0.0380007 -0.0729376 -0.00105751  -0.0393596 -0.0785373 -0.00100589  -0.0435808 -0.0732313 -0.00121081  -0.0435566 -0.0730394 -0.00179935  -0.0325421 -0.0727044 -0.000902653  -0.0450704 -0.0786049 -0.0017153  -0.039328 -0.0783538 -0.00149727  -0.0348905 -0.0839474 -0.00121737  -0.0406526 -0.0841123 -0.00142527  -0.0360388 -0.0898827 -0.00115609  -0.040686 -0.084288 -0.000959873  -0.0419711 -0.0901753 -0.000911474  -0.0465615 -0.0845037 -0.00109768  -0.0465355 -0.0843261 -0.00163257  -0.0349278 -0.0841237 -0.000819445  -0.047959 -0.0901863 -0.00155044  -0.0419375 -0.0900084 -0.00135565  -0.0371554 -0.0959434 -0.00109947  -0.0431875 -0.0960398 -0.00128675  -0.0382448 -0.102135 -0.00104392  -0.0432191 -0.0961972 -0.000866055  -0.0444331 -0.102348 -0.00082159  -0.0493605 -0.0963389 -0.000994205  -0.0493364 -0.0961826 -0.00147521  -0.0371906 -0.0961024 -0.000739694  -0.0506716 -0.102301 -0.00139821  -0.0443997 -0.102196 -0.00122023  -0.039304 -0.108444 -0.000989437  -0.0455792 -0.108477 -0.00115621  -0.0403389 -0.114866 -0.000934958  -0.0456111 -0.108621 -0.000779867  -0.0467519 -0.115005 -0.000737667  -0.0519856 -0.108692 -0.000894547  -0.0519614 -0.108548 -0.00132751  -0.0393369 -0.108587 -0.00066638  -0.0532154 -0.11491 -0.0012548  -0.046721 -0.114868 -0.00109541  -0.0413423 -0.121394 -0.00088346  -0.0478332 -0.121368 -0.00103402  -0.042322 -0.128023 -0.000832796  -0.047861 -0.121497 -0.00069797  -0.0489373 -0.128091 -0.00065887  -0.0544478 -0.121506 -0.000801444  -0.0544252 -0.121374 -0.00118637  -0.041376 -0.121522 -0.000594854  -0.0556016 -0.127944 -0.00112033  -0.0489097 -0.127967 -0.00097537  -0.0432746 -0.134743 -0.000785589  -0.0499558 -0.134663 -0.000920177  -0.0442033 -0.141558 -0.000738263  -0.0499811 -0.134778 -0.000622869  -0.0509939 -0.14156 -0.000586987  -0.0567514 -0.134724 -0.000714779  -0.0567335 -0.134611 -0.00105488  -0.0433042 -0.134859 -0.000529647  -0.0578305 -0.141364 -0.000993729  -0.0509676 -0.141445 -0.000865698  -0.0451057 -0.148447 -0.00069356  -0.0519512 -0.148315 -0.000815511  -0.0459831 -0.155415 -0.000651121  -0.051976 -0.148418 -0.000552416  -0.0529313 -0.155359 -0.000517249  -0.0589106 -0.148309 -0.000635386  -0.0588913 -0.148205 -0.000934124  -0.0451317 -0.148551 -0.000470996  -0.059917 -0.155126 -0.000875473  -0.052907 -0.155261 -0.000764728  -0.046839 -0.162458 -0.00060904  -0.0538342 -0.16228 -0.000715375  -0.0476696 -0.169566 -0.000567198  -0.0538561 -0.16237 -0.000486732  -0.0547512 -0.169451 -0.000453711  -0.0609281 -0.162211 -0.00055635  -0.0609105 -0.162119 -0.000820756  -0.0468636 -0.162549 -0.000413775  -0.0618711 -0.169181 -0.000764728  -0.0547268 -0.169363 -0.000665665  -0.0484767 -0.176734 -0.000528097  -0.0555975 -0.176513 -0.000620008  -0.0492659 -0.18396 -0.000490308  -0.0556188 -0.176594 -0.000422716  -0.056458 -0.183792 -0.000395298  -0.0628061 -0.176385 -0.000487566  -0.0627923 -0.176305 -0.000714302  -0.0485034 -0.176814 -0.000359058  -0.0636892 -0.183487 -0.000662565  -0.0564396 -0.183718 -0.000578284  -0.0500319 -0.191235 -0.000456691  -0.0572557 -0.190977 -0.000537872  -0.0507791 -0.198558 -0.000422478  -0.0572734 -0.191045 -0.000367522  -0.058063 -0.198348 -0.000342965  -0.0645635 -0.190796 -0.000422001  -0.0645502 -0.190724 -0.000616789  -0.0500524 -0.191304 -0.000313401  -0.0653844 -0.198013 -0.000572681  -0.058044 -0.198278 -0.000495911  -0.0515003 -0.205923 -0.000389338  -0.0588121 -0.205628 -0.000457883  -0.0522077 -0.213324 -0.000356078  -0.0588293 -0.205688 -0.000312567  -0.0595725 -0.213072 -0.00029099  -0.0661988 -0.205399 -0.000363469  -0.0661864 -0.20534 -0.000527859  -0.0515194 -0.205983 -0.00026834  -0.0669656 -0.212711 -0.000484586  -0.0595565 -0.213015 -0.000421524  -0.0528913 -0.220763 -0.000326276  -0.0602763 -0.220439 -0.000387192  -0.05356 -0.228233 -0.000300527  -0.0602925 -0.220488 -0.000267863  -0.0609863 -0.227939 -0.000245333  -0.0677278 -0.220166 -0.000311136  -0.0677149 -0.220116 -0.000445843  -0.0529087 -0.220815 -0.000228405  -0.0684412 -0.227556 -0.000405312  -0.0609705 -0.227893 -0.000353932  -0.0542095 -0.235725 -0.000274777  -0.0616477 -0.235375 -0.000321388  -0.0548434 -0.243246 -0.000247121  -0.061662 -0.235419 -0.000226378  -0.0623162 -0.242923 -0.000205517  -0.0691454 -0.235067 -0.000258207  -0.0691352 -0.235023 -0.000369191  -0.0542226 -0.23577 -0.00019002  -0.0698133 -0.242517 -0.000334024  -0.0623014 -0.242879 -0.000289917  -0.0554574 -0.25078 -0.000221014  -0.0629389 -0.250405 -0.000264168  -0.0560567 -0.258336 -0.000200391  -0.0629513 -0.250443 -0.000186563  -0.0635664 -0.257984 -0.000169873  -0.070472 -0.250066 -0.000215411  -0.0704672 -0.250028 -0.000302792  -0.0554688 -0.25082 -0.000157833  -0.0710983 -0.257561 -0.000269532  -0.0635557 -0.257949 -0.00023663  -0.0566392 -0.265901 -0.000178576  -0.0641556 -0.265508 -0.000213623  -0.0572109 -0.273481 -0.000161171  -0.0641637 -0.265535 -0.000153661  -0.0647428 -0.273104 -0.00013864  -0.0717134 -0.26514 -0.000179291  -0.0717039 -0.265106 -0.000245094  -0.0566514 -0.265934 -0.000131369  -0.0723004 -0.272666 -0.000218034  -0.0647368 -0.273076 -0.00019002  -0.0577664 -0.281065 -0.000142455  -0.0653021 -0.280653 -0.000169396  -0.0583127 -0.288659 -0.000129819  -0.0653121 -0.280678 -0.000123858  -0.0658627 -0.288259 -0.000113487  -0.0728776 -0.28026 -0.000141025  -0.0728726 -0.280233 -0.000195742  -0.0577765 -0.281088 -0.000107408  -0.0734303 -0.287809 -0.000175118  -0.0658512 -0.288236 -0.000149131  -0.0588429 -0.296249 -0.000113726  -0.0663896 -0.295824 -0.00013423  -0.0593629 -0.303849 -9.76324e-05  -0.0663974 -0.295841 -0.000100851  -0.066921 -0.303434 -9.07183e-05  -0.0739751 -0.295409 -0.000116825  -0.0739694 -0.29539 -0.000150681  -0.0588479 -0.296271 -8.57115e-05  -0.0744944 -0.302976 -0.000131726  -0.0669131 -0.303415 -0.000117064  -0.0598717 -0.311438 -8.7142e-05  -0.067425 -0.311001 -0.000104547  -0.0603721 -0.319031 -7.47442e-05  -0.0674314 -0.311019 -8.51154e-05  -0.0679312 -0.318606 -7.22408e-05  -0.0750074 -0.310576 -9.59635e-05  -0.0750015 -0.310558 -0.000117302  -0.0598767 -0.311457 -6.99759e-05  -0.0755033 -0.318141 -0.000104904  -0.0679264 -0.318589 -9.05991e-05  -0.0608656 -0.326617 -6.85453e-05  -0.0684154 -0.326171 -8.08239e-05  -0.0613492 -0.334197 -6.10352e-05  -0.0684209 -0.326184 -6.59227e-05  -0.0689049 -0.333761 -6.13928e-05  -0.0759916 -0.325734 -7.83205e-05  -0.075989 -0.325716 -9.20296e-05  -0.0608675 -0.326631 -5.85318e-05  -0.0764663 -0.333293 -7.84397e-05  -0.0688972 -0.33375 -7.08103e-05  -0.0618241 -0.341767 -5.42402e-05  -0.0693758 -0.341319 -6.60419e-05  -0.0622983 -0.349335 -4.63724e-05  -0.0693817 -0.341332 -5.81741e-05  -0.0698478 -0.348893 -5.40018e-05  -0.0769386 -0.340874 -6.69956e-05  -0.076931 -0.340861 -7.41482e-05  -0.0618291 -0.34178 -4.75645e-05  -0.0774004 -0.348424 -6.79493e-05  -0.0698447 -0.348883 -5.9247e-05  -0.062762 -0.356889 -4.36306e-05  -0.0703077 -0.356436 -5.13792e-05  -0.0632279 -0.364438 -3.91006e-05  -0.0703123 -0.356448 -4.91142e-05  -0.0707741 -0.363997 -4.70877e-05  -0.0778608 -0.355989 -5.6386e-05  -0.077858 -0.355978 -5.91278e-05  -0.0627692 -0.356901 -4.39882e-05  -0.078316 -0.363527 -5.76973e-05  -0.0707676 -0.363983 -4.8995e-05  -0.0636876 -0.371975 -3.44515e-05  -0.071228 -0.371526 -4.14848e-05  -0.0641479 -0.379514 -2.80142e-05  -0.071234 -0.371538 -4.36306e-05  -0.0716901 -0.37908 -4.01735e-05  -0.0787787 -0.371082 -5.3525e-05  -0.0787716 -0.371069 -5.38826e-05  -0.0636897 -0.371988 -3.23057e-05  -0.0792267 -0.378608 -4.52995e-05  -0.0716848 -0.379065 -3.96967e-05  -0.000507299 -0.000596553 -0.000407696  -0.000654347 -0.000895008 -0.000504851  -0.00135283 -0.00168923 -0.000742078  -0.000644464 -0.000942126 -0.000331402  -0.00176226 -0.00233978 -0.000603557  0 0 0  0 0 0  -0.000509471 -0.000631973 -0.000260472  0 0 0  -0.00174209 -0.00223425 -0.000917196  -0.00239274 -0.00321116 -0.00103033  -0.0031963 -0.0038904 -0.00127113  -0.00358963 -0.00505021 -0.00123525  -0.00318059 -0.00402723 -0.000829577  -0.00471921 -0.00591819 -0.00100315  -0.00237648 -0.00334567 -0.000670433  -0.00474359 -0.00573598 -0.00152934  -0.0048379 -0.00712454 -0.00136721  -0.00632429 -0.0077939 -0.00169098  -0.00609481 -0.00946607 -0.0014441  -0.00628737 -0.00800416 -0.00111639  -0.00785342 -0.0103277 -0.00118947  -0.00480339 -0.00732175 -0.000902414  -0.00789231 -0.0100916 -0.00179017  -0.0073337 -0.0120535 -0.00147688  -0.00942454 -0.0126339 -0.00183439  -0.00854197 -0.0148976 -0.00147784  -0.0093914 -0.0128838 -0.00122118  -0.0108944 -0.0156946 -0.00122976  -0.0073044 -0.0122899 -0.000985742  -0.0109173 -0.0154316 -0.00183892  -0.00971639 -0.0179935 -0.00145972  -0.0123702 -0.018485 -0.00181758  -0.010863 -0.0213361 -0.00142765  -0.0123585 -0.0187501 -0.00121725  -0.0137786 -0.0220562 -0.00119293  -0.0097087 -0.0182494 -0.000979304  -0.0137824 -0.0217887 -0.00177741  -0.0119808 -0.0249193 -0.00138569  -0.0151588 -0.0253338 -0.00172734  -0.0130709 -0.0287371 -0.00133657  -0.0151643 -0.025599 -0.00115967  -0.016511 -0.02938 -0.00111997  -0.0119883 -0.0251787 -0.000930905  -0.0164959 -0.0291168 -0.00166786  -0.0141342 -0.0327772 -0.00128603  -0.0178006 -0.0331245 -0.00160635  -0.0151763 -0.0370378 -0.00123239  -0.0178219 -0.03338 -0.00107849  -0.0190977 -0.0376027 -0.00103581  -0.0141549 -0.03303 -0.000864744  -0.0190708 -0.0373498 -0.0015409  -0.0161943 -0.0415044 -0.00118041  -0.0203107 -0.0417865 -0.00147784  -0.0171938 -0.0461753 -0.00112844  -0.0203421 -0.0420284 -0.00099206  -0.0215535 -0.0466608 -0.000947952  -0.0162247 -0.0417463 -0.000793576  -0.0215194 -0.0464246 -0.00141215  -0.0181741 -0.0510354 -0.00107801  -0.0227026 -0.0512553 -0.00134897  -0.0191342 -0.056082 -0.00102913  -0.0227385 -0.0514805 -0.000906944  -0.0238912 -0.0564886 -0.000865817  -0.0182091 -0.0512578 -0.000724792  -0.0238543 -0.0562707 -0.00128984  -0.0200763 -0.0613006 -0.000983953  -0.0249822 -0.0614617 -0.00123119  -0.0210035 -0.0666932 -0.000935674  -0.0250199 -0.0616702 -0.000828028  -0.0261225 -0.0670242 -0.000787616  -0.0201142 -0.0615092 -0.000659585  -0.0260814 -0.0668236 -0.00117302  -0.0219107 -0.072242 -0.000892282  -0.0271575 -0.0723459 -0.0011189  -0.0228031 -0.0779469 -0.000847101  -0.0271982 -0.0725347 -0.000751138  -0.028249 -0.0782052 -0.000713229  -0.021947 -0.0724322 -0.00059998  -0.0282096 -0.0780205 -0.00106323  -0.0236785 -0.0837934 -0.000805855  -0.0292394 -0.0838429 -0.00101268  -0.0245413 -0.0897846 -0.000766516  -0.0292767 -0.0840158 -0.000680685  -0.0302821 -0.0899728 -0.000646353  -0.0237148 -0.0839702 -0.000542641  -0.0302441 -0.089806 -0.000962853  -0.0253862 -0.0959021 -0.000726819  -0.0312264 -0.0958981 -0.00091207  -0.026217 -0.102147 -0.000686288  -0.031263 -0.0960556 -0.000614524  -0.0322218 -0.102268 -0.000582933  -0.0254211 -0.0960612 -0.000489354  -0.0321876 -0.102117 -0.000866294  -0.0270336 -0.108507 -0.000652194  -0.0331283 -0.108454 -0.000820398  -0.0278376 -0.114982 -0.000614882  -0.033162 -0.108598 -0.000551462  -0.0340799 -0.115039 -0.000523567  -0.0270648 -0.108652 -0.000440001  -0.0340468 -0.114903 -0.000777602  -0.028623 -0.121559 -0.000581741  -0.0349461 -0.121457 -0.000731587  -0.0293988 -0.128238 -0.000548005  -0.0349778 -0.121583 -0.000494123  -0.0358536 -0.128234 -0.000466108  -0.0286554 -0.121687 -0.000391126  -0.0358233 -0.128112 -0.000690699  -0.0301584 -0.135002 -0.000517011  -0.0366806 -0.134857 -0.000651956  -0.0309074 -0.141859 -0.000484586  -0.0367119 -0.134972 -0.000438213  -0.0375473 -0.141802 -0.000413895  -0.0301869 -0.13512 -0.000348806  -0.0375183 -0.141691 -0.000612497  -0.0316403 -0.148794 -0.000456572  -0.0383384 -0.148606 -0.000574589  -0.0323615 -0.155805 -0.000426292  -0.0383663 -0.148709 -0.000387073  -0.0391641 -0.155696 -0.000364542  -0.0316656 -0.148896 -0.000308037  -0.0391395 -0.155598 -0.00053823  -0.0330675 -0.162884 -0.000397444  -0.0399196 -0.162659 -0.000506401  -0.033762 -0.170031 -0.000372887  -0.0399477 -0.162749 -0.000342131  -0.0407116 -0.169875 -0.0003196  -0.0330911 -0.162974 -0.000270724  -0.0406859 -0.169786 -0.000471473  -0.0344453 -0.177233 -0.000347614  -0.0414317 -0.176973 -0.000438809  -0.0351164 -0.184492 -0.00032115  -0.0414562 -0.177054 -0.000299931  -0.0421844 -0.184292 -0.000276923  -0.0344653 -0.177314 -0.000237107  -0.0421636 -0.184217 -0.000408769  -0.0357709 -0.191801 -0.000295997  -0.0428753 -0.191509 -0.000377417  -0.0364172 -0.199155 -0.000276089  -0.0428967 -0.191577 -0.00025785  -0.0435905 -0.198914 -0.000238895  -0.0357893 -0.191869 -0.000203133  -0.0435705 -0.198849 -0.000349522  -0.0370486 -0.206546 -0.000253916  -0.0442502 -0.206228 -0.000320077  -0.0376709 -0.213979 -0.000234365  -0.0442686 -0.206288 -0.000220299  -0.0449305 -0.213704 -0.000203848  -0.0370655 -0.206608 -0.000175357  -0.0449152 -0.213647 -0.000296354  -0.0382802 -0.22144 -0.000215054  -0.0455632 -0.221097 -0.000272632  -0.0388803 -0.228935 -0.000196338  -0.045579 -0.221147 -0.000187874  -0.0462136 -0.228629 -0.000171542  -0.0382965 -0.221491 -0.000147462  -0.0461998 -0.22858 -0.000251532  -0.0394685 -0.236452 -0.000177503  -0.0468185 -0.236084 -0.000225306  -0.0400443 -0.243989 -0.000160456  -0.046834 -0.236129 -0.000159144  -0.0474384 -0.243657 -0.000141978  -0.0394826 -0.236495 -0.000125051  -0.0474241 -0.243614 -0.000205636  -0.0406127 -0.251544 -0.000145793  -0.048017 -0.251162 -0.000184298  -0.0411699 -0.259118 -0.000130177  -0.0480289 -0.251199 -0.00013113  -0.0486088 -0.25876 -0.000120163  -0.0406249 -0.251583 -0.000104547  -0.0485964 -0.258725 -0.000165343  -0.0417178 -0.2667 -0.000117898  -0.0491645 -0.2663 -0.000148416  -0.0422583 -0.274294 -0.000103235  -0.0491729 -0.266329 -0.000106931  -0.0497293 -0.273916 -9.62019e-05  -0.0417275 -0.266731 -8.35657e-05  -0.0497179 -0.273885 -0.000131726  -0.0427883 -0.281891 -9.34601e-05  -0.0502644 -0.281478 -0.000118732  -0.0433121 -0.289499 -8.17776e-05  -0.0502722 -0.281503 -8.67844e-05  -0.0508056 -0.289101 -7.78437e-05  -0.0427983 -0.281918 -6.79493e-05  -0.0507984 -0.289079 -0.000106692  -0.0438225 -0.297099 -7.24792e-05  -0.0513206 -0.296674 -9.23872e-05  -0.0443325 -0.304707 -6.27041e-05  -0.0513279 -0.296697 -7.16448e-05  -0.0518432 -0.304298 -6.34193e-05  -0.0438294 -0.297122 -5.37634e-05  -0.0518363 -0.304277 -8.24928e-05  -0.0448298 -0.312306 -5.54323e-05  -0.0523431 -0.311873 -6.98566e-05  -0.0453224 -0.319906 -4.8399e-05  -0.0523479 -0.31189 -5.71012e-05  -0.0528433 -0.319489 -5.17368e-05  -0.0448339 -0.312325 -4.54187e-05  -0.0528393 -0.319467 -6.19888e-05  -0.0458076 -0.327497 -4.44651e-05  -0.0533314 -0.327058 -5.71012e-05  -0.0462914 -0.335086 -3.75509e-05  -0.0533311 -0.327073 -4.56572e-05  -0.0538173 -0.334657 -4.25577e-05  -0.0458107 -0.327512 -3.79086e-05  -0.0538144 -0.334642 -5.03063e-05  -0.0467641 -0.342662 -3.3617e-05  -0.0542922 -0.342216 -4.48227e-05  -0.0472386 -0.35023 -3.18289e-05  -0.0542936 -0.342227 -4.00543e-05  -0.0547659 -0.349794 -3.65973e-05  -0.0467689 -0.342672 -3.17097e-05  -0.0547636 -0.349783 -4.08888e-05  -0.0477028 -0.357787 -2.83718e-05  -0.0552309 -0.35734 -3.62396e-05  -0.0481658 -0.365336 -2.46763e-05  -0.055233 -0.35735 -3.34978e-05  -0.0556965 -0.364902 -3.31402e-05  -0.0477057 -0.357799 -2.82526e-05  -0.0556931 -0.364887 -3.23057e-05  -0.0486269 -0.372872 -2.09808e-05  -0.0561545 -0.372426 -2.70605e-05  -0.0490861 -0.380403 -1.66893e-05  -0.056159 -0.372438 -2.93255e-05  -0.0566189 -0.379973 -2.38419e-05  -0.0486302 -0.372886 -2.24113e-05  -0.0566149 -0.379959 -2.32458e-05  -0.000231903 -0.000276655 -0.000207186  -0.000355236 -0.000396818 -0.000308275  -0.000608131 -0.00112161 -0.000374675  -0.00035277 -0.00043577 -0.000201583  -0.000933826 -0.00141412 -0.000366688  0 0 0  0 0 0  -0.000233535 -0.000309706 -0.000131726  0 0 0  -0.000922807 -0.0013335 -0.000562668  -0.00107898 -0.00247523 -0.000522494  -0.00168875 -0.00276986 -0.000779033  -0.0016432 -0.00422263 -0.000625849  -0.0016726 -0.00288582 -0.000503182  -0.00253625 -0.00470218 -0.000612617  -0.00107124 -0.00258705 -0.00033915  -0.00255109 -0.00454757 -0.000934958  -0.00224078 -0.00629827 -0.000692844  -0.00348362 -0.00663215 -0.00103211  -0.00286278 -0.00867793 -0.000731349  -0.0034585 -0.0068118 -0.000679255  -0.00440001 -0.00920123 -0.000724316  -0.00222662 -0.00647148 -0.000457525  -0.0044232 -0.00899321 -0.00109172  -0.00348526 -0.0113228 -0.000746727  -0.00535965 -0.011617 -0.00111616  -0.00410372 -0.014233 -0.000746012  -0.00533932 -0.0118398 -0.000742435  -0.00626218 -0.014737 -0.000744939  -0.00347373 -0.0115397 -0.000500083  -0.00627509 -0.014498 -0.00111473  -0.00471032 -0.0173909 -0.000736833  -0.00717252 -0.0176288 -0.00110221  -0.00531012 -0.0207946 -0.000717521  -0.00716639 -0.0178749 -0.000737429  -0.00804937 -0.0212589 -0.000721574  -0.00471067 -0.0176322 -0.000494719  -0.00804663 -0.0210056 -0.00107515  -0.00590247 -0.0244347 -0.000696301  -0.00890213 -0.0246184 -0.00104201  -0.0064894 -0.0283078 -0.000671148  -0.00891197 -0.0248721 -0.000699162  -0.00975657 -0.0287218 -0.000674129  -0.00591409 -0.0246835 -0.000468493  -0.00974059 -0.0284666 -0.00100422  -0.00706875 -0.0323999 -0.000643015  -0.0105647 -0.0325367 -0.000965714  -0.00764698 -0.0367132 -0.000615716  -0.0105873 -0.0327857 -0.000649333  -0.0113996 -0.0370715 -0.000619411  -0.00708765 -0.0326474 -0.000433087  -0.0113738 -0.036826 -0.000926018  -0.00821972 -0.0412276 -0.000588894  -0.012173 -0.0413199 -0.000886321  -0.00879204 -0.0459457 -0.000561357  -0.0122005 -0.0415568 -0.000594378  -0.0129891 -0.046249 -0.000566721  -0.00824505 -0.0414659 -0.000396252  -0.0129583 -0.0460142 -0.000846148  -0.00936115 -0.050854 -0.000534415  -0.0137342 -0.0509028 -0.000808358  -0.00993323 -0.0559482 -0.000509858  -0.0137657 -0.051124 -0.000540257  -0.0145315 -0.0561913 -0.000517368  -0.00938988 -0.0510776 -0.00035882  -0.0144994 -0.0559744 -0.000770807  -0.0105022 -0.0612162 -0.000485182  -0.0152566 -0.0612203 -0.000734806  -0.0110711 -0.0666524 -0.000460744  -0.0152906 -0.0614269 -0.000492215  -0.0160382 -0.0668359 -0.000468373  -0.0105301 -0.0614242 -0.000326395  -0.0160052 -0.066636 -0.000701189  -0.0116374 -0.0722474 -0.000436902  -0.016744 -0.0722098 -0.00066483  -0.0122058 -0.0779994 -0.000412822  -0.0167775 -0.0723998 -0.000445962  -0.0175076 -0.0781235 -0.000422835  -0.0116682 -0.0724401 -0.00029397  -0.0174749 -0.0779379 -0.000631332  -0.0127733 -0.0838886 -0.000393271  -0.0181986 -0.0838106 -0.000601053  -0.0133394 -0.0899216 -0.000373483  -0.0182303 -0.0839837 -0.000402808  -0.0189437 -0.0899899 -0.000382781  -0.0128019 -0.0840639 -0.000264168  -0.0189115 -0.0898246 -0.00057137  -0.0139062 -0.0960823 -0.000352383  -0.0196202 -0.0959641 -0.000540972  -0.0144731 -0.102368 -0.00033319  -0.0196512 -0.0961225 -0.0003618  -0.0203485 -0.102385 -0.0003438  -0.0139358 -0.0962429 -0.000236869  -0.0203195 -0.102231 -0.000512362  -0.0150377 -0.108768 -0.000315189  -0.0210093 -0.108612 -0.000483394  -0.015604 -0.115282 -0.000296235  -0.0210388 -0.108755 -0.000324726  -0.0217212 -0.115244 -0.00030601  -0.015064 -0.108912 -0.000210762  -0.0216916 -0.115107 -0.000455856  -0.0161635 -0.121897 -0.000279069  -0.0223707 -0.121707 -0.000431418  -0.0167261 -0.128611 -0.000264525  -0.0223974 -0.121835 -0.000290513  -0.0230634 -0.128527 -0.000273228  -0.0161881 -0.122026 -0.000187874  -0.023037 -0.128403 -0.000407815  -0.0172853 -0.135414 -0.000246763  -0.0236998 -0.135189 -0.000382662  -0.0178449 -0.142302 -0.000231266  -0.0237236 -0.135305 -0.000253916  -0.0243769 -0.142173 -0.00024116  -0.0173087 -0.135529 -0.000167131  -0.024352 -0.14206 -0.000359416  -0.0184014 -0.14927 -0.000217557  -0.025001 -0.149015 -0.000336647  -0.0189581 -0.156315 -0.000204563  -0.0250199 -0.149117 -0.000227451  -0.0256584 -0.156141 -0.000212789  -0.0184195 -0.149372 -0.000145078  -0.0256391 -0.156043 -0.000317097  -0.0195084 -0.163422 -0.000189662  -0.0262666 -0.163138 -0.000294566  -0.0200574 -0.170596 -0.000176311  -0.0262895 -0.163229 -0.000200033  -0.0269101 -0.170386 -0.000184774  -0.0195258 -0.163513 -0.000127554  -0.0268915 -0.170301 -0.000274777  -0.0206032 -0.177827 -0.000162482  -0.0275059 -0.177516 -0.000256062  -0.0211487 -0.185113 -0.000151634  -0.0275259 -0.177598 -0.000172257  -0.0281317 -0.184868 -0.000158191  -0.0206196 -0.177908 -0.000110269  -0.0281146 -0.18479 -0.000236273  -0.0216892 -0.192443 -0.000139117  -0.0287123 -0.192111 -0.000217319  -0.0222278 -0.199822 -0.000127196  -0.0287304 -0.19218 -0.000147223  -0.0293217 -0.199545 -0.000138164  -0.0217016 -0.192514 -9.38177e-05  -0.0293043 -0.199478 -0.000200629  -0.0227628 -0.207235 -0.000119567  -0.0298927 -0.206883 -0.00018847  -0.0232933 -0.214688 -0.000109076  -0.0299058 -0.206942 -0.000126004  -0.0304821 -0.214384 -0.000116944  -0.0227721 -0.207298 -8.13007e-05  -0.0304682 -0.214325 -0.000171304  -0.0238192 -0.222169 -9.84669e-05  -0.0310359 -0.221799 -0.000156403  -0.0243442 -0.229681 -8.92878e-05  -0.03105 -0.221851 -0.000106454  -0.03161 -0.229352 -9.71556e-05  -0.0238292 -0.222225 -6.73532e-05  -0.0315979 -0.229302 -0.000141501  -0.0248649 -0.237214 -8.13007e-05  -0.0321527 -0.236826 -0.0001297  -0.0253799 -0.24477 -7.22408e-05  -0.032167 -0.236871 -9.13143e-05  -0.0327115 -0.244418 -8.15392e-05  -0.0248702 -0.23726 -5.6982e-05  -0.0327003 -0.244376 -0.000118971  -0.0258911 -0.252341 -6.47306e-05  -0.033241 -0.251939 -0.00010705  -0.0264008 -0.259926 -5.6386e-05  -0.033253 -0.251977 -7.52211e-05  -0.0337839 -0.259554 -6.50883e-05  -0.0258987 -0.25238 -4.68493e-05  -0.0337732 -0.259519 -9.54866e-05  -0.0269048 -0.26752 -5.01871e-05  -0.0343003 -0.267107 -8.54731e-05  -0.027405 -0.275125 -4.64916e-05  -0.0343094 -0.267136 -6.11544e-05  -0.0348308 -0.274739 -5.30481e-05  -0.0269098 -0.267552 -3.50475e-05  -0.0348229 -0.274707 -7.73668e-05  -0.0279019 -0.282732 -4.23193e-05  -0.0353372 -0.28231 -6.79493e-05  -0.0283961 -0.290348 -3.5882e-05  -0.0353463 -0.282337 -4.98295e-05  -0.0358498 -0.289948 -4.44651e-05  -0.0279095 -0.28276 -3.18289e-05  -0.0358448 -0.289921 -5.99623e-05  -0.0288827 -0.297959 -3.11136e-05  -0.0363469 -0.297529 -5.3525e-05  -0.0293701 -0.305569 -2.72989e-05  -0.0363538 -0.297549 -4.04119e-05  -0.0368497 -0.305158 -3.37362e-05  -0.0288885 -0.297981 -2.40803e-05  -0.0368431 -0.305136 -4.58956e-05  -0.0298526 -0.313181 -2.43187e-05  -0.0373356 -0.312741 -4.22001e-05  -0.0303311 -0.320786 -2.08616e-05  -0.0373414 -0.312761 -3.23057e-05  -0.0378232 -0.320363 -2.82526e-05  -0.0298553 -0.3132 -1.96695e-05  -0.0378213 -0.320345 -3.54052e-05  -0.0308039 -0.328381 -1.9908e-05  -0.0383034 -0.32794 -3.37362e-05  -0.0312772 -0.335972 -1.69277e-05  -0.0383058 -0.327954 -2.7895e-05  -0.0387833 -0.335544 -2.47955e-05  -0.0308075 -0.328396 -1.69277e-05  -0.0387795 -0.335529 -2.98023e-05  -0.031744 -0.343551 -1.63317e-05  -0.0392511 -0.343106 -2.44379e-05  -0.0322084 -0.351125 -1.29938e-05  -0.0392542 -0.343118 -2.41995e-05  -0.0397217 -0.350691 -2.21729e-05  -0.0317466 -0.343567 -1.64509e-05  -0.0397208 -0.350677 -2.26498e-05  -0.0326707 -0.358684 -1.27554e-05  -0.0401845 -0.358237 -1.91927e-05  -0.0331345 -0.366235 -1.0848e-05  -0.0401883 -0.358248 -1.8239e-05  -0.0406511 -0.365801 -1.72853e-05  -0.0326712 -0.358696 -1.39475e-05  -0.0406468 -0.365787 -1.89543e-05  -0.0335915 -0.373769 -8.58307e-06  -0.041105 -0.373319 -1.34706e-05  -0.0340488 -0.38129 -9.89437e-06  -0.0411096 -0.37333 -1.5974e-05  -0.0415676 -0.38086 -1.58548e-05  -0.0335932 -0.37378 -1.12057e-05  -0.0415649 -0.380845 -1.43051e-05  1.11684e-05 -0.000200897 2.02656e-06  -0.000104662 -0.000215203 -0.000102878  2.3827e-05 -0.000995785 6.31809e-06  -0.000106681 -0.000248581 -6.75917e-05  -0.000277765 -0.00108084 -0.000122547  0 0 0  0 0 0  7.60704e-06 -0.000234544 2.6226e-06  0 0 0  -0.000266045 -0.00101057 -0.000186801  5.58048e-05 -0.00230733 1.43051e-06  -0.00049448 -0.00233442 -0.000259638  7.63535e-05 -0.00402749 3.57628e-06  -0.000491902 -0.00243631 -0.000166297  -0.000756815 -0.00418863 -0.000205278  4.86374e-05 -0.00240818 2.5034e-06  -0.000751793 -0.0040513 -0.000313282  9.96292e-05 -0.00611159 5.96046e-07  -0.00105011 -0.0061323 -0.000345469  0.000105768 -0.00850362 -1.19209e-06  -0.00104594 -0.0062966 -0.000226617  -0.00135407 -0.00870603 -0.000244975  8.91984e-05 -0.00627106 2.38419e-07  -0.00135341 -0.00851387 -0.00036788  0.000106335 -0.0111797 -6.07967e-06  -0.00167197 -0.0111794 -0.000376821  8.99434e-05 -0.0141167 -4.41074e-06  -0.00166905 -0.0113883 -0.000250101  -0.00199038 -0.0143338 -0.000251651  9.50694e-05 -0.0113852 -4.05312e-06  -0.00198767 -0.0141062 -0.000377059  6.10948e-05 -0.0173106 -4.17233e-06  -0.00230843 -0.0172861 -0.000371933  1.5974e-05 -0.0207489 -3.21865e-06  -0.00231367 -0.0175219 -0.00025022  -0.00264096 -0.0209551 -0.000241637  4.71473e-05 -0.0175468 -4.05312e-06  -0.00263113 -0.0207092 -0.000360608  -4.34518e-05 -0.0244212 -2.26498e-06  -0.00295812 -0.02437 -0.000349998  -0.00011915 -0.0283255 5.96046e-07  -0.00297147 -0.0246157 -0.000234842  -0.00330418 -0.0285099 -0.000225186  -5.72205e-05 -0.0246677 -1.66893e-06  -0.00328749 -0.0282603 -0.000335693  -0.000209928 -0.0324504 1.66893e-06  -0.00362456 -0.0323726 -0.000320315  -0.000319004 -0.0367939 5.126e-06  -0.00364405 -0.0326175 -0.000216722  -0.00398719 -0.0369454 -0.000203371  -0.000224829 -0.0326943 5.96046e-07  -0.00396919 -0.0367017 -0.000306487  -0.00044477 -0.0413409 5.24521e-06  -0.00432044 -0.0412364 -0.000292778  -0.000588119 -0.0460908 7.39098e-06  -0.00433969 -0.0414717 -0.000195026  -0.00469846 -0.0462042 -0.000185847  -0.000460863 -0.0415757 4.52995e-06  -0.00467664 -0.0459715 -0.000276923  -0.000745296 -0.0510276 9.53674e-06  -0.00504065 -0.0508961 -0.00026226  -0.000921607 -0.0561537 1.10865e-05  -0.00506401 -0.0511194 -0.000177503  -0.00543702 -0.0562263 -0.000166655  -0.000763059 -0.0512509 6.67572e-06  -0.00541317 -0.0560087 -0.000249982  -0.00111294 -0.0614516 1.27554e-05  -0.00579429 -0.0612943 -0.000236988  -0.00132203 -0.0669207 1.54972e-05  -0.00581646 -0.0614984 -0.000157237  -0.00620615 -0.0669472 -0.000147581  -0.00113177 -0.0616593 9.17912e-06  -0.00618136 -0.0667486 -0.000223398  -0.00154579 -0.0725466 1.45435e-05  -0.00657785 -0.0723602 -0.000211716  -0.00178444 -0.0783264 1.77622e-05  -0.00660217 -0.0725492 -0.000139117  -0.00700748 -0.0783112 -0.000132799  -0.00156283 -0.0727363 1.16825e-05  -0.00698197 -0.0781272 -0.000199914  -0.00203824 -0.0842485 1.83582e-05  -0.00739372 -0.0840368 -0.000188231  -0.00230813 -0.0903122 1.9908e-05  -0.00741744 -0.0842088 -0.000123978  -0.00783503 -0.0902531 -0.000117064  -0.00205576 -0.0844259 1.44243e-05  -0.0078119 -0.0900842 -0.000176668  -0.00259078 -0.0965009 1.9908e-05  -0.00823772 -0.0962612 -0.000165939  -0.0028863 -0.102817 2.28882e-05  -0.00825977 -0.0964198 -0.000108242  -0.0086894 -0.102718 -0.000103712  -0.00260472 -0.0966613 1.56164e-05  -0.00866771 -0.102563 -0.000157475  -0.00319386 -0.109245 2.19345e-05  -0.00910497 -0.10898 -0.00014782  -0.00351489 -0.115787 2.45571e-05  -0.00912738 -0.109124 -9.64403e-05  -0.00956953 -0.115647 -9.05991e-05  -0.00320947 -0.109389 1.56164e-05  -0.00954664 -0.115509 -0.000137806  -0.003847 -0.122425 2.40803e-05  -0.00999618 -0.122138 -0.000128746  -0.00419223 -0.129166 2.15769e-05  -0.0100169 -0.122266 -8.4877e-05  -0.0104686 -0.12899 -7.92742e-05  -0.00386024 -0.122557 1.70469e-05  -0.0104492 -0.128864 -0.000120401  -0.00454783 -0.135994 2.0504e-05  -0.0109079 -0.135681 -0.000111938  -0.00491226 -0.142906 2.46763e-05  -0.0109252 -0.135797 -7.45058e-05  -0.0113859 -0.142696 -6.74725e-05  -0.00456047 -0.136111 1.65701e-05  -0.0113708 -0.142584 -0.000108242  -0.00528574 -0.149896 2.19345e-05  -0.0118353 -0.149564 -9.799e-05  -0.00567222 -0.15696 2.21729e-05  -0.011853 -0.149667 -6.48499e-05  -0.0123203 -0.156718 -6.06775e-05  -0.0052979 -0.15 1.63317e-05  -0.0123057 -0.156619 -9.34601e-05  -0.00606346 -0.164091 2.2769e-05  -0.0127766 -0.163739 -8.35657e-05  -0.00646424 -0.171285 2.12193e-05  -0.0127935 -0.163832 -5.47171e-05  -0.0132673 -0.171014 -5.16176e-05  -0.00607181 -0.164184 1.68085e-05  -0.0132518 -0.170923 -7.90358e-05  -0.00687146 -0.178531 2.18153e-05  -0.0137308 -0.178166 -7.1764e-05  -0.00728679 -0.185836 2.18153e-05  -0.0137427 -0.178246 -4.80413e-05  -0.0142205 -0.18554 -4.12464e-05  -0.00687861 -0.178615 1.66893e-05  -0.0142109 -0.185461 -6.52075e-05  -0.00770807 -0.193185 2.13385e-05  -0.0146899 -0.192802 -6.16312e-05  -0.00813222 -0.200578 1.90735e-05  -0.0147035 -0.192872 -3.94583e-05  -0.0151839 -0.200255 -3.44515e-05  -0.00771189 -0.193257 1.65701e-05  -0.0151718 -0.200188 -5.61476e-05  -0.00856233 -0.208008 2.07424e-05  -0.0156562 -0.207612 -5.13792e-05  -0.00899863 -0.215474 1.93119e-05  -0.0156679 -0.207672 -3.23057e-05  -0.0161507 -0.215131 -2.8491e-05  -0.00856996 -0.208071 1.40667e-05  -0.0161386 -0.215071 -4.26769e-05  -0.00943995 -0.222968 1.85966e-05  -0.0166245 -0.222562 -3.93391e-05  -0.00988579 -0.230492 1.81198e-05  -0.0166337 -0.222615 -2.563e-05  -0.0171161 -0.230129 -2.55108e-05  -0.00944591 -0.223024 1.40667e-05  -0.0171063 -0.230077 -3.56436e-05  -0.0103297 -0.238036 1.69277e-05  -0.0175917 -0.23762 -3.21865e-05  -0.0107801 -0.245601 1.44243e-05  -0.0175991 -0.237663 -1.9908e-05  -0.0180833 -0.24522 -2.01464e-05  -0.0103352 -0.238081 1.13249e-05  -0.0180748 -0.245178 -3.12328e-05  -0.0112331 -0.253181 1.58548e-05  -0.0185573 -0.252755 -2.65837e-05  -0.0116889 -0.260775 1.51396e-05  -0.0185664 -0.252793 -1.77622e-05  -0.0190461 -0.260382 -1.44243e-05  -0.0112381 -0.25322 1.03712e-05  -0.019043 -0.260344 -2.31266e-05  -0.012145 -0.268378 1.52588e-05  -0.0195246 -0.267943 -1.87159e-05  -0.0126064 -0.275989 1.38283e-05  -0.0195258 -0.267977 -1.04904e-05  -0.0200062 -0.275584 -1.10865e-05  -0.0121489 -0.268413 1.19209e-05  -0.0200021 -0.275554 -1.91927e-05  -0.0130622 -0.283602 1.12057e-05  -0.020479 -0.283164 -1.5378e-05  -0.0135241 -0.291222 9.89437e-06  -0.0204842 -0.28319 -1.04904e-05  -0.0209594 -0.29081 -1.15633e-05  -0.0130646 -0.28363 7.03335e-06  -0.020957 -0.290779 -1.39475e-05  -0.0139835 -0.29884 9.17912e-06  -0.0214305 -0.298398 -1.15633e-05  -0.0144451 -0.306457 9.05991e-06  -0.0214355 -0.298415 -6.07967e-06  -0.0219066 -0.30603 -5.84126e-06  -0.0139844 -0.298861 6.67572e-06  -0.0219057 -0.30601 -9.77516e-06  -0.0149055 -0.314066 6.67572e-06  -0.0223749 -0.313621 -8.70228e-06  -0.0153677 -0.321675 5.60284e-06  -0.0223768 -0.31364 -6.79493e-06  -0.0228469 -0.321247 -5.126e-06  -0.0149043 -0.314086 5.96046e-06  -0.0228448 -0.321227 -6.4373e-06  -0.0158248 -0.329275 4.76837e-06  -0.0233157 -0.328827 -8.10623e-06  -0.0162864 -0.336869 5.00679e-06  -0.0233176 -0.328843 -5.48363e-06  -0.0237844 -0.336437 -5.96046e-06  -0.015826 -0.329291 3.33786e-06  -0.0237803 -0.336418 -6.79493e-06  -0.0167446 -0.344451 1.54972e-06  -0.0242429 -0.344 -5.84126e-06  -0.0172045 -0.352026 4.17233e-06  -0.0242481 -0.344016 -7.51019e-06  -0.0247073 -0.351589 -5.48363e-06  -0.0167501 -0.344465 8.34465e-07  -0.0247052 -0.351575 -7.51019e-06  -0.0176616 -0.359584 4.76837e-07  -0.0251682 -0.359134 -4.88758e-06  -0.0181196 -0.367138 -1.19209e-07  -0.0251653 -0.359146 -5.36442e-06  -0.025625 -0.366698 -6.55651e-06  -0.017662 -0.359598 -2.38419e-07  -0.0256245 -0.366685 -6.4373e-06  -0.0185723 -0.37467 -5.96046e-07  -0.0260801 -0.374218 -5.60284e-06  -0.0190258 -0.382188 -1.66893e-06  -0.0260828 -0.374229 -7.39098e-06  -0.0265369 -0.381757 -5.60284e-06  -0.0185719 -0.374681 -2.38419e-06  -0.0265367 -0.381737 -5.126e-06  0.000251159 -0.00031662 0.000209093  0.000132233 -0.000236988 0.000104904  0.000649124 -0.00122011 0.000386834  0.000131242 -0.000268698 6.78301e-05  0.000334486 -0.00112796 0.000125647  0 0 0  0 0 0  0.000248007 -0.000353515 0.000136375  0 0 0  0.000352785 -0.00106001 0.00019598  0.00118652 -0.00262344 0.000525117  0.000620678 -0.0024063 0.000268459  0.00178945 -0.00439513 0.000629663  0.000607848 -0.00250608 0.00017643  0.000912279 -0.00427192 0.000207901  0.00116529 -0.00272632 0.000343561  0.000937641 -0.0041396 0.000317216  0.0024291 -0.00651962 0.000688314  0.00125653 -0.00624293 0.000347376  0.00306496 -0.00892609 0.000724554  0.00123528 -0.00640285 0.000230193  0.00155383 -0.00882852 0.000240445  0.00239506 -0.00668192 0.000456095  0.00157899 -0.00864035 0.000362396  0.00368121 -0.011613 0.000737429  0.00188211 -0.0113249 0.000368357  0.00426453 -0.0145593 0.000735641  0.00186202 -0.0115315 0.00024569  0.00214773 -0.0144963 0.000245929  0.00364822 -0.0118229 0.000491142  0.002168 -0.0142693 0.000367284  0.00481421 -0.0177583 0.000724077  0.00242704 -0.0174695 0.000361919  0.00532371 -0.021201 0.000707865  0.00240839 -0.0177035 0.000243425  0.00264341 -0.0211562 0.000237823  0.00478804 -0.0179925 0.000486135  0.00266021 -0.0209125 0.000353336  0.00579447 -0.0248807 0.000686407  0.00286555 -0.0245941 0.000342846  0.00622636 -0.0287954 0.00066483  0.00285101 -0.0248369 0.000230551  0.00303042 -0.0287526 0.000224352  0.00577641 -0.0251275 0.000461817  0.00304621 -0.0285052 0.000332117  0.00662255 -0.0329307 0.000642896  0.00319701 -0.0326382 0.000321627  0.00698018 -0.0372853 0.000620961  0.00318342 -0.0328797 0.000217438  0.00330889 -0.0372299 0.000211596  0.0066101 -0.0331742 0.000431657  0.00332332 -0.0369884 0.000310421  0.00730228 -0.0418453 0.000598431  0.00342208 -0.0415462 0.000301719  0.00758743 -0.0466117 0.000576019  0.00340658 -0.0417802 0.000203609  0.00348175 -0.0465345 0.000197887  0.00729084 -0.0420827 0.000401378  0.00349402 -0.046304 0.00029099  0.00784063 -0.051563 0.000553131  0.00354147 -0.0512508 0.000281692  0.00805891 -0.0567051 0.000530005  0.00352848 -0.051473 0.000191927  0.00355113 -0.0566018 0.000183582  0.00783217 -0.0517871 0.000373363  0.00356412 -0.0563863 0.000270247  0.00824416 -0.0620199 0.000509739  0.00356162 -0.0616953 0.000261545  0.00839794 -0.0675036 0.000490427  0.00354719 -0.0618998 0.000177503  0.00352037 -0.0673742 0.0001719  0.00823784 -0.0622262 0.000343442  0.00353158 -0.0671729 0.000252008  0.0085175 -0.0731471 0.000469327  0.00347924 -0.0728104 0.000242114  0.00860775 -0.0789467 0.000450611  0.0034678 -0.0730013 0.000165343  0.00339508 -0.0787845 0.00015986  0.00851369 -0.0733386 0.000317216  0.00340557 -0.0786004 0.000232816  0.00866914 -0.0848853 0.000432372  0.00331008 -0.0845314 0.000225067  0.00869823 -0.0909668 0.000411034  0.003299 -0.084709 0.000151277  0.00317895 -0.0907767 0.000148654  0.00866282 -0.0850618 0.000291228  0.00318992 -0.0906055 0.00021565  0.00869966 -0.0971709 0.000391841  0.00304949 -0.0968056 0.000204444  0.00867343 -0.103503 0.000374436  0.00304091 -0.0969636 0.000141263  0.00288022 -0.103285 0.000135183  0.00869691 -0.097333 0.000266194  0.0028888 -0.103131 0.000195503  0.00862277 -0.109948 0.000358462  0.00270998 -0.109569 0.000190139  0.00854456 -0.116504 0.000340939  0.00270033 -0.109712 0.000130057  0.00250137 -0.116258 0.000125051  0.00861895 -0.110094 0.00024116  0.00251079 -0.116118 0.000182152  0.00844228 -0.12316 0.000326037  0.00229275 -0.122767 0.000174165  0.00831854 -0.129913 0.000311017  0.002285 -0.122896 0.000120521  0.00204945 -0.12964 0.000113606  0.00844061 -0.12329 0.000221133  0.00205803 -0.129514 0.000164151  0.00817084 -0.136752 0.000294924  0.00180626 -0.13635 0.000158548  0.00799847 -0.143681 0.000276923  0.00179708 -0.136467 0.000107884  0.00152993 -0.143386 0.000104904  0.00816536 -0.136871 0.000200748  0.00153732 -0.143271 0.0001508  0.00780606 -0.150683 0.000262022  0.0012536 -0.150269 0.000141263  0.00759268 -0.157759 0.00024724  0.00124812 -0.150374 9.799e-05  0.000950098 -0.157441 9.41753e-05  0.00780201 -0.150788 0.000180006  0.000957012 -0.157339 0.000135899  0.00736189 -0.164903 0.000234008  0.000644684 -0.164478 0.000125766  0.00711107 -0.172108 0.000218749  0.000639677 -0.164572 8.82149e-05  0.000314236 -0.171769 8.45194e-05  0.0073595 -0.164996 0.00016129  0.000319004 -0.17168 0.00012064  0.00684524 -0.179364 0.000206113  -1.83582e-05 -0.178933 0.000113368  0.00656247 -0.186679 0.000194192  -2.12193e-05 -0.179015 7.98702e-05  -0.000371456 -0.186321 7.56979e-05  0.00684404 -0.179448 0.000142813  -0.000366211 -0.186244 0.000107884  0.00626206 -0.194036 0.00018084  -0.000725031 -0.193596 0.000100255  0.00595021 -0.201438 0.000168681  -0.000728607 -0.193666 7.12872e-05  -0.00109863 -0.201064 6.53267e-05  0.00626373 -0.194107 0.000126243  -0.00109363 -0.200995 9.34601e-05  0.00562239 -0.208874 0.000157356  -0.00147271 -0.20843 8.95262e-05  0.00528193 -0.216346 0.000144839  -0.00147796 -0.20849 6.38962e-05  -0.00186372 -0.215959 5.94854e-05  0.00562263 -0.208935 0.000109076  -0.00186014 -0.215898 8.2612e-05  0.00493217 -0.223847 0.000136495  -0.00225782 -0.223397 7.71284e-05  0.00456715 -0.231378 0.000122786  -0.0022583 -0.223449 5.36442e-05  -0.00266171 -0.230975 5.13792e-05  0.00493336 -0.223902 9.54866e-05  -0.0026629 -0.230925 6.85453e-05  0.00419068 -0.238926 0.000111461  -0.00307369 -0.238474 6.38962e-05  0.00380683 -0.246494 0.000104904  -0.00307512 -0.238518 4.73261e-05  -0.00349164 -0.246085 4.22001e-05  0.00419497 -0.238971 7.90358e-05  -0.00349021 -0.246039 5.96046e-05  0.00341368 -0.254076 9.65595e-05  -0.0039115 -0.253622 5.51939e-05  0.00301313 -0.261676 8.63075e-05  -0.00391388 -0.253661 3.80278e-05  -0.00433874 -0.261256 3.83854e-05  0.00341725 -0.254119 6.79493e-05  -0.00433874 -0.261217 5.19753e-05  0.00260806 -0.269281 8.11815e-05  -0.00477314 -0.268824 4.74453e-05  0.00219059 -0.276895 7.10487e-05  -0.00477338 -0.268856 3.71933e-05  -0.00520992 -0.276469 3.03984e-05  0.00260854 -0.269312 5.79357e-05  -0.00520897 -0.276436 4.23193e-05  0.00176978 -0.28451 6.30617e-05  -0.00564981 -0.284051 3.71933e-05  0.00134468 -0.292131 6.04391e-05  -0.00564933 -0.28408 2.89679e-05  -0.00609207 -0.291702 2.61068e-05  0.00177073 -0.284539 4.73261e-05  -0.00609326 -0.291672 3.29018e-05  0.000913858 -0.299748 5.19753e-05  -0.0065372 -0.29929 2.96831e-05  0.00047493 -0.307369 4.73261e-05  -0.00654006 -0.29931 2.34842e-05  -0.00698972 -0.30693 2.41995e-05  0.000911474 -0.299772 3.95775e-05  -0.00698829 -0.30691 2.76566e-05  3.57628e-05 -0.314978 3.93391e-05  -0.00743675 -0.314521 2.40803e-05  -0.000407457 -0.322587 3.65973e-05  -0.00743747 -0.314539 1.66893e-05  -0.00788856 -0.322149 1.74046e-05  3.8147e-05 -0.314999 2.95639e-05  -0.00788808 -0.322128 2.08616e-05  -0.000852585 -0.330187 3.15905e-05  -0.00833964 -0.329731 1.68085e-05  -0.0013001 -0.337782 2.51532e-05  -0.00833797 -0.329744 1.35899e-05  -0.00879145 -0.337339 1.06096e-05  -0.000849247 -0.330201 2.36034e-05  -0.0087924 -0.337323 1.18017e-05  -0.00174689 -0.34536 2.22921e-05  -0.00925088 -0.344905 1.23978e-05  -0.00220132 -0.352935 1.9908e-05  -0.00924683 -0.344918 9.89437e-06  -0.00970483 -0.352494 9.89437e-06  -0.00174665 -0.345374 1.75238e-05  -0.00970316 -0.352479 1.0848e-05  -0.00265098 -0.360496 1.40667e-05  -0.0101593 -0.36004 8.22544e-06  -0.00310206 -0.368048 1.39475e-05  -0.0101604 -0.360052 7.98702e-06  -0.0106118 -0.367604 6.91414e-06  -0.00264955 -0.36051 1.23978e-05  -0.010612 -0.367591 6.67572e-06  -0.00355387 -0.375579 1.14441e-05  -0.0110645 -0.375125 4.41074e-06  -0.00400543 -0.383105 6.67572e-06  -0.0110619 -0.375134 5.48363e-06  -0.0115151 -0.382661 4.52995e-06  -0.00355172 -0.375592 9.65595e-06  -0.011517 -0.382645 -4.76837e-07  0.000528909 -0.000684142 0.000408888  0.000389643 -0.000462472 0.000310183  0.0013774 -0.00186735 0.000748634  0.00038939 -0.000501812 0.000201941  0.000996709 -0.00155222 0.000367641  0 0 0  0 0 0  0.000525497 -0.00072819 0.00026679  0 0 0  0.00102167 -0.00147921 0.000570536  0.00248525 -0.00349438 0.0010252  0.00181395 -0.00297874 0.000783801  0.00371867 -0.00536603 0.00122714  0.00179079 -0.00309068 0.000510216  0.00268281 -0.00494516 0.000610948  0.00245006 -0.00360888 0.000672579  0.00272331 -0.00480199 0.000932336  0.00499153 -0.00753832 0.00134993  0.00367108 -0.00694954 0.00102592  0.00625587 -0.00994647 0.00142288  0.003627 -0.00712103 0.000676632  0.00457302 -0.00956076 0.000716448  0.00493658 -0.00771695 0.000891447  0.00461951 -0.00936264 0.00107861  0.00747636 -0.0126172 0.00145328  0.00553811 -0.0120456 0.00109911  0.00864565 -0.0155419 0.00145435  0.00549564 -0.0122616 0.000732422  0.00638127 -0.0152185 0.000736356  0.00742668 -0.0128413 0.000968575  0.00641608 -0.0149852 0.00109708  0.00975466 -0.0187162 0.00143588  0.00724864 -0.0181745 0.00108409  0.0108039 -0.0221408 0.00140524  0.00721633 -0.0184132 0.000725985  0.00800526 -0.0218583 0.00071156  0.00971901 -0.0189605 0.000962853  0.00802958 -0.0216125 0.00105679  0.0117946 -0.025804 0.00136709  0.00876093 -0.025287 0.00102901  0.0127249 -0.0297077 0.00132453  0.00874072 -0.0255331 0.000691652  0.00942928 -0.0294464 0.000669479  0.0117733 -0.0260569 0.000917077  0.00944668 -0.029197 0.000995398  0.0136006 -0.0338356 0.00127792  0.0100814 -0.033331 0.000961781  0.0144197 -0.0381865 0.00123155  0.0100694 -0.0335762 0.000647664  0.0106623 -0.0379271 0.000624895  0.0135906 -0.0340819 0.000859857  0.0106719 -0.0376849 0.000925899  0.015186 -0.0427433 0.00118506  0.0112168 -0.0422462 0.000891924  0.0158964 -0.047508 0.00113928  0.0112088 -0.0424818 0.00059998  0.0117096 -0.0472438 0.000578403  0.0151795 -0.0429801 0.000797272  0.0117158 -0.0470119 0.000858665  0.0165577 -0.0524639 0.00109482  0.0121716 -0.0519696 0.000823736  0.0171633 -0.0576063 0.00104737  0.0121665 -0.0521916 0.00055635  0.0125828 -0.0573291 0.000533938  0.016554 -0.0526842 0.000735402  0.0125865 -0.0571125 0.000789762  0.0177217 -0.0629222 0.00100529  0.0129578 -0.0624291 0.000757813  0.0182348 -0.068412 0.000964999  0.0129559 -0.0626374 0.000510335  0.0132887 -0.0681195 0.000491858  0.0177234 -0.0631297 0.000677586  0.0132906 -0.0679184 0.000725627  0.0186964 -0.0740578 0.000921369  0.0135832 -0.0735654 0.000694871  0.019111 -0.0798606 0.000882149  0.0135821 -0.0737537 0.000472188  0.013835 -0.0795524 0.000449896  0.0186985 -0.0742486 0.000621319  0.0138373 -0.0793675 0.00066483  0.0194823 -0.0858039 0.000842929  0.0140514 -0.0853118 0.000635386  0.0198084 -0.0918887 0.000804663  0.0140512 -0.0854838 0.000431776  0.0142314 -0.0915633 0.000412703  0.0194848 -0.085979 0.000569582  0.0142307 -0.0913929 0.000608683  0.0200939 -0.0980994 0.000767231  0.0143744 -0.0976033 0.000581384  0.0203376 -0.104434 0.000731111  0.0143739 -0.0977643 0.000393033  0.014485 -0.104094 0.000375152  0.0200956 -0.09826 0.000518203  0.0144845 -0.103938 0.000552773  0.0205402 -0.110884 0.000694036  0.014562 -0.110387 0.000525832  0.0207032 -0.117444 0.000659347  0.0145595 -0.110531 0.000356436  0.0146049 -0.117086 0.000341058  0.0205417 -0.111029 0.0004704  0.0146047 -0.116947 0.000499725  0.020828 -0.124103 0.000628114  0.0146168 -0.123604 0.000476122  0.0209166 -0.130862 0.000593066  0.0146153 -0.123736 0.000324488  0.0146003 -0.130487 0.000307798  0.0208327 -0.124233 0.000425696  0.0145984 -0.13036 0.000452399  0.0209734 -0.137704 0.000562906  0.0145528 -0.137205 0.000427127  0.0209932 -0.144636 0.000532627  0.014554 -0.137321 0.000292897  0.0144813 -0.144248 0.000276208  0.0209773 -0.137824 0.000383258  0.0144775 -0.144136 0.000402689  0.020982 -0.15164 0.000501156  0.0143769 -0.15114 0.000381351  0.0209396 -0.158721 0.000471234  0.0143788 -0.151246 0.000260711  0.0142534 -0.158321 0.000248075  0.0209877 -0.151747 0.000341177  0.0142491 -0.158219 0.00035882  0.0208666 -0.165863 0.000442743  0.0140979 -0.165366 0.00033772  0.0207641 -0.17307 0.000415087  0.0140991 -0.165458 0.000233173  0.0139239 -0.172661 0.000218391  0.0208733 -0.165958 0.000303507  0.0139215 -0.172571 0.000315666  0.020637 -0.18033 0.00039053  0.0137265 -0.17983 0.000298381  0.0204816 -0.187643 0.000363469  0.0137277 -0.179913 0.000204325  0.013509 -0.187224 0.000193596  0.0206425 -0.180414 0.000268102  0.0135069 -0.187145 0.000279307  0.0203021 -0.195001 0.000339985  0.0132689 -0.194503 0.00026083  0.0200987 -0.202402 0.000316143  0.0132709 -0.194576 0.000181794  0.0130126 -0.201977 0.000167489  0.0203109 -0.195073 0.0002352  0.0130086 -0.201908 0.000241041  0.0198739 -0.209838 0.000293374  0.012732 -0.209344 0.000224352  0.0196271 -0.217311 0.000272155  0.0127387 -0.209406 0.000160933  0.0124433 -0.216878 0.000145793  0.0198803 -0.209903 0.000203133  0.0124419 -0.216819 0.000207186  0.0193586 -0.224813 0.000249863  0.0121343 -0.224319 0.000193596  0.019073 -0.232339 0.00023067  0.012135 -0.224373 0.000136495  0.0118146 -0.231899 0.000127912  0.0193632 -0.224866 0.000176072  0.0118074 -0.231848 0.00017786  0.018769 -0.239884 0.000213981  0.0114691 -0.239394 0.00016284  0.0184495 -0.247453 0.000195146  0.0114727 -0.239442 0.00011456  0.0111234 -0.247011 0.000105143  0.0187733 -0.23993 0.000151277  0.0111196 -0.246965 0.000149012  0.018115 -0.255032 0.000175238  0.010756 -0.254549 0.000134468  0.0177658 -0.26263 0.000158072  0.0107608 -0.254588 9.98974e-05  0.0103836 -0.262184 8.83341e-05  0.0181205 -0.255075 0.000124335  0.0103805 -0.262146 0.000123501  0.0174029 -0.270232 0.000143766  0.00999641 -0.269752 0.000112176  0.0170286 -0.277845 0.000132203  0.00999832 -0.269782 8.17776e-05  0.00960374 -0.277396 7.53403e-05  0.017405 -0.270266 0.000104785  0.00960231 -0.277364 0.00010097  0.0166414 -0.285457 0.000115752  0.00919867 -0.284981 9.02414e-05  0.0162444 -0.293074 0.000103116  0.00919962 -0.285005 6.71148e-05  0.00878859 -0.292625 5.97239e-05  0.016644 -0.285485 8.38041e-05  0.00878739 -0.292598 7.89165e-05  0.0158391 -0.300688 9.25064e-05  0.00836921 -0.300217 7.11679e-05  0.0154254 -0.308305 8.2016e-05  0.00836992 -0.300239 5.4121e-05  0.00794721 -0.307856 4.91142e-05  0.0158429 -0.300714 7.09295e-05  0.00794291 -0.307834 6.22272e-05  0.0150063 -0.315915 7.29561e-05  0.00751328 -0.315443 5.6982e-05  0.0145793 -0.32352 6.47306e-05  0.00751615 -0.315463 4.66108e-05  0.00708127 -0.323069 4.13656e-05  0.0150075 -0.315932 5.78165e-05  0.00707912 -0.323052 5.06639e-05  0.0141468 -0.331115 5.55515e-05  0.0066402 -0.330648 4.18425e-05  0.0137062 -0.338706 4.74453e-05  0.00664425 -0.330664 3.56436e-05  0.00620174 -0.338259 3.1352e-05  0.0141482 -0.331132 4.50611e-05  0.00619793 -0.338242 3.67165e-05  0.0132682 -0.346284 4.01735e-05  0.00575638 -0.34582 3.38554e-05  0.0128224 -0.353856 3.50475e-05  0.00575614 -0.345833 2.71797e-05  0.00530982 -0.353408 2.37226e-05  0.0132675 -0.346298 3.3617e-05  0.00530767 -0.353394 2.76566e-05  0.0123765 -0.361414 3.08752e-05  0.00485682 -0.360956 2.25306e-05  0.0119238 -0.368969 2.57492e-05  0.00486088 -0.360965 2.12193e-05  0.00440836 -0.368522 1.87159e-05  0.0123756 -0.361429 2.88486e-05  0.00440526 -0.368507 1.87159e-05  0.0114765 -0.376501 2.00272e-05  0.00395679 -0.376041 1.18017e-05  0.0110259 -0.384037 1.22786e-05  0.00395918 -0.376055 1.56164e-05  0.00351191 -0.383581 1.40667e-05  0.0114779 -0.376517 2.03848e-05  0.00350523 -0.383569 8.82149e-06  0.000924461 -0.00156069 0.000587225  0.000728078 -0.00101852 0.000509143  0.00244316 -0.00319839 0.00109446  0.000730626 -0.00108325 0.000325918  0.00186256 -0.00252253 0.000598431  0 0 0  0 0 0  0.000938073 -0.00159425 0.000400186  0 0 0  0.00188494 -0.00242811 0.000926495  0.00424656 -0.00510669 0.00149798  0.0032995 -0.00418669 0.00126851  0.00616655 -0.00705302 0.00178754  0.00326948 -0.0043214 0.00082624  0.00480646 -0.00629365 0.000994682  0.00420809 -0.00524026 0.000979304  0.00485396 -0.00612468 0.00151145  0.00806087 -0.00919521 0.00197542  0.00644571 -0.00828671 0.00167036  0.0099158 -0.0115626 0.00208795  0.0063858 -0.00848222 0.00110185  0.00794968 -0.0109097 0.0011698  0.00800005 -0.00940865 0.00130486  0.00800803 -0.0106872 0.00175977  0.0117082 -0.0141625 0.00213873  0.00952217 -0.0133267 0.00179875  0.0134237 -0.0170353 0.00214708  0.00946593 -0.0135612 0.0012002  0.0109235 -0.016477 0.00120604  0.011649 -0.0144133 0.00142598  0.0109726 -0.0162279 0.00180137  0.0150678 -0.0201576 0.00212574  0.0123524 -0.0193809 0.00178206  0.0166346 -0.023546 0.0020858  0.0123135 -0.0196308 0.00119555  0.0136347 -0.023045 0.00117338  0.0150261 -0.0204203 0.00142395  0.0136651 -0.0227867 0.00174701  0.018129 -0.0271746 0.00203216  0.0149096 -0.0264367 0.00170064  0.0195462 -0.0310513 0.0019685  0.0148865 -0.0266895 0.00114274  0.0160694 -0.0305814 0.00110805  0.0181025 -0.0274351 0.00136292  0.0160874 -0.0303263 0.00164855  0.0208907 -0.0351549 0.00190282  0.0171989 -0.0344459 0.00159001  0.0221615 -0.0394862 0.00183487  0.0171866 -0.0346913 0.00107074  0.0182363 -0.0390315 0.00103164  0.0208788 -0.0354058 0.00127852  0.0182438 -0.0387874 0.00153315  0.0233615 -0.0440267 0.00176656  0.0192265 -0.0433386 0.00147605  0.0244901 -0.0487776 0.00169766  0.0192219 -0.0435732 0.000993609  0.0201451 -0.0483277 0.000955224  0.0233572 -0.044263 0.00118732  0.020149 -0.0480964 0.00141871  0.0255507 -0.0537191 0.00163019  0.021008 -0.0530483 0.0013603  0.0265429 -0.0588519 0.00156343  0.0210072 -0.0532684 0.000916362  0.0218105 -0.0584028 0.000880837  0.02555 -0.0539412 0.00109804  0.0218104 -0.0581847 0.00130665  0.0274669 -0.064156 0.00149751  0.0225514 -0.0634999 0.00125122  0.0283308 -0.0696383 0.0014354  0.022555 -0.0637056 0.000844479  0.023243 -0.0691855 0.000809908  0.02747 -0.0643634 0.00100899  0.0232395 -0.0689856 0.00119972  0.0291282 -0.0752746 0.00137174  0.0238715 -0.074629 0.00114751  0.0298641 -0.0810706 0.00131071  0.0238758 -0.0748187 0.000775933  0.0244536 -0.0806133 0.000739455  0.0291314 -0.0754657 0.000925779  0.0244483 -0.0804285 0.00109732  0.0305401 -0.0870046 0.00125074  0.0249715 -0.0863711 0.00104594  0.0311575 -0.0930822 0.00119364  0.0249748 -0.086544 0.000705719  0.0254494 -0.0926206 0.000674963  0.0305445 -0.0871785 0.000843525  0.0254457 -0.0924509 0.000998616  0.0317214 -0.0992847 0.00113857  0.0258706 -0.0986603 0.000952601  0.0322248 -0.105615 0.00108397  0.0258749 -0.0988196 0.00064528  0.0262473 -0.10515 0.000614285  0.0317245 -0.0994444 0.000770211  0.0262457 -0.104995 0.000907183  0.0326781 -0.112056 0.00103033  0.0265731 -0.111442 0.000861645  0.0330782 -0.118609 0.000978351  0.0265756 -0.111586 0.000585914  0.0268595 -0.11814 0.000555634  0.0326804 -0.112201 0.000696063  0.0268555 -0.117998 0.000818372  0.0334264 -0.125259 0.000927091  0.027094 -0.124657 0.000776768  0.0337251 -0.132011 0.000878215  0.0270981 -0.124785 0.000528216  0.0272928 -0.131538 0.000500798  0.0334316 -0.12539 0.000629544  0.0272887 -0.131412 0.000733972  0.0339766 -0.138848 0.0008322  0.0274444 -0.138255 0.000695705  0.0341814 -0.145773 0.000784039  0.0274484 -0.138371 0.000474691  0.0275643 -0.145294 0.000450253  0.0339828 -0.138968 0.000564694  0.0275593 -0.145182 0.000658631  0.0343482 -0.152769 0.00073874  0.0276334 -0.152183 0.0006212  0.0344682 -0.159842 0.000697732  0.0276415 -0.152288 0.000425935  0.0276811 -0.159363 0.000400424  0.0343547 -0.152874 0.000503778  0.0276749 -0.159261 0.000584722  0.0345471 -0.166976 0.000653982  0.0276783 -0.166403 0.000547409  0.0345881 -0.174178 0.00061357  0.0276861 -0.166496 0.000376582  0.0276546 -0.173697 0.00035429  0.0345557 -0.167069 0.000449181  0.0276501 -0.173606 0.000513554  0.0345933 -0.181429 0.000576496  0.0275898 -0.180864 0.000479698  0.0345619 -0.188736 0.000535965  0.0275943 -0.180944 0.00033164  0.0274997 -0.188253 0.000311136  0.0345986 -0.181511 0.00039649  0.0274975 -0.188175 0.000449538  0.0344963 -0.196082 0.000499845  0.0273764 -0.195528 0.000418901  0.0343969 -0.203476 0.000465393  0.0273795 -0.1956 0.000291228  0.0272295 -0.202997 0.00027132  0.0345023 -0.196154 0.000345826  0.027225 -0.202928 0.000388503  0.034266 -0.210907 0.000429511  0.0270479 -0.21036 0.000362039  0.0341082 -0.218372 0.000398278  0.0270514 -0.210424 0.000251532  0.0268493 -0.217891 0.000234485  0.0342708 -0.210965 0.000299692  0.0268447 -0.21783 0.000333548  0.0339224 -0.225858 0.000366449  0.0266187 -0.225326 0.000308633  0.0337064 -0.233381 0.000335455  0.0266232 -0.22538 0.000215292  0.0263741 -0.232901 0.000200391  0.0339243 -0.225914 0.000256896  0.0263679 -0.23285 0.00028193  0.0334675 -0.240916 0.000307918  0.0261014 -0.240394 0.00025785  0.0332043 -0.248478 0.000281096  0.0261047 -0.240439 0.00018394  0.025816 -0.248003 0.0001688  0.0334723 -0.240963 0.000217319  0.0258121 -0.247958 0.000237107  0.0329213 -0.256049 0.000255585  0.0255027 -0.255533 0.000214696  0.0326178 -0.263638 0.0002321  0.0255079 -0.255572 0.000155091  0.0251811 -0.263165 0.000143886  0.0329278 -0.256088 0.000183463  0.0251768 -0.263128 0.000195742  0.0322948 -0.271229 0.000211  0.0248327 -0.270726 0.000176787  0.0319524 -0.278831 0.000188947  0.0248394 -0.270758 0.000128269  0.0244792 -0.278368 0.000117421  0.0322993 -0.271263 0.000152588  0.0244758 -0.278334 0.000158668  0.031595 -0.286438 0.000168085  0.0241046 -0.285945 0.000141621  0.0312231 -0.294049 0.000150919  0.0241115 -0.285971 0.000104666  0.0237288 -0.293587 9.64403e-05  0.0316007 -0.286467 0.000124812  0.0237231 -0.293558 0.000126243  0.0308392 -0.301657 0.000132918  0.0233281 -0.301172 0.000113487  0.0304427 -0.309267 0.000116229  0.0233338 -0.301194 8.69036e-05  0.0229294 -0.308808 7.65324e-05  0.0308437 -0.301679 0.000100851  0.0229216 -0.308784 0.000100017  0.0300326 -0.316869 0.000101686  0.0225086 -0.316391 8.40425e-05  0.0296147 -0.324468 9.21488e-05  0.0225189 -0.316406 7.04527e-05  0.0220947 -0.32401 6.42538e-05  0.03004 -0.316887 8.08239e-05  0.0220912 -0.323993 7.72476e-05  0.0291924 -0.332059 8.11815e-05  0.0216596 -0.331586 6.81877e-05  0.0287554 -0.339643 7.15256e-05  0.0216637 -0.331602 5.61476e-05  0.0212312 -0.33919 5.25713e-05  0.0291965 -0.332074 6.79493e-05  0.0212259 -0.339172 5.85318e-05  0.0283182 -0.347215 6.02007e-05  0.0207841 -0.346751 5.126e-05  0.0278747 -0.354784 5.4121e-05  0.0207913 -0.346764 4.41074e-05  0.0203493 -0.354335 3.89814e-05  0.0283263 -0.34723 5.29289e-05  0.0203457 -0.354318 4.35114e-05  0.0274289 -0.362339 4.55379e-05  0.0198977 -0.361877 3.8147e-05  0.0269785 -0.369889 4.05312e-05  0.0199022 -0.361891 3.56436e-05  0.0194542 -0.369442 3.31402e-05  0.0274343 -0.362353 4.20809e-05  0.0194473 -0.369428 3.37362e-05  0.0265284 -0.37743 3.54052e-05  0.0189991 -0.376966 2.61068e-05  0.0260806 -0.384963 2.58684e-05  0.0190024 -0.376979 2.58684e-05  0.0185537 -0.384515 2.55108e-05  0.0265346 -0.377441 3.42131e-05  0.0185499 -0.384499 2.07424e-05  0.00190963 -0.00375211 0.000796437  0.00133506 -0.00229061 0.000719905  0.00476316 -0.00584072 0.00141859  0.00137915 -0.00241947 0.000438094  0.00332171 -0.00450861 0.000823379  0 0 0  0 0 0  0.00182784 -0.00370467 0.0005337  0 0 0  0.00328758 -0.00437051 0.00127256  0.00712737 -0.0074721 0.00197315  0.00548148 -0.00623196 0.00172877  0.00946233 -0.00942248 0.00234079  0.00545612 -0.00638747 0.00112927  0.00763434 -0.0083915 0.00135827  0.00711186 -0.00771976 0.00127661  0.00766093 -0.00817907 0.00205767  0.0118428 -0.0113852 0.00258863  0.00984716 -0.0102432 0.00228131  0.0141761 -0.0136729 0.00273824  0.00978982 -0.0104802 0.00150621  0.0119096 -0.0128189 0.00160325  0.0118192 -0.011669 0.00170135  0.0119663 -0.0125626 0.0024085  0.016483 -0.0161797 0.0028069  0.0140214 -0.0151201 0.00247288  0.0187189 -0.0189858 0.0028218  0.0139618 -0.0153836 0.0016489  0.015949 -0.0182258 0.00166166  0.0164346 -0.0164665 0.0018667  0.0160028 -0.0179549 0.00248587  0.0208768 -0.0220437 0.00280023  0.017903 -0.0210488 0.00246334  0.0229511 -0.0253864 0.00274873  0.0178582 -0.0213181 0.00165164  0.0196884 -0.0246812 0.0016222  0.0208289 -0.0223266 0.0018729  0.0197266 -0.0244117 0.00241745  0.0249375 -0.0289674 0.00268257  0.0214655 -0.0280197 0.00235832  0.0268334 -0.0328098 0.00260115  0.0214351 -0.0282823 0.00158381  0.0230994 -0.032139 0.00153732  0.0249009 -0.029236 0.00179768  0.0231243 -0.0318795 0.00228751  0.0286379 -0.036873 0.00251853  0.0246989 -0.0359663 0.00221086  0.0303531 -0.0411791 0.00242674  0.0246794 -0.0362152 0.00148582  0.0261797 -0.0405293 0.00143325  0.0286115 -0.0371263 0.00169039  0.0261936 -0.0402853 0.00213242  0.0319783 -0.0456856 0.00233948  0.0276068 -0.0448106 0.00205255  0.0335168 -0.0504137 0.00224769  0.0275968 -0.0450472 0.0013814  0.0289348 -0.0497826 0.00132656  0.0319614 -0.0459219 0.00157034  0.0289406 -0.0495495 0.0019716  0.0349694 -0.0553232 0.00216186  0.0301982 -0.0544796 0.00189352  0.0363334 -0.0604379 0.00207031  0.0301925 -0.054701 0.00127566  0.0313751 -0.0598181 0.00122452  0.0349563 -0.0555467 0.00145245  0.0313784 -0.0596022 0.00181603  0.0376176 -0.0657181 0.00198674  0.032485 -0.0648978 0.00174165  0.0388224 -0.0711803 0.00190139  0.032482 -0.0651009 0.00117421  0.0335177 -0.0705696 0.00112498  0.0376085 -0.0659217 0.00133801  0.0335172 -0.0703701 0.00166965  0.0399475 -0.0767925 0.00182092  0.0344802 -0.0759979 0.00159574  0.0409923 -0.0825702 0.00173879  0.0344794 -0.0761861 0.00107741  0.0353736 -0.0819674 0.00102818  0.0399392 -0.0769808 0.00122797  0.035373 -0.0817831 0.00152409  0.0419688 -0.0884815 0.0016613  0.0361992 -0.08771 0.00145519  0.0428679 -0.0945441 0.00158334  0.0362 -0.0878808 0.000981688  0.0369618 -0.0939465 0.000937462  0.0419626 -0.0886531 0.00112033  0.0369594 -0.0937802 0.00138712  0.0436984 -0.100724 0.00150967  0.0376564 -0.099975 0.00132215  0.0444552 -0.107039 0.00143719  0.0376565 -0.100131 0.00089407  0.0382915 -0.106449 0.000852942  0.0436914 -0.100879 0.00102043  0.0382911 -0.106297 0.00126016  0.0451448 -0.113455 0.0013653  0.0388633 -0.112729 0.00119722  0.04577 -0.119995 0.00129509  0.0388653 -0.112872 0.000811934  0.0393804 -0.119415 0.000773072  0.0451438 -0.1136 0.000925064  0.0393771 -0.119274 0.00113618  0.0463364 -0.126625 0.00122774  0.0398338 -0.125917 0.00107706  0.0468374 -0.133363 0.00116038  0.0398364 -0.126047 0.00073123  0.0402381 -0.132788 0.000694275  0.0463316 -0.126756 0.0008322  0.0402366 -0.132662 0.00102043  0.0472815 -0.140177 0.00110257  0.0405843 -0.139491 0.00096488  0.0476656 -0.147088 0.00103843  0.0405868 -0.139607 0.000656605  0.040885 -0.146521 0.000621557  0.0472763 -0.140294 0.000746489  0.0408816 -0.146408 0.000911951  0.0479934 -0.154064 0.000976801  0.0411286 -0.153399 0.000857949  0.0482695 -0.161122 0.000919461  0.0411322 -0.1535 0.00058651  0.0413311 -0.160562 0.00055325  0.0479927 -0.154167 0.000666976  0.0413287 -0.160463 0.000808239  0.0484948 -0.168237 0.00086832  0.0414824 -0.16759 0.000760674  0.0486674 -0.175423 0.0008111  0.0414846 -0.16768 0.000521302  0.0415969 -0.174872 0.000489831  0.0484905 -0.168329 0.000591159  0.0415909 -0.174784 0.000711679  0.0487964 -0.182653 0.000760198  0.0416591 -0.182027 0.000664234  0.0488777 -0.189948 0.000709534  0.0416617 -0.182107 0.000457764  0.0416877 -0.189405 0.000428319  0.0487969 -0.182732 0.000522137  0.0416839 -0.189327 0.000620723  0.0489192 -0.197277 0.000660181  0.0416729 -0.196667 0.000579119  0.0489125 -0.204656 0.000609875  0.0416782 -0.196736 0.000400782  0.041626 -0.20412 0.000373721  0.0489168 -0.197344 0.000455856  0.0416226 -0.204051 0.000536799  0.0488744 -0.212062 0.000570893  0.0415373 -0.211475 0.000496387  0.0487907 -0.219516 0.000524759  0.0415394 -0.211534 0.000344753  0.041419 -0.218993 0.000321269  0.0488725 -0.212122 0.000393152  0.0414197 -0.218933 0.000461221  0.0486732 -0.226985 0.000485778  0.0412674 -0.226414 0.000422478  0.0485222 -0.23449 0.000444531  0.0412707 -0.226468 0.00029695  0.0410933 -0.233976 0.000272632  0.0486727 -0.22704 0.000340104  0.0410872 -0.233925 0.000389099  0.0483403 -0.242011 0.000404716  0.0408785 -0.241457 0.000355959  0.0481253 -0.24956 0.000368476  0.0408838 -0.241503 0.000251889  0.0406468 -0.249055 0.000231981  0.0483429 -0.242055 0.00028646  0.0406444 -0.249012 0.000327349  0.0478888 -0.257111 0.000335336  0.04038 -0.256579 0.000295043  0.0476196 -0.26469 0.000302792  0.0403836 -0.256614 0.000213027  0.0400987 -0.264193 0.000195026  0.0478897 -0.25715 0.000239611  0.0400951 -0.264158 0.000266671  0.0473266 -0.272267 0.000274181  0.039788 -0.271745 0.000241995  0.0470107 -0.279858 0.000249267  0.0397916 -0.271776 0.000176191  0.0394664 -0.279374 0.000160336  0.0473275 -0.272297 0.000200987  0.0394616 -0.279342 0.00021553  0.0466716 -0.287448 0.000218391  0.0391161 -0.286943 0.000192285  0.0463142 -0.295047 0.000195265  0.0391173 -0.286967 0.000143051  0.0387566 -0.294571 0.0001297  0.0466783 -0.287472 0.000163794  0.0387537 -0.294546 0.000171661  0.0459423 -0.302641 0.000174522  0.0383747 -0.302148 0.000154734  0.0455508 -0.310241 0.000153542  0.0383739 -0.302172 0.000118256  0.0379856 -0.309775 0.000105977  0.0459437 -0.302662 0.000133514  0.0379808 -0.309752 0.000135779  0.045145 -0.317825 0.00013566  0.037575 -0.317349 0.000118017  0.0447273 -0.325423 0.00011909  0.0375822 -0.317368 9.62019e-05  0.0371635 -0.324965 8.59499e-05  0.04515 -0.317848 0.000107646  0.0371571 -0.324945 0.000102639  0.0442989 -0.333004 0.000105262  0.0367334 -0.332532 9.23872e-05  0.0438609 -0.340581 9.27448e-05  0.0367403 -0.332545 7.62939e-05  0.0363066 -0.340129 7.09295e-05  0.0443027 -0.333018 8.65459e-05  0.0363004 -0.340114 8.27312e-05  0.043417 -0.348144 8.57115e-05  0.0358593 -0.347683 7.12872e-05  0.0429666 -0.355709 7.15256e-05  0.035867 -0.347696 6.2108e-05  0.0354187 -0.355262 5.68628e-05  0.0434203 -0.348161 7.42674e-05  0.0354149 -0.355248 6.27041e-05  0.0425153 -0.363259 6.27041e-05  0.0349672 -0.362801 5.47171e-05  0.0420594 -0.370808 5.44786e-05  0.0349689 -0.362813 4.82798e-05  0.0345209 -0.370362 4.60148e-05  0.0425193 -0.363273 5.88894e-05  0.0345173 -0.37035 4.72069e-05  0.0416071 -0.378352 5.03063e-05  0.0340638 -0.377891 4.44651e-05  0.0411577 -0.385893 4.42266e-05  0.0340681 -0.377904 4.01735e-05  0.0336175 -0.385446 3.3021e-05  0.0416102 -0.378365 4.92334e-05  0.0336151 -0.385427 3.34978e-05  -0.000882 -0.00144053 -0.000207663  -0.0011487 -0.00214154 -0.000221968  -0.00242636 -0.00326917 -0.000362277  -0.00122064 -0.00219841 -3.00407e-05  -0.00333484 -0.00443256 -9.53674e-06  -0.00268852 -0.0038105 -8.58307e-06  0 0 0  -0.00276188 -0.00381812 -0.000280619  0 0 0  0 0 0  -0.000877935 -0.00141986 -4.29153e-06  0 0 0  -0.00505527 -0.00580998 -0.000487924  -0.00336602 -0.00443736 -0.000430584  -0.0041896 -0.0050465 -0.000496387  -0.00549529 -0.00621377 -0.000580072  -0.00604431 -0.00692853 -0.000602126  -0.00548281 -0.00623908 -2.20537e-05  -0.00763778 -0.00810213 -3.05176e-05  -0.00725175 -0.00751524 -3.33786e-05  -0.00723858 -0.00745501 -0.000648141  -0.00420026 -0.00506451 -2.0504e-05  -0.00952534 -0.00926906 -0.000800967  -0.00763275 -0.00805087 -0.000694871  -0.0079343 -0.00900409 -0.000674486  -0.00978059 -0.0100168 -0.000777602  -0.00978598 -0.0112608 -0.000718236  -0.0097737 -0.0100701 -2.59876e-05  -0.011896 -0.0122712 -3.1352e-05  -0.0118643 -0.0112007 -3.61204e-05  -0.0118544 -0.0111332 -0.000878572  -0.00793037 -0.00904375 -2.25306e-05  -0.0142095 -0.013277 -0.000948787  -0.0118996 -0.01221 -0.000831485  -0.0116113 -0.0137722 -0.000740767  -0.0139947 -0.0146453 -0.00085628  -0.0133897 -0.0165284 -0.000746965  -0.0139869 -0.0147065 -2.83718e-05  -0.0160389 -0.0174028 -3.27826e-05  -0.0165566 -0.0157082 -3.40939e-05  -0.0165582 -0.015641 -0.000972509  -0.011604 -0.0138282 -2.67029e-05  -0.0188746 -0.0182725 -0.000987172  -0.0160449 -0.0173387 -0.000866413  -0.0151253 -0.0195381 -0.000741005  -0.0180492 -0.0202918 -0.000859618  -0.0168175 -0.022795 -0.000723958  -0.018044 -0.0203524 -2.72989e-05  -0.0199977 -0.0235564 -2.92063e-05  -0.0211334 -0.021229 -3.3021e-05  -0.0211379 -0.0211629 -0.000976801  -0.0151217 -0.0195969 -2.57492e-05  -0.0233482 -0.0243075 -0.000961185  -0.0199996 -0.0234925 -0.000843287  -0.0184601 -0.0262917 -0.000706792  -0.0218979 -0.0269424 -0.00082171  -0.0200596 -0.0300261 -0.000681281  -0.0218946 -0.0270017 -2.70605e-05  -0.023738 -0.0306867 -2.75373e-05  -0.0254876 -0.0277617 -3.1352e-05  -0.0254932 -0.0277012 -0.000936985  -0.0184599 -0.0263519 -2.51532e-05  -0.0275747 -0.0313271 -0.000906467  -0.0237372 -0.0306246 -0.000793934  -0.0216091 -0.0339843 -0.00065887  -0.0255245 -0.0345387 -0.000766158  -0.0231181 -0.0381623 -0.000630498  -0.0255267 -0.0345976 -2.52724e-05  -0.0272601 -0.0387264 -2.40803e-05  -0.0295874 -0.0352513 -2.77758e-05  -0.029592 -0.0351907 -0.000877142  -0.0216122 -0.0340381 -2.14577e-05  -0.0315432 -0.0392702 -0.000838161  -0.0272554 -0.03867 -0.000737429  -0.0245829 -0.0425471 -0.000605583  -0.0289353 -0.0430155 -0.000707865  -0.0260074 -0.0471366 -0.000579238  -0.0289392 -0.0430681 -2.36034e-05  -0.03057 -0.0476131 -2.43187e-05  -0.0334337 -0.0436232 -2.83718e-05  -0.0334341 -0.0435716 -0.000808597  -0.0245865 -0.0426014 -1.96695e-05  -0.0352685 -0.0480675 -0.00077498  -0.0305648 -0.0475611 -0.000677705  -0.0273904 -0.0519164 -0.000554562  -0.0321461 -0.0523021 -0.000648856  -0.0287378 -0.0568854 -0.000530243  -0.0321535 -0.0523532 -2.38419e-05  -0.0336863 -0.0572792 -2.34842e-05  -0.0370424 -0.052815 -2.7895e-05  -0.0370395 -0.0527646 -0.000742316  -0.0273967 -0.0519675 -1.97887e-05  -0.0387591 -0.0576452 -0.000709653  -0.0336797 -0.0572278 -0.000619292  -0.0300471 -0.0620278 -0.00050807  -0.035171 -0.0623362 -0.000593781  -0.0313237 -0.0673437 -0.000483632  -0.0351753 -0.0623821 -2.31266e-05  -0.0366201 -0.067658 -2.37226e-05  -0.0404246 -0.0627591 -2.75373e-05  -0.0404211 -0.0627088 -0.000680089  -0.0300535 -0.062075 -2.07424e-05  -0.0420364 -0.0679433 -0.000647426  -0.0366153 -0.067609 -0.000565648  -0.032563 -0.0728176 -0.000461936  -0.0380195 -0.0730513 -0.00054276  -0.0337735 -0.0784508 -0.000440121  -0.0380245 -0.0730943 -2.51532e-05  -0.0393889 -0.0786883 -2.31266e-05  -0.0436004 -0.0733875 -2.87294e-05  -0.0435996 -0.0733444 -0.000620008  -0.0325696 -0.0728617 -2.07424e-05  -0.0451121 -0.0788977 -0.000592709  -0.0393836 -0.078647 -0.000517488  -0.0349492 -0.0842258 -0.000419497  -0.040706 -0.0843902 -0.000491142  -0.0360957 -0.0901454 -0.000398278  -0.0407134 -0.0844308 -2.3365e-05  -0.0419981 -0.0903133 -2.45571e-05  -0.046581 -0.0846459 -2.86102e-05  -0.0465778 -0.0846062 -0.000564933  -0.0349567 -0.0842679 -2.07424e-05  -0.0480002 -0.0904484 -0.000534654  -0.0419903 -0.0902738 -0.000469923  -0.0372109 -0.0961937 -0.00037992  -0.0432397 -0.0962925 -0.000445604  -0.0382985 -0.102372 -0.000361443  -0.043244 -0.0963271 -2.36034e-05  -0.0444561 -0.102473 -2.38419e-05  -0.0493799 -0.0964692 -2.75373e-05  -0.0493754 -0.0964312 -0.000511527  -0.0372176 -0.0962318 -1.9908e-05  -0.0507121 -0.102543 -0.000486016  -0.0444497 -0.102437 -0.000422955  -0.039355 -0.10867 -0.000342369  -0.0456269 -0.108704 -0.000401258  -0.0403888 -0.115081 -0.00032568  -0.0456322 -0.108738 -2.41995e-05  -0.0467749 -0.115116 -2.43187e-05  -0.0520045 -0.108811 -2.89679e-05  -0.0520009 -0.108775 -0.000462174  -0.039364 -0.108703 -1.96695e-05  -0.0532516 -0.115121 -0.000435948  -0.0467696 -0.115082 -0.000381231  -0.0413932 -0.121598 -0.000307202  -0.0478781 -0.121572 -0.000362039  -0.0423716 -0.128215 -0.000290394  -0.0478839 -0.121603 -2.38419e-05  -0.0489594 -0.128192 -2.52724e-05  -0.0544646 -0.121611 -3.016e-05  -0.0544637 -0.12158 -0.000418901  -0.0413986 -0.121628 -2.00272e-05  -0.0556356 -0.128137 -0.000392199  -0.0489531 -0.12816 -0.000342965  -0.0433213 -0.134927 -0.00027585  -0.0499992 -0.134849 -0.00032568  -0.0442482 -0.14173 -0.000262141  -0.0500016 -0.134875 -2.43187e-05  -0.0510145 -0.14165 -2.69413e-05  -0.0567682 -0.134823 -3.11136e-05  -0.056766 -0.134791 -0.000372887  -0.0433257 -0.134956 -2.09808e-05  -0.0578624 -0.141538 -0.000355244  -0.0510091 -0.141621 -0.000305295  -0.0451472 -0.14861 -0.000246644  -0.0519917 -0.148479 -0.000289798  -0.0460262 -0.15557 -0.000231147  -0.0519943 -0.148504 -2.63453e-05  -0.0529494 -0.155442 -2.75373e-05  -0.0589211 -0.148397 -3.37362e-05  -0.0589204 -0.148371 -0.000333548  -0.0451531 -0.148636 -2.26498e-05  -0.0599499 -0.15528 -0.000313044  -0.0529423 -0.155414 -0.000272274  -0.0468786 -0.162602 -0.000217676  -0.0538688 -0.162426 -0.000259042  -0.0477085 -0.169702 -0.000201344  -0.0538738 -0.162447 -2.8491e-05  -0.0547664 -0.169522 -2.77758e-05  -0.0609365 -0.162285 -3.27826e-05  -0.0609362 -0.162264 -0.000295162  -0.0468843 -0.162625 -2.25306e-05  -0.0618939 -0.169317 -0.000278354  -0.0547619 -0.1695 -0.000242352  -0.0485132 -0.17686 -0.000191092  -0.055629 -0.176638 -0.000226617  -0.0493016 -0.184078 -0.000180483  -0.0556324 -0.176659 -2.74181e-05  -0.0564725 -0.183856 -2.94447e-05  -0.0628171 -0.176452 -3.57628e-05  -0.0628154 -0.17643 -0.00026226  -0.0485201 -0.176883 -2.3365e-05  -0.0637097 -0.183605 -0.000242591  -0.0564678 -0.183835 -0.000211954  -0.0500641 -0.191345 -0.000170112  -0.0572836 -0.191085 -0.000200152  -0.0508063 -0.198661 -0.000156999  -0.0572886 -0.191104 -3.03984e-05  -0.0580778 -0.198401 -3.06368e-05  -0.064573 -0.190854 -3.51667e-05  -0.0645719 -0.190834 -0.000227809  -0.0500674 -0.191365 -2.38419e-05  -0.0654051 -0.198112 -0.000212312  -0.0580728 -0.198383 -0.000185609  -0.0515299 -0.206018 -0.000148177  -0.0588403 -0.205725 -0.000174761  -0.0522337 -0.213416 -0.000134826  -0.0588439 -0.205739 -2.86102e-05  -0.0595841 -0.213121 -3.14713e-05  -0.0662115 -0.205453 -3.55244e-05  -0.0662103 -0.205433 -0.000199914  -0.0515342 -0.206035 -2.563e-05  -0.0669832 -0.212801 -0.000182629  -0.0595787 -0.213106 -0.000162721  -0.0529182 -0.220846 -0.000127912  -0.0602992 -0.220519 -0.0001508  -0.053582 -0.228307 -0.000114918  -0.0603004 -0.220535 -3.016e-05  -0.0609968 -0.227985 -3.11136e-05  -0.0677369 -0.220214 -3.65973e-05  -0.0677304 -0.220195 -0.000172615  -0.0529215 -0.220862 -2.65837e-05  -0.068455 -0.227628 -0.000158787  -0.0609939 -0.227967 -0.000137806  -0.0542309 -0.235796 -0.000108004  -0.0616691 -0.235441 -0.000128984  -0.0548644 -0.24331 -0.000101566  -0.0616722 -0.235457 -3.17097e-05  -0.062324 -0.242957 -3.3021e-05  -0.0691578 -0.235106 -3.86238e-05  -0.0691543 -0.235089 -0.00014627  -0.0542331 -0.235811 -2.59876e-05  -0.0698314 -0.242578 -0.000136495  -0.0623212 -0.242943 -0.000120044  -0.0554774 -0.25084 -9.40561e-05  -0.0629549 -0.250464 -0.00011003  -0.0560737 -0.258388 -8.92878e-05  -0.0629594 -0.250474 -3.29018e-05  -0.0635729 -0.258014 -3.43323e-05  -0.0704811 -0.250095 -3.89814e-05  -0.0704815 -0.250087 -0.000128746  -0.0554798 -0.250853 -2.89679e-05  -0.0711107 -0.257612 -0.000117421  -0.0635712 -0.258002 -0.000103593  -0.0566559 -0.265951 -8.11815e-05  -0.0641711 -0.265555 -9.47714e-05  -0.0572278 -0.273525 -7.41482e-05  -0.0641711 -0.265563 -3.34978e-05  -0.0647526 -0.273132 -3.57628e-05  -0.0717225 -0.265164 -3.91006e-05  -0.0717237 -0.265154 -0.000109553  -0.0566585 -0.265962 -3.09944e-05  -0.0723128 -0.272709 -0.000100732  -0.0647519 -0.273118 -8.70228e-05  -0.0577796 -0.281106 -6.84261e-05  -0.0653167 -0.280694 -8.2612e-05  -0.0583246 -0.288695 -6.3777e-05  -0.0653167 -0.280703 -3.82662e-05  -0.0658662 -0.288284 -3.67165e-05  -0.072881 -0.280282 -4.18425e-05  -0.0728819 -0.280275 -9.09567e-05  -0.0577834 -0.281119 -3.06368e-05  -0.0734379 -0.287847 -8.57115e-05  -0.0658629 -0.288272 -7.56979e-05  -0.0588555 -0.296281 -5.78165e-05  -0.0664008 -0.295856 -6.98566e-05  -0.0593777 -0.303876 -5.40018e-05  -0.0663998 -0.295867 -3.85046e-05  -0.066925 -0.303456 -3.99351e-05  -0.0739734 -0.295435 -4.3273e-05  -0.0739775 -0.295424 -8.11815e-05  -0.0588534 -0.296295 -3.32594e-05  -0.0744987 -0.303006 -7.41482e-05  -0.0669222 -0.303442 -6.46114e-05  -0.0598829 -0.311463 -5.13792e-05  -0.0674348 -0.311026 -6.38962e-05  -0.0603836 -0.319055 -4.72069e-05  -0.0674365 -0.311036 -3.98159e-05  -0.0679364 -0.318621 -4.1604e-05  -0.0750098 -0.310595 -4.68493e-05  -0.0750098 -0.31058 -6.96182e-05  -0.0598834 -0.311475 -3.21865e-05  -0.0755062 -0.318166 -6.74725e-05  -0.0679343 -0.318613 -5.87702e-05  -0.0608723 -0.326637 -4.673e-05  -0.0684252 -0.326193 -5.29289e-05  -0.0613558 -0.334217 -4.43459e-05  -0.0684261 -0.326199 -3.8743e-05  -0.0689113 -0.333782 -4.33922e-05  -0.0759947 -0.325749 -4.54187e-05  -0.0759892 -0.32574 -5.98431e-05  -0.0608742 -0.326646 -3.61204e-05  -0.076472 -0.333314 -5.90086e-05  -0.0689063 -0.333768 -5.26905e-05  -0.0618346 -0.341786 -4.22001e-05  -0.0693817 -0.341338 -5.00679e-05  -0.0623071 -0.349352 -3.93391e-05  -0.069386 -0.341345 -4.23193e-05  -0.0698526 -0.348911 -4.3273e-05  -0.0769405 -0.340887 -5.03063e-05  -0.0769415 -0.340877 -5.94854e-05  -0.0618358 -0.341798 -3.88622e-05  -0.0774076 -0.348443 -5.6386e-05  -0.0698521 -0.348899 -5.07832e-05  -0.0627723 -0.356906 -3.99351e-05  -0.0703173 -0.356454 -4.69685e-05  -0.0632372 -0.364455 -3.68357e-05  -0.0703185 -0.356462 -4.36306e-05  -0.0707808 -0.364013 -4.39882e-05  -0.0778689 -0.356007 -5.00679e-05  -0.0778651 -0.355995 -5.48363e-05  -0.0627725 -0.356916 -3.77893e-05  -0.0783255 -0.363548 -5.19753e-05  -0.0707788 -0.364004 -4.78029e-05  -0.0636976 -0.371996 -3.74317e-05  -0.0712404 -0.371544 -4.48227e-05  -0.064157 -0.379535 -3.34978e-05  -0.071238 -0.371551 -4.55379e-05  -0.0716958 -0.379094 -4.43459e-05  -0.0787833 -0.371096 -5.3525e-05  -0.0787828 -0.371088 -5.20945e-05  -0.0636971 -0.372004 -4.01735e-05  -0.0792403 -0.37863 -4.93526e-05  -0.071698 -0.379085 -4.49419e-05  -0.000504736 -0.000661373 -0.000136614  -0.000649724 -0.000964999 -0.000165701  -0.00133143 -0.00182162 -0.000238061  -0.000642572 -0.0009747 -1.10865e-05  -0.00175076 -0.00241455 -1.41859e-05  0 0 0  0 0 0  -0.000507586 -0.000660583 -4.29153e-06  0 0 0  -0.00172423 -0.00238647 -0.000295281  -0.00235447 -0.00341086 -0.000336528  -0.00315483 -0.00411491 -0.000415325  -0.00353865 -0.00531079 -0.000406623  -0.0031635 -0.00413768 -1.33514e-05  -0.00469123 -0.00605802 -1.89543e-05  -0.00236011 -0.00344452 -1.28746e-05  -0.00468391 -0.00602135 -0.000503182  -0.00477806 -0.00743224 -0.000454783  -0.00625706 -0.00812976 -0.000562429  -0.00603873 -0.00981314 -0.000486732  -0.00625479 -0.00816952 -1.84774e-05  -0.0078246 -0.010514 -2.11e-05  -0.00477326 -0.00747414 -1.69277e-05  -0.00782961 -0.0104637 -0.00060153  -0.00728586 -0.0124281 -0.000497937  -0.00937065 -0.0130321 -0.000619769  -0.0085085 -0.0152924 -0.000501275  -0.00936428 -0.013084 -2.18153e-05  -0.0108742 -0.0159032 -2.3365e-05  -0.00727877 -0.0124777 -1.8239e-05  -0.0108774 -0.015846 -0.00062561  -0.00969982 -0.0183994 -0.000496387  -0.0123463 -0.0189072 -0.000618815  -0.0108606 -0.0217466 -0.000487328  -0.0123444 -0.018963 -2.08616e-05  -0.0137747 -0.0222704 -1.9908e-05  -0.00969827 -0.0184532 -1.63317e-05  -0.0137742 -0.0222122 -0.000607967  -0.0119909 -0.02533 -0.00047183  -0.0151649 -0.0257557 -0.000589967  -0.0130926 -0.0291437 -0.000457406  -0.0151653 -0.0258105 -1.84774e-05  -0.016519 -0.029589 -1.68085e-05  -0.0119916 -0.0253847 -1.52588e-05  -0.0165173 -0.0295301 -0.000570178  -0.0141661 -0.0331788 -0.000440717  -0.0178315 -0.0335314 -0.000548959  -0.0152157 -0.0374308 -0.000420451  -0.0178366 -0.0335848 -1.81198e-05  -0.0191156 -0.0378026 -1.54972e-05  -0.0141713 -0.0332329 -1.5378e-05  -0.0191099 -0.0377481 -0.000526428  -0.016242 -0.0418858 -0.000402927  -0.0203572 -0.0421706 -0.00050354  -0.0172464 -0.0465455 -0.000385523  -0.0203624 -0.0422226 -1.45435e-05  -0.0215787 -0.0468488 -1.43051e-05  -0.0162479 -0.0419396 -1.26362e-05  -0.0215724 -0.0467962 -0.000482559  -0.0182272 -0.0513936 -0.000367045  -0.0227581 -0.0516143 -0.000461221  -0.0191915 -0.0564267 -0.000352979  -0.0227643 -0.0516609 -1.52588e-05  -0.0239202 -0.0566652 -1.50204e-05  -0.0182341 -0.0514418 -1.23978e-05  -0.0239135 -0.0566154 -0.000441432  -0.0201323 -0.0616335 -0.00033462  -0.0250428 -0.0617938 -0.000422597  -0.0210595 -0.0670115 -0.000321627  -0.0250493 -0.0618396 -1.49012e-05  -0.0261506 -0.067186 -1.63317e-05  -0.0201397 -0.0616789 -1.23978e-05  -0.0261433 -0.0671419 -0.000403404  -0.0219668 -0.0725463 -0.000305057  -0.0272201 -0.0726489 -0.000384927  -0.0228597 -0.0782377 -0.000289917  -0.0272266 -0.0726926 -1.62125e-05  -0.0282768 -0.0783562 -1.33514e-05  -0.0219735 -0.0725899 -1.2517e-05  -0.0282706 -0.0783121 -0.000364423  -0.0237354 -0.0840737 -0.000277638  -0.0292989 -0.0841212 -0.000347972  -0.0245965 -0.0900502 -0.000264525  -0.0293057 -0.0841599 -1.40667e-05  -0.0303109 -0.0901112 -1.77622e-05  -0.023742 -0.0841136 -1.16825e-05  -0.0303026 -0.09007 -0.000331998  -0.0254412 -0.0961559 -0.00025022  -0.0312849 -0.0961482 -0.000314713  -0.0262727 -0.102388 -0.000235915  -0.0312902 -0.0961856 -1.49012e-05  -0.0322502 -0.102393 -1.44243e-05  -0.0254461 -0.0961931 -1.15633e-05  -0.032246 -0.102355 -0.000299811  -0.0270873 -0.108737 -0.000225902  -0.0331826 -0.108682 -0.000284433  -0.0278873 -0.115199 -0.000213623  -0.0331895 -0.108714 -1.65701e-05  -0.0341047 -0.115151 -1.71661e-05  -0.0270927 -0.108771 -1.34706e-05  -0.0340954 -0.115118 -0.000270605  -0.0286702 -0.121765 -0.000198841  -0.0349953 -0.121663 -0.000256062  -0.0294439 -0.128431 -0.000188947  -0.0350003 -0.121692 -1.75238e-05  -0.0358758 -0.128336 -1.46627e-05  -0.0286785 -0.121795 -1.15633e-05  -0.0358711 -0.128306 -0.000242233  -0.0302038 -0.135187 -0.000180721  -0.0367272 -0.13504 -0.000228167  -0.0309503 -0.142035 -0.000169396  -0.0367337 -0.13507 -1.54972e-05  -0.0375699 -0.141895 -1.56164e-05  -0.0302095 -0.135218 -1.19209e-05  -0.0375636 -0.141866 -0.000216603  -0.0316806 -0.148959 -0.000159264  -0.0383816 -0.14877 -0.000203609  -0.0324001 -0.155959 -0.000151753  -0.0383883 -0.148795 -1.89543e-05  -0.0391862 -0.155779 -1.84774e-05  -0.031687 -0.148984 -1.20401e-05  -0.0391808 -0.155753 -0.000192523  -0.0331049 -0.163028 -0.000142813  -0.0399606 -0.162804 -0.000178456  -0.0337992 -0.170166 -0.000134468  -0.0399654 -0.162824 -1.70469e-05  -0.04073 -0.169947 -1.78814e-05  -0.0331111 -0.163052 -1.29938e-05  -0.0407231 -0.169922 -0.000169635  -0.0344765 -0.177364 -0.000123024  -0.0414701 -0.177102 -0.000159502  -0.0351501 -0.184612 -0.000118375  -0.0414748 -0.177122 -1.87159e-05  -0.0422003 -0.184358 -1.8239e-05  -0.0344825 -0.177384 -1.28746e-05  -0.042196 -0.184335 -0.000149131  -0.0358016 -0.191908 -0.00010848  -0.0429077 -0.19162 -0.00013721  -0.0364456 -0.199258 -0.000101089  -0.0429108 -0.191639 -1.72853e-05  -0.0436075 -0.198971 -1.95503e-05  -0.0358071 -0.191931 -1.57356e-05  -0.0436025 -0.198953 -0.000131369  -0.0370758 -0.206643 -9.44138e-05  -0.0442812 -0.206323 -0.000120997  -0.0376966 -0.214069 -8.67844e-05  -0.0442858 -0.206341 -1.78814e-05  -0.0449464 -0.213754 -2.21729e-05  -0.037082 -0.206662 -1.58548e-05  -0.0449443 -0.213735 -0.00011158  -0.038305 -0.221526 -8.30889e-05  -0.0455914 -0.22118 -0.000105858  -0.0389032 -0.229013 -7.61747e-05  -0.0455935 -0.221194 -2.11e-05  -0.0462248 -0.228671 -2.16961e-05  -0.0383089 -0.221539 -1.46627e-05  -0.0462246 -0.228656 -9.87053e-05  -0.03949 -0.236521 -7.09295e-05  -0.0468426 -0.236156 -9.09567e-05  -0.0400679 -0.244055 -6.6638e-05  -0.0468438 -0.236167 -2.26498e-05  -0.0474505 -0.243694 -2.16961e-05  -0.0394931 -0.236534 -1.85966e-05  -0.0474451 -0.243678 -8.46386e-05  -0.040632 -0.251606 -5.94854e-05  -0.048038 -0.251221 -7.71284e-05  -0.0411901 -0.259173 -5.53131e-05  -0.0480421 -0.251233 -2.40803e-05  -0.0486171 -0.258795 -2.36034e-05  -0.0406358 -0.251619 -1.85966e-05  -0.0486164 -0.258779 -7.33137e-05  -0.0417349 -0.266749 -4.92334e-05  -0.0491829 -0.266349 -6.54459e-05  -0.0422745 -0.274339 -4.54187e-05  -0.049185 -0.266361 -2.40803e-05  -0.0497372 -0.273945 -2.43187e-05  -0.0417392 -0.266763 -1.78814e-05  -0.049736 -0.27393 -5.84126e-05  -0.0428035 -0.281934 -4.27961e-05  -0.0502796 -0.28152 -5.73397e-05  -0.043324 -0.289535 -3.99351e-05  -0.0502815 -0.28153 -2.59876e-05  -0.0508149 -0.289126 -2.69413e-05  -0.042805 -0.281946 -2.0504e-05  -0.0508115 -0.289115 -5.32866e-05  -0.0438342 -0.297134 -3.6478e-05  -0.0513346 -0.296709 -4.82798e-05  -0.0443423 -0.304736 -3.51667e-05  -0.0513365 -0.296719 -2.57492e-05  -0.0518522 -0.304319 -2.76566e-05  -0.0438368 -0.297142 -2.28882e-05  -0.051847 -0.304306 -4.56572e-05  -0.0448384 -0.312334 -3.23057e-05  -0.0523527 -0.311901 -4.23193e-05  -0.0453312 -0.319931 -3.21865e-05  -0.0523546 -0.311909 -2.69413e-05  -0.0528512 -0.319504 -2.64645e-05  -0.0448406 -0.312344 -2.14577e-05  -0.0528493 -0.319492 -3.94583e-05  -0.0458179 -0.327521 -3.19481e-05  -0.0533383 -0.32708 -3.94583e-05  -0.0462995 -0.335108 -3.016e-05  -0.0533407 -0.327089 -3.06368e-05  -0.0538235 -0.334673 -2.99215e-05  -0.0458205 -0.327531 -2.40803e-05  -0.0538208 -0.334662 -3.6478e-05  -0.0467737 -0.34268 -2.95639e-05  -0.0542979 -0.342233 -3.45707e-05  -0.0472434 -0.350248 -2.69413e-05  -0.0543008 -0.342243 -2.86102e-05  -0.0547724 -0.349812 -2.90871e-05  -0.0467749 -0.342689 -2.5034e-05  -0.0547693 -0.349799 -3.38554e-05  -0.0477073 -0.357805 -2.6226e-05  -0.0552399 -0.357357 -3.29018e-05  -0.0481722 -0.365357 -2.44379e-05  -0.0552402 -0.357366 -3.08752e-05  -0.055701 -0.364917 -3.09944e-05  -0.0477104 -0.357815 -2.55108e-05  -0.0557013 -0.364904 -3.27826e-05  -0.0486319 -0.37289 -2.46763e-05  -0.0561614 -0.372444 -3.06368e-05  -0.0490928 -0.380423 -2.11e-05  -0.056164 -0.372452 -3.08752e-05  -0.0566261 -0.37999 -3.06368e-05  -0.0486348 -0.372901 -2.69413e-05  -0.0566242 -0.379982 -2.93255e-05  -0.000230536 -0.000330955 -6.81877e-05  -0.000352886 -0.000453979 -0.000101924  -0.000598237 -0.00123233 -0.00012207  -0.000350796 -0.0004628 -5.96046e-06  -0.000924304 -0.00147164 -7.86781e-06  0 0 0  0 0 0  -0.000232078 -0.000333756 -2.6226e-06  0 0 0  -0.000911415 -0.00145516 -0.000181794  -0.00105847 -0.00264248 -0.000171661  -0.00165856 -0.0029507 -0.000254512  -0.00161751 -0.00444368 -0.000204444  -0.00165729 -0.00297379 -7.15256e-06  -0.00251684 -0.0048188 -1.0252e-05  -0.00106184 -0.00266588 -5.24521e-06  -0.00250877 -0.00478554 -0.000306726  -0.00221255 -0.00656927 -0.00023067  -0.00343853 -0.00691861 -0.000342965  -0.00283641 -0.0089862 -0.000246167  -0.00343412 -0.00695238 -8.46386e-06  -0.00437811 -0.00936335 -1.3113e-05  -0.00221202 -0.00660479 -7.62939e-06  -0.00437969 -0.00931799 -0.000368118  -0.00346521 -0.0116644 -0.000251889  -0.0053246 -0.0119729 -0.000377059  -0.00409159 -0.0145967 -0.000253558  -0.0053198 -0.012018 -1.14441e-05  -0.00624955 -0.014926 -1.09673e-05  -0.00346297 -0.0117096 -9.05991e-06  -0.00625122 -0.0148742 -0.000378251  -0.00470948 -0.0177735 -0.000252366  -0.00716114 -0.0180218 -0.000375032  -0.00531918 -0.021188 -0.000244617  -0.00715888 -0.0180717 -1.0848e-05  -0.00804901 -0.0214601 -1.20401e-05  -0.0047102 -0.0178236 -8.22544e-06  -0.0080474 -0.0214056 -0.000366569  -0.0059191 -0.0248318 -0.000239134  -0.00891584 -0.0250228 -0.000356317  -0.00651228 -0.0287049 -0.000229478  -0.00891936 -0.025077 -1.07288e-05  -0.0097692 -0.0289256 -1.03712e-05  -0.00592101 -0.0248861 -7.98702e-06  -0.00976449 -0.0288679 -0.000344276  -0.0070979 -0.032794 -0.000219107  -0.010597 -0.0329328 -0.000329137  -0.00768065 -0.0370986 -0.000207663  -0.0106009 -0.0329857 -7.98702e-06  -0.0114183 -0.0372689 -7.7486e-06  -0.0071035 -0.0328465 -5.126e-06  -0.0114127 -0.037213 -0.000314355  -0.00825882 -0.0416072 -0.000198603  -0.0122157 -0.0416992 -0.000302672  -0.00883514 -0.0463146 -0.00019002  -0.0122214 -0.0417503 -8.58307e-06  -0.0130121 -0.0464357 -6.31809e-06  -0.00826347 -0.0416581 -4.41074e-06  -0.0130064 -0.0463842 -0.000287771  -0.00940895 -0.0512098 -0.000182152  -0.0137836 -0.0512584 -0.00027585  -0.00997913 -0.0562911 -0.000173926  -0.013791 -0.0513072 -7.15256e-06  -0.0145588 -0.0563659 -8.22544e-06  -0.00941312 -0.0512586 -5.126e-06  -0.0145516 -0.0563163 -0.000262856  -0.0105478 -0.0615453 -0.00016439  -0.01531 -0.0615523 -0.000250101  -0.0111172 -0.0669705 -0.000156045  -0.0153168 -0.0615954 -7.03335e-06  -0.0160646 -0.0669986 -6.79493e-06  -0.0105537 -0.0615915 -5.126e-06  -0.0160588 -0.0669536 -0.000239134  -0.0116861 -0.0725525 -0.000149369  -0.0167979 -0.072516 -0.000227332  -0.012254 -0.0782895 -0.000139952  -0.0168046 -0.0725563 -7.39098e-06  -0.0175328 -0.0782725 -5.60284e-06  -0.0116897 -0.0725958 -3.09944e-06  -0.0175272 -0.0782297 -0.000215173  -0.0128192 -0.0841679 -0.000132322  -0.0182482 -0.0840894 -0.000205636  -0.0133851 -0.0901877 -0.000125289  -0.018255 -0.0841275 -6.79493e-06  -0.0189687 -0.090128 -7.7486e-06  -0.0128237 -0.0842082 -2.26498e-06  -0.0189615 -0.0900882 -0.000196815  -0.0139489 -0.0963362 -0.000118732  -0.0196686 -0.0962179 -0.000186086  -0.0145146 -0.102612 -0.00011313  -0.0196741 -0.0962544 -7.03335e-06  -0.0203726 -0.10251 -7.03335e-06  -0.0139543 -0.0963738 -3.21865e-06  -0.020366 -0.102473 -0.000175834  -0.0150776 -0.108998 -0.000105619  -0.0210568 -0.108844 -0.000166893  -0.0156418 -0.115501 -9.98974e-05  -0.0210626 -0.108876 -5.96046e-06  -0.0217448 -0.115361 -7.7486e-06  -0.0150828 -0.109033 -3.09944e-06  -0.0217377 -0.115326 -0.000157118  -0.0162019 -0.122104 -9.53674e-05  -0.0224124 -0.121912 -0.000147462  -0.0167624 -0.128806 -9.01222e-05  -0.0224192 -0.121941 -6.55651e-06  -0.023085 -0.128628 -5.36442e-06  -0.016207 -0.122135 -1.07288e-06  -0.0230796 -0.128598 -0.000140309  -0.017321 -0.135598 -8.38041e-05  -0.0237416 -0.135375 -0.000133038  -0.0178787 -0.142478 -7.7486e-05  -0.0237452 -0.135403 -5.84126e-06  -0.0243961 -0.142265 -5.24521e-06  -0.017326 -0.135627 -2.98023e-06  -0.0243913 -0.142237 -0.000124097  -0.0184331 -0.149436 -7.27177e-05  -0.0250368 -0.149179 -0.000117302  -0.0189869 -0.156469 -7.04527e-05  -0.0250421 -0.149204 -8.82149e-06  -0.0256782 -0.156225 -7.62939e-06  -0.0184362 -0.149461 -2.86102e-06  -0.0256722 -0.156197 -0.000108957  -0.0195351 -0.163567 -6.47306e-05  -0.0263023 -0.163283 -0.000102878  -0.0200839 -0.170736 -6.16312e-05  -0.0263064 -0.163308 -6.91414e-06  -0.0269287 -0.170462 -9.89437e-06  -0.0195398 -0.163593 -2.38419e-06  -0.0269225 -0.170435 -9.81092e-05  -0.0206299 -0.177955 -5.56707e-05  -0.0275366 -0.177648 -9.11951e-05  -0.0211742 -0.185235 -5.126e-05  -0.0275416 -0.177668 -8.9407e-06  -0.028147 -0.184934 -8.10623e-06  -0.0206308 -0.177977 -2.98023e-06  -0.0281415 -0.184911 -8.30889e-05  -0.0217128 -0.192557 -5.14984e-05  -0.0287397 -0.192224 -7.92742e-05  -0.0222478 -0.199926 -4.55379e-05  -0.0287457 -0.192242 -1.07288e-05  -0.0293338 -0.199601 -8.70228e-06  -0.0217149 -0.192576 -4.29153e-06  -0.0293307 -0.199583 -7.55787e-05  -0.0227809 -0.207333 -4.31538e-05  -0.0299153 -0.206979 -6.80685e-05  -0.0233109 -0.21478 -3.93391e-05  -0.0299177 -0.206999 -1.07288e-05  -0.0304935 -0.214434 -1.0252e-05  -0.0227845 -0.207354 -6.79493e-06  -0.0304894 -0.214417 -6.4373e-05  -0.0238366 -0.222255 -3.5882e-05  -0.0310585 -0.221882 -5.93662e-05  -0.0243604 -0.229759 -3.17097e-05  -0.0310605 -0.221896 -9.77516e-06  -0.0316229 -0.229395 -1.18017e-05  -0.0238395 -0.222272 -5.00679e-06  -0.0316179 -0.229378 -5.38826e-05  -0.0248773 -0.237285 -2.93255e-05  -0.0321727 -0.236898 -5.22137e-05  -0.025394 -0.244837 -2.94447e-05  -0.032176 -0.236912 -1.14441e-05  -0.032721 -0.244455 -1.12057e-05  -0.0248797 -0.237301 -5.48363e-06  -0.0327179 -0.244441 -4.68493e-05  -0.0259061 -0.252401 -2.72989e-05  -0.0332599 -0.251999 -4.41074e-05  -0.0264127 -0.259982 -2.31266e-05  -0.0332594 -0.252012 -1.13249e-05  -0.0337927 -0.259589 -1.09673e-05  -0.0259078 -0.252415 -7.03335e-06  -0.0337906 -0.259576 -3.99351e-05  -0.0269165 -0.267573 -2.00272e-05  -0.0343146 -0.267156 -3.68357e-05  -0.0274169 -0.27517 -1.84774e-05  -0.0343184 -0.267169 -1.15633e-05  -0.0348384 -0.274766 -1.14441e-05  -0.0269189 -0.267585 -5.96046e-06  -0.0348327 -0.274752 -3.23057e-05  -0.0279126 -0.282777 -1.85966e-05  -0.0353515 -0.282354 -3.38554e-05  -0.0284057 -0.290385 -1.91927e-05  -0.0353501 -0.282364 -1.20401e-05  -0.035857 -0.289969 -1.40667e-05  -0.0279129 -0.282788 -8.9407e-06  -0.035857 -0.289959 -3.3021e-05  -0.028893 -0.297994 -1.72853e-05  -0.0363574 -0.297563 -2.68221e-05  -0.0293765 -0.305605 -1.69277e-05  -0.0363598 -0.29757 -1.49012e-05  -0.0368547 -0.30518 -1.5974e-05  -0.0288906 -0.298003 -1.14441e-05  -0.0368519 -0.305168 -2.76566e-05  -0.029856 -0.313207 -1.62125e-05  -0.0373435 -0.312772 -2.37226e-05  -0.0303349 -0.320811 -1.33514e-05  -0.0373461 -0.312781 -1.72853e-05  -0.0378289 -0.32038 -1.5974e-05  -0.0298567 -0.313216 -1.04904e-05  -0.0378299 -0.320372 -2.41995e-05  -0.0308082 -0.328403 -1.39475e-05  -0.0383074 -0.327961 -2.18153e-05  -0.0312798 -0.335994 -1.29938e-05  -0.0383105 -0.327971 -1.80006e-05  -0.0387855 -0.335559 -1.75238e-05  -0.0308089 -0.328415 -1.06096e-05  -0.0387838 -0.335551 -2.26498e-05  -0.0317469 -0.343574 -1.43051e-05  -0.0392563 -0.343127 -1.97887e-05  -0.0322134 -0.351145 -1.22786e-05  -0.0392592 -0.343134 -1.68085e-05  -0.0397272 -0.350707 -1.81198e-05  -0.0317476 -0.343582 -1.10865e-05  -0.0397246 -0.350697 -2.03848e-05  -0.0326746 -0.358702 -1.37091e-05  -0.04019 -0.358254 -1.88351e-05  -0.0331371 -0.366253 -1.26362e-05  -0.0401909 -0.358264 -1.89543e-05  -0.0406537 -0.365815 -2.08616e-05  -0.0326762 -0.358712 -1.33514e-05  -0.0406501 -0.365803 -1.69277e-05  -0.0335934 -0.373786 -1.15633e-05  -0.04111 -0.373339 -1.64509e-05  -0.0340497 -0.381306 -1.27554e-05  -0.0411129 -0.373347 -1.90735e-05  -0.041569 -0.380879 -1.81198e-05  -0.0335941 -0.373796 -1.5378e-05  -0.0415683 -0.380863 -1.66893e-05  1.03265e-05 -0.000248432 5.96046e-07  -0.000105634 -0.000264823 -3.43323e-05  2.17408e-05 -0.00109631 3.21865e-06  -0.000105124 -0.000273168 -3.09944e-06  -0.000273578 -0.00112936 -2.74181e-06  0 0 0  0 0 0  8.02428e-06 -0.000256449 1.43051e-06  0 0 0  -0.000264265 -0.00111437 -5.88894e-05  5.12451e-05 -0.00246194 -9.53674e-07  -0.000487074 -0.00249147 -8.4877e-05  6.86944e-05 -0.00422999 7.15256e-07  -0.000486776 -0.00251153 -7.15256e-07  -0.000752345 -0.00428921 -3.8147e-06  4.70579e-05 -0.00248232 -7.15256e-07  -0.000740245 -0.00426012 -0.000101566  8.89301e-05 -0.0063633 -1.07288e-06  -0.00103948 -0.0063909 -0.000114202  9.36985e-05 -0.00879714 2.38419e-07  -0.00104046 -0.00642332 -7.15256e-07  -0.00134969 -0.00885412 -3.8147e-06  8.32677e-05 -0.00639597 2.38419e-07  -0.00134456 -0.00881371 -0.000123978  9.14931e-05 -0.0115067 -3.45707e-06  -0.00166622 -0.0115108 -0.000127792  7.30157e-05 -0.014472 -1.43051e-06  -0.00166667 -0.0115541 -2.38419e-06  -0.00199091 -0.0145122 -2.38419e-06  8.67844e-05 -0.0115486 2.38419e-07  -0.00198862 -0.0144632 -0.000127792  4.23193e-05 -0.0176815 -2.38419e-07  -0.00231606 -0.0176601 -0.000125766  -4.58956e-06 -0.0211329 -3.57628e-07  -0.00231713 -0.0177085 -3.33786e-06  -0.00264704 -0.0211485 -1.07288e-06  3.88622e-05 -0.0177314 4.76837e-07  -0.0026449 -0.0210973 -0.000122786  -6.4671e-05 -0.0248095 1.19209e-07  -0.00297707 -0.0247622 -0.000118256  -0.000142932 -0.0287181 2.26498e-06  -0.00297934 -0.0248131 -3.09944e-06  -0.00331408 -0.0287084 -2.38419e-07  -6.84261e-05 -0.0248621 1.3113e-06  -0.00331205 -0.0286538 -0.000114679  -0.000235081 -0.0328382 2.14577e-06  -0.00365436 -0.032763 -0.000108957  -0.000345945 -0.037176 2.86102e-06  -0.00365686 -0.0328149 -1.07288e-06  -0.00400352 -0.0371397 -2.38419e-07  -0.000238895 -0.0328915 2.6226e-06  -0.00399917 -0.0370855 -0.000102162  -0.000472486 -0.0417144 3.69549e-06  -0.00435168 -0.0416116 -9.799e-05  -0.000616014 -0.046456 4.76837e-06  -0.00435621 -0.0416621 2.38419e-07  -0.00471562 -0.0463884 4.76837e-07  -0.00047636 -0.0417665 4.76837e-06  -0.00471169 -0.0463387 -9.33409e-05  -0.00077498 -0.0513831 5.126e-06  -0.00507855 -0.0512507 -8.92878e-05  -0.000950575 -0.0564977 6.55651e-06  -0.00508559 -0.0513 4.76837e-07  -0.00545764 -0.0563986 1.66893e-06  -0.000779033 -0.0514325 3.57628e-06  -0.00545192 -0.0563524 -8.53539e-05  -0.00114322 -0.0617813 6.91414e-06  -0.00583327 -0.0616243 -7.89165e-05  -0.00135028 -0.0672382 9.17912e-06  -0.00583839 -0.0616672 7.15256e-07  -0.00622535 -0.0671119 1.43051e-06  -0.00114608 -0.0618276 4.29153e-06  -0.00622034 -0.0670638 -7.49826e-05  -0.00157368 -0.0728515 8.70228e-06  -0.00661588 -0.0726659 -6.99759e-05  -0.00181305 -0.0786196 8.70228e-06  -0.00662065 -0.0727069 1.78814e-06  -0.007025 -0.0784619 2.74181e-06  -0.0015769 -0.0728952 6.07967e-06  -0.00702 -0.0784188 -6.67572e-05  -0.00206637 -0.0845295 1.06096e-05  -0.00743103 -0.0843161 -6.16312e-05  -0.0023315 -0.0905785 1.32322e-05  -0.00743568 -0.0843542 1.78814e-06  -0.00785148 -0.0903909 3.69549e-06  -0.002069 -0.0845697 5.60284e-06  -0.00785017 -0.0903516 -5.74589e-05  -0.00261295 -0.0967547 1.15633e-05  -0.00827289 -0.0965154 -5.26905e-05  -0.00291038 -0.10306 1.15633e-05  -0.00827634 -0.0965527 1.54972e-06  -0.00870562 -0.102843 2.38419e-06  -0.00261927 -0.0967923 7.03335e-06  -0.0087024 -0.102806 -5.03063e-05  -0.00321794 -0.109476 1.16825e-05  -0.00913799 -0.109211 -4.8399e-05  -0.00353992 -0.116006 1.22786e-05  -0.00914407 -0.109243 1.54972e-06  -0.00958312 -0.11576 3.69549e-06  -0.00322199 -0.109509 5.72205e-06  -0.00957787 -0.115728 -4.60148e-05  -0.00387013 -0.122634 1.2517e-05  -0.0100272 -0.122346 -4.12464e-05  -0.00421476 -0.129363 1.23978e-05  -0.0100306 -0.122376 5.24521e-06  -0.0104825 -0.129092 3.45707e-06  -0.00387406 -0.122667 7.27177e-06  -0.01048 -0.129062 -3.93391e-05  -0.00456941 -0.136178 1.2517e-05  -0.0109359 -0.135869 -3.55244e-05  -0.00493348 -0.143082 1.26362e-05  -0.0109389 -0.135894 4.29153e-06  -0.0113987 -0.142789 3.09944e-06  -0.00457036 -0.136208 7.27177e-06  -0.0113969 -0.14276 -3.26633e-05  -0.00530314 -0.150062 1.16825e-05  -0.0118608 -0.14973 -3.016e-05  -0.00568748 -0.157119 1.07288e-05  -0.0118635 -0.149754 1.90735e-06  -0.0123281 -0.156802 2.38419e-06  -0.0053072 -0.150089 4.17233e-06  -0.0123284 -0.156774 -2.95639e-05  -0.00607729 -0.16424 1.26362e-05  -0.0128005 -0.163888 -2.81334e-05  -0.00647712 -0.171425 1.21593e-05  -0.0128016 -0.16391 3.09944e-06  -0.0132773 -0.171087 2.5034e-06  -0.00607991 -0.164262 5.24521e-06  -0.013274 -0.171064 -2.58684e-05  -0.00688481 -0.178664 1.00136e-05  -0.0137506 -0.178295 -2.2769e-05  -0.00729799 -0.185961 1.06096e-05  -0.0137534 -0.178314 2.98023e-06  -0.0142317 -0.185605 -8.34465e-07  -0.00688696 -0.178685 5.84126e-06  -0.0142288 -0.185582 -2.13385e-05  -0.00771666 -0.193299 1.13249e-05  -0.014708 -0.192915 -1.80006e-05  -0.00814271 -0.200687 1.07288e-05  -0.0147109 -0.192934 3.57628e-07  -0.0151923 -0.200316 1.19209e-06  -0.00771689 -0.193319 5.36442e-06  -0.0151911 -0.200295 -1.75238e-05  -0.00857306 -0.208109 9.77516e-06  -0.0156715 -0.20771 -1.75238e-05  -0.00900817 -0.215567 1.23978e-05  -0.0156741 -0.20773 1.19209e-06  -0.0161567 -0.215183 3.57628e-07  -0.00857091 -0.208127 4.41074e-06  -0.0161562 -0.215165 -1.45435e-05  -0.0094521 -0.223055 9.53674e-06  -0.0166388 -0.222647 -1.35899e-05  -0.00989342 -0.230572 9.89437e-06  -0.0166385 -0.222663 -1.07288e-06  -0.017122 -0.230173 -4.76837e-07  -0.00944877 -0.223072 5.96046e-06  -0.0171189 -0.230156 -1.19209e-05  -0.0103369 -0.23811 1.03712e-05  -0.0176024 -0.237692 -1.07288e-05  -0.0107875 -0.24567 7.7486e-06  -0.0176034 -0.237703 1.07288e-06  -0.0180864 -0.24526 -2.38419e-07  -0.0103383 -0.238124 5.00679e-06  -0.0180848 -0.245247 -1.04904e-05  -0.0112417 -0.253241 7.27177e-06  -0.0185678 -0.252816 -9.65595e-06  -0.011694 -0.260832 9.89437e-06  -0.0185695 -0.252828 4.76837e-07  -0.0190527 -0.260418 -1.43051e-06  -0.0112386 -0.253255 5.84126e-06  -0.0190492 -0.260401 -7.51019e-06  -0.0121524 -0.26843 8.46386e-06  -0.019532 -0.267997 -7.7486e-06  -0.0126088 -0.276037 9.05991e-06  -0.0195322 -0.268009 -1.3113e-06  -0.020009 -0.275613 1.07288e-06  -0.012151 -0.268442 3.93391e-06  -0.0200083 -0.275601 -5.96046e-06  -0.0130677 -0.283646 7.7486e-06  -0.0204883 -0.283207 -6.79493e-06  -0.013526 -0.291263 6.19888e-06  -0.0204859 -0.283219 -2.26498e-06  -0.020961 -0.290835 -4.76837e-06  -0.0130656 -0.28366 4.05312e-06  -0.0209644 -0.29082 -7.7486e-06  -0.0139859 -0.298875 7.03335e-06  -0.0214381 -0.298432 -6.79493e-06  -0.0144455 -0.306489 6.79493e-06  -0.0214367 -0.298443 -2.02656e-06  -0.0219076 -0.306058 -5.126e-06  -0.0139849 -0.298887 5.96046e-07  -0.0219088 -0.306045 -7.7486e-06  -0.0149055 -0.314097 3.8147e-06  -0.0223806 -0.313649 -7.27177e-06  -0.0153682 -0.321704 2.98023e-06  -0.0223808 -0.31366 -3.45707e-06  -0.0228488 -0.321267 -2.02656e-06  -0.0149074 -0.314109 1.90735e-06  -0.0228493 -0.321255 -4.64916e-06  -0.015826 -0.329301 2.38419e-06  -0.0233161 -0.328851 -4.17233e-06  -0.016289 -0.336894 3.8147e-06  -0.0233195 -0.32886 -5.96046e-06  -0.0237837 -0.336454 -3.8147e-06  -0.01583 -0.329309 2.38419e-07  -0.0237842 -0.336444 -6.67572e-06  -0.0167465 -0.344473 4.76837e-07  -0.0242469 -0.344024 -7.7486e-06  -0.0172086 -0.352045 1.07288e-06  -0.0242465 -0.344031 -6.07967e-06  -0.0247104 -0.351606 -6.91414e-06  -0.0167484 -0.344483 -7.15256e-07  -0.0247095 -0.351596 -7.15256e-06  -0.0176628 -0.359604 -8.34465e-07  -0.0251715 -0.359154 -7.51019e-06  -0.0181201 -0.367157 -2.26498e-06  -0.0251698 -0.359162 -6.19888e-06  -0.0256279 -0.366715 -8.22544e-06  -0.0176616 -0.359615 -1.66893e-06  -0.0256274 -0.366705 -8.10623e-06  -0.0185745 -0.374687 -2.14577e-06  -0.0260854 -0.374235 -9.05991e-06  -0.0190294 -0.382212 -5.00679e-06  -0.0260825 -0.374243 -6.79493e-06  -0.02654 -0.381769 -7.03335e-06  -0.0185754 -0.374697 -4.76837e-07  -0.0265388 -0.381756 -7.15256e-06  0.000249535 -0.000367463 6.86646e-05  0.000130534 -0.000284672 3.42131e-05  0.000634655 -0.00132614 0.000125527  0.000129737 -0.000293016 3.33786e-06  0.000330582 -0.001176 2.86102e-06  0 0 0  0 0 0  0.000245675 -0.000377238 5.72205e-06  0 0 0  0.000342444 -0.00116253 6.4373e-05  0.00115649 -0.00278211 0.000171065  0.000601724 -0.00256002 8.57115e-05  0.00174552 -0.00460482 0.000209689  0.000599682 -0.00258112 3.8147e-06  0.000899434 -0.00437206 3.8147e-06  0.00115031 -0.00280404 7.39098e-06  0.000912338 -0.00434512 0.0001055  0.00237876 -0.00677878 0.000228286  0.00122631 -0.0064944 0.000115275  0.00301301 -0.00922364 0.000244141  0.00122166 -0.0065276 4.88758e-06  0.00153726 -0.00897336 4.64916e-06  0.00236902 -0.00680858 9.53674e-06  0.00154689 -0.00893342 0.000123262  0.00362968 -0.0119452 0.000247359  0.00184965 -0.0116529 0.000125408  0.00421798 -0.0149173 0.000250459  0.00184253 -0.0116944 5.72205e-06  0.00212872 -0.0146718 6.91414e-06  0.00362185 -0.0119882 9.05991e-06  0.00213587 -0.0146236 0.000124693  0.00477481 -0.0181307 0.00024879  0.00239623 -0.0178411 0.000125647  0.00528657 -0.0215867 0.00024271  0.0023908 -0.0178893 7.39098e-06  0.00262898 -0.0213481 6.4373e-06  0.00476557 -0.018181 1.13249e-05  0.00263304 -0.0212968 0.000120521  0.00576502 -0.0252708 0.000237823  0.0028401 -0.0249822 0.00011766  0.00620037 -0.029187 0.000229597  0.00283664 -0.0250314 5.96046e-06  0.00301743 -0.0289491 7.62939e-06  0.00576055 -0.0253241 1.14441e-05  0.00302267 -0.028895 0.000115752  0.00659847 -0.0333183 0.000221968  0.00317335 -0.0330266 0.000111699  0.00695974 -0.037668 0.000216007  0.00317031 -0.0330774 8.58307e-06  0.00329685 -0.0374234 9.17912e-06  0.00659639 -0.0333717 1.0848e-05  0.00330085 -0.0373705 0.000109673  0.00728518 -0.0422207 0.000207424  0.00339913 -0.0419185 0.000105262  0.00757253 -0.0469767 0.000201464  0.00339693 -0.0419688 9.53674e-06  0.00346959 -0.0467195 8.9407e-06  0.00728184 -0.042271 1.28746e-05  0.00347352 -0.0466688 0.000102282  0.00782692 -0.0519177 0.000192404  0.00351918 -0.0516071 0.000100136  0.00804603 -0.0570482 0.000185609  0.0035162 -0.0516537 9.65595e-06  0.00353765 -0.0567788 1.01328e-05  0.00782585 -0.0519687 1.27554e-05  0.00354266 -0.0567289 9.64403e-05  0.00823116 -0.0623516 0.000177622  0.00353897 -0.0620252 9.31025e-05  0.00838566 -0.067825 0.000172257  0.0035342 -0.0620701 9.17912e-06  0.00350833 -0.0675383 1.07288e-05  0.0082289 -0.0623971 1.3113e-05  0.00351226 -0.067492 9.16719e-05  0.0085063 -0.0734546 0.000165939  0.0034616 -0.0731156 8.66652e-05  0.00859666 -0.0792392 0.000159144  0.00345767 -0.0731567 8.82149e-06  0.00338519 -0.0789358 9.53674e-06  0.00850475 -0.0734968 1.50204e-05  0.00338793 -0.0788935 8.30889e-05  0.00865793 -0.0851672 0.00015223  0.00329089 -0.0848148 8.01086e-05  0.00868785 -0.0912337 0.000147223  0.00328708 -0.0848526 9.53674e-06  0.00316942 -0.0909139 1.13249e-05  0.00865591 -0.0852079 1.32322e-05  0.0031724 -0.0908733 7.86781e-05  0.00869131 -0.097428 0.000141978  0.00303221 -0.0970596 7.51019e-05  0.00866747 -0.103748 0.000134587  0.0030297 -0.0970958 1.06096e-05  0.00287116 -0.103409 1.18017e-05  0.00869071 -0.0974646 1.62125e-05  0.00287509 -0.103372 7.22408e-05  0.00861645 -0.110177 0.000128746  0.00269544 -0.109801 6.8903e-05  0.0085386 -0.116724 0.000123024  0.00269175 -0.109831 1.16825e-05  0.00249243 -0.11637 1.14441e-05  0.00861275 -0.110213 1.45435e-05  0.00249648 -0.116336 6.69956e-05  0.00843656 -0.123369 0.00011909  0.00227821 -0.122977 6.55651e-05  0.00830936 -0.13011 0.000113249  0.0022738 -0.123006 1.15633e-05  0.00204086 -0.129745 1.27554e-05  0.00843668 -0.1234 1.50204e-05  0.0020442 -0.129713 6.13928e-05  0.00816226 -0.136942 0.000107169  0.00179207 -0.136538 5.9247e-05  0.00799084 -0.14386 0.000103354  0.00179064 -0.136567 1.20401e-05  0.00152469 -0.14348 1.18017e-05  0.00815892 -0.136972 1.62125e-05  0.00152493 -0.143448 5.75781e-05  0.00780058 -0.150852 9.70364e-05  0.00124359 -0.150436 5.61476e-05  0.00758886 -0.157919 9.47714e-05  0.00124073 -0.150463 1.19209e-05  0.000945568 -0.157526 1.12057e-05  0.00779986 -0.150877 1.60933e-05  0.000946522 -0.157499 5.19753e-05  0.00735974 -0.165051 8.91685e-05  0.000634193 -0.164627 4.8399e-05  0.00710988 -0.172248 8.46386e-05  0.000633001 -0.164649 1.15633e-05  0.000309467 -0.171843 1.3113e-05  0.0073576 -0.165075 1.70469e-05  0.000311613 -0.171819 4.66108e-05  0.00684237 -0.179497 7.84397e-05  -2.43187e-05 -0.179064 4.70877e-05  0.0065608 -0.186801 7.7486e-05  -2.59876e-05 -0.179086 1.13249e-05  -0.000376701 -0.186388 1.07288e-05  0.00684333 -0.17952 1.60933e-05  -0.000370264 -0.186365 4.33922e-05  0.00626397 -0.194149 7.236e-05  -0.000729799 -0.193711 4.17233e-05  0.0059495 -0.201546 6.59227e-05  -0.000734329 -0.193731 1.04904e-05  -0.00110221 -0.201125 9.89437e-06  0.00626183 -0.194171 1.66893e-05  -0.00109816 -0.201104 3.73125e-05  0.00562572 -0.208973 6.38962e-05  -0.00147843 -0.208529 3.79086e-05  0.00528479 -0.21644 6.04391e-05  -0.00147963 -0.208547 1.28746e-05  -0.00186682 -0.216012 1.10865e-05  0.00562572 -0.208993 1.65701e-05  -0.00186634 -0.215991 3.52859e-05  0.00493026 -0.223932 5.49555e-05  -0.00226355 -0.223486 3.26633e-05  0.00456858 -0.231458 5.28097e-05  -0.00226235 -0.223501 1.09673e-05  -0.00266743 -0.231023 9.53674e-06  0.0049305 -0.22395 1.72853e-05  -0.00266433 -0.231004 2.96831e-05  0.0041945 -0.238999 5.01871e-05  -0.00307417 -0.238547 2.7895e-05  0.00380921 -0.246565 4.58956e-05  -0.00307512 -0.238561 1.01328e-05  -0.00348902 -0.246123 1.04904e-05  0.00419617 -0.239015 1.5974e-05  -0.00349092 -0.24611 2.52724e-05  0.00341678 -0.254142 4.1008e-05  -0.00391221 -0.253685 2.44379e-05  0.00301647 -0.261733 4.04119e-05  -0.0039134 -0.253698 1.38283e-05  -0.00434136 -0.261292 9.65595e-06  0.00342083 -0.254155 1.46627e-05  -0.0043416 -0.261274 2.57492e-05  0.00261116 -0.269331 3.83854e-05  -0.00477529 -0.268878 2.15769e-05  0.00219297 -0.276941 3.48091e-05  -0.00477195 -0.268887 1.16825e-05  -0.00520825 -0.276499 1.19209e-05  0.00261021 -0.269346 1.44243e-05  -0.00520897 -0.276486 2.09808e-05  0.00176859 -0.284554 3.17097e-05  -0.00565171 -0.284097 1.7643e-05  0.00134325 -0.292171 2.99215e-05  -0.0056479 -0.284108 8.58307e-06  -0.00609279 -0.291727 8.9407e-06  0.0017736 -0.284569 1.4782e-05  -0.0060935 -0.291713 1.50204e-05  0.000911951 -0.299786 2.86102e-05  -0.00653791 -0.299327 1.7643e-05  0.000477076 -0.307401 2.63453e-05  -0.00653934 -0.299337 1.10865e-05  -0.00698543 -0.306954 1.00136e-05  0.000915766 -0.299796 1.54972e-05  -0.00698805 -0.306942 1.57356e-05  4.02927e-05 -0.315009 2.15769e-05  -0.00743651 -0.31455 1.26362e-05  -0.000403881 -0.322619 2.14577e-05  -0.00743508 -0.314561 8.10623e-06  -0.00788689 -0.322168 9.29832e-06  4.05312e-05 -0.315022 1.43051e-05  -0.00788689 -0.322157 1.23978e-05  -0.000848293 -0.330212 1.81198e-05  -0.00833845 -0.329754 9.29832e-06  -0.00129867 -0.337805 1.50204e-05  -0.00834084 -0.329764 6.4373e-06  -0.00879359 -0.337358 7.03335e-06  -0.000848055 -0.330221 1.34706e-05  -0.00879312 -0.337346 7.15256e-06  -0.00174832 -0.345383 1.40667e-05  -0.00925112 -0.344928 7.15256e-06  -0.00219941 -0.352956 1.33514e-05  -0.00924873 -0.344934 6.67572e-06  -0.0097034 -0.352511 6.4373e-06  -0.00174785 -0.345393 1.03712e-05  -0.00970531 -0.352499 7.39098e-06  -0.00264883 -0.360514 1.43051e-05  -0.0101595 -0.36006 5.48363e-06  -0.00310016 -0.368066 1.10865e-05  -0.0101569 -0.360068 6.19888e-06  -0.010613 -0.367621 6.79493e-06  -0.00264812 -0.360525 9.89437e-06  -0.0106146 -0.36761 5.126e-06  -0.00355339 -0.3756 8.82149e-06  -0.0110672 -0.375144 8.34465e-07  -0.00400329 -0.383123 1.15633e-05  -0.0110686 -0.375155 2.98023e-06  -0.0115168 -0.382677 6.67572e-06  -0.00355124 -0.375611 9.05991e-06  -0.0115142 -0.382666 3.8147e-06  0.000522815 -0.000744164 0.000130057  0.000383846 -0.000517011 0.000101686  0.0013489 -0.00198907 0.000244617  0.000386655 -0.00052917 7.51019e-06  0.000985473 -0.00160545 5.96046e-06  0 0 0  0 0 0  0.000523068 -0.000754058 1.0252e-05  0 0 0  0.00100118 -0.00159067 0.000186682  0.00243369 -0.00367934 0.000332952  0.00177394 -0.00314933 0.000255942  0.00364682 -0.00560588 0.000404  0.00177009 -0.0031727 1.13249e-05  0.00265396 -0.00505233 1.33514e-05  0.00242484 -0.00369668 1.49012e-05  0.00266728 -0.00502509 0.000308514  0.00490856 -0.00782824 0.000448823  0.00360245 -0.00722134 0.000342369  0.00617069 -0.0102748 0.000479817  0.00359282 -0.00725329 1.29938e-05  0.00453794 -0.00971431 1.64509e-05  0.00489414 -0.0078603 1.65701e-05  0.00454849 -0.00967264 0.000363708  0.00739664 -0.0129737 0.000491738  0.0054715 -0.0123875 0.000371814  0.00857598 -0.0159196 0.000494719  0.00546175 -0.0124307 1.5378e-05  0.00634903 -0.0154014 1.71661e-05  0.00738481 -0.0130189 2.00272e-05  0.00635767 -0.0153493 0.000375748  0.00969666 -0.0191053 0.000490427  0.00719708 -0.0185555 0.000370383  0.0107581 -0.0225388 0.000482321  0.00718921 -0.0186041 1.60933e-05  0.00798082 -0.0220558 1.65701e-05  0.00968832 -0.0191563 1.88351e-05  0.00798845 -0.0220015 0.000363469  0.0117595 -0.0262036 0.000468612  0.00872827 -0.0256809 0.000353694  0.0127003 -0.0301062 0.000456572  0.0087232 -0.0257319 1.66893e-05  0.00941396 -0.0296452 1.63317e-05  0.0117527 -0.0262578 1.91927e-05  0.00942004 -0.0295908 0.000342131  0.0135826 -0.0342278 0.000441909  0.0100617 -0.0337219 0.000331163  0.014406 -0.0385717 0.000424862  0.010056 -0.033773 1.68085e-05  0.0106524 -0.0381237 1.84774e-05  0.0135779 -0.0342813 2.07424e-05  0.0106544 -0.0380694 0.000319839  0.0151744 -0.0431202 0.000409722  0.0112013 -0.0426223 0.000308037  0.015888 -0.0478738 0.000395775  0.0112005 -0.0426718 1.74046e-05  0.0117034 -0.047429 1.72853e-05  0.0151728 -0.0431721 2.12193e-05  0.0117058 -0.0473784 0.000297904  0.0165503 -0.0528174 0.000378251  0.0121642 -0.0523233 0.000286102  0.0171608 -0.0579498 0.000364542  0.0121616 -0.0523713 1.71661e-05  0.0125778 -0.0575041 1.94311e-05  0.0165499 -0.0528662 2.09808e-05  0.0125792 -0.0574559 0.000273943  0.017722 -0.0632519 0.000349283  0.0129526 -0.0627611 0.000262856  0.0182331 -0.0687307 0.000335932  0.0129504 -0.0628068 1.58548e-05  0.0132856 -0.0682834 2.01464e-05  0.0177225 -0.0632997 2.08616e-05  0.0132854 -0.0682364 0.000255346  0.0186977 -0.0743632 0.000323772  0.013579 -0.0738694 0.000244975  0.0191128 -0.0801536 0.000311494  0.0135782 -0.0739128 1.88351e-05  0.0138316 -0.0797027 2.01464e-05  0.0186954 -0.0744068 2.20537e-05  0.013833 -0.0796591 0.000234127  0.0194852 -0.0860845 0.000297904  0.0140498 -0.085591 0.00022459  0.0198127 -0.0921578 0.00028193  0.0140475 -0.0856304 1.87159e-05  0.0142277 -0.0917031 1.94311e-05  0.0194852 -0.0861247 2.30074e-05  0.0142272 -0.0916625 0.000214458  0.0200956 -0.0983557 0.000272036  0.0143738 -0.0978622 0.000205636  0.0203384 -0.104681 0.000260115  0.0143703 -0.0978974 1.95503e-05  0.0144813 -0.104219 2.0504e-05  0.020097 -0.0983922 2.31266e-05  0.0144846 -0.104183 0.000198126  0.0205449 -0.111117 0.000248909  0.0145601 -0.110618 0.000187874  0.0207086 -0.117666 0.000236034  0.0145595 -0.110652 2.00272e-05  0.0146036 -0.1172 2.12193e-05  0.0205433 -0.111149 2.46763e-05  0.0146034 -0.117167 0.000177979  0.0208337 -0.124311 0.00022614  0.0146163 -0.123814 0.000172853  0.0209223 -0.13106 0.000215888  0.0146157 -0.123844 2.15769e-05  0.0145991 -0.130592 2.19345e-05  0.0208343 -0.124344 2.67029e-05  0.0145981 -0.13056 0.000163078  0.0209774 -0.137893 0.000205159  0.0145524 -0.137395 0.000155687  0.0209994 -0.144814 0.000194907  0.0145496 -0.137423 2.14577e-05  0.0144761 -0.144343 2.12193e-05  0.0209795 -0.137923 2.6226e-05  0.0144789 -0.144313 0.000147939  0.0209897 -0.15181 0.00018394  0.0143769 -0.151309 0.000142455  0.0209463 -0.15888 0.00017643  0.0143776 -0.151334 2.03848e-05  0.014251 -0.158406 2.21729e-05  0.0209901 -0.151835 2.45571e-05  0.0142522 -0.158379 0.000133872  0.0208728 -0.166013 0.000165701  0.0141017 -0.165514 0.000128984  0.0207725 -0.17321 0.000157118  0.0140982 -0.165535 2.20537e-05  0.0139244 -0.172736 2.19345e-05  0.0208752 -0.166037 2.80142e-05  0.0139267 -0.172713 0.000118375  0.0206442 -0.180465 0.000147939  0.0137298 -0.179964 0.000113726  0.0204895 -0.187766 0.000139236  0.0137286 -0.179984 2.20537e-05  0.0135105 -0.187292 2.3365e-05  0.0206451 -0.180486 2.65837e-05  0.0135117 -0.18727 0.000106573  0.0203104 -0.195114 0.00013113  0.0132725 -0.194619 0.000100255  0.0201066 -0.202512 0.000121713  0.0132732 -0.194638 2.22921e-05  0.0130155 -0.202035 2.2769e-05  0.0203116 -0.195137 2.43187e-05  0.0130141 -0.202015 9.52482e-05  0.0198812 -0.20994 0.000115871  0.0127373 -0.209446 8.90493e-05  0.0196323 -0.217406 0.000109076  0.0127404 -0.209461 2.15769e-05  0.012445 -0.216931 2.31266e-05  0.0198798 -0.209959 2.65837e-05  0.0124474 -0.216911 8.54731e-05  0.0193646 -0.224898 0.000103712  0.0121372 -0.224405 7.64132e-05  0.019078 -0.232419 9.58443e-05  0.0121372 -0.224421 2.06232e-05  0.0118117 -0.231946 2.32458e-05  0.0193696 -0.224914 2.69413e-05  0.0118151 -0.231927 7.59363e-05  0.0187793 -0.239958 8.9407e-05  0.0114756 -0.239472 6.79493e-05  0.0184584 -0.247523 8.21352e-05  0.0114729 -0.239487 1.94311e-05  0.0111241 -0.247052 2.20537e-05  0.0187788 -0.239975 2.65837e-05  0.0111208 -0.247037 6.2108e-05  0.0181229 -0.255098 7.60555e-05  0.0107582 -0.254613 5.91278e-05  0.0177722 -0.262688 7.12872e-05  0.0107594 -0.254625 2.0504e-05  0.0103865 -0.26222 1.93119e-05  0.018122 -0.25511 2.563e-05  0.0103872 -0.262204 5.30481e-05  0.0174098 -0.270283 6.81877e-05  0.00999975 -0.269802 5.25713e-05  0.0170331 -0.277892 6.12736e-05  0.0100017 -0.269814 2.20537e-05  0.00960588 -0.277424 2.24113e-05  0.0174086 -0.270296 2.70605e-05  0.00960541 -0.277412 4.63724e-05  0.0166485 -0.2855 5.50747e-05  0.00920248 -0.285024 4.33922e-05  0.0162499 -0.293116 5.19753e-05  0.00920272 -0.285033 2.25306e-05  0.00879121 -0.292652 2.06232e-05  0.0166478 -0.285513 2.39611e-05  0.00879097 -0.29264 3.95775e-05  0.0158482 -0.300726 4.91142e-05  0.00837183 -0.300253 3.69549e-05  0.0154307 -0.308337 4.51803e-05  0.00837421 -0.300263 2.09808e-05  0.00794911 -0.30788 1.9908e-05  0.0158458 -0.300737 2.52724e-05  0.00794649 -0.307867 3.43323e-05  0.0150099 -0.315943 4.35114e-05  0.00751734 -0.315476 3.31402e-05  0.0145822 -0.323547 3.93391e-05  0.00751877 -0.315487 1.77622e-05  0.00708389 -0.323091 1.93119e-05  0.0150101 -0.315954 2.61068e-05  0.00708532 -0.323082 2.88486e-05  0.0141518 -0.33114 3.65973e-05  0.00664639 -0.330675 2.82526e-05  0.0137112 -0.33873 3.3021e-05  0.00664759 -0.330683 1.94311e-05  0.00620413 -0.338277 2.0504e-05  0.0141509 -0.33115 2.46763e-05  0.00620389 -0.338265 2.49147e-05  0.0132697 -0.346307 3.15905e-05  0.00575638 -0.345845 2.24113e-05  0.0128248 -0.353878 2.92063e-05  0.00575948 -0.345853 1.88351e-05  0.00531292 -0.353428 1.69277e-05  0.0132725 -0.346317 2.39611e-05  0.0053122 -0.353416 2.14577e-05  0.0123777 -0.361435 2.53916e-05  0.00486422 -0.360974 1.84774e-05  0.0119288 -0.368986 2.47955e-05  0.00486302 -0.360985 1.7643e-05  0.00441194 -0.368535 1.88351e-05  0.0123808 -0.361443 2.45571e-05  0.00441241 -0.368524 1.88351e-05  0.0114763 -0.376523 2.22921e-05  0.0039587 -0.376062 1.71661e-05  0.0110264 -0.384053 1.95503e-05  0.00396037 -0.37607 1.81198e-05  0.00351238 -0.3836 1.70469e-05  0.0114791 -0.376531 2.41995e-05  0.00351238 -0.383584 1.5378e-05  0.000920296 -0.00163758 0.000181675  0.000721045 -0.00108582 0.000168562  0.00241491 -0.00335521 0.000354767  0.000727437 -0.00111473 9.29832e-06  0.00184619 -0.0025872 1.22786e-05  0 0 0  0 0 0  0.000935964 -0.00163066 2.06232e-05  0 0 0  0.00185814 -0.00256437 0.000304341  0.00418943 -0.0053376 0.000490904  0.0032427 -0.00439072 0.000416517  0.00608832 -0.00734472 0.000590563  0.00324403 -0.00442028 1.71661e-05  0.00476846 -0.00642163 2.24113e-05  0.00418378 -0.00535107 2.16961e-05  0.00477394 -0.00638437 0.000501513  0.00796646 -0.00953394 0.000658989  0.00635397 -0.00859833 0.000556707  0.0098207 -0.0119357 0.000702977  0.0063417 -0.00863606 2.00272e-05  0.0079028 -0.0110808 2.58684e-05  0.00795364 -0.00957668 2.44379e-05  0.0079121 -0.0110349 0.000591516  0.0116146 -0.0145584 0.000723481  0.00943416 -0.0137011 0.00060904  0.0133408 -0.0174441 0.000730991  0.00941861 -0.0137493 2.28882e-05  0.0108837 -0.0166736 2.55108e-05  0.0116009 -0.0146105 2.63453e-05  0.0108935 -0.0166202 0.000613332  0.0149979 -0.0205713 0.000726342  0.0122883 -0.0197805 0.000609159  0.0165781 -0.0239609 0.000715137  0.012278 -0.0198322 2.51532e-05  0.0136059 -0.0232487 2.55108e-05  0.01499 -0.0206283 2.90871e-05  0.013614 -0.0231931 0.000598431  0.0180846 -0.027586 0.000698328  0.0148698 -0.0268418 0.000584006  0.0195129 -0.0314572 0.00067687  0.0148631 -0.026894 2.6226e-05  0.0160507 -0.0307845 2.61068e-05  0.0180773 -0.0276423 2.90871e-05  0.0160574 -0.0307291 0.000565529  0.0208665 -0.0355527 0.000654936  0.0171764 -0.0348405 0.000548482  0.0221434 -0.0398766 0.000630856  0.0171705 -0.0348914 2.63453e-05  0.0182255 -0.0392294 2.68221e-05  0.0208601 -0.0356069 2.92063e-05  0.0182292 -0.0391734 0.000528932  0.0233501 -0.0444046 0.000609994  0.019218 -0.0437157 0.000508785  0.0244827 -0.049145 0.000587463  0.0192135 -0.0437658 2.57492e-05  0.0201401 -0.0485141 2.80142e-05  0.0233454 -0.0444585 2.94447e-05  0.0201423 -0.0484641 0.000491738  0.0255476 -0.0540745 0.000566125  0.021005 -0.0534031 0.00047195  0.0265406 -0.0591934 0.000541091  0.0210036 -0.0534506 2.69413e-05  0.0218086 -0.0585784 2.65837e-05  0.025545 -0.0541224 2.99215e-05  0.0218085 -0.0585284 0.000451684  0.027469 -0.0644867 0.000519872  0.0225525 -0.0638305 0.000434041  0.0283307 -0.069954 0.00050056  0.0225538 -0.0638737 2.58684e-05  0.0232419 -0.0693481 2.87294e-05  0.0274687 -0.0645326 3.05176e-05  0.0232424 -0.0693022 0.000419021  0.0291309 -0.0755778 0.000478983  0.0238754 -0.0749341 0.000401378  0.0298679 -0.0813597 0.000459433  0.0238743 -0.0749772 2.74181e-05  0.024453 -0.0807638 2.95639e-05  0.0291315 -0.0756221 3.15905e-05  0.0244532 -0.0807211 0.000383973  0.0305451 -0.087283 0.000437617  0.0249755 -0.086651 0.000365973  0.0311626 -0.0933481 0.000418305  0.0249771 -0.0866892 2.75373e-05  0.0254511 -0.0927593 2.81334e-05  0.0305462 -0.0873235 3.17097e-05  0.0254508 -0.0927182 0.000351787  0.031724 -0.0995387 0.000400066  0.0258747 -0.0989161 0.000336885  0.0322298 -0.105858 0.000383496  0.0258744 -0.0989512 2.83718e-05  0.0262505 -0.105275 2.7895e-05  0.0317249 -0.0995762 3.1352e-05  0.0262511 -0.10524 0.000319242  0.0326831 -0.112286 0.000365615  0.026579 -0.111675 0.000306249  0.0330809 -0.11883 0.000347853  0.0265783 -0.111706 2.89679e-05  0.0268607 -0.118253 2.88486e-05  0.0326807 -0.112321 3.26633e-05  0.0268624 -0.11822 0.000292778  0.0334316 -0.125467 0.000332236  0.0271008 -0.124864 0.000277877  0.0337307 -0.13221 0.000315785  0.0271001 -0.124894 2.98023e-05  0.0272967 -0.131641 3.14713e-05  0.0334315 -0.1255 3.33786e-05  0.0272975 -0.13161 0.00026381  0.0339847 -0.139036 0.000301242  0.027452 -0.138441 0.000252366  0.0341928 -0.145951 0.000285864  0.0274507 -0.138469 3.12328e-05  0.0275664 -0.145389 3.19481e-05  0.033985 -0.139065 3.56436e-05  0.0275669 -0.145359 0.000239253  0.0343547 -0.152939 0.000270844  0.0276449 -0.152354 0.000228524  0.0344734 -0.16 0.000255108  0.027643 -0.152379 3.20673e-05  0.0276861 -0.159446 3.32594e-05  0.0343549 -0.152963 3.73125e-05  0.0276835 -0.159421 0.000215173  0.0345554 -0.167123 0.000243664  0.0276861 -0.166552 0.000203252  0.0345948 -0.174318 0.000228643  0.0276883 -0.166575 3.1352e-05  0.0276599 -0.17377 3.25441e-05  0.0345578 -0.167149 3.56436e-05  0.027657 -0.173748 0.000191927  0.0346005 -0.181558 0.000215888  0.0275953 -0.180997 0.000182033  0.0345678 -0.188856 0.000204563  0.0275967 -0.181016 3.19481e-05  0.0275056 -0.188319 3.18289e-05  0.0346007 -0.18158 3.63588e-05  0.0275044 -0.188296 0.000169039  0.0345013 -0.196197 0.000192523  0.0273817 -0.195644 0.00015974  0.0344012 -0.203583 0.000180483  0.0273824 -0.19566 3.37362e-05  0.0272324 -0.203056 3.37362e-05  0.0345013 -0.196217 3.71933e-05  0.0272319 -0.203034 0.0001508  0.0342722 -0.211004 0.000169158  0.0270562 -0.21046 0.000140429  0.0341129 -0.218463 0.000158668  0.0270555 -0.210476 3.21865e-05  0.0268524 -0.21794 3.23057e-05  0.0342746 -0.211023 3.74317e-05  0.0268538 -0.217924 0.000132918  0.0339272 -0.225944 0.000148296  0.0266271 -0.225411 0.000123739  0.0337124 -0.233458 0.000138283  0.0266268 -0.225429 3.20673e-05  0.0263798 -0.232948 3.25441e-05  0.0339284 -0.225961 3.80278e-05  0.0263789 -0.232927 0.000118852  0.0334744 -0.240989 0.00012958  0.0261085 -0.240466 0.000107765  0.0332108 -0.248543 0.000118852  0.0261099 -0.24048 3.32594e-05  0.0258188 -0.248041 3.29018e-05  0.0334737 -0.241003 3.89814e-05  0.0258183 -0.248023 0.000100851  0.0329285 -0.256111 0.000112295  0.0255105 -0.255598 9.31025e-05  0.032625 -0.263693 0.000102878  0.025507 -0.255609 3.24249e-05  0.0251813 -0.263198 3.12328e-05  0.0329282 -0.256124 3.77893e-05  0.0251849 -0.263185 8.52346e-05  0.0323036 -0.271283 9.66787e-05  0.0248413 -0.270779 8.09431e-05  0.0319614 -0.27888 9.0003e-05  0.0248387 -0.27079 3.48091e-05  0.024483 -0.278397 3.37362e-05  0.0323036 -0.271295 3.89814e-05  0.0244842 -0.278383 7.36713e-05  0.0316041 -0.286482 8.24928e-05  0.0241113 -0.285989 6.96182e-05  0.0312312 -0.29409 7.78437e-05  0.0241129 -0.285998 3.26633e-05  0.0237298 -0.293611 3.25441e-05  0.0316041 -0.286494 3.86238e-05  0.0237288 -0.293599 6.40154e-05  0.0308456 -0.30169 6.96182e-05  0.0233343 -0.301207 5.76973e-05  0.0304472 -0.309298 6.4373e-05  0.0233345 -0.301219 3.12328e-05  0.0229306 -0.308829 3.3021e-05  0.0308473 -0.301704 3.85046e-05  0.0229294 -0.308816 5.44786e-05  0.0300419 -0.316896 6.00815e-05  0.0225167 -0.31642 5.11408e-05  0.0296228 -0.324494 5.85318e-05  0.0225155 -0.316428 3.32594e-05  0.0220942 -0.324031 3.24249e-05  0.0300419 -0.316906 3.60012e-05  0.0220952 -0.324019 4.76837e-05  0.0291955 -0.332083 5.54323e-05  0.0216658 -0.331611 4.60148e-05  0.0287611 -0.339667 4.81606e-05  0.0216663 -0.33162 3.31402e-05  0.0212336 -0.339208 2.95639e-05  0.0291991 -0.332092 3.98159e-05  0.0212321 -0.339197 3.98159e-05  0.0283282 -0.347238 4.82798e-05  0.0207934 -0.346773 3.73125e-05  0.0278802 -0.354806 4.3273e-05  0.0207944 -0.346781 3.016e-05  0.0203497 -0.354356 3.18289e-05  0.0283256 -0.347247 3.76701e-05  0.0203497 -0.354341 3.43323e-05  0.0274339 -0.36236 3.93391e-05  0.0199018 -0.361897 3.37362e-05  0.0269842 -0.369908 3.6478e-05  0.0199039 -0.361905 3.27826e-05  0.0194547 -0.369457 3.016e-05  0.0274367 -0.36237 3.68357e-05  0.019454 -0.369448 2.89679e-05  0.0265353 -0.377448 3.26633e-05  0.0190022 -0.376987 2.68221e-05  0.0260859 -0.384984 3.016e-05  0.0190043 -0.376995 2.8491e-05  0.0185523 -0.384529 2.88486e-05  0.0265362 -0.377457 3.43323e-05  0.0185518 -0.38452 2.40803e-05  0.00193749 -0.00388247 0.000247002  0.00133974 -0.00238127 0.000251293  0.00480589 -0.00606769 0.000445485  0.00138297 -0.00246626 -3.93391e-06  0.00331733 -0.0046007 1.50204e-05  0 0 0  0 0 0  0.00184405 -0.00376838 2.8491e-05  0 0 0  0.00328045 -0.00455254 0.000421643  0.00713921 -0.00777739 0.00065279  0.0054429 -0.00649524 0.000568867  0.0094367 -0.00978899 0.000769496  0.00544114 -0.0065161 2.24113e-05  0.00760344 -0.00855279 2.87294e-05  0.00712244 -0.0078693 2.41995e-05  0.00759593 -0.00850648 0.000676394  0.0117867 -0.0117893 0.000863194  0.00976396 -0.010614 0.000760794  0.0140962 -0.0140996 0.000917792  0.00974914 -0.0106632 2.71797e-05  0.0118635 -0.013018 3.20673e-05  0.0117932 -0.0118675 2.74181e-05  0.0118708 -0.0129622 0.000808358  0.0163979 -0.0166185 0.000950098  0.013929 -0.0155367 0.000837088  0.0186318 -0.0194281 0.000956655  0.0139145 -0.0155926 3.06368e-05  0.0159056 -0.0184399 3.34978e-05  0.0163915 -0.0166872 3.43323e-05  0.0159167 -0.018379 0.000843763  0.0208005 -0.0224858 0.000953197  0.017831 -0.0214751 0.000840902  0.0228826 -0.0258193 0.000938416  0.0178176 -0.021533 3.29018e-05  0.0196545 -0.0248953 3.33786e-05  0.0207894 -0.0225486 3.54052e-05  0.019664 -0.0248353 0.000826478  0.024878 -0.0293915 0.000918508  0.0214159 -0.0284394 0.000808477  0.0267814 -0.0332255 0.000893593  0.0214047 -0.0284935 3.44515e-05  0.0230752 -0.0323467 3.40939e-05  0.0248674 -0.0294517 3.62396e-05  0.0230842 -0.0322914 0.000784636  0.0285965 -0.0372758 0.000864148  0.0246672 -0.0363666 0.000759602  0.030317 -0.0415704 0.000833511  0.0246615 -0.0364191 3.33786e-05  0.0261639 -0.0407306 3.37362e-05  0.028589 -0.0373322 3.60012e-05  0.0261684 -0.0406761 0.000731587  0.0319491 -0.0460652 0.000805736  0.0275871 -0.0451903 0.000707865  0.0334921 -0.0507786 0.000776887  0.0275842 -0.0452405 3.46899e-05  0.0289249 -0.0499693 3.52859e-05  0.0319424 -0.0461159 3.65973e-05  0.0289286 -0.0499153 0.000682473  0.0349475 -0.0556784 0.000745535  0.0301872 -0.0548339 0.000656843  0.0363157 -0.0607773 0.000717878  0.0301843 -0.0548803 3.56436e-05  0.0313698 -0.059994 3.55244e-05  0.0349427 -0.0557232 3.91006e-05  0.03137 -0.0599447 0.000629783  0.0376027 -0.0660427 0.000690579  0.0324781 -0.0652276 0.000604033  0.0388067 -0.0714929 0.000661731  0.0324779 -0.0652714 3.71933e-05  0.0335149 -0.0707301 3.61204e-05  0.0375991 -0.0660893 4.13656e-05  0.0335153 -0.0706846 0.000579596  0.0399349 -0.0770891 0.000636339  0.0344791 -0.0763007 0.000556588  0.0409815 -0.082857 0.000608325  0.0344783 -0.0763419 3.71933e-05  0.0353737 -0.0821181 3.69549e-05  0.039933 -0.0771347 4.04119e-05  0.0353745 -0.0820731 0.000533342  0.041957 -0.0887555 0.000581384  0.0362015 -0.0879871 0.000508904  0.0428586 -0.0948038 0.000555158  0.0362017 -0.0880259 3.67165e-05  0.0369608 -0.0940832 3.62396e-05  0.0419542 -0.0887958 3.94583e-05  0.0369595 -0.0940449 0.000486016  0.0436847 -0.100973 0.000530481  0.0376556 -0.100229 0.000464678  0.0444446 -0.107277 0.000508428  0.0376575 -0.100261 3.74317e-05  0.0382895 -0.106574 3.76701e-05  0.0436854 -0.10101 4.05312e-05  0.0382915 -0.106538 0.000443935  0.0451404 -0.113683 0.000486016  0.0388647 -0.112959 0.000425339  0.0457641 -0.120213 0.000459909  0.038864 -0.11299 3.93391e-05  0.0393778 -0.119528 3.89814e-05  0.045136 -0.113717 4.06504e-05  0.0393779 -0.119492 0.000405431  0.0463303 -0.126831 0.000440478  0.0398359 -0.126125 0.000386953  0.0468309 -0.133559 0.000417352  0.0398349 -0.126155 4.05312e-05  0.0402371 -0.132891 4.1604e-05  0.0463271 -0.126862 4.49419e-05  0.0402383 -0.132859 0.000367522  0.0472753 -0.14036 0.00039947  0.0405864 -0.139678 0.000347018  0.0476587 -0.147262 0.000375628  0.040586 -0.139706 4.02927e-05  0.0408847 -0.146613 4.12464e-05  0.047273 -0.140391 4.56572e-05  0.0408843 -0.146586 0.000329852  0.0479894 -0.154227 0.000356197  0.0411327 -0.153563 0.000314832  0.0482643 -0.161274 0.000339627  0.0411322 -0.153588 4.11272e-05  0.0413318 -0.160646 4.1008e-05  0.0479856 -0.154252 4.42266e-05  0.0413332 -0.160619 0.00029707  0.0484912 -0.16838 0.000318766  0.0414879 -0.167736 0.000282168  0.0486674 -0.17556 0.000304818  0.0414851 -0.167759 4.12464e-05  0.0415971 -0.174944 4.23193e-05  0.0484877 -0.168405 4.48227e-05  0.0415959 -0.17492 0.000263929  0.0487986 -0.182781 0.000286698  0.0416639 -0.182155 0.000250936  0.0488791 -0.190067 0.000267744  0.0416634 -0.182175 4.14848e-05  0.0416896 -0.189469 4.3273e-05  0.0487938 -0.182802 4.73261e-05  0.0416913 -0.189444 0.00023663  0.0489173 -0.197383 0.000253081  0.041676 -0.19678 0.000221133  0.0489109 -0.204758 0.000236869  0.041678 -0.196799 4.51803e-05  0.0416281 -0.204181 4.41074e-05  0.0489173 -0.197407 4.60148e-05  0.0416284 -0.204157 0.000208855  0.0488715 -0.21216 0.000222087  0.0415413 -0.211573 0.000193477  0.0487905 -0.219604 0.000209212  0.0415444 -0.211587 4.42266e-05  0.0414231 -0.21904 4.49419e-05  0.0488694 -0.212176 4.74453e-05  0.0414248 -0.219024 0.000182867  0.0486772 -0.227072 0.000195146  0.0412755 -0.2265 0.000171781  0.0485244 -0.234566 0.000181317  0.0412729 -0.226514 4.54187e-05  0.0410924 -0.234022 4.49419e-05  0.048677 -0.227087 4.8399e-05  0.0410931 -0.234003 0.000157595  0.0483427 -0.242082 0.000167847  0.0408826 -0.24153 0.000147223  0.0481286 -0.249623 0.000156999  0.0408828 -0.241543 4.51803e-05  0.0406482 -0.249093 4.47035e-05  0.0483444 -0.2421 5.05447e-05  0.040648 -0.249078 0.00013721  0.0478876 -0.257172 0.000146508  0.0403862 -0.256638 0.000129819  0.0476191 -0.264741 0.000134587  0.0403867 -0.256649 4.45843e-05  0.0401032 -0.264226 4.47035e-05  0.0478909 -0.257186 4.92334e-05  0.0401025 -0.264213 0.000116825  0.0473325 -0.272314 0.000128031  0.0397933 -0.271795 0.000109792  0.0470095 -0.279904 0.000115514  0.0397952 -0.271806 4.54187e-05  0.0394666 -0.279403 4.51803e-05  0.0473299 -0.272326 5.06639e-05  0.0394692 -0.279388 0.000102282  0.0466762 -0.287491 0.000108242  0.039125 -0.286984 9.39369e-05  0.0463176 -0.295084 9.81092e-05  0.0391197 -0.286995 4.44651e-05  0.0387592 -0.294596 4.52995e-05  0.0466757 -0.2875 5.03063e-05  0.038759 -0.294586 8.57115e-05  0.0459447 -0.302674 9.03606e-05  0.0383794 -0.302182 8.04663e-05  0.0455525 -0.310272 8.39233e-05  0.0383816 -0.302194 4.42266e-05  0.0379889 -0.309795 4.42266e-05  0.0459471 -0.302686 5.05447e-05  0.037987 -0.309783 7.31945e-05  0.0451519 -0.317857 8.05855e-05  0.0375826 -0.317378 6.8903e-05  0.0447328 -0.325447 7.45058e-05  0.0375831 -0.317387 4.3273e-05  0.0371678 -0.324981 4.60148e-05  0.0451512 -0.317869 5.07832e-05  0.0371685 -0.32497 6.60419e-05  0.0443082 -0.333026 6.80685e-05  0.036741 -0.332557 5.8651e-05  0.0438669 -0.340601 6.6638e-05  0.0367436 -0.332563 4.63724e-05  0.03631 -0.340146 4.52995e-05  0.0443091 -0.333035 4.91142e-05  0.0363085 -0.340136 5.71012e-05  0.0434222 -0.348163 5.94854e-05  0.0358684 -0.347705 5.25713e-05  0.0429749 -0.35573 6.12736e-05  0.0358708 -0.347714 4.36306e-05  0.0354259 -0.355282 4.35114e-05  0.0434268 -0.348178 4.73261e-05  0.0354249 -0.355273 4.82798e-05  0.04252 -0.363281 5.24521e-05  0.0349753 -0.362822 4.49419e-05  0.0420659 -0.370828 5.01871e-05  0.0349762 -0.362833 4.3273e-05  0.0345256 -0.370379 4.3273e-05  0.0425248 -0.363289 4.91142e-05  0.0345235 -0.37037 4.47035e-05  0.0416117 -0.378372 4.97103e-05  0.0340707 -0.377911 4.04119e-05  0.0411577 -0.385911 4.63724e-05  0.0340717 -0.377922 4.05312e-05  0.0336175 -0.38546 4.44651e-05  0.0416138 -0.378378 4.86374e-05  0.033617 -0.385452 3.6478e-05  -0.00088302 -0.00143951 0.00016892  -0.00114935 -0.00214154 0.000221372  -0.00242767 -0.00327243 0.000328302  -0.0012174 -0.00215784 0.000419855  -0.00332478 -0.00434207 0.000808358  -0.00265815 -0.00374706 0.000507593  0 0 0  -0.00276388 -0.00382133 0.000227451  0 0 0  0 0 0  -0.00087795 -0.0013821 0.000378489  0 0 0  -0.00505894 -0.00581099 0.000436425  -0.0033698 -0.00443786 0.000378489  -0.00418845 -0.00504985 0.000464201  -0.00549608 -0.00621926 0.000533104  -0.00604229 -0.00693546 0.000555515  -0.00547883 -0.00610851 0.00110531  -0.00764391 -0.00794311 0.00132179  -0.00722103 -0.0073722 0.00124764  -0.00724156 -0.00746156 0.0006181  -0.00421123 -0.0049517 0.000949979  -0.00952457 -0.00927913 0.0007236  -0.007633 -0.00805853 0.00064373  -0.00793248 -0.00900964 0.000619531  -0.00977764 -0.010025 0.000721335  -0.00978285 -0.0112679 0.000663042  -0.00978917 -0.0098866 0.00148523  -0.0119166 -0.0120707 0.00157714  -0.0118627 -0.0110031 0.00168419  -0.0118544 -0.0111416 0.00082469  -0.00795329 -0.00887442 0.00127935  -0.0142074 -0.0132887 0.00087285  -0.011896 -0.0122191 0.000769019  -0.0116066 -0.0137811 0.000685334  -0.0139893 -0.0146539 0.000795603  -0.0133884 -0.0165352 0.000692844  -0.0140092 -0.0144955 0.00163102  -0.0160586 -0.0171859 0.00164366  -0.0165725 -0.0154826 0.0018543  -0.0165546 -0.0156498 0.000911832  -0.0116278 -0.0136293 0.00140452  -0.018871 -0.0182835 0.000915766  -0.0160398 -0.0173489 0.000803471  -0.0151249 -0.019544 0.000688314  -0.0180458 -0.0202996 0.000800729  -0.0168167 -0.0228025 0.00067842  -0.0180587 -0.0201361 0.00163293  -0.0200068 -0.0233413 0.00160336  -0.0211493 -0.0210055 0.00185835  -0.0211368 -0.0211731 0.000911951  -0.0151376 -0.0193891 0.00140429  -0.0233449 -0.0243141 0.00090003  -0.0199964 -0.0235016 0.000787973  -0.0184597 -0.0262996 0.000657916  -0.0218958 -0.0269508 0.000766397  -0.0200588 -0.0300332 0.000639081  -0.0218999 -0.026792 0.00155985  -0.0237369 -0.0304794 0.0015111  -0.0254969 -0.0275475 0.00177908  -0.0254914 -0.0277094 0.000873804  -0.018461 -0.0261457 0.00133967  -0.0275735 -0.0313346 0.000848174  -0.0237374 -0.0306329 0.000741959  -0.0216109 -0.0339906 0.000614524  -0.0255247 -0.0345471 0.000715017  -0.0231187 -0.0381672 0.000590682  -0.0255187 -0.0344003 0.00145411  -0.0272468 -0.0385352 0.00139844  -0.0295865 -0.0350493 0.00166154  -0.0295882 -0.0351997 0.000815272  -0.0216024 -0.033844 0.001248  -0.031545 -0.0392783 0.000786185  -0.0272561 -0.0386759 0.000687957  -0.0245822 -0.0425541 0.000566483  -0.0289384 -0.0430238 0.000658393  -0.0260075 -0.0471428 0.000539303  -0.0289247 -0.0428856 0.00134039  -0.0305522 -0.0474373 0.00128126  -0.0334256 -0.0434374 0.00153244  -0.0334339 -0.0435776 0.000751495  -0.0245678 -0.0424169 0.00114989  -0.0352699 -0.0480771 0.000719547  -0.030566 -0.0475676 0.00063026  -0.0273927 -0.0519245 0.000516057  -0.0321494 -0.052312 0.00059998  -0.0287397 -0.0568914 0.000493407  -0.0321331 -0.0521847 0.0012244  -0.0336663 -0.0571157 0.00116789  -0.0370284 -0.0526457 0.00140142  -0.0370418 -0.0527754 0.000685334  -0.0273732 -0.0517977 0.0010488  -0.0387601 -0.057654 0.000655174  -0.0336822 -0.0572375 0.000573158  -0.0300481 -0.0620374 0.00046885  -0.0351709 -0.0623438 0.00054431  -0.031323 -0.067352 0.000445485  -0.0351541 -0.0622271 0.00111306  -0.0366004 -0.0675099 0.00105965  -0.0404088 -0.0626025 0.00127268  -0.0404212 -0.0627197 0.000621676  -0.0300293 -0.0619204 0.000954866  -0.0420352 -0.0679519 0.000591516  -0.0366163 -0.0676186 0.000517845  -0.0325649 -0.0728269 0.000422597  -0.03802 -0.0730606 0.00049293  -0.0337746 -0.0784578 0.000401497  -0.0380045 -0.0729537 0.00101054  -0.0393661 -0.0785556 0.000960708  -0.0435848 -0.0732475 0.00115407  -0.0435981 -0.0733521 0.000564337  -0.0325445 -0.0727205 0.00086391  -0.0451155 -0.0789061 0.000537634  -0.0393827 -0.0786541 0.000468016  -0.0349505 -0.0842351 0.000380516  -0.0407088 -0.0843992 0.000442266  -0.0360969 -0.0901544 0.000361204  -0.0406909 -0.0843036 0.000911474  -0.0419756 -0.0901942 0.000862956  -0.0465654 -0.0845191 0.00104034  -0.0465813 -0.0846121 0.000504017  -0.03493 -0.0841412 0.000779271  -0.0480016 -0.0904574 0.000480771  -0.0419922 -0.0902814 0.000419617  -0.0372128 -0.0962041 0.000341177  -0.043241 -0.0963011 0.000396729  -0.0382997 -0.102384 0.000320315  -0.0432218 -0.0962153 0.000819087  -0.0444341 -0.102368 0.000773668  -0.0493636 -0.0963591 0.000936151  -0.0493771 -0.0964403 0.000456333  -0.0371926 -0.0961208 0.000699401  -0.0507134 -0.10255 0.000429392  -0.0444517 -0.102445 0.00037396  -0.0393564 -0.10868 0.000302911  -0.0456296 -0.108713 0.000353098  -0.0403906 -0.115092 0.000284553  -0.0456116 -0.108638 0.000730753  -0.0467527 -0.115023 0.000688672  -0.0519869 -0.108711 0.000836611  -0.0520039 -0.108785 0.000402808  -0.0393391 -0.108604 0.000625968  -0.0532523 -0.11513 0.000380158  -0.0467694 -0.115092 0.000332594  -0.0413945 -0.121606 0.000267148  -0.0478787 -0.12158 0.000309944  -0.0423713 -0.128223 0.000249982  -0.0478635 -0.121515 0.000648141  -0.0489395 -0.128109 0.000607848  -0.0544499 -0.121524 0.000742674  -0.054463 -0.121588 0.000357389  -0.0413746 -0.12154 0.000554204  -0.0556383 -0.128148 0.000334501  -0.0489535 -0.128169 0.000291944  -0.0433199 -0.134937 0.000234842  -0.0499997 -0.134859 0.00027287  -0.0442469 -0.141738 0.000218391  -0.0499845 -0.134798 0.000571012  -0.0509977 -0.141578 0.000533938  -0.0567553 -0.134746 0.00065279  -0.0567636 -0.134805 0.000311852  -0.0433046 -0.134877 0.000487804  -0.0578613 -0.141547 0.000288129  -0.0510104 -0.14163 0.00025177  -0.0451467 -0.14862 0.000203013  -0.0519929 -0.14849 0.000234604  -0.0460258 -0.155583 0.000187993  -0.0519791 -0.148436 0.000498533  -0.0529311 -0.155377 0.00046277  -0.0589116 -0.148331 0.000570059  -0.058923 -0.148378 0.000269651  -0.0451345 -0.14857 0.000425935  -0.0599482 -0.15529 0.000251055  -0.052942 -0.155424 0.000217438  -0.0468764 -0.162609 0.000172615  -0.0538661 -0.162433 0.000200152  -0.047708 -0.169712 0.00015986  -0.0538564 -0.16239 0.000431061  -0.0547502 -0.16947 0.000398517  -0.0609243 -0.16223 0.000492811  -0.060936 -0.16227 0.000230193  -0.0468621 -0.162566 0.000367999  -0.0618925 -0.169325 0.000211239  -0.0547619 -0.169511 0.000185013  -0.0485151 -0.176871 0.000144362  -0.0556297 -0.176648 0.000168562  -0.0493002 -0.184086 0.000133157  -0.0556173 -0.176612 0.000366926  -0.0564601 -0.183814 0.000336766  -0.0628078 -0.176406 0.00041914  -0.0628173 -0.176441 0.000191092  -0.0485039 -0.176834 0.000313401  -0.0637097 -0.183615 0.000177264  -0.0564709 -0.183844 0.000152707  -0.0500653 -0.191355 0.000118494  -0.0572844 -0.191094 0.000141025  -0.0508099 -0.19867 0.00010848  -0.0572753 -0.191065 0.000309587  -0.0580661 -0.198366 0.000282288  -0.0645666 -0.190815 0.000355721  -0.0645688 -0.190845 0.000160813  -0.050055 -0.191325 0.000262618  -0.065407 -0.198121 0.000144124  -0.0580733 -0.198389 0.000123858  -0.0515313 -0.206026 9.59635e-05  -0.0588412 -0.205734 0.000110745  -0.0522361 -0.213427 8.40425e-05  -0.0588338 -0.205709 0.000255227  -0.0595741 -0.213094 0.000230551  -0.0662053 -0.20542 0.000292182  -0.0662105 -0.205445 0.00012362  -0.0515223 -0.206003 0.000217438  -0.0669858 -0.212807 0.000113249  -0.0595794 -0.213114 9.87053e-05  -0.0529184 -0.220854 7.54595e-05  -0.0602992 -0.220531 8.61883e-05  -0.0535872 -0.228321 6.56843e-05  -0.0602913 -0.220511 0.000203967  -0.0609865 -0.227964 0.00018239  -0.0677276 -0.220189 0.000234842  -0.0677328 -0.220209 9.98974e-05  -0.0529113 -0.220839 0.000173211  -0.0684555 -0.227643 8.55923e-05  -0.0609939 -0.227979 7.30753e-05  -0.0542328 -0.235806 5.45979e-05  -0.0616703 -0.235454 6.35386e-05  -0.0548637 -0.24332 4.69685e-05  -0.061662 -0.235438 0.000160456  -0.0623159 -0.242942 0.000139475  -0.06915 -0.235088 0.000184059  -0.0691543 -0.235102 7.4029e-05  -0.0542257 -0.235793 0.000136852  -0.069834 -0.242589 6.18696e-05  -0.0623217 -0.242953 5.31673e-05  -0.0554762 -0.25085 4.07696e-05  -0.0629566 -0.250474 4.3273e-05  -0.0560746 -0.258399 2.72989e-05  -0.062953 -0.250465 0.000120521  -0.0635667 -0.258006 0.000103712  -0.0704761 -0.250088 0.000137448  -0.0704815 -0.250095 4.99487e-05  -0.0554695 -0.250841 0.000102639  -0.0711107 -0.257622 3.93391e-05  -0.0635726 -0.25801 3.56436e-05  -0.0566602 -0.26596 2.15769e-05  -0.0641723 -0.265565 2.51532e-05  -0.0572286 -0.273538 1.54972e-05  -0.0641661 -0.26556 8.54731e-05  -0.0647466 -0.273128 6.84261e-05  -0.0717132 -0.26516 9.84669e-05  -0.0717199 -0.265167 2.77758e-05  -0.0566525 -0.265956 7.25985e-05  -0.0723119 -0.272722 2.09808e-05  -0.06475 -0.27313 1.65701e-05  -0.0577815 -0.281114 8.58307e-06  -0.0653162 -0.280703 8.70228e-06  -0.0583241 -0.288705 2.38419e-07  -0.0653074 -0.280701 5.42402e-05  -0.0658588 -0.288285 3.71933e-05  -0.0728743 -0.280283 6.12736e-05  -0.0728788 -0.280282 1.03712e-05  -0.0577772 -0.281115 4.52995e-05  -0.0734365 -0.287859 1.66893e-06  -0.0658648 -0.288283 0  -0.0588546 -0.296294 -4.52995e-06  -0.0664017 -0.295866 -7.98702e-06  -0.0593748 -0.303886 -9.89437e-06  -0.0663967 -0.295864 2.51532e-05  -0.0669217 -0.303456 1.46627e-05  -0.0739729 -0.295434 2.90871e-05  -0.0739732 -0.295433 -6.67572e-06  -0.0588505 -0.296294 2.06232e-05  -0.0745006 -0.303015 -1.4782e-05  -0.0669227 -0.303452 -1.29938e-05  -0.059885 -0.311476 -1.45435e-05  -0.0674343 -0.31104 -1.75238e-05  -0.0603821 -0.319066 -1.84774e-05  -0.0674319 -0.311041 3.33786e-06  -0.0679324 -0.318629 -4.52995e-06  -0.0750062 -0.310595 5.24521e-06  -0.075007 -0.310595 -1.91927e-05  -0.059881 -0.311479 1.19209e-06  -0.07551 -0.318175 -2.68221e-05  -0.0679355 -0.318623 -2.39611e-05  -0.0608735 -0.326649 -2.80142e-05  -0.0684264 -0.326203 -2.88486e-05  -0.0613589 -0.33423 -3.03984e-05  -0.0684268 -0.326209 -1.28746e-05  -0.0689068 -0.333787 -2.14577e-05  -0.0759926 -0.325758 -1.5974e-05  -0.0759945 -0.325748 -2.96831e-05  -0.0608728 -0.326654 -1.38283e-05  -0.0764754 -0.333327 -3.62396e-05  -0.0689092 -0.33378 -3.17097e-05  -0.0618353 -0.341799 -3.15905e-05  -0.0693841 -0.34135 -3.50475e-05  -0.0623078 -0.349364 -3.45707e-05  -0.0693808 -0.341353 -2.74181e-05  -0.0698502 -0.348919 -3.21865e-05  -0.076942 -0.340896 -3.21865e-05  -0.0769439 -0.340894 -3.99351e-05  -0.061831 -0.341805 -2.61068e-05  -0.0774109 -0.348451 -4.23193e-05  -0.0698519 -0.348912 -4.06504e-05  -0.0627716 -0.35692 -3.42131e-05  -0.0703175 -0.356467 -4.24385e-05  -0.063237 -0.364468 -3.60012e-05  -0.0703113 -0.35647 -3.5882e-05  -0.0707767 -0.364024 -4.00543e-05  -0.0778649 -0.356013 -4.08888e-05  -0.077868 -0.356005 -4.45843e-05  -0.0627716 -0.356925 -3.31402e-05  -0.0783236 -0.363561 -4.54187e-05  -0.0707812 -0.364017 -4.22001e-05  -0.0636973 -0.372009 -3.88622e-05  -0.0712402 -0.371557 -4.64916e-05  -0.0641601 -0.379547 -4.29153e-05  -0.0712354 -0.371563 -4.31538e-05  -0.0716915 -0.379102 -4.98295e-05  -0.078773 -0.371104 -5.10216e-05  -0.0787797 -0.371101 -4.94719e-05  -0.0636945 -0.372014 -3.99351e-05  -0.0792363 -0.378639 -5.78165e-05  -0.071697 -0.379094 -4.86374e-05  -0.000504769 -0.00066328 0.000114202  -0.000650693 -0.000966385 0.00014627  -0.00133176 -0.00182399 0.000225782  -0.000644848 -0.000943303 0.000307322  -0.00175612 -0.00234754 0.000574589  0 0 0  0 0 0  -0.000509199 -0.000634357 0.000247717  0 0 0  -0.00172497 -0.00239082 0.000284314  -0.00235629 -0.00341497 0.000311136  -0.00315601 -0.00411902 0.000387192  -0.00353892 -0.00531419 0.000376582  -0.00317954 -0.00403525 0.000801325  -0.00471301 -0.00592729 0.000959754  -0.00237495 -0.00335415 0.000644684  -0.00468531 -0.00602607 0.000466228  -0.00477642 -0.00743634 0.000421882  -0.00625584 -0.00813501 0.00052321  -0.00603572 -0.00981772 0.000449181  -0.00628069 -0.00801452 0.00107694  -0.00785184 -0.0103389 0.00114357  -0.00479919 -0.00732885 0.000867248  -0.00782567 -0.01047 0.000557065  -0.00728303 -0.0124357 0.000463367  -0.00936696 -0.01304 0.000576138  -0.00850594 -0.0152978 0.000468135  -0.00938845 -0.0128967 0.00117981  -0.0108934 -0.0157073 0.00118673  -0.00730103 -0.0123021 0.000948548  -0.0108741 -0.0158523 0.00058043  -0.00969785 -0.0184049 0.000464797  -0.0123447 -0.0189127 0.000578165  -0.0108595 -0.0217529 0.000457525  -0.0123563 -0.018763 0.00117719  -0.0137786 -0.0220695 0.00115359  -0.0097062 -0.0182614 0.000945926  -0.013773 -0.0222183 0.000566602  -0.0119904 -0.0253357 0.00044179  -0.0151647 -0.0257616 0.000550389  -0.0130934 -0.0291504 0.000428677  -0.0151632 -0.025612 0.00112033  -0.0165109 -0.0293911 0.00108528  -0.0119876 -0.0251904 0.000899792  -0.0165169 -0.0295381 0.0005337  -0.0141663 -0.0331859 0.00041163  -0.0178331 -0.0335374 0.000513554  -0.0152165 -0.0374377 0.000396371  -0.017822 -0.0333917 0.00104463  -0.0190967 -0.0376145 0.00100243  -0.0141566 -0.0330433 0.000836015  -0.0191122 -0.0377543 0.00049305  -0.0162417 -0.0418937 0.00037837  -0.0203584 -0.0421784 0.000473261  -0.0172437 -0.0465511 0.000364661  -0.0203424 -0.0420412 0.000961423  -0.021556 -0.0466736 0.000917912  -0.0162264 -0.0417587 0.000768781  -0.0215738 -0.0468026 0.000451803  -0.0182278 -0.0513985 0.00034523  -0.0227579 -0.0516205 0.000432134  -0.0191914 -0.0564329 0.000326276  -0.0227394 -0.0514937 0.000875473  -0.0238947 -0.0565018 0.000835896  -0.018209 -0.0512728 0.000701904  -0.0239146 -0.0566231 0.000408411  -0.0201341 -0.0616402 0.000313878  -0.0250429 -0.0618027 0.000390053  -0.0210611 -0.0670187 0.00029695  -0.0250247 -0.0616853 0.000795007  -0.0261247 -0.0670404 0.000756741  -0.0201159 -0.0615264 0.000635266  -0.0261434 -0.0671496 0.000371575  -0.021968 -0.0725556 0.000282049  -0.027221 -0.0726595 0.000351906  -0.0228609 -0.078248 0.000267982  -0.0272001 -0.0725519 0.000721335  -0.0282507 -0.0782226 0.000686765  -0.0219479 -0.0724509 0.000575304  -0.0282706 -0.0783206 0.00033462  -0.0237366 -0.0840832 0.000253558  -0.0292994 -0.084131 0.000316381  -0.024599 -0.0900609 0.000238061  -0.0292774 -0.0840342 0.000649929  -0.0302817 -0.0899907 0.000616431  -0.0237168 -0.0839864 0.000519276  -0.0303026 -0.090078 0.000300527  -0.025442 -0.0961629 0.000226259  -0.0312867 -0.0961578 0.000283837  -0.0262727 -0.102398 0.000216484  -0.0312641 -0.0960725 0.000582099  -0.0322243 -0.102288 0.000551939  -0.0254233 -0.0960794 0.000463367  -0.0322459 -0.102367 0.000267625  -0.0270872 -0.108744 0.000204086  -0.0331841 -0.10869 0.000251889  -0.0278896 -0.11521 0.000189304  -0.0331652 -0.108613 0.000519991  -0.0340822 -0.115058 0.0004915  -0.0270681 -0.108671 0.00041604  -0.0340993 -0.115127 0.000236154  -0.0286739 -0.121771 0.000179529  -0.0349976 -0.12167 0.000221014  -0.0294487 -0.128441 0.000168562  -0.034979 -0.121604 0.000460982  -0.0358547 -0.128251 0.000434399  -0.028658 -0.121706 0.000368357  -0.0358721 -0.128315 0.000208139  -0.0302054 -0.135196 0.000156999  -0.0367283 -0.13505 0.000195384  -0.0309511 -0.142045 0.000146508  -0.0367119 -0.13499 0.000406981  -0.0375506 -0.141819 0.000380993  -0.0301888 -0.135137 0.000323415  -0.0375636 -0.141874 0.00018239  -0.0316832 -0.148969 0.000133634  -0.0383816 -0.148781 0.000167608  -0.0324032 -0.155968 0.000124812  -0.0383689 -0.148726 0.000354052  -0.0391679 -0.155715 0.000329494  -0.0316679 -0.148915 0.000282288  -0.0391815 -0.155761 0.000155449  -0.0331082 -0.163038 0.000115156  -0.0399618 -0.162814 0.000142694  -0.0338016 -0.170176 0.000105977  -0.0399489 -0.162769 0.000307322  -0.0407112 -0.169892 0.00028491  -0.0330932 -0.162995 0.000243187  -0.0407255 -0.169932 0.000132561  -0.034481 -0.17737 9.83477e-05  -0.041471 -0.177109 0.000120401  -0.0351474 -0.184622 8.88109e-05  -0.0414555 -0.177071 0.000260115  -0.042187 -0.184314 0.000239849  -0.0344682 -0.177332 0.000208855  -0.0421977 -0.184343 0.000109911  -0.0358021 -0.191921 7.90358e-05  -0.0429091 -0.19163 0.000101447  -0.0364468 -0.199268 7.25985e-05  -0.0428975 -0.1916 0.000221014  -0.0435948 -0.198936 0.000202894  -0.0357904 -0.191888 0.000177026  -0.0436022 -0.198962 9.10759e-05  -0.0370772 -0.206654 6.62804e-05  -0.0442817 -0.206336 8.15392e-05  -0.0376987 -0.214079 5.78165e-05  -0.0442729 -0.206308 0.000182152  -0.0449357 -0.213725 0.000162959  -0.0370672 -0.206627 0.000145555  -0.0449443 -0.213746 7.18832e-05  -0.038305 -0.221535 5.28097e-05  -0.045593 -0.221191 6.17504e-05  -0.0389037 -0.229022 4.35114e-05  -0.0455832 -0.221172 0.000145078  -0.0462158 -0.228652 0.000129223  -0.0382974 -0.221515 0.000114202  -0.0462248 -0.228667 5.1856e-05  -0.0394902 -0.236531 3.62396e-05  -0.0468435 -0.236165 4.35114e-05  -0.0400672 -0.244067 3.1352e-05  -0.0468349 -0.236149 0.000115037  -0.0474403 -0.243679 9.98974e-05  -0.0394833 -0.236518 9.02414e-05  -0.0474477 -0.243688 4.08888e-05  -0.0406346 -0.251616 2.45571e-05  -0.0480392 -0.251233 3.14713e-05  -0.0411909 -0.259185 2.06232e-05  -0.0480316 -0.251218 8.70228e-05  -0.04861 -0.258782 7.11679e-05  -0.0406241 -0.251604 6.75917e-05  -0.0486166 -0.258791 2.47955e-05  -0.0417366 -0.26676 1.4782e-05  -0.049181 -0.26636 1.75238e-05  -0.042275 -0.27435 1.03712e-05  -0.0491748 -0.26635 5.88894e-05  -0.0497315 -0.27394 4.75645e-05  -0.0417306 -0.266754 4.60148e-05  -0.049736 -0.273943 1.09673e-05  -0.042803 -0.281946 6.4373e-06  -0.0502796 -0.28153 5.48363e-06  -0.043323 -0.289545 8.34465e-07  -0.0502744 -0.281529 3.89814e-05  -0.050807 -0.289125 2.68221e-05  -0.042798 -0.281943 3.00407e-05  -0.0508108 -0.289125 -4.76837e-07  -0.0438349 -0.297144 -3.8147e-06  -0.0513361 -0.296721 -6.19888e-06  -0.0443435 -0.304748 -6.91414e-06  -0.051333 -0.29672 1.64509e-05  -0.0518482 -0.304321 7.98702e-06  -0.0438323 -0.297146 1.10865e-05  -0.0518503 -0.304316 -1.03712e-05  -0.0448403 -0.312346 -1.10865e-05  -0.0523524 -0.311913 -1.41859e-05  -0.0453317 -0.319942 -1.27554e-05  -0.0523512 -0.311914 4.76837e-07  -0.052846 -0.31951 -4.17233e-06  -0.0448375 -0.312349 3.57628e-07  -0.052851 -0.319506 -1.71661e-05  -0.0458188 -0.327533 -1.74046e-05  -0.0533423 -0.327093 -2.18153e-05  -0.0462992 -0.335119 -1.7643e-05  -0.0533366 -0.327096 -1.0848e-05  -0.0538213 -0.334682 -1.64509e-05  -0.0458152 -0.327537 -9.29832e-06  -0.0538244 -0.334674 -2.30074e-05  -0.0467737 -0.342692 -2.09808e-05  -0.0543015 -0.342247 -2.58684e-05  -0.0472455 -0.350263 -2.06232e-05  -0.0542994 -0.34225 -2.06232e-05  -0.0547695 -0.34982 -2.58684e-05  -0.0467737 -0.342698 -1.89543e-05  -0.0547709 -0.349813 -2.70605e-05  -0.0477109 -0.357819 -2.55108e-05  -0.0552394 -0.357371 -3.00407e-05  -0.0481744 -0.365369 -2.40803e-05  -0.0552366 -0.357376 -2.72989e-05  -0.0557003 -0.364928 -2.89679e-05  -0.0477085 -0.357823 -2.07424e-05  -0.0557015 -0.364921 -3.26633e-05  -0.0486362 -0.372904 -2.75373e-05  -0.0561633 -0.372457 -3.37362e-05  -0.0490968 -0.380436 -2.67029e-05  -0.0561635 -0.372464 -3.44515e-05  -0.0566237 -0.38 -3.8147e-05  -0.0486345 -0.372911 -2.7895e-05  -0.0566249 -0.379992 -3.31402e-05  -0.000231043 -0.000331491 5.66244e-05  -0.000353191 -0.000454694 8.91685e-05  -0.000599734 -0.00123397 0.000113368  -0.000352796 -0.000436902 0.000187874  -0.000928432 -0.00141871 0.000349164  0 0 0  0 0 0  -0.000232063 -0.000309497 0.000124097  0 0 0  -0.000911862 -0.0014571 0.000170112  -0.00106031 -0.00264665 0.000156045  -0.00165766 -0.00295448 0.000233531  -0.00161716 -0.00444618 0.000193357  -0.00167009 -0.00289175 0.000489116  -0.00253311 -0.0047088 0.000585914  -0.00107041 -0.00259089 0.000324368  -0.00250611 -0.00478882 0.000284433  -0.00221071 -0.00657099 0.000213504  -0.00343549 -0.00692251 0.000319004  -0.00283599 -0.00899044 0.000227571  -0.00345334 -0.0068185 0.000658512  -0.0043979 -0.00920996 0.000697613  -0.00222334 -0.00647885 0.000439882  -0.0043759 -0.00932363 0.000339627  -0.00346223 -0.0116681 0.000235915  -0.00532213 -0.0119781 0.000351191  -0.0040904 -0.0146017 0.00023818  -0.00533593 -0.0118499 0.000718951  -0.00626147 -0.0147483 0.000722647  -0.00347298 -0.0115498 0.000480413  -0.00624967 -0.0148794 0.000354648  -0.00470734 -0.0177779 0.00023675  -0.00715941 -0.0180263 0.000350714  -0.00531846 -0.0211926 0.000231385  -0.00716639 -0.0178859 0.00071454  -0.00804794 -0.0212695 0.000700355  -0.0047102 -0.0176427 0.000480175  -0.00804651 -0.0214112 0.0003438  -0.00592005 -0.024837 0.000223517  -0.0089168 -0.0250288 0.000331998  -0.00651115 -0.0287101 0.000217557  -0.00891227 -0.0248834 0.000678539  -0.00975841 -0.0287324 0.000654817  -0.00591379 -0.0246949 0.000454903  -0.00976485 -0.0288749 0.000321269  -0.00709832 -0.0328003 0.000209451  -0.010596 -0.0329405 0.000310183  -0.00768191 -0.0371048 0.000201344  -0.0105861 -0.0327989 0.00063014  -0.0114003 -0.0370837 0.000605702  -0.00708842 -0.0326607 0.000422359  -0.0114137 -0.0372211 0.000296116  -0.00826025 -0.0416128 0.000190973  -0.0122167 -0.0417051 0.000285864  -0.00883555 -0.0463224 0.000184059  -0.0122035 -0.0415702 0.000577331  -0.0129918 -0.0462629 0.000552177  -0.00824624 -0.0414782 0.000386238  -0.0130073 -0.0463916 0.000272393  -0.00940692 -0.0512167 0.000174046  -0.0137843 -0.0512637 0.000259161  -0.00998032 -0.0563001 0.000164747  -0.0137686 -0.0511385 0.000525951  -0.0145338 -0.0562058 0.000501871  -0.00939441 -0.0510913 0.000349879  -0.0145515 -0.0563237 0.000246882  -0.0105512 -0.0615528 0.000156879  -0.0153086 -0.0615578 0.000234604  -0.0111187 -0.0669777 0.000149608  -0.0152922 -0.0614425 0.000477552  -0.0160391 -0.0668522 0.000454307  -0.0105319 -0.0614396 0.000317693  -0.0160574 -0.0669598 0.000224471  -0.0116851 -0.0725602 0.000141501  -0.0167966 -0.0725231 0.000214338  -0.012253 -0.078298 0.000134826  -0.0167782 -0.0724172 0.00043118  -0.0175095 -0.0781416 0.000409842  -0.0116689 -0.0724539 0.000287175  -0.0175279 -0.0782389 0.000201464  -0.0128196 -0.0841765 0.000128388  -0.01825 -0.0840991 0.000190258  -0.0133872 -0.090198 0.000120044  -0.0182322 -0.084003 0.000388265  -0.0189452 -0.0900088 0.000367522  -0.0128052 -0.0840829 0.000257492  -0.0189644 -0.0900994 0.000178218  -0.0139507 -0.096346 0.000115514  -0.0196718 -0.0962262 0.000168562  -0.0145155 -0.102621 0.00010705  -0.0196533 -0.096139 0.000348806  -0.0203513 -0.102401 0.00033021  -0.0139358 -0.0962598 0.000232458  -0.0203679 -0.10248 0.000161409  -0.0150789 -0.109007 0.000102162  -0.0210583 -0.108852 0.000153065  -0.0156437 -0.115511 9.67979e-05  -0.0210425 -0.108773 0.00031209  -0.0217245 -0.115263 0.000291824  -0.0150633 -0.10893 0.00020659  -0.0217391 -0.115334 0.000142813  -0.0162021 -0.122111 9.14335e-05  -0.0224158 -0.12192 0.000132799  -0.0167631 -0.128816 8.44002e-05  -0.0224007 -0.121853 0.000276566  -0.0230676 -0.128546 0.000259638  -0.016189 -0.122044 0.00018239  -0.0230814 -0.128606 0.000126362  -0.0173204 -0.135607 8.02279e-05  -0.0237435 -0.135382 0.000116825  -0.0178777 -0.142488 7.236e-05  -0.0237288 -0.135323 0.00024271  -0.0243803 -0.142192 0.000226498  -0.0173082 -0.135548 0.000161052  -0.0243949 -0.142247 0.000108004  -0.0184314 -0.149445 6.91414e-05  -0.0250392 -0.149189 0.000100493  -0.0189853 -0.156478 6.34193e-05  -0.0250227 -0.149137 0.000211358  -0.0256593 -0.156162 0.000196218  -0.0184202 -0.149393 0.000140071  -0.0256748 -0.156208 9.23872e-05  -0.0195374 -0.163578 6.02007e-05  -0.0263033 -0.163295 8.54731e-05  -0.0200851 -0.170745 5.53131e-05  -0.0262914 -0.163249 0.000181675  -0.0269122 -0.170407 0.000169873  -0.0195274 -0.163533 0.000120163  -0.0269227 -0.170446 8.01086e-05  -0.0206313 -0.177967 4.94719e-05  -0.0275376 -0.177656 7.41482e-05  -0.0211742 -0.185245 4.49419e-05  -0.0275269 -0.177616 0.000157237  -0.0281324 -0.184888 0.000144601  -0.0206218 -0.177929 0.000102401  -0.0281434 -0.184921 6.75917e-05  -0.0217123 -0.192567 4.11272e-05  -0.0287416 -0.192233 5.81741e-05  -0.0222511 -0.199938 3.57628e-05  -0.0287323 -0.192201 0.000131011  -0.029325 -0.199565 0.000118613  -0.0217054 -0.192534 8.64267e-05  -0.0293336 -0.199594 5.31673e-05  -0.0227823 -0.207347 3.20673e-05  -0.0299153 -0.206992 4.673e-05  -0.0233138 -0.214791 2.76566e-05  -0.029907 -0.206964 0.000108719  -0.0304832 -0.214405 9.67979e-05  -0.022778 -0.207319 7.14064e-05  -0.0304894 -0.214426 4.44651e-05  -0.0238397 -0.222263 2.68221e-05  -0.0310581 -0.221894 3.73125e-05  -0.0243628 -0.229769 2.43187e-05  -0.0310524 -0.221872 8.74996e-05  -0.0316131 -0.229374 7.61747e-05  -0.0238347 -0.222244 5.50747e-05  -0.0316181 -0.229389 3.31402e-05  -0.0248811 -0.237298 1.88351e-05  -0.032172 -0.236909 2.69413e-05  -0.0253949 -0.244848 1.56164e-05  -0.0321658 -0.236893 6.83069e-05  -0.0327139 -0.244439 5.99623e-05  -0.0248752 -0.237282 4.49419e-05  -0.0327168 -0.244451 2.47955e-05  -0.0259066 -0.252413 1.26362e-05  -0.0332601 -0.252012 1.91927e-05  -0.0264153 -0.259995 1.10865e-05  -0.0332546 -0.251998 5.40018e-05  -0.0337851 -0.259575 4.3273e-05  -0.0259013 -0.252402 3.33786e-05  -0.0337927 -0.259586 1.44243e-05  -0.0269148 -0.267584 9.41753e-06  -0.0343189 -0.267168 1.22786e-05  -0.0274146 -0.275183 7.62939e-06  -0.0343115 -0.267158 3.61204e-05  -0.034832 -0.274756 2.92063e-05  -0.0269108 -0.267573 2.39611e-05  -0.0348353 -0.274764 7.7486e-06  -0.0279117 -0.282788 2.6226e-06  -0.0353489 -0.282364 5.126e-06  -0.0284042 -0.290396 -7.15256e-07  -0.0353467 -0.282361 2.20537e-05  -0.0358529 -0.289969 1.4782e-05  -0.0279081 -0.282782 1.52588e-05  -0.0358567 -0.289968 3.57628e-07  -0.0288913 -0.298006 -1.66893e-06  -0.0363588 -0.297574 -2.02656e-06  -0.0293765 -0.305616 -4.52995e-06  -0.0363548 -0.297572 1.21593e-05  -0.0368488 -0.305182 6.07967e-06  -0.0288899 -0.298003 5.36442e-06  -0.0368545 -0.30518 -7.62939e-06  -0.0298569 -0.31322 -7.15256e-06  -0.0373423 -0.312782 -9.77516e-06  -0.0303342 -0.320822 -7.39098e-06  -0.0373409 -0.312784 -1.19209e-07  -0.0378253 -0.320388 -2.98023e-06  -0.029856 -0.313223 -2.26498e-06  -0.0378289 -0.320381 -1.06096e-05  -0.0308099 -0.328418 -7.86781e-06  -0.0383084 -0.327974 -1.28746e-05  -0.0312798 -0.336007 -7.98702e-06  -0.0383067 -0.327978 -7.39098e-06  -0.0387845 -0.335568 -8.9407e-06  -0.0308113 -0.328422 -5.60284e-06  -0.0387847 -0.335561 -1.40667e-05  -0.0317481 -0.343585 -1.16825e-05  -0.0392578 -0.343141 -1.70469e-05  -0.0322139 -0.351156 -1.19209e-05  -0.0392559 -0.343142 -1.39475e-05  -0.0397243 -0.350717 -1.41859e-05  -0.0317483 -0.343589 -1.00136e-05  -0.0397267 -0.35071 -1.66893e-05  -0.0326748 -0.358717 -1.20401e-05  -0.0401893 -0.358268 -1.90735e-05  -0.0331354 -0.366266 -1.33514e-05  -0.040189 -0.358272 -1.90735e-05  -0.0406511 -0.365826 -2.21729e-05  -0.032676 -0.358723 -1.43051e-05  -0.0406511 -0.365818 -2.18153e-05  -0.0335941 -0.3738 -1.62125e-05  -0.0411124 -0.373352 -2.32458e-05  -0.0340533 -0.381327 -1.62125e-05  -0.0411122 -0.373359 -2.28882e-05  -0.0415726 -0.380885 -2.71797e-05  -0.0335951 -0.373806 -1.62125e-05  -0.0415733 -0.380878 -2.2769e-05  1.02594e-05 -0.000249922 -1.3113e-06  -0.000106085 -0.000264883 2.95639e-05  2.08467e-05 -0.00109729 1.19209e-06  -0.000106126 -0.000248313 6.25849e-05  -0.000273854 -0.00108215 0.000115752  0 0 0  0 0 0  9.20147e-06 -0.000232726 -1.3113e-06  0 0 0  -0.000265218 -0.00111598 5.81741e-05  4.95762e-05 -0.00246307 -3.09944e-06  -0.000489041 -0.00249428 7.78437e-05  6.63102e-05 -0.00423363 9.53674e-07  -0.000489533 -0.00243917 0.000163555  -0.00075449 -0.00419098 0.000197411  4.89652e-05 -0.00240982 -2.86102e-06  -0.000740603 -0.00426218 9.70364e-05  8.70228e-05 -0.00636569 0  -0.00103778 -0.00639221 0.000107765  9.27746e-05 -0.00879917 2.14577e-06  -0.0010424 -0.00630224 0.00022161  -0.00135359 -0.0087133 0.000236869  8.70824e-05 -0.00627783 -1.19209e-07  -0.00134504 -0.00881651 0.000114679  8.96454e-05 -0.0115096 2.26498e-06  -0.00166649 -0.0115143 0.000119805  7.236e-05 -0.0144755 4.17233e-06  -0.0016703 -0.011397 0.000243306  -0.00199166 -0.0143428 0.00024581  9.27746e-05 -0.0113939 4.05312e-06  -0.00198901 -0.0144677 0.000119567  4.22001e-05 -0.0176873 4.52995e-06  -0.0023157 -0.0176653 0.000119805  -3.63588e-06 -0.0211369 5.36442e-06  -0.00231481 -0.0175316 0.000243664  -0.0026421 -0.0209655 0.000240326  4.6134e-05 -0.0175551 7.15256e-06  -0.00264353 -0.0211024 0.000116348  -6.53267e-05 -0.0248155 5.84126e-06  -0.00297719 -0.0247683 0.000111818  -0.000143588 -0.0287237 4.64916e-06  -0.00297189 -0.0246259 0.000231028  -0.00330496 -0.0285211 0.000223517  -5.81741e-05 -0.0246788 6.4373e-06  -0.00331372 -0.0286606 0.000109315  -0.000236571 -0.0328449 4.76837e-06  -0.00365525 -0.0327694 0.000106454  -0.000348628 -0.0371835 4.76837e-06  -0.00364524 -0.0326291 0.000213742  -0.00398964 -0.0369566 0.000206113  -0.000228345 -0.0327071 6.79493e-06  -0.00400084 -0.0370916 0.000102162  -0.000473678 -0.0417205 6.67572e-06  -0.00435305 -0.0416181 9.72748e-05  -0.000615776 -0.0464624 4.64916e-06  -0.00434124 -0.0414837 0.000194788  -0.00470173 -0.0462179 0.000187159  -0.00046432 -0.0415893 3.93391e-06  -0.00471145 -0.0463447 9.35793e-05  -0.000775814 -0.0513899 2.86102e-06  -0.00507832 -0.0512597 8.76188e-05  -0.000951886 -0.0565038 3.21865e-06  -0.00506771 -0.0511339 0.000175118  -0.00543892 -0.0562406 0.000166297  -0.000765204 -0.0512674 1.66893e-06  -0.00545144 -0.0563601 8.2016e-05  -0.00114274 -0.0617891 2.98023e-06  -0.00583279 -0.0616315 7.80821e-05  -0.00135016 -0.0672469 2.5034e-06  -0.00582135 -0.0615168 0.000158429  -0.00620842 -0.0669648 0.000151753  -0.00113428 -0.0616758 -8.34465e-07  -0.00622201 -0.0670722 7.60555e-05  -0.0015738 -0.0728592 3.8147e-06  -0.0066185 -0.0726726 7.29561e-05  -0.00181329 -0.0786282 2.14577e-06  -0.00660467 -0.0725683 0.000142932  -0.00700891 -0.0783283 0.000136018  -0.00156391 -0.0727549 -8.34465e-07  -0.00702047 -0.0784267 6.79493e-05  -0.00206697 -0.0845376 3.09944e-06  -0.00743234 -0.0843247 6.56843e-05  -0.0023365 -0.0905873 2.6226e-06  -0.00741982 -0.084227 0.00012958  -0.00783622 -0.0902706 0.000122786  -0.00205767 -0.084441 -5.96046e-07  -0.00784874 -0.0903598 6.22272e-05  -0.00261664 -0.0967654 2.74181e-06  -0.00827312 -0.096526 5.85318e-05  -0.00291145 -0.10307 2.38419e-06  -0.00826073 -0.0964396 0.000114918  -0.00869036 -0.102736 0.000107765  -0.00260782 -0.0966789 -3.33786e-06  -0.00870228 -0.102815 5.4121e-05  -0.00321984 -0.109485 1.07288e-06  -0.00913751 -0.109219 5.05447e-05  -0.00353992 -0.116014 3.09944e-06  -0.00912833 -0.109141 9.98974e-05  -0.00956869 -0.115665 9.58443e-05  -0.00321138 -0.109408 -4.64916e-06  -0.00957978 -0.115734 4.92334e-05  -0.00387156 -0.122644 2.14577e-06  -0.0100278 -0.122354 4.64916e-05  -0.00421524 -0.129372 1.19209e-06  -0.0100157 -0.122283 9.08375e-05  -0.0104675 -0.129008 8.47578e-05  -0.00386322 -0.122575 -3.09944e-06  -0.0104781 -0.129071 4.31538e-05  -0.00456929 -0.136188 2.74181e-06  -0.0109341 -0.135878 4.05312e-05  -0.00493348 -0.143092 2.02656e-06  -0.0109266 -0.135817 8.07047e-05  -0.0113879 -0.142716 7.39098e-05  -0.00456023 -0.136129 -3.69549e-06  -0.0113971 -0.14277 3.8743e-05  -0.00530624 -0.150072 1.19209e-06  -0.0118618 -0.14974 3.39746e-05  -0.00569034 -0.157128 3.8147e-06  -0.0118532 -0.149687 6.97374e-05  -0.0123224 -0.156739 6.41346e-05  -0.00529933 -0.150019 -3.8147e-06  -0.0123289 -0.156784 3.21865e-05  -0.00607991 -0.164247 1.66893e-06  -0.0127995 -0.163897 3.00407e-05  -0.00647855 -0.171434 4.52995e-06  -0.012795 -0.16385 5.79357e-05  -0.0132689 -0.171033 5.59092e-05  -0.00607347 -0.164204 -3.45707e-06  -0.0132728 -0.171075 2.80142e-05  -0.00688481 -0.178674 9.53674e-07  -0.0137513 -0.178306 2.40803e-05  -0.00729895 -0.185971 0  -0.0137451 -0.178268 4.93526e-05  -0.0142231 -0.185559 4.57764e-05  -0.00688052 -0.178637 -3.45707e-06  -0.0142298 -0.185594 2.15769e-05  -0.00771952 -0.19331 -1.19209e-07  -0.014709 -0.192925 2.16961e-05  -0.00814438 -0.200695 1.66893e-06  -0.0147042 -0.192893 4.1604e-05  -0.0151868 -0.200278 3.8743e-05  -0.00771427 -0.193276 -4.29153e-06  -0.0151935 -0.200305 1.93119e-05  -0.0085752 -0.208119 1.66893e-06  -0.0156753 -0.207722 1.7643e-05  -0.0090127 -0.215578 -1.19209e-07  -0.0156672 -0.207692 3.39746e-05  -0.0161505 -0.215152 3.03984e-05  -0.00857043 -0.208092 -3.93391e-06  -0.0161552 -0.215174 1.5378e-05  -0.00944948 -0.223066 2.5034e-06  -0.0166397 -0.222656 1.34706e-05  -0.00989318 -0.230583 1.66893e-06  -0.0166352 -0.222634 2.92063e-05  -0.017117 -0.230152 2.55108e-05  -0.00944376 -0.223043 -3.57628e-06  -0.0171206 -0.230167 1.29938e-05  -0.010339 -0.238119 2.14577e-06  -0.0176044 -0.237702 8.46386e-06  -0.0107892 -0.245679 4.76837e-07  -0.0176005 -0.237685 2.19345e-05  -0.0180831 -0.245244 1.72853e-05  -0.0103369 -0.238107 -3.93391e-06  -0.0180864 -0.245257 7.51019e-06  -0.0112369 -0.253252 3.8147e-06  -0.0185697 -0.252827 6.79493e-06  -0.0116932 -0.260845 1.78814e-06  -0.0185666 -0.252815 1.52588e-05  -0.0190489 -0.260406 1.2517e-05  -0.0112388 -0.253241 -2.6226e-06  -0.0190518 -0.260414 4.41074e-06  -0.0121505 -0.268441 2.38419e-06  -0.0195329 -0.268009 4.17233e-06  -0.0126097 -0.276049 2.02656e-06  -0.0195298 -0.267998 9.41753e-06  -0.0200076 -0.275605 8.46386e-06  -0.0121508 -0.268434 -2.6226e-06  -0.020009 -0.275612 3.8147e-06  -0.0130668 -0.28366 7.15256e-07  -0.0204868 -0.283219 1.43051e-06  -0.013526 -0.291276 2.02656e-06  -0.0204861 -0.283215 6.55651e-06  -0.0209622 -0.290831 5.24521e-06  -0.013067 -0.283654 -2.02656e-06  -0.0209627 -0.290835 -2.02656e-06  -0.0139871 -0.298887 5.96046e-07  -0.0214367 -0.298447 -3.33786e-06  -0.0144486 -0.306503 -1.19209e-07  -0.0214362 -0.298442 -7.15256e-07  -0.0219095 -0.306059 -3.57628e-07  -0.0139875 -0.298886 -2.14577e-06  -0.021908 -0.306056 -1.90735e-06  -0.0149074 -0.314109 3.57628e-07  -0.0223827 -0.313663 -3.09944e-06  -0.0153682 -0.321717 8.34465e-07  -0.0223818 -0.313666 -8.34465e-07  -0.0228496 -0.321272 -2.74181e-06  -0.0149066 -0.314111 -3.21865e-06  -0.0228498 -0.321268 -3.69549e-06  -0.0158262 -0.329313 9.53674e-07  -0.0233169 -0.328864 -4.52995e-06  -0.0162871 -0.336905 3.57628e-07  -0.0233181 -0.328867 -2.98023e-06  -0.0237825 -0.336461 -3.21865e-06  -0.0158269 -0.329316 -3.8147e-06  -0.0237839 -0.336456 -7.03335e-06  -0.0167441 -0.344487 -4.76837e-07  -0.0242467 -0.344034 -6.4373e-06  -0.0172052 -0.352059 -7.15256e-07  -0.0242469 -0.34404 -4.29153e-06  -0.0247085 -0.351615 -4.88758e-06  -0.0167453 -0.34449 -1.54972e-06  -0.024709 -0.351605 -5.84126e-06  -0.0176651 -0.359617 -2.26498e-06  -0.0251694 -0.359167 -7.62939e-06  -0.0181208 -0.367168 -1.66893e-06  -0.0251675 -0.359173 -9.17912e-06  -0.0256262 -0.366726 -6.91414e-06  -0.0176628 -0.359626 -2.26498e-06  -0.0256262 -0.366717 -9.53674e-06  -0.0185742 -0.374703 -1.19209e-07  -0.0260832 -0.37425 -9.29832e-06  -0.0190291 -0.382223 5.96046e-07  -0.0260837 -0.374257 -8.46386e-06  -0.0265367 -0.38178 -7.39098e-06  -0.0185745 -0.374709 -4.05312e-06  -0.0265396 -0.381774 -9.77516e-06  0.000249378 -0.000368953 -6.1512e-05  0.000130735 -0.000286639 -2.96831e-05  0.000635296 -0.00132555 -0.000111341  0.000131153 -0.000269234 -6.17504e-05  0.000335261 -0.0011282 -0.000120759  0 0 0  0 0 0  0.000248358 -0.000352144 -0.000127792  0 0 0  0.00034377 -0.00116128 -5.53131e-05  0.00115818 -0.00278538 -0.000160813  0.000602558 -0.00256115 -8.01086e-05  0.0017454 -0.00460649 -0.000188112  0.000609413 -0.00250769 -0.000167131  0.000912011 -0.00427431 -0.000199318  0.00116433 -0.00272715 -0.000327945  0.000912905 -0.00434577 -9.50098e-05  0.00237793 -0.00678062 -0.000213027  0.00122479 -0.0064975 -0.000106573  0.00301003 -0.00922805 -0.000223041  0.00123608 -0.00640726 -0.000220537  0.00155365 -0.00883466 -0.000229239  0.00239047 -0.00668669 -0.000435948  0.00154725 -0.00893575 -0.000112176  0.00362915 -0.0119487 -0.000229836  0.00184762 -0.011657 -0.000113845  0.00421607 -0.0149205 -0.000227571  0.00185785 -0.0115388 -0.000234723  0.00214338 -0.0145057 -0.000231028  0.00364283 -0.0118305 -0.000467539  0.00213414 -0.0146282 -0.000113487  0.00477046 -0.018137 -0.000225067  0.00239575 -0.0178463 -0.000110149  0.00528723 -0.021592 -0.000220656  0.00240475 -0.0177124 -0.000228047  0.00263822 -0.0211682 -0.000223517  0.00478286 -0.0180033 -0.000462651  0.00263053 -0.0213017 -0.000109315  0.00576454 -0.0252775 -0.000211716  0.00283861 -0.0249876 -0.000104666  0.00619942 -0.0291942 -0.000205398  0.00284582 -0.0248486 -0.000216126  0.00302815 -0.0287662 -0.000208855  0.00577259 -0.0251394 -0.00043869  0.00301927 -0.0289015 -0.000102043  0.00659829 -0.033326 -0.000198483  0.00317192 -0.0330313 -9.71556e-05  0.00695872 -0.0376748 -0.000189304  0.00317878 -0.0328944 -0.000201702  0.0033052 -0.0372431 -0.000193357  0.00660616 -0.0331886 -0.000408649  0.00329924 -0.0373781 -9.34601e-05  0.00728387 -0.0422289 -0.000181556  0.00339764 -0.0419264 -8.97646e-05  0.00757265 -0.046984 -0.000174522  0.00340348 -0.0417936 -0.000186324  0.00347745 -0.0465491 -0.00017941  0.0072906 -0.0420963 -0.000377178  0.00347137 -0.0466757 -8.52346e-05  0.00782502 -0.0519249 -0.000166178  0.00351751 -0.051613 -8.13007e-05  0.00804305 -0.0570559 -0.000158906  0.00352442 -0.0514891 -0.000172973  0.00354731 -0.0566194 -0.000166535  0.00783026 -0.0518029 -0.000346065  0.00354111 -0.0567366 -7.87973e-05  0.00823057 -0.0623578 -0.000150204  0.00353825 -0.0620328 -7.4625e-05  0.00838399 -0.0678321 -0.000142694  0.0035435 -0.0619168 -0.000158191  0.00351787 -0.0673927 -0.000149846  0.0082339 -0.062243 -0.00031662  0.00350928 -0.0674994 -7.09295e-05  0.00850523 -0.0734619 -0.000136137  0.00346124 -0.0731225 -6.79493e-05  0.00859618 -0.0792482 -0.000131488  0.00346661 -0.0730165 -0.000146389  0.00339305 -0.0788027 -0.000140309  0.00850916 -0.0733559 -0.000289559  0.00338614 -0.0789025 -6.60419e-05  0.00865722 -0.0851728 -0.000122905  0.0032897 -0.0848218 -6.12736e-05  0.00868571 -0.0912423 -0.000116348  0.00329566 -0.0847233 -0.000131607  0.00317574 -0.0907906 -0.000124216  0.00865996 -0.0850782 -0.00026238  0.00317299 -0.0908815 -5.48363e-05  0.00868964 -0.0974361 -0.000108838  0.00303233 -0.0970695 -5.40018e-05  0.00866556 -0.103757 -0.000104785  0.0030371 -0.0969819 -0.000118375  0.00287867 -0.103302 -0.000113368  0.00869465 -0.0973498 -0.000236511  0.00287211 -0.103381 -5.23329e-05  0.00861514 -0.110188 -9.82285e-05  0.00269341 -0.10981 -4.8995e-05  0.00853705 -0.116733 -9.17912e-05  0.00269723 -0.10973 -0.000106692  0.0025003 -0.116276 -0.000102878  0.00861835 -0.110111 -0.000214458  0.00249636 -0.116346 -4.63724e-05  0.00843549 -0.123377 -8.74996e-05  0.0022788 -0.122986 -4.33922e-05  0.00830841 -0.130121 -8.11815e-05  0.00228298 -0.122914 -9.41753e-05  0.00204754 -0.12966 -9.09567e-05  0.00843811 -0.12331 -0.000189185  0.00204325 -0.129722 -3.93391e-05  0.00815988 -0.13695 -7.689e-05  0.00179148 -0.136548 -3.79086e-05  0.00798821 -0.143868 -7.11679e-05  0.0017966 -0.136486 -8.55923e-05  0.00152755 -0.143404 -8.03471e-05  0.00816309 -0.136892 -0.0001688  0.00152493 -0.143459 -3.5882e-05  0.00779772 -0.150861 -6.4373e-05  0.00124145 -0.150447 -3.24249e-05  0.00758648 -0.157929 -6.07967e-05  0.00124502 -0.150393 -7.56979e-05  0.000948191 -0.157462 -7.08103e-05  0.00779915 -0.150809 -0.00014782  0.000946045 -0.157509 -3.00407e-05  0.00735903 -0.165059 -5.32866e-05  0.000633478 -0.164638 -2.70605e-05  0.00710702 -0.172257 -5.19753e-05  0.000638723 -0.16459 -6.33001e-05  0.00031352 -0.171788 -6.03199e-05  0.00735784 -0.165016 -0.000129461  0.000310659 -0.171829 -2.47955e-05  0.00684166 -0.179507 -4.54187e-05  -2.57492e-05 -0.179075 -2.38419e-05  0.0065577 -0.186811 -4.11272e-05  -2.47955e-05 -0.179037 -5.72205e-05  -0.000372171 -0.186341 -5.13792e-05  0.00684142 -0.179469 -0.000110269  -0.000372887 -0.186375 -2.09808e-05  0.00626111 -0.19416 -3.77893e-05  -0.000733852 -0.19372 -1.91927e-05  0.00594807 -0.201556 -3.48091e-05  -0.000731707 -0.193688 -4.8995e-05  -0.00110149 -0.201083 -4.24385e-05  0.00625992 -0.194126 -9.38177e-05  -0.00110269 -0.20111 -1.7643e-05  0.00562215 -0.208984 -3.09944e-05  -0.00148129 -0.20854 -1.37091e-05  0.0052824 -0.216452 -2.20537e-05  -0.00147843 -0.208512 -3.76701e-05  -0.00186539 -0.215982 -3.75509e-05  0.00562143 -0.208958 -7.62939e-05  -0.00186586 -0.216003 -1.06096e-05  0.00493026 -0.223944 -2.25306e-05  -0.00226045 -0.223495 -1.00136e-05  0.00456691 -0.231468 -2.13385e-05  -0.00226068 -0.223473 -3.23057e-05  -0.00266576 -0.231002 -2.94447e-05  0.0049305 -0.223924 -6.25849e-05  -0.00266623 -0.231016 -9.77516e-06  0.00419259 -0.23901 -1.64509e-05  -0.00307703 -0.238557 -9.41753e-06  0.00381088 -0.246573 -1.32322e-05  -0.00307655 -0.238541 -2.67029e-05  -0.00349355 -0.246107 -2.40803e-05  0.00419426 -0.238994 -4.92334e-05  -0.0034914 -0.24612 -8.58307e-06  0.0034163 -0.254151 -9.77516e-06  -0.00391436 -0.253698 -4.64916e-06  0.00301576 -0.261743 -7.15256e-06  -0.00391459 -0.25368 -2.03848e-05  -0.00434279 -0.261277 -1.63317e-05  0.00341415 -0.254139 -3.77893e-05  -0.00433993 -0.261286 -8.34465e-07  0.00260901 -0.269344 -4.76837e-06  -0.00477409 -0.268886 -8.34465e-07  0.00219297 -0.276957 -2.86102e-06  -0.00477719 -0.268879 -1.27554e-05  -0.00521207 -0.276491 -1.3113e-05  0.00260878 -0.269336 -2.75373e-05  -0.00520945 -0.276496 -2.74181e-06  0.00177217 -0.284565 5.96046e-07  -0.00564837 -0.284109 1.19209e-07  0.00134516 -0.292181 2.02656e-06  -0.00565052 -0.284101 -8.70228e-06  -0.0060935 -0.291723 -6.55651e-06  0.00176954 -0.28456 -1.90735e-05  -0.00609088 -0.291726 -2.38419e-07  0.000912905 -0.299797 3.21865e-06  -0.0065372 -0.29934 1.90735e-06  0.000477552 -0.307412 2.5034e-06  -0.00653934 -0.299336 -5.126e-06  -0.00698829 -0.306956 -5.96046e-06  0.000912905 -0.299796 -1.29938e-05  -0.00698781 -0.306955 8.34465e-07  3.74317e-05 -0.315023 6.4373e-06  -0.00743866 -0.314565 2.98023e-06  -0.000406504 -0.322628 7.98702e-06  -0.00743771 -0.314562 -3.33786e-06  -0.00788903 -0.322173 -8.34465e-07  3.62396e-05 -0.315021 -3.09944e-06  -0.00788689 -0.322169 3.93391e-06  -0.000853539 -0.330224 5.84126e-06  -0.00833964 -0.329766 4.17233e-06  -0.00129795 -0.337816 8.9407e-06  -0.00833964 -0.329768 1.3113e-06  -0.00879359 -0.337364 5.96046e-07  -0.000852823 -0.330229 1.3113e-06  -0.00879312 -0.337359 2.98023e-06  -0.00174761 -0.345397 9.89437e-06  -0.00924945 -0.344943 2.02656e-06  -0.00220251 -0.352968 9.53674e-06  -0.00925016 -0.344944 1.19209e-06  -0.00970292 -0.35252 4.76837e-06  -0.00175118 -0.345401 6.19888e-06  -0.00970387 -0.352512 3.09944e-06  -0.0026505 -0.360528 1.13249e-05  -0.0101569 -0.360072 5.24521e-06  -0.00310206 -0.368078 1.06096e-05  -0.0101597 -0.360078 3.33786e-06  -0.0106158 -0.367632 4.52995e-06  -0.00265455 -0.360535 8.22544e-06  -0.0106139 -0.367622 3.69549e-06  -0.00355387 -0.375615 9.53674e-06  -0.0110662 -0.375158 3.45707e-06  -0.00400329 -0.383143 9.05991e-06  -0.011066 -0.375162 5.48363e-06  -0.0115147 -0.382686 3.09944e-06  -0.00355411 -0.375622 9.29832e-06  -0.0115159 -0.382679 4.52995e-06  0.000525095 -0.000744879 -0.000121355  0.000385985 -0.000516772 -8.74996e-05  0.00135083 -0.00199109 -0.000221252  0.000387348 -0.000504732 -0.000184059  0.000993207 -0.00155216 -0.000352859  0 0 0  0 0 0  0.000525787 -0.000726938 -0.000246048  0 0 0  0.00100258 -0.0015893 -0.000165701  0.00243436 -0.00367969 -0.000312209  0.00177401 -0.00314879 -0.000232577  0.00364596 -0.00560433 -0.00037086  0.00178879 -0.00309151 -0.000486135  0.00267929 -0.00494701 -0.000582218  0.00244531 -0.00360745 -0.000639558  0.00266659 -0.0050239 -0.000281811  0.00490528 -0.00782931 -0.000415325  0.00360161 -0.00722122 -0.000313997  0.00616702 -0.0102769 -0.000438452  0.00362325 -0.00712585 -0.000650406  0.00456852 -0.0095675 -0.000683308  0.00492769 -0.00772256 -0.0008533  0.00454566 -0.00967592 -0.000333428  0.00739288 -0.0129773 -0.000453353  0.00546882 -0.0123906 -0.000341535  0.008573 -0.0159242 -0.000455737  0.00549057 -0.0122676 -0.000702858  0.00637394 -0.0152272 -0.000700831  0.00741884 -0.0128496 -0.000928044  0.00635421 -0.0153546 -0.000341773  0.00969368 -0.0191116 -0.000449538  0.007195 -0.0185599 -0.000338078  0.010754 -0.0225459 -0.000439763  0.00720936 -0.0184261 -0.000694871  0.00799936 -0.0218729 -0.000677824  0.00971341 -0.0189736 -0.00092268  0.00798512 -0.0220081 -0.000331998  0.0117558 -0.0262102 -0.000428557  0.00872564 -0.0256883 -0.000322461  0.0126961 -0.0301136 -0.000412226  0.00873852 -0.0255464 -0.000658512  0.00942814 -0.0294617 -0.000635624  0.0117705 -0.0260705 -0.000876069  0.0094173 -0.0295975 -0.000309467  0.013579 -0.034234 -0.000397563  0.0100589 -0.033727 -0.000299573  0.014403 -0.038579 -0.000380397  0.0100664 -0.0335904 -0.000615001  0.0106594 -0.0379431 -0.000590444  0.0135868 -0.0340964 -0.000817776  0.0106543 -0.0380757 -0.00028646  0.0151731 -0.0431272 -0.000365376  0.0112007 -0.0426299 -0.000275612  0.0158876 -0.0478823 -0.000352144  0.0112051 -0.0424966 -0.000565886  0.0117064 -0.0472581 -0.000543714  0.0151792 -0.0429944 -0.000754833  0.0117029 -0.0473867 -0.000263333  0.0165496 -0.0528235 -0.000335693  0.0121621 -0.052331 -0.000254154  0.0171603 -0.0579572 -0.000321388  0.0121644 -0.0522049 -0.000520587  0.0125798 -0.0573444 -0.000498295  0.0165519 -0.0527002 -0.000693798  0.0125778 -0.0574632 -0.00024116  0.0177222 -0.0632621 -0.000304341  0.0129521 -0.0627689 -0.000228882  0.0182309 -0.0687371 -0.000289559  0.0129523 -0.0626523 -0.000475287  0.0132855 -0.0681362 -0.000452161  0.0177197 -0.0631463 -0.000633121  0.0132817 -0.0682445 -0.000216722  0.0186942 -0.0743719 -0.000275612  0.0135751 -0.0738798 -0.000208139  0.0191125 -0.0801613 -0.000260949  0.0135776 -0.073773 -0.000433326  0.0138322 -0.07957 -0.000412822  0.0186943 -0.0742674 -0.0005759  0.0138308 -0.0796692 -0.000196934  0.019484 -0.0860921 -0.000248909  0.0140477 -0.0856 -0.000187278  0.0198119 -0.0921654 -0.000236988  0.0140485 -0.0855021 -0.000391483  0.0142293 -0.09158 -0.000373244  0.019483 -0.0859981 -0.00052321  0.0142286 -0.0916705 -0.000176072  0.0200955 -0.0983636 -0.000223994  0.0143723 -0.0978693 -0.000166416  0.0203379 -0.104688 -0.000211477  0.0143743 -0.0977806 -0.000352025  0.0144838 -0.104112 -0.000337005  0.0200946 -0.0982787 -0.000471592  0.0144821 -0.10419 -0.000157118  0.0205419 -0.111125 -0.000198603  0.0145586 -0.110628 -0.00014925  0.0207052 -0.117674 -0.00018537  0.0145597 -0.110549 -0.000317216  0.0146037 -0.117105 -0.000298381  0.0205394 -0.111048 -0.000422478  0.0146017 -0.117177 -0.00013876  0.0208334 -0.124322 -0.000173569  0.014614 -0.123825 -0.000131845  0.0209209 -0.13107 -0.000162721  0.0146161 -0.123755 -0.000282764  0.0145991 -0.130508 -0.00026536  0.0208315 -0.124253 -0.000374794  0.0145991 -0.130571 -0.000123382  0.0209775 -0.137902 -0.000152707  0.0145532 -0.137404 -0.000113964  0.0209985 -0.144823 -0.000142217  0.0145512 -0.137342 -0.000250697  0.0144775 -0.144267 -0.000234008  0.0209759 -0.137842 -0.000332832  0.0144787 -0.144322 -0.000107408  0.0209885 -0.151817 -0.000133634  0.0143778 -0.15132 -9.97782e-05  0.0209446 -0.158888 -0.00011909  0.0143747 -0.151265 -0.000218749  0.0142465 -0.15834 -0.000204325  0.0209849 -0.151767 -0.000290036  0.0142498 -0.158388 -9.08375e-05  0.0208714 -0.166023 -0.000110626  0.0140979 -0.165524 -8.4281e-05  0.0207727 -0.17322 -0.000102639  0.0140963 -0.165476 -0.000187755  0.0139208 -0.172682 -0.000175595  0.0208707 -0.165978 -0.000250697  0.0139244 -0.172719 -7.7486e-05  0.0206466 -0.180472 -9.2864e-05  0.0137272 -0.179973 -7.03335e-05  0.0204899 -0.187779 -8.55923e-05  0.0137255 -0.179933 -0.000161767  0.0135078 -0.187245 -0.00014782  0.0206397 -0.180435 -0.000215054  0.0135086 -0.187279 -6.30617e-05  0.0203085 -0.195128 -7.71284e-05  0.013272 -0.194632 -6.07967e-05  0.0201032 -0.202521 -6.91414e-05  0.0132675 -0.194595 -0.00013721  0.0130095 -0.201997 -0.000125885  0.0203047 -0.195094 -0.000181913  0.0130134 -0.202026 -5.24521e-05  0.0198796 -0.20995 -5.99623e-05  0.0127375 -0.209454 -4.47035e-05  0.0196326 -0.217415 -5.38826e-05  0.0127358 -0.209428 -0.000112534  0.0124445 -0.2169 -0.000101566  0.0198765 -0.209926 -0.000150681  0.0124452 -0.216922 -4.01735e-05  0.019366 -0.224908 -4.70877e-05  0.0121369 -0.224415 -3.39746e-05  0.0190804 -0.232431 -4.1604e-05  0.0121331 -0.224394 -9.16719e-05  0.0118115 -0.231922 -8.15392e-05  0.0193627 -0.224886 -0.000121236  0.0118129 -0.231939 -2.83718e-05  0.0187778 -0.239971 -3.37362e-05  0.0114744 -0.239483 -2.63453e-05  0.018456 -0.247533 -2.86102e-05  0.0114706 -0.239464 -7.21216e-05  0.0111175 -0.247032 -6.35386e-05  0.0187759 -0.239953 -9.53674e-05  0.0111244 -0.247045 -2.20537e-05  0.0181224 -0.255107 -2.30074e-05  0.010761 -0.254623 -1.66893e-05  0.017771 -0.262698 -1.71661e-05  0.0107572 -0.254609 -5.34058e-05  0.0103822 -0.262205 -4.55379e-05  0.0181198 -0.255095 -7.20024e-05  0.0103836 -0.262214 -1.39475e-05  0.0174086 -0.270296 -1.23978e-05  0.0100014 -0.269815 -8.70228e-06  0.0170329 -0.277901 -7.27177e-06  0.00999594 -0.269806 -4.04119e-05  0.00960231 -0.277419 -3.17097e-05  0.0174069 -0.27029 -5.22137e-05  0.00960469 -0.277424 -6.4373e-06  0.0166469 -0.285512 -2.98023e-06  0.00920177 -0.285035 -2.86102e-06  0.0162508 -0.293128 5.96046e-07  0.00920033 -0.285027 -2.63453e-05  0.00878811 -0.292649 -1.90735e-05  0.016645 -0.285507 -3.3021e-05  0.00878978 -0.292652 5.96046e-07  0.0158465 -0.300738 6.4373e-06  0.00837135 -0.300265 1.78814e-06  0.0154319 -0.30835 7.98702e-06  0.00837255 -0.300262 -1.3113e-05  0.0079484 -0.307881 -9.29832e-06  0.0158432 -0.300738 -1.65701e-05  0.00794935 -0.307879 3.8147e-06  0.0150108 -0.315956 9.89437e-06  0.00751805 -0.315489 9.05991e-06  0.0145819 -0.32356 1.28746e-05  0.00751758 -0.315486 -2.14577e-06  0.00708175 -0.323096 -7.15256e-07  0.0150096 -0.315957 -5.84126e-06  0.00708294 -0.323091 8.34465e-06  0.0141501 -0.331154 1.39475e-05  0.00664544 -0.330688 1.15633e-05  0.0137119 -0.338743 1.66893e-05  0.00664401 -0.330691 3.45707e-06  0.00620294 -0.338283 7.86781e-06  0.0141497 -0.331157 5.00679e-06  0.00620556 -0.338278 1.50204e-05  0.0132728 -0.346319 2.0504e-05  0.00575876 -0.345856 1.56164e-05  0.0128248 -0.353893 2.02656e-05  0.00575829 -0.345861 1.12057e-05  0.00530863 -0.353437 1.27554e-05  0.0132706 -0.346324 1.33514e-05  0.00531077 -0.353429 1.49012e-05  0.0123785 -0.361448 2.21729e-05  0.00485969 -0.360988 1.71661e-05  0.0119274 -0.368998 2.45571e-05  0.00485778 -0.360993 1.4782e-05  0.00440526 -0.368547 1.80006e-05  0.012378 -0.361452 1.91927e-05  0.00441098 -0.368539 1.84774e-05  0.0114794 -0.376534 2.63453e-05  0.0039587 -0.376075 1.89543e-05  0.0110316 -0.384064 2.7895e-05  0.00395894 -0.376081 1.85966e-05  0.00351143 -0.383608 1.90735e-05  0.0114768 -0.376541 2.563e-05  0.00351048 -0.383601 1.78814e-05  0.000921622 -0.00163895 -0.000189424  0.000720784 -0.00108612 -0.000139952  0.00241473 -0.00335544 -0.000330091  0.000729598 -0.00108302 -0.000305057  0.00185493 -0.00252223 -0.000572801  0 0 0  0 0 0  0.000935882 -0.00159347 -0.000357151  0 0 0  0.001858 -0.00256437 -0.000270605  0.00418988 -0.00533676 -0.000453711  0.00324103 -0.00439203 -0.000379324  0.00608581 -0.00734758 -0.000543952  0.00326397 -0.00432169 -0.000792265  0.00479883 -0.00629562 -0.000944972  0.00420102 -0.00523931 -0.000935793  0.00477248 -0.00638753 -0.000458002  0.00796518 -0.00953633 -0.00060904  0.00635004 -0.00860119 -0.000511885  0.00981572 -0.0119393 -0.000648379  0.00637808 -0.00848627 -0.00105917  0.0079422 -0.0109157 -0.00111735  0.00799 -0.00941557 -0.00125253  0.0079082 -0.0110382 -0.000547051  0.0116094 -0.0145626 -0.00066936  0.00943002 -0.0137051 -0.000561595  0.0133377 -0.0174503 -0.000673652  0.00945827 -0.0135694 -0.00115204  0.0109167 -0.016489 -0.00115883  0.0116395 -0.0144247 -0.00136876  0.0108902 -0.0166249 -0.000566959  0.0149961 -0.020577 -0.000666738  0.0122848 -0.0197864 -0.000559449  0.0165759 -0.0239669 -0.000655413  0.0123068 -0.0196432 -0.00114536  0.0136296 -0.0230577 -0.00112176  0.0150193 -0.0204333 -0.0013665  0.013611 -0.0231995 -0.000548363  0.0180806 -0.0275922 -0.000637293  0.0148677 -0.0268471 -0.000534415  0.0195106 -0.0314641 -0.000616074  0.014882 -0.0267047 -0.00109172  0.0160653 -0.0305962 -0.00105631  0.018099 -0.0274482 -0.00130546  0.0160551 -0.0307376 -0.000516176  0.0208654 -0.0355603 -0.000595331  0.0171732 -0.0348477 -0.000497937  0.0221421 -0.0398834 -0.000572562  0.0171804 -0.0347073 -0.00101888  0.018232 -0.039047 -0.000979543  0.020874 -0.0354207 -0.00121987  0.0182273 -0.0391815 -0.000477791  0.023348 -0.0444118 -0.000549078  0.0192153 -0.0437238 -0.000459194  0.0244818 -0.049152 -0.000525355  0.019219 -0.0435879 -0.000940681  0.0201421 -0.0483425 -0.000903249  0.0233526 -0.0442792 -0.00112844  0.020142 -0.0484717 -0.000439525  0.0255458 -0.0540805 -0.000501752  0.0210038 -0.0534102 -0.000420213  0.0265399 -0.0592024 -0.00047946  0.0210053 -0.0532839 -0.000865936  0.0218087 -0.0584195 -0.000826001  0.0255474 -0.0539575 -0.00103641  0.0218079 -0.0585371 -0.000402927  0.0274676 -0.0644949 -0.000457644  0.0225543 -0.0638381 -0.000382662  0.0283308 -0.0699632 -0.000435948  0.0225525 -0.0637226 -0.000791311  0.0232414 -0.0692022 -0.000754595  0.0274694 -0.0643814 -0.000947237  0.0232404 -0.0693102 -0.000364423  0.0291313 -0.0755871 -0.000413895  0.0238737 -0.0749418 -0.00034523  0.029868 -0.0813698 -0.000393271  0.0238718 -0.0748367 -0.000717878  0.0244501 -0.0806306 -0.000683904  0.0291302 -0.0754829 -0.000861645  0.0244513 -0.0807301 -0.000327826  0.0305458 -0.087292 -0.000373125  0.0249768 -0.0866587 -0.000311017  0.0311633 -0.0933576 -0.000355244  0.0249745 -0.0865628 -0.000650287  0.0254478 -0.0926411 -0.000618696  0.0305431 -0.0871972 -0.000779271  0.0254505 -0.0927278 -0.000295043  0.0317247 -0.0995464 -0.000334144  0.025874 -0.0989247 -0.00027895  0.0322293 -0.105866 -0.000315666  0.0258725 -0.0988363 -0.000588059  0.0262469 -0.105168 -0.000556231  0.0317236 -0.0994633 -0.000702858  0.0262489 -0.105247 -0.000265479  0.0326796 -0.112295 -0.000297189  0.0265768 -0.111682 -0.000247955  0.03308 -0.118837 -0.000279069  0.0265731 -0.111604 -0.000525236  0.0268577 -0.118157 -0.000496149  0.0326809 -0.11222 -0.000630021  0.0268596 -0.118228 -0.00023222  0.0334293 -0.125479 -0.00026226  0.027099 -0.124874 -0.000218868  0.0337285 -0.132219 -0.00024426  0.0270965 -0.124806 -0.000466943  0.0272915 -0.131557 -0.000439167  0.033428 -0.125412 -0.000560403  0.0272954 -0.131617 -0.000202894  0.0339832 -0.139044 -0.000228882  0.0274496 -0.138451 -0.000190735  0.0341887 -0.145958 -0.000213981  0.0274464 -0.13839 -0.000412345  0.0275614 -0.145315 -0.000385165  0.0339817 -0.138985 -0.000494599  0.0275648 -0.14537 -0.000179768  0.0343547 -0.152946 -0.000197172  0.0276432 -0.152362 -0.000162125  0.0344741 -0.16001 -0.000184417  0.0276401 -0.152307 -0.000361562  0.0276797 -0.159383 -0.000336885  0.0343513 -0.152893 -0.000434399  0.0276842 -0.15943 -0.000154257  0.0345566 -0.167135 -0.000169396  0.0276871 -0.166561 -0.000140309  0.0345972 -0.174326 -0.000154376  0.027684 -0.166515 -0.000311494  0.0276546 -0.173716 -0.000290036  0.034555 -0.167091 -0.000374198  0.0276592 -0.173758 -0.000129104  0.0346007 -0.181567 -0.000140905  0.027597 -0.181006 -0.000118256  0.034565 -0.188867 -0.000128269  0.0275927 -0.180966 -0.00026834  0.0275011 -0.188273 -0.000246644  0.0345972 -0.18153 -0.000320315  0.0275042 -0.188308 -0.000108004  0.0345008 -0.196205 -0.000115037  0.0273814 -0.195655 -9.76324e-05  0.0344021 -0.203594 -0.000103593  0.0273781 -0.195618 -0.00022471  0.0272281 -0.203017 -0.00020504  0.0345006 -0.196175 -0.000270128  0.0272324 -0.203045 -8.7142e-05  0.0342734 -0.211014 -9.33409e-05  0.027056 -0.210471 -7.53403e-05  0.0341148 -0.218473 -8.10623e-05  0.0270519 -0.210445 -0.000186205  0.0268512 -0.21791 -0.00016737  0.0342705 -0.21099 -0.000225306  0.0268517 -0.217933 -6.78301e-05  0.0339258 -0.225959 -7.14064e-05  0.0266271 -0.225424 -5.81741e-05  0.0337121 -0.233469 -6.00815e-05  0.0266247 -0.2254 -0.000148296  0.0263753 -0.232925 -0.000134945  0.0339236 -0.225936 -0.000180721  0.0263779 -0.232941 -5.32866e-05  0.0334735 -0.241001 -4.98295e-05  0.0261102 -0.240479 -4.31538e-05  0.033211 -0.248556 -4.13656e-05  0.0261037 -0.24046 -0.00011766  0.0258167 -0.248024 -0.000101924  0.0334728 -0.240986 -0.000141144  0.0258198 -0.248036 -3.43323e-05  0.0329266 -0.25612 -3.45707e-05  0.0255077 -0.25561 -2.8491e-05  0.0326221 -0.263705 -2.57492e-05  0.0255063 -0.255597 -8.72612e-05  0.0251803 -0.263188 -7.54595e-05  0.0329278 -0.256112 -0.000105619  0.0251815 -0.263195 -2.34842e-05  0.0323009 -0.271293 -1.71661e-05  0.0248404 -0.270789 -1.39475e-05  0.0319607 -0.278893 -8.58307e-06  0.0248361 -0.270782 -6.36578e-05  0.0244796 -0.278389 -4.95911e-05  0.0322976 -0.271288 -7.58171e-05  0.0244846 -0.278393 -1.0252e-05  0.0316036 -0.286492 -3.8147e-06  0.0241132 -0.285999 -4.17233e-06  0.0312312 -0.294102 1.66893e-06  0.0241098 -0.285993 -3.95775e-05  0.0237241 -0.293609 -3.0756e-05  0.031601 -0.286489 -4.63724e-05  0.0237303 -0.293611 2.38419e-07  0.0308452 -0.301706 4.52995e-06  0.0233338 -0.301222 4.76837e-06  0.0304472 -0.309311 1.13249e-05  0.0233331 -0.301218 -2.06232e-05  0.022928 -0.308829 -1.27554e-05  0.0308437 -0.301704 -2.41995e-05  0.0229304 -0.308828 1.0252e-05  0.0300407 -0.31691 1.60933e-05  0.0225179 -0.31643 1.39475e-05  0.0296216 -0.324507 2.09808e-05  0.0225134 -0.316434 -6.79493e-06  0.0220942 -0.324036 3.09944e-06  0.0300372 -0.316912 -5.60284e-06  0.0220966 -0.324034 1.5378e-05  0.0291977 -0.332095 2.32458e-05  0.0216665 -0.331626 2.01464e-05  0.0287647 -0.33968 2.563e-05  0.0216634 -0.331626 8.82149e-06  0.0212293 -0.339216 1.41859e-05  0.0291951 -0.332098 9.05991e-06  0.0212312 -0.339211 2.15769e-05  0.0283251 -0.347252 2.94447e-05  0.0207915 -0.346785 2.31266e-05  0.02788 -0.354822 3.18289e-05  0.020788 -0.346788 1.77622e-05  0.0203447 -0.354361 2.14577e-05  0.0283229 -0.347256 2.03848e-05  0.02035 -0.354355 2.87294e-05  0.0274367 -0.362373 3.5882e-05  0.0199044 -0.36191 2.80142e-05  0.0269864 -0.369922 3.37362e-05  0.0198998 -0.361913 2.64645e-05  0.0194516 -0.369467 3.12328e-05  0.0274327 -0.362378 2.96831e-05  0.0194545 -0.369461 3.18289e-05  0.0265353 -0.377462 3.73125e-05  0.0190032 -0.376999 2.98023e-05  0.0260849 -0.384998 3.88622e-05  0.0189991 -0.377003 3.34978e-05  0.0185475 -0.38454 3.34978e-05  0.0265338 -0.377465 3.8743e-05  0.0185542 -0.38453 3.016e-05  0.00193434 -0.00387681 -0.000257373  0.00133567 -0.00237936 -0.00018096  0.00480571 -0.00606811 -0.000455499  0.00137726 -0.00242251 -0.000443101  0.00331378 -0.0045141 -0.000789881  0 0 0  0 0 0  0.00183029 -0.00371182 -0.000475645  0 0 0  0.00327754 -0.00455129 -0.000372052  0.00714168 -0.00777698 -0.000582218  0.00544143 -0.00649416 -0.000521183  0.00943595 -0.00979221 -0.000714421  0.00544785 -0.00639194 -0.00108314  0.00762436 -0.0083999 -0.00129271  0.00710867 -0.00772941 -0.00122762  0.00759554 -0.00850761 -0.00063169  0.0117858 -0.0117952 -0.000792742  0.00976139 -0.0106191 -0.000703216  0.0140956 -0.0141037 -0.000847936  0.00977942 -0.0104876 -0.00144815  0.0118998 -0.0128298 -0.00153363  0.0118094 -0.0116816 -0.00164425  0.0118682 -0.0129672 -0.000751019  0.0163947 -0.0166273 -0.000875115  0.0139238 -0.0155436 -0.000774145  0.0186263 -0.0194362 -0.000886559  0.0139526 -0.0153958 -0.0015837  0.0159417 -0.01824 -0.00159442  0.0164257 -0.0164804 -0.00179875  0.0159124 -0.0183868 -0.000780582  0.0207959 -0.0224935 -0.000877261  0.0178252 -0.0214828 -0.000775218  0.02288 -0.025826 -0.000865936  0.0178511 -0.0213314 -0.00158465  0.0196828 -0.0246947 -0.00155556  0.0208223 -0.0223402 -0.00180006  0.0196609 -0.0248426 -0.000761867  0.0248767 -0.0294019 -0.000840783  0.0214116 -0.0284464 -0.00074172  0.0267801 -0.0332327 -0.000816822  0.0214299 -0.0282969 -0.00151527  0.0230979 -0.032152 -0.0014689  0.0248973 -0.029251 -0.00172532  0.0230812 -0.0322967 -0.000718236  0.028593 -0.0372868 -0.000790238  0.0246664 -0.0363754 -0.000693202  0.0303156 -0.0415772 -0.000763297  0.0246764 -0.0362321 -0.00141919  0.0261754 -0.0405471 -0.00136638  0.0286086 -0.037142 -0.00161731  0.0261649 -0.0406825 -0.000667095  0.0319477 -0.0460732 -0.000728726  0.0275847 -0.0451981 -0.000639796  0.033489 -0.0507866 -0.000699162  0.0275904 -0.0450633 -0.00131249  0.0289283 -0.0497991 -0.00125945  0.0319577 -0.0459394 -0.0014962  0.0289263 -0.0499244 -0.000614285  0.0349463 -0.0556838 -0.000668168  0.0301884 -0.0548412 -0.000585556  0.0363144 -0.0607848 -0.000638723  0.0301896 -0.0547155 -0.00120664  0.0313737 -0.0598354 -0.00115359  0.0349525 -0.0555614 -0.00137651  0.0313693 -0.0599523 -0.000558496  0.0376017 -0.0660514 -0.000608802  0.0324787 -0.0652353 -0.000532389  0.0388098 -0.0715024 -0.000578165  0.0324806 -0.0651197 -0.00110149  0.0335182 -0.0705877 -0.00105035  0.0376079 -0.0659369 -0.00125742  0.0335152 -0.0706942 -0.00050807  0.0399373 -0.077101 -0.000548124  0.0344789 -0.0763088 -0.000482559  0.0409839 -0.0828676 -0.000523806  0.0344806 -0.0762036 -0.00100291  0.0353749 -0.0819846 -0.000955343  0.0399412 -0.0769977 -0.00114238  0.0353752 -0.0820827 -0.000458121  0.041961 -0.0887649 -0.000496149  0.036199 -0.0879982 -0.000434995  0.0428565 -0.0948153 -0.000473022  0.0361993 -0.0879036 -0.000907183  0.036962 -0.0939685 -0.000863791  0.0419613 -0.0886711 -0.001037  0.0369612 -0.0940529 -0.000414491  0.0436894 -0.100982 -0.000444412  0.0376561 -0.100235 -0.00039053  0.0444465 -0.107285 -0.000421882  0.0376561 -0.100149 -0.000818014  0.0382897 -0.106466 -0.000775814  0.0436893 -0.100898 -0.000931859  0.0382894 -0.106548 -0.000369906  0.0451362 -0.113691 -0.000396252  0.0388632 -0.112967 -0.00034821  0.0457622 -0.120219 -0.000374079  0.0388619 -0.112889 -0.000733256  0.0393775 -0.119434 -0.000690818  0.0451399 -0.113617 -0.000838041  0.0393784 -0.119502 -0.000326633  0.0463287 -0.12684 -0.000349164  0.0398365 -0.126136 -0.000306249  0.0468284 -0.133566 -0.000326514  0.039834 -0.126066 -0.000651956  0.0402369 -0.132808 -0.000612617  0.0463283 -0.126774 -0.000744462  0.0402367 -0.132868 -0.000286341  0.0472736 -0.140371 -0.000303507  0.0405852 -0.139688 -0.000268579  0.0476577 -0.147272 -0.000286698  0.0405881 -0.139624 -0.000576735  0.0408833 -0.146538 -0.000539899  0.0472761 -0.140311 -0.000659347  0.040885 -0.146593 -0.000248075  0.0479906 -0.154237 -0.000262856  0.0411327 -0.153573 -0.000232935  0.0482652 -0.161285 -0.000245214  0.0411298 -0.153523 -0.000505805  0.0413315 -0.160582 -0.000470996  0.0479925 -0.154186 -0.000576496  0.0413327 -0.160629 -0.000215411  0.0484903 -0.168391 -0.00022471  0.0414875 -0.167748 -0.000196576  0.0486631 -0.175568 -0.00020659  0.0414841 -0.167701 -0.000436902  0.0415938 -0.174892 -0.000402808  0.0484934 -0.168346 -0.000498652  0.0415959 -0.174932 -0.000181437  0.0487924 -0.182792 -0.000189781  0.0416605 -0.182168 -0.000165224  0.0488725 -0.190076 -0.000169873  0.0416613 -0.182126 -0.000373125  0.0416873 -0.189423 -0.000341654  0.0487926 -0.182753 -0.000426292  0.0416889 -0.189457 -0.000151396  0.0489163 -0.197396 -0.000154376  0.0416753 -0.19679 -0.000134468  0.0489128 -0.204769 -0.000137448  0.0416739 -0.196757 -0.000314474  0.0416279 -0.204142 -0.000285864  0.0489159 -0.197364 -0.00036025  0.0416265 -0.20417 -0.000120759  0.0488713 -0.212167 -0.000123382  0.0415432 -0.21158 -0.000108838  0.0487914 -0.219613 -0.000108004  0.0415413 -0.211556 -0.000260234  0.0414207 -0.219011 -0.000234485  0.0488732 -0.212145 -0.0002985  0.0414248 -0.219033 -9.4533e-05  0.0486763 -0.22708 -9.65595e-05  0.0412722 -0.226511 -8.23736e-05  0.0485287 -0.234579 -8.02279e-05  0.0412703 -0.226487 -0.000208974  0.04109 -0.234 -0.000185609  0.0486763 -0.227054 -0.000240922  0.0410905 -0.234016 -6.98566e-05  0.0483434 -0.242093 -6.56843e-05  0.0408816 -0.241541 -5.93662e-05  0.0481281 -0.249635 -5.54323e-05  0.0408807 -0.241523 -0.000163078  0.0406439 -0.249078 -0.000141025  0.0483415 -0.242077 -0.000186682  0.0406456 -0.24909 -4.95911e-05  0.0478859 -0.257185 -4.44651e-05  0.0403829 -0.256649 -4.11272e-05  0.0476201 -0.264758 -3.51667e-05  0.0403814 -0.256639 -0.000123143  0.0400968 -0.264219 -0.000104189  0.0478871 -0.257174 -0.000141263  0.0401011 -0.264224 -3.1352e-05  0.0473306 -0.272327 -2.30074e-05  0.0397947 -0.271808 -2.0504e-05  0.0470126 -0.279914 -1.65701e-05  0.0397928 -0.271799 -8.55923e-05  0.039465 -0.279396 -6.99759e-05  0.0473285 -0.272322 -0.000100851  0.0394659 -0.279401 -1.39475e-05  0.0466728 -0.287501 -5.24521e-06  0.0391214 -0.286998 -6.67572e-06  0.0463185 -0.295097 2.74181e-06  0.0391202 -0.286992 -5.55515e-05  0.0387566 -0.294597 -4.06504e-05  0.0466781 -0.287496 -6.29425e-05  0.0387599 -0.294597 1.3113e-06  0.0459468 -0.302688 8.22544e-06  0.0383813 -0.302196 7.15256e-06  0.0455532 -0.310282 1.64509e-05  0.038379 -0.302195 -2.83718e-05  0.0379848 -0.309798 -1.58548e-05  0.045943 -0.302687 -3.43323e-05  0.0379872 -0.309796 1.23978e-05  0.0451488 -0.317868 2.15769e-05  0.0375814 -0.317391 1.8239e-05  0.0447309 -0.325458 2.70605e-05  0.0375803 -0.317392 -5.72205e-06  0.0371654 -0.324989 5.00679e-06  0.0451479 -0.317873 -9.05991e-06  0.037164 -0.324982 2.49147e-05  0.0443041 -0.333036 3.31402e-05  0.0367403 -0.332568 2.86102e-05  0.0438685 -0.340613 3.65973e-05  0.0367401 -0.332568 1.27554e-05  0.0363059 -0.340155 1.85966e-05  0.0443046 -0.33304 1.14441e-05  0.0363095 -0.340146 3.27826e-05  0.0434251 -0.348178 3.68357e-05  0.0358679 -0.347719 3.23057e-05  0.0429742 -0.355742 4.08888e-05  0.0358658 -0.34772 2.55108e-05  0.0354195 -0.355289 3.0756e-05  0.0434225 -0.348184 2.61068e-05  0.0354238 -0.355284 3.54052e-05  0.0425222 -0.363297 4.68493e-05  0.0349743 -0.362837 4.1604e-05  0.0420647 -0.370843 4.70877e-05  0.0349712 -0.36284 3.71933e-05  0.0345206 -0.370389 4.06504e-05  0.0425189 -0.363299 3.92199e-05  0.0345225 -0.370382 4.05312e-05  0.0416136 -0.378387 4.73261e-05  0.0340703 -0.377923 4.26769e-05  0.0411563 -0.385928 4.87566e-05  0.0340688 -0.377927 4.50611e-05  0.0336161 -0.385471 4.55379e-05  0.04161 -0.378386 4.94719e-05  0.0336185 -0.385464 4.75645e-05  -0.00089037 -0.00136333 0.000572324  -0.00114501 -0.00204771 0.000695944  -0.00244632 -0.00311162 0.00106299  -0.00121542 -0.00200947 0.000943065  -0.00332439 -0.00404084 0.00173628  -0.00257239 -0.00353431 0.00110459  0 0 0  -0.00270195 -0.00368622 0.000775456  0 0 0  0 0 0  -0.000888646 -0.00126156 0.000820518  0 0 0  -0.00499066 -0.00559082 0.00141585  -0.00336699 -0.0042489 0.00123632  -0.00422698 -0.00481018 0.00147593  -0.00550655 -0.00594589 0.00170505  -0.00609335 -0.00663279 0.00175929  -0.00550942 -0.00567339 0.00236475  -0.00770864 -0.00740904 0.002792  -0.00717212 -0.00688328 0.00268364  -0.00719769 -0.00715133 0.00195932  -0.00427847 -0.00456923 0.00203741  -0.009508 -0.00891063 0.00232112  -0.00766174 -0.00772448 0.00203931  -0.00798827 -0.00865696 0.00195527  -0.00981879 -0.00964088 0.00226891  -0.00983983 -0.0108806 0.00207555  -0.0098677 -0.0092851 0.00309217  -0.0120017 -0.011426 0.00325716  -0.0119012 -0.0103532 0.00351965  -0.0118672 -0.0107312 0.00259209  -0.00805467 -0.00832292 0.00266445  -0.0142366 -0.0128476 0.00274658  -0.0119407 -0.0118052 0.00240862  -0.0116563 -0.0133721 0.00213027  -0.0140355 -0.0142232 0.00247478  -0.0134262 -0.016115 0.0021435  -0.0140813 -0.0138276 0.003335  -0.0161157 -0.0165119 0.0033462  -0.0166354 -0.0147837 0.00380182  -0.0165937 -0.0151949 0.00282311  -0.0117059 -0.0129985 0.00286961  -0.0189067 -0.0178227 0.00284243  -0.0160778 -0.0169076 0.00249064  -0.0151465 -0.0191198 0.00212109  -0.0180739 -0.0198587 0.00246632  -0.0168248 -0.0223778 0.00208056  -0.0180948 -0.0194634 0.00330484  -0.0200209 -0.0226766 0.00323474  -0.0211905 -0.0203074 0.00376892  -0.0211698 -0.0207158 0.00281262  -0.0151665 -0.0187388 0.00283766  -0.0233688 -0.0238638 0.00276148  -0.0200112 -0.0230629 0.00241911  -0.0184545 -0.0258806 0.00202072  -0.0218984 -0.0265211 0.00235188  -0.0200424 -0.0296223 0.00195444  -0.0218924 -0.0261411 0.00314021  -0.0237111 -0.0298454 0.00303912  -0.0255032 -0.0268817 0.00358748  -0.0255027 -0.0272679 0.00268459  -0.0184445 -0.025511 0.00269675  -0.0275754 -0.030908 0.00259995  -0.0237276 -0.0302134 0.00227499  -0.0215825 -0.0335917 0.00188076  -0.0255056 -0.0341418 0.00219107  -0.0230836 -0.0377812 0.00180638  -0.0254774 -0.0337836 0.00292587  -0.0271939 -0.0379426 0.00281084  -0.0295617 -0.0344246 0.00334132  -0.0295831 -0.0347873 0.00250089  -0.0215509 -0.0332404 0.00251019  -0.0315295 -0.0388812 0.00240529  -0.0272273 -0.0382858 0.00210547  -0.024539 -0.0421823 0.00173151  -0.0289028 -0.0426474 0.00201833  -0.0259582 -0.0467846 0.00165629  -0.0288616 -0.0423138 0.00269449  -0.0304807 -0.0468888 0.00257945  -0.0333827 -0.042863 0.00307858  -0.0334108 -0.0431981 0.00230682  -0.0244935 -0.0418534 0.00230837  -0.0352403 -0.0477084 0.0022105  -0.030525 -0.0472061 0.00193274  -0.0273395 -0.0515803 0.00158179  -0.0321029 -0.0519634 0.00184655  -0.028686 -0.0565615 0.00151145  -0.0320542 -0.0516594 0.00246644  -0.033584 -0.0566143 0.00235546  -0.0369687 -0.0521178 0.0028187  -0.0370077 -0.0524246 0.00211179  -0.0272871 -0.0512781 0.00211239  -0.0387253 -0.0573189 0.00201643  -0.0336336 -0.0569034 0.00176263  -0.0299951 -0.0617196 0.00144053  -0.035121 -0.0620262 0.00168133  -0.0312688 -0.0670474 0.00137174  -0.0350705 -0.0617489 0.00224566  -0.0365137 -0.0670525 0.00214016  -0.0403438 -0.0621236 0.00256801  -0.0403855 -0.0623986 0.00192142  -0.0299363 -0.0614428 0.00192535  -0.0420012 -0.067646 0.00183201  -0.036566 -0.0673152 0.0016005  -0.0325084 -0.0725371 0.0013051  -0.0379697 -0.0727706 0.00152433  -0.0337172 -0.0781835 0.00124168  -0.0379176 -0.0725174 0.00203836  -0.0392818 -0.0781405 0.00193846  -0.0435169 -0.0728114 0.0023334  -0.0435598 -0.0730623 0.0017457  -0.0324527 -0.0722841 0.00174499  -0.0450749 -0.0786308 0.00166059  -0.0393323 -0.07838 0.00145078  -0.0348948 -0.0839751 0.00117946  -0.0406563 -0.0841369 0.00137699  -0.0360423 -0.0899057 0.00111723  -0.0406046 -0.0839083 0.00184166  -0.0418916 -0.0898177 0.00174809  -0.0464966 -0.0841238 0.00210953  -0.0465399 -0.084351 0.00157487  -0.0348401 -0.083747 0.00157702  -0.0479616 -0.0902104 0.00149643  -0.0419422 -0.0900349 0.00130534  -0.0371594 -0.0959684 0.00105989  -0.043192 -0.0960671 0.00123763  -0.0382487 -0.102161 0.00100422  -0.0431428 -0.095861 0.00165713  -0.0443567 -0.10203 0.00156987  -0.0492983 -0.0960031 0.00189614  -0.0493398 -0.096206 0.00141585  -0.0371069 -0.0957622 0.00141799  -0.0506756 -0.102328 0.00134099  -0.0444051 -0.102223 0.00117183  -0.0393076 -0.108471 0.000947833  -0.0455816 -0.108505 0.00110626  -0.0403405 -0.114893 0.000894666  -0.0455365 -0.108318 0.00148356  -0.0466805 -0.114723 0.00139904  -0.0519284 -0.108392 0.00169718  -0.0519658 -0.108575 0.00126696  -0.0392575 -0.108285 0.00126898  -0.0532155 -0.114932 0.00119662  -0.046725 -0.114895 0.00104272  -0.0413443 -0.12142 0.000841498  -0.0478365 -0.121395 0.00098443  -0.0423244 -0.12805 0.000792265  -0.0477918 -0.121232 0.00131977  -0.0488708 -0.127844 0.00124371  -0.0543938 -0.12124 0.00151026  -0.0544275 -0.121402 0.00112402  -0.0412977 -0.121257 0.00112855  -0.0556037 -0.127971 0.00106156  -0.0489125 -0.127994 0.000924945  -0.0432793 -0.134771 0.000741482  -0.0499587 -0.134692 0.000867844  -0.0442077 -0.141584 0.00069499  -0.0499161 -0.134545 0.00116515  -0.0509337 -0.141343 0.00109351  -0.056702 -0.134493 0.00133526  -0.0567356 -0.134638 0.000992775  -0.0432342 -0.134629 0.000998855  -0.0578346 -0.141395 0.00093019  -0.0509727 -0.141476 0.000812531  -0.045109 -0.148476 0.000650048  -0.0519564 -0.148344 0.000759959  -0.0459874 -0.155447 0.000606418  -0.0519192 -0.148216 0.00102115  -0.0528741 -0.155172 0.000953674  -0.0588634 -0.148108 0.00117135  -0.0588925 -0.148235 0.000873089  -0.0450678 -0.148347 0.000871778  -0.0599194 -0.155152 0.000812769  -0.0529084 -0.155288 0.000708461  -0.0468409 -0.162488 0.000561953  -0.0538359 -0.162311 0.000657201  -0.0476732 -0.169596 0.000522375  -0.0537992 -0.162198 0.000888348  -0.0546989 -0.169295 0.000824809  -0.0608835 -0.162039 0.00101507  -0.0609093 -0.162147 0.000754356  -0.046803 -0.162377 0.000759482  -0.0618696 -0.169208 0.000702262  -0.0547271 -0.169394 0.000611305  -0.0484807 -0.176763 0.000483155  -0.055599 -0.176541 0.000563025  -0.0492716 -0.183989 0.000443578  -0.0555699 -0.176449 0.000763297  -0.0564165 -0.183663 0.000701427  -0.0627701 -0.176242 0.0008744  -0.0627966 -0.176334 0.000647306  -0.0484469 -0.176669 0.000651002  -0.0636892 -0.183516 0.000598669  -0.0564418 -0.183747 0.000520825  -0.0500345 -0.191265 0.000408649  -0.0572617 -0.191007 0.000476599  -0.0507827 -0.198589 0.000373602  -0.0572314 -0.190927 0.000647545  -0.0580225 -0.198239 0.000591993  -0.0645308 -0.190678 0.000741005  -0.0645523 -0.190755 0.000546932  -0.0500057 -0.191187 0.000551343  -0.0653889 -0.198041 0.000499964  -0.0580504 -0.198312 0.00043571  -0.0515037 -0.205953 0.000340343  -0.0588162 -0.205659 0.000398874  -0.0522091 -0.213359 0.00030756  -0.058789 -0.205593 0.000540018  -0.0595348 -0.212991 0.000490308  -0.0661719 -0.205306 0.000617743  -0.0661922 -0.205371 0.000456452  -0.051477 -0.205888 0.000460029  -0.0669689 -0.21274 0.000414491  -0.0595582 -0.213047 0.000361204  -0.0528924 -0.220794 0.000273228  -0.0602775 -0.220468 0.000323057  -0.053561 -0.228266 0.000247598  -0.0602567 -0.220417 0.000441313  -0.0609541 -0.227877 0.000395894  -0.0677013 -0.220097 0.000505567  -0.0677159 -0.220144 0.00037241  -0.0528686 -0.220741 0.000375509  -0.0684447 -0.227588 0.000332832  -0.0609746 -0.227925 0.000288606  -0.0542068 -0.235758 0.000219464  -0.0616512 -0.235407 0.000256538  -0.054841 -0.243279 0.000192285  -0.0616324 -0.235365 0.000352502  -0.0622897 -0.242875 0.000312209  -0.0691266 -0.235016 0.000404477  -0.0691433 -0.235054 0.000292182  -0.0541885 -0.235717 0.000300646  -0.0698187 -0.242546 0.00025928  -0.062305 -0.242912 0.000225306  -0.0554554 -0.250815 0.000169992  -0.0629404 -0.25044 0.000195861  -0.0560584 -0.258371 0.000144243  -0.0629263 -0.250406 0.000272393  -0.0635431 -0.257957 0.000237703  -0.0704579 -0.250026 0.000313759  -0.0704722 -0.250062 0.000225663  -0.0554392 -0.250783 0.000233531  -0.071104 -0.257595 0.000193954  -0.0635562 -0.257984 0.000168562  -0.056643 -0.265937 0.000122547  -0.0641561 -0.265541 0.000145078  -0.0572147 -0.273516 0.000101447  -0.0641439 -0.265517 0.000203371  -0.0647266 -0.273092 0.000171185  -0.0716991 -0.265118 0.000232816  -0.071712 -0.265139 0.000166416  -0.0566282 -0.265913 0.000172377  -0.0723009 -0.272699 0.000139356  -0.0647373 -0.27311 0.000118971  -0.0577695 -0.2811 8.21352e-05  -0.0653043 -0.280689 9.50098e-05  -0.0583122 -0.288691 6.59227e-05  -0.0652933 -0.28067 0.000142097  -0.0658448 -0.288258 0.000114202  -0.0728645 -0.280255 0.000161171  -0.0728736 -0.280267 0.000112772  -0.0577562 -0.281082 0.000121117  -0.0734301 -0.287849 8.88109e-05  -0.0658541 -0.288271 7.59363e-05  -0.0588431 -0.296285 4.94719e-05  -0.0663934 -0.295859 5.6982e-05  -0.059365 -0.303882 3.3617e-05  -0.0663829 -0.295847 9.07183e-05  -0.0669076 -0.303445 6.55651e-05  -0.0739625 -0.295415 9.89437e-05  -0.0739682 -0.295425 6.54459e-05  -0.0588331 -0.296277 7.28369e-05  -0.0744939 -0.303009 4.56572e-05  -0.0669162 -0.303447 4.00543e-05  -0.0598745 -0.311475 1.80006e-05  -0.0674255 -0.311038 2.563e-05  -0.0603755 -0.319066 9.77516e-06  -0.0674226 -0.311033 4.47035e-05  -0.0679221 -0.318623 2.74181e-05  -0.0749972 -0.310588 5.31673e-05  -0.075002 -0.310591 3.17097e-05  -0.0598638 -0.311469 3.8147e-05  -0.0755002 -0.31818 1.50204e-05  -0.0679283 -0.318626 1.14441e-05  -0.0608678 -0.326653 -1.54972e-06  -0.0684211 -0.326206 -9.53674e-07  -0.0613513 -0.334232 -1.18017e-05  -0.0684121 -0.326206 1.13249e-05  -0.0688953 -0.333787 -4.41074e-06  -0.0759792 -0.325756 1.52588e-05  -0.0759897 -0.325754 1.19209e-07  -0.0608604 -0.32665 7.03335e-06  -0.0764685 -0.33333 -1.32322e-05  -0.0689011 -0.333784 -1.2517e-05  -0.0618286 -0.341803 -1.90735e-05  -0.0693779 -0.341355 -2.09808e-05  -0.0623035 -0.349372 -2.58684e-05  -0.0693731 -0.341359 -1.44243e-05  -0.0698419 -0.348924 -2.40803e-05  -0.0769305 -0.340902 -1.62125e-05  -0.0769374 -0.340895 -2.22921e-05  -0.0618229 -0.341805 -1.34706e-05  -0.0774035 -0.348459 -3.12328e-05  -0.0698464 -0.348917 -2.69413e-05  -0.0627689 -0.356927 -3.09944e-05  -0.0703113 -0.356475 -3.3617e-05  -0.0632336 -0.364475 -3.74317e-05  -0.0703063 -0.356479 -3.26633e-05  -0.0707679 -0.364031 -4.02927e-05  -0.0778525 -0.356021 -3.51667e-05  -0.0778599 -0.356017 -3.49283e-05  -0.0627615 -0.356932 -3.11136e-05  -0.0783162 -0.363569 -4.33922e-05  -0.0707703 -0.364025 -3.95775e-05  -0.0636911 -0.372017 -3.94583e-05  -0.0712295 -0.371566 -4.64916e-05  -0.0641549 -0.379554 -4.8995e-05  -0.0712242 -0.37157 -4.74453e-05  -0.0716817 -0.379109 -5.29289e-05  -0.0787618 -0.371116 -4.85182e-05  -0.0787687 -0.371109 -5.11408e-05  -0.0636873 -0.372023 -4.48227e-05  -0.0792274 -0.378651 -5.29289e-05  -0.0716856 -0.379104 -5.24521e-05  -0.00051178 -0.00060223 0.000385046  -0.00065637 -0.00090085 0.000483751  -0.00135298 -0.00169645 0.000722528  -0.000656899 -0.000831574 0.000682116  -0.00179576 -0.00211838 0.00124717  0 0 0  0 0 0  -0.000518665 -0.000533447 0.00054574  0 0 0  -0.00174767 -0.00224772 0.00090456  -0.00239266 -0.00322436 0.000999093  -0.00319673 -0.00390759 0.00123882  -0.00358675 -0.00506304 0.00119579  -0.00325271 -0.00369553 0.00172019  -0.00481245 -0.00549349 0.00203037  -0.0024403 -0.00304832 0.00138366  -0.00473855 -0.00575505 0.00147855  -0.00483024 -0.00714029 0.00132644  -0.00631446 -0.00781213 0.00164557  -0.00608745 -0.0094824 0.00140667  -0.00638351 -0.00750899 0.00224185  -0.00794506 -0.00977884 0.00235915  -0.00489154 -0.00686479 0.00180781  -0.00788069 -0.0101097 0.00174248  -0.00732383 -0.0120698 0.00143921  -0.00941476 -0.0126519 0.00178862  -0.00853467 -0.0149152 0.00144684  -0.00946176 -0.0122994 0.002406  -0.0109423 -0.0150913 0.00241065  -0.00736621 -0.0117378 0.00193799  -0.0109107 -0.0154518 0.00179601  -0.00971162 -0.0180109 0.00142872  -0.0123653 -0.018504 0.00177622  -0.0108615 -0.0213547 0.00139749  -0.0123802 -0.018137 0.00237429  -0.0137801 -0.0214429 0.00232279  -0.00972509 -0.0176566 0.00190914  -0.0137785 -0.0218061 0.00173771  -0.0119779 -0.0249375 0.00135446  -0.0151566 -0.025354 0.00168705  -0.0130691 -0.0287551 0.00130999  -0.0151427 -0.0249907 0.00225282  -0.0164711 -0.0287818 0.00217712  -0.011963 -0.0245825 0.00180733  -0.0164941 -0.0291365 0.0016315  -0.0141347 -0.0327981 0.00125825  -0.0178 -0.0331447 0.00156963  -0.0151784 -0.0370599 0.00120831  -0.0177665 -0.0327964 0.00209427  -0.0190309 -0.0370369 0.00201142  -0.0141023 -0.0324551 0.00167775  -0.0190715 -0.0373714 0.00150716  -0.0161979 -0.0415255 0.00115657  -0.0203128 -0.0418083 0.00144482  -0.017197 -0.0461959 0.00110745  -0.020266 -0.0414824 0.00192618  -0.0214714 -0.0461348 0.00184298  -0.0161532 -0.041202 0.00154185  -0.0215219 -0.0464471 0.00138271  -0.0181761 -0.0510553 0.00105774  -0.0227052 -0.0512774 0.00131905  -0.0191371 -0.0561046 0.0010066  -0.0226513 -0.0509759 0.00176072  -0.023802 -0.0560058 0.00168133  -0.0181265 -0.0507565 0.0014087  -0.0238587 -0.0562938 0.00125825  -0.0200799 -0.0613262 0.00096035  -0.0249857 -0.0614856 0.00119925  -0.0210065 -0.0667181 0.000912786  -0.0249299 -0.0612098 0.00160444  -0.0260305 -0.0665846 0.00152469  -0.0200261 -0.0610489 0.00128114  -0.0260882 -0.0668469 0.00113976  -0.0219131 -0.0722664 0.000868559  -0.0271646 -0.0723714 0.00108516  -0.0228062 -0.0779736 0.000824571  -0.0271081 -0.0721165 0.00145352  -0.0281583 -0.0778073 0.00138104  -0.0218607 -0.0720147 0.00116098  -0.0282143 -0.0780464 0.00103199  -0.0236825 -0.083822 0.000784039  -0.0292436 -0.0838703 0.000981569  -0.024545 -0.0898113 0.000741839  -0.0291867 -0.0836392 0.00131273  -0.0301939 -0.089615 0.00124431  -0.0236307 -0.0835927 0.00104702  -0.0302495 -0.0898308 0.000929356  -0.0253896 -0.0959291 0.000702858  -0.0312295 -0.0959251 0.000880718  -0.0262207 -0.102175 0.000666976  -0.0311787 -0.0957157 0.00117981  -0.0321414 -0.101951 0.00111783  -0.0253402 -0.0957226 0.000940442  -0.032191 -0.102144 0.000833154  -0.0270369 -0.108537 0.000629425  -0.0331309 -0.108484 0.000788093  -0.027841 -0.115009 0.000592947  -0.0330809 -0.108294 0.00105453  -0.0340011 -0.114756 0.000996113  -0.0269909 -0.108349 0.000840902  -0.0340484 -0.114929 0.000742435  -0.0286279 -0.121585 0.00055778  -0.0349479 -0.121483 0.000699401  -0.0294017 -0.128263 0.000525475  -0.0349005 -0.12132 0.000939012  -0.0357785 -0.127985 0.000882864  -0.0285832 -0.12142 0.000745654  -0.0358244 -0.128138 0.000659347  -0.0301613 -0.13503 0.000493765  -0.0366838 -0.134885 0.000618458  -0.0309091 -0.141888 0.000460982  -0.0366397 -0.134739 0.000829935  -0.0374784 -0.141586 0.000777245  -0.0301201 -0.134885 0.000660658  -0.0375203 -0.141718 0.000577092  -0.0316424 -0.148822 0.000431776  -0.038341 -0.148635 0.000539899  -0.0323644 -0.155835 0.000401855  -0.0383005 -0.148505 0.000726938  -0.0391018 -0.15551 0.000679016  -0.0316055 -0.148697 0.00058043  -0.0391419 -0.155626 0.000504255  -0.0330706 -0.162913 0.000373125  -0.039927 -0.16269 0.00046742  -0.0337667 -0.17006 0.00034523  -0.0398862 -0.162577 0.000632286  -0.0406547 -0.169716 0.000585198  -0.033035 -0.162803 0.000503063  -0.0406885 -0.169816 0.00043571  -0.0344453 -0.177263 0.000320196  -0.0414357 -0.177004 0.000401139  -0.0351176 -0.184524 0.000294089  -0.0414026 -0.176908 0.000542164  -0.0421319 -0.18416 0.000499725  -0.0344152 -0.177168 0.000429511  -0.0421648 -0.184246 0.000368953  -0.0357728 -0.191829 0.000272989  -0.0428777 -0.19154 0.000338554  -0.0364211 -0.199184 0.000247002  -0.0428476 -0.19146 0.000459552  -0.0435421 -0.198809 0.000419259  -0.0357442 -0.191749 0.000364423  -0.0435724 -0.198879 0.000309348  -0.0370505 -0.206576 0.000225067  -0.0442538 -0.206261 0.000283718  -0.0376742 -0.214012 0.000203252  -0.0442257 -0.206191 0.000385284  -0.0448909 -0.213618 0.000346661  -0.0370252 -0.206509 0.000302911  -0.0449176 -0.213679 0.000252843  -0.0382829 -0.221474 0.000182867  -0.0455699 -0.221132 0.000226378  -0.0388839 -0.228967 0.000161767  -0.0455439 -0.221074 0.000310779  -0.0461776 -0.228561 0.000280619  -0.0382607 -0.221417 0.00024879  -0.0462015 -0.22861 0.000204563  -0.0394704 -0.236481 0.000144839  -0.0468206 -0.236117 0.000179529  -0.0400484 -0.244023 0.000125289  -0.0467985 -0.236071 0.000249267  -0.0474079 -0.243609 0.000219822  -0.0394535 -0.236437 0.000197291  -0.0474267 -0.243647 0.000158906  -0.0406156 -0.251578 0.000110865  -0.048017 -0.251193 0.000140309  -0.041173 -0.259152 9.53674e-05  -0.0480011 -0.251159 0.000193357  -0.048583 -0.258732 0.000167489  -0.0405996 -0.251544 0.000152588  -0.0485973 -0.258759 0.000120759  -0.0417228 -0.266732 8.08239e-05  -0.0491674 -0.266334 0.000100136  -0.0422616 -0.27433 6.83069e-05  -0.0491529 -0.266309 0.000143766  -0.0497093 -0.273902 0.000119328  -0.0417085 -0.266707 0.000113726  -0.04972 -0.273921 8.40425e-05  -0.0427909 -0.281926 5.40018e-05  -0.0502682 -0.281514 6.77109e-05  -0.0433128 -0.289531 4.24385e-05  -0.0502546 -0.281494 9.89437e-05  -0.0507884 -0.289098 7.85589e-05  -0.0427814 -0.281909 7.84397e-05  -0.0507994 -0.28911 5.22137e-05  -0.043824 -0.297133 3.17097e-05  -0.0513251 -0.29671 4.07696e-05  -0.0443337 -0.304741 1.96695e-05  -0.0513151 -0.2967 6.35386e-05  -0.0518305 -0.304308 4.47035e-05  -0.0438161 -0.297123 4.73261e-05  -0.0518391 -0.304311 2.64645e-05  -0.0448315 -0.312339 1.32322e-05  -0.052345 -0.311909 1.51396e-05  -0.0453258 -0.319943 3.8147e-06  -0.0523357 -0.311903 3.1352e-05  -0.0528345 -0.319503 1.88351e-05  -0.0448256 -0.312336 2.25306e-05  -0.0528431 -0.319505 6.67572e-06  -0.0458114 -0.327533 -1.3113e-06  -0.0533335 -0.327095 -1.43051e-06  -0.0462976 -0.335122 -7.62939e-06  -0.0533271 -0.327093 6.19888e-06  -0.0538108 -0.33468 -2.5034e-06  -0.0458059 -0.327532 4.64916e-06  -0.053817 -0.334679 -1.16825e-05  -0.0467725 -0.342696 -1.33514e-05  -0.0542958 -0.342252 -1.75238e-05  -0.0472393 -0.350267 -1.49012e-05  -0.0542889 -0.342253 -1.12057e-05  -0.0547609 -0.349823 -1.81198e-05  -0.0467627 -0.3427 -1.16825e-05  -0.0547674 -0.349819 -2.15769e-05  -0.0477071 -0.357826 -2.11e-05  -0.0552344 -0.357378 -2.64645e-05  -0.0481679 -0.365376 -2.43187e-05  -0.0552287 -0.357381 -2.75373e-05  -0.0556898 -0.364932 -2.96831e-05  -0.0477028 -0.357831 -2.24113e-05  -0.0556958 -0.364927 -3.02792e-05  -0.0486307 -0.372912 -3.06368e-05  -0.0561569 -0.372467 -3.93391e-05  -0.0490885 -0.38044 -3.37362e-05  -0.0561523 -0.37247 -3.91006e-05  -0.0566139 -0.380003 -4.6134e-05  -0.0486236 -0.372916 -3.38554e-05  -0.0566144 -0.379998 -3.96967e-05  -0.000233337 -0.000279248 0.000191689  -0.000358004 -0.000400931 0.000292063  -0.000608869 -0.00112537 0.00036335  -0.000360962 -0.000346243 0.000414371  -0.000954986 -0.00122949 0.000757694  0 0 0  0 0 0  -0.000235692 -0.000225157 0.00027132  0 0 0  -0.000927702 -0.00134289 0.000544548  -0.00107844 -0.00248522 0.000502586  -0.00168595 -0.00278011 0.000751972  -0.00164112 -0.00422987 0.000608206  -0.00172092 -0.00261179 0.00104809  -0.00260065 -0.00434351 0.00124192  -0.00110151 -0.00233078 0.000699162  -0.00254355 -0.00455746 0.000904202  -0.00223607 -0.00630784 0.000673056  -0.00347725 -0.00664341 0.00100315  -0.002859 -0.00868815 0.00071311  -0.0035252 -0.00638354 0.00136876  -0.00446481 -0.00871649 0.00143778  -0.00226891 -0.00606641 0.000917077  -0.00441536 -0.00900567 0.00106359  -0.003479 -0.011336 0.000731349  -0.0053539 -0.0116312 0.00108898  -0.00409991 -0.0142474 0.000733733  -0.00538611 -0.0113129 0.00146508  -0.00629303 -0.0141806 0.00146353  -0.00350162 -0.0110316 0.000981569  -0.0062699 -0.0145122 0.00109231  -0.00471097 -0.0174047 0.000722408  -0.00716937 -0.0176439 0.00107741  -0.00530976 -0.0208119 0.000706673  -0.00717521 -0.0172993 0.00143898  -0.00804007 -0.020675 0.00140512  -0.00470972 -0.0170697 0.000965834  -0.0080446 -0.0210208 0.00105274  -0.00590307 -0.0244519 0.000684381  -0.00890273 -0.0246379 0.00102139  -0.00648969 -0.0283264 0.000659585  -0.00888586 -0.0242869 0.00135958  -0.00971711 -0.0281436 0.00131273  -0.00588584 -0.0241092 0.000910282  -0.00974226 -0.0284844 0.000984311  -0.00707036 -0.0324188 0.000633478  -0.0105669 -0.0325565 0.000946164  -0.0076499 -0.0367331 0.000607848  -0.0105343 -0.032217 0.00126147  -0.0113404 -0.0365157 0.00121045  -0.00704211 -0.0320841 0.000843048  -0.011376 -0.0368447 0.000908494  -0.00822413 -0.0412486 0.00058043  -0.0121764 -0.0413407 0.000868917  -0.00879705 -0.0459686 0.000553727  -0.0121347 -0.0410178 0.001158  -0.0129172 -0.0457273 0.0011071  -0.00818688 -0.0409286 0.000771761  -0.0129622 -0.0460363 0.000829697  -0.00936639 -0.0508756 0.00052619  -0.0137383 -0.0509235 0.000791073  -0.00993598 -0.055971 0.000502229  -0.0136914 -0.0506224 0.00105536  -0.0144546 -0.05571 0.00100744  -0.00932562 -0.0505769 0.000702739  -0.0145032 -0.0559963 0.000755191  -0.0105052 -0.0612388 0.000478625  -0.0152611 -0.0612444 0.000718117  -0.0110731 -0.0666785 0.000456929  -0.0152136 -0.060966 0.0009588  -0.0159593 -0.0663949 0.000913501  -0.0104636 -0.0609616 0.000635982  -0.0160064 -0.0666623 0.000681281  -0.0116408 -0.0722728 0.000432491  -0.0167457 -0.0722367 0.000650167  -0.0122106 -0.0780227 0.000409842  -0.016698 -0.0719813 0.000868917  -0.0174303 -0.0777253 0.000825047  -0.0116005 -0.0720203 0.000575185  -0.0174768 -0.0779638 0.000616789  -0.0127765 -0.0839145 0.000389218  -0.0181999 -0.083837 0.000586271  -0.0133437 -0.0899481 0.000367999  -0.0181547 -0.0836068 0.000782967  -0.0188701 -0.0896334 0.000743151  -0.0127374 -0.0836864 0.00051868  -0.0189155 -0.0898481 0.000555158  -0.013912 -0.0961079 0.000347137  -0.0196253 -0.0959918 0.000525832  -0.0144775 -0.102395 0.000330806  -0.0195799 -0.0957838 0.000702858  -0.0202795 -0.102063 0.000665784  -0.0138743 -0.0959013 0.000464559  -0.020322 -0.102258 0.000496864  -0.0150405 -0.108796 0.00031209  -0.0210137 -0.10864 0.000470042  -0.0156043 -0.115309 0.000292182  -0.0209699 -0.108452 0.000627637  -0.0216558 -0.114961 0.00059104  -0.0150065 -0.108609 0.000415683  -0.0216954 -0.115135 0.000441432  -0.0161669 -0.121923 0.000274777  -0.0223731 -0.121733 0.00041616  -0.0167267 -0.12864 0.000258803  -0.0223334 -0.121565 0.000557542  -0.0230019 -0.128275 0.000525713  -0.0161349 -0.121758 0.000368476  -0.0230401 -0.12843 0.000391364  -0.0172879 -0.13544 0.000243187  -0.0237024 -0.135216 0.000368953  -0.0178477 -0.142333 0.000225067  -0.0236645 -0.135071 0.000493526  -0.0243211 -0.141954 0.00046289  -0.0172582 -0.135294 0.000324607  -0.024357 -0.142089 0.000344634  -0.0184045 -0.149298 0.000211358  -0.025001 -0.149043 0.000320435  -0.0189583 -0.156342 0.00019753  -0.0249677 -0.148913 0.00042963  -0.0256059 -0.155954 0.000403404  -0.0183752 -0.149169 0.000282645  -0.0256407 -0.156073 0.000298262  -0.0195105 -0.163451 0.000183821  -0.0262706 -0.163169 0.000278234  -0.020062 -0.170626 0.000169158  -0.0262394 -0.163056 0.000374794  -0.0268633 -0.170227 0.000344753  -0.019486 -0.163339 0.000244021  -0.0268927 -0.170329 0.000256181  -0.0206065 -0.177856 0.000155807  -0.027508 -0.177548 0.000237346  -0.0211508 -0.185142 0.000143886  -0.0274801 -0.17745 0.0003196  -0.0280902 -0.184733 0.000296235  -0.0205824 -0.17776 0.000209212  -0.0281153 -0.184822 0.000217795  -0.0216904 -0.192474 0.000131249  -0.0287142 -0.192142 0.000201344  -0.0222309 -0.199853 0.000119567  -0.0286906 -0.192057 0.000272393  -0.029284 -0.199435 0.000248075  -0.0216711 -0.192392 0.000175357  -0.0293078 -0.199507 0.000184178  -0.0227654 -0.207266 0.000109076  -0.0298927 -0.206916 0.000164509  -0.0232964 -0.21472 9.64403e-05  -0.0298703 -0.206844 0.000222921  -0.0304492 -0.214297 0.000204325  -0.0227451 -0.207198 0.000145435  -0.0304704 -0.214359 0.000147462  -0.0238228 -0.222201 8.80957e-05  -0.0310388 -0.221832 0.000134349  -0.0243454 -0.229715 7.86781e-05  -0.0310192 -0.22177 0.000183105  -0.0315824 -0.229283 0.000163198  -0.0238078 -0.222145 0.000117183  -0.0316007 -0.229333 0.000119328  -0.0248659 -0.237246 7.16448e-05  -0.0321546 -0.236861 0.000107169  -0.0253823 -0.244803 6.18696e-05  -0.0321405 -0.236815 0.000147939  -0.0326886 -0.244369 0.000130892  -0.0248516 -0.237203 9.42945e-05  -0.0327029 -0.244407 9.27448e-05  -0.0258944 -0.252372 5.47171e-05  -0.0332429 -0.251973 8.33273e-05  -0.0264003 -0.25996 4.56572e-05  -0.0332305 -0.251935 0.000113726  -0.0337656 -0.259523 9.66787e-05  -0.0258842 -0.252339 7.33137e-05  -0.0337768 -0.259553 7.05719e-05  -0.0269053 -0.267554 3.91006e-05  -0.0343041 -0.267142 5.80549e-05  -0.0274084 -0.275161 3.18289e-05  -0.0342908 -0.267112 8.34465e-05  -0.0348134 -0.274722 6.91414e-05  -0.0268967 -0.267529 5.22137e-05  -0.0348237 -0.274741 4.87566e-05  -0.0279024 -0.282768 2.55108e-05  -0.0353382 -0.282346 3.85046e-05  -0.0283968 -0.290381 2.03848e-05  -0.0353291 -0.282326 5.71012e-05  -0.0358357 -0.289941 4.52995e-05  -0.0278955 -0.28275 3.46899e-05  -0.035846 -0.289953 2.80142e-05  -0.028888 -0.297993 1.43051e-05  -0.0363481 -0.297563 2.14577e-05  -0.0293717 -0.305607 9.17912e-06  -0.036341 -0.297548 3.67165e-05  -0.036839 -0.305165 2.44379e-05  -0.0288785 -0.297981 2.32458e-05  -0.0368438 -0.305172 1.70469e-05  -0.0298531 -0.313213 5.24521e-06  -0.0373368 -0.312777 8.34465e-06  -0.0303333 -0.320822 9.53674e-07  -0.0373302 -0.312767 1.93119e-05  -0.037818 -0.320376 9.53674e-06  -0.0298486 -0.313205 1.09673e-05  -0.0378239 -0.320382 1.54972e-06  -0.0308058 -0.328416 -2.86102e-06  -0.0383034 -0.327973 -2.14577e-06  -0.0312777 -0.33601 -6.4373e-06  -0.0382998 -0.327973 3.93391e-06  -0.0387788 -0.335566 -3.33786e-06  -0.0308022 -0.328415 2.38419e-07  -0.03878 -0.335566 -7.86781e-06  -0.031745 -0.34359 -8.9407e-06  -0.0392506 -0.343143 -1.07288e-05  -0.032213 -0.351165 -1.0848e-05  -0.0392528 -0.343145 -8.9407e-06  -0.0397177 -0.350719 -1.2517e-05  -0.0317433 -0.343591 -1.0252e-05  -0.039722 -0.350716 -1.40667e-05  -0.0326755 -0.358722 -1.19209e-05  -0.0401852 -0.358273 -1.83582e-05  -0.0331342 -0.366275 -1.68085e-05  -0.0401826 -0.358275 -1.58548e-05  -0.0406463 -0.365831 -2.21729e-05  -0.0326726 -0.358724 -1.21593e-05  -0.0406485 -0.365826 -2.12193e-05  -0.0335932 -0.373808 -1.54972e-05  -0.0411079 -0.373363 -2.34842e-05  -0.0340509 -0.38133 -1.66893e-05  -0.0411048 -0.373365 -2.53916e-05  -0.0415637 -0.380891 -2.81334e-05  -0.0335922 -0.373812 -1.7643e-05  -0.0415685 -0.380886 -2.5034e-05  1.18762e-05 -0.000203043 -6.31809e-06  -0.000106502 -0.000216246 9.82285e-05  2.70158e-05 -0.000996232 -2.14577e-06  -0.000106134 -0.000167936 0.000137329  -0.000279352 -0.000913829 0.000248671  0 0 0  0 0 0  1.07959e-05 -0.000153333 -8.9407e-06  0 0 0  -0.000265747 -0.00101289 0.000180602  5.79357e-05 -0.00231153 -8.70228e-06  -0.000491247 -0.00233942 0.000250816  7.60555e-05 -0.00403005 -2.02656e-06  -0.00049822 -0.00218898 0.000345588  -0.000769511 -0.00386259 0.000413418  6.02603e-05 -0.00216523 -9.17912e-06  -0.000747263 -0.00405687 0.000300765  9.95994e-05 -0.00611812 -2.02656e-06  -0.00104475 -0.0061402 0.000335574  0.0001055 -0.00851029 4.29153e-06  -0.00105703 -0.00590545 0.00045836  -0.00136545 -0.00825524 0.000486016  0.0001055 -0.00588691 1.19209e-07  -0.0013485 -0.00852373 0.000359774  0.000104457 -0.0111892 5.24521e-06  -0.00166848 -0.0111916 0.000367761  8.80361e-05 -0.014133 8.34465e-06  -0.00167286 -0.0108922 0.000494719  -0.00198743 -0.0138054 0.000496268  0.000114113 -0.010896 7.62939e-06  -0.00198719 -0.0141196 0.000369906  5.84722e-05 -0.0173259 9.41753e-06  -0.00231016 -0.0173019 0.000365973  1.3411e-05 -0.0207667 8.10623e-06  -0.00230157 -0.0169689 0.000487089  -0.00261927 -0.0203909 0.000476599  7.236e-05 -0.0169981 8.9407e-06  -0.00263369 -0.0207261 0.000357032  -4.69685e-05 -0.0244383 7.03335e-06  -0.0029605 -0.0243863 0.000346303  -0.000122666 -0.0283459 8.82149e-06  -0.00294298 -0.0240455 0.000460148  -0.00326878 -0.0279418 0.000443459  -2.73585e-05 -0.024101 9.17912e-06  -0.00329244 -0.0282794 0.000333786  -0.000211835 -0.0324699 7.03335e-06  -0.003631 -0.0323921 0.000319362  -0.000323415 -0.0368135 5.48363e-06  -0.00360358 -0.0320572 0.00042522  -0.00394338 -0.0363969 0.000407577  -0.000191808 -0.0321386 6.31809e-06  -0.00397283 -0.0367223 0.000304461  -0.000448763 -0.0413608 3.45707e-06  -0.00432217 -0.0412562 0.000291228  -0.00059092 -0.0461113 1.43051e-06  -0.00429273 -0.0409359 0.000387073  -0.00464827 -0.0456851 0.000368714  -0.000424862 -0.0410435 4.76837e-07  -0.00467855 -0.0459939 0.000277281  -0.000750542 -0.0510509 -3.57628e-07  -0.00504398 -0.0509207 0.000263453  -0.000925779 -0.056178 -1.66893e-06  -0.00501323 -0.050619 0.00035131  -0.00538552 -0.055745 0.000332952  -0.00072372 -0.0507521 -2.86102e-06  -0.00541735 -0.0560326 0.000249624  -0.00111723 -0.0614754 -2.5034e-06  -0.00579929 -0.0613174 0.00023663  -0.00132549 -0.0669457 -3.45707e-06  -0.00576651 -0.061039 0.000317097  -0.00615287 -0.066508 0.000302434  -0.00109327 -0.0611996 -6.07967e-06  -0.00618684 -0.0667727 0.000224471  -0.00154912 -0.0725712 -4.05312e-06  -0.00658178 -0.0723854 0.000213146  -0.00178862 -0.0783525 -6.07967e-06  -0.00655365 -0.0721306 0.000283837  -0.00695515 -0.0779109 0.000269294  -0.00152552 -0.0723178 -1.03712e-05  -0.00698638 -0.0781524 0.000201583  -0.00204134 -0.0842737 -3.8147e-06  -0.00739872 -0.0840633 0.000191331  -0.00231087 -0.0903378 -5.72205e-06  -0.00736666 -0.08383 0.00025475  -0.00778556 -0.0898932 0.000239491  -0.00202036 -0.0840441 -1.07288e-05  -0.00781572 -0.0901124 0.000178695  -0.0025928 -0.096527 -7.98702e-06  -0.00824142 -0.0962869 0.000169516  -0.00288975 -0.102846 -9.05991e-06  -0.00821197 -0.0960793 0.000226736  -0.00864387 -0.102395 0.000213504  -0.00257146 -0.0963184 -1.29938e-05  -0.00867033 -0.102591 0.000159144  -0.0031966 -0.109272 -8.9407e-06  -0.00910759 -0.109007 0.000150084  -0.00351763 -0.115813 -8.34465e-06  -0.00908184 -0.10882 0.000200868  -0.00952423 -0.11536 0.0001899  -0.00317729 -0.109086 -1.34706e-05  -0.00955117 -0.115535 0.000141621  -0.00385022 -0.122454 -7.62939e-06  -0.00999844 -0.122165 0.000134349  -0.00419593 -0.129193 -7.86781e-06  -0.00997329 -0.121998 0.000178576  -0.0104269 -0.128737 0.000167727  -0.0038321 -0.122286 -1.37091e-05  -0.0104511 -0.128892 0.000126243  -0.00454831 -0.136019 -7.86781e-06  -0.0109102 -0.135708 0.000117302  -0.00491273 -0.142935 -8.58307e-06  -0.0108871 -0.13556 0.000155926  -0.0113505 -0.142474 0.000145674  -0.00453317 -0.135872 -1.23978e-05  -0.0113715 -0.142612 0.000108361  -0.00528932 -0.149925 -1.00136e-05  -0.0118368 -0.149592 0.000101924  -0.00567245 -0.15699 -9.05991e-06  -0.0118165 -0.149461 0.000133872  -0.0122871 -0.156528 0.000125051  -0.00527501 -0.149794 -1.38283e-05  -0.0123065 -0.156648 9.35793e-05  -0.00606251 -0.16412 -6.4373e-06  -0.0127814 -0.163769 8.57115e-05  -0.006464 -0.171315 -7.39098e-06  -0.0127625 -0.163655 0.000114918  -0.0132375 -0.170851 0.000107408  -0.00605035 -0.164006 -1.44243e-05  -0.0132577 -0.170954 8.08239e-05  -0.00687194 -0.178563 -8.58307e-06  -0.0137341 -0.178195 7.33137e-05  -0.00728774 -0.185867 -6.79493e-06  -0.0137174 -0.178098 9.7394e-05  -0.0141971 -0.185403 8.97646e-05  -0.00686002 -0.178466 -1.5974e-05  -0.0142128 -0.185491 6.71148e-05  -0.00770688 -0.193216 -7.27177e-06  -0.014694 -0.192833 6.22272e-05  -0.00813484 -0.200609 -6.79493e-06  -0.0146792 -0.192749 8.22544e-05  -0.0151622 -0.200146 7.59363e-05  -0.00769663 -0.193134 -1.41859e-05  -0.015178 -0.20022 5.61476e-05  -0.00856686 -0.208038 -8.22544e-06  -0.0156615 -0.207641 4.98295e-05  -0.0090003 -0.215505 -6.19888e-06  -0.0156453 -0.207571 6.69956e-05  -0.01613 -0.215041 5.85318e-05  -0.00855875 -0.20797 -1.28746e-05  -0.0161438 -0.215102 4.51803e-05  -0.0094409 -0.223003 -5.84126e-06  -0.016628 -0.222593 3.89814e-05  -0.00988483 -0.230527 -7.15256e-06  -0.0166159 -0.222535 5.40018e-05  -0.0171006 -0.230062 4.76837e-05  -0.00943565 -0.222943 -1.04904e-05  -0.0171113 -0.230113 3.44515e-05  -0.0103297 -0.238069 -4.64916e-06  -0.017596 -0.237652 3.18289e-05  -0.0107841 -0.245635 -5.00679e-06  -0.0175855 -0.237603 4.25577e-05  -0.018069 -0.245172 3.70741e-05  -0.0103264 -0.238021 -1.0252e-05  -0.0180786 -0.245213 2.65837e-05  -0.0112362 -0.253215 -4.29153e-06  -0.0185611 -0.252788 2.2769e-05  -0.0116928 -0.26081 -5.36442e-06  -0.0185513 -0.25275 3.25441e-05  -0.0190363 -0.26035 2.6226e-05  -0.0112319 -0.253176 -9.41753e-06  -0.0190439 -0.260379 1.94311e-05  -0.0121481 -0.268413 -5.24521e-06  -0.0195239 -0.267976 1.63317e-05  -0.0126071 -0.276024 -5.126e-06  -0.0195172 -0.267951 2.32458e-05  -0.0199966 -0.275566 1.7643e-05  -0.0121436 -0.268385 -9.41753e-06  -0.0200043 -0.275586 1.18017e-05  -0.0130656 -0.283638 -5.48363e-06  -0.0204821 -0.283199 9.41753e-06  -0.013525 -0.291257 -4.05312e-06  -0.0204749 -0.283179 1.44243e-05  -0.0209515 -0.2908 1.03712e-05  -0.0130615 -0.283617 -9.65595e-06  -0.0209594 -0.290817 8.9407e-06  -0.0139847 -0.298876 -4.88758e-06  -0.0214326 -0.298432 4.88758e-06  -0.0144489 -0.306492 -7.86781e-06  -0.0214286 -0.298418 6.07967e-06  -0.0219023 -0.306039 3.45707e-06  -0.0139847 -0.29886 -8.22544e-06  -0.0219073 -0.30605 -1.07288e-06  -0.0149081 -0.314105 -3.33786e-06  -0.0223777 -0.313658 -4.76837e-07  -0.0153701 -0.321713 -6.19888e-06  -0.0223737 -0.313647 1.19209e-06  -0.0228457 -0.321262 7.15256e-07  -0.0149062 -0.314097 -7.03335e-06  -0.0228472 -0.321267 -1.66893e-06  -0.0158262 -0.329311 -4.29153e-06  -0.0233164 -0.328861 -2.02656e-06  -0.016289 -0.336907 -4.76837e-06  -0.0233152 -0.328861 -7.15256e-07  -0.0237813 -0.336458 -5.24521e-06  -0.0158277 -0.329308 -7.15256e-06  -0.0237827 -0.336457 -4.41074e-06  -0.016747 -0.344489 -1.07288e-06  -0.0242457 -0.344041 -5.24521e-06  -0.0172069 -0.352066 -1.78814e-06  -0.0242467 -0.344039 -5.84126e-06  -0.0247061 -0.351616 -3.8147e-06  -0.0167494 -0.344489 -3.09944e-06  -0.0247078 -0.351613 -6.67572e-06  -0.0176597 -0.359624 -7.15256e-07  -0.0251687 -0.359174 -9.53674e-06  -0.0181193 -0.367175 -2.6226e-06  -0.0251679 -0.359174 -8.46386e-06  -0.0256252 -0.366729 -8.70228e-06  -0.0176625 -0.359628 -2.14577e-06  -0.0256252 -0.366721 -8.82149e-06  -0.0185738 -0.37471 -2.38419e-06  -0.0260825 -0.374259 -8.70228e-06  -0.0190291 -0.38223 -4.76837e-07  -0.0260849 -0.374259 -9.65595e-06  -0.0265408 -0.381785 -7.86781e-06  -0.0185742 -0.374713 -3.33786e-06  -0.0265365 -0.381779 -7.39098e-06  0.00025481 -0.000317037 -0.000205517  0.000134654 -0.000237465 -0.000101566  0.000652626 -0.00122184 -0.000370026  0.000136681 -0.000189722 -0.000145197  0.000352964 -0.000963986 -0.000270486  0 0 0  0 0 0  0.000257239 -0.000268877 -0.000290155  0 0 0  0.00035508 -0.00106168 -0.00019002  0.00119035 -0.00262606 -0.000516534  0.000624716 -0.00240916 -0.000261545  0.00178841 -0.00439644 -0.000606418  0.000643045 -0.00226247 -0.000367045  0.000955552 -0.0039537 -0.000423908  0.00121608 -0.00247252 -0.000714779  0.000940651 -0.00414228 -0.000307679  0.00242639 -0.00652611 -0.000669718  0.00125766 -0.0062477 -0.000337839  0.00305885 -0.00893235 -0.000700951  0.00128374 -0.00601381 -0.00046134  0.00160009 -0.00838333 -0.000473499  0.0024673 -0.00628495 -0.000910759  0.001578 -0.00864804 -0.000351191  0.00367451 -0.0116226 -0.000712037  0.00187871 -0.0113356 -0.000356674  0.00425792 -0.0145726 -0.000710845  0.00190473 -0.0110407 -0.000480413  0.00218534 -0.0139719 -0.000475764  0.00371304 -0.0113241 -0.000959873  0.00216407 -0.0142832 -0.000353098  0.00480664 -0.0177711 -0.000699878  0.00242168 -0.0174838 -0.000346541  0.00531536 -0.0212186 -0.000684261  0.0024426 -0.0171569 -0.0004673  0.00267619 -0.0205981 -0.000454783  0.00483572 -0.0174431 -0.00093925  0.00265372 -0.0209301 -0.00033927  0.00578725 -0.0248988 -0.000662565  0.00286084 -0.0246112 -0.000329614  0.00622165 -0.0288161 -0.000641108  0.00288117 -0.0242729 -0.000440955  0.00306022 -0.0281892 -0.00042665  0.00580853 -0.0245609 -0.000888467  0.00304139 -0.0285253 -0.000318289  0.00661725 -0.0329505 -0.000618458  0.00319248 -0.0326567 -0.000306249  0.00697631 -0.037306 -0.000594258  0.00321168 -0.0323251 -0.000411153  0.00333619 -0.0366848 -0.000397801  0.00663233 -0.0326182 -0.000827789  0.00331748 -0.0370083 -0.000295639  0.00729704 -0.0418673 -0.000571012  0.00341672 -0.0415645 -0.00028348  0.00758433 -0.0466327 -0.000549197  0.00343454 -0.0412471 -0.000383496  0.00350833 -0.0460184 -0.000369668  0.00730962 -0.0415493 -0.000765681  0.00349009 -0.046325 -0.000274658  0.00783706 -0.0515874 -0.00052619  0.00353742 -0.0512751 -0.00026381  0.0080539 -0.0567301 -0.000504375  0.00355387 -0.0509751 -0.000353575  0.00357401 -0.056124 -0.000340104  0.00784683 -0.0512888 -0.000706673  0.00355971 -0.0564098 -0.000253677  0.00824022 -0.0620436 -0.000482917  0.00355399 -0.0617204 -0.00024271  0.00839114 -0.0675317 -0.00046134  0.00356996 -0.0614442 -0.000326157  0.0035435 -0.0669349 -0.000314236  0.00825036 -0.0617674 -0.000648618  0.00352812 -0.0671982 -0.000234127  0.00851345 -0.0731733 -0.000441194  0.00347602 -0.0728343 -0.000224471  0.00860381 -0.0789708 -0.000422001  0.003492 -0.0725794 -0.000300646  0.00341582 -0.0783845 -0.00028944  0.00852156 -0.0729202 -0.00059402  0.00340164 -0.0786237 -0.000214815  0.00866544 -0.0849099 -0.000399947  0.00330579 -0.0845574 -0.000203133  0.00869513 -0.0909899 -0.000380397  0.00331914 -0.0843257 -0.00027442  0.00320089 -0.0904121 -0.00026238  0.00866842 -0.0846795 -0.000540018  0.00318825 -0.0906295 -0.000193477  0.00869834 -0.097199 -0.000362515  0.00304711 -0.0968318 -0.000185251  0.00867331 -0.103531 -0.000344753  0.00305998 -0.0966207 -0.000251055  0.00290012 -0.10296 -0.000238776  0.00870335 -0.0969874 -0.000487804  0.00288701 -0.103157 -0.000176668  0.0086199 -0.109975 -0.000326157  0.00270665 -0.109596 -0.000167608  0.00854158 -0.116532 -0.000308752  0.00271666 -0.109407 -0.000227451  0.00251877 -0.115969 -0.000215888  0.00862634 -0.109786 -0.00044167  0.00250912 -0.116147 -0.000160336  0.00844359 -0.123186 -0.000291228  0.00229216 -0.122796 -0.000151157  0.00831544 -0.129942 -0.000276208  0.00229859 -0.122625 -0.000204325  0.0020647 -0.129386 -0.000194192  0.00844359 -0.123019 -0.000396609  0.00205672 -0.129542 -0.000142097  0.00816536 -0.136781 -0.00025928  0.00180471 -0.136379 -0.000133634  0.00799227 -0.14371 -0.000243187  0.00181139 -0.136228 -0.000182271  0.00154376 -0.143162 -0.000170946  0.00816989 -0.136632 -0.000353217  0.00153661 -0.1433 -0.000125527  0.00780153 -0.150714 -0.000229597  0.00125265 -0.150299 -0.000119328  0.00759125 -0.15779 -0.000215411  0.001261 -0.150167 -0.000161529  0.000961781 -0.157249 -0.000153184  0.00780511 -0.150583 -0.000312209  0.000955582 -0.15737 -0.000110388  0.00736189 -0.164929 -0.000198364  0.000643253 -0.164507 -0.000104666  0.00711036 -0.172135 -0.000184655  0.000651836 -0.164391 -0.000142932  0.000324726 -0.171604 -0.000133038  0.00736141 -0.164818 -0.000272989  0.000319481 -0.171709 -9.72748e-05  0.00684166 -0.179396 -0.000172615  -1.83582e-05 -0.178963 -9.09567e-05  0.00655985 -0.18671 -0.00015974  -1.16825e-05 -0.178863 -0.000124931  -0.000361681 -0.186182 -0.000115633  0.00684524 -0.179297 -0.00023663  -0.000365973 -0.186273 -8.36849e-05  0.00626254 -0.194068 -0.000149012  -0.000725508 -0.193628 -7.87973e-05  0.00594926 -0.201468 -0.000135183  -0.000723362 -0.193541 -0.000107646  -0.00109458 -0.200949 -9.97782e-05  0.0062623 -0.19398 -0.000202298  -0.00109744 -0.201026 -7.18832e-05  0.00562119 -0.208905 -0.000124574  -0.00147557 -0.208461 -6.56843e-05  0.00528002 -0.21638 -0.000111699  -0.00147319 -0.208388 -9.0003e-05  -0.00186205 -0.215867 -8.29697e-05  0.00562 -0.208834 -0.000171542  -0.001863 -0.215931 -5.97239e-05  0.00493073 -0.223881 -0.000101209  -0.00225997 -0.223432 -5.43594e-05  0.00456572 -0.231409 -9.04799e-05  -0.00225735 -0.22337 -7.64132e-05  -0.00266266 -0.230907 -6.97374e-05  0.00492811 -0.223819 -0.000141501  -0.00266504 -0.230958 -4.8399e-05  0.00418949 -0.23896 -8.21352e-05  -0.00307655 -0.238506 -4.47035e-05  0.00380516 -0.24653 -7.34329e-05  -0.00307417 -0.238456 -6.23465e-05  -0.00349188 -0.246032 -5.74589e-05  0.00418806 -0.23891 -0.000116229  -0.00349069 -0.246075 -4.11272e-05  0.00341535 -0.254111 -6.18696e-05  -0.00391293 -0.253657 -3.48091e-05  0.00301409 -0.261707 -5.6386e-05  -0.00391293 -0.253618 -4.8995e-05  -0.00434113 -0.261223 -4.3869e-05  0.00341129 -0.254075 -9.31025e-05  -0.00434232 -0.261252 -3.09944e-05  0.00260448 -0.269314 -4.8995e-05  -0.00477648 -0.268858 -2.64645e-05  0.0021894 -0.276928 -4.08888e-05  -0.0047729 -0.268827 -3.70741e-05  -0.00521207 -0.27645 -3.38554e-05  0.00260353 -0.269286 -7.09295e-05  -0.00521183 -0.27647 -2.32458e-05  0.00176835 -0.284544 -3.27826e-05  -0.00565028 -0.284086 -1.88351e-05  0.00134015 -0.292166 -2.77758e-05  -0.005651 -0.284066 -2.7895e-05  -0.00609469 -0.291693 -2.52724e-05  0.00176334 -0.284527 -5.23329e-05  -0.00609303 -0.291707 -1.74046e-05  0.00090909 -0.299783 -2.44379e-05  -0.00653958 -0.299326 -1.13249e-05  0.000472546 -0.307401 -1.8239e-05  -0.00654149 -0.299311 -1.97887e-05  -0.00698853 -0.306935 -1.77622e-05  0.000907898 -0.29977 -3.42131e-05  -0.00698781 -0.306944 -1.34706e-05  3.26633e-05 -0.315016 -1.10865e-05  -0.0074389 -0.314557 -9.53674e-06  -0.000410318 -0.322623 -7.7486e-06  -0.00743842 -0.314548 -1.46627e-05  -0.00789118 -0.322161 -1.15633e-05  3.02792e-05 -0.315008 -1.9908e-05  -0.00788927 -0.322165 -6.91414e-06  -0.000854015 -0.330224 -3.21865e-06  -0.00834227 -0.329766 -2.6226e-06  -0.00130272 -0.337817 1.54972e-06  -0.00834703 -0.329762 -8.22544e-06  -0.00879955 -0.337359 -5.48363e-06  -0.000856876 -0.330219 -8.70228e-06  -0.00879526 -0.33736 -3.8147e-06  -0.00175285 -0.345399 1.66893e-06  -0.00924873 -0.344943 1.54972e-06  -0.0022037 -0.352975 5.48363e-06  -0.00925398 -0.344943 -1.54972e-06  -0.00970578 -0.352521 4.76837e-07  -0.0017519 -0.345398 -8.34465e-07  -0.00970507 -0.352516 2.38419e-06  -0.00265098 -0.360534 9.53674e-06  -0.0101597 -0.360079 3.57628e-06  -0.00310636 -0.368087 1.01328e-05  -0.0101612 -0.360079 8.34465e-07  -0.0106173 -0.367635 4.52995e-06  -0.00265503 -0.360537 9.17912e-06  -0.0106144 -0.367631 3.45707e-06  -0.00355744 -0.375621 1.06096e-05  -0.0110667 -0.375164 5.126e-06  -0.00401068 -0.383143 1.49012e-05  -0.0110693 -0.375168 7.15256e-06  -0.0115206 -0.38269 8.10623e-06  -0.0035603 -0.375623 1.43051e-05  -0.0115185 -0.382687 3.8147e-06  0.00053551 -0.000686407 -0.000396609  0.000392467 -0.000463307 -0.000293612  0.00137958 -0.00186795 -0.000721097  0.000397883 -0.000416934 -0.00042069  0.00103155 -0.00137204 -0.000774741  0 0 0  0 0 0  0.000542 -0.000627697 -0.000556946  0 0 0  0.00102761 -0.00147784 -0.000549674  0.00248596 -0.00349516 -0.000999451  0.00181639 -0.00298107 -0.000757575  0.00371307 -0.00536686 -0.00118387  0.00185896 -0.00282246 -0.0010612  0.00277424 -0.00459886 -0.00123918  0.00253321 -0.00331461 -0.00138462  0.00272322 -0.00480258 -0.00090003  0.00498086 -0.00754368 -0.00131154  0.00366479 -0.00695288 -0.000994802  0.00624254 -0.00995553 -0.00137997  0.00372574 -0.00670516 -0.00135863  0.00466812 -0.00909126 -0.00141418  0.00505447 -0.00727606 -0.00178432  0.00461057 -0.00937033 -0.00104547  0.00746396 -0.0126285 -0.00141168  0.00552776 -0.0120544 -0.0010668  0.0086354 -0.0155562 -0.00141442  0.00558141 -0.0117477 -0.00143754  0.00645232 -0.0146763 -0.00143075  0.00752747 -0.0123115 -0.001899  0.00640613 -0.0149983 -0.00106514  0.00974518 -0.0187317 -0.00139475  0.00723803 -0.0181885 -0.00105059  0.0107964 -0.0221607 -0.0013628  0.00727564 -0.0178531 -0.00140703  0.00805104 -0.021291 -0.00137246  0.00978774 -0.0183893 -0.00186753  0.00802022 -0.0216303 -0.00102592  0.0117872 -0.0258254 -0.00132298  0.0087539 -0.0253065 -0.000996351  0.0127194 -0.0297303 -0.00128186  0.00877565 -0.024964 -0.00133121  0.00945657 -0.0288812 -0.0012877  0.0118113 -0.025481 -0.00177252  0.00943834 -0.0292191 -0.000962257  0.0135952 -0.0338584 -0.00123727  0.0100753 -0.0333529 -0.000928521  0.0144149 -0.038208 -0.0011903  0.0100889 -0.0330176 -0.00124288  0.0106781 -0.0373815 -0.00119591  0.0136073 -0.0335228 -0.00165403  0.0106665 -0.0377068 -0.000894427  0.0151809 -0.0427664 -0.00114202  0.0112109 -0.0422692 -0.000857711  0.0158924 -0.0475315 -0.00109565  0.011218 -0.041949 -0.0011481  0.0117171 -0.0467276 -0.00110114  0.0151839 -0.0424473 -0.00153053  0.0117109 -0.0470346 -0.00082469  0.0165503 -0.0524861 -0.00105023  0.0121676 -0.051993 -0.000790119  0.0171572 -0.0576307 -0.00100541  0.0121715 -0.0516918 -0.00105727  0.0125842 -0.0568494 -0.00101197  0.0165492 -0.0521878 -0.00140762  0.0125818 -0.0571366 -0.000756025  0.0177163 -0.0629464 -0.00096035  0.0129529 -0.0624545 -0.000722408  0.0182278 -0.0684372 -0.000917792  0.0129569 -0.0621771 -0.000968695  0.0132875 -0.0676804 -0.000924587  0.0177152 -0.0626708 -0.00128961  0.0132869 -0.0679438 -0.000689149  0.0186918 -0.0740843 -0.000873804  0.0135784 -0.0735916 -0.000659704  0.0191079 -0.079887 -0.000834346  0.0135789 -0.0733354 -0.000884056  0.013833 -0.0791492 -0.00084281  0.0186852 -0.0738288 -0.00117552  0.0138342 -0.0793908 -0.000627756  0.0194793 -0.0858306 -0.000794411  0.0140486 -0.0853361 -0.00059855  0.019806 -0.0919158 -0.000756741  0.0140494 -0.0851023 -0.000804067  0.0142282 -0.0912015 -0.000764251  0.0194749 -0.0855978 -0.001068  0.0142282 -0.0914187 -0.000569582  0.0200909 -0.0981253 -0.000716567  0.0143714 -0.0976307 -0.000540257  0.0203327 -0.104463 -0.000680327  0.0143722 -0.0974193 -0.000727534  0.0144799 -0.103768 -0.000691414  0.0200851 -0.0979159 -0.000965714  0.0144818 -0.103966 -0.000511527  0.0205358 -0.11091 -0.000644207  0.0145571 -0.110414 -0.000486255  0.0206995 -0.117473 -0.000610113  0.0145577 -0.110224 -0.000654578  0.014599 -0.116798 -0.000620008  0.0205305 -0.110723 -0.000869155  0.0146024 -0.116975 -0.000460625  0.0208255 -0.124132 -0.000575781  0.0146134 -0.123634 -0.000434637  0.0209148 -0.130891 -0.000543237  0.0146121 -0.123463 -0.000586152  0.0145935 -0.130233 -0.000554442  0.0208198 -0.123966 -0.000777245  0.0145961 -0.130392 -0.000411391  0.0209706 -0.137734 -0.000510931  0.0145497 -0.137235 -0.000386596  0.0209916 -0.144665 -0.000480056  0.0145469 -0.137085 -0.000522017  0.0144732 -0.144027 -0.000491858  0.0209637 -0.137586 -0.000691175  0.0144763 -0.144165 -0.000364542  0.0209813 -0.151669 -0.000448823  0.014374 -0.151171 -0.000339031  0.020936 -0.158752 -0.000417471  0.0143707 -0.151039 -0.000459194  0.0142431 -0.158128 -0.000430822  0.0209706 -0.151539 -0.000606894  0.0142462 -0.158251 -0.000316143  0.0208638 -0.165892 -0.000391126  0.0140953 -0.165392 -0.000294209  0.0207624 -0.173102 -0.000363827  0.0140905 -0.165278 -0.000400066  0.0139151 -0.172495 -0.000374675  0.0208578 -0.165777 -0.000531197  0.0139225 -0.1726 -0.00027597  0.0206337 -0.180359 -0.000337005  0.0137246 -0.179862 -0.000255227  0.0204799 -0.187675 -0.000310898  0.0137184 -0.179761 -0.000346184  0.0135009 -0.187084 -0.000321388  0.0206265 -0.180261 -0.000457168  0.0135052 -0.187174 -0.000235081  0.0203009 -0.195032 -0.000284195  0.0132673 -0.194535 -0.000216126  0.0200953 -0.202435 -0.000262141  0.0132632 -0.19445 -0.000296354  0.0130057 -0.201863 -0.000271201  0.0202925 -0.194948 -0.00039053  0.0130086 -0.201937 -0.000199795  0.0198731 -0.209871 -0.00023818  0.012733 -0.209375 -0.000183105  0.0196278 -0.217344 -0.0002141  0.0127292 -0.209304 -0.000249505  0.0124342 -0.216787 -0.000226378  0.0198629 -0.209801 -0.000328064  0.0124409 -0.21685 -0.000167489  0.0193589 -0.224844 -0.000195265  0.0121305 -0.224354 -0.000149965  0.0190704 -0.232372 -0.000175714  0.0121238 -0.224291 -0.000207901  0.0118012 -0.231829 -0.00018692  0.0193491 -0.224786 -0.000270844  0.0118084 -0.231882 -0.000133276  0.0187695 -0.239917 -0.000157833  0.0114679 -0.23943 -0.000119328  0.0184476 -0.247486 -0.000139832  0.0114615 -0.23938 -0.00016737  0.0111122 -0.246958 -0.000149608  0.0187597 -0.23987 -0.00022006  0.0111163 -0.246999 -0.000105619  0.0181162 -0.255067 -0.000120997  0.0107529 -0.254581 -9.26256e-05  0.0177665 -0.262664 -0.000104666  0.0107472 -0.254543 -0.000130534  0.0103736 -0.262147 -0.00011301  0.0181069 -0.25503 -0.0001719  0.0103776 -0.262178 -7.9751e-05  0.0174024 -0.270268 -9.10759e-05  0.00999451 -0.269784 -7.06911e-05  0.0170264 -0.277878 -7.76052e-05  0.00998735 -0.269756 -9.88245e-05  0.00959182 -0.277374 -8.36849e-05  0.0173967 -0.270238 -0.000129461  0.00959992 -0.277397 -5.71012e-05  0.0166411 -0.285493 -6.35386e-05  0.00919795 -0.285015 -4.87566e-05  0.0162451 -0.293109 -4.99487e-05  0.00918913 -0.284992 -7.20024e-05  0.00877905 -0.292618 -5.9247e-05  0.0166328 -0.285471 -9.32217e-05  0.00878596 -0.292635 -4.17233e-05  0.0158415 -0.300725 -3.6478e-05  0.00836563 -0.300251 -3.12328e-05  0.0154247 -0.308342 -2.94447e-05  0.00836134 -0.300239 -4.86374e-05  0.00793815 -0.307861 -3.61204e-05  0.0158327 -0.300713 -6.11544e-05  0.00794673 -0.307867 -2.2769e-05  0.0150039 -0.31595 -2.02656e-05  0.00751495 -0.315481 -1.5378e-05  0.0145781 -0.323555 -1.09673e-05  0.00750923 -0.315472 -2.72989e-05  0.00707436 -0.323082 -2.01464e-05  0.0149987 -0.315941 -3.49283e-05  0.00708008 -0.323086 -1.0252e-05  0.0141428 -0.331153 -4.76837e-06  0.00663972 -0.330688 -5.36442e-06  0.0137053 -0.338744 1.66893e-06  0.00663495 -0.330682 -1.16825e-05  0.00619435 -0.338278 -5.00679e-06  0.0141399 -0.331149 -1.58548e-05  0.00620031 -0.338277 1.19209e-06  0.0132654 -0.346322 8.34465e-06  0.00575566 -0.345862 5.48363e-06  0.0128198 -0.353894 1.50204e-05  0.00574899 -0.345859 9.53674e-07  0.00530338 -0.353437 7.03335e-06  0.0132592 -0.346324 1.90735e-06  0.00530791 -0.353431 1.18017e-05  0.0123718 -0.361454 1.75238e-05  0.00485706 -0.360996 1.35899e-05  0.0119219 -0.369004 2.34842e-05  0.00485277 -0.360996 1.13249e-05  0.00440121 -0.368549 1.63317e-05  0.0123706 -0.361456 1.63317e-05  0.00440598 -0.368544 1.63317e-05  0.0114737 -0.376542 2.74181e-05  0.00395441 -0.376083 1.97887e-05  0.0110221 -0.384071 2.95639e-05  0.00395131 -0.376083 1.9908e-05  0.00350142 -0.383611 2.59876e-05  0.0114689 -0.376546 2.7895e-05  0.00350714 -0.383607 2.11e-05  0.000930451 -0.00156206 -0.000590086  0.000730105 -0.00102121 -0.000473976  0.00244033 -0.00320143 -0.00106001  0.000744745 -0.000974834 -0.000681639  0.00190519 -0.0023039 -0.00124872  0 0 0  0 0 0  0.000950813 -0.00146836 -0.00080204  0 0 0  0.00188878 -0.00242603 -0.000888348  0.00424124 -0.00510722 -0.00145304  0.00329524 -0.00418591 -0.00122547  0.00615659 -0.00705898 -0.00173032  0.00335638 -0.00399476 -0.00170982  0.00492597 -0.0058853 -0.00200331  0.00429241 -0.00487328 -0.00201011  0.00484553 -0.00612211 -0.00145793  0.00804645 -0.00920194 -0.00191712  0.00643268 -0.0082916 -0.00161731  0.00990269 -0.011577 -0.00202727  0.0065147 -0.00800663 -0.00220764  0.00807697 -0.0103878 -0.00231028  0.00812936 -0.00889635 -0.00261045  0.00799266 -0.0106974 -0.00170887  0.0116919 -0.0141795 -0.00207782  0.00950995 -0.0133404 -0.0017482  0.0134111 -0.017055 -0.00208902  0.00957879 -0.013007 -0.00235701  0.0110204 -0.0159034 -0.00235367  0.0117659 -0.0138339 -0.00279999  0.0109593 -0.0162455 -0.00175619  0.0150571 -0.0201771 -0.00206649  0.0123433 -0.0193973 -0.00173438  0.0166268 -0.0235658 -0.0020268  0.0123883 -0.0190452 -0.0023241  0.0136923 -0.0224577 -0.00227273  0.0151085 -0.0198191 -0.00277054  0.0136563 -0.0228075 -0.00169933  0.0181209 -0.0271952 -0.00197268  0.0149034 -0.0264565 -0.00165033  0.0195395 -0.0310726 -0.00191081  0.0149281 -0.0261053 -0.00220728  0.0160976 -0.0300064 -0.00213742  0.0181502 -0.0268416 -0.00264013  0.0160803 -0.0303476 -0.00159657  0.0208843 -0.0351765 -0.00184286  0.0171905 -0.0344672 -0.00154042  0.0221556 -0.0395097 -0.00177479  0.0172018 -0.0341297 -0.00206113  0.0182438 -0.0384826 -0.00198448  0.0208992 -0.0348361 -0.00246775  0.0182374 -0.0388091 -0.00148392  0.0233567 -0.0440501 -0.00170445  0.0192216 -0.0433616 -0.00142562  0.0244862 -0.0488006 -0.00163722  0.0192223 -0.0430415 -0.00190687  0.0201423 -0.0478117 -0.0018295  0.02336 -0.0437311 -0.00228286  0.0201434 -0.0481203 -0.00136733  0.025547 -0.0537422 -0.00156927  0.0210048 -0.0530702 -0.00130987  0.0265409 -0.0588769 -0.00150228  0.0210013 -0.0527698 -0.00175345  0.0217996 -0.0579238 -0.00167966  0.025544 -0.0534443 -0.00210202  0.0218055 -0.0582113 -0.00125289  0.0274673 -0.064182 -0.00143373  0.0225483 -0.063524 -0.00119889  0.028327 -0.0696642 -0.00137007  0.022541 -0.0632475 -0.00160587  0.0232286 -0.068748 -0.00153494  0.0274568 -0.0639068 -0.00192356  0.0232345 -0.0690107 -0.00114584  0.0291257 -0.0752999 -0.00130653  0.0238677 -0.0746547 -0.00109231  0.0298606 -0.0810961 -0.00124419  0.0238576 -0.0744 -0.00146544  0.024436 -0.080212 -0.00139701  0.0291163 -0.0750468 -0.00175357  0.0244459 -0.0804545 -0.00104165  0.0305395 -0.0870311 -0.00118494  0.0249701 -0.0863971 -0.000991225  0.0311553 -0.0931098 -0.00112677  0.0249603 -0.0861619 -0.00132966  0.0254325 -0.0922607 -0.00126529  0.0305296 -0.0868004 -0.0015924  0.0254421 -0.0924796 -0.000943184  0.0317171 -0.0993131 -0.00107026  0.0258648 -0.0986885 -0.000896454  0.0322218 -0.105643 -0.00101483  0.0258547 -0.0984781 -0.00120199  0.026232 -0.104824 -0.00114107  0.0317067 -0.0991027 -0.00143921  0.0262415 -0.10502 -0.000848293  0.0326751 -0.112084 -0.000961304  0.0265692 -0.111469 -0.000802279  0.0330725 -0.118639 -0.000907779  0.0265602 -0.11128 -0.00107968  0.0268432 -0.117852 -0.00102127  0.0326638 -0.111897 -0.00129235  0.0268523 -0.118028 -0.000759602  0.0334215 -0.125289 -0.000856876  0.0270902 -0.124683 -0.000715613  0.0337234 -0.13204 -0.000806451  0.0270829 -0.124517 -0.000965118  0.0272764 -0.131285 -0.000910997  0.0334116 -0.125123 -0.00115478  0.0272875 -0.13144 -0.000675321  0.0339751 -0.138875 -0.000759959  0.0274395 -0.138282 -0.000635147  0.0341794 -0.145801 -0.000713348  0.0274314 -0.138134 -0.000857234  0.0275462 -0.145073 -0.000804543  0.0339637 -0.138727 -0.00102472  0.0275564 -0.145209 -0.000593901  0.0343473 -0.152799 -0.000665545  0.0276341 -0.152212 -0.000557065  0.034466 -0.159872 -0.000624776  0.027622 -0.15208 -0.000755429  0.0276608 -0.15917 -0.0007056  0.0343351 -0.152666 -0.000901937  0.0276737 -0.159291 -0.000522256  0.0345464 -0.167008 -0.000580549  0.0276778 -0.166433 -0.000484586  0.0345864 -0.174208 -0.000538826  0.0276649 -0.166317 -0.000656486  0.0276387 -0.17353 -0.000610352  0.0345347 -0.166893 -0.000787735  0.0276484 -0.173638 -0.000450611  0.0345917 -0.181457 -0.000498056  0.0275838 -0.180892 -0.000417709  0.0345597 -0.188764 -0.00045979  0.0275774 -0.180794 -0.000566959  0.0274835 -0.188114 -0.000525951  0.0345817 -0.18136 -0.000677466  0.0274949 -0.188204 -0.000388384  0.0344942 -0.196112 -0.000422239  0.0273724 -0.195559 -0.000354767  0.0343919 -0.203509 -0.000388145  0.0273612 -0.195475 -0.000484109  0.0272102 -0.202882 -0.00044322  0.0344827 -0.19603 -0.000577092  0.0272214 -0.202958 -0.000325203  0.0342655 -0.210935 -0.000353456  0.0270455 -0.210392 -0.000297785  0.0341048 -0.2184 -0.000319481  0.0270307 -0.210322 -0.000406861  0.0268285 -0.2178 -0.000367522  0.0342557 -0.210867 -0.000482798  0.0268426 -0.217861 -0.000267863  0.0339167 -0.225892 -0.00028944  0.0266168 -0.225356 -0.000240803  0.0337033 -0.233412 -0.000259757  0.0266078 -0.225299 -0.000333786  0.0263567 -0.232831 -0.0003016  0.0339069 -0.225835 -0.000397921  0.0263689 -0.232882 -0.000216484  0.0334647 -0.240949 -0.000231385  0.0260971 -0.240426 -0.00019455  0.0332029 -0.248511 -0.000201821  0.0260875 -0.240378 -0.000270128  0.0257983 -0.247951 -0.000238895  0.0334573 -0.240903 -0.000321627  0.0258093 -0.24799 -0.000170469  0.0329211 -0.256081 -0.000177026  0.0254998 -0.255569 -0.000148177  0.0326154 -0.263671 -0.000151038  0.0254879 -0.25553 -0.000211835  0.0251641 -0.263131 -0.000182033  0.032912 -0.256046 -0.000249505  0.0251744 -0.263163 -0.000129938  0.0322921 -0.271265 -0.000131249  0.0248308 -0.270762 -0.00011003  0.0319514 -0.278868 -0.000109076  0.0248225 -0.270732 -0.000157475  0.0244663 -0.278346 -0.000135541  0.0322855 -0.271236 -0.000188589  0.0244741 -0.278368 -9.38177e-05  0.0315945 -0.286474 -8.79765e-05  0.0241044 -0.28598 -7.70092e-05  0.0312231 -0.294085 -7.21216e-05  0.0240958 -0.28596 -0.000112772  0.0237124 -0.293579 -9.23872e-05  0.0315866 -0.286454 -0.000134587  0.0237212 -0.293595 -6.16312e-05  0.0308387 -0.301695 -5.43594e-05  0.0233274 -0.301208 -4.73261e-05  0.0304418 -0.309303 -3.99351e-05  0.0233197 -0.301193 -7.34329e-05  0.0229125 -0.308812 -5.51939e-05  0.0308304 -0.301682 -8.60691e-05  0.0229204 -0.308821 -3.40939e-05  0.0300324 -0.316906 -2.43187e-05  0.0225086 -0.316426 -2.24113e-05  0.0296137 -0.324506 -1.50204e-05  0.0225003 -0.316418 -4.05312e-05  0.0220804 -0.324024 -2.64645e-05  0.0300245 -0.316898 -4.44651e-05  0.0220871 -0.324028 -1.32322e-05  0.0291891 -0.332094 -2.74181e-06  0.0216596 -0.331624 -4.41074e-06  0.0287554 -0.33968 6.31809e-06  0.0216506 -0.331622 -1.57356e-05  0.0212178 -0.339211 -5.60284e-06  0.0291829 -0.332094 -1.68085e-05  0.0212238 -0.339212 4.17233e-06  0.0283172 -0.347252 1.52588e-05  0.0207858 -0.346787 1.18017e-05  0.0278747 -0.354822 2.12193e-05  0.020782 -0.346787 6.19888e-06  0.0203369 -0.354361 1.27554e-05  0.0283096 -0.347257 4.05312e-06  0.0203424 -0.354359 1.70469e-05  0.0274289 -0.362377 2.75373e-05  0.0198948 -0.361915 2.14577e-05  0.0269806 -0.36993 3.37362e-05  0.0198908 -0.361918 2.12193e-05  0.0194404 -0.36947 2.59876e-05  0.0274212 -0.362381 2.41995e-05  0.0194468 -0.369467 2.74181e-05  0.0265343 -0.377468 4.00543e-05  0.0189979 -0.377008 3.45707e-05  0.0260797 -0.385006 4.45843e-05  0.0189924 -0.377008 3.6478e-05  0.0185461 -0.384542 4.41074e-05  0.0265245 -0.377471 3.92199e-05  0.0185499 -0.384539 3.50475e-05  0.00190315 -0.00373441 -0.000798106  0.00132945 -0.00228751 -0.000645876  0.00476192 -0.00584328 -0.00142241  0.00137325 -0.00227064 -0.000957727  0.00333522 -0.00422007 -0.00171125  0 0 0  0 0 0  0.00179613 -0.00351274 -0.00106883  0 0 0  0.00328434 -0.00436425 -0.00121903  0.00712998 -0.00747997 -0.00189257  0.00547265 -0.00623381 -0.00167346  0.00945982 -0.00943804 -0.00226367  0.00551102 -0.00597918 -0.00232327  0.00772876 -0.00789702 -0.00273228  0.00710912 -0.00726485 -0.0026406  0.00764883 -0.00818729 -0.00199842  0.0118352 -0.0114093 -0.00250638  0.0098342 -0.0102593 -0.00221348  0.0141639 -0.0136908 -0.0026592  0.00990537 -0.00992525 -0.00301707  0.0120357 -0.0122306 -0.00316906  0.0119019 -0.0110758 -0.00343168  0.0119487 -0.0125799 -0.00234604  0.016471 -0.0162048 -0.00272775  0.0140069 -0.0151399 -0.00240672  0.0187036 -0.0190043 -0.00274909  0.014082 -0.0147753 -0.00324404  0.0160577 -0.0176088 -0.00325274  0.0165484 -0.0158305 -0.00368845  0.0159882 -0.0179754 -0.00242174  0.0208655 -0.0220701 -0.00272405  0.0178928 -0.0210709 -0.00239861  0.0229421 -0.0254049 -0.00267696  0.0179483 -0.0207003 -0.00321543  0.0197622 -0.0240681 -0.00315189  0.0209286 -0.021691 -0.00365937  0.0197176 -0.0244315 -0.00235474  0.0249304 -0.0289896 -0.00260377  0.0214589 -0.0280417 -0.00229299  0.0268282 -0.032829 -0.00252664  0.0214912 -0.0276809 -0.00306714  0.0231431 -0.0315499 -0.00297141  0.0249724 -0.0286241 -0.00349188  0.023118 -0.0319011 -0.00222147  0.0286368 -0.0368923 -0.00244009  0.0246944 -0.0359885 -0.00214458  0.0303483 -0.0411999 -0.00235581  0.0247115 -0.0356436 -0.00286865  0.0262007 -0.0399768 -0.00276411  0.0286608 -0.0365515 -0.00327063  0.0261876 -0.0403079 -0.0020653  0.0319728 -0.04571 -0.00226295  0.0276 -0.0448359 -0.00198627  0.0335103 -0.0504375 -0.00217175  0.0276081 -0.0445121 -0.00265586  0.0289392 -0.0492676 -0.00255001  0.0319923 -0.0453878 -0.00302851  0.0289352 -0.0495734 -0.00190282  0.0349617 -0.0553497 -0.00208104  0.0301936 -0.0545052 -0.001827  0.0363278 -0.0604609 -0.00199258  0.0301944 -0.0542039 -0.00244308  0.0313745 -0.059341 -0.00233996  0.0349734 -0.0550519 -0.00278854  0.0313734 -0.0596276 -0.00174963  0.0376157 -0.0657436 -0.0019052  0.03248 -0.0649239 -0.00167143  0.0388206 -0.0712048 -0.00182152  0.032478 -0.0646455 -0.00223958  0.0335121 -0.0701345 -0.00213933  0.0376216 -0.0654695 -0.00255477  0.0335158 -0.0703946 -0.00159562  0.0399461 -0.0768172 -0.0017345  0.0344799 -0.076024 -0.00152099  0.0409904 -0.0825955 -0.00165534  0.0344727 -0.0757705 -0.00204217  0.0353668 -0.0815713 -0.00194597  0.0399493 -0.0765668 -0.00232804  0.0353729 -0.0818105 -0.0014509  0.041966 -0.0885086 -0.00157487  0.0361996 -0.0877368 -0.00138021  0.0428675 -0.0945705 -0.00149906  0.0361917 -0.0875052 -0.00185156  0.0369521 -0.0935894 -0.00176108  0.0419677 -0.08828 -0.00211465  0.0369595 -0.0938081 -0.00131392  0.0436965 -0.100751 -0.00142038  0.0376542 -0.100004 -0.00124598  0.044453 -0.107068 -0.00134909  0.0376481 -0.0997923 -0.00167453  0.0382816 -0.106132 -0.00158846  0.043695 -0.100545 -0.00190949  0.038288 -0.106325 -0.00118315  0.0451461 -0.113485 -0.00127685  0.0388609 -0.112757 -0.00111854  0.0457705 -0.120026 -0.00120711  0.038856 -0.11257 -0.0015049  0.0393698 -0.11913 -0.00142205  0.0451469 -0.113301 -0.00171602  0.039376 -0.119304 -0.00105703  0.0463321 -0.126655 -0.00113988  0.0398315 -0.125949 -0.000999331  0.0468352 -0.133392 -0.00107408  0.0398253 -0.12578 -0.00134468  0.0402279 -0.132536 -0.00126874  0.0463337 -0.12649 -0.00153565  0.0402342 -0.132692 -0.000942111  0.0472795 -0.140207 -0.00100839  0.0405824 -0.139519 -0.000884771  0.0476635 -0.147118 -0.000945687  0.0405772 -0.139371 -0.00119019  0.0408728 -0.146302 -0.00111949  0.0472792 -0.140063 -0.00135863  0.0408814 -0.146437 -0.000829339  0.0479927 -0.154094 -0.000886559  0.0411277 -0.153429 -0.000776649  0.0482645 -0.161154 -0.000828981  0.0411212 -0.153296 -0.0010469  0.0413203 -0.160375 -0.000981569  0.0479908 -0.153968 -0.00119638  0.0413275 -0.160493 -0.00072813  0.0484924 -0.168264 -0.000769854  0.0414817 -0.167619 -0.000677466  0.0486665 -0.175453 -0.000713468  0.0414741 -0.167506 -0.000915051  0.0415812 -0.174711 -0.000849843  0.0484867 -0.168156 -0.00104117  0.0415907 -0.174813 -0.00062561  0.048799 -0.182685 -0.000659108  0.0416567 -0.182057 -0.000580311  0.0488775 -0.189976 -0.000609517  0.0416481 -0.181958 -0.000788331  0.0416756 -0.189269 -0.000727177  0.0487921 -0.18259 -0.0008955  0.0416846 -0.189357 -0.000535846  0.0489166 -0.197303 -0.000562906  0.041672 -0.196697 -0.00049603  0.0489111 -0.204685 -0.000514865  0.0416627 -0.196613 -0.000672817  0.0416136 -0.204009 -0.000613928  0.0489109 -0.197225 -0.000767231  0.0416214 -0.204085 -0.000450492  0.0488708 -0.212094 -0.000467539  0.0415337 -0.211506 -0.000411868  0.0487874 -0.219544 -0.0004251  0.0415275 -0.211435 -0.000559688  0.0414071 -0.218902 -0.000509977  0.0488641 -0.212027 -0.000640392  0.0414162 -0.218963 -0.00037241  0.0486736 -0.22702 -0.000382304  0.0412662 -0.226447 -0.000334978  0.0485213 -0.234525 -0.000344396  0.0412571 -0.226391 -0.000459909  0.041079 -0.23391 -0.000417352  0.0486665 -0.226962 -0.000525832  0.0410864 -0.23396 -0.000302911  0.0483425 -0.242043 -0.000305414  0.0408764 -0.241491 -0.000268459  0.0481293 -0.249593 -0.000268459  0.0408678 -0.241443 -0.000373244  0.0406327 -0.249006 -0.000327587  0.0483367 -0.242001 -0.000425816  0.0406411 -0.249045 -0.000234485  0.0478868 -0.257145 -0.0002352  0.0403779 -0.256609 -0.000205636  0.0476203 -0.264723 -0.000202179  0.0403726 -0.256573 -0.00028801  0.0400891 -0.264162 -0.000250816  0.0478861 -0.257113 -0.000327826  0.0400953 -0.264192 -0.000176907  0.0473294 -0.272303 -0.000171423  0.0397885 -0.27178 -0.000152588  0.0470099 -0.279891 -0.000148654  0.0397816 -0.271751 -0.000215173  0.0394537 -0.279356 -0.000182986  0.0473228 -0.272276 -0.000248075  0.0394621 -0.279377 -0.000127196  0.0466707 -0.287483 -0.00011909  0.039114 -0.286976 -0.000104904  0.0463123 -0.295084 -9.38177e-05  0.0391057 -0.286956 -0.000152826  0.0387428 -0.29457 -0.000123024  0.0466681 -0.287463 -0.000174165  0.0387516 -0.294582 -8.01086e-05  0.0459375 -0.302679 -7.1764e-05  0.0383728 -0.302187 -6.44922e-05  0.0455463 -0.310275 -5.17368e-05  0.0383661 -0.302171 -0.000100017  0.0379717 -0.30978 -7.65324e-05  0.0459323 -0.302666 -0.000114918  0.0379808 -0.309789 -4.97103e-05  0.0451462 -0.317867 -3.57628e-05  0.0375772 -0.317386 -2.82526e-05  0.044728 -0.325461 -1.87159e-05  0.0375695 -0.317379 -5.4121e-05  0.0371518 -0.324981 -3.65973e-05  0.0451412 -0.31786 -6.35386e-05  0.0371599 -0.324983 -1.71661e-05  0.0442998 -0.33304 -5.24521e-06  0.0367336 -0.332568 -3.8147e-06  0.0438583 -0.34062 7.27177e-06  0.0367248 -0.332568 -1.68085e-05  0.0362923 -0.340153 -2.6226e-06  0.0442963 -0.333036 -2.03848e-05  0.0363011 -0.34015 8.22544e-06  0.0434175 -0.348182 1.84774e-05  0.0358617 -0.347721 1.70469e-05  0.0429668 -0.355747 2.69413e-05  0.0358541 -0.347721 1.13249e-05  0.035409 -0.355291 1.94311e-05  0.0434134 -0.348185 7.15256e-06  0.0354142 -0.355286 2.30074e-05  0.0425158 -0.3633 3.61204e-05  0.0349662 -0.362843 3.18289e-05  0.0420558 -0.370851 4.37498e-05  0.0349627 -0.362844 2.95639e-05  0.0345109 -0.370394 3.91006e-05  0.0425093 -0.363306 3.40939e-05  0.0345173 -0.370389 3.88622e-05  0.0416064 -0.378388 4.99487e-05  0.034065 -0.37793 4.37498e-05  0.041151 -0.38593 5.4121e-05  0.0340562 -0.377933 4.45843e-05  0.0336061 -0.385473 5.11408e-05  0.0415981 -0.378393 4.87566e-05  0.0336118 -0.385469 4.91142e-05  -0.000931736 -0.00117933 0.00109553  -0.00117113 -0.00183873 0.00129175  -0.00254779 -0.00273186 0.00197399  -0.00127464 -0.00170227 0.0017159  -0.00349083 -0.00343949 0.00296116  -0.00251661 -0.00312453 0.00194693  0 0 0  -0.00260333 -0.00337041 0.00148296  0 0 0  0 0 0  -0.000967953 -0.0010135 0.00147152  0 0 0  -0.00491312 -0.00508275 0.0026176  -0.00341979 -0.00381288 0.00228751  -0.00437303 -0.00426088 0.00266814  -0.00560533 -0.00532533 0.00308454  -0.00626053 -0.00595255 0.00312412  -0.00573926 -0.00482475 0.00390542  -0.00796744 -0.00639503 0.00448859  -0.00728007 -0.00593619 0.00443578  -0.0071941 -0.0064594 0.00354171  -0.00455378 -0.0038197 0.00336742  -0.00955568 -0.00808404 0.00414038  -0.00778635 -0.00697417 0.00361824  -0.00814804 -0.00788568 0.00340092  -0.0099557 -0.00880513 0.00394845  -0.00997606 -0.0100488 0.00356233  -0.0100954 -0.00817648 0.00484145  -0.0121783 -0.0102646 0.00502658  -0.0120675 -0.00917051 0.00553679  -0.0119569 -0.00983225 0.00451767  -0.00830537 -0.00729947 0.00416899  -0.0143325 -0.0119016 0.0047332  -0.0120623 -0.0109164 0.00413597  -0.0117541 -0.0125058 0.00361407  -0.0141334 -0.0133099 0.00420308  -0.0134853 -0.0152344 0.00361168  -0.0141974 -0.0126515 0.0050776  -0.0161712 -0.0153353 0.00505733  -0.0167389 -0.0135502 0.00581348  -0.0166827 -0.0142417 0.00480342  -0.0118249 -0.0118783 0.00436246  -0.0189722 -0.016866 0.00480711  -0.0161422 -0.0159889 0.00420272  -0.0151684 -0.0182386 0.00355446  -0.0181034 -0.0189466 0.00413918  -0.0168121 -0.0215064 0.00347328  -0.0180943 -0.0183035 0.00496912  -0.0199739 -0.0215401 0.00485098  -0.0212082 -0.0191117 0.00568652  -0.0212095 -0.0197759 0.00472939  -0.0151604 -0.0176135 0.00426233  -0.0233801 -0.0229399 0.00462639  -0.0200093 -0.0221663 0.00404596  -0.01841 -0.0250246 0.00336909  -0.0218655 -0.025646 0.00392497  -0.0199714 -0.0287875 0.00325584  -0.0218079 -0.0250362 0.00470257  -0.0235939 -0.028779 0.00454354  -0.0254443 -0.0257566 0.00537777  -0.0254905 -0.0263736 0.0044862  -0.0183499 -0.024427 0.00403225  -0.0275416 -0.0300423 0.00433707  -0.0236703 -0.029364 0.00379395  -0.0214921 -0.0327813 0.00313365  -0.0254259 -0.0333206 0.00365293  -0.022976 -0.0369971 0.00300968  -0.0253369 -0.0327548 0.0043745  -0.0270348 -0.0369528 0.00420308  -0.0294538 -0.0333839 0.00500274  -0.0295254 -0.0339539 0.00417495  -0.0214007 -0.0322217 0.00374997  -0.031458 -0.0380793 0.00401211  -0.0271341 -0.0374923 0.00350976  -0.024421 -0.0414248 0.00288332  -0.0287957 -0.0418842 0.0033648  -0.0258317 -0.0460586 0.00276148  -0.0286887 -0.041362 0.00403202  -0.0302992 -0.0459777 0.00385845  -0.0332389 -0.041904 0.00460839  -0.0333306 -0.0424282 0.00384617  -0.024313 -0.040909 0.0034523  -0.0351489 -0.0469727 0.00368202  -0.0304104 -0.046475 0.00322044  -0.0272068 -0.0508834 0.00263989  -0.0319806 -0.0512663 0.00308073  -0.0285479 -0.0558957 0.00252187  -0.0318687 -0.0507873 0.00369251  -0.0333947 -0.0557836 0.00352764  -0.0368115 -0.051243 0.00422144  -0.0369098 -0.0517212 0.00352132  -0.0270921 -0.0504077 0.00316346  -0.0386244 -0.056648 0.00336635  -0.0335068 -0.0562373 0.00294304  -0.029853 -0.061081 0.00240731  -0.0349929 -0.0613869 0.00280774  -0.0311285 -0.0664389 0.00229144  -0.0348791 -0.060953 0.00336945  -0.0363241 -0.0662933 0.00321031  -0.0401828 -0.0613252 0.00385106  -0.0402818 -0.0617592 0.00320971  -0.0297393 -0.0606475 0.00288439  -0.0418924 -0.0670371 0.0030601  -0.036436 -0.0667049 0.0026778  -0.0323718 -0.0719561 0.00218487  -0.0378413 -0.0721896 0.00254965  -0.0335832 -0.0776289 0.00207603  -0.0377308 -0.0717939 0.00305939  -0.0390964 -0.0774512 0.00290954  -0.0433547 -0.072086 0.00349927  -0.043453 -0.0724795 0.00291574  -0.0322565 -0.0715609 0.0026207  -0.0449705 -0.0780769 0.00277543  -0.0392059 -0.0778251 0.00242543  -0.034761 -0.0834477 0.00197268  -0.0405322 -0.0836116 0.00230467  -0.0359106 -0.0894074 0.00187278  -0.0404253 -0.0832536 0.00276721  -0.0417166 -0.0891975 0.0026263  -0.0463438 -0.0834672 0.00316679  -0.0464389 -0.0838238 0.002635  -0.0346525 -0.0830912 0.00236857  -0.0478622 -0.0897102 0.00250423  -0.0418186 -0.0895344 0.00218654  -0.0370321 -0.0954965 0.00177574  -0.0430726 -0.0955924 0.002074  -0.0381259 -0.101713 0.00168264  -0.0429715 -0.095273 0.00249052  -0.044189 -0.101473 0.00235963  -0.0491527 -0.0954129 0.00285113  -0.049239 -0.0957343 0.0023756  -0.0369278 -0.0951739 0.00213432  -0.0505784 -0.10188 0.0022496  -0.0442861 -0.101775 0.00196493  -0.0391872 -0.108045 0.00159156  -0.04547 -0.10808 0.00185692  -0.0402232 -0.114493 0.00150025  -0.0453752 -0.107792 0.00223243  -0.0465252 -0.114226 0.0021075  -0.0517893 -0.107865 0.00255299  -0.0518708 -0.10815 0.00212514  -0.0390894 -0.107757 0.00191069  -0.0531266 -0.114532 0.00200856  -0.0466172 -0.114495 0.00175321  -0.0412329 -0.121041 0.00141501  -0.0477325 -0.121018 0.00165355  -0.0422164 -0.127695 0.00133228  -0.0476414 -0.120763 0.0019877  -0.0487242 -0.127403 0.00187182  -0.0542617 -0.12077 0.00227427  -0.0543399 -0.121024 0.00188947  -0.0411419 -0.120787 0.00170088  -0.0555161 -0.127617 0.00178134  -0.048811 -0.127641 0.00155663  -0.0431727 -0.134437 0.00125241  -0.0498607 -0.134359 0.00146127  -0.0441045 -0.141271 0.00117481  -0.0497762 -0.134132 0.00175774  -0.0507981 -0.140954 0.00165021  -0.0565815 -0.13408 0.00201225  -0.0566542 -0.134304 0.00167382  -0.0430884 -0.134213 0.0015043  -0.0577562 -0.141083 0.00156879  -0.0508777 -0.141164 0.00137269  -0.0450113 -0.148182 0.00109601  -0.0518663 -0.148051 0.00128186  -0.0458958 -0.155173 0.00102401  -0.0517907 -0.147854 0.00154364  -0.052752 -0.154836 0.00143945  -0.0587523 -0.147747 0.00176549  -0.05882 -0.147943 0.00146735  -0.0449324 -0.147984 0.00132191  -0.0598476 -0.154883 0.00137067  -0.0528228 -0.155017 0.0011965  -0.0467527 -0.162232 0.000954509  -0.0537527 -0.162054 0.00111377  -0.0475891 -0.169358 0.000885725  -0.0536833 -0.161882 0.00134325  -0.0545864 -0.168999 0.00124681  -0.0607867 -0.161725 0.00153267  -0.0608435 -0.161893 0.00127363  -0.0466805 -0.16206 0.00114834  -0.0618062 -0.168973 0.00118792  -0.0546515 -0.169159 0.00103366  -0.0483994 -0.176542 0.00082016  -0.055526 -0.176324 0.000959277  -0.0491939 -0.18379 0.000755787  -0.0554643 -0.17618 0.00115693  -0.0563123 -0.183414 0.00106764  -0.06268 -0.175975 0.00132263  -0.0627334 -0.176117 0.0010972  -0.0483353 -0.176397 0.000987291  -0.0636334 -0.183317 0.00101578  -0.0563703 -0.183546 0.000885963  -0.0499628 -0.191078 0.000695586  -0.0571899 -0.19082 0.000815392  -0.0507123 -0.19842 0.000638366  -0.0571344 -0.190695 0.000982642  -0.057929 -0.198028 0.000900865  -0.0644455 -0.190447 0.00112498  -0.0644963 -0.190568 0.000932693  -0.0499022 -0.190954 0.000839114  -0.0653348 -0.197871 0.000854254  -0.0579846 -0.198142 0.000745177  -0.0514388 -0.205797 0.000579715  -0.0587542 -0.205503 0.000680804  -0.0521472 -0.213215 0.000527859  -0.0587037 -0.205401 0.000822544  -0.0594516 -0.212815 0.000746012  -0.0660949 -0.205115 0.000939608  -0.0661454 -0.205217 0.000778913  -0.0513864 -0.205692 0.000701785  -0.0669215 -0.212601 0.00071013  -0.0595009 -0.212906 0.000617743  -0.0528359 -0.220668 0.000478506  -0.0602229 -0.220342 0.000558853  -0.0535076 -0.228149 0.00042665  -0.0601764 -0.220257 0.000675797  -0.0608826 -0.227738 0.000607848  -0.0676348 -0.219938 0.000772715  -0.0676723 -0.220022 0.000641346  -0.0527906 -0.220582 0.000578165  -0.0684028 -0.227472 0.000575781  -0.0609248 -0.227812 0.00050056  -0.0541594 -0.235656 0.000382066  -0.0616059 -0.235305 0.000447035  -0.0547972 -0.243189 0.000338912  -0.0615644 -0.235238 0.00054431  -0.0622256 -0.242768 0.000480652  -0.069072 -0.23489 0.000622869  -0.0691071 -0.234955 0.0005126  -0.0541191 -0.235587 0.000463724  -0.0697856 -0.24246 0.000454545  -0.0622635 -0.242824 0.000396848  -0.0554142 -0.250734 0.000300288  -0.0629032 -0.250361 0.00034833  -0.0560188 -0.258301 0.000260115  -0.0628672 -0.250306 0.000422597  -0.0634892 -0.257869 0.000370741  -0.0704107 -0.249931 0.000485182  -0.0704381 -0.249985 0.000400662  -0.0553775 -0.25068 0.000362754  -0.0710752 -0.257528 0.000350714  -0.0635214 -0.257915 0.000303388  -0.0566082 -0.265873 0.000223517  -0.0641243 -0.265482 0.000262022  -0.0571811 -0.273463 0.000190139  -0.0640931 -0.265442 0.000318766  -0.0646813 -0.273029 0.000270963  -0.0716617 -0.265046 0.000364423  -0.0716832 -0.265082 0.00030005  -0.0565777 -0.265835 0.000273466  -0.0722787 -0.272652 0.000252485  -0.064708 -0.273061 0.000220537  -0.0577397 -0.281057 0.000157833  -0.0652764 -0.280646 0.000184059  -0.0582845 -0.288657 0.000127673  -0.0652523 -0.280617 0.000227213  -0.0658071 -0.288217 0.000185132  -0.0728309 -0.280204 0.000259399  -0.0728502 -0.280227 0.000210404  -0.0577123 -0.281028 0.000196457  -0.0734086 -0.287813 0.000172019  -0.0658281 -0.288238 0.000149012  -0.0588171 -0.296257 0.000101447  -0.06637 -0.295832 0.000118017  -0.0593424 -0.303861 7.72476e-05  -0.0663464 -0.295812 0.000146747  -0.0668747 -0.303418 0.000113726  -0.0739341 -0.295382 0.000166774  -0.0739522 -0.295404 0.000132084  -0.0587966 -0.296237 0.000126958  -0.0744784 -0.302992 0.000103354  -0.0668945 -0.303428 9.10759e-05  -0.0598521 -0.311457 5.75781e-05  -0.0674095 -0.311022 6.42538e-05  -0.0603566 -0.319054 3.70741e-05  -0.0673914 -0.311013 8.4281e-05  -0.0678959 -0.31861 5.62668e-05  -0.0749772 -0.310574 9.98974e-05  -0.0749891 -0.310579 7.60555e-05  -0.0598352 -0.311448 7.12872e-05  -0.0754886 -0.318167 5.25713e-05  -0.06791 -0.318614 4.18425e-05  -0.0608501 -0.326645 1.95503e-05  -0.0684025 -0.326201 2.01464e-05  -0.0613356 -0.33423 4.17233e-06  -0.0683887 -0.326199 3.29018e-05  -0.0688753 -0.333786 1.37091e-05  -0.075963 -0.32575 3.69549e-05  -0.0759761 -0.32575 2.53916e-05  -0.0608356 -0.326644 2.74181e-05  -0.0764551 -0.333329 8.10623e-06  -0.0688846 -0.333784 4.05312e-06  -0.0618129 -0.341805 -8.46386e-06  -0.0693636 -0.341355 -1.00136e-05  -0.0622861 -0.349375 -1.83582e-05  -0.069351 -0.341357 -6.19888e-06  -0.0698216 -0.348928 -1.63317e-05  -0.0769112 -0.340901 -5.72205e-06  -0.0769224 -0.3409 -9.77516e-06  -0.0618024 -0.341805 -3.69549e-06  -0.0773916 -0.348467 -2.14577e-05  -0.0698318 -0.348922 -2.24113e-05  -0.0627522 -0.356932 -2.7895e-05  -0.0702982 -0.356481 -3.00407e-05  -0.0632179 -0.364482 -3.68357e-05  -0.0702868 -0.356483 -3.08752e-05  -0.0707479 -0.364035 -3.94583e-05  -0.0778377 -0.356027 -3.42131e-05  -0.077848 -0.356022 -3.52859e-05  -0.0627408 -0.356932 -2.70605e-05  -0.0783055 -0.363578 -4.3869e-05  -0.0707593 -0.36403 -4.14848e-05  -0.0636761 -0.372023 -4.52995e-05  -0.0712178 -0.371573 -4.86374e-05  -0.0641365 -0.379558 -5.62668e-05  -0.0712068 -0.371576 -5.17368e-05  -0.0716655 -0.379119 -6.24657e-05  -0.0787511 -0.371121 -5.19753e-05  -0.0787561 -0.371118 -5.00679e-05  -0.063669 -0.372028 -5.00679e-05  -0.0792122 -0.378658 -5.72205e-05  -0.0716772 -0.379109 -5.8651e-05  -0.000543889 -0.00045225 0.000735998  -0.000691719 -0.000741065 0.000918627  -0.00143611 -0.00139287 0.00134647  -0.000714123 -0.000592023 0.00123882  -0.00197712 -0.00164497 0.00214934  0 0 0  0 0 0  -0.000570778 -0.000316054 0.000987411  0 0 0  -0.00184074 -0.00191341 0.00166881  -0.00251736 -0.00278145 0.00181639  -0.0033356 -0.00341713 0.00224686  -0.00373121 -0.0044997 0.00212932  -0.00350465 -0.00302477 0.00285351  -0.00509095 -0.00466025 0.00326967  -0.00265342 -0.00243314 0.00230253  -0.00489855 -0.00513676 0.00263095  -0.00496915 -0.00647949 0.00231254  -0.0064742 -0.00710028 0.00286174  -0.00620535 -0.00875175 0.0024122  -0.00662318 -0.00656268 0.00350451  -0.00812694 -0.00875774 0.00362921  -0.0050965 -0.00598073 0.00283098  -0.00801346 -0.00933073 0.00299025  -0.00740841 -0.0112885 0.00243795  -0.00951138 -0.0118304 0.00303018  -0.0085817 -0.0141032 0.00243056  -0.00957635 -0.0112352 0.00364935  -0.0109905 -0.0140051 0.00362837  -0.00746301 -0.0107192 0.00293863  -0.010966 -0.0146062 0.00302148  -0.00972342 -0.0171838 0.00238717  -0.0123826 -0.0176522 0.00297272  -0.0108406 -0.0205251 0.00232708  -0.0123725 -0.0170442 0.00355875  -0.013723 -0.0203608 0.00346971  -0.00971329 -0.0165935 0.00285661  -0.0137619 -0.0209569 0.00290072  -0.0119303 -0.0241145 0.00225568  -0.0151094 -0.0245157 0.00281239  -0.0129994 -0.0279484 0.00217593  -0.0150492 -0.0239283 0.00336492  -0.0163451 -0.0277444 0.0032469  -0.0118769 -0.0235371 0.00269258  -0.0164223 -0.0283137 0.00271428  -0.0140472 -0.0320062 0.00209236  -0.0177085 -0.032344 0.00261271  -0.0150755 -0.0362898 0.0020088  -0.0176198 -0.0317881 0.00312519  -0.0188674 -0.0360614 0.00300145  -0.013965 -0.0314558 0.00250053  -0.0189644 -0.0365947 0.00250888  -0.0160851 -0.040781 0.0019238  -0.0201942 -0.0410584 0.00240445  -0.0170786 -0.0454779 0.00184023  -0.0200907 -0.0405411 0.00287819  -0.0212891 -0.045229 0.00275517  -0.0159918 -0.0402661 0.00230169  -0.0213967 -0.0457251 0.00229895  -0.0180533 -0.0503649 0.00175834  -0.0225708 -0.0505841 0.00220013  -0.0190117 -0.0554386 0.00167751  -0.0224632 -0.050106 0.00263572  -0.023612 -0.0551739 0.0025171  -0.0179548 -0.0498895 0.00210619  -0.0237223 -0.0556276 0.0020982  -0.019953 -0.0606875 0.00160182  -0.0248473 -0.0608476 0.00200403  -0.020879 -0.0661072 0.001526  -0.0247397 -0.0604129 0.00240397  -0.0258408 -0.0658262 0.00229001  -0.0198534 -0.0602522 0.00191903  -0.025949 -0.0662364 0.00190842  -0.021788 -0.0716841 0.00145173  -0.0270262 -0.0717884 0.00181949  -0.0226828 -0.077418 0.00137937  -0.0269204 -0.0713916 0.00218177  -0.0279753 -0.0771165 0.00207436  -0.0216902 -0.0712877 0.00174105  -0.0280811 -0.0774915 0.0017283  -0.023561 -0.0832931 0.00131178  -0.0291122 -0.083341 0.00164258  -0.0244246 -0.0893082 0.00124419  -0.0290087 -0.0829813 0.00197184  -0.0300186 -0.0889905 0.00187278  -0.023466 -0.0829316 0.00157368  -0.0301193 -0.089331 0.00155675  -0.0252723 -0.0954531 0.00117898  -0.0311065 -0.0954497 0.00147796  -0.0261075 -0.101723 0.00111592  -0.031008 -0.095126 0.00177526  -0.0319743 -0.101389 0.0016799  -0.025183 -0.0951291 0.00141656  -0.032069 -0.101693 0.00140047  -0.0269271 -0.108109 0.00105429  -0.033013 -0.108055 0.00132215  -0.0277325 -0.114606 0.00099504  -0.0329201 -0.107762 0.00159109  -0.0338455 -0.114255 0.0014993  -0.0268433 -0.107815 0.00126731  -0.0339336 -0.114527 0.00124717  -0.028523 -0.121205 0.000938177  -0.0348371 -0.121104 0.00117683  -0.0293034 -0.127906 0.000883102  -0.0347518 -0.120845 0.00141597  -0.0356349 -0.127541 0.00133336  -0.028446 -0.120945 0.00112784  -0.0357175 -0.127781 0.00110745  -0.0300668 -0.134693 0.000829458  -0.036579 -0.134548 0.0010407  -0.0308161 -0.141571 0.000779152  -0.0364993 -0.134319 0.00125289  -0.0373461 -0.141192 0.00117469  -0.0299928 -0.134464 0.000997424  -0.0374218 -0.141406 0.000973582  -0.0315545 -0.148524 0.0007267  -0.0382442 -0.148338 0.000911951  -0.0322788 -0.155557 0.000678539  -0.0381737 -0.148139 0.00109947  -0.0389805 -0.155167 0.00102437  -0.031486 -0.148323 0.000874043  -0.0390475 -0.155351 0.000851154  -0.032989 -0.162654 0.000631094  -0.0398359 -0.162432 0.00079453  -0.0336866 -0.169818 0.000585675  -0.0397699 -0.162258 0.000955939  -0.0405374 -0.169417 0.000888705  -0.0329263 -0.162479 0.000761747  -0.0406034 -0.169577 0.000735641  -0.034374 -0.177041 0.000543118  -0.0413539 -0.176783 0.000678778  -0.0350471 -0.184317 0.000500083  -0.0412917 -0.17663 0.000821829  -0.0420301 -0.183908 0.00075686  -0.0343158 -0.176888 0.000653148  -0.0420871 -0.184043 0.000628471  -0.0357039 -0.19164 0.000460505  -0.042803 -0.191351 0.000577211  -0.0363548 -0.199011 0.000420451  -0.0427499 -0.191224 0.000697851  -0.0434525 -0.198592 0.000639796  -0.035656 -0.191512 0.000552893  -0.0435054 -0.198709 0.000528693  -0.0369911 -0.206418 0.000385404  -0.0441914 -0.206102 0.000483871  -0.0376172 -0.213865 0.000350356  -0.0441408 -0.205996 0.000584602  -0.0448129 -0.213439 0.000531912  -0.0369482 -0.206313 0.000465393  -0.0448589 -0.213535 0.000436187  -0.0382316 -0.221341 0.000316381  -0.0455098 -0.221001 0.000397086  -0.0388355 -0.228849 0.000282884  -0.0454669 -0.220912 0.000480533  -0.0461068 -0.228417 0.000431299  -0.0381918 -0.221252 0.000382304  -0.0461481 -0.228493 0.000356197  -0.0394261 -0.236376 0.000253916  -0.0467715 -0.236014 0.000316501  -0.0400074 -0.243927 0.000223875  -0.0467341 -0.235942 0.000386119  -0.0473449 -0.243496 0.000341654  -0.0393898 -0.236306 0.000306964  -0.0473807 -0.243555 0.000281334  -0.0405798 -0.251493 0.000196099  -0.0479782 -0.251113 0.000247836  -0.0411389 -0.259077 0.000169992  -0.047941 -0.251056 0.000303149  -0.048526 -0.258639 0.00026226  -0.0405476 -0.251438 0.000236392  -0.0485613 -0.258688 0.000211954  -0.0416889 -0.266671 0.000145912  -0.04913 -0.26627 0.000185013  -0.042232 -0.274275 0.000123024  -0.0491002 -0.266227 0.000226498  -0.0496621 -0.273834 0.000193357  -0.041661 -0.266627 0.00017786  -0.0496895 -0.273868 0.000156403  -0.0427632 -0.28188 0.000101566  -0.0502386 -0.281468 0.000129223  -0.0432873 -0.289493 8.33273e-05  -0.0502119 -0.281439 0.000161171  -0.0507541 -0.289052 0.000131011  -0.0427415 -0.281849 0.00012815  -0.0507736 -0.289076 0.000104427  -0.043803 -0.297104 6.69956e-05  -0.0512993 -0.296681 8.22544e-05  -0.0443101 -0.304717 4.85182e-05  -0.0512805 -0.29666 0.000106215  -0.0517981 -0.304275 8.11815e-05  -0.0437865 -0.297084 8.09431e-05  -0.0518169 -0.304289 6.13928e-05  -0.0448146 -0.312325 3.39746e-05  -0.0523219 -0.311893 4.58956e-05  -0.0453093 -0.319929 2.20537e-05  -0.0523098 -0.311879 5.93662e-05  -0.0528114 -0.319486 4.13656e-05  -0.0448017 -0.31231 4.66108e-05  -0.0528235 -0.319491 2.90871e-05  -0.0457959 -0.327526 1.10865e-05  -0.0533156 -0.327087 1.51396e-05  -0.0462816 -0.335118 3.8147e-06  -0.0533042 -0.327081 2.41995e-05  -0.0537913 -0.334674 1.01328e-05  -0.0457888 -0.327519 1.71661e-05  -0.0538008 -0.334674 1.90735e-06  -0.0467565 -0.342695 -7.62939e-06  -0.0542781 -0.342252 -6.67572e-06  -0.0472276 -0.350269 -1.5378e-05  -0.0542698 -0.34225 -1.66893e-06  -0.0547409 -0.349825 -1.32322e-05  -0.0467486 -0.342694 -4.88758e-06  -0.0547523 -0.349822 -1.5974e-05  -0.0476942 -0.357828 -2.0504e-05  -0.0552204 -0.357381 -2.65837e-05  -0.0481577 -0.36538 -2.72989e-05  -0.0552113 -0.357381 -2.40803e-05  -0.0556743 -0.364937 -3.40939e-05  -0.0476859 -0.357832 -2.06232e-05  -0.0556843 -0.364933 -3.5882e-05  -0.0486169 -0.372917 -3.24249e-05  -0.0561445 -0.372472 -4.05312e-05  -0.0490768 -0.380443 -4.18425e-05  -0.0561349 -0.372474 -4.22001e-05  -0.0565982 -0.380009 -5.4121e-05  -0.0486093 -0.372921 -3.68357e-05  -0.0566034 -0.380003 -4.95911e-05  -0.000246841 -0.000148892 0.000366092  -0.000376567 -0.000263602 0.000556588  -0.000646107 -0.000861675 0.000677347  -0.000390965 -0.000134408 0.000746131  -0.00106089 -0.000822186 0.00130963  0 0 0  0 0 0  -0.000258565 -2.63155e-05 0.000489593  0 0 0  -0.000981629 -0.00106147 0.00101042  -0.00113434 -0.00209734 0.000915051  -0.00177313 -0.00236994 0.00136936  -0.00170967 -0.00373372 0.00108147  -0.00187416 -0.00203648 0.00174177  -0.00277947 -0.00362465 0.00200069  -0.00120285 -0.00177944 0.0011636  -0.00264898 -0.00403431 0.00160849  -0.00230157 -0.00571692 0.00117171  -0.00358483 -0.00602433 0.00174606  -0.00291213 -0.00802284 0.00122261  -0.00368083 -0.00554737 0.00213873  -0.00457904 -0.00779247 0.00221038  -0.00236589 -0.00526121 0.00143707  -0.0045042 -0.00831285 0.00182199  -0.00351614 -0.0106122 0.00123572  -0.0054183 -0.0108838 0.00184011  -0.00411323 -0.0134846 0.00122869  -0.00545752 -0.0103312 0.00221217  -0.00631577 -0.0131614 0.00219548  -0.0035395 -0.0100754 0.00148523  -0.00630257 -0.0137284 0.00183141  -0.00469947 -0.0166183 0.00120413  -0.00717103 -0.0168393 0.00179684  -0.00528216 -0.0200134 0.00117266  -0.00715858 -0.0162611 0.00214839  -0.00798732 -0.0196351 0.00209045  -0.00468427 -0.0160503 0.00143707  -0.00801969 -0.0202097 0.00175214  -0.00585645 -0.0236526 0.0011338  -0.00885576 -0.0238284 0.00169384  -0.0064289 -0.0275351 0.00109112  -0.00880593 -0.023256 0.00202405  -0.00961453 -0.0271295 0.00195098  -0.00581414 -0.0230889 0.00135005  -0.00967699 -0.0276859 0.00163543  -0.00699848 -0.0316425 0.00104952  -0.0104861 -0.0317721 0.00157189  -0.00756878 -0.0359726 0.00100529  -0.0104169 -0.0312257 0.00187671  -0.0112078 -0.0355514 0.00180054  -0.0069415 -0.0310989 0.0012511  -0.0112848 -0.0360812 0.00150681  -0.00813776 -0.0405089 0.00096333  -0.0120751 -0.0405985 0.00144303  -0.00870508 -0.0452529 0.000918984  -0.0119944 -0.0400833 0.00172627  -0.0127713 -0.0448271 0.00164962  -0.00806934 -0.0399988 0.00114906  -0.0128556 -0.0453189 0.00138044  -0.00927234 -0.0501857 0.000878334  -0.0136281 -0.0502322 0.0013181  -0.00984275 -0.0553076 0.000834584  -0.0135435 -0.0497564 0.00157821  -0.0143054 -0.0548777 0.00150657  -0.00920236 -0.0497102 0.00104868  -0.014393 -0.0553319 0.00125659  -0.0104104 -0.0606021 0.000796437  -0.0151477 -0.0606067 0.00119865  -0.01098 -0.0660661 0.000757098  -0.0150605 -0.0601675 0.00143743  -0.0158101 -0.0656352 0.00136817  -0.0103408 -0.0601655 0.000953674  -0.0158951 -0.0660501 0.00113964  -0.0115469 -0.0716889 0.000720263  -0.0166352 -0.0716518 0.00108588  -0.0121167 -0.0774665 0.000684023  -0.0165523 -0.0712512 0.00130296  -0.0172843 -0.07703 0.00123835  -0.0114795 -0.0712897 0.000861883  -0.0173677 -0.0774073 0.00103068  -0.0126851 -0.0833846 0.000648499  -0.0180919 -0.0833078 0.000978708  -0.0132555 -0.0894427 0.000613451  -0.0180128 -0.0829456 0.00117624  -0.0187312 -0.0890038 0.00111353  -0.0126191 -0.0830214 0.000776172  -0.0188085 -0.0893455 0.000929356  -0.0138236 -0.0956295 0.00058198  -0.0195193 -0.0955132 0.000881195  -0.014393 -0.101941 0.000550151  -0.0194421 -0.095186 0.00105751  -0.0201474 -0.101497 0.00100005  -0.0137621 -0.0953012 0.000696421  -0.02022 -0.101804 0.000831962  -0.0149596 -0.108364 0.000519872  -0.020914 -0.108212 0.000785828  -0.0155271 -0.114904 0.000489473  -0.0208446 -0.107917 0.000946879  -0.0215328 -0.114456 0.000892282  -0.0149019 -0.108071 0.000622153  -0.0216018 -0.114731 0.000742197  -0.0160915 -0.121539 0.000461578  -0.022282 -0.121352 0.00069809  -0.0166553 -0.128276 0.000433087  -0.0222142 -0.121088 0.000842094  -0.0228879 -0.127826 0.000790596  -0.0160371 -0.121277 0.000553489  -0.0229529 -0.12807 0.000657678  -0.0172181 -0.135101 0.000405431  -0.0236169 -0.134879 0.000618577  -0.0177798 -0.142012 0.000378489  -0.0235556 -0.134645 0.000743032  -0.0242141 -0.141557 0.000696659  -0.0171688 -0.134868 0.000486493  -0.0242723 -0.141773 0.000578523  -0.0183401 -0.148998 0.000353098  -0.0249231 -0.148743 0.00053966  -0.018898 -0.156061 0.000329018  -0.0248659 -0.148541 0.000650406  -0.0255101 -0.155603 0.000606894  -0.0182917 -0.148793 0.000425577  -0.0255644 -0.155792 0.000502348  -0.0194492 -0.163189 0.000306964  -0.0261998 -0.162909 0.000469446  -0.0200036 -0.170384 0.000284195  -0.0261464 -0.16273 0.000567079  -0.0267732 -0.169924 0.000526071  -0.0194075 -0.163012 0.000367522  -0.0268228 -0.170085 0.000434637  -0.0205517 -0.177629 0.000264168  -0.0274429 -0.177323 0.000401258  -0.0211005 -0.184932 0.000243902  -0.0273952 -0.177168 0.000485539  -0.0280104 -0.184475 0.000447392  -0.0205145 -0.177475 0.00031662  -0.028054 -0.184613 0.000372052  -0.0216444 -0.192279 0.000223994  -0.0286593 -0.191952 0.000341892  -0.0221884 -0.199675 0.000203371  -0.0286167 -0.191822 0.00041151  -0.0292122 -0.199217 0.000378728  -0.0216112 -0.192151 0.000268698  -0.0292544 -0.199333 0.000311136  -0.0227213 -0.207104 0.000184894  -0.0298395 -0.206752 0.000285387  -0.0232575 -0.214573 0.000166655  -0.029803 -0.206642 0.000343561  -0.0303864 -0.214111 0.000312209  -0.0226934 -0.206992 0.000222921  -0.0304201 -0.214209 0.000258923  -0.0237861 -0.222067 0.000151277  -0.0309935 -0.221697 0.000233293  -0.0243144 -0.229592 0.000134826  -0.0309584 -0.221606 0.000284195  -0.0315266 -0.229134 0.000252485  -0.0237589 -0.221975 0.000181437  -0.0315595 -0.229212 0.000207663  -0.0248339 -0.237137 0.000120521  -0.0321176 -0.236751 0.000185966  -0.0253534 -0.244707 0.000105739  -0.0320871 -0.236677 0.000226021  -0.0326405 -0.244249 0.000200152  -0.0248101 -0.237062 0.000143886  -0.0326679 -0.244311 0.000165105  -0.0258665 -0.252286 9.13143e-05  -0.0332105 -0.251886 0.00014472  -0.0263774 -0.259882 7.99894e-05  -0.0331864 -0.251828 0.000177264  -0.0337214 -0.259427 0.000153542  -0.0258467 -0.25223 0.000111938  -0.0337477 -0.259475 0.000123501  -0.0268843 -0.267489 6.9499e-05  -0.0342751 -0.267078 0.000107408  -0.0273883 -0.275104 5.6982e-05  -0.0342515 -0.267029 0.000131488  -0.03478 -0.27465 0.000111461  -0.0268672 -0.267442 8.27312e-05  -0.0347974 -0.274684 9.15527e-05  -0.0278828 -0.282717 4.85182e-05  -0.035315 -0.282297 7.4625e-05  -0.0283799 -0.290341 3.83854e-05  -0.0352962 -0.282264 9.41753e-05  -0.0358083 -0.28989 7.53403e-05  -0.0278726 -0.282687 5.82933e-05  -0.035826 -0.289916 5.88894e-05  -0.0288713 -0.29796 3.11136e-05  -0.0363288 -0.297529 4.79221e-05  -0.0293584 -0.305579 2.01464e-05  -0.036315 -0.297507 6.00815e-05  -0.0368137 -0.305131 4.63724e-05  -0.028862 -0.297939 3.57628e-05  -0.0368257 -0.305146 3.70741e-05  -0.0298407 -0.313193 1.56164e-05  -0.037323 -0.312758 2.41995e-05  -0.0303226 -0.320806 8.34465e-06  -0.0373094 -0.312744 3.49283e-05  -0.0377991 -0.320359 2.49147e-05  -0.0298314 -0.313181 1.90735e-05  -0.0378091 -0.320365 1.46627e-05  -0.0307975 -0.328405 1.78814e-06  -0.0382924 -0.327966 7.15256e-06  -0.0312715 -0.336005 -3.93391e-06  -0.0382838 -0.327959 1.27554e-05  -0.0387623 -0.335557 6.07967e-06  -0.0307899 -0.328401 5.72205e-06  -0.0387704 -0.33556 3.57628e-07  -0.0317371 -0.343588 -6.4373e-06  -0.0392458 -0.343143 -8.34465e-06  -0.0322077 -0.351163 -1.0252e-05  -0.039238 -0.343139 -3.21865e-06  -0.0397089 -0.350718 -9.65595e-06  -0.0317354 -0.343588 -6.67572e-06  -0.0397122 -0.350715 -1.26362e-05  -0.0326667 -0.358722 -1.33514e-05  -0.0401781 -0.358276 -1.54972e-05  -0.0331328 -0.366277 -1.60933e-05  -0.0401731 -0.358279 -1.58548e-05  -0.0406361 -0.365833 -2.26498e-05  -0.0326648 -0.358729 -1.33514e-05  -0.0406404 -0.365828 -2.26498e-05  -0.0335875 -0.373809 -1.88351e-05  -0.0410995 -0.373363 -2.67029e-05  -0.0340483 -0.381331 -2.15769e-05  -0.0410941 -0.373367 -2.8491e-05  -0.0415556 -0.380894 -3.57628e-05  -0.0335855 -0.373814 -2.28882e-05  -0.0415578 -0.380888 -3.20673e-05  1.6816e-05 -8.05259e-05 -1.85966e-05  -0.000107672 -9.23574e-05 0.000180244  3.65824e-05 -0.000748396 -1.45435e-05  -0.000111923 2.52426e-05 0.000231743  -0.000305012 -0.000539124 0.000422955  0 0 0  0 0 0  1.79261e-05 3.6478e-05 -2.63453e-05  0 0 0  -0.000275366 -0.000761777 0.000327229  7.54595e-05 -0.00194839 -1.75238e-05  -0.000507087 -0.00196806 0.000448465  9.59039e-05 -0.00356004 -7.15256e-06  -0.000537187 -0.00165713 0.000566244  -0.000814199 -0.00319579 0.000665784  7.78735e-05 -0.00164112 -1.95503e-05  -0.000768319 -0.00357762 0.000535607  0.000123441 -0.00555322 -1.78814e-06  -0.00106695 -0.00556874 0.000585198  0.000129461 -0.00787103 5.00679e-06  -0.00109476 -0.00512049 0.000715375  -0.00138777 -0.00738257 0.000743628  0.000129163 -0.0051114 -1.66893e-06  -0.00136527 -0.00787452 0.000613928  0.000132382 -0.0104895 7.39098e-06  -0.00167421 -0.0104841 0.000621557  0.000119388 -0.0133918 8.9407e-06  -0.00167862 -0.00995326 0.000746489  -0.00197017 -0.0128233 0.000738859  0.00014782 -0.00996512 5.24521e-06  -0.00197935 -0.0133708 0.000619769  9.49502e-05 -0.0165567 1.0252e-05  -0.00228882 -0.0165254 0.000606656  5.34058e-05 -0.0199834 7.98702e-06  -0.00226843 -0.0159607 0.000722408  -0.00256735 -0.0193742 0.000702739  0.000119507 -0.0159977 7.03335e-06  -0.00259882 -0.0199369 0.000591516  -1.13249e-06 -0.023652 9.41753e-06  -0.00291586 -0.0235958 0.000570178  -7.28965e-05 -0.0275629 5.00679e-06  -0.00287759 -0.0230313 0.000678778  -0.00319302 -0.026942 0.000650406  3.18885e-05 -0.0230917 5.48363e-06  -0.00323755 -0.027493 0.00054884  -0.00016129 -0.0316985 5.96046e-06  -0.0035671 -0.0316168 0.000528455  -0.000268936 -0.0360593 3.57628e-06  -0.00351918 -0.0310754 0.000626326  -0.00385278 -0.0354393 0.000597835  -0.000125885 -0.0311572 2.14577e-06  -0.00390488 -0.0359635 0.000504017  -0.000393808 -0.0406238 -2.38419e-07  -0.00425178 -0.0405194 0.000481248  -0.000536621 -0.0453978 -4.05312e-06  -0.0041979 -0.0400076 0.000573516  -0.00455076 -0.044787 0.00054431  -0.00035423 -0.0401159 -4.52995e-06  -0.00460565 -0.0452777 0.000457644  -0.000693798 -0.0503611 -4.29153e-06  -0.00497079 -0.0502293 0.000435591  -0.000870347 -0.0555145 -7.15256e-06  -0.0049144 -0.0497538 0.000518799  -0.0052855 -0.054912 0.000494361  -0.000654459 -0.0498862 -1.10865e-05  -0.00534284 -0.0553676 0.000412822  -0.00106156 -0.0608372 -8.70228e-06  -0.00572419 -0.0606803 0.000394106  -0.00127172 -0.066335 -1.07288e-05  -0.00566852 -0.0602411 0.000469208  -0.00605488 -0.0657434 0.000445485  -0.00102127 -0.0603992 -1.43051e-05  -0.00611186 -0.0661609 0.000373125  -0.00149393 -0.0719855 -1.23978e-05  -0.00651109 -0.0718005 0.000353098  -0.00173497 -0.0777932 -1.57356e-05  -0.00645506 -0.0713988 0.000422835  -0.00685894 -0.0772139 0.000396729  -0.00145507 -0.0715854 -1.89543e-05  -0.0069139 -0.0775943 0.000332117  -0.00198984 -0.0837413 -1.58548e-05  -0.00732553 -0.0835301 0.000315189  -0.00225997 -0.0898295 -1.69277e-05  -0.00727427 -0.0831647 0.000378728  -0.00769293 -0.0892593 0.000356317  -0.00195348 -0.0833769 -2.16961e-05  -0.00774741 -0.0896032 0.000297666  -0.00254416 -0.0960453 -1.69277e-05  -0.00817251 -0.0958065 0.000282049  -0.00284076 -0.102387 -1.80006e-05  -0.00812376 -0.0954764 0.000337362  -0.00856006 -0.101823 0.000318766  -0.00251043 -0.0957138 -2.19345e-05  -0.00860655 -0.102133 0.000265002  -0.00315249 -0.108839 -1.75238e-05  -0.00904608 -0.108576 0.000250697  -0.00347531 -0.115401 -2.01464e-05  -0.00900018 -0.108277 0.000300527  -0.00944638 -0.114848 0.000280738  -0.00312161 -0.108542 -2.37226e-05  -0.00949097 -0.115127 0.000234246  -0.00380838 -0.122066 -1.84774e-05  -0.0099411 -0.121779 0.000220776  -0.00415695 -0.128827 -1.74046e-05  -0.00990045 -0.121515 0.000264287  -0.0103555 -0.128282 0.000246763  -0.00378203 -0.121801 -2.71797e-05  -0.0103971 -0.128529 0.000207186  -0.00451374 -0.135677 -1.83582e-05  -0.0108554 -0.135367 0.000193477  -0.00487971 -0.142611 -2.02656e-05  -0.0108159 -0.135132 0.000231266  -0.0112816 -0.142072 0.000214577  -0.0044868 -0.135439 -2.5034e-05  -0.0113201 -0.14229 0.000179052  -0.00525546 -0.14962 -1.91927e-05  -0.0117881 -0.149291 0.000167608  -0.00564098 -0.156705 -1.91927e-05  -0.0117528 -0.149083 0.000200748  -0.0122261 -0.156174 0.000184417  -0.00523233 -0.149413 -2.52724e-05  -0.0122581 -0.156363 0.000154138  -0.00603461 -0.163853 -1.80006e-05  -0.0127354 -0.163506 0.000143766  -0.00643849 -0.171067 -1.89543e-05  -0.0127029 -0.163324 0.000173926  -0.0131831 -0.170544 0.00015986  -0.00601339 -0.163673 -2.16961e-05  -0.0132139 -0.170707 0.000133395  -0.00684595 -0.178334 -1.85966e-05  -0.0136945 -0.177967 0.000122428  -0.00726295 -0.185656 -1.68085e-05  -0.013665 -0.17781 0.00014627  -0.0141473 -0.185138 0.000132918  -0.00682807 -0.178179 -2.2769e-05  -0.0141747 -0.18528 0.000111222  -0.00768352 -0.193017 -1.70469e-05  -0.0146599 -0.192637 0.000100613  -0.00811267 -0.200431 -1.69277e-05  -0.0146325 -0.192504 0.000123978  -0.0151176 -0.199919 0.000112414  -0.00766921 -0.192885 -2.45571e-05  -0.0151422 -0.200041 9.23872e-05  -0.00854421 -0.207872 -1.29938e-05  -0.0156269 -0.207479 8.22544e-05  -0.00898433 -0.215355 -1.77622e-05  -0.0156045 -0.207366 0.000101089  -0.0160925 -0.214853 9.07183e-05  -0.00853276 -0.207762 -2.08616e-05  -0.016114 -0.214951 7.48634e-05  -0.0094254 -0.222862 -1.45435e-05  -0.0166008 -0.222457 6.73532e-05  -0.00987196 -0.230401 -1.41859e-05  -0.0165815 -0.22236 8.23736e-05  -0.0170689 -0.229905 7.41482e-05  -0.00941467 -0.222768 -2.01464e-05  -0.017087 -0.229987 6.1512e-05  -0.0103204 -0.237956 -1.26362e-05  -0.0175738 -0.23754 5.38826e-05  -0.0107734 -0.245533 -1.32322e-05  -0.0175562 -0.237463 6.40154e-05  -0.0180435 -0.245047 5.54323e-05  -0.0103126 -0.237881 -1.95503e-05  -0.0180585 -0.245111 4.55379e-05  -0.0112257 -0.253124 -1.13249e-05  -0.0185449 -0.252701 3.91006e-05  -0.011682 -0.26073 -1.22786e-05  -0.0185304 -0.25264 4.73261e-05  -0.0190129 -0.260248 4.22001e-05  -0.0112176 -0.253064 -1.71661e-05  -0.0190258 -0.260301 3.39746e-05  -0.0121388 -0.268341 -9.41753e-06  -0.0195074 -0.26791 3.02792e-05  -0.0126004 -0.275964 -1.0848e-05  -0.0194979 -0.267863 3.74317e-05  -0.0199776 -0.27549 2.87294e-05  -0.0121343 -0.268296 -1.45435e-05  -0.0199919 -0.275529 2.19345e-05  -0.0130596 -0.283588 -9.65595e-06  -0.0204711 -0.28315 1.74046e-05  -0.0135221 -0.291216 -1.10865e-05  -0.0204611 -0.283114 2.20537e-05  -0.0209408 -0.290748 1.62125e-05  -0.0130568 -0.283555 -1.39475e-05  -0.0209482 -0.290774 1.3113e-05  -0.0139828 -0.298839 -7.27177e-06  -0.0214248 -0.298397 9.77516e-06  -0.0144458 -0.306466 -8.9407e-06  -0.0214171 -0.298373 1.51396e-05  -0.0218906 -0.306002 9.29832e-06  -0.0139809 -0.298816 -1.09673e-05  -0.021898 -0.306018 7.39098e-06  -0.0149062 -0.31408 -7.15256e-06  -0.0223699 -0.313635 2.86102e-06  -0.0153668 -0.321695 -6.31809e-06  -0.0223675 -0.313621 7.03335e-06  -0.0228386 -0.321239 1.90735e-06  -0.014904 -0.314067 -1.01328e-05  -0.0228403 -0.321249 -1.19209e-07  -0.0158279 -0.3293 -5.72205e-06  -0.0233092 -0.328852 -9.53674e-07  -0.0162909 -0.3369 -7.98702e-06  -0.0233076 -0.328843 0  -0.0237746 -0.336449 -3.8147e-06  -0.0158272 -0.329292 -7.51019e-06  -0.0237761 -0.33645 -6.79493e-06  -0.0167487 -0.344484 -4.17233e-06  -0.0242422 -0.344035 -6.07967e-06  -0.0172076 -0.352062 -1.66893e-06  -0.0242383 -0.344034 -6.91414e-06  -0.0247016 -0.351614 -5.60284e-06  -0.0167468 -0.344484 -7.15256e-06  -0.0247071 -0.351611 -5.96046e-06  -0.0176663 -0.359623 -2.6226e-06  -0.0251667 -0.359171 -6.67572e-06  -0.0181217 -0.367178 -2.6226e-06  -0.025166 -0.359175 -8.46386e-06  -0.0256243 -0.366729 -9.53674e-06  -0.017664 -0.359625 -8.34465e-07  -0.0256269 -0.366724 -8.22544e-06  -0.0185752 -0.37471 -1.19209e-06  -0.0260825 -0.374258 -1.04904e-05  -0.0190294 -0.382228 -2.38419e-07  -0.0260806 -0.374263 -1.19209e-05  -0.026536 -0.381781 -1.46627e-05  -0.0185773 -0.374714 -4.17233e-06  -0.0265367 -0.38178 -1.22786e-05  0.000278339 -0.000195086 -0.000404477  0.000151232 -0.000116944 -0.000202894  0.000709996 -0.000965893 -0.000704646  0.000153802 -3.63588e-06 -0.000289083  0.000405014 -0.00059855 -0.000475168  0 0 0  0 0 0  0.000292167 -7.4923e-05 -0.000540853  0 0 0  0.000392899 -0.000813305 -0.000364423  0.00127949 -0.0022527 -0.00094676  0.000677854 -0.00204486 -0.000484228  0.001894 -0.00391418 -0.00108647  0.000720397 -0.00173837 -0.000622749  0.00104281 -0.00329411 -0.000686884  0.00134723 -0.0019418 -0.00119495  0.00100347 -0.00366998 -0.000551939  0.00253567 -0.00594658 -0.00116813  0.00132298 -0.00568217 -0.000590086  0.00316146 -0.00828314 -0.00120509  0.00136837 -0.00523752 -0.000724435  0.0016796 -0.00751883 -0.000735641  0.00261226 -0.00549817 -0.00142932  0.00164172 -0.00800806 -0.000604868  0.00376418 -0.0109133 -0.00121093  0.00193807 -0.0106346 -0.000606537  0.00433517 -0.0138244 -0.00120318  0.00197592 -0.0101097 -0.000734091  0.00225055 -0.0129985 -0.000726104  0.0038211 -0.0103869 -0.0014627  0.0022167 -0.0135425 -0.000600219  0.00486815 -0.0169991 -0.00117862  0.00247163 -0.0167171 -0.000586152  0.00536937 -0.0204328 -0.00114679  0.00250143 -0.0161567 -0.000706315  0.00273097 -0.0195896 -0.000690341  0.00490642 -0.0164393 -0.00141716  0.00270104 -0.0201481 -0.00057292  0.00583208 -0.024111 -0.00111294  0.00290418 -0.0238243 -0.000554204  0.00625736 -0.0280322 -0.0010761  0.00293231 -0.0232646 -0.000667095  0.00310993 -0.0271921 -0.000647068  0.00585467 -0.0235507 -0.00133729  0.0030821 -0.0277426 -0.000537515  0.00664711 -0.0321795 -0.0010376  0.00323313 -0.0318875 -0.000518084  0.00700146 -0.0365525 -0.00100088  0.00325847 -0.0313444 -0.000624895  0.00338256 -0.0357285 -0.000603676  0.00666296 -0.0316389 -0.00124872  0.00335687 -0.0362548 -0.000501633  0.00732321 -0.0411323 -0.000960231  0.00345576 -0.0408322 -0.000483036  0.00760567 -0.0459218 -0.000922799  0.00347972 -0.0403186 -0.000579715  0.00355184 -0.0451199 -0.000559807  0.00733352 -0.040622 -0.00115764  0.00352848 -0.0456136 -0.000464439  0.00785637 -0.0508974 -0.00088501  0.00357342 -0.0505859 -0.000446916  0.00807285 -0.0560657 -0.000849366  0.00359929 -0.0501086 -0.00053823  0.00362015 -0.0552902 -0.000518084  0.00786543 -0.0504234 -0.00106668  0.00359535 -0.055745 -0.000429988  0.00825691 -0.0614071 -0.000816107  0.00358951 -0.06108 -0.000413299  0.00840759 -0.0669196 -0.000780463  0.00361466 -0.0606403 -0.000498533  0.00358546 -0.0661668 -0.000479937  0.00826406 -0.060967 -0.000981331  0.00356352 -0.0665869 -0.000397205  0.00852823 -0.0725874 -0.000745177  0.00351059 -0.0722494 -0.000380158  0.00861561 -0.0784116 -0.000712156  0.00353289 -0.0718457 -0.000458956  0.00345695 -0.0776829 -0.000440478  0.00853527 -0.0721831 -0.000898957  0.00343668 -0.0780658 -0.000363946  0.00867534 -0.0843766 -0.000678062  0.00333726 -0.0840242 -0.000347972  0.00870645 -0.0904824 -0.000647306  0.00335824 -0.0836587 -0.000420094  0.0032382 -0.0897756 -0.000402093  0.00868201 -0.0840103 -0.000819683  0.00321794 -0.0901229 -0.000333667  0.00870812 -0.0967131 -0.000615716  0.00307763 -0.0963488 -0.000317097  0.00868273 -0.10307 -0.000584364  0.00309396 -0.0960157 -0.000383139  0.00293219 -0.102383 -0.000366449  0.00871301 -0.0963809 -0.000744462  0.00291407 -0.1027 -0.000303388  0.00862849 -0.10954 -0.000556707  0.00273108 -0.109161 -0.000290036  0.00855017 -0.116118 -0.000528455  0.00274909 -0.10886 -0.000349045  0.00254762 -0.115452 -0.000330925  0.00863206 -0.109239 -0.000671625  0.00253236 -0.115731 -0.00027597  0.00844908 -0.122798 -0.00049901  0.00231409 -0.122406 -0.000259638  0.00832176 -0.129573 -0.00047338  0.00232816 -0.122137 -0.000312567  0.00209165 -0.128926 -0.000297785  0.00845003 -0.12253 -0.000604749  0.00207865 -0.129175 -0.00024569  0.0081718 -0.136434 -0.000446677  0.00182152 -0.136033 -0.000233293  0.00800014 -0.143385 -0.000419378  0.00183737 -0.135795 -0.000282407  0.0015676 -0.142754 -0.000266075  0.00817323 -0.136198 -0.000538111  0.00155354 -0.142975 -0.000220299  0.00780749 -0.150406 -0.000392199  0.00126982 -0.149993 -0.000208139  0.00759268 -0.157503 -0.000368595  0.00127983 -0.149784 -0.000250697  0.000979424 -0.156891 -0.0002352  0.00780582 -0.150196 -0.000476599  0.000970125 -0.157085 -0.000193834  0.00736237 -0.164662 -0.000344396  0.000656366 -0.164242 -0.000182867  0.00710988 -0.171886 -0.000320196  0.000666142 -0.164059 -0.000220656  0.0003407 -0.171291 -0.00020659  0.00735855 -0.16448 -0.000418544  0.000329494 -0.171459 -0.000171781  0.00684381 -0.179163 -0.0002985  -8.58307e-06 -0.178734 -0.000159383  0.0065577 -0.186494 -0.000280023  -7.15256e-07 -0.178576 -0.000192881  -0.000350475 -0.185916 -0.000181794  0.00684166 -0.179006 -0.000362635  -0.000357389 -0.18606 -0.000150919  0.00626135 -0.193866 -0.000257611  -0.000717878 -0.193429 -0.000137091  0.00594568 -0.201286 -0.00023675  -0.000710011 -0.193294 -0.00016737  -0.00108266 -0.200721 -0.000155926  0.00625706 -0.193733 -0.000313163  -0.00108838 -0.200843 -0.000128269  0.00561881 -0.208737 -0.000218391  -0.00146866 -0.208294 -0.000118375  0.00527835 -0.216226 -0.000198841  -0.00146437 -0.208179 -0.000140667  -0.00185418 -0.215677 -0.000131249  0.00561428 -0.208623 -0.00026536  -0.00185633 -0.215779 -0.000106573  0.00492311 -0.22374 -0.000181079  -0.00225377 -0.22329 -9.87053e-05  0.00456071 -0.231282 -0.000160217  -0.00225282 -0.223196 -0.000118613  -0.00265741 -0.230746 -0.000110149  0.00491738 -0.223645 -0.000219107  -0.00265789 -0.230831 -9.05991e-05  0.00418353 -0.238845 -0.000147343  -0.00307155 -0.238392 -8.15392e-05  0.00379896 -0.246426 -0.00013268  -0.00307012 -0.238313 -9.94205e-05  -0.00348949 -0.245905 -8.70228e-05  0.00417852 -0.238765 -0.000180364  -0.00348854 -0.245971 -7.20024e-05  0.00340581 -0.254021 -0.000117421  -0.00391197 -0.253566 -6.53267e-05  0.00300407 -0.261627 -0.000102401  -0.00391316 -0.253504 -8.11815e-05  -0.00434184 -0.26112 -7.24792e-05  0.0034008 -0.253959 -0.000145435  -0.00434089 -0.261172 -5.79357e-05  0.00259686 -0.269242 -8.96454e-05  -0.00477695 -0.268788 -5.06639e-05  0.00217962 -0.276869 -7.689e-05  -0.00477576 -0.268739 -6.17504e-05  -0.00521326 -0.276371 -5.51939e-05  0.00259137 -0.269196 -0.00011301  -0.00521302 -0.276411 -4.48227e-05  0.00176024 -0.284493 -6.68764e-05  -0.00565219 -0.284035 -3.73125e-05  0.00133395 -0.292123 -5.60284e-05  -0.00565362 -0.284 -4.8399e-05  -0.00609803 -0.291639 -4.29153e-05  0.00175548 -0.284457 -8.30889e-05  -0.00609541 -0.291664 -3.09944e-05  0.000905037 -0.299747 -4.3869e-05  -0.00654221 -0.299291 -2.93255e-05  0.000466585 -0.307376 -3.56436e-05  -0.00654602 -0.299266 -3.70741e-05  -0.00699401 -0.3069 -2.96831e-05  0.000897408 -0.299724 -5.85318e-05  -0.00698948 -0.306918 -2.3365e-05  2.69413e-05 -0.314993 -2.80142e-05  -0.00743961 -0.314533 -2.01464e-05  -0.000416994 -0.322608 -2.03848e-05  -0.00744271 -0.314518 -2.24113e-05  -0.00789618 -0.322139 -1.87159e-05  2.09808e-05 -0.314977 -3.80278e-05  -0.00789237 -0.32215 -1.68085e-05  -0.000862837 -0.330211 -1.43051e-05  -0.00834465 -0.329754 -1.07288e-05  -0.00131083 -0.337811 -1.2517e-05  -0.00834799 -0.329745 -1.52588e-05  -0.00880337 -0.337351 -1.07288e-05  -0.000866175 -0.330204 -2.03848e-05  -0.00879788 -0.337352 -7.7486e-06  -0.00175762 -0.345395 -3.57628e-06  -0.00925541 -0.344938 -5.00679e-06  -0.00220942 -0.352974 1.07288e-06  -0.00925851 -0.344937 -7.51019e-06  -0.00971198 -0.352518 -2.38419e-07  -0.00176501 -0.345392 -9.53674e-06  -0.00971055 -0.352517 -1.07288e-06  -0.00265861 -0.360533 9.29832e-06  -0.0101643 -0.360079 -2.38419e-07  -0.00311112 -0.368087 1.21593e-05  -0.0101657 -0.360078 7.15256e-07  -0.0106215 -0.367635 5.96046e-06  -0.00266528 -0.360536 5.96046e-06  -0.0106175 -0.367631 4.29153e-06  -0.00356269 -0.375621 1.81198e-05  -0.0110703 -0.375164 6.91414e-06  -0.00401521 -0.383146 2.24113e-05  -0.0110738 -0.375166 7.03335e-06  -0.0115244 -0.382688 9.89437e-06  -0.00356793 -0.375626 1.72853e-05  -0.0115204 -0.382685 1.13249e-05  0.000573933 -0.000545919 -0.000774145  0.000424847 -0.000330925 -0.000575542  0.00147939 -0.00157762 -0.0013622  0.000440739 -0.00022316 -0.00080049  0.00116423 -0.000988126 -0.00135779  0 0 0  0 0 0  0.000605159 -0.000411808 -0.00103462  0 0 0  0.00110698 -0.00121033 -0.00104213  0.00263867 -0.00307208 -0.00182748  0.00193906 -0.00258738 -0.00139284  0.00389126 -0.00483191 -0.0021162  0.00204787 -0.00226825 -0.00178075  0.0029873 -0.00390685 -0.00200534  0.00277138 -0.0027259 -0.00231183  0.00286701 -0.00429934 -0.00161219  0.00516269 -0.00691324 -0.002285  0.00381249 -0.00635707 -0.00173724  0.00640923 -0.00925839 -0.00237215  0.00392592 -0.00589639 -0.0021311  0.00484195 -0.0081982 -0.00218391  0.00530267 -0.00643355 -0.00279987  0.0047465 -0.0087015 -0.00179732  0.0076057 -0.0118824 -0.00239336  0.00564501 -0.0113307 -0.00181222  0.00874746 -0.0147797 -0.00238431  0.0057213 -0.0107971 -0.00218546  0.00656027 -0.0136865 -0.00216389  0.00769663 -0.0113348 -0.00289214  0.00650269 -0.0142378 -0.00179899  0.00983143 -0.0179351 -0.00234163  0.00731468 -0.0174063 -0.00176466  0.010861 -0.0213565 -0.002285  0.00735676 -0.0168414 -0.00211704  0.00810677 -0.0202729 -0.00206423  0.00987589 -0.0173647 -0.00281298  0.0080775 -0.0208374 -0.00172091  0.0118313 -0.0250219 -0.00221813  0.0087983 -0.0245123 -0.00166762  0.0127478 -0.0289392 -0.00214612  0.00881553 -0.0239491 -0.00200224  0.00948232 -0.0278779 -0.00193822  0.0118464 -0.0244581 -0.00266242  0.00947189 -0.0284311 -0.00161409  0.0136115 -0.0330803 -0.00207043  0.0100986 -0.0325777 -0.00155687  0.0144209 -0.0374494 -0.00199449  0.0101029 -0.0320349 -0.00186813  0.0106823 -0.0364248 -0.00180113  0.0136083 -0.0325363 -0.00248456  0.010682 -0.0369519 -0.00149882  0.0151792 -0.0420304 -0.0019151  0.0112219 -0.0415323 -0.00143993  0.0158852 -0.0468181 -0.00183725  0.0112206 -0.0410202 -0.00172889  0.0117146 -0.0458298 -0.00166178  0.0151665 -0.041518 -0.00230086  0.0117195 -0.0463222 -0.00138223  0.0165405 -0.0517956 -0.00176239  0.0121727 -0.0513033 -0.00132442  0.0171472 -0.0569666 -0.001688  0.012166 -0.050827 -0.00159204  0.0125779 -0.0560165 -0.00152791  0.0165244 -0.051322 -0.00211895  0.0125831 -0.0564717 -0.00127053  0.0177045 -0.0623098 -0.00161731  0.012953 -0.0618173 -0.00121582  0.0182121 -0.0678243 -0.00154305  0.0129467 -0.0613766 -0.00146115  0.0132769 -0.0669116 -0.00140047  0.0176852 -0.0618693 -0.00194263  0.013286 -0.067331 -0.00116158  0.0186754 -0.0734985 -0.00147438  0.0135763 -0.0730031 -0.00111198  0.0190915 -0.079326 -0.00140774  0.0135684 -0.0726013 -0.0013386  0.0138212 -0.0784491 -0.001279  0.0186533 -0.0730956 -0.0017761  0.0138289 -0.0788324 -0.00106072  0.019461 -0.0852953 -0.00134099  0.0140457 -0.0848023 -0.00101078  0.0197886 -0.0914063 -0.00127602  0.0140365 -0.0844339 -0.00121677  0.0142164 -0.0905618 -0.00115919  0.0194417 -0.084929 -0.00161588  0.0142248 -0.0909096 -0.000963092  0.0200728 -0.0976409 -0.00121129  0.0143676 -0.0971454 -0.000915527  0.0203142 -0.104003 -0.00115132  0.0143588 -0.0968124 -0.00110233  0.0144664 -0.103191 -0.00104856  0.0200516 -0.0973108 -0.00146127  0.0144764 -0.103505 -0.000870228  0.0205178 -0.110474 -0.00109243  0.0145513 -0.109978 -0.000825167  0.0206802 -0.117059 -0.00103354  0.0145415 -0.109677 -0.000994205  0.0145853 -0.116279 -0.000942826  0.0204967 -0.110175 -0.0013175  0.0145953 -0.116559 -0.000779986  0.020805 -0.123743 -0.000977039  0.0146075 -0.123243 -0.000737548  0.0208966 -0.130521 -0.000921726  0.0145983 -0.122975 -0.000891328  0.0145788 -0.129772 -0.000842333  0.020787 -0.123475 -0.00117886  0.0145879 -0.130022 -0.000698805  0.0209516 -0.137387 -0.000867724  0.0145413 -0.136887 -0.000658035  0.0209713 -0.144339 -0.000819325  0.0145313 -0.136649 -0.000793815  0.0144556 -0.143615 -0.000747085  0.0209308 -0.13715 -0.00104868  0.014466 -0.143837 -0.000620246  0.0209606 -0.151362 -0.000765324  0.0143647 -0.150865 -0.000581145  0.0209162 -0.158462 -0.000717759  0.0143518 -0.150651 -0.000700951  0.0142252 -0.157768 -0.000656843  0.0209398 -0.151154 -0.000926614  0.0142355 -0.157963 -0.000545382  0.0208435 -0.165625 -0.000670433  0.0140853 -0.165126 -0.00050652  0.0207405 -0.17285 -0.000623703  0.0140741 -0.164939 -0.000613451  0.0138981 -0.172182 -0.000572562  0.0208251 -0.165439 -0.000810862  0.0139093 -0.17235 -0.000472784  0.0206122 -0.180128 -0.000578046  0.0137117 -0.179628 -0.000438571  0.020458 -0.18746 -0.000534534  0.0137012 -0.179471 -0.000531197  0.0134816 -0.186816 -0.000492334  0.0205932 -0.179971 -0.000701785  0.0134935 -0.186959 -0.000404716  0.0202789 -0.194832 -0.000493884  0.0132532 -0.194337 -0.000376701  0.0200758 -0.202253 -0.000454187  0.0132418 -0.1942 -0.000456333  0.012985 -0.201633 -0.000418425  0.0202596 -0.194698 -0.000599861  0.0129957 -0.201755 -0.00034833  0.019851 -0.209702 -0.000415921  0.0127192 -0.209207 -0.000316739  0.019604 -0.21719 -0.000377893  0.0127079 -0.209091 -0.000385165  0.0124137 -0.216595 -0.00035274  0.0198326 -0.209589 -0.000505686  0.0124235 -0.216697 -0.00029099  0.0193377 -0.224704 -0.000345826  0.0121164 -0.224213 -0.000264287  0.0190501 -0.232245 -0.000312328  0.0121059 -0.224114 -0.00032115  0.0117815 -0.231668 -0.000290155  0.0193186 -0.224612 -0.000421643  0.0117934 -0.231753 -0.000239611  0.0187483 -0.239804 -0.000281334  0.0114534 -0.239315 -0.000214577  0.0184281 -0.247385 -0.000251055  0.0114436 -0.239237 -0.000261664  0.0110919 -0.24683 -0.000234962  0.0187323 -0.239727 -0.000343919  0.0111024 -0.246899 -0.00019443  0.0180924 -0.254977 -0.000221014  0.0107384 -0.254493 -0.000169277  0.0177417 -0.262585 -0.000192761  0.0107269 -0.25443 -0.000208259  0.010355 -0.262047 -0.000183105  0.0180769 -0.254915 -0.000271797  0.0103645 -0.2621 -0.000148535  0.0173831 -0.270196 -0.000166416  0.00997996 -0.269713 -0.000128388  0.0170059 -0.277821 -0.000146627  0.00997233 -0.269665 -0.000158072  0.00957394 -0.277298 -0.000139952  0.0173676 -0.270149 -0.000208259  0.00958681 -0.27734 -0.000111938  0.0166204 -0.285442 -0.000121832  0.00918436 -0.284963 -9.5129e-05  0.0162256 -0.293068 -0.000101566  0.00917244 -0.284924 -0.000116348  0.00876307 -0.292562 -9.90629e-05  0.0166097 -0.285404 -0.000151038  0.00877213 -0.292591 -8.09431e-05  0.0158203 -0.30069 -8.46386e-05  0.00835419 -0.300217 -6.74725e-05  0.0154071 -0.308313 -6.63996e-05  0.0083456 -0.30019 -8.13007e-05  0.00792193 -0.307822 -6.47306e-05  0.0158098 -0.300666 -0.00010705  0.00793195 -0.30784 -5.14984e-05  0.0149908 -0.315925 -5.07832e-05  0.0075016 -0.315458 -3.91006e-05  0.0145617 -0.32354 -3.74317e-05  0.0074923 -0.315441 -5.14984e-05  0.00705886 -0.323061 -4.07696e-05  0.0149786 -0.315913 -6.9499e-05  0.00706816 -0.323071 -3.05176e-05  0.0141296 -0.33114 -2.57492e-05  0.00662851 -0.330675 -2.00272e-05  0.0136926 -0.338736 -1.46627e-05  0.0066216 -0.330667 -2.76566e-05  0.00618029 -0.338268 -1.84774e-05  0.0141218 -0.331134 -3.39746e-05  0.00618744 -0.338272 -1.20401e-05  0.0132515 -0.346317 -2.74181e-06  0.0057435 -0.345856 -4.64916e-06  0.0128081 -0.353891 7.15256e-06  0.00573373 -0.345854 -9.77516e-06  0.00528741 -0.353433 7.15256e-07  0.013242 -0.346317 -1.13249e-05  0.00529575 -0.353432 1.90735e-06  0.0123603 -0.361455 1.50204e-05  0.004848 -0.360995 1.00136e-05  0.0119112 -0.369006 2.39611e-05  0.00483656 -0.360994 9.89437e-06  0.00438809 -0.36855 1.88351e-05  0.012351 -0.361457 1.28746e-05  0.00439763 -0.368545 1.72853e-05  0.0114598 -0.376544 2.59876e-05  0.00394464 -0.376082 2.06232e-05  0.0110135 -0.384074 3.6478e-05  0.00393701 -0.376083 2.38419e-05  0.00348997 -0.383609 3.00407e-05  0.0114508 -0.376548 3.0756e-05  0.00349855 -0.383608 2.77758e-05  0.000980549 -0.00137573 -0.00112081  0.000774391 -0.000858605 -0.000921488  0.00255802 -0.00283551 -0.00197446  0.000808783 -0.000746727 -0.0012759  0.00210446 -0.00185424 -0.0021745  0 0 0  0 0 0  0.00103743 -0.00119632 -0.00147736  0 0 0  0.0020005 -0.00210452 -0.00166976  0.00441638 -0.00457931 -0.00263739  0.00346278 -0.00371844 -0.00224006  0.00636172 -0.00641763 -0.00307429  0.00363705 -0.00335133 -0.00285971  0.00523654 -0.00510198 -0.00324214  0.00459492 -0.00416046 -0.00334084  0.00504282 -0.00554204 -0.00260532  0.00825632 -0.00847912 -0.00333691  0.00663579 -0.00761962 -0.00282085  0.010098 -0.0107977 -0.00348115  0.00680044 -0.00711668 -0.00346208  0.00831789 -0.00942343 -0.00356662  0.00843635 -0.00794113 -0.00409341  0.00817829 -0.00996232 -0.00293553  0.0118583 -0.0133663 -0.00353074  0.00966883 -0.0125638 -0.0029695  0.0135456 -0.0162253 -0.00352669  0.00977018 -0.011996 -0.00358582  0.0111602 -0.0148678 -0.00356209  0.0119714 -0.0127823 -0.00426829  0.0110851 -0.0154433 -0.00296068  0.0151601 -0.019343 -0.00347281  0.0124383 -0.0185839 -0.00291312  0.0167016 -0.022734 -0.00340044  0.0124844 -0.0180009 -0.00349772  0.0137519 -0.0214126 -0.00341547  0.0152107 -0.0187514 -0.00417769  0.0137249 -0.0219907 -0.00284719  0.0181706 -0.0263744 -0.00330448  0.014948 -0.0256458 -0.00276315  0.0195716 -0.0302679 -0.00319898  0.0149565 -0.0250736 -0.0033139  0.0161041 -0.0289912 -0.00321114  0.0181811 -0.0257987 -0.00396585  0.0161076 -0.0295503 -0.00267577  0.0209014 -0.0343906 -0.00308704  0.0172044 -0.0336857 -0.00258052  0.02216 -0.038745 -0.00297332  0.0171925 -0.0331383 -0.00309741  0.0182222 -0.037521 -0.00298488  0.0208858 -0.0338436 -0.00370669  0.0182402 -0.0380494 -0.00248587  0.0233504 -0.0433102 -0.00285864  0.0192155 -0.0426242 -0.00238764  0.0244731 -0.0480877 -0.00274563  0.0191914 -0.0421097 -0.00286841  0.0201054 -0.0469138 -0.00275505  0.0233241 -0.0427995 -0.00343394  0.0201303 -0.0474063 -0.00229228  0.0255275 -0.0530541 -0.00263143  0.020986 -0.0523815 -0.00219834  0.0265164 -0.0582134 -0.00251973  0.0209589 -0.0519056 -0.00264049  0.0217561 -0.0570917 -0.00253069  0.0254955 -0.0525792 -0.00316322  0.0217842 -0.0575472 -0.00210536  0.0274401 -0.0635472 -0.00241089  0.0225264 -0.0628875 -0.00201333  0.0282987 -0.0690551 -0.00230408  0.0224969 -0.0624483 -0.00242245  0.0231822 -0.0679817 -0.00231433  0.0274054 -0.0631086 -0.00289857  0.0232112 -0.0683982 -0.00192583  0.0290947 -0.0747172 -0.00219846  0.0238407 -0.0740699 -0.00183809  0.0298311 -0.0805379 -0.0020982  0.0238117 -0.0736656 -0.00220954  0.0243872 -0.0795133 -0.00211036  0.0290606 -0.0743167 -0.00264633  0.0244174 -0.0798965 -0.0017556  0.0305088 -0.0864996 -0.00199676  0.024942 -0.0858636 -0.00167024  0.0311261 -0.0926033 -0.00190127  0.024912 -0.0854963 -0.0020113  0.0253866 -0.0916247 -0.00191462  0.0304728 -0.0861372 -0.00240505  0.0254161 -0.091971 -0.00158978  0.0316889 -0.0988287 -0.00180542  0.0258393 -0.0982056 -0.0015111  0.0321908 -0.105186 -0.00171423  0.0258105 -0.0978709 -0.00181961  0.0261855 -0.10425 -0.00172794  0.0316526 -0.0985004 -0.00217724  0.026214 -0.104563 -0.0014354  0.0326443 -0.11165 -0.00162482  0.0265425 -0.111033 -0.00135994  0.0330443 -0.118228 -0.00153852  0.0265135 -0.110733 -0.00163937  0.0267986 -0.117334 -0.00155008  0.0326122 -0.111351 -0.00195813  0.0268255 -0.117616 -0.00128627  0.0333943 -0.124901 -0.00145376  0.0270638 -0.124297 -0.00121653  0.0336933 -0.131674 -0.00137067  0.0270355 -0.124029 -0.00146341  0.0272304 -0.130823 -0.00138283  0.0333602 -0.124637 -0.0017519  0.0272599 -0.131073 -0.00114608  0.0339466 -0.138533 -0.00129008  0.0274135 -0.137937 -0.0010792  0.0341518 -0.145477 -0.00121236  0.0273862 -0.137698 -0.00130188  0.0274997 -0.144663 -0.00122559  0.0339143 -0.138297 -0.0015552  0.0275264 -0.144885 -0.0010159  0.0343158 -0.152494 -0.00113487  0.0276031 -0.151908 -0.000953555  0.034435 -0.159587 -0.0010637  0.0275772 -0.151697 -0.00114846  0.0276172 -0.15881 -0.00107503  0.0342851 -0.152287 -0.00137126  0.0276444 -0.159003 -0.000892162  0.0345166 -0.166741 -0.000991225  0.0276496 -0.166162 -0.000830054  0.0345602 -0.173959 -0.000922441  0.0276227 -0.16598 -0.00100422  0.0275955 -0.173216 -0.000934958  0.0344889 -0.16656 -0.0011965  0.0276203 -0.173387 -0.000773668  0.0345623 -0.181229 -0.00085485  0.0275598 -0.180663 -0.00071764  0.0345283 -0.188552 -0.000792146  0.0275335 -0.180503 -0.000868082  0.0274398 -0.187846 -0.000804663  0.0345347 -0.181071 -0.00103509  0.0274668 -0.18799 -0.000667334  0.0344629 -0.195917 -0.000730157  0.0273433 -0.195362 -0.000613689  0.0343649 -0.203328 -0.000671625  0.0273182 -0.195227 -0.000743628  0.0271697 -0.202655 -0.000683069  0.0344357 -0.195784 -0.000884652  0.0271955 -0.202776 -0.000562906  0.034235 -0.210772 -0.000614643  0.0270178 -0.210226 -0.000518322  0.0340779 -0.218251 -0.000559688  0.0269938 -0.21011 -0.000626326  0.026793 -0.217607 -0.000570655  0.0342088 -0.210659 -0.000745773  0.0268168 -0.21771 -0.000469923  0.0338907 -0.225755 -0.00050807  0.0265911 -0.22522 -0.000427485  0.0336761 -0.233287 -0.00045836  0.0265689 -0.225124 -0.000518203  0.0263221 -0.232673 -0.000469446  0.0338655 -0.22566 -0.000617027  0.0263445 -0.232755 -0.000386715  0.0334384 -0.240838 -0.000412583  0.0260735 -0.240313 -0.000346065  0.0331783 -0.248412 -0.000366569  0.0260496 -0.240236 -0.000421882  0.0257614 -0.247823 -0.00037694  0.0334139 -0.240763 -0.000500798  0.0257831 -0.24789 -0.000308871  0.0328951 -0.255994 -0.000322223  0.0254772 -0.25548 -0.000273705  0.0325918 -0.263593 -0.000282526  0.0254526 -0.255418 -0.000333786  0.0251286 -0.263031 -0.000291824  0.0328703 -0.255935 -0.000396252  0.025151 -0.263084 -0.000238657  0.0322702 -0.271198 -0.000244021  0.0248084 -0.270693 -0.000208378  0.0319278 -0.278812 -0.000209332  0.0247898 -0.270644 -0.000255227  0.0244322 -0.278271 -0.000219941  0.0322471 -0.271151 -0.000301838  0.0244508 -0.278309 -0.000175953  0.0315733 -0.286425 -0.000177026  0.0240808 -0.285929 -0.000149608  0.0312009 -0.294043 -0.000145555  0.0240622 -0.285893 -0.000185251  0.0236821 -0.293525 -0.000157237  0.0315526 -0.286393 -0.000218987  0.0236988 -0.29355 -0.000122666  0.030818 -0.30166 -0.000115991  0.0233049 -0.301172 -0.000100255  0.0304184 -0.309275 -8.97646e-05  0.0232923 -0.301148 -0.000125766  0.0228875 -0.308775 -0.000100613  0.0308001 -0.301639 -0.000148058  0.0229013 -0.30879 -7.96318e-05  0.0300131 -0.316883 -6.71148e-05  0.0224898 -0.316403 -5.88894e-05  0.0295978 -0.324489 -4.51803e-05  0.0224771 -0.316387 -7.96318e-05  0.0220585 -0.324002 -5.66244e-05  0.0299983 -0.316869 -9.21488e-05  0.0220718 -0.32401 -4.20809e-05  0.0291727 -0.332085 -2.71797e-05  0.0216434 -0.331612 -2.55108e-05  0.0287371 -0.339675 -1.62125e-05  0.0216298 -0.331605 -4.08888e-05  0.0211971 -0.339204 -2.51532e-05  0.0291605 -0.332077 -4.1604e-05  0.0212061 -0.339205 -1.5378e-05  0.0283024 -0.347252 -9.53674e-07  0.0207703 -0.346785 -2.74181e-06  0.027859 -0.354821 1.27554e-05  0.0207586 -0.346782 -9.17912e-06  0.020318 -0.354357 5.00679e-06  0.0282891 -0.347251 -8.34465e-06  0.0203285 -0.354357 8.70228e-06  0.0274127 -0.362379 2.24113e-05  0.0198808 -0.361917 2.00272e-05  0.0269635 -0.369931 3.32594e-05  0.0198727 -0.361921 1.70469e-05  0.019423 -0.369473 2.72989e-05  0.0274014 -0.362383 1.97887e-05  0.0194335 -0.36947 2.76566e-05  0.0265126 -0.377472 3.95775e-05  0.0189812 -0.377008 3.46899e-05  0.026062 -0.385007 5.04255e-05  0.0189724 -0.37701 3.80278e-05  0.0185218 -0.384544 4.8399e-05  0.0265038 -0.377471 4.11272e-05  0.0185337 -0.38454 4.60148e-05  0.00187366 -0.00342131 -0.00148666  0.00135063 -0.00206685 -0.00124896  0.0047404 -0.0053373 -0.0026089  0.00142484 -0.00194961 -0.00172246  0.00352545 -0.00362396 -0.0029254  0 0 0  0 0 0  0.0017872 -0.0031212 -0.00192201  0 0 0  0.00336479 -0.00393176 -0.0022608  0.00718531 -0.00681442 -0.00343883  0.00561459 -0.0056411 -0.00303555  0.0095804 -0.00865686 -0.0040226  0.0057839 -0.00516665 -0.00385463  0.00804776 -0.00694883 -0.00439978  0.00727241 -0.00636321 -0.00437522  0.00782946 -0.00747901 -0.00354612  0.0119902 -0.0105736 -0.00437999  0.0100345 -0.00947839 -0.00385761  0.0143372 -0.0128106 -0.00458312  0.0102063 -0.00889599 -0.0047344  0.0122953 -0.0111537 -0.00490236  0.012162 -0.00997156 -0.00539923  0.0121396 -0.0117533 -0.00403202  0.0166339 -0.0153196 -0.00465763  0.0141775 -0.0142888 -0.00409484  0.0188558 -0.0181153 -0.00465846  0.014291 -0.0136775 -0.00495374  0.0162141 -0.0165053 -0.00493336  0.0167579 -0.0146847 -0.00564909  0.0161307 -0.0171165 -0.00409389  0.0209942 -0.0211923 -0.00459123  0.0180063 -0.0202144 -0.00403702  0.0230457 -0.0245433 -0.00450146  0.0180603 -0.0196077 -0.00485432  0.0198332 -0.0229914 -0.00474727  0.0210603 -0.0205731 -0.00553322  0.0198038 -0.0235854 -0.00395167  0.0250119 -0.02815 -0.00437212  0.0215203 -0.0272103 -0.00384116  0.0268884 -0.0320113 -0.00423872  0.0215323 -0.0266268 -0.00461066  0.0231584 -0.0305228 -0.00446534  0.0250372 -0.0275608 -0.00525928  0.0231586 -0.0310889 -0.00372183  0.0286809 -0.0361033 -0.00409138  0.0247183 -0.0351982 -0.00359249  0.0303821 -0.040435 -0.00394464  0.0247062 -0.0346477 -0.00431287  0.0261823 -0.0390111 -0.00415492  0.0286831 -0.0355513 -0.00491822  0.0262 -0.0395398 -0.00345981  0.0319988 -0.0449697 -0.00379229  0.027604 -0.0440948 -0.00332713  0.0335289 -0.049724 -0.00364029  0.0275804 -0.0435807 -0.00399637  0.0289023 -0.0483662 -0.00383735  0.0319866 -0.0444571 -0.00455582  0.0289317 -0.0488608 -0.00319409  0.0349746 -0.0546648 -0.0034889  0.0301841 -0.0538173 -0.00306141  0.036337 -0.0598063 -0.0033437  0.0301505 -0.0533407 -0.00368047  0.0313268 -0.0585135 -0.00352538  0.0349551 -0.0541926 -0.00419521  0.0313606 -0.0589678 -0.00293374  0.0376207 -0.0651122 -0.00319481  0.0324646 -0.0642903 -0.00280595  0.0388204 -0.0706043 -0.00305784  0.0324303 -0.0638512 -0.00337315  0.0334615 -0.0693727 -0.00322509  0.0375957 -0.0646785 -0.00384533  0.0334963 -0.0697898 -0.00268257  0.0399449 -0.076243 -0.00291705  0.0344568 -0.0754437 -0.00256109  0.04099 -0.0820481 -0.00278342  0.0344243 -0.0750423 -0.00307834  0.0353168 -0.0808768 -0.0029372  0.0399221 -0.0758463 -0.00351  0.0353492 -0.0812564 -0.00244153  0.0419632 -0.0879837 -0.00264764  0.036176 -0.0872096 -0.00232506  0.0428606 -0.0940705 -0.00252414  0.0361423 -0.0868449 -0.0027982  0.0369029 -0.0929602 -0.00266325  0.041942 -0.0876222 -0.00318801  0.036937 -0.0933028 -0.00221205  0.0436896 -0.100277 -0.00239658  0.0376319 -0.0995225 -0.0021019  0.0444473 -0.106617 -0.00227535  0.0375986 -0.0991908 -0.00253046  0.0382334 -0.105557 -0.00240183  0.0436667 -0.0999485 -0.00288618  0.0382645 -0.105869 -0.00199521  0.0451385 -0.11306 -0.00215602  0.0388366 -0.112326 -0.0018909  0.0457617 -0.119622 -0.0020386  0.0388041 -0.11203 -0.00227582  0.039319 -0.118618 -0.0021534  0.0451176 -0.112767 -0.00259483  0.0393511 -0.118897 -0.00178945  0.0463275 -0.126273 -0.00192618  0.0398074 -0.125561 -0.00169039  0.0468261 -0.133033 -0.00181651  0.0397755 -0.125298 -0.00203693  0.0401778 -0.132082 -0.00192022  0.0463035 -0.126014 -0.00231767  0.0402114 -0.132326 -0.00159395  0.0472691 -0.13987 -0.00170672  0.0405608 -0.139179 -0.00149918  0.0476527 -0.146802 -0.00160384  0.0405271 -0.138943 -0.00180876  0.0408261 -0.145897 -0.00169802  0.0472482 -0.139638 -0.00205851  0.0408566 -0.146117 -0.00140786  0.0479856 -0.153794 -0.00149953  0.0411046 -0.153126 -0.0013206  0.0482569 -0.160875 -0.00140679  0.0410748 -0.152917 -0.00159049  0.041275 -0.160018 -0.00148726  0.0479639 -0.153593 -0.00181389  0.0413058 -0.160211 -0.00123429  0.0484831 -0.168008 -0.00131154  0.0414553 -0.167359 -0.00115132  0.0486515 -0.175215 -0.00122249  0.0414269 -0.167175 -0.001387  0.0415373 -0.1744 -0.00129223  0.0484624 -0.16783 -0.00158226  0.0415657 -0.174568 -0.001073  0.0487857 -0.182459 -0.00112808  0.0416319 -0.181831 -0.000995278  0.0488639 -0.18977 -0.00104558  0.041605 -0.181671 -0.00119841  0.0416307 -0.189003 -0.00111175  0.0487614 -0.182306 -0.00136876  0.0416594 -0.189146 -0.000918627  0.0489032 -0.197118 -0.00096786  0.0416472 -0.196504 -0.000849009  0.048898 -0.204512 -0.000887513  0.0416176 -0.196369 -0.0010252  0.0415678 -0.203787 -0.000943542  0.0488822 -0.196985 -0.00116444  0.0415976 -0.203908 -0.000780344  0.0488586 -0.211934 -0.000808001  0.0415118 -0.211342 -0.000711679  0.0487747 -0.219402 -0.000735998  0.0414836 -0.211231 -0.000860929  0.0413675 -0.218715 -0.000786424  0.0488372 -0.211826 -0.000980377  0.0413952 -0.218815 -0.000649452  0.0486596 -0.226885 -0.000665307  0.0412459 -0.226312 -0.000588417  0.0485077 -0.234407 -0.000602603  0.0412178 -0.226219 -0.000713587  0.0410385 -0.233757 -0.000643253  0.0486412 -0.226797 -0.000810146  0.0410635 -0.233838 -0.000530481  0.0483277 -0.241933 -0.000537276  0.0408523 -0.241381 -0.000476122  0.0481114 -0.249501 -0.000477672  0.0408287 -0.241304 -0.000577569  0.0405924 -0.248885 -0.000516772  0.0483081 -0.241865 -0.000655055  0.0406184 -0.248948 -0.000422597  0.0478752 -0.257065 -0.000421047  0.0403588 -0.256524 -0.000371695  0.0476062 -0.264651 -0.000366688  0.0403364 -0.256463 -0.00045383  0.0400496 -0.26407 -0.000397205  0.0478518 -0.257008 -0.000516415  0.0400746 -0.264116 -0.000324011  0.0473137 -0.272234 -0.000315905  0.0397673 -0.271714 -0.000278831  0.046994 -0.279839 -0.000272274  0.039746 -0.271669 -0.000347018  0.0394235 -0.279284 -0.000295758  0.0472958 -0.272198 -0.00039053  0.0394416 -0.27932 -0.000240803  0.0466619 -0.287437 -0.000226378  0.0390966 -0.286928 -0.000201225  0.0463021 -0.295046 -0.000186682  0.039078 -0.286897 -0.000250578  0.0387168 -0.294519 -0.000207543  0.0466492 -0.287409 -0.000279427  0.0387347 -0.294542 -0.000164747  0.0459285 -0.302647 -0.000149727  0.0383551 -0.302152 -0.000133753  0.0455351 -0.310255 -0.000121236  0.0383384 -0.302131 -0.000169158  0.0379469 -0.309749 -0.000135064  0.0459151 -0.30263 -0.000189066  0.0379641 -0.309761 -0.000105143  0.0451307 -0.317851 -8.97646e-05  0.0375571 -0.317367 -7.84397e-05  0.0447156 -0.32545 -5.94854e-05  0.0375433 -0.317354 -0.000100493  0.0371284 -0.324959 -7.15256e-05  0.0451202 -0.317839 -0.00011158  0.0371437 -0.324968 -5.4121e-05  0.0442879 -0.333031 -3.45707e-05  0.036716 -0.332561 -3.31402e-05  0.0438492 -0.340616 -1.32322e-05  0.0367067 -0.332551 -4.63724e-05  0.0362732 -0.340145 -2.65837e-05  0.0442765 -0.333028 -5.17368e-05  0.0362871 -0.340146 -1.4782e-05  0.0434053 -0.348184 2.6226e-06  0.0358448 -0.347721 -9.53674e-07  0.0429513 -0.355752 1.65701e-05  0.0358338 -0.347719 -7.51019e-06  0.0353899 -0.355291 1.01328e-05  0.0433948 -0.348186 -5.72205e-06  0.0354018 -0.355288 1.40667e-05  0.0425005 -0.363303 3.49283e-05  0.0349529 -0.362844 2.69413e-05  0.0420401 -0.370854 4.36306e-05  0.0349426 -0.362847 2.55108e-05  0.0344901 -0.370399 3.70741e-05  0.0424883 -0.36331 3.12328e-05  0.0345023 -0.370394 3.8147e-05  0.0415871 -0.378391 5.17368e-05  0.034049 -0.377934 4.55379e-05  0.041131 -0.385934 5.82933e-05  0.0340378 -0.377934 4.79221e-05  0.0335855 -0.38548 5.82933e-05  0.04158 -0.378397 5.34058e-05  0.033596 -0.385474 5.34058e-05  -0.00119168 -0.000809737 0.00196314  -0.00141874 -0.00149864 0.0022732  -0.00302684 -0.00200865 0.00335181  -0.00192187 -0.001247 0.00332975  -0.0047271 -0.00230154 0.00483942  -0.00327924 -0.00291793 0.00329006  0 0 0  -0.0027158 -0.00283136 0.00263202  0 0 0  0 0 0  -0.00141094 -0.000449352 0.00283408  0 0 0  -0.00510082 -0.00410494 0.00439858  -0.00381866 -0.00301225 0.0038408  -0.00488028 -0.0032649 0.00414813  -0.00608222 -0.0042013 0.00479102  -0.00671019 -0.00477011 0.00467932  -0.0067192 -0.00339904 0.00563562  -0.00865349 -0.00478845 0.00630188  -0.0080929 -0.00435352 0.00648701  -0.00752115 -0.00524269 0.00546575  -0.00555962 -0.00254484 0.00490057  -0.00986186 -0.00665877 0.00623  -0.00820293 -0.00567355 0.00541782  -0.00847879 -0.00658743 0.00493741  -0.0102738 -0.00740459 0.00573897  -0.0101893 -0.0086907 0.0050714  -0.010527 -0.00648014 0.00657964  -0.0123688 -0.0085284 0.00675428  -0.0124328 -0.00734838 0.00759995  -0.0122175 -0.00835292 0.00658178  -0.0087586 -0.00570717 0.00565648  -0.0145133 -0.0103694 0.00679123  -0.012269 -0.00947129 0.0059067  -0.0118536 -0.0111188 0.00509357  -0.0142317 -0.0118586 0.00593996  -0.0134905 -0.0138477 0.00504804  -0.0142272 -0.0109191 0.00676513  -0.0160575 -0.013626 0.00670302  -0.016759 -0.0117457 0.00778794  -0.0167762 -0.012727 0.00681448  -0.0118638 -0.0102139 0.00579035  -0.0189907 -0.0153702 0.00676155  -0.0161489 -0.0145474 0.00589108  -0.0150959 -0.0168658 0.00495589  -0.018034 -0.017536 0.0057838  -0.0166802 -0.020159 0.00482786  -0.0178944 -0.0166414 0.00657749  -0.0196951 -0.0199243 0.0064075  -0.0210113 -0.0174082 0.00755084  -0.0211561 -0.0183248 0.00662887  -0.0149716 -0.015987 0.00562775  -0.023275 -0.0215345 0.00645709  -0.0198785 -0.0207899 0.0056361  -0.0182318 -0.0237117 0.00468516  -0.0216872 -0.0243146 0.00546873  -0.0197588 -0.0275181 0.0045234  -0.0214809 -0.0234785 0.00622189  -0.0232323 -0.0272774 0.00600731  -0.0251328 -0.024177 0.00712657  -0.0253402 -0.0250209 0.00625992  -0.018044 -0.0228885 0.00532556  -0.0273567 -0.0287408 0.006042  -0.0234578 -0.0280786 0.00527906  -0.0212559 -0.0315549 0.00435865  -0.025189 -0.0320835 0.00508618  -0.0227214 -0.0358184 0.00418687  -0.0249558 -0.0313136 0.00579512  -0.0266385 -0.0355716 0.00556493  -0.0290822 -0.0319334 0.00662327  -0.0293183 -0.0327048 0.00581908  -0.021041 -0.0307895 0.00495863  -0.0312328 -0.036885 0.00558698  -0.0268778 -0.0363056 0.00488758  -0.0241557 -0.0402927 0.00401926  -0.028527 -0.0407448 0.00469124  -0.0255604 -0.0449707 0.00384903  -0.0282879 -0.0400415 0.00534892  -0.0298948 -0.0447133 0.00512147  -0.0328478 -0.0405768 0.00611091  -0.0330899 -0.0412818 0.00536394  -0.023936 -0.0395889 0.00457847  -0.0349037 -0.0458772 0.00513411  -0.0301364 -0.0453827 0.00449049  -0.0269324 -0.0498398 0.00368488  -0.0317037 -0.0502195 0.00429988  -0.0282719 -0.0548981 0.00351739  -0.0314677 -0.0495771 0.0049063  -0.0329965 -0.0546271 0.00468576  -0.0364227 -0.0500305 0.00560832  -0.0366616 -0.0506719 0.00491667  -0.0267129 -0.0491979 0.00420284  -0.038372 -0.0556515 0.00469959  -0.0332304 -0.0552401 0.00410676  -0.0295808 -0.060131 0.00336194  -0.0347183 -0.0604377 0.00392377  -0.0308585 -0.0655344 0.00320494  -0.0344893 -0.0598526 0.00448108  -0.0359385 -0.0652473 0.00427043  -0.0397986 -0.0602251 0.00511861  -0.0400311 -0.0608081 0.00448668  -0.0293708 -0.0595444 0.00383556  -0.0416436 -0.0661313 0.00427628  -0.0361639 -0.0658008 0.00374115  -0.0321043 -0.0710938 0.00305653  -0.0375735 -0.0713273 0.00356555  -0.0333207 -0.0768092 0.00290585  -0.0373561 -0.0707998 0.00407636  -0.0387305 -0.0765021 0.003878  -0.0429881 -0.0710913 0.00465655  -0.0432085 -0.071617 0.00407779  -0.0319027 -0.0705625 0.00348973  -0.0447289 -0.0772557 0.00388086  -0.0389436 -0.0770048 0.00339293  -0.0345066 -0.0826667 0.00276506  -0.0402757 -0.0828313 0.00322878  -0.0356638 -0.0886645 0.00262463  -0.0400684 -0.082353 0.00369322  -0.0413671 -0.088342 0.00350153  -0.0459926 -0.0825673 0.00421679  -0.0462035 -0.0830449 0.00369358  -0.0343174 -0.0821856 0.00316203  -0.0476345 -0.0889698 0.00350475  -0.0415686 -0.0887937 0.00306416  -0.0367894 -0.0947923 0.00249064  -0.0428286 -0.0948914 0.00290918  -0.0378901 -0.101046 0.00235796  -0.0426332 -0.0944608 0.00332522  -0.043862 -0.100709 0.00314939  -0.0488204 -0.0946038 0.00380373  -0.0490192 -0.0950297 0.00332606  -0.0366088 -0.0943612 0.00284779  -0.0503651 -0.101215 0.00314891  -0.0440515 -0.101109 0.00275469  -0.0389599 -0.107415 0.00223172  -0.04524 -0.107453 0.00260651  -0.0400035 -0.113895 0.00210714  -0.0450575 -0.107068 0.00298285  -0.0462171 -0.113541 0.00281525  -0.0514766 -0.107142 0.0034045  -0.0516648 -0.107524 0.00297952  -0.0387915 -0.10703 0.00255275  -0.0529264 -0.11394 0.00281549  -0.0463961 -0.113901 0.00246012  -0.041021 -0.120483 0.00198925  -0.0475181 -0.12046 0.00232196  -0.0420116 -0.127166 0.00187147  -0.0473456 -0.120117 0.00266051  -0.0484388 -0.126797 0.00250089  -0.0539758 -0.120129 0.00303185  -0.054144 -0.120467 0.00265419  -0.040862 -0.120139 0.00227499  -0.0553292 -0.127092 0.00249708  -0.0486054 -0.127115 0.0021863  -0.0429776 -0.133943 0.00176096  -0.0496625 -0.133866 0.00205553  -0.0439168 -0.140806 0.00165093  -0.049502 -0.133563 0.00235403  -0.0505328 -0.140421 0.00220752  -0.0563128 -0.13352 0.00268352  -0.0564737 -0.133814 0.00235128  -0.0428283 -0.13364 0.00201452  -0.0575827 -0.14062 0.00220287  -0.0506867 -0.140702 0.00192833  -0.0448282 -0.147747 0.00154591  -0.0516849 -0.147621 0.00180495  -0.0457208 -0.154768 0.00144255  -0.0515361 -0.147359 0.00206602  -0.0525043 -0.154371 0.0019263  -0.0585036 -0.147253 0.0023582  -0.0586541 -0.147511 0.00206029  -0.0446923 -0.147483 0.00176883  -0.0596907 -0.154482 0.00192416  -0.0526481 -0.154614 0.00168526  -0.046586 -0.161855 0.00134468  -0.0535839 -0.16168 0.0015707  -0.0474286 -0.169008 0.00124907  -0.0534463 -0.161452 0.00180209  -0.0543604 -0.168604 0.00166953  -0.0605574 -0.161296 0.00205374  -0.0606933 -0.161521 0.0017947  -0.0464602 -0.161625 0.00153852  -0.0616639 -0.168628 0.00166774  -0.054491 -0.168812 0.0014571  -0.0482483 -0.176219 0.00115705  -0.0553708 -0.176002 0.00135291  -0.0490487 -0.183489 0.00106883  -0.0552466 -0.175809 0.00155044  -0.0561032 -0.183073 0.00143015  -0.0624714 -0.175608 0.00176609  -0.062597 -0.175794 0.00154555  -0.0481329 -0.176022 0.00132811  -0.0635011 -0.183022 0.00142431  -0.056222 -0.18325 0.00124979  -0.0498221 -0.190801 0.000984907  -0.0570509 -0.190547 0.00114882  -0.0505803 -0.198164 0.000902891  -0.0569341 -0.190381 0.00131953  -0.0577414 -0.197743 0.00120842  -0.064256 -0.190137 0.00150442  -0.0643733 -0.190299 0.00131249  -0.0497205 -0.190637 0.00112939  -0.0652184 -0.197623 0.00120521  -0.057852 -0.197889 0.00105369  -0.0513129 -0.205568 0.000825405  -0.0586293 -0.205277 0.000963211  -0.0520296 -0.213006 0.000750184  -0.058526 -0.205143 0.00110674  -0.0592813 -0.212579 0.0010047  -0.0659237 -0.204856 0.00125813  -0.0660281 -0.20499 0.00109982  -0.0512197 -0.205429 0.000946999  -0.0668187 -0.212396 0.000997901  -0.0593805 -0.2127 0.000873446  -0.0527253 -0.220477 0.000680089  -0.0601108 -0.220158 0.000792742  -0.0534062 -0.22798 0.000610471  -0.0600173 -0.220048 0.000910997  -0.0607316 -0.227546 0.000824094  -0.0674791 -0.21973 0.00103676  -0.0675752 -0.21984 0.00090456  -0.0526409 -0.220364 0.000779867  -0.0683098 -0.227312 0.000815988  -0.0608182 -0.227645 0.000715017  -0.0540648 -0.235503 0.00054419  -0.0615067 -0.235157 0.000638008  -0.0547056 -0.243052 0.000483751  -0.0614226 -0.235068 0.000735641  -0.0620956 -0.242615 0.000651956  -0.0689371 -0.234725 0.000835061  -0.0690179 -0.234808 0.000728011  -0.0539911 -0.235415 0.000626445  -0.0697021 -0.242329 0.000647306  -0.062171 -0.242691 0.000564814  -0.05533 -0.250614 0.000429153  -0.062814 -0.250244 0.000500202  -0.0559399 -0.258196 0.000375271  -0.0627449 -0.250178 0.000576735  -0.0633729 -0.257758 0.000502467  -0.070291 -0.249803 0.000656247  -0.070364 -0.24987 0.000569463  -0.0552692 -0.250548 0.000494957  -0.0710063 -0.25743 0.00049746  -0.0634391 -0.257813 0.000436902  -0.0565317 -0.265785 0.000324011  -0.0640516 -0.265393 0.000375509  -0.057112 -0.273387 0.00027597  -0.0639868 -0.265346 0.000433683  -0.0645831 -0.272947 0.000371695  -0.0715613 -0.264956 0.000493288  -0.0716209 -0.264997 0.000429869  -0.0564771 -0.265734 0.000374913  -0.0722215 -0.272579 0.000362873  -0.0646405 -0.272986 0.000320435  -0.0576739 -0.280992 0.000234365  -0.0652127 -0.280583 0.000268817  -0.0582268 -0.288603 0.000191689  -0.0651631 -0.280549 0.000314474  -0.0657227 -0.288161 0.000258565  -0.0727539 -0.280141 0.000353694  -0.0727975 -0.280169 0.000306487  -0.0576286 -0.280957 0.000270367  -0.0733607 -0.287764 0.000252128  -0.0657706 -0.288185 0.000220418  -0.0587659 -0.296214 0.000152707  -0.0663166 -0.295792 0.000180006  -0.0592983 -0.303827 0.000120521  -0.0662761 -0.295772 0.000210524  -0.0668118 -0.303386 0.00016284  -0.0738628 -0.295346 0.000234365  -0.0739031 -0.295363 0.000200629  -0.0587294 -0.296194 0.000179052  -0.0744381 -0.302964 0.000152826  -0.066848 -0.303398 0.000138521  -0.0598152 -0.311432 9.04799e-05  -0.0673668 -0.310999 0.000102401  -0.0603194 -0.319039 6.28233e-05  -0.0673308 -0.310987 0.000124574  -0.0678444 -0.318596 9.03606e-05  -0.0749204 -0.310551 0.00013721  -0.0749521 -0.31056 0.000118256  -0.0597801 -0.311423 0.000109553  -0.0754566 -0.318157 8.05855e-05  -0.0678737 -0.3186 7.22408e-05  -0.0608158 -0.326634 3.98159e-05  -0.0683711 -0.326194 4.29153e-05  -0.0613079 -0.334225 2.01464e-05  -0.068346 -0.326187 5.66244e-05  -0.0688367 -0.333782 2.90871e-05  -0.0759225 -0.325744 5.87702e-05  -0.0759456 -0.32574 4.55379e-05  -0.0607929 -0.326632 4.99487e-05  -0.076427 -0.333329 2.26498e-05  -0.0688567 -0.33378 2.07424e-05  -0.0617881 -0.341804 2.98023e-06  -0.0693383 -0.341357 2.38419e-07  -0.0622633 -0.349375 -1.09673e-05  -0.0693202 -0.341359 5.24521e-06  -0.069792 -0.348935 -1.18017e-05  -0.0768805 -0.340908 3.69549e-06  -0.0768993 -0.340903 -2.98023e-06  -0.0617692 -0.341806 8.10623e-06  -0.0773666 -0.348473 -1.78814e-05  -0.0698082 -0.348925 -1.35899e-05  -0.0627334 -0.356936 -2.563e-05  -0.0702722 -0.356485 -2.94447e-05  -0.0631967 -0.364488 -3.80278e-05  -0.0702577 -0.356493 -2.75373e-05  -0.0707231 -0.364044 -4.12464e-05  -0.0778103 -0.356039 -3.62396e-05  -0.0778251 -0.356029 -3.52859e-05  -0.0627184 -0.356945 -2.43187e-05  -0.0782821 -0.363582 -4.57764e-05  -0.0707359 -0.364035 -4.13656e-05  -0.0636549 -0.372029 -5.09024e-05  -0.0711968 -0.371578 -5.38826e-05  -0.0641141 -0.379563 -6.49691e-05  -0.071183 -0.371584 -5.51939e-05  -0.0716395 -0.379123 -6.52075e-05  -0.0787239 -0.371132 -5.85318e-05  -0.078737 -0.371122 -5.55515e-05  -0.0636466 -0.372035 -5.59092e-05  -0.0791929 -0.37866 -6.68764e-05  -0.0716565 -0.379116 -6.6638e-05  -0.00071048 -0.000103682 0.00132561  -0.000860743 -0.000399336 0.0016253  -0.00176084 -0.000761747 0.00230038  -0.0011544 -4.64618e-05 0.00236714  -0.00292999 -0.000661582 0.00359356  0 0 0  0 0 0  -0.000874791 0.000248432 0.00189912  0 0 0  -0.00219297 -0.00125277 0.00282729  -0.00287655 -0.00192869 0.00283241  -0.0037856 -0.00250752 0.00350666  -0.00406262 -0.00347348 0.00319099  -0.00435236 -0.0018397 0.00409353  -0.00566244 -0.00325891 0.00456071  -0.00332688 -0.00125773 0.00334418  -0.00529617 -0.00404325 0.00393713  -0.00522146 -0.00532426 0.00334692  -0.00678533 -0.00588505 0.00414503  -0.00636989 -0.0075144 0.00341868  -0.00699428 -0.00505215 0.00472093  -0.00828508 -0.00717455 0.00481808  -0.0053961 -0.00450443 0.00381672  -0.00821465 -0.00803959 0.00424445  -0.00748533 -0.0100003 0.00342047  -0.00960812 -0.0104993 0.00425601  -0.00858408 -0.0127952 0.00337827  -0.00960198 -0.00962116 0.00482464  -0.0109002 -0.0123881 0.0047648  -0.00747749 -0.00913389 0.00386941  -0.0109746 -0.0132627 0.00420904  -0.00966382 -0.0158707 0.00331295  -0.0123174 -0.0163117 0.00413203  -0.0107303 -0.019226 0.00322139  -0.0122063 -0.0154463 0.0046854  -0.0134957 -0.0187931 0.00455987  -0.00956589 -0.015015 0.00374877  -0.0136406 -0.0196362 0.004022  -0.0117831 -0.0228366 0.00312388  -0.014945 -0.023223 0.00390315  -0.0128231 -0.0267004 0.0030148  -0.0147792 -0.0224005 0.00443292  -0.0160447 -0.0262654 0.00427711  -0.0116415 -0.0220213 0.00354016  -0.0162253 -0.0270562 0.00376749  -0.0138499 -0.0307958 0.00290334  -0.0174875 -0.0311263 0.003631  -0.0148642 -0.0351202 0.00278699  -0.0173014 -0.03036 0.00412893  -0.018535 -0.0346868 0.00396669  -0.0136896 -0.0300303 0.00329947  -0.0187275 -0.0354215 0.00348485  -0.0158641 -0.0396521 0.00267732  -0.0199458 -0.0399285 0.00334823  -0.0168516 -0.0443942 0.00256169  -0.0197557 -0.039221 0.00381351  -0.0209476 -0.0439657 0.00365269  -0.015698 -0.0389447 0.00304532  -0.0211436 -0.0446385 0.00320446  -0.0178242 -0.0493229 0.00245333  -0.0223167 -0.0495421 0.00306785  -0.0187835 -0.0544416 0.00234139  -0.0221261 -0.0488961 0.00350153  -0.0232748 -0.0540152 0.00334334  -0.0176595 -0.048675 0.00279522  -0.0234672 -0.0546306 0.00292981  -0.0197259 -0.0597316 0.00223601  -0.0245957 -0.0598971 0.00279999  -0.0206542 -0.0651972 0.00212932  -0.0244068 -0.0593045 0.00319827  -0.0255125 -0.0647701 0.00304532  -0.0195642 -0.0591424 0.00254977  -0.025697 -0.0653293 0.00266802  -0.0215646 -0.0708153 0.00203323  -0.026778 -0.0709227 0.00254488  -0.0224652 -0.0765893 0.00192964  -0.0265994 -0.0703864 0.00290906  -0.0276601 -0.0761583 0.00276327  -0.0214125 -0.0702787 0.00231719  -0.0278373 -0.076667 0.00241888  -0.0233485 -0.082504 0.00183809  -0.0288732 -0.0825573 0.00230062  -0.0242174 -0.0885619 0.00174308  -0.0287051 -0.0820717 0.00263274  -0.0297244 -0.0881282 0.00249684  -0.0232029 -0.0820173 0.00210047  -0.0298872 -0.0885856 0.00218356  -0.0250719 -0.0947411 0.00165415  -0.0308813 -0.0947431 0.00207329  -0.0259141 -0.10105 0.00156474  -0.0307243 -0.094306 0.00237119  -0.0316976 -0.100614 0.00224411  -0.0249354 -0.0943033 0.00189018  -0.0318511 -0.101023 0.00196111  -0.0267408 -0.107469 0.00148225  -0.032802 -0.107421 0.00185454  -0.0275539 -0.114004 0.00139666  -0.0326535 -0.107029 0.00212359  -0.0335838 -0.113561 0.00200462  -0.0266132 -0.107079 0.00169361  -0.0337305 -0.113929 0.00175095  -0.0283488 -0.120637 0.00131834  -0.0346386 -0.12054 0.00165439  -0.0291318 -0.127369 0.00124037  -0.0345008 -0.120193 0.00189483  -0.0353911 -0.126927 0.00178027  -0.028231 -0.120288 0.00150657  -0.0355294 -0.127251 0.00155485  -0.0299027 -0.13419 0.00116634  -0.0363981 -0.134052 0.00146317  -0.0306607 -0.141101 0.00109184  -0.0362662 -0.133745 0.0016768  -0.0371201 -0.140652 0.00157225  -0.0297925 -0.133882 0.00133371  -0.0372467 -0.140937 0.00137126  -0.0314028 -0.148083 0.0010221  -0.0380762 -0.147902 0.00128508  -0.0321341 -0.155143 0.000956059  -0.0379565 -0.147631 0.00147223  -0.0387714 -0.154692 0.00137329  -0.031302 -0.147812 0.00117278  -0.0388877 -0.154943 0.00119972  -0.0328526 -0.16227 0.000891447  -0.0396807 -0.162051 0.00111759  -0.0335548 -0.169462 0.000828147  -0.0395696 -0.161816 0.00128257  -0.0403495 -0.16901 0.00118876  -0.0327611 -0.162035 0.00102103  -0.0404553 -0.169224 0.00103736  -0.0342476 -0.176707 0.000766754  -0.0412126 -0.176454 0.000962377  -0.0349271 -0.184011 0.000708222  -0.0411108 -0.176254 0.00110495  -0.0418537 -0.183558 0.00102079  -0.0341599 -0.176505 0.000879765  -0.0419519 -0.183741 0.000888109  -0.0355916 -0.191358 0.000650525  -0.0426779 -0.191072 0.000817776  -0.0362468 -0.198751 0.000596762  -0.0425828 -0.1909 0.000941396  -0.0432925 -0.198297 0.000865221  -0.0355153 -0.191186 0.000746846  -0.0433836 -0.198451 0.000750303  -0.0368891 -0.206179 0.000547171  -0.0440733 -0.20587 0.000687003  -0.0375214 -0.213648 0.000496984  -0.0439906 -0.205727 0.000789523  -0.0446675 -0.213197 0.000717282  -0.036818 -0.206035 0.000626206  -0.0447457 -0.213322 0.000622511  -0.0381389 -0.221144 0.000449538  -0.0454049 -0.220806 0.000564575  -0.0387495 -0.228672 0.000403285  -0.0453334 -0.22069 0.000649691  -0.0459824 -0.228221 0.000587821  -0.0380776 -0.221027 0.000516057  -0.0460501 -0.228322 0.000509024  -0.0393467 -0.236214 0.000362754  -0.0466821 -0.235857 0.000455737  -0.0399339 -0.243788 0.000318646  -0.0466194 -0.235765 0.000527024  -0.0472367 -0.243334 0.000464916  -0.0392897 -0.236123 0.000415802  -0.0472963 -0.243416 0.000401735  -0.0405076 -0.251369 0.000282168  -0.0478978 -0.25099 0.000356913  -0.0410721 -0.258966 0.000246525  -0.0478382 -0.250915 0.000411749  -0.0484328 -0.25852 0.000359893  -0.040458 -0.251295 0.000326276  -0.0484865 -0.258579 0.000308752  -0.04163 -0.266573 0.000213146  -0.0490623 -0.266179 0.000270009  -0.0421772 -0.274191 0.000182271  -0.0490153 -0.266123 0.000313759  -0.0495801 -0.273744 0.000269413  -0.0415881 -0.266518 0.000249624  -0.0496275 -0.273787 0.000229597  -0.0427125 -0.28181 0.000153065  -0.050179 -0.281402 0.000193357  -0.0432436 -0.289433 0.000125051  -0.0501378 -0.281363 0.000225425  -0.0506842 -0.288989 0.00018692  -0.0426781 -0.281769 0.00017941  -0.0507171 -0.289016 0.000159025  -0.0437629 -0.297053 0.000101089  -0.0512521 -0.296635 0.000127196  -0.0442753 -0.304678 7.93934e-05  -0.0512214 -0.296613 0.000153303  -0.0517447 -0.304236 0.000119567  -0.0437331 -0.297032 0.000119328  -0.0517738 -0.304254 0.000101447  -0.0447805 -0.312293 6.11544e-05  -0.0522864 -0.311864 7.54595e-05  -0.0452797 -0.319907 4.20809e-05  -0.0522604 -0.311855 9.36985e-05  -0.0527651 -0.319466 6.55651e-05  -0.044759 -0.312281 7.30753e-05  -0.0527906 -0.319474 5.28097e-05  -0.0457714 -0.32751 2.53916e-05  -0.0532863 -0.327073 3.20673e-05  -0.0462584 -0.335109 1.27554e-05  -0.0532653 -0.327067 4.44651e-05  -0.053756 -0.334669 2.15769e-05  -0.0457523 -0.327505 3.6478e-05  -0.0537739 -0.334666 1.45435e-05  -0.0467358 -0.342692 -9.53674e-07  -0.054256 -0.342251 9.53674e-07  -0.0472078 -0.350269 -1.0848e-05  -0.0542402 -0.34225 9.29832e-06  -0.0547187 -0.34983 -7.62939e-06  -0.0467219 -0.342694 2.74181e-06  -0.0547321 -0.349822 -1.16825e-05  -0.0476773 -0.357831 -1.97887e-05  -0.0552006 -0.357386 -2.38419e-05  -0.048141 -0.365387 -2.98023e-05  -0.0551879 -0.357391 -2.19345e-05  -0.0556531 -0.364947 -3.38554e-05  -0.0476649 -0.35784 -2.11e-05  -0.0556641 -0.364938 -3.52859e-05  -0.0486 -0.372923 -3.91006e-05  -0.0561278 -0.372479 -4.673e-05  -0.0490625 -0.380454 -4.8399e-05  -0.0561161 -0.372485 -4.70877e-05  -0.0565717 -0.380023 -5.90086e-05  -0.0485911 -0.372934 -4.33922e-05  -0.0565867 -0.380012 -5.97239e-05  -0.000325866 0.000181347 0.000647306  -0.000465851 6.67572e-05 0.000976324  -0.00080321 -0.000272095 0.00114942  -0.000634126 0.000431776 0.00140011  -0.00163211 0.00010711 0.00218773  0 0 0  0 0 0  -0.000408381 0.000532985 0.0009408  0 0 0  -0.00118019 -0.00046137 0.00171435  -0.00130521 -0.00130346 0.00142276  -0.00204651 -0.0015527 0.00213766  -0.00186761 -0.00277373 0.00161147  -0.00238225 -0.000894129 0.00248992  -0.00311352 -0.0022859 0.00277829  -0.00154087 -0.000622064 0.0016731  -0.00289777 -0.00304568 0.00240827  -0.00241941 -0.00463176 0.00169134  -0.00377905 -0.00491124 0.00252414  -0.0029825 -0.00684658 0.0017246  -0.00389543 -0.00409472 0.00286222  -0.00465754 -0.00626314 0.00290644  -0.00250393 -0.00380978 0.00191379  -0.00463119 -0.00711039 0.00257444  -0.00353834 -0.00937873 0.00172186  -0.00547183 -0.00962868 0.00257218  -0.00409228 -0.0122198 0.00169539  -0.0054552 -0.00876391 0.00290358  -0.0062331 -0.0115829 0.00285947  -0.0035153 -0.00851414 0.00193584  -0.00629738 -0.0124434 0.00253785  -0.00464451 -0.015341 0.00166047  -0.00711447 -0.0155483 0.00248742  -0.00519431 -0.0187428 0.00161099  -0.0070284 -0.0146942 0.00280845  -0.00781548 -0.0180906 0.00272894  -0.00456905 -0.0144886 0.0018692  -0.00792354 -0.0189253 0.00241542  -0.00574732 -0.0223964 0.00156271  -0.0087263 -0.022563 0.00234282  -0.00630295 -0.0263042 0.00150335  -0.00860858 -0.0217476 0.00265443  -0.00939512 -0.0256599 0.0025574  -0.00565052 -0.0215811 0.00176299  -0.00952351 -0.0264497 0.00225699  -0.00686049 -0.0304413 0.00144804  -0.0103189 -0.0305695 0.0021764  -0.00741953 -0.0348083 0.00138927  -0.0101821 -0.0298022 0.00247288  -0.0109645 -0.0341806 0.00237  -0.0067544 -0.0296768 0.00163984  -0.0111038 -0.0349139 0.00208664  -0.00798213 -0.0393844 0.00133348  -0.0118848 -0.0394731 0.00200403  -0.00854683 -0.0441689 0.00127316  -0.0117477 -0.0387616 0.00228107  -0.012522 -0.0435579 0.00217938  -0.00787222 -0.0386761 0.00151098  -0.0126614 -0.0442363 0.00191545  -0.00911129 -0.0491439 0.00121903  -0.013433 -0.0491916 0.00183475  -0.00968182 -0.0543071 0.00116277  -0.0132948 -0.0485391 0.00209391  -0.0140582 -0.0537119 0.00199676  -0.00900078 -0.0484915 0.00138342  -0.0141963 -0.0543324 0.00175214  -0.0102519 -0.0596425 0.00110984  -0.0149549 -0.0596489 0.00167227  -0.0108221 -0.0651508 0.00105274  -0.0148205 -0.0590545 0.00191045  -0.01557 -0.064569 0.0018152  -0.010143 -0.0590469 0.00126159  -0.0157043 -0.0651361 0.0015918  -0.0113933 -0.070813 0.00100553  -0.0164475 -0.0707798 0.00151825  -0.0119662 -0.0766328 0.000953555  -0.0163187 -0.0702385 0.00173426  -0.0170553 -0.0760643 0.00164568  -0.0112888 -0.0702693 0.00114679  -0.0171822 -0.0765776 0.00144112  -0.0125383 -0.0825894 0.000905514  -0.0179111 -0.0825159 0.00137091  -0.0131106 -0.0886884 0.000855684  -0.0177912 -0.0820255 0.00156879  -0.0185131 -0.0881308 0.00148404  -0.0124403 -0.0820991 0.00103152  -0.0186323 -0.0885942 0.00130022  -0.0136838 -0.0949114 0.000813127  -0.019347 -0.0947986 0.00123441  -0.0142583 -0.10126 0.000769138  -0.0192354 -0.0943544 0.00141156  -0.0199438 -0.10071 0.00133407  -0.0135914 -0.0944675 0.000927806  -0.0200543 -0.101127 0.00116646  -0.0148295 -0.10772 0.000728846  -0.0207561 -0.10757 0.00110531  -0.0154006 -0.114294 0.000684023  -0.0206493 -0.107173 0.00126529  -0.0213407 -0.113752 0.00119209  -0.0147445 -0.107323 0.00083065  -0.0214468 -0.114125 0.00104117  -0.0159706 -0.120966 0.000646949  -0.0221331 -0.120782 0.000982642  -0.0165374 -0.127734 0.000605941  -0.0220311 -0.120424 0.00112712  -0.0227108 -0.127201 0.00105822  -0.015891 -0.12061 0.000736952  -0.0228101 -0.127531 0.000922918  -0.0171041 -0.13459 0.000570178  -0.0234785 -0.13437 0.000869274  -0.0176703 -0.141532 0.000531912  -0.0233862 -0.134057 0.000997305  -0.0240507 -0.141007 0.000931978  -0.0170313 -0.134274 0.000650644  -0.0241423 -0.141296 0.000814557  -0.0182366 -0.148548 0.00049758  -0.024796 -0.148299 0.000759602  -0.0187976 -0.155641 0.000460148  -0.0247111 -0.148023 0.000871539  -0.0253615 -0.155121 0.000813961  -0.0181692 -0.148271 0.000567198  -0.0254421 -0.155376 0.000709057  -0.0193558 -0.162798 0.000432014  -0.0260818 -0.16252 0.000662804  -0.0199144 -0.170017 0.000399232  -0.026006 -0.162279 0.000759602  -0.0266368 -0.169507 0.000706196  -0.0192945 -0.162557 0.000492811  -0.026711 -0.169726 0.000615239  -0.0204685 -0.17729 0.000371218  -0.0273364 -0.176987 0.000569463  -0.0210202 -0.18462 0.000342131  -0.0272665 -0.176781 0.000655651  -0.0278847 -0.184115 0.000600576  -0.0204124 -0.177083 0.00042522  -0.0279529 -0.184303 0.000524282  -0.02157 -0.19199 0.000313282  -0.0285637 -0.191664 0.00048244  -0.022115 -0.199409 0.000285864  -0.0284965 -0.191488 0.000555277  -0.0291016 -0.198913 0.000506043  -0.021518 -0.191812 0.000357985  -0.0291626 -0.19907 0.000441432  -0.0226543 -0.20686 0.000262856  -0.0297573 -0.20651 0.000405908  -0.0231943 -0.21435 0.000237584  -0.0296984 -0.206363 0.000468373  -0.0302873 -0.213858 0.000422716  -0.0226123 -0.20671 0.000301361  -0.0303421 -0.213991 0.000366092  -0.0237286 -0.221862 0.000213504  -0.0309174 -0.221496 0.000331521  -0.0242565 -0.22941 0.000193596  -0.0308697 -0.221375 0.000382423  -0.0314391 -0.228924 0.000343323  -0.0236864 -0.22174 0.000249028  -0.031486 -0.229034 0.000297785  -0.0247817 -0.23697 0.0001719  -0.032052 -0.236588 0.000266194  -0.0253067 -0.244558 0.000151753  -0.0320067 -0.236491 0.000306964  -0.0325634 -0.244083 0.000271082  -0.0247514 -0.236873 0.000196576  -0.0326059 -0.244167 0.000235677  -0.0258253 -0.252153 0.000134349  -0.0331519 -0.251757 0.000208139  -0.0263391 -0.259767 0.00011611  -0.0331151 -0.25168 0.000239968  -0.0336564 -0.259297 0.000208974  -0.025795 -0.252077 0.000153184  -0.0336936 -0.259363 0.000179768  -0.0268483 -0.267387 0.000101328  -0.0342267 -0.266978 0.00015831  -0.0273519 -0.275015 8.58307e-05  -0.0341966 -0.266921 0.000183344  -0.0347242 -0.274553 0.000157595  -0.0268219 -0.267325 0.000114322  -0.0347531 -0.274597 0.000134468  -0.0278547 -0.282644 6.93798e-05  -0.0352752 -0.282225 0.000111222  -0.028353 -0.29028 5.68628e-05  -0.0352488 -0.282182 0.00013113  -0.0357611 -0.289819 0.00011003  -0.0278351 -0.282602 8.13007e-05  -0.0357893 -0.289855 9.11951e-05  -0.0288453 -0.297906 4.54187e-05  -0.0362976 -0.297481 7.37906e-05  -0.0293381 -0.305537 3.26633e-05  -0.0362718 -0.29745 9.19104e-05  -0.0367789 -0.305085 6.87838e-05  -0.0288301 -0.297879 5.10216e-05  -0.0367975 -0.305105 5.71012e-05  -0.0298221 -0.31316 2.68221e-05  -0.0372958 -0.312727 4.50611e-05  -0.0303051 -0.320782 1.7643e-05  -0.0372825 -0.31271 5.32866e-05  -0.0377693 -0.320335 3.96967e-05  -0.029809 -0.313144 3.15905e-05  -0.0377867 -0.320343 3.17097e-05  -0.0307801 -0.328388 1.07288e-05  -0.038271 -0.327948 1.78814e-05  -0.0312567 -0.335991 3.8147e-06  -0.038259 -0.32794 2.59876e-05  -0.0387402 -0.335546 1.2517e-05  -0.0307744 -0.328381 1.49012e-05  -0.0387516 -0.33555 7.51019e-06  -0.0317304 -0.34358 -5.24521e-06  -0.0392275 -0.343139 -9.53674e-07  -0.0321982 -0.351162 -6.91414e-06  -0.0392206 -0.343136 1.19209e-06  -0.0396905 -0.350721 -5.60284e-06  -0.0317233 -0.343579 -1.54972e-06  -0.0396988 -0.350714 -7.27177e-06  -0.0326607 -0.358725 -1.22786e-05  -0.0401645 -0.358281 -1.54972e-05  -0.0331228 -0.36628 -1.58548e-05  -0.0401576 -0.358284 -1.58548e-05  -0.0406213 -0.365846 -2.52724e-05  -0.032656 -0.35873 -1.4782e-05  -0.0406277 -0.365836 -2.57492e-05  -0.0335808 -0.373815 -2.28882e-05  -0.0410883 -0.373371 -3.25441e-05  -0.0340359 -0.381337 -3.18289e-05  -0.041081 -0.373376 -3.14713e-05  -0.0415394 -0.380908 -4.3869e-05  -0.0335729 -0.373825 -2.87294e-05  -0.0415478 -0.380895 -3.76701e-05  1.95652e-05 0.000236511 -4.93526e-05  -0.000123851 0.000229418 0.000299454  3.99947e-05 -0.000178128 -3.48091e-05  -0.000163112 0.00059557 0.000409007  -0.000496104 0.000365704 0.000710607  0 0 0  0 0 0  1.95801e-05 0.000588179 -3.17097e-05  0 0 0  -0.000324517 -0.000187874 0.000548005  9.27448e-05 -0.00117391 -3.06368e-05  -0.000590146 -0.00118718 0.000695586  0.000115424 -0.00262496 -1.83582e-05  -0.000707343 -0.000514597 0.000809431  -0.000916928 -0.00186607 0.000916481  6.52224e-05 -0.000493497 -4.39882e-05  -0.000839427 -0.00263262 0.000799775  0.000149071 -0.00449386 -9.65595e-06  -0.00112039 -0.00449899 0.000843167  0.000165999 -0.00672033 -5.96046e-06  -0.00115061 -0.00367841 0.000951886  -0.00137761 -0.00586358 0.000960708  0.000155479 -0.00366843 -2.51532e-05  -0.00138888 -0.00671497 0.000860691  0.000175238 -0.00927803 -1.66893e-06  -0.00166687 -0.00926492 0.000860929  0.0001719 -0.012146 -5.24521e-06  -0.0016391 -0.00840032 0.000964403  -0.00189441 -0.0112575 0.0009408  0.000208318 -0.00841498 -1.88351e-05  -0.00194389 -0.012118 0.000844359  0.000155866 -0.0152942 7.15256e-07  -0.00223011 -0.0152596 0.000830293  0.00012219 -0.0187218 -2.14577e-06  -0.00217181 -0.0144048 0.000930548  -0.00245231 -0.0178386 0.0008986  0.000199139 -0.0144428 -1.44243e-05  -0.00252217 -0.0186735 0.000802159  7.22408e-05 -0.0224032 -9.53674e-07  -0.00282198 -0.022345 0.000780106  3.69549e-06 -0.0263375 -5.36442e-06  -0.00275135 -0.0215275 0.000878334  -0.00305533 -0.0254749 0.000842214  0.000122786 -0.0215887 -1.40667e-05  -0.00313544 -0.0262656 0.000748158  -8.15392e-05 -0.0305023 -4.64916e-06  -0.00345582 -0.0304194 0.000721097  -0.000185668 -0.0348976 -1.03712e-05  -0.00337833 -0.0296532 0.000814199  -0.00370544 -0.0340655 0.000777602  -2.81334e-05 -0.0297376 -1.69277e-05  -0.00378793 -0.0348013 0.00068903  -0.000306368 -0.0395005 -9.77516e-06  -0.00413132 -0.0393967 0.000661492  -0.000448346 -0.0443146 -1.56164e-05  -0.00404865 -0.0386841 0.000747919  -0.00439775 -0.0435133 0.000710726  -0.000250816 -0.0387907 -2.01464e-05  -0.00448209 -0.0441948 0.000627995  -0.000606894 -0.0493177 -1.5974e-05  -0.00484526 -0.0491871 0.000601053  -0.000782847 -0.0545117 -1.93119e-05  -0.00476301 -0.0485319 0.000684738  -0.00513399 -0.0537401 0.000647545  -0.000551343 -0.0486643 -2.72989e-05  -0.00521672 -0.0543655 0.000570893  -0.00097537 -0.0598769 -2.01464e-05  -0.00559986 -0.0597205 0.000543356  -0.0011847 -0.065413 -2.38419e-05  -0.0055176 -0.059117 0.000618935  -0.00590754 -0.0646717 0.000584483  -0.000920653 -0.0592747 -2.93255e-05  -0.00598884 -0.0652435 0.000514269  -0.0014118 -0.0711062 -2.41995e-05  -0.00638795 -0.0709233 0.000490546  -0.00165439 -0.0769551 -2.7895e-05  -0.00631297 -0.0703765 0.000560522  -0.00672197 -0.0762382 0.000525475  -0.00136197 -0.0705583 -3.21865e-05  -0.00679636 -0.0767578 0.000461102  -0.00191069 -0.0829411 -2.5034e-05  -0.00721037 -0.0827315 0.000439286  -0.00218368 -0.0890691 -2.98023e-05  -0.00713909 -0.0822355 0.000499964  -0.00756037 -0.0883771 0.000470519  -0.0018599 -0.0824454 -3.43323e-05  -0.00763464 -0.0888467 0.000410914  -0.00247037 -0.0953206 -2.83718e-05  -0.00806534 -0.0950867 0.000391245  -0.00277221 -0.101699 -3.11136e-05  -0.00799799 -0.0946386 0.000449538  -0.00843227 -0.101027 0.000421047  -0.00242329 -0.0948748 -3.77893e-05  -0.00850081 -0.10145 0.000368595  -0.00308454 -0.108187 -2.89679e-05  -0.00894678 -0.107927 0.000348568  -0.0034107 -0.114789 -3.20673e-05  -0.00888026 -0.107526 0.000399709  -0.00933027 -0.114138 0.000372291  -0.00304043 -0.107782 -3.61204e-05  -0.00939524 -0.114513 0.000326753  -0.00374782 -0.121484 -3.21865e-05  -0.00984859 -0.1212 0.000307918  -0.00409722 -0.128278 -3.19481e-05  -0.00978971 -0.12084 0.000352263  -0.0102484 -0.127648 0.000325561  -0.00370896 -0.121124 -3.8743e-05  -0.0103067 -0.127983 0.000285506  -0.00445557 -0.135157 -2.88486e-05  -0.0107713 -0.134853 0.000267863  -0.00482655 -0.142124 -3.12328e-05  -0.0107158 -0.134534 0.000307322  -0.0111845 -0.141511 0.000284553  -0.00442076 -0.134838 -3.70741e-05  -0.0112394 -0.141807 0.000249743  -0.00520658 -0.149163 -2.89679e-05  -0.011713 -0.148838 0.000233054  -0.00559664 -0.156278 -2.95639e-05  -0.0116618 -0.148555 0.000269175  -0.0121388 -0.155683 0.000247955  -0.00517201 -0.148882 -3.5882e-05  -0.0121868 -0.155941 0.000214934  -0.00599146 -0.163455 -2.72989e-05  -0.0126667 -0.163111 0.000202417  -0.00639629 -0.170695 -2.90871e-05  -0.0126207 -0.162865 0.000229001  -0.0131011 -0.170118 0.000211358  -0.00596046 -0.163209 -3.3617e-05  -0.0131471 -0.17034 0.000186086  -0.00680757 -0.177987 -2.65837e-05  -0.0136328 -0.177625 0.000171185  -0.00722671 -0.185335 -2.81334e-05  -0.0135875 -0.177411 0.000199318  -0.0140781 -0.18477 0.000177026  -0.00678134 -0.177777 -3.37362e-05  -0.014116 -0.184962 0.000155091  -0.00765085 -0.192724 -2.58684e-05  -0.0146041 -0.192345 0.000144482  -0.0080843 -0.200157 -2.75373e-05  -0.014569 -0.192163 0.000169277  -0.0150583 -0.199607 0.000149131  -0.0076313 -0.192543 -3.19481e-05  -0.0150933 -0.19977 0.000126839  -0.00851703 -0.207624 -2.40803e-05  -0.0155795 -0.207231 0.000118613  -0.00895739 -0.215126 -2.34842e-05  -0.0155494 -0.20708 0.000132799  -0.0160377 -0.214595 0.000123143  -0.00850129 -0.207473 -3.21865e-05  -0.0160685 -0.214728 0.000104785  -0.00940204 -0.222655 -2.30074e-05  -0.0165589 -0.222251 9.59635e-05  -0.00985122 -0.230213 -2.21729e-05  -0.0165319 -0.222124 0.000111103  -0.0170217 -0.229691 9.60827e-05  -0.00938702 -0.222531 -2.53916e-05  -0.0170481 -0.229804 8.32081e-05  -0.0102994 -0.237785 -2.08616e-05  -0.0175383 -0.237374 7.39098e-05  -0.0107551 -0.245381 -2.08616e-05  -0.0175128 -0.237267 9.08375e-05  -0.0180056 -0.244875 7.54595e-05  -0.0102906 -0.237684 -2.65837e-05  -0.018024 -0.244961 6.74725e-05  -0.0112121 -0.25299 -1.89543e-05  -0.0185139 -0.252566 5.74589e-05  -0.0116696 -0.26061 -1.89543e-05  -0.0184944 -0.252486 6.83069e-05  -0.01898 -0.260114 5.3525e-05  -0.0112011 -0.252908 -2.26498e-05  -0.0189989 -0.260182 4.673e-05  -0.0121293 -0.268236 -1.69277e-05  -0.0194831 -0.267809 4.00543e-05  -0.0125906 -0.275872 -1.39475e-05  -0.0194669 -0.267742 4.76837e-05  -0.0199525 -0.275386 3.92199e-05  -0.0121243 -0.268175 -2.19345e-05  -0.0199668 -0.275439 3.32594e-05  -0.0130517 -0.283509 -1.50204e-05  -0.0204496 -0.283073 2.92063e-05  -0.013514 -0.29115 -1.56164e-05  -0.0204368 -0.283028 3.52859e-05  -0.0209174 -0.290674 2.64645e-05  -0.0130444 -0.28346 -1.81198e-05  -0.0209291 -0.290708 2.09808e-05  -0.0139759 -0.298785 -1.44243e-05  -0.0214067 -0.298342 1.80006e-05  -0.014441 -0.306419 -1.20401e-05  -0.0213978 -0.29831 1.85966e-05  -0.0218747 -0.305953 1.3113e-05  -0.013972 -0.298753 -1.45435e-05  -0.0218837 -0.305975 9.89437e-06  -0.0149009 -0.314045 -1.0252e-05  -0.0223577 -0.313602 9.53674e-06  -0.0153642 -0.321669 -1.13249e-05  -0.0223527 -0.313582 1.46627e-05  -0.0228269 -0.32121 6.4373e-06  -0.0148981 -0.314024 -1.23978e-05  -0.02283 -0.32122 3.8147e-06  -0.0158277 -0.32928 -8.58307e-06  -0.0233014 -0.328832 5.96046e-07  -0.0162854 -0.336885 -9.89437e-06  -0.0232961 -0.328823 -3.57628e-07  -0.0237634 -0.336431 2.38419e-07  -0.0158286 -0.329272 -1.09673e-05  -0.0237701 -0.336438 -5.00679e-06  -0.016747 -0.344478 -8.34465e-06  -0.024235 -0.344026 -7.27177e-06  -0.0172069 -0.352059 -3.09944e-06  -0.0242338 -0.344024 -5.24521e-06  -0.0247014 -0.351614 -5.84126e-06  -0.0167499 -0.344474 -8.10623e-06  -0.0246983 -0.351612 -8.46386e-06  -0.0176654 -0.359627 -1.54972e-06  -0.0251606 -0.359178 -9.41753e-06  -0.0181243 -0.367181 -4.17233e-06  -0.0251594 -0.359178 -1.22786e-05  -0.0256152 -0.366741 -1.27554e-05  -0.0176673 -0.359629 -5.24521e-06  -0.0256183 -0.366729 -1.12057e-05  -0.0185766 -0.374716 -3.33786e-06  -0.0260787 -0.374268 -1.51396e-05  -0.0190294 -0.382233 -2.38419e-06  -0.026072 -0.374275 -1.2517e-05  -0.02653 -0.381798 -1.68085e-05  -0.0185812 -0.374726 -6.4373e-06  -0.0265341 -0.381779 -1.68085e-05  0.000363067 0.000113904 -0.000746846  0.000202417 0.000203967 -0.0003829  0.000872537 -0.000401318 -0.00121355  0.000291698 0.000558496 -0.000587821  0.000586569 0.000282884 -0.00077796  0 0 0  0 0 0  0.000445239 0.000463128 -0.000999093  0 0 0  0.000486761 -0.000250161 -0.000630856  0.00147952 -0.00147951 -0.00147676  0.000785619 -0.00127494 -0.000763297  0.00208858 -0.00297827 -0.00163436  0.000876695 -0.000603855 -0.000884891  0.00117171 -0.0019753 -0.000964642  0.0016519 -0.000811875 -0.00175238  0.00110671 -0.00274032 -0.000829577  0.00270319 -0.00488496 -0.00169516  0.00141761 -0.0046252 -0.000857949  0.00330132 -0.00713009 -0.00172365  0.0014697 -0.00380564 -0.000978351  0.0017691 -0.00601 -0.000998378  0.00279492 -0.00407362 -0.0019511  0.00172505 -0.00685918 -0.000870228  0.00387463 -0.00970179 -0.00171304  0.00201303 -0.00942767 -0.000861645  0.00441968 -0.0125793 -0.00169051  0.00204691 -0.00856531 -0.000983  0.00231934 -0.0114383 -0.00097847  0.003914 -0.00884825 -0.00195539  0.00228482 -0.0122967 -0.000852346  0.0049361 -0.0157368 -0.00165069  0.00253326 -0.0154564 -0.000828147  0.00541919 -0.0191748 -0.00160789  0.00256062 -0.0146045 -0.000946164  0.00279081 -0.018056 -0.00092864  0.00495201 -0.0148917 -0.00188553  0.00275958 -0.0188892 -0.000807166  0.00587124 -0.0228639 -0.00155854  0.00296098 -0.0225787 -0.000781178  0.00628811 -0.0268072 -0.00151086  0.00298828 -0.0217622 -0.000895858  0.00316608 -0.0257293 -0.000873685  0.00587648 -0.022051 -0.00178123  0.00313646 -0.0265175 -0.000759721  0.00667322 -0.0309843 -0.00145757  0.00328559 -0.0306923 -0.000731707  0.00702435 -0.0353888 -0.00140715  0.00331259 -0.0299245 -0.000840068  0.00344187 -0.0343558 -0.000815988  0.00667757 -0.03022 -0.00167036  0.00341004 -0.0350924 -0.000709295  0.00733924 -0.0400066 -0.00135243  0.00350714 -0.0397067 -0.000681758  0.007622 -0.0448334 -0.00130057  0.00353533 -0.038992 -0.000781894  0.00361013 -0.0438427 -0.000759602  0.00734186 -0.0392958 -0.00154924  0.00357962 -0.0445271 -0.000659347  0.00787234 -0.0498512 -0.00124574  0.00362384 -0.0495396 -0.000632405  0.00808716 -0.0550604 -0.00119698  0.00365222 -0.0488834 -0.000727654  0.00367594 -0.0541135 -0.000703096  0.00787449 -0.0491959 -0.0014323  0.00364459 -0.0547422 -0.000609756  0.00826907 -0.060441 -0.00114667  0.00363898 -0.0601182 -0.000585079  0.00841868 -0.0659946 -0.00110185  0.00366879 -0.0595145 -0.000671387  0.00363898 -0.0650893 -0.000651121  0.00827193 -0.0598392 -0.00131607  0.00360978 -0.065663 -0.000563979  0.00853944 -0.0717038 -0.00105226  0.00355721 -0.0713676 -0.000539184  0.00862682 -0.0775686 -0.00100696  0.00358319 -0.0708165 -0.000620127  0.00350916 -0.076703 -0.000597596  0.00854027 -0.0711534 -0.00120926  0.00347936 -0.0772246 -0.000517607  0.00868559 -0.0835727 -0.00095892  0.00338137 -0.0832236 -0.000494599  0.00871503 -0.0897171 -0.000915766  0.00340617 -0.0827238 -0.000566244  0.00328767 -0.0888853 -0.000543714  0.00868714 -0.083075 -0.00110185  0.00325942 -0.0893581 -0.00047338  0.00871682 -0.0959848 -0.000872135  0.00311613 -0.0956213 -0.0004493  0.00869036 -0.102379 -0.000829577  0.00313938 -0.0951691 -0.000516891  0.00297868 -0.101582 -0.000495434  0.00871849 -0.0955317 -0.00100172  0.00295365 -0.102009 -0.000432134  0.00863481 -0.108884 -0.000786424  0.00276911 -0.108507 -0.000410318  0.00855541 -0.115499 -0.000748158  0.00279021 -0.1081 -0.000469327  0.00258732 -0.114734 -0.000449896  0.00863445 -0.108476 -0.000902534  0.00256765 -0.115114 -0.000391603  0.00845313 -0.122211 -0.000707507  0.00234532 -0.121821 -0.000368595  0.00832272 -0.129022 -0.000669956  0.00236166 -0.121459 -0.000424623  0.00212479 -0.128285 -0.000403523  0.00844812 -0.121848 -0.000813484  0.00210845 -0.128624 -0.00035131  0.00817192 -0.135914 -0.000630021  0.0018543 -0.135513 -0.00033021  0.00799942 -0.142892 -0.00059545  0.00186563 -0.13519 -0.000380635  0.00159574 -0.142185 -0.000357866  0.00816858 -0.135591 -0.000724077  0.00158191 -0.142484 -0.000312328  0.00780439 -0.149946 -0.000556707  0.00129509 -0.149534 -0.000292659  0.00758982 -0.157072 -0.000525117  0.00130892 -0.149248 -0.000338674  0.00100875 -0.156395 -0.00032115  0.00780106 -0.149662 -0.000640869  0.000993967 -0.156656 -0.000279188  0.00735688 -0.16426 -0.000490427  0.000678539 -0.163841 -0.000260949  0.00710368 -0.171511 -0.000460029  0.00068903 -0.163592 -0.000298619  0.000362158 -0.170858 -0.000280499  0.00735426 -0.164011 -0.000563025  0.00034976 -0.171085 -0.00024581  0.00683808 -0.178815 -0.000426054  9.29832e-06 -0.178385 -0.000227809  0.00655246 -0.186171 -0.000396848  1.95503e-05 -0.178171 -0.000260115  -0.000330925 -0.185539 -0.000247002  0.00682902 -0.1786 -0.000491381  -0.000342131 -0.185735 -0.000213742  0.00625467 -0.193569 -0.000368357  -0.000705242 -0.193133 -0.000198722  0.00593734 -0.201011 -0.000339866  -0.000695705 -0.192949 -0.00022614  -0.00106978 -0.200406 -0.000211716  0.00624585 -0.193386 -0.000424623  -0.00107861 -0.200571 -0.000184774  0.00560737 -0.208484 -0.000310898  -0.00146008 -0.208041 -0.000168085  0.00526571 -0.215997 -0.000286579  -0.00145769 -0.207889 -0.000193357  -0.00184512 -0.215411 -0.000177979  0.00560093 -0.208331 -0.000359178  -0.00185084 -0.215548 -0.000154614  0.00491238 -0.223529 -0.000258684  -0.00224781 -0.223085 -0.000142455  0.00454593 -0.231092 -0.000236154  -0.00224733 -0.222955 -0.000165224  -0.00265145 -0.230531 -0.000149608  0.00490355 -0.2234 -0.000300407  -0.00265241 -0.230642 -0.000130653  0.00417066 -0.23867 -0.00021255  -0.00306654 -0.23822 -0.000118256  0.00378704 -0.246271 -0.000192642  -0.00306654 -0.238115 -0.000136733  -0.00348473 -0.245723 -0.000123978  0.00416088 -0.238567 -0.00024724  -0.00348663 -0.245817 -0.000106812  0.00339222 -0.253884 -0.000171065  -0.00391245 -0.253431 -9.70364e-05  0.00299239 -0.261508 -0.000151515  -0.00391126 -0.253346 -0.000110388  -0.00434327 -0.260981 -0.000100851  0.00338459 -0.253798 -0.000197053  -0.00434089 -0.261052 -8.58307e-05  0.00258398 -0.269137 -0.00013268  -0.00477672 -0.26868 -7.42674e-05  0.0021646 -0.276776 -0.000116706  -0.00477576 -0.268615 -8.64267e-05  -0.00521445 -0.276265 -7.48634e-05  0.00257254 -0.269072 -0.000154734  -0.00521541 -0.276319 -6.58035e-05  0.00174451 -0.284416 -0.000101566  -0.00565648 -0.283957 -6.02007e-05  0.00132012 -0.292057 -8.65459e-05  -0.00565886 -0.283909 -6.71148e-05  -0.00610042 -0.29156 -5.9247e-05  0.00173497 -0.284369 -0.00011754  -0.00610042 -0.2916 -5.29289e-05  0.000887871 -0.299693 -7.11679e-05  -0.00654817 -0.299238 -4.44651e-05  0.000451088 -0.307327 -5.82933e-05  -0.00654984 -0.299202 -4.82798e-05  -0.00699997 -0.306846 -4.47035e-05  0.000876188 -0.299661 -8.60691e-05  -0.00699425 -0.306868 -3.69549e-05  1.45435e-05 -0.314954 -4.69685e-05  -0.00744605 -0.314497 -2.94447e-05  -0.000428438 -0.322577 -3.51667e-05  -0.00744891 -0.314474 -3.26633e-05  -0.00790215 -0.322106 -2.83718e-05  5.72205e-06 -0.314934 -5.73397e-05  -0.00789714 -0.322121 -2.40803e-05  -0.000873804 -0.330192 -2.49147e-05  -0.00835252 -0.329733 -1.81198e-05  -0.00132155 -0.337793 -1.85966e-05  -0.00835776 -0.329722 -2.19345e-05  -0.00880909 -0.337336 -1.62125e-05  -0.000879526 -0.330177 -3.17097e-05  -0.00880694 -0.337339 -1.45435e-05  -0.00176978 -0.345385 -9.41753e-06  -0.00926018 -0.34493 -8.70228e-06  -0.00222325 -0.35297 -2.38419e-07  -0.00926137 -0.344925 -1.0252e-05  -0.00971818 -0.352516 -3.33786e-06  -0.00177836 -0.345383 -1.52588e-05  -0.00971556 -0.352512 -3.33786e-06  -0.00267386 -0.360535 3.45707e-06  -0.0101714 -0.360079 3.57628e-07  -0.00312519 -0.368091 1.14441e-05  -0.0101745 -0.360084 -1.54972e-06  -0.0106261 -0.367644 4.64916e-06  -0.00268006 -0.360538 4.52995e-06  -0.0106266 -0.367634 6.4373e-06  -0.00357652 -0.375626 1.91927e-05  -0.0110795 -0.37517 6.91414e-06  -0.00402832 -0.383144 2.563e-05  -0.0110874 -0.375183 9.65595e-06  -0.0115354 -0.382698 1.49012e-05  -0.00358677 -0.375636 2.02656e-05  -0.0115294 -0.382687 1.03712e-05  0.0007383 -0.000233173 -0.00142395  0.000545621 -1.00732e-05 -0.0010556  0.00179246 -0.000990212 -0.00234509  0.000755377 0.000327587 -0.00157118  0.00170109 -0.000133395 -0.00224614  0 0 0  0 0 0  0.00089144 0.000108302 -0.00194585  0 0 0  0.00134441 -0.000639081 -0.00178814  0.00301217 -0.00226003 -0.00285459  0.00222602 -0.00180447 -0.0021894  0.00424689 -0.00385517 -0.00318336  0.00252375 -0.00114346 -0.00254846  0.00333676 -0.00260007 -0.00280845  0.0033752 -0.00161552 -0.00339425  0.00313765 -0.00335115 -0.0024215  0.0054608 -0.00581104 -0.00331771  0.00404504 -0.00528163 -0.00252187  0.00664085 -0.00807297 -0.00338542  0.00417703 -0.00447249 -0.00287187  0.00500917 -0.00669861 -0.00292575  0.00563639 -0.00501668 -0.00381231  0.00493008 -0.0075376 -0.00256658  0.00777307 -0.010642 -0.00338006  0.00578439 -0.0101102 -0.00255406  0.00885963 -0.0135121 -0.00334358  0.00582373 -0.0092572 -0.00290239  0.00662279 -0.0121301 -0.0028702  0.00782633 -0.00979722 -0.00385129  0.00660294 -0.0129845 -0.00252283  0.00989866 -0.0166577 -0.00327539  0.00738215 -0.0161405 -0.00246799  0.0108926 -0.0200857 -0.00319505  0.00738144 -0.0152956 -0.00280762  0.00811625 -0.018743 -0.00274217  0.00989401 -0.0158176 -0.00373209  0.00812191 -0.0195742 -0.00240755  0.0118389 -0.0237682 -0.00310194  0.00882065 -0.0232629 -0.00233412  0.0127361 -0.0277081 -0.00300157  0.00880432 -0.0224508 -0.00266039  0.00946337 -0.0264158 -0.00257957  0.0118049 -0.0229604 -0.00353777  0.00947976 -0.0272048 -0.00226068  0.0135853 -0.0318792 -0.0028969  0.0100975 -0.031382 -0.00217986  0.0143844 -0.0362867 -0.00279379  0.0100734 -0.030617 -0.0024873  0.0106516 -0.0350507 -0.00240326  0.0135401 -0.0311191 -0.0033108  0.0106741 -0.0357883 -0.00210285  0.0151363 -0.0409017 -0.00268626  0.0112084 -0.0404076 -0.00201941  0.0158378 -0.0457306 -0.00258088  0.0111836 -0.0396947 -0.00230861  0.0116794 -0.0445519 -0.0022229  0.0150884 -0.0401925 -0.0030719  0.0117018 -0.0452336 -0.00194156  0.0164914 -0.0507507 -0.00247347  0.0121524 -0.0502586 -0.00186181  0.0170958 -0.0559614 -0.00237381  0.0121268 -0.0495975 -0.00213075  0.0125418 -0.0548382 -0.0020479  0.0164434 -0.0500917 -0.00283265  0.012563 -0.0554677 -0.00178921  0.0176516 -0.0613446 -0.0022707  0.0129321 -0.0608513 -0.00171101  0.0181599 -0.0669013 -0.00217366  0.0129076 -0.0602474 -0.00195885  0.0132424 -0.0658303 -0.0018779  0.0176032 -0.0607423 -0.00260353  0.0132641 -0.066408 -0.00163913  0.0186222 -0.0726144 -0.00207698  0.0135528 -0.0721217 -0.00156605  0.0190383 -0.0784842 -0.001984  0.0135295 -0.0715696 -0.00179148  0.0137866 -0.0774642 -0.00171542  0.0185779 -0.0720637 -0.00238204  0.0138074 -0.0779878 -0.00149548  0.0194103 -0.0844924 -0.00188947  0.0140227 -0.0839978 -0.00142527  0.0197363 -0.0906391 -0.00180101  0.0140008 -0.0834953 -0.00163364  0.0141824 -0.0896683 -0.00156021  0.0193659 -0.0839888 -0.00216794  0.014201 -0.0901444 -0.00135958  0.0200224 -0.0969118 -0.00170922  0.0143459 -0.0964168 -0.00129116  0.0202664 -0.10331 -0.00162578  0.0143239 -0.0959618 -0.00147951  0.0144358 -0.102385 -0.00140893  0.0199789 -0.0964592 -0.0019635  0.0144542 -0.102813 -0.00122917  0.0204681 -0.109818 -0.00154305  0.0145298 -0.10932 -0.00116313  0.0206308 -0.116438 -0.00146043  0.0145074 -0.108913 -0.00133681  0.0145507 -0.115556 -0.00126839  0.0204263 -0.109409 -0.00176823  0.0145704 -0.115938 -0.00110531  0.0207589 -0.123152 -0.00137913  0.0145835 -0.122655 -0.00104427  0.0208466 -0.129967 -0.00130236  0.0145582 -0.122289 -0.00119829  0.0145409 -0.129129 -0.0011332  0.0207151 -0.122789 -0.00158322  0.0145652 -0.129468 -0.000987291  0.0209014 -0.136866 -0.00122809  0.0145147 -0.136367 -0.000929952  0.0209217 -0.143847 -0.00115693  0.0144922 -0.136041 -0.00106668  0.0144231 -0.143043 -0.0010066  0.0208597 -0.136539 -0.00140893  0.0144389 -0.143347 -0.000878453  0.0209088 -0.150902 -0.0010854  0.014338 -0.150403 -0.000824332  0.0208671 -0.158032 -0.00101876  0.0143144 -0.150117 -0.000944734  0.01419 -0.157266 -0.000887632  0.02087 -0.150617 -0.00124562  0.0142124 -0.157531 -0.000773668  0.0207982 -0.16522 -0.000950098  0.0140576 -0.164722 -0.000721455  0.0206938 -0.172474 -0.000886798  0.0140362 -0.164471 -0.00082612  0.0138614 -0.171742 -0.00077498  0.0207577 -0.16497 -0.00108969  0.0138819 -0.171974 -0.000675321  0.0205667 -0.179778 -0.000824213  0.0136847 -0.179281 -0.000626326  0.0204117 -0.187133 -0.000762939  0.0136602 -0.179063 -0.000721097  0.0134442 -0.186437 -0.000667691  0.0205286 -0.17956 -0.00094831  0.0134659 -0.186637 -0.00058198  0.0202332 -0.194535 -0.000704646  0.0132263 -0.194038 -0.000537992  0.0200293 -0.201976 -0.000649929  0.0132031 -0.193852 -0.000616908  0.0129454 -0.201312 -0.000570178  0.0201981 -0.194347 -0.000811458  0.0129673 -0.201478 -0.000494361  0.0198054 -0.209449 -0.000597  0.0126903 -0.208954 -0.000453711  0.0195608 -0.216959 -0.000543833  0.0126684 -0.208799 -0.000523329  0.0123758 -0.216322 -0.000479937  0.0197678 -0.209292 -0.000685811  0.0123975 -0.216465 -0.000417471  0.0192909 -0.224494 -0.000494599  0.0120873 -0.224 -0.000378847  0.019006 -0.232053 -0.000449777  0.0120649 -0.223871 -0.000436664  0.0117426 -0.231447 -0.000394821  0.0192592 -0.224361 -0.000571012  0.0117633 -0.231561 -0.000343561  0.018707 -0.239631 -0.000405908  0.0114243 -0.239143 -0.000310421  0.0183859 -0.247232 -0.00036335  0.0114031 -0.239034 -0.000359058  0.0110557 -0.246648 -0.000322819  0.018672 -0.239527 -0.00047195  0.0110748 -0.246744 -0.000278592  0.0180523 -0.254839 -0.000322104  0.0107138 -0.254355 -0.00024879  0.0177033 -0.262462 -0.000283122  0.0106895 -0.254271 -0.000288129  0.0103197 -0.261905 -0.000252366  0.0180252 -0.254757 -0.000371814  0.0103383 -0.261976 -0.00021863  0.0173471 -0.270089 -0.000247955  0.00995326 -0.269608 -0.000190854  0.0169718 -0.277726 -0.000215054  0.0099349 -0.269542 -0.000221729  0.00954413 -0.277189 -0.000196457  0.0173175 -0.270025 -0.000290275  0.00956106 -0.277245 -0.00016737  0.0165889 -0.285363 -0.000182867  0.00915956 -0.284885 -0.000142694  0.0161948 -0.292999 -0.000154972  0.00914192 -0.284833 -0.000168562  0.00873327 -0.292488 -0.000141978  0.0165646 -0.285313 -0.000216484  0.00874972 -0.292523 -0.00012362  0.0157936 -0.300633 -0.000125408  0.00833392 -0.300158 -0.000100613  0.0153801 -0.308267 -0.000102401  0.00831771 -0.300127 -0.000117421  0.00789404 -0.307771 -9.66787e-05  0.0157688 -0.300603 -0.000150681  0.00791168 -0.307794 -8.16584e-05  0.0149617 -0.31589 -8.05855e-05  0.00748229 -0.31542 -6.73532e-05  0.0145369 -0.323512 -6.2108e-05  0.00746369 -0.315399 -7.82013e-05  0.00703478 -0.323027 -5.87702e-05  0.0149438 -0.315872 -9.59635e-05  0.00704908 -0.32304 -4.93526e-05  0.0141053 -0.331122 -4.45843e-05  0.00660872 -0.330654 -3.77893e-05  0.0136688 -0.338723 -2.98023e-05  0.00659895 -0.330641 -4.58956e-05  0.00615859 -0.338253 -3.05176e-05  0.0140903 -0.331112 -5.29289e-05  0.0061698 -0.338257 -2.46763e-05  0.0132298 -0.34631 -1.50204e-05  0.00572586 -0.345847 -1.46627e-05  0.0127845 -0.35389 -3.57628e-07  0.00571394 -0.345842 -1.77622e-05  0.00526595 -0.353431 -7.98702e-06  0.0132177 -0.346308 -2.18153e-05  0.00527906 -0.353428 -2.98023e-06  0.0123401 -0.361452 1.13249e-05  0.0048306 -0.360996 8.82149e-06  0.0118899 -0.36901 2.2769e-05  0.0048182 -0.360996 6.07967e-06  0.00436521 -0.368557 1.7643e-05  0.0123289 -0.361457 7.7486e-06  0.00437903 -0.368549 1.87159e-05  0.0114403 -0.376548 3.60012e-05  0.00392652 -0.376088 2.44379e-05  0.0109897 -0.384078 4.41074e-05  0.00391531 -0.376094 2.64645e-05  0.00346708 -0.383622 4.20809e-05  0.0114264 -0.376553 3.77893e-05  0.003479 -0.383608 3.68357e-05  0.0012216 -0.00101137 -0.00203645  0.000964448 -0.00051105 -0.00169075  0.00300574 -0.00214404 -0.00337505  0.00128374 -0.000192463 -0.002514  0.00297141 -0.000993073 -0.0036397  0 0 0  0 0 0  0.00143157 -0.000672162 -0.00283313  0 0 0  0.00236787 -0.00147694 -0.00286865  0.00493129 -0.00364804 -0.00411344  0.00391757 -0.00286508 -0.00352168  0.00683615 -0.00532079 -0.00462008  0.00440402 -0.00220793 -0.00412822  0.00579697 -0.00377083 -0.00456083  0.00547551 -0.00299978 -0.00491738  0.00546223 -0.00451893 -0.00391972  0.00864485 -0.00727034 -0.00485849  0.00698569 -0.00647795 -0.00410402  0.0103918 -0.00952667 -0.00498199  0.00719333 -0.00567472 -0.00469625  0.00856668 -0.00790286 -0.0047909  0.00891235 -0.00647151 -0.00559628  0.00844604 -0.00874287 -0.00419509  0.0120645 -0.0120595 -0.00499701  0.00985485 -0.0112973 -0.00419557  0.0136758 -0.0149071 -0.00495756  0.00990567 -0.0104462 -0.00477648  0.0112191 -0.0132998 -0.00473201  0.0121363 -0.0112079 -0.00570655  0.0112074 -0.0141545 -0.00415695  0.0152272 -0.0180293 -0.00487161  0.0125049 -0.0172915 -0.00407636  0.0167217 -0.0214379 -0.00475752  0.0124858 -0.0164461 -0.00463891  0.0137141 -0.0198803 -0.00453329  0.0152026 -0.0171841 -0.0055542  0.0137511 -0.0207071 -0.00397837  0.0181571 -0.0251017 -0.00462139  0.0149408 -0.024385 -0.00386333  0.0195281 -0.0290264 -0.00447702  0.0148859 -0.0235747 -0.00440562  0.0160158 -0.0275282 -0.00426948  0.0180835 -0.0242915 -0.00527525  0.0160769 -0.0283142 -0.00374281  0.0208388 -0.0331847 -0.00432336  0.0171578 -0.0324831 -0.00361311  0.0220844 -0.0375793 -0.00416732  0.0170871 -0.03172 -0.00412548  0.0181116 -0.036145 -0.00397718  0.020748 -0.0324222 -0.00493991  0.0181806 -0.0368823 -0.00348258  0.0232692 -0.0421823 -0.00400794  0.0191489 -0.0414974 -0.00334752  0.0243846 -0.0470001 -0.00385189  0.0190706 -0.0407851 -0.00382638  0.0199852 -0.0456364 -0.00367916  0.0231694 -0.0414748 -0.00458598  0.020059 -0.0463195 -0.00321865  0.0254349 -0.0520105 -0.00369334  0.0209112 -0.0513373 -0.00308526  0.0264212 -0.0572115 -0.00354171  0.0208354 -0.0506795 -0.00352871  0.0216364 -0.0559167 -0.00338709  0.0253385 -0.0513561 -0.00422728  0.0217071 -0.0565427 -0.00295937  0.0273442 -0.0625865 -0.00338745  0.0224471 -0.0619239 -0.00283206  0.0282041 -0.0681329 -0.00324166  0.0223736 -0.0613205 -0.00323915  0.0230623 -0.0669019 -0.00310338  0.0272502 -0.061983 -0.00387883  0.0231332 -0.0674779 -0.00270891  0.0290024 -0.0738369 -0.00309229  0.0237646 -0.0731887 -0.00258434  0.0297382 -0.0796984 -0.00295365  0.0236946 -0.0726333 -0.00296092  0.0242759 -0.0785289 -0.00282931  0.0289102 -0.0732843 -0.00354385  0.0243417 -0.0790535 -0.00247025  0.0304154 -0.0856978 -0.0028131  0.024866 -0.0850599 -0.00235212  0.0310339 -0.0918408 -0.00267911  0.0247983 -0.0845569 -0.00269461  0.0252751 -0.0907276 -0.00256884  0.0303304 -0.0851956 -0.00322211  0.0253395 -0.0912046 -0.00224113  0.0315967 -0.0981025 -0.00254524  0.0257649 -0.0974759 -0.00212991  0.0321023 -0.104494 -0.00241804  0.0257006 -0.09702 -0.00243986  0.0260793 -0.103442 -0.00231802  0.0315113 -0.0976514 -0.00291896  0.0261413 -0.103871 -0.00202191  0.0325562 -0.110995 -0.00229073  0.0264688 -0.110378 -0.00191808  0.0329566 -0.117608 -0.00216937  0.0264071 -0.109966 -0.00219727  0.0266948 -0.116607 -0.00208044  0.032475 -0.110587 -0.00262547  0.0267524 -0.116993 -0.00181723  0.0333073 -0.124317 -0.00205135  0.0269917 -0.123709 -0.00171554  0.0336076 -0.131122 -0.00193906  0.0269303 -0.123342 -0.00196671  0.0271298 -0.130176 -0.0018599  0.0332314 -0.123951 -0.00234938  0.0271904 -0.130518 -0.00162101  0.0338621 -0.138013 -0.00182104  0.0273449 -0.137414 -0.00152552  0.03407 -0.144989 -0.00171185  0.027287 -0.137088 -0.00175083  0.0274036 -0.144092 -0.00164795  0.0337865 -0.137688 -0.00209057  0.0274591 -0.144396 -0.00143635  0.034235 -0.152033 -0.00160539  0.0275373 -0.151448 -0.00134504  0.0343561 -0.159157 -0.00150323  0.0274823 -0.151161 -0.00154197  0.0275249 -0.158309 -0.0014472  0.0341628 -0.151751 -0.00184262  0.0275767 -0.158572 -0.00126135  0.0344384 -0.166341 -0.00140142  0.0275824 -0.165761 -0.00117779  0.0344822 -0.173585 -0.00130653  0.0275278 -0.165512 -0.00135148  0.0275021 -0.172781 -0.00126112  0.0343697 -0.166089 -0.00161076  0.0275545 -0.17301 -0.00109828  0.034488 -0.18088 -0.00121319  0.027494 -0.180314 -0.00101984  0.0344555 -0.188231 -0.00112677  0.0274413 -0.180094 -0.00117016  0.0273526 -0.187465 -0.00108755  0.0344241 -0.180666 -0.00139582  0.027406 -0.187664 -0.000944376  0.0343916 -0.195619 -0.00104177  0.027283 -0.195064 -0.000872374  0.0342944 -0.203055 -0.000956774  0.0272329 -0.194874 -0.00100124  0.0270858 -0.202331 -0.00092411  0.0343323 -0.195436 -0.00119603  0.027133 -0.202501 -0.000802755  0.0341673 -0.210519 -0.000877738  0.0269601 -0.209972 -0.000736117  0.0340102 -0.21802 -0.000801086  0.0269077 -0.209814 -0.00084579  0.026711 -0.217337 -0.000776529  0.0341079 -0.210363 -0.00101018  0.0267599 -0.217478 -0.000673771  0.0338237 -0.225546 -0.000726342  0.0265372 -0.225008 -0.000611186  0.0336134 -0.2331 -0.000656605  0.0264878 -0.224877 -0.000705481  0.0262465 -0.232452 -0.000638485  0.0337689 -0.225419 -0.000835896  0.0262885 -0.232565 -0.000555277  0.0333796 -0.240666 -0.000589371  0.0260181 -0.240141 -0.000499964  0.0331161 -0.248261 -0.000529885  0.0259776 -0.240037 -0.000573874  0.0256908 -0.247647 -0.000516534  0.0333259 -0.240566 -0.000681639  0.0257299 -0.247736 -0.000447035  0.0328367 -0.255858 -0.000468135  0.0254238 -0.255343 -0.000394464  0.0325341 -0.263476 -0.00041151  0.0253859 -0.255259 -0.000456095  0.0250652 -0.262891 -0.00040257  0.032789 -0.255777 -0.000542879  0.0251012 -0.262963 -0.000347733  0.0322163 -0.271095 -0.000358462  0.0247614 -0.270586 -0.000303268  0.0318775 -0.27872 -0.00030899  0.0247257 -0.270524 -0.000353098  0.0243764 -0.278165 -0.000305533  0.032172 -0.27103 -0.000416517  0.0244074 -0.278218 -0.000265241  0.0315266 -0.286349 -0.00026083  0.0240405 -0.285853 -0.000221848  0.0311575 -0.293981 -0.000218749  0.0240083 -0.285804 -0.000257969  0.0236309 -0.293449 -0.00022018  0.0314858 -0.286304 -0.000304341  0.0236604 -0.293487 -0.000188947  0.0307722 -0.30161 -0.000181317  0.0232699 -0.301119 -0.000154495  0.0303786 -0.309236 -0.000141859  0.0232422 -0.301086 -0.000182033  0.0228438 -0.308724 -0.00014627  0.0307429 -0.301578 -0.0002141  0.0228684 -0.308751 -0.000124454  0.0299773 -0.31685 -0.000112414  0.0224562 -0.316369 -9.77516e-05  0.0295608 -0.324465 -8.15392e-05  0.0224316 -0.316353 -0.000114799  0.0220187 -0.323975 -9.05991e-05  0.0299461 -0.316832 -0.000133872  0.0220401 -0.323986 -7.36713e-05  0.0291395 -0.33207 -5.42402e-05  0.0216136 -0.331594 -5.25713e-05  0.0287106 -0.339665 -3.55244e-05  0.0215967 -0.331585 -6.19888e-05  0.0211656 -0.339189 -3.88622e-05  0.0291131 -0.332061 -6.91414e-05  0.0211811 -0.339191 -3.29018e-05  0.0282755 -0.347247 -1.33514e-05  0.020745 -0.346777 -1.44243e-05  0.0278332 -0.354824 6.19888e-06  0.0207298 -0.346771 -2.15769e-05  0.0202899 -0.354358 -3.33786e-06  0.0282538 -0.347246 -2.18153e-05  0.020303 -0.354356 4.76837e-07  0.0273883 -0.362381 1.83582e-05  0.0198586 -0.361917 1.51396e-05  0.0269403 -0.369934 3.37362e-05  0.0198429 -0.361921 1.43051e-05  0.019398 -0.369475 2.80142e-05  0.0273716 -0.362383 1.81198e-05  0.0194111 -0.36947 2.77758e-05  0.0264885 -0.377475 4.44651e-05  0.0189607 -0.377012 4.06504e-05  0.0260334 -0.385011 5.8651e-05  0.0189435 -0.377015 4.17233e-05  0.0184984 -0.384554 5.73397e-05  0.0264728 -0.377479 4.50611e-05  0.0185137 -0.384544 5.28097e-05  0.00207929 -0.00287914 -0.0025835  0.00161214 -0.00163132 -0.00225186  0.00513183 -0.00438762 -0.00427699  0.00204305 -0.0013358 -0.00333965  0.00470895 -0.00256795 -0.0048672  0 0 0  0 0 0  0.00216664 -0.00261378 -0.00369751  0 0 0  0.003815 -0.00312173 -0.00381303  0.00759742 -0.00566679 -0.00535703  0.0061502 -0.00460178 -0.00474894  0.0100212 -0.00733417 -0.00604844  0.00679521 -0.00388461 -0.00561297  0.00877941 -0.00547642 -0.00623226  0.00837581 -0.00491315 -0.00635958  0.00831947 -0.00628346 -0.00533438  0.012356 -0.00920612 -0.00641072  0.0104344 -0.00818849 -0.00562823  0.0146363 -0.0114034 -0.00659573  0.0107139 -0.00734663 -0.00647628  0.0126005 -0.00954103 -0.00663137  0.0127296 -0.00831294 -0.00740731  0.0124455 -0.0104155 -0.00578034  0.0168537 -0.0139169 -0.00662673  0.0143902 -0.0129372 -0.00580823  0.0190026 -0.0167248 -0.0065819  0.0144572 -0.0120595 -0.00663614  0.016274 -0.0148914 -0.00658405  0.016948 -0.0130081 -0.00759661  0.0162674 -0.0157635 -0.00576735  0.0210857 -0.0198278 -0.00646472  0.0180795 -0.0188764 -0.00566602  0.0230916 -0.0232119 -0.00631523  0.0180416 -0.0180185 -0.00646532  0.0197631 -0.0214333 -0.0063194  0.0210516 -0.0189564 -0.00739336  0.0198277 -0.0222734 -0.00553715  0.0250232 -0.0268583 -0.00613463  0.0215074 -0.0259284 -0.00537837  0.0268716 -0.0307597 -0.00594127  0.021421 -0.0251106 -0.00613678  0.0230234 -0.0290527 -0.00594854  0.0249349 -0.0260345 -0.00701034  0.023118 -0.0298404 -0.00520957  0.0286469 -0.0348942 -0.00573373  0.0246589 -0.0339907 -0.00502861  0.0303305 -0.0392659 -0.00552726  0.0245492 -0.0332264 -0.00574541  0.026018 -0.037638 -0.00554073  0.028535 -0.0341295 -0.00655508  0.0261253 -0.0383729 -0.00484979  0.0319391 -0.0438471 -0.00531554  0.0275189 -0.0429694 -0.00466347  0.0334603 -0.0486451 -0.00510621  0.0274048 -0.0422599 -0.00533044  0.0287302 -0.0470978 -0.00512362  0.0318234 -0.0431399 -0.00607681  0.0288416 -0.0477768 -0.00448251  0.0349025 -0.0536274 -0.00489688  0.0300895 -0.0527762 -0.00429571  0.0362602 -0.0588114 -0.00469148  0.0299729 -0.0521203 -0.00491631  0.0311538 -0.0573418 -0.00470984  0.0347841 -0.0529755 -0.00559938  0.0312631 -0.0579674 -0.0041182  0.0375425 -0.0641642 -0.00448728  0.0323668 -0.0633335 -0.0039382  0.0387427 -0.0696939 -0.00429189  0.0322546 -0.0627315 -0.0045085  0.0332934 -0.0683 -0.00431252  0.0374284 -0.0635617 -0.00513661  0.033399 -0.0688719 -0.00376892  0.0398684 -0.0753722 -0.00409794  0.0343604 -0.0745671 -0.00359845  0.0409144 -0.0812166 -0.00391185  0.0342513 -0.0740165 -0.00411904  0.035152 -0.0798976 -0.00393009  0.0397619 -0.0748256 -0.00468874  0.0352532 -0.0804195 -0.00343382  0.0418903 -0.0871962 -0.00372636  0.0360824 -0.0864115 -0.00327015  0.0427879 -0.0933194 -0.00354791  0.0359777 -0.0859091 -0.00374532  0.0367454 -0.0920693 -0.00356483  0.041782 -0.0866972 -0.00426817  0.0368425 -0.0925438 -0.00311649  0.043617 -0.0995619 -0.00336802  0.0375394 -0.0988001 -0.00295854  0.0443745 -0.105936 -0.00319839  0.0374391 -0.0983462 -0.00338984  0.0380803 -0.104757 -0.0032177  0.0435175 -0.0991123 -0.00385582  0.0381746 -0.105182 -0.00281048  0.0450666 -0.112414 -0.00302958  0.0387465 -0.111677 -0.0026629  0.045693 -0.119012 -0.00286901  0.0386548 -0.111267 -0.00304961  0.0391722 -0.117899 -0.00288785  0.0449731 -0.112009 -0.00346994  0.0392629 -0.118282 -0.00252187  0.046257 -0.1257 -0.00270987  0.039722 -0.124981 -0.00238192  0.046759 -0.13249 -0.00255501  0.0396256 -0.124618 -0.0027287  0.0400362 -0.131438 -0.00257349  0.0461663 -0.125337 -0.00310397  0.0401247 -0.131778 -0.0022471  0.0472031 -0.13936 -0.00240541  0.0404744 -0.138663 -0.00211668  0.047586 -0.146321 -0.00226235  0.0403848 -0.138339 -0.0024277  0.0406909 -0.145326 -0.00227714  0.0471122 -0.139039 -0.0027566  0.0407734 -0.14563 -0.00199127  0.0479202 -0.153346 -0.00211883  0.0410204 -0.152671 -0.00186396  0.0481913 -0.160455 -0.00198424  0.0409365 -0.152385 -0.00213575  0.0411427 -0.15952 -0.00200117  0.0478339 -0.153063 -0.00242877  0.0412223 -0.159783 -0.00174582  0.0484211 -0.167611 -0.00184774  0.0413768 -0.166958 -0.00162697  0.048594 -0.174849 -0.00172091  0.0412958 -0.166711 -0.00186801  0.0414104 -0.173968 -0.00174022  0.0483379 -0.167368 -0.00212216  0.0414889 -0.174198 -0.0015173  0.0487225 -0.18212 -0.00159883  0.0415571 -0.181485 -0.00140774  0.0488031 -0.189454 -0.00147879  0.0414784 -0.181269 -0.00161552  0.0415123 -0.188629 -0.00149953  0.0486448 -0.18191 -0.00183511  0.0415859 -0.188825 -0.00130367  0.0488431 -0.196823 -0.00136495  0.0415733 -0.196208 -0.00120485  0.0488374 -0.204248 -0.00125384  0.0415013 -0.196023 -0.0013839  0.041456 -0.20347 -0.00127017  0.0487745 -0.196643 -0.00156713  0.0415237 -0.203636 -0.00110936  0.0488007 -0.211689 -0.00114906  0.0414405 -0.211093 -0.00101292  0.0487165 -0.219181 -0.00104654  0.0413704 -0.210941 -0.00116324  0.0412614 -0.218449 -0.00106204  0.048732 -0.211542 -0.00131977  0.0413263 -0.218588 -0.000925064  0.048604 -0.226688 -0.000950575  0.0411761 -0.226107 -0.000838518  0.0484524 -0.234226 -0.000857472  0.0411081 -0.225979 -0.000968695  0.0409374 -0.233542 -0.000873685  0.0485406 -0.226558 -0.00109208  0.0409994 -0.233654 -0.000757933  0.048275 -0.24178 -0.000766635  0.0407898 -0.241215 -0.000679851  0.0480607 -0.249354 -0.000685215  0.0407333 -0.241112 -0.000780582  0.0405021 -0.248709 -0.000699759  0.0482128 -0.241676 -0.000884891  0.0405548 -0.248798 -0.000607967  0.0478208 -0.256936 -0.000608563  0.0402946 -0.256393 -0.000538468  0.0475533 -0.264541 -0.000530005  0.0402429 -0.256313 -0.000623345  0.0399678 -0.263935 -0.000547171  0.0477667 -0.256861 -0.00070262  0.0400171 -0.264001 -0.000472784  0.0472682 -0.272142 -0.000461698  0.0397143 -0.271613 -0.00041151  0.0469506 -0.27976 -0.000393271  0.0396621 -0.271552 -0.000476837  0.039345 -0.279185 -0.000408888  0.0472178 -0.272086 -0.000530362  0.0393913 -0.279236 -0.000352144  0.046618 -0.287371 -0.000335097  0.039048 -0.286858 -0.000298023  0.0462642 -0.294991 -0.000277758  0.0390062 -0.286812 -0.000344634  0.0386493 -0.294449 -0.000290275  0.0465782 -0.287329 -0.000384688  0.0386882 -0.294482 -0.000249624  0.0458915 -0.302603 -0.000224233  0.0383122 -0.302106 -0.000205398  0.0454993 -0.310217 -0.000177145  0.0382726 -0.302072 -0.000239611  0.0378881 -0.309702 -0.000191569  0.0458541 -0.302575 -0.000262141  0.0379236 -0.309724 -0.00016284  0.0451002 -0.317822 -0.000136614  0.037519 -0.317339 -0.000125051  0.0446815 -0.325431 -9.5129e-05  0.0374901 -0.317321 -0.000147939  0.0370812 -0.324938 -0.000109553  0.045069 -0.317814 -0.000160694  0.0371089 -0.324946 -9.11951e-05  0.0442581 -0.333022 -6.31809e-05  0.0366862 -0.332547 -6.10352e-05  0.0438216 -0.340613 -3.34978e-05  0.0366571 -0.33254 -7.51019e-05  0.0362325 -0.340139 -4.36306e-05  0.0442312 -0.333021 -7.85589e-05  0.0362563 -0.34014 -3.56436e-05  0.0433774 -0.348184 -1.01328e-05  0.0358171 -0.347719 -1.27554e-05  0.0429261 -0.355754 1.18017e-05  0.0357952 -0.347718 -1.91927e-05  0.0353551 -0.355294 9.53674e-07  0.0433531 -0.348188 -1.69277e-05  0.035373 -0.35529 3.33786e-06  0.0424738 -0.363307 3.11136e-05  0.034925 -0.362849 2.32458e-05  0.0420172 -0.370857 4.72069e-05  0.0349085 -0.362851 1.91927e-05  0.0344584 -0.370405 4.01735e-05  0.0424535 -0.363315 2.59876e-05  0.0344763 -0.3704 3.75509e-05  0.0415623 -0.378399 5.76973e-05  0.0340235 -0.377939 5.11408e-05  0.0411072 -0.385942 6.44922e-05  0.0340109 -0.37794 5.29289e-05  0.0335584 -0.385488 7.15256e-05  0.0415437 -0.378402 5.38826e-05  0.0335689 -0.385476 6.48499e-05  
SCALARS smooth_stress float 1
LOOKUP_TABLE default
389.936 495.052 424.876 406.084 389.181 369.621 347.476 323.929 300.168 276.553 253.354 230.928 209.399 188.874 169.355 151.105 133.583 117.252 102.177 87.9798 74.887 63.0212 52.069 42.1608 33.7461 25.7613 19.0454 13.3176 8.90663 5.04878 2.34705 1.47156 0.383684 349.002 576.864 504.412 481.089 463.321 444.157 421.687 396.403 369.492 342.361 315.455 289.181 263.838 239.793 216.463 194.63 173.67 154.272 136.261 119.084 103.524 89.0196 75.6818 63.2733 52.7849 42.8371 33.8737 26.1555 19.1265 12.916 7.62915 3.7874 0.89051 206.647 345.572 325.449 324.248 317.934 308.666 297.05 283.25 267.54 250.812 233.964 217.237 200.729 185.026 169.778 155.152 141.351 128.131 115.848 104.111 92.9715 82.354 72.4505 63.0682 54.5238 46.4558 38.4464 31.2385 24.4664 17.9877 11.705 5.88729 1.31304 91.6193 168.883 181.372 202.472 210.042 211.178 208.341 203.021 195.91 187.238 178.199 168.659 159.259 149.666 140.315 131.008 122.04 113.206 104.739 96.3335 88.0207 80.009 72.1816 64.3218 56.792 49.2548 41.8349 34.7723 27.9572 21.0418 14.6166 7.27128 1.49939 76.7735 124.992 155.35 184.059 194.62 196.898 195.246 190.912 184.735 177.545 169.49 161.051 152.88 144.596 136.028 127.973 119.805 111.633 103.702 95.7738 88.0246 80.3846 72.6603 65.1171 57.5906 50.2601 43.0923 35.6953 28.4347 21.8744 15.2416 8.1842 1.70894 181.943 263.345 272.567 284.334 283.253 275.925 265.747 253.664 240.247 226.601 212.378 198.291 184.633 171.489 158.724 146.675 135.014 123.78 113.096 102.758 92.868 83.4836 74.1239 65.6119 57.099 49.5375 41.9092 34.4221 27.1344 20.1142 13.7683 7.55991 1.74315 320.826 463.464 440.721 432.863 418.561 400.414 379.78 357.282 333.773 310.194 286.944 263.896 241.999 220.849 200.86 181.732 163.849 146.773 131.087 116.311 102.261 89.5576 77.3639 66.483 56.3926 46.8505 38.3707 30.6815 23.3891 16.7081 10.7081 5.92712 1.41205 519.32 685.095 620.284 595.952 571.304 543.028 511.77 478.592 444.483 410.058 376.705 344.318 312.919 283.203 255.002 227.912 203.003 179.218 157.031 136.654 117.415 99.5781 83.6857 68.9166 56.2137 44.5701 33.9288 25.1266 17.7928 11.36 6.34041 3.57757 0.953203 163.962 285.395 236.89 227.078 218.656 208.301 196.501 183.786 170.656 157.455 144.422 132.094 119.963 108.366 97.4668 86.9881 77.2938 68.2107 59.4677 51.518 44.1008 37.1615 30.975 25.2753 20.2245 15.8439 11.7364 8.25593 5.59026 3.23504 1.71983 0.966945 0.362417 446.271 759.473 688.38 648.712 610.884 571.994 532.672 493.744 455.599 418.639 382.983 348.819 315.855 284.734 255.42 227.585 201.195 176.406 153.39 131.737 112.05 94.1213 77.6257 62.4246 49.3497 37.6229 27.2014 19.0937 12.1458 6.77776 3.13853 1.8125 0.724791 416.331 1219.2 1163.49 1089.7 1027.37 969.307 909.978 849.232 788.281 727.839 668.941 612.062 557.21 504.702 455.005 408.168 363.711 321.42 282.603 246.169 212.239 181.228 153.016 126.933 103.703 83.4911 64.5442 48.9816 35.1442 23.4779 13.3385 6.70704 2.59504 234.969 739.133 780.695 753.594 714.715 678.344 642.54 605.642 567.855 529.332 491.371 454.193 417.958 383.171 350.226 318.375 288.545 260.048 233.532 208.149 184.448 162.426 141.827 122.746 104.801 88.7073 73.0965 58.9537 45.9316 33.6731 22.0683 11.7068 3.67792 104.179 402.761 459.891 475.684 466.154 451.864 436.148 419.125 400.416 380.313 359.726 339.082 318.094 297.5 277.73 258.164 239.313 221.038 203.512 186.453 169.83 153.396 137.986 122.881 108.364 94.0361 79.9249 66.1092 53.2377 40.5391 28.0798 15.2039 4.36876 81.5355 263.37 343.888 382.072 386.782 381.535 372.61 361.808 349.168 334.977 319.975 304.448 288.693 273.391 257.58 242.068 226.838 211.592 196.79 182.179 167.593 153.019 138.64 124.709 110.579 96.5462 82.9272 69.3825 55.852 43.1038 30.198 17.4584 4.88579 193.087 456.279 532.109 549.715 537.235 516.485 493.313 469.464 444.509 419.035 393.66 368.521 344.075 320.295 297.352 275.089 254.016 233.49 213.876 195.022 176.948 159.533 142.548 126.464 110.928 96.0936 81.5271 67.5765 53.8794 40.6501 28.294 16.7109 5.02658 358.918 820.353 870.582 850.479 809.239 765.434 720.812 675.641 630.469 585.598 542.091 499.245 458.458 418.909 381.774 346.315 312.798 281.096 251.433 223.612 197.588 173.255 150.483 129.544 110.452 92.6545 76.6736 61.3985 47.5169 34.7159 23.0581 13.7651 4.5467 624.329 1250.12 1245.16 1184.31 1119 1054.03 988.523 921.743 854.927 789.045 724.75 662.891 603.194 546.355 492.701 441.63 393.629 348.388 305.745 266.701 229.992 196.076 165.52 137.219 111.968 89.7368 69.7187 52.2856 37.6473 25.1083 15.2584 8.53101 3.1499 272.178 805.352 733.75 693.104 658.936 623.241 585.592 546.585 507.063 467.877 429.151 392.333 356.726 322.434 290.265 259.585 230.632 203.72 177.959 154.261 132.457 111.935 93.4442 76.5615 61.1934 47.928 36.0071 25.6456 17.3039 10.5888 5.58717 2.89561 1.48078 430.47 729.227 693.183 666.153 627.635 584.795 541.185 498.908 458.378 419.837 383.235 348.511 315.415 283.864 254.446 226.55 200.018 175.179 152.109 130.749 111.122 92.9883 76.3779 61.4446 48.0277 36.6755 26.4814 18.0987 11.4961 6.34874 2.84954 1.61103 0.518697 372.687 1118.4 1198.74 1146.14 1072.15 999.201 927.244 857.734 791.089 727.202 666.251 608.206 552.725 500.108 450.09 403.209 358.504 316.454 277.401 241.096 207.169 176.557 148.146 122.101 99.0659 78.8914 60.8213 45.2439 32.1849 21.0241 11.8676 5.82411 2.05037 199.612 651.86 823.507 808.006 753.985 701.09 652.042 606.205 562.901 521.444 481.42 443.521 406.836 372.132 339.001 307.667 278.039 249.541 223.256 198.252 175.145 153.382 133.322 114.625 97.705 82.0582 67.2234 54.0389 41.8263 30.3319 19.509 10.2144 3.26524 96.2275 375.503 517.812 527.862 496.589 463 434.061 408.685 384.974 362.696 340.986 320.172 299.394 279.273 260.109 241.659 223.449 205.909 189.23 172.736 156.93 141.757 127.244 112.985 99.5154 86.1726 73.1203 60.3602 48.1786 36.6472 24.998 13.5263 3.93655 80.2242 281.44 416.614 433.085 410.704 384.789 363.041 344.671 328.021 312.255 296.757 281.89 266.78 251.828 237.318 223.017 208.645 194.941 180.83 167.326 153.506 140.298 127.319 114.372 101.437 88.5014 75.8719 63.1653 50.9744 39.0238 27.1578 15.1838 4.35208 167.192 439.032 582.938 594.067 561.547 523.433 488.755 457.631 429.053 401.831 375.384 350.588 326.457 302.944 280.62 259.307 238.486 218.989 200.079 181.818 164.602 147.947 132.026 116.978 102.744 88.1068 74.8083 61.6572 49.2822 37.0987 25.5031 14.9562 4.72157 315.637 744.984 902.446 893.934 839.525 780.771 725.208 672.89 623.74 576.506 531.42 488.484 447.768 408.383 370.856 336.016 302.699 271.198 242.272 214.437 189.033 164.777 142.37 122.063 103.527 86.2491 70.8012 56.4141 43.4032 31.6356 20.8747 12.2876 4.34603 581.909 1136.67 1268.47 1228.05 1152.96 1075.21 999.099 925.381 853.92 785.712 720.072 657.876 598.058 541.129 487.31 436.436 388.274 343.185 301.025 261.56 225.289 191.664 160.809 133.038 107.687 85.2798 66.0353 48.8417 34.961 22.9147 14.1508 8.43778 3.19715 259.201 724.701 748.626 719.301 678.933 636.404 592.979 550.212 508.108 467.428 428.175 390.9 355.128 320.814 288.628 258.053 229.158 202.084 176.593 152.894 130.923 110.447 91.9766 75.4213 59.8455 46.4476 34.9184 24.5543 16.3783 9.85308 5.09339 2.8191 1.43959 429.649 723.417 684.592 666.569 632.886 590.762 546.094 502.305 460.501 420.869 383.676 348.473 315.331 283.786 254.04 225.969 199.689 175.101 151.536 130.201 110.592 92.2944 75.6797 60.6933 47.5996 35.9651 26.0549 17.7814 11.2717 6.18845 2.82228 1.67774 0.469698 362.205 1101.19 1186.54 1155.18 1089.5 1015.29 939.48 865.581 795.239 728.801 666.205 607.233 551.262 498.272 447.98 400.828 356.087 314.596 275.077 238.776 205.086 174.205 145.847 119.853 96.9242 76.7599 58.8581 43.3964 30.6632 19.9015 11.2463 5.70887 2.04598 189.879 634.34 825.928 825.766 774.133 716.057 661.085 610.188 563.084 519.081 477.59 438.7 401.946 366.739 333.677 302.346 272.48 244.283 218.196 193.128 170.192 148.758 128.853 110.632 93.6642 78.664 64.1511 51.1949 39.5375 28.5511 18.2215 9.50091 3.11409 97.4441 378.035 537.448 552.602 516.443 474.216 437.234 406.401 379.141 354.657 331.749 310.033 289.604 269.824 250.545 232.558 214.759 197.527 181.021 165.116 149.825 135.43 121.054 107.505 94.4116 81.8954 69.4081 57.1751 45.758 34.6142 23.5012 12.487 3.57955 85.3503 303.475 449.529 463 430.32 393.18 362.268 338.228 317.921 300.503 284.297 269.061 254.09 239.856 225.391 211.91 198.4 185.039 171.418 158.808 145.53 133.024 120.724 108.28 95.9533 83.8284 71.8236 59.7464 48.014 36.5891 25.3296 14.0657 3.90941 161.63 443.908 603.874 618.182 579.397 532.39 490.122 453.888 421.877 393.158 365.858 340.49 316.369 293.446 271.239 250.231 230.165 210.707 192.197 174.506 157.678 141.615 126.558 111.58 97.4978 84.053 70.969 58.4902 46.54 35.1932 23.8942 13.7301 4.0666 303.43 724.787 903.996 909.967 856.851 792.608 730.922 674.081 621.633 572.886 526.949 483.01 441.934 402.786 365.437 330.438 297.545 266.096 236.945 209.501 183.987 160.25 138.644 118.216 99.3939 82.8211 67.718 53.721 40.9922 29.8732 19.7829 11.4885 3.99736 572.972 1104.17 1254.95 1236.98 1168.4 1088.2 1007.46 929.575 855.347 784.995 718.672 655.46 595.522 538.806 484.709 433.74 385.726 340.837 298.675 259.138 222.75 189.546 158.564 130.765 105.757 83.4321 64.3098 47.7878 33.4784 22.2884 13.2693 7.74336 3.15847 259.778 707.876 732.539 719.906 686.03 643.632 598.359 553.336 509.619 467.699 428.109 390.339 354.53 320.371 287.884 257.428 228.273 201.202 175.986 152.155 130.193 109.926 91.3668 74.4692 59.2614 45.8141 34.1433 24.3276 15.9875 9.83011 5.19525 2.81208 1.60474 429.885 723.559 681.899 665.323 633.546 592.054 547.539 503.349 461.334 421.28 384.033 348.615 315.053 283.603 253.991 225.958 199.394 174.886 151.473 130.273 110.605 92.0887 75.7172 60.6334 47.6495 35.9 25.8934 17.9381 11.424 6.34939 3.07563 1.67541 0.471561 360.291 1099.41 1181.03 1153.87 1092.89 1020.12 943.922 868.76 797.763 730.001 666.747 607.315 550.809 497.779 447.552 400.288 355.528 314.166 274.616 238.033 204.601 173.411 145.299 119.411 96.3844 76.2635 58.2695 42.9949 30.3913 19.6405 10.9934 5.69271 2.20266 187.737 630.339 825.764 829.094 779.712 721.573 665.147 612.516 564.116 519.05 477.131 437.708 400.574 365.375 332.013 300.736 270.919 242.739 216.5 191.701 168.906 147.409 127.676 109.521 92.3262 77.3382 63.1843 50.18 38.6585 27.7814 17.8212 9.24189 3.08031 97.3203 378.87 543.678 560.158 523.526 479.3 439.851 406.725 378.062 352.57 329.301 307.195 286.768 266.807 247.637 229.595 211.995 194.827 178.439 162.807 147.582 133.172 119.168 105.762 92.6467 80.1916 68.1192 55.8875 44.7362 33.5386 22.9051 12.4439 3.49965 87.2833 311.552 460.313 473.568 438.223 397.6 363.398 336.754 315.262 296.787 280.377 264.727 249.936 235.788 221.638 208.271 194.999 181.786 168.619 155.571 142.927 130.585 118.155 106.168 93.9237 82.0354 70.2511 58.5419 47.174 35.9621 24.8072 13.8102 3.79911 160.857 446.868 610.835 626.376 586.126 536.577 491.585 453.104 419.88 390.088 362.811 337.085 312.953 289.983 267.841 246.978 226.905 207.76 189.587 171.771 155.41 139.316 123.937 109.659 95.8278 82.5508 69.8266 57.4528 45.5956 33.9107 22.9061 13.0774 3.87782 301.06 720.312 904.327 914.09 862.428 796.935 733.549 675.095 621.405 571.776 525.237 481.185 439.887 400.775 363.665 328.434 295.77 264.426 235.283 207.811 182.446 158.737 136.982 116.798 98.5788 81.6825 66.6893 52.9177 40.643 29.2254 18.8545 10.9107 3.79577 570.778 1096.81 1249.87 1236.93 1172.71 1092.91 1010.86 931.414 856.353 785.433 718.467 654.683 594.346 537.562 483.728 433.047 385.074 339.863 297.757 258.669 222.156 188.44 157.786 130.203 105.264 82.6799 63.4462 47.0258 33.2057 21.9378 12.9262 7.33745 3.02092 260.407 704.862 725.593 716.919 687.247 646.135 600.662 554.841 510.487 468.174 428.186 390.208 354.017 319.896 287.692 257.118 228.192 200.848 175.759 151.998 129.818 109.601 91.1766 74.2565 59.2768 45.68 34.1507 24.22 16.1919 9.57799 5.13131 2.38233 1.40951 430.041 726.381 684.378 664.992 631.492 589.711 545.391 501.757 460.402 420.978 383.725 348.573 315.272 283.838 254.152 226.293 199.593 175.043 152.089 130.712 110.97 92.4426 75.838 60.9362 47.6634 36.0863 26.3717 17.959 11.3963 6.25458 3.11335 1.71451 0.448142 363.578 1100.98 1180.84 1151.06 1088.9 1016.66 941.37 867.186 796.847 730.188 666.884 607.722 551.399 498.374 448.287 401.128 356.262 314.607 275.331 239.428 205.668 174.182 145.779 120.265 97.5572 76.9651 58.8665 43.8366 31.1689 20.1052 11.3666 5.98681 2.05098 189.887 628.778 822.356 824.367 775.495 718.563 663.572 612.058 564.539 520.361 478.493 439.308 402.392 367.058 333.977 302.332 272.764 244.964 218.161 193.686 170.735 149.048 128.977 110.59 93.6383 78.4217 64.3163 51.4593 39.5671 28.6497 18.3358 9.50462 2.97762 94.0327 372.116 536.102 553.659 519.346 477.391 440.247 408.437 380.429 355.502 332.326 310.645 289.901 269.559 250.687 232.109 214.425 197.304 180.714 165.055 150.126 135.428 121.152 107.652 94.3095 81.4958 69.3776 57.14 45.4974 34.5508 23.2791 12.4411 3.38562 83.928 304.026 452.028 466.985 434.316 396.137 364.131 338.992 318.336 300.196 283.836 268.236 253.552 239.238 225.122 211.268 197.888 184.446 171.06 157.932 145.147 132.687 119.877 107.807 95.3827 83.2961 71.4065 59.4462 47.8787 36.5845 25.3787 14.0656 3.86392 162.772 445.007 606.343 621.4 582.434 534.592 491.237 453.783 421.268 392.221 365.16 339.536 315.284 292.313 270.372 249.319 229.117 209.958 191.571 173.96 157.096 141.235 125.507 110.735 96.7944 83.3696 70.6279 58.1216 46.1612 34.8314 23.6609 13.3919 4.02597 304.883 722.764 903.726 911.007 858.736 794.207 731.854 674.635 621.469 572.37 526.152 482.462 441.137 401.977 365.07 329.71 296.653 265.299 236.414 208.978 183.429 159.901 137.973 117.791 99.2566 82.6197 67.244 53.6141 40.8338 29.5443 19.0318 10.8409 3.82758 571.481 1103.06 1253.94 1236.54 1170.17 1090.33 1008.89 930.227 856.068 785.543 718.617 655.311 595.138 538.128 484.321 433.366 385.569 340.49 298.259 259.156 222.579 188.941 158.561 130.404 105.506 83.2272 63.6855 47.2017 33.2037 21.7348 13.0439 7.35982 2.87931 259.057 706.157 727.838 717.411 686.863 645.738 600.22 554.343 510.386 468.282 428.397 390.268 354.203 319.915 287.605 257.165 228.243 201.117 175.624 152 130.263 109.454 91.1029 74.1142 59.3145 45.7176 34.0225 24.142 15.8978 9.72765 4.95892 2.64804 1.4698 436.697 733.14 687.706 660.853 624.284 582.548 539.925 498.236 458.216 419.815 383.529 348.53 315.578 284.243 254.643 226.748 200.4 175.626 152.717 131.186 111.437 93.4505 76.7786 61.5969 48.383 36.6874 26.7385 18.2442 11.5903 6.57484 3.10249 1.59991 0.408383 380.291 1109.35 1181.54 1141.65 1075.72 1004.33 932.252 861.59 793.929 729.489 667.91 609.149 553.51 500.599 450.554 403.635 359.071 317.04 277.997 241.731 207.731 176.954 148.421 122.68 99.5525 78.8268 60.7648 45.4965 32.2318 21.1383 12.1046 6.12538 2.01226 202.377 631.879 812.865 809.021 760.341 707.699 657.528 610.388 565.863 523.627 483.048 444.237 407.875 372.908 339.581 307.924 278.143 250.095 223.449 198.594 175.39 153.785 133.468 114.672 97.6273 81.734 67.0299 54.0837 41.7545 30.1306 19.5996 10.5055 3.12018 89.834 356.094 513.01 532.679 504.546 470.223 439.613 412.414 387.49 364.286 342.048 320.56 300.014 279.62 260.057 241.381 223.116 205.651 188.866 172.585 156.789 141.758 127.089 112.787 99.0124 85.7173 72.9274 60.2609 48.1625 36.3156 24.7473 13.6249 3.82519 77.853 278.467 422.865 442.774 419.673 390.745 366.231 345.797 327.858 311.236 295.604 280.212 265.284 250.379 235.949 221.55 207.413 193.323 179.393 165.956 152.52 139.534 126.288 113.519 100.657 87.9269 75.1963 62.7583 50.464 38.4562 26.6698 14.7437 4.10039 173.648 438.374 587.803 601.588 567.92 527.348 490.299 457.389 427.477 399.568 373.337 347.999 323.921 300.77 278.506 257.189 236.863 217.221 198.532 180.782 163.217 146.849 131.221 116.041 101.339 87.3884 74.0238 61.1452 48.4771 36.8088 25.103 14.6213 4.36354 323.341 733.931 898.189 896.888 844.697 784.375 727.027 673.697 623.121 575.33 530.207 486.96 445.741 406.975 369.515 334.168 301.157 269.885 240.555 213.279 187.697 163.743 141.583 121.396 102.609 85.4793 69.8253 56.0481 42.654 31.2063 20.4166 11.8652 4.22103 584.022 1124.5 1260.87 1230.23 1158.31 1079.86 1001.97 926.651 854.865 785.569 719.702 657.017 597.022 540.369 486.475 435.343 387.396 342.203 300.279 260.913 224.295 191.007 160.147 132.656 107.329 84.6465 65.2942 48.5262 34.3341 22.8617 13.5332 7.84372 3.15632 257.505 712.986 737.505 720.232 684.372 641.8 597.16 552.371 509.176 467.955 428.404 390.628 354.665 320.613 288.148 257.536 228.614 201.494 176.286 152.49 130.444 110.084 91.7193 74.8728 59.5082 45.9388 34.2287 24.4738 16.0293 9.65036 5.13594 2.71171 1.45778 480.749 732.135 671.994 639.444 605.975 569.747 531.899 493.646 456 419.144 383.651 349.397 316.635 285.667 256.137 228.251 201.926 177.288 154.287 132.516 112.788 95.0075 78.58 63.2302 49.9946 37.9546 28.2331 19.8784 12.5222 7.03838 3.45617 1.73639 0.535634 448.197 1128.41 1161.55 1106.3 1043.19 980.985 918.033 854.619 791.868 730.337 670.616 613.426 558.047 505.66 455.93 408.889 364.309 322.324 283.302 246.797 212.75 181.851 153.336 127.011 103.865 82.9977 64.4085 48.8007 35.0223 23.0899 13.4338 6.59389 2.25141 251.761 646.718 784.821 772.179 730.892 690.313 650.64 610.915 571.16 531.84 492.895 455.197 418.745 384.049 350.55 318.803 288.715 260.124 233.379 208.489 184.517 162.396 141.795 122.356 104.63 87.9746 72.6298 58.8407 45.5368 33.5291 21.8663 11.8291 3.63628 105.083 333.48 468.651 494.878 481.772 462.514 443.207 423.116 402.63 381.547 360.108 338.769 318.009 297.581 277.376 257.799 238.869 220.662 202.965 186.052 169.071 152.964 137.479 122.083 107.532 93.3607 79.3273 66.0038 52.7617 40.0465 27.4806 15.3602 4.19722 85.2437 230.211 365.689 401.646 399.228 387.834 375.211 361.798 347.699 332.895 317.606 302.071 286.427 270.873 255.229 239.829 224.961 209.862 195.206 180.366 165.819 151.518 137.451 123.377 109.659 96.1627 82.1572 68.4873 55.2888 42.5626 29.9089 16.7311 4.53597 215.815 424.993 544.932 563.635 545.422 519.652 493.468 467.474 441.404 415.428 389.976 364.843 340.489 316.751 294.231 272.284 251.266 230.992 211.828 192.912 175.003 157.581 141.122 125.014 109.78 94.8936 80.269 66.3343 53.1281 40.2191 27.6594 15.8978 4.71969 391.082 754.983 871.175 861.498 817.711 769.538 722.187 675.398 628.858 583.24 539.242 496.309 455.538 416.432 379.181 343.753 310.167 278.98 249.4 221.622 195.869 171.532 148.874 128.287 109.266 91.5395 75.4734 60.6975 46.9394 34.2062 22.6831 13.1685 4.58048 653.799 1158.06 1244.71 1198.29 1129.54 1060.46 991.545 922.694 854.478 787.829 723.185 661.074 601.65 544.533 491.01 439.916 391.659 346.711 304.417 264.77 228.69 195.229 163.81 136.193 111.17 88.1706 68.3736 51.5045 37.37 24.8548 15.1737 8.7435 3.30494 266.984 734.218 746.704 713.954 673.647 632.453 590.898 549.047 507.774 467.643 428.735 391.507 355.627 321.419 289.242 258.602 229.897 202.592 177.016 153.41 131.305 111.185 92.5265 75.6563 60.7331 47.0464 35.0516 24.8732 16.9078 10.1423 5.46132 2.83852 1.65718 136.804 253.713 217.584 208.511 200.269 190.325 179.149 167.025 154.801 142.585 130.758 119.259 108.202 97.656 87.7386 78.222 69.3277 60.8558 53.1535 45.7542 39.0308 32.8497 27.3802 22.1633 17.6144 13.4028 9.98907 7.17166 4.7002 2.67574 1.33138 0.67096 0.256405 192.123 637.635 596.532 565.192 538.479 512.19 483.642 452.905 421.303 389.551 358.359 328.097 298.843 270.693 244.242 219.144 195.273 172.686 151.936 132.164 113.977 97.391 82.2387 68.0307 55.5311 44.3017 34.1686 25.9879 18.5804 12.2799 7.17105 3.38249 1.34974 114.061 379.198 405.253 395.922 379.532 364.193 347.519 328.937 309.047 288.414 267.675 247.358 227.563 208.476 190.257 172.944 156.551 140.732 126.166 112.742 99.5442 87.4848 76.2027 65.5366 56.0081 47.3239 39.0677 31.5968 24.7159 18.3955 12.1868 6.62124 2.47707 52.5103 194.97 231.786 249.525 249.463 245.001 238.649 230.258 220.194 209.089 197.519 185.587 173.842 162.54 151.428 140.492 130.109 119.835 110.022 100.881 91.6669 82.7133 74.219 65.9932 58.0907 50.4283 42.9323 35.8438 28.8656 22.1653 15.7567 9.44297 3.20954 32.2892 93.6531 145.315 178.718 189.481 191.974 190.685 187.005 181.594 175.06 167.755 159.911 151.822 144.047 135.991 127.972 120.231 112.439 104.69 97.0389 89.2718 81.7964 74.1799 66.8469 59.5396 52.3809 45.2109 37.6888 30.8632 24.1347 17.3588 10.6524 3.68943 77.1876 175.214 217.951 241.98 245.7 241.995 234.97 226.159 216.159 205.329 194.119 182.952 171.63 160.604 150.001 139.705 129.749 120.05 110.694 101.633 92.4743 83.9405 75.7879 67.7263 59.7587 52.2961 44.7224 36.9674 30.1231 23.3406 16.6877 10.1546 3.6615 143.857 353.79 381.758 386.504 374.919 359.031 341.548 322.647 302.904 282.661 262.627 242.856 224.037 205.867 188.243 171.851 156.079 141.134 127.14 114.078 101.537 89.8544 78.7174 68.7777 59.2553 50.6339 42.2207 34.3015 27.142 20.4291 13.9294 8.37711 3.44354 232.936 565.698 571.503 552.415 526.583 500.223 472.509 443.102 412.631 381.756 351.657 322.339 293.997 267.066 241.361 217.263 194.153 172.461 152.459 133.406 115.869 99.9787 84.9522 71.409 59.2888 48.1211 38.1822 29.6779 22.2199 15.7947 9.98318 5.77123 2.50733 148.202 519.078 482.947 456.534 433.77 411.426 387.715 362.426 336.595 310.803 285.481 261.061 237.543 214.752 193.314 173.145 154.129 136.102 119.204 103.392 88.742 75.4567 63.2317 51.6622 41.9026 32.7608 24.6817 17.8298 12.4516 7.92138 4.32111 2.42125 1.42675 108.621 201.646 389.936 141.82 164.541 332.297 231.301 388.421 206.133 120.715 151.578 115.248 96.5378 248.194 128.787 201.796 160.6 272.811 180.222 190.58 334.452 103.353 132.424 275.081 234.483 338.417 183.803 118.889 303.665 167.726 113.035 215.371 149.059 176.53 311.842 97.9406 124.986 259.136 218.69 317.039 174.025 111.564 283.696 158.535 108.092 204.322 142.535 167.812 297.992 95.2667 120.694 248.505 205.18 299.59 164.206 106.495 264.732 150.751 105.014 196.313 137.704 160.556 284.167 91.9495 116.591 237.75 192.895 281.825 154.098 100.918 249.365 142.384 100.726 187.103 131.868 152.833 268.895 87.6461 111.605 225.319 180.576 263.418 143.727 94.872 234.535 133.316 95.3691 176.372 124.772 144.062 252.107 82.5539 105.619 211.579 168.087 244.887 133.494 88.55 219.29 124.009 89.3883 164.835 116.814 134.667 234.541 76.9571 98.8766 197.027 155.738 226.593 123.44 82.1368 203.985 114.78 83.1054 152.997 108.498 124.945 217.063 71.3459 91.8483 182.475 143.718 208.642 113.643 75.8257 188.805 105.59 76.8904 141.263 100.315 115.368 199.663 65.7213 84.8572 167.953 131.893 191.235 104.148 69.5685 173.772 96.7437 70.6484 129.654 92.0872 105.898 182.705 60.124 78.0186 153.859 120.613 174.492 95.1312 63.5755 159.323 88.2238 64.5228 118.33 84.0398 96.7668 166.406 54.7703 71.2415 140.105 109.775 158.319 86.415 57.8286 145.494 79.8093 58.6647 107.444 76.4827 88.0355 150.735 49.7461 65.041 127.204 99.1515 142.926 77.9249 52.2096 131.918 72.0005 53.1073 97.1613 69.1796 79.6339 135.766 44.8066 58.8516 114.7 89.3341 128.415 70.1831 46.9057 119.185 64.5302 47.6936 87.2347 62.1448 71.6708 121.661 40.1725 53.0368 103.049 79.9996 114.591 62.692 41.9478 107.134 57.5815 42.6801 77.9154 55.5409 64.0878 108.425 35.8368 47.3985 91.8468 71.2484 101.723 55.7659 37.3532 95.84 50.8473 37.9829 69.2444 49.3525 56.865 95.5997 31.5376 42.0537 81.1705 62.7521 89.3866 49.0024 32.8005 84.9325 44.5858 33.3827 60.8431 43.457 50.3783 83.8695 27.8003 37.4696 71.7298 54.9961 77.9624 42.8388 28.6088 74.9093 38.8156 29.2095 53.2204 38.1059 44.163 72.9678 24.1538 32.6948 62.4888 47.6939 67.2698 36.9435 24.8031 65.564 33.3516 25.2558 45.9699 32.9491 38.3475 62.724 20.8355 28.5011 53.9853 40.8522 57.4375 31.523 21.1744 56.6822 28.3045 21.6791 39.2863 28.2978 33.0202 53.2079 17.7283 24.6942 46.288 34.5745 48.3806 26.6074 17.8724 48.6184 23.8572 18.2848 33.1883 23.9638 28.1942 44.7364 14.9198 21.1549 39.1687 29.1329 40.2646 22.2837 14.913 41.3556 19.6881 15.2002 27.6314 20.0406 23.7304 36.8688 12.2718 17.8303 32.5343 23.8677 32.7616 18.0739 12.1658 34.4926 15.815 12.3402 22.3872 16.2917 19.5368 29.8205 10.0846 14.774 26.8862 19.0798 26.0368 14.2004 9.68897 28.3648 12.54 10.0541 18.1101 13.3404 16.1333 23.6921 8.0334 12.3189 21.6974 15.115 20.3823 11.211 7.60264 23.0825 9.50374 7.86577 14.1335 10.4882 12.8055 17.8956 6.14493 9.78686 17.0115 11.2842 14.8302 7.99903 5.48288 18.2251 7.0155 5.76942 10.5317 7.98676 10.0167 13.276 4.57462 7.65383 13.0044 8.31354 10.7875 5.8849 3.93911 13.9115 4.77822 4.04312 7.5082 5.89433 7.56809 9.27444 3.27858 5.8089 9.38947 5.66963 7.05422 3.72293 2.53078 10.417 3.1467 2.64501 5.06914 3.99807 5.30652 6.26161 2.21158 4.09908 6.27994 3.70215 4.24395 2.19794 1.6259 7.41211 1.7545 1.76185 3.09394 2.49839 3.29716 3.28692 1.20758 2.64111 3.71206 1.95785 2.02996 1.04547 0.747254 4.45088 0.76274 0.795894 1.51602 1.26243 1.8035 1.55115 0.538483 1.37705 1.77723 0.797882 0.912894 0.376777 0.29254 2.34302 0.51505 0.321879 0.651573 0.572822 0.957176 1.14968 0.37145 0.761441 0.630227 0.721717 0.615878 0.470177 0.448532 1.34894 0.254614 0.383684 0.383684 0.12907 69.2125 124.123 240.381 88.1819 101.128 203.466 128.914 239.135 67.8189 59.174 144.991 74.014 173.87 112.143 118.618 232.101 70.5941 81.115 181.342 165.142 244.527 194.45 155.096 104.346 118.605 222.929 69.4328 83.2574 177.441 158.281 229.856 193.942 147.311 101.258 115.406 213.568 68.025 82.6428 172.42 147.889 215.948 183.549 141.393 98.2245 111.562 204.923 66.1046 80.8101 166.576 139.166 203.91 173.679 135.715 94.8027 107.222 195.698 63.6603 78.1914 159.723 131.047 192.113 164.371 129.29 90.748 102.405 185.311 60.6886 75.0809 151.916 122.892 179.893 155.192 122.021 85.9475 96.848 173.969 57.1612 71.2918 143.176 114.734 167.709 145.697 114.225 80.617 90.9011 162.117 53.3646 67.0085 133.868 106.516 155.322 136.176 106.102 75.029 84.8095 150.198 49.5458 62.6538 124.656 98.3592 143.259 126.533 98.0702 69.4825 78.7074 138.51 45.7646 58.1638 115.428 90.5235 131.592 117.227 90.2496 64.0813 72.8286 127.123 42.0411 53.9277 106.452 82.98 120.329 107.972 82.5433 58.6917 66.9286 116.114 38.4887 49.6323 97.7197 75.5413 109.435 99.2584 75.3352 53.7373 61.4824 105.572 35.0777 45.692 89.4828 68.5853 99.2027 90.7471 68.283 48.7258 55.9745 95.4666 31.7026 41.6502 81.4196 61.9582 89.4638 82.7613 61.7434 44.1827 51.083 86.052 28.626 38.045 73.9238 55.8293 80.2269 75.1454 55.3094 39.7696 46.2732 76.9192 25.659 34.5346 66.7693 49.7652 71.3821 67.9074 49.3397 35.632 41.7155 68.7614 23.0165 31.1713 60.1398 44.2477 63.3723 61.0981 44.0289 31.8366 37.4798 60.6858 20.2691 28.0981 53.6021 39.0938 55.815 54.7144 38.6004 28.0938 33.5698 53.4398 17.9819 25.3002 47.8023 34.2384 48.6616 48.5957 33.8602 24.8449 29.6925 46.7256 15.8085 22.4394 42.1997 29.7439 42.2516 42.8604 29.4899 21.5768 26.0456 40.3615 13.6072 19.6922 36.861 25.7303 36.2658 37.7402 25.3335 18.6828 22.781 34.4863 11.6981 17.2039 31.9775 21.8565 30.7634 32.8077 21.5554 15.965 19.6507 29.1514 9.9094 14.914 27.4242 18.4865 25.6733 28.2555 18.0824 13.5798 16.9227 24.6705 8.4847 12.9248 23.3851 15.3907 21.363 24.0535 15.1156 11.3529 14.1055 20.0301 6.8826 10.8131 19.2426 12.5273 17.1069 20.0229 12.1699 9.20841 11.5732 16.1001 5.54215 8.90623 15.5472 9.97205 13.595 16.452 9.65751 7.3422 9.30997 12.6074 4.35532 7.13715 12.2223 7.84548 10.1996 13.0717 7.28702 5.63795 7.13266 9.31954 3.25439 5.43127 9.02973 5.72248 7.25905 9.96506 5.23015 3.99499 5.08465 6.31857 2.17714 3.93539 5.89288 3.81788 4.54613 7.06404 3.30707 2.54003 3.06791 3.72562 1.311 2.32018 3.18037 2.24331 2.2942 4.14383 1.69318 1.24873 1.41985 1.83752 0.598556 1.05276 0.960622 1.15567 0.835651 1.88165 0.519061 0.260283 37.6998 60.5738 137.435 50.0159 48.123 106.374 70.8214 138.105 29.3541 32.5086 69.9852 38.3165 100.069 60.9904 59.8645 132.3 38.7026 38.686 100.751 97.8135 150.883 106.52 93.2975 60.8496 69.1275 139.988 42.9517 47.8189 109.358 101.278 149.239 117.348 95.1117 64.1639 72.2771 139.732 44.2969 51.7453 111.853 97.056 142.946 116.054 94.0107 64.7048 72.8889 137.067 44.3367 53.2398 111.678 92.4004 136.541 112.496 91.8262 63.899 72.0395 133.053 43.5126 53.1322 109.651 88.0805 130.155 108.748 88.7994 62.2452 70.2684 128.11 42.1846 52.1482 106.434 83.7379 123.741 104.744 85.1961 60.0423 68.0397 122.222 40.5178 50.6928 102.526 79.2027 116.903 100.32 81.0722 57.3553 65.1686 115.631 38.4054 48.6209 97.6347 74.6324 109.831 95.7364 76.4138 54.2903 62.0216 108.775 36.2245 46.3834 92.6782 69.9568 102.903 90.7112 71.7675 51.1435 58.8451 101.827 33.9429 44.0702 87.4809 65.4011 95.93 85.7859 66.8876 47.8817 55.5349 94.9919 31.7562 41.7226 82.3755 60.8149 89.0803 80.6814 62.2732 44.6444 52.1386 88.1098 29.4864 39.1743 77.0836 56.3702 82.351 75.6686 57.6413 41.6146 48.9192 81.6567 27.414 36.8193 72.0942 52.0462 76.1772 70.7223 53.3479 38.6453 45.783 75.3605 25.3782 34.5505 67.0959 48.0383 69.9157 66.029 48.9668 35.6874 42.4775 69.319 23.3995 32.13 62.3483 44.031 64.1653 61.153 45.0008 32.8921 39.4626 63.5359 21.4505 29.8024 57.6176 40.349 58.6447 56.8035 41.126 30.19 36.6062 57.9641 19.6303 27.7897 53.2571 36.7915 53.3065 52.382 37.4361 27.6104 33.7002 52.8403 17.9159 25.4975 48.78 33.4883 48.3487 48.221 33.9769 25.2086 30.8929 47.919 16.2951 23.482 44.5193 30.2182 43.576 44.0198 30.635 22.7298 28.0931 42.8264 14.662 21.4369 40.3407 26.9901 38.7852 39.9636 27.3593 20.4621 25.4653 38.3379 13.1407 19.3966 36.3336 24.1658 34.5252 36.1267 24.4001 18.3855 22.8755 34.0755 11.6621 17.4692 32.3402 21.3935 30.5227 32.3616 21.4445 16.1766 20.3221 29.8992 10.2749 15.5481 28.5839 18.767 26.4747 28.7939 18.7245 14.1748 17.8773 26.03 8.96714 13.6263 24.9141 16.2366 22.828 25.2039 16.262 12.2576 15.3532 22.1781 7.6036 11.6566 21.0514 13.8194 19.2827 21.664 13.5976 10.2975 12.8414 18.4248 6.39294 9.86707 17.5233 11.5333 15.732 18.2449 11.2285 8.55409 10.6415 14.99 5.15786 8.09999 14.1897 9.30022 12.5153 14.9069 8.95861 6.81288 8.47295 11.6913 4.0198 6.47074 10.7391 7.21707 9.4091 11.769 6.65301 5.02259 6.09526 8.56145 2.99566 4.64333 7.5055 5.24929 6.47538 8.55081 4.64448 3.49197 3.97413 5.22962 1.81551 3.08016 4.01019 3.20137 3.48768 5.43283 2.45463 1.65417 1.48875 2.31838 0.701805 1.14697 1.02804 1.45619 1.01726 2.32346 0.714485 0.352419 14.1422 28.1326 53.9195 18.973 22.1994 60.584 24.4592 66.6415 23.9074 12.0725 35.5185 10.0041 43.5352 23.8229 35.7342 59.77 15.4677 25.0276 70.2947 52.4125 86.6185 72.6527 48.4621 32.8021 52.7058 81.8362 25.0796 38.7001 86.6634 61.5272 93.6206 89.8493 57.8894 41.3692 59.2651 90.4895 29.3542 44.5102 93.0592 62.5779 94.1271 93.0584 61.7733 44.9488 61.4636 93.5919 31.0829 46.6282 94.7975 61.8268 92.889 92.5989 63.192 46.3678 61.7914 94.0389 31.6095 47.1629 94.4267 60.608 90.8936 90.9049 63.0613 46.5419 61.1587 92.9634 31.4985 46.8354 92.722 59.0979 88.4419 88.654 61.973 45.8938 59.7258 90.8301 30.8232 45.7606 90.0626 57.3196 85.5963 86.0498 60.338 44.7636 57.8864 87.8624 29.8861 44.3082 86.8334 55.2739 82.2417 82.9694 58.0651 43.2203 55.7154 84.3273 28.7464 42.6206 83.1096 52.9094 78.5897 79.6116 55.6411 41.4505 53.289 80.6719 27.4881 40.7806 79.1047 50.4847 74.9993 76.0493 53.0453 39.4551 50.6512 76.7066 26.1354 38.7443 75.2291 48.0942 71.1475 72.3876 50.4831 37.7089 48.3591 72.8918 24.8808 36.9643 71.3365 45.6065 67.4057 68.7794 47.7503 35.763 45.6862 68.8771 23.5101 34.9359 67.1929 43.1163 63.5432 65.1212 44.9497 33.6702 43.0294 64.8503 22.1683 32.9495 63.3183 40.6111 59.7837 61.3481 42.3606 31.7824 40.6094 60.7705 20.7921 30.9983 59.4148 38.0269 55.911 57.8147 39.7129 29.8892 38.1036 57.0177 19.4649 29.1002 55.3888 35.6956 52.1978 54.1405 36.93 27.7989 35.4972 53.2139 18.2197 27.1133 51.5798 33.2269 48.7253 50.456 34.5089 25.9844 32.9557 49.3389 16.8996 25.1434 47.7224 30.9118 45.1296 46.9266 31.874 24.0715 30.6059 45.6273 15.6507 23.3256 44.078 28.5255 41.4361 43.4033 29.3286 22.0644 27.9978 41.8088 14.3038 21.324 40.255 26.1926 37.8836 39.8496 26.8535 20.2716 25.5622 38.1099 13.0282 19.5205 36.412 23.7888 34.4193 36.2125 24.3185 18.3788 23.1061 34.3994 11.8469 17.6555 32.8298 21.4544 30.7579 32.779 21.8557 16.4336 20.5908 30.676 10.482 15.6388 29.0441 19.1996 27.4595 29.3504 19.4751 14.5818 18.1483 27.0691 9.16467 13.7854 25.2999 16.946 24.0119 25.8629 16.9383 12.684 15.8145 23.3709 7.99613 12.0674 21.9384 14.6361 20.5372 22.4333 14.517 10.9164 13.4692 19.8808 6.87293 10.1647 18.3805 12.4029 17.0939 19.0826 12.1888 9.149 11.0455 16.3512 5.54907 8.27118 14.6681 10.1836 13.8517 15.6909 9.82299 7.29677 8.76611 13.0443 4.50338 6.59938 11.5411 8.05147 10.7274 12.3654 7.68255 5.65932 6.54795 9.54843 3.24416 4.8948 8.04418 5.91321 7.46512 9.14782 5.39356 4.03097 4.45054 6.48132 2.25328 3.35607 4.79547 3.8293 4.08404 6.0314 3.06556 2.11412 1.84145 2.53695 0.90146 1.23759 1.29418 1.47485 1.04198 2.54963 0.797584 0.471354 30.6667 74.7792 62.6313 26.1488 63.3397 120.133 33.75 73.3681 57.321 22.4921 88.1811 26.7315 45.8993 39.3807 79.0835 78.97 24.3858 58.596 121.599 62.5654 98.6152 127.768 55.1947 46.355 87.3507 97.5201 31.9816 65.8309 130.025 71.2913 106.058 137.992 64.5969 52.8857 89.0147 103.99 35.1177 67.8785 131.054 71.6387 105.714 135.882 67.8719 54.9329 87.6332 105.161 35.9307 67.2094 128.363 70.0207 103.253 130.745 68.2654 54.938 84.9221 103.902 35.7588 65.4041 124.197 67.7393 99.9656 124.931 67.4122 53.9836 81.6805 101.541 35.0653 62.9652 119.205 65.2703 96.3266 118.976 65.7525 52.429 77.9157 98.1824 33.9348 60.0333 113.336 62.6998 92.3627 113.018 63.4746 50.3643 73.8552 94.211 32.5509 56.8753 107.28 59.9139 88.1664 106.678 60.8566 48.0913 69.7288 90.0167 31.0871 53.7296 100.977 57.1005 83.8276 100.395 57.958 45.6003 65.3652 85.4194 29.4971 50.2593 94.6437 54.0868 79.3591 94.0564 55.0551 43.2016 61.1855 80.8148 27.856 47.0336 88.4878 51.1213 74.935 88.1042 52.0779 40.6866 57.1131 76.4269 26.3076 43.8156 82.4442 48.2238 70.6985 82.1107 49.2403 38.3236 53.2217 71.8688 24.7889 40.8096 76.6802 45.3627 66.3323 76.4587 46.2579 35.8852 49.2973 67.4214 23.2301 37.8263 71.1126 42.5343 62.0079 70.8256 43.4397 33.6563 45.8116 63.241 21.7556 35.0557 65.8088 39.8281 58.1444 65.5582 40.6432 31.2897 42.1228 58.9172 20.2659 32.2914 60.6111 37.1156 53.9136 60.3965 37.8606 29.1312 38.8163 54.7341 18.8106 29.6343 55.5915 34.4075 49.9869 55.5209 35.1585 26.9785 35.5682 50.6041 17.3679 27.221 50.7211 31.8262 46.1508 50.6659 32.3159 24.7258 32.3354 46.5588 15.9525 24.6799 46.0214 29.2968 42.4415 46.2289 29.7729 22.6227 29.3237 42.6347 14.6032 22.3978 41.5811 26.8189 38.7413 41.8674 27.2299 20.6091 26.3487 38.789 13.2887 20.0521 37.2607 24.3783 34.8875 37.6472 24.6271 18.5928 23.4234 34.7611 11.8989 17.8091 33.0608 21.7796 31.2369 33.4548 22.081 16.6485 20.7165 31.0281 10.5984 15.6343 29.0938 19.5207 27.7281 29.5844 19.5918 14.7611 18.1481 27.37 9.36849 13.654 25.2745 17.1053 24.1762 25.8428 17.1567 12.8928 15.6307 23.7907 8.12434 11.8491 21.4418 14.8335 20.752 22.2267 14.7857 10.9892 13.127 20.1084 6.84128 10.0066 17.863 12.5783 17.3411 18.5609 12.2356 9.04362 10.7583 16.3815 5.5413 8.08554 14.213 10.3042 13.8956 15.1907 9.7591 7.16727 8.32842 12.8668 4.36042 6.35272 10.7838 8.07674 10.7152 11.6933 7.60424 5.43857 6.00362 9.61574 3.21886 4.43367 7.49986 6.00527 7.53892 8.55511 5.37789 3.84139 4.00319 6.31587 2.16905 3.0075 4.51595 3.75692 4.30865 5.49098 3.17986 2.15114 1.81276 2.71401 0.909609 1.32839 1.30069 1.62541 1.16961 2.55628 0.80748 0.414764 61.2819 141.65 151.276 59.6198 119.627 221.556 83.7168 157.123 102.649 47.5436 169.094 60.4758 106.4 84.6159 141.137 160.625 51.7127 104.013 206.451 115.582 174.027 219.217 105.626 85.1368 140.776 167.616 55.2038 105.12 203.972 118.996 172.884 219.334 107.769 86.4302 136.52 165.617 55.5686 103.138 197.663 114.154 165.706 208.359 106.119 84.9895 131.024 160.441 54.3829 99.5874 189.41 108.336 157.416 196.939 102.636 82.1581 124.794 153.778 52.4372 95.1537 179.824 102.385 148.858 185.631 98.2326 78.585 117.976 146.359 50.0751 90.2073 169.559 96.4874 140.247 174.224 93.3292 74.4255 110.692 138.27 47.3539 84.6354 158.704 90.7101 131.546 162.957 87.9677 70.0355 103.338 129.849 44.4892 79.0382 147.843 84.7814 122.863 151.654 82.6108 65.5913 95.9583 121.634 41.7102 73.3853 137.119 79.0359 114.48 140.48 77.2048 61.1408 88.6979 113.048 38.7205 67.7342 126.313 73.4232 106.033 129.883 71.6197 56.6137 81.6818 104.83 35.9888 62.435 116.301 67.9208 98.1742 119.237 66.4942 52.3295 74.8092 96.9127 33.1696 57.0637 106.297 62.7228 90.3603 109.215 61.358 48.2357 68.3921 89.3503 30.6021 52.1969 97.0574 57.6907 83.0998 99.617 56.5435 44.2174 62.1827 82.0291 28.0943 47.3389 88.0985 52.8528 75.9955 90.7113 51.894 40.5065 56.3656 75.1921 25.739 42.9147 79.6923 48.2849 69.5512 81.8894 47.6565 36.9142 50.8107 68.669 23.4795 38.6457 71.7281 43.9515 63.0046 73.8845 43.3919 33.5344 45.5215 62.3572 21.3057 34.6333 64.1745 39.9378 57.3001 66.1869 39.3485 30.2835 40.6931 56.4832 19.3688 31.0805 57.3495 35.9662 51.5543 58.9721 35.7118 27.3566 36.1255 50.8108 17.3425 27.456 50.7603 32.3522 46.1726 52.3326 32.0181 24.4488 31.9127 45.5655 15.5737 24.1347 44.6086 28.8828 41.2052 46.0842 28.6954 21.8504 28.0775 40.4767 13.8363 21.3704 38.9363 25.5669 36.2201 40.2033 25.2526 19.054 24.0694 35.479 12.1591 18.1871 33.6313 22.4263 31.8344 34.7366 22.3712 16.9167 21.0221 31.1542 10.6254 15.9325 28.7877 19.6358 27.5622 29.9391 19.3104 14.3512 17.5234 26.7035 9.04209 13.2022 24.2161 16.9179 23.6314 25.2245 16.72 12.414 14.8683 22.9907 7.81829 10.9929 20.0951 14.3599 19.7851 21.2536 14.1159 10.4607 12.052 19.0709 6.54193 9.03741 16.2725 11.7738 16.2041 17.1195 11.6645 8.47365 9.47529 15.3719 5.15807 7.11928 12.4999 9.55772 12.9936 13.5066 9.21962 6.56866 7.14103 11.8815 4.04502 5.34909 9.21103 7.33303 9.62388 10.1504 6.93245 4.89682 5.01428 8.32295 2.81774 3.77149 6.16791 5.10534 6.39974 7.01848 4.68432 3.26094 3.17042 5.49323 1.86193 2.31557 3.73073 3.27454 3.87298 4.41615 2.80569 1.71557 1.44096 2.40127 0.772406 0.969593 1.08858 1.56361 1.16042 2.2977 0.83354 0.442456 98.551 224.656 259.544 100.175 187.309 338.129 147.389 259.591 168.049 79.0006 278.276 107.337 179.123 137.895 209.808 259.221 83.5846 153.697 298.879 181.675 266.019 322.773 165.809 129.151 197.933 251.572 82.4236 147.082 285.921 176.608 254.598 307.102 160.772 125.752 189.194 241.313 80.3668 142.159 273.724 165.986 240.334 288.808 154.527 121.311 180.311 230.433 77.4422 136.333 260.338 156.099 226.409 271.994 147.396 115.851 170.732 218.669 73.8407 129.408 245.678 146.7 212.558 255.63 139.596 109.749 160.428 206.041 69.7704 121.699 230.002 137.19 198.458 238.955 131.142 103.087 149.702 192.649 65.3725 113.718 213.997 127.769 184.428 222.092 122.284 96.0302 138.715 179.102 60.7972 105.338 197.799 118.411 170.702 205.439 113.486 88.9664 127.798 165.565 56.2614 96.9589 181.849 109.169 157.169 189.044 104.769 82.0914 117.344 152.418 51.7671 89.1228 166.442 100.441 144.069 173.39 96.0486 75.1482 106.989 139.548 47.4449 81.2319 151.547 91.7839 131.671 157.99 87.9714 68.6339 97.1256 127.234 43.2294 73.7431 137.375 83.5729 119.631 143.33 79.9993 62.3554 87.9005 115.549 39.2878 66.6782 123.972 75.7221 108.182 129.689 72.5798 56.4635 79.038 104.446 35.4952 59.8887 111.109 68.4241 97.507 116.52 65.4106 50.7191 70.5151 93.8869 31.8618 53.3994 99.1163 61.3682 87.3419 104.099 58.7801 45.5115 62.9081 84.0206 28.5197 47.5607 87.7611 54.7748 77.7377 92.6515 52.4244 40.4112 55.3331 74.5925 25.3472 41.8445 77.0863 48.6003 68.7743 81.4049 46.5203 35.8322 48.5342 66.1705 22.5681 36.7435 67.4302 42.8544 60.4461 71.2403 41.1152 31.5055 42.0579 57.8739 19.7016 31.8679 58.2899 37.4164 52.7166 61.72 35.9623 27.366 36.0339 50.3562 17.0435 27.1422 49.6503 32.5809 45.5069 53.0093 31.0843 23.5785 30.6377 43.5724 14.8221 23.0742 42.0618 27.8454 39.0071 44.805 26.9489 20.2405 25.6607 36.9395 12.5093 19.3073 34.8498 23.752 32.9705 37.6029 22.6728 16.9192 21.0607 31.3792 10.6289 15.778 28.638 19.9273 27.581 30.7707 19.3439 14.4027 17.3435 26.109 8.90003 13.0873 23.1252 16.4295 22.5201 24.9164 15.818 11.6416 13.6178 21.2344 7.12209 10.0916 17.8675 13.4483 18.3065 19.7666 12.7907 9.23819 10.3849 16.9171 5.70966 7.71302 13.6418 10.5844 14.185 15.0263 10.2207 7.28976 7.70473 13.1705 4.44357 5.65171 9.94499 8.09701 10.6648 10.9873 7.83375 5.54011 5.4477 9.70117 3.25625 3.94857 6.63893 5.88068 7.53834 7.7751 5.50347 3.72554 3.41776 6.46215 2.1453 2.42452 4.01366 3.89282 4.8932 4.72503 3.56364 2.22465 1.6578 3.6757 1.15632 1.12812 2.21752 2.28786 2.70009 2.64135 2.05867 1.2268 0.976654 1.89598 0.565571 0.62973 0.801755 1.23688 1.02128 1.32686 0.639643 0.323472 163.962 163.962 420.77 156.368 92.126 222.828 248.137 376.143 71.8361 138.297 206.381 200.342 258.714 193.269 129.027 359.891 116.398 62.5664 177.684 248.65 360.25 195.816 227.87 174.323 120.492 337.436 110.896 59.2059 169.669 234.534 339.563 183.872 216.797 167.872 116.182 323.117 107.537 57.409 163.637 221.074 320.786 174.513 207.468 161.247 111.119 307.834 103.158 55.0191 156.194 208.233 301.831 165.217 197.044 153.282 105.143 290.845 97.81 52.1073 147.587 195.349 282.64 155.365 185.622 144.393 98.6908 272.613 91.8794 48.9139 138.279 182.162 263.135 145.17 173.523 134.873 91.9071 253.806 85.5962 45.5075 128.501 168.997 243.649 134.913 161.123 125.148 85.0596 234.735 79.2734 42.1552 118.766 156.014 224.484 124.627 148.685 115.3 78.1817 215.754 72.7772 38.6892 108.972 143.275 205.614 114.565 136.329 105.733 71.6451 197.654 66.7701 35.4501 99.76 130.936 187.828 104.745 124.726 96.6437 65.3237 180.047 60.835 32.3337 90.7465 119.227 170.538 95.4413 113.305 87.6291 59.1279 163.053 55.0434 29.2164 82.0412 107.911 153.89 86.5033 102.434 79.1495 53.3225 147.104 49.6393 26.3248 73.8825 97.2273 138.516 77.8661 92.2035 71.142 47.8275 131.861 44.473 23.5843 66.0201 87.169 123.659 69.9052 82.3152 63.4038 42.5151 117.304 39.5865 20.968 58.6952 77.5791 109.77 62.1673 73.095 56.3257 37.7072 104.092 35.1378 18.5986 51.9443 68.6349 96.8022 54.973 64.6073 49.6122 33.0729 91.2459 30.7577 16.2664 45.3052 60.0426 84.4346 48.2197 56.3251 43.2013 28.7099 79.3544 26.8246 14.1625 39.3997 52.1311 73.0545 41.8072 48.9349 37.3555 24.6934 68.4047 23.0929 12.1184 33.793 44.9312 62.5995 36.0646 42.0681 31.9824 21.0079 58.1807 19.6109 10.3078 28.5031 38.1564 52.7349 30.6973 35.3833 26.8537 17.5505 48.8574 16.5137 8.65836 23.9885 31.9471 43.8878 25.5678 29.6604 22.3166 14.4613 40.371 13.5425 6.98643 19.5392 26.3213 35.9253 21.097 24.2988 18.2889 11.7328 32.6901 11.0479 5.7361 15.7339 21.1044 28.5264 16.9331 19.3993 14.4884 9.17662 26.033 8.84198 4.49059 12.4558 16.6158 22.2217 13.2505 15.4022 11.3533 7.00196 19.8412 6.65011 3.3881 9.31343 12.7206 16.6378 10.0559 11.5171 8.34826 5.08625 14.599 4.90468 2.42293 6.56494 9.12886 11.8201 7.2605 8.2327 5.833 3.35125 10.1238 3.47946 1.69099 4.65177 6.25747 7.88168 4.77049 5.75659 3.89927 2.1108 6.60101 2.14497 0.938496 2.71384 4.0518 4.78925 3.08567 3.4631 2.29654 1.09007 3.68588 1.22288 0.521204 1.4832 2.12052 2.64423 1.45973 1.97788 1.19863 0.496953 1.69124 0.559437 0.236625 0.755975 1.03147 1.45694 0.682699 1.08218 0.730319 0.407507 1.22265 0.362417 0.21097 0.362417 0.685636 0.540637 0.577721 0.387632 0.151447 146 325.556 286.47 219.095 365.789 200.856 111.352 133.153 94.1228 81.8166 220.344 119.29 187.249 250.881 201.878 351.545 300.819 230.986 343.779 179.26 122.531 302.562 175.938 232.599 194.192 336.85 283.274 224.276 329.316 176.432 118.202 295.782 167.466 220.29 180.076 316.152 264.063 212.325 310.206 168.421 111.677 276.96 157.195 206.998 168.182 295.927 246.695 198.59 289.537 157.827 104.496 258.301 146.441 193.482 156.85 275.511 229.679 184.462 268.385 146.497 97.0176 240.098 135.759 179.871 145.853 255.629 213.247 170.573 247.876 135.31 89.8418 222.357 125.417 166.624 135.143 236.24 197.226 157.149 228.102 124.55 82.8317 205.256 115.362 153.675 124.737 217.379 181.681 144.252 209.207 114.163 76.0693 188.944 105.849 141.273 114.598 199.406 166.696 132.137 191.297 104.456 69.6479 173.311 96.6172 129.277 104.982 182.091 152.27 120.466 174.217 95.1587 63.5245 158.496 87.9112 117.892 95.7021 165.464 138.557 109.42 157.879 86.3241 57.576 144.359 79.611 106.881 86.8254 149.63 125.348 98.9371 142.355 77.9027 51.9931 130.892 71.625 96.3921 78.3471 134.809 112.902 88.9362 127.816 69.8999 46.7983 118.069 64.3128 86.7328 70.4511 120.707 101.202 79.6124 114.118 62.5527 41.7818 105.964 57.2276 77.3321 62.9511 107.311 90.1265 70.7318 100.908 55.3949 37.0564 94.5721 50.47 68.5014 55.7371 94.5823 79.5292 62.2767 88.6809 48.7706 32.5887 83.6023 44.1806 60.1895 49.135 82.8179 69.797 54.2715 77.1351 42.3284 28.4198 73.5581 38.4839 52.5614 42.8143 71.7354 60.7038 47.2356 66.5895 36.7848 24.5257 64.2681 32.9446 45.2005 37.0883 61.4422 52.2351 40.3568 56.6202 31.2771 20.8815 55.5001 28.0053 38.5819 31.8733 52.2227 44.4132 34.3116 47.82 26.5677 17.7194 47.4996 23.457 32.3555 26.9587 43.6567 37.5211 28.5264 39.6049 21.9026 14.7605 40.0748 19.2872 26.9908 22.3727 35.6539 30.9361 23.2958 31.9936 17.7885 11.8541 33.209 15.4626 21.7856 18.4435 28.5358 25.1269 18.7427 25.3597 14.1103 9.39344 27.2837 12.102 17.2367 14.9188 22.6093 20.2109 14.584 19.5219 10.8304 7.30899 21.8577 9.24161 13.3931 11.8069 16.9082 15.6302 11.0435 14.4455 8.08041 5.34296 17.1345 6.48634 9.69356 8.9653 12.1869 11.6937 7.8444 10.0836 5.58699 3.71141 13.0931 4.58325 7.10567 6.7033 8.43057 8.25808 5.31426 6.6659 3.65006 2.37927 9.48264 2.89363 4.51758 4.66183 5.27615 5.50635 3.40555 3.86108 2.05906 1.39528 6.59953 1.48834 2.58945 2.90362 2.82533 3.16246 1.7542 1.71524 1.00437 0.604565 4.15869 0.731799 1.31702 1.50189 1.33033 1.51275 0.79066 0.740819 0.391548 0.276376 2.12543 0.429428 0.521187 0.856418 0.920672 0.609715 0.554453 0.416896 0.409784 0.277054 1.02375 0.108913 0.276259 81.8762 172.296 166.197 111.922 211.731 51.6622 44.8782 120.682 63.1516 146.427 130.255 250.293 203.768 165.752 252.949 198.508 170.586 133.242 246.332 197.877 165.86 243.724 206.108 162.196 125.352 229.832 184.522 155.386 226.631 194.66 150.715 116.992 214.541 172.509 144.541 210.797 180.967 140.856 109.406 200.366 161.495 134.237 195.651 168.128 131.452 102.437 186.705 150.894 124.336 181.255 156.252 122.371 95.5591 173.477 140.807 114.96 167.621 145.022 113.627 89.0183 160.676 130.852 106.131 154.504 134.489 104.955 82.4825 147.917 121.043 97.5517 141.834 124.287 96.5216 76.2953 135.981 111.781 89.4838 129.87 114.695 88.5383 70.2065 124.387 102.496 81.7183 118.469 105.37 80.8573 64.394 113.292 93.9589 74.3588 107.65 96.409 73.4217 58.855 102.654 85.715 67.3624 97.2382 88.0008 66.3929 53.6708 92.7039 77.847 60.7408 87.5508 80.022 59.8014 48.6396 83.3938 70.4203 54.5419 78.3954 72.4298 53.6283 43.9404 74.3012 63.3866 48.5036 69.5403 65.1978 47.5772 39.4748 65.9306 56.7498 43.0229 61.5551 58.5088 42.0999 35.2163 58.0013 50.5184 37.8265 53.9198 52.0784 37.0154 31.3025 50.8462 44.572 33.108 46.8978 46.2625 32.1358 27.5999 44.1341 39.175 28.666 40.4784 40.6309 27.7564 24.2161 37.9414 34.1323 24.5556 34.5933 35.401 23.8282 21.0552 32.227 29.4814 20.7421 29.1036 30.6334 20.0176 18.1097 27.1444 25.121 17.504 24.2405 26.2428 16.6671 15.3761 22.4154 21.1859 14.3328 19.8542 22.1974 13.7752 12.8543 18.3289 17.3317 11.6931 15.8622 18.6349 10.9855 10.4648 14.4775 14.0499 9.37408 12.4836 14.9739 8.5944 8.37371 11.2782 10.8439 7.06054 9.24614 12.0393 6.453 6.34861 8.28351 7.88039 5.18817 6.54725 9.04768 4.65378 4.40785 5.54189 5.13055 3.47278 4.01846 6.22806 2.8223 2.5773 3.14563 2.61182 1.91264 2.10373 3.67014 1.442 1.12036 1.6739 0.82314 1.04092 0.713931 1.72817 0.532465 39.6838 93.1367 92.1652 60.3358 122.893 24.1902 23.0978 60.7579 31.7382 84.1587 74.9333 151.542 123.625 102.267 161.617 119.105 107.319 82.6881 160.376 126.022 109.477 162.072 131.674 106.988 79.6736 152.355 119.8 103.832 151.573 125.938 100.634 75.2975 142.798 113.161 96.2971 140.869 117.228 94.4147 71.3844 134.179 107.458 89.5186 131.24 109.553 88.8046 67.8949 126.333 102.253 83.5171 122.508 102.988 83.5621 64.566 118.641 96.8615 77.8713 114.381 96.9867 78.3966 61.2146 111.273 91.7285 72.6995 106.742 91.3958 73.3738 57.9014 103.966 86.5752 67.7017 99.3146 85.9844 68.4361 54.6632 96.9225 81.5744 62.9587 92.2102 80.8857 63.6908 51.4668 89.9462 76.2861 58.342 85.2548 75.9035 58.8423 48.1126 83.2056 71.2624 53.7804 78.7823 70.858 54.4644 44.9919 76.7576 66.5015 49.692 72.5391 66.1874 50.1661 42.0312 70.7932 61.8669 45.6926 66.4988 61.7195 46.0282 39.0009 64.7302 57.2796 41.777 60.8228 57.1473 42.0339 36.2147 59.2489 52.9228 38.1228 55.3533 52.9074 38.4042 33.3793 53.9897 48.6015 34.723 50.2703 48.6557 34.8355 30.6743 48.922 44.4629 31.3746 45.2757 44.7481 31.4538 28.0114 44.0171 40.5112 28.2433 40.6717 40.6885 28.19 25.4788 39.3887 36.5591 25.2381 36.2166 36.934 25.1178 23.0213 35.1143 32.8674 22.4682 32.1565 33.3169 22.2689 20.6006 30.9598 29.2533 19.7899 28.2452 29.7394 19.6762 18.3694 27.1973 25.8014 17.3275 24.5154 26.4946 16.9683 16.0559 23.4477 22.3303 14.9349 21.045 23.1273 14.6046 13.7441 19.9056 18.9647 12.7822 17.6642 19.8739 12.2957 11.6866 16.7239 15.6835 10.4654 14.4366 16.6584 10.077 9.4421 13.3595 12.6269 8.49232 11.3563 13.4944 7.92346 7.49075 10.4381 9.56963 6.54762 8.53143 10.6316 5.93062 5.41493 7.41923 6.62037 4.62045 5.6215 7.70644 4.08005 3.52295 4.56528 3.56676 2.84739 2.98102 4.90278 2.12582 1.51489 2.08837 1.00839 1.25229 0.88301 2.04515 0.58334 20.1595 36.5089 63.4296 27.6803 70.913 19.2855 7.52792 36.9456 11.5605 43.9509 55.953 88.2964 95.6532 63.9032 103.648 92.5705 64.7004 65.6914 101.738 101.119 71.8534 106.712 105.95 67.9151 64.8235 99.74 97.9802 68.7955 100.726 102.085 65.686 62.1591 95.301 93.7847 64.1447 94.1549 95.4284 62.7565 59.5615 91.1502 89.9516 60.1311 88.8773 89.6011 60.2357 57.2523 87.5945 86.4678 56.9297 84.4006 85.015 58.0373 55.1377 84.2068 83.0053 54.1804 80.373 80.9099 55.6133 52.919 80.667 79.3362 51.5885 76.6378 77.3004 53.2869 50.5703 77.1109 75.771 49.1816 72.9867 73.5592 50.8317 48.3421 73.4332 72.0292 46.7779 69.444 70.2176 48.3877 46.015 69.8857 68.2725 44.5485 65.7443 66.7647 45.7521 43.6037 65.9569 64.6796 41.956 61.9562 63.1544 43.2418 41.3761 62.3969 61.022 39.7029 58.514 59.7225 40.7749 39.0271 58.7366 57.3947 37.3768 55.0523 56.363 38.3481 36.6778 55.1234 53.7828 35.0667 51.4834 52.9474 35.8935 34.4004 51.6466 50.2051 32.8743 48.1619 49.6796 33.4948 32.0567 47.9726 46.6625 30.5746 44.6882 46.285 31.0921 29.8434 44.5662 43.2862 28.4379 41.3059 43.1176 28.7503 27.6435 41.1028 39.6741 26.1381 37.9571 39.7448 26.4124 25.3574 37.7148 36.2559 23.9805 34.7739 36.4142 24.1431 23.0057 34.3061 32.8633 21.919 31.5863 33.3317 21.9 20.9272 31.0007 29.7225 19.7236 28.202 30.0947 19.5982 18.6972 27.6563 26.3117 17.5235 25.053 26.9045 17.5485 16.4507 24.5115 22.8675 15.5556 21.9796 23.7386 15.2801 14.2922 21.0901 19.7217 13.4521 18.798 20.57 13.0652 12.1649 17.9267 16.4696 11.3539 15.5397 17.5102 10.8803 9.92745 14.6089 13.2397 9.27226 12.5954 14.2243 8.79508 7.8279 11.6258 10.1965 7.32229 9.70333 11.2356 6.86792 5.77647 8.62184 7.07927 5.43669 6.63939 8.42414 4.7385 3.82368 5.54808 4.1188 3.42621 3.64165 5.40111 2.58399 1.68252 2.27316 1.17923 1.31128 0.94924 2.22361 0.709336 52.1184 47.624 108.757 34.5313 80.3751 44.4296 15.5535 75.0845 23.0731 48.7243 90.3297 100.626 141.119 71.7793 114.565 136.645 70.2962 98.5223 114.322 143.429 80.2768 117.796 150.504 73.4868 94.9953 111.938 136.794 77.1442 111.439 144.373 70.9861 89.4437 106.537 128.976 71.886 104.02 134.49 67.7514 84.1513 101.249 121.577 67.1404 97.7152 125.174 64.6269 79.2374 96.3849 114.658 63.2198 92.3584 116.954 61.7405 74.8161 91.9897 108.103 59.7507 87.4015 109.634 58.9513 70.1684 87.4589 101.567 56.6114 82.8291 102.613 56.0804 65.8107 82.9321 95.1072 53.3866 78.116 96.0878 53.2802 61.5603 78.6642 88.9648 50.5964 74.021 89.7633 50.4923 57.581 74.2945 82.9748 47.6829 69.6498 83.7611 47.6374 53.4642 69.9293 77.0491 44.8728 65.6389 77.7466 44.9364 49.662 65.8694 71.5576 42.1853 61.5481 72.126 42.2658 46.0325 61.7222 66.1143 39.5101 57.6196 66.7821 39.5606 42.3672 57.6176 60.8276 36.8973 53.6682 61.6232 36.9729 39.0658 53.6977 56.0469 34.3848 50.0586 56.5619 34.3991 35.8391 49.8653 51.1757 31.9006 46.2218 52.0055 31.8874 32.5904 46.0287 46.6344 29.4549 42.5975 47.3759 29.4974 29.8093 42.4006 42.3493 27.1041 38.9786 43.0478 26.9563 26.8503 38.6752 38.0457 24.5781 35.4241 38.7798 24.5907 24.142 35.0303 34.0837 22.3041 32.057 34.7912 22.2633 21.4789 31.5958 30.2838 20.0803 28.8004 31.0113 20.0751 19.0176 28.3425 26.4952 18.1038 25.6612 27.389 17.7572 16.4323 24.7247 22.8655 15.7448 22.0257 23.7294 15.3879 14.2118 21.3715 19.3905 13.4997 18.8879 20.3564 13.2164 11.7863 18.0184 16.0733 11.4472 15.774 17.0292 11.09 9.67529 14.8255 12.811 9.3829 12.7442 13.9115 8.89521 7.46513 11.6412 9.60437 7.34364 9.5931 10.8677 6.82195 5.40345 8.46999 6.78759 5.3487 6.63022 7.72795 4.7627 3.5136 5.5409 3.96582 3.43893 3.793 5.04325 2.80506 1.72052 2.54748 1.15215 1.5087 1.15738 2.41204 0.771896 100.196 109.034 190.269 72.3009 145.316 82.4869 34.7593 142.915 50.8017 95.9381 149.553 174.596 224.604 117.763 183.065 219.697 117.747 152.987 184.127 219.907 125.756 183.447 229.65 117.326 144.438 175.639 206.348 119.809 172.503 217.989 110.93 134.939 164.586 192.953 111.402 160.269 202.656 104.029 126 154.124 180.252 103.35 148.932 188.142 97.5148 117.554 144.219 167.866 96.0403 138.519 174.601 91.2344 109.312 134.956 156.117 89.3099 129.094 161.749 85.4688 101.429 125.792 144.567 82.95 119.767 149.774 79.563 93.6536 116.911 133.405 77.0704 110.915 138.336 73.8897 86.4735 108.461 122.892 71.2282 102.591 127.189 68.512 79.2645 100.462 112.742 65.8158 94.8265 116.683 63.5029 72.5578 92.5476 102.748 60.5308 86.9751 106.865 58.3651 66.0436 85.0416 93.5309 55.4713 79.6628 97.0605 53.6241 59.9328 77.8806 84.8891 50.7662 72.877 87.9499 49.1661 54.1593 71.1433 76.3791 46.2887 66.2834 79.5753 44.7161 48.6474 64.5049 68.5026 41.9344 60.0836 71.4865 40.6135 43.5585 58.5684 61.3293 38.0066 54.3184 63.9733 36.937 38.8115 52.7765 54.3504 34.1475 48.6085 56.9142 33.15 34.3881 47.484 47.9761 30.5698 43.5415 50.2775 29.8099 30.131 42.2563 41.9794 27.1955 38.5452 44.0462 26.4515 26.1616 37.3429 36.2622 24.0124 33.9339 38.1304 23.2883 22.4833 32.7522 31.1554 21.0299 29.7566 32.7627 20.5263 19.2742 28.7112 26.4921 18.3895 25.7332 28.1391 17.7491 16.1834 24.5221 22.1773 15.6444 21.7032 23.5958 15.1119 13.4963 20.8001 18.257 13.2593 18.3427 19.5296 12.7171 10.9736 17.1066 14.636 10.8937 14.8827 15.7511 10.4027 8.59609 13.8115 11.3297 8.73765 11.6104 12.5195 8.2597 6.48544 10.5802 8.27759 6.64083 8.71431 9.25237 6.13191 4.50315 7.45783 5.42579 4.66447 5.75292 6.60406 4.11912 2.81231 4.70016 3.2741 2.88145 3.37507 3.89842 2.48685 1.5292 2.39536 1.12415 1.467 1.11393 2.10795 0.780931 171.166 195.793 291.662 129.658 234.87 145.711 63.7887 247.716 96.0105 157.357 218.654 272.581 318.588 180.41 272.258 319.544 178.642 211.861 270.887 304.366 182.663 265.532 316.583 172.514 198.529 254.289 284.903 172.284 248.663 298.564 161.408 185.768 237.511 266.14 160.347 231.282 278.967 150.739 173.445 221.669 248.259 148.862 214.66 259.444 140.655 161.423 206.499 230.475 138.073 198.867 240.792 130.767 149.551 191.611 213.19 127.636 183.728 222.458 121.259 138.034 177.261 196.415 117.789 169.263 204.976 112.045 126.851 163.238 180.182 108.322 155.429 188.255 102.978 116.263 150.012 164.655 99.2373 142.315 172.227 94.4562 105.804 137.018 149.779 90.6237 129.753 156.813 86.2303 95.9928 124.746 135.542 82.5312 117.834 142.325 78.2529 86.7914 113.037 122.115 74.5889 106.321 128.408 70.7911 77.9246 102 109.426 67.1996 95.6756 115.34 63.8575 69.5718 91.5093 97.3212 60.3131 85.556 102.976 57.0684 61.7481 81.6648 86.1606 53.711 75.9658 91.2163 50.7833 54.2925 72.479 75.4781 47.636 67.26 80.3039 44.9592 47.3942 63.7714 65.7557 41.8793 58.7724 70.0595 39.4365 41.0563 55.7362 56.509 36.491 51.2827 60.5546 34.38 35.1223 48.3222 48.1799 31.5688 44.0318 51.8866 29.7571 29.6149 41.357 40.4567 26.9417 37.429 43.8168 25.3504 24.7597 35.123 33.5835 22.7833 31.4595 36.6363 21.4755 20.2363 29.3416 27.1456 19.0036 26.0572 29.8827 17.8707 16.2534 24.1628 21.6395 15.5385 21.1518 23.9242 14.5485 12.7578 19.5825 16.8202 12.583 17.0226 18.6884 11.7715 9.70083 15.5398 12.5611 9.85431 13.1372 14.0967 9.21503 7.04533 11.8025 8.82003 7.52878 9.92814 10.3178 6.89811 4.78777 8.51669 5.89284 5.35335 6.84407 7.02613 4.91346 2.95202 5.73065 3.51068 3.64382 4.49699 4.44982 3.15399 1.71903 3.47197 2.0715 2.14236 2.62377 2.47126 1.7484 0.849724 1.74527 0.713277 1.16083 1.00509 1.47878 0.708591 133.881 348.942 188.766 230.363 343.076 65.7971 126.026 192.859 193.404 231.65 134.539 374.126 189.987 245.059 363.689 194.95 241.474 128.202 357.491 181.155 238.964 349.605 188.541 229.393 121.281 336.687 170.602 226.553 328.944 179.387 215.288 114.212 316.129 160.042 212.564 307.503 168.859 201.434 106.844 295.292 149.577 197.97 285.764 157.638 187.909 99.478 274.657 139.058 183.66 264.702 146.452 174.435 92.2082 254.329 128.63 169.615 243.93 135.548 161.123 85.0369 234.41 118.576 155.964 224.194 124.657 148.307 78.118 215.106 108.653 143.011 205.033 114.49 135.815 71.3651 196.689 99.2369 130.569 187.169 104.494 124.026 65.0246 178.99 90.1759 118.786 169.756 95.1953 112.546 58.8698 161.986 81.5146 107.496 153.173 86.1266 101.639 52.9616 146.019 73.255 96.777 137.788 77.5842 91.4047 47.5111 130.858 65.5567 86.7539 122.984 69.5125 81.6064 42.2729 116.494 58.3551 77.0784 109.046 61.7562 72.583 37.4431 103.072 51.4081 68.0987 95.9144 54.7616 63.9459 32.7701 90.2378 44.9063 59.6037 83.7956 47.8909 55.7665 28.5189 78.48 38.8424 51.8198 72.3506 41.7007 48.2093 24.4855 67.584 33.3551 44.4524 61.9001 35.6678 41.2766 20.7643 57.2652 28.1868 37.6652 52.0304 30.2295 34.8149 17.3877 47.9095 23.4898 31.4382 43.1788 25.308 29.007 14.2863 39.646 19.2574 25.9699 35.3225 20.8414 23.7928 11.4801 31.7958 15.2528 20.8006 27.848 16.7447 18.7666 8.95699 24.978 11.8392 16.2234 21.6122 12.9962 14.6673 6.73343 19.1751 8.90536 12.3911 16.16 9.85295 11.0322 4.76741 13.7781 6.2761 8.88135 11.2739 7.00434 7.79283 3.19777 9.43251 4.09448 6.13282 7.5499 4.73394 5.17223 1.93862 6.05017 2.52801 3.8119 4.45628 2.86879 3.2039 0.963053 3.15592 1.21859 2.0097 2.44598 1.42881 1.63369 0.398702 1.62652 0.626652 1.0166 1.52014 0.672309 0.991319 0.285017 0.972047 0.258129 0.857849 0.648633 0.532828 0.296723 138.532 319.118 278.556 218.341 363.747 202.063 110.324 132.762 89.1908 78.613 214.397 117.246 184.178 246.631 197.134 341.122 298.469 226.692 338.225 175.761 118.457 297.41 172.972 228.602 196.678 337.985 288.605 223.207 329.596 174.971 117.774 296.753 168.416 222.55 185.18 322.255 271.068 213.974 313.539 169.127 113.077 281.105 159.602 211.187 172.497 302.019 252.38 201.08 293.234 159.318 106.182 262.626 148.761 197.293 160.076 280.527 233.724 186.737 271.509 147.962 98.5439 243.734 137.49 182.766 147.882 258.929 215.595 172.126 249.951 136.275 90.8279 224.769 126.483 168.476 136.164 238.181 198.284 158.175 229.452 125.284 83.4413 206.746 116.113 154.868 125.067 218.465 182.008 144.889 209.882 114.562 76.4259 189.596 106.174 141.765 114.592 199.825 166.515 132.362 191.574 104.627 69.866 173.545 96.7793 129.609 104.769 182.161 151.887 120.483 174.15 95.1394 63.5122 158.383 87.9706 117.917 95.3109 165.441 137.901 109.427 157.804 86.3263 57.6491 144.047 79.6335 106.848 86.337 149.48 124.759 98.8823 142.342 77.9478 52.0545 130.363 71.6088 96.2864 77.8903 134.336 112.079 88.8239 127.541 69.862 46.6481 117.567 64.0772 86.3038 69.7913 120.233 100.379 79.4277 113.736 62.4104 41.7312 105.375 57.0369 77.0896 62.3466 106.77 89.1951 70.4305 100.636 55.2077 36.9471 93.8874 50.3396 68.1385 55.0878 94.153 78.7729 62.2251 88.5765 48.7862 32.5462 83.1453 44.1696 60.0047 48.5625 82.2278 68.7594 54.3415 76.8897 42.4551 28.314 73.2272 38.1893 52.0029 42.3256 71.2968 59.9407 46.8972 66.2067 36.4629 24.4508 63.591 32.8825 45.0094 36.5416 61.0198 51.3292 40.23 56.5611 31.2545 20.8572 54.941 27.9344 38.2696 31.1525 51.8399 43.7814 33.9951 47.4585 26.1709 17.6596 46.8076 23.2657 32.31 26.4552 42.9635 36.6872 28.1757 39.0937 21.7149 14.4325 39.4696 18.9844 26.5693 21.9066 35.1881 30.0596 23.0492 31.6091 17.5528 11.7523 32.8415 15.3407 21.5515 17.8768 28.1935 24.432 18.436 24.9933 13.9467 9.29635 26.6091 11.8376 16.9405 14.3307 21.8154 19.2933 14.2937 19.2323 10.6868 7.1097 21.3913 9.07324 13.0571 11.2903 16.6035 14.9578 10.8278 14.0688 7.83056 5.2659 16.6608 6.44892 9.59085 8.59759 11.9146 11.0908 7.67304 9.87241 5.51501 3.70316 12.4476 4.365 6.70105 6.17971 7.92845 7.90869 5.12633 6.34865 3.52556 2.37197 9.06566 2.77112 4.43443 4.43464 4.95239 5.04202 3.16169 3.74538 2.0836 1.27682 6.29027 1.48329 2.49162 2.71555 2.80134 2.89841 1.75408 1.81545 0.909472 0.707644 3.85211 0.74275 1.17464 1.29982 1.11337 1.3663 0.740305 0.933485 0.365107 0.279672 1.86811 0.460422 0.552485 0.650752 0.790051 0.415762 0.657364 0.387523 0.367897 0.227712 1.24269 0.101801 0.241643 74.1841 159.274 158.163 107.748 207.258 47.1917 40.4161 113.988 59.8397 139.542 128.33 245.801 205.488 164.192 252.177 197.029 170.743 137.288 251.585 204.942 167.492 247.371 209.739 166.815 130.577 237.767 191.614 158.643 231.588 199.998 155.715 121.016 220.923 177.552 147.366 214.74 185.264 144.633 111.91 204.668 164.183 136.384 198.408 171.097 133.843 103.447 189.082 151.97 125.645 182.831 157.687 123.559 95.689 174.254 140.554 115.607 168.191 145.484 113.924 88.4261 160.505 129.739 106.202 154.34 134.213 104.797 81.5566 147.37 119.493 97.4685 141.421 123.518 95.9859 75.1185 134.947 109.96 89.0444 129.257 113.422 87.8378 68.9363 123.224 100.785 81.2813 117.745 104.075 80.0253 63.0909 111.93 92.0568 73.7501 106.789 95.0577 72.7005 57.6026 101.513 83.7856 66.8425 96.3631 86.6938 65.5413 52.2651 91.3033 76.0348 60.1064 86.6273 78.6076 58.9245 47.3227 81.9236 68.6247 53.8383 77.3525 71.0102 52.728 42.6443 72.8976 61.3777 47.9608 68.6618 63.9389 46.6648 38.1558 64.6412 54.9764 42.547 60.6897 57.0911 41.2804 34.0545 56.9103 48.7127 37.2101 53.0389 50.8527 36.196 30.137 49.5346 42.9965 32.473 46.0151 44.8235 31.3233 26.5463 42.8134 37.6301 27.9419 39.5485 39.4279 27.006 23.1248 36.8244 32.5909 23.9778 33.7324 34.217 23.0215 19.9375 30.9454 27.9098 20.2687 28.2903 29.5831 19.2657 17.1113 25.962 23.8478 16.8669 23.2983 25.3129 15.9795 14.5255 21.2956 19.9629 13.9046 19.2051 21.3381 13.0121 12.1412 17.3009 16.2564 11.1671 15.114 17.7702 10.3057 9.74906 13.6111 13.0855 8.78947 11.7937 14.2635 8.08831 7.77033 10.3735 10.1441 6.75675 8.94323 11.3004 6.02699 5.93452 7.77832 7.28889 5.02229 6.16323 8.63076 4.17894 4.00471 5.05714 4.67544 3.20916 3.82054 5.76215 2.68033 2.34133 2.83123 2.3596 1.84411 1.93339 3.50786 1.3187 1.1275 1.44511 0.708331 1.07991 0.682503 1.72326 0.363236 37.6428 84.7978 92.3482 58.1581 121.473 23.9092 20.2134 59.4911 29.9622 81.0373 78.9156 153.25 130.948 103.559 164.402 123.325 110.148 89.0488 168.282 134.836 112.831 167.275 138.215 112.299 85.0886 160.297 126.28 107.373 156.52 131.821 105.218 78.3651 148.173 116.493 98.9485 144.108 121.056 97.2724 72.4082 136.817 108.017 90.9967 132.758 111.092 89.9819 67.4767 126.768 100.965 83.9157 122.814 102.797 83.5005 63.1566 117.804 94.5645 77.7302 113.844 95.8105 77.6298 59.2964 109.451 88.8017 71.9714 105.495 89.4898 72.0806 55.6469 101.599 83.1468 66.7229 97.6631 83.8398 66.7871 52.2396 94.256 77.902 61.7174 90.3926 78.3809 61.925 48.8843 87.1744 72.8459 57.0931 83.5595 73.2816 57.1824 45.8141 80.5007 67.9235 52.7066 76.8829 68.6184 52.6625 42.6508 74.1139 63.1183 48.4301 70.6836 63.6823 48.4331 39.8057 68.0471 58.6658 44.4333 64.8097 59.2881 44.3547 36.9175 62.2475 54.328 40.6751 58.9959 54.9425 40.4623 34.2036 56.7937 49.8429 37.0081 53.6089 50.7557 36.6411 31.3014 51.4163 45.8038 33.4734 48.5125 46.5661 33.2291 28.8859 46.442 41.82 30.2856 43.5942 42.7602 29.8137 26.2395 41.7355 38.0221 27.0885 39.0858 38.81 26.8146 23.9069 37.413 34.2771 24.3301 34.8587 35.4033 23.7665 21.5019 33.0975 30.8045 21.4471 30.6409 31.6874 20.9948 19.2856 29.1954 27.3283 18.9154 26.9276 28.3594 18.3711 17.1383 25.4064 24.1379 16.4813 23.2335 25.1243 15.9638 15.0981 22.1006 20.8715 14.3163 20.1881 21.9238 13.6508 12.9484 18.8206 17.7584 12.1312 16.8241 18.9095 11.4761 10.7718 15.3946 14.6022 10.0179 13.6617 15.7775 9.34299 8.79129 12.5316 11.592 8.07024 10.8299 12.994 7.45686 6.85784 9.69689 8.79933 6.32273 8.10071 10.0973 5.51618 5.02174 6.85657 6.03661 4.36272 5.2562 7.29418 3.61733 3.12551 4.13191 3.27423 2.64481 2.71374 4.57055 1.90269 1.34855 1.82872 0.898938 1.1116 0.892907 1.7877 0.571494 23.9322 40.2991 71.9851 31.0235 76.4258 20.2055 7.80663 40.8534 13.9689 48.5058 64.2805 99.6873 107.803 69.0908 111.558 100.786 72.3913 73.8016 113.465 111.467 77.1668 113.947 114.536 74.8242 70.3817 108.094 104.097 72.8153 105.58 108.498 69.9392 64.5591 99.2788 95.8676 66.3182 96.3292 98.7435 64.4511 59.6092 91.7423 89.1602 60.66 88.7175 90.2823 59.9476 55.8753 85.8104 83.8086 56.1877 82.9785 83.7319 56.3738 52.6424 80.936 79.112 52.837 78.043 78.7005 53.2551 50.0675 76.7446 75.1997 49.8223 73.8252 74.2435 50.58 47.6125 72.8303 71.3124 47.2107 69.9093 70.5096 47.9289 45.2899 69.1114 67.6707 44.7583 66.1972 66.8922 45.4264 43.0456 65.5016 64.0902 42.2982 62.4581 63.3869 42.9732 40.7892 61.95 60.5101 40.0582 59.1791 60.1101 40.5617 38.5644 58.37 57.0098 37.7443 55.4512 56.6823 38.0769 36.3387 54.8813 53.7129 35.4283 52.2943 53.3215 35.9225 34.2237 51.5733 50.1737 33.3368 48.9157 50.3565 33.5592 32.0013 48.1993 46.9504 31.202 45.6168 47.0701 31.2918 29.946 44.726 43.5177 28.9254 42.2144 43.9415 28.9681 27.8507 41.7022 40.4173 26.9648 39.2084 40.7521 26.8559 25.6629 38.2498 37.0107 24.8173 35.9078 37.7416 24.5983 23.5651 35.0589 33.8273 22.795 32.9735 34.5506 22.5008 21.59 32.0469 30.8611 20.7584 29.8557 31.5237 20.4769 19.5936 28.9037 27.6662 18.7328 26.7109 28.6227 18.2562 17.3587 25.7467 24.381 16.7762 23.8371 25.4671 16.1964 15.2987 22.7041 21.3942 14.7282 20.693 22.46 14.1767 13.3759 19.6701 18.3837 12.6935 17.6776 19.4663 12.1727 11.3513 16.6176 15.2403 10.6717 14.7406 16.4776 10.0677 9.15615 13.5818 12.3857 8.82847 11.7864 13.5917 8.1406 7.30366 10.701 9.3808 6.89805 9.05052 10.6268 6.21976 5.38626 7.91452 6.50465 5.07257 6.31453 7.68999 4.33086 3.4229 5.0497 3.61914 3.30762 3.4377 5.07773 2.37032 1.39285 2.07576 0.921539 1.33997 0.978422 2.00945 0.586033 48.4524 49.3783 109.447 36.7669 86.1579 41.306 14.2328 72.9585 23.0133 53.5891 93.3927 110.151 148.742 76.1224 122.162 140.152 77.9792 104.127 124.742 151.925 84.9507 124.674 156.338 80.0993 99.719 119.304 142.616 80.7435 115.882 149.688 74.9536 92.166 109.913 131.452 73.6966 105.959 137.704 68.9794 84.9049 101.421 121.619 67.5713 97.4843 126.365 64.0173 78.7183 94.6107 113.093 62.5441 90.8213 116.569 60.0589 73.234 88.788 105.356 58.4943 85.0467 108.158 56.4105 68.3543 83.7325 98.5177 54.8521 80.029 100.709 53.4615 63.8492 78.9807 91.7736 51.6681 75.2207 93.8857 50.2869 59.3784 74.4399 85.5724 48.5548 70.9911 87.2102 47.6534 55.3349 70.1989 79.5897 45.7621 66.6235 81.288 44.8025 51.3581 65.9986 73.9131 42.9734 62.6812 75.3881 42.2771 47.6018 62.0381 68.3055 40.3608 58.7171 69.9833 39.615 43.971 58.0592 63.0848 37.7147 54.9422 64.5583 37.1436 40.5321 54.2066 58.0234 35.2815 51.2608 59.5183 34.6207 37.1182 50.4312 53.2019 32.8141 47.5926 54.6134 32.3243 34.0801 46.8939 48.5189 30.449 44.0037 50.0397 29.8007 30.9781 43.194 44.1325 28.0483 40.5053 45.4499 27.5272 28.0565 39.6161 39.8799 25.8119 37.0603 41.299 25.1691 25.2996 36.1302 35.9352 23.4732 33.7318 37.1598 22.9227 22.7238 32.854 32.0505 21.3098 30.4673 33.5554 20.8205 20.1544 29.5377 28.2362 19.1943 27.4032 29.6299 18.6603 17.6117 26.3527 24.939 17.0739 24.0948 26.0132 16.6244 15.5322 23.168 21.3225 14.951 21.0663 22.7723 14.3395 13.1115 19.9157 18.0649 12.974 18.0709 19.2974 12.2637 10.9955 16.7821 14.8447 10.8915 14.9266 16.1113 10.2271 8.84377 13.6458 11.9785 8.90493 11.9761 13.1245 8.33226 7.09264 10.9149 9.01521 7.00186 9.20446 10.2967 6.27077 5.02739 7.88848 6.23693 4.97449 6.08221 7.39259 4.34433 3.267 5.01503 3.62824 3.15589 3.47868 4.59382 2.44839 1.50089 2.02226 1.06016 1.25195 0.915631 2.0908 0.648942 91.4238 99.6896 181.383 69.777 143.735 76.7119 30.8855 135.477 48.0644 92.5018 146.931 174.816 225.942 118.211 185.496 217.419 120.65 156.48 190.608 226.286 128.317 188.096 232.565 122.253 149.07 182.338 212.566 122.827 176.767 222.4 114.853 138.289 168.942 196.762 113.565 162.865 206.367 106.097 127.767 155.948 181.823 104.42 149.936 190.23 98.0774 118.062 144.289 168.055 96.2529 138.415 175.332 90.8894 109.081 133.66 155.282 88.8846 127.847 161.741 84.2302 100.739 123.914 143.115 82.2462 118.411 149.113 78.0514 92.8522 114.823 131.891 76.0505 109.368 137.329 72.3001 85.2391 106.073 121.025 70.1258 100.815 125.903 66.7887 78.0907 97.8393 110.688 64.5867 92.8397 115.399 61.667 71.3181 90.0717 100.941 59.427 85.2975 105.296 56.597 64.8571 82.5089 91.5435 54.4317 77.8393 95.8539 51.7695 58.6664 75.3881 82.8849 49.6683 71.1497 86.6877 47.3832 52.9861 68.7912 74.513 45.2768 64.7304 78.3215 43.1963 47.6049 62.3673 66.7539 40.9848 58.3739 70.2784 39.0523 42.4201 56.3213 59.5291 36.9263 52.6263 62.698 35.3258 37.6574 50.6755 52.6104 33.1456 47.088 55.5765 31.6484 33.1572 45.2097 46.2196 29.6301 41.9692 49.0944 28.237 29.0572 40.2261 40.3582 26.2455 37.2199 42.8784 25.1914 25.1622 35.6972 34.8355 23.3925 32.9872 37.1455 22.1324 21.5368 31.0941 29.7121 20.3554 28.5219 31.9434 19.3422 18.3756 26.8821 25.1624 17.49 24.3691 27.1437 16.689 15.4191 23.1987 21.0458 15.0953 20.9091 22.619 14.1709 12.7214 19.4862 17.2274 12.6414 17.4374 18.7292 11.9911 10.2421 16.1736 13.6508 10.4163 14.1547 15.1728 9.75229 8.00381 12.7807 10.4111 8.27417 11.1086 11.6283 7.59529 5.90047 9.81554 7.6073 6.39162 8.30689 8.80654 5.77609 4.27387 7.03347 5.02143 4.52774 5.77186 6.08286 3.83978 2.44568 4.35733 2.85573 2.94775 3.31973 3.749 2.23076 1.28515 2.15418 0.945575 1.45466 1.16161 1.89017 0.720461 162.133 182.349 278.261 125.014 228.585 140.789 59.7961 240.005 92.9406 149.207 212.501 266.484 315.619 177.852 270.617 313.116 178.24 213.646 275.08 308.996 183.793 268.691 317.106 176.511 202.622 260.931 290.758 174.866 252.923 302.105 165.712 189.243 242.685 270.749 162.758 234.557 282.469 153.772 175.803 224.893 250.874 150.488 216.57 262.133 142.208 162.66 207.881 231.721 138.833 199.617 242.237 131.344 150.044 191.904 213.403 127.893 183.79 223.212 121.122 137.966 176.781 196.001 117.646 168.888 205.031 111.389 126.565 162.398 179.573 107.958 154.922 187.887 102.33 115.693 148.764 163.882 98.8118 141.41 171.798 93.556 105.4 135.812 148.959 90.1064 128.942 156.257 85.3354 95.6156 123.516 134.803 81.8678 116.732 141.89 77.4836 86.2417 111.795 121.144 74.0598 105.473 127.822 69.8511 77.3116 100.602 108.476 66.6643 94.7517 114.703 62.8522 68.9699 90.3005 96.502 59.7862 84.5904 102.381 56.2187 61.2 80.461 85.3022 53.088 75.1082 90.6238 49.9465 53.8085 71.1253 74.6908 46.9381 66.28 79.7849 44.233 46.9197 62.6507 64.8829 41.2556 57.8703 69.6572 38.6796 40.4583 54.5637 55.7663 35.9872 50.351 60.0773 33.6387 34.7086 47.2375 47.4949 31.0657 43.27 51.3464 28.8948 29.2322 40.2059 39.6371 26.4365 36.642 43.3423 24.5877 24.2825 34.0436 32.7093 22.3586 30.7818 35.9985 20.6441 19.8171 28.3882 26.5735 18.5287 25.3672 29.375 17.1562 15.8013 23.1622 20.8163 15.0238 20.4924 23.5272 14.0051 12.3417 18.7728 16.1961 12.1744 16.3692 18.2804 11.232 9.34668 14.672 11.7102 9.54825 12.6943 14.0456 8.61146 6.50545 11.1443 8.58251 7.10922 9.28253 9.91673 6.55592 4.61108 7.94356 5.49193 5.13862 6.5593 6.83893 4.45973 2.77528 5.39133 3.50293 3.34012 4.23862 4.11746 2.9999 1.63031 3.0919 1.96689 1.9205 2.38199 2.35724 1.66102 1.04435 1.74002 0.803244 1.09119 0.897891 1.45733 0.568907 133.175 340.188 180.809 227.287 334.398 66.342 125.625 192.669 193.436 220.932 128.807 362.425 185.959 239.652 358.1 188.48 238.156 127.554 358.082 182.423 237.91 350.38 187.102 231.839 122.742 341.572 173.387 227.928 332.167 180.475 218.93 115.811 320.828 162.636 214.479 310.494 170.502 204.58 108.194 298.817 151.234 199.592 287.966 159.159 189.816 100.255 276.737 140.008 184.701 265.901 147.428 175.459 92.639 255.247 129.122 170.15 244.523 135.975 161.545 85.1618 234.544 118.528 156.168 224.219 124.952 148.267 78.1204 215.058 108.576 143.025 205.057 114.476 135.658 71.2313 196.206 99.0157 130.479 186.887 104.436 123.733 64.9402 178.679 90.0112 118.683 169.389 95.1295 112.288 58.7712 161.714 81.2442 107.352 153.076 86.0504 101.334 52.8097 145.428 73.0957 96.6137 137.409 77.3788 91.0729 47.4843 130.465 65.4385 86.4386 122.566 69.4239 81.4063 42.1816 115.994 57.902 76.8547 108.641 61.7296 72.0219 37.2233 102.42 51.1208 67.8515 95.673 54.4079 63.5307 32.5964 89.8426 44.6542 59.6283 83.5293 47.8025 55.3977 28.4525 77.9829 38.7459 51.5172 71.9685 41.4409 47.9389 24.3458 66.972 33.1094 44.2854 61.4159 35.6679 40.988 20.7084 56.9428 27.8735 37.4402 51.8312 30.2213 34.5458 17.2022 47.566 23.2257 31.3896 42.9947 25.1464 28.6497 14.1437 39.1067 19.0306 25.6642 34.7577 20.6809 23.4014 11.3723 31.3583 15.0535 20.5254 27.682 16.5259 18.552 8.79806 24.6017 11.6166 16.1207 21.383 12.8145 14.2067 6.59996 18.5644 8.73895 12.1174 15.8253 9.57908 10.6949 4.76168 13.5041 6.04225 8.91204 11.361 6.92441 7.43328 3.11272 9.04673 4.07703 5.88738 7.34552 4.565 5.06579 1.8755 5.895 2.37409 3.83067 4.60881 2.8472 3.07516 0.898662 3.15168 1.26516 2.15225 2.36764 1.56245 1.75408 0.486947 1.69334 0.659756 1.13999 1.42532 0.727004 0.925788 0.412475 1.27125 0.467543 0.714257 0.671451 0.465744 0.478006 136.771 319.325 277.408 218.677 364.36 202.739 110.341 133.57 87.9686 77.7383 213.119 116.927 183.909 247.072 195.364 337.176 296.486 225.568 336.074 174.927 116.892 296.167 171.396 226.13 196.466 335.86 288.719 222.509 328.51 174.444 116.798 296.287 167.845 221.62 186.331 323.182 273.031 214.163 314.076 169.206 113.201 281.81 160.029 212.043 174.257 304.156 254.802 201.685 294.267 159.619 106.686 263.925 149.566 198.742 161.672 282.683 235.775 187.452 272.626 148.396 99.1005 244.903 138.31 184.165 148.99 260.642 217.074 172.859 250.766 136.747 91.2594 225.713 127.069 169.417 137.04 239.547 199.27 158.616 230.132 125.474 83.8851 207.422 116.488 155.56 125.494 219.104 182.449 145.124 210.195 114.704 76.6108 190.067 106.359 142.164 114.787 200.133 166.577 132.524 191.796 104.711 69.9171 173.732 96.9623 129.66 104.658 182.27 151.768 120.725 174.373 95.345 63.6674 158.336 87.9967 117.871 95.152 165.363 137.712 109.37 157.737 86.1957 57.6631 143.977 79.5796 106.796 86.1816 149.371 124.436 98.7537 142.187 77.8433 52.0034 130.249 71.5814 96.2425 77.635 134.229 111.905 88.7879 127.468 69.8359 46.6648 117.403 64.0885 86.2875 69.6581 120.101 100.08 79.3666 113.684 62.4479 41.6765 105.237 57.025 76.9551 62.0888 106.522 88.8188 70.474 100.475 55.2706 36.8521 93.8091 50.2677 67.9349 54.9734 94.1422 78.5536 62.1446 88.5338 48.6854 32.5823 82.9778 44.0692 59.9812 48.3713 82.145 68.5685 54.2217 76.6848 42.2657 28.2319 73.1161 38.1829 51.9538 41.9885 70.8912 59.4989 46.8429 66.2024 36.5742 24.3705 63.2847 32.7393 44.7079 36.3493 60.8552 51.2434 40.1592 56.4298 31.2968 20.8118 54.7624 27.8602 38.2925 31.0839 51.4034 43.3472 33.979 47.2488 26.2298 17.4475 46.7459 23.121 31.9245 26.1369 42.8578 36.3092 28.2501 39.0723 21.7447 14.5346 39.4159 19.0332 26.4839 21.807 34.9803 29.7655 22.9922 31.5551 17.6301 11.7141 32.6634 15.1374 21.2954 17.568 27.7997 24.041 18.3123 24.9485 13.8285 9.20954 26.5111 11.9195 16.8669 14.193 21.8153 19.0785 14.3432 19.1217 10.7292 7.14269 21.1961 8.90223 12.8743 11.0754 16.205 14.6929 10.6113 13.8881 7.74776 5.15331 16.4613 6.47109 9.44 8.34955 11.7754 10.6224 7.68071 9.9273 5.51045 3.67598 12.4559 4.38344 6.58743 5.99612 7.90139 7.50129 5.20673 6.47616 3.66422 2.36449 8.91002 2.83947 4.27097 4.08837 4.97504 4.9338 3.2963 3.81694 2.14952 1.46708 6.05187 1.5336 2.52001 2.59983 2.62157 2.75627 1.68556 1.72688 1.03453 0.637553 3.763 0.641721 1.12734 1.32262 1.17006 1.41942 0.752906 0.863128 0.499018 0.246992 1.88846 0.37636 0.527483 0.870672 0.852212 0.573422 0.585259 0.358727 0.389386 0.213222 1.27051 0.0821748 0.241985 71.9438 155.769 156.564 106.926 206.404 45.9289 39.0735 112.286 59.2288 138.134 128.455 244.494 205.985 163.719 251.445 197.046 170.153 138.303 252.434 206.908 167.693 247.995 210.277 167.771 132.469 240.225 194.582 159.33 232.819 201.213 157.536 122.882 223.788 179.928 148.336 216.15 186.767 146.369 113.284 207.055 165.972 137.111 199.563 172.113 135.265 104.221 190.513 152.808 126.176 183.459 158.519 124.449 96.0068 175.266 140.773 115.993 168.746 145.803 114.334 88.3993 160.757 129.562 106.431 154.64 134.153 104.824 81.2657 147.314 119.134 97.4719 141.479 123.337 95.94 74.6066 134.571 109.286 88.9889 129.182 113.222 87.6308 68.5112 122.814 100.105 81.223 117.478 103.887 79.7448 62.5681 111.511 91.232 73.599 106.638 94.6708 72.2889 56.9628 100.808 82.8727 66.6703 96.1084 86.3736 65.197 51.7362 90.7926 75.2232 59.9931 86.346 78.2029 58.592 46.7544 81.3375 67.6219 53.7033 77.1637 70.6841 52.2369 42.0222 72.3687 60.6853 47.7669 68.4414 63.459 46.3596 37.6566 64.1009 54.1895 42.2716 60.4388 56.5723 40.9714 33.4866 56.2007 47.8003 37.0085 52.7405 50.413 35.7212 29.434 49.0373 42.1439 32.3657 45.948 44.4262 31.0188 25.8988 42.2546 36.8685 27.8765 39.3438 38.9607 26.633 22.6224 36.1577 31.8049 23.835 33.4822 34.0015 22.5707 19.4957 30.5962 27.4465 20.2192 28.1462 29.1973 18.9108 16.7754 25.3428 23.1306 16.6866 23.1441 24.9543 15.5731 13.9406 20.8897 19.4101 13.7649 18.9438 20.9564 12.8359 11.7686 16.8429 15.7626 11.0894 15.0454 17.4262 10.0102 9.45782 13.1707 12.6217 8.77545 11.5305 14.0983 7.67183 7.47669 9.98556 9.70334 6.53754 8.69911 10.9425 5.81211 5.59312 7.34025 6.90997 4.8083 5.9767 8.33608 4.00459 3.80661 4.82386 4.40028 3.22291 3.7036 5.7059 2.43526 2.28977 2.68028 2.23268 1.79659 1.89981 3.3458 1.16567 1.01589 1.54098 0.776074 1.05073 0.786103 1.51813 0.496216 37.3718 82.8479 93.4863 57.7445 121.399 23.9841 19.3612 59.076 29.6759 80.8531 81.107 154.931 134.425 104.156 165.341 124.783 111.528 91.7129 171.234 138.552 113.805 168.67 140.303 114.328 87.6256 163.713 129.51 108.422 158.067 133.838 107.367 80.2617 150.933 118.622 99.898 145.343 122.58 98.7612 73.2982 138.502 108.903 91.5572 133.512 111.907 90.8118 67.5145 127.396 100.844 84.2051 123.093 102.986 83.7998 62.7748 117.7 93.804 77.6911 113.734 95.5213 77.4933 58.4638 108.855 87.5412 71.8655 105.255 89.0612 71.6669 54.8125 100.788 81.8595 66.4906 97.35 83.1438 66.2547 51.1812 93.1576 76.2986 61.5045 89.9005 77.697 61.095 47.8348 86.0607 71.3535 56.7965 82.9943 72.487 56.4286 44.8484 79.3413 66.4625 52.2683 76.2766 67.6911 51.8044 41.5758 72.8355 61.6913 48.1082 69.9841 62.9169 47.5208 38.7423 66.8342 57.2739 43.9716 64.1362 58.3885 43.621 35.9821 61.0767 52.8401 40.2687 58.3179 54.2764 39.5611 33.1606 55.4929 48.5499 36.597 53.0577 49.9695 35.8831 30.5416 50.3046 44.6301 33.1387 47.9239 45.8622 32.4406 28.0938 45.4387 40.6554 29.891 43.1113 42.0591 29.1453 25.486 40.5239 36.7785 26.7269 38.5667 38.3259 26.0301 23.1634 36.3572 33.3558 23.9462 34.3185 34.7531 23.194 20.8494 32.1511 29.7413 21.3108 30.4144 31.1863 20.3182 18.6441 28.313 26.474 18.6703 26.6298 27.8258 17.9037 16.5366 24.8492 23.2442 16.4061 22.9023 24.7916 15.4495 14.4003 21.2052 20.1923 13.9115 19.6254 21.4292 13.3221 12.5606 18.1579 17.1325 11.9183 16.3865 18.65 11.0615 10.5026 15.0105 14.0459 9.77048 13.3692 15.4388 9.02115 8.57035 12.0522 11.3427 7.85797 10.5543 12.5843 7.06761 6.63833 9.14985 8.57262 5.97629 7.70166 9.80477 5.24606 4.86054 6.46827 5.75954 4.22678 5.14736 7.07703 3.3927 3.02569 3.96335 3.12971 2.59893 2.77348 4.48433 1.86928 1.17885 1.70006 0.772407 1.14438 0.82115 1.90609 0.543446 26.6772 43.5727 76.2318 32.0696 78.2207 21.4835 8.83536 42.6972 14.6272 50.9987 67.8637 104.722 113.144 70.725 114.066 103.469 75.9463 77.5491 118.773 116.363 78.9743 116.42 117.425 77.9814 73.2455 112.276 107.601 74.249 107.367 110.84 72.1833 66.2873 101.823 97.66 67.116 97.4477 100.083 65.672 60.1082 92.5585 89.3092 61.0012 89.1145 90.7808 60.145 55.3343 85.3668 82.8956 56.2153 82.6662 83.5798 55.8962 51.7896 79.8257 77.695 52.4701 77.4675 78.0031 52.3385 48.7747 74.9223 73.2197 49.2908 72.9389 73.4243 49.2855 46.212 70.8704 69.354 46.6024 68.9861 69.4525 46.6524 43.8814 67.0992 65.5719 44.0981 65.107 65.896 44.0185 41.5814 63.358 61.855 41.642 61.6658 62.3419 41.5381 39.3258 59.9174 58.5423 39.4702 58.2142 58.9715 39.3212 37.1208 56.3997 54.9821 37.1487 54.7467 55.6395 36.8599 35.0362 53.0604 51.73 34.9537 51.4192 52.593 34.6451 33.0038 49.7942 48.4958 32.8732 48.1237 49.4195 32.3417 30.9579 46.4927 45.3058 30.6723 44.9379 46.2763 30.2069 28.9214 43.319 41.9364 28.6241 41.6244 43.2945 27.9586 26.6721 40.1385 38.859 26.5276 38.4674 39.902 25.8273 24.7684 36.9414 35.669 24.346 35.286 36.949 23.7241 22.6697 33.9073 32.7092 22.2866 32.336 33.8656 21.8185 20.6921 30.8906 29.5868 20.3261 29.3061 30.8709 19.7333 18.7712 27.9212 26.5062 18.4172 26.1613 28.0555 17.6198 16.6921 24.8894 23.6517 16.3678 23.1684 24.9168 15.6997 14.8221 21.9158 20.5917 14.3522 20.2606 21.9947 13.5761 12.7693 18.912 17.605 12.4927 17.4361 19.0216 11.6782 10.774 15.9162 14.6104 10.585 14.4331 16.1822 9.64355 8.91531 13.1337 11.8293 8.61247 11.7228 13.1565 7.90325 6.96465 10.3421 8.9936 6.84892 8.89744 10.3722 5.98433 5.13675 7.61688 6.25513 4.97517 6.15453 7.64291 4.16611 3.34695 4.91421 3.52791 3.17592 3.53214 4.76538 2.29519 1.36882 1.92849 0.91802 1.29852 0.900035 1.98106 0.547902 47.9357 51.1758 110.642 37.6322 88.2307 40.6068 14.0996 72.7058 23.2463 56.0275 94.7922 114.211 151.888 77.518 124.711 141.347 81.2663 106.506 129.381 155.655 86.462 127.048 158.244 83.2183 101.97 123.05 145.622 81.9332 117.757 151.362 77.2001 93.6047 112.145 133.248 74.5811 106.946 138.926 70.1719 85.6515 102.239 122.196 67.8233 97.7068 126.945 64.1727 78.6855 94.1077 112.704 62.4026 90.4332 116.624 59.5071 72.8357 87.7087 104.533 58.0471 84.2186 107.858 55.5599 67.5969 82.0657 97.1287 54.3519 79.0663 100.111 52.1528 62.9123 77.2344 90.2997 51.0589 74.3616 93.05 49.1087 58.2966 72.5658 83.9475 48.057 69.8624 86.5583 46.2431 54.3003 68.3011 77.9421 45.1746 65.7456 80.483 43.4741 50.273 64.1552 72.1662 42.381 61.786 74.603 40.9653 46.5354 60.0565 66.8031 39.751 57.6311 69.0452 38.2542 42.9286 56.2474 61.5036 37.2169 54.1011 63.8438 35.9352 39.5536 52.5813 56.6147 34.8003 50.422 58.7385 33.5082 36.3251 48.9541 51.8623 32.3623 46.7885 53.8743 31.1736 33.2055 45.4018 47.2267 29.9444 43.3859 49.2732 28.8582 30.1424 41.7447 42.9251 27.5527 39.6852 44.8558 26.5562 27.3814 38.4302 38.9329 25.4038 36.3725 40.6657 24.3084 24.6488 34.8696 34.7097 23.0642 33.2384 36.5915 22.1607 22.0141 31.6721 31.0872 20.997 29.8261 32.7921 19.933 19.574 28.4833 27.5073 18.7825 26.7407 29.2029 17.9317 17.3021 25.2804 24.0037 16.6752 23.6619 25.6659 15.8489 14.909 22.2681 20.6786 14.7193 20.5907 22.2794 13.8815 12.7353 19.2812 17.5046 12.6838 17.6377 19.0867 11.916 10.6913 16.2961 14.4289 10.7073 14.7363 15.8897 9.83539 8.68839 13.2878 11.4889 8.68953 11.8367 12.8135 7.9223 6.56771 10.2501 8.57885 6.80599 8.89224 9.88746 6.05638 4.84467 7.53094 5.64002 4.93343 6.19996 7.12259 4.03706 2.89412 4.82043 3.3045 3.10549 3.41704 4.3705 2.34414 1.32023 1.93117 0.882728 1.31127 0.99443 2.00066 0.590559 88.8032 97.3103 179.093 69.226 143.51 75.0128 29.6841 133.604 47.5402 92.096 146.332 175.345 225.997 118.357 186.233 217.053 121.556 157.125 192.818 228.268 129.021 189.593 233.011 124.208 150.8 185.245 215.224 123.735 178.101 223.792 116.811 139.955 171.211 198.879 114.159 163.883 207.488 107.477 128.857 157.276 183.073 104.865 150.426 191.088 98.6905 118.609 144.654 168.434 96.4419 138.47 175.845 90.8463 109.139 133.405 155.07 88.8247 127.712 161.798 83.8953 100.525 123.316 142.755 82.0997 117.895 148.991 77.5268 92.5288 113.901 131.303 75.6265 108.796 136.774 71.6317 84.7575 104.978 120.128 69.7709 100.129 125.652 66.0165 77.6398 96.7164 109.857 64.2664 92.1384 115.038 60.7691 70.7426 88.8675 100.128 59.009 84.6083 104.841 55.8699 64.3846 81.4632 90.7673 53.9774 77.2685 95.447 51.0643 58.1195 74.2329 81.9763 49.325 70.483 86.2295 46.5711 52.4556 67.6455 73.8846 44.8024 63.9785 77.8509 42.4209 47.1557 61.3627 65.922 40.6014 57.8359 69.9631 38.3188 41.9761 55.2992 58.7668 36.6392 52.1102 62.2975 34.579 37.2057 49.6345 51.8611 32.849 46.5398 55.323 30.941 32.7813 44.4184 45.5478 29.3134 41.6577 48.6269 27.7461 28.4956 39.4388 39.6083 26.0955 36.808 42.3607 24.5131 24.716 34.7884 34.3614 22.8703 32.1507 36.8787 21.7749 21.3621 30.4851 29.1965 20.0481 28.175 31.5682 18.7789 17.9807 26.3107 24.5255 17.4124 24.3589 26.7573 16.1835 14.9931 22.4508 20.4007 14.8165 20.6117 22.4813 13.8537 12.4328 18.8919 16.6897 12.5244 17.072 18.5704 11.5121 9.99502 15.5358 13.2248 10.2373 13.9405 14.9148 9.41347 7.70775 12.6076 10.1224 8.24107 11.0738 11.6905 7.49967 5.83706 9.4609 7.41554 6.24541 7.98106 8.70736 5.45555 3.92473 6.67688 4.76178 4.34588 5.28166 6.01686 3.7061 2.55095 4.18245 2.85902 2.54476 2.93192 3.49481 2.08389 1.22843 2.02933 0.945284 1.33405 1.01415 1.83634 0.664824 159.677 178.654 274.305 123.912 227.016 139.531 58.7273 238.211 92.3453 146.901 210.256 264.192 313.264 177.1 269.855 311.408 177.286 212.995 275.138 309.417 183.644 269.091 316.295 177.251 203.637 263.019 292.836 175.56 254.238 302.799 167.388 190.725 245.118 272.893 163.496 235.731 283.679 155.312 177.034 226.615 252.369 151.093 217.318 263.252 143.215 163.432 208.932 232.581 139.241 200.109 242.769 131.844 150.483 192.279 213.89 128.095 183.926 223.533 121.266 138.222 176.763 196.108 117.672 168.879 205.205 111.363 126.568 162.248 179.42 107.899 154.755 188.023 102.177 115.656 148.362 163.553 98.7005 141.107 171.691 93.1106 105.036 135.268 148.431 89.9034 128.586 156.024 84.9794 95.3661 123.008 134.391 81.6843 116.486 141.436 76.9992 85.8553 111.251 120.801 73.9176 105.24 127.59 69.5951 77.1616 100.2 108.191 66.538 94.4182 114.534 62.478 68.8493 89.7154 96.1601 59.5377 84.3746 102.241 55.8416 60.8667 79.9797 84.9186 53.0818 74.9704 90.4332 49.5392 53.6291 70.6893 74.3633 46.8308 65.9669 79.6117 43.811 46.7802 62.091 64.4419 41.1248 57.7644 69.3914 38.2814 40.3051 54.2265 55.4241 35.8866 50.1857 59.97 33.4013 34.4073 46.7037 47.1353 30.7761 42.8147 51.1617 28.6032 29.0201 39.7934 39.3646 26.373 36.4498 43.1479 24.2362 24.1327 33.6757 32.5887 22.1758 30.4976 35.8492 20.4723 19.7574 28.0387 26.1592 18.4161 25.1603 29.4278 16.8224 15.6462 22.7186 20.6065 15.0715 20.3464 23.3012 13.5285 12.0945 18.2472 15.6662 12.0367 16.2168 18.1674 10.8208 9.10837 14.3239 11.8382 9.41417 12.4386 13.642 8.49322 6.71142 10.7426 8.14971 7.06684 9.25516 9.8688 6.14327 4.42962 7.84425 5.61861 5.09483 6.4381 6.77643 4.54022 2.91123 5.1525 3.15311 3.4141 3.97297 4.32873 2.67003 1.44729 2.90672 1.76881 1.82218 2.26598 2.15822 1.54469 1.00256 1.56405 0.746998 1.01814 0.842929 1.43099 0.537085 134.153 339.243 179.208 226.6 332.369 67.1095 126.212 193.284 193.298 217.905 126.482 357.317 183.012 238.041 356.053 186.528 235.456 125.924 355.601 181.348 237.034 349.783 185.788 231.467 122.602 342.189 173.956 228.166 332.889 180.402 219.999 116.429 322.617 163.645 215.056 311.457 171.033 205.805 108.762 300.43 152.114 200.173 288.893 159.655 190.834 100.758 277.888 140.624 185.077 266.292 147.925 176.104 92.9206 255.999 129.421 170.301 244.858 136.208 161.898 85.2861 234.942 118.679 156.328 224.466 125.028 148.401 78.1018 215.075 108.614 143.126 205.049 114.522 135.684 71.3049 196.291 99.0033 130.42 186.767 104.438 123.679 64.8948 178.37 89.8006 118.469 169.252 94.9648 111.962 58.6177 161.364 81.2783 107.134 152.756 85.8615 101.37 52.9135 145.381 73.0319 96.5188 137.162 77.498 90.956 47.3876 130.269 65.2334 86.3836 122.523 69.3617 81.2079 42.0991 115.809 57.8706 76.8583 108.672 61.6493 72.0326 37.2145 102.252 50.9789 67.7855 95.4118 54.4578 63.3455 32.5963 89.8032 44.7026 59.4794 83.3631 47.6932 55.3982 28.3637 77.9195 38.5045 51.533 72.0265 41.4666 47.693 24.2469 66.728 33 44.1719 61.3428 35.4754 40.8185 20.5741 56.5555 27.8368 37.3149 51.6675 30.0967 34.4674 17.2316 47.4351 23.1199 31.3877 42.7481 25.3087 28.5104 14.1253 38.9422 18.8365 25.6418 34.8191 20.6008 23.1969 11.2599 31.2753 15.0886 20.6784 27.6775 16.5107 18.4877 8.81172 24.4408 11.6333 15.9372 21.1674 12.8793 14.39 6.68867 18.5961 8.65449 12.1603 15.7561 9.74015 10.5413 4.73096 13.464 6.25853 8.68735 11.077 6.8844 7.68264 3.22061 9.33775 4.09361 5.98431 7.39301 4.70531 5.04754 1.92166 5.69666 2.37266 3.69211 4.36919 2.83615 3.01552 1.04877 3.39827 1.31657 2.12422 2.36605 1.44869 1.56674 0.390258 1.41031 0.652996 0.836288 1.24344 0.485897 0.814709 0.259345 1.03724 0.333487 0.696148 0.730649 0.345377 0.454019 136.582 319.544 277.513 218.485 364.715 202.247 110.218 133.645 87.9436 77.563 213.488 117.566 184.272 247.437 195.193 336.911 296.122 226.394 336.828 176.123 116.985 296.533 171.38 225.772 196.243 335.576 288.2 222.964 328.468 175.106 116.726 296.229 167.607 221.275 186.222 323.033 272.965 213.9 313.271 169.069 113.086 281.024 159.851 212.028 174.34 304.311 254.906 201.194 293.536 159.241 106.632 262.995 149.39 198.856 161.758 282.87 235.963 186.909 271.863 147.841 99.059 244.104 138.166 184.329 149.112 260.833 217.237 172.299 250.222 136.198 91.2499 225.118 127.109 169.707 137.009 239.532 199.403 158.288 229.702 125.14 83.7664 207.015 116.499 155.653 125.668 219.372 182.525 145.058 210.129 114.622 76.6722 189.981 106.374 142.199 114.786 200.217 166.799 132.465 191.656 104.682 69.9463 173.612 96.8923 129.748 104.747 182.359 151.886 120.551 174.299 95.208 63.6434 158.341 88.0471 117.998 95.191 165.274 137.719 109.398 157.719 86.3068 57.5805 144.035 79.4724 106.637 86.1677 149.278 124.366 98.8118 142.344 77.9238 51.999 130.383 71.5805 96.2024 77.7034 134.178 111.978 88.8247 127.535 69.8614 46.6093 117.512 64.0751 86.2629 69.5987 120.067 100.033 79.4563 113.901 62.4604 41.6967 105.389 57.0041 76.9689 62.0658 106.485 88.8654 70.4985 100.534 55.29 36.839 93.9046 50.2336 67.963 54.9753 93.8558 78.4659 62.0894 88.4455 48.7416 32.4346 83.1229 44.0862 59.8052 48.3231 82.1311 68.7472 54.2602 76.8977 42.3235 28.2765 72.9298 38.2136 51.9171 42.1113 71.0241 59.6386 47.0999 66.4855 36.777 24.4808 63.7794 32.7734 44.8277 36.3698 60.959 51.0524 40.2962 56.668 31.2923 20.9152 55.1322 27.9453 38.3471 30.9415 51.4479 43.2479 34.142 47.4053 26.3991 17.467 46.9933 23.0952 31.9388 26.0946 42.7379 36.2956 28.2065 39.0511 21.7215 14.4524 39.3161 19.0148 26.4073 21.6375 34.9393 29.7729 23.1186 31.7941 17.6341 11.783 32.8256 15.2498 21.4008 17.7166 27.8659 24.2445 18.3961 25.0486 13.8521 9.20624 26.8463 11.9718 16.944 14.3035 21.9015 19.0431 14.4464 19.221 10.6637 7.15266 21.5897 9.03057 12.9154 11.0181 16.2686 14.5631 10.7001 14.2076 7.84911 5.23069 16.4208 6.49485 9.41762 8.28607 11.6746 10.7789 7.87414 10.0059 5.63217 3.64178 12.6577 4.34662 6.67557 6.08916 8.04425 7.73888 5.2074 6.53968 3.55141 2.37985 9.19602 2.79831 4.43503 4.23681 4.9203 4.92575 3.2107 3.72527 1.98544 1.32817 6.36201 1.49792 2.48325 2.55988 2.66628 2.77977 1.74804 1.92932 1.00921 0.713505 3.87236 0.849735 1.28127 1.30428 1.39938 1.35233 0.938374 1.06903 0.507167 0.403898 1.98741 0.422897 0.641655 0.822368 0.800033 0.564346 0.529538 0.336984 0.335308 0.201505 1.14965 0.112834 0.258339 71.6098 155.395 156.125 107.48 206.505 45.7749 39.0448 112.782 60.4016 137.976 128.45 244.521 205.652 163.832 251.372 196.649 170.033 138.068 252.304 206.777 167.476 247.12 209.387 167.719 132.558 240.349 194.652 158.664 231.776 200.2 157.678 122.981 223.973 180.329 147.6 215.104 185.788 146.562 113.39 207.12 166.062 136.481 198.85 171.523 135.345 104.359 190.618 153.107 125.723 183.086 158.002 124.492 96.0278 175.208 140.962 115.694 168.478 145.665 114.449 88.5167 160.939 129.7 106.311 154.693 134.318 104.961 81.2794 147.29 119.245 97.4525 141.519 123.591 96.0405 74.7205 134.643 109.349 89.0703 129.309 113.547 87.6473 68.5172 122.838 100.096 81.3 117.751 104.12 79.7247 62.4517 111.383 91.2141 73.8461 106.822 95.0992 72.2273 57.0669 100.907 83.0183 66.7826 96.5201 86.6384 65.2496 51.6627 90.7757 75.1232 60.1477 86.6055 78.5479 58.5394 46.7573 81.2883 67.8048 53.8783 77.4427 71.0003 52.2884 42.0869 72.4252 60.7408 48.0218 68.866 63.9556 46.4718 37.5359 64.1003 54.0622 42.4021 60.543 57.1715 40.9491 33.4326 56.2463 47.9629 37.4043 53.2142 50.8367 35.7579 29.6304 49.0467 42.3417 32.6425 46.1089 45.006 30.9824 26.0452 42.1658 36.834 28.0262 39.5723 39.4271 26.4939 22.5766 36.0689 31.9069 23.9131 33.5899 34.3638 22.5715 19.505 30.5016 27.3406 20.3239 28.2461 29.5879 18.9127 16.6656 25.4265 23.1247 16.8961 23.5055 25.1298 15.5689 14.0405 20.8838 19.3969 14.015 19.2994 21.1859 12.7456 11.7119 16.8673 15.8566 11.1881 15.135 17.7417 10.0813 9.52008 13.2272 12.6976 8.91366 11.7496 14.3735 7.75051 7.43722 9.98922 9.78248 6.70781 8.86514 11.3151 5.87232 5.74336 7.50378 7.03361 5.10519 6.25478 8.69945 3.95301 3.85382 4.83788 4.50421 3.28196 3.85048 5.75794 2.47979 2.26824 2.74725 2.26999 1.8494 1.97779 3.45049 1.2166 1.01497 1.5217 0.71818 1.01054 0.748454 1.51099 0.504745 37.1383 82.5795 93.0182 57.7713 120.653 23.6171 19.3095 58.1498 30.1073 80.7294 81.1271 155.085 134.378 103.507 164.033 123.146 111.565 91.8284 171.287 138.667 112.858 167.217 138.485 114.347 87.7597 163.913 129.866 107.606 156.959 132.448 107.498 80.4205 151.097 119.012 99.1037 144.612 121.542 99.0387 73.5009 138.728 109.249 91.2618 133.276 111.674 90.9234 67.6585 127.498 101.142 84.0278 123.15 103.171 83.9501 62.7923 117.73 93.8339 77.8201 113.985 96.01 77.3995 58.48 108.793 87.6325 72.0574 105.674 89.4634 71.6247 54.682 100.694 81.8297 66.7062 97.79 83.8569 66.2282 51.1627 93.18 76.4434 61.822 90.5198 78.4057 61.1675 47.8262 86.0174 71.3507 57.1201 83.5146 73.3637 56.3753 44.6624 79.1039 66.3349 52.6019 76.812 68.2872 51.7439 41.5862 72.8339 61.6663 48.4121 70.6686 63.6008 47.5488 38.613 66.6586 57.0651 44.3867 64.5917 59.1002 43.3888 35.8591 60.9639 52.8253 40.5615 58.9483 54.7252 39.5408 33.1396 55.4494 48.534 36.9645 53.6696 50.5557 35.9161 30.4794 50.1537 44.4506 33.579 48.365 46.5694 32.2769 27.8973 45.2995 40.5753 30.2217 43.6837 42.6063 29.1276 25.5308 40.7472 37.0194 27.3007 39.2216 38.8988 26.0964 23.2715 36.3883 33.2928 24.3588 34.8835 35.3287 23.1129 20.8593 32.2356 29.8851 21.6548 30.781 31.8102 20.4729 18.7018 28.3877 26.4959 19.0332 26.9385 28.4165 17.8235 16.6361 24.7309 23.1999 16.5567 23.2675 25.2072 15.3391 14.3714 21.0973 20.0758 14.2099 19.8824 21.8773 13.1666 12.4597 18.0279 17.0864 12.0986 16.8089 18.919 11.0257 10.3395 14.9501 13.8596 10.0896 13.7789 15.8496 8.97971 8.39765 11.9295 11.1564 8.17036 10.8236 12.9108 7.11247 6.61286 9.31351 8.41427 6.36002 8.14881 10.1649 5.29483 4.75878 6.55869 5.79799 4.4926 5.34558 7.28456 3.48927 3.07834 4.01144 3.04226 2.73643 2.85905 4.55796 1.83051 1.25939 1.7636 0.89955 1.12288 0.747536 1.73853 0.517474 26.8264 43.6602 76.2798 30.8858 76.2087 21.3398 8.75114 40.9459 13.3375 51.0483 68.079 104.909 113.455 69.1889 111.844 101.178 76.0842 77.8336 119.13 116.907 77.5113 114.542 115.304 78.3028 73.5832 112.634 108.109 73.1226 106.264 109.343 72.5751 66.4091 102.111 98.0499 66.5361 96.8962 99.281 65.8774 60.3038 92.7544 89.5527 60.8107 89.1942 90.7108 60.31 55.4652 85.529 82.9508 56.3922 83.2615 83.9035 55.9436 51.7765 79.8026 77.7933 52.9703 78.2588 78.6914 52.3321 48.8533 75.0027 73.3457 49.8232 73.7856 74.2681 49.29 46.222 70.7127 69.2492 47.1918 69.8383 70.4433 46.4822 43.785 66.9476 65.4239 44.7198 66.0413 66.7623 43.946 41.4295 63.2987 61.8611 42.3345 62.5712 63.2058 41.5758 39.3575 59.9335 58.4452 40.0972 58.994 60.0513 39.1512 37.1169 56.377 55.0139 37.7719 55.6066 56.6358 36.8654 35.0929 53.0446 51.6904 35.5532 52.1601 53.3983 34.5276 32.9986 49.7963 48.5062 33.3114 48.8026 50.2315 32.3714 30.9302 46.5608 45.2106 31.267 45.4934 47.0189 30.0829 28.9004 43.2499 42.0125 28.9013 42.137 43.7846 27.893 26.7247 40.0224 38.7984 26.8648 39.0094 40.6678 25.8005 24.6707 36.9815 35.7469 24.7953 35.9535 37.4102 23.7812 22.669 33.9113 32.5678 22.7714 32.849 34.489 21.6832 20.6874 30.7449 29.3831 20.6404 29.6401 31.3806 19.5707 18.7507 27.826 26.589 18.6415 26.6512 28.4723 17.5399 16.7336 24.8322 23.3777 16.7645 23.6727 25.3324 15.5309 14.6228 21.7086 20.5072 14.6778 20.7251 22.2409 13.6053 12.8002 18.9446 17.5192 12.7579 17.7286 19.405 11.6544 10.7724 15.9503 14.7329 10.777 14.7023 16.3251 9.58312 8.92154 13.0336 11.8315 8.77892 11.7838 13.4297 7.77853 6.98939 10.2548 9.08488 6.82713 8.97564 10.5856 5.94397 5.16016 7.45955 6.22502 4.99525 6.21032 7.77406 4.17084 3.16976 4.92118 3.49786 3.23316 3.45182 5.04958 2.39204 1.41436 2.05633 0.876194 1.19411 0.857781 2.12994 0.632977 47.896 51.1726 110.835 36.9409 86.8735 40.6113 13.9894 72.6592 23.3427 56.2094 94.9791 114.402 152.147 76.2691 122.917 140.557 81.4823 106.655 129.634 156.039 85.1871 125.453 156.895 83.5465 102.126 123.361 146.05 80.98 116.72 150.143 77.5555 93.8042 112.416 133.604 73.9678 106.389 138.227 70.3972 85.7421 102.409 122.295 67.7992 97.7737 126.652 64.2756 78.6883 94.1933 112.669 62.5369 90.6987 116.601 59.4846 72.7861 87.6123 104.349 58.4344 84.9597 108.11 55.4584 67.4832 82.0964 97.0775 54.897 79.8434 100.523 52.1549 62.7789 77.2039 90.2224 51.6844 75.2402 93.7131 49.0683 58.4317 72.5846 83.9075 48.6349 70.6878 87.2042 46.1252 54.2163 68.1524 77.9101 45.6444 66.4398 81.0107 43.4363 50.2872 64.0735 72.1738 42.9868 62.4405 75.2966 40.8029 46.5569 60.0601 66.6726 40.3374 58.5552 69.7203 38.1986 42.9499 56.2695 61.5087 37.7715 54.701 64.4625 35.8374 39.4611 52.5293 56.4708 35.2525 51.1194 59.3046 33.4875 36.2195 48.9597 51.697 32.8667 47.4753 54.4982 31.1043 33.0714 45.2663 47.2187 30.422 43.9181 49.9489 28.8378 30.1916 41.764 42.8206 28.083 40.454 45.4116 26.4697 27.2757 38.3428 38.7309 25.7133 36.9615 41.1225 24.3548 24.5738 35.0225 34.8467 23.6052 33.6927 37.1584 22.1253 22.0426 31.6737 30.911 21.2992 30.1977 33.3157 19.8707 19.484 28.3916 27.3346 18.9992 27.2028 29.3512 17.9507 17.101 25.4448 23.9092 17.0303 23.9904 25.9417 15.8219 14.9579 22.1867 20.5843 14.83 20.9191 22.5356 13.801 12.7263 19.1884 17.5836 12.897 17.9119 19.1478 11.8312 10.669 16.1884 14.4026 10.8214 14.8834 16.2169 9.92829 8.62247 13.3163 11.3465 8.93886 12.1466 12.9403 7.94763 6.68291 10.4654 8.55687 7.02829 9.29989 10.1285 6.07065 4.72088 7.69885 5.72296 5.27991 6.50467 7.25918 4.25397 3.02582 4.75467 3.32439 3.24822 3.34636 4.64942 2.26647 1.36436 1.98473 0.932497 1.3407 0.93418 2.15929 0.58387 88.7066 97.0043 178.934 69.5528 143.532 75.1105 29.6357 134.517 48.5106 91.9364 146.366 175.289 226.116 118.132 185.621 217.238 121.583 157.219 192.889 228.389 128.416 188.555 232.616 124.328 150.87 185.429 215.456 122.929 177.164 222.728 117.059 139.973 171.385 198.906 113.751 163.27 206.743 107.612 128.916 157.457 183.11 104.574 150.208 190.456 98.8069 118.625 144.737 168.533 96.2864 138.403 175.484 90.8984 109.176 133.344 155.082 88.8656 127.813 161.769 83.8544 100.527 123.271 142.807 82.1905 118.239 148.987 77.581 92.341 113.782 130.928 76.0671 109.238 137.22 71.5286 84.7478 105.1 120.062 70.1814 100.767 125.942 66.0059 77.5459 96.7172 109.744 64.6159 92.6734 115.249 60.7074 70.6312 88.7819 99.9741 59.35 85.0548 105.174 55.829 64.3405 81.4273 90.7326 54.452 77.8468 95.8163 51.026 58.1409 74.362 81.9322 49.6598 70.9439 86.7073 46.6333 52.4622 67.5291 73.7867 45.1477 64.3398 78.165 42.2219 47.0376 61.1298 65.7958 40.8312 58.1524 70.0855 38.1885 41.8945 55.2352 58.6937 37.0091 52.5518 62.6448 34.538 37.2172 49.7008 51.785 33.2313 47.04 55.714 30.9304 32.6038 44.3047 45.4808 29.599 42.0288 48.7983 27.6475 28.5474 39.4391 39.6047 26.4038 37.1181 42.951 24.5296 24.7794 34.7767 34.1754 23.2427 32.6255 37.0374 21.4604 21.0961 30.2312 29.0576 20.1786 28.3333 31.9076 18.8572 17.9681 26.2079 24.6265 17.439 24.3096 27.1402 16.2271 15.074 22.4962 20.3149 15.0629 20.8832 22.7566 13.7903 12.3687 19.0021 16.6658 12.548 17.3212 18.6139 11.5852 9.93164 15.5975 13.2528 10.4892 14.1893 15.0759 9.3553 7.75141 12.398 10.0729 8.27021 11.0183 11.813 7.36708 5.84825 9.45656 7.30957 6.24948 8.14391 8.79524 5.41382 4.01013 6.55211 4.70989 4.37079 5.27283 6.12305 3.5203 2.25411 3.94349 2.62591 2.57238 3.00946 3.487 2.03525 1.25845 1.98536 0.923513 1.31637 1.03128 1.87279 0.655767 159.479 178.507 274.377 124.531 228.016 139.27 58.7578 239.105 93.122 146.721 210.377 264.104 313.329 177.568 270.337 312.753 177.219 212.906 275.044 309.213 183.73 268.735 316.852 177.306 203.723 263.218 293.122 175.005 253.268 302.355 167.613 190.948 245.311 273.087 162.976 234.911 283.011 155.334 177.191 226.685 252.586 150.585 216.757 262.558 143.271 163.442 208.962 232.657 138.886 199.817 242.389 131.927 150.521 192.346 214.01 127.968 183.935 223.292 121.347 138.163 176.825 196.181 117.741 168.815 205.285 111.385 126.656 162.135 179.479 107.942 154.7 188.042 102.001 115.66 148.364 163.53 98.7909 141.431 171.736 93.1912 105.181 135.276 148.391 90.079 128.816 156.323 84.8962 95.2096 122.854 134.207 81.8535 116.671 141.669 76.8952 85.8996 111.197 120.781 74.0355 105.518 127.71 69.5598 77.1141 100.182 108.083 66.7672 94.5513 114.795 62.4187 68.7995 89.7454 96.2534 59.6871 84.6811 102.24 55.9716 60.9751 80.0558 84.8594 53.1633 75.0055 90.7726 49.625 53.6356 70.7053 74.3136 46.948 66.153 79.7376 43.7465 46.6611 62.1084 64.5811 41.3415 57.9413 69.5564 38.3249 40.4816 54.0869 55.4246 35.8726 50.1956 60.2207 33.2813 34.4295 46.6133 46.9212 31.025 43.1607 51.2669 28.4804 28.9844 39.9601 39.3952 26.5038 36.5877 43.3789 24.3487 24.0663 33.5911 32.2805 22.419 30.6901 36.0344 20.2244 19.638 27.8579 26.2465 18.5066 25.296 29.3246 16.8566 15.7301 22.937 20.6265 15.1821 20.5536 23.4976 13.6138 12.1289 18.1889 15.8008 12.0621 16.2276 18.2125 10.8742 9.10977 14.3571 11.756 9.4582 12.5343 13.6968 8.45367 6.55265 10.8375 8.29358 7.24655 9.30329 9.93297 6.25141 4.59978 7.75632 5.39566 5.11457 6.40044 6.8013 4.26319 2.69057 5.12147 3.24945 3.38915 4.11736 4.0479 2.80155 1.47284 2.79425 1.7563 1.91346 2.22096 2.31715 1.45448 0.914663 1.62493 0.726226 1.0402 0.901975 1.25111 0.568474 134.195 338.902 179.091 226.289 334.368 67.1227 125.971 192.697 191.934 217.9 126.203 357.277 182.487 239.621 357.995 187.356 235.287 125.614 355.343 180.916 237.957 350.207 186.287 231.154 122.494 342.13 174.026 228.022 332.494 180.343 220.121 116.48 322.836 163.864 214.703 310.948 170.926 206.017 108.844 300.612 152.307 199.828 288.4 159.513 191.001 100.893 277.924 140.745 184.651 265.956 147.642 176.076 92.9023 255.954 129.46 170.189 244.767 136.159 162.018 85.3685 235.003 118.71 156.342 224.457 125.115 148.394 78.1593 215.241 108.673 143.177 205.216 114.509 135.743 71.2743 196.269 98.9521 130.518 186.819 104.497 123.566 64.8037 178.332 89.7857 118.664 169.411 95.0067 112.084 58.6914 161.305 81.0339 107.224 152.929 85.9524 101.093 52.774 145.248 72.9489 96.6327 137.275 77.3811 90.8623 47.3037 130.097 65.1993 86.4826 122.593 69.3726 81.2121 42.1389 115.904 57.9252 76.8712 108.558 61.7595 72.085 37.202 102.298 50.9028 67.945 95.7387 54.4755 63.2598 32.503 89.5404 44.4891 59.4834 83.4172 47.7174 55.2924 28.285 77.8155 38.6028 51.5739 72 41.3968 47.8287 24.408 67.0709 32.9935 44.4469 61.6144 35.6554 40.8181 20.5809 56.5757 27.7368 37.3885 51.6116 30.1057 34.2817 17.2446 47.3287 23.1408 31.2332 42.9203 25.0418 28.4483 14.047 38.8234 18.8036 25.6898 34.7178 20.5928 23.1058 11.2925 31.2677 15.1222 20.5648 27.7386 16.4537 18.6007 8.85076 24.5166 11.4991 16.1233 21.2457 12.9729 14.1445 6.54105 18.4258 8.67019 12.0999 15.7457 9.60667 10.697 4.7604 13.3958 6.05063 8.67965 11.1371 6.95426 7.47307 3.11901 9.10698 4.01803 5.95875 7.28044 4.5993 4.99222 1.93947 5.93198 2.43265 3.74017 4.48934 2.80566 3.05837 0.948696 3.10469 1.24714 1.96085 2.3198 1.39198 1.62174 0.391584 1.47141 0.626645 0.978732 1.38576 0.635641 0.912482 0.341081 1.14444 0.372275 0.66559 0.60851 0.489019 0.463132 138.013 319.823 278.4 219.219 366.386 201.849 110.228 133.451 89.6883 78.1046 217.785 120.872 185.543 247.954 196.061 339.862 296.326 229.541 339.413 179.39 118.389 298.867 172.444 227.067 196.026 336.874 287.342 223.526 327.655 175.858 117.362 294.995 167.456 221.566 185.247 322.28 271.097 212.346 310.635 167.907 112.801 277.881 158.979 211.212 172.883 302.572 253.145 199.039 290.365 157.476 105.999 259.429 148.334 197.807 160.576 281.08 234.533 184.814 269.28 146.223 98.3629 241.097 137.329 183.28 148.258 259.384 216.253 170.85 248.482 135.125 90.7522 223.124 126.395 168.793 136.402 238.45 198.857 157.31 228.607 124.429 83.4263 205.74 116.079 155.082 125.392 218.764 182.51 144.452 209.55 114.145 76.4962 189.37 106.167 142.002 114.848 199.983 166.808 132.156 191.577 104.396 69.8396 173.624 96.8606 129.639 104.701 182.151 152.019 120.639 174.26 95.1551 63.5885 158.659 87.9668 117.857 95.3607 165.318 137.991 109.37 158.006 86.2559 57.6747 144.358 79.6291 106.828 86.3418 149.493 124.762 98.9641 142.395 77.9258 52.0521 130.907 71.6324 96.3198 77.8575 134.333 112.2 88.9228 127.844 70.0032 46.6942 117.956 64.1561 86.3241 69.847 120.215 100.551 79.5934 114.076 62.507 41.762 105.85 57.1012 77.1016 62.3392 106.828 89.2114 70.716 101.026 55.4396 36.9957 94.621 50.3176 68.1421 55.1532 94.0692 78.9553 62.2564 88.7261 48.7027 32.5223 83.6289 44.2737 60.0021 48.5137 82.2149 68.877 54.5674 77.2857 42.5537 28.3457 73.7327 38.4148 52.1043 42.3857 71.5523 60.0578 47.3787 66.7982 36.8546 24.6088 64.1858 32.934 45.0359 36.611 61.1613 51.6072 40.4409 56.7338 31.3631 20.8988 55.4466 27.9032 38.2397 31.2387 51.7327 43.8452 34.2393 47.9483 26.549 17.6733 47.2835 23.3158 32.2463 26.2731 42.9483 36.6256 28.5352 39.5187 21.9524 14.5229 40.0577 19.1528 26.4963 21.9482 35.1017 30.2334 23.3565 32.0204 17.8153 11.7708 33.3546 15.29 21.4485 17.9991 28.0523 24.5961 18.6294 25.3334 14.09 9.30859 27.3318 11.9511 16.9607 14.4274 21.8395 19.3435 14.5035 19.4426 10.8247 7.05007 21.9226 9.0162 12.9903 11.1187 16.392 14.8052 10.9647 14.3956 7.96928 5.24326 17.0842 6.53192 9.55249 8.62869 12.0277 11.2164 7.89395 10.11 5.59517 3.71433 13.1087 4.40164 6.78987 6.28915 7.98018 7.89749 5.23508 6.60321 3.48859 2.31993 9.4498 2.87114 4.41784 4.33765 5.04654 5.05772 3.38739 3.97947 2.04977 1.38786 6.59026 1.5201 2.53214 2.70214 2.77122 2.86238 1.8709 1.88056 1.04908 0.646232 4.10323 0.676864 1.17625 1.30695 1.25441 1.45999 0.818046 0.847461 0.435004 0.285223 2.12896 0.310168 0.583873 0.776922 0.784444 0.502494 0.457611 0.300591 0.297225 0.1972 1.20918 0.111158 0.246637 73.0051 158.069 156.081 110.939 208.85 46.9977 40.5224 116.982 65.0408 138.584 127.979 245.267 204.415 164.693 250.77 195.963 169.976 137.035 251.354 204.646 165.893 243.819 206.364 166.669 130.864 238.165 192.399 155.985 228.037 195.8 156.268 121.541 221.641 178.455 145.076 212.014 182.22 145.218 112.285 205.227 165.173 134.621 196.598 169.115 134.393 103.839 189.44 152.626 124.631 182.048 156.922 123.971 95.8574 174.608 141.028 115.204 168.081 145.475 114.195 88.5872 160.728 130.157 106.293 154.864 134.776 104.962 81.7273 147.553 119.866 97.7372 142.161 124.441 96.1137 75.0687 134.817 110.024 89.5268 129.957 114.631 87.7657 68.9619 123.197 100.94 81.7948 118.626 105.239 79.9846 63.1262 111.926 92.225 74.3459 107.631 96.3984 72.5522 57.5877 101.28 83.853 67.3262 97.2937 87.9909 65.5016 52.2447 91.2624 75.9642 60.7287 87.5159 79.9592 58.8866 47.3201 81.8055 68.5719 54.506 78.3059 72.2617 52.5601 42.6456 72.9588 61.6974 48.516 69.665 65.1736 46.8212 38.1655 64.5727 54.8591 43.1384 61.6391 58.2784 41.0401 33.9778 56.7558 48.7501 37.8134 53.9605 51.9876 36.1359 30.0431 49.5247 43.0397 33.0737 46.9812 46.1391 31.3904 26.461 42.8159 37.6347 28.6171 40.5614 40.5432 26.973 23.1468 36.5351 32.539 24.635 34.5489 35.515 22.7985 19.8938 31.1163 28.0198 20.9908 29.2648 30.5456 19.2129 16.979 25.8725 23.7585 17.4385 24.3099 26.1429 16.0581 14.5138 21.4179 19.9138 14.4637 19.7176 22.2224 12.9931 12.0386 17.1114 16.2667 11.5986 15.7785 18.4037 10.1884 9.82604 13.675 13.1383 9.29778 12.4047 15.1052 8.00385 7.78408 10.394 10.0549 7.10605 9.36684 11.8983 5.99447 5.8663 7.69431 7.23915 5.27674 6.52241 9.05285 4.19029 3.95672 5.09212 4.70187 3.43743 4.01326 6.20175 2.62101 2.41822 2.7851 2.38734 1.98858 2.06429 3.88534 1.31503 1.05287 1.57804 0.708386 1.05862 0.725347 1.68645 0.440737 36.3015 83.7109 90.1814 59.1773 119.514 22.5455 20.0663 57.0071 32.6245 80.2269 78.7966 153.367 130.688 101.705 160.364 117.828 110.148 89.2398 168.683 135.382 109.909 162.814 132.547 112.635 85.7218 161.083 127.627 104.411 152.921 127.436 105.95 78.9982 148.867 117.724 96.8514 142.086 118.55 97.8732 72.9511 137.341 109.155 89.8994 132.224 110.436 90.4902 67.8387 127.137 101.668 83.7874 123.262 103.517 83.8063 63.278 117.862 94.9766 78.066 114.859 97.24 77.7236 59.3167 109.434 89.0663 72.8424 106.988 91.5787 72.1393 55.809 101.649 83.3883 67.7729 99.4517 86.1404 66.8299 52.2193 94.1379 78.06 62.9445 92.2244 80.8576 61.7875 49.0136 87.1023 73.0249 58.3403 85.4347 75.8049 57.1221 45.7209 80.4255 67.8599 53.9791 78.7861 70.9443 52.5331 42.5373 73.9227 63.1465 49.757 72.5076 66.0105 48.246 39.6384 67.7998 58.5653 45.6199 66.4908 61.427 44.1004 36.805 62.0552 54.1027 41.8106 60.7403 57.0286 40.23 33.9215 56.5162 49.7919 38.1781 55.4385 52.5949 36.6386 31.4305 51.4014 45.817 34.6996 50.0716 48.6467 33.0747 28.8034 46.3845 41.8469 31.405 45.2864 44.5973 29.7475 26.364 41.6723 38.0965 28.2525 40.6015 40.7103 26.6601 23.9611 37.2785 34.3806 25.3345 36.2045 36.9534 23.6808 21.6268 33.2145 30.8597 22.5257 32.2002 33.2111 20.9886 19.3062 29.1163 27.4055 19.7939 27.97 29.859 18.3124 17.1371 25.4152 24.0287 17.3425 24.376 26.3448 15.7841 14.9398 21.8784 20.7544 14.9532 20.9068 22.995 13.4835 12.859 18.5396 17.7715 12.6668 17.5216 19.7821 11.4193 10.8423 15.5829 14.5768 10.659 14.5079 16.6456 9.32066 8.89296 12.6387 11.6192 8.576 11.5212 13.4759 7.32347 6.95327 9.60447 8.97705 6.59443 8.26633 10.5732 5.3988 5.03789 6.66184 5.95217 4.50421 5.59501 7.62781 3.56561 3.11971 4.22318 3.23932 2.99022 3.20221 4.94248 1.99462 1.26455 1.80636 0.76424 1.33142 0.758932 2.30202 0.44737 24.3354 40.3083 72.3144 27.2071 69.3828 19.6394 7.53596 35.1186 10.9909 48.4917 64.919 100.295 108.899 64.0843 104.181 93.5165 73.1514 74.7644 114.544 113.059 72.4606 108.19 107.908 75.7822 71.2475 109.29 105.682 69.5406 102.368 104.02 70.9481 65.1587 100.073 96.9261 64.6862 95.3761 96.7057 65.0666 59.8896 92.2253 89.6996 60.5073 89.677 90.2511 60.3305 55.8286 86.0484 84.0727 57.207 84.8717 85.1764 56.5528 52.7033 80.9752 79.3054 54.2795 80.531 80.8651 53.2767 49.9217 76.6001 74.9069 51.6578 76.6089 76.9999 50.3391 47.439 72.7319 71.1207 49.2481 72.8695 73.4121 47.771 45.1015 68.8498 67.395 46.7479 69.1324 69.7849 45.1447 42.7749 65.2761 63.7624 44.42 65.5366 66.3385 42.7611 40.6347 61.6718 60.2287 42.022 61.8131 62.8877 40.2412 38.3914 58.1245 56.7916 39.6061 58.2264 59.4868 37.9485 36.2226 54.7515 53.2909 37.3186 54.7784 56.1731 35.6042 34.0912 51.3521 49.953 35.0993 51.2978 52.7833 33.2751 31.832 47.9262 46.6258 32.7775 47.7343 49.3424 30.952 29.7566 44.5448 43.2237 30.4832 44.3757 46.0192 28.7105 27.593 41.329 40.0459 28.2877 41.05 42.6708 26.6487 25.4502 38.1892 36.7147 26.1722 37.8189 39.5735 24.4653 23.3603 34.986 33.7028 24.0228 34.713 36.2198 22.4177 21.4064 31.9231 30.4623 21.9222 31.2594 33.2524 20.2171 19.4021 28.6755 27.4459 19.7015 28.2538 29.7774 18.1915 17.2587 25.8007 24.3193 17.6477 24.9278 26.7631 16.16 15.2472 22.635 21.2634 15.5321 21.8413 23.6379 14.1311 13.1956 19.6603 18.2248 13.3735 18.7295 20.3898 12.1745 11.1873 16.5633 15.1828 11.4178 15.522 17.3945 10.0593 9.17312 13.6518 12.113 9.29615 12.5324 14.2133 8.03649 7.16976 10.6066 9.25571 7.31133 9.69188 11.0889 6.24991 5.24859 7.8228 6.36486 5.43229 6.67473 8.23331 4.18561 3.45251 4.851 3.6681 3.41596 3.54066 5.25658 2.33718 1.45797 1.98185 0.873412 1.41059 0.923441 2.30353 0.485875 48.4132 49.2508 109.745 34.9192 81.8614 41.6023 13.9006 73.83 24.6419 54.0771 93.8168 110.591 149.425 72.1986 116.212 137.175 78.7241 104.678 125.551 153.067 80.7747 119.549 151.784 81.1101 100.3 120.233 143.682 77.646 112.855 145.765 75.9084 92.4998 110.6 132.254 72.3264 104.994 135.341 69.6257 85.1378 101.91 122.018 67.4326 98.0548 125.704 64.3411 78.7149 94.6734 113.076 63.3105 92.2519 117.041 60.053 73.1986 88.8761 105.319 59.7793 87.1098 109.397 56.4382 68.2117 83.5923 98.1723 56.5285 82.2648 102.29 53.1063 63.6037 78.7968 91.5134 53.4298 77.8388 95.6875 50.2033 59.2311 74.3051 85.174 50.4451 73.5039 89.2871 47.3661 55.1091 70.0087 79.1617 47.6797 69.2881 83.258 44.5909 51.2383 65.914 73.4645 44.8899 65.0786 77.4872 41.9038 47.3091 61.748 68.0021 42.112 61.1456 71.7084 39.3738 43.9206 57.8658 62.8008 39.4829 57.1249 66.3893 36.7506 40.3115 54.0193 57.7497 36.8355 53.373 61.3193 34.5076 37.1226 50.3473 52.8968 34.2887 49.4913 56.4453 31.9878 33.9061 46.7237 48.3412 31.8492 45.876 51.6722 29.6888 30.8847 43.1255 44.0335 29.3548 42.2697 47.1598 27.379 28.0674 39.4569 39.566 26.9792 38.6537 42.9248 24.934 25.1865 36.0362 35.7792 24.608 35.2515 38.5737 22.858 22.7145 32.7815 31.8566 22.4468 31.8885 34.7931 20.5775 20.0317 29.4735 28.0681 20.1363 28.7599 30.8306 18.5862 17.706 26.0946 24.5045 17.913 25.1924 27.178 16.2765 15.2618 22.9999 21.1519 15.7271 22.0636 23.6222 14.2976 13.035 19.8229 17.9014 13.6035 18.7201 20.2214 12.1853 11.0015 16.7537 14.8036 11.4358 15.7342 16.9894 10.2018 8.74943 13.6859 11.6982 9.41809 12.5542 13.8012 8.2017 6.99386 10.8338 8.96292 7.37481 9.58717 10.7757 6.2955 5.02316 7.93839 6.03976 5.29163 6.57796 7.76939 4.35169 3.19063 5.16926 3.46845 3.46237 3.78564 4.94356 2.47196 1.41824 2.06632 1.00996 1.55505 1.06333 2.29025 0.622472 90.7853 98.818 180.506 71.871 144.437 77.2446 30.8166 140.165 52.8947 92.0121 146.854 174.64 225.485 117.46 183.029 218.175 120.518 156.463 190.722 226.656 125.802 184.38 229.931 122.782 149.501 183.013 213.297 120.253 173.639 218.969 115.521 138.649 169.521 197.455 111.692 160.95 203.573 106.712 127.968 156.372 182.157 103.628 149.425 188.59 98.4192 118.184 144.517 168.312 96.2268 138.734 174.809 91.0089 109.266 133.814 155.202 89.394 128.797 161.948 84.1866 100.518 123.85 143.064 82.9788 119.464 149.544 78.0148 92.7369 114.777 131.727 76.9977 110.717 138.086 72.2157 85.1961 105.984 120.682 71.1564 102.24 126.985 66.6196 77.9407 97.737 110.429 65.7105 94.2635 116.479 61.3989 71.2707 89.9235 100.707 60.4549 86.7038 106.477 56.4752 64.7993 82.4023 91.4173 55.4581 79.3814 96.9677 51.6982 58.5814 75.4233 82.6313 50.7443 72.5238 87.7672 47.3007 52.8889 68.6466 74.3572 46.2845 65.9951 79.2832 42.962 47.4371 62.2221 66.5186 41.9449 59.7268 71.2523 38.8521 42.4899 56.2871 59.3114 37.8813 53.9042 63.7068 35.1238 37.6073 50.4851 52.538 34.1517 48.5143 56.4763 31.5492 33.0629 45.2737 45.9781 30.726 43.2971 50.1751 28.1619 29.1219 40.2811 40.2642 27.1094 38.2648 43.926 24.9738 24.9676 35.5377 34.7012 24.0912 33.9018 37.956 22.0843 21.6361 31.0828 29.7294 21.0982 29.4898 32.8147 19.1558 18.4296 26.8461 24.996 18.2395 25.4945 28.0114 16.5165 15.345 22.9533 20.956 15.5937 21.6252 23.4658 14.1977 12.6466 19.3306 16.9383 13.1842 18.0454 19.4226 11.6827 10.1941 15.9846 13.6693 10.9284 14.7707 15.6911 9.68326 8.00212 12.6186 10.3373 8.59696 11.3803 12.3489 7.40889 5.91201 9.72777 7.56424 6.64823 8.64703 9.23384 5.65561 4.1467 6.84616 4.87534 4.78927 5.77039 6.44878 3.6431 2.39196 4.17406 2.80366 2.86049 3.35117 3.91487 2.11674 1.31592 2.07169 0.940241 1.47015 1.10337 2.17742 0.737042 161.242 181.262 277.436 128.302 232.111 140.442 59.9313 244.794 97.2624 148.147 212.326 265.781 314.99 179.407 270.988 316.774 177.453 213.567 274.751 308.929 182.852 266.208 316.828 176.539 202.941 261.448 291.447 172.818 249.96 299.675 166.253 189.758 243.388 271.514 160.779 232.215 279.931 154.319 176.176 225.288 251.413 149.186 215.029 260.286 142.488 162.838 208.08 232.016 138.092 199.057 241.006 131.591 150.201 192.214 213.67 127.83 183.914 222.764 121.313 138.161 176.804 196.218 117.76 169.087 205.083 111.392 126.568 162.336 179.53 108.315 155.338 188.123 102.228 115.72 148.766 163.804 99.2667 142.11 172.151 93.5067 105.329 135.69 148.782 90.5814 129.368 156.783 85.1434 95.5838 123.471 134.635 82.339 117.7 142.035 77.3316 86.1378 111.773 121.053 74.6852 106.3 128.379 69.9023 77.3831 100.674 108.351 67.1585 95.2369 115.245 62.6995 68.8686 90.1263 96.4935 60.1444 85.2838 102.622 56.2208 61.1366 80.3614 84.9574 53.6302 75.767 91.3267 49.8035 53.7051 71.265 74.5805 47.5974 67.0293 80.1468 44.0232 46.9212 62.5232 64.8265 41.6885 58.6513 70.0667 38.6641 40.4965 54.4394 55.6105 36.45 50.8342 60.5613 33.4322 34.6147 47.1215 47.337 31.4821 43.9571 51.7735 28.9494 29.2456 40.2277 39.6459 26.9273 37.1912 43.8466 24.4355 24.2865 34.1349 32.7705 22.8309 31.3944 36.5302 20.7229 19.8606 28.4924 26.4122 19.1245 26.0933 29.8395 17.0953 15.7604 23.1802 20.832 15.5397 21.1459 23.7148 13.9838 12.3888 18.665 16.0542 12.4894 16.8268 18.6882 11.0898 9.25445 14.6432 11.7745 9.83802 13.1181 14.0797 8.58929 6.56425 11.096 8.28442 7.51527 9.71924 10.2261 6.41849 4.5765 7.92959 5.44127 5.37387 6.91201 7.1301 4.49689 2.70287 5.29557 3.28545 3.60743 4.21882 4.45298 2.82517 1.50639 2.92602 1.92871 2.04042 2.39377 2.31901 1.62302 0.883775 1.71852 0.645866 1.2369 1.01993 1.49052 0.596985 133.086 339.089 179.899 227.976 341.318 66.3598 125.192 191.768 191.145 220.386 127.773 361.567 184.274 244.107 362.414 190.817 237.254 126.726 357.522 181.725 239.454 350.396 188.111 231.631 122.686 341.736 173.807 227.195 330.174 180.392 219.37 116.226 321.427 163.388 212.93 308.484 169.927 205.069 108.538 299.322 151.966 198.291 286.598 158.596 190.35 100.547 276.985 140.26 183.815 264.979 147.132 175.582 92.7231 255.364 129.317 169.645 244.15 135.708 161.729 85.2767 234.83 118.77 156.064 224.308 124.876 148.51 78.1771 215.262 108.659 143.071 205.212 114.533 135.779 71.3183 196.395 98.992 130.719 187.061 104.575 123.676 64.9102 178.614 89.9192 118.765 169.67 95.0756 112.174 58.652 161.607 81.2283 107.541 153.34 86.0451 101.399 52.9063 145.58 72.9843 96.8584 137.547 77.6162 90.9599 47.3363 130.312 65.3087 86.5666 122.911 69.3171 81.3261 42.1665 115.936 57.8628 77.0818 108.906 61.8458 72.0295 37.1474 102.395 51.1012 68.1086 95.9009 54.4918 63.5377 32.7102 89.8522 44.6866 59.599 83.7016 47.898 55.4342 28.3449 78.0551 38.5287 51.8698 72.3646 41.5967 47.8848 24.312 67.0769 33.0867 44.4813 61.7035 35.6538 40.9401 20.5902 56.7378 27.8366 37.644 52.0559 30.1915 34.527 17.203 47.5919 23.1814 31.5791 43.2438 25.2941 28.7476 14.1768 39.199 18.8371 25.9307 35.2863 20.7495 23.2688 11.2716 31.3989 15.074 20.832 27.854 16.5802 18.6215 8.85652 24.6392 11.5943 16.1568 21.4342 12.9103 14.2126 6.59909 18.5495 8.64244 12.1978 16.0151 9.57109 10.6862 4.68461 13.4446 6.14686 8.84831 11.3745 6.95243 7.65704 3.22887 9.21456 3.98512 6.10415 7.18296 4.86127 4.83638 1.82777 5.67383 2.40369 3.78646 4.55055 2.69613 3.09357 0.989637 3.13743 1.21858 2.06408 2.41924 1.49812 1.67747 0.427631 1.62917 0.687614 1.00892 1.3356 0.688497 0.96968 0.365244 1.06541 0.32536 0.736568 0.654801 0.477615 0.355965 145.128 326.47 281.805 229.474 372.18 206.314 113.976 135.068 97.465 82.4102 237.221 137.631 187.364 249.458 197.959 345.748 295.911 231.913 337.277 180.965 120.691 299.391 172.435 228.963 194.038 335.872 283.078 218.845 319.709 171.966 116.827 286.563 165.291 220.069 181.308 317.539 265.971 206.21 302.347 163.041 111.077 267.984 156.173 208.259 169.291 297.397 248.642 193.781 283.997 153.456 104.184 251.706 145.96 194.795 157.716 276.739 231.451 181.215 265.053 143.477 96.9399 235.882 135.52 180.992 146.51 256.373 214.419 168.488 245.931 133.304 89.7206 220.265 125.326 167.311 135.497 236.716 198.029 156.049 227.298 123.424 82.8634 204.546 115.464 154.231 124.996 217.708 182.237 143.864 209.064 113.641 76.107 189.049 105.869 141.456 114.794 199.503 167.108 132.009 191.506 104.203 69.708 173.858 96.7969 129.525 105.156 182.272 152.684 120.635 174.536 95.107 63.5254 159.4 88.014 117.915 95.6672 165.408 138.66 109.688 158.401 86.4494 57.6568 145.316 79.6457 106.874 86.8586 149.693 125.519 99.2686 143.066 78.0977 52.0651 131.928 71.8445 96.4716 78.3099 134.684 113.077 89.4409 128.506 70.2978 46.7961 119.187 64.2924 86.6041 70.4333 120.484 101.283 79.9429 114.706 62.7458 41.7518 107.173 57.2329 77.2112 62.9509 107.14 90.3079 71.1787 101.715 55.7513 37.0592 95.713 50.6713 68.4777 55.8446 94.6424 79.5731 62.8978 89.4361 49.0582 32.6698 85.0292 44.346 60.0827 48.9809 82.6493 69.957 54.9756 78.1004 42.9629 28.4534 74.6158 38.5772 52.3892 42.8905 71.749 60.7719 47.7843 67.3375 37.0663 24.6038 65.6313 33.0243 45.201 37.1158 61.3971 52.3054 40.7794 57.4358 31.5348 20.9349 56.6432 28.154 38.5637 31.7385 52.1705 44.6022 34.7664 48.5597 26.7365 17.735 48.6117 23.5498 32.4592 26.9371 43.5856 37.5693 29.0661 40.4154 22.3359 14.7827 41.1991 19.4446 26.9496 22.4748 35.6734 30.9817 23.8215 32.7494 18.1456 11.9496 34.4228 15.4865 21.7283 18.4492 28.4916 25.2678 19.0898 26.101 14.4177 9.46845 28.2056 12.225 17.3007 14.8698 22.3419 20.1856 14.9889 20.0935 11.088 7.27022 22.9658 9.27547 13.3226 11.7395 16.8465 15.4855 11.3119 15.0027 8.20568 5.34997 18.0182 6.74773 9.75982 9.01962 12.2373 11.6142 8.39342 10.9095 6.02639 3.84147 13.8426 4.64559 6.86813 6.51027 8.24739 8.29453 5.74925 7.11616 3.8741 2.42666 10.2324 2.93728 4.46161 4.62847 5.23052 5.46611 3.6375 4.14889 2.15184 1.42134 7.27062 1.54628 2.56035 2.9533 3.00497 3.19116 1.97551 2.20948 1.08742 0.755741 4.47006 0.786926 1.37 1.64486 1.37654 1.59751 0.903499 0.854778 0.416635 0.268203 2.39568 0.455221 0.587952 0.864712 0.854735 0.502474 0.621067 0.431478 0.427841 0.269121 1.31746 0.107793 0.211183 79.1946 169.731 158.334 124.949 217.524 52.7703 46.1199 133.95 80.9333 141.508 127.437 246.773 200.87 164.489 245.411 193.306 168.939 133.492 246.933 199.052 159.534 233.91 196.704 163.242 126.521 231.662 187.035 148.967 219.195 186.362 152.545 118.193 216.103 174.857 139.951 206.183 175.689 142.259 110.326 201.387 163.156 131.571 193.468 165.785 132.442 102.893 187.342 152.212 123.288 180.862 155.807 122.988 95.9436 173.732 141.619 114.926 168.168 146.139 113.847 89.2302 160.725 131.47 106.621 155.744 136.322 105.113 82.6367 148.059 121.412 98.4838 143.449 126.669 96.5848 76.3079 135.902 111.957 90.5687 131.688 117.175 88.4903 70.119 124.211 102.845 82.9044 120.327 107.902 80.7475 64.4442 113.156 94.2048 75.6072 109.511 99.193 73.3373 58.8796 102.535 85.8338 68.6301 99.1517 90.6613 66.2878 53.6196 92.5532 77.909 61.9957 89.4367 82.5085 59.6359 48.4942 83.1576 70.4232 55.7312 80.1984 74.9676 53.5129 43.8384 74.2127 63.4199 49.857 71.5334 67.667 47.5088 39.2848 65.7297 56.8174 44.0919 63.3118 60.7397 42.1075 35.2878 58.1014 50.4125 39.2854 55.8486 54.6351 36.7416 31.2394 50.6895 44.7202 34.2023 48.6921 48.3043 32.0841 27.5604 43.9439 39.2492 29.7876 42.1114 42.9485 27.6577 24.241 37.877 34.1875 25.6662 36.1618 37.5772 23.6509 20.9949 32.2191 29.4426 21.9499 30.6178 32.6994 20.0391 18.0095 27.0716 25.1564 18.3567 25.7005 28.0209 16.6297 15.2978 22.2911 21.0056 15.3383 21.1381 23.868 13.5675 12.7343 18.1181 17.2918 12.569 17.0062 19.9233 10.8115 10.4667 14.4798 14.0024 9.95788 13.5292 16.2904 8.56764 8.32539 11.0613 10.7864 7.82125 10.2047 13.0554 6.38454 6.3785 8.28133 7.96822 5.85902 7.20959 9.9246 4.4904 4.41658 5.51084 5.02712 3.83881 4.52535 6.86169 2.72187 2.66227 3.25843 2.83177 2.28934 2.36803 4.18389 1.49319 1.21995 1.68898 0.783213 1.19701 0.890292 1.96277 0.531094 36.4301 90.3381 85.1715 67.2563 121.13 21.836 23.4823 61.0138 42.1388 80.2084 73.6609 149.966 122.916 97.8847 151.898 107.161 106.817 83.5877 161.717 128.37 102.458 152.982 120.649 108.492 81.1572 154.192 122.544 98.2391 145.834 119.012 102.18 76.3699 144.105 115.544 93.1536 138.504 114.285 95.6392 72.1228 135.011 109.077 88.6089 131.56 109.891 89.5495 68.2996 126.642 103.165 83.9742 124.404 105.272 83.9385 64.6892 118.794 97.5177 79.444 117.309 100.507 78.5339 61.3195 111.279 92.1022 74.7238 110.112 95.579 73.3753 57.8378 103.829 86.6716 70.0797 102.874 90.4993 68.2178 54.5717 96.5804 81.4846 65.3159 95.8489 85.3815 63.4163 51.2789 89.6244 76.4305 60.7981 88.9869 80.3653 58.7102 48.0891 83.0705 71.3711 56.4599 82.4836 75.4136 54.247 44.9014 76.6534 66.4813 52.1615 76.0794 70.4784 49.9259 41.843 70.4433 61.7745 48.0233 69.8914 65.6519 45.759 38.936 64.4845 57.1682 44.0716 63.9855 61.0569 41.7401 35.9791 59.0032 52.7533 40.3058 58.4769 56.5425 38.1284 33.3697 53.5595 48.4919 36.759 53.1436 52.2869 34.4125 30.6244 48.6727 44.44 33.5429 48.2811 48.0764 31.1748 28.0163 43.8956 40.3445 30.1672 43.3176 43.9565 27.9877 25.3646 39.2295 36.5551 27.1418 38.8431 39.7491 24.9668 22.9443 35.0453 32.7566 24.2769 34.4447 36.1585 22.0993 20.6434 30.8655 29.0722 21.4413 30.3065 32.2371 19.2222 18.1876 26.8416 25.6744 18.6777 26.414 28.5406 16.9008 16.0033 23.4161 22.2155 16.3574 22.6985 25.04 14.3623 13.8527 19.8802 19.0128 13.8371 19.0719 21.5545 12.0786 11.5809 16.581 15.6801 11.5578 15.8273 18.1834 10.0546 9.39952 13.4355 12.4182 9.40611 12.4128 14.9555 7.89701 7.43388 10.4345 9.39142 7.19129 9.40895 11.7458 5.8765 5.30021 7.3162 6.46821 5.22378 6.28825 8.4244 3.93194 3.54892 4.68271 3.55903 3.24739 3.57833 5.38959 2.23232 1.4829 2.16856 1.09539 1.49626 0.975353 2.12648 0.567952 19.8807 34.664 62.7809 23.0116 56.6664 18.0925 6.13055 28.0932 12.8932 42.6427 57.3769 89.3911 98.4506 53.2487 89.3153 77.0187 66.3121 67.6744 104.131 104.661 63.0593 97.3478 93.9097 70.1974 66.4337 101.937 100.823 63.8473 96.7505 95.743 67.4062 62.9936 96.5611 95.4273 62.5683 94.411 93.9112 63.8703 59.8926 91.8641 90.7744 61.1121 91.7674 91.3856 60.7654 57.3076 87.7977 86.6314 59.3475 88.7572 88.6407 58.0125 54.8112 83.9669 82.7736 57.3988 85.5262 85.7355 55.445 52.5735 80.414 78.9591 55.2935 82.0075 82.5509 52.9015 50.2988 76.6533 75.2483 52.8721 78.3198 79.0191 50.3167 47.9303 73.0676 71.5195 50.5394 74.6582 75.5139 47.9097 45.6426 69.4179 67.8319 48.0916 70.9282 71.8479 45.4266 43.304 65.7491 64.142 45.6482 67.0573 68.2794 42.8795 41.0081 62.0298 60.5056 43.097 63.1426 64.6139 40.3554 38.7144 58.3928 56.8908 40.5915 59.456 60.9422 37.9873 36.4967 54.8983 53.3451 38.1433 55.6774 57.323 35.514 34.159 51.2444 49.886 35.7215 51.9572 53.729 33.0595 31.911 47.8254 46.302 33.3386 48.3723 50.1159 30.7494 29.5904 44.3309 42.7844 30.8814 44.8132 46.5521 28.4404 27.3439 40.8542 39.457 28.511 41.2051 42.9326 26.1253 25.0948 37.381 36.0439 26.0777 37.5423 39.497 23.9148 22.9989 34.2192 32.6995 23.921 34.1235 35.9877 21.6035 20.5895 30.8184 29.3203 21.4992 30.5983 32.5589 19.5392 18.5833 27.5526 26.0261 19.1629 27.2814 29.0818 17.2133 16.4059 24.2629 22.8386 16.9405 23.8628 25.7769 15.1146 14.1482 21.0611 19.4214 14.7577 20.4916 22.4154 12.9837 12.0638 17.8522 16.2475 12.4572 17.0304 18.8779 10.7433 9.85825 14.5306 13.169 10.2412 13.6996 15.5071 8.62483 7.83558 11.5461 10.0291 8.07238 10.5039 12.3117 6.63657 5.76876 8.49899 7.01245 5.88541 7.38158 9.13351 4.67467 3.72638 5.57227 3.80358 3.83844 4.31297 5.85762 2.62685 1.45207 2.24087 1.0552 1.45175 0.966936 2.51383 0.781842 52.0874 47.2227 107.512 34.3322 72.2839 46.9229 15.5172 82.6377 31.835 48.8574 90.5446 101.651 142.399 63.3848 102.664 128.651 72.2615 99.6182 116.269 145.892 72.329 109.2 140.77 75.6874 96.0449 113.618 138.707 72.4973 107.516 137.918 72.6168 89.9937 107.603 130.093 70.5261 103.877 131.591 68.5087 84.4419 101.737 121.923 67.9793 100.048 125.219 64.8852 79.274 96.6031 114.585 65.4215 95.9129 118.895 61.6177 74.4844 91.676 107.514 62.7126 91.7206 112.505 58.4967 69.8715 87.1569 100.824 59.8695 87.3747 106.13 55.589 65.5006 82.7205 94.5351 56.9661 83.0641 99.8016 52.7704 61.2347 78.2015 88.195 54.0103 78.6734 93.5465 49.8954 57.1083 73.8995 82.1619 51.0897 74.2246 87.4999 47.1339 53.213 69.6464 76.4433 48.14 69.9296 81.4852 44.3612 49.3073 65.4498 70.9877 45.3242 65.7093 75.7475 41.8054 45.6991 61.4439 65.4799 42.5215 61.5458 70.3761 39.0727 42.1237 57.3081 60.4036 39.7212 57.5432 64.9743 36.4993 38.7936 53.3786 55.4742 37.08 53.6073 59.9614 34.001 35.5806 49.6202 50.7445 34.4864 49.7675 55.0595 31.4979 32.4143 45.7749 46.2175 31.8586 45.766 50.3281 29.1039 29.5771 42.1898 41.8891 29.2004 41.9963 45.8914 26.729 26.672 38.4124 37.7548 26.7824 38.248 41.476 24.2872 23.8733 34.8981 33.7067 24.2482 34.6913 37.1943 22.017 21.2305 31.3143 29.8999 21.8934 30.941 33.2926 19.7274 18.8452 28.0417 26.128 19.4737 27.4496 29.388 17.4576 16.2995 24.6469 22.5418 17.1664 24.1266 25.4971 15.2648 13.9671 21.1843 19.166 14.8122 20.3912 21.8738 12.9531 11.7351 17.8523 15.8196 12.4111 17.0861 18.3203 10.8176 9.5784 14.659 12.6353 10.1442 13.7403 14.906 8.74785 7.42479 11.6053 9.55854 8.05801 10.5198 11.6959 6.66477 5.33226 8.41967 6.45064 5.94705 7.44022 8.48947 4.61455 3.42021 5.3969 3.8106 3.80711 4.05562 5.42562 2.53097 1.61725 2.27841 1.19385 1.53443 1.07028 2.45556 0.745952 99.1293 107.404 184.827 81.9715 148.221 85.9144 35.7886 160.068 67.834 92.9595 147.525 172.938 222.63 114.832 175.46 216.545 117.643 153.267 184.991 220.989 119.57 175.34 221.212 118.726 145.455 177.187 208.152 114.926 167.387 210.6 112.38 135.75 165.618 194.049 108.689 158.003 198.24 104.825 126.331 154.759 180.817 102.699 148.915 186.146 97.8871 117.688 144.522 168.175 96.6011 140.023 174.411 91.4324 109.375 135.02 155.849 90.7612 131.127 162.978 85.2105 101.272 125.651 144.308 84.7967 122.291 151.251 79.2234 93.5958 116.841 133.108 78.9797 113.834 140.16 73.7087 86.1375 108.297 122.387 73.3728 105.443 129.273 68.1374 79.1678 100.033 112.159 67.8617 97.5031 118.783 62.8736 72.3193 92.2134 102.384 62.612 89.8079 108.845 57.9722 65.9373 84.7393 93.0456 57.594 82.5255 99.3427 53.268 59.7432 77.6503 84.2246 52.859 75.4923 90.2728 48.6266 53.898 70.874 75.9746 48.2405 68.9306 81.5295 44.4703 48.5152 64.4213 68.189 44.0317 62.7163 73.4475 40.3595 43.3963 58.3871 60.7626 39.8424 56.8182 65.9577 36.5222 38.5548 52.6429 53.9673 36.0104 51.1246 58.7896 32.8605 34.2428 47.3191 47.6631 32.3684 45.8593 52.0563 29.4548 29.9678 42.0723 41.5486 28.8375 40.8316 45.8112 26.2319 26.0482 37.2446 36.0396 25.5611 35.9583 39.9309 23.153 22.4658 32.6823 30.9069 22.4608 31.4876 34.6905 20.2024 19.0993 28.3827 26.2042 19.6193 27.4819 29.5974 17.5507 16.1554 24.4644 21.9576 16.8103 23.2736 25.1498 14.9506 13.3699 20.5507 17.9768 14.2199 19.6518 20.829 12.5365 10.8283 17.1808 14.5965 11.8799 16.1519 16.9703 10.3308 8.55997 13.6179 11.0824 9.49426 12.6512 13.4925 8.03491 6.41752 10.4235 8.11776 7.24458 9.44726 10.1146 6.02306 4.47032 7.48296 5.43679 5.19722 6.41757 7.05852 4.1558 2.74849 4.71586 3.11995 3.28539 3.73283 4.32851 2.4089 1.52049 2.42361 1.1294 1.62394 1.19807 2.25301 0.767776 169.513 193.202 285.142 143.043 243.084 148.083 65.0936 266.144 114.609 152.331 215.675 268.824 315.844 180.218 266.615 319.217 177.237 212.381 271.499 305.406 177.355 257.377 309.865 173.568 199.677 255.922 286.753 166.966 242.278 291.372 162.895 186.677 238.792 267.699 156.668 227.512 273.573 151.806 174.011 222.396 249.076 146.933 212.979 256.355 141.232 161.677 206.855 230.828 137.455 198.607 239.294 131.073 149.662 191.842 213.418 127.873 184.282 222.047 121.242 138.041 177.174 196.334 118.306 170.347 205.208 111.907 126.782 163.257 180.003 109.271 156.78 188.874 102.853 116.008 149.676 164.408 100.192 143.657 172.906 94.2391 105.814 137.054 149.627 91.8205 131.195 157.847 86.0322 95.8731 124.569 135.18 83.5057 119.177 143.263 78.152 86.7154 113.087 121.909 75.7934 107.9 129.475 70.6579 77.837 101.749 109.137 68.2495 97.0946 116.166 63.4991 69.3716 91.2457 97.0376 61.2984 86.8027 103.919 56.8766 61.5952 81.5219 85.7938 54.7214 77.4201 92.2614 50.6571 54.2608 72.3871 75.2457 48.6511 68.4705 81.3343 44.8171 47.3158 63.6329 65.464 42.7648 60.0709 70.9718 39.2779 40.9455 55.7502 56.3787 37.4831 52.5134 61.5283 34.2964 35.1061 48.2467 47.9828 32.5022 45.3316 52.8817 29.5621 29.559 41.2877 40.1454 27.9302 38.6209 44.7913 25.1433 24.7198 35.0242 33.395 23.6786 32.7599 37.2149 21.2817 20.1566 29.3617 27.2673 19.8946 27.2468 30.7149 17.7286 16.2068 24.1074 21.344 16.378 22.2718 24.8016 14.4835 12.589 19.4323 16.5343 13.3151 18.1175 19.3403 11.6455 9.59415 15.4189 12.2824 10.6403 14.0112 14.9903 9.16712 7.06985 11.917 8.92497 8.1559 10.7173 10.9773 6.85471 4.86287 8.58769 5.92856 5.97288 7.53498 7.65295 4.9127 3.1403 5.76121 3.49944 3.93059 4.82708 4.87768 3.04865 1.54823 3.32214 2.09158 2.31205 2.54822 2.67695 1.73863 0.977696 1.79551 0.782999 1.1413 1.01917 1.50277 0.697919 132.313 346.318 183.08 239.838 355.778 65.737 126.603 195.36 201.247 227.023 131.539 370.156 187.828 249.351 362.313 196.564 239.846 128.371 358.115 182.318 236.269 343.58 188.055 230.398 122.42 338.263 172.71 222.035 323.166 177.771 216.687 115.121 317.224 161.778 208.736 303.369 167.306 202.699 107.575 296.196 150.706 195.672 283.466 156.725 188.626 99.981 275.24 139.678 182.26 263.494 145.875 174.822 92.4284 254.572 128.935 168.942 243.652 135.187 161.416 85.0786 234.518 118.592 155.996 224.326 124.725 148.404 78.1046 215.182 108.567 143.227 205.583 114.585 135.863 71.3776 196.711 99.1569 130.973 187.591 104.759 123.944 64.9145 178.952 90.0064 119.215 170.273 95.348 112.554 58.8157 162.09 81.3906 107.942 153.723 86.3052 101.541 53.0214 146 73.2505 97.1602 138.3 77.6912 91.3457 47.4232 130.743 65.3791 87.0999 123.482 69.7406 81.6487 42.3075 116.51 58.1859 77.5735 109.639 62.0725 72.4585 37.3363 102.997 51.2007 68.515 96.5192 54.8718 63.7729 32.7002 90.1519 44.8373 59.9859 84.2168 47.9618 55.7675 28.5428 78.5223 38.781 52.0946 72.8093 41.8194 48.2124 24.3904 67.3686 33.1757 44.8439 62.266 35.863 41.1662 20.7107 57.2891 28.052 38.0949 52.7404 30.3929 34.8225 17.3226 47.9391 23.378 31.9333 43.6444 25.5041 28.8882 14.1896 39.4634 19.0936 26.0751 35.6932 20.8695 23.8268 11.4965 31.9606 15.199 21.2265 28.5358 16.9983 18.8846 8.78316 24.9835 11.7284 16.7813 22.122 13.196 14.5758 6.71289 18.9538 8.72672 12.6269 16.2935 10.0314 10.8836 4.74561 13.7251 6.16794 9.12888 11.6635 7.04181 7.67043 3.28383 9.5539 4.11866 6.30943 8.01351 4.77558 5.18674 1.85995 6.1043 2.47842 4.09994 4.71405 2.94982 3.21005 0.942557 3.3783 1.31001 2.21186 2.71082 1.44048 1.84063 0.404757 1.576 0.60493 1.082 1.48299 0.750601 0.959614 0.305478 1.20223 0.392362 0.913034 0.711473 0.553341 0.438663 175.25 366.773 285.021 136.804 198.881 74.7232 136.804 144.874 130.042 106.4 153.734 62.0807 178.99 249.41 192.268 338.457 283.823 108.839 165.767 54.8324 115.743 146.942 162.751 222.276 182.04 318.595 268.532 101.84 158.414 51.8166 110.183 138.247 156.694 210.648 171.279 302.187 254.748 98.3283 152.217 50.0971 105.759 131.514 150.172 200.48 162.632 286.761 241.523 94.5108 144.718 48.0522 100.637 125.949 142.273 189.448 153.913 270.331 227.561 89.688 136.414 45.6068 94.899 119.668 133.543 177.855 144.671 252.903 212.837 84.2504 127.284 42.7355 88.6167 112.783 124.29 165.581 134.986 235.016 197.935 78.4086 118.094 39.7408 82.2956 105.274 115.061 153.407 125.144 217.111 183.026 72.5059 108.865 36.7078 75.8648 97.6605 105.877 141.377 115.453 199.634 168.264 66.7197 99.9109 33.72 69.6514 90.1849 97.0383 129.648 105.91 182.651 154.149 61.1068 91.193 30.8474 63.6594 82.7541 88.4117 118.277 96.8435 166.276 140.383 55.5996 82.8492 28.066 57.906 75.6105 80.136 107.391 87.936 150.54 127.27 50.296 74.8032 25.3529 52.3184 68.6198 72.3031 97.0341 79.5025 135.725 114.921 45.3376 67.3099 22.8528 47.1272 62.0113 64.8858 87.3136 71.6535 121.547 103.255 40.6114 60.0465 20.4287 42.0847 55.8428 57.7933 77.9198 64.146 108.272 91.9415 36.1373 53.3604 18.1755 37.4005 49.9707 51.1522 69.1414 56.8874 95.5031 81.5328 31.9272 46.8221 15.9673 32.8273 44.331 44.8885 60.7659 50.2552 83.8833 71.7096 28.0285 41.043 14.0337 28.8762 39.183 39.1198 53.174 44.1249 72.7464 62.5561 24.2773 35.3395 12.1105 24.8748 34.2684 33.6437 45.8191 38.2173 62.4253 54.0495 20.8794 30.2929 10.4147 21.3137 29.6349 28.6161 39.1582 32.8984 53.0997 46.3704 17.7171 25.4885 8.7379 17.9289 25.5321 24.1118 33.1718 28.1373 44.7211 39.1658 14.9208 21.28 7.36124 15.0345 21.7929 20.019 27.6378 23.4419 36.7995 32.5139 12.3457 17.3546 6.1002 12.338 18.1622 16.0631 22.4111 19.4851 29.5981 26.7068 9.8253 13.8671 4.80874 9.77969 14.9573 12.8056 18.0017 15.872 23.352 21.4995 7.83466 10.6177 3.7473 7.53565 12.1845 9.65549 13.8055 12.4632 17.5911 16.7133 5.86713 7.91223 2.78509 5.56703 9.54307 7.20398 10.3911 9.81664 13.2797 12.8017 4.42204 5.72561 2.07684 4.09862 7.46056 5.09482 7.55234 7.29616 9.2064 9.29957 3.07305 3.82653 1.44605 2.73531 5.45428 3.25415 4.97084 5.30278 5.71076 6.17974 1.96489 2.17442 0.873669 1.48715 3.92573 1.80207 2.84109 3.32342 3.34026 3.50778 1.18859 1.11419 0.501319 0.800451 2.54908 0.830057 1.45632 1.70865 1.58182 1.53187 0.530925 0.518711 0.217189 0.340605 1.33191 0.453772 0.590716 0.752873 0.864535 0.506384 0.330356 0.256405 0.152249 0.256405 0.586953 0.104156 0.266513 102.526 213.1 162.551 85.7228 123.921 75.6722 65.5878 92.7267 38.3885 147.589 121.501 237.199 189.446 76.172 119.828 95.979 161.137 123.016 228.966 185.902 73.15 115.083 94.9366 153.1 117.917 216.947 177.706 70.6651 110.343 91.4826 144.827 113.148 206.886 169.922 68.3918 105.762 88.51 137.634 108.217 196.64 161.887 65.5996 100.528 85.1046 130.151 102.851 185.647 153.029 62.1859 94.728 81.1799 122.398 97.0984 174.003 143.797 58.403 88.6268 76.6237 114.326 90.9496 161.995 134.334 54.5017 82.2547 71.8256 106.084 84.7636 149.986 124.786 50.5234 75.9708 66.9182 97.809 78.6451 138.144 115.544 46.5384 69.8354 61.9779 89.9719 72.6258 126.806 106.355 42.8018 63.9473 57.2608 82.2743 66.8484 115.669 97.7488 39.009 58.1423 52.5847 74.9288 61.2755 105.147 89.4272 35.4271 52.6745 48.1551 67.9258 55.8578 95.1609 81.3908 32.0888 47.6262 43.927 61.424 50.9995 85.7272 73.9048 28.9593 42.6695 39.9762 54.9576 46.0484 76.5731 66.6943 25.848 37.9997 36.0381 49.1522 41.5193 68.286 59.8703 23.1054 33.784 32.5118 43.5461 37.3716 60.6289 53.802 20.4781 29.7827 29.1574 38.5016 33.3484 53.0562 47.5611 17.9428 26.0199 25.9631 33.6056 29.6609 46.3661 42.0317 15.7225 22.4984 22.9547 29.0837 25.9798 40.0777 36.7745 13.6036 19.3555 20.0728 24.9914 22.7237 34.1521 31.8095 11.5428 16.2739 17.4532 21.1444 19.5174 28.8568 27.276 9.83198 13.7485 14.9836 17.8148 16.7619 24.2904 23.0616 8.21908 11.4066 12.8556 14.7843 14.0802 19.7528 19.1494 6.78961 9.11687 10.8015 11.8228 11.5673 15.9022 15.4781 5.44716 7.25399 8.86474 9.40211 9.40479 12.4344 12.1382 4.1969 5.44825 7.12947 7.13933 7.12375 9.37916 8.9771 3.24033 4.02004 5.39832 5.10136 4.9407 6.20429 5.88332 2.17113 2.49888 3.80462 3.13699 3.14669 3.56309 3.02958 1.20271 1.21371 2.37794 1.5077 1.37043 1.74592 0.971951 0.552194 0.485208 1.01991 0.554449 46.0193 118.058 79.3144 48.4729 70.1187 31.1763 35.8588 45.5366 21.334 81.6809 63.0782 136.91 108.721 43.3603 73.1178 49.9475 98.4821 73.0296 145.234 116.801 46.443 75.4743 57.2489 99.7559 74.6261 142.512 116.545 46.6559 74.075 58.843 96.5575 73.88 138.3 114.106 46.1232 72.203 58.6923 93.0842 72.5194 133.584 111.156 45.0193 69.6997 57.7932 89.4764 70.574 128.232 107.21 43.5519 66.6659 56.3823 85.2031 67.9616 122.033 102.732 41.5012 63.2182 54.2447 80.7702 65.0302 115.233 97.7606 39.2201 59.5011 51.8273 76.0326 61.8924 108.304 92.5775 36.8795 55.7112 49.2298 71.2283 58.525 101.364 87.1649 34.5793 51.9527 46.4696 66.4057 55.1614 94.3766 82.0426 32.2023 48.1725 43.6266 61.6662 51.9194 87.6714 76.9745 29.8608 44.6515 40.9144 57.2239 48.6586 81.1411 71.9277 27.6896 41.1826 38.3176 52.8715 45.51 74.9033 66.8424 25.6285 37.8069 35.8426 48.4807 42.3536 68.9488 62.1648 23.5734 34.7852 33.1585 44.6225 39.3163 63.1258 57.4144 21.6341 31.6472 30.7733 40.6412 36.3935 57.5033 52.9571 19.6835 28.7227 28.3426 36.98 33.5907 52.5099 48.6093 17.9954 26.1501 26.122 33.6585 30.7626 47.5926 44.2213 16.3909 23.5333 23.9123 30.1883 27.9262 42.8001 40.0339 14.6474 21.0458 21.6336 27.1337 25.295 38.0868 36.073 13.0177 18.6718 19.4742 24.0724 22.702 33.8689 32.0782 11.6279 16.4008 17.5143 21.1769 20.1399 29.5963 28.369 10.1257 14.2957 15.426 18.5144 17.6624 25.7517 24.5274 8.8439 12.232 13.6689 15.8536 15.2264 21.9628 20.772 7.55858 10.4502 11.7101 13.3899 12.8315 18.4086 17.4368 6.37515 8.56518 9.84181 11.0376 10.5551 15.0186 13.8808 5.18021 6.88317 8.10158 8.69061 8.25319 11.4903 10.6837 3.97487 5.21168 6.26992 6.63665 6.1281 8.42665 7.39323 2.93002 3.6046 4.75889 4.49496 3.91917 5.45214 4.23801 1.938 2.03823 3.16673 2.51764 1.75718 2.44544 1.06173 0.764133 0.731151 1.41667 0.688229 20.2024 41.1086 46.2443 16.6515 26.9644 25.3154 12.5701 20.4444 6.97379 33.2577 41.3414 66.1638 79.7247 18.7966 37.6268 27.9637 54.1995 56.0504 86.6763 92.5722 26.8653 45.4479 40.6984 61.8669 60.6213 92.8768 95.8642 30.296 48.258 45.3593 63.7472 61.9124 94.3817 96.0106 31.6233 48.908 47.0557 63.7195 61.785 94.1813 94.6586 31.9139 48.6826 47.3437 63.0038 60.8946 92.6781 92.3524 31.6338 47.7813 46.8708 61.5431 59.39 90.2753 89.4609 30.9292 46.3341 45.7994 59.6397 57.4655 87.2967 86.0868 29.9614 44.6258 44.3475 57.3637 55.1804 83.7539 82.375 28.8061 42.7451 42.6348 54.9085 52.873 80.0631 78.4817 27.5183 40.5966 40.8324 52.2119 50.3033 76.0538 74.5048 26.0773 38.5507 38.766 49.6539 47.8768 72.226 70.5802 24.8119 36.5514 36.9157 47.0292 45.3139 68.3126 66.5477 23.5363 34.4442 34.9993 44.2853 42.7161 64.3365 62.5679 22.2083 32.4301 32.9737 41.6763 40.1661 60.4808 58.7908 20.8727 30.3865 31.0542 39.0838 37.7836 56.6586 54.8939 19.5591 28.3664 29.1786 36.5163 35.237 52.8891 51.0614 18.2433 26.3971 27.2313 33.9521 32.7228 49.0429 47.3363 16.9654 24.4592 25.2434 31.436 30.2885 45.2541 43.4717 15.6368 22.4408 23.3593 28.8963 27.8827 41.4526 39.9013 14.3251 20.439 21.4561 26.2751 25.3752 37.8169 35.9811 13.006 18.6179 19.5809 23.9572 22.8531 34.1191 32.5358 11.8339 16.6983 17.6128 21.4729 20.4586 30.4668 28.8798 10.4864 14.8255 15.8344 19.1631 18.2523 26.9031 25.3579 9.31067 12.9665 14.0565 16.6537 15.9163 23.4067 21.827 8.06834 11.1277 12.2562 14.2701 13.2989 19.6881 18.042 6.75741 9.33363 10.3132 12.0142 11.0779 16.3129 14.7062 5.59952 7.57702 8.57994 9.73351 8.75756 12.9753 11.3632 4.43967 5.91611 6.85543 7.53136 6.5007 9.50032 8.11207 3.30059 4.16334 5.08341 5.26706 4.38452 6.29975 4.58937 2.20365 2.57417 3.48881 3.1226 1.97115 2.83321 1.22482 1.06817 0.764102 1.7005 0.65011 65.7311 54.2579 100.898 19.7191 24.5808 65.3428 24.5785 49.7347 11.8448 39.9497 80.4377 82.6704 127.051 23.5414 38.4531 52.4469 60.3718 89.5892 100.904 134.107 30.9777 46.6829 61.1901 67.5963 90.1244 105.727 132.826 33.9359 49.549 63.3245 69.1024 87.9112 105.911 128.827 34.817 50.2489 62.9198 68.6376 84.8135 104.084 123.921 34.7191 49.6328 61.4158 67.1253 81.3841 101.284 118.343 33.9823 48.527 59.2892 65.0282 77.4155 97.7691 112.472 32.933 46.9715 56.7158 62.7092 73.4168 93.6641 106.178 31.6354 45.1286 54.0223 59.9797 69.1456 89.3771 99.8749 30.2694 43.1685 51.0753 57.2355 64.9356 85.0191 93.6983 28.8599 41.0815 48.1727 54.2982 60.7736 80.3789 87.6008 27.3075 38.8521 45.1773 51.2491 56.6521 75.8186 81.5496 25.787 36.8219 42.2327 48.403 52.6761 71.3941 75.88 24.3294 34.7049 39.416 45.531 48.989 66.9671 70.3733 22.8557 32.581 36.7506 42.6489 45.3963 62.5405 65.0662 21.3711 30.572 34.1106 39.9436 41.8351 58.6158 59.838 20.1089 28.549 31.6627 37.1981 38.432 54.2893 55.0616 18.5798 26.5573 29.0754 34.6259 35.3228 50.4162 50.121 17.2575 24.6368 26.8749 31.9646 32.0156 46.2161 45.4773 15.9147 22.5616 24.4353 29.1741 29.0017 42.2246 41.143 14.4502 20.7629 22.0345 26.8073 26.1187 38.4347 36.9729 13.3135 18.7502 20.0648 24.1807 23.4864 34.64 32.8245 11.8415 16.8935 18.0084 21.8167 20.5605 30.8994 28.7591 10.687 15.0163 15.9833 19.2807 17.9891 27.2696 25.0994 9.43145 13.2215 13.9751 16.9732 15.5015 23.6844 21.1126 8.16424 11.491 12.1188 14.5578 12.8221 19.8289 17.4241 6.95614 9.42075 10.1225 12.0009 10.6054 16.3314 14.122 5.61834 7.69482 8.30626 9.74895 8.38927 12.9131 10.6771 4.4522 6.07604 6.58753 7.57034 6.0994 9.71794 7.39654 3.40617 4.36969 4.9215 5.38844 3.88066 6.38137 4.31248 2.29047 2.65211 3.19004 3.03383 1.86961 2.75692 1.24321 0.941583 0.85622 1.56208 0.850307 124.934 137.057 187.951 52.6091 68.509 116.404 52.5948 97.3292 27.4529 94.4464 141.379 162.56 210.41 49.814 74.0907 97.2577 109.582 143.585 171.218 208.529 53.6003 77.7516 100.223 110.95 138.186 167.773 200.006 53.8173 77.0526 97.8607 107.662 131.659 161.28 190.263 52.5369 74.6681 94.0997 103.11 124.959 154.091 180.038 50.6294 71.5963 89.9134 98.1768 117.854 146.278 169.291 48.3121 68.1592 85.1964 92.9841 110.615 138.082 158.305 45.7643 64.3677 80.2312 87.4972 103.065 129.665 147.082 43.1014 60.5893 74.9901 81.9721 95.5887 121.099 136.347 40.2967 56.5689 69.711 76.4308 88.3627 112.575 125.572 37.4681 52.7561 64.5283 71.067 81.1892 104.428 115.465 34.8589 49.0186 59.5534 65.8926 74.595 96.6021 105.699 32.3 45.3696 54.7989 60.767 68.0426 88.8933 96.2697 29.7622 41.8563 50.1174 55.9465 61.9395 81.7868 87.4786 27.4644 38.6271 45.7449 51.3537 55.9701 74.8819 79.0431 25.2113 35.5457 41.4899 47.0552 50.4848 68.3451 71.1811 23.038 32.3584 37.5942 42.8434 45.3603 61.9495 63.7524 20.9075 29.5301 33.8574 38.93 40.615 56.2565 56.8522 19.0566 26.7812 30.4442 35.1511 35.9992 50.6003 50.2258 17.0878 24.2236 27.0873 31.6568 31.7007 45.2257 44.1973 15.3699 21.6511 24.006 28.1601 27.6148 40.1025 38.3177 13.6813 19.3447 21.055 25.0364 24.0566 35.5297 33.2476 12.1751 17.1031 18.4271 21.9832 20.6557 30.8808 28.4868 10.5817 14.8841 15.8844 19.2038 17.7261 26.8142 23.9742 9.23042 12.9077 13.752 16.4415 14.6369 22.7281 19.835 7.90229 10.9154 11.4703 13.8346 11.9995 18.838 16.013 6.49886 8.83227 9.45631 11.2708 9.53494 15.1082 12.4895 5.18826 7.20415 7.44837 9.02379 7.11372 11.8465 9.18913 4.15039 5.50604 5.7339 6.77495 5.11262 8.44494 6.04449 2.92884 3.77975 4.10513 4.59949 3.12201 5.27906 3.65146 1.79373 2.21118 2.51448 2.64593 1.67183 2.60594 1.1377 0.949659 0.904584 1.40126 0.822052 200.665 237.334 289.865 91.2625 119.475 186.407 87.3161 156.358 46.5282 159.325 210.747 261.866 303.704 81.8 118.975 148.825 170.235 201.847 256.54 291.835 80.9834 117.425 143.155 164.782 191.103 243.956 276.874 78.3697 113.047 136.662 156.624 181.209 231.572 261.947 75.254 107.837 130.439 148.381 171.205 219.246 246.388 71.7248 102.26 123.861 139.96 160.668 206.309 230.297 67.7822 96.1375 116.667 131.188 149.766 192.789 213.777 63.4964 89.832 109.022 122.14 138.555 178.904 197.455 59.0273 83.2857 101.015 113.088 127.761 165.39 181.438 54.5227 76.9992 93.2195 104.403 117.077 152.14 165.96 50.3103 70.7274 85.6518 95.6513 106.868 139.205 151.061 45.9583 64.8106 78.1262 87.5346 97.0116 127.093 136.767 42.0966 59.148 71.1514 79.6925 87.6698 115.395 123.457 38.2056 53.6053 64.2991 72.1931 78.8151 104.268 110.766 34.4921 48.5738 57.9236 65.2556 70.6183 93.7632 98.5135 31.0929 43.6025 52.0367 58.3524 62.5992 83.7326 87.3354 27.8421 38.9312 46.1947 52.0625 55.2966 74.6274 76.8418 24.7676 34.7462 40.8707 46.2588 48.3145 65.8611 66.7995 21.9421 30.7339 35.8728 40.7143 41.8732 57.7407 57.7923 19.2549 26.9304 31.1461 35.6007 36.1234 50.2908 49.4505 16.793 23.5737 26.9545 30.9498 30.7128 43.3407 41.6625 14.6236 20.1877 23.102 26.3761 25.5398 36.9448 34.7609 12.385 17.3637 19.2844 22.6078 21.2466 31.2022 28.4706 10.5629 14.6226 16.1956 18.8928 17.1472 25.9826 22.6009 8.81417 12.3494 13.1708 15.6712 13.4266 21.1585 17.6576 7.23594 10.0363 10.4884 12.7074 10.4079 17.0158 13.4448 5.84699 8.01517 8.2179 9.96764 7.60428 12.9788 9.78659 4.5324 6.29987 6.13343 7.76362 5.52173 9.71327 6.67541 3.39503 4.47743 4.64187 5.47779 3.42048 6.52654 4.02473 2.39002 2.96996 2.98849 3.42565 2.02358 3.77017 2.4356 1.28843 1.69679 1.63884 1.91263 1.02362 1.98725 0.797952 0.815438 0.837604 0.871771 0.668271 140.381 391.106 191.336 145.619 179.54 71.6241 148.202 148.202 76.5781 233.077 135.043 363.692 188.493 114.445 166.482 127.972 233.458 125.969 343.03 178.067 108.721 159.212 119.255 221.844 118.915 325.638 168.078 104.802 152.188 113.504 210.052 112.505 309.133 158.503 100.487 144.791 108.132 198.435 105.897 291.68 148.826 95.3788 136.596 102.293 186.439 99.0248 273.136 138.62 89.6199 127.771 96.0357 173.782 91.9834 253.965 128.477 83.4627 118.827 89.2905 161.148 84.9874 234.731 118.54 77.229 109.633 82.6296 148.586 78.1648 215.941 108.793 71.086 100.615 76.0719 136.23 71.5395 197.528 99.4478 64.9706 92.0734 69.5396 124.551 65.2128 180.103 90.3699 59.3013 83.6407 63.5323 113.029 58.9432 162.981 81.6381 53.6361 75.6741 57.4396 102.173 53.1205 146.914 73.5009 48.2653 68.0425 51.7703 91.9279 47.7143 131.726 65.7864 43.2924 60.9589 46.3999 82.1385 42.4303 117.519 58.5154 38.7006 54.1949 41.4192 72.9986 37.5578 103.9 51.6328 34.0892 47.858 36.6107 64.4544 32.9674 91.2353 45.0446 29.9575 41.9585 32.2012 56.2793 28.5622 79.367 39.0243 26.1357 36.3989 27.969 48.6943 24.5598 68.2634 33.5432 22.4353 31.1737 24.0252 41.747 20.9041 58.2699 28.3921 19.1401 26.5859 20.4786 35.4124 17.5571 49.0328 23.7179 16.1125 22.3271 17.1868 29.5621 14.3824 40.252 19.1946 13.2397 18.2686 14.1989 24.0401 11.5647 32.8233 15.5766 10.8764 14.9158 11.4102 19.4614 9.12552 25.9408 12.0315 8.58646 11.6501 9.07922 15.0488 6.90608 19.7531 9.05593 6.48855 8.80578 6.82001 11.2871 4.82821 14.3815 6.37256 4.81231 6.52864 4.92858 8.18926 3.32828 10.2206 4.40403 3.45537 4.59924 3.44831 5.66792 2.12776 6.75049 2.59752 2.31959 3.09295 2.23092 3.47404 0.97235 3.73833 1.33241 1.40017 1.8178 1.17089 1.94859 0.466271 1.96952 0.709174 0.747033 1.12929 0.582782 1.20794 0.392141 1.42675 0.454944 0.546585 0.520072 0.45173 0.48802 
CELL_DATA 12288
SCALARS stress float 1
LOOKUP_TABLE default
64.5675 68.2305 44.0535 52.4843 83.3471 77.253 49.2061 60.0008 53.7628 58.4477 58.8878 54.1467 45.8957 55.5176 49.0161 53.3208 56.0467 52.0449 44.3759 52.3717 46.1144 50.1164 54.1228 50.8907 42.8769 49.2645 43.936 47.3637 51.6534 49.0726 41.017 46.1321 41.7785 44.5984 48.7399 46.6292 38.7648 42.9508 39.3776 41.6252 45.5992 43.7891 36.2174 39.771 36.8079 38.639 42.3658 40.7396 33.5897 36.6915 34.1687 35.7225 39.1342 37.7562 31.0104 33.631 31.5485 32.8246 35.9374 34.711 28.4452 30.7315 28.931 30.0748 32.8439 31.6788 25.9293 28.0048 26.4317 27.3751 29.8238 28.841 23.6145 25.2339 24.0272 24.7516 26.9757 26.1316 21.3391 22.6796 21.7088 22.3452 24.2261 23.4675 19.171 20.2692 19.5062 20.0348 21.6786 21.0015 17.0916 18.1154 17.4478 17.7875 19.2378 18.7451 15.0962 15.8592 15.5112 15.7503 16.9413 16.4414 13.3617 13.838 13.6539 13.8065 14.7708 14.4386 11.6702 12.0309 11.997 12.0139 12.7722 12.4836 10.079 10.2518 10.3864 10.3276 10.9226 10.7565 8.66296 8.65299 8.8783 8.72889 9.21942 9.06536 7.37302 7.25971 7.52543 7.37807 7.65334 7.54682 6.15346 5.9439 6.34033 6.09086 6.22194 6.1183 5.03409 4.68538 5.13929 4.90769 5.00359 5.05047 4.07567 3.6946 4.21423 3.8418 3.90804 3.95773 3.22683 2.63155 3.30359 2.96415 2.85133 2.91809 2.48845 1.98216 2.58021 2.18201 1.95696 2.08616 1.87604 1.2883 1.93212 1.53296 1.24247 1.40254 1.23951 0.836112 1.35602 1.06811 0.789784 0.972071 0.76476 0.394183 0.761556 0.570531 0.353072 0.442823 0.359438 0.149706 0.460168 0.259962 0.142834 0.179045 0.24238 0.193919 0.151397 0.178298 0.254614 0.12907 41.1855 40.0478 28.027 31.147 52.9772 46.9964 31.4348 43.5522 33.7122 40.1839 44.059 39.1593 31.6608 40.3005 33.5257 38.3521 41.3179 37.772 31.2215 37.8066 32.2649 35.9564 39.5146 36.8035 30.366 35.7679 31.055 34.0202 37.9754 35.7386 29.2797 33.8302 29.7844 32.2166 36.2069 34.3806 28.0225 31.7308 28.3449 30.3578 34.1884 32.666 26.5014 29.6418 26.78 28.3866 31.9994 30.6598 24.8289 27.4638 25.1283 26.4377 29.7229 28.5357 23.139 25.3687 23.3543 24.489 27.44 26.4068 21.4168 23.2966 21.6589 22.5645 25.2256 24.3478 19.7659 21.3689 19.9676 20.7086 23.037 22.2752 18.0813 19.3745 18.3352 18.8959 21.0192 20.4073 16.5744 17.5768 16.7557 17.153 19.0091 18.5034 14.9995 15.8308 15.2228 15.5477 17.1627 16.7031 13.6387 14.2288 13.8409 14.0367 15.3196 14.9873 12.2993 12.6598 12.483 12.5195 13.5979 13.3597 11.0368 11.2345 11.2356 11.1466 12.1282 11.9797 9.82843 9.91179 10.0285 9.8925 10.5839 10.4407 8.7942 8.64773 8.85892 8.71688 9.23435 9.18771 7.78369 7.4725 7.87352 7.56462 8.00641 8.02484 6.69388 6.4272 6.85804 6.60058 6.86852 6.91332 5.81753 5.44031 5.95193 5.59972 5.79629 5.88053 4.96548 4.56743 5.11904 4.75951 4.79596 4.94393 4.27649 3.80836 4.35936 3.98312 4.035 4.20821 3.54581 3.05184 3.59887 3.27355 3.22324 3.33679 2.88475 2.44007 2.98688 2.62304 2.50797 2.6574 2.30727 1.87512 2.37753 2.1146 1.88481 2.04805 1.74677 1.35904 1.84313 1.51103 1.35195 1.50762 1.18149 0.890144 1.30589 1.0647 0.880701 0.995645 0.760461 0.516817 0.783925 0.646797 0.467073 0.550543 0.338273 0.304623 0.359911 0.315653 0.258777 0.260283 22.1218 22.8613 15.5779 16.9306 32.0489 27.8941 15.9798 26.5136 17.1165 23.0097 26.9575 22.7228 18.6312 26.1428 19.4956 24.1217 27.2761 24.3205 19.6801 25.1152 20.1633 23.3518 26.8046 24.6168 19.9631 24.0704 20.1249 22.4645 26.0705 24.3736 19.7415 23.0178 19.7839 21.5982 25.1405 23.7711 19.2374 21.9266 19.2366 20.6511 24.1112 22.9472 18.5878 20.7062 18.5073 19.6304 22.8604 21.93 17.7184 19.4513 17.7068 18.575 21.4926 20.687 16.814 18.2119 16.7893 17.4449 20.1043 19.4105 15.8561 16.9715 15.877 16.3758 18.6602 18.0868 14.9289 15.7606 14.866 15.2746 17.3345 16.8273 13.878 14.5694 13.9391 14.1723 15.9426 15.6083 13.013 13.4357 12.9932 13.0971 14.7167 14.401 12.1481 12.3316 12.0962 12.134 13.4205 13.2301 11.2555 11.3411 11.2018 11.1143 12.2623 12.144 10.3655 10.3406 10.3826 10.2119 11.1503 11.085 9.55576 9.38309 9.54927 9.34144 10.06 10.0746 8.73738 8.53173 8.79843 8.50309 9.09118 9.17847 8.01926 7.68652 8.01092 7.69632 8.23011 8.27586 7.25115 6.79048 7.20279 6.92626 7.24481 7.41086 6.53545 6.10058 6.51581 6.18779 6.39308 6.60521 5.88231 5.40496 5.89801 5.50383 5.6066 5.77979 5.20016 4.69239 5.19667 4.86144 4.8738 5.07474 4.54746 4.05821 4.5526 4.22339 4.22864 4.41968 3.86953 3.4276 3.96837 3.6453 3.53326 3.73406 3.26138 2.81169 3.30205 3.02823 2.88992 3.13156 2.67584 2.27731 2.74669 2.46032 2.34786 2.48202 2.11009 1.76798 2.22077 1.90796 1.77478 1.90972 1.54122 1.29782 1.57166 1.39685 1.29945 1.45444 1.00105 0.778255 1.03647 0.854111 0.745269 0.814453 0.349386 0.3596 0.490332 0.404581 0.362066 0.352419 7.09936 8.74654 7.04289 5.02958 14.1275 11.8736 5.7712 13.7586 6.17807 11.356 13.0097 9.69649 11.447 15.4456 11.6586 14.0973 15.5551 13.6326 13.8799 15.8427 13.8566 14.8451 16.591 15.4743 14.8031 15.8041 14.6714 15.0366 16.9968 16.2799 15.1522 15.5807 14.9358 14.9795 16.9334 16.4573 15.1611 15.2209 14.9234 14.7472 16.5734 16.3373 14.8846 14.7782 14.6718 14.3905 16.1664 15.9386 14.5006 14.2264 14.3245 13.9085 15.5169 15.3856 14.0046 13.5906 13.8302 13.3325 14.8276 14.7418 13.4147 12.9713 13.294 12.7777 14.1407 14.0734 12.7473 12.3345 12.6344 12.1967 13.4055 13.3882 12.2045 11.7015 12.1162 11.5733 12.62 12.6763 11.5887 11.028 11.498 10.956 11.885 11.9213 10.9241 10.3804 10.8247 10.3186 11.1583 11.2442 10.2865 9.65121 10.2517 9.70642 10.369 10.5055 9.69145 9.05105 9.69226 9.1461 9.6634 9.77347 9.0252 8.46164 9.00027 8.49281 9.0395 9.19446 8.43142 7.87238 8.35847 7.91647 8.292 8.46813 7.83183 7.21887 7.77156 7.34233 7.64383 7.8189 7.10554 6.65166 7.13994 6.72593 6.98754 7.19823 6.53674 6.04429 6.53664 6.13106 6.36974 6.49145 5.95518 5.4 5.93212 5.52519 5.69519 5.89171 5.22805 4.83121 5.3138 4.95499 5.09401 5.25391 4.58335 4.27967 4.74451 4.38271 4.49756 4.58132 4.04419 3.68011 4.05851 3.80093 3.83518 3.95194 3.44923 3.09597 3.51526 3.21463 3.18198 3.4237 2.80616 2.53778 2.91914 2.66395 2.68124 2.74292 2.263 2.02181 2.29085 2.10799 2.12028 2.24038 1.64636 1.47807 1.77258 1.54931 1.50431 1.5978 1.16448 0.946296 1.26869 1.02276 0.990304 1.0888 0.430106 0.322798 0.595211 0.39125 0.32623 0.471354 17.3749 7.66427 13.2919 9.20022 6.32611 8.77393 14.7594 14.1549 15.8474 14.9519 9.63002 9.62642 18.0973 16.2314 18.6313 17.307 13.3688 13.8843 19.4079 16.6081 19.5936 17.7502 14.9204 15.7099 19.5708 16.5238 19.6523 17.5894 15.4652 16.3599 19.2966 16.1549 19.2815 17.1587 15.5485 16.4621 18.7768 15.6884 18.7447 16.6569 15.3858 16.2885 18.0784 15.1499 18.0621 16.0161 15.0195 15.8564 17.2745 14.5301 17.2334 15.3653 14.5312 15.2764 16.4214 13.9303 16.3935 14.6555 13.9503 14.6657 15.4741 13.2375 15.4605 13.8815 13.3428 14.023 14.5743 12.5543 14.6043 13.085 12.7153 13.2817 13.6883 11.8978 13.7165 12.3644 12.1406 12.6192 12.8727 11.1684 12.8316 11.6488 11.4311 11.9161 11.9903 10.495 11.9788 10.9319 10.7855 11.2398 11.2009 9.91406 11.2156 10.1987 10.1571 10.5547 10.3624 9.21463 10.3726 9.55877 9.50528 9.90351 9.60207 8.59211 9.62566 8.82618 8.87957 9.20853 8.86782 7.95387 8.90218 8.16827 8.21198 8.50004 8.11901 7.34218 8.10674 7.49714 7.66031 7.83346 7.39584 6.74125 7.39335 6.88578 7.01105 7.20739 6.69365 6.10018 6.70807 6.3034 6.38863 6.59509 5.95463 5.46272 6.04313 5.6003 5.75609 5.94423 5.30784 4.92878 5.39647 4.98422 5.12015 5.2906 4.67621 4.31066 4.7943 4.38679 4.50978 4.69228 4.06445 3.74843 4.13609 3.81851 3.96333 4.05989 3.44233 3.18811 3.48697 3.27553 3.31655 3.39895 2.78025 2.6162 2.86443 2.65563 2.70397 2.76106 2.18301 2.05329 2.22321 2.07087 2.15896 2.17741 1.55306 1.54636 1.70809 1.55977 1.58265 1.6658 1.05102 0.943816 1.12457 1.00487 1.07356 1.11803 0.494845 0.42342 0.538266 0.45 0.392716 0.414764 35.9616 21.8059 25.3203 22.2233 22.3066 23.6582 29.374 26.9787 31.5837 28.8516 21.498 22.3386 30.7099 27.3825 32.0883 29.7014 23.2397 24.4939 30.5992 26.512 31.3372 28.6984 23.5013 24.9694 29.784 25.3705 30.2361 27.4122 23.0397 24.5989 28.5934 24.0802 28.9658 26.0312 22.2637 23.8437 27.2512 22.7945 27.49 24.6351 21.3645 22.8238 25.694 21.4802 25.9077 23.2331 20.2951 21.6599 24.0761 20.1596 24.2995 21.7132 19.1877 20.4131 22.4585 18.8574 22.7196 20.2903 18.0565 19.2517 20.8177 17.5482 21.0714 18.8251 16.8825 17.9028 19.2652 16.2713 19.4457 17.3886 15.7357 16.7237 17.6942 15.0563 17.9116 16.1233 14.6519 15.4754 16.288 13.8947 16.4723 14.7584 13.6227 14.3142 14.8419 12.7446 15.0613 13.5453 12.5836 13.2524 13.5398 11.7396 13.7142 12.3437 11.6556 12.1992 12.2599 10.6783 12.455 11.3467 10.7095 11.2195 11.0897 9.77235 11.2252 10.2377 9.81619 10.216 9.99842 8.81537 10.069 9.24721 8.98279 9.37037 8.94128 7.95 9.04497 8.31368 8.15964 8.40121 7.9472 7.15905 8.10037 7.35689 7.37541 7.62654 7.07722 6.34766 7.14667 6.54676 6.5993 6.75912 6.12417 5.6061 6.17073 5.72346 5.81955 6.03495 5.40763 4.90343 5.47416 5.0425 5.10872 5.21775 4.49258 4.24924 4.64083 4.34305 4.42833 4.54951 3.86165 3.60216 4.0028 3.73939 3.82803 3.95664 3.19938 2.97595 3.30472 3.02654 3.22172 3.34255 2.49817 2.4682 2.63292 2.46734 2.64539 2.6599 1.9223 1.87521 1.98646 1.92787 2.04699 2.12271 1.36862 1.31098 1.40549 1.35726 1.43148 1.44912 0.876891 0.856158 0.934925 0.868785 0.971438 0.985038 0.32995 0.388564 0.40058 0.448633 0.391084 0.442456 58.0466 38.8321 40.5044 38.4962 41.5364 42.1285 45.9426 43.1821 49.8242 45.6336 36.9968 37.6421 44.6225 41.3694 46.8865 44.2837 36.6085 37.8011 43.3412 39.0699 44.6101 41.7525 35.5135 37.0256 41.7406 36.9018 42.5449 39.4427 34.1018 35.7016 39.7407 34.7751 40.4085 37.1845 32.4602 34.1001 37.4902 32.5592 38.1584 34.8776 30.6758 32.2802 35.1284 30.3932 35.6789 32.507 28.6974 30.2441 32.6002 28.197 33.186 30.1563 26.765 28.1971 30.1118 26.003 30.6576 27.8659 24.7771 26.1497 27.718 23.9414 28.2237 25.6184 22.8674 24.0492 25.3423 21.9036 25.7568 23.3753 21.0672 22.1026 23.0808 19.9825 23.4505 21.351 19.2209 20.1485 20.9168 18.0939 21.2901 19.3397 17.5379 18.371 18.8744 16.4033 19.2181 17.4528 15.8762 16.6208 16.8655 14.733 17.2328 15.6807 14.3786 14.9964 15.0703 13.1593 15.4448 13.9604 12.9364 13.4493 13.3356 11.6746 13.6262 12.4124 11.532 12.0116 11.8109 10.3008 12.0097 10.967 10.3249 10.7571 10.2821 9.04395 10.4662 9.56689 9.09528 9.41947 8.82566 7.89544 9.12085 8.32669 7.9697 8.21785 7.58066 6.80181 7.78001 7.11673 7.05179 7.24142 6.40525 5.81566 6.59386 6.06182 5.95881 6.10409 5.31504 4.92939 5.50008 5.10981 5.21094 5.31389 4.49068 4.08967 4.59816 4.22086 4.30029 4.40934 3.55249 3.44224 3.67974 3.42868 3.56162 3.5696 2.76608 2.65347 2.9025 2.75699 2.89445 2.94358 2.09796 2.0687 2.24822 2.13449 2.27549 2.34562 1.5444 1.51734 1.65009 1.56256 1.71493 1.71185 0.956035 1.02656 1.05765 1.01903 1.21361 1.18926 0.468045 0.608201 0.567339 0.593432 0.750403 0.68828 0.242098 0.394256 0.296425 0.32356 0.316171 0.323472 92.126 61.0845 71.8361 66.4606 65.0208 64.2416 62.5664 60.1176 66.4605 62.9914 53.9233 53.8314 59.2059 55.6545 61.286 58.8297 50.7698 51.6898 57.409 52.5531 58.7728 55.5648 48.6896 50.1278 55.0191 49.5723 56.1 52.5508 46.4531 48.1392 52.1073 46.618 53.0352 49.4167 43.9647 45.7027 48.9139 43.5361 49.7769 46.1778 41.2433 42.9655 45.5075 40.394 46.3996 42.9152 38.5011 40.0888 42.1552 37.3094 42.9043 39.6285 35.6194 37.1182 38.6892 34.2699 39.4925 36.4548 32.7591 34.088 35.4501 31.3176 36.1951 33.2869 30.0848 31.32 32.3337 28.5017 32.9899 30.3318 27.3884 28.5012 29.2164 25.759 29.9115 27.5042 24.8353 25.827 26.3248 23.2468 26.9978 24.7737 22.4468 23.3146 23.5843 20.8199 24.2432 22.199 20.1256 20.8887 20.968 18.5013 21.5471 19.7538 17.9155 18.6185 18.5986 16.4419 19.1087 17.4524 15.9511 16.5392 16.2664 14.3537 16.8065 15.3104 14.0176 14.4913 14.1625 12.4431 14.5474 13.2687 12.2704 12.6621 12.1184 10.6983 12.5751 11.4272 10.6112 10.9745 10.3078 9.07399 10.7001 9.78225 9.0134 9.30314 8.65836 7.63876 8.89216 8.17459 7.63822 7.85533 6.98643 6.31561 7.47484 6.69197 6.346 6.5561 5.7361 5.09441 5.99667 5.39999 5.15115 5.31178 4.49059 4.0094 4.68602 4.25033 4.24525 4.35138 3.3881 3.1085 3.61386 3.19169 3.27708 3.26201 2.42293 2.25108 2.66332 2.31472 2.46519 2.48175 1.69099 1.59327 1.66026 1.6255 1.76528 1.78847 0.938496 1.05551 1.1723 1.03053 1.1977 1.20647 0.521204 0.637258 0.568867 0.490065 0.766815 0.701672 0.236625 0.285148 0.260328 0.249062 0.337265 0.322812 0.21097 0.201946 0.196538 0.225561 0.236185 0.151447 41.9454 63.8923 34.357 47.4597 69.2608 68.6412 55.0317 59.7317 54.7228 58.2563 62.7989 61.0032 52.0228 57.5232 53.1812 55.6161 60.6783 57.8288 48.1753 54.3591 49.3545 52.4286 57.3177 54.5168 45.1156 50.8137 46.0994 49.0641 53.6827 51.1512 42.1608 47.1074 42.997 45.6512 49.9101 47.6846 39.2394 43.5698 39.9968 42.2795 46.2721 44.2715 36.3558 40.1346 37.0704 39.0101 42.6971 40.972 33.5979 36.8234 34.1641 35.842 39.2459 37.7059 30.8728 33.6948 31.4128 32.9082 35.9531 34.5642 28.2252 30.7065 28.8022 29.9575 32.818 31.5816 25.7353 27.8259 26.2249 27.2673 29.7501 28.6601 23.2914 25.1767 23.7871 24.6842 26.8165 25.8745 21.0059 22.5982 21.4907 22.2104 24.2001 23.3033 18.8731 20.1815 19.2982 19.9312 21.6004 20.8224 16.8354 17.916 17.1981 17.7112 19.1404 18.5101 14.8537 15.7344 15.2558 15.5952 16.8543 16.2888 13.0806 13.69 13.4101 13.6362 14.7298 14.271 11.3827 11.8794 11.6859 11.8746 12.6463 12.2664 9.76569 10.1174 10.107 10.1809 10.7641 10.5071 8.35967 8.59795 8.66747 8.64322 9.12144 8.83295 7.06163 7.17005 7.23555 7.16555 7.59045 7.43351 5.79406 5.76302 6.0331 5.93375 6.0911 6.03888 4.74727 4.61787 4.90195 4.75365 4.77557 4.73944 3.8152 3.55606 3.95138 3.77034 3.75293 3.76343 2.97708 2.68693 3.07498 2.80175 2.65603 2.71146 2.16162 1.79642 2.29217 2.0339 1.915 1.98775 1.59963 1.19338 1.72806 1.47486 1.18589 1.24875 1.07084 0.760538 1.13574 0.947209 0.634739 0.727084 0.629881 0.316537 0.690559 0.537068 0.288029 0.363255 0.283088 0.154431 0.376397 0.289339 0.121945 0.105126 0.182155 0.168142 0.154775 0.139341 0.108913 0.167346 23.8072 33.9473 19.0597 25.8185 35.7505 33.9122 36.3402 44.3186 35.6733 41.091 47.8046 45.0657 36.5274 43.0526 36.9705 40.7455 45.9354 43.1008 34.1578 39.9949 35.0222 38.1376 42.5512 39.9678 31.9574 37.2055 32.6812 35.5147 39.7615 37.4205 29.9351 34.5904 30.5947 33.0792 37.1015 35.0654 28.0485 32.0543 28.6038 30.6815 34.5625 32.7548 26.2139 29.6686 26.6187 28.435 32.0483 30.492 24.3819 27.3557 24.7563 26.3299 29.6193 28.2329 22.5384 25.1173 22.8752 24.2279 27.1947 25.9631 20.7991 23.022 21.124 22.2398 24.9325 23.8633 19.062 20.9991 19.4356 20.3069 22.7427 21.8405 17.4561 19.0883 17.7302 18.5439 20.6586 19.8147 15.9129 17.2446 16.1604 16.788 18.6059 17.9425 14.4546 15.5157 14.672 15.1725 16.764 16.1251 13.0394 13.9016 13.2692 13.6432 15.0161 14.5244 11.7159 12.3402 11.9188 12.169 13.2874 12.87 10.4733 10.9038 10.6345 10.7853 11.7404 11.3933 9.27088 9.50566 9.45286 9.5133 10.24 10.0186 8.18577 8.34898 8.398 8.35873 8.86669 8.68801 7.18119 7.19271 7.34568 7.23544 7.65344 7.52563 6.26206 6.13865 6.38439 6.19295 6.5229 6.44042 5.40456 5.13041 5.52536 5.33957 5.41515 5.41193 4.64494 4.30585 4.71037 4.48017 4.48845 4.51465 3.86207 3.48641 3.95005 3.71395 3.66578 3.73713 3.21197 2.81631 3.29702 3.07523 2.93852 2.98988 2.5936 2.2793 2.62535 2.43171 2.23219 2.31534 2.06042 1.69378 2.15655 1.89031 1.68183 1.79533 1.53513 1.21443 1.59815 1.37769 1.24082 1.31728 1.0478 0.799645 1.11828 0.977399 0.783531 0.815241 0.621131 0.477983 0.692112 0.531418 0.364419 0.458569 0.263146 0.259274 0.272946 0.346067 0.260214 0.272252 11.9611 18.9295 9.42481 13.673 20.0797 19.0685 20.773 28.0579 20.3437 24.6668 30.1832 27.5173 22.6733 28.6903 23.0998 26.5182 31.0538 28.3405 21.74 26.9665 22.3874 25.2064 29.2057 26.849 20.5762 25.0663 21.1364 23.4429 27.287 25.2893 19.5884 23.3354 19.9241 21.9143 25.5408 23.8762 18.6176 21.8136 18.8516 20.5361 23.9715 22.5426 17.6716 20.3108 17.8584 19.1897 22.4157 21.1945 16.7562 18.9535 16.8106 17.9758 20.9265 19.8499 15.7806 17.6488 15.8113 16.7862 19.4202 18.5194 14.8257 16.3671 14.866 15.6306 18.0051 17.2281 13.868 15.1476 13.9277 14.53 16.5613 15.9116 12.9184 13.916 12.9829 13.3864 15.2917 14.7101 12.006 12.7992 12.0258 12.4368 13.9824 13.5073 11.1517 11.7607 11.2319 11.4444 12.7834 12.4211 10.2728 10.7465 10.3554 10.4682 11.5846 11.3027 9.49576 9.75814 9.55154 9.59506 10.5477 10.3007 8.72047 8.85391 8.79119 8.76462 9.51305 9.34646 7.98158 7.97359 8.03233 7.94367 8.51897 8.47185 7.2642 7.14231 7.29344 7.16958 7.57642 7.57119 6.52853 6.36723 6.63343 6.40892 6.7058 6.7448 5.88719 5.64092 5.93014 5.7371 5.92869 5.99027 5.23673 4.92663 5.30072 5.04918 5.1986 5.24797 4.65269 4.27529 4.74902 4.48065 4.47909 4.56052 4.02413 3.70403 4.10047 3.82826 3.85991 3.93087 3.43365 3.1472 3.53129 3.28254 3.19808 3.31287 2.94228 2.56015 3.03849 2.74624 2.6857 2.75106 2.38768 2.08982 2.43135 2.20886 2.06691 2.17491 1.82595 1.62272 1.98127 1.70036 1.59261 1.71518 1.3376 1.11095 1.4167 1.20614 1.13082 1.21702 0.854831 0.664514 0.952151 0.780063 0.599546 0.714178 0.396412 0.296522 0.448989 0.363111 0.287743 0.295597 2.97388 9.23809 2.00062 5.5273 9.05978 7.70923 12.4006 16.8518 12.3016 14.8803 16.9648 14.8973 15.1305 18.1572 15.7252 17.1131 18.7577 16.8538 15.1594 17.3209 15.7616 16.542 18.2252 16.7308 14.7746 16.2704 15.1515 15.5785 17.3145 16.2115 14.363 15.3599 14.534 14.6965 16.512 15.6848 13.9447 14.5934 14.0028 14.0361 15.8324 15.185 13.5403 13.9137 13.5317 13.4882 15.1224 14.6106 13.082 13.2327 13.0506 12.8297 14.415 14.057 12.5737 12.6165 12.5353 12.2797 13.6931 13.4126 11.9903 11.9808 11.9907 11.7353 12.9907 12.7454 11.4957 11.4001 11.4494 11.2022 12.271 12.0673 10.9073 10.6985 10.8597 10.554 11.5129 11.4245 10.3756 10.119 10.3281 9.97635 10.8412 10.7568 9.79535 9.49767 9.75952 9.41742 10.1499 10.1167 9.22962 8.89958 9.19221 8.88921 9.47318 9.43964 8.65852 8.34514 8.64647 8.33421 8.82229 8.83995 8.06637 7.76445 8.08423 7.74837 8.1032 8.20604 7.52553 7.1923 7.57617 7.20672 7.46814 7.59739 6.99341 6.59521 7.0321 6.65264 6.85854 6.97092 6.41959 6.0579 6.457 6.12592 6.25895 6.39544 5.8318 5.49398 5.88608 5.60265 5.71002 5.7816 5.32431 4.94508 5.37422 5.03414 5.11807 5.20492 4.72321 4.40597 4.7796 4.49558 4.56173 4.69018 4.17758 3.91313 4.2838 4.01284 4.01813 4.10602 3.64205 3.35557 3.68563 3.47027 3.42357 3.51303 3.10398 2.81773 3.19027 2.93837 2.88809 2.98831 2.54322 2.28729 2.62045 2.38347 2.33579 2.43868 1.97728 1.83537 2.10878 1.91184 1.84816 1.94439 1.46019 1.31965 1.63137 1.444 1.34098 1.42565 0.961206 0.873881 1.07313 0.898735 0.842084 0.899038 0.367855 0.353101 0.489299 0.353572 0.316385 0.392952 9.98056 9.28211 7.55075 8.00273 5.90288 6.90499 19.053 17.0934 18.4679 17.4486 14.1574 14.4057 21.2491 18.6079 21.8683 19.8648 16.2278 16.5037 20.7513 17.8424 21.4522 19.3031 16.06 16.5291 19.777 16.7711 20.2896 18.1074 15.4619 16.1305 18.8093 15.8091 19.1655 16.9936 14.8553 15.6164 17.8831 14.9963 18.1058 16.0494 14.3085 15.0419 17.0294 14.2728 17.1652 15.225 13.7929 14.5044 16.1091 13.5714 16.2145 14.4395 13.215 13.9093 15.2078 12.8233 15.3325 13.6236 12.638 13.307 14.3079 12.2714 14.4506 12.8846 12.0898 12.66 13.4616 11.584 13.5722 12.1703 11.486 12.0205 12.5922 10.9213 12.6884 11.4426 10.9155 11.3694 11.7835 10.3112 11.8584 10.7931 10.3612 10.762 10.9722 9.69312 11.0667 10.0758 9.77915 10.1352 10.1871 9.07138 10.2064 9.4399 9.1846 9.52827 9.49964 8.50899 9.48653 8.7735 8.58647 8.84256 8.70627 7.88455 8.81864 8.15141 8.02155 8.28291 7.99137 7.28212 8.07266 7.51029 7.45955 7.71271 7.36071 6.76091 7.41443 6.91073 6.85704 7.09676 6.70609 6.14362 6.75039 6.25214 6.33716 6.48576 6.0836 5.56611 6.11627 5.65148 5.72168 5.89113 5.39213 5.01857 5.51509 5.13538 5.21015 5.32449 4.80537 4.56711 4.904 4.63643 4.62724 4.80237 4.21386 3.9358 4.27613 4.05149 4.05352 4.19395 3.64259 3.40508 3.70071 3.4397 3.55946 3.62394 3.03408 2.89064 3.10672 2.92628 2.98005 3.08058 2.49891 2.34882 2.60134 2.42799 2.41496 2.53347 1.92858 1.82983 2.04254 1.90424 1.91201 2.024 1.42788 1.33678 1.49132 1.39462 1.34812 1.47126 0.893669 0.868966 1.04012 0.9032 0.920379 0.914563 0.398521 0.406941 0.528187 0.441935 0.418424 0.353472 21.4 18.9721 16.8525 17.9068 15.6151 18.2876 33.4324 28.1913 32.4386 29.5968 24.6176 26.3195 34.4871 29.4073 35.0424 31.7675 25.9975 27.4248 32.6074 27.8532 33.5312 30.3729 24.9385 26.3361 30.607 25.968 31.3379 28.3173 23.4091 24.9465 28.7062 24.1427 29.3221 26.3512 22.0337 23.5678 26.8988 22.5109 27.4127 24.5006 20.7375 22.1589 25.1334 21.055 25.5623 22.7758 19.5665 20.8634 23.393 19.5497 23.8008 21.238 18.295 19.5157 21.6713 18.2065 22.0379 19.7144 17.064 18.2168 20.1156 16.8778 20.4088 18.2 15.924 16.9343 18.4634 15.6626 18.8156 16.8381 14.8847 15.7974 16.9474 14.3981 17.2992 15.5216 13.7855 14.5958 15.5268 13.2308 15.771 14.2128 12.7893 13.5108 14.1709 12.1876 14.3555 12.9686 11.806 12.3921 12.8027 11.1554 13.1288 11.8392 10.8184 11.3989 11.5977 10.1213 11.8127 10.6861 9.95837 10.3288 10.4289 9.22263 10.6213 9.70509 9.0916 9.49881 9.34569 8.29557 9.61985 8.72673 8.2308 8.5579 8.31367 7.4947 8.57093 7.79041 7.53945 7.77484 7.37442 6.6632 7.55681 6.93882 6.73065 6.99245 6.47893 5.93113 6.65261 6.07576 6.01095 6.19353 5.62957 5.22567 5.72657 5.35722 5.346 5.46718 4.89602 4.60707 5.00303 4.7101 4.70113 4.79381 4.16375 3.90552 4.24941 4.00472 4.03679 4.16186 3.47943 3.38008 3.57317 3.34011 3.48844 3.53889 2.84392 2.78456 2.94554 2.74424 2.86096 2.9274 2.24195 2.25176 2.3697 2.24462 2.32328 2.38023 1.70707 1.72147 1.86487 1.69132 1.77255 1.82288 1.19423 1.17874 1.3273 1.20918 1.30551 1.24287 0.732204 0.78549 0.813419 0.757331 0.794324 0.817393 0.345645 0.393651 0.433713 0.441424 0.400162 0.380769 37.5049 33.1821 31.3364 32.4523 28.7617 32.5561 50.7469 43.6274 50.2859 45.7536 40.0546 42.1126 49.2998 43.4247 50.1442 46.3308 40.0328 41.655 46.0266 40.7907 47.1859 43.6401 37.5088 39.1372 43.0699 37.8962 44.1013 40.6611 35.0977 36.6843 40.345 35.2144 41.1917 37.7649 32.7574 34.3954 37.6431 32.7126 38.4067 35.0956 30.53 32.1106 34.9575 30.238 35.6479 32.4781 28.3783 29.9116 32.3204 27.9205 32.9486 30.0206 26.3145 27.7368 29.7369 25.7117 30.3999 27.5942 24.2327 25.563 27.3279 23.5732 27.8794 25.3026 22.3759 23.5532 24.9387 21.5164 25.3928 23.1342 20.4691 21.5663 22.6367 19.6641 23.1462 21.0487 18.6472 19.6027 20.5152 17.7535 20.9696 19.0334 16.9922 17.7733 18.4405 16.0034 18.8834 17.1422 15.403 16.1275 16.4834 14.4032 16.9359 15.3911 13.8246 14.4711 14.7344 12.8319 15.0645 13.7082 12.4051 12.9207 12.9626 11.4385 13.3463 12.1112 11.0697 11.5506 11.3823 10.0409 11.6678 10.671 9.80504 10.2044 9.86195 8.83085 10.1871 9.23998 8.67267 8.94362 8.55529 7.64621 8.75177 8.01189 7.5536 7.80345 7.22885 6.49896 7.49268 6.90735 6.53113 6.698 6.08434 5.5201 6.30938 5.81193 5.60709 5.79014 5.03036 4.63586 5.26568 4.81263 4.73931 4.85774 4.07614 3.82582 4.2859 3.98777 3.94437 4.04284 3.25611 3.17526 3.40247 3.15884 3.2685 3.32128 2.54347 2.52381 2.6809 2.50083 2.66035 2.63048 1.84675 1.93579 2.02534 1.89887 2.04864 2.04706 1.32177 1.38087 1.38927 1.41313 1.53264 1.47902 0.830602 0.96331 0.977417 0.924387 1.01831 1.01663 0.489725 0.591161 0.553246 0.565805 0.675524 0.596506 0.20821 0.352098 0.213206 0.263166 0.39774 0.310851 68.084 54.1461 65.7971 60.2287 48.1785 52.5078 66.3644 60.3473 68.1743 62.7893 57.2735 59.177 63.7566 57.733 64.4458 60.5781 54.6844 56.293 60.1754 54.231 61.1055 57.3096 51.0851 52.7805 56.5661 50.7765 57.6459 53.7764 47.8202 49.5442 52.9128 47.2361 53.9315 50.1376 44.6725 46.4019 49.2158 43.8667 50.2623 46.5724 41.5069 43.2325 45.5986 40.4803 46.6096 43.0861 38.4655 40.0888 42.0939 37.2807 42.943 39.6259 35.4839 36.9826 38.6181 34.1335 39.4999 36.3406 32.5809 33.9327 35.2631 31.2221 36.1019 33.1993 29.8336 31.0688 32.1196 28.3287 32.905 30.2184 27.144 28.2741 29.0876 25.6373 29.7822 27.346 24.5726 25.5601 26.0947 23.1217 26.867 24.6389 22.1849 23.1122 23.463 20.6989 24.0481 22.0595 19.9018 20.6871 20.8664 18.4095 21.4066 19.611 17.743 18.4576 18.412 16.2079 19.0311 17.3513 15.7414 16.3287 16.1027 14.2094 16.6674 15.2084 13.7742 14.2757 13.9911 12.3341 14.5278 13.1888 12.01 12.4282 12.0623 10.6239 12.4232 11.3479 10.3833 10.7434 10.215 8.96785 10.5493 9.60053 8.84735 9.08516 8.5011 7.48539 8.88665 7.99577 7.40802 7.6326 6.93014 6.20223 7.35612 6.61023 6.16371 6.38355 5.53643 4.97778 5.94371 5.30188 4.96245 5.07355 4.31418 3.92133 4.64281 4.08782 3.96999 4.0419 3.25031 2.97575 3.48312 3.17228 3.12351 3.1701 2.28245 2.18481 2.48495 2.25364 2.29165 2.28061 1.48473 1.56267 1.71304 1.50752 1.61058 1.55397 0.88284 0.974474 1.05578 0.951898 1.10226 1.08292 0.400801 0.555909 0.562252 0.456466 0.588096 0.592395 0.173309 0.294301 0.225394 0.227805 0.381759 0.323949 0.155622 0.234091 0.129395 0.156216 0.194216 0.102507 39.7445 63.797 32.086 46.527 68.9647 67.9989 53.6792 58.2479 52.7019 56.9652 60.2088 59.3191 52.7305 57.2717 53.5829 55.491 60.5027 58.4059 49.7053 54.8466 50.5745 53.0665 58.2303 55.8315 46.3617 51.5193 47.272 49.8528 54.6628 52.3504 43.0842 47.7736 43.9551 46.3248 50.7703 48.6188 39.8245 43.9875 40.6445 42.7327 46.8404 44.8998 36.6717 40.358 37.4521 39.2841 43.0832 41.3322 33.7074 36.9653 34.3891 36.064 39.4606 37.8791 30.8609 33.7776 31.4891 32.9361 36.0883 34.6732 28.2004 30.6614 28.8179 30.0295 32.8508 31.6014 25.6435 27.8347 26.1799 27.285 29.8144 28.6838 23.2197 25.185 23.7154 24.6341 26.8695 25.8565 20.9163 22.5577 21.3788 22.1816 24.0904 23.2114 18.7145 20.1453 19.1606 19.8415 21.5859 20.7853 16.7053 17.8675 17.1349 17.5835 19.0795 18.3993 14.7284 15.7287 15.1283 15.5313 16.8175 16.2187 12.8935 13.7274 13.3438 13.6248 14.5866 14.0517 11.2426 11.7844 11.5463 11.8183 12.6664 12.2389 9.6625 10.0934 9.98151 10.1226 10.7637 10.396 8.21238 8.54778 8.48709 8.62285 9.11177 8.85803 6.9103 6.98048 7.16678 7.17342 7.452 7.28051 5.66813 5.65771 5.96202 5.87473 6.09456 5.93095 4.6463 4.5288 4.80861 4.71735 4.76755 4.72488 3.66002 3.43296 3.81105 3.63705 3.67675 3.59759 2.83676 2.59053 2.97682 2.80596 2.67537 2.71811 2.11811 1.80855 2.23237 1.965 1.89461 1.89597 1.43561 1.1257 1.56578 1.34469 1.24627 1.2104 1.00324 0.672861 1.12577 0.851989 0.603957 0.694564 0.596189 0.324216 0.637986 0.555114 0.383428 0.304409 0.247238 0.142208 0.269693 0.217114 0.137465 0.0996519 0.107129 0.125911 0.118322 0.197046 0.101801 0.139842 21.2372 32.7846 16.0958 24.3203 33.9169 30.9191 35.7259 43.7845 34.2967 40.4092 46.9681 44.6168 37.6035 43.6209 37.8597 41.2988 46.744 44.4579 35.6833 40.994 36.4569 39.1564 43.9064 41.5704 33.1296 37.9843 33.8704 36.3682 40.8792 38.6915 30.6761 35.154 31.3832 33.6796 37.8831 35.8916 28.3995 32.4118 28.9866 31.0816 35.0013 33.2011 26.2483 29.8137 26.754 28.6031 32.2269 30.608 24.2269 27.3143 24.7394 26.3499 29.656 28.2189 22.3323 25.1041 22.7498 24.1719 27.1378 25.8742 20.5347 22.9246 20.8732 22.1007 24.8264 23.6874 18.7953 20.8805 19.1261 20.198 22.607 21.6168 17.1148 18.9011 17.4517 18.3498 20.5008 19.6119 15.5947 17.1236 15.9084 16.6794 18.4716 17.7351 14.1153 15.349 14.3648 14.9697 16.5671 15.9373 12.7234 13.7242 12.9672 13.4528 14.7822 14.2738 11.3842 12.1586 11.6507 12.0213 13.0725 12.6102 10.1609 10.7838 10.3563 10.6257 11.5415 11.1729 9.00271 9.3823 9.22199 9.34401 10.1544 9.80483 7.93532 8.16178 8.07527 8.16144 8.73586 8.46496 6.92246 6.98456 7.0593 7.06321 7.46845 7.31541 5.97791 5.99949 6.14595 6.07623 6.37866 6.24612 5.07519 5.02982 5.27091 5.12586 5.24667 5.19697 4.35798 4.10602 4.5229 4.29919 4.31591 4.36001 3.62282 3.3797 3.74942 3.55416 3.4799 3.50964 2.99539 2.67821 3.1218 2.90079 2.79847 2.80621 2.42515 2.11544 2.44434 2.25663 2.13166 2.23791 1.88062 1.62381 1.96325 1.75549 1.55451 1.59583 1.39828 1.20447 1.49873 1.37793 1.10115 1.19775 0.913013 0.728868 1.00383 0.876208 0.752505 0.782722 0.513931 0.437721 0.607211 0.537895 0.345172 0.389304 0.241138 0.25651 0.284821 0.299403 0.168792 0.194444 10.6869 18.2607 7.37832 12.8351 18.5903 17.0464 21.6391 28.2506 20.5311 24.8695 30.0566 27.9031 24.3339 29.6617 24.6207 27.5676 32.1632 29.9351 23.278 27.9681 23.9088 26.2922 30.4684 28.3814 21.4735 25.7556 22.1026 24.2658 28.2608 26.3146 19.9191 23.7578 20.3677 22.3294 26.0928 24.3497 18.5807 21.8943 18.8974 20.642 24.1668 22.5868 17.3538 20.2949 17.593 19.1539 22.3917 21.017 16.2417 18.7656 16.4201 17.8009 20.6941 19.5284 15.1699 17.3686 15.3773 16.4806 19.1059 18.0968 14.1914 16.0504 14.3269 15.2575 17.6603 16.7696 13.2028 14.7925 13.3356 14.1595 16.2224 15.4617 12.2756 13.6226 12.4223 13.0761 14.9018 14.2023 11.4105 12.4866 11.525 12.0333 13.6129 13.0455 10.581 11.3899 10.6866 11.0881 12.3951 11.9065 9.72534 10.4214 9.85463 10.1985 11.2106 10.837 8.94582 9.46547 9.11394 9.30077 10.1439 9.82381 8.18003 8.48877 8.27903 8.39431 9.14978 8.9244 7.4766 7.67458 7.55866 7.59621 8.15522 7.98075 6.77243 6.85729 6.86036 6.81736 7.26909 7.159 6.12748 6.1389 6.25759 6.12895 6.42561 6.3345 5.49913 5.38713 5.57288 5.43354 5.61379 5.59106 4.92084 4.71804 5.02576 4.76417 4.87338 4.89325 4.32814 4.05483 4.41797 4.18648 4.17561 4.24339 3.77187 3.57738 3.91745 3.62736 3.57584 3.63074 3.24812 3.00822 3.31968 3.12453 3.01575 3.10432 2.66757 2.43949 2.80079 2.5552 2.44007 2.49147 2.15048 1.9476 2.33991 2.07154 1.97886 2.04316 1.6746 1.53662 1.78142 1.65341 1.5009 1.54994 1.22393 1.05888 1.3361 1.12925 1.02899 1.07943 0.713012 0.641824 0.807226 0.701681 0.578361 0.689804 0.293915 0.328788 0.37013 0.264391 0.272749 0.298745 4.58756 10.1699 1.44565 6.36098 9.40768 8.32736 15.0483 18.2645 14.3592 16.4116 18.4809 17.1228 17.5407 19.5717 18.055 18.7326 20.5225 19.0424 16.733 18.356 17.4794 17.7798 19.5458 18.1996 15.4233 16.7568 15.9783 16.2156 18.0323 16.8725 14.3254 15.4346 14.6756 14.8707 16.6867 15.7493 13.5118 14.3608 13.7082 13.8034 15.6378 14.7884 12.7933 13.5238 12.9049 13.0427 14.686 13.9852 12.2489 12.7769 12.2731 12.3107 13.8577 13.2772 11.6979 12.0867 11.7353 11.7099 13.013 12.5875 11.1343 11.4318 11.22 11.1084 12.2895 11.9274 10.6589 10.7902 10.684 10.5256 11.5557 11.2872 10.0927 10.2125 10.1392 9.99108 10.9038 10.6108 9.55988 9.56763 9.59788 9.44918 10.1477 10.0477 9.03615 8.99914 9.05256 8.82886 9.53904 9.42556 8.49554 8.42114 8.59437 8.36354 8.91635 8.78241 7.97113 7.89783 8.02292 7.83755 8.24597 8.22386 7.46042 7.28817 7.56183 7.26011 7.55412 7.60133 6.99064 6.7957 7.02184 6.79086 7.05494 7.04823 6.41688 6.22228 6.52773 6.22504 6.38447 6.47338 5.89871 5.71354 6.00536 5.73504 5.80826 5.89798 5.43244 5.1633 5.52395 5.27063 5.26663 5.38997 4.91523 4.64457 5.04296 4.77734 4.69441 4.82915 4.32726 4.15607 4.48688 4.24574 4.23608 4.29473 3.85667 3.66825 3.92103 3.74461 3.74053 3.77299 3.3712 3.17931 3.43384 3.22936 3.20133 3.25505 2.85305 2.65986 2.97236 2.74398 2.64361 2.74472 2.31382 2.17213 2.39185 2.28753 2.12878 2.28768 1.8205 1.71642 1.95236 1.77178 1.6854 1.75459 1.36598 1.22875 1.45523 1.32454 1.23296 1.30707 0.853573 0.821623 0.919387 0.871446 0.783652 0.80002 0.324852 0.378226 0.447238 0.33941 0.306278 0.279755 9.1913 10.4061 5.87903 8.3538 7.49293 8.05511 20.3486 18.5148 19.3378 18.7033 16.3582 16.8887 23.0747 19.9721 23.4861 21.2462 18.2337 18.7294 22.1291 18.8334 22.7984 20.3377 17.336 17.8696 20.461 17.2 21.0981 18.65 15.9575 16.5465 18.8951 15.8148 19.3515 17.1239 14.7934 15.4426 17.6142 14.7471 17.9445 15.8368 13.9081 14.5599 16.525 13.8482 16.7437 14.8472 13.096 13.7279 15.5026 13.0436 15.6658 13.9207 12.5019 13.0979 14.5705 12.3255 14.7508 13.1109 11.8538 12.3692 13.6423 11.6478 13.7586 12.3053 11.2877 11.7982 12.777 10.9842 12.9144 11.6531 10.7186 11.1516 11.944 10.3955 12.0416 10.8908 10.1618 10.5649 11.1419 9.79878 11.3022 10.2482 9.60787 9.93913 10.3619 9.17255 10.4989 9.56917 9.07745 9.37931 9.59295 8.62779 9.7352 8.9516 8.50604 8.79303 8.86566 8.02517 8.98004 8.34159 7.98209 8.23667 8.20653 7.4745 8.36848 7.73702 7.44926 7.65815 7.55334 6.88546 7.5939 7.09943 6.95273 7.10919 6.88112 6.38742 6.95475 6.51056 6.33092 6.55135 6.20992 5.84455 6.34723 5.93959 5.81651 5.97241 5.58667 5.28907 5.73273 5.40108 5.34456 5.49986 5.01645 4.7927 5.11756 4.85848 4.84267 4.90985 4.45185 4.25807 4.57355 4.33424 4.28653 4.44842 3.89276 3.73622 4.07422 3.81521 3.78476 3.86478 3.31072 3.27716 3.42118 3.26874 3.29368 3.34419 2.77009 2.74832 2.88279 2.74306 2.7776 2.86023 2.27801 2.22082 2.33703 2.25223 2.22966 2.32808 1.81349 1.76224 1.93458 1.83994 1.76857 1.79608 1.28993 1.24643 1.37063 1.3355 1.31863 1.32737 0.80034 0.809657 0.914402 0.783926 0.840279 0.866426 0.327809 0.30383 0.367483 0.374198 0.316932 0.33201 18.8557 18.5808 14.0393 16.8462 14.8013 16.5664 33.0286 28.4641 31.5372 29.5968 25.2422 26.9466 35.641 30.2173 35.9015 32.5595 27.3491 28.9399 33.9969 28.7425 34.7323 31.2312 26.049 27.586 31.5265 26.534 32.2816 28.9366 24.0728 25.5908 29.1463 24.3912 29.8041 26.6294 22.2671 23.7096 26.9905 22.5241 27.555 24.5457 20.6355 22.0383 24.9644 20.816 25.4924 22.7233 19.1492 20.5147 23.1224 19.3193 23.5972 20.9691 17.8666 19.0398 21.4266 17.8961 21.7413 19.4038 16.6318 17.723 19.6909 16.529 20.0308 17.9145 15.4485 16.4595 18.0813 15.2984 18.41 16.4707 14.3451 15.2338 16.6014 14.1087 16.9224 15.1657 13.2638 14.0097 15.1398 12.9439 15.4293 13.8943 12.2138 12.8879 13.7568 11.8735 14.0294 12.6384 11.2368 11.8533 12.4332 10.8363 12.7577 11.5353 10.3676 10.8609 11.2594 9.82519 11.5032 10.4645 9.44726 9.86765 10.0864 8.89126 10.3448 9.3926 8.61379 8.99249 9.01979 7.99223 9.26516 8.45433 7.83861 8.10541 7.98998 7.16856 8.19634 7.50807 7.05204 7.29474 7.05849 6.37327 7.21528 6.67489 6.36914 6.53501 6.1671 5.73721 6.37349 5.91375 5.66723 5.83837 5.3221 5.02655 5.47414 5.15264 4.99386 5.12486 4.60175 4.26727 4.74824 4.47524 4.31907 4.47056 3.90973 3.78611 4.04001 3.85933 3.77909 3.82445 3.22956 3.16411 3.36682 3.20059 3.21555 3.3096 2.62568 2.64036 2.79467 2.67132 2.70226 2.73927 2.06067 2.05696 2.19266 2.1181 2.17176 2.1806 1.53356 1.65304 1.62989 1.61305 1.69153 1.69447 1.09058 1.17946 1.22606 1.16403 1.18738 1.18596 0.614456 0.762335 0.710929 0.755512 0.789928 0.72417 0.311805 0.405249 0.317857 0.39881 0.400346 0.320116 34.5835 31.8514 28.9748 30.8213 26.6774 29.4404 49.4197 42.9699 48.3127 44.7763 39.3957 41.6095 50.0924 43.9779 50.5431 46.6918 40.9598 42.8147 47.3284 41.568 48.2912 44.4452 38.7725 40.5251 44.1392 38.5528 45.0384 41.3758 35.9282 37.6504 40.9869 35.6047 41.8859 38.3074 33.2119 34.8963 37.9548 32.8424 38.7414 35.3582 30.6745 32.31 35.0648 30.2706 35.7715 32.5882 28.3537 29.8548 32.2989 27.876 32.9375 29.9758 26.1431 27.5493 29.6764 25.579 30.208 27.4891 24.1053 25.3399 27.1465 23.4161 27.6958 25.1889 22.1013 23.2151 24.7345 21.4061 25.2822 22.9574 20.1933 21.2385 22.4556 19.3781 23.0248 20.8788 18.4162 19.3628 20.2957 17.6109 20.8307 18.8739 16.6771 17.5063 18.2292 15.8394 18.6978 16.9699 15.0408 15.8249 16.3128 14.2303 16.7405 15.246 13.5649 14.206 14.4684 12.6484 14.9455 13.5023 12.1939 12.7025 12.7884 11.1648 13.1268 11.9233 10.8241 11.2979 11.2058 9.82701 11.577 10.534 9.54541 9.9615 9.68604 8.60963 10.0389 9.13383 8.36125 8.73408 8.37342 7.47481 8.65979 7.88354 7.30861 7.5373 7.07035 6.35076 7.317 6.73186 6.27088 6.46509 5.95535 5.39982 6.16651 5.68518 5.34077 5.49593 4.89623 4.49619 5.1275 4.67993 4.52947 4.65885 3.91175 3.67638 4.12368 3.84423 3.79302 3.81315 3.11701 3.0454 3.29256 3.10633 3.0796 3.13187 2.36127 2.37839 2.58489 2.4356 2.44341 2.4684 1.73785 1.79804 1.84792 1.85174 1.95245 1.95627 1.18377 1.33084 1.39054 1.25666 1.40617 1.37558 0.761249 0.938411 0.869351 0.808632 1.01881 0.994871 0.455266 0.528367 0.499435 0.486778 0.591926 0.530126 0.290312 0.341832 0.27348 0.26549 0.313655 0.255252 66.8335 52.5311 66.342 59.2831 46.0433 49.1547 63.9861 58.9671 64.8208 60.9136 55.8016 57.9357 63.517 57.8636 64.0372 60.3818 55.1465 57.1361 60.9721 54.8643 61.7697 57.7871 52.1382 54.0402 57.4365 51.3512 58.375 54.3765 48.7139 50.575 53.5687 47.6936 54.625 50.6657 45.2367 47.0275 49.6174 44.0995 50.6379 46.9137 41.8648 43.6036 45.8522 40.6162 46.7868 43.2041 38.5913 40.196 42.0885 37.2709 43.0733 39.6841 35.4585 36.9687 38.6492 34.1179 39.4712 36.3688 32.5629 33.888 35.1929 31.1286 36.0385 33.1691 29.7222 30.9546 32.0719 28.3277 32.8683 30.1881 27.0561 28.1666 28.9984 25.6125 29.7728 27.2929 24.5227 25.5144 26.0784 23.0655 26.7314 24.5652 22.0497 22.938 23.4049 20.5886 24.0794 22.0058 19.796 20.5906 20.7387 18.3087 21.443 19.5768 17.608 18.3192 18.3792 16.1791 18.8441 17.2506 15.607 16.1603 16.0151 14.2155 16.5813 15.1821 13.6779 14.1707 13.9841 12.269 14.4684 13.0807 11.8679 12.3128 11.8967 10.4997 12.4491 11.309 10.2336 10.5839 10.0796 8.91107 10.6289 9.54167 8.76437 9.01727 8.42557 7.51527 8.77661 7.9875 7.32954 7.53147 6.87501 6.08564 7.26869 6.52002 6.07498 6.28239 5.49911 4.88478 5.87318 5.17079 4.90857 5.02186 4.26554 3.89715 4.53252 4.08906 3.86875 3.94868 3.19755 2.94327 3.40241 2.98688 2.98882 3.04546 2.26575 2.2088 2.49593 2.16474 2.19171 2.17716 1.51338 1.37585 1.59934 1.46507 1.54383 1.54926 0.86111 0.995704 1.01439 0.958307 1.04107 1.02442 0.410096 0.501056 0.488566 0.52111 0.643629 0.587225 0.21911 0.348357 0.267837 0.255393 0.32725 0.275388 0.247217 0.222878 0.165258 0.157892 0.25768 0.220325 39.2865 64.0346 31.432 46.3062 69.535 68.7306 53.0928 57.7648 52.1967 56.6092 59.1271 58.3858 52.5276 57.016 53.3643 55.2529 59.782 57.9169 50.0369 54.9438 50.8016 53.1193 58.257 56.0237 46.9012 51.6945 47.6844 50.0774 54.9919 52.8066 43.5555 47.9952 44.3647 46.5786 51.1053 49.0833 40.1793 44.1982 40.9699 43.0063 47.0612 45.2267 36.9347 40.5572 37.6777 39.4509 43.3279 41.5985 33.8404 37.034 34.5075 36.1261 39.5767 38.0195 30.9254 33.7906 31.5755 32.9922 36.1265 34.7227 28.192 30.789 28.7638 30.0467 32.8784 31.5996 25.6164 27.8624 26.137 27.256 29.8007 28.6908 23.1588 25.1451 23.6708 24.6338 26.8583 25.9045 20.88 22.5653 21.3219 22.1578 24.0996 23.2046 18.6858 20.1664 19.1607 19.8225 21.51 20.7551 16.6178 17.8736 17.0486 17.6414 18.9785 18.3616 14.7228 15.7672 15.0727 15.522 16.8151 16.2423 12.8862 13.6074 13.277 13.6466 14.6245 14.1032 11.1812 11.8053 11.473 11.7531 12.5652 12.1134 9.60276 10.062 9.91719 10.1122 10.7498 10.4112 8.14177 8.50704 8.52811 8.60334 8.94045 8.68266 6.79368 7.0283 7.14915 7.15225 7.50635 7.22809 5.65922 5.67648 5.89913 5.85035 6.03758 5.85755 4.52554 4.45594 4.75643 4.64385 4.75361 4.66434 3.61611 3.49644 3.77946 3.66946 3.64625 3.60762 2.81999 2.52457 2.88902 2.73142 2.62874 2.61128 2.0283 1.84071 2.19833 2.00164 1.83527 1.87119 1.44472 1.17585 1.50865 1.37232 1.18864 1.21122 0.934871 0.758314 0.978599 0.892515 0.708764 0.701973 0.569485 0.357558 0.641988 0.467282 0.279996 0.30526 0.261564 0.143512 0.323871 0.218213 0.10348 0.11942 0.174596 0.131047 0.162751 0.141833 0.0821748 0.159811 20.4004 32.5821 15.119 23.9545 33.4704 30.2424 35.6846 43.523 34.2202 40.2012 46.5512 44.3141 37.8756 43.7402 37.9358 41.3516 46.8341 44.6968 36.3131 41.239 36.8401 39.3998 44.253 42.1799 33.7411 38.3278 34.398 36.7052 41.3436 39.2723 31.1471 35.4101 31.7771 33.9759 38.3413 36.403 28.6397 32.5516 29.2471 31.2738 35.2892 33.5117 26.3856 29.9702 26.9172 28.731 32.4571 30.8046 24.281 27.4146 24.7146 26.3579 29.7314 28.2572 22.2874 25.1007 22.6537 24.182 27.1854 25.9051 20.4103 22.8928 20.763 22.0865 24.8097 23.6089 18.6561 20.86 19.0429 20.1694 22.5385 21.5468 16.9908 18.9066 17.3705 18.2891 20.4455 19.5083 15.4448 17.0244 15.7544 16.5808 18.4088 17.5947 13.9608 15.3002 14.2426 14.9508 16.5114 15.8268 12.5644 13.6923 12.8672 13.3867 14.7301 14.0968 11.24 12.1145 11.4879 11.922 13.0634 12.5409 10.0243 10.7326 10.2398 10.5155 11.4755 11.1132 8.83708 9.31799 9.07016 9.3125 10.0163 9.64667 7.75567 8.15113 7.93839 8.11975 8.67824 8.39411 6.72944 7.00734 6.93069 7.01575 7.40667 7.1647 5.81684 5.94305 6.03772 6.0239 6.25097 6.08522 5.00633 5.03971 5.13683 5.09766 5.20899 5.10673 4.23826 4.05788 4.36968 4.22544 4.22812 4.22347 3.48829 3.33252 3.61046 3.51105 3.46492 3.48247 2.90676 2.66782 3.05552 2.83301 2.69854 2.6813 2.31827 2.11559 2.38116 2.2492 2.00733 2.09913 1.78865 1.5449 1.90329 1.66208 1.49786 1.58879 1.33113 1.1105 1.46705 1.2584 1.06441 1.10876 0.888796 0.742985 0.98384 0.847576 0.645371 0.71529 0.504965 0.418704 0.581017 0.493582 0.318486 0.363528 0.266797 0.29431 0.220765 0.26289 0.239016 0.257201 10.4127 18.1632 6.71445 12.6467 18.2612 16.6497 22.2193 28.3809 20.8838 25.0585 30.1689 28.2194 25.0686 29.9815 25.2396 27.9004 32.51 30.5335 24.0375 28.2873 24.5868 26.698 31.0284 29.0751 22.0792 26.0625 22.6628 24.6004 28.6807 26.8478 20.2171 23.9221 20.6976 22.5351 26.4373 24.6923 18.6068 22.0219 18.9666 20.7156 24.3127 22.7726 17.2506 20.2881 17.5755 19.1389 22.4158 21.0308 16.006 18.7253 16.3194 17.7274 20.6784 19.3989 14.9697 17.2886 15.1863 16.4034 19.0361 17.904 13.9041 15.9511 14.123 15.1917 17.4823 16.5054 12.9144 14.7371 13.1027 14.0046 16.0752 15.2268 12.0554 13.5165 12.1863 12.9403 14.6903 13.9525 11.1177 12.3814 11.2549 11.9067 13.3821 12.7925 10.2752 11.2905 10.4282 10.9179 12.2423 11.68 9.49338 10.2802 9.65277 10.046 11.0426 10.5617 8.65006 9.32475 8.85131 9.1054 9.96957 9.59182 7.95493 8.43189 8.05848 8.26321 8.96069 8.63536 7.26726 7.55184 7.37514 7.46937 8.02757 7.74751 6.50278 6.67714 6.69673 6.67346 7.06278 6.91104 5.88843 5.97532 6.03098 6.02535 6.26332 6.17377 5.27731 5.32606 5.40961 5.34726 5.44176 5.34911 4.70626 4.61747 4.82048 4.70683 4.73505 4.72693 4.15445 4.05533 4.2683 4.1734 4.11216 4.08557 3.56357 3.421 3.72657 3.52522 3.42087 3.548 3.07635 2.8957 3.28601 3.06723 2.91057 2.92205 2.58195 2.39488 2.74092 2.48796 2.3635 2.44127 2.11168 1.87878 2.15769 2.05869 1.90597 1.93942 1.62787 1.41341 1.68275 1.53946 1.38152 1.50483 1.15514 1.01898 1.27398 1.08573 0.91499 1.01946 0.670101 0.619026 0.777093 0.681163 0.584761 0.631208 0.227053 0.276251 0.370907 0.282408 0.252076 0.29137 5.54348 10.4988 2.06446 6.77089 9.74597 8.94917 16.2097 18.7683 15.2777 17.0259 19.2356 18.205 18.753 20.1276 19.1222 19.3834 21.2772 20.1095 17.6568 18.7977 18.3069 18.2879 20.2037 19.0226 15.9759 17.0381 16.4641 16.4929 18.4816 17.37 14.479 15.5162 14.8204 15 16.8673 15.8756 13.3248 14.3502 13.5923 13.8098 15.5909 14.6988 12.5274 13.4025 12.7111 12.8954 14.5462 13.743 11.8211 12.5661 11.9583 12.0909 13.5722 12.9136 11.2461 11.8992 11.321 11.4787 12.7574 12.1681 10.7009 11.2107 10.8322 10.8947 11.9434 11.5173 10.1532 10.5649 10.2799 10.2781 11.2528 10.8292 9.61738 9.99179 9.67457 9.78154 10.6149 10.2372 9.13344 9.35862 9.24291 9.2262 9.8445 9.59406 8.58648 8.81351 8.72652 8.69479 9.22532 9.01378 8.1546 8.25873 8.22421 8.18184 8.57725 8.39755 7.61305 7.71965 7.73008 7.63681 7.93954 7.85361 7.10944 7.14612 7.24986 7.16386 7.38202 7.26768 6.62634 6.66096 6.68721 6.62167 6.7904 6.75195 6.1577 6.09161 6.22303 6.06188 6.19493 6.21225 5.62953 5.54613 5.72422 5.59266 5.69789 5.71692 5.18724 5.05937 5.27696 5.12673 5.10311 5.13722 4.67795 4.53161 4.83329 4.65971 4.5857 4.6329 4.21456 4.06433 4.27868 4.12249 4.04952 4.15985 3.71543 3.56282 3.82505 3.66532 3.54732 3.59988 3.16587 3.10761 3.2891 3.1398 3.09065 3.11896 2.64152 2.62637 2.79245 2.67611 2.55338 2.62632 2.22947 2.14162 2.29384 2.17001 2.15936 2.13935 1.7312 1.68819 1.84319 1.76135 1.63952 1.67865 1.2786 1.22717 1.36692 1.29925 1.20426 1.24069 0.828485 0.794636 0.912205 0.80896 0.783859 0.78606 0.328412 0.326905 0.378539 0.346729 0.253984 0.293918 9.16421 10.8148 5.49534 8.60424 8.25446 8.84275 20.9484 19.0412 19.7645 19.1658 17.3351 17.956 23.915 20.4681 24.1713 21.8039 19.2057 19.8174 22.8862 19.2192 23.4269 20.7683 18.0626 18.6863 20.8614 17.4588 21.515 18.9361 16.3885 16.9853 19.0994 15.8996 19.5925 17.2056 14.9091 15.5331 17.5754 14.6535 17.9308 15.7997 13.7636 14.3847 16.3044 13.6683 16.6297 14.729 12.8828 13.4945 15.2279 12.8602 15.4594 13.7232 12.1351 12.6599 14.2474 12.1364 14.4654 12.8924 11.5085 11.9843 13.2695 11.4654 13.4823 12.1336 10.8829 11.3322 12.4221 10.8111 12.6481 11.3799 10.3372 10.7027 11.5581 10.1959 11.7693 10.665 9.83797 10.129 10.798 9.55718 10.9486 10.0496 9.18723 9.51575 9.99546 9.01967 10.2301 9.32118 8.70357 8.97749 9.27491 8.43592 9.48815 8.76604 8.18904 8.4272 8.59331 7.89743 8.76488 8.12707 7.71736 7.85401 7.91684 7.34715 8.07749 7.52479 7.21493 7.32065 7.27934 6.71506 7.38054 6.94212 6.64354 6.78409 6.61847 6.23947 6.75396 6.37463 6.14824 6.29548 5.97114 5.69768 6.13572 5.72892 5.61824 5.71787 5.44604 5.1487 5.50576 5.31887 5.07917 5.1736 4.83374 4.63759 4.96785 4.71234 4.62239 4.70939 4.2968 4.12173 4.42744 4.1725 4.07708 4.18481 3.6997 3.63871 3.85048 3.73648 3.64289 3.69984 3.22861 3.15377 3.34813 3.19066 3.16054 3.19954 2.69287 2.6759 2.86459 2.69133 2.66417 2.70726 2.18676 2.17504 2.25445 2.20951 2.21696 2.24512 1.6821 1.69858 1.75846 1.70176 1.69167 1.71757 1.24757 1.25104 1.37301 1.27413 1.2402 1.145 0.749176 0.770634 0.839056 0.81281 0.835625 0.81313 0.27905 0.366176 0.362364 0.333022 0.29569 0.294869 18.0822 18.5632 13.1359 16.5482 14.7129 16.2678 32.9825 28.5485 31.5057 29.6096 25.5308 27.1675 35.9691 30.5178 36.094 32.7638 27.9021 29.5713 34.5638 29.0225 35.1634 31.5717 26.6343 28.2893 32.0259 26.7368 32.7241 29.1635 24.4915 26.0688 29.4521 24.5084 30.1076 26.809 22.4512 23.9474 27.104 22.5704 27.6808 24.6111 20.6089 22.0791 24.987 20.8129 25.4665 22.6918 19.0887 20.3583 23.0614 19.2306 23.4933 20.955 17.6791 18.8965 21.2649 17.8047 21.6596 19.2917 16.3948 17.4857 19.5012 16.3781 19.9384 17.8129 15.1667 16.1811 17.8884 15.1593 18.2971 16.3716 14.0707 14.9292 16.3697 13.9396 16.7315 15.0377 13.0061 13.7829 14.9169 12.7743 15.3309 13.7501 12.0144 12.6766 13.5331 11.7051 13.8336 12.5397 10.998 11.6234 12.3009 10.6745 12.5798 11.37 10.1161 10.6042 11.0787 9.7101 11.379 10.3216 9.25685 9.61641 9.91799 8.80954 10.1745 9.27109 8.40162 8.72447 8.82254 7.87407 9.11993 8.33301 7.60842 7.87653 7.82777 7.08803 8.04474 7.41126 6.92096 7.12567 6.8783 6.33246 7.0697 6.62981 6.2095 6.31905 6.02712 5.5384 6.21756 5.76701 5.52392 5.71443 5.22799 4.92703 5.48774 5.04879 4.84535 4.9482 4.46427 4.3198 4.61377 4.37157 4.25808 4.28326 3.74004 3.67153 3.90016 3.74202 3.68725 3.70979 3.12563 3.09486 3.30785 3.14881 3.06372 3.15104 2.52796 2.55831 2.70748 2.58985 2.57549 2.57671 1.97706 2.07777 2.14024 2.12103 2.16941 2.12205 1.51621 1.54945 1.62854 1.57966 1.5777 1.60932 1.02777 1.12114 1.16121 1.10732 1.10295 1.15649 0.71283 0.638986 0.780193 0.666466 0.666902 0.717076 0.294587 0.370006 0.35699 0.342926 0.308809 0.356015 33.7636 31.5054 28.3557 30.3715 26.0797 28.578 48.8958 42.7205 47.8057 44.4375 39.1232 41.2095 50.0508 43.9766 50.2998 46.6535 41.0849 43.0724 47.7545 41.8658 48.4809 44.6133 39.2068 41.0981 44.6439 38.8211 45.4644 41.6186 36.3839 38.1857 41.3515 35.7817 42.2313 38.5109 33.5155 35.2242 38.1829 32.9891 38.9879 35.4879 30.8354 32.4492 35.1462 30.3057 35.9163 32.6433 28.3796 29.8882 32.2847 27.8708 33.017 29.9811 26.0995 27.5098 29.6131 25.5409 30.2568 27.497 24.0633 25.2769 27.0969 23.3879 27.6745 25.1624 21.93 23.11 24.6306 21.3432 25.1948 22.8758 20.111 21.1123 22.4256 19.3667 22.9264 20.8297 18.2746 19.1853 20.1644 17.5449 20.7142 18.825 16.5919 17.4105 18.1654 15.795 18.6394 16.9533 14.9578 15.6896 16.2456 14.142 16.6903 15.1403 13.4329 14.0643 14.3895 12.6623 14.8391 13.5053 12.0357 12.5479 12.7012 11.1546 13.0935 11.8621 10.729 11.1488 11.1196 9.83084 11.4887 10.4445 9.43235 9.77506 9.61761 8.58227 9.97134 9.10263 8.32652 8.62609 8.25431 7.36559 8.61617 7.83251 7.18205 7.45306 7.00705 6.33777 7.29457 6.67354 6.13355 6.34687 5.86434 5.36682 6.12399 5.63175 5.27955 5.40924 4.83392 4.46152 5.11808 4.66543 4.44112 4.51865 3.85469 3.69807 4.12401 3.73862 3.65479 3.64847 3.04524 2.98596 3.22302 3.00223 3.01334 2.97745 2.352 2.34136 2.47916 2.35089 2.41823 2.38226 1.72619 1.78127 1.91229 1.78044 1.80919 1.73325 1.2001 1.32677 1.34204 1.2588 1.36552 1.35102 0.716768 0.885467 0.945867 0.877805 0.850281 0.876312 0.421486 0.500429 0.496814 0.446621 0.557495 0.483871 0.241468 0.282168 0.270869 0.232457 0.294681 0.242404 67.0438 52.0727 67.1095 59.1027 45.4854 48.4286 62.7458 58.4163 63.7358 60.2556 55.1383 57.0255 62.6832 57.6683 63.2407 60.0518 54.9757 56.9814 60.9187 55.0105 61.6831 57.8264 52.3916 54.3583 57.7503 51.5576 58.6791 54.5699 49.0587 51.0012 53.8684 47.9211 54.8935 50.8521 45.5303 47.3643 49.8762 44.2172 50.8814 47.0577 42.0436 43.8117 45.9841 40.6764 46.9365 43.3126 38.7444 40.3451 42.1945 37.3772 43.0916 39.7166 35.5426 37.019 38.636 34.1411 39.4658 36.3734 32.5566 33.9021 35.2287 31.1496 36.0762 33.1489 29.7348 30.9528 32.0731 28.2462 32.8217 30.1701 26.9645 28.0945 28.9847 25.5282 29.633 27.2696 24.486 25.4623 26.0822 22.99 26.8313 24.5904 21.9867 22.9008 23.3387 20.5806 24.0489 22.0196 19.7762 20.5055 20.7099 18.3328 21.3892 19.5371 17.5807 18.2594 18.3132 16.1392 18.9013 17.2913 15.4989 16.1085 16.0392 14.2079 16.5571 15.1809 13.6265 14.1916 13.8919 12.2898 14.4718 13.1083 11.8821 12.2756 11.9098 10.4957 12.337 11.1982 10.2205 10.5668 10.0508 8.8359 10.5233 9.50784 8.70095 8.93671 8.38228 7.45193 8.84929 7.98045 7.26658 7.50454 6.89222 6.1139 7.23308 6.50618 6.0305 6.16632 5.48192 4.94444 5.77799 5.22212 4.86098 4.98786 4.19292 3.80158 4.61879 4.02007 3.86589 3.94154 3.18978 2.93073 3.49888 3.08372 2.89555 2.99749 2.26374 2.08769 2.46722 2.18108 2.18952 2.27477 1.50059 1.50378 1.72002 1.49833 1.56916 1.54587 0.874501 0.893717 1.04716 0.885354 0.993766 1.00216 0.552774 0.604249 0.495993 0.523603 0.644344 0.577309 0.203774 0.260275 0.186483 0.1586 0.268711 0.33247 0.142594 0.227097 0.116751 0.0967761 0.263126 0.190893 39.2675 64.0088 31.3536 46.2094 69.6358 69.0687 53.0427 57.9736 52.0699 56.6629 59.0109 58.1511 52.4613 57.0758 53.3168 55.2937 59.6498 57.7785 50.048 54.8765 50.7665 53.0803 58.21 56.0522 46.9929 51.628 47.7531 50.0129 55.0038 52.9203 43.6577 47.8786 44.4243 46.5078 51.1804 49.2209 40.2738 44.0818 41.0242 42.9038 47.1681 45.381 36.977 40.48 37.6975 39.4605 43.2864 41.6305 33.9025 37.0638 34.5876 36.1485 39.6084 38.0615 30.9573 33.8096 31.5729 32.9562 36.1367 34.784 28.2296 30.7467 28.8184 30.0089 32.8967 31.6593 25.6358 27.8628 26.1542 27.2875 29.7177 28.6156 23.1351 25.1406 23.6895 24.6142 26.8585 25.8397 20.8625 22.541 21.3231 22.181 24.0683 23.2023 18.6422 20.1508 19.1363 19.856 21.546 20.7355 16.6048 17.7961 17.0254 17.662 19.0429 18.3542 14.6755 15.6962 15.0715 15.4944 16.7383 16.1799 12.9058 13.6801 13.2192 13.6678 14.5964 14.0618 11.1208 11.8756 11.5172 11.7416 12.6052 12.1637 9.58414 10.0813 9.9719 10.0869 10.8339 10.4009 8.13451 8.47828 8.47923 8.63313 8.9887 8.73407 6.83346 6.97209 7.08158 7.13442 7.48027 7.23612 5.60241 5.69237 5.84877 5.84212 6.09063 5.86299 4.59143 4.45475 4.74276 4.70444 4.75149 4.62106 3.59592 3.50128 3.85248 3.719 3.65138 3.58141 2.77512 2.58769 2.89107 2.7915 2.643 2.58018 1.99047 1.81993 2.16252 2.03191 1.82185 1.8479 1.40738 1.14267 1.62373 1.3821 1.23719 1.25119 0.914929 0.667509 1.05305 0.893612 0.660661 0.730541 0.537417 0.359838 0.614626 0.477421 0.353667 0.323308 0.22643 0.213143 0.321372 0.282926 0.190755 0.164751 0.166874 0.0886712 0.142678 0.143471 0.112834 0.145505 20.2475 32.5719 15.0268 24.0181 33.3892 30.1414 35.7431 43.5375 34.2656 40.18 46.5434 44.2517 37.8623 43.7354 37.9053 41.3329 46.7296 44.7388 36.3677 41.1282 36.9148 39.3358 44.2788 42.3237 33.8423 38.2122 34.4555 36.6204 41.3817 39.4612 31.1987 35.3104 31.8428 33.8765 38.3656 36.5263 28.7637 32.4904 29.2483 31.2043 35.324 33.5873 26.4079 29.8722 26.892 28.689 32.4626 30.884 24.3168 27.4034 24.7604 26.3415 29.7746 28.3422 22.2876 25.0514 22.6822 24.1623 27.2045 25.9016 20.3924 22.9129 20.8126 22.1218 24.7862 23.6172 18.6552 20.8509 19.0382 20.2056 22.5501 21.5384 16.9299 18.9135 17.3222 18.314 20.4296 19.4734 15.4806 17.0661 15.7515 16.5727 18.4517 17.5847 13.9458 15.3055 14.1939 15.0194 16.5147 15.7963 12.534 13.7039 12.8175 13.4109 14.7318 14.0903 11.2065 12.1592 11.5224 11.9439 13.0692 12.5239 9.96136 10.7062 10.2627 10.616 11.492 11.0621 8.779 9.45248 9.07703 9.31797 10.0208 9.599 7.71407 8.19671 7.97339 8.16471 8.61705 8.38075 6.74385 6.96473 6.97824 7.00638 7.36305 7.10959 5.79832 5.91132 5.99795 6.02335 6.26821 6.06977 4.98004 5.01621 5.14075 5.09279 5.17008 5.10176 4.1961 4.12803 4.37424 4.26661 4.25433 4.2072 3.52241 3.43532 3.61744 3.4899 3.41981 3.39888 2.86913 2.67339 3.04533 2.88153 2.6785 2.7194 2.30285 2.09099 2.4076 2.27584 2.0421 2.10781 1.75026 1.56158 1.88744 1.71316 1.49648 1.5803 1.34824 1.20467 1.46941 1.32613 1.06417 1.09116 0.90297 0.763892 0.960095 0.837588 0.643946 0.729384 0.510909 0.42864 0.581369 0.525086 0.327843 0.373398 0.240751 0.260848 0.285582 0.229775 0.251967 0.252778 10.3564 18.1114 6.67274 12.6368 18.2241 16.5781 22.372 28.2851 20.9661 24.9611 30.1564 28.3446 25.2526 29.8248 25.2933 27.7707 32.4752 30.6709 24.1866 28.2077 24.6226 26.578 31.0682 29.2502 22.2271 25.9319 22.6739 24.5053 28.7512 27.008 20.3051 23.9036 20.7519 22.5277 26.4445 24.7949 18.6454 21.9564 18.9963 20.6877 24.3902 22.8222 17.2273 20.3063 17.5703 19.1674 22.4217 21.0368 16.0278 18.7858 16.2382 17.7027 20.6537 19.385 14.8963 17.2864 15.1671 16.4189 19.0232 17.9023 13.8448 16.0038 14.0865 15.2162 17.5118 16.5169 12.8602 14.7358 13.0855 14.0534 16.0879 15.1947 11.9225 13.5237 12.1246 12.9682 14.6759 13.889 11.0599 12.4185 11.2143 11.9648 13.4163 12.7601 10.1852 11.3278 10.3574 11.015 12.1952 11.578 9.4188 10.3134 9.56057 10.055 11.0924 10.5237 8.612 9.39497 8.75396 9.17071 9.96299 9.55479 7.87842 8.45329 8.06693 8.33135 8.85855 8.56519 7.12943 7.61738 7.36737 7.48576 7.95917 7.74037 6.49537 6.847 6.62271 6.80533 7.09591 6.8809 5.88031 6.09327 6.0402 6.07943 6.22985 6.06522 5.25636 5.34596 5.41103 5.40677 5.43433 5.38113 4.66927 4.69573 4.88935 4.76804 4.68851 4.67676 4.13775 4.02717 4.28937 4.16885 4.06809 4.03963 3.52379 3.45061 3.64613 3.58527 3.45002 3.44151 3.05229 2.92766 3.22253 3.05258 2.86979 2.90306 2.4991 2.42797 2.69007 2.56273 2.38166 2.38854 2.01845 1.95348 2.14514 2.06437 1.84603 1.90206 1.58059 1.51956 1.74748 1.61691 1.40615 1.44282 1.11536 1.04493 1.26282 1.18304 0.945824 1.00671 0.692986 0.640455 0.832529 0.704208 0.535512 0.605754 0.292895 0.263985 0.38864 0.300601 0.224651 0.292822 5.71396 10.3356 2.14237 6.60877 9.77353 9.08603 16.4979 18.5214 15.3662 16.8226 19.2676 18.4329 19.0525 19.9104 19.1931 19.1905 21.3722 20.4109 17.9163 18.629 18.4001 18.1197 20.3215 19.2471 16.0848 16.9676 16.5406 16.4659 18.5518 17.5002 14.5482 15.5276 14.8796 14.9458 16.9163 15.9368 13.378 14.386 13.6064 13.8505 15.6307 14.6773 12.4885 13.5013 12.6637 12.9718 14.4935 13.6837 11.7767 12.6506 11.9674 12.1875 13.5634 12.857 11.1439 11.9406 11.3209 11.5486 12.6781 12.0807 10.6004 11.2968 10.7538 10.9697 11.9345 11.3923 10.0566 10.6684 10.2259 10.3933 11.2121 10.7424 9.57842 10.0835 9.74568 9.87562 10.5317 10.1185 9.0437 9.49552 9.21913 9.28191 9.81649 9.52021 8.57874 8.89356 8.7498 8.77889 9.17697 8.86668 8.08433 8.32788 8.24748 8.2365 8.55188 8.34825 7.56973 7.83865 7.73294 7.73829 7.93502 7.74615 7.11155 7.22062 7.25711 7.14463 7.31348 7.20254 6.5591 6.66215 6.7129 6.66404 6.73837 6.68587 6.06263 6.17388 6.20566 6.17059 6.23885 6.12987 5.54752 5.68099 5.72941 5.6831 5.66996 5.60034 5.1008 5.11746 5.26408 5.14885 5.07448 5.03924 4.66154 4.60991 4.78311 4.67383 4.53329 4.56436 4.11256 4.12959 4.24461 4.19762 4.07939 4.06844 3.59952 3.6352 3.7213 3.66176 3.56624 3.52454 3.17484 3.1185 3.31125 3.20324 3.06633 3.07049 2.70364 2.6447 2.78756 2.72999 2.5056 2.57884 2.19468 2.13236 2.30979 2.18888 2.10171 2.10616 1.71329 1.6571 1.84103 1.72963 1.62769 1.68609 1.24252 1.21202 1.34187 1.28833 1.16857 1.20622 0.788588 0.798105 0.919321 0.876716 0.754716 0.783737 0.305742 0.264018 0.517439 0.33615 0.313832 0.319145 9.16879 10.6813 5.47328 8.51609 8.28873 9.04438 21.0932 18.8066 19.858 19.0183 17.4083 18.2178 24.1055 20.2741 24.2073 21.6489 19.3139 20.0846 23.0038 19.0992 23.5174 20.6307 18.1676 18.9419 21.0324 17.3555 21.5643 18.8817 16.4281 17.1538 19.1417 15.9399 19.598 17.2173 14.9361 15.5763 17.5786 14.7053 17.9433 15.8198 13.7755 14.3707 16.2791 13.7552 16.6373 14.701 12.869 13.3707 15.1671 12.9724 15.4064 13.8123 12.1368 12.6015 14.138 12.2767 14.4392 12.9775 11.4805 11.892 13.2304 11.5551 13.4606 12.2352 10.8756 11.2276 12.3456 10.8687 12.561 11.4609 10.2782 10.638 11.5184 10.294 11.7759 10.7441 9.7394 10.0017 10.7316 9.69713 10.9692 10.0927 9.15693 9.41255 9.96696 9.10016 10.186 9.44307 8.66421 8.90906 9.25868 8.51324 9.44407 8.82008 8.15356 8.33968 8.5457 7.9774 8.78458 8.20971 7.65015 7.79213 7.80552 7.37661 8.05124 7.61081 7.15518 7.26692 7.20807 6.82128 7.40667 7.00901 6.63145 6.68749 6.55063 6.27936 6.71381 6.43692 6.12301 6.23902 5.92647 5.79967 6.09042 5.90233 5.59243 5.71113 5.37981 5.25439 5.51271 5.30908 5.06808 5.14965 4.79036 4.68484 4.94594 4.70701 4.62122 4.6422 4.24454 4.23153 4.42153 4.26579 4.1449 4.13648 3.71764 3.66242 3.8725 3.66807 3.6396 3.62649 3.19573 3.1936 3.29623 3.23871 3.12052 3.14361 2.63516 2.65209 2.85331 2.71372 2.62913 2.70494 2.1577 2.24139 2.32407 2.27015 2.17567 2.14728 1.73599 1.7489 1.85963 1.76504 1.68617 1.66966 1.17709 1.32375 1.38111 1.33371 1.25201 1.23118 0.745172 0.753723 0.919559 0.851217 0.708124 0.77687 0.279505 0.339871 0.421382 0.360098 0.251307 0.332563 17.9187 18.5756 13.0733 16.5624 14.6784 16.1958 32.9494 28.5025 31.4792 29.583 25.5254 27.2498 36.0423 30.3934 36.0974 32.7101 27.9487 29.6968 34.7002 28.9049 35.2049 31.4781 26.7003 28.4402 32.0792 26.6816 32.7609 29.1577 24.5259 26.1798 29.5359 24.5177 30.1301 26.7765 22.4848 24.0119 27.1527 22.5296 27.6912 24.6189 20.6368 22.1076 24.9935 20.7891 25.4979 22.6561 19.0806 20.3264 23.047 19.246 23.4817 20.9657 17.6637 18.8671 21.142 17.8404 21.6844 19.3656 16.3614 17.3881 19.4821 16.5047 19.9135 17.8657 15.2361 16.0978 17.863 15.2322 18.2517 16.4203 14.0776 14.8725 16.3066 14.0072 16.6916 15.0658 12.9856 13.7251 14.9015 12.8666 15.2859 13.8324 11.9895 12.5515 13.4971 11.7594 13.8915 12.5935 11.0375 11.5829 12.248 10.7171 12.579 11.4339 10.0412 10.5099 11.014 9.71844 11.3425 10.3282 9.17082 9.55576 9.87859 8.83874 10.1635 9.29842 8.37591 8.67997 8.79482 7.97291 9.09127 8.3908 7.60397 7.84707 7.77196 7.15494 8.02699 7.45236 6.85635 7.04214 6.85074 6.37146 7.12601 6.62301 6.18546 6.28245 5.99936 5.6664 6.21719 5.84449 5.48368 5.56554 5.10019 4.91454 5.37384 5.03739 4.83321 4.97206 4.40362 4.25076 4.65533 4.39655 4.1842 4.31744 3.75391 3.7136 3.96762 3.75787 3.65414 3.64908 3.1471 3.11061 3.30793 3.17914 3.12369 3.13366 2.52056 2.60881 2.6694 2.65848 2.57171 2.56855 1.98525 2.0836 2.13187 2.08316 2.0571 2.05701 1.52959 1.53219 1.66034 1.59263 1.5551 1.58671 1.01621 1.08667 1.14366 1.12835 1.07601 1.10121 0.587553 0.678366 0.702338 0.64075 0.682718 0.65176 0.285781 0.343042 0.345569 0.355204 0.320429 0.335338 33.624 31.6293 28.3498 30.408 26.0853 28.411 48.8121 42.8002 47.7699 44.4548 39.1371 41.1303 49.9571 44.0023 50.2708 46.6805 41.0769 43.057 47.8229 41.7317 48.5359 44.6363 39.2336 41.2577 44.7428 38.7458 45.5466 41.5754 36.3867 38.3134 41.482 35.7155 42.2197 38.4145 33.5346 35.3187 38.2183 32.9157 38.9961 35.4211 30.8657 32.5454 35.1874 30.3021 35.9089 32.6072 28.3823 29.9583 32.2992 27.8943 33.0026 30.004 26.104 27.5213 29.6453 25.5903 30.2447 27.5147 23.9243 25.2157 27.0742 23.3973 27.6981 25.1631 21.9549 23.0761 24.6097 21.343 25.2277 22.9326 20.0882 21.0746 22.342 19.3802 22.8852 20.8482 18.2528 19.1459 20.2019 17.5793 20.672 18.8245 16.5738 17.3459 18.1598 15.8182 18.644 16.9961 14.9341 15.6299 16.201 14.1785 16.6942 15.1605 13.4567 14.0544 14.3585 12.6506 14.8815 13.579 12.0305 12.5558 12.6944 11.1533 13.1601 11.8787 10.6991 11.1196 11.0688 9.86735 11.4504 10.4774 9.46379 9.78066 9.62751 8.56232 9.99043 9.09004 8.2425 8.57414 8.2772 7.42653 8.59305 7.87163 7.14409 7.30078 6.99779 6.36975 7.29497 6.74052 6.19313 6.36391 5.82967 5.40501 6.1532 5.63849 5.21711 5.3476 4.80006 4.4913 5.03811 4.62158 4.41782 4.48904 3.89842 3.7018 4.13153 3.8182 3.65072 3.73639 3.04004 2.94147 3.21489 3.0118 2.9722 3.00849 2.36372 2.34429 2.49437 2.39913 2.39739 2.35819 1.65281 1.82394 1.88759 1.8105 1.81036 1.85232 1.20445 1.32034 1.34913 1.2396 1.33798 1.30481 0.7412 0.913223 0.821989 0.798403 0.93703 0.909626 0.3782 0.500984 0.502773 0.452121 0.463236 0.496932 0.23744 0.324709 0.241227 0.253081 0.302395 0.26608 67.0723 52.0714 67.1227 58.8484 45.4339 48.3527 62.5366 58.6915 63.6663 60.4465 55.1034 56.8326 62.4959 57.7793 63.1181 60.2333 54.8984 56.8181 60.8923 54.9294 61.602 57.8351 52.4344 54.4369 57.7838 51.508 58.6966 54.5528 49.1505 51.1447 53.9092 47.8737 54.9352 50.787 45.6158 47.4906 49.9861 44.1859 50.9073 46.9873 42.0418 43.8161 45.9592 40.6669 46.9431 43.2752 38.7575 40.3524 42.2202 37.3447 43.1483 39.76 35.5166 37.0135 38.6831 34.2114 39.4761 36.3878 32.5548 33.9281 35.2127 31.1661 36.0617 33.1987 29.7214 30.9088 31.973 28.3261 32.8307 30.1048 27.0171 28.0801 28.9589 25.5504 29.7325 27.2543 24.432 25.3773 26.0764 23.0286 26.6976 24.5865 21.9972 22.862 23.2932 20.6 24.0105 21.9925 19.7104 20.4901 20.723 18.293 21.4159 19.5957 17.6112 18.2655 18.2653 16.2337 18.9367 17.2715 15.5014 16.0898 15.9553 14.1628 16.5477 15.1209 13.6183 14.1354 13.8866 12.2906 14.3985 13.1402 11.8512 12.2484 11.9402 10.6287 12.4678 11.2612 10.2349 10.5379 10.0656 8.86502 10.5154 9.52988 8.69426 8.90565 8.47896 7.43788 8.76562 7.91615 7.25372 7.47638 6.86156 6.09373 7.18542 6.53283 5.98975 6.16012 5.51061 4.90135 5.78187 5.17405 4.8985 5.00127 4.24044 3.83673 4.61032 4.09062 3.86338 3.87514 3.15755 2.8909 3.38349 3.02248 2.98305 2.98833 2.23609 2.07362 2.52431 2.20128 2.17806 2.18248 1.48696 1.48802 1.63206 1.48047 1.52424 1.49524 0.903635 0.978171 1.03583 0.93691 1.06803 1.00941 0.429089 0.535049 0.519607 0.461336 0.592332 0.567277 0.140814 0.292152 0.25077 0.211363 0.299712 0.276598 0.131849 0.213291 0.209232 0.12694 0.222706 0.240426 39.4611 64.0184 31.8954 46.2092 69.4325 68.8061 53.2099 58.7867 52.3913 57.3239 59.6021 58.5476 52.5516 57.375 53.4506 55.4668 59.987 58.0434 49.9115 54.6398 50.7067 52.8292 58.1608 56.0317 46.745 51.1941 47.3952 49.6244 54.8052 52.8079 43.4878 47.4357 44.1012 46.0927 50.9273 49.0351 40.126 43.8234 40.7393 42.5785 46.9288 45.1877 36.8499 40.2636 37.4739 39.2028 43.1627 41.4971 33.8399 36.9445 34.4498 35.9719 39.5517 38.006 30.9352 33.731 31.5592 32.8847 36.1086 34.7639 28.1909 30.7319 28.7463 30.0201 32.8566 31.6047 25.5906 27.8878 26.1729 27.2223 29.7869 28.6571 23.1537 25.1723 23.7139 24.67 26.8798 25.9034 20.8875 22.589 21.373 22.1636 24.1052 23.2152 18.6997 20.2021 19.155 19.8487 21.5598 20.7498 16.6392 17.903 17.1536 17.6384 19.0928 18.4011 14.683 15.6927 15.116 15.5321 16.8296 16.2157 12.8423 13.7723 13.2851 13.6717 14.5734 14.07 11.2347 11.9554 11.5749 11.886 12.6534 12.248 9.69907 10.1168 9.97074 10.1638 10.7821 10.4289 8.22047 8.5626 8.47024 8.55851 9.11074 8.81013 6.85684 7.01662 7.1369 7.18849 7.50624 7.24317 5.66955 5.74354 5.84385 5.90301 6.02725 5.91451 4.61622 4.53192 4.77589 4.73083 4.77667 4.62073 3.63843 3.47531 3.86415 3.69916 3.57476 3.58764 2.705 2.59771 2.98418 2.84373 2.64554 2.61588 2.0942 1.83019 2.23488 2.05618 1.88414 1.9281 1.47213 1.12168 1.58181 1.39582 1.19825 1.21049 0.964376 0.755136 1.09135 0.917756 0.632723 0.685207 0.570419 0.337222 0.664052 0.550153 0.30901 0.340362 0.269878 0.163626 0.322652 0.204228 0.121597 0.172427 0.161917 0.0860415 0.18732 0.102529 0.111158 0.135478 20.5645 33.0896 15.8191 24.7034 33.5669 30.3251 35.723 43.798 34.3156 40.3768 46.6614 44.3917 37.7292 43.3709 37.8369 41.0855 46.6527 44.6786 36.0952 40.5959 36.5458 38.7914 44.0326 42.1044 33.5849 37.6538 34.0588 36.0721 41.0893 39.1824 30.9914 34.9156 31.4604 33.4857 38.0712 36.3027 28.5892 32.2578 29.0776 30.9413 35.1344 33.4394 26.3416 29.7351 26.8018 28.5955 32.3427 30.7917 24.2907 27.3758 24.7191 26.3416 29.7261 28.2751 22.3496 25.1464 22.7285 24.2324 27.207 25.8892 20.4338 22.9558 20.8181 22.1994 24.8078 23.6017 18.7116 20.9777 19.0911 20.2651 22.6195 21.532 17.0699 19.0103 17.4338 18.3993 20.4639 19.5487 15.5076 17.1788 15.8499 16.6897 18.4182 17.6362 14.0019 15.4221 14.3448 15.1025 16.5702 15.8208 12.6179 13.8179 12.9357 13.5599 14.7286 14.1456 11.3122 12.2459 11.6054 12.0806 13.1082 12.6065 10.0617 10.9102 10.3534 10.753 11.4761 11.0182 8.89359 9.48301 9.11509 9.43067 10.0931 9.74029 7.83604 8.20865 7.99987 8.30257 8.73258 8.44503 6.81676 7.09058 7.02701 7.18581 7.45737 7.23836 5.90665 6.01926 6.07617 6.2011 6.26008 6.07181 5.05234 5.14848 5.1934 5.27317 5.28631 5.1626 4.20424 4.24943 4.42634 4.33769 4.35758 4.29726 3.58664 3.4835 3.74933 3.65393 3.44131 3.50314 2.94972 2.75311 3.10983 2.93887 2.67637 2.68346 2.38162 2.18675 2.44224 2.38633 2.11287 2.16522 1.83663 1.67517 1.90147 1.82429 1.56004 1.59644 1.41312 1.19688 1.4714 1.36659 1.08504 1.16127 0.929993 0.772151 1.05708 0.886888 0.69552 0.750486 0.514797 0.410697 0.652275 0.522728 0.303718 0.38088 0.284277 0.222586 0.326374 0.304062 0.205099 0.235638 10.3571 18.2258 7.11343 12.9529 18.3957 16.666 22.0668 27.9387 20.6239 24.5413 30.0015 28.1942 24.8499 29.2866 24.7772 27.175 32.1822 30.4122 23.8358 27.5609 24.0915 25.9489 30.6619 28.9844 21.9101 25.4577 22.2831 24.0207 28.4392 26.7564 20.1575 23.5977 20.4876 22.19 26.2355 24.673 18.6471 21.9043 18.9201 20.6616 24.2676 22.7366 17.3069 20.3179 17.5923 19.2098 22.3962 21.0395 16.1288 18.8774 16.3857 17.9023 20.7001 19.4401 15.0344 17.5049 15.3414 16.6578 19.1442 17.9665 14.0241 16.2194 14.2737 15.4455 17.5974 16.578 13.0763 14.9847 13.2965 14.3156 16.1745 15.2546 12.0699 13.7932 12.3981 13.2949 14.8293 14.0401 11.1643 12.7067 11.4431 12.2205 13.5235 12.8645 10.3435 11.5935 10.6107 11.2473 12.3045 11.7003 9.53298 10.586 9.78039 10.3153 11.1805 10.6601 8.74537 9.59943 8.9663 9.4231 10.1286 9.65348 8.06692 8.70002 8.25989 8.59671 9.05034 8.72748 7.31227 7.84461 7.52769 7.76916 8.12447 7.80626 6.65099 7.01972 6.84462 6.97218 7.18743 6.99741 6.01374 6.25714 6.18813 6.28709 6.36007 6.17236 5.41818 5.55806 5.56309 5.58529 5.60595 5.48392 4.79736 4.8138 4.95139 4.94738 4.83428 4.77205 4.22842 4.22313 4.38498 4.32112 4.12526 4.13227 3.64977 3.6608 3.80493 3.7216 3.51702 3.52424 3.13742 3.02254 3.26757 3.17465 2.95651 2.98095 2.6467 2.57395 2.82103 2.6608 2.42823 2.45221 2.19389 2.08026 2.25877 2.18145 1.96572 1.95862 1.71038 1.52373 1.73819 1.66095 1.45805 1.51318 1.20745 1.04149 1.31943 1.10814 0.928155 1.05718 0.761746 0.692383 0.831692 0.748582 0.55876 0.630019 0.299396 0.253753 0.453063 0.352779 0.188471 0.258899 5.14163 9.48314 1.58706 5.94891 9.34776 8.79983 15.8725 17.4472 14.6047 15.7394 18.6586 17.9724 18.4792 18.8829 18.4126 18.1078 20.7298 19.9313 17.4578 17.9278 17.7507 17.3706 19.8667 18.9161 15.8266 16.5963 16.1045 16.0608 18.2086 17.2759 14.4647 15.4691 14.6903 14.8917 16.8369 15.8725 13.4032 14.5705 13.6241 13.997 15.7011 14.7525 12.6541 13.7578 12.8663 13.233 14.621 13.843 11.9878 13.0566 12.2457 12.567 13.7457 12.9974 11.4137 12.4263 11.612 11.984 13.0069 12.289 10.8712 11.7215 11.0897 11.3853 12.2 11.5821 10.3122 11.1212 10.5224 10.8402 11.5196 10.9606 9.84632 10.5036 10.0082 10.2727 10.7493 10.2917 9.28918 9.87311 9.51593 9.68433 10.0567 9.70525 8.79093 9.28326 9.01953 9.16705 9.40092 9.08982 8.28259 8.70732 8.48064 8.63287 8.78427 8.46444 7.74714 8.10567 7.97301 8.05337 8.10416 7.94288 7.2024 7.55379 7.42979 7.47516 7.54993 7.33369 6.74212 6.98118 6.86309 6.96381 6.98225 6.7965 6.20427 6.46905 6.43749 6.43245 6.39933 6.24658 5.71321 5.93904 5.89785 5.92158 5.82015 5.69415 5.19289 5.36993 5.46212 5.44133 5.27559 5.1812 4.72547 4.83798 4.86763 4.89265 4.71951 4.63229 4.2537 4.31631 4.42442 4.41531 4.20737 4.18357 3.71304 3.79195 3.90531 3.86375 3.69319 3.66776 3.25538 3.24676 3.39727 3.37288 3.20721 3.1808 2.7296 2.74179 2.90338 2.8831 2.63274 2.67268 2.25005 2.27293 2.44037 2.31347 2.16738 2.20764 1.74694 1.76515 1.86549 1.79598 1.73956 1.69346 1.28584 1.30084 1.42323 1.39366 1.21017 1.20906 0.820139 0.803106 0.923809 0.842575 0.723165 0.738202 0.314011 0.30615 0.510637 0.36518 0.205944 0.27993 9.06655 9.91187 5.76008 8.1405 7.69481 8.67695 20.7654 17.8109 19.4428 18.2625 16.6309 17.6789 23.6852 19.2849 23.689 20.7253 18.5877 19.5789 22.6563 18.3664 22.9996 19.9439 17.6726 18.5939 20.7964 17.0695 21.1809 18.4611 16.1581 16.9342 19.0489 15.847 19.4052 17.1282 14.8876 15.5932 17.5831 14.892 17.9017 15.9586 13.9093 14.4287 16.4055 14.109 16.6827 15.0323 13.0739 13.5726 15.3184 13.3292 15.6322 14.1595 12.359 12.7939 14.326 12.6342 14.6368 13.3165 11.7792 12.1042 13.4025 11.9702 13.741 12.5789 11.1704 11.4421 12.5064 11.343 12.8477 11.9059 10.5973 10.8084 11.7128 10.7264 12.0275 11.1576 10.0538 10.2359 10.8941 10.0913 11.1845 10.4296 9.49497 9.65348 10.1585 9.50347 10.4462 9.77922 8.9087 9.0698 9.40309 8.89237 9.64369 9.12843 8.43558 8.51611 8.71991 8.24838 9.00685 8.54902 7.86346 7.95964 8.02995 7.72522 8.24739 7.9173 7.3992 7.40464 7.37305 7.14001 7.59965 7.28533 6.84778 6.87971 6.70434 6.55079 6.98027 6.67119 6.25762 6.29266 6.09778 5.99108 6.26641 6.11732 5.75816 5.80545 5.47273 5.49406 5.71332 5.5811 5.25738 5.26296 4.84408 4.96717 5.06113 4.99608 4.8418 4.76323 4.32729 4.38123 4.54042 4.44072 4.19934 4.20565 3.76767 3.87833 3.97255 3.89901 3.75049 3.73186 3.23696 3.32919 3.40955 3.40568 3.21379 3.22777 2.74276 2.84124 2.91357 2.83022 2.7131 2.71281 2.1784 2.29202 2.44081 2.33504 2.19067 2.24891 1.76336 1.78924 1.95224 1.80987 1.76809 1.75099 1.32045 1.30725 1.45966 1.31675 1.23228 1.302 0.820532 0.851629 0.955167 0.862245 0.856936 0.822749 0.297724 0.353852 0.403946 0.38833 0.27947 0.343002 18.1518 18.8218 13.7963 17.0203 14.7647 16.263 32.937 28.305 31.4956 29.4889 25.3036 27.1097 35.8648 29.7918 35.9089 32.196 27.5122 29.4478 34.4094 28.3469 34.878 30.9444 26.2971 28.1369 31.8776 26.2539 32.3864 28.7005 24.2687 26.0345 29.3617 24.3311 29.8903 26.5183 22.3526 23.9178 27.0806 22.5618 27.5886 24.5601 20.6683 22.0573 24.9988 20.9552 25.5248 22.7584 19.1551 20.4215 23.0486 19.4515 23.508 21.1019 17.8095 18.9302 21.2994 18.0726 21.734 19.541 16.5683 17.5617 19.5678 16.7296 20.0414 18.0443 15.358 16.2432 17.9678 15.5005 18.3951 16.6233 14.2546 14.9957 16.4505 14.2679 16.8516 15.2969 13.2301 13.8264 15.015 13.0708 15.3882 14.0304 12.1597 12.7381 13.6477 12.0597 14.0114 12.789 11.2563 11.6592 12.3387 11.0025 12.7152 11.67 10.2623 10.658 11.1213 9.99357 11.4739 10.5678 9.40228 9.6633 10.0337 9.04879 10.2677 9.51877 8.57993 8.83824 8.93116 8.19841 9.17697 8.52861 7.71355 7.93642 7.86672 7.39526 8.20766 7.69163 6.98748 7.125 7.01281 6.52247 7.25671 6.79268 6.29986 6.39652 6.021 5.88451 6.29915 5.97829 5.64396 5.71078 5.2303 5.18326 5.497 5.2326 4.94321 4.9964 4.47946 4.47418 4.71314 4.50302 4.36406 4.31222 3.80714 3.79213 3.99741 3.84282 3.72947 3.78428 3.13899 3.24245 3.41306 3.27091 3.14599 3.11924 2.56717 2.70161 2.74199 2.67552 2.64358 2.65474 2.03707 2.11254 2.23381 2.15112 2.01767 2.06637 1.52809 1.66656 1.69046 1.63439 1.6117 1.59656 1.07821 1.18336 1.2535 1.19384 1.05968 1.07756 0.584492 0.703955 0.807352 0.698516 0.710978 0.668771 0.250322 0.347337 0.374082 0.362912 0.369237 0.367805 33.869 32.362 28.845 31.0863 26.4752 28.6245 49.0703 43.2257 48.1517 44.8951 39.1953 41.243 50.0464 43.7483 50.4297 46.5853 40.9405 43.0005 47.6685 41.2774 48.3505 44.247 38.9358 40.9685 44.5471 38.291 45.2113 41.1374 36.0936 38.1078 41.2913 35.4073 41.9651 38.1522 33.3083 35.1635 38.1162 32.7703 38.806 35.2098 30.7445 32.4333 35.1483 30.339 35.8468 32.5662 28.4031 29.9105 32.3582 27.8493 32.9784 30.0214 26.1124 27.4844 29.5847 25.6758 30.2324 27.5632 24.0277 25.2523 27.0717 23.5477 27.6987 25.2495 22.0391 23.1588 24.6794 21.4356 25.3079 23.0009 20.1422 21.1242 22.4313 19.576 22.9815 20.8955 18.3925 19.1937 20.2143 17.7098 20.8055 18.9399 16.6862 17.4175 18.2445 15.8742 18.7063 17.0923 15.0481 15.7084 16.2448 14.3035 16.6854 15.2577 13.5316 14.1034 14.3919 12.7408 14.9716 13.6142 12.1011 12.5418 12.7497 11.3588 13.1542 12.0064 10.8297 11.1662 11.148 9.9145 11.509 10.5183 9.58466 9.84873 9.64744 8.67134 10.0239 9.20677 8.31715 8.57275 8.27322 7.54337 8.67319 7.8691 7.30898 7.45364 7.05343 6.40257 7.34254 6.8442 6.24488 6.34008 5.8968 5.52642 6.14943 5.70115 5.38238 5.47872 4.83692 4.67614 5.13079 4.73101 4.56083 4.55675 3.89974 3.78063 4.11223 3.86545 3.75985 3.76233 3.11204 3.04499 3.31492 3.14672 3.04954 2.99681 2.35771 2.40539 2.56029 2.48318 2.47953 2.35707 1.74559 1.86077 1.87944 1.87325 1.87046 1.86653 1.20498 1.34928 1.35788 1.32361 1.34418 1.34965 0.742329 0.890568 0.851727 0.951327 0.924417 0.935196 0.415435 0.4866 0.464353 0.5012 0.513512 0.544922 0.187543 0.369403 0.27119 0.2934 0.322114 0.274871 66.7258 52.7647 66.3598 58.8322 45.7633 48.6435 63.2428 59.578 64.5301 61.449 55.5261 57.2406 62.9359 58.0239 63.7904 60.6969 55.0666 57.0083 60.9054 54.6891 61.7809 57.7754 52.2326 54.352 57.6765 51.1307 58.5492 54.2358 48.8692 50.9652 53.7908 47.5369 54.7467 50.488 45.3832 47.376 49.7472 43.9769 50.7996 46.7916 41.9394 43.7304 45.9409 40.5505 46.7823 43.1296 38.6553 40.3057 42.2064 37.2802 43.0704 39.6974 35.5443 37.0313 38.6446 34.197 39.5325 36.4017 32.5538 33.9328 35.2362 31.2298 36.0821 33.2104 29.7201 30.9168 32.0712 28.3455 32.839 30.2002 26.9961 28.1616 28.9656 25.6702 29.6864 27.3303 24.5008 25.4534 26.097 23.0678 26.8093 24.6353 22.0501 22.9206 23.3696 20.642 23.9667 22.0225 19.7903 20.5205 20.7478 18.326 21.4187 19.5967 17.6125 18.2347 18.2672 16.2592 18.8802 17.3021 15.5139 16.1726 16.0488 14.1659 16.6614 15.1898 13.6354 14.151 13.8581 12.3592 14.4868 13.1611 11.905 12.285 11.9263 10.5917 12.3856 11.3092 10.2335 10.6306 10.0605 8.93742 10.5298 9.54618 8.73083 8.93315 8.36007 7.51665 8.84296 8.02012 7.33296 7.51915 6.87456 6.17679 7.3022 6.59326 6.06346 6.18872 5.49776 4.95784 5.77379 5.24286 4.93501 4.99159 4.27192 3.86102 4.5846 4.11029 3.8874 3.92402 3.20069 2.96481 3.3984 3.00278 2.99703 2.98582 2.22867 2.14058 2.45593 2.24743 2.19588 2.17608 1.48676 1.44144 1.74211 1.54297 1.49778 1.5035 0.832916 0.9764 0.994856 0.840243 1.03724 0.992174 0.411039 0.512107 0.578598 0.485563 0.596702 0.553423 0.173509 0.273648 0.254123 0.273219 0.352959 0.301709 0.152847 0.24159 0.212397 0.102616 0.183452 0.172513 40.5105 65.7181 34.1526 48.2576 69.3504 68.4807 53.7707 59.747 53.3601 58.2667 60.9437 59.6595 52.3912 56.6373 53.5062 54.8536 60.19 58.2934 49.237 53.4491 49.9331 51.6521 57.6274 55.6399 46.0364 50.0876 46.5338 48.4583 54.0969 52.1846 42.8017 46.6365 43.2869 45.227 50.3034 48.4837 39.6519 43.2149 40.2027 42.0019 46.5057 44.7963 36.574 39.9677 37.1563 38.8523 42.8957 41.2698 33.6671 36.7747 34.2721 35.7937 39.3323 37.8682 30.8829 33.6998 31.418 32.837 36.0083 34.6572 28.2645 30.7248 28.7956 30.0638 32.8006 31.6225 25.6239 27.9246 26.2026 27.2888 29.7322 28.6359 23.2568 25.1767 23.769 24.7368 26.8884 25.8651 20.9068 22.6453 21.4073 22.3108 24.1508 23.2634 18.7682 20.2212 19.2696 19.9204 21.5305 20.7743 16.732 17.9652 17.1691 17.7372 19.094 18.4427 14.8205 15.8708 15.2345 15.7065 16.799 16.2111 12.9736 13.8217 13.3474 13.7253 14.6317 14.1497 11.285 11.9569 11.6193 11.9886 12.6469 12.2523 9.7122 10.1367 10.0611 10.2408 10.7981 10.4482 8.24589 8.62084 8.58238 8.73499 9.11417 8.87226 6.97903 7.19798 7.23515 7.23768 7.58472 7.35108 5.73816 5.84963 6.0036 6.01023 6.09998 5.97182 4.68183 4.59524 4.86512 4.79133 4.87322 4.68486 3.69484 3.55508 3.94595 3.79668 3.71514 3.6342 2.8412 2.66049 3.0734 2.89984 2.68949 2.68208 2.12982 1.95425 2.28426 2.104 1.88723 1.87775 1.51602 1.26131 1.60609 1.49705 1.16536 1.20156 1.02137 0.819832 1.1426 0.952096 0.601503 0.693129 0.617175 0.410223 0.731155 0.534559 0.345518 0.366344 0.305712 0.141305 0.358039 0.300103 0.126899 0.14448 0.16565 0.161328 0.149579 0.166994 0.107793 0.103391 21.8424 35.6875 18.495 27.6249 34.7776 31.3032 35.8065 43.9567 34.7073 40.7197 46.8713 44.7115 37.1798 42.0818 37.334 40.0218 46.0585 44.2567 35.1924 39.0307 35.5552 37.3713 43.1071 41.4052 32.838 36.5138 33.0933 34.9392 40.2067 38.5123 30.488 34.1726 30.7851 32.7548 37.4548 35.7314 28.2816 31.9093 28.657 30.5985 34.7461 33.1499 26.258 29.6284 26.6518 28.4399 32.1386 30.6154 24.3217 27.4059 24.7244 26.3683 29.6512 28.2539 22.4396 25.2612 22.8366 24.3712 27.2321 25.9188 20.6281 23.1674 21.0614 22.3725 24.9287 23.7435 18.8703 21.1616 19.3141 20.5041 22.679 21.6817 17.2677 19.2456 17.6799 18.7069 20.5872 19.6686 15.6933 17.4259 16.1053 16.9762 18.5699 17.7644 14.2455 15.6979 14.5843 15.3692 16.6977 15.9585 12.8118 14.087 13.1933 13.7864 14.9628 14.3163 11.4958 12.5688 11.8667 12.3671 13.2207 12.6936 10.2369 11.0062 10.6273 10.9672 11.6538 11.2383 9.11645 9.81247 9.46734 9.74815 10.1737 9.78325 8.02419 8.48952 8.27434 8.51028 8.85297 8.53824 7.00789 7.32482 7.30808 7.38481 7.58546 7.33283 6.13003 6.27356 6.34952 6.38987 6.44933 6.28464 5.24406 5.33707 5.46768 5.44923 5.39598 5.32507 4.45099 4.40874 4.71621 4.60184 4.49348 4.40038 3.74204 3.6323 3.90651 3.82934 3.59668 3.58427 3.06523 3.00436 3.20444 3.18211 2.82057 2.84138 2.47928 2.34986 2.64204 2.50752 2.25568 2.24541 1.93602 1.77774 2.0994 1.96714 1.61042 1.67057 1.48988 1.32498 1.60459 1.49896 1.13953 1.22338 1.00693 0.876724 1.12328 1.0042 0.728242 0.771459 0.59928 0.551316 0.652125 0.570045 0.429795 0.455871 0.234309 0.31605 0.355628 0.251895 0.233433 0.297661 10.8162 19.6484 8.85545 14.6269 19.2087 17.1824 21.3081 27.3154 19.8607 23.9566 29.6082 27.917 23.7702 27.6795 23.5611 25.7307 31.2982 29.6771 22.8033 26.1623 22.916 24.6003 29.6114 28.0984 21.2278 24.6142 21.3515 23.1187 27.6479 26.1452 19.8313 23.2498 20.0223 21.8239 25.8032 24.2804 18.5982 21.8607 18.8503 20.6157 24.0935 22.6233 17.4889 20.5817 17.7679 19.4538 22.452 21.0494 16.4487 19.2816 16.7448 18.2877 20.9026 19.614 15.408 18.0271 15.7302 17.1284 19.3334 18.2021 14.4224 16.7093 14.7326 15.9497 17.9092 16.8572 13.4725 15.4748 13.7624 14.8874 16.4598 15.5675 12.5438 14.3395 12.8693 13.8136 15.1571 14.3473 11.6532 13.2061 11.9427 12.8 13.8749 13.1765 10.7681 12.1278 11.0854 11.7892 12.6619 12.011 9.98173 11.0484 10.2848 10.8013 11.4407 10.9276 9.16774 10.0713 9.45545 9.91639 10.4045 9.98786 8.45419 9.1343 8.6717 9.06434 9.28632 8.94864 7.68534 8.32911 7.91809 8.2594 8.37486 8.10587 6.99237 7.41642 7.24692 7.44717 7.52448 7.26827 6.33135 6.63793 6.5076 6.68731 6.60645 6.4589 5.65054 5.94361 5.89258 6.0089 5.81786 5.73179 5.08715 5.20761 5.26992 5.2797 5.07557 4.94557 4.4465 4.48933 4.60876 4.5923 4.35295 4.35179 3.85152 3.95225 4.10267 4.09335 3.69697 3.71929 3.35013 3.31686 3.48494 3.46106 3.14773 3.11948 2.78609 2.76016 2.97617 2.83522 2.58517 2.63821 2.22051 2.22746 2.46557 2.36566 2.06252 2.09378 1.80418 1.68836 1.91636 1.82435 1.59568 1.60558 1.20903 1.22257 1.36181 1.31343 1.0638 1.14556 0.810324 0.731132 0.920905 0.801676 0.679733 0.738936 0.408183 0.37877 0.451169 0.362485 0.251243 0.316708 3.79187 8.1001 1.25014 4.88041 8.65832 7.98314 14.199 15.283 12.6304 13.3709 17.2092 16.6987 16.8478 16.9373 16.4212 15.9831 19.319 18.6221 16.3175 16.698 16.2668 15.9895 18.74 17.9248 15.264 16.1338 15.3242 15.4172 17.6569 16.7651 14.3748 15.5827 14.5396 14.9087 16.6866 15.7717 13.7118 15.0121 13.8906 14.4166 15.839 14.9277 13.1068 14.4231 13.3326 13.9131 15.0093 14.182 12.5491 13.8257 12.8542 13.3995 14.3003 13.4852 12.0399 13.1905 12.2975 12.8184 13.5091 12.7978 11.4796 12.5836 11.7736 12.2362 12.8331 12.1615 10.9643 11.9393 11.2449 11.6702 12.1048 11.4944 10.4162 11.3015 10.7125 11.115 11.3744 10.8294 9.87428 10.6594 10.1721 10.5035 10.6461 10.1744 9.32584 10.0145 9.62933 9.90555 9.97508 9.54249 8.79941 9.3852 9.11945 9.3503 9.2842 8.95973 8.2591 8.78316 8.53399 8.73609 8.5727 8.35936 7.70148 8.21436 7.98847 8.13894 8.02941 7.75274 7.13476 7.595 7.42068 7.54657 7.42593 7.20794 6.63968 6.9759 6.8065 7.00007 6.80107 6.631 6.11223 6.3678 6.28577 6.40743 6.15782 6.04994 5.63929 5.83061 5.82323 5.88384 5.5706 5.47163 4.9941 5.22804 5.25551 5.30571 5.0583 4.97677 4.52975 4.64276 4.77452 4.72962 4.48957 4.38633 3.98667 4.11387 4.16738 4.16997 3.93526 3.88976 3.447 3.58147 3.64654 3.64305 3.43615 3.30688 2.97154 3.00415 3.11396 3.12668 2.81448 2.82137 2.42557 2.45537 2.58706 2.52038 2.25807 2.28418 1.91409 1.94473 2.09785 1.98474 1.76862 1.83612 1.39063 1.38616 1.56676 1.46507 1.34321 1.34716 0.926403 0.912784 1.04758 0.936721 0.904903 0.843878 0.327913 0.253048 0.477416 0.400653 0.370495 0.411347 9.20132 8.62525 7.30004 8.21714 6.21341 7.66554 19.8248 15.6854 18.5018 16.4767 14.8621 16.3003 22.4974 17.4179 22.2473 18.8517 16.9875 18.2671 21.7089 17.2611 21.7569 18.6759 16.5883 17.6268 20.2763 16.718 20.4514 17.9504 15.6874 16.5196 18.9301 16.0583 19.1887 17.1131 14.9199 15.5274 17.7747 15.439 18.0595 16.3785 14.2663 14.6852 16.6801 14.7797 17.053 15.6133 13.5921 13.9579 15.7413 14.1598 16.0681 14.8787 13.0104 13.2985 14.8034 13.495 15.1582 14.1219 12.4663 12.6757 13.8934 12.8198 14.2775 13.3509 11.8573 12.0027 13.0507 12.1448 13.404 12.6314 11.2886 11.3801 12.2357 11.4813 12.5744 11.8908 10.694 10.7701 11.3891 10.8427 11.7095 11.1875 10.119 10.2019 10.5828 10.2194 10.9953 10.4892 9.53982 9.61734 9.82796 9.58659 10.139 9.77655 8.99128 8.9867 9.11696 8.93172 9.3924 9.12893 8.43424 8.37432 8.40906 8.33115 8.67877 8.51369 7.88993 7.79761 7.69307 7.70231 7.97556 7.83482 7.33269 7.23642 7.0507 7.09122 7.32356 7.21124 6.80652 6.70653 6.39914 6.50029 6.62226 6.59372 6.19653 6.10049 5.79108 5.90137 6.02956 5.96058 5.63503 5.58052 5.14437 5.31268 5.41609 5.38534 5.02717 5.02865 4.60148 4.75621 4.88004 4.79155 4.52278 4.48961 4.00295 4.19488 4.22029 4.22496 4.05695 3.94685 3.4635 3.61637 3.61873 3.64229 3.43825 3.40517 2.87807 3.06929 3.06368 3.04601 2.90896 2.88625 2.42623 2.46856 2.53237 2.49001 2.37706 2.3648 1.87605 1.99919 2.02081 1.98518 1.82446 1.89964 1.31467 1.44579 1.49878 1.44189 1.36558 1.35296 0.883237 0.905491 0.939996 0.956011 0.846905 0.86526 0.382857 0.330798 0.440625 0.378179 0.315942 0.430009 19.3608 20.3478 16.5135 19.2751 15.2382 16.668 32.9162 27.6284 31.777 29.2763 24.5896 26.7501 35.1862 28.4218 35.2883 31.0151 26.4516 28.6285 33.5779 27.1975 33.9248 29.7216 25.3817 27.3841 31.2727 25.5626 31.6378 27.9761 23.7033 25.4652 29.0384 24.1542 29.4059 26.251 22.1689 23.7405 27.0018 22.6986 27.4392 24.5385 20.7412 22.1031 25.0748 21.31 25.5676 23.0206 19.4413 20.6055 23.2627 19.9196 23.7165 21.4471 18.1425 19.1627 21.5177 18.5471 21.9818 19.9364 16.9919 17.8663 19.8292 17.273 20.3369 18.5136 15.7908 16.5534 18.2841 16.0029 18.6919 17.1013 14.6507 15.3025 16.7278 14.7669 17.1812 15.7392 13.6361 14.1623 15.3047 13.6264 15.7083 14.4655 12.5823 13.0521 13.9627 12.5326 14.3472 13.2865 11.5883 11.933 12.6048 11.4472 13 12.1053 10.7096 11.0072 11.3888 10.5001 11.7666 10.9869 9.78414 9.99477 10.2099 9.54695 10.6075 9.97311 8.94584 9.10382 9.16299 8.62394 9.48008 8.99247 8.12173 8.26165 8.20032 7.81427 8.44875 8.0284 7.38859 7.43877 7.19949 6.977 7.48342 7.14402 6.67358 6.59478 6.29751 6.16038 6.57192 6.39165 5.89225 5.93086 5.45514 5.45154 5.75469 5.57522 5.21851 5.22721 4.70196 4.80278 4.93113 4.82557 4.56087 4.56036 4.00345 4.07596 4.24962 4.17981 4.00027 3.95533 3.35005 3.50538 3.52734 3.46764 3.37946 3.32077 2.75487 2.92376 2.90579 2.93045 2.86961 2.79636 2.13527 2.33124 2.34278 2.32204 2.28856 2.19802 1.6304 1.77384 1.78724 1.76108 1.75409 1.71688 1.1668 1.26914 1.29125 1.26084 1.24967 1.24527 0.705996 0.810043 0.877564 0.7833 0.786931 0.752028 0.373106 0.412788 0.448187 0.421756 0.380981 0.386795 35.1228 35.3606 31.0533 34.0402 27.8944 29.7308 49.6118 43.4571 49.0358 45.6698 39.3752 41.674 49.8597 42.5606 50.4483 45.7396 40.2323 42.6589 46.9796 39.9743 47.6341 43.0427 37.978 40.3136 43.8521 37.4148 44.4432 40.1597 35.4243 37.4981 40.8275 34.9501 41.3527 37.5308 32.9366 34.7988 37.8265 32.6437 38.4779 35.0188 30.6031 32.2852 35.0404 30.3662 35.6507 32.5335 28.3663 29.8844 32.334 28.0258 32.9316 30.0601 26.2672 27.5548 29.668 25.8871 30.339 27.7462 24.209 25.4082 27.185 23.7337 27.7915 25.444 22.2377 23.2845 24.8144 21.7811 25.4233 23.2936 20.4107 21.3306 22.4476 19.8061 23.1163 21.1746 18.6043 19.4199 20.4236 18.0016 20.948 19.1798 16.9226 17.6119 18.345 16.1505 18.855 17.2684 15.2829 15.847 16.3417 14.5451 16.8683 15.5009 13.7481 14.2416 14.5445 13.0094 15.0485 13.8385 12.3504 12.7306 12.8623 11.5971 13.3257 12.2504 10.9818 11.3698 11.2829 10.1912 11.6698 10.7957 9.72052 9.97274 9.7888 8.97255 10.1838 9.40087 8.62114 8.78307 8.42549 7.79531 8.76808 8.12413 7.48961 7.6441 7.16701 6.71385 7.44944 6.97892 6.46492 6.51354 6.03204 5.72381 6.29706 5.86776 5.53218 5.57133 4.96538 4.80103 5.21792 4.96023 4.66519 4.75195 3.97565 3.97888 4.26328 4.04817 3.92349 3.91795 3.15254 3.2941 3.38818 3.25386 3.19839 3.14521 2.43404 2.56972 2.66979 2.6321 2.59789 2.5154 1.82644 2.06885 2.0181 2.03573 2.01306 1.95481 1.25844 1.5131 1.45115 1.43569 1.48678 1.44253 0.835883 0.997867 0.988811 0.994584 1.01441 0.929653 0.453885 0.547265 0.519094 0.585491 0.617665 0.598739 0.245678 0.329693 0.255842 0.26638 0.369503 0.328416 66.5762 56.1639 65.737 60.8658 47.1728 49.8024 64.8379 60.7329 66.701 63.3472 56.2949 58.2422 63.6236 57.2536 64.7474 60.5617 54.8192 57.1098 60.8353 53.5499 61.5848 56.8841 51.5135 53.8955 57.142 50.2037 57.9792 53.2991 48.1785 50.4214 53.3608 46.9324 54.2141 49.8847 44.8987 46.9055 49.5412 43.6908 50.4398 46.3819 41.6815 43.505 45.7965 40.3798 46.6319 43.0039 38.5913 40.1684 42.1086 37.284 42.97 39.6867 35.4913 36.9775 38.5985 34.1857 39.5061 36.4289 32.5894 33.8735 35.2828 31.2402 36.0948 33.3057 29.7917 30.9958 32.0363 28.4455 32.8782 30.2778 27.1313 28.1829 29.0285 25.7817 29.7872 27.4525 24.5276 25.5123 26.1716 23.1857 26.8498 24.6513 22.1581 22.9836 23.3279 20.7519 24.0953 22.1087 19.8852 20.5741 20.8305 18.4794 21.477 19.7123 17.6823 18.3287 18.3095 16.303 19.0268 17.4206 15.6993 16.2378 16.0468 14.3114 16.6534 15.1824 13.7614 14.1965 13.9488 12.3667 14.594 13.2156 11.9964 12.4008 11.9591 10.6442 12.4314 11.3839 10.3287 10.6214 10.1155 9.08913 10.5952 9.62094 8.82343 9.04491 8.43101 7.57774 8.89159 8.06261 7.36484 7.61135 6.85401 6.22654 7.33561 6.5764 6.16413 6.30667 5.56355 4.98654 5.93292 5.42305 4.98679 5.0677 4.21541 4.03748 4.56775 4.26239 3.93041 3.97006 3.16991 2.99941 3.54298 3.13237 3.04892 3.06026 2.24906 2.23999 2.49654 2.27789 2.25033 2.21124 1.57619 1.56331 1.70763 1.50123 1.66199 1.54354 0.861028 1.0483 0.998919 0.982282 1.10498 1.10879 0.433958 0.646119 0.508599 0.487688 0.669486 0.632454 0.161155 0.250234 0.243601 0.295092 0.325021 0.300899 0.162603 0.267271 0.142876 0.190819 0.208904 0.229759 45.0546 74.7232 44.3191 62.0807 70.1513 70.4441 53.5925 54.8324 54.808 54.0062 60.911 60.3068 50.392 51.8166 51.0344 50.0235 58.3659 56.9625 47.1788 50.0971 47.088 48.2312 55.6616 53.9301 44.452 48.0522 44.4301 46.4586 52.585 50.783 41.8041 45.6068 41.9989 44.0812 49.2922 47.5479 39.0628 42.7355 39.5003 41.5149 45.8812 44.208 36.3267 39.7408 36.8239 38.6677 42.5547 40.9019 33.5868 36.7078 34.1524 35.7981 39.157 37.7093 30.8998 33.72 31.5114 32.9997 35.9315 34.5721 28.2762 30.8474 28.8854 30.2595 32.8121 31.5702 25.7901 28.066 26.3615 27.5336 29.84 28.6848 23.3996 25.3529 23.923 24.9432 26.9655 25.9554 21.1067 22.8528 21.6283 22.4848 24.2744 23.3781 18.9328 20.4287 19.4783 20.1827 21.656 20.8685 16.9153 18.1755 17.4335 17.9618 19.225 18.5611 14.9931 15.9673 15.3954 15.9599 16.86 16.3274 13.1299 14.0337 13.5837 13.9947 14.8425 14.2987 11.4937 12.1105 11.866 12.1668 12.7643 12.3451 9.90288 10.4147 10.245 10.4647 10.899 10.4991 8.48588 8.7379 8.78098 8.97922 9.191 8.92468 7.16585 7.36124 7.49652 7.5596 7.67327 7.46464 5.9035 6.1002 6.25437 6.24548 6.23783 6.05813 4.85174 4.80874 5.0986 5.01656 4.97095 4.85149 3.89249 3.7473 4.09189 4.08737 3.78835 3.74461 2.98832 2.78509 3.19048 3.08204 2.78194 2.76326 2.28481 2.07684 2.50067 2.3452 2.02178 2.05036 1.66736 1.44605 1.8532 1.627 1.28926 1.32353 1.14705 0.873669 1.26683 1.09122 0.613484 0.718523 0.652662 0.501319 0.821813 0.687267 0.299132 0.378068 0.310177 0.217189 0.465389 0.313736 0.123416 0.151915 0.130387 0.152249 0.137279 0.178107 0.104156 0.162357 26.1091 47.3343 27.1993 38.3885 38.5418 35.5273 35.3368 38.1276 35.475 38.0444 45.7395 44.4756 35.1252 37.1887 34.9606 35.9613 43.4244 42.3054 33.1929 36.1948 32.9002 34.4703 40.8172 39.372 31.4389 35.0604 31.3068 33.3314 38.689 37.059 29.7746 33.5876 29.8742 32.0121 36.5227 34.8686 28.0317 31.7682 28.3415 30.4177 34.3393 32.749 26.3278 29.7826 26.6898 28.6205 32.0526 30.5301 24.5515 27.71 24.9513 26.7916 29.695 28.2955 22.7769 25.6737 23.2433 24.8496 27.368 26.0746 21.0715 23.6093 21.4374 22.9291 25.1396 23.9573 19.3421 21.7153 19.7885 21.0865 22.9765 21.8966 17.7374 19.7536 18.1458 19.2554 20.8597 19.9173 16.1615 17.8981 16.6228 17.529 18.8693 18.0665 14.6373 16.1817 15.0829 15.9071 17.0607 16.2913 13.2752 14.5755 13.6883 14.3838 15.2218 14.5827 11.918 12.9757 12.2809 12.8723 13.5232 13.0031 10.6484 11.6045 11.1251 11.5008 11.937 11.4701 9.5371 10.2356 9.89651 10.2425 10.5296 10.1877 8.39764 8.92526 8.76683 9.01753 9.14411 8.80484 7.45391 7.77194 7.70606 7.95055 7.85965 7.62403 6.45404 6.73683 6.73322 6.86681 6.73811 6.54874 5.61694 5.6623 5.82399 5.88053 5.62169 5.54669 4.75006 4.84211 4.98613 4.98987 4.6926 4.59602 4.06055 4.00527 4.31239 4.21381 3.88231 3.81609 3.34414 3.27054 3.5668 3.51906 3.01387 3.03838 2.69729 2.6147 2.93806 2.83246 2.41647 2.4032 2.19371 1.97408 2.35962 2.22282 1.80152 1.88265 1.6524 1.56769 1.78252 1.67265 1.32123 1.38268 1.09187 1.04 1.26632 1.13113 0.80895 0.866014 0.672231 0.552783 0.812098 0.649932 0.380303 0.495744 0.288252 0.271568 0.351024 0.280626 0.21364 0.340809 12.9872 27.1389 14.5248 21.334 22.0791 19.9938 19.6157 22.4596 18.7072 20.9007 28.2299 26.9971 21.4203 24.0147 20.8268 22.4283 28.9157 27.6278 21.1078 24.1121 20.6685 22.5438 27.7116 26.3687 20.3472 23.8718 20.2259 22.2514 26.5304 25.0735 19.665 23.2184 19.6795 21.8008 25.3501 23.8702 18.896 22.4207 19.1249 21.1312 24.0574 22.6019 18.0378 21.3134 18.356 20.1878 22.7674 21.3707 17.1222 20.0827 17.4948 19.1374 21.364 20.0324 16.1848 18.8252 16.5819 18.0543 19.9182 18.7393 15.2216 17.6115 15.603 16.9678 18.5248 17.4354 14.2786 16.3858 14.629 15.8165 17.1094 16.1573 13.3592 15.1835 13.7222 14.6773 15.7817 14.9475 12.431 14.0033 12.8084 13.6863 14.4879 13.7243 11.5171 12.937 11.9678 12.6914 13.2006 12.5893 10.6895 11.9041 11.0216 11.6692 12.132 11.5323 9.83877 10.885 10.209 10.7491 10.9646 10.4794 9.0578 9.88584 9.39951 9.79767 9.85992 9.50253 8.32042 9.01849 8.64068 8.9769 8.91946 8.63394 7.60313 8.17876 7.89293 8.21212 8.00515 7.70047 6.85563 7.29805 7.13324 7.34939 7.20286 6.96092 6.20393 6.47278 6.425 6.54492 6.31977 6.12043 5.53012 5.74866 5.75296 5.87926 5.53406 5.42387 4.90619 5.00762 5.10092 5.11809 4.7736 4.68988 4.25206 4.32939 4.53641 4.51451 4.05961 4.05972 3.63716 3.7156 3.89134 3.84298 3.45368 3.42207 3.11678 3.09422 3.23323 3.28092 2.83778 2.84566 2.54969 2.54703 2.72098 2.63318 2.30442 2.26329 1.94396 1.94315 2.09118 2.03172 1.74568 1.73462 1.44335 1.40717 1.63351 1.52285 1.17534 1.24443 0.902678 0.915909 1.0531 1.02209 0.746453 0.811905 0.409669 0.388262 0.58341 0.375871 0.34289 0.34534 2.41649 9.67774 5.59634 6.97379 8.82962 7.61459 10.5661 10.3396 8.3565 8.45704 14.4158 14.0288 13.9278 13.9938 12.8834 12.8715 16.7887 16.211 14.6892 15.6306 14.2018 14.6654 17.2191 16.4706 14.7755 16.215 14.6492 15.4082 17.092 16.2418 14.6851 16.3128 14.7847 15.601 16.8621 15.9355 14.4476 16.1261 14.6985 15.5077 16.4269 15.4713 14.105 15.701 14.4166 15.2282 15.8668 14.9576 13.6877 15.1952 14.049 14.7663 15.218 14.3805 13.1299 14.5936 13.5526 14.2126 14.5321 13.7332 12.6272 13.8988 13.0237 13.6195 13.8015 13.0924 12.0571 13.1811 12.4217 12.8962 13.0727 12.425 11.4849 12.5149 11.8593 12.2969 12.3231 11.7468 10.885 11.8229 11.246 11.7133 11.5963 11.049 10.2674 11.1833 10.6151 11.025 10.8417 10.4041 9.68665 10.4676 10.0254 10.4051 10.1749 9.72119 9.10699 9.81514 9.44378 9.74397 9.45342 9.09528 8.49734 9.14545 8.86979 9.0978 8.79069 8.48801 7.88153 8.50444 8.21243 8.46098 8.1252 7.85829 7.31101 7.80723 7.62295 7.82954 7.45936 7.22401 6.75803 7.15094 7.0387 7.1742 6.78636 6.54442 6.14577 6.50429 6.44265 6.50172 6.16177 6.06072 5.57296 5.88204 5.78288 5.95182 5.53683 5.39253 4.92575 5.20696 5.26408 5.27946 4.92584 4.86474 4.43451 4.618 4.67985 4.69267 4.25597 4.22212 3.86548 3.97577 4.083 4.09256 3.72214 3.6677 3.22911 3.32765 3.45047 3.42976 3.15388 3.09724 2.68322 2.74741 2.91097 2.85211 2.53697 2.58221 2.0975 2.14702 2.32168 2.29264 2.07103 2.04542 1.56324 1.60253 1.71685 1.69806 1.4487 1.47094 1.00924 1.09154 1.23531 1.11211 0.871852 0.979697 0.454659 0.457384 0.660272 0.610781 0.306718 0.343392 10.8842 7.87429 12.7337 11.8448 4.31532 6.6056 17.7254 11.1502 16.6376 12.3912 11.2687 13.4973 20.1954 14.9435 19.5715 16.0342 14.2956 15.864 20.2621 16.4921 19.9928 17.4438 15.2382 16.2981 19.6709 16.9983 19.7473 17.8187 15.4894 16.1868 18.9713 16.9579 19.2002 17.7612 15.3572 15.8366 18.2408 16.6647 18.6138 17.3176 15.0838 15.3632 17.4284 16.1545 17.8027 16.7785 14.7138 14.8912 16.5779 15.5322 17.0011 16.1032 14.1966 14.2531 15.6992 14.8696 16.1302 15.3998 13.6283 13.6499 14.8153 14.1892 15.2867 14.6706 13.0329 13.0244 13.959 13.4481 14.3815 13.8594 12.3765 12.3545 13.0553 12.7594 13.4906 13.0276 11.7732 11.7125 12.2263 12.04 12.6279 12.2894 11.1429 11.0676 11.3924 11.3337 11.7985 11.522 10.5 10.4206 10.6085 10.6237 10.981 10.7473 9.83034 9.74963 9.84119 9.99086 10.2456 10.118 9.242 9.1782 9.08765 9.2637 9.46184 9.31611 8.60616 8.55388 8.37935 8.56999 8.77838 8.68747 8.05889 7.94207 7.6219 7.90679 7.95578 8.00789 7.44777 7.276 6.98561 7.24318 7.24326 7.20703 6.84276 6.70275 6.30302 6.63652 6.58481 6.67696 6.15025 6.08319 5.70257 5.87808 5.98381 5.96344 5.61922 5.49285 5.00824 5.29082 5.30852 5.39615 4.97797 4.91771 4.39039 4.68394 4.63755 4.74751 4.45402 4.35617 3.79685 4.08066 4.07942 4.08358 3.88721 3.75671 3.14318 3.43298 3.39068 3.52316 3.18629 3.15259 2.60468 2.81686 2.86056 2.80148 2.66687 2.58099 2.03852 2.24111 2.28999 2.21109 2.09727 2.03512 1.51884 1.6685 1.70029 1.73766 1.55211 1.54054 0.985592 1.14139 1.14671 1.14908 0.998577 0.960013 0.401919 0.429448 0.563109 0.512134 0.426771 0.423535 23.417 25.1562 25.142 27.4529 16.9569 18.9316 32.2653 23.4181 32.1621 26.3958 22.6566 25.6622 33.3175 25.5844 33.247 28.0159 24.2379 26.8156 31.9628 25.8879 31.9671 27.9293 23.9815 26.0441 30.3345 25.3538 30.4535 27.1831 23.1393 24.816 28.6898 24.4543 28.9801 26.1751 22.1876 23.6043 27.0184 23.3578 27.4305 24.9544 21.1717 22.3455 25.3803 22.1346 25.8372 23.6297 20.0498 21.0503 23.6645 20.9181 24.2137 22.1833 18.9198 19.7656 21.9918 19.5453 22.5354 20.7515 17.7709 18.5044 20.3745 18.2154 20.9028 19.2527 16.6182 17.2117 18.7516 16.9364 19.3147 17.9225 15.4967 16.006 17.2999 15.7145 17.8045 16.5855 14.3917 14.8061 15.8276 14.4988 16.3058 15.2634 13.3232 13.6745 14.4413 13.4301 14.9145 14.0343 12.368 12.5986 13.1095 12.3823 13.558 12.829 11.4245 11.5785 11.8952 11.2991 12.3132 11.7389 10.4492 10.6495 10.6749 10.2975 11.1346 10.6101 9.58501 9.64748 9.6356 9.40903 10.0499 9.64762 8.75602 8.75839 8.57157 8.47168 9.02053 8.61612 7.96625 7.95418 7.60769 7.58421 7.9506 7.78573 7.18861 7.10883 6.69609 6.803 6.98442 6.87827 6.42783 6.31294 5.83586 6.06114 6.18167 6.11391 5.73885 5.59823 5.05071 5.27863 5.34304 5.30307 4.96515 4.9402 4.34018 4.59007 4.65808 4.64035 4.37113 4.21437 3.60584 3.95578 3.90948 3.94651 3.66949 3.64104 2.96154 3.2087 3.2339 3.29016 3.07953 3.06418 2.38926 2.64422 2.58302 2.54404 2.49599 2.45171 1.80646 2.08644 2.01214 2.06394 1.97431 1.90321 1.30314 1.48355 1.45215 1.44529 1.39672 1.3641 0.812172 0.89425 0.939186 0.89948 0.854105 0.879872 0.385099 0.486833 0.44913 0.462826 0.417751 0.404301 39.7812 44.7343 40.7879 46.5282 31.6407 33.8615 49.5745 38.6997 50.723 43.1003 38.252 41.5169 48.0835 38.9604 48.4429 42.023 38.0596 40.971 45.2246 37.9643 45.3458 40.4054 36.2918 38.7245 42.6246 36.463 42.8167 38.791 34.4078 36.469 40.135 34.7582 40.5377 36.9666 32.5313 34.3174 37.6157 32.8115 38.1404 34.9708 30.5938 32.1772 34.9641 30.7643 35.6852 32.7321 28.6335 30.0095 32.4175 28.5931 33.0624 30.4342 26.594 27.8029 29.9126 26.4242 30.5921 28.0985 24.6374 25.7253 27.4124 24.3727 28.1024 25.9376 22.7126 23.6022 25.0951 22.3163 25.6945 23.6421 20.8067 21.6507 22.788 20.4089 23.3895 21.6877 19.0817 19.737 20.6332 18.5482 21.2164 19.6574 17.361 17.9788 18.5709 16.7961 19.1574 17.6961 15.7877 16.2597 16.6824 15.1029 17.2182 15.9901 14.1997 14.57 14.8183 13.5421 15.2827 14.3 12.7342 13.0553 13.1366 12.1127 13.6181 12.6549 11.4381 11.667 11.4705 10.7467 11.9583 11.1953 10.1828 10.3074 10.0311 9.45061 10.4197 9.80427 8.95645 9.07854 8.6747 8.26968 9.04234 8.52333 7.87272 7.90803 7.422 7.19231 7.73774 7.43128 6.74198 6.8154 6.19364 6.13155 6.56529 6.25345 5.90752 5.89336 5.16802 5.23825 5.48228 5.32466 5.02367 4.96531 4.22391 4.45353 4.54318 4.36065 4.27427 4.12708 3.34033 3.61434 3.64821 3.6216 3.5072 3.42686 2.70743 2.93225 2.85859 2.91474 2.87182 2.73101 1.92312 2.3213 2.15371 2.2111 2.24136 2.12821 1.41467 1.65781 1.65685 1.73721 1.63731 1.60942 0.882354 1.2077 1.04874 1.18232 1.14963 1.05579 0.565921 0.675811 0.607605 0.612623 0.694844 0.613368 0.225258 0.489304 0.278288 0.326133 0.348299 0.319972 68.7572 69.0414 71.6241 76.5781 51.0547 54.0506 66.5155 55.0014 68.528 59.4435 55.4484 58.7552 62.7461 52.6892 63.2225 56.0321 52.6319 55.7078 59.3022 50.9112 59.6133 53.8911 49.6216 52.2987 56.028 48.8313 56.4768 51.6553 46.9369 49.205 52.6266 46.3563 53.2703 49.0225 44.1756 46.2282 49.0535 43.5556 49.9714 46.0643 41.3568 43.1343 45.5511 40.6045 46.4323 42.8582 38.512 40.0068 42.068 37.5187 42.9194 39.7103 35.5568 36.9576 38.6499 34.5289 39.5148 36.5571 32.7275 33.9627 35.3587 31.6118 36.1808 33.3588 29.95 31.0684 32.192 28.7896 33.0207 30.5116 27.2891 28.3002 29.0655 26.0742 29.8777 27.5619 24.7599 25.6423 26.1902 23.4254 26.9304 24.84 22.3949 23.1331 23.5367 21.0701 24.1776 22.2222 20.0167 20.7026 20.8832 18.8285 21.5471 19.8721 17.8892 18.4987 18.4243 16.612 19.1335 17.4772 15.8862 16.367 16.126 14.5978 16.8415 15.3597 13.9442 14.3662 14.0097 12.7192 14.5524 13.4165 12.1665 12.5025 12.0478 10.9221 12.512 11.5132 10.5003 10.768 10.1768 9.38879 10.7274 9.7513 9.01761 9.20807 8.5499 7.93295 9.00725 8.17951 7.62007 7.74311 6.95747 6.46568 7.42488 6.77404 6.31518 6.31474 5.64231 5.38866 5.92243 5.48772 5.20765 5.17457 4.36582 4.26695 4.75971 4.31951 4.11315 4.11565 3.35606 3.21857 3.55002 3.26999 3.21946 3.13905 2.26738 2.44456 2.56083 2.36775 2.39734 2.34362 1.56672 1.76862 1.76156 1.68674 1.75883 1.67817 0.968623 1.24781 1.15914 1.07178 1.2024 1.10074 0.444194 0.757434 0.528157 0.642738 0.731951 0.633858 0.211908 0.418614 0.254363 0.328419 0.431443 0.324771 0.219646 0.26735 0.172495 0.279235 0.252722 0.235298 
SCALARS volume float 1
LOOKUP_TABLE default
0.00808611 0.00808037 0.00806152 0.00805492 0.00809023 0.00809874 0.00811039 0.00810254 0.00810342 0.00809968 0.00810419 0.00811003 0.00811285 0.00810551 0.00811027 0.00810703 0.00810681 0.00811094 0.00811323 0.00810752 0.0081121 0.00810938 0.00810823 0.0081112 0.00811433 0.00810949 0.00811315 0.00811106 0.00811006 0.00811231 0.00811531 0.00811091 0.00811477 0.00811275 0.00811176 0.00811354 0.00811683 0.00811307 0.00811621 0.00811429 0.00811355 0.0081149 0.00811845 0.00811488 0.00811784 0.00811605 0.00811552 0.00811646 0.00811974 0.00811661 0.00811928 0.0081179 0.00811714 0.00811818 0.00812107 0.00811862 0.00812096 0.00811961 0.00811894 0.00812015 0.00812275 0.00812047 0.00812241 0.00812094 0.00812048 0.00812139 0.00812388 0.00812205 0.00812384 0.00812255 0.00812219 0.00812297 0.00812523 0.00812333 0.0081252 0.00812404 0.00812364 0.00812462 0.00812673 0.00812463 0.00812668 0.00812557 0.00812552 0.00812608 0.00812798 0.0081261 0.00812765 0.00812721 0.0081268 0.00812726 0.00812914 0.00812743 0.00812903 0.00812814 0.00812821 0.0081283 0.0081301 0.00812893 0.00813006 0.00812931 0.00812915 0.00812948 0.0081311 0.00813012 0.00813094 0.00813019 0.00813011 0.00813084 0.00813213 0.00813129 0.0081321 0.00813133 0.00813123 0.00813187 0.0081332 0.00813243 0.00813285 0.00813238 0.00813221 0.00813292 0.00813376 0.00813307 0.00813368 0.00813318 0.00813344 0.00813343 0.00813453 0.00813382 0.00813416 0.00813416 0.0081341 0.00813461 0.00813512 0.00813484 0.00813502 0.00813492 0.0081349 0.00813485 0.0081358 0.00813523 0.00813533 0.00813552 0.0081355 0.00813551 0.00813592 0.00813601 0.00813586 0.00813615 0.00813642 0.00813641 0.00813696 0.00813653 0.00813646 0.00813646 0.00813654 0.00813684 0.00813676 0.00813737 0.00813692 0.00813685 0.00813659 0.00813699 0.00813728 0.00813791 0.00813734 0.00813733 0.00813739 0.00813741 0.00813764 0.00813778 0.00813756 0.00813757 0.00813775 0.00813771 0.00813758 0.00813792 0.00813788 0.00813787 0.00813785 0.00813784 0.00813763 0.00813773 0.00813827 0.00813815 0.00813798 0.0081384 0.0081383 0.00813831 0.00813789 0.00813784 0.00813808 0.00813843 0.00810215 0.00809631 0.00808792 0.00808663 0.00809521 0.00811107 0.00811999 0.00810977 0.00811118 0.00810902 0.00811199 0.00811938 0.0081218 0.00811484 0.00811824 0.00811603 0.00811522 0.00811968 0.00812185 0.0081163 0.00812045 0.00811797 0.00811656 0.00811962 0.00812223 0.00811761 0.00812131 0.00811924 0.00811771 0.00811994 0.00812265 0.00811858 0.00812226 0.00812012 0.00811904 0.00812044 0.00812364 0.00811998 0.00812298 0.00812138 0.0081201 0.00812166 0.00812448 0.00812121 0.00812415 0.00812262 0.00812181 0.00812291 0.00812542 0.00812233 0.00812526 0.00812362 0.00812295 0.00812402 0.00812598 0.00812376 0.00812641 0.008125 0.00812425 0.00812504 0.00812729 0.00812477 0.00812708 0.0081259 0.00812539 0.00812621 0.0081284 0.00812633 0.00812822 0.00812727 0.00812651 0.00812776 0.0081292 0.00812737 0.00812929 0.00812814 0.00812761 0.00812829 0.00813032 0.00812832 0.00813012 0.008129 0.00812885 0.00812945 0.00813091 0.00812953 0.00813089 0.00813021 0.0081298 0.00813036 0.00813172 0.00813031 0.00813172 0.00813103 0.00813073 0.00813141 0.00813231 0.00813158 0.00813247 0.00813174 0.00813148 0.00813189 0.00813334 0.00813195 0.00813312 0.00813266 0.00813254 0.00813308 0.00813367 0.00813276 0.00813385 0.00813326 0.00813322 0.00813366 0.00813434 0.00813393 0.0081346 0.00813406 0.0081338 0.00813401 0.00813504 0.00813436 0.0081352 0.00813452 0.00813461 0.00813493 0.00813538 0.00813495 0.00813554 0.00813524 0.00813504 0.0081353 0.00813596 0.00813565 0.00813578 0.00813557 0.00813566 0.00813573 0.00813638 0.00813584 0.00813649 0.00813601 0.00813605 0.00813597 0.00813666 0.00813652 0.00813692 0.00813666 0.0081367 0.00813657 0.00813713 0.00813671 0.00813745 0.00813696 0.00813726 0.00813725 0.00813713 0.00813717 0.0081371 0.00813718 0.0081374 0.00813738 0.00813724 0.00813759 0.00813752 0.00813744 0.00813754 0.0081373 0.00813785 0.00813788 0.00813764 0.00813768 0.00813788 0.00813771 0.00813807 0.00813831 0.00813785 0.00813788 0.00813796 0.00813798 0.00813795 0.00813813 0.00813814 0.00813824 0.0081383 0.00813767 0.00813808 0.00813813 0.00813798 0.00813801 0.00813823 0.00813846 0.00811861 0.00811185 0.00811147 0.00810833 0.00811177 0.00812189 0.00812846 0.00812065 0.00812346 0.00812038 0.00812114 0.00812728 0.00812946 0.00812374 0.00812698 0.00812504 0.00812394 0.00812774 0.00812951 0.00812449 0.00812856 0.00812621 0.00812471 0.00812721 0.0081296 0.00812547 0.00812903 0.00812705 0.00812534 0.00812757 0.00812975 0.00812581 0.00812947 0.00812754 0.00812589 0.0081279 0.00812989 0.00812659 0.00813009 0.00812812 0.00812703 0.00812823 0.00813022 0.00812721 0.00813052 0.00812885 0.00812775 0.00812915 0.00813102 0.00812809 0.008131 0.00812937 0.00812854 0.00812979 0.00813154 0.00812892 0.00813173 0.00813019 0.00812921 0.00813029 0.00813247 0.00812961 0.00813211 0.0081309 0.00813004 0.00813101 0.00813264 0.00813065 0.00813268 0.00813173 0.00813084 0.00813159 0.00813324 0.00813135 0.00813329 0.00813217 0.00813158 0.00813225 0.00813365 0.00813181 0.00813391 0.00813287 0.0081322 0.00813269 0.00813434 0.00813279 0.00813419 0.00813354 0.00813275 0.00813356 0.00813482 0.00813319 0.00813473 0.00813378 0.00813338 0.00813385 0.00813488 0.00813385 0.00813519 0.0081342 0.00813402 0.00813406 0.00813524 0.00813408 0.0081357 0.00813498 0.00813469 0.00813484 0.00813591 0.00813509 0.00813587 0.00813522 0.00813494 0.00813536 0.00813571 0.00813556 0.00813614 0.00813566 0.00813553 0.00813568 0.00813614 0.00813557 0.00813647 0.00813607 0.00813587 0.00813633 0.00813643 0.00813625 0.00813687 0.00813645 0.00813618 0.00813637 0.00813711 0.00813622 0.00813718 0.00813677 0.00813661 0.00813648 0.00813716 0.00813691 0.00813739 0.00813692 0.00813716 0.00813673 0.00813721 0.00813719 0.00813725 0.00813718 0.0081373 0.00813725 0.00813717 0.0081375 0.00813746 0.00813778 0.00813725 0.00813724 0.00813764 0.00813742 0.00813756 0.00813746 0.00813774 0.00813728 0.00813758 0.0081377 0.00813776 0.00813799 0.00813801 0.00813758 0.00813776 0.00813766 0.00813757 0.00813781 0.00813764 0.00813768 0.00813778 0.00813779 0.00813785 0.00813762 0.00813801 0.00813783 0.00813794 0.00813812 0.00813796 0.00813797 0.00813799 0.00813777 0.00813815 0.00813788 0.00813798 0.00813792 0.00813825 0.00813788 0.00813493 0.00812751 0.00813396 0.00812853 0.00812741 0.00813266 0.00813673 0.0081311 0.00813599 0.00813227 0.00813089 0.00813492 0.00813674 0.00813241 0.0081363 0.0081339 0.00813188 0.00813484 0.00813656 0.00813298 0.0081366 0.00813441 0.00813255 0.00813451 0.00813666 0.00813277 0.00813649 0.00813453 0.00813274 0.00813435 0.0081366 0.00813281 0.0081365 0.00813492 0.00813274 0.00813463 0.00813667 0.00813317 0.0081368 0.00813496 0.00813332 0.00813491 0.00813673 0.00813342 0.00813684 0.00813501 0.00813395 0.00813506 0.00813677 0.00813395 0.00813698 0.00813564 0.00813417 0.00813508 0.00813694 0.00813422 0.0081369 0.00813553 0.00813415 0.00813535 0.00813687 0.00813432 0.00813721 0.00813571 0.00813484 0.00813565 0.0081372 0.00813493 0.00813732 0.00813618 0.00813503 0.00813606 0.00813734 0.00813511 0.00813718 0.00813595 0.00813526 0.00813619 0.00813731 0.00813549 0.00813752 0.0081364 0.00813578 0.00813617 0.00813716 0.00813586 0.0081374 0.00813646 0.00813628 0.00813654 0.00813722 0.00813571 0.00813769 0.00813693 0.00813628 0.0081368 0.00813761 0.00813618 0.00813773 0.00813715 0.00813631 0.0081367 0.00813753 0.00813675 0.0081377 0.00813712 0.00813626 0.00813709 0.00813776 0.00813667 0.00813757 0.00813698 0.00813699 0.00813707 0.00813749 0.0081369 0.00813772 0.00813761 0.00813672 0.00813716 0.00813751 0.00813704 0.00813778 0.00813741 0.00813703 0.00813738 0.00813783 0.00813738 0.0081378 0.00813757 0.0081373 0.00813752 0.00813784 0.00813724 0.0081378 0.00813748 0.00813736 0.00813762 0.00813812 0.00813758 0.00813814 0.00813769 0.00813737 0.00813769 0.00813814 0.0081376 0.00813796 0.00813788 0.00813785 0.00813814 0.008138 0.00813788 0.00813798 0.00813799 0.00813761 0.00813766 0.00813765 0.00813804 0.00813798 0.00813806 0.00813796 0.00813805 0.00813819 0.00813803 0.00813803 0.00813793 0.00813781 0.00813789 0.00813801 0.00813779 0.00813804 0.00813812 0.00813808 0.00813824 0.00813781 0.00813775 0.00813811 0.00813798 0.00813783 0.00813762 0.00813794 0.00813788 0.00813813 0.00813791 0.00813775 0.00813811 0.00813785 0.00813805 0.00813785 0.00813789 0.00813801 0.00813843 0.0081511 0.00814336 0.00815635 0.00814824 0.00814253 0.00814349 0.00814474 0.00814173 0.00814787 0.00814376 0.00814088 0.00814204 0.00814432 0.00814091 0.00814535 0.00814253 0.00814025 0.0081418 0.00814379 0.00814056 0.00814437 0.00814229 0.00814005 0.00814197 0.00814375 0.00814023 0.00814396 0.00814224 0.00814022 0.00814151 0.00814361 0.00813987 0.00814359 0.00814201 0.00814007 0.00814149 0.00814302 0.00813965 0.00814341 0.0081417 0.00813991 0.00814099 0.00814296 0.0081395 0.00814316 0.00814151 0.00813976 0.00814124 0.00814238 0.00813942 0.00814265 0.0081412 0.00813973 0.00814086 0.00814209 0.0081395 0.00814225 0.00814111 0.00813942 0.00814082 0.00814163 0.00813945 0.00814199 0.00814063 0.00813951 0.0081404 0.00814151 0.00813925 0.00814174 0.00814061 0.00813935 0.00814025 0.00814068 0.00813915 0.00814131 0.00814039 0.00813939 0.00814017 0.00814088 0.00813901 0.00814113 0.00814025 0.00813937 0.00813965 0.00814059 0.0081388 0.00814075 0.00814005 0.00813882 0.00813966 0.0081402 0.00813908 0.00814044 0.00813978 0.00813898 0.00813971 0.00814008 0.00813896 0.00814009 0.0081397 0.00813899 0.00813938 0.00813984 0.00813857 0.00814004 0.00813937 0.00813873 0.00813891 0.00813946 0.00813835 0.00813999 0.00813929 0.00813908 0.00813903 0.0081391 0.00813858 0.00813953 0.00813943 0.00813857 0.00813883 0.00813936 0.00813853 0.0081394 0.00813905 0.00813849 0.00813856 0.00813893 0.00813848 0.00813926 0.00813902 0.00813832 0.00813864 0.00813892 0.00813832 0.00813884 0.00813859 0.00813833 0.0081385 0.008139 0.00813811 0.00813868 0.00813808 0.00813808 0.00813841 0.00813842 0.00813808 0.00813869 0.00813815 0.00813852 0.00813817 0.00813816 0.00813796 0.00813852 0.00813841 0.00813835 0.00813837 0.0081384 0.00813825 0.00813826 0.00813849 0.00813837 0.00813793 0.0081382 0.00813824 0.0081382 0.0081383 0.00813808 0.00813796 0.00813818 0.00813812 0.0081383 0.00813808 0.00813805 0.00813801 0.00813816 0.00813804 0.00813803 0.00813815 0.00813805 0.00813834 0.00813799 0.0081382 0.0081381 0.00813808 0.00813807 0.00813823 0.00813773 0.00813818 0.00813801 0.00813773 0.008138 0.00813803 0.00816716 0.00815896 0.00817982 0.00816763 0.00815728 0.00815387 0.00815301 0.00815184 0.00816015 0.00815537 0.00815057 0.00814942 0.00815138 0.00814916 0.00815423 0.00815129 0.00814865 0.00814879 0.00815113 0.00814816 0.00815221 0.0081502 0.00814788 0.00814883 0.00815075 0.00814731 0.00815152 0.00814949 0.00814746 0.00814863 0.00815009 0.00814675 0.00815061 0.00814892 0.00814698 0.00814817 0.00814974 0.00814631 0.00814984 0.00814838 0.00814613 0.00814766 0.0081489 0.00814557 0.00814919 0.0081475 0.00814572 0.00814688 0.0081481 0.00814551 0.00814833 0.00814688 0.00814522 0.00814611 0.00814726 0.00814459 0.00814796 0.00814653 0.00814462 0.00814583 0.0081466 0.00814403 0.00814694 0.0081455 0.008144 0.00814497 0.00814584 0.0081436 0.00814626 0.00814474 0.00814377 0.00814454 0.00814516 0.00814302 0.00814563 0.00814443 0.00814306 0.00814393 0.00814476 0.00814279 0.00814456 0.00814368 0.00814245 0.00814326 0.0081437 0.00814218 0.00814408 0.00814342 0.00814209 0.00814304 0.00814324 0.00814166 0.00814343 0.00814252 0.00814183 0.00814231 0.00814228 0.00814096 0.00814288 0.00814212 0.00814137 0.00814172 0.00814215 0.0081409 0.00814193 0.00814171 0.00814103 0.0081412 0.00814152 0.0081406 0.00814154 0.00814141 0.00814056 0.00814088 0.00814103 0.00814032 0.00814127 0.00814104 0.00814011 0.00814046 0.0081408 0.00814009 0.00814082 0.00814038 0.00814018 0.00814016 0.00814 0.00813982 0.00814039 0.00814023 0.00813954 0.00814004 0.0081398 0.00813934 0.00814006 0.00813978 0.00813963 0.00813945 0.00813936 0.00813897 0.00813942 0.00813924 0.00813881 0.00813917 0.00813944 0.00813862 0.00813959 0.00813894 0.00813858 0.00813871 0.00813902 0.00813877 0.00813885 0.00813895 0.00813862 0.00813869 0.00813879 0.00813824 0.00813846 0.00813866 0.00813843 0.00813889 0.00813879 0.00813842 0.00813876 0.00813854 0.00813831 0.00813864 0.00813841 0.00813813 0.00813844 0.00813816 0.00813837 0.00813821 0.00813823 0.00813823 0.00813801 0.00813825 0.00813847 0.00813766 0.00813772 0.00813816 0.00813809 0.00813822 0.00813802 0.00813785 0.0081381 0.00813815 0.00813783 0.00813785 0.00813781 0.00813804 0.0081821 0.00817375 0.00820638 0.00818755 0.0081721 0.00816436 0.00816066 0.00816147 0.00817093 0.00816643 0.00816002 0.00815697 0.00815916 0.00815738 0.00816244 0.00815991 0.00815686 0.00815624 0.00815869 0.00815564 0.00816026 0.00815808 0.00815539 0.00815626 0.00815798 0.00815469 0.00815895 0.00815699 0.00815446 0.00815558 0.00815718 0.00815373 0.00815784 0.00815584 0.00815381 0.0081548 0.00815628 0.00815252 0.00815662 0.00815499 0.00815285 0.00815393 0.00815512 0.008152 0.00815563 0.00815405 0.00815185 0.0081527 0.00815352 0.00815067 0.00815419 0.00815265 0.00815058 0.00815226 0.00815231 0.00815008 0.00815306 0.0081515 0.00814989 0.00815085 0.00815126 0.00814885 0.00815176 0.00815057 0.00814889 0.00815002 0.00815028 0.00814788 0.00815035 0.00814931 0.00814782 0.00814844 0.00814903 0.00814691 0.00814933 0.00814826 0.00814679 0.00814777 0.00814808 0.00814617 0.00814827 0.00814738 0.00814621 0.00814671 0.00814678 0.00814542 0.00814719 0.00814624 0.00814548 0.00814581 0.00814601 0.00814446 0.00814605 0.00814578 0.00814474 0.00814517 0.0081451 0.00814379 0.00814524 0.00814463 0.00814368 0.00814431 0.00814427 0.00814316 0.00814461 0.00814416 0.00814295 0.00814357 0.00814319 0.00814242 0.00814375 0.00814297 0.00814245 0.00814284 0.00814243 0.00814185 0.00814264 0.0081422 0.00814169 0.00814201 0.00814231 0.00814098 0.00814225 0.00814188 0.0081412 0.00814178 0.0081412 0.00814092 0.00814164 0.00814133 0.00814058 0.00814081 0.00814091 0.00814026 0.00814082 0.00814036 0.00814031 0.00814056 0.00814017 0.00813978 0.00814036 0.00814005 0.00813993 0.00814041 0.00813964 0.00813981 0.00813978 0.00814007 0.00813938 0.00813929 0.00813934 0.00813911 0.00813947 0.00813915 0.00813918 0.00813899 0.00813904 0.00813848 0.00813878 0.00813906 0.00813896 0.00813882 0.00813866 0.00813852 0.00813871 0.00813914 0.00813865 0.00813863 0.00813827 0.00813826 0.00813827 0.00813883 0.0081381 0.00813781 0.00813795 0.00813802 0.00813832 0.00813814 0.00813797 0.00813815 0.00813857 0.00813811 0.00813816 0.00813806 0.0081381 0.00813795 0.0081378 0.00813792 0.00813768 0.00813806 0.00813776 0.00813776 0.00818981 0.00818491 0.00823613 0.00820921 0.00818447 0.00817545 0.00817013 0.00816945 0.00817243 0.00817635 0.00816804 0.00816532 0.00816815 0.0081649 0.00816926 0.00816769 0.00816513 0.00816446 0.00816705 0.00816322 0.00816821 0.00816586 0.00816326 0.00816412 0.0081659 0.00816206 0.00816658 0.0081647 0.00816202 0.00816302 0.00816459 0.00816089 0.00816476 0.00816304 0.00816073 0.00816182 0.00816275 0.0081593 0.00816345 0.00816161 0.00815922 0.00816029 0.0081611 0.00815808 0.00816136 0.00815986 0.00815759 0.00815887 0.00815965 0.00815654 0.00815988 0.00815818 0.00815631 0.00815726 0.00815787 0.00815467 0.00815815 0.00815692 0.00815479 0.00815579 0.00815615 0.00815355 0.00815651 0.00815541 0.00815345 0.00815461 0.00815438 0.00815193 0.00815466 0.0081537 0.008152 0.00815274 0.00815292 0.00815108 0.00815349 0.0081524 0.00815068 0.00815142 0.00815138 0.00814969 0.00815174 0.00815114 0.00814948 0.00815019 0.00815038 0.00814848 0.00815014 0.00814913 0.00814832 0.00814892 0.00814897 0.00814712 0.00814891 0.00814829 0.00814719 0.00814745 0.00814733 0.00814594 0.00814753 0.00814713 0.00814594 0.00814648 0.00814626 0.00814488 0.00814653 0.008146 0.00814501 0.00814556 0.00814536 0.00814435 0.00814543 0.00814498 0.00814399 0.00814464 0.00814397 0.00814326 0.00814435 0.00814386 0.00814346 0.00814334 0.00814321 0.00814246 0.00814342 0.0081431 0.00814266 0.0081426 0.00814259 0.00814179 0.00814278 0.00814221 0.0081417 0.00814197 0.0081415 0.00814107 0.00814191 0.00814175 0.00814099 0.00814089 0.00814085 0.00814063 0.00814105 0.00814097 0.00814041 0.00814046 0.00814018 0.00813974 0.00814037 0.00814033 0.00814001 0.00813971 0.0081399 0.0081396 0.00813975 0.00814007 0.00813937 0.00813952 0.00813882 0.00813925 0.00813916 0.00813943 0.00813919 0.00813888 0.00813875 0.00813868 0.00813882 0.00813872 0.0081388 0.00813851 0.00813848 0.00813859 0.00813851 0.00813864 0.00813824 0.00813842 0.00813794 0.00813822 0.00813802 0.00813813 0.00813804 0.00813827 0.00813778 0.00813817 0.00813783 0.00813834 0.00813832 0.0081378 0.00813823 0.00813814 0.0081381 0.00813811 0.0081376 0.008138 0.00809044 0.00807572 0.00806968 0.00805487 0.00808873 0.0080803 0.00810258 0.00809928 0.00809852 0.00809227 0.00810023 0.00810041 0.00810828 0.00810284 0.00810684 0.00810239 0.00810365 0.00810578 0.00811067 0.00810546 0.00810959 0.00810673 0.00810643 0.00810872 0.00811272 0.00810795 0.00811206 0.00810949 0.00810892 0.00811088 0.00811464 0.00811052 0.00811388 0.00811196 0.00811098 0.00811283 0.00811618 0.00811287 0.00811593 0.00811393 0.00811351 0.00811502 0.00811774 0.00811498 0.00811746 0.00811599 0.00811516 0.00811668 0.00811932 0.00811655 0.00811924 0.00811775 0.0081172 0.00811827 0.00812137 0.0081189 0.00812082 0.00811951 0.00811897 0.00812007 0.00812266 0.00812017 0.00812235 0.00812089 0.00812043 0.00812181 0.00812371 0.00812197 0.00812412 0.00812273 0.00812244 0.00812295 0.00812534 0.00812354 0.00812529 0.00812414 0.00812405 0.00812454 0.0081267 0.00812506 0.00812647 0.0081258 0.0081256 0.00812588 0.00812814 0.00812647 0.00812768 0.00812707 0.00812689 0.00812756 0.00812912 0.00812781 0.00812907 0.00812833 0.00812805 0.00812859 0.00813009 0.00812928 0.00813001 0.00812926 0.00812913 0.00812986 0.00813087 0.00812999 0.00813122 0.00813045 0.00813043 0.00813087 0.00813204 0.00813115 0.0081321 0.00813142 0.00813167 0.00813185 0.00813297 0.00813222 0.00813313 0.00813256 0.00813259 0.00813275 0.00813379 0.00813325 0.00813348 0.00813351 0.00813376 0.00813347 0.00813441 0.00813432 0.0081346 0.00813423 0.00813449 0.00813447 0.00813506 0.00813475 0.00813511 0.00813501 0.00813496 0.00813502 0.00813571 0.00813573 0.00813563 0.00813546 0.00813596 0.00813605 0.00813635 0.00813616 0.00813644 0.0081361 0.00813627 0.00813622 0.00813681 0.00813646 0.00813662 0.00813646 0.00813654 0.00813695 0.00813665 0.00813702 0.00813678 0.00813712 0.00813739 0.0081374 0.0081375 0.00813784 0.00813728 0.00813757 0.00813771 0.00813753 0.00813761 0.00813774 0.00813774 0.00813774 0.00813811 0.00813746 0.00813788 0.00813789 0.008138 0.00813776 0.00813824 0.00813816 0.00813827 0.00813822 0.0081378 0.00813809 0.00813803 0.00813785 0.00813822 0.00813789 0.00813797 0.00813814 0.00813817 0.00813811 0.00810482 0.00809492 0.00809318 0.00808755 0.00808894 0.00809385 0.00811251 0.0081053 0.00810697 0.00810329 0.00810673 0.00810988 0.00811671 0.00811057 0.00811444 0.00811128 0.00811232 0.00811524 0.00811923 0.0081138 0.0081181 0.00811507 0.00811489 0.00811711 0.0081208 0.00811636 0.00812011 0.00811772 0.00811683 0.00811877 0.00812192 0.0081178 0.00812146 0.00811935 0.00811849 0.00812017 0.008123 0.00811972 0.00812279 0.00812059 0.00812014 0.00812152 0.00812426 0.00812112 0.00812417 0.00812224 0.00812137 0.00812266 0.00812537 0.00812227 0.0081255 0.0081235 0.00812277 0.00812382 0.00812617 0.00812366 0.00812611 0.00812493 0.00812421 0.00812515 0.00812713 0.00812483 0.00812729 0.00812586 0.00812556 0.00812613 0.00812835 0.00812602 0.00812808 0.00812712 0.00812639 0.00812741 0.0081292 0.00812754 0.00812919 0.00812826 0.00812807 0.00812849 0.00813014 0.00812829 0.00812999 0.00812915 0.00812869 0.00812954 0.00813087 0.00812924 0.00813093 0.00812995 0.00812977 0.00813042 0.00813199 0.00813047 0.00813189 0.0081309 0.00813078 0.00813114 0.00813248 0.00813146 0.00813265 0.00813219 0.00813152 0.00813188 0.0081332 0.00813223 0.00813332 0.00813252 0.00813246 0.00813271 0.00813396 0.00813279 0.00813411 0.00813369 0.00813319 0.00813364 0.00813414 0.00813399 0.00813449 0.00813395 0.00813393 0.00813423 0.00813493 0.00813437 0.00813501 0.00813446 0.00813489 0.00813504 0.00813543 0.00813539 0.00813559 0.00813523 0.00813559 0.00813552 0.00813612 0.0081358 0.00813605 0.00813564 0.00813586 0.00813615 0.00813656 0.00813613 0.00813643 0.00813583 0.00813637 0.00813627 0.00813651 0.00813654 0.0081368 0.00813671 0.00813669 0.00813677 0.00813711 0.00813691 0.00813723 0.00813696 0.00813702 0.00813689 0.00813709 0.00813741 0.00813729 0.00813758 0.00813742 0.00813732 0.00813759 0.00813742 0.00813745 0.00813783 0.00813783 0.00813773 0.00813743 0.0081378 0.00813793 0.00813796 0.00813758 0.00813763 0.00813786 0.00813797 0.00813784 0.0081381 0.00813789 0.00813786 0.00813797 0.00813808 0.00813784 0.00813816 0.00813825 0.00813794 0.0081383 0.008138 0.0081381 0.00813796 0.00813841 0.00813839 0.00812066 0.00811116 0.00811418 0.00810895 0.00810687 0.00811194 0.00812459 0.00811683 0.00812109 0.00811658 0.00811657 0.00812055 0.0081265 0.00812045 0.00812495 0.00812158 0.00812124 0.00812409 0.00812767 0.00812276 0.00812702 0.0081244 0.0081234 0.00812563 0.00812841 0.00812404 0.00812821 0.00812586 0.00812459 0.00812658 0.00812922 0.00812547 0.00812902 0.00812709 0.00812571 0.00812731 0.00812993 0.00812614 0.00812962 0.00812776 0.00812663 0.00812805 0.00813043 0.00812713 0.00813044 0.00812856 0.00812726 0.00812885 0.00813088 0.00812809 0.00813119 0.00812955 0.00812833 0.00812943 0.00813156 0.00812877 0.00813158 0.00813015 0.00812908 0.00813041 0.00813216 0.00812966 0.0081324 0.00813077 0.00813019 0.00813115 0.00813264 0.00813058 0.0081329 0.0081316 0.00813087 0.00813154 0.00813316 0.00813106 0.00813322 0.00813198 0.00813147 0.00813213 0.00813352 0.0081319 0.00813379 0.00813305 0.00813235 0.008133 0.00813406 0.00813247 0.00813416 0.0081335 0.00813287 0.00813336 0.00813429 0.00813313 0.00813451 0.00813375 0.00813364 0.00813408 0.00813503 0.00813385 0.00813508 0.00813447 0.00813434 0.00813441 0.00813531 0.00813417 0.00813539 0.00813495 0.00813472 0.00813481 0.00813581 0.00813503 0.0081354 0.0081355 0.00813522 0.00813547 0.00813613 0.0081354 0.00813612 0.00813584 0.0081355 0.00813578 0.00813631 0.00813561 0.0081365 0.00813622 0.00813587 0.00813623 0.00813674 0.00813602 0.00813673 0.00813629 0.00813639 0.00813667 0.00813677 0.00813641 0.00813696 0.0081366 0.00813665 0.00813668 0.0081371 0.00813673 0.00813698 0.00813706 0.008137 0.00813699 0.00813704 0.00813714 0.00813738 0.00813704 0.00813723 0.00813695 0.00813741 0.00813731 0.00813743 0.00813748 0.00813737 0.00813763 0.00813756 0.00813724 0.00813781 0.00813744 0.00813748 0.00813771 0.00813795 0.00813763 0.00813791 0.00813778 0.00813808 0.00813771 0.00813775 0.00813788 0.00813801 0.00813782 0.00813762 0.00813781 0.00813793 0.00813801 0.00813807 0.00813797 0.00813795 0.00813798 0.00813787 0.00813796 0.00813816 0.00813827 0.00813812 0.00813803 0.0081382 0.00813815 0.00813813 0.00813812 0.00813823 0.00813828 0.00813695 0.00812788 0.00813423 0.00812892 0.00812475 0.00812908 0.00813675 0.00812941 0.00813561 0.008131 0.00812881 0.00813171 0.00813635 0.00813083 0.00813596 0.0081326 0.00813083 0.00813313 0.00813608 0.00813146 0.00813617 0.00813337 0.00813175 0.00813393 0.00813635 0.00813221 0.00813651 0.0081341 0.00813237 0.00813415 0.00813624 0.00813267 0.00813647 0.00813424 0.0081329 0.00813426 0.00813625 0.00813287 0.0081366 0.00813465 0.00813346 0.0081348 0.00813653 0.00813318 0.00813686 0.00813511 0.0081338 0.008135 0.00813667 0.00813372 0.00813677 0.00813549 0.00813389 0.00813512 0.00813669 0.00813407 0.00813708 0.00813561 0.00813436 0.00813545 0.00813682 0.0081346 0.00813705 0.00813598 0.00813462 0.0081359 0.00813703 0.0081349 0.0081373 0.00813601 0.00813517 0.0081358 0.00813713 0.00813504 0.00813735 0.0081364 0.00813534 0.00813616 0.0081371 0.00813559 0.00813734 0.00813631 0.00813568 0.00813638 0.00813736 0.00813567 0.00813735 0.00813655 0.00813606 0.00813669 0.00813773 0.00813606 0.00813749 0.00813699 0.00813636 0.00813685 0.0081376 0.00813616 0.00813762 0.00813702 0.0081367 0.00813689 0.00813744 0.00813629 0.00813775 0.00813701 0.00813669 0.0081374 0.00813766 0.00813645 0.00813783 0.00813713 0.00813708 0.00813733 0.00813771 0.00813684 0.00813813 0.00813757 0.00813708 0.00813715 0.00813767 0.00813686 0.00813802 0.00813744 0.0081371 0.00813758 0.00813767 0.00813713 0.00813785 0.00813758 0.0081374 0.00813753 0.00813795 0.0081376 0.00813788 0.00813767 0.00813762 0.00813776 0.00813782 0.00813742 0.00813749 0.00813795 0.00813762 0.00813779 0.00813773 0.00813778 0.00813787 0.00813784 0.00813793 0.00813792 0.00813789 0.00813795 0.00813802 0.00813773 0.00813797 0.00813794 0.00813788 0.00813771 0.00813823 0.00813774 0.00813767 0.00813791 0.00813813 0.00813791 0.00813822 0.00813802 0.00813791 0.00813804 0.00813778 0.00813809 0.00813799 0.00813782 0.00813791 0.0081379 0.00813796 0.00813787 0.00813802 0.00813818 0.00813788 0.00813802 0.0081379 0.00813792 0.00813791 0.00813805 0.00813806 0.00813815 0.00813827 0.00813812 0.00813825 0.00813783 0.00813811 0.00813804 0.00815347 0.00814485 0.00815402 0.00814804 0.00814215 0.00814586 0.00814849 0.00814245 0.00815023 0.0081455 0.00814165 0.00814339 0.0081457 0.00814103 0.00814721 0.00814363 0.00814074 0.00814242 0.00814451 0.00814032 0.00814542 0.0081428 0.00814024 0.00814217 0.00814407 0.00813989 0.00814437 0.00814207 0.00814008 0.00814168 0.00814339 0.00813973 0.00814395 0.00814193 0.0081398 0.00814146 0.00814296 0.00813983 0.00814349 0.00814173 0.00813969 0.00814125 0.00814256 0.00813969 0.00814307 0.00814141 0.00813989 0.00814088 0.0081424 0.00813947 0.0081426 0.00814125 0.00813963 0.00814073 0.00814191 0.00813929 0.00814224 0.00814096 0.00813981 0.00814047 0.00814152 0.0081394 0.00814186 0.00814073 0.00813938 0.00814029 0.00814127 0.00813914 0.00814193 0.00814048 0.00813952 0.00814027 0.00814108 0.00813907 0.00814153 0.00814035 0.00813939 0.00813989 0.00814087 0.00813877 0.00814099 0.00814012 0.00813917 0.00813999 0.00814026 0.00813877 0.00814064 0.00813992 0.00813907 0.00813951 0.00814044 0.00813848 0.0081406 0.00813979 0.00813899 0.0081396 0.00813992 0.00813866 0.00814018 0.00813943 0.00813896 0.00813944 0.00813971 0.00813861 0.00814012 0.00813948 0.00813875 0.00813911 0.00813957 0.00813853 0.00813954 0.00813917 0.00813866 0.00813926 0.00813923 0.00813879 0.00813977 0.0081391 0.0081387 0.00813896 0.0081393 0.00813853 0.00813923 0.0081386 0.00813855 0.00813902 0.0081391 0.00813842 0.00813906 0.00813865 0.00813841 0.00813876 0.00813857 0.0081382 0.00813892 0.00813864 0.00813865 0.00813842 0.00813842 0.00813819 0.00813861 0.00813872 0.00813839 0.00813841 0.00813847 0.00813818 0.00813862 0.00813838 0.00813853 0.0081384 0.00813837 0.00813802 0.00813841 0.0081384 0.00813815 0.00813821 0.00813828 0.00813797 0.00813861 0.00813831 0.00813813 0.00813822 0.00813833 0.00813832 0.00813824 0.00813852 0.00813816 0.00813837 0.00813808 0.00813822 0.0081381 0.00813817 0.00813801 0.00813834 0.00813817 0.0081379 0.00813823 0.00813806 0.00813811 0.00813805 0.00813803 0.00813788 0.00813804 0.00813799 0.0081383 0.00813823 0.00813783 0.00813815 0.00813785 0.0081381 0.00813798 0.00813793 0.00816999 0.00816163 0.00817526 0.00816738 0.00815949 0.00816241 0.00815983 0.00815481 0.00816473 0.00815974 0.00815371 0.00815477 0.00815486 0.00815104 0.00815777 0.00815451 0.00815039 0.00815157 0.00815258 0.00814896 0.00815399 0.00815187 0.0081485 0.00815029 0.00815148 0.00814773 0.00815239 0.00815028 0.00814785 0.00814914 0.00815054 0.00814711 0.0081511 0.00814928 0.0081471 0.00814835 0.00814958 0.00814641 0.00815006 0.00814862 0.00814642 0.00814776 0.00814875 0.00814564 0.00814923 0.00814745 0.00814568 0.00814713 0.00814806 0.00814486 0.00814878 0.00814705 0.00814513 0.00814654 0.00814722 0.0081446 0.0081476 0.00814611 0.00814488 0.00814598 0.00814629 0.00814395 0.00814709 0.00814561 0.00814413 0.00814486 0.00814559 0.0081435 0.0081461 0.00814518 0.0081435 0.00814442 0.00814498 0.00814302 0.00814531 0.0081443 0.00814298 0.00814407 0.00814408 0.00814244 0.00814496 0.00814374 0.00814262 0.00814353 0.00814381 0.00814208 0.00814404 0.00814301 0.00814241 0.00814291 0.0081432 0.0081414 0.00814344 0.00814273 0.00814174 0.00814228 0.00814256 0.00814106 0.00814277 0.00814215 0.0081411 0.00814178 0.00814211 0.00814092 0.00814217 0.0081413 0.00814092 0.00814142 0.00814131 0.00814046 0.00814155 0.00814121 0.00814077 0.0081408 0.00814083 0.00814021 0.00814125 0.00814074 0.00814016 0.00814075 0.00814026 0.00813976 0.00814068 0.00814031 0.00813992 0.00814044 0.00813988 0.00813949 0.00814023 0.00814009 0.00813969 0.00813979 0.00813972 0.00813918 0.00813989 0.0081395 0.00813939 0.00813943 0.00813944 0.00813872 0.00813948 0.00813951 0.0081391 0.00813928 0.0081388 0.00813884 0.00813909 0.00813926 0.00813894 0.00813899 0.00813898 0.00813872 0.00813893 0.00813867 0.00813853 0.00813873 0.00813871 0.00813853 0.00813848 0.00813839 0.00813847 0.00813854 0.00813841 0.0081384 0.0081387 0.00813841 0.00813863 0.00813854 0.00813817 0.0081382 0.00813851 0.00813851 0.00813809 0.00813817 0.0081384 0.0081379 0.00813824 0.00813836 0.00813786 0.00813824 0.00813815 0.00813814 0.00813853 0.00813838 0.00813812 0.00813787 0.00813803 0.00813769 0.00813818 0.00813788 0.00813765 0.00813837 0.00818486 0.00817734 0.00819874 0.00818686 0.00817619 0.0081787 0.00816901 0.00816584 0.00817726 0.00817309 0.00816481 0.0081656 0.00816305 0.00816018 0.00816607 0.00816493 0.00815964 0.00816054 0.00816057 0.00815718 0.00816196 0.00816053 0.00815691 0.00815796 0.00815898 0.00815543 0.00816 0.00815824 0.0081552 0.00815671 0.00815741 0.00815414 0.00815838 0.00815628 0.0081542 0.00815562 0.00815627 0.00815293 0.0081569 0.00815508 0.00815307 0.0081543 0.00815487 0.00815188 0.00815559 0.00815382 0.00815167 0.00815305 0.00815348 0.00815077 0.00815406 0.00815276 0.00815086 0.00815195 0.00815208 0.00814972 0.00815288 0.00815145 0.00814997 0.00815083 0.00815114 0.00814866 0.00815172 0.00815054 0.0081486 0.00814975 0.00814999 0.00814769 0.00815029 0.00814922 0.00814773 0.00814857 0.00814884 0.00814679 0.00814904 0.00814822 0.00814711 0.00814781 0.0081478 0.00814607 0.00814827 0.00814737 0.00814591 0.00814687 0.00814692 0.0081451 0.00814718 0.0081464 0.00814505 0.00814599 0.00814582 0.00814438 0.008146 0.00814541 0.00814459 0.00814513 0.00814485 0.00814369 0.00814519 0.00814456 0.00814379 0.0081442 0.00814409 0.00814294 0.00814427 0.00814393 0.00814322 0.00814347 0.00814315 0.00814234 0.00814337 0.00814298 0.00814247 0.0081429 0.00814252 0.008142 0.00814267 0.00814226 0.0081415 0.00814228 0.00814174 0.00814115 0.00814206 0.0081415 0.00814126 0.00814132 0.00814122 0.00814036 0.00814143 0.00814104 0.00814055 0.0081408 0.00814064 0.00814012 0.00814101 0.00814081 0.00814017 0.00814041 0.00814007 0.00813953 0.00814017 0.0081402 0.00813957 0.00813983 0.00813968 0.00813929 0.00813981 0.00813977 0.00813942 0.0081397 0.00813909 0.00813906 0.00813956 0.00813925 0.00813909 0.00813936 0.00813921 0.00813868 0.00813891 0.00813899 0.0081386 0.00813879 0.00813875 0.00813838 0.00813887 0.00813882 0.00813828 0.00813843 0.00813837 0.00813811 0.00813846 0.00813866 0.00813829 0.00813811 0.00813826 0.00813817 0.00813802 0.00813849 0.00813808 0.00813815 0.00813799 0.00813837 0.00813806 0.00813818 0.00813792 0.00813819 0.00813796 0.00813808 0.00813804 0.00813791 0.00813779 0.00813785 0.00819192 0.00818933 0.00823636 0.00820908 0.00819081 0.00819488 0.00817356 0.00817376 0.00817437 0.00818315 0.00817291 0.0081742 0.00817074 0.00816833 0.00817142 0.00817285 0.00816731 0.0081683 0.00816871 0.00816526 0.00816964 0.00816846 0.00816482 0.00816586 0.0081668 0.00816315 0.00816732 0.00816557 0.00816286 0.00816395 0.00816478 0.00816136 0.00816532 0.00816363 0.00816095 0.00816246 0.00816299 0.00815946 0.00816334 0.00816197 0.0081593 0.00816061 0.008161 0.00815768 0.00816165 0.00816004 0.00815775 0.00815906 0.00815921 0.00815648 0.00815971 0.00815836 0.00815633 0.00815751 0.00815763 0.008155 0.00815789 0.00815693 0.00815461 0.00815593 0.00815573 0.00815355 0.00815622 0.008155 0.00815346 0.00815423 0.00815442 0.0081519 0.00815475 0.00815381 0.00815198 0.00815293 0.00815284 0.00815074 0.00815343 0.00815232 0.00815062 0.00815176 0.00815152 0.0081496 0.00815164 0.00815097 0.00814929 0.00815006 0.00814976 0.00814837 0.00815019 0.00814932 0.00814837 0.00814901 0.00814854 0.00814716 0.00814852 0.00814829 0.0081473 0.00814751 0.0081473 0.00814586 0.00814779 0.00814724 0.008146 0.00814642 0.00814619 0.00814481 0.00814638 0.00814594 0.00814498 0.00814553 0.00814528 0.00814405 0.0081455 0.00814516 0.00814413 0.00814447 0.00814386 0.00814323 0.00814411 0.00814423 0.00814309 0.00814319 0.00814342 0.00814258 0.00814324 0.00814313 0.00814248 0.00814269 0.00814233 0.00814174 0.00814242 0.00814226 0.00814156 0.0081418 0.00814125 0.00814116 0.00814153 0.00814156 0.00814121 0.00814106 0.00814051 0.00814037 0.00814077 0.0081408 0.00814039 0.00814053 0.00814002 0.00813979 0.00814035 0.00814031 0.00813968 0.00813976 0.00813958 0.00813922 0.00814007 0.00813975 0.00813912 0.00813949 0.00813912 0.00813876 0.00813927 0.00813873 0.00813876 0.00813898 0.00813875 0.00813868 0.00813846 0.00813855 0.00813883 0.0081387 0.0081382 0.00813818 0.00813832 0.00813867 0.00813827 0.00813829 0.00813804 0.00813798 0.00813832 0.00813839 0.00813803 0.00813806 0.00813793 0.008138 0.0081381 0.00813843 0.00813798 0.00813785 0.00813801 0.00813796 0.00813796 0.00813786 0.00813773 0.00813766 0.00808683 0.00807132 0.00806814 0.00805197 0.00808506 0.00807834 0.00809991 0.00809695 0.00809498 0.0080902 0.00809768 0.00809633 0.00810603 0.00810132 0.008105 0.00810006 0.00810203 0.00810311 0.00810922 0.00810424 0.00810853 0.00810502 0.00810507 0.00810686 0.00811152 0.00810704 0.00811099 0.00810844 0.00810807 0.00810965 0.00811382 0.00810999 0.00811324 0.00811119 0.00811073 0.00811243 0.00811608 0.0081127 0.00811549 0.0081137 0.00811313 0.00811456 0.00811788 0.00811455 0.00811745 0.00811566 0.00811529 0.00811656 0.00811948 0.00811679 0.00811901 0.00811758 0.00811702 0.00811832 0.00812117 0.0081187 0.00812102 0.00811937 0.00811901 0.00812007 0.00812255 0.00812072 0.00812248 0.00812134 0.00812078 0.00812165 0.00812422 0.00812214 0.00812407 0.00812266 0.00812266 0.00812316 0.00812545 0.00812359 0.00812506 0.00812439 0.00812408 0.0081246 0.00812662 0.00812521 0.00812651 0.00812566 0.00812553 0.00812609 0.00812787 0.00812651 0.00812787 0.0081272 0.00812675 0.00812749 0.00812908 0.00812787 0.00812905 0.00812826 0.00812848 0.00812863 0.00813028 0.00812883 0.00812977 0.00812951 0.00812953 0.00812979 0.00813147 0.0081303 0.00813116 0.00813046 0.00813074 0.00813086 0.00813195 0.00813153 0.00813205 0.00813174 0.00813148 0.00813185 0.00813292 0.00813254 0.00813295 0.00813266 0.00813271 0.00813259 0.00813354 0.00813342 0.00813367 0.00813355 0.0081333 0.00813377 0.00813434 0.00813425 0.00813461 0.0081343 0.00813437 0.00813447 0.00813516 0.00813505 0.00813539 0.00813503 0.00813522 0.00813515 0.00813598 0.00813557 0.00813559 0.00813555 0.00813579 0.00813592 0.00813649 0.00813657 0.00813639 0.00813606 0.00813587 0.00813615 0.00813678 0.00813682 0.00813682 0.00813669 0.0081364 0.00813688 0.00813752 0.00813721 0.0081374 0.00813679 0.00813758 0.00813721 0.00813741 0.00813767 0.0081374 0.00813741 0.00813774 0.00813762 0.00813763 0.00813782 0.00813758 0.0081381 0.00813774 0.00813782 0.00813774 0.00813832 0.00813814 0.00813773 0.0081377 0.00813795 0.00813775 0.00813803 0.00813803 0.00813793 0.00813836 0.00813794 0.00813835 0.00813819 0.0081382 0.00813808 0.00813798 0.00813806 0.00810333 0.0080924 0.00809281 0.00808638 0.00808699 0.00809194 0.00810932 0.00810356 0.00810349 0.00810114 0.0081037 0.00810595 0.00811427 0.00810922 0.0081123 0.00810933 0.00811029 0.0081121 0.00811763 0.00811287 0.00811668 0.00811397 0.00811377 0.00811539 0.00811973 0.00811554 0.00811931 0.00811671 0.00811609 0.00811789 0.00812123 0.00811732 0.00812092 0.00811874 0.00811793 0.00811969 0.00812259 0.00811917 0.00812272 0.00812071 0.00811975 0.00812129 0.00812376 0.00812075 0.00812394 0.0081221 0.00812146 0.00812268 0.00812521 0.0081221 0.00812479 0.00812339 0.00812283 0.00812402 0.00812618 0.00812339 0.00812629 0.00812466 0.00812415 0.00812535 0.00812714 0.00812493 0.00812738 0.00812607 0.00812544 0.00812629 0.00812822 0.00812612 0.00812844 0.00812704 0.00812677 0.00812748 0.0081294 0.0081273 0.00812939 0.0081284 0.00812775 0.0081284 0.00813017 0.00812848 0.00813022 0.00812924 0.00812874 0.00812958 0.00813103 0.00812972 0.00813118 0.0081299 0.00812977 0.00813063 0.00813175 0.00813068 0.0081321 0.00813117 0.00813085 0.00813134 0.00813244 0.00813148 0.00813267 0.00813215 0.00813155 0.00813202 0.00813316 0.00813227 0.00813331 0.00813277 0.00813251 0.00813264 0.00813393 0.00813303 0.00813376 0.00813355 0.00813315 0.0081335 0.00813427 0.00813393 0.00813461 0.00813422 0.00813407 0.00813422 0.00813515 0.00813469 0.00813518 0.00813475 0.00813438 0.00813498 0.00813537 0.00813512 0.00813577 0.0081353 0.00813536 0.00813526 0.00813603 0.00813561 0.00813573 0.00813581 0.00813589 0.00813634 0.00813637 0.00813582 0.00813646 0.00813658 0.00813637 0.00813655 0.00813683 0.00813644 0.00813685 0.00813646 0.00813692 0.00813717 0.00813693 0.00813683 0.0081371 0.00813701 0.00813725 0.00813687 0.00813734 0.00813719 0.0081377 0.00813735 0.00813767 0.00813749 0.00813799 0.00813766 0.00813767 0.00813743 0.00813784 0.00813744 0.00813764 0.0081377 0.00813789 0.00813804 0.00813796 0.00813759 0.00813767 0.00813803 0.00813794 0.00813792 0.00813787 0.00813803 0.00813793 0.00813819 0.0081382 0.00813819 0.00813801 0.00813814 0.00813844 0.00813825 0.00813822 0.00813802 0.00813845 0.00813813 0.0081196 0.00810968 0.00811381 0.00810826 0.00810576 0.00811033 0.00812298 0.00811585 0.00811896 0.00811512 0.00811419 0.00811751 0.008125 0.0081192 0.00812369 0.00812046 0.00811956 0.00812196 0.00812666 0.00812163 0.00812595 0.00812345 0.00812235 0.00812423 0.00812787 0.0081236 0.00812778 0.00812513 0.00812412 0.00812576 0.00812869 0.00812496 0.0081287 0.00812669 0.00812551 0.00812696 0.0081294 0.00812598 0.00812948 0.00812756 0.00812665 0.00812777 0.00813009 0.00812699 0.00813023 0.00812853 0.00812755 0.00812887 0.00813075 0.00812791 0.00813119 0.00812974 0.00812844 0.00812954 0.00813144 0.00812882 0.00813148 0.00812999 0.00812912 0.00813039 0.00813207 0.00812961 0.00813225 0.0081309 0.00813007 0.00813099 0.00813252 0.00813039 0.00813247 0.00813151 0.00813081 0.00813187 0.0081331 0.00813127 0.00813317 0.00813198 0.00813165 0.0081324 0.0081336 0.00813187 0.00813387 0.0081329 0.00813234 0.0081331 0.0081343 0.00813263 0.00813428 0.0081332 0.00813316 0.00813361 0.0081345 0.00813325 0.00813459 0.00813435 0.00813357 0.00813389 0.00813481 0.00813367 0.00813492 0.00813452 0.00813402 0.00813423 0.00813533 0.00813425 0.00813537 0.00813503 0.00813471 0.00813498 0.00813568 0.0081349 0.0081359 0.00813535 0.00813511 0.00813524 0.00813632 0.00813541 0.00813634 0.00813603 0.00813565 0.00813609 0.00813628 0.00813593 0.00813636 0.00813582 0.00813602 0.00813619 0.00813677 0.00813623 0.00813706 0.00813671 0.0081363 0.00813647 0.008137 0.0081367 0.00813703 0.00813643 0.00813689 0.00813671 0.00813714 0.00813652 0.00813711 0.00813684 0.00813695 0.00813735 0.00813747 0.00813714 0.00813758 0.00813717 0.00813717 0.00813728 0.00813726 0.00813763 0.00813763 0.00813749 0.00813749 0.00813753 0.00813761 0.00813772 0.00813793 0.00813758 0.00813759 0.00813766 0.00813766 0.00813796 0.00813772 0.00813794 0.00813788 0.00813788 0.00813776 0.00813769 0.00813805 0.00813779 0.00813781 0.00813799 0.00813797 0.00813803 0.0081382 0.00813788 0.00813769 0.00813812 0.00813796 0.008138 0.00813813 0.00813803 0.0081379 0.00813798 0.00813793 0.00813835 0.00813792 0.00813799 0.00813856 0.00813807 0.00813686 0.00812736 0.00813413 0.00812847 0.0081242 0.00812842 0.0081364 0.00812914 0.00813501 0.00813045 0.00812766 0.00813071 0.00813597 0.00813001 0.00813567 0.00813215 0.00813011 0.00813244 0.00813567 0.00813081 0.00813598 0.00813326 0.00813156 0.00813341 0.00813603 0.00813162 0.00813631 0.00813386 0.00813204 0.00813378 0.00813605 0.00813214 0.00813638 0.00813416 0.00813265 0.00813445 0.0081363 0.00813257 0.00813643 0.0081345 0.00813305 0.0081345 0.00813642 0.00813315 0.00813662 0.00813511 0.00813341 0.00813477 0.00813645 0.00813354 0.0081369 0.00813505 0.00813396 0.00813501 0.00813655 0.00813408 0.00813705 0.00813552 0.00813443 0.00813558 0.00813682 0.00813453 0.00813722 0.00813586 0.00813477 0.00813574 0.00813676 0.0081346 0.00813725 0.00813597 0.00813498 0.00813588 0.0081372 0.00813522 0.0081372 0.00813614 0.00813554 0.00813616 0.00813699 0.00813532 0.00813724 0.00813654 0.00813557 0.00813658 0.00813758 0.0081358 0.00813745 0.00813644 0.00813609 0.00813693 0.00813724 0.00813578 0.00813752 0.00813666 0.00813642 0.00813672 0.00813743 0.00813624 0.00813782 0.00813711 0.00813644 0.0081369 0.00813739 0.00813653 0.00813779 0.00813731 0.00813688 0.00813687 0.00813758 0.00813674 0.00813767 0.00813732 0.00813683 0.00813704 0.00813783 0.00813696 0.00813793 0.00813747 0.00813733 0.00813728 0.0081379 0.00813716 0.00813779 0.00813765 0.00813713 0.00813767 0.00813807 0.00813712 0.00813806 0.00813748 0.00813713 0.0081378 0.00813795 0.00813707 0.00813804 0.00813771 0.00813761 0.00813763 0.008138 0.00813771 0.00813777 0.00813803 0.0081376 0.00813757 0.00813775 0.0081377 0.00813796 0.00813793 0.00813814 0.00813786 0.00813796 0.00813787 0.00813823 0.00813798 0.00813774 0.0081379 0.00813792 0.00813831 0.00813803 0.00813815 0.00813757 0.00813787 0.00813783 0.00813812 0.00813832 0.00813828 0.00813823 0.008138 0.00813783 0.00813796 0.00813831 0.008138 0.00813798 0.00813808 0.0081379 0.00813805 0.00813808 0.0081382 0.00813818 0.0081379 0.00813812 0.00813787 0.00813799 0.00813795 0.00813804 0.00813793 0.00813809 0.00813826 0.00813798 0.00813789 0.00813832 0.00813829 0.00815451 0.00814523 0.00815431 0.00814804 0.00814234 0.00814608 0.00814987 0.00814314 0.00815109 0.00814584 0.00814161 0.00814411 0.0081467 0.00814117 0.00814795 0.00814423 0.00814091 0.00814303 0.0081451 0.00814057 0.00814569 0.00814325 0.00814038 0.00814225 0.00814407 0.00813992 0.00814459 0.00814245 0.00814016 0.00814178 0.0081434 0.00813959 0.00814398 0.00814193 0.00814 0.00814147 0.00814291 0.00813951 0.00814329 0.00814158 0.00814005 0.0081412 0.00814274 0.00813939 0.00814299 0.00814146 0.00813961 0.00814081 0.00814239 0.00813949 0.00814274 0.0081412 0.00813972 0.00814102 0.00814205 0.00813933 0.00814234 0.00814092 0.00813924 0.00814047 0.00814165 0.00813918 0.00814203 0.00814086 0.00813938 0.00814038 0.00814126 0.00813886 0.00814157 0.0081405 0.00813935 0.00814018 0.00814091 0.00813906 0.00814124 0.00814038 0.00813937 0.00814008 0.00814073 0.00813884 0.00814096 0.00814008 0.00813922 0.00813988 0.00814069 0.00813865 0.00814065 0.00813994 0.00813923 0.0081396 0.00814032 0.00813891 0.00814037 0.00813968 0.00813892 0.00813944 0.0081398 0.00813865 0.00814022 0.0081397 0.00813891 0.00813932 0.00813968 0.00813856 0.00813984 0.00813954 0.00813867 0.00813915 0.00813952 0.00813827 0.00813982 0.00813921 0.0081385 0.00813931 0.00813931 0.00813855 0.00813942 0.00813894 0.00813885 0.00813902 0.00813922 0.0081385 0.00813909 0.00813881 0.0081386 0.00813902 0.00813883 0.0081384 0.00813909 0.00813856 0.00813864 0.00813849 0.00813849 0.00813834 0.0081385 0.00813882 0.00813848 0.0081386 0.00813877 0.00813819 0.00813871 0.00813833 0.00813856 0.00813852 0.00813838 0.00813837 0.00813847 0.00813858 0.00813813 0.00813853 0.00813831 0.00813827 0.0081385 0.00813833 0.00813823 0.00813808 0.00813836 0.0081384 0.00813835 0.00813818 0.00813809 0.00813846 0.00813817 0.00813786 0.00813834 0.00813828 0.00813796 0.00813825 0.00813826 0.00813823 0.00813818 0.00813861 0.00813811 0.00813795 0.00813776 0.00813793 0.00813774 0.00813792 0.00813814 0.00813803 0.0081381 0.00813816 0.00813809 0.00813784 0.00813798 0.00813826 0.00813818 0.00813803 0.00813801 0.00813827 0.00813816 0.00813797 0.00817216 0.00816281 0.00817552 0.00816751 0.00816024 0.00816313 0.00816249 0.00815614 0.00816696 0.00816068 0.00815489 0.00815728 0.00815701 0.00815204 0.00815943 0.00815616 0.0081514 0.00815345 0.00815398 0.00814947 0.008155 0.00815291 0.00814938 0.00815106 0.00815203 0.00814821 0.0081529 0.00815092 0.00814818 0.0081497 0.00815065 0.00814709 0.0081513 0.00814933 0.00814718 0.00814875 0.00814987 0.00814625 0.00815026 0.00814861 0.00814656 0.00814782 0.00814868 0.00814547 0.00814942 0.00814783 0.00814581 0.00814712 0.00814781 0.00814505 0.00814841 0.00814714 0.00814526 0.00814631 0.00814728 0.00814432 0.00814751 0.00814621 0.00814484 0.00814578 0.0081462 0.00814391 0.00814668 0.00814574 0.00814422 0.00814501 0.00814564 0.00814348 0.00814611 0.00814489 0.00814358 0.00814429 0.00814482 0.00814278 0.00814528 0.00814418 0.00814303 0.00814402 0.00814432 0.00814247 0.00814484 0.0081438 0.00814262 0.00814312 0.00814377 0.00814204 0.00814371 0.00814309 0.00814244 0.0081428 0.00814315 0.00814178 0.00814337 0.00814262 0.00814165 0.00814234 0.0081424 0.00814113 0.00814275 0.00814204 0.00814129 0.0081416 0.00814186 0.00814077 0.00814221 0.00814169 0.00814097 0.00814147 0.00814144 0.00814024 0.00814179 0.00814126 0.00814058 0.00814112 0.00814094 0.00814007 0.00814125 0.00814092 0.00814031 0.00814066 0.00814037 0.00813967 0.00814082 0.00814048 0.00814003 0.00814016 0.00814003 0.00813959 0.00814018 0.00814005 0.00813955 0.0081399 0.00813976 0.00813937 0.00813971 0.00813955 0.00813942 0.00813945 0.00813962 0.00813886 0.00813953 0.0081395 0.00813897 0.00813897 0.00813913 0.00813873 0.00813924 0.00813889 0.0081388 0.00813901 0.00813862 0.00813865 0.00813872 0.00813864 0.00813848 0.00813883 0.00813857 0.00813839 0.00813886 0.00813857 0.00813825 0.0081383 0.00813829 0.00813826 0.00813843 0.00813866 0.00813814 0.00813868 0.00813787 0.00813812 0.00813828 0.00813822 0.00813855 0.00813825 0.00813797 0.00813813 0.00813839 0.00813817 0.00813777 0.00813816 0.00813785 0.0081382 0.00813825 0.00813774 0.00813785 0.0081379 0.00813806 0.00813771 0.00813802 0.00813824 0.00813768 0.0081378 0.00818778 0.00817947 0.00819994 0.00818789 0.00817794 0.00818013 0.00817213 0.00816783 0.00818051 0.00817506 0.008167 0.00816946 0.00816535 0.00816156 0.00816797 0.0081667 0.00816073 0.00816317 0.00816207 0.00815817 0.0081634 0.00816176 0.00815798 0.00815978 0.0081596 0.00815599 0.00816052 0.00815901 0.00815566 0.00815727 0.00815788 0.00815419 0.00815858 0.00815694 0.00815415 0.0081558 0.00815645 0.00815312 0.00815715 0.00815547 0.00815299 0.00815433 0.00815493 0.00815185 0.0081556 0.008154 0.00815196 0.0081531 0.00815375 0.0081507 0.00815422 0.0081527 0.00815086 0.00815184 0.00815258 0.00814965 0.0081527 0.00815162 0.00814988 0.00815098 0.0081513 0.00814862 0.00815166 0.00815053 0.00814837 0.00814967 0.00814999 0.00814756 0.00815039 0.00814887 0.00814779 0.00814865 0.00814873 0.0081467 0.00814949 0.00814854 0.00814677 0.00814766 0.00814771 0.00814604 0.00814807 0.00814715 0.00814588 0.0081465 0.00814685 0.00814488 0.00814722 0.00814642 0.00814534 0.0081459 0.00814571 0.00814436 0.00814611 0.00814565 0.00814433 0.00814483 0.00814474 0.00814361 0.00814525 0.0081445 0.00814375 0.00814446 0.0081439 0.0081427 0.00814433 0.008144 0.00814293 0.00814366 0.00814323 0.00814228 0.00814356 0.00814331 0.00814222 0.00814241 0.00814246 0.0081417 0.00814274 0.00814254 0.0081417 0.00814204 0.00814188 0.00814085 0.00814188 0.00814179 0.00814099 0.00814159 0.00814113 0.00814048 0.00814142 0.00814104 0.00814071 0.00814054 0.00814066 0.00814002 0.0081409 0.00814104 0.00814017 0.00814031 0.00813993 0.00813989 0.00814004 0.00813997 0.00813997 0.00813967 0.00813969 0.00813925 0.00813948 0.0081396 0.00813954 0.00813967 0.00813912 0.00813886 0.00813952 0.00813926 0.00813911 0.00813931 0.00813877 0.00813856 0.00813896 0.00813902 0.00813835 0.00813881 0.00813852 0.00813886 0.00813863 0.00813883 0.00813878 0.00813844 0.00813843 0.0081382 0.00813821 0.00813814 0.00813828 0.00813819 0.00813823 0.00813825 0.00813815 0.0081382 0.00813828 0.00813833 0.00813803 0.0081382 0.00813788 0.00813807 0.00813774 0.00813801 0.00813803 0.00813784 0.00813794 0.00813805 0.00813813 0.00813811 0.00819659 0.00819242 0.00824178 0.00821118 0.008193 0.0081972 0.00817621 0.0081762 0.00817757 0.00818614 0.00817536 0.00817847 0.00817257 0.00816985 0.0081728 0.00817473 0.00816927 0.00817105 0.00816999 0.0081664 0.00817071 0.00816972 0.00816557 0.00816733 0.00816737 0.00816378 0.0081682 0.00816649 0.00816344 0.00816493 0.00816499 0.00816154 0.00816578 0.0081642 0.00816149 0.00816276 0.00816338 0.00815981 0.00816368 0.00816195 0.00815956 0.00816086 0.00816102 0.00815789 0.00816142 0.00816012 0.0081579 0.00815877 0.00815932 0.00815641 0.00815963 0.00815851 0.00815649 0.00815731 0.00815756 0.00815476 0.00815774 0.00815673 0.00815462 0.00815571 0.0081559 0.00815327 0.00815626 0.00815494 0.0081533 0.00815421 0.00815431 0.00815193 0.00815466 0.00815355 0.00815192 0.00815263 0.00815261 0.00815077 0.00815305 0.00815222 0.00815035 0.00815131 0.00815137 0.00814943 0.00815146 0.00815075 0.00814952 0.00814999 0.00814936 0.00814795 0.00815011 0.00814938 0.0081482 0.0081488 0.00814885 0.0081469 0.00814845 0.00814808 0.00814703 0.00814783 0.00814731 0.00814597 0.00814764 0.00814698 0.0081457 0.00814633 0.00814605 0.00814507 0.00814623 0.00814571 0.00814496 0.00814528 0.00814518 0.0081441 0.00814532 0.00814508 0.00814414 0.00814427 0.00814381 0.00814288 0.00814426 0.00814413 0.00814321 0.00814323 0.00814324 0.0081422 0.00814307 0.00814316 0.00814253 0.00814259 0.00814223 0.00814172 0.00814203 0.00814219 0.00814153 0.00814171 0.00814121 0.00814074 0.00814145 0.00814158 0.00814076 0.0081413 0.00814079 0.00814028 0.00814124 0.00814043 0.00814037 0.00814031 0.00814001 0.00813963 0.00813993 0.00814022 0.00813984 0.00813979 0.00813936 0.0081393 0.00813946 0.00813956 0.0081391 0.00813931 0.00813893 0.00813908 0.0081391 0.008139 0.0081389 0.00813911 0.00813877 0.00813846 0.00813878 0.00813904 0.0081385 0.00813819 0.00813833 0.00813855 0.00813799 0.00813852 0.00813806 0.0081385 0.00813859 0.00813785 0.00813807 0.00813784 0.00813804 0.00813806 0.00813812 0.00813809 0.00813819 0.00813785 0.00813789 0.00813795 0.00813812 0.00813766 0.00813801 0.00813748 0.00813839 0.00813823 0.00808515 0.00806919 0.00806712 0.00805061 0.00808369 0.00807714 0.00809808 0.00809575 0.00809347 0.00808927 0.00809667 0.00809509 0.00810509 0.00810049 0.00810388 0.00809918 0.00810101 0.00810183 0.0081085 0.00810384 0.00810759 0.00810437 0.00810418 0.00810596 0.00811091 0.00810695 0.00811058 0.008108 0.00810741 0.00810915 0.00811328 0.00810972 0.00811311 0.008111 0.00811029 0.00811206 0.00811546 0.00811228 0.00811549 0.00811346 0.00811279 0.00811419 0.00811759 0.00811466 0.0081173 0.00811589 0.00811519 0.00811653 0.00811945 0.00811683 0.00811926 0.00811761 0.00811712 0.00811831 0.00812078 0.00811872 0.00812086 0.00811943 0.00811883 0.00811984 0.0081224 0.00812016 0.00812234 0.00812123 0.00812092 0.00812172 0.00812423 0.0081221 0.00812398 0.00812287 0.00812238 0.00812343 0.00812553 0.0081236 0.00812544 0.00812428 0.00812392 0.00812481 0.00812681 0.0081251 0.0081269 0.00812577 0.00812545 0.00812622 0.00812787 0.00812671 0.00812775 0.00812719 0.00812694 0.00812743 0.00812915 0.00812778 0.00812911 0.00812857 0.00812787 0.00812884 0.00813014 0.00812904 0.00813031 0.00812931 0.00812944 0.00812981 0.0081313 0.00813041 0.00813124 0.00813048 0.00813072 0.00813095 0.00813194 0.00813142 0.00813212 0.00813191 0.00813156 0.00813188 0.008133 0.00813216 0.00813306 0.00813233 0.0081325 0.00813314 0.00813353 0.00813333 0.00813398 0.0081333 0.00813388 0.00813341 0.00813434 0.00813429 0.00813432 0.00813434 0.00813433 0.00813478 0.0081352 0.00813482 0.00813509 0.00813468 0.00813531 0.00813522 0.00813583 0.00813585 0.00813576 0.00813551 0.0081358 0.00813591 0.00813617 0.00813608 0.00813646 0.00813608 0.00813644 0.00813671 0.00813669 0.00813641 0.00813717 0.00813663 0.00813705 0.00813671 0.00813718 0.00813707 0.00813697 0.00813713 0.00813762 0.00813736 0.00813767 0.00813757 0.00813774 0.00813749 0.00813794 0.00813769 0.00813792 0.00813794 0.00813787 0.00813781 0.00813791 0.00813777 0.00813816 0.00813785 0.00813774 0.0081378 0.00813773 0.00813796 0.0081381 0.00813838 0.00813808 0.00813807 0.00813797 0.00813789 0.00813796 0.00813801 0.00813797 0.00813808 0.00813819 0.00813818 0.00810215 0.00809131 0.00809263 0.00808582 0.00808647 0.00809095 0.00810862 0.00810273 0.00810256 0.0081005 0.00810226 0.00810451 0.00811341 0.00810868 0.00811119 0.00810837 0.00810912 0.00811106 0.00811689 0.00811211 0.00811595 0.00811348 0.00811299 0.00811458 0.0081191 0.00811517 0.00811875 0.00811634 0.00811567 0.00811742 0.00812106 0.00811723 0.00812078 0.00811888 0.00811773 0.00811924 0.00812257 0.00811916 0.00812258 0.00812073 0.00811957 0.00812121 0.00812386 0.00812068 0.00812382 0.0081221 0.00812142 0.00812258 0.00812512 0.00812221 0.00812488 0.00812343 0.00812272 0.00812386 0.0081262 0.00812366 0.00812614 0.00812495 0.00812408 0.00812502 0.00812727 0.00812502 0.00812718 0.0081261 0.0081255 0.0081264 0.00812818 0.00812615 0.00812837 0.00812724 0.00812651 0.00812755 0.00812919 0.00812726 0.0081291 0.00812809 0.00812771 0.00812853 0.00813029 0.00812851 0.00813022 0.00812925 0.00812904 0.00812949 0.00813104 0.0081293 0.00813092 0.00813004 0.00812982 0.00813067 0.00813164 0.0081306 0.00813189 0.00813108 0.00813099 0.00813128 0.00813249 0.00813133 0.0081326 0.00813185 0.00813144 0.00813211 0.00813336 0.00813214 0.00813363 0.00813248 0.00813271 0.00813302 0.00813382 0.00813315 0.00813398 0.00813344 0.00813323 0.00813355 0.00813476 0.00813386 0.00813469 0.0081342 0.00813406 0.00813459 0.00813514 0.00813481 0.00813509 0.00813472 0.00813459 0.00813491 0.00813523 0.00813546 0.00813572 0.00813535 0.00813534 0.00813526 0.00813599 0.00813543 0.00813592 0.00813575 0.008136 0.00813588 0.0081367 0.00813622 0.00813627 0.0081363 0.00813633 0.00813625 0.00813689 0.00813665 0.00813678 0.00813652 0.00813657 0.00813713 0.0081372 0.00813715 0.00813719 0.00813668 0.00813698 0.00813686 0.00813734 0.00813689 0.00813726 0.00813747 0.00813739 0.00813747 0.00813771 0.00813784 0.00813779 0.00813768 0.00813776 0.00813795 0.0081377 0.00813788 0.00813782 0.00813793 0.00813789 0.00813739 0.00813789 0.008138 0.00813778 0.00813787 0.00813825 0.00813794 0.00813801 0.00813833 0.008138 0.00813803 0.00813842 0.00813807 0.00813806 0.00813828 0.00813816 0.00813829 0.00813805 0.00813827 0.00811906 0.00810927 0.0081136 0.00810802 0.00810529 0.00810971 0.00812232 0.00811495 0.00811863 0.00811471 0.00811316 0.00811669 0.00812437 0.00811876 0.00812267 0.00811997 0.00811866 0.00812118 0.00812611 0.00812108 0.00812536 0.00812328 0.00812201 0.00812381 0.00812727 0.00812314 0.00812743 0.0081252 0.00812373 0.0081256 0.00812841 0.00812439 0.00812861 0.00812626 0.00812531 0.00812662 0.00812922 0.00812597 0.00812927 0.00812768 0.00812642 0.00812795 0.00813001 0.00812664 0.00812997 0.00812858 0.00812727 0.00812868 0.0081307 0.00812787 0.0081309 0.00812967 0.00812847 0.00812937 0.00813147 0.00812871 0.00813169 0.0081302 0.00812913 0.00813018 0.00813188 0.00812957 0.0081323 0.00813087 0.00812999 0.00813096 0.00813264 0.00813057 0.00813286 0.0081316 0.0081309 0.00813176 0.00813292 0.00813116 0.0081332 0.00813235 0.00813153 0.00813223 0.00813373 0.00813187 0.00813378 0.00813288 0.00813231 0.00813297 0.00813414 0.00813267 0.00813434 0.00813319 0.00813304 0.00813373 0.00813466 0.00813323 0.00813477 0.00813395 0.00813365 0.00813384 0.00813507 0.00813389 0.0081349 0.00813433 0.00813424 0.00813461 0.00813548 0.00813431 0.00813566 0.00813476 0.00813457 0.00813495 0.00813576 0.00813506 0.00813568 0.00813548 0.00813508 0.00813536 0.00813592 0.00813529 0.00813627 0.00813558 0.00813546 0.0081357 0.00813628 0.00813557 0.00813642 0.008136 0.00813614 0.00813636 0.00813657 0.00813636 0.00813677 0.00813635 0.00813644 0.0081364 0.00813696 0.00813651 0.00813708 0.00813687 0.00813671 0.0081371 0.0081371 0.00813689 0.00813713 0.00813689 0.00813716 0.00813722 0.00813698 0.00813722 0.00813733 0.00813724 0.0081374 0.00813745 0.00813751 0.00813734 0.00813735 0.00813739 0.00813773 0.00813763 0.00813762 0.00813735 0.00813768 0.00813767 0.00813761 0.00813752 0.00813776 0.00813762 0.00813777 0.0081378 0.00813766 0.00813789 0.00813792 0.00813805 0.00813817 0.00813783 0.008138 0.00813792 0.00813798 0.00813815 0.0081382 0.00813783 0.00813789 0.0081383 0.00813792 0.00813806 0.00813822 0.00813805 0.00813811 0.008138 0.00813832 0.00813827 0.00813817 0.00813797 0.00813849 0.00813882 0.00813689 0.00812697 0.00813418 0.00812839 0.00812426 0.00812833 0.00813649 0.00812895 0.0081348 0.00813022 0.00812706 0.00813049 0.00813606 0.00813014 0.00813543 0.00813199 0.00812969 0.00813207 0.00813553 0.00813074 0.00813586 0.00813325 0.00813118 0.00813299 0.00813589 0.00813165 0.00813596 0.00813368 0.00813198 0.00813377 0.00813594 0.00813221 0.00813643 0.00813426 0.00813267 0.00813414 0.00813629 0.00813268 0.00813639 0.0081346 0.00813315 0.00813468 0.0081363 0.00813317 0.00813672 0.00813491 0.00813374 0.00813481 0.0081365 0.0081337 0.00813676 0.00813506 0.0081342 0.00813514 0.0081368 0.00813401 0.00813692 0.00813556 0.00813458 0.00813539 0.00813673 0.00813431 0.008137 0.00813599 0.00813472 0.00813553 0.00813695 0.00813474 0.00813707 0.00813602 0.00813493 0.00813591 0.00813692 0.00813496 0.00813755 0.00813616 0.00813553 0.00813642 0.00813705 0.00813528 0.00813748 0.00813645 0.00813571 0.00813614 0.00813727 0.00813591 0.00813745 0.00813669 0.00813585 0.0081366 0.0081376 0.00813598 0.00813776 0.00813684 0.00813611 0.00813679 0.00813742 0.0081364 0.00813787 0.00813681 0.0081367 0.00813708 0.00813739 0.00813652 0.00813757 0.00813723 0.00813666 0.00813688 0.00813765 0.00813669 0.00813773 0.00813732 0.00813682 0.00813726 0.00813746 0.008137 0.00813762 0.00813727 0.00813677 0.00813732 0.00813738 0.008137 0.00813773 0.00813768 0.00813691 0.00813748 0.0081379 0.00813701 0.00813781 0.00813742 0.00813749 0.00813774 0.00813803 0.00813729 0.00813811 0.00813778 0.00813742 0.00813757 0.00813809 0.00813757 0.00813804 0.00813777 0.00813761 0.00813802 0.00813779 0.00813763 0.00813766 0.00813777 0.00813781 0.00813768 0.0081382 0.0081379 0.00813789 0.00813766 0.00813797 0.0081381 0.00813782 0.00813792 0.00813789 0.00813803 0.00813812 0.00813802 0.0081378 0.00813819 0.00813787 0.00813788 0.00813798 0.00813794 0.00813774 0.0081379 0.00813806 0.00813787 0.00813772 0.00813774 0.00813797 0.00813802 0.00813828 0.00813815 0.00813783 0.00813818 0.00813801 0.00813807 0.0081383 0.00813792 0.00813792 0.00813794 0.00813791 0.00813824 0.00813798 0.00813796 0.00813824 0.00813803 0.0081551 0.00814531 0.00815453 0.00814829 0.00814246 0.00814635 0.00815051 0.00814325 0.00815123 0.00814592 0.00814149 0.00814454 0.00814697 0.00814131 0.00814822 0.00814441 0.00814075 0.00814332 0.0081452 0.00814057 0.00814609 0.00814322 0.00814039 0.00814243 0.00814403 0.00813972 0.00814484 0.0081426 0.00814022 0.00814205 0.00814344 0.00813957 0.00814406 0.00814188 0.00814001 0.00814165 0.00814314 0.00813947 0.00814337 0.0081417 0.00813976 0.00814127 0.00814243 0.00813953 0.00814307 0.00814146 0.00813973 0.00814098 0.00814216 0.00813921 0.00814268 0.00814087 0.00813977 0.00814091 0.00814181 0.00813912 0.00814223 0.00814085 0.00813942 0.00814078 0.00814163 0.00813925 0.008142 0.0081405 0.00813934 0.00814015 0.00814129 0.00813896 0.00814162 0.00814021 0.00813931 0.00814001 0.00814098 0.008139 0.00814118 0.00814006 0.00813939 0.00814004 0.00814081 0.00813887 0.00814115 0.00814028 0.00813912 0.00813963 0.00814038 0.00813895 0.00814054 0.00813981 0.00813908 0.00813966 0.00814001 0.00813876 0.00814064 0.00813992 0.00813895 0.00813955 0.00813997 0.00813877 0.00814024 0.00813953 0.00813878 0.00813934 0.00813965 0.00813865 0.00813995 0.00813927 0.00813911 0.00813902 0.00813956 0.00813816 0.00813961 0.00813925 0.00813888 0.00813915 0.00813932 0.00813831 0.00813953 0.00813911 0.00813864 0.00813916 0.00813914 0.00813852 0.00813939 0.00813886 0.00813867 0.00813893 0.00813915 0.00813796 0.00813907 0.00813875 0.00813862 0.00813902 0.00813881 0.00813846 0.00813873 0.00813886 0.00813843 0.00813846 0.00813851 0.00813828 0.00813877 0.0081387 0.00813812 0.00813873 0.00813855 0.00813804 0.00813884 0.00813845 0.00813837 0.00813868 0.00813841 0.00813791 0.00813835 0.00813805 0.00813868 0.00813812 0.00813806 0.00813811 0.00813818 0.00813846 0.00813821 0.00813819 0.00813828 0.00813816 0.00813842 0.00813813 0.00813818 0.00813811 0.00813819 0.00813833 0.00813802 0.00813832 0.00813823 0.00813794 0.00813814 0.00813838 0.0081378 0.00813807 0.00813782 0.00813781 0.00813821 0.00813814 0.00813809 0.00813822 0.008138 0.00813809 0.00813773 0.00813806 0.0081379 0.00813829 0.00813828 0.008138 0.00817298 0.0081633 0.00817586 0.00816799 0.00816069 0.00816398 0.00816328 0.00815659 0.00816776 0.00816146 0.00815525 0.00815832 0.00815761 0.00815249 0.00816005 0.00815637 0.00815169 0.00815441 0.00815434 0.00814981 0.00815546 0.00815344 0.00814946 0.00815179 0.0081522 0.00814825 0.0081529 0.00815125 0.00814798 0.00815007 0.00815075 0.00814709 0.00815152 0.00814972 0.00814732 0.00814895 0.00814987 0.0081463 0.00815029 0.00814871 0.00814645 0.00814756 0.00814876 0.00814575 0.00814922 0.00814771 0.0081459 0.00814729 0.00814792 0.00814507 0.00814851 0.00814687 0.00814513 0.00814611 0.00814725 0.00814461 0.00814761 0.00814623 0.00814487 0.00814546 0.00814618 0.00814394 0.00814665 0.0081456 0.00814436 0.00814495 0.00814558 0.0081435 0.00814599 0.00814499 0.0081433 0.00814427 0.00814499 0.00814277 0.00814523 0.00814444 0.00814308 0.00814394 0.00814415 0.0081424 0.00814458 0.00814375 0.00814268 0.0081433 0.00814365 0.00814205 0.00814388 0.00814313 0.00814214 0.00814274 0.00814291 0.0081418 0.00814339 0.00814256 0.00814163 0.00814229 0.00814238 0.00814111 0.00814257 0.00814207 0.00814139 0.00814194 0.00814192 0.00814086 0.00814214 0.00814146 0.00814088 0.00814143 0.00814127 0.0081404 0.00814157 0.00814117 0.00814053 0.00814099 0.00814096 0.0081402 0.00814113 0.00814081 0.00814003 0.00814039 0.00814019 0.00813963 0.00814077 0.00814011 0.00813991 0.0081399 0.00813988 0.0081394 0.00813995 0.00814 0.00813977 0.00813982 0.00813965 0.00813894 0.00814009 0.00813965 0.00813924 0.00813955 0.00813922 0.00813905 0.00813964 0.0081394 0.00813926 0.00813907 0.008139 0.0081386 0.00813889 0.00813886 0.00813866 0.00813883 0.00813859 0.00813865 0.00813889 0.00813887 0.00813856 0.00813889 0.0081383 0.00813837 0.00813877 0.00813857 0.00813848 0.00813858 0.00813846 0.00813799 0.00813863 0.00813833 0.00813829 0.00813843 0.00813815 0.00813815 0.00813835 0.00813819 0.00813817 0.00813808 0.0081383 0.00813813 0.00813786 0.00813812 0.00813809 0.00813844 0.00813759 0.00813782 0.00813814 0.00813828 0.00813819 0.00813802 0.00813805 0.00813783 0.00813758 0.00813773 0.00813777 0.00813758 0.00818932 0.00818053 0.00820035 0.00818853 0.0081784 0.00818123 0.00817337 0.00816871 0.00818153 0.00817605 0.00816785 0.00817093 0.00816631 0.00816232 0.00816895 0.00816787 0.00816166 0.00816439 0.00816242 0.00815869 0.00816376 0.00816269 0.00815824 0.0081605 0.00816011 0.00815619 0.00816104 0.00815935 0.00815602 0.00815784 0.00815829 0.00815444 0.00815887 0.00815714 0.00815455 0.00815605 0.00815645 0.00815308 0.00815721 0.00815546 0.00815313 0.0081544 0.00815498 0.00815189 0.00815564 0.00815402 0.00815176 0.00815317 0.00815363 0.00815068 0.00815422 0.00815269 0.00815085 0.00815185 0.00815219 0.00814957 0.00815281 0.00815157 0.0081497 0.0081508 0.00815101 0.00814843 0.00815177 0.00815048 0.00814882 0.00814973 0.0081498 0.00814756 0.0081506 0.00814924 0.0081479 0.00814876 0.00814876 0.0081466 0.00814931 0.00814818 0.00814705 0.00814746 0.00814771 0.00814583 0.00814829 0.00814717 0.00814583 0.00814663 0.00814658 0.00814516 0.00814718 0.00814607 0.00814528 0.00814562 0.00814577 0.00814442 0.00814604 0.00814555 0.00814455 0.00814481 0.00814462 0.0081437 0.00814498 0.00814482 0.00814358 0.00814401 0.00814418 0.00814282 0.00814431 0.00814363 0.00814291 0.00814315 0.00814317 0.00814241 0.00814366 0.00814288 0.00814247 0.00814262 0.00814243 0.00814168 0.00814253 0.00814226 0.00814165 0.00814181 0.00814174 0.00814126 0.00814198 0.00814182 0.008141 0.00814126 0.00814121 0.00814038 0.00814137 0.00814111 0.00814071 0.00814088 0.00814054 0.00814038 0.00814072 0.00814056 0.00814017 0.00814022 0.00813993 0.00813975 0.00814014 0.00814012 0.00813975 0.00813978 0.00813949 0.00813918 0.0081395 0.00813964 0.0081394 0.00813945 0.00813934 0.00813892 0.00813928 0.00813915 0.00813888 0.00813932 0.00813885 0.00813873 0.00813895 0.00813902 0.00813841 0.0081387 0.00813846 0.00813837 0.00813885 0.00813871 0.00813839 0.00813833 0.0081381 0.00813829 0.00813786 0.00813823 0.00813821 0.00813826 0.00813804 0.00813793 0.00813809 0.00813825 0.00813849 0.00813816 0.00813803 0.00813814 0.00813791 0.00813815 0.00813806 0.00813808 0.00813794 0.0081375 0.00813804 0.00813796 0.0081377 0.00813774 0.0081989 0.0081937 0.00824443 0.00821249 0.00819413 0.0081986 0.00817804 0.00817695 0.00817853 0.00818693 0.00817668 0.00818043 0.00817367 0.00817051 0.00817393 0.00817581 0.00816999 0.00817226 0.00817085 0.0081667 0.00817165 0.00817028 0.00816628 0.00816807 0.00816777 0.00816407 0.00816884 0.00816708 0.00816378 0.00816518 0.00816558 0.00816172 0.00816625 0.00816438 0.00816151 0.00816301 0.00816316 0.00815981 0.00816396 0.00816198 0.0081597 0.00816114 0.00816134 0.00815801 0.0081616 0.00816027 0.00815807 0.00815924 0.00815907 0.00815635 0.00815985 0.00815834 0.00815607 0.00815739 0.00815728 0.00815482 0.0081581 0.0081566 0.00815463 0.00815577 0.00815574 0.00815323 0.00815626 0.00815511 0.00815303 0.00815424 0.00815419 0.0081519 0.00815466 0.0081536 0.00815159 0.00815285 0.00815268 0.00815041 0.00815302 0.00815204 0.00815042 0.00815135 0.00815116 0.00814933 0.00815142 0.00815081 0.00814914 0.00814972 0.00814976 0.00814805 0.00814998 0.00814931 0.00814798 0.00814862 0.00814867 0.00814706 0.00814874 0.00814824 0.00814713 0.00814765 0.00814717 0.00814602 0.00814758 0.00814699 0.0081461 0.00814648 0.00814596 0.00814484 0.00814656 0.00814581 0.00814498 0.0081452 0.00814499 0.00814403 0.00814501 0.00814498 0.00814394 0.00814433 0.00814411 0.00814316 0.00814375 0.0081439 0.00814325 0.00814315 0.00814311 0.00814239 0.00814313 0.00814312 0.00814242 0.00814263 0.00814188 0.00814147 0.00814247 0.00814218 0.00814144 0.00814188 0.00814126 0.00814095 0.0081416 0.0081415 0.00814082 0.00814108 0.00814077 0.0081403 0.00814064 0.0081404 0.00814057 0.00814025 0.00813972 0.00813994 0.00814018 0.00814001 0.00813996 0.00813983 0.00813922 0.00813931 0.00813939 0.00813975 0.00813916 0.00813939 0.00813856 0.00813876 0.00813909 0.00813925 0.00813887 0.00813863 0.00813865 0.00813841 0.00813859 0.00813867 0.00813854 0.00813822 0.00813782 0.00813826 0.00813838 0.00813854 0.00813828 0.00813836 0.00813805 0.00813825 0.00813812 0.00813816 0.00813797 0.00813812 0.00813789 0.00813815 0.00813789 0.00813812 0.00813792 0.00813836 0.00813787 0.00813769 0.00813795 0.00813805 0.00813779 0.00813831 0.00808468 0.00806897 0.00806748 0.008051 0.00808309 0.00807677 0.00809779 0.00809619 0.00809338 0.00808937 0.00809668 0.0080949 0.00810499 0.00810114 0.00810367 0.00809966 0.00810083 0.0081015 0.00810812 0.00810401 0.00810755 0.00810473 0.00810432 0.00810592 0.00811088 0.0081071 0.00811065 0.00810816 0.00810739 0.00810925 0.00811346 0.00810974 0.00811321 0.00811089 0.00811025 0.0081119 0.00811583 0.00811233 0.00811535 0.00811376 0.0081126 0.00811424 0.00811767 0.00811468 0.00811747 0.00811587 0.00811514 0.00811651 0.00811939 0.00811687 0.00811919 0.00811783 0.0081172 0.00811848 0.00812108 0.00811868 0.00812111 0.00811949 0.00811893 0.00811997 0.00812265 0.00812026 0.00812231 0.0081213 0.00812075 0.00812167 0.00812413 0.00812218 0.00812394 0.00812278 0.00812231 0.00812327 0.00812564 0.00812356 0.00812526 0.00812431 0.00812401 0.00812462 0.0081266 0.00812531 0.0081266 0.00812574 0.00812567 0.00812613 0.00812779 0.0081266 0.0081276 0.00812698 0.00812701 0.00812734 0.00812934 0.00812815 0.00812928 0.00812835 0.00812822 0.00812868 0.00813026 0.008129 0.00813017 0.00812945 0.00812973 0.00812974 0.00813129 0.0081304 0.0081313 0.0081308 0.00813039 0.00813087 0.00813189 0.0081314 0.00813204 0.00813149 0.00813182 0.00813178 0.0081328 0.00813249 0.00813298 0.00813264 0.00813278 0.00813284 0.0081337 0.00813371 0.00813372 0.00813359 0.0081335 0.00813379 0.00813455 0.00813409 0.00813443 0.00813413 0.00813475 0.00813424 0.00813505 0.00813488 0.0081351 0.00813492 0.00813526 0.00813544 0.00813598 0.00813582 0.00813567 0.0081357 0.00813587 0.00813583 0.00813654 0.00813647 0.00813627 0.00813625 0.00813662 0.00813648 0.00813718 0.00813672 0.00813693 0.00813699 0.00813682 0.00813679 0.00813726 0.00813731 0.00813687 0.00813696 0.00813745 0.00813729 0.00813783 0.00813755 0.00813745 0.00813763 0.00813759 0.00813789 0.00813728 0.00813812 0.00813801 0.00813794 0.00813773 0.00813763 0.00813804 0.0081381 0.00813824 0.00813805 0.00813817 0.00813796 0.0081378 0.00813812 0.00813804 0.00813827 0.00813796 0.00813808 0.00813801 0.00813807 0.00813829 0.00813843 0.00813826 0.00813794 0.00810167 0.00809129 0.00809262 0.00808569 0.0080863 0.00809085 0.00810836 0.0081032 0.00810258 0.00810028 0.00810216 0.00810421 0.00811336 0.00810888 0.00811116 0.00810905 0.00810892 0.00811072 0.00811685 0.0081126 0.00811584 0.00811374 0.00811275 0.00811468 0.00811908 0.00811535 0.00811873 0.00811656 0.00811571 0.00811748 0.00812073 0.00811724 0.00812087 0.00811892 0.00811781 0.00811931 0.00812237 0.00811908 0.00812251 0.00812066 0.00811956 0.00812106 0.00812379 0.00812056 0.00812386 0.00812204 0.00812114 0.00812249 0.00812501 0.00812178 0.00812508 0.0081235 0.00812287 0.00812398 0.00812632 0.00812368 0.0081262 0.00812474 0.00812436 0.00812527 0.00812739 0.00812483 0.00812753 0.008126 0.00812565 0.00812632 0.00812795 0.00812617 0.00812817 0.00812742 0.00812679 0.00812744 0.0081292 0.00812724 0.00812919 0.00812796 0.00812797 0.0081284 0.00813027 0.00812861 0.00813014 0.00812899 0.00812916 0.00812956 0.00813104 0.00812945 0.00813091 0.00813053 0.00812993 0.00813039 0.00813172 0.00813038 0.00813176 0.00813097 0.00813105 0.00813121 0.0081323 0.00813149 0.00813249 0.00813198 0.00813174 0.00813223 0.00813318 0.00813222 0.00813353 0.00813304 0.00813233 0.00813272 0.00813392 0.00813304 0.00813392 0.00813357 0.00813346 0.00813366 0.00813445 0.00813355 0.00813474 0.00813434 0.0081341 0.00813428 0.00813509 0.00813442 0.0081353 0.00813484 0.00813447 0.0081351 0.00813562 0.00813486 0.00813549 0.00813533 0.00813534 0.00813573 0.00813603 0.00813612 0.00813615 0.00813594 0.00813576 0.00813586 0.00813668 0.00813609 0.00813648 0.00813628 0.00813629 0.00813682 0.00813663 0.00813648 0.00813688 0.0081364 0.00813698 0.00813683 0.00813712 0.00813698 0.00813709 0.00813732 0.00813721 0.00813745 0.0081376 0.00813695 0.00813741 0.00813707 0.0081374 0.00813702 0.00813761 0.00813748 0.00813781 0.00813784 0.00813763 0.0081375 0.00813776 0.008138 0.00813776 0.0081377 0.00813756 0.00813786 0.00813788 0.00813808 0.00813793 0.00813781 0.00813801 0.00813797 0.00813792 0.00813825 0.0081381 0.00813803 0.0081383 0.00813828 0.008138 0.00813821 0.00813807 0.00813813 0.00813823 0.00813814 0.00811879 0.00810941 0.00811368 0.00810795 0.00810532 0.00810957 0.00812247 0.00811533 0.00811835 0.00811469 0.0081131 0.00811662 0.00812424 0.00811902 0.00812251 0.00811997 0.00811838 0.0081211 0.00812602 0.00812154 0.00812552 0.00812315 0.00812172 0.00812363 0.00812724 0.00812342 0.00812739 0.00812528 0.00812372 0.00812551 0.00812839 0.00812473 0.00812857 0.00812665 0.00812506 0.00812653 0.0081291 0.0081259 0.00812951 0.00812791 0.00812653 0.0081275 0.00813 0.00812683 0.0081301 0.00812858 0.00812733 0.00812862 0.00813065 0.00812787 0.00813086 0.00812941 0.0081285 0.00812933 0.00813154 0.00812879 0.00813148 0.00813018 0.00812926 0.0081302 0.00813204 0.00812947 0.00813241 0.00813084 0.00813004 0.00813119 0.00813248 0.00813039 0.00813272 0.0081315 0.00813076 0.00813163 0.00813307 0.00813128 0.00813324 0.00813212 0.00813161 0.00813212 0.00813368 0.00813185 0.00813374 0.00813287 0.00813251 0.00813294 0.00813403 0.00813265 0.00813426 0.00813352 0.00813295 0.00813351 0.0081346 0.00813317 0.00813452 0.00813392 0.00813374 0.00813384 0.00813485 0.00813397 0.00813505 0.00813475 0.00813401 0.00813464 0.00813548 0.00813428 0.00813541 0.00813484 0.00813454 0.00813477 0.00813589 0.00813499 0.00813571 0.00813507 0.00813516 0.00813555 0.00813587 0.00813555 0.00813629 0.00813585 0.00813533 0.00813587 0.0081362 0.00813576 0.00813672 0.00813633 0.00813596 0.00813613 0.00813676 0.00813612 0.0081368 0.00813645 0.00813634 0.00813657 0.00813694 0.0081365 0.00813723 0.00813681 0.00813683 0.00813686 0.00813712 0.00813687 0.00813716 0.00813695 0.00813691 0.00813686 0.0081372 0.00813701 0.00813743 0.00813715 0.00813726 0.00813749 0.00813748 0.00813746 0.00813749 0.00813742 0.00813767 0.00813748 0.00813762 0.00813756 0.00813771 0.00813765 0.00813763 0.00813757 0.00813779 0.008138 0.00813789 0.00813801 0.00813768 0.00813768 0.00813779 0.00813792 0.00813772 0.00813788 0.00813816 0.00813805 0.0081376 0.00813783 0.00813805 0.00813819 0.00813785 0.00813799 0.00813817 0.00813831 0.00813826 0.00813817 0.00813809 0.00813804 0.00813794 0.00813824 0.00813812 0.00813812 0.00813817 0.0081379 0.0081369 0.00812728 0.008134 0.00812835 0.00812399 0.0081283 0.00813655 0.00812916 0.00813467 0.0081302 0.00812719 0.00813033 0.00813597 0.0081301 0.00813508 0.00813218 0.00812933 0.00813193 0.00813568 0.00813091 0.00813558 0.00813325 0.00813095 0.00813296 0.00813576 0.00813163 0.00813605 0.00813412 0.00813217 0.00813379 0.00813607 0.00813221 0.00813619 0.00813448 0.00813269 0.0081341 0.00813599 0.00813265 0.00813649 0.00813464 0.00813318 0.00813443 0.00813652 0.00813302 0.00813659 0.00813504 0.00813381 0.00813496 0.00813626 0.00813354 0.00813684 0.00813526 0.00813395 0.00813509 0.00813671 0.00813396 0.00813694 0.00813557 0.00813448 0.00813537 0.00813677 0.0081342 0.00813685 0.00813575 0.00813484 0.00813561 0.00813691 0.00813474 0.00813704 0.00813603 0.00813502 0.00813603 0.00813717 0.00813511 0.00813728 0.00813636 0.00813558 0.00813623 0.00813699 0.0081353 0.00813721 0.00813633 0.00813567 0.00813634 0.00813698 0.00813564 0.00813727 0.00813667 0.00813586 0.00813632 0.00813727 0.00813583 0.00813756 0.00813694 0.00813595 0.00813674 0.00813739 0.00813628 0.00813785 0.00813707 0.00813645 0.00813715 0.00813755 0.00813611 0.00813789 0.00813695 0.00813678 0.00813713 0.00813737 0.00813664 0.00813786 0.00813721 0.00813688 0.0081372 0.00813763 0.00813683 0.0081378 0.0081375 0.00813683 0.00813735 0.00813781 0.00813744 0.008138 0.00813749 0.00813743 0.00813758 0.00813778 0.00813726 0.0081378 0.00813752 0.00813753 0.0081377 0.00813786 0.00813774 0.00813789 0.00813768 0.00813757 0.0081375 0.00813792 0.00813759 0.0081382 0.0081377 0.00813761 0.00813758 0.00813811 0.00813765 0.00813783 0.00813763 0.00813771 0.00813796 0.00813783 0.00813776 0.00813794 0.00813786 0.00813791 0.00813802 0.00813797 0.00813758 0.00813813 0.00813797 0.00813789 0.00813776 0.00813786 0.00813802 0.00813794 0.00813777 0.00813785 0.00813782 0.00813795 0.00813811 0.00813781 0.00813794 0.00813813 0.00813802 0.00813769 0.00813806 0.00813798 0.00813844 0.00813802 0.00813776 0.00813812 0.0081379 0.00813787 0.00813808 0.00813841 0.0081381 0.00813771 0.00813836 0.00813783 0.00813816 0.00813822 0.00813806 0.00815517 0.00814536 0.00815436 0.00814841 0.00814229 0.00814636 0.00815046 0.00814314 0.0081511 0.00814597 0.00814153 0.00814482 0.00814724 0.00814123 0.00814801 0.00814429 0.00814104 0.00814334 0.00814517 0.00814027 0.00814607 0.00814317 0.00814045 0.00814264 0.00814422 0.00813976 0.0081448 0.0081427 0.00814014 0.00814211 0.00814333 0.00813958 0.00814395 0.00814205 0.00814011 0.00814161 0.00814286 0.00813947 0.00814329 0.00814166 0.00813993 0.00814123 0.00814252 0.00813921 0.00814298 0.00814141 0.00813973 0.0081409 0.00814212 0.00813925 0.00814252 0.00814087 0.00813967 0.0081408 0.00814199 0.00813938 0.0081423 0.00814079 0.00813956 0.00814054 0.00814161 0.00813904 0.00814195 0.00814088 0.00813933 0.00814052 0.00814121 0.00813904 0.00814172 0.0081403 0.00813928 0.00814048 0.00814104 0.00813913 0.00814134 0.00814011 0.00813941 0.00813987 0.00814063 0.00813903 0.00814084 0.00814037 0.00813919 0.00813968 0.00814023 0.00813911 0.00814072 0.00813988 0.00813884 0.0081397 0.00814011 0.00813851 0.00814053 0.00813953 0.00813898 0.00813945 0.00814003 0.00813869 0.0081401 0.00813949 0.00813895 0.00813952 0.00813966 0.00813864 0.00813999 0.00813938 0.00813885 0.00813921 0.00813946 0.00813868 0.00813964 0.00813923 0.00813877 0.00813885 0.00813939 0.00813838 0.00813942 0.00813908 0.0081389 0.00813888 0.00813918 0.00813858 0.00813942 0.00813932 0.00813854 0.00813913 0.00813891 0.00813832 0.00813915 0.00813852 0.00813846 0.00813863 0.00813894 0.0081382 0.0081389 0.00813873 0.00813846 0.00813867 0.0081385 0.00813808 0.00813858 0.00813821 0.00813821 0.0081384 0.0081385 0.0081382 0.00813861 0.00813836 0.00813852 0.00813805 0.00813851 0.00813844 0.00813797 0.00813853 0.00813846 0.00813853 0.00813815 0.00813801 0.00813826 0.00813838 0.00813802 0.00813813 0.00813808 0.0081379 0.00813809 0.00813803 0.00813817 0.00813825 0.00813819 0.00813813 0.00813792 0.00813808 0.0081383 0.00813819 0.00813778 0.00813822 0.00813805 0.00813797 0.00813804 0.00813808 0.00813825 0.00813776 0.00813821 0.00813813 0.00813795 0.00813772 0.008138 0.00813821 0.00813788 0.00813822 0.00813789 0.00813761 0.00817344 0.00816348 0.00817577 0.00816825 0.00816048 0.00816397 0.00816363 0.00815682 0.0081673 0.00816163 0.00815547 0.00815869 0.00815756 0.00815221 0.00815993 0.00815674 0.00815181 0.00815461 0.00815428 0.00814981 0.00815549 0.00815332 0.00814951 0.00815199 0.00815232 0.00814804 0.0081529 0.00815105 0.00814841 0.00815 0.00815097 0.00814708 0.00815167 0.00814978 0.0081473 0.00814885 0.00814971 0.0081463 0.00815032 0.0081486 0.00814663 0.00814794 0.00814883 0.00814567 0.00814921 0.00814767 0.00814582 0.008147 0.00814791 0.00814511 0.00814853 0.00814702 0.0081451 0.00814611 0.00814713 0.00814448 0.00814747 0.00814618 0.00814453 0.00814579 0.00814646 0.00814369 0.00814688 0.00814555 0.00814408 0.00814507 0.00814579 0.00814332 0.00814615 0.00814485 0.00814335 0.00814466 0.00814496 0.00814285 0.00814535 0.00814411 0.00814302 0.00814376 0.00814427 0.00814233 0.00814458 0.00814364 0.00814245 0.00814329 0.00814327 0.00814201 0.0081442 0.00814318 0.00814212 0.00814282 0.00814283 0.00814152 0.00814332 0.00814243 0.00814163 0.00814215 0.00814259 0.0081411 0.00814301 0.0081421 0.00814123 0.00814173 0.00814195 0.0081407 0.00814213 0.00814173 0.00814087 0.00814132 0.0081412 0.00814052 0.00814158 0.00814131 0.0081406 0.00814081 0.00814074 0.0081401 0.00814098 0.00814088 0.00813982 0.00814027 0.00814044 0.00813996 0.00814064 0.00814022 0.00813995 0.00814021 0.0081402 0.00813966 0.00814027 0.00813999 0.00813949 0.00813987 0.00813983 0.0081391 0.00813992 0.00813949 0.00813944 0.00813954 0.00813935 0.00813895 0.00813955 0.00813959 0.00813914 0.0081393 0.00813893 0.0081386 0.00813935 0.00813904 0.00813896 0.00813887 0.00813874 0.00813828 0.008139 0.00813902 0.00813841 0.00813881 0.00813872 0.00813823 0.00813874 0.00813856 0.00813847 0.00813836 0.00813868 0.00813807 0.00813843 0.00813816 0.00813816 0.00813832 0.00813811 0.00813812 0.0081383 0.00813851 0.00813824 0.00813833 0.00813808 0.00813801 0.0081381 0.00813801 0.00813809 0.00813828 0.00813817 0.00813793 0.00813794 0.00813787 0.00813809 0.00813814 0.0081382 0.00813786 0.00813804 0.00813789 0.00813816 0.00813806 0.00818963 0.00818072 0.00819993 0.00818861 0.00817823 0.00818133 0.00817361 0.00816831 0.00818149 0.00817609 0.0081677 0.00817118 0.00816641 0.00816194 0.0081692 0.00816727 0.00816184 0.00816471 0.00816275 0.00815845 0.00816386 0.00816239 0.00815831 0.00816068 0.00816016 0.00815616 0.00816087 0.00815913 0.00815633 0.00815809 0.00815819 0.00815464 0.00815888 0.00815729 0.00815457 0.00815603 0.00815628 0.00815301 0.00815742 0.0081553 0.00815321 0.00815451 0.00815493 0.00815183 0.00815567 0.00815416 0.00815203 0.00815315 0.0081537 0.00815047 0.00815407 0.00815254 0.00815093 0.0081517 0.00815235 0.00814975 0.00815276 0.00815172 0.00814965 0.00815057 0.00815116 0.0081487 0.00815147 0.00815038 0.00814884 0.00814964 0.00815001 0.00814751 0.00815056 0.00814923 0.00814773 0.0081487 0.00814892 0.00814667 0.00814938 0.008148 0.00814684 0.00814777 0.00814783 0.00814602 0.00814797 0.00814717 0.00814587 0.00814679 0.00814655 0.0081451 0.00814721 0.00814631 0.00814515 0.00814597 0.00814563 0.00814423 0.00814617 0.00814558 0.00814448 0.008145 0.00814486 0.00814358 0.00814526 0.00814469 0.00814356 0.00814426 0.00814394 0.00814284 0.00814427 0.00814369 0.00814298 0.00814353 0.00814313 0.00814231 0.00814364 0.00814289 0.00814219 0.00814288 0.00814234 0.00814179 0.00814298 0.00814226 0.00814181 0.00814208 0.00814179 0.00814102 0.00814206 0.00814168 0.00814094 0.0081416 0.00814115 0.00814063 0.00814126 0.0081411 0.00814062 0.00814083 0.00814059 0.00814033 0.00814078 0.00814077 0.0081401 0.00814028 0.00813992 0.00813969 0.0081402 0.00813997 0.00813962 0.0081399 0.00813955 0.00813929 0.00813973 0.00813955 0.00813941 0.0081393 0.00813918 0.00813902 0.00813912 0.00813925 0.00813937 0.00813912 0.00813877 0.0081385 0.00813894 0.00813912 0.00813857 0.00813873 0.0081384 0.00813844 0.0081386 0.00813845 0.00813856 0.00813856 0.00813819 0.00813837 0.00813846 0.00813825 0.00813804 0.00813842 0.00813796 0.00813824 0.00813803 0.00813805 0.00813803 0.0081382 0.0081379 0.00813825 0.00813791 0.00813797 0.00813779 0.00813792 0.00813816 0.00813786 0.008138 0.0081378 0.0081379 0.00813748 0.00819914 0.00819369 0.00824415 0.00821224 0.00819426 0.00819911 0.00817805 0.00817676 0.00817846 0.00818699 0.0081767 0.00818077 0.00817421 0.00817036 0.00817397 0.00817545 0.00816992 0.00817279 0.00817063 0.0081668 0.0081715 0.00817022 0.00816641 0.00816825 0.00816822 0.00816394 0.0081687 0.00816689 0.00816379 0.00816551 0.00816531 0.00816172 0.00816599 0.00816432 0.00816161 0.00816298 0.00816327 0.00815983 0.00816373 0.00816211 0.00815927 0.00816089 0.00816116 0.00815779 0.00816181 0.00816006 0.00815803 0.00815915 0.00815922 0.00815632 0.00815986 0.00815857 0.00815601 0.00815743 0.00815749 0.00815483 0.00815821 0.0081567 0.00815484 0.00815577 0.0081559 0.00815316 0.00815619 0.00815499 0.0081532 0.00815435 0.00815438 0.00815182 0.00815473 0.00815344 0.0081519 0.0081527 0.00815264 0.00815055 0.00815317 0.00815202 0.00815052 0.00815141 0.00815136 0.00814943 0.00815152 0.00815065 0.00814962 0.00815011 0.00814954 0.00814827 0.00815056 0.00814941 0.00814802 0.00814854 0.00814858 0.00814691 0.00814863 0.00814826 0.00814671 0.00814755 0.00814734 0.00814578 0.00814754 0.00814696 0.00814571 0.00814631 0.00814622 0.00814506 0.00814645 0.00814586 0.00814477 0.00814563 0.00814478 0.00814369 0.00814531 0.00814464 0.00814387 0.00814447 0.00814409 0.00814319 0.00814424 0.00814385 0.00814306 0.00814349 0.00814312 0.00814233 0.0081433 0.0081429 0.00814239 0.00814257 0.00814216 0.00814178 0.00814241 0.0081424 0.00814155 0.0081417 0.00814115 0.00814082 0.00814129 0.00814138 0.00814086 0.00814109 0.00814072 0.00814017 0.00814052 0.00814085 0.00814038 0.00814026 0.00813987 0.00813972 0.00813979 0.00814031 0.00813962 0.00813972 0.0081397 0.00813892 0.0081394 0.00813999 0.00813925 0.00813927 0.00813864 0.00813899 0.00813895 0.00813929 0.00813874 0.00813872 0.00813844 0.00813884 0.00813847 0.00813889 0.00813857 0.00813844 0.00813854 0.00813848 0.00813827 0.00813853 0.00813827 0.00813828 0.00813806 0.00813802 0.00813822 0.00813819 0.00813814 0.00813807 0.00813824 0.00813783 0.00813782 0.00813813 0.00813795 0.00813778 0.00813778 0.00813817 0.00813797 0.00813834 0.00813776 0.00813766 0.00808566 0.00807162 0.00806847 0.00805271 0.00808476 0.00807773 0.00809864 0.00809796 0.00809441 0.00809088 0.0080975 0.00809571 0.00810582 0.00810213 0.00810442 0.0081009 0.00810179 0.00810262 0.00810883 0.00810488 0.00810825 0.00810564 0.0081049 0.0081064 0.00811116 0.00810744 0.00811094 0.00810921 0.00810802 0.00810957 0.00811356 0.00810998 0.00811319 0.0081114 0.00811057 0.00811203 0.00811592 0.00811242 0.00811553 0.00811396 0.00811288 0.00811438 0.00811771 0.00811489 0.00811751 0.00811576 0.008115 0.00811647 0.00811934 0.00811675 0.00811931 0.00811774 0.00811731 0.00811831 0.00812121 0.00811861 0.008121 0.00811964 0.00811877 0.00812011 0.00812262 0.00812053 0.0081227 0.00812126 0.00812083 0.00812185 0.00812396 0.00812219 0.00812391 0.00812263 0.00812255 0.00812339 0.00812561 0.0081234 0.00812557 0.00812433 0.00812379 0.00812478 0.0081267 0.00812529 0.00812682 0.00812586 0.00812541 0.00812606 0.00812792 0.00812652 0.00812782 0.00812685 0.00812683 0.00812764 0.00812922 0.00812787 0.0081292 0.00812835 0.00812815 0.00812861 0.0081301 0.00812913 0.00812995 0.00812953 0.00812974 0.00813002 0.00813114 0.00813021 0.00813121 0.00813062 0.00813065 0.00813106 0.00813187 0.0081313 0.00813187 0.00813165 0.00813167 0.00813189 0.00813303 0.00813252 0.00813312 0.00813234 0.00813238 0.00813279 0.00813399 0.00813315 0.00813402 0.0081334 0.00813357 0.00813387 0.0081345 0.00813415 0.0081348 0.00813415 0.00813428 0.00813458 0.00813511 0.00813507 0.00813536 0.008135 0.00813505 0.00813536 0.00813579 0.00813544 0.00813584 0.00813563 0.00813596 0.00813585 0.00813633 0.00813594 0.00813623 0.00813609 0.00813631 0.00813638 0.00813693 0.00813658 0.00813703 0.0081368 0.00813699 0.00813673 0.00813715 0.00813705 0.00813717 0.00813718 0.00813715 0.00813727 0.00813752 0.00813722 0.00813778 0.00813742 0.00813762 0.00813758 0.00813762 0.00813761 0.00813753 0.00813781 0.00813801 0.00813811 0.00813802 0.00813772 0.00813807 0.00813791 0.00813778 0.00813783 0.00813801 0.00813786 0.00813789 0.00813775 0.00813841 0.00813799 0.00813789 0.00813835 0.00813819 0.00813803 0.00813806 0.00813783 0.00810247 0.00809265 0.00809323 0.00808634 0.00808718 0.00809137 0.00810906 0.00810486 0.00810331 0.00810132 0.00810305 0.00810563 0.00811389 0.00811031 0.00811194 0.00811022 0.00810966 0.00811146 0.00811706 0.00811353 0.00811632 0.00811456 0.00811324 0.008115 0.00811913 0.00811554 0.00811916 0.00811728 0.00811605 0.00811761 0.00812094 0.00811745 0.00812097 0.00811946 0.00811797 0.00811946 0.00812213 0.00811927 0.00812256 0.00812083 0.00811969 0.00812098 0.00812362 0.00812071 0.00812376 0.00812228 0.0081213 0.0081226 0.00812528 0.0081223 0.00812522 0.00812338 0.00812281 0.00812385 0.00812599 0.00812368 0.00812612 0.00812508 0.00812414 0.00812494 0.00812723 0.00812505 0.00812744 0.00812609 0.00812547 0.00812596 0.00812836 0.008126 0.00812803 0.00812711 0.00812654 0.00812734 0.00812932 0.00812705 0.00812946 0.00812825 0.00812767 0.0081285 0.00812999 0.0081282 0.00813016 0.00812925 0.00812879 0.0081295 0.00813102 0.00812969 0.00813084 0.00813037 0.0081298 0.00813055 0.00813204 0.00813059 0.00813191 0.00813076 0.00813112 0.00813108 0.00813263 0.00813141 0.00813239 0.00813182 0.00813188 0.00813241 0.00813324 0.00813236 0.00813339 0.00813266 0.00813253 0.00813289 0.00813382 0.00813308 0.00813402 0.00813332 0.00813325 0.00813356 0.00813462 0.0081341 0.00813438 0.00813431 0.00813404 0.00813389 0.00813544 0.00813458 0.00813535 0.00813457 0.00813476 0.00813498 0.0081358 0.00813511 0.0081355 0.00813509 0.00813522 0.0081354 0.0081358 0.00813589 0.00813603 0.00813607 0.00813574 0.00813581 0.00813634 0.00813618 0.00813639 0.0081363 0.00813634 0.0081367 0.00813704 0.00813674 0.00813688 0.00813654 0.00813679 0.00813706 0.00813716 0.00813711 0.00813709 0.00813662 0.00813719 0.00813694 0.00813755 0.00813719 0.00813735 0.00813715 0.00813752 0.00813744 0.00813793 0.00813786 0.00813781 0.00813766 0.00813758 0.00813775 0.00813768 0.0081375 0.00813786 0.00813759 0.00813802 0.00813768 0.00813817 0.00813787 0.00813775 0.00813778 0.00813803 0.00813815 0.00813822 0.00813805 0.00813793 0.00813793 0.00813806 0.008138 0.00813813 0.00813817 0.00813802 0.00813822 0.00813817 0.00813827 0.00811916 0.00810998 0.00811392 0.00810831 0.00810569 0.00811007 0.00812276 0.00811659 0.00811873 0.00811498 0.00811373 0.00811729 0.0081246 0.00812013 0.00812285 0.00812073 0.00811894 0.00812153 0.0081262 0.00812208 0.00812581 0.00812413 0.00812199 0.00812423 0.00812751 0.00812357 0.00812744 0.00812578 0.00812409 0.00812585 0.00812851 0.00812478 0.00812848 0.00812685 0.00812533 0.00812688 0.00812919 0.0081259 0.00812957 0.00812801 0.00812661 0.00812771 0.00813004 0.00812685 0.00813005 0.00812866 0.00812744 0.00812877 0.00813085 0.00812779 0.00813117 0.00812946 0.00812844 0.0081297 0.00813149 0.0081288 0.0081316 0.00813006 0.00812955 0.00813042 0.00813219 0.00812952 0.00813221 0.00813097 0.00812996 0.00813094 0.00813275 0.00813034 0.00813289 0.00813152 0.00813089 0.00813163 0.00813291 0.00813106 0.0081332 0.00813208 0.00813183 0.00813253 0.00813366 0.0081318 0.00813383 0.00813282 0.00813243 0.00813317 0.00813426 0.0081325 0.00813428 0.00813318 0.00813295 0.00813337 0.00813461 0.00813283 0.0081344 0.00813384 0.00813361 0.00813396 0.00813513 0.00813403 0.00813507 0.00813455 0.0081341 0.00813446 0.0081355 0.00813435 0.00813561 0.00813509 0.00813457 0.00813508 0.00813549 0.00813478 0.00813598 0.00813528 0.00813504 0.00813539 0.00813593 0.00813526 0.00813629 0.00813579 0.00813523 0.00813557 0.00813644 0.0081354 0.00813649 0.00813588 0.00813574 0.00813579 0.00813699 0.00813626 0.00813691 0.00813649 0.00813634 0.00813642 0.00813721 0.00813626 0.00813692 0.00813678 0.00813668 0.00813657 0.00813739 0.00813654 0.00813717 0.00813693 0.0081367 0.0081371 0.00813711 0.00813682 0.00813735 0.00813696 0.00813736 0.00813718 0.00813739 0.00813749 0.00813744 0.00813745 0.00813752 0.00813739 0.00813777 0.00813768 0.00813755 0.00813774 0.00813746 0.00813771 0.0081378 0.00813786 0.00813784 0.00813755 0.00813768 0.00813778 0.00813779 0.00813778 0.00813806 0.00813811 0.00813781 0.00813785 0.00813789 0.00813804 0.00813788 0.00813801 0.00813808 0.00813787 0.00813818 0.00813828 0.00813786 0.00813811 0.0081381 0.00813814 0.00813835 0.00813757 0.00813825 0.0081381 0.00813781 0.00813847 0.00813698 0.00812748 0.00813382 0.0081287 0.00812415 0.00812875 0.00813659 0.00812959 0.00813461 0.00813042 0.0081273 0.00813061 0.0081358 0.00813033 0.00813526 0.00813253 0.00812956 0.00813215 0.00813567 0.00813106 0.00813588 0.0081335 0.00813122 0.00813327 0.0081358 0.00813138 0.00813589 0.00813421 0.00813199 0.00813362 0.00813568 0.00813219 0.00813617 0.00813448 0.00813262 0.00813424 0.00813586 0.00813268 0.00813666 0.0081346 0.00813321 0.00813459 0.00813626 0.0081332 0.00813656 0.00813519 0.00813368 0.0081348 0.0081366 0.00813373 0.00813689 0.00813531 0.00813377 0.00813536 0.00813674 0.0081341 0.00813707 0.00813549 0.0081348 0.00813546 0.00813684 0.00813457 0.00813699 0.00813595 0.00813461 0.00813536 0.00813709 0.00813471 0.00813726 0.00813595 0.00813499 0.008136 0.00813696 0.00813505 0.00813718 0.00813618 0.00813546 0.00813599 0.00813708 0.00813551 0.00813738 0.00813642 0.00813574 0.00813643 0.00813714 0.00813562 0.00813753 0.00813681 0.00813604 0.00813669 0.00813736 0.00813584 0.00813777 0.00813673 0.00813643 0.00813647 0.00813734 0.00813603 0.00813752 0.00813708 0.00813647 0.00813674 0.00813742 0.00813635 0.0081375 0.00813691 0.0081365 0.00813697 0.00813754 0.00813672 0.00813759 0.00813725 0.0081369 0.00813723 0.00813773 0.00813679 0.00813773 0.00813719 0.00813677 0.00813723 0.00813789 0.00813703 0.0081379 0.00813731 0.00813726 0.00813771 0.00813758 0.00813707 0.00813784 0.00813753 0.00813755 0.00813743 0.00813763 0.00813706 0.00813788 0.00813765 0.00813746 0.0081378 0.0081379 0.00813742 0.00813799 0.00813789 0.00813764 0.00813772 0.00813759 0.00813767 0.00813786 0.00813791 0.00813777 0.00813774 0.0081379 0.00813797 0.00813783 0.00813822 0.00813742 0.00813782 0.00813779 0.00813755 0.00813823 0.00813769 0.00813794 0.00813793 0.00813802 0.00813763 0.00813817 0.00813776 0.00813791 0.00813808 0.00813788 0.00813813 0.00813822 0.00813802 0.00813793 0.00813808 0.00813823 0.00813788 0.00813812 0.008138 0.00813801 0.00813762 0.00813805 0.00813811 0.00813824 0.00813815 0.00813861 0.00813792 0.00813805 0.008138 0.00813788 0.008138 0.00813823 0.00813838 0.0081551 0.00814552 0.00815397 0.00814853 0.00814195 0.00814627 0.00815014 0.00814279 0.00815076 0.00814603 0.00814105 0.00814462 0.00814671 0.0081413 0.00814763 0.0081441 0.00814065 0.00814341 0.00814489 0.00814021 0.00814578 0.0081433 0.00814044 0.00814265 0.00814396 0.00813962 0.00814449 0.00814234 0.00814016 0.00814185 0.0081435 0.00813964 0.00814404 0.00814225 0.00813994 0.00814174 0.00814291 0.00813965 0.00814341 0.00814165 0.00813961 0.00814115 0.00814263 0.00813932 0.00814289 0.00814126 0.0081398 0.00814105 0.00814213 0.00813922 0.00814273 0.00814114 0.00813976 0.00814092 0.00814186 0.00813911 0.00814244 0.00814115 0.00813961 0.0081406 0.00814161 0.00813908 0.00814177 0.00814074 0.00813957 0.0081405 0.00814119 0.00813915 0.00814178 0.00814071 0.0081395 0.00814018 0.00814095 0.00813902 0.00814138 0.00814028 0.00813927 0.00814003 0.00814068 0.00813919 0.00814083 0.0081401 0.00813921 0.00814009 0.00814022 0.00813898 0.00814112 0.0081397 0.00813889 0.00813948 0.00814021 0.0081389 0.00814026 0.00813965 0.00813895 0.00813963 0.00814001 0.00813861 0.00814031 0.00813959 0.00813872 0.0081395 0.00813977 0.00813854 0.00814003 0.0081392 0.008139 0.00813919 0.00813953 0.00813839 0.00813954 0.00813914 0.00813868 0.00813919 0.00813919 0.00813856 0.00813953 0.00813908 0.00813833 0.00813862 0.00813894 0.0081384 0.0081393 0.00813891 0.00813856 0.00813886 0.00813889 0.00813841 0.00813928 0.00813879 0.00813845 0.00813869 0.00813869 0.00813822 0.00813879 0.00813847 0.0081384 0.00813886 0.00813877 0.00813817 0.00813879 0.00813856 0.00813831 0.00813853 0.00813846 0.00813834 0.00813849 0.00813857 0.0081385 0.00813845 0.00813848 0.00813807 0.00813841 0.00813853 0.00813829 0.00813828 0.00813836 0.00813824 0.00813842 0.00813811 0.00813816 0.00813836 0.00813803 0.00813814 0.00813816 0.0081381 0.00813838 0.00813823 0.00813792 0.00813798 0.00813811 0.00813801 0.00813814 0.00813814 0.00813801 0.00813824 0.0081381 0.00813835 0.00813814 0.00813806 0.00813792 0.00813805 0.00813823 0.00813789 0.00813786 0.00813805 0.0081378 0.00813807 0.00813824 0.00813818 0.00813808 0.00813823 0.00817291 0.00816283 0.00817493 0.0081681 0.00815991 0.00816384 0.00816297 0.00815555 0.00816639 0.00816106 0.00815453 0.00815816 0.00815686 0.00815166 0.00815931 0.00815582 0.00815167 0.00815423 0.00815383 0.00814924 0.00815514 0.00815253 0.0081494 0.00815167 0.00815212 0.00814805 0.00815279 0.00815082 0.00814811 0.00814997 0.00815086 0.00814699 0.0081513 0.00814945 0.00814721 0.00814888 0.00814967 0.00814629 0.0081504 0.00814835 0.00814647 0.00814791 0.00814883 0.00814556 0.00814927 0.00814752 0.00814605 0.00814691 0.00814783 0.00814505 0.00814827 0.00814706 0.00814515 0.00814646 0.0081472 0.00814444 0.00814748 0.0081463 0.00814469 0.00814579 0.00814638 0.00814408 0.00814674 0.00814572 0.00814424 0.00814509 0.00814557 0.00814342 0.0081459 0.00814491 0.00814351 0.00814436 0.00814495 0.0081429 0.00814526 0.00814428 0.00814302 0.0081441 0.00814438 0.00814217 0.00814482 0.00814363 0.00814283 0.00814336 0.00814357 0.00814202 0.0081438 0.00814285 0.00814193 0.00814268 0.00814294 0.00814125 0.00814324 0.00814261 0.00814166 0.0081423 0.00814209 0.00814132 0.00814279 0.00814199 0.00814113 0.0081418 0.00814171 0.00814073 0.00814215 0.00814143 0.0081411 0.00814123 0.00814138 0.00814051 0.00814151 0.00814116 0.00814069 0.00814067 0.00814071 0.00814027 0.00814093 0.00814089 0.00814029 0.00814044 0.00814044 0.00813975 0.00814076 0.0081405 0.00814015 0.00813992 0.00813987 0.00813941 0.00814003 0.00813991 0.00813926 0.00814016 0.00813947 0.00813928 0.00814007 0.00813912 0.00813936 0.00813941 0.00813947 0.00813919 0.00813976 0.00813927 0.00813919 0.00813914 0.00813869 0.00813867 0.00813914 0.0081393 0.00813879 0.00813897 0.00813868 0.00813849 0.00813909 0.00813891 0.00813859 0.00813873 0.00813845 0.00813843 0.00813851 0.00813857 0.0081388 0.00813873 0.00813828 0.00813834 0.00813829 0.00813844 0.0081384 0.00813814 0.00813834 0.00813843 0.00813801 0.00813838 0.0081384 0.00813821 0.00813827 0.00813809 0.00813821 0.00813822 0.00813797 0.008138 0.00813823 0.00813799 0.00813822 0.00813808 0.00813786 0.00813788 0.00813832 0.0081379 0.00813806 0.0081378 0.00813778 0.0081381 0.00818905 0.00817948 0.00819901 0.00818844 0.00817715 0.00818117 0.00817278 0.00816703 0.00818005 0.00817524 0.00816718 0.00817064 0.00816582 0.00816106 0.00816813 0.00816638 0.00816112 0.00816435 0.00816223 0.0081579 0.00816324 0.0081613 0.00815794 0.00816036 0.00815994 0.00815581 0.00816074 0.00815848 0.00815595 0.0081576 0.00815814 0.00815429 0.00815865 0.00815689 0.00815439 0.0081558 0.00815649 0.00815303 0.00815691 0.00815525 0.00815307 0.00815429 0.008155 0.0081518 0.00815553 0.00815399 0.00815189 0.00815306 0.00815374 0.00815061 0.00815431 0.00815275 0.0081506 0.00815202 0.00815234 0.00814966 0.00815279 0.00815142 0.00814981 0.00815081 0.00815099 0.0081487 0.00815174 0.0081505 0.00814902 0.00814961 0.00814982 0.00814778 0.00815045 0.00814933 0.00814781 0.00814847 0.00814869 0.00814682 0.0081493 0.0081485 0.00814703 0.00814779 0.00814753 0.0081458 0.00814827 0.00814734 0.00814603 0.00814685 0.00814669 0.00814514 0.00814693 0.00814633 0.00814546 0.00814584 0.00814567 0.00814432 0.00814613 0.00814555 0.00814458 0.00814489 0.00814489 0.00814378 0.00814534 0.00814454 0.00814371 0.00814433 0.00814376 0.00814288 0.00814423 0.00814403 0.00814276 0.00814349 0.00814336 0.00814228 0.00814348 0.00814294 0.00814274 0.00814294 0.00814223 0.00814149 0.00814274 0.00814253 0.00814178 0.00814202 0.00814185 0.00814126 0.00814236 0.00814189 0.00814137 0.0081415 0.0081409 0.00814037 0.0081414 0.00814139 0.00814058 0.008141 0.00814034 0.0081402 0.00814083 0.00814043 0.00814009 0.00814046 0.00813997 0.00813969 0.00814021 0.0081398 0.00813974 0.00813991 0.00813967 0.00813929 0.00813982 0.00813968 0.00813928 0.00813958 0.00813926 0.00813901 0.00813904 0.0081395 0.00813885 0.00813901 0.00813904 0.00813839 0.00813902 0.00813889 0.00813832 0.00813881 0.0081386 0.00813847 0.00813869 0.00813872 0.0081386 0.00813854 0.0081383 0.00813792 0.0081383 0.00813851 0.00813806 0.00813816 0.00813831 0.00813827 0.00813807 0.00813818 0.00813799 0.00813837 0.00813802 0.00813812 0.00813813 0.00813807 0.00813798 0.00813783 0.00813775 0.00813802 0.00813815 0.00813803 0.00813785 0.00813771 0.00819781 0.00819225 0.00824118 0.00821125 0.0081928 0.00819846 0.00817727 0.00817511 0.00817709 0.00818584 0.00817574 0.00818007 0.00817326 0.00816901 0.00817281 0.00817428 0.00816936 0.00817215 0.00817031 0.00816587 0.00817084 0.00816927 0.0081659 0.00816781 0.00816777 0.00816351 0.00816833 0.00816612 0.00816365 0.00816517 0.00816558 0.00816155 0.00816582 0.00816413 0.00816131 0.00816298 0.00816342 0.00815951 0.00816408 0.00816188 0.00815935 0.00816102 0.00816089 0.00815794 0.00816176 0.00815987 0.00815764 0.008159 0.00815937 0.00815642 0.00815981 0.0081584 0.0081562 0.00815735 0.00815745 0.00815479 0.00815802 0.00815655 0.00815479 0.00815581 0.00815566 0.00815304 0.00815624 0.00815506 0.00815313 0.0081543 0.00815445 0.00815218 0.00815485 0.00815368 0.00815194 0.00815271 0.00815249 0.00815053 0.0081532 0.00815215 0.00815053 0.00815134 0.0081511 0.0081496 0.00815158 0.00815081 0.00814943 0.00815019 0.00814963 0.00814823 0.0081498 0.00814942 0.00814815 0.00814865 0.00814858 0.008147 0.00814874 0.00814815 0.00814687 0.00814762 0.00814731 0.00814601 0.00814752 0.00814689 0.00814605 0.00814613 0.00814612 0.00814495 0.00814646 0.00814615 0.00814492 0.00814534 0.0081449 0.00814402 0.00814545 0.00814467 0.00814405 0.00814449 0.00814378 0.0081432 0.00814421 0.0081438 0.008143 0.00814351 0.00814308 0.00814262 0.00814336 0.00814316 0.00814233 0.00814265 0.00814248 0.00814184 0.00814259 0.0081425 0.00814162 0.00814179 0.00814138 0.0081408 0.00814153 0.00814103 0.00814083 0.00814118 0.00814104 0.0081406 0.0081408 0.00814065 0.00814041 0.00814064 0.00813991 0.00813979 0.00814008 0.00814011 0.00813984 0.00813982 0.00813958 0.00813919 0.00813935 0.00813944 0.00813937 0.00813937 0.00813914 0.00813893 0.00813894 0.00813903 0.00813915 0.00813868 0.00813873 0.00813854 0.0081389 0.00813912 0.00813869 0.0081386 0.00813785 0.00813835 0.00813811 0.00813868 0.00813833 0.00813841 0.00813827 0.0081381 0.0081382 0.00813853 0.00813816 0.008138 0.00813785 0.00813781 0.0081383 0.00813825 0.00813822 0.00813781 0.00813809 0.0081383 0.00813808 0.00813801 0.00813766 0.00813793 0.00808819 0.00807671 0.00807029 0.00805509 0.00808761 0.0080803 0.00810139 0.00810136 0.00809694 0.00809374 0.0080997 0.00809824 0.00810764 0.00810435 0.00810644 0.00810366 0.00810335 0.00810419 0.0081099 0.00810654 0.00810975 0.00810788 0.00810626 0.00810773 0.00811201 0.00810845 0.0081119 0.00811058 0.00810884 0.00811015 0.00811404 0.0081107 0.00811399 0.00811229 0.0081108 0.00811256 0.00811591 0.008113 0.00811591 0.00811437 0.00811305 0.00811447 0.00811776 0.00811492 0.00811778 0.00811606 0.00811538 0.00811657 0.00811953 0.00811682 0.00811946 0.00811788 0.00811694 0.00811832 0.00812106 0.00811897 0.00812095 0.0081196 0.00811922 0.00812028 0.00812275 0.00812037 0.0081224 0.0081211 0.00812039 0.00812179 0.00812408 0.00812201 0.00812421 0.00812264 0.0081223 0.00812322 0.00812526 0.00812362 0.00812501 0.00812421 0.00812418 0.0081247 0.00812674 0.00812513 0.00812639 0.00812539 0.00812521 0.00812608 0.00812798 0.00812665 0.00812771 0.00812679 0.00812671 0.00812741 0.00812901 0.00812746 0.00812889 0.00812804 0.00812802 0.00812865 0.00813005 0.00812911 0.00813021 0.00812924 0.00812954 0.00812981 0.00813103 0.00813018 0.00813099 0.00813047 0.00813047 0.00813067 0.00813215 0.0081316 0.00813204 0.00813161 0.00813149 0.00813171 0.00813312 0.00813243 0.00813291 0.00813244 0.00813233 0.00813278 0.00813364 0.0081331 0.00813376 0.00813334 0.00813371 0.00813354 0.00813464 0.00813397 0.00813447 0.00813399 0.0081341 0.00813463 0.00813504 0.0081351 0.00813525 0.00813474 0.00813505 0.00813514 0.00813598 0.0081355 0.0081357 0.0081352 0.0081358 0.00813563 0.00813663 0.00813599 0.00813622 0.00813602 0.00813613 0.00813638 0.00813686 0.00813678 0.00813696 0.00813648 0.0081366 0.0081368 0.0081368 0.00813712 0.00813695 0.00813665 0.00813746 0.00813695 0.00813751 0.00813778 0.00813735 0.00813723 0.00813765 0.0081376 0.00813791 0.0081376 0.00813767 0.00813764 0.0081378 0.0081378 0.0081379 0.00813784 0.00813784 0.00813755 0.00813817 0.00813771 0.00813815 0.00813799 0.00813797 0.00813817 0.00813822 0.00813794 0.00813825 0.00813819 0.00813812 0.00813825 0.00813796 0.00813792 0.00810432 0.00809615 0.00809399 0.00808714 0.008089 0.00809314 0.00811109 0.00810861 0.00810512 0.0081042 0.00810497 0.00810733 0.00811546 0.00811279 0.0081134 0.00811342 0.00811138 0.00811335 0.00811799 0.00811504 0.00811769 0.00811687 0.0081145 0.00811642 0.00811998 0.00811647 0.00812006 0.0081185 0.00811671 0.00811844 0.00812156 0.00811812 0.0081215 0.00812006 0.00811858 0.00811991 0.00812267 0.00811938 0.00812258 0.00812112 0.00811991 0.0081213 0.0081239 0.00812077 0.00812395 0.00812233 0.00812144 0.00812261 0.00812511 0.00812232 0.0081253 0.0081238 0.008123 0.00812393 0.00812616 0.0081237 0.00812621 0.00812513 0.00812422 0.00812497 0.00812727 0.0081245 0.0081274 0.008126 0.00812531 0.00812633 0.00812829 0.00812633 0.00812816 0.00812701 0.0081268 0.00812753 0.00812915 0.00812717 0.00812943 0.00812814 0.00812764 0.0081286 0.00813024 0.00812853 0.00813021 0.00812919 0.00812905 0.00812959 0.00813107 0.00812953 0.00813086 0.00813002 0.00812994 0.00813046 0.00813178 0.00813042 0.00813176 0.00813112 0.00813089 0.00813145 0.00813198 0.00813173 0.00813239 0.00813206 0.00813185 0.00813213 0.00813316 0.00813234 0.00813327 0.00813248 0.00813268 0.00813279 0.00813379 0.00813304 0.00813374 0.00813357 0.00813307 0.00813351 0.00813435 0.00813372 0.0081346 0.00813415 0.00813386 0.0081344 0.00813503 0.00813421 0.00813515 0.00813427 0.00813466 0.00813484 0.00813575 0.0081349 0.00813564 0.00813554 0.00813518 0.00813553 0.00813616 0.00813574 0.00813595 0.00813556 0.00813572 0.00813614 0.00813674 0.00813595 0.0081363 0.00813627 0.00813635 0.00813638 0.00813646 0.00813633 0.00813668 0.00813654 0.00813669 0.00813674 0.00813695 0.00813674 0.00813721 0.00813685 0.00813719 0.00813722 0.00813742 0.00813737 0.00813727 0.00813735 0.00813749 0.0081372 0.00813762 0.00813718 0.00813761 0.00813758 0.00813734 0.00813734 0.00813752 0.00813761 0.0081378 0.00813776 0.008138 0.00813754 0.00813798 0.00813828 0.00813788 0.00813812 0.00813785 0.00813774 0.00813799 0.00813826 0.00813798 0.00813777 0.00813818 0.00813808 0.00813853 0.00813806 0.00813803 0.00813827 0.00813825 0.00813853 0.0081204 0.00811223 0.00811423 0.00810891 0.00810674 0.00811105 0.00812384 0.00811934 0.00811993 0.00811733 0.00811537 0.00811867 0.00812555 0.00812181 0.00812413 0.00812291 0.0081206 0.00812291 0.00812699 0.00812306 0.00812662 0.00812542 0.00812305 0.00812487 0.00812774 0.00812428 0.00812817 0.0081267 0.00812451 0.00812632 0.00812872 0.0081252 0.00812912 0.00812725 0.00812576 0.00812723 0.00812932 0.00812605 0.00812977 0.00812802 0.00812675 0.00812787 0.00813039 0.00812721 0.0081303 0.00812862 0.00812746 0.00812875 0.00813087 0.00812812 0.00813102 0.00812946 0.00812837 0.00812968 0.00813153 0.00812869 0.00813176 0.00813024 0.00812929 0.00813046 0.00813209 0.00812979 0.0081323 0.00813081 0.00813008 0.00813082 0.00813245 0.00813033 0.00813272 0.00813183 0.00813079 0.00813172 0.00813321 0.00813112 0.00813324 0.00813197 0.00813168 0.00813234 0.00813371 0.0081321 0.00813376 0.00813299 0.00813223 0.00813297 0.0081342 0.00813268 0.00813446 0.0081334 0.00813285 0.00813364 0.00813446 0.00813302 0.00813467 0.0081337 0.00813363 0.00813382 0.00813477 0.00813357 0.00813484 0.00813434 0.00813407 0.00813468 0.00813537 0.0081344 0.00813545 0.00813494 0.00813474 0.00813494 0.00813575 0.00813458 0.00813571 0.00813536 0.00813517 0.0081354 0.00813618 0.00813499 0.00813622 0.0081354 0.00813542 0.00813583 0.00813639 0.00813569 0.00813678 0.00813623 0.008136 0.00813627 0.00813662 0.00813603 0.00813663 0.00813652 0.00813632 0.00813674 0.00813678 0.00813639 0.00813701 0.00813677 0.0081367 0.00813638 0.00813683 0.00813657 0.00813719 0.00813679 0.00813699 0.00813699 0.00813737 0.00813673 0.00813741 0.00813733 0.00813703 0.00813724 0.00813758 0.00813756 0.00813772 0.00813746 0.00813717 0.00813763 0.00813722 0.00813751 0.00813745 0.0081372 0.00813806 0.00813794 0.00813751 0.0081376 0.00813785 0.00813744 0.00813819 0.00813769 0.00813778 0.00813793 0.00813791 0.00813803 0.00813778 0.00813762 0.00813776 0.00813793 0.00813806 0.00813776 0.00813825 0.00813816 0.00813773 0.00813795 0.0081383 0.00813804 0.00813824 0.00813826 0.00813806 0.00813799 0.00813827 0.00813825 0.00813845 0.00813814 0.00813718 0.00812834 0.00813371 0.00812898 0.00812435 0.00812883 0.00813651 0.00813087 0.00813483 0.00813118 0.00812779 0.00813102 0.00813609 0.00813113 0.0081357 0.00813305 0.00813035 0.00813246 0.00813591 0.00813166 0.00813604 0.00813425 0.0081318 0.00813367 0.00813589 0.00813225 0.00813631 0.00813435 0.00813232 0.0081341 0.00813593 0.0081326 0.00813644 0.00813464 0.00813282 0.00813443 0.00813608 0.0081329 0.00813655 0.00813478 0.00813332 0.00813464 0.00813641 0.00813316 0.00813658 0.00813497 0.00813389 0.00813506 0.00813653 0.00813357 0.00813671 0.00813522 0.00813417 0.00813508 0.00813674 0.00813427 0.008137 0.00813552 0.00813448 0.00813545 0.00813676 0.00813473 0.00813691 0.00813545 0.00813491 0.00813593 0.00813688 0.00813495 0.00813725 0.00813603 0.00813484 0.00813574 0.00813721 0.00813495 0.00813741 0.00813625 0.00813551 0.00813594 0.00813728 0.00813524 0.0081372 0.00813653 0.00813548 0.00813644 0.0081372 0.00813565 0.00813756 0.00813666 0.0081357 0.00813643 0.00813728 0.00813599 0.00813767 0.00813689 0.00813611 0.00813662 0.00813754 0.00813609 0.00813768 0.00813686 0.0081364 0.00813695 0.00813763 0.00813659 0.00813776 0.00813702 0.0081366 0.00813701 0.00813772 0.00813661 0.00813778 0.0081371 0.00813678 0.00813727 0.00813768 0.00813705 0.0081377 0.0081373 0.00813718 0.00813716 0.00813781 0.00813717 0.0081377 0.00813751 0.0081372 0.00813741 0.00813778 0.00813733 0.00813789 0.00813766 0.00813737 0.00813762 0.00813796 0.00813712 0.00813776 0.00813747 0.0081377 0.00813791 0.0081381 0.00813764 0.008138 0.00813787 0.00813741 0.00813793 0.00813815 0.00813775 0.0081381 0.0081378 0.00813775 0.00813787 0.00813812 0.00813766 0.00813813 0.0081376 0.00813763 0.00813791 0.00813817 0.0081379 0.00813781 0.00813797 0.00813778 0.00813798 0.008138 0.00813794 0.00813804 0.00813783 0.00813783 0.00813789 0.00813809 0.0081381 0.00813805 0.00813803 0.00813805 0.00813775 0.00813803 0.00813817 0.0081378 0.00813818 0.00813791 0.00813794 0.00813797 0.00813841 0.00813797 0.0081379 0.00813771 0.0081382 0.00813787 0.00813799 0.00813791 0.0081382 0.00813778 0.00813825 0.0081543 0.00814459 0.00815342 0.00814851 0.00814129 0.00814629 0.00814919 0.00814198 0.0081501 0.00814499 0.00814088 0.00814394 0.00814601 0.00814087 0.00814719 0.0081433 0.00814047 0.00814286 0.00814485 0.00814009 0.00814525 0.00814255 0.00814038 0.00814227 0.00814404 0.00813981 0.0081444 0.00814229 0.00814019 0.008142 0.00814328 0.00813979 0.00814385 0.00814204 0.00814028 0.00814155 0.00814297 0.00813954 0.00814337 0.00814155 0.00813991 0.00814109 0.00814258 0.00813945 0.00814316 0.00814168 0.00813954 0.00814119 0.00814234 0.00813933 0.00814268 0.00814104 0.00813991 0.00814052 0.00814178 0.00813932 0.00814212 0.00814092 0.00813975 0.00814043 0.00814151 0.00813925 0.00814194 0.0081408 0.00813951 0.00814047 0.00814138 0.00813912 0.00814159 0.00814041 0.00813932 0.0081402 0.0081411 0.00813901 0.00814132 0.00814028 0.00813913 0.00814014 0.00814047 0.00813902 0.00814102 0.00813997 0.00813952 0.00813981 0.00814023 0.00813909 0.0081406 0.0081402 0.00813901 0.00813993 0.00814022 0.00813876 0.00814056 0.0081394 0.00813904 0.00813935 0.00813984 0.00813868 0.00814 0.00813968 0.00813869 0.0081392 0.00813972 0.00813862 0.00814028 0.00813944 0.00813859 0.00813902 0.0081397 0.00813875 0.00814003 0.00813938 0.00813883 0.00813905 0.00813922 0.0081382 0.00813971 0.00813909 0.00813876 0.00813906 0.00813906 0.00813844 0.00813937 0.00813932 0.00813854 0.00813889 0.008139 0.0081384 0.00813897 0.00813875 0.00813859 0.00813884 0.00813867 0.0081382 0.00813858 0.00813865 0.00813849 0.00813859 0.00813864 0.00813803 0.00813874 0.00813861 0.00813828 0.00813848 0.00813872 0.00813803 0.00813872 0.00813833 0.00813822 0.00813841 0.00813848 0.00813824 0.00813872 0.00813846 0.00813833 0.00813849 0.00813833 0.00813814 0.0081387 0.00813803 0.00813833 0.00813832 0.00813789 0.00813824 0.00813807 0.00813836 0.00813825 0.00813814 0.00813817 0.00813795 0.00813813 0.00813804 0.00813833 0.00813814 0.00813806 0.00813813 0.00813768 0.00813797 0.00813815 0.00813811 0.00813809 0.00813804 0.00813818 0.00813819 0.00813825 0.00813822 0.00813814 0.00813802 0.0081379 0.00813791 0.00813787 0.00813796 0.00817136 0.00816093 0.00817369 0.00816794 0.00815831 0.00816307 0.00816085 0.00815335 0.00816489 0.00815907 0.00815346 0.00815668 0.00815559 0.00814979 0.00815787 0.0081537 0.00815041 0.00815299 0.00815295 0.00814825 0.0081538 0.00815133 0.00814903 0.00815084 0.0081517 0.00814741 0.00815202 0.00815023 0.00814797 0.00814961 0.00815057 0.0081468 0.00815121 0.0081493 0.00814707 0.00814853 0.0081494 0.00814625 0.00814995 0.00814821 0.00814642 0.00814797 0.00814852 0.00814576 0.00814931 0.00814767 0.00814591 0.00814704 0.00814816 0.00814504 0.00814837 0.00814698 0.00814524 0.00814635 0.00814718 0.00814476 0.00814778 0.00814644 0.00814464 0.0081458 0.00814627 0.00814395 0.00814676 0.00814556 0.0081441 0.00814509 0.00814586 0.00814345 0.00814615 0.00814505 0.0081438 0.00814442 0.00814508 0.00814281 0.00814518 0.00814432 0.00814305 0.00814373 0.00814429 0.00814261 0.00814472 0.00814384 0.00814268 0.00814321 0.00814361 0.00814192 0.00814388 0.00814309 0.00814216 0.00814286 0.00814311 0.00814167 0.00814339 0.00814265 0.00814184 0.00814218 0.00814246 0.00814126 0.00814287 0.0081422 0.00814121 0.00814165 0.00814189 0.00814079 0.00814236 0.00814182 0.00814063 0.00814145 0.00814137 0.00814046 0.00814158 0.00814113 0.00814055 0.00814121 0.00814123 0.00814026 0.00814126 0.00814071 0.00814022 0.00814023 0.0081405 0.00813986 0.0081405 0.00814044 0.00813975 0.00814 0.00813991 0.00813952 0.00814056 0.00813992 0.00813978 0.00813983 0.00813965 0.00813923 0.00813978 0.00813972 0.00813963 0.00813973 0.0081393 0.00813909 0.0081395 0.00813932 0.00813914 0.00813943 0.0081391 0.00813855 0.00813914 0.00813899 0.00813887 0.0081388 0.0081389 0.00813898 0.0081388 0.00813887 0.00813868 0.00813886 0.00813852 0.00813852 0.00813864 0.00813884 0.00813859 0.00813837 0.00813855 0.00813823 0.00813864 0.0081385 0.00813837 0.00813845 0.00813827 0.00813813 0.00813835 0.00813829 0.00813821 0.00813832 0.00813819 0.00813807 0.00813813 0.0081381 0.00813827 0.00813822 0.0081381 0.008138 0.00813822 0.00813816 0.00813801 0.00813796 0.00813773 0.00813807 0.00813787 0.00813776 0.008138 0.00813782 0.00818658 0.00817643 0.00819743 0.0081885 0.00817516 0.00817977 0.0081704 0.00816344 0.00817757 0.00817221 0.00816523 0.00816882 0.00816398 0.00815856 0.00816619 0.00816348 0.00815982 0.00816253 0.0081614 0.00815656 0.00816203 0.00815967 0.00815711 0.00815923 0.00815941 0.00815515 0.00815965 0.00815761 0.00815539 0.0081572 0.00815795 0.00815386 0.00815831 0.00815626 0.00815409 0.00815571 0.00815657 0.00815294 0.00815689 0.00815503 0.00815279 0.00815432 0.0081551 0.00815186 0.0081557 0.00815352 0.00815183 0.00815311 0.00815366 0.00815075 0.00815407 0.00815273 0.0081509 0.00815201 0.00815234 0.00814979 0.00815313 0.0081517 0.00814985 0.0081508 0.00815131 0.00814899 0.00815136 0.00815058 0.00814897 0.00814981 0.00814999 0.00814758 0.00815062 0.00814925 0.00814783 0.0081488 0.008149 0.00814677 0.00814952 0.00814824 0.0081469 0.00814761 0.00814757 0.00814608 0.00814825 0.00814735 0.00814592 0.00814666 0.00814666 0.00814521 0.00814737 0.00814649 0.00814532 0.00814588 0.00814591 0.0081442 0.00814643 0.00814537 0.00814435 0.0081449 0.00814485 0.00814362 0.00814529 0.00814466 0.00814374 0.0081441 0.0081442 0.00814294 0.00814427 0.008144 0.00814303 0.00814339 0.00814323 0.00814209 0.00814343 0.00814318 0.0081425 0.00814253 0.00814262 0.00814148 0.00814269 0.00814249 0.00814188 0.00814214 0.00814166 0.0081412 0.00814195 0.00814181 0.00814107 0.00814131 0.00814121 0.00814092 0.00814146 0.00814135 0.00814066 0.00814066 0.00814067 0.00814017 0.00814082 0.0081405 0.00814002 0.00814017 0.00813998 0.00813963 0.00814013 0.00814024 0.00813964 0.00813992 0.00813951 0.00813923 0.00813975 0.0081398 0.0081392 0.00813927 0.00813931 0.00813924 0.00813959 0.0081393 0.00813915 0.00813906 0.00813876 0.00813867 0.00813912 0.00813903 0.00813875 0.00813856 0.0081386 0.00813843 0.00813845 0.00813881 0.00813852 0.00813851 0.00813836 0.0081382 0.00813808 0.00813839 0.00813791 0.00813804 0.00813808 0.00813794 0.00813847 0.00813822 0.0081381 0.0081382 0.0081383 0.00813791 0.00813815 0.00813799 0.00813805 0.00813826 0.0081378 0.00813803 0.0081379 0.00813789 0.00813777 0.00813785 0.00819484 0.00818884 0.00823516 0.00820922 0.00819023 0.00819639 0.00817524 0.00817139 0.00817472 0.00818253 0.0081735 0.00817767 0.00817173 0.0081668 0.00817123 0.00817142 0.0081678 0.0081704 0.00816924 0.00816435 0.0081696 0.0081671 0.00816499 0.00816679 0.00816713 0.00816261 0.00816761 0.00816518 0.00816302 0.00816435 0.00816502 0.00816119 0.00816513 0.00816333 0.00816129 0.0081626 0.00816303 0.00815953 0.0081634 0.00816177 0.00815941 0.00816062 0.00816093 0.00815766 0.00816153 0.00815995 0.0081577 0.00815913 0.00815951 0.00815616 0.00815975 0.00815813 0.00815623 0.00815732 0.00815772 0.00815495 0.00815786 0.00815666 0.00815472 0.00815605 0.00815584 0.00815333 0.00815618 0.00815525 0.00815326 0.00815418 0.00815449 0.00815206 0.00815475 0.00815382 0.00815205 0.00815283 0.00815264 0.00815073 0.00815297 0.00815215 0.00815052 0.00815131 0.00815094 0.00814951 0.00815144 0.00815082 0.00814956 0.00815008 0.00814984 0.00814834 0.00815038 0.00814941 0.00814833 0.00814898 0.00814851 0.00814719 0.0081488 0.00814837 0.00814668 0.00814734 0.00814746 0.00814618 0.00814777 0.00814715 0.00814617 0.00814639 0.00814605 0.00814526 0.00814663 0.00814589 0.00814526 0.00814521 0.0081451 0.00814418 0.00814526 0.00814532 0.00814392 0.00814465 0.00814374 0.00814347 0.00814457 0.00814391 0.00814326 0.00814364 0.00814314 0.00814258 0.00814342 0.00814317 0.00814263 0.00814245 0.00814242 0.00814172 0.00814228 0.00814245 0.00814143 0.00814169 0.00814179 0.00814133 0.00814178 0.00814137 0.00814103 0.00814113 0.00814056 0.00814021 0.00814072 0.0081409 0.00814037 0.0081405 0.00814029 0.00813975 0.00814018 0.00813985 0.00814003 0.0081398 0.00813945 0.00813962 0.00813992 0.00813986 0.00813924 0.00813954 0.00813929 0.00813908 0.00813909 0.00813876 0.00813897 0.00813897 0.0081389 0.0081385 0.0081385 0.00813882 0.00813867 0.00813867 0.00813867 0.00813829 0.00813818 0.00813827 0.00813845 0.0081384 0.00813811 0.00813836 0.00813795 0.00813803 0.00813815 0.00813807 0.008138 0.00813782 0.00813801 0.00813793 0.00813792 0.00813792 0.00813823 0.00813807 0.0081382 0.00813777 0.00813777 0.00813822 0.00809516 0.00808948 0.00806998 0.00805078 0.00809067 0.00808677 0.00810668 0.00810562 0.00810267 0.00810642 0.00810386 0.00810376 0.00811055 0.00810744 0.00811086 0.00811018 0.00810648 0.00810771 0.00811191 0.0081088 0.00811223 0.00811075 0.00810803 0.0081095 0.00811308 0.00810994 0.00811324 0.0081117 0.00810977 0.00811107 0.00811479 0.00811148 0.00811499 0.00811302 0.00811183 0.00811327 0.00811632 0.00811309 0.00811602 0.00811471 0.00811345 0.0081148 0.00811775 0.00811498 0.00811767 0.00811619 0.00811537 0.00811645 0.00811961 0.00811691 0.0081193 0.00811787 0.00811744 0.00811841 0.00812109 0.00811868 0.00812081 0.00811955 0.00811917 0.00811984 0.00812241 0.00812028 0.00812212 0.00812108 0.00812059 0.00812149 0.00812395 0.0081218 0.00812384 0.00812293 0.00812245 0.00812321 0.00812547 0.00812343 0.00812527 0.00812374 0.00812366 0.00812472 0.00812665 0.0081249 0.00812654 0.00812556 0.00812527 0.00812603 0.00812799 0.00812679 0.00812763 0.00812687 0.00812657 0.00812748 0.00812917 0.00812777 0.00812878 0.00812787 0.00812811 0.00812871 0.00812999 0.00812883 0.00813008 0.00812895 0.00812913 0.00812996 0.00813103 0.00813021 0.00813088 0.00813046 0.00813065 0.00813102 0.00813203 0.00813119 0.00813214 0.00813144 0.00813143 0.00813194 0.0081329 0.00813239 0.00813287 0.00813201 0.00813232 0.00813268 0.00813375 0.0081331 0.00813369 0.00813342 0.00813323 0.00813365 0.00813432 0.00813383 0.00813441 0.00813413 0.00813446 0.00813437 0.00813518 0.00813472 0.00813513 0.00813475 0.0081349 0.00813509 0.00813594 0.00813538 0.00813582 0.00813555 0.00813559 0.00813584 0.00813613 0.00813609 0.00813598 0.0081357 0.00813618 0.00813626 0.00813651 0.00813732 0.00813683 0.00813643 0.00813679 0.00813674 0.00813697 0.00813712 0.00813683 0.00813656 0.008137 0.00813735 0.00813763 0.00813748 0.00813742 0.00813717 0.00813761 0.00813755 0.00813763 0.00813788 0.00813771 0.00813745 0.00813741 0.00813764 0.00813814 0.00813808 0.00813788 0.00813744 0.00813795 0.00813801 0.00813825 0.00813796 0.00813797 0.00813825 0.00813802 0.00813778 0.00813812 0.0081382 0.00813779 0.00813799 0.00813771 0.00813801 0.00810848 0.00810459 0.00809285 0.00807991 0.00809044 0.00809773 0.00811566 0.00811623 0.00811038 0.00811615 0.00811041 0.00811241 0.00811855 0.00811702 0.00811803 0.00811947 0.00811524 0.00811667 0.00812003 0.00811748 0.00812043 0.00811973 0.00811679 0.00811819 0.00812106 0.00811812 0.00812151 0.00811989 0.00811784 0.00811931 0.00812204 0.00811905 0.00812212 0.00812057 0.00811898 0.00812042 0.00812298 0.00811977 0.00812326 0.00812134 0.00812038 0.0081215 0.0081243 0.00812133 0.00812408 0.00812249 0.00812155 0.00812267 0.00812514 0.00812253 0.00812507 0.0081238 0.00812287 0.00812396 0.00812637 0.0081238 0.00812624 0.00812471 0.00812433 0.00812519 0.00812742 0.00812514 0.00812717 0.00812604 0.00812533 0.00812619 0.00812849 0.0081264 0.00812834 0.0081271 0.00812657 0.00812734 0.00812929 0.0081274 0.00812903 0.00812781 0.00812756 0.00812848 0.00813011 0.00812883 0.00812993 0.00812891 0.00812873 0.00812923 0.00813095 0.00812962 0.00813095 0.0081299 0.00812967 0.00813042 0.00813182 0.00813012 0.00813178 0.00813089 0.00813092 0.00813109 0.00813239 0.00813134 0.00813257 0.0081317 0.00813133 0.00813228 0.00813342 0.0081322 0.00813323 0.00813241 0.00813248 0.00813288 0.00813384 0.00813313 0.00813363 0.00813332 0.0081334 0.00813374 0.00813452 0.00813403 0.00813457 0.00813377 0.00813393 0.00813432 0.0081352 0.00813435 0.00813523 0.00813472 0.00813473 0.00813461 0.00813551 0.00813471 0.00813541 0.00813499 0.00813513 0.00813539 0.0081361 0.00813559 0.00813584 0.00813543 0.00813572 0.00813592 0.00813668 0.00813606 0.00813634 0.00813613 0.00813633 0.00813621 0.00813674 0.00813666 0.00813681 0.00813651 0.00813649 0.00813668 0.00813696 0.0081366 0.00813725 0.0081371 0.00813711 0.00813689 0.00813765 0.00813731 0.00813728 0.00813703 0.00813682 0.00813743 0.00813773 0.00813747 0.00813777 0.00813759 0.00813777 0.00813767 0.00813768 0.00813801 0.00813796 0.00813759 0.00813779 0.0081375 0.00813807 0.0081379 0.00813772 0.0081378 0.00813783 0.00813787 0.00813782 0.00813803 0.0081379 0.00813804 0.00813823 0.00813808 0.00813807 0.00813835 0.00813813 0.00813795 0.00813827 0.00813811 0.00812209 0.00811695 0.0081141 0.00810419 0.00810771 0.00811404 0.00812646 0.00812479 0.00812284 0.0081248 0.00811965 0.00812201 0.00812754 0.00812551 0.00812728 0.00812742 0.00812352 0.00812502 0.00812816 0.00812561 0.00812859 0.00812758 0.00812494 0.00812624 0.00812888 0.00812554 0.00812901 0.00812752 0.00812571 0.00812679 0.00812921 0.00812592 0.00812936 0.00812811 0.00812625 0.00812746 0.00812973 0.00812674 0.00812988 0.00812815 0.00812707 0.00812825 0.0081302 0.0081273 0.00813033 0.00812887 0.00812755 0.00812888 0.00813078 0.00812828 0.00813101 0.00812955 0.00812841 0.00812957 0.00813141 0.00812906 0.00813134 0.00813014 0.00812915 0.0081302 0.00813207 0.00812971 0.00813228 0.00813088 0.00813006 0.00813115 0.00813272 0.00813069 0.0081326 0.00813133 0.00813083 0.00813165 0.00813321 0.00813122 0.00813329 0.00813174 0.00813143 0.00813218 0.00813384 0.00813207 0.00813347 0.00813261 0.00813228 0.00813293 0.00813439 0.00813265 0.00813416 0.00813318 0.00813262 0.00813343 0.00813458 0.00813332 0.00813464 0.00813394 0.00813341 0.00813407 0.00813508 0.00813403 0.00813488 0.00813449 0.008134 0.0081343 0.00813542 0.00813445 0.00813544 0.0081346 0.00813476 0.00813509 0.00813573 0.00813485 0.00813577 0.00813521 0.00813494 0.00813536 0.00813609 0.00813534 0.0081359 0.0081355 0.00813545 0.00813564 0.00813639 0.00813548 0.00813619 0.00813574 0.00813585 0.00813639 0.00813691 0.0081364 0.00813695 0.00813643 0.00813615 0.0081365 0.00813698 0.00813615 0.00813688 0.00813618 0.00813653 0.00813687 0.00813714 0.00813689 0.00813712 0.00813684 0.00813682 0.00813687 0.00813774 0.00813682 0.00813715 0.00813712 0.00813722 0.00813727 0.0081374 0.00813757 0.0081374 0.00813721 0.00813708 0.00813739 0.00813747 0.00813753 0.00813763 0.00813758 0.00813762 0.00813788 0.00813796 0.00813784 0.00813774 0.00813724 0.00813768 0.00813767 0.00813779 0.00813831 0.00813816 0.00813777 0.00813796 0.0081378 0.00813776 0.0081379 0.00813803 0.0081378 0.00813782 0.00813791 0.00813811 0.00813771 0.00813813 0.00813808 0.00813798 0.00813816 0.0081384 0.00813841 0.00813808 0.00813811 0.00813778 0.0081381 0.00813691 0.00812989 0.00813439 0.0081277 0.0081244 0.00812968 0.0081368 0.00813288 0.00813572 0.00813369 0.0081303 0.00813233 0.00813634 0.00813303 0.0081364 0.00813489 0.00813212 0.00813343 0.00813612 0.00813286 0.00813648 0.00813462 0.00813289 0.00813406 0.00813614 0.00813272 0.00813649 0.00813482 0.00813315 0.00813451 0.0081361 0.00813306 0.00813663 0.00813513 0.00813324 0.00813465 0.00813627 0.00813351 0.00813663 0.00813505 0.00813359 0.00813472 0.00813646 0.00813335 0.00813683 0.00813512 0.00813374 0.00813505 0.00813673 0.00813401 0.00813656 0.00813536 0.00813402 0.00813518 0.00813677 0.00813426 0.00813676 0.00813551 0.00813441 0.00813574 0.00813675 0.00813458 0.00813702 0.00813578 0.00813477 0.0081359 0.00813701 0.00813511 0.00813724 0.00813613 0.00813522 0.00813586 0.00813693 0.00813553 0.00813711 0.00813612 0.00813544 0.00813597 0.00813724 0.00813548 0.00813727 0.00813656 0.0081358 0.00813636 0.00813733 0.00813603 0.00813749 0.0081365 0.00813623 0.0081367 0.00813774 0.00813604 0.0081377 0.00813687 0.00813621 0.00813677 0.00813753 0.00813608 0.00813761 0.00813675 0.00813669 0.00813694 0.00813761 0.00813647 0.00813785 0.00813703 0.00813659 0.00813725 0.00813759 0.00813682 0.00813772 0.00813692 0.00813693 0.00813745 0.00813775 0.00813685 0.00813771 0.00813733 0.008137 0.00813713 0.00813766 0.00813712 0.00813765 0.00813751 0.00813743 0.00813738 0.00813763 0.00813735 0.008138 0.00813737 0.0081373 0.00813764 0.008138 0.00813743 0.00813807 0.00813758 0.00813734 0.00813776 0.00813808 0.00813746 0.00813787 0.00813775 0.00813763 0.00813795 0.0081378 0.00813744 0.0081379 0.00813762 0.00813789 0.00813769 0.00813789 0.00813778 0.00813804 0.00813807 0.00813794 0.00813809 0.00813751 0.00813755 0.00813801 0.00813787 0.00813768 0.00813795 0.00813795 0.00813793 0.00813812 0.00813817 0.00813814 0.00813799 0.00813812 0.00813813 0.00813761 0.00813796 0.00813809 0.0081381 0.00813778 0.008138 0.0081379 0.00813802 0.00813822 0.00813808 0.0081378 0.00813789 0.00813782 0.00813793 0.00813785 0.00813817 0.00813828 0.00813759 0.00813789 0.00813794 0.00813838 0.00813758 0.00815176 0.00814208 0.00815462 0.00815054 0.00814093 0.00814477 0.00814678 0.008141 0.00814806 0.00814294 0.00814064 0.00814256 0.00814485 0.00814048 0.00814552 0.0081421 0.00814071 0.0081422 0.00814395 0.00814001 0.00814453 0.00814196 0.00814051 0.00814186 0.00814366 0.00814026 0.00814383 0.00814195 0.00814008 0.00814197 0.00814345 0.00813981 0.00814389 0.00814164 0.00813995 0.00814161 0.00814303 0.00813997 0.00814327 0.00814147 0.00813991 0.00814149 0.00814272 0.00813998 0.00814309 0.00814132 0.00813974 0.00814115 0.00814248 0.00813966 0.00814251 0.00814094 0.00813981 0.00814089 0.00814211 0.00813941 0.00814236 0.00814087 0.00813949 0.00814067 0.00814185 0.00813948 0.00814216 0.00814063 0.00813931 0.00814051 0.00814161 0.00813938 0.00814192 0.00814052 0.00813947 0.00814009 0.00814118 0.00813936 0.00814138 0.00814027 0.00813929 0.00814015 0.00814084 0.0081391 0.00814094 0.00814014 0.00813937 0.00813987 0.00814035 0.00813909 0.00814061 0.00813976 0.0081392 0.00813978 0.00814046 0.00813878 0.00814043 0.00813956 0.00813914 0.00813965 0.00814029 0.00813875 0.00814018 0.00813959 0.00813884 0.00813941 0.00814002 0.00813885 0.00814018 0.00813936 0.00813873 0.00813895 0.00813949 0.0081388 0.00813974 0.00813942 0.00813876 0.0081391 0.00813923 0.00813871 0.00813967 0.00813911 0.00813865 0.00813878 0.00813915 0.0081388 0.00813915 0.00813878 0.00813874 0.00813871 0.00813896 0.00813848 0.00813925 0.00813889 0.0081385 0.00813862 0.00813897 0.00813842 0.0081388 0.0081386 0.00813816 0.00813843 0.00813892 0.00813812 0.00813864 0.00813856 0.0081383 0.0081385 0.00813836 0.00813821 0.00813847 0.00813829 0.0081383 0.00813843 0.00813842 0.0081383 0.00813863 0.00813831 0.00813829 0.00813841 0.00813836 0.00813826 0.00813836 0.00813832 0.0081379 0.00813841 0.00813815 0.00813845 0.00813829 0.00813833 0.00813824 0.00813824 0.00813812 0.00813828 0.00813803 0.00813801 0.00813833 0.00813825 0.00813832 0.00813819 0.00813834 0.00813824 0.00813814 0.00813802 0.0081379 0.00813794 0.00813791 0.00813801 0.00813776 0.00813793 0.00813769 0.00813807 0.00813799 0.00813781 0.00813824 0.00813813 0.00816683 0.00815425 0.00817569 0.00817295 0.00815713 0.00816004 0.00815644 0.00814906 0.00816045 0.00815185 0.00815129 0.008153 0.00815318 0.00814777 0.00815426 0.00814974 0.00814912 0.00815081 0.00815171 0.00814759 0.00815211 0.00814934 0.0081479 0.00814972 0.00815114 0.00814729 0.00815103 0.00814923 0.00814753 0.00814887 0.00815036 0.00814702 0.00815063 0.00814872 0.00814697 0.00814843 0.00814959 0.00814656 0.00814996 0.00814825 0.00814643 0.0081478 0.00814888 0.00814592 0.00814935 0.00814756 0.00814591 0.00814712 0.0081482 0.00814523 0.00814842 0.00814693 0.00814517 0.00814633 0.00814721 0.00814488 0.00814736 0.00814608 0.00814488 0.00814577 0.00814665 0.00814439 0.0081468 0.00814555 0.00814415 0.00814518 0.00814577 0.00814377 0.00814612 0.00814508 0.00814355 0.00814452 0.00814512 0.00814329 0.00814543 0.00814433 0.00814322 0.00814379 0.00814433 0.00814246 0.0081447 0.00814369 0.00814279 0.00814334 0.00814385 0.0081424 0.00814424 0.00814313 0.00814234 0.00814286 0.00814309 0.00814189 0.0081434 0.00814267 0.00814161 0.00814221 0.00814229 0.00814136 0.00814275 0.00814201 0.0081416 0.00814177 0.00814193 0.0081411 0.00814236 0.00814165 0.00814086 0.00814125 0.00814131 0.00814061 0.0081417 0.0081412 0.00814056 0.00814076 0.00814083 0.00814035 0.00814119 0.00814106 0.00813991 0.00814045 0.0081404 0.00813966 0.00814082 0.00814035 0.00814006 0.00814033 0.00813991 0.00813945 0.0081399 0.00814017 0.00813969 0.00813988 0.00813965 0.0081394 0.00813999 0.00813946 0.00813919 0.00813955 0.00813932 0.00813919 0.00813984 0.0081392 0.00813938 0.00813914 0.00813901 0.00813892 0.00813944 0.00813933 0.00813871 0.00813867 0.00813867 0.00813903 0.00813904 0.00813865 0.00813897 0.00813861 0.0081386 0.00813852 0.00813866 0.00813912 0.00813856 0.00813847 0.00813853 0.00813871 0.0081385 0.00813826 0.00813838 0.00813827 0.00813813 0.00813815 0.00813825 0.0081382 0.00813834 0.00813828 0.00813811 0.00813812 0.00813823 0.00813808 0.0081382 0.00813813 0.00813809 0.00813788 0.00813837 0.00813807 0.00813766 0.00813821 0.00813788 0.00813798 0.00813788 0.00813793 0.00813768 0.00813808 0.008181 0.00816645 0.00819896 0.00819546 0.00817278 0.00817514 0.00816503 0.00815757 0.0081717 0.00816077 0.00816127 0.00816352 0.00816121 0.00815553 0.00816212 0.0081574 0.00815702 0.00815939 0.00815968 0.00815503 0.00815963 0.00815673 0.00815548 0.00815768 0.00815848 0.00815446 0.00815848 0.00815661 0.00815475 0.00815653 0.00815727 0.00815359 0.00815765 0.00815566 0.00815374 0.00815524 0.00815607 0.0081528 0.00815656 0.00815505 0.00815278 0.00815407 0.00815496 0.00815198 0.00815562 0.00815382 0.00815173 0.00815328 0.00815376 0.00815087 0.00815408 0.00815274 0.00815086 0.00815182 0.00815242 0.00814994 0.00815276 0.00815165 0.00814971 0.00815075 0.00815125 0.00814893 0.0081518 0.00815042 0.00814885 0.00814978 0.00815001 0.00814788 0.00815058 0.0081494 0.00814779 0.00814872 0.00814902 0.00814704 0.00814933 0.00814835 0.00814701 0.008148 0.00814796 0.00814639 0.00814843 0.00814718 0.0081462 0.00814689 0.0081466 0.00814539 0.00814739 0.0081465 0.00814528 0.00814574 0.00814587 0.00814461 0.00814604 0.00814544 0.00814432 0.00814498 0.00814515 0.00814388 0.00814567 0.00814463 0.00814384 0.0081443 0.00814417 0.00814318 0.0081443 0.00814412 0.00814285 0.00814336 0.0081434 0.00814245 0.0081436 0.00814313 0.00814227 0.00814276 0.00814269 0.00814193 0.00814295 0.00814219 0.00814153 0.00814221 0.00814182 0.00814163 0.00814241 0.00814182 0.00814108 0.00814158 0.00814141 0.00814078 0.00814142 0.00814105 0.00814104 0.00814088 0.0081404 0.00814031 0.00814073 0.00814078 0.00814014 0.00814015 0.00814017 0.00814004 0.00814023 0.00814036 0.00813967 0.00814006 0.00813968 0.00813956 0.00813991 0.00813969 0.00813944 0.0081394 0.00813937 0.00813903 0.00813983 0.00813968 0.00813888 0.00813931 0.00813863 0.00813876 0.00813874 0.00813907 0.00813867 0.00813868 0.00813873 0.00813871 0.00813895 0.00813876 0.00813888 0.00813889 0.00813842 0.00813862 0.0081382 0.00813866 0.00813855 0.00813838 0.00813827 0.00813847 0.00813818 0.00813825 0.00813814 0.00813836 0.00813827 0.00813817 0.00813805 0.00813832 0.00813803 0.00813797 0.008138 0.00813811 0.00813768 0.00813766 0.00813807 0.00813794 0.00819041 0.0081789 0.00822736 0.00821364 0.00818667 0.0081911 0.00817154 0.00816516 0.00817096 0.00817041 0.00816961 0.00817278 0.00816925 0.00816325 0.00816826 0.00816558 0.00816497 0.00816728 0.00816793 0.00816266 0.00816792 0.00816502 0.00816304 0.00816513 0.00816642 0.00816196 0.00816667 0.00816405 0.00816188 0.00816377 0.00816432 0.00816088 0.00816504 0.00816276 0.00816047 0.00816193 0.00816289 0.00815929 0.00816337 0.00816128 0.0081591 0.00816074 0.00816106 0.00815791 0.00816169 0.00815991 0.00815756 0.00815897 0.00815937 0.00815643 0.00815994 0.00815806 0.0081563 0.00815759 0.00815779 0.00815504 0.00815803 0.00815689 0.00815484 0.00815603 0.00815606 0.00815355 0.00815654 0.00815498 0.00815341 0.00815428 0.00815427 0.0081523 0.00815488 0.00815375 0.00815221 0.00815288 0.00815295 0.00815092 0.00815304 0.0081522 0.00815083 0.00815165 0.00815152 0.00814968 0.00815155 0.00815092 0.00814948 0.00815003 0.00814986 0.00814879 0.00815027 0.00814956 0.00814829 0.00814889 0.00814871 0.00814725 0.00814893 0.00814832 0.00814747 0.00814755 0.00814739 0.0081462 0.00814775 0.00814744 0.00814589 0.00814633 0.00814643 0.00814508 0.00814649 0.00814599 0.00814537 0.00814541 0.00814524 0.00814435 0.00814518 0.00814477 0.00814409 0.00814447 0.0081439 0.00814353 0.00814444 0.00814383 0.00814322 0.00814326 0.0081432 0.00814283 0.00814362 0.00814342 0.00814272 0.00814266 0.00814218 0.00814189 0.00814234 0.00814203 0.00814178 0.00814204 0.00814134 0.0081411 0.00814147 0.00814163 0.00814075 0.00814136 0.00814084 0.00814038 0.00814097 0.0081407 0.00814047 0.0081405 0.00813988 0.00814028 0.00814071 0.00813998 0.00813984 0.0081401 0.00813957 0.00813976 0.00813993 0.0081398 0.0081395 0.00813954 0.00813905 0.00813913 0.00813924 0.00813919 0.00813909 0.00813928 0.00813873 0.00813886 0.00813937 0.0081389 0.0081386 0.00813848 0.00813853 0.00813875 0.00813839 0.00813836 0.0081386 0.00813867 0.00813849 0.00813811 0.00813819 0.00813816 0.00813813 0.00813824 0.00813824 0.00813763 0.00813793 0.008138 0.00813799 0.00813826 0.00813823 0.00813798 0.00813789 0.00813805 0.00813772 0.008138 
SCALARS volume_diff float 1
LOOKUP_TABLE default
0.00776059 0.00775485 0.007736 0.0077294 0.00776471 0.00777321 0.00778487 0.00777702 0.0077779 0.00777416 0.00777867 0.00778451 0.00778733 0.00777999 0.00778475 0.00778151 0.00778129 0.00778541 0.00778771 0.007782 0.00778658 0.00778386 0.00778271 0.00778568 0.00778881 0.00778397 0.00778763 0.00778553 0.00778454 0.00778679 0.00778979 0.00778539 0.00778925 0.00778723 0.00778624 0.00778802 0.00779131 0.00778755 0.00779068 0.00778877 0.00778803 0.00778938 0.00779293 0.00778936 0.00779231 0.00779052 0.00779 0.00779094 0.00779422 0.00779109 0.00779375 0.00779238 0.00779162 0.00779266 0.00779555 0.0077931 0.00779544 0.00779409 0.00779342 0.00779463 0.00779723 0.00779495 0.00779689 0.00779542 0.00779496 0.00779587 0.00779836 0.00779653 0.00779832 0.00779703 0.00779667 0.00779745 0.0077997 0.00779781 0.00779968 0.00779852 0.00779812 0.0077991 0.00780121 0.00779911 0.00780116 0.00780005 0.0078 0.00780056 0.00780246 0.00780058 0.00780213 0.00780169 0.00780128 0.00780174 0.00780362 0.00780191 0.00780351 0.00780262 0.00780269 0.00780278 0.00780458 0.00780341 0.00780454 0.00780379 0.00780363 0.00780396 0.00780558 0.0078046 0.00780541 0.00780466 0.00780459 0.00780532 0.00780661 0.00780577 0.00780658 0.00780581 0.00780571 0.00780634 0.00780768 0.00780691 0.00780733 0.00780686 0.00780669 0.0078074 0.00780824 0.00780754 0.00780816 0.00780766 0.00780792 0.00780791 0.00780901 0.0078083 0.00780864 0.00780864 0.00780858 0.00780909 0.0078096 0.00780932 0.00780949 0.00780939 0.00780938 0.00780933 0.00781028 0.00780971 0.00780981 0.00781 0.00780998 0.00780999 0.0078104 0.00781049 0.00781034 0.00781063 0.0078109 0.00781089 0.00781144 0.00781101 0.00781094 0.00781094 0.00781102 0.00781132 0.00781124 0.00781185 0.0078114 0.00781133 0.00781107 0.00781147 0.00781175 0.00781239 0.00781182 0.00781181 0.00781187 0.00781189 0.00781211 0.00781226 0.00781204 0.00781205 0.00781223 0.00781219 0.00781206 0.0078124 0.00781236 0.00781235 0.00781233 0.00781232 0.00781211 0.00781221 0.00781275 0.00781263 0.00781246 0.00781288 0.00781278 0.00781279 0.00781237 0.00781232 0.00781256 0.0078129 0.00777663 0.00777079 0.0077624 0.00776111 0.00776969 0.00778555 0.00779447 0.00778424 0.00778566 0.0077835 0.00778647 0.00779385 0.00779628 0.00778932 0.00779272 0.00779051 0.0077897 0.00779416 0.00779633 0.00779078 0.00779493 0.00779245 0.00779104 0.0077941 0.0077967 0.00779208 0.00779579 0.00779372 0.00779219 0.00779442 0.00779713 0.00779306 0.00779674 0.0077946 0.00779352 0.00779492 0.00779812 0.00779446 0.00779746 0.00779586 0.00779458 0.00779614 0.00779896 0.00779569 0.00779863 0.0077971 0.00779629 0.00779739 0.0077999 0.00779681 0.00779974 0.0077981 0.00779743 0.0077985 0.00780046 0.00779824 0.00780089 0.00779947 0.00779873 0.00779952 0.00780177 0.00779925 0.00780155 0.00780038 0.00779987 0.00780069 0.00780288 0.00780081 0.0078027 0.00780175 0.00780099 0.00780224 0.00780368 0.00780185 0.00780377 0.00780262 0.00780209 0.00780277 0.0078048 0.0078028 0.0078046 0.00780348 0.00780333 0.00780393 0.00780539 0.00780401 0.00780537 0.00780469 0.00780428 0.00780484 0.00780619 0.00780479 0.0078062 0.00780551 0.00780521 0.00780589 0.00780679 0.00780606 0.00780695 0.00780621 0.00780596 0.00780637 0.00780782 0.00780643 0.0078076 0.00780714 0.00780702 0.00780756 0.00780815 0.00780724 0.00780833 0.00780774 0.0078077 0.00780814 0.00780882 0.00780841 0.00780908 0.00780853 0.00780828 0.00780849 0.00780952 0.00780884 0.00780968 0.007809 0.00780909 0.00780941 0.00780986 0.00780943 0.00781002 0.00780972 0.00780952 0.00780978 0.00781044 0.00781013 0.00781026 0.00781005 0.00781014 0.00781021 0.00781086 0.00781032 0.00781097 0.00781048 0.00781053 0.00781045 0.00781114 0.007811 0.0078114 0.00781114 0.00781118 0.00781105 0.0078116 0.00781119 0.00781192 0.00781144 0.00781174 0.00781173 0.00781161 0.00781165 0.00781158 0.00781166 0.00781188 0.00781186 0.00781171 0.00781207 0.007812 0.00781192 0.00781202 0.00781178 0.00781233 0.00781235 0.00781212 0.00781216 0.00781236 0.00781219 0.00781255 0.00781279 0.00781233 0.00781236 0.00781244 0.00781246 0.00781243 0.00781261 0.00781261 0.00781272 0.00781278 0.00781215 0.00781256 0.00781261 0.00781246 0.00781249 0.0078127 0.00781294 0.00779309 0.00778633 0.00778595 0.0077828 0.00778625 0.00779637 0.00780294 0.00779513 0.00779794 0.00779486 0.00779562 0.00780176 0.00780394 0.00779822 0.00780146 0.00779952 0.00779842 0.00780222 0.00780398 0.00779897 0.00780304 0.00780069 0.00779919 0.00780169 0.00780408 0.00779995 0.00780351 0.00780153 0.00779982 0.00780205 0.00780423 0.00780029 0.00780395 0.00780202 0.00780037 0.00780238 0.00780437 0.00780107 0.00780457 0.0078026 0.00780151 0.00780271 0.0078047 0.00780169 0.007805 0.00780333 0.00780223 0.00780363 0.0078055 0.00780257 0.00780547 0.00780385 0.00780302 0.00780427 0.00780602 0.0078034 0.00780621 0.00780467 0.00780369 0.00780477 0.00780695 0.00780409 0.00780659 0.00780538 0.00780452 0.00780549 0.00780712 0.00780513 0.00780716 0.00780621 0.00780531 0.00780607 0.00780772 0.00780583 0.00780777 0.00780665 0.00780606 0.00780673 0.00780813 0.00780629 0.00780839 0.00780735 0.00780668 0.00780717 0.00780882 0.00780727 0.00780867 0.00780802 0.00780723 0.00780804 0.0078093 0.00780767 0.00780921 0.00780826 0.00780786 0.00780833 0.00780936 0.00780833 0.00780967 0.00780868 0.0078085 0.00780854 0.00780972 0.00780855 0.00781018 0.00780946 0.00780917 0.00780932 0.00781039 0.00780957 0.00781035 0.0078097 0.00780942 0.00780984 0.00781019 0.00781004 0.00781061 0.00781014 0.00781001 0.00781016 0.00781062 0.00781005 0.00781095 0.00781055 0.00781035 0.00781081 0.00781091 0.00781073 0.00781135 0.00781093 0.00781066 0.00781085 0.00781159 0.0078107 0.00781166 0.00781124 0.00781109 0.00781096 0.00781163 0.00781138 0.00781187 0.00781139 0.00781164 0.0078112 0.00781169 0.00781167 0.00781173 0.00781166 0.00781178 0.00781173 0.00781164 0.00781198 0.00781194 0.00781226 0.00781173 0.00781172 0.00781212 0.0078119 0.00781204 0.00781194 0.00781222 0.00781176 0.00781206 0.00781218 0.00781224 0.00781247 0.00781249 0.00781206 0.00781224 0.00781214 0.00781205 0.00781228 0.00781212 0.00781217 0.00781225 0.00781227 0.00781232 0.0078121 0.0078125 0.00781231 0.00781242 0.0078126 0.00781243 0.00781245 0.00781247 0.00781225 0.00781263 0.00781236 0.00781246 0.0078124 0.00781273 0.00781236 0.00780941 0.00780199 0.00780844 0.00780301 0.00780189 0.00780714 0.00781121 0.00780558 0.00781047 0.00780675 0.00780537 0.0078094 0.00781122 0.00780689 0.00781078 0.00780838 0.00780636 0.00780932 0.00781104 0.00780746 0.00781108 0.00780889 0.00780703 0.00780899 0.00781113 0.00780725 0.00781097 0.00780901 0.00780721 0.00780883 0.00781108 0.00780729 0.00781098 0.0078094 0.00780722 0.0078091 0.00781115 0.00780765 0.00781128 0.00780944 0.0078078 0.00780939 0.00781121 0.0078079 0.00781132 0.00780949 0.00780842 0.00780954 0.00781125 0.00780843 0.00781146 0.00781012 0.00780865 0.00780956 0.00781142 0.0078087 0.00781138 0.00781001 0.00780863 0.00780983 0.00781135 0.0078088 0.00781169 0.00781019 0.00780931 0.00781013 0.00781168 0.00780941 0.0078118 0.00781066 0.00780951 0.00781054 0.00781182 0.00780959 0.00781166 0.00781043 0.00780974 0.00781067 0.00781179 0.00780997 0.007812 0.00781088 0.00781026 0.00781065 0.00781164 0.00781034 0.00781188 0.00781094 0.00781076 0.00781102 0.00781169 0.00781019 0.00781217 0.00781141 0.00781076 0.00781128 0.00781209 0.00781066 0.0078122 0.00781162 0.00781078 0.00781118 0.007812 0.00781123 0.00781218 0.0078116 0.00781074 0.00781157 0.00781224 0.00781115 0.00781205 0.00781146 0.00781147 0.00781155 0.00781197 0.00781137 0.0078122 0.00781208 0.0078112 0.00781164 0.00781199 0.00781152 0.00781226 0.00781189 0.0078115 0.00781185 0.00781231 0.00781186 0.00781228 0.00781205 0.00781178 0.007812 0.00781232 0.00781172 0.00781228 0.00781196 0.00781184 0.0078121 0.0078126 0.00781206 0.00781262 0.00781217 0.00781185 0.00781216 0.00781262 0.00781208 0.00781244 0.00781236 0.00781233 0.00781262 0.00781248 0.00781236 0.00781246 0.00781247 0.00781209 0.00781214 0.00781213 0.00781252 0.00781246 0.00781254 0.00781244 0.00781253 0.00781266 0.00781251 0.0078125 0.00781241 0.00781229 0.00781236 0.00781249 0.00781227 0.00781252 0.00781259 0.00781256 0.00781272 0.00781229 0.00781223 0.00781259 0.00781246 0.00781231 0.0078121 0.00781242 0.00781236 0.00781261 0.00781239 0.00781223 0.00781259 0.00781233 0.00781253 0.00781233 0.00781237 0.00781248 0.00781291 0.00782558 0.00781784 0.00783082 0.00782272 0.00781701 0.00781797 0.00781922 0.0078162 0.00782235 0.00781824 0.00781536 0.00781652 0.0078188 0.00781539 0.00781983 0.00781701 0.00781473 0.00781628 0.00781827 0.00781504 0.00781885 0.00781677 0.00781453 0.00781645 0.00781823 0.00781471 0.00781844 0.00781672 0.0078147 0.00781599 0.00781808 0.00781435 0.00781806 0.00781649 0.00781455 0.00781597 0.0078175 0.00781413 0.00781789 0.00781618 0.00781439 0.00781547 0.00781744 0.00781398 0.00781764 0.00781599 0.00781424 0.00781572 0.00781686 0.0078139 0.00781713 0.00781568 0.00781421 0.00781534 0.00781657 0.00781398 0.00781673 0.00781558 0.0078139 0.0078153 0.00781611 0.00781393 0.00781647 0.00781511 0.00781399 0.00781487 0.00781599 0.00781373 0.00781622 0.00781509 0.00781383 0.00781473 0.00781516 0.00781363 0.00781579 0.00781487 0.00781387 0.00781464 0.00781536 0.00781349 0.00781561 0.00781473 0.00781385 0.00781413 0.00781507 0.00781328 0.00781523 0.00781453 0.0078133 0.00781414 0.00781467 0.00781356 0.00781492 0.00781426 0.00781346 0.00781419 0.00781456 0.00781344 0.00781457 0.00781418 0.00781347 0.00781386 0.00781432 0.00781305 0.00781452 0.00781384 0.00781321 0.00781339 0.00781394 0.00781283 0.00781447 0.00781377 0.00781356 0.0078135 0.00781357 0.00781306 0.00781401 0.00781391 0.00781305 0.00781331 0.00781384 0.00781301 0.00781388 0.00781353 0.00781297 0.00781304 0.00781341 0.00781295 0.00781374 0.0078135 0.0078128 0.00781311 0.0078134 0.0078128 0.00781332 0.00781307 0.0078128 0.00781298 0.00781348 0.00781259 0.00781316 0.00781256 0.00781256 0.00781289 0.00781289 0.00781255 0.00781317 0.00781263 0.007813 0.00781265 0.00781264 0.00781244 0.007813 0.00781288 0.00781283 0.00781285 0.00781288 0.00781273 0.00781274 0.00781297 0.00781285 0.00781241 0.00781268 0.00781272 0.00781268 0.00781278 0.00781256 0.00781244 0.00781265 0.0078126 0.00781278 0.00781256 0.00781253 0.0078125 0.00781264 0.00781252 0.00781251 0.00781263 0.00781253 0.00781283 0.00781247 0.00781268 0.00781257 0.00781256 0.00781255 0.00781271 0.00781221 0.00781266 0.00781249 0.00781221 0.00781248 0.00781251 0.00784164 0.00783344 0.0078543 0.00784211 0.00783176 0.00782835 0.00782748 0.00782632 0.00783463 0.00782985 0.00782505 0.0078239 0.00782586 0.00782364 0.00782871 0.00782577 0.00782313 0.00782327 0.00782561 0.00782264 0.00782669 0.00782468 0.00782236 0.00782331 0.00782523 0.00782179 0.007826 0.00782397 0.00782194 0.00782311 0.00782457 0.00782123 0.00782509 0.00782339 0.00782146 0.00782265 0.00782422 0.00782079 0.00782432 0.00782286 0.00782061 0.00782214 0.00782338 0.00782005 0.00782367 0.00782198 0.0078202 0.00782136 0.00782257 0.00781999 0.00782281 0.00782136 0.0078197 0.00782059 0.00782174 0.00781907 0.00782244 0.007821 0.0078191 0.00782031 0.00782107 0.00781851 0.00782142 0.00781997 0.00781848 0.00781945 0.00782032 0.00781808 0.00782074 0.00781922 0.00781825 0.00781902 0.00781964 0.0078175 0.00782011 0.00781891 0.00781754 0.00781841 0.00781924 0.00781726 0.00781904 0.00781816 0.00781693 0.00781773 0.00781818 0.00781666 0.00781856 0.0078179 0.00781656 0.00781752 0.00781772 0.00781613 0.00781791 0.007817 0.00781631 0.00781679 0.00781676 0.00781544 0.00781736 0.0078166 0.00781585 0.0078162 0.00781663 0.00781538 0.00781641 0.00781619 0.00781551 0.00781568 0.007816 0.00781508 0.00781602 0.00781588 0.00781504 0.00781536 0.00781551 0.00781479 0.00781575 0.00781552 0.00781459 0.00781494 0.00781527 0.00781457 0.0078153 0.00781486 0.00781466 0.00781464 0.00781448 0.0078143 0.00781487 0.00781471 0.00781402 0.00781452 0.00781428 0.00781382 0.00781454 0.00781426 0.00781411 0.00781392 0.00781384 0.00781345 0.0078139 0.00781372 0.00781329 0.00781365 0.00781392 0.0078131 0.00781407 0.00781342 0.00781306 0.00781319 0.0078135 0.00781324 0.00781333 0.00781343 0.0078131 0.00781317 0.00781326 0.00781272 0.00781294 0.00781314 0.00781291 0.00781337 0.00781327 0.0078129 0.00781324 0.00781302 0.00781279 0.00781312 0.00781289 0.00781261 0.00781292 0.00781264 0.00781285 0.00781269 0.00781271 0.00781271 0.00781249 0.00781273 0.00781295 0.00781214 0.00781219 0.00781264 0.00781257 0.0078127 0.0078125 0.00781233 0.00781258 0.00781263 0.00781231 0.00781233 0.00781229 0.00781252 0.00785658 0.00784823 0.00788086 0.00786203 0.00784658 0.00783884 0.00783514 0.00783595 0.00784541 0.00784091 0.0078345 0.00783144 0.00783363 0.00783186 0.00783691 0.00783439 0.00783134 0.00783072 0.00783317 0.00783012 0.00783474 0.00783256 0.00782987 0.00783074 0.00783246 0.00782917 0.00783343 0.00783147 0.00782894 0.00783006 0.00783166 0.0078282 0.00783232 0.00783032 0.00782829 0.00782927 0.00783075 0.007827 0.0078311 0.00782947 0.00782732 0.00782841 0.0078296 0.00782648 0.00783011 0.00782853 0.00782633 0.00782718 0.007828 0.00782515 0.00782867 0.00782713 0.00782506 0.00782674 0.00782679 0.00782456 0.00782754 0.00782598 0.00782437 0.00782533 0.00782574 0.00782333 0.00782624 0.00782504 0.00782336 0.0078245 0.00782475 0.00782236 0.00782483 0.00782379 0.0078223 0.00782292 0.00782351 0.00782139 0.00782381 0.00782274 0.00782127 0.00782225 0.00782256 0.00782065 0.00782275 0.00782186 0.00782069 0.00782119 0.00782126 0.0078199 0.00782167 0.00782072 0.00781996 0.00782028 0.00782049 0.00781894 0.00782053 0.00782026 0.00781922 0.00781965 0.00781958 0.00781827 0.00781972 0.00781911 0.00781816 0.00781878 0.00781875 0.00781764 0.00781908 0.00781864 0.00781743 0.00781805 0.00781767 0.0078169 0.00781823 0.00781745 0.00781693 0.00781732 0.00781691 0.00781633 0.00781712 0.00781668 0.00781617 0.00781649 0.00781679 0.00781546 0.00781673 0.00781636 0.00781568 0.00781626 0.00781568 0.0078154 0.00781611 0.00781581 0.00781506 0.00781529 0.00781539 0.00781474 0.0078153 0.00781484 0.00781479 0.00781504 0.00781465 0.00781425 0.00781484 0.00781453 0.00781441 0.00781489 0.00781412 0.00781429 0.00781425 0.00781455 0.00781386 0.00781377 0.00781381 0.00781359 0.00781394 0.00781363 0.00781366 0.00781347 0.00781352 0.00781296 0.00781326 0.00781354 0.00781344 0.0078133 0.00781314 0.007813 0.00781319 0.00781362 0.00781312 0.00781311 0.00781275 0.00781273 0.00781275 0.00781331 0.00781258 0.00781229 0.00781243 0.0078125 0.0078128 0.00781261 0.00781245 0.00781263 0.00781305 0.00781259 0.00781264 0.00781254 0.00781258 0.00781243 0.00781228 0.0078124 0.00781216 0.00781254 0.00781223 0.00781224 0.00786429 0.00785939 0.00791061 0.00788369 0.00785895 0.00784993 0.00784461 0.00784393 0.00784691 0.00785083 0.00784252 0.0078398 0.00784262 0.00783938 0.00784374 0.00784216 0.00783961 0.00783894 0.00784153 0.0078377 0.00784269 0.00784034 0.00783774 0.0078386 0.00784038 0.00783654 0.00784106 0.00783918 0.0078365 0.0078375 0.00783907 0.00783537 0.00783924 0.00783752 0.00783521 0.0078363 0.00783723 0.00783378 0.00783793 0.00783609 0.0078337 0.00783477 0.00783558 0.00783256 0.00783584 0.00783434 0.00783207 0.00783335 0.00783413 0.00783102 0.00783436 0.00783266 0.00783079 0.00783174 0.00783235 0.00782915 0.00783263 0.00783139 0.00782927 0.00783027 0.00783063 0.00782803 0.00783099 0.00782989 0.00782793 0.00782909 0.00782886 0.00782641 0.00782914 0.00782818 0.00782648 0.00782722 0.0078274 0.00782556 0.00782797 0.00782688 0.00782516 0.0078259 0.00782586 0.00782416 0.00782622 0.00782562 0.00782396 0.00782467 0.00782486 0.00782296 0.00782462 0.00782361 0.0078228 0.0078234 0.00782345 0.0078216 0.00782339 0.00782277 0.00782167 0.00782193 0.00782181 0.00782042 0.00782201 0.00782161 0.00782042 0.00782095 0.00782074 0.00781936 0.00782101 0.00782048 0.00781949 0.00782004 0.00781984 0.00781883 0.00781991 0.00781946 0.00781847 0.00781912 0.00781845 0.00781774 0.00781883 0.00781834 0.00781794 0.00781782 0.00781768 0.00781693 0.0078179 0.00781758 0.00781714 0.00781708 0.00781707 0.00781627 0.00781726 0.00781669 0.00781618 0.00781645 0.00781598 0.00781555 0.00781638 0.00781623 0.00781547 0.00781537 0.00781533 0.00781511 0.00781553 0.00781545 0.0078149 0.00781494 0.00781466 0.00781422 0.00781485 0.00781481 0.00781449 0.0078142 0.00781437 0.00781408 0.00781423 0.00781455 0.00781385 0.007814 0.0078133 0.00781373 0.00781364 0.00781391 0.00781367 0.00781336 0.00781323 0.00781316 0.0078133 0.0078132 0.00781327 0.00781299 0.00781295 0.00781307 0.00781299 0.00781312 0.00781272 0.0078129 0.00781242 0.0078127 0.0078125 0.00781261 0.00781252 0.00781275 0.00781226 0.00781265 0.00781231 0.00781282 0.0078128 0.00781228 0.0078127 0.00781262 0.00781257 0.00781259 0.00781208 0.00781248 0.00776492 0.0077502 0.00774416 0.00772935 0.00776321 0.00775478 0.00777706 0.00777376 0.007773 0.00776675 0.00777471 0.00777489 0.00778276 0.00777731 0.00778132 0.00777687 0.00777813 0.00778026 0.00778515 0.00777994 0.00778407 0.00778121 0.00778091 0.0077832 0.0077872 0.00778243 0.00778654 0.00778397 0.0077834 0.00778536 0.00778912 0.007785 0.00778836 0.00778644 0.00778546 0.00778731 0.00779066 0.00778735 0.00779041 0.00778841 0.00778799 0.0077895 0.00779221 0.00778946 0.00779194 0.00779047 0.00778964 0.00779116 0.0077938 0.00779103 0.00779372 0.00779223 0.00779167 0.00779275 0.00779585 0.00779338 0.0077953 0.00779399 0.00779345 0.00779455 0.00779714 0.00779465 0.00779683 0.00779537 0.00779491 0.00779629 0.00779819 0.00779645 0.00779859 0.00779721 0.00779692 0.00779743 0.00779982 0.00779802 0.00779977 0.00779862 0.00779853 0.00779902 0.00780118 0.00779954 0.00780095 0.00780027 0.00780008 0.00780036 0.00780262 0.00780095 0.00780216 0.00780154 0.00780137 0.00780204 0.00780359 0.00780229 0.00780355 0.00780281 0.00780253 0.00780307 0.00780457 0.00780375 0.00780449 0.00780374 0.00780361 0.00780434 0.00780535 0.00780447 0.0078057 0.00780493 0.00780491 0.00780535 0.00780651 0.00780562 0.00780658 0.0078059 0.00780615 0.00780633 0.00780745 0.0078067 0.00780761 0.00780704 0.00780707 0.00780723 0.00780827 0.00780773 0.00780796 0.00780798 0.00780823 0.00780794 0.00780889 0.0078088 0.00780908 0.00780871 0.00780896 0.00780895 0.00780953 0.00780923 0.00780959 0.00780949 0.00780944 0.0078095 0.00781019 0.0078102 0.00781011 0.00780994 0.00781044 0.00781053 0.00781083 0.00781064 0.00781092 0.00781058 0.00781075 0.0078107 0.00781128 0.00781094 0.0078111 0.00781094 0.00781102 0.00781143 0.00781113 0.0078115 0.00781126 0.0078116 0.00781187 0.00781188 0.00781198 0.00781232 0.00781176 0.00781205 0.00781219 0.00781201 0.00781209 0.00781222 0.00781222 0.00781221 0.00781259 0.00781194 0.00781236 0.00781236 0.00781248 0.00781224 0.00781272 0.00781264 0.00781275 0.00781269 0.00781228 0.00781257 0.00781251 0.00781233 0.0078127 0.00781237 0.00781245 0.00781262 0.00781265 0.00781259 0.0077793 0.0077694 0.00776765 0.00776203 0.00776342 0.00776833 0.00778699 0.00777978 0.00778145 0.00777777 0.00778121 0.00778436 0.00779119 0.00778505 0.00778892 0.00778576 0.0077868 0.00778972 0.00779371 0.00778828 0.00779258 0.00778955 0.00778937 0.00779159 0.00779528 0.00779083 0.00779459 0.0077922 0.00779131 0.00779325 0.0077964 0.00779228 0.00779594 0.00779383 0.00779297 0.00779465 0.00779748 0.00779419 0.00779726 0.00779507 0.00779462 0.007796 0.00779874 0.00779559 0.00779865 0.00779672 0.00779585 0.00779713 0.00779985 0.00779675 0.00779998 0.00779798 0.00779725 0.0077983 0.00780065 0.00779814 0.00780059 0.00779941 0.00779869 0.00779963 0.00780161 0.00779931 0.00780177 0.00780034 0.00780004 0.00780061 0.00780283 0.0078005 0.00780256 0.0078016 0.00780087 0.00780189 0.00780368 0.00780202 0.00780367 0.00780274 0.00780255 0.00780297 0.00780462 0.00780277 0.00780447 0.00780362 0.00780316 0.00780402 0.00780535 0.00780372 0.00780541 0.00780443 0.00780425 0.0078049 0.00780647 0.00780495 0.00780637 0.00780538 0.00780526 0.00780562 0.00780696 0.00780594 0.00780713 0.00780667 0.007806 0.00780636 0.00780768 0.00780671 0.0078078 0.007807 0.00780694 0.00780719 0.00780844 0.00780727 0.00780859 0.00780817 0.00780766 0.00780812 0.00780862 0.00780846 0.00780897 0.00780843 0.00780842 0.00780871 0.00780941 0.00780884 0.00780949 0.00780893 0.00780937 0.00780952 0.00780991 0.00780987 0.00781007 0.00780971 0.00781007 0.00781 0.0078106 0.00781028 0.00781053 0.00781012 0.00781034 0.00781063 0.00781104 0.0078106 0.00781091 0.00781031 0.00781085 0.00781075 0.00781099 0.00781102 0.00781128 0.00781119 0.00781117 0.00781124 0.00781159 0.00781139 0.0078117 0.00781144 0.0078115 0.00781137 0.00781157 0.00781189 0.00781177 0.00781206 0.0078119 0.0078118 0.00781207 0.0078119 0.00781193 0.0078123 0.00781231 0.00781221 0.00781191 0.00781228 0.00781241 0.00781244 0.00781206 0.00781211 0.00781234 0.00781245 0.00781232 0.00781258 0.00781237 0.00781234 0.00781245 0.00781256 0.00781232 0.00781263 0.00781273 0.00781242 0.00781278 0.00781248 0.00781257 0.00781244 0.00781289 0.00781287 0.00779514 0.00778564 0.00778866 0.00778343 0.00778135 0.00778641 0.00779907 0.00779131 0.00779557 0.00779106 0.00779105 0.00779503 0.00780098 0.00779493 0.00779943 0.00779605 0.00779572 0.00779856 0.00780215 0.00779724 0.0078015 0.00779888 0.00779788 0.00780011 0.00780289 0.00779852 0.00780268 0.00780034 0.00779907 0.00780106 0.0078037 0.00779995 0.0078035 0.00780157 0.00780019 0.00780179 0.00780441 0.00780062 0.0078041 0.00780224 0.00780111 0.00780252 0.00780491 0.00780161 0.00780492 0.00780304 0.00780174 0.00780333 0.00780535 0.00780257 0.00780567 0.00780403 0.00780281 0.00780391 0.00780603 0.00780325 0.00780606 0.00780463 0.00780356 0.00780489 0.00780663 0.00780414 0.00780688 0.00780525 0.00780467 0.00780563 0.00780711 0.00780506 0.00780737 0.00780608 0.00780535 0.00780602 0.00780764 0.00780554 0.0078077 0.00780646 0.00780595 0.00780661 0.007808 0.00780638 0.00780827 0.00780753 0.00780683 0.00780748 0.00780854 0.00780695 0.00780863 0.00780798 0.00780735 0.00780784 0.00780877 0.00780761 0.00780899 0.00780823 0.00780812 0.00780856 0.00780951 0.00780833 0.00780956 0.00780895 0.00780882 0.00780888 0.00780979 0.00780865 0.00780987 0.00780943 0.0078092 0.00780929 0.00781029 0.00780951 0.00780988 0.00780998 0.0078097 0.00780995 0.00781061 0.00780988 0.0078106 0.00781032 0.00780998 0.00781026 0.00781078 0.00781009 0.00781098 0.0078107 0.00781034 0.00781071 0.00781122 0.0078105 0.00781121 0.00781077 0.00781087 0.00781115 0.00781125 0.00781089 0.00781144 0.00781108 0.00781113 0.00781116 0.00781158 0.00781121 0.00781146 0.00781154 0.00781148 0.00781147 0.00781152 0.00781162 0.00781186 0.00781152 0.00781171 0.00781143 0.00781189 0.00781179 0.00781191 0.00781195 0.00781185 0.00781211 0.00781204 0.00781172 0.00781229 0.00781192 0.00781196 0.00781219 0.00781242 0.00781211 0.00781239 0.00781225 0.00781256 0.00781219 0.00781223 0.00781235 0.00781249 0.0078123 0.0078121 0.00781229 0.00781241 0.00781249 0.00781255 0.00781244 0.00781243 0.00781246 0.00781235 0.00781244 0.00781263 0.00781275 0.00781259 0.00781251 0.00781268 0.00781263 0.0078126 0.0078126 0.0078127 0.00781275 0.00781143 0.00780236 0.0078087 0.0078034 0.00779923 0.00780356 0.00781123 0.00780389 0.00781009 0.00780548 0.00780329 0.00780618 0.00781082 0.00780531 0.00781044 0.00780708 0.00780531 0.00780761 0.00781056 0.00780594 0.00781065 0.00780785 0.00780623 0.00780841 0.00781083 0.00780669 0.00781099 0.00780858 0.00780685 0.00780863 0.00781072 0.00780714 0.00781095 0.00780872 0.00780738 0.00780874 0.00781073 0.00780735 0.00781108 0.00780913 0.00780794 0.00780928 0.00781101 0.00780766 0.00781134 0.00780959 0.00780828 0.00780948 0.00781115 0.0078082 0.00781124 0.00780997 0.00780837 0.0078096 0.00781116 0.00780854 0.00781156 0.00781009 0.00780884 0.00780993 0.0078113 0.00780908 0.00781153 0.00781046 0.00780909 0.00781038 0.0078115 0.00780938 0.00781178 0.00781049 0.00780964 0.00781028 0.00781161 0.00780952 0.00781183 0.00781088 0.00780982 0.00781064 0.00781158 0.00781006 0.00781182 0.00781079 0.00781016 0.00781086 0.00781184 0.00781015 0.00781183 0.00781102 0.00781053 0.00781117 0.00781221 0.00781054 0.00781197 0.00781147 0.00781084 0.00781133 0.00781208 0.00781064 0.0078121 0.0078115 0.00781118 0.00781136 0.00781191 0.00781077 0.00781223 0.00781149 0.00781117 0.00781188 0.00781214 0.00781093 0.00781231 0.00781161 0.00781156 0.00781181 0.00781219 0.00781132 0.00781261 0.00781205 0.00781156 0.00781163 0.00781215 0.00781134 0.0078125 0.00781191 0.00781158 0.00781206 0.00781215 0.0078116 0.00781233 0.00781206 0.00781188 0.00781201 0.00781243 0.00781208 0.00781236 0.00781215 0.0078121 0.00781224 0.0078123 0.0078119 0.00781197 0.00781243 0.0078121 0.00781227 0.00781221 0.00781226 0.00781235 0.00781232 0.00781241 0.0078124 0.00781237 0.00781243 0.0078125 0.0078122 0.00781245 0.00781242 0.00781236 0.00781219 0.00781271 0.00781222 0.00781215 0.00781239 0.00781261 0.00781238 0.0078127 0.0078125 0.00781238 0.00781252 0.00781226 0.00781257 0.00781247 0.0078123 0.00781239 0.00781238 0.00781243 0.00781235 0.00781249 0.00781266 0.00781236 0.0078125 0.00781238 0.0078124 0.00781239 0.00781253 0.00781254 0.00781263 0.00781275 0.0078126 0.00781273 0.00781231 0.00781258 0.00781252 0.00782795 0.00781932 0.0078285 0.00782252 0.00781663 0.00782034 0.00782297 0.00781693 0.00782471 0.00781998 0.00781613 0.00781787 0.00782018 0.00781551 0.00782169 0.00781811 0.00781522 0.0078169 0.00781899 0.0078148 0.00781989 0.00781727 0.00781472 0.00781665 0.00781855 0.00781437 0.00781885 0.00781655 0.00781456 0.00781616 0.00781787 0.00781421 0.00781843 0.00781641 0.00781428 0.00781594 0.00781744 0.00781431 0.00781797 0.00781621 0.00781417 0.00781573 0.00781704 0.00781417 0.00781755 0.00781589 0.00781437 0.00781536 0.00781688 0.00781395 0.00781708 0.00781573 0.0078141 0.00781521 0.00781639 0.00781377 0.00781672 0.00781544 0.00781428 0.00781495 0.007816 0.00781388 0.00781634 0.00781521 0.00781386 0.00781477 0.00781575 0.00781362 0.00781641 0.00781496 0.007814 0.00781475 0.00781556 0.00781355 0.00781601 0.00781483 0.00781387 0.00781437 0.00781535 0.00781325 0.00781547 0.0078146 0.00781365 0.00781447 0.00781474 0.00781325 0.00781512 0.0078144 0.00781355 0.00781399 0.00781492 0.00781296 0.00781508 0.00781427 0.00781347 0.00781408 0.0078144 0.00781314 0.00781466 0.00781391 0.00781344 0.00781392 0.00781419 0.00781308 0.0078146 0.00781396 0.00781323 0.00781359 0.00781405 0.00781301 0.00781402 0.00781365 0.00781314 0.00781374 0.00781371 0.00781327 0.00781425 0.00781358 0.00781318 0.00781344 0.00781378 0.00781301 0.00781371 0.00781307 0.00781303 0.0078135 0.00781358 0.00781289 0.00781354 0.00781313 0.00781289 0.00781324 0.00781305 0.00781267 0.0078134 0.00781312 0.00781312 0.0078129 0.0078129 0.00781267 0.00781309 0.0078132 0.00781287 0.00781289 0.00781295 0.00781266 0.0078131 0.00781286 0.007813 0.00781288 0.00781284 0.0078125 0.00781288 0.00781288 0.00781263 0.00781269 0.00781276 0.00781246 0.00781309 0.0078128 0.00781261 0.0078127 0.00781281 0.0078128 0.00781272 0.007813 0.00781264 0.00781285 0.00781256 0.0078127 0.00781258 0.00781265 0.0078125 0.00781282 0.00781265 0.00781237 0.0078127 0.00781254 0.00781259 0.00781253 0.00781251 0.00781236 0.00781252 0.00781247 0.00781278 0.00781271 0.0078123 0.00781263 0.00781233 0.00781258 0.00781245 0.00781241 0.00784447 0.00783611 0.00784974 0.00784186 0.00783397 0.00783689 0.00783431 0.00782929 0.00783921 0.00783422 0.00782819 0.00782925 0.00782934 0.00782552 0.00783225 0.00782899 0.00782487 0.00782605 0.00782705 0.00782344 0.00782847 0.00782635 0.00782298 0.00782477 0.00782596 0.00782221 0.00782687 0.00782476 0.00782233 0.00782362 0.00782502 0.00782159 0.00782558 0.00782375 0.00782158 0.00782283 0.00782406 0.00782089 0.00782454 0.0078231 0.0078209 0.00782224 0.00782323 0.00782012 0.00782371 0.00782193 0.00782016 0.00782161 0.00782254 0.00781933 0.00782326 0.00782153 0.00781961 0.00782102 0.0078217 0.00781908 0.00782208 0.00782059 0.00781936 0.00782046 0.00782077 0.00781843 0.00782157 0.00782009 0.00781861 0.00781934 0.00782007 0.00781798 0.00782058 0.00781966 0.00781798 0.0078189 0.00781946 0.0078175 0.00781978 0.00781878 0.00781746 0.00781855 0.00781855 0.00781692 0.00781944 0.00781822 0.0078171 0.00781801 0.00781828 0.00781656 0.00781852 0.00781749 0.00781689 0.00781739 0.00781768 0.00781587 0.00781792 0.00781721 0.00781622 0.00781676 0.00781704 0.00781554 0.00781725 0.00781663 0.00781558 0.00781626 0.00781659 0.00781539 0.00781665 0.00781578 0.0078154 0.0078159 0.00781579 0.00781494 0.00781603 0.00781569 0.00781525 0.00781528 0.00781531 0.00781469 0.00781573 0.00781522 0.00781464 0.00781523 0.00781474 0.00781424 0.00781516 0.00781478 0.0078144 0.00781492 0.00781436 0.00781397 0.00781471 0.00781457 0.00781417 0.00781427 0.0078142 0.00781366 0.00781437 0.00781398 0.00781387 0.00781391 0.00781392 0.0078132 0.00781396 0.00781399 0.00781358 0.00781376 0.00781328 0.00781332 0.00781357 0.00781373 0.00781341 0.00781347 0.00781346 0.0078132 0.0078134 0.00781315 0.00781301 0.00781321 0.00781319 0.00781301 0.00781296 0.00781287 0.00781295 0.00781302 0.00781288 0.00781288 0.00781318 0.00781289 0.00781311 0.00781302 0.00781265 0.00781268 0.00781299 0.00781298 0.00781257 0.00781265 0.00781288 0.00781238 0.00781272 0.00781284 0.00781234 0.00781272 0.00781263 0.00781262 0.00781301 0.00781285 0.0078126 0.00781235 0.00781251 0.00781217 0.00781265 0.00781236 0.00781213 0.00781284 0.00785934 0.00785182 0.00787322 0.00786134 0.00785067 0.00785318 0.00784349 0.00784032 0.00785174 0.00784757 0.00783928 0.00784007 0.00783753 0.00783466 0.00784055 0.00783941 0.00783412 0.00783502 0.00783505 0.00783166 0.00783644 0.00783501 0.00783139 0.00783244 0.00783346 0.00782991 0.00783447 0.00783272 0.00782968 0.00783119 0.00783189 0.00782862 0.00783286 0.00783076 0.00782868 0.0078301 0.00783075 0.00782741 0.00783138 0.00782956 0.00782755 0.00782878 0.00782935 0.00782636 0.00783007 0.0078283 0.00782615 0.00782753 0.00782796 0.00782525 0.00782854 0.00782724 0.00782534 0.00782643 0.00782655 0.0078242 0.00782736 0.00782593 0.00782445 0.00782531 0.00782562 0.00782314 0.0078262 0.00782502 0.00782308 0.00782423 0.00782447 0.00782217 0.00782476 0.0078237 0.00782221 0.00782305 0.00782332 0.00782126 0.00782352 0.0078227 0.00782159 0.00782229 0.00782228 0.00782055 0.00782275 0.00782185 0.00782039 0.00782135 0.0078214 0.00781958 0.00782166 0.00782088 0.00781953 0.00782047 0.0078203 0.00781886 0.00782047 0.00781989 0.00781907 0.00781961 0.00781933 0.00781817 0.00781967 0.00781904 0.00781827 0.00781868 0.00781857 0.00781742 0.00781875 0.00781841 0.0078177 0.00781795 0.00781763 0.00781682 0.00781785 0.00781746 0.00781695 0.00781738 0.007817 0.00781647 0.00781714 0.00781674 0.00781598 0.00781676 0.00781622 0.00781563 0.00781654 0.00781597 0.00781574 0.0078158 0.0078157 0.00781484 0.00781591 0.00781552 0.00781502 0.00781528 0.00781512 0.0078146 0.00781549 0.00781529 0.00781465 0.00781489 0.00781455 0.00781401 0.00781465 0.00781468 0.00781405 0.00781431 0.00781416 0.00781377 0.00781429 0.00781425 0.0078139 0.00781417 0.00781357 0.00781354 0.00781404 0.00781373 0.00781357 0.00781384 0.00781369 0.00781316 0.00781339 0.00781347 0.00781308 0.00781327 0.00781323 0.00781286 0.00781335 0.0078133 0.00781276 0.00781291 0.00781284 0.00781259 0.00781294 0.00781314 0.00781277 0.00781259 0.00781274 0.00781265 0.0078125 0.00781297 0.00781256 0.00781263 0.00781246 0.00781285 0.00781254 0.00781266 0.0078124 0.00781267 0.00781244 0.00781256 0.00781252 0.00781239 0.00781227 0.00781232 0.0078664 0.00786381 0.00791084 0.00788356 0.00786529 0.00786936 0.00784804 0.00784824 0.00784885 0.00785763 0.00784739 0.00784868 0.00784522 0.00784281 0.0078459 0.00784733 0.00784179 0.00784278 0.00784319 0.00783974 0.00784412 0.00784294 0.0078393 0.00784034 0.00784128 0.00783763 0.0078418 0.00784005 0.00783734 0.00783843 0.00783926 0.00783584 0.0078398 0.00783811 0.00783543 0.00783694 0.00783746 0.00783394 0.00783782 0.00783645 0.00783378 0.00783509 0.00783547 0.00783216 0.00783613 0.00783452 0.00783223 0.00783354 0.00783369 0.00783096 0.00783418 0.00783284 0.00783081 0.00783199 0.00783211 0.00782948 0.00783237 0.00783141 0.00782908 0.00783041 0.00783021 0.00782803 0.0078307 0.00782948 0.00782794 0.00782871 0.0078289 0.00782638 0.00782923 0.00782829 0.00782646 0.00782741 0.00782732 0.00782522 0.00782791 0.0078268 0.0078251 0.00782624 0.007826 0.00782408 0.00782612 0.00782545 0.00782377 0.00782454 0.00782423 0.00782285 0.00782467 0.0078238 0.00782285 0.00782349 0.00782302 0.00782164 0.007823 0.00782277 0.00782178 0.00782198 0.00782178 0.00782034 0.00782226 0.00782172 0.00782048 0.0078209 0.00782067 0.00781929 0.00782086 0.00782042 0.00781946 0.00782001 0.00781976 0.00781853 0.00781998 0.00781964 0.0078186 0.00781895 0.00781834 0.00781771 0.00781859 0.00781871 0.00781757 0.00781767 0.0078179 0.00781706 0.00781772 0.00781761 0.00781696 0.00781716 0.00781681 0.00781622 0.0078169 0.00781674 0.00781604 0.00781628 0.00781572 0.00781564 0.00781601 0.00781604 0.00781569 0.00781554 0.00781499 0.00781485 0.00781525 0.00781528 0.00781487 0.00781501 0.0078145 0.00781427 0.00781483 0.00781479 0.00781416 0.00781425 0.00781406 0.00781369 0.00781455 0.00781422 0.0078136 0.00781397 0.0078136 0.00781324 0.00781375 0.00781321 0.00781324 0.00781346 0.00781322 0.00781316 0.00781294 0.00781303 0.00781331 0.00781318 0.00781267 0.00781266 0.0078128 0.00781315 0.00781276 0.00781277 0.00781252 0.00781246 0.0078128 0.00781287 0.00781251 0.00781254 0.00781241 0.00781248 0.00781258 0.00781291 0.00781246 0.00781233 0.00781249 0.00781244 0.00781244 0.00781234 0.00781221 0.00781214 0.00776131 0.0077458 0.00774262 0.00772644 0.00775954 0.00775281 0.00777439 0.00777143 0.00776946 0.00776468 0.00777216 0.00777081 0.00778051 0.0077758 0.00777948 0.00777454 0.00777651 0.00777759 0.0077837 0.00777872 0.00778301 0.00777949 0.00777955 0.00778134 0.007786 0.00778152 0.00778547 0.00778292 0.00778254 0.00778413 0.0077883 0.00778446 0.00778772 0.00778567 0.00778521 0.0077869 0.00779056 0.00778718 0.00778997 0.00778818 0.00778761 0.00778904 0.00779236 0.00778903 0.00779193 0.00779014 0.00778977 0.00779104 0.00779396 0.00779126 0.00779349 0.00779206 0.0077915 0.0077928 0.00779565 0.00779318 0.0077955 0.00779385 0.00779349 0.00779455 0.00779703 0.0077952 0.00779696 0.00779582 0.00779526 0.00779613 0.00779869 0.00779662 0.00779855 0.00779714 0.00779714 0.00779764 0.00779993 0.00779806 0.00779954 0.00779887 0.00779856 0.00779907 0.0078011 0.00779969 0.00780099 0.00780014 0.00780001 0.00780057 0.00780235 0.00780099 0.00780235 0.00780168 0.00780123 0.00780197 0.00780356 0.00780235 0.00780353 0.00780274 0.00780296 0.00780311 0.00780476 0.00780331 0.00780424 0.00780398 0.00780401 0.00780427 0.00780595 0.00780478 0.00780564 0.00780494 0.00780522 0.00780534 0.00780643 0.007806 0.00780653 0.00780622 0.00780595 0.00780633 0.0078074 0.00780702 0.00780743 0.00780714 0.00780719 0.00780707 0.00780802 0.0078079 0.00780815 0.00780803 0.00780778 0.00780824 0.00780882 0.00780873 0.00780909 0.00780878 0.00780885 0.00780895 0.00780964 0.00780953 0.00780987 0.0078095 0.0078097 0.00780963 0.00781046 0.00781005 0.00781007 0.00781003 0.00781027 0.0078104 0.00781097 0.00781105 0.00781087 0.00781054 0.00781035 0.00781063 0.00781125 0.0078113 0.0078113 0.00781117 0.00781088 0.00781136 0.00781199 0.00781169 0.00781188 0.00781127 0.00781206 0.00781169 0.00781189 0.00781215 0.00781188 0.00781189 0.00781222 0.0078121 0.00781211 0.0078123 0.00781206 0.00781258 0.00781222 0.00781231 0.00781221 0.00781279 0.00781261 0.00781221 0.00781218 0.00781243 0.00781223 0.00781251 0.00781251 0.00781241 0.00781284 0.00781242 0.00781283 0.00781267 0.00781268 0.00781256 0.00781246 0.00781254 0.00777781 0.00776688 0.00776729 0.00776086 0.00776147 0.00776641 0.0077838 0.00777804 0.00777797 0.00777562 0.00777818 0.00778043 0.00778875 0.0077837 0.00778678 0.00778381 0.00778477 0.00778658 0.00779211 0.00778735 0.00779116 0.00778844 0.00778825 0.00778987 0.00779421 0.00779002 0.00779379 0.00779119 0.00779057 0.00779236 0.00779571 0.0077918 0.0077954 0.00779322 0.00779241 0.00779417 0.00779707 0.00779365 0.0077972 0.00779519 0.00779423 0.00779577 0.00779824 0.00779523 0.00779841 0.00779658 0.00779594 0.00779715 0.00779969 0.00779658 0.00779927 0.00779787 0.00779731 0.0077985 0.00780065 0.00779787 0.00780077 0.00779914 0.00779863 0.00779983 0.00780162 0.0077994 0.00780186 0.00780055 0.00779992 0.00780077 0.0078027 0.0078006 0.00780292 0.00780152 0.00780125 0.00780196 0.00780388 0.00780178 0.00780387 0.00780288 0.00780222 0.00780288 0.00780464 0.00780296 0.0078047 0.00780372 0.00780322 0.00780406 0.00780551 0.0078042 0.00780566 0.00780438 0.00780425 0.00780511 0.00780623 0.00780516 0.00780658 0.00780564 0.00780533 0.00780582 0.00780692 0.00780596 0.00780715 0.00780663 0.00780603 0.0078065 0.00780764 0.00780675 0.00780779 0.00780725 0.00780699 0.00780712 0.00780841 0.00780751 0.00780824 0.00780803 0.00780763 0.00780798 0.00780875 0.00780841 0.00780909 0.00780869 0.00780855 0.0078087 0.00780963 0.00780917 0.00780966 0.00780923 0.00780886 0.00780945 0.00780985 0.00780959 0.00781025 0.00780978 0.00780984 0.00780974 0.00781051 0.00781009 0.00781021 0.00781029 0.00781037 0.00781082 0.00781085 0.0078103 0.00781093 0.00781106 0.00781085 0.00781103 0.00781131 0.00781091 0.00781133 0.00781094 0.0078114 0.00781165 0.00781141 0.00781131 0.00781158 0.00781149 0.00781173 0.00781135 0.00781182 0.00781167 0.00781218 0.00781183 0.00781215 0.00781197 0.00781247 0.00781213 0.00781215 0.00781191 0.00781232 0.00781192 0.00781211 0.00781218 0.00781237 0.00781252 0.00781244 0.00781207 0.00781215 0.00781251 0.00781242 0.0078124 0.00781235 0.00781251 0.00781241 0.00781267 0.00781268 0.00781267 0.00781249 0.00781262 0.00781292 0.00781273 0.0078127 0.0078125 0.00781293 0.00781261 0.00779408 0.00778416 0.00778829 0.00778274 0.00778024 0.00778481 0.00779746 0.00779033 0.00779344 0.0077896 0.00778866 0.00779199 0.00779948 0.00779368 0.00779817 0.00779494 0.00779403 0.00779643 0.00780114 0.00779611 0.00780043 0.00779793 0.00779683 0.00779871 0.00780234 0.00779808 0.00780226 0.00779961 0.0077986 0.00780024 0.00780317 0.00779944 0.00780318 0.00780116 0.00779999 0.00780144 0.00780388 0.00780046 0.00780396 0.00780204 0.00780112 0.00780225 0.00780457 0.00780147 0.00780471 0.00780301 0.00780203 0.00780335 0.00780523 0.00780238 0.00780567 0.00780422 0.00780292 0.00780402 0.00780591 0.0078033 0.00780596 0.00780447 0.0078036 0.00780487 0.00780655 0.00780409 0.00780673 0.00780538 0.00780455 0.00780547 0.007807 0.00780487 0.00780695 0.00780599 0.00780529 0.00780635 0.00780758 0.00780575 0.00780765 0.00780645 0.00780613 0.00780688 0.00780808 0.00780635 0.00780835 0.00780738 0.00780682 0.00780758 0.00780878 0.00780711 0.00780876 0.00780768 0.00780764 0.00780809 0.00780898 0.00780773 0.00780907 0.00780883 0.00780805 0.00780837 0.00780929 0.00780815 0.0078094 0.007809 0.0078085 0.00780871 0.00780981 0.00780872 0.00780985 0.00780951 0.00780918 0.00780946 0.00781015 0.00780938 0.00781038 0.00780983 0.00780959 0.00780972 0.00781079 0.00780989 0.00781082 0.00781051 0.00781013 0.00781057 0.00781076 0.00781041 0.00781084 0.0078103 0.0078105 0.00781067 0.00781125 0.00781071 0.00781154 0.00781119 0.00781077 0.00781095 0.00781147 0.00781118 0.00781151 0.00781091 0.00781136 0.00781119 0.00781162 0.007811 0.00781159 0.00781132 0.00781143 0.00781183 0.00781195 0.00781162 0.00781206 0.00781165 0.00781165 0.00781176 0.00781174 0.00781211 0.0078121 0.00781197 0.00781197 0.00781201 0.00781209 0.0078122 0.00781241 0.00781206 0.00781207 0.00781214 0.00781213 0.00781244 0.0078122 0.00781242 0.00781236 0.00781236 0.00781223 0.00781217 0.00781253 0.00781227 0.00781229 0.00781247 0.00781245 0.00781251 0.00781268 0.00781236 0.00781217 0.0078126 0.00781244 0.00781248 0.00781261 0.0078125 0.00781238 0.00781246 0.00781241 0.00781283 0.0078124 0.00781247 0.00781304 0.00781254 0.00781134 0.00780184 0.00780861 0.00780295 0.00779868 0.0078029 0.00781087 0.00780362 0.00780949 0.00780493 0.00780214 0.00780519 0.00781045 0.00780449 0.00781015 0.00780663 0.00780459 0.00780692 0.00781015 0.00780529 0.00781045 0.00780774 0.00780604 0.00780789 0.00781051 0.0078061 0.00781079 0.00780834 0.00780652 0.00780826 0.00781053 0.00780662 0.00781086 0.00780864 0.00780713 0.00780893 0.00781077 0.00780705 0.00781091 0.00780898 0.00780753 0.00780898 0.0078109 0.00780763 0.0078111 0.0078096 0.00780789 0.00780924 0.00781093 0.00780801 0.00781138 0.00780953 0.00780844 0.00780949 0.00781103 0.00780856 0.00781153 0.00781 0.00780891 0.00781006 0.00781129 0.00780901 0.0078117 0.00781034 0.00780925 0.00781022 0.00781124 0.00780908 0.00781173 0.00781045 0.00780946 0.00781036 0.00781168 0.0078097 0.00781168 0.00781062 0.00781002 0.00781064 0.00781147 0.0078098 0.00781172 0.00781102 0.00781005 0.00781106 0.00781205 0.00781028 0.00781193 0.00781092 0.00781057 0.0078114 0.00781171 0.00781025 0.007812 0.00781114 0.0078109 0.0078112 0.00781191 0.00781071 0.0078123 0.00781159 0.00781091 0.00781138 0.00781187 0.00781101 0.00781227 0.00781178 0.00781136 0.00781135 0.00781206 0.00781122 0.00781214 0.0078118 0.00781131 0.00781152 0.0078123 0.00781144 0.00781241 0.00781195 0.00781181 0.00781176 0.00781238 0.00781164 0.00781227 0.00781213 0.00781161 0.00781215 0.00781255 0.0078116 0.00781254 0.00781196 0.00781161 0.00781228 0.00781243 0.00781155 0.00781252 0.00781219 0.00781209 0.00781211 0.00781248 0.00781219 0.00781225 0.00781251 0.00781208 0.00781205 0.00781223 0.00781218 0.00781244 0.00781241 0.00781262 0.00781234 0.00781244 0.00781235 0.00781271 0.00781246 0.00781222 0.00781238 0.0078124 0.00781279 0.00781251 0.00781264 0.00781205 0.00781235 0.00781231 0.0078126 0.0078128 0.00781276 0.0078127 0.00781248 0.00781231 0.00781244 0.00781279 0.00781248 0.00781246 0.00781257 0.00781238 0.00781253 0.00781256 0.00781268 0.00781266 0.00781238 0.00781259 0.00781235 0.00781247 0.00781243 0.00781252 0.00781241 0.00781257 0.00781274 0.00781246 0.00781237 0.00781279 0.00781277 0.00782899 0.00781971 0.00782879 0.00782252 0.00781682 0.00782056 0.00782434 0.00781762 0.00782557 0.00782031 0.00781609 0.00781859 0.00782118 0.00781565 0.00782243 0.00781871 0.00781539 0.00781751 0.00781958 0.00781505 0.00782017 0.00781773 0.00781486 0.00781673 0.00781855 0.0078144 0.00781907 0.00781693 0.00781464 0.00781626 0.00781788 0.00781407 0.00781845 0.00781641 0.00781447 0.00781595 0.00781739 0.00781399 0.00781777 0.00781606 0.00781452 0.00781568 0.00781722 0.00781387 0.00781746 0.00781594 0.00781409 0.00781529 0.00781687 0.00781397 0.00781721 0.00781568 0.0078142 0.0078155 0.00781653 0.00781381 0.00781681 0.0078154 0.00781372 0.00781495 0.00781613 0.00781366 0.0078165 0.00781534 0.00781386 0.00781486 0.00781574 0.00781334 0.00781604 0.00781498 0.00781383 0.00781466 0.00781539 0.00781354 0.00781572 0.00781486 0.00781385 0.00781456 0.00781521 0.00781332 0.00781544 0.00781456 0.0078137 0.00781436 0.00781517 0.00781313 0.00781513 0.00781441 0.00781371 0.00781408 0.00781479 0.00781339 0.00781485 0.00781416 0.0078134 0.00781392 0.00781427 0.00781313 0.0078147 0.00781418 0.00781339 0.00781379 0.00781415 0.00781304 0.00781431 0.00781402 0.00781315 0.00781363 0.007814 0.00781275 0.0078143 0.00781368 0.00781298 0.00781379 0.00781379 0.00781303 0.0078139 0.00781342 0.00781333 0.0078135 0.0078137 0.00781298 0.00781357 0.00781329 0.00781308 0.0078135 0.00781331 0.00781288 0.00781357 0.00781304 0.00781312 0.00781297 0.00781297 0.00781282 0.00781297 0.0078133 0.00781296 0.00781308 0.00781325 0.00781267 0.00781319 0.00781281 0.00781304 0.007813 0.00781286 0.00781284 0.00781295 0.00781306 0.00781261 0.00781301 0.00781279 0.00781275 0.00781298 0.00781281 0.0078127 0.00781255 0.00781284 0.00781288 0.00781283 0.00781266 0.00781257 0.00781295 0.00781264 0.00781234 0.00781281 0.00781276 0.00781244 0.00781273 0.00781273 0.00781271 0.00781266 0.00781308 0.00781259 0.00781243 0.00781224 0.00781241 0.00781222 0.0078124 0.00781262 0.00781251 0.00781257 0.00781264 0.00781257 0.00781232 0.00781246 0.00781274 0.00781265 0.0078125 0.00781249 0.00781275 0.00781264 0.00781245 0.00784664 0.00783729 0.00785 0.00784199 0.00783472 0.00783761 0.00783697 0.00783062 0.00784144 0.00783516 0.00782936 0.00783176 0.00783148 0.00782651 0.00783391 0.00783064 0.00782588 0.00782793 0.00782845 0.00782395 0.00782948 0.00782739 0.00782386 0.00782554 0.00782651 0.00782269 0.00782738 0.0078254 0.00782266 0.00782418 0.00782513 0.00782157 0.00782578 0.00782381 0.00782166 0.00782323 0.00782435 0.00782073 0.00782474 0.00782309 0.00782104 0.0078223 0.00782316 0.00781995 0.0078239 0.00782231 0.00782029 0.0078216 0.00782229 0.00781952 0.00782289 0.00782161 0.00781974 0.00782079 0.00782176 0.0078188 0.00782199 0.00782069 0.00781932 0.00782026 0.00782068 0.00781839 0.00782116 0.00782022 0.0078187 0.00781949 0.00782012 0.00781796 0.00782059 0.00781937 0.00781806 0.00781877 0.0078193 0.00781726 0.00781976 0.00781866 0.0078175 0.0078185 0.0078188 0.00781695 0.00781932 0.00781828 0.0078171 0.0078176 0.00781825 0.00781652 0.00781819 0.00781757 0.00781692 0.00781728 0.00781763 0.00781626 0.00781785 0.0078171 0.00781613 0.00781682 0.00781688 0.00781561 0.00781723 0.00781652 0.00781577 0.00781608 0.00781634 0.00781524 0.00781669 0.00781617 0.00781545 0.00781595 0.00781591 0.00781472 0.00781627 0.00781574 0.00781506 0.00781559 0.00781541 0.00781455 0.00781573 0.0078154 0.00781479 0.00781514 0.00781485 0.00781415 0.0078153 0.00781496 0.00781451 0.00781463 0.00781451 0.00781407 0.00781466 0.00781453 0.00781403 0.00781438 0.00781424 0.00781385 0.00781419 0.00781403 0.0078139 0.00781393 0.00781409 0.00781334 0.00781401 0.00781397 0.00781345 0.00781345 0.00781361 0.00781321 0.00781372 0.00781337 0.00781328 0.00781349 0.0078131 0.00781313 0.0078132 0.00781312 0.00781296 0.00781331 0.00781305 0.00781287 0.00781334 0.00781305 0.00781273 0.00781278 0.00781276 0.00781273 0.0078129 0.00781314 0.00781262 0.00781316 0.00781234 0.0078126 0.00781276 0.0078127 0.00781303 0.00781273 0.00781245 0.00781261 0.00781287 0.00781265 0.00781225 0.00781264 0.00781233 0.00781268 0.00781273 0.00781222 0.00781233 0.00781238 0.00781254 0.00781219 0.0078125 0.00781272 0.00781216 0.00781228 0.00786226 0.00785395 0.00787442 0.00786237 0.00785242 0.00785461 0.00784661 0.00784231 0.00785499 0.00784954 0.00784148 0.00784394 0.00783983 0.00783604 0.00784245 0.00784118 0.00783521 0.00783765 0.00783654 0.00783265 0.00783788 0.00783624 0.00783245 0.00783426 0.00783408 0.00783047 0.007835 0.00783349 0.00783014 0.00783175 0.00783235 0.00782867 0.00783306 0.00783142 0.00782863 0.00783028 0.00783093 0.0078276 0.00783163 0.00782995 0.00782747 0.00782881 0.00782941 0.00782633 0.00783007 0.00782848 0.00782644 0.00782758 0.00782823 0.00782518 0.0078287 0.00782718 0.00782534 0.00782632 0.00782705 0.00782412 0.00782717 0.0078261 0.00782436 0.00782546 0.00782578 0.00782309 0.00782614 0.00782501 0.00782285 0.00782415 0.00782447 0.00782204 0.00782487 0.00782335 0.00782227 0.00782312 0.00782321 0.00782118 0.00782397 0.00782302 0.00782125 0.00782214 0.00782219 0.00782052 0.00782255 0.00782163 0.00782036 0.00782098 0.00782133 0.00781936 0.0078217 0.0078209 0.00781982 0.00782038 0.00782018 0.00781884 0.00782059 0.00782012 0.00781881 0.00781931 0.00781921 0.00781809 0.00781973 0.00781898 0.00781822 0.00781894 0.00781838 0.00781717 0.00781881 0.00781848 0.00781741 0.00781814 0.00781771 0.00781676 0.00781804 0.00781779 0.0078167 0.00781689 0.00781693 0.00781618 0.00781722 0.00781702 0.00781618 0.00781652 0.00781635 0.00781533 0.00781636 0.00781627 0.00781547 0.00781607 0.00781561 0.00781496 0.0078159 0.00781552 0.00781519 0.00781502 0.00781513 0.0078145 0.00781538 0.00781552 0.00781465 0.00781478 0.00781441 0.00781436 0.00781452 0.00781444 0.00781445 0.00781415 0.00781417 0.00781373 0.00781396 0.00781408 0.00781402 0.00781415 0.0078136 0.00781334 0.007814 0.00781374 0.00781359 0.00781379 0.00781325 0.00781304 0.00781344 0.0078135 0.00781283 0.00781329 0.007813 0.00781334 0.00781311 0.00781331 0.00781326 0.00781292 0.00781291 0.00781268 0.00781269 0.00781261 0.00781276 0.00781268 0.00781271 0.00781273 0.00781263 0.00781267 0.00781276 0.00781281 0.0078125 0.00781268 0.00781236 0.00781255 0.00781222 0.00781249 0.00781251 0.00781231 0.00781242 0.00781253 0.00781261 0.00781259 0.00787107 0.0078669 0.00791626 0.00788566 0.00786748 0.00787168 0.00785069 0.00785068 0.00785205 0.00786062 0.00784984 0.00785295 0.00784704 0.00784433 0.00784728 0.00784921 0.00784375 0.00784553 0.00784447 0.00784088 0.00784518 0.0078442 0.00784005 0.00784181 0.00784185 0.00783826 0.00784268 0.00784096 0.00783792 0.00783941 0.00783947 0.00783602 0.00784026 0.00783868 0.00783597 0.00783724 0.00783786 0.00783429 0.00783815 0.00783643 0.00783404 0.00783534 0.0078355 0.00783237 0.0078359 0.0078346 0.00783238 0.00783325 0.0078338 0.00783089 0.00783411 0.00783299 0.00783097 0.0078318 0.00783203 0.00782924 0.00783222 0.00783121 0.0078291 0.00783019 0.00783038 0.00782775 0.00783074 0.00782942 0.00782777 0.00782869 0.00782879 0.00782641 0.00782914 0.00782803 0.0078264 0.00782711 0.00782708 0.00782525 0.00782753 0.0078267 0.00782483 0.00782579 0.00782584 0.00782391 0.00782594 0.00782523 0.007824 0.00782447 0.00782384 0.00782243 0.00782459 0.00782386 0.00782268 0.00782328 0.00782332 0.00782138 0.00782293 0.00782256 0.00782151 0.00782231 0.00782179 0.00782045 0.00782212 0.00782146 0.00782018 0.00782081 0.00782053 0.00781955 0.00782071 0.00782019 0.00781944 0.00781976 0.00781966 0.00781858 0.0078198 0.00781956 0.00781862 0.00781874 0.00781829 0.00781736 0.00781874 0.00781861 0.00781769 0.00781771 0.00781772 0.00781668 0.00781755 0.00781763 0.00781701 0.00781707 0.00781671 0.0078162 0.00781651 0.00781667 0.00781601 0.00781619 0.00781568 0.00781522 0.00781593 0.00781606 0.00781524 0.00781578 0.00781527 0.00781476 0.00781572 0.00781491 0.00781485 0.00781479 0.00781449 0.00781411 0.00781441 0.00781471 0.00781432 0.00781427 0.00781384 0.00781378 0.00781394 0.00781404 0.00781358 0.00781379 0.00781341 0.00781356 0.00781358 0.00781349 0.00781338 0.00781359 0.00781325 0.00781294 0.00781326 0.00781352 0.00781298 0.00781267 0.00781281 0.00781303 0.00781247 0.00781299 0.00781254 0.00781299 0.00781307 0.00781232 0.00781255 0.00781232 0.00781252 0.00781254 0.00781259 0.00781257 0.00781267 0.00781233 0.00781237 0.00781243 0.0078126 0.00781214 0.00781249 0.00781196 0.00781287 0.00781271 0.00775963 0.00774367 0.0077416 0.00772509 0.00775816 0.00775162 0.00777256 0.00777023 0.00776795 0.00776375 0.00777115 0.00776956 0.00777957 0.00777497 0.00777836 0.00777365 0.00777549 0.00777631 0.00778298 0.00777832 0.00778207 0.00777885 0.00777866 0.00778044 0.00778539 0.00778143 0.00778506 0.00778248 0.00778189 0.00778363 0.00778776 0.0077842 0.00778759 0.00778548 0.00778477 0.00778653 0.00778994 0.00778676 0.00778996 0.00778794 0.00778726 0.00778867 0.00779207 0.00778914 0.00779178 0.00779037 0.00778967 0.00779101 0.00779393 0.00779131 0.00779373 0.00779209 0.0077916 0.00779279 0.00779526 0.0077932 0.00779534 0.00779391 0.00779331 0.00779432 0.00779688 0.00779463 0.00779682 0.00779571 0.0077954 0.0077962 0.00779871 0.00779658 0.00779845 0.00779735 0.00779686 0.00779791 0.00780001 0.00779808 0.00779992 0.00779876 0.0077984 0.00779928 0.00780129 0.00779958 0.00780138 0.00780025 0.00779993 0.0078007 0.00780235 0.00780119 0.00780223 0.00780167 0.00780142 0.00780191 0.00780362 0.00780226 0.00780359 0.00780305 0.00780235 0.00780332 0.00780461 0.00780352 0.00780479 0.00780379 0.00780392 0.00780429 0.00780578 0.00780489 0.00780572 0.00780496 0.0078052 0.00780542 0.00780642 0.0078059 0.00780659 0.00780639 0.00780604 0.00780636 0.00780748 0.00780664 0.00780754 0.00780681 0.00780698 0.00780762 0.00780801 0.00780781 0.00780846 0.00780778 0.00780836 0.00780789 0.00780882 0.00780876 0.0078088 0.00780882 0.00780881 0.00780926 0.00780968 0.0078093 0.00780957 0.00780916 0.00780979 0.0078097 0.00781031 0.00781033 0.00781024 0.00780999 0.00781027 0.00781038 0.00781065 0.00781056 0.00781094 0.00781056 0.00781092 0.00781119 0.00781116 0.00781089 0.00781165 0.00781111 0.00781153 0.00781119 0.00781166 0.00781155 0.00781145 0.00781162 0.0078121 0.00781184 0.00781215 0.00781205 0.00781222 0.00781197 0.00781242 0.00781217 0.0078124 0.00781242 0.00781235 0.00781229 0.00781239 0.00781226 0.00781264 0.00781232 0.00781222 0.00781228 0.00781221 0.00781244 0.00781258 0.00781286 0.00781255 0.00781255 0.00781245 0.00781237 0.00781244 0.00781249 0.00781245 0.00781256 0.00781267 0.00781265 0.00777663 0.00776579 0.00776711 0.0077603 0.00776095 0.00776543 0.0077831 0.00777721 0.00777704 0.00777498 0.00777674 0.00777899 0.00778789 0.00778316 0.00778567 0.00778285 0.0077836 0.00778554 0.00779137 0.00778659 0.00779043 0.00778796 0.00778747 0.00778906 0.00779358 0.00778965 0.00779323 0.00779082 0.00779014 0.0077919 0.00779554 0.00779171 0.00779526 0.00779336 0.00779221 0.00779372 0.00779705 0.00779364 0.00779706 0.00779521 0.00779405 0.00779569 0.00779834 0.00779516 0.00779829 0.00779658 0.0077959 0.00779706 0.00779959 0.00779669 0.00779936 0.00779791 0.0077972 0.00779834 0.00780068 0.00779814 0.00780062 0.00779943 0.00779856 0.0077995 0.00780175 0.0077995 0.00780165 0.00780058 0.00779998 0.00780088 0.00780266 0.00780063 0.00780285 0.00780172 0.00780098 0.00780203 0.00780366 0.00780174 0.00780358 0.00780257 0.00780218 0.00780301 0.00780477 0.00780299 0.0078047 0.00780373 0.00780352 0.00780397 0.00780552 0.00780378 0.0078054 0.00780452 0.0078043 0.00780515 0.00780612 0.00780507 0.00780637 0.00780556 0.00780546 0.00780576 0.00780697 0.00780581 0.00780707 0.00780633 0.00780592 0.00780659 0.00780784 0.00780662 0.00780811 0.00780696 0.00780719 0.0078075 0.0078083 0.00780763 0.00780846 0.00780792 0.00780771 0.00780803 0.00780924 0.00780834 0.00780917 0.00780868 0.00780854 0.00780907 0.00780962 0.00780929 0.00780957 0.00780919 0.00780907 0.00780939 0.00780971 0.00780993 0.0078102 0.00780983 0.00780982 0.00780974 0.00781047 0.00780991 0.0078104 0.00781023 0.00781048 0.00781036 0.00781118 0.0078107 0.00781074 0.00781078 0.0078108 0.00781073 0.00781137 0.00781113 0.00781126 0.007811 0.00781105 0.00781161 0.00781168 0.00781163 0.00781167 0.00781116 0.00781146 0.00781134 0.00781182 0.00781137 0.00781174 0.00781195 0.00781187 0.00781195 0.00781219 0.00781232 0.00781227 0.00781216 0.00781224 0.00781243 0.00781218 0.00781235 0.0078123 0.00781241 0.00781237 0.00781187 0.00781237 0.00781248 0.00781226 0.00781235 0.00781273 0.00781242 0.00781249 0.00781281 0.00781247 0.00781251 0.0078129 0.00781255 0.00781254 0.00781276 0.00781264 0.00781277 0.00781252 0.00781275 0.00779353 0.00778375 0.00778808 0.0077825 0.00777977 0.00778419 0.0077968 0.00778943 0.00779311 0.00778919 0.00778764 0.00779117 0.00779885 0.00779324 0.00779715 0.00779445 0.00779314 0.00779566 0.00780059 0.00779556 0.00779984 0.00779776 0.00779648 0.00779829 0.00780175 0.00779762 0.00780191 0.00779968 0.00779821 0.00780008 0.00780289 0.00779887 0.00780309 0.00780074 0.00779979 0.0078011 0.0078037 0.00780045 0.00780375 0.00780215 0.0078009 0.00780243 0.00780449 0.00780112 0.00780445 0.00780306 0.00780175 0.00780316 0.00780518 0.00780235 0.00780538 0.00780415 0.00780295 0.00780385 0.00780595 0.00780319 0.00780617 0.00780468 0.00780361 0.00780466 0.00780635 0.00780405 0.00780678 0.00780535 0.00780447 0.00780544 0.00780712 0.00780505 0.00780734 0.00780607 0.00780538 0.00780624 0.0078074 0.00780564 0.00780768 0.00780683 0.00780601 0.00780671 0.00780821 0.00780635 0.00780826 0.00780736 0.00780679 0.00780745 0.00780862 0.00780715 0.00780882 0.00780767 0.00780752 0.00780821 0.00780914 0.00780771 0.00780925 0.00780843 0.00780813 0.00780832 0.00780955 0.00780837 0.00780938 0.00780881 0.00780872 0.00780909 0.00780996 0.00780879 0.00781014 0.00780924 0.00780906 0.00780943 0.00781024 0.00780954 0.00781016 0.00780995 0.00780956 0.00780984 0.0078104 0.00780977 0.00781074 0.00781005 0.00780994 0.00781018 0.00781076 0.00781005 0.00781089 0.00781048 0.00781062 0.00781084 0.00781105 0.00781083 0.00781125 0.00781083 0.00781092 0.00781088 0.00781143 0.00781099 0.00781156 0.00781135 0.00781119 0.00781158 0.00781158 0.00781137 0.0078116 0.00781136 0.00781164 0.0078117 0.00781146 0.0078117 0.00781181 0.00781172 0.00781188 0.00781193 0.00781199 0.00781182 0.00781182 0.00781187 0.00781221 0.00781211 0.0078121 0.00781183 0.00781216 0.00781215 0.00781209 0.007812 0.00781223 0.0078121 0.00781224 0.00781228 0.00781213 0.00781237 0.0078124 0.00781253 0.00781265 0.00781231 0.00781248 0.00781241 0.00781246 0.00781263 0.00781268 0.00781231 0.00781238 0.00781278 0.0078124 0.00781253 0.0078127 0.00781253 0.00781258 0.00781248 0.0078128 0.00781275 0.00781265 0.00781245 0.00781297 0.0078133 0.00781137 0.00780145 0.00780866 0.00780287 0.00779874 0.00780281 0.00781097 0.00780343 0.00780928 0.0078047 0.00780154 0.00780497 0.00781054 0.00780462 0.0078099 0.00780647 0.00780417 0.00780655 0.00781 0.00780522 0.00781034 0.00780773 0.00780566 0.00780747 0.00781036 0.00780613 0.00781044 0.00780816 0.00780646 0.00780825 0.00781042 0.00780669 0.00781091 0.00780874 0.00780715 0.00780862 0.00781077 0.00780716 0.00781087 0.00780908 0.00780763 0.00780916 0.00781078 0.00780765 0.0078112 0.00780939 0.00780822 0.00780929 0.00781098 0.00780818 0.00781124 0.00780954 0.00780868 0.00780962 0.00781128 0.00780849 0.0078114 0.00781004 0.00780906 0.00780987 0.00781121 0.00780879 0.00781148 0.00781047 0.0078092 0.00781001 0.00781143 0.00780922 0.00781155 0.00781049 0.00780941 0.00781039 0.0078114 0.00780944 0.00781203 0.00781064 0.00781001 0.0078109 0.00781153 0.00780976 0.00781196 0.00781093 0.00781019 0.00781062 0.00781175 0.00781039 0.00781193 0.00781116 0.00781033 0.00781108 0.00781208 0.00781046 0.00781223 0.00781132 0.00781059 0.00781127 0.0078119 0.00781088 0.00781235 0.00781129 0.00781118 0.00781156 0.00781187 0.007811 0.00781205 0.00781171 0.00781114 0.00781136 0.00781213 0.00781117 0.00781221 0.0078118 0.0078113 0.00781174 0.00781194 0.00781148 0.00781209 0.00781175 0.00781125 0.0078118 0.00781186 0.00781148 0.00781221 0.00781216 0.00781139 0.00781196 0.00781238 0.00781149 0.00781229 0.0078119 0.00781197 0.00781222 0.00781251 0.00781177 0.00781259 0.00781226 0.0078119 0.00781205 0.00781257 0.00781204 0.00781252 0.00781225 0.00781209 0.0078125 0.00781227 0.00781211 0.00781213 0.00781225 0.00781229 0.00781216 0.00781268 0.00781238 0.00781237 0.00781214 0.00781245 0.00781258 0.0078123 0.0078124 0.00781237 0.00781251 0.0078126 0.0078125 0.00781228 0.00781267 0.00781235 0.00781236 0.00781246 0.00781242 0.00781222 0.00781238 0.00781254 0.00781235 0.0078122 0.00781223 0.00781245 0.0078125 0.00781276 0.00781263 0.00781231 0.00781266 0.00781249 0.00781255 0.00781278 0.0078124 0.0078124 0.00781242 0.00781239 0.00781272 0.00781246 0.00781244 0.00781271 0.0078125 0.00782958 0.00781978 0.00782901 0.00782277 0.00781694 0.00782083 0.00782499 0.00781773 0.00782571 0.0078204 0.00781597 0.00781901 0.00782145 0.00781579 0.0078227 0.00781889 0.00781523 0.0078178 0.00781968 0.00781505 0.00782057 0.0078177 0.00781487 0.00781691 0.00781851 0.0078142 0.00781932 0.00781708 0.0078147 0.00781653 0.00781792 0.00781405 0.00781854 0.00781636 0.00781449 0.00781613 0.00781762 0.00781395 0.00781785 0.00781618 0.00781424 0.00781575 0.00781691 0.00781401 0.00781755 0.00781594 0.00781421 0.00781546 0.00781663 0.00781369 0.00781715 0.00781535 0.00781425 0.00781539 0.00781629 0.0078136 0.00781671 0.00781533 0.0078139 0.00781526 0.00781611 0.00781373 0.00781648 0.00781497 0.00781382 0.00781463 0.00781576 0.00781344 0.0078161 0.00781468 0.00781379 0.00781448 0.00781546 0.00781348 0.00781566 0.00781454 0.00781387 0.00781452 0.00781529 0.00781335 0.00781563 0.00781476 0.0078136 0.00781411 0.00781486 0.00781343 0.00781502 0.00781429 0.00781356 0.00781414 0.00781449 0.00781324 0.00781512 0.0078144 0.00781342 0.00781403 0.00781444 0.00781325 0.00781472 0.00781401 0.00781326 0.00781382 0.00781413 0.00781313 0.00781443 0.00781375 0.00781358 0.0078135 0.00781404 0.00781264 0.00781409 0.00781373 0.00781336 0.00781363 0.0078138 0.00781279 0.00781401 0.00781359 0.00781312 0.00781364 0.00781362 0.007813 0.00781387 0.00781334 0.00781315 0.00781341 0.00781363 0.00781244 0.00781355 0.00781323 0.0078131 0.0078135 0.00781329 0.00781294 0.00781321 0.00781334 0.00781291 0.00781294 0.00781298 0.00781276 0.00781325 0.00781318 0.0078126 0.00781321 0.00781303 0.00781252 0.00781332 0.00781293 0.00781285 0.00781316 0.00781289 0.00781239 0.00781283 0.00781253 0.00781316 0.0078126 0.00781254 0.00781259 0.00781266 0.00781294 0.00781269 0.00781267 0.00781276 0.00781263 0.00781289 0.00781261 0.00781266 0.00781258 0.00781267 0.00781281 0.0078125 0.0078128 0.00781271 0.00781242 0.00781262 0.00781286 0.00781228 0.00781254 0.0078123 0.0078123 0.00781269 0.00781261 0.00781256 0.0078127 0.00781248 0.00781257 0.00781221 0.00781254 0.00781237 0.00781277 0.00781275 0.00781248 0.00784746 0.00783778 0.00785034 0.00784247 0.00783517 0.00783846 0.00783776 0.00783107 0.00784224 0.00783594 0.00782973 0.0078328 0.00783209 0.00782697 0.00783453 0.00783085 0.00782617 0.00782889 0.00782881 0.00782429 0.00782994 0.00782792 0.00782394 0.00782627 0.00782668 0.00782273 0.00782738 0.00782573 0.00782246 0.00782455 0.00782522 0.00782156 0.007826 0.0078242 0.00782179 0.00782343 0.00782435 0.00782078 0.00782476 0.00782319 0.00782093 0.00782204 0.00782324 0.00782023 0.0078237 0.00782219 0.00782038 0.00782177 0.0078224 0.00781955 0.00782299 0.00782135 0.00781961 0.00782059 0.00782173 0.00781909 0.00782208 0.00782071 0.00781935 0.00781994 0.00782065 0.00781841 0.00782113 0.00782008 0.00781884 0.00781943 0.00782006 0.00781798 0.00782047 0.00781947 0.00781778 0.00781875 0.00781947 0.00781725 0.00781971 0.00781892 0.00781756 0.00781842 0.00781863 0.00781688 0.00781905 0.00781823 0.00781716 0.00781778 0.00781813 0.00781653 0.00781836 0.00781761 0.00781662 0.00781722 0.00781739 0.00781628 0.00781787 0.00781704 0.00781611 0.00781677 0.00781686 0.00781559 0.00781704 0.00781655 0.00781587 0.00781642 0.0078164 0.00781534 0.00781662 0.00781593 0.00781536 0.00781591 0.00781575 0.00781487 0.00781605 0.00781565 0.00781501 0.00781547 0.00781543 0.00781468 0.00781561 0.00781529 0.00781451 0.00781487 0.00781467 0.00781411 0.00781525 0.00781459 0.00781439 0.00781438 0.00781436 0.00781388 0.00781443 0.00781448 0.00781425 0.0078143 0.00781413 0.00781342 0.00781457 0.00781413 0.00781372 0.00781403 0.0078137 0.00781353 0.00781412 0.00781388 0.00781373 0.00781355 0.00781348 0.00781308 0.00781337 0.00781334 0.00781314 0.0078133 0.00781306 0.00781313 0.00781337 0.00781334 0.00781304 0.00781337 0.00781278 0.00781285 0.00781325 0.00781305 0.00781296 0.00781306 0.00781294 0.00781247 0.00781311 0.00781281 0.00781277 0.00781291 0.00781262 0.00781262 0.00781283 0.00781267 0.00781265 0.00781256 0.00781278 0.0078126 0.00781234 0.0078126 0.00781257 0.00781292 0.00781207 0.0078123 0.00781262 0.00781275 0.00781267 0.0078125 0.00781253 0.00781231 0.00781206 0.00781221 0.00781225 0.00781206 0.00786379 0.00785501 0.00787483 0.00786301 0.00785287 0.00785571 0.00784785 0.00784319 0.00785601 0.00785053 0.00784233 0.00784541 0.00784079 0.0078368 0.00784342 0.00784235 0.00783614 0.00783887 0.0078369 0.00783317 0.00783824 0.00783717 0.00783272 0.00783498 0.00783459 0.00783067 0.00783552 0.00783383 0.0078305 0.00783232 0.00783276 0.00782892 0.00783334 0.00783162 0.00782903 0.00783052 0.00783093 0.00782756 0.00783169 0.00782994 0.00782761 0.00782888 0.00782945 0.00782637 0.00783012 0.00782849 0.00782624 0.00782765 0.00782811 0.00782516 0.0078287 0.00782717 0.00782533 0.00782633 0.00782667 0.00782405 0.00782729 0.00782605 0.00782418 0.00782528 0.00782549 0.00782291 0.00782625 0.00782495 0.0078233 0.0078242 0.00782428 0.00782204 0.00782508 0.00782371 0.00782238 0.00782324 0.00782324 0.00782108 0.00782379 0.00782266 0.00782152 0.00782194 0.00782219 0.00782031 0.00782277 0.00782165 0.00782031 0.00782111 0.00782106 0.00781964 0.00782165 0.00782055 0.00781976 0.0078201 0.00782025 0.0078189 0.00782052 0.00782003 0.00781902 0.00781929 0.00781909 0.00781818 0.00781946 0.0078193 0.00781806 0.00781849 0.00781866 0.0078173 0.00781878 0.00781811 0.00781739 0.00781763 0.00781765 0.00781689 0.00781814 0.00781736 0.00781695 0.0078171 0.00781691 0.00781616 0.00781701 0.00781674 0.00781613 0.00781629 0.00781622 0.00781574 0.00781646 0.0078163 0.00781548 0.00781574 0.00781569 0.00781486 0.00781585 0.00781559 0.00781519 0.00781536 0.00781501 0.00781486 0.0078152 0.00781504 0.00781464 0.0078147 0.00781441 0.00781423 0.00781462 0.0078146 0.00781423 0.00781425 0.00781397 0.00781366 0.00781397 0.00781412 0.00781388 0.00781393 0.00781382 0.00781339 0.00781376 0.00781363 0.00781336 0.0078138 0.00781333 0.00781321 0.00781343 0.0078135 0.00781289 0.00781318 0.00781293 0.00781285 0.00781332 0.00781319 0.00781287 0.00781281 0.00781258 0.00781277 0.00781234 0.00781271 0.00781269 0.00781274 0.00781252 0.00781241 0.00781257 0.00781273 0.00781297 0.00781264 0.0078125 0.00781262 0.00781239 0.00781263 0.00781254 0.00781256 0.00781242 0.00781198 0.00781252 0.00781244 0.00781218 0.00781222 0.00787338 0.00786818 0.00791891 0.00788697 0.00786861 0.00787308 0.00785252 0.00785143 0.00785301 0.00786141 0.00785116 0.00785491 0.00784815 0.00784499 0.00784841 0.00785028 0.00784447 0.00784674 0.00784533 0.00784118 0.00784613 0.00784476 0.00784076 0.00784255 0.00784225 0.00783855 0.00784332 0.00784156 0.00783826 0.00783966 0.00784006 0.0078362 0.00784073 0.00783886 0.00783599 0.00783749 0.00783764 0.00783429 0.00783844 0.00783646 0.00783418 0.00783562 0.00783582 0.00783249 0.00783608 0.00783475 0.00783255 0.00783372 0.00783355 0.00783083 0.00783433 0.00783282 0.00783055 0.00783187 0.00783175 0.0078293 0.00783258 0.00783108 0.00782911 0.00783025 0.00783022 0.00782771 0.00783074 0.00782959 0.00782751 0.00782872 0.00782867 0.00782638 0.00782914 0.00782808 0.00782606 0.00782733 0.00782716 0.00782489 0.0078275 0.00782652 0.0078249 0.00782583 0.00782564 0.00782381 0.0078259 0.00782529 0.00782362 0.0078242 0.00782423 0.00782253 0.00782446 0.00782379 0.00782245 0.0078231 0.00782315 0.00782154 0.00782322 0.00782272 0.00782161 0.00782213 0.00782165 0.0078205 0.00782206 0.00782147 0.00782058 0.00782096 0.00782044 0.00781932 0.00782104 0.00782029 0.00781946 0.00781969 0.00781947 0.00781851 0.00781948 0.00781946 0.00781842 0.00781881 0.00781859 0.00781764 0.00781823 0.00781838 0.00781773 0.00781764 0.00781759 0.00781687 0.00781761 0.0078176 0.0078169 0.00781711 0.00781636 0.00781595 0.00781695 0.00781666 0.00781592 0.00781636 0.00781574 0.00781543 0.00781608 0.00781598 0.0078153 0.00781556 0.00781525 0.00781477 0.00781512 0.00781488 0.00781505 0.00781473 0.0078142 0.00781442 0.00781466 0.00781449 0.00781444 0.0078143 0.0078137 0.00781379 0.00781387 0.00781423 0.00781364 0.00781387 0.00781304 0.00781324 0.00781357 0.00781373 0.00781335 0.00781311 0.00781313 0.00781289 0.00781307 0.00781315 0.00781302 0.0078127 0.0078123 0.00781274 0.00781285 0.00781302 0.00781276 0.00781285 0.00781252 0.00781273 0.00781259 0.00781264 0.00781245 0.0078126 0.00781237 0.00781262 0.00781237 0.00781259 0.0078124 0.00781284 0.00781235 0.00781217 0.00781243 0.00781254 0.00781227 0.00781278 0.00775916 0.00774345 0.00774196 0.00772548 0.00775757 0.00775125 0.00777227 0.00777066 0.00776786 0.00776385 0.00777116 0.00776938 0.00777947 0.00777562 0.00777815 0.00777413 0.00777531 0.00777598 0.0077826 0.00777848 0.00778203 0.00777921 0.00777879 0.0077804 0.00778536 0.00778158 0.00778512 0.00778264 0.00778187 0.00778373 0.00778794 0.00778422 0.00778769 0.00778537 0.00778473 0.00778638 0.00779031 0.00778681 0.00778983 0.00778824 0.00778707 0.00778872 0.00779215 0.00778915 0.00779195 0.00779035 0.00778962 0.00779099 0.00779387 0.00779135 0.00779367 0.00779231 0.00779168 0.00779296 0.00779556 0.00779316 0.00779559 0.00779397 0.00779341 0.00779445 0.00779713 0.00779474 0.00779679 0.00779578 0.00779523 0.00779615 0.00779861 0.00779666 0.00779842 0.00779726 0.00779679 0.00779775 0.00780012 0.00779804 0.00779974 0.00779879 0.00779849 0.0077991 0.00780108 0.00779978 0.00780107 0.00780022 0.00780015 0.00780061 0.00780227 0.00780108 0.00780208 0.00780146 0.00780149 0.00780182 0.00780382 0.00780263 0.00780376 0.00780283 0.0078027 0.00780316 0.00780474 0.00780348 0.00780465 0.00780392 0.00780421 0.00780422 0.00780577 0.00780488 0.00780578 0.00780528 0.00780487 0.00780535 0.00780637 0.00780588 0.00780652 0.00780597 0.0078063 0.00780626 0.00780728 0.00780697 0.00780746 0.00780712 0.00780726 0.00780732 0.00780818 0.00780819 0.0078082 0.00780806 0.00780798 0.00780827 0.00780903 0.00780857 0.00780891 0.00780861 0.00780923 0.00780872 0.00780953 0.00780936 0.00780958 0.0078094 0.00780974 0.00780992 0.00781046 0.0078103 0.00781015 0.00781017 0.00781035 0.00781031 0.00781102 0.00781095 0.00781075 0.00781073 0.0078111 0.00781096 0.00781166 0.0078112 0.0078114 0.00781147 0.0078113 0.00781127 0.00781174 0.00781179 0.00781135 0.00781144 0.00781193 0.00781177 0.00781231 0.00781203 0.00781192 0.00781211 0.00781207 0.00781237 0.00781176 0.00781259 0.00781249 0.00781241 0.00781221 0.00781211 0.00781252 0.00781258 0.00781272 0.00781252 0.00781265 0.00781244 0.00781228 0.0078126 0.00781252 0.00781274 0.00781244 0.00781256 0.00781249 0.00781255 0.00781277 0.00781291 0.00781273 0.00781242 0.00777615 0.00776577 0.0077671 0.00776017 0.00776078 0.00776533 0.00778284 0.00777768 0.00777706 0.00777476 0.00777664 0.00777869 0.00778784 0.00778335 0.00778564 0.00778353 0.0077834 0.0077852 0.00779133 0.00778708 0.00779032 0.00778822 0.00778722 0.00778916 0.00779356 0.00778983 0.0077932 0.00779104 0.00779019 0.00779196 0.00779521 0.00779172 0.00779535 0.0077934 0.00779229 0.00779379 0.00779685 0.00779356 0.00779699 0.00779514 0.00779404 0.00779554 0.00779827 0.00779504 0.00779834 0.00779652 0.00779562 0.00779697 0.00779949 0.00779626 0.00779955 0.00779798 0.00779735 0.00779846 0.0078008 0.00779815 0.00780068 0.00779922 0.00779884 0.00779975 0.00780187 0.00779931 0.00780201 0.00780047 0.00780013 0.0078008 0.00780243 0.00780065 0.00780265 0.0078019 0.00780126 0.00780192 0.00780368 0.00780172 0.00780367 0.00780244 0.00780244 0.00780288 0.00780475 0.00780308 0.00780462 0.00780347 0.00780364 0.00780404 0.00780552 0.00780393 0.00780539 0.00780501 0.0078044 0.00780487 0.0078062 0.00780486 0.00780624 0.00780545 0.00780553 0.00780569 0.00780678 0.00780597 0.00780697 0.00780646 0.00780622 0.00780671 0.00780766 0.0078067 0.00780801 0.00780751 0.0078068 0.0078072 0.0078084 0.00780752 0.0078084 0.00780804 0.00780793 0.00780814 0.00780893 0.00780803 0.00780922 0.00780881 0.00780858 0.00780876 0.00780957 0.00780889 0.00780978 0.00780932 0.00780895 0.00780957 0.0078101 0.00780934 0.00780997 0.00780981 0.00780982 0.00781021 0.00781051 0.0078106 0.00781063 0.00781042 0.00781024 0.00781034 0.00781115 0.00781057 0.00781095 0.00781076 0.00781077 0.00781129 0.0078111 0.00781096 0.00781136 0.00781088 0.00781146 0.00781131 0.00781159 0.00781146 0.00781156 0.0078118 0.00781169 0.00781193 0.00781208 0.00781143 0.00781189 0.00781155 0.00781188 0.0078115 0.00781209 0.00781196 0.00781229 0.00781232 0.0078121 0.00781198 0.00781224 0.00781248 0.00781224 0.00781218 0.00781204 0.00781234 0.00781236 0.00781255 0.00781241 0.00781229 0.0078125 0.00781245 0.0078124 0.00781272 0.00781258 0.00781251 0.00781278 0.00781276 0.00781248 0.00781269 0.00781255 0.00781261 0.00781271 0.00781262 0.00779327 0.00778389 0.00778816 0.00778243 0.0077798 0.00778405 0.00779695 0.00778981 0.00779283 0.00778917 0.00778758 0.0077911 0.00779872 0.0077935 0.00779699 0.00779445 0.00779286 0.00779557 0.0078005 0.00779602 0.0078 0.00779763 0.0077962 0.00779811 0.00780172 0.0077979 0.00780187 0.00779975 0.0077982 0.00779999 0.00780287 0.00779921 0.00780305 0.00780113 0.00779954 0.00780101 0.00780358 0.00780038 0.00780398 0.00780239 0.00780101 0.00780198 0.00780448 0.00780131 0.00780458 0.00780306 0.00780181 0.0078031 0.00780513 0.00780235 0.00780534 0.00780389 0.00780298 0.00780381 0.00780602 0.00780327 0.00780596 0.00780466 0.00780374 0.00780468 0.00780652 0.00780394 0.00780689 0.00780532 0.00780452 0.00780567 0.00780696 0.00780487 0.00780719 0.00780598 0.00780524 0.00780611 0.00780755 0.00780576 0.00780772 0.0078066 0.00780609 0.0078066 0.00780816 0.00780633 0.00780822 0.00780734 0.00780699 0.00780742 0.0078085 0.00780713 0.00780874 0.007808 0.00780743 0.00780799 0.00780907 0.00780765 0.007809 0.0078084 0.00780822 0.00780832 0.00780933 0.00780845 0.00780953 0.00780923 0.00780849 0.00780912 0.00780996 0.00780876 0.00780989 0.00780932 0.00780902 0.00780925 0.00781037 0.00780947 0.00781019 0.00780955 0.00780964 0.00781003 0.00781035 0.00781003 0.00781077 0.00781033 0.00780981 0.00781035 0.00781068 0.00781023 0.0078112 0.0078108 0.00781044 0.00781061 0.00781124 0.0078106 0.00781128 0.00781093 0.00781082 0.00781105 0.00781142 0.00781098 0.00781171 0.00781129 0.00781131 0.00781134 0.0078116 0.00781135 0.00781164 0.00781143 0.00781139 0.00781134 0.00781168 0.00781149 0.00781191 0.00781163 0.00781174 0.00781197 0.00781195 0.00781194 0.00781197 0.0078119 0.00781215 0.00781196 0.0078121 0.00781204 0.00781219 0.00781212 0.00781211 0.00781205 0.00781227 0.00781248 0.00781236 0.00781248 0.00781216 0.00781216 0.00781227 0.0078124 0.0078122 0.00781236 0.00781264 0.00781253 0.00781208 0.00781231 0.00781253 0.00781267 0.00781233 0.00781247 0.00781265 0.00781279 0.00781274 0.00781265 0.00781257 0.00781252 0.00781242 0.00781272 0.0078126 0.0078126 0.00781265 0.00781238 0.00781138 0.00780176 0.00780848 0.00780283 0.00779847 0.00780278 0.00781103 0.00780364 0.00780915 0.00780468 0.00780166 0.00780481 0.00781045 0.00780458 0.00780956 0.00780666 0.00780381 0.00780641 0.00781016 0.00780539 0.00781006 0.00780773 0.00780543 0.00780744 0.00781024 0.00780611 0.00781053 0.0078086 0.00780665 0.00780827 0.00781055 0.00780669 0.00781067 0.00780896 0.00780717 0.00780858 0.00781047 0.00780713 0.00781097 0.00780911 0.00780766 0.00780891 0.007811 0.0078075 0.00781107 0.00780952 0.00780829 0.00780944 0.00781074 0.00780802 0.00781132 0.00780974 0.00780843 0.00780957 0.00781119 0.00780844 0.00781142 0.00781005 0.00780896 0.00780985 0.00781125 0.00780868 0.00781133 0.00781022 0.00780932 0.00781009 0.00781138 0.00780921 0.00781152 0.00781051 0.0078095 0.00781051 0.00781165 0.00780959 0.00781175 0.00781083 0.00781006 0.00781071 0.00781147 0.00780978 0.00781169 0.00781081 0.00781015 0.00781082 0.00781146 0.00781012 0.00781175 0.00781115 0.00781034 0.0078108 0.00781175 0.00781031 0.00781204 0.00781141 0.00781043 0.00781122 0.00781187 0.00781076 0.00781233 0.00781155 0.00781093 0.00781162 0.00781203 0.00781059 0.00781236 0.00781143 0.00781126 0.00781161 0.00781185 0.00781112 0.00781234 0.00781169 0.00781135 0.00781168 0.00781211 0.00781131 0.00781227 0.00781198 0.00781131 0.00781183 0.00781229 0.00781192 0.00781248 0.00781197 0.0078119 0.00781206 0.00781226 0.00781174 0.00781227 0.007812 0.00781201 0.00781218 0.00781234 0.00781222 0.00781237 0.00781216 0.00781205 0.00781198 0.0078124 0.00781207 0.00781268 0.00781218 0.00781209 0.00781206 0.00781259 0.00781213 0.00781231 0.00781211 0.00781219 0.00781244 0.00781231 0.00781224 0.00781242 0.00781234 0.00781239 0.0078125 0.00781245 0.00781205 0.00781261 0.00781245 0.00781237 0.00781224 0.00781233 0.00781249 0.00781242 0.00781225 0.00781233 0.0078123 0.00781243 0.00781258 0.00781228 0.00781242 0.00781261 0.0078125 0.00781216 0.00781254 0.00781246 0.00781292 0.0078125 0.00781224 0.0078126 0.00781238 0.00781234 0.00781255 0.00781288 0.00781258 0.00781219 0.00781284 0.00781231 0.00781264 0.0078127 0.00781254 0.00782965 0.00781984 0.00782884 0.00782289 0.00781677 0.00782084 0.00782494 0.00781761 0.00782558 0.00782045 0.00781601 0.0078193 0.00782172 0.0078157 0.00782249 0.00781877 0.00781552 0.00781782 0.00781965 0.00781475 0.00782054 0.00781765 0.00781493 0.00781712 0.0078187 0.00781424 0.00781927 0.00781718 0.00781462 0.00781659 0.00781781 0.00781406 0.00781843 0.00781653 0.00781459 0.00781609 0.00781734 0.00781395 0.00781777 0.00781614 0.00781441 0.0078157 0.007817 0.00781368 0.00781746 0.00781589 0.00781421 0.00781538 0.0078166 0.00781373 0.00781699 0.00781535 0.00781415 0.00781528 0.00781647 0.00781386 0.00781678 0.00781527 0.00781404 0.00781502 0.00781609 0.00781352 0.00781642 0.00781536 0.0078138 0.007815 0.00781568 0.00781352 0.00781619 0.00781477 0.00781376 0.00781496 0.00781552 0.00781361 0.00781582 0.00781459 0.00781389 0.00781435 0.00781511 0.00781351 0.00781532 0.00781485 0.00781367 0.00781416 0.00781471 0.00781359 0.0078152 0.00781436 0.00781331 0.00781418 0.00781459 0.00781299 0.00781501 0.00781401 0.00781345 0.00781393 0.00781451 0.00781317 0.00781457 0.00781396 0.00781343 0.007814 0.00781414 0.00781312 0.00781447 0.00781386 0.00781333 0.00781369 0.00781394 0.00781316 0.00781412 0.0078137 0.00781325 0.00781333 0.00781387 0.00781286 0.0078139 0.00781355 0.00781338 0.00781336 0.00781366 0.00781306 0.0078139 0.0078138 0.00781302 0.00781361 0.00781339 0.0078128 0.00781363 0.007813 0.00781294 0.00781311 0.00781342 0.00781268 0.00781338 0.00781321 0.00781294 0.00781315 0.00781298 0.00781256 0.00781306 0.00781269 0.00781269 0.00781288 0.00781298 0.00781268 0.00781309 0.00781284 0.007813 0.00781253 0.00781298 0.00781292 0.00781245 0.007813 0.00781293 0.00781301 0.00781263 0.00781249 0.00781274 0.00781286 0.0078125 0.00781261 0.00781256 0.00781238 0.00781257 0.00781251 0.00781265 0.00781273 0.00781267 0.00781261 0.0078124 0.00781256 0.00781278 0.00781268 0.00781226 0.0078127 0.00781253 0.00781245 0.00781252 0.00781256 0.00781273 0.00781224 0.00781269 0.0078126 0.00781243 0.0078122 0.00781247 0.00781269 0.00781236 0.0078127 0.00781236 0.00781209 0.00784792 0.00783796 0.00785025 0.00784273 0.00783496 0.00783845 0.00783811 0.0078313 0.00784178 0.00783611 0.00782995 0.00783317 0.00783204 0.00782669 0.00783441 0.00783122 0.00782629 0.00782909 0.00782876 0.00782428 0.00782997 0.0078278 0.00782399 0.00782647 0.0078268 0.00782252 0.00782738 0.00782553 0.00782289 0.00782448 0.00782545 0.00782156 0.00782614 0.00782426 0.00782178 0.00782333 0.00782419 0.00782078 0.0078248 0.00782308 0.00782111 0.00782242 0.00782331 0.00782015 0.00782369 0.00782215 0.0078203 0.00782148 0.00782239 0.00781959 0.00782301 0.00782149 0.00781958 0.00782059 0.00782161 0.00781896 0.00782195 0.00782066 0.00781901 0.00782027 0.00782094 0.00781817 0.00782136 0.00782003 0.00781856 0.00781954 0.00782027 0.0078178 0.00782063 0.00781932 0.00781783 0.00781913 0.00781943 0.00781733 0.00781983 0.00781859 0.0078175 0.00781824 0.00781875 0.00781681 0.00781905 0.00781812 0.00781692 0.00781777 0.00781775 0.00781649 0.00781868 0.00781766 0.0078166 0.0078173 0.00781731 0.007816 0.00781779 0.00781691 0.00781611 0.00781663 0.00781707 0.00781558 0.00781749 0.00781658 0.00781571 0.00781621 0.00781642 0.00781518 0.00781661 0.00781621 0.00781535 0.0078158 0.00781568 0.007815 0.00781606 0.00781579 0.00781508 0.00781528 0.00781522 0.00781457 0.00781546 0.00781536 0.0078143 0.00781475 0.00781492 0.00781444 0.00781512 0.00781469 0.00781443 0.00781469 0.00781468 0.00781414 0.00781475 0.00781447 0.00781397 0.00781435 0.00781431 0.00781357 0.0078144 0.00781396 0.00781392 0.00781402 0.00781383 0.00781343 0.00781403 0.00781407 0.00781362 0.00781378 0.00781341 0.00781307 0.00781383 0.00781352 0.00781344 0.00781335 0.00781322 0.00781276 0.00781348 0.00781349 0.00781289 0.00781329 0.0078132 0.0078127 0.00781322 0.00781304 0.00781295 0.00781284 0.00781316 0.00781255 0.00781291 0.00781264 0.00781264 0.0078128 0.00781259 0.0078126 0.00781278 0.00781299 0.00781272 0.00781281 0.00781256 0.00781249 0.00781258 0.00781248 0.00781257 0.00781276 0.00781265 0.00781241 0.00781242 0.00781234 0.00781257 0.00781262 0.00781268 0.00781234 0.00781252 0.00781237 0.00781264 0.00781254 0.00786411 0.0078552 0.00787441 0.00786309 0.00785271 0.00785581 0.00784809 0.00784279 0.00785597 0.00785057 0.00784218 0.00784566 0.00784089 0.00783642 0.00784368 0.00784175 0.00783632 0.00783919 0.00783723 0.00783293 0.00783834 0.00783687 0.00783279 0.00783516 0.00783464 0.00783064 0.00783535 0.00783361 0.00783081 0.00783257 0.00783267 0.00782912 0.00783336 0.00783177 0.00782905 0.00783051 0.00783076 0.00782749 0.0078319 0.00782978 0.00782769 0.00782898 0.00782941 0.00782631 0.00783015 0.00782864 0.00782651 0.00782762 0.00782818 0.00782495 0.00782855 0.00782702 0.00782541 0.00782618 0.00782683 0.00782423 0.00782724 0.0078262 0.00782413 0.00782505 0.00782564 0.00782318 0.00782595 0.00782486 0.00782332 0.00782412 0.00782449 0.00782199 0.00782503 0.00782371 0.00782221 0.00782318 0.0078234 0.00782115 0.00782385 0.00782248 0.00782132 0.00782225 0.00782231 0.0078205 0.00782245 0.00782165 0.00782035 0.00782127 0.00782103 0.00781958 0.00782169 0.00782079 0.00781963 0.00782045 0.00782011 0.00781871 0.00782065 0.00782006 0.00781896 0.00781948 0.00781934 0.00781806 0.00781973 0.00781917 0.00781804 0.00781874 0.00781842 0.00781732 0.00781875 0.00781817 0.00781746 0.00781801 0.00781761 0.00781679 0.00781812 0.00781736 0.00781667 0.00781736 0.00781682 0.00781627 0.00781745 0.00781674 0.00781629 0.00781656 0.00781627 0.0078155 0.00781654 0.00781615 0.00781542 0.00781608 0.00781563 0.0078151 0.00781573 0.00781558 0.0078151 0.00781531 0.00781507 0.00781481 0.00781526 0.00781525 0.00781458 0.00781476 0.0078144 0.00781417 0.00781468 0.00781445 0.00781409 0.00781438 0.00781403 0.00781377 0.00781421 0.00781403 0.00781389 0.00781378 0.00781365 0.0078135 0.0078136 0.00781373 0.00781384 0.0078136 0.00781325 0.00781298 0.00781342 0.0078136 0.00781305 0.00781321 0.00781288 0.00781292 0.00781308 0.00781292 0.00781303 0.00781303 0.00781266 0.00781285 0.00781294 0.00781273 0.00781252 0.0078129 0.00781244 0.00781271 0.0078125 0.00781253 0.00781251 0.00781268 0.00781238 0.00781273 0.00781239 0.00781245 0.00781227 0.0078124 0.00781264 0.00781234 0.00781248 0.00781228 0.00781238 0.00781196 0.00787362 0.00786817 0.00791863 0.00788672 0.00786874 0.00787359 0.00785253 0.00785124 0.00785294 0.00786147 0.00785118 0.00785525 0.00784869 0.00784484 0.00784845 0.00784993 0.0078444 0.00784727 0.00784511 0.00784127 0.00784598 0.0078447 0.00784089 0.00784273 0.0078427 0.00783842 0.00784318 0.00784137 0.00783827 0.00783999 0.00783979 0.0078362 0.00784046 0.0078388 0.00783609 0.00783746 0.00783775 0.00783431 0.00783821 0.00783659 0.00783375 0.00783537 0.00783563 0.00783227 0.00783629 0.00783454 0.0078325 0.00783363 0.0078337 0.0078308 0.00783434 0.00783305 0.00783049 0.00783191 0.00783197 0.00782931 0.00783268 0.00783118 0.00782932 0.00783025 0.00783038 0.00782764 0.00783067 0.00782947 0.00782768 0.00782883 0.00782886 0.0078263 0.00782921 0.00782792 0.00782638 0.00782718 0.00782712 0.00782503 0.00782765 0.0078265 0.007825 0.00782589 0.00782583 0.00782391 0.00782599 0.00782513 0.00782409 0.00782459 0.00782402 0.00782275 0.00782504 0.00782389 0.0078225 0.00782302 0.00782306 0.00782139 0.00782311 0.00782274 0.00782119 0.00782203 0.00782182 0.00782026 0.00782202 0.00782144 0.00782019 0.00782079 0.0078207 0.00781954 0.00782092 0.00782034 0.00781925 0.00782011 0.00781926 0.00781817 0.00781979 0.00781912 0.00781834 0.00781895 0.00781856 0.00781767 0.00781871 0.00781833 0.00781754 0.00781797 0.0078176 0.00781681 0.00781778 0.00781738 0.00781687 0.00781705 0.00781664 0.00781626 0.00781689 0.00781687 0.00781603 0.00781618 0.00781563 0.0078153 0.00781577 0.00781586 0.00781534 0.00781557 0.0078152 0.00781465 0.007815 0.00781533 0.00781486 0.00781474 0.00781435 0.0078142 0.00781427 0.00781479 0.0078141 0.0078142 0.00781417 0.0078134 0.00781388 0.00781446 0.00781373 0.00781375 0.00781311 0.00781347 0.00781343 0.00781377 0.00781322 0.0078132 0.00781292 0.00781332 0.00781294 0.00781337 0.00781305 0.00781292 0.00781302 0.00781296 0.00781275 0.007813 0.00781275 0.00781276 0.00781254 0.0078125 0.0078127 0.00781267 0.00781262 0.00781255 0.00781272 0.00781231 0.0078123 0.00781261 0.00781243 0.00781226 0.00781226 0.00781265 0.00781244 0.00781282 0.00781224 0.00781214 0.00776014 0.0077461 0.00774294 0.00772719 0.00775924 0.00775221 0.00777312 0.00777244 0.00776889 0.00776535 0.00777198 0.00777019 0.0077803 0.00777661 0.00777889 0.00777538 0.00777627 0.0077771 0.00778331 0.00777936 0.00778273 0.00778012 0.00777938 0.00778088 0.00778564 0.00778192 0.00778542 0.00778369 0.0077825 0.00778405 0.00778804 0.00778446 0.00778767 0.00778588 0.00778504 0.00778651 0.0077904 0.0077869 0.00779 0.00778844 0.00778736 0.00778886 0.00779219 0.00778937 0.00779199 0.00779024 0.00778948 0.00779095 0.00779382 0.00779123 0.00779379 0.00779222 0.00779179 0.00779279 0.00779569 0.00779309 0.00779548 0.00779411 0.00779325 0.00779459 0.0077971 0.00779501 0.00779718 0.00779574 0.00779531 0.00779633 0.00779844 0.00779667 0.00779839 0.00779711 0.00779703 0.00779787 0.00780009 0.00779788 0.00780005 0.00779881 0.00779827 0.00779925 0.00780118 0.00779977 0.0078013 0.00780034 0.00779989 0.00780054 0.0078024 0.007801 0.0078023 0.00780133 0.00780131 0.00780212 0.0078037 0.00780235 0.00780368 0.00780283 0.00780263 0.00780309 0.00780458 0.00780361 0.00780443 0.00780401 0.00780422 0.0078045 0.00780562 0.00780469 0.00780569 0.0078051 0.00780513 0.00780554 0.00780634 0.00780578 0.00780635 0.00780613 0.00780615 0.00780637 0.00780751 0.007807 0.0078076 0.00780682 0.00780686 0.00780727 0.00780847 0.00780763 0.0078085 0.00780788 0.00780805 0.00780835 0.00780898 0.00780863 0.00780928 0.00780863 0.00780876 0.00780906 0.00780959 0.00780955 0.00780984 0.00780948 0.00780953 0.00780984 0.00781027 0.00780992 0.00781032 0.00781011 0.00781044 0.00781033 0.00781081 0.00781042 0.00781071 0.00781057 0.00781079 0.00781086 0.00781141 0.00781106 0.00781151 0.00781128 0.00781147 0.00781121 0.00781163 0.00781153 0.00781165 0.00781166 0.00781163 0.00781175 0.007812 0.0078117 0.00781226 0.0078119 0.0078121 0.00781206 0.0078121 0.00781209 0.00781201 0.00781229 0.00781249 0.00781259 0.0078125 0.00781219 0.00781255 0.00781238 0.00781226 0.00781231 0.00781249 0.00781234 0.00781236 0.00781223 0.00781289 0.00781247 0.00781237 0.00781283 0.00781267 0.00781251 0.00781254 0.00781231 0.00777695 0.00776713 0.00776771 0.00776082 0.00776166 0.00776585 0.00778353 0.00777934 0.00777779 0.0077758 0.00777753 0.00778011 0.00778836 0.00778479 0.00778641 0.0077847 0.00778414 0.00778594 0.00779153 0.00778801 0.0077908 0.00778904 0.00778772 0.00778948 0.00779361 0.00779002 0.00779364 0.00779176 0.00779052 0.00779209 0.00779542 0.00779193 0.00779545 0.00779394 0.00779245 0.00779394 0.00779661 0.00779375 0.00779704 0.00779531 0.00779417 0.00779545 0.0077981 0.00779518 0.00779823 0.00779676 0.00779578 0.00779708 0.00779976 0.00779678 0.0077997 0.00779786 0.00779728 0.00779833 0.00780047 0.00779816 0.0078006 0.00779956 0.00779862 0.00779942 0.00780171 0.00779953 0.00780192 0.00780057 0.00779995 0.00780044 0.00780283 0.00780048 0.00780251 0.00780159 0.00780102 0.00780182 0.0078038 0.00780153 0.00780394 0.00780273 0.00780215 0.00780298 0.00780447 0.00780268 0.00780464 0.00780373 0.00780327 0.00780398 0.00780549 0.00780417 0.00780532 0.00780485 0.00780428 0.00780503 0.00780652 0.00780507 0.00780638 0.00780524 0.0078056 0.00780556 0.00780711 0.00780589 0.00780687 0.0078063 0.00780636 0.00780689 0.00780772 0.00780684 0.00780787 0.00780714 0.00780701 0.00780737 0.0078083 0.00780756 0.0078085 0.0078078 0.00780773 0.00780804 0.0078091 0.00780858 0.00780886 0.00780879 0.00780852 0.00780837 0.00780992 0.00780906 0.00780983 0.00780905 0.00780924 0.00780946 0.00781028 0.00780959 0.00780998 0.00780957 0.0078097 0.00780988 0.00781028 0.00781037 0.00781051 0.00781055 0.00781022 0.00781029 0.00781082 0.00781066 0.00781087 0.00781078 0.00781082 0.00781118 0.00781152 0.00781122 0.00781136 0.00781102 0.00781127 0.00781154 0.00781164 0.00781159 0.00781157 0.0078111 0.00781167 0.00781142 0.00781203 0.00781167 0.00781183 0.00781163 0.007812 0.00781192 0.00781241 0.00781234 0.00781229 0.00781214 0.00781206 0.00781223 0.00781216 0.00781198 0.00781234 0.00781207 0.0078125 0.00781216 0.00781265 0.00781235 0.00781223 0.00781226 0.00781251 0.00781263 0.0078127 0.00781253 0.00781241 0.00781241 0.00781254 0.00781248 0.0078126 0.00781265 0.0078125 0.0078127 0.00781264 0.00781275 0.00779364 0.00778446 0.0077884 0.00778279 0.00778017 0.00778454 0.00779724 0.00779107 0.00779321 0.00778946 0.00778821 0.00779177 0.00779908 0.00779461 0.00779733 0.00779521 0.00779342 0.00779601 0.00780068 0.00779656 0.00780029 0.00779861 0.00779647 0.00779871 0.00780199 0.00779805 0.00780191 0.00780026 0.00779857 0.00780033 0.00780298 0.00779926 0.00780296 0.00780133 0.00779981 0.00780136 0.00780367 0.00780038 0.00780405 0.00780249 0.00780109 0.00780219 0.00780452 0.00780133 0.00780453 0.00780314 0.00780192 0.00780325 0.00780533 0.00780227 0.00780565 0.00780394 0.00780291 0.00780418 0.00780596 0.00780328 0.00780608 0.00780454 0.00780403 0.0078049 0.00780667 0.007804 0.00780669 0.00780545 0.00780444 0.00780542 0.00780723 0.00780482 0.00780736 0.007806 0.00780537 0.00780611 0.00780739 0.00780554 0.00780768 0.00780656 0.00780631 0.00780701 0.00780814 0.00780628 0.00780831 0.0078073 0.00780691 0.00780765 0.00780874 0.00780698 0.00780876 0.00780766 0.00780743 0.00780785 0.00780909 0.00780731 0.00780888 0.00780832 0.00780809 0.00780844 0.00780961 0.00780851 0.00780955 0.00780903 0.00780858 0.00780894 0.00780997 0.00780883 0.00781008 0.00780957 0.00780905 0.00780956 0.00780997 0.00780926 0.00781046 0.00780976 0.00780952 0.00780987 0.00781041 0.00780974 0.00781077 0.00781027 0.00780971 0.00781005 0.00781092 0.00780987 0.00781097 0.00781036 0.00781022 0.00781027 0.00781147 0.00781073 0.00781139 0.00781097 0.00781082 0.0078109 0.00781169 0.00781073 0.0078114 0.00781126 0.00781116 0.00781105 0.00781187 0.00781101 0.00781165 0.00781141 0.00781117 0.00781158 0.00781159 0.0078113 0.00781183 0.00781144 0.00781184 0.00781166 0.00781187 0.00781197 0.00781192 0.00781192 0.007812 0.00781187 0.00781225 0.00781216 0.00781203 0.00781222 0.00781193 0.00781219 0.00781228 0.00781234 0.00781232 0.00781203 0.00781215 0.00781226 0.00781227 0.00781226 0.00781254 0.00781259 0.00781229 0.00781233 0.00781237 0.00781252 0.00781236 0.00781249 0.00781256 0.00781235 0.00781266 0.00781276 0.00781234 0.00781259 0.00781258 0.00781262 0.00781283 0.00781205 0.00781273 0.00781258 0.00781229 0.00781295 0.00781146 0.00780196 0.0078083 0.00780318 0.00779863 0.00780323 0.00781106 0.00780407 0.00780909 0.0078049 0.00780177 0.00780508 0.00781027 0.00780481 0.00780974 0.00780701 0.00780404 0.00780663 0.00781015 0.00780554 0.00781036 0.00780798 0.0078057 0.00780775 0.00781028 0.00780586 0.00781037 0.00780869 0.00780647 0.0078081 0.00781016 0.00780667 0.00781065 0.00780896 0.0078071 0.00780872 0.00781034 0.00780716 0.00781113 0.00780908 0.00780769 0.00780907 0.00781074 0.00780768 0.00781104 0.00780967 0.00780816 0.00780928 0.00781107 0.00780821 0.00781137 0.00780979 0.00780825 0.00780984 0.00781122 0.00780858 0.00781155 0.00780996 0.00780928 0.00780994 0.00781132 0.00780905 0.00781147 0.00781043 0.00780909 0.00780984 0.00781157 0.00780919 0.00781173 0.00781043 0.00780947 0.00781048 0.00781144 0.00780953 0.00781166 0.00781066 0.00780994 0.00781047 0.00781156 0.00780999 0.00781186 0.0078109 0.00781022 0.0078109 0.00781162 0.0078101 0.00781201 0.00781129 0.00781052 0.00781117 0.00781184 0.00781032 0.00781225 0.00781121 0.00781091 0.00781095 0.00781182 0.00781051 0.007812 0.00781155 0.00781095 0.00781122 0.0078119 0.00781083 0.00781198 0.00781139 0.00781098 0.00781145 0.00781201 0.0078112 0.00781207 0.00781173 0.00781138 0.00781171 0.00781221 0.00781127 0.00781221 0.00781167 0.00781125 0.00781171 0.00781237 0.00781151 0.00781238 0.00781179 0.00781174 0.00781219 0.00781206 0.00781155 0.00781232 0.00781201 0.00781203 0.00781191 0.00781211 0.00781154 0.00781236 0.00781213 0.00781194 0.00781228 0.00781238 0.0078119 0.00781247 0.00781237 0.00781212 0.0078122 0.00781207 0.00781215 0.00781234 0.00781239 0.00781225 0.00781222 0.00781238 0.00781245 0.00781231 0.0078127 0.0078119 0.0078123 0.00781227 0.00781203 0.00781271 0.00781217 0.00781242 0.00781241 0.0078125 0.00781211 0.00781265 0.00781224 0.00781239 0.00781256 0.00781236 0.00781261 0.0078127 0.0078125 0.00781241 0.00781256 0.00781271 0.00781236 0.0078126 0.00781247 0.00781249 0.00781211 0.00781252 0.00781259 0.00781272 0.00781262 0.00781309 0.0078124 0.00781253 0.00781247 0.00781236 0.00781248 0.00781271 0.00781286 0.00782958 0.00782 0.00782845 0.00782301 0.00781643 0.00782075 0.00782462 0.00781727 0.00782523 0.00782051 0.00781552 0.0078191 0.00782119 0.00781578 0.00782211 0.00781858 0.00781513 0.00781789 0.00781937 0.00781469 0.00782026 0.00781778 0.00781492 0.00781712 0.00781844 0.0078141 0.00781897 0.00781682 0.00781464 0.00781633 0.00781798 0.00781412 0.00781852 0.00781673 0.00781442 0.00781622 0.00781739 0.00781413 0.00781789 0.00781613 0.00781409 0.00781563 0.00781711 0.0078138 0.00781737 0.00781574 0.00781428 0.00781553 0.00781661 0.0078137 0.00781721 0.00781562 0.00781424 0.0078154 0.00781634 0.00781359 0.00781692 0.00781562 0.00781409 0.00781508 0.00781609 0.00781356 0.00781625 0.00781522 0.00781405 0.00781498 0.00781567 0.00781363 0.00781626 0.00781519 0.00781398 0.00781466 0.00781543 0.0078135 0.00781585 0.00781476 0.00781375 0.00781451 0.00781516 0.00781367 0.00781531 0.00781458 0.00781369 0.00781457 0.0078147 0.00781346 0.0078156 0.00781418 0.00781337 0.00781396 0.00781469 0.00781338 0.00781474 0.00781413 0.00781343 0.00781411 0.00781449 0.00781309 0.00781479 0.00781407 0.0078132 0.00781398 0.00781425 0.00781302 0.00781451 0.00781368 0.00781348 0.00781367 0.00781401 0.00781287 0.00781402 0.00781362 0.00781315 0.00781367 0.00781367 0.00781303 0.00781401 0.00781356 0.0078128 0.0078131 0.00781342 0.00781288 0.00781378 0.00781338 0.00781304 0.00781333 0.00781337 0.00781289 0.00781376 0.00781327 0.00781293 0.00781316 0.00781317 0.0078127 0.00781327 0.00781295 0.00781288 0.00781334 0.00781325 0.00781265 0.00781327 0.00781304 0.00781279 0.00781301 0.00781294 0.00781282 0.00781296 0.00781305 0.00781298 0.00781293 0.00781296 0.00781255 0.00781289 0.00781301 0.00781277 0.00781276 0.00781284 0.00781272 0.0078129 0.00781259 0.00781264 0.00781284 0.00781251 0.00781261 0.00781263 0.00781258 0.00781286 0.00781271 0.0078124 0.00781246 0.00781259 0.00781249 0.00781262 0.00781262 0.00781249 0.00781272 0.00781257 0.00781283 0.00781262 0.00781254 0.0078124 0.00781253 0.00781271 0.00781237 0.00781234 0.00781253 0.00781228 0.00781255 0.00781272 0.00781266 0.00781256 0.0078127 0.00784739 0.00783731 0.00784941 0.00784258 0.00783439 0.00783832 0.00783744 0.00783003 0.00784087 0.00783554 0.00782901 0.00783264 0.00783134 0.00782614 0.00783379 0.0078303 0.00782615 0.00782871 0.0078283 0.00782372 0.00782961 0.00782701 0.00782388 0.00782615 0.00782659 0.00782253 0.00782727 0.00782529 0.00782259 0.00782445 0.00782534 0.00782147 0.00782578 0.00782392 0.00782169 0.00782336 0.00782415 0.00782077 0.00782488 0.00782283 0.00782095 0.00782239 0.00782331 0.00782004 0.00782375 0.007822 0.00782053 0.00782139 0.00782231 0.00781953 0.00782275 0.00782154 0.00781963 0.00782094 0.00782168 0.00781892 0.00782196 0.00782078 0.00781917 0.00782027 0.00782086 0.00781856 0.00782122 0.0078202 0.00781872 0.00781957 0.00782004 0.0078179 0.00782038 0.00781939 0.00781799 0.00781884 0.00781943 0.00781738 0.00781973 0.00781876 0.0078175 0.00781858 0.00781886 0.00781665 0.0078193 0.0078181 0.00781731 0.00781784 0.00781805 0.0078165 0.00781828 0.00781733 0.0078164 0.00781716 0.00781742 0.00781573 0.00781772 0.00781708 0.00781614 0.00781677 0.00781657 0.0078158 0.00781726 0.00781647 0.00781561 0.00781628 0.00781619 0.0078152 0.00781663 0.00781591 0.00781558 0.00781571 0.00781586 0.00781499 0.00781599 0.00781563 0.00781517 0.00781515 0.00781519 0.00781475 0.00781541 0.00781537 0.00781477 0.00781492 0.00781492 0.00781423 0.00781524 0.00781498 0.00781463 0.0078144 0.00781434 0.00781389 0.00781451 0.00781439 0.00781374 0.00781464 0.00781395 0.00781375 0.00781455 0.0078136 0.00781384 0.00781389 0.00781395 0.00781366 0.00781424 0.00781375 0.00781367 0.00781362 0.00781317 0.00781315 0.00781362 0.00781378 0.00781327 0.00781345 0.00781316 0.00781297 0.00781357 0.00781339 0.00781307 0.00781321 0.00781293 0.00781291 0.00781299 0.00781304 0.00781328 0.00781321 0.00781276 0.00781282 0.00781277 0.00781292 0.00781288 0.00781262 0.00781282 0.00781291 0.00781248 0.00781285 0.00781288 0.00781269 0.00781275 0.00781256 0.00781269 0.0078127 0.00781245 0.00781248 0.00781271 0.00781247 0.0078127 0.00781256 0.00781234 0.00781236 0.0078128 0.00781238 0.00781254 0.00781228 0.00781225 0.00781257 0.00786353 0.00785396 0.00787349 0.00786292 0.00785163 0.00785565 0.00784726 0.00784151 0.00785453 0.00784972 0.00784166 0.00784512 0.0078403 0.00783554 0.00784261 0.00784086 0.0078356 0.00783883 0.00783671 0.00783238 0.00783772 0.00783578 0.00783241 0.00783484 0.00783442 0.00783029 0.00783521 0.00783295 0.00783043 0.00783207 0.00783261 0.00782877 0.00783313 0.00783137 0.00782886 0.00783028 0.00783097 0.00782751 0.00783139 0.00782973 0.00782755 0.00782876 0.00782948 0.00782628 0.00783001 0.00782847 0.00782637 0.00782753 0.00782822 0.00782509 0.00782879 0.00782723 0.00782508 0.0078265 0.00782682 0.00782414 0.00782727 0.0078259 0.00782429 0.00782529 0.00782547 0.00782318 0.00782622 0.00782498 0.0078235 0.00782409 0.0078243 0.00782226 0.00782493 0.00782381 0.00782229 0.00782295 0.00782317 0.0078213 0.00782378 0.00782298 0.00782151 0.00782227 0.00782201 0.00782028 0.00782275 0.00782182 0.00782051 0.00782133 0.00782117 0.00781962 0.00782141 0.00782081 0.00781994 0.00782032 0.00782015 0.0078188 0.00782061 0.00782003 0.00781906 0.00781937 0.00781937 0.00781826 0.00781982 0.00781902 0.00781818 0.00781881 0.00781824 0.00781736 0.00781871 0.00781851 0.00781724 0.00781797 0.00781784 0.00781676 0.00781796 0.00781742 0.00781722 0.00781742 0.00781671 0.00781597 0.00781721 0.00781701 0.00781626 0.0078165 0.00781633 0.00781573 0.00781684 0.00781637 0.00781585 0.00781598 0.00781538 0.00781485 0.00781588 0.00781586 0.00781506 0.00781548 0.00781481 0.00781468 0.00781531 0.00781491 0.00781457 0.00781494 0.00781445 0.00781417 0.00781469 0.00781428 0.00781422 0.00781439 0.00781415 0.00781377 0.0078143 0.00781416 0.00781376 0.00781406 0.00781374 0.00781349 0.00781352 0.00781398 0.00781333 0.00781348 0.00781352 0.00781287 0.0078135 0.00781337 0.0078128 0.00781329 0.00781308 0.00781295 0.00781317 0.0078132 0.00781308 0.00781302 0.00781278 0.00781239 0.00781278 0.00781299 0.00781254 0.00781264 0.00781278 0.00781274 0.00781255 0.00781266 0.00781247 0.00781285 0.0078125 0.0078126 0.00781261 0.00781255 0.00781246 0.00781231 0.00781223 0.0078125 0.00781262 0.00781251 0.00781233 0.00781219 0.00787229 0.00786673 0.00791566 0.00788573 0.00786728 0.00787294 0.00785175 0.00784959 0.00785157 0.00786032 0.00785022 0.00785455 0.00784774 0.00784349 0.00784729 0.00784876 0.00784384 0.00784663 0.00784479 0.00784035 0.00784532 0.00784375 0.00784038 0.00784229 0.00784225 0.00783799 0.0078428 0.0078406 0.00783813 0.00783965 0.00784005 0.00783603 0.0078403 0.00783861 0.00783579 0.00783746 0.0078379 0.00783399 0.00783856 0.00783636 0.00783383 0.0078355 0.00783537 0.00783242 0.00783623 0.00783435 0.00783212 0.00783348 0.00783385 0.0078309 0.00783428 0.00783288 0.00783068 0.00783183 0.00783192 0.00782927 0.00783249 0.00783103 0.00782927 0.00783029 0.00783014 0.00782752 0.00783072 0.00782954 0.00782761 0.00782878 0.00782893 0.00782666 0.00782933 0.00782816 0.00782642 0.00782719 0.00782697 0.00782501 0.00782768 0.00782663 0.00782501 0.00782582 0.00782558 0.00782408 0.00782606 0.00782529 0.00782391 0.00782467 0.00782411 0.00782271 0.00782428 0.0078239 0.00782263 0.00782313 0.00782306 0.00782148 0.00782322 0.00782263 0.00782134 0.00782209 0.00782179 0.00782049 0.00782199 0.00782137 0.00782053 0.00782061 0.0078206 0.00781943 0.00782094 0.00782063 0.0078194 0.00781982 0.00781938 0.0078185 0.00781993 0.00781914 0.00781853 0.00781897 0.00781826 0.00781768 0.00781868 0.00781828 0.00781748 0.00781799 0.00781756 0.0078171 0.00781784 0.00781764 0.00781681 0.00781712 0.00781696 0.00781632 0.00781707 0.00781698 0.0078161 0.00781627 0.00781586 0.00781528 0.007816 0.00781551 0.00781531 0.00781566 0.00781552 0.00781507 0.00781527 0.00781513 0.00781489 0.00781512 0.00781439 0.00781427 0.00781456 0.00781458 0.00781432 0.0078143 0.00781406 0.00781367 0.00781382 0.00781392 0.00781385 0.00781386 0.00781361 0.00781341 0.00781342 0.00781351 0.00781363 0.00781316 0.00781321 0.00781302 0.00781338 0.0078136 0.00781317 0.00781308 0.00781233 0.00781283 0.00781259 0.00781316 0.00781282 0.00781289 0.00781274 0.00781258 0.00781267 0.00781301 0.00781264 0.00781248 0.00781233 0.00781229 0.00781278 0.00781273 0.0078127 0.00781229 0.00781256 0.00781278 0.00781255 0.00781249 0.00781214 0.00781241 0.00776267 0.00775119 0.00774477 0.00772957 0.00776209 0.00775478 0.00777587 0.00777584 0.00777142 0.00776821 0.00777418 0.00777272 0.00778212 0.00777883 0.00778092 0.00777814 0.00777783 0.00777867 0.00778438 0.00778102 0.00778423 0.00778236 0.00778074 0.00778221 0.00778648 0.00778293 0.00778638 0.00778506 0.00778332 0.00778463 0.00778852 0.00778518 0.00778847 0.00778677 0.00778527 0.00778704 0.00779039 0.00778748 0.00779039 0.00778885 0.00778753 0.00778895 0.00779224 0.0077894 0.00779226 0.00779054 0.00778986 0.00779105 0.00779401 0.0077913 0.00779394 0.00779236 0.00779142 0.0077928 0.00779554 0.00779345 0.00779543 0.00779408 0.0077937 0.00779476 0.00779723 0.00779485 0.00779688 0.00779558 0.00779487 0.00779626 0.00779855 0.00779649 0.00779869 0.00779712 0.00779678 0.0077977 0.00779974 0.0077981 0.00779949 0.00779869 0.00779865 0.00779918 0.00780122 0.00779961 0.00780087 0.00779987 0.00779969 0.00780056 0.00780246 0.00780113 0.00780219 0.00780127 0.00780119 0.00780189 0.00780349 0.00780194 0.00780336 0.00780252 0.0078025 0.00780313 0.00780453 0.00780359 0.00780469 0.00780372 0.00780402 0.00780429 0.00780551 0.00780466 0.00780547 0.00780495 0.00780495 0.00780515 0.00780663 0.00780608 0.00780652 0.00780609 0.00780596 0.00780619 0.0078076 0.00780691 0.00780739 0.00780692 0.00780681 0.00780726 0.00780812 0.00780758 0.00780824 0.00780782 0.00780819 0.00780802 0.00780912 0.00780845 0.00780895 0.00780847 0.00780858 0.00780911 0.00780952 0.00780958 0.00780973 0.00780922 0.00780953 0.00780962 0.00781045 0.00780998 0.00781018 0.00780968 0.00781028 0.00781011 0.00781111 0.00781047 0.0078107 0.0078105 0.00781061 0.00781086 0.00781134 0.00781126 0.00781144 0.00781096 0.00781108 0.00781128 0.00781128 0.0078116 0.00781143 0.00781113 0.00781194 0.00781143 0.00781199 0.00781226 0.00781182 0.00781171 0.00781213 0.00781208 0.00781239 0.00781208 0.00781215 0.00781212 0.00781228 0.00781228 0.00781238 0.00781231 0.00781232 0.00781203 0.00781265 0.00781219 0.00781263 0.00781247 0.00781245 0.00781265 0.0078127 0.00781242 0.00781273 0.00781267 0.0078126 0.00781273 0.00781243 0.0078124 0.0077788 0.00777063 0.00776847 0.00776162 0.00776348 0.00776762 0.00778557 0.00778309 0.0077796 0.00777868 0.00777945 0.00778181 0.00778994 0.00778727 0.00778788 0.0077879 0.00778586 0.00778783 0.00779247 0.00778952 0.00779217 0.00779135 0.00778898 0.0077909 0.00779445 0.00779095 0.00779454 0.00779298 0.00779119 0.00779292 0.00779604 0.0077926 0.00779598 0.00779454 0.00779306 0.00779439 0.00779715 0.00779386 0.00779706 0.0077956 0.00779439 0.00779578 0.00779838 0.00779525 0.00779842 0.00779681 0.00779592 0.00779709 0.00779959 0.0077968 0.00779978 0.00779828 0.00779748 0.00779841 0.00780063 0.00779818 0.00780068 0.00779961 0.0077987 0.00779945 0.00780175 0.00779898 0.00780187 0.00780048 0.00779979 0.0078008 0.00780277 0.00780081 0.00780264 0.00780149 0.00780127 0.00780201 0.00780363 0.00780165 0.00780391 0.00780262 0.00780211 0.00780308 0.00780472 0.00780301 0.00780469 0.00780367 0.00780353 0.00780407 0.00780555 0.00780401 0.00780534 0.0078045 0.00780442 0.00780494 0.00780626 0.0078049 0.00780624 0.0078056 0.00780537 0.00780593 0.00780646 0.00780621 0.00780687 0.00780653 0.00780633 0.00780661 0.00780763 0.00780681 0.00780774 0.00780696 0.00780716 0.00780728 0.00780827 0.00780752 0.00780822 0.00780805 0.00780755 0.00780799 0.00780883 0.0078082 0.00780908 0.00780862 0.00780834 0.00780888 0.00780951 0.00780869 0.00780963 0.00780875 0.00780914 0.00780932 0.00781023 0.00780938 0.00781012 0.00781002 0.00780966 0.00781001 0.00781064 0.00781022 0.00781043 0.00781004 0.0078102 0.00781062 0.00781122 0.00781043 0.00781078 0.00781075 0.00781083 0.00781086 0.00781094 0.00781081 0.00781116 0.00781102 0.00781117 0.00781121 0.00781143 0.00781122 0.00781169 0.00781133 0.00781167 0.0078117 0.0078119 0.00781185 0.00781175 0.00781183 0.00781197 0.00781168 0.0078121 0.00781166 0.00781209 0.00781206 0.00781182 0.00781182 0.007812 0.00781208 0.00781228 0.00781224 0.00781248 0.00781202 0.00781246 0.00781276 0.00781236 0.0078126 0.00781233 0.00781222 0.00781247 0.00781273 0.00781246 0.00781224 0.00781266 0.00781255 0.007813 0.00781254 0.0078125 0.00781275 0.00781272 0.00781301 0.00779488 0.00778671 0.00778871 0.00778339 0.00778121 0.00778552 0.00779832 0.00779382 0.00779441 0.00779181 0.00778985 0.00779315 0.00780003 0.00779628 0.00779861 0.00779739 0.00779507 0.00779739 0.00780147 0.00779753 0.0078011 0.0077999 0.00779753 0.00779935 0.00780222 0.00779876 0.00780265 0.00780118 0.00779899 0.0078008 0.00780319 0.00779968 0.0078036 0.00780173 0.00780024 0.00780171 0.0078038 0.00780053 0.00780425 0.0078025 0.00780123 0.00780235 0.00780487 0.00780169 0.00780478 0.0078031 0.00780194 0.00780323 0.00780535 0.0078026 0.0078055 0.00780394 0.00780284 0.00780416 0.00780601 0.00780317 0.00780624 0.00780472 0.00780377 0.00780494 0.00780657 0.00780427 0.00780678 0.00780528 0.00780456 0.0078053 0.00780693 0.00780481 0.0078072 0.0078063 0.00780526 0.0078062 0.00780768 0.0078056 0.00780771 0.00780644 0.00780615 0.00780682 0.00780819 0.00780657 0.00780824 0.00780747 0.00780671 0.00780745 0.00780868 0.00780716 0.00780894 0.00780788 0.00780733 0.00780812 0.00780894 0.0078075 0.00780915 0.00780818 0.00780811 0.0078083 0.00780925 0.00780805 0.00780932 0.00780881 0.00780855 0.00780916 0.00780984 0.00780888 0.00780993 0.00780942 0.00780922 0.00780942 0.00781023 0.00780906 0.00781019 0.00780984 0.00780965 0.00780988 0.00781066 0.00780947 0.0078107 0.00780988 0.0078099 0.0078103 0.00781087 0.00781017 0.00781126 0.00781071 0.00781048 0.00781075 0.0078111 0.00781051 0.00781111 0.007811 0.0078108 0.00781122 0.00781126 0.00781087 0.00781149 0.00781125 0.00781117 0.00781086 0.0078113 0.00781105 0.00781167 0.00781127 0.00781147 0.00781147 0.00781185 0.00781121 0.00781189 0.00781181 0.00781151 0.00781172 0.00781206 0.00781204 0.0078122 0.00781194 0.00781165 0.00781211 0.0078117 0.00781199 0.00781193 0.00781168 0.00781254 0.00781242 0.00781199 0.00781208 0.00781233 0.00781192 0.00781267 0.00781217 0.00781226 0.00781241 0.00781238 0.00781251 0.00781227 0.0078121 0.00781224 0.00781241 0.00781254 0.00781224 0.00781273 0.00781264 0.00781221 0.00781242 0.00781277 0.00781252 0.00781272 0.00781274 0.00781254 0.00781247 0.00781275 0.00781273 0.00781292 0.00781262 0.00781166 0.00780282 0.00780819 0.00780346 0.00779883 0.00780331 0.00781099 0.00780535 0.00780931 0.00780566 0.00780226 0.0078055 0.00781057 0.00780561 0.00781018 0.00780753 0.00780483 0.00780694 0.00781039 0.00780614 0.00781052 0.00780873 0.00780628 0.00780815 0.00781037 0.00780673 0.00781079 0.00780883 0.00780679 0.00780858 0.00781041 0.00780708 0.00781092 0.00780912 0.0078073 0.00780891 0.00781056 0.00780738 0.00781103 0.00780926 0.0078078 0.00780912 0.00781089 0.00780764 0.00781106 0.00780945 0.00780837 0.00780954 0.00781101 0.00780805 0.00781119 0.0078097 0.00780865 0.00780956 0.00781121 0.00780875 0.00781148 0.00781 0.00780896 0.00780993 0.00781124 0.0078092 0.00781139 0.00780993 0.00780939 0.00781041 0.00781136 0.00780943 0.00781173 0.00781051 0.00780931 0.00781022 0.00781169 0.00780943 0.00781189 0.00781073 0.00780999 0.00781042 0.00781175 0.00780972 0.00781168 0.00781101 0.00780996 0.00781092 0.00781168 0.00781013 0.00781204 0.00781114 0.00781018 0.00781091 0.00781175 0.00781047 0.00781215 0.00781137 0.00781059 0.0078111 0.00781202 0.00781057 0.00781216 0.00781133 0.00781088 0.00781143 0.00781211 0.00781107 0.00781224 0.0078115 0.00781108 0.00781149 0.0078122 0.00781109 0.00781226 0.00781158 0.00781126 0.00781175 0.00781216 0.00781153 0.00781217 0.00781177 0.00781166 0.00781164 0.00781228 0.00781165 0.00781218 0.00781199 0.00781168 0.00781188 0.00781226 0.00781181 0.00781237 0.00781214 0.00781185 0.0078121 0.00781243 0.0078116 0.00781224 0.00781194 0.00781218 0.00781239 0.00781257 0.00781212 0.00781248 0.00781235 0.00781189 0.00781241 0.00781263 0.00781223 0.00781258 0.00781228 0.00781223 0.00781235 0.0078126 0.00781214 0.00781261 0.00781208 0.00781211 0.00781239 0.00781265 0.00781238 0.00781229 0.00781245 0.00781226 0.00781246 0.00781248 0.00781242 0.00781251 0.00781231 0.00781231 0.00781237 0.00781257 0.00781258 0.00781252 0.0078125 0.00781254 0.00781223 0.00781251 0.00781265 0.00781228 0.00781266 0.0078124 0.00781243 0.00781245 0.00781289 0.00781244 0.00781238 0.00781219 0.00781268 0.00781235 0.00781247 0.00781239 0.00781269 0.00781226 0.00781273 0.00782878 0.00781907 0.0078279 0.00782299 0.00781576 0.00782077 0.00782367 0.00781646 0.00782457 0.00781947 0.00781536 0.00781842 0.00782049 0.00781535 0.00782167 0.00781778 0.00781495 0.00781734 0.00781932 0.00781457 0.00781973 0.00781703 0.00781486 0.00781675 0.00781852 0.00781429 0.00781888 0.00781677 0.00781467 0.00781648 0.00781776 0.00781427 0.00781833 0.00781652 0.00781476 0.00781603 0.00781745 0.00781402 0.00781784 0.00781603 0.00781438 0.00781557 0.00781706 0.00781393 0.00781764 0.00781616 0.00781402 0.00781567 0.00781682 0.00781381 0.00781716 0.00781551 0.00781439 0.007815 0.00781626 0.0078138 0.0078166 0.0078154 0.00781423 0.00781491 0.00781599 0.00781373 0.00781642 0.00781528 0.00781399 0.00781495 0.00781586 0.0078136 0.00781607 0.00781489 0.0078138 0.00781468 0.00781558 0.00781349 0.0078158 0.00781475 0.00781361 0.00781462 0.00781495 0.0078135 0.0078155 0.00781445 0.007814 0.00781428 0.00781471 0.00781357 0.00781508 0.00781468 0.00781349 0.00781441 0.0078147 0.00781324 0.00781504 0.00781388 0.00781351 0.00781383 0.00781432 0.00781316 0.00781448 0.00781416 0.00781317 0.00781368 0.0078142 0.0078131 0.00781476 0.00781392 0.00781307 0.0078135 0.00781417 0.00781322 0.00781451 0.00781386 0.00781331 0.00781353 0.0078137 0.00781268 0.00781418 0.00781357 0.00781324 0.00781354 0.00781354 0.00781292 0.00781384 0.00781379 0.00781301 0.00781337 0.00781348 0.00781288 0.00781345 0.00781323 0.00781307 0.00781332 0.00781314 0.00781267 0.00781306 0.00781313 0.00781297 0.00781307 0.00781311 0.00781251 0.00781322 0.00781309 0.00781276 0.00781295 0.0078132 0.00781251 0.0078132 0.00781281 0.0078127 0.00781289 0.00781296 0.00781272 0.00781319 0.00781294 0.00781281 0.00781297 0.00781281 0.00781262 0.00781318 0.00781251 0.00781281 0.0078128 0.00781236 0.00781272 0.00781254 0.00781284 0.00781273 0.00781262 0.00781265 0.00781243 0.00781261 0.00781252 0.00781281 0.00781262 0.00781253 0.00781261 0.00781216 0.00781244 0.00781263 0.00781259 0.00781257 0.00781252 0.00781266 0.00781266 0.00781273 0.0078127 0.00781262 0.0078125 0.00781238 0.00781239 0.00781234 0.00781243 0.00784584 0.00783541 0.00784816 0.00784242 0.00783279 0.00783755 0.00783533 0.00782783 0.00783937 0.00783355 0.00782794 0.00783116 0.00783007 0.00782427 0.00783235 0.00782818 0.00782489 0.00782747 0.00782743 0.00782273 0.00782828 0.00782581 0.00782351 0.00782532 0.00782618 0.00782189 0.0078265 0.00782471 0.00782245 0.00782409 0.00782504 0.00782127 0.00782569 0.00782378 0.00782155 0.00782301 0.00782388 0.00782073 0.00782443 0.00782269 0.0078209 0.00782244 0.007823 0.00782024 0.00782379 0.00782215 0.00782039 0.00782152 0.00782264 0.00781952 0.00782285 0.00782145 0.00781972 0.00782083 0.00782166 0.00781924 0.00782226 0.00782092 0.00781912 0.00782028 0.00782075 0.00781843 0.00782124 0.00782004 0.00781858 0.00781957 0.00782033 0.00781793 0.00782062 0.00781953 0.00781828 0.0078189 0.00781956 0.00781729 0.00781966 0.0078188 0.00781753 0.00781821 0.00781877 0.00781709 0.00781919 0.00781832 0.00781716 0.00781769 0.00781809 0.0078164 0.00781836 0.00781756 0.00781664 0.00781734 0.00781759 0.00781615 0.00781787 0.00781713 0.00781632 0.00781666 0.00781693 0.00781574 0.00781735 0.00781668 0.00781569 0.00781613 0.00781637 0.00781527 0.00781684 0.0078163 0.00781511 0.00781593 0.00781585 0.00781494 0.00781606 0.00781561 0.00781503 0.00781569 0.00781571 0.00781474 0.00781574 0.00781519 0.0078147 0.00781471 0.00781498 0.00781434 0.00781498 0.00781491 0.00781423 0.00781448 0.00781439 0.007814 0.00781504 0.0078144 0.00781425 0.0078143 0.00781413 0.00781371 0.00781426 0.0078142 0.00781411 0.00781421 0.00781378 0.00781357 0.00781398 0.0078138 0.00781362 0.00781391 0.00781358 0.00781303 0.00781362 0.00781347 0.00781335 0.00781328 0.00781338 0.00781346 0.00781328 0.00781335 0.00781316 0.00781334 0.007813 0.007813 0.00781311 0.00781333 0.00781307 0.00781285 0.00781303 0.00781271 0.00781312 0.00781298 0.00781285 0.00781293 0.00781275 0.00781261 0.00781283 0.00781277 0.00781269 0.0078128 0.00781267 0.00781255 0.00781261 0.00781257 0.00781275 0.0078127 0.00781257 0.00781248 0.0078127 0.00781264 0.00781249 0.00781244 0.00781221 0.00781255 0.00781235 0.00781224 0.00781248 0.0078123 0.00786106 0.00785091 0.00787191 0.00786298 0.00784964 0.00785425 0.00784488 0.00783792 0.00785205 0.00784669 0.00783971 0.0078433 0.00783846 0.00783304 0.00784067 0.00783796 0.0078343 0.00783701 0.00783588 0.00783104 0.00783651 0.00783415 0.00783159 0.00783371 0.00783389 0.00782963 0.00783413 0.00783208 0.00782987 0.00783168 0.00783242 0.00782834 0.00783279 0.00783074 0.00782857 0.00783019 0.00783104 0.00782742 0.00783137 0.00782951 0.00782727 0.0078288 0.00782957 0.00782634 0.00783017 0.007828 0.00782631 0.00782759 0.00782814 0.00782523 0.00782855 0.00782721 0.00782538 0.00782649 0.00782682 0.00782427 0.00782761 0.00782618 0.00782433 0.00782528 0.00782579 0.00782347 0.00782584 0.00782506 0.00782345 0.00782429 0.00782447 0.00782206 0.0078251 0.00782373 0.00782231 0.00782328 0.00782348 0.00782125 0.00782399 0.00782272 0.00782138 0.00782209 0.00782205 0.00782056 0.00782273 0.00782183 0.0078204 0.00782114 0.00782114 0.00781969 0.00782185 0.00782096 0.0078198 0.00782036 0.00782039 0.00781868 0.00782091 0.00781985 0.00781883 0.00781938 0.00781933 0.0078181 0.00781977 0.00781914 0.00781822 0.00781858 0.00781868 0.00781742 0.00781875 0.00781848 0.00781751 0.00781787 0.0078177 0.00781657 0.00781791 0.00781766 0.00781698 0.00781701 0.0078171 0.00781596 0.00781716 0.00781697 0.00781636 0.00781662 0.00781613 0.00781568 0.00781642 0.00781629 0.00781555 0.00781579 0.00781569 0.00781539 0.00781594 0.00781583 0.00781514 0.00781514 0.00781515 0.00781465 0.0078153 0.00781498 0.0078145 0.00781465 0.00781446 0.0078141 0.00781461 0.00781472 0.00781412 0.0078144 0.00781399 0.00781371 0.00781423 0.00781428 0.00781368 0.00781375 0.00781379 0.00781372 0.00781406 0.00781377 0.00781363 0.00781354 0.00781324 0.00781315 0.0078136 0.00781351 0.00781323 0.00781304 0.00781308 0.00781291 0.00781293 0.00781329 0.007813 0.00781299 0.00781284 0.00781268 0.00781256 0.00781287 0.00781239 0.00781253 0.00781256 0.00781242 0.00781295 0.0078127 0.00781258 0.00781268 0.00781278 0.00781238 0.00781262 0.00781246 0.00781253 0.00781274 0.00781228 0.00781251 0.00781238 0.00781237 0.00781225 0.00781232 0.00786932 0.00786332 0.00790964 0.0078837 0.00786471 0.00787087 0.00784972 0.00784587 0.0078492 0.00785701 0.00784798 0.00785215 0.00784621 0.00784128 0.00784571 0.0078459 0.00784228 0.00784488 0.00784372 0.00783882 0.00784408 0.00784158 0.00783947 0.00784126 0.00784161 0.00783709 0.00784209 0.00783966 0.0078375 0.00783883 0.0078395 0.00783567 0.00783961 0.00783781 0.00783577 0.00783708 0.00783751 0.00783401 0.00783788 0.00783625 0.00783389 0.0078351 0.00783541 0.00783214 0.00783601 0.00783443 0.00783218 0.00783361 0.00783399 0.00783063 0.00783422 0.00783261 0.00783071 0.0078318 0.0078322 0.00782943 0.00783234 0.00783114 0.0078292 0.00783053 0.00783032 0.00782781 0.00783066 0.00782973 0.00782774 0.00782866 0.00782896 0.00782654 0.00782923 0.0078283 0.00782652 0.00782731 0.00782712 0.00782521 0.00782745 0.00782663 0.007825 0.00782579 0.00782542 0.00782399 0.00782592 0.0078253 0.00782404 0.00782456 0.00782432 0.00782282 0.00782486 0.00782389 0.00782281 0.00782346 0.00782299 0.00782167 0.00782328 0.00782285 0.00782116 0.00782182 0.00782193 0.00782065 0.00782225 0.00782163 0.00782065 0.00782087 0.00782053 0.00781973 0.00782111 0.00782037 0.00781974 0.00781969 0.00781958 0.00781866 0.00781973 0.0078198 0.0078184 0.00781913 0.00781821 0.00781794 0.00781904 0.00781838 0.00781774 0.00781812 0.00781762 0.00781706 0.0078179 0.00781764 0.00781711 0.00781693 0.0078169 0.00781619 0.00781675 0.00781693 0.00781591 0.00781617 0.00781627 0.00781581 0.00781626 0.00781585 0.00781551 0.00781561 0.00781504 0.00781469 0.0078152 0.00781538 0.00781485 0.00781498 0.00781477 0.00781423 0.00781466 0.00781433 0.00781451 0.00781428 0.00781392 0.0078141 0.0078144 0.00781434 0.00781372 0.00781402 0.00781377 0.00781356 0.00781357 0.00781324 0.00781345 0.00781345 0.00781338 0.00781298 0.00781298 0.0078133 0.00781315 0.00781315 0.00781315 0.00781277 0.00781266 0.00781275 0.00781293 0.00781288 0.00781259 0.00781284 0.00781243 0.00781251 0.00781263 0.00781255 0.00781248 0.0078123 0.00781249 0.00781241 0.0078124 0.0078124 0.00781271 0.00781255 0.00781268 0.00781225 0.00781225 0.0078127 0.00776964 0.00776396 0.00774446 0.00772526 0.00776515 0.00776125 0.00778115 0.0077801 0.00777715 0.0077809 0.00777834 0.00777824 0.00778503 0.00778192 0.00778534 0.00778466 0.00778096 0.00778219 0.00778639 0.00778328 0.00778671 0.00778523 0.00778251 0.00778398 0.00778756 0.00778442 0.00778772 0.00778618 0.00778425 0.00778555 0.00778927 0.00778596 0.00778947 0.0077875 0.00778631 0.00778775 0.0077908 0.00778757 0.0077905 0.00778919 0.00778793 0.00778928 0.00779223 0.00778946 0.00779215 0.00779067 0.00778985 0.00779093 0.00779409 0.00779139 0.00779378 0.00779235 0.00779192 0.00779289 0.00779557 0.00779316 0.00779529 0.00779403 0.00779365 0.00779432 0.00779688 0.00779476 0.0077966 0.00779555 0.00779507 0.00779597 0.00779843 0.00779628 0.00779832 0.00779741 0.00779692 0.00779769 0.00779995 0.0077979 0.00779975 0.00779822 0.00779814 0.0077992 0.00780113 0.00779938 0.00780102 0.00780004 0.00779974 0.00780051 0.00780247 0.00780127 0.00780211 0.00780135 0.00780105 0.00780196 0.00780365 0.00780225 0.00780326 0.00780235 0.00780259 0.00780319 0.00780447 0.00780331 0.00780456 0.00780342 0.0078036 0.00780444 0.00780551 0.00780469 0.00780536 0.00780494 0.00780513 0.0078055 0.00780651 0.00780567 0.00780662 0.00780592 0.00780591 0.00780642 0.00780738 0.00780687 0.00780735 0.00780649 0.0078068 0.00780716 0.00780823 0.00780758 0.00780817 0.0078079 0.00780771 0.00780813 0.0078088 0.00780831 0.00780889 0.00780861 0.00780894 0.00780885 0.00780966 0.0078092 0.00780961 0.00780923 0.00780938 0.00780957 0.00781042 0.00780986 0.0078103 0.00781003 0.00781007 0.00781032 0.00781061 0.00781057 0.00781046 0.00781018 0.00781066 0.00781074 0.00781099 0.0078118 0.00781131 0.00781091 0.00781127 0.00781122 0.00781145 0.0078116 0.00781131 0.00781104 0.00781148 0.00781183 0.00781211 0.00781195 0.0078119 0.00781165 0.00781209 0.00781203 0.00781211 0.00781235 0.00781219 0.00781193 0.00781189 0.00781212 0.00781262 0.00781256 0.00781236 0.00781191 0.00781243 0.00781249 0.00781273 0.00781244 0.00781245 0.00781273 0.0078125 0.00781226 0.00781259 0.00781268 0.00781227 0.00781247 0.00781218 0.00781249 0.00778296 0.00777907 0.00776733 0.00775439 0.00776492 0.00777221 0.00779014 0.00779071 0.00778485 0.00779063 0.00778488 0.00778689 0.00779303 0.0077915 0.00779251 0.00779395 0.00778972 0.00779115 0.00779451 0.00779196 0.00779491 0.00779421 0.00779126 0.00779267 0.00779554 0.0077926 0.00779599 0.00779437 0.00779232 0.00779379 0.00779651 0.00779353 0.0077966 0.00779505 0.00779346 0.0077949 0.00779746 0.00779425 0.00779774 0.00779582 0.00779486 0.00779598 0.00779878 0.00779581 0.00779856 0.00779697 0.00779603 0.00779715 0.00779962 0.00779701 0.00779955 0.00779828 0.00779735 0.00779844 0.00780085 0.00779828 0.00780072 0.00779919 0.00779881 0.00779967 0.0078019 0.00779962 0.00780165 0.00780052 0.00779981 0.00780067 0.00780296 0.00780088 0.00780282 0.00780158 0.00780104 0.00780182 0.00780377 0.00780187 0.00780351 0.00780229 0.00780204 0.00780296 0.00780459 0.0078033 0.00780441 0.00780339 0.00780321 0.00780371 0.00780543 0.0078041 0.00780543 0.00780438 0.00780415 0.0078049 0.00780629 0.0078046 0.00780625 0.00780537 0.0078054 0.00780557 0.00780687 0.00780582 0.00780705 0.00780618 0.00780581 0.00780676 0.0078079 0.00780668 0.00780771 0.00780689 0.00780696 0.00780736 0.00780831 0.00780761 0.00780811 0.00780779 0.00780788 0.00780822 0.007809 0.00780851 0.00780904 0.00780825 0.00780841 0.0078088 0.00780968 0.00780883 0.00780971 0.00780919 0.00780921 0.00780909 0.00780999 0.00780919 0.00780989 0.00780947 0.00780961 0.00780987 0.00781058 0.00781007 0.00781032 0.00780991 0.0078102 0.0078104 0.00781115 0.00781054 0.00781082 0.00781061 0.00781081 0.00781069 0.00781122 0.00781114 0.00781129 0.00781099 0.00781097 0.00781116 0.00781144 0.00781108 0.00781173 0.00781158 0.00781159 0.00781136 0.00781213 0.00781179 0.00781176 0.00781151 0.0078113 0.00781191 0.0078122 0.00781195 0.00781225 0.00781207 0.00781225 0.00781215 0.00781216 0.00781249 0.00781243 0.00781207 0.00781228 0.00781198 0.00781255 0.00781238 0.0078122 0.00781228 0.00781231 0.00781235 0.00781229 0.00781251 0.00781238 0.00781251 0.00781271 0.00781256 0.00781254 0.00781283 0.00781261 0.00781243 0.00781274 0.00781259 0.00779657 0.00779143 0.00778858 0.00777867 0.00778218 0.00778852 0.00780094 0.00779927 0.00779732 0.00779928 0.00779413 0.00779648 0.00780202 0.00779999 0.00780176 0.0078019 0.007798 0.0077995 0.00780264 0.00780009 0.00780307 0.00780206 0.00779942 0.00780071 0.00780336 0.00780002 0.00780349 0.007802 0.00780019 0.00780126 0.00780368 0.00780039 0.00780384 0.00780259 0.00780073 0.00780194 0.00780421 0.00780122 0.00780436 0.00780263 0.00780155 0.00780273 0.00780467 0.00780178 0.00780481 0.00780335 0.00780203 0.00780336 0.00780526 0.00780276 0.00780549 0.00780403 0.00780289 0.00780404 0.00780589 0.00780354 0.00780582 0.00780462 0.00780363 0.00780468 0.00780654 0.00780419 0.00780676 0.00780535 0.00780454 0.00780563 0.0078072 0.00780517 0.00780708 0.00780581 0.00780531 0.00780613 0.00780769 0.0078057 0.00780777 0.00780622 0.00780591 0.00780666 0.00780832 0.00780655 0.00780795 0.00780709 0.00780676 0.00780741 0.00780887 0.00780713 0.00780864 0.00780766 0.0078071 0.00780791 0.00780906 0.0078078 0.00780912 0.00780842 0.00780789 0.00780854 0.00780956 0.00780851 0.00780935 0.00780897 0.00780848 0.00780878 0.0078099 0.00780892 0.00780992 0.00780907 0.00780924 0.00780957 0.00781021 0.00780933 0.00781025 0.00780969 0.00780942 0.00780983 0.00781057 0.00780982 0.00781037 0.00780998 0.00780993 0.00781012 0.00781087 0.00780996 0.00781067 0.00781022 0.00781033 0.00781087 0.00781139 0.00781088 0.00781143 0.00781091 0.00781063 0.00781098 0.00781146 0.00781063 0.00781136 0.00781066 0.00781101 0.00781135 0.00781162 0.00781136 0.00781159 0.00781132 0.0078113 0.00781135 0.00781222 0.0078113 0.00781162 0.0078116 0.0078117 0.00781175 0.00781188 0.00781205 0.00781188 0.00781169 0.00781156 0.00781187 0.00781195 0.00781201 0.00781211 0.00781206 0.0078121 0.00781236 0.00781244 0.00781232 0.00781221 0.00781172 0.00781216 0.00781215 0.00781227 0.00781279 0.00781263 0.00781225 0.00781244 0.00781228 0.00781224 0.00781238 0.00781251 0.00781227 0.0078123 0.00781239 0.00781258 0.00781219 0.00781261 0.00781255 0.00781246 0.00781264 0.00781288 0.00781289 0.00781256 0.00781259 0.00781226 0.00781257 0.00781139 0.00780437 0.00780887 0.00780218 0.00779888 0.00780416 0.00781128 0.00780735 0.0078102 0.00780817 0.00780478 0.00780681 0.00781082 0.00780751 0.00781088 0.00780937 0.0078066 0.0078079 0.0078106 0.00780734 0.00781096 0.0078091 0.00780736 0.00780854 0.00781061 0.0078072 0.00781097 0.0078093 0.00780763 0.00780899 0.00781058 0.00780754 0.00781111 0.00780961 0.00780772 0.00780913 0.00781075 0.00780799 0.00781111 0.00780953 0.00780807 0.0078092 0.00781094 0.00780783 0.00781131 0.0078096 0.00780822 0.00780953 0.00781121 0.00780849 0.00781104 0.00780984 0.0078085 0.00780966 0.00781124 0.00780874 0.00781123 0.00780999 0.00780889 0.00781022 0.00781123 0.00780906 0.0078115 0.00781025 0.00780925 0.00781038 0.00781149 0.00780959 0.00781172 0.00781061 0.0078097 0.00781034 0.00781141 0.00781001 0.00781159 0.0078106 0.00780992 0.00781045 0.00781172 0.00780996 0.00781175 0.00781104 0.00781028 0.00781084 0.00781181 0.00781051 0.00781197 0.00781098 0.00781071 0.00781118 0.00781222 0.00781052 0.00781218 0.00781135 0.00781069 0.00781125 0.00781201 0.00781056 0.00781209 0.00781123 0.00781117 0.00781141 0.00781209 0.00781095 0.00781233 0.00781151 0.00781106 0.00781173 0.00781207 0.0078113 0.0078122 0.0078114 0.00781141 0.00781193 0.00781223 0.00781132 0.00781219 0.00781181 0.00781148 0.00781161 0.00781214 0.0078116 0.00781213 0.00781199 0.00781191 0.00781186 0.00781211 0.00781183 0.00781248 0.00781186 0.00781178 0.00781212 0.00781248 0.00781191 0.00781255 0.00781206 0.00781182 0.00781224 0.00781256 0.00781194 0.00781234 0.00781223 0.00781211 0.00781243 0.00781228 0.00781192 0.00781238 0.0078121 0.00781237 0.00781217 0.00781237 0.00781226 0.00781252 0.00781254 0.00781242 0.00781257 0.00781199 0.00781203 0.00781249 0.00781235 0.00781216 0.00781243 0.00781243 0.00781241 0.0078126 0.00781265 0.00781262 0.00781247 0.0078126 0.00781261 0.00781209 0.00781244 0.00781257 0.00781258 0.00781226 0.00781248 0.00781238 0.0078125 0.0078127 0.00781256 0.00781227 0.00781237 0.00781229 0.00781241 0.00781233 0.00781265 0.00781276 0.00781207 0.00781237 0.00781242 0.00781286 0.00781206 0.00782624 0.00781656 0.0078291 0.00782502 0.00781541 0.00781925 0.00782126 0.00781548 0.00782254 0.00781742 0.00781512 0.00781704 0.00781933 0.00781496 0.00782 0.00781658 0.00781519 0.00781668 0.00781843 0.00781448 0.00781901 0.00781644 0.00781499 0.00781634 0.00781814 0.00781474 0.00781831 0.00781643 0.00781456 0.00781645 0.00781793 0.00781429 0.00781837 0.00781612 0.00781442 0.00781609 0.00781751 0.00781445 0.00781775 0.00781595 0.00781439 0.00781597 0.0078172 0.00781445 0.00781756 0.0078158 0.00781422 0.00781563 0.00781696 0.00781414 0.00781699 0.00781542 0.00781429 0.00781537 0.00781659 0.00781389 0.00781684 0.00781535 0.00781397 0.00781515 0.00781633 0.00781396 0.00781664 0.00781511 0.00781379 0.00781499 0.00781609 0.00781386 0.0078164 0.007815 0.00781395 0.00781457 0.00781566 0.00781384 0.00781586 0.00781475 0.00781377 0.00781463 0.00781532 0.00781357 0.00781542 0.00781462 0.00781385 0.00781435 0.00781483 0.00781357 0.00781509 0.00781424 0.00781368 0.00781426 0.00781493 0.00781326 0.00781491 0.00781404 0.00781362 0.00781413 0.00781476 0.00781323 0.00781466 0.00781407 0.00781332 0.00781389 0.00781449 0.00781333 0.00781466 0.00781384 0.00781321 0.00781343 0.00781397 0.00781328 0.00781422 0.00781389 0.00781324 0.00781357 0.00781371 0.00781318 0.00781415 0.00781359 0.00781314 0.00781326 0.00781363 0.00781328 0.00781363 0.00781326 0.00781322 0.00781319 0.00781344 0.00781295 0.00781373 0.00781337 0.00781298 0.0078131 0.00781345 0.0078129 0.00781327 0.00781308 0.00781264 0.00781291 0.0078134 0.0078126 0.00781312 0.00781304 0.00781278 0.00781297 0.00781284 0.00781269 0.00781295 0.00781277 0.00781278 0.00781291 0.0078129 0.00781278 0.00781311 0.00781279 0.00781276 0.00781289 0.00781284 0.00781274 0.00781284 0.0078128 0.00781238 0.00781289 0.00781263 0.00781292 0.00781277 0.00781281 0.00781272 0.00781272 0.0078126 0.00781276 0.00781251 0.00781249 0.00781281 0.00781274 0.0078128 0.00781266 0.00781281 0.00781272 0.00781262 0.0078125 0.00781238 0.00781242 0.00781239 0.00781248 0.00781224 0.00781241 0.00781217 0.00781254 0.00781246 0.00781229 0.00781272 0.00781261 0.00784131 0.00782873 0.00785016 0.00784743 0.00783161 0.00783451 0.00783092 0.00782354 0.00783493 0.00782633 0.00782577 0.00782748 0.00782766 0.00782225 0.00782874 0.00782422 0.0078236 0.00782529 0.00782619 0.00782207 0.00782659 0.00782382 0.00782238 0.0078242 0.00782561 0.00782177 0.00782551 0.00782371 0.00782201 0.00782335 0.00782484 0.0078215 0.00782511 0.0078232 0.00782145 0.00782291 0.00782407 0.00782104 0.00782444 0.00782273 0.00782091 0.00782228 0.00782335 0.0078204 0.00782383 0.00782204 0.00782039 0.0078216 0.00782268 0.00781971 0.0078229 0.00782141 0.00781965 0.00782081 0.00782169 0.00781936 0.00782184 0.00782056 0.00781936 0.00782025 0.00782113 0.00781887 0.00782128 0.00782003 0.00781863 0.00781966 0.00782025 0.00781825 0.0078206 0.00781956 0.00781803 0.007819 0.0078196 0.00781777 0.00781991 0.00781881 0.0078177 0.00781826 0.00781881 0.00781694 0.00781918 0.00781817 0.00781727 0.00781782 0.00781833 0.00781688 0.00781872 0.00781761 0.00781682 0.00781734 0.00781757 0.00781637 0.00781788 0.00781715 0.00781609 0.00781669 0.00781676 0.00781584 0.00781723 0.00781649 0.00781608 0.00781625 0.00781641 0.00781558 0.00781684 0.00781613 0.00781534 0.00781573 0.00781579 0.00781509 0.00781618 0.00781568 0.00781504 0.00781524 0.00781531 0.00781483 0.00781567 0.00781554 0.00781439 0.00781493 0.00781488 0.00781414 0.0078153 0.00781483 0.00781454 0.00781481 0.00781439 0.00781393 0.00781438 0.00781465 0.00781417 0.00781436 0.00781413 0.00781388 0.00781447 0.00781394 0.00781367 0.00781402 0.0078138 0.00781367 0.00781432 0.00781368 0.00781386 0.00781362 0.00781349 0.0078134 0.00781392 0.00781381 0.00781319 0.00781315 0.00781314 0.00781351 0.00781351 0.00781313 0.00781345 0.00781309 0.00781308 0.007813 0.00781314 0.0078136 0.00781304 0.00781295 0.00781301 0.00781319 0.00781298 0.00781273 0.00781285 0.00781275 0.0078126 0.00781263 0.00781273 0.00781268 0.00781282 0.00781276 0.00781259 0.00781259 0.00781271 0.00781256 0.00781268 0.00781261 0.00781257 0.00781236 0.00781285 0.00781255 0.00781214 0.00781269 0.00781236 0.00781246 0.00781235 0.00781241 0.00781216 0.00781256 0.00785548 0.00784093 0.00787344 0.00786994 0.00784726 0.00784962 0.00783951 0.00783205 0.00784618 0.00783525 0.00783575 0.007838 0.00783569 0.00783001 0.0078366 0.00783188 0.0078315 0.00783386 0.00783416 0.00782951 0.00783411 0.00783121 0.00782996 0.00783216 0.00783296 0.00782894 0.00783295 0.00783109 0.00782923 0.00783101 0.00783175 0.00782807 0.00783213 0.00783013 0.00782822 0.00782972 0.00783055 0.00782728 0.00783104 0.00782953 0.00782726 0.00782855 0.00782944 0.00782645 0.0078301 0.0078283 0.00782621 0.00782776 0.00782824 0.00782535 0.00782855 0.00782722 0.00782534 0.0078263 0.0078269 0.00782442 0.00782724 0.00782613 0.00782419 0.00782523 0.00782573 0.00782341 0.00782628 0.0078249 0.00782333 0.00782426 0.00782449 0.00782236 0.00782506 0.00782388 0.00782227 0.0078232 0.0078235 0.00782152 0.00782381 0.00782283 0.00782149 0.00782248 0.00782244 0.00782087 0.00782291 0.00782166 0.00782068 0.00782137 0.00782108 0.00781986 0.00782187 0.00782098 0.00781976 0.00782022 0.00782035 0.00781909 0.00782052 0.00781992 0.0078188 0.00781946 0.00781963 0.00781836 0.00782015 0.00781911 0.00781832 0.00781878 0.00781865 0.00781766 0.00781878 0.0078186 0.00781733 0.00781784 0.00781788 0.00781693 0.00781808 0.00781761 0.00781675 0.00781724 0.00781717 0.00781641 0.00781742 0.00781667 0.00781601 0.00781669 0.0078163 0.00781611 0.00781688 0.0078163 0.00781556 0.00781606 0.00781589 0.00781526 0.0078159 0.00781553 0.00781551 0.00781536 0.00781487 0.00781478 0.00781521 0.00781526 0.00781462 0.00781463 0.00781465 0.00781452 0.00781471 0.00781484 0.00781414 0.00781453 0.00781416 0.00781404 0.00781438 0.00781417 0.00781392 0.00781387 0.00781385 0.00781351 0.00781431 0.00781415 0.00781336 0.00781379 0.00781311 0.00781324 0.00781322 0.00781355 0.00781315 0.00781316 0.00781321 0.00781318 0.00781343 0.00781324 0.00781336 0.00781337 0.0078129 0.0078131 0.00781267 0.00781314 0.00781304 0.00781286 0.00781275 0.00781295 0.00781266 0.00781273 0.00781262 0.00781284 0.00781275 0.00781265 0.00781252 0.0078128 0.00781251 0.00781245 0.00781248 0.00781259 0.00781216 0.00781214 0.00781254 0.00781242 0.00786489 0.00785337 0.00790184 0.00788812 0.00786115 0.00786558 0.00784602 0.00783964 0.00784544 0.00784489 0.00784408 0.00784726 0.00784373 0.00783773 0.00784274 0.00784006 0.00783945 0.00784176 0.0078424 0.00783714 0.0078424 0.0078395 0.00783752 0.00783961 0.0078409 0.00783644 0.00784115 0.00783853 0.00783636 0.00783825 0.0078388 0.00783536 0.00783952 0.00783724 0.00783494 0.00783641 0.00783737 0.00783377 0.00783785 0.00783576 0.00783358 0.00783522 0.00783554 0.00783239 0.00783617 0.00783439 0.00783204 0.00783345 0.00783385 0.00783091 0.00783441 0.00783254 0.00783078 0.00783207 0.00783226 0.00782952 0.00783251 0.00783137 0.00782932 0.00783051 0.00783054 0.00782803 0.00783102 0.00782946 0.00782789 0.00782876 0.00782875 0.00782678 0.00782936 0.00782823 0.00782669 0.00782735 0.00782743 0.0078254 0.00782752 0.00782668 0.00782531 0.00782613 0.007826 0.00782416 0.00782603 0.0078254 0.00782396 0.00782451 0.00782434 0.00782327 0.00782475 0.00782404 0.00782276 0.00782337 0.00782319 0.00782173 0.00782341 0.0078228 0.00782195 0.00782203 0.00782187 0.00782068 0.00782223 0.00782192 0.00782037 0.00782081 0.00782091 0.00781956 0.00782096 0.00782047 0.00781985 0.00781989 0.00781972 0.00781883 0.00781966 0.00781925 0.00781857 0.00781895 0.00781838 0.00781801 0.00781891 0.00781831 0.0078177 0.00781775 0.00781768 0.00781731 0.0078181 0.0078179 0.0078172 0.00781714 0.00781666 0.00781637 0.00781682 0.00781651 0.00781626 0.00781652 0.00781582 0.00781558 0.00781595 0.00781611 0.00781523 0.00781584 0.00781532 0.00781486 0.00781545 0.00781518 0.00781495 0.00781498 0.00781436 0.00781476 0.00781519 0.00781446 0.00781432 0.00781458 0.00781405 0.00781424 0.00781441 0.00781428 0.00781398 0.00781402 0.00781353 0.00781361 0.00781372 0.00781367 0.00781356 0.00781376 0.00781321 0.00781334 0.00781385 0.00781338 0.00781308 0.00781296 0.00781301 0.00781323 0.00781287 0.00781284 0.00781308 0.00781315 0.00781297 0.00781259 0.00781267 0.00781264 0.00781261 0.00781272 0.00781272 0.00781211 0.00781241 0.00781248 0.00781247 0.00781274 0.00781271 0.00781246 0.00781236 0.00781253 0.0078122 0.00781248 
